# vtk DataFile Version 3.0
vtk output at time 0
ASCII
DATASET UNSTRUCTURED_GRID
POINTS 626 float
-3.68058e-05 0.000978749 0 3.68058e-05 0.000978749 0 -0.000829194 0.00052125 0 
-0.0008235 0.0005 0 -0.000866 0.0004575 0 -0.000866 -0.0004575 0 
-0.0008235 -0.0005 0 -0.000829194 -0.00052125 0 -3.68058e-05 -0.000978749 0 
3.68058e-05 -0.000978749 0 0.000829194 -0.00052125 0 0.000866 -0.0004575 0 
0.000866 0.0004575 0 0.000829194 0.00052125 0 8.5e-05 0 0 
-3.68058e-05 0.000978749 -0.001 3.68058e-05 0.000978749 -0.001 -0.000829194 0.00052125 -0.001 
-0.0008235 0.0005 -0.001 -0.000866 0.0004575 -0.001 -0.000866 -0.0004575 -0.001 
-0.0008235 -0.0005 -0.001 -0.000829194 -0.00052125 -0.001 -3.68058e-05 -0.000978749 -0.001 
3.68058e-05 -0.000978749 -0.001 0.000829194 -0.00052125 -0.001 0.000866 -0.0004575 -0.001 
0.000866 0.0004575 -0.001 0.000829194 0.00052125 -0.001 8.5e-05 0 -0.001 
8.46223e-17 0.0009575 0 -0.000715996 0.000586607 0 -0.000602797 0.000651965 0 
-0.000489599 0.000717321 0 -0.000376401 0.000782678 0 -0.000263202 0.000848036 0 
-0.000150004 0.000913393 0 -0.000835948 0.000469948 0 -0.000866 -0.000326786 0 
-0.000866 -0.000196071 0 -0.000866 -6.53571e-05 0 -0.000866 6.53571e-05 0 
-0.000866 0.000196071 0 -0.000866 0.000326786 0 -0.000835948 -0.000469948 0 
-0.000150004 -0.000913393 0 -0.000263202 -0.000848036 0 -0.000376401 -0.000782678 0 
-0.000489599 -0.000717321 0 -0.000602797 -0.000651965 0 -0.000715996 -0.000586607 0 
8.47648e-17 -0.0009575 0 0.000715996 -0.000586607 0 0.000602797 -0.000651965 0 
0.000489599 -0.000717321 0 0.000376401 -0.000782678 0 0.000263202 -0.000848036 0 
0.000150004 -0.000913393 0 0.000829194 -0.00047875 0 0.000866 0.000326786 0 
0.000866 0.000196071 0 0.000866 6.53571e-05 0 0.000866 -6.53571e-05 0 
0.000866 -0.000196071 0 0.000866 -0.000326786 0 0.000829194 0.00047875 0 
0.000150004 0.000913393 0 0.000263202 0.000848036 0 0.000376401 0.000782678 0 
0.000489599 0.000717321 0 0.000602797 0.000651965 0 0.000715996 0.000586607 0 
5.29966e-05 6.64557e-05 0 -1.89143e-05 8.28689e-05 0 -7.65824e-05 3.68801e-05 0 
-7.65824e-05 -3.68801e-05 0 -1.89143e-05 -8.28689e-05 0 5.29966e-05 -6.64557e-05 0 
8.46223e-17 0.0009575 -0.001 -0.000715996 0.000586607 -0.001 -0.000602797 0.000651965 -0.001 
-0.000489599 0.000717321 -0.001 -0.000376401 0.000782678 -0.001 -0.000263202 0.000848036 -0.001 
-0.000150004 0.000913393 -0.001 -0.000835948 0.000469948 -0.001 -0.000866 -0.000326786 -0.001 
-0.000866 -0.000196071 -0.001 -0.000866 -6.53571e-05 -0.001 -0.000866 6.53571e-05 -0.001 
-0.000866 0.000196071 -0.001 -0.000866 0.000326786 -0.001 -0.000835948 -0.000469948 -0.001 
-0.000150004 -0.000913393 -0.001 -0.000263202 -0.000848036 -0.001 -0.000376401 -0.000782678 -0.001 
-0.000489599 -0.000717321 -0.001 -0.000602797 -0.000651965 -0.001 -0.000715996 -0.000586607 -0.001 
8.47648e-17 -0.0009575 -0.001 0.000715996 -0.000586607 -0.001 0.000602797 -0.000651965 -0.001 
0.000489599 -0.000717321 -0.001 0.000376401 -0.000782678 -0.001 0.000263202 -0.000848036 -0.001 
0.000150004 -0.000913393 -0.001 0.000829194 -0.00047875 -0.001 0.000866 0.000326786 -0.001 
0.000866 0.000196071 -0.001 0.000866 6.53571e-05 -0.001 0.000866 -6.53571e-05 -0.001 
0.000866 -0.000196071 -0.001 0.000866 -0.000326786 -0.001 0.000829194 0.00047875 -0.001 
0.000150004 0.000913393 -0.001 0.000263202 0.000848036 -0.001 0.000376401 0.000782678 -0.001 
0.000489599 0.000717321 -0.001 0.000602797 0.000651965 -0.001 0.000715996 0.000586607 -0.001 
5.29966e-05 6.64557e-05 -0.001 -1.89143e-05 8.28689e-05 -0.001 -7.65824e-05 3.68801e-05 -0.001 
-7.65824e-05 -3.68801e-05 -0.001 -1.89143e-05 -8.28689e-05 -0.001 5.29966e-05 -6.64557e-05 -0.001 
0.000131234 6.38474e-05 0 0.00012964 -6.2443e-05 0 3.13827e-05 0.0001394 0 
3.12554e-05 -0.000136939 0 -0.000140461 8.25467e-19 0 -8.90565e-05 -0.000102707 0 
-9.04142e-05 0.000102872 0 -0.000765769 -0.00025965 0 -0.000756873 0.000262774 0 
-0.00015609 0.000787505 0 -0.000155807 -0.00079355 0 0.000605069 0.000528035 0 
0.000608694 -0.00052497 0 0.000744069 0.000116929 0 -0.000494418 0.000596218 0 
-0.000483866 -0.000584648 0 0.000269496 0.000702219 0 0.000263201 -0.000717324 0 
0.000754429 -0.000127825 0 -0.000748858 5.84659e-07 0 -0.000747838 0.000373886 0 
-0.0006542 0.000324842 0 -0.000645137 0.000210123 0 -0.000550884 0.000274171 0 
-0.000538857 0.000163195 0 -0.00045062 0.000224461 0 -0.000438393 0.000123907 0 
-0.000354088 0.000181668 0 -0.000363908 0.000282171 0 -0.000270361 0.000239477 0 
-0.000279138 0.000337653 0 -0.000188888 0.000294791 0 -0.000196448 0.000393271 0 
-0.000104767 0.000348259 0 -0.000113332 0.000449012 0 -2.01066e-05 0.000403223 0 
-2.89189e-05 0.000507105 0 6.9524e-05 0.000461596 0 -0.000213644 0.000490203 0 
7.33757e-05 0.000357726 0 0.000163331 0.00041299 0 0.000163359 0.000313022 0 
0.000248077 0.000366368 0 0.000250914 0.000265758 0 0.000335709 0.000322266 0 
0.000340555 0.000218148 0 0.000427299 0.000276717 0 0.000431508 0.000173093 0 
0.000328731 0.000425633 0 0.00034586 0.000114823 0 0.000435362 7.05241e-05 0 
0.000350892 1.5455e-05 0 0.000441547 -3.11896e-05 0 0.000353547 -8.47783e-05 0 
0.000445767 -0.000132964 0 0.000356135 -0.000186358 0 0.000449094 -0.000234674 0 
0.000359978 -0.000287876 0 0.00026856 -0.000240545 0 0.000271895 -0.000341045 0 
0.000181792 -0.00029305 0 0.00018533 -0.000392851 0 9.75701e-05 -0.00034483 0 
9.98764e-05 -0.000444884 0 8.75116e-06 -0.000396343 0 1.20916e-05 -0.000500496 0 
-7.83929e-05 -0.000449843 0 -8.1471e-05 -0.000347249 0 -0.000171566 -0.000403733 0 
-0.000169889 -0.000298891 0 -0.000259867 -0.000354132 0 -0.000257696 -0.000249137 0 
-0.00034313 -0.000299896 0 -0.000344514 -0.000199127 0 -0.000434309 -0.000250039 0 
-0.000169832 -0.000505815 0 -0.000435227 -0.000146227 0 0.000280331 -0.000442424 0 
-0.000340889 8.76793e-05 0 -0.000515252 4.06198e-05 0 6.50491e-05 0.000568253 0 
0.00053278 1.74743e-05 0 0.000522071 0.000229831 0 -0.00037162 0.000391659 0 
-0.000255272 -0.000150439 0 -0.000442893 -0.000350705 0 0.000450067 -0.000332559 0 
0.000545175 -0.000276306 0 -0.000527797 -0.000197598 0 0.000105306 -0.000551033 0 
1.45836e-05 -0.000609147 0 0.00017145 0.000214453 0 0.000515525 0.000341711 0 
0.000636086 0.000290368 0 -0.000558657 0.000404468 0 -4.01232e-05 0.000616718 0 
6.60192e-05 0.000696422 0 -0.000101806 0.0002546 0 0.000271142 -3.88908e-05 0 
0.000179455 -0.00018534 0 -8.79553e-05 -0.000254307 0 -0.000749267 -0.000373451 0 
-0.000655941 -0.000323397 0 0.000709746 0.000466718 0 0.000698426 -0.000473086 0 
-5.25801e-05 -0.00084886 0 -4.93005e-05 0.000848038 0 0.000617396 -0.000413362 0 
0.000702056 -0.000369817 0 0.000131459 -0.000679171 0 2.48171e-05 -0.000715924 0 
-0.000664217 -0.00042729 0 -0.000528828 -8.80444e-05 0 -0.000611101 -0.000136672 0 
-0.000426972 -4.45841e-05 0 0.000800669 0.000378216 0 0.000821144 -0.000415062 0 
7.2799e-05 0.00088254 0 6.81831e-05 -0.00087503 0 0.000104963 -0.000788946 0 
-7.40696e-05 -0.000660054 0 0.000126061 0.000809943 0 0.000764361 0.000295682 0 
0.000166862 0.000630623 0 0.000516462 -0.00046707 0 -0.000563585 -0.000389606 0 
-0.000622598 -1.40238e-05 0 0.000629891 0.000171529 0 2.5614e-06 -0.000299794 0 
8.6901e-05 -0.00024329 0 0.000272045 -0.000136982 0 -0.00075148 0.000138321 0 
0.000209366 -0.000599589 0 0.000324913 -0.000630055 0 0.000614044 0.00041245 0 
0.00049651 -0.000573327 0 0.000394822 -0.000507321 0 -0.000173714 -0.000206698 0 
0.000264897 5.63722e-05 0 0.000247997 0.000152811 0 -4.63327e-05 -0.000920208 0 
9.18688e-05 0.000258626 0 -5.54111e-06 0.000290558 0 -0.000184219 0.000201484 0 
-0.000263559 0.000142267 0 -0.000256427 5.13624e-05 0 -0.000336894 -2.06179e-06 0 
-0.000228499 -4.2388e-05 0 -0.00017589 0.000106626 0 -0.000769947 -0.000133367 0 
0.000767591 -0.000500293 0 -5.05874e-05 0.000737978 0 0.000754456 -3.51771e-06 0 
0.00064691 -6.15298e-05 0 0.000630483 -0.00018134 0 0.000749187 -0.000265543 0 
-0.000760805 -0.000462521 0 0.000638155 6.09315e-05 0 -4.46661e-05 0.000922995 0 
-2.37945e-05 0.000207237 0 0.000776979 0.000500181 0 -0.000605691 0.000527596 0 
-0.000377914 -0.000653727 0 -0.000372325 -0.000526022 0 -0.000275829 -0.000589621 0 
-0.000254285 -0.000710579 0 -0.000379307 0.000656222 0 -0.000379818 0.00052718 0 
-0.000266817 0.000721555 0 -0.000150544 0.000668174 0 0.000381963 0.00065079 0 
0.000493113 0.000590432 0 0.000505439 0.000463708 0 -0.000269094 0.000596608 0 
0.000385815 0.000532045 0 0.000283599 0.0005899 0 -0.000176405 -0.000108505 0 
-0.000278769 -0.000475415 0 0.000185395 2.33014e-06 0 0.000186773 0.000517571 0 
0.000540032 -8.68444e-05 0 -0.000600694 -0.000514877 0 -0.00063703 8.98033e-05 0 
-0.000459677 0.000335729 0 -0.000338836 -0.000100751 0 -0.000457327 0.000432721 0 
-8.72007e-06 -0.000210238 0 0.000156073 0.000129496 0 -7.70692e-05 -0.000555049 0 
0.00036091 -0.000389728 0 0.000531628 0.000120564 0 -0.000285451 0.000435562 0 
0.000192719 -0.000494604 0 0.00041642 0.00039368 0 -0.000135943 0.000554637 0 
-0.000170665 -0.000610079 0 -0.000666304 0.000434981 0 -0.000758736 0.000479231 0 
-0.000470189 -0.000458901 0 0.000203433 -8.59809e-05 0 0.000101846 0.000170114 0 
-0.00035513 -0.00040726 0 0.000100184 -0.000165831 0 2.96286e-05 0.00081537 0 
0.000720946 0.000381836 0 -0.000539809 -0.000292001 0 0.00052211 -0.000182426 0 
-6.41339e-05 -0.000753908 0 0.000638039 -0.000299861 0 -0.000605136 -0.000230182 0 
-3.41638e-05 -0.000145561 0 -0.000104037 0.000172396 0 -0.000808575 -0.00042774 0 
-0.000807207 -0.000465052 0 -0.00080817 0.000429771 0 -0.000806589 0.000469738 0 
-9.50634e-05 -0.000178909 0 0.000247777 0.000445058 0 1.48293e-05 -0.000814201 0 
-4.11555e-05 0.000140955 0 0.000276104 -0.000536845 0 0.000765969 -0.000436638 0 
0.000780871 -0.000362769 0 0.000424176 -0.000642018 0 0.00053413 -0.000368009 0 
-0.000416333 4.17911e-05 0 -0.000133891 -6.23822e-05 0 4.2574e-05 0.000206312 0 
0.000141163 -0.000121542 0 0.000707423 0.000212137 0 0.000172327 0.000723882 0 
7.72652e-06 -0.00090254 0 -0.000134435 5.66935e-05 0 -0.000188826 3.70894e-05 0 
0.000197119 8.09714e-05 0 1.27801e-05 0.000917296 0 0.000800767 0.00044758 0 
-0.000686682 0.000507104 0 9.35831e-05 0.000110457 0 -0.000696793 -0.000509595 0 
-0.00068446 -8.52012e-05 0 -0.000691033 -0.000201242 0 5.24052e-05 -0.000189075 0 
-0.000151818 -0.000701092 0 -0.000296988 0.000518087 0 9.31023e-05 -0.000108117 0 
0.00044261 -0.000416726 0 0.000197044 -0.000784423 0 -0.000516861 0.000504567 0 
0.000298997 0.000502377 0 0.000131234 6.38474e-05 -0.001 0.00012964 -6.2443e-05 -0.001 
3.13827e-05 0.0001394 -0.001 3.12554e-05 -0.000136939 -0.001 -0.000140461 8.25467e-19 -0.001 
-8.90565e-05 -0.000102707 -0.001 -9.04142e-05 0.000102872 -0.001 -0.000765769 -0.00025965 -0.001 
-0.000756873 0.000262774 -0.001 -0.00015609 0.000787505 -0.001 -0.000155807 -0.00079355 -0.001 
0.000605069 0.000528035 -0.001 0.000608694 -0.00052497 -0.001 0.000744069 0.000116929 -0.001 
-0.000494418 0.000596218 -0.001 -0.000483866 -0.000584648 -0.001 0.000269496 0.000702219 -0.001 
0.000263201 -0.000717324 -0.001 0.000754429 -0.000127825 -0.001 -0.000748858 5.84659e-07 -0.001 
-0.000747838 0.000373886 -0.001 -0.0006542 0.000324842 -0.001 -0.000645137 0.000210123 -0.001 
-0.000550884 0.000274171 -0.001 -0.000538857 0.000163195 -0.001 -0.00045062 0.000224461 -0.001 
-0.000438393 0.000123907 -0.001 -0.000354088 0.000181668 -0.001 -0.000363908 0.000282171 -0.001 
-0.000270361 0.000239477 -0.001 -0.000279138 0.000337653 -0.001 -0.000188888 0.000294791 -0.001 
-0.000196448 0.000393271 -0.001 -0.000104767 0.000348259 -0.001 -0.000113332 0.000449012 -0.001 
-2.01066e-05 0.000403223 -0.001 -2.89189e-05 0.000507105 -0.001 6.9524e-05 0.000461596 -0.001 
-0.000213644 0.000490203 -0.001 7.33757e-05 0.000357726 -0.001 0.000163331 0.00041299 -0.001 
0.000163359 0.000313022 -0.001 0.000248077 0.000366368 -0.001 0.000250914 0.000265758 -0.001 
0.000335709 0.000322266 -0.001 0.000340555 0.000218148 -0.001 0.000427299 0.000276717 -0.001 
0.000431508 0.000173093 -0.001 0.000328731 0.000425633 -0.001 0.00034586 0.000114823 -0.001 
0.000435362 7.05241e-05 -0.001 0.000350892 1.5455e-05 -0.001 0.000441547 -3.11896e-05 -0.001 
0.000353547 -8.47783e-05 -0.001 0.000445767 -0.000132964 -0.001 0.000356135 -0.000186358 -0.001 
0.000449094 -0.000234674 -0.001 0.000359978 -0.000287876 -0.001 0.00026856 -0.000240545 -0.001 
0.000271895 -0.000341045 -0.001 0.000181792 -0.00029305 -0.001 0.00018533 -0.000392851 -0.001 
9.75701e-05 -0.00034483 -0.001 9.98764e-05 -0.000444884 -0.001 8.75116e-06 -0.000396343 -0.001 
1.20916e-05 -0.000500496 -0.001 -7.83929e-05 -0.000449843 -0.001 -8.1471e-05 -0.000347249 -0.001 
-0.000171566 -0.000403733 -0.001 -0.000169889 -0.000298891 -0.001 -0.000259867 -0.000354132 -0.001 
-0.000257696 -0.000249137 -0.001 -0.00034313 -0.000299896 -0.001 -0.000344514 -0.000199127 -0.001 
-0.000434309 -0.000250039 -0.001 -0.000169832 -0.000505815 -0.001 -0.000435227 -0.000146227 -0.001 
0.000280331 -0.000442424 -0.001 -0.000340889 8.76793e-05 -0.001 -0.000515252 4.06198e-05 -0.001 
6.50491e-05 0.000568253 -0.001 0.00053278 1.74743e-05 -0.001 0.000522071 0.000229831 -0.001 
-0.00037162 0.000391659 -0.001 -0.000255272 -0.000150439 -0.001 -0.000442893 -0.000350705 -0.001 
0.000450067 -0.000332559 -0.001 0.000545175 -0.000276306 -0.001 -0.000527797 -0.000197598 -0.001 
0.000105306 -0.000551033 -0.001 1.45836e-05 -0.000609147 -0.001 0.00017145 0.000214453 -0.001 
0.000515525 0.000341711 -0.001 0.000636086 0.000290368 -0.001 -0.000558657 0.000404468 -0.001 
-4.01232e-05 0.000616718 -0.001 6.60192e-05 0.000696422 -0.001 -0.000101806 0.0002546 -0.001 
0.000271142 -3.88908e-05 -0.001 0.000179455 -0.00018534 -0.001 -8.79553e-05 -0.000254307 -0.001 
-0.000749267 -0.000373451 -0.001 -0.000655941 -0.000323397 -0.001 0.000709746 0.000466718 -0.001 
0.000698426 -0.000473086 -0.001 -5.25801e-05 -0.00084886 -0.001 -4.93005e-05 0.000848038 -0.001 
0.000617396 -0.000413362 -0.001 0.000702056 -0.000369817 -0.001 0.000131459 -0.000679171 -0.001 
2.48171e-05 -0.000715924 -0.001 -0.000664217 -0.00042729 -0.001 -0.000528828 -8.80444e-05 -0.001 
-0.000611101 -0.000136672 -0.001 -0.000426972 -4.45841e-05 -0.001 0.000800669 0.000378216 -0.001 
0.000821144 -0.000415062 -0.001 7.2799e-05 0.00088254 -0.001 6.81831e-05 -0.00087503 -0.001 
0.000104963 -0.000788946 -0.001 -7.40696e-05 -0.000660054 -0.001 0.000126061 0.000809943 -0.001 
0.000764361 0.000295682 -0.001 0.000166862 0.000630623 -0.001 0.000516462 -0.00046707 -0.001 
-0.000563585 -0.000389606 -0.001 -0.000622598 -1.40238e-05 -0.001 0.000629891 0.000171529 -0.001 
2.5614e-06 -0.000299794 -0.001 8.6901e-05 -0.00024329 -0.001 0.000272045 -0.000136982 -0.001 
-0.00075148 0.000138321 -0.001 0.000209366 -0.000599589 -0.001 0.000324913 -0.000630055 -0.001 
0.000614044 0.00041245 -0.001 0.00049651 -0.000573327 -0.001 0.000394822 -0.000507321 -0.001 
-0.000173714 -0.000206698 -0.001 0.000264897 5.63722e-05 -0.001 0.000247997 0.000152811 -0.001 
-4.63327e-05 -0.000920208 -0.001 9.18688e-05 0.000258626 -0.001 -5.54111e-06 0.000290558 -0.001 
-0.000184219 0.000201484 -0.001 -0.000263559 0.000142267 -0.001 -0.000256427 5.13624e-05 -0.001 
-0.000336894 -2.06179e-06 -0.001 -0.000228499 -4.2388e-05 -0.001 -0.00017589 0.000106626 -0.001 
-0.000769947 -0.000133367 -0.001 0.000767591 -0.000500293 -0.001 -5.05874e-05 0.000737978 -0.001 
0.000754456 -3.51771e-06 -0.001 0.00064691 -6.15298e-05 -0.001 0.000630483 -0.00018134 -0.001 
0.000749187 -0.000265543 -0.001 -0.000760805 -0.000462521 -0.001 0.000638155 6.09315e-05 -0.001 
-4.46661e-05 0.000922995 -0.001 -2.37945e-05 0.000207237 -0.001 0.000776979 0.000500181 -0.001 
-0.000605691 0.000527596 -0.001 -0.000377914 -0.000653727 -0.001 -0.000372325 -0.000526022 -0.001 
-0.000275829 -0.000589621 -0.001 -0.000254285 -0.000710579 -0.001 -0.000379307 0.000656222 -0.001 
-0.000379818 0.00052718 -0.001 -0.000266817 0.000721555 -0.001 -0.000150544 0.000668174 -0.001 
0.000381963 0.00065079 -0.001 0.000493113 0.000590432 -0.001 0.000505439 0.000463708 -0.001 
-0.000269094 0.000596608 -0.001 0.000385815 0.000532045 -0.001 0.000283599 0.0005899 -0.001 
-0.000176405 -0.000108505 -0.001 -0.000278769 -0.000475415 -0.001 0.000185395 2.33014e-06 -0.001 
0.000186773 0.000517571 -0.001 0.000540032 -8.68444e-05 -0.001 -0.000600694 -0.000514877 -0.001 
-0.00063703 8.98033e-05 -0.001 -0.000459677 0.000335729 -0.001 -0.000338836 -0.000100751 -0.001 
-0.000457327 0.000432721 -0.001 -8.72007e-06 -0.000210238 -0.001 0.000156073 0.000129496 -0.001 
-7.70692e-05 -0.000555049 -0.001 0.00036091 -0.000389728 -0.001 0.000531628 0.000120564 -0.001 
-0.000285451 0.000435562 -0.001 0.000192719 -0.000494604 -0.001 0.00041642 0.00039368 -0.001 
-0.000135943 0.000554637 -0.001 -0.000170665 -0.000610079 -0.001 -0.000666304 0.000434981 -0.001 
-0.000758736 0.000479231 -0.001 -0.000470189 -0.000458901 -0.001 0.000203433 -8.59809e-05 -0.001 
0.000101846 0.000170114 -0.001 -0.00035513 -0.00040726 -0.001 0.000100184 -0.000165831 -0.001 
2.96286e-05 0.00081537 -0.001 0.000720946 0.000381836 -0.001 -0.000539809 -0.000292001 -0.001 
0.00052211 -0.000182426 -0.001 -6.41339e-05 -0.000753908 -0.001 0.000638039 -0.000299861 -0.001 
-0.000605136 -0.000230182 -0.001 -3.41638e-05 -0.000145561 -0.001 -0.000104037 0.000172396 -0.001 
-0.000808575 -0.00042774 -0.001 -0.000807207 -0.000465052 -0.001 -0.00080817 0.000429771 -0.001 
-0.000806589 0.000469738 -0.001 -9.50634e-05 -0.000178909 -0.001 0.000247777 0.000445058 -0.001 
1.48293e-05 -0.000814201 -0.001 -4.11555e-05 0.000140955 -0.001 0.000276104 -0.000536845 -0.001 
0.000765969 -0.000436638 -0.001 0.000780871 -0.000362769 -0.001 0.000424176 -0.000642018 -0.001 
0.00053413 -0.000368009 -0.001 -0.000416333 4.17911e-05 -0.001 -0.000133891 -6.23822e-05 -0.001 
4.2574e-05 0.000206312 -0.001 0.000141163 -0.000121542 -0.001 0.000707423 0.000212137 -0.001 
0.000172327 0.000723882 -0.001 7.72652e-06 -0.00090254 -0.001 -0.000134435 5.66935e-05 -0.001 
-0.000188826 3.70894e-05 -0.001 0.000197119 8.09714e-05 -0.001 1.27801e-05 0.000917296 -0.001 
0.000800767 0.00044758 -0.001 -0.000686682 0.000507104 -0.001 9.35831e-05 0.000110457 -0.001 
-0.000696793 -0.000509595 -0.001 -0.00068446 -8.52012e-05 -0.001 -0.000691033 -0.000201242 -0.001 
5.24052e-05 -0.000189075 -0.001 -0.000151818 -0.000701092 -0.001 -0.000296988 0.000518087 -0.001 
9.31023e-05 -0.000108117 -0.001 0.00044261 -0.000416726 -0.001 0.000197044 -0.000784423 -0.001 
-0.000516861 0.000504567 -0.001 0.000298997 0.000502377 -0.001 
CELLS 563 3941
6 14 304 127 29 554 377 
6 143 259 55 393 509 103 
6 300 319 174 550 569 424 
6 259 349 55 509 599 103 
6 50 365 307 98 615 557 
6 299 320 164 549 570 414 
6 126 304 14 376 554 29 
6 298 319 300 548 569 550 
6 205 240 238 455 490 488 
6 257 308 145 507 558 395 
6 130 352 273 380 602 523 
6 295 320 299 545 570 549 
6 324 327 289 574 577 539 
6 235 258 143 485 508 393 
6 50 307 49 98 557 97 
6 207 283 279 457 533 529 
6 143 373 235 393 623 485 
6 145 308 252 395 558 502 
6 194 303 196 444 553 446 
6 279 306 207 529 556 457 
6 206 305 163 456 555 413 
6 51 357 9 99 607 24 
6 238 252 205 488 502 455 
6 293 317 209 543 567 459 
6 207 316 283 457 566 533 
6 142 301 249 392 551 499 
6 273 359 130 523 609 380 
6 211 327 324 461 577 574 
6 169 265 217 419 515 467 
6 7 365 50 22 615 98 
6 283 316 253 533 566 503 
6 159 268 223 409 518 473 
6 274 337 132 524 587 382 
6 232 361 329 482 611 579 
6 231 266 45 481 516 93 
6 229 362 330 479 612 580 
6 9 244 57 24 494 105 
6 230 276 52 480 526 100 
6 209 311 293 459 561 543 
6 131 342 302 381 592 552 
6 270 271 204 520 521 454 
6 66 243 1 114 493 16 
6 59 241 12 107 491 27 
6 280 306 279 530 556 529 
6 269 337 274 519 587 524 
6 179 256 224 429 506 474 
6 163 305 166 413 555 416 
6 201 303 194 451 553 444 
6 280 332 306 530 582 556 
6 186 255 225 436 505 475 
6 210 310 273 460 560 523 
6 153 270 204 403 520 454 
6 136 231 45 386 481 93 
6 171 265 169 421 515 419 
6 138 230 52 388 480 100 
6 225 354 325 475 604 575 
6 36 284 232 84 534 482 
6 161 268 159 411 518 409 
6 71 286 229 119 536 479 
6 290 303 201 540 553 451 
6 139 355 60 389 605 108 
6 60 355 248 108 605 498 
6 273 352 302 523 602 552 
6 235 373 245 485 623 495 
6 67 356 247 115 606 497 
6 221 295 277 471 545 527 
6 142 356 67 392 606 115 
6 139 283 253 389 533 503 
6 203 315 262 453 565 512 
6 41 257 145 89 507 395 
6 36 232 135 84 482 385 
6 71 229 137 119 479 387 
6 254 255 188 504 505 438 
6 233 350 334 483 600 584 
6 262 346 203 512 596 453 
6 304 325 127 554 575 377 
6 222 329 247 472 579 497 
6 218 298 260 468 548 510 
6 290 321 291 540 571 541 
6 272 310 240 522 560 490 
6 269 274 270 519 524 520 
6 244 245 57 494 495 105 
6 49 307 141 97 557 391 
6 225 325 256 475 575 506 
6 273 310 272 523 560 522 
6 312 368 255 562 618 505 
6 249 305 206 499 555 456 
6 228 331 251 478 581 501 
6 302 342 263 552 592 513 
6 338 339 44 588 589 92 
6 190 254 188 440 504 438 
6 37 341 340 85 591 590 
6 138 233 230 388 483 480 
6 228 335 331 478 585 581 
6 181 256 179 431 506 429 
6 195 263 226 445 513 476 
6 268 285 223 518 535 473 
6 290 291 288 540 541 538 
6 219 330 248 469 580 498 
6 201 321 290 451 571 540 
6 240 310 202 490 560 452 
6 188 255 186 438 505 436 
6 270 274 271 520 524 521 
6 262 349 259 512 599 509 
6 141 324 289 391 574 539 
6 296 301 142 546 551 392 
6 247 356 222 497 606 472 
6 239 252 238 489 502 488 
6 254 312 255 504 562 505 
6 54 261 53 102 511 101 
6 289 327 303 539 577 553 
6 268 353 285 518 603 535 
6 273 302 210 523 552 460 
6 292 299 293 542 549 543 
6 278 283 139 528 533 389 
6 175 265 171 425 515 421 
6 227 338 38 477 588 86 
6 264 360 265 514 610 515 
6 43 340 146 91 590 396 
6 165 268 161 415 518 411 
6 205 351 240 455 601 490 
6 64 281 63 112 531 111 
6 288 291 47 538 541 95 
6 135 295 294 385 545 544 
6 42 257 41 90 507 89 
6 245 373 57 495 623 105 
6 31 363 323 79 613 573 
6 292 293 140 542 543 390 
6 267 353 268 517 603 518 
6 155 270 153 405 520 403 
6 244 344 245 494 594 495 
6 61 278 139 109 528 389 
6 135 294 35 385 544 83 
6 69 297 296 117 547 546 
6 186 225 184 436 475 434 
6 329 361 243 579 611 493 
6 255 328 225 505 578 475 
6 213 332 280 463 582 530 
6 39 275 133 87 525 383 
6 330 362 241 580 612 491 
6 195 226 193 445 476 443 
6 211 324 251 461 574 501 
6 151 153 152 401 403 402 
6 295 299 294 545 549 544 
6 265 313 217 515 563 467 
6 258 259 143 508 509 393 
6 251 331 211 501 581 461 
6 149 151 150 399 401 400 
6 293 370 317 543 620 567 
6 153 204 152 403 454 402 
6 151 152 150 401 402 400 
6 33 292 140 81 542 390 
6 210 263 197 460 513 447 
6 301 305 249 551 555 499 
6 298 300 297 548 550 547 
6 68 296 142 116 546 392 
6 321 369 291 571 619 541 
6 179 224 177 429 474 427 
6 167 267 165 417 517 415 
6 259 346 262 509 596 512 
6 303 327 196 553 577 446 
6 269 270 155 519 520 405 
6 265 360 313 515 610 563 
6 223 269 157 473 519 407 
6 157 269 155 407 519 405 
6 144 279 278 394 529 528 
6 169 217 167 419 467 417 
6 177 264 175 427 514 425 
6 267 268 165 517 518 415 
6 159 223 157 409 473 407 
6 232 277 135 482 527 385 
6 193 254 190 443 504 440 
6 217 267 167 467 517 417 
6 249 356 142 499 606 392 
6 184 256 181 434 506 431 
6 248 355 219 498 605 469 
6 229 260 137 479 510 387 
6 149 150 148 399 400 398 
6 64 348 281 112 598 531 
6 311 374 293 561 624 543 
6 264 265 175 514 515 425 
6 297 300 296 547 550 546 
6 141 289 288 391 539 538 
6 197 263 195 447 513 445 
6 218 260 219 468 510 469 
6 224 264 177 474 514 427 
6 137 298 297 387 548 547 
6 277 295 135 527 545 385 
6 133 228 227 383 478 477 
6 261 349 262 511 599 512 
6 221 277 222 471 527 472 
6 256 325 224 506 575 474 
6 199 210 197 449 460 447 
6 226 254 193 476 504 443 
6 144 278 62 394 528 110 
6 279 283 278 529 533 528 
6 289 290 288 539 540 538 
6 137 297 70 387 547 118 
6 34 294 292 82 544 542 
6 235 236 216 485 486 466 
6 141 288 48 391 538 96 
6 178 306 180 428 556 430 
6 185 186 184 435 436 434 
6 63 281 144 111 531 394 
6 225 256 184 475 506 434 
6 46 291 136 94 541 386 
6 147 149 148 397 399 398 
6 271 272 204 521 522 454 
6 233 334 234 483 584 484 
6 145 275 40 395 525 88 
6 220 322 287 470 572 537 
6 280 334 213 530 584 463 
6 144 280 279 394 530 529 
6 140 287 32 390 537 80 
6 154 155 153 404 405 403 
6 334 350 213 584 600 463 
6 176 177 175 426 427 425 
6 260 298 137 510 548 387 
6 33 140 32 81 390 80 
6 49 141 48 97 391 96 
6 56 143 55 104 393 103 
6 68 142 67 116 392 115 
6 63 144 62 111 394 110 
6 61 139 60 109 389 108 
6 148 308 257 398 558 507 
6 71 137 70 119 387 118 
6 53 138 52 101 388 100 
6 46 136 45 94 386 93 
6 36 135 35 84 385 83 
6 43 146 134 91 396 384 
6 133 227 38 383 477 86 
6 192 193 190 442 443 440 
6 293 374 140 543 624 390 
6 34 292 33 82 542 81 
6 207 306 178 457 556 428 
6 43 134 42 91 384 90 
6 39 133 38 87 383 86 
6 41 145 40 89 395 88 
6 194 195 193 444 445 443 
6 69 296 68 117 546 116 
6 294 299 292 544 549 542 
6 173 175 171 423 425 421 
6 260 330 219 510 580 469 
6 183 184 181 433 434 431 
6 134 257 42 384 507 90 
6 55 349 54 103 599 102 
6 163 165 161 413 415 411 
6 166 167 165 416 417 415 
6 210 302 263 460 552 513 
6 271 273 272 521 523 522 
6 53 261 138 101 511 388 
6 217 326 267 467 576 517 
6 289 303 290 539 553 540 
6 178 179 177 428 429 427 
6 238 240 202 488 490 452 
6 62 278 61 110 528 109 
6 35 294 34 83 544 82 
6 284 361 232 534 611 482 
6 70 297 69 118 547 117 
6 224 304 264 474 554 514 
6 156 157 155 406 407 405 
6 48 288 47 96 538 95 
6 221 320 295 471 570 545 
6 187 188 186 437 438 436 
6 47 291 46 95 541 94 
6 151 154 153 401 404 403 
6 286 362 229 536 612 479 
6 168 169 167 418 419 417 
6 40 275 39 88 525 87 
6 307 324 141 557 574 391 
6 300 301 296 550 551 546 
6 32 287 31 80 537 79 
6 147 220 149 397 470 399 
6 333 344 231 583 594 481 
6 299 370 293 549 620 543 
6 271 359 273 521 609 523 
6 224 325 304 474 575 554 
6 228 237 227 478 487 477 
6 305 375 343 555 625 593 
6 218 319 298 468 569 548 
6 240 351 272 490 601 522 
6 277 329 222 527 579 472 
6 253 355 139 503 605 389 
6 158 159 157 408 409 407 
6 236 246 216 486 496 466 
6 192 194 193 442 444 443 
6 220 309 149 470 559 399 
6 183 185 184 433 435 434 
6 196 197 195 446 447 445 
6 276 347 58 526 597 106 
6 136 333 231 386 583 481 
6 67 247 66 115 497 114 
6 60 248 59 108 498 107 
6 261 262 250 511 512 500 
6 173 176 175 423 426 425 
6 344 357 231 594 607 481 
6 144 281 280 394 531 530 
6 152 205 150 402 455 400 
6 163 166 165 413 416 415 
6 185 187 186 435 437 436 
6 233 234 230 483 484 480 
6 170 171 169 420 421 419 
6 146 147 134 396 397 384 
6 176 178 177 426 428 427 
6 285 337 223 535 587 473 
6 154 156 155 404 406 405 
6 263 342 226 513 592 476 
6 235 245 236 485 495 486 
6 160 161 159 410 411 409 
6 58 347 242 106 597 492 
6 166 168 167 416 418 417 
6 287 374 220 537 624 470 
6 189 190 188 439 440 438 
6 148 257 134 398 507 384 
6 194 196 195 444 446 445 
6 252 308 205 502 558 455 
6 285 345 337 535 595 587 
6 301 375 305 551 625 555 
6 180 181 179 430 431 429 
6 281 348 234 531 598 484 
6 198 199 197 448 449 447 
6 151 309 154 401 559 404 
6 228 367 335 478 617 585 
6 54 349 261 102 599 511 
6 156 158 157 406 408 407 
6 168 170 169 418 420 419 
6 200 202 199 450 452 449 
6 147 148 134 397 398 384 
6 158 160 159 408 410 409 
6 150 308 148 400 558 398 
6 253 316 208 503 566 458 
6 232 329 277 482 579 527 
6 178 180 179 428 430 429 
6 191 192 190 441 442 440 
6 214 238 202 464 488 452 
6 172 173 171 422 423 421 
6 187 189 188 437 439 438 
6 162 163 161 412 413 411 
6 228 251 237 478 501 487 
6 215 258 235 465 508 485 
6 182 183 181 432 433 431 
6 202 310 199 452 560 449 
6 219 253 208 469 503 458 
6 222 249 206 472 499 456 
6 196 198 197 446 448 447 
6 229 330 260 479 580 510 
6 132 358 274 382 608 524 
6 149 309 151 399 559 401 
6 226 312 254 476 562 504 
6 154 309 209 404 559 459 
6 77 129 76 125 379 124 
6 73 128 72 121 378 120 
6 76 131 75 124 381 123 
6 74 132 73 122 382 121 
6 75 130 74 123 380 122 
6 14 127 77 29 377 125 
6 72 126 14 120 376 29 
6 133 367 228 383 617 478 
6 237 282 227 487 532 477 
6 239 366 252 489 616 502 
6 200 214 202 450 464 452 
6 192 201 194 442 451 444 
6 170 172 171 420 422 421 
6 220 311 309 470 561 559 
6 198 200 199 448 450 449 
6 189 191 190 439 441 440 
6 146 323 322 396 573 572 
6 160 162 161 410 412 411 
6 251 307 237 501 557 487 
6 199 310 210 449 560 460 
6 57 373 56 105 623 104 
6 214 239 238 464 489 488 
6 182 212 183 432 462 433 
6 180 182 181 430 432 431 
6 146 322 147 396 572 397 
6 172 218 208 422 468 458 
6 172 208 173 422 458 423 
6 162 221 206 412 471 456 
6 162 206 163 412 456 413 
6 176 207 178 426 457 428 
6 272 351 204 522 601 454 
6 198 211 200 448 461 450 
6 182 213 212 432 463 462 
6 234 334 281 484 584 531 
6 154 209 156 404 459 406 
6 185 203 187 435 453 437 
6 168 174 170 418 424 420 
6 189 215 191 439 465 441 
6 215 216 191 465 466 441 
6 221 222 206 471 472 456 
6 158 164 160 408 414 410 
6 218 219 208 468 469 458 
6 205 308 150 455 558 400 
6 191 314 192 441 564 442 
6 215 235 216 465 485 466 
6 215 318 258 465 568 508 
6 152 351 205 402 601 455 
6 138 261 250 388 511 500 
6 192 314 201 442 564 451 
6 234 347 230 484 597 480 
6 226 342 312 476 592 562 
6 138 250 233 388 500 483 
6 147 322 220 397 572 470 
6 216 314 191 466 564 441 
6 306 332 180 556 582 430 
6 222 356 249 472 606 499 
6 128 345 285 378 595 535 
6 314 321 201 564 571 451 
6 212 315 183 462 565 433 
6 312 342 336 562 592 586 
6 282 339 338 532 589 588 
6 340 341 323 590 591 573 
6 309 311 209 559 561 459 
6 183 315 185 433 565 435 
6 208 316 173 458 566 423 
6 173 316 176 423 566 426 
6 3 341 37 18 591 85 
6 44 339 6 92 589 21 
6 252 366 145 502 616 395 
6 246 321 314 496 571 564 
6 246 314 216 496 564 466 
6 126 364 313 376 614 563 
6 156 317 158 406 567 408 
6 275 367 133 525 617 383 
6 176 316 207 426 566 457 
6 185 315 203 435 565 453 
6 180 332 182 430 582 432 
6 302 352 131 552 602 381 
6 251 324 307 501 574 557 
6 187 318 189 437 568 439 
6 172 319 218 422 569 468 
6 162 320 221 412 570 471 
6 305 343 166 555 593 416 
6 170 319 172 420 569 422 
6 158 317 164 408 567 414 
6 209 317 156 459 567 406 
6 285 353 128 535 603 378 
6 223 337 269 473 587 519 
6 160 320 162 410 570 412 
6 211 331 200 461 581 450 
6 174 319 170 424 569 420 
6 203 318 187 453 568 437 
6 189 318 215 439 568 465 
6 198 327 211 448 577 461 
6 164 320 160 414 570 410 
6 326 353 267 576 603 517 
6 236 344 333 486 594 583 
6 196 327 198 446 577 448 
6 219 355 253 469 605 503 
6 281 334 280 531 584 530 
6 274 359 271 524 609 521 
6 164 370 299 414 620 549 
6 174 375 300 424 625 550 
6 287 363 31 537 613 79 
6 243 361 1 493 611 16 
6 241 362 12 491 612 27 
6 307 365 237 557 615 487 
6 166 343 168 416 593 418 
6 200 331 214 450 581 464 
6 313 326 217 563 576 467 
6 9 357 244 24 607 494 
6 1 361 30 16 611 78 
6 12 362 65 27 612 113 
6 337 345 132 587 595 382 
6 242 348 64 492 598 112 
6 231 357 266 481 607 516 
6 182 332 213 432 582 463 
6 245 344 236 495 594 486 
6 258 346 259 508 596 509 
6 145 366 275 395 616 525 
6 291 369 136 541 619 386 
6 236 333 246 486 583 496 
6 331 335 214 581 585 464 
6 312 336 129 562 586 379 
6 315 372 262 565 622 512 
6 220 374 311 470 624 561 
6 140 374 287 390 624 537 
6 126 360 304 376 610 554 
6 230 347 276 480 597 526 
6 313 364 326 563 614 576 
6 56 373 143 104 623 393 
6 239 367 366 489 617 616 
6 204 351 152 454 601 402 
6 300 375 301 550 625 551 
6 214 335 239 464 585 489 
6 247 329 243 497 579 493 
6 262 372 250 512 622 500 
6 248 330 241 498 580 491 
6 318 346 258 568 596 508 
6 333 369 246 583 619 496 
6 282 338 227 532 588 477 
6 146 340 323 396 590 573 
6 304 360 264 554 610 514 
6 366 367 275 616 617 525 
6 129 336 76 379 586 124 
6 73 345 128 121 595 378 
6 76 336 131 124 586 381 
6 250 350 233 500 600 483 
6 129 371 328 379 621 578 
6 132 345 73 382 595 121 
6 168 343 174 418 593 424 
6 131 352 75 381 602 123 
6 66 247 243 114 497 493 
6 59 248 241 107 498 491 
6 74 358 132 122 608 382 
6 203 346 318 453 596 568 
6 313 360 126 563 610 376 
6 128 364 72 378 614 120 
6 128 353 326 378 603 576 
6 77 371 129 125 621 379 
6 129 368 312 379 618 562 
6 244 357 344 494 607 594 
6 328 354 225 578 604 475 
6 326 364 128 576 614 378 
6 75 352 130 123 602 380 
6 350 372 212 600 622 462 
6 136 369 333 386 619 583 
6 325 354 127 575 604 377 
6 213 350 212 463 600 462 
6 130 358 74 380 608 122 
6 250 372 350 500 622 600 
6 317 370 164 567 620 414 
6 72 364 126 120 614 376 
6 328 368 129 578 618 379 
6 127 371 77 377 621 125 
6 336 342 131 586 592 381 
6 212 372 315 462 622 565 
6 234 348 347 484 598 597 
6 8 266 51 23 516 99 
6 10 276 58 25 526 106 
6 246 369 321 496 619 571 
6 30 284 0 78 534 15 
6 65 286 13 113 536 28 
6 58 242 11 106 492 26 
6 266 357 51 516 607 99 
6 255 368 328 505 618 578 
6 347 348 242 597 598 492 
6 322 363 287 572 613 537 
6 323 363 322 573 613 572 
6 335 367 239 585 617 489 
6 30 361 284 78 611 534 
6 65 362 286 113 612 536 
6 237 365 282 487 615 532 
6 130 359 358 380 609 608 
6 343 375 174 593 625 424 
6 354 371 127 604 621 377 
6 328 371 354 578 621 604 
6 358 359 274 608 609 524 
6 0 284 36 15 534 84 
6 45 266 8 93 516 23 
6 52 276 10 100 526 25 
6 11 242 64 26 492 112 
6 13 286 71 28 536 119 
6 2 323 3 17 573 18 
6 31 323 2 79 573 17 
6 323 341 3 573 591 18 
6 37 340 4 85 590 19 
6 4 340 43 19 590 91 
6 38 338 5 86 588 20 
6 5 338 44 20 588 92 
6 6 282 7 21 532 22 
6 6 339 282 21 589 532 
6 282 365 7 532 615 22 

CELL_TYPES 563
13
13
13
13
13
13
13
13
13
13
13
13
13
13
13
13
13
13
13
13
13
13
13
13
13
13
13
13
13
13
13
13
13
13
13
13
13
13
13
13
13
13
13
13
13
13
13
13
13
13
13
13
13
13
13
13
13
13
13
13
13
13
13
13
13
13
13
13
13
13
13
13
13
13
13
13
13
13
13
13
13
13
13
13
13
13
13
13
13
13
13
13
13
13
13
13
13
13
13
13
13
13
13
13
13
13
13
13
13
13
13
13
13
13
13
13
13
13
13
13
13
13
13
13
13
13
13
13
13
13
13
13
13
13
13
13
13
13
13
13
13
13
13
13
13
13
13
13
13
13
13
13
13
13
13
13
13
13
13
13
13
13
13
13
13
13
13
13
13
13
13
13
13
13
13
13
13
13
13
13
13
13
13
13
13
13
13
13
13
13
13
13
13
13
13
13
13
13
13
13
13
13
13
13
13
13
13
13
13
13
13
13
13
13
13
13
13
13
13
13
13
13
13
13
13
13
13
13
13
13
13
13
13
13
13
13
13
13
13
13
13
13
13
13
13
13
13
13
13
13
13
13
13
13
13
13
13
13
13
13
13
13
13
13
13
13
13
13
13
13
13
13
13
13
13
13
13
13
13
13
13
13
13
13
13
13
13
13
13
13
13
13
13
13
13
13
13
13
13
13
13
13
13
13
13
13
13
13
13
13
13
13
13
13
13
13
13
13
13
13
13
13
13
13
13
13
13
13
13
13
13
13
13
13
13
13
13
13
13
13
13
13
13
13
13
13
13
13
13
13
13
13
13
13
13
13
13
13
13
13
13
13
13
13
13
13
13
13
13
13
13
13
13
13
13
13
13
13
13
13
13
13
13
13
13
13
13
13
13
13
13
13
13
13
13
13
13
13
13
13
13
13
13
13
13
13
13
13
13
13
13
13
13
13
13
13
13
13
13
13
13
13
13
13
13
13
13
13
13
13
13
13
13
13
13
13
13
13
13
13
13
13
13
13
13
13
13
13
13
13
13
13
13
13
13
13
13
13
13
13
13
13
13
13
13
13
13
13
13
13
13
13
13
13
13
13
13
13
13
13
13
13
13
13
13
13
13
13
13
13
13
13
13
13
13
13
13
13
13
13
13
13
13
13
13
13
13
13
13
13
13
13
13
13
13
13
13
13
13
13
13
13
13
13
13
13
13
13
13
13
13
13
13
13
13
13
13
13
13
13
13
13
13
13
13
13
13
13
13
13
13
13
13
13
13
13
13
13
13
13
13
13
13

POINT_DATA 626
VECTORS displacement float
0 0 0
0 0 0
0 0 0
0 0 0
0 0 0
0 0 0
0 0 0
0 0 0
0 0 0
0 0 0
0 0 0
0 0 0
0 0 0
0 0 0
0 0 0
0 0 0
0 0 0
0 0 0
0 0 0
0 0 0
0 0 0
0 0 0
0 0 0
0 0 0
0 0 0
0 0 0
0 0 0
0 0 0
0 0 0
0 0 0
0 0 0
0 0 0
0 0 0
0 0 0
0 0 0
0 0 0
0 0 0
0 0 0
0 0 0
0 0 0
0 0 0
0 0 0
0 0 0
0 0 0
0 0 0
0 0 0
0 0 0
0 0 0
0 0 0
0 0 0
0 0 0
0 0 0
0 0 0
0 0 0
0 0 0
0 0 0
0 0 0
0 0 0
0 0 0
0 0 0
0 0 0
0 0 0
0 0 0
0 0 0
0 0 0
0 0 0
0 0 0
0 0 0
0 0 0
0 0 0
0 0 0
0 0 0
0 0 0
0 0 0
0 0 0
0 0 0
0 0 0
0 0 0
0 0 0
0 0 0
0 0 0
0 0 0
0 0 0
0 0 0
0 0 0
0 0 0
0 0 0
0 0 0
0 0 0
0 0 0
0 0 0
0 0 0
0 0 0
0 0 0
0 0 0
0 0 0
0 0 0
0 0 0
0 0 0
0 0 0
0 0 0
0 0 0
0 0 0
0 0 0
0 0 0
0 0 0
0 0 0
0 0 0
0 0 0
0 0 0
0 0 0
0 0 0
0 0 0
0 0 0
0 0 0
0 0 0
0 0 0
0 0 0
0 0 0
0 0 0
0 0 0
0 0 0
0 0 0
0 0 0
0 0 0
0 0 0
0 0 0
0 0 0
0 0 0
0 0 0
0 0 0
0 0 0
0 0 0
0 0 0
0 0 0
0 0 0
0 0 0
0 0 0
0 0 0
0 0 0
0 0 0
0 0 0
0 0 0
0 0 0
0 0 0
0 0 0
0 0 0
0 0 0
0 0 0
0 0 0
0 0 0
0 0 0
0 0 0
0 0 0
0 0 0
0 0 0
0 0 0
0 0 0
0 0 0
0 0 0
0 0 0
0 0 0
0 0 0
0 0 0
0 0 0
0 0 0
0 0 0
0 0 0
0 0 0
0 0 0
0 0 0
0 0 0
0 0 0
0 0 0
0 0 0
0 0 0
0 0 0
0 0 0
0 0 0
0 0 0
0 0 0
0 0 0
0 0 0
0 0 0
0 0 0
0 0 0
0 0 0
0 0 0
0 0 0
0 0 0
0 0 0
0 0 0
0 0 0
0 0 0
0 0 0
0 0 0
0 0 0
0 0 0
0 0 0
0 0 0
0 0 0
0 0 0
0 0 0
0 0 0
0 0 0
0 0 0
0 0 0
0 0 0
0 0 0
0 0 0
0 0 0
0 0 0
0 0 0
0 0 0
0 0 0
0 0 0
0 0 0
0 0 0
0 0 0
0 0 0
0 0 0
0 0 0
0 0 0
0 0 0
0 0 0
0 0 0
0 0 0
0 0 0
0 0 0
0 0 0
0 0 0
0 0 0
0 0 0
0 0 0
0 0 0
0 0 0
0 0 0
0 0 0
0 0 0
0 0 0
0 0 0
0 0 0
0 0 0
0 0 0
0 0 0
0 0 0
0 0 0
0 0 0
0 0 0
0 0 0
0 0 0
0 0 0
0 0 0
0 0 0
0 0 0
0 0 0
0 0 0
0 0 0
0 0 0
0 0 0
0 0 0
0 0 0
0 0 0
0 0 0
0 0 0
0 0 0
0 0 0
0 0 0
0 0 0
0 0 0
0 0 0
0 0 0
0 0 0
0 0 0
0 0 0
0 0 0
0 0 0
0 0 0
0 0 0
0 0 0
0 0 0
0 0 0
0 0 0
0 0 0
0 0 0
0 0 0
0 0 0
0 0 0
0 0 0
0 0 0
0 0 0
0 0 0
0 0 0
0 0 0
0 0 0
0 0 0
0 0 0
0 0 0
0 0 0
0 0 0
0 0 0
0 0 0
0 0 0
0 0 0
0 0 0
0 0 0
0 0 0
0 0 0
0 0 0
0 0 0
0 0 0
0 0 0
0 0 0
0 0 0
0 0 0
0 0 0
0 0 0
0 0 0
0 0 0
0 0 0
0 0 0
0 0 0
0 0 0
0 0 0
0 0 0
0 0 0
0 0 0
0 0 0
0 0 0
0 0 0
0 0 0
0 0 0
0 0 0
0 0 0
0 0 0
0 0 0
0 0 0
0 0 0
0 0 0
0 0 0
0 0 0
0 0 0
0 0 0
0 0 0
0 0 0
0 0 0
0 0 0
0 0 0
0 0 0
0 0 0
0 0 0
0 0 0
0 0 0
0 0 0
0 0 0
0 0 0
0 0 0
0 0 0
0 0 0
0 0 0
0 0 0
0 0 0
0 0 0
0 0 0
0 0 0
0 0 0
0 0 0
0 0 0
0 0 0
0 0 0
0 0 0
0 0 0
0 0 0
0 0 0
0 0 0
0 0 0
0 0 0
0 0 0
0 0 0
0 0 0
0 0 0
0 0 0
0 0 0
0 0 0
0 0 0
0 0 0
0 0 0
0 0 0
0 0 0
0 0 0
0 0 0
0 0 0
0 0 0
0 0 0
0 0 0
0 0 0
0 0 0
0 0 0
0 0 0
0 0 0
0 0 0
0 0 0
0 0 0
0 0 0
0 0 0
0 0 0
0 0 0
0 0 0
0 0 0
0 0 0
0 0 0
0 0 0
0 0 0
0 0 0
0 0 0
0 0 0
0 0 0
0 0 0
0 0 0
0 0 0
0 0 0
0 0 0
0 0 0
0 0 0
0 0 0
0 0 0
0 0 0
0 0 0
0 0 0
0 0 0
0 0 0
0 0 0
0 0 0
0 0 0
0 0 0
0 0 0
0 0 0
0 0 0
0 0 0
0 0 0
0 0 0
0 0 0
0 0 0
0 0 0
0 0 0
0 0 0
0 0 0
0 0 0
0 0 0
0 0 0
0 0 0
0 0 0
0 0 0
0 0 0
0 0 0
0 0 0
0 0 0
0 0 0
0 0 0
0 0 0
0 0 0
0 0 0
0 0 0
0 0 0
0 0 0
0 0 0
0 0 0
0 0 0
0 0 0
0 0 0
0 0 0
0 0 0
0 0 0
0 0 0
0 0 0
0 0 0
0 0 0
0 0 0
0 0 0
0 0 0
0 0 0
0 0 0
0 0 0
0 0 0
0 0 0
0 0 0
0 0 0
0 0 0
0 0 0
0 0 0
0 0 0
0 0 0
0 0 0
0 0 0
0 0 0
0 0 0
0 0 0
0 0 0
0 0 0
0 0 0
0 0 0
0 0 0
0 0 0
0 0 0
0 0 0
0 0 0
0 0 0
0 0 0
0 0 0
0 0 0
0 0 0
0 0 0
0 0 0
0 0 0
0 0 0
0 0 0
0 0 0
0 0 0
0 0 0
0 0 0
0 0 0
0 0 0
0 0 0
0 0 0
0 0 0
0 0 0
0 0 0
0 0 0
0 0 0
0 0 0
0 0 0
0 0 0
0 0 0
0 0 0
0 0 0
0 0 0
0 0 0
0 0 0
0 0 0
0 0 0
0 0 0
0 0 0
0 0 0
0 0 0
0 0 0
0 0 0
0 0 0
0 0 0
0 0 0
0 0 0
0 0 0
0 0 0
0 0 0
0 0 0
0 0 0
0 0 0
0 0 0
0 0 0
0 0 0
0 0 0
0 0 0
0 0 0
0 0 0
0 0 0
0 0 0
0 0 0
0 0 0
0 0 0
0 0 0
0 0 0
0 0 0
0 0 0
0 0 0
0 0 0
0 0 0
0 0 0
0 0 0
0 0 0
0 0 0
0 0 0
0 0 0
0 0 0
0 0 0
0 0 0
0 0 0
0 0 0
0 0 0
0 0 0
0 0 0
0 0 0
0 0 0
0 0 0
0 0 0
0 0 0
0 0 0
0 0 0
0 0 0
0 0 0
0 0 0
0 0 0
0 0 0
0 0 0
0 0 0
0 0 0
0 0 0
0 0 0
0 0 0
0 0 0
0 0 0
0 0 0
0 0 0
0 0 0
0 0 0
0 0 0
0 0 0
0 0 0
0 0 0
0 0 0
0 0 0
0 0 0
0 0 0
0 0 0
0 0 0
0 0 0
0 0 0
0 0 0
SCALARS effective_fluid_pressure_TPM float
LOOKUP_TABLE default
0
0
0
0
0
0
0
0
0
0
0
0
0
0
0
0
0
0
0
0
0
0
0
0
0
0
0
0
0
0
0
0
0
0
0
0
0
0
0
0
0
0
0
0
0
0
0
0
0
0
0
0
0
0
0
0
0
0
0
0
0
0
0
0
0
0
0
0
0
0
0
0
0
0
0
0
0
0
0
0
0
0
0
0
0
0
0
0
0
0
0
0
0
0
0
0
0
0
0
0
0
0
0
0
0
0
0
0
0
0
0
0
0
0
0
0
0
0
0
0
0
0
0
0
0
0
0
0
0
0
0
0
0
0
0
0
0
0
0
0
0
0
0
0
0
0
0
0
0
0
0
0
0
0
0
0
0
0
0
0
0
0
0
0
0
0
0
0
0
0
0
0
0
0
0
0
0
0
0
0
0
0
0
0
0
0
0
0
0
0
0
0
0
0
0
0
0
0
0
0
0
0
0
0
0
0
0
0
0
0
0
0
0
0
0
0
0
0
0
0
0
0
0
0
0
0
0
0
0
0
0
0
0
0
0
0
0
0
0
0
0
0
0
0
0
0
0
0
0
0
0
0
0
0
0
0
0
0
0
0
0
0
0
0
0
0
0
0
0
0
0
0
0
0
0
0
0
0
0
0
0
0
0
0
0
0
0
0
0
0
0
0
0
0
0
0
0
0
0
0
0
0
0
0
0
0
0
0
0
0
0
0
0
0
0
0
0
0
0
0
0
0
0
0
0
0
0
0
0
0
0
0
0
0
0
0
0
0
0
0
0
0
0
0
0
0
0
0
0
0
0
0
0
0
0
0
0
0
0
0
0
0
0
0
0
0
0
0
0
0
0
0
0
0
0
0
0
0
0
0
0
0
0
0
0
0
0
0
0
0
0
0
0
0
0
0
0
0
0
0
0
0
0
0
0
0
0
0
0
0
0
0
0
0
0
0
0
0
0
0
0
0
0
0
0
0
0
0
0
0
0
0
0
0
0
0
0
0
0
0
0
0
0
0
0
0
0
0
0
0
0
0
0
0
0
0
0
0
0
0
0
0
0
0
0
0
0
0
0
0
0
0
0
0
0
0
0
0
0
0
0
0
0
0
0
0
0
0
0
0
0
0
0
0
0
0
0
0
0
0
0
0
0
0
0
0
0
0
0
0
0
0
0
0
0
0
0
0
0
0
0
0
0
0
0
0
0
0
0
0
0
0
0
0
0
0
0
0
0
0
0
0
0
0
0
0
0
0
0
0
0
0
0
0
0
0
0
0
0
0
0
0
0
0
0
0
0
0
0
0
0
0
0
0
0
0
0
0
0
0
0
0
0
0
0
0
0
0
0
0
0
0
0
0
0
0
0
0
0
0
0
0
0
0
0
0
0
0
0
0
0
0
0
0
0
0
0
0
0
0
0
0
0
0
0
0

CELL_DATA 563
TENSORS stress float
0 0 0
0 0 0
0 0 0

0 0 0
0 0 0
0 0 0

0 0 0
0 0 0
0 0 0

0 0 0
0 0 0
0 0 0

0 0 0
0 0 0
0 0 0

0 0 0
0 0 0
0 0 0

0 0 0
0 0 0
0 0 0

0 0 0
0 0 0
0 0 0

0 0 0
0 0 0
0 0 0

0 0 0
0 0 0
0 0 0

0 0 0
0 0 0
0 0 0

0 0 0
0 0 0
0 0 0

0 0 0
0 0 0
0 0 0

0 0 0
0 0 0
0 0 0

0 0 0
0 0 0
0 0 0

0 0 0
0 0 0
0 0 0

0 0 0
0 0 0
0 0 0

0 0 0
0 0 0
0 0 0

0 0 0
0 0 0
0 0 0

0 0 0
0 0 0
0 0 0

0 0 0
0 0 0
0 0 0

0 0 0
0 0 0
0 0 0

0 0 0
0 0 0
0 0 0

0 0 0
0 0 0
0 0 0

0 0 0
0 0 0
0 0 0

0 0 0
0 0 0
0 0 0

0 0 0
0 0 0
0 0 0

0 0 0
0 0 0
0 0 0

0 0 0
0 0 0
0 0 0

0 0 0
0 0 0
0 0 0

0 0 0
0 0 0
0 0 0

0 0 0
0 0 0
0 0 0

0 0 0
0 0 0
0 0 0

0 0 0
0 0 0
0 0 0

0 0 0
0 0 0
0 0 0

0 0 0
0 0 0
0 0 0

0 0 0
0 0 0
0 0 0

0 0 0
0 0 0
0 0 0

0 0 0
0 0 0
0 0 0

0 0 0
0 0 0
0 0 0

0 0 0
0 0 0
0 0 0

0 0 0
0 0 0
0 0 0

0 0 0
0 0 0
0 0 0

0 0 0
0 0 0
0 0 0

0 0 0
0 0 0
0 0 0

0 0 0
0 0 0
0 0 0

0 0 0
0 0 0
0 0 0

0 0 0
0 0 0
0 0 0

0 0 0
0 0 0
0 0 0

0 0 0
0 0 0
0 0 0

0 0 0
0 0 0
0 0 0

0 0 0
0 0 0
0 0 0

0 0 0
0 0 0
0 0 0

0 0 0
0 0 0
0 0 0

0 0 0
0 0 0
0 0 0

0 0 0
0 0 0
0 0 0

0 0 0
0 0 0
0 0 0

0 0 0
0 0 0
0 0 0

0 0 0
0 0 0
0 0 0

0 0 0
0 0 0
0 0 0

0 0 0
0 0 0
0 0 0

0 0 0
0 0 0
0 0 0

0 0 0
0 0 0
0 0 0

0 0 0
0 0 0
0 0 0

0 0 0
0 0 0
0 0 0

0 0 0
0 0 0
0 0 0

0 0 0
0 0 0
0 0 0

0 0 0
0 0 0
0 0 0

0 0 0
0 0 0
0 0 0

0 0 0
0 0 0
0 0 0

0 0 0
0 0 0
0 0 0

0 0 0
0 0 0
0 0 0

0 0 0
0 0 0
0 0 0

0 0 0
0 0 0
0 0 0

0 0 0
0 0 0
0 0 0

0 0 0
0 0 0
0 0 0

0 0 0
0 0 0
0 0 0

0 0 0
0 0 0
0 0 0

0 0 0
0 0 0
0 0 0

0 0 0
0 0 0
0 0 0

0 0 0
0 0 0
0 0 0

0 0 0
0 0 0
0 0 0

0 0 0
0 0 0
0 0 0

0 0 0
0 0 0
0 0 0

0 0 0
0 0 0
0 0 0

0 0 0
0 0 0
0 0 0

0 0 0
0 0 0
0 0 0

0 0 0
0 0 0
0 0 0

0 0 0
0 0 0
0 0 0

0 0 0
0 0 0
0 0 0

0 0 0
0 0 0
0 0 0

0 0 0
0 0 0
0 0 0

0 0 0
0 0 0
0 0 0

0 0 0
0 0 0
0 0 0

0 0 0
0 0 0
0 0 0

0 0 0
0 0 0
0 0 0

0 0 0
0 0 0
0 0 0

0 0 0
0 0 0
0 0 0

0 0 0
0 0 0
0 0 0

0 0 0
0 0 0
0 0 0

0 0 0
0 0 0
0 0 0

0 0 0
0 0 0
0 0 0

0 0 0
0 0 0
0 0 0

0 0 0
0 0 0
0 0 0

0 0 0
0 0 0
0 0 0

0 0 0
0 0 0
0 0 0

0 0 0
0 0 0
0 0 0

0 0 0
0 0 0
0 0 0

0 0 0
0 0 0
0 0 0

0 0 0
0 0 0
0 0 0

0 0 0
0 0 0
0 0 0

0 0 0
0 0 0
0 0 0

0 0 0
0 0 0
0 0 0

0 0 0
0 0 0
0 0 0

0 0 0
0 0 0
0 0 0

0 0 0
0 0 0
0 0 0

0 0 0
0 0 0
0 0 0

0 0 0
0 0 0
0 0 0

0 0 0
0 0 0
0 0 0

0 0 0
0 0 0
0 0 0

0 0 0
0 0 0
0 0 0

0 0 0
0 0 0
0 0 0

0 0 0
0 0 0
0 0 0

0 0 0
0 0 0
0 0 0

0 0 0
0 0 0
0 0 0

0 0 0
0 0 0
0 0 0

0 0 0
0 0 0
0 0 0

0 0 0
0 0 0
0 0 0

0 0 0
0 0 0
0 0 0

0 0 0
0 0 0
0 0 0

0 0 0
0 0 0
0 0 0

0 0 0
0 0 0
0 0 0

0 0 0
0 0 0
0 0 0

0 0 0
0 0 0
0 0 0

0 0 0
0 0 0
0 0 0

0 0 0
0 0 0
0 0 0

0 0 0
0 0 0
0 0 0

0 0 0
0 0 0
0 0 0

0 0 0
0 0 0
0 0 0

0 0 0
0 0 0
0 0 0

0 0 0
0 0 0
0 0 0

0 0 0
0 0 0
0 0 0

0 0 0
0 0 0
0 0 0

0 0 0
0 0 0
0 0 0

0 0 0
0 0 0
0 0 0

0 0 0
0 0 0
0 0 0

0 0 0
0 0 0
0 0 0

0 0 0
0 0 0
0 0 0

0 0 0
0 0 0
0 0 0

0 0 0
0 0 0
0 0 0

0 0 0
0 0 0
0 0 0

0 0 0
0 0 0
0 0 0

0 0 0
0 0 0
0 0 0

0 0 0
0 0 0
0 0 0

0 0 0
0 0 0
0 0 0

0 0 0
0 0 0
0 0 0

0 0 0
0 0 0
0 0 0

0 0 0
0 0 0
0 0 0

0 0 0
0 0 0
0 0 0

0 0 0
0 0 0
0 0 0

0 0 0
0 0 0
0 0 0

0 0 0
0 0 0
0 0 0

0 0 0
0 0 0
0 0 0

0 0 0
0 0 0
0 0 0

0 0 0
0 0 0
0 0 0

0 0 0
0 0 0
0 0 0

0 0 0
0 0 0
0 0 0

0 0 0
0 0 0
0 0 0

0 0 0
0 0 0
0 0 0

0 0 0
0 0 0
0 0 0

0 0 0
0 0 0
0 0 0

0 0 0
0 0 0
0 0 0

0 0 0
0 0 0
0 0 0

0 0 0
0 0 0
0 0 0

0 0 0
0 0 0
0 0 0

0 0 0
0 0 0
0 0 0

0 0 0
0 0 0
0 0 0

0 0 0
0 0 0
0 0 0

0 0 0
0 0 0
0 0 0

0 0 0
0 0 0
0 0 0

0 0 0
0 0 0
0 0 0

0 0 0
0 0 0
0 0 0

0 0 0
0 0 0
0 0 0

0 0 0
0 0 0
0 0 0

0 0 0
0 0 0
0 0 0

0 0 0
0 0 0
0 0 0

0 0 0
0 0 0
0 0 0

0 0 0
0 0 0
0 0 0

0 0 0
0 0 0
0 0 0

0 0 0
0 0 0
0 0 0

0 0 0
0 0 0
0 0 0

0 0 0
0 0 0
0 0 0

0 0 0
0 0 0
0 0 0

0 0 0
0 0 0
0 0 0

0 0 0
0 0 0
0 0 0

0 0 0
0 0 0
0 0 0

0 0 0
0 0 0
0 0 0

0 0 0
0 0 0
0 0 0

0 0 0
0 0 0
0 0 0

0 0 0
0 0 0
0 0 0

0 0 0
0 0 0
0 0 0

0 0 0
0 0 0
0 0 0

0 0 0
0 0 0
0 0 0

0 0 0
0 0 0
0 0 0

0 0 0
0 0 0
0 0 0

0 0 0
0 0 0
0 0 0

0 0 0
0 0 0
0 0 0

0 0 0
0 0 0
0 0 0

0 0 0
0 0 0
0 0 0

0 0 0
0 0 0
0 0 0

0 0 0
0 0 0
0 0 0

0 0 0
0 0 0
0 0 0

0 0 0
0 0 0
0 0 0

0 0 0
0 0 0
0 0 0

0 0 0
0 0 0
0 0 0

0 0 0
0 0 0
0 0 0

0 0 0
0 0 0
0 0 0

0 0 0
0 0 0
0 0 0

0 0 0
0 0 0
0 0 0

0 0 0
0 0 0
0 0 0

0 0 0
0 0 0
0 0 0

0 0 0
0 0 0
0 0 0

0 0 0
0 0 0
0 0 0

0 0 0
0 0 0
0 0 0

0 0 0
0 0 0
0 0 0

0 0 0
0 0 0
0 0 0

0 0 0
0 0 0
0 0 0

0 0 0
0 0 0
0 0 0

0 0 0
0 0 0
0 0 0

0 0 0
0 0 0
0 0 0

0 0 0
0 0 0
0 0 0

0 0 0
0 0 0
0 0 0

0 0 0
0 0 0
0 0 0

0 0 0
0 0 0
0 0 0

0 0 0
0 0 0
0 0 0

0 0 0
0 0 0
0 0 0

0 0 0
0 0 0
0 0 0

0 0 0
0 0 0
0 0 0

0 0 0
0 0 0
0 0 0

0 0 0
0 0 0
0 0 0

0 0 0
0 0 0
0 0 0

0 0 0
0 0 0
0 0 0

0 0 0
0 0 0
0 0 0

0 0 0
0 0 0
0 0 0

0 0 0
0 0 0
0 0 0

0 0 0
0 0 0
0 0 0

0 0 0
0 0 0
0 0 0

0 0 0
0 0 0
0 0 0

0 0 0
0 0 0
0 0 0

0 0 0
0 0 0
0 0 0

0 0 0
0 0 0
0 0 0

0 0 0
0 0 0
0 0 0

0 0 0
0 0 0
0 0 0

0 0 0
0 0 0
0 0 0

0 0 0
0 0 0
0 0 0

0 0 0
0 0 0
0 0 0

0 0 0
0 0 0
0 0 0

0 0 0
0 0 0
0 0 0

0 0 0
0 0 0
0 0 0

0 0 0
0 0 0
0 0 0

0 0 0
0 0 0
0 0 0

0 0 0
0 0 0
0 0 0

0 0 0
0 0 0
0 0 0

0 0 0
0 0 0
0 0 0

0 0 0
0 0 0
0 0 0

0 0 0
0 0 0
0 0 0

0 0 0
0 0 0
0 0 0

0 0 0
0 0 0
0 0 0

0 0 0
0 0 0
0 0 0

0 0 0
0 0 0
0 0 0

0 0 0
0 0 0
0 0 0

0 0 0
0 0 0
0 0 0

0 0 0
0 0 0
0 0 0

0 0 0
0 0 0
0 0 0

0 0 0
0 0 0
0 0 0

0 0 0
0 0 0
0 0 0

0 0 0
0 0 0
0 0 0

0 0 0
0 0 0
0 0 0

0 0 0
0 0 0
0 0 0

0 0 0
0 0 0
0 0 0

0 0 0
0 0 0
0 0 0

0 0 0
0 0 0
0 0 0

0 0 0
0 0 0
0 0 0

0 0 0
0 0 0
0 0 0

0 0 0
0 0 0
0 0 0

0 0 0
0 0 0
0 0 0

0 0 0
0 0 0
0 0 0

0 0 0
0 0 0
0 0 0

0 0 0
0 0 0
0 0 0

0 0 0
0 0 0
0 0 0

0 0 0
0 0 0
0 0 0

0 0 0
0 0 0
0 0 0

0 0 0
0 0 0
0 0 0

0 0 0
0 0 0
0 0 0

0 0 0
0 0 0
0 0 0

0 0 0
0 0 0
0 0 0

0 0 0
0 0 0
0 0 0

0 0 0
0 0 0
0 0 0

0 0 0
0 0 0
0 0 0

0 0 0
0 0 0
0 0 0

0 0 0
0 0 0
0 0 0

0 0 0
0 0 0
0 0 0

0 0 0
0 0 0
0 0 0

0 0 0
0 0 0
0 0 0

0 0 0
0 0 0
0 0 0

0 0 0
0 0 0
0 0 0

0 0 0
0 0 0
0 0 0

0 0 0
0 0 0
0 0 0

0 0 0
0 0 0
0 0 0

0 0 0
0 0 0
0 0 0

0 0 0
0 0 0
0 0 0

0 0 0
0 0 0
0 0 0

0 0 0
0 0 0
0 0 0

0 0 0
0 0 0
0 0 0

0 0 0
0 0 0
0 0 0

0 0 0
0 0 0
0 0 0

0 0 0
0 0 0
0 0 0

0 0 0
0 0 0
0 0 0

0 0 0
0 0 0
0 0 0

0 0 0
0 0 0
0 0 0

0 0 0
0 0 0
0 0 0

0 0 0
0 0 0
0 0 0

0 0 0
0 0 0
0 0 0

0 0 0
0 0 0
0 0 0

0 0 0
0 0 0
0 0 0

0 0 0
0 0 0
0 0 0

0 0 0
0 0 0
0 0 0

0 0 0
0 0 0
0 0 0

0 0 0
0 0 0
0 0 0

0 0 0
0 0 0
0 0 0

0 0 0
0 0 0
0 0 0

0 0 0
0 0 0
0 0 0

0 0 0
0 0 0
0 0 0

0 0 0
0 0 0
0 0 0

0 0 0
0 0 0
0 0 0

0 0 0
0 0 0
0 0 0

0 0 0
0 0 0
0 0 0

0 0 0
0 0 0
0 0 0

0 0 0
0 0 0
0 0 0

0 0 0
0 0 0
0 0 0

0 0 0
0 0 0
0 0 0

0 0 0
0 0 0
0 0 0

0 0 0
0 0 0
0 0 0

0 0 0
0 0 0
0 0 0

0 0 0
0 0 0
0 0 0

0 0 0
0 0 0
0 0 0

0 0 0
0 0 0
0 0 0

0 0 0
0 0 0
0 0 0

0 0 0
0 0 0
0 0 0

0 0 0
0 0 0
0 0 0

0 0 0
0 0 0
0 0 0

0 0 0
0 0 0
0 0 0

0 0 0
0 0 0
0 0 0

0 0 0
0 0 0
0 0 0

0 0 0
0 0 0
0 0 0

0 0 0
0 0 0
0 0 0

0 0 0
0 0 0
0 0 0

0 0 0
0 0 0
0 0 0

0 0 0
0 0 0
0 0 0

0 0 0
0 0 0
0 0 0

0 0 0
0 0 0
0 0 0

0 0 0
0 0 0
0 0 0

0 0 0
0 0 0
0 0 0

0 0 0
0 0 0
0 0 0

0 0 0
0 0 0
0 0 0

0 0 0
0 0 0
0 0 0

0 0 0
0 0 0
0 0 0

0 0 0
0 0 0
0 0 0

0 0 0
0 0 0
0 0 0

0 0 0
0 0 0
0 0 0

0 0 0
0 0 0
0 0 0

0 0 0
0 0 0
0 0 0

0 0 0
0 0 0
0 0 0

0 0 0
0 0 0
0 0 0

0 0 0
0 0 0
0 0 0

0 0 0
0 0 0
0 0 0

0 0 0
0 0 0
0 0 0

0 0 0
0 0 0
0 0 0

0 0 0
0 0 0
0 0 0

0 0 0
0 0 0
0 0 0

0 0 0
0 0 0
0 0 0

0 0 0
0 0 0
0 0 0

0 0 0
0 0 0
0 0 0

0 0 0
0 0 0
0 0 0

0 0 0
0 0 0
0 0 0

0 0 0
0 0 0
0 0 0

0 0 0
0 0 0
0 0 0

0 0 0
0 0 0
0 0 0

0 0 0
0 0 0
0 0 0

0 0 0
0 0 0
0 0 0

0 0 0
0 0 0
0 0 0

0 0 0
0 0 0
0 0 0

0 0 0
0 0 0
0 0 0

0 0 0
0 0 0
0 0 0

0 0 0
0 0 0
0 0 0

0 0 0
0 0 0
0 0 0

0 0 0
0 0 0
0 0 0

0 0 0
0 0 0
0 0 0

0 0 0
0 0 0
0 0 0

0 0 0
0 0 0
0 0 0

0 0 0
0 0 0
0 0 0

0 0 0
0 0 0
0 0 0

0 0 0
0 0 0
0 0 0

0 0 0
0 0 0
0 0 0

0 0 0
0 0 0
0 0 0

0 0 0
0 0 0
0 0 0

0 0 0
0 0 0
0 0 0

0 0 0
0 0 0
0 0 0

0 0 0
0 0 0
0 0 0

0 0 0
0 0 0
0 0 0

0 0 0
0 0 0
0 0 0

0 0 0
0 0 0
0 0 0

0 0 0
0 0 0
0 0 0

0 0 0
0 0 0
0 0 0

0 0 0
0 0 0
0 0 0

0 0 0
0 0 0
0 0 0

0 0 0
0 0 0
0 0 0

0 0 0
0 0 0
0 0 0

0 0 0
0 0 0
0 0 0

0 0 0
0 0 0
0 0 0

0 0 0
0 0 0
0 0 0

0 0 0
0 0 0
0 0 0

0 0 0
0 0 0
0 0 0

0 0 0
0 0 0
0 0 0

0 0 0
0 0 0
0 0 0

0 0 0
0 0 0
0 0 0

0 0 0
0 0 0
0 0 0

0 0 0
0 0 0
0 0 0

0 0 0
0 0 0
0 0 0

0 0 0
0 0 0
0 0 0

0 0 0
0 0 0
0 0 0

0 0 0
0 0 0
0 0 0

0 0 0
0 0 0
0 0 0

0 0 0
0 0 0
0 0 0

0 0 0
0 0 0
0 0 0

0 0 0
0 0 0
0 0 0

0 0 0
0 0 0
0 0 0

0 0 0
0 0 0
0 0 0

0 0 0
0 0 0
0 0 0

0 0 0
0 0 0
0 0 0

0 0 0
0 0 0
0 0 0

0 0 0
0 0 0
0 0 0

0 0 0
0 0 0
0 0 0

0 0 0
0 0 0
0 0 0

0 0 0
0 0 0
0 0 0

0 0 0
0 0 0
0 0 0

0 0 0
0 0 0
0 0 0

0 0 0
0 0 0
0 0 0

0 0 0
0 0 0
0 0 0

0 0 0
0 0 0
0 0 0

0 0 0
0 0 0
0 0 0

0 0 0
0 0 0
0 0 0

0 0 0
0 0 0
0 0 0

0 0 0
0 0 0
0 0 0

0 0 0
0 0 0
0 0 0

0 0 0
0 0 0
0 0 0

0 0 0
0 0 0
0 0 0

0 0 0
0 0 0
0 0 0

0 0 0
0 0 0
0 0 0

0 0 0
0 0 0
0 0 0

0 0 0
0 0 0
0 0 0

0 0 0
0 0 0
0 0 0

0 0 0
0 0 0
0 0 0

0 0 0
0 0 0
0 0 0

0 0 0
0 0 0
0 0 0

0 0 0
0 0 0
0 0 0

0 0 0
0 0 0
0 0 0

0 0 0
0 0 0
0 0 0

0 0 0
0 0 0
0 0 0

0 0 0
0 0 0
0 0 0

0 0 0
0 0 0
0 0 0

0 0 0
0 0 0
0 0 0

0 0 0
0 0 0
0 0 0

0 0 0
0 0 0
0 0 0

0 0 0
0 0 0
0 0 0

0 0 0
0 0 0
0 0 0

0 0 0
0 0 0
0 0 0

0 0 0
0 0 0
0 0 0

0 0 0
0 0 0
0 0 0

0 0 0
0 0 0
0 0 0

0 0 0
0 0 0
0 0 0

0 0 0
0 0 0
0 0 0

0 0 0
0 0 0
0 0 0

0 0 0
0 0 0
0 0 0

0 0 0
0 0 0
0 0 0

0 0 0
0 0 0
0 0 0

0 0 0
0 0 0
0 0 0

0 0 0
0 0 0
0 0 0

0 0 0
0 0 0
0 0 0

0 0 0
0 0 0
0 0 0

0 0 0
0 0 0
0 0 0

0 0 0
0 0 0
0 0 0

0 0 0
0 0 0
0 0 0

0 0 0
0 0 0
0 0 0

0 0 0
0 0 0
0 0 0

0 0 0
0 0 0
0 0 0

0 0 0
0 0 0
0 0 0

0 0 0
0 0 0
0 0 0

0 0 0
0 0 0
0 0 0

0 0 0
0 0 0
0 0 0

0 0 0
0 0 0
0 0 0

0 0 0
0 0 0
0 0 0

0 0 0
0 0 0
0 0 0

0 0 0
0 0 0
0 0 0

0 0 0
0 0 0
0 0 0

0 0 0
0 0 0
0 0 0

0 0 0
0 0 0
0 0 0

0 0 0
0 0 0
0 0 0

0 0 0
0 0 0
0 0 0

0 0 0
0 0 0
0 0 0

0 0 0
0 0 0
0 0 0

0 0 0
0 0 0
0 0 0

0 0 0
0 0 0
0 0 0

0 0 0
0 0 0
0 0 0

0 0 0
0 0 0
0 0 0

0 0 0
0 0 0
0 0 0

0 0 0
0 0 0
0 0 0

0 0 0
0 0 0
0 0 0

0 0 0
0 0 0
0 0 0

0 0 0
0 0 0
0 0 0

0 0 0
0 0 0
0 0 0

0 0 0
0 0 0
0 0 0

0 0 0
0 0 0
0 0 0

0 0 0
0 0 0
0 0 0

0 0 0
0 0 0
0 0 0

0 0 0
0 0 0
0 0 0

0 0 0
0 0 0
0 0 0

0 0 0
0 0 0
0 0 0

0 0 0
0 0 0
0 0 0

0 0 0
0 0 0
0 0 0

0 0 0
0 0 0
0 0 0

0 0 0
0 0 0
0 0 0

0 0 0
0 0 0
0 0 0

0 0 0
0 0 0
0 0 0

0 0 0
0 0 0
0 0 0

0 0 0
0 0 0
0 0 0

0 0 0
0 0 0
0 0 0

0 0 0
0 0 0
0 0 0

0 0 0
0 0 0
0 0 0

0 0 0
0 0 0
0 0 0

0 0 0
0 0 0
0 0 0

0 0 0
0 0 0
0 0 0

0 0 0
0 0 0
0 0 0

0 0 0
0 0 0
0 0 0

0 0 0
0 0 0
0 0 0

0 0 0
0 0 0
0 0 0

0 0 0
0 0 0
0 0 0

0 0 0
0 0 0
0 0 0

0 0 0
0 0 0
0 0 0

0 0 0
0 0 0
0 0 0

0 0 0
0 0 0
0 0 0

0 0 0
0 0 0
0 0 0

0 0 0
0 0 0
0 0 0

0 0 0
0 0 0
0 0 0

0 0 0
0 0 0
0 0 0

0 0 0
0 0 0
0 0 0

0 0 0
0 0 0
0 0 0

0 0 0
0 0 0
0 0 0

0 0 0
0 0 0
0 0 0

0 0 0
0 0 0
0 0 0

0 0 0
0 0 0
0 0 0

0 0 0
0 0 0
0 0 0

0 0 0
0 0 0
0 0 0

VECTORS fluid_flux_TPM float
0 0 0
0 0 0
0 0 0
0 0 0
0 0 0
0 0 0
0 0 0
0 0 0
0 0 0
0 0 0
0 0 0
0 0 0
0 0 0
0 0 0
0 0 0
0 0 0
0 0 0
0 0 0
0 0 0
0 0 0
0 0 0
0 0 0
0 0 0
0 0 0
0 0 0
0 0 0
0 0 0
0 0 0
0 0 0
0 0 0
0 0 0
0 0 0
0 0 0
0 0 0
0 0 0
0 0 0
0 0 0
0 0 0
0 0 0
0 0 0
0 0 0
0 0 0
0 0 0
0 0 0
0 0 0
0 0 0
0 0 0
0 0 0
0 0 0
0 0 0
0 0 0
0 0 0
0 0 0
0 0 0
0 0 0
0 0 0
0 0 0
0 0 0
0 0 0
0 0 0
0 0 0
0 0 0
0 0 0
0 0 0
0 0 0
0 0 0
0 0 0
0 0 0
0 0 0
0 0 0
0 0 0
0 0 0
0 0 0
0 0 0
0 0 0
0 0 0
0 0 0
0 0 0
0 0 0
0 0 0
0 0 0
0 0 0
0 0 0
0 0 0
0 0 0
0 0 0
0 0 0
0 0 0
0 0 0
0 0 0
0 0 0
0 0 0
0 0 0
0 0 0
0 0 0
0 0 0
0 0 0
0 0 0
0 0 0
0 0 0
0 0 0
0 0 0
0 0 0
0 0 0
0 0 0
0 0 0
0 0 0
0 0 0
0 0 0
0 0 0
0 0 0
0 0 0
0 0 0
0 0 0
0 0 0
0 0 0
0 0 0
0 0 0
0 0 0
0 0 0
0 0 0
0 0 0
0 0 0
0 0 0
0 0 0
0 0 0
0 0 0
0 0 0
0 0 0
0 0 0
0 0 0
0 0 0
0 0 0
0 0 0
0 0 0
0 0 0
0 0 0
0 0 0
0 0 0
0 0 0
0 0 0
0 0 0
0 0 0
0 0 0
0 0 0
0 0 0
0 0 0
0 0 0
0 0 0
0 0 0
0 0 0
0 0 0
0 0 0
0 0 0
0 0 0
0 0 0
0 0 0
0 0 0
0 0 0
0 0 0
0 0 0
0 0 0
0 0 0
0 0 0
0 0 0
0 0 0
0 0 0
0 0 0
0 0 0
0 0 0
0 0 0
0 0 0
0 0 0
0 0 0
0 0 0
0 0 0
0 0 0
0 0 0
0 0 0
0 0 0
0 0 0
0 0 0
0 0 0
0 0 0
0 0 0
0 0 0
0 0 0
0 0 0
0 0 0
0 0 0
0 0 0
0 0 0
0 0 0
0 0 0
0 0 0
0 0 0
0 0 0
0 0 0
0 0 0
0 0 0
0 0 0
0 0 0
0 0 0
0 0 0
0 0 0
0 0 0
0 0 0
0 0 0
0 0 0
0 0 0
0 0 0
0 0 0
0 0 0
0 0 0
0 0 0
0 0 0
0 0 0
0 0 0
0 0 0
0 0 0
0 0 0
0 0 0
0 0 0
0 0 0
0 0 0
0 0 0
0 0 0
0 0 0
0 0 0
0 0 0
0 0 0
0 0 0
0 0 0
0 0 0
0 0 0
0 0 0
0 0 0
0 0 0
0 0 0
0 0 0
0 0 0
0 0 0
0 0 0
0 0 0
0 0 0
0 0 0
0 0 0
0 0 0
0 0 0
0 0 0
0 0 0
0 0 0
0 0 0
0 0 0
0 0 0
0 0 0
0 0 0
0 0 0
0 0 0
0 0 0
0 0 0
0 0 0
0 0 0
0 0 0
0 0 0
0 0 0
0 0 0
0 0 0
0 0 0
0 0 0
0 0 0
0 0 0
0 0 0
0 0 0
0 0 0
0 0 0
0 0 0
0 0 0
0 0 0
0 0 0
0 0 0
0 0 0
0 0 0
0 0 0
0 0 0
0 0 0
0 0 0
0 0 0
0 0 0
0 0 0
0 0 0
0 0 0
0 0 0
0 0 0
0 0 0
0 0 0
0 0 0
0 0 0
0 0 0
0 0 0
0 0 0
0 0 0
0 0 0
0 0 0
0 0 0
0 0 0
0 0 0
0 0 0
0 0 0
0 0 0
0 0 0
0 0 0
0 0 0
0 0 0
0 0 0
0 0 0
0 0 0
0 0 0
0 0 0
0 0 0
0 0 0
0 0 0
0 0 0
0 0 0
0 0 0
0 0 0
0 0 0
0 0 0
0 0 0
0 0 0
0 0 0
0 0 0
0 0 0
0 0 0
0 0 0
0 0 0
0 0 0
0 0 0
0 0 0
0 0 0
0 0 0
0 0 0
0 0 0
0 0 0
0 0 0
0 0 0
0 0 0
0 0 0
0 0 0
0 0 0
0 0 0
0 0 0
0 0 0
0 0 0
0 0 0
0 0 0
0 0 0
0 0 0
0 0 0
0 0 0
0 0 0
0 0 0
0 0 0
0 0 0
0 0 0
0 0 0
0 0 0
0 0 0
0 0 0
0 0 0
0 0 0
0 0 0
0 0 0
0 0 0
0 0 0
0 0 0
0 0 0
0 0 0
0 0 0
0 0 0
0 0 0
0 0 0
0 0 0
0 0 0
0 0 0
0 0 0
0 0 0
0 0 0
0 0 0
0 0 0
0 0 0
0 0 0
0 0 0
0 0 0
0 0 0
0 0 0
0 0 0
0 0 0
0 0 0
0 0 0
0 0 0
0 0 0
0 0 0
0 0 0
0 0 0
0 0 0
0 0 0
0 0 0
0 0 0
0 0 0
0 0 0
0 0 0
0 0 0
0 0 0
0 0 0
0 0 0
0 0 0
0 0 0
0 0 0
0 0 0
0 0 0
0 0 0
0 0 0
0 0 0
0 0 0
0 0 0
0 0 0
0 0 0
0 0 0
0 0 0
0 0 0
0 0 0
0 0 0
0 0 0
0 0 0
0 0 0
0 0 0
0 0 0
0 0 0
0 0 0
0 0 0
0 0 0
0 0 0
0 0 0
0 0 0
0 0 0
0 0 0
0 0 0
0 0 0
0 0 0
0 0 0
0 0 0
0 0 0
0 0 0
0 0 0
0 0 0
0 0 0
0 0 0
0 0 0
0 0 0
0 0 0
0 0 0
0 0 0
0 0 0
0 0 0
0 0 0
0 0 0
0 0 0
0 0 0
0 0 0
0 0 0
0 0 0
0 0 0
0 0 0
0 0 0
0 0 0
0 0 0
0 0 0
0 0 0
0 0 0
0 0 0
0 0 0
0 0 0
0 0 0
0 0 0
0 0 0
0 0 0
0 0 0
0 0 0
0 0 0
0 0 0
0 0 0
0 0 0
0 0 0
0 0 0
0 0 0
0 0 0
0 0 0
0 0 0
0 0 0
0 0 0
0 0 0
0 0 0
0 0 0
0 0 0
0 0 0
0 0 0
0 0 0
0 0 0
0 0 0
0 0 0
0 0 0
0 0 0
0 0 0
0 0 0
0 0 0
0 0 0
0 0 0
0 0 0
0 0 0
0 0 0
0 0 0
0 0 0
0 0 0
0 0 0
0 0 0
0 0 0
0 0 0
0 0 0
0 0 0
0 0 0
0 0 0
0 0 0
0 0 0
0 0 0
0 0 0
0 0 0
0 0 0
0 0 0
0 0 0
0 0 0
0 0 0
0 0 0
0 0 0
0 0 0
0 0 0
0 0 0
0 0 0
0 0 0
0 0 0
0 0 0
0 0 0
0 0 0
0 0 0
0 0 0
0 0 0
0 0 0
0 0 0
0 0 0
0 0 0
0 0 0
0 0 0
0 0 0
TENSORS solid_stress_TPM float
0 0 0
0 0 0
0 0 0

0 0 0
0 0 0
0 0 0

0 0 0
0 0 0
0 0 0

0 0 0
0 0 0
0 0 0

0 0 0
0 0 0
0 0 0

0 0 0
0 0 0
0 0 0

0 0 0
0 0 0
0 0 0

0 0 0
0 0 0
0 0 0

0 0 0
0 0 0
0 0 0

0 0 0
0 0 0
0 0 0

0 0 0
0 0 0
0 0 0

0 0 0
0 0 0
0 0 0

0 0 0
0 0 0
0 0 0

0 0 0
0 0 0
0 0 0

0 0 0
0 0 0
0 0 0

0 0 0
0 0 0
0 0 0

0 0 0
0 0 0
0 0 0

0 0 0
0 0 0
0 0 0

0 0 0
0 0 0
0 0 0

0 0 0
0 0 0
0 0 0

0 0 0
0 0 0
0 0 0

0 0 0
0 0 0
0 0 0

0 0 0
0 0 0
0 0 0

0 0 0
0 0 0
0 0 0

0 0 0
0 0 0
0 0 0

0 0 0
0 0 0
0 0 0

0 0 0
0 0 0
0 0 0

0 0 0
0 0 0
0 0 0

0 0 0
0 0 0
0 0 0

0 0 0
0 0 0
0 0 0

0 0 0
0 0 0
0 0 0

0 0 0
0 0 0
0 0 0

0 0 0
0 0 0
0 0 0

0 0 0
0 0 0
0 0 0

0 0 0
0 0 0
0 0 0

0 0 0
0 0 0
0 0 0

0 0 0
0 0 0
0 0 0

0 0 0
0 0 0
0 0 0

0 0 0
0 0 0
0 0 0

0 0 0
0 0 0
0 0 0

0 0 0
0 0 0
0 0 0

0 0 0
0 0 0
0 0 0

0 0 0
0 0 0
0 0 0

0 0 0
0 0 0
0 0 0

0 0 0
0 0 0
0 0 0

0 0 0
0 0 0
0 0 0

0 0 0
0 0 0
0 0 0

0 0 0
0 0 0
0 0 0

0 0 0
0 0 0
0 0 0

0 0 0
0 0 0
0 0 0

0 0 0
0 0 0
0 0 0

0 0 0
0 0 0
0 0 0

0 0 0
0 0 0
0 0 0

0 0 0
0 0 0
0 0 0

0 0 0
0 0 0
0 0 0

0 0 0
0 0 0
0 0 0

0 0 0
0 0 0
0 0 0

0 0 0
0 0 0
0 0 0

0 0 0
0 0 0
0 0 0

0 0 0
0 0 0
0 0 0

0 0 0
0 0 0
0 0 0

0 0 0
0 0 0
0 0 0

0 0 0
0 0 0
0 0 0

0 0 0
0 0 0
0 0 0

0 0 0
0 0 0
0 0 0

0 0 0
0 0 0
0 0 0

0 0 0
0 0 0
0 0 0

0 0 0
0 0 0
0 0 0

0 0 0
0 0 0
0 0 0

0 0 0
0 0 0
0 0 0

0 0 0
0 0 0
0 0 0

0 0 0
0 0 0
0 0 0

0 0 0
0 0 0
0 0 0

0 0 0
0 0 0
0 0 0

0 0 0
0 0 0
0 0 0

0 0 0
0 0 0
0 0 0

0 0 0
0 0 0
0 0 0

0 0 0
0 0 0
0 0 0

0 0 0
0 0 0
0 0 0

0 0 0
0 0 0
0 0 0

0 0 0
0 0 0
0 0 0

0 0 0
0 0 0
0 0 0

0 0 0
0 0 0
0 0 0

0 0 0
0 0 0
0 0 0

0 0 0
0 0 0
0 0 0

0 0 0
0 0 0
0 0 0

0 0 0
0 0 0
0 0 0

0 0 0
0 0 0
0 0 0

0 0 0
0 0 0
0 0 0

0 0 0
0 0 0
0 0 0

0 0 0
0 0 0
0 0 0

0 0 0
0 0 0
0 0 0

0 0 0
0 0 0
0 0 0

0 0 0
0 0 0
0 0 0

0 0 0
0 0 0
0 0 0

0 0 0
0 0 0
0 0 0

0 0 0
0 0 0
0 0 0

0 0 0
0 0 0
0 0 0

0 0 0
0 0 0
0 0 0

0 0 0
0 0 0
0 0 0

0 0 0
0 0 0
0 0 0

0 0 0
0 0 0
0 0 0

0 0 0
0 0 0
0 0 0

0 0 0
0 0 0
0 0 0

0 0 0
0 0 0
0 0 0

0 0 0
0 0 0
0 0 0

0 0 0
0 0 0
0 0 0

0 0 0
0 0 0
0 0 0

0 0 0
0 0 0
0 0 0

0 0 0
0 0 0
0 0 0

0 0 0
0 0 0
0 0 0

0 0 0
0 0 0
0 0 0

0 0 0
0 0 0
0 0 0

0 0 0
0 0 0
0 0 0

0 0 0
0 0 0
0 0 0

0 0 0
0 0 0
0 0 0

0 0 0
0 0 0
0 0 0

0 0 0
0 0 0
0 0 0

0 0 0
0 0 0
0 0 0

0 0 0
0 0 0
0 0 0

0 0 0
0 0 0
0 0 0

0 0 0
0 0 0
0 0 0

0 0 0
0 0 0
0 0 0

0 0 0
0 0 0
0 0 0

0 0 0
0 0 0
0 0 0

0 0 0
0 0 0
0 0 0

0 0 0
0 0 0
0 0 0

0 0 0
0 0 0
0 0 0

0 0 0
0 0 0
0 0 0

0 0 0
0 0 0
0 0 0

0 0 0
0 0 0
0 0 0

0 0 0
0 0 0
0 0 0

0 0 0
0 0 0
0 0 0

0 0 0
0 0 0
0 0 0

0 0 0
0 0 0
0 0 0

0 0 0
0 0 0
0 0 0

0 0 0
0 0 0
0 0 0

0 0 0
0 0 0
0 0 0

0 0 0
0 0 0
0 0 0

0 0 0
0 0 0
0 0 0

0 0 0
0 0 0
0 0 0

0 0 0
0 0 0
0 0 0

0 0 0
0 0 0
0 0 0

0 0 0
0 0 0
0 0 0

0 0 0
0 0 0
0 0 0

0 0 0
0 0 0
0 0 0

0 0 0
0 0 0
0 0 0

0 0 0
0 0 0
0 0 0

0 0 0
0 0 0
0 0 0

0 0 0
0 0 0
0 0 0

0 0 0
0 0 0
0 0 0

0 0 0
0 0 0
0 0 0

0 0 0
0 0 0
0 0 0

0 0 0
0 0 0
0 0 0

0 0 0
0 0 0
0 0 0

0 0 0
0 0 0
0 0 0

0 0 0
0 0 0
0 0 0

0 0 0
0 0 0
0 0 0

0 0 0
0 0 0
0 0 0

0 0 0
0 0 0
0 0 0

0 0 0
0 0 0
0 0 0

0 0 0
0 0 0
0 0 0

0 0 0
0 0 0
0 0 0

0 0 0
0 0 0
0 0 0

0 0 0
0 0 0
0 0 0

0 0 0
0 0 0
0 0 0

0 0 0
0 0 0
0 0 0

0 0 0
0 0 0
0 0 0

0 0 0
0 0 0
0 0 0

0 0 0
0 0 0
0 0 0

0 0 0
0 0 0
0 0 0

0 0 0
0 0 0
0 0 0

0 0 0
0 0 0
0 0 0

0 0 0
0 0 0
0 0 0

0 0 0
0 0 0
0 0 0

0 0 0
0 0 0
0 0 0

0 0 0
0 0 0
0 0 0

0 0 0
0 0 0
0 0 0

0 0 0
0 0 0
0 0 0

0 0 0
0 0 0
0 0 0

0 0 0
0 0 0
0 0 0

0 0 0
0 0 0
0 0 0

0 0 0
0 0 0
0 0 0

0 0 0
0 0 0
0 0 0

0 0 0
0 0 0
0 0 0

0 0 0
0 0 0
0 0 0

0 0 0
0 0 0
0 0 0

0 0 0
0 0 0
0 0 0

0 0 0
0 0 0
0 0 0

0 0 0
0 0 0
0 0 0

0 0 0
0 0 0
0 0 0

0 0 0
0 0 0
0 0 0

0 0 0
0 0 0
0 0 0

0 0 0
0 0 0
0 0 0

0 0 0
0 0 0
0 0 0

0 0 0
0 0 0
0 0 0

0 0 0
0 0 0
0 0 0

0 0 0
0 0 0
0 0 0

0 0 0
0 0 0
0 0 0

0 0 0
0 0 0
0 0 0

0 0 0
0 0 0
0 0 0

0 0 0
0 0 0
0 0 0

0 0 0
0 0 0
0 0 0

0 0 0
0 0 0
0 0 0

0 0 0
0 0 0
0 0 0

0 0 0
0 0 0
0 0 0

0 0 0
0 0 0
0 0 0

0 0 0
0 0 0
0 0 0

0 0 0
0 0 0
0 0 0

0 0 0
0 0 0
0 0 0

0 0 0
0 0 0
0 0 0

0 0 0
0 0 0
0 0 0

0 0 0
0 0 0
0 0 0

0 0 0
0 0 0
0 0 0

0 0 0
0 0 0
0 0 0

0 0 0
0 0 0
0 0 0

0 0 0
0 0 0
0 0 0

0 0 0
0 0 0
0 0 0

0 0 0
0 0 0
0 0 0

0 0 0
0 0 0
0 0 0

0 0 0
0 0 0
0 0 0

0 0 0
0 0 0
0 0 0

0 0 0
0 0 0
0 0 0

0 0 0
0 0 0
0 0 0

0 0 0
0 0 0
0 0 0

0 0 0
0 0 0
0 0 0

0 0 0
0 0 0
0 0 0

0 0 0
0 0 0
0 0 0

0 0 0
0 0 0
0 0 0

0 0 0
0 0 0
0 0 0

0 0 0
0 0 0
0 0 0

0 0 0
0 0 0
0 0 0

0 0 0
0 0 0
0 0 0

0 0 0
0 0 0
0 0 0

0 0 0
0 0 0
0 0 0

0 0 0
0 0 0
0 0 0

0 0 0
0 0 0
0 0 0

0 0 0
0 0 0
0 0 0

0 0 0
0 0 0
0 0 0

0 0 0
0 0 0
0 0 0

0 0 0
0 0 0
0 0 0

0 0 0
0 0 0
0 0 0

0 0 0
0 0 0
0 0 0

0 0 0
0 0 0
0 0 0

0 0 0
0 0 0
0 0 0

0 0 0
0 0 0
0 0 0

0 0 0
0 0 0
0 0 0

0 0 0
0 0 0
0 0 0

0 0 0
0 0 0
0 0 0

0 0 0
0 0 0
0 0 0

0 0 0
0 0 0
0 0 0

0 0 0
0 0 0
0 0 0

0 0 0
0 0 0
0 0 0

0 0 0
0 0 0
0 0 0

0 0 0
0 0 0
0 0 0

0 0 0
0 0 0
0 0 0

0 0 0
0 0 0
0 0 0

0 0 0
0 0 0
0 0 0

0 0 0
0 0 0
0 0 0

0 0 0
0 0 0
0 0 0

0 0 0
0 0 0
0 0 0

0 0 0
0 0 0
0 0 0

0 0 0
0 0 0
0 0 0

0 0 0
0 0 0
0 0 0

0 0 0
0 0 0
0 0 0

0 0 0
0 0 0
0 0 0

0 0 0
0 0 0
0 0 0

0 0 0
0 0 0
0 0 0

0 0 0
0 0 0
0 0 0

0 0 0
0 0 0
0 0 0

0 0 0
0 0 0
0 0 0

0 0 0
0 0 0
0 0 0

0 0 0
0 0 0
0 0 0

0 0 0
0 0 0
0 0 0

0 0 0
0 0 0
0 0 0

0 0 0
0 0 0
0 0 0

0 0 0
0 0 0
0 0 0

0 0 0
0 0 0
0 0 0

0 0 0
0 0 0
0 0 0

0 0 0
0 0 0
0 0 0

0 0 0
0 0 0
0 0 0

0 0 0
0 0 0
0 0 0

0 0 0
0 0 0
0 0 0

0 0 0
0 0 0
0 0 0

0 0 0
0 0 0
0 0 0

0 0 0
0 0 0
0 0 0

0 0 0
0 0 0
0 0 0

0 0 0
0 0 0
0 0 0

0 0 0
0 0 0
0 0 0

0 0 0
0 0 0
0 0 0

0 0 0
0 0 0
0 0 0

0 0 0
0 0 0
0 0 0

0 0 0
0 0 0
0 0 0

0 0 0
0 0 0
0 0 0

0 0 0
0 0 0
0 0 0

0 0 0
0 0 0
0 0 0

0 0 0
0 0 0
0 0 0

0 0 0
0 0 0
0 0 0

0 0 0
0 0 0
0 0 0

0 0 0
0 0 0
0 0 0

0 0 0
0 0 0
0 0 0

0 0 0
0 0 0
0 0 0

0 0 0
0 0 0
0 0 0

0 0 0
0 0 0
0 0 0

0 0 0
0 0 0
0 0 0

0 0 0
0 0 0
0 0 0

0 0 0
0 0 0
0 0 0

0 0 0
0 0 0
0 0 0

0 0 0
0 0 0
0 0 0

0 0 0
0 0 0
0 0 0

0 0 0
0 0 0
0 0 0

0 0 0
0 0 0
0 0 0

0 0 0
0 0 0
0 0 0

0 0 0
0 0 0
0 0 0

0 0 0
0 0 0
0 0 0

0 0 0
0 0 0
0 0 0

0 0 0
0 0 0
0 0 0

0 0 0
0 0 0
0 0 0

0 0 0
0 0 0
0 0 0

0 0 0
0 0 0
0 0 0

0 0 0
0 0 0
0 0 0

0 0 0
0 0 0
0 0 0

0 0 0
0 0 0
0 0 0

0 0 0
0 0 0
0 0 0

0 0 0
0 0 0
0 0 0

0 0 0
0 0 0
0 0 0

0 0 0
0 0 0
0 0 0

0 0 0
0 0 0
0 0 0

0 0 0
0 0 0
0 0 0

0 0 0
0 0 0
0 0 0

0 0 0
0 0 0
0 0 0

0 0 0
0 0 0
0 0 0

0 0 0
0 0 0
0 0 0

0 0 0
0 0 0
0 0 0

0 0 0
0 0 0
0 0 0

0 0 0
0 0 0
0 0 0

0 0 0
0 0 0
0 0 0

0 0 0
0 0 0
0 0 0

0 0 0
0 0 0
0 0 0

0 0 0
0 0 0
0 0 0

0 0 0
0 0 0
0 0 0

0 0 0
0 0 0
0 0 0

0 0 0
0 0 0
0 0 0

0 0 0
0 0 0
0 0 0

0 0 0
0 0 0
0 0 0

0 0 0
0 0 0
0 0 0

0 0 0
0 0 0
0 0 0

0 0 0
0 0 0
0 0 0

0 0 0
0 0 0
0 0 0

0 0 0
0 0 0
0 0 0

0 0 0
0 0 0
0 0 0

0 0 0
0 0 0
0 0 0

0 0 0
0 0 0
0 0 0

0 0 0
0 0 0
0 0 0

0 0 0
0 0 0
0 0 0

0 0 0
0 0 0
0 0 0

0 0 0
0 0 0
0 0 0

0 0 0
0 0 0
0 0 0

0 0 0
0 0 0
0 0 0

0 0 0
0 0 0
0 0 0

0 0 0
0 0 0
0 0 0

0 0 0
0 0 0
0 0 0

0 0 0
0 0 0
0 0 0

0 0 0
0 0 0
0 0 0

0 0 0
0 0 0
0 0 0

0 0 0
0 0 0
0 0 0

0 0 0
0 0 0
0 0 0

0 0 0
0 0 0
0 0 0

0 0 0
0 0 0
0 0 0

0 0 0
0 0 0
0 0 0

0 0 0
0 0 0
0 0 0

0 0 0
0 0 0
0 0 0

0 0 0
0 0 0
0 0 0

0 0 0
0 0 0
0 0 0

0 0 0
0 0 0
0 0 0

0 0 0
0 0 0
0 0 0

0 0 0
0 0 0
0 0 0

0 0 0
0 0 0
0 0 0

0 0 0
0 0 0
0 0 0

0 0 0
0 0 0
0 0 0

0 0 0
0 0 0
0 0 0

0 0 0
0 0 0
0 0 0

0 0 0
0 0 0
0 0 0

0 0 0
0 0 0
0 0 0

0 0 0
0 0 0
0 0 0

0 0 0
0 0 0
0 0 0

0 0 0
0 0 0
0 0 0

0 0 0
0 0 0
0 0 0

0 0 0
0 0 0
0 0 0

0 0 0
0 0 0
0 0 0

0 0 0
0 0 0
0 0 0

0 0 0
0 0 0
0 0 0

0 0 0
0 0 0
0 0 0

0 0 0
0 0 0
0 0 0

0 0 0
0 0 0
0 0 0

0 0 0
0 0 0
0 0 0

0 0 0
0 0 0
0 0 0

0 0 0
0 0 0
0 0 0

0 0 0
0 0 0
0 0 0

0 0 0
0 0 0
0 0 0

0 0 0
0 0 0
0 0 0

0 0 0
0 0 0
0 0 0

0 0 0
0 0 0
0 0 0

0 0 0
0 0 0
0 0 0

0 0 0
0 0 0
0 0 0

0 0 0
0 0 0
0 0 0

0 0 0
0 0 0
0 0 0

0 0 0
0 0 0
0 0 0

0 0 0
0 0 0
0 0 0

0 0 0
0 0 0
0 0 0

0 0 0
0 0 0
0 0 0

0 0 0
0 0 0
0 0 0

0 0 0
0 0 0
0 0 0

0 0 0
0 0 0
0 0 0

0 0 0
0 0 0
0 0 0

0 0 0
0 0 0
0 0 0

0 0 0
0 0 0
0 0 0

0 0 0
0 0 0
0 0 0

0 0 0
0 0 0
0 0 0

0 0 0
0 0 0
0 0 0

0 0 0
0 0 0
0 0 0

0 0 0
0 0 0
0 0 0

0 0 0
0 0 0
0 0 0

0 0 0
0 0 0
0 0 0

0 0 0
0 0 0
0 0 0

0 0 0
0 0 0
0 0 0

0 0 0
0 0 0
0 0 0

0 0 0
0 0 0
0 0 0

0 0 0
0 0 0
0 0 0

0 0 0
0 0 0
0 0 0

0 0 0
0 0 0
0 0 0

0 0 0
0 0 0
0 0 0

0 0 0
0 0 0
0 0 0

0 0 0
0 0 0
0 0 0

0 0 0
0 0 0
0 0 0

0 0 0
0 0 0
0 0 0

0 0 0
0 0 0
0 0 0

0 0 0
0 0 0
0 0 0

0 0 0
0 0 0
0 0 0

0 0 0
0 0 0
0 0 0

0 0 0
0 0 0
0 0 0

0 0 0
0 0 0
0 0 0

0 0 0
0 0 0
0 0 0

0 0 0
0 0 0
0 0 0

0 0 0
0 0 0
0 0 0

0 0 0
0 0 0
0 0 0

0 0 0
0 0 0
0 0 0

0 0 0
0 0 0
0 0 0

0 0 0
0 0 0
0 0 0

0 0 0
0 0 0
0 0 0

0 0 0
0 0 0
0 0 0

0 0 0
0 0 0
0 0 0

0 0 0
0 0 0
0 0 0

0 0 0
0 0 0
0 0 0

0 0 0
0 0 0
0 0 0

0 0 0
0 0 0
0 0 0

0 0 0
0 0 0
0 0 0

0 0 0
0 0 0
0 0 0

0 0 0
0 0 0
0 0 0

0 0 0
0 0 0
0 0 0

0 0 0
0 0 0
0 0 0

0 0 0
0 0 0
0 0 0

0 0 0
0 0 0
0 0 0

0 0 0
0 0 0
0 0 0

0 0 0
0 0 0
0 0 0

0 0 0
0 0 0
0 0 0

0 0 0
0 0 0
0 0 0

0 0 0
0 0 0
0 0 0

0 0 0
0 0 0
0 0 0

0 0 0
0 0 0
0 0 0

0 0 0
0 0 0
0 0 0

0 0 0
0 0 0
0 0 0

0 0 0
0 0 0
0 0 0

0 0 0
0 0 0
0 0 0

0 0 0
0 0 0
0 0 0

0 0 0
0 0 0
0 0 0

0 0 0
0 0 0
0 0 0

0 0 0
0 0 0
0 0 0

0 0 0
0 0 0
0 0 0

0 0 0
0 0 0
0 0 0

0 0 0
0 0 0
0 0 0

0 0 0
0 0 0
0 0 0

0 0 0
0 0 0
0 0 0

0 0 0
0 0 0
0 0 0

0 0 0
0 0 0
0 0 0

0 0 0
0 0 0
0 0 0

0 0 0
0 0 0
0 0 0

0 0 0
0 0 0
0 0 0

0 0 0
0 0 0
0 0 0

0 0 0
0 0 0
0 0 0

0 0 0
0 0 0
0 0 0

0 0 0
0 0 0
0 0 0

0 0 0
0 0 0
0 0 0

0 0 0
0 0 0
0 0 0

0 0 0
0 0 0
0 0 0

0 0 0
0 0 0
0 0 0

0 0 0
0 0 0
0 0 0

0 0 0
0 0 0
0 0 0

0 0 0
0 0 0
0 0 0

0 0 0
0 0 0
0 0 0

0 0 0
0 0 0
0 0 0

0 0 0
0 0 0
0 0 0

0 0 0
0 0 0
0 0 0

0 0 0
0 0 0
0 0 0

0 0 0
0 0 0
0 0 0

0 0 0
0 0 0
0 0 0

0 0 0
0 0 0
0 0 0

0 0 0
0 0 0
0 0 0

0 0 0
0 0 0
0 0 0

0 0 0
0 0 0
0 0 0

0 0 0
0 0 0
0 0 0

0 0 0
0 0 0
0 0 0

0 0 0
0 0 0
0 0 0

0 0 0
0 0 0
0 0 0

0 0 0
0 0 0
0 0 0

0 0 0
0 0 0
0 0 0

0 0 0
0 0 0
0 0 0

0 0 0
0 0 0
0 0 0

0 0 0
0 0 0
0 0 0

0 0 0
0 0 0
0 0 0

0 0 0
0 0 0
0 0 0

0 0 0
0 0 0
0 0 0

0 0 0
0 0 0
0 0 0

0 0 0
0 0 0
0 0 0

0 0 0
0 0 0
0 0 0

0 0 0
0 0 0
0 0 0

0 0 0
0 0 0
0 0 0

0 0 0
0 0 0
0 0 0

0 0 0
0 0 0
0 0 0

0 0 0
0 0 0
0 0 0

0 0 0
0 0 0
0 0 0

0 0 0
0 0 0
0 0 0

0 0 0
0 0 0
0 0 0

0 0 0
0 0 0
0 0 0

0 0 0
0 0 0
0 0 0

0 0 0
0 0 0
0 0 0

0 0 0
0 0 0
0 0 0

0 0 0
0 0 0
0 0 0

0 0 0
0 0 0
0 0 0

0 0 0
0 0 0
0 0 0

0 0 0
0 0 0
0 0 0

0 0 0
0 0 0
0 0 0

0 0 0
0 0 0
0 0 0

0 0 0
0 0 0
0 0 0

0 0 0
0 0 0
0 0 0

0 0 0
0 0 0
0 0 0

0 0 0
0 0 0
0 0 0

0 0 0
0 0 0
0 0 0

0 0 0
0 0 0
0 0 0

0 0 0
0 0 0
0 0 0

0 0 0
0 0 0
0 0 0

0 0 0
0 0 0
0 0 0

0 0 0
0 0 0
0 0 0

0 0 0
0 0 0
0 0 0

0 0 0
0 0 0
0 0 0

0 0 0
0 0 0
0 0 0

0 0 0
0 0 0
0 0 0

0 0 0
0 0 0
0 0 0

0 0 0
0 0 0
0 0 0

0 0 0
0 0 0
0 0 0

0 0 0
0 0 0
0 0 0

0 0 0
0 0 0
0 0 0

0 0 0
0 0 0
0 0 0

FIELD solute_concentration_TPM 1
ffa_ext 1 563 float
0
0
0
0
0
0
0
0
0
0
0
0
0
0
0
0
0
0
0
0
0
0
0
0
0
0
0
0
0
0
0
0
0
0
0
0
0
0
0
0
0
0
0
0
0
0
0
0
0
0
0
0
0
0
0
0
0
0
0
0
0
0
0
0
0
0
0
0
0
0
0
0
0
0
0
0
0
0
0
0
0
0
0
0
0
0
0
0
0
0
0
0
0
0
0
0
0
0
0
0
0
0
0
0
0
0
0
0
0
0
0
0
0
0
0
0
0
0
0
0
0
0
0
0
0
0
0
0
0
0
0
0
0
0
0
0
0
0
0
0
0
0
0
0
0
0
0
0
0
0
0
0
0
0
0
0
0
0
0
0
0
0
0
0
0
0
0
0
0
0
0
0
0
0
0
0
0
0
0
0
0
0
0
0
0
0
0
0
0
0
0
0
0
0
0
0
0
0
0
0
0
0
0
0
0
0
0
0
0
0
0
0
0
0
0
0
0
0
0
0
0
0
0
0
0
0
0
0
0
0
0
0
0
0
0
0
0
0
0
0
0
0
0
0
0
0
0
0
0
0
0
0
0
0
0
0
0
0
0
0
0
0
0
0
0
0
0
0
0
0
0
0
0
0
0
0
0
0
0
0
0
0
0
0
0
0
0
0
0
0
0
0
0
0
0
0
0
0
0
0
0
0
0
0
0
0
0
0
0
0
0
0
0
0
0
0
0
0
0
0
0
0
0
0
0
0
0
0
0
0
0
0
0
0
0
0
0
0
0
0
0
0
0
0
0
0
0
0
0
0
0
0
0
0
0
0
0
0
0
0
0
0
0
0
0
0
0
0
0
0
0
0
0
0
0
0
0
0
0
0
0
0
0
0
0
0
0
0
0
0
0
0
0
0
0
0
0
0
0
0
0
0
0
0
0
0
0
0
0
0
0
0
0
0
0
0
0
0
0
0
0
0
0
0
0
0
0
0
0
0
0
0
0
0
0
0
0
0
0
0
0
0
0
0
0
0
0
0
0
0
0
0
0
0
0
0
0
0
0
0
0
0
0
0
0
0
0
0
0
0
0
0
0
0
0
0
0
0
0
0
0
0
0
0
0
0
0
0
0
0
0
0
0
0
0
0
0
0
0
0
0
0
0
0
0
0
0
0
0
0
0
0
0
0
0
0
0
0
0
0
0
0
0
0
0
0
0
0
0
0
0
0
0
0
0
0
0
0
0
0
0
0
0
0
0
0
0
0
0
0
0
0
0
0
0
0
0
0
0
0
0
0
0
FIELD solute_flux_TPM 1
ffa_ext 3 563 float
0 0 0
0 0 0
0 0 0
0 0 0
0 0 0
0 0 0
0 0 0
0 0 0
0 0 0
0 0 0
0 0 0
0 0 0
0 0 0
0 0 0
0 0 0
0 0 0
0 0 0
0 0 0
0 0 0
0 0 0
0 0 0
0 0 0
0 0 0
0 0 0
0 0 0
0 0 0
0 0 0
0 0 0
0 0 0
0 0 0
0 0 0
0 0 0
0 0 0
0 0 0
0 0 0
0 0 0
0 0 0
0 0 0
0 0 0
0 0 0
0 0 0
0 0 0
0 0 0
0 0 0
0 0 0
0 0 0
0 0 0
0 0 0
0 0 0
0 0 0
0 0 0
0 0 0
0 0 0
0 0 0
0 0 0
0 0 0
0 0 0
0 0 0
0 0 0
0 0 0
0 0 0
0 0 0
0 0 0
0 0 0
0 0 0
0 0 0
0 0 0
0 0 0
0 0 0
0 0 0
0 0 0
0 0 0
0 0 0
0 0 0
0 0 0
0 0 0
0 0 0
0 0 0
0 0 0
0 0 0
0 0 0
0 0 0
0 0 0
0 0 0
0 0 0
0 0 0
0 0 0
0 0 0
0 0 0
0 0 0
0 0 0
0 0 0
0 0 0
0 0 0
0 0 0
0 0 0
0 0 0
0 0 0
0 0 0
0 0 0
0 0 0
0 0 0
0 0 0
0 0 0
0 0 0
0 0 0
0 0 0
0 0 0
0 0 0
0 0 0
0 0 0
0 0 0
0 0 0
0 0 0
0 0 0
0 0 0
0 0 0
0 0 0
0 0 0
0 0 0
0 0 0
0 0 0
0 0 0
0 0 0
0 0 0
0 0 0
0 0 0
0 0 0
0 0 0
0 0 0
0 0 0
0 0 0
0 0 0
0 0 0
0 0 0
0 0 0
0 0 0
0 0 0
0 0 0
0 0 0
0 0 0
0 0 0
0 0 0
0 0 0
0 0 0
0 0 0
0 0 0
0 0 0
0 0 0
0 0 0
0 0 0
0 0 0
0 0 0
0 0 0
0 0 0
0 0 0
0 0 0
0 0 0
0 0 0
0 0 0
0 0 0
0 0 0
0 0 0
0 0 0
0 0 0
0 0 0
0 0 0
0 0 0
0 0 0
0 0 0
0 0 0
0 0 0
0 0 0
0 0 0
0 0 0
0 0 0
0 0 0
0 0 0
0 0 0
0 0 0
0 0 0
0 0 0
0 0 0
0 0 0
0 0 0
0 0 0
0 0 0
0 0 0
0 0 0
0 0 0
0 0 0
0 0 0
0 0 0
0 0 0
0 0 0
0 0 0
0 0 0
0 0 0
0 0 0
0 0 0
0 0 0
0 0 0
0 0 0
0 0 0
0 0 0
0 0 0
0 0 0
0 0 0
0 0 0
0 0 0
0 0 0
0 0 0
0 0 0
0 0 0
0 0 0
0 0 0
0 0 0
0 0 0
0 0 0
0 0 0
0 0 0
0 0 0
0 0 0
0 0 0
0 0 0
0 0 0
0 0 0
0 0 0
0 0 0
0 0 0
0 0 0
0 0 0
0 0 0
0 0 0
0 0 0
0 0 0
0 0 0
0 0 0
0 0 0
0 0 0
0 0 0
0 0 0
0 0 0
0 0 0
0 0 0
0 0 0
0 0 0
0 0 0
0 0 0
0 0 0
0 0 0
0 0 0
0 0 0
0 0 0
0 0 0
0 0 0
0 0 0
0 0 0
0 0 0
0 0 0
0 0 0
0 0 0
0 0 0
0 0 0
0 0 0
0 0 0
0 0 0
0 0 0
0 0 0
0 0 0
0 0 0
0 0 0
0 0 0
0 0 0
0 0 0
0 0 0
0 0 0
0 0 0
0 0 0
0 0 0
0 0 0
0 0 0
0 0 0
0 0 0
0 0 0
0 0 0
0 0 0
0 0 0
0 0 0
0 0 0
0 0 0
0 0 0
0 0 0
0 0 0
0 0 0
0 0 0
0 0 0
0 0 0
0 0 0
0 0 0
0 0 0
0 0 0
0 0 0
0 0 0
0 0 0
0 0 0
0 0 0
0 0 0
0 0 0
0 0 0
0 0 0
0 0 0
0 0 0
0 0 0
0 0 0
0 0 0
0 0 0
0 0 0
0 0 0
0 0 0
0 0 0
0 0 0
0 0 0
0 0 0
0 0 0
0 0 0
0 0 0
0 0 0
0 0 0
0 0 0
0 0 0
0 0 0
0 0 0
0 0 0
0 0 0
0 0 0
0 0 0
0 0 0
0 0 0
0 0 0
0 0 0
0 0 0
0 0 0
0 0 0
0 0 0
0 0 0
0 0 0
0 0 0
0 0 0
0 0 0
0 0 0
0 0 0
0 0 0
0 0 0
0 0 0
0 0 0
0 0 0
0 0 0
0 0 0
0 0 0
0 0 0
0 0 0
0 0 0
0 0 0
0 0 0
0 0 0
0 0 0
0 0 0
0 0 0
0 0 0
0 0 0
0 0 0
0 0 0
0 0 0
0 0 0
0 0 0
0 0 0
0 0 0
0 0 0
0 0 0
0 0 0
0 0 0
0 0 0
0 0 0
0 0 0
0 0 0
0 0 0
0 0 0
0 0 0
0 0 0
0 0 0
0 0 0
0 0 0
0 0 0
0 0 0
0 0 0
0 0 0
0 0 0
0 0 0
0 0 0
0 0 0
0 0 0
0 0 0
0 0 0
0 0 0
0 0 0
0 0 0
0 0 0
0 0 0
0 0 0
0 0 0
0 0 0
0 0 0
0 0 0
0 0 0
0 0 0
0 0 0
0 0 0
0 0 0
0 0 0
0 0 0
0 0 0
0 0 0
0 0 0
0 0 0
0 0 0
0 0 0
0 0 0
0 0 0
0 0 0
0 0 0
0 0 0
0 0 0
0 0 0
0 0 0
0 0 0
0 0 0
0 0 0
0 0 0
0 0 0
0 0 0
0 0 0
0 0 0
0 0 0
0 0 0
0 0 0
0 0 0
0 0 0
0 0 0
0 0 0
0 0 0
0 0 0
0 0 0
0 0 0
0 0 0
0 0 0
0 0 0
0 0 0
0 0 0
0 0 0
0 0 0
0 0 0
0 0 0
0 0 0
0 0 0
0 0 0
0 0 0
0 0 0
0 0 0
0 0 0
0 0 0
0 0 0
0 0 0
0 0 0
0 0 0
0 0 0
0 0 0
0 0 0
0 0 0
0 0 0
0 0 0
0 0 0
0 0 0
0 0 0
0 0 0
0 0 0
0 0 0
0 0 0
0 0 0
0 0 0
0 0 0
0 0 0
0 0 0
0 0 0
0 0 0
0 0 0
0 0 0
0 0 0
0 0 0
0 0 0
0 0 0
0 0 0
0 0 0
0 0 0
0 0 0
0 0 0
0 0 0
0 0 0
0 0 0
0 0 0
0 0 0
0 0 0
0 0 0
0 0 0
0 0 0
0 0 0
0 0 0
0 0 0
0 0 0
0 0 0
0 0 0
0 0 0
0 0 0
0 0 0
0 0 0
0 0 0
0 0 0
0 0 0
0 0 0
0 0 0
0 0 0
0 0 0
0 0 0
0 0 0
0 0 0
0 0 0
0 0 0
0 0 0
0 0 0
0 0 0
0 0 0
0 0 0
0 0 0
0 0 0
0 0 0
0 0 0
0 0 0
0 0 0
0 0 0
0 0 0
0 0 0
0 0 0
0 0 0
0 0 0
0 0 0
0 0 0
0 0 0
0 0 0
0 0 0
0 0 0
0 0 0
0 0 0
0 0 0
SCALARS rr_protein_dgat2 float
LOOKUP_TABLE default
0
0
0
0
0
0
0
0
0
0
0
0
0
0
0
0
0
0
0
0
0
0
0
0
0
0
0
0
0
0
0
0
0
0
0
0
0
0
0
0
0
0
0
0
0
0
0
0
0
0
0
0
0
0
0
0
0
0
0
0
0
0
0
0
0
0
0
0
0
0
0
0
0
0
0
0
0
0
0
0
0
0
0
0
0
0
0
0
0
0
0
0
0
0
0
0
0
0
0
0
0
0
0
0
0
0
0
0
0
0
0
0
0
0
0
0
0
0
0
0
0
0
0
0
0
0
0
0
0
0
0
0
0
0
0
0
0
0
0
0
0
0
0
0
0
0
0
0
0
0
0
0
0
0
0
0
0
0
0
0
0
0
0
0
0
0
0
0
0
0
0
0
0
0
0
0
0
0
0
0
0
0
0
0
0
0
0
0
0
0
0
0
0
0
0
0
0
0
0
0
0
0
0
0
0
0
0
0
0
0
0
0
0
0
0
0
0
0
0
0
0
0
0
0
0
0
0
0
0
0
0
0
0
0
0
0
0
0
0
0
0
0
0
0
0
0
0
0
0
0
0
0
0
0
0
0
0
0
0
0
0
0
0
0
0
0
0
0
0
0
0
0
0
0
0
0
0
0
0
0
0
0
0
0
0
0
0
0
0
0
0
0
0
0
0
0
0
0
0
0
0
0
0
0
0
0
0
0
0
0
0
0
0
0
0
0
0
0
0
0
0
0
0
0
0
0
0
0
0
0
0
0
0
0
0
0
0
0
0
0
0
0
0
0
0
0
0
0
0
0
0
0
0
0
0
0
0
0
0
0
0
0
0
0
0
0
0
0
0
0
0
0
0
0
0
0
0
0
0
0
0
0
0
0
0
0
0
0
0
0
0
0
0
0
0
0
0
0
0
0
0
0
0
0
0
0
0
0
0
0
0
0
0
0
0
0
0
0
0
0
0
0
0
0
0
0
0
0
0
0
0
0
0
0
0
0
0
0
0
0
0
0
0
0
0
0
0
0
0
0
0
0
0
0
0
0
0
0
0
0
0
0
0
0
0
0
0
0
0
0
0
0
0
0
0
0
0
0
0
0
0
0
0
0
0
0
0
0
0
0
0
0
0
0
0
0
0
0
0
0
0
0
0
0
0
0
0
0
0
0
0
0
0
0
0
0
0
0
0
0
0
0
0
0
0
0
0
0
0
0
0
0
0
0
0
0
0
0
0
0
0
0
0
0
0
0
0
0
0
0
0
0
0
0
0
0
0
0
0
0
0
0
0
SCALARS rr_tsim float
LOOKUP_TABLE default
0
0
0
0
0
0
0
0
0
0
0
0
0
0
0
0
0
0
0
0
0
0
0
0
0
0
0
0
0
0
0
0
0
0
0
0
0
0
0
0
0
0
0
0
0
0
0
0
0
0
0
0
0
0
0
0
0
0
0
0
0
0
0
0
0
0
0
0
0
0
0
0
0
0
0
0
0
0
0
0
0
0
0
0
0
0
0
0
0
0
0
0
0
0
0
0
0
0
0
0
0
0
0
0
0
0
0
0
0
0
0
0
0
0
0
0
0
0
0
0
0
0
0
0
0
0
0
0
0
0
0
0
0
0
0
0
0
0
0
0
0
0
0
0
0
0
0
0
0
0
0
0
0
0
0
0
0
0
0
0
0
0
0
0
0
0
0
0
0
0
0
0
0
0
0
0
0
0
0
0
0
0
0
0
0
0
0
0
0
0
0
0
0
0
0
0
0
0
0
0
0
0
0
0
0
0
0
0
0
0
0
0
0
0
0
0
0
0
0
0
0
0
0
0
0
0
0
0
0
0
0
0
0
0
0
0
0
0
0
0
0
0
0
0
0
0
0
0
0
0
0
0
0
0
0
0
0
0
0
0
0
0
0
0
0
0
0
0
0
0
0
0
0
0
0
0
0
0
0
0
0
0
0
0
0
0
0
0
0
0
0
0
0
0
0
0
0
0
0
0
0
0
0
0
0
0
0
0
0
0
0
0
0
0
0
0
0
0
0
0
0
0
0
0
0
0
0
0
0
0
0
0
0
0
0
0
0
0
0
0
0
0
0
0
0
0
0
0
0
0
0
0
0
0
0
0
0
0
0
0
0
0
0
0
0
0
0
0
0
0
0
0
0
0
0
0
0
0
0
0
0
0
0
0
0
0
0
0
0
0
0
0
0
0
0
0
0
0
0
0
0
0
0
0
0
0
0
0
0
0
0
0
0
0
0
0
0
0
0
0
0
0
0
0
0
0
0
0
0
0
0
0
0
0
0
0
0
0
0
0
0
0
0
0
0
0
0
0
0
0
0
0
0
0
0
0
0
0
0
0
0
0
0
0
0
0
0
0
0
0
0
0
0
0
0
0
0
0
0
0
0
0
0
0
0
0
0
0
0
0
0
0
0
0
0
0
0
0
0
0
0
0
0
0
0
0
0
0
0
0
0
0
0
0
0
0
0
0
0
0
0
0
0
0
0
0
0
0
0
0
0
0
0
0
0
0
0
0
0
0
0
0
0
0
0
0
0
0
0
0
0
0
0
0
0
0
0
0
0
0
0
0
0
SCALARS rr_Vext float
LOOKUP_TABLE default
1.59325e-10
3.47799e-10
2.78879e-10
3.63347e-10
1.87555e-10
2.96016e-10
1.57556e-10
3.61508e-10
3.1288e-10
3.90918e-10
1.44262e-10
3.62619e-10
3.19417e-10
3.36417e-10
3.91392e-10
3.32121e-10
2.84096e-10
3.2246e-10
2.91174e-10
2.83324e-10
3.18898e-10
5.46757e-11
3.26744e-10
3.00941e-10
2.72828e-10
3.13437e-10
1.32884e-10
2.75983e-10
2.20639e-10
2.49316e-10
2.8222e-10
2.28064e-10
1.47287e-10
1.87363e-10
1.83854e-10
1.87792e-10
2.42253e-10
1.84341e-10
2.81962e-10
1.65533e-10
1.85474e-10
2.13458e-10
2.13492e-10
3.09731e-10
1.84091e-10
2.01044e-10
2.73746e-10
2.76695e-10
2.58475e-10
2.52611e-10
2.58987e-10
1.99716e-10
3.01251e-10
2.56589e-10
2.77452e-10
1.3336e-10
1.96283e-10
2.58471e-10
1.96284e-10
3.08797e-10
3.62726e-10
3.54077e-10
1.3034e-10
2.49709e-10
3.39123e-10
3.2128e-10
3.50814e-10
3.04415e-10
2.81564e-10
3.99122e-10
3.26878e-10
3.23321e-10
2.29167e-10
2.59675e-10
2.77117e-10
1.52304e-10
2.81824e-10
3.18312e-10
3.06992e-10
2.20179e-10
2.00481e-10
2.11361e-10
4.04061e-10
2.01003e-10
2.69393e-10
1.01099e-10
3.188e-10
2.64715e-10
1.94943e-10
2.6977e-11
2.22356e-10
2.93431e-11
2.39083e-10
2.30754e-10
2.10351e-10
1.93106e-10
1.84113e-10
3.43227e-10
2.82053e-10
2.74547e-10
2.35551e-10
2.27608e-10
1.92883e-10
3.25482e-10
3.30603e-10
2.97672e-10
2.60485e-10
2.66243e-10
2.04764e-10
3.96204e-10
2.56018e-10
1.38669e-10
1.84974e-10
3.56314e-10
3.33466e-10
2.47754e-10
2.27623e-10
1.53018e-10
2.36128e-10
2.46737e-10
2.13292e-10
3.8173e-10
3.96402e-10
3.39473e-10
3.74234e-10
2.91573e-10
1.63639e-10
3.70587e-10
1.6675e-10
2.13308e-10
1.70755e-10
3.53763e-10
3.44161e-10
3.4729e-10
2.36712e-10
1.38297e-10
1.59985e-10
2.54978e-10
3.09796e-10
1.38257e-10
1.97604e-10
2.99914e-10
2.29586e-10
3.66238e-10
1.86277e-10
2.99095e-10
2.71381e-10
2.63226e-10
1.68266e-10
2.17153e-10
2.40542e-10
3.41278e-10
2.0465e-10
3.09663e-10
3.57923e-10
3.63675e-10
2.37616e-10
2.03447e-10
2.02266e-10
3.12669e-10
2.63739e-10
2.02886e-10
1.35439e-10
1.98443e-10
1.96507e-10
3.3418e-10
2.06195e-10
2.08481e-10
2.2657e-10
2.00925e-10
2.91884e-10
2.10174e-10
1.87171e-10
2.29507e-10
2.22017e-10
2.60354e-10
2.88719e-10
2.80753e-10
2.35421e-10
2.79806e-10
2.19895e-10
3.2415e-10
3.47917e-10
1.97622e-10
3.39666e-10
1.98415e-10
3.3546e-10
3.07876e-10
2.86165e-10
2.93988e-10
3.42622e-10
1.67104e-10
2.1725e-10
2.02946e-10
3.46685e-10
3.41953e-10
3.16962e-10
3.43324e-10
3.50879e-10
2.94075e-10
3.61325e-10
2.4471e-10
2.22382e-10
3.93077e-10
2.35509e-10
3.56909e-10
2.84827e-10
1.85866e-10
2.17752e-10
3.57518e-10
2.9548e-10
2.70709e-10
3.49273e-10
3.41008e-10
2.24562e-10
2.19402e-10
2.16768e-10
3.02327e-10
3.34842e-10
3.84825e-10
3.69913e-10
4.02374e-10
3.64597e-10
3.98452e-10
3.34431e-10
3.47006e-10
3.49757e-10
3.29668e-10
3.46313e-10
3.17592e-10
3.12857e-10
2.27628e-10
3.01316e-10
3.53116e-10
2.46755e-10
3.56613e-10
3.27542e-10
3.82803e-10
2.33775e-10
3.64149e-10
3.47663e-10
2.28968e-10
3.094e-10
2.27467e-10
3.48523e-10
3.2e-10
2.38369e-10
2.24855e-10
1.96426e-10
2.25896e-10
3.49041e-10
1.65079e-10
2.70836e-10
2.2407e-10
2.49854e-10
3.6451e-10
3.52031e-10
1.0831e-10
3.53348e-10
1.97777e-10
2.12105e-10
3.62453e-10
2.94638e-10
2.14716e-10
4.0357e-10
2.32038e-10
1.08314e-10
2.16871e-10
3.13887e-10
3.91126e-10
2.9787e-10
3.47233e-10
3.26697e-10
1.70028e-10
1.68938e-10
1.48475e-10
1.70722e-10
2.32042e-10
1.8027e-10
2.89159e-10
1.83203e-10
3.08947e-10
2.21745e-10
2.17211e-10
2.49677e-10
2.35427e-10
3.09062e-10
2.25742e-10
2.33183e-10
9.8907e-11
2.29064e-10
3.31879e-10
3.32144e-10
3.0305e-10
2.25235e-10
1.42718e-10
4.19727e-10
2.84675e-10
2.38913e-10
2.20564e-10
2.14617e-10
2.27563e-10
2.71185e-10
2.23309e-10
1.62963e-10
2.20234e-10
1.53191e-10
2.6832e-10
2.25014e-10
9.21918e-11
2.11765e-10
2.46358e-10
2.25137e-10
3.40548e-10
2.33521e-10
2.98351e-10
1.17844e-10
2.39706e-10
2.31074e-10
1.97154e-10
2.16984e-10
2.54274e-10
2.3693e-10
2.48523e-10
2.14095e-10
2.17288e-10
2.34213e-10
3.08527e-10
2.2129e-10
3.10178e-10
2.80599e-10
2.18224e-10
2.29557e-10
2.31376e-10
2.54858e-10
2.30882e-10
2.16749e-10
2.45635e-10
2.53577e-10
3.01604e-10
2.31283e-10
2.30609e-10
3.2936e-10
3.24719e-10
2.21499e-10
2.18279e-10
1.0281e-10
2.67649e-10
1.89829e-10
2.51813e-10
1.17792e-10
1.22268e-10
1.09245e-10
1.11043e-10
1.17792e-10
1.24124e-10
1.27896e-10
2.79476e-10
2.04915e-10
2.1014e-10
2.41426e-10
2.35784e-10
2.32886e-10
2.44045e-10
2.27975e-10
2.3322e-10
2.31375e-10
2.32023e-10
2.80196e-10
2.12571e-10
2.88119e-10
2.26586e-10
2.19372e-10
2.32353e-10
2.42989e-10
2.57404e-10
2.40583e-10
2.74631e-10
2.57399e-10
2.39516e-10
1.73844e-10
2.40165e-10
2.3411e-10
2.4931e-10
2.42729e-10
2.30323e-10
2.18763e-10
2.40506e-10
2.50047e-10
3.38171e-10
2.25378e-10
3.28807e-10
3.4415e-10
2.36312e-10
3.28621e-10
2.52911e-10
2.03717e-10
2.73888e-10
2.42351e-10
1.7107e-10
1.57186e-10
2.69942e-10
2.8717e-10
2.45584e-10
2.04586e-10
2.44102e-10
1.20874e-10
2.42821e-10
2.28353e-10
1.19683e-10
4.33703e-11
4.74383e-11
2.10235e-10
2.25525e-10
2.60945e-10
2.51669e-10
2.21228e-11
2.31167e-11
2.47264e-10
2.49827e-10
2.36543e-10
9.07366e-11
2.1118e-10
2.42048e-10
2.49542e-10
2.15339e-10
1.90007e-10
9.45565e-11
3.56782e-10
2.26991e-10
2.75656e-10
2.79967e-10
2.01993e-10
2.55428e-10
1.975e-10
2.17847e-10
1.1128e-10
1.66404e-10
2.55742e-10
2.56502e-10
2.2103e-10
2.32509e-10
2.3963e-10
2.52531e-10
2.41602e-10
1.22128e-10
2.09062e-10
2.39757e-10
2.24056e-10
3.35817e-10
1.22134e-10
1.83051e-10
1.88623e-10
1.75993e-10
1.13084e-10
1.13096e-10
2.02037e-10
1.66367e-10
2.36387e-10
1.30789e-10
1.35183e-10
4.37826e-11
4.37829e-11
9.85865e-11
1.4752e-10
9.91849e-11
2.01496e-10
2.15146e-10
2.32078e-10
2.60884e-10
2.35901e-10
2.18145e-10
1.72741e-10
1.11262e-10
2.17295e-10
2.24054e-10
2.16455e-10
1.24513e-10
1.08964e-10
8.92661e-11
2.1619e-10
2.21274e-10
1.80186e-10
2.01385e-10
1.85658e-10
1.67791e-10
2.27412e-10
1.67782e-10
2.01275e-10
1.92618e-10
1.16404e-10
1.43666e-10
1.40464e-10
2.40085e-10
9.92446e-11
1.04472e-10
1.02371e-10
2.26243e-10
9.43385e-11
9.27064e-11
1.59111e-10
8.63583e-11
1.81204e-10
1.81484e-10
8.85937e-11
2.01296e-10
9.74979e-11
9.77898e-11
1.09278e-10
9.33137e-11
9.08605e-11
1.28632e-10
1.07757e-10
9.87461e-11
9.35646e-11
1.83492e-10
2.07944e-10
1.02247e-10
2.02509e-10
8.49815e-11
2.05133e-10
1.63907e-10
8.87102e-11
7.4565e-11
8.38499e-11
1.11009e-10
1.76944e-10
1.42924e-10
5.89271e-11
6.54532e-11
1.96239e-10
5.54774e-11
5.54784e-11
6.28791e-11
7.08646e-11
8.48037e-11
9.38549e-11
1.56473e-10
1.44119e-10
1.9649e-10
5.59183e-11
5.5919e-11
1.7005e-10
7.4137e-11
1.40879e-10
6.71411e-11
6.69676e-11
8.82142e-11
1.44938e-10
1.50102e-10
1.59962e-10
1.46583e-10
1.4494e-10
3.14494e-11
2.34035e-10
4.02166e-11
3.88295e-11
1.8898e-10
1.87656e-10
4.02293e-11
2.79716e-11
3.95105e-11
1.74468e-10
SCALARS rr_Vli float
LOOKUP_TABLE default
3.71757e-10
8.11532e-10
6.50718e-10
8.47809e-10
4.37629e-10
6.90704e-10
3.6763e-10
8.43519e-10
7.30054e-10
9.12141e-10
3.36612e-10
8.4611e-10
7.45306e-10
7.84973e-10
9.13248e-10
7.74948e-10
6.62891e-10
7.52406e-10
6.79406e-10
6.61089e-10
7.44095e-10
1.27577e-10
7.62402e-10
7.02195e-10
6.366e-10
7.31352e-10
3.10063e-10
6.43961e-10
5.14825e-10
5.81738e-10
6.58514e-10
5.32148e-10
3.4367e-10
4.3718e-10
4.28993e-10
4.38182e-10
5.65256e-10
4.3013e-10
6.57911e-10
3.86243e-10
4.32773e-10
4.98068e-10
4.98148e-10
7.22705e-10
4.29545e-10
4.69103e-10
6.38741e-10
6.45621e-10
6.03108e-10
5.89425e-10
6.04302e-10
4.66005e-10
7.0292e-10
5.98708e-10
6.47387e-10
3.11174e-10
4.57993e-10
6.03099e-10
4.57996e-10
7.20527e-10
8.46361e-10
8.2618e-10
3.04128e-10
5.82654e-10
7.91286e-10
7.49652e-10
8.18565e-10
7.10301e-10
6.56982e-10
9.31284e-10
7.62715e-10
7.54416e-10
5.34724e-10
6.05908e-10
6.46606e-10
3.55376e-10
6.57589e-10
7.42729e-10
7.16315e-10
5.1375e-10
4.6779e-10
4.93177e-10
9.42809e-10
4.69008e-10
6.28584e-10
2.35897e-10
7.43867e-10
6.17668e-10
4.54867e-10
6.29464e-11
5.1883e-10
6.84672e-11
5.5786e-10
5.38427e-10
4.9082e-10
4.50581e-10
4.29598e-10
8.00864e-10
6.58123e-10
6.40609e-10
5.4962e-10
5.31086e-10
4.50061e-10
7.59457e-10
7.71407e-10
6.94568e-10
6.07799e-10
6.21233e-10
4.77783e-10
9.24476e-10
5.97375e-10
3.23562e-10
4.31606e-10
8.314e-10
7.78087e-10
5.78093e-10
5.31121e-10
3.57041e-10
5.50965e-10
5.75721e-10
4.97682e-10
8.90704e-10
9.24937e-10
7.92104e-10
8.73212e-10
6.80337e-10
3.81825e-10
8.64704e-10
3.89082e-10
4.97719e-10
3.98428e-10
8.25446e-10
8.03043e-10
8.10344e-10
5.52328e-10
3.22694e-10
3.73298e-10
5.94948e-10
7.22857e-10
3.22599e-10
4.61077e-10
6.99799e-10
5.35701e-10
8.54555e-10
4.34646e-10
6.97888e-10
6.33222e-10
6.14194e-10
3.92621e-10
5.06689e-10
5.61265e-10
7.96316e-10
4.77516e-10
7.22547e-10
8.35153e-10
8.48575e-10
5.54437e-10
4.7471e-10
4.71953e-10
7.2956e-10
6.15391e-10
4.734e-10
3.16024e-10
4.63033e-10
4.58515e-10
7.79752e-10
4.81121e-10
4.86457e-10
5.28663e-10
4.68825e-10
6.81062e-10
4.90407e-10
4.36732e-10
5.35516e-10
5.1804e-10
6.07493e-10
6.73678e-10
6.55091e-10
5.49316e-10
6.5288e-10
5.13088e-10
7.5635e-10
8.11807e-10
4.61118e-10
7.92553e-10
4.62969e-10
7.8274e-10
7.18378e-10
6.67717e-10
6.85973e-10
7.99451e-10
3.8991e-10
5.06916e-10
4.73541e-10
8.08932e-10
7.9789e-10
7.39578e-10
8.01088e-10
8.18719e-10
6.86176e-10
8.43092e-10
5.70989e-10
5.18892e-10
9.1718e-10
5.49522e-10
8.32787e-10
6.64596e-10
4.33687e-10
5.08089e-10
8.34209e-10
6.89454e-10
6.31654e-10
8.14969e-10
7.95685e-10
5.23979e-10
5.11938e-10
5.05792e-10
7.05429e-10
7.81297e-10
8.97925e-10
8.63131e-10
9.38874e-10
8.50726e-10
9.29721e-10
7.8034e-10
8.09682e-10
8.161e-10
7.69225e-10
8.08063e-10
7.41047e-10
7.29999e-10
5.31133e-10
7.0307e-10
8.23937e-10
5.75763e-10
8.32098e-10
7.64266e-10
8.93207e-10
5.45476e-10
8.4968e-10
8.11214e-10
5.34258e-10
7.21934e-10
5.30756e-10
8.1322e-10
7.46667e-10
5.56195e-10
5.24662e-10
4.58327e-10
5.27091e-10
8.14429e-10
3.85185e-10
6.31951e-10
5.22831e-10
5.82993e-10
8.50522e-10
8.21406e-10
2.52724e-10
8.24479e-10
4.6148e-10
4.94911e-10
8.45723e-10
6.8749e-10
5.01003e-10
9.41663e-10
5.41422e-10
2.52732e-10
5.06031e-10
7.32402e-10
9.12627e-10
6.95029e-10
8.10209e-10
7.62294e-10
3.96731e-10
3.9419e-10
3.46442e-10
3.9835e-10
5.41431e-10
4.2063e-10
6.74704e-10
4.27473e-10
7.20876e-10
5.17404e-10
5.06826e-10
5.8258e-10
5.49329e-10
7.21145e-10
5.2673e-10
5.44093e-10
2.30783e-10
5.34483e-10
7.74385e-10
7.75002e-10
7.07117e-10
5.25548e-10
3.33008e-10
9.79362e-10
6.64242e-10
5.57464e-10
5.1465e-10
5.00773e-10
5.30981e-10
6.32766e-10
5.21054e-10
3.80247e-10
5.13878e-10
3.57445e-10
6.2608e-10
5.25032e-10
2.15114e-10
4.94117e-10
5.74835e-10
5.25321e-10
7.94613e-10
5.44882e-10
6.96152e-10
2.74969e-10
5.59313e-10
5.39174e-10
4.60027e-10
5.06295e-10
5.93305e-10
5.52836e-10
5.79888e-10
4.99554e-10
5.07006e-10
5.46498e-10
7.19896e-10
5.16344e-10
7.23749e-10
6.54732e-10
5.0919e-10
5.35634e-10
5.39877e-10
5.9467e-10
5.38725e-10
5.05749e-10
5.73149e-10
5.9168e-10
7.03742e-10
5.39661e-10
5.38087e-10
7.68507e-10
7.57677e-10
5.1683e-10
5.09319e-10
2.3989e-10
6.24514e-10
4.42934e-10
5.87563e-10
2.74848e-10
2.85293e-10
2.54904e-10
2.59101e-10
2.74849e-10
2.89623e-10
2.98424e-10
6.5211e-10
4.78135e-10
4.90326e-10
5.63327e-10
5.50162e-10
5.434e-10
5.69439e-10
5.31942e-10
5.44181e-10
5.39876e-10
5.41388e-10
6.53792e-10
4.95998e-10
6.72277e-10
5.28701e-10
5.11868e-10
5.42157e-10
5.66975e-10
6.0061e-10
5.6136e-10
6.40805e-10
6.00599e-10
5.5887e-10
4.05635e-10
5.60385e-10
5.46256e-10
5.81724e-10
5.66369e-10
5.3742e-10
5.10447e-10
5.61179e-10
5.83444e-10
7.89066e-10
5.25882e-10
7.67216e-10
8.03016e-10
5.51394e-10
7.66782e-10
5.90125e-10
4.75339e-10
6.39072e-10
5.65485e-10
3.99163e-10
3.66766e-10
6.29864e-10
6.70064e-10
5.73029e-10
4.77368e-10
5.69572e-10
2.8204e-10
5.66582e-10
5.32823e-10
2.79259e-10
1.01197e-10
1.10689e-10
4.90548e-10
5.26224e-10
6.08871e-10
5.87227e-10
5.16198e-11
5.39391e-11
5.7695e-10
5.82931e-10
5.51934e-10
2.11719e-10
4.92754e-10
5.64778e-10
5.82265e-10
5.02458e-10
4.4335e-10
2.20632e-10
8.32491e-10
5.29645e-10
6.43198e-10
6.53256e-10
4.71316e-10
5.95998e-10
4.60833e-10
5.0831e-10
2.59653e-10
3.88277e-10
5.96731e-10
5.98504e-10
5.15736e-10
5.4252e-10
5.59136e-10
5.89239e-10
5.63738e-10
2.84966e-10
4.8781e-10
5.59433e-10
5.22798e-10
7.83573e-10
2.8498e-10
4.2712e-10
4.4012e-10
4.10651e-10
2.63864e-10
2.63891e-10
4.71421e-10
3.88189e-10
5.51569e-10
3.05174e-10
3.15426e-10
1.02159e-10
1.0216e-10
2.30035e-10
3.44213e-10
2.31431e-10
4.70157e-10
5.02007e-10
5.41515e-10
6.08729e-10
5.50436e-10
5.09005e-10
4.03062e-10
2.59612e-10
5.07021e-10
5.22793e-10
5.05062e-10
2.9053e-10
2.5425e-10
2.08287e-10
5.04442e-10
5.16306e-10
4.20434e-10
4.69898e-10
4.33203e-10
3.91513e-10
5.30627e-10
3.91492e-10
4.69641e-10
4.49443e-10
2.7161e-10
3.35221e-10
3.27749e-10
5.60197e-10
2.31571e-10
2.43768e-10
2.38866e-10
5.279e-10
2.20123e-10
2.16315e-10
3.71259e-10
2.01503e-10
4.22808e-10
4.23462e-10
2.06719e-10
4.69691e-10
2.27495e-10
2.28176e-10
2.54981e-10
2.17732e-10
2.12008e-10
3.00141e-10
2.51434e-10
2.30407e-10
2.18317e-10
4.28148e-10
4.85204e-10
2.38575e-10
4.72522e-10
1.9829e-10
4.78644e-10
3.82449e-10
2.06991e-10
1.73985e-10
1.9565e-10
2.59021e-10
4.1287e-10
3.33489e-10
1.37497e-10
1.52724e-10
4.57891e-10
1.29447e-10
1.2945e-10
1.46718e-10
1.65351e-10
1.97875e-10
2.18995e-10
3.65103e-10
3.36277e-10
4.58477e-10
1.30476e-10
1.30478e-10
3.96783e-10
1.72986e-10
3.28717e-10
1.56663e-10
1.56258e-10
2.05833e-10
3.3819e-10
3.50239e-10
3.73245e-10
3.42026e-10
3.38192e-10
7.3382e-11
5.46081e-10
9.38387e-11
9.06022e-11
4.40953e-10
4.37865e-10
9.38685e-11
6.5267e-11
9.21911e-11
4.07091e-10
SCALARS rr_ffa float
LOOKUP_TABLE default
0
0
0
0
0
0
0
0
0
0
0
0
0
0
0
0
0
0
0
0
0
0
0
0
0
0
0
0
0
0
0
0
0
0
0
0
0
0
0
0
0
0
0
0
0
0
0
0
0
0
0
0
0
0
0
0
0
0
0
0
0
0
0
0
0
0
0
0
0
0
0
0
0
0
0
0
0
0
0
0
0
0
0
0
0
0
0
0
0
0
0
0
0
0
0
0
0
0
0
0
0
0
0
0
0
0
0
0
0
0
0
0
0
0
0
0
0
0
0
0
0
0
0
0
0
0
0
0
0
0
0
0
0
0
0
0
0
0
0
0
0
0
0
0
0
0
0
0
0
0
0
0
0
0
0
0
0
0
0
0
0
0
0
0
0
0
0
0
0
0
0
0
0
0
0
0
0
0
0
0
0
0
0
0
0
0
0
0
0
0
0
0
0
0
0
0
0
0
0
0
0
0
0
0
0
0
0
0
0
0
0
0
0
0
0
0
0
0
0
0
0
0
0
0
0
0
0
0
0
0
0
0
0
0
0
0
0
0
0
0
0
0
0
0
0
0
0
0
0
0
0
0
0
0
0
0
0
0
0
0
0
0
0
0
0
0
0
0
0
0
0
0
0
0
0
0
0
0
0
0
0
0
0
0
0
0
0
0
0
0
0
0
0
0
0
0
0
0
0
0
0
0
0
0
0
0
0
0
0
0
0
0
0
0
0
0
0
0
0
0
0
0
0
0
0
0
0
0
0
0
0
0
0
0
0
0
0
0
0
0
0
0
0
0
0
0
0
0
0
0
0
0
0
0
0
0
0
0
0
0
0
0
0
0
0
0
0
0
0
0
0
0
0
0
0
0
0
0
0
0
0
0
0
0
0
0
0
0
0
0
0
0
0
0
0
0
0
0
0
0
0
0
0
0
0
0
0
0
0
0
0
0
0
0
0
0
0
0
0
0
0
0
0
0
0
0
0
0
0
0
0
0
0
0
0
0
0
0
0
0
0
0
0
0
0
0
0
0
0
0
0
0
0
0
0
0
0
0
0
0
0
0
0
0
0
0
0
0
0
0
0
0
0
0
0
0
0
0
0
0
0
0
0
0
0
0
0
0
0
0
0
0
0
0
0
0
0
0
0
0
0
0
0
0
0
0
0
0
0
0
0
0
0
0
0
0
0
0
0
0
0
0
0
0
0
0
0
0
0
0
0
0
0
0
0
0
0
0
0
0
0
0
0
0
0
0
0
0
0
0
0
0
0
0
0
0
0
0
0
0
0
0
0
SCALARS rr_ins float
LOOKUP_TABLE default
1.85879e-16
4.05766e-16
3.25359e-16
4.23904e-16
2.18814e-16
3.45352e-16
1.83815e-16
4.21759e-16
3.65027e-16
4.56071e-16
1.68306e-16
4.23055e-16
3.72653e-16
3.92486e-16
4.56624e-16
3.87474e-16
3.31445e-16
3.76203e-16
3.39703e-16
3.30545e-16
3.72047e-16
6.37883e-17
3.81201e-16
3.51097e-16
3.183e-16
3.65676e-16
1.55032e-16
3.2198e-16
2.57412e-16
2.90869e-16
3.29257e-16
2.66074e-16
1.71835e-16
2.1859e-16
2.14496e-16
2.19091e-16
2.82628e-16
2.15065e-16
3.28955e-16
1.93121e-16
2.16387e-16
2.49034e-16
2.49074e-16
3.61353e-16
2.14773e-16
2.34552e-16
3.19371e-16
3.22811e-16
3.01554e-16
2.94712e-16
3.02151e-16
2.33002e-16
3.5146e-16
2.99354e-16
3.23694e-16
1.55587e-16
2.28997e-16
3.0155e-16
2.28998e-16
3.60263e-16
4.2318e-16
4.1309e-16
1.52064e-16
2.91327e-16
3.95643e-16
3.74826e-16
4.09283e-16
3.5515e-16
3.28491e-16
4.65642e-16
3.81357e-16
3.77208e-16
2.67362e-16
3.02954e-16
3.23303e-16
1.77688e-16
3.28794e-16
3.71364e-16
3.58157e-16
2.56875e-16
2.33895e-16
2.46588e-16
4.71405e-16
2.34504e-16
3.14292e-16
1.17948e-16
3.71933e-16
3.08834e-16
2.27433e-16
3.14732e-17
2.59415e-16
3.42336e-17
2.7893e-16
2.69213e-16
2.4541e-16
2.25291e-16
2.14799e-16
4.00432e-16
3.29062e-16
3.20304e-16
2.7481e-16
2.65543e-16
2.2503e-16
3.79729e-16
3.85703e-16
3.47284e-16
3.039e-16
3.10616e-16
2.38891e-16
4.62238e-16
2.98687e-16
1.61781e-16
2.15803e-16
4.157e-16
3.89044e-16
2.89047e-16
2.6556e-16
1.7852e-16
2.75483e-16
2.8786e-16
2.48841e-16
4.45352e-16
4.62469e-16
3.96052e-16
4.36606e-16
3.40169e-16
1.90913e-16
4.32352e-16
1.94541e-16
2.48859e-16
1.99214e-16
4.12723e-16
4.01522e-16
4.05172e-16
2.76164e-16
1.61347e-16
1.86649e-16
2.97474e-16
3.61429e-16
1.61299e-16
2.30539e-16
3.49899e-16
2.67851e-16
4.27277e-16
2.17323e-16
3.48944e-16
3.16611e-16
3.07097e-16
1.9631e-16
2.53345e-16
2.80632e-16
3.98158e-16
2.38758e-16
3.61273e-16
4.17577e-16
4.24287e-16
2.77218e-16
2.37355e-16
2.35977e-16
3.6478e-16
3.07695e-16
2.367e-16
1.58012e-16
2.31516e-16
2.29258e-16
3.89876e-16
2.40561e-16
2.43228e-16
2.64332e-16
2.34413e-16
3.40531e-16
2.45204e-16
2.18366e-16
2.67758e-16
2.5902e-16
3.03747e-16
3.36839e-16
3.27545e-16
2.74658e-16
3.2644e-16
2.56544e-16
3.78175e-16
4.05903e-16
2.30559e-16
3.96277e-16
2.31485e-16
3.9137e-16
3.59189e-16
3.33859e-16
3.42986e-16
3.99725e-16
1.94955e-16
2.53458e-16
2.36771e-16
4.04466e-16
3.98945e-16
3.69789e-16
4.00544e-16
4.09359e-16
3.43088e-16
4.21546e-16
2.85495e-16
2.59446e-16
4.5859e-16
2.74761e-16
4.16393e-16
3.32298e-16
2.16843e-16
2.54044e-16
4.17104e-16
3.44727e-16
3.15827e-16
4.07485e-16
3.97843e-16
2.6199e-16
2.55969e-16
2.52896e-16
3.52714e-16
3.90649e-16
4.48963e-16
4.31566e-16
4.69437e-16
4.25363e-16
4.64861e-16
3.9017e-16
4.04841e-16
4.0805e-16
3.84613e-16
4.04031e-16
3.70524e-16
3.64999e-16
2.65566e-16
3.51535e-16
4.11969e-16
2.87881e-16
4.16049e-16
3.82133e-16
4.46604e-16
2.72738e-16
4.2484e-16
4.05607e-16
2.67129e-16
3.60967e-16
2.65378e-16
4.0661e-16
3.73333e-16
2.78097e-16
2.62331e-16
2.29163e-16
2.63545e-16
4.07215e-16
1.92592e-16
3.15975e-16
2.61415e-16
2.91497e-16
4.25261e-16
4.10703e-16
1.26362e-16
4.12239e-16
2.3074e-16
2.47455e-16
4.22862e-16
3.43745e-16
2.50502e-16
4.70831e-16
2.70711e-16
1.26366e-16
2.53016e-16
3.66201e-16
4.56313e-16
3.47514e-16
4.05105e-16
3.81147e-16
1.98365e-16
1.97095e-16
1.73221e-16
1.99175e-16
2.70715e-16
2.10315e-16
3.37352e-16
2.13737e-16
3.60438e-16
2.58702e-16
2.53413e-16
2.9129e-16
2.74665e-16
3.60573e-16
2.63365e-16
2.72047e-16
1.15392e-16
2.67241e-16
3.87193e-16
3.87501e-16
3.53559e-16
2.62774e-16
1.66504e-16
4.89681e-16
3.32121e-16
2.78732e-16
2.57325e-16
2.50387e-16
2.6549e-16
3.16383e-16
2.60527e-16
1.90124e-16
2.56939e-16
1.78722e-16
3.1304e-16
2.62516e-16
1.07557e-16
2.47059e-16
2.87417e-16
2.6266e-16
3.97306e-16
2.72441e-16
3.48076e-16
1.37485e-16
2.79657e-16
2.69587e-16
2.30013e-16
2.53148e-16
2.96653e-16
2.76418e-16
2.89944e-16
2.49777e-16
2.53503e-16
2.73249e-16
3.59948e-16
2.58172e-16
3.61875e-16
3.27366e-16
2.54595e-16
2.67817e-16
2.69938e-16
2.97335e-16
2.69362e-16
2.52874e-16
2.86574e-16
2.9584e-16
3.51871e-16
2.69831e-16
2.69043e-16
3.84253e-16
3.78839e-16
2.58415e-16
2.54659e-16
1.19945e-16
3.12257e-16
2.21467e-16
2.93782e-16
1.37424e-16
1.42646e-16
1.27452e-16
1.29551e-16
1.37425e-16
1.44812e-16
1.49212e-16
3.26055e-16
2.39067e-16
2.45163e-16
2.81664e-16
2.75081e-16
2.717e-16
2.84719e-16
2.65971e-16
2.72091e-16
2.69938e-16
2.70694e-16
3.26896e-16
2.47999e-16
3.36139e-16
2.6435e-16
2.55934e-16
2.71078e-16
2.83487e-16
3.00305e-16
2.8068e-16
3.20403e-16
3.00299e-16
2.79435e-16
2.02818e-16
2.80192e-16
2.73128e-16
2.90862e-16
2.83184e-16
2.6871e-16
2.55223e-16
2.8059e-16
2.91722e-16
3.94533e-16
2.62941e-16
3.83608e-16
4.01508e-16
2.75697e-16
3.83391e-16
2.95062e-16
2.37669e-16
3.19536e-16
2.82743e-16
1.99581e-16
1.83383e-16
3.14932e-16
3.35032e-16
2.86515e-16
2.38684e-16
2.84786e-16
1.4102e-16
2.83291e-16
2.66411e-16
1.3963e-16
5.05987e-17
5.53447e-17
2.45274e-16
2.63112e-16
3.04436e-16
2.93614e-16
2.58099e-17
2.69695e-17
2.88475e-16
2.91465e-16
2.75967e-16
1.05859e-16
2.46377e-16
2.82389e-16
2.91132e-16
2.51229e-16
2.21675e-16
1.10316e-16
4.16246e-16
2.64823e-16
3.21599e-16
3.26628e-16
2.35658e-16
2.97999e-16
2.30417e-16
2.54155e-16
1.29827e-16
1.94138e-16
2.98366e-16
2.99252e-16
2.57868e-16
2.7126e-16
2.79568e-16
2.9462e-16
2.81869e-16
1.42483e-16
2.43905e-16
2.79717e-16
2.61399e-16
3.91786e-16
1.4249e-16
2.1356e-16
2.2006e-16
2.05325e-16
1.31932e-16
1.31946e-16
2.3571e-16
1.94095e-16
2.75785e-16
1.52587e-16
1.57713e-16
5.10797e-17
5.10801e-17
1.15018e-16
1.72106e-16
1.15716e-16
2.35079e-16
2.51003e-16
2.70758e-16
3.04365e-16
2.75218e-16
2.54503e-16
2.01531e-16
1.29806e-16
2.53511e-16
2.61397e-16
2.52531e-16
1.45265e-16
1.27125e-16
1.04144e-16
2.52221e-16
2.58153e-16
2.10217e-16
2.34949e-16
2.16601e-16
1.95756e-16
2.65313e-16
1.95746e-16
2.3482e-16
2.24722e-16
1.35805e-16
1.6761e-16
1.63874e-16
2.80099e-16
1.15785e-16
1.21884e-16
1.19433e-16
2.6395e-16
1.10062e-16
1.08158e-16
1.8563e-16
1.00751e-16
2.11404e-16
2.11731e-16
1.03359e-16
2.34846e-16
1.13748e-16
1.14088e-16
1.27491e-16
1.08866e-16
1.06004e-16
1.50071e-16
1.25717e-16
1.15204e-16
1.09159e-16
2.14074e-16
2.42602e-16
1.19288e-16
2.36261e-16
9.91451e-17
2.39322e-16
1.91224e-16
1.03495e-16
8.69925e-17
9.78249e-17
1.2951e-16
2.06435e-16
1.66745e-16
6.87483e-17
7.63621e-17
2.28945e-16
6.47236e-17
6.47248e-17
7.33589e-17
8.26753e-17
9.89377e-17
1.09497e-16
1.82551e-16
1.68138e-16
2.29238e-16
6.52381e-17
6.52388e-17
1.98391e-16
8.64932e-17
1.64359e-16
7.83313e-17
7.81288e-17
1.02917e-16
1.69095e-16
1.75119e-16
1.86622e-16
1.71013e-16
1.69096e-16
3.6691e-17
2.73041e-16
4.69194e-17
4.53011e-17
2.20476e-16
2.18932e-16
4.69342e-17
3.26335e-17
4.60956e-17
2.03546e-16
SCALARS rr_tg float
LOOKUP_TABLE default
0.8
0.8
0.8
0.8
0.8
0.8
0.8
0.8
0.8
0.8
0.8
0.8
0.8
0.8
0.8
0.8
0.8
0.8
0.8
0.8
0.8
0.8
0.8
0.8
0.8
0.8
0.8
0.8
0.8
0.8
0.8
0.8
0.8
0.8
0.8
0.8
0.8
0.8
0.8
0.8
0.8
0.8
0.8
0.8
0.8
0.8
0.8
0.8
0.8
0.8
0.8
0.8
0.8
0.8
0.8
0.8
0.8
0.8
0.8
0.8
0.8
0.8
0.8
0.8
0.8
0.8
0.8
0.8
0.8
0.8
0.8
0.8
0.8
0.8
0.8
0.8
0.8
0.8
0.8
0.8
0.8
0.8
0.8
0.8
0.8
0.8
0.8
0.8
0.8
0.8
0.8
0.8
0.8
0.8
0.8
0.8
0.8
0.8
0.8
0.8
0.8
0.8
0.8
0.8
0.8
0.8
0.8
0.8
0.8
0.8
0.8
0.8
0.8
0.8
0.8
0.8
0.8
0.8
0.8
0.8
0.8
0.8
0.8
0.8
0.8
0.8
0.8
0.8
0.8
0.8
0.8
0.8
0.8
0.8
0.8
0.8
0.8
0.8
0.8
0.8
0.8
0.8
0.8
0.8
0.8
0.8
0.8
0.8
0.8
0.8
0.8
0.8
0.8
0.8
0.8
0.8
0.8
0.8
0.8
0.8
0.8
0.8
0.8
0.8
0.8
0.8
0.8
0.8
0.8
0.8
0.8
0.8
0.8
0.8
0.8
0.8
0.8
0.8
0.8
0.8
0.8
0.8
0.8
0.8
0.8
0.8
0.8
0.8
0.8
0.8
0.8
0.8
0.8
0.8
0.8
0.8
0.8
0.8
0.8
0.8
0.8
0.8
0.8
0.8
0.8
0.8
0.8
0.8
0.8
0.8
0.8
0.8
0.8
0.8
0.8
0.8
0.8
0.8
0.8
0.8
0.8
0.8
0.8
0.8
0.8
0.8
0.8
0.8
0.8
0.8
0.8
0.8
0.8
0.8
0.8
0.8
0.8
0.8
0.8
0.8
0.8
0.8
0.8
0.8
0.8
0.8
0.8
0.8
0.8
0.8
0.8
0.8
0.8
0.8
0.8
0.8
0.8
0.8
0.8
0.8
0.8
0.8
0.8
0.8
0.8
0.8
0.8
0.8
0.8
0.8
0.8
0.8
0.8
0.8
0.8
0.8
0.8
0.8
0.8
0.8
0.8
0.8
0.8
0.8
0.8
0.8
0.8
0.8
0.8
0.8
0.8
0.8
0.8
0.8
0.8
0.8
0.8
0.8
0.8
0.8
0.8
0.8
0.8
0.8
0.8
0.8
0.8
0.8
0.8
0.8
0.8
0.8
0.8
0.8
0.8
0.8
0.8
0.8
0.8
0.8
0.8
0.8
0.8
0.8
0.8
0.8
0.8
0.8
0.8
0.8
0.8
0.8
0.8
0.8
0.8
0.8
0.8
0.8
0.8
0.8
0.8
0.8
0.8
0.8
0.8
0.8
0.8
0.8
0.8
0.8
0.8
0.8
0.8
0.8
0.8
0.8
0.8
0.8
0.8
0.8
0.8
0.8
0.8
0.8
0.8
0.8
0.8
0.8
0.8
0.8
0.8
0.8
0.8
0.8
0.8
0.8
0.8
0.8
0.8
0.8
0.8
0.8
0.8
0.8
0.8
0.8
0.8
0.8
0.8
0.8
0.8
0.8
0.8
0.8
0.8
0.8
0.8
0.8
0.8
0.8
0.8
0.8
0.8
0.8
0.8
0.8
0.8
0.8
0.8
0.8
0.8
0.8
0.8
0.8
0.8
0.8
0.8
0.8
0.8
0.8
0.8
0.8
0.8
0.8
0.8
0.8
0.8
0.8
0.8
0.8
0.8
0.8
0.8
0.8
0.8
0.8
0.8
0.8
0.8
0.8
0.8
0.8
0.8
0.8
0.8
0.8
0.8
0.8
0.8
0.8
0.8
0.8
0.8
0.8
0.8
0.8
0.8
0.8
0.8
0.8
0.8
0.8
0.8
0.8
0.8
0.8
0.8
0.8
0.8
0.8
0.8
0.8
0.8
0.8
0.8
0.8
0.8
0.8
0.8
0.8
0.8
0.8
0.8
0.8
0.8
0.8
0.8
0.8
0.8
0.8
0.8
0.8
0.8
0.8
0.8
0.8
0.8
0.8
0.8
0.8
0.8
0.8
0.8
0.8
0.8
0.8
0.8
0.8
0.8
0.8
0.8
0.8
0.8
0.8
0.8
0.8
0.8
0.8
0.8
0.8
0.8
0.8
0.8
0.8
0.8
0.8
0.8
0.8
0.8
0.8
0.8
0.8
0.8
0.8
0.8
0.8
0.8
0.8
0.8
0.8
0.8
0.8
0.8
0.8
0.8
0.8
0.8
0.8
0.8
0.8
0.8
0.8
0.8
0.8
0.8
0.8
0.8
0.8
0.8
0.8
0.8
0.8
0.8
SCALARS rr_tg1 float
LOOKUP_TABLE default
0
0
0
0
0
0
0
0
0
0
0
0
0
0
0
0
0
0
0
0
0
0
0
0
0
0
0
0
0
0
0
0
0
0
0
0
0
0
0
0
0
0
0
0
0
0
0
0
0
0
0
0
0
0
0
0
0
0
0
0
0
0
0
0
0
0
0
0
0
0
0
0
0
0
0
0
0
0
0
0
0
0
0
0
0
0
0
0
0
0
0
0
0
0
0
0
0
0
0
0
0
0
0
0
0
0
0
0
0
0
0
0
0
0
0
0
0
0
0
0
0
0
0
0
0
0
0
0
0
0
0
0
0
0
0
0
0
0
0
0
0
0
0
0
0
0
0
0
0
0
0
0
0
0
0
0
0
0
0
0
0
0
0
0
0
0
0
0
0
0
0
0
0
0
0
0
0
0
0
0
0
0
0
0
0
0
0
0
0
0
0
0
0
0
0
0
0
0
0
0
0
0
0
0
0
0
0
0
0
0
0
0
0
0
0
0
0
0
0
0
0
0
0
0
0
0
0
0
0
0
0
0
0
0
0
0
0
0
0
0
0
0
0
0
0
0
0
0
0
0
0
0
0
0
0
0
0
0
0
0
0
0
0
0
0
0
0
0
0
0
0
0
0
0
0
0
0
0
0
0
0
0
0
0
0
0
0
0
0
0
0
0
0
0
0
0
0
0
0
0
0
0
0
0
0
0
0
0
0
0
0
0
0
0
0
0
0
0
0
0
0
0
0
0
0
0
0
0
0
0
0
0
0
0
0
0
0
0
0
0
0
0
0
0
0
0
0
0
0
0
0
0
0
0
0
0
0
0
0
0
0
0
0
0
0
0
0
0
0
0
0
0
0
0
0
0
0
0
0
0
0
0
0
0
0
0
0
0
0
0
0
0
0
0
0
0
0
0
0
0
0
0
0
0
0
0
0
0
0
0
0
0
0
0
0
0
0
0
0
0
0
0
0
0
0
0
0
0
0
0
0
0
0
0
0
0
0
0
0
0
0
0
0
0
0
0
0
0
0
0
0
0
0
0
0
0
0
0
0
0
0
0
0
0
0
0
0
0
0
0
0
0
0
0
0
0
0
0
0
0
0
0
0
0
0
0
0
0
0
0
0
0
0
0
0
0
0
0
0
0
0
0
0
0
0
0
0
0
0
0
0
0
0
0
0
0
0
0
0
0
0
0
0
0
0
0
0
0
0
0
0
0
0
0
0
0
0
0
0
0
0
0
0
0
0
0
0
0
0
0
0
0
0
0
0
0
0
0
0
0
0
0
0
SCALARS rr_tg2 float
LOOKUP_TABLE default
0
0
0
0
0
0
0
0
0
0
0
0
0
0
0
0
0
0
0
0
0
0
0
0
0
0
0
0
0
0
0
0
0
0
0
0
0
0
0
0
0
0
0
0
0
0
0
0
0
0
0
0
0
0
0
0
0
0
0
0
0
0
0
0
0
0
0
0
0
0
0
0
0
0
0
0
0
0
0
0
0
0
0
0
0
0
0
0
0
0
0
0
0
0
0
0
0
0
0
0
0
0
0
0
0
0
0
0
0
0
0
0
0
0
0
0
0
0
0
0
0
0
0
0
0
0
0
0
0
0
0
0
0
0
0
0
0
0
0
0
0
0
0
0
0
0
0
0
0
0
0
0
0
0
0
0
0
0
0
0
0
0
0
0
0
0
0
0
0
0
0
0
0
0
0
0
0
0
0
0
0
0
0
0
0
0
0
0
0
0
0
0
0
0
0
0
0
0
0
0
0
0
0
0
0
0
0
0
0
0
0
0
0
0
0
0
0
0
0
0
0
0
0
0
0
0
0
0
0
0
0
0
0
0
0
0
0
0
0
0
0
0
0
0
0
0
0
0
0
0
0
0
0
0
0
0
0
0
0
0
0
0
0
0
0
0
0
0
0
0
0
0
0
0
0
0
0
0
0
0
0
0
0
0
0
0
0
0
0
0
0
0
0
0
0
0
0
0
0
0
0
0
0
0
0
0
0
0
0
0
0
0
0
0
0
0
0
0
0
0
0
0
0
0
0
0
0
0
0
0
0
0
0
0
0
0
0
0
0
0
0
0
0
0
0
0
0
0
0
0
0
0
0
0
0
0
0
0
0
0
0
0
0
0
0
0
0
0
0
0
0
0
0
0
0
0
0
0
0
0
0
0
0
0
0
0
0
0
0
0
0
0
0
0
0
0
0
0
0
0
0
0
0
0
0
0
0
0
0
0
0
0
0
0
0
0
0
0
0
0
0
0
0
0
0
0
0
0
0
0
0
0
0
0
0
0
0
0
0
0
0
0
0
0
0
0
0
0
0
0
0
0
0
0
0
0
0
0
0
0
0
0
0
0
0
0
0
0
0
0
0
0
0
0
0
0
0
0
0
0
0
0
0
0
0
0
0
0
0
0
0
0
0
0
0
0
0
0
0
0
0
0
0
0
0
0
0
0
0
0
0
0
0
0
0
0
0
0
0
0
0
0
0
0
0
0
0
0
0
0
0
0
0
0
0
0
0
0
0
0
0
0
0
0
0
0
0
0
0
0
0
0
0
0
0
0
0
0
0
0
0
0
0
SCALARS rr_tg3 float
LOOKUP_TABLE default
0
0
0
0
0
0
0
0
0
0
0
0
0
0
0
0
0
0
0
0
0
0
0
0
0
0
0
0
0
0
0
0
0
0
0
0
0
0
0
0
0
0
0
0
0
0
0
0
0
0
0
0
0
0
0
0
0
0
0
0
0
0
0
0
0
0
0
0
0
0
0
0
0
0
0
0
0
0
0
0
0
0
0
0
0
0
0
0
0
0
0
0
0
0
0
0
0
0
0
0
0
0
0
0
0
0
0
0
0
0
0
0
0
0
0
0
0
0
0
0
0
0
0
0
0
0
0
0
0
0
0
0
0
0
0
0
0
0
0
0
0
0
0
0
0
0
0
0
0
0
0
0
0
0
0
0
0
0
0
0
0
0
0
0
0
0
0
0
0
0
0
0
0
0
0
0
0
0
0
0
0
0
0
0
0
0
0
0
0
0
0
0
0
0
0
0
0
0
0
0
0
0
0
0
0
0
0
0
0
0
0
0
0
0
0
0
0
0
0
0
0
0
0
0
0
0
0
0
0
0
0
0
0
0
0
0
0
0
0
0
0
0
0
0
0
0
0
0
0
0
0
0
0
0
0
0
0
0
0
0
0
0
0
0
0
0
0
0
0
0
0
0
0
0
0
0
0
0
0
0
0
0
0
0
0
0
0
0
0
0
0
0
0
0
0
0
0
0
0
0
0
0
0
0
0
0
0
0
0
0
0
0
0
0
0
0
0
0
0
0
0
0
0
0
0
0
0
0
0
0
0
0
0
0
0
0
0
0
0
0
0
0
0
0
0
0
0
0
0
0
0
0
0
0
0
0
0
0
0
0
0
0
0
0
0
0
0
0
0
0
0
0
0
0
0
0
0
0
0
0
0
0
0
0
0
0
0
0
0
0
0
0
0
0
0
0
0
0
0
0
0
0
0
0
0
0
0
0
0
0
0
0
0
0
0
0
0
0
0
0
0
0
0
0
0
0
0
0
0
0
0
0
0
0
0
0
0
0
0
0
0
0
0
0
0
0
0
0
0
0
0
0
0
0
0
0
0
0
0
0
0
0
0
0
0
0
0
0
0
0
0
0
0
0
0
0
0
0
0
0
0
0
0
0
0
0
0
0
0
0
0
0
0
0
0
0
0
0
0
0
0
0
0
0
0
0
0
0
0
0
0
0
0
0
0
0
0
0
0
0
0
0
0
0
0
0
0
0
0
0
0
0
0
0
0
0
0
0
0
0
0
0
0
0
0
0
0
0
0
0
0
0
0
0
0
0
0
0
0
0
0
0
0
SCALARS rr_tg4 float
LOOKUP_TABLE default
0
0
0
0
0
0
0
0
0
0
0
0
0
0
0
0
0
0
0
0
0
0
0
0
0
0
0
0
0
0
0
0
0
0
0
0
0
0
0
0
0
0
0
0
0
0
0
0
0
0
0
0
0
0
0
0
0
0
0
0
0
0
0
0
0
0
0
0
0
0
0
0
0
0
0
0
0
0
0
0
0
0
0
0
0
0
0
0
0
0
0
0
0
0
0
0
0
0
0
0
0
0
0
0
0
0
0
0
0
0
0
0
0
0
0
0
0
0
0
0
0
0
0
0
0
0
0
0
0
0
0
0
0
0
0
0
0
0
0
0
0
0
0
0
0
0
0
0
0
0
0
0
0
0
0
0
0
0
0
0
0
0
0
0
0
0
0
0
0
0
0
0
0
0
0
0
0
0
0
0
0
0
0
0
0
0
0
0
0
0
0
0
0
0
0
0
0
0
0
0
0
0
0
0
0
0
0
0
0
0
0
0
0
0
0
0
0
0
0
0
0
0
0
0
0
0
0
0
0
0
0
0
0
0
0
0
0
0
0
0
0
0
0
0
0
0
0
0
0
0
0
0
0
0
0
0
0
0
0
0
0
0
0
0
0
0
0
0
0
0
0
0
0
0
0
0
0
0
0
0
0
0
0
0
0
0
0
0
0
0
0
0
0
0
0
0
0
0
0
0
0
0
0
0
0
0
0
0
0
0
0
0
0
0
0
0
0
0
0
0
0
0
0
0
0
0
0
0
0
0
0
0
0
0
0
0
0
0
0
0
0
0
0
0
0
0
0
0
0
0
0
0
0
0
0
0
0
0
0
0
0
0
0
0
0
0
0
0
0
0
0
0
0
0
0
0
0
0
0
0
0
0
0
0
0
0
0
0
0
0
0
0
0
0
0
0
0
0
0
0
0
0
0
0
0
0
0
0
0
0
0
0
0
0
0
0
0
0
0
0
0
0
0
0
0
0
0
0
0
0
0
0
0
0
0
0
0
0
0
0
0
0
0
0
0
0
0
0
0
0
0
0
0
0
0
0
0
0
0
0
0
0
0
0
0
0
0
0
0
0
0
0
0
0
0
0
0
0
0
0
0
0
0
0
0
0
0
0
0
0
0
0
0
0
0
0
0
0
0
0
0
0
0
0
0
0
0
0
0
0
0
0
0
0
0
0
0
0
0
0
0
0
0
0
0
0
0
0
0
0
0
0
0
0
0
0
0
0
0
0
0
0
0
0
0
0
0
0
0
0
0
0
0
0
0
0
0
0
0
0
0
0
0
SCALARS rr_acoa float
LOOKUP_TABLE default
0.1
0.1
0.1
0.1
0.1
0.1
0.1
0.1
0.1
0.1
0.1
0.1
0.1
0.1
0.1
0.1
0.1
0.1
0.1
0.1
0.1
0.1
0.1
0.1
0.1
0.1
0.1
0.1
0.1
0.1
0.1
0.1
0.1
0.1
0.1
0.1
0.1
0.1
0.1
0.1
0.1
0.1
0.1
0.1
0.1
0.1
0.1
0.1
0.1
0.1
0.1
0.1
0.1
0.1
0.1
0.1
0.1
0.1
0.1
0.1
0.1
0.1
0.1
0.1
0.1
0.1
0.1
0.1
0.1
0.1
0.1
0.1
0.1
0.1
0.1
0.1
0.1
0.1
0.1
0.1
0.1
0.1
0.1
0.1
0.1
0.1
0.1
0.1
0.1
0.1
0.1
0.1
0.1
0.1
0.1
0.1
0.1
0.1
0.1
0.1
0.1
0.1
0.1
0.1
0.1
0.1
0.1
0.1
0.1
0.1
0.1
0.1
0.1
0.1
0.1
0.1
0.1
0.1
0.1
0.1
0.1
0.1
0.1
0.1
0.1
0.1
0.1
0.1
0.1
0.1
0.1
0.1
0.1
0.1
0.1
0.1
0.1
0.1
0.1
0.1
0.1
0.1
0.1
0.1
0.1
0.1
0.1
0.1
0.1
0.1
0.1
0.1
0.1
0.1
0.1
0.1
0.1
0.1
0.1
0.1
0.1
0.1
0.1
0.1
0.1
0.1
0.1
0.1
0.1
0.1
0.1
0.1
0.1
0.1
0.1
0.1
0.1
0.1
0.1
0.1
0.1
0.1
0.1
0.1
0.1
0.1
0.1
0.1
0.1
0.1
0.1
0.1
0.1
0.1
0.1
0.1
0.1
0.1
0.1
0.1
0.1
0.1
0.1
0.1
0.1
0.1
0.1
0.1
0.1
0.1
0.1
0.1
0.1
0.1
0.1
0.1
0.1
0.1
0.1
0.1
0.1
0.1
0.1
0.1
0.1
0.1
0.1
0.1
0.1
0.1
0.1
0.1
0.1
0.1
0.1
0.1
0.1
0.1
0.1
0.1
0.1
0.1
0.1
0.1
0.1
0.1
0.1
0.1
0.1
0.1
0.1
0.1
0.1
0.1
0.1
0.1
0.1
0.1
0.1
0.1
0.1
0.1
0.1
0.1
0.1
0.1
0.1
0.1
0.1
0.1
0.1
0.1
0.1
0.1
0.1
0.1
0.1
0.1
0.1
0.1
0.1
0.1
0.1
0.1
0.1
0.1
0.1
0.1
0.1
0.1
0.1
0.1
0.1
0.1
0.1
0.1
0.1
0.1
0.1
0.1
0.1
0.1
0.1
0.1
0.1
0.1
0.1
0.1
0.1
0.1
0.1
0.1
0.1
0.1
0.1
0.1
0.1
0.1
0.1
0.1
0.1
0.1
0.1
0.1
0.1
0.1
0.1
0.1
0.1
0.1
0.1
0.1
0.1
0.1
0.1
0.1
0.1
0.1
0.1
0.1
0.1
0.1
0.1
0.1
0.1
0.1
0.1
0.1
0.1
0.1
0.1
0.1
0.1
0.1
0.1
0.1
0.1
0.1
0.1
0.1
0.1
0.1
0.1
0.1
0.1
0.1
0.1
0.1
0.1
0.1
0.1
0.1
0.1
0.1
0.1
0.1
0.1
0.1
0.1
0.1
0.1
0.1
0.1
0.1
0.1
0.1
0.1
0.1
0.1
0.1
0.1
0.1
0.1
0.1
0.1
0.1
0.1
0.1
0.1
0.1
0.1
0.1
0.1
0.1
0.1
0.1
0.1
0.1
0.1
0.1
0.1
0.1
0.1
0.1
0.1
0.1
0.1
0.1
0.1
0.1
0.1
0.1
0.1
0.1
0.1
0.1
0.1
0.1
0.1
0.1
0.1
0.1
0.1
0.1
0.1
0.1
0.1
0.1
0.1
0.1
0.1
0.1
0.1
0.1
0.1
0.1
0.1
0.1
0.1
0.1
0.1
0.1
0.1
0.1
0.1
0.1
0.1
0.1
0.1
0.1
0.1
0.1
0.1
0.1
0.1
0.1
0.1
0.1
0.1
0.1
0.1
0.1
0.1
0.1
0.1
0.1
0.1
0.1
0.1
0.1
0.1
0.1
0.1
0.1
0.1
0.1
0.1
0.1
0.1
0.1
0.1
0.1
0.1
0.1
0.1
0.1
0.1
0.1
0.1
0.1
0.1
0.1
0.1
0.1
0.1
0.1
0.1
0.1
0.1
0.1
0.1
0.1
0.1
0.1
0.1
0.1
0.1
0.1
0.1
0.1
0.1
0.1
0.1
0.1
0.1
0.1
0.1
0.1
0.1
0.1
0.1
0.1
0.1
0.1
0.1
0.1
0.1
0.1
0.1
0.1
0.1
0.1
0.1
0.1
0.1
0.1
0.1
0.1
0.1
0.1
0.1
0.1
0.1
0.1
0.1
0.1
0.1
0.1
0.1
0.1
0.1
0.1
0.1
SCALARS rr_dg float
LOOKUP_TABLE default
0.8
0.8
0.8
0.8
0.8
0.8
0.8
0.8
0.8
0.8
0.8
0.8
0.8
0.8
0.8
0.8
0.8
0.8
0.8
0.8
0.8
0.8
0.8
0.8
0.8
0.8
0.8
0.8
0.8
0.8
0.8
0.8
0.8
0.8
0.8
0.8
0.8
0.8
0.8
0.8
0.8
0.8
0.8
0.8
0.8
0.8
0.8
0.8
0.8
0.8
0.8
0.8
0.8
0.8
0.8
0.8
0.8
0.8
0.8
0.8
0.8
0.8
0.8
0.8
0.8
0.8
0.8
0.8
0.8
0.8
0.8
0.8
0.8
0.8
0.8
0.8
0.8
0.8
0.8
0.8
0.8
0.8
0.8
0.8
0.8
0.8
0.8
0.8
0.8
0.8
0.8
0.8
0.8
0.8
0.8
0.8
0.8
0.8
0.8
0.8
0.8
0.8
0.8
0.8
0.8
0.8
0.8
0.8
0.8
0.8
0.8
0.8
0.8
0.8
0.8
0.8
0.8
0.8
0.8
0.8
0.8
0.8
0.8
0.8
0.8
0.8
0.8
0.8
0.8
0.8
0.8
0.8
0.8
0.8
0.8
0.8
0.8
0.8
0.8
0.8
0.8
0.8
0.8
0.8
0.8
0.8
0.8
0.8
0.8
0.8
0.8
0.8
0.8
0.8
0.8
0.8
0.8
0.8
0.8
0.8
0.8
0.8
0.8
0.8
0.8
0.8
0.8
0.8
0.8
0.8
0.8
0.8
0.8
0.8
0.8
0.8
0.8
0.8
0.8
0.8
0.8
0.8
0.8
0.8
0.8
0.8
0.8
0.8
0.8
0.8
0.8
0.8
0.8
0.8
0.8
0.8
0.8
0.8
0.8
0.8
0.8
0.8
0.8
0.8
0.8
0.8
0.8
0.8
0.8
0.8
0.8
0.8
0.8
0.8
0.8
0.8
0.8
0.8
0.8
0.8
0.8
0.8
0.8
0.8
0.8
0.8
0.8
0.8
0.8
0.8
0.8
0.8
0.8
0.8
0.8
0.8
0.8
0.8
0.8
0.8
0.8
0.8
0.8
0.8
0.8
0.8
0.8
0.8
0.8
0.8
0.8
0.8
0.8
0.8
0.8
0.8
0.8
0.8
0.8
0.8
0.8
0.8
0.8
0.8
0.8
0.8
0.8
0.8
0.8
0.8
0.8
0.8
0.8
0.8
0.8
0.8
0.8
0.8
0.8
0.8
0.8
0.8
0.8
0.8
0.8
0.8
0.8
0.8
0.8
0.8
0.8
0.8
0.8
0.8
0.8
0.8
0.8
0.8
0.8
0.8
0.8
0.8
0.8
0.8
0.8
0.8
0.8
0.8
0.8
0.8
0.8
0.8
0.8
0.8
0.8
0.8
0.8
0.8
0.8
0.8
0.8
0.8
0.8
0.8
0.8
0.8
0.8
0.8
0.8
0.8
0.8
0.8
0.8
0.8
0.8
0.8
0.8
0.8
0.8
0.8
0.8
0.8
0.8
0.8
0.8
0.8
0.8
0.8
0.8
0.8
0.8
0.8
0.8
0.8
0.8
0.8
0.8
0.8
0.8
0.8
0.8
0.8
0.8
0.8
0.8
0.8
0.8
0.8
0.8
0.8
0.8
0.8
0.8
0.8
0.8
0.8
0.8
0.8
0.8
0.8
0.8
0.8
0.8
0.8
0.8
0.8
0.8
0.8
0.8
0.8
0.8
0.8
0.8
0.8
0.8
0.8
0.8
0.8
0.8
0.8
0.8
0.8
0.8
0.8
0.8
0.8
0.8
0.8
0.8
0.8
0.8
0.8
0.8
0.8
0.8
0.8
0.8
0.8
0.8
0.8
0.8
0.8
0.8
0.8
0.8
0.8
0.8
0.8
0.8
0.8
0.8
0.8
0.8
0.8
0.8
0.8
0.8
0.8
0.8
0.8
0.8
0.8
0.8
0.8
0.8
0.8
0.8
0.8
0.8
0.8
0.8
0.8
0.8
0.8
0.8
0.8
0.8
0.8
0.8
0.8
0.8
0.8
0.8
0.8
0.8
0.8
0.8
0.8
0.8
0.8
0.8
0.8
0.8
0.8
0.8
0.8
0.8
0.8
0.8
0.8
0.8
0.8
0.8
0.8
0.8
0.8
0.8
0.8
0.8
0.8
0.8
0.8
0.8
0.8
0.8
0.8
0.8
0.8
0.8
0.8
0.8
0.8
0.8
0.8
0.8
0.8
0.8
0.8
0.8
0.8
0.8
0.8
0.8
0.8
0.8
0.8
0.8
0.8
0.8
0.8
0.8
0.8
0.8
0.8
0.8
0.8
0.8
0.8
0.8
0.8
0.8
0.8
0.8
0.8
0.8
0.8
0.8
0.8
0.8
0.8
0.8
0.8
0.8
0.8
0.8
0.8
0.8
0.8
0.8
0.8
0.8
0.8
0.8
0.8
0.8
0.8
0.8
0.8
0.8
0.8
0.8
0.8
0.8
SCALARS rr_ffa_ext' float
LOOKUP_TABLE default
0
0
0
0
0
0
0
0
0
0
0
0
0
0
0
0
0
0
0
0
0
0
0
0
0
0
0
0
0
0
0
0
0
0
0
0
0
0
0
0
0
0
0
0
0
0
0
0
0
0
0
0
0
0
0
0
0
0
0
0
0
0
0
0
0
0
0
0
0
0
0
0
0
0
0
0
0
0
0
0
0
0
0
0
0
0
0
0
0
0
0
0
0
0
0
0
0
0
0
0
0
0
0
0
0
0
0
0
0
0
0
0
0
0
0
0
0
0
0
0
0
0
0
0
0
0
0
0
0
0
0
0
0
0
0
0
0
0
0
0
0
0
0
0
0
0
0
0
0
0
0
0
0
0
0
0
0
0
0
0
0
0
0
0
0
0
0
0
0
0
0
0
0
0
0
0
0
0
0
0
0
0
0
0
0
0
0
0
0
0
0
0
0
0
0
0
0
0
0
0
0
0
0
0
0
0
0
0
0
0
0
0
0
0
0
0
0
0
0
0
0
0
0
0
0
0
0
0
0
0
0
0
0
0
0
0
0
0
0
0
0
0
0
0
0
0
0
0
0
0
0
0
0
0
0
0
0
0
0
0
0
0
0
0
0
0
0
0
0
0
0
0
0
0
0
0
0
0
0
0
0
0
0
0
0
0
0
0
0
0
0
0
0
0
0
0
0
0
0
0
0
0
0
0
0
0
0
0
0
0
0
0
0
0
0
0
0
0
0
0
0
0
0
0
0
0
0
0
0
0
0
0
0
0
0
0
0
0
0
0
0
0
0
0
0
0
0
0
0
0
0
0
0
0
0
0
0
0
0
0
0
0
0
0
0
0
0
0
0
0
0
0
0
0
0
0
0
0
0
0
0
0
0
0
0
0
0
0
0
0
0
0
0
0
0
0
0
0
0
0
0
0
0
0
0
0
0
0
0
0
0
0
0
0
0
0
0
0
0
0
0
0
0
0
0
0
0
0
0
0
0
0
0
0
0
0
0
0
0
0
0
0
0
0
0
0
0
0
0
0
0
0
0
0
0
0
0
0
0
0
0
0
0
0
0
0
0
0
0
0
0
0
0
0
0
0
0
0
0
0
0
0
0
0
0
0
0
0
0
0
0
0
0
0
0
0
0
0
0
0
0
0
0
0
0
0
0
0
0
0
0
0
0
0
0
0
0
0
0
0
0
0
0
0
0
0
0
0
0
0
0
0
0
0
0
0
0
0
0
0
0
0
0
0
0
0
0
0
0
0
0
0
0
0
0
0
0
0
0
0
0
0
0
SCALARS rr_ffa' float
LOOKUP_TABLE default
1.78444e-11
3.89535e-11
3.12345e-11
4.06948e-11
2.10062e-11
3.31538e-11
1.76462e-11
4.04889e-11
3.50426e-11
4.37828e-11
1.61574e-11
4.06133e-11
3.57747e-11
3.76787e-11
4.38359e-11
3.71975e-11
3.18188e-11
3.61155e-11
3.26115e-11
3.17323e-11
3.57165e-11
6.12368e-12
3.65953e-11
3.37054e-11
3.05568e-11
3.51049e-11
1.4883e-11
3.09101e-11
2.47116e-11
2.79234e-11
3.16087e-11
2.55431e-11
1.64961e-11
2.09847e-11
2.05917e-11
2.10328e-11
2.71323e-11
2.06462e-11
3.15797e-11
1.85396e-11
2.07731e-11
2.39073e-11
2.39111e-11
3.46898e-11
2.06182e-11
2.2517e-11
3.06596e-11
3.09898e-11
2.89492e-11
2.82924e-11
2.90065e-11
2.23682e-11
3.37402e-11
2.8738e-11
3.10746e-11
1.49363e-11
2.19837e-11
2.89488e-11
2.19838e-11
3.45853e-11
4.06253e-11
3.96566e-11
1.45981e-11
2.79674e-11
3.79817e-11
3.59833e-11
3.92911e-11
3.40944e-11
3.15351e-11
4.47017e-11
3.66103e-11
3.6212e-11
2.56667e-11
2.90836e-11
3.10371e-11
1.7058e-11
3.15643e-11
3.5651e-11
3.43831e-11
2.466e-11
2.24539e-11
2.36725e-11
4.52548e-11
2.25124e-11
3.0172e-11
1.1323e-11
3.57056e-11
2.96481e-11
2.18336e-11
3.02143e-12
2.49039e-11
3.28642e-12
2.67773e-11
2.58445e-11
2.35593e-11
2.16279e-11
2.06207e-11
3.84415e-11
3.15899e-11
3.07492e-11
2.63818e-11
2.54921e-11
2.16029e-11
3.64539e-11
3.70275e-11
3.33393e-11
2.91744e-11
2.98192e-11
2.29336e-11
4.43748e-11
2.8674e-11
1.5531e-11
2.07171e-11
3.99072e-11
3.73482e-11
2.77485e-11
2.54938e-11
1.7138e-11
2.64463e-11
2.76346e-11
2.38887e-11
4.27538e-11
4.4397e-11
3.8021e-11
4.19142e-11
3.26562e-11
1.83276e-11
4.15058e-11
1.8676e-11
2.38905e-11
1.91245e-11
3.96214e-11
3.85461e-11
3.88965e-11
2.65118e-11
1.54893e-11
1.79183e-11
2.85575e-11
3.46971e-11
1.54847e-11
2.21317e-11
3.35903e-11
2.57137e-11
4.10186e-11
2.0863e-11
3.34986e-11
3.03947e-11
2.94813e-11
1.88458e-11
2.43211e-11
2.69407e-11
3.82232e-11
2.29208e-11
3.46822e-11
4.00873e-11
4.07316e-11
2.6613e-11
2.27861e-11
2.26538e-11
3.50189e-11
2.95388e-11
2.27232e-11
1.51692e-11
2.22256e-11
2.20087e-11
3.74281e-11
2.30938e-11
2.33499e-11
2.53758e-11
2.25036e-11
3.2691e-11
2.35395e-11
2.09631e-11
2.57048e-11
2.48659e-11
2.91597e-11
3.23366e-11
3.14444e-11
2.63671e-11
3.13383e-11
2.46282e-11
3.63048e-11
3.89667e-11
2.21337e-11
3.80426e-11
2.22225e-11
3.75715e-11
3.44821e-11
3.20504e-11
3.29267e-11
3.83736e-11
1.87157e-11
2.4332e-11
2.273e-11
3.88287e-11
3.82987e-11
3.54997e-11
3.84522e-11
3.92985e-11
3.29364e-11
4.04684e-11
2.74075e-11
2.49068e-11
4.40246e-11
2.6377e-11
3.99738e-11
3.19006e-11
2.0817e-11
2.43883e-11
4.0042e-11
3.30938e-11
3.03194e-11
3.91185e-11
3.81929e-11
2.5151e-11
2.4573e-11
2.4278e-11
3.38606e-11
3.75023e-11
4.31004e-11
4.14303e-11
4.50659e-11
4.08349e-11
4.46266e-11
3.74563e-11
3.88647e-11
3.91728e-11
3.69228e-11
3.8787e-11
3.55703e-11
3.50399e-11
2.54944e-11
3.37473e-11
3.9549e-11
2.76366e-11
3.99407e-11
3.66847e-11
4.28739e-11
2.61828e-11
4.07846e-11
3.89383e-11
2.56444e-11
3.46528e-11
2.54763e-11
3.90346e-11
3.584e-11
2.66973e-11
2.51838e-11
2.19997e-11
2.53004e-11
3.90926e-11
1.84889e-11
3.03336e-11
2.50959e-11
2.79837e-11
4.08251e-11
3.94275e-11
1.21307e-11
3.9575e-11
2.21511e-11
2.37557e-11
4.05947e-11
3.29995e-11
2.40482e-11
4.51998e-11
2.59883e-11
1.21311e-11
2.42895e-11
3.51553e-11
4.38061e-11
3.33614e-11
3.889e-11
3.65901e-11
1.90431e-11
1.89211e-11
1.66292e-11
1.91208e-11
2.59887e-11
2.01903e-11
3.23858e-11
2.05187e-11
3.4602e-11
2.48354e-11
2.43277e-11
2.79638e-11
2.63678e-11
3.4615e-11
2.5283e-11
2.61165e-11
1.10776e-11
2.56552e-11
3.71705e-11
3.72001e-11
3.39416e-11
2.52263e-11
1.59844e-11
4.70094e-11
3.18836e-11
2.67582e-11
2.47032e-11
2.40371e-11
2.54871e-11
3.03728e-11
2.50106e-11
1.82519e-11
2.46662e-11
1.71574e-11
3.00519e-11
2.52016e-11
1.03255e-11
2.37176e-11
2.75921e-11
2.52154e-11
3.81414e-11
2.61543e-11
3.34153e-11
1.31985e-11
2.6847e-11
2.58803e-11
2.20813e-11
2.43022e-11
2.84787e-11
2.65361e-11
2.78346e-11
2.39786e-11
2.43363e-11
2.62319e-11
3.4555e-11
2.47845e-11
3.474e-11
3.14271e-11
2.44411e-11
2.57104e-11
2.59141e-11
2.85442e-11
2.58588e-11
2.42759e-11
2.75111e-11
2.84006e-11
3.37796e-11
2.59037e-11
2.58282e-11
3.68883e-11
3.63685e-11
2.48078e-11
2.44473e-11
1.15147e-11
2.99767e-11
2.12608e-11
2.8203e-11
1.31927e-11
1.36941e-11
1.22354e-11
1.24369e-11
1.31928e-11
1.39019e-11
1.43244e-11
3.13013e-11
2.29505e-11
2.35357e-11
2.70397e-11
2.64078e-11
2.60832e-11
2.73331e-11
2.55332e-11
2.61207e-11
2.5914e-11
2.59866e-11
3.1382e-11
2.38079e-11
3.22693e-11
2.53776e-11
2.45697e-11
2.60235e-11
2.72148e-11
2.88293e-11
2.69453e-11
3.07587e-11
2.88287e-11
2.68258e-11
1.94705e-11
2.68985e-11
2.62203e-11
2.79227e-11
2.71857e-11
2.57961e-11
2.45014e-11
2.69366e-11
2.80053e-11
3.78752e-11
2.52423e-11
3.68264e-11
3.85448e-11
2.64669e-11
3.68056e-11
2.8326e-11
2.28163e-11
3.06754e-11
2.71433e-11
1.91598e-11
1.76048e-11
3.02335e-11
3.21631e-11
2.75054e-11
2.29136e-11
2.73395e-11
1.35379e-11
2.71959e-11
2.55755e-11
1.34044e-11
4.85748e-12
5.31309e-12
2.35463e-11
2.52588e-11
2.92258e-11
2.81869e-11
2.47775e-12
2.58908e-12
2.76936e-11
2.79807e-11
2.64928e-11
1.01625e-11
2.36522e-11
2.71094e-11
2.79487e-11
2.4118e-11
2.12808e-11
1.05903e-11
3.99596e-11
2.5423e-11
3.08735e-11
3.13563e-11
2.26232e-11
2.86079e-11
2.212e-11
2.43989e-11
1.24634e-11
1.86373e-11
2.86431e-11
2.87282e-11
2.47553e-11
2.6041e-11
2.68385e-11
2.82835e-11
2.70594e-11
1.36784e-11
2.34149e-11
2.68528e-11
2.50943e-11
3.76115e-11
1.36791e-11
2.05017e-11
2.11257e-11
1.97112e-11
1.26655e-11
1.26668e-11
2.26282e-11
1.86331e-11
2.64753e-11
1.46483e-11
1.51405e-11
4.90365e-12
4.90369e-12
1.10417e-11
1.65222e-11
1.11087e-11
2.25676e-11
2.40963e-11
2.59927e-11
2.9219e-11
2.64209e-11
2.44323e-11
1.9347e-11
1.24614e-11
2.4337e-11
2.50941e-11
2.4243e-11
1.39454e-11
1.2204e-11
9.9978e-12
2.42132e-11
2.47827e-11
2.01808e-11
2.25551e-11
2.07937e-11
1.87926e-11
2.54701e-11
1.87916e-11
2.25428e-11
2.15733e-11
1.30373e-11
1.60906e-11
1.57319e-11
2.68895e-11
1.11154e-11
1.17009e-11
1.14656e-11
2.53392e-11
1.05659e-11
1.03831e-11
1.78204e-11
9.67213e-12
2.02948e-11
2.03262e-11
9.92249e-12
2.25452e-11
1.09198e-11
1.09525e-11
1.22391e-11
1.04511e-11
1.01764e-11
1.44068e-11
1.20688e-11
1.10596e-11
1.04792e-11
2.05511e-11
2.32898e-11
1.14516e-11
2.2681e-11
9.51793e-12
2.29749e-11
1.83575e-11
9.93555e-12
8.35128e-12
9.39119e-12
1.2433e-11
1.98177e-11
1.60075e-11
6.59984e-12
7.33076e-12
2.19788e-11
6.21346e-12
6.21359e-12
7.04246e-12
7.93683e-12
9.49801e-12
1.05118e-11
1.75249e-11
1.61413e-11
2.20069e-11
6.26285e-12
6.26293e-12
1.90456e-11
8.30335e-12
1.57784e-11
7.5198e-12
7.50037e-12
9.87999e-12
1.62331e-11
1.68115e-11
1.79157e-11
1.64173e-11
1.62332e-11
3.52233e-12
2.62119e-11
4.50426e-12
4.3489e-12
2.11657e-11
2.10175e-11
4.50569e-12
3.13282e-12
4.42517e-12
1.95404e-11
SCALARS rr_ins' float
LOOKUP_TABLE default
0
0
0
0
0
0
0
0
0
0
0
0
0
0
0
0
0
0
0
0
0
0
0
0
0
0
0
0
0
0
0
0
0
0
0
0
0
0
0
0
0
0
0
0
0
0
0
0
0
0
0
0
0
0
0
0
0
0
0
0
0
0
0
0
0
0
0
0
0
0
0
0
0
0
0
0
0
0
0
0
0
0
0
0
0
0
0
0
0
0
0
0
0
0
0
0
0
0
0
0
0
0
0
0
0
0
0
0
0
0
0
0
0
0
0
0
0
0
0
0
0
0
0
0
0
0
0
0
0
0
0
0
0
0
0
0
0
0
0
0
0
0
0
0
0
0
0
0
0
0
0
0
0
0
0
0
0
0
0
0
0
0
0
0
0
0
0
0
0
0
0
0
0
0
0
0
0
0
0
0
0
0
0
0
0
0
0
0
0
0
0
0
0
0
0
0
0
0
0
0
0
0
0
0
0
0
0
0
0
0
0
0
0
0
0
0
0
0
0
0
0
0
0
0
0
0
0
0
0
0
0
0
0
0
0
0
0
0
0
0
0
0
0
0
0
0
0
0
0
0
0
0
0
0
0
0
0
0
0
0
0
0
0
0
0
0
0
0
0
0
0
0
0
0
0
0
0
0
0
0
0
0
0
0
0
0
0
0
0
0
0
0
0
0
0
0
0
0
0
0
0
0
0
0
0
0
0
0
0
0
0
0
0
0
0
0
0
0
0
0
0
0
0
0
0
0
0
0
0
0
0
0
0
0
0
0
0
0
0
0
0
0
0
0
0
0
0
0
0
0
0
0
0
0
0
0
0
0
0
0
0
0
0
0
0
0
0
0
0
0
0
0
0
0
0
0
0
0
0
0
0
0
0
0
0
0
0
0
0
0
0
0
0
0
0
0
0
0
0
0
0
0
0
0
0
0
0
0
0
0
0
0
0
0
0
0
0
0
0
0
0
0
0
0
0
0
0
0
0
0
0
0
0
0
0
0
0
0
0
0
0
0
0
0
0
0
0
0
0
0
0
0
0
0
0
0
0
0
0
0
0
0
0
0
0
0
0
0
0
0
0
0
0
0
0
0
0
0
0
0
0
0
0
0
0
0
0
0
0
0
0
0
0
0
0
0
0
0
0
0
0
0
0
0
0
0
0
0
0
0
0
0
0
0
0
0
0
0
0
0
0
0
0
0
0
0
0
0
0
0
0
0
0
0
0
0
0
0
0
0
0
0
0
0
0
0
0
0
0
0
0
0
0
0
0
0
0
0
0
0
0
0
0
SCALARS rr_tg' float
LOOKUP_TABLE default
0
0
0
0
0
0
0
0
0
0
0
0
0
0
0
0
0
0
0
0
0
0
0
0
0
0
0
0
0
0
0
0
0
0
0
0
0
0
0
0
0
0
0
0
0
0
0
0
0
0
0
0
0
0
0
0
0
0
0
0
0
0
0
0
0
0
0
0
0
0
0
0
0
0
0
0
0
0
0
0
0
0
0
0
0
0
0
0
0
0
0
0
0
0
0
0
0
0
0
0
0
0
0
0
0
0
0
0
0
0
0
0
0
0
0
0
0
0
0
0
0
0
0
0
0
0
0
0
0
0
0
0
0
0
0
0
0
0
0
0
0
0
0
0
0
0
0
0
0
0
0
0
0
0
0
0
0
0
0
0
0
0
0
0
0
0
0
0
0
0
0
0
0
0
0
0
0
0
0
0
0
0
0
0
0
0
0
0
0
0
0
0
0
0
0
0
0
0
0
0
0
0
0
0
0
0
0
0
0
0
0
0
0
0
0
0
0
0
0
0
0
0
0
0
0
0
0
0
0
0
0
0
0
0
0
0
0
0
0
0
0
0
0
0
0
0
0
0
0
0
0
0
0
0
0
0
0
0
0
0
0
0
0
0
0
0
0
0
0
0
0
0
0
0
0
0
0
0
0
0
0
0
0
0
0
0
0
0
0
0
0
0
0
0
0
0
0
0
0
0
0
0
0
0
0
0
0
0
0
0
0
0
0
0
0
0
0
0
0
0
0
0
0
0
0
0
0
0
0
0
0
0
0
0
0
0
0
0
0
0
0
0
0
0
0
0
0
0
0
0
0
0
0
0
0
0
0
0
0
0
0
0
0
0
0
0
0
0
0
0
0
0
0
0
0
0
0
0
0
0
0
0
0
0
0
0
0
0
0
0
0
0
0
0
0
0
0
0
0
0
0
0
0
0
0
0
0
0
0
0
0
0
0
0
0
0
0
0
0
0
0
0
0
0
0
0
0
0
0
0
0
0
0
0
0
0
0
0
0
0
0
0
0
0
0
0
0
0
0
0
0
0
0
0
0
0
0
0
0
0
0
0
0
0
0
0
0
0
0
0
0
0
0
0
0
0
0
0
0
0
0
0
0
0
0
0
0
0
0
0
0
0
0
0
0
0
0
0
0
0
0
0
0
0
0
0
0
0
0
0
0
0
0
0
0
0
0
0
0
0
0
0
0
0
0
0
0
0
0
0
0
0
0
0
0
0
0
0
0
0
0
0
0
0
0
0
0
0
0
0
0
0
0
0
0
0
0
0
0
0
0
0
0
SCALARS rr_tg1' float
LOOKUP_TABLE default
5.94812e-10
1.29845e-09
1.04115e-09
1.35649e-09
7.00206e-10
1.10513e-09
5.88208e-10
1.34963e-09
1.16809e-09
1.45943e-09
5.38579e-10
1.35378e-09
1.19249e-09
1.25596e-09
1.4612e-09
1.23992e-09
1.06063e-09
1.20385e-09
1.08705e-09
1.05774e-09
1.19055e-09
2.04123e-10
1.21984e-09
1.12351e-09
1.01856e-09
1.17016e-09
4.96101e-10
1.03034e-09
8.23719e-10
9.30781e-10
1.05362e-09
8.51438e-10
5.49871e-10
6.99489e-10
6.86389e-10
7.01092e-10
9.0441e-10
6.88208e-10
1.05266e-09
6.17988e-10
6.92437e-10
7.96909e-10
7.97036e-10
1.15633e-09
6.87272e-10
7.50565e-10
1.02199e-09
1.03299e-09
9.64973e-10
9.43079e-10
9.66884e-10
7.45607e-10
1.12467e-09
9.57932e-10
1.03582e-09
4.97878e-10
7.32789e-10
9.64959e-10
7.32793e-10
1.15284e-09
1.35418e-09
1.32189e-09
4.86604e-10
9.32246e-10
1.26606e-09
1.19944e-09
1.3097e-09
1.13648e-09
1.05117e-09
1.49006e-09
1.22034e-09
1.20707e-09
8.55558e-10
9.69453e-10
1.03457e-09
5.68602e-10
1.05214e-09
1.18837e-09
1.1461e-09
8.22001e-10
7.48464e-10
7.89083e-10
1.50849e-09
7.50412e-10
1.00573e-09
3.77435e-10
1.19019e-09
9.88269e-10
7.27787e-10
1.00714e-10
8.30128e-10
1.09547e-10
8.92576e-10
8.61483e-10
7.85311e-10
7.2093e-10
6.87356e-10
1.28138e-09
1.053e-09
1.02497e-09
8.79392e-10
8.49738e-10
7.20097e-10
1.21513e-09
1.23425e-09
1.11131e-09
9.72479e-10
9.93973e-10
7.64453e-10
1.47916e-09
9.558e-10
5.17699e-10
6.9057e-10
1.33024e-09
1.24494e-09
9.24949e-10
8.49793e-10
5.71266e-10
8.81545e-10
9.21153e-10
7.96291e-10
1.42513e-09
1.4799e-09
1.26737e-09
1.39714e-09
1.08854e-09
6.10921e-10
1.38353e-09
6.22532e-10
7.9635e-10
6.37485e-10
1.32071e-09
1.28487e-09
1.29655e-09
8.83725e-10
5.16311e-10
5.97276e-10
9.51917e-10
1.15657e-09
5.16158e-10
7.37723e-10
1.11968e-09
8.57122e-10
1.36729e-09
6.95433e-10
1.11662e-09
1.01316e-09
9.8271e-10
6.28193e-10
8.10703e-10
8.98024e-10
1.27411e-09
7.64025e-10
1.15607e-09
1.33624e-09
1.35772e-09
8.87099e-10
7.59537e-10
7.55125e-10
1.1673e-09
9.84625e-10
7.57441e-10
5.05639e-10
7.40853e-10
7.33624e-10
1.2476e-09
7.69794e-10
7.78331e-10
8.45861e-10
7.50121e-10
1.0897e-09
7.84651e-10
6.98771e-10
8.56825e-10
8.28864e-10
9.71989e-10
1.07789e-09
1.04815e-09
8.78905e-10
1.04461e-09
8.20941e-10
1.21016e-09
1.29889e-09
7.37789e-10
1.26809e-09
7.40751e-10
1.25238e-09
1.14941e-09
1.06835e-09
1.09756e-09
1.27912e-09
6.23857e-10
8.11065e-10
7.57666e-10
1.29429e-09
1.27662e-09
1.18332e-09
1.28174e-09
1.30995e-09
1.09788e-09
1.34895e-09
9.13583e-10
8.30227e-10
1.46749e-09
8.79235e-10
1.33246e-09
1.06335e-09
6.93898e-10
8.12942e-10
1.33473e-09
1.10313e-09
1.01065e-09
1.30395e-09
1.2731e-09
8.38367e-10
8.191e-10
8.09267e-10
1.12869e-09
1.25008e-09
1.43668e-09
1.38101e-09
1.5022e-09
1.36116e-09
1.48755e-09
1.24854e-09
1.29549e-09
1.30576e-09
1.23076e-09
1.2929e-09
1.18568e-09
1.168e-09
8.49813e-10
1.12491e-09
1.3183e-09
9.2122e-10
1.33136e-09
1.22282e-09
1.42913e-09
8.72762e-10
1.35949e-09
1.29794e-09
8.54812e-10
1.15509e-09
8.4921e-10
1.30115e-09
1.19467e-09
8.89911e-10
8.39459e-10
7.33323e-10
8.43345e-10
1.30309e-09
6.16296e-10
1.01112e-09
8.36529e-10
9.3279e-10
1.36084e-09
1.31425e-09
4.04358e-10
1.31917e-09
7.38369e-10
7.91857e-10
1.35316e-09
1.09998e-09
8.01605e-10
1.50666e-09
8.66276e-10
4.0437e-10
8.0965e-10
1.17184e-09
1.4602e-09
1.11205e-09
1.29633e-09
1.21967e-09
6.34769e-10
6.30703e-10
5.54307e-10
6.37361e-10
8.66289e-10
6.73008e-10
1.07953e-09
6.83957e-10
1.1534e-09
8.27847e-10
8.10922e-10
9.32127e-10
8.78927e-10
1.15383e-09
8.42768e-10
8.70549e-10
3.69253e-10
8.55172e-10
1.23902e-09
1.24e-09
1.13139e-09
8.40877e-10
5.32812e-10
1.56698e-09
1.06279e-09
8.91942e-10
8.23439e-10
8.01237e-10
8.49569e-10
1.01243e-09
8.33687e-10
6.08396e-10
8.22206e-10
5.71912e-10
1.00173e-09
8.40052e-10
3.44183e-10
7.90588e-10
9.19736e-10
8.40513e-10
1.27138e-09
8.71811e-10
1.11384e-09
4.39951e-10
8.94901e-10
8.62678e-10
7.36043e-10
8.10073e-10
9.49289e-10
8.84537e-10
9.27821e-10
7.99286e-10
8.1121e-10
8.74397e-10
1.15183e-09
8.2615e-10
1.158e-09
1.04757e-09
8.14705e-10
8.57014e-10
8.63803e-10
9.51472e-10
8.61959e-10
8.09198e-10
9.17038e-10
9.46688e-10
1.12599e-09
8.63458e-10
8.60939e-10
1.22961e-09
1.21228e-09
8.26928e-10
8.1491e-10
3.83824e-10
9.99222e-10
7.08694e-10
9.40102e-10
4.39756e-10
4.56469e-10
4.07846e-10
4.14562e-10
4.39759e-10
4.63397e-10
4.77479e-10
1.04338e-09
7.65016e-10
7.84522e-10
9.01323e-10
8.80259e-10
8.69441e-10
9.11102e-10
8.51108e-10
8.7069e-10
8.63801e-10
8.66221e-10
1.04607e-09
7.93597e-10
1.07564e-09
8.45921e-10
8.18989e-10
8.67451e-10
9.0716e-10
9.60976e-10
8.98176e-10
1.02529e-09
9.60958e-10
8.94192e-10
6.49017e-10
8.96616e-10
8.74009e-10
9.30758e-10
9.0619e-10
8.59871e-10
8.16715e-10
8.97887e-10
9.33511e-10
1.26251e-09
8.41411e-10
1.22755e-09
1.28483e-09
8.8223e-10
1.22685e-09
9.442e-10
7.60542e-10
1.02251e-09
9.04776e-10
6.38661e-10
5.86826e-10
1.00778e-09
1.0721e-09
9.16847e-10
7.63788e-10
9.11315e-10
4.51264e-10
9.06531e-10
8.52516e-10
4.46815e-10
1.61916e-10
1.77103e-10
7.84876e-10
8.41958e-10
9.74194e-10
9.39563e-10
8.25917e-11
8.63025e-11
9.2312e-10
9.32689e-10
8.83095e-10
3.3875e-10
7.88406e-10
9.03645e-10
9.31623e-10
8.03932e-10
7.0936e-10
3.53011e-10
1.33199e-09
8.47432e-10
1.02912e-09
1.04521e-09
7.54106e-10
9.53597e-10
7.37334e-10
8.13295e-10
4.15445e-10
6.21243e-10
9.5477e-10
9.57606e-10
8.25177e-10
8.68032e-10
8.94618e-10
9.42783e-10
9.01981e-10
4.55945e-10
7.80496e-10
8.95093e-10
8.36477e-10
1.25372e-09
4.55969e-10
6.83391e-10
7.04191e-10
6.57041e-10
4.22182e-10
4.22226e-10
7.54273e-10
6.21103e-10
8.8251e-10
4.88278e-10
5.04682e-10
1.63455e-10
1.63456e-10
3.68056e-10
5.50741e-10
3.7029e-10
7.52252e-10
8.03211e-10
8.66425e-10
9.73967e-10
8.80698e-10
8.14408e-10
6.44899e-10
4.15379e-10
8.11234e-10
8.36469e-10
8.08098e-10
4.64848e-10
4.068e-10
3.3326e-10
8.07108e-10
8.26089e-10
6.72695e-10
7.51837e-10
6.93124e-10
6.26421e-10
8.49003e-10
6.26387e-10
7.51426e-10
7.19109e-10
4.34577e-10
5.36353e-10
5.24398e-10
8.96316e-10
3.70513e-10
3.90028e-10
3.82185e-10
8.4464e-10
3.52197e-10
3.46104e-10
5.94015e-10
3.22404e-10
6.76493e-10
6.77539e-10
3.3075e-10
7.51506e-10
3.63992e-10
3.65082e-10
4.0797e-10
3.48371e-10
3.39213e-10
4.80226e-10
4.02294e-10
3.68652e-10
3.49308e-10
6.85037e-10
7.76326e-10
3.81721e-10
7.56035e-10
3.17264e-10
7.65831e-10
6.11918e-10
3.31185e-10
2.78376e-10
3.1304e-10
4.14433e-10
6.60592e-10
5.33583e-10
2.19995e-10
2.44359e-10
7.32625e-10
2.07115e-10
2.0712e-10
2.34749e-10
2.64561e-10
3.166e-10
3.50392e-10
5.84164e-10
5.38043e-10
7.33563e-10
2.08762e-10
2.08764e-10
6.34852e-10
2.76778e-10
5.25947e-10
2.5066e-10
2.50012e-10
3.29333e-10
5.41103e-10
5.60382e-10
5.97191e-10
5.47242e-10
5.41108e-10
1.17411e-10
8.7373e-10
1.50142e-10
1.44963e-10
7.05524e-10
7.00583e-10
1.5019e-10
1.04427e-10
1.47506e-10
6.51346e-10
SCALARS rr_tg2' float
LOOKUP_TABLE default
0
0
0
0
0
0
0
0
0
0
0
0
0
0
0
0
0
0
0
0
0
0
0
0
0
0
0
0
0
0
0
0
0
0
0
0
0
0
0
0
0
0
0
0
0
0
0
0
0
0
0
0
0
0
0
0
0
0
0
0
0
0
0
0
0
0
0
0
0
0
0
0
0
0
0
0
0
0
0
0
0
0
0
0
0
0
0
0
0
0
0
0
0
0
0
0
0
0
0
0
0
0
0
0
0
0
0
0
0
0
0
0
0
0
0
0
0
0
0
0
0
0
0
0
0
0
0
0
0
0
0
0
0
0
0
0
0
0
0
0
0
0
0
0
0
0
0
0
0
0
0
0
0
0
0
0
0
0
0
0
0
0
0
0
0
0
0
0
0
0
0
0
0
0
0
0
0
0
0
0
0
0
0
0
0
0
0
0
0
0
0
0
0
0
0
0
0
0
0
0
0
0
0
0
0
0
0
0
0
0
0
0
0
0
0
0
0
0
0
0
0
0
0
0
0
0
0
0
0
0
0
0
0
0
0
0
0
0
0
0
0
0
0
0
0
0
0
0
0
0
0
0
0
0
0
0
0
0
0
0
0
0
0
0
0
0
0
0
0
0
0
0
0
0
0
0
0
0
0
0
0
0
0
0
0
0
0
0
0
0
0
0
0
0
0
0
0
0
0
0
0
0
0
0
0
0
0
0
0
0
0
0
0
0
0
0
0
0
0
0
0
0
0
0
0
0
0
0
0
0
0
0
0
0
0
0
0
0
0
0
0
0
0
0
0
0
0
0
0
0
0
0
0
0
0
0
0
0
0
0
0
0
0
0
0
0
0
0
0
0
0
0
0
0
0
0
0
0
0
0
0
0
0
0
0
0
0
0
0
0
0
0
0
0
0
0
0
0
0
0
0
0
0
0
0
0
0
0
0
0
0
0
0
0
0
0
0
0
0
0
0
0
0
0
0
0
0
0
0
0
0
0
0
0
0
0
0
0
0
0
0
0
0
0
0
0
0
0
0
0
0
0
0
0
0
0
0
0
0
0
0
0
0
0
0
0
0
0
0
0
0
0
0
0
0
0
0
0
0
0
0
0
0
0
0
0
0
0
0
0
0
0
0
0
0
0
0
0
0
0
0
0
0
0
0
0
0
0
0
0
0
0
0
0
0
0
0
0
0
0
0
0
0
0
0
0
0
0
0
0
0
0
0
0
0
0
0
0
0
0
0
0
0
0
0
0
0
0
0
0
0
0
0
0
0
0
0
0
0
0
0
0
0
SCALARS rr_tg3' float
LOOKUP_TABLE default
0
0
0
0
0
0
0
0
0
0
0
0
0
0
0
0
0
0
0
0
0
0
0
0
0
0
0
0
0
0
0
0
0
0
0
0
0
0
0
0
0
0
0
0
0
0
0
0
0
0
0
0
0
0
0
0
0
0
0
0
0
0
0
0
0
0
0
0
0
0
0
0
0
0
0
0
0
0
0
0
0
0
0
0
0
0
0
0
0
0
0
0
0
0
0
0
0
0
0
0
0
0
0
0
0
0
0
0
0
0
0
0
0
0
0
0
0
0
0
0
0
0
0
0
0
0
0
0
0
0
0
0
0
0
0
0
0
0
0
0
0
0
0
0
0
0
0
0
0
0
0
0
0
0
0
0
0
0
0
0
0
0
0
0
0
0
0
0
0
0
0
0
0
0
0
0
0
0
0
0
0
0
0
0
0
0
0
0
0
0
0
0
0
0
0
0
0
0
0
0
0
0
0
0
0
0
0
0
0
0
0
0
0
0
0
0
0
0
0
0
0
0
0
0
0
0
0
0
0
0
0
0
0
0
0
0
0
0
0
0
0
0
0
0
0
0
0
0
0
0
0
0
0
0
0
0
0
0
0
0
0
0
0
0
0
0
0
0
0
0
0
0
0
0
0
0
0
0
0
0
0
0
0
0
0
0
0
0
0
0
0
0
0
0
0
0
0
0
0
0
0
0
0
0
0
0
0
0
0
0
0
0
0
0
0
0
0
0
0
0
0
0
0
0
0
0
0
0
0
0
0
0
0
0
0
0
0
0
0
0
0
0
0
0
0
0
0
0
0
0
0
0
0
0
0
0
0
0
0
0
0
0
0
0
0
0
0
0
0
0
0
0
0
0
0
0
0
0
0
0
0
0
0
0
0
0
0
0
0
0
0
0
0
0
0
0
0
0
0
0
0
0
0
0
0
0
0
0
0
0
0
0
0
0
0
0
0
0
0
0
0
0
0
0
0
0
0
0
0
0
0
0
0
0
0
0
0
0
0
0
0
0
0
0
0
0
0
0
0
0
0
0
0
0
0
0
0
0
0
0
0
0
0
0
0
0
0
0
0
0
0
0
0
0
0
0
0
0
0
0
0
0
0
0
0
0
0
0
0
0
0
0
0
0
0
0
0
0
0
0
0
0
0
0
0
0
0
0
0
0
0
0
0
0
0
0
0
0
0
0
0
0
0
0
0
0
0
0
0
0
0
0
0
0
0
0
0
0
0
0
0
0
0
0
0
0
0
0
0
0
0
0
0
0
0
0
0
0
0
0
0
0
0
SCALARS rr_tg4' float
LOOKUP_TABLE default
0
0
0
0
0
0
0
0
0
0
0
0
0
0
0
0
0
0
0
0
0
0
0
0
0
0
0
0
0
0
0
0
0
0
0
0
0
0
0
0
0
0
0
0
0
0
0
0
0
0
0
0
0
0
0
0
0
0
0
0
0
0
0
0
0
0
0
0
0
0
0
0
0
0
0
0
0
0
0
0
0
0
0
0
0
0
0
0
0
0
0
0
0
0
0
0
0
0
0
0
0
0
0
0
0
0
0
0
0
0
0
0
0
0
0
0
0
0
0
0
0
0
0
0
0
0
0
0
0
0
0
0
0
0
0
0
0
0
0
0
0
0
0
0
0
0
0
0
0
0
0
0
0
0
0
0
0
0
0
0
0
0
0
0
0
0
0
0
0
0
0
0
0
0
0
0
0
0
0
0
0
0
0
0
0
0
0
0
0
0
0
0
0
0
0
0
0
0
0
0
0
0
0
0
0
0
0
0
0
0
0
0
0
0
0
0
0
0
0
0
0
0
0
0
0
0
0
0
0
0
0
0
0
0
0
0
0
0
0
0
0
0
0
0
0
0
0
0
0
0
0
0
0
0
0
0
0
0
0
0
0
0
0
0
0
0
0
0
0
0
0
0
0
0
0
0
0
0
0
0
0
0
0
0
0
0
0
0
0
0
0
0
0
0
0
0
0
0
0
0
0
0
0
0
0
0
0
0
0
0
0
0
0
0
0
0
0
0
0
0
0
0
0
0
0
0
0
0
0
0
0
0
0
0
0
0
0
0
0
0
0
0
0
0
0
0
0
0
0
0
0
0
0
0
0
0
0
0
0
0
0
0
0
0
0
0
0
0
0
0
0
0
0
0
0
0
0
0
0
0
0
0
0
0
0
0
0
0
0
0
0
0
0
0
0
0
0
0
0
0
0
0
0
0
0
0
0
0
0
0
0
0
0
0
0
0
0
0
0
0
0
0
0
0
0
0
0
0
0
0
0
0
0
0
0
0
0
0
0
0
0
0
0
0
0
0
0
0
0
0
0
0
0
0
0
0
0
0
0
0
0
0
0
0
0
0
0
0
0
0
0
0
0
0
0
0
0
0
0
0
0
0
0
0
0
0
0
0
0
0
0
0
0
0
0
0
0
0
0
0
0
0
0
0
0
0
0
0
0
0
0
0
0
0
0
0
0
0
0
0
0
0
0
0
0
0
0
0
0
0
0
0
0
0
0
0
0
0
0
0
0
0
0
0
0
0
0
0
0
0
0
0
0
0
0
0
0
0
0
0
0
0
0
SCALARS rr_acoa' float
LOOKUP_TABLE default
0
0
0
0
0
0
0
0
0
0
0
0
0
0
0
0
0
0
0
0
0
0
0
0
0
0
0
0
0
0
0
0
0
0
0
0
0
0
0
0
0
0
0
0
0
0
0
0
0
0
0
0
0
0
0
0
0
0
0
0
0
0
0
0
0
0
0
0
0
0
0
0
0
0
0
0
0
0
0
0
0
0
0
0
0
0
0
0
0
0
0
0
0
0
0
0
0
0
0
0
0
0
0
0
0
0
0
0
0
0
0
0
0
0
0
0
0
0
0
0
0
0
0
0
0
0
0
0
0
0
0
0
0
0
0
0
0
0
0
0
0
0
0
0
0
0
0
0
0
0
0
0
0
0
0
0
0
0
0
0
0
0
0
0
0
0
0
0
0
0
0
0
0
0
0
0
0
0
0
0
0
0
0
0
0
0
0
0
0
0
0
0
0
0
0
0
0
0
0
0
0
0
0
0
0
0
0
0
0
0
0
0
0
0
0
0
0
0
0
0
0
0
0
0
0
0
0
0
0
0
0
0
0
0
0
0
0
0
0
0
0
0
0
0
0
0
0
0
0
0
0
0
0
0
0
0
0
0
0
0
0
0
0
0
0
0
0
0
0
0
0
0
0
0
0
0
0
0
0
0
0
0
0
0
0
0
0
0
0
0
0
0
0
0
0
0
0
0
0
0
0
0
0
0
0
0
0
0
0
0
0
0
0
0
0
0
0
0
0
0
0
0
0
0
0
0
0
0
0
0
0
0
0
0
0
0
0
0
0
0
0
0
0
0
0
0
0
0
0
0
0
0
0
0
0
0
0
0
0
0
0
0
0
0
0
0
0
0
0
0
0
0
0
0
0
0
0
0
0
0
0
0
0
0
0
0
0
0
0
0
0
0
0
0
0
0
0
0
0
0
0
0
0
0
0
0
0
0
0
0
0
0
0
0
0
0
0
0
0
0
0
0
0
0
0
0
0
0
0
0
0
0
0
0
0
0
0
0
0
0
0
0
0
0
0
0
0
0
0
0
0
0
0
0
0
0
0
0
0
0
0
0
0
0
0
0
0
0
0
0
0
0
0
0
0
0
0
0
0
0
0
0
0
0
0
0
0
0
0
0
0
0
0
0
0
0
0
0
0
0
0
0
0
0
0
0
0
0
0
0
0
0
0
0
0
0
0
0
0
0
0
0
0
0
0
0
0
0
0
0
0
0
0
0
0
0
0
0
0
0
0
0
0
0
0
0
0
0
0
0
0
0
0
0
0
0
0
0
0
0
0
0
0
SCALARS rr_dg' float
LOOKUP_TABLE default
0
0
0
0
0
0
0
0
0
0
0
0
0
0
0
0
0
0
0
0
0
0
0
0
0
0
0
0
0
0
0
0
0
0
0
0
0
0
0
0
0
0
0
0
0
0
0
0
0
0
0
0
0
0
0
0
0
0
0
0
0
0
0
0
0
0
0
0
0
0
0
0
0
0
0
0
0
0
0
0
0
0
0
0
0
0
0
0
0
0
0
0
0
0
0
0
0
0
0
0
0
0
0
0
0
0
0
0
0
0
0
0
0
0
0
0
0
0
0
0
0
0
0
0
0
0
0
0
0
0
0
0
0
0
0
0
0
0
0
0
0
0
0
0
0
0
0
0
0
0
0
0
0
0
0
0
0
0
0
0
0
0
0
0
0
0
0
0
0
0
0
0
0
0
0
0
0
0
0
0
0
0
0
0
0
0
0
0
0
0
0
0
0
0
0
0
0
0
0
0
0
0
0
0
0
0
0
0
0
0
0
0
0
0
0
0
0
0
0
0
0
0
0
0
0
0
0
0
0
0
0
0
0
0
0
0
0
0
0
0
0
0
0
0
0
0
0
0
0
0
0
0
0
0
0
0
0
0
0
0
0
0
0
0
0
0
0
0
0
0
0
0
0
0
0
0
0
0
0
0
0
0
0
0
0
0
0
0
0
0
0
0
0
0
0
0
0
0
0
0
0
0
0
0
0
0
0
0
0
0
0
0
0
0
0
0
0
0
0
0
0
0
0
0
0
0
0
0
0
0
0
0
0
0
0
0
0
0
0
0
0
0
0
0
0
0
0
0
0
0
0
0
0
0
0
0
0
0
0
0
0
0
0
0
0
0
0
0
0
0
0
0
0
0
0
0
0
0
0
0
0
0
0
0
0
0
0
0
0
0
0
0
0
0
0
0
0
0
0
0
0
0
0
0
0
0
0
0
0
0
0
0
0
0
0
0
0
0
0
0
0
0
0
0
0
0
0
0
0
0
0
0
0
0
0
0
0
0
0
0
0
0
0
0
0
0
0
0
0
0
0
0
0
0
0
0
0
0
0
0
0
0
0
0
0
0
0
0
0
0
0
0
0
0
0
0
0
0
0
0
0
0
0
0
0
0
0
0
0
0
0
0
0
0
0
0
0
0
0
0
0
0
0
0
0
0
0
0
0
0
0
0
0
0
0
0
0
0
0
0
0
0
0
0
0
0
0
0
0
0
0
0
0
0
0
0
0
0
0
0
0
0
0
0
0
0
0
0
0
0
0
0
0
0
0
0
0
0
0
0
0
0
0
SCALARS rr_uec(FFAIM,_ffa_ext) float
LOOKUP_TABLE default
4.33682e-08
9.46711e-08
7.5911e-08
9.8903e-08
5.10526e-08
8.05756e-08
4.28867e-08
9.84026e-08
8.5166e-08
1.06408e-07
3.92682e-08
9.87049e-08
8.69453e-08
9.15728e-08
1.06537e-07
9.04033e-08
7.7331e-08
8.77736e-08
7.92577e-08
7.71208e-08
8.6804e-08
1.48827e-08
8.89397e-08
8.19161e-08
7.4264e-08
8.53175e-08
3.61711e-08
7.51227e-08
6.0058e-08
6.7864e-08
7.68205e-08
6.2079e-08
4.00916e-08
5.10003e-08
5.00451e-08
5.11172e-08
6.59413e-08
5.01777e-08
7.67501e-08
4.5058e-08
5.04861e-08
5.81033e-08
5.81125e-08
8.43088e-08
5.01095e-08
5.47243e-08
7.45138e-08
7.53164e-08
7.0357e-08
6.87606e-08
7.04963e-08
5.43628e-08
8.20007e-08
6.98436e-08
7.55224e-08
3.63007e-08
5.34282e-08
7.03559e-08
5.34285e-08
8.40546e-08
9.87341e-08
9.63798e-08
3.54787e-08
6.79708e-08
9.23092e-08
8.74524e-08
9.54916e-08
8.28617e-08
7.66417e-08
1.08641e-07
8.89762e-08
8.80081e-08
6.23794e-08
7.06836e-08
7.54313e-08
4.14572e-08
7.67125e-08
8.66447e-08
8.35633e-08
5.99327e-08
5.45711e-08
5.75326e-08
1.09986e-07
5.47131e-08
7.33289e-08
2.7519e-08
8.67774e-08
7.20554e-08
5.30635e-08
7.34316e-09
6.05253e-08
7.98719e-09
6.50784e-08
6.28114e-08
5.72577e-08
5.25635e-08
5.01157e-08
9.34266e-08
7.67748e-08
7.47316e-08
6.41171e-08
6.19551e-08
5.25028e-08
8.85962e-08
8.99902e-08
8.10264e-08
7.09042e-08
7.24713e-08
5.57368e-08
1.07847e-07
6.96881e-08
3.77458e-08
5.035e-08
9.69888e-08
9.07695e-08
6.74387e-08
6.19591e-08
4.16514e-08
6.42741e-08
6.7162e-08
5.80582e-08
1.03907e-07
1.07901e-07
9.24046e-08
1.01867e-07
7.93663e-08
4.45427e-08
1.00874e-07
4.53893e-08
5.80625e-08
4.64795e-08
9.62943e-08
9.36808e-08
9.45325e-08
6.44331e-08
3.76446e-08
4.35479e-08
6.9405e-08
8.43265e-08
3.76335e-08
5.3788e-08
8.16366e-08
6.24934e-08
9.969e-08
5.07046e-08
8.14137e-08
7.38699e-08
7.16501e-08
4.5802e-08
5.9109e-08
6.54756e-08
9.2896e-08
5.57057e-08
8.42903e-08
9.74266e-08
9.89924e-08
6.46791e-08
5.53784e-08
5.50568e-08
8.51084e-08
7.17898e-08
5.52256e-08
3.68665e-08
5.40162e-08
5.34891e-08
9.09638e-08
5.61263e-08
5.67487e-08
6.16724e-08
5.46919e-08
7.94508e-08
5.72095e-08
5.0948e-08
6.24718e-08
6.04331e-08
7.08685e-08
7.85895e-08
7.64211e-08
6.40816e-08
7.61632e-08
5.98554e-08
8.82338e-08
9.47031e-08
5.37928e-08
9.24571e-08
5.40087e-08
9.13123e-08
8.3804e-08
7.78941e-08
8.00237e-08
9.32617e-08
4.54859e-08
5.91354e-08
5.5242e-08
9.43677e-08
9.30797e-08
8.62771e-08
9.34527e-08
9.55095e-08
8.00474e-08
9.83527e-08
6.661e-08
6.05325e-08
1.06996e-07
6.41057e-08
9.71506e-08
7.753e-08
5.05927e-08
5.92722e-08
9.73165e-08
8.04298e-08
7.3687e-08
9.50721e-08
9.28225e-08
6.1126e-08
5.97212e-08
5.90043e-08
8.22934e-08
9.1144e-08
1.04749e-07
1.0069e-07
1.09526e-07
9.92434e-08
1.08459e-07
9.10323e-08
9.44552e-08
9.5204e-08
8.97357e-08
9.42664e-08
8.64485e-08
8.51597e-08
6.19605e-08
8.20182e-08
9.61182e-08
6.71669e-08
9.70702e-08
8.91571e-08
1.04199e-07
6.36337e-08
9.91213e-08
9.4634e-08
6.2325e-08
8.42189e-08
6.19166e-08
9.4868e-08
8.71041e-08
6.48841e-08
6.12056e-08
5.34671e-08
6.1489e-08
9.50091e-08
4.49346e-08
7.37216e-08
6.0992e-08
6.80104e-08
9.92196e-08
9.5823e-08
2.9482e-08
9.61814e-08
5.3835e-08
5.77349e-08
9.86597e-08
8.02006e-08
5.84457e-08
1.09852e-07
6.31609e-08
2.9483e-08
5.90322e-08
8.544e-08
1.06465e-07
8.10802e-08
9.45168e-08
8.89271e-08
4.62815e-08
4.59851e-08
4.0415e-08
4.64705e-08
6.31618e-08
4.90696e-08
7.87091e-08
4.98678e-08
8.40954e-08
6.0359e-08
5.9125e-08
6.79621e-08
6.40832e-08
8.41268e-08
6.14469e-08
6.34724e-08
2.69225e-08
6.23513e-08
9.03376e-08
9.04096e-08
8.24904e-08
6.1309e-08
3.88478e-08
1.1425e-07
7.74886e-08
6.50322e-08
6.00376e-08
5.84188e-08
6.19427e-08
7.38167e-08
6.07847e-08
4.43586e-08
5.99476e-08
4.16985e-08
7.30368e-08
6.12488e-08
2.50946e-08
5.76424e-08
6.70587e-08
6.12824e-08
9.26973e-08
6.35644e-08
8.12112e-08
3.20772e-08
6.52479e-08
6.28985e-08
5.36655e-08
5.9063e-08
6.92134e-08
6.44923e-08
6.76481e-08
5.82766e-08
5.9146e-08
6.37529e-08
8.3981e-08
6.02352e-08
8.44306e-08
7.63792e-08
5.94007e-08
6.24855e-08
6.29805e-08
6.93725e-08
6.28461e-08
5.89993e-08
6.68619e-08
6.90238e-08
8.20966e-08
6.29554e-08
6.27717e-08
8.96519e-08
8.83885e-08
6.0292e-08
5.94157e-08
2.79849e-08
7.28541e-08
5.16715e-08
6.85435e-08
3.2063e-08
3.32815e-08
2.97364e-08
3.0226e-08
3.20631e-08
3.37867e-08
3.48134e-08
7.60734e-08
5.57779e-08
5.72001e-08
6.57162e-08
6.41803e-08
6.33916e-08
6.64291e-08
6.20549e-08
6.34827e-08
6.29804e-08
6.31568e-08
7.62695e-08
5.78617e-08
7.8426e-08
6.16768e-08
5.97131e-08
6.32465e-08
6.61417e-08
7.00655e-08
6.54867e-08
7.47546e-08
7.00642e-08
6.51963e-08
4.73203e-08
6.5373e-08
6.37247e-08
6.78623e-08
6.6071e-08
6.26939e-08
5.95473e-08
6.54656e-08
6.8063e-08
9.20503e-08
6.1348e-08
8.95013e-08
9.36776e-08
6.43241e-08
8.94507e-08
6.88423e-08
5.54517e-08
7.45524e-08
6.59679e-08
4.65652e-08
4.2786e-08
7.34782e-08
7.81678e-08
6.6848e-08
5.56884e-08
6.64447e-08
3.2902e-08
6.60959e-08
6.21576e-08
3.25776e-08
1.18054e-08
1.29127e-08
5.72259e-08
6.13878e-08
7.10292e-08
6.85043e-08
6.02182e-09
6.29238e-09
6.73054e-08
6.80031e-08
6.43871e-08
2.46985e-08
5.74833e-08
6.58855e-08
6.79254e-08
5.86153e-08
5.172e-08
2.57383e-08
9.71161e-08
6.17869e-08
7.50337e-08
7.6207e-08
5.49825e-08
6.95275e-08
5.37596e-08
5.9298e-08
3.02904e-08
4.52953e-08
6.9613e-08
6.98198e-08
6.01643e-08
6.32889e-08
6.52273e-08
6.8739e-08
6.57642e-08
3.32433e-08
5.69066e-08
6.52619e-08
6.09882e-08
9.14095e-08
3.3245e-08
4.98266e-08
5.13431e-08
4.79054e-08
3.07816e-08
3.07848e-08
5.49946e-08
4.52851e-08
6.43445e-08
3.56007e-08
3.67968e-08
1.19176e-08
1.19177e-08
2.68353e-08
4.01549e-08
2.69982e-08
5.48473e-08
5.85627e-08
6.31717e-08
7.10127e-08
6.42124e-08
5.93792e-08
4.70201e-08
3.02856e-08
5.91477e-08
6.09876e-08
5.89191e-08
3.38925e-08
2.96601e-08
2.42982e-08
5.88468e-08
6.02308e-08
4.90467e-08
5.4817e-08
5.05362e-08
4.56728e-08
6.19015e-08
4.56704e-08
5.4787e-08
5.24308e-08
3.16853e-08
3.91059e-08
3.82343e-08
6.53511e-08
2.70144e-08
2.84373e-08
2.78654e-08
6.15833e-08
2.5679e-08
2.52347e-08
4.33101e-08
2.35067e-08
4.93237e-08
4.93999e-08
2.41152e-08
5.47929e-08
2.65389e-08
2.66184e-08
2.97454e-08
2.54e-08
2.47323e-08
3.50136e-08
2.93316e-08
2.68787e-08
2.54683e-08
4.99466e-08
5.66025e-08
2.78316e-08
5.51231e-08
2.3132e-08
5.58373e-08
4.46154e-08
2.41469e-08
2.02966e-08
2.2824e-08
3.02166e-08
4.81642e-08
3.89039e-08
1.604e-08
1.78164e-08
5.34163e-08
1.51009e-08
1.51012e-08
1.71157e-08
1.92894e-08
2.30836e-08
2.55473e-08
4.25919e-08
3.92291e-08
5.34846e-08
1.5221e-08
1.52212e-08
4.62876e-08
2.01801e-08
3.83472e-08
1.82758e-08
1.82286e-08
2.40119e-08
3.94523e-08
4.08579e-08
4.35417e-08
3.98998e-08
3.94526e-08
8.56054e-09
6.37043e-08
1.0947e-08
1.05694e-08
5.14403e-08
5.10801e-08
1.09504e-08
7.61387e-09
1.07548e-08
4.74901e-08
SCALARS cell_type float
LOOKUP_TABLE default
0
0
0
0
0
0
0
0
0
0
0
0
0
0
0
0
0
0
0
0
0
2
0
0
0
0
0
0
0
0
0
0
0
0
0
0
0
0
0
0
0
0
0
0
0
0
0
0
0
0
0
0
0
0
0
0
0
0
0
0
0
0
0
0
0
0
0
0
0
0
0
0
0
0
0
0
0
0
0
0
0
0
0
0
0
0
0
0
0
0
0
0
0
0
0
0
0
0
0
0
0
0
0
0
0
0
0
0
0
0
0
0
0
0
0
0
0
0
0
0
0
0
0
0
0
0
0
0
0
0
0
0
0
0
0
0
0
0
0
0
0
0
0
0
0
0
0
0
0
0
0
0
0
0
0
0
0
0
0
0
0
0
0
0
0
0
0
0
0
0
0
0
0
0
0
0
0
0
0
0
0
0
0
0
0
0
0
0
0
0
0
0
0
0
0
0
0
0
0
0
0
0
0
0
0
0
0
0
0
0
0
0
0
0
0
0
0
0
0
0
0
0
0
0
0
0
0
0
0
0
0
0
0
0
0
0
0
0
0
0
0
0
0
0
0
0
0
0
0
0
0
0
0
0
0
0
0
0
0
0
0
0
0
0
0
0
0
0
0
0
0
0
0
0
0
0
0
0
0
0
0
0
0
0
0
0
0
0
0
0
0
0
0
0
0
0
0
0
0
0
0
0
0
0
0
0
0
0
0
0
0
0
0
0
0
0
0
0
0
0
0
0
0
0
0
0
0
0
0
0
0
0
0
0
0
0
0
0
0
0
0
0
0
0
0
0
0
0
0
0
1
1
1
1
1
1
1
0
0
0
0
0
0
0
0
0
0
0
0
0
0
0
0
0
0
0
0
0
0
0
0
0
0
0
0
0
0
0
0
0
0
0
0
0
0
0
0
0
0
0
0
0
0
0
0
0
0
0
0
0
0
0
0
0
0
0
2
2
0
0
0
0
0
0
0
0
0
0
0
0
0
0
0
0
0
0
0
0
0
0
0
0
0
0
0
0
0
0
0
0
0
0
0
0
0
0
0
0
0
0
0
2
2
0
0
0
0
0
0
0
0
0
0
0
0
0
0
0
0
0
0
0
0
0
0
0
0
0
0
0
0
0
0
0
0
0
0
0
0
0
0
0
0
0
0
0
0
0
0
0
0
0
0
0
0
0
0
0
0
0
0
0
0
0
0
0
0
0
2
2
0
0
0
0
0
0
0
0
0
0
0
0
0
0
0
0
0
0
0
0
0
0
0
0
0
0
0
0
0
0
0
0
0
SCALARS rr_FFAIM float
LOOKUP_TABLE default
0
0
0
0
0
0
0
0
0
0
0
0
0
0
0
0
0
0
0
0
0
0
0
0
0
0
0
0
0
0
0
0
0
0
0
0
0
0
0
0
0
0
0
0
0
0
0
0
0
0
0
0
0
0
0
0
0
0
0
0
0
0
0
0
0
0
0
0
0
0
0
0
0
0
0
0
0
0
0
0
0
0
0
0
0
0
0
0
0
0
0
0
0
0
0
0
0
0
0
0
0
0
0
0
0
0
0
0
0
0
0
0
0
0
0
0
0
0
0
0
0
0
0
0
0
0
0
0
0
0
0
0
0
0
0
0
0
0
0
0
0
0
0
0
0
0
0
0
0
0
0
0
0
0
0
0
0
0
0
0
0
0
0
0
0
0
0
0
0
0
0
0
0
0
0
0
0
0
0
0
0
0
0
0
0
0
0
0
0
0
0
0
0
0
0
0
0
0
0
0
0
0
0
0
0
0
0
0
0
0
0
0
0
0
0
0
0
0
0
0
0
0
0
0
0
0
0
0
0
0
0
0
0
0
0
0
0
0
0
0
0
0
0
0
0
0
0
0
0
0
0
0
0
0
0
0
0
0
0
0
0
0
0
0
0
0
0
0
0
0
0
0
0
0
0
0
0
0
0
0
0
0
0
0
0
0
0
0
0
0
0
0
0
0
0
0
0
0
0
0
0
0
0
0
0
0
0
0
0
0
0
0
0
0
0
0
0
0
0
0
0
0
0
0
0
0
0
0
0
0
0
0
0
0
0
0
0
0
0
0
0
0
0
0
0
0
0
0
0
0
0
0
0
0
0
0
0
0
0
0
0
0
0
0
0
0
0
0
0
0
0
0
0
0
0
0
0
0
0
0
0
0
0
0
0
0
0
0
0
0
0
0
0
0
0
0
0
0
0
0
0
0
0
0
0
0
0
0
0
0
0
0
0
0
0
0
0
0
0
0
0
0
0
0
0
0
0
0
0
0
0
0
0
0
0
0
0
0
0
0
0
0
0
0
0
0
0
0
0
0
0
0
0
0
0
0
0
0
0
0
0
0
0
0
0
0
0
0
0
0
0
0
0
0
0
0
0
0
0
0
0
0
0
0
0
0
0
0
0
0
0
0
0
0
0
0
0
0
0
0
0
0
0
0
0
0
0
0
0
0
0
0
0
0
0
0
0
0
0
0
0
0
0
0
0
0
0
0
0
0
0
0
0
0
0
0
0
0
0
0
0
0
0
0
0
0
0
0
0
0
0
0
0
0
0
0
0
0
0
0
0
0
0
SCALARS rr_TGSYN float
LOOKUP_TABLE default
0
0
0
0
0
0
0
0
0
0
0
0
0
0
0
0
0
0
0
0
0
0
0
0
0
0
0
0
0
0
0
0
0
0
0
0
0
0
0
0
0
0
0
0
0
0
0
0
0
0
0
0
0
0
0
0
0
0
0
0
0
0
0
0
0
0
0
0
0
0
0
0
0
0
0
0
0
0
0
0
0
0
0
0
0
0
0
0
0
0
0
0
0
0
0
0
0
0
0
0
0
0
0
0
0
0
0
0
0
0
0
0
0
0
0
0
0
0
0
0
0
0
0
0
0
0
0
0
0
0
0
0
0
0
0
0
0
0
0
0
0
0
0
0
0
0
0
0
0
0
0
0
0
0
0
0
0
0
0
0
0
0
0
0
0
0
0
0
0
0
0
0
0
0
0
0
0
0
0
0
0
0
0
0
0
0
0
0
0
0
0
0
0
0
0
0
0
0
0
0
0
0
0
0
0
0
0
0
0
0
0
0
0
0
0
0
0
0
0
0
0
0
0
0
0
0
0
0
0
0
0
0
0
0
0
0
0
0
0
0
0
0
0
0
0
0
0
0
0
0
0
0
0
0
0
0
0
0
0
0
0
0
0
0
0
0
0
0
0
0
0
0
0
0
0
0
0
0
0
0
0
0
0
0
0
0
0
0
0
0
0
0
0
0
0
0
0
0
0
0
0
0
0
0
0
0
0
0
0
0
0
0
0
0
0
0
0
0
0
0
0
0
0
0
0
0
0
0
0
0
0
0
0
0
0
0
0
0
0
0
0
0
0
0
0
0
0
0
0
0
0
0
0
0
0
0
0
0
0
0
0
0
0
0
0
0
0
0
0
0
0
0
0
0
0
0
0
0
0
0
0
0
0
0
0
0
0
0
0
0
0
0
0
0
0
0
0
0
0
0
0
0
0
0
0
0
0
0
0
0
0
0
0
0
0
0
0
0
0
0
0
0
0
0
0
0
0
0
0
0
0
0
0
0
0
0
0
0
0
0
0
0
0
0
0
0
0
0
0
0
0
0
0
0
0
0
0
0
0
0
0
0
0
0
0
0
0
0
0
0
0
0
0
0
0
0
0
0
0
0
0
0
0
0
0
0
0
0
0
0
0
0
0
0
0
0
0
0
0
0
0
0
0
0
0
0
0
0
0
0
0
0
0
0
0
0
0
0
0
0
0
0
0
0
0
0
0
0
0
0
0
0
0
0
0
0
0
0
0
0
0
0
0
0
0
0
0
0
0
0
0
0
0
0
0
0
0
0
0
0
0
0
0
SCALARS rr_TGDEG float
LOOKUP_TABLE default
5.94812e-12
1.29845e-11
1.04115e-11
1.35649e-11
7.00206e-12
1.10513e-11
5.88208e-12
1.34963e-11
1.16809e-11
1.45943e-11
5.38579e-12
1.35378e-11
1.19249e-11
1.25596e-11
1.4612e-11
1.23992e-11
1.06063e-11
1.20385e-11
1.08705e-11
1.05774e-11
1.19055e-11
2.04123e-12
1.21984e-11
1.12351e-11
1.01856e-11
1.17016e-11
4.96101e-12
1.03034e-11
8.23719e-12
9.30781e-12
1.05362e-11
8.51437e-12
5.49871e-12
6.99489e-12
6.86389e-12
7.01092e-12
9.0441e-12
6.88208e-12
1.05266e-11
6.17988e-12
6.92437e-12
7.96909e-12
7.97036e-12
1.15633e-11
6.87272e-12
7.50565e-12
1.02199e-11
1.03299e-11
9.64974e-12
9.43079e-12
9.66884e-12
7.45607e-12
1.12467e-11
9.57932e-12
1.03582e-11
4.97878e-12
7.32789e-12
9.64959e-12
7.32793e-12
1.15284e-11
1.35418e-11
1.32189e-11
4.86604e-12
9.32246e-12
1.26606e-11
1.19944e-11
1.3097e-11
1.13648e-11
1.05117e-11
1.49006e-11
1.22034e-11
1.20707e-11
8.55558e-12
9.69453e-12
1.03457e-11
5.68602e-12
1.05214e-11
1.18837e-11
1.1461e-11
8.22001e-12
7.48464e-12
7.89083e-12
1.50849e-11
7.50412e-12
1.00573e-11
3.77434e-12
1.19019e-11
9.88269e-12
7.27787e-12
1.00714e-12
8.30128e-12
1.09547e-12
8.92576e-12
8.61483e-12
7.85311e-12
7.2093e-12
6.87356e-12
1.28138e-11
1.053e-11
1.02497e-11
8.79392e-12
8.49738e-12
7.20097e-12
1.21513e-11
1.23425e-11
1.11131e-11
9.72479e-12
9.93973e-12
7.64453e-12
1.47916e-11
9.558e-12
5.17699e-12
6.9057e-12
1.33024e-11
1.24494e-11
9.24949e-12
8.49793e-12
5.71266e-12
8.81545e-12
9.21153e-12
7.96291e-12
1.42513e-11
1.4799e-11
1.26737e-11
1.39714e-11
1.08854e-11
6.10921e-12
1.38353e-11
6.22532e-12
7.9635e-12
6.37485e-12
1.32071e-11
1.28487e-11
1.29655e-11
8.83725e-12
5.16311e-12
5.97276e-12
9.51917e-12
1.15657e-11
5.16158e-12
7.37723e-12
1.11968e-11
8.57122e-12
1.36729e-11
6.95433e-12
1.11662e-11
1.01316e-11
9.8271e-12
6.28193e-12
8.10703e-12
8.98024e-12
1.27411e-11
7.64025e-12
1.15607e-11
1.33624e-11
1.35772e-11
8.87099e-12
7.59537e-12
7.55125e-12
1.1673e-11
9.84625e-12
7.57441e-12
5.05639e-12
7.40853e-12
7.33624e-12
1.2476e-11
7.69794e-12
7.78331e-12
8.45861e-12
7.50121e-12
1.0897e-11
7.84651e-12
6.98771e-12
8.56825e-12
8.28864e-12
9.71989e-12
1.07789e-11
1.04815e-11
8.78905e-12
1.04461e-11
8.20941e-12
1.21016e-11
1.29889e-11
7.37789e-12
1.26809e-11
7.40751e-12
1.25238e-11
1.14941e-11
1.06835e-11
1.09756e-11
1.27912e-11
6.23857e-12
8.11065e-12
7.57666e-12
1.29429e-11
1.27662e-11
1.18332e-11
1.28174e-11
1.30995e-11
1.09788e-11
1.34895e-11
9.13583e-12
8.30227e-12
1.46749e-11
8.79235e-12
1.33246e-11
1.06335e-11
6.93898e-12
8.12942e-12
1.33473e-11
1.10313e-11
1.01065e-11
1.30395e-11
1.2731e-11
8.38367e-12
8.191e-12
8.09267e-12
1.12869e-11
1.25008e-11
1.43668e-11
1.38101e-11
1.5022e-11
1.36116e-11
1.48755e-11
1.24854e-11
1.29549e-11
1.30576e-11
1.23076e-11
1.2929e-11
1.18568e-11
1.168e-11
8.49813e-12
1.12491e-11
1.3183e-11
9.2122e-12
1.33136e-11
1.22282e-11
1.42913e-11
8.72761e-12
1.35949e-11
1.29794e-11
8.54812e-12
1.15509e-11
8.4921e-12
1.30115e-11
1.19467e-11
8.89911e-12
8.39459e-12
7.33323e-12
8.43345e-12
1.30309e-11
6.16296e-12
1.01112e-11
8.36529e-12
9.3279e-12
1.36084e-11
1.31425e-11
4.04358e-12
1.31917e-11
7.38369e-12
7.91857e-12
1.35316e-11
1.09998e-11
8.01605e-12
1.50666e-11
8.66276e-12
4.0437e-12
8.0965e-12
1.17184e-11
1.4602e-11
1.11205e-11
1.29633e-11
1.21967e-11
6.34769e-12
6.30703e-12
5.54307e-12
6.37361e-12
8.66289e-12
6.73008e-12
1.07953e-11
6.83957e-12
1.1534e-11
8.27847e-12
8.10922e-12
9.32127e-12
8.78927e-12
1.15383e-11
8.42768e-12
8.70549e-12
3.69253e-12
8.55172e-12
1.23902e-11
1.24e-11
1.13139e-11
8.40877e-12
5.32812e-12
1.56698e-11
1.06279e-11
8.91942e-12
8.23439e-12
8.01237e-12
8.49569e-12
1.01243e-11
8.33687e-12
6.08396e-12
8.22205e-12
5.71912e-12
1.00173e-11
8.40052e-12
3.44183e-12
7.90588e-12
9.19736e-12
8.40513e-12
1.27138e-11
8.71811e-12
1.11384e-11
4.39951e-12
8.94901e-12
8.62678e-12
7.36043e-12
8.10073e-12
9.49289e-12
8.84537e-12
9.27821e-12
7.99286e-12
8.1121e-12
8.74397e-12
1.15183e-11
8.2615e-12
1.158e-11
1.04757e-11
8.14705e-12
8.57014e-12
8.63803e-12
9.51472e-12
8.61959e-12
8.09198e-12
9.17038e-12
9.46688e-12
1.12599e-11
8.63458e-12
8.60939e-12
1.22961e-11
1.21228e-11
8.26928e-12
8.1491e-12
3.83824e-12
9.99222e-12
7.08694e-12
9.40102e-12
4.39756e-12
4.56469e-12
4.07846e-12
4.14562e-12
4.39759e-12
4.63397e-12
4.77479e-12
1.04338e-11
7.65016e-12
7.84522e-12
9.01323e-12
8.80259e-12
8.69441e-12
9.11102e-12
8.51108e-12
8.7069e-12
8.63801e-12
8.66221e-12
1.04607e-11
7.93597e-12
1.07564e-11
8.45921e-12
8.18989e-12
8.6745e-12
9.0716e-12
9.60976e-12
8.98176e-12
1.02529e-11
9.60958e-12
8.94192e-12
6.49017e-12
8.96616e-12
8.74009e-12
9.30758e-12
9.0619e-12
8.59871e-12
8.16715e-12
8.97887e-12
9.33511e-12
1.26251e-11
8.41411e-12
1.22755e-11
1.28483e-11
8.8223e-12
1.22685e-11
9.442e-12
7.60542e-12
1.02251e-11
9.04776e-12
6.38661e-12
5.86826e-12
1.00778e-11
1.0721e-11
9.16847e-12
7.63788e-12
9.11315e-12
4.51264e-12
9.06531e-12
8.52516e-12
4.46815e-12
1.61916e-12
1.77103e-12
7.84876e-12
8.41958e-12
9.74194e-12
9.39563e-12
8.25917e-13
8.63025e-13
9.2312e-12
9.32689e-12
8.83095e-12
3.3875e-12
7.88406e-12
9.03645e-12
9.31623e-12
8.03932e-12
7.0936e-12
3.53011e-12
1.33199e-11
8.47432e-12
1.02912e-11
1.04521e-11
7.54106e-12
9.53597e-12
7.37334e-12
8.13296e-12
4.15445e-12
6.21243e-12
9.5477e-12
9.57606e-12
8.25177e-12
8.68032e-12
8.94618e-12
9.42783e-12
9.01981e-12
4.55945e-12
7.80496e-12
8.95093e-12
8.36478e-12
1.25372e-11
4.55969e-12
6.83391e-12
7.04191e-12
6.57041e-12
4.22182e-12
4.22226e-12
7.54273e-12
6.21103e-12
8.8251e-12
4.88278e-12
5.04682e-12
1.63455e-12
1.63456e-12
3.68056e-12
5.50741e-12
3.7029e-12
7.52252e-12
8.03211e-12
8.66425e-12
9.73967e-12
8.80698e-12
8.14408e-12
6.44899e-12
4.15379e-12
8.11234e-12
8.36469e-12
8.08098e-12
4.64848e-12
4.068e-12
3.3326e-12
8.07108e-12
8.26089e-12
6.72695e-12
7.51837e-12
6.93124e-12
6.26421e-12
8.49003e-12
6.26387e-12
7.51426e-12
7.19109e-12
4.34577e-12
5.36353e-12
5.24398e-12
8.96316e-12
3.70513e-12
3.90028e-12
3.82185e-12
8.4464e-12
3.52197e-12
3.46104e-12
5.94015e-12
3.22404e-12
6.76493e-12
6.77539e-12
3.3075e-12
7.51506e-12
3.63992e-12
3.65082e-12
4.0797e-12
3.48371e-12
3.39213e-12
4.80226e-12
4.02294e-12
3.68652e-12
3.49308e-12
6.85037e-12
7.76326e-12
3.81721e-12
7.56035e-12
3.17264e-12
7.65831e-12
6.11918e-12
3.31185e-12
2.78376e-12
3.1304e-12
4.14433e-12
6.60592e-12
5.33583e-12
2.19995e-12
2.44359e-12
7.32625e-12
2.07115e-12
2.07119e-12
2.34749e-12
2.64561e-12
3.166e-12
3.50392e-12
5.84164e-12
5.38043e-12
7.33563e-12
2.08762e-12
2.08764e-12
6.34852e-12
2.76778e-12
5.25947e-12
2.5066e-12
2.50012e-12
3.29333e-12
5.41103e-12
5.60382e-12
5.97191e-12
5.47242e-12
5.41108e-12
1.17411e-12
8.7373e-12
1.50142e-12
1.44963e-12
7.05524e-12
7.00583e-12
1.5019e-12
1.04427e-12
1.47506e-12
6.51346e-12
SCALARS rr_DGSYN float
LOOKUP_TABLE default
0
0
0
0
0
0
0
0
0
0
0
0
0
0
0
0
0
0
0
0
0
0
0
0
0
0
0
0
0
0
0
0
0
0
0
0
0
0
0
0
0
0
0
0
0
0
0
0
0
0
0
0
0
0
0
0
0
0
0
0
0
0
0
0
0
0
0
0
0
0
0
0
0
0
0
0
0
0
0
0
0
0
0
0
0
0
0
0
0
0
0
0
0
0
0
0
0
0
0
0
0
0
0
0
0
0
0
0
0
0
0
0
0
0
0
0
0
0
0
0
0
0
0
0
0
0
0
0
0
0
0
0
0
0
0
0
0
0
0
0
0
0
0
0
0
0
0
0
0
0
0
0
0
0
0
0
0
0
0
0
0
0
0
0
0
0
0
0
0
0
0
0
0
0
0
0
0
0
0
0
0
0
0
0
0
0
0
0
0
0
0
0
0
0
0
0
0
0
0
0
0
0
0
0
0
0
0
0
0
0
0
0
0
0
0
0
0
0
0
0
0
0
0
0
0
0
0
0
0
0
0
0
0
0
0
0
0
0
0
0
0
0
0
0
0
0
0
0
0
0
0
0
0
0
0
0
0
0
0
0
0
0
0
0
0
0
0
0
0
0
0
0
0
0
0
0
0
0
0
0
0
0
0
0
0
0
0
0
0
0
0
0
0
0
0
0
0
0
0
0
0
0
0
0
0
0
0
0
0
0
0
0
0
0
0
0
0
0
0
0
0
0
0
0
0
0
0
0
0
0
0
0
0
0
0
0
0
0
0
0
0
0
0
0
0
0
0
0
0
0
0
0
0
0
0
0
0
0
0
0
0
0
0
0
0
0
0
0
0
0
0
0
0
0
0
0
0
0
0
0
0
0
0
0
0
0
0
0
0
0
0
0
0
0
0
0
0
0
0
0
0
0
0
0
0
0
0
0
0
0
0
0
0
0
0
0
0
0
0
0
0
0
0
0
0
0
0
0
0
0
0
0
0
0
0
0
0
0
0
0
0
0
0
0
0
0
0
0
0
0
0
0
0
0
0
0
0
0
0
0
0
0
0
0
0
0
0
0
0
0
0
0
0
0
0
0
0
0
0
0
0
0
0
0
0
0
0
0
0
0
0
0
0
0
0
0
0
0
0
0
0
0
0
0
0
0
0
0
0
0
0
0
0
0
0
0
0
0
0
0
0
0
0
0
0
0
0
0
0
0
0
0
0
0
0
0
0
0
0
0
0
0
0
0
0
0
0
0
0
0
0
0
0
0
0
0
0
0
0
0
0
0
0
SCALARS rr_VLDLS float
LOOKUP_TABLE default
0
0
0
0
0
0
0
0
0
0
0
0
0
0
0
0
0
0
0
0
0
0
0
0
0
0
0
0
0
0
0
0
0
0
0
0
0
0
0
0
0
0
0
0
0
0
0
0
0
0
0
0
0
0
0
0
0
0
0
0
0
0
0
0
0
0
0
0
0
0
0
0
0
0
0
0
0
0
0
0
0
0
0
0
0
0
0
0
0
0
0
0
0
0
0
0
0
0
0
0
0
0
0
0
0
0
0
0
0
0
0
0
0
0
0
0
0
0
0
0
0
0
0
0
0
0
0
0
0
0
0
0
0
0
0
0
0
0
0
0
0
0
0
0
0
0
0
0
0
0
0
0
0
0
0
0
0
0
0
0
0
0
0
0
0
0
0
0
0
0
0
0
0
0
0
0
0
0
0
0
0
0
0
0
0
0
0
0
0
0
0
0
0
0
0
0
0
0
0
0
0
0
0
0
0
0
0
0
0
0
0
0
0
0
0
0
0
0
0
0
0
0
0
0
0
0
0
0
0
0
0
0
0
0
0
0
0
0
0
0
0
0
0
0
0
0
0
0
0
0
0
0
0
0
0
0
0
0
0
0
0
0
0
0
0
0
0
0
0
0
0
0
0
0
0
0
0
0
0
0
0
0
0
0
0
0
0
0
0
0
0
0
0
0
0
0
0
0
0
0
0
0
0
0
0
0
0
0
0
0
0
0
0
0
0
0
0
0
0
0
0
0
0
0
0
0
0
0
0
0
0
0
0
0
0
0
0
0
0
0
0
0
0
0
0
0
0
0
0
0
0
0
0
0
0
0
0
0
0
0
0
0
0
0
0
0
0
0
0
0
0
0
0
0
0
0
0
0
0
0
0
0
0
0
0
0
0
0
0
0
0
0
0
0
0
0
0
0
0
0
0
0
0
0
0
0
0
0
0
0
0
0
0
0
0
0
0
0
0
0
0
0
0
0
0
0
0
0
0
0
0
0
0
0
0
0
0
0
0
0
0
0
0
0
0
0
0
0
0
0
0
0
0
0
0
0
0
0
0
0
0
0
0
0
0
0
0
0
0
0
0
0
0
0
0
0
0
0
0
0
0
0
0
0
0
0
0
0
0
0
0
0
0
0
0
0
0
0
0
0
0
0
0
0
0
0
0
0
0
0
0
0
0
0
0
0
0
0
0
0
0
0
0
0
0
0
0
0
0
0
0
0
0
0
0
0
0
0
0
0
0
0
0
0
0
0
0
0
0
0
0
0
0
0
0
0
0
0
0
0
0
0
0
SCALARS rr_BOX float
LOOKUP_TABLE default
0
0
0
0
0
0
0
0
0
0
0
0
0
0
0
0
0
0
0
0
0
0
0
0
0
0
0
0
0
0
0
0
0
0
0
0
0
0
0
0
0
0
0
0
0
0
0
0
0
0
0
0
0
0
0
0
0
0
0
0
0
0
0
0
0
0
0
0
0
0
0
0
0
0
0
0
0
0
0
0
0
0
0
0
0
0
0
0
0
0
0
0
0
0
0
0
0
0
0
0
0
0
0
0
0
0
0
0
0
0
0
0
0
0
0
0
0
0
0
0
0
0
0
0
0
0
0
0
0
0
0
0
0
0
0
0
0
0
0
0
0
0
0
0
0
0
0
0
0
0
0
0
0
0
0
0
0
0
0
0
0
0
0
0
0
0
0
0
0
0
0
0
0
0
0
0
0
0
0
0
0
0
0
0
0
0
0
0
0
0
0
0
0
0
0
0
0
0
0
0
0
0
0
0
0
0
0
0
0
0
0
0
0
0
0
0
0
0
0
0
0
0
0
0
0
0
0
0
0
0
0
0
0
0
0
0
0
0
0
0
0
0
0
0
0
0
0
0
0
0
0
0
0
0
0
0
0
0
0
0
0
0
0
0
0
0
0
0
0
0
0
0
0
0
0
0
0
0
0
0
0
0
0
0
0
0
0
0
0
0
0
0
0
0
0
0
0
0
0
0
0
0
0
0
0
0
0
0
0
0
0
0
0
0
0
0
0
0
0
0
0
0
0
0
0
0
0
0
0
0
0
0
0
0
0
0
0
0
0
0
0
0
0
0
0
0
0
0
0
0
0
0
0
0
0
0
0
0
0
0
0
0
0
0
0
0
0
0
0
0
0
0
0
0
0
0
0
0
0
0
0
0
0
0
0
0
0
0
0
0
0
0
0
0
0
0
0
0
0
0
0
0
0
0
0
0
0
0
0
0
0
0
0
0
0
0
0
0
0
0
0
0
0
0
0
0
0
0
0
0
0
0
0
0
0
0
0
0
0
0
0
0
0
0
0
0
0
0
0
0
0
0
0
0
0
0
0
0
0
0
0
0
0
0
0
0
0
0
0
0
0
0
0
0
0
0
0
0
0
0
0
0
0
0
0
0
0
0
0
0
0
0
0
0
0
0
0
0
0
0
0
0
0
0
0
0
0
0
0
0
0
0
0
0
0
0
0
0
0
0
0
0
0
0
0
0
0
0
0
0
0
0
0
0
0
0
0
0
0
0
0
0
0
0
0
0
0
0
0
0
0
0
0
0
0
0
0
0
0
0
0
0
0
SCALARS rr_DNL float
LOOKUP_TABLE default
0
0
0
0
0
0
0
0
0
0
0
0
0
0
0
0
0
0
0
0
0
0
0
0
0
0
0
0
0
0
0
0
0
0
0
0
0
0
0
0
0
0
0
0
0
0
0
0
0
0
0
0
0
0
0
0
0
0
0
0
0
0
0
0
0
0
0
0
0
0
0
0
0
0
0
0
0
0
0
0
0
0
0
0
0
0
0
0
0
0
0
0
0
0
0
0
0
0
0
0
0
0
0
0
0
0
0
0
0
0
0
0
0
0
0
0
0
0
0
0
0
0
0
0
0
0
0
0
0
0
0
0
0
0
0
0
0
0
0
0
0
0
0
0
0
0
0
0
0
0
0
0
0
0
0
0
0
0
0
0
0
0
0
0
0
0
0
0
0
0
0
0
0
0
0
0
0
0
0
0
0
0
0
0
0
0
0
0
0
0
0
0
0
0
0
0
0
0
0
0
0
0
0
0
0
0
0
0
0
0
0
0
0
0
0
0
0
0
0
0
0
0
0
0
0
0
0
0
0
0
0
0
0
0
0
0
0
0
0
0
0
0
0
0
0
0
0
0
0
0
0
0
0
0
0
0
0
0
0
0
0
0
0
0
0
0
0
0
0
0
0
0
0
0
0
0
0
0
0
0
0
0
0
0
0
0
0
0
0
0
0
0
0
0
0
0
0
0
0
0
0
0
0
0
0
0
0
0
0
0
0
0
0
0
0
0
0
0
0
0
0
0
0
0
0
0
0
0
0
0
0
0
0
0
0
0
0
0
0
0
0
0
0
0
0
0
0
0
0
0
0
0
0
0
0
0
0
0
0
0
0
0
0
0
0
0
0
0
0
0
0
0
0
0
0
0
0
0
0
0
0
0
0
0
0
0
0
0
0
0
0
0
0
0
0
0
0
0
0
0
0
0
0
0
0
0
0
0
0
0
0
0
0
0
0
0
0
0
0
0
0
0
0
0
0
0
0
0
0
0
0
0
0
0
0
0
0
0
0
0
0
0
0
0
0
0
0
0
0
0
0
0
0
0
0
0
0
0
0
0
0
0
0
0
0
0
0
0
0
0
0
0
0
0
0
0
0
0
0
0
0
0
0
0
0
0
0
0
0
0
0
0
0
0
0
0
0
0
0
0
0
0
0
0
0
0
0
0
0
0
0
0
0
0
0
0
0
0
0
0
0
0
0
0
0
0
0
0
0
0
0
0
0
0
0
0
0
0
0
0
0
0
0
0
0
0
0
0
0
0
0
0
0
0
0
0
0
0
0
0
0
0
0
SCALARS element_volume_point_TPM float
LOOKUP_TABLE default
5.31082e-13
1.15933e-12
9.29597e-13
1.21116e-12
6.25184e-13
9.8672e-13
5.25186e-13
1.20503e-12
1.04293e-12
1.30306e-12
4.80874e-13
1.20873e-12
1.06472e-12
1.12139e-12
1.30464e-12
1.10707e-12
9.46987e-13
1.07487e-12
9.70581e-13
9.44413e-13
1.06299e-12
1.82252e-13
1.08915e-12
1.00314e-12
9.09428e-13
1.04479e-12
4.42948e-13
9.19944e-13
7.35464e-13
8.31055e-13
9.40735e-13
7.60212e-13
4.90957e-13
6.24543e-13
6.12847e-13
6.25975e-13
8.07509e-13
6.14471e-13
9.39873e-13
5.51775e-13
6.18248e-13
7.11526e-13
7.1164e-13
1.03244e-12
6.13636e-13
6.70147e-13
9.12488e-13
9.22316e-13
8.61583e-13
8.42035e-13
8.63289e-13
6.65721e-13
1.00417e-12
8.55297e-13
9.24839e-13
4.44534e-13
6.54276e-13
8.6157e-13
6.54279e-13
1.02932e-12
1.20909e-12
1.18026e-12
4.34468e-13
8.32363e-13
1.13041e-12
1.07093e-12
1.16938e-12
1.01472e-12
9.38546e-13
1.33041e-12
1.08959e-12
1.07774e-12
7.63891e-13
8.65583e-13
9.23723e-13
5.0768e-13
9.39412e-13
1.06104e-12
1.02331e-12
7.33929e-13
6.68271e-13
7.04538e-13
1.34687e-12
6.70011e-13
8.97978e-13
3.36995e-13
1.06267e-12
8.82383e-13
6.4981e-13
8.99235e-14
7.41186e-13
9.78103e-14
7.96943e-13
7.69181e-13
7.01171e-13
6.43687e-13
6.13711e-13
1.14409e-12
9.40176e-13
9.15155e-13
7.85171e-13
7.58695e-13
6.42944e-13
1.08494e-12
1.10201e-12
9.9224e-13
8.68285e-13
8.87476e-13
6.82547e-13
1.32068e-12
8.53393e-13
4.62231e-13
6.1658e-13
1.18771e-12
1.11155e-12
8.25847e-13
7.58744e-13
5.10059e-13
7.87093e-13
8.22458e-13
7.10974e-13
1.27243e-12
1.32134e-12
1.13158e-12
1.24745e-12
9.7191e-13
5.45465e-13
1.23529e-12
5.55832e-13
7.11027e-13
5.69183e-13
1.17921e-12
1.1472e-12
1.15763e-12
7.8904e-13
4.60992e-13
5.33283e-13
8.49925e-13
1.03265e-12
4.60855e-13
6.58681e-13
9.99712e-13
7.65287e-13
1.22079e-12
6.20923e-13
9.96982e-13
9.04603e-13
8.7742e-13
5.60887e-13
7.23842e-13
8.01807e-13
1.13759e-12
6.82165e-13
1.03221e-12
1.19308e-12
1.21225e-12
7.92053e-13
6.78158e-13
6.74219e-13
1.04223e-12
8.7913e-13
6.76286e-13
4.51464e-13
6.61476e-13
6.55022e-13
1.11393e-12
6.87316e-13
6.94938e-13
7.55233e-13
6.69751e-13
9.72946e-13
7.00582e-13
6.23903e-13
7.65023e-13
7.40057e-13
8.67847e-13
9.62398e-13
9.35844e-13
7.84736e-13
9.32686e-13
7.32983e-13
1.0805e-12
1.15972e-12
6.5874e-13
1.13222e-12
6.61384e-13
1.1182e-12
1.02625e-12
9.53882e-13
9.79961e-13
1.14207e-12
5.57015e-13
7.24166e-13
6.76488e-13
1.15562e-12
1.13984e-12
1.05654e-12
1.14441e-12
1.1696e-12
9.80251e-13
1.20442e-12
8.15699e-13
7.41274e-13
1.31026e-12
7.85031e-13
1.1897e-12
9.49423e-13
6.19552e-13
7.25841e-13
1.19173e-12
9.84934e-13
9.02363e-13
1.16424e-12
1.13669e-12
7.48542e-13
7.31339e-13
7.2256e-13
1.00776e-12
1.11614e-12
1.28275e-12
1.23304e-12
1.34125e-12
1.21532e-12
1.32817e-12
1.11477e-12
1.15669e-12
1.16586e-12
1.09889e-12
1.15438e-12
1.05864e-12
1.04286e-12
7.58761e-13
1.00439e-12
1.17705e-12
8.22518e-13
1.18871e-12
1.09181e-12
1.27601e-12
7.79251e-13
1.21383e-12
1.15888e-12
7.63225e-13
1.03133e-12
7.58223e-13
1.16174e-12
1.06667e-12
7.94564e-13
7.49517e-13
6.54753e-13
7.52987e-13
1.16347e-12
5.50264e-13
9.02787e-13
7.46901e-13
8.32848e-13
1.21503e-12
1.17344e-12
3.61034e-13
1.17783e-12
6.59258e-13
7.07015e-13
1.20818e-12
9.82128e-13
7.15719e-13
1.34523e-12
7.73461e-13
3.61045e-13
7.22902e-13
1.04629e-12
1.30375e-12
9.92898e-13
1.15744e-12
1.08899e-12
5.66758e-13
5.63128e-13
4.94917e-13
5.69072e-13
7.73473e-13
6.009e-13
9.63863e-13
6.10676e-13
1.02982e-12
7.39149e-13
7.24038e-13
8.32257e-13
7.84756e-13
1.03021e-12
7.52472e-13
7.77276e-13
3.2969e-13
7.63547e-13
1.10626e-12
1.10715e-12
1.01017e-12
7.50783e-13
4.75725e-13
1.39909e-12
9.48917e-13
7.96376e-13
7.35214e-13
7.1539e-13
7.58544e-13
9.03952e-13
7.44363e-13
5.4321e-13
7.34112e-13
5.10635e-13
8.94401e-13
7.50046e-13
3.07306e-13
7.05882e-13
8.21193e-13
7.50458e-13
1.13516e-12
7.78403e-13
9.94503e-13
3.92813e-13
7.99019e-13
7.70248e-13
6.57181e-13
7.23279e-13
8.47579e-13
7.89765e-13
8.28412e-13
7.13649e-13
7.24295e-13
7.80711e-13
1.02842e-12
7.37634e-13
1.03393e-12
9.35331e-13
7.27415e-13
7.65191e-13
7.71252e-13
8.49528e-13
7.69606e-13
7.22498e-13
8.18784e-13
8.45257e-13
1.00535e-12
7.70944e-13
7.68696e-13
1.09787e-12
1.0824e-12
7.38329e-13
7.27598e-13
3.427e-13
8.92163e-13
6.32763e-13
8.39376e-13
3.9264e-13
4.07561e-13
3.64148e-13
3.70145e-13
3.92642e-13
4.13748e-13
4.26321e-13
9.31586e-13
6.8305e-13
7.00466e-13
8.04753e-13
7.85945e-13
7.76286e-13
8.13484e-13
7.59918e-13
7.77402e-13
7.71251e-13
7.73411e-13
9.33988e-13
7.08568e-13
9.60396e-13
7.55287e-13
7.3124e-13
7.74509e-13
8.09964e-13
8.58015e-13
8.01943e-13
9.15436e-13
8.57998e-13
7.98386e-13
5.79479e-13
8.0055e-13
7.80365e-13
8.31034e-13
8.09098e-13
7.67742e-13
7.29209e-13
8.01685e-13
8.33492e-13
1.12724e-12
7.5126e-13
1.09602e-12
1.14717e-12
7.87705e-13
1.0954e-12
8.43036e-13
6.79055e-13
9.1296e-13
8.07836e-13
5.70233e-13
5.23952e-13
8.99806e-13
9.57234e-13
8.18613e-13
6.81954e-13
8.13674e-13
4.02914e-13
8.09403e-13
7.61175e-13
3.98942e-13
1.44568e-13
1.58128e-13
7.00782e-13
7.51749e-13
8.69816e-13
8.38896e-13
7.37426e-14
7.70558e-14
8.24214e-13
8.32758e-13
7.88478e-13
3.02455e-13
7.03934e-13
8.06826e-13
8.31807e-13
7.17797e-13
6.33357e-13
3.15188e-13
1.18927e-12
7.56636e-13
9.18854e-13
9.33222e-13
6.73309e-13
8.51426e-13
6.58334e-13
7.26157e-13
3.70933e-13
5.54681e-13
8.52473e-13
8.55005e-13
7.36765e-13
7.75028e-13
7.98766e-13
8.41771e-13
8.0534e-13
4.07094e-13
6.96872e-13
7.9919e-13
7.46855e-13
1.11939e-12
4.07115e-13
6.10171e-13
6.28742e-13
5.86644e-13
3.76948e-13
3.76987e-13
6.73458e-13
5.54556e-13
7.87956e-13
4.35962e-13
4.50609e-13
1.45942e-13
1.45943e-13
3.28622e-13
4.91733e-13
3.30616e-13
6.71654e-13
7.17152e-13
7.73593e-13
8.69613e-13
7.86338e-13
7.2715e-13
5.75803e-13
3.70874e-13
7.24316e-13
7.46847e-13
7.21516e-13
4.15043e-13
3.63214e-13
2.97554e-13
7.20632e-13
7.3758e-13
6.0062e-13
6.71283e-13
6.18861e-13
5.59304e-13
7.58038e-13
5.59274e-13
6.70916e-13
6.42062e-13
3.88015e-13
4.78887e-13
4.68212e-13
8.00282e-13
3.30815e-13
3.4824e-13
3.41237e-13
7.54143e-13
3.14462e-13
3.09021e-13
5.3037e-13
2.87861e-13
6.04012e-13
6.04946e-13
2.95312e-13
6.70987e-13
3.24993e-13
3.25966e-13
3.64259e-13
3.11046e-13
3.02868e-13
4.28773e-13
3.59191e-13
3.29154e-13
3.11882e-13
6.1164e-13
6.93148e-13
3.40822e-13
6.75031e-13
2.83272e-13
6.83778e-13
5.46355e-13
2.95701e-13
2.4855e-13
2.795e-13
3.70029e-13
5.89814e-13
4.76413e-13
1.96424e-13
2.18177e-13
6.5413e-13
1.84925e-13
1.84928e-13
2.09597e-13
2.36215e-13
2.82679e-13
3.1285e-13
5.21575e-13
4.80396e-13
6.54967e-13
1.86394e-13
1.86397e-13
5.66832e-13
2.47123e-13
4.69596e-13
2.23804e-13
2.23225e-13
2.94047e-13
4.83128e-13
5.00341e-13
5.33206e-13
4.88609e-13
4.83132e-13
1.04831e-13
7.80116e-13
1.34055e-13
1.29432e-13
6.29933e-13
6.25521e-13
1.34098e-13
9.32386e-14
1.31702e-13
5.81559e-13
TENSORS Lagrange_strain float
-2.22045e-16 4.06756e-31 4.68375e-16
4.06756e-31 -1.11022e-16 4.44089e-16
4.68375e-16 4.44089e-16 0

2.22045e-16 -2.22045e-16 1.38778e-17
-2.22045e-16 -4.44089e-16 -1.11022e-16
1.38778e-17 -1.11022e-16 2.22045e-16

4.44089e-16 -2.77556e-17 4.23273e-16
-2.77556e-17 -1.11022e-16 1.15556e-33
4.23273e-16 1.15556e-33 0

-1.11022e-16 -4.44089e-16 -2.91434e-16
-4.44089e-16 -2.22045e-16 -5.55112e-17
-2.91434e-16 -5.55112e-17 0

4.44089e-16 -7.21645e-16 1.38778e-17
-7.21645e-16 -2.22045e-16 -6.93889e-17
1.38778e-17 -6.93889e-17 2.22045e-16

0 0 -1.11022e-16
0 0 -2.77556e-17
-1.11022e-16 -2.77556e-17 2.22045e-16

0 1.19696e-16 -5.20417e-18
1.19696e-16 2.22045e-16 -4.43493e-16
-5.20417e-18 -4.43493e-16 0

-6.66134e-16 -2.22045e-16 3.05311e-16
-2.22045e-16 4.44089e-16 -2.08167e-16
3.05311e-16 -2.08167e-16 2.22045e-16

-4.44089e-16 -3.33067e-16 -2.35922e-16
-3.33067e-16 2.22045e-16 9.24446e-33
-2.35922e-16 9.24446e-33 2.22045e-16

-2.22045e-16 -4.44794e-16 -2.08167e-16
-4.44794e-16 -1.11022e-16 -2.20906e-18
-2.08167e-16 -2.20906e-18 -2.22045e-16

-4.44089e-16 1.66533e-16 6.93889e-18
1.66533e-16 0 2.31112e-33
6.93889e-18 2.31112e-33 0

0 0 6.93889e-18
0 -1.11022e-16 -2.77556e-17
6.93889e-18 -2.77556e-17 0

6.66134e-16 1.11022e-16 -2.08167e-16
1.11022e-16 0 5.55112e-17
-2.08167e-16 5.55112e-17 0

0 2.22045e-16 -6.93889e-18
2.22045e-16 0 -1.66533e-16
-6.93889e-18 -1.66533e-16 0

-8.88178e-16 -3.33067e-16 -1.80411e-16
-3.33067e-16 0 1.38778e-17
-1.80411e-16 1.38778e-17 0

0 0 -9.71445e-17
0 0 -1.73472e-18
-9.71445e-17 -1.73472e-18 0

0 -9.15934e-16 7.39557e-32
-9.15934e-16 -8.88178e-16 -4.16334e-17
7.39557e-32 -4.16334e-17 2.22045e-16

0 4.51028e-16 -1.38778e-17
4.51028e-16 0 -2.60209e-18
-1.38778e-17 -2.60209e-18 0

0 1.11022e-16 2.08167e-17
1.11022e-16 0 1.38778e-17
2.08167e-17 1.38778e-17 0

-7.77156e-16 4.87457e-16 1.11022e-16
4.87457e-16 0 4.33681e-18
1.11022e-16 4.33681e-18 0

0 -2.22045e-16 2.1684e-16
-2.22045e-16 0 -4.16334e-17
2.1684e-16 -4.16334e-17 0

-2.22045e-16 -3.55271e-15 -1.77636e-15
-3.55271e-15 -2.22045e-16 -1.66533e-16
-1.77636e-15 -1.66533e-16 0

-2.22045e-16 -5.55112e-17 -2.22045e-16
-5.55112e-17 0 -2.23779e-16
-2.22045e-16 -2.23779e-16 2.22045e-16

0 2.22045e-16 -1.38778e-17
2.22045e-16 6.66134e-16 -2.22045e-16
-1.38778e-17 -2.22045e-16 0

0 7.63278e-17 -4.57967e-16
7.63278e-17 0 -2.98372e-16
-4.57967e-16 -2.98372e-16 0

0 2.77556e-17 -1.04083e-17
2.77556e-17 2.22045e-16 -2.08167e-16
-1.04083e-17 -2.08167e-16 0

2.22045e-16 -2.29533e-17 4.3715e-16
-2.29533e-17 0 -4.42022e-16
4.3715e-16 -4.42022e-16 0

0 2.22045e-16 1.2326e-32
2.22045e-16 -3.33067e-16 2.77556e-17
1.2326e-32 2.77556e-17 2.22045e-16

-4.44089e-16 3.46945e-17 1.04083e-17
3.46945e-17 2.22045e-16 -2.498e-16
1.04083e-17 -2.498e-16 0

6.66134e-16 3.88578e-16 1.66533e-16
3.88578e-16 -8.88178e-16 -1.38778e-17
1.66533e-16 -1.38778e-17 0

0 0 0
0 0 4.4062e-16
0 4.4062e-16 0

0 1.11022e-16 -3.46945e-18
1.11022e-16 6.66134e-16 -6.93889e-18
-3.46945e-18 -6.93889e-18 0

0 0 -4.49293e-16
0 0 2.77556e-17
-4.49293e-16 2.77556e-17 0

-1.11022e-16 3.46945e-17 4.45824e-16
3.46945e-17 0 -2.77556e-17
4.45824e-16 -2.77556e-17 0

0 6.93889e-18 -4.44089e-16
6.93889e-18 -1.55431e-15 2.77556e-17
-4.44089e-16 2.77556e-17 0

-2.22045e-16 1.22125e-15 -3.19189e-16
1.22125e-15 0 -4.30211e-16
-3.19189e-16 -4.30211e-16 2.22045e-16

0 4.44089e-16 -3.46945e-18
4.44089e-16 -1.55431e-15 -2.22045e-16
-3.46945e-18 -2.22045e-16 0

1.55431e-15 0 -9.71445e-17
0 0 -5.55112e-17
-9.71445e-17 -5.55112e-17 0

4.44089e-16 1.66533e-16 9.71445e-17
1.66533e-16 -4.44089e-16 1.38778e-17
9.71445e-17 1.38778e-17 0

0 -1.94289e-16 -1.04083e-17
-1.94289e-16 4.44089e-16 3.1572e-16
-1.04083e-17 3.1572e-16 0

0 9.71445e-17 -6.93889e-18
9.71445e-17 -3.33067e-16 8.32667e-17
-6.93889e-18 8.32667e-17 0

-3.33067e-16 -9.71445e-17 1.10155e-16
-9.71445e-17 -8.88178e-16 -5.27356e-16
1.10155e-16 -5.27356e-16 0

-1.77636e-15 0 2.22045e-16
0 0 -2.77556e-17
2.22045e-16 -2.77556e-17 2.22045e-16

0 2.77556e-17 -1.38778e-17
2.77556e-17 0 -2.23779e-16
-1.38778e-17 -2.23779e-16 0

-3.33067e-16 -1.38778e-16 1.17961e-16
-1.38778e-16 0 3.46945e-18
1.17961e-16 3.46945e-18 0

-1.11022e-16 -1.38778e-17 3.46945e-17
-1.38778e-17 0 -1.04083e-17
3.46945e-17 -1.04083e-17 0

0 3.33067e-16 -2.42861e-16
3.33067e-16 0 -2.77556e-17
-2.42861e-16 -2.77556e-17 0

0 5.55112e-17 2.22045e-16
5.55112e-17 2.22045e-16 1.38778e-17
2.22045e-16 1.38778e-17 0

6.66134e-16 9.49761e-17 -3.05311e-16
9.49761e-17 2.22045e-16 3.46945e-18
-3.05311e-16 3.46945e-18 2.22045e-16

-2.22045e-16 0 -6.93889e-18
0 -4.44089e-16 -2.42861e-17
-6.93889e-18 -2.42861e-17 0

0 -4.85723e-17 2.35922e-16
-4.85723e-17 2.22045e-16 8.67362e-18
2.35922e-16 8.67362e-18 2.22045e-16

0 2.35922e-16 2.01228e-16
2.35922e-16 -2.22045e-16 8.67362e-18
2.01228e-16 8.67362e-18 2.22045e-16

0 4.44089e-16 3.46945e-18
4.44089e-16 0 -5.55112e-16
3.46945e-18 -5.55112e-16 0

-3.33067e-16 -5.55112e-17 2.08167e-16
-5.55112e-17 -4.44089e-16 2.08167e-17
2.08167e-16 2.08167e-17 -2.22045e-16

0 -4.44089e-16 -2.77556e-16
-4.44089e-16 0 -6.93889e-17
-2.77556e-16 -6.93889e-17 0

2.22045e-16 -1.11022e-16 -1.54074e-33
-1.11022e-16 0 -2.15106e-16
-1.54074e-33 -2.15106e-16 0

0 0 -5.37764e-17
0 0 5.55112e-17
-5.37764e-17 5.55112e-17 2.22045e-16

0 -1.11022e-16 -6.93889e-18
-1.11022e-16 -2.22045e-16 3.46945e-16
-6.93889e-18 3.46945e-16 0

0 0 2.77556e-17
0 -2.22045e-16 -1.94289e-16
2.77556e-17 -1.94289e-16 0

-1.11022e-16 1.73472e-16 -1.04083e-17
1.73472e-16 8.88178e-16 3.95517e-16
-1.04083e-17 3.95517e-16 2.22045e-16

6.66134e-16 1.11022e-16 2.77556e-17
1.11022e-16 2.22045e-16 -1.11022e-16
2.77556e-17 -1.11022e-16 2.22045e-16

-6.66134e-16 9.71445e-17 8.32667e-17
9.71445e-17 -3.33067e-16 -6.93889e-18
8.32667e-17 -6.93889e-18 0

-1.11022e-16 -5.55112e-17 3.29597e-16
-5.55112e-17 -2.22045e-16 3.46945e-18
3.29597e-16 3.46945e-18 0

-1.11022e-16 -8.88178e-16 4.3715e-16
-8.88178e-16 0 -1.66533e-16
4.3715e-16 -1.66533e-16 0

-4.44089e-16 0 4.44089e-16
0 -2.22045e-16 0
4.44089e-16 0 0

0 0 -1.21431e-17
0 0 -4.30211e-16
-1.21431e-17 -4.30211e-16 0

0 5.55112e-17 -6.93889e-18
5.55112e-17 0 -2.77556e-17
-6.93889e-18 -2.77556e-17 0

6.66134e-16 1.11022e-16 -4.57967e-16
1.11022e-16 0 4.47559e-16
-4.57967e-16 4.47559e-16 2.22045e-16

0 1.11022e-16 1.94289e-16
1.11022e-16 0 2.08167e-16
1.94289e-16 2.08167e-16 2.22045e-16

6.66134e-16 -4.31512e-17 2.35922e-16
-4.31512e-17 -1.11022e-16 -2.19009e-16
2.35922e-16 -2.19009e-16 0

0 3.33067e-16 -6.93889e-18
3.33067e-16 -4.44089e-16 3.05311e-16
-6.93889e-18 3.05311e-16 2.22045e-16

0 1.38778e-17 -5.55112e-17
1.38778e-17 0 -2.08167e-16
-5.55112e-17 -2.08167e-16 0

-1.11022e-16 5.55112e-17 2.22045e-16
5.55112e-17 0 -6.93889e-18
2.22045e-16 -6.93889e-18 0

-2.22045e-16 -6.10623e-16 1.94289e-16
-6.10623e-16 4.44089e-16 4.57967e-16
1.94289e-16 4.57967e-16 0

2.22045e-16 -3.33067e-16 -2.42861e-16
-3.33067e-16 4.44089e-16 -2.77556e-17
-2.42861e-16 -2.77556e-17 0

0 -4.16334e-17 -6.93889e-18
-4.16334e-17 -1.11022e-16 1.16226e-16
-6.93889e-18 1.16226e-16 0

-2.22045e-16 4.16334e-17 4.44089e-16
4.16334e-17 2.22045e-16 -4.71845e-16
4.44089e-16 -4.71845e-16 0

0 3.33067e-16 1.38778e-17
3.33067e-16 2.22045e-16 2.77556e-17
1.38778e-17 2.77556e-17 0

0 3.33067e-16 6.93889e-17
3.33067e-16 0 2.77556e-17
6.93889e-17 2.77556e-17 0

0 -3.81639e-17 -2.77556e-17
-3.81639e-17 2.22045e-16 -4.79651e-16
-2.77556e-17 -4.79651e-16 0

4.44089e-16 0 6.93889e-18
0 2.22045e-16 2.74086e-16
6.93889e-18 2.74086e-16 2.22045e-16

0 2.77556e-17 -3.46945e-18
2.77556e-17 8.88178e-16 2.498e-16
-3.46945e-18 2.498e-16 0

0 -3.64292e-16 -4.16334e-16
-3.64292e-16 -6.66134e-16 -1.66533e-16
-4.16334e-16 -1.66533e-16 2.22045e-16

-4.44089e-16 -1.11022e-16 -6.93889e-18
-1.11022e-16 -1.11022e-16 1.38778e-17
-6.93889e-18 1.38778e-17 0

0 4.33681e-18 1.38778e-17
4.33681e-18 -1.11022e-16 1.02999e-18
1.38778e-17 1.02999e-18 0

0 -5.55112e-17 -3.46945e-18
-5.55112e-17 0 -6.93889e-18
-3.46945e-18 -6.93889e-18 2.22045e-16

-1.11022e-16 1.73472e-17 1.73472e-18
1.73472e-17 6.66134e-16 -1.38778e-17
1.73472e-18 -1.38778e-17 0

8.88178e-16 4.996e-16 1.38778e-16
4.996e-16 0 1.38778e-17
1.38778e-16 1.38778e-17 2.22045e-16

2.22045e-16 0 -1.73472e-17
0 0 -6.93889e-18
-1.73472e-17 -6.93889e-18 0

0 1.66533e-16 0
1.66533e-16 1.55431e-15 2.91434e-16
0 2.91434e-16 0

0 1.11022e-16 -4.47559e-16
1.11022e-16 2.22045e-16 6.93889e-18
-4.47559e-16 6.93889e-18 0

2.22045e-16 0 9.50628e-16
0 0 -4.16334e-17
9.50628e-16 -4.16334e-17 0

-8.88178e-16 3.33067e-16 0
3.33067e-16 0 6.93889e-17
0 6.93889e-17 -1.11022e-16

0 0 -4.30211e-16
0 -1.11022e-16 6.93889e-18
-4.30211e-16 6.93889e-18 0

-4.44089e-16 -3.19189e-16 2.15106e-16
-3.19189e-16 -2.22045e-16 -4.42354e-16
2.15106e-16 -4.42354e-16 2.22045e-16

4.44089e-16 -9.19403e-17 4.49293e-16
-9.19403e-17 2.22045e-16 6.93889e-18
4.49293e-16 6.93889e-18 0

0 1.11022e-16 3.46945e-18
1.11022e-16 0 6.93889e-18
3.46945e-18 6.93889e-18 2.22045e-16

0 -2.77556e-17 1.38778e-17
-2.77556e-17 6.66134e-16 -7.70372e-34
1.38778e-17 -7.70372e-34 0

4.44089e-16 2.22045e-16 2.77556e-17
2.22045e-16 2.22045e-16 -2.15106e-16
2.77556e-17 -2.15106e-16 0

0 8.41341e-17 -4.3715e-16
8.41341e-17 -9.99201e-16 -2.498e-16
-4.3715e-16 -2.498e-16 0

0 -5.55112e-17 1.80411e-16
-5.55112e-17 0 4.4062e-16
1.80411e-16 4.4062e-16 0

2.22045e-16 -2.77556e-17 0
-2.77556e-17 2.22045e-16 1.59595e-16
0 1.59595e-16 0

-3.33067e-16 -2.01228e-16 2.08167e-17
-2.01228e-16 0 -6.93889e-18
2.08167e-17 -6.93889e-18 0

0 -3.88578e-16 2.46519e-32
-3.88578e-16 0 -2.77556e-17
2.46519e-32 -2.77556e-17 2.22045e-16

0 -5.55112e-17 4.30211e-16
-5.55112e-17 6.66134e-16 1.38778e-17
4.30211e-16 1.38778e-17 2.22045e-16

4.44089e-16 4.44089e-16 -2.63678e-16
4.44089e-16 0 -5.55112e-17
-2.63678e-16 -5.55112e-17 0

0 3.33067e-16 -4.35416e-16
3.33067e-16 -1.33227e-15 3.33067e-16
-4.35416e-16 3.33067e-16 2.22045e-16

-4.44089e-16 2.77556e-17 -1.38778e-17
2.77556e-17 -2.22045e-16 2.70617e-16
-1.38778e-17 2.70617e-16 0

-1.11022e-16 -1.04083e-16 -4.62223e-33
-1.04083e-16 -2.22045e-16 -9.02056e-17
-4.62223e-33 -9.02056e-17 0

2.22045e-16 0 2.77556e-17
0 2.22045e-16 9.71445e-17
2.77556e-17 9.71445e-17 0

2.22045e-16 1.38778e-17 -1.38778e-17
1.38778e-17 -2.22045e-16 -5.55112e-17
-1.38778e-17 -5.55112e-17 0

0 0 -1.73472e-18
0 0 0
-1.73472e-18 0 0

0 -1.66533e-16 -1.38778e-17
-1.66533e-16 0 -3.46945e-18
-1.38778e-17 -3.46945e-18 0

-3.33067e-16 0 1.38778e-17
0 -8.88178e-16 1.38778e-17
1.38778e-17 1.38778e-17 0

2.22045e-16 5.55112e-17 -2.91434e-16
5.55112e-17 -1.11022e-16 -3.46945e-18
-2.91434e-16 -3.46945e-18 0

-3.33067e-16 -2.22045e-16 -1.04083e-16
-2.22045e-16 -4.44089e-16 6.93889e-18
-1.04083e-16 6.93889e-18 0

-8.88178e-16 -5.55112e-17 -3.05311e-16
-5.55112e-17 0 1.52656e-16
-3.05311e-16 1.52656e-16 0

-3.33067e-16 0 2.28983e-16
0 -1.11022e-16 6.93889e-18
2.28983e-16 6.93889e-18 0

0 1.97215e-31 4.44089e-16
1.97215e-31 0 2.08167e-16
4.44089e-16 2.08167e-16 0

0 1.45717e-16 -3.46945e-18
1.45717e-16 0 -2.63678e-16
-3.46945e-18 -2.63678e-16 2.22045e-16

0 -1.0842e-18 2.08167e-17
-1.0842e-18 -1.11022e-16 -8.67362e-19
2.08167e-17 -8.67362e-19 0

-4.44089e-16 0 -2.498e-16
0 0 2.08167e-17
-2.498e-16 2.08167e-17 0

0 0 -1.249e-16
0 8.88178e-16 0
-1.249e-16 0 0

0 -6.93889e-18 0
-6.93889e-18 6.66134e-16 -2.77556e-17
0 -2.77556e-17 2.22045e-16

-6.66134e-16 1.38778e-17 -1.66533e-16
1.38778e-17 0 1.73472e-18
-1.66533e-16 1.73472e-18 0

2.22045e-16 -4.16334e-17 7.28584e-17
-4.16334e-17 0 -2.77556e-17
7.28584e-17 -2.77556e-17 0

4.44089e-16 0 0
0 8.88178e-16 -2.77556e-17
0 -2.77556e-17 2.22045e-16

-4.44089e-16 1.70003e-16 -4.44089e-16
1.70003e-16 -2.22045e-16 1.35308e-16
-4.44089e-16 1.35308e-16 0

-1.11022e-16 4.51028e-17 4.47125e-16
4.51028e-17 0 6.93889e-18
4.47125e-16 6.93889e-18 2.22045e-16

0 0 0
0 0 6.93889e-17
0 6.93889e-17 0

2.22045e-16 -5.55112e-17 3.46945e-18
-5.55112e-17 8.88178e-16 5.55112e-17
3.46945e-18 5.55112e-17 2.22045e-16

0 0 0
0 0 -2.25514e-16
0 -2.25514e-16 0

0 -1.97215e-31 2.42861e-16
-1.97215e-31 0 -4.44089e-16
2.42861e-16 -4.44089e-16 0

2.22045e-16 1.76942e-16 1.38778e-17
1.76942e-16 0 1.52656e-16
1.38778e-17 1.52656e-16 0

0 -6.93889e-18 -4.51028e-16
-6.93889e-18 0 1.11022e-16
-4.51028e-16 1.11022e-16 0

0 -8.8124e-16 0
-8.8124e-16 0 1.11022e-16
0 1.11022e-16 0

2.22045e-16 0 -6.93889e-18
0 -1.11022e-16 -2.08167e-16
-6.93889e-18 -2.08167e-16 0

0 -5.55112e-17 6.93889e-17
-5.55112e-17 -1.11022e-16 -9.02056e-17
6.93889e-17 -9.02056e-17 0

-1.55431e-15 -2.22045e-16 1.66533e-16
-2.22045e-16 0 2.08167e-17
1.66533e-16 2.08167e-17 0

1.77636e-15 8.88178e-16 -2.77556e-17
8.88178e-16 -8.88178e-16 -2.77556e-17
-2.77556e-17 -2.77556e-17 0

-2.22045e-16 5.55112e-17 2.18575e-16
5.55112e-17 -3.33067e-16 2.08167e-17
2.18575e-16 2.08167e-17 -1.11022e-16

0 4.44089e-16 4.02456e-16
4.44089e-16 -4.44089e-16 -4.16334e-17
4.02456e-16 -4.16334e-17 0

0 -2.77556e-17 -2.35922e-16
-2.77556e-17 0 1.04083e-17
-2.35922e-16 1.04083e-17 0

0 -3.33067e-16 0
-3.33067e-16 0 -4.44089e-16
0 -4.44089e-16 0

0 0 -2.22045e-16
0 2.22045e-16 6.93889e-18
-2.22045e-16 6.93889e-18 2.22045e-16

-2.22045e-16 5.55112e-17 2.08167e-17
5.55112e-17 0 4.16334e-17
2.08167e-17 4.16334e-17 0

4.44089e-16 -8.32667e-17 -2.77556e-17
-8.32667e-17 -2.22045e-16 -1.17961e-16
-2.77556e-17 -1.17961e-16 2.22045e-16

6.66134e-16 0 -2.77556e-17
0 0 -6.93889e-18
-2.77556e-17 -6.93889e-18 2.22045e-16

6.66134e-16 0 3.88578e-16
0 0 2.77556e-17
3.88578e-16 2.77556e-17 0

0 -2.77556e-17 0
-2.77556e-17 -3.33067e-16 -1.04083e-16
0 -1.04083e-16 0

6.66134e-16 0 0
0 0 3.36536e-16
0 3.36536e-16 0

-4.44089e-16 1.97215e-31 -1.94289e-16
1.97215e-31 8.88178e-16 -4.71845e-16
-1.94289e-16 -4.71845e-16 0

0 -1.11022e-16 6.93889e-18
-1.11022e-16 -2.22045e-16 -1.38778e-17
6.93889e-18 -1.38778e-17 -1.11022e-16

0 2.77556e-16 -1.04083e-17
2.77556e-16 4.44089e-16 1.15556e-33
-1.04083e-17 1.15556e-33 0

0 2.22045e-16 -4.16334e-17
2.22045e-16 4.44089e-16 -4.57967e-16
-4.16334e-17 -4.57967e-16 2.22045e-16

2.22045e-16 -1.76942e-16 6.93889e-18
-1.76942e-16 -6.66134e-16 -1.249e-16
6.93889e-18 -1.249e-16 0

0 -2.77556e-17 -4.23273e-16
-2.77556e-17 6.66134e-16 3.19189e-16
-4.23273e-16 3.19189e-16 0

-3.33067e-16 -2.18575e-16 -1.20371e-35
-2.18575e-16 0 -1.73472e-18
-1.20371e-35 -1.73472e-18 0

4.44089e-16 -5.55112e-17 -4.4062e-16
-5.55112e-17 0 4.57967e-16
-4.4062e-16 4.57967e-16 0

0 -3.88578e-16 2.35922e-16
-3.88578e-16 0 9.71445e-17
2.35922e-16 9.71445e-17 0

4.44089e-16 -5.55112e-17 -2.08167e-16
-5.55112e-17 6.66134e-16 2.56739e-16
-2.08167e-16 2.56739e-16 2.22045e-16

0 0 1.38778e-17
0 -1.11022e-16 -6.93889e-18
1.38778e-17 -6.93889e-18 0

0 1.11022e-16 4.3715e-16
1.11022e-16 0 -2.08167e-17
4.3715e-16 -2.08167e-17 0

0 1.66533e-16 -1.38778e-17
1.66533e-16 4.44089e-16 0
-1.38778e-17 0 2.22045e-16

0 1.04083e-16 -6.93889e-18
1.04083e-16 2.22045e-16 -1.66533e-16
-6.93889e-18 -1.66533e-16 0

0 0 2.77556e-17
0 0 -5.52943e-18
2.77556e-17 -5.52943e-18 0

0 2.22045e-16 -2.32453e-16
2.22045e-16 -3.33067e-16 -2.08167e-17
-2.32453e-16 -2.08167e-17 0

0 -1.66533e-16 2.28983e-16
-1.66533e-16 0 4.44089e-16
2.28983e-16 4.44089e-16 0

0 1.11022e-16 -2.23779e-16
1.11022e-16 0 4.09395e-16
-2.23779e-16 4.09395e-16 0

0 -1.35308e-16 6.93889e-18
-1.35308e-16 4.44089e-16 3.08149e-33
6.93889e-18 3.08149e-33 2.22045e-16

0 -2.21177e-16 1.38778e-17
-2.21177e-16 4.44089e-16 -1.73472e-17
1.38778e-17 -1.73472e-17 2.22045e-16

2.22045e-16 2.28983e-16 -2.22695e-16
2.28983e-16 0 4.16334e-16
-2.22695e-16 4.16334e-16 2.22045e-16

0 1.11022e-16 -6.93889e-18
1.11022e-16 0 -1.38778e-17
-6.93889e-18 -1.38778e-17 0

2.22045e-16 6.93889e-18 0
6.93889e-18 2.22045e-16 -3.46945e-16
0 -3.46945e-16 2.22045e-16

0 -2.77556e-17 2.77556e-17
-2.77556e-17 4.44089e-16 -3.1225e-17
2.77556e-17 -3.1225e-17 2.22045e-16

0 -1.11022e-16 4.57967e-16
-1.11022e-16 -1.11022e-16 3.46945e-17
4.57967e-16 3.46945e-17 2.22045e-16

-4.44089e-16 -3.33067e-16 -2.08167e-16
-3.33067e-16 0 -1.38778e-17
-2.08167e-16 -1.38778e-17 0

0 5.55112e-17 2.77556e-17
5.55112e-17 -4.44089e-16 2.70617e-16
2.77556e-17 2.70617e-16 0

0 0 0
0 4.44089e-16 -4.3715e-16
0 -4.3715e-16 0

2.22045e-16 -1.11022e-16 1.84889e-32
-1.11022e-16 2.22045e-16 -4.02456e-16
1.84889e-32 -4.02456e-16 0

-3.33067e-16 0 1.38778e-17
0 0 -1.11022e-16
1.38778e-17 -1.11022e-16 0

0 1.11022e-16 2.22045e-16
1.11022e-16 0 2.77556e-17
2.22045e-16 2.77556e-17 0

8.88178e-16 1.11022e-16 9.24446e-33
1.11022e-16 -6.66134e-16 4.16334e-17
9.24446e-33 4.16334e-17 0

-2.22045e-16 0 -2.11636e-16
0 0 2.08167e-17
-2.11636e-16 2.08167e-17 0

8.88178e-16 -2.22045e-16 -2.498e-16
-2.22045e-16 0 -2.28983e-16
-2.498e-16 -2.28983e-16 0

4.44089e-16 -4.16334e-17 -1.20371e-35
-4.16334e-17 0 1.39212e-16
-1.20371e-35 1.39212e-16 2.22045e-16

0 -1.11022e-16 4.16334e-17
-1.11022e-16 4.44089e-16 1.38778e-17
4.16334e-17 1.38778e-17 2.22045e-16

0 -2.22045e-16 -3.46945e-18
-2.22045e-16 4.44089e-16 2.77556e-17
-3.46945e-18 2.77556e-17 0

0 -1.11022e-16 1.66533e-16
-1.11022e-16 4.44089e-16 -1.38778e-17
1.66533e-16 -1.38778e-17 0

0 1.97215e-31 -2.08167e-16
1.97215e-31 2.22045e-16 -5.13478e-16
-2.08167e-16 -5.13478e-16 0

0 -2.25514e-17 -3.46945e-18
-2.25514e-17 -2.22045e-16 -1.52656e-16
-3.46945e-18 -1.52656e-16 0

2.22045e-16 5.55112e-17 2.22045e-16
5.55112e-17 0 4.39752e-16
2.22045e-16 4.39752e-16 0

0 -5.55112e-17 2.42861e-16
-5.55112e-17 0 6.93889e-18
2.42861e-16 6.93889e-18 0

-1.11022e-16 0 0
0 4.44089e-16 0
0 0 0

0 -5.94685e-17 -2.77556e-17
-5.94685e-17 0 1.16552e-17
-2.77556e-17 1.16552e-17 2.22045e-16

0 2.77556e-17 4.16334e-16
2.77556e-17 0 -2.22478e-16
4.16334e-16 -2.22478e-16 0

-2.22045e-16 -2.22045e-16 1.84889e-32
-2.22045e-16 0 1.80411e-16
1.84889e-32 1.80411e-16 0

0 -4.44089e-16 2.22045e-16
-4.44089e-16 -6.66134e-16 1.38778e-17
2.22045e-16 1.38778e-17 0

2.22045e-16 4.44089e-16 -2.08167e-16
4.44089e-16 0 1.80411e-16
-2.08167e-16 1.80411e-16 0

0 2.77556e-17 1.06252e-16
2.77556e-17 0 8.32667e-17
1.06252e-16 8.32667e-17 0

0 -4.44089e-16 1.2326e-32
-4.44089e-16 0 -2.498e-16
1.2326e-32 -2.498e-16 0

-6.66134e-16 2.77556e-17 -2.22045e-16
2.77556e-17 -2.22045e-16 -4.47559e-16
-2.22045e-16 -4.47559e-16 0

-2.22045e-16 5.55112e-17 -2.22045e-16
5.55112e-17 0 2.08167e-17
-2.22045e-16 2.08167e-17 0

-1.55431e-15 -1.94289e-16 1.38778e-16
-1.94289e-16 0 6.93889e-18
1.38778e-16 6.93889e-18 0

0 2.77556e-16 2.28983e-16
2.77556e-16 0 4.44089e-16
2.28983e-16 4.44089e-16 0

2.22045e-16 2.35922e-16 -3.46945e-18
2.35922e-16 0 0
-3.46945e-18 0 0

-2.22045e-16 -8.32667e-17 -2.22045e-16
-8.32667e-17 4.44089e-16 6.93889e-18
-2.22045e-16 6.93889e-18 2.22045e-16

4.44089e-16 5.55112e-17 2.15106e-16
5.55112e-17 0 -4.42354e-16
2.15106e-16 -4.42354e-16 0

4.44089e-16 0 -1.38778e-17
0 -2.22045e-16 2.28983e-16
-1.38778e-17 2.28983e-16 0

0 5.55112e-16 5.77779e-34
5.55112e-16 -1.11022e-16 5.20417e-18
5.77779e-34 5.20417e-18 0

-4.44089e-16 5.55112e-17 -6.93889e-17
5.55112e-17 -4.44089e-16 2.77556e-17
-6.93889e-17 2.77556e-17 0

8.88178e-16 4.16334e-17 -4.02456e-16
4.16334e-17 0 1.04083e-16
-4.02456e-16 1.04083e-16 2.22045e-16

2.22045e-16 -1.04083e-16 -3.61112e-34
-1.04083e-16 0 1.73472e-18
-3.61112e-34 1.73472e-18 0

0 0 -4.16334e-17
0 0 4.57967e-16
-4.16334e-17 4.57967e-16 4.44089e-16

4.44089e-16 2.77556e-17 -1.38778e-17
2.77556e-17 -3.33067e-16 -1.04083e-17
-1.38778e-17 -1.04083e-17 2.22045e-16

0 0 -1.38778e-17
0 0 1.38778e-17
-1.38778e-17 1.38778e-17 0

6.66134e-16 0 -4.30211e-16
0 2.22045e-16 -6.93889e-18
-4.30211e-16 -6.93889e-18 0

2.22045e-16 2.22045e-16 5.55112e-17
2.22045e-16 4.44089e-16 4.16334e-16
5.55112e-17 4.16334e-16 2.22045e-16

0 -1.66533e-16 -2.77556e-17
-1.66533e-16 8.88178e-16 -2.22045e-16
-2.77556e-17 -2.22045e-16 0

1.33227e-15 3.33067e-16 2.22045e-16
3.33067e-16 0 -2.77556e-17
2.22045e-16 -2.77556e-17 0

-3.33067e-16 -1.92294e-16 0
-1.92294e-16 8.88178e-16 -1.0388e-17
0 -1.0388e-17 0

0 -4.44089e-16 2.08167e-16
-4.44089e-16 0 0
2.08167e-16 0 0

-4.44089e-16 -4.16334e-17 -2.77556e-17
-4.16334e-17 -1.11022e-16 5.20417e-18
-2.77556e-17 5.20417e-18 2.22045e-16

0 0 8.32667e-17
0 0 -6.93889e-18
8.32667e-17 -6.93889e-18 0

-4.44089e-16 -4.57967e-16 5.55112e-17
-4.57967e-16 0 -4.3715e-16
5.55112e-17 -4.3715e-16 0

0 -3.33067e-16 -2.498e-16
-3.33067e-16 0 2.77556e-17
-2.498e-16 2.77556e-17 0

0 2.35922e-16 -4.16334e-17
2.35922e-16 -1.11022e-16 9.71445e-17
-4.16334e-17 9.71445e-17 2.22045e-16

2.22045e-16 4.44089e-16 2.08167e-16
4.44089e-16 0 0
2.08167e-16 0 0

0 9.02056e-17 6.93889e-18
9.02056e-17 -8.88178e-16 -2.77556e-17
6.93889e-18 -2.77556e-17 0

-2.22045e-16 2.22045e-16 -1.94289e-16
2.22045e-16 -2.22045e-16 -1.38778e-17
-1.94289e-16 -1.38778e-17 0

0 5.55112e-17 -2.77556e-17
5.55112e-17 0 -4.16334e-17
-2.77556e-17 -4.16334e-17 0

0 -9.75782e-18 1.51788e-18
-9.75782e-18 0 -2.08167e-16
1.51788e-18 -2.08167e-16 2.22045e-16

0 1.11022e-16 -2.77556e-17
1.11022e-16 -4.44089e-16 2.77556e-17
-2.77556e-17 2.77556e-17 2.22045e-16

0 1.8735e-16 1.38778e-17
1.8735e-16 6.66134e-16 9.02056e-17
1.38778e-17 9.02056e-17 0

0 4.16334e-17 1.38778e-17
4.16334e-17 0 1.13624e-16
1.38778e-17 1.13624e-16 0

-6.66134e-16 0 -5.55112e-17
0 0 -1.38778e-17
-5.55112e-17 -1.38778e-17 0

0 0 -2.498e-16
0 0 4.16334e-17
-2.498e-16 4.16334e-17 0

-4.44089e-16 2.77556e-17 0
2.77556e-17 0 0
0 0 0

0 -8.54351e-17 8.67362e-18
-8.54351e-17 -6.66134e-16 -2.98372e-16
8.67362e-18 -2.98372e-16 0

-9.99201e-16 -4.44089e-16 1.94289e-16
-4.44089e-16 8.88178e-16 2.77556e-17
1.94289e-16 2.77556e-17 0

4.44089e-16 -2.32453e-16 -4.44089e-16
-2.32453e-16 6.66134e-16 -1.94289e-16
-4.44089e-16 -1.94289e-16 2.22045e-16

2.22045e-16 5.55112e-17 -4.64906e-16
5.55112e-17 0 4.23273e-16
-4.64906e-16 4.23273e-16 0

0 1.66533e-16 -1.249e-16
1.66533e-16 -2.22045e-16 3.46945e-17
-1.249e-16 3.46945e-17 0

0 -3.33067e-16 1.38778e-17
-3.33067e-16 4.44089e-16 -6.93889e-18
1.38778e-17 -6.93889e-18 2.22045e-16

4.44089e-16 -1.38778e-17 -5.55112e-17
-1.38778e-17 2.22045e-16 -8.32667e-17
-5.55112e-17 -8.32667e-17 0

2.22045e-16 -2.22045e-16 -4.57967e-16
-2.22045e-16 -8.88178e-16 -8.32667e-17
-4.57967e-16 -8.32667e-17 0

-1.11022e-16 -1.73472e-18 -5.20417e-18
-1.73472e-18 -6.66134e-16 9.71445e-17
-5.20417e-18 9.71445e-17 0

0 1.68729e-18 -1.56125e-17
1.68729e-18 0 1.14925e-17
-1.56125e-17 1.14925e-17 0

-3.33067e-16 1.11022e-16 2.11636e-16
1.11022e-16 0 -2.31112e-33
2.11636e-16 -2.31112e-33 0

-3.33067e-16 -1.96024e-16 -2.77556e-17
-1.96024e-16 0 -5.55057e-16
-2.77556e-17 -5.55057e-16 0

4.44089e-16 -2.22045e-16 2.08167e-16
-2.22045e-16 0 2.35922e-16
2.08167e-16 2.35922e-16 0

2.22045e-16 1.94289e-16 8.67362e-18
1.94289e-16 0 6.93889e-18
8.67362e-18 6.93889e-18 0

2.22045e-16 1.11022e-16 2.22045e-16
1.11022e-16 0 -2.77556e-17
2.22045e-16 -2.77556e-17 2.22045e-16

2.22045e-16 6.93889e-18 -2.498e-16
6.93889e-18 0 -2.1684e-18
-2.498e-16 -2.1684e-18 0

0 0 -1.94289e-16
0 0 3.46945e-18
-1.94289e-16 3.46945e-18 2.22045e-16

0 0 2.77556e-17
0 2.22045e-16 0
2.77556e-17 0 2.22045e-16

4.44089e-16 4.85723e-17 4.02456e-16
4.85723e-17 6.66134e-16 -4.16334e-17
4.02456e-16 -4.16334e-17 2.22045e-16

0 9.99201e-16 3.86843e-16
9.99201e-16 0 -2.77556e-17
3.86843e-16 -2.77556e-17 2.22045e-16

0 3.33067e-16 -2.498e-16
3.33067e-16 0 4.16334e-17
-2.498e-16 4.16334e-17 0

4.44089e-16 2.22045e-16 -2.08167e-17
2.22045e-16 0 -1.73472e-18
-2.08167e-17 -1.73472e-18 2.22045e-16

0 1.66533e-16 7.70372e-34
1.66533e-16 2.22045e-16 6.93889e-18
7.70372e-34 6.93889e-18 2.22045e-16

-1.11022e-16 5.55112e-16 2.498e-16
5.55112e-16 0 -2.77556e-17
2.498e-16 -2.77556e-17 0

-1.11022e-16 4.44089e-16 -4.47559e-16
4.44089e-16 0 4.44089e-16
-4.47559e-16 4.44089e-16 0

0 1.11022e-16 2.11636e-16
1.11022e-16 -2.22045e-16 -1.38778e-17
2.11636e-16 -1.38778e-17 0

-3.33067e-16 -5.55112e-16 -1.94289e-16
-5.55112e-16 0 -5.55112e-17
-1.94289e-16 -5.55112e-17 2.22045e-16

6.66134e-16 -1.66533e-16 -6.93889e-18
-1.66533e-16 0 1.73472e-17
-6.93889e-18 1.73472e-17 0

0 -1.44329e-15 2.77556e-17
-1.44329e-15 0 4.44089e-16
2.77556e-17 4.44089e-16 2.22045e-16

0 -1.89085e-16 0
-1.89085e-16 0 -6.93889e-17
0 -6.93889e-17 0

-8.88178e-16 0 -2.498e-16
0 0 6.93889e-18
-2.498e-16 6.93889e-18 0

6.66134e-16 0 3.19189e-16
0 0 1.38778e-17
3.19189e-16 1.38778e-17 0

2.22045e-16 0 -2.22045e-16
0 8.88178e-16 1.38778e-17
-2.22045e-16 1.38778e-17 2.22045e-16

0 6.245e-17 4.16334e-17
6.245e-17 -7.77156e-16 -9.71445e-17
4.16334e-17 -9.71445e-17 0

4.44089e-16 2.77556e-16 2.31112e-33
2.77556e-16 -2.22045e-16 -6.93889e-18
2.31112e-33 -6.93889e-18 4.44089e-16

0 2.22045e-16 3.46945e-18
2.22045e-16 1.33227e-15 8.32667e-17
3.46945e-18 8.32667e-17 0

0 2.77556e-16 2.77556e-17
2.77556e-16 -6.66134e-16 -1.38778e-16
2.77556e-17 -1.38778e-16 2.22045e-16

-2.22045e-16 5.89806e-17 -1.249e-16
5.89806e-17 0 3.46945e-18
-1.249e-16 3.46945e-18 0

0 -1.59595e-16 -2.22045e-16
-1.59595e-16 0 -4.43384e-16
-2.22045e-16 -4.43384e-16 0

8.88178e-16 -3.88578e-16 4.16334e-17
-3.88578e-16 0 -2.498e-16
4.16334e-17 -2.498e-16 2.22045e-16

-5.55112e-16 -2.498e-16 1.38778e-17
-2.498e-16 0 -4.16334e-16
1.38778e-17 -4.16334e-16 0

0 0 -2.22045e-16
0 0 1.38778e-17
-2.22045e-16 1.38778e-17 2.22045e-16

4.44089e-16 2.77556e-17 2.77556e-17
2.77556e-17 0 -1.11564e-16
2.77556e-17 -1.11564e-16 0

0 -4.996e-16 2.1684e-16
-4.996e-16 -4.44089e-16 2.08167e-16
2.1684e-16 2.08167e-16 0

6.66134e-16 8.32667e-17 2.08167e-16
8.32667e-17 0 4.54498e-16
2.08167e-16 4.54498e-16 0

0 -1.11022e-16 -2.28983e-16
-1.11022e-16 8.88178e-16 1.38778e-17
-2.28983e-16 1.38778e-17 0

-2.22045e-16 2.15106e-16 2.21177e-16
2.15106e-16 4.44089e-16 4.71845e-16
2.21177e-16 4.71845e-16 0

-1.11022e-16 5.55112e-17 5.20417e-18
5.55112e-17 0 4.57967e-16
5.20417e-18 4.57967e-16 0

-4.44089e-16 5.55112e-17 2.22045e-16
5.55112e-17 0 -6.93889e-18
2.22045e-16 -6.93889e-18 0

-1.11022e-16 0 -1.38778e-17
0 2.22045e-16 -6.93889e-18
-1.38778e-17 -6.93889e-18 0

0 1.97758e-16 6.93889e-18
1.97758e-16 0 2.77556e-17
6.93889e-18 2.77556e-17 0

1.77636e-15 7.49401e-16 -8.32667e-16
7.49401e-16 -8.88178e-16 1.249e-16
-8.32667e-16 1.249e-16 0

2.22045e-16 0 0
0 8.88178e-16 -6.10623e-16
0 -6.10623e-16 0

-1.11022e-16 0 1.2837e-16
0 0 5.55112e-17
1.2837e-16 5.55112e-17 0

0 1.11022e-16 8.32667e-17
1.11022e-16 0 -3.46945e-17
8.32667e-17 -3.46945e-17 0

2.22045e-16 -1.11022e-16 -2.35922e-16
-1.11022e-16 -2.22045e-16 1.38778e-17
-2.35922e-16 1.38778e-17 2.22045e-16

0 2.42861e-16 4.16334e-17
2.42861e-16 0 2.42861e-16
4.16334e-17 2.42861e-16 0

0 -1.38778e-17 -4.45824e-16
-1.38778e-17 -1.11022e-16 1.66533e-16
-4.45824e-16 1.66533e-16 0

-4.44089e-16 -4.85723e-17 -8.32667e-17
-4.85723e-17 2.22045e-16 7.97973e-17
-8.32667e-17 7.97973e-17 0

-7.77156e-16 0 -4.30211e-16
0 0 0
-4.30211e-16 0 4.44089e-16

-2.22045e-16 1.66533e-16 2.27249e-16
1.66533e-16 -2.22045e-16 1.38778e-17
2.27249e-16 1.38778e-17 0

0 1.11022e-16 -6.93889e-18
1.11022e-16 0 3.46945e-17
-6.93889e-18 3.46945e-17 0

-8.88178e-16 1.11022e-16 -4.16334e-17
1.11022e-16 0 4.16334e-16
-4.16334e-17 4.16334e-16 0

-2.22045e-16 -3.46945e-17 -1.38778e-17
-3.46945e-17 -3.33067e-16 4.85723e-16
-1.38778e-17 4.85723e-16 0

0 -5.55112e-17 -4.62223e-33
-5.55112e-17 0 4.16334e-17
-4.62223e-33 4.16334e-17 0

-2.22045e-16 1.38778e-17 -4.64906e-16
1.38778e-17 -2.22045e-16 3.08781e-16
-4.64906e-16 3.08781e-16 0

-2.22045e-16 -1.97215e-31 -2.15106e-16
-1.97215e-31 0 4.51028e-16
-2.15106e-16 4.51028e-16 0

-7.77156e-16 3.88578e-16 -2.08167e-16
3.88578e-16 0 3.46945e-17
-2.08167e-16 3.46945e-17 0

0 -5.55112e-17 -8.67362e-18
-5.55112e-17 -4.44089e-16 6.93889e-18
-8.67362e-18 6.93889e-18 0

4.44089e-16 5.37764e-17 -4.43222e-16
5.37764e-17 0 1.11022e-16
-4.43222e-16 1.11022e-16 0

2.22045e-16 -2.22045e-16 6.93889e-18
-2.22045e-16 0 -5.55112e-17
6.93889e-18 -5.55112e-17 2.22045e-16

4.44089e-16 2.22045e-16 -3.60822e-16
2.22045e-16 1.33227e-15 -1.38778e-17
-3.60822e-16 -1.38778e-17 0

0 0 2.25514e-16
0 0 -6.93889e-18
2.25514e-16 -6.93889e-18 0

8.88178e-16 -3.88578e-16 5.27356e-16
-3.88578e-16 2.22045e-16 0
5.27356e-16 0 0

-2.22045e-16 1.11022e-16 -2.25514e-16
1.11022e-16 0 2.08167e-17
-2.25514e-16 2.08167e-17 0

0 5.55112e-17 -2.77556e-16
5.55112e-17 0 2.28983e-16
-2.77556e-16 2.28983e-16 0

0 -1.11022e-16 2.11636e-16
-1.11022e-16 -2.22045e-16 -4.92661e-16
2.11636e-16 -4.92661e-16 0

0 0 -2.77556e-17
0 0 -1.66533e-16
-2.77556e-17 -1.66533e-16 0

0 0 3.46945e-18
0 0 2.35922e-16
3.46945e-18 2.35922e-16 0

0 4.16334e-17 -1.73472e-17
4.16334e-17 0 -5.55112e-17
-1.73472e-17 -5.55112e-17 0

0 -1.38778e-17 2.77556e-17
-1.38778e-17 -2.22045e-16 -4.49293e-16
2.77556e-17 -4.49293e-16 0

1.77636e-15 0 1.38778e-17
0 0 2.15106e-16
1.38778e-17 2.15106e-16 0

0 -2.42861e-17 2.08167e-17
-2.42861e-17 0 1.73472e-16
2.08167e-17 1.73472e-16 0

0 -1.80411e-16 -1.38778e-17
-1.80411e-16 0 1.73472e-16
-1.38778e-17 1.73472e-16 0

-4.44089e-16 -4.44089e-16 0
-4.44089e-16 -3.33067e-16 -3.33067e-16
0 -3.33067e-16 2.22045e-16

-2.22045e-16 0 1.38778e-17
0 6.66134e-16 -1.38778e-17
1.38778e-17 -1.38778e-17 0

-3.33067e-16 5.55112e-17 2.08167e-17
5.55112e-17 0 4.09395e-16
2.08167e-17 4.09395e-16 2.22045e-16

4.44089e-16 1.66533e-16 2.28983e-16
1.66533e-16 4.44089e-16 -4.3715e-16
2.28983e-16 -4.3715e-16 0

0 -3.38271e-16 1.38778e-17
-3.38271e-16 -1.11022e-16 -9.71445e-17
1.38778e-17 -9.71445e-17 0

-4.44089e-16 -3.33067e-16 -2.77556e-17
-3.33067e-16 0 -2.35922e-16
-2.77556e-17 -2.35922e-16 0

0 -3.05311e-16 -3.46945e-18
-3.05311e-16 2.22045e-16 -1.38778e-17
-3.46945e-18 -1.38778e-17 2.22045e-16

2.22045e-16 0 -1.38778e-17
0 -2.22045e-16 2.22045e-16
-1.38778e-17 2.22045e-16 0

0 0 1.38778e-17
0 2.22045e-16 2.08167e-17
1.38778e-17 2.08167e-17 2.22045e-16

-1.11022e-16 -2.77556e-17 1.11022e-16
-2.77556e-17 0 -2.77556e-17
1.11022e-16 -2.77556e-17 0

0 -1.38778e-16 -2.77556e-17
-1.38778e-16 0 5.25621e-16
-2.77556e-17 5.25621e-16 0

0 2.18575e-16 2.1684e-19
2.18575e-16 2.22045e-16 4.44089e-16
2.1684e-19 4.44089e-16 0

0 4.85723e-17 -4.996e-16
4.85723e-17 2.22045e-16 2.46331e-16
-4.996e-16 2.46331e-16 0

0 -4.92661e-16 3.46945e-17
-4.92661e-16 -5.55112e-16 1.52656e-16
3.46945e-17 1.52656e-16 0

4.44089e-16 5.55112e-17 -2.42861e-16
5.55112e-17 0 6.93889e-18
-2.42861e-16 6.93889e-18 4.44089e-16

-1.11022e-16 -2.08167e-17 8.67362e-19
-2.08167e-17 -4.44089e-16 2.77556e-17
8.67362e-19 2.77556e-17 0

-4.44089e-16 1.11022e-16 -2.35922e-16
1.11022e-16 4.44089e-16 4.57967e-16
-2.35922e-16 4.57967e-16 0

0 0 -2.15106e-16
0 2.22045e-16 -1.38778e-17
-2.15106e-16 -1.38778e-17 0

2.22045e-16 -1.66533e-16 -4.3715e-16
-1.66533e-16 -1.11022e-16 -2.77556e-17
-4.3715e-16 -2.77556e-17 0

0 0 -2.77556e-17
0 0 -4.51028e-16
-2.77556e-17 -4.51028e-16 0

0 -5.55112e-17 -5.55112e-17
-5.55112e-17 2.22045e-16 2.15106e-16
-5.55112e-17 2.15106e-16 2.22045e-16

0 2.22045e-16 8.67362e-18
2.22045e-16 0 1.38778e-17
8.67362e-18 1.38778e-17 2.22045e-16

-3.33067e-16 -2.22045e-16 -6.93889e-18
-2.22045e-16 -2.22045e-16 -2.77556e-17
-6.93889e-18 -2.77556e-17 0

-4.44089e-16 -2.77556e-17 2.77556e-17
-2.77556e-17 8.88178e-16 -2.35922e-16
2.77556e-17 -2.35922e-16 2.22045e-16

-2.22045e-16 5.55112e-17 -4.51028e-16
5.55112e-17 0 -4.4062e-16
-4.51028e-16 -4.4062e-16 0

-1.11022e-15 2.77556e-16 -2.22045e-16
2.77556e-16 -1.11022e-16 2.08167e-17
-2.22045e-16 2.08167e-17 -1.11022e-16

-3.33067e-16 2.86229e-17 -2.19117e-16
2.86229e-17 0 -2.08167e-17
-2.19117e-16 -2.08167e-17 0

0 3.33067e-16 2.63678e-16
3.33067e-16 -4.44089e-16 4.71845e-16
2.63678e-16 4.71845e-16 0

2.22045e-16 6.59195e-17 4.42354e-16
6.59195e-17 0 -2.30718e-16
4.42354e-16 -2.30718e-16 2.22045e-16

-2.22045e-16 2.77556e-17 -1.73472e-18
2.77556e-17 0 4.38885e-16
-1.73472e-18 4.38885e-16 0

0 6.245e-17 -2.1684e-16
6.245e-17 0 -8.67362e-19
-2.1684e-16 -8.67362e-19 0

-1.11022e-16 -1.73472e-17 2.1684e-18
-1.73472e-17 0 -3.31332e-16
2.1684e-18 -3.31332e-16 0

-1.11022e-16 0 -2.1684e-16
0 0 0
-2.1684e-16 0 0

0 1.38778e-17 1.73472e-17
1.38778e-17 0 -8.89913e-16
1.73472e-17 -8.89913e-16 0

0 -5.55112e-17 5.01335e-16
-5.55112e-17 0 4.44089e-16
5.01335e-16 4.44089e-16 0

-2.22045e-16 -1.66533e-16 -2.22045e-16
-1.66533e-16 2.22045e-16 -3.46945e-17
-2.22045e-16 -3.46945e-17 0

0 -1.22125e-15 2.498e-16
-1.22125e-15 0 -1.38778e-17
2.498e-16 -1.38778e-17 0

2.22045e-16 5.6552e-16 3.88578e-16
5.6552e-16 2.22045e-16 -1.73472e-18
3.88578e-16 -1.73472e-18 2.22045e-16

4.44089e-16 0 2.77556e-17
0 4.44089e-16 6.93889e-18
2.77556e-17 6.93889e-18 2.22045e-16

0 2.46519e-32 4.3715e-16
2.46519e-32 2.22045e-16 -2.77556e-17
4.3715e-16 -2.77556e-17 0

-1.11022e-16 -5.55112e-17 1.80411e-16
-5.55112e-17 0 -4.30211e-16
1.80411e-16 -4.30211e-16 2.22045e-16

0 3.33067e-16 1.94289e-16
3.33067e-16 0 4.3715e-16
1.94289e-16 4.3715e-16 0

0 2.22045e-16 2.22045e-16
2.22045e-16 4.44089e-16 -2.08167e-17
2.22045e-16 -2.08167e-17 0

2.22045e-16 -2.77556e-17 2.22695e-16
-2.77556e-17 0 4.44089e-16
2.22695e-16 4.44089e-16 2.22045e-16

0 -3.88578e-16 0
-3.88578e-16 8.88178e-16 -4.16334e-17
0 -4.16334e-17 0

-2.22045e-16 6.93889e-18 -2.24213e-16
6.93889e-18 2.22045e-16 -3.00927e-35
-2.24213e-16 -3.00927e-35 0

-8.88178e-16 2.22045e-16 -1.38778e-17
2.22045e-16 0 -6.16298e-33
-1.38778e-17 -6.16298e-33 0

-2.22045e-16 1.04083e-16 -1.38778e-17
1.04083e-16 2.22045e-16 2.28983e-16
-1.38778e-17 2.28983e-16 0

0 5.55112e-17 0
5.55112e-17 -6.66134e-16 2.498e-16
0 2.498e-16 0

0 -4.16334e-16 -1.38778e-17
-4.16334e-16 0 1.73472e-18
-1.38778e-17 1.73472e-18 2.22045e-16

0 3.55618e-16 -4.51028e-16
3.55618e-16 4.44089e-16 -1.52656e-16
-4.51028e-16 -1.52656e-16 2.22045e-16

0 -1.38778e-17 -4.02456e-16
-1.38778e-17 2.22045e-16 2.15106e-16
-4.02456e-16 2.15106e-16 0

-1.33227e-15 4.44089e-16 -2.22045e-16
4.44089e-16 0 4.51028e-16
-2.22045e-16 4.51028e-16 0

0 0 -1.38778e-17
0 -1.11022e-16 0
-1.38778e-17 0 2.22045e-16

0 -4.44089e-16 2.498e-16
-4.44089e-16 0 4.33681e-16
2.498e-16 4.33681e-16 0

-2.22045e-16 -2.18575e-16 -4.44089e-16
-2.18575e-16 0 -2.77556e-17
-4.44089e-16 -2.77556e-17 0

0 4.44089e-16 -2.23779e-16
4.44089e-16 0 4.57967e-16
-2.23779e-16 4.57967e-16 0

4.44089e-16 -2.77556e-17 -5.55112e-17
-2.77556e-17 -1.11022e-16 -1.73472e-18
-5.55112e-17 -1.73472e-18 2.22045e-16

4.44089e-16 0 2.08167e-17
0 -2.22045e-16 -1.73472e-18
2.08167e-17 -1.73472e-18 0

0 -1.97215e-31 2.22045e-16
-1.97215e-31 2.22045e-16 -4.51028e-16
2.22045e-16 -4.51028e-16 0

2.22045e-16 0 -2.35922e-16
0 0 -2.77556e-17
-2.35922e-16 -2.77556e-17 0

6.66134e-16 4.44089e-16 -2.35922e-16
4.44089e-16 0 6.93889e-18
-2.35922e-16 6.93889e-18 0

0 1.73472e-16 1.38778e-17
1.73472e-16 0 2.98372e-16
1.38778e-17 2.98372e-16 2.22045e-16

-2.22045e-16 2.77556e-17 -6.93889e-18
2.77556e-17 -4.44089e-16 -1.11022e-16
-6.93889e-18 -1.11022e-16 2.22045e-16

-2.22045e-16 -1.11022e-16 2.22045e-16
-1.11022e-16 0 0
2.22045e-16 0 0

-2.22045e-16 5.18249e-17 9.54098e-18
5.18249e-17 -4.44089e-16 6.93889e-17
9.54098e-18 6.93889e-17 0

0 6.93889e-18 -2.23346e-16
6.93889e-18 0 4.16334e-17
-2.23346e-16 4.16334e-17 2.22045e-16

0 -4.44089e-16 -5.20417e-18
-4.44089e-16 4.44089e-16 1.38778e-17
-5.20417e-18 1.38778e-17 2.22045e-16

-1.11022e-16 4.85723e-17 1.73472e-17
4.85723e-17 0 -2.35922e-16
1.73472e-17 -2.35922e-16 0

0 -1.11022e-16 1.38778e-17
-1.11022e-16 -6.66134e-16 1.38778e-17
1.38778e-17 1.38778e-17 0

4.44089e-16 -5.55112e-17 2.08167e-16
-5.55112e-17 -2.22045e-16 -3.46945e-18
2.08167e-16 -3.46945e-18 0

-1.11022e-16 1.11022e-16 3.46945e-18
1.11022e-16 -4.44089e-16 4.71845e-16
3.46945e-18 4.71845e-16 0

0 4.33681e-17 4.44523e-16
4.33681e-17 -8.88178e-16 1.38778e-17
4.44523e-16 1.38778e-17 0

0 4.44089e-16 2.15106e-16
4.44089e-16 6.66134e-16 -1.38778e-17
2.15106e-16 -1.38778e-17 0

0 -1.11022e-16 -4.30211e-16
-1.11022e-16 0 1.0842e-16
-4.30211e-16 1.0842e-16 2.22045e-16

2.22045e-16 7.77156e-16 5.55112e-17
7.77156e-16 8.88178e-16 -5.27356e-16
5.55112e-17 -5.27356e-16 0

2.22045e-16 4.51028e-17 -1.04083e-17
4.51028e-17 8.88178e-16 4.78784e-16
-1.04083e-17 4.78784e-16 0

0 -4.44089e-16 4.44089e-16
-4.44089e-16 0 -1.38778e-17
4.44089e-16 -1.38778e-17 0

-1.11022e-16 6.93889e-18 -4.77049e-18
6.93889e-18 0 3.46945e-16
-4.77049e-18 3.46945e-16 0

-4.44089e-16 4.44089e-16 1.94289e-16
4.44089e-16 -6.66134e-16 -1.38778e-17
1.94289e-16 -1.38778e-17 0

0 -4.71845e-16 2.77556e-17
-4.71845e-16 2.22045e-16 -2.91434e-16
2.77556e-17 -2.91434e-16 0

0 3.46945e-18 3.03577e-18
3.46945e-18 0 -4.16334e-16
3.03577e-18 -4.16334e-16 0

0 0 1.38778e-17
0 0 4.61436e-16
1.38778e-17 4.61436e-16 2.22045e-16

2.22045e-16 1.11022e-16 -1.04083e-17
1.11022e-16 -4.44089e-16 4.57967e-16
-1.04083e-17 4.57967e-16 0

0 -2.42861e-17 -2.08167e-16
-2.42861e-17 0 -4.51028e-16
-2.08167e-16 -4.51028e-16 0

-1.11022e-16 -2.22045e-16 2.08167e-17
-2.22045e-16 -8.88178e-16 1.38778e-17
2.08167e-17 1.38778e-17 0

-2.22045e-16 1.66533e-16 4.16334e-16
1.66533e-16 -2.22045e-16 4.64906e-16
4.16334e-16 4.64906e-16 0

2.22045e-16 0 1.73472e-18
0 0 2.08167e-17
1.73472e-18 2.08167e-17 2.22045e-16

-1.44329e-15 -6.93889e-16 1.97215e-31
-6.93889e-16 -8.88178e-16 -2.77556e-17
1.97215e-31 -2.77556e-17 0

0 -1.36002e-15 7.77156e-16
-1.36002e-15 4.44089e-16 1.38778e-17
7.77156e-16 1.38778e-17 0

4.44089e-16 -3.1225e-17 0
-3.1225e-17 -4.44089e-16 1.94289e-16
0 1.94289e-16 0

0 1.07553e-16 2.77556e-17
1.07553e-16 2.22045e-16 -1.8735e-16
2.77556e-17 -1.8735e-16 0

0 2.77556e-17 4.16334e-17
2.77556e-17 0 -1.49186e-16
4.16334e-17 -1.49186e-16 0

-6.66134e-16 0 0
0 0 -8.67362e-18
0 -8.67362e-18 0

-3.55271e-15 0 -5.55112e-17
0 -8.88178e-16 -1.38778e-17
-5.55112e-17 -1.38778e-17 0

-2.22045e-15 -1.11022e-16 -1.08247e-15
-1.11022e-16 0 0
-1.08247e-15 0 2.22045e-16

8.88178e-16 4.4951e-16 4.71845e-16
4.4951e-16 0 2.23251e-16
4.71845e-16 2.23251e-16 0

0 -5.55112e-17 -1.73472e-18
-5.55112e-17 0 -4.44089e-16
-1.73472e-18 -4.44089e-16 0

0 2.15539e-16 2.1684e-18
2.15539e-16 0 1.38778e-17
2.1684e-18 1.38778e-17 0

0 0 1.38778e-17
0 0 -4.47559e-16
1.38778e-17 -4.47559e-16 2.22045e-16

0 -3.46945e-17 -4.23273e-16
-3.46945e-17 4.44089e-16 5.55112e-17
-4.23273e-16 5.55112e-17 0

0 0 2.22045e-16
0 0 6.93889e-18
2.22045e-16 6.93889e-18 0

0 3.46945e-18 2.498e-16
3.46945e-18 0 1.73472e-18
2.498e-16 1.73472e-18 0

2.22045e-16 0 -6.93889e-18
0 4.44089e-16 1.38778e-17
-6.93889e-18 1.38778e-17 0

4.44089e-16 1.11022e-16 -2.77556e-17
1.11022e-16 0 4.64906e-16
-2.77556e-17 4.64906e-16 2.22045e-16

0 -2.77556e-16 -4.45824e-16
-2.77556e-16 -2.22045e-16 4.3715e-16
-4.45824e-16 4.3715e-16 0

-4.44089e-16 2.22045e-16 -1.94289e-16
2.22045e-16 -1.11022e-16 -2.63678e-16
-1.94289e-16 -2.63678e-16 -1.11022e-16

2.22045e-16 -1.17961e-16 -1.04083e-17
-1.17961e-16 -4.44089e-16 -5.55112e-17
-1.04083e-17 -5.55112e-17 0

0 5.55112e-17 4.57967e-16
5.55112e-17 2.22045e-16 -3.88578e-16
4.57967e-16 -3.88578e-16 2.22045e-16

0 2.22045e-16 8.67362e-19
2.22045e-16 6.66134e-16 1.38778e-17
8.67362e-19 1.38778e-17 2.22045e-16

0 0 1.04083e-17
0 8.88178e-16 2.77556e-17
1.04083e-17 2.77556e-17 0

-1.11022e-16 -5.55112e-17 2.498e-16
-5.55112e-17 0 0
2.498e-16 0 -1.11022e-16

-1.11022e-16 -2.22045e-16 6.93889e-18
-2.22045e-16 -2.22045e-16 -4.16334e-17
6.93889e-18 -4.16334e-17 0

8.88178e-16 0 -2.01228e-16
0 -2.22045e-16 -2.08167e-17
-2.01228e-16 -2.08167e-17 2.22045e-16

-2.22045e-16 -2.11636e-16 -8.67362e-18
-2.11636e-16 -2.22045e-16 -1.73472e-17
-8.67362e-18 -1.73472e-17 0

0 -9.19403e-17 -4.3715e-16
-9.19403e-17 0 -1.17961e-16
-4.3715e-16 -1.17961e-16 2.22045e-16

0 -6.93889e-18 0
-6.93889e-18 0 1.38778e-17
0 1.38778e-17 0

0 -4.44089e-16 -2.498e-16
-4.44089e-16 -2.22045e-16 -4.51028e-16
-2.498e-16 -4.51028e-16 0

-7.77156e-16 -1.11022e-16 -3.1225e-16
-1.11022e-16 -2.22045e-16 -4.62223e-33
-3.1225e-16 -4.62223e-33 2.22045e-16

0 4.44089e-16 3.46945e-18
4.44089e-16 0 0
3.46945e-18 0 2.22045e-16

0 2.22045e-16 2.15106e-16
2.22045e-16 -2.22045e-16 -1.38778e-17
2.15106e-16 -1.38778e-17 0

0 -1.66533e-16 1.38778e-17
-1.66533e-16 -5.55112e-16 -3.26128e-16
1.38778e-17 -3.26128e-16 0

0 3.33067e-16 6.93889e-18
3.33067e-16 4.44089e-16 0
6.93889e-18 0 0

-1.11022e-16 -1.11022e-16 4.3715e-16
-1.11022e-16 -4.44089e-16 -6.93889e-18
4.3715e-16 -6.93889e-18 0

0 4.30211e-16 1.73472e-18
4.30211e-16 0 -8.32667e-17
1.73472e-18 -8.32667e-17 2.22045e-16

4.44089e-16 0 1.8735e-16
0 4.44089e-16 -3.46945e-17
1.8735e-16 -3.46945e-17 2.22045e-16

0 1.97215e-31 4.16334e-16
1.97215e-31 -1.11022e-16 2.11636e-16
4.16334e-16 2.11636e-16 0

0 -2.77556e-17 1.52656e-16
-2.77556e-17 0 -1.38778e-17
1.52656e-16 -1.38778e-17 0

0 -2.77556e-17 1.38778e-17
-2.77556e-17 -2.22045e-16 -4.52763e-16
1.38778e-17 -4.52763e-16 0

8.88178e-16 -3.33067e-16 3.05311e-16
-3.33067e-16 4.44089e-16 -4.16334e-17
3.05311e-16 -4.16334e-17 0

4.44089e-16 5.55112e-17 1.38778e-17
5.55112e-17 0 -2.08167e-16
1.38778e-17 -2.08167e-16 0

-6.66134e-16 7.77156e-16 2.35922e-16
7.77156e-16 0 4.16334e-17
2.35922e-16 4.16334e-17 0

0 -6.66134e-16 2.60209e-18
-6.66134e-16 0 4.71845e-16
2.60209e-18 4.71845e-16 0

-8.88178e-16 8.03177e-16 -2.77556e-17
8.03177e-16 0 -1.04083e-16
-2.77556e-17 -1.04083e-16 0

8.88178e-16 -2.77556e-17 2.35922e-16
-2.77556e-17 0 -1.38778e-17
2.35922e-16 -1.38778e-17 2.22045e-16

2.22045e-16 2.77556e-16 -2.35922e-16
2.77556e-16 0 -2.77556e-17
-2.35922e-16 -2.77556e-17 2.22045e-16

-4.44089e-16 3.88578e-16 -2.31112e-33
3.88578e-16 0 2.08167e-17
-2.31112e-33 2.08167e-17 0

0 5.55112e-17 3.46945e-18
5.55112e-17 0 -3.85186e-34
3.46945e-18 -3.85186e-34 0

-1.11022e-16 4.71845e-16 -1.73472e-18
4.71845e-16 -1.77636e-15 5.55112e-17
-1.73472e-18 5.55112e-17 0

-1.11022e-16 2.92742e-17 4.53691e-19
2.92742e-17 0 8.32667e-17
4.53691e-19 8.32667e-17 2.22045e-16

-8.88178e-16 8.88178e-16 -4.71845e-16
8.88178e-16 0 -4.93038e-32
-4.71845e-16 -4.93038e-32 0

-1.11022e-16 -1.35585e-31 2.18575e-16
-1.35585e-31 4.44089e-16 -4.33681e-16
2.18575e-16 -4.33681e-16 0

0 4.44089e-16 4.16334e-16
4.44089e-16 -2.22045e-16 2.08167e-17
4.16334e-16 2.08167e-17 0

0 -3.9443e-31 4.46691e-16
-3.9443e-31 -1.77636e-15 -4.996e-16
4.46691e-16 -4.996e-16 0

6.66134e-16 4.44089e-16 -2.498e-16
4.44089e-16 0 -2.77556e-17
-2.498e-16 -2.77556e-17 0

-1.11022e-16 1.80411e-16 1.0842e-16
1.80411e-16 -4.44089e-16 1.38778e-17
1.0842e-16 1.38778e-17 -2.22045e-16

-4.44089e-16 2.22045e-16 4.44089e-16
2.22045e-16 -4.44089e-16 8.32667e-17
4.44089e-16 8.32667e-17 0

0 5.55112e-16 -8.32667e-17
5.55112e-16 2.22045e-16 2.22045e-16
-8.32667e-17 2.22045e-16 0

2.22045e-16 -8.32667e-17 1.63064e-16
-8.32667e-17 -8.88178e-16 2.77556e-17
1.63064e-16 2.77556e-17 2.22045e-16

0 -8.32667e-17 -2.22045e-16
-8.32667e-17 4.44089e-16 -5.55112e-17
-2.22045e-16 -5.55112e-17 0

4.44089e-16 -1.11022e-16 3.08149e-33
-1.11022e-16 0 4.30211e-16
3.08149e-33 4.30211e-16 0

0 -2.22045e-16 4.44089e-16
-2.22045e-16 -1.11022e-16 2.18575e-16
4.44089e-16 2.18575e-16 0

0 5.55112e-17 -2.63678e-16
5.55112e-17 0 -1.38778e-17
-2.63678e-16 -1.38778e-17 2.22045e-16

0 0 -4.44089e-16
0 -4.44089e-16 -2.77556e-17
-4.44089e-16 -2.77556e-17 0

0 3.88578e-16 0
3.88578e-16 -6.66134e-16 4.57967e-16
0 4.57967e-16 0

-4.44089e-16 1.29671e-16 3.40006e-16
1.29671e-16 0 6.50521e-19
3.40006e-16 6.50521e-19 0

0 -6.66134e-16 8.32667e-17
-6.66134e-16 4.44089e-16 -1.38778e-17
8.32667e-17 -1.38778e-17 0

-4.44089e-16 0 2.22045e-16
0 0 0
2.22045e-16 0 0

-4.44089e-16 -4.44089e-16 0
-4.44089e-16 0 0
0 0 0

8.88178e-16 4.16334e-16 -2.77556e-16
4.16334e-16 0 -4.47559e-16
-2.77556e-16 -4.47559e-16 2.22045e-16

4.44089e-16 0 0
0 0 0
0 0 0

2.22045e-16 0 -6.93889e-18
0 0 1.38778e-17
-6.93889e-18 1.38778e-17 2.22045e-16

-6.66134e-16 -5.55112e-17 -2.63678e-16
-5.55112e-17 0 6.93889e-18
-2.63678e-16 6.93889e-18 0

0 8.32667e-16 -2.18575e-16
8.32667e-16 8.88178e-16 4.996e-16
-2.18575e-16 4.996e-16 0

0 0 -4.44089e-16
0 0 2.77556e-17
-4.44089e-16 2.77556e-17 0

1.77636e-15 4.44089e-16 2.46519e-32
4.44089e-16 0 2.77556e-17
2.46519e-32 2.77556e-17 0

0 -2.22045e-16 2.08167e-16
-2.22045e-16 0 -4.16334e-17
2.08167e-16 -4.16334e-17 0

4.44089e-16 4.44089e-16 -8.67362e-18
4.44089e-16 0 -4.16334e-17
-8.67362e-18 -4.16334e-17 2.22045e-16

0 1.11022e-16 4.02456e-16
1.11022e-16 6.66134e-16 -4.85723e-16
4.02456e-16 -4.85723e-16 0

-8.88178e-16 0 -4.71845e-16
0 0 -2.77556e-17
-4.71845e-16 -2.77556e-17 2.22045e-16

0 -2.77556e-17 0
-2.77556e-17 -4.44089e-16 2.27249e-16
0 2.27249e-16 0

0 -8.32667e-17 2.77556e-17
-8.32667e-17 0 -2.04697e-16
2.77556e-17 -2.04697e-16 2.22045e-16

0 -2.77556e-17 -1.10589e-16
-2.77556e-17 2.22045e-16 3.46945e-18
-1.10589e-16 3.46945e-18 2.22045e-16

0 0 -1.73472e-18
0 -2.22045e-16 -2.25514e-16
-1.73472e-18 -2.25514e-16 0

0 5.55112e-17 3.46945e-18
5.55112e-17 -1.11022e-16 -3.46945e-18
3.46945e-18 -3.46945e-18 0

0 -4.44089e-16 -4.57967e-16
-4.44089e-16 0 8.32667e-17
-4.57967e-16 8.32667e-17 0

0 0 -2.28983e-16
0 -2.22045e-16 3.46945e-18
-2.28983e-16 3.46945e-18 0

0 2.77556e-17 -4.48426e-16
2.77556e-17 4.44089e-16 -4.45824e-16
-4.48426e-16 -4.45824e-16 2.22045e-16

0 2.81893e-17 6.93889e-18
2.81893e-17 4.44089e-16 1.92554e-16
6.93889e-18 1.92554e-16 2.22045e-16

0 8.32667e-17 4.49293e-16
8.32667e-17 0 -4.38885e-16
4.49293e-16 -4.38885e-16 0

2.22045e-16 -1.11022e-16 -5.20417e-18
-1.11022e-16 -2.22045e-16 2.77556e-17
-5.20417e-18 2.77556e-17 0

-2.22045e-16 2.77556e-16 5.55112e-17
2.77556e-16 0 1.38778e-17
5.55112e-17 1.38778e-17 0

0 2.77556e-17 0
2.77556e-17 0 0
0 0 0

0 4.23273e-16 6.93889e-18
4.23273e-16 0 -4.02456e-16
6.93889e-18 -4.02456e-16 0

0 -2.77556e-16 -1.38778e-17
-2.77556e-16 0 4.31946e-16
-1.38778e-17 4.31946e-16 2.22045e-16

0 1.38778e-17 -1.73472e-18
1.38778e-17 0 -1.73472e-18
-1.73472e-18 -1.73472e-18 0

-2.22045e-16 -1.38778e-16 -3.08149e-33
-1.38778e-16 0 1.38778e-17
-3.08149e-33 1.38778e-17 0

0 3.9443e-31 -4.45824e-16
3.9443e-31 0 -4.51028e-16
-4.45824e-16 -4.51028e-16 0

0 -2.08167e-16 -4.33681e-19
-2.08167e-16 -2.22045e-16 2.28983e-16
-4.33681e-19 2.28983e-16 0

-1.11022e-16 6.93889e-16 2.22045e-16
6.93889e-16 0 5.55112e-17
2.22045e-16 5.55112e-17 0

-1.11022e-16 5.55112e-17 0
5.55112e-17 -1.11022e-16 0
0 0 0

0 -2.08167e-17 -8.67362e-19
-2.08167e-17 -1.11022e-16 3.26128e-16
-8.67362e-19 3.26128e-16 0

4.44089e-16 9.34446e-18 -2.22045e-16
9.34446e-18 0 -4.00412e-18
-2.22045e-16 -4.00412e-18 4.44089e-16

-8.88178e-16 1.11022e-16 4.16334e-17
1.11022e-16 -8.88178e-16 0
4.16334e-17 0 0

-2.22045e-16 8.58688e-17 -3.46945e-18
8.58688e-17 2.22045e-16 -3.60822e-16
-3.46945e-18 -3.60822e-16 0

-1.11022e-16 0 -1.04083e-17
0 0 3.46945e-18
-1.04083e-17 3.46945e-18 0

4.44089e-16 -4.71845e-16 -3.08149e-33
-4.71845e-16 0 -4.16334e-17
-3.08149e-33 -4.16334e-17 0

0 -1.66533e-16 -6.93889e-18
-1.66533e-16 0 -7.19043e-16
-6.93889e-18 -7.19043e-16 0

6.66134e-16 2.22045e-16 5.55112e-17
2.22045e-16 0 -4.64906e-16
5.55112e-17 -4.64906e-16 2.22045e-16

4.44089e-16 9.86076e-32 -4.23273e-16
9.86076e-32 6.66134e-16 -1.249e-16
-4.23273e-16 -1.249e-16 0

2.22045e-16 -5.55112e-17 3.46945e-18
-5.55112e-17 2.22045e-16 -4.47559e-16
3.46945e-18 -4.47559e-16 2.22045e-16

-3.33067e-16 1.66533e-16 8.67362e-19
1.66533e-16 -2.22045e-16 -6.93889e-18
8.67362e-19 -6.93889e-18 0

-2.22045e-16 0 -4.3715e-16
0 0 0
-4.3715e-16 0 -1.11022e-16

0 -2.77556e-17 8.88178e-16
-2.77556e-17 -3.33067e-16 0
8.88178e-16 0 2.22045e-16

0 -5.55112e-17 -2.77556e-17
-5.55112e-17 0 1.11022e-16
-2.77556e-17 1.11022e-16 0

-1.11022e-16 3.88578e-16 3.88578e-16
3.88578e-16 0 -4.30211e-16
3.88578e-16 -4.30211e-16 2.22045e-16

2.22045e-16 -2.82729e-18 9.89811e-19
-2.82729e-18 4.44089e-16 2.77556e-16
9.89811e-19 2.77556e-16 4.44089e-16

8.88178e-16 1.11022e-16 -7.21645e-16
1.11022e-16 0 0
-7.21645e-16 0 0

0 1.11022e-16 -3.46945e-18
1.11022e-16 4.44089e-16 -2.77556e-17
-3.46945e-18 -2.77556e-17 2.22045e-16

0 -4.44089e-16 -8.67362e-19
-4.44089e-16 0 -9.15934e-16
-8.67362e-19 -9.15934e-16 2.22045e-16

-8.88178e-16 -4.44089e-16 -8.32667e-17
-4.44089e-16 0 -4.16334e-17
-8.32667e-17 -4.16334e-17 0

0 -2.22045e-16 -1.11022e-16
-2.22045e-16 2.22045e-16 -2.35922e-16
-1.11022e-16 -2.35922e-16 0

-1.11022e-16 -1.33416e-15 1.20665e-18
-1.33416e-15 0 -8.60423e-16
1.20665e-18 -8.60423e-16 0

2.22045e-16 0 0
0 6.66134e-16 4.54498e-16
0 4.54498e-16 2.22045e-16

0 -1.11022e-16 2.77556e-17
-1.11022e-16 -1.11022e-16 -2.08167e-16
2.77556e-17 -2.08167e-16 2.22045e-16

0 1.11022e-16 -1.38778e-17
1.11022e-16 8.88178e-16 -2.91434e-16
-1.38778e-17 -2.91434e-16 0

-2.22045e-16 -3.33067e-16 -3.05311e-16
-3.33067e-16 -8.88178e-16 4.57967e-16
-3.05311e-16 4.57967e-16 0

-6.66134e-16 1.11022e-16 2.77556e-16
1.11022e-16 0 -4.33681e-16
2.77556e-16 -4.33681e-16 2.22045e-16

-2.22045e-16 0 2.60209e-18
0 -3.10862e-15 -2.22045e-16
2.60209e-18 -2.22045e-16 0

2.66454e-15 -3.9443e-31 -3.60822e-16
-3.9443e-31 8.88178e-16 4.57967e-16
-3.60822e-16 4.57967e-16 0

0 -1.97215e-31 -3.33067e-16
-1.97215e-31 0 2.63678e-16
-3.33067e-16 2.63678e-16 2.22045e-16

-3.33067e-16 0 -1.38778e-17
0 0 -8.82974e-16
-1.38778e-17 -8.82974e-16 0

0 -2.22045e-16 -4.44089e-16
-2.22045e-16 -2.22045e-16 4.44089e-16
-4.44089e-16 4.44089e-16 0

0 -3.9443e-31 -2.22045e-16
-3.9443e-31 2.22045e-16 8.79505e-16
-2.22045e-16 8.79505e-16 0

0 8.32667e-17 -8.84709e-16
8.32667e-17 0 -7.77156e-16
-8.84709e-16 -7.77156e-16 0

0 -8.32667e-17 4.47559e-16
-8.32667e-17 0 6.93889e-18
4.47559e-16 6.93889e-18 0

-2.22045e-16 -2.95823e-31 -4.4062e-16
-2.95823e-31 0 3.33067e-16
-4.4062e-16 3.33067e-16 0

-1.11022e-16 -8.60423e-16 2.22045e-16
-8.60423e-16 0 2.77556e-17
2.22045e-16 2.77556e-17 0

0 -3.9443e-31 -4.44089e-16
-3.9443e-31 0 4.16334e-16
-4.44089e-16 4.16334e-16 0

-1.77636e-15 4.44089e-16 2.22045e-16
4.44089e-16 0 1.38778e-17
2.22045e-16 1.38778e-17 0

1.77636e-15 -1.11022e-16 4.16334e-17
-1.11022e-16 8.88178e-16 -1.84889e-32
4.16334e-17 -1.84889e-32 0

1.77636e-15 0 2.77556e-17
0 0 4.16334e-17
2.77556e-17 4.16334e-17 0

0 1.11022e-16 -6.16298e-33
1.11022e-16 0 2.35922e-16
-6.16298e-33 2.35922e-16 0

-1.77636e-15 8.88178e-16 -9.71445e-16
8.88178e-16 8.88178e-16 -8.60423e-16
-9.71445e-16 -8.60423e-16 0

0 4.44089e-16 8.60423e-16
4.44089e-16 8.88178e-16 1.38778e-17
8.60423e-16 1.38778e-17 0

4.44089e-16 0 1.11022e-16
0 -2.22045e-16 -3.46945e-17
1.11022e-16 -3.46945e-17 0

0 -2.22045e-16 3.60822e-16
-2.22045e-16 0 0
3.60822e-16 0 0

8.88178e-16 -8.88178e-16 -8.32667e-17
-8.88178e-16 0 -1.38778e-17
-8.32667e-17 -1.38778e-17 -1.11022e-16

0 8.88178e-16 1.7486e-15
8.88178e-16 3.55271e-15 -5.55112e-17
1.7486e-15 -5.55112e-17 0

-3.55271e-15 2.22045e-16 5.55112e-17
2.22045e-16 -1.77636e-15 -4.44089e-16
5.55112e-17 -4.44089e-16 0

-8.88178e-16 0 -8.32667e-17
0 8.88178e-16 0
-8.32667e-17 0 2.22045e-16

SCALARS pressure float
LOOKUP_TABLE default
-0
-0
-0
-0
-0
-0
-0
-0
-0
-0
-0
-0
-0
-0
-0
-0
-0
-0
-0
-0
-0
-0
-0
-0
-0
-0
-0
-0
-0
-0
-0
-0
-0
-0
-0
-0
-0
-0
-0
-0
-0
-0
-0
-0
-0
-0
-0
-0
-0
-0
-0
-0
-0
-0
-0
-0
-0
-0
-0
-0
-0
-0
-0
-0
-0
-0
-0
-0
-0
-0
-0
-0
-0
-0
-0
-0
-0
-0
-0
-0
-0
-0
-0
-0
-0
-0
-0
-0
-0
-0
-0
-0
-0
-0
-0
-0
-0
-0
-0
-0
-0
-0
-0
-0
-0
-0
-0
-0
-0
-0
-0
-0
-0
-0
-0
-0
-0
-0
-0
-0
-0
-0
-0
-0
-0
-0
-0
-0
-0
-0
-0
-0
-0
-0
-0
-0
-0
-0
-0
-0
-0
-0
-0
-0
-0
-0
-0
-0
-0
-0
-0
-0
-0
-0
-0
-0
-0
-0
-0
-0
-0
-0
-0
-0
-0
-0
-0
-0
-0
-0
-0
-0
-0
-0
-0
-0
-0
-0
-0
-0
-0
-0
-0
-0
-0
-0
-0
-0
-0
-0
-0
-0
-0
-0
-0
-0
-0
-0
-0
-0
-0
-0
-0
-0
-0
-0
-0
-0
-0
-0
-0
-0
-0
-0
-0
-0
-0
-0
-0
-0
-0
-0
-0
-0
-0
-0
-0
-0
-0
-0
-0
-0
-0
-0
-0
-0
-0
-0
-0
-0
-0
-0
-0
-0
-0
-0
-0
-0
-0
-0
-0
-0
-0
-0
-0
-0
-0
-0
-0
-0
-0
-0
-0
-0
-0
-0
-0
-0
-0
-0
-0
-0
-0
-0
-0
-0
-0
-0
-0
-0
-0
-0
-0
-0
-0
-0
-0
-0
-0
-0
-0
-0
-0
-0
-0
-0
-0
-0
-0
-0
-0
-0
-0
-0
-0
-0
-0
-0
-0
-0
-0
-0
-0
-0
-0
-0
-0
-0
-0
-0
-0
-0
-0
-0
-0
-0
-0
-0
-0
-0
-0
-0
-0
-0
-0
-0
-0
-0
-0
-0
-0
-0
-0
-0
-0
-0
-0
-0
-0
-0
-0
-0
-0
-0
-0
-0
-0
-0
-0
-0
-0
-0
-0
-0
-0
-0
-0
-0
-0
-0
-0
-0
-0
-0
-0
-0
-0
-0
-0
-0
-0
-0
-0
-0
-0
-0
-0
-0
-0
-0
-0
-0
-0
-0
-0
-0
-0
-0
-0
-0
-0
-0
-0
-0
-0
-0
-0
-0
-0
-0
-0
-0
-0
-0
-0
-0
-0
-0
-0
-0
-0
-0
-0
-0
-0
-0
-0
-0
-0
-0
-0
-0
-0
-0
-0
-0
-0
-0
-0
-0
-0
-0
-0
-0
-0
-0
-0
-0
-0
-0
-0
-0
-0
-0
-0
-0
-0
-0
-0
-0
-0
-0
-0
-0
-0
-0
-0
-0
-0
-0
-0
-0
-0
-0
-0
-0
-0
-0
-0
-0
-0
-0
-0
-0
-0
-0
-0
-0
-0
-0
-0
-0
-0
-0
-0
-0
-0
-0
-0
-0
-0
-0
-0
-0
-0
-0
-0
-0
-0
-0
-0
-0
-0
-0
-0
-0
-0
-0
-0
-0
-0
-0
-0
-0
-0
-0
-0
-0
-0
-0
-0
-0
-0
-0
-0
-0
-0
-0
-0
-0
-0
-0
-0
-0
-0
-0
-0
-0
-0
-0
-0
-0
-0
-0
-0
-0
-0
-0
-0
-0
-0
-0
-0
