# vtk DataFile Version 3.0
vtk output at time 140
ASCII
DATASET UNSTRUCTURED_GRID
POINTS 626 float
-3.68058e-05 0.000978749 0 3.68058e-05 0.000978749 0 -0.000829194 0.00052125 0 
-0.0008235 0.0005 0 -0.000866 0.0004575 0 -0.000866 -0.0004575 0 
-0.0008235 -0.0005 0 -0.000829194 -0.00052125 0 -3.68058e-05 -0.000978749 0 
3.68058e-05 -0.000978749 0 0.000829194 -0.00052125 0 0.000866 -0.0004575 0 
0.000866 0.0004575 0 0.000829194 0.00052125 0 8.5e-05 0 0 
-3.68058e-05 0.000978749 -0.001 3.68058e-05 0.000978749 -0.001 -0.000829194 0.00052125 -0.001 
-0.0008235 0.0005 -0.001 -0.000866 0.0004575 -0.001 -0.000866 -0.0004575 -0.001 
-0.0008235 -0.0005 -0.001 -0.000829194 -0.00052125 -0.001 -3.68058e-05 -0.000978749 -0.001 
3.68058e-05 -0.000978749 -0.001 0.000829194 -0.00052125 -0.001 0.000866 -0.0004575 -0.001 
0.000866 0.0004575 -0.001 0.000829194 0.00052125 -0.001 8.5e-05 0 -0.001 
8.46223e-17 0.0009575 0 -0.000715996 0.000586607 0 -0.000602797 0.000651965 0 
-0.000489599 0.000717321 0 -0.000376401 0.000782678 0 -0.000263202 0.000848036 0 
-0.000150004 0.000913393 0 -0.000835948 0.000469948 0 -0.000866 -0.000326786 0 
-0.000866 -0.000196071 0 -0.000866 -6.53571e-05 0 -0.000866 6.53571e-05 0 
-0.000866 0.000196071 0 -0.000866 0.000326786 0 -0.000835948 -0.000469948 0 
-0.000150004 -0.000913393 0 -0.000263202 -0.000848036 0 -0.000376401 -0.000782678 0 
-0.000489599 -0.000717321 0 -0.000602797 -0.000651965 0 -0.000715996 -0.000586607 0 
8.47648e-17 -0.0009575 0 0.000715996 -0.000586607 0 0.000602797 -0.000651965 0 
0.000489599 -0.000717321 0 0.000376401 -0.000782678 0 0.000263202 -0.000848036 0 
0.000150004 -0.000913393 0 0.000829194 -0.00047875 0 0.000866 0.000326786 0 
0.000866 0.000196071 0 0.000866 6.53571e-05 0 0.000866 -6.53571e-05 0 
0.000866 -0.000196071 0 0.000866 -0.000326786 0 0.000829194 0.00047875 0 
0.000150004 0.000913393 0 0.000263202 0.000848036 0 0.000376401 0.000782678 0 
0.000489599 0.000717321 0 0.000602797 0.000651965 0 0.000715996 0.000586607 0 
5.29966e-05 6.64557e-05 0 -1.89143e-05 8.28689e-05 0 -7.65824e-05 3.68801e-05 0 
-7.65824e-05 -3.68801e-05 0 -1.89143e-05 -8.28689e-05 0 5.29966e-05 -6.64557e-05 0 
8.46223e-17 0.0009575 -0.001 -0.000715996 0.000586607 -0.001 -0.000602797 0.000651965 -0.001 
-0.000489599 0.000717321 -0.001 -0.000376401 0.000782678 -0.001 -0.000263202 0.000848036 -0.001 
-0.000150004 0.000913393 -0.001 -0.000835948 0.000469948 -0.001 -0.000866 -0.000326786 -0.001 
-0.000866 -0.000196071 -0.001 -0.000866 -6.53571e-05 -0.001 -0.000866 6.53571e-05 -0.001 
-0.000866 0.000196071 -0.001 -0.000866 0.000326786 -0.001 -0.000835948 -0.000469948 -0.001 
-0.000150004 -0.000913393 -0.001 -0.000263202 -0.000848036 -0.001 -0.000376401 -0.000782678 -0.001 
-0.000489599 -0.000717321 -0.001 -0.000602797 -0.000651965 -0.001 -0.000715996 -0.000586607 -0.001 
8.47648e-17 -0.0009575 -0.001 0.000715996 -0.000586607 -0.001 0.000602797 -0.000651965 -0.001 
0.000489599 -0.000717321 -0.001 0.000376401 -0.000782678 -0.001 0.000263202 -0.000848036 -0.001 
0.000150004 -0.000913393 -0.001 0.000829194 -0.00047875 -0.001 0.000866 0.000326786 -0.001 
0.000866 0.000196071 -0.001 0.000866 6.53571e-05 -0.001 0.000866 -6.53571e-05 -0.001 
0.000866 -0.000196071 -0.001 0.000866 -0.000326786 -0.001 0.000829194 0.00047875 -0.001 
0.000150004 0.000913393 -0.001 0.000263202 0.000848036 -0.001 0.000376401 0.000782678 -0.001 
0.000489599 0.000717321 -0.001 0.000602797 0.000651965 -0.001 0.000715996 0.000586607 -0.001 
5.29966e-05 6.64557e-05 -0.001 -1.89143e-05 8.28689e-05 -0.001 -7.65824e-05 3.68801e-05 -0.001 
-7.65824e-05 -3.68801e-05 -0.001 -1.89143e-05 -8.28689e-05 -0.001 5.29966e-05 -6.64557e-05 -0.001 
0.000131234 6.38474e-05 0 0.00012964 -6.2443e-05 0 3.13827e-05 0.0001394 0 
3.12554e-05 -0.000136939 0 -0.000140461 8.25467e-19 0 -8.90565e-05 -0.000102707 0 
-9.04142e-05 0.000102872 0 -0.000765769 -0.00025965 0 -0.000756873 0.000262774 0 
-0.00015609 0.000787505 0 -0.000155807 -0.00079355 0 0.000605069 0.000528035 0 
0.000608694 -0.00052497 0 0.000744069 0.000116929 0 -0.000494418 0.000596218 0 
-0.000483866 -0.000584648 0 0.000269496 0.000702219 0 0.000263201 -0.000717324 0 
0.000754429 -0.000127825 0 -0.000748858 5.84659e-07 0 -0.000747838 0.000373886 0 
-0.0006542 0.000324842 0 -0.000645137 0.000210123 0 -0.000550884 0.000274171 0 
-0.000538857 0.000163195 0 -0.00045062 0.000224461 0 -0.000438393 0.000123907 0 
-0.000354088 0.000181668 0 -0.000363908 0.000282171 0 -0.000270361 0.000239477 0 
-0.000279138 0.000337653 0 -0.000188888 0.000294791 0 -0.000196448 0.000393271 0 
-0.000104767 0.000348259 0 -0.000113332 0.000449012 0 -2.01066e-05 0.000403223 0 
-2.89189e-05 0.000507105 0 6.9524e-05 0.000461596 0 -0.000213644 0.000490203 0 
7.33757e-05 0.000357726 0 0.000163331 0.00041299 0 0.000163359 0.000313022 0 
0.000248077 0.000366368 0 0.000250914 0.000265758 0 0.000335709 0.000322266 0 
0.000340555 0.000218148 0 0.000427299 0.000276717 0 0.000431508 0.000173093 0 
0.000328731 0.000425633 0 0.00034586 0.000114823 0 0.000435362 7.05241e-05 0 
0.000350892 1.5455e-05 0 0.000441547 -3.11896e-05 0 0.000353547 -8.47783e-05 0 
0.000445767 -0.000132964 0 0.000356135 -0.000186358 0 0.000449094 -0.000234674 0 
0.000359978 -0.000287876 0 0.00026856 -0.000240545 0 0.000271895 -0.000341045 0 
0.000181792 -0.00029305 0 0.00018533 -0.000392851 0 9.75701e-05 -0.00034483 0 
9.98764e-05 -0.000444884 0 8.75116e-06 -0.000396343 0 1.20916e-05 -0.000500496 0 
-7.83929e-05 -0.000449843 0 -8.1471e-05 -0.000347249 0 -0.000171566 -0.000403733 0 
-0.000169889 -0.000298891 0 -0.000259867 -0.000354132 0 -0.000257696 -0.000249137 0 
-0.00034313 -0.000299896 0 -0.000344514 -0.000199127 0 -0.000434309 -0.000250039 0 
-0.000169832 -0.000505815 0 -0.000435227 -0.000146227 0 0.000280331 -0.000442424 0 
-0.000340889 8.76793e-05 0 -0.000515252 4.06198e-05 0 6.50491e-05 0.000568253 0 
0.00053278 1.74743e-05 0 0.000522071 0.000229831 0 -0.00037162 0.000391659 0 
-0.000255272 -0.000150439 0 -0.000442893 -0.000350705 0 0.000450067 -0.000332559 0 
0.000545175 -0.000276306 0 -0.000527797 -0.000197598 0 0.000105306 -0.000551033 0 
1.45836e-05 -0.000609147 0 0.00017145 0.000214453 0 0.000515525 0.000341711 0 
0.000636086 0.000290368 0 -0.000558657 0.000404468 0 -4.01232e-05 0.000616718 0 
6.60192e-05 0.000696422 0 -0.000101806 0.0002546 0 0.000271142 -3.88908e-05 0 
0.000179455 -0.00018534 0 -8.79553e-05 -0.000254307 0 -0.000749267 -0.000373451 0 
-0.000655941 -0.000323397 0 0.000709746 0.000466718 0 0.000698426 -0.000473086 0 
-5.25801e-05 -0.00084886 0 -4.93005e-05 0.000848038 0 0.000617396 -0.000413362 0 
0.000702056 -0.000369817 0 0.000131459 -0.000679171 0 2.48171e-05 -0.000715924 0 
-0.000664217 -0.00042729 0 -0.000528828 -8.80444e-05 0 -0.000611101 -0.000136672 0 
-0.000426972 -4.45841e-05 0 0.000800669 0.000378216 0 0.000821144 -0.000415062 0 
7.2799e-05 0.00088254 0 6.81831e-05 -0.00087503 0 0.000104963 -0.000788946 0 
-7.40696e-05 -0.000660054 0 0.000126061 0.000809943 0 0.000764361 0.000295682 0 
0.000166862 0.000630623 0 0.000516462 -0.00046707 0 -0.000563585 -0.000389606 0 
-0.000622598 -1.40238e-05 0 0.000629891 0.000171529 0 2.5614e-06 -0.000299794 0 
8.6901e-05 -0.00024329 0 0.000272045 -0.000136982 0 -0.00075148 0.000138321 0 
0.000209366 -0.000599589 0 0.000324913 -0.000630055 0 0.000614044 0.00041245 0 
0.00049651 -0.000573327 0 0.000394822 -0.000507321 0 -0.000173714 -0.000206698 0 
0.000264897 5.63722e-05 0 0.000247997 0.000152811 0 -4.63327e-05 -0.000920208 0 
9.18688e-05 0.000258626 0 -5.54111e-06 0.000290558 0 -0.000184219 0.000201484 0 
-0.000263559 0.000142267 0 -0.000256427 5.13624e-05 0 -0.000336894 -2.06179e-06 0 
-0.000228499 -4.2388e-05 0 -0.00017589 0.000106626 0 -0.000769947 -0.000133367 0 
0.000767591 -0.000500293 0 -5.05874e-05 0.000737978 0 0.000754456 -3.51771e-06 0 
0.00064691 -6.15298e-05 0 0.000630483 -0.00018134 0 0.000749187 -0.000265543 0 
-0.000760805 -0.000462521 0 0.000638155 6.09315e-05 0 -4.46661e-05 0.000922995 0 
-2.37945e-05 0.000207237 0 0.000776979 0.000500181 0 -0.000605691 0.000527596 0 
-0.000377914 -0.000653727 0 -0.000372325 -0.000526022 0 -0.000275829 -0.000589621 0 
-0.000254285 -0.000710579 0 -0.000379307 0.000656222 0 -0.000379818 0.00052718 0 
-0.000266817 0.000721555 0 -0.000150544 0.000668174 0 0.000381963 0.00065079 0 
0.000493113 0.000590432 0 0.000505439 0.000463708 0 -0.000269094 0.000596608 0 
0.000385815 0.000532045 0 0.000283599 0.0005899 0 -0.000176405 -0.000108505 0 
-0.000278769 -0.000475415 0 0.000185395 2.33014e-06 0 0.000186773 0.000517571 0 
0.000540032 -8.68444e-05 0 -0.000600694 -0.000514877 0 -0.00063703 8.98033e-05 0 
-0.000459677 0.000335729 0 -0.000338836 -0.000100751 0 -0.000457327 0.000432721 0 
-8.72007e-06 -0.000210238 0 0.000156073 0.000129496 0 -7.70692e-05 -0.000555049 0 
0.00036091 -0.000389728 0 0.000531628 0.000120564 0 -0.000285451 0.000435562 0 
0.000192719 -0.000494604 0 0.00041642 0.00039368 0 -0.000135943 0.000554637 0 
-0.000170665 -0.000610079 0 -0.000666304 0.000434981 0 -0.000758736 0.000479231 0 
-0.000470189 -0.000458901 0 0.000203433 -8.59809e-05 0 0.000101846 0.000170114 0 
-0.00035513 -0.00040726 0 0.000100184 -0.000165831 0 2.96286e-05 0.00081537 0 
0.000720946 0.000381836 0 -0.000539809 -0.000292001 0 0.00052211 -0.000182426 0 
-6.41339e-05 -0.000753908 0 0.000638039 -0.000299861 0 -0.000605136 -0.000230182 0 
-3.41638e-05 -0.000145561 0 -0.000104037 0.000172396 0 -0.000808575 -0.00042774 0 
-0.000807207 -0.000465052 0 -0.00080817 0.000429771 0 -0.000806589 0.000469738 0 
-9.50634e-05 -0.000178909 0 0.000247777 0.000445058 0 1.48293e-05 -0.000814201 0 
-4.11555e-05 0.000140955 0 0.000276104 -0.000536845 0 0.000765969 -0.000436638 0 
0.000780871 -0.000362769 0 0.000424176 -0.000642018 0 0.00053413 -0.000368009 0 
-0.000416333 4.17911e-05 0 -0.000133891 -6.23822e-05 0 4.2574e-05 0.000206312 0 
0.000141163 -0.000121542 0 0.000707423 0.000212137 0 0.000172327 0.000723882 0 
7.72652e-06 -0.00090254 0 -0.000134435 5.66935e-05 0 -0.000188826 3.70894e-05 0 
0.000197119 8.09714e-05 0 1.27801e-05 0.000917296 0 0.000800767 0.00044758 0 
-0.000686682 0.000507104 0 9.35831e-05 0.000110457 0 -0.000696793 -0.000509595 0 
-0.00068446 -8.52012e-05 0 -0.000691033 -0.000201242 0 5.24052e-05 -0.000189075 0 
-0.000151818 -0.000701092 0 -0.000296988 0.000518087 0 9.31023e-05 -0.000108117 0 
0.00044261 -0.000416726 0 0.000197044 -0.000784423 0 -0.000516861 0.000504567 0 
0.000298997 0.000502377 0 0.000131234 6.38474e-05 -0.001 0.00012964 -6.2443e-05 -0.001 
3.13827e-05 0.0001394 -0.001 3.12554e-05 -0.000136939 -0.001 -0.000140461 8.25467e-19 -0.001 
-8.90565e-05 -0.000102707 -0.001 -9.04142e-05 0.000102872 -0.001 -0.000765769 -0.00025965 -0.001 
-0.000756873 0.000262774 -0.001 -0.00015609 0.000787505 -0.001 -0.000155807 -0.00079355 -0.001 
0.000605069 0.000528035 -0.001 0.000608694 -0.00052497 -0.001 0.000744069 0.000116929 -0.001 
-0.000494418 0.000596218 -0.001 -0.000483866 -0.000584648 -0.001 0.000269496 0.000702219 -0.001 
0.000263201 -0.000717324 -0.001 0.000754429 -0.000127825 -0.001 -0.000748858 5.84659e-07 -0.001 
-0.000747838 0.000373886 -0.001 -0.0006542 0.000324842 -0.001 -0.000645137 0.000210123 -0.001 
-0.000550884 0.000274171 -0.001 -0.000538857 0.000163195 -0.001 -0.00045062 0.000224461 -0.001 
-0.000438393 0.000123907 -0.001 -0.000354088 0.000181668 -0.001 -0.000363908 0.000282171 -0.001 
-0.000270361 0.000239477 -0.001 -0.000279138 0.000337653 -0.001 -0.000188888 0.000294791 -0.001 
-0.000196448 0.000393271 -0.001 -0.000104767 0.000348259 -0.001 -0.000113332 0.000449012 -0.001 
-2.01066e-05 0.000403223 -0.001 -2.89189e-05 0.000507105 -0.001 6.9524e-05 0.000461596 -0.001 
-0.000213644 0.000490203 -0.001 7.33757e-05 0.000357726 -0.001 0.000163331 0.00041299 -0.001 
0.000163359 0.000313022 -0.001 0.000248077 0.000366368 -0.001 0.000250914 0.000265758 -0.001 
0.000335709 0.000322266 -0.001 0.000340555 0.000218148 -0.001 0.000427299 0.000276717 -0.001 
0.000431508 0.000173093 -0.001 0.000328731 0.000425633 -0.001 0.00034586 0.000114823 -0.001 
0.000435362 7.05241e-05 -0.001 0.000350892 1.5455e-05 -0.001 0.000441547 -3.11896e-05 -0.001 
0.000353547 -8.47783e-05 -0.001 0.000445767 -0.000132964 -0.001 0.000356135 -0.000186358 -0.001 
0.000449094 -0.000234674 -0.001 0.000359978 -0.000287876 -0.001 0.00026856 -0.000240545 -0.001 
0.000271895 -0.000341045 -0.001 0.000181792 -0.00029305 -0.001 0.00018533 -0.000392851 -0.001 
9.75701e-05 -0.00034483 -0.001 9.98764e-05 -0.000444884 -0.001 8.75116e-06 -0.000396343 -0.001 
1.20916e-05 -0.000500496 -0.001 -7.83929e-05 -0.000449843 -0.001 -8.1471e-05 -0.000347249 -0.001 
-0.000171566 -0.000403733 -0.001 -0.000169889 -0.000298891 -0.001 -0.000259867 -0.000354132 -0.001 
-0.000257696 -0.000249137 -0.001 -0.00034313 -0.000299896 -0.001 -0.000344514 -0.000199127 -0.001 
-0.000434309 -0.000250039 -0.001 -0.000169832 -0.000505815 -0.001 -0.000435227 -0.000146227 -0.001 
0.000280331 -0.000442424 -0.001 -0.000340889 8.76793e-05 -0.001 -0.000515252 4.06198e-05 -0.001 
6.50491e-05 0.000568253 -0.001 0.00053278 1.74743e-05 -0.001 0.000522071 0.000229831 -0.001 
-0.00037162 0.000391659 -0.001 -0.000255272 -0.000150439 -0.001 -0.000442893 -0.000350705 -0.001 
0.000450067 -0.000332559 -0.001 0.000545175 -0.000276306 -0.001 -0.000527797 -0.000197598 -0.001 
0.000105306 -0.000551033 -0.001 1.45836e-05 -0.000609147 -0.001 0.00017145 0.000214453 -0.001 
0.000515525 0.000341711 -0.001 0.000636086 0.000290368 -0.001 -0.000558657 0.000404468 -0.001 
-4.01232e-05 0.000616718 -0.001 6.60192e-05 0.000696422 -0.001 -0.000101806 0.0002546 -0.001 
0.000271142 -3.88908e-05 -0.001 0.000179455 -0.00018534 -0.001 -8.79553e-05 -0.000254307 -0.001 
-0.000749267 -0.000373451 -0.001 -0.000655941 -0.000323397 -0.001 0.000709746 0.000466718 -0.001 
0.000698426 -0.000473086 -0.001 -5.25801e-05 -0.00084886 -0.001 -4.93005e-05 0.000848038 -0.001 
0.000617396 -0.000413362 -0.001 0.000702056 -0.000369817 -0.001 0.000131459 -0.000679171 -0.001 
2.48171e-05 -0.000715924 -0.001 -0.000664217 -0.00042729 -0.001 -0.000528828 -8.80444e-05 -0.001 
-0.000611101 -0.000136672 -0.001 -0.000426972 -4.45841e-05 -0.001 0.000800669 0.000378216 -0.001 
0.000821144 -0.000415062 -0.001 7.2799e-05 0.00088254 -0.001 6.81831e-05 -0.00087503 -0.001 
0.000104963 -0.000788946 -0.001 -7.40696e-05 -0.000660054 -0.001 0.000126061 0.000809943 -0.001 
0.000764361 0.000295682 -0.001 0.000166862 0.000630623 -0.001 0.000516462 -0.00046707 -0.001 
-0.000563585 -0.000389606 -0.001 -0.000622598 -1.40238e-05 -0.001 0.000629891 0.000171529 -0.001 
2.5614e-06 -0.000299794 -0.001 8.6901e-05 -0.00024329 -0.001 0.000272045 -0.000136982 -0.001 
-0.00075148 0.000138321 -0.001 0.000209366 -0.000599589 -0.001 0.000324913 -0.000630055 -0.001 
0.000614044 0.00041245 -0.001 0.00049651 -0.000573327 -0.001 0.000394822 -0.000507321 -0.001 
-0.000173714 -0.000206698 -0.001 0.000264897 5.63722e-05 -0.001 0.000247997 0.000152811 -0.001 
-4.63327e-05 -0.000920208 -0.001 9.18688e-05 0.000258626 -0.001 -5.54111e-06 0.000290558 -0.001 
-0.000184219 0.000201484 -0.001 -0.000263559 0.000142267 -0.001 -0.000256427 5.13624e-05 -0.001 
-0.000336894 -2.06179e-06 -0.001 -0.000228499 -4.2388e-05 -0.001 -0.00017589 0.000106626 -0.001 
-0.000769947 -0.000133367 -0.001 0.000767591 -0.000500293 -0.001 -5.05874e-05 0.000737978 -0.001 
0.000754456 -3.51771e-06 -0.001 0.00064691 -6.15298e-05 -0.001 0.000630483 -0.00018134 -0.001 
0.000749187 -0.000265543 -0.001 -0.000760805 -0.000462521 -0.001 0.000638155 6.09315e-05 -0.001 
-4.46661e-05 0.000922995 -0.001 -2.37945e-05 0.000207237 -0.001 0.000776979 0.000500181 -0.001 
-0.000605691 0.000527596 -0.001 -0.000377914 -0.000653727 -0.001 -0.000372325 -0.000526022 -0.001 
-0.000275829 -0.000589621 -0.001 -0.000254285 -0.000710579 -0.001 -0.000379307 0.000656222 -0.001 
-0.000379818 0.00052718 -0.001 -0.000266817 0.000721555 -0.001 -0.000150544 0.000668174 -0.001 
0.000381963 0.00065079 -0.001 0.000493113 0.000590432 -0.001 0.000505439 0.000463708 -0.001 
-0.000269094 0.000596608 -0.001 0.000385815 0.000532045 -0.001 0.000283599 0.0005899 -0.001 
-0.000176405 -0.000108505 -0.001 -0.000278769 -0.000475415 -0.001 0.000185395 2.33014e-06 -0.001 
0.000186773 0.000517571 -0.001 0.000540032 -8.68444e-05 -0.001 -0.000600694 -0.000514877 -0.001 
-0.00063703 8.98033e-05 -0.001 -0.000459677 0.000335729 -0.001 -0.000338836 -0.000100751 -0.001 
-0.000457327 0.000432721 -0.001 -8.72007e-06 -0.000210238 -0.001 0.000156073 0.000129496 -0.001 
-7.70692e-05 -0.000555049 -0.001 0.00036091 -0.000389728 -0.001 0.000531628 0.000120564 -0.001 
-0.000285451 0.000435562 -0.001 0.000192719 -0.000494604 -0.001 0.00041642 0.00039368 -0.001 
-0.000135943 0.000554637 -0.001 -0.000170665 -0.000610079 -0.001 -0.000666304 0.000434981 -0.001 
-0.000758736 0.000479231 -0.001 -0.000470189 -0.000458901 -0.001 0.000203433 -8.59809e-05 -0.001 
0.000101846 0.000170114 -0.001 -0.00035513 -0.00040726 -0.001 0.000100184 -0.000165831 -0.001 
2.96286e-05 0.00081537 -0.001 0.000720946 0.000381836 -0.001 -0.000539809 -0.000292001 -0.001 
0.00052211 -0.000182426 -0.001 -6.41339e-05 -0.000753908 -0.001 0.000638039 -0.000299861 -0.001 
-0.000605136 -0.000230182 -0.001 -3.41638e-05 -0.000145561 -0.001 -0.000104037 0.000172396 -0.001 
-0.000808575 -0.00042774 -0.001 -0.000807207 -0.000465052 -0.001 -0.00080817 0.000429771 -0.001 
-0.000806589 0.000469738 -0.001 -9.50634e-05 -0.000178909 -0.001 0.000247777 0.000445058 -0.001 
1.48293e-05 -0.000814201 -0.001 -4.11555e-05 0.000140955 -0.001 0.000276104 -0.000536845 -0.001 
0.000765969 -0.000436638 -0.001 0.000780871 -0.000362769 -0.001 0.000424176 -0.000642018 -0.001 
0.00053413 -0.000368009 -0.001 -0.000416333 4.17911e-05 -0.001 -0.000133891 -6.23822e-05 -0.001 
4.2574e-05 0.000206312 -0.001 0.000141163 -0.000121542 -0.001 0.000707423 0.000212137 -0.001 
0.000172327 0.000723882 -0.001 7.72652e-06 -0.00090254 -0.001 -0.000134435 5.66935e-05 -0.001 
-0.000188826 3.70894e-05 -0.001 0.000197119 8.09714e-05 -0.001 1.27801e-05 0.000917296 -0.001 
0.000800767 0.00044758 -0.001 -0.000686682 0.000507104 -0.001 9.35831e-05 0.000110457 -0.001 
-0.000696793 -0.000509595 -0.001 -0.00068446 -8.52012e-05 -0.001 -0.000691033 -0.000201242 -0.001 
5.24052e-05 -0.000189075 -0.001 -0.000151818 -0.000701092 -0.001 -0.000296988 0.000518087 -0.001 
9.31023e-05 -0.000108117 -0.001 0.00044261 -0.000416726 -0.001 0.000197044 -0.000784423 -0.001 
-0.000516861 0.000504567 -0.001 0.000298997 0.000502377 -0.001 

CELLS 563 3941
6 14 304 127 29 554 377 
6 143 259 55 393 509 103 
6 300 319 174 550 569 424 
6 259 349 55 509 599 103 
6 50 365 307 98 615 557 
6 299 320 164 549 570 414 
6 126 304 14 376 554 29 
6 298 319 300 548 569 550 
6 205 240 238 455 490 488 
6 257 308 145 507 558 395 
6 130 352 273 380 602 523 
6 295 320 299 545 570 549 
6 324 327 289 574 577 539 
6 235 258 143 485 508 393 
6 50 307 49 98 557 97 
6 207 283 279 457 533 529 
6 143 373 235 393 623 485 
6 145 308 252 395 558 502 
6 194 303 196 444 553 446 
6 279 306 207 529 556 457 
6 206 305 163 456 555 413 
6 51 357 9 99 607 24 
6 238 252 205 488 502 455 
6 293 317 209 543 567 459 
6 207 316 283 457 566 533 
6 142 301 249 392 551 499 
6 273 359 130 523 609 380 
6 211 327 324 461 577 574 
6 169 265 217 419 515 467 
6 7 365 50 22 615 98 
6 283 316 253 533 566 503 
6 159 268 223 409 518 473 
6 274 337 132 524 587 382 
6 232 361 329 482 611 579 
6 231 266 45 481 516 93 
6 229 362 330 479 612 580 
6 9 244 57 24 494 105 
6 230 276 52 480 526 100 
6 209 311 293 459 561 543 
6 131 342 302 381 592 552 
6 270 271 204 520 521 454 
6 66 243 1 114 493 16 
6 59 241 12 107 491 27 
6 280 306 279 530 556 529 
6 269 337 274 519 587 524 
6 179 256 224 429 506 474 
6 163 305 166 413 555 416 
6 201 303 194 451 553 444 
6 280 332 306 530 582 556 
6 186 255 225 436 505 475 
6 210 310 273 460 560 523 
6 153 270 204 403 520 454 
6 136 231 45 386 481 93 
6 171 265 169 421 515 419 
6 138 230 52 388 480 100 
6 225 354 325 475 604 575 
6 36 284 232 84 534 482 
6 161 268 159 411 518 409 
6 71 286 229 119 536 479 
6 290 303 201 540 553 451 
6 139 355 60 389 605 108 
6 60 355 248 108 605 498 
6 273 352 302 523 602 552 
6 235 373 245 485 623 495 
6 67 356 247 115 606 497 
6 221 295 277 471 545 527 
6 142 356 67 392 606 115 
6 139 283 253 389 533 503 
6 203 315 262 453 565 512 
6 41 257 145 89 507 395 
6 36 232 135 84 482 385 
6 71 229 137 119 479 387 
6 254 255 188 504 505 438 
6 233 350 334 483 600 584 
6 262 346 203 512 596 453 
6 304 325 127 554 575 377 
6 222 329 247 472 579 497 
6 218 298 260 468 548 510 
6 290 321 291 540 571 541 
6 272 310 240 522 560 490 
6 269 274 270 519 524 520 
6 244 245 57 494 495 105 
6 49 307 141 97 557 391 
6 225 325 256 475 575 506 
6 273 310 272 523 560 522 
6 312 368 255 562 618 505 
6 249 305 206 499 555 456 
6 228 331 251 478 581 501 
6 302 342 263 552 592 513 
6 338 339 44 588 589 92 
6 190 254 188 440 504 438 
6 37 341 340 85 591 590 
6 138 233 230 388 483 480 
6 228 335 331 478 585 581 
6 181 256 179 431 506 429 
6 195 263 226 445 513 476 
6 268 285 223 518 535 473 
6 290 291 288 540 541 538 
6 219 330 248 469 580 498 
6 201 321 290 451 571 540 
6 240 310 202 490 560 452 
6 188 255 186 438 505 436 
6 270 274 271 520 524 521 
6 262 349 259 512 599 509 
6 141 324 289 391 574 539 
6 296 301 142 546 551 392 
6 247 356 222 497 606 472 
6 239 252 238 489 502 488 
6 254 312 255 504 562 505 
6 54 261 53 102 511 101 
6 289 327 303 539 577 553 
6 268 353 285 518 603 535 
6 273 302 210 523 552 460 
6 292 299 293 542 549 543 
6 278 283 139 528 533 389 
6 175 265 171 425 515 421 
6 227 338 38 477 588 86 
6 264 360 265 514 610 515 
6 43 340 146 91 590 396 
6 165 268 161 415 518 411 
6 205 351 240 455 601 490 
6 64 281 63 112 531 111 
6 288 291 47 538 541 95 
6 135 295 294 385 545 544 
6 42 257 41 90 507 89 
6 245 373 57 495 623 105 
6 31 363 323 79 613 573 
6 292 293 140 542 543 390 
6 267 353 268 517 603 518 
6 155 270 153 405 520 403 
6 244 344 245 494 594 495 
6 61 278 139 109 528 389 
6 135 294 35 385 544 83 
6 69 297 296 117 547 546 
6 186 225 184 436 475 434 
6 329 361 243 579 611 493 
6 255 328 225 505 578 475 
6 213 332 280 463 582 530 
6 39 275 133 87 525 383 
6 330 362 241 580 612 491 
6 195 226 193 445 476 443 
6 211 324 251 461 574 501 
6 151 153 152 401 403 402 
6 295 299 294 545 549 544 
6 265 313 217 515 563 467 
6 258 259 143 508 509 393 
6 251 331 211 501 581 461 
6 149 151 150 399 401 400 
6 293 370 317 543 620 567 
6 153 204 152 403 454 402 
6 151 152 150 401 402 400 
6 33 292 140 81 542 390 
6 210 263 197 460 513 447 
6 301 305 249 551 555 499 
6 298 300 297 548 550 547 
6 68 296 142 116 546 392 
6 321 369 291 571 619 541 
6 179 224 177 429 474 427 
6 167 267 165 417 517 415 
6 259 346 262 509 596 512 
6 303 327 196 553 577 446 
6 269 270 155 519 520 405 
6 265 360 313 515 610 563 
6 223 269 157 473 519 407 
6 157 269 155 407 519 405 
6 144 279 278 394 529 528 
6 169 217 167 419 467 417 
6 177 264 175 427 514 425 
6 267 268 165 517 518 415 
6 159 223 157 409 473 407 
6 232 277 135 482 527 385 
6 193 254 190 443 504 440 
6 217 267 167 467 517 417 
6 249 356 142 499 606 392 
6 184 256 181 434 506 431 
6 248 355 219 498 605 469 
6 229 260 137 479 510 387 
6 149 150 148 399 400 398 
6 64 348 281 112 598 531 
6 311 374 293 561 624 543 
6 264 265 175 514 515 425 
6 297 300 296 547 550 546 
6 141 289 288 391 539 538 
6 197 263 195 447 513 445 
6 218 260 219 468 510 469 
6 224 264 177 474 514 427 
6 137 298 297 387 548 547 
6 277 295 135 527 545 385 
6 133 228 227 383 478 477 
6 261 349 262 511 599 512 
6 221 277 222 471 527 472 
6 256 325 224 506 575 474 
6 199 210 197 449 460 447 
6 226 254 193 476 504 443 
6 144 278 62 394 528 110 
6 279 283 278 529 533 528 
6 289 290 288 539 540 538 
6 137 297 70 387 547 118 
6 34 294 292 82 544 542 
6 235 236 216 485 486 466 
6 141 288 48 391 538 96 
6 178 306 180 428 556 430 
6 185 186 184 435 436 434 
6 63 281 144 111 531 394 
6 225 256 184 475 506 434 
6 46 291 136 94 541 386 
6 147 149 148 397 399 398 
6 271 272 204 521 522 454 
6 233 334 234 483 584 484 
6 145 275 40 395 525 88 
6 220 322 287 470 572 537 
6 280 334 213 530 584 463 
6 144 280 279 394 530 529 
6 140 287 32 390 537 80 
6 154 155 153 404 405 403 
6 334 350 213 584 600 463 
6 176 177 175 426 427 425 
6 260 298 137 510 548 387 
6 33 140 32 81 390 80 
6 49 141 48 97 391 96 
6 56 143 55 104 393 103 
6 68 142 67 116 392 115 
6 63 144 62 111 394 110 
6 61 139 60 109 389 108 
6 148 308 257 398 558 507 
6 71 137 70 119 387 118 
6 53 138 52 101 388 100 
6 46 136 45 94 386 93 
6 36 135 35 84 385 83 
6 43 146 134 91 396 384 
6 133 227 38 383 477 86 
6 192 193 190 442 443 440 
6 293 374 140 543 624 390 
6 34 292 33 82 542 81 
6 207 306 178 457 556 428 
6 43 134 42 91 384 90 
6 39 133 38 87 383 86 
6 41 145 40 89 395 88 
6 194 195 193 444 445 443 
6 69 296 68 117 546 116 
6 294 299 292 544 549 542 
6 173 175 171 423 425 421 
6 260 330 219 510 580 469 
6 183 184 181 433 434 431 
6 134 257 42 384 507 90 
6 55 349 54 103 599 102 
6 163 165 161 413 415 411 
6 166 167 165 416 417 415 
6 210 302 263 460 552 513 
6 271 273 272 521 523 522 
6 53 261 138 101 511 388 
6 217 326 267 467 576 517 
6 289 303 290 539 553 540 
6 178 179 177 428 429 427 
6 238 240 202 488 490 452 
6 62 278 61 110 528 109 
6 35 294 34 83 544 82 
6 284 361 232 534 611 482 
6 70 297 69 118 547 117 
6 224 304 264 474 554 514 
6 156 157 155 406 407 405 
6 48 288 47 96 538 95 
6 221 320 295 471 570 545 
6 187 188 186 437 438 436 
6 47 291 46 95 541 94 
6 151 154 153 401 404 403 
6 286 362 229 536 612 479 
6 168 169 167 418 419 417 
6 40 275 39 88 525 87 
6 307 324 141 557 574 391 
6 300 301 296 550 551 546 
6 32 287 31 80 537 79 
6 147 220 149 397 470 399 
6 333 344 231 583 594 481 
6 299 370 293 549 620 543 
6 271 359 273 521 609 523 
6 224 325 304 474 575 554 
6 228 237 227 478 487 477 
6 305 375 343 555 625 593 
6 218 319 298 468 569 548 
6 240 351 272 490 601 522 
6 277 329 222 527 579 472 
6 253 355 139 503 605 389 
6 158 159 157 408 409 407 
6 236 246 216 486 496 466 
6 192 194 193 442 444 443 
6 220 309 149 470 559 399 
6 183 185 184 433 435 434 
6 196 197 195 446 447 445 
6 276 347 58 526 597 106 
6 136 333 231 386 583 481 
6 67 247 66 115 497 114 
6 60 248 59 108 498 107 
6 261 262 250 511 512 500 
6 173 176 175 423 426 425 
6 344 357 231 594 607 481 
6 144 281 280 394 531 530 
6 152 205 150 402 455 400 
6 163 166 165 413 416 415 
6 185 187 186 435 437 436 
6 233 234 230 483 484 480 
6 170 171 169 420 421 419 
6 146 147 134 396 397 384 
6 176 178 177 426 428 427 
6 285 337 223 535 587 473 
6 154 156 155 404 406 405 
6 263 342 226 513 592 476 
6 235 245 236 485 495 486 
6 160 161 159 410 411 409 
6 58 347 242 106 597 492 
6 166 168 167 416 418 417 
6 287 374 220 537 624 470 
6 189 190 188 439 440 438 
6 148 257 134 398 507 384 
6 194 196 195 444 446 445 
6 252 308 205 502 558 455 
6 285 345 337 535 595 587 
6 301 375 305 551 625 555 
6 180 181 179 430 431 429 
6 281 348 234 531 598 484 
6 198 199 197 448 449 447 
6 151 309 154 401 559 404 
6 228 367 335 478 617 585 
6 54 349 261 102 599 511 
6 156 158 157 406 408 407 
6 168 170 169 418 420 419 
6 200 202 199 450 452 449 
6 147 148 134 397 398 384 
6 158 160 159 408 410 409 
6 150 308 148 400 558 398 
6 253 316 208 503 566 458 
6 232 329 277 482 579 527 
6 178 180 179 428 430 429 
6 191 192 190 441 442 440 
6 214 238 202 464 488 452 
6 172 173 171 422 423 421 
6 187 189 188 437 439 438 
6 162 163 161 412 413 411 
6 228 251 237 478 501 487 
6 215 258 235 465 508 485 
6 182 183 181 432 433 431 
6 202 310 199 452 560 449 
6 219 253 208 469 503 458 
6 222 249 206 472 499 456 
6 196 198 197 446 448 447 
6 229 330 260 479 580 510 
6 132 358 274 382 608 524 
6 149 309 151 399 559 401 
6 226 312 254 476 562 504 
6 154 309 209 404 559 459 
6 77 129 76 125 379 124 
6 73 128 72 121 378 120 
6 76 131 75 124 381 123 
6 74 132 73 122 382 121 
6 75 130 74 123 380 122 
6 14 127 77 29 377 125 
6 72 126 14 120 376 29 
6 133 367 228 383 617 478 
6 237 282 227 487 532 477 
6 239 366 252 489 616 502 
6 200 214 202 450 464 452 
6 192 201 194 442 451 444 
6 170 172 171 420 422 421 
6 220 311 309 470 561 559 
6 198 200 199 448 450 449 
6 189 191 190 439 441 440 
6 146 323 322 396 573 572 
6 160 162 161 410 412 411 
6 251 307 237 501 557 487 
6 199 310 210 449 560 460 
6 57 373 56 105 623 104 
6 214 239 238 464 489 488 
6 182 212 183 432 462 433 
6 180 182 181 430 432 431 
6 146 322 147 396 572 397 
6 172 218 208 422 468 458 
6 172 208 173 422 458 423 
6 162 221 206 412 471 456 
6 162 206 163 412 456 413 
6 176 207 178 426 457 428 
6 272 351 204 522 601 454 
6 198 211 200 448 461 450 
6 182 213 212 432 463 462 
6 234 334 281 484 584 531 
6 154 209 156 404 459 406 
6 185 203 187 435 453 437 
6 168 174 170 418 424 420 
6 189 215 191 439 465 441 
6 215 216 191 465 466 441 
6 221 222 206 471 472 456 
6 158 164 160 408 414 410 
6 218 219 208 468 469 458 
6 205 308 150 455 558 400 
6 191 314 192 441 564 442 
6 215 235 216 465 485 466 
6 215 318 258 465 568 508 
6 152 351 205 402 601 455 
6 138 261 250 388 511 500 
6 192 314 201 442 564 451 
6 234 347 230 484 597 480 
6 226 342 312 476 592 562 
6 138 250 233 388 500 483 
6 147 322 220 397 572 470 
6 216 314 191 466 564 441 
6 306 332 180 556 582 430 
6 222 356 249 472 606 499 
6 128 345 285 378 595 535 
6 314 321 201 564 571 451 
6 212 315 183 462 565 433 
6 312 342 336 562 592 586 
6 282 339 338 532 589 588 
6 340 341 323 590 591 573 
6 309 311 209 559 561 459 
6 183 315 185 433 565 435 
6 208 316 173 458 566 423 
6 173 316 176 423 566 426 
6 3 341 37 18 591 85 
6 44 339 6 92 589 21 
6 252 366 145 502 616 395 
6 246 321 314 496 571 564 
6 246 314 216 496 564 466 
6 126 364 313 376 614 563 
6 156 317 158 406 567 408 
6 275 367 133 525 617 383 
6 176 316 207 426 566 457 
6 185 315 203 435 565 453 
6 180 332 182 430 582 432 
6 302 352 131 552 602 381 
6 251 324 307 501 574 557 
6 187 318 189 437 568 439 
6 172 319 218 422 569 468 
6 162 320 221 412 570 471 
6 305 343 166 555 593 416 
6 170 319 172 420 569 422 
6 158 317 164 408 567 414 
6 209 317 156 459 567 406 
6 285 353 128 535 603 378 
6 223 337 269 473 587 519 
6 160 320 162 410 570 412 
6 211 331 200 461 581 450 
6 174 319 170 424 569 420 
6 203 318 187 453 568 437 
6 189 318 215 439 568 465 
6 198 327 211 448 577 461 
6 164 320 160 414 570 410 
6 326 353 267 576 603 517 
6 236 344 333 486 594 583 
6 196 327 198 446 577 448 
6 219 355 253 469 605 503 
6 281 334 280 531 584 530 
6 274 359 271 524 609 521 
6 164 370 299 414 620 549 
6 174 375 300 424 625 550 
6 287 363 31 537 613 79 
6 243 361 1 493 611 16 
6 241 362 12 491 612 27 
6 307 365 237 557 615 487 
6 166 343 168 416 593 418 
6 200 331 214 450 581 464 
6 313 326 217 563 576 467 
6 9 357 244 24 607 494 
6 1 361 30 16 611 78 
6 12 362 65 27 612 113 
6 337 345 132 587 595 382 
6 242 348 64 492 598 112 
6 231 357 266 481 607 516 
6 182 332 213 432 582 463 
6 245 344 236 495 594 486 
6 258 346 259 508 596 509 
6 145 366 275 395 616 525 
6 291 369 136 541 619 386 
6 236 333 246 486 583 496 
6 331 335 214 581 585 464 
6 312 336 129 562 586 379 
6 315 372 262 565 622 512 
6 220 374 311 470 624 561 
6 140 374 287 390 624 537 
6 126 360 304 376 610 554 
6 230 347 276 480 597 526 
6 313 364 326 563 614 576 
6 56 373 143 104 623 393 
6 239 367 366 489 617 616 
6 204 351 152 454 601 402 
6 300 375 301 550 625 551 
6 214 335 239 464 585 489 
6 247 329 243 497 579 493 
6 262 372 250 512 622 500 
6 248 330 241 498 580 491 
6 318 346 258 568 596 508 
6 333 369 246 583 619 496 
6 282 338 227 532 588 477 
6 146 340 323 396 590 573 
6 304 360 264 554 610 514 
6 366 367 275 616 617 525 
6 129 336 76 379 586 124 
6 73 345 128 121 595 378 
6 76 336 131 124 586 381 
6 250 350 233 500 600 483 
6 129 371 328 379 621 578 
6 132 345 73 382 595 121 
6 168 343 174 418 593 424 
6 131 352 75 381 602 123 
6 66 247 243 114 497 493 
6 59 248 241 107 498 491 
6 74 358 132 122 608 382 
6 203 346 318 453 596 568 
6 313 360 126 563 610 376 
6 128 364 72 378 614 120 
6 128 353 326 378 603 576 
6 77 371 129 125 621 379 
6 129 368 312 379 618 562 
6 244 357 344 494 607 594 
6 328 354 225 578 604 475 
6 326 364 128 576 614 378 
6 75 352 130 123 602 380 
6 350 372 212 600 622 462 
6 136 369 333 386 619 583 
6 325 354 127 575 604 377 
6 213 350 212 463 600 462 
6 130 358 74 380 608 122 
6 250 372 350 500 622 600 
6 317 370 164 567 620 414 
6 72 364 126 120 614 376 
6 328 368 129 578 618 379 
6 127 371 77 377 621 125 
6 336 342 131 586 592 381 
6 212 372 315 462 622 565 
6 234 348 347 484 598 597 
6 8 266 51 23 516 99 
6 10 276 58 25 526 106 
6 246 369 321 496 619 571 
6 30 284 0 78 534 15 
6 65 286 13 113 536 28 
6 58 242 11 106 492 26 
6 266 357 51 516 607 99 
6 255 368 328 505 618 578 
6 347 348 242 597 598 492 
6 322 363 287 572 613 537 
6 323 363 322 573 613 572 
6 335 367 239 585 617 489 
6 30 361 284 78 611 534 
6 65 362 286 113 612 536 
6 237 365 282 487 615 532 
6 130 359 358 380 609 608 
6 343 375 174 593 625 424 
6 354 371 127 604 621 377 
6 328 371 354 578 621 604 
6 358 359 274 608 609 524 
6 0 284 36 15 534 84 
6 45 266 8 93 516 23 
6 52 276 10 100 526 25 
6 11 242 64 26 492 112 
6 13 286 71 28 536 119 
6 2 323 3 17 573 18 
6 31 323 2 79 573 17 
6 323 341 3 573 591 18 
6 37 340 4 85 590 19 
6 4 340 43 19 590 91 
6 38 338 5 86 588 20 
6 5 338 44 20 588 92 
6 6 282 7 21 532 22 
6 6 339 282 21 589 532 
6 282 365 7 532 615 22 

CELL_TYPES 563
13
13
13
13
13
13
13
13
13
13
13
13
13
13
13
13
13
13
13
13
13
13
13
13
13
13
13
13
13
13
13
13
13
13
13
13
13
13
13
13
13
13
13
13
13
13
13
13
13
13
13
13
13
13
13
13
13
13
13
13
13
13
13
13
13
13
13
13
13
13
13
13
13
13
13
13
13
13
13
13
13
13
13
13
13
13
13
13
13
13
13
13
13
13
13
13
13
13
13
13
13
13
13
13
13
13
13
13
13
13
13
13
13
13
13
13
13
13
13
13
13
13
13
13
13
13
13
13
13
13
13
13
13
13
13
13
13
13
13
13
13
13
13
13
13
13
13
13
13
13
13
13
13
13
13
13
13
13
13
13
13
13
13
13
13
13
13
13
13
13
13
13
13
13
13
13
13
13
13
13
13
13
13
13
13
13
13
13
13
13
13
13
13
13
13
13
13
13
13
13
13
13
13
13
13
13
13
13
13
13
13
13
13
13
13
13
13
13
13
13
13
13
13
13
13
13
13
13
13
13
13
13
13
13
13
13
13
13
13
13
13
13
13
13
13
13
13
13
13
13
13
13
13
13
13
13
13
13
13
13
13
13
13
13
13
13
13
13
13
13
13
13
13
13
13
13
13
13
13
13
13
13
13
13
13
13
13
13
13
13
13
13
13
13
13
13
13
13
13
13
13
13
13
13
13
13
13
13
13
13
13
13
13
13
13
13
13
13
13
13
13
13
13
13
13
13
13
13
13
13
13
13
13
13
13
13
13
13
13
13
13
13
13
13
13
13
13
13
13
13
13
13
13
13
13
13
13
13
13
13
13
13
13
13
13
13
13
13
13
13
13
13
13
13
13
13
13
13
13
13
13
13
13
13
13
13
13
13
13
13
13
13
13
13
13
13
13
13
13
13
13
13
13
13
13
13
13
13
13
13
13
13
13
13
13
13
13
13
13
13
13
13
13
13
13
13
13
13
13
13
13
13
13
13
13
13
13
13
13
13
13
13
13
13
13
13
13
13
13
13
13
13
13
13
13
13
13
13
13
13
13
13
13
13
13
13
13
13
13
13
13
13
13
13
13
13
13
13
13
13
13
13
13
13
13
13
13
13
13
13
13
13
13
13
13
13
13
13
13
13
13
13
13
13
13
13
13
13
13
13
13
13
13
13
13
13
13
13
13
13
13
13
13
13
13
13
13
13
13
13
13
13
13
13
13
13
13
13
13
13
13
13
13
13
13
13
13
13
13
13
13
13
13
13
13
13
13
13
13
13
13
13
13

POINT_DATA 626
VECTORS displacement float
-1.74394e-06 3.09558e-05 1.80556e-05
1.73564e-06 3.09748e-05 1.81007e-05
-2.59874e-05 1.69935e-05 1.80877e-05
-2.58421e-05 1.60337e-05 1.80523e-05
-2.77218e-05 1.39735e-05 1.80697e-05
-2.77148e-05 -1.40198e-05 1.80951e-05
-2.58132e-05 -1.60718e-05 1.81065e-05
-2.59836e-05 -1.70116e-05 1.81677e-05
-1.6774e-06 -3.09595e-05 1.8052e-05
1.75544e-06 -3.0961e-05 1.81025e-05
2.59448e-05 -1.69813e-05 1.80441e-05
2.77182e-05 -1.39374e-05 1.8044e-05
2.76736e-05 1.39901e-05 1.80923e-05
2.59161e-05 1.69936e-05 1.80466e-05
0 0 0
-1.74394e-06 3.09558e-05 -1.80556e-05
1.73564e-06 3.09748e-05 -1.81007e-05
-2.59874e-05 1.69935e-05 -1.80877e-05
-2.58421e-05 1.60337e-05 -1.80523e-05
-2.77218e-05 1.39735e-05 -1.80697e-05
-2.77148e-05 -1.40198e-05 -1.80951e-05
-2.58132e-05 -1.60718e-05 -1.81065e-05
-2.59836e-05 -1.70116e-05 -1.81677e-05
-1.6774e-06 -3.09595e-05 -1.8052e-05
1.75544e-06 -3.0961e-05 -1.81025e-05
2.59448e-05 -1.69813e-05 -1.80441e-05
2.77182e-05 -1.39374e-05 -1.8044e-05
2.76736e-05 1.39901e-05 -1.80923e-05
2.59161e-05 1.69936e-05 -1.80466e-05
0 0 0
2.48887e-08 3.01556e-05 1.80348e-05
-2.11417e-05 1.87132e-05 1.75504e-05
-1.72335e-05 1.98348e-05 1.69216e-05
-1.40077e-05 2.10553e-05 1.65557e-05
-1.12074e-05 2.26661e-05 1.65496e-05
-8.52443e-06 2.48342e-05 1.69021e-05
-5.56793e-06 2.76231e-05 1.75381e-05
-2.6451e-05 1.46798e-05 1.80341e-05
-2.677e-05 -9.01209e-06 1.75781e-05
-2.58075e-05 -5.03583e-06 1.69267e-05
-2.52558e-05 -1.63633e-06 1.65722e-05
-2.52588e-05 1.60797e-06 1.65751e-05
-2.57998e-05 5.02323e-06 1.69249e-05
-2.67562e-05 8.98517e-06 1.75646e-05
-2.64379e-05 -1.47261e-05 1.80628e-05
-5.54119e-06 -2.76375e-05 1.75303e-05
-8.47695e-06 -2.48432e-05 1.69014e-05
-1.11706e-05 -2.26855e-05 1.65569e-05
-1.39714e-05 -2.10883e-05 1.65603e-05
-1.72159e-05 -1.98701e-05 1.69374e-05
-2.11353e-05 -1.875e-05 1.75629e-05
8.98324e-08 -3.01404e-05 1.803e-05
2.11251e-05 -1.86256e-05 1.75121e-05
1.72457e-05 -1.97631e-05 1.68736e-05
1.40347e-05 -2.10123e-05 1.65123e-05
1.12256e-05 -2.25942e-05 1.65469e-05
8.58158e-06 -2.47814e-05 1.68749e-05
5.6548e-06 -2.76278e-05 1.75356e-05
2.61257e-05 -1.50603e-05 1.8029e-05
2.6718e-05 8.93897e-06 1.75022e-05
2.57234e-05 5.04995e-06 1.69091e-05
2.52079e-05 1.62344e-06 1.65239e-05
2.5205e-05 -1.59955e-06 1.65222e-05
2.5752e-05 -4.99774e-06 1.6889e-05
2.67001e-05 -8.91772e-06 1.75103e-05
2.61087e-05 1.50615e-05 1.8026e-05
5.63325e-06 2.76191e-05 1.75102e-05
8.50896e-06 2.48081e-05 1.69119e-05
1.12176e-05 2.26423e-05 1.65301e-05
1.40053e-05 2.10232e-05 1.65255e-05
1.72227e-05 1.97944e-05 1.68858e-05
2.11161e-05 1.86352e-05 1.7526e-05
0 0 0
0 0 0
0 0 0
0 0 0
0 0 0
0 0 0
2.48887e-08 3.01556e-05 -1.80348e-05
-2.11417e-05 1.87132e-05 -1.75504e-05
-1.72335e-05 1.98348e-05 -1.69216e-05
-1.40077e-05 2.10553e-05 -1.65557e-05
-1.12074e-05 2.26661e-05 -1.65496e-05
-8.52443e-06 2.48342e-05 -1.69021e-05
-5.56793e-06 2.76231e-05 -1.75381e-05
-2.6451e-05 1.46798e-05 -1.80341e-05
-2.677e-05 -9.01209e-06 -1.75781e-05
-2.58075e-05 -5.03583e-06 -1.69267e-05
-2.52558e-05 -1.63633e-06 -1.65722e-05
-2.52588e-05 1.60797e-06 -1.65751e-05
-2.57998e-05 5.02323e-06 -1.69249e-05
-2.67562e-05 8.98517e-06 -1.75646e-05
-2.64379e-05 -1.47261e-05 -1.80628e-05
-5.54119e-06 -2.76375e-05 -1.75303e-05
-8.47695e-06 -2.48432e-05 -1.69014e-05
-1.11706e-05 -2.26855e-05 -1.65569e-05
-1.39714e-05 -2.10883e-05 -1.65603e-05
-1.72159e-05 -1.98701e-05 -1.69374e-05
-2.11353e-05 -1.875e-05 -1.75629e-05
8.98324e-08 -3.01404e-05 -1.803e-05
2.11251e-05 -1.86256e-05 -1.75121e-05
1.72457e-05 -1.97631e-05 -1.68736e-05
1.40347e-05 -2.10123e-05 -1.65123e-05
1.12256e-05 -2.25942e-05 -1.65469e-05
8.58158e-06 -2.47814e-05 -1.68749e-05
5.6548e-06 -2.76278e-05 -1.75356e-05
2.61257e-05 -1.50603e-05 -1.8029e-05
2.6718e-05 8.93897e-06 -1.75022e-05
2.57234e-05 5.04995e-06 -1.69091e-05
2.52079e-05 1.62344e-06 -1.65239e-05
2.5205e-05 -1.59955e-06 -1.65222e-05
2.5752e-05 -4.99774e-06 -1.6889e-05
2.67001e-05 -8.91772e-06 -1.75103e-05
2.61087e-05 1.50615e-05 -1.8026e-05
5.63325e-06 2.76191e-05 -1.75102e-05
8.50896e-06 2.48081e-05 -1.69119e-05
1.12176e-05 2.26423e-05 -1.65301e-05
1.40053e-05 2.10232e-05 -1.65255e-05
1.72227e-05 1.97944e-05 -1.68858e-05
2.11161e-05 1.86352e-05 -1.7526e-05
0 0 0
0 0 0
0 0 0
0 0 0
0 0 0
0 0 0
1.79375e-06 8.58779e-07 4.55248e-06
1.73789e-06 -8.25146e-07 4.46103e-06
4.3197e-07 1.8497e-06 4.49535e-06
4.36115e-07 -1.7807e-06 4.35631e-06
-1.84756e-06 2.09642e-08 4.42259e-06
-1.12313e-06 -1.30892e-06 4.15121e-06
-1.15925e-06 1.30685e-06 4.19999e-06
-2.25142e-05 -7.28808e-06 1.70006e-05
-2.21975e-05 7.37197e-06 1.69693e-05
-4.86064e-06 2.28997e-05 1.69377e-05
-4.85815e-06 -2.31328e-05 1.69646e-05
1.74221e-05 1.56362e-05 1.69305e-05
1.75697e-05 -1.55372e-05 1.69398e-05
2.10746e-05 3.16407e-06 1.63251e-05
-1.39539e-05 1.71521e-05 1.64791e-05
-1.35919e-05 -1.67421e-05 1.64106e-05
7.76823e-06 1.98206e-05 1.63319e-05
7.68523e-06 -2.0311e-05 1.64032e-05
2.14734e-05 -3.44394e-06 1.64009e-05
-2.11038e-05 6.58813e-09 1.62474e-05
-2.24214e-05 1.10003e-05 1.74542e-05
-1.87518e-05 9.25516e-06 1.66277e-05
-1.79837e-05 5.79575e-06 1.6037e-05
-1.49847e-05 7.44871e-06 1.5487e-05
-1.42252e-05 4.30794e-06 1.48303e-05
-1.15332e-05 5.74418e-06 1.40953e-05
-1.08586e-05 3.06889e-06 1.33741e-05
-8.40091e-06 4.30509e-06 1.24049e-05
-9.05926e-06 7.01376e-06 1.34569e-05
-6.20441e-06 5.48878e-06 1.16895e-05
-6.82865e-06 8.24986e-06 1.30805e-05
-4.28161e-06 6.67524e-06 1.1451e-05
-4.80025e-06 9.61041e-06 1.30945e-05
-2.40099e-06 7.99374e-06 1.17235e-05
-2.813e-06 1.11678e-05 1.34755e-05
-4.75435e-07 9.59577e-06 1.25015e-05
-7.38394e-07 1.29976e-05 1.41423e-05
1.73117e-06 1.15184e-05 1.35356e-05
-5.53497e-06 1.2701e-05 1.44375e-05
1.68516e-06 8.22438e-06 1.17481e-05
4.00438e-06 1.01214e-05 1.31515e-05
3.70553e-06 7.0983e-06 1.14787e-05
6.06771e-06 8.96713e-06 1.31139e-05
5.76711e-06 6.10709e-06 1.17361e-05
8.35851e-06 8.02073e-06 1.34926e-05
8.10606e-06 5.19553e-06 1.25009e-05
1.09546e-05 7.09742e-06 1.41476e-05
1.07465e-05 4.32302e-06 1.34996e-05
8.53097e-06 1.10381e-05 1.44614e-05
7.93809e-06 2.64388e-06 1.17279e-05
1.06466e-05 1.73729e-06 1.31046e-05
7.94908e-06 3.58778e-07 1.14561e-05
1.0807e-05 -7.59151e-07 1.31247e-05
8.11205e-06 -1.9379e-06 1.17096e-05
1.10988e-05 -3.31302e-06 1.34845e-05
8.47016e-06 -4.4242e-06 1.24446e-05
1.15043e-05 -6.00319e-06 1.411e-05
8.95603e-06 -7.13848e-06 1.34286e-05
6.14783e-06 -5.49469e-06 1.16418e-05
6.64484e-06 -8.30129e-06 1.30188e-05
4.10541e-06 -6.58884e-06 1.13114e-05
4.52359e-06 -9.55136e-06 1.29889e-05
2.2424e-06 -7.85868e-06 1.15979e-05
2.48496e-06 -1.10025e-05 1.33515e-05
2.25301e-07 -9.37416e-06 1.23541e-05
3.30029e-07 -1.27705e-05 1.40344e-05
-1.91554e-06 -1.11513e-05 1.33776e-05
-1.84116e-06 -7.92201e-06 1.15827e-05
-4.16812e-06 -9.87536e-06 1.30856e-05
-3.81413e-06 -6.73083e-06 1.13176e-05
-6.34595e-06 -8.66247e-06 1.30999e-05
-5.8916e-06 -5.6983e-06 1.16289e-05
-8.50016e-06 -7.43618e-06 1.33803e-05
-8.16796e-06 -4.7283e-06 1.24092e-05
-1.10962e-05 -6.4031e-06 1.40705e-05
-4.37189e-06 -1.31239e-05 1.44343e-05
-1.08094e-05 -3.65087e-06 1.34398e-05
7.2265e-06 -1.13734e-05 1.42736e-05
-7.74209e-06 1.98279e-06 1.14934e-05
-1.32168e-05 1.03511e-06 1.42116e-05
1.72921e-06 1.50836e-05 1.49529e-05
1.37688e-05 4.62263e-07 1.43885e-05
1.38439e-05 6.10043e-06 1.49324e-05
-9.69458e-06 1.01968e-05 1.45332e-05
-5.41628e-06 -3.19781e-06 1.01826e-05
-1.17142e-05 -9.29783e-06 1.48899e-05
1.1883e-05 -8.76068e-06 1.47878e-05
1.47826e-05 -7.474e-06 1.5404e-05
-1.39605e-05 -5.24417e-06 1.48624e-05
2.79597e-06 -1.45169e-05 1.47969e-05
4.24581e-07 -1.65003e-05 1.53985e-05
3.51861e-06 4.39716e-06 9.58161e-06
1.40113e-05 9.29955e-06 1.54923e-05
1.79317e-05 8.1454e-06 1.63013e-05
-1.56763e-05 1.13959e-05 1.62342e-05
-1.09415e-06 1.677e-05 1.5496e-05
1.90695e-06 1.96227e-05 1.63117e-05
-2.09197e-06 5.22034e-06 9.59811e-06
5.55422e-06 -7.84642e-07 9.59465e-06
3.58613e-06 -3.68374e-06 9.08246e-06
-1.77973e-06 -5.17883e-06 9.45011e-06
-2.24699e-05 -1.10114e-05 1.7475e-05
-1.87991e-05 -9.24191e-06 1.66518e-05
2.11489e-05 1.41655e-05 1.75063e-05
2.07548e-05 -1.43183e-05 1.74362e-05
-1.76466e-06 -2.54478e-05 1.75116e-05
-1.68219e-06 2.54118e-05 1.75163e-05
1.77139e-05 -1.19075e-05 1.66879e-05
2.06468e-05 -1.07516e-05 1.71167e-05
3.77583e-06 -1.89862e-05 1.61401e-05
7.68562e-07 -2.03469e-05 1.64836e-05
-1.94061e-05 -1.26512e-05 1.71438e-05
-1.37318e-05 -2.30705e-06 1.44726e-05
-1.65936e-05 -3.70163e-06 1.54783e-05
-1.03764e-05 -1.09644e-06 1.29527e-05
2.44532e-05 1.10734e-05 1.76523e-05
2.54987e-05 -1.24039e-05 1.78488e-05
2.64931e-06 2.67273e-05 1.76611e-05
2.52106e-06 -2.64149e-05 1.763e-05
3.3396e-06 -2.30331e-05 1.70298e-05
-2.054e-06 -1.83209e-05 1.59516e-05
4.05922e-06 2.37926e-05 1.71311e-05
2.26153e-05 8.37972e-06 1.712e-05
4.61384e-06 1.73143e-05 1.5728e-05
1.44278e-05 -1.31201e-05 1.61381e-05
-1.57885e-05 -1.09853e-05 1.62153e-05
-1.68007e-05 -3.81449e-07 1.53781e-05
1.73068e-05 4.68773e-06 1.57264e-05
6.55243e-08 -6.38762e-06 1.0268e-05
1.74179e-06 -4.84869e-06 9.09296e-06
5.85074e-06 -2.93565e-06 1.03787e-05
-2.14453e-05 3.75073e-06 1.64596e-05
5.72965e-06 -1.62753e-05 1.55085e-05
9.08393e-06 -1.74999e-05 1.59982e-05
1.7573e-05 1.18823e-05 1.6673e-05
1.3995e-05 -1.63831e-05 1.6402e-05
1.07405e-05 -1.37897e-05 1.55508e-05
-3.54814e-06 -4.22039e-06 9.50126e-06
5.39937e-06 1.13855e-06 9.49954e-06
5.2183e-06 3.22303e-06 1.00478e-05
-1.74982e-06 -2.83558e-05 1.78775e-05
1.89215e-06 5.29914e-06 9.58495e-06
-1.1383e-07 6.10529e-06 1.00393e-05
-3.7851e-06 4.12793e-06 9.5789e-06
-5.62294e-06 3.03433e-06 1.02858e-05
-5.16571e-06 1.04072e-06 9.21409e-06
-7.52761e-06 -6.17423e-08 1.1173e-05
-4.33456e-06 -8.10313e-07 8.38229e-06
-3.10872e-06 1.87242e-06 7.37444e-06
-2.20823e-05 -3.60797e-06 1.65165e-05
2.34073e-05 -1.56886e-05 1.78367e-05
-1.50726e-06 2.11689e-05 1.66827e-05
2.12627e-05 -8.45246e-08 1.62265e-05
1.7623e-05 -1.64689e-06 1.55822e-05
1.73486e-05 -4.94193e-06 1.57714e-05
2.18926e-05 -7.45151e-06 1.69143e-05
-2.31832e-05 -1.42552e-05 1.78333e-05
1.73255e-05 1.64896e-06 1.55093e-05
-1.73403e-06 2.84743e-05 1.78947e-05
-4.2209e-07 3.68358e-06 7.49569e-06
2.3773e-05 1.5743e-05 1.78852e-05
-1.74982e-05 1.5643e-05 1.69756e-05
-1.06268e-05 -1.8467e-05 1.62558e-05
-1.01001e-05 -1.43431e-05 1.55724e-05
-7.50816e-06 -1.60957e-05 1.56228e-05
-7.32248e-06 -2.01215e-05 1.6396e-05
-1.0705e-05 1.85362e-05 1.62675e-05
-1.03479e-05 1.43848e-05 1.56201e-05
-7.77301e-06 2.04935e-05 1.6445e-05
-4.2532e-06 1.86106e-05 1.60537e-05
1.07602e-05 1.83464e-05 1.62269e-05
1.38924e-05 1.69358e-05 1.64317e-05
1.40427e-05 1.29735e-05 1.6052e-05
-7.36195e-06 1.62891e-05 1.56392e-05
1.05257e-05 1.45478e-05 1.56459e-05
7.74915e-06 1.60931e-05 1.56147e-05
-3.1166e-06 -1.89885e-06 7.39357e-06
-7.25802e-06 -1.24226e-05 1.46259e-05
3.00879e-06 4.03619e-08 6.60132e-06
4.87283e-06 1.35234e-05 1.46188e-05
1.40767e-05 -2.26051e-06 1.45712e-05
-1.72906e-05 -1.52174e-05 1.69462e-05
-1.73674e-05 2.42043e-06 1.55986e-05
-1.22053e-05 8.91239e-06 1.49442e-05
-7.70601e-06 -2.29263e-06 1.15553e-05
-1.24504e-05 1.18132e-05 1.55407e-05
-1.42742e-07 -3.75439e-06 7.55458e-06
2.73035e-06 2.27218e-06 7.25231e-06
-2.00397e-06 -1.46512e-05 1.48088e-05
9.36558e-06 -1.00688e-05 1.43901e-05
1.38615e-05 3.15798e-06 1.45668e-05
-7.34043e-06 1.12e-05 1.4261e-05
4.99748e-06 -1.27755e-05 1.437e-05
1.10324e-05 1.04311e-05 1.49204e-05
-3.59663e-06 1.4686e-05 1.49088e-05
-4.63571e-06 -1.66178e-05 1.55496e-05
-1.95081e-05 1.28931e-05 1.7162e-05
-2.3128e-05 1.48588e-05 1.78441e-05
-1.29056e-05 -1.26868e-05 1.58133e-05
3.76097e-06 -1.5862e-06 7.90738e-06
1.76447e-06 2.92241e-06 7.08481e-06
-9.23097e-06 -1.061e-05 1.45325e-05
1.72782e-06 -2.82328e-06 6.93144e-06
9.94762e-07 2.41181e-05 1.73092e-05
2.1369e-05 1.11944e-05 1.72993e-05
-1.46654e-05 -7.95381e-06 1.54861e-05
1.37088e-05 -4.78658e-06 1.46914e-05
-1.90997e-06 -2.17641e-05 1.68035e-05
1.80613e-05 -8.41952e-06 1.63415e-05
-1.66798e-05 -6.32891e-06 1.57832e-05
-4.32919e-07 -1.9224e-06 4.79873e-06
-1.80545e-06 2.99558e-06 7.17757e-06
-2.50531e-05 -1.29824e-05 1.79229e-05
-2.51283e-05 -1.45079e-05 1.80027e-05
-2.50463e-05 1.30343e-05 1.79067e-05
-2.51192e-05 1.46506e-05 1.79828e-05
-1.64853e-06 -3.12499e-06 7.2103e-06
6.32829e-06 1.1369e-05 1.40773e-05
5.33725e-07 -2.40873e-05 1.73029e-05
-5.228e-07 1.80962e-06 4.64526e-06
7.40786e-06 -1.43445e-05 1.51532e-05
2.3304e-05 -1.321e-05 1.77295e-05
2.36338e-05 -1.05381e-05 1.74915e-05
1.19891e-05 -1.82119e-05 1.62941e-05
1.47309e-05 -1.01472e-05 1.57964e-05
-1.00276e-05 1.0013e-06 1.27553e-05
-1.74009e-06 -8.15936e-07 4.72371e-06
7.691e-07 3.70853e-06 7.57356e-06
2.34318e-06 -1.99725e-06 6.55565e-06
2.01576e-05 5.89817e-06 1.64544e-05
5.07033e-06 2.05971e-05 1.64968e-05
3.4212e-07 -2.76813e-05 1.78547e-05
-1.7313e-06 7.09141e-07 4.60657e-06
-3.21165e-06 6.23076e-07 6.82452e-06
3.57738e-06 1.47548e-06 7.63705e-06
4.9923e-07 2.83252e-05 1.79279e-05
2.47615e-05 1.37347e-05 1.79191e-05
-2.03294e-05 1.55366e-05 1.74297e-05
1.17876e-06 1.36453e-06 4.4601e-06
-2.06407e-05 -1.57291e-05 1.75283e-05
-1.89999e-05 -2.32232e-06 1.5947e-05
-1.95602e-05 -5.58531e-06 1.6333e-05
9.05724e-07 -3.2479e-06 7.00649e-06
-4.36625e-06 -1.97904e-05 1.63226e-05
-7.93773e-06 1.38352e-05 1.51019e-05
1.1658e-06 -1.30424e-06 4.33953e-06
1.19351e-05 -1.1229e-05 1.5293e-05
6.13334e-06 -2.26973e-05 1.68213e-05
-1.4523e-05 1.43561e-05 1.63244e-05
7.92952e-06 1.3322e-05 1.49488e-05
1.79375e-06 8.58779e-07 -4.55248e-06
1.73789e-06 -8.25146e-07 -4.46103e-06
4.3197e-07 1.8497e-06 -4.49535e-06
4.36115e-07 -1.7807e-06 -4.35631e-06
-1.84756e-06 2.09642e-08 -4.42259e-06
-1.12313e-06 -1.30892e-06 -4.15121e-06
-1.15925e-06 1.30685e-06 -4.19999e-06
-2.25142e-05 -7.28808e-06 -1.70006e-05
-2.21975e-05 7.37197e-06 -1.69693e-05
-4.86064e-06 2.28997e-05 -1.69377e-05
-4.85815e-06 -2.31328e-05 -1.69646e-05
1.74221e-05 1.56362e-05 -1.69305e-05
1.75697e-05 -1.55372e-05 -1.69398e-05
2.10746e-05 3.16407e-06 -1.63251e-05
-1.39539e-05 1.71521e-05 -1.64791e-05
-1.35919e-05 -1.67421e-05 -1.64106e-05
7.76823e-06 1.98206e-05 -1.63319e-05
7.68523e-06 -2.0311e-05 -1.64032e-05
2.14734e-05 -3.44394e-06 -1.64009e-05
-2.11038e-05 6.58813e-09 -1.62474e-05
-2.24214e-05 1.10003e-05 -1.74542e-05
-1.87518e-05 9.25516e-06 -1.66277e-05
-1.79837e-05 5.79575e-06 -1.6037e-05
-1.49847e-05 7.44871e-06 -1.5487e-05
-1.42252e-05 4.30794e-06 -1.48303e-05
-1.15332e-05 5.74418e-06 -1.40953e-05
-1.08586e-05 3.06889e-06 -1.33741e-05
-8.40091e-06 4.30509e-06 -1.24049e-05
-9.05926e-06 7.01376e-06 -1.34569e-05
-6.20441e-06 5.48878e-06 -1.16895e-05
-6.82865e-06 8.24986e-06 -1.30805e-05
-4.28161e-06 6.67524e-06 -1.1451e-05
-4.80025e-06 9.61041e-06 -1.30945e-05
-2.40099e-06 7.99374e-06 -1.17235e-05
-2.813e-06 1.11678e-05 -1.34755e-05
-4.75435e-07 9.59577e-06 -1.25015e-05
-7.38394e-07 1.29976e-05 -1.41423e-05
1.73117e-06 1.15184e-05 -1.35356e-05
-5.53497e-06 1.2701e-05 -1.44375e-05
1.68516e-06 8.22438e-06 -1.17481e-05
4.00438e-06 1.01214e-05 -1.31515e-05
3.70553e-06 7.0983e-06 -1.14787e-05
6.06771e-06 8.96713e-06 -1.31139e-05
5.76711e-06 6.10709e-06 -1.17361e-05
8.35851e-06 8.02073e-06 -1.34926e-05
8.10606e-06 5.19553e-06 -1.25009e-05
1.09546e-05 7.09742e-06 -1.41476e-05
1.07465e-05 4.32302e-06 -1.34996e-05
8.53097e-06 1.10381e-05 -1.44614e-05
7.93809e-06 2.64388e-06 -1.17279e-05
1.06466e-05 1.73729e-06 -1.31046e-05
7.94908e-06 3.58778e-07 -1.14561e-05
1.0807e-05 -7.59151e-07 -1.31247e-05
8.11205e-06 -1.9379e-06 -1.17096e-05
1.10988e-05 -3.31302e-06 -1.34845e-05
8.47016e-06 -4.4242e-06 -1.24446e-05
1.15043e-05 -6.00319e-06 -1.411e-05
8.95603e-06 -7.13848e-06 -1.34286e-05
6.14783e-06 -5.49469e-06 -1.16418e-05
6.64484e-06 -8.30129e-06 -1.30188e-05
4.10541e-06 -6.58884e-06 -1.13114e-05
4.52359e-06 -9.55136e-06 -1.29889e-05
2.2424e-06 -7.85868e-06 -1.15979e-05
2.48496e-06 -1.10025e-05 -1.33515e-05
2.25301e-07 -9.37416e-06 -1.23541e-05
3.30029e-07 -1.27705e-05 -1.40344e-05
-1.91554e-06 -1.11513e-05 -1.33776e-05
-1.84116e-06 -7.92201e-06 -1.15827e-05
-4.16812e-06 -9.87536e-06 -1.30856e-05
-3.81413e-06 -6.73083e-06 -1.13176e-05
-6.34595e-06 -8.66247e-06 -1.30999e-05
-5.8916e-06 -5.6983e-06 -1.16289e-05
-8.50016e-06 -7.43618e-06 -1.33803e-05
-8.16796e-06 -4.7283e-06 -1.24092e-05
-1.10962e-05 -6.4031e-06 -1.40705e-05
-4.37189e-06 -1.31239e-05 -1.44343e-05
-1.08094e-05 -3.65087e-06 -1.34398e-05
7.2265e-06 -1.13734e-05 -1.42736e-05
-7.74209e-06 1.98279e-06 -1.14934e-05
-1.32168e-05 1.03511e-06 -1.42116e-05
1.72921e-06 1.50836e-05 -1.49529e-05
1.37688e-05 4.62263e-07 -1.43885e-05
1.38439e-05 6.10043e-06 -1.49324e-05
-9.69458e-06 1.01968e-05 -1.45332e-05
-5.41628e-06 -3.19781e-06 -1.01826e-05
-1.17142e-05 -9.29783e-06 -1.48899e-05
1.1883e-05 -8.76068e-06 -1.47878e-05
1.47826e-05 -7.474e-06 -1.5404e-05
-1.39605e-05 -5.24417e-06 -1.48624e-05
2.79597e-06 -1.45169e-05 -1.47969e-05
4.24581e-07 -1.65003e-05 -1.53985e-05
3.51861e-06 4.39716e-06 -9.58161e-06
1.40113e-05 9.29955e-06 -1.54923e-05
1.79317e-05 8.1454e-06 -1.63013e-05
-1.56763e-05 1.13959e-05 -1.62342e-05
-1.09415e-06 1.677e-05 -1.5496e-05
1.90695e-06 1.96227e-05 -1.63117e-05
-2.09197e-06 5.22034e-06 -9.59811e-06
5.55422e-06 -7.84642e-07 -9.59465e-06
3.58613e-06 -3.68374e-06 -9.08246e-06
-1.77973e-06 -5.17883e-06 -9.45011e-06
-2.24699e-05 -1.10114e-05 -1.7475e-05
-1.87991e-05 -9.24191e-06 -1.66518e-05
2.11489e-05 1.41655e-05 -1.75063e-05
2.07548e-05 -1.43183e-05 -1.74362e-05
-1.76466e-06 -2.54478e-05 -1.75116e-05
-1.68219e-06 2.54118e-05 -1.75163e-05
1.77139e-05 -1.19075e-05 -1.66879e-05
2.06468e-05 -1.07516e-05 -1.71167e-05
3.77583e-06 -1.89862e-05 -1.61401e-05
7.68562e-07 -2.03469e-05 -1.64836e-05
-1.94061e-05 -1.26512e-05 -1.71438e-05
-1.37318e-05 -2.30705e-06 -1.44726e-05
-1.65936e-05 -3.70163e-06 -1.54783e-05
-1.03764e-05 -1.09644e-06 -1.29527e-05
2.44532e-05 1.10734e-05 -1.76523e-05
2.54987e-05 -1.24039e-05 -1.78488e-05
2.64931e-06 2.67273e-05 -1.76611e-05
2.52106e-06 -2.64149e-05 -1.763e-05
3.3396e-06 -2.30331e-05 -1.70298e-05
-2.054e-06 -1.83209e-05 -1.59516e-05
4.05922e-06 2.37926e-05 -1.71311e-05
2.26153e-05 8.37972e-06 -1.712e-05
4.61384e-06 1.73143e-05 -1.5728e-05
1.44278e-05 -1.31201e-05 -1.61381e-05
-1.57885e-05 -1.09853e-05 -1.62153e-05
-1.68007e-05 -3.81449e-07 -1.53781e-05
1.73068e-05 4.68773e-06 -1.57264e-05
6.55243e-08 -6.38762e-06 -1.0268e-05
1.74179e-06 -4.84869e-06 -9.09296e-06
5.85074e-06 -2.93565e-06 -1.03787e-05
-2.14453e-05 3.75073e-06 -1.64596e-05
5.72965e-06 -1.62753e-05 -1.55085e-05
9.08393e-06 -1.74999e-05 -1.59982e-05
1.7573e-05 1.18823e-05 -1.6673e-05
1.3995e-05 -1.63831e-05 -1.6402e-05
1.07405e-05 -1.37897e-05 -1.55508e-05
-3.54814e-06 -4.22039e-06 -9.50126e-06
5.39937e-06 1.13855e-06 -9.49954e-06
5.2183e-06 3.22303e-06 -1.00478e-05
-1.74982e-06 -2.83558e-05 -1.78775e-05
1.89215e-06 5.29914e-06 -9.58495e-06
-1.1383e-07 6.10529e-06 -1.00393e-05
-3.7851e-06 4.12793e-06 -9.5789e-06
-5.62294e-06 3.03433e-06 -1.02858e-05
-5.16571e-06 1.04072e-06 -9.21409e-06
-7.52761e-06 -6.17423e-08 -1.1173e-05
-4.33456e-06 -8.10313e-07 -8.38229e-06
-3.10872e-06 1.87242e-06 -7.37444e-06
-2.20823e-05 -3.60797e-06 -1.65165e-05
2.34073e-05 -1.56886e-05 -1.78367e-05
-1.50726e-06 2.11689e-05 -1.66827e-05
2.12627e-05 -8.45246e-08 -1.62265e-05
1.7623e-05 -1.64689e-06 -1.55822e-05
1.73486e-05 -4.94193e-06 -1.57714e-05
2.18926e-05 -7.45151e-06 -1.69143e-05
-2.31832e-05 -1.42552e-05 -1.78333e-05
1.73255e-05 1.64896e-06 -1.55093e-05
-1.73403e-06 2.84743e-05 -1.78947e-05
-4.2209e-07 3.68358e-06 -7.49569e-06
2.3773e-05 1.5743e-05 -1.78852e-05
-1.74982e-05 1.5643e-05 -1.69756e-05
-1.06268e-05 -1.8467e-05 -1.62558e-05
-1.01001e-05 -1.43431e-05 -1.55724e-05
-7.50816e-06 -1.60957e-05 -1.56228e-05
-7.32248e-06 -2.01215e-05 -1.6396e-05
-1.0705e-05 1.85362e-05 -1.62675e-05
-1.03479e-05 1.43848e-05 -1.56201e-05
-7.77301e-06 2.04935e-05 -1.6445e-05
-4.2532e-06 1.86106e-05 -1.60537e-05
1.07602e-05 1.83464e-05 -1.62269e-05
1.38924e-05 1.69358e-05 -1.64317e-05
1.40427e-05 1.29735e-05 -1.6052e-05
-7.36195e-06 1.62891e-05 -1.56392e-05
1.05257e-05 1.45478e-05 -1.56459e-05
7.74915e-06 1.60931e-05 -1.56147e-05
-3.1166e-06 -1.89885e-06 -7.39357e-06
-7.25802e-06 -1.24226e-05 -1.46259e-05
3.00879e-06 4.03619e-08 -6.60132e-06
4.87283e-06 1.35234e-05 -1.46188e-05
1.40767e-05 -2.26051e-06 -1.45712e-05
-1.72906e-05 -1.52174e-05 -1.69462e-05
-1.73674e-05 2.42043e-06 -1.55986e-05
-1.22053e-05 8.91239e-06 -1.49442e-05
-7.70601e-06 -2.29263e-06 -1.15553e-05
-1.24504e-05 1.18132e-05 -1.55407e-05
-1.42742e-07 -3.75439e-06 -7.55458e-06
2.73035e-06 2.27218e-06 -7.25231e-06
-2.00397e-06 -1.46512e-05 -1.48088e-05
9.36558e-06 -1.00688e-05 -1.43901e-05
1.38615e-05 3.15798e-06 -1.45668e-05
-7.34043e-06 1.12e-05 -1.4261e-05
4.99748e-06 -1.27755e-05 -1.437e-05
1.10324e-05 1.04311e-05 -1.49204e-05
-3.59663e-06 1.4686e-05 -1.49088e-05
-4.63571e-06 -1.66178e-05 -1.55496e-05
-1.95081e-05 1.28931e-05 -1.7162e-05
-2.3128e-05 1.48588e-05 -1.78441e-05
-1.29056e-05 -1.26868e-05 -1.58133e-05
3.76097e-06 -1.5862e-06 -7.90738e-06
1.76447e-06 2.92241e-06 -7.08481e-06
-9.23097e-06 -1.061e-05 -1.45325e-05
1.72782e-06 -2.82328e-06 -6.93144e-06
9.94762e-07 2.41181e-05 -1.73092e-05
2.1369e-05 1.11944e-05 -1.72993e-05
-1.46654e-05 -7.95381e-06 -1.54861e-05
1.37088e-05 -4.78658e-06 -1.46914e-05
-1.90997e-06 -2.17641e-05 -1.68035e-05
1.80613e-05 -8.41952e-06 -1.63415e-05
-1.66798e-05 -6.32891e-06 -1.57832e-05
-4.32919e-07 -1.9224e-06 -4.79873e-06
-1.80545e-06 2.99558e-06 -7.17757e-06
-2.50531e-05 -1.29824e-05 -1.79229e-05
-2.51283e-05 -1.45079e-05 -1.80027e-05
-2.50463e-05 1.30343e-05 -1.79067e-05
-2.51192e-05 1.46506e-05 -1.79828e-05
-1.64853e-06 -3.12499e-06 -7.2103e-06
6.32829e-06 1.1369e-05 -1.40773e-05
5.33725e-07 -2.40873e-05 -1.73029e-05
-5.228e-07 1.80962e-06 -4.64526e-06
7.40786e-06 -1.43445e-05 -1.51532e-05
2.3304e-05 -1.321e-05 -1.77295e-05
2.36338e-05 -1.05381e-05 -1.74915e-05
1.19891e-05 -1.82119e-05 -1.62941e-05
1.47309e-05 -1.01472e-05 -1.57964e-05
-1.00276e-05 1.0013e-06 -1.27553e-05
-1.74009e-06 -8.15936e-07 -4.72371e-06
7.691e-07 3.70853e-06 -7.57356e-06
2.34318e-06 -1.99725e-06 -6.55565e-06
2.01576e-05 5.89817e-06 -1.64544e-05
5.07033e-06 2.05971e-05 -1.64968e-05
3.4212e-07 -2.76813e-05 -1.78547e-05
-1.7313e-06 7.09141e-07 -4.60657e-06
-3.21165e-06 6.23076e-07 -6.82452e-06
3.57738e-06 1.47548e-06 -7.63705e-06
4.9923e-07 2.83252e-05 -1.79279e-05
2.47615e-05 1.37347e-05 -1.79191e-05
-2.03294e-05 1.55366e-05 -1.74297e-05
1.17876e-06 1.36453e-06 -4.4601e-06
-2.06407e-05 -1.57291e-05 -1.75283e-05
-1.89999e-05 -2.32232e-06 -1.5947e-05
-1.95602e-05 -5.58531e-06 -1.6333e-05
9.05724e-07 -3.2479e-06 -7.00649e-06
-4.36625e-06 -1.97904e-05 -1.63226e-05
-7.93773e-06 1.38352e-05 -1.51019e-05
1.1658e-06 -1.30424e-06 -4.33953e-06
1.19351e-05 -1.1229e-05 -1.5293e-05
6.13334e-06 -2.26973e-05 -1.68213e-05
-1.4523e-05 1.43561e-05 -1.63244e-05
7.92952e-06 1.3322e-05 -1.49488e-05
SCALARS effective_fluid_pressure_TPM float
LOOKUP_TABLE default
665
665
665
665
665
665
665
665
665
665
665
665
665
665
133
665
665
665
665
665
665
665
665
665
665
665
665
665
665
133
665
560.334
520.684
502.827
502.598
519.811
559.955
665
562
520.779
503.27
503.38
520.711
561.622
665
559.621
519.682
502.772
502.99
521.18
561.638
665
558.878
519.026
501.561
502.257
518.876
559.466
665
558.518
519.966
501.893
501.825
519.399
557.957
665
558.674
519.98
502.066
501.927
519.387
559.68
133
133
133
133
133
133
665
560.334
520.684
502.827
502.598
519.811
559.955
665
562
520.779
503.27
503.38
520.711
561.622
665
559.621
519.682
502.772
502.99
521.18
561.638
665
558.878
519.026
501.561
502.257
518.876
559.466
665
558.518
519.966
501.893
501.825
519.399
557.957
665
558.674
519.98
502.066
501.927
519.387
559.68
133
133
133
133
133
133
228.264
226.335
227.048
224.116
225.532
219.853
220.87
529.183
528.193
526.572
527.951
526.599
527.652
498.723
503.569
501.608
498.964
501.48
501.262
494.344
562.515
518.997
495.046
480.753
461.373
443.293
425.061
402.133
427.285
385.279
417.753
379.625
417.916
385.963
427.402
404.312
444.396
429.091
450.274
386.573
419.316
380.22
418.328
386.203
427.775
404.24
444.507
428.175
450.87
386.048
418.179
379.636
418.536
385.571
427.611
402.933
443.569
426.466
384.064
416.152
376.32
415.359
383.036
424.433
400.859
441.719
425.24
382.773
417.792
376.584
418.11
383.858
425.28
402.226
442.691
450.664
426.74
446.022
380.745
444.688
465.303
448.755
464.776
453.425
350.918
463.518
461.05
478.456
462.785
460.656
478.361
337.292
480.832
505.863
503.623
480.898
506.17
337.705
337.517
326.18
334.43
563.391
519.673
567.592
562.378
567.909
567.762
521.821
542.73
498.636
513.747
542.075
451.467
477.584
414.67
579.531
611.036
579.684
576.045
534.566
494.486
538.239
537.936
485.044
498.122
503.34
473.146
485.091
352.763
326.43
355.193
503.451
477.723
488.366
520.89
502.034
477.921
335.556
335.419
347.715
613.453
337.393
347.586
337.28
353.219
329.203
373.272
310.673
288.799
504.717
608.389
521.111
493.728
478.333
486.361
526.505
600.349
476.57
615.906
291.409
615.805
528.734
494.54
478.24
479.415
501.321
494.846
479.441
502.516
495.179
493.75
502.268
495.253
479.888
480.054
479.056
289.306
454.596
271.953
455.004
453.633
527.014
479.477
465.226
382.115
480.512
292.681
286.093
461.483
449.637
453.981
445.859
448.693
463.608
463.265
479.957
543.47
601.71
487.497
300.314
282.472
453.017
279.174
552.252
552.011
480.778
458.021
526.236
508.19
488.593
233.737
284.57
614.513
636.326
615.147
636.682
285.291
441.344
553.092
230.493
467.556
590.273
566.043
495.819
490.052
410.048
232.126
293.108
271.136
507.899
509.196
607.822
229.67
276.987
294.442
618.884
618.797
558.525
226.529
562.537
488.317
503.398
280.858
504.069
466.382
224.014
473.589
519.583
502.984
462.449
228.264
226.335
227.048
224.116
225.532
219.853
220.87
529.183
528.193
526.572
527.951
526.599
527.652
498.723
503.569
501.608
498.964
501.48
501.262
494.344
562.515
518.997
495.046
480.753
461.373
443.293
425.061
402.133
427.285
385.279
417.753
379.625
417.916
385.963
427.402
404.312
444.396
429.091
450.274
386.573
419.316
380.22
418.328
386.203
427.775
404.24
444.507
428.175
450.87
386.048
418.179
379.636
418.536
385.571
427.611
402.933
443.569
426.466
384.064
416.152
376.32
415.359
383.036
424.433
400.859
441.719
425.24
382.773
417.792
376.584
418.11
383.858
425.28
402.226
442.691
450.664
426.74
446.022
380.745
444.688
465.303
448.755
464.776
453.425
350.918
463.518
461.05
478.456
462.785
460.656
478.361
337.292
480.832
505.863
503.623
480.898
506.17
337.705
337.517
326.18
334.43
563.391
519.673
567.592
562.378
567.909
567.762
521.821
542.73
498.636
513.747
542.075
451.467
477.584
414.67
579.531
611.036
579.684
576.045
534.566
494.486
538.239
537.936
485.044
498.122
503.34
473.146
485.091
352.763
326.43
355.193
503.451
477.723
488.366
520.89
502.034
477.921
335.556
335.419
347.715
613.453
337.393
347.586
337.28
353.219
329.203
373.272
310.673
288.799
504.717
608.389
521.111
493.728
478.333
486.361
526.505
600.349
476.57
615.906
291.409
615.805
528.734
494.54
478.24
479.415
501.321
494.846
479.441
502.516
495.179
493.75
502.268
495.253
479.888
480.054
479.056
289.306
454.596
271.953
455.004
453.633
527.014
479.477
465.226
382.115
480.512
292.681
286.093
461.483
449.637
453.981
445.859
448.693
463.608
463.265
479.957
543.47
601.71
487.497
300.314
282.472
453.017
279.174
552.252
552.011
480.778
458.021
526.236
508.19
488.593
233.737
284.57
614.513
636.326
615.147
636.682
285.291
441.344
553.092
230.493
467.556
590.273
566.043
495.819
490.052
410.048
232.126
293.108
271.136
507.899
509.196
607.822
229.67
276.987
294.442
618.884
618.797
558.525
226.529
562.537
488.317
503.398
280.858
504.069
466.382
224.014
473.589
519.583
502.984
462.449

CELL_DATA 563
TENSORS stress float
164.619 -24.9211 -1.44003e-12
-24.9211 28.1511 -1.74675e-12
-1.44003e-12 -1.74675e-12 -12.6019

-40.3393 -21.3206 -4.46695e-12
-21.3206 -7.35483 6.57252e-13
-4.46695e-12 6.57252e-13 -10.2333

-9.94152 28.0449 -2.81908e-12
28.0449 -1.11115 8.30447e-13
-2.81908e-12 8.30447e-13 -6.36216

-40.4272 -29.8425 -1.1758e-12
-29.8425 -12.8458 3.05104e-12
-1.1758e-12 3.05104e-12 -10.5996

-22.6915 19.9309 6.7768e-13
19.9309 -1.92508 7.16915e-12
6.7768e-13 7.16915e-12 -23.0205

-27.1418 -18.0756 -2.92418e-12
-18.0756 15.888 -2.68111e-12
-2.92418e-12 -2.68111e-12 -6.41295

161.271 26.4853 -1.69583e-12
26.4853 28.0278 5.88093e-12
-1.69583e-12 5.88093e-12 -13.2609

-5.96248 29.9589 -2.7652e-13
29.9589 -10.1128 7.72715e-14
-2.7652e-13 7.72715e-14 -7.27792

34.6322 5.48343 -2.02978e-12
5.48343 -19.0974 -1.22313e-12
-2.02978e-12 -1.22313e-12 -4.12396

11.8602 -7.47762 -4.5078e-12
-7.47762 -48.2879 -3.11839e-12
-4.5078e-12 -3.11839e-12 -8.94855

104.2 16.3098 4.47879e-12
16.3098 -8.44376 -1.28016e-12
4.47879e-12 -1.28016e-12 -22.4538

-34.6392 -13.4538 -3.56604e-13
-13.4538 18.9657 5.42381e-13
-3.56604e-13 5.42381e-13 -7.1822

-6.02713 27.8344 2.18847e-12
27.8344 -4.59196 -2.65092e-12
2.18847e-12 -2.65092e-12 -6.16087

-35.5534 -14.3407 9.23669e-13
-14.3407 7.84504 -3.25073e-12
9.23669e-13 -3.25073e-12 -9.13282

-23.6537 33.3098 3.59209e-12
33.3098 -24.9932 1.60943e-12
3.59209e-12 1.60943e-12 -21.3646

21.3112 0.561047 2.19143e-12
0.561047 -32.3404 2.54704e-12
2.19143e-12 2.54704e-12 -5.59146

-48.96 -17.9689 3.19968e-12
-17.9689 6.34253 1.50013e-12
3.19968e-12 1.50013e-12 -12.9471

11.6602 -2.6652 -3.33097e-12
-2.6652 -43.251 -1.30932e-12
-3.33097e-12 -1.30932e-12 -8.0354

-11.352 26.6757 2.53427e-13
26.6757 19.5172 -1.41694e-12
2.53427e-13 -1.41694e-12 -6.0914

21.7658 -4.19589 6.15212e-13
-4.19589 -35.2975 1.14153e-12
6.15212e-13 1.14153e-12 -6.74326

-24.4816 8.66932 -7.64574e-13
8.66932 32.1282 1.19016e-13
-7.64574e-13 1.19016e-13 -4.93605

-11.8085 6.28656 -2.28616e-12
6.28656 -11.9714 7.88258e-13
-2.28616e-12 7.88258e-13 -75.6103

22.7436 1.87606 -1.49865e-12
1.87606 -33.4719 -2.88362e-12
-1.49865e-12 -2.88362e-12 -6.67923

-12.3897 -27.7168 1.51671e-12
-27.7168 1.59887 -1.55431e-12
1.51671e-12 -1.55431e-12 -6.60466

21.3046 6.84975 1.03206e-12
6.84975 -34.3069 -3.07458e-13
1.03206e-12 -3.07458e-13 -6.80846

-37.907 19.1135 1.10697e-12
19.1135 2.65379 -2.13281e-12
1.10697e-12 -2.13281e-12 -9.45931

106.609 4.1817 8.52651e-13
4.1817 20.6034 4.02256e-12
8.52651e-13 4.02256e-12 -12.0487

-5.30295 30.7474 -7.4903e-13
30.7474 -7.27375 4.02611e-12
-7.4903e-13 4.02611e-12 -7.44338

27.8903 37.0773 9.69891e-13
37.0773 26.4694 -3.41653e-12
9.69891e-13 -3.41653e-12 -8.6335

-9.43916 10.3236 3.90739e-12
10.3236 -32.9268 6.16814e-12
3.90739e-12 6.16814e-12 -49.5031

19.831 14.2172 4.1999e-12
14.2172 -29.3611 1.12843e-12
4.1999e-12 1.12843e-12 -6.00261

-4.21237 -17.7818 -2.63789e-12
-17.7818 59.6604 -5.36104e-12
-2.63789e-12 -5.36104e-12 -8.4774

66.2868 -42.1043 -2.68348e-12
-42.1043 71.1423 5.35039e-12
-2.68348e-12 5.35039e-12 -11.2512

-48.2085 5.98587 5.67264e-12
5.98587 7.26923 2.3892e-13
5.67264e-12 2.3892e-13 -41.0337

-26.2906 -4.83934 1.0972e-12
-4.83934 1.75663 -5.62661e-12
1.0972e-12 -5.62661e-12 -37.7988

-1.46746 21.0275 3.91391e-12
21.0275 -39.5047 -2.86127e-12
3.91391e-12 -2.86127e-12 -41.0995

-43.9726 5.06617 3.96453e-12
5.06617 0.514097 -2.13222e-12
3.96453e-12 -2.13222e-12 -52.1851

-2.7609 -9.17056 -3.7194e-12
-9.17056 -20.7686 7.13466e-13
-3.7194e-12 7.13466e-13 -35.8935

-3.97539 -27.9994 9.36732e-13
-27.9994 -4.61104 -1.75149e-12
9.36732e-13 -1.75149e-12 -5.99623

65.6006 41.5236 8.97652e-13
41.5236 73.1701 1.45661e-12
8.97652e-13 1.45661e-12 -10.963

60.1579 -17.9505 4.31418e-12
-17.9505 0.115168 -1.63425e-13
4.31418e-12 -1.63425e-13 -8.05128

-41.8005 -3.70492 -3.10093e-12
-3.70492 -1.18567 -1.2698e-12
-3.10093e-12 -1.2698e-12 -52.7199

-14.5921 19.5536 3.78601e-12
19.5536 -28.5502 3.87157e-12
3.78601e-12 3.87157e-12 -52.828

18.1415 -12.2735 5.35868e-13
-12.2735 -29.901 7.1528e-13
5.35868e-13 7.1528e-13 -6.22478

38.1745 -43.3021 2.24887e-12
-43.3021 41.8028 -9.17784e-13
2.24887e-12 -9.17784e-13 -14.5595

58.1464 -18.0647 3.05889e-12
-18.0647 -2.30477 5.49072e-12
3.05889e-12 5.49072e-12 -7.91498

-21.4447 17.0869 7.60725e-13
17.0869 30.3277 -2.63138e-12
7.60725e-13 -2.63138e-12 -5.73027

-11.3745 19.3403 -4.72274e-12
19.3403 25.5109 7.57912e-14
-4.72274e-12 7.57912e-14 -3.92357

20.791 -16.3018 -9.10679e-13
-16.3018 -33.1169 -2.50688e-12
-9.10679e-13 -2.50688e-12 -7.31353

12.6145 -34.188 2.20209e-12
-34.188 46.4372 -5.18696e-13
2.20209e-12 -5.18696e-13 -10.3985

62.3629 19.1832 -9.11863e-13
19.1832 2.80875 -8.76928e-13
-9.11863e-13 -8.76928e-13 -8.41508

46.5151 -25.2902 2.61953e-12
-25.2902 5.13254 2.80309e-12
2.61953e-12 2.80309e-12 -5.6115

-31.8964 19.4845 -2.77674e-12
19.4845 -4.28502 1.35891e-12
-2.77674e-12 1.35891e-12 -26.0841

37.0399 29.6515 3.22231e-12
29.6515 14.5119 -4.77248e-12
3.22231e-12 -4.77248e-12 -5.43391

-27.4487 -21.8127 1.66385e-13
-21.8127 -8.22992 4.33695e-12
1.66385e-13 4.33695e-12 -25.2466

64.8715 -42.714 5.32907e-12
-42.714 44.0818 3.48876e-12
5.32907e-12 3.48876e-12 -9.50224

-27.7489 5.45831 -1.70219e-12
5.45831 2.66912 -4.3728e-13
-1.70219e-12 -4.3728e-13 -38.3043

-5.55999 -5.33023 9.22225e-13
-5.33023 57.3903 2.84336e-12
9.22225e-13 2.84336e-12 -5.45095

-0.201335 10.3845 3.76854e-12
10.3845 -24.8464 2.45153e-12
3.76854e-12 2.45153e-12 -38.3659

-26.4875 21.4143 -1.99337e-12
21.4143 12.2193 4.87492e-12
-1.99337e-12 4.87492e-12 -6.87165

4.72582 5.75445 3.56633e-12
5.75445 -56.0402 3.55982e-12
3.56633e-12 3.55982e-12 -13.9818

0.540281 11.459 3.00752e-12
11.459 -34.0573 4.70794e-12
3.00752e-12 4.70794e-12 -14.8401

106.349 31.8215 4.89801e-12
31.8215 37.8343 -2.62782e-12
4.89801e-12 -2.62782e-12 -7.48915

-35.4927 -6.03578 5.73956e-12
-6.03578 10.6013 -3.17376e-13
5.73956e-12 -3.17376e-13 -13.4794

-35.3604 9.52025 3.05356e-12
9.52025 1.23385 2.3214e-12
3.05356e-12 2.3214e-12 -14.9603

-42.5891 -2.88127 2.1189e-12
-2.88127 21.1107 -1.37904e-12
2.1189e-12 -1.37904e-12 -11.2398

-44.9086 23.4016 2.04096e-13
23.4016 -5.89263 2.90197e-12
2.04096e-13 2.90197e-12 -13.9228

9.97099 8.46395 -5.36371e-12
8.46395 -42.3799 -1.51434e-13
-5.36371e-12 -1.51434e-13 -9.07955

-12.3361 -28.241 -1.83735e-12
-28.241 1.68644 1.92083e-12
-1.83735e-12 1.92083e-12 -6.67584

1.30882 -1.71142 3.21757e-12
-1.71142 -55.457 -5.84125e-13
3.21757e-12 -5.84125e-13 -11.3054

-31.886 -19.2605 -8.40069e-13
-19.2605 -4.59431 5.90846e-12
-8.40069e-13 5.90846e-12 -25.9535

-27.9741 21.3078 -1.75356e-12
21.3078 -8.35968 5.79549e-12
-1.75356e-12 5.79549e-12 -26.0119

-0.653603 -16.5847 1.36173e-12
-16.5847 61.6764 -2.28321e-12
1.36173e-12 -2.28321e-12 -7.95011

-0.650295 -27.9367 3.84285e-13
-27.9367 -21.3625 5.17838e-12
3.84285e-13 5.17838e-12 -12.7917

-14.0945 -25.1359 -2.68319e-12
-25.1359 7.40651 -1.00305e-12
-2.68319e-12 -1.00305e-12 -5.23779

91.6831 -31.7125 -8.28967e-13
-31.7125 19.4857 -2.61006e-12
-8.28967e-13 -2.61006e-12 -16.3327

-33.7073 3.22292 -2.50281e-12
3.22292 9.19995 3.33363e-13
-2.50281e-12 3.33363e-13 -18.5631

2.75123 28.9446 -5.5896e-13
28.9446 -24.4254 2.45611e-12
-5.5896e-13 2.45611e-12 -11.3175

-38.4353 19.6647 4.33298e-12
19.6647 5.22949 -9.6545e-13
4.33298e-12 -9.6545e-13 -9.23681

50.1925 8.00011 3.54561e-12
8.00011 -16.9669 1.03088e-12
3.54561e-12 1.03088e-12 -7.06859

60.0341 -33.9379 -8.64494e-14
-33.9379 33.7876 -2.75335e-12
-8.64494e-14 -2.75335e-12 -6.98429

-18.9616 -10.5871 2.3519e-12
-10.5871 -0.540972 -1.80507e-12
2.3519e-12 -1.80507e-12 -25.4296

-33.9259 23.9 9.8795e-13
23.9 -12.0242 2.69015e-12
9.8795e-13 2.69015e-12 -14.541

58.1588 -32.3861 -5.35039e-12
-32.3861 18.0911 2.49519e-12
-5.35039e-12 2.49519e-12 -10.1345

66.8627 10.7918 -1.31924e-12
10.7918 8.512 1.80567e-12
-1.31924e-12 1.80567e-12 -5.08541

7.67345 -21.2074 -7.90035e-12
-21.2074 88.4693 -7.93439e-12
-7.90035e-12 -7.93439e-12 -11.8625

-33.9884 14.4262 -9.63822e-13
14.4262 20.2383 -8.41993e-13
-9.63822e-13 -8.41993e-13 -7.54822

8.47491 23.1441 4.22181e-13
23.1441 -26.075 -2.62161e-12
4.22181e-13 -2.62161e-12 -11.3

34.8699 42.2015 -2.21926e-12
42.2015 46.2013 -8.13571e-13
-2.21926e-12 -8.13571e-13 -14.421

-4.39437 16.5059 -4.88535e-12
16.5059 -35.5385 1.01742e-11
-4.88535e-12 1.01742e-11 -73.2776

-5.98215 -4.10868 1.62833e-14
-4.10868 57.9508 -2.18966e-12
1.62833e-14 -2.18966e-12 -5.44315

-1.81913 -16.6312 -1.06359e-11
-16.6312 -39.3982 -2.67105e-12
-1.06359e-11 -2.67105e-12 -74.1008

-3.33018 -27.3348 4.41484e-12
-27.3348 -30.0294 4.10738e-12
4.41484e-12 4.10738e-12 -21.5535

8.96665 27.425 6.99885e-13
27.425 -29.9964 -1.32131e-12
6.99885e-13 -1.32131e-12 -11.2582

45.7128 -24.4123 6.55949e-12
-24.4123 5.02286 -7.92847e-13
6.55949e-12 -7.92847e-13 -5.23758

10.0943 31.3256 3.41889e-12
31.3256 47.165 4.30115e-12
3.41889e-12 4.30115e-12 -9.64159

14.2718 -10.7058 -1.82432e-12
-10.7058 82.843 2.38979e-12
-1.82432e-12 2.38979e-12 -6.44757

-38.6335 21.9711 -2.03171e-12
21.9711 2.94128 -1.41961e-12
-2.03171e-12 -1.41961e-12 -8.57059

1.19303 16.7948 2.86882e-13
16.7948 -25.7232 -3.16902e-12
2.86882e-13 -3.16902e-12 -18.5673

-26.5396 15.1548 3.25133e-12
15.1548 18.4494 -3.41061e-13
3.25133e-12 -3.41061e-13 -5.70975

43.6603 15.9548 2.90612e-12
15.9548 -7.28729 -2.65625e-12
2.90612e-12 -2.65625e-12 -4.07684

12.5761 -21.4741 1.7959e-12
-21.4741 57.958 -6.82832e-12
1.7959e-12 -6.82832e-12 -4.71516

65.9995 -29.3927 -5.30539e-13
-29.3927 18.6434 8.41401e-13
-5.30539e-13 8.41401e-13 -9.3359

-32.382 -24.5738 -1.18113e-12
-24.5738 -7.28231 -1.87554e-12
-1.18113e-12 -1.87554e-12 -8.97805

-22.668 27.452 1.20437e-12
27.452 -10.3514 -4.31862e-12
1.20437e-12 -4.31862e-12 -9.28559

-38.3517 23.188 1.10549e-12
23.188 1.99083 -4.74909e-12
1.10549e-12 -4.74909e-12 -8.5265

-51.5538 13.1689 -2.04518e-12
13.1689 11.9262 -1.27128e-12
-2.04518e-12 -1.27128e-12 -16.4668

23.4851 9.37255 1.05693e-12
9.37255 -29.49 -1.22406e-12
1.05693e-12 -1.22406e-12 -5.32332

3.76736 -4.66534 -3.5237e-12
-4.66534 79.4421 4.80801e-13
-3.5237e-12 4.80801e-13 -9.53207

-44.939 -36.8322 -3.75699e-13
-36.8322 -19.8286 -7.03289e-13
-3.75699e-13 -7.03289e-13 -14.7715

-16.0813 27.4668 2.19084e-13
27.4668 1.34011 -3.26139e-12
2.19084e-13 -3.26139e-12 -6.91668

-5.01693 2.17041 -3.52881e-12
2.17041 82.678 2.02268e-12
-3.52881e-12 2.02268e-12 -13.4317

69.0487 34.6127 1.76451e-12
34.6127 15.4964 -2.20031e-12
1.76451e-12 -2.20031e-12 -10.7065

-31.3533 -22.9747 -3.21225e-13
-22.9747 -4.633 -9.88839e-13
-3.21225e-13 -9.88839e-13 -8.53168

11.743 5.73295 -4.83791e-12
5.73295 -48.3367 2.85993e-13
-4.83791e-12 2.85993e-13 -8.64289

43.067 27.206 3.44258e-12
27.206 10.451 -1.63899e-12
3.44258e-12 -1.63899e-12 -5.08226

-9.41333 12.745 3.36694e-12
12.745 -14.04 3.69926e-12
3.36694e-12 3.69926e-12 -37.0369

70.3379 24.3322 -2.13163e-12
24.3322 23.805 1.02792e-12
-2.13163e-12 1.02792e-12 -6.80006

-10.5844 -13.0545 1.36646e-12
-13.0545 -13.9219 -3.49291e-12
1.36646e-12 -3.49291e-12 -37.3747

-4.38165 0.77862 8.51763e-13
0.77862 59.4005 3.60956e-12
8.51763e-13 3.60956e-12 -4.8321

38.3581 -2.23547 1.9682e-12
-2.23547 -23.8139 3.51822e-12
1.9682e-12 3.51822e-12 -5.8343

3.5933 -15.767 2.07671e-12
-15.767 -53.9695 1.4578e-12
2.07671e-12 1.4578e-12 -21.1237

-42.2778 24.3883 -7.8994e-13
24.3883 -11.737 -5.64437e-13
-7.8994e-13 -5.64437e-13 -11.169

-46.8126 -13.5352 1.52976e-12
-13.5352 11.0669 -4.89386e-12
1.52976e-12 -4.89386e-12 -12.3548

5.80981 -7.99962 1.8674e-12
-7.99962 -70.9659 1.22184e-12
1.8674e-12 1.22184e-12 -14.8828

-49.5387 -22.2828 4.34423e-12
-22.2828 3.74761 -3.26435e-12
4.34423e-12 -3.26435e-12 -22.1037

-17.4587 -6.59772 -7.32244e-12
-6.59772 -13.1155 -1.86425e-12
-7.32244e-12 -1.86425e-12 -34.7783

-28.7303 -29.9084 2.9002e-12
-29.9084 -9.40001 1.16055e-13
2.9002e-12 1.16055e-13 -8.99758

15.6929 11.4544 -3.53258e-12
11.4544 80.1843 2.22637e-12
-3.53258e-12 2.22637e-12 -6.53122

42.2912 -28.1485 1.63188e-12
-28.1485 11.0499 -5.15143e-13
1.63188e-12 -5.15143e-13 -5.04552

-47.1703 -13.7711 1.03621e-12
-13.7711 4.19623 -2.97392e-12
1.03621e-12 -2.97392e-12 -29.2988

2.96461 0.504779 1.27276e-12
0.504779 -56.8126 1.95466e-12
1.27276e-12 1.95466e-12 -11.0068

-39.3373 -21.5242 -2.84099e-12
-21.5242 -8.85693 -7.79821e-13
-2.84099e-12 -7.79821e-13 -14.775

-40.1953 25.698 3.01389e-13
25.698 -14.6918 -1.37201e-12
3.01389e-13 -1.37201e-12 -11.3124

32.261 -31.4666 9.52127e-13
-31.4666 38.4304 3.17376e-13
9.52127e-13 3.17376e-13 -4.64933

-31.4684 -7.08358 -4.22055e-12
-7.08358 1.70116 -3.65337e-13
-4.22055e-12 -3.65337e-13 -40.9884

36.631 -33.0789 1.78465e-12
-33.0789 72.0306 3.75403e-12
1.78465e-12 3.75403e-12 -7.14498

16.6129 -19.1805 -2.80901e-12
-19.1805 -25.8719 6.4692e-12
-2.80901e-12 6.4692e-12 -7.13491

1.50241 1.97097 2.24487e-13
1.97097 -51.3915 -1.89863e-12
2.24487e-13 -1.89863e-12 -15.3749

-12.874 17.8745 3.53998e-12
17.8745 -16.9557 1.39947e-12
3.53998e-12 1.39947e-12 -41.0559

10.7121 20.1843 -2.0132e-13
20.1843 59.4566 6.25159e-12
-2.0132e-13 6.25159e-12 -4.35784

4.31754 27.2117 -3.96128e-13
27.2117 -16.2244 3.3212e-12
-3.96128e-13 3.3212e-12 -8.12564

30.9051 -24.513 -2.43006e-12
-24.513 -8.13443 -4.22477e-12
-2.43006e-12 -4.22477e-12 -4.87403

-37.7891 -17.839 9.71112e-13
-17.839 2.40076 -2.0064e-12
9.71112e-13 -2.0064e-12 -9.86604

55.5159 35.0705 3.86062e-12
35.0705 42.3468 -3.43903e-12
3.86062e-12 -3.43903e-12 -6.63679

-40.016 -21.8313 3.89022e-13
-21.8313 2.53673 -3.78986e-12
3.89022e-13 -3.78986e-12 -9.39556

2.96598 30.8514 -1.53477e-12
30.8514 -17.3901 1.74764e-12
-1.53477e-12 1.74764e-12 -9.07977

18.5373 -25.245 -1.38674e-12
-25.245 -19.42 -2.60976e-12
-1.38674e-12 -2.60976e-12 -6.34425

-15.6551 -25.1276 2.62398e-12
-25.1276 5.89534 -7.13503e-13
2.62398e-12 -7.13503e-13 -5.77743

42.7196 -18.6894 -4.36036e-12
-18.6894 -9.16814 -2.61717e-13
-4.36036e-12 -2.61717e-13 -5.37086

27.4323 -18.8507 1.21858e-12
-18.8507 -20.3709 -4.26859e-12
1.21858e-12 -4.26859e-12 -5.69167

-41.3941 -25.3373 5.55112e-14
-25.3373 -14.9644 3.0359e-12
5.55112e-14 3.0359e-12 -11.5685

29.7813 35.9718 2.40163e-12
35.9718 25.2272 2.65269e-12
2.40163e-12 2.65269e-12 -8.64561

-28.5198 15.3776 3.67943e-12
15.3776 18.5189 -7.10543e-14
3.67943e-12 -7.10543e-14 -5.87573

-23.1089 26.4231 2.0132e-14
26.4231 -12.5477 -1.51257e-12
2.0132e-14 -1.51257e-12 -9.95965

-42.0974 25.4736 8.48423e-13
25.4736 -11.5926 -1.30547e-12
8.48423e-13 -1.30547e-12 -10.9943

-37.2897 11.6221 4.22558e-12
11.6221 11.8441 -1.18957e-12
4.22558e-12 -1.18957e-12 -9.08186

64.3959 -8.22753 1.04213e-13
-8.22753 3.19604 -6.62137e-13
1.04213e-13 -6.62137e-13 -4.25202

8.73269 18.6077 -2.59999e-12
18.6077 59.2223 7.10424e-12
-2.59999e-12 7.10424e-12 -4.16348

-25.6162 -24.3814 -4.35652e-12
-24.3814 0.458119 2.34479e-13
-4.35652e-12 2.34479e-13 -7.21745

-1.14293 25.6674 -1.2772e-12
25.6674 13.7522 -1.94333e-12
-1.2772e-12 -1.94333e-12 -4.08454

32.3792 -35.6317 -2.02268e-12
-35.6317 21.6999 5.26986e-14
-2.02268e-12 5.26986e-14 -8.48735

59.5389 38.3191 4.56287e-12
38.3191 17.8478 7.10543e-14
4.56287e-12 7.10543e-14 -13.7228

12.1242 -33.3133 2.04873e-13
-33.3133 42.9148 4.44208e-12
2.04873e-13 4.44208e-12 -9.54391

30.5517 -31.1617 1.68043e-12
-31.1617 36.8144 4.92051e-12
1.68043e-12 4.92051e-12 -4.40659

11.7689 -6.83862 -3.20011e-12
-6.83862 -48.8387 -1.08521e-12
-3.20011e-12 -1.08521e-12 -8.7717

25.2744 30.3438 -1.70649e-12
30.3438 41.0901 4.20168e-12
-1.70649e-12 4.20168e-12 -4.45711

62.6848 13.2955 4.77603e-12
13.2955 5.22671 1.90899e-12
4.77603e-12 1.90899e-12 -4.30659

-7.02802 13.3797 -4.5001e-13
13.3797 61.3468 4.38405e-12
-4.5001e-13 4.38405e-12 -8.6962

11.7287 -22.3419 -2.7273e-12
-22.3419 55.7653 -4.22773e-12
-2.7273e-12 -4.22773e-12 -4.30256

-47.2603 -1.09206 2.80183e-12
-1.09206 12.4092 -3.20218e-12
2.80183e-12 -3.20218e-12 -22.1612

-5.92124 2.24679 3.03979e-12
2.24679 59.0067 -1.68991e-12
3.03979e-12 -1.68991e-12 -5.26385

6.26744 31.0913 1.39266e-12
31.0913 47.8669 8.53836e-13
1.39266e-12 8.53836e-13 -9.66171

-39.7261 12.1084 -3.40653e-14
12.1084 12.8444 -8.32519e-13
-3.40653e-14 -8.32519e-13 -9.31426

40.7393 -27.6494 -1.03976e-12
-27.6494 8.35645 -4.17977e-12
-1.03976e-12 -4.17977e-12 -5.64336

7.53905 20.557 -1.08387e-12
20.557 -47.4672 4.71415e-12
-1.08387e-12 4.71415e-12 -16.4822

-3.42181 26.2704 -2.93809e-12
26.2704 -31.4861 -3.04497e-13
-2.93809e-12 -3.04497e-13 -22.2516

15.7772 -18.5685 2.39986e-12
-18.5685 -30.0151 2.0132e-13
2.39986e-12 2.0132e-13 -8.18451

4.42804 -1.80244 2.01868e-12
-1.80244 -34.1329 -2.13577e-12
2.01868e-12 -2.13577e-12 -24.4381

-14.3407 -31.8126 -7.69755e-13
-31.8126 -11.9314 2.31489e-12
-7.69755e-13 2.31489e-12 -9.05104

56.2205 23.3293 2.48572e-12
23.3293 0.81508 3.71022e-12
2.48572e-12 3.71022e-12 -8.28918

-27.8286 30.1624 -1.05752e-12
30.1624 -9.23659 -3.65545e-12
-1.05752e-12 -3.65545e-12 -8.80184

-27.0042 29.2062 9.43245e-13
29.2062 -9.20189 2.10291e-12
9.43245e-13 2.10291e-12 -8.67913

28.6288 30.6629 2.37795e-12
30.6629 40.4069 1.75622e-12
2.37795e-12 1.75622e-12 -4.45008

0.343066 27.0857 7.53767e-13
27.0857 -19.8476 -2.3069e-12
7.53767e-13 -2.3069e-12 -11.7779

64.511 3.52538 3.45087e-12
3.52538 -11.8283 1.1761e-13
3.45087e-12 1.1761e-13 -10.0196

-14.9003 31.8172 -3.15895e-13
31.8172 -20.7989 -3.00708e-12
-3.15895e-13 -3.00708e-12 -12.4484

-37.9458 -12.5995 2.80435e-12
-12.5995 8.18018 -2.71723e-12
2.80435e-12 -2.71723e-12 -14.0234

-0.474813 24.2778 -5.79092e-13
24.2778 -29.9997 -1.58866e-12
-5.79092e-13 -1.58866e-12 -20.7707

-23.7281 -29.5791 -2.89842e-13
-29.5791 -11.935 -4.76656e-13
-2.89842e-13 -4.76656e-13 -8.84474

-38.1502 -4.89769 1.02586e-12
-4.89769 18.8468 -6.31791e-13
1.02586e-12 -6.31791e-13 -11.731

69.9479 -24.5579 -2.70243e-12
-24.5579 18.0285 3.70134e-12
-2.70243e-12 3.70134e-12 -7.04497

39.9831 29.6951 -1.91728e-12
29.6951 13.4787 6.16633e-12
-1.91728e-12 6.16633e-12 -5.21639

-4.29817 14.6975 -3.2081e-12
14.6975 60.574 8.6781e-12
-3.2081e-12 8.6781e-12 -8.4021

1.61132 -1.1391 -1.31746e-14
-1.1391 -56.124 -3.5334e-12
-1.31746e-14 -3.5334e-12 -11.2107

9.61414 0.00219265 -4.31211e-12
0.00219265 -44.7561 3.9808e-13
-4.31211e-12 3.9808e-13 -8.43978

-31.0803 23.1248 -2.31726e-12
23.1248 -4.33772 4.40063e-12
-2.31726e-12 4.40063e-12 -8.46021

-34.7622 23.8713 -3.21817e-13
23.8713 -13.1933 -1.03438e-12
-3.21817e-13 -1.03438e-12 -14.8138

-43.3793 -24.3809 -8.69249e-13
-24.3809 -12.6138 7.52435e-13
-8.69249e-13 7.52435e-13 -11.4701

-39.0609 -0.673197 -3.26957e-12
-0.673197 21.0463 4.99867e-12
-3.26957e-12 4.99867e-12 -10.4966

-40.807 25.5908 -1.68754e-12
25.5908 -13.223 2.53138e-12
-1.68754e-12 2.53138e-12 -11.1738

32.3225 -10.3086 -2.8173e-12
-10.3086 -25.1567 -1.60538e-12
-2.8173e-12 -1.60538e-12 -6.01614

8.70557 -32.8358 6.51331e-15
-32.8358 22.7977 -1.11141e-12
6.51331e-15 -1.11141e-12 -6.99372

2.3966 -2.30148 2.21201e-12
-2.30148 -49.9611 1.16233e-12
2.21201e-12 1.16233e-12 -14.7734

36.7465 -34.5107 -5.44749e-14
-34.5107 24.4798 -5.35157e-12
-5.44749e-14 -5.35157e-12 -7.71028

-38.2947 19.086 4.12026e-12
19.086 -7.09335 6.04257e-13
4.12026e-12 6.04257e-13 -14.4502

7.87059 -26.4791 -1.35062e-12
-26.4791 -27.9961 7.91663e-13
-1.35062e-12 7.91663e-13 -10.9701

63.9503 -9.69096 4.73814e-12
-9.69096 5.67604 -6.04139e-12
4.73814e-12 -6.04139e-12 -5.07341

6.03972 -23.1925 -4.50899e-12
-23.1925 -35.4687 1.18453e-12
-4.50899e-12 1.18453e-12 -17.7361

0.141427 2.35837 4.06638e-13
2.35837 -56.1746 2.876e-12
4.06638e-13 2.876e-12 -11.5475

-4.06241 -23.3222 -4.41958e-12
-23.3222 -23.4119 2.47994e-12
-4.41958e-12 2.47994e-12 -16.7199

11.0384 -25.8599 3.92871e-12
-25.8599 -29.4875 -3.21757e-12
3.92871e-12 -3.21757e-12 -9.73493

10.2011 -8.54672 1.12207e-12
-8.54672 -43.4919 1.14812e-12
1.12207e-12 1.14812e-12 -9.2831

-35.4177 -23.0685 -1.7133e-12
-23.0685 -12.6467 -1.91038e-12
-1.7133e-12 -1.91038e-12 -15.1037

23.6643 -31.344 2.03926e-12
-31.344 5.71115 1.0972e-12
2.03926e-12 1.0972e-12 -5.87999

11.0593 -24.5884 1.23516e-12
-24.5884 -27.4959 -4.2449e-12
1.23516e-12 -4.2449e-12 -10.0493

46.6448 10.8652 1.35832e-12
10.8652 -16.1202 1.89212e-12
1.35832e-12 1.89212e-12 -6.80161

-14.1863 26.341 -1.69168e-12
26.341 -15.6413 7.68126e-13
-1.69168e-12 7.68126e-13 -14.1196

-45.2509 -37.6118 -3.39284e-13
-37.6118 -20.6119 1.0593e-12
-3.39284e-13 1.0593e-12 -14.9199

-43.7078 37.2642 9.1512e-13
37.2642 -21.2656 1.33589e-12
9.1512e-13 1.33589e-12 -14.7703

-61.1834 -28.5727 -1.6771e-12
-28.5727 -7.49717 4.63688e-12
-1.6771e-12 4.63688e-12 -15.2004

-58.4145 27.0636 -6.91743e-13
27.0636 -6.27177 1.88945e-12
-6.91743e-13 1.88945e-12 -14.479

5.60039 -8.52723 5.70655e-13
-8.52723 -71.0624 -2.77452e-12
5.70655e-13 -2.77452e-12 -14.7106

4.39726 9.27321 1.71211e-12
9.27321 -68.8312 2.01824e-12
1.71211e-12 2.01824e-12 -14.4386

9.02384 -9.84674 -5.45934e-13
-9.84674 -40.8919 -3.24481e-13
-5.45934e-13 -3.24481e-13 -9.61343

-24.3354 32.1148 -2.59052e-13
32.1148 -24.809 -8.44019e-13
-2.59052e-13 -8.44019e-13 -21.1447

-25.5226 -32.8527 -6.4541e-14
-32.8527 -25.0951 -1.88891e-12
-6.4541e-14 -1.88891e-12 -21.4689

-53.9178 16.0682 3.61326e-12
16.0682 3.4009 3.00293e-12
3.61326e-12 3.00293e-12 -21.4023

-52.4188 -15.8007 2.26041e-13
-15.8007 3.29628 3.94618e-12
2.26041e-13 3.94618e-12 -21.0756

6.11122 -3.74874 -6.69538e-13
-3.74874 -43.9245 -1.46609e-12
-6.69538e-13 -1.46609e-12 -25.7638

6.91727 3.61147 3.422e-12
3.61147 -46.3478 -7.29194e-13
3.422e-12 -7.29194e-13 -26.1401

-15.6287 9.83758 4.32669e-12
9.83758 46.2642 -2.29505e-12
4.32669e-12 -2.29505e-12 -5.84977

-22.9195 -24.7751 -1.64994e-12
-24.7751 -14.5529 -9.17636e-13
-1.64994e-12 -9.17636e-13 -10.3314

-56.6025 -36.3867 -2.41066e-13
-36.3867 -14.5325 -3.38248e-13
-2.41066e-13 -3.38248e-13 -13.4384

33.3595 -4.6645 -3.22823e-12
-4.6645 -19.8495 -3.4898e-13
-3.22823e-12 -3.4898e-13 -3.94699

3.433 -16.6936 -1.78287e-12
-16.6936 -52.6272 -1.16351e-13
-1.78287e-12 -1.16351e-13 -21.5321

3.67415 16.1746 5.03301e-14
16.1746 -51.8829 2.91678e-12
5.03301e-14 2.91678e-12 -21.4054

6.55548 0.12187 1.87258e-12
0.12187 -76.7534 3.05062e-13
1.87258e-12 3.05062e-13 -13.3052

-7.57193 23.377 -5.48065e-12
23.377 39.937 -2.88954e-12
-5.48065e-12 -2.88954e-12 -6.88704

-56.8881 36.1707 6.03073e-13
36.1707 -14.0111 -2.14495e-13
6.03073e-13 -2.14495e-13 -13.3901

-39.7951 -23.3961 -7.53471e-13
-23.3961 2.56132 6.59324e-13
-7.53471e-13 6.59324e-13 -8.80246

37.1177 23.3545 -7.35412e-13
23.3545 -8.6154 7.04622e-14
-7.35412e-13 7.04622e-14 -5.76044

4.73437 23.8587 9.51535e-13
23.8587 -38.2262 9.68114e-13
9.51535e-13 9.68114e-13 -18.9857

24.0135 -31.3159 4.90274e-13
-31.3159 6.40711 -2.03985e-12
4.90274e-13 -2.03985e-12 -5.64995

2.43057 -3.23164 2.51206e-13
-3.23164 -48.3702 -2.83595e-12
2.51206e-13 -2.83595e-12 -14.7434

-60.4562 -34.1603 -1.45365e-13
-34.1603 -14.3498 -1.70974e-13
-1.45365e-13 -1.70974e-13 -14.032

-17.4556 8.32055 -8.49691e-13
8.32055 45.6935 -3.35968e-12
-8.49691e-13 -3.35968e-12 -5.78284

-9.47132 21.8133 -9.542e-13
21.8133 40.4264 1.9007e-12
-9.542e-13 1.9007e-12 -6.65555

58.6064 35.7784 -6.15804e-14
35.7784 37.0891 3.78956e-14
-6.15804e-14 3.78956e-14 -6.91646

70.4879 1.57889 -4.54392e-12
1.57889 -5.54509 4.4591e-12
-4.54392e-12 4.4591e-12 -10.3751

-30.7593 -22.805 -1.68665e-12
-22.805 -13.3571 -1.37118e-12
-1.68665e-12 -1.37118e-12 -14.4668

32.8422 31.1861 -3.44376e-12
31.1861 69.7978 8.8581e-13
-3.44376e-12 8.8581e-13 -6.67978

-19.3779 23.611 1.20851e-12
23.611 7.68674 4.44089e-12
1.20851e-12 4.44089e-12 -5.51515

47.6391 -5.34994 -4.80801e-13
-5.34994 -17.4364 1.05471e-12
-4.80801e-13 1.05471e-12 -6.82356

33.2204 11.2168 -3.30994e-12
11.2168 -23.64 -2.62842e-12
-3.30994e-12 -2.62842e-12 -6.01589

6.25401 0.429888 2.29416e-12
0.429888 -77.5506 -1.52445e-12
2.29416e-12 -1.52445e-12 -13.451

-58.9343 -29.0304 -1.80626e-12
-29.0304 -6.28827 3.75699e-13
-1.80626e-12 3.75699e-13 -14.698

-28.3315 -6.31829 7.87355e-12
-6.31829 -11.3563 4.85449e-12
7.87355e-12 4.85449e-12 -51.5832

-44.6973 37.4105 -7.93439e-13
37.4105 -20.811 -1.21551e-12
-7.93439e-13 -1.21551e-12 -14.7744

93.7957 1.66338 -1.78583e-12
1.66338 16.6551 2.11905e-13
-1.78583e-12 2.11905e-13 -6.04336

10.0354 -32.7895 -1.91254e-13
-32.7895 21.3108 -4.27095e-12
-1.91254e-13 -4.27095e-12 -6.80999

-56.9349 36.6121 -4.24253e-13
36.6121 -14.571 1.44477e-13
-4.24253e-13 1.44477e-13 -13.5063

-35.0817 -11.1342 -3.11344e-13
-11.1342 19.1773 9.78773e-13
-3.11344e-13 9.78773e-13 -8.31809

-5.47971 -25.5166 1.62033e-12
-25.5166 37.3514 -9.91207e-13
1.62033e-12 -9.91207e-13 -6.9888

-58.4509 28.8294 -4.17992e-12
28.8294 -6.27165 2.86882e-13
-4.17992e-12 2.86882e-13 -14.6151

28.4962 -26.1437 5.42085e-12
-26.1437 -4.91423 4.50484e-12
5.42085e-12 4.50484e-12 -4.69904

-21.1682 10.4838 4.57501e-12
10.4838 -18.5587 -9.64606e-12
4.57501e-12 -9.64606e-12 -51.6787

3.43134 30.8744 -8.52059e-13
30.8744 27.163 5.20709e-12
-8.52059e-13 5.20709e-12 -6.73479

6.14015 8.12633 -2.96859e-12
8.12633 -72.2959 -1.08713e-12
-2.96859e-12 -1.08713e-12 -14.9851

-11.5465 30.191 -9.02981e-13
30.191 -20.6031 -1.64698e-12
-9.02981e-13 -1.64698e-12 -11.5502

-30.7991 23.3328 -2.09655e-12
23.3328 -5.10023 -4.50484e-12
-2.09655e-12 -4.50484e-12 -8.46623

-25.8635 -32.4874 -5.58664e-13
-32.4874 -24.1118 -2.37199e-12
-5.58664e-13 -2.37199e-12 -21.5583

9.20474 -23.1913 4.85538e-13
-23.1913 -27.9233 -4.80505e-13
4.85538e-13 -4.80505e-13 -11.4267

-37.6616 10.4697 -4.95419e-12
10.4697 8.92898 8.47322e-13
-4.95419e-12 8.47322e-13 -25.3297

-23.042 -23.4347 3.80851e-12
-23.4347 4.95214 -2.42769e-13
3.80851e-12 -2.42769e-13 -6.26488

88.8083 -9.70858 1.03266e-12
-9.70858 10.8067 6.21236e-12
1.03266e-12 6.21236e-12 -10.0312

84.0484 -14.2781 1.37372e-12
-14.2781 2.8116 -3.3662e-12
1.37372e-12 -3.3662e-12 -13.1972

5.88705 16.5304 6.94259e-13
16.5304 -33.9323 -9.13344e-13
6.94259e-13 -9.13344e-13 -22.3752

-16.4233 22.5032 6.93667e-13
22.5032 16.2279 8.17716e-13
6.93667e-13 8.17716e-13 -5.08728

-3.9131 29.1645 -1.81781e-12
29.1645 -12.2314 2.46085e-12
-1.81781e-12 2.46085e-12 -8.39792

50.9949 0.688706 9.01205e-13
0.688706 -6.53411 5.27568e-12
9.01205e-13 5.27568e-12 -3.63603

-48.1419 6.57068 -6.93029e-13
6.57068 14.7858 2.57039e-12
-6.93029e-13 2.57039e-12 -18.9524

10.1157 16.5407 -6.2812e-12
16.5407 -36.0809 -5.58368e-13
-6.2812e-12 -5.58368e-13 -9.13682

-4.5058 -25.7631 -1.44832e-12
-25.7631 35.5564 -1.84386e-12
-1.44832e-12 -1.84386e-12 -6.74879

-39.1932 -2.57204 1.63628e-13
-2.57204 21.5044 6.49022e-12
1.63628e-13 6.49022e-12 -10.6705

-7.99281 13.3663 -1.94126e-12
13.3663 44.4069 8.88178e-14
-1.94126e-12 8.88178e-14 -3.94602

3.73428 -29.7144 2.88776e-12
-29.7144 -17.3665 4.78432e-13
2.88776e-12 4.78432e-13 -8.92202

21.4257 -29.9496 1.43293e-12
-29.9496 14.7557 5.32907e-13
1.43293e-12 5.32907e-13 -3.91958

6.87967 31.6252 5.95672e-13
31.6252 25.4019 -1.64195e-12
5.95672e-13 -1.64195e-12 -6.82992

2.78482 -15.0195 3.40528e-12
-15.0195 -39.2638 1.89656e-12
3.40528e-12 1.89656e-12 -63.3035

-46.1594 2.04177 -1.53285e-12
2.04177 11.4611 2.00314e-12
-1.53285e-12 2.00314e-12 -22.7559

-55.4427 20.2991 1.95592e-12
20.2991 3.09474 -6.19652e-13
1.95592e-12 -6.19652e-13 -22.9152

5.91573 15.4381 9.65154e-14
15.4381 -58.8165 -1.82343e-12
9.65154e-14 -1.82343e-12 -23.0353

-18.9224 -26.1897 2.35782e-12
-26.1897 -12.9143 1.57296e-12
2.35782e-12 1.57296e-12 -9.65417

41.3475 17.9584 3.67114e-13
17.9584 -6.27313 -1.67333e-12
3.67114e-13 -1.67333e-12 -3.86313

-44.6817 -5.29324 5.24155e-13
-5.29324 4.53843 -6.27054e-13
5.24155e-13 -6.27054e-13 -39.1413

7.49941 -18.9879 4.7636e-13
-18.9879 -39.8952 1.56734e-12
4.7636e-13 1.56734e-12 -11.6609

30.2917 -15.5996 2.51591e-12
-15.5996 -20.511 1.7466e-12
2.51591e-12 1.7466e-12 -4.80692

-9.64062 11.6041 8.31631e-13
11.6041 44.3207 -5.36104e-12
8.31631e-13 -5.36104e-12 -3.8608

8.33283 -25.7361 2.08189e-12
-25.7361 32.9927 -2.00136e-12
2.08189e-12 -2.00136e-12 -3.63467

-10.244 -25.2739 8.92323e-13
-25.2739 -19.1016 -4.46783e-12
8.92323e-13 -4.46783e-12 -23.1738

17.0046 31.9618 4.60195e-12
31.9618 11.1964 -1.02969e-12
4.60195e-12 -1.02969e-12 -5.74814

-1.06907 -25.1343 -1.8711e-13
-25.1343 -30.7634 -2.35693e-12
-1.8711e-13 -2.35693e-12 -20.8909

48.067 2.59753 4.46813e-12
2.59753 -8.41203 8.24452e-13
4.46813e-12 8.24452e-13 -3.53327

6.55197 -28.9325 -4.46458e-12
-28.9325 72.0543 1.42109e-14
-4.46458e-12 1.42109e-14 -14.552

21.7913 -29.233 -4.3953e-12
-29.233 13.9631 -5.89395e-12
-4.3953e-12 -5.89395e-12 -3.93197

35.3522 32.1612 1.00305e-12
32.1612 74.138 -1.73846e-12
1.00305e-12 -1.73846e-12 -5.44199

-45.2846 -11.8765 -2.8937e-12
-11.8765 13.9217 1.84623e-12
-2.8937e-12 1.84623e-12 -15.3269

-14.4231 -13.8224 1.3524e-12
-13.8224 43.3837 -7.03437e-13
1.3524e-12 -7.03437e-13 -5.67445

-19.241 -23.9862 2.70776e-12
-23.9862 -19.8298 1.60982e-12
2.70776e-12 1.60982e-12 -64.2451

2.4368 23.7726 -4.39115e-12
23.7726 36.0077 1.50635e-12
-4.39115e-12 1.50635e-12 -3.71273

-15.1828 -32.7264 -3.74486e-12
-32.7264 -21.1201 2.70273e-12
-3.74486e-12 2.70273e-12 -14.3137

-14.5678 -11.964 -4.68514e-14
-11.964 45.5321 -1.85452e-12
-4.68514e-14 -1.85452e-12 -5.74061

7.83539 -19.1167 -8.72487e-13
-19.1167 -43.1224 -2.68704e-12
-8.72487e-13 -2.68704e-12 -12.6329

6.54447 23.8789 -1.96287e-12
23.8789 35.1722 -1.63543e-12
-1.96287e-12 -1.63543e-12 -3.44365

23.1739 -4.97564 -1.97709e-12
-4.97564 -30.6782 -2.80957e-12
-1.97709e-12 -2.80957e-12 -5.36607

36.9718 -30.3443 -1.82965e-12
-30.3443 122.633 7.63833e-12
-1.82965e-12 7.63833e-12 -6.24099

-26.8714 21.0151 1.40036e-12
21.0151 8.43402 4.96492e-12
1.40036e-12 4.96492e-12 -7.13188

40.3396 -19.3246 4.32247e-12
-19.3246 -11.3748 6.77976e-14
4.32247e-12 6.77976e-14 -5.72766

6.52724 -21.4457 4.78847e-12
-21.4457 -45.5575 -1.56083e-12
4.78847e-12 -1.56083e-12 -24.9707

20.7049 31.7563 -8.22453e-12
31.7563 9.55654 -7.59097e-13
-8.22453e-12 -7.59097e-13 -5.80768

13.9185 -29.9734 1.05989e-12
-29.9734 -7.60745 1.00394e-12
1.05989e-12 1.00394e-12 -5.94601

6.75515 20.8857 1.46786e-12
20.8857 -27.7936 -1.14249e-12
1.46786e-12 -1.14249e-12 -11.1097

-38.2746 -28.0761 -4.8539e-13
-28.0761 -14.0383 -1.62803e-12
-4.8539e-13 -1.62803e-12 -11.0624

8.64529 -26.2272 5.5144e-12
-26.2272 31.1715 -4.73695e-15
5.5144e-12 -4.73695e-15 -3.63672

15.3308 28.9831 6.03961e-14
28.9831 19.1537 1.69583e-12
6.03961e-14 1.69583e-12 -3.88456

28.6408 26.193 -5.44749e-14
26.193 -5.63512 -3.3511e-12
-5.44749e-14 -3.3511e-12 -4.80365

7.91422 -14.6109 1.36158e-12
-14.6109 -36.8786 7.83669e-13
1.36158e-12 7.83669e-13 -13.9919

-6.84336 -16.6189 -2.22489e-12
-16.6189 41.3421 1.53951e-13
-2.22489e-12 1.53951e-13 -3.961

17.4408 -17.5686 1.38852e-12
-17.5686 -31.0009 -8.49247e-13
1.38852e-12 -8.49247e-13 -7.1067

19.8417 16.9094 2.2311e-12
16.9094 -31.6667 6.13435e-13
2.2311e-12 6.13435e-13 -7.33616

-33.6807 -9.38579 5.98888e-12
-9.38579 8.7563 -2.70598e-12
5.98888e-12 -2.70598e-12 -23.9915

43.433 -13.4308 4.3876e-12
-13.4308 -8.37092 1.09601e-12
4.3876e-12 1.09601e-12 -3.80573

-19.3811 0.594182 1.61249e-12
0.594182 43.1466 1.03858e-12
1.61249e-12 1.03858e-12 -4.77709

28.0565 18.5558 -2.72079e-12
18.5558 -18.2012 1.79175e-12
-2.72079e-12 1.79175e-12 -4.75137

25.5287 27.6057 9.69891e-13
27.6057 -3.77726 -1.79886e-12
9.69891e-13 -1.79886e-12 -4.7728

-6.71718 -15.6873 3.62377e-13
-15.6873 43.7999 -2.86704e-12
3.62377e-13 -2.86704e-12 -3.8495

-19.9091 -1.20227 7.43109e-14
-1.20227 42.1291 -3.45442e-12
7.43109e-14 -3.45442e-12 -4.68866

-5.47327 29.1346 1.80774e-12
29.1346 -23.6479 7.84558e-14
1.80774e-12 7.84558e-14 -16.797

-37.2754 -10.9227 -1.69287e-12
-10.9227 21.6799 7.53175e-13
-1.69287e-12 7.53175e-13 -7.83144

27.1435 -26.717 -5.66006e-12
-26.717 -5.53231 -2.69533e-12
-5.66006e-12 -2.69533e-12 -4.94585

40.7202 21.3341 2.07478e-12
21.3341 -8.37222 -3.4864e-12
2.07478e-12 -3.4864e-12 -5.46913

12.3781 23.6659 2.11683e-12
23.6659 -27.1288 9.19857e-13
2.11683e-12 9.19857e-13 -8.66821

-37.7982 5.47133 -1.78309e-12
5.47133 23.3114 -1.18128e-12
-1.78309e-12 -1.18128e-12 -8.59865

18.5926 29.0676 -2.41585e-12
29.0676 17.3775 9.81141e-13
-2.41585e-12 9.81141e-13 -3.94863

-9.98826 22.9639 -6.33271e-13
22.9639 -14.9145 -4.59706e-12
-6.33271e-13 -4.59706e-12 -24.0247

68.3211 -59.6951 -3.58114e-12
-59.6951 36.3375 -9.45022e-13
-3.58114e-12 -9.45022e-13 -23.0099

17.5305 -25.0492 1.24167e-12
-25.0492 -17.9937 4.65405e-13
1.24167e-12 4.65405e-13 -6.4192

10.0576 7.07037 -6.2735e-12
7.07037 82.5549 6.06093e-12
-6.2735e-12 6.06093e-12 -7.16579

11.9197 -28.891 4.08621e-12
-28.891 -3.88253 -2.47269e-12
4.08621e-12 -2.47269e-12 -5.16741

-66.9437 -52.7033 8.90547e-13
-52.7033 143.26 2.62427e-12
8.90547e-13 2.62427e-12 -49.6665

-68.3871 51.454 9.58048e-13
51.454 142.547 2.78533e-12
9.58048e-13 2.78533e-12 -49.8557

19.5744 117.159 -2.0061e-12
117.159 64.1357 1.89478e-14
-2.0061e-12 1.89478e-14 -48.357

20.5333 -117.102 2.84217e-12
-117.102 61.0324 -5.0638e-12
2.84217e-12 -5.0638e-12 -48.7218

157.754 -1.36344 4.68958e-13
-1.36344 -79.1865 2.89178e-14
4.68958e-13 2.89178e-14 -48.9088

110.334 -91.1296 1.91373e-12
-91.1296 -36.6875 -4.59484e-13
1.91373e-12 -4.59484e-13 -50.3034

110.387 91.6575 2.37795e-12
91.6575 -36.4977 -8.19493e-13
2.37795e-12 -8.19493e-13 -50.1762

7.84621 14.3311 -1.66563e-12
14.3311 -42.6822 -2.07449e-12
-1.66563e-12 -2.07449e-12 -15.0796

-11.7901 25.5358 -9.35548e-14
25.5358 -27.4049 6.94496e-12
-9.35548e-14 6.94496e-12 -35.135

12.4382 6.60646 1.71122e-13
6.60646 -40.5359 -1.22413e-12
1.71122e-13 -1.22413e-12 -8.25417

26.255 21.786 1.88116e-12
21.786 -19.5308 -2.53249e-12
1.88116e-12 -2.53249e-12 -5.85258

-21.2327 17.7457 -2.3254e-12
17.7457 29.8689 2.83388e-12
-2.3254e-12 2.83388e-12 -6.16417

22.5302 28.9004 2.2915e-13
28.9004 -0.776702 -3.57285e-12
2.2915e-13 -3.57285e-12 -4.73244

4.05465 -29.6646 1.78109e-12
-29.6646 -17.4672 -6.37712e-13
1.78109e-12 -6.37712e-13 -8.50573

25.9954 28.0297 -2.91026e-12
28.0297 -2.30305 9.39693e-13
-2.91026e-12 9.39693e-13 -4.73282

-19.3496 -2.84158 7.04177e-13
-2.84158 43.0726 2.51058e-12
7.04177e-13 2.51058e-12 -4.77165

-13.4105 -26.0967 3.25665e-13
-26.0967 -25.8387 6.05856e-12
3.25665e-13 6.05856e-12 -35.518

-19.8447 -4.86287 3.56618e-12
-4.86287 41.7776 -2.14702e-12
3.56618e-12 -2.14702e-12 -4.74553

-1.82743 23.0171 2.68822e-12
23.0171 -24.3773 1.17447e-12
2.68822e-12 1.17447e-12 -16.15

44.9841 26.8727 5.02354e-12
26.8727 8.11027 -3.36324e-12
5.02354e-12 -3.36324e-12 -5.37045

-52.5067 -13.2162 -5.26764e-12
-13.2162 0.150016 -3.48166e-13
-5.26764e-12 -3.48166e-13 -20.6168

20.2807 13.7287 1.15759e-12
13.7287 -31.1441 1.03562e-12
1.15759e-12 1.03562e-12 -7.04473

13.7003 -29.9894 2.01439e-12
-29.9894 -6.69312 -5.51707e-12
2.01439e-12 -5.51707e-12 -5.83695

29.6315 -24.715 -3.07902e-14
-24.715 -7.87569 5.27933e-12
-3.07902e-14 5.27933e-12 -4.82681

5.76394 -16.0757 4.32839e-12
-16.0757 -32.3342 2.39719e-12
4.32839e-12 2.39719e-12 -22.2546

12.6275 27.9303 -2.16479e-12
27.9303 -13.6406 -4.39056e-13
-2.16479e-12 -4.39056e-13 -6.42118

23.309 23.9789 1.95577e-12
23.9789 -17.9453 9.77884e-13
1.95577e-12 9.77884e-13 -5.96409

-31.0795 -2.79285 -1.71296e-12
-2.79285 30.1323 -8.23637e-13
-1.71296e-12 -8.23637e-13 -6.40005

-28.6322 5.87359 1.74358e-12
5.87359 33.3221 -1.70057e-12
1.74358e-12 -1.70057e-12 -6.06106

34.5496 2.64689 -2.39808e-12
2.64689 -26.1866 1.73195e-13
-2.39808e-12 1.73195e-13 -6.14395

50.6535 -7.29023 -1.3524e-12
-7.29023 -14.0846 -7.79673e-13
-1.3524e-12 -7.79673e-13 -6.78025

11.0406 30.4865 -1.52944e-12
30.4865 -4.78919 7.00062e-12
-1.52944e-12 7.00062e-12 -5.96792

17.4672 -26.1569 -2.03689e-12
-26.1569 -17.4566 -1.54188e-12
-2.03689e-12 -1.54188e-12 -6.35332

-0.0839189 -21.2546 -1.94037e-12
-21.2546 -27.9569 2.55055e-12
-1.94037e-12 2.55055e-12 -17.1663

4.93794 -31.6358 -1.71004e-12
-31.6358 4.86038 -1.92853e-12
-1.71004e-12 -1.92853e-12 -5.93684

-8.22914 -27.7876 -1.02081e-12
-27.7876 18.5787 -3.08731e-12
-1.02081e-12 -3.08731e-12 -6.1315

-1.65175 29.8893 2.63019e-12
29.8893 10.4468 2.59052e-12
2.63019e-12 2.59052e-12 -5.8019

-26.0193 -9.5785 2.23044e-12
-9.5785 32.9706 5.66243e-12
2.23044e-12 5.66243e-12 -5.78874

-31.3252 -1.54514 -3.33785e-12
-1.54514 31.6513 -5.36993e-12
-3.33785e-12 -5.36993e-12 -6.22491

-38.9177 5.74781 -1.26795e-12
5.74781 23.9466 1.77044e-13
-1.26795e-12 1.77044e-13 -9.1841

-17.2205 -21.0906 3.52873e-12
-21.0906 26.5715 2.65447e-12
3.52873e-12 2.65447e-12 -5.77356

13.0712 24.1124 3.13823e-13
24.1124 -28.1027 -1.11674e-12
3.13823e-13 -1.11674e-12 -9.20597

21.5554 -9.59031 1.56556e-12
-9.59031 -31.7091 9.26074e-13
1.56556e-12 9.26074e-13 -6.59961

-27.1563 7.46566 3.20044e-12
7.46566 34.3354 -1.42109e-12
3.20044e-12 -1.42109e-12 -5.87546

-35.238 -9.70129 -5.48585e-12
-9.70129 22.3138 -1.79649e-12
-5.48585e-12 -1.79649e-12 -8.18468

-29.1581 -16.3316 -2.21275e-12
-16.3316 19.3469 3.54798e-12
-2.21275e-12 3.54798e-12 -6.66326

36.9692 -8.23975 3.09915e-12
-8.23975 -20.2395 2.4493e-12
3.09915e-12 2.4493e-12 -5.10299

-14.8102 -32.3468 -8.42585e-13
-32.3468 -21.6276 1.435e-12
-8.42585e-13 1.435e-12 -12.9936

-22.8264 9.32169 -2.68822e-13
9.32169 33.3241 -1.24108e-12
-2.68822e-13 -1.24108e-12 -4.79024

-0.751546 -18.2129 -5.44365e-12
-18.2129 -35.1566 -3.57995e-12
-5.44365e-12 -3.57995e-12 -33.2749

4.9314 24.8246 -3.6285e-12
24.8246 75.3111 -2.48216e-12
-3.6285e-12 -2.48216e-12 -14.3194

-14.1419 -26.6268 -2.71161e-12
-26.6268 -16.3514 5.0373e-12
-2.71161e-12 5.0373e-12 -14.6411

-6.35715 -30.2029 -3.55508e-12
-30.2029 -23.6037 2.5994e-13
-3.55508e-12 2.5994e-13 -17.0879

-31.2732 -0.701064 1.32191e-13
-0.701064 31.501 -5.71513e-12
1.32191e-13 -5.71513e-12 -6.34977

28.4885 -16.6234 4.25734e-13
-16.6234 -18.0591 -3.90769e-12
4.25734e-13 -3.90769e-12 -4.43945

-37.8067 12.8418 -1.22169e-12
12.8418 11.1651 -3.37922e-12
-1.22169e-12 -3.37922e-12 -10.9899

-8.86133 -3.18097 5.6101e-12
-3.18097 111.058 6.33094e-12
5.6101e-12 6.33094e-12 -22.6709

-31.6051 14.2744 1.41058e-12
14.2744 21.3505 -2.13637e-12
1.41058e-12 -2.13637e-12 -7.12593

12.4213 -29.4911 2.74743e-12
-29.4911 -2.52057 2.41229e-12
2.74743e-12 2.41229e-12 -4.92966

33.6335 25.1072 -1.31983e-12
25.1072 124.037 1.9611e-12
-1.31983e-12 1.9611e-12 -6.21339

-13.5015 26.096 2.70258e-12
26.096 -19.0968 1.45069e-14
2.70258e-12 1.45069e-14 -58.8881

-9.55218 -27.8052 3.79045e-12
-27.8052 -22.8058 -1.68635e-12
3.79045e-12 -1.68635e-12 -59.5384

-2.86687 -30.4207 1.18424e-15
-30.4207 -7.32271 -3.92338e-12
1.18424e-15 -3.92338e-12 -7.28883

3.85911 -31.1625 4.08562e-14
-31.1625 5.63468 1.56438e-12
4.08562e-14 1.56438e-12 -6.06407

25.1526 20.8286 -5.85014e-13
20.8286 -17.0365 -3.33067e-13
-5.85014e-13 -3.33067e-13 -4.97833

31.8059 15.0072 -3.30521e-12
15.0072 -23.3039 -1.6076e-12
-3.30521e-12 -1.6076e-12 -5.95636

-9.48734 3.08227 -6.24345e-12
3.08227 -9.82963 6.14442e-12
-6.24345e-12 6.14442e-12 -80.9264

-5.54805 -6.99824 -9.41388e-12
-6.99824 -14.0401 -3.25902e-12
-9.41388e-12 -3.25902e-12 -80.2791

11.7488 4.82423 -3.67528e-12
4.82423 -43.2071 8.28226e-13
-3.67528e-12 8.28226e-13 -7.82898

-35.0587 6.73162 3.07295e-12
6.73162 24.3755 -2.20742e-12
3.07295e-12 -2.20742e-12 -7.56526

-36.1129 6.73639 6.61467e-12
6.73639 24.4328 2.81256e-13
6.61467e-12 2.81256e-13 -8.31024

74.5915 58.6381 -8.01019e-12
58.6381 34.1757 1.81662e-12
-8.01019e-12 1.81662e-12 -21.8721

-6.9218 -28.202 7.8811e-13
-28.202 16.8751 6.65779e-12
7.8811e-13 6.65779e-12 -6.11839

8.17183 17.9742 -4.22477e-13
17.9742 -44.8762 -6.80345e-13
-4.22477e-13 -6.80345e-13 -12.8974

32.7042 9.54025 -4.77603e-12
9.54025 -19.0826 -2.42103e-12
-4.77603e-12 -2.42103e-12 -4.07598

3.3867 -26.7252 -2.02327e-12
-26.7252 13.4839 -2.0511e-12
-2.02327e-12 -2.0511e-12 -3.82859

26.2379 -20.239 2.825e-12
-20.239 -20.3255 4.5226e-12
2.825e-12 4.5226e-12 -5.86485

65.3953 60.236 2.69533e-12
60.236 34.292 4.51076e-12
2.69533e-12 4.51076e-12 -23.867

-13.2429 31.0697 -3.12343e-12
31.0697 -16.8829 -4.84945e-13
-3.12343e-12 -4.84945e-13 -12.7867

-18.6069 -19.7876 -3.82094e-12
-19.7876 28.4154 3.18146e-12
-3.82094e-12 3.18146e-12 -5.97122

11.1738 28.8593 -3.67291e-12
28.8593 -13.3245 2.93099e-13
-3.67291e-12 2.93099e-13 -6.43764

-31.8716 -4.14531 2.92151e-12
-4.14531 30.1484 -2.2838e-12
2.92151e-12 -2.2838e-12 -6.35935

-14.5984 19.6107 1.89478e-13
19.6107 27.1858 -7.13799e-12
1.89478e-13 -7.13799e-12 -4.42035

7.47858 30.5208 3.41061e-13
30.5208 -1.67166 3.51127e-13
3.41061e-13 3.51127e-13 -5.66212

-9.34668 -22.4749 -2.59289e-12
-22.4749 23.1496 -9.22521e-13
-2.59289e-12 -9.22521e-13 -4.1771

4.58952 -27.3545 -5.64052e-12
-27.3545 11.4489 2.84336e-12
-5.64052e-12 2.84336e-12 -3.9401

24.2731 11.2577 -5.08023e-12
11.2577 102.086 -1.81662e-12
-5.08023e-12 -1.81662e-12 -12.4044

37.4679 -33.4588 1.7657e-12
-33.4588 69.2894 3.47929e-12
1.7657e-12 3.47929e-12 -5.70343

-25.338 -11.6913 -8.22749e-13
-11.6913 31.369 3.59535e-12
-8.22749e-13 3.59535e-12 -5.65002

16.0962 26.4862 -7.67978e-13
26.4862 -15.5035 5.46585e-12
-7.67978e-13 5.46585e-12 -6.2189

4.95482 29.4798 1.60464e-12
29.4798 1.6362 4.32602e-12
1.60464e-12 4.32602e-12 -4.99159

-9.85646 -21.4355 3.06125e-13
-21.4355 25.1214 -3.4639e-13
3.06125e-13 -3.4639e-13 -4.03487

-21.637 -11.7833 -1.70886e-12
-11.7833 32.0829 4.48234e-12
-1.70886e-12 4.48234e-12 -4.63882

10.4623 28.4114 2.36374e-12
28.4114 -0.157225 -3.80732e-13
2.36374e-12 -3.80732e-13 -4.67445

-21.8491 -13.8789 -2.88155e-12
-13.8789 29.468 -1.02437e-12
-2.88155e-12 -1.02437e-12 -4.84879

6.95801 27.8572 -1.30266e-12
27.8572 73.0894 -8.2423e-13
-1.30266e-12 -8.2423e-13 -14.3226

-45.8323 -4.04076 -6.20588e-12
-4.04076 14.0478 5.64881e-13
-6.20588e-12 5.64881e-13 -19.9645

0.875808 31.0299 -3.23889e-12
31.0299 7.51953 -1.56497e-12
-3.23889e-12 -1.56497e-12 -6.09084

9.71895 14.902 -1.09027e-11
14.902 -36.4307 -1.11614e-13
-1.09027e-11 -1.11614e-13 -10.9864

9.92799 -15.9284 -3.16576e-12
-15.9284 -39.4116 -2.44545e-13
-3.16576e-12 -2.44545e-13 -13.0699

85.6188 -24.2064 -1.07529e-12
-24.2064 7.63537 2.89901e-12
-1.07529e-12 2.89901e-12 -12.9581

-23.2087 -21.2684 1.09246e-12
-21.2684 10.5138 -4.27451e-12
1.09246e-12 -4.27451e-12 -6.16697

-16.6025 26.6998 3.25458e-12
26.6998 1.77793 4.22181e-13
3.25458e-12 4.22181e-13 -6.58948

-26.2003 -21.7276 2.96296e-12
-21.7276 -5.36689 2.07567e-12
2.96296e-12 2.07567e-12 -23.866

-41.5941 14.1049 -3.79252e-12
14.1049 -3.55957 -3.55834e-12
-3.79252e-12 -3.55834e-12 -64.1196

-0.893837 9.44525 3.19744e-12
9.44525 -44.2558 8.19493e-13
3.19744e-12 8.19493e-13 -64.221

-20.3835 32.7048 3.9823e-12
32.7048 -23.2033 6.36528e-14
3.9823e-12 6.36528e-14 -24.3286

-11.4128 26.0024 -3.03609e-12
26.0024 22.6043 2.46914e-12
-3.03609e-12 2.46914e-12 -5.92747

16.0387 26.6627 3.55153e-12
26.6627 -17.2893 -5.12834e-12
3.55153e-12 -5.12834e-12 -6.55142

30.4296 45.1894 -2.77112e-13
45.1894 47.5575 -5.2817e-12
-2.77112e-13 -5.2817e-12 -15.1954

-44.8858 -11.3422 4.03529e-13
-11.3422 -1.80775 -6.58436e-13
4.03529e-13 -6.58436e-13 -61.6762

-8.29805 -3.43213 1.79133e-12
-3.43213 -12.7525 9.90911e-13
1.79133e-12 9.90911e-13 -77.2171

-14.6888 -0.209335 4.00509e-12
-0.209335 -6.4185 -6.07092e-12
4.00509e-12 -6.07092e-12 -77.3613

27.6672 -53.806 -5.8679e-12
-53.806 71.1541 7.23806e-12
-5.8679e-12 7.23806e-12 -24.3888

-11.6896 -11.5994 1.04909e-12
-11.5994 -16.2052 2.77822e-12
1.04909e-12 2.77822e-12 -37.4273

-32.6096 8.81206 -2.27433e-12
8.81206 -9.41775 -7.40474e-12
-2.27433e-12 -7.40474e-12 -49.5357

18.2562 -26.2007 4.16023e-12
-26.2007 -19.5486 5.07298e-12
4.16023e-12 5.07298e-12 -6.5082

-39.431 1.01045 -1.96176e-12
1.01045 11.9804 -1.39858e-12
-1.96176e-12 -1.39858e-12 -19.7214

-30.2043 -20.269 2.2502e-12
-20.269 6.30484 6.30607e-13
2.2502e-12 6.30607e-13 -7.21781

10.5363 6.25546 -1.07766e-13
6.25546 -52.3905 1.31399e-12
-1.07766e-13 1.31399e-12 -9.64112

-49.8131 15.5963 2.97007e-12
15.5963 10.1648 -1.42138e-12
2.97007e-12 -1.42138e-12 -13.5319

-40.2853 7.19127 -2.64871e-12
7.19127 16.5414 -4.79853e-12
-2.64871e-12 -4.79853e-12 -13.7748

16.4048 20.394 -1.47911e-12
20.394 -25.8428 -7.25346e-13
-1.47911e-12 -7.25346e-13 -7.60913

-9.10041 -3.11391 -3.53088e-12
-3.11391 108.402 -2.59822e-12
-3.53088e-12 -2.59822e-12 -23.1013

-3.3213 -27.6253 6.22317e-13
-27.6253 -3.63001 9.35548e-13
6.22317e-13 9.35548e-13 -5.83165

-7.3356 -26.1176 1.63366e-12
-26.1176 -14.0828 5.52743e-13
1.63366e-12 5.52743e-13 -9.81186

-14.199 -31.4837 5.60737e-13
-31.4837 -21.7779 1.86962e-12
5.60737e-13 1.86962e-12 -12.7564

90.7337 32.7519 -1.7882e-12
32.7519 20.9076 1.82284e-12
-1.7882e-12 1.82284e-12 -16.5054

-23.1154 -20.1159 -7.66439e-12
-20.1159 -17.3855 -1.91884e-12
-7.66439e-12 -1.91884e-12 -44.423

72.6344 54.3255 -3.48166e-12
54.3255 91.6457 -8.86757e-12
-3.48166e-12 -8.86757e-12 -6.14141

-36.2162 -21.4391 2.968e-13
-21.4391 -6.79682 3.27235e-12
2.968e-13 3.27235e-12 -13.0439

15.034 14.6505 -2.26249e-12
14.6505 -37.7532 2.5322e-12
-2.26249e-12 2.5322e-12 -8.18017

44.5745 -14.5735 -5.50079e-12
-14.5735 -8.27423 -7.8663e-13
-5.50079e-12 -7.8663e-13 -4.42012

-21.232 24.0477 3.19715e-12
24.0477 4.95529 7.64426e-13
3.19715e-12 7.64426e-13 -5.97809

17.3733 20.4287 -1.65201e-12
20.4287 -26.7944 -2.5168e-12
-1.65201e-12 -2.5168e-12 -6.95299

-51.1392 11.3997 -3.37811e-12
11.3997 7.70994 -4.72037e-12
-3.37811e-12 -4.72037e-12 -29.9922

-7.28806 -31.5812 8.12683e-13
-31.5812 -12.8276 7.8663e-13
8.12683e-13 7.8663e-13 -8.12058

2.79574 19.8123 2.3439e-12
19.8123 -46.0322 2.07745e-12
2.3439e-12 2.07745e-12 -29.9841

-24.6728 -18.4445 -5.43861e-13
-18.4445 17.8363 2.75039e-12
-5.43861e-13 2.75039e-12 -5.4818

-42.3416 4.28367 2.35653e-12
4.28367 17.8693 -4.02819e-12
2.35653e-12 -4.02819e-12 -12.7288

-4.09803 9.92736 4.50573e-12
9.92736 -40.2737 1.91388e-12
4.50573e-12 1.91388e-12 -47.5436

-2.68839 -8.51409 1.62833e-12
-8.51409 -38.305 4.88942e-12
1.62833e-12 4.88942e-12 -47.3993

81.7276 18.5137 -1.81899e-12
18.5137 1.6991 3.18323e-12
-1.81899e-12 3.18323e-12 -14.4535

3.89503 7.96549 -2.29949e-12
7.96549 -45.1845 3.07339e-12
-2.29949e-12 3.07339e-12 -11.0195

35.8754 7.74112 -2.65269e-12
7.74112 184.583 9.00021e-14
-2.65269e-12 9.00021e-14 -9.7544

40.1491 -11.3859 2.68985e-12
-11.3859 190.381 -5.4096e-12
2.68985e-12 -5.4096e-12 -7.38611

53.7689 56.4091 8.90547e-13
56.4091 159.264 -1.29319e-12
8.90547e-13 -1.29319e-12 -11.4971

1.70805 -28.9513 6.19949e-13
-28.9513 -24.6915 3.57581e-12
6.19949e-13 3.57581e-12 -11.9637

16.0506 -49.1934 1.38674e-12
-49.1934 99.4248 6.25041e-12
1.38674e-12 6.25041e-12 -21.6883

54.5168 -55.9517 8.47914e-13
-55.9517 149.981 -5.49013e-12
8.47914e-13 -5.49013e-12 -13.6621

-2.16712 26.2219 2.6071e-12
26.2219 17.5727 2.48631e-12
2.6071e-12 2.48631e-12 -3.99765

134.946 73.8468 2.65269e-12
73.8468 85.0299 -2.63611e-12
2.65269e-12 -2.63611e-12 -10.1561

-18.7213 13.0466 -7.89887e-13
13.0466 -3.89932 1.247e-12
-7.89887e-13 1.247e-12 -26.7677

3.74082 0.0407939 3.3736e-12
0.0407939 -26.1893 1.09868e-12
3.3736e-12 1.09868e-12 -26.771

144.105 -73.1321 -8.52651e-13
-73.1321 85.3574 -4.48116e-12
-8.52651e-13 -4.48116e-12 -8.19329

-21.3952 -23.4254 -1.20378e-12
-23.4254 12.2478 -1.6005e-12
-1.20378e-12 -1.6005e-12 -6.49302

89.3513 34.7313 9.35548e-13
34.7313 41.392 -8.28967e-13
9.35548e-13 -8.28967e-13 -11.5474

72.192 63.4935 5.94014e-12
63.4935 149.701 5.4996e-12
5.94014e-12 5.4996e-12 -9.67074

26.1657 21.6316 -8.56204e-13
21.6316 100.139 -4.97617e-12
-8.56204e-13 -4.97617e-12 -13.0309

73.879 -65.9224 1.9161e-12
-65.9224 151.151 -4.57116e-12
1.9161e-12 -4.57116e-12 -9.3992

25.7702 -12.3818 -1.51038e-11
-12.3818 105.018 5.00933e-12
-1.51038e-11 5.00933e-12 -12.4278

-28.664 6.84038 8.55612e-14
6.84038 3.10741 -3.892e-12
8.55612e-14 -3.892e-12 -37.8499

37.7445 -45.9779 -3.50653e-12
-45.9779 49.6717 -1.86044e-12
-3.50653e-12 -1.86044e-12 -15.5326

14.4451 47.5347 1.86399e-12
47.5347 94.885 -5.31723e-12
1.86399e-12 -5.31723e-12 -22.1916

173.347 37.9131 -4.78432e-13
37.9131 48.0454 -2.64559e-12
-4.78432e-13 -2.64559e-12 -9.51943

7.02002 -29.2871 -2.00136e-13
-29.2871 -14.3595 2.64263e-12
-2.00136e-13 2.64263e-12 -7.1575

-38.4189 12.8964 7.3593e-13
12.8964 6.43555 5.66954e-13
7.3593e-13 5.66954e-13 -15.2909

88.5097 -38.1148 4.59721e-12
-38.1148 34.1646 2.70006e-12
4.59721e-12 2.70006e-12 -14.0991

6.04135 -28.8034 -1.05397e-12
-28.8034 -16.1736 -2.55351e-12
-1.05397e-12 -2.55351e-12 -8.03134

169.213 -36.3449 3.61429e-12
-36.3449 34.9322 1.15463e-13
3.61429e-12 1.15463e-13 -13.2874

-5.72576 -28.3186 1.13805e-12
-28.3186 -14.4741 5.33351e-12
1.13805e-12 5.33351e-12 -9.31077

-17.7925 -25.2965 1.11526e-12
-25.2965 12.0799 -7.82426e-12
1.11526e-12 -7.82426e-12 -5.93615

118.882 69.4632 9.75812e-13
69.4632 96.2246 8.17598e-12
9.75812e-13 8.17598e-12 -11.3975

29.4144 -22.9342 3.11691e-12
-22.9342 97.8016 8.13335e-12
3.11691e-12 8.13335e-12 -14.3394

117.965 -71.6953 3.73272e-12
-71.6953 93.686 -6.29541e-12
3.73272e-12 -6.29541e-12 -12.4135

22.2662 50.7402 2.72375e-14
50.7402 73.783 3.78956e-14
2.72375e-14 3.78956e-14 -24.7768

-1.53736 -30.2138 5.12953e-12
-30.2138 -6.55386 3.39965e-12
5.12953e-12 3.39965e-12 -6.99962

-7.04394 -14.6407 7.93262e-12
-14.6407 -21.92 5.18519e-12
7.93262e-12 5.18519e-12 -32.6115

-11.8917 11.0913 9.01871e-13
11.0913 -16.4278 3.0315e-12
9.01871e-13 3.0315e-12 -77.7835

-26.1654 -5.16024 4.48708e-12
-5.16024 -6.38721 -6.78019e-12
4.48708e-12 -6.78019e-12 -77.6173

-38.9433 13.0838 -2.6575e-13
13.0838 13.7443 2.85401e-13
-2.6575e-13 2.85401e-13 -10.2402

-14.4798 -10.6657 7.77341e-12
-10.6657 -17.3152 1.27809e-12
7.77341e-12 1.27809e-12 -78.7461

-25.8992 4.09211 2.83921e-13
4.09211 -5.91367 4.53411e-12
2.83921e-13 4.53411e-12 -78.8883

-3.63286 7.43236 2.23229e-13
7.43236 -27.8578 -1.83216e-12
2.23229e-13 -1.83216e-12 -77.9757

-43.9718 -12.1135 -7.07268e-12
-12.1135 2.91611 -2.964e-12
-7.07268e-12 -2.964e-12 -68.1491

11.9735 -30.4723 6.25811e-12
-30.4723 76.1674 1.80241e-12
6.25811e-12 1.80241e-12 -14.7013

0.521038 -12.9721 -4.23365e-13
-12.9721 -39.9889 6.64002e-12
-4.23365e-13 6.64002e-12 -45.2723

-16.3486 -34.4167 3.13172e-12
-34.4167 -22.0696 -4.05157e-13
3.13172e-12 -4.05157e-13 -23.5892

-2.42129 -18.1773 -2.40844e-12
-18.1773 -29.8941 -7.10676e-12
-2.40844e-12 -7.10676e-12 -33.6236

12.7377 15.46 2.89605e-12
15.46 -37.7181 7.84262e-13
2.89605e-12 7.84262e-13 -9.6267

-46.9047 9.8631 6.00623e-12
9.8631 8.8766 3.37952e-12
6.00623e-12 3.37952e-12 -70.1446

3.46185 19.226 -2.44338e-12
19.226 -41.4684 -1.16607e-12
-2.44338e-12 -1.16607e-12 -70.2604

1.47135 11.3076 4.20286e-12
11.3076 -23.9643 -3.00841e-12
4.20286e-12 -3.00841e-12 -31.865

109.399 -15.3405 4.47168e-12
-15.3405 -12.5356 -1.7503e-12
4.47168e-12 -1.7503e-12 -25.0364

-14.3224 24.9657 5.10762e-12
24.9657 10.3859 -4.62859e-12
5.10762e-12 -4.62859e-12 -5.80662

76.6117 -61.3583 -1.03052e-11
-61.3583 37.3683 6.36646e-12
-1.03052e-11 6.36646e-12 -22.3943

76.1182 -57.4604 -5.4096e-12
-57.4604 99.2338 1.39266e-12
-5.4096e-12 1.39266e-12 -5.55408

118.203 -36.5462 1.73136e-12
-36.5462 40.603 5.33381e-12
1.73136e-12 5.33381e-12 -7.37761

-51.1098 -5.15878 -7.73307e-13
-5.15878 3.33989 9.33031e-13
-7.73307e-13 9.33031e-13 -60.6528

-50.4738 2.89133 7.01365e-13
2.89133 3.13415 4.62904e-12
7.01365e-13 4.62904e-12 -60.1254

-11.9753 -24.4541 3.96364e-12
-24.4541 -35.0001 -3.6419e-12
3.96364e-12 -3.6419e-12 -59.1597

-8.99126 -21.7581 3.74101e-12
-21.7581 -37.8852 -1.06345e-12
3.74101e-12 -1.06345e-12 -59.4692

-14.702 26.1335 -2.31015e-12
26.1335 -33.0247 3.33289e-12
-2.31015e-12 3.33289e-12 -60.7439

-18.1551 3.09788 9.18554e-12
3.09788 -13.1632 3.73998e-11
9.18554e-12 3.73998e-11 -75.4683

-9.94481 -20.5072 -1.02585e-12
-20.5072 -32.6479 -2.60177e-12
-1.02585e-12 -2.60177e-12 -56.7304

-26.6452 -18.567 1.03989e-11
-18.567 -14.1957 6.44307e-12
1.03989e-11 6.44307e-12 -71.2631

-15.4763 2.43335 2.33813e-12
2.43335 -12.8518 9.41469e-13
2.33813e-12 9.41469e-13 -77.8624

-6.02717 -20.5242 -1.62529e-12
-20.5242 -41.4839 -4.46102e-12
-1.62529e-12 -4.46102e-12 -60.5001

-6.75639 20.9537 2.18536e-12
20.9537 -40.1403 -3.79548e-13
2.18536e-12 -3.79548e-13 -60.0113

-14.3137 -3.45729 8.23193e-13
-3.45729 -11.3895 2.30778e-13
8.23193e-13 2.30778e-13 -76.877

-11.2625 -3.11546 6.8258e-12
-3.11546 -17.6871 -1.01409e-11
6.8258e-12 -1.01409e-11 -74.0402

-24.2009 12.1095 1.00847e-11
12.1095 -13.4004 -4.96729e-12
1.00847e-11 -4.96729e-12 -69.9594

-22.0808 26.9277 3.51956e-12
26.9277 -26.2658 7.1262e-13
3.51956e-12 7.1262e-13 -57.576

VECTORS fluid_flux_TPM float
-8.72351e-05 3.10343e-05 1.06775e-20
3.56012e-06 6.88366e-06 -1.00472e-20
-1.27894e-05 -1.02271e-05 4.05209e-21
-4.17123e-06 4.25471e-06 6.20213e-21
2.27113e-05 -6.31432e-06 -8.42584e-21
2.75806e-06 -1.59061e-05 1.47617e-20
-8.58107e-05 -3.1099e-05 3.3339e-21
-1.38945e-05 -1.04685e-05 2.42289e-21
2.21254e-05 9.45673e-07 2.41625e-22
1.13858e-05 -3.90872e-06 1.39698e-20
5.46099e-05 1.24861e-05 -1.76575e-20
2.34728e-06 -1.71968e-05 5.23261e-21
1.36137e-05 1.12556e-05 -6.12939e-21
2.66253e-06 1.37868e-05 4.28673e-21
2.05843e-05 -2.94714e-06 -3.82079e-21
-1.6335e-05 -2.7294e-07 8.95215e-21
2.75399e-06 1.41011e-05 -7.6919e-21
1.01834e-05 -2.39227e-06 1.45055e-20
9.90026e-06 1.72255e-05 -1.23197e-20
-1.48509e-05 1.88578e-06 1.20578e-20
-3.60173e-06 -2.13075e-05 -2.37635e-20
3.41171e-05 5.94283e-05 -2.2428e-21
1.57001e-05 1.63157e-06 6.92307e-21
1.12292e-05 -1.12833e-05 -1.99382e-20
-1.50809e-05 -3.33296e-06 1.65225e-20
-6.77315e-07 -1.11327e-05 7.36931e-21
6.29149e-05 -4.90935e-06 -6.56594e-21
1.40684e-05 1.02506e-05 -4.45653e-21
-2.51541e-05 -2.06466e-05 7.15862e-21
4.91294e-05 -1.28163e-05 1.4943e-21
-1.65853e-05 -6.03937e-06 3.77682e-21
5.53822e-06 -3.20428e-05 1.54492e-21
4.76637e-05 -4.80565e-05 8.60017e-21
-4.92429e-06 -4.12558e-05 2.33585e-20
-2.96791e-05 3.70126e-05 -1.01912e-20
-3.82549e-05 -1.63983e-05 4.79454e-21
3.2709e-05 4.3224e-05 -6.70298e-22
-4.47495e-05 -8.72759e-06 -1.35224e-20
1.43772e-05 -1.10839e-05 -1.52834e-20
4.64792e-05 5.0125e-05 4.05329e-22
3.21357e-05 -1.40247e-05 -8.64293e-21
3.36467e-05 -4.23519e-05 1.17003e-20
-1.99004e-05 -5.03884e-05 2.83001e-20
-1.5901e-05 6.35802e-06 1.48842e-20
3.05316e-05 -2.93201e-05 -1.71491e-20
-3.03387e-05 1.09925e-05 3.04341e-20
-4.05097e-06 -2.03747e-05 5.94171e-21
7.88772e-06 2.02158e-05 8.99487e-21
-1.63458e-05 5.92905e-06 4.88247e-21
-1.78234e-05 2.87317e-05 1.22248e-20
3.24153e-05 1.5294e-05 -1.7294e-20
2.93712e-05 -1.00772e-05 -1.77482e-20
-1.56696e-05 1.57637e-05 1.04712e-21
-2.35462e-05 -2.06947e-05 7.21198e-21
-2.11443e-05 -5.13353e-06 -9.68005e-21
-4.48011e-05 2.7082e-05 3.93841e-21
-2.93782e-05 -3.80312e-05 6.79603e-21
6.36489e-06 -3.06345e-05 -3.40606e-21
-4.77181e-05 6.4843e-06 9.88588e-21
6.07546e-06 1.37e-05 -1.75551e-20
-5.57806e-06 -8.17528e-06 8.41601e-22
-6.58503e-06 -1.79477e-05 3.16182e-20
5.7157e-05 2.48653e-05 1.17415e-21
9.24498e-06 1.81484e-05 -1.20999e-20
1.22994e-05 -1.44483e-05 3.24598e-21
-1.64094e-06 -2.07574e-05 -7.11528e-21
4.62218e-06 -8.80759e-06 2.743e-20
-1.00929e-05 -5.56619e-06 -5.19805e-21
-1.06051e-05 1.19321e-05 1.83991e-21
2.5588e-06 -4.09355e-06 9.64732e-21
-1.5047e-05 -1.58469e-05 1.67516e-20
-2.13699e-05 5.16714e-06 1.36084e-20
-3.55756e-06 3.44897e-05 -2.77546e-21
-1.78761e-05 1.07134e-05 3.79862e-22
-9.07295e-06 1.46182e-05 2.46472e-22
-6.03697e-05 7.69411e-06 -5.23504e-21
7.81994e-06 -2.16867e-05 -7.99415e-21
-1.88847e-05 -8.90223e-06 -2.25403e-21
1.93421e-06 1.16268e-05 -1.72859e-20
2.63073e-05 5.09086e-06 5.17107e-21
3.41773e-05 -2.8982e-05 -7.43693e-21
2.21517e-05 2.05611e-05 -1.56266e-20
1.19113e-05 -2.82302e-06 -1.06654e-21
-3.21616e-05 2.40732e-05 2.47625e-21
3.79135e-05 4.84702e-06 -8.9285e-21
-4.98186e-06 4.94268e-05 -8.9006e-21
-1.7415e-06 -1.68612e-05 -1.86528e-20
1.81283e-05 9.95706e-06 9.86406e-21
2.93247e-05 3.02931e-05 2.99375e-21
5.50381e-05 3.80227e-05 7.10072e-21
-5.33257e-06 3.07804e-05 3.18657e-21
5.91942e-05 -3.55211e-05 -3.46823e-21
-2.71314e-05 5.34249e-06 -1.00933e-20
1.78436e-05 1.10045e-05 -2.80154e-21
-2.96484e-05 9.9058e-06 2.15868e-20
1.66572e-05 2.85281e-05 -8.34612e-21
1.01715e-05 -4.43976e-05 -1.77188e-20
1.91597e-06 1.16236e-05 -1.52095e-20
-1.48044e-05 -1.76244e-05 2.45733e-20
3.07067e-06 1.7479e-05 -1.07548e-20
2.64133e-05 5.25876e-06 -2.50202e-21
-1.5447e-05 3.32194e-05 -9.52027e-21
4.05622e-05 -1.33364e-05 1.78518e-20
-3.77397e-06 7.45689e-06 -1.91176e-21
9.95529e-06 5.90075e-06 3.90353e-21
-2.28112e-06 -1.13273e-05 -2.43017e-21
3.22147e-06 -1.92566e-05 -1.75533e-21
1.74736e-05 3.89303e-06 7.2511e-21
-7.939e-06 4.09827e-05 9.57151e-21
-9.80799e-06 2.48e-07 -1.07842e-20
9.32082e-06 1.18887e-05 -2.32685e-20
-2.17764e-06 -4.17242e-05 -5.24839e-21
4.20333e-05 1.28681e-05 -7.62883e-21
4.42366e-06 -7.455e-06 -3.87597e-21
-1.11479e-05 -3.55451e-06 -1.35663e-20
-2.93329e-05 -1.24891e-05 -8.59047e-21
1.58076e-05 4.11573e-05 1.06026e-20
-4.34958e-05 -1.55777e-05 -1.25731e-20
1.60225e-05 -4.11338e-05 4.15366e-21
-3.70064e-06 -3.1928e-05 3.24932e-21
2.18442e-05 6.52329e-07 -1.4216e-20
-7.17324e-06 1.84011e-05 -1.26025e-21
-1.61156e-06 3.97052e-06 -3.14076e-20
-3.68684e-06 -1.65428e-05 7.29928e-21
5.23126e-06 -8.30412e-06 1.42096e-20
9.3618e-06 1.58674e-05 -1.62354e-20
3.31093e-05 1.0655e-05 8.16331e-21
8.61759e-06 -7.45985e-06 1.19519e-20
-8.27284e-06 -4.51711e-05 -6.46468e-21
2.55584e-05 -1.88244e-05 -9.68581e-21
4.97916e-06 2.7778e-05 -1.06814e-20
-2.81702e-06 -2.8423e-06 -4.31037e-21
-8.62833e-06 -8.32785e-06 8.44949e-21
-4.77782e-06 4.41227e-08 -3.6504e-21
-2.28782e-05 2.86012e-05 1.05974e-20
1.87677e-05 -3.73841e-05 2.65287e-20
-2.65864e-05 4.2725e-05 -4.56686e-21
-1.63758e-05 9.5376e-06 -1.14241e-20
2.52856e-06 1.22018e-05 1.33629e-20
-2.29923e-05 -3.49978e-05 1.02409e-20
1.39396e-05 3.34741e-05 4.54201e-21
1.7512e-05 9.37145e-06 -1.27138e-20
2.2817e-05 -8.52469e-06 -6.09665e-21
-1.25347e-06 -1.12681e-05 2.00633e-21
-3.39199e-05 -3.15658e-05 -1.21053e-21
-2.75212e-06 1.13061e-05 1.02278e-20
1.72508e-05 1.01742e-05 -1.89523e-20
1.8892e-05 -8.82294e-06 1.03876e-20
8.24518e-06 -1.43483e-05 1.00772e-21
2.43628e-05 -1.07979e-05 -9.91045e-21
1.90141e-05 -9e-06 -5.8247e-21
4.64175e-06 2.05861e-07 1.44103e-20
2.57468e-05 2.02259e-05 -2.9189e-20
-2.74226e-06 -1.7034e-05 -5.62613e-21
-1.04823e-05 -4.45807e-06 9.30503e-21
1.12614e-06 -3.89101e-06 -8.93275e-21
-3.15578e-06 1.58507e-05 -1.83154e-20
-3.48918e-05 2.76879e-06 2.13316e-20
-1.21243e-05 -3.32662e-05 -9.61092e-21
-7.88092e-06 9.78135e-06 5.68948e-21
1.35685e-05 1.66443e-05 -7.94869e-21
2.65749e-05 -1.87491e-05 -1.31022e-20
-3.68011e-05 -2.03557e-05 -8.17089e-21
1.74072e-05 -2.75141e-05 -2.38518e-20
2.28094e-05 -2.72229e-05 -4.31009e-21
-1.09469e-05 3.78583e-06 1.37819e-20
-1.98336e-05 -2.88472e-05 6.98096e-21
-3.48882e-05 -5.79281e-06 -1.56272e-20
-3.85324e-06 -3.17502e-05 -1.01584e-20
1.54514e-05 -3.17066e-05 -5.3054e-22
-9.10828e-06 -2.62057e-05 -3.99177e-21
4.58237e-06 3.14129e-05 2.43289e-21
-1.5756e-05 -2.85289e-05 -6.92433e-22
2.93952e-06 -1.62961e-05 5.98446e-21
-2.47452e-05 1.82643e-05 6.16651e-22
-1.50343e-05 -1.2114e-05 3.61848e-20
-2.73593e-05 -5.17367e-06 1.88229e-20
1.56718e-05 -9.18374e-06 4.81457e-21
-4.30793e-06 2.39582e-05 -2.17671e-21
1.22355e-05 -9.32669e-06 5.49042e-22
-2.9593e-05 -1.31674e-05 -3.56946e-21
-8.83375e-06 -7.45988e-06 -5.7286e-21
9.08427e-06 7.54263e-06 -6.04148e-21
2.14319e-05 2.87075e-05 -1.58313e-21
-1.7513e-05 -1.08119e-05 9.83405e-21
-3.2514e-05 -7.51243e-07 2.07689e-20
-1.63406e-05 -5.01737e-06 1.28187e-20
-4.57919e-06 -1.65872e-05 -9.26775e-21
1.76889e-05 2.12443e-05 4.16428e-21
-1.09599e-05 5.87618e-06 -1.11898e-21
6.36221e-07 -2.05602e-05 -6.78543e-21
-4.19499e-05 1.08536e-05 1.16436e-20
2.48665e-05 2.02511e-05 -3.45941e-21
3.7955e-06 3.27932e-05 -3.26538e-21
-2.43255e-06 3.79812e-06 -8.6066e-22
-9.05309e-06 2.51266e-07 7.28353e-21
4.35615e-06 7.76194e-06 -1.64424e-20
-1.16967e-05 3.40227e-06 1.16864e-20
-2.07385e-06 -3.78582e-06 -3.25001e-22
1.66021e-06 2.07649e-05 -3.31905e-21
4.47349e-06 4.49798e-07 -1.39219e-20
-1.95429e-05 4.75782e-06 8.74327e-21
-1.73026e-05 1.93628e-05 1.04286e-20
-3.10819e-06 1.1581e-05 2.38763e-20
-2.92241e-05 1.83989e-05 1.24147e-21
-9.34561e-06 8.98148e-06 -8.97218e-21
1.73154e-05 -1.16166e-05 4.26735e-21
3.66131e-05 -3.56554e-06 -7.2326e-21
-2.11458e-05 1.13001e-05 -1.56615e-21
2.23355e-06 4.49933e-06 2.59761e-20
2.17806e-05 -4.34594e-06 9.34966e-22
-1.72831e-05 1.03554e-05 5.26203e-21
-9.87419e-06 5.54039e-06 -2.91795e-21
1.18343e-05 3.74361e-06 4.32495e-21
2.18852e-05 -1.34744e-05 -2.11166e-20
-1.73842e-05 9.95856e-06 -3.11774e-21
-2.50431e-05 -5.30436e-06 4.49988e-21
-1.67658e-05 -4.36355e-06 3.39726e-21
9.87863e-06 6.25256e-09 1.64573e-20
1.01763e-05 1.95397e-07 -8.32491e-21
4.39185e-06 8.3192e-06 1.3432e-20
4.83075e-06 -8.79991e-06 -8.22789e-21
-5.01157e-06 8.42189e-06 1.82629e-21
-5.26796e-06 -8.6597e-06 1.7508e-21
9.91341e-06 -7.4098e-06 1.0977e-20
-2.03324e-05 3.2357e-06 1.25434e-20
-2.00647e-05 -3.28453e-06 -5.92354e-21
-1.28379e-05 1.58803e-05 -1.28224e-20
-1.29177e-05 -1.59346e-05 2.02556e-20
7.48807e-06 -1.98485e-05 1.18145e-21
7.20775e-06 1.97686e-05 1.44503e-20
1.55823e-06 2.58913e-05 -1.00338e-20
1.12432e-05 -3.13758e-06 6.24125e-21
2.36049e-06 -3.86745e-06 9.62425e-21
-2.14166e-05 1.42204e-06 1.61311e-20
7.67903e-06 -1.95177e-05 7.79892e-21
7.27518e-06 1.96663e-05 1.75766e-20
4.76995e-06 -5.27255e-08 2.75313e-20
8.97041e-06 2.4409e-05 -7.43936e-21
-2.24281e-06 -4.0173e-06 -1.42069e-20
2.31833e-06 -1.13197e-05 5.33568e-21
-2.24358e-05 -1.21545e-05 2.5766e-21
-2.13631e-05 -1.14973e-05 7.23138e-21
-2.18978e-05 1.36318e-05 -8.95668e-21
3.25201e-06 -1.22905e-05 2.70623e-20
-1.56568e-06 3.38277e-06 -1.91621e-20
-5.8742e-07 -2.55749e-05 -2.1243e-20
-7.72193e-06 -2.44284e-05 -9.59243e-21
3.27113e-05 3.03692e-05 4.36769e-21
3.54611e-05 -1.81559e-06 -7.19622e-21
-1.27139e-05 -3.63298e-06 -1.00269e-20
-2.28976e-05 -4.13952e-05 2.3768e-21
8.30608e-06 1.37509e-05 -1.10128e-20
-2.52413e-05 3.03399e-06 2.38124e-20
2.00695e-05 5.78766e-06 -3.44334e-21
-4.53412e-06 -3.27461e-08 1.32529e-20
-4.66619e-06 -8.41456e-06 -1.02906e-20
-7.07442e-06 -3.93413e-05 -8.05265e-21
-9.71043e-06 -8.39459e-08 -1.10694e-20
-4.8685e-05 -1.81611e-06 -8.96275e-21
1.73125e-05 -1.91094e-05 -2.0483e-20
2.42989e-06 3.99993e-06 -2.53209e-20
-1.20631e-07 -1.75174e-05 -1.19492e-20
-9.82047e-06 2.4089e-05 1.14772e-20
-4.37296e-06 8.62923e-06 -1.70985e-20
2.05606e-05 -1.36089e-05 -5.01465e-21
-3.76668e-05 -1.35543e-05 1.29779e-20
-1.52689e-05 -2.03701e-05 6.7639e-21
4.9781e-06 8.39079e-06 4.77304e-21
1.66345e-05 5.16162e-06 -5.18291e-21
-4.76483e-06 -7.3398e-06 -1.96448e-20
1.98005e-05 3.54791e-06 5.20655e-21
1.81921e-05 -9.8277e-06 2.05486e-21
-3.4887e-07 2.7178e-05 -1.01248e-20
8.32198e-06 -1.36694e-05 1.55181e-20
4.8813e-05 2.20101e-06 -7.44512e-21
-4.23648e-05 1.14556e-05 1.92127e-20
2.2864e-05 1.15582e-05 1.69472e-20
-6.45403e-06 -1.71822e-05 3.78647e-22
-1.53525e-05 -8.61961e-06 -3.11986e-21
2.87922e-05 -2.10577e-07 -1.05169e-21
-6.92067e-07 -2.42589e-05 -3.1651e-22
-1.26195e-05 -1.08758e-05 -4.27279e-21
1.02256e-05 -2.35034e-05 -8.70901e-21
-4.96655e-07 2.05587e-05 -1.11043e-20
7.919e-06 2.60718e-05 -1.99876e-20
1.72706e-05 -9.8858e-06 4.59508e-21
-1.89509e-05 1.93016e-05 6.15789e-21
1.65304e-05 2.00325e-05 5.16652e-21
-6.22401e-05 1.60244e-05 -2.67009e-20
-1.01107e-05 2.60202e-05 -9.80647e-21
1.2521e-05 -1.52506e-05 1.2631e-20
-7.03015e-06 -1.84006e-05 3.06469e-20
-1.18553e-05 4.50638e-06 3.91628e-21
-2.58973e-05 -7.04689e-06 -3.41332e-21
-6.38707e-06 3.88637e-05 -1.54987e-20
-1.26078e-05 1.19043e-05 -4.27613e-21
2.07798e-05 -4.47627e-06 7.31475e-21
-6.87346e-06 -2.57981e-05 -1.16737e-20
-1.4871e-05 2.38946e-05 -1.82838e-21
-2.17922e-05 1.25667e-05 -1.26665e-20
-2.05726e-05 -1.50577e-05 1.78841e-23
1.80313e-05 -2.06581e-05 1.16643e-20
-2.75349e-05 -1.45647e-06 8.99004e-21
1.23692e-05 -4.08164e-05 -2.7394e-21
1.93892e-05 -1.8916e-05 -1.64239e-20
2.47364e-05 4.30883e-05 2.36165e-22
1.97145e-06 1.98695e-05 -6.3516e-21
2.96161e-06 -2.5425e-05 -7.44882e-22
-4.16426e-05 4.6969e-05 -1.41896e-20
-1.2704e-05 -2.44153e-05 -8.97983e-22
1.63693e-05 -6.42149e-06 -1.40968e-20
-2.4112e-06 2.57762e-05 4.74452e-21
1.28849e-05 -1.18282e-05 9.80404e-21
1.38827e-05 2.43166e-05 -1.3007e-20
1.72325e-05 -1.4007e-06 1.02703e-20
2.21236e-05 -6.32261e-05 -1.00108e-20
-5.87698e-06 -1.28612e-05 -2.62632e-21
-2.31879e-05 1.00887e-05 1.80768e-20
-2.0023e-05 1.87218e-05 1.39156e-22
2.16156e-05 1.45698e-05 -5.92869e-21
1.86754e-05 -1.07583e-05 -4.48501e-21
1.49542e-05 1.25953e-05 5.88958e-21
-5.42892e-06 4.55356e-08 -8.01355e-21
1.5406e-05 -2.30907e-05 -1.29727e-20
-1.69928e-05 -2.04123e-05 4.77635e-21
2.25653e-05 9.77517e-06 -1.33865e-20
1.28085e-05 -1.19915e-05 1.8845e-20
9.55543e-06 -2.48555e-05 -1.44603e-20
1.66617e-05 -6.93392e-06 2.17484e-20
-1.58078e-05 -7.54578e-06 9.44115e-21
1.29706e-06 -2.63069e-05 1.14808e-21
-2.61108e-05 4.47377e-06 2.29571e-20
2.39082e-06 2.45465e-05 -1.52292e-20
2.05881e-05 6.62845e-06 5.76922e-22
-2.17238e-05 -1.07035e-05 6.59868e-21
-8.97853e-06 2.5614e-05 8.73811e-21
-1.49556e-06 -2.41917e-05 -1.89978e-20
1.94694e-05 1.18392e-05 1.66498e-21
-1.76921e-06 1.80875e-05 -5.15866e-21
-2.01419e-05 1.37048e-05 1.21038e-20
2.35145e-05 1.14169e-05 -2.81156e-21
-1.71179e-05 -9.98717e-06 4.19337e-21
9.5145e-08 -1.98379e-05 -1.31528e-20
1.83853e-05 1.99874e-05 -9.16922e-21
-2.21573e-05 -1.43059e-05 -4.57021e-21
4.83589e-05 -3.39875e-05 1.23412e-20
1.78999e-05 -1.08242e-05 -2.52534e-22
9.00348e-06 4.30943e-05 2.42744e-21
1.70369e-05 -1.36809e-05 -3.26568e-21
-1.98773e-05 8.70506e-05 1.18631e-20
-1.97674e-05 -8.65649e-05 -1.68744e-20
5.71946e-05 7.17293e-05 1.6926e-20
5.69322e-05 -7.14029e-05 -2.21856e-21
9.06625e-05 -1.4749e-10 1.12113e-20
-7.82145e-05 3.76468e-05 1.82487e-20
-7.74688e-05 -3.72907e-05 -5.40299e-21
1.2236e-05 1.18207e-05 1.54766e-20
2.93731e-05 2.18962e-05 -1.15069e-20
1.14502e-05 3.33341e-06 1.62134e-21
1.88591e-05 9.75323e-06 -3.70983e-21
4.99017e-06 2.01737e-05 -1.41857e-20
-1.88352e-05 -1.49831e-05 6.11149e-21
1.70411e-05 -1.0216e-05 1.88873e-21
1.98562e-05 1.45519e-05 -4.41499e-21
-3.16747e-06 2.43684e-05 5.8059e-21
2.9446e-05 -1.99964e-05 4.57899e-21
3.79465e-06 -2.37442e-05 -7.42875e-21
2.19649e-05 5.22799e-06 4.99706e-21
2.99013e-05 1.1028e-05 9.75882e-22
1.42113e-05 1.41464e-05 -9.34142e-21
1.58861e-05 6.5949e-06 -6.87516e-21
-1.85022e-05 1.09387e-05 -1.52097e-21
-2.25674e-05 9.03835e-06 2.62698e-20
2.29337e-05 -1.12656e-05 -8.23243e-21
-1.82713e-05 -9.99989e-06 7.80375e-21
-1.85579e-05 -1.05845e-05 2.77123e-21
-3.43882e-07 -2.07716e-05 -6.32584e-21
-8.61163e-08 -2.11647e-05 -1.1208e-20
-2.01309e-05 -1.00566e-06 1.37888e-20
2.6704e-05 -4.0199e-06 -4.0906e-21
1.81155e-05 1.13443e-05 -1.50309e-20
-1.78676e-05 1.09472e-05 1.05183e-20
-1.53643e-05 1.66268e-05 8.70506e-21
1.60252e-05 -1.37558e-05 -1.01984e-20
-1.10256e-05 1.74667e-05 1.13502e-20
-1.42276e-05 -1.48925e-05 -4.46562e-22
-1.15542e-06 2.12147e-05 7.66005e-21
-1.28789e-06 2.09723e-05 -8.31672e-21
8.97753e-08 -1.98378e-05 -3.92053e-21
6.11205e-06 -1.97411e-05 7.80557e-21
-1.71443e-05 -9.93742e-06 4.89489e-21
1.55898e-05 -5.49133e-06 1.52192e-20
6.63337e-07 2.1482e-05 -1.89196e-20
3.00934e-07 1.85111e-05 1.15626e-21
-2.34617e-06 1.68606e-05 -1.00942e-20
2.19131e-05 -5.52848e-06 -1.89872e-21
-1.65445e-05 5.37915e-06 -1.74198e-21
4.15832e-06 2.15217e-05 -8.84635e-21
-3.25648e-05 1.29218e-05 -2.15642e-21
9.76545e-06 4.17397e-05 2.10457e-21
-1.70569e-05 4.56906e-06 3.56734e-21
1.96884e-05 -1.16324e-05 -1.31813e-20
9.46001e-07 2.10237e-05 -2.28359e-20
-2.04854e-05 6.70079e-06 6.05905e-21
2.44461e-06 -1.62657e-05 7.1959e-21
1.81993e-06 -5.80244e-05 -1.77924e-20
2.00691e-06 1.74898e-05 -2.44639e-20
-1.69655e-05 1.40255e-05 -1.55917e-21
1.78579e-05 6.39847e-05 9.86315e-21
4.57786e-05 3.77145e-05 1.81839e-21
5.20755e-05 -3.52628e-05 -1.67195e-20
1.48185e-05 -1.01692e-05 -1.00581e-20
-1.57887e-05 1.40405e-05 3.16323e-21
-2.02211e-05 -7.92235e-06 1.91285e-20
-1.96497e-05 -6.82385e-06 6.29795e-21
5.92793e-05 -2.4617e-05 -3.50943e-20
5.74456e-05 2.38758e-05 -8.95669e-21
1.08968e-05 3.81827e-06 1.68514e-20
7.66827e-07 1.95834e-05 -2.66354e-20
7.8408e-08 1.95647e-05 -1.17895e-20
-4.8393e-05 -3.69271e-05 -7.195e-21
1.14276e-05 -1.71755e-05 -9.00216e-21
1.17357e-05 1.24673e-05 -5.39934e-21
-2.14227e-05 -3.39646e-06 1.71291e-20
-1.4048e-05 1.72058e-05 7.17288e-21
-1.88926e-05 9.16974e-06 6.3895e-21
4.76535e-05 3.37013e-05 1.22063e-20
1.58098e-05 7.06314e-06 -8.59654e-21
-5.5679e-06 2.00347e-05 1.69784e-20
-1.69817e-05 -1.17517e-05 -3.67432e-22
1.85669e-06 -2.05473e-05 7.18256e-21
-8.95162e-06 -1.92715e-05 -8.4013e-21
-1.72529e-05 -1.17761e-05 1.79442e-21
1.05819e-05 -1.89398e-05 -3.19234e-22
1.41255e-05 -1.6993e-05 -1.79473e-20
-2.44069e-06 -6.14509e-05 -6.83333e-21
2.6186e-05 -4.11345e-05 -1.88138e-20
1.74791e-06 -2.07901e-05 5.36873e-21
1.79626e-05 1.13579e-05 -1.25289e-20
-1.44795e-05 -1.49086e-05 3.76197e-21
-9.84319e-06 1.97144e-05 1.49199e-20
-5.04049e-06 2.10113e-05 3.84107e-22
1.66309e-05 1.42468e-05 3.06467e-21
6.06037e-06 -1.98658e-05 1.01372e-20
-1.34092e-05 -4.0367e-05 -3.08349e-21
-1.98879e-06 2.5046e-05 -1.08269e-20
1.47951e-05 1.44583e-05 -8.68992e-21
-1.29612e-05 -1.0219e-05 1.45925e-20
-1.3518e-05 1.06106e-05 1.64709e-21
4.43526e-05 -1.89173e-05 1.87234e-21
7.56475e-06 -1.34031e-05 2.14033e-21
-8.31899e-06 -1.26298e-05 4.92218e-21
2.13352e-05 6.36489e-06 1.71391e-20
1.09968e-05 -5.06732e-05 9.00276e-21
-3.846e-05 -3.49107e-05 1.93543e-20
2.33119e-05 6.20876e-06 2.07456e-21
-9.33028e-06 -1.82852e-05 -5.45667e-21
1.87098e-05 9.48488e-06 -1.01175e-20
-2.85708e-05 -3.25588e-05 9.90044e-21
9.69036e-06 5.0058e-05 8.39645e-21
3.43418e-05 -5.9873e-05 1.88104e-20
-3.47449e-05 -5.97899e-05 5.88323e-21
2.78149e-05 -5.20336e-05 5.61581e-21
-1.27009e-05 4.36429e-05 -1.04577e-20
-6.27746e-06 3.89861e-05 -4.10726e-21
-1.87349e-05 8.9479e-06 8.49073e-21
5.97856e-06 2.42476e-05 -8.94624e-22
-2.39208e-06 1.26569e-05 8.75326e-21
1.01224e-05 3.23385e-06 -5.59021e-22
-3.18916e-06 1.62091e-05 -1.32047e-20
-2.47484e-07 2.09964e-05 5.28476e-21
1.66643e-05 9.75274e-06 -1.47489e-21
1.71099e-06 5.77372e-05 8.41979e-21
-1.47205e-05 1.07351e-05 -4.60196e-22
1.5953e-05 -6.24798e-06 2.03439e-22
1.68756e-05 -4.50996e-06 -1.2065e-20
-6.06766e-05 -8.77091e-06 -3.39423e-21
-3.46134e-05 1.67452e-05 -1.64191e-20
-4.35243e-05 -5.25583e-05 -2.09153e-21
8.65846e-06 8.34754e-06 1.86839e-21
1.4213e-05 7.29415e-06 -4.38969e-22
2.68107e-05 -4.19678e-06 3.22809e-21
-8.10616e-06 -1.32458e-05 -1.41563e-20
1.72204e-05 8.43047e-06 -5.26353e-21
7.33698e-06 -3.00413e-05 1.38701e-20
-1.37167e-05 1.02073e-05 5.93903e-22
-2.23793e-05 -2.1427e-05 3.66144e-20
-5.83724e-06 1.63013e-05 1.34278e-20
-3.27169e-06 2.06831e-05 -9.48299e-21
3.38572e-05 2.13011e-05 -1.38121e-21
3.61212e-05 -1.92871e-05 -1.28505e-20
-4.20799e-05 -1.16257e-05 -1.90314e-20
7.63586e-06 7.68742e-06 -9.23104e-21
-4.05905e-06 0.000101383 1.78779e-20
8.6235e-07 -0.000104491 -2.07525e-20
5.24662e-05 8.76641e-05 1.04722e-20
-1.91071e-05 8.45978e-06 -2.70725e-21
-2.6382e-05 5.65623e-05 1.7827e-20
5.30447e-05 -8.46582e-05 -1.39395e-20
-1.17231e-05 -1.82864e-05 -4.65327e-21
7.8017e-05 6.75121e-05 3.18807e-21
2.39988e-05 -1.79807e-05 7.1753e-21
-3.6082e-06 -2.98287e-05 4.82383e-20
8.17965e-05 -6.58643e-05 -3.77409e-21
-6.74607e-06 1.45215e-05 1.94049e-20
-5.38442e-05 -3.48319e-05 -9.90498e-21
-4.30225e-05 -9.31508e-05 -1.76442e-20
-2.41176e-05 -5.7817e-05 -6.5338e-21
-4.39842e-05 9.41579e-05 3.91082e-21
-1.00953e-05 6.4098e-05 -8.85088e-21
1.56362e-05 3.71163e-05 9.49148e-21
-2.79613e-05 3.72489e-05 1.84039e-20
-2.52782e-05 -5.51957e-05 -1.94065e-20
0.000100387 1.73206e-05 1.16445e-20
-1.69311e-05 1.07694e-05 5.14137e-21
-5.91361e-06 1.63365e-05 -1.22855e-20
-5.07693e-05 3.76484e-05 1.84254e-20
-1.728e-05 9.9463e-06 -7.43208e-21
9.9224e-05 -1.52665e-05 3.78198e-21
-1.53635e-05 7.80041e-06 1.81311e-20
7.1942e-06 -1.4498e-05 3.97661e-21
-7.79863e-05 -6.0962e-05 -1.53134e-20
-2.58843e-05 5.77299e-05 1.2481e-20
-7.91393e-05 6.03891e-05 1.66201e-20
2.45458e-05 5.19614e-05 5.86621e-22
-1.47707e-05 1.05847e-05 9.27866e-21
-2.05343e-05 2.44819e-05 -8.77995e-21
-2.85388e-05 4.98286e-05 -1.43936e-20
-5.67883e-05 2.08049e-07 -2.63286e-20
-9.44283e-07 1.62996e-05 -8.75236e-21
-2.88558e-05 -5.04173e-05 -4.56325e-21
-5.82109e-05 -2.19884e-07 -2.36032e-20
-2.83556e-05 4.87068e-05 -1.06841e-20
-1.51936e-05 6.62804e-05 6.01631e-21
-1.78684e-05 4.12696e-05 4.24673e-21
-3.39076e-05 2.71432e-05 -1.09458e-20
2.43882e-05 -6.05823e-06 1.1305e-21
3.80109e-05 -2.19576e-06 -1.05441e-20
1.34852e-05 8.20207e-06 5.36329e-21
-1.04714e-05 -7.40036e-05 1.05864e-21
-6.94639e-05 -2.79802e-05 -3.10383e-20
3.71402e-05 7.32875e-07 -4.54018e-21
5.83787e-05 -1.08944e-05 9.20619e-21
-1.0586e-05 -1.35e-05 -2.12701e-21
-5.08396e-05 3.76342e-05 2.48916e-20
-4.61435e-05 5.40121e-05 1.96111e-20
6.2376e-05 -2.22371e-05 1.85352e-20
-2.81835e-05 -5.0508e-05 8.24892e-22
-2.87833e-05 4.97902e-05 -1.6932e-20
-5.72668e-05 -1.17142e-06 -2.83917e-20
-2.65791e-05 5.06087e-05 4.45075e-21
-5.79657e-05 -8.17178e-07 5.81771e-21
6.60904e-05 1.73962e-05 -1.78412e-20
5.63924e-05 1.29281e-06 -4.01025e-21
5.09111e-05 -2.92802e-05 -1.84591e-20
2.49156e-05 -5.94399e-05 -3.60314e-21
2.9925e-05 -4.88673e-05 6.52046e-21
2.91737e-05 4.86913e-05 1.45225e-20
2.43503e-05 5.81019e-05 8.85236e-22
7.58187e-05 -2.00419e-05 -1.00714e-20
4.62763e-05 2.90695e-05 1.7144e-21
4.66343e-05 1.37484e-05 -1.20083e-21
TENSORS solid_stress_TPM float
375.048 -24.9211 -1.44003e-12
-24.9211 238.58 -1.74675e-12
-1.44003e-12 -1.74675e-12 197.827

457.028 -21.3206 -4.46695e-12
-21.3206 490.013 6.57252e-13
-4.46695e-12 6.57252e-13 487.134

454.902 28.0449 -2.81908e-12
28.0449 463.733 8.30447e-13
-2.81908e-12 8.30447e-13 458.482

455.054 -29.8425 -1.1758e-12
-29.8425 482.635 3.05104e-12
-1.1758e-12 3.05104e-12 484.881

527.705 19.9309 6.7768e-13
19.9309 548.472 7.16915e-12
6.7768e-13 7.16915e-12 527.376

437.334 -18.0756 -2.92418e-12
-18.0756 480.364 -2.68111e-12
-2.92418e-12 -2.68111e-12 458.063

372.343 26.4853 -1.69583e-12
26.4853 239.1 5.88093e-12
-1.69583e-12 5.88093e-12 197.811

473.676 29.9589 -2.7652e-13
29.9589 469.525 7.72715e-14
-2.7652e-13 7.72715e-14 472.36

471.574 5.48343 -2.02978e-12
5.48343 417.844 -1.22313e-12
-2.02978e-12 -1.22313e-12 432.818

504.284 -7.47762 -4.5078e-12
-7.47762 444.136 -3.11839e-12
-4.5078e-12 -3.11839e-12 483.475

360.311 16.3098 4.47879e-12
16.3098 247.667 -1.28016e-12
4.47879e-12 -1.28016e-12 233.657

444.805 -13.4538 -3.56604e-13
-13.4538 498.41 5.42381e-13
-3.56604e-13 5.42381e-13 472.262

466.891 27.8344 2.18847e-12
27.8344 468.326 -2.65092e-12
2.18847e-12 -2.65092e-12 466.757

457.06 -14.3407 9.23669e-13
-14.3407 500.458 -3.25073e-12
9.23669e-13 -3.25073e-12 483.48

512.957 33.3098 3.59209e-12
33.3098 511.618 1.60943e-12
3.59209e-12 1.60943e-12 515.246

489.198 0.561047 2.19143e-12
0.561047 435.546 2.54704e-12
2.19143e-12 2.54704e-12 462.295

457.606 -17.9689 3.19968e-12
-17.9689 512.909 1.50013e-12
3.19968e-12 1.50013e-12 493.619

493.983 -2.6652 -3.33097e-12
-2.6652 439.071 -1.30932e-12
-3.33097e-12 -1.30932e-12 474.287

418.814 26.6757 2.53427e-13
26.6757 449.683 -1.41694e-12
2.53427e-13 -1.41694e-12 424.075

482.006 -4.19589 6.15212e-13
-4.19589 424.943 1.14153e-12
6.15212e-13 1.14153e-12 453.497

425.318 8.66932 -7.64574e-13
8.66932 481.927 1.19016e-13
-7.64574e-13 1.19016e-13 444.863

634.132 6.28656 -2.28616e-12
6.28656 633.969 7.88258e-13
-2.28616e-12 7.88258e-13 570.33

479.177 1.87606 -1.49865e-12
1.87606 422.962 -2.88362e-12
-1.49865e-12 -2.88362e-12 449.754

447.185 -27.7168 1.51671e-12
-27.7168 461.174 -1.55431e-12
1.51671e-12 -1.55431e-12 452.97

481.074 6.84975 1.03206e-12
6.84975 425.462 -3.07458e-13
1.03206e-12 -3.07458e-13 452.961

449.781 19.1135 1.10697e-12
19.1135 490.342 -2.13281e-12
1.10697e-12 -2.13281e-12 478.229

377.673 4.1817 8.52651e-13
4.1817 291.667 4.02256e-12
8.52651e-13 4.02256e-12 259.015

462.708 30.7474 -7.4903e-13
30.7474 460.737 4.02611e-12
-7.4903e-13 4.02611e-12 460.567

384.96 37.0773 9.69891e-13
37.0773 383.54 -3.41653e-12
9.69891e-13 -3.41653e-12 348.437

586.953 10.3236 3.90739e-12
10.3236 563.465 6.16814e-12
3.90739e-12 6.16814e-12 546.889

491.712 14.2172 4.1999e-12
14.2172 442.52 1.12843e-12
4.1999e-12 1.12843e-12 465.878

352.873 -17.7818 -2.63789e-12
-17.7818 416.745 -5.36104e-12
-2.63789e-12 -5.36104e-12 348.608

331.033 -42.1043 -2.68348e-12
-42.1043 335.888 5.35039e-12
-2.68348e-12 5.35039e-12 253.495

531.424 5.98587 5.67264e-12
5.98587 586.902 2.3892e-13
5.67264e-12 2.3892e-13 538.599

554.037 -4.83934 1.0972e-12
-4.83934 582.084 -5.62661e-12
1.0972e-12 -5.62661e-12 542.529

577.999 21.0275 3.91391e-12
21.0275 539.962 -2.86127e-12
3.91391e-12 -2.86127e-12 538.367

556.198 5.06617 3.96453e-12
5.06617 600.685 -2.13222e-12
3.96453e-12 -2.13222e-12 547.985

573.787 -9.17056 -3.7194e-12
-9.17056 555.78 7.13466e-13
-3.7194e-12 7.13466e-13 540.655

467.151 -27.9994 9.36732e-13
-27.9994 466.515 -1.75149e-12
9.36732e-13 -1.75149e-12 465.13

330.417 41.5236 8.97652e-13
41.5236 337.987 1.45661e-12
8.97652e-13 1.45661e-12 253.854

414.547 -17.9505 4.31418e-12
-17.9505 354.504 -1.63425e-13
4.31418e-12 -1.63425e-13 346.338

559.319 -3.70492 -3.10093e-12
-3.70492 599.934 -1.2698e-12
-3.10093e-12 -1.2698e-12 548.399

586.424 19.5536 3.78601e-12
19.5536 572.466 3.87157e-12
3.78601e-12 3.87157e-12 548.188

490.917 -12.2735 5.35868e-13
-12.2735 442.875 7.1528e-13
5.35868e-13 7.1528e-13 466.551

341.724 -43.3021 2.24887e-12
-43.3021 345.352 -9.17784e-13
2.24887e-12 -9.17784e-13 288.99

417.573 -18.0647 3.05889e-12
-18.0647 357.122 5.49072e-12
3.05889e-12 5.49072e-12 351.512

413.026 17.0869 7.60725e-13
17.0869 464.798 -2.63138e-12
7.60725e-13 -2.63138e-12 428.74

429.643 19.3403 -4.72274e-12
19.3403 466.528 7.57912e-14
-4.72274e-12 7.57912e-14 437.094

486.796 -16.3018 -9.10679e-13
-16.3018 432.888 -2.50688e-12
-9.10679e-13 -2.50688e-12 458.691

355.591 -34.188 2.20209e-12
-34.188 389.414 -5.18696e-13
2.20209e-12 -5.18696e-13 332.578

410.265 19.1832 -9.11863e-13
19.1832 350.711 -8.76928e-13
-9.11863e-13 -8.76928e-13 339.487

425.214 -25.2902 2.61953e-12
-25.2902 383.832 2.80309e-12
2.61953e-12 2.80309e-12 373.088

519.931 19.4845 -2.77674e-12
19.4845 547.542 1.35891e-12
-2.77674e-12 1.35891e-12 525.743

416.426 29.6515 3.22231e-12
29.6515 393.898 -4.77248e-12
3.22231e-12 -4.77248e-12 373.952

522.187 -21.8127 1.66385e-13
-21.8127 541.406 4.33695e-12
1.66385e-13 4.33695e-12 524.389

364.081 -42.714 5.32907e-12
-42.714 343.292 3.48876e-12
5.32907e-12 3.48876e-12 289.708

553.459 5.45831 -1.70219e-12
5.45831 583.877 -4.3728e-13
-1.70219e-12 -4.3728e-13 542.903

373.727 -5.33023 9.22225e-13
-5.33023 436.677 2.84336e-12
9.22225e-13 2.84336e-12 373.836

580.824 10.3845 3.76854e-12
10.3845 556.179 2.45153e-12
3.76854e-12 2.45153e-12 542.66

435.071 21.4143 -1.99337e-12
21.4143 473.778 4.87492e-12
-1.99337e-12 4.87492e-12 454.687

513.588 5.75445 3.56633e-12
5.75445 452.822 3.55982e-12
3.56633e-12 3.55982e-12 494.881

522.474 11.459 3.00752e-12
11.459 487.876 4.70794e-12
3.00752e-12 4.70794e-12 507.093

383.717 31.8215 4.89801e-12
31.8215 315.203 -2.62782e-12
4.89801e-12 -2.62782e-12 269.879

482.102 -6.03578 5.73956e-12
-6.03578 528.196 -3.17376e-13
5.73956e-12 -3.17376e-13 504.116

487.111 9.52025 3.05356e-12
9.52025 523.706 2.3214e-12
3.05356e-12 2.3214e-12 507.511

456.474 -2.88127 2.1189e-12
-2.88127 520.174 -1.37904e-12
2.1189e-12 -1.37904e-12 487.823

464.471 23.4016 2.04096e-13
23.4016 503.487 2.90197e-12
2.04096e-13 2.90197e-12 495.457

496.766 8.46395 -5.36371e-12
8.46395 444.415 -1.51434e-13
-5.36371e-12 -1.51434e-13 477.715

445.524 -28.241 -1.83735e-12
-28.241 459.546 1.92083e-12
-1.83735e-12 1.92083e-12 451.184

501.7 -1.71142 3.21757e-12
-1.71142 444.935 -5.84125e-13
3.21757e-12 -5.84125e-13 489.086

519.544 -19.2605 -8.40069e-13
-19.2605 546.835 5.90846e-12
-8.40069e-13 5.90846e-12 525.476

523.316 21.3078 -1.75356e-12
21.3078 542.931 5.79549e-12
-1.75356e-12 5.79549e-12 525.278

353.423 -16.5847 1.36173e-12
-16.5847 415.753 -2.28321e-12
1.36173e-12 -2.28321e-12 346.126

506.037 -27.9367 3.84285e-13
-27.9367 485.325 5.17838e-12
3.84285e-13 5.17838e-12 493.896

449.738 -25.1359 -2.68319e-12
-25.1359 471.239 -1.00305e-12
-2.68319e-12 -1.00305e-12 458.595

357.884 -31.7125 -8.28967e-13
-31.7125 285.686 -2.61006e-12
-8.28967e-13 -2.61006e-12 249.868

498.513 3.22292 -2.50281e-12
3.22292 541.42 3.33363e-13
-2.50281e-12 3.33363e-13 513.657

501.743 28.9446 -5.5896e-13
28.9446 474.566 2.45611e-12
-5.5896e-13 2.45611e-12 487.674

448.462 19.6647 4.33298e-12
19.6647 492.127 -9.6545e-13
4.33298e-12 -9.6545e-13 477.661

440.211 8.00011 3.54561e-12
8.00011 373.052 1.03088e-12
3.54561e-12 1.03088e-12 382.95

386.467 -33.9379 -8.64494e-14
-33.9379 360.22 -2.75335e-12
-8.64494e-14 -2.75335e-12 319.449

537.731 -10.5871 2.3519e-12
-10.5871 556.151 -1.80507e-12
2.3519e-12 -1.80507e-12 531.263

482.675 23.9 9.8795e-13
23.9 504.576 2.69015e-12
9.8795e-13 2.69015e-12 502.06

385.388 -32.3861 -5.35039e-12
-32.3861 345.32 2.49519e-12
-5.35039e-12 2.49519e-12 317.094

422.216 10.7918 -1.31924e-12
10.7918 363.865 1.80567e-12
-1.31924e-12 1.80567e-12 350.268

307.663 -21.2074 -7.90035e-12
-21.2074 388.459 -7.93439e-12
-7.90035e-12 -7.93439e-12 288.127

434.462 14.4262 -9.63822e-13
14.4262 488.689 -8.41993e-13
-9.63822e-13 -8.41993e-13 460.902

509.738 23.1441 4.22181e-13
23.1441 475.188 -2.62161e-12
4.22181e-13 -2.62161e-12 489.963

338.254 42.2015 -2.21926e-12
42.2015 349.585 -8.13571e-13
-2.21926e-12 -8.13571e-13 288.963

634.218 16.5059 -4.88535e-12
16.5059 603.074 1.01742e-11
-4.88535e-12 1.01742e-11 565.335

372.904 -4.10868 1.62833e-14
-4.10868 436.837 -2.18966e-12
1.62833e-14 -2.18966e-12 373.443

637.124 -16.6312 -1.06359e-11
-16.6312 599.545 -2.67105e-12
-1.06359e-11 -2.67105e-12 564.842

533.953 -27.3348 4.41484e-12
-27.3348 507.254 4.10738e-12
4.41484e-12 4.10738e-12 515.73

505.315 27.425 6.99885e-13
27.425 466.351 -1.32131e-12
6.99885e-13 -1.32131e-12 485.09

426.945 -24.4123 6.55949e-12
-24.4123 386.255 -7.92847e-13
6.55949e-12 -7.92847e-13 375.995

358.951 31.3256 3.41889e-12
31.3256 396.022 4.30115e-12
3.41889e-12 4.30115e-12 339.215

339.838 -10.7058 -1.82432e-12
-10.7058 408.41 2.38979e-12
-1.82432e-12 2.38979e-12 319.119

453.125 21.9711 -2.03171e-12
21.9711 494.7 -1.41961e-12
-2.03171e-12 -1.41961e-12 483.188

533.13 16.7948 2.86882e-13
16.7948 506.214 -3.16902e-12
2.86882e-13 -3.16902e-12 513.37

443.472 15.1548 3.25133e-12
15.1548 488.461 -3.41061e-13
3.25133e-12 -3.41061e-13 464.302

451.502 15.9548 2.90612e-12
15.9548 400.554 -2.65625e-12
2.90612e-12 -2.65625e-12 403.765

374.505 -21.4741 1.7959e-12
-21.4741 419.887 -6.82832e-12
1.7959e-12 -6.82832e-12 357.213

389.74 -29.3927 -5.30539e-13
-29.3927 342.384 8.41401e-13
-5.30539e-13 8.41401e-13 314.405

454.987 -24.5738 -1.18113e-12
-24.5738 480.087 -1.87554e-12
-1.18113e-12 -1.87554e-12 478.391

466.447 27.452 1.20437e-12
27.452 478.764 -4.31862e-12
1.20437e-12 -4.31862e-12 479.829

452.238 23.188 1.10549e-12
23.188 492.581 -4.74909e-12
1.10549e-12 -4.74909e-12 482.064

466.315 13.1689 -2.04518e-12
13.1689 529.795 -1.27128e-12
-2.04518e-12 -1.27128e-12 501.402

490.884 9.37255 1.05693e-12
9.37255 437.909 -1.22406e-12
1.05693e-12 -1.22406e-12 462.076

327.725 -4.66534 -3.5237e-12
-4.66534 403.4 4.80801e-13
-3.5237e-12 4.80801e-13 314.426

462.601 -36.8322 -3.75699e-13
-36.8322 487.712 -7.03289e-13
-3.75699e-13 -7.03289e-13 492.769

445.87 27.4668 2.19084e-13
27.4668 463.291 -3.26139e-12
2.19084e-13 -3.26139e-12 455.035

305.684 2.17041 -3.52881e-12
2.17041 393.379 2.02268e-12
-3.52881e-12 2.02268e-12 297.269

386.015 34.6127 1.76451e-12
34.6127 332.462 -2.20031e-12
1.76451e-12 -2.20031e-12 306.259

453.372 -22.9747 -3.21225e-13
-22.9747 480.092 -9.88839e-13
-3.21225e-13 -9.88839e-13 476.193

501.417 5.73295 -4.83791e-12
5.73295 441.337 2.85993e-13
-4.83791e-12 2.85993e-13 481.031

422.401 27.206 3.44258e-12
27.206 389.785 -1.63899e-12
3.44258e-12 -1.63899e-12 374.252

570.555 12.745 3.36694e-12
12.745 565.928 3.69926e-12
3.36694e-12 3.69926e-12 542.931

396.197 24.3322 -2.13163e-12
24.3322 349.664 1.02792e-12
-2.13163e-12 1.02792e-12 319.059

569.177 -13.0545 1.36646e-12
-13.0545 565.84 -3.49291e-12
1.36646e-12 -3.49291e-12 542.387

375.109 0.77862 8.51763e-13
0.77862 438.891 3.60956e-12
8.51763e-13 3.60956e-12 374.658

461.493 -2.23547 1.9682e-12
-2.23547 399.321 3.51822e-12
1.9682e-12 3.51822e-12 417.301

538.214 -15.767 2.07671e-12
-15.767 480.651 1.4578e-12
2.07671e-12 1.4578e-12 513.497

457.267 24.3883 -7.8994e-13
24.3883 487.807 -5.64437e-13
-7.8994e-13 -5.64437e-13 488.375

461.277 -13.5352 1.52976e-12
-13.5352 519.156 -4.89386e-12
1.52976e-12 -4.89386e-12 495.734

514.99 -7.99962 1.8674e-12
-7.99962 438.215 1.22184e-12
1.8674e-12 1.22184e-12 494.298

488.333 -22.2828 4.34423e-12
-22.2828 541.619 -3.26435e-12
4.34423e-12 -3.26435e-12 515.768

556.064 -6.59772 -7.32244e-12
-6.59772 560.407 -1.86425e-12
-7.32244e-12 -1.86425e-12 538.745

463.888 -29.9084 2.9002e-12
-29.9084 483.219 1.16055e-13
2.9002e-12 1.16055e-13 483.621

341.722 11.4544 -3.53258e-12
11.4544 406.213 2.22637e-12
-3.53258e-12 2.22637e-12 319.498

422.502 -28.1485 1.63188e-12
-28.1485 391.26 -5.15143e-13
1.63188e-12 -5.15143e-13 375.165

507.397 -13.7711 1.03621e-12
-13.7711 558.764 -2.97392e-12
1.03621e-12 -2.97392e-12 525.269

501.079 0.504779 1.27276e-12
0.504779 441.302 1.95466e-12
1.27276e-12 1.95466e-12 487.108

476.962 -21.5242 -2.84099e-12
-21.5242 507.443 -7.79821e-13
-2.84099e-12 -7.79821e-13 501.525

459.12 25.698 3.01389e-13
25.698 484.623 -1.37201e-12
3.01389e-13 -1.37201e-12 488.003

394.449 -31.4666 9.52127e-13
-31.4666 400.618 3.17376e-13
9.52127e-13 3.17376e-13 357.538

552.138 -7.08358 -4.22055e-12
-7.08358 585.308 -3.65337e-13
-4.22055e-12 -3.65337e-13 542.618

347.225 -33.0789 1.78465e-12
-33.0789 382.625 3.75403e-12
1.78465e-12 3.75403e-12 303.449

490.892 -19.1805 -2.80901e-12
-19.1805 448.407 6.4692e-12
-2.80901e-12 6.4692e-12 467.144

519.729 1.97097 2.24487e-13
1.97097 466.835 -1.89863e-12
2.24487e-13 -1.89863e-12 502.851

570.572 17.8745 3.53998e-12
17.8745 566.491 1.39947e-12
3.53998e-12 1.39947e-12 542.391

375.308 20.1843 -2.0132e-13
20.1843 424.052 6.25159e-12
-2.0132e-13 6.25159e-12 360.238

489.102 27.2117 -3.96128e-13
27.2117 468.56 3.3212e-12
-3.96128e-13 3.3212e-12 476.659

454.401 -24.513 -2.43006e-12
-24.513 415.361 -4.22477e-12
-2.43006e-12 -4.22477e-12 418.622

454.739 -17.839 9.71112e-13
-17.839 494.929 -2.0064e-12
9.71112e-13 -2.0064e-12 482.662

379.216 35.0705 3.86062e-12
35.0705 366.047 -3.43903e-12
3.86062e-12 -3.43903e-12 317.063

449.174 -21.8313 3.89022e-13
-21.8313 491.726 -3.78986e-12
3.89022e-13 -3.78986e-12 479.794

485.511 30.8514 -1.53477e-12
30.8514 465.155 1.74764e-12
-1.53477e-12 1.74764e-12 473.465

480.344 -25.245 -1.38674e-12
-25.245 442.386 -2.60976e-12
-1.38674e-12 -2.60976e-12 455.462

448.239 -25.1276 2.62398e-12
-25.1276 469.789 -7.13503e-13
2.62398e-12 -7.13503e-13 458.117

445.366 -18.6894 -4.36036e-12
-18.6894 393.478 -2.61717e-13
-4.36036e-12 -2.61717e-13 397.276

470.675 -18.8507 1.21858e-12
-18.8507 422.871 -4.26859e-12
1.21858e-12 -4.26859e-12 437.551

459.02 -25.3373 5.55112e-14
-25.3373 485.45 3.0359e-12
5.55112e-14 3.0359e-12 488.846

386.559 35.9718 2.40163e-12
35.9718 382.005 2.65269e-12
2.40163e-12 2.65269e-12 348.132

444.515 15.3776 3.67943e-12
15.3776 491.553 -7.10543e-14
3.67943e-12 -7.10543e-14 467.159

469.416 26.4231 2.0132e-14
26.4231 479.977 -1.51257e-12
2.0132e-14 -1.51257e-12 482.565

456.163 25.4736 8.48423e-13
25.4736 486.667 -1.30547e-12
8.48423e-13 -1.30547e-12 487.266

457.826 11.6221 4.22558e-12
11.6221 506.96 -1.18957e-12
4.22558e-12 -1.18957e-12 486.034

431.97 -8.22753 1.04213e-13
-8.22753 370.771 -6.62137e-13
1.04213e-13 -6.62137e-13 363.323

376.795 18.6077 -2.59999e-12
18.6077 427.284 7.10424e-12
-2.59999e-12 7.10424e-12 363.899

452.331 -24.3814 -4.35652e-12
-24.3814 478.406 2.34479e-13
-4.35652e-12 2.34479e-13 470.73

440.765 25.6674 -1.2772e-12
25.6674 455.66 -1.94333e-12
-1.2772e-12 -1.94333e-12 437.823

390.972 -35.6317 -2.02268e-12
-35.6317 380.293 5.26986e-14
-2.02268e-12 5.26986e-14 350.105

368.956 38.3191 4.56287e-12
38.3191 327.265 7.10543e-14
4.56287e-12 7.10543e-14 295.694

363.661 -33.3133 2.04873e-13
-33.3133 394.451 4.44208e-12
2.04873e-13 4.44208e-12 341.993

397.946 -31.1617 1.68043e-12
-31.1617 404.209 4.92051e-12
1.68043e-12 4.92051e-12 362.988

502.877 -6.83862 -3.20011e-12
-6.83862 442.269 -1.08521e-12
-3.20011e-12 -1.08521e-12 482.336

393.18 30.3438 -1.70649e-12
30.3438 408.995 4.20168e-12
-1.70649e-12 4.20168e-12 363.448

429.719 13.2955 4.77603e-12
13.2955 372.261 1.90899e-12
4.77603e-12 1.90899e-12 362.728

350.156 13.3797 -4.5001e-13
13.3797 418.531 4.38405e-12
-4.5001e-13 4.38405e-12 348.488

379.493 -22.3419 -2.7273e-12
-22.3419 423.53 -4.22773e-12
-2.7273e-12 -4.22773e-12 363.462

491.221 -1.09206 2.80183e-12
-1.09206 550.891 -3.20218e-12
2.80183e-12 -3.20218e-12 516.32

372.877 2.24679 3.03979e-12
2.24679 437.805 -1.68991e-12
3.03979e-12 -1.68991e-12 373.534

357.903 31.0913 1.39266e-12
31.0913 399.502 8.53836e-13
1.39266e-12 8.53836e-13 341.973

458.008 12.1084 -3.40653e-14
12.1084 510.579 -8.32519e-13
-3.40653e-14 -8.32519e-13 488.42

421.469 -27.6494 -1.03976e-12
-27.6494 389.086 -4.17977e-12
-1.03976e-12 -4.17977e-12 375.087

524.772 20.557 -1.08387e-12
20.557 469.766 4.71415e-12
-1.08387e-12 4.71415e-12 500.751

534.938 26.2704 -2.93809e-12
26.2704 506.874 -3.04497e-13
-2.93809e-12 -3.04497e-13 516.109

494.835 -18.5685 2.39986e-12
-18.5685 449.042 2.0132e-13
2.39986e-12 2.0132e-13 470.873

554.597 -1.80244 2.01868e-12
-1.80244 516.036 -2.13577e-12
2.01868e-12 -2.13577e-12 525.731

473.305 -31.8126 -7.69755e-13
-31.8126 475.714 2.31489e-12
-7.69755e-13 2.31489e-12 478.595

412.614 23.3293 2.48572e-12
23.3293 357.209 3.71022e-12
2.48572e-12 3.71022e-12 348.105

464.196 30.1624 -1.05752e-12
30.1624 482.788 -3.65545e-12
-1.05752e-12 -3.65545e-12 483.222

464.458 29.2062 9.43245e-13
29.2062 482.261 2.10291e-12
9.43245e-13 2.10291e-12 482.783

393.961 30.6629 2.37795e-12
30.6629 405.74 1.75622e-12
2.37795e-12 1.75622e-12 360.883

502.872 27.0857 7.53767e-13
27.0857 482.681 -2.3069e-12
7.53767e-13 -2.3069e-12 490.751

415.368 3.52538 3.45087e-12
3.52538 339.029 1.1761e-13
3.45087e-12 1.1761e-13 340.838

493.14 31.8172 -3.15895e-13
31.8172 487.241 -3.00708e-12
-3.15895e-13 -3.00708e-12 495.592

476.342 -12.5995 2.80435e-12
-12.5995 522.468 -2.71723e-12
2.80435e-12 -2.71723e-12 500.264

536.941 24.2778 -5.79092e-13
24.2778 507.416 -1.58866e-12
-5.79092e-13 -1.58866e-12 516.645

468.197 -29.5791 -2.89842e-13
-29.5791 479.99 -4.76656e-13
-2.89842e-13 -4.76656e-13 483.08

464.576 -4.89769 1.02586e-12
-4.89769 521.573 -6.31791e-13
1.02586e-12 -6.31791e-13 490.996

400.956 -24.5579 -2.70243e-12
-24.5579 349.036 3.70134e-12
-2.70243e-12 3.70134e-12 323.963

418.984 29.6951 -1.91728e-12
29.6951 392.479 6.16633e-12
-1.91728e-12 6.16633e-12 373.784

352.357 14.6975 -3.2081e-12
14.6975 417.229 8.6781e-12
-3.2081e-12 8.6781e-12 348.253

500.549 -1.1391 -1.31746e-14
-1.1391 442.814 -3.5334e-12
-1.31746e-14 -3.5334e-12 487.727

492.491 0.00219265 -4.31211e-12
0.00219265 438.121 3.9808e-13
-4.31211e-12 3.9808e-13 474.438

452.985 23.1248 -2.31726e-12
23.1248 479.727 4.40063e-12
-2.31726e-12 4.40063e-12 475.605

481.323 23.8713 -3.21817e-13
23.8713 502.891 -1.03438e-12
-3.21817e-13 -1.03438e-12 501.271

456.607 -24.3809 -8.69249e-13
-24.3809 487.373 7.52435e-13
-8.69249e-13 7.52435e-13 488.517

457.854 -0.673197 -3.26957e-12
-0.673197 517.961 4.99867e-12
-3.26957e-12 4.99867e-12 486.418

458.905 25.5908 -1.68754e-12
25.5908 486.489 2.53138e-12
-1.68754e-12 2.53138e-12 488.539

465.582 -10.3086 -2.8173e-12
-10.3086 408.103 -1.60538e-12
-2.8173e-12 -1.60538e-12 427.244

400.884 -32.8358 6.51331e-15
-32.8358 414.976 -1.11141e-12
6.51331e-15 -1.11141e-12 385.185

518.118 -2.30148 2.21201e-12
-2.30148 465.761 1.16233e-12
2.21201e-12 1.16233e-12 500.949

391.892 -34.5107 -5.44749e-14
-34.5107 379.625 -5.35157e-12
-5.44749e-14 -5.35157e-12 347.435

478.023 19.086 4.12026e-12
19.086 509.225 6.04257e-13
4.12026e-12 6.04257e-13 501.868

506.136 -26.4791 -1.35062e-12
-26.4791 470.269 7.91663e-13
-1.35062e-12 7.91663e-13 487.295

425.024 -9.69096 4.73814e-12
-9.69096 366.749 -6.04139e-12
4.73814e-12 -6.04139e-12 356

530.287 -23.1925 -4.50899e-12
-23.1925 488.778 1.18453e-12
-4.50899e-12 1.18453e-12 506.511

500.918 2.35837 4.06638e-13
2.35837 444.602 2.876e-12
4.06638e-13 2.876e-12 489.229

521.213 -23.3222 -4.41958e-12
-23.3222 501.864 2.47994e-12
-4.41958e-12 2.47994e-12 508.556

502.041 -25.8599 3.92871e-12
-25.8599 461.515 -3.21757e-12
3.92871e-12 -3.21757e-12 481.267

498.853 -8.54672 1.12207e-12
-8.54672 445.16 1.14812e-12
1.12207e-12 1.14812e-12 479.369

482.245 -23.0685 -1.7133e-12
-23.0685 505.016 -1.91038e-12
-1.7133e-12 -1.91038e-12 502.559

428.564 -31.344 2.03926e-12
-31.344 410.61 1.0972e-12
2.03926e-12 1.0972e-12 399.019

503.292 -24.5884 1.23516e-12
-24.5884 464.737 -4.2449e-12
1.23516e-12 -4.2449e-12 482.183

441.266 10.8652 1.35832e-12
10.8652 378.501 1.89212e-12
1.35832e-12 1.89212e-12 387.819

500.061 26.341 -1.69168e-12
26.341 498.606 7.68126e-13
-1.69168e-12 7.68126e-13 500.128

463.776 -37.6118 -3.39284e-13
-37.6118 488.415 1.0593e-12
-3.39284e-13 1.0593e-12 494.107

464.885 37.2642 9.1512e-13
37.2642 487.327 1.33589e-12
9.1512e-13 1.33589e-12 493.822

446.354 -28.5727 -1.6771e-12
-28.5727 500.04 4.63688e-12
-1.6771e-12 4.63688e-12 492.337

448.589 27.0636 -6.91743e-13
27.0636 500.731 1.88945e-12
-6.91743e-13 1.88945e-12 492.524

513.095 -8.52723 5.70655e-13
-8.52723 436.433 -2.77452e-12
5.70655e-13 -2.77452e-12 492.784

511.258 9.27321 1.71211e-12
9.27321 438.029 2.01824e-12
1.71211e-12 2.01824e-12 492.422

501.682 -9.84674 -5.45934e-13
-9.84674 451.766 -3.24481e-13
-5.45934e-13 -3.24481e-13 483.045

510.887 32.1148 -2.59052e-13
32.1148 510.413 -8.44019e-13
-2.59052e-13 -8.44019e-13 514.077

509.663 -32.8527 -6.4541e-14
-32.8527 510.09 -1.88891e-12
-6.4541e-14 -1.88891e-12 513.716

481.834 16.0682 3.61326e-12
16.0682 539.152 3.00293e-12
3.61326e-12 3.00293e-12 514.349

483.027 -15.8007 2.26041e-13
-15.8007 538.742 3.94618e-12
2.26041e-13 3.94618e-12 514.37

556.888 -3.74874 -6.69538e-13
-3.74874 506.852 -1.46609e-12
-6.69538e-13 -1.46609e-12 525.013

558.442 3.61147 3.422e-12
3.61147 505.177 -7.29194e-13
3.422e-12 -7.29194e-13 525.385

387.329 9.83758 4.32669e-12
9.83758 449.222 -2.29505e-12
4.32669e-12 -2.29505e-12 397.108

472.412 -24.7751 -1.64994e-12
-24.7751 480.778 -9.17636e-13
-1.64994e-12 -9.17636e-13 485

443.488 -36.3867 -2.41066e-13
-36.3867 485.558 -3.38248e-13
-2.41066e-13 -3.38248e-13 486.652

473.667 -4.6645 -3.22823e-12
-4.6645 420.458 -3.4898e-13
-3.22823e-12 -3.4898e-13 436.361

540.275 -16.6936 -1.78287e-12
-16.6936 484.215 -1.16351e-13
-1.78287e-12 -1.16351e-13 515.31

540.995 16.1746 5.03301e-14
16.1746 485.438 2.91678e-12
5.03301e-14 2.91678e-12 515.915

506.887 0.12187 1.87258e-12
0.12187 423.578 3.05062e-13
1.87258e-12 3.05062e-13 487.026

384.811 23.377 -5.48065e-12
23.377 432.32 -2.88954e-12
-5.48065e-12 -2.88954e-12 385.496

442.36 36.1707 6.03073e-13
36.1707 485.237 -2.14495e-13
6.03073e-13 -2.14495e-13 485.858

452.622 -23.3961 -7.53471e-13
-23.3961 494.978 6.59324e-13
-7.53471e-13 6.59324e-13 483.614

443.272 23.3545 -7.35412e-13
23.3545 397.539 7.04622e-14
-7.35412e-13 7.04622e-14 400.394

530.989 23.8587 9.51535e-13
23.8587 488.029 9.68114e-13
9.51535e-13 9.68114e-13 507.269

428.501 -31.3159 4.90274e-13
-31.3159 410.895 -2.03985e-12
4.90274e-13 -2.03985e-12 398.838

519.882 -3.23164 2.51206e-13
-3.23164 469.081 -2.83595e-12
2.51206e-13 -2.83595e-12 502.708

439.423 -34.1603 -1.45365e-13
-34.1603 485.529 -1.70974e-13
-1.45365e-13 -1.70974e-13 485.847

389.203 8.32055 -8.49691e-13
8.32055 452.352 -3.35968e-12
-8.49691e-13 -3.35968e-12 400.876

385.898 21.8133 -9.542e-13
21.8133 435.796 1.9007e-12
-9.542e-13 1.9007e-12 388.714

383.866 35.7784 -6.15804e-14
35.7784 362.349 3.78956e-14
-6.15804e-14 3.78956e-14 318.344

408.204 1.57889 -4.54392e-12
1.57889 332.171 4.4591e-12
-4.54392e-12 4.4591e-12 327.341

485.478 -22.805 -1.68665e-12
-22.805 502.88 -1.37118e-12
-1.68665e-12 -1.37118e-12 501.771

351.895 31.1861 -3.44376e-12
31.1861 388.85 8.8581e-13
-3.44376e-12 8.8581e-13 312.373

451.373 23.611 1.20851e-12
23.611 478.437 4.44089e-12
1.20851e-12 4.44089e-12 465.235

442.22 -5.34994 -4.80801e-13
-5.34994 377.144 1.05471e-12
-4.80801e-13 1.05471e-12 387.757

464.179 11.2168 -3.30994e-12
11.2168 407.319 -2.62842e-12
-3.30994e-12 -2.62842e-12 424.943

505.403 0.429888 2.29416e-12
0.429888 421.598 -1.52445e-12
2.29416e-12 -1.52445e-12 485.698

449.374 -29.0304 -1.80626e-12
-29.0304 502.02 3.75699e-13
-1.80626e-12 3.75699e-13 493.61

572.519 -6.31829 7.87355e-12
-6.31829 589.495 4.85449e-12
7.87355e-12 4.85449e-12 549.268

463.163 37.4105 -7.93439e-13
37.4105 487.05 -1.21551e-12
-7.93439e-13 -1.21551e-12 493.086

408.758 1.66338 -1.78583e-12
1.66338 331.618 2.11905e-13
-1.78583e-12 2.11905e-13 308.919

404.254 -32.7895 -1.91254e-13
-32.7895 415.53 -4.27095e-12
-1.91254e-13 -4.27095e-12 387.409

443.166 36.6121 -4.24253e-13
36.6121 485.53 1.44477e-13
-4.24253e-13 1.44477e-13 486.594

444.699 -11.1342 -3.11344e-13
-11.1342 498.958 9.78773e-13
-3.11344e-13 9.78773e-13 471.463

386.092 -25.5166 1.62033e-12
-25.5166 428.923 -9.91207e-13
1.62033e-12 -9.91207e-13 384.583

449.474 28.8294 -4.17992e-12
28.8294 501.653 2.86882e-13
-4.17992e-12 2.86882e-13 493.31

452.734 -26.1437 5.42085e-12
-26.1437 419.323 4.50484e-12
5.42085e-12 4.50484e-12 419.538

579.563 10.4838 4.57501e-12
10.4838 582.172 -9.64606e-12
4.57501e-12 -9.64606e-12 549.052

398.348 30.8744 -8.52059e-13
30.8744 422.08 5.20709e-12
-8.52059e-13 5.20709e-12 388.182

515.729 8.12633 -2.96859e-12
8.12633 437.293 -1.08713e-12
-2.96859e-12 -1.08713e-12 494.603

493.826 30.191 -9.02981e-13
30.191 484.77 -1.64698e-12
-9.02981e-13 -1.64698e-12 493.823

453.488 23.3328 -2.09655e-12
23.3328 479.187 -4.50484e-12
-2.09655e-12 -4.50484e-12 475.821

510.72 -32.4874 -5.58664e-13
-32.4874 512.472 -2.37199e-12
-5.58664e-13 -2.37199e-12 515.026

510.329 -23.1913 4.85538e-13
-23.1913 473.201 -4.80505e-13
4.85538e-13 -4.80505e-13 489.698

511.417 10.4697 -4.95419e-12
10.4697 558.008 8.47322e-13
-4.95419e-12 8.47322e-13 523.749

452.195 -23.4347 3.80851e-12
-23.4347 480.189 -2.42769e-13
3.80851e-12 -2.42769e-13 468.972

394.429 -9.70858 1.03266e-12
-9.70858 316.428 6.21236e-12
1.03266e-12 6.21236e-12 295.59

387.309 -14.2781 1.37372e-12
-14.2781 306.073 -3.3662e-12
1.37372e-12 -3.3662e-12 290.064

547.6 16.5304 6.94259e-13
16.5304 507.781 -9.13344e-13
6.94259e-13 -9.13344e-13 519.338

436.509 22.5032 6.93667e-13
22.5032 469.16 8.17716e-13
6.93667e-13 8.17716e-13 447.845

475.985 29.1645 -1.81781e-12
29.1645 467.666 2.46085e-12
-1.81781e-12 2.46085e-12 471.5

450.325 0.688706 9.01205e-13
0.688706 392.796 5.27568e-12
9.01205e-13 5.27568e-12 395.694

478.369 6.57068 -6.93029e-13
6.57068 541.297 2.57039e-12
-6.93029e-13 2.57039e-12 507.559

507.353 16.5407 -6.2812e-12
16.5407 461.157 -5.58368e-13
-6.2812e-12 -5.58368e-13 488.101

389.996 -25.7631 -1.44832e-12
-25.7631 430.058 -1.84386e-12
-1.44832e-12 -1.84386e-12 387.753

456.338 -2.57204 1.63628e-13
-2.57204 517.035 6.49022e-12
1.63628e-13 6.49022e-12 484.861

400.609 13.3663 -1.94126e-12
13.3663 453.009 8.88178e-14
-1.94126e-12 8.88178e-14 404.656

486.935 -29.7144 2.88776e-12
-29.7144 465.834 4.78432e-13
2.88776e-12 4.78432e-13 474.279

430.32 -29.9496 1.43293e-12
-29.9496 423.65 5.32907e-13
1.43293e-12 5.32907e-13 404.975

399.73 31.6252 5.95672e-13
31.6252 418.253 -1.64195e-12
5.95672e-13 -1.64195e-12 386.021

624.005 -15.0195 3.40528e-12
-15.0195 581.957 1.89656e-12
3.40528e-12 1.89656e-12 557.917

494.539 2.04177 -1.53285e-12
2.04177 552.16 2.00314e-12
-1.53285e-12 2.00314e-12 517.943

483.522 20.2991 1.95592e-12
20.2991 542.059 -6.19652e-13
1.95592e-12 -6.19652e-13 516.049

544.722 15.4381 9.65154e-14
15.4381 479.99 -1.82343e-12
9.65154e-14 -1.82343e-12 515.771

473.77 -26.1897 2.35782e-12
-26.1897 479.778 1.57296e-12
2.35782e-12 1.57296e-12 483.038

452.148 17.9584 3.67114e-13
17.9584 404.528 -1.67333e-12
3.67114e-13 -1.67333e-12 406.938

531.592 -5.29324 5.24155e-13
-5.29324 580.812 -6.27054e-13
5.24155e-13 -6.27054e-13 537.133

512.209 -18.9879 4.7636e-13
-18.9879 464.814 1.56734e-12
4.7636e-13 1.56734e-12 493.048

473.999 -15.5996 2.51591e-12
-15.5996 423.196 1.7466e-12
2.51591e-12 1.7466e-12 438.9

402.019 11.6041 8.31631e-13
11.6041 455.981 -5.36104e-12
8.31631e-13 -5.36104e-12 407.799

410.943 -25.7361 2.08189e-12
-25.7361 435.603 -2.00136e-12
2.08189e-12 -2.00136e-12 398.976

532.066 -25.2739 8.92323e-13
-25.2739 523.208 -4.46783e-12
8.92323e-13 -4.46783e-12 519.136

423.077 31.9618 4.60195e-12
31.9618 417.269 -1.02969e-12
4.60195e-12 -1.02969e-12 400.324

535.499 -25.1343 -1.8711e-13
-25.1343 505.805 -2.35693e-12
-1.8711e-13 -2.35693e-12 515.677

453.517 2.59753 4.46813e-12
2.59753 397.038 8.24452e-13
4.46813e-12 8.24452e-13 401.917

311.113 -28.9325 -4.46458e-12
-28.9325 376.615 1.42109e-14
-4.46458e-12 1.42109e-14 290.009

431.897 -29.233 -4.3953e-12
-29.233 424.069 -5.89395e-12
-4.3953e-12 -5.89395e-12 406.174

353.778 32.1612 1.00305e-12
32.1612 392.564 -1.73846e-12
1.00305e-12 -1.73846e-12 312.984

470.365 -11.8765 -2.8937e-12
-11.8765 529.571 1.84623e-12
-2.8937e-12 1.84623e-12 500.323

391.469 -13.8224 1.3524e-12
-13.8224 449.276 -7.03437e-13
1.3524e-12 -7.03437e-13 400.218

602.862 -23.9862 2.70776e-12
-23.9862 602.273 1.60982e-12
2.70776e-12 1.60982e-12 557.858

408.391 23.7726 -4.39115e-12
23.7726 441.962 1.50635e-12
-4.39115e-12 1.50635e-12 402.242

496.597 -32.7264 -3.74486e-12
-32.7264 490.66 2.70273e-12
-3.74486e-12 2.70273e-12 497.466

388.208 -11.964 -4.68514e-14
-11.964 448.308 -1.85452e-12
-4.68514e-14 -1.85452e-12 397.035

516.732 -19.1167 -8.72487e-13
-19.1167 465.774 -2.68704e-12
-8.72487e-13 -2.68704e-12 496.264

410.707 23.8789 -1.96287e-12
23.8789 439.334 -1.63543e-12
-1.96287e-12 -1.63543e-12 400.719

488.944 -4.97564 -1.97709e-12
-4.97564 435.092 -2.80957e-12
-1.97709e-12 -2.80957e-12 460.404

305.795 -30.3443 -1.82965e-12
-30.3443 391.457 7.63833e-12
-1.82965e-12 7.63833e-12 262.583

438.631 21.0151 1.40036e-12
21.0151 473.937 4.96492e-12
1.40036e-12 4.96492e-12 458.371

445.711 -19.3246 4.32247e-12
-19.3246 393.997 6.77976e-14
4.32247e-12 6.77976e-14 399.644

551.62 -21.4457 4.78847e-12
-21.4457 499.535 -1.56083e-12
4.78847e-12 -1.56083e-12 520.122

424.493 31.7563 -8.22453e-12
31.7563 413.345 -7.59097e-13
-8.22453e-12 -7.59097e-13 397.98

459.187 -29.9734 1.05989e-12
-29.9734 437.661 1.00394e-12
1.05989e-12 1.00394e-12 439.322

510.643 20.8857 1.46786e-12
20.8857 476.094 -1.14249e-12
1.46786e-12 -1.14249e-12 492.778

461.53 -28.0761 -4.8539e-13
-28.0761 485.766 -1.62803e-12
-4.8539e-13 -1.62803e-12 488.742

413.743 -26.2272 5.5144e-12
-26.2272 436.27 -4.73695e-15
5.5144e-12 -4.73695e-15 401.461

426.099 28.9831 6.03961e-14
28.9831 429.922 1.69583e-12
6.03961e-14 1.69583e-12 406.884

452.527 26.193 -5.44749e-14
26.193 418.251 -3.3511e-12
-5.44749e-14 -3.3511e-12 419.082

521.993 -14.6109 1.36158e-12
-14.6109 477.2 7.83669e-13
1.36158e-12 7.83669e-13 500.087

403.584 -16.6189 -2.22489e-12
-16.6189 451.769 1.53951e-13
-2.22489e-12 1.53951e-13 406.466

496.073 -17.5686 1.38852e-12
-17.5686 447.631 -8.49247e-13
1.38852e-12 -8.49247e-13 471.525

487.791 16.9094 2.2311e-12
16.9094 436.283 6.13435e-13
2.2311e-12 6.13435e-13 460.613

513.361 -9.38579 5.98888e-12
-9.38579 555.798 -2.70598e-12
5.98888e-12 -2.70598e-12 523.05

454.006 -13.4308 4.3876e-12
-13.4308 402.202 1.09601e-12
4.3876e-12 1.09601e-12 406.767

403.225 0.594182 1.61249e-12
0.594182 465.753 1.03858e-12
1.61249e-12 1.03858e-12 417.829

475.054 18.5558 -2.72079e-12
18.5558 428.796 1.79175e-12
-2.72079e-12 1.79175e-12 442.246

451.169 27.6057 9.69891e-13
27.6057 421.863 -1.79886e-12
9.69891e-13 -1.79886e-12 420.868

400.892 -15.6873 3.62377e-13
-15.6873 451.409 -2.86704e-12
3.62377e-13 -2.86704e-12 403.76

406.024 -1.20227 7.43109e-14
-1.20227 468.062 -3.45442e-12
7.43109e-14 -3.45442e-12 421.244

516.223 29.1346 1.80774e-12
29.1346 498.048 7.84558e-14
1.80774e-12 7.84558e-14 504.899

441.73 -10.9227 -1.69287e-12
-10.9227 500.685 7.53175e-13
-1.69287e-12 7.53175e-13 471.173

451.467 -26.717 -5.66006e-12
-26.717 418.791 -2.69533e-12
-5.66006e-12 -2.69533e-12 419.377

444.414 21.3341 2.07478e-12
21.3341 395.321 -3.4864e-12
2.07478e-12 -3.4864e-12 398.224

497.622 23.6659 2.11683e-12
23.6659 458.115 9.19857e-13
2.11683e-12 9.19857e-13 476.576

447.707 5.47133 -1.78309e-12
5.47133 508.817 -1.18128e-12
-1.78309e-12 -1.18128e-12 476.907

427.675 29.0676 -2.41585e-12
29.0676 426.46 9.81141e-13
-2.41585e-12 9.81141e-13 405.134

536.843 22.9639 -6.33271e-13
22.9639 531.916 -4.59706e-12
-6.33271e-13 -4.59706e-12 522.806

314.767 -59.6951 -3.58114e-12
-59.6951 282.784 -9.45022e-13
-3.58114e-12 -9.45022e-13 223.436

480.621 -25.0492 1.24167e-12
-25.0492 445.097 4.65405e-13
1.24167e-12 4.65405e-13 456.672

336.683 7.07037 -6.2735e-12
7.07037 409.18 6.06093e-12
-6.2735e-12 6.06093e-12 319.459

460.565 -28.891 4.08621e-12
-28.891 444.763 -2.47269e-12
4.08621e-12 -2.47269e-12 443.478

96.4284 -52.7033 8.90547e-13
-52.7033 306.632 2.62427e-12
8.90547e-13 2.62427e-12 113.706

95.9623 51.454 9.58048e-13
51.454 306.897 2.78533e-12
9.58048e-13 2.78533e-12 114.494

181.525 117.159 -2.0061e-12
117.159 226.087 1.89478e-14
-2.0061e-12 1.89478e-14 113.594

182.823 -117.102 2.84217e-12
-117.102 223.322 -5.0638e-12
2.84217e-12 -5.0638e-12 113.568

321.598 -1.36344 4.68958e-13
-1.36344 84.6574 2.89178e-14
4.68958e-13 2.89178e-14 114.935

274.446 -91.1296 1.91373e-12
-91.1296 127.424 -4.59484e-13
1.91373e-12 -4.59484e-13 113.808

275.142 91.6575 2.37795e-12
91.6575 128.257 -8.19493e-13
2.37795e-12 -8.19493e-13 114.579

525.264 14.3311 -1.66563e-12
14.3311 474.736 -2.07449e-12
-1.66563e-12 -2.07449e-12 502.338

556.815 25.5358 -9.35548e-14
25.5358 541.2 6.94496e-12
-9.35548e-14 6.94496e-12 533.47

492.121 6.60646 1.71122e-13
6.60646 439.146 -1.22413e-12
1.71122e-13 -1.22413e-12 471.428

470.327 21.786 1.88116e-12
21.786 424.541 -2.53249e-12
1.88116e-12 -2.53249e-12 438.22

409.999 17.7457 -2.3254e-12
17.7457 461.101 2.83388e-12
-2.3254e-12 2.83388e-12 425.068

448.037 28.9004 2.2915e-13
28.9004 424.731 -3.57285e-12
2.2915e-13 -3.57285e-12 420.775

487.175 -29.6646 1.78109e-12
-29.6646 465.653 -6.37712e-13
1.78109e-12 -6.37712e-13 474.615

449.395 28.0297 -2.91026e-12
28.0297 421.096 9.39693e-13
-2.91026e-12 9.39693e-13 418.666

402.987 -2.84158 7.04177e-13
-2.84158 465.409 2.51058e-12
7.04177e-13 2.51058e-12 417.565

555.821 -26.0967 3.25665e-13
-26.0967 543.393 6.05856e-12
3.25665e-13 6.05856e-12 533.714

405.525 -4.86287 3.56618e-12
-4.86287 467.148 -2.14702e-12
3.56618e-12 -2.14702e-12 420.624

522.316 23.0171 2.68822e-12
23.0171 499.766 1.17447e-12
2.68822e-12 1.17447e-12 507.993

423.404 26.8727 5.02354e-12
26.8727 386.53 -3.36324e-12
5.02354e-12 -3.36324e-12 373.049

480.135 -13.2162 -5.26764e-12
-13.2162 532.792 -3.48166e-13
-5.26764e-12 -3.48166e-13 512.025

484.226 13.7287 1.15759e-12
13.7287 432.801 1.03562e-12
1.15759e-12 1.03562e-12 456.901

457.396 -29.9894 2.01439e-12
-29.9894 437.002 -5.51707e-12
2.01439e-12 -5.51707e-12 437.858

454.336 -24.715 -3.07902e-14
-24.715 416.829 5.27933e-12
-3.07902e-14 5.27933e-12 419.878

547.425 -16.0757 4.32839e-12
-16.0757 509.327 2.39719e-12
4.32839e-12 2.39719e-12 519.406

475.999 27.9303 -2.16479e-12
27.9303 449.731 -4.39056e-13
-2.16479e-12 -4.39056e-13 456.951

469.128 23.9789 1.95577e-12
23.9789 427.874 9.77884e-13
1.95577e-12 9.77884e-13 439.855

432.453 -2.79285 -1.71296e-12
-2.79285 493.665 -8.23637e-13
-1.71296e-12 -8.23637e-13 457.132

417.631 5.87359 1.74358e-12
5.87359 479.586 -1.70057e-12
1.74358e-12 -1.70057e-12 440.202

463.04 2.64689 -2.39808e-12
2.64689 402.304 1.73195e-13
-2.39808e-12 1.73195e-13 422.346

438.675 -7.29023 -1.3524e-12
-7.29023 373.937 -7.79673e-13
-1.3524e-12 -7.79673e-13 381.241

454.87 30.4865 -1.52944e-12
30.4865 439.041 7.00062e-12
-1.52944e-12 7.00062e-12 437.862

478.492 -26.1569 -2.03689e-12
-26.1569 443.568 -1.54188e-12
-2.03689e-12 -1.54188e-12 454.672

525.724 -21.2546 -1.94037e-12
-21.2546 497.852 2.55055e-12
-1.94037e-12 2.55055e-12 508.642

437.759 -31.6358 -1.71004e-12
-31.6358 437.681 -1.92853e-12
-1.71004e-12 -1.92853e-12 426.884

417.615 -27.7876 -1.02081e-12
-27.7876 444.423 -3.08731e-12
-1.02081e-12 -3.08731e-12 419.713

430.673 29.8893 2.63019e-12
29.8893 442.771 2.59052e-12
2.63019e-12 2.59052e-12 426.522

416.25 -9.5785 2.23044e-12
-9.5785 475.24 5.66243e-12
2.23044e-12 5.66243e-12 436.48

428.92 -1.54514 -3.33785e-12
-1.54514 491.896 -5.36993e-12
-3.33785e-12 -5.36993e-12 454.02

445.206 5.74781 -1.26795e-12
5.74781 508.07 1.77044e-13
-1.26795e-12 1.77044e-13 474.94

414.643 -21.0906 3.52873e-12
-21.0906 458.435 2.65447e-12
3.52873e-12 2.65447e-12 426.09

496.895 24.1124 3.13823e-13
24.1124 455.721 -1.11674e-12
3.13823e-13 -1.11674e-12 474.618

483.402 -9.59031 1.56556e-12
-9.59031 430.137 9.26074e-13
1.56556e-12 9.26074e-13 455.247

415.658 7.46566 3.20044e-12
7.46566 477.149 -1.42109e-12
3.20044e-12 -1.42109e-12 436.938

443.979 -9.70129 -5.48585e-12
-9.70129 501.531 -1.79649e-12
-5.48585e-12 -1.79649e-12 471.033

433.199 -16.3316 -2.21275e-12
-16.3316 481.704 3.54798e-12
-2.21275e-12 3.54798e-12 455.694

463.568 -8.23975 3.09915e-12
-8.23975 406.359 2.4493e-12
3.09915e-12 2.4493e-12 421.496

494.459 -32.3468 -8.42585e-13
-32.3468 487.642 1.435e-12
-8.42585e-13 1.435e-12 496.276

422.969 9.32169 -2.68822e-13
9.32169 479.12 -1.24108e-12
-2.68822e-13 -1.24108e-12 441.005

564.375 -18.2129 -5.44365e-12
-18.2129 529.97 -3.57995e-12
-5.44365e-12 -3.57995e-12 531.852

309.066 24.8246 -3.6285e-12
24.8246 379.445 -2.48216e-12
-3.6285e-12 -2.48216e-12 289.815

501.723 -26.6268 -2.71161e-12
-26.6268 499.514 5.0373e-12
-2.71161e-12 5.0373e-12 501.224

515.673 -30.2029 -3.55508e-12
-30.2029 498.426 2.5994e-13
-3.55508e-12 2.5994e-13 504.942

429.247 -0.701064 1.32191e-13
-0.701064 492.022 -5.71513e-12
1.32191e-13 -5.71513e-12 454.171

474.91 -16.6234 4.25734e-13
-16.6234 428.363 -3.90769e-12
4.25734e-13 -3.90769e-12 441.982

462.33 12.8418 -1.22169e-12
12.8418 511.302 -3.37922e-12
-1.22169e-12 -3.37922e-12 489.147

240.788 -3.18097 5.6101e-12
-3.18097 360.708 6.33094e-12
5.6101e-12 6.33094e-12 226.979

432.429 14.2744 1.41058e-12
14.2744 485.385 -2.13637e-12
1.41058e-12 -2.13637e-12 456.909

458.139 -29.4911 2.74743e-12
-29.4911 443.197 2.41229e-12
2.74743e-12 2.41229e-12 440.788

304.203 25.1072 -1.31983e-12
25.1072 394.607 1.9611e-12
-1.31983e-12 1.9611e-12 264.356

603.561 26.096 2.70258e-12
26.096 597.966 1.45069e-14
2.70258e-12 1.45069e-14 558.174

608.294 -27.8052 3.79045e-12
-27.8052 595.041 -1.68635e-12
3.79045e-12 -1.68635e-12 558.308

463.521 -30.4207 1.18424e-15
-30.4207 459.065 -3.92338e-12
1.18424e-15 -3.92338e-12 459.099

434.611 -31.1625 4.08562e-14
-31.1625 436.387 1.56438e-12
4.08562e-14 1.56438e-12 424.688

474.13 20.8286 -5.85014e-13
20.8286 431.941 -3.33067e-13
-5.85014e-13 -3.33067e-13 443.999

465.251 15.0072 -3.30521e-12
15.0072 410.141 -1.6076e-12
-3.30521e-12 -1.6076e-12 427.489

646.073 3.08227 -6.24345e-12
3.08227 645.731 6.14442e-12
-6.24345e-12 6.14442e-12 574.634

649.894 -6.99824 -9.41388e-12
-6.99824 641.402 -3.25902e-12
-9.41388e-12 -3.25902e-12 575.163

497.018 4.82423 -3.67528e-12
4.82423 442.062 8.28226e-13
-3.67528e-12 8.28226e-13 477.44

443.583 6.73162 3.07295e-12
6.73162 503.017 -2.20742e-12
3.07295e-12 -2.20742e-12 471.077

441.997 6.73639 6.61467e-12
6.73639 502.543 2.81256e-13
6.61467e-12 2.81256e-13 469.799

321.554 58.6381 -8.01019e-12
58.6381 281.138 1.81662e-12
-8.01019e-12 1.81662e-12 225.09

420.254 -28.202 7.8811e-13
-28.202 444.051 6.65779e-12
7.8811e-13 6.65779e-12 421.058

520.604 17.9742 -4.22477e-13
17.9742 467.556 -6.80345e-13
-4.22477e-13 -6.80345e-13 499.535

473.01 9.54025 -4.77603e-12
9.54025 421.223 -2.42103e-12
-4.77603e-12 -2.42103e-12 436.229

440.657 -26.7252 -2.02327e-12
-26.7252 450.754 -2.0511e-12
-2.02327e-12 -2.0511e-12 433.442

469.305 -20.239 2.825e-12
-20.239 422.742 4.5226e-12
2.825e-12 4.5226e-12 437.202

312.491 60.236 2.69533e-12
60.236 281.387 4.51076e-12
2.69533e-12 4.51076e-12 223.228

492.707 31.0697 -3.12343e-12
31.0697 489.067 -4.84945e-13
-3.12343e-12 -4.84945e-13 493.163

410.888 -19.7876 -3.82094e-12
-19.7876 457.91 3.18146e-12
-3.82094e-12 3.18146e-12 423.524

474.156 28.8593 -3.67291e-12
28.8593 449.658 2.93099e-13
-3.67291e-12 2.93099e-13 456.545

430.982 -4.14531 2.92151e-12
-4.14531 493.002 -2.2838e-12
2.92151e-12 -2.2838e-12 456.494

423.956 19.6107 1.89478e-13
19.6107 465.741 -7.13799e-12
1.89478e-13 -7.13799e-12 434.134

452.775 30.5208 3.41061e-13
30.5208 443.625 3.51127e-13
3.41061e-13 3.51127e-13 439.635

428.67 -22.4749 -2.59289e-12
-22.4749 461.166 -9.22521e-13
-2.59289e-12 -9.22521e-13 433.839

443.602 -27.3545 -5.64052e-12
-27.3545 450.461 2.84336e-12
-5.64052e-12 2.84336e-12 435.072

294.795 11.2577 -5.08023e-12
11.2577 372.607 -1.81662e-12
-5.08023e-12 -1.81662e-12 258.117

357.319 -33.4588 1.7657e-12
-33.4588 389.141 3.47929e-12
1.7657e-12 3.47929e-12 314.148

419.683 -11.6913 -8.22749e-13
-11.6913 476.39 3.59535e-12
-8.22749e-13 3.59535e-12 439.371

478.425 26.4862 -7.67978e-13
26.4862 446.825 5.46585e-12
-7.67978e-13 5.46585e-12 456.11

452.373 29.4798 1.60464e-12
29.4798 449.054 4.32602e-12
1.60464e-12 4.32602e-12 442.426

426.835 -21.4355 3.06125e-13
-21.4355 461.813 -3.4639e-13
3.06125e-13 -3.4639e-13 432.657

422.957 -11.7833 -1.70886e-12
-11.7833 476.677 4.48234e-12
-1.70886e-12 4.48234e-12 439.955

457.734 28.4114 2.36374e-12
28.4114 447.115 -3.80732e-13
2.36374e-12 -3.80732e-13 442.597

425.131 -13.8789 -2.88155e-12
-13.8789 476.448 -1.02437e-12
-2.88155e-12 -1.02437e-12 442.131

311.283 27.8572 -1.30266e-12
27.8572 377.414 -8.2423e-13
-1.30266e-12 -8.2423e-13 290.002

485.192 -4.04076 -6.20588e-12
-4.04076 545.073 5.64881e-13
-6.20588e-12 5.64881e-13 511.06

433.012 31.0299 -3.23889e-12
31.0299 439.655 -1.56497e-12
-3.23889e-12 -1.56497e-12 426.045

509.337 14.902 -1.09027e-11
14.902 463.187 -1.11614e-13
-1.09027e-11 -1.11614e-13 488.631

516.947 -15.9284 -3.16576e-12
-15.9284 467.607 -2.44545e-13
-3.16576e-12 -2.44545e-13 493.949

383.949 -24.2064 -1.07529e-12
-24.2064 305.965 2.89901e-12
-1.07529e-12 2.89901e-12 285.372

442.306 -21.2684 1.09246e-12
-21.2684 476.029 -4.27451e-12
1.09246e-12 -4.27451e-12 459.348

447.855 26.6998 3.25458e-12
26.6998 466.236 4.22181e-13
3.25458e-12 4.22181e-13 457.868

522.997 -21.7276 2.96296e-12
-21.7276 543.831 2.07567e-12
2.96296e-12 2.07567e-12 525.331

579.595 14.1049 -3.79252e-12
14.1049 617.63 -3.55834e-12
-3.79252e-12 -3.55834e-12 557.07

620.216 9.44525 3.19744e-12
9.44525 576.854 8.19493e-13
3.19744e-12 8.19493e-13 556.888

523.492 32.7048 3.9823e-12
32.7048 520.672 6.36528e-14
3.9823e-12 6.36528e-14 519.547

414.917 26.0024 -3.03609e-12
26.0024 448.934 2.46914e-12
-3.03609e-12 2.46914e-12 420.402

478.123 26.6627 3.55153e-12
26.6627 444.795 -5.12834e-12
3.55153e-12 -5.12834e-12 455.533

332.382 45.1894 -2.77112e-13
45.1894 349.51 -5.2817e-12
-2.77112e-13 -5.2817e-12 286.757

571.403 -11.3422 4.03529e-13
-11.3422 614.481 -6.58436e-13
4.03529e-13 -6.58436e-13 554.613

641.33 -3.43213 1.79133e-12
-3.43213 636.876 9.90911e-13
1.79133e-12 9.90911e-13 572.411

634.91 -0.209335 4.00509e-12
-0.209335 643.181 -6.07092e-12
4.00509e-12 -6.07092e-12 572.238

272.978 -53.806 -5.8679e-12
-53.806 316.465 7.23806e-12
-5.8679e-12 7.23806e-12 220.922

566.656 -11.5994 1.04909e-12
-11.5994 562.14 2.77822e-12
1.04909e-12 2.77822e-12 540.918

563.785 8.81206 -2.27433e-12
8.81206 586.977 -7.40474e-12
-2.27433e-12 -7.40474e-12 546.859

478.272 -26.2007 4.16023e-12
-26.2007 440.467 5.07298e-12
4.16023e-12 5.07298e-12 453.507

494.37 1.01045 -1.96176e-12
1.01045 545.782 -1.39858e-12
-1.96176e-12 -1.39858e-12 514.08

447.677 -20.269 2.2502e-12
-20.269 484.187 6.30607e-13
2.2502e-12 6.30607e-13 470.664

506.329 6.25546 -1.07766e-13
6.25546 443.402 1.31399e-12
-1.07766e-13 1.31399e-12 486.151

461.3 15.5963 2.97007e-12
15.5963 521.278 -1.42138e-12
2.97007e-12 -1.42138e-12 497.582

471.204 7.19127 -2.64871e-12
7.19127 528.031 -4.79853e-12
-2.64871e-12 -4.79853e-12 497.715

493.79 20.394 -1.47911e-12
20.394 451.543 -7.25346e-13
-1.47911e-12 -7.25346e-13 469.776

241.078 -3.11391 -3.53088e-12
-3.11391 358.58 -2.59822e-12
-3.53088e-12 -2.59822e-12 227.077

463.728 -27.6253 6.22317e-13
-27.6253 463.419 9.35548e-13
6.22317e-13 9.35548e-13 461.217

488.371 -26.1176 1.63366e-12
-26.1176 481.624 5.52743e-13
1.63366e-12 5.52743e-13 485.895

497.563 -31.4837 5.60737e-13
-31.4837 489.984 1.86962e-12
5.60737e-13 1.86962e-12 499.006

355.62 32.7519 -1.7882e-12
32.7519 285.794 1.82284e-12
-1.7882e-12 1.82284e-12 248.381

563.898 -20.1159 -7.66439e-12
-20.1159 569.628 -1.91884e-12
-7.66439e-12 -1.91884e-12 542.59

337.666 54.3255 -3.48166e-12
54.3255 356.677 -8.86757e-12
-3.48166e-12 -8.86757e-12 258.89

477.097 -21.4391 2.968e-13
-21.4391 506.516 3.27235e-12
2.968e-13 3.27235e-12 500.269

504.8 14.6505 -2.26249e-12
14.6505 452.013 2.5322e-12
-2.26249e-12 2.5322e-12 481.586

449.859 -14.5735 -5.50079e-12
-14.5735 397.01 -7.8663e-13
-5.50079e-12 -7.8663e-13 400.864

452.621 24.0477 3.19715e-12
24.0477 478.808 7.64426e-13
3.19715e-12 7.64426e-13 467.875

493.694 20.4287 -1.65201e-12
20.4287 449.526 -2.5168e-12
-1.65201e-12 -2.5168e-12 469.368

505.586 11.3997 -3.37811e-12
11.3997 564.435 -4.72037e-12
-3.37811e-12 -4.72037e-12 526.733

475.922 -31.5812 8.12683e-13
-31.5812 470.383 7.8663e-13
8.12683e-13 7.8663e-13 475.09

559.288 19.8123 2.3439e-12
19.8123 510.46 2.07745e-12
2.3439e-12 2.07745e-12 526.509

439.985 -18.4445 -5.43861e-13
-18.4445 482.494 2.75039e-12
-5.43861e-13 2.75039e-12 459.176

465.922 4.28367 2.35653e-12
4.28367 526.133 -4.02819e-12
2.35653e-12 -4.02819e-12 495.535

588.653 9.92736 4.50573e-12
9.92736 552.477 1.91388e-12
4.50573e-12 1.91388e-12 545.207

590.436 -8.51409 1.62833e-12
-8.51409 554.819 4.88942e-12
1.62833e-12 4.88942e-12 545.725

382.332 18.5137 -1.81899e-12
18.5137 302.304 3.18323e-12
-1.81899e-12 3.18323e-12 286.151

502.706 7.96549 -2.29949e-12
7.96549 453.626 3.07339e-12
-2.29949e-12 3.07339e-12 487.791

232.826 7.74112 -2.65269e-12
7.74112 381.534 9.00021e-14
-2.65269e-12 9.00021e-14 187.197

236.996 -11.3859 2.68985e-12
-11.3859 387.227 -5.4096e-12
2.68985e-12 -5.4096e-12 189.461

249.299 56.4091 8.90547e-13
56.4091 354.794 -1.29319e-12
8.90547e-13 -1.29319e-12 184.033

505.04 -28.9513 6.19949e-13
-28.9513 478.64 3.57581e-12
6.19949e-13 3.57581e-12 491.368

258.485 -49.1934 1.38674e-12
-49.1934 341.859 6.25041e-12
1.38674e-12 6.25041e-12 220.746

249.304 -55.9517 8.47914e-13
-55.9517 344.768 -5.49013e-12
8.47914e-13 -5.49013e-12 181.125

434.68 26.2219 2.6071e-12
26.2219 454.42 2.48631e-12
2.6071e-12 2.48631e-12 432.85

329.94 73.8468 2.65269e-12
73.8468 280.023 -2.63611e-12
2.65269e-12 -2.63611e-12 184.837

540.144 13.0466 -7.89887e-13
13.0466 554.966 1.247e-12
-7.89887e-13 1.247e-12 532.098

562.402 0.0407939 3.3736e-12
0.0407939 532.472 1.09868e-12
3.3736e-12 1.09868e-12 531.891

338.618 -73.1321 -8.52651e-13
-73.1321 279.871 -4.48116e-12
-8.52651e-13 -4.48116e-12 186.32

432.695 -23.4254 -1.20378e-12
-23.4254 466.338 -1.6005e-12
-1.20378e-12 -1.6005e-12 447.597

358.951 34.7313 9.35548e-13
34.7313 310.992 -8.28967e-13
9.35548e-13 -8.28967e-13 258.053

267.718 63.4935 5.94014e-12
63.4935 345.226 5.4996e-12
5.94014e-12 5.4996e-12 185.855

293.708 21.6316 -8.56204e-13
21.6316 367.682 -4.97617e-12
-8.56204e-13 -4.97617e-12 254.512

267.589 -65.9224 1.9161e-12
-65.9224 344.861 -4.57116e-12
1.9161e-12 -4.57116e-12 184.311

291.655 -12.3818 -1.51038e-11
-12.3818 370.903 5.00933e-12
-1.51038e-11 5.00933e-12 253.457

550.322 6.84038 8.55612e-14
6.84038 582.094 -3.892e-12
8.55612e-14 -3.892e-12 541.136

329.908 -45.9779 -3.50653e-12
-45.9779 341.835 -1.86044e-12
-3.50653e-12 -1.86044e-12 276.631

259.795 47.5347 1.86399e-12
47.5347 340.235 -5.31723e-12
1.86399e-12 -5.31723e-12 223.158

370.233 37.9131 -4.78432e-13
37.9131 244.932 -2.64559e-12
-4.78432e-13 -2.64559e-12 187.367

481.917 -29.2871 -2.00136e-13
-29.2871 460.537 2.64263e-12
-2.00136e-13 2.64263e-12 467.739

481 12.8964 7.3593e-13
12.8964 525.854 5.66954e-13
7.3593e-13 5.66954e-13 504.128

354.438 -38.1148 4.59721e-12
-38.1148 300.093 2.70006e-12
4.59721e-12 2.70006e-12 251.829

482.561 -28.8034 -1.05397e-12
-28.8034 460.346 -2.55351e-12
-1.05397e-12 -2.55351e-12 468.488

365.281 -36.3449 3.61429e-12
-36.3449 230.999 1.15463e-13
3.61429e-12 1.15463e-13 182.78

481.529 -28.3186 1.13805e-12
-28.3186 472.78 5.33351e-12
1.13805e-12 5.33351e-12 477.944

436.379 -25.2965 1.11526e-12
-25.2965 466.252 -7.82426e-12
1.11526e-12 -7.82426e-12 448.235

314.813 69.4632 9.75812e-13
69.4632 292.156 8.17598e-12
9.75812e-13 8.17598e-12 184.534

290.797 -22.9342 3.11691e-12
-22.9342 359.184 8.13335e-12
3.11691e-12 8.13335e-12 247.043

312.415 -71.6953 3.73272e-12
-71.6953 288.136 -6.29541e-12
3.73272e-12 -6.29541e-12 182.036

268.56 50.7402 2.72375e-14
50.7402 320.077 3.78956e-14
2.72375e-14 3.78956e-14 221.517

459.888 -30.2138 5.12953e-12
-30.2138 454.871 3.39965e-12
5.12953e-12 3.39965e-12 454.426

559.305 -14.6407 7.93262e-12
-14.6407 544.429 5.18519e-12
7.93262e-12 5.18519e-12 533.737

635.926 11.0913 9.01871e-13
11.0913 631.39 3.0315e-12
9.01871e-13 3.0315e-12 570.034

619.964 -5.16024 4.48708e-12
-5.16024 639.742 -6.78019e-12
4.48708e-12 -6.78019e-12 568.512

453.894 13.0838 -2.6575e-13
13.0838 506.581 2.85401e-13
-2.6575e-13 2.85401e-13 482.597

634.156 -10.6657 7.77341e-12
-10.6657 631.32 1.27809e-12
7.77341e-12 1.27809e-12 569.889

622.702 4.09211 2.83921e-13
4.09211 642.688 4.53411e-12
2.83921e-13 4.53411e-12 569.713

643.379 7.43236 2.23229e-13
7.43236 619.154 -1.83216e-12
2.23229e-13 -1.83216e-12 569.036

584.786 -12.1135 -7.07268e-12
-12.1135 631.674 -2.964e-12
-7.07268e-12 -2.964e-12 560.609

307.461 -30.4723 6.25811e-12
-30.4723 371.654 1.80241e-12
6.25811e-12 1.80241e-12 280.786

589.638 -12.9721 -4.23365e-13
-12.9721 549.128 6.64002e-12
-4.23365e-13 6.64002e-12 543.845

527.228 -34.4167 3.13172e-12
-34.4167 521.507 -4.05157e-13
3.13172e-12 -4.05157e-13 519.987

565.48 -18.1773 -2.40844e-12
-18.1773 538.008 -7.10676e-12
-2.40844e-12 -7.10676e-12 534.278

502.596 15.46 2.89605e-12
15.46 452.14 7.84262e-13
2.89605e-12 7.84262e-13 480.232

586.359 9.8631 6.00623e-12
9.8631 642.14 3.37952e-12
6.00623e-12 3.37952e-12 563.119

636.663 19.226 -2.44338e-12
19.226 591.732 -1.16607e-12
-2.44338e-12 -1.16607e-12 562.94

569.792 11.3076 4.20286e-12
11.3076 544.356 -3.00841e-12
4.20286e-12 -3.00841e-12 536.456

353.462 -15.3405 4.47168e-12
-15.3405 231.527 -1.7503e-12
4.47168e-12 -1.7503e-12 219.026

437.232 24.9657 5.10762e-12
24.9657 461.94 -4.62859e-12
5.10762e-12 -4.62859e-12 445.748

317.107 -61.3583 -1.03052e-11
-61.3583 277.863 6.36646e-12
-1.03052e-11 6.36646e-12 218.101

334.226 -57.4604 -5.4096e-12
-57.4604 357.342 1.39266e-12
-5.4096e-12 1.39266e-12 252.554

383.355 -36.5462 1.73136e-12
-36.5462 305.755 5.33381e-12
1.73136e-12 5.33381e-12 257.774

562.51 -5.15878 -7.73307e-13
-5.15878 616.96 9.33031e-13
-7.73307e-13 9.33031e-13 552.967

562.218 2.89133 7.01365e-13
2.89133 615.826 4.62904e-12
7.01365e-13 4.62904e-12 552.566

598.78 -24.4541 3.96364e-12
-24.4541 575.755 -3.6419e-12
3.96364e-12 -3.6419e-12 551.596

602.34 -21.7581 3.74101e-12
-21.7581 573.446 -1.06345e-12
3.74101e-12 -1.06345e-12 551.862

598.793 26.1335 -2.31015e-12
26.1335 580.47 3.33289e-12
-2.31015e-12 3.33289e-12 552.751

625.748 3.09788 9.18554e-12
3.09788 630.74 3.73998e-11
9.18554e-12 3.73998e-11 568.435

599.07 -20.5072 -1.02585e-12
-20.5072 576.367 -2.60177e-12
-1.02585e-12 -2.60177e-12 552.284

607.819 -18.567 1.03989e-11
-18.567 620.268 6.44307e-12
1.03989e-11 6.44307e-12 563.201

632.906 2.43335 2.33813e-12
2.43335 635.531 9.41469e-13
2.33813e-12 9.41469e-13 570.52

607.896 -20.5242 -1.62529e-12
-20.5242 572.439 -4.46102e-12
-1.62529e-12 -4.46102e-12 553.423

607.081 20.9537 2.18536e-12
20.9537 573.697 -3.79548e-13
2.18536e-12 -3.79548e-13 553.826

633.857 -3.45729 8.23193e-13
-3.45729 636.781 2.30778e-13
8.23193e-13 2.30778e-13 571.294

632.187 -3.11546 6.8258e-12
-3.11546 625.763 -1.01409e-11
6.8258e-12 -1.01409e-11 569.409

609.691 12.1095 1.00847e-11
12.1095 620.491 -4.96729e-12
1.00847e-11 -4.96729e-12 563.932

587.215 26.9277 3.51956e-12
26.9277 583.03 7.1262e-13
3.51956e-12 7.1262e-13 551.719

FIELD solute_concentration_TPM 2
S_ext 1 563 float
0.885688
0.885522
0.885539
0.885523
0.885501
0.885539
0.885688
0.885532
0.885553
0.885526
0.885653
0.885532
0.885535
0.885525
0.885507
0.885537
0.885519
0.88553
0.885556
0.885541
0.885547
0.885463
0.885543
0.885542
0.885542
0.885527
0.885645
0.885537
0.885598
0.885483
0.885536
0.885597
0.885649
0.885489
0.885488
0.885489
0.88548
0.88549
0.885536
0.885649
0.885597
0.885479
0.885479
0.885535
0.885626
0.885597
0.885555
0.885551
0.885539
0.885605
0.885601
0.885584
0.8855
0.885585
0.885501
0.885632
0.885488
0.885584
0.885488
0.88554
0.885518
0.885512
0.885641
0.885514
0.885512
0.885523
0.885517
0.885528
0.885542
0.885522
0.8855
0.8855
0.885598
0.88552
0.885539
0.885652
0.885508
0.885523
0.885528
0.885578
0.885613
0.885498
0.885515
0.885615
0.885597
0.88563
0.885537
0.885522
0.885626
0.88547
0.885584
0.885471
0.885506
0.885525
0.885584
0.885601
0.885615
0.885525
0.885508
0.885536
0.885568
0.885594
0.885615
0.885527
0.885527
0.885526
0.885514
0.885538
0.885616
0.885518
0.88554
0.885623
0.885618
0.885529
0.885526
0.885585
0.88549
0.885616
0.885491
0.885584
0.88556
0.885507
0.885521
0.885518
0.885518
0.885505
0.885493
0.885525
0.885615
0.885583
0.885499
0.885522
0.885514
0.885521
0.885595
0.885487
0.885624
0.885535
0.885514
0.885487
0.885592
0.88553
0.88556
0.885525
0.885617
0.885526
0.885531
0.885541
0.885539
0.885571
0.88555
0.885522
0.885596
0.885535
0.885525
0.885522
0.885524
0.885592
0.885591
0.885532
0.88555
0.885595
0.885626
0.885599
0.88559
0.885526
0.885591
0.885592
0.885597
0.88559
0.885505
0.885584
0.885601
0.885523
0.885584
0.885514
0.885505
0.885533
0.885501
0.885528
0.885598
0.885525
0.885525
0.885591
0.885521
0.885602
0.885518
0.885516
0.885507
0.885525
0.885521
0.885613
0.885584
0.885597
0.885522
0.88553
0.885529
0.885514
0.885521
0.885524
0.885521
0.885556
0.885578
0.885515
0.885599
0.885514
0.885524
0.885594
0.885512
0.885522
0.885512
0.885527
0.885527
0.885515
0.88557
0.885526
0.885577
0.885516
0.885518
0.885518
0.885518
0.885518
0.885518
0.885518
0.885526
0.885506
0.885507
0.885506
0.885506
0.885502
0.885501
0.885571
0.885525
0.885521
0.885552
0.885507
0.885507
0.885522
0.885577
0.885521
0.885525
0.88557
0.885511
0.885571
0.885515
0.885521
0.885569
0.885576
0.885614
0.885607
0.885514
0.885619
0.885535
0.885577
0.885556
0.885522
0.885518
0.88548
0.885518
0.885623
0.885576
0.885521
0.885532
0.885578
0.885518
0.88556
0.88548
0.885576
0.885518
0.88552
0.885529
0.885507
0.885523
0.885501
0.885534
0.885625
0.88563
0.885505
0.885545
0.885532
0.885573
0.885511
0.885523
0.885576
0.885524
0.885568
0.885531
0.885568
0.885576
0.885473
0.885504
0.885505
0.885505
0.885525
0.885568
0.88549
0.88552
0.88555
0.885567
0.885572
0.885504
0.88557
0.885508
0.885571
0.885626
0.885567
0.885618
0.885515
0.88557
0.885473
0.88557
0.885518
0.885571
0.885519
0.88557
0.885539
0.885647
0.885538
0.885571
0.885503
0.88557
0.885549
0.885521
0.885521
0.88557
0.885568
0.88556
0.885517
0.885567
0.885533
0.885538
0.885502
0.885568
0.885561
0.885548
0.88556
0.885569
0.885559
0.885514
0.885532
0.88556
0.885571
0.885529
0.885529
0.885568
0.885502
0.885659
0.88554
0.885614
0.885547
0.885712
0.885712
0.88571
0.88571
0.885708
0.885716
0.885716
0.885515
0.885495
0.885532
0.88555
0.885556
0.88556
0.885531
0.88556
0.885561
0.885495
0.885559
0.885512
0.885584
0.885507
0.88554
0.88555
0.88556
0.885506
0.88554
0.885549
0.88554
0.885549
0.885558
0.885579
0.88555
0.885541
0.885511
0.885555
0.885559
0.885556
0.88555
0.885541
0.88553
0.885556
0.88553
0.885541
0.88555
0.885532
0.88554
0.885558
0.885518
0.885548
0.885495
0.885626
0.885515
0.885514
0.885541
0.885549
0.885522
0.885659
0.885539
0.885549
0.885646
0.885477
0.885477
0.885539
0.885557
0.885547
0.885556
0.885465
0.885463
0.885529
0.885532
0.885532
0.885663
0.885558
0.885517
0.885552
0.885553
0.88555
0.885659
0.88552
0.885557
0.88554
0.88554
0.885552
0.885549
0.885553
0.885552
0.885647
0.885617
0.885549
0.885541
0.885548
0.885553
0.885549
0.885548
0.885548
0.885628
0.885509
0.885555
0.885522
0.885519
0.885629
0.885538
0.885539
0.885502
0.885471
0.885471
0.885504
0.885559
0.885541
0.88563
0.885474
0.885462
0.885462
0.885661
0.885489
0.885482
0.885542
0.885507
0.885532
0.885524
0.885517
0.885517
0.885533
0.885659
0.885538
0.885525
0.885517
0.885653
0.885486
0.885652
0.885515
0.885527
0.88557
0.885534
0.885534
0.885498
0.88553
0.885498
0.885539
0.885518
0.885485
0.885486
0.885631
0.885523
0.88569
0.885691
0.88569
0.885521
0.885664
0.885691
0.885553
0.885689
0.885497
0.885497
0.88569
0.885544
0.88565
0.885694
0.885649
0.885694
0.88565
0.885489
0.885635
0.885663
0.885688
0.885534
0.885513
0.885652
0.885534
0.885689
0.885528
0.885544
0.885695
0.885653
0.885695
0.88566
0.885541
0.885494
0.885462
0.885463
0.885525
0.885462
0.885462
0.885463
0.88547
0.885633
0.885485
0.885505
0.885496
0.885527
0.885469
0.885469
0.885495
0.88566
0.885546
0.885667
0.885656
0.885648
0.885474
0.885474
0.885476
0.885476
0.885474
0.885466
0.885479
0.885471
0.885466
0.885477
0.885477
0.885466
0.885465
0.885469
0.885478
P_ext 1 563 float
0.0152001
0.0151964
0.0151969
0.0151964
0.015195
0.0151969
0.0152001
0.0151966
0.0151973
0.0151964
0.0151995
0.0151966
0.0151967
0.0151964
0.0151954
0.0151969
0.0151961
0.0151966
0.0151974
0.015197
0.0151971
0.0151925
0.015197
0.015197
0.015197
0.0151965
0.0151993
0.0151968
0.0151984
0.0151938
0.0151968
0.0151984
0.0151994
0.0151942
0.0151942
0.0151943
0.0151937
0.0151943
0.0151968
0.0151994
0.0151984
0.0151937
0.0151937
0.0151968
0.015199
0.0151984
0.0151974
0.0151973
0.0151969
0.0151986
0.0151984
0.0151981
0.015195
0.0151981
0.015195
0.0151991
0.0151942
0.0151981
0.0151942
0.0151969
0.0151961
0.0151958
0.0151992
0.0151958
0.0151957
0.0151962
0.0151961
0.0151965
0.015197
0.0151963
0.015195
0.015195
0.0151984
0.015196
0.0151969
0.0151995
0.0151954
0.0151962
0.0151965
0.0151979
0.0151987
0.0151948
0.0151959
0.0151988
0.0151984
0.015199
0.0151968
0.0151961
0.015199
0.0151927
0.0151981
0.0151927
0.0151953
0.0151962
0.0151981
0.0151985
0.0151987
0.0151964
0.0151955
0.0151968
0.0151977
0.0151983
0.0151987
0.0151965
0.0151965
0.0151965
0.0151958
0.0151968
0.0151988
0.0151961
0.0151969
0.0151989
0.0151988
0.0151966
0.0151965
0.0151981
0.0151942
0.0151988
0.0151942
0.0151981
0.0151975
0.0151954
0.0151963
0.015196
0.0151961
0.0151953
0.0151944
0.0151964
0.0151987
0.0151981
0.0151949
0.0151964
0.0151959
0.0151963
0.0151983
0.0151941
0.0151989
0.0151967
0.0151958
0.0151942
0.0151983
0.0151965
0.0151975
0.0151964
0.0151988
0.0151965
0.0151965
0.0151969
0.0151969
0.0151978
0.0151972
0.0151963
0.0151983
0.0151968
0.0151964
0.0151964
0.0151963
0.0151983
0.0151983
0.0151967
0.0151972
0.0151983
0.015199
0.0151984
0.0151982
0.0151965
0.0151983
0.0151983
0.0151984
0.0151982
0.0151953
0.0151981
0.0151985
0.0151963
0.0151981
0.0151958
0.0151953
0.0151966
0.015195
0.0151965
0.0151984
0.0151965
0.0151964
0.0151983
0.0151961
0.0151985
0.0151961
0.0151959
0.0151953
0.0151965
0.0151961
0.0151987
0.0151981
0.0151984
0.0151963
0.0151966
0.0151966
0.0151959
0.0151963
0.0151962
0.0151963
0.0151974
0.015198
0.0151959
0.0151984
0.0151959
0.0151962
0.0151983
0.0151956
0.0151963
0.0151956
0.0151964
0.0151965
0.0151958
0.0151977
0.0151963
0.0151979
0.0151959
0.0151961
0.0151961
0.0151961
0.0151961
0.0151961
0.0151962
0.0151964
0.0151954
0.0151954
0.0151954
0.0151954
0.015195
0.015195
0.0151978
0.0151963
0.0151963
0.0151973
0.0151954
0.0151953
0.0151963
0.0151979
0.0151963
0.0151964
0.0151978
0.0151956
0.0151978
0.0151958
0.0151963
0.0151977
0.0151979
0.0151987
0.0151986
0.0151959
0.0151988
0.0151968
0.0151979
0.0151974
0.0151964
0.0151961
0.0151937
0.0151961
0.0151989
0.0151979
0.0151963
0.0151966
0.015198
0.0151961
0.0151975
0.0151937
0.0151979
0.0151961
0.0151961
0.0151966
0.0151954
0.0151961
0.015195
0.0151967
0.0151989
0.015199
0.0151952
0.0151971
0.0151966
0.0151978
0.0151956
0.0151963
0.0151979
0.0151962
0.0151977
0.0151965
0.0151977
0.0151979
0.0151932
0.0151952
0.0151953
0.0151953
0.0151964
0.0151977
0.0151943
0.0151961
0.0151972
0.0151977
0.0151978
0.0151952
0.0151978
0.0151953
0.0151978
0.015199
0.0151977
0.0151988
0.0151958
0.0151978
0.0151931
0.0151978
0.0151959
0.0151978
0.015196
0.0151978
0.0151969
0.0151994
0.0151969
0.0151978
0.0151951
0.0151978
0.0151971
0.0151961
0.0151963
0.0151978
0.0151977
0.0151975
0.0151959
0.0151977
0.0151966
0.0151968
0.0151951
0.0151977
0.0151975
0.0151971
0.0151975
0.0151977
0.0151975
0.0151957
0.0151966
0.0151975
0.0151978
0.0151965
0.0151965
0.0151977
0.0151951
0.0151996
0.0151969
0.0151987
0.0151971
0.0152005
0.0152005
0.0152005
0.0152005
0.0152004
0.0152006
0.0152006
0.0151958
0.0151945
0.0151966
0.0151972
0.0151974
0.0151975
0.0151965
0.0151975
0.0151975
0.0151945
0.0151975
0.0151956
0.0151981
0.0151955
0.0151969
0.0151972
0.0151975
0.0151952
0.0151969
0.0151972
0.0151969
0.0151972
0.0151975
0.015198
0.0151972
0.0151969
0.0151956
0.0151974
0.0151975
0.0151974
0.0151972
0.0151969
0.0151965
0.0151974
0.0151965
0.0151969
0.0151972
0.0151966
0.0151969
0.0151974
0.015196
0.0151972
0.0151946
0.015199
0.0151959
0.0151957
0.0151969
0.0151972
0.0151962
0.0151996
0.0151969
0.0151972
0.0151993
0.0151932
0.0151932
0.0151968
0.0151974
0.0151971
0.0151974
0.0151922
0.0151922
0.0151965
0.0151966
0.0151966
0.0151997
0.0151975
0.0151959
0.0151973
0.0151973
0.0151972
0.0151996
0.015196
0.0151974
0.0151969
0.0151969
0.0151973
0.0151972
0.0151973
0.0151973
0.0151994
0.0151988
0.0151972
0.0151969
0.0151972
0.0151973
0.0151972
0.0151971
0.0151972
0.015199
0.0151955
0.0151974
0.0151962
0.0151961
0.015199
0.0151969
0.0151969
0.015195
0.0151932
0.0151932
0.0151951
0.0151975
0.0151969
0.015199
0.0151933
0.0151924
0.0151924
0.0151996
0.0151943
0.0151938
0.0151969
0.0151954
0.0151967
0.0151963
0.015196
0.0151959
0.0151966
0.0151996
0.0151969
0.0151963
0.015196
0.0151995
0.0151941
0.0151995
0.015196
0.0151964
0.0151977
0.0151968
0.0151966
0.0151948
0.0151966
0.0151949
0.0151969
0.015196
0.0151939
0.0151939
0.0151991
0.0151963
0.0152001
0.0152001
0.0152001
0.0151961
0.0151997
0.0152002
0.0151973
0.0152001
0.0151948
0.0151948
0.0152001
0.0151971
0.0151994
0.0152002
0.0151994
0.0152002
0.0151994
0.0151943
0.0151991
0.0151997
0.0152001
0.0151967
0.0151958
0.0151995
0.0151967
0.0152001
0.0151965
0.0151971
0.0152002
0.0151995
0.0152002
0.0151996
0.0151969
0.0151946
0.0151924
0.0151925
0.0151963
0.0151924
0.0151924
0.0151925
0.015193
0.0151991
0.015194
0.0151952
0.0151945
0.0151964
0.0151928
0.0151929
0.0151945
0.0151996
0.0151971
0.0151997
0.0151995
0.0151994
0.0151934
0.0151934
0.0151934
0.0151934
0.0151934
0.0151925
0.0151935
0.0151928
0.0151924
0.0151933
0.0151933
0.0151924
0.0151925
0.0151928
0.0151934
FIELD solute_flux_TPM 2
S_ext 3 563 float
-4.8444e-05 1.61851e-05 1.70104e-18
2.33796e-06 4.29671e-06 -1.01143e-18
-7.83534e-06 -6.15168e-06 8.31565e-19
-2.58824e-06 2.62391e-06 1.67472e-18
1.50578e-05 -4.34553e-06 -2.40067e-18
1.64896e-06 -9.73656e-06 3.9935e-18
-4.7705e-05 -1.63821e-05 4.50962e-19
-8.70816e-06 -6.33155e-06 3.35754e-19
1.34262e-05 5.95564e-07 -3.30309e-19
7.14108e-06 -2.60987e-06 5.13183e-19
3.23321e-05 7.52296e-06 -2.81014e-18
1.33109e-06 -1.07e-05 1.50553e-18
8.55706e-06 6.81156e-06 6.61289e-19
1.80506e-06 8.59885e-06 2.84901e-18
1.36525e-05 -2.06605e-06 1.6495e-19
-9.88467e-06 -1.6112e-07 1.00464e-18
1.92669e-06 9.01166e-06 -3.41519e-19
6.30447e-06 -1.5457e-06 3.47472e-19
5.9811e-06 1.04096e-05 -1.74952e-19
-8.996e-06 1.15421e-06 1.33684e-18
-2.0931e-06 -1.29403e-05 -3.66231e-18
2.86221e-05 4.03922e-05 -1.58603e-18
9.62813e-06 9.97495e-07 5.02298e-19
6.93886e-06 -6.87006e-06 -4.32015e-18
-9.1238e-06 -2.05788e-06 1.83531e-18
-3.03498e-07 -6.9148e-06 2.17612e-18
3.70954e-05 -2.89003e-06 -7.91153e-19
8.79152e-06 6.31871e-06 9.95411e-19
-1.47989e-05 -1.204e-05 1.92994e-18
3.23546e-05 -8.60257e-06 -5.16519e-19
-1.00941e-05 -3.83887e-06 5.01642e-19
3.18639e-06 -1.89903e-05 9.65414e-19
2.78279e-05 -2.83505e-05 1.88204e-18
-3.46375e-06 -2.75764e-05 3.80545e-18
-1.95462e-05 2.42708e-05 -2.42436e-18
-2.56135e-05 -1.07766e-05 1.38105e-18
2.14903e-05 2.80856e-05 -1.55339e-21
-2.94843e-05 -5.81723e-06 -3.56672e-19
9.03849e-06 -6.7209e-06 -3.17361e-18
2.71898e-05 2.95417e-05 3.15849e-19
1.91214e-05 -8.34117e-06 -3.29898e-19
2.19041e-05 -2.7036e-05 2.77977e-18
-1.24689e-05 -3.24653e-05 1.06372e-18
-9.65071e-06 4.03172e-06 2.34124e-18
1.78677e-05 -1.74695e-05 -2.53361e-18
-1.77425e-05 6.30039e-06 5.0023e-18
-2.45407e-06 -1.22394e-05 2.14343e-18
4.74449e-06 1.21992e-05 3.3082e-18
-1.00141e-05 3.69801e-06 1.69281e-19
-1.06341e-05 1.67404e-05 1.60995e-18
1.92841e-05 9.04857e-06 -2.73727e-18
1.74955e-05 -6.10201e-06 -2.28177e-18
-1.03483e-05 1.03014e-05 1.70826e-18
-1.38674e-05 -1.20098e-05 1.30372e-18
-1.38785e-05 -3.44496e-06 -1.77237e-19
-2.59863e-05 1.54985e-05 4.78227e-19
-1.93525e-05 -2.49813e-05 2.76629e-18
3.63555e-06 -1.81168e-05 -3.28346e-19
-3.13196e-05 4.31139e-06 3.45853e-18
3.67978e-06 8.3805e-06 -8.46274e-19
-3.48895e-06 -5.35255e-06 -1.84446e-18
-4.13305e-06 -1.16918e-05 3.91688e-18
3.35229e-05 1.45936e-05 7.92923e-19
6.15196e-06 1.16258e-05 -1.86976e-18
8.11364e-06 -9.3086e-06 1.01747e-18
-1.20093e-06 -1.31822e-05 1.60077e-19
3.10945e-06 -5.642e-06 4.89227e-18
-6.18935e-06 -3.55138e-06 -2.00709e-18
-6.50123e-06 7.18665e-06 1.52461e-21
1.56649e-06 -2.72612e-06 -3.26057e-19
-9.91855e-06 -1.03598e-05 4.28067e-18
-1.39998e-05 3.45544e-06 3.08296e-18
-2.27851e-06 2.02117e-05 -1.12565e-18
-1.13565e-05 6.83793e-06 5.05169e-19
-5.55469e-06 8.8204e-06 1.66551e-19
-3.46086e-05 4.32958e-06 -9.41436e-19
5.22351e-06 -1.39984e-05 -6.85364e-19
-1.20528e-05 -5.47104e-06 -3.37044e-19
1.10531e-06 7.25058e-06 -6.80577e-19
1.57939e-05 3.02154e-06 1.95277e-18
2.01585e-05 -1.71439e-05 -4.85062e-19
1.46935e-05 1.34361e-05 -2.92677e-18
7.8276e-06 -1.98578e-06 6.72283e-19
-1.87686e-05 1.37439e-05 3.17536e-19
2.2467e-05 2.89447e-06 -8.13438e-19
-3.22593e-06 2.87245e-05 -1.89713e-18
-1.0304e-06 -1.03864e-05 -2.67621e-18
1.16432e-05 6.25591e-06 2.02557e-18
1.71839e-05 1.79844e-05 9.4321e-19
4.25051e-05 2.64284e-05 1.23259e-18
-3.18593e-06 1.82053e-05 1.7061e-19
4.44021e-05 -2.49529e-05 2.44986e-18
-1.77737e-05 3.33254e-06 -3.47245e-19
1.14127e-05 7.14792e-06 -1.00777e-18
-1.73809e-05 5.82277e-06 3.09733e-18
9.77861e-06 1.69474e-05 -1.61008e-18
5.79239e-06 -2.59724e-05 -2.72663e-18
1.12749e-06 7.24958e-06 3.21312e-19
-9.44633e-06 -1.14916e-05 4.2664e-18
1.78313e-06 1.07408e-05 3.20832e-19
1.58634e-05 3.2133e-06 1.62703e-19
-9.11288e-06 1.94314e-05 -2.4309e-18
2.3928e-05 -7.99314e-06 3.98984e-18
-2.35215e-06 4.53879e-06 4.98466e-19
6.34638e-06 3.58171e-06 2.67516e-18
-1.31322e-06 -7.03414e-06 -3.35711e-19
2.22142e-06 -1.24429e-05 5.03071e-19
1.07716e-05 2.48092e-06 -3.25266e-19
-4.80991e-06 2.40474e-05 1.11523e-18
-6.38761e-06 4.81832e-08 -1.85057e-18
5.77693e-06 7.23948e-06 -2.17411e-18
-1.57268e-06 -2.44973e-05 -4.73386e-19
2.4805e-05 7.72589e-06 -1.43653e-18
2.76906e-06 -4.55958e-06 4.96519e-19
-6.84909e-06 -2.28924e-06 -3.85281e-18
-1.71586e-05 -7.33825e-06 -1.13862e-18
1.05557e-05 2.7672e-05 8.72979e-19
-2.50454e-05 -8.94001e-06 -2.55652e-18
1.07031e-05 -2.77461e-05 8.666e-19
-2.19167e-06 -1.88604e-05 6.53568e-19
1.32273e-05 3.52383e-07 -2.30645e-18
-4.65716e-06 1.21425e-05 -6.79099e-19
-1.07569e-06 2.4691e-06 -3.03697e-18
-2.52739e-06 -1.05765e-05 3.0338e-18
3.35828e-06 -5.54946e-06 1.18527e-18
6.20807e-06 1.0352e-05 -2.04926e-18
2.22277e-05 7.30946e-06 1.72696e-18
5.55359e-06 -4.55724e-06 2.85255e-18
-4.94451e-06 -2.62874e-05 -1.11991e-18
1.5261e-05 -1.12084e-05 -8.17862e-19
3.30082e-06 1.82533e-05 -3.59222e-18
-1.70802e-06 -1.84927e-06 -3.179e-18
-5.66893e-06 -5.34703e-06 2.70053e-18
-3.05113e-06 1.29351e-07 -5.04048e-19
-1.34449e-05 1.65795e-05 8.1804e-19
1.29204e-05 -2.48729e-05 5.02716e-18
-1.55967e-05 2.46677e-05 -1.59395e-18
-1.00163e-05 5.91146e-06 -2.17647e-18
1.57622e-06 8.07336e-06 3.49023e-19
-1.50527e-05 -2.36058e-05 -1.71636e-18
8.14867e-06 1.9763e-05 9.73892e-19
1.11491e-05 5.69265e-06 -1.01566e-18
1.38058e-05 -5.26541e-06 -1.67181e-19
-8.8856e-07 -7.038e-06 1.83949e-18
-1.9674e-05 -1.809e-05 -6.42604e-19
-1.58943e-06 7.05244e-06 3.18173e-18
1.09056e-05 6.4623e-06 -2.5225e-18
1.16943e-05 -5.61378e-06 1.50314e-18
5.12777e-06 -8.7183e-06 3.32363e-19
1.4665e-05 -6.48024e-06 -9.89747e-19
1.16495e-05 -5.51758e-06 -8.2866e-19
3.05193e-06 2.65433e-07 2.85549e-18
1.52446e-05 1.20697e-05 -4.84188e-18
-1.54393e-06 -1.04639e-05 -3.36351e-19
-6.61162e-06 -2.64603e-06 1.51362e-18
7.97074e-07 -2.42779e-06 -6.76309e-19
-2.16645e-06 9.95068e-06 -1.02266e-18
-2.02781e-05 1.61572e-06 2.92162e-18
-7.14934e-06 -1.94617e-05 -1.14116e-18
-4.84337e-06 5.95114e-06 1.50212e-18
8.25859e-06 1.00199e-05 8.20802e-19
1.57343e-05 -1.12269e-05 -1.13434e-18
-2.14507e-05 -1.16458e-05 -1.74219e-18
1.02269e-05 -1.63733e-05 -4.02729e-18
1.34985e-05 -1.61255e-05 -1.64571e-19
-6.74481e-06 2.46941e-06 1.01477e-18
-1.16567e-05 -1.67683e-05 1.94473e-18
-2.02572e-05 -3.38836e-06 -3.24079e-18
-2.44801e-06 -1.86624e-05 -1.77363e-18
9.04828e-06 -1.87312e-05 1.60937e-19
-6.08108e-06 -1.70946e-05 1.66318e-19
2.58711e-06 1.85724e-05 8.15219e-19
-9.39542e-06 -1.66644e-05 4.81303e-19
2.06781e-06 -1.02833e-05 1.85074e-18
-1.45878e-05 1.05925e-05 -1.61247e-18
-9.62377e-06 -7.91626e-06 5.25619e-18
-1.78919e-05 -3.22302e-06 3.92414e-18
9.82708e-06 -5.80979e-06 -4.97681e-19
-2.76336e-06 1.57541e-05 -1.19676e-18
7.87542e-06 -5.7664e-06 -1.33672e-18
-1.73191e-05 -7.58232e-06 -6.41937e-19
-5.57374e-06 -4.53735e-06 -5.04917e-19
5.80729e-06 4.59427e-06 8.2975e-19
1.2683e-05 1.69848e-05 1.5982e-19
-1.10186e-05 -6.89678e-06 2.02572e-18
-1.89688e-05 -4.61483e-07 3.05663e-18
-1.05332e-05 -3.01447e-06 2.02952e-18
-3.0108e-06 -1.05886e-05 -1.7791e-19
1.16047e-05 1.41526e-05 -8.46509e-19
-6.94048e-06 3.52425e-06 1.66071e-19
4.95133e-07 -1.30269e-05 -3.41468e-19
-2.42663e-05 6.24724e-06 1.60602e-18
1.48488e-05 1.20257e-05 -3.28662e-19
2.16633e-06 1.94142e-05 -6.40255e-19
-1.46556e-06 2.4766e-06 -3.00911e-18
-5.51089e-06 1.53148e-07 5.05215e-19
2.71834e-06 4.74352e-06 -8.47531e-19
-7.58971e-06 2.31519e-06 2.03036e-18
-1.35862e-06 -2.34886e-06 1.00351e-18
1.19648e-06 1.31308e-05 -3.37381e-19
2.92504e-06 1.61258e-07 -8.48235e-19
-1.16996e-05 2.84501e-06 5.0115e-19
-1.03154e-05 1.14106e-05 1.73848e-19
-1.92329e-06 7.56374e-06 2.54543e-18
-1.71459e-05 1.07167e-05 -1.12337e-18
-6.15031e-06 5.76774e-06 2.01228e-18
1.10409e-05 -7.62989e-06 -1.63548e-19
2.1714e-05 -2.17383e-06 -1.68854e-19
-1.37122e-05 7.25098e-06 -3.39348e-19
1.35736e-06 2.94201e-06 2.86586e-18
1.43216e-05 -2.65212e-06 -6.76858e-19
-1.08336e-05 6.6556e-06 1.00974e-18
-6.08873e-06 3.54548e-06 -1.83918e-18
7.8341e-06 2.60407e-06 3.3963e-19
1.31492e-05 -8.16724e-06 -2.9563e-18
-1.09481e-05 6.19212e-06 -6.73447e-19
-1.47794e-05 -3.1096e-06 -1.5618e-19
-1.07349e-05 -2.6823e-06 1.01626e-18
6.55331e-06 1.32044e-07 3.02904e-18
6.70418e-06 -7.76369e-09 -3.41896e-19
2.94574e-06 5.34549e-06 3.35925e-18
3.22501e-06 -5.64386e-06 -1.17828e-18
-3.16536e-06 5.52456e-06 -2.50882e-18
-3.30723e-06 -5.64695e-06 -2.67624e-18
6.20619e-06 -4.82811e-06 3.44008e-19
-1.33559e-05 2.19914e-06 3.06101e-18
-1.32045e-05 -2.24047e-06 -1.7454e-19
-8.49215e-06 1.0406e-05 -1.19827e-20
-8.53754e-06 -1.04438e-05 5.27034e-18
4.90249e-06 -1.3279e-05 -1.87512e-18
4.72349e-06 1.3169e-05 6.93984e-19
9.1643e-07 1.54788e-05 -8.25056e-19
7.23368e-06 -1.78613e-06 6.73311e-19
1.55902e-06 -2.40478e-06 2.67775e-18
-1.27727e-05 8.90632e-07 1.49928e-18
5.05152e-06 -1.30664e-05 7.65836e-21
4.78779e-06 1.31123e-05 1.20126e-18
3.03049e-06 -5.58767e-08 2.52706e-18
5.31784e-06 1.45859e-05 -6.57266e-19
-1.40508e-06 -2.51257e-06 -2.01384e-18
1.3944e-06 -7.07143e-06 2.17739e-18
-1.33268e-05 -7.12834e-06 -1.57857e-19
-1.38631e-05 -7.39109e-06 1.02187e-18
-1.30148e-05 8.07777e-06 -3.10829e-18
2.0458e-06 -8.16785e-06 3.56087e-18
-9.99789e-07 2.09352e-06 -3.18497e-18
-4.4236e-07 -1.5239e-05 -3.60824e-18
-4.66168e-06 -1.44518e-05 -9.82511e-19
1.92932e-05 1.79298e-05 1.27941e-18
2.11002e-05 -1.07969e-06 -3.29993e-19
-8.26543e-06 -2.4795e-06 -1.86179e-18
-1.34065e-05 -2.38933e-05 9.55677e-19
5.12834e-06 8.39832e-06 3.21551e-19
-1.48915e-05 1.75752e-06 3.43001e-18
1.22113e-05 3.50664e-06 -3.28884e-19
-2.83355e-06 -1.1919e-08 -8.21746e-19
-3.0758e-06 -5.41471e-06 -1.0136e-18
-5.42363e-06 -2.57635e-05 -1.39281e-18
-6.30907e-06 4.48498e-08 -1.34894e-18
-2.78749e-05 -1.04517e-06 -1.91179e-18
1.03407e-05 -1.14752e-05 -3.7527e-18
1.58682e-06 2.49095e-06 -2.02407e-18
-1.1022e-07 -1.08875e-05 -1.01279e-18
-5.91626e-06 1.42276e-05 1.14488e-18
-2.90185e-06 5.54935e-06 8.22328e-19
1.24992e-05 -8.20227e-06 -2.67055e-21
-2.50212e-05 -8.16428e-06 2.60948e-18
-9.09326e-06 -1.20205e-05 1.95231e-18
3.20436e-06 5.56057e-06 -1.67093e-18
1.08274e-05 3.0741e-06 -1.73507e-19
-2.91979e-06 -4.46462e-06 -3.35103e-18
1.31978e-05 2.46747e-06 3.44118e-19
1.17237e-05 -6.2227e-06 -6.71034e-19
-2.23942e-07 1.7736e-05 -2.56962e-18
5.15865e-06 -8.36908e-06 3.84402e-18
2.88009e-05 1.20672e-06 -6.38716e-19
-2.44759e-05 6.36651e-06 3.16851e-18
1.51391e-05 7.51578e-06 1.88701e-18
-3.88654e-06 -1.03524e-05 6.61522e-19
-9.53574e-06 -5.28247e-06 -6.69007e-19
1.72296e-05 -1.39562e-07 8.10945e-19
-4.93637e-07 -1.57454e-05 6.7863e-19
-7.8286e-06 -7.01775e-06 -2.18394e-18
6.07887e-06 -1.40584e-05 -1.30919e-18
-4.09606e-07 1.29799e-05 -1.85398e-18
4.64955e-06 1.55607e-05 -2.632e-18
1.09109e-05 -6.29037e-06 -6.64236e-19
-1.13022e-05 1.13288e-05 -6.48522e-19
9.85767e-06 1.20003e-05 1.79119e-18
-4.3216e-05 1.02966e-05 -4.73156e-18
-6.74573e-06 1.69856e-05 -1.77401e-19
8.29546e-06 -9.98654e-06 2.21544e-18
-4.54418e-06 -1.21029e-05 3.41787e-18
-7.50164e-06 2.66169e-06 1.00576e-18
-1.52734e-05 -4.21699e-06 -1.6384e-18
-4.46698e-06 2.5903e-05 -3.62327e-18
-7.89171e-06 7.77198e-06 -1.85143e-18
1.2685e-05 -2.85428e-06 1.65631e-18
-4.0601e-06 -1.53448e-05 -9.88724e-19
-8.8404e-06 1.40714e-05 -1.46761e-18
-1.41681e-05 8.18888e-06 -1.8841e-18
-1.22102e-05 -8.92014e-06 3.25808e-19
1.18419e-05 -1.38288e-05 1.1988e-18
-1.61834e-05 -8.64593e-07 8.23391e-19
7.06179e-06 -2.41251e-05 3.14961e-19
1.16839e-05 -1.13073e-05 -2.62947e-18
1.44234e-05 2.53151e-05 -4.99531e-22
1.3077e-06 1.2781e-05 -1.35618e-18
1.76228e-06 -1.52045e-05 6.50264e-19
-2.80969e-05 3.30129e-05 -2.9766e-18
-7.53401e-06 -1.44043e-05 9.78125e-19
1.07409e-05 -4.0442e-06 -3.71563e-18
-1.52751e-06 1.53215e-05 9.82161e-19
8.24756e-06 -7.87491e-06 6.81853e-19
8.27048e-06 1.44855e-05 -1.63971e-18
1.0591e-05 -9.45577e-07 5.08161e-19
1.25822e-05 -3.68164e-05 -1.10818e-18
-3.54604e-06 -7.82296e-06 1.63703e-19
-1.37598e-05 5.90392e-06 2.62365e-18
-1.31054e-05 1.23268e-05 -5.10025e-19
1.29661e-05 8.78011e-06 -3.33495e-19
1.14568e-05 -6.65398e-06 -9.92483e-19
9.47597e-06 8.19941e-06 5.96939e-21
-3.51643e-06 -8.45079e-08 -1.01099e-18
9.19761e-06 -1.37698e-05 -2.45947e-18
-1.01228e-05 -1.20034e-05 1.96485e-18
1.36484e-05 5.97579e-06 -1.1645e-18
8.24841e-06 -7.84828e-06 2.03881e-18
5.64188e-06 -1.48492e-05 -2.46803e-18
1.0386e-05 -4.53867e-06 2.52305e-18
-9.68159e-06 -4.65889e-06 1.00379e-18
9.0456e-07 -1.7136e-05 1.02454e-18
-1.54055e-05 2.6928e-06 3.45562e-18
1.34057e-06 1.47362e-05 -1.65376e-18
1.2579e-05 4.15094e-06 1.65551e-19
-1.29512e-05 -6.43041e-06 6.67369e-19
-5.32642e-06 1.52054e-05 1.15436e-18
-8.65286e-07 -1.45424e-05 -2.64337e-18
1.26866e-05 7.74112e-06 -1.67123e-19
-9.29209e-07 1.12671e-05 6.62456e-19
-1.20858e-05 8.08749e-06 1.32295e-18
1.41777e-05 6.83498e-06 4.89032e-19
-1.05863e-05 -6.38219e-06 3.38799e-19
2.42248e-07 -1.24145e-05 -1.34937e-18
1.10624e-05 1.19283e-05 -3.31728e-19
-1.43778e-05 -9.33818e-06 -6.87565e-19
2.84253e-05 -2.03277e-05 2.33022e-18
1.11733e-05 -6.65811e-06 -3.34645e-19
5.09001e-06 2.52485e-05 -1.58454e-19
1.05299e-05 -8.28763e-06 -9.95444e-19
-1.3179e-05 5.09019e-05 1.92305e-18
-1.32466e-05 -5.0419e-05 -2.82101e-18
3.31461e-05 4.33009e-05 3.11165e-18
3.27488e-05 -4.32904e-05 -2.9247e-19
5.41048e-05 -2.7172e-08 1.78766e-18
-4.6548e-05 1.88751e-05 3.4134e-18
-4.57946e-05 -1.90712e-05 -1.03991e-18
7.90843e-06 7.74714e-06 1.36302e-18
1.95951e-05 1.46322e-05 -3.78277e-18
7.09417e-06 2.13843e-06 -1.33217e-18
1.15955e-05 5.9486e-06 -3.80551e-21
2.98817e-06 1.22011e-05 -1.32763e-18
-1.13166e-05 -8.8528e-06 9.92784e-19
1.08982e-05 -6.30819e-06 -1.50079e-18
1.208e-05 8.74255e-06 1.58976e-19
-1.86457e-06 1.46343e-05 1.64583e-18
1.96968e-05 -1.34301e-05 1.37559e-18
2.18655e-06 -1.4286e-05 -3.32879e-19
1.43952e-05 3.19392e-06 6.82232e-19
1.7791e-05 6.64165e-06 6.47373e-19
9.38994e-06 9.2346e-06 -9.53371e-21
9.81711e-06 4.12509e-06 -2.16291e-18
-1.12023e-05 6.62871e-06 -1.15431e-18
-1.34564e-05 5.44785e-06 3.96113e-18
1.51982e-05 -7.36799e-06 -2.05094e-18
-1.11487e-05 -6.17545e-06 1.66792e-18
-1.12568e-05 -6.35081e-06 2.45406e-21
-1.42963e-07 -1.27734e-05 1.62733e-19
-1.0207e-07 -1.28707e-05 -1.6604e-18
-1.2011e-05 -6.10893e-07 1.32496e-18
1.60254e-05 -2.42554e-06 -4.19509e-21
1.10961e-05 6.96311e-06 -1.49997e-18
-1.09867e-05 6.61342e-06 1.33491e-18
-9.79843e-06 1.08505e-05 1.70205e-18
9.75865e-06 -8.36997e-06 -2.30781e-18
-6.65215e-06 1.04143e-05 1.31873e-18
-8.55539e-06 -8.89308e-06 1.17635e-21
-7.39192e-07 1.28401e-05 2.64402e-18
-6.90363e-07 1.28899e-05 -1.76766e-19
8.67578e-09 -1.24159e-05 4.97883e-19
3.68205e-06 -1.19236e-05 1.98171e-18
-1.07197e-05 -6.13773e-06 1.50895e-18
9.59546e-06 -3.44898e-06 1.83714e-18
4.16457e-07 1.30651e-05 -1.99451e-18
1.92727e-07 1.14948e-05 1.16844e-18
-1.40467e-06 1.029e-05 -5.07139e-19
1.3258e-05 -3.36183e-06 -3.25877e-19
-1.07077e-05 3.25425e-06 -6.74287e-19
2.41708e-06 1.30775e-05 1.60165e-19
-2.15528e-05 8.41393e-06 6.83054e-19
5.5465e-06 2.46458e-05 3.25713e-21
-1.09692e-05 2.81654e-06 8.47213e-19
1.28946e-05 -7.65165e-06 -3.39353e-18
4.85148e-07 1.29165e-05 -3.0075e-18
-1.22923e-05 4.12584e-06 5.00386e-19
1.6505e-06 -1.02546e-05 2.69221e-18
5.55663e-07 -3.40389e-05 -2.49459e-18
1.18852e-06 1.07601e-05 -2.34411e-18
-1.03357e-05 8.35221e-06 -1.32054e-18
1.01444e-05 3.7294e-05 1.72975e-18
3.14576e-05 2.60987e-05 -3.46956e-19
3.60771e-05 -2.4682e-05 -1.88883e-19
9.25824e-06 -6.28929e-06 -2.99639e-18
-9.5245e-06 8.38753e-06 -4.87832e-19
-1.21646e-05 -4.87823e-06 2.50015e-18
-1.17795e-05 -4.08316e-06 -3.22769e-19
4.44355e-05 -1.22161e-05 -3.56368e-18
4.53202e-05 9.53256e-06 -1.95082e-18
6.75749e-06 2.42716e-06 1.18372e-18
3.21943e-07 1.21912e-05 -3.52753e-18
6.64374e-08 1.21864e-05 -1.34445e-18
-2.8338e-05 -2.07543e-05 -1.70703e-18
6.91213e-06 -1.03713e-05 -1.97629e-18
7.53216e-06 8.24573e-06 -2.86564e-18
-1.27826e-05 -2.09776e-06 1.00523e-18
-8.48807e-06 1.02257e-05 3.35428e-19
-1.1416e-05 5.50678e-06 5.02904e-19
2.80739e-05 2.0133e-05 2.63625e-18
1.02257e-05 4.45787e-06 -8.59622e-21
-3.38011e-06 1.20062e-05 2.96955e-18
-1.04841e-05 -7.08107e-06 -4.9834e-19
1.03021e-06 -1.26558e-05 2.49807e-18
-5.33514e-06 -1.15771e-05 -6.67643e-19
-1.04305e-05 -7.09306e-06 1.15448e-18
6.38128e-06 -1.14209e-05 1.64312e-19
8.6467e-06 -1.0225e-05 -3.97233e-18
-1.72301e-06 -3.56305e-05 -6.32655e-19
1.52598e-05 -2.41816e-05 -2.72377e-18
1.05935e-06 -1.26312e-05 2.31614e-18
1.12031e-05 6.93078e-06 -1.6734e-18
-8.83369e-06 -8.88769e-06 8.27242e-19
-5.89563e-06 1.17956e-05 2.98033e-18
-2.96892e-06 1.27144e-05 3.33691e-19
1.02535e-05 8.58452e-06 2.31742e-18
3.59294e-06 -1.20817e-05 2.48868e-18
-8.18342e-06 -2.34459e-05 -1.59914e-19
-1.37888e-06 1.62772e-05 -2.89124e-18
8.99628e-06 8.75814e-06 1.56013e-19
-8.08934e-06 -6.51123e-06 1.69228e-18
-8.57232e-06 6.79653e-06 1.68619e-19
2.62297e-05 -1.12493e-05 7.88729e-19
4.61939e-06 -8.18857e-06 1.33054e-18
-5.11292e-06 -7.61804e-06 9.9856e-19
1.42158e-05 4.38648e-06 1.55028e-18
8.80763e-06 -3.17685e-05 2.62026e-18
-2.31142e-05 -2.349e-05 1.23582e-18
1.54838e-05 3.9963e-06 -6.79299e-19
-5.61406e-06 -1.09138e-05 1.58802e-19
1.15875e-05 5.97273e-06 -1.17285e-18
-1.68734e-05 -1.87566e-05 1.73279e-18
7.13462e-06 3.22916e-05 1.81085e-19
3.1338e-05 -4.04925e-05 4.07097e-18
-1.9401e-05 -4.73746e-05 -1.22882e-18
1.58746e-05 -3.09973e-05 1.54225e-18
-8.34503e-06 2.88171e-05 -2.07682e-18
-4.77913e-06 2.54941e-05 -1.90673e-18
-1.14424e-05 5.57124e-06 1.50054e-18
4.03024e-06 1.57254e-05 -2.03784e-18
-1.40715e-06 7.75079e-06 2.34021e-18
6.36999e-06 2.13778e-06 -1.84074e-18
-2.20754e-06 1.0402e-05 -1.1758e-20
-1.40603e-07 1.3426e-05 1.0161e-18
1.04433e-05 6.10784e-06 -5.01002e-19
5.09292e-07 3.38777e-05 1.39368e-18
-9.07451e-06 6.42052e-06 -9.96896e-19
1.02032e-05 -3.82044e-06 -1.84541e-18
1.10896e-05 -2.72361e-06 -2.7046e-18
-3.47233e-05 -5.01381e-06 -7.79223e-19
-2.28351e-05 1.08747e-05 -1.56632e-18
-2.51877e-05 -2.98734e-05 -7.79342e-19
5.67208e-06 5.3518e-06 2.02169e-18
8.91546e-06 4.76578e-06 -1.6728e-18
1.60877e-05 -2.61084e-06 1.3076e-18
-4.95018e-06 -8.05313e-06 -1.84344e-18
1.07376e-05 5.41219e-06 -1.67288e-18
4.87882e-06 -1.9769e-05 3.59772e-18
-8.66175e-06 6.19917e-06 -3.32685e-19
-1.46759e-05 -1.41041e-05 4.47081e-18
-3.47978e-06 9.95071e-06 3.4993e-18
-2.25939e-06 1.32127e-05 -5.13611e-19
2.28243e-05 1.41643e-05 -1.03656e-18
2.43417e-05 -1.28998e-05 -1.04846e-18
-2.43343e-05 -6.54495e-06 -3.79688e-18
4.7616e-06 5.01268e-06 -3.35673e-18
-2.8091e-06 5.9089e-05 3.6965e-18
1.06882e-08 -6.06942e-05 -3.39887e-18
2.99194e-05 5.12019e-05 2.46545e-18
-1.22481e-05 5.21994e-06 -1.01037e-18
-1.60739e-05 3.24678e-05 3.25342e-18
3.01049e-05 -4.94201e-05 -2.29824e-18
-7.0622e-06 -1.08884e-05 -4.97392e-19
4.57827e-05 3.98278e-05 7.65768e-19
1.58961e-05 -1.1763e-05 1.20665e-18
-2.25622e-06 -1.96349e-05 5.52596e-18
4.79678e-05 -3.8945e-05 -6.19118e-19
-4.09716e-06 8.77704e-06 3.98682e-18
-3.0807e-05 -1.95655e-05 -2.51262e-18
-2.53047e-05 -5.28451e-05 -3.23279e-18
-1.4344e-05 -3.35397e-05 -7.86131e-19
-2.60151e-05 5.37092e-05 6.19252e-19
-6.1615e-06 3.72561e-05 -1.87907e-18
1.06932e-05 2.46744e-05 1.81792e-19
-1.65718e-05 2.12905e-05 2.83772e-18
-1.5383e-05 -3.16129e-05 -3.09864e-18
5.88899e-05 1.03395e-05 2.31693e-18
-1.05691e-05 6.52359e-06 3.3856e-19
-3.91733e-06 1.04664e-05 -3.48416e-19
-2.92216e-05 2.10326e-05 3.13081e-18
-1.07158e-05 6.17536e-06 -1.342e-18
5.83103e-05 -9.22075e-06 4.52461e-19
-9.6337e-06 4.76744e-06 2.18891e-18
4.41245e-06 -8.83435e-06 6.65514e-19
-4.52668e-05 -3.45042e-05 -2.92715e-18
-1.54535e-05 3.35608e-05 1.87973e-18
-4.63435e-05 3.42584e-05 2.92318e-18
1.40457e-05 3.08819e-05 3.11863e-19
-9.09008e-06 6.41115e-06 8.38011e-19
-1.34148e-05 1.62193e-05 -1.37966e-18
-2.4162e-05 3.03684e-05 -3.18079e-18
-3.78997e-05 -4.87677e-06 -3.89089e-18
-6.78185e-07 1.0257e-05 -8.45711e-19
-2.55885e-05 -3.0496e-05 1.05136e-18
-3.92173e-05 6.91917e-06 -2.13226e-18
-1.49458e-05 3.46485e-05 -2.6474e-18
-1.15211e-05 4.60662e-05 -5.18608e-19
-1.07983e-05 2.3982e-05 3.22172e-19
-2.22778e-05 1.79571e-05 -1.90812e-18
1.62788e-05 -3.94723e-06 -3.40223e-19
2.55287e-05 -1.29864e-06 -1.55367e-18
8.51272e-06 5.27094e-06 4.9485e-21
-8.09499e-06 -5.3017e-05 1.57578e-18
-4.9972e-05 -1.94836e-05 -6.50179e-18
2.48551e-05 2.45824e-07 -2.06795e-18
3.45579e-05 -6.67329e-06 1.8536e-18
-6.39852e-06 -8.12105e-06 1.63171e-19
-2.99555e-05 2.10807e-05 4.18049e-18
-2.68476e-05 3.07686e-05 3.14676e-18
3.65311e-05 -1.31597e-05 3.78162e-18
-1.86679e-05 -3.16109e-05 2.43221e-18
-1.90004e-05 3.13645e-05 -4.18221e-18
-3.68453e-05 -1.3165e-06 -4.71053e-18
-1.67465e-05 3.29723e-05 1.21886e-18
-3.67337e-05 3.92308e-07 3.30426e-18
4.5749e-05 1.63746e-05 -1.94908e-18
3.68771e-05 1.37293e-06 -1.39329e-18
3.46994e-05 -1.77732e-05 -1.41643e-18
1.01443e-05 -4.88e-05 2.81329e-18
1.83165e-05 -3.19329e-05 1.39574e-18
1.81918e-05 3.19281e-05 2.61878e-18
9.93482e-06 4.76832e-05 7.05113e-19
4.99537e-05 -1.40886e-05 -1.94198e-18
3.20061e-05 1.58513e-05 1.76971e-19
3.07247e-05 8.3893e-06 -1.21516e-18
P_ext 3 563 float
-8.18021e-07 2.76566e-07 9.98945e-21
7.61096e-10 3.02635e-08 -2.3668e-20
-7.53133e-08 -7.08319e-08 1.55732e-20
-2.38241e-08 2.19885e-08 2.61909e-20
2.07424e-08 4.08019e-10 -5.6187e-20
2.47918e-08 -1.00601e-07 1.05814e-20
-8.05397e-07 -2.79913e-07 1.67807e-20
-5.90308e-08 -6.6983e-08 1.04568e-20
1.64282e-07 2.90752e-09 2.31771e-20
5.99591e-08 -5.62318e-09 -3.11326e-20
5.32475e-07 1.24818e-07 4.55283e-21
2.92482e-08 -8.55896e-08 -1.03616e-20
6.70004e-08 7.97741e-08 1.5533e-20
-6.91809e-09 6.24718e-08 3.14616e-20
1.8741e-08 6.96622e-09 -5.03866e-20
-1.05001e-07 -1.71882e-09 2.35278e-20
-1.31348e-08 4.1156e-08 -1.11087e-22
6.32936e-08 -9.54666e-09 1.84547e-20
7.27156e-08 1.29687e-07 -5.40087e-20
-9.75461e-08 9.83508e-09 1.31537e-20
-3.66301e-08 -1.38164e-07 -3.3986e-20
1.21619e-09 1.98459e-10 4.94656e-20
1.08042e-07 8.79474e-09 7.98018e-23
6.87765e-08 -7.94196e-08 -8.06432e-21
-9.96464e-08 -1.60414e-08 -1.0117e-20
-1.87932e-08 -5.45164e-08 1.28648e-22
6.12114e-07 -5.00749e-08 2.91542e-20
7.49295e-08 6.31806e-08 -4.55012e-23
-2.2392e-07 -1.77865e-07 7.64735e-21
1.31315e-08 2.47943e-09 -4.04872e-20
-1.00043e-07 -1.78047e-08 -3.63597e-20
4.37591e-08 -2.84774e-07 -2.0017e-20
4.59981e-07 -4.7108e-07 2.94272e-20
9.71701e-10 -2.15618e-08 -1.84639e-20
-5.79563e-09 1.65805e-08 -3.2506e-20
-1.80015e-08 -1.18529e-08 -3.48706e-20
2.36679e-09 1.19107e-08 2.43315e-20
-1.81923e-08 3.10286e-09 -4.32959e-20
7.23558e-08 -7.87123e-08 -2.80968e-21
4.48855e-07 4.90934e-07 -2.51862e-21
2.86652e-07 -1.29876e-07 -2.65531e-21
4.40939e-09 -1.09088e-08 4.88626e-20
-7.17991e-09 -9.53734e-09 1.39436e-20
-9.93845e-08 2.04028e-08 3.1464e-20
2.84437e-07 -2.79332e-07 7.12994e-21
-2.64989e-07 9.53829e-08 6.06444e-20
-3.34722e-08 -1.46045e-07 2.83461e-20
6.03865e-08 1.46687e-07 2.59424e-20
-9.53307e-08 2.4921e-08 -2.84721e-20
-1.6414e-07 2.5529e-07 2.51828e-20
2.90938e-07 1.42485e-07 1.21576e-20
2.52599e-07 -8.30769e-08 7.30968e-21
-7.42219e-09 1.76475e-08 -5.32672e-21
-1.97675e-07 -1.77388e-07 -2.40123e-21
-1.93571e-08 2.56127e-09 -2.67848e-20
-4.24079e-07 2.49042e-07 -2.37416e-21
-5.38066e-09 -1.65115e-08 2.79002e-21
5.6291e-08 -2.61041e-07 1.26281e-20
-1.68242e-08 -3.67224e-09 -5.1085e-20
4.41477e-08 8.85151e-08 -2.61744e-20
-2.35491e-08 -7.12589e-09 1.05089e-20
-2.48614e-08 -2.33281e-08 5.79003e-21
5.51884e-07 2.42972e-07 2.51664e-21
-4.94615e-10 4.81345e-08 5.26026e-20
7.41865e-09 -3.21108e-08 7.97205e-21
1.25131e-08 -7.14706e-08 4.71118e-20
-4.98123e-09 -2.33923e-08 2.92553e-20
-5.7217e-08 -1.45288e-08 2.60239e-20
-6.6613e-08 8.15083e-08 -7.72498e-21
1.78643e-08 -6.47584e-09 -5.0876e-21
-7.32033e-09 -1.81566e-08 3.22365e-20
-1.91452e-08 -2.81084e-09 -8.51023e-20
-3.30331e-08 3.06039e-07 -6.77497e-20
-5.87433e-08 2.96684e-08 -6.05077e-20
-5.7017e-08 9.75254e-08 -4.92747e-20
-5.7394e-07 6.74606e-08 -2.92731e-20
1.37398e-11 -4.53814e-08 7.85255e-21
-5.51856e-08 -4.6252e-08 -7.90622e-21
2.32541e-08 5.67228e-08 -5.4471e-21
2.19888e-07 4.39617e-08 3.30505e-20
3.1521e-07 -2.74262e-07 2.23185e-20
8.61377e-09 2.11131e-08 1.84946e-20
2.12818e-08 6.62301e-09 -5.2906e-21
-2.93709e-07 2.17299e-07 4.98759e-21
3.4281e-07 4.16761e-08 4.26075e-20
-5.19694e-08 4.64714e-07 -2.72079e-20
-1.8011e-08 -9.30657e-08 -2.88622e-20
6.31756e-08 4.44994e-08 3.42757e-20
2.73591e-07 2.88524e-07 -2.70591e-20
4.94955e-09 2.18154e-09 2.74899e-20
-5.27229e-08 2.62516e-07 -2.26724e-20
4.47013e-09 -2.37663e-09 2.18485e-20
-3.16077e-08 2.15723e-08 -4.52497e-20
6.82846e-08 2.77815e-08 -1.31442e-20
-2.52774e-07 7.81387e-08 2.81323e-20
1.46726e-07 2.57826e-07 -1.3557e-22
9.12846e-08 -4.12154e-07 -1.031e-20
2.14486e-08 5.62128e-08 -1.32899e-20
-3.87786e-08 -2.30617e-08 3.22044e-20
3.21584e-08 1.02827e-07 2.41226e-21
2.13852e-07 3.63873e-08 -2.55277e-21
-1.41991e-07 2.93338e-07 -2.65974e-21
3.7749e-07 -1.23375e-07 6.233e-20
-2.09345e-08 4.57061e-08 -1.56775e-20
4.01083e-08 4.07536e-08 5.22488e-20
-2.38536e-08 -5.50038e-08 2.08487e-20
-9.60684e-09 -4.18891e-08 -1.58269e-20
1.10974e-07 1.32969e-08 -1.54902e-20
-8.09977e-08 3.78863e-07 4.96702e-20
-1.8702e-08 1.15547e-08 -1.53607e-22
5.53509e-08 8.20395e-08 -2.10205e-20
-2.73901e-08 -3.88809e-07 -2.47405e-20
3.93315e-07 1.18094e-07 -2.23951e-22
2.67601e-08 -4.72916e-08 -3.39239e-20
-6.10926e-08 -6.98026e-09 7.62624e-21
-2.51513e-07 -1.00943e-07 -1.02796e-20
1.24176e-08 1.32733e-08 4.59806e-20
-3.99583e-07 -1.39741e-07 -4.74489e-20
1.2607e-08 -1.32379e-08 -2.95834e-20
-3.88533e-08 -2.73147e-07 4.56614e-20
1.68553e-07 6.39717e-09 1.00329e-20
-1.50016e-08 1.27736e-08 -2.3838e-20
4.03565e-09 1.84003e-08 -8.30191e-21
1.1286e-08 -4.93421e-08 -2.87786e-20
1.95748e-08 -9.13707e-09 8.07368e-21
3.41735e-10 1.98067e-08 7.70614e-21
1.70888e-08 -2.13741e-09 -5.63195e-20
3.19247e-08 -4.71179e-08 3.15437e-20
-8.18175e-08 -4.17283e-07 3.98003e-20
2.16097e-07 -1.66359e-07 4.79498e-20
6.84842e-10 2.62883e-08 5.04881e-20
-1.82152e-08 -3.28624e-09 6.78261e-20
-5.90794e-09 -2.03563e-08 -4.45953e-20
-1.50128e-08 -1.06083e-08 -2.66856e-21
-2.02038e-07 2.52471e-07 1.03068e-20
-2.31904e-10 -2.00097e-08 3.81406e-20
-2.52759e-07 3.96868e-07 4.85301e-21
-9.49293e-08 4.36483e-08 2.4439e-21
1.33445e-08 1.4369e-08 -5.76812e-20
-1.72267e-08 -1.00739e-08 1.09566e-20
1.23222e-07 2.97393e-07 -1.50036e-20
7.10425e-08 6.33346e-08 7.61462e-21
1.72527e-07 -5.68927e-08 3.58197e-20
9.71555e-09 -5.3064e-08 -3.65573e-20
-3.13151e-07 -2.88563e-07 -1.25584e-20
-3.01854e-08 5.2141e-08 -7.65554e-21
7.83426e-08 4.17901e-08 -2.89953e-20
1.14584e-07 -3.94412e-08 2.09432e-20
4.94821e-08 -9.88584e-08 4.15071e-20
1.96225e-07 -9.04856e-08 4.91073e-21
1.30528e-07 -6.16112e-08 3.86495e-20
1.31061e-08 -1.08784e-08 5.50945e-20
2.27648e-07 1.80067e-07 -3.30466e-20
-3.29474e-08 -9.52417e-08 -2.61024e-20
-4.04397e-08 -3.46143e-08 2.36649e-20
-6.62234e-09 -1.73564e-08 7.68946e-21
9.09808e-09 6.79423e-08 4.68566e-20
-3.04471e-07 2.18278e-08 5.8263e-20
-1.11231e-07 -2.90644e-07 4.93348e-21
-4.78792e-08 6.103e-08 -1.29132e-20
9.41623e-08 1.255e-07 -7.80892e-21
2.34314e-07 -1.66191e-07 -5.2065e-21
-3.42588e-07 -1.83166e-07 -2.47124e-20
1.52387e-07 -2.48077e-07 4.63409e-21
1.98417e-07 -2.44074e-07 3.28036e-20
-5.84057e-08 5.7758e-09 5.24269e-20
-1.74188e-07 -2.52064e-07 -1.25013e-20
-3.0491e-07 -4.77857e-08 -3.80222e-20
-3.63408e-08 -2.78265e-07 -1.60935e-22
1.35639e-07 -2.80356e-07 -1.51544e-20
2.84476e-09 -3.84941e-08 1.32201e-20
4.03061e-08 2.68423e-07 -2.77569e-20
-1.43606e-07 -2.51217e-07 1.00173e-20
-1.34797e-08 -6.15886e-08 1.05971e-20
-2.07566e-07 1.55395e-07 2.53337e-20
-4.06319e-08 -1.33023e-08 5.58352e-20
-3.16383e-08 -2.17587e-08 -2.09544e-20
8.28009e-08 -4.24585e-08 3.39224e-20
-1.13774e-08 1.61016e-08 -1.07068e-20
4.39965e-08 -5.55569e-08 3.91665e-20
-2.58303e-07 -1.14875e-07 -1.50725e-20
-3.41876e-08 -4.60585e-08 2.08424e-20
3.5728e-08 4.88629e-08 3.12667e-20
1.86768e-07 2.57814e-07 2.51594e-20
-6.60581e-08 -3.0458e-08 -5.11624e-21
-2.8734e-07 -6.46426e-09 6.78332e-20
-3.67842e-08 -3.41407e-08 -2.44235e-21
-2.08499e-09 -4.94185e-08 -5.40741e-21
3.60367e-08 1.8161e-08 -3.17892e-20
-4.15712e-08 4.09927e-08 -7.84374e-21
-6.94751e-09 -7.27601e-08 2.61815e-20
-3.8359e-07 9.44842e-08 2.66574e-21
2.10239e-07 1.79361e-07 1.76761e-20
2.80901e-08 2.92136e-07 -3.25935e-20
-1.69318e-08 5.81053e-09 3.39318e-20
-5.64836e-08 1.75518e-09 7.55939e-20
2.59292e-08 4.95102e-08 1.01747e-20
-2.05038e-08 -5.04937e-09 -1.03394e-20
2.43659e-09 -1.74982e-08 -5.22532e-20
-1.13041e-08 7.70196e-08 3.14304e-20
1.25065e-08 1.3195e-08 4.68227e-20
-1.42703e-07 3.15427e-08 2.0696e-20
-1.44754e-07 1.57939e-07 2.72428e-21
-1.56171e-08 1.44697e-08 4.50657e-20
-2.61909e-07 1.58062e-07 3.26457e-20
-6.70088e-09 2.22904e-08 8.66889e-20
7.06319e-08 -2.52901e-08 -2.09276e-20
3.28301e-07 -3.02026e-08 4.27465e-20
-4.11073e-08 2.60099e-08 5.28858e-21
1.66365e-08 7.65752e-09 -1.26757e-20
4.27794e-08 -2.67873e-08 1.06039e-20
-7.3435e-08 2.44626e-08 -2.87286e-20
-5.34502e-08 1.40002e-08 -2.35329e-20
1.87703e-08 -5.5011e-09 1.5847e-20
1.73898e-07 -1.05757e-07 -3.0876e-20
-6.83991e-08 4.3612e-08 -5.24495e-20
-2.04454e-07 -4.26343e-08 4.32228e-20
-4.34097e-08 -2.28674e-08 -2.63021e-20
1.65946e-08 -1.10381e-08 5.51918e-20
1.83848e-08 1.29386e-08 3.1277e-20
-4.66284e-09 2.09117e-08 5.44835e-21
-1.90218e-09 -2.35951e-08 -1.12726e-22
-1.91547e-08 9.77322e-09 3.14186e-20
-2.14376e-08 -1.09642e-08 1.83319e-20
5.37103e-08 -2.02865e-08 1.68845e-22
-1.96246e-08 -5.41631e-09 -4.48199e-20
-1.95823e-08 5.21738e-09 -9.27009e-20
-4.81036e-09 1.9466e-08 3.42034e-20
-5.22447e-09 -1.98928e-08 -4.9815e-21
1.29442e-08 -1.44827e-08 -5.06164e-20
1.24436e-08 1.38596e-08 3.48564e-20
7.51777e-09 2.07534e-07 -2.30945e-20
4.02357e-08 -3.32112e-08 1.83709e-20
9.39112e-09 -1.77155e-08 5.35761e-21
-1.56489e-07 5.78127e-09 4.40646e-20
1.48496e-08 -1.40721e-08 -7.137e-20
1.38647e-08 1.42906e-08 -7.70113e-21
2.12768e-08 -4.6348e-10 2.38754e-20
7.18463e-08 2.03383e-07 -2.29368e-20
-1.07667e-08 -1.76045e-08 -2.62758e-20
2.32857e-08 -5.32787e-08 4.69838e-23
-1.74659e-07 -9.66357e-08 1.78731e-20
-3.83443e-08 -2.48892e-08 2.38886e-20
-1.753e-07 1.03965e-07 -2.05566e-20
1.55362e-08 -1.59081e-08 -2.5933e-20
-7.44882e-09 1.65536e-08 -2.89519e-20
-4.0994e-09 -2.00961e-07 2.21322e-21
-6.5798e-08 -1.99048e-07 3.79583e-20
3.01725e-07 2.87174e-07 7.44244e-21
3.22732e-07 -1.8329e-08 5.216e-20
-2.28554e-08 4.992e-09 -5.43161e-21
-2.15852e-07 -3.81438e-07 -9.93313e-21
5.14348e-08 8.81953e-08 4.65789e-20
-2.06862e-07 2.43642e-08 4.59782e-20
1.48482e-07 4.15193e-08 5.09606e-21
-2.02808e-08 -8.2036e-11 7.05431e-20
4.53758e-10 -2.10713e-08 -4.20288e-20
-1.83283e-09 -1.43929e-08 -2.71817e-20
-1.79628e-08 -1.07036e-08 -2.78954e-21
-4.4755e-07 -1.69597e-08 -3.98668e-20
1.4063e-07 -1.59056e-07 -1.55079e-20
9.55557e-09 1.85403e-08 4.83178e-21
4.89022e-09 -8.87609e-08 -2.8868e-20
-8.38875e-08 1.98658e-07 4.07114e-20
1.73119e-09 2.22964e-08 4.1617e-20
1.50038e-07 -1.07369e-07 -1.80613e-20
-1.31649e-08 -5.76368e-09 -1.06244e-20
-1.2761e-07 -1.65853e-07 2.29223e-20
1.75723e-08 8.9252e-09 -2.08607e-20
4.15681e-08 4.02159e-08 3.14402e-20
-2.95961e-08 -4.61031e-08 -2.89561e-20
1.81787e-08 -5.89964e-09 3.71482e-20
6.16144e-08 -4.30193e-08 1.57783e-20
-3.65461e-09 3.43353e-08 1.84953e-20
5.07043e-08 -8.54629e-08 8.03882e-21
4.63318e-07 2.33453e-08 5.41544e-20
-3.92523e-07 1.03853e-07 3.47301e-20
3.28235e-08 2.28707e-08 1.35489e-20
-4.86068e-08 -1.17015e-07 2.57088e-21
-7.38608e-08 -4.81904e-08 1.29713e-20
2.40529e-07 -2.41829e-09 4.32072e-20
2.05202e-09 -4.58498e-08 2.11823e-20
-6.00821e-08 -2.1195e-08 2.61431e-20
8.19722e-08 -1.95857e-07 4.80664e-20
6.53329e-09 7.88464e-08 3.12793e-20
6.72767e-08 2.08631e-07 -6.15965e-20
8.07028e-08 -4.253e-08 2.359e-20
-1.47281e-07 1.5677e-07 -2.54282e-20
1.3544e-07 1.67364e-07 5.07935e-20
-8.49931e-09 3.79539e-09 -8.21503e-20
1.41198e-09 3.63175e-08 1.31417e-20
2.71746e-09 -1.64695e-08 2.13834e-20
-1.30485e-08 -1.07978e-08 -2.60305e-20
-4.49503e-08 3.56566e-08 -1.5624e-20
-2.06355e-07 -4.88866e-08 3.31389e-20
7.16206e-10 2.3163e-08 2.39329e-20
-5.39421e-08 1.60821e-08 -1.31907e-20
1.46185e-07 -2.11875e-08 6.20204e-20
-6.25275e-08 -2.02461e-07 -3.5962e-20
-1.23147e-07 1.96119e-07 2.55572e-21
-3.47313e-08 1.60547e-08 -3.47652e-20
-1.65042e-07 -1.16775e-07 -1.78512e-20
3.73267e-08 -1.74929e-08 -3.43265e-20
-2.23781e-07 -1.09569e-08 8.17858e-20
1.09583e-07 -3.86689e-07 9.79037e-21
1.4967e-07 -1.57179e-07 2.7825e-20
2.28927e-07 4.05891e-07 4.72758e-20
-2.15378e-09 4.90037e-08 2.52436e-21
1.96422e-08 -2.03866e-07 1.27458e-20
-7.94018e-09 4.81092e-09 -1.11902e-19
-1.06104e-07 -1.97985e-07 5.60915e-20
3.55621e-08 -3.0458e-08 -8.10417e-21
-2.04708e-08 2.0622e-07 1.02671e-20
4.96681e-08 -1.45604e-08 -5.50228e-20
1.13087e-07 2.01536e-07 -2.57049e-20
1.13233e-07 -2.64037e-09 1.30943e-20
2.068e-07 -6.10186e-07 -1.249e-20
-4.37985e-08 -8.15287e-08 -2.8548e-20
-1.82689e-07 7.96022e-08 3.84721e-20
-2.55751e-08 1.25493e-08 7.17925e-20
1.73432e-07 1.16145e-07 4.0604e-20
1.2359e-07 -6.82317e-08 -5.19145e-21
6.53084e-08 2.86788e-08 -4.46207e-20
-1.335e-08 1.1295e-08 -2.36395e-20
1.23989e-07 -1.91549e-07 4.3223e-20
-1.32183e-07 -1.64954e-07 4.86077e-20
1.70538e-07 6.72638e-08 -1.55859e-20
4.33569e-08 -2.67873e-08 -1.81661e-20
7.97334e-08 -1.9817e-07 -5.29976e-21
9.36636e-08 -1.77436e-08 5.76785e-20
-9.08988e-08 -3.62586e-08 -5.09682e-21
-3.94728e-09 -3.68623e-08 6.13124e-20
-2.08418e-07 2.89376e-08 7.95724e-20
2.18974e-08 1.82821e-07 -2.25259e-22
1.42556e-07 3.32586e-08 -1.28912e-20
-1.61952e-07 -7.24834e-08 -5.00736e-21
-7.96468e-08 2.04209e-07 -7.50838e-21
-1.8207e-08 -1.78114e-07 -2.85275e-21
4.70512e-08 2.29641e-08 -4.22299e-20
-3.05692e-08 8.61109e-08 -1.0501e-20
-1.45634e-07 1.04454e-07 3.86967e-20
1.87053e-07 9.43526e-08 4.07266e-20
-8.51191e-08 -2.67265e-08 2.1e-20
-2.06535e-08 -8.76469e-08 -1.32326e-20
1.42938e-07 1.66162e-07 1.77197e-20
-3.35604e-08 -1.52262e-08 -2.9394e-20
4.70245e-07 -3.3811e-07 3.39571e-20
9.95028e-08 -6.96216e-08 1.81673e-20
8.13054e-08 3.9844e-07 -1.25052e-20
1.04929e-07 -1.00889e-07 2.06325e-20
-2.2706e-07 8.64715e-07 1.40271e-20
-2.28374e-07 -8.56292e-07 -3.02089e-22
5.61101e-07 7.37524e-07 4.79824e-21
5.54144e-07 -7.37325e-07 6.87084e-21
9.18476e-07 -3.60985e-10 6.24724e-20
-7.91773e-07 3.18561e-07 -1.59133e-20
-7.78647e-07 -3.22023e-07 -3.45457e-20
3.78142e-08 2.04996e-08 -5.77587e-20
2.42486e-08 1.17795e-08 1.05468e-20
7.05087e-08 9.48846e-09 -3.12201e-20
1.24495e-07 6.65348e-08 -2.33122e-20
3.69324e-08 1.47118e-07 -2.20025e-22
-1.33479e-07 -1.14683e-07 1.80621e-20
6.71874e-08 -6.19529e-08 -5.16632e-21
1.43423e-07 1.1511e-07 3.83716e-20
-3.31766e-08 1.81078e-07 -7.56758e-21
2.35166e-08 -1.15563e-08 5.36709e-20
3.37596e-08 -1.73768e-07 -1.03371e-20
4.40646e-08 2.97282e-08 -1.31507e-20
2.58743e-07 9.06368e-08 1.27187e-20
5.77286e-09 1.85992e-08 -2.39431e-20
9.99634e-08 3.27127e-08 5.06983e-21
-1.23732e-07 6.84405e-08 2.83254e-20
-1.69425e-07 5.86055e-08 7.73435e-20
3.35102e-08 -2.2958e-08 1.3153e-20
-1.08146e-07 -5.00395e-08 3.38191e-20
-1.18835e-07 -7.03885e-08 2.32529e-20
-1.04208e-08 -1.1928e-07 1.54704e-20
4.68956e-10 -1.3701e-07 -2.59514e-20
-1.50869e-07 -6.52075e-09 7.97065e-20
2.23957e-07 -3.47738e-08 4.29636e-20
1.20788e-07 7.44415e-08 -1.05862e-20
-9.99405e-08 6.81792e-08 1.83176e-20
-4.50433e-08 2.20356e-08 2.66098e-20
1.12744e-07 -1.01026e-07 -1.15514e-22
-8.47177e-08 1.31905e-07 2.83343e-20
-1.04353e-07 -1.09923e-07 6.931e-20
-9.89133e-09 1.43664e-07 -1.27941e-20
-2.15005e-08 1.21237e-07 -2.76486e-21
3.54059e-09 -8.80001e-08 -1.05099e-20
4.54163e-08 -1.46793e-07 2.83894e-20
-7.42056e-08 -4.76212e-08 -1.5572e-20
1.02835e-07 -2.93227e-08 4.42475e-20
2.48225e-10 1.43486e-07 2.34375e-21
-3.10927e-09 9.16571e-08 2.61138e-20
-2.30465e-08 1.03116e-07 -4.16437e-20
1.68803e-07 -4.15422e-08 3.33767e-20
-3.54183e-08 3.38405e-08 -2.62968e-20
3.826e-08 1.436e-07 -2.07742e-20
-2.30923e-08 1.45737e-08 2.94263e-20
8.52847e-08 3.95476e-07 2.95821e-20
-4.17811e-08 2.25656e-08 -8.69344e-20
4.43307e-08 -2.30785e-08 -1.86863e-20
1.27615e-08 1.2201e-07 1.7763e-20
-1.43108e-07 3.3986e-08 1.56011e-20
-4.41099e-09 -6.20076e-08 2.11043e-20
5.92007e-09 -5.6427e-07 -2.67364e-20
1.71303e-08 1.03434e-07 -3.92316e-20
-1.06905e-07 1.0171e-07 2.32504e-20
1.66106e-07 6.17803e-07 3.44744e-20
7.95084e-09 5.24142e-09 2.72539e-20
6.86906e-09 -4.99855e-09 -2.74918e-20
8.04713e-08 -6.27613e-08 7.64017e-21
-1.14257e-07 1.02301e-07 1.54578e-20
-1.3713e-07 -4.04996e-08 3.24382e-22
-1.40928e-07 -4.62833e-08 4.63022e-20
-2.84401e-09 1.75583e-09 -2.26121e-20
-1.97353e-09 -9.71932e-10 -1.11733e-20
6.58131e-08 1.33663e-08 -2.84301e-20
2.08945e-08 9.60453e-08 -1.60239e-20
-2.41554e-09 9.54995e-08 1.02665e-20
-4.72611e-07 -3.43325e-07 -1.70052e-20
8.38445e-08 -1.3188e-07 1.52302e-20
4.23908e-08 1.52477e-08 -6.84578e-20
-1.55542e-07 -1.67277e-08 6.46886e-20
-9.83477e-08 1.29934e-07 -1.01576e-20
-1.26962e-07 5.96967e-08 5.16599e-20
4.64014e-07 3.33383e-07 2.65519e-21
4.58564e-08 3.01574e-08 -3.16474e-20
-4.51425e-08 1.47323e-07 2.83701e-22
-8.89588e-08 -7.62046e-08 6.22748e-20
2.21359e-08 -1.16032e-07 2.08191e-20
-7.20057e-08 -1.36986e-07 2.04833e-20
-1.1537e-07 -7.90785e-08 2.83599e-20
7.90759e-08 -1.40241e-07 2.83408e-20
9.48496e-08 -1.3036e-07 1.00184e-20
-3.00809e-08 -5.88786e-07 4.73134e-21
2.42049e-07 -3.87168e-07 -1.02642e-20
1.1557e-08 -1.40877e-07 -2.83056e-20
9.93292e-08 7.5624e-08 -7.98494e-21
-8.9234e-08 -1.08328e-07 8.52831e-20
-7.74048e-08 1.44299e-07 -4.92548e-21
-4.75594e-08 1.41421e-07 -2.32096e-20
1.03579e-07 1.0727e-07 1.29712e-20
5.0788e-08 -1.32276e-07 -1.53676e-20
-1.31378e-07 -3.74586e-07 2.7078e-20
2.95787e-09 4.54548e-08 7.79974e-21
1.04876e-07 1.07922e-07 -2.06803e-20
-5.6515e-08 -2.7816e-08 4.74459e-20
-4.69547e-08 2.562e-08 -1.83667e-20
4.20622e-07 -1.84269e-07 7.87036e-20
5.22093e-08 -8.62856e-08 -2.47516e-23
-4.95524e-08 -8.47764e-08 3.11559e-20
1.87704e-08 -1.62968e-09 2.69068e-20
1.59181e-09 -7.10308e-09 4.36772e-20
-5.26719e-09 -5.17666e-09 -2.96405e-20
2.31237e-08 1.51789e-08 -1.32576e-20
-7.26136e-08 -1.37069e-07 3.32367e-20
1.11708e-07 4.47941e-08 -2.73778e-21
-2.72016e-07 -2.99046e-07 4.18567e-20
1.0002e-09 8.73908e-09 5.44527e-20
1.02313e-09 1.61444e-09 -2.45038e-20
2.0055e-09 -2.41093e-10 -2.74532e-20
2.61048e-07 -5.1554e-07 -2.87878e-20
-1.0834e-08 1.27504e-08 -6.20807e-20
-2.47569e-09 1.5445e-08 -1.08802e-20
-1.12324e-07 3.99213e-08 4.93643e-20
-3.88913e-09 4.559e-08 7.69144e-20
-2.4685e-08 7.31638e-08 -7.61752e-21
5.08616e-08 2.15924e-09 -2.09289e-20
1.1486e-08 4.39626e-08 5.23668e-20
-3.00603e-09 6.07934e-08 4.22311e-20
8.71747e-08 4.74239e-08 5.99216e-20
6.22721e-09 5.61639e-07 1.69569e-20
-8.11103e-08 7.67591e-08 -4.67547e-20
6.0798e-08 -4.08946e-08 7.86634e-21
3.50828e-08 -3.20634e-08 7.70721e-21
-5.76025e-07 -7.90879e-08 -3.89806e-20
-1.63786e-08 6.50417e-09 -4.06715e-20
-4.19402e-07 -4.96112e-07 1.72379e-20
7.59228e-09 2.03777e-08 -2.59455e-21
7.35038e-08 1.42783e-08 -3.13864e-20
2.18938e-07 -2.84104e-08 3.06404e-20
-5.00328e-08 -8.22136e-08 -1.84421e-20
9.56544e-08 2.7424e-08 -2.61417e-20
4.82165e-10 -2.43218e-08 2.95585e-20
-5.39359e-08 6.24208e-08 -3.38868e-20
-2.06195e-08 -1.31005e-08 -4.79129e-21
-4.86385e-08 9.87939e-08 -3.09418e-20
8.80546e-09 6.2329e-08 2.09011e-20
1.4278e-08 1.04586e-08 -1.08098e-20
1.41678e-08 -1.00464e-08 -2.1802e-20
-3.90465e-07 -1.06368e-07 -3.47778e-20
4.29812e-08 1.60231e-08 -7.60138e-20
-5.17778e-08 1.00247e-06 7.49556e-21
-3.58943e-09 -1.02992e-06 2.12078e-20
5.06937e-07 8.6785e-07 2.62264e-21
-5.25475e-08 4.1701e-08 -2.63091e-20
-2.68649e-07 5.40612e-07 5.08594e-20
5.09855e-07 -8.37652e-07 -2.51919e-21
-8.42617e-08 -1.36379e-07 4.88823e-20
7.74257e-07 6.78396e-07 2.88145e-20
9.07584e-09 -1.61019e-08 4.29738e-20
-9.4608e-09 -1.6315e-08 2.21555e-20
8.11597e-07 -6.63286e-07 2.141e-20
-4.97043e-08 9.77399e-08 2.88975e-22
-5.09789e-07 -3.24671e-07 -2.9588e-20
-4.29921e-07 -8.96033e-07 -4.4677e-22
-2.40784e-07 -5.53922e-07 4.74072e-21
-4.41969e-07 9.10949e-07 4.69701e-21
-1.04442e-07 6.17308e-07 -1.72332e-20
-7.3693e-10 2.15687e-08 5.40212e-20
-2.6815e-07 3.45231e-07 3.45312e-20
-2.5676e-07 -5.2547e-07 -4.12025e-20
9.98333e-07 1.74231e-07 4.99425e-21
-7.79945e-08 6.63181e-08 -7.54523e-20
-1.82182e-09 4.37891e-08 2.09331e-20
-4.82902e-07 3.49589e-07 2.57587e-21
-8.65009e-08 4.61652e-08 -6.00474e-20
9.88514e-07 -1.54978e-07 -2.43505e-21
-6.60119e-08 4.43207e-08 2.63922e-20
4.8101e-08 -9.94827e-08 2.63851e-21
-7.69256e-07 -5.84277e-07 -3.85471e-20
-2.59387e-07 5.55772e-07 -7.12715e-21
-7.879e-07 5.79989e-07 2.64027e-20
2.30215e-07 5.13617e-07 2.36343e-21
-8.46891e-08 6.73257e-08 -3.61588e-20
-2.34748e-08 1.32896e-08 1.86351e-20
-1.2786e-09 -2.09803e-09 -1.67171e-20
3.75466e-10 -1.77956e-09 -4.98442e-20
6.44439e-09 6.75884e-08 1.55708e-20
-1.88113e-09 2.10014e-09 1.09264e-20
1.04568e-09 2.55529e-09 -9.93233e-20
1.74187e-09 -7.72177e-10 -1.04577e-19
-1.00481e-09 7.99517e-09 2.46573e-20
-1.77131e-07 3.86456e-07 1.48405e-20
-1.33055e-08 9.53141e-09 -3.52203e-20
2.2914e-08 -1.4456e-08 1.32994e-20
2.24645e-08 -1.30197e-08 -2.1612e-20
6.47867e-08 2.52725e-08 -2.34299e-20
-5.99928e-10 -6.84238e-09 1.21155e-23
-6.10431e-09 -3.10567e-09 -1.12566e-19
2.24497e-08 1.30979e-08 -7.42389e-23
5.72494e-07 -1.10353e-07 5.54435e-20
-7.41259e-08 -9.44828e-08 1.02894e-20
-5.01215e-07 3.49456e-07 9.97727e-21
-4.48715e-07 5.11783e-07 5.12829e-21
6.04848e-07 -2.18437e-07 9.09053e-20
-2.87054e-09 -8.41633e-09 2.72892e-21
-3.15618e-09 8.64611e-09 -4.09559e-20
-9.48666e-09 1.65652e-09 -4.11098e-20
-6.24681e-09 6.32774e-09 -7.31525e-20
-8.59742e-09 -1.85182e-09 -4.87736e-20
1.55649e-09 2.04819e-09 -3.87112e-20
9.22505e-09 -2.29452e-09 -3.26185e-20
3.86796e-09 -2.74419e-09 -1.12133e-20
-2.76949e-09 -1.94769e-09 -1.38057e-20
5.92051e-09 -6.0532e-09 9.90661e-23
5.9536e-09 6.23386e-09 1.92329e-20
-2.78647e-09 1.70632e-09 1.10225e-20
2.96992e-09 -6.3883e-10 1.90729e-20
4.95043e-09 2.75675e-09 3.01157e-20
1.07719e-08 3.87159e-09 -2.73545e-21
SCALARS rr_necrosis float
LOOKUP_TABLE default
0
0
0
0
0
0
0
0
0
0
0
0
0
0
0
0
0
0
0
0
0
0
0
0
0
0
0
0
0
0
0
0
0
0
0
0
0
0
0
0
0
0
0
0
0
0
0
0
0
0
0
0
0
0
0
0
0
0
0
0
0
0
0
0
0
0
0
0
0
0
0
0
0
0
0
0
0
0
0
0
0
0
0
0
0
0
0
0
0
0
0
0
0
0
0
0
0
0
0
0
0
0
0
0
0
0
0
0
0
0
0
0
0
0
0
0
0
0
0
0
0
0
0
0
0
0
0
0
0
0
0
0
0
0
0
0
0
0
0
0
0
0
0
0
0
0
0
0
0
0
0
0
0
0
0
0
0
0
0
0
0
0
0
0
0
0
0
0
0
0
0
0
0
0
0
0
0
0
0
0
0
0
0
0
0
0
0
0
0
0
0
0
0
0
0
0
0
0
0
0
0
0
0
0
0
0
0
0
0
0
0
0
0
0
0
0
0
0
0
0
0
0
0
0
0
0
0
0
0
0
0
0
0
0
0
0
0
0
0
0
0
0
0
0
0
0
0
0
0
0
0
0
0
0
0
0
0
0
0
0
0
0
0
0
0
0
0
0
0
0
0
0
0
0
0
0
0
0
0
0
0
0
0
0
0
0
0
0
0
0
0
0
0
0
0
0
0
0
0
0
0
0
0
0
0
0
0
0
0
0
0
0
0
0
0
0
0
0
0
0
0
0
0
0
0
0
0
0
0
0
0
0
0
0
0
0
0
0
0
0
0
0
0
0
0
0
0
0
0
0
0
0
0
0
0
0
0
0
0
0
0
0
0
0
0
0
0
0
0
0
0
0
0
0
0
0
0
0
0
0
0
0
0
0
0
0
0
0
0
0
0
0
0
0
0
0
0
0
0
0
0
0
0
0
0
0
0
0
0
0
0
0
0
0
0
0
0
0
0
0
0
0
0
0
0
0
0
0
0
0
0
0
0
0
0
0
0
0
0
0
0
0
0
0
0
0
0
0
0
0
0
0
0
0
0
0
0
0
0
0
0
0
0
0
0
0
0
0
0
0
0
0
0
0
0
0
0
0
0
0
0
0
0
0
0
0
0
0
0
0
0
0
0
0
0
0
0
0
0
0
0
0
0
0
0
0
0
0
0
0
0
0
0
0
0
0
0
0
0
0
0
0
0
0
0
0
0
0
0
0
0
0
0
0
0
0
0
0
0
0
0
0
0
0
0
0
0
0
0
0
0
0
0
0
0
0
0
0
0
0
0
0
0
SCALARS rr_protein float
LOOKUP_TABLE default
1
1
1
1
1
1
1
1
1
1
1
1
1
1
1
1
1
1
1
1
1
1
1
1
1
1
1
1
1
1
1
1
1
1
1
1
1
1
1
1
1
1
1
1
1
1
1
1
1
1
1
1
1
1
1
1
1
1
1
1
1
1
1
1
1
1
1
1
1
1
1
1
1
1
1
1
1
1
1
1
1
1
1
1
1
1
1
1
1
1
1
1
1
1
1
1
1
1
1
1
1
1
1
1
1
1
1
1
1
1
1
1
1
1
1
1
1
1
1
1
1
1
1
1
1
1
1
1
1
1
1
1
1
1
1
1
1
1
1
1
1
1
1
1
1
1
1
1
1
1
1
1
1
1
1
1
1
1
1
1
1
1
1
1
1
1
1
1
1
1
1
1
1
1
1
1
1
1
1
1
1
1
1
1
1
1
1
1
1
1
1
1
1
1
1
1
1
1
1
1
1
1
1
1
1
1
1
1
1
1
1
1
1
1
1
1
1
1
1
1
1
1
1
1
1
1
1
1
1
1
1
1
1
1
1
1
1
1
1
1
1
1
1
1
1
1
1
1
1
1
1
1
1
1
1
1
1
1
1
1
1
1
1
1
1
1
1
1
1
1
1
1
1
1
1
1
1
1
1
1
1
1
1
1
1
1
1
1
1
1
1
1
1
1
1
1
1
1
1
1
1
1
1
1
1
1
1
1
1
1
1
1
1
1
1
1
1
1
1
1
1
1
1
1
1
1
1
1
1
1
1
1
1
1
1
1
1
1
1
1
1
1
1
1
1
1
1
1
1
1
1
1
1
1
1
1
1
1
1
1
1
1
1
1
1
1
1
1
1
1
1
1
1
1
1
1
1
1
1
1
1
1
1
1
1
1
1
1
1
1
1
1
1
1
1
1
1
1
1
1
1
1
1
1
1
1
1
1
1
1
1
1
1
1
1
1
1
1
1
1
1
1
1
1
1
1
1
1
1
1
1
1
1
1
1
1
1
1
1
1
1
1
1
1
1
1
1
1
1
1
1
1
1
1
1
1
1
1
1
1
1
1
1
1
1
1
1
1
1
1
1
1
1
1
1
1
1
1
1
1
1
1
1
1
1
1
1
1
1
1
1
1
1
1
1
1
1
1
1
1
1
1
1
1
1
1
1
1
1
1
1
1
1
1
1
1
1
1
1
1
1
1
1
1
1
1
1
1
1
1
1
1
1
1
1
1
1
1
1
1
1
1
1
1
1
1
1
1
1
1
1
1
1
1
1
1
1
1
1
1
1
1
1
SCALARS rr_(S_ext) float
LOOKUP_TABLE default
0.878652
0.878941
0.878918
0.878933
0.879031
0.878918
0.87865
0.878937
0.878895
0.878942
0.878645
0.878937
0.878931
0.878948
0.878995
0.878924
0.878957
0.87893
0.878878
0.878909
0.878909
0.879142
0.878906
0.87891
0.878909
0.878935
0.878701
0.878922
0.878795
0.879073
0.878931
0.878795
0.878699
0.879053
0.879066
0.879053
0.879075
0.879063
0.87893
0.8787
0.878793
0.879076
0.879075
0.87893
0.87872
0.8788
0.878886
0.8789
0.878919
0.878774
0.878786
0.878828
0.879023
0.87883
0.879021
0.87874
0.879067
0.87883
0.879067
0.87891
0.878954
0.878986
0.878728
0.878986
0.878986
0.878961
0.878955
0.878936
0.878908
0.878941
0.879022
0.879022
0.878794
0.878972
0.87892
0.878683
0.879006
0.878961
0.878935
0.878832
0.878773
0.879042
0.87897
0.878762
0.878808
0.878729
0.878921
0.878968
0.878721
0.879127
0.878829
0.879127
0.879006
0.878958
0.878833
0.878781
0.878775
0.878941
0.879005
0.878928
0.878864
0.878816
0.87876
0.878931
0.878939
0.878939
0.878974
0.878927
0.878761
0.878942
0.878911
0.878732
0.878748
0.878931
0.878938
0.878832
0.879069
0.878775
0.879069
0.878833
0.878872
0.87899
0.878939
0.878964
0.878945
0.878997
0.879057
0.878941
0.878776
0.878832
0.879021
0.878937
0.878967
0.878938
0.878817
0.879067
0.87876
0.878934
0.87897
0.879066
0.87882
0.878948
0.878879
0.878942
0.878774
0.878936
0.878942
0.878921
0.878918
0.878853
0.878898
0.878939
0.878793
0.878932
0.878942
0.878937
0.878953
0.878824
0.878825
0.878928
0.8789
0.878796
0.878731
0.878784
0.878822
0.878939
0.878823
0.878824
0.878794
0.878823
0.879006
0.87883
0.878785
0.878956
0.878831
0.878973
0.879006
0.878938
0.879026
0.878942
0.878796
0.878941
0.87894
0.87882
0.878968
0.878783
0.878964
0.878977
0.879009
0.878941
0.878968
0.878779
0.87883
0.878794
0.878938
0.878928
0.87893
0.878967
0.878939
0.87896
0.87894
0.878883
0.878835
0.878967
0.878797
0.878969
0.878962
0.878813
0.878991
0.87894
0.878995
0.878952
0.878938
0.87897
0.878854
0.878955
0.878839
0.878977
0.878944
0.878944
0.878939
0.878941
0.878942
0.878942
0.878946
0.878992
0.878991
0.878991
0.878992
0.879022
0.879022
0.878851
0.878945
0.878927
0.878899
0.878996
0.878997
0.878929
0.878835
0.878926
0.878941
0.878856
0.87899
0.878855
0.878972
0.878923
0.878856
0.87884
0.878772
0.878768
0.87897
0.87877
0.878927
0.878838
0.87888
0.878925
0.878943
0.87908
0.878942
0.87877
0.878838
0.878926
0.878937
0.878834
0.878943
0.878881
0.879079
0.878839
0.878945
0.878964
0.87893
0.878995
0.878967
0.879024
0.87893
0.878741
0.878729
0.879017
0.878908
0.878937
0.878857
0.878991
0.878956
0.878838
0.878958
0.878865
0.878944
0.878866
0.878836
0.879106
0.879009
0.878994
0.878994
0.878945
0.878869
0.87905
0.878962
0.878901
0.87887
0.87886
0.879015
0.878855
0.879007
0.878864
0.878721
0.878868
0.878772
0.878977
0.878855
0.879105
0.878864
0.87897
0.878852
0.878967
0.878862
0.878923
0.878727
0.878914
0.878855
0.879012
0.878852
0.878901
0.87897
0.878941
0.878863
0.878868
0.878879
0.878979
0.878867
0.878938
0.878922
0.879025
0.878869
0.878878
0.878906
0.878882
0.878865
0.878882
0.878988
0.878936
0.87888
0.878854
0.878946
0.878947
0.878866
0.879024
0.878635
0.878924
0.878773
0.878908
0.87844
0.878441
0.878441
0.87844
0.878439
0.878444
0.878446
0.878979
0.879043
0.878929
0.878899
0.87888
0.878882
0.878944
0.878879
0.878878
0.879044
0.878881
0.878994
0.878829
0.878986
0.878917
0.878899
0.878881
0.879018
0.878923
0.878901
0.878923
0.878901
0.878876
0.878831
0.878898
0.87892
0.878994
0.878884
0.878873
0.878882
0.878896
0.878919
0.878944
0.878882
0.878944
0.878915
0.878897
0.878938
0.878915
0.878879
0.878965
0.878905
0.879039
0.878722
0.878979
0.878989
0.878919
0.878906
0.878959
0.87864
0.878917
0.878904
0.878728
0.879106
0.879108
0.878921
0.87888
0.878908
0.878884
0.879161
0.879159
0.878935
0.878939
0.878937
0.878644
0.878875
0.878971
0.878899
0.878897
0.878897
0.878631
0.878965
0.878878
0.878922
0.878922
0.878895
0.878901
0.878895
0.878899
0.878702
0.878773
0.8789
0.878923
0.878905
0.878894
0.878903
0.878907
0.878905
0.878724
0.878998
0.878881
0.878959
0.878967
0.878722
0.878918
0.878915
0.879025
0.879098
0.879097
0.879008
0.878875
0.878921
0.878718
0.879091
0.879148
0.879148
0.878628
0.879062
0.879072
0.878918
0.879005
0.878929
0.878943
0.878965
0.878977
0.878939
0.878638
0.878925
0.878958
0.878971
0.878681
0.879063
0.878726
0.878967
0.878948
0.87886
0.878929
0.878937
0.879023
0.878939
0.879023
0.878921
0.878972
0.879069
0.879072
0.878721
0.878948
0.878645
0.878655
0.878635
0.878966
0.878639
0.878626
0.878895
0.878639
0.879042
0.879042
0.878647
0.878903
0.878706
0.878647
0.878697
0.878645
0.878697
0.879064
0.878708
0.87864
0.878644
0.878936
0.878983
0.878692
0.878936
0.878626
0.878945
0.878906
0.878642
0.878686
0.878636
0.878627
0.878915
0.879046
0.87914
0.879135
0.878949
0.879139
0.879138
0.879137
0.879111
0.878714
0.879066
0.879012
0.879048
0.878946
0.879119
0.879119
0.879055
0.878623
0.878903
0.878636
0.878723
0.878718
0.879087
0.879086
0.879084
0.879085
0.879086
0.879136
0.879089
0.87912
0.879145
0.87909
0.87909
0.879146
0.879137
0.879121
0.879084
SCALARS rr_(P_ext) float
LOOKUP_TABLE default
0.016099
0.0160186
0.0160257
0.01602
0.0159984
0.0160258
0.0160993
0.016021
0.0160324
0.0160189
0.0160938
0.016021
0.0160227
0.0160179
0.0160058
0.0160245
0.016015
0.0160219
0.016036
0.0160277
0.0160288
0.0159708
0.0160287
0.0160276
0.0160278
0.0160206
0.0160826
0.0160248
0.016058
0.015987
0.0160229
0.0160578
0.0160837
0.0159918
0.0159894
0.0159919
0.0159861
0.0159905
0.0160231
0.0160835
0.0160581
0.0159858
0.0159859
0.0160229
0.016076
0.0160568
0.0160343
0.0160311
0.0160255
0.0160629
0.01606
0.0160498
0.0159995
0.0160496
0.0160001
0.0160736
0.0159893
0.0160495
0.0159893
0.0160273
0.0160153
0.0160086
0.0160774
0.0160091
0.0160085
0.016015
0.016015
0.0160205
0.0160282
0.0160184
0.0159997
0.0159997
0.0160582
0.0160126
0.0160254
0.0160871
0.0160043
0.0160151
0.0160206
0.0160479
0.0160646
0.0159959
0.0160119
0.0160668
0.0160556
0.0160751
0.0160248
0.0160138
0.0160759
0.0159747
0.0160497
0.0159748
0.0160039
0.0160159
0.016049
0.0160608
0.0160645
0.0160191
0.0160044
0.0160234
0.0160406
0.0160537
0.016067
0.0160212
0.0160198
0.0160196
0.0160109
0.016024
0.0160671
0.0160174
0.0160272
0.0160734
0.0160698
0.0160216
0.01602
0.0160493
0.0159894
0.0160648
0.0159896
0.016049
0.0160378
0.0160067
0.0160186
0.0160136
0.0160168
0.0160051
0.0159921
0.0160191
0.0160645
0.0160489
0.0159996
0.0160192
0.0160123
0.0160189
0.0160536
0.0159892
0.0160689
0.0160221
0.0160119
0.0159893
0.0160527
0.0160187
0.0160366
0.0160189
0.0160651
0.0160203
0.0160199
0.0160256
0.0160258
0.016043
0.0160313
0.0160186
0.0160579
0.0160226
0.0160189
0.0160191
0.0160167
0.0160519
0.0160517
0.0160227
0.016031
0.0160574
0.016074
0.01606
0.016052
0.0160195
0.016052
0.0160521
0.0160579
0.0160518
0.0160037
0.0160496
0.0160602
0.016016
0.0160494
0.0160112
0.0160037
0.0160211
0.0159992
0.0160195
0.0160579
0.0160192
0.0160192
0.0160526
0.0160136
0.0160607
0.0160136
0.0160108
0.0160034
0.0160191
0.0160135
0.0160636
0.0160494
0.0160578
0.016019
0.0160222
0.0160218
0.0160124
0.0160188
0.0160153
0.0160186
0.016035
0.0160474
0.0160125
0.0160578
0.0160119
0.0160151
0.0160541
0.0160076
0.0160185
0.0160069
0.0160175
0.01602
0.0160118
0.0160427
0.0160168
0.0160466
0.0160109
0.016017
0.016017
0.0160179
0.0160176
0.0160175
0.0160176
0.0160184
0.0160063
0.0160066
0.0160063
0.0160062
0.016
0.016
0.0160433
0.0160181
0.0160207
0.0160315
0.0160058
0.0160055
0.0160205
0.0160471
0.016021
0.016019
0.0160424
0.0160075
0.0160428
0.0160116
0.0160213
0.0160422
0.0160462
0.0160648
0.0160642
0.0160119
0.0160663
0.0160235
0.0160466
0.0160355
0.0160211
0.0160172
0.0159854
0.0160174
0.0160669
0.0160466
0.0160207
0.016021
0.0160475
0.0160172
0.0160362
0.0159855
0.0160464
0.0160168
0.016014
0.0160218
0.016006
0.016014
0.0159995
0.0160227
0.0160722
0.0160752
0.0160017
0.0160286
0.016021
0.0160428
0.0160074
0.016016
0.0160465
0.0160158
0.0160403
0.0160196
0.0160403
0.016047
0.0159793
0.0160029
0.0160056
0.0160057
0.0160184
0.0160397
0.0159927
0.0160144
0.0160307
0.0160394
0.016042
0.0160018
0.0160425
0.0160038
0.0160411
0.0160758
0.0160399
0.0160656
0.0160107
0.0160424
0.0159794
0.0160411
0.0160125
0.0160433
0.0160133
0.0160413
0.0160248
0.0160788
0.0160264
0.0160426
0.0160021
0.016043
0.0160307
0.0160132
0.0160184
0.0160412
0.0160398
0.0160364
0.0160108
0.0160399
0.016021
0.0160248
0.0159997
0.0160398
0.0160368
0.0160295
0.0160359
0.0160406
0.0160357
0.0160084
0.0160212
0.0160365
0.0160428
0.016019
0.0160188
0.0160402
0.0159998
0.0160966
0.016025
0.0160647
0.0160292
0.0161392
0.0161391
0.0161386
0.0161388
0.0161385
0.0161394
0.016139
0.0160104
0.0159949
0.0160225
0.016031
0.0160356
0.016036
0.0160195
0.0160365
0.0160369
0.0159947
0.016036
0.0160071
0.0160497
0.0160076
0.016026
0.0160312
0.0160363
0.0160016
0.016025
0.0160306
0.016025
0.0160305
0.0160366
0.0160482
0.0160312
0.0160258
0.0160069
0.0160348
0.0160374
0.0160351
0.0160317
0.016026
0.0160194
0.0160352
0.0160196
0.0160267
0.0160315
0.0160209
0.0160265
0.0160362
0.0160133
0.0160299
0.0159955
0.0160757
0.0160104
0.0160084
0.0160259
0.0160297
0.0160152
0.0160956
0.0160259
0.01603
0.0160783
0.0159798
0.0159796
0.0160251
0.0160357
0.0160291
0.0160348
0.0159676
0.0159676
0.0160208
0.0160208
0.0160211
0.0160958
0.0160369
0.0160122
0.0160315
0.0160322
0.0160316
0.0160971
0.0160137
0.0160361
0.0160253
0.0160253
0.0160323
0.0160307
0.0160323
0.0160316
0.016083
0.0160654
0.0160308
0.0160252
0.0160298
0.0160326
0.0160303
0.0160293
0.0160298
0.0160757
0.0160057
0.0160352
0.0160154
0.0160133
0.0160762
0.0160256
0.0160263
0.0159997
0.0159803
0.0159803
0.0160029
0.0160371
0.0160255
0.016077
0.0159819
0.0159694
0.0159695
0.016098
0.0159905
0.015987
0.0160263
0.0160042
0.0160226
0.0160184
0.0160131
0.0160111
0.016021
0.0160958
0.0160244
0.0160161
0.0160123
0.0160876
0.0159896
0.0160797
0.0160126
0.0160182
0.0160416
0.016023
0.0160214
0.015999
0.0160203
0.0159991
0.0160252
0.0160122
0.0159883
0.0159878
0.0160768
0.0160174
0.0161006
0.0160991
0.0161023
0.0160138
0.0160967
0.016104
0.0160325
0.0161015
0.0159956
0.0159957
0.0161002
0.0160294
0.0160827
0.016101
0.0160842
0.0161013
0.0160843
0.01599
0.0160797
0.0160964
0.0161004
0.0160217
0.0160094
0.0160855
0.0160215
0.0161034
0.016019
0.0160289
0.0161019
0.0160867
0.0161031
0.016098
0.0160266
0.0159943
0.0159708
0.0159719
0.0160176
0.015971
0.0159711
0.0159715
0.0159777
0.0160782
0.0159888
0.0160024
0.0159942
0.0160186
0.015976
0.0159761
0.0159928
0.0160988
0.0160296
0.0160978
0.016081
0.0160804
0.0159828
0.015983
0.0159836
0.0159834
0.0159829
0.0159722
0.0159834
0.015976
0.0159706
0.0159827
0.0159826
0.0159703
0.015972
0.0159757
0.015984
SCALARS rr_(S) float
LOOKUP_TABLE default
0.815006
0.815151
0.815141
0.815147
0.815206
0.81514
0.815005
0.815151
0.815129
0.815153
0.814994
0.815151
0.815148
0.815156
0.815184
0.815144
0.815161
0.815147
0.815119
0.815135
0.815136
0.81527
0.815133
0.815136
0.815135
0.815149
0.815027
0.815142
0.815075
0.81523
0.815148
0.815075
0.815027
0.815218
0.815226
0.815218
0.81523
0.815224
0.815148
0.815027
0.815075
0.815231
0.81523
0.815147
0.815035
0.815079
0.815123
0.815132
0.815141
0.815064
0.815071
0.815093
0.8152
0.815095
0.815199
0.815049
0.815226
0.815094
0.815226
0.815136
0.815159
0.815178
0.815043
0.815179
0.815178
0.815165
0.81516
0.815149
0.815134
0.815152
0.8152
0.815199
0.815075
0.815171
0.815142
0.815017
0.81519
0.815165
0.815149
0.815094
0.815065
0.815211
0.815169
0.815058
0.815083
0.815041
0.815142
0.815169
0.815035
0.815263
0.815094
0.815263
0.81519
0.815163
0.815096
0.815068
0.815067
0.815152
0.81519
0.815146
0.815113
0.815088
0.815058
0.815146
0.815151
0.815151
0.815172
0.815146
0.815058
0.815152
0.815136
0.815042
0.815051
0.815146
0.81515
0.815096
0.815228
0.815067
0.815228
0.815096
0.815116
0.81518
0.81515
0.815166
0.815154
0.815185
0.815221
0.815152
0.815067
0.815096
0.815198
0.815149
0.815167
0.81515
0.815089
0.815226
0.815059
0.81515
0.815169
0.815226
0.81509
0.815158
0.81512
0.815153
0.815067
0.815149
0.815154
0.815143
0.815141
0.815106
0.81513
0.81515
0.815074
0.815148
0.815153
0.815149
0.81516
0.815093
0.815093
0.815145
0.815132
0.815075
0.815042
0.815069
0.815091
0.815151
0.815092
0.815092
0.815075
0.815092
0.81519
0.815094
0.81507
0.815161
0.815095
0.815171
0.81519
0.815152
0.815202
0.815153
0.815076
0.815152
0.815152
0.81509
0.815168
0.815069
0.815166
0.815174
0.815193
0.815152
0.815169
0.815069
0.815094
0.815075
0.81515
0.815145
0.815146
0.815167
0.81515
0.815164
0.815151
0.815122
0.815096
0.815167
0.815077
0.815168
0.815166
0.815086
0.815181
0.815151
0.815185
0.815159
0.815151
0.815169
0.815106
0.815161
0.815098
0.815173
0.815153
0.815153
0.81515
0.815151
0.815151
0.815151
0.815155
0.815181
0.815181
0.815181
0.815182
0.8152
0.8152
0.815105
0.815155
0.815143
0.815131
0.815184
0.815185
0.815144
0.815096
0.815142
0.815152
0.815108
0.815181
0.815107
0.81517
0.81514
0.815108
0.815099
0.815065
0.815061
0.815169
0.815064
0.815145
0.815098
0.81512
0.815142
0.815152
0.815233
0.815152
0.815066
0.815097
0.815142
0.815151
0.815096
0.815152
0.815121
0.815233
0.815098
0.815154
0.815166
0.815146
0.815183
0.815169
0.815201
0.815147
0.815047
0.815041
0.815197
0.815135
0.815151
0.815109
0.815181
0.815162
0.815098
0.815163
0.815113
0.815156
0.815114
0.815096
0.815249
0.815192
0.815183
0.815182
0.815155
0.815115
0.815216
0.815165
0.815132
0.815116
0.815111
0.815196
0.815107
0.815192
0.815113
0.815036
0.815114
0.815066
0.815174
0.815107
0.815248
0.815112
0.815169
0.815105
0.815168
0.815112
0.815144
0.815044
0.815137
0.815107
0.815193
0.815106
0.815132
0.81517
0.815151
0.815112
0.815115
0.81512
0.815175
0.815114
0.815152
0.815143
0.815201
0.815115
0.81512
0.815135
0.815122
0.815113
0.815122
0.81518
0.81515
0.815121
0.815107
0.815156
0.815157
0.815113
0.815201
0.814988
0.815144
0.815065
0.815136
0.814878
0.814878
0.814878
0.814878
0.814877
0.814881
0.814883
0.815175
0.815212
0.815146
0.815131
0.81512
0.815122
0.815156
0.81512
0.815119
0.815213
0.815121
0.815184
0.815094
0.815178
0.81514
0.815131
0.815121
0.815198
0.815144
0.815132
0.815144
0.815132
0.815118
0.815094
0.81513
0.815143
0.815184
0.815122
0.815116
0.815121
0.815129
0.815142
0.815155
0.815121
0.815155
0.815139
0.815129
0.815152
0.815139
0.81512
0.815166
0.815134
0.81521
0.815036
0.815174
0.815181
0.815142
0.815135
0.815163
0.814992
0.81514
0.815134
0.815044
0.81525
0.815251
0.815143
0.81512
0.815136
0.815122
0.815283
0.815282
0.815149
0.815152
0.815151
0.814995
0.815117
0.81517
0.815131
0.81513
0.81513
0.814986
0.815167
0.815119
0.815143
0.815143
0.815129
0.815131
0.815129
0.815131
0.815028
0.815066
0.815131
0.815144
0.815134
0.815128
0.815133
0.815135
0.815134
0.815037
0.815186
0.815121
0.815163
0.815168
0.815037
0.81514
0.815138
0.815202
0.815243
0.815243
0.815192
0.815117
0.815143
0.815034
0.81524
0.815274
0.815274
0.814985
0.815223
0.815229
0.815141
0.81519
0.815146
0.815153
0.815166
0.815174
0.815152
0.814991
0.815144
0.815163
0.81517
0.815016
0.815223
0.815045
0.815167
0.815157
0.81511
0.815146
0.815152
0.8152
0.815152
0.8152
0.815142
0.815171
0.815227
0.81523
0.815037
0.815156
0.815002
0.815008
0.814996
0.815168
0.814993
0.814991
0.815129
0.814998
0.815212
0.815211
0.815003
0.815132
0.815032
0.815004
0.815025
0.815003
0.815026
0.815225
0.815029
0.814993
0.815001
0.815151
0.815177
0.815023
0.815151
0.81499
0.815155
0.815134
0.815002
0.815019
0.814997
0.814984
0.815139
0.815214
0.815269
0.815266
0.815158
0.815268
0.815268
0.815267
0.815252
0.815032
0.815225
0.815194
0.815215
0.815156
0.815257
0.815257
0.81522
0.814981
0.815132
0.814991
0.815043
0.815039
0.815237
0.815236
0.815235
0.815236
0.815236
0.815268
0.815239
0.815258
0.815273
0.81524
0.81524
0.815274
0.815267
0.815258
0.815236
SCALARS rr_(P) float
LOOKUP_TABLE default
0.0185152
0.0184689
0.0184731
0.0184697
0.0184572
0.0184732
0.0185153
0.0184704
0.018477
0.0184691
0.0185119
0.0184704
0.0184713
0.0184685
0.0184614
0.0184724
0.0184668
0.0184709
0.018479
0.0184742
0.0184749
0.0184409
0.0184748
0.0184741
0.0184743
0.0184701
0.0185057
0.0184725
0.0184916
0.0184504
0.0184715
0.0184915
0.0185063
0.0184532
0.0184519
0.0184533
0.0184499
0.0184525
0.0184716
0.0185062
0.0184917
0.0184497
0.0184497
0.0184715
0.0185019
0.018491
0.0184781
0.0184762
0.018473
0.0184944
0.0184928
0.0184869
0.0184578
0.0184868
0.0184582
0.0185006
0.0184518
0.0184868
0.0184519
0.018474
0.018467
0.0184632
0.0185028
0.0184634
0.0184631
0.0184669
0.0184668
0.0184701
0.0184745
0.0184688
0.0184579
0.0184579
0.0184917
0.0184655
0.018473
0.0185083
0.0184607
0.0184669
0.0184701
0.0184858
0.0184954
0.0184557
0.018465
0.0184967
0.0184903
0.0185014
0.0184726
0.0184662
0.0185018
0.0184432
0.0184869
0.0184432
0.0184604
0.0184674
0.0184865
0.0184932
0.0184954
0.0184692
0.0184607
0.0184718
0.0184817
0.0184892
0.0184968
0.0184704
0.0184696
0.0184695
0.0184645
0.0184721
0.0184969
0.0184682
0.0184739
0.0185004
0.0184984
0.0184707
0.0184697
0.0184867
0.0184519
0.0184956
0.018452
0.0184865
0.01848
0.018462
0.0184689
0.018466
0.0184678
0.018461
0.0184535
0.0184692
0.0184954
0.0184865
0.0184578
0.0184692
0.0184652
0.0184691
0.0184892
0.0184518
0.0184979
0.018471
0.018465
0.0184518
0.0184886
0.018469
0.0184794
0.0184691
0.0184958
0.0184699
0.0184697
0.018473
0.0184731
0.0184831
0.0184763
0.0184689
0.0184916
0.0184713
0.0184691
0.0184692
0.0184679
0.0184882
0.0184881
0.0184713
0.0184762
0.0184912
0.0185008
0.0184928
0.0184882
0.0184695
0.0184882
0.0184883
0.0184916
0.0184881
0.0184602
0.0184868
0.0184929
0.0184675
0.0184867
0.0184646
0.0184603
0.0184704
0.0184577
0.0184695
0.0184916
0.0184693
0.0184693
0.0184886
0.0184661
0.0184932
0.0184661
0.0184644
0.0184601
0.0184692
0.018466
0.0184949
0.0184867
0.0184915
0.0184691
0.018471
0.0184708
0.0184653
0.018469
0.0184671
0.0184689
0.0184785
0.0184855
0.0184653
0.0184915
0.018465
0.0184669
0.0184895
0.0184626
0.0184688
0.0184622
0.0184683
0.0184698
0.018465
0.0184829
0.0184679
0.0184851
0.0184645
0.0184679
0.0184679
0.0184684
0.0184683
0.0184682
0.0184683
0.0184688
0.0184618
0.0184619
0.0184617
0.0184617
0.0184581
0.018458
0.0184832
0.0184687
0.0184701
0.0184765
0.0184614
0.0184612
0.0184699
0.0184854
0.0184702
0.0184692
0.0184827
0.0184625
0.0184829
0.0184649
0.0184704
0.0184826
0.0184849
0.0184955
0.0184951
0.018465
0.0184965
0.0184718
0.0184851
0.0184787
0.0184703
0.018468
0.0184495
0.0184681
0.0184968
0.0184851
0.0184701
0.0184704
0.0184856
0.0184681
0.0184791
0.0184495
0.018485
0.0184678
0.0184663
0.0184708
0.0184615
0.0184663
0.0184578
0.0184714
0.0184998
0.0185014
0.0184591
0.0184748
0.0184704
0.0184829
0.0184624
0.0184675
0.018485
0.0184673
0.0184815
0.0184695
0.0184815
0.0184853
0.0184459
0.0184598
0.0184613
0.0184614
0.0184688
0.0184812
0.0184538
0.0184665
0.018476
0.018481
0.0184825
0.0184592
0.0184828
0.0184603
0.018482
0.0185017
0.0184813
0.018496
0.0184643
0.0184827
0.0184459
0.018482
0.0184654
0.0184832
0.0184658
0.0184821
0.0184726
0.0185036
0.0184735
0.0184829
0.0184593
0.0184831
0.0184759
0.0184658
0.0184688
0.018482
0.0184812
0.0184793
0.0184644
0.0184813
0.0184704
0.0184725
0.0184579
0.0184813
0.0184795
0.0184753
0.018479
0.0184817
0.0184789
0.018463
0.0184705
0.0184793
0.0184829
0.0184692
0.0184691
0.0184815
0.018458
0.0185136
0.0184727
0.0184955
0.0184751
0.0185377
0.0185377
0.0185374
0.0185375
0.0185373
0.0185379
0.0185377
0.0184642
0.018455
0.0184712
0.0184762
0.0184788
0.018479
0.0184695
0.0184793
0.0184796
0.0184549
0.018479
0.0184623
0.0184869
0.0184624
0.0184732
0.0184763
0.0184792
0.018459
0.0184727
0.0184759
0.0184727
0.0184759
0.0184794
0.018486
0.0184762
0.0184731
0.0184621
0.0184783
0.0184798
0.0184785
0.0184765
0.0184733
0.0184695
0.0184786
0.0184695
0.0184736
0.0184764
0.0184703
0.0184735
0.0184791
0.0184659
0.0184755
0.0184555
0.0185017
0.0184642
0.018463
0.0184732
0.0184754
0.018467
0.018513
0.0184732
0.0184756
0.0185033
0.0184462
0.0184461
0.0184727
0.0184788
0.0184751
0.0184783
0.0184391
0.0184391
0.0184702
0.0184702
0.0184704
0.0185132
0.0184795
0.0184652
0.0184765
0.0184769
0.0184765
0.0185138
0.0184661
0.0184791
0.0184729
0.0184729
0.0184769
0.018476
0.0184769
0.0184765
0.0185059
0.0184959
0.018476
0.0184728
0.0184755
0.0184771
0.0184758
0.0184752
0.0184755
0.0185017
0.0184614
0.0184786
0.0184671
0.0184659
0.018502
0.018473
0.0184734
0.0184579
0.0184464
0.0184465
0.0184598
0.0184796
0.018473
0.0185025
0.0184474
0.0184401
0.0184401
0.0185143
0.0184525
0.0184504
0.0184734
0.0184606
0.0184713
0.0184688
0.0184657
0.0184646
0.0184704
0.0185131
0.0184723
0.0184675
0.0184653
0.0185085
0.0184519
0.0185042
0.0184655
0.0184687
0.0184823
0.0184716
0.0184706
0.0184574
0.01847
0.0184575
0.0184728
0.0184653
0.0184511
0.0184509
0.0185023
0.0184682
0.018516
0.0185152
0.018517
0.0184662
0.0185137
0.0185179
0.0184771
0.0185165
0.0184556
0.0184556
0.0185158
0.0184752
0.0185058
0.0185163
0.0185066
0.0185165
0.0185066
0.0184523
0.018504
0.0185135
0.0185159
0.0184708
0.0184636
0.0185074
0.0184707
0.0185176
0.0184692
0.0184749
0.0185168
0.018508
0.0185175
0.0185143
0.0184736
0.0184548
0.0184409
0.0184415
0.0184684
0.018441
0.018441
0.0184413
0.0184449
0.0185031
0.0184515
0.0184595
0.0184547
0.0184689
0.018444
0.018444
0.0184539
0.0185148
0.0184754
0.0185143
0.0185049
0.0185045
0.0184479
0.018448
0.0184484
0.0184483
0.0184479
0.0184417
0.0184483
0.0184439
0.0184408
0.0184478
0.0184478
0.0184406
0.0184416
0.0184438
0.0184486
SCALARS rr_(T) float
LOOKUP_TABLE default
0.0550934
0.0551212
0.0551186
0.0551205
0.0551321
0.0551186
0.0550933
0.0551206
0.0551161
0.0551213
0.0550941
0.0551206
0.0551199
0.0551219
0.055128
0.0551189
0.0551233
0.0551201
0.0551147
0.0551178
0.0551175
0.0551475
0.0551175
0.0551179
0.0551177
0.0551207
0.0550985
0.0551192
0.0551068
0.0551383
0.0551197
0.0551069
0.0550982
0.0551358
0.0551369
0.0551357
0.0551388
0.0551363
0.0551198
0.0550982
0.0551068
0.0551389
0.0551389
0.0551197
0.0551005
0.0551073
0.0551153
0.0551165
0.0551188
0.0551051
0.0551062
0.0551098
0.0551314
0.0551099
0.0551311
0.0551017
0.055137
0.0551099
0.0551369
0.055118
0.0551231
0.0551264
0.0551005
0.0551263
0.0551264
0.0551236
0.0551232
0.0551207
0.0551176
0.0551214
0.0551314
0.0551313
0.0551068
0.0551248
0.0551186
0.0550968
0.0551289
0.0551235
0.0551207
0.0551104
0.0551047
0.0551333
0.0551248
0.0551038
0.0551078
0.0551009
0.0551191
0.0551243
0.0551005
0.0551456
0.0551098
0.0551456
0.0551291
0.0551233
0.0551101
0.0551058
0.0551048
0.0551211
0.0551288
0.0551196
0.0551131
0.0551085
0.0551038
0.0551202
0.0551211
0.0551208
0.0551255
0.0551193
0.0551037
0.0551218
0.055118
0.0551014
0.0551028
0.0551201
0.0551207
0.05511
0.055137
0.0551047
0.0551369
0.0551101
0.0551141
0.0551274
0.0551212
0.055124
0.0551221
0.0551285
0.0551355
0.0551211
0.0551048
0.0551101
0.0551315
0.055121
0.0551245
0.0551211
0.0551085
0.0551371
0.0551033
0.0551203
0.0551248
0.055137
0.0551088
0.0551218
0.0551146
0.0551215
0.0551046
0.0551206
0.0551215
0.055119
0.0551185
0.0551122
0.0551166
0.0551213
0.0551068
0.0551199
0.0551214
0.055121
0.0551225
0.0551091
0.0551092
0.0551197
0.0551166
0.0551071
0.0551013
0.0551061
0.0551091
0.0551209
0.0551091
0.055109
0.0551069
0.0551091
0.0551292
0.0551099
0.055106
0.0551228
0.0551099
0.0551254
0.0551292
0.0551209
0.0551315
0.0551214
0.0551069
0.055121
0.055121
0.0551089
0.0551243
0.0551058
0.0551239
0.0551256
0.0551294
0.0551211
0.0551243
0.055105
0.05511
0.0551069
0.0551211
0.0551198
0.05512
0.0551245
0.0551212
0.0551234
0.0551213
0.0551151
0.0551106
0.0551245
0.055107
0.0551247
0.0551236
0.0551083
0.0551273
0.0551214
0.0551276
0.0551224
0.055121
0.0551248
0.0551123
0.0551228
0.0551108
0.0551255
0.055122
0.055122
0.0551215
0.0551217
0.0551217
0.0551216
0.0551218
0.0551276
0.0551275
0.0551276
0.0551277
0.0551313
0.0551313
0.0551121
0.0551218
0.0551201
0.0551164
0.055128
0.0551281
0.0551202
0.0551106
0.0551199
0.0551211
0.0551124
0.0551274
0.0551123
0.055125
0.0551197
0.0551125
0.055111
0.0551047
0.0551047
0.0551248
0.0551042
0.0551194
0.0551108
0.0551149
0.0551198
0.0551219
0.0551393
0.0551217
0.0551041
0.0551109
0.05512
0.0551208
0.0551105
0.0551218
0.0551148
0.0551392
0.0551109
0.0551221
0.0551238
0.05512
0.0551279
0.0551242
0.0551315
0.0551197
0.055102
0.0551009
0.0551304
0.0551174
0.0551208
0.0551123
0.0551274
0.0551227
0.0551109
0.0551233
0.0551132
0.0551216
0.0551132
0.0551107
0.0551428
0.0551296
0.0551281
0.055128
0.0551217
0.0551134
0.0551353
0.0551236
0.0551168
0.0551135
0.0551126
0.0551303
0.0551124
0.0551292
0.0551129
0.0551006
0.0551134
0.0551045
0.0551257
0.0551124
0.0551427
0.0551129
0.0551248
0.055112
0.0551242
0.0551128
0.0551189
0.0551002
0.0551182
0.0551123
0.0551301
0.0551122
0.0551169
0.0551244
0.0551214
0.0551129
0.0551134
0.0551147
0.0551257
0.0551133
0.0551207
0.0551192
0.0551314
0.0551134
0.0551145
0.0551173
0.0551148
0.055113
0.0551149
0.055127
0.0551206
0.0551146
0.0551123
0.0551217
0.0551218
0.0551132
0.0551313
0.0550932
0.0551192
0.0551047
0.0551175
0.0550772
0.0550773
0.0550774
0.0550774
0.0550774
0.0550773
0.0550774
0.0551258
0.0551342
0.0551199
0.0551168
0.0551149
0.0551148
0.0551215
0.0551147
0.0551145
0.0551343
0.0551148
0.0551275
0.0551099
0.0551269
0.0551187
0.0551167
0.0551147
0.0551305
0.0551192
0.0551169
0.0551192
0.0551169
0.0551144
0.0551103
0.0551167
0.0551189
0.0551275
0.0551152
0.0551141
0.055115
0.0551164
0.0551188
0.0551216
0.055115
0.0551215
0.0551183
0.0551165
0.0551209
0.0551184
0.0551147
0.0551241
0.0551171
0.0551337
0.0551006
0.0551257
0.055127
0.0551188
0.0551171
0.0551234
0.0550936
0.0551187
0.0551171
0.0551004
0.0551426
0.0551428
0.0551191
0.0551148
0.0551174
0.0551152
0.0551496
0.0551495
0.0551204
0.0551209
0.0551208
0.0550936
0.0551144
0.0551247
0.0551164
0.0551161
0.0551165
0.055093
0.0551243
0.0551147
0.055119
0.055119
0.0551161
0.0551168
0.0551161
0.0551164
0.0550984
0.0551045
0.0551168
0.0551192
0.0551171
0.0551159
0.0551169
0.0551174
0.0551171
0.0551006
0.0551283
0.055115
0.0551233
0.0551244
0.0551005
0.0551186
0.0551183
0.0551314
0.0551422
0.0551421
0.0551298
0.0551143
0.055119
0.0551001
0.0551413
0.0551483
0.0551482
0.0550927
0.0551363
0.0551384
0.0551186
0.055129
0.0551197
0.0551215
0.0551242
0.0551255
0.0551209
0.0550935
0.0551192
0.055123
0.0551246
0.0550966
0.055137
0.0551
0.0551243
0.0551218
0.0551127
0.0551195
0.0551206
0.0551318
0.0551209
0.0551318
0.0551188
0.0551248
0.0551378
0.0551381
0.0551003
0.0551221
0.055093
0.0550936
0.0550922
0.0551241
0.0550933
0.0550915
0.055116
0.0550926
0.0551335
0.0551334
0.0550931
0.0551171
0.0550985
0.0550929
0.0550979
0.0550928
0.0550979
0.0551366
0.0550992
0.0550934
0.055093
0.0551205
0.0551262
0.0550975
0.0551207
0.0550917
0.0551217
0.0551174
0.0550925
0.055097
0.055092
0.0550926
0.0551184
0.0551343
0.0551475
0.0551469
0.0551223
0.0551474
0.0551473
0.0551471
0.0551437
0.0550998
0.0551375
0.0551301
0.0551345
0.0551219
0.0551447
0.0551447
0.0551352
0.0550923
0.055117
0.055093
0.0550996
0.0550996
0.0551407
0.0551406
0.0551403
0.0551404
0.0551406
0.0551468
0.0551405
0.0551448
0.0551477
0.0551409
0.055141
0.0551479
0.0551468
0.0551449
0.0551402
SCALARS rr_tsim float
LOOKUP_TABLE default
140
140
140
140
140
140
140
140
140
140
140
140
140
140
140
140
140
140
140
140
140
140
140
140
140
140
140
140
140
140
140
140
140
140
140
140
140
140
140
140
140
140
140
140
140
140
140
140
140
140
140
140
140
140
140
140
140
140
140
140
140
140
140
140
140
140
140
140
140
140
140
140
140
140
140
140
140
140
140
140
140
140
140
140
140
140
140
140
140
140
140
140
140
140
140
140
140
140
140
140
140
140
140
140
140
140
140
140
140
140
140
140
140
140
140
140
140
140
140
140
140
140
140
140
140
140
140
140
140
140
140
140
140
140
140
140
140
140
140
140
140
140
140
140
140
140
140
140
140
140
140
140
140
140
140
140
140
140
140
140
140
140
140
140
140
140
140
140
140
140
140
140
140
140
140
140
140
140
140
140
140
140
140
140
140
140
140
140
140
140
140
140
140
140
140
140
140
140
140
140
140
140
140
140
140
140
140
140
140
140
140
140
140
140
140
140
140
140
140
140
140
140
140
140
140
140
140
140
140
140
140
140
140
140
140
140
140
140
140
140
140
140
140
140
140
140
140
140
140
140
140
140
140
140
140
140
140
140
140
140
140
140
140
140
140
140
140
140
140
140
140
140
140
140
140
140
140
140
140
140
140
140
140
140
140
140
140
140
140
140
140
140
140
140
140
140
140
140
140
140
140
140
140
140
140
140
140
140
140
140
140
140
140
140
140
140
140
140
140
140
140
140
140
140
140
140
140
140
140
140
140
140
140
140
140
140
140
140
140
140
140
140
140
140
140
140
140
140
140
140
140
140
140
140
140
140
140
140
140
140
140
140
140
140
140
140
140
140
140
140
140
140
140
140
140
140
140
140
140
140
140
140
140
140
140
140
140
140
140
140
140
140
140
140
140
140
140
140
140
140
140
140
140
140
140
140
140
140
140
140
140
140
140
140
140
140
140
140
140
140
140
140
140
140
140
140
140
140
140
140
140
140
140
140
140
140
140
140
140
140
140
140
140
140
140
140
140
140
140
140
140
140
140
140
140
140
140
140
140
140
140
140
140
140
140
140
140
140
140
140
140
140
140
140
140
140
140
140
140
140
140
140
140
140
140
140
140
140
140
140
140
140
140
140
140
140
140
140
140
140
140
140
140
140
140
140
140
140
140
140
140
140
140
140
140
140
140
140
140
140
140
140
140
140
140
140
140
140
140
140
140
140
140
140
140
140
140
140
140
140
140
140
140
140
140
140
140
140
140
140
140
140
140
140
140
140
140
140
140
140
140
140
140
SCALARS rr_Vext float
LOOKUP_TABLE default
0.18136
0.44913
0.356054
0.468117
0.250495
0.377834
0.179276
0.465096
0.395113
0.504573
0.16539
0.466516
0.409832
0.43502
0.516142
0.424871
0.369049
0.41419
0.365537
0.360533
0.405115
0.076511
0.415076
0.38302
0.347111
0.403478
0.155012
0.35284
0.267416
0.339249
0.361975
0.276489
0.171522
0.252903
0.249249
0.253454
0.330129
0.249493
0.361545
0.192838
0.224724
0.291053
0.291062
0.397278
0.216888
0.244123
0.344617
0.350189
0.330084
0.303765
0.312858
0.24524
0.401522
0.315211
0.369419
0.157755
0.266181
0.317521
0.266153
0.393191
0.470936
0.464879
0.153277
0.327646
0.44532
0.41738
0.455661
0.391911
0.357991
0.515565
0.435559
0.430795
0.277658
0.338749
0.353978
0.176428
0.37268
0.413483
0.395175
0.271136
0.240493
0.28351
0.527539
0.240253
0.327765
0.119293
0.407586
0.344614
0.229708
0.037483
0.273096
0.0407609
0.316361
0.299316
0.258663
0.232986
0.220911
0.442937
0.372915
0.351861
0.29354
0.277773
0.230481
0.418582
0.426144
0.383838
0.340631
0.340853
0.244632
0.512526
0.326031
0.16404
0.220059
0.457885
0.429725
0.304486
0.308633
0.18351
0.320038
0.30337
0.26699
0.502655
0.511818
0.442046
0.484533
0.384956
0.220817
0.478217
0.200081
0.262282
0.227506
0.456402
0.44903
0.448256
0.288941
0.187539
0.19064
0.327445
0.404474
0.187461
0.241545
0.387295
0.287973
0.472765
0.223278
0.385195
0.349736
0.336132
0.214792
0.26955
0.304303
0.440633
0.24803
0.397417
0.461996
0.46925
0.30786
0.249011
0.24766
0.401142
0.333858
0.24612
0.160078
0.239707
0.24047
0.430962
0.252352
0.255104
0.274623
0.245942
0.386348
0.258187
0.226062
0.297718
0.272815
0.340311
0.382122
0.361138
0.313981
0.36085
0.26657
0.418252
0.448859
0.241617
0.442306
0.239442
0.436801
0.402742
0.37897
0.37942
0.446233
0.200777
0.266932
0.24602
0.447416
0.439027
0.407205
0.4479
0.452958
0.38187
0.466576
0.30772
0.274114
0.512738
0.285551
0.46596
0.369966
0.226657
0.286345
0.461731
0.389039
0.350312
0.450062
0.445262
0.278863
0.284225
0.267546
0.395458
0.433425
0.498099
0.478096
0.520378
0.471565
0.515294
0.432061
0.457207
0.460656
0.43436
0.456362
0.422923
0.41664
0.282415
0.389416
0.454302
0.312125
0.470278
0.432161
0.492667
0.28825
0.468283
0.448684
0.284504
0.406918
0.282473
0.455244
0.411295
0.296259
0.277681
0.235555
0.2711
0.455779
0.197503
0.347025
0.276531
0.313907
0.468678
0.455555
0.14779
0.457111
0.236433
0.261768
0.466277
0.379032
0.264588
0.522189
0.291235
0.147781
0.267727
0.406404
0.508928
0.382695
0.45776
0.425161
0.226617
0.216734
0.17598
0.20143
0.308138
0.229079
0.371986
0.227527
0.406397
0.287626
0.268105
0.323957
0.293526
0.398527
0.28149
0.2876
0.136371
0.303575
0.437815
0.438063
0.39153
0.28112
0.19236
0.545885
0.360493
0.298321
0.274295
0.284979
0.282733
0.358847
0.278095
0.192061
0.274795
0.183498
0.351071
0.27958
0.127092
0.263725
0.321341
0.279318
0.443675
0.290714
0.381473
0.138316
0.305666
0.287017
0.261627
0.269321
0.321996
0.308726
0.32105
0.266567
0.271167
0.293863
0.403606
0.276099
0.399028
0.358792
0.290799
0.286478
0.290126
0.323377
0.289916
0.270121
0.308533
0.333033
0.387871
0.290173
0.286357
0.425148
0.419254
0.276215
0.290838
0.117369
0.342068
0.22768
0.319684
0.126305
0.131123
0.117234
0.11913
0.126412
0.133077
0.137187
0.365823
0.275205
0.269667
0.305538
0.296211
0.292411
0.314713
0.285997
0.292391
0.310826
0.291318
0.368792
0.261066
0.378837
0.289107
0.277582
0.2916
0.322768
0.328998
0.3047
0.351053
0.326035
0.300393
0.213978
0.303863
0.298866
0.328284
0.305312
0.288522
0.275039
0.304067
0.319095
0.436166
0.283309
0.424006
0.438664
0.298868
0.422868
0.322479
0.255681
0.356797
0.307321
0.229506
0.185272
0.353353
0.377143
0.313436
0.259546
0.317016
0.138205
0.309867
0.289516
0.14057
0.0597489
0.0653757
0.268655
0.283297
0.33136
0.31659
0.0311309
0.0325287
0.318184
0.321546
0.304245
0.103724
0.264729
0.315907
0.315645
0.272078
0.240284
0.107864
0.464471
0.284949
0.352164
0.357676
0.255166
0.323449
0.249478
0.275483
0.12974
0.199383
0.323809
0.327754
0.280328
0.293566
0.303661
0.320508
0.306412
0.143962
0.275781
0.301356
0.290887
0.437492
0.143859
0.233734
0.240575
0.234525
0.155625
0.155629
0.267701
0.208509
0.301876
0.153857
0.185527
0.0614169
0.0614144
0.11231
0.199634
0.134972
0.257003
0.28454
0.29781
0.337004
0.307421
0.285234
0.222218
0.127172
0.278052
0.290583
0.282441
0.14413
0.147646
0.104629
0.28195
0.285974
0.224183
0.258252
0.238715
0.223792
0.292914
0.223759
0.257206
0.251389
0.158047
0.195241
0.165309
0.310649
0.112707
0.118919
0.11594
0.294536
0.107691
0.104733
0.200918
0.0979325
0.243156
0.243511
0.10066
0.255447
0.113723
0.110989
0.127155
0.105859
0.105724
0.174206
0.126242
0.112775
0.106278
0.235812
0.272661
0.118744
0.260319
0.0960772
0.26479
0.208174
0.100552
0.0864357
0.0948701
0.126461
0.225554
0.192181
0.0824427
0.0914075
0.253859
0.0775862
0.0775829
0.0878719
0.0979624
0.0995858
0.127335
0.207534
0.193796
0.25377
0.0775246
0.0775213
0.229253
0.0843471
0.178716
0.0765195
0.0783419
0.103272
0.198597
0.205597
0.218907
0.20066
0.198581
0.0438925
0.320383
0.0557539
0.0543419
0.259009
0.25724
0.0563347
0.0390573
0.0548047
0.238561
SCALARS rr_Vli float
LOOKUP_TABLE default
0.396487
0.903301
0.721406
0.942907
0.493004
0.765668
0.392035
0.937674
0.80627
1.01512
0.359836
0.940546
0.827705
0.874157
1.02413
0.859732
0.739397
0.835919
0.748799
0.732056
0.823483
0.146196
0.843741
0.777629
0.70489
0.813143
0.33335
0.71426
0.56061
0.659803
0.731228
0.57953
0.369273
0.494393
0.485905
0.495508
0.641458
0.486897
0.730485
0.415066
0.471212
0.565331
0.565391
0.802517
0.463324
0.511149
0.704664
0.713574
0.668684
0.640144
0.657317
0.509711
0.791284
0.654956
0.728501
0.336095
0.518809
0.659758
0.518792
0.798049
0.943868
0.925033
0.32784
0.65222
0.886013
0.836198
0.913003
0.789777
0.727292
1.03671
0.858509
0.849155
0.582212
0.676854
0.716972
0.381183
0.738161
0.828442
0.796424
0.562482
0.507625
0.55645
1.05351
0.508334
0.685386
0.25458
0.825078
0.689489
0.490662
0.0719435
0.56753
0.0782462
0.626352
0.600261
0.53711
0.489903
0.466218
0.891218
0.738709
0.711151
0.604219
0.579675
0.487751
0.844114
0.858084
0.772717
0.679549
0.689382
0.51776
1.02965
0.66168
0.349479
0.46706
0.923825
0.865439
0.632494
0.601614
0.387412
0.624003
0.629993
0.547962
0.998315
1.02948
0.884281
0.972861
0.763255
0.431751
0.96224
0.422254
0.544648
0.448454
0.918483
0.897114
0.901826
0.602901
0.365538
0.404183
0.660934
0.807735
0.365415
0.50354
0.778937
0.590243
0.951064
0.471533
0.776068
0.704325
0.680957
0.435248
0.55627
0.620249
0.886311
0.519984
0.8025
0.929445
0.944266
0.617856
0.518658
0.515715
0.8102
0.680209
0.515661
0.341239
0.50364
0.50093
0.867518
0.525646
0.531445
0.575698
0.512238
0.76477
0.536475
0.475016
0.597028
0.56676
0.679103
0.756454
0.728161
0.618513
0.726376
0.558762
0.841639
0.903308
0.503623
0.884786
0.50341
0.87381
0.803286
0.749918
0.763392
0.892545
0.423345
0.554572
0.515692
0.900213
0.886304
0.821715
0.894908
0.9112
0.765274
0.93842
0.629677
0.568294
1.02454
0.598473
0.930556
0.741281
0.473242
0.5692
0.928578
0.772731
0.703608
0.906439
0.889141
0.575331
0.570473
0.554202
0.788785
0.870381
1.00029
0.96102
1.04559
0.947456
1.03539
0.868716
0.9077
0.914773
0.862348
0.905935
0.833933
0.821519
0.583006
0.782798
0.915911
0.636241
0.933125
0.857213
0.993028
0.597478
0.944373
0.902759
0.586738
0.808804
0.582776
0.908859
0.82973
0.610883
0.574983
0.497307
0.572063
0.910105
0.417615
0.701484
0.572848
0.642715
0.945261
0.914971
0.286928
0.918298
0.500198
0.542261
0.940105
0.764204
0.548651
1.04888
0.596678
0.286928
0.554502
0.815981
1.01856
0.772237
0.908469
0.850826
0.446602
0.437754
0.374435
0.429885
0.608686
0.465561
0.749995
0.469386
0.807672
0.57682
0.555342
0.64955
0.603998
0.80228
0.579181
0.596022
0.26302
0.600445
0.868514
0.869133
0.787212
0.578065
0.376389
1.09286
0.734303
0.613261
0.565369
0.56296
0.583126
0.710462
0.572679
0.410197
0.565169
0.387693
0.700129
0.576602
0.24515
0.543079
0.642116
0.576622
0.887244
0.5988
0.772177
0.296223
0.619806
0.592064
0.517042
0.555819
0.655882
0.617317
0.645552
0.549013
0.55765
0.602199
0.804989
0.567873
0.804509
0.726246
0.573157
0.58913
0.594779
0.657845
0.593797
0.555997
0.63181
0.662549
0.782184
0.594654
0.590812
0.855291
0.843311
0.568303
0.57328
0.256088
0.692604
0.480629
0.650106
0.287607
0.298551
0.266804
0.271172
0.287683
0.303057
0.312312
0.729346
0.539725
0.544568
0.622606
0.606503
0.598935
0.633522
0.586133
0.599486
0.609471
0.596715
0.732661
0.542547
0.75311
0.586006
0.565701
0.597468
0.637469
0.666115
0.620595
0.710719
0.664
0.615745
0.444041
0.6193
0.605574
0.652007
0.624639
0.591871
0.562874
0.62002
0.646724
0.877921
0.57986
0.853552
0.889743
0.60928
0.852432
0.653932
0.523843
0.713546
0.625428
0.450402
0.395666
0.704471
0.750316
0.635203
0.528051
0.635255
0.301237
0.628024
0.589268
0.300913
0.115298
0.126126
0.544006
0.580099
0.673739
0.647664
0.0592775
0.0619389
0.641399
0.64809
0.613484
0.226113
0.542807
0.631014
0.64342
0.555017
0.48988
0.23547
0.929287
0.583735
0.713235
0.724386
0.520585
0.658851
0.508992
0.56165
0.279102
0.421178
0.659635
0.663711
0.570436
0.599127
0.618259
0.651895
0.623526
0.307428
0.547099
0.616834
0.583017
0.874905
0.307369
0.473536
0.487756
0.462242
0.300516
0.300536
0.529555
0.427594
0.611539
0.329006
0.358877
0.117176
0.117176
0.245399
0.389621
0.262495
0.521053
0.563541
0.601414
0.677649
0.614659
0.569072
0.448038
0.277251
0.562549
0.582803
0.56425
0.311557
0.287925
0.224285
0.563454
0.574852
0.461944
0.521749
0.481456
0.440838
0.590097
0.4408
0.520824
0.502149
0.307812
0.380028
0.353395
0.623985
0.246786
0.25998
0.254334
0.589285
0.234981
0.230139
0.410011
0.214645
0.477122
0.477844
0.220334
0.519613
0.244575
0.243123
0.273902
0.231958
0.22774
0.339831
0.270698
0.245997
0.232678
0.475751
0.543004
0.256117
0.52511
0.211012
0.532691
0.423221
0.220455
0.186663
0.208255
0.276319
0.457469
0.376609
0.157552
0.174883
0.509988
0.148307
0.148306
0.168049
0.188629
0.213206
0.248114
0.410275
0.379762
0.510343
0.149005
0.149003
0.448513
0.184462
0.363611
0.167149
0.168151
0.221554
0.38455
0.398196
0.424215
0.388779
0.38454
0.0840104
0.620733
0.107163
0.103829
0.501446
0.497966
0.107596
0.074733
0.105301
0.462544
SCALARS rr_S_ext' float
LOOKUP_TABLE default
-0.000958626
-0.00218849
-0.00174751
-0.00228436
-0.00119504
-0.00185472
-0.000947853
-0.00227166
-0.00195276
-0.00245939
-0.000870092
-0.00227861
-0.00200516
-0.00211794
-0.00248198
-0.00208265
-0.00179155
-0.00202508
-0.00181339
-0.00177322
-0.00199463
-0.000354604
-0.00204369
-0.00188361
-0.00170741
-0.00196997
-0.000806304
-0.00173023
-0.00135688
-0.00159975
-0.00177143
-0.00140268
-0.000893171
-0.00119857
-0.00117808
-0.00120127
-0.00155531
-0.00118045
-0.00176962
-0.00100394
-0.00114049
-0.00137074
-0.00137088
-0.00194413
-0.00112087
-0.00123721
-0.00170658
-0.00172831
-0.0016198
-0.00154917
-0.00159085
-0.00123395
-0.00191799
-0.00158559
-0.00176579
-0.000813144
-0.00125786
-0.00159721
-0.00125781
-0.00193308
-0.00228695
-0.00224171
-0.000793096
-0.00158057
-0.00214715
-0.00202611
-0.00221218
-0.00191337
-0.00176165
-0.00251171
-0.00208093
-0.00205826
-0.00140916
-0.00164012
-0.00173679
-0.000921892
-0.00178904
-0.00200732
-0.00192946
-0.00136176
-0.00122843
-0.00134891
-0.00255283
-0.00123007
-0.00165899
-0.000615897
-0.00199868
-0.00167069
-0.00118701
-0.000174484
-0.00137393
-0.000189769
-0.00151806
-0.0014544
-0.00130031
-0.00118565
-0.00112823
-0.0021592
-0.00179036
-0.00172277
-0.00146309
-0.00140319
-0.00118025
-0.00204497
-0.00207889
-0.00187208
-0.0016467
-0.00167001
-0.00125287
-0.00249465
-0.00160276
-0.000845518
-0.0011301
-0.00223805
-0.0020967
-0.00153122
-0.00145862
-0.00093752
-0.00151289
-0.00152518
-0.00132696
-0.00241938
-0.00249417
-0.00214268
-0.00235708
-0.00184979
-0.00104671
-0.00233126
-0.00102184
-0.00131856
-0.001087
-0.00222524
-0.00217383
-0.00218489
-0.00145942
-0.000886246
-0.000977999
-0.00160117
-0.00195727
-0.000885947
-0.00121892
-0.0018872
-0.00142939
-0.0023042
-0.00114108
-0.00188016
-0.00170638
-0.00164954
-0.00105433
-0.0013469
-0.00150226
-0.00214731
-0.00125854
-0.00194411
-0.00225182
-0.0022877
-0.001497
-0.00125555
-0.00124843
-0.00196274
-0.0016475
-0.0012481
-0.000825572
-0.00121892
-0.00121263
-0.00210176
-0.00127247
-0.0012865
-0.0013934
-0.00124001
-0.00185354
-0.00129875
-0.00114964
-0.00144657
-0.00137208
-0.00164561
-0.00183339
-0.00176407
-0.00149924
-0.00175981
-0.00135241
-0.00203908
-0.00218848
-0.00121913
-0.00214392
-0.00121834
-0.00211731
-0.00194656
-0.00181756
-0.00184951
-0.00216272
-0.00102451
-0.00134257
-0.00124816
-0.00218098
-0.00214713
-0.00199067
-0.00216848
-0.0022076
-0.00185425
-0.00227356
-0.00152495
-0.00137586
-0.0024826
-0.00144853
-0.00225489
-0.00179612
-0.00114554
-0.00137942
-0.00224972
-0.0018727
-0.00170475
-0.00219603
-0.00215453
-0.00139306
-0.0013822
-0.00134177
-0.00191142
-0.00210878
-0.00242352
-0.00232833
-0.00253325
-0.0022955
-0.00250855
-0.00210472
-0.0021998
-0.00221692
-0.00208988
-0.00219552
-0.00202134
-0.00199125
-0.00141162
-0.00189656
-0.00221889
-0.001541
-0.00226144
-0.00207748
-0.00240573
-0.00144652
-0.00228783
-0.00218716
-0.0014207
-0.00196008
-0.00141109
-0.00220233
-0.00201007
-0.00147916
-0.00139209
-0.00120345
-0.00138437
-0.00220534
-0.00101057
-0.00169935
-0.00138691
-0.0015565
-0.00228997
-0.00221681
-0.000695711
-0.00222486
-0.0012104
-0.00131285
-0.0022775
-0.0018514
-0.00132829
-0.00254125
-0.00144499
-0.000695712
-0.0013425
-0.00197699
-0.00246803
-0.00187081
-0.00220168
-0.00206161
-0.00108252
-0.00106048
-0.00090593
-0.00104001
-0.00147532
-0.00112768
-0.00181697
-0.00113654
-0.00195734
-0.0013976
-0.00134453
-0.00157383
-0.00146257
-0.00194371
-0.00140248
-0.001443
-0.000637834
-0.0014553
-0.00210486
-0.00210636
-0.00190725
-0.0013998
-0.000912471
-0.00264803
-0.00177853
-0.00148504
-0.00136898
-0.00136449
-0.00141195
-0.00172191
-0.00138671
-0.000992352
-0.00136856
-0.00093818
-0.00169659
-0.00139615
-0.000594496
-0.00131503
-0.00155593
-0.00139616
-0.00214988
-0.00144995
-0.00187054
-0.000716589
-0.00150137
-0.00143358
-0.00125318
-0.0013458
-0.00158859
-0.00149583
-0.00156403
-0.0013294
-0.00135036
-0.00145836
-0.00195069
-0.00137511
-0.00194904
-0.00175928
-0.00138928
-0.00142659
-0.00144037
-0.0015934
-0.00143803
-0.00134633
-0.00153009
-0.00160561
-0.00189495
-0.00144008
-0.00143054
-0.00207218
-0.00204316
-0.00137614
-0.00138957
-0.000619182
-0.00167777
-0.0011631
-0.00157466
-0.000694566
-0.000720997
-0.000644335
-0.000654881
-0.000694758
-0.000731879
-0.000754237
-0.0017674
-0.00130838
-0.00131924
-0.00150798
-0.0014688
-0.00145047
-0.00153486
-0.00141945
-0.00145177
-0.00147746
-0.00144509
-0.00177558
-0.00131345
-0.00182509
-0.00141951
-0.00137015
-0.00144691
-0.00154509
-0.00161361
-0.00150313
-0.00172166
-0.00160826
-0.00149115
-0.00107501
-0.00149996
-0.00146693
-0.00158013
-0.00151275
-0.0014333
-0.00136316
-0.00150169
-0.00156659
-0.00212698
-0.00140429
-0.00206793
-0.00215523
-0.00147569
-0.00206515
-0.00158403
-0.0012686
-0.00172899
-0.00151486
-0.00109183
-0.000957201
-0.00170713
-0.00181831
-0.00153869
-0.00127901
-0.00153922
-0.000728365
-0.00152129
-0.00142727
-0.000727943
-0.000279601
-0.000305861
-0.0013178
-0.00140486
-0.00163192
-0.00156852
-0.000143791
-0.000150247
-0.00155388
-0.00157011
-0.00148625
-0.000546725
-0.0013145
-0.00152905
-0.00155838
-0.00134424
-0.0011865
-0.000569321
-0.00225173
-0.00141365
-0.00172774
-0.00175475
-0.00126084
-0.00159578
-0.00123277
-0.00136033
-0.000675087
-0.00101922
-0.00159767
-0.00160778
-0.00138167
-0.00145106
-0.00149748
-0.00157899
-0.00151026
-0.000743737
-0.00132592
-0.00149383
-0.00141264
-0.00211998
-0.000743582
-0.00114708
-0.0011815
-0.00112043
-0.00072874
-0.000728789
-0.00128348
-0.00103549
-0.00148138
-0.000795911
-0.00087023
-0.000284226
-0.000284224
-0.000593313
-0.000944609
-0.000636444
-0.00126217
-0.00136582
-0.00145696
-0.0016418
-0.00148938
-0.00137899
-0.00108544
-0.000670366
-0.00136275
-0.0014121
-0.00136726
-0.000753492
-0.000698062
-0.000542553
-0.00136532
-0.00139276
-0.00111855
-0.00126396
-0.00116639
-0.00106855
-0.00142962
-0.00106846
-0.00126165
-0.00121679
-0.000746296
-0.0009214
-0.000854918
-0.00151181
-0.000596653
-0.000628582
-0.00061487
-0.00142789
-0.000568152
-0.000556349
-0.000993033
-0.00051893
-0.00115662
-0.00115837
-0.000532706
-0.00125857
-0.000591579
-0.000587793
-0.000662486
-0.000560796
-0.000550833
-0.000823906
-0.000654809
-0.000594791
-0.000562545
-0.00115256
-0.00131588
-0.000619448
-0.00127214
-0.000510117
-0.00129059
-0.00102511
-0.000532976
-0.000451452
-0.000503464
-0.000668071
-0.00110813
-0.00091298
-0.000382146
-0.000424172
-0.00123562
-0.00035972
-0.000359717
-0.0004076
-0.000457447
-0.000515759
-0.000601553
-0.000994395
-0.000920623
-0.00123645
-0.000361369
-0.000361366
-0.00108733
-0.000445972
-0.000880714
-0.000404132
-0.00040675
-0.000535933
-0.000932463
-0.000965547
-0.00102863
-0.000942707
-0.000932439
-0.000203762
-0.00150515
-0.000259894
-0.000251841
-0.00121592
-0.00120748
-0.000260981
-0.000181262
-0.00025538
-0.00112155
SCALARS rr_P_ext' float
LOOKUP_TABLE default
0.000149325
0.000345092
0.000275268
0.000360134
0.000189009
0.000292148
0.000147641
0.000358082
0.000307287
0.000387792
0.000135637
0.000359179
0.000315996
0.000334007
0.000392116
0.000328119
0.000282653
0.000319168
0.0002852
0.000279232
0.000314049
5.63117e-05
0.000321774
0.000296621
0.000268864
0.000310545
0.000125912
0.000272581
0.000212691
0.000253437
0.000279152
0.000219876
0.000139453
0.000189747
0.000186571
0.000190172
0.000246427
0.00018692
0.000278861
0.000156753
0.000178768
0.000217194
0.000217214
0.000306369
0.000175211
0.000193967
0.000268471
0.000272023
0.000255157
0.000242649
0.000249287
0.000193664
0.000303299
0.000248862
0.000279205
0.000127158
0.000199211
0.000250686
0.000199202
0.000304424
0.000360796
0.000354012
0.00012395
0.00024959
0.000339086
0.00031966
0.000349014
0.000301624
0.00027739
0.000396073
0.000329058
0.00032547
0.000220878
0.000258859
0.00027359
0.000143861
0.000282707
0.000316692
0.000304159
0.000213782
0.000192364
0.000213426
0.000402945
0.000192553
0.000260143
9.62895e-05
0.000314873
0.000263634
0.000185552
2.76919e-05
0.000215638
3.01172e-05
0.000239902
0.000229429
0.000204106
0.00018577
0.000176678
0.000340453
0.000282912
0.000271466
0.000229947
0.000220095
0.00018475
0.000322339
0.000327755
0.000295159
0.000259956
0.000263126
0.000196113
0.000393435
0.000252408
0.000132222
0.000176824
0.00035275
0.000330555
0.000240338
0.000231003
0.000146805
0.00023959
0.0002394
0.00020864
0.000382175
0.00039329
0.000338124
0.00037177
0.00029227
0.0001657
0.000367582
0.000160017
0.00020697
0.000171886
0.000350857
0.000343102
0.000344511
0.000228919
0.000140358
0.000153048
0.000252351
0.000308942
0.000140309
0.000191222
0.000297581
0.000224789
0.000363325
0.000178671
0.0002964
0.000269019
0.000259839
0.000166075
0.000211608
0.000236435
0.000338595
0.000197277
0.000306381
0.000355064
0.000360711
0.000236125
0.000196992
0.000195883
0.00030931
0.000259309
0.000195658
0.000129092
0.000191004
0.000190255
0.000331374
0.000199645
0.000201843
0.000218417
0.000194555
0.000292927
0.000203843
0.000180146
0.000228195
0.000215357
0.000259773
0.000289739
0.000278068
0.000237092
0.000277462
0.000211995
0.000321508
0.00034506
0.000191258
0.000338318
0.000190896
0.000334119
0.000307302
0.000287254
0.000291624
0.000341291
0.000160455
0.000210723
0.000195654
0.00034389
0.00033839
0.000313752
0.000342255
0.000348097
0.000292534
0.000358507
0.000239872
0.000216014
0.000391827
0.000227066
0.000355916
0.000283371
0.000179669
0.00021787
0.000354753
0.000295813
0.000268862
0.000346212
0.00034008
0.000218869
0.000218014
0.000210688
0.000301752
0.0003326
0.000382239
0.000367177
0.000399514
0.000362021
0.000395617
0.000331896
0.000347507
0.000350201
0.000330144
0.000346837
0.000319618
0.000314862
0.000221766
0.000299081
0.000349771
0.000242528
0.000357274
0.000328226
0.000379235
0.000227115
0.000360623
0.000344863
0.000223223
0.000309587
0.000221701
0.000347636
0.000316827
0.000232415
0.000218602
0.000188447
0.000216793
0.000348101
0.000158207
0.000267769
0.000217775
0.000244815
0.000360956
0.000349629
0.000110242
0.000350888
0.000189475
0.000206147
0.000359007
0.000291834
0.000208541
0.000400794
0.000227255
0.000110242
0.000210807
0.00031182
0.000389439
0.000294861
0.000347823
0.000325312
0.000171182
0.000167121
0.000141696
0.000162593
0.000233221
0.000177555
0.000286408
0.000178567
0.00030916
0.000220469
0.000211123
0.000248276
0.000229875
0.000306452
0.000220434
0.000226569
0.000101162
0.000230015
0.000332548
0.000332777
0.000300758
0.000220031
0.000144435
0.000417824
0.000279942
0.000233439
0.000215113
0.0002157
0.000221846
0.000272118
0.000217928
0.000155126
0.000215116
0.000146892
0.000267844
0.000219365
9.42872e-05
0.000206665
0.000245571
0.000219337
0.000339276
0.00022786
0.000294687
0.000111971
0.000236469
0.00022524
0.000198093
0.000211435
0.000250045
0.000236061
0.000246633
0.000208917
0.000212257
0.000229349
0.000307955
0.000216143
0.000307227
0.000277159
0.000219687
0.00022424
0.000226508
0.000250848
0.000226169
0.000211596
0.000240655
0.000253568
0.00029869
0.000226474
0.000224757
0.000326737
0.000322168
0.000216295
0.000219731
9.64812e-05
0.000264307
0.000182131
0.000247911
0.000107515
0.000111608
9.97488e-05
0.000101378
0.000107555
0.000113289
0.000116756
0.000279035
0.000207038
0.000207905
0.000237344
0.00023102
0.000228125
0.000241993
0.000223227
0.000228297
0.0002338
0.000227278
0.000280464
0.000206144
0.000288261
0.000223588
0.000215647
0.000227553
0.000244257
0.0002542
0.000236596
0.000271225
0.000253147
0.000234498
0.000168757
0.000236077
0.000231068
0.000249601
0.00023796
0.000225376
0.00021442
0.000236332
0.000246759
0.000335353
0.000220886
0.000326038
0.00033944
0.000232247
0.000325537
0.000249487
0.000199514
0.000272852
0.000238471
0.000172756
0.000149633
0.000269518
0.000287157
0.000242366
0.000201351
0.000242836
0.000113512
0.000239623
0.000224678
0.000113753
4.43422e-05
4.85082e-05
0.000207597
0.000220961
0.00025693
0.000246735
2.28449e-05
2.38706e-05
0.000244945
0.000247506
0.000234273
8.52019e-05
0.00020671
0.00024134
0.000245264
0.00021154
0.000186732
8.8705e-05
0.000355324
0.00022233
0.000272168
0.000276424
0.000198413
0.000251177
0.000193993
0.000214088
0.000105416
0.000159584
0.000251472
0.000253276
0.000217506
0.000228335
0.00023572
0.000248586
0.000237749
0.000116264
0.000209479
0.000234969
0.000222859
0.000334556
0.000116231
0.00018069
0.000186093
0.000177174
0.000115562
0.000115569
0.000202856
0.000162831
0.000233352
0.000124395
0.000137966
4.51446e-05
4.51441e-05
9.24305e-05
0.000149574
0.000100827
0.000198798
0.000215833
0.000229607
0.000258895
0.000235048
0.000217692
0.000171097
0.000104469
0.000214704
0.000222753
0.0002158
0.000117574
0.000110548
8.47647e-05
0.000215484
0.000219633
0.000175771
0.000199179
0.000183848
0.000168985
0.000225376
0.000168969
0.000198751
0.000192054
0.000118208
0.000145954
0.000133623
0.000238434
9.29184e-05
9.79137e-05
9.57287e-05
0.000225321
8.85286e-05
8.65955e-05
0.000156263
8.08026e-05
0.000183008
0.000183283
8.2964e-05
0.00019814
9.23796e-05
9.15326e-05
0.000103428
8.73244e-05
8.59961e-05
0.00013047
0.0001023
9.2684e-05
8.76086e-05
0.000181661
0.000207781
9.66896e-05
0.000200513
7.94057e-05
0.000203498
0.000161398
8.29852e-05
7.0454e-05
7.83756e-05
0.000104077
0.000174527
0.000144485
6.06845e-05
6.7348e-05
0.00019487
5.71216e-05
5.71207e-05
6.47203e-05
7.25687e-05
8.05951e-05
9.52747e-05
0.000157179
0.000145695
0.000194972
5.7341e-05
5.73402e-05
0.000172116
6.94674e-05
0.000138648
6.29607e-05
6.35354e-05
8.37206e-05
0.000147812
0.000153052
0.000163038
0.000149424
0.000147807
3.23506e-05
0.000238574
4.12393e-05
3.99932e-05
0.00019275
0.000191416
4.14468e-05
2.87795e-05
4.05248e-05
0.000177755
SCALARS rr_S' float
LOOKUP_TABLE default
0.000753849
0.00172192
0.0013749
0.00179733
0.000940388
0.00145924
0.000745376
0.00178734
0.00153631
0.00193506
0.000684246
0.00179281
0.00157764
0.00166642
0.001953
0.00163859
0.00140964
0.00159332
0.00142663
0.0013951
0.0015693
0.000279088
0.00160789
0.00148196
0.00134333
0.00154997
0.000634135
0.00136131
0.00106733
0.00125894
0.00139374
0.00110335
0.000702448
0.000943202
0.000927091
0.000945327
0.00122397
0.000928957
0.00139232
0.000789564
0.000897116
0.00107872
0.00107884
0.00152962
0.000881569
0.000973199
0.00134262
0.00135975
0.00127442
0.00121854
0.00125135
0.000970684
0.00150928
0.0012473
0.0013895
0.000639555
0.000989875
0.00125645
0.000989842
0.00152088
0.00179943
0.00176391
0.000623771
0.00124368
0.00168951
0.0015942
0.0017406
0.00150544
0.001386
0.00197624
0.00163749
0.00161965
0.00110845
0.00129052
0.00136646
0.000725018
0.00140776
0.00157941
0.0015181
0.00107124
0.000966245
0.00106149
0.00200867
0.000967517
0.00130499
0.00048441
0.00157252
0.00131455
0.000933589
0.000137322
0.0010808
0.000149352
0.00119453
0.00114435
0.0010229
0.000932618
0.000887436
0.00169887
0.0014088
0.00135546
0.00115101
0.00110379
0.000928334
0.00160897
0.00163568
0.00147296
0.0012957
0.00131394
0.000985449
0.00196282
0.001261
0.000665017
0.000888869
0.00176089
0.00164969
0.00120454
0.00114786
0.000737425
0.00119057
0.00119978
0.00104393
0.00190373
0.00196243
0.00168594
0.00185459
0.00145556
0.000823696
0.00183425
0.000803751
0.00103725
0.00085536
0.00175083
0.00171045
0.00171909
0.00114802
0.000697435
0.000769242
0.00125979
0.00154006
0.000697199
0.000958848
0.00148487
0.00112453
0.00181296
0.000897535
0.00147931
0.00134258
0.00129781
0.000829518
0.00105958
0.0011819
0.00168952
0.000989975
0.00152961
0.00177175
0.00179998
0.00117787
0.000987666
0.000982067
0.00154427
0.00129617
0.000981765
0.000649327
0.000958792
0.000953898
0.00165367
0.00100097
0.00101201
0.00109605
0.000975438
0.00145852
0.00102167
0.000904299
0.00113819
0.00107935
0.00129484
0.00144266
0.00138797
0.00117976
0.00138463
0.00106381
0.00160436
0.00172191
0.00095901
0.00168691
0.000958337
0.00166597
0.00153165
0.00143021
0.00145521
0.00170171
0.000805852
0.00105613
0.000981811
0.00171601
0.00168934
0.00156625
0.00170625
0.00173696
0.00145897
0.00178886
0.00119972
0.00108233
0.0019534
0.00113942
0.00177424
0.00141324
0.000901108
0.00108542
0.0017701
0.00147357
0.00134132
0.00172784
0.00169528
0.0010959
0.00108754
0.00105552
0.001504
0.00165922
0.00190686
0.00183195
0.00199319
0.00180613
0.00197376
0.00165601
0.00173095
0.00174442
0.00164446
0.00172759
0.0015906
0.00156692
0.0011105
0.00149224
0.00174581
0.00121237
0.00177946
0.00163472
0.00189281
0.00113792
0.00180005
0.00172087
0.00111764
0.00154232
0.00111008
0.00173289
0.00158151
0.00116364
0.00109511
0.000946599
0.0010889
0.00173526
0.000794875
0.00133702
0.00109103
0.00122453
0.00180173
0.00174422
0.000547503
0.00175055
0.000952049
0.00103277
0.00179192
0.00145667
0.00104491
0.00199949
0.00113681
0.000547504
0.0010561
0.00155552
0.00194193
0.00147194
0.00173243
0.00162214
0.000851841
0.000834375
0.000712538
0.000817977
0.00116092
0.000887215
0.00142959
0.0008941
0.00154017
0.00109967
0.00105769
0.00123833
0.0011506
0.00152932
0.00110333
0.00113515
0.000501975
0.00114516
0.00165626
0.00165743
0.00150065
0.00110123
0.000718055
0.00208355
0.00139926
0.00116828
0.00107696
0.00107371
0.00111076
0.00135494
0.00109092
0.000780491
0.00107665
0.00073794
0.00133496
0.00109833
0.000467867
0.00103453
0.00122427
0.00109834
0.0016916
0.00114067
0.0014717
0.000563594
0.00118123
0.00112778
0.000986114
0.00105872
0.00124982
0.00117697
0.00123059
0.00104583
0.00106233
0.00114732
0.0015349
0.0010818
0.0015335
0.00138416
0.00109323
0.0011223
0.00113317
0.00125361
0.00113133
0.00105915
0.00120376
0.00126339
0.00149094
0.00113294
0.00112539
0.00163041
0.00160758
0.00108261
0.00109346
0.000486919
0.00132003
0.000914857
0.00123888
0.000546032
0.000566812
0.000506545
0.000514835
0.000546185
0.000575366
0.000592944
0.00139068
0.00102959
0.00103796
0.0011864
0.00115554
0.00114112
0.00120763
0.00111671
0.00114213
0.00116265
0.00113688
0.00139715
0.00103322
0.0014361
0.00111683
0.00107796
0.00113831
0.00121582
0.00126955
0.00118258
0.00135456
0.00126529
0.00117311
0.000845662
0.00118009
0.00115414
0.00124335
0.00119012
0.0011276
0.00107244
0.00118145
0.00123255
0.00167352
0.00110479
0.00162706
0.00169566
0.00116099
0.00162486
0.00124627
0.000998036
0.00136043
0.00119182
0.000859188
0.000752845
0.00134325
0.00143075
0.0012106
0.00100627
0.0012111
0.000572784
0.00119691
0.00112291
0.000572525
0.000220045
0.000240712
0.00103682
0.00110524
0.00128392
0.001234
0.000113172
0.000118253
0.00122259
0.00123536
0.00116938
0.000429942
0.00103414
0.00120312
0.00122605
0.00105757
0.00093347
0.000447707
0.00177174
0.00111215
0.00135935
0.0013806
0.000991959
0.00125548
0.000969868
0.00107023
0.000530935
0.00080168
0.00125697
0.00126496
0.00108703
0.00114161
0.00117815
0.00124228
0.0011882
0.000584955
0.00104333
0.00117524
0.0011115
0.00166808
0.000584831
0.000902492
0.000929573
0.00088167
0.000573513
0.000573551
0.00100995
0.000814638
0.00116551
0.000625984
0.000684858
0.000223699
0.000223698
0.000466572
0.000743359
0.000500857
0.000993036
0.00107474
0.00114632
0.00129178
0.0011719
0.00108506
0.000854021
0.000527172
0.00107219
0.00111107
0.00107582
0.000592579
0.00054934
0.000426713
0.00107429
0.00109584
0.000879954
0.000994466
0.000917711
0.00084085
0.00112483
0.000840776
0.000992636
0.000957422
0.000587302
0.000725103
0.000672395
0.00118952
0.000469194
0.000494307
0.000483512
0.00112351
0.00044679
0.000437488
0.000781259
0.000408071
0.000910171
0.000911548
0.000418908
0.000990189
0.000465261
0.000462225
0.00052102
0.000440994
0.00043321
0.000648373
0.000514998
0.000467739
0.000442372
0.000906831
0.00103541
0.000487168
0.00100092
0.000401135
0.00101545
0.000806516
0.000419116
0.000355044
0.000395905
0.000525359
0.000871844
0.000718451
0.000300764
0.000333838
0.000972206
0.000283114
0.000283111
0.000320796
0.000360013
0.000405641
0.000473395
0.000782478
0.000724465
0.000972851
0.000284402
0.0002844
0.000855664
0.000350702
0.000692906
0.000317804
0.000319903
0.000421503
0.00073383
0.000759865
0.000809505
0.00074189
0.000733811
0.000160367
0.00118452
0.00020454
0.000198209
0.000956904
0.000950268
0.000205403
0.000142659
0.000200988
0.000882632
SCALARS rr_P' float
LOOKUP_TABLE default
5.54523e-05
0.000121475
9.73459e-05
0.000126889
6.56408e-05
0.000103327
5.48365e-05
0.000126239
0.000109158
0.000136531
5.02095e-05
0.000126626
0.000111524
0.000117508
0.000136866
0.000115943
9.92569e-05
0.000112593
0.000101559
9.88818e-05
0.000111288
1.92046e-05
0.000114026
0.000105032
9.52178e-05
0.000109454
4.6257e-05
9.63418e-05
7.68608e-05
8.73725e-05
9.85358e-05
7.94483e-05
5.12695e-05
6.5622e-05
6.44143e-05
6.57722e-05
8.49067e-05
6.45772e-05
9.84433e-05
5.76209e-05
6.46106e-05
7.4818e-05
7.48284e-05
0.000108141
6.40891e-05
7.00392e-05
9.54923e-05
9.65441e-05
9.0225e-05
8.79806e-05
9.02126e-05
6.9601e-05
0.000105418
8.94227e-05
9.70836e-05
4.64307e-05
6.877e-05
9.00785e-05
6.877e-05
0.000107776
0.000126726
0.000123785
4.53753e-05
8.72943e-05
0.000118558
0.00011225
0.000122566
0.000106305
9.82631e-05
0.000139402
0.000114383
0.000113139
7.9831e-05
9.07479e-05
9.67334e-05
5.30123e-05
9.85695e-05
0.000111212
0.000107204
7.67396e-05
6.98204e-05
7.3995e-05
0.000141212
6.99966e-05
9.38567e-05
3.51974e-05
0.000111289
9.24987e-05
6.78675e-05
9.46981e-06
7.74914e-05
1.03001e-05
8.36231e-05
8.06151e-05
7.33107e-05
6.72617e-05
6.41205e-05
0.000119873
9.86478e-05
9.58524e-05
8.21341e-05
7.93053e-05
6.71685e-05
0.000113656
0.000115457
0.00010396
9.1043e-05
9.29482e-05
7.13053e-05
0.000138394
8.93556e-05
4.82791e-05
6.44079e-05
0.000124416
0.000116456
8.63446e-05
7.97498e-05
5.32903e-05
8.27272e-05
8.59916e-05
7.4385e-05
0.000133475
0.000138448
0.000118622
0.000130726
0.000101968
5.73126e-05
0.000129428
5.80737e-05
7.43409e-05
5.97513e-05
0.000123551
0.000120272
0.000121294
8.24779e-05
4.84538e-05
5.57088e-05
8.90297e-05
0.000108267
4.84392e-05
6.88552e-05
0.000104751
8.00752e-05
0.000127912
6.48722e-05
0.000104449
9.47746e-05
9.18825e-05
5.87355e-05
7.5707e-05
8.39284e-05
0.000119196
7.12917e-05
0.00010812
0.000125007
0.000127014
8.30067e-05
7.08941e-05
7.04835e-05
0.000109168
9.20243e-05
7.06786e-05
4.71541e-05
6.91221e-05
6.84746e-05
0.00011671
7.18512e-05
7.2648e-05
7.8928e-05
7.00146e-05
0.000102094
7.32466e-05
6.51967e-05
8.01792e-05
7.73745e-05
9.09953e-05
0.000100987
9.80366e-05
8.23858e-05
9.7721e-05
7.66027e-05
0.00011321
0.00012151
6.88623e-05
0.000118689
6.91117e-05
0.000117219
0.00010761
0.000100096
0.000102678
0.000119724
5.81995e-05
7.57126e-05
7.06985e-05
0.000121081
0.000119396
0.000110674
0.00011998
0.000122549
0.000102743
0.000126199
8.53594e-05
7.75095e-05
0.000137365
8.20421e-05
0.000124732
9.95129e-05
6.47594e-05
7.61331e-05
0.000124869
0.000103319
9.45617e-05
0.000121975
0.000119176
7.8291e-05
7.66444e-05
7.55571e-05
0.00010567
0.000116964
0.000134423
0.000129202
0.000140546
0.000127352
0.000139176
0.000116808
0.000121338
0.000122297
0.000115276
0.000121097
0.000111129
0.000109473
7.93575e-05
0.000105244
0.000123307
8.60956e-05
0.000124704
0.000114542
0.000133675
8.14819e-05
0.000127156
0.000121424
7.98287e-05
0.000108177
7.93041e-05
0.000121806
0.000111737
8.31075e-05
7.83767e-05
6.84081e-05
7.86725e-05
0.000121984
5.74879e-05
9.45561e-05
7.81014e-05
8.71505e-05
0.000127281
0.000122966
3.79651e-05
0.000123425
6.88735e-05
7.39308e-05
0.000126567
0.000102887
7.4837e-05
0.000140967
8.09325e-05
3.79662e-05
7.55933e-05
0.000109645
0.000136665
0.000104009
0.000121421
0.000114154
5.94986e-05
5.89845e-05
5.16954e-05
5.94363e-05
8.11797e-05
6.29118e-05
0.000100974
6.38721e-05
0.000108019
7.74671e-05
7.57115e-05
8.72268e-05
8.20918e-05
0.000107937
7.87157e-05
8.12765e-05
3.46974e-05
8.01279e-05
0.000116057
0.000116148
0.000105848
7.85417e-05
4.99802e-05
0.000146654
9.93316e-05
8.33126e-05
7.69015e-05
7.50827e-05
7.93398e-05
9.48521e-05
7.78628e-05
5.67345e-05
7.67963e-05
5.33487e-05
9.3785e-05
7.84507e-05
3.23415e-05
7.38377e-05
8.60929e-05
7.8489e-05
0.000119001
8.14227e-05
0.000104151
4.10247e-05
8.36667e-05
8.05624e-05
6.89714e-05
7.56468e-05
8.8723e-05
8.27935e-05
8.68034e-05
7.46495e-05
7.5771e-05
8.169e-05
0.000107837
7.71651e-05
0.000108313
9.79547e-05
7.63632e-05
8.00482e-05
8.06983e-05
8.89354e-05
8.05305e-05
7.5578e-05
8.56784e-05
8.86522e-05
0.000105317
8.06675e-05
8.03989e-05
0.000115033
0.000113414
7.72356e-05
7.63825e-05
3.57817e-05
9.34305e-05
6.61105e-05
8.78748e-05
4.10184e-05
4.25773e-05
3.80412e-05
3.86677e-05
4.10176e-05
4.3224e-05
4.45368e-05
9.76865e-05
7.17446e-05
7.33705e-05
8.42373e-05
8.22417e-05
8.12291e-05
8.52305e-05
7.9514e-05
8.13412e-05
8.10091e-05
8.09291e-05
9.79704e-05
7.40812e-05
0.000100734
7.90902e-05
7.65421e-05
8.10424e-05
8.50113e-05
8.98557e-05
8.39461e-05
9.58692e-05
8.98143e-05
8.35377e-05
6.05895e-05
8.37966e-05
8.17182e-05
8.71744e-05
8.46695e-05
8.03277e-05
7.63081e-05
8.39133e-05
8.72809e-05
0.000118105
7.86146e-05
0.000114833
0.000120121
8.24509e-05
0.000114756
8.82756e-05
7.10536e-05
9.5706e-05
8.45681e-05
5.98896e-05
5.47226e-05
9.43541e-05
0.000100397
8.57231e-05
7.13919e-05
8.52837e-05
4.20693e-05
8.47572e-05
7.96835e-05
4.16651e-05
1.52137e-05
1.66407e-05
7.33878e-05
7.86638e-05
9.10625e-05
8.77876e-05
7.77454e-06
8.1236e-06
8.63456e-05
8.72411e-05
8.25992e-05
3.15801e-05
7.36526e-05
8.45895e-05
8.70672e-05
7.513e-05
6.6295e-05
3.29089e-05
0.000124668
7.91729e-05
9.62253e-05
9.7729e-05
7.04734e-05
8.91253e-05
6.89046e-05
7.60082e-05
3.8736e-05
5.79516e-05
8.92345e-05
8.95385e-05
7.71287e-05
8.11183e-05
8.36165e-05
8.81239e-05
8.43077e-05
4.25179e-05
7.3109e-05
8.36297e-05
7.82783e-05
0.000117348
4.25202e-05
6.38962e-05
6.58376e-05
6.15857e-05
3.96653e-05
3.96688e-05
7.06717e-05
5.80236e-05
8.25144e-05
4.55317e-05
4.74058e-05
1.53819e-05
1.53821e-05
3.43114e-05
5.16768e-05
3.47595e-05
7.03315e-05
7.52491e-05
8.10305e-05
9.11205e-05
8.24339e-05
7.62444e-05
6.03208e-05
3.87237e-05
7.58589e-05
7.82739e-05
7.56446e-05
4.33394e-05
3.81744e-05
3.10755e-05
7.55493e-05
7.72866e-05
6.2825e-05
7.03109e-05
6.48297e-05
5.87184e-05
7.94168e-05
5.8715e-05
7.02606e-05
6.73153e-05
4.0787e-05
5.03427e-05
4.89002e-05
8.38628e-05
3.45409e-05
3.63605e-05
3.56287e-05
7.90552e-05
3.28334e-05
3.22652e-05
5.5511e-05
3.00562e-05
6.34386e-05
6.35363e-05
3.08338e-05
7.02446e-05
3.39393e-05
3.40348e-05
3.8038e-05
3.24768e-05
3.16274e-05
4.50631e-05
3.75113e-05
3.43673e-05
3.25643e-05
6.40708e-05
7.26912e-05
3.55901e-05
7.0713e-05
2.95765e-05
7.16444e-05
5.71992e-05
3.08746e-05
2.59542e-05
2.91832e-05
3.86347e-05
6.176e-05
5.00444e-05
2.06976e-05
2.29862e-05
6.85467e-05
1.94853e-05
1.94854e-05
2.20838e-05
2.4865e-05
2.95225e-05
3.28839e-05
5.47373e-05
5.04627e-05
6.86274e-05
1.96256e-05
1.96258e-05
5.95539e-05
2.58021e-05
4.91604e-05
2.33676e-05
2.33123e-05
3.0709e-05
5.08206e-05
5.26295e-05
5.60828e-05
5.13937e-05
5.08206e-05
1.10442e-05
8.20557e-05
1.41148e-05
1.36387e-05
6.62641e-05
6.58011e-05
1.41312e-05
9.82319e-06
1.38673e-05
6.11646e-05
SCALARS rr_T' float
LOOKUP_TABLE default
0.000201498
0.000459092
0.000366645
0.00047922
0.000250569
0.00038914
0.000199235
0.000476562
0.000409774
0.000515923
0.00018287
0.000478022
0.000420671
0.000444281
0.000520507
0.000436947
0.000375792
0.000424845
0.000380563
0.000372057
0.000418523
7.43061e-05
0.000428818
0.000395218
0.00035825
0.00041327
0.000169412
0.000363013
0.000284914
0.000335348
0.000371638
0.00029453
0.000187669
0.000251277
0.000246963
0.000251843
0.000326024
0.000247467
0.00037126
0.000210941
0.00023948
0.000287332
0.000287363
0.00040787
0.000235467
0.000259778
0.000358133
0.000362663
0.000339849
0.000325334
0.000334062
0.000259048
0.000402169
0.000332866
0.000370259
0.000170809
0.000263687
0.000335306
0.000263678
0.000405597
0.000479711
0.000470143
0.000166613
0.000331487
0.000450311
0.00042499
0.000464025
0.000401395
0.000369635
0.000526896
0.000436336
0.000431582
0.000295893
0.000344006
0.000364391
0.000193721
0.000375168
0.000421048
0.000404773
0.000285868
0.000257985
0.000282816
0.000535438
0.000258344
0.00034833
0.000129381
0.000419335
0.000350428
0.000249361
3.65662e-05
0.000288434
3.97696e-05
0.000318341
0.000305077
0.000272974
0.000248979
0.000236941
0.000452951
0.000375447
0.000361434
0.000307082
0.000294605
0.000247884
0.00042901
0.000436111
0.000392724
0.000345376
0.00035037
0.000263135
0.000523308
0.000336289
0.00017761
0.000237368
0.000469522
0.000439849
0.00032145
0.000305773
0.000196891
0.000317152
0.000320179
0.000278491
0.000507388
0.00052322
0.000449429
0.000494445
0.000387921
0.000219439
0.000489048
0.000214598
0.000276805
0.000227926
0.000466808
0.00045595
0.000458342
0.000306409
0.000185786
0.000205413
0.000335912
0.000410525
0.000185724
0.000255912
0.000395887
0.00029998
0.000483367
0.000239642
0.000394427
0.000357966
0.000346087
0.000221209
0.000282712
0.000315232
0.000450457
0.000264267
0.000407861
0.00047238
0.000479912
0.000314019
0.000263596
0.0002621
0.000411774
0.000345705
0.00026207
0.000173423
0.00025596
0.000254585
0.000440906
0.000267147
0.000270094
0.000292582
0.000260332
0.000388692
0.000272651
0.000241413
0.000303434
0.000288043
0.000345149
0.000384465
0.00037008
0.000314359
0.000369172
0.000283975
0.000427753
0.000459096
0.000255954
0.000449685
0.000255843
0.000444107
0.000408265
0.000381144
0.000387985
0.000453629
0.000215153
0.000281848
0.000262086
0.000457523
0.000450452
0.000417626
0.000454829
0.000463106
0.000388944
0.000476941
0.000320022
0.000288822
0.000520714
0.000304157
0.000472947
0.000376749
0.000240513
0.000289293
0.000471939
0.000392737
0.000357602
0.000460687
0.000451899
0.0002924
0.000289938
0.00028166
0.000400895
0.000442361
0.000508385
0.000488427
0.000531408
0.000481533
0.000526226
0.000441515
0.000461334
0.000464928
0.000438284
0.000460437
0.000423845
0.000417536
0.0002963
0.000397848
0.0004655
0.000323359
0.000474256
0.000435675
0.000504693
0.000303654
0.000479965
0.000458817
0.000298197
0.000411071
0.000296184
0.000461921
0.000421698
0.000310468
0.000292222
0.000252741
0.000290733
0.000462554
0.00021224
0.00035652
0.000291137
0.000326648
0.000480416
0.000465024
0.000145833
0.000466714
0.000254211
0.000275591
0.000477795
0.000388398
0.000278839
0.000533082
0.000303251
0.000145833
0.000281813
0.000414713
0.000517676
0.00039248
0.000461725
0.000432426
0.000226985
0.000222483
0.000190294
0.000218474
0.000309363
0.000236615
0.000381176
0.000238556
0.000410495
0.000293163
0.00028224
0.000330128
0.00030697
0.00040775
0.000294357
0.000302914
0.000133682
0.000305174
0.000441418
0.000441732
0.000400092
0.00029379
0.0001913
0.000555434
0.000373198
0.000311678
0.000287337
0.000286123
0.000296361
0.00036109
0.000291053
0.000208468
0.000287236
0.000197033
0.000355835
0.000293046
0.000124599
0.000276009
0.000326351
0.000293056
0.000450935
0.000304328
0.000392449
0.000150545
0.000315007
0.000300904
0.000262785
0.000282483
0.000333342
0.000313747
0.000328094
0.000279025
0.000283415
0.000306057
0.00040913
0.00028861
0.000408883
0.000369105
0.000291306
0.000299414
0.000302285
0.00033434
0.000301787
0.000282574
0.000321106
0.000336737
0.000397536
0.000302222
0.000300268
0.000434693
0.000428604
0.000288829
0.000291369
0.000130145
0.000352007
0.000244265
0.000330407
0.000146156
0.000151717
0.000135584
0.000137804
0.000146194
0.000154007
0.00015871
0.000370685
0.000274316
0.00027677
0.00031643
0.000308244
0.000304398
0.000321981
0.000297892
0.000304678
0.000309765
0.00030327
0.000372372
0.000275737
0.000382764
0.000297829
0.000287509
0.000303652
0.000323992
0.000338544
0.000315407
0.000361214
0.000337467
0.000312941
0.000225673
0.000314749
0.000307775
0.000331379
0.000317462
0.000300807
0.000286071
0.000315115
0.000328689
0.000446194
0.000294703
0.000433808
0.000452199
0.000309657
0.000433239
0.000332351
0.000266233
0.000362654
0.000317864
0.000228917
0.000201083
0.000358043
0.000381344
0.000322834
0.000268374
0.000322863
0.00015309
0.000319184
0.000299486
0.000152929
5.86015e-05
6.41049e-05
0.000276484
0.000294825
0.000342418
0.000329164
3.01287e-05
3.14815e-05
0.000325983
0.000329384
0.000311796
0.000114912
0.000275871
0.000320708
0.000327008
0.000282078
0.000248973
0.000119666
0.000472302
0.000296673
0.000362492
0.000368159
0.000264579
0.00033485
0.000258687
0.000285449
0.000141843
0.000214051
0.000335249
0.000337322
0.000289915
0.000304496
0.00031422
0.000331316
0.000316897
0.000156239
0.000278061
0.000313495
0.000296313
0.000444663
0.000156209
0.000240668
0.000247895
0.000234934
0.000152739
0.00015275
0.000269145
0.000217317
0.000310806
0.000167205
0.000182402
5.95566e-05
5.95563e-05
0.000124712
0.000198026
0.000133414
0.000264818
0.000286418
0.000305661
0.000344408
0.000312395
0.000289227
0.00022771
0.0001409
0.000285908
0.000296204
0.000286776
0.000158336
0.000146339
0.000113985
0.000286371
0.000292163
0.000234774
0.000265173
0.000244694
0.000224055
0.00029991
0.000224036
0.000264702
0.000255214
0.000156447
0.000193151
0.0001796
0.000317134
0.000125418
0.000132124
0.000129254
0.0002995
0.000119418
0.000116957
0.000208381
0.000109084
0.000242498
0.000242865
0.000111975
0.000264085
0.000124296
0.000123557
0.0001392
0.000117883
0.00011574
0.00017272
0.000137572
0.000125017
0.000118248
0.000241795
0.000275978
0.000130161
0.000266881
0.000107237
0.000270735
0.000215096
0.000112036
9.48642e-05
0.000105836
0.000140426
0.000232502
0.000191412
8.00778e-05
8.88865e-05
0.000259196
7.53791e-05
7.53784e-05
8.5413e-05
9.58724e-05
0.000108354
0.000126105
0.000208521
0.000193015
0.000259376
7.57331e-05
7.57326e-05
0.000227958
9.37438e-05
0.0001848
8.49459e-05
8.54568e-05
0.000112597
0.00019545
0.000202386
0.00021561
0.0001976
0.000195445
4.26993e-05
0.000315492
5.4467e-05
5.27724e-05
0.000254863
0.000253095
5.46873e-05
3.7984e-05
5.35204e-05
0.000235091
SCALARS rr_uec(SIM,_S_ext) float
LOOKUP_TABLE default
0.0146249
0.0333106
0.0266035
0.0347714
0.0181788
0.0282358
0.0144607
0.0345783
0.0297337
0.0374341
0.013273
0.0346842
0.0305232
0.0322357
0.0377644
0.0317044
0.027266
0.0308261
0.0276147
0.0269965
0.0303681
0.00539023
0.0311152
0.0286771
0.0259947
0.0299861
0.0122954
0.0263399
0.0206761
0.0243284
0.0269654
0.0213739
0.0136205
0.0182297
0.0179165
0.0182708
0.0236519
0.0179531
0.026938
0.0153095
0.017379
0.0208449
0.0208471
0.0295944
0.0170892
0.0188518
0.0259869
0.0263151
0.0246592
0.0236098
0.0242429
0.0187983
0.0291777
0.0241549
0.0268627
0.0123962
0.0191297
0.024332
0.0191291
0.0294301
0.0348062
0.0341107
0.0120919
0.0240507
0.0326718
0.0308355
0.033668
0.0291244
0.0268208
0.0382303
0.0316565
0.0313116
0.0214728
0.0249594
0.0264399
0.01406
0.0272193
0.0305495
0.0293695
0.0207444
0.0187223
0.0205181
0.0388488
0.0187486
0.0252777
0.0093898
0.0304266
0.0254254
0.0180975
0.00265259
0.0209307
0.00288497
0.0230964
0.0221352
0.0198087
0.0180685
0.0171951
0.032865
0.0272395
0.0262251
0.0222831
0.0213788
0.0179895
0.0311283
0.0316432
0.0284952
0.0250587
0.0254224
0.0190963
0.03797
0.0244011
0.01289
0.0172266
0.0340678
0.0319145
0.0233265
0.0221829
0.0142885
0.0230084
0.0232342
0.0202082
0.0368128
0.0379637
0.0326086
0.0358756
0.0281448
0.0159198
0.0354841
0.0155736
0.0200867
0.0165363
0.0338706
0.0330817
0.0332563
0.0222354
0.0134783
0.0149073
0.0243731
0.0297857
0.0134737
0.0185708
0.0287243
0.0217673
0.0350719
0.0173911
0.0286188
0.025973
0.0251118
0.0160508
0.0205149
0.0228735
0.0326841
0.0191777
0.0295937
0.0342747
0.0348214
0.0227841
0.0191283
0.0190198
0.0298777
0.0250847
0.0190183
0.0125861
0.0185751
0.0184745
0.0319911
0.0193861
0.0195999
0.0212325
0.0188916
0.0282004
0.0197853
0.0175194
0.022016
0.0209022
0.0250422
0.0278938
0.0268522
0.0228069
0.0267862
0.0206079
0.0310368
0.0333109
0.0185739
0.0326271
0.0185666
0.0322224
0.0296215
0.0276527
0.0281513
0.0329132
0.0156138
0.0204527
0.0190195
0.0331969
0.0326842
0.0303023
0.0330003
0.033602
0.0282202
0.0346057
0.0232215
0.0209587
0.0377806
0.0220725
0.0343148
0.0273354
0.0174535
0.0209892
0.0342428
0.0284942
0.0259464
0.0334264
0.0327876
0.0212179
0.0210368
0.0204389
0.0290867
0.0320965
0.0368871
0.0354392
0.0385577
0.0349389
0.0381817
0.0320351
0.0334713
0.0337322
0.031799
0.0334062
0.0307503
0.0302926
0.021501
0.0288668
0.0337761
0.0234632
0.0344087
0.0316095
0.0366199
0.022035
0.0348257
0.0332906
0.0216385
0.0298246
0.0214925
0.0335147
0.030598
0.022529
0.0212053
0.0183417
0.021099
0.0335607
0.0154026
0.0258686
0.0211266
0.0237024
0.0348585
0.0337409
0.0105796
0.0338636
0.0184484
0.0199986
0.0346683
0.0281813
0.0202343
0.038679
0.0220046
0.0105796
0.02045
0.0300905
0.0375603
0.0284777
0.0334996
0.0313748
0.0164679
0.016143
0.0138104
0.0158557
0.0224447
0.0171688
0.0276573
0.0173107
0.0297828
0.0212708
0.020481
0.0239528
0.0222749
0.0295852
0.0213596
0.0219813
0.00969783
0.022141
0.0320263
0.0320491
0.0290296
0.0213184
0.0138786
0.0403
0.0270795
0.0226164
0.0208504
0.0207586
0.0215053
0.0261978
0.0211199
0.0151296
0.0208429
0.0142989
0.0258175
0.0212647
0.00903894
0.0200283
0.0236784
0.0212655
0.0327177
0.0220832
0.0284757
0.0109258
0.0228569
0.021835
0.0190655
0.0204983
0.0241875
0.0227639
0.0238058
0.0202471
0.0205655
0.0222083
0.0296842
0.0209426
0.0296676
0.0267819
0.0211345
0.0217265
0.0219346
0.0242598
0.0218984
0.0205046
0.0233002
0.0244315
0.0288444
0.02193
0.0217888
0.03154
0.0310983
0.0209584
0.021139
0.00944625
0.0255413
0.0177266
0.0239744
0.0106107
0.0110145
0.00984321
0.0100044
0.0106135
0.0111807
0.0115221
0.0268949
0.0199014
0.020082
0.0229604
0.022367
0.0220878
0.023362
0.0216158
0.0221082
0.0224731
0.022006
0.0270167
0.0200093
0.027771
0.0216103
0.0208619
0.0220337
0.023506
0.0245644
0.0228862
0.0262093
0.0244869
0.0227079
0.0163763
0.0228385
0.0223319
0.0240426
0.0230357
0.0218275
0.0207579
0.0228651
0.0238494
0.0323746
0.0213844
0.031476
0.0328114
0.022469
0.0314348
0.0241153
0.0193186
0.0263125
0.0230644
0.0166078
0.0145937
0.0259776
0.0276679
0.0234246
0.0194733
0.0234256
0.0111116
0.0231599
0.0217309
0.0110988
0.00425118
0.00465041
0.0200614
0.0213932
0.0248459
0.0238848
0.00218552
0.00228365
0.0236527
0.0238994
0.0226233
0.00834051
0.020018
0.023269
0.023728
0.0204679
0.0180658
0.00868573
0.0342681
0.0215274
0.0263021
0.0267133
0.0191982
0.024297
0.0187706
0.0207125
0.0102945
0.0155339
0.0243259
0.0244758
0.0210364
0.0220946
0.0228
0.0240404
0.0229942
0.0113391
0.0201741
0.0227479
0.0214993
0.0322627
0.0113369
0.0174627
0.0179872
0.0170446
0.0110804
0.0110812
0.019527
0.0157691
0.0225518
0.0121351
0.0132324
0.00432026
0.00432024
0.00905201
0.0143663
0.00967877
0.019215
0.0207803
0.0221783
0.0249893
0.022666
0.0209847
0.0165221
0.0102268
0.0207452
0.0214914
0.020807
0.0114918
0.0106165
0.00827244
0.0207778
0.0211984
0.0170361
0.0192405
0.0177545
0.0162554
0.0217608
0.016254
0.0192065
0.018517
0.0113497
0.0140125
0.0130345
0.0230103
0.00910303
0.00958964
0.00938154
0.0217303
0.00866765
0.00848912
0.0151204
0.0079175
0.017593
0.0176197
0.00812732
0.0191622
0.00902097
0.0089679
0.0101028
0.00855609
0.00840009
0.0125304
0.00998449
0.00907397
0.00858265
0.0175441
0.0200234
0.00944681
0.0193643
0.00778359
0.0196438
0.0156074
0.00813179
0.00688508
0.00768184
0.0101926
0.0168703
0.0138867
0.00580894
0.00644796
0.0188065
0.00546809
0.00546804
0.00619597
0.00695492
0.00786391
0.00914856
0.0151286
0.014003
0.0188196
0.0054939
0.00549386
0.0165379
0.00680427
0.0134092
0.00616558
0.00620203
0.00817179
0.014179
0.0146822
0.0156416
0.014335
0.0141787
0.00309747
0.0228875
0.00395118
0.00382815
0.0184891
0.0183608
0.00396705
0.00275541
0.00388251
0.0170548
SCALARS rr_uec(PEX,_P_ext) float
LOOKUP_TABLE default
-0.062082
-0.141482
-0.112989
-0.147684
-0.0772238
-0.119921
-0.0613848
-0.146864
-0.126277
-0.158995
-0.0563443
-0.147314
-0.129639
-0.136917
-0.160414
-0.134655
-0.115811
-0.130926
-0.117275
-0.114656
-0.128975
-0.0229024
-0.132148
-0.121794
-0.110401
-0.12736
-0.0521991
-0.11187
-0.0877939
-0.103355
-0.114528
-0.0907569
-0.0578241
-0.0774433
-0.0761144
-0.0776178
-0.100482
-0.0762695
-0.114412
-0.0649948
-0.0737937
-0.0885572
-0.0885665
-0.125694
-0.0725535
-0.0800484
-0.110363
-0.11176
-0.104731
-0.100247
-0.102938
-0.0798253
-0.123946
-0.102572
-0.114111
-0.0526308
-0.0812687
-0.103324
-0.081266
-0.124992
-0.147837
-0.144891
-0.0513375
-0.102159
-0.138779
-0.130973
-0.143003
-0.1237
-0.11391
-0.162377
-0.134476
-0.13301
-0.0911768
-0.106016
-0.112294
-0.0596884
-0.115622
-0.129758
-0.124741
-0.0880904
-0.0794942
-0.0871627
-0.165013
-0.0796045
-0.107335
-0.0398657
-0.129227
-0.107995
-0.0768346
-0.0112702
-0.0888804
-0.0122575
-0.0981093
-0.0940183
-0.0841165
-0.0767201
-0.0730099
-0.139589
-0.115708
-0.111384
-0.0946294
-0.090781
-0.0763813
-0.13221
-0.134399
-0.121028
-0.106439
-0.107974
-0.0810807
-0.161272
-0.103634
-0.0547268
-0.0731404
-0.144695
-0.135551
-0.0990544
-0.0942396
-0.0606688
-0.0977466
-0.0986629
-0.0858196
-0.15637
-0.161244
-0.138505
-0.152378
-0.119553
-0.0676308
-0.150713
-0.0661251
-0.0852971
-0.0702452
-0.143859
-0.140516
-0.141251
-0.0944184
-0.0572596
-0.0632941
-0.103519
-0.126517
-0.0572403
-0.078858
-0.122003
-0.092442
-0.148962
-0.073842
-0.121553
-0.110316
-0.106654
-0.06817
-0.0871191
-0.0971434
-0.13882
-0.0814316
-0.125692
-0.145576
-0.147898
-0.0967738
-0.0812259
-0.080765
-0.126898
-0.106534
-0.0807549
-0.0534363
-0.0788715
-0.0784495
-0.135877
-0.0823203
-0.0832283
-0.0901567
-0.0802204
-0.119791
-0.084017
-0.0743889
-0.0935118
-0.0887599
-0.106369
-0.118488
-0.114049
-0.0968832
-0.11377
-0.0875045
-0.131823
-0.141482
-0.0788712
-0.138584
-0.0788353
-0.136865
-0.12582
-0.117464
-0.119568
-0.1398
-0.0662963
-0.0868511
-0.0807596
-0.140998
-0.138818
-0.128701
-0.14017
-0.142719
-0.119864
-0.146982
-0.0986185
-0.0890008
-0.160475
-0.0937235
-0.145754
-0.116106
-0.0741128
-0.089156
-0.145441
-0.121036
-0.110205
-0.141972
-0.139267
-0.0901044
-0.0893524
-0.0867941
-0.123549
-0.136326
-0.156673
-0.150522
-0.163768
-0.148398
-0.162171
-0.136065
-0.142177
-0.143285
-0.135073
-0.141901
-0.130626
-0.128681
-0.0913062
-0.122608
-0.143456
-0.0996479
-0.14616
-0.13427
-0.155534
-0.0935713
-0.147913
-0.141396
-0.091891
-0.126686
-0.0912705
-0.142356
-0.129957
-0.0956725
-0.0900487
-0.0778784
-0.0895855
-0.142551
-0.0653983
-0.10987
-0.0897142
-0.10066
-0.148052
-0.14331
-0.0449463
-0.143831
-0.0783306
-0.0849239
-0.147245
-0.119694
-0.0859244
-0.164284
-0.09345
-0.0449464
-0.0868412
-0.127806
-0.159538
-0.120952
-0.142298
-0.133265
-0.0699551
-0.0685633
-0.058635
-0.0673174
-0.0953429
-0.0729169
-0.117469
-0.0735121
-0.126509
-0.0903466
-0.0869727
-0.101738
-0.0945949
-0.125659
-0.0907082
-0.0933435
-0.0412022
-0.0940516
-0.13604
-0.136137
-0.123299
-0.0905336
-0.0589585
-0.171174
-0.115007
-0.0960459
-0.0885445
-0.0881805
-0.0913253
-0.111284
-0.0896896
-0.0642343
-0.0885139
-0.0607126
-0.109663
-0.0903035
-0.0384028
-0.0850539
-0.100575
-0.0903064
-0.138969
-0.0937805
-0.120941
-0.0463862
-0.0970757
-0.0927251
-0.080988
-0.0870485
-0.102724
-0.0966907
-0.101111
-0.0859831
-0.0873362
-0.0943146
-0.126087
-0.0889373
-0.126007
-0.113747
-0.0897784
-0.0922666
-0.0931522
-0.103032
-0.0929988
-0.0870771
-0.0989524
-0.103777
-0.12251
-0.0931328
-0.0925289
-0.133962
-0.132086
-0.0890045
-0.0897976
-0.0400987
-0.108478
-0.0752666
-0.10182
-0.0450267
-0.0467401
-0.0417699
-0.0424538
-0.0450387
-0.0474455
-0.0488944
-0.114239
-0.0845432
-0.085293
-0.0975126
-0.0949889
-0.0938036
-0.0992265
-0.0917984
-0.0938895
-0.0954685
-0.0934557
-0.11476
-0.0849679
-0.117963
-0.091782
-0.0886001
-0.0935736
-0.0998514
-0.104329
-0.0971977
-0.111315
-0.103996
-0.096436
-0.0695413
-0.0969947
-0.094847
-0.102127
-0.0978296
-0.0926966
-0.088156
-0.0971074
-0.101292
-0.137506
-0.0908163
-0.133689
-0.139354
-0.0954253
-0.133513
-0.102421
-0.0820427
-0.111763
-0.0979549
-0.0705515
-0.0619589
-0.110343
-0.117525
-0.0994875
-0.0827038
-0.0994996
-0.0471683
-0.098363
-0.0922915
-0.0471207
-0.0180615
-0.0197577
-0.0852042
-0.0908536
-0.105522
-0.101436
-0.00928625
-0.00970319
-0.10046
-0.101508
-0.0960875
-0.0354053
-0.0850125
-0.0988365
-0.100772
-0.0869264
-0.0767248
-0.0368702
-0.145554
-0.091423
-0.111709
-0.113456
-0.0815336
-0.103189
-0.0797179
-0.0879654
-0.0437045
-0.0659564
-0.103312
-0.103953
-0.0893421
-0.0938347
-0.096832
-0.102101
-0.0976571
-0.0481414
-0.0856948
-0.0966071
-0.0913176
-0.137037
-0.0481319
-0.0741667
-0.0763937
-0.0724049
-0.0470758
-0.0470789
-0.0829478
-0.0669683
-0.0957812
-0.0515201
-0.0562177
-0.0183564
-0.0183563
-0.0384247
-0.0610317
-0.0411188
-0.0816088
-0.0882708
-0.0941965
-0.106138
-0.0962745
-0.0891347
-0.0701744
-0.0434126
-0.0881086
-0.0912837
-0.088379
-0.0487858
-0.0451019
-0.0351211
-0.0882543
-0.0900377
-0.0723468
-0.0817189
-0.0754083
-0.0690524
-0.0924247
-0.0690463
-0.0815733
-0.0786522
-0.0482173
-0.0595297
-0.0553392
-0.0977335
-0.0386416
-0.0407077
-0.0398232
-0.0922999
-0.0367937
-0.0360345
-0.0642156
-0.0336088
-0.0747369
-0.0748499
-0.0344998
-0.0813823
-0.0382979
-0.0380679
-0.04289
-0.0363197
-0.0356615
-0.0532325
-0.042389
-0.0385186
-0.0364326
-0.0745147
-0.0850523
-0.0401048
-0.0822457
-0.0330397
-0.0834339
-0.0662854
-0.0345185
-0.0292291
-0.0326081
-0.0432663
-0.07165
-0.0589926
-0.0246814
-0.0273963
-0.0798784
-0.0232331
-0.0232329
-0.0263257
-0.029549
-0.0333864
-0.0388658
-0.0642642
-0.0594866
-0.0799337
-0.0233419
-0.0233417
-0.0702562
-0.0288831
-0.0569491
-0.0261724
-0.0263308
-0.0346934
-0.0602392
-0.0623767
-0.0664524
-0.0609015
-0.0602376
-0.0131606
-0.0972366
-0.0167874
-0.0162653
-0.0785507
-0.0780057
-0.0168556
-0.0117073
-0.0164957
-0.0724564
SCALARS cell_type float
LOOKUP_TABLE default
0
0
0
0
0
0
0
0
0
0
0
0
0
0
0
0
0
0
0
0
0
1
0
0
0
0
0
0
0
0
0
0
0
0
0
0
0
0
0
0
0
0
0
0
0
0
0
0
0
0
0
0
0
0
0
0
0
0
0
0
0
0
0
0
0
0
0
0
0
0
0
0
0
0
0
0
0
0
0
0
0
0
0
0
0
0
0
0
0
0
0
0
0
0
0
0
0
0
0
0
0
0
0
0
0
0
0
0
0
0
0
0
0
0
0
0
0
0
0
0
0
0
0
0
0
0
0
0
0
0
0
0
0
0
0
0
0
0
0
0
0
0
0
0
0
0
0
0
0
0
0
0
0
0
0
0
0
0
0
0
0
0
0
0
0
0
0
0
0
0
0
0
0
0
0
0
0
0
0
0
0
0
0
0
0
0
0
0
0
0
0
0
0
0
0
0
0
0
0
0
0
0
0
0
0
0
0
0
0
0
0
0
0
0
0
0
0
0
0
0
0
0
0
0
0
0
0
0
0
0
0
0
0
0
0
0
0
0
0
0
0
0
0
0
0
0
0
0
0
0
0
0
0
0
0
0
0
0
0
0
0
0
0
0
0
0
0
0
0
0
0
0
0
0
0
0
0
0
0
0
0
0
0
0
0
0
0
0
0
0
0
0
0
0
0
0
0
0
0
0
0
0
0
0
0
0
0
0
0
0
0
0
0
0
0
0
0
0
0
0
0
0
0
0
0
0
0
0
0
0
0
0
0
0
0
0
0
0
0
0
0
0
0
0
0
0
0
0
0
0
2
2
2
2
2
2
2
0
0
0
0
0
0
0
0
0
0
0
0
0
0
0
0
0
0
0
0
0
0
0
0
0
0
0
0
0
0
0
0
0
0
0
0
0
0
0
0
0
0
0
0
0
0
0
0
0
0
0
0
0
0
0
0
0
0
0
1
1
0
0
0
0
0
0
0
0
0
0
0
0
0
0
0
0
0
0
0
0
0
0
0
0
0
0
0
0
0
0
0
0
0
0
0
0
0
0
0
0
0
0
0
1
1
0
0
0
0
0
0
0
0
0
0
0
0
0
0
0
0
0
0
0
0
0
0
0
0
0
0
0
0
0
0
0
0
0
0
0
0
0
0
0
0
0
0
0
0
0
0
0
0
0
0
0
0
0
0
0
0
0
0
0
0
0
0
0
0
0
1
1
0
0
0
0
0
0
0
0
0
0
0
0
0
0
0
0
0
0
0
0
0
0
0
0
0
0
0
0
0
0
0
0
0
TENSORS Lagrange_strain float
0.0305691 -0.0031984 -2.16553e-08
-0.0031984 0.0133894 -8.08758e-10
-2.16553e-08 -8.08758e-10 0.0074021

0.0291941 -0.0028007 -2.25207e-07
-0.0028007 0.0335551 -6.67442e-08
-2.25207e-07 -6.67442e-08 0.0331647

0.0300224 0.00367909 -9.29893e-08
0.00367909 0.0311709 -1.30589e-07
-9.29893e-08 -1.30589e-07 0.030469

0.0291632 -0.00392489 8.49844e-08
-0.00392489 0.0328001 3.78995e-08
8.49844e-08 3.78995e-08 0.0330895

0.0353678 0.00266961 -1.50919e-07
0.00266961 0.0380862 1.04839e-07
-1.50919e-07 1.04839e-07 0.0352933

0.0277365 -0.00236725 1.3316e-07
-0.00236725 0.0333853 1.99248e-07
1.3316e-07 1.99248e-07 0.0304401

0.030263 0.00339408 -1.70067e-08
0.00339408 0.0134951 -2.01152e-07
-1.70067e-08 -2.01152e-07 0.00746354

0.0317558 0.00393967 -6.30417e-08
0.00393967 0.0312014 -1.24078e-07
-6.30417e-08 -1.24078e-07 0.0315619

0.0332433 0.000715535 1.83429e-07
0.000715535 0.0262225 -2.66205e-08
1.83429e-07 -2.66205e-08 0.0281432

0.0354687 -0.000991061 -4.46804e-08
-0.000991061 0.0275524 -8.60475e-08
-4.46804e-08 -8.60475e-08 0.0327222

0.0280624 0.00205128 -4.56063e-08
0.00205128 0.0138094 -2.90579e-07
-4.56063e-08 -2.90579e-07 0.011754

0.0279544 -0.00176573 5.30521e-08
-0.00176573 0.0350079 -5.51229e-08
5.30521e-08 -5.51229e-08 0.0315504

0.0311225 0.00365721 -1.0881e-07
0.00365721 0.0313018 -8.88224e-08
-1.0881e-07 -8.88224e-08 0.0310807

0.0290705 -0.00188007 1.21249e-07
-0.00188007 0.0348008 -1.71771e-07
1.21249e-07 -1.71771e-07 0.0325476

0.0346328 0.00441834 -3.47691e-08
0.00441834 0.0343636 -8.18098e-08
-3.47691e-08 -8.18098e-08 0.0348858

0.0343291 7.31458e-05 -5.13391e-08
7.31458e-05 0.0272872 -5.34084e-08
-5.13391e-08 -5.34084e-08 0.0307796

0.0286943 -0.00235375 2.2144e-07
-0.00235375 0.0360146 1.73686e-07
2.2144e-07 1.73686e-07 0.0334513

0.0345748 -0.0003531 -7.59895e-08
-0.0003531 0.0273575 -4.67049e-08
-7.59895e-08 -4.67049e-08 0.0319783

0.0269211 0.00347839 -2.20546e-07
0.00347839 0.0309464 1.70402e-08
-2.20546e-07 1.70402e-08 0.0275777

0.0338858 -0.000550566 -1.39128e-07
-0.000550566 0.0264104 -1.80242e-07
-1.39128e-07 -1.80242e-07 0.0301354

0.0266231 0.00113527 -8.80232e-08
0.00113527 0.0340349 2.17809e-07
-8.80232e-08 2.17809e-07 0.0291511

0.0452949 0.000853123 -1.52157e-07
0.000853123 0.0452654 -3.30061e-07
-1.52157e-07 -3.30061e-07 0.0366391

0.0336765 0.000247573 -3.06476e-08
0.000247573 0.0263164 -4.04244e-09
-3.06476e-08 -4.04244e-09 0.0298063

0.0293108 -0.00363233 -4.45459e-08
-0.00363233 0.0311373 7.67682e-08
-4.45459e-08 7.67682e-08 0.0300478

0.0337814 0.000900113 -8.51e-08
0.000900113 0.0264974 2.85717e-08
-8.51e-08 2.85717e-08 0.0300824

0.0285473 0.00250748 1.25317e-07
0.00250748 0.0338952 3.66217e-08
1.25317e-07 3.66217e-08 0.0322882

0.0286308 0.000526749 -2.0964e-07
0.000526749 0.0176904 4.95793e-08
-2.0964e-07 4.95793e-08 0.0131719

0.0309155 0.00403465 -1.86213e-07
0.00403465 0.0306475 8.37811e-08
-1.86213e-07 8.37811e-08 0.0306119

0.0259256 0.00477671 -2.21123e-07
0.00477671 0.0257341 1.43408e-07
-2.21123e-07 1.43408e-07 0.0211289

0.0415299 0.00137015 2.30374e-08
0.00137015 0.0383512 6.15156e-08
2.30374e-08 6.15156e-08 0.0361362

0.0344122 0.00187115 -1.05598e-07
0.00187115 0.0279536 -7.88986e-09
-1.05598e-07 -7.88986e-09 0.0310012

0.0217605 -0.00228799 -1.08967e-07
-0.00228799 0.0299938 -1.14975e-07
-1.08967e-07 -1.14975e-07 0.0211258

0.0228643 -0.00535264 -1.00301e-07
-0.00535264 0.0234737 4.65731e-08
-1.00301e-07 4.65731e-08 0.0125795

0.0348334 0.000800725 7.88773e-08
0.000800725 0.042256 1.7657e-08
7.88773e-08 1.7657e-08 0.0357874

0.0374541 -0.000661622 -7.15744e-09
-0.000661622 0.0412026 9.83503e-08
-7.15744e-09 9.83503e-08 0.0359019

0.0410758 0.00281319 -3.13389e-08
0.00281319 0.035987 -1.98233e-07
-3.13389e-08 -1.98233e-07 0.0357676

0.0372547 0.000704999 2.67886e-08
0.000704999 0.0432159 -1.76088e-07
2.67886e-08 -1.76088e-07 0.0361427

0.0402622 -0.00121836 1.31292e-07
-0.00121836 0.0378313 7.42286e-08
1.31292e-07 7.42286e-08 0.0358092

0.0312167 -0.00367795 1.96898e-07
-0.00367795 0.0311248 9.14389e-08
1.96898e-07 9.14389e-08 0.0309266

0.0227482 0.00527927 -2.05147e-07
0.00527927 0.0237099 -1.45459e-07
-2.05147e-07 -1.45459e-07 0.0125816

0.0297621 -0.002316 1.28569e-07
-0.002316 0.0220318 -5.88415e-08
1.28569e-07 -5.88415e-08 0.0208757

0.0376199 -0.000522732 -1.42165e-07
-0.000522732 0.0430641 -1.02131e-07
-1.42165e-07 -1.02131e-07 0.0361454

0.0412419 0.00263405 2.16705e-07
0.00263405 0.0394158 -3.60244e-08
2.16705e-07 -3.60244e-08 0.0361278

0.0343021 -0.00161712 -1.67022e-07
-0.00161712 0.0279956 -6.31593e-08
-1.67022e-07 -6.31593e-08 0.0310852

0.0231066 -0.00552607 -9.79356e-08
-0.00552607 0.0235635 4.37657e-08
-9.79356e-08 4.37657e-08 0.0162167

0.0299448 -0.00233249 -2.48853e-07
-0.00233249 0.0221561 -1.17592e-08
-2.48853e-07 -1.17592e-08 0.021345

0.0258946 0.00222753 1.54628e-08
0.00222753 0.0326554 1.00205e-09
1.54628e-08 1.00205e-09 0.0279164

0.0275519 0.00252895 -1.78217e-07
0.00252895 0.0323753 -4.65365e-08
-1.78217e-07 -4.65365e-08 0.0284919

0.0341765 -0.00214076 2.90082e-08
-0.00214076 0.0271083 1.24425e-07
2.90082e-08 1.24425e-07 0.0304733

0.0229034 -0.00439255 4.09751e-08
-0.00439255 0.0272501 -1.73462e-07
4.09751e-08 -1.73462e-07 0.0198511

0.0294952 0.00247163 8.5536e-08
0.00247163 0.0218351 1.3151e-08
8.5536e-08 1.3151e-08 0.0202817

0.0298735 -0.00327115 3.803e-08
-0.00327115 0.0245144 6.96721e-08
3.803e-08 6.96721e-08 0.0230491

0.0344786 0.00257743 1.54425e-07
0.00257743 0.0382043 -1.4564e-07
1.54425e-07 -1.4564e-07 0.035272

0.0286906 0.00383876 -2.75336e-08
0.00383876 0.0257807 1.38672e-07
-2.75336e-08 1.38672e-07 0.0231177

0.0349293 -0.00291578 6.7656e-08
-0.00291578 0.0374336 6.43484e-08
6.7656e-08 6.43484e-08 0.0351904

0.0255811 -0.00545572 1.22866e-07
-0.00545572 0.0229033 -4.0824e-09
1.22866e-07 -4.0824e-09 0.0158202

0.0373476 0.000745908 2.00756e-08
0.000745908 0.0414144 3.19087e-07
2.00756e-08 3.19087e-07 0.0359224

0.0231685 -0.000693306 3.87486e-08
-0.000693306 0.0313147 1.39185e-07
3.87486e-08 1.39185e-07 0.0231037

0.0410305 0.00137989 1.82046e-07
0.00137989 0.0377082 1.82927e-07
1.82046e-07 1.82927e-07 0.0359006

0.0276768 0.00280516 -1.14834e-07
0.00280516 0.0327509 1.81564e-07
-1.14834e-07 1.81564e-07 0.0302323

0.0361405 0.000784775 1.25233e-08
0.000784775 0.0281329 1.52857e-07
1.25233e-08 1.52857e-07 0.0336744

0.0362558 0.00153396 3.62551e-09
0.00153396 0.0316944 6.50448e-08
3.62551e-09 6.50448e-08 0.034222

0.0286383 0.00405717 2.25344e-08
0.00405717 0.0198982 3.16989e-08
2.25344e-08 3.16989e-08 0.0137597

0.0309737 -0.000783947 -6.60732e-08
-0.000783947 0.0370859 -5.45506e-09
-6.60732e-08 -5.45506e-09 0.0338829

0.0315562 0.00124356 1.08194e-07
0.00124356 0.0364222 -1.05698e-07
1.08194e-07 -1.05698e-07 0.0342608

0.02855 -0.000375235 -1.16555e-08
-0.000375235 0.0369577 1.84791e-07
-1.16555e-08 1.84791e-07 0.0326719

0.0296038 0.00307123 -5.91157e-08
0.00307123 0.0347926 1.67808e-08
-5.91157e-08 1.67808e-08 0.0337102

0.0347209 0.00112198 1.2784e-08
0.00112198 0.0278399 9.55166e-10
1.2784e-08 9.55166e-10 0.0322099

0.0291885 -0.00369901 -1.24957e-07
-0.00369901 0.0310224 9.33505e-08
-1.24957e-07 9.33505e-08 0.0299108

0.0350564 -0.00023693 -8.81623e-08
-0.00023693 0.0275813 -8.69287e-08
-8.81623e-08 -8.69287e-08 0.0333944

0.0344533 -0.00254814 -1.15353e-07
-0.00254814 0.0381351 1.10228e-07
-1.15353e-07 1.10228e-07 0.0352621

0.0350118 0.0028497 1.33497e-08
0.0028497 0.0375713 1.91603e-07
1.33497e-08 1.91603e-07 0.0352419

0.0218895 -0.00213192 -6.7707e-08
-0.00213192 0.0299233 6.59864e-09
-6.7707e-08 6.59864e-09 0.0208522

0.034703 -0.0036909 6.66582e-08
-0.0036909 0.0319591 7.06158e-08
6.66582e-08 7.06158e-08 0.0330803

0.0292932 -0.00329728 -5.70106e-08
-0.00329728 0.0321139 2.13377e-07
-5.70106e-08 2.13377e-07 0.0304346

0.0267806 -0.00401714 -4.40622e-08
-0.00401714 0.0176059 1.83767e-08
-4.40622e-08 1.83767e-08 0.0127265

0.0324051 0.000418872 4.05544e-08
0.000418872 0.038106 -1.45691e-07
4.05544e-08 -1.45691e-07 0.034407

0.0345387 0.00381732 6.87062e-08
0.00381732 0.0309428 -5.58772e-08
6.87062e-08 -5.58772e-08 0.0326615

0.0283776 0.00258149 7.01029e-08
0.00258149 0.0341306 1.63649e-08
7.01029e-08 1.63649e-08 0.0322151

0.0315431 0.00103786 -5.30583e-08
0.00103786 0.0228448 5.76537e-08
-5.30583e-08 5.76537e-08 0.0240702

0.0270984 -0.00435882 -5.31845e-08
-0.00435882 0.0237377 4.78017e-08
-5.31845e-08 4.78017e-08 0.0183243

0.0362611 -0.00140299 1.08118e-07
-0.00140299 0.0387439 -2.46317e-09
1.08118e-07 -2.46317e-09 0.0354024

0.0315576 0.00317087 1.54614e-07
0.00317087 0.0344026 -8.46541e-08
1.54614e-07 -8.46541e-08 0.0340916

0.0273026 -0.00415633 2.47905e-07
-0.00415633 0.0221759 -3.41926e-08
2.47905e-07 -3.41926e-08 0.0184122

0.0303595 0.00139116 6.33567e-08
0.00139116 0.0228314 5.51946e-08
6.33567e-08 5.51946e-08 0.0209554

0.0186027 -0.00269709 -6.71899e-08
-0.00269709 0.02893 1.34039e-07
-6.71899e-08 1.34039e-07 0.0158937

0.0272011 0.0018891 -1.90334e-07
0.0018891 0.0343217 -2.73051e-08
-1.90334e-07 -2.73051e-08 0.0306558

0.0353831 0.0030567 4.43874e-08
0.0030567 0.0308212 -1.79135e-07
4.43874e-08 -1.79135e-07 0.032755

0.0226488 0.0053861 -6.26854e-08
0.0053861 0.0240895 1.94569e-08
-6.26854e-08 1.94569e-08 0.0161992

0.0459481 0.00223836 8.4899e-07
0.00223836 0.0417511 -4.613e-07
8.4899e-07 -4.613e-07 0.0366401

0.0230823 -0.000534316 -7.55657e-08
-0.000534316 0.0313555 -9.662e-09
-7.55657e-08 -9.662e-09 0.0230735

0.0463635 -0.00225533 4.80054e-07
-0.00225533 0.0412944 -1.8402e-07
4.80054e-07 -1.8402e-07 0.0365952

0.0370663 -0.0036244 9.9551e-08
-0.0036244 0.0334925 9.09042e-09
9.9551e-08 9.09042e-09 0.0346221

0.0351385 0.00361935 -3.14293e-09
0.00361935 0.0300055 -3.32132e-09
-3.14293e-09 -3.32132e-09 0.0324577

0.0299635 -0.00315907 -1.7192e-07
-0.00315907 0.0246915 -1.32614e-07
-1.7192e-07 -1.32614e-07 0.0232869

0.0230132 0.00403009 -2.56649e-08
0.00403009 0.0277803 1.87638e-07
-2.56649e-08 1.87638e-07 0.0203829

0.0210948 -0.00137859 -4.12335e-08
-0.00137859 0.0298964 -2.95187e-07
-4.12335e-08 -2.95187e-07 0.0182523

0.0287472 0.00288902 -1.80016e-07
0.00288902 0.0342284 -2.81824e-08
-1.80016e-07 -2.81824e-08 0.032701

0.0370126 0.0022362 9.06363e-08
0.0022362 0.033453 2.38473e-08
9.06363e-08 2.38473e-08 0.0343854

0.0281494 0.00198833 5.93111e-08
0.00198833 0.0340611 -3.86742e-08
5.93111e-08 -3.86742e-08 0.0308667

0.0318839 0.00207329 -7.02201e-08
0.00207329 0.0252552 3.09317e-08
-7.02201e-08 3.09317e-08 0.0256185

0.0239085 -0.00277454 1.47474e-07
-0.00277454 0.029766 2.92181e-08
1.47474e-07 2.92181e-08 0.0215624

0.0278997 -0.00376391 -1.0386e-07
-0.00376391 0.021816 -7.68913e-08
-1.0386e-07 -7.68913e-08 0.0180767

0.0293326 -0.00323203 7.04599e-08
-0.00323203 0.0326313 -8.21898e-08
7.04599e-08 -8.21898e-08 0.0324041

0.0306274 0.00361462 -9.2253e-08
0.00361462 0.03223 -6.45976e-08
-9.2253e-08 -6.45976e-08 0.0323719

0.0287092 0.00304785 1.28125e-09
0.00304785 0.0340284 2.10546e-08
1.28125e-09 2.10546e-08 0.0326314

0.0292081 0.00172513 3.71513e-08
0.00172513 0.0376186 -1.43826e-07
3.71513e-08 -1.43826e-07 0.0338472

0.0344785 0.00123259 -1.8923e-07
0.00123259 0.0275249 -2.04906e-07
-1.8923e-07 -2.04906e-07 0.0306759

0.0199614 -0.000605304 -9.65278e-08
-0.000605304 0.0296618 4.98673e-08
-9.65278e-08 4.98673e-08 0.0181046

0.0297984 -0.00486299 1.12318e-08
-0.00486299 0.0330502 -2.66424e-08
1.12318e-08 -2.66424e-08 0.0337428

0.0290824 0.00360008 2.07963e-07
0.00360008 0.0313611 -1.34606e-07
2.07963e-07 -1.34606e-07 0.0302652

0.0181062 0.000282932 -3.02702e-08
0.000282932 0.0293118 -2.97185e-07
-3.02702e-08 -2.97185e-07 0.0168791

0.0278444 0.00442392 1.95597e-08
0.00442392 0.0209689 2.94051e-08
1.95597e-08 2.94051e-08 0.0174554

0.0291922 -0.00302062 -4.84124e-08
-0.00302062 0.0327042 -1.05244e-07
-4.84124e-08 -1.05244e-07 0.0321865

0.0352438 0.000759683 1.11226e-07
0.000759683 0.0273398 -1.85233e-07
1.11226e-07 -1.85233e-07 0.0325539

0.0294286 0.00352025 1.09294e-07
0.00352025 0.0252022 -5.51622e-08
1.09294e-07 -5.51622e-08 0.0231121

0.0396376 0.00171005 -3.92058e-08
0.00171005 0.0390398 1.64242e-07
-3.92058e-08 1.64242e-07 0.035941

0.0283761 0.00312342 2.34865e-07
0.00312342 0.0224022 -2.46894e-07
2.34865e-07 -2.46894e-07 0.0182871

0.0394894 -0.00175081 -1.79423e-08
-0.00175081 0.0390659 2.24933e-07
-1.79423e-08 2.24933e-07 0.0359061

0.0232618 0.00010361 6.43772e-08
0.00010361 0.0315192 1.42501e-07
6.43772e-08 1.42501e-07 0.0231205

0.0327599 -0.000288508 2.68286e-07
-0.000288508 0.0246609 6.15401e-08
2.68286e-07 6.15401e-08 0.0269672

0.0380554 -0.00212906 2.85486e-08
-0.00212906 0.030465 4.67734e-08
2.85486e-08 4.67734e-08 0.0347943

0.0292395 0.00320597 -1.17544e-07
0.00320597 0.0332789 1.07887e-07
-1.17544e-07 1.07887e-07 0.0333439

0.0289517 -0.00177269 -5.21399e-08
-0.00177269 0.0366103 -1.04769e-07
-5.21399e-08 -1.04769e-07 0.0335007

0.0365847 -0.00108475 -7.03184e-08
-0.00108475 0.0264776 -1.15034e-07
-7.03184e-08 -1.15034e-07 0.0338611

0.0311812 -0.00292581 -6.32346e-08
-0.00292581 0.038307 -6.44593e-08
-6.32346e-08 -6.44593e-08 0.0348446

0.0381658 -0.000885328 1.31646e-07
-0.000885328 0.0387318 -1.88311e-07
1.31646e-07 -1.88311e-07 0.0358362

0.0301812 -0.00393978 -4.70549e-08
-0.00393978 0.0327115 -1.05306e-07
-4.70549e-08 -1.05306e-07 0.0327643

0.0213334 0.00146957 5.65448e-08
0.00146957 0.0296146 -2.47987e-07
5.65448e-08 -2.47987e-07 0.0182962

0.029389 -0.00364588 -2.8568e-08
-0.00364588 0.02535 -8.33477e-08
-2.8568e-08 -8.33477e-08 0.0231828

0.0328602 -0.0018169 -1.20657e-07
-0.0018169 0.0397184 9.52763e-08
-1.20657e-07 9.52763e-08 0.0352419

0.0350923 7.67196e-05 -1.09562e-07
7.67196e-05 0.0272232 -2.044e-07
-1.09562e-07 -2.044e-07 0.0332522

0.0308193 -0.00282892 -5.80481e-08
-0.00282892 0.0348925 -9.49552e-08
-5.80481e-08 -9.49552e-08 0.0340851

0.0295356 0.00338903 -9.95504e-08
0.00338903 0.0328727 1.04581e-07
-9.95504e-08 1.04581e-07 0.033327

0.0264613 -0.0040634 2.76983e-08
-0.0040634 0.0272627 -1.7404e-07
2.76983e-08 -1.7404e-07 0.0215852

0.037173 -0.000958085 2.1114e-07
-0.000958085 0.0416106 3.95207e-08
2.1114e-07 3.95207e-08 0.0358873

0.0227117 -0.00423778 2.28412e-08
-0.00423778 0.0272446 -1.4419e-07
2.28412e-08 -1.4419e-07 0.016878

0.034184 -0.00252488 2.92488e-08
-0.00252488 0.0286074 1.02034e-07
2.92488e-08 1.02034e-07 0.0310454

0.0364266 0.000289907 -2.66606e-08
0.000289907 0.0294386 -7.16026e-08
-2.66606e-08 -7.16026e-08 0.0341947

0.0396414 0.00239647 -1.27697e-07
0.00239647 0.0391133 -8.12654e-08
-1.27697e-07 -8.12654e-08 0.0358683

0.0238569 0.00260943 2.91973e-08
0.00260943 0.0301526 8.70084e-08
2.91973e-08 8.70084e-08 0.0217996

0.0334315 0.00358155 1.45663e-08
0.00358155 0.030716 3.31679e-08
1.45663e-08 3.31679e-08 0.0317681

0.0316441 -0.00319441 4.88872e-08
-0.00319441 0.0265529 1.75513e-08
4.88872e-08 1.75513e-08 0.0269362

0.0289303 -0.00234101 6.25831e-09
-0.00234101 0.0342362 2.24238e-08
6.25831e-09 2.24238e-08 0.0326069

0.0262451 0.00450172 -1.73254e-07
0.00450172 0.0245584 2.01629e-07
-1.73254e-07 2.01629e-07 0.0180817

0.0284239 -0.00286676 1.15434e-09
-0.00286676 0.0340336 -2.26663e-07
1.15434e-09 -2.26663e-07 0.03245

0.03315 0.00405873 8.62124e-08
0.00405873 0.0304655 -1.89132e-07
8.62124e-08 -1.89132e-07 0.0315432

0.0333362 -0.00331188 1.50259e-07
-0.00331188 0.0283579 2.0503e-08
1.50259e-07 2.0503e-08 0.0300468

0.0291621 -0.00329552 -7.40724e-08
-0.00329552 0.0319889 4.64011e-08
-7.40724e-08 4.64011e-08 0.0304383

0.0314564 -0.00242945 1.51832e-08
-0.00242945 0.0247196 6.65931e-08
1.51832e-08 6.65931e-08 0.025157

0.0329569 -0.00246679 1.44037e-07
-0.00246679 0.0267104 2.91399e-08
1.44037e-07 2.91399e-08 0.0285975

0.0294926 -0.00334185 -1.10363e-07
-0.00334185 0.0329517 1.60267e-08
-1.10363e-07 1.60267e-08 0.0334083

0.026135 0.00463411 1.04111e-07
0.00463411 0.0255421 1.38552e-07
1.04111e-07 1.38552e-07 0.0210931

0.0281511 0.00201676 1.22087e-07
0.00201676 0.0343372 2.772e-08
1.22087e-07 2.772e-08 0.0311105

0.0308876 0.00348115 -1.18535e-08
0.00348115 0.0322566 -3.44858e-08
-1.18535e-08 -3.44858e-08 0.0326013

0.0291583 0.00334797 -4.67022e-08
0.00334797 0.0331931 -8.38685e-08
-4.67022e-08 -8.38685e-08 0.0332615

0.028985 0.00152292 2.45623e-07
0.00152292 0.0354716 -1.29641e-07
2.45623e-07 -1.29641e-07 0.0326966

0.0310541 -0.00106189 -2.35624e-07
-0.00106189 0.0231422 1.23036e-08
-2.35624e-07 1.23036e-08 0.0220787

0.0238846 0.00240576 -1.8426e-07
0.00240576 0.0304118 -2.26618e-08
-1.8426e-07 -2.26618e-08 0.0221138

0.0292145 -0.00320415 7.57458e-09
-0.00320415 0.0326378 -4.63397e-08
7.57458e-09 -4.63397e-08 0.0316195

0.0289886 0.00335693 2.73983e-07
0.00335693 0.030934 -6.00482e-08
2.73983e-07 -6.00482e-08 0.028569

0.0266136 -0.00459144 4.09108e-08
-0.00459144 0.0252313 -7.83364e-08
4.09108e-08 -7.83364e-08 0.0212574

0.0262787 0.00489357 -1.23793e-07
0.00489357 0.0209469 7.23113e-09
-1.23793e-07 7.23113e-09 0.016763

0.0235036 -0.00428707 -1.82944e-08
-0.00428707 0.0274655 6.54435e-09
-1.82944e-08 6.54435e-09 0.0206271

0.0266728 -0.00402767 8.05919e-08
-0.00402767 0.0274835 1.15028e-08
8.05919e-08 1.15028e-08 0.0220508

0.0353663 -0.000906427 5.44108e-08
-0.000906427 0.0273917 2.22762e-07
5.44108e-08 2.22762e-07 0.0326562

0.0260461 0.00392174 2.81321e-08
0.00392174 0.0280935 -2.42836e-07
2.81321e-08 -2.42836e-07 0.0221033

0.0307892 0.00171675 -2.04368e-07
0.00171675 0.0233611 2.47207e-08
-2.04368e-07 2.47207e-08 0.0220264

0.0214317 0.00172222 1.5131e-07
0.00172222 0.0302421 3.99476e-08
1.5131e-07 3.99476e-08 0.0211336

0.0242637 -0.00288952 -7.39454e-08
-0.00288952 0.0299533 -1.13971e-07
-7.39454e-08 -1.13971e-07 0.022087

0.031347 -0.000131131 1.00405e-07
-0.000131131 0.0392746 -2.70353e-07
1.00405e-07 -2.70353e-07 0.0346722

0.0230592 0.000294625 2.05606e-07
0.000294625 0.0314619 8.36399e-09
2.05606e-07 8.36399e-09 0.0230632

0.0227779 0.00400162 -1.40713e-08
0.00400162 0.0281286 -2.45956e-07
-1.40713e-08 -2.45956e-07 0.0206389

0.0288897 0.00158575 -1.1038e-08
0.00158575 0.0358341 2.32212e-07
-1.1038e-08 2.32212e-07 0.0328951

0.0293174 -0.00358034 -4.04946e-08
-0.00358034 0.0251306 9.12014e-08
-4.04946e-08 9.12014e-08 0.0232407

0.0369779 0.00273296 9.13578e-08
0.00273296 0.0297247 5.22667e-09
9.13578e-08 5.22667e-09 0.0338032

0.0371769 0.00348321 -9.35533e-08
0.00348321 0.0334243 9.00891e-09
-9.35533e-08 9.00891e-09 0.0346537

0.0345454 -0.00244657 -2.58372e-08
-0.00244657 0.0285312 1.42434e-09
-2.58372e-08 1.42434e-09 0.0313804

0.0390578 -0.000265806 -8.08175e-08
-0.000265806 0.033926 -1.61831e-07
-8.08175e-08 -1.61831e-07 0.0352097

0.0314805 -0.00418763 1.10035e-07
-0.00418763 0.0317836 1.63007e-07
1.10035e-07 1.63007e-07 0.0321579

0.0294637 0.00300764 1.96762e-08
0.00300764 0.0223283 -2.85375e-07
1.96762e-08 -2.85375e-07 0.0210675

0.0302313 0.00397312 -9.35023e-08
0.00397312 0.0326647 1.15555e-07
-9.35023e-08 1.15555e-07 0.0327216

0.0302786 0.00384677 -7.97811e-08
0.00384677 0.0326091 -8.83948e-08
-7.97811e-08 -8.83948e-08 0.0326763

0.0262457 0.00396191 7.71441e-08
0.00396191 0.0277691 1.92172e-07
7.71441e-08 1.92172e-07 0.0218659

0.034452 0.00357677 1.55324e-08
0.00357677 0.0317811 1.81856e-08
1.55324e-08 1.81856e-08 0.0328331

0.03025 0.000452523 -2.20386e-07
0.000452523 0.0204292 -9.57658e-09
-2.20386e-07 -9.57658e-09 0.0205742

0.033188 0.00420065 1.35606e-07
0.00420065 0.0323748 -2.01702e-08
1.35606e-07 -2.01702e-08 0.0334855

0.0305023 -0.00165438 1.83046e-07
-0.00165438 0.0366179 -9.38538e-08
1.83046e-07 -9.38538e-08 0.0336644

0.0373615 0.00323267 -1.48287e-07
0.00323267 0.0334611 3.22158e-08
-1.48287e-07 3.22158e-08 0.0346658

0.0307391 -0.00389609 -2.53812e-08
-0.00389609 0.0322751 -1.03101e-07
-2.53812e-08 -1.03101e-07 0.0326819

0.0293754 -0.000644809 2.26363e-08
-0.000644809 0.036905 1.87781e-07
2.26363e-08 1.87781e-07 0.0328494

0.028814 -0.00315261 2.68229e-07
-0.00315261 0.0221411 -6.97445e-09
2.68229e-07 -6.97445e-09 0.0187599

0.029004 0.00384477 -4.12001e-08
0.00384477 0.0255791 1.4239e-07
-4.12001e-08 1.4239e-07 0.0230741

0.0217024 0.001891 1.55839e-07
0.001891 0.0300628 9.57856e-08
1.55839e-07 9.57856e-08 0.0210849

0.0349919 -0.000161303 -1.95728e-08
-0.000161303 0.0273914 2.22913e-07
-1.95728e-08 2.22913e-07 0.0333032

0.0344217 3.33978e-07 1.93857e-07
3.33978e-07 0.0272763 -3.5937e-08
1.93857e-07 -3.5937e-08 0.0320428

0.0291675 0.00304 -1.4389e-07
0.00304 0.0326818 -8.55427e-08
-1.4389e-07 -8.55427e-08 0.0321344

0.0314517 0.00316614 1.39901e-07
0.00316614 0.0342519 -1.26053e-08
1.39901e-07 -1.26053e-08 0.0340598

0.0291703 -0.0032042 7.75809e-08
-0.0032042 0.0332403 -7.60664e-08
7.75809e-08 -7.60664e-08 0.0333807

0.0287752 -8.5777e-05 -3.10088e-08
-8.5777e-05 0.0367061 -2.49479e-08
-3.10088e-08 -2.49479e-08 0.0325273

0.0294657 0.00337568 3.90523e-08
0.00337568 0.0330766 9.38941e-08
3.90523e-08 9.38941e-08 0.0333563

0.0328615 -0.00134662 1.38448e-07
-0.00134662 0.0253632 1.52648e-07
1.38448e-07 1.52648e-07 0.0278304

0.0263565 -0.00425472 -1.25759e-07
-0.00425472 0.0281813 7.92273e-08
-1.25759e-07 7.92273e-08 0.0242689

0.0362996 -0.000331655 6.59362e-08
-0.000331655 0.0293848 -1.61601e-08
6.59362e-08 -1.61601e-08 0.0340296

0.0267823 -0.00444585 1.8708e-07
-0.00444585 0.0251917 8.33451e-08
1.8708e-07 8.33451e-08 0.0209503

0.0309012 0.00250734 -2.28712e-08
0.00250734 0.0350651 -4.98035e-08
-2.28712e-08 -4.98035e-08 0.0340694

0.0351146 -0.00349687 -1.107e-07
-0.00349687 0.0303899 1.26266e-07
-1.107e-07 1.26266e-07 0.0326164

0.0305038 -0.0012498 1.30874e-07
-0.0012498 0.0229796 -5.36879e-08
1.30874e-07 -5.36879e-08 0.0214795

0.0371493 -0.00307699 4.48697e-08
-0.00307699 0.0316548 7.46491e-08
4.48697e-08 7.46491e-08 0.0339895

0.0349713 0.000321883 3.10691e-08
0.000321883 0.0275566 2.31607e-08
3.10691e-08 2.31607e-08 0.0334316

0.0358447 -0.00308819 -1.13089e-07
-0.00308819 0.0332595 1.24762e-07
-1.13089e-07 1.24762e-07 0.034145

0.0349308 -0.00341077 1.25282e-07
-0.00341077 0.0295964 1.59037e-08
1.25282e-07 1.59037e-08 0.0321797

0.0349112 -0.00113371 -1.2544e-07
-0.00113371 0.0278516 -6.89624e-08
-1.2544e-07 -6.89624e-08 0.0323431

0.0314912 -0.00306264 4.67019e-08
-0.00306264 0.0344503 -1.03127e-07
4.67019e-08 -1.03127e-07 0.0341481

0.029237 -0.00407131 -8.38393e-08
-0.00407131 0.0269013 -3.55348e-09
-8.38393e-08 -3.55348e-09 0.0253475

0.0349949 -0.00324377 1.18915e-07
-0.00324377 0.0299168 -9.20575e-09
1.18915e-07 -9.20575e-09 0.0321969

0.0314642 0.00140928 -1.02249e-07
0.00140928 0.0233282 2.99749e-08
-1.02249e-07 2.99749e-08 0.024485

0.0336667 0.00348418 1.06753e-07
0.00348418 0.0334456 2.45477e-08
1.06753e-07 2.45477e-08 0.0336516

0.0298944 -0.00496716 1.03586e-07
-0.00496716 0.0330804 7.51868e-09
1.03586e-07 7.51868e-09 0.0338588

0.0300451 0.00492029 5.38661e-08
0.00492029 0.032942 9.32961e-08
5.38661e-08 9.32961e-08 0.0338257

0.0276899 -0.00374151 -1.4735e-07
-0.00374151 0.0348085 6.82953e-08
-1.4735e-07 6.82953e-08 0.0337683

0.0279278 0.00354692 -1.20508e-07
0.00354692 0.0348368 1.41316e-08
-1.20508e-07 1.41316e-08 0.0337332

0.0364317 -0.00115375 9.11927e-08
-0.00115375 0.0263437 2.51613e-08
9.11927e-08 2.51613e-08 0.0337595

0.0362004 0.00124747 3.00893e-08
0.00124747 0.026565 1.25802e-07
3.00893e-08 1.25802e-07 0.0337223

0.0350362 -0.00130673 -3.33596e-09
-0.00130673 0.0284696 1.14773e-08
-3.33596e-09 1.14773e-08 0.0325775

0.0344381 0.00425901 1.21317e-07
0.00425901 0.034291 -1.29566e-08
1.21317e-07 -1.29566e-08 0.034814

0.0343134 -0.00435688 1.12355e-08
-0.00435688 0.0342824 -3.38519e-08
1.12355e-08 -3.38519e-08 0.0348024

0.0305227 0.00209356 2.87715e-08
0.00209356 0.0381668 -1.51664e-07
2.87715e-08 -1.51664e-07 0.0348512

0.0306657 -0.00205947 5.32699e-08
-0.00205947 0.0380967 1.02034e-07
5.32699e-08 1.02034e-07 0.0348385

0.0395029 -0.000529081 1.0722e-07
-0.000529081 0.0328509 -8.91748e-08
1.0722e-07 -8.91748e-08 0.0352594

0.0397064 0.000513518 -8.84402e-08
0.000513518 0.0326232 4.09261e-08
-8.84402e-08 4.09261e-08 0.0353045

0.0239663 0.00127598 1.77163e-07
0.00127598 0.0320051 -4.46551e-08
1.77163e-07 -4.46551e-08 0.0251857

0.0311638 -0.0032657 1.11079e-07
-0.0032657 0.032242 1.57187e-07
1.11079e-07 1.57187e-07 0.0328035

0.0277818 -0.00478569 -1.58385e-07
-0.00478569 0.0333137 -7.06487e-08
-1.58385e-07 -7.06487e-08 0.0334569

0.0333609 -0.000610457 -4.582e-08
-0.000610457 0.0264046 -1.73483e-07
-4.582e-08 -1.73483e-07 0.0284498

0.0381891 -0.00225171 1.36256e-07
-0.00225171 0.030796 -3.95812e-08
1.36256e-07 -3.95812e-08 0.0348943

0.0382377 0.0021839 -2.00319e-08
0.0021839 0.0309092 -6.11728e-08
-2.00319e-08 -6.11728e-08 0.0349264

0.0360858 1.56157e-05 1.62829e-09
1.56157e-05 0.0251278 7.54636e-08
1.62829e-09 7.54636e-08 0.033472

0.0242423 0.00302925 -1.5865e-08
0.00302925 0.0303994 4.69523e-09
-1.5865e-08 4.69523e-09 0.0242784

0.0276763 0.00475645 1.53202e-08
0.00475645 0.0333145 -8.12628e-08
1.53202e-08 -8.12628e-08 0.0333948

0.0286763 -0.00307595 2.05083e-08
-0.00307595 0.0342631 2.21673e-08
2.05083e-08 2.21673e-08 0.032754

0.0310875 0.00303581 6.89671e-08
0.00303581 0.0251481 -5.73693e-08
6.89671e-08 -5.73693e-08 0.0254686

0.037229 0.00316569 8.34654e-08
0.00316569 0.0315421 3.04689e-08
8.34654e-08 3.04689e-08 0.0340774

0.0292285 -0.00406745 3.34273e-10
-0.00406745 0.0269371 2.52661e-08
3.34273e-10 2.52661e-08 0.0253227

0.0364033 -0.000453878 4.38759e-08
-0.000453878 0.0296931 1.11424e-07
4.38759e-08 1.11424e-07 0.0341326

0.0273466 -0.00449472 -1.51183e-09
-0.00449472 0.0333967 6.72999e-08
-1.51183e-09 6.72999e-08 0.0334435

0.0240392 0.00107909 -8.7387e-08
0.00107909 0.032246 -1.69309e-07
-8.7387e-08 -1.69309e-07 0.0255074

0.0242309 0.00282674 -1.74586e-07
0.00282674 0.0307033 -2.37846e-09
-1.74586e-07 -2.37846e-09 0.0245463

0.0267938 0.00459463 2.35957e-08
0.00459463 0.024043 2.18631e-08
2.35957e-08 2.18631e-08 0.0182145

0.0298527 0.000199975 6.15313e-08
0.000199975 0.0200894 5.04639e-08
6.15313e-08 5.04639e-08 0.0193635

0.0319102 -0.00302387 6.10041e-09
-0.00302387 0.0341638 -3.35896e-08
6.10041e-09 -3.35896e-08 0.0340373

0.0229198 0.00399981 1.24832e-07
0.00399981 0.0276615 4.92291e-09
1.24832e-07 4.92291e-09 0.017654

0.0292116 0.00310095 3.48772e-08
0.00310095 0.0327651 1.85553e-07
3.48772e-08 1.85553e-07 0.0310139

0.0315965 -0.0006946 1.65954e-07
-0.0006946 0.0231613 2.29818e-08
1.65954e-07 2.29818e-08 0.0244862

0.0327631 0.00146473 1.66985e-07
0.00146473 0.0253482 1.17166e-08
1.66985e-07 1.17166e-08 0.0276145

0.0359802 5.62444e-05 -1.86991e-07
5.62444e-05 0.0249608 -7.90508e-08
-1.86991e-07 -7.90508e-08 0.033388

0.0279677 -0.00380525 6.51443e-08
-0.00380525 0.0349507 -9.84512e-08
6.51443e-08 -9.84512e-08 0.0338177

0.0393153 -0.00084406 -2.78012e-07
-0.00084406 0.0416035 3.37597e-07
-2.78012e-07 3.37597e-07 0.0361915

0.0298697 0.00493903 7.14434e-08
0.00493903 0.0329583 1.09362e-07
7.14434e-08 1.09362e-07 0.0337808

0.03029 0.000214577 1.87605e-07
0.000214577 0.0203978 1.71538e-08
1.87605e-07 1.71538e-08 0.017277

0.0266754 -0.00425073 1.32115e-07
-0.00425073 0.0281349 -6.40903e-08
1.32115e-07 -6.40903e-08 0.0244389

0.027748 0.00481554 3.01009e-08
0.00481554 0.0333168 1.0963e-07
3.01009e-08 1.0963e-07 0.0334571

0.0279466 -0.00145857 -1.34584e-07
-0.00145857 0.0350871 -7.9248e-08
-1.34584e-07 -7.9248e-08 0.0314519

0.0244664 -0.00330545 1.69339e-07
-0.00330545 0.030017 -5.66094e-09
1.69339e-07 -5.66094e-09 0.0242184

0.0279926 0.0037797 -2.45341e-08
0.0037797 0.0349123 -4.96822e-08
-2.45341e-08 -4.96822e-08 0.0337886

0.0313633 -0.00340968 4.51225e-08
-0.00340968 0.0270102 9.05392e-09
4.51225e-08 9.05392e-09 0.0269929

0.0402805 0.00140913 8.84022e-08
0.00140913 0.0406183 3.71214e-07
8.84022e-08 3.71214e-07 0.0361719

0.0258826 0.00400314 9.73449e-08
0.00400314 0.0289562 -1.15304e-07
9.73449e-08 -1.15304e-07 0.0245125

0.0366798 0.00110271 -3.11405e-08
0.00110271 0.0263542 -6.47089e-08
-3.11405e-08 -6.47089e-08 0.0338995

0.0333438 0.00398399 1.50627e-07
0.00398399 0.0321175 -9.10819e-08
1.50627e-07 -9.10819e-08 0.0333173

0.0292297 0.00306735 -5.78998e-08
0.00306735 0.032607 1.16648e-07
-5.78998e-08 1.16648e-07 0.0321595

0.0343663 -0.00431085 1.31356e-07
-0.00431085 0.0345068 -1.05167e-07
1.31356e-07 -1.05167e-07 0.0348866

0.0354911 -0.00306361 -1.54191e-07
-0.00306361 0.0305916 3.76351e-08
-1.54191e-07 3.76351e-08 0.0327521

0.0333678 0.0013878 -4.19287e-08
0.0013878 0.0395792 -2.57757e-07
-4.19287e-08 -2.57757e-07 0.0350041

0.0291989 -0.00307948 -8.44639e-08
-0.00307948 0.0328751 -4.76104e-08
-8.44639e-08 -4.76104e-08 0.0313851

0.0292665 -0.00123225 -1.09505e-07
-0.00123225 0.0192881 -5.7923e-10
-1.09505e-07 -5.7923e-10 0.0164131

0.02878 -0.00183249 2.13322e-07
-0.00183249 0.0184149 7.10387e-08
2.13322e-07 7.10387e-08 0.016198

0.0385304 0.00220225 5.1574e-09
0.00220225 0.0332402 -2.53905e-07
5.1574e-09 -2.53905e-07 0.0347645

0.0280577 0.00294536 1.23297e-07
0.00294536 0.0323373 -1.67327e-07
1.23297e-07 -1.67327e-07 0.0295199

0.0320691 0.00383447 -1.05407e-07
0.00383447 0.0309625 -7.02029e-08
-1.05407e-07 -7.02029e-08 0.0314562

0.0320518 8.98854e-05 -7.47722e-08
8.98854e-05 0.0245784 1.03609e-07
-7.47722e-08 1.03609e-07 0.0248896

0.0302393 0.000866025 -1.12982e-07
0.000866025 0.0385823 -1.92618e-07
-1.12982e-07 -1.92618e-07 0.034098

0.0354041 0.00219133 1.01813e-07
0.00219133 0.0293248 1.87112e-07
1.01813e-07 1.87112e-07 0.0328601

0.0248129 -0.00333902 -3.67131e-08
-0.00333902 0.0300082 -1.73073e-07
-3.67131e-08 -1.73073e-07 0.0244716

0.0286523 -0.000337765 -1.8872e-07
-0.000337765 0.0366589 -4.00604e-08
-1.8872e-07 -4.00604e-08 0.0323976

0.0252169 0.00174023 1.80651e-08
0.00174023 0.0320319 -4.94521e-08
1.80651e-08 -4.94521e-08 0.0256856

0.0332828 -0.00390992 -7.00816e-10
-0.00390992 0.0304985 4.67407e-08
-7.00816e-10 4.67407e-08 0.0315943

0.0290667 -0.00389629 3.10204e-08
-0.00389629 0.0282021 8.45451e-08
3.10204e-08 8.45451e-08 0.0257152

0.0261509 0.00409899 -1.22118e-07
0.00409899 0.0285481 -1.59361e-07
-1.22118e-07 -1.59361e-07 0.0243197

0.0452876 -0.00201743 -2.84941e-07
-0.00201743 0.0396065 -1.03451e-07
-2.84941e-07 -1.03451e-07 0.0363684

0.0316684 0.000256399 1.03771e-07
0.000256399 0.039329 -2.39973e-07
1.03771e-07 -2.39973e-07 0.0347708

0.0306184 0.00265099 1.04553e-07
0.00265099 0.0384441 -9.2402e-08
1.04553e-07 -9.2402e-08 0.0349594

0.0387679 0.0020949 1.74244e-08
0.0020949 0.0302237 7.91661e-08
1.74244e-08 7.91661e-08 0.0349442

0.031373 -0.00345085 1.21359e-07
-0.00345085 0.0321425 1.22971e-07
1.21359e-07 1.22971e-07 0.0325746

0.03182 0.00233628 -5.52546e-08
0.00233628 0.0256219 1.25236e-07
-5.52546e-08 1.25236e-07 0.0258813

0.034995 -0.000708136 -2.76408e-07
-0.000708136 0.0415766 1.98065e-07
-2.76408e-07 1.98065e-07 0.0357293

0.0357902 -0.00251869 -1.51956e-07
-0.00251869 0.029552 -7.85612e-09
-1.51956e-07 -7.85612e-09 0.0332598

0.0332993 -0.00204001 1.37809e-07
-0.00204001 0.0266544 1.31871e-08
1.37809e-07 1.31871e-08 0.0286772

0.0252539 0.00151102 -7.25633e-08
0.00151102 0.0322764 -1.68829e-07
-7.25633e-08 -1.68829e-07 0.0259517

0.0268064 -0.00334497 -1.77682e-07
-0.00334497 0.0300113 -1.79736e-08
-1.77682e-07 -1.79736e-08 0.0251889

0.0364794 -0.00336042 8.72443e-08
-0.00336042 0.0352892 -7.62085e-09
8.72443e-08 -7.62085e-09 0.034744

0.0284775 0.00415246 -1.32021e-07
0.00415246 0.0277177 -5.76358e-08
-1.32021e-07 -5.76358e-08 0.0254694

0.0372457 -0.00334549 7.52036e-08
-0.00334549 0.0333239 -8.6523e-08
7.52036e-08 -8.6523e-08 0.0346133

0.0322083 0.00033798 4.97055e-08
0.00033798 0.0248641 -2.03221e-07
4.97055e-08 -2.03221e-07 0.0254392

0.019162 -0.0036894 1.93408e-07
-0.0036894 0.0275275 9.17213e-08
1.93408e-07 9.17213e-08 0.0163118

0.0292117 -0.00380395 -1.21914e-07
-0.00380395 0.0281945 -8.68989e-08
-1.21914e-07 -8.68989e-08 0.0258094

0.0230471 0.00412769 -8.45098e-08
0.00412769 0.0280218 8.10122e-08
-8.45098e-08 8.10122e-08 0.0175932

0.0296926 -0.00155952 -3.52021e-08
-0.00155952 0.037535 -1.29017e-08
-3.52021e-08 -1.29017e-08 0.0336502

0.0243616 -0.00179376 1.63911e-07
-0.00179376 0.0318743 -5.31569e-08
1.63911e-07 -5.31569e-08 0.0254495

0.0424378 -0.0032341 -1.87491e-07
-0.0032341 0.0423769 4.28592e-08
-1.87491e-07 4.28592e-08 0.0363768

0.0263382 0.00309122 2.62263e-08
0.00309122 0.0307035 -2.32438e-09
2.62263e-08 -2.32438e-09 0.0254794

0.0334789 -0.00432316 -1.86482e-07
-0.00432316 0.0326612 9.66353e-08
-1.86482e-07 9.66353e-08 0.0335681

0.024082 -0.0015508 -1.00254e-07
-0.0015508 0.0318889 3.26245e-08
-1.00254e-07 3.26245e-08 0.0251783

0.0362244 -0.00253879 -6.75128e-08
-0.00253879 0.0295128 1.06534e-07
-6.75128e-08 1.06534e-07 0.033521

0.026675 0.00310484 -2.25105e-07
0.00310484 0.0303963 8.04586e-09
-2.25105e-07 8.04586e-09 0.0253147

0.034345 -0.000653909 -1.3407e-08
-0.000653909 0.0272783 -3.7958e-08
-1.3407e-08 -3.7958e-08 0.0305793

0.0188913 -0.0038717 2.65713e-07
-0.0038717 0.0298031 -7.65453e-08
2.65713e-07 -7.65453e-08 0.0129619

0.0280007 0.00275477 1.45579e-07
0.00275477 0.0326307 -3.82484e-09
1.45579e-07 -3.82484e-09 0.0305752

0.0314391 -0.00251251 -5.77989e-08
-0.00251251 0.0247235 -1.29967e-07
-5.77989e-08 -1.29967e-07 0.0254073

0.039119 -0.00286933 1.72817e-10
-0.00286933 0.0322226 -1.35404e-07
1.72817e-10 -1.35404e-07 0.0349382

0.0287544 0.00412408 -6.53797e-08
0.00412408 0.0273013 1.0086e-07
-6.53797e-08 1.0086e-07 0.0252568

0.0313628 -0.00391941 1.1228e-07
-0.00391941 0.0285432 -9.17267e-08
1.1228e-07 -9.17267e-08 0.0287323

0.0354096 0.00276414 -7.99431e-08
0.00276414 0.0308572 3.85344e-08
-7.99431e-08 3.85344e-08 0.0330406

0.0297746 -0.00370347 -1.03295e-07
-0.00370347 0.0329389 -2.11358e-08
-1.03295e-07 -2.11358e-08 0.0333437

0.0270565 -0.00341046 8.48663e-08
-0.00341046 0.029984 -1.6389e-07
8.48663e-08 -1.6389e-07 0.0253986

0.028442 0.0037714 -9.00351e-08
0.0037714 0.0289411 -1.20741e-07
-9.00351e-08 -1.20741e-07 0.0258884

0.0313727 0.00341339 2.81247e-08
0.00341339 0.0269005 8.79416e-08
2.81247e-08 8.79416e-08 0.0269671

0.0365374 -0.00194431 -5.61355e-08
-0.00194431 0.0306263 1.30706e-07
-5.61355e-08 1.30706e-07 0.0336368

0.0255348 -0.00216329 1.60415e-08
-0.00216329 0.031803 -6.57526e-08
1.60415e-08 -6.57526e-08 0.0258548

0.0347006 -0.00231405 -2.19597e-08
-0.00231405 0.0283354 1.02102e-08
-2.19597e-08 1.02102e-08 0.0314571

0.0341869 0.00222336 -1.44243e-07
0.00222336 0.027433 6.66984e-08
-1.44243e-07 6.66984e-08 0.0306049

0.0336457 -0.00124574 -3.97354e-08
-0.00124574 0.0393004 -2.68779e-07
-3.97354e-08 -2.68779e-07 0.0349284

0.0320733 -0.00174684 8.86528e-08
-0.00174684 0.0253313 1.50311e-07
8.86528e-08 1.50311e-07 0.0258722

0.0250027 7.97317e-05 9.58209e-08
7.97317e-05 0.0331526 8.82291e-08
9.58209e-08 8.82291e-08 0.0268622

0.0332482 0.00242876 1.4349e-07
0.00242876 0.0271946 -2.63994e-08
1.4349e-07 -2.63994e-08 0.0289231

0.0311189 0.00359893 3.12046e-08
0.00359893 0.0272936 -1.33909e-07
3.12046e-08 -1.33909e-07 0.0271236

0.0252964 -0.00204123 1.94239e-07
-0.00204123 0.0318656 3.94271e-08
1.94239e-07 3.94271e-08 0.025612

0.025202 -0.000154733 -1.08536e-07
-0.000154733 0.0332933 -1.37308e-07
-1.08536e-07 -1.37308e-07 0.027145

0.0354144 0.00385815 -8.12241e-09
0.00385815 0.0329962 -2.52641e-07
-8.12241e-09 -2.52641e-07 0.0338964

0.0275868 -0.00143092 -1.73163e-07
-0.00143092 0.0353432 1.16496e-07
-1.73163e-07 1.16496e-07 0.031443

0.0312351 -0.00348392 -9.16133e-08
-0.00348392 0.0269784 2.18253e-08
-9.16133e-08 2.18253e-08 0.0270107

0.0312979 0.00277264 -4.10788e-08
0.00277264 0.0249229 -3.07939e-08
-4.10788e-08 -3.07939e-08 0.0252471

0.0345836 0.00311857 -1.34054e-07
0.00311857 0.0293876 8.5916e-08
-1.34054e-07 8.5916e-08 0.0317968

0.0279923 0.000716782 -2.10506e-07
0.000716782 0.0360408 5.25243e-09
-2.10506e-07 5.25243e-09 0.0318191

0.0287172 0.0037814 9.1982e-08
0.0037814 0.0285602 -1.64004e-07
9.1982e-08 -1.64004e-07 0.0257288

0.0367911 0.00305742 2.00136e-08
0.00305742 0.0361261 -1.91302e-07
2.00136e-08 -1.91302e-07 0.034908

0.0226809 -0.00754562 -1.11077e-07
-0.00754562 0.0186883 -2.02684e-07
-1.11077e-07 -2.02684e-07 0.0108455

0.0332925 -0.00328766 9.38169e-08
-0.00328766 0.0286332 -9.33623e-08
9.38169e-08 -9.33623e-08 0.030125

0.0207275 0.000913336 1.47965e-07
0.000913336 0.0300323 8.06808e-08
1.47965e-07 8.06808e-08 0.018347

0.0313014 -0.00378168 1.56654e-07
-0.00378168 0.0292323 -1.24625e-08
1.56654e-07 -1.24625e-08 0.0290325

0.0015396 -0.00651895 4.21011e-08
-0.00651895 0.0275691 -1.84457e-07
4.21011e-08 -1.84457e-07 0.00290841

0.00147 0.0063685 -2.60218e-08
0.0063685 0.0275869 -1.14009e-07
-2.60218e-08 -1.14009e-07 0.0030014

0.0119849 0.0145053 1.13979e-07
0.0145053 0.0175329 1.42926e-07
1.13979e-07 1.42926e-07 0.00277132

0.0121662 -0.014496 9.79724e-08
-0.014496 0.0172244 -1.22853e-07
9.79724e-08 -1.22853e-07 0.00280393

0.0293414 -0.000164095 1.17809e-07
-0.000164095 0 0
1.17809e-07 0 0.00295275

0.0235929 -0.0112829 -1.22096e-08
-0.0112829 0.0053956 5.87985e-09
-1.22096e-08 5.87985e-09 0.00297844

0.0236347 0.0113491 -1.76274e-07
0.0113491 0.0054497 -8.4889e-08
-1.76274e-07 -8.4889e-08 0.00303961

0.0369119 0.00191147 -1.57381e-07
0.00191147 0.0302433 1.63374e-08
-1.57381e-07 1.63374e-08 0.0338789

0.0387059 0.00341007 1.81254e-07
0.00341007 0.0366181 2.40758e-08
1.81254e-07 2.40758e-08 0.0355795

0.0344169 0.000872532 -1.27019e-07
0.000872532 0.0274579 -1.99253e-07
-1.27019e-07 -1.99253e-07 0.031689

0.0328741 0.00285022 7.96741e-08
0.00285022 0.0268904 8.8537e-08
7.96741e-08 8.8537e-08 0.0286475

0.0257018 0.00231341 2.12815e-08
0.00231341 0.0323685 -4.31122e-08
2.12815e-08 -4.31122e-08 0.0276367

0.0307142 0.00376912 -2.36459e-08
0.00376912 0.0276772 -5.26724e-08
-2.36459e-08 -5.26724e-08 0.0271188

0.0333072 -0.00390324 -3.26133e-08
-0.00390324 0.0304672 7.90336e-10
-3.26133e-08 7.90336e-10 0.0316311

0.0309746 0.0036546 2.00405e-08
0.0036546 0.027288 1.02195e-07
2.00405e-08 1.02195e-07 0.0269264

0.0249881 -0.0003714 -7.37183e-08
-0.0003714 0.0331236 8.27903e-08
-7.37183e-08 8.27903e-08 0.0268444

0.0385488 -0.00348467 8.35803e-08
-0.00348467 0.0368815 1.42678e-07
8.35803e-08 1.42678e-07 0.0355851

0.0251766 -0.000635539 1.32942e-07
-0.000635539 0.033212 -1.16818e-07
1.32942e-07 -1.16818e-07 0.0271039

0.0360193 0.00304752 -1.67721e-07
0.00304752 0.0330121 1.73496e-07
-1.67721e-07 1.73496e-07 0.0340992

0.0296244 0.00347584 5.63101e-08
0.00347584 0.0248473 -3.63443e-08
5.63101e-08 -3.63443e-08 0.0230238

0.0304975 -0.00171385 1.32422e-07
-0.00171385 0.0375139 -1.35814e-07
1.32422e-07 -1.35814e-07 0.0347378

0.033922 0.00180449 -2.92188e-07
0.00180449 0.0271828 -3.0538e-08
-2.92188e-07 -3.0538e-08 0.0303218

0.0312026 -0.00392055 2.38178e-08
-0.00392055 0.0285325 -1.71729e-07
2.38178e-08 -1.71729e-07 0.0286157

0.031585 -0.00322154 -1.18091e-07
-0.00322154 0.0266929 -2.911e-08
-1.18091e-07 -2.911e-08 0.027049

0.0384808 -0.00214168 1.49255e-07
-0.00214168 0.0334181 5.48328e-08
1.49255e-07 5.48328e-08 0.0347462

0.0326827 0.00366418 1.78859e-07
0.00366418 0.0292334 -8.78923e-08
1.78859e-07 -8.78923e-08 0.0301563

0.0326464 0.00313772 1.58254e-07
0.00313772 0.0272536 -1.28962e-07
1.58254e-07 -1.28962e-07 0.0287893

0.0269564 -0.000365233 1.78538e-07
-0.000365233 0.0349884 3.96096e-08
1.78538e-07 3.96096e-08 0.0301694

0.0259009 0.000765675 5.83676e-08
0.000765675 0.0340052 2.23883e-07
5.83676e-08 2.23883e-07 0.0288244

0.0327798 0.000345463 -2.71247e-08
0.000345463 0.0248629 -2.08286e-07
-2.71247e-08 -2.08286e-07 0.0274451

0.0313888 -0.000944821 -1.68922e-07
-0.000944821 0.023005 -6.71687e-08
-1.68922e-07 -6.71687e-08 0.0238933

0.0308823 0.00398558 -9.3752e-08
0.00398558 0.0288074 -1.05806e-07
-9.3752e-08 -1.05806e-07 0.0286255

0.0331193 -0.0034316 -1.14081e-07
-0.0034316 0.028542 -1.7332e-07
-1.14081e-07 -1.7332e-07 0.0299707

0.0364138 -0.00282382 -1.23488e-07
-0.00282382 0.0327341 -7.94099e-08
-1.23488e-07 -7.94099e-08 0.0341455

0.0292076 -0.00412789 -1.56542e-07
-0.00412789 0.0291939 -3.44964e-08
-1.56542e-07 -3.44964e-08 0.0277553

0.0269734 -0.00362069 -1.03697e-07
-0.00362069 0.0304665 -1.42205e-07
-1.03697e-07 -1.42205e-07 0.0272147

0.0283277 0.0038998 7.56048e-08
0.0038998 0.0299027 2.08494e-07
7.56048e-08 2.08494e-07 0.0277534

0.0259026 -0.00124896 7.93649e-08
-0.00124896 0.0336155 -1.58907e-07
7.93649e-08 -1.58907e-07 0.0285173

0.0266559 -0.000202073 1.78469e-07
-0.000202073 0.0349147 2.34829e-08
1.78469e-07 2.34829e-08 0.0299213

0.0277637 0.000753048 1.61633e-07
0.000753048 0.0360403 2.43526e-09
1.61633e-07 2.43526e-09 0.0316596

0.0262486 -0.00274968 -1.93387e-08
-0.00274968 0.0319646 -1.30701e-08
-1.93387e-08 -1.30701e-08 0.0277121

0.0345841 0.00317587 -3.50398e-08
0.00317587 0.0291697 -1.00543e-07
-3.50398e-08 -1.00543e-07 0.0316358

0.033911 -0.00126122 -3.77094e-09
-0.00126122 0.0269317 -1.40974e-08
-3.77094e-09 -1.40974e-08 0.0302032

0.0257916 0.00097423 -6.46581e-08
0.00097423 0.033831 -1.98576e-07
-6.46581e-08 -1.98576e-07 0.0285433

0.0278254 -0.00127004 8.53588e-08
-0.00127004 0.035399 1.6925e-07
8.53588e-08 1.6925e-07 0.0313674

0.0272944 -0.00213725 -1.29665e-07
-0.00213725 0.0336586 2.09159e-07
-1.29665e-07 2.09159e-07 0.0302271

0.0327785 -0.00107734 2.70383e-07
-0.00107734 0.0253212 -1.09344e-07
2.70383e-07 -1.09344e-07 0.0272557

0.0333167 -0.00427132 -7.75367e-08
-0.00427132 0.0323821 1.60448e-07
-7.75367e-08 1.60448e-07 0.0335306

0.0264901 0.00122004 1.15087e-07
0.00122004 0.033837 -1.96366e-07
1.15087e-07 -1.96366e-07 0.0288175

0.0398121 -0.0024317 1.67108e-08
-0.0024317 0.0352198 -5.14446e-09
1.67108e-08 -5.14446e-09 0.0354623

0.0188896 0.00316485 1.35901e-07
0.00316485 0.0278772 1.01678e-07
1.35901e-07 1.01678e-07 0.0162736

0.0338173 -0.00352278 -1.59894e-07
-0.00352278 0.0334964 2.93067e-08
-1.59894e-07 2.93067e-08 0.0337276

0.0353451 -0.00399947 -1.41958e-07
-0.00399947 0.0330476 2.27972e-08
-1.41958e-07 2.27972e-08 0.0339054

0.0266871 -9.06842e-05 -1.95521e-07
-9.06842e-05 0.0349198 1.49053e-08
-1.95521e-07 1.49053e-08 0.0299294

0.0332446 -0.00217632 1.65047e-07
-0.00217632 0.0271544 9.8725e-08
1.65047e-07 9.8725e-08 0.0289041

0.0293489 0.00168465 -6.07334e-08
0.00168465 0.035821 2.3512e-07
-6.07334e-08 2.3512e-07 0.0328812

0.013208 -0.000379168 -3.01127e-07
-0.000379168 0.0283634 7.19351e-08
-3.01127e-07 7.19351e-08 0.0111523

0.0271151 0.00186879 1.98511e-07
0.00186879 0.0340631 -3.97669e-08
1.98511e-07 -3.97669e-08 0.0303076

0.0311106 -0.00385877 1.03791e-07
-0.00385877 0.0291555 -1.053e-08
1.03791e-07 -1.053e-08 0.0288078

0.0186205 0.0032048 8.87072e-09
0.0032048 0.0301411 -2.47586e-07
8.87072e-09 -2.47586e-07 0.0131275

0.0426015 0.00351785 -3.17659e-07
0.00351785 0.0418494 -5.03997e-07
-3.17659e-07 -5.03997e-07 0.0364815

0.0432056 -0.0037476 1.81814e-07
-0.0037476 0.0414175 -1.72198e-07
1.81814e-07 -1.72198e-07 0.0364639

0.0310666 -0.00399082 1.51267e-07
-0.00399082 0.0304728 -3.66574e-09
1.51267e-07 -3.66574e-09 0.0304624

0.0289234 -0.0040643 8.8632e-08
-0.0040643 0.029152 -1.06554e-08
8.8632e-08 -1.06554e-08 0.0275956

0.0330524 0.00272716 2.64127e-08
0.00272716 0.0275298 8.15104e-08
2.64127e-08 8.15104e-08 0.0290768

0.032781 0.00196025 5.16035e-08
0.00196025 0.0255923 1.29487e-07
5.16035e-08 1.29487e-07 0.0278241

0.0464016 0.000418534 4.80777e-07
0.000418534 0.046356 -8.94028e-08
4.80777e-07 -8.94028e-08 0.0366958

0.0469183 -0.00095158 8.34476e-07
-0.00095158 0.0457687 -3.75558e-07
8.34476e-07 -3.75558e-07 0.0367668

0.0348013 0.00063854 -9.67201e-08
0.00063854 0.0275743 -2.25741e-07
-9.67201e-08 -2.25741e-07 0.0322179

0.0277531 0.000882504 1.72406e-07
0.000882504 0.0355724 4.92503e-09
1.72406e-07 4.92503e-09 0.0313499

0.0276088 0.000882754 -2.08081e-07
0.000882754 0.0355725 -5.94413e-09
-2.08081e-07 -5.94413e-09 0.031246

0.0234599 0.00740033 -7.12176e-08
0.00740033 0.0183027 1.91495e-07
-7.12176e-08 1.91495e-07 0.0109021

0.0272483 -0.00367574 -1.04306e-07
-0.00367574 0.0303486 1.1729e-07
-1.04306e-07 1.1729e-07 0.0273207

0.0365682 0.00239154 -8.70985e-08
0.00239154 0.0295775 -7.35754e-08
-8.70985e-08 -7.35754e-08 0.0337857

0.0332753 0.00124756 1.03059e-07
0.00124756 0.0265052 3.06283e-08
1.03059e-07 3.06283e-08 0.028433

0.0291537 -0.00349263 2.24107e-08
-0.00349263 0.0304727 -1.31832e-07
2.24107e-08 -1.31832e-07 0.0281744

0.0328121 -0.00264787 8.6507e-08
-0.00264787 0.0267291 -2.24539e-08
8.6507e-08 -2.24539e-08 0.0285879

0.0224609 0.00761313 -2.32126e-07
0.00761313 0.0185912 2.66286e-07
-2.32126e-07 2.66286e-07 0.0109045

0.0331461 0.00410261 6.70009e-08
0.00410261 0.0326391 1.03857e-07
6.70009e-08 1.03857e-07 0.0331828

0.0258913 -0.00257843 2.04028e-07
-0.00257843 0.0320256 2.39967e-08
2.04028e-07 2.39967e-08 0.0275085

0.0324838 0.00378595 7.42776e-09
0.00378595 0.0292693 1.44815e-07
7.42776e-09 1.44815e-07 0.0301481

0.0268171 -0.000543601 -1.87144e-07
-0.000543601 0.0349534 2.23007e-09
-1.87144e-07 2.23007e-09 0.0301391

0.026991 0.00256343 2.58307e-07
0.00256343 0.0324497 -5.34296e-08
2.58307e-07 -5.34296e-08 0.0282876

0.0305277 0.00399121 7.77312e-08
0.00399121 0.0293244 1.51168e-07
7.77312e-08 1.51168e-07 0.0287763

0.0276098 -0.00293746 -1.79928e-07
-0.00293746 0.0318551 -4.15637e-08
-1.79928e-07 -4.15637e-08 0.0282502

0.0294572 -0.00357596 -6.64837e-08
-0.00357596 0.0303523 1.19845e-07
-6.64837e-08 1.19845e-07 0.0283061

0.0181383 0.0014256 -2.18488e-08
0.0014256 0.0280375 2.99705e-07
-2.18488e-08 2.99705e-07 0.0131281

0.0234747 -0.00429426 -7.79845e-08
-0.00429426 0.0275572 9.92182e-08
-7.79845e-08 9.92182e-08 0.0177241

0.0262065 -0.00152597 -9.35529e-08
-0.00152597 0.0336251 2.1241e-07
-9.35529e-08 2.1241e-07 0.028753

0.0330251 0.00347512 1.25013e-07
0.00347512 0.0288789 -1.24615e-07
1.25013e-07 -1.24615e-07 0.03007

0.0303229 0.00385765 2.95884e-08
0.00385765 0.0298879 2.05626e-07
2.95884e-08 2.05626e-07 0.0289914

0.0274156 -0.00280074 -2.56979e-08
-0.00280074 0.0319853 7.3202e-09
-2.56979e-08 7.3202e-09 0.0281401

0.0265556 -0.00154095 1.0704e-07
-0.00154095 0.033584 -1.57526e-07
1.0704e-07 -1.57526e-07 0.0287473

0.0309578 0.0037186 -1.88358e-07
0.0037186 0.0295646 7.98656e-08
-1.88358e-07 7.98656e-08 0.0289423

0.0267604 -0.00181618 8.9327e-08
-0.00181618 0.0334755 2.51603e-07
8.9327e-08 2.51603e-07 0.0289554

0.0191666 0.00355474 -1.75537e-07
0.00355474 0.0276089 -2.89231e-08
-1.75537e-07 -2.89231e-08 0.0162928

0.0308743 -0.000534688 9.61866e-08
-0.000534688 0.0388203 -7.67409e-08
9.61866e-08 -7.67409e-08 0.0342954

0.0286575 0.00404812 2.21338e-07
0.00404812 0.0295197 3.40037e-08
2.21338e-07 3.40037e-08 0.0277156

0.0355813 0.00197521 1.62878e-07
0.00197521 0.029504 7.05146e-08
1.62878e-07 7.05146e-08 0.0328437

0.03626 -0.00211508 -1.47423e-07
-0.00211508 0.0297562 -1.474e-09
-1.47423e-07 -1.474e-09 0.0332189

0.0285116 -0.00309591 -1.20359e-07
-0.00309591 0.0185696 -5.23298e-08
-1.20359e-07 -5.23298e-08 0.0157305

0.0283544 -0.0027905 -2.36694e-07
-0.0027905 0.0327763 6.52755e-09
-2.36694e-07 6.52755e-09 0.0305727

0.0291922 0.00350091 -1.3919e-07
0.00350091 0.031601 -1.05808e-07
-1.3919e-07 -1.05808e-07 0.0304885

0.0349608 -0.00290743 7.60385e-08
-0.00290743 0.0376764 -2.08682e-07
7.60385e-08 -2.08682e-07 0.035237

0.0394606 0.0018849 2.04248e-07
0.0018849 0.0446079 2.74536e-08
2.04248e-07 2.74536e-08 0.0364338

0.0449441 0.00129033 2.72388e-07
0.00129033 0.0391164 -8.18694e-08
2.72388e-07 -8.18694e-08 0.0364157

0.0355609 0.00434543 -1.46233e-07
0.00434543 0.0351358 1.8933e-07
-1.46233e-07 1.8933e-07 0.0350043

0.0265727 0.00338795 1.5193e-07
0.00338795 0.0310075 2.26086e-07
1.5193e-07 2.26086e-07 0.0272569

0.0330408 0.00349735 5.66125e-08
0.00349735 0.028668 4.73538e-08
5.66125e-08 4.73538e-08 0.0300511

0.0220606 0.00576454 2.2062e-08
0.00576454 0.0242383 1.65947e-07
2.2062e-08 1.65947e-07 0.0160729

0.0386186 -0.00151204 1.519e-07
-0.00151204 0.0444325 -2.13971e-07
1.519e-07 -2.13971e-07 0.0363629

0.0460479 -0.000465779 3.56945e-08
-0.000465779 0.0454391 9.33763e-08
3.56945e-08 9.33763e-08 0.0366918

0.0451798 -3.09381e-05 2.29812e-07
-3.09381e-05 0.0463023 1.98508e-07
2.29812e-07 1.98508e-07 0.0366738

0.0176414 -0.00679513 3.72915e-07
-0.00679513 0.0231089 1.39178e-07
3.72915e-07 1.39178e-07 0.0107389

0.0392931 -0.00155625 -1.55705e-07
-0.00155625 0.0387151 1.51247e-08
-1.55705e-07 1.51247e-08 0.0358545

0.0383971 0.00117648 -3.95591e-07
0.00117648 0.0415173 6.4359e-08
-3.95591e-07 6.4359e-08 0.0361258

0.033176 -0.00343582 2.32089e-09
-0.00343582 0.0282207 9.53169e-08
2.32089e-09 9.53169e-08 0.0299045

0.0318454 0.000140397 -7.73266e-08
0.000140397 0.0386731 -5.91167e-08
-7.73266e-08 -5.91167e-08 0.0344514

0.028578 -0.00266044 5.52324e-08
-0.00266044 0.0333818 -2.13828e-08
5.52324e-08 -2.13828e-08 0.0315904

0.0356629 0.000831768 1.99628e-07
0.000831768 0.0273789 -3.38789e-09
1.99628e-07 -3.38789e-09 0.0330012

0.0288769 0.00204434 2.12572e-07
0.00204434 0.0368177 2.29652e-07
2.12572e-07 2.29652e-07 0.0336707

0.0298703 0.000946457 -3.54702e-08
0.000946457 0.0373893 2.31448e-07
-3.54702e-08 2.31448e-07 0.0333645

0.0344028 0.00268516 4.61298e-08
0.00268516 0.0288526 4.87481e-08
4.61298e-08 4.87481e-08 0.0312274

0.0132795 -0.000409487 3.0036e-07
-0.000409487 0.028124 -1.32444e-07
3.0036e-07 -1.32444e-07 0.0112018

0.0309659 -0.00362627 -1.77703e-07
-0.00362627 0.0309165 7.82247e-08
-1.77703e-07 7.82247e-08 0.0306107

0.0329298 -0.00344325 -4.26118e-08
-0.00344325 0.0320221 3.65466e-08
-4.26118e-08 3.65466e-08 0.0325804

0.0335722 -0.00415943 -1.5395e-07
-0.00415943 0.0325353 2.22249e-07
-1.5395e-07 2.22249e-07 0.0337367

0.0265632 0.00414889 1.06402e-07
0.00414889 0.0176921 -9.34412e-08
1.06402e-07 -9.34412e-08 0.0126057

0.0388293 -0.00269644 6.49342e-08
-0.00269644 0.0395761 -9.44979e-08
6.49342e-08 -9.44979e-08 0.0359592

0.0230836 0.00692105 -3.86284e-08
0.00692105 0.025503 8.44619e-08
-3.86284e-08 8.44619e-08 0.01261

0.030876 -0.00281766 3.28502e-07
-0.00281766 0.0348086 6.83134e-08
3.28502e-07 6.83134e-08 0.0339573

0.0354131 0.00193639 1.21453e-07
0.00193639 0.028467 1.54866e-07
1.21453e-07 1.54866e-07 0.0323457

0.0318227 -0.00189347 -8.56004e-08
-0.00189347 0.0249517 -2.04652e-07
-8.56004e-08 -2.04652e-07 0.0253965

0.0292935 0.00315935 -1.56031e-07
0.00315935 0.0327331 -5.69089e-08
-1.56031e-07 -5.69089e-08 0.0312808

0.0344383 0.00268873 -5.64178e-08
0.00268873 0.0286356 2.92147e-07
-5.64178e-08 2.92147e-07 0.031222

0.0325195 0.00149904 5.66025e-08
0.00149904 0.0403744 1.38753e-07
5.66025e-08 1.38753e-07 0.0353375

0.0319416 -0.00415461 2.02401e-07
-0.00415461 0.0312024 -1.22296e-07
2.02401e-07 -1.22296e-07 0.0318118

0.0396771 0.00265576 -1.27861e-07
0.00265576 0.0331992 -8.62795e-08
-1.27861e-07 -8.62795e-08 0.0353169

0.0279726 -0.00241865 -1.57456e-07
-0.00241865 0.0335523 2.04805e-07
-1.57456e-07 2.04805e-07 0.0304717

0.0293519 0.000558541 -1.17566e-07
0.000558541 0.037313 2.22733e-07
-1.17566e-07 2.22733e-07 0.0332537

0.0419442 0.00133765 7.66962e-08
0.00133765 0.0371007 3.76445e-08
7.66962e-08 3.76445e-08 0.0361172

0.0420984 -0.00114794 -1.12949e-07
-0.00114794 0.037327 1.22412e-07
-1.12949e-07 1.22412e-07 0.036099

0.0283845 0.00236921 2.80324e-07
0.00236921 0.0181823 -1.19623e-07
2.80324e-07 -1.19623e-07 0.0159505

0.0350271 0.00106124 1.10049e-07
0.00106124 0.0285673 1.5562e-07
1.10049e-07 1.5562e-07 0.0330602

0.0128674 0.000923332 2.77157e-07
0.000923332 0.0316275 3.29298e-08
2.77157e-07 3.29298e-08 0.00612198

0.013163 -0.0013882 -2.98431e-07
-0.0013882 0.0321333 1.27936e-07
-2.98431e-07 1.27936e-07 0.0061123

0.0152693 0.00715451 1.35865e-07
0.00715451 0.0284539 6.72848e-08
1.35865e-07 6.72848e-08 0.00598445

0.0347656 -0.00382129 -5.90068e-08
-0.00382129 0.0312691 -1.60094e-07
-5.90068e-08 -1.60094e-07 0.0329403

0.0155813 -0.00619461 -2.14155e-07
-0.00619461 0.0261541 3.16061e-07
-2.14155e-07 3.16061e-07 0.0104724

0.0155134 -0.00708708 2.2455e-07
-0.00708708 0.0274245 3.28138e-07
2.2455e-07 3.28138e-07 0.00591422

0.0284275 0.00342589 6.28731e-08
0.00342589 0.0310077 2.25939e-07
6.28731e-08 2.25939e-07 0.0281539

0.0251943 0.00932619 -2.74159e-07
0.00932619 0.0190215 2.16994e-07
-2.74159e-07 2.16994e-07 0.00593412

0.0365386 0.00173172 -1.71454e-07
0.00173172 0.0385525 -2.8555e-08
-1.71454e-07 -2.8555e-08 0.0354762

0.0395365 2.55675e-05 9.85612e-08
2.55675e-05 0.0355406 -1.85906e-07
9.85612e-08 -1.85906e-07 0.0354568

0.0261082 -0.00924472 -1.40378e-07
-0.00924472 0.0188133 -1.73251e-07
-1.40378e-07 -1.73251e-07 0.00588829

0.0276912 -0.0030652 -1.50858e-07
-0.0030652 0.0320964 2.17417e-07
-1.50858e-07 2.17417e-07 0.0296241

0.0262565 0.00441835 4.35795e-08
0.00441835 0.0201589 1.48404e-07
4.35795e-08 1.48404e-07 0.0130453

0.0172799 0.00797341 4.90923e-08
0.00797341 0.0271499 -9.20671e-08
4.90923e-08 -9.20671e-08 0.00598813

0.0181969 0.00275535 2.1235e-08
0.00275535 0.027591 2.92419e-07
2.1235e-08 2.92419e-07 0.0128507

0.0173048 -0.00827657 1.58601e-08
-0.00827657 0.0271534 -1.76857e-07
1.58601e-08 -1.76857e-07 0.005814

0.0179336 -0.00157095 -3.89465e-08
-0.00157095 0.0280066 5.26516e-08
-3.89465e-08 5.26516e-08 0.0126911

0.0370508 0.000923093 -2.64837e-08
0.000923093 0.041301 1.77984e-07
-2.64837e-08 1.77984e-07 0.035811

0.0221322 -0.00585547 4.58626e-08
-0.00585547 0.0236659 -5.02513e-08
4.58626e-08 -5.02513e-08 0.0151596

0.0157007 0.00598653 1.21293e-07
0.00598653 0.0259035 6.21683e-08
1.21293e-07 6.21683e-08 0.0107507

0.0302097 0.00473028 -4.88741e-08
0.00473028 0.0143498 -2.89345e-07
-4.88741e-08 -2.89345e-07 0.00611612

0.0329395 -0.00384954 -1.19608e-07
-0.00384954 0.0301253 3.1128e-07
-1.19608e-07 3.1128e-07 0.0310525

0.0308898 0.00169393 -1.05265e-07
0.00169393 0.0368442 2.43429e-07
-1.05265e-07 2.43429e-07 0.0339514

0.0260911 -0.00484414 1.10337e-08
-0.00484414 0.0191979 1.911e-07
1.10337e-08 1.911e-07 0.0126956

0.0330018 -0.00378601 -2.36718e-07
-0.00378601 0.0300763 3.36206e-08
-2.36718e-07 3.36206e-08 0.0311288

0.0300199 -0.00452008 -6.8773e-09
-0.00452008 0.013054 2.16588e-07
-6.8773e-09 2.16588e-07 0.00603756

0.0324744 -0.00372764 1.51224e-07
-0.00372764 0.0313086 -1.97436e-07
1.51224e-07 -1.97436e-07 0.0319806

0.0280921 -0.00331149 -2.3047e-07
-0.00331149 0.0320053 2.44933e-08
-2.3047e-07 2.44933e-08 0.0296266

0.0234443 0.00874398 -1.70281e-07
0.00874398 0.0204837 1.1028e-07
-1.70281e-07 1.1028e-07 0.00602646

0.0182004 -0.00292096 -3.83831e-07
-0.00292096 0.0268674 -8.72852e-08
-3.83831e-07 -8.72852e-08 0.0122705

0.0233155 -0.00901953 -1.78679e-09
-0.00901953 0.0201528 -1.93859e-07
-1.78679e-09 -1.93859e-07 0.00588424

0.0170831 0.00640862 -3.97826e-08
0.00640862 0.0235671 -1.58219e-07
-3.97826e-08 -1.58219e-07 0.0108316

0.0308274 -0.00396051 -1.01219e-07
-0.00396051 0.0301616 3.09377e-07
-1.01219e-07 3.09377e-07 0.0300867

0.0389184 -0.00195898 -9.26064e-09
-0.00195898 0.0369417 -2.99863e-08
-9.26064e-09 -2.99863e-08 0.0355005

0.045541 0.00150542 2.07654e-07
0.00150542 0.0449523 2.83264e-07
2.07654e-07 2.83264e-07 0.03662

0.0435642 -0.00071153 -3.09554e-07
-0.00071153 0.0462302 -3.32563e-08
-3.09554e-07 -3.32563e-08 0.0365857

0.0286167 0.00171576 8.58641e-08
0.00171576 0.0355673 -1.62672e-07
8.58641e-08 -1.62672e-07 0.0323908

0.0453362 -0.00144678 -5.92695e-08
-0.00144678 0.0449791 -3.46536e-07
-5.92695e-08 -3.46536e-07 0.0366377

0.0438085 0.000568076 -1.2881e-08
0.000568076 0.0465049 1.88441e-07
-1.2881e-08 1.88441e-07 0.0366188

0.0466785 0.000991198 -1.31252e-07
0.000991198 0.0433773 4.99813e-08
-1.31252e-07 4.99813e-08 0.036594

0.0397508 -0.00163945 -2.72347e-07
-0.00163945 0.0460759 -3.13113e-07
-2.72347e-07 -3.13113e-07 0.0364837

0.0190546 -0.00388766 -3.92196e-07
-0.00388766 0.027232 -7.28244e-08
-3.92196e-07 -7.28244e-08 0.0154718

0.0421415 -0.0017505 -1.71758e-07
-0.0017505 0.0367264 2.78069e-09
-1.71758e-07 2.78069e-09 0.0360057

0.0359654 -0.00457326 1.24408e-08
-0.00457326 0.0351516 4.26464e-08
1.24408e-08 4.26464e-08 0.0349691

0.0397536 -0.00242183 3.93407e-08
-0.00242183 0.0360649 5.02685e-08
3.93407e-08 5.02685e-08 0.0355682

0.0351858 0.00204345 7.03291e-09
0.00204345 0.0285502 2.96476e-07
7.03291e-09 2.96476e-07 0.0322331

0.0396928 0.0013374 -3.13356e-07
0.0013374 0.0472276 -1.75903e-08
-3.13356e-07 -1.75903e-08 0.0365495

0.0464969 0.00259414 5.62154e-08
0.00259414 0.0404188 3.5677e-07
5.62154e-08 3.5677e-07 0.0365307

0.0400878 0.0015054 1.66038e-07
0.0015054 0.0366748 6.58087e-08
1.66038e-07 6.58087e-08 0.0356162

0.0279157 -0.00192005 -7.46772e-08
-0.00192005 0.0125251 2.24771e-07
-7.46772e-08 2.24771e-07 0.010625

0.0283204 0.00326784 -4.15127e-09
0.00326784 0.0315513 -5.34354e-08
-4.15127e-09 -5.34354e-08 0.0294119

0.023189 -0.00773622 -3.86595e-07
-0.00773622 0.0181805 1.13131e-07
-3.86595e-07 1.13131e-07 0.0102899

0.0228316 -0.00731593 -3.3458e-07
-0.00731593 0.0257697 3.0178e-07
-3.3458e-07 3.0178e-07 0.0119551

0.0290237 -0.00464724 3.55846e-08
-0.00464724 0.019129 -8.11129e-08
3.55846e-08 -8.11129e-08 0.0126156

0.037575 -0.000660619 8.25837e-08
-0.000660619 0.0449117 -3.66421e-07
8.25837e-08 -3.66421e-07 0.0362947

0.0375727 0.000358449 2.79801e-09
0.000358449 0.0447901 2.49846e-07
2.79801e-09 2.49846e-07 0.036275

0.0426054 -0.00327376 -2.04569e-07
-0.00327376 0.0394512 2.75053e-07
-2.04569e-07 2.75053e-07 0.0362288

0.0429982 -0.00294446 -1.61436e-07
-0.00294446 0.0391692 1.8014e-08
-1.61436e-07 1.8014e-08 0.0362358

0.0425024 0.00350428 3.20292e-08
0.00350428 0.0399733 7.70922e-08
3.20292e-08 7.70922e-08 0.0362736

0.0443975 0.000416583 4.11301e-07
0.000416583 0.0450806 4.20585e-07
4.11301e-07 4.20585e-07 0.0366369

0.0426093 -0.00274439 6.41144e-08
-0.00274439 0.0395078 -1.61488e-07
6.41144e-08 -1.61488e-07 0.0362904

0.0426031 -0.00251159 1.96869e-07
-0.00251159 0.0442674 -2.48014e-07
1.96869e-07 -2.48014e-07 0.0365645

0.0451178 0.000332146 -4.06641e-07
0.000332146 0.0454679 -7.97104e-07
-4.06641e-07 -7.97104e-07 0.0366552

0.0436367 -0.00278275 6.19497e-08
-0.00278275 0.0389172 1.80156e-07
6.19497e-08 1.80156e-07 0.036331

0.0435126 0.00283861 -1.00032e-07
0.00283861 0.0390699 1.29717e-07
-1.00032e-07 1.29717e-07 0.0363691

0.0451938 -0.000471022 -1.19138e-07
-0.000471022 0.0455826 1.66564e-07
-1.19138e-07 1.66564e-07 0.0367039

0.0452249 -0.000424389 -6.89846e-07
-0.000424389 0.0443625 7.39133e-07
-6.89846e-07 7.39133e-07 0.0367222

0.0427994 0.00163813 -3.54952e-07
0.00163813 0.0442493 1.78962e-07
-3.54952e-07 1.78962e-07 0.0366083

0.0411174 0.00361824 3.80002e-08
0.00361824 0.0405173 -1.08406e-07
3.80002e-08 -1.08406e-07 0.0363229

SCALARS pressure float
LOOKUP_TABLE default
-60.0562
19.3092
5.80494
21.2909
15.879
5.88892
-58.6793
7.78441
-3.80363
15.1254
-24.4343
7.61857
5.59332
12.2804
23.3371
5.54023
18.5215
13.2087
-0.69128
6.75833
-0.903517
33.1301
5.80251
5.79849
6.60358
14.9042
-38.3879
6.67336
-15.2421
30.623
5.17758
-15.6569
-42.0593
27.3243
20.7776
27.3572
31.8812
19.8077
4.86089
-42.6026
-17.4073
31.902
31.9901
5.99477
-21.8059
-15.9755
-1.05094
-3.40428
6.54645
-16.2178
-18.9188
-15.3454
20.7552
-15.3726
20.3084
-33.1503
21.128
-15.4598
21.1379
7.04662
21.7654
16.119
-45.5647
12.7903
16.3623
10.9061
21.5747
13.8295
5.77515
21.8179
20.8112
20.7819
-17.6909
11.6015
3.97526
-31.6121
14.3568
10.9972
14.1475
-8.719
-28.9458
14.9774
20.1637
-22.0385
-23.4298
-28.0934
7.09944
9.63336
-22.2167
37.7368
-15.5085
38.4394
18.3044
10.7627
-15.166
-15.8726
-30.2224
14.7543
14.3658
4.59997
-10.7654
-21.9397
-25.1023
16.2141
14.1017
14.9625
18.6981
3.77608
-24.5591
26.513
7.2193
-21.4098
-24.6129
14.8393
15.0789
-16.1453
20.1634
-29.1143
20.627
-16.7289
-2.9033
23.8333
21.7279
16.0335
26.6796
22.6316
21.7842
15.7093
-29.782
-16.0985
24.0909
21.6183
20.9897
22.0665
-22.014
23.5852
-33.8389
5.46465
21.7547
23.6285
-21.9369
6.6775
-5.96553
15.0848
-30.4086
15.625
7.83464
2.40897
5.17908
-9.39354
-0.456582
22.6423
-15.4543
5.29222
15.2054
21.5614
11.5091
-21.1133
-21.2638
10.7919
-2.84157
-15.1973
-21.2213
-15.165
-20.9865
15.2805
-20.6358
-21.2016
-15.2075
-21.0638
19.0041
-15.9405
-14.8242
12.0653
-14.4841
18.8034
19.0532
7.47413
18.0477
11.7744
-16.2488
15.289
14.9618
-21.5286
10.4275
-14.221
16.0492
14.5964
17.0818
14.8359
10.3448
-26.9771
-16.0818
-15.9579
21.9078
14.5273
14.6261
20.9231
22.4877
9.50371
21.7346
-0.383215
-8.16984
20.7793
-17.8387
19.9461
10.3652
-21.5177
15.7217
22.5269
14.7314
9.39468
14.1913
21.056
-7.83183
8.82864
-7.90766
14.6491
26.9276
26.5812
27.9603
26.3884
26.7242
26.2909
13.8272
23.4297
24.0289
23.9731
23.3994
21.1924
21.8569
-8.26193
15.9346
28.1911
-3.18766
23.5755
23.2047
27.8344
-8.49267
28.0964
15.3454
-7.58064
17.4925
-8.2569
20.2277
29.6127
-7.48502
-8.09985
-29.593
-18.1892
19.5277
-31.9867
5.73543
-7.79304
-1.18816
28.2492
26.6402
30.4236
26.7609
-34.8025
-8.17875
28.3374
8.07415
-8.29429
26.4459
-6.29432
30.4685
-7.95317
27.047
14.5666
14.7885
23.8445
10.0484
18.0208
8.11826
-29.8613
-24.5543
16.8068
1.7609
8.18079
-13.6083
17.4362
11.7007
-8.10061
9.45312
-10.8227
7.51809
-10.7539
-8.48387
33.2608
19.1514
25.0877
25.312
13.8303
-10.4037
26.4282
14.6855
-1.65791
-10.2731
-12.5636
17.5065
-7.48429
17.5745
-12.0406
-21.3514
-10.6075
-34.6827
15.5632
-7.76204
34.4386
-11.5773
16.8722
-8.40788
15.9733
-12.7577
4.29012
-51.1213
8.52309
-7.74571
21.3336
-8.15125
-0.121681
10.7161
21.1251
-12.06
-10.2
-6.06734
14.3188
-10.1793
6.88895
6.38705
16.3053
-10.4188
-6.32948
-1.70132
-5.65954
-11.0777
-5.84377
15.3061
7.80899
-5.55512
-8.95962
7.80632
7.69515
-10.6738
16.3092
-27.2162
2.29411
-28.4822
-0.956587
-8.88326
-8.10149
-11.7843
-10.948
-9.88618
-7.78113
-7.9045
16.6385
24.7767
12.1173
-0.29052
-0.823992
-5.67369
7.30611
-6.31982
-6.31711
24.9224
-5.72911
14.1182
-15.908
24.3245
5.96939
-0.390086
-5.64299
16.275
2.47809
0.20015
2.44908
0.457038
-0.739688
-9.92956
-0.0944893
2.11426
15.0691
-1.28716
-1.40603
-0.997712
-0.387522
1.96629
8.0517
-1.19246
8.07915
5.58443
-0.434567
7.03629
5.49147
-3.87555
16.4772
-1.9025
23.061
-21.9744
15.0448
15.6829
2.04065
-1.99663
12.5438
-26.5087
5.7935
-1.65701
-50.4857
30.4955
30.6321
5.82614
-1.14324
-1.04591
-0.848552
33.4144
33.2891
13.0958
6.0828
6.66345
-28.965
-1.27829
16.5339
-3.18186
-4.34734
-0.0158574
-25.2734
14.3042
-1.27908
2.86281
2.6942
-2.72235
-0.0482696
-3.20862
-4.03277
-37.9848
-33.6846
-0.126977
1.87541
-0.533145
-3.74336
-1.93569
-1.87687
-0.923369
-21.9083
17.2497
-0.768168
12.5661
14.1845
-26.7653
6.28731
7.13801
18.4777
36.4244
36.4569
22.6384
-1.75469
2.60068
-20.9305
36.1232
32.7559
32.8228
-24.8108
21.774
30.521
2.60019
15.724
10.3724
17.1651
17.7267
12.5062
5.6824
-25.4001
4.26099
10.4101
16.2444
-31.7119
28.3079
-52.7129
18.6856
10.2998
-10.6267
7.41827
5.45801
24.4738
9.41208
24.4068
4.1061
12.4004
30.6385
29.4642
-22.9911
17.4363
-70.2346
-74.3812
-67.1785
11.649
-31.2623
-63.6118
-3.80265
-69.94
16.4628
16.4065
-73.7563
5.21347
-39.732
-70.7406
-37.7579
-71.8771
-39.4535
21.1355
-23.9612
-29.0462
-70.6244
4.83231
15.7581
-36.1917
6.05453
-63.6194
9.83689
3.88293
-67.903
-37.6256
-66.4125
-23.7574
5.03028
20.5252
35.3677
36.7233
11.813
36.847
36.9004
36.4888
36.4016
-24.4798
28.2467
20.6691
21.9797
11.5357
36.0576
36.089
18.1193
-23.9423
3.24772
-30.5286
-56.5993
-50.476
36.1409
35.8217
35.3784
35.4486
36.1569
35.5955
33.1077
37.368
35.3968
36.0037
35.636
34.1934
34.3299
35.8536
35.3075
