# vtk DataFile Version 3.0
vtk output at time 450
ASCII
DATASET UNSTRUCTURED_GRID
POINTS 626 float
-3.68058e-05 0.000978749 0 3.68058e-05 0.000978749 0 -0.000829194 0.00052125 0 
-0.0008235 0.0005 0 -0.000866 0.0004575 0 -0.000866 -0.0004575 0 
-0.0008235 -0.0005 0 -0.000829194 -0.00052125 0 -3.68058e-05 -0.000978749 0 
3.68058e-05 -0.000978749 0 0.000829194 -0.00052125 0 0.000866 -0.0004575 0 
0.000866 0.0004575 0 0.000829194 0.00052125 0 8.5e-05 0 0 
-3.68058e-05 0.000978749 -0.001 3.68058e-05 0.000978749 -0.001 -0.000829194 0.00052125 -0.001 
-0.0008235 0.0005 -0.001 -0.000866 0.0004575 -0.001 -0.000866 -0.0004575 -0.001 
-0.0008235 -0.0005 -0.001 -0.000829194 -0.00052125 -0.001 -3.68058e-05 -0.000978749 -0.001 
3.68058e-05 -0.000978749 -0.001 0.000829194 -0.00052125 -0.001 0.000866 -0.0004575 -0.001 
0.000866 0.0004575 -0.001 0.000829194 0.00052125 -0.001 8.5e-05 0 -0.001 
8.46223e-17 0.0009575 0 -0.000715996 0.000586607 0 -0.000602797 0.000651965 0 
-0.000489599 0.000717321 0 -0.000376401 0.000782678 0 -0.000263202 0.000848036 0 
-0.000150004 0.000913393 0 -0.000835948 0.000469948 0 -0.000866 -0.000326786 0 
-0.000866 -0.000196071 0 -0.000866 -6.53571e-05 0 -0.000866 6.53571e-05 0 
-0.000866 0.000196071 0 -0.000866 0.000326786 0 -0.000835948 -0.000469948 0 
-0.000150004 -0.000913393 0 -0.000263202 -0.000848036 0 -0.000376401 -0.000782678 0 
-0.000489599 -0.000717321 0 -0.000602797 -0.000651965 0 -0.000715996 -0.000586607 0 
8.47648e-17 -0.0009575 0 0.000715996 -0.000586607 0 0.000602797 -0.000651965 0 
0.000489599 -0.000717321 0 0.000376401 -0.000782678 0 0.000263202 -0.000848036 0 
0.000150004 -0.000913393 0 0.000829194 -0.00047875 0 0.000866 0.000326786 0 
0.000866 0.000196071 0 0.000866 6.53571e-05 0 0.000866 -6.53571e-05 0 
0.000866 -0.000196071 0 0.000866 -0.000326786 0 0.000829194 0.00047875 0 
0.000150004 0.000913393 0 0.000263202 0.000848036 0 0.000376401 0.000782678 0 
0.000489599 0.000717321 0 0.000602797 0.000651965 0 0.000715996 0.000586607 0 
5.29966e-05 6.64557e-05 0 -1.89143e-05 8.28689e-05 0 -7.65824e-05 3.68801e-05 0 
-7.65824e-05 -3.68801e-05 0 -1.89143e-05 -8.28689e-05 0 5.29966e-05 -6.64557e-05 0 
8.46223e-17 0.0009575 -0.001 -0.000715996 0.000586607 -0.001 -0.000602797 0.000651965 -0.001 
-0.000489599 0.000717321 -0.001 -0.000376401 0.000782678 -0.001 -0.000263202 0.000848036 -0.001 
-0.000150004 0.000913393 -0.001 -0.000835948 0.000469948 -0.001 -0.000866 -0.000326786 -0.001 
-0.000866 -0.000196071 -0.001 -0.000866 -6.53571e-05 -0.001 -0.000866 6.53571e-05 -0.001 
-0.000866 0.000196071 -0.001 -0.000866 0.000326786 -0.001 -0.000835948 -0.000469948 -0.001 
-0.000150004 -0.000913393 -0.001 -0.000263202 -0.000848036 -0.001 -0.000376401 -0.000782678 -0.001 
-0.000489599 -0.000717321 -0.001 -0.000602797 -0.000651965 -0.001 -0.000715996 -0.000586607 -0.001 
8.47648e-17 -0.0009575 -0.001 0.000715996 -0.000586607 -0.001 0.000602797 -0.000651965 -0.001 
0.000489599 -0.000717321 -0.001 0.000376401 -0.000782678 -0.001 0.000263202 -0.000848036 -0.001 
0.000150004 -0.000913393 -0.001 0.000829194 -0.00047875 -0.001 0.000866 0.000326786 -0.001 
0.000866 0.000196071 -0.001 0.000866 6.53571e-05 -0.001 0.000866 -6.53571e-05 -0.001 
0.000866 -0.000196071 -0.001 0.000866 -0.000326786 -0.001 0.000829194 0.00047875 -0.001 
0.000150004 0.000913393 -0.001 0.000263202 0.000848036 -0.001 0.000376401 0.000782678 -0.001 
0.000489599 0.000717321 -0.001 0.000602797 0.000651965 -0.001 0.000715996 0.000586607 -0.001 
5.29966e-05 6.64557e-05 -0.001 -1.89143e-05 8.28689e-05 -0.001 -7.65824e-05 3.68801e-05 -0.001 
-7.65824e-05 -3.68801e-05 -0.001 -1.89143e-05 -8.28689e-05 -0.001 5.29966e-05 -6.64557e-05 -0.001 
0.000131234 6.38474e-05 0 0.00012964 -6.2443e-05 0 3.13827e-05 0.0001394 0 
3.12554e-05 -0.000136939 0 -0.000140461 8.25467e-19 0 -8.90565e-05 -0.000102707 0 
-9.04142e-05 0.000102872 0 -0.000765769 -0.00025965 0 -0.000756873 0.000262774 0 
-0.00015609 0.000787505 0 -0.000155807 -0.00079355 0 0.000605069 0.000528035 0 
0.000608694 -0.00052497 0 0.000744069 0.000116929 0 -0.000494418 0.000596218 0 
-0.000483866 -0.000584648 0 0.000269496 0.000702219 0 0.000263201 -0.000717324 0 
0.000754429 -0.000127825 0 -0.000748858 5.84659e-07 0 -0.000747838 0.000373886 0 
-0.0006542 0.000324842 0 -0.000645137 0.000210123 0 -0.000550884 0.000274171 0 
-0.000538857 0.000163195 0 -0.00045062 0.000224461 0 -0.000438393 0.000123907 0 
-0.000354088 0.000181668 0 -0.000363908 0.000282171 0 -0.000270361 0.000239477 0 
-0.000279138 0.000337653 0 -0.000188888 0.000294791 0 -0.000196448 0.000393271 0 
-0.000104767 0.000348259 0 -0.000113332 0.000449012 0 -2.01066e-05 0.000403223 0 
-2.89189e-05 0.000507105 0 6.9524e-05 0.000461596 0 -0.000213644 0.000490203 0 
7.33757e-05 0.000357726 0 0.000163331 0.00041299 0 0.000163359 0.000313022 0 
0.000248077 0.000366368 0 0.000250914 0.000265758 0 0.000335709 0.000322266 0 
0.000340555 0.000218148 0 0.000427299 0.000276717 0 0.000431508 0.000173093 0 
0.000328731 0.000425633 0 0.00034586 0.000114823 0 0.000435362 7.05241e-05 0 
0.000350892 1.5455e-05 0 0.000441547 -3.11896e-05 0 0.000353547 -8.47783e-05 0 
0.000445767 -0.000132964 0 0.000356135 -0.000186358 0 0.000449094 -0.000234674 0 
0.000359978 -0.000287876 0 0.00026856 -0.000240545 0 0.000271895 -0.000341045 0 
0.000181792 -0.00029305 0 0.00018533 -0.000392851 0 9.75701e-05 -0.00034483 0 
9.98764e-05 -0.000444884 0 8.75116e-06 -0.000396343 0 1.20916e-05 -0.000500496 0 
-7.83929e-05 -0.000449843 0 -8.1471e-05 -0.000347249 0 -0.000171566 -0.000403733 0 
-0.000169889 -0.000298891 0 -0.000259867 -0.000354132 0 -0.000257696 -0.000249137 0 
-0.00034313 -0.000299896 0 -0.000344514 -0.000199127 0 -0.000434309 -0.000250039 0 
-0.000169832 -0.000505815 0 -0.000435227 -0.000146227 0 0.000280331 -0.000442424 0 
-0.000340889 8.76793e-05 0 -0.000515252 4.06198e-05 0 6.50491e-05 0.000568253 0 
0.00053278 1.74743e-05 0 0.000522071 0.000229831 0 -0.00037162 0.000391659 0 
-0.000255272 -0.000150439 0 -0.000442893 -0.000350705 0 0.000450067 -0.000332559 0 
0.000545175 -0.000276306 0 -0.000527797 -0.000197598 0 0.000105306 -0.000551033 0 
1.45836e-05 -0.000609147 0 0.00017145 0.000214453 0 0.000515525 0.000341711 0 
0.000636086 0.000290368 0 -0.000558657 0.000404468 0 -4.01232e-05 0.000616718 0 
6.60192e-05 0.000696422 0 -0.000101806 0.0002546 0 0.000271142 -3.88908e-05 0 
0.000179455 -0.00018534 0 -8.79553e-05 -0.000254307 0 -0.000749267 -0.000373451 0 
-0.000655941 -0.000323397 0 0.000709746 0.000466718 0 0.000698426 -0.000473086 0 
-5.25801e-05 -0.00084886 0 -4.93005e-05 0.000848038 0 0.000617396 -0.000413362 0 
0.000702056 -0.000369817 0 0.000131459 -0.000679171 0 2.48171e-05 -0.000715924 0 
-0.000664217 -0.00042729 0 -0.000528828 -8.80444e-05 0 -0.000611101 -0.000136672 0 
-0.000426972 -4.45841e-05 0 0.000800669 0.000378216 0 0.000821144 -0.000415062 0 
7.2799e-05 0.00088254 0 6.81831e-05 -0.00087503 0 0.000104963 -0.000788946 0 
-7.40696e-05 -0.000660054 0 0.000126061 0.000809943 0 0.000764361 0.000295682 0 
0.000166862 0.000630623 0 0.000516462 -0.00046707 0 -0.000563585 -0.000389606 0 
-0.000622598 -1.40238e-05 0 0.000629891 0.000171529 0 2.5614e-06 -0.000299794 0 
8.6901e-05 -0.00024329 0 0.000272045 -0.000136982 0 -0.00075148 0.000138321 0 
0.000209366 -0.000599589 0 0.000324913 -0.000630055 0 0.000614044 0.00041245 0 
0.00049651 -0.000573327 0 0.000394822 -0.000507321 0 -0.000173714 -0.000206698 0 
0.000264897 5.63722e-05 0 0.000247997 0.000152811 0 -4.63327e-05 -0.000920208 0 
9.18688e-05 0.000258626 0 -5.54111e-06 0.000290558 0 -0.000184219 0.000201484 0 
-0.000263559 0.000142267 0 -0.000256427 5.13624e-05 0 -0.000336894 -2.06179e-06 0 
-0.000228499 -4.2388e-05 0 -0.00017589 0.000106626 0 -0.000769947 -0.000133367 0 
0.000767591 -0.000500293 0 -5.05874e-05 0.000737978 0 0.000754456 -3.51771e-06 0 
0.00064691 -6.15298e-05 0 0.000630483 -0.00018134 0 0.000749187 -0.000265543 0 
-0.000760805 -0.000462521 0 0.000638155 6.09315e-05 0 -4.46661e-05 0.000922995 0 
-2.37945e-05 0.000207237 0 0.000776979 0.000500181 0 -0.000605691 0.000527596 0 
-0.000377914 -0.000653727 0 -0.000372325 -0.000526022 0 -0.000275829 -0.000589621 0 
-0.000254285 -0.000710579 0 -0.000379307 0.000656222 0 -0.000379818 0.00052718 0 
-0.000266817 0.000721555 0 -0.000150544 0.000668174 0 0.000381963 0.00065079 0 
0.000493113 0.000590432 0 0.000505439 0.000463708 0 -0.000269094 0.000596608 0 
0.000385815 0.000532045 0 0.000283599 0.0005899 0 -0.000176405 -0.000108505 0 
-0.000278769 -0.000475415 0 0.000185395 2.33014e-06 0 0.000186773 0.000517571 0 
0.000540032 -8.68444e-05 0 -0.000600694 -0.000514877 0 -0.00063703 8.98033e-05 0 
-0.000459677 0.000335729 0 -0.000338836 -0.000100751 0 -0.000457327 0.000432721 0 
-8.72007e-06 -0.000210238 0 0.000156073 0.000129496 0 -7.70692e-05 -0.000555049 0 
0.00036091 -0.000389728 0 0.000531628 0.000120564 0 -0.000285451 0.000435562 0 
0.000192719 -0.000494604 0 0.00041642 0.00039368 0 -0.000135943 0.000554637 0 
-0.000170665 -0.000610079 0 -0.000666304 0.000434981 0 -0.000758736 0.000479231 0 
-0.000470189 -0.000458901 0 0.000203433 -8.59809e-05 0 0.000101846 0.000170114 0 
-0.00035513 -0.00040726 0 0.000100184 -0.000165831 0 2.96286e-05 0.00081537 0 
0.000720946 0.000381836 0 -0.000539809 -0.000292001 0 0.00052211 -0.000182426 0 
-6.41339e-05 -0.000753908 0 0.000638039 -0.000299861 0 -0.000605136 -0.000230182 0 
-3.41638e-05 -0.000145561 0 -0.000104037 0.000172396 0 -0.000808575 -0.00042774 0 
-0.000807207 -0.000465052 0 -0.00080817 0.000429771 0 -0.000806589 0.000469738 0 
-9.50634e-05 -0.000178909 0 0.000247777 0.000445058 0 1.48293e-05 -0.000814201 0 
-4.11555e-05 0.000140955 0 0.000276104 -0.000536845 0 0.000765969 -0.000436638 0 
0.000780871 -0.000362769 0 0.000424176 -0.000642018 0 0.00053413 -0.000368009 0 
-0.000416333 4.17911e-05 0 -0.000133891 -6.23822e-05 0 4.2574e-05 0.000206312 0 
0.000141163 -0.000121542 0 0.000707423 0.000212137 0 0.000172327 0.000723882 0 
7.72652e-06 -0.00090254 0 -0.000134435 5.66935e-05 0 -0.000188826 3.70894e-05 0 
0.000197119 8.09714e-05 0 1.27801e-05 0.000917296 0 0.000800767 0.00044758 0 
-0.000686682 0.000507104 0 9.35831e-05 0.000110457 0 -0.000696793 -0.000509595 0 
-0.00068446 -8.52012e-05 0 -0.000691033 -0.000201242 0 5.24052e-05 -0.000189075 0 
-0.000151818 -0.000701092 0 -0.000296988 0.000518087 0 9.31023e-05 -0.000108117 0 
0.00044261 -0.000416726 0 0.000197044 -0.000784423 0 -0.000516861 0.000504567 0 
0.000298997 0.000502377 0 0.000131234 6.38474e-05 -0.001 0.00012964 -6.2443e-05 -0.001 
3.13827e-05 0.0001394 -0.001 3.12554e-05 -0.000136939 -0.001 -0.000140461 8.25467e-19 -0.001 
-8.90565e-05 -0.000102707 -0.001 -9.04142e-05 0.000102872 -0.001 -0.000765769 -0.00025965 -0.001 
-0.000756873 0.000262774 -0.001 -0.00015609 0.000787505 -0.001 -0.000155807 -0.00079355 -0.001 
0.000605069 0.000528035 -0.001 0.000608694 -0.00052497 -0.001 0.000744069 0.000116929 -0.001 
-0.000494418 0.000596218 -0.001 -0.000483866 -0.000584648 -0.001 0.000269496 0.000702219 -0.001 
0.000263201 -0.000717324 -0.001 0.000754429 -0.000127825 -0.001 -0.000748858 5.84659e-07 -0.001 
-0.000747838 0.000373886 -0.001 -0.0006542 0.000324842 -0.001 -0.000645137 0.000210123 -0.001 
-0.000550884 0.000274171 -0.001 -0.000538857 0.000163195 -0.001 -0.00045062 0.000224461 -0.001 
-0.000438393 0.000123907 -0.001 -0.000354088 0.000181668 -0.001 -0.000363908 0.000282171 -0.001 
-0.000270361 0.000239477 -0.001 -0.000279138 0.000337653 -0.001 -0.000188888 0.000294791 -0.001 
-0.000196448 0.000393271 -0.001 -0.000104767 0.000348259 -0.001 -0.000113332 0.000449012 -0.001 
-2.01066e-05 0.000403223 -0.001 -2.89189e-05 0.000507105 -0.001 6.9524e-05 0.000461596 -0.001 
-0.000213644 0.000490203 -0.001 7.33757e-05 0.000357726 -0.001 0.000163331 0.00041299 -0.001 
0.000163359 0.000313022 -0.001 0.000248077 0.000366368 -0.001 0.000250914 0.000265758 -0.001 
0.000335709 0.000322266 -0.001 0.000340555 0.000218148 -0.001 0.000427299 0.000276717 -0.001 
0.000431508 0.000173093 -0.001 0.000328731 0.000425633 -0.001 0.00034586 0.000114823 -0.001 
0.000435362 7.05241e-05 -0.001 0.000350892 1.5455e-05 -0.001 0.000441547 -3.11896e-05 -0.001 
0.000353547 -8.47783e-05 -0.001 0.000445767 -0.000132964 -0.001 0.000356135 -0.000186358 -0.001 
0.000449094 -0.000234674 -0.001 0.000359978 -0.000287876 -0.001 0.00026856 -0.000240545 -0.001 
0.000271895 -0.000341045 -0.001 0.000181792 -0.00029305 -0.001 0.00018533 -0.000392851 -0.001 
9.75701e-05 -0.00034483 -0.001 9.98764e-05 -0.000444884 -0.001 8.75116e-06 -0.000396343 -0.001 
1.20916e-05 -0.000500496 -0.001 -7.83929e-05 -0.000449843 -0.001 -8.1471e-05 -0.000347249 -0.001 
-0.000171566 -0.000403733 -0.001 -0.000169889 -0.000298891 -0.001 -0.000259867 -0.000354132 -0.001 
-0.000257696 -0.000249137 -0.001 -0.00034313 -0.000299896 -0.001 -0.000344514 -0.000199127 -0.001 
-0.000434309 -0.000250039 -0.001 -0.000169832 -0.000505815 -0.001 -0.000435227 -0.000146227 -0.001 
0.000280331 -0.000442424 -0.001 -0.000340889 8.76793e-05 -0.001 -0.000515252 4.06198e-05 -0.001 
6.50491e-05 0.000568253 -0.001 0.00053278 1.74743e-05 -0.001 0.000522071 0.000229831 -0.001 
-0.00037162 0.000391659 -0.001 -0.000255272 -0.000150439 -0.001 -0.000442893 -0.000350705 -0.001 
0.000450067 -0.000332559 -0.001 0.000545175 -0.000276306 -0.001 -0.000527797 -0.000197598 -0.001 
0.000105306 -0.000551033 -0.001 1.45836e-05 -0.000609147 -0.001 0.00017145 0.000214453 -0.001 
0.000515525 0.000341711 -0.001 0.000636086 0.000290368 -0.001 -0.000558657 0.000404468 -0.001 
-4.01232e-05 0.000616718 -0.001 6.60192e-05 0.000696422 -0.001 -0.000101806 0.0002546 -0.001 
0.000271142 -3.88908e-05 -0.001 0.000179455 -0.00018534 -0.001 -8.79553e-05 -0.000254307 -0.001 
-0.000749267 -0.000373451 -0.001 -0.000655941 -0.000323397 -0.001 0.000709746 0.000466718 -0.001 
0.000698426 -0.000473086 -0.001 -5.25801e-05 -0.00084886 -0.001 -4.93005e-05 0.000848038 -0.001 
0.000617396 -0.000413362 -0.001 0.000702056 -0.000369817 -0.001 0.000131459 -0.000679171 -0.001 
2.48171e-05 -0.000715924 -0.001 -0.000664217 -0.00042729 -0.001 -0.000528828 -8.80444e-05 -0.001 
-0.000611101 -0.000136672 -0.001 -0.000426972 -4.45841e-05 -0.001 0.000800669 0.000378216 -0.001 
0.000821144 -0.000415062 -0.001 7.2799e-05 0.00088254 -0.001 6.81831e-05 -0.00087503 -0.001 
0.000104963 -0.000788946 -0.001 -7.40696e-05 -0.000660054 -0.001 0.000126061 0.000809943 -0.001 
0.000764361 0.000295682 -0.001 0.000166862 0.000630623 -0.001 0.000516462 -0.00046707 -0.001 
-0.000563585 -0.000389606 -0.001 -0.000622598 -1.40238e-05 -0.001 0.000629891 0.000171529 -0.001 
2.5614e-06 -0.000299794 -0.001 8.6901e-05 -0.00024329 -0.001 0.000272045 -0.000136982 -0.001 
-0.00075148 0.000138321 -0.001 0.000209366 -0.000599589 -0.001 0.000324913 -0.000630055 -0.001 
0.000614044 0.00041245 -0.001 0.00049651 -0.000573327 -0.001 0.000394822 -0.000507321 -0.001 
-0.000173714 -0.000206698 -0.001 0.000264897 5.63722e-05 -0.001 0.000247997 0.000152811 -0.001 
-4.63327e-05 -0.000920208 -0.001 9.18688e-05 0.000258626 -0.001 -5.54111e-06 0.000290558 -0.001 
-0.000184219 0.000201484 -0.001 -0.000263559 0.000142267 -0.001 -0.000256427 5.13624e-05 -0.001 
-0.000336894 -2.06179e-06 -0.001 -0.000228499 -4.2388e-05 -0.001 -0.00017589 0.000106626 -0.001 
-0.000769947 -0.000133367 -0.001 0.000767591 -0.000500293 -0.001 -5.05874e-05 0.000737978 -0.001 
0.000754456 -3.51771e-06 -0.001 0.00064691 -6.15298e-05 -0.001 0.000630483 -0.00018134 -0.001 
0.000749187 -0.000265543 -0.001 -0.000760805 -0.000462521 -0.001 0.000638155 6.09315e-05 -0.001 
-4.46661e-05 0.000922995 -0.001 -2.37945e-05 0.000207237 -0.001 0.000776979 0.000500181 -0.001 
-0.000605691 0.000527596 -0.001 -0.000377914 -0.000653727 -0.001 -0.000372325 -0.000526022 -0.001 
-0.000275829 -0.000589621 -0.001 -0.000254285 -0.000710579 -0.001 -0.000379307 0.000656222 -0.001 
-0.000379818 0.00052718 -0.001 -0.000266817 0.000721555 -0.001 -0.000150544 0.000668174 -0.001 
0.000381963 0.00065079 -0.001 0.000493113 0.000590432 -0.001 0.000505439 0.000463708 -0.001 
-0.000269094 0.000596608 -0.001 0.000385815 0.000532045 -0.001 0.000283599 0.0005899 -0.001 
-0.000176405 -0.000108505 -0.001 -0.000278769 -0.000475415 -0.001 0.000185395 2.33014e-06 -0.001 
0.000186773 0.000517571 -0.001 0.000540032 -8.68444e-05 -0.001 -0.000600694 -0.000514877 -0.001 
-0.00063703 8.98033e-05 -0.001 -0.000459677 0.000335729 -0.001 -0.000338836 -0.000100751 -0.001 
-0.000457327 0.000432721 -0.001 -8.72007e-06 -0.000210238 -0.001 0.000156073 0.000129496 -0.001 
-7.70692e-05 -0.000555049 -0.001 0.00036091 -0.000389728 -0.001 0.000531628 0.000120564 -0.001 
-0.000285451 0.000435562 -0.001 0.000192719 -0.000494604 -0.001 0.00041642 0.00039368 -0.001 
-0.000135943 0.000554637 -0.001 -0.000170665 -0.000610079 -0.001 -0.000666304 0.000434981 -0.001 
-0.000758736 0.000479231 -0.001 -0.000470189 -0.000458901 -0.001 0.000203433 -8.59809e-05 -0.001 
0.000101846 0.000170114 -0.001 -0.00035513 -0.00040726 -0.001 0.000100184 -0.000165831 -0.001 
2.96286e-05 0.00081537 -0.001 0.000720946 0.000381836 -0.001 -0.000539809 -0.000292001 -0.001 
0.00052211 -0.000182426 -0.001 -6.41339e-05 -0.000753908 -0.001 0.000638039 -0.000299861 -0.001 
-0.000605136 -0.000230182 -0.001 -3.41638e-05 -0.000145561 -0.001 -0.000104037 0.000172396 -0.001 
-0.000808575 -0.00042774 -0.001 -0.000807207 -0.000465052 -0.001 -0.00080817 0.000429771 -0.001 
-0.000806589 0.000469738 -0.001 -9.50634e-05 -0.000178909 -0.001 0.000247777 0.000445058 -0.001 
1.48293e-05 -0.000814201 -0.001 -4.11555e-05 0.000140955 -0.001 0.000276104 -0.000536845 -0.001 
0.000765969 -0.000436638 -0.001 0.000780871 -0.000362769 -0.001 0.000424176 -0.000642018 -0.001 
0.00053413 -0.000368009 -0.001 -0.000416333 4.17911e-05 -0.001 -0.000133891 -6.23822e-05 -0.001 
4.2574e-05 0.000206312 -0.001 0.000141163 -0.000121542 -0.001 0.000707423 0.000212137 -0.001 
0.000172327 0.000723882 -0.001 7.72652e-06 -0.00090254 -0.001 -0.000134435 5.66935e-05 -0.001 
-0.000188826 3.70894e-05 -0.001 0.000197119 8.09714e-05 -0.001 1.27801e-05 0.000917296 -0.001 
0.000800767 0.00044758 -0.001 -0.000686682 0.000507104 -0.001 9.35831e-05 0.000110457 -0.001 
-0.000696793 -0.000509595 -0.001 -0.00068446 -8.52012e-05 -0.001 -0.000691033 -0.000201242 -0.001 
5.24052e-05 -0.000189075 -0.001 -0.000151818 -0.000701092 -0.001 -0.000296988 0.000518087 -0.001 
9.31023e-05 -0.000108117 -0.001 0.00044261 -0.000416726 -0.001 0.000197044 -0.000784423 -0.001 
-0.000516861 0.000504567 -0.001 0.000298997 0.000502377 -0.001 

CELLS 563 3941
6 14 304 127 29 554 377 
6 143 259 55 393 509 103 
6 300 319 174 550 569 424 
6 259 349 55 509 599 103 
6 50 365 307 98 615 557 
6 299 320 164 549 570 414 
6 126 304 14 376 554 29 
6 298 319 300 548 569 550 
6 205 240 238 455 490 488 
6 257 308 145 507 558 395 
6 130 352 273 380 602 523 
6 295 320 299 545 570 549 
6 324 327 289 574 577 539 
6 235 258 143 485 508 393 
6 50 307 49 98 557 97 
6 207 283 279 457 533 529 
6 143 373 235 393 623 485 
6 145 308 252 395 558 502 
6 194 303 196 444 553 446 
6 279 306 207 529 556 457 
6 206 305 163 456 555 413 
6 51 357 9 99 607 24 
6 238 252 205 488 502 455 
6 293 317 209 543 567 459 
6 207 316 283 457 566 533 
6 142 301 249 392 551 499 
6 273 359 130 523 609 380 
6 211 327 324 461 577 574 
6 169 265 217 419 515 467 
6 7 365 50 22 615 98 
6 283 316 253 533 566 503 
6 159 268 223 409 518 473 
6 274 337 132 524 587 382 
6 232 361 329 482 611 579 
6 231 266 45 481 516 93 
6 229 362 330 479 612 580 
6 9 244 57 24 494 105 
6 230 276 52 480 526 100 
6 209 311 293 459 561 543 
6 131 342 302 381 592 552 
6 270 271 204 520 521 454 
6 66 243 1 114 493 16 
6 59 241 12 107 491 27 
6 280 306 279 530 556 529 
6 269 337 274 519 587 524 
6 179 256 224 429 506 474 
6 163 305 166 413 555 416 
6 201 303 194 451 553 444 
6 280 332 306 530 582 556 
6 186 255 225 436 505 475 
6 210 310 273 460 560 523 
6 153 270 204 403 520 454 
6 136 231 45 386 481 93 
6 171 265 169 421 515 419 
6 138 230 52 388 480 100 
6 225 354 325 475 604 575 
6 36 284 232 84 534 482 
6 161 268 159 411 518 409 
6 71 286 229 119 536 479 
6 290 303 201 540 553 451 
6 139 355 60 389 605 108 
6 60 355 248 108 605 498 
6 273 352 302 523 602 552 
6 235 373 245 485 623 495 
6 67 356 247 115 606 497 
6 221 295 277 471 545 527 
6 142 356 67 392 606 115 
6 139 283 253 389 533 503 
6 203 315 262 453 565 512 
6 41 257 145 89 507 395 
6 36 232 135 84 482 385 
6 71 229 137 119 479 387 
6 254 255 188 504 505 438 
6 233 350 334 483 600 584 
6 262 346 203 512 596 453 
6 304 325 127 554 575 377 
6 222 329 247 472 579 497 
6 218 298 260 468 548 510 
6 290 321 291 540 571 541 
6 272 310 240 522 560 490 
6 269 274 270 519 524 520 
6 244 245 57 494 495 105 
6 49 307 141 97 557 391 
6 225 325 256 475 575 506 
6 273 310 272 523 560 522 
6 312 368 255 562 618 505 
6 249 305 206 499 555 456 
6 228 331 251 478 581 501 
6 302 342 263 552 592 513 
6 338 339 44 588 589 92 
6 190 254 188 440 504 438 
6 37 341 340 85 591 590 
6 138 233 230 388 483 480 
6 228 335 331 478 585 581 
6 181 256 179 431 506 429 
6 195 263 226 445 513 476 
6 268 285 223 518 535 473 
6 290 291 288 540 541 538 
6 219 330 248 469 580 498 
6 201 321 290 451 571 540 
6 240 310 202 490 560 452 
6 188 255 186 438 505 436 
6 270 274 271 520 524 521 
6 262 349 259 512 599 509 
6 141 324 289 391 574 539 
6 296 301 142 546 551 392 
6 247 356 222 497 606 472 
6 239 252 238 489 502 488 
6 254 312 255 504 562 505 
6 54 261 53 102 511 101 
6 289 327 303 539 577 553 
6 268 353 285 518 603 535 
6 273 302 210 523 552 460 
6 292 299 293 542 549 543 
6 278 283 139 528 533 389 
6 175 265 171 425 515 421 
6 227 338 38 477 588 86 
6 264 360 265 514 610 515 
6 43 340 146 91 590 396 
6 165 268 161 415 518 411 
6 205 351 240 455 601 490 
6 64 281 63 112 531 111 
6 288 291 47 538 541 95 
6 135 295 294 385 545 544 
6 42 257 41 90 507 89 
6 245 373 57 495 623 105 
6 31 363 323 79 613 573 
6 292 293 140 542 543 390 
6 267 353 268 517 603 518 
6 155 270 153 405 520 403 
6 244 344 245 494 594 495 
6 61 278 139 109 528 389 
6 135 294 35 385 544 83 
6 69 297 296 117 547 546 
6 186 225 184 436 475 434 
6 329 361 243 579 611 493 
6 255 328 225 505 578 475 
6 213 332 280 463 582 530 
6 39 275 133 87 525 383 
6 330 362 241 580 612 491 
6 195 226 193 445 476 443 
6 211 324 251 461 574 501 
6 151 153 152 401 403 402 
6 295 299 294 545 549 544 
6 265 313 217 515 563 467 
6 258 259 143 508 509 393 
6 251 331 211 501 581 461 
6 149 151 150 399 401 400 
6 293 370 317 543 620 567 
6 153 204 152 403 454 402 
6 151 152 150 401 402 400 
6 33 292 140 81 542 390 
6 210 263 197 460 513 447 
6 301 305 249 551 555 499 
6 298 300 297 548 550 547 
6 68 296 142 116 546 392 
6 321 369 291 571 619 541 
6 179 224 177 429 474 427 
6 167 267 165 417 517 415 
6 259 346 262 509 596 512 
6 303 327 196 553 577 446 
6 269 270 155 519 520 405 
6 265 360 313 515 610 563 
6 223 269 157 473 519 407 
6 157 269 155 407 519 405 
6 144 279 278 394 529 528 
6 169 217 167 419 467 417 
6 177 264 175 427 514 425 
6 267 268 165 517 518 415 
6 159 223 157 409 473 407 
6 232 277 135 482 527 385 
6 193 254 190 443 504 440 
6 217 267 167 467 517 417 
6 249 356 142 499 606 392 
6 184 256 181 434 506 431 
6 248 355 219 498 605 469 
6 229 260 137 479 510 387 
6 149 150 148 399 400 398 
6 64 348 281 112 598 531 
6 311 374 293 561 624 543 
6 264 265 175 514 515 425 
6 297 300 296 547 550 546 
6 141 289 288 391 539 538 
6 197 263 195 447 513 445 
6 218 260 219 468 510 469 
6 224 264 177 474 514 427 
6 137 298 297 387 548 547 
6 277 295 135 527 545 385 
6 133 228 227 383 478 477 
6 261 349 262 511 599 512 
6 221 277 222 471 527 472 
6 256 325 224 506 575 474 
6 199 210 197 449 460 447 
6 226 254 193 476 504 443 
6 144 278 62 394 528 110 
6 279 283 278 529 533 528 
6 289 290 288 539 540 538 
6 137 297 70 387 547 118 
6 34 294 292 82 544 542 
6 235 236 216 485 486 466 
6 141 288 48 391 538 96 
6 178 306 180 428 556 430 
6 185 186 184 435 436 434 
6 63 281 144 111 531 394 
6 225 256 184 475 506 434 
6 46 291 136 94 541 386 
6 147 149 148 397 399 398 
6 271 272 204 521 522 454 
6 233 334 234 483 584 484 
6 145 275 40 395 525 88 
6 220 322 287 470 572 537 
6 280 334 213 530 584 463 
6 144 280 279 394 530 529 
6 140 287 32 390 537 80 
6 154 155 153 404 405 403 
6 334 350 213 584 600 463 
6 176 177 175 426 427 425 
6 260 298 137 510 548 387 
6 33 140 32 81 390 80 
6 49 141 48 97 391 96 
6 56 143 55 104 393 103 
6 68 142 67 116 392 115 
6 63 144 62 111 394 110 
6 61 139 60 109 389 108 
6 148 308 257 398 558 507 
6 71 137 70 119 387 118 
6 53 138 52 101 388 100 
6 46 136 45 94 386 93 
6 36 135 35 84 385 83 
6 43 146 134 91 396 384 
6 133 227 38 383 477 86 
6 192 193 190 442 443 440 
6 293 374 140 543 624 390 
6 34 292 33 82 542 81 
6 207 306 178 457 556 428 
6 43 134 42 91 384 90 
6 39 133 38 87 383 86 
6 41 145 40 89 395 88 
6 194 195 193 444 445 443 
6 69 296 68 117 546 116 
6 294 299 292 544 549 542 
6 173 175 171 423 425 421 
6 260 330 219 510 580 469 
6 183 184 181 433 434 431 
6 134 257 42 384 507 90 
6 55 349 54 103 599 102 
6 163 165 161 413 415 411 
6 166 167 165 416 417 415 
6 210 302 263 460 552 513 
6 271 273 272 521 523 522 
6 53 261 138 101 511 388 
6 217 326 267 467 576 517 
6 289 303 290 539 553 540 
6 178 179 177 428 429 427 
6 238 240 202 488 490 452 
6 62 278 61 110 528 109 
6 35 294 34 83 544 82 
6 284 361 232 534 611 482 
6 70 297 69 118 547 117 
6 224 304 264 474 554 514 
6 156 157 155 406 407 405 
6 48 288 47 96 538 95 
6 221 320 295 471 570 545 
6 187 188 186 437 438 436 
6 47 291 46 95 541 94 
6 151 154 153 401 404 403 
6 286 362 229 536 612 479 
6 168 169 167 418 419 417 
6 40 275 39 88 525 87 
6 307 324 141 557 574 391 
6 300 301 296 550 551 546 
6 32 287 31 80 537 79 
6 147 220 149 397 470 399 
6 333 344 231 583 594 481 
6 299 370 293 549 620 543 
6 271 359 273 521 609 523 
6 224 325 304 474 575 554 
6 228 237 227 478 487 477 
6 305 375 343 555 625 593 
6 218 319 298 468 569 548 
6 240 351 272 490 601 522 
6 277 329 222 527 579 472 
6 253 355 139 503 605 389 
6 158 159 157 408 409 407 
6 236 246 216 486 496 466 
6 192 194 193 442 444 443 
6 220 309 149 470 559 399 
6 183 185 184 433 435 434 
6 196 197 195 446 447 445 
6 276 347 58 526 597 106 
6 136 333 231 386 583 481 
6 67 247 66 115 497 114 
6 60 248 59 108 498 107 
6 261 262 250 511 512 500 
6 173 176 175 423 426 425 
6 344 357 231 594 607 481 
6 144 281 280 394 531 530 
6 152 205 150 402 455 400 
6 163 166 165 413 416 415 
6 185 187 186 435 437 436 
6 233 234 230 483 484 480 
6 170 171 169 420 421 419 
6 146 147 134 396 397 384 
6 176 178 177 426 428 427 
6 285 337 223 535 587 473 
6 154 156 155 404 406 405 
6 263 342 226 513 592 476 
6 235 245 236 485 495 486 
6 160 161 159 410 411 409 
6 58 347 242 106 597 492 
6 166 168 167 416 418 417 
6 287 374 220 537 624 470 
6 189 190 188 439 440 438 
6 148 257 134 398 507 384 
6 194 196 195 444 446 445 
6 252 308 205 502 558 455 
6 285 345 337 535 595 587 
6 301 375 305 551 625 555 
6 180 181 179 430 431 429 
6 281 348 234 531 598 484 
6 198 199 197 448 449 447 
6 151 309 154 401 559 404 
6 228 367 335 478 617 585 
6 54 349 261 102 599 511 
6 156 158 157 406 408 407 
6 168 170 169 418 420 419 
6 200 202 199 450 452 449 
6 147 148 134 397 398 384 
6 158 160 159 408 410 409 
6 150 308 148 400 558 398 
6 253 316 208 503 566 458 
6 232 329 277 482 579 527 
6 178 180 179 428 430 429 
6 191 192 190 441 442 440 
6 214 238 202 464 488 452 
6 172 173 171 422 423 421 
6 187 189 188 437 439 438 
6 162 163 161 412 413 411 
6 228 251 237 478 501 487 
6 215 258 235 465 508 485 
6 182 183 181 432 433 431 
6 202 310 199 452 560 449 
6 219 253 208 469 503 458 
6 222 249 206 472 499 456 
6 196 198 197 446 448 447 
6 229 330 260 479 580 510 
6 132 358 274 382 608 524 
6 149 309 151 399 559 401 
6 226 312 254 476 562 504 
6 154 309 209 404 559 459 
6 77 129 76 125 379 124 
6 73 128 72 121 378 120 
6 76 131 75 124 381 123 
6 74 132 73 122 382 121 
6 75 130 74 123 380 122 
6 14 127 77 29 377 125 
6 72 126 14 120 376 29 
6 133 367 228 383 617 478 
6 237 282 227 487 532 477 
6 239 366 252 489 616 502 
6 200 214 202 450 464 452 
6 192 201 194 442 451 444 
6 170 172 171 420 422 421 
6 220 311 309 470 561 559 
6 198 200 199 448 450 449 
6 189 191 190 439 441 440 
6 146 323 322 396 573 572 
6 160 162 161 410 412 411 
6 251 307 237 501 557 487 
6 199 310 210 449 560 460 
6 57 373 56 105 623 104 
6 214 239 238 464 489 488 
6 182 212 183 432 462 433 
6 180 182 181 430 432 431 
6 146 322 147 396 572 397 
6 172 218 208 422 468 458 
6 172 208 173 422 458 423 
6 162 221 206 412 471 456 
6 162 206 163 412 456 413 
6 176 207 178 426 457 428 
6 272 351 204 522 601 454 
6 198 211 200 448 461 450 
6 182 213 212 432 463 462 
6 234 334 281 484 584 531 
6 154 209 156 404 459 406 
6 185 203 187 435 453 437 
6 168 174 170 418 424 420 
6 189 215 191 439 465 441 
6 215 216 191 465 466 441 
6 221 222 206 471 472 456 
6 158 164 160 408 414 410 
6 218 219 208 468 469 458 
6 205 308 150 455 558 400 
6 191 314 192 441 564 442 
6 215 235 216 465 485 466 
6 215 318 258 465 568 508 
6 152 351 205 402 601 455 
6 138 261 250 388 511 500 
6 192 314 201 442 564 451 
6 234 347 230 484 597 480 
6 226 342 312 476 592 562 
6 138 250 233 388 500 483 
6 147 322 220 397 572 470 
6 216 314 191 466 564 441 
6 306 332 180 556 582 430 
6 222 356 249 472 606 499 
6 128 345 285 378 595 535 
6 314 321 201 564 571 451 
6 212 315 183 462 565 433 
6 312 342 336 562 592 586 
6 282 339 338 532 589 588 
6 340 341 323 590 591 573 
6 309 311 209 559 561 459 
6 183 315 185 433 565 435 
6 208 316 173 458 566 423 
6 173 316 176 423 566 426 
6 3 341 37 18 591 85 
6 44 339 6 92 589 21 
6 252 366 145 502 616 395 
6 246 321 314 496 571 564 
6 246 314 216 496 564 466 
6 126 364 313 376 614 563 
6 156 317 158 406 567 408 
6 275 367 133 525 617 383 
6 176 316 207 426 566 457 
6 185 315 203 435 565 453 
6 180 332 182 430 582 432 
6 302 352 131 552 602 381 
6 251 324 307 501 574 557 
6 187 318 189 437 568 439 
6 172 319 218 422 569 468 
6 162 320 221 412 570 471 
6 305 343 166 555 593 416 
6 170 319 172 420 569 422 
6 158 317 164 408 567 414 
6 209 317 156 459 567 406 
6 285 353 128 535 603 378 
6 223 337 269 473 587 519 
6 160 320 162 410 570 412 
6 211 331 200 461 581 450 
6 174 319 170 424 569 420 
6 203 318 187 453 568 437 
6 189 318 215 439 568 465 
6 198 327 211 448 577 461 
6 164 320 160 414 570 410 
6 326 353 267 576 603 517 
6 236 344 333 486 594 583 
6 196 327 198 446 577 448 
6 219 355 253 469 605 503 
6 281 334 280 531 584 530 
6 274 359 271 524 609 521 
6 164 370 299 414 620 549 
6 174 375 300 424 625 550 
6 287 363 31 537 613 79 
6 243 361 1 493 611 16 
6 241 362 12 491 612 27 
6 307 365 237 557 615 487 
6 166 343 168 416 593 418 
6 200 331 214 450 581 464 
6 313 326 217 563 576 467 
6 9 357 244 24 607 494 
6 1 361 30 16 611 78 
6 12 362 65 27 612 113 
6 337 345 132 587 595 382 
6 242 348 64 492 598 112 
6 231 357 266 481 607 516 
6 182 332 213 432 582 463 
6 245 344 236 495 594 486 
6 258 346 259 508 596 509 
6 145 366 275 395 616 525 
6 291 369 136 541 619 386 
6 236 333 246 486 583 496 
6 331 335 214 581 585 464 
6 312 336 129 562 586 379 
6 315 372 262 565 622 512 
6 220 374 311 470 624 561 
6 140 374 287 390 624 537 
6 126 360 304 376 610 554 
6 230 347 276 480 597 526 
6 313 364 326 563 614 576 
6 56 373 143 104 623 393 
6 239 367 366 489 617 616 
6 204 351 152 454 601 402 
6 300 375 301 550 625 551 
6 214 335 239 464 585 489 
6 247 329 243 497 579 493 
6 262 372 250 512 622 500 
6 248 330 241 498 580 491 
6 318 346 258 568 596 508 
6 333 369 246 583 619 496 
6 282 338 227 532 588 477 
6 146 340 323 396 590 573 
6 304 360 264 554 610 514 
6 366 367 275 616 617 525 
6 129 336 76 379 586 124 
6 73 345 128 121 595 378 
6 76 336 131 124 586 381 
6 250 350 233 500 600 483 
6 129 371 328 379 621 578 
6 132 345 73 382 595 121 
6 168 343 174 418 593 424 
6 131 352 75 381 602 123 
6 66 247 243 114 497 493 
6 59 248 241 107 498 491 
6 74 358 132 122 608 382 
6 203 346 318 453 596 568 
6 313 360 126 563 610 376 
6 128 364 72 378 614 120 
6 128 353 326 378 603 576 
6 77 371 129 125 621 379 
6 129 368 312 379 618 562 
6 244 357 344 494 607 594 
6 328 354 225 578 604 475 
6 326 364 128 576 614 378 
6 75 352 130 123 602 380 
6 350 372 212 600 622 462 
6 136 369 333 386 619 583 
6 325 354 127 575 604 377 
6 213 350 212 463 600 462 
6 130 358 74 380 608 122 
6 250 372 350 500 622 600 
6 317 370 164 567 620 414 
6 72 364 126 120 614 376 
6 328 368 129 578 618 379 
6 127 371 77 377 621 125 
6 336 342 131 586 592 381 
6 212 372 315 462 622 565 
6 234 348 347 484 598 597 
6 8 266 51 23 516 99 
6 10 276 58 25 526 106 
6 246 369 321 496 619 571 
6 30 284 0 78 534 15 
6 65 286 13 113 536 28 
6 58 242 11 106 492 26 
6 266 357 51 516 607 99 
6 255 368 328 505 618 578 
6 347 348 242 597 598 492 
6 322 363 287 572 613 537 
6 323 363 322 573 613 572 
6 335 367 239 585 617 489 
6 30 361 284 78 611 534 
6 65 362 286 113 612 536 
6 237 365 282 487 615 532 
6 130 359 358 380 609 608 
6 343 375 174 593 625 424 
6 354 371 127 604 621 377 
6 328 371 354 578 621 604 
6 358 359 274 608 609 524 
6 0 284 36 15 534 84 
6 45 266 8 93 516 23 
6 52 276 10 100 526 25 
6 11 242 64 26 492 112 
6 13 286 71 28 536 119 
6 2 323 3 17 573 18 
6 31 323 2 79 573 17 
6 323 341 3 573 591 18 
6 37 340 4 85 590 19 
6 4 340 43 19 590 91 
6 38 338 5 86 588 20 
6 5 338 44 20 588 92 
6 6 282 7 21 532 22 
6 6 339 282 21 589 532 
6 282 365 7 532 615 22 

CELL_TYPES 563
13
13
13
13
13
13
13
13
13
13
13
13
13
13
13
13
13
13
13
13
13
13
13
13
13
13
13
13
13
13
13
13
13
13
13
13
13
13
13
13
13
13
13
13
13
13
13
13
13
13
13
13
13
13
13
13
13
13
13
13
13
13
13
13
13
13
13
13
13
13
13
13
13
13
13
13
13
13
13
13
13
13
13
13
13
13
13
13
13
13
13
13
13
13
13
13
13
13
13
13
13
13
13
13
13
13
13
13
13
13
13
13
13
13
13
13
13
13
13
13
13
13
13
13
13
13
13
13
13
13
13
13
13
13
13
13
13
13
13
13
13
13
13
13
13
13
13
13
13
13
13
13
13
13
13
13
13
13
13
13
13
13
13
13
13
13
13
13
13
13
13
13
13
13
13
13
13
13
13
13
13
13
13
13
13
13
13
13
13
13
13
13
13
13
13
13
13
13
13
13
13
13
13
13
13
13
13
13
13
13
13
13
13
13
13
13
13
13
13
13
13
13
13
13
13
13
13
13
13
13
13
13
13
13
13
13
13
13
13
13
13
13
13
13
13
13
13
13
13
13
13
13
13
13
13
13
13
13
13
13
13
13
13
13
13
13
13
13
13
13
13
13
13
13
13
13
13
13
13
13
13
13
13
13
13
13
13
13
13
13
13
13
13
13
13
13
13
13
13
13
13
13
13
13
13
13
13
13
13
13
13
13
13
13
13
13
13
13
13
13
13
13
13
13
13
13
13
13
13
13
13
13
13
13
13
13
13
13
13
13
13
13
13
13
13
13
13
13
13
13
13
13
13
13
13
13
13
13
13
13
13
13
13
13
13
13
13
13
13
13
13
13
13
13
13
13
13
13
13
13
13
13
13
13
13
13
13
13
13
13
13
13
13
13
13
13
13
13
13
13
13
13
13
13
13
13
13
13
13
13
13
13
13
13
13
13
13
13
13
13
13
13
13
13
13
13
13
13
13
13
13
13
13
13
13
13
13
13
13
13
13
13
13
13
13
13
13
13
13
13
13
13
13
13
13
13
13
13
13
13
13
13
13
13
13
13
13
13
13
13
13
13
13
13
13
13
13
13
13
13
13
13
13
13
13
13
13
13
13
13
13
13
13
13
13
13
13
13
13
13
13
13
13
13
13
13
13
13
13
13
13
13
13
13
13
13
13
13
13
13
13
13
13
13
13
13
13
13
13
13
13
13
13
13
13
13
13
13
13
13
13
13
13
13
13
13
13
13
13
13
13
13
13
13
13
13
13
13
13
13
13
13
13

POINT_DATA 626
VECTORS displacement float
-1.74395e-06 3.0954e-05 1.80548e-05
1.73566e-06 3.09731e-05 1.80999e-05
-2.59859e-05 1.69927e-05 1.80869e-05
-2.58406e-05 1.60328e-05 1.80514e-05
-2.77203e-05 1.39726e-05 1.80689e-05
-2.77133e-05 -1.40189e-05 1.80943e-05
-2.58118e-05 -1.6071e-05 1.81057e-05
-2.59821e-05 -1.70107e-05 1.81669e-05
-1.67741e-06 -3.09578e-05 1.80512e-05
1.75546e-06 -3.09593e-05 1.81017e-05
2.59433e-05 -1.69805e-05 1.80433e-05
2.77167e-05 -1.39365e-05 1.80432e-05
2.76721e-05 1.39892e-05 1.80915e-05
2.59146e-05 1.69928e-05 1.80458e-05
0 0 0
-1.74395e-06 3.0954e-05 -1.80548e-05
1.73566e-06 3.09731e-05 -1.80999e-05
-2.59859e-05 1.69927e-05 -1.80869e-05
-2.58406e-05 1.60328e-05 -1.80514e-05
-2.77203e-05 1.39726e-05 -1.80689e-05
-2.77133e-05 -1.40189e-05 -1.80943e-05
-2.58118e-05 -1.6071e-05 -1.81057e-05
-2.59821e-05 -1.70107e-05 -1.81669e-05
-1.67741e-06 -3.09578e-05 -1.80512e-05
1.75546e-06 -3.09593e-05 -1.81017e-05
2.59433e-05 -1.69805e-05 -1.80433e-05
2.77167e-05 -1.39365e-05 -1.80432e-05
2.76721e-05 1.39892e-05 -1.80915e-05
2.59146e-05 1.69928e-05 -1.80458e-05
0 0 0
2.4896e-08 3.01539e-05 1.8034e-05
-2.11402e-05 1.87121e-05 1.75495e-05
-1.72322e-05 1.98335e-05 1.69206e-05
-1.40067e-05 2.10539e-05 1.65547e-05
-1.12067e-05 2.26644e-05 1.65485e-05
-8.52397e-06 2.48324e-05 1.69011e-05
-5.56775e-06 2.76213e-05 1.75372e-05
-2.64495e-05 1.46789e-05 1.80333e-05
-2.67683e-05 -9.01134e-06 1.75772e-05
-2.58058e-05 -5.03535e-06 1.69257e-05
-2.5254e-05 -1.63617e-06 1.65711e-05
-2.5257e-05 1.60781e-06 1.65741e-05
-2.57981e-05 5.02275e-06 1.69239e-05
-2.67545e-05 8.98443e-06 1.75637e-05
-2.64364e-05 -1.47253e-05 1.8062e-05
-5.54101e-06 -2.76357e-05 1.75294e-05
-8.47649e-06 -2.48414e-05 1.69004e-05
-1.11699e-05 -2.26839e-05 1.65559e-05
-1.39703e-05 -2.10869e-05 1.65593e-05
-1.72146e-05 -1.98689e-05 1.69364e-05
-2.11338e-05 -1.87489e-05 1.7562e-05
8.98422e-08 -3.01387e-05 1.80292e-05
2.11236e-05 -1.86246e-05 1.75112e-05
1.72444e-05 -1.97619e-05 1.68726e-05
1.40336e-05 -2.10108e-05 1.65113e-05
1.12249e-05 -2.25926e-05 1.65458e-05
8.58113e-06 -2.47796e-05 1.68739e-05
5.65464e-06 -2.7626e-05 1.75347e-05
2.61242e-05 -1.50595e-05 1.80282e-05
2.67164e-05 8.93822e-06 1.75013e-05
2.57216e-05 5.04947e-06 1.69081e-05
2.52061e-05 1.62328e-06 1.65229e-05
2.52032e-05 -1.59939e-06 1.65212e-05
2.57502e-05 -4.99726e-06 1.68881e-05
2.66985e-05 -8.91697e-06 1.75094e-05
2.61073e-05 1.50606e-05 1.80252e-05
5.6331e-06 2.76174e-05 1.75093e-05
8.50851e-06 2.48063e-05 1.69109e-05
1.12169e-05 2.26406e-05 1.65291e-05
1.40042e-05 2.10218e-05 1.65245e-05
1.72214e-05 1.97931e-05 1.68848e-05
2.11146e-05 1.86342e-05 1.75251e-05
0 0 0
0 0 0
0 0 0
0 0 0
0 0 0
0 0 0
2.4896e-08 3.01539e-05 -1.8034e-05
-2.11402e-05 1.87121e-05 -1.75495e-05
-1.72322e-05 1.98335e-05 -1.69206e-05
-1.40067e-05 2.10539e-05 -1.65547e-05
-1.12067e-05 2.26644e-05 -1.65485e-05
-8.52397e-06 2.48324e-05 -1.69011e-05
-5.56775e-06 2.76213e-05 -1.75372e-05
-2.64495e-05 1.46789e-05 -1.80333e-05
-2.67683e-05 -9.01134e-06 -1.75772e-05
-2.58058e-05 -5.03535e-06 -1.69257e-05
-2.5254e-05 -1.63617e-06 -1.65711e-05
-2.5257e-05 1.60781e-06 -1.65741e-05
-2.57981e-05 5.02275e-06 -1.69239e-05
-2.67545e-05 8.98443e-06 -1.75637e-05
-2.64364e-05 -1.47253e-05 -1.8062e-05
-5.54101e-06 -2.76357e-05 -1.75294e-05
-8.47649e-06 -2.48414e-05 -1.69004e-05
-1.11699e-05 -2.26839e-05 -1.65559e-05
-1.39703e-05 -2.10869e-05 -1.65593e-05
-1.72146e-05 -1.98689e-05 -1.69364e-05
-2.11338e-05 -1.87489e-05 -1.7562e-05
8.98422e-08 -3.01387e-05 -1.80292e-05
2.11236e-05 -1.86246e-05 -1.75112e-05
1.72444e-05 -1.97619e-05 -1.68726e-05
1.40336e-05 -2.10108e-05 -1.65113e-05
1.12249e-05 -2.25926e-05 -1.65458e-05
8.58113e-06 -2.47796e-05 -1.68739e-05
5.65464e-06 -2.7626e-05 -1.75347e-05
2.61242e-05 -1.50595e-05 -1.80282e-05
2.67164e-05 8.93822e-06 -1.75013e-05
2.57216e-05 5.04947e-06 -1.69081e-05
2.52061e-05 1.62328e-06 -1.65229e-05
2.52032e-05 -1.59939e-06 -1.65212e-05
2.57502e-05 -4.99726e-06 -1.68881e-05
2.66985e-05 -8.91697e-06 -1.75094e-05
2.61073e-05 1.50606e-05 -1.80252e-05
5.6331e-06 2.76174e-05 -1.75093e-05
8.50851e-06 2.48063e-05 -1.69109e-05
1.12169e-05 2.26406e-05 -1.65291e-05
1.40042e-05 2.10218e-05 -1.65245e-05
1.72214e-05 1.97931e-05 -1.68848e-05
2.11146e-05 1.86342e-05 -1.75251e-05
0 0 0
0 0 0
0 0 0
0 0 0
0 0 0
0 0 0
1.79365e-06 8.58734e-07 4.55216e-06
1.73779e-06 -8.25102e-07 4.46072e-06
4.31947e-07 1.8496e-06 4.49503e-06
4.36092e-07 -1.7806e-06 4.356e-06
-1.84746e-06 2.09627e-08 4.42228e-06
-1.12307e-06 -1.30886e-06 4.15092e-06
-1.15919e-06 1.30678e-06 4.1997e-06
-2.25127e-05 -7.28753e-06 1.69997e-05
-2.2196e-05 7.37142e-06 1.69683e-05
-4.86037e-06 2.28981e-05 1.69367e-05
-4.85788e-06 -2.31312e-05 1.69636e-05
1.74209e-05 1.56352e-05 1.69296e-05
1.75684e-05 -1.55362e-05 1.69388e-05
2.10731e-05 3.16381e-06 1.63241e-05
-1.39528e-05 1.71509e-05 1.64781e-05
-1.35909e-05 -1.67409e-05 1.64096e-05
7.76771e-06 1.98191e-05 1.63309e-05
7.68473e-06 -2.03096e-05 1.64022e-05
2.14719e-05 -3.44366e-06 1.63999e-05
-2.11023e-05 6.58808e-09 1.62463e-05
-2.242e-05 1.09995e-05 1.74533e-05
-1.87506e-05 9.25452e-06 1.66268e-05
-1.79824e-05 5.79533e-06 1.6036e-05
-1.49837e-05 7.44818e-06 1.5486e-05
-1.42242e-05 4.30763e-06 1.48293e-05
-1.15324e-05 5.74377e-06 1.40944e-05
-1.08578e-05 3.06867e-06 1.33732e-05
-8.40032e-06 4.30479e-06 1.2404e-05
-9.05862e-06 7.01327e-06 1.3456e-05
-6.20398e-06 5.4884e-06 1.16886e-05
-6.82817e-06 8.24928e-06 1.30796e-05
-4.28131e-06 6.67478e-06 1.14501e-05
-4.79991e-06 9.60973e-06 1.30935e-05
-2.40082e-06 7.99319e-06 1.17226e-05
-2.81279e-06 1.1167e-05 1.34745e-05
-4.754e-07 9.5951e-06 1.25006e-05
-7.38339e-07 1.29967e-05 1.41413e-05
1.73105e-06 1.15175e-05 1.35346e-05
-5.53457e-06 1.27001e-05 1.44365e-05
1.68505e-06 8.22382e-06 1.17472e-05
4.0041e-06 1.01207e-05 1.31506e-05
3.70528e-06 7.09781e-06 1.14779e-05
6.06729e-06 8.96649e-06 1.3113e-05
5.76671e-06 6.10667e-06 1.17352e-05
8.35792e-06 8.02016e-06 1.34916e-05
8.10549e-06 5.19517e-06 1.25e-05
1.09538e-05 7.09691e-06 1.41466e-05
1.07458e-05 4.32271e-06 1.34987e-05
8.53035e-06 1.10373e-05 1.44604e-05
7.93754e-06 2.64369e-06 1.1727e-05
1.06458e-05 1.73717e-06 1.31036e-05
7.94853e-06 3.58753e-07 1.14552e-05
1.08062e-05 -7.59098e-07 1.31237e-05
8.11149e-06 -1.93777e-06 1.17087e-05
1.1098e-05 -3.31279e-06 1.34835e-05
8.46957e-06 -4.4239e-06 1.24437e-05
1.15035e-05 -6.00276e-06 1.4109e-05
8.9554e-06 -7.13797e-06 1.34277e-05
6.14741e-06 -5.49431e-06 1.16409e-05
6.64437e-06 -8.3007e-06 1.30179e-05
4.10513e-06 -6.58839e-06 1.13106e-05
4.52327e-06 -9.55068e-06 1.29879e-05
2.24225e-06 -7.85814e-06 1.1597e-05
2.48479e-06 -1.10017e-05 1.33506e-05
2.25287e-07 -9.37351e-06 1.23532e-05
3.30008e-07 -1.27696e-05 1.40335e-05
-1.9154e-06 -1.11505e-05 1.33766e-05
-1.84103e-06 -7.92147e-06 1.15818e-05
-4.16782e-06 -9.87466e-06 1.30847e-05
-3.81387e-06 -6.73038e-06 1.13168e-05
-6.3455e-06 -8.66186e-06 1.3099e-05
-5.89119e-06 -5.69791e-06 1.16281e-05
-8.49956e-06 -7.43566e-06 1.33793e-05
-8.1674e-06 -4.72797e-06 1.24083e-05
-1.10954e-05 -6.40265e-06 1.40695e-05
-4.37157e-06 -1.31229e-05 1.44333e-05
-1.08086e-05 -3.65061e-06 1.34389e-05
7.22598e-06 -1.13725e-05 1.42726e-05
-7.74156e-06 1.98265e-06 1.14926e-05
-1.32159e-05 1.03504e-06 1.42106e-05
1.72909e-06 1.50825e-05 1.49519e-05
1.37678e-05 4.62229e-07 1.43874e-05
1.38429e-05 6.09999e-06 1.49314e-05
-9.69388e-06 1.01961e-05 1.45322e-05
-5.41592e-06 -3.1976e-06 1.01819e-05
-1.17134e-05 -9.29717e-06 1.48889e-05
1.18822e-05 -8.76005e-06 1.47868e-05
1.47815e-05 -7.47347e-06 1.5403e-05
-1.39595e-05 -5.2438e-06 1.48614e-05
2.79577e-06 -1.45159e-05 1.47959e-05
4.24557e-07 -1.64991e-05 1.53975e-05
3.51838e-06 4.39687e-06 9.58091e-06
1.40103e-05 9.2989e-06 1.54913e-05
1.79305e-05 8.14482e-06 1.63003e-05
-1.56752e-05 1.13951e-05 1.62332e-05
-1.09407e-06 1.67688e-05 1.5495e-05
1.90683e-06 1.96213e-05 1.63107e-05
-2.09184e-06 5.22e-06 9.5974e-06
5.55386e-06 -7.84592e-07 9.59395e-06
3.5859e-06 -3.68351e-06 9.0818e-06
-1.77961e-06 -5.1785e-06 9.44942e-06
-2.24684e-05 -1.10106e-05 1.74741e-05
-1.87979e-05 -9.24127e-06 1.66508e-05
2.11475e-05 1.41646e-05 1.75054e-05
2.07534e-05 -1.43174e-05 1.74353e-05
-1.76459e-06 -2.54461e-05 1.75107e-05
-1.68212e-06 2.54102e-05 1.75154e-05
1.77127e-05 -1.19067e-05 1.66869e-05
2.06454e-05 -1.07509e-05 1.71157e-05
3.77559e-06 -1.89848e-05 1.61391e-05
7.68522e-07 -2.03455e-05 1.64826e-05
-1.94048e-05 -1.26503e-05 1.71429e-05
-1.37309e-05 -2.30688e-06 1.44716e-05
-1.65924e-05 -3.70136e-06 1.54773e-05
-1.03756e-05 -1.09637e-06 1.29518e-05
2.44517e-05 1.10726e-05 1.76514e-05
2.54972e-05 -1.24031e-05 1.78479e-05
2.64923e-06 2.67256e-05 1.76603e-05
2.52099e-06 -2.64132e-05 1.76291e-05
3.33943e-06 -2.30315e-05 1.70288e-05
-2.05386e-06 -1.83196e-05 1.59506e-05
4.05902e-06 2.37909e-05 1.71301e-05
2.26138e-05 8.37909e-06 1.7119e-05
4.61353e-06 1.7313e-05 1.5727e-05
1.44267e-05 -1.31192e-05 1.61371e-05
-1.57874e-05 -1.09845e-05 1.62143e-05
-1.67995e-05 -3.8142e-07 1.5377e-05
1.73056e-05 4.68739e-06 1.57254e-05
6.55211e-08 -6.3872e-06 1.02672e-05
1.74168e-06 -4.84838e-06 9.0923e-06
5.85036e-06 -2.93546e-06 1.0378e-05
-2.14438e-05 3.75042e-06 1.64585e-05
5.72925e-06 -1.62742e-05 1.55074e-05
9.08329e-06 -1.74987e-05 1.59972e-05
1.75718e-05 1.18815e-05 1.6672e-05
1.39939e-05 -1.63819e-05 1.64009e-05
1.07398e-05 -1.37887e-05 1.55498e-05
-3.54791e-06 -4.22012e-06 9.50057e-06
5.39902e-06 1.13848e-06 9.49885e-06
5.21795e-06 3.22282e-06 1.0047e-05
-1.74978e-06 -2.83541e-05 1.78766e-05
1.89203e-06 5.29879e-06 9.58424e-06
-1.13821e-07 6.10489e-06 1.00385e-05
-3.78485e-06 4.12767e-06 9.5782e-06
-5.62257e-06 3.03413e-06 1.0285e-05
-5.16538e-06 1.04065e-06 9.21342e-06
-7.5271e-06 -6.17379e-08 1.11722e-05
-4.3343e-06 -8.10264e-07 8.38168e-06
-3.10853e-06 1.8723e-06 7.37391e-06
-2.20807e-05 -3.60767e-06 1.65155e-05
2.34058e-05 -1.56877e-05 1.78359e-05
-1.50717e-06 2.11675e-05 1.66818e-05
2.12612e-05 -8.45176e-08 1.62254e-05
1.76217e-05 -1.64676e-06 1.55811e-05
1.73473e-05 -4.94157e-06 1.57704e-05
2.18911e-05 -7.45095e-06 1.69133e-05
-2.31818e-05 -1.42543e-05 1.78325e-05
1.73243e-05 1.64883e-06 1.55082e-05
-1.73399e-06 2.84726e-05 1.78939e-05
-4.22064e-07 3.68335e-06 7.49515e-06
2.37715e-05 1.57421e-05 1.78843e-05
-1.7497e-05 1.56419e-05 1.69747e-05
-1.0626e-05 -1.84657e-05 1.62548e-05
-1.00993e-05 -1.4342e-05 1.55714e-05
-7.50762e-06 -1.60945e-05 1.56217e-05
-7.32199e-06 -2.01201e-05 1.6395e-05
-1.07042e-05 1.85348e-05 1.62665e-05
-1.03471e-05 1.43838e-05 1.5619e-05
-7.77249e-06 2.0492e-05 1.64439e-05
-4.25291e-06 1.86093e-05 1.60527e-05
1.07595e-05 1.83451e-05 1.62259e-05
1.38914e-05 1.69346e-05 1.64307e-05
1.40417e-05 1.29726e-05 1.6051e-05
-7.36143e-06 1.6288e-05 1.56382e-05
1.05249e-05 1.45467e-05 1.56449e-05
7.74859e-06 1.6092e-05 1.56136e-05
-3.11641e-06 -1.89873e-06 7.39304e-06
-7.2575e-06 -1.24217e-05 1.46249e-05
3.00861e-06 4.03595e-08 6.60085e-06
4.87248e-06 1.35225e-05 1.46178e-05
1.40757e-05 -2.26034e-06 1.45702e-05
-1.72894e-05 -1.52164e-05 1.69452e-05
-1.73661e-05 2.42025e-06 1.55975e-05
-1.22045e-05 8.91176e-06 1.49432e-05
-7.70549e-06 -2.29248e-06 1.15544e-05
-1.24495e-05 1.18124e-05 1.55397e-05
-1.42733e-07 -3.75416e-06 7.55403e-06
2.73019e-06 2.27204e-06 7.25179e-06
-2.00383e-06 -1.46502e-05 1.48078e-05
9.36491e-06 -1.0068e-05 1.43891e-05
1.38605e-05 3.15775e-06 1.45658e-05
-7.3399e-06 1.11992e-05 1.426e-05
4.99713e-06 -1.27745e-05 1.4369e-05
1.10317e-05 1.04303e-05 1.49194e-05
-3.59638e-06 1.4685e-05 1.49078e-05
-4.63538e-06 -1.66166e-05 1.55486e-05
-1.95067e-05 1.28922e-05 1.71611e-05
-2.31266e-05 1.4858e-05 1.78432e-05
-1.29047e-05 -1.26859e-05 1.58123e-05
3.76074e-06 -1.5861e-06 7.9068e-06
1.76437e-06 2.92224e-06 7.0843e-06
-9.23031e-06 -1.06093e-05 1.45315e-05
1.72772e-06 -2.82312e-06 6.93094e-06
9.94722e-07 2.41165e-05 1.73083e-05
2.13676e-05 1.11937e-05 1.72984e-05
-1.46644e-05 -7.95325e-06 1.54851e-05
1.37078e-05 -4.78623e-06 1.46904e-05
-1.90986e-06 -2.17626e-05 1.68025e-05
1.80601e-05 -8.41892e-06 1.63405e-05
-1.66786e-05 -6.32846e-06 1.57822e-05
-4.32895e-07 -1.9223e-06 4.79839e-06
-1.80534e-06 2.9954e-06 7.17705e-06
-2.50517e-05 -1.29816e-05 1.79221e-05
-2.51269e-05 -1.45071e-05 1.80019e-05
-2.50448e-05 1.30335e-05 1.79059e-05
-2.51177e-05 1.46498e-05 1.7982e-05
-1.64843e-06 -3.1248e-06 7.20979e-06
6.32784e-06 1.13682e-05 1.40763e-05
5.33707e-07 -2.40857e-05 1.7302e-05
-5.22771e-07 1.80952e-06 4.64493e-06
7.40733e-06 -1.43434e-05 1.51521e-05
2.33025e-05 -1.32092e-05 1.77286e-05
2.36324e-05 -1.05374e-05 1.74906e-05
1.19882e-05 -1.82106e-05 1.6293e-05
1.47299e-05 -1.01465e-05 1.57954e-05
-1.00269e-05 1.00123e-06 1.27544e-05
-1.73999e-06 -8.15892e-07 4.72338e-06
7.69054e-07 3.7083e-06 7.57301e-06
2.34304e-06 -1.99713e-06 6.55518e-06
2.01562e-05 5.89772e-06 1.64534e-05
5.07002e-06 2.05956e-05 1.64958e-05
3.42117e-07 -2.76797e-05 1.78538e-05
-1.73121e-06 7.09103e-07 4.60625e-06
-3.21146e-06 6.2304e-07 6.82403e-06
3.57717e-06 1.47539e-06 7.63649e-06
4.99224e-07 2.83234e-05 1.79271e-05
2.476e-05 1.37339e-05 1.79183e-05
-2.03281e-05 1.55356e-05 1.74288e-05
1.17869e-06 1.36446e-06 4.45978e-06
-2.06393e-05 -1.57282e-05 1.75274e-05
-1.89986e-05 -2.32214e-06 1.59459e-05
-1.95589e-05 -5.58489e-06 1.6332e-05
9.05671e-07 -3.24771e-06 7.00599e-06
-4.36596e-06 -1.9789e-05 1.63216e-05
-7.93715e-06 1.38342e-05 1.51009e-05
1.16573e-06 -1.30417e-06 4.33922e-06
1.19342e-05 -1.12282e-05 1.52919e-05
6.133e-06 -2.26957e-05 1.68203e-05
-1.45219e-05 1.43552e-05 1.63234e-05
7.92895e-06 1.3321e-05 1.49478e-05
1.79365e-06 8.58734e-07 -4.55216e-06
1.73779e-06 -8.25102e-07 -4.46072e-06
4.31947e-07 1.8496e-06 -4.49503e-06
4.36092e-07 -1.7806e-06 -4.356e-06
-1.84746e-06 2.09627e-08 -4.42228e-06
-1.12307e-06 -1.30886e-06 -4.15092e-06
-1.15919e-06 1.30678e-06 -4.1997e-06
-2.25127e-05 -7.28753e-06 -1.69997e-05
-2.2196e-05 7.37142e-06 -1.69683e-05
-4.86037e-06 2.28981e-05 -1.69367e-05
-4.85788e-06 -2.31312e-05 -1.69636e-05
1.74209e-05 1.56352e-05 -1.69296e-05
1.75684e-05 -1.55362e-05 -1.69388e-05
2.10731e-05 3.16381e-06 -1.63241e-05
-1.39528e-05 1.71509e-05 -1.64781e-05
-1.35909e-05 -1.67409e-05 -1.64096e-05
7.76771e-06 1.98191e-05 -1.63309e-05
7.68473e-06 -2.03096e-05 -1.64022e-05
2.14719e-05 -3.44366e-06 -1.63999e-05
-2.11023e-05 6.58808e-09 -1.62463e-05
-2.242e-05 1.09995e-05 -1.74533e-05
-1.87506e-05 9.25452e-06 -1.66268e-05
-1.79824e-05 5.79533e-06 -1.6036e-05
-1.49837e-05 7.44818e-06 -1.5486e-05
-1.42242e-05 4.30763e-06 -1.48293e-05
-1.15324e-05 5.74377e-06 -1.40944e-05
-1.08578e-05 3.06867e-06 -1.33732e-05
-8.40032e-06 4.30479e-06 -1.2404e-05
-9.05862e-06 7.01327e-06 -1.3456e-05
-6.20398e-06 5.4884e-06 -1.16886e-05
-6.82817e-06 8.24928e-06 -1.30796e-05
-4.28131e-06 6.67478e-06 -1.14501e-05
-4.79991e-06 9.60973e-06 -1.30935e-05
-2.40082e-06 7.99319e-06 -1.17226e-05
-2.81279e-06 1.1167e-05 -1.34745e-05
-4.754e-07 9.5951e-06 -1.25006e-05
-7.38339e-07 1.29967e-05 -1.41413e-05
1.73105e-06 1.15175e-05 -1.35346e-05
-5.53457e-06 1.27001e-05 -1.44365e-05
1.68505e-06 8.22382e-06 -1.17472e-05
4.0041e-06 1.01207e-05 -1.31506e-05
3.70528e-06 7.09781e-06 -1.14779e-05
6.06729e-06 8.96649e-06 -1.3113e-05
5.76671e-06 6.10667e-06 -1.17352e-05
8.35792e-06 8.02016e-06 -1.34916e-05
8.10549e-06 5.19517e-06 -1.25e-05
1.09538e-05 7.09691e-06 -1.41466e-05
1.07458e-05 4.32271e-06 -1.34987e-05
8.53035e-06 1.10373e-05 -1.44604e-05
7.93754e-06 2.64369e-06 -1.1727e-05
1.06458e-05 1.73717e-06 -1.31036e-05
7.94853e-06 3.58753e-07 -1.14552e-05
1.08062e-05 -7.59098e-07 -1.31237e-05
8.11149e-06 -1.93777e-06 -1.17087e-05
1.1098e-05 -3.31279e-06 -1.34835e-05
8.46957e-06 -4.4239e-06 -1.24437e-05
1.15035e-05 -6.00276e-06 -1.4109e-05
8.9554e-06 -7.13797e-06 -1.34277e-05
6.14741e-06 -5.49431e-06 -1.16409e-05
6.64437e-06 -8.3007e-06 -1.30179e-05
4.10513e-06 -6.58839e-06 -1.13106e-05
4.52327e-06 -9.55068e-06 -1.29879e-05
2.24225e-06 -7.85814e-06 -1.1597e-05
2.48479e-06 -1.10017e-05 -1.33506e-05
2.25287e-07 -9.37351e-06 -1.23532e-05
3.30008e-07 -1.27696e-05 -1.40335e-05
-1.9154e-06 -1.11505e-05 -1.33766e-05
-1.84103e-06 -7.92147e-06 -1.15818e-05
-4.16782e-06 -9.87466e-06 -1.30847e-05
-3.81387e-06 -6.73038e-06 -1.13168e-05
-6.3455e-06 -8.66186e-06 -1.3099e-05
-5.89119e-06 -5.69791e-06 -1.16281e-05
-8.49956e-06 -7.43566e-06 -1.33793e-05
-8.1674e-06 -4.72797e-06 -1.24083e-05
-1.10954e-05 -6.40265e-06 -1.40695e-05
-4.37157e-06 -1.31229e-05 -1.44333e-05
-1.08086e-05 -3.65061e-06 -1.34389e-05
7.22598e-06 -1.13725e-05 -1.42726e-05
-7.74156e-06 1.98265e-06 -1.14926e-05
-1.32159e-05 1.03504e-06 -1.42106e-05
1.72909e-06 1.50825e-05 -1.49519e-05
1.37678e-05 4.62229e-07 -1.43874e-05
1.38429e-05 6.09999e-06 -1.49314e-05
-9.69388e-06 1.01961e-05 -1.45322e-05
-5.41592e-06 -3.1976e-06 -1.01819e-05
-1.17134e-05 -9.29717e-06 -1.48889e-05
1.18822e-05 -8.76005e-06 -1.47868e-05
1.47815e-05 -7.47347e-06 -1.5403e-05
-1.39595e-05 -5.2438e-06 -1.48614e-05
2.79577e-06 -1.45159e-05 -1.47959e-05
4.24557e-07 -1.64991e-05 -1.53975e-05
3.51838e-06 4.39687e-06 -9.58091e-06
1.40103e-05 9.2989e-06 -1.54913e-05
1.79305e-05 8.14482e-06 -1.63003e-05
-1.56752e-05 1.13951e-05 -1.62332e-05
-1.09407e-06 1.67688e-05 -1.5495e-05
1.90683e-06 1.96213e-05 -1.63107e-05
-2.09184e-06 5.22e-06 -9.5974e-06
5.55386e-06 -7.84592e-07 -9.59395e-06
3.5859e-06 -3.68351e-06 -9.0818e-06
-1.77961e-06 -5.1785e-06 -9.44942e-06
-2.24684e-05 -1.10106e-05 -1.74741e-05
-1.87979e-05 -9.24127e-06 -1.66508e-05
2.11475e-05 1.41646e-05 -1.75054e-05
2.07534e-05 -1.43174e-05 -1.74353e-05
-1.76459e-06 -2.54461e-05 -1.75107e-05
-1.68212e-06 2.54102e-05 -1.75154e-05
1.77127e-05 -1.19067e-05 -1.66869e-05
2.06454e-05 -1.07509e-05 -1.71157e-05
3.77559e-06 -1.89848e-05 -1.61391e-05
7.68522e-07 -2.03455e-05 -1.64826e-05
-1.94048e-05 -1.26503e-05 -1.71429e-05
-1.37309e-05 -2.30688e-06 -1.44716e-05
-1.65924e-05 -3.70136e-06 -1.54773e-05
-1.03756e-05 -1.09637e-06 -1.29518e-05
2.44517e-05 1.10726e-05 -1.76514e-05
2.54972e-05 -1.24031e-05 -1.78479e-05
2.64923e-06 2.67256e-05 -1.76603e-05
2.52099e-06 -2.64132e-05 -1.76291e-05
3.33943e-06 -2.30315e-05 -1.70288e-05
-2.05386e-06 -1.83196e-05 -1.59506e-05
4.05902e-06 2.37909e-05 -1.71301e-05
2.26138e-05 8.37909e-06 -1.7119e-05
4.61353e-06 1.7313e-05 -1.5727e-05
1.44267e-05 -1.31192e-05 -1.61371e-05
-1.57874e-05 -1.09845e-05 -1.62143e-05
-1.67995e-05 -3.8142e-07 -1.5377e-05
1.73056e-05 4.68739e-06 -1.57254e-05
6.55211e-08 -6.3872e-06 -1.02672e-05
1.74168e-06 -4.84838e-06 -9.0923e-06
5.85036e-06 -2.93546e-06 -1.0378e-05
-2.14438e-05 3.75042e-06 -1.64585e-05
5.72925e-06 -1.62742e-05 -1.55074e-05
9.08329e-06 -1.74987e-05 -1.59972e-05
1.75718e-05 1.18815e-05 -1.6672e-05
1.39939e-05 -1.63819e-05 -1.64009e-05
1.07398e-05 -1.37887e-05 -1.55498e-05
-3.54791e-06 -4.22012e-06 -9.50057e-06
5.39902e-06 1.13848e-06 -9.49885e-06
5.21795e-06 3.22282e-06 -1.0047e-05
-1.74978e-06 -2.83541e-05 -1.78766e-05
1.89203e-06 5.29879e-06 -9.58424e-06
-1.13821e-07 6.10489e-06 -1.00385e-05
-3.78485e-06 4.12767e-06 -9.5782e-06
-5.62257e-06 3.03413e-06 -1.0285e-05
-5.16538e-06 1.04065e-06 -9.21342e-06
-7.5271e-06 -6.17379e-08 -1.11722e-05
-4.3343e-06 -8.10264e-07 -8.38168e-06
-3.10853e-06 1.8723e-06 -7.37391e-06
-2.20807e-05 -3.60767e-06 -1.65155e-05
2.34058e-05 -1.56877e-05 -1.78359e-05
-1.50717e-06 2.11675e-05 -1.66818e-05
2.12612e-05 -8.45176e-08 -1.62254e-05
1.76217e-05 -1.64676e-06 -1.55811e-05
1.73473e-05 -4.94157e-06 -1.57704e-05
2.18911e-05 -7.45095e-06 -1.69133e-05
-2.31818e-05 -1.42543e-05 -1.78325e-05
1.73243e-05 1.64883e-06 -1.55082e-05
-1.73399e-06 2.84726e-05 -1.78939e-05
-4.22064e-07 3.68335e-06 -7.49515e-06
2.37715e-05 1.57421e-05 -1.78843e-05
-1.7497e-05 1.56419e-05 -1.69747e-05
-1.0626e-05 -1.84657e-05 -1.62548e-05
-1.00993e-05 -1.4342e-05 -1.55714e-05
-7.50762e-06 -1.60945e-05 -1.56217e-05
-7.32199e-06 -2.01201e-05 -1.6395e-05
-1.07042e-05 1.85348e-05 -1.62665e-05
-1.03471e-05 1.43838e-05 -1.5619e-05
-7.77249e-06 2.0492e-05 -1.64439e-05
-4.25291e-06 1.86093e-05 -1.60527e-05
1.07595e-05 1.83451e-05 -1.62259e-05
1.38914e-05 1.69346e-05 -1.64307e-05
1.40417e-05 1.29726e-05 -1.6051e-05
-7.36143e-06 1.6288e-05 -1.56382e-05
1.05249e-05 1.45467e-05 -1.56449e-05
7.74859e-06 1.6092e-05 -1.56136e-05
-3.11641e-06 -1.89873e-06 -7.39304e-06
-7.2575e-06 -1.24217e-05 -1.46249e-05
3.00861e-06 4.03595e-08 -6.60085e-06
4.87248e-06 1.35225e-05 -1.46178e-05
1.40757e-05 -2.26034e-06 -1.45702e-05
-1.72894e-05 -1.52164e-05 -1.69452e-05
-1.73661e-05 2.42025e-06 -1.55975e-05
-1.22045e-05 8.91176e-06 -1.49432e-05
-7.70549e-06 -2.29248e-06 -1.15544e-05
-1.24495e-05 1.18124e-05 -1.55397e-05
-1.42733e-07 -3.75416e-06 -7.55403e-06
2.73019e-06 2.27204e-06 -7.25179e-06
-2.00383e-06 -1.46502e-05 -1.48078e-05
9.36491e-06 -1.0068e-05 -1.43891e-05
1.38605e-05 3.15775e-06 -1.45658e-05
-7.3399e-06 1.11992e-05 -1.426e-05
4.99713e-06 -1.27745e-05 -1.4369e-05
1.10317e-05 1.04303e-05 -1.49194e-05
-3.59638e-06 1.4685e-05 -1.49078e-05
-4.63538e-06 -1.66166e-05 -1.55486e-05
-1.95067e-05 1.28922e-05 -1.71611e-05
-2.31266e-05 1.4858e-05 -1.78432e-05
-1.29047e-05 -1.26859e-05 -1.58123e-05
3.76074e-06 -1.5861e-06 -7.9068e-06
1.76437e-06 2.92224e-06 -7.0843e-06
-9.23031e-06 -1.06093e-05 -1.45315e-05
1.72772e-06 -2.82312e-06 -6.93094e-06
9.94722e-07 2.41165e-05 -1.73083e-05
2.13676e-05 1.11937e-05 -1.72984e-05
-1.46644e-05 -7.95325e-06 -1.54851e-05
1.37078e-05 -4.78623e-06 -1.46904e-05
-1.90986e-06 -2.17626e-05 -1.68025e-05
1.80601e-05 -8.41892e-06 -1.63405e-05
-1.66786e-05 -6.32846e-06 -1.57822e-05
-4.32895e-07 -1.9223e-06 -4.79839e-06
-1.80534e-06 2.9954e-06 -7.17705e-06
-2.50517e-05 -1.29816e-05 -1.79221e-05
-2.51269e-05 -1.45071e-05 -1.80019e-05
-2.50448e-05 1.30335e-05 -1.79059e-05
-2.51177e-05 1.46498e-05 -1.7982e-05
-1.64843e-06 -3.1248e-06 -7.20979e-06
6.32784e-06 1.13682e-05 -1.40763e-05
5.33707e-07 -2.40857e-05 -1.7302e-05
-5.22771e-07 1.80952e-06 -4.64493e-06
7.40733e-06 -1.43434e-05 -1.51521e-05
2.33025e-05 -1.32092e-05 -1.77286e-05
2.36324e-05 -1.05374e-05 -1.74906e-05
1.19882e-05 -1.82106e-05 -1.6293e-05
1.47299e-05 -1.01465e-05 -1.57954e-05
-1.00269e-05 1.00123e-06 -1.27544e-05
-1.73999e-06 -8.15892e-07 -4.72338e-06
7.69054e-07 3.7083e-06 -7.57301e-06
2.34304e-06 -1.99713e-06 -6.55518e-06
2.01562e-05 5.89772e-06 -1.64534e-05
5.07002e-06 2.05956e-05 -1.64958e-05
3.42117e-07 -2.76797e-05 -1.78538e-05
-1.73121e-06 7.09103e-07 -4.60625e-06
-3.21146e-06 6.2304e-07 -6.82403e-06
3.57717e-06 1.47539e-06 -7.63649e-06
4.99224e-07 2.83234e-05 -1.79271e-05
2.476e-05 1.37339e-05 -1.79183e-05
-2.03281e-05 1.55356e-05 -1.74288e-05
1.17869e-06 1.36446e-06 -4.45978e-06
-2.06393e-05 -1.57282e-05 -1.75274e-05
-1.89986e-05 -2.32214e-06 -1.59459e-05
-1.95589e-05 -5.58489e-06 -1.6332e-05
9.05671e-07 -3.24771e-06 -7.00599e-06
-4.36596e-06 -1.9789e-05 -1.63216e-05
-7.93715e-06 1.38342e-05 -1.51009e-05
1.16573e-06 -1.30417e-06 -4.33922e-06
1.19342e-05 -1.12282e-05 -1.52919e-05
6.133e-06 -2.26957e-05 -1.68203e-05
-1.45219e-05 1.43552e-05 -1.63234e-05
7.92895e-06 1.3321e-05 -1.49478e-05
SCALARS effective_fluid_pressure_TPM float
LOOKUP_TABLE default
665
665
665
665
665
665
665
665
665
665
665
665
665
665
133
665
665
665
665
665
665
665
665
665
665
665
665
665
665
133
665
560.313
520.656
502.796
502.567
519.782
559.934
665
561.98
520.751
503.238
503.348
520.683
561.602
665
559.6
519.653
502.741
502.958
521.152
561.618
665
558.857
518.997
501.529
502.225
518.847
559.445
665
558.497
519.937
501.861
501.793
519.37
557.936
665
558.653
519.951
502.034
501.895
519.358
559.659
133
133
133
133
133
133
665
560.313
520.656
502.796
502.567
519.782
559.934
665
561.98
520.751
503.238
503.348
520.683
561.602
665
559.6
519.653
502.741
502.958
521.152
561.618
665
558.857
518.997
501.529
502.225
518.847
559.445
665
558.497
519.937
501.861
501.793
519.37
557.936
665
558.653
519.951
502.034
501.895
519.358
559.659
133
133
133
133
133
133
228.253
226.324
227.037
224.105
225.521
219.843
220.859
529.157
528.166
526.545
527.924
526.572
527.626
498.692
503.538
501.577
498.933
501.449
501.231
494.312
562.496
518.971
495.016
480.723
461.342
443.262
425.03
402.105
427.255
385.251
417.723
379.598
417.886
385.936
427.371
404.282
444.366
429.061
450.242
386.545
419.286
380.192
418.297
386.175
427.745
404.21
444.476
428.145
450.839
386.02
418.149
379.609
418.505
385.543
427.581
402.904
443.539
426.436
384.036
416.122
376.293
415.329
383.008
424.402
400.83
441.688
425.21
382.745
417.762
376.557
418.08
383.83
425.25
402.197
442.661
450.633
426.71
445.99
380.718
444.657
465.272
448.724
464.745
453.393
350.894
463.487
461.019
478.426
462.754
460.624
478.33
337.269
480.802
505.835
503.594
480.868
506.142
337.681
337.493
326.157
334.407
563.372
519.646
567.573
562.358
567.89
567.743
521.794
542.707
498.607
513.719
542.052
451.435
477.553
414.641
579.514
611.025
579.667
576.027
534.541
494.457
538.215
537.911
485.013
498.092
503.311
473.114
485.061
352.738
326.407
355.167
503.42
477.691
488.334
520.863
502.003
477.889
335.532
335.396
347.69
613.443
337.37
347.562
337.256
353.194
329.181
373.245
310.652
288.781
504.686
608.378
521.085
493.696
478.301
486.33
526.479
600.336
476.538
615.896
291.39
615.795
528.707
494.508
478.208
479.383
501.29
494.814
479.409
502.485
495.149
493.718
502.237
495.223
479.856
480.022
479.024
289.288
454.565
271.936
454.972
453.601
526.988
479.445
465.196
382.087
480.481
292.663
286.075
461.452
449.606
453.95
445.827
448.661
463.577
463.234
479.926
543.447
601.698
487.466
300.294
282.455
452.986
279.157
552.23
551.989
480.748
457.99
526.21
508.162
488.563
233.725
284.552
614.503
636.32
615.137
636.677
285.273
441.313
553.07
230.481
467.524
590.258
566.024
495.787
490.022
410.018
232.115
293.089
271.12
507.87
509.167
607.81
229.658
276.97
294.423
618.875
618.788
558.504
226.518
562.517
488.285
503.369
280.84
504.039
466.35
224.003
473.557
519.555
502.954
462.417
228.253
226.324
227.037
224.105
225.521
219.843
220.859
529.157
528.166
526.545
527.924
526.572
527.626
498.692
503.538
501.577
498.933
501.449
501.231
494.312
562.496
518.971
495.016
480.723
461.342
443.262
425.03
402.105
427.255
385.251
417.723
379.598
417.886
385.936
427.371
404.282
444.366
429.061
450.242
386.545
419.286
380.192
418.297
386.175
427.745
404.21
444.476
428.145
450.839
386.02
418.149
379.609
418.505
385.543
427.581
402.904
443.539
426.436
384.036
416.122
376.293
415.329
383.008
424.402
400.83
441.688
425.21
382.745
417.762
376.557
418.08
383.83
425.25
402.197
442.661
450.633
426.71
445.99
380.718
444.657
465.272
448.724
464.745
453.393
350.894
463.487
461.019
478.426
462.754
460.624
478.33
337.269
480.802
505.835
503.594
480.868
506.142
337.681
337.493
326.157
334.407
563.372
519.646
567.573
562.358
567.89
567.743
521.794
542.707
498.607
513.719
542.052
451.435
477.553
414.641
579.514
611.025
579.667
576.027
534.541
494.457
538.215
537.911
485.013
498.092
503.311
473.114
485.061
352.738
326.407
355.167
503.42
477.691
488.334
520.863
502.003
477.889
335.532
335.396
347.69
613.443
337.37
347.562
337.256
353.194
329.181
373.245
310.652
288.781
504.686
608.378
521.085
493.696
478.301
486.33
526.479
600.336
476.538
615.896
291.39
615.795
528.707
494.508
478.208
479.383
501.29
494.814
479.409
502.485
495.149
493.718
502.237
495.223
479.856
480.022
479.024
289.288
454.565
271.936
454.972
453.601
526.988
479.445
465.196
382.087
480.481
292.663
286.075
461.452
449.606
453.95
445.827
448.661
463.577
463.234
479.926
543.447
601.698
487.466
300.294
282.455
452.986
279.157
552.23
551.989
480.748
457.99
526.21
508.162
488.563
233.725
284.552
614.503
636.32
615.137
636.677
285.273
441.313
553.07
230.481
467.524
590.258
566.024
495.787
490.022
410.018
232.115
293.089
271.12
507.87
509.167
607.81
229.658
276.97
294.423
618.875
618.788
558.504
226.518
562.517
488.285
503.369
280.84
504.039
466.35
224.003
473.557
519.555
502.954
462.417

CELL_DATA 563
TENSORS stress float
164.608 -24.9202 -9.9476e-13
-24.9202 28.1477 6.2658e-12
-9.9476e-13 6.2658e-12 -12.6049

-40.3383 -21.3202 -3.13527e-13
-21.3202 -7.35467 1.54099e-12
-3.13527e-13 1.54099e-12 -10.2313

-9.93963 28.0429 -3.39225e-12
28.0429 -1.11017 -4.08592e-12
-3.39225e-12 -4.08592e-12 -6.35964

-40.4266 -29.8427 -2.17189e-12
-29.8427 -12.8459 -2.3137e-13
-2.17189e-12 -2.3137e-13 -10.5976

-22.6926 19.931 1.34026e-12
19.931 -1.92205 -2.65802e-12
1.34026e-12 -2.65802e-12 -23.0217

-27.1388 -18.0742 -3.42067e-12
-18.0742 15.8879 -3.60482e-12
-3.42067e-12 -3.60482e-12 -6.41041

161.259 26.4843 -1.6153e-12
26.4843 28.0244 6.66015e-12
-1.6153e-12 6.66015e-12 -13.2638

-5.96115 29.9576 5.34091e-13
29.9576 -10.1119 -2.57365e-12
5.34091e-13 -2.57365e-12 -7.27573

34.6309 5.48307 1.23871e-12
5.48307 -19.0941 1.26192e-12
1.23871e-12 1.26192e-12 -4.12148

11.8603 -7.47756 -2.05791e-12
-7.47756 -48.2869 2.69636e-13
-2.05791e-12 2.69636e-13 -8.94651

104.192 16.3082 6.30251e-12
16.3082 -8.44343 -4.01634e-12
6.30251e-12 -4.01634e-12 -22.4544

-34.637 -13.453 -3.76958e-12
-13.453 18.9658 1.02141e-12
-3.76958e-12 1.02141e-12 -7.17999

-6.0257 27.8328 -3.22705e-13
27.8328 -4.59136 -1.87643e-12
-3.22705e-13 -1.87643e-12 -6.15859

-35.5512 -14.3399 -5.22082e-13
-14.3399 7.84497 -1.72307e-13
-5.22082e-13 -1.72307e-13 -9.13085

-23.6537 33.3116 -1.19016e-13
33.3116 -24.9943 -2.18441e-12
-1.19016e-13 -2.18441e-12 -21.3652

21.3106 0.560958 -1.16825e-12
0.560958 -32.3379 -2.5858e-12
-1.16825e-12 -2.5858e-12 -5.58903

-48.9594 -17.9692 -2.54252e-12
-17.9692 6.34301 4.11227e-13
-2.54252e-12 4.11227e-13 -12.9458

11.6601 -2.6652 -2.82322e-12
-2.6652 -43.2481 1.59391e-12
-2.82322e-12 1.59391e-12 -8.03292

-11.3492 26.6733 3.27116e-12
26.6733 19.5173 1.83794e-12
3.27116e-12 1.83794e-12 -6.08874

21.7654 -4.1955 1.69583e-12
-4.1955 -35.2937 8.60719e-13
1.69583e-12 8.60719e-13 -6.74056

-24.4785 8.66843 -1.578e-13
8.66843 32.1273 -2.72138e-12
-1.578e-13 -2.72138e-12 -4.93364

-11.8088 6.28784 -7.10943e-12
6.28784 -11.9743 -1.00956e-12
-7.10943e-12 -1.00956e-12 -75.6227

22.7431 1.87596 1.64076e-12
1.87596 -33.468 -9.31995e-13
1.64076e-12 -9.31995e-13 -6.67654

-12.3875 -27.7147 4.37576e-12
-27.7147 1.59987 -3.36975e-12
4.37576e-12 -3.36975e-12 -6.60205

21.3042 6.84929 2.35012e-12
6.84929 -34.3031 -7.61021e-13
2.35012e-12 -7.61021e-13 -6.8058

-37.9047 19.1127 2.95075e-12
19.1127 2.65399 3.98792e-13
2.95075e-12 3.98792e-13 -9.45708

106.601 4.18129 -8.97652e-13
4.18129 20.6024 4.14483e-14
-8.97652e-13 4.14483e-14 -12.0494

-5.30149 30.7455 5.32907e-13
30.7455 -7.27183 -1.38053e-12
5.32907e-13 -1.38053e-12 -7.44093

27.8898 37.0737 -7.23569e-13
37.0737 26.469 -5.60145e-13
-7.23569e-13 -5.60145e-13 -8.63174

-9.43909 10.3235 3.83693e-13
10.3235 -32.9308 -2.07863e-12
3.83693e-13 -2.07863e-12 -49.51

19.8306 14.2168 2.5017e-12
14.2168 -29.3586 5.12908e-12
2.5017e-12 5.12908e-12 -6.00031

-4.20974 -17.78 4.0569e-12
-17.78 59.6568 -1.04331e-12
4.0569e-12 -1.04331e-12 -8.47564

66.282 -42.101 1.80952e-12
-42.101 71.1371 -1.85689e-12
1.80952e-12 -1.85689e-12 -11.2522

-48.2102 5.98689 3.64196e-12
5.98689 7.26964 4.31655e-13
3.64196e-12 4.31655e-13 -41.0385

-26.2913 -4.84089 -5.54209e-12
-4.84089 1.75674 3.48077e-12
-5.54209e-12 3.48077e-12 -37.8033

-1.46669 21.0279 -4.48797e-12
21.0279 -39.5068 -6.83883e-12
-4.48797e-12 -6.83883e-12 -41.1043

-43.9765 5.0677 1.54809e-12
5.0677 0.514245 -3.07487e-12
1.54809e-12 -3.07487e-12 -52.1925

-2.75993 -9.16986 -2.4943e-12
-9.16986 -20.77 1.58717e-12
-2.4943e-12 1.58717e-12 -35.8977

-3.97391 -27.9978 -4.5303e-12
-27.9978 -4.61036 -3.15659e-12
-4.5303e-12 -3.15659e-12 -5.99392

65.5958 41.5203 -1.72188e-12
41.5203 73.1648 -5.33854e-12
-1.72188e-12 -5.33854e-12 -10.964

60.1542 -17.9487 5.31249e-12
-17.9487 0.117404 2.44071e-12
5.31249e-12 2.44071e-12 -8.04964

-41.8042 -3.70623 6.31066e-12
-3.70623 -1.18565 -1.55357e-12
6.31066e-12 -1.55357e-12 -52.7273

-14.5942 19.5558 2.79406e-12
19.5558 -28.5519 -2.19676e-13
2.79406e-12 -2.19676e-13 -52.8355

18.1408 -12.2732 2.58697e-12
-12.2732 -29.8984 3.99873e-12
2.58697e-12 3.99873e-12 -6.2225

38.1726 -43.2982 -2.62664e-12
-43.2982 41.8005 2.6373e-12
-2.62664e-12 2.6373e-12 -14.5589

58.1429 -18.063 -2.089e-12
-18.063 -2.30224 -1.74853e-12
-2.089e-12 -1.74853e-12 -7.91321

-21.4411 17.0854 -1.6563e-12
17.0854 30.3269 2.78533e-12
-1.6563e-12 2.78533e-12 -5.72768

-11.3722 19.3386 4.17237e-12
19.3386 25.5104 1.37372e-13
4.17237e-12 1.37372e-13 -3.92112

20.7911 -16.3008 -2.5923e-12
-16.3008 -33.1136 -3.44021e-12
-2.5923e-12 -3.44021e-12 -7.31106

12.6154 -34.1846 2.16005e-12
-34.1846 46.4348 -2.49282e-12
2.16005e-12 -2.49282e-12 -10.3969

62.359 19.1814 -3.66285e-12
19.1814 2.81061 -4.08917e-12
-3.66285e-12 -4.08917e-12 -8.41361

46.5128 -25.2878 1.58806e-12
-25.2878 5.13438 1.67096e-12
1.58806e-12 1.67096e-12 -5.60954

-31.8955 19.4859 -1.41294e-12
19.4859 -4.2856 -1.25588e-12
-1.41294e-12 -1.25588e-12 -26.0858

37.0386 29.6487 1.98952e-13
29.6487 14.5127 2.69059e-12
1.98952e-13 2.69059e-12 -5.43198

-27.4501 -21.8128 1.3527e-12
-21.8128 -8.22809 -1.23077e-13
1.3527e-12 -1.23077e-13 -25.2482

64.8675 -42.7103 5.40012e-12
-42.7103 44.0793 -1.68043e-12
5.40012e-12 -1.68043e-12 -9.50206

-27.7497 5.4599 -4.31359e-13
5.4599 2.66935 4.16112e-12
-4.31359e-13 4.16112e-12 -38.309

-5.55723 -5.32965 1.01992e-12
-5.32965 57.3871 -4.15312e-12
1.01992e-12 -4.15312e-12 -5.44901

-0.199985 10.3842 1.27987e-12
10.3842 -24.8483 -1.09486e-12
1.27987e-12 -1.09486e-12 -38.3705

-26.4844 21.4127 1.68369e-12
21.4127 12.2196 -1.28786e-12
1.68369e-12 -1.28786e-12 -6.86899

4.72654 5.75379 1.74201e-12
5.75379 -56.0399 -9.11863e-14
1.74201e-12 -9.11863e-14 -13.9805

0.539705 11.4589 1.11733e-12
11.4589 -34.0564 1.02733e-13
1.11733e-12 1.02733e-13 -14.8396

106.342 31.8193 4.05483e-12
31.8193 37.8323 -1.75149e-12
4.05483e-12 -1.75149e-12 -7.48977

-35.4915 -6.03504 6.00409e-12
-6.03504 10.6012 2.97777e-12
6.00409e-12 2.97777e-12 -13.4787

-35.3598 9.51962 9.73444e-13
9.51962 1.23358 4.55991e-12
9.73444e-13 4.55991e-12 -14.9599

-42.5873 -2.88071 -3.11455e-13
-2.88071 21.1109 -4.39115e-12
-3.11455e-13 -4.39115e-12 -11.2384

-44.9076 23.4021 6.15019e-12
23.4021 -5.89261 -1.58303e-12
6.15019e-12 -1.58303e-12 -13.9214

9.97105 8.46342 -3.92279e-13
8.46342 -42.3774 3.04305e-12
-3.92279e-13 3.04305e-12 -9.0773

-12.3339 -28.2388 3.53495e-12
-28.2388 1.68753 1.11792e-12
3.53495e-12 1.11792e-12 -6.67321

1.30886 -1.7112 -3.06466e-12
-1.7112 -55.456 -1.98848e-12
-3.06466e-12 -1.98848e-12 -11.3035

-31.885 -19.2619 -3.48166e-13
-19.2619 -4.59498 1.09986e-12
-3.48166e-13 1.09986e-12 -25.9552

-27.9756 21.3078 -3.20396e-12
21.3078 -8.35793 -1.36367e-12
-3.20396e-12 -1.36367e-12 -26.0136

-0.651329 -16.583 1.26536e-12
-16.583 61.6726 1.0291e-12
1.26536e-12 1.0291e-12 -7.94849

-0.650089 -27.9359 4.77248e-13
-27.9359 -21.3605 -3.58824e-12
4.77248e-13 -3.58824e-12 -12.7906

-14.0927 -25.1343 3.01477e-12
-25.1343 7.40687 2.34124e-12
3.01477e-12 2.34124e-12 -5.23533

91.6761 -31.7099 5.47355e-12
-31.7099 19.4845 6.75016e-13
5.47355e-12 6.75016e-13 -16.3333

-33.7057 3.22257 -1.52145e-12
3.22257 9.19925 2.04636e-12
-1.52145e-12 2.04636e-12 -18.5635

2.75238 28.9437 -2.91974e-12
28.9437 -24.4244 1.14012e-12
-2.91974e-12 1.14012e-12 -11.3161

-38.4329 19.664 9.7744e-13
19.664 5.22978 -5.43269e-13
9.7744e-13 -5.43269e-13 -9.23455

50.1898 7.99935 3.24126e-12
7.99935 -16.9629 7.2505e-13
3.24126e-12 7.2505e-13 -7.06629

60.0304 -33.9347 -6.14027e-12
-33.9347 33.7865 1.88886e-12
-6.14027e-12 1.88886e-12 -6.98349

-18.9597 -10.5876 4.18095e-12
-10.5876 -0.541863 -9.57456e-13
4.18095e-12 -9.57456e-13 -25.4316

-33.9261 23.8994 -1.39237e-12
23.8994 -12.0229 -1.77835e-12
-1.39237e-12 -1.77835e-12 -14.5399

58.1552 -32.383 -6.95148e-13
-32.383 18.0913 -1.29082e-13
-6.95148e-13 -1.29082e-13 -10.1335

66.8585 10.7908 -4.61734e-12
10.7908 8.51346 4.26104e-12
-4.61734e-12 4.26104e-12 -5.08403

7.67419 -21.2055 3.89022e-13
-21.2055 88.4628 -7.50807e-13
3.89022e-13 -7.50807e-13 -11.8622

-33.985 14.4255 9.03351e-13
14.4255 20.2383 -3.69186e-12
9.03351e-13 -3.69186e-12 -7.54577

8.4756 23.1427 1.56852e-12
23.1427 -26.0735 -2.02386e-12
1.56852e-12 -2.02386e-12 -11.2987

34.8682 42.1977 -3.6593e-13
42.1977 46.1986 9.65154e-13
-3.6593e-13 9.65154e-13 -14.4203

-4.39443 16.5072 -4.87558e-12
16.5072 -35.5424 6.71951e-12
-4.87558e-12 6.71951e-12 -73.2892

-5.97931 -4.10825 8.81369e-13
-4.10825 57.9475 2.52243e-13
8.81369e-13 2.52243e-13 -5.4412

-1.81877 -16.6324 2.66809e-12
-16.6324 -39.4026 4.9097e-12
2.66809e-12 4.9097e-12 -74.1126

-3.3293 -27.335 -3.86654e-13
-27.335 -30.0298 6.01386e-12
-3.86654e-13 6.01386e-12 -21.5543

8.96723 27.4244 2.25242e-12
27.4244 -29.9944 3.37863e-12
2.25242e-12 3.37863e-12 -11.2567

45.7106 -24.41 -1.80123e-12
-24.41 5.02467 -3.56012e-12
-1.80123e-12 -3.56012e-12 -5.23562

10.0955 31.3224 2.59703e-12
31.3224 47.1625 -6.13435e-12
2.59703e-12 -6.13435e-12 -9.63993

14.2725 -10.7049 1.87524e-12
-10.7049 82.8374 6.08698e-12
1.87524e-12 6.08698e-12 -6.4468

-38.6329 21.9706 1.58895e-12
21.9706 2.9416 9.03277e-13
1.58895e-12 9.03277e-13 -8.56852

1.19263 16.7939 3.7866e-12
16.7939 -25.7219 2.62901e-13
3.7866e-12 2.62901e-13 -18.5677

-26.5374 15.1536 8.42733e-13
15.1536 18.4493 4.14483e-13
8.42733e-13 4.14483e-13 -5.70741

43.6582 15.9535 -1.50398e-13
15.9535 -7.28444 -2.79806e-12
-1.50398e-13 -2.79806e-12 -4.07458

12.5772 -21.472 2.66394e-12
-21.472 57.9547 5.12775e-13
2.66394e-12 5.12775e-13 -4.71363

65.9953 -29.3899 -3.64508e-12
-29.3899 18.6435 7.2653e-13
-3.64508e-12 7.2653e-13 -9.33501

-32.3809 -24.5728 -4.48145e-12
-24.5728 -7.28149 9.90911e-13
-4.48145e-12 9.90911e-13 -8.97573

-22.6666 27.4507 -1.50576e-12
27.4507 -10.3499 -1.58717e-12
-1.50576e-12 -1.58717e-12 -9.28334

-38.351 23.1875 -9.98609e-13
23.1875 1.99111 -1.04213e-13
-9.98609e-13 -1.04213e-13 -8.52441

-51.5532 13.1692 -5.41885e-12
13.1692 11.9271 4.03766e-12
-5.41885e-12 4.03766e-12 -16.4661

23.4845 9.37217 7.08766e-13
9.37217 -29.4871 -2.39497e-12
7.08766e-13 -2.39497e-12 -5.32089

3.76895 -4.66496 -2.68763e-12
-4.66496 79.4366 2.27611e-12
-2.68763e-12 2.27611e-12 -9.53112

-44.94 -36.8334 -2.40578e-12
-36.8334 -19.8289 3.72857e-12
-2.40578e-12 3.72857e-12 -14.7704

-16.079 27.4648 1.86695e-12
27.4648 1.34126 -2.83566e-12
1.86695e-12 -2.83566e-12 -6.914

-5.01484 2.17029 2.79191e-12
2.17029 82.6719 3.90088e-12
2.79191e-12 3.90088e-12 -13.4309

69.0442 34.6095 -4.37457e-12
34.6095 15.4967 -3.95832e-12
-4.37457e-12 -3.95832e-12 -10.7056

-31.3514 -22.9736 2.44249e-12
-22.9736 -4.63231 -1.56467e-12
2.44249e-12 -1.56467e-12 -8.52922

11.7429 5.73296 1.18217e-12
5.73296 -48.3357 1.39651e-12
1.18217e-12 1.39651e-12 -8.64081

43.0651 27.2034 3.37034e-12
27.2034 10.4522 9.14824e-13
3.37034e-12 9.14824e-13 -5.08036

-9.415 12.7456 -1.45069e-12
12.7456 -14.0389 4.53267e-13
-1.45069e-12 4.53267e-13 -37.0414

70.3333 24.3299 4.94301e-12
24.3299 23.8048 1.06581e-14
4.94301e-12 1.06581e-14 -6.79928

-10.5862 -13.0551 -1.60287e-12
-13.0551 -13.9207 3.83131e-12
-1.60287e-12 3.83131e-12 -37.3792

-4.379 0.778512 -2.07863e-12
0.778512 59.3971 -5.62868e-12
-2.07863e-12 -5.62868e-12 -4.83021

38.3565 -2.23526 1.90899e-12
-2.23526 -23.8098 -8.60793e-14
1.90899e-12 -8.60793e-14 -5.83171

3.59379 -15.7681 1.87761e-12
-15.7681 -53.9714 -5.06558e-13
1.87761e-12 -5.06558e-13 -21.1243

-42.2768 24.3881 7.06608e-13
24.3881 -11.7369 1.32561e-12
7.06608e-13 1.32561e-12 -11.1671

-46.8123 -13.535 1.95959e-12
-13.535 11.0674 8.37848e-13
1.95959e-12 8.37848e-13 -12.3535

5.81022 -8.00004 -2.77452e-12
-8.00004 -70.9679 2.98813e-12
-2.77452e-12 2.98813e-12 -14.8816

-49.5391 -22.2843 5.54845e-12
-22.2843 3.74866 -2.13933e-12
5.54845e-12 -2.13933e-12 -22.1042

-17.4594 -6.59631 -1.15167e-12
-6.59631 -13.1158 -2.44904e-12
-1.15167e-12 -2.44904e-12 -34.7821

-28.7296 -29.9081 -2.87888e-12
-29.9081 -9.39984 -1.41457e-12
-2.87888e-12 -1.41457e-12 -8.99555

15.6935 11.4534 -3.81976e-12
11.4534 80.1788 2.1861e-12
-3.81976e-12 2.1861e-12 -6.53046

42.2895 -28.1458 5.45105e-12
-28.1458 11.0511 -2.75335e-13
5.45105e-12 -2.75335e-13 -5.0436

-47.1705 -13.7723 -2.82922e-12
-13.7723 4.19613 3.20011e-12
-2.82922e-12 3.20011e-12 -29.301

2.9649 0.504374 3.12816e-12
0.504374 -56.8117 1.94896e-12
3.12816e-12 1.94896e-12 -11.0047

-39.3363 -21.5246 1.79516e-12
-21.5246 -8.85734 -2.15531e-13
1.79516e-12 -2.15531e-13 -14.774

-40.1948 25.6976 -6.40229e-13
25.6976 -14.6914 1.12991e-12
-6.40229e-13 1.12991e-12 -11.3104

32.2602 -31.4636 1.30266e-13
-31.4636 38.4289 1.53951e-14
1.30266e-13 1.53951e-14 -4.6478

-31.4688 -7.08526 -4.04395e-12
-7.08526 1.70017 2.68111e-12
-4.04395e-12 2.68111e-12 -40.9936

36.6295 -33.0759 -1.89478e-14
-33.0759 72.026 7.41333e-13
-1.89478e-14 7.41333e-13 -7.14462

16.6125 -19.1793 -3.66818e-12
-19.1793 -25.8692 -1.86073e-12
-3.66818e-12 -1.86073e-12 -7.13278

1.50262 1.97017 -1.5874e-12
1.97017 -51.3914 -3.12935e-12
-1.5874e-12 -3.12935e-12 -15.374

-12.8763 17.8751 -4.66471e-12
17.8751 -16.9548 9.49759e-13
-4.66471e-12 9.49759e-13 -41.0611

10.7133 20.1823 -1.82195e-12
20.1823 59.4531 -8.34888e-13
-1.82195e-12 -8.34888e-13 -4.35626

4.31854 27.2101 -1.54129e-12
27.2101 -16.2235 -1.73076e-12
-1.54129e-12 -1.73076e-12 -8.1238

30.9042 -24.511 -5.70803e-13
-24.511 -8.13173 4.35503e-12
-5.70803e-13 4.35503e-12 -4.87162

-37.7869 -17.8384 1.34109e-12
-17.8384 2.40089 -6.57844e-13
1.34109e-12 -6.57844e-13 -9.86394

55.5128 35.0673 -6.60805e-13
35.0673 42.3448 1.7053e-12
-6.60805e-13 1.7053e-12 -6.63609

-40.0147 -21.831 4.07852e-12
-21.831 2.53689 1.43915e-12
4.07852e-12 1.43915e-12 -9.39346

2.96671 30.8501 7.63833e-14
30.8501 -17.3878 9.77588e-13
7.63833e-14 9.77588e-13 -9.07778

18.5373 -25.2436 2.13044e-12
-25.2436 -19.4173 -1.69761e-12
2.13044e-12 -1.69761e-12 -6.34194

-15.6533 -25.1259 -1.59902e-12
-25.1259 5.89569 -5.42855e-12
-1.59902e-12 -5.42855e-12 -5.77495

42.7177 -18.6876 -2.02742e-12
-18.6876 -9.16515 -1.46668e-12
-2.02742e-12 -1.46668e-12 -5.36857

27.4317 -18.8492 -2.15472e-12
-18.8492 -20.3677 1.9534e-12
-2.15472e-12 1.9534e-12 -5.68917

-41.3937 -25.3369 -3.03431e-12
-25.3369 -14.964 -1.49976e-12
-3.03431e-12 -1.49976e-12 -11.5666

29.7807 35.9683 -3.35139e-13
35.9683 25.2269 4.48116e-12
-3.35139e-13 4.48116e-12 -8.64386

-28.5177 15.3764 6.91447e-13
15.3764 18.5188 -1.47734e-12
6.91447e-13 -1.47734e-12 -5.87343

-23.1077 26.4219 7.80413e-13
26.4219 -12.5465 -3.56722e-12
7.80413e-13 -3.56722e-12 -9.95758

-42.0963 25.4736 1.00517e-12
25.4736 -11.5925 7.44886e-13
1.00517e-12 7.44886e-13 -10.9923

-37.2881 11.6213 8.60099e-14
11.6213 11.8441 3.53495e-12
8.60099e-14 3.53495e-12 -9.08004

64.3919 -8.22676 -1.21148e-12
-8.22676 3.19809 2.64233e-12
-1.21148e-12 2.64233e-12 -4.25037

8.73414 18.6059 1.97472e-12
18.6059 59.2189 7.87518e-13
1.97472e-12 7.87518e-13 -4.16185

-25.6141 -24.3802 1.85689e-12
-24.3802 0.458515 -3.28892e-12
1.85689e-12 -3.28892e-12 -7.21497

-1.14125 25.6653 1.24345e-12
25.6653 13.7523 3.20751e-12
1.24345e-12 3.20751e-12 -4.08207

32.3783 -35.6282 -1.30266e-14
-35.6282 21.7 3.38988e-12
-1.30266e-14 3.38988e-12 -8.48557

59.5351 38.3155 7.34227e-14
38.3155 17.8476 3.45087e-12
7.34227e-14 3.45087e-12 -13.722

12.1253 -33.31 2.6148e-12
-33.31 42.9127 5.1242e-12
2.6148e-12 5.1242e-12 -9.5422

30.5511 -31.1586 -1.6532e-12
-31.1586 36.8131 3.07073e-12
-1.6532e-12 3.07073e-12 -4.40495

11.7688 -6.83866 -3.25843e-12
-6.83866 -48.8378 2.31148e-13
-3.25843e-12 2.31148e-13 -8.76965

25.2743 30.3408 1.4353e-12
30.3408 41.0884 1.84978e-12
1.4353e-12 1.84978e-12 -4.45545

62.681 13.2943 7.11727e-13
13.2943 5.22854 -1.69909e-12
7.11727e-13 -1.69909e-12 -4.30497

-7.02509 13.3784 -1.59354e-12
13.3784 61.343 -7.70939e-13
-1.59354e-12 -7.70939e-13 -8.69442

11.7298 -22.3396 -7.14095e-13
-22.3396 55.7622 -1.16529e-12
-7.14095e-13 -1.16529e-12 -4.30092

-47.2606 -1.09145 2.86438e-13
-1.09145 12.4097 -1.38201e-12
2.86438e-13 -1.38201e-12 -22.1621

-5.91842 2.24653 -7.44086e-12
2.24653 59.0033 9.53312e-13
-7.44086e-12 9.53312e-13 -5.26192

6.26901 31.0883 1.55964e-12
31.0883 47.8644 6.987e-14
1.55964e-12 6.987e-14 -9.65999

-39.7251 12.1077 4.36897e-12
12.1077 12.8449 -1.61352e-12
4.36897e-12 -1.61352e-12 -9.31252

40.7377 -27.6468 1.23161e-13
-27.6468 8.35784 3.97312e-13
1.23161e-13 3.97312e-13 -5.64137

7.54015 20.5569 -5.89158e-14
20.5569 -47.4668 2.48394e-12
-5.89158e-14 2.48394e-12 -16.4815

-3.42098 26.2704 -2.30926e-14
26.2704 -31.4867 5.72697e-12
-2.30926e-14 5.72697e-12 -22.2526

15.7774 -18.5673 3.59535e-12
-18.5673 -30.0124 -2.81908e-12
3.59535e-12 -2.81908e-12 -8.18238

4.4288 -1.80098 4.46857e-12
-1.80098 -34.133 -4.98268e-13
4.46857e-12 -4.98268e-13 -24.4396

-14.3394 -31.8115 -2.95497e-12
-31.8115 -11.93 -3.99355e-12
-2.95497e-12 -3.99355e-12 -9.04891

56.2172 23.327 6.0633e-13
23.327 0.817295 -1.27306e-13
6.0633e-13 -1.27306e-13 -8.28745

-27.8279 30.162 2.88658e-13
30.162 -9.23638 -4.50306e-13
2.88658e-13 -4.50306e-13 -8.7998

-27.0034 29.2058 -4.31951e-13
29.2058 -9.20175 1.40362e-12
-4.31951e-13 1.40362e-12 -8.67708

28.6284 30.6599 4.5001e-13
30.6599 40.4053 1.74201e-12
4.5001e-13 1.74201e-12 -4.44848

0.343103 27.0848 3.27442e-13
27.0848 -19.8454 -3.91924e-12
3.27442e-13 -3.91924e-12 -11.7767

64.5068 3.52504 -1.16055e-13
3.52504 -11.825 -3.02539e-12
-1.16055e-13 -3.02539e-12 -10.0178

-14.8996 31.8172 2.74477e-12
31.8172 -20.7987 -5.50967e-13
2.74477e-12 -5.50967e-13 -12.4472

-37.9436 -12.5997 -1.45239e-12
-12.5997 8.18001 8.28967e-13
-1.45239e-12 8.28967e-13 -14.0225

-0.475063 24.2783 -2.25834e-12
24.2783 -29.9989 -1.05989e-12
-2.25834e-12 -1.05989e-12 -20.7715

-23.7272 -29.5786 2.22992e-12
-29.5786 -11.9349 2.6524e-12
2.22992e-12 2.6524e-12 -8.84274

-38.1477 -4.89812 -6.0113e-13
-4.89812 18.8465 -4.58478e-12
-6.0113e-13 -4.58478e-12 -11.7297

69.9433 -24.5556 2.80191e-12
-24.5556 18.0289 7.4607e-14
2.80191e-12 7.4607e-14 -7.04403

39.9816 29.6922 5.44157e-12
29.6922 13.4796 3.50771e-12
5.44157e-12 3.50771e-12 -5.21447

-4.29554 14.6961 -4.40995e-12
14.6961 60.5703 1.70293e-12
-4.40995e-12 1.70293e-12 -8.40036

1.61144 -1.13885 8.89511e-13
-1.13885 -56.1232 1.22006e-12
8.89511e-13 1.22006e-12 -11.2087

9.61413 0.00223482 -2.12778e-12
0.00223482 -44.7533 -2.5407e-12
-2.12778e-12 -2.5407e-12 -8.43729

-31.0783 23.1236 3.84137e-13
23.1236 -4.337 2.49401e-12
3.84137e-13 2.49401e-12 -8.45773

-34.7625 23.8709 2.65713e-12
23.8709 -13.1923 2.2223e-14
2.65713e-12 2.2223e-14 -14.8128

-43.3785 -24.3807 -8.40531e-13
-24.3807 -12.6139 1.87731e-12
-8.40531e-13 1.87731e-12 -11.4681

-39.0587 -0.67269 4.09641e-12
-0.67269 21.0464 3.79548e-13
4.09641e-12 3.79548e-13 -10.4951

-40.8066 25.5903 -3.89688e-12
25.5903 -13.2224 -1.51531e-12
-3.89688e-12 -1.51531e-12 -11.1718

32.3214 -10.3077 -1.94748e-12
-10.3077 -25.1527 6.97649e-12
-1.94748e-12 6.97649e-12 -6.01352

8.70697 -32.8326 3.89673e-12
-32.8326 22.7976 -8.81073e-13
3.89673e-12 -8.81073e-13 -6.99139

2.39688 -2.30058 6.90855e-13
-2.30058 -49.9606 -3.48462e-13
6.90855e-13 -3.48462e-13 -14.7724

36.7452 -34.5074 3.54561e-12
-34.5074 24.4795 -7.56728e-13
3.54561e-12 -7.56728e-13 -7.70866

-38.2937 19.0861 1.50961e-12
19.0861 -7.09372 -2.89931e-12
1.50961e-12 -2.89931e-12 -14.4492

7.87077 -26.4786 -1.3524e-12
-26.4786 -27.9941 -2.224e-12
-1.3524e-12 -2.224e-12 -10.9687

63.9464 -9.69001 2.06057e-12
-9.69001 5.67785 -4.44415e-12
2.06057e-12 -4.44415e-12 -5.07187

6.04095 -23.1918 -5.48717e-12
-23.1918 -35.468 -2.98635e-12
-5.48717e-12 -2.98635e-12 -17.736

0.141353 2.35825 -3.01981e-13
2.35825 -56.1739 2.31874e-12
-3.01981e-13 2.31874e-12 -11.5456

-4.06198 -23.3213 -1.40332e-12
-23.3213 -23.4116 1.40332e-13
-1.40332e-12 1.40332e-13 -16.7199

11.0389 -25.8593 -4.15312e-12
-25.8593 -29.4854 -1.40125e-12
-4.15312e-12 -1.40125e-12 -9.73317

10.2014 -8.54599 -1.05782e-12
-8.54599 -43.4894 5.4432e-12
-1.05782e-12 5.4432e-12 -9.28085

-35.4183 -23.0681 4.99452e-13
-23.0681 -12.6457 6.11372e-12
4.99452e-13 6.11372e-12 -15.1028

23.6642 -31.3412 9.18969e-13
-31.3412 5.71276 1.84741e-12
9.18969e-13 1.84741e-12 -5.87762

11.0599 -24.587 -7.40918e-12
-24.587 -27.4942 3.60808e-12
-7.40918e-12 3.60808e-12 -10.0477

46.6425 10.8642 2.03452e-12
10.8642 -16.1165 -7.85742e-13
2.03452e-12 -7.85742e-13 -6.79926

-14.1861 26.3401 -5.71099e-13
26.3401 -15.6395 5.1353e-12
-5.71099e-13 5.1353e-12 -14.1187

-45.2519 -37.6131 -5.3045e-12
-37.6131 -20.6125 -1.20437e-12
-5.3045e-12 -1.20437e-12 -14.9188

-43.7087 37.2654 1.69257e-12
37.2654 -21.2663 -3.56766e-12
1.69257e-12 -3.56766e-12 -14.7692

-61.1854 -28.5735 9.41099e-14
-28.5735 -7.49703 -8.91731e-13
9.41099e-14 -8.91731e-13 -15.1993

-58.4162 27.0642 9.97943e-13
27.0642 -6.27166 -7.43109e-13
9.97943e-13 -7.43109e-13 -14.4779

5.60069 -8.5277 7.12023e-13
-8.5277 -71.0643 -1.66696e-12
7.12023e-13 -1.66696e-12 -14.7094

4.3974 9.27372 3.63413e-13
9.27372 -68.833 3.37952e-13
3.63413e-13 3.37952e-13 -14.4374

9.02399 -9.84605 -8.50579e-13
-9.84605 -40.8895 3.49498e-13
-8.50579e-13 3.49498e-13 -9.61135

-24.3355 32.1164 -6.59176e-12
32.1164 -24.8102 -1.20073e-12
-6.59176e-12 -1.20073e-12 -21.1454

-25.523 -32.8544 2.88243e-12
-32.8544 -25.0962 -7.17842e-13
2.88243e-12 -7.17842e-13 -21.4695

-53.9203 16.0686 1.59162e-12
16.0686 3.40191 -2.81256e-13
1.59162e-12 -2.81256e-13 -21.403

-52.4211 -15.801 2.65417e-13
-15.801 3.29722 -1.06789e-12
2.65417e-13 -1.06789e-12 -21.0763

6.11241 -3.74744 -1.82728e-12
-3.74744 -43.9253 1.76155e-13
-1.82728e-12 1.76155e-13 -25.7654

6.91859 3.61022 -3.34399e-13
3.61022 -46.3489 1.72899e-12
-3.34399e-13 1.72899e-12 -26.1417

-15.6251 9.83668 -3.51593e-12
9.83668 46.2621 6.36883e-12
-3.51593e-12 6.36883e-12 -5.84742

-22.9184 -24.7739 -3.96335e-12
-24.7739 -14.5521 9.01057e-13
-3.96335e-12 9.01057e-13 -10.3294

-56.6038 -36.3877 -2.02038e-12
-36.3877 -14.5327 3.90384e-12
-2.02038e-12 3.90384e-12 -13.4368

33.3581 -4.66423 -3.41534e-12
-4.66423 -19.8464 2.14532e-12
-3.41534e-12 2.14532e-12 -3.94453

3.43347 -16.6949 -3.91983e-13
-16.6949 -52.6291 -1.41043e-12
-3.91983e-13 -1.41043e-12 -21.5328

3.6746 16.1759 -8.88178e-13
16.1759 -51.8848 1.02792e-12
-8.88178e-13 1.02792e-12 -21.4061

6.5558 0.121884 -1.01978e-12
0.121884 -76.7552 1.53254e-12
-1.01978e-12 1.53254e-12 -13.3036

-7.56899 23.3747 2.57927e-12
23.3747 39.9354 -6.71463e-13
2.57927e-12 -6.71463e-13 -6.88472

-56.8895 36.1717 1.19667e-12
36.1717 -14.0114 6.60953e-13
1.19667e-12 6.60953e-13 -13.3885

-39.7945 -23.3957 9.16452e-13
-23.3957 2.5616 -7.28898e-13
9.16452e-13 -7.28898e-13 -8.80043

37.1165 23.3523 3.56929e-12
23.3523 -8.61253 4.44681e-12
3.56929e-12 4.44681e-12 -5.75805

4.73548 23.8581 4.12707e-12
23.8581 -38.2258 -2.34538e-12
4.12707e-12 -2.34538e-12 -18.9858

24.0134 -31.313 -1.60701e-12
-31.313 6.40862 2.4946e-12
-1.60701e-12 2.4946e-12 -5.6476

2.43083 -3.23084 -3.35435e-12
-3.23084 -48.3697 9.26074e-13
-3.35435e-12 9.26074e-13 -14.7424

-60.4581 -34.1611 -3.37634e-12
-34.1611 -14.3498 -3.51733e-12
-3.37634e-12 -3.51733e-12 -14.0305

-17.4519 8.31981 1.9079e-12
8.31981 45.6914 3.05652e-12
1.9079e-12 3.05652e-12 -5.78046

-9.46821 21.8111 1.02496e-12
21.8111 40.4247 -2.02623e-12
1.02496e-12 -2.02623e-12 -6.6532

58.6029 35.7752 -2.5698e-12
35.7752 37.0878 9.00021e-13
-2.5698e-12 9.00021e-13 -6.91568

70.4831 1.57872 -8.13335e-12
1.57872 -5.54245 1.49932e-12
-8.13335e-12 1.49932e-12 -10.3737

-30.7595 -22.8044 -5.70773e-12
-22.8044 -13.3562 -5.18419e-13
-5.70773e-12 -5.18419e-13 -14.4658

32.8411 31.1833 3.3431e-12
31.1833 69.7934 1.72662e-12
3.3431e-12 1.72662e-12 -6.67919

-19.3761 23.6097 -2.68526e-12
23.6097 7.68696 8.88178e-15
-2.68526e-12 8.88178e-15 -5.51272

47.6366 -5.34945 1.83675e-12
-5.34945 -17.4325 3.50061e-12
1.83675e-12 3.50061e-12 -6.8212

33.2193 11.2159 2.55677e-12
11.2159 -23.6361 7.27418e-13
2.55677e-12 7.27418e-13 -6.01328

6.25431 0.429907 7.47402e-13
0.429907 -77.5525 2.10798e-12
7.47402e-13 2.10798e-12 -13.4494

-58.9361 -29.0312 -2.14258e-12
-29.0312 -6.28806 -1.48326e-13
-2.14258e-12 -1.48326e-13 -14.6968

-28.3321 -6.31906 4.30374e-12
-6.31906 -11.3587 6.74601e-12
4.30374e-12 6.74601e-12 -51.5904

-44.6983 37.4118 5.90935e-13
37.4118 -20.8116 3.25551e-12
5.90935e-13 3.25551e-12 -14.7732

93.7892 1.66326 3.03639e-12
1.66326 16.6554 9.32143e-13
3.03639e-12 9.32143e-13 -6.04294

10.0367 -32.7863 1.89537e-12
-32.7863 21.3109 -5.32019e-12
1.89537e-12 -5.32019e-12 -6.80765

-56.9363 36.6132 -3.12084e-12
36.6132 -14.5713 -4.72067e-13
-3.12084e-12 -4.72067e-13 -13.5047

-35.0785 -11.1338 5.85902e-12
-11.1338 19.1771 3.35435e-12
5.85902e-12 3.35435e-12 -8.31595

-5.47695 -25.514 1.74409e-12
-25.514 37.3499 -7.75676e-13
1.74409e-12 -7.75676e-13 -6.98648

-58.4526 28.8302 -6.65653e-13
28.8302 -6.27144 -3.46982e-12
-6.65653e-13 -3.46982e-12 -14.6139

28.4958 -26.1414 1.03029e-13
-26.1414 -4.91207 -4.40536e-13
1.03029e-13 -4.40536e-13 -4.69666

-21.1709 10.4834 -2.96859e-12
10.4834 -18.559 -1.09892e-11
-2.96859e-12 -1.09892e-11 -51.6859

3.43324 30.8714 -5.07742e-12
30.8714 27.1625 1.09187e-12
-5.07742e-12 1.09187e-12 -6.73243

6.14065 8.12679 -1.87435e-12
8.12679 -72.2981 -6.42449e-14
-1.87435e-12 -6.42449e-14 -14.984

-11.5455 30.1905 -8.89955e-13
30.1905 -20.6032 1.95962e-12
-8.89955e-13 1.95962e-12 -11.5489

-30.7973 23.3317 -3.58839e-12
23.3317 -5.09958 2.03985e-13
-3.58839e-12 2.03985e-13 -8.4638

-25.8638 -32.489 3.83219e-12
-32.489 -24.113 4.30241e-12
3.83219e-12 4.30241e-12 -21.559

9.20558 -23.1899 2.73618e-12
-23.1899 -27.9219 1.53714e-12
2.73618e-12 1.53714e-12 -11.4254

-37.6607 10.4709 6.26721e-13
10.4709 8.9289 -5.41552e-12
6.26721e-13 -5.41552e-12 -25.3314

-23.0401 -23.4335 4.72304e-12
-23.4335 4.95254 -1.16588e-12
4.72304e-12 -1.16588e-12 -6.26243

88.8021 -9.7076 -3.5385e-12
-9.7076 10.8074 5.30842e-12
-3.5385e-12 5.30842e-12 -10.0307

84.0422 -14.277 3.17613e-12
-14.277 2.81291 2.71546e-12
3.17613e-12 2.71546e-12 -13.1967

5.88815 16.5292 1.07766e-13
16.5292 -33.9324 -1.15463e-14
1.07766e-13 -1.15463e-14 -22.3762

-16.4208 22.5013 3.00323e-12
22.5013 16.228 7.02845e-13
3.00323e-12 7.02845e-13 -5.08471

-3.91216 29.1628 -4.85419e-12
29.1628 -12.2294 3.19123e-12
-4.85419e-12 3.19123e-12 -8.3958

50.9921 0.688661 1.56438e-12
0.688661 -6.53123 -4.27234e-12
1.56438e-12 -4.27234e-12 -3.6339

-48.1409 6.57127 -9.26574e-14
6.57127 14.7862 3.19744e-13
-9.26574e-14 3.19744e-13 -18.9525

10.1157 16.5408 -1.92794e-12
16.5408 -36.0794 -3.46005e-12
-1.92794e-12 -3.46005e-12 -9.13507

-4.50316 -25.7605 -1.70945e-12
-25.7605 35.5552 1.65793e-12
-1.70945e-12 1.65793e-12 -6.74644

-39.1907 -2.57246 3.76569e-13
-2.57246 21.5042 -6.30015e-13
3.76569e-13 -6.30015e-13 -10.669

-7.99008 13.3649 -3.17731e-12
13.3649 44.4048 7.80058e-12
-3.17731e-12 7.80058e-12 -3.94377

3.73477 -29.713 -2.30926e-13
-29.713 -17.3643 7.95808e-13
-2.30926e-13 7.95808e-13 -8.9201

21.4259 -29.9468 5.10999e-13
-29.9468 14.7562 1.59043e-12
5.10999e-13 1.59043e-12 -3.91734

6.88124 31.6221 3.37626e-12
31.6221 25.4016 3.91391e-13
3.37626e-12 3.91391e-13 -6.8276

2.7857 -15.0202 -1.08121e-12
-15.0202 -39.2679 9.03796e-13
-1.08121e-12 9.03796e-13 -63.3131

-46.1597 2.04122 -3.37404e-12
2.04122 11.4615 -4.45392e-12
-3.37404e-12 -4.45392e-12 -22.757

-55.4452 20.3002 -2.32969e-12
20.3002 3.09596 4.82044e-12
-2.32969e-12 4.82044e-12 -22.9161

5.91701 15.4392 -9.95796e-13
15.4392 -58.819 -2.22459e-12
-9.95796e-13 -2.22459e-12 -23.0361

-18.9212 -26.1884 7.05806e-13
-26.1884 -12.9132 -5.21065e-12
7.05806e-13 -5.21065e-12 -9.65216

41.3456 17.9569 9.18969e-13
17.9569 -6.27045 6.32087e-13
9.18969e-13 6.32087e-13 -3.86087

-44.6829 -5.29421 5.66565e-13
-5.29421 4.53831 2.20268e-12
5.66565e-13 2.20268e-12 -39.1458

7.49925 -18.9882 1.58125e-12
-18.9882 -39.8941 -1.37934e-12
1.58125e-12 -1.37934e-12 -11.6596

30.2908 -15.5986 3.23119e-12
-15.5986 -20.5078 1.72884e-12
3.23119e-12 1.72884e-12 -4.80442

-9.63779 11.6029 -3.78778e-12
11.6029 44.3187 4.81393e-12
-3.78778e-12 4.81393e-12 -3.85852

8.33422 -25.7336 3.95654e-12
-25.7336 32.9916 -1.82846e-12
3.95654e-12 -1.82846e-12 -3.63249

-10.2448 -25.2738 -1.94215e-12
-25.2738 -19.1 -1.79797e-12
-1.94215e-12 -1.79797e-12 -23.175

17.0051 31.9588 2.73914e-12
31.9588 11.1974 -1.80655e-12
2.73914e-12 -1.80655e-12 -5.74576

-1.06931 -25.1348 -2.75395e-12
-25.1348 -30.7626 -2.22933e-13
-2.75395e-12 -2.22933e-13 -20.8917

48.0644 2.59732 8.62125e-13
2.59732 -8.40907 -1.4823e-12
8.62125e-13 -1.4823e-12 -3.53105

6.55274 -28.9299 -4.00865e-13
-28.9299 72.0492 4.27747e-12
-4.00865e-13 4.27747e-12 -14.5513

21.7915 -29.2303 -2.46499e-12
-29.2303 13.9637 -2.45907e-12
-2.46499e-12 -2.45907e-12 -3.92972

35.3509 32.1583 1.04687e-12
32.1583 74.1331 -3.42955e-12
1.04687e-12 -3.42955e-12 -5.44153

-45.2829 -11.877 2.56969e-12
-11.877 13.9222 3.76528e-12
2.56969e-12 3.76528e-12 -15.3261

-14.4197 -13.821 -4.73088e-12
-13.821 43.3818 3.52311e-12
-4.73088e-12 3.52311e-12 -5.67207

-19.2439 -23.9884 4.18673e-12
-23.9884 -19.8306 -1.672e-12
4.18673e-12 -1.672e-12 -64.255

2.43866 23.7703 -1.57918e-12
23.7703 36.0064 -1.31924e-12
-1.57918e-12 -1.31924e-12 -3.7105

-15.1823 -32.7262 4.86692e-12
-32.7262 -21.1187 3.1634e-12
4.86692e-12 3.1634e-12 -14.3126

-14.5644 -11.9628 3.92419e-12
-11.9628 45.53 -6.41502e-12
3.92419e-12 -6.41502e-12 -5.73827

7.83564 -19.1169 -3.3958e-13
-19.1169 -43.1217 -4.44089e-14
-3.3958e-13 -4.44089e-14 -12.6317

6.54599 23.8765 6.58436e-13
23.8765 35.171 1.89596e-12
6.58436e-13 1.89596e-12 -3.44147

23.1732 -4.97544 -1.32753e-12
-4.97544 -30.6755 2.51347e-12
-1.32753e-12 2.51347e-12 -5.36365

36.9697 -30.3422 9.61601e-13
-30.3422 122.625 -2.32111e-12
9.61601e-13 -2.32111e-12 -6.24199

-26.8686 21.0137 2.01054e-12
21.0137 8.43432 4.18628e-13
2.01054e-12 4.18628e-13 -7.12926

40.3379 -19.3229 -2.82085e-12
-19.3229 -11.3716 -9.48278e-13
-2.82085e-12 -9.48278e-13 -5.72529

6.52875 -21.4459 6.0485e-13
-21.4459 -45.5583 -1.28608e-12
6.0485e-13 -1.28608e-12 -24.972

20.7051 31.7533 9.73444e-13
31.7533 9.55776 -3.27856e-12
9.73444e-13 -3.27856e-12 -5.80533

13.919 -29.9712 3.67943e-12
-29.9712 -7.60513 -6.29422e-13
3.67943e-12 -6.29422e-13 -5.94354

6.75481 20.8851 -1.08476e-12
20.8851 -27.7917 2.10261e-12
-1.08476e-12 2.10261e-12 -11.1084

-38.274 -28.0758 1.5099e-12
-28.0758 -14.0377 4.72962e-12
1.5099e-12 4.72962e-12 -11.0604

8.64665 -26.2246 8.38085e-12
-26.2246 31.1706 3.45442e-12
8.38085e-12 3.45442e-12 -3.63451

15.3315 28.9804 -2.06472e-12
28.9804 19.1538 3.67232e-12
-2.06472e-12 3.67232e-12 -3.88227

28.6401 26.1908 -1.8486e-12
26.1908 -5.63264 2.71871e-12
-1.8486e-12 2.71871e-12 -4.80125

7.91488 -14.6098 -4.3047e-13
-14.6098 -36.8773 -8.01729e-13
-4.3047e-13 -8.01729e-13 -13.9909

-6.84075 -16.6172 -2.12363e-12
-16.6172 41.3404 4.83051e-12
-2.12363e-12 4.83051e-12 -3.95871

17.4406 -17.5681 -7.69755e-15
-17.5681 -30.9985 1.44521e-12
-7.69755e-15 1.44521e-12 -7.10453

19.8419 16.9082 3.88608e-12
16.9082 -31.6636 6.36498e-12
3.88608e-12 6.36498e-12 -7.33373

-33.6793 -9.387 1.18905e-12
-9.387 8.75596 2.48098e-13
1.18905e-12 2.48098e-13 -23.993

43.4309 -13.4298 2.77349e-12
-13.4298 -8.36805 5.50863e-12
2.77349e-12 5.50863e-12 -3.80345

-19.3776 0.593993 2.57986e-12
0.593993 43.1448 5.32907e-14
2.57986e-12 5.32907e-14 -4.7747

28.0557 18.5547 1.51109e-12
18.5547 -18.1981 1.40036e-12
1.51109e-12 1.40036e-12 -4.74893

25.5282 27.6034 -8.59757e-13
27.6034 -3.77499 5.58664e-13
-8.59757e-13 5.58664e-13 -4.77039

-6.71455 -15.6857 5.50671e-14
-15.6857 43.798 -5.61684e-12
5.50671e-14 -5.61684e-12 -3.84725

-19.9056 -1.2023 3.19574e-12
-1.2023 42.1274 3.54679e-12
3.19574e-12 3.54679e-12 -4.68627

-5.47319 29.1343 6.23501e-13
29.1343 -23.6462 -2.38742e-12
6.23501e-13 -2.38742e-12 -16.7967

-37.2731 -10.9219 -1.21029e-12
-10.9219 21.68 -2.26485e-12
-1.21029e-12 -2.26485e-12 -7.82932

27.1432 -26.7147 -5.38295e-12
-26.7147 -5.53013 -9.74036e-13
-5.38295e-12 -9.74036e-13 -4.94344

40.7186 21.3321 2.03334e-12
21.3321 -8.36935 4.19635e-12
2.03334e-12 4.19635e-12 -5.46681

12.378 23.6651 -9.47982e-13
23.6651 -27.1265 -2.37144e-12
-9.47982e-13 -2.37144e-12 -8.66635

-37.7959 5.47065 -1.65016e-12
5.47065 23.3113 -7.27122e-13
-1.65016e-12 -7.27122e-13 -8.59679

18.5931 29.0649 1.31924e-12
29.0649 17.3778 9.84102e-13
1.31924e-12 9.84102e-13 -3.94637

-9.98923 22.9638 3.68328e-12
22.9638 -14.9126 -1.74127e-12
3.68328e-12 -1.74127e-12 -24.0262

68.3152 -59.6907 4.59721e-12
-59.6907 36.3345 -7.29017e-12
4.59721e-12 -7.29017e-12 -23.0108

17.531 -25.0473 2.19735e-12
-25.0473 -17.9914 -4.00095e-12
2.19735e-12 -4.00095e-12 -6.41693

10.0586 7.06976 -1.39237e-12
7.06976 82.5492 5.53513e-12
-1.39237e-12 5.53513e-12 -7.16496

11.9205 -28.8887 4.75827e-12
-28.8887 -3.88111 -1.67866e-12
4.75827e-12 -1.67866e-12 -5.16503

-66.945 -52.7006 -7.10543e-15
-52.7006 143.248 -2.82322e-12
-7.10543e-15 -2.82322e-12 -49.6697

-68.3883 51.4513 -8.08834e-13
51.4513 142.535 -8.8581e-13
-8.08834e-13 -8.8581e-13 -49.8588

19.5685 117.153 -1.37372e-13
117.153 64.1276 2.76638e-12
-1.37372e-13 2.76638e-12 -48.3604

20.5274 -117.096 2.73796e-12
-117.096 61.0244 -4.9738e-13
2.73796e-12 -4.9738e-13 -48.7251

157.741 -1.36335 3.26376e-12
-1.36335 -79.1872 2.35529e-14
3.26376e-12 2.35529e-14 -48.912

110.324 -91.1249 -2.67164e-12
-91.1249 -36.6904 9.23706e-14
-2.67164e-12 9.23706e-14 -50.3066

110.377 91.6527 1.4874e-12
91.6527 -36.5007 9.04758e-13
1.4874e-12 9.04758e-13 -50.1794

7.84717 14.3301 -3.3884e-12
14.3301 -42.6813 1.63987e-12
-3.3884e-12 1.63987e-12 -15.0788

-11.7911 25.5367 2.03452e-12
25.5367 -27.4046 4.02197e-12
2.03452e-12 4.02197e-12 -35.1385

12.4381 6.60593 -6.7916e-13
6.60593 -40.533 -5.41626e-12
-6.7916e-13 -5.41626e-12 -8.25173

26.2547 21.7842 4.95722e-12
21.7842 -19.5278 1.64461e-12
4.95722e-12 1.64461e-12 -5.85009

-21.2291 17.7441 -6.57148e-12
17.7441 29.8682 -8.37256e-13
-6.57148e-12 -8.37256e-13 -6.16155

22.5303 28.898 1.81484e-12
28.898 -0.774982 -2.65269e-13
1.81484e-12 -2.65269e-13 -4.73002

4.05576 -29.6632 4.5978e-12
-29.6632 -17.4659 2.35723e-12
4.5978e-12 2.35723e-12 -8.50381

25.9952 28.0273 -2.93513e-12
28.0273 -2.30114 -1.81781e-12
-2.93513e-12 -1.81781e-12 -4.73043

-19.3461 -2.84117 4.77085e-12
-2.84117 43.0709 -1.10963e-12
4.77085e-12 -1.10963e-12 -4.76925

-13.4118 -26.0975 3.91391e-13
-26.0975 -25.8383 1.75904e-12
3.91391e-13 1.75904e-12 -35.5217

-19.8412 -4.86228 -5.14907e-12
-4.86228 41.776 4.36036e-12
-5.14907e-12 4.36036e-12 -4.74311

-1.82677 23.016 -1.04687e-12
23.016 -24.377 -9.19265e-14
-1.04687e-12 -9.19265e-14 -16.1498

44.9821 26.8701 3.25429e-12
26.8701 8.11179 7.53767e-12
3.25429e-12 7.53767e-12 -5.36851

-52.5092 -13.216 -1.61382e-12
-13.216 0.150479 9.79661e-13
-1.61382e-12 9.79661e-13 -20.6174

20.2804 13.7277 -2.75691e-12
13.7277 -31.1407 -5.71099e-13
-2.75691e-12 -5.71099e-13 -7.04224

13.7008 -29.9872 1.25588e-12
-29.9872 -6.69088 -2.86141e-12
1.25588e-12 -2.86141e-12 -5.83447

29.6307 -24.7131 -2.24532e-12
-24.7131 -7.87306 1.31095e-12
-2.24532e-12 1.31095e-12 -4.8244

5.76498 -16.0745 1.80211e-12
-16.0745 -32.3342 1.03887e-12
1.80211e-12 1.03887e-12 -22.2557

12.6277 27.9286 -5.42677e-12
27.9286 -13.6381 -4.10279e-12
-5.42677e-12 -4.10279e-12 -6.41892

23.309 23.9771 1.78405e-12
23.9771 -17.9425 -6.987e-14
1.78405e-12 -6.987e-14 -5.96162

-31.0761 -2.79295 -2.49249e-12
-2.79295 30.1316 2.04222e-12
-2.49249e-12 2.04222e-12 -6.39778

-28.6284 5.87329 -7.70872e-13
5.87329 33.3212 -3.01625e-12
-7.70872e-13 -3.01625e-12 -6.05857

34.5483 2.64666 -2.50111e-12
2.64666 -26.1824 1.4877e-14
-2.50111e-12 1.4877e-14 -6.1413

50.6507 -7.28952 -2.46677e-12
-7.28952 -14.0809 -1.05957e-11
-2.46677e-12 -1.05957e-11 -6.778

11.0413 30.4842 2.53723e-12
30.4842 -4.78707 -1.76984e-12
2.53723e-12 -1.76984e-12 -5.96542

17.4676 -26.1551 5.90875e-12
-26.1551 -17.4544 -2.45108e-12
5.90875e-12 -2.45108e-12 -6.35104

-0.0845309 -21.2543 -9.47982e-13
-21.2543 -27.9556 -2.48927e-12
-9.47982e-13 -2.48927e-12 -17.1664

4.93934 -31.6331 -2.44723e-12
-31.6331 4.86177 -2.82026e-12
-2.44723e-12 -2.82026e-12 -5.93425

-8.2265 -27.785 -7.93439e-14
-27.785 18.5789 9.9476e-13
-7.93439e-14 9.9476e-13 -6.12886

-1.64979 29.8866 4.20997e-12
29.8866 10.4476 1.71596e-12
4.20997e-12 1.71596e-12 -5.79929

-26.0156 -9.57778 5.08075e-12
-9.57778 32.9696 6.19949e-12
5.08075e-12 6.19949e-12 -5.78624

-31.322 -1.54473 4.19775e-12
-1.54473 31.6507 4.03825e-13
4.19775e-12 4.03825e-13 -6.2226

-38.9147 5.74796 -4.65021e-12
5.74796 23.9465 2.58164e-13
-4.65021e-12 2.58164e-13 -9.1822

-17.2173 -21.0887 9.6545e-13
-21.0887 26.5709 -3.02869e-12
9.6545e-13 -3.02869e-12 -5.77094

13.072 24.1109 1.5851e-12
24.1109 -28.1006 -4.7029e-12
1.5851e-12 -4.7029e-12 -9.20407

21.5549 -9.58963 -8.88178e-13
-9.58963 -31.7055 3.54709e-12
-8.88178e-13 3.54709e-12 -6.59706

-27.1525 7.46518 -9.45244e-13
7.46518 34.3344 -5.19111e-12
-9.45244e-13 -5.19111e-12 -5.87297

-35.2349 -9.70105 7.14831e-13
-9.70105 22.3135 -2.58934e-12
7.14831e-13 -2.58934e-12 -8.1826

-29.1548 -16.3305 4.08014e-12
-16.3305 19.3467 4.8761e-12
4.08014e-12 4.8761e-12 -6.66074

36.9675 -8.23908 3.42008e-12
-8.23908 -20.2358 1.46253e-13
3.42008e-12 1.46253e-13 -5.10048

-14.8095 -32.3468 -2.58638e-12
-32.3468 -21.6274 -1.11318e-12
-2.58638e-12 -1.11318e-12 -12.9925

-22.8233 9.3207 -3.50668e-12
9.3207 33.3232 -4.55991e-12
-3.50668e-12 -4.55991e-12 -4.78783

-0.750899 -18.2126 -3.17997e-12
-18.2126 -35.1577 1.11748e-12
-3.17997e-12 1.11748e-12 -33.2782

4.93237 24.8223 3.51245e-12
24.8223 75.3057 3.64745e-13
3.51245e-12 3.64745e-13 -14.3187

-14.1417 -26.6261 5.32315e-13
-26.6261 -16.3497 4.44459e-12
5.32315e-13 4.44459e-12 -14.6403

-6.35702 -30.2028 -5.95672e-13
-30.2028 -23.6019 1.59339e-12
-5.95672e-13 1.59339e-12 -17.0876

-31.2698 -0.701318 -9.68337e-13
-0.701318 31.5003 -6.82121e-13
-9.68337e-13 -6.82121e-13 -6.34748

28.4875 -16.6224 2.8475e-12
-16.6224 -18.0562 -2.29239e-12
2.8475e-12 -2.29239e-12 -4.43703

-37.8043 12.8416 -2.21758e-12
12.8416 11.1651 -2.8629e-12
-2.21758e-12 -2.8629e-12 -10.9883

-8.8611 -3.18047 -1.63847e-12
-3.18047 111.05 -1.97768e-12
-1.63847e-12 -1.97768e-12 -22.6717

-31.6017 14.2735 -3.82953e-13
14.2735 21.3504 1.96702e-12
-3.82953e-13 1.96702e-12 -7.12345

12.4221 -29.4888 -1.11733e-12
-29.4888 -2.51919 -8.92915e-13
-1.11733e-12 -8.92915e-13 -4.92725

33.6317 25.1054 -2.65447e-12
25.1054 124.028 -1.16055e-11
-2.65447e-12 -1.16055e-11 -6.21432

-13.5028 26.0982 -6.995e-12
26.0982 -19.0974 4.71356e-12
-6.995e-12 4.71356e-12 -58.8968

-9.55284 -27.8076 -9.70749e-12
-27.8076 -22.807 3.19433e-12
-9.70749e-12 3.19433e-12 -59.5472

-2.86549 -30.4188 -2.01735e-12
-30.4188 -7.32077 3.58439e-12
-2.01735e-12 3.58439e-12 -7.2864

3.86063 -31.1598 8.75152e-13
-31.1598 5.63595 -1.91965e-12
8.75152e-13 -1.91965e-12 -6.06147

25.1519 20.8273 -3.42482e-12
20.8273 -17.0337 3.75581e-12
-3.42482e-12 3.75581e-12 -4.97594

31.805 15.0059 -3.49587e-12
15.0059 -23.3001 -8.3548e-13
-3.49587e-12 -8.3548e-13 -5.95376

-9.48895 3.08369 1.41855e-11
3.08369 -9.8307 -3.53658e-12
1.41855e-11 -3.53658e-12 -80.9399

-5.54915 -7.00033 -1.7996e-12
-7.00033 -14.042 -5.45549e-12
-1.7996e-12 -5.45549e-12 -80.2926

11.7485 4.82431 -5.23492e-12
4.82431 -43.205 2.78118e-12
-5.23492e-12 2.78118e-12 -7.82667

-35.0561 6.73089 2.98902e-12
6.73089 24.3753 2.42413e-12
2.98902e-12 2.42413e-12 -7.56321

-36.1097 6.73631 -1.86466e-12
6.73631 24.4326 5.03123e-12
-1.86466e-12 5.03123e-12 -8.30818

74.5858 58.6337 -1.7882e-12
58.6337 34.1723 -1.89478e-12
-1.7882e-12 -1.89478e-12 -21.8731

-6.91929 -28.1994 2.70776e-12
-28.1994 16.8754 6.04257e-12
2.70776e-12 6.04257e-12 -6.11575

8.17207 17.9745 1.72425e-12
17.9745 -44.8757 -3.99503e-12
1.72425e-12 -3.99503e-12 -12.8963

32.7029 9.53966 -4.67537e-12
9.53966 -19.0795 -2.70391e-12
-4.67537e-12 -2.70391e-12 -4.07351

3.38817 -26.723 8.49099e-13
-26.723 13.4841 3.44317e-12
8.49099e-13 3.44317e-12 -3.82615

26.2375 -20.2375 5.75184e-12
-20.2375 -20.3223 8.03801e-13
5.75184e-12 8.03801e-13 -5.86234

65.3896 60.2316 -3.50534e-12
60.2316 34.2891 9.83273e-12
-3.50534e-12 9.83273e-12 -23.8679

-13.2424 31.069 5.23433e-13
31.069 -16.881 4.36096e-13
5.23433e-13 4.36096e-13 -12.7854

-18.6035 -19.7858 -1.79975e-12
-19.7858 28.4147 -1.96583e-12
-1.79975e-12 -1.96583e-12 -5.9686

11.1746 28.8574 -4.5907e-12
28.8574 -13.3227 -2.4721e-12
-4.5907e-12 -2.4721e-12 -6.43534

-31.8684 -4.14475 6.8987e-12
-4.14475 30.1479 3.43311e-12
6.8987e-12 3.43311e-12 -6.35704

-14.5957 19.6089 -4.22773e-13
19.6089 27.1852 4.84353e-13
-4.22773e-13 4.84353e-13 -4.41784

7.47952 30.5184 -9.98905e-13
30.5184 -1.66992 -4.65405e-13
-9.98905e-13 -4.65405e-13 -5.65962

-9.34432 -22.4729 5.38236e-13
-22.4729 23.1492 -2.81789e-12
5.38236e-13 -2.81789e-12 -4.17459

4.59091 -27.3522 1.09009e-12
-27.3522 11.4492 5.84717e-12
1.09009e-12 5.84717e-12 -3.93766

24.2717 11.2569 5.83578e-12
11.2569 102.078 -1.93031e-12
5.83578e-12 -1.93031e-12 -12.4051

37.4664 -33.4558 -8.95284e-13
-33.4558 69.285 5.04722e-12
-8.95284e-13 5.04722e-12 -5.70291

-25.3345 -11.6904 9.28146e-13
-11.6904 31.3681 -4.46872e-12
9.28146e-13 -4.46872e-12 -5.64752

16.0967 26.4843 -8.49099e-13
26.4843 -15.5015 -8.88178e-15
-8.49099e-13 -8.88178e-15 -6.21665

4.95613 29.4776 -1.27898e-12
29.4776 1.63721 2.40933e-12
-1.27898e-12 2.40933e-12 -4.98911

-9.85409 -21.4336 -8.24822e-13
-21.4336 25.1209 -3.78127e-12
-8.24822e-13 -3.78127e-12 -4.03239

-21.634 -11.7822 4.6206e-12
-11.7822 32.0821 5.12479e-12
4.6206e-12 5.12479e-12 -4.63637

10.4632 28.4092 -1.75504e-12
28.4092 -0.156143 7.98768e-13
-1.75504e-12 7.98768e-13 -4.67206

-21.8461 -13.8776 -3.31409e-12
-13.8776 29.4673 -5.62513e-12
-3.31409e-12 -5.62513e-12 -4.8463

6.95883 27.8546 -1.13924e-12
27.8546 73.0842 5.44749e-14
-1.13924e-12 5.44749e-14 -14.3219

-45.8315 -4.04134 3.39556e-12
-4.04134 14.048 -1.88235e-12
3.39556e-12 -1.88235e-12 -19.9649

0.877574 31.0272 2.49401e-12
31.0272 7.52066 1.82906e-12
2.49401e-12 1.82906e-12 -6.08821

9.71931 14.9011 -4.25734e-12
14.9011 -36.4287 -2.61717e-13
-4.25734e-12 -2.61717e-13 -10.9848

9.92889 -15.9274 4.83761e-13
-15.9274 -39.4102 -1.12769e-12
4.83761e-13 -1.12769e-12 -13.0687

85.6124 -24.2042 -3.63561e-12
-24.2042 7.636 -1.16647e-12
-3.63561e-12 -1.16647e-12 -12.9578

-23.2064 -21.267 2.12867e-13
-21.267 10.5139 2.53486e-12
2.12867e-13 2.53486e-12 -6.16446

-16.6004 26.698 -8.52651e-13
26.698 1.77878 -1.92912e-12
-8.52651e-13 -1.92912e-12 -6.5869

-26.2015 -21.7279 -3.08464e-12
-21.7279 -5.36462 6.49965e-12
-3.08464e-12 6.49965e-12 -23.8673

-41.5973 14.1069 -1.44095e-11
14.1069 -3.56018 -6.26788e-12
-1.44095e-11 -6.26788e-12 -64.1293

-0.89335 9.44535 -2.26634e-12
9.44535 -44.26 -3.09145e-12
-2.26634e-12 -3.09145e-12 -64.2307

-20.3842 32.7056 2.70954e-12
32.7056 -23.2023 1.82432e-12
2.70954e-12 1.82432e-12 -24.3297

-11.4099 26 2.90642e-12
26 22.6041 2.15531e-12
2.90642e-12 2.15531e-12 -5.92483

16.0388 26.6613 -1.46431e-12
26.6613 -17.2866 -1.88146e-12
-1.46431e-12 -1.88146e-12 -6.54912

30.4281 45.1854 -2.14347e-13
45.1854 47.5544 -9.50943e-13
-2.14347e-13 -9.50943e-13 -15.1948

-44.8891 -11.3439 -9.66708e-12
-11.3439 -1.8081 -6.94556e-13
-9.66708e-12 -6.94556e-13 -61.6853

-8.29819 -3.43303 -3.35773e-12
-3.43303 -12.7555 -6.28756e-12
-3.35773e-12 -6.28756e-12 -77.2299

-14.6918 -0.210121 -2.60592e-12
-0.210121 -6.41858 -6.60013e-12
-2.60592e-12 -6.60013e-12 -77.3742

27.6647 -53.802 6.79397e-12
-53.802 71.1479 -4.583e-12
6.79397e-12 -4.583e-12 -24.3897

-11.6914 -11.6001 4.09924e-12
-11.6001 -16.2044 -9.38213e-13
4.09924e-12 -9.38213e-13 -37.4318

-32.6105 8.81314 4.79772e-12
8.81314 -9.4197 6.29422e-12
4.79772e-12 6.29422e-12 -49.5424

18.2563 -26.1993 6.22258e-12
-26.1993 -19.5458 -2.03038e-12
6.22258e-12 -2.03038e-12 -6.50586

-39.4298 1.01114 -2.87896e-12
1.01114 11.9802 -1.06522e-12
-2.87896e-12 -1.06522e-12 -19.7219

-30.202 -20.2677 2.80354e-12
-20.2677 6.30519 -5.76783e-12
2.80354e-12 -5.76783e-12 -7.21534

10.5366 6.25531 -1.57415e-12
6.25531 -52.3898 3.26228e-12
-1.57415e-12 3.26228e-12 -9.6391

-49.8126 15.5963 -1.8648e-12
15.5963 10.1655 -2.2092e-12
-1.8648e-12 -2.2092e-12 -13.5307

-40.2832 7.19165 2.1975e-13
7.19165 16.5415 2.19854e-12
2.1975e-13 2.19854e-12 -13.7739

16.405 20.3926 -5.66895e-12
20.3926 -25.8403 -2.71812e-12
-5.66895e-12 -2.71812e-12 -7.60702

-9.10012 -3.1139 8.01966e-12
-3.1139 108.393 -4.43852e-12
8.01966e-12 -4.43852e-12 -23.102

-3.31977 -27.6235 -1.78879e-12
-27.6235 -3.62926 -2.59348e-12
-1.78879e-12 -2.59348e-12 -5.82929

-7.33481 -26.1161 1.01229e-11
-26.1161 -14.0816 -1.89152e-12
1.01229e-11 -1.89152e-12 -9.81021

-14.1981 -31.4837 3.7114e-12
-31.4837 -21.7779 -9.02241e-13
3.7114e-12 -9.02241e-13 -12.7553

90.7267 32.7492 -1.9161e-12
32.7492 20.9062 -4.53237e-12
-1.9161e-12 -4.53237e-12 -16.506

-23.1177 -20.1166 -2.03393e-12
-20.1166 -17.3849 -3.18242e-12
-2.03393e-12 -3.18242e-12 -44.4285

72.6296 54.3217 -2.14347e-12
54.3217 91.6396 1.80715e-12
-2.14347e-12 1.80715e-12 -6.14254

-36.2148 -21.4396 9.72555e-14
-21.4396 -6.79682 1.16559e-12
9.72555e-14 1.16559e-12 -13.0426

15.0339 14.6503 -2.50762e-12
14.6503 -37.7513 -2.83758e-12
-2.50762e-12 -2.83758e-12 -8.17817

44.5723 -14.5723 -5.14907e-12
-14.5723 -8.27125 -5.29236e-12
-5.14907e-12 -5.29236e-12 -4.41785

-21.2303 24.0466 -3.06244e-12
24.0466 4.95565 -5.06558e-12
-3.06244e-12 -5.06558e-12 -5.97566

17.3732 20.4279 -5.15143e-12
20.4279 -26.7918 -2.31518e-13
-5.15143e-12 -2.31518e-13 -6.95082

-51.1401 11.4007 -1.37867e-12
11.4007 7.71057 -5.37289e-12
-1.37867e-12 -5.37289e-12 -29.9945

-7.2867 -31.58 -3.58232e-12
-31.58 -12.8264 6.84786e-13
-3.58232e-12 6.84786e-13 -8.11843

2.79686 19.8124 -4.64517e-12
19.8124 -46.0335 1.48385e-12
-4.64517e-12 1.48385e-12 -29.9864

-24.6704 -18.4433 -5.51204e-12
-18.4433 17.8362 4.28398e-12
-5.51204e-12 4.28398e-12 -5.47935

-42.3402 4.28311 -2.65609e-12
4.28311 17.8694 2.29091e-12
-2.65609e-12 2.29091e-12 -12.7278

-4.09805 9.92667 -5.34151e-12
9.92667 -40.2762 7.03141e-13
-5.34151e-12 7.03141e-13 -47.5499

-2.68826 -8.51328 -5.68227e-12
-8.51328 -38.3075 1.42686e-12
-5.68227e-12 1.42686e-12 -47.4056

81.7215 18.5121 1.62477e-12
18.5121 1.70043 -4.81393e-13
1.62477e-12 -4.81393e-13 -14.453

3.89494 7.96494 -2.77112e-13
7.96494 -45.1828 -1.32501e-12
-2.77112e-13 -1.32501e-12 -11.0177

35.8709 7.74036 9.85834e-12
7.74036 184.57 2.77585e-12
9.85834e-12 2.77585e-12 -9.75807

40.1443 -11.385 -1.6982e-12
-11.385 190.368 4.68958e-13
-1.6982e-12 4.68958e-13 -7.38993

53.7636 56.4063 2.75691e-12
56.4063 159.252 2.79006e-12
2.75691e-12 2.79006e-12 -11.5008

1.70915 -28.9504 3.50771e-12
-28.9504 -24.6906 3.26465e-12
3.50771e-12 3.26465e-12 -11.9624

16.0485 -49.1897 -1.3299e-12
-49.1897 99.4172 1.01608e-12
-1.3299e-12 1.01608e-12 -21.6895

54.5115 -55.9488 -2.70006e-12
-55.9488 149.97 3.57166e-12
-2.70006e-12 3.57166e-12 -13.6656

-2.16523 26.2197 3.73449e-12
26.2197 17.5727 1.2624e-12
3.73449e-12 1.2624e-12 -3.99515

134.936 73.8429 -2.61006e-12
73.8429 85.0231 6.27172e-12
-2.61006e-12 6.27172e-12 -10.1599

-18.7195 13.0474 5.5221e-12
13.0474 -3.90034 3.65693e-12
5.5221e-12 3.65693e-12 -26.7699

3.74116 0.0392032 2.45685e-12
0.0392032 -26.1889 -2.39867e-12
2.45685e-12 -2.39867e-12 -26.7732

144.094 -73.1284 -8.98126e-12
-73.1284 85.3505 -3.56219e-12
-8.98126e-12 -3.56219e-12 -8.19717

-21.3921 -23.4236 -5.54046e-12
-23.4236 12.2482 7.30083e-13
-5.54046e-12 7.30083e-13 -6.4903

89.3446 34.7285 -7.09358e-12
34.7285 41.3892 4.37339e-12
-7.09358e-12 4.37339e-12 -11.5482

72.1853 63.49 5.5896e-13
63.49 149.69 -1.88057e-12
5.5896e-13 -1.88057e-12 -9.67448

26.1641 21.6298 -7.14095e-13
21.6298 100.131 3.10507e-12
-7.14095e-13 3.10507e-12 -13.0317

73.8721 -65.9188 -8.8581e-13
-65.9188 151.141 1.27898e-13
-8.8581e-13 1.27898e-13 -9.40305

25.7685 -12.3809 8.39033e-13
-12.3809 105.01 9.45022e-13
8.39033e-13 9.45022e-13 -12.4287

-28.6639 6.84193 -6.30311e-12
6.84193 3.1067 5.27578e-13
-6.30311e-12 5.27578e-13 -37.8544

37.7422 -45.9739 -1.75622e-12
-45.9739 49.6684 -1.66741e-12
-1.75622e-12 -1.66741e-12 -15.5323

14.4433 47.531 1.61056e-13
47.531 94.8777 3.34666e-12
1.61056e-13 3.34666e-12 -22.1926

173.336 37.9108 -2.76164e-12
37.9108 48.0401 -4.44741e-12
-2.76164e-12 -4.44741e-12 -9.52311

7.02102 -29.2854 2.90138e-13
-29.2854 -14.358 1.65764e-12
2.90138e-13 1.65764e-12 -7.1554

-38.4171 12.8967 -2.66083e-12
12.8967 6.43528 -2.53486e-12
-2.66083e-12 -2.53486e-12 -15.2903

88.5029 -38.1117 4.09746e-12
-38.1117 34.1622 2.82085e-12
4.09746e-12 2.82085e-12 -14.0999

6.04194 -28.8019 -7.27122e-13
-28.8019 -16.1713 -1.12621e-12
-7.27122e-13 -1.12621e-12 -8.02925

169.202 -36.3427 -1.80004e-12
-36.3427 34.9277 6.41028e-12
-1.80004e-12 6.41028e-12 -13.2909

-5.7249 -28.3171 -5.15143e-13
-28.3171 -14.4724 3.93197e-12
-5.15143e-13 3.93197e-12 -9.30885

-17.7898 -25.2945 -6.41265e-13
-25.2945 12.0804 -8.17539e-12
-6.41265e-13 -8.17539e-12 -5.93346

118.873 69.4594 1.88531e-12
69.4594 96.2167 -1.8711e-12
1.88531e-12 -1.8711e-12 -11.4011

29.4124 -22.9323 -3.21165e-12
-22.9323 97.7941 1.0445e-12
-3.21165e-12 1.0445e-12 -14.3403

117.956 -71.6914 -7.72123e-13
-71.6914 93.6781 -5.33618e-12
-7.72123e-13 -5.33618e-12 -12.4171

22.2641 50.7365 -7.56017e-12
50.7365 73.7766 -3.64035e-12
-7.56017e-12 -3.64035e-12 -24.7777

-1.53593 -30.2117 2.49223e-12
-30.2117 -6.55206 5.39124e-13
2.49223e-12 5.39124e-13 -6.99715

-7.04529 -14.6403 -2.92803e-13
-14.6403 -21.9193 3.03579e-12
-2.92803e-13 3.03579e-12 -32.6149

-11.8921 11.0928 -5.57539e-12
11.0928 -16.4312 -3.80895e-12
-5.57539e-12 -3.80895e-12 -77.7963

-26.1695 -5.15997 4.37798e-12
-5.15997 -6.38738 7.70495e-14
4.37798e-12 7.70495e-14 -77.6301

-38.9406 13.0836 2.96396e-12
13.0836 13.7444 1.58037e-12
2.96396e-12 1.58037e-12 -10.2383

-14.4806 -10.6671 2.57823e-12
-10.6671 -17.3187 -3.55345e-12
2.57823e-12 -3.55345e-12 -78.7592

-25.9032 4.0917 2.47447e-12
4.0917 -5.91389 4.53363e-12
2.47447e-12 4.53363e-12 -78.9013

-3.63393 7.43429 1.16261e-11
7.43429 -27.8609 1.38748e-12
1.16261e-11 1.38748e-12 -77.9885

-43.9757 -12.1154 4.72825e-12
-12.1154 2.91634 7.1454e-13
4.72825e-12 7.1454e-13 -68.1597

11.9737 -30.4695 -5.38828e-12
-30.4695 76.1618 -1.59635e-12
-5.38828e-12 -1.59635e-12 -14.7009

0.521975 -12.9721 4.44829e-12
-12.9721 -39.9909 5.60352e-12
4.44829e-12 5.60352e-12 -45.2779

-16.3488 -34.4179 1.04746e-12
-34.4179 -22.0684 -1.82165e-12
1.04746e-12 -1.82165e-12 -23.5902

-2.42051 -18.1768 -1.65853e-12
-18.1768 -29.8954 -5.81905e-12
-1.65853e-12 -5.81905e-12 -33.6271

12.7383 15.4591 -6.0929e-13
15.4591 -37.7157 2.37943e-12
-6.0929e-13 2.37943e-12 -9.62468

-46.9091 9.86438 -3.32578e-12
9.86438 8.87778 5.71128e-12
-3.32578e-12 5.71128e-12 -70.1555

3.46275 19.2278 -5.02561e-13
19.2278 -41.4725 -1.32457e-12
-5.02561e-13 -1.32457e-12 -70.2714

1.47245 11.3062 -5.32315e-12
11.3062 -23.9652 2.84528e-12
-5.32315e-12 2.84528e-12 -31.8683

109.39 -15.3391 4.51431e-12
-15.3391 -12.5355 6.26403e-12
4.51431e-12 6.26403e-12 -25.0373

-14.3199 24.9637 2.87296e-12
24.9637 10.3863 2.56447e-12
2.87296e-12 2.56447e-12 -5.80398

76.6058 -61.3538 -8.43414e-12
-61.3538 37.3646 -6.53699e-13
-8.43414e-12 -6.53699e-13 -22.3955

76.1132 -57.4565 -8.97889e-12
-57.4565 99.2271 3.5835e-12
-8.97889e-12 3.5835e-12 -5.5555

118.195 -36.5436 9.43601e-12
-36.5436 40.6004 -2.75098e-12
9.43601e-12 -2.75098e-12 -7.37864

-51.1151 -5.15898 2.67667e-12
-5.15898 3.34086 -7.59911e-12
2.67667e-12 -7.59911e-12 -60.6618

-50.479 2.89122 -4.03026e-12
2.89122 3.13512 -9.37324e-12
-4.03026e-12 -9.37324e-12 -60.1343

-11.9756 -24.4566 2.28854e-13
-24.4566 -35.0039 -1.89708e-12
2.28854e-13 -1.89708e-12 -59.1684

-8.99202 -21.7609 6.88764e-12
-21.7609 -37.8886 -2.69118e-13
6.88764e-12 -2.69118e-13 -59.478

-14.7027 26.1363 -1.65497e-13
26.1363 -33.0282 1.34825e-12
-1.65497e-13 1.34825e-12 -60.7529

-18.158 3.09967 3.67365e-12
3.09967 -13.1647 -1.03743e-11
3.67365e-12 -1.03743e-11 -75.4807

-9.9451 -20.5091 -2.91974e-12
-20.5091 -32.6513 -6.09142e-13
-2.91974e-12 -6.09142e-13 -56.7386

-26.6489 -18.5685 -2.87192e-12
-18.5685 -14.1959 -2.24631e-11
-2.87192e-12 -2.24631e-11 -71.2743

-15.4794 2.43467 3.81043e-12
2.43467 -12.8528 -8.45487e-12
3.81043e-12 -8.45487e-12 -77.8753

-6.02759 -20.5265 5.16402e-12
-20.5265 -41.4877 -5.83237e-13
5.16402e-12 -5.83237e-13 -60.5091

-6.75688 20.9561 4.57634e-12
20.9561 -40.144 5.1464e-12
4.57634e-12 5.1464e-12 -60.0202

-14.3166 -3.45871 9.14987e-12
-3.45871 -11.3903 -1.99855e-12
9.14987e-12 -1.99855e-12 -76.8897

-11.2643 -3.11745 1.98671e-12
-3.11745 -17.6896 -1.41516e-13
1.98671e-12 -1.41516e-13 -74.0525

-24.2045 12.1098 -6.81795e-12
12.1098 -13.4007 1.3672e-12
-6.81795e-12 1.3672e-12 -69.9705

-22.0828 26.9299 -5.66066e-13
26.9299 -26.2671 1.60159e-12
-5.66066e-13 1.60159e-12 -57.5842

VECTORS fluid_flux_TPM float
-8.72058e-05 3.10233e-05 3.61371e-22
3.55897e-06 6.88146e-06 4.4346e-20
-1.27854e-05 -1.02239e-05 -8.89546e-21
-4.16993e-06 4.25335e-06 4.03182e-20
2.27042e-05 -6.3123e-06 -2.68856e-20
2.75714e-06 -1.59011e-05 1.31003e-20
-8.57819e-05 -3.10881e-05 -5.23141e-21
-1.38902e-05 -1.04651e-05 -2.56817e-20
2.21184e-05 9.45374e-07 2.38436e-20
1.13822e-05 -3.90749e-06 1.25337e-20
5.45926e-05 1.24822e-05 -8.66049e-21
2.34649e-06 -1.71914e-05 -4.11332e-21
1.36094e-05 1.12521e-05 -2.03181e-21
2.66166e-06 1.37824e-05 2.19983e-20
2.05778e-05 -2.94619e-06 -2.30572e-20
-1.63298e-05 -2.72857e-07 -6.08056e-21
2.75309e-06 1.40966e-05 3.55467e-20
1.01802e-05 -2.39152e-06 1.21405e-20
9.89708e-06 1.72201e-05 -3.99389e-21
-1.48462e-05 1.88517e-06 7.03646e-21
-3.60063e-06 -2.13008e-05 -1.2839e-20
3.41063e-05 5.94095e-05 2.98469e-20
1.56951e-05 1.63106e-06 2.8613e-20
1.12256e-05 -1.12798e-05 -1.56457e-20
-1.50761e-05 -3.3319e-06 -1.6051e-23
-6.77128e-07 -1.11292e-05 -3.45942e-21
6.28951e-05 -4.90783e-06 1.42139e-20
1.40639e-05 1.02474e-05 -3.78956e-21
-2.51462e-05 -2.06399e-05 -1.21366e-20
4.91138e-05 -1.28122e-05 6.88151e-21
-1.65801e-05 -6.03746e-06 4.56445e-21
5.53633e-06 -3.20326e-05 -1.48732e-21
4.76484e-05 -4.80414e-05 -3.85564e-21
-4.92275e-06 -4.12428e-05 -1.36294e-20
-2.96697e-05 3.70009e-05 -1.93116e-21
-3.82428e-05 -1.63931e-05 -3.79319e-21
3.26986e-05 4.32103e-05 1.80523e-20
-4.47354e-05 -8.72482e-06 -5.83441e-21
1.43726e-05 -1.10804e-05 -1.60708e-20
4.64644e-05 5.01092e-05 -1.12389e-20
3.21256e-05 -1.40204e-05 -7.73402e-21
3.3636e-05 -4.23385e-05 -8.63051e-21
-1.98941e-05 -5.03725e-05 3.21846e-20
-1.5896e-05 6.35599e-06 9.59546e-21
3.05218e-05 -2.93109e-05 1.04601e-20
-3.03289e-05 1.09889e-05 -1.54044e-20
-4.04974e-06 -2.03682e-05 -4.87549e-21
7.88519e-06 2.02095e-05 3.9469e-21
-1.63406e-05 5.92715e-06 -5.25626e-21
-1.78178e-05 2.87225e-05 9.51694e-21
3.2405e-05 1.52892e-05 9.2153e-21
2.93619e-05 -1.00741e-05 7.62766e-22
-1.56647e-05 1.57587e-05 -1.14263e-21
-2.35387e-05 -2.0688e-05 6.34518e-22
-2.11377e-05 -5.1319e-06 -1.71894e-21
-4.47868e-05 2.70732e-05 1.54881e-20
-2.93689e-05 -3.80192e-05 -3.04075e-21
6.36277e-06 -3.06247e-05 1.63845e-20
-4.7703e-05 6.48223e-06 -1.51409e-20
6.0735e-06 1.36957e-05 -1.2809e-20
-5.57629e-06 -8.17269e-06 -1.10106e-20
-6.58295e-06 -1.7942e-05 1.99382e-20
5.71389e-05 2.48575e-05 -2.64904e-21
9.24203e-06 1.81427e-05 2.08296e-20
1.22955e-05 -1.44438e-05 -3.11381e-21
-1.64046e-06 -2.07508e-05 -8.14602e-21
4.6207e-06 -8.8048e-06 6.52348e-21
-1.00897e-05 -5.56443e-06 2.22403e-21
-1.06018e-05 1.19283e-05 3.47439e-20
2.55799e-06 -4.09227e-06 -8.87848e-21
-1.50422e-05 -1.5842e-05 1.02985e-20
-2.13632e-05 5.16551e-06 -1.75359e-20
-3.55656e-06 3.44786e-05 9.50511e-21
-1.78704e-05 1.071e-05 1.50564e-20
-9.0701e-06 1.46135e-05 3.81815e-20
-6.035e-05 7.69149e-06 1.72561e-21
7.81744e-06 -2.16798e-05 -2.20367e-20
-1.88787e-05 -8.89938e-06 -2.09893e-20
1.93356e-06 1.16231e-05 -1.44548e-21
2.6299e-05 5.08926e-06 4.17676e-20
3.41664e-05 -2.89729e-05 1.19247e-20
2.21447e-05 2.05546e-05 2.73691e-20
1.19075e-05 -2.82211e-06 9.15533e-22
-3.21513e-05 2.40652e-05 5.42725e-21
3.79016e-05 4.8455e-06 1.75441e-20
-4.98051e-06 4.94109e-05 1.1399e-22
-1.74099e-06 -1.68559e-05 1.37164e-20
1.81226e-05 9.95393e-06 8.0102e-21
2.93152e-05 3.02836e-05 -9.265e-21
5.50207e-05 3.80106e-05 -1.51303e-20
-5.33097e-06 3.07706e-05 -5.1065e-21
5.91754e-05 -3.55099e-05 -9.00369e-21
-2.71229e-05 5.34079e-06 1.75648e-20
1.7838e-05 1.10011e-05 8.2876e-21
-2.96389e-05 9.90259e-06 8.59199e-21
1.66518e-05 2.85191e-05 -7.53182e-21
1.01681e-05 -4.43834e-05 -1.18189e-20
1.91533e-06 1.162e-05 4.99706e-21
-1.47997e-05 -1.76189e-05 1.70472e-20
3.06967e-06 1.74734e-05 -1.96722e-21
2.6405e-05 5.2571e-06 2.08608e-20
-1.54422e-05 3.32088e-05 1.72995e-20
4.05493e-05 -1.33322e-05 -4.85365e-21
-3.7728e-06 7.4545e-06 4.3646e-20
9.95213e-06 5.89889e-06 8.33277e-21
-2.28042e-06 -1.13237e-05 -1.60586e-20
3.22043e-06 -1.92505e-05 -9.66701e-21
1.74681e-05 3.89181e-06 3.77685e-20
-7.93666e-06 4.09697e-05 1.3971e-20
-9.80492e-06 2.47905e-07 2.35635e-20
9.31784e-06 1.18849e-05 -1.082e-21
-2.17721e-06 -4.17109e-05 -1.04871e-20
4.202e-05 1.28641e-05 -7.92166e-22
4.42223e-06 -7.45266e-06 -1.04392e-20
-1.11444e-05 -3.55339e-06 -4.43982e-21
-2.93235e-05 -1.24851e-05 -9.70156e-21
1.58027e-05 4.11443e-05 7.25563e-21
-4.34818e-05 -1.55727e-05 -6.43679e-21
1.60174e-05 -4.11208e-05 -7.58275e-21
-3.69955e-06 -3.19179e-05 -2.17011e-20
2.18373e-05 6.52118e-07 2.52721e-20
-7.17098e-06 1.83953e-05 9.23076e-21
-1.61108e-06 3.96928e-06 -2.01468e-20
-3.68571e-06 -1.65375e-05 1.3976e-21
5.22961e-06 -8.30151e-06 7.64126e-21
9.35881e-06 1.58624e-05 3.50486e-20
3.30988e-05 1.06516e-05 -3.0647e-21
8.61485e-06 -7.4575e-06 -1.17895e-20
-8.27034e-06 -4.51567e-05 1.3612e-22
2.55502e-05 -1.88185e-05 2.25978e-21
4.97756e-06 2.77692e-05 2.49723e-20
-2.81613e-06 -2.8414e-06 1.05729e-20
-8.62564e-06 -8.32525e-06 -2.34436e-21
-4.77633e-06 4.41244e-08 -2.71593e-20
-2.2871e-05 2.8592e-05 1.27593e-20
1.87617e-05 -3.73723e-05 -2.48504e-20
-2.65781e-05 4.27112e-05 1.07754e-20
-1.63706e-05 9.53455e-06 4.22763e-21
2.52777e-06 1.2198e-05 -1.2454e-20
-2.29851e-05 -3.49868e-05 5.66948e-21
1.39351e-05 3.34636e-05 6.00873e-22
1.75064e-05 9.36851e-06 -9.28412e-21
2.28098e-05 -8.52202e-06 4.26583e-21
-1.25311e-06 -1.12645e-05 4.71179e-21
-3.39091e-05 -3.15555e-05 -1.32343e-20
-2.75128e-06 1.13025e-05 3.72183e-20
1.72454e-05 1.0171e-05 -1.42943e-21
1.8886e-05 -8.82017e-06 3.3178e-20
8.24254e-06 -1.43438e-05 -1.67177e-20
2.4355e-05 -1.07945e-05 -1.95211e-20
1.9008e-05 -8.99717e-06 2.02823e-20
4.64026e-06 2.05783e-07 -2.03099e-20
2.57386e-05 2.02196e-05 2.66479e-22
-2.74142e-06 -1.70286e-05 8.12474e-22
-1.0479e-05 -4.45664e-06 -2.83944e-20
1.12576e-06 -3.88977e-06 -1.42836e-20
-3.15482e-06 1.58457e-05 3.27963e-21
-3.48806e-05 2.76788e-06 9.65064e-21
-1.21205e-05 -3.32556e-05 -2.1374e-20
-7.87846e-06 9.77823e-06 3.03553e-20
1.35642e-05 1.6639e-05 -1.90475e-20
2.65664e-05 -1.87432e-05 4.93976e-21
-3.67893e-05 -2.0349e-05 -1.07442e-21
1.74016e-05 -2.75054e-05 2.00598e-20
2.28021e-05 -2.72144e-05 -5.58129e-22
-1.09435e-05 3.78462e-06 1.80944e-20
-1.98274e-05 -2.88378e-05 -3.78774e-21
-3.48769e-05 -5.79094e-06 -8.97671e-22
-3.85216e-06 -3.17401e-05 -2.29868e-20
1.54464e-05 -3.16966e-05 1.70572e-20
-9.10543e-06 -2.61974e-05 -2.99254e-21
4.58082e-06 3.14029e-05 -5.34782e-21
-1.57511e-05 -2.85197e-05 1.2363e-21
2.93857e-06 -1.62909e-05 -7.64158e-21
-2.47373e-05 1.82584e-05 -1.89052e-21
-1.50296e-05 -1.21102e-05 3.36393e-21
-2.73506e-05 -5.17202e-06 -2.34625e-20
1.56669e-05 -9.18086e-06 1.37091e-20
-4.30659e-06 2.39506e-05 -2.05726e-21
1.22316e-05 -9.32376e-06 2.46169e-21
-2.95835e-05 -1.31631e-05 -1.59192e-21
-8.83097e-06 -7.4575e-06 -7.45179e-21
9.08138e-06 7.54026e-06 -2.22341e-21
2.14251e-05 2.86985e-05 1.12507e-20
-1.75075e-05 -1.08084e-05 1.00705e-20
-3.25036e-05 -7.51013e-07 -2.0979e-21
-1.63354e-05 -5.01576e-06 -2.23011e-20
-4.57777e-06 -1.6582e-05 -7.18165e-21
1.76833e-05 2.12376e-05 4.83184e-21
-1.09565e-05 5.8743e-06 9.13922e-21
6.35988e-07 -2.05537e-05 1.17964e-20
-4.19364e-05 1.085e-05 -1.35596e-20
2.48586e-05 2.02448e-05 8.38765e-21
3.79417e-06 3.27828e-05 4.16336e-21
-2.43178e-06 3.79691e-06 8.96641e-21
-9.05021e-06 2.51182e-07 7.06496e-21
4.35475e-06 7.7595e-06 6.60322e-21
-1.16931e-05 3.40121e-06 -2.46542e-20
-2.07323e-06 -3.78464e-06 1.54265e-20
1.65965e-06 2.07583e-05 4.34286e-21
4.47206e-06 4.49667e-07 -2.60931e-20
-1.95366e-05 4.75628e-06 1.56251e-21
-1.72971e-05 1.93565e-05 1.24307e-20
-3.10721e-06 1.15773e-05 1.36906e-20
-2.92148e-05 1.83929e-05 8.1127e-22
-9.34268e-06 8.97867e-06 1.24898e-20
1.73099e-05 -1.16129e-05 8.76721e-21
3.66015e-05 -3.56443e-06 9.57394e-21
-2.11391e-05 1.12965e-05 -7.25381e-21
2.23284e-06 4.49791e-06 1.68693e-20
2.17737e-05 -4.34458e-06 9.54664e-21
-1.72776e-05 1.03521e-05 1.21939e-20
-9.87105e-06 5.53863e-06 2.20028e-20
1.18306e-05 3.74242e-06 -5.41089e-21
2.18783e-05 -1.34702e-05 -8.009e-21
-1.73787e-05 9.95537e-06 2.25754e-20
-2.5035e-05 -5.30264e-06 1.69777e-22
-1.67605e-05 -4.36215e-06 -2.48222e-20
9.8755e-06 6.23593e-09 -1.25683e-20
1.01731e-05 1.95348e-07 -1.21387e-20
4.39044e-06 8.31656e-06 5.26212e-20
4.8292e-06 -8.79712e-06 -7.10528e-21
-5.00999e-06 8.41922e-06 2.54079e-20
-5.26629e-06 -8.65697e-06 1.4534e-20
9.91028e-06 -7.40747e-06 -1.11743e-20
-2.0326e-05 3.23468e-06 -4.60234e-20
-2.00584e-05 -3.28349e-06 5.02829e-21
-1.28338e-05 1.58753e-05 2.77393e-22
-1.29136e-05 -1.59296e-05 4.65115e-21
7.48572e-06 -1.98423e-05 -1.11931e-20
7.20549e-06 1.97624e-05 -4.78696e-21
1.55766e-06 2.58831e-05 8.01082e-21
1.12396e-05 -3.13661e-06 -7.09981e-21
2.35972e-06 -3.86624e-06 9.76613e-21
-2.14097e-05 1.42158e-06 -1.03443e-20
7.67661e-06 -1.95116e-05 -5.15622e-21
7.27289e-06 1.96601e-05 2.25495e-21
4.76845e-06 -5.27105e-08 6.0166e-21
8.96749e-06 2.44013e-05 3.43001e-21
-2.24212e-06 -4.01602e-06 -2.14422e-20
2.31757e-06 -1.13161e-05 6.92433e-22
-2.24286e-05 -1.21506e-05 -4.24552e-21
-2.13564e-05 -1.14937e-05 1.31149e-21
-2.18908e-05 1.36274e-05 1.70554e-20
3.25099e-06 -1.22866e-05 9.77068e-21
-1.56521e-06 3.38168e-06 3.67666e-20
-5.87318e-07 -2.55667e-05 -7.19591e-21
-7.71956e-06 -2.44206e-05 1.13105e-20
3.27009e-05 3.03597e-05 -2.80336e-21
3.54499e-05 -1.81503e-06 3.41728e-21
-1.27099e-05 -3.63184e-06 1.13156e-20
-2.28904e-05 -4.13818e-05 -1.62617e-20
8.30343e-06 1.37466e-05 3.33754e-21
-2.52332e-05 3.03299e-06 1.07827e-20
2.00632e-05 5.78584e-06 6.25732e-21
-4.53268e-06 -3.27397e-08 2.12073e-20
-4.66474e-06 -8.41192e-06 2.1937e-21
-7.0722e-06 -3.93289e-05 -2.46687e-21
-9.70739e-06 -8.39047e-08 -3.41688e-20
-4.86691e-05 -1.81553e-06 -1.56324e-20
1.73069e-05 -1.91034e-05 3.47547e-21
2.4291e-06 3.99868e-06 -8.93427e-21
-1.20633e-07 -1.75119e-05 -2.97251e-21
-9.81744e-06 2.40813e-05 2.30299e-20
-4.37161e-06 8.62652e-06 -3.78077e-21
2.05541e-05 -1.36046e-05 8.4016e-21
-3.76549e-05 -1.355e-05 -1.01099e-20
-1.52641e-05 -2.03635e-05 3.34695e-22
4.97653e-06 8.38815e-06 2.48737e-20
1.66293e-05 5.16001e-06 -1.85907e-20
-4.76335e-06 -7.33745e-06 -7.9893e-21
1.97942e-05 3.54678e-06 -1.54508e-20
1.81863e-05 -9.82461e-06 6.98642e-21
-3.48784e-07 2.71694e-05 2.15965e-20
8.31932e-06 -1.3665e-05 3.4045e-22
4.87975e-05 2.2003e-06 1.38355e-20
-4.23511e-05 1.14517e-05 -7.11193e-21
2.28568e-05 1.15546e-05 -9.3223e-22
-6.45201e-06 -1.71767e-05 5.76376e-21
-1.53476e-05 -8.61686e-06 -2.09177e-20
2.87831e-05 -2.10515e-07 3.11715e-21
-6.9188e-07 -2.42512e-05 -2.4503e-20
-1.26154e-05 -1.08724e-05 -2.11243e-21
1.02223e-05 -2.3496e-05 -1.91812e-21
-4.96534e-07 2.05522e-05 3.67347e-21
7.91643e-06 2.60636e-05 -7.09828e-21
1.72652e-05 -9.88269e-06 -2.40349e-21
-1.89449e-05 1.92954e-05 -3.76529e-21
1.65251e-05 2.00262e-05 -5.53033e-21
-6.22204e-05 1.60193e-05 -2.80776e-20
-1.01075e-05 2.60119e-05 1.97706e-20
1.2517e-05 -1.52458e-05 -1.53741e-20
-7.02794e-06 -1.83948e-05 3.89688e-20
-1.18516e-05 4.50493e-06 2.90668e-20
-2.5889e-05 -7.04462e-06 -7.2517e-21
-6.38507e-06 3.88514e-05 3.63776e-20
-1.26038e-05 1.19005e-05 1.99064e-20
2.07732e-05 -4.47487e-06 2.37599e-20
-6.87133e-06 -2.57899e-05 -2.48595e-22
-1.48663e-05 2.3887e-05 -2.06029e-21
-2.17853e-05 1.25627e-05 1.26823e-20
-2.05661e-05 -1.50529e-05 -4.85066e-22
1.80256e-05 -2.06516e-05 1.59595e-20
-2.75261e-05 -1.456e-06 -1.34111e-20
1.2365e-05 -4.08035e-05 5.26506e-21
1.9383e-05 -1.891e-05 -4.79027e-23
2.47284e-05 4.30747e-05 -1.91985e-20
1.97079e-06 1.98632e-05 2.32925e-20
2.96059e-06 -2.5417e-05 -9.17071e-22
-4.16295e-05 4.69541e-05 -1.75081e-20
-1.27e-05 -2.44075e-05 8.02172e-22
1.63641e-05 -6.41948e-06 -5.9584e-21
-2.41051e-06 2.5768e-05 1.36806e-20
1.28808e-05 -1.18245e-05 4.19519e-21
1.38782e-05 2.43089e-05 -9.39567e-21
1.7227e-05 -1.40026e-06 1.39001e-20
2.21164e-05 -6.32061e-05 3.77834e-21
-5.87515e-06 -1.28571e-05 -3.40061e-21
-2.31805e-05 1.00854e-05 9.56121e-21
-2.00166e-05 1.87159e-05 1.01348e-21
2.16087e-05 1.45652e-05 1.06644e-20
1.86695e-05 -1.07549e-05 -3.85038e-23
1.49495e-05 1.25914e-05 1.26056e-20
-5.42724e-06 4.55036e-08 4.06898e-20
1.5401e-05 -2.30834e-05 2.32254e-21
-1.69875e-05 -2.04058e-05 -1.08575e-20
2.25581e-05 9.7721e-06 2.52539e-22
1.28045e-05 -1.19877e-05 9.11737e-21
9.55233e-06 -2.48476e-05 -1.12444e-21
1.66564e-05 -6.93174e-06 9.55665e-21
-1.58028e-05 -7.54337e-06 1.21329e-20
1.29663e-06 -2.62986e-05 -3.27328e-21
-2.61024e-05 4.47233e-06 -2.28525e-21
2.38999e-06 2.45387e-05 1.36818e-20
2.05815e-05 6.62637e-06 9.61609e-21
-2.17169e-05 -1.07001e-05 8.76145e-21
-8.97573e-06 2.56058e-05 1.00196e-20
-1.49515e-06 -2.4184e-05 8.37281e-21
1.94632e-05 1.18355e-05 -1.61317e-20
-1.76868e-06 1.80818e-05 2.64193e-20
-2.01355e-05 1.37003e-05 1.8634e-20
2.35071e-05 1.14133e-05 2.91553e-20
-1.71125e-05 -9.984e-06 1.65282e-20
9.5084e-08 -1.98316e-05 -1.77502e-21
1.83794e-05 1.99811e-05 -1.07654e-20
-2.21503e-05 -1.43014e-05 -2.08771e-20
4.83435e-05 -3.3977e-05 -4.38951e-21
1.78942e-05 -1.08208e-05 7.46512e-21
9.00047e-06 4.30806e-05 -1.36645e-20
1.70315e-05 -1.36766e-05 5.60641e-21
-1.98721e-05 8.70225e-05 -1.68262e-20
-1.97623e-05 -8.65368e-05 -3.00587e-21
5.71759e-05 7.17072e-05 1.15203e-21
5.69134e-05 -7.1381e-05 6.29067e-22
9.0634e-05 -1.6166e-10 1.10292e-21
-7.81899e-05 3.76324e-05 -2.95587e-22
-7.74442e-05 -3.72767e-05 3.70557e-21
1.22321e-05 1.1817e-05 7.61095e-21
2.93638e-05 2.18893e-05 -5.46818e-21
1.14466e-05 3.33236e-06 1.71218e-20
1.88531e-05 9.75017e-06 -1.02821e-20
4.98854e-06 2.01674e-05 1.18853e-20
-1.88293e-05 -1.49783e-05 4.49471e-21
1.70357e-05 -1.02128e-05 9.23196e-21
1.98499e-05 1.45474e-05 -4.16669e-21
-3.16652e-06 2.43607e-05 2.43662e-20
2.94367e-05 -1.99901e-05 1.21542e-20
3.79338e-06 -2.37366e-05 -7.90439e-21
2.19579e-05 5.22635e-06 -5.38301e-21
2.98919e-05 1.10245e-05 -1.43032e-21
1.42068e-05 1.41419e-05 4.33471e-20
1.58811e-05 6.59282e-06 1.15991e-20
-1.84963e-05 1.09351e-05 1.63694e-20
-2.25602e-05 9.03544e-06 -4.26279e-21
2.29265e-05 -1.1262e-05 1.71091e-20
-1.82655e-05 -9.99669e-06 -1.44991e-20
-1.8552e-05 -1.05811e-05 1.21538e-21
-3.43816e-07 -2.07651e-05 1.35166e-20
-8.61463e-08 -2.1158e-05 -4.77028e-21
-2.01244e-05 -1.00535e-06 -2.00943e-20
2.66956e-05 -4.01865e-06 9.42751e-21
1.81097e-05 1.13407e-05 -1.02006e-20
-1.78619e-05 1.09437e-05 1.71713e-21
-1.53595e-05 1.66215e-05 -9.24863e-21
1.60201e-05 -1.37515e-05 -1.97017e-20
-1.10221e-05 1.74611e-05 3.26384e-20
-1.42231e-05 -1.48877e-05 -2.97406e-22
-1.15511e-06 2.1208e-05 1.64297e-20
-1.28752e-06 2.09656e-05 2.22104e-20
8.97051e-08 -1.98315e-05 1.44506e-20
6.11005e-06 -1.97349e-05 2.16459e-22
-1.71388e-05 -9.93425e-06 8.45041e-21
1.55849e-05 -5.48961e-06 2.54185e-20
6.63074e-07 2.14752e-05 1.30952e-20
3.008e-07 1.85052e-05 1.32061e-21
-2.34547e-06 1.68552e-05 2.89701e-20
2.19061e-05 -5.52675e-06 1.34969e-20
-1.65393e-05 5.37742e-06 4.07283e-20
4.15695e-06 2.15149e-05 -1.91603e-20
-3.25545e-05 1.29177e-05 -5.71473e-22
9.76214e-06 4.17266e-05 -1.68093e-20
-1.70515e-05 4.5676e-06 6.8382e-21
1.96821e-05 -1.16287e-05 -5.94811e-22
9.45653e-07 2.1017e-05 3.04091e-22
-2.04788e-05 6.69864e-06 1.65986e-20
2.44381e-06 -1.62606e-05 -8.78328e-21
1.81886e-06 -5.80059e-05 -5.17411e-21
2.00623e-06 1.74843e-05 -2.08061e-21
-1.69601e-05 1.4021e-05 2.75852e-20
1.7852e-05 6.39645e-05 6.74996e-21
4.57641e-05 3.77025e-05 -1.43066e-20
5.20591e-05 -3.52517e-05 -1.57819e-20
1.48138e-05 -1.0166e-05 -1.32656e-20
-1.57837e-05 1.4036e-05 2.17887e-20
-2.02146e-05 -7.91982e-06 4.48379e-22
-1.96435e-05 -6.82165e-06 1.74775e-21
5.92605e-05 -2.46092e-05 -2.26649e-20
5.74274e-05 2.38683e-05 8.15117e-21
1.08933e-05 3.81706e-06 7.89107e-21
7.66544e-07 1.95772e-05 -1.14241e-20
7.8344e-08 1.95586e-05 -1.02118e-20
-4.83777e-05 -3.69146e-05 -2.09268e-20
1.14239e-05 -1.71701e-05 -3.7365e-21
1.1732e-05 1.24633e-05 6.68509e-21
-2.14158e-05 -3.39538e-06 -1.71135e-21
-1.40435e-05 1.72003e-05 2.65266e-20
-1.88866e-05 9.16678e-06 1.10143e-20
4.76383e-05 3.36908e-05 -4.59961e-21
1.58048e-05 7.06093e-06 -1.33456e-20
-5.56619e-06 2.00283e-05 3.52286e-20
-1.69763e-05 -1.1748e-05 -2.02784e-20
1.85605e-06 -2.05408e-05 7.9602e-21
-8.94882e-06 -1.92653e-05 -5.44544e-21
-1.72474e-05 -1.17723e-05 -2.1769e-20
1.05785e-05 -1.89339e-05 -4.22918e-22
1.4121e-05 -1.69876e-05 1.92843e-21
-2.44017e-06 -6.14311e-05 1.95875e-21
2.61776e-05 -4.11215e-05 1.94595e-20
1.74731e-06 -2.07835e-05 1.07928e-21
1.79569e-05 1.13543e-05 2.38014e-21
-1.44749e-05 -1.49038e-05 -1.63533e-20
-9.84011e-06 1.97082e-05 3.46572e-20
-5.03893e-06 2.10046e-05 1.49569e-20
1.66256e-05 1.42423e-05 -2.97712e-22
6.0584e-06 -1.98595e-05 3.88566e-21
-1.34052e-05 -4.03539e-05 3.6213e-21
-1.98819e-06 2.5038e-05 2.02502e-20
1.47904e-05 1.44537e-05 -3.56764e-21
-1.29571e-05 -1.02157e-05 -3.33722e-21
-1.35137e-05 1.06072e-05 -2.68452e-21
4.43386e-05 -1.89114e-05 1.69743e-21
7.56231e-06 -1.33989e-05 3.42818e-21
-8.31637e-06 -1.26258e-05 5.75102e-21
2.13285e-05 6.36286e-06 -4.18004e-21
1.09933e-05 -5.06571e-05 -1.44406e-20
-3.84478e-05 -3.48996e-05 5.96901e-21
2.33046e-05 6.20681e-06 -1.51118e-20
-9.32737e-06 -1.82794e-05 -8.24304e-21
1.87039e-05 9.4819e-06 -1.10137e-20
-2.85618e-05 -3.25481e-05 -3.35573e-21
9.68727e-06 5.00421e-05 2.66091e-20
3.43309e-05 -5.98541e-05 -1.17504e-20
-3.47339e-05 -5.97709e-05 1.50418e-20
2.78057e-05 -5.20173e-05 -1.92176e-21
-1.26969e-05 4.36291e-05 8.36821e-23
-6.27549e-06 3.89738e-05 2.71144e-20
-1.8729e-05 8.94504e-06 1.12207e-20
5.97664e-06 2.42399e-05 1.02685e-20
-2.39136e-06 1.26528e-05 3.29419e-20
1.01192e-05 3.23284e-06 -1.02196e-21
-3.18818e-06 1.6204e-05 4.981e-21
-2.47436e-07 2.09898e-05 -4.40858e-21
1.6659e-05 9.74967e-06 2.79221e-22
1.70998e-06 5.77188e-05 -1.44588e-20
-1.47159e-05 1.07316e-05 3.42912e-20
1.59479e-05 -6.24603e-06 1.54541e-20
1.68703e-05 -4.50855e-06 3.39542e-22
-6.06568e-05 -8.768e-06 8.97851e-21
-3.46024e-05 1.67399e-05 -2.36711e-20
-4.35105e-05 -5.25411e-05 -2.62177e-21
8.6557e-06 8.3449e-06 3.43055e-20
1.42086e-05 7.29186e-06 2.70556e-20
2.68022e-05 -4.19547e-06 1.20029e-20
-8.10362e-06 -1.32415e-05 -7.73162e-21
1.72149e-05 8.42782e-06 1.63506e-20
7.33463e-06 -3.00318e-05 -2.19564e-20
-1.37124e-05 1.0204e-05 2.23075e-20
-2.23722e-05 -2.14203e-05 1.52337e-20
-5.83542e-06 1.62962e-05 2.56568e-20
-3.27069e-06 2.06766e-05 3.84051e-21
3.38465e-05 2.12944e-05 7.19651e-21
3.61098e-05 -1.9281e-05 -1.37904e-20
-4.20663e-05 -1.16218e-05 -3.32178e-21
7.63345e-06 7.685e-06 -5.77983e-21
-4.05824e-06 0.000101351 -7.50787e-21
8.61583e-07 -0.000104458 -9.99776e-21
5.24491e-05 8.76364e-05 -1.84818e-20
-1.91011e-05 8.45707e-06 2.77841e-20
-2.6374e-05 5.65439e-05 -1.29788e-20
5.30273e-05 -8.46313e-05 1.19841e-21
-1.17194e-05 -1.82805e-05 -1.84845e-20
7.79924e-05 6.74911e-05 -2.5494e-20
2.39912e-05 -1.79751e-05 -2.81952e-20
-3.60709e-06 -2.98192e-05 1.67456e-20
8.17707e-05 -6.58439e-05 -2.5581e-21
-6.74397e-06 1.45169e-05 3.93259e-20
-5.38267e-05 -3.48203e-05 -8.2861e-21
-4.3009e-05 -9.31203e-05 -1.16691e-20
-2.41102e-05 -5.77984e-05 -3.53368e-21
-4.39706e-05 9.41273e-05 -1.70961e-20
-1.00923e-05 6.40774e-05 1.60101e-21
1.56312e-05 3.71046e-05 3.35549e-20
-2.79526e-05 3.72367e-05 1.57927e-20
-2.52705e-05 -5.51777e-05 -5.48455e-21
0.000100356 1.73152e-05 -1.76411e-21
-1.69258e-05 1.07659e-05 2.18436e-20
-5.91176e-06 1.63314e-05 2.16266e-20
-5.07529e-05 3.76357e-05 4.89398e-21
-1.72745e-05 9.94312e-06 1.15497e-20
9.91928e-05 -1.52618e-05 1.30024e-20
-1.53587e-05 7.79791e-06 2.95682e-20
7.19189e-06 -1.44935e-05 -8.06933e-21
-7.79615e-05 -6.09419e-05 -2.62383e-20
-2.58764e-05 5.77113e-05 -9.19286e-21
-7.91145e-05 6.03692e-05 -3.99662e-21
2.45377e-05 5.19451e-05 -1.65734e-20
-1.47661e-05 1.05814e-05 1.61699e-20
-2.05278e-05 2.44741e-05 4.93399e-21
-2.85298e-05 4.98129e-05 8.71811e-21
-5.67703e-05 2.07967e-07 -2.79848e-20
-9.44019e-07 1.62944e-05 1.24282e-20
-2.88467e-05 -5.04014e-05 2.36435e-20
-5.81925e-05 -2.19777e-07 -2.68683e-20
-2.83467e-05 4.86913e-05 2.41079e-20
-1.51888e-05 6.62594e-05 3.53993e-20
-1.7863e-05 4.12563e-05 1.01745e-20
-3.38968e-05 2.71346e-05 -1.03992e-20
2.43804e-05 -6.05634e-06 -1.0324e-20
3.79989e-05 -2.19509e-06 7.01248e-21
1.3481e-05 8.19948e-06 5.88565e-21
-1.04681e-05 -7.39801e-05 2.48229e-21
-6.94419e-05 -2.79714e-05 -1.725e-21
3.71285e-05 7.32666e-07 -5.16503e-21
5.83602e-05 -1.08911e-05 6.53199e-21
-1.05826e-05 -1.34957e-05 -1.52089e-20
-5.08236e-05 3.76215e-05 -7.7313e-21
-4.61289e-05 5.39945e-05 -1.72865e-21
6.23564e-05 -2.22302e-05 3.77562e-21
-2.81745e-05 -5.0492e-05 2.24114e-20
-2.87742e-05 4.97745e-05 1.12971e-20
-5.72486e-05 -1.17104e-06 -5.95629e-21
-2.65707e-05 5.05927e-05 1.07505e-20
-5.79473e-05 -8.16932e-07 -2.24333e-20
6.60695e-05 1.73907e-05 -1.6323e-20
5.63745e-05 1.29237e-06 5.78982e-21
5.0895e-05 -2.92709e-05 -1.62681e-20
2.49077e-05 -5.94212e-05 -1.39544e-20
2.99155e-05 -4.88518e-05 -9.56332e-21
2.91645e-05 4.86758e-05 2.17611e-21
2.43426e-05 5.80835e-05 1.76645e-20
7.57947e-05 -2.00355e-05 1.38246e-20
4.62617e-05 2.90603e-05 1.12944e-20
4.66196e-05 1.37441e-05 -5.01435e-21
TENSORS solid_stress_TPM float
375.028 -24.9202 -9.9476e-13
-24.9202 238.568 6.2658e-12
-9.9476e-13 6.2658e-12 197.815

456.998 -21.3202 -3.13527e-13
-21.3202 489.981 1.54099e-12
-3.13527e-13 1.54099e-12 487.105

454.873 28.0429 -3.39225e-12
28.0429 463.702 -4.08592e-12
-3.39225e-12 -4.08592e-12 458.453

455.022 -29.8427 -2.17189e-12
-29.8427 482.603 -2.3137e-13
-2.17189e-12 -2.3137e-13 484.851

527.682 19.931 1.34026e-12
19.931 548.452 -2.65802e-12
1.34026e-12 -2.65802e-12 527.353

437.305 -18.0742 -3.42067e-12
-18.0742 480.332 -3.60482e-12
-3.42067e-12 -3.60482e-12 458.034

372.323 26.4843 -1.6153e-12
26.4843 239.087 6.66015e-12
-1.6153e-12 6.66015e-12 197.799

473.646 29.9576 5.34091e-13
29.9576 469.495 -2.57365e-12
5.34091e-13 -2.57365e-12 472.331

471.542 5.48307 1.23871e-12
5.48307 417.817 1.26192e-12
1.23871e-12 1.26192e-12 432.789

504.253 -7.47756 -2.05791e-12
-7.47756 444.106 2.69636e-13
-2.05791e-12 2.69636e-13 483.446

360.288 16.3082 6.30251e-12
16.3082 247.653 -4.01634e-12
6.30251e-12 -4.01634e-12 233.642

444.776 -13.453 -3.76958e-12
-13.453 498.379 1.02141e-12
-3.76958e-12 1.02141e-12 472.233

466.861 27.8328 -3.22705e-13
27.8328 468.295 -1.87643e-12
-3.22705e-13 -1.87643e-12 466.728

457.031 -14.3399 -5.22082e-13
-14.3399 500.427 -1.72307e-13
-5.22082e-13 -1.72307e-13 483.451

512.932 33.3116 -1.19016e-13
33.3116 511.591 -2.18441e-12
-1.19016e-13 -2.18441e-12 515.221

489.165 0.560958 -1.16825e-12
0.560958 435.517 -2.5858e-12
-1.16825e-12 -2.5858e-12 462.265

457.577 -17.9692 -2.54252e-12
-17.9692 512.88 4.11227e-13
-2.54252e-12 4.11227e-13 493.591

493.951 -2.6652 -2.82322e-12
-2.6652 439.042 1.59391e-12
-2.82322e-12 1.59391e-12 474.258

418.786 26.6733 3.27116e-12
26.6733 449.653 1.83794e-12
3.27116e-12 1.83794e-12 424.047

481.974 -4.1955 1.69583e-12
-4.1955 424.915 8.60719e-13
1.69583e-12 8.60719e-13 453.468

425.29 8.66843 -1.578e-13
8.66843 481.896 -2.72138e-12
-1.578e-13 -2.72138e-12 444.835

634.128 6.28784 -7.10943e-12
6.28784 633.962 -1.00956e-12
-7.10943e-12 -1.00956e-12 570.314

479.145 1.87596 1.64076e-12
1.87596 422.934 -9.31995e-13
1.64076e-12 -9.31995e-13 449.725

447.156 -27.7147 4.37576e-12
-27.7147 461.143 -3.36975e-12
4.37576e-12 -3.36975e-12 452.941

481.042 6.84929 2.35012e-12
6.84929 425.434 -7.61021e-13
2.35012e-12 -7.61021e-13 452.931

449.752 19.1127 2.95075e-12
19.1127 490.311 3.98792e-13
2.95075e-12 3.98792e-13 478.199

377.649 4.18129 -8.97652e-13
4.18129 291.65 4.14483e-14
-8.97652e-13 4.14483e-14 258.998

462.678 30.7455 5.32907e-13
30.7455 460.708 -1.38053e-12
5.32907e-13 -1.38053e-12 460.539

384.935 37.0737 -7.23569e-13
37.0737 383.514 -5.60145e-13
-7.23569e-13 -5.60145e-13 348.413

586.939 10.3235 3.83693e-13
10.3235 563.448 -2.07863e-12
3.83693e-13 -2.07863e-12 546.868

491.68 14.2168 2.5017e-12
14.2168 442.491 5.12908e-12
2.5017e-12 5.12908e-12 465.849

352.85 -17.78 4.0569e-12
-17.78 416.716 -1.04331e-12
4.0569e-12 -1.04331e-12 348.584

331.013 -42.101 1.80952e-12
-42.101 335.868 -1.85689e-12
1.80952e-12 -1.85689e-12 253.478

531.406 5.98689 3.64196e-12
5.98689 586.886 4.31655e-13
3.64196e-12 4.31655e-13 538.578

554.02 -4.84089 -5.54209e-12
-4.84089 582.068 3.48077e-12
-5.54209e-12 3.48077e-12 542.508

577.983 21.0279 -4.48797e-12
21.0279 539.943 -6.83883e-12
-4.48797e-12 -6.83883e-12 538.346

556.181 5.0677 1.54809e-12
5.0677 600.672 -3.07487e-12
1.54809e-12 -3.07487e-12 547.965

573.771 -9.16986 -2.4943e-12
-9.16986 555.761 1.58717e-12
-2.4943e-12 1.58717e-12 540.633

467.121 -27.9978 -4.5303e-12
-27.9978 466.484 -3.15659e-12
-4.5303e-12 -3.15659e-12 465.101

330.397 41.5203 -1.72188e-12
41.5203 337.966 -5.33854e-12
-1.72188e-12 -5.33854e-12 253.837

414.518 -17.9487 5.31249e-12
-17.9487 354.482 2.44071e-12
5.31249e-12 2.44071e-12 346.315

559.302 -3.70623 6.31066e-12
-3.70623 599.921 -1.55357e-12
6.31066e-12 -1.55357e-12 548.379

586.409 19.5558 2.79406e-12
19.5558 572.452 -2.19676e-13
2.79406e-12 -2.19676e-13 548.168

490.885 -12.2732 2.58697e-12
-12.2732 442.846 3.99873e-12
2.58697e-12 3.99873e-12 466.521

341.702 -43.2982 -2.62664e-12
-43.2982 345.33 2.6373e-12
-2.62664e-12 2.6373e-12 288.971

417.544 -18.063 -2.089e-12
-18.063 357.099 -1.74853e-12
-2.089e-12 -1.74853e-12 351.488

412.999 17.0854 -1.6563e-12
17.0854 464.767 2.78533e-12
-1.6563e-12 2.78533e-12 428.712

429.614 19.3386 4.17237e-12
19.3386 466.497 1.37372e-13
4.17237e-12 1.37372e-13 437.065

486.765 -16.3008 -2.5923e-12
-16.3008 432.86 -3.44021e-12
-2.5923e-12 -3.44021e-12 458.663

355.568 -34.1846 2.16005e-12
-34.1846 389.387 -2.49282e-12
2.16005e-12 -2.49282e-12 332.555

410.237 19.1814 -3.66285e-12
19.1814 350.688 -4.08917e-12
-3.66285e-12 -4.08917e-12 339.464

425.185 -25.2878 1.58806e-12
-25.2878 383.807 1.67096e-12
1.58806e-12 1.67096e-12 373.063

519.909 19.4859 -1.41294e-12
19.4859 547.519 -1.25588e-12
-1.41294e-12 -1.25588e-12 525.719

416.397 29.6487 1.98952e-13
29.6487 393.871 2.69059e-12
1.98952e-13 2.69059e-12 373.927

522.163 -21.8128 1.3527e-12
-21.8128 541.385 -1.23077e-13
1.3527e-12 -1.23077e-13 524.365

364.058 -42.7103 5.40012e-12
-42.7103 343.27 -1.68043e-12
5.40012e-12 -1.68043e-12 289.688

553.441 5.4599 -4.31359e-13
5.4599 583.86 4.16112e-12
-4.31359e-13 4.16112e-12 542.882

373.703 -5.32965 1.01992e-12
-5.32965 436.647 -4.15312e-12
1.01992e-12 -4.15312e-12 373.811

580.809 10.3842 1.27987e-12
10.3842 556.161 -1.09486e-12
1.27987e-12 -1.09486e-12 542.638

435.042 21.4127 1.68369e-12
21.4127 473.746 -1.28786e-12
1.68369e-12 -1.28786e-12 454.658

513.559 5.75379 1.74201e-12
5.75379 452.793 -9.11863e-14
1.74201e-12 -9.11863e-14 494.852

522.446 11.4589 1.11733e-12
11.4589 487.85 1.02733e-13
1.11733e-12 1.02733e-13 507.067

383.693 31.8193 4.05483e-12
31.8193 315.184 -1.75149e-12
4.05483e-12 -1.75149e-12 269.862

482.076 -6.03504 6.00409e-12
-6.03504 528.169 2.97777e-12
6.00409e-12 2.97777e-12 504.089

487.085 9.51962 9.73444e-13
9.51962 523.678 4.55991e-12
9.73444e-13 4.55991e-12 507.485

456.447 -2.88071 -3.11455e-13
-2.88071 520.145 -4.39115e-12
-3.11455e-13 -4.39115e-12 487.796

464.443 23.4021 6.15019e-12
23.4021 503.458 -1.58303e-12
6.15019e-12 -1.58303e-12 495.429

496.735 8.46342 -3.92279e-13
8.46342 444.386 3.04305e-12
-3.92279e-13 3.04305e-12 477.686

445.494 -28.2388 3.53495e-12
-28.2388 459.516 1.11792e-12
3.53495e-12 1.11792e-12 451.155

501.669 -1.7112 -3.06466e-12
-1.7112 444.904 -1.98848e-12
-3.06466e-12 -1.98848e-12 489.057

519.522 -19.2619 -3.48166e-13
-19.2619 546.812 1.09986e-12
-3.48166e-13 1.09986e-12 525.452

523.293 21.3078 -3.20396e-12
21.3078 542.91 -1.36367e-12
-3.20396e-12 -1.36367e-12 525.255

353.4 -16.583 1.26536e-12
-16.583 415.724 1.0291e-12
1.26536e-12 1.0291e-12 346.103

506.009 -27.9359 4.77248e-13
-27.9359 485.299 -3.58824e-12
4.77248e-13 -3.58824e-12 493.869

449.708 -25.1343 3.01477e-12
-25.1343 471.208 2.34124e-12
3.01477e-12 2.34124e-12 458.566

357.861 -31.7099 5.47355e-12
-31.7099 285.669 6.75016e-13
5.47355e-12 6.75016e-13 249.851

498.49 3.22257 -1.52145e-12
3.22257 541.395 2.04636e-12
-1.52145e-12 2.04636e-12 513.632

501.715 28.9437 -2.91974e-12
28.9437 474.538 1.14012e-12
-2.91974e-12 1.14012e-12 487.647

448.433 19.664 9.7744e-13
19.664 492.096 -5.43269e-13
9.7744e-13 -5.43269e-13 477.632

440.181 7.99935 3.24126e-12
7.99935 373.028 7.2505e-13
3.24126e-12 7.2505e-13 382.924

386.441 -33.9347 -6.14027e-12
-33.9347 360.197 1.88886e-12
-6.14027e-12 1.88886e-12 319.427

537.712 -10.5876 4.18095e-12
-10.5876 556.129 -9.57456e-13
4.18095e-12 -9.57456e-13 531.24

482.646 23.8994 -1.39237e-12
23.8994 504.549 -1.77835e-12
-1.39237e-12 -1.77835e-12 502.032

385.362 -32.383 -6.95148e-13
-32.383 345.298 -1.29082e-13
-6.95148e-13 -1.29082e-13 317.073

422.187 10.7908 -4.61734e-12
10.7908 363.842 4.26104e-12
-4.61734e-12 4.26104e-12 350.244

307.644 -21.2055 3.89022e-13
-21.2055 388.433 -7.50807e-13
3.89022e-13 -7.50807e-13 288.108

434.434 14.4255 9.03351e-13
14.4255 488.657 -3.69186e-12
9.03351e-13 -3.69186e-12 460.873

509.711 23.1427 1.56852e-12
23.1427 475.161 -2.02386e-12
1.56852e-12 -2.02386e-12 489.936

338.233 42.1977 -3.6593e-13
42.1977 349.563 9.65154e-13
-3.6593e-13 9.65154e-13 288.944

634.213 16.5072 -4.87558e-12
16.5072 603.065 6.71951e-12
-4.87558e-12 6.71951e-12 565.318

372.88 -4.10825 8.81369e-13
-4.10825 436.806 2.52243e-13
8.81369e-13 2.52243e-13 373.418

637.119 -16.6324 2.66809e-12
-16.6324 599.535 4.9097e-12
2.66809e-12 4.9097e-12 564.825

533.93 -27.335 -3.86654e-13
-27.335 507.23 6.01386e-12
-3.86654e-13 6.01386e-12 515.705

505.286 27.4244 2.25242e-12
27.4244 466.325 3.37863e-12
2.25242e-12 3.37863e-12 485.062

426.915 -24.41 -1.80123e-12
-24.41 386.229 -3.56012e-12
-1.80123e-12 -3.56012e-12 375.969

358.928 31.3224 2.59703e-12
31.3224 395.995 -6.13435e-12
2.59703e-12 -6.13435e-12 339.192

339.817 -10.7049 1.87524e-12
-10.7049 408.382 6.08698e-12
1.87524e-12 6.08698e-12 319.098

453.094 21.9706 1.58895e-12
21.9706 494.668 9.03277e-13
1.58895e-12 9.03277e-13 483.158

533.105 16.7939 3.7866e-12
16.7939 506.19 2.62901e-13
3.7866e-12 2.62901e-13 513.344

443.443 15.1536 8.42733e-13
15.1536 488.43 4.14483e-13
8.42733e-13 4.14483e-13 464.273

451.471 15.9535 -1.50398e-13
15.9535 400.528 -2.79806e-12
-1.50398e-13 -2.79806e-12 403.738

374.48 -21.472 2.66394e-12
-21.472 419.857 5.12775e-13
2.66394e-12 5.12775e-13 357.189

389.714 -29.3899 -3.64508e-12
-29.3899 342.362 7.2653e-13
-3.64508e-12 7.2653e-13 314.384

454.956 -24.5728 -4.48145e-12
-24.5728 480.055 9.90911e-13
-4.48145e-12 9.90911e-13 478.361

466.417 27.4507 -1.50576e-12
27.4507 478.734 -1.58717e-12
-1.50576e-12 -1.58717e-12 479.8

452.207 23.1875 -9.98609e-13
23.1875 492.549 -1.04213e-13
-9.98609e-13 -1.04213e-13 482.034

466.288 13.1692 -5.41885e-12
13.1692 529.768 4.03766e-12
-5.41885e-12 4.03766e-12 501.375

490.852 9.37217 7.08766e-13
9.37217 437.88 -2.39497e-12
7.08766e-13 -2.39497e-12 462.046

327.705 -4.66496 -2.68763e-12
-4.66496 403.373 2.27611e-12
-2.68763e-12 2.27611e-12 314.405

462.57 -36.8334 -2.40578e-12
-36.8334 487.681 3.72857e-12
-2.40578e-12 3.72857e-12 492.74

445.841 27.4648 1.86695e-12
27.4648 463.261 -2.83566e-12
1.86695e-12 -2.83566e-12 455.006

305.665 2.17029 2.79191e-12
2.17029 393.352 3.90088e-12
2.79191e-12 3.90088e-12 297.249

385.989 34.6095 -4.37457e-12
34.6095 332.441 -3.95832e-12
-4.37457e-12 -3.95832e-12 306.239

453.342 -22.9736 2.44249e-12
-22.9736 480.061 -1.56467e-12
2.44249e-12 -1.56467e-12 476.164

501.385 5.73296 1.18217e-12
5.73296 441.306 1.39651e-12
1.18217e-12 1.39651e-12 481.001

422.372 27.2034 3.37034e-12
27.2034 389.759 9.14824e-13
3.37034e-12 9.14824e-13 374.226

570.536 12.7456 -1.45069e-12
12.7456 565.913 4.53267e-13
-1.45069e-12 4.53267e-13 542.91

396.17 24.3299 4.94301e-12
24.3299 349.641 1.06581e-14
4.94301e-12 1.06581e-14 319.037

569.159 -13.0551 -1.60287e-12
-13.0551 565.824 3.83131e-12
-1.60287e-12 3.83131e-12 542.366

375.084 0.778512 -2.07863e-12
0.778512 438.86 -5.62868e-12
-2.07863e-12 -5.62868e-12 374.633

461.462 -2.23526 1.90899e-12
-2.23526 399.295 -8.60793e-14
1.90899e-12 -8.60793e-14 417.273

538.189 -15.7681 1.87761e-12
-15.7681 480.624 -5.06558e-13
1.87761e-12 -5.06558e-13 513.471

457.236 24.3881 7.06608e-13
24.3881 487.776 1.32561e-12
7.06608e-13 1.32561e-12 488.346

461.248 -13.535 1.95959e-12
-13.535 519.127 8.37848e-13
1.95959e-12 8.37848e-13 495.706

514.961 -8.00004 -2.77452e-12
-8.00004 438.183 2.98813e-12
-2.77452e-12 2.98813e-12 494.269

488.308 -22.2843 5.54845e-12
-22.2843 541.596 -2.13933e-12
5.54845e-12 -2.13933e-12 515.743

556.046 -6.59631 -1.15167e-12
-6.59631 560.389 -2.44904e-12
-1.15167e-12 -2.44904e-12 538.723

463.858 -29.9081 -2.87888e-12
-29.9081 483.187 -1.41457e-12
-2.87888e-12 -1.41457e-12 483.592

341.7 11.4534 -3.81976e-12
11.4534 406.186 2.1861e-12
-3.81976e-12 2.1861e-12 319.476

422.473 -28.1458 5.45105e-12
-28.1458 391.234 -2.75335e-13
5.45105e-12 -2.75335e-13 375.14

507.376 -13.7723 -2.82922e-12
-13.7723 558.742 3.20011e-12
-2.82922e-12 3.20011e-12 525.245

501.048 0.504374 3.12816e-12
0.504374 441.271 1.94896e-12
3.12816e-12 1.94896e-12 487.078

476.935 -21.5246 1.79516e-12
-21.5246 507.414 -2.15531e-13
1.79516e-12 -2.15531e-13 501.497

459.089 25.6976 -6.40229e-13
25.6976 484.592 1.12991e-12
-6.40229e-13 1.12991e-12 487.973

394.422 -31.4636 1.30266e-13
-31.4636 400.591 1.53951e-14
1.30266e-13 1.53951e-14 357.514

552.122 -7.08526 -4.04395e-12
-7.08526 585.291 2.68111e-12
-4.04395e-12 2.68111e-12 542.597

347.203 -33.0759 -1.89478e-14
-33.0759 382.6 7.41333e-13
-1.89478e-14 7.41333e-13 303.429

490.861 -19.1793 -3.66818e-12
-19.1793 448.379 -1.86073e-12
-3.66818e-12 -1.86073e-12 467.116

519.701 1.97017 -1.5874e-12
1.97017 466.806 -3.12935e-12
-1.5874e-12 -3.12935e-12 502.824

570.554 17.8751 -4.66471e-12
17.8751 566.476 9.49759e-13
-4.66471e-12 9.49759e-13 542.369

375.283 20.1823 -1.82195e-12
20.1823 424.023 -8.34888e-13
-1.82195e-12 -8.34888e-13 360.214

489.073 27.2101 -1.54129e-12
27.2101 468.531 -1.73076e-12
-1.54129e-12 -1.73076e-12 476.631

454.37 -24.511 -5.70803e-13
-24.511 415.334 4.35503e-12
-5.70803e-13 4.35503e-12 418.594

454.71 -17.8384 1.34109e-12
-17.8384 494.898 -6.57844e-13
1.34109e-12 -6.57844e-13 482.633

379.191 35.0673 -6.60805e-13
35.0673 366.023 1.7053e-12
-6.60805e-13 1.7053e-12 317.042

449.144 -21.831 4.07852e-12
-21.831 491.695 1.43915e-12
4.07852e-12 1.43915e-12 479.765

485.482 30.8501 7.63833e-14
30.8501 465.128 9.77588e-13
7.63833e-14 9.77588e-13 473.438

480.313 -25.2436 2.13044e-12
-25.2436 442.358 -1.69761e-12
2.13044e-12 -1.69761e-12 455.434

448.209 -25.1259 -1.59902e-12
-25.1259 469.758 -5.42855e-12
-1.59902e-12 -5.42855e-12 458.087

445.335 -18.6876 -2.02742e-12
-18.6876 393.452 -1.46668e-12
-2.02742e-12 -1.46668e-12 397.249

470.643 -18.8492 -2.15472e-12
-18.8492 422.844 1.9534e-12
-2.15472e-12 1.9534e-12 437.522

458.989 -25.3369 -3.03431e-12
-25.3369 485.419 -1.49976e-12
-3.03431e-12 -1.49976e-12 488.816

386.533 35.9683 -3.35139e-13
35.9683 381.979 4.48116e-12
-3.35139e-13 4.48116e-12 348.108

444.485 15.3764 6.91447e-13
15.3764 491.522 -1.47734e-12
6.91447e-13 -1.47734e-12 467.13

469.386 26.4219 7.80413e-13
26.4219 479.948 -3.56722e-12
7.80413e-13 -3.56722e-12 482.536

456.132 25.4736 1.00517e-12
25.4736 486.636 7.44886e-13
1.00517e-12 7.44886e-13 487.236

457.797 11.6213 8.60099e-14
11.6213 506.929 3.53495e-12
8.60099e-14 3.53495e-12 486.005

431.94 -8.22676 -1.21148e-12
-8.22676 370.746 2.64233e-12
-1.21148e-12 2.64233e-12 363.298

376.77 18.6059 1.97472e-12
18.6059 427.255 7.87518e-13
1.97472e-12 7.87518e-13 363.874

452.301 -24.3802 1.85689e-12
-24.3802 478.374 -3.28892e-12
1.85689e-12 -3.28892e-12 470.701

440.735 25.6653 1.24345e-12
25.6653 455.629 3.20751e-12
1.24345e-12 3.20751e-12 437.795

390.945 -35.6282 -1.30266e-14
-35.6282 380.267 3.38988e-12
-1.30266e-14 3.38988e-12 350.082

368.931 38.3155 7.34227e-14
38.3155 327.244 3.45087e-12
7.34227e-14 3.45087e-12 295.674

363.637 -33.31 2.6148e-12
-33.31 394.424 5.1242e-12
2.6148e-12 5.1242e-12 341.97

397.919 -31.1586 -1.6532e-12
-31.1586 404.181 3.07073e-12
-1.6532e-12 3.07073e-12 362.963

502.845 -6.83866 -3.25843e-12
-6.83866 442.238 2.31148e-13
-3.25843e-12 2.31148e-13 482.306

393.153 30.3408 1.4353e-12
30.3408 408.967 1.84978e-12
1.4353e-12 1.84978e-12 363.423

429.689 13.2943 7.11727e-13
13.2943 372.237 -1.69909e-12
7.11727e-13 -1.69909e-12 362.703

350.134 13.3784 -1.59354e-12
13.3784 418.502 -7.70939e-13
-1.59354e-12 -7.70939e-13 348.464

379.468 -22.3396 -7.14095e-13
-22.3396 423.5 -1.16529e-12
-7.14095e-13 -1.16529e-12 363.437

491.197 -1.09145 2.86438e-13
-1.09145 550.867 -1.38201e-12
2.86438e-13 -1.38201e-12 516.296

372.853 2.24653 -7.44086e-12
2.24653 437.774 9.53312e-13
-7.44086e-12 9.53312e-13 373.509

357.879 31.0883 1.55964e-12
31.0883 399.475 6.987e-14
1.55964e-12 6.987e-14 341.95

457.979 12.1077 4.36897e-12
12.1077 510.549 -1.61352e-12
4.36897e-12 -1.61352e-12 488.392

421.44 -27.6468 1.23161e-13
-27.6468 389.06 3.97312e-13
1.23161e-13 3.97312e-13 375.061

524.745 20.5569 -5.89158e-14
20.5569 469.739 2.48394e-12
-5.89158e-14 2.48394e-12 500.724

534.915 26.2704 -2.30926e-14
26.2704 506.849 5.72697e-12
-2.30926e-14 5.72697e-12 516.084

494.804 -18.5673 3.59535e-12
-18.5673 449.015 -2.81908e-12
3.59535e-12 -2.81908e-12 470.845

554.575 -1.80098 4.46857e-12
-1.80098 516.013 -4.98268e-13
4.46857e-12 -4.98268e-13 525.707

473.276 -31.8115 -2.95497e-12
-31.8115 475.685 -3.99355e-12
-2.95497e-12 -3.99355e-12 478.566

412.586 23.327 6.0633e-13
23.327 357.186 -1.27306e-13
6.0633e-13 -1.27306e-13 348.081

464.165 30.162 2.88658e-13
30.162 482.756 -4.50306e-13
2.88658e-13 -4.50306e-13 483.193

464.427 29.2058 -4.31951e-13
29.2058 482.229 1.40362e-12
-4.31951e-13 1.40362e-12 482.754

393.935 30.6599 4.5001e-13
30.6599 405.712 1.74201e-12
4.5001e-13 1.74201e-12 360.858

502.843 27.0848 3.27442e-13
27.0848 482.655 -3.91924e-12
3.27442e-13 -3.91924e-12 490.724

415.339 3.52504 -1.16055e-13
3.52504 339.007 -3.02539e-12
-1.16055e-13 -3.02539e-12 340.815

493.111 31.8172 2.74477e-12
31.8172 487.212 -5.50967e-13
2.74477e-12 -5.50967e-13 495.564

476.316 -12.5997 -1.45239e-12
-12.5997 522.44 8.28967e-13
-1.45239e-12 8.28967e-13 500.237

536.916 24.2783 -2.25834e-12
24.2783 507.393 -1.05989e-12
-2.25834e-12 -1.05989e-12 516.62

468.166 -29.5786 2.22992e-12
-29.5786 479.958 2.6524e-12
2.22992e-12 2.6524e-12 483.05

464.55 -4.89812 -6.0113e-13
-4.89812 521.545 -4.58478e-12
-6.0113e-13 -4.58478e-12 490.968

400.928 -24.5556 2.80191e-12
-24.5556 349.014 7.4607e-14
2.80191e-12 7.4607e-14 323.941

418.955 29.6922 5.44157e-12
29.6922 392.453 3.50771e-12
5.44157e-12 3.50771e-12 373.759

352.335 14.6961 -4.40995e-12
14.6961 417.2 1.70293e-12
-4.40995e-12 1.70293e-12 348.23

500.518 -1.13885 8.89511e-13
-1.13885 442.783 1.22006e-12
8.89511e-13 1.22006e-12 487.698

492.459 0.00223482 -2.12778e-12
0.00223482 438.092 -2.5407e-12
-2.12778e-12 -2.5407e-12 474.408

452.955 23.1236 3.84137e-13
23.1236 479.696 2.49401e-12
3.84137e-13 2.49401e-12 475.575

481.294 23.8709 2.65713e-12
23.8709 502.864 2.2223e-14
2.65713e-12 2.2223e-14 501.243

456.577 -24.3807 -8.40531e-13
-24.3807 487.341 1.87731e-12
-8.40531e-13 1.87731e-12 488.487

457.827 -0.67269 4.09641e-12
-0.67269 517.932 3.79548e-13
4.09641e-12 3.79548e-13 486.39

458.874 25.5903 -3.89688e-12
25.5903 486.459 -1.51531e-12
-3.89688e-12 -1.51531e-12 488.509

465.55 -10.3077 -1.94748e-12
-10.3077 408.076 6.97649e-12
-1.94748e-12 6.97649e-12 427.215

400.857 -32.8326 3.89673e-12
-32.8326 414.948 -8.81073e-13
3.89673e-12 -8.81073e-13 385.159

518.09 -2.30058 6.90855e-13
-2.30058 465.733 -3.48462e-13
6.90855e-13 -3.48462e-13 500.921

391.866 -34.5074 3.54561e-12
-34.5074 379.6 -7.56728e-13
3.54561e-12 -7.56728e-13 347.412

477.996 19.0861 1.50961e-12
19.0861 509.196 -2.89931e-12
1.50961e-12 -2.89931e-12 501.84

506.107 -26.4786 -1.3524e-12
-26.4786 470.242 -2.224e-12
-1.3524e-12 -2.224e-12 487.268

424.994 -9.69001 2.06057e-12
-9.69001 366.725 -4.44415e-12
2.06057e-12 -4.44415e-12 355.976

530.262 -23.1918 -5.48717e-12
-23.1918 488.753 -2.98635e-12
-5.48717e-12 -2.98635e-12 506.485

500.887 2.35825 -3.01981e-13
2.35825 444.572 2.31874e-12
-3.01981e-13 2.31874e-12 489.2

521.188 -23.3213 -1.40332e-12
-23.3213 501.838 1.40332e-13
-1.40332e-12 1.40332e-13 508.53

502.011 -25.8593 -4.15312e-12
-25.8593 461.487 -1.40125e-12
-4.15312e-12 -1.40125e-12 481.239

498.822 -8.54599 -1.05782e-12
-8.54599 445.131 5.4432e-12
-1.05782e-12 5.4432e-12 479.34

482.216 -23.0681 4.99452e-13
-23.0681 504.988 6.11372e-12
4.99452e-13 6.11372e-12 502.531

428.534 -31.3412 9.18969e-13
-31.3412 410.583 1.84741e-12
9.18969e-13 1.84741e-12 398.993

503.263 -24.587 -7.40918e-12
-24.587 464.709 3.60808e-12
-7.40918e-12 3.60808e-12 482.156

441.235 10.8642 2.03452e-12
10.8642 378.476 -7.85742e-13
2.03452e-12 -7.85742e-13 387.793

500.033 26.3401 -5.71099e-13
26.3401 498.58 5.1353e-12
-5.71099e-13 5.1353e-12 500.101

463.745 -37.6131 -5.3045e-12
-37.6131 488.384 -1.20437e-12
-5.3045e-12 -1.20437e-12 494.078

464.854 37.2654 1.69257e-12
37.2654 487.296 -3.56766e-12
1.69257e-12 -3.56766e-12 493.793

446.322 -28.5735 9.41099e-14
-28.5735 500.01 -8.91731e-13
9.41099e-14 -8.91731e-13 492.308

448.556 27.0642 9.97943e-13
27.0642 500.701 -7.43109e-13
9.97943e-13 -7.43109e-13 492.495

513.065 -8.5277 7.12023e-13
-8.5277 436.4 -1.66696e-12
7.12023e-13 -1.66696e-12 492.755

511.228 9.27372 3.63413e-13
9.27372 437.997 3.37952e-13
3.63413e-13 3.37952e-13 492.393

501.651 -9.84605 -8.50579e-13
-9.84605 451.738 3.49498e-13
-8.50579e-13 3.49498e-13 483.016

510.861 32.1164 -6.59176e-12
32.1164 510.387 -1.20073e-12
-6.59176e-12 -1.20073e-12 514.051

509.637 -32.8544 2.88243e-12
-32.8544 510.064 -7.17842e-13
2.88243e-12 -7.17842e-13 513.691

481.806 16.0686 1.59162e-12
16.0686 539.128 -2.81256e-13
1.59162e-12 -2.81256e-13 514.323

482.999 -15.801 2.65417e-13
-15.801 538.718 -1.06789e-12
2.65417e-13 -1.06789e-12 514.344

556.867 -3.74744 -1.82728e-12
-3.74744 506.829 1.76155e-13
-1.82728e-12 1.76155e-13 524.989

558.421 3.61022 -3.34399e-13
3.61022 505.154 1.72899e-12
-3.34399e-13 1.72899e-12 525.361

387.303 9.83668 -3.51593e-12
9.83668 449.19 6.36883e-12
-3.51593e-12 6.36883e-12 397.081

472.382 -24.7739 -3.96335e-12
-24.7739 480.748 9.01057e-13
-3.96335e-12 9.01057e-13 484.971

443.455 -36.3877 -2.02038e-12
-36.3877 485.526 3.90384e-12
-2.02038e-12 3.90384e-12 486.622

473.635 -4.66423 -3.41534e-12
-4.66423 420.43 2.14532e-12
-3.41534e-12 2.14532e-12 436.332

540.25 -16.6949 -3.91983e-13
-16.6949 484.188 -1.41043e-12
-3.91983e-13 -1.41043e-12 515.284

540.97 16.1759 -8.88178e-13
16.1759 485.411 1.02792e-12
-8.88178e-13 1.02792e-12 515.89

506.855 0.121884 -1.01978e-12
0.121884 423.544 1.53254e-12
-1.01978e-12 1.53254e-12 486.996

384.786 23.3747 2.57927e-12
23.3747 432.29 -6.71463e-13
2.57927e-12 -6.71463e-13 385.47

442.326 36.1717 1.19667e-12
36.1717 485.205 6.60953e-13
1.19667e-12 6.60953e-13 485.827

452.591 -23.3957 9.16452e-13
-23.3957 494.947 -7.28898e-13
9.16452e-13 -7.28898e-13 483.585

443.241 23.3523 3.56929e-12
23.3523 397.512 4.44681e-12
3.56929e-12 4.44681e-12 400.367

530.965 23.8581 4.12707e-12
23.8581 488.003 -2.34538e-12
4.12707e-12 -2.34538e-12 507.243

428.472 -31.313 -1.60701e-12
-31.313 410.867 2.4946e-12
-1.60701e-12 2.4946e-12 398.811

519.854 -3.23084 -3.35435e-12
-3.23084 469.053 9.26074e-13
-3.35435e-12 9.26074e-13 502.681

439.389 -34.1611 -3.37634e-12
-34.1611 485.497 -3.51733e-12
-3.37634e-12 -3.51733e-12 485.817

389.177 8.31981 1.9079e-12
8.31981 452.321 3.05652e-12
1.9079e-12 3.05652e-12 400.849

385.873 21.8111 1.02496e-12
21.8111 435.766 -2.02623e-12
1.02496e-12 -2.02623e-12 388.688

383.841 35.7752 -2.5698e-12
35.7752 362.326 9.00021e-13
-2.5698e-12 9.00021e-13 318.322

408.176 1.57872 -8.13335e-12
1.57872 332.15 1.49932e-12
-8.13335e-12 1.49932e-12 327.319

485.449 -22.8044 -5.70773e-12
-22.8044 502.853 -5.18419e-13
-5.70773e-12 -5.18419e-13 501.743

351.872 31.1833 3.3431e-12
31.1833 388.824 1.72662e-12
3.3431e-12 1.72662e-12 312.352

451.342 23.6097 -2.68526e-12
23.6097 478.405 8.88178e-15
-2.68526e-12 8.88178e-15 465.206

442.189 -5.34945 1.83675e-12
-5.34945 377.12 3.50061e-12
1.83675e-12 3.50061e-12 387.731

464.148 11.2159 2.55677e-12
11.2159 407.292 7.27418e-13
2.55677e-12 7.27418e-13 424.915

505.371 0.429907 7.47402e-13
0.429907 421.564 2.10798e-12
7.47402e-13 2.10798e-12 485.667

449.342 -29.0312 -2.14258e-12
-29.0312 501.99 -1.48326e-13
-2.14258e-12 -1.48326e-13 493.581

572.506 -6.31906 4.30374e-12
-6.31906 589.479 6.74601e-12
4.30374e-12 6.74601e-12 549.248

463.132 37.4118 5.90935e-13
37.4118 487.019 3.25551e-12
5.90935e-13 3.25551e-12 493.057

408.731 1.66326 3.03639e-12
1.66326 331.597 9.32143e-13
3.03639e-12 9.32143e-13 308.899

404.227 -32.7863 1.89537e-12
-32.7863 415.501 -5.32019e-12
1.89537e-12 -5.32019e-12 387.383

443.133 36.6132 -3.12084e-12
36.6132 485.498 -4.72067e-13
-3.12084e-12 -4.72067e-13 486.564

444.672 -11.1338 5.85902e-12
-11.1338 498.927 3.35435e-12
5.85902e-12 3.35435e-12 471.434

386.066 -25.514 1.74409e-12
-25.514 428.893 -7.75676e-13
1.74409e-12 -7.75676e-13 384.557

449.442 28.8302 -6.65653e-13
28.8302 501.623 -3.46982e-12
-6.65653e-13 -3.46982e-12 493.281

452.703 -26.1414 1.03029e-13
-26.1414 419.295 -4.40536e-13
1.03029e-13 -4.40536e-13 419.511

579.548 10.4834 -2.96859e-12
10.4834 582.16 -1.09892e-11
-2.96859e-12 -1.09892e-11 549.033

398.322 30.8714 -5.07742e-12
30.8714 422.051 1.09187e-12
-5.07742e-12 1.09187e-12 388.156

515.699 8.12679 -1.87435e-12
8.12679 437.26 -6.42449e-14
-1.87435e-12 -6.42449e-14 494.574

493.798 30.1905 -8.89955e-13
30.1905 484.74 1.95962e-12
-8.89955e-13 1.95962e-12 493.795

453.458 23.3317 -3.58839e-12
23.3317 479.155 2.03985e-13
-3.58839e-12 2.03985e-13 475.791

510.695 -32.489 3.83219e-12
-32.489 512.446 4.30241e-12
3.83219e-12 4.30241e-12 515

510.301 -23.1899 2.73618e-12
-23.1899 473.174 1.53714e-12
2.73618e-12 1.53714e-12 489.67

511.396 10.4709 6.26721e-13
10.4709 557.986 -5.41552e-12
6.26721e-13 -5.41552e-12 523.725

452.165 -23.4335 4.72304e-12
-23.4335 480.158 -1.16588e-12
4.72304e-12 -1.16588e-12 468.943

394.403 -9.7076 -3.5385e-12
-9.7076 316.408 5.30842e-12
-3.5385e-12 5.30842e-12 295.57

387.283 -14.277 3.17613e-12
-14.277 306.054 2.71546e-12
3.17613e-12 2.71546e-12 290.044

547.578 16.5292 1.07766e-13
16.5292 507.757 -1.15463e-14
1.07766e-13 -1.15463e-14 519.314

436.48 22.5013 3.00323e-12
22.5013 469.128 7.02845e-13
3.00323e-12 7.02845e-13 447.816

475.955 29.1628 -4.85419e-12
29.1628 467.638 3.19123e-12
-4.85419e-12 3.19123e-12 471.471

450.293 0.688661 1.56438e-12
0.688661 392.77 -4.27234e-12
1.56438e-12 -4.27234e-12 395.667

478.345 6.57127 -9.26574e-14
6.57127 541.272 3.19744e-13
-9.26574e-14 3.19744e-13 507.533

507.323 16.5408 -1.92794e-12
16.5408 461.128 -3.46005e-12
-1.92794e-12 -3.46005e-12 488.072

389.97 -25.7605 -1.70945e-12
-25.7605 430.028 1.65793e-12
-1.70945e-12 1.65793e-12 387.727

456.311 -2.57246 3.76569e-13
-2.57246 517.006 -6.30015e-13
3.76569e-13 -6.30015e-13 484.833

400.582 13.3649 -3.17731e-12
13.3649 452.977 7.80058e-12
-3.17731e-12 7.80058e-12 404.629

486.906 -29.713 -2.30926e-13
-29.713 465.807 7.95808e-13
-2.30926e-13 7.95808e-13 474.251

430.291 -29.9468 5.10999e-13
-29.9468 423.621 1.59043e-12
5.10999e-13 1.59043e-12 404.947

399.704 31.6221 3.37626e-12
31.6221 418.224 3.91391e-13
3.37626e-12 3.91391e-13 385.995

623.998 -15.0202 -1.08121e-12
-15.0202 581.944 9.03796e-13
-1.08121e-12 9.03796e-13 557.899

494.515 2.04122 -3.37404e-12
2.04122 552.136 -4.45392e-12
-3.37404e-12 -4.45392e-12 517.918

483.495 20.3002 -2.32969e-12
20.3002 542.036 4.82044e-12
-2.32969e-12 4.82044e-12 516.024

544.699 15.4392 -9.95796e-13
15.4392 479.963 -2.22459e-12
-9.95796e-13 -2.22459e-12 515.746

473.74 -26.1884 7.05806e-13
-26.1884 479.748 -5.21065e-12
7.05806e-13 -5.21065e-12 483.009

452.117 17.9569 9.18969e-13
17.9569 404.501 6.32087e-13
9.18969e-13 6.32087e-13 406.91

531.574 -5.29421 5.66565e-13
-5.29421 580.795 2.20268e-12
5.66565e-13 2.20268e-12 537.111

512.179 -18.9882 1.58125e-12
-18.9882 464.786 -1.37934e-12
1.58125e-12 -1.37934e-12 493.02

473.967 -15.5986 3.23119e-12
-15.5986 423.169 1.72884e-12
3.23119e-12 1.72884e-12 438.872

401.993 11.6029 -3.78778e-12
11.6029 455.949 4.81393e-12
-3.78778e-12 4.81393e-12 407.772

410.915 -25.7336 3.95654e-12
-25.7336 435.573 -1.82846e-12
3.95654e-12 -1.82846e-12 398.949

532.042 -25.2738 -1.94215e-12
-25.2738 523.187 -1.79797e-12
-1.94215e-12 -1.79797e-12 519.112

423.048 31.9588 2.73914e-12
31.9588 417.241 -1.80655e-12
2.73914e-12 -1.80655e-12 400.298

535.475 -25.1348 -2.75395e-12
-25.1348 505.782 -2.22933e-13
-2.75395e-12 -2.22933e-13 515.653

453.485 2.59732 8.62125e-13
2.59732 397.012 -1.4823e-12
8.62125e-13 -1.4823e-12 401.89

311.094 -28.9299 -4.00865e-13
-28.9299 376.59 4.27747e-12
-4.00865e-13 4.27747e-12 289.99

431.868 -29.2303 -2.46499e-12
-29.2303 424.04 -2.45907e-12
-2.46499e-12 -2.45907e-12 406.147

353.755 32.1583 1.04687e-12
32.1583 392.537 -3.42955e-12
1.04687e-12 -3.42955e-12 312.963

470.339 -11.877 2.56969e-12
-11.877 529.544 3.76528e-12
2.56969e-12 3.76528e-12 500.296

391.443 -13.821 -4.73088e-12
-13.821 449.245 3.52311e-12
-4.73088e-12 3.52311e-12 400.191

602.851 -23.9884 4.18673e-12
-23.9884 602.264 -1.672e-12
4.18673e-12 -1.672e-12 557.839

408.364 23.7703 -1.57918e-12
23.7703 441.932 -1.31924e-12
-1.57918e-12 -1.31924e-12 402.215

496.57 -32.7262 4.86692e-12
-32.7262 490.633 3.1634e-12
4.86692e-12 3.1634e-12 497.439

388.183 -11.9628 3.92419e-12
-11.9628 448.277 -6.41502e-12
3.92419e-12 -6.41502e-12 397.009

516.703 -19.1169 -3.3958e-13
-19.1169 465.746 -4.44089e-14
-3.3958e-13 -4.44089e-14 496.236

410.679 23.8765 6.58436e-13
23.8765 439.304 1.89596e-12
6.58436e-13 1.89596e-12 400.691

488.912 -4.97544 -1.32753e-12
-4.97544 435.063 2.51347e-12
-1.32753e-12 2.51347e-12 460.375

305.777 -30.3422 9.61601e-13
-30.3422 391.432 -2.32111e-12
9.61601e-13 -2.32111e-12 262.566

438.602 21.0137 2.01054e-12
21.0137 473.905 4.18628e-13
2.01054e-12 4.18628e-13 458.342

445.68 -19.3229 -2.82085e-12
-19.3229 393.971 -9.48278e-13
-2.82085e-12 -9.48278e-13 399.617

551.599 -21.4459 6.0485e-13
-21.4459 499.512 -1.28608e-12
6.0485e-13 -1.28608e-12 520.098

424.464 31.7533 9.73444e-13
31.7533 413.317 -3.27856e-12
9.73444e-13 -3.27856e-12 397.954

459.157 -29.9712 3.67943e-12
-29.9712 437.633 -6.29422e-13
3.67943e-12 -6.29422e-13 439.294

510.614 20.8851 -1.08476e-12
20.8851 476.068 2.10261e-12
-1.08476e-12 2.10261e-12 492.751

461.499 -28.0758 1.5099e-12
-28.0758 485.735 4.72962e-12
1.5099e-12 4.72962e-12 488.713

413.715 -26.2246 8.38085e-12
-26.2246 436.239 3.45442e-12
8.38085e-12 3.45442e-12 401.434

426.071 28.9804 -2.06472e-12
28.9804 429.893 3.67232e-12
-2.06472e-12 3.67232e-12 406.857

452.496 26.1908 -1.8486e-12
26.1908 418.223 2.71871e-12
-1.8486e-12 2.71871e-12 419.055

521.966 -14.6098 -4.3047e-13
-14.6098 477.174 -8.01729e-13
-4.3047e-13 -8.01729e-13 500.06

403.557 -16.6172 -2.12363e-12
-16.6172 451.738 4.83051e-12
-2.12363e-12 4.83051e-12 406.439

496.042 -17.5681 -7.69755e-15
-17.5681 447.603 1.44521e-12
-7.69755e-15 1.44521e-12 471.497

487.76 16.9082 3.88608e-12
16.9082 436.255 6.36498e-12
3.88608e-12 6.36498e-12 460.585

513.34 -9.387 1.18905e-12
-9.387 555.775 2.48098e-13
1.18905e-12 2.48098e-13 523.026

453.974 -13.4298 2.77349e-12
-13.4298 402.175 5.50863e-12
2.77349e-12 5.50863e-12 406.739

403.198 0.593993 2.57986e-12
0.593993 465.721 5.32907e-14
2.57986e-12 5.32907e-14 417.801

475.022 18.5547 1.51109e-12
18.5547 428.768 1.40036e-12
1.51109e-12 1.40036e-12 442.217

451.139 27.6034 -8.59757e-13
27.6034 421.835 5.58664e-13
-8.59757e-13 5.58664e-13 420.84

400.865 -15.6857 5.50671e-14
-15.6857 451.378 -5.61684e-12
5.50671e-14 -5.61684e-12 403.733

405.997 -1.2023 3.19574e-12
-1.2023 468.03 3.54679e-12
3.19574e-12 3.54679e-12 421.217

516.196 29.1343 6.23501e-13
29.1343 498.023 -2.38742e-12
6.23501e-13 -2.38742e-12 504.873

441.701 -10.9219 -1.21029e-12
-10.9219 500.654 -2.26485e-12
-1.21029e-12 -2.26485e-12 471.145

451.436 -26.7147 -5.38295e-12
-26.7147 418.763 -9.74036e-13
-5.38295e-12 -9.74036e-13 419.349

444.383 21.3321 2.03334e-12
21.3321 395.295 4.19635e-12
2.03334e-12 4.19635e-12 398.198

497.592 23.6651 -9.47982e-13
23.6651 458.087 -2.37144e-12
-9.47982e-13 -2.37144e-12 476.547

447.68 5.47065 -1.65016e-12
5.47065 508.787 -7.27122e-13
-1.65016e-12 -7.27122e-13 476.879

427.646 29.0649 1.31924e-12
29.0649 426.431 9.84102e-13
1.31924e-12 9.84102e-13 405.107

536.819 22.9638 3.68328e-12
22.9638 531.896 -1.74127e-12
3.68328e-12 -1.74127e-12 522.782

314.748 -59.6907 4.59721e-12
-59.6907 282.767 -7.29017e-12
4.59721e-12 -7.29017e-12 223.422

480.591 -25.0473 2.19735e-12
-25.0473 445.069 -4.00095e-12
2.19735e-12 -4.00095e-12 456.643

336.661 7.06976 -1.39237e-12
7.06976 409.152 5.53513e-12
-1.39237e-12 5.53513e-12 319.438

460.535 -28.8887 4.75827e-12
-28.8887 444.734 -1.67866e-12
4.75827e-12 -1.67866e-12 443.45

96.4234 -52.7006 -7.10543e-15
-52.7006 306.616 -2.82322e-12
-7.10543e-15 -2.82322e-12 113.699

95.9573 51.4513 -8.08834e-13
51.4513 306.881 -8.8581e-13
-8.08834e-13 -8.8581e-13 114.487

181.516 117.153 -1.37372e-13
117.153 226.075 2.76638e-12
-1.37372e-13 2.76638e-12 113.587

182.814 -117.096 2.73796e-12
-117.096 223.311 -4.9738e-13
2.73796e-12 -4.9738e-13 113.561

321.581 -1.36335 3.26376e-12
-1.36335 84.6531 2.35529e-14
3.26376e-12 2.35529e-14 114.928

274.432 -91.1249 -2.67164e-12
-91.1249 127.417 9.23706e-14
-2.67164e-12 9.23706e-14 113.801

275.128 91.6527 1.4874e-12
91.6527 128.25 9.04758e-13
1.4874e-12 9.04758e-13 114.572

525.238 14.3301 -3.3884e-12
14.3301 474.709 1.63987e-12
-3.3884e-12 1.63987e-12 502.312

556.795 25.5367 2.03452e-12
25.5367 541.182 4.02197e-12
2.03452e-12 4.02197e-12 533.448

492.089 6.60593 -6.7916e-13
6.60593 439.118 -5.41626e-12
-6.7916e-13 -5.41626e-12 471.399

470.296 21.7842 4.95722e-12
21.7842 424.514 1.64461e-12
4.95722e-12 1.64461e-12 438.191

409.972 17.7441 -6.57148e-12
17.7441 461.07 -8.37256e-13
-6.57148e-12 -8.37256e-13 425.04

448.007 28.898 1.81484e-12
28.898 424.702 -2.65269e-13
1.81484e-12 -2.65269e-13 420.747

487.146 -29.6632 4.5978e-12
-29.6632 465.625 2.35723e-12
4.5978e-12 2.35723e-12 474.587

449.364 28.0273 -2.93513e-12
28.0273 421.068 -1.81781e-12
-2.93513e-12 -1.81781e-12 418.639

402.961 -2.84117 4.77085e-12
-2.84117 465.378 -1.10963e-12
4.77085e-12 -1.10963e-12 417.538

555.802 -26.0975 3.91391e-13
-26.0975 543.375 1.75904e-12
3.91391e-13 1.75904e-12 533.692

405.499 -4.86228 -5.14907e-12
-4.86228 467.116 4.36036e-12
-5.14907e-12 4.36036e-12 420.597

522.29 23.016 -1.04687e-12
23.016 499.74 -9.19265e-14
-1.04687e-12 -9.19265e-14 507.967

423.375 26.8701 3.25429e-12
26.8701 386.504 7.53767e-12
3.25429e-12 7.53767e-12 373.024

480.107 -13.216 -1.61382e-12
-13.216 532.766 9.79661e-13
-1.61382e-12 9.79661e-13 511.998

484.195 13.7277 -2.75691e-12
13.7277 432.773 -5.71099e-13
-2.75691e-12 -5.71099e-13 456.872

457.365 -29.9872 1.25588e-12
-29.9872 436.974 -2.86141e-12
1.25588e-12 -2.86141e-12 437.83

454.305 -24.7131 -2.24532e-12
-24.7131 416.801 1.31095e-12
-2.24532e-12 1.31095e-12 419.85

547.403 -16.0745 1.80211e-12
-16.0745 509.304 1.03887e-12
1.80211e-12 1.03887e-12 519.382

475.969 27.9286 -5.42677e-12
27.9286 449.703 -4.10279e-12
-5.42677e-12 -4.10279e-12 456.922

469.098 23.9771 1.78405e-12
23.9771 427.846 -6.987e-14
1.78405e-12 -6.987e-14 439.827

432.426 -2.79295 -2.49249e-12
-2.79295 493.633 2.04222e-12
-2.49249e-12 2.04222e-12 457.104

417.604 5.87329 -7.70872e-13
5.87329 479.554 -3.01625e-12
-7.70872e-13 -3.01625e-12 440.174

463.008 2.64666 -2.50111e-12
2.64666 402.277 1.4877e-14
-2.50111e-12 1.4877e-14 422.318

438.644 -7.28952 -2.46677e-12
-7.28952 373.913 -1.05957e-11
-2.46677e-12 -1.05957e-11 381.215

454.841 30.4842 2.53723e-12
30.4842 439.012 -1.76984e-12
2.53723e-12 -1.76984e-12 437.834

478.462 -26.1551 5.90875e-12
-26.1551 443.54 -2.45108e-12
5.90875e-12 -2.45108e-12 454.643

525.698 -21.2543 -9.47982e-13
-21.2543 497.827 -2.48927e-12
-9.47982e-13 -2.48927e-12 508.616

437.73 -31.6331 -2.44723e-12
-31.6331 437.652 -2.82026e-12
-2.44723e-12 -2.82026e-12 426.856

417.587 -27.785 -7.93439e-14
-27.785 444.393 9.9476e-13
-7.93439e-14 9.9476e-13 419.685

430.644 29.8866 4.20997e-12
29.8866 442.741 1.71596e-12
4.20997e-12 1.71596e-12 426.494

416.223 -9.57778 5.08075e-12
-9.57778 475.208 6.19949e-12
5.08075e-12 6.19949e-12 436.452

428.892 -1.54473 4.19775e-12
-1.54473 491.865 4.03825e-13
4.19775e-12 4.03825e-13 453.992

445.179 5.74796 -4.65021e-12
5.74796 508.04 2.58164e-13
-4.65021e-12 2.58164e-13 474.912

414.616 -21.0887 9.6545e-13
-21.0887 458.404 -3.02869e-12
9.6545e-13 -3.02869e-12 426.062

496.866 24.1109 1.5851e-12
24.1109 455.694 -4.7029e-12
1.5851e-12 -4.7029e-12 474.59

483.37 -9.58963 -8.88178e-13
-9.58963 430.109 3.54709e-12
-8.88178e-13 3.54709e-12 455.218

415.631 7.46518 -9.45244e-13
7.46518 477.118 -5.19111e-12
-9.45244e-13 -5.19111e-12 436.91

443.952 -9.70105 7.14831e-13
-9.70105 501.501 -2.58934e-12
7.14831e-13 -2.58934e-12 471.004

433.171 -16.3305 4.08014e-12
-16.3305 481.672 4.8761e-12
4.08014e-12 4.8761e-12 455.665

463.536 -8.23908 3.42008e-12
-8.23908 406.333 1.46253e-13
3.42008e-12 1.46253e-13 421.468

494.431 -32.3468 -2.58638e-12
-32.3468 487.613 -1.11318e-12
-2.58638e-12 -1.11318e-12 496.248

422.941 9.3207 -3.50668e-12
9.3207 479.088 -4.55991e-12
-3.50668e-12 -4.55991e-12 440.977

564.357 -18.2126 -3.17997e-12
-18.2126 529.95 1.11748e-12
-3.17997e-12 1.11748e-12 531.83

309.047 24.8223 3.51245e-12
24.8223 379.42 3.64745e-13
3.51245e-12 3.64745e-13 289.796

501.696 -26.6261 5.32315e-13
-26.6261 499.488 4.44459e-12
5.32315e-13 4.44459e-12 501.197

515.647 -30.2028 -5.95672e-13
-30.2028 498.402 1.59339e-12
-5.95672e-13 1.59339e-12 504.916

429.22 -0.701318 -9.68337e-13
-0.701318 491.99 -6.82121e-13
-9.68337e-13 -6.82121e-13 454.143

474.878 -16.6224 2.8475e-12
-16.6224 428.334 -2.29239e-12
2.8475e-12 -2.29239e-12 441.954

462.303 12.8416 -2.21758e-12
12.8416 511.272 -2.8629e-12
-2.21758e-12 -2.8629e-12 489.119

240.775 -3.18047 -1.63847e-12
-3.18047 360.686 -1.97768e-12
-1.63847e-12 -1.97768e-12 226.964

432.402 14.2735 -3.82953e-13
14.2735 485.354 1.96702e-12
-3.82953e-13 1.96702e-12 456.88

458.109 -29.4888 -1.11733e-12
-29.4888 443.168 -8.92915e-13
-1.11733e-12 -8.92915e-13 440.76

304.185 25.1054 -2.65447e-12
25.1054 394.582 -1.16055e-11
-2.65447e-12 -1.16055e-11 264.339

603.55 26.0982 -6.995e-12
26.0982 597.956 4.71356e-12
-6.995e-12 4.71356e-12 558.156

608.284 -27.8076 -9.70749e-12
-27.8076 595.03 3.19433e-12
-9.70749e-12 3.19433e-12 558.29

463.491 -30.4188 -2.01735e-12
-30.4188 459.036 3.58439e-12
-2.01735e-12 3.58439e-12 459.07

434.582 -31.1598 8.75152e-13
-31.1598 436.357 -1.91965e-12
8.75152e-13 -1.91965e-12 424.66

474.098 20.8273 -3.42482e-12
20.8273 431.913 3.75581e-12
-3.42482e-12 3.75581e-12 443.971

465.219 15.0059 -3.49587e-12
15.0059 410.114 -8.3548e-13
-3.49587e-12 -8.3548e-13 427.461

646.07 3.08369 1.41855e-11
3.08369 645.728 -3.53658e-12
1.41855e-11 -3.53658e-12 574.619

649.891 -7.00033 -1.7996e-12
-7.00033 641.398 -5.45549e-12
-1.7996e-12 -5.45549e-12 575.147

496.986 4.82431 -5.23492e-12
4.82431 442.032 2.78118e-12
-5.23492e-12 2.78118e-12 477.41

443.555 6.73089 2.98902e-12
6.73089 502.987 2.42413e-12
2.98902e-12 2.42413e-12 471.048

441.97 6.73631 -1.86466e-12
6.73631 502.512 5.03123e-12
-1.86466e-12 5.03123e-12 469.771

321.534 58.6337 -1.7882e-12
58.6337 281.121 -1.89478e-12
-1.7882e-12 -1.89478e-12 225.076

420.226 -28.1994 2.70776e-12
-28.1994 444.021 6.04257e-12
2.70776e-12 6.04257e-12 421.03

520.576 17.9745 1.72425e-12
17.9745 467.528 -3.99503e-12
1.72425e-12 -3.99503e-12 499.508

472.977 9.53966 -4.67537e-12
9.53966 421.195 -2.70391e-12
-4.67537e-12 -2.70391e-12 436.201

440.628 -26.723 8.49099e-13
-26.723 450.723 3.44317e-12
8.49099e-13 3.44317e-12 433.413

469.274 -20.2375 5.75184e-12
-20.2375 422.714 8.03801e-13
5.75184e-12 8.03801e-13 437.174

312.471 60.2316 -3.50534e-12
60.2316 281.371 9.83273e-12
-3.50534e-12 9.83273e-12 223.214

492.679 31.069 5.23433e-13
31.069 489.041 4.36096e-13
5.23433e-13 4.36096e-13 493.136

410.861 -19.7858 -1.79975e-12
-19.7858 457.879 -1.96583e-12
-1.79975e-12 -1.96583e-12 423.496

474.126 28.8574 -4.5907e-12
28.8574 449.629 -2.4721e-12
-4.5907e-12 -2.4721e-12 456.516

430.954 -4.14475 6.8987e-12
-4.14475 492.97 3.43311e-12
6.8987e-12 3.43311e-12 456.465

423.928 19.6089 -4.22773e-13
19.6089 465.709 4.84353e-13
-4.22773e-13 4.84353e-13 434.106

452.745 30.5184 -9.98905e-13
30.5184 443.596 -4.65405e-13
-9.98905e-13 -4.65405e-13 439.606

428.641 -22.4729 5.38236e-13
-22.4729 461.134 -2.81789e-12
5.38236e-13 -2.81789e-12 433.811

443.572 -27.3522 1.09009e-12
-27.3522 450.43 5.84717e-12
1.09009e-12 5.84717e-12 435.043

294.777 11.2569 5.83578e-12
11.2569 372.583 -1.93031e-12
5.83578e-12 -1.93031e-12 258.1

357.296 -33.4558 -8.95284e-13
-33.4558 389.115 5.04722e-12
-8.95284e-13 5.04722e-12 314.127

419.656 -11.6904 9.28146e-13
-11.6904 476.358 -4.46872e-12
9.28146e-13 -4.46872e-12 439.343

478.395 26.4843 -8.49099e-13
26.4843 446.797 -8.88178e-15
-8.49099e-13 -8.88178e-15 456.082

452.343 29.4776 -1.27898e-12
29.4776 449.024 2.40933e-12
-1.27898e-12 2.40933e-12 442.397

426.806 -21.4336 -8.24822e-13
-21.4336 461.781 -3.78127e-12
-8.24822e-13 -3.78127e-12 432.628

422.929 -11.7822 4.6206e-12
-11.7822 476.645 5.12479e-12
4.6206e-12 5.12479e-12 439.926

457.704 28.4092 -1.75504e-12
28.4092 447.085 7.98768e-13
-1.75504e-12 7.98768e-13 442.569

425.103 -13.8776 -3.31409e-12
-13.8776 476.416 -5.62513e-12
-3.31409e-12 -5.62513e-12 442.103

311.263 27.8546 -1.13924e-12
27.8546 377.389 5.44749e-14
-1.13924e-12 5.44749e-14 289.983

485.168 -4.04134 3.39556e-12
-4.04134 545.048 -1.88235e-12
3.39556e-12 -1.88235e-12 511.035

432.983 31.0272 2.49401e-12
31.0272 439.626 1.82906e-12
2.49401e-12 1.82906e-12 426.017

509.308 14.9011 -4.25734e-12
14.9011 463.16 -2.61717e-13
-4.25734e-12 -2.61717e-13 488.604

516.919 -15.9274 4.83761e-13
-15.9274 467.58 -1.12769e-12
4.83761e-13 -1.12769e-12 493.921

383.923 -24.2042 -3.63561e-12
-24.2042 305.947 -1.16647e-12
-3.63561e-12 -1.16647e-12 285.353

442.276 -21.267 2.12867e-13
-21.267 475.997 2.53486e-12
2.12867e-13 2.53486e-12 459.318

447.825 26.698 -8.52651e-13
26.698 466.204 -1.92912e-12
-8.52651e-13 -1.92912e-12 457.839

522.973 -21.7279 -3.08464e-12
-21.7279 543.81 6.49965e-12
-3.08464e-12 6.49965e-12 525.308

579.583 14.1069 -1.44095e-11
14.1069 617.621 -6.26788e-12
-1.44095e-11 -6.26788e-12 557.051

620.208 9.44535 -2.26634e-12
9.44535 576.841 -3.09145e-12
-2.26634e-12 -3.09145e-12 556.87

523.468 32.7056 2.70954e-12
32.7056 520.65 1.82432e-12
2.70954e-12 1.82432e-12 519.523

414.889 26 2.90642e-12
26 448.903 2.15531e-12
2.90642e-12 2.15531e-12 420.374

478.093 26.6613 -1.46431e-12
26.6613 444.768 -1.88146e-12
-1.46431e-12 -1.88146e-12 455.505

332.361 45.1854 -2.14347e-13
45.1854 349.487 -9.50943e-13
-2.14347e-13 -9.50943e-13 286.738

571.39 -11.3439 -9.66708e-12
-11.3439 614.471 -6.94556e-13
-9.66708e-12 -6.94556e-13 554.594

641.327 -3.43303 -3.35773e-12
-3.43303 636.87 -6.28756e-12
-3.35773e-12 -6.28756e-12 572.395

634.904 -0.210121 -2.60592e-12
-0.210121 643.178 -6.60013e-12
-2.60592e-12 -6.60013e-12 572.222

272.962 -53.802 6.79397e-12
-53.802 316.445 -4.583e-12
6.79397e-12 -4.583e-12 220.908

566.637 -11.6001 4.09924e-12
-11.6001 562.124 -9.38213e-13
4.09924e-12 -9.38213e-13 540.897

563.771 8.81314 4.79772e-12
8.81314 586.961 6.29422e-12
4.79772e-12 6.29422e-12 546.839

478.241 -26.1993 6.22258e-12
-26.1993 440.439 -2.03038e-12
6.22258e-12 -2.03038e-12 453.479

494.347 1.01114 -2.87896e-12
1.01114 545.757 -1.06522e-12
-2.87896e-12 -1.06522e-12 514.055

447.648 -20.2677 2.80354e-12
-20.2677 484.155 -5.76783e-12
2.80354e-12 -5.76783e-12 470.634

506.298 6.25531 -1.57415e-12
6.25531 443.371 3.26228e-12
-1.57415e-12 3.26228e-12 486.122

461.272 15.5963 -1.8648e-12
15.5963 521.25 -2.2092e-12
-1.8648e-12 -2.2092e-12 497.554

471.179 7.19165 2.1975e-13
7.19165 528.003 2.19854e-12
2.1975e-13 2.19854e-12 497.688

493.76 20.3926 -5.66895e-12
20.3926 451.515 -2.71812e-12
-5.66895e-12 -2.71812e-12 469.748

241.064 -3.1139 8.01966e-12
-3.1139 358.558 -4.43852e-12
8.01966e-12 -4.43852e-12 227.062

463.698 -27.6235 -1.78879e-12
-27.6235 463.388 -2.59348e-12
-1.78879e-12 -2.59348e-12 461.188

488.342 -26.1161 1.01229e-11
-26.1161 481.595 -1.89152e-12
1.01229e-11 -1.89152e-12 485.867

497.535 -31.4837 3.7114e-12
-31.4837 489.955 -9.02241e-13
3.7114e-12 -9.02241e-13 498.978

355.598 32.7492 -1.9161e-12
32.7492 285.777 -4.53237e-12
-1.9161e-12 -4.53237e-12 248.365

563.88 -20.1166 -2.03393e-12
-20.1166 569.613 -3.18242e-12
-2.03393e-12 -3.18242e-12 542.569

337.646 54.3217 -2.14347e-12
54.3217 356.656 1.80715e-12
-2.14347e-12 1.80715e-12 258.873

477.069 -21.4396 9.72555e-14
-21.4396 506.487 1.16559e-12
9.72555e-14 1.16559e-12 500.241

504.77 14.6503 -2.50762e-12
14.6503 451.984 -2.83758e-12
-2.50762e-12 -2.83758e-12 481.557

449.828 -14.5723 -5.14907e-12
-14.5723 396.984 -5.29236e-12
-5.14907e-12 -5.29236e-12 400.837

452.591 24.0466 -3.06244e-12
24.0466 478.776 -5.06558e-12
-3.06244e-12 -5.06558e-12 467.845

493.663 20.4279 -5.15143e-12
20.4279 449.498 -2.31518e-13
-5.15143e-12 -2.31518e-13 469.339

505.564 11.4007 -1.37867e-12
11.4007 564.414 -5.37289e-12
-1.37867e-12 -5.37289e-12 526.709

475.893 -31.58 -3.58232e-12
-31.58 470.353 6.84786e-13
-3.58232e-12 6.84786e-13 475.061

559.268 19.8124 -4.64517e-12
19.8124 510.438 1.48385e-12
-4.64517e-12 1.48385e-12 526.485

439.955 -18.4433 -5.51204e-12
-18.4433 482.462 4.28398e-12
-5.51204e-12 4.28398e-12 459.146

465.895 4.28311 -2.65609e-12
4.28311 526.105 2.29091e-12
-2.65609e-12 2.29091e-12 495.508

588.639 9.92667 -5.34151e-12
9.92667 552.461 7.03141e-13
-5.34151e-12 7.03141e-13 545.187

590.422 -8.51328 -5.68227e-12
-8.51328 554.803 1.42686e-12
-5.68227e-12 1.42686e-12 545.705

382.307 18.5121 1.62477e-12
18.5121 302.285 -4.81393e-13
1.62477e-12 -4.81393e-13 286.132

502.675 7.96494 -2.77112e-13
7.96494 453.597 -1.32501e-12
-2.77112e-13 -1.32501e-12 487.762

232.814 7.74036 9.85834e-12
7.74036 381.514 2.77585e-12
9.85834e-12 2.77585e-12 187.185

236.984 -11.385 -1.6982e-12
-11.385 387.207 4.68958e-13
-1.6982e-12 4.68958e-13 189.449

249.286 56.4063 2.75691e-12
56.4063 354.775 2.79006e-12
2.75691e-12 2.79006e-12 184.022

505.012 -28.9504 3.50771e-12
-28.9504 478.613 3.26465e-12
3.50771e-12 3.26465e-12 491.341

258.47 -49.1897 -1.3299e-12
-49.1897 341.839 1.01608e-12
-1.3299e-12 1.01608e-12 220.732

249.292 -55.9488 -2.70006e-12
-55.9488 344.75 3.57166e-12
-2.70006e-12 3.57166e-12 181.114

434.651 26.2197 3.73449e-12
26.2197 454.389 1.2624e-12
3.73449e-12 1.2624e-12 432.821

329.922 73.8429 -2.61006e-12
73.8429 280.009 6.27172e-12
-2.61006e-12 6.27172e-12 184.826

540.125 13.0474 5.5221e-12
13.0474 554.945 3.65693e-12
5.5221e-12 3.65693e-12 532.075

562.382 0.0392032 2.45685e-12
0.0392032 532.452 -2.39867e-12
2.45685e-12 -2.39867e-12 531.868

338.6 -73.1284 -8.98126e-12
-73.1284 279.856 -3.56219e-12
-8.98126e-12 -3.56219e-12 186.309

432.666 -23.4236 -5.54046e-12
-23.4236 466.307 7.30083e-13
-5.54046e-12 7.30083e-13 447.568

358.928 34.7285 -7.09358e-12
34.7285 310.973 4.37339e-12
-7.09358e-12 4.37339e-12 258.036

267.703 63.49 5.5896e-13
63.49 345.208 -1.88057e-12
5.5896e-13 -1.88057e-12 185.844

293.691 21.6298 -7.14095e-13
21.6298 367.658 3.10507e-12
-7.14095e-13 3.10507e-12 254.495

267.575 -65.9188 -8.8581e-13
-65.9188 344.844 1.27898e-13
-8.8581e-13 1.27898e-13 184.3

291.638 -12.3809 8.39033e-13
-12.3809 370.88 9.45022e-13
8.39033e-13 9.45022e-13 253.441

550.305 6.84193 -6.30311e-12
6.84193 582.076 5.27578e-13
-6.30311e-12 5.27578e-13 541.115

329.887 -45.9739 -1.75622e-12
-45.9739 341.813 -1.66741e-12
-1.75622e-12 -1.66741e-12 276.612

259.78 47.531 1.61056e-13
47.531 340.214 3.34666e-12
1.61056e-13 3.34666e-12 223.144

370.214 37.9108 -2.76164e-12
37.9108 244.919 -4.44741e-12
-2.76164e-12 -4.44741e-12 187.355

481.887 -29.2854 2.90138e-13
-29.2854 460.508 1.65764e-12
2.90138e-13 1.65764e-12 467.711

480.974 12.8967 -2.66083e-12
12.8967 525.827 -2.53486e-12
-2.66083e-12 -2.53486e-12 504.101

354.416 -38.1117 4.09746e-12
-38.1117 300.075 2.82085e-12
4.09746e-12 2.82085e-12 251.813

482.531 -28.8019 -7.27122e-13
-28.8019 460.318 -1.12621e-12
-7.27122e-13 -1.12621e-12 468.46

365.262 -36.3427 -1.80004e-12
-36.3427 230.987 6.41028e-12
-1.80004e-12 6.41028e-12 182.769

481.499 -28.3171 -5.15143e-13
-28.3171 472.752 3.93197e-12
-5.15143e-13 3.93197e-12 477.915

436.35 -25.2945 -6.41265e-13
-25.2945 466.22 -8.17539e-12
-6.41265e-13 -8.17539e-12 448.206

314.797 69.4594 1.88531e-12
69.4594 292.14 -1.8711e-12
1.88531e-12 -1.8711e-12 184.523

290.78 -22.9323 -3.21165e-12
-22.9323 359.162 1.0445e-12
-3.21165e-12 1.0445e-12 247.027

312.398 -71.6914 -7.72123e-13
-71.6914 288.12 -5.33618e-12
-7.72123e-13 -5.33618e-12 182.025

268.544 50.7365 -7.56017e-12
50.7365 320.057 -3.64035e-12
-7.56017e-12 -3.64035e-12 221.503

459.858 -30.2117 2.49223e-12
-30.2117 454.842 5.39124e-13
2.49223e-12 5.39124e-13 454.397

559.284 -14.6403 -2.92803e-13
-14.6403 544.41 3.03579e-12
-2.92803e-13 3.03579e-12 533.715

635.922 11.0928 -5.57539e-12
11.0928 631.383 -3.80895e-12
-5.57539e-12 -3.80895e-12 570.018

619.956 -5.15997 4.37798e-12
-5.15997 639.739 7.70495e-14
4.37798e-12 7.70495e-14 568.496

453.867 13.0836 2.96396e-12
13.0836 506.552 1.58037e-12
2.96396e-12 1.58037e-12 482.569

634.151 -10.6671 2.57823e-12
-10.6671 631.313 -3.55345e-12
2.57823e-12 -3.55345e-12 569.873

622.695 4.0917 2.47447e-12
4.0917 642.684 4.53363e-12
2.47447e-12 4.53363e-12 569.697

643.374 7.43429 1.16261e-11
7.43429 619.147 1.38748e-12
1.16261e-11 1.38748e-12 569.02

584.775 -12.1154 4.72825e-12
-12.1154 631.667 7.1454e-13
4.72825e-12 7.1454e-13 560.591

307.442 -30.4695 -5.38828e-12
-30.4695 371.63 -1.59635e-12
-5.38828e-12 -1.59635e-12 280.767

589.624 -12.9721 4.44829e-12
-12.9721 549.111 5.60352e-12
4.44829e-12 5.60352e-12 543.824

527.204 -34.4179 1.04746e-12
-34.4179 521.484 -1.82165e-12
1.04746e-12 -1.82165e-12 519.963

565.462 -18.1768 -1.65853e-12
-18.1768 537.988 -5.81905e-12
-1.65853e-12 -5.81905e-12 534.256

502.567 15.4591 -6.0929e-13
15.4591 452.113 2.37943e-12
-6.0929e-13 2.37943e-12 480.204

586.348 9.86438 -3.32578e-12
9.86438 642.135 5.71128e-12
-3.32578e-12 5.71128e-12 563.102

636.657 19.2278 -5.02561e-13
19.2278 591.722 -1.32457e-12
-5.02561e-13 -1.32457e-12 562.923

569.774 11.3062 -5.32315e-12
11.3062 544.337 2.84528e-12
-5.32315e-12 2.84528e-12 536.434

353.44 -15.3391 4.51431e-12
-15.3391 231.514 6.26403e-12
4.51431e-12 6.26403e-12 219.012

437.203 24.9637 2.87296e-12
24.9637 461.909 2.56447e-12
2.87296e-12 2.56447e-12 445.719

317.088 -61.3538 -8.43414e-12
-61.3538 277.847 -6.53699e-13
-8.43414e-12 -6.53699e-13 218.087

334.206 -57.4565 -8.97889e-12
-57.4565 357.32 3.5835e-12
-8.97889e-12 3.5835e-12 252.538

383.331 -36.5436 9.43601e-12
-36.5436 305.737 -2.75098e-12
9.43601e-12 -2.75098e-12 257.758

562.495 -5.15898 2.67667e-12
-5.15898 616.951 -7.59911e-12
2.67667e-12 -7.59911e-12 552.948

562.202 2.89122 -4.03026e-12
2.89122 615.816 -9.37324e-12
-4.03026e-12 -9.37324e-12 552.547

598.769 -24.4566 2.28854e-13
-24.4566 575.741 -1.89708e-12
2.28854e-13 -1.89708e-12 551.576

602.328 -21.7609 6.88764e-12
-21.7609 573.432 -2.69118e-13
6.88764e-12 -2.69118e-13 551.842

598.782 26.1363 -1.65497e-13
26.1363 580.457 1.34825e-12
-1.65497e-13 1.34825e-12 552.732

625.741 3.09967 3.67365e-12
3.09967 630.734 -1.03743e-11
3.67365e-12 -1.03743e-11 568.419

599.059 -20.5091 -2.91974e-12
-20.5091 576.352 -6.09142e-13
-2.91974e-12 -6.09142e-13 552.265

607.809 -18.5685 -2.87192e-12
-18.5685 620.262 -2.24631e-11
-2.87192e-12 -2.24631e-11 563.184

632.9 2.43467 3.81043e-12
2.43467 635.526 -8.45487e-12
3.81043e-12 -8.45487e-12 570.504

607.885 -20.5265 5.16402e-12
-20.5265 572.425 -5.83237e-13
5.16402e-12 -5.83237e-13 553.404

607.071 20.9561 4.57634e-12
20.9561 573.684 5.1464e-12
4.57634e-12 5.1464e-12 553.807

633.851 -3.45871 9.14987e-12
-3.45871 636.777 -1.99855e-12
9.14987e-12 -1.99855e-12 571.278

632.181 -3.11745 1.98671e-12
-3.11745 625.756 -1.41516e-13
1.98671e-12 -1.41516e-13 569.393

609.681 12.1098 -6.81795e-12
12.1098 620.485 1.3672e-12
-6.81795e-12 1.3672e-12 563.915

587.202 26.9299 -5.66066e-13
26.9299 583.017 1.60159e-12
-5.66066e-13 1.60159e-12 551.7

FIELD solute_concentration_TPM 2
S_ext 1 563 float
0.994554
0.994362
0.994382
0.994363
0.994331
0.994382
0.994554
0.994373
0.994399
0.994366
0.994515
0.994373
0.994377
0.994365
0.994339
0.994381
0.994356
0.994372
0.994403
0.994385
0.994392
0.994275
0.994387
0.994386
0.994386
0.994368
0.994505
0.99438
0.994452
0.994304
0.994378
0.99445
0.99451
0.994314
0.994312
0.994314
0.9943
0.994315
0.994379
0.994509
0.994451
0.9943
0.9943
0.994378
0.994484
0.99445
0.994401
0.994397
0.994382
0.99446
0.994455
0.994436
0.994329
0.994437
0.994331
0.99449
0.994312
0.994436
0.994312
0.994384
0.994355
0.994347
0.994501
0.99435
0.994347
0.994361
0.994355
0.994369
0.994387
0.994361
0.99433
0.99433
0.994452
0.994357
0.994383
0.994513
0.994341
0.994361
0.994368
0.994429
0.994469
0.994326
0.994351
0.994471
0.99445
0.994488
0.99438
0.99436
0.994484
0.994284
0.994436
0.994284
0.994338
0.994363
0.994436
0.994455
0.994471
0.994365
0.994342
0.994379
0.994417
0.994448
0.994471
0.994368
0.994367
0.994366
0.99435
0.994381
0.994472
0.994356
0.994384
0.994481
0.994475
0.99437
0.994367
0.994437
0.994315
0.994473
0.994315
0.994436
0.994408
0.99434
0.994361
0.994356
0.994356
0.994337
0.994319
0.994365
0.994471
0.994435
0.994328
0.994362
0.994351
0.994361
0.994448
0.994311
0.994482
0.994377
0.99435
0.994311
0.994445
0.99437
0.994408
0.994365
0.994474
0.994367
0.994371
0.994384
0.994383
0.994421
0.994396
0.994361
0.99445
0.994377
0.994365
0.994362
0.994363
0.994445
0.994444
0.994374
0.994396
0.994449
0.994484
0.994453
0.994443
0.994366
0.994444
0.994446
0.994451
0.994443
0.994337
0.994436
0.994455
0.994362
0.994436
0.99435
0.994338
0.994374
0.994331
0.994369
0.994452
0.994365
0.994366
0.994444
0.994359
0.994456
0.994356
0.994352
0.994339
0.994365
0.994359
0.994469
0.994435
0.99445
0.994361
0.994371
0.99437
0.994351
0.994361
0.994362
0.994361
0.994403
0.994428
0.994351
0.994453
0.99435
0.994362
0.994447
0.994346
0.994361
0.994347
0.994366
0.994368
0.994351
0.994419
0.994366
0.994427
0.994352
0.994356
0.994355
0.994356
0.994356
0.994356
0.994357
0.994366
0.994339
0.994339
0.994339
0.994339
0.994332
0.994331
0.994421
0.994364
0.994361
0.994398
0.99434
0.994339
0.994361
0.994427
0.994361
0.994365
0.99442
0.994345
0.994421
0.994351
0.99436
0.994419
0.994426
0.99447
0.994462
0.994351
0.994476
0.994378
0.994427
0.994403
0.994361
0.994356
0.994301
0.994356
0.99448
0.994426
0.99436
0.994373
0.994428
0.994355
0.994407
0.994301
0.994427
0.994355
0.994358
0.99437
0.99434
0.994361
0.994331
0.994376
0.994482
0.994488
0.994337
0.99439
0.994373
0.994423
0.994345
0.994362
0.994426
0.994363
0.994417
0.994371
0.994418
0.994427
0.99429
0.994336
0.994337
0.994337
0.994365
0.994417
0.994315
0.994358
0.994395
0.994416
0.994422
0.994335
0.99442
0.99434
0.99442
0.994484
0.994416
0.994475
0.994351
0.994419
0.99429
0.99442
0.994354
0.994421
0.994356
0.99442
0.994382
0.994508
0.994382
0.99442
0.994334
0.99442
0.994394
0.994359
0.994361
0.994419
0.994417
0.994407
0.994353
0.994416
0.994374
0.994381
0.994332
0.994417
0.994408
0.994393
0.994407
0.994418
0.994407
0.994348
0.994373
0.994408
0.99442
0.99437
0.99437
0.994417
0.994333
0.994521
0.994384
0.99447
0.994392
0.99458
0.994581
0.994578
0.994578
0.994576
0.994585
0.994585
0.994351
0.994321
0.994373
0.994395
0.994403
0.994407
0.994371
0.994408
0.994409
0.994321
0.994407
0.994347
0.994436
0.994341
0.994383
0.994396
0.994408
0.994337
0.994384
0.994395
0.994383
0.994394
0.994406
0.99443
0.994395
0.994385
0.994345
0.994402
0.994407
0.994403
0.994396
0.994385
0.99437
0.994403
0.994371
0.994384
0.994396
0.994373
0.994384
0.994406
0.994355
0.994394
0.994322
0.994484
0.994351
0.994348
0.994385
0.994394
0.994361
0.994521
0.994382
0.994394
0.994506
0.994294
0.994294
0.994381
0.994404
0.994393
0.994402
0.994275
0.994273
0.99437
0.994373
0.994374
0.994526
0.994406
0.994354
0.994398
0.9944
0.994396
0.994521
0.994357
0.994404
0.994384
0.994383
0.994399
0.994395
0.994399
0.994398
0.994508
0.994474
0.994394
0.994384
0.994393
0.9944
0.994395
0.994393
0.994393
0.994486
0.994342
0.994402
0.994361
0.994357
0.994487
0.994382
0.994383
0.994333
0.994288
0.994288
0.994335
0.994407
0.994384
0.994488
0.994291
0.994273
0.994273
0.994523
0.994314
0.994303
0.994386
0.99434
0.994374
0.994364
0.994354
0.994353
0.994375
0.994521
0.994381
0.994364
0.994354
0.994514
0.994309
0.994513
0.994352
0.994367
0.994419
0.994377
0.994375
0.994327
0.994371
0.994327
0.994382
0.994355
0.994307
0.994308
0.99449
0.994362
0.994556
0.994557
0.994556
0.994359
0.994527
0.994557
0.9944
0.994555
0.994325
0.994326
0.994556
0.994389
0.994511
0.99456
0.99451
0.994561
0.99451
0.994314
0.994494
0.994526
0.994554
0.994376
0.994349
0.994513
0.994375
0.994554
0.994369
0.994389
0.994561
0.994514
0.994562
0.994522
0.994385
0.994321
0.994273
0.994275
0.994365
0.994274
0.994273
0.994275
0.994286
0.994491
0.994308
0.994336
0.994322
0.994367
0.994284
0.994284
0.994321
0.994522
0.994391
0.99453
0.994517
0.994509
0.994292
0.994292
0.994294
0.994294
0.994292
0.994278
0.994298
0.994285
0.994277
0.994295
0.994295
0.994277
0.994277
0.994284
0.994297
P_ext 1 563 float
0.0203279
0.0203229
0.0203236
0.020323
0.0203211
0.0203236
0.0203279
0.0203233
0.0203241
0.020323
0.020327
0.0203232
0.0203234
0.0203229
0.0203216
0.0203236
0.0203225
0.0203232
0.0203243
0.0203238
0.0203239
0.0203177
0.0203238
0.0203237
0.0203238
0.0203231
0.0203268
0.0203235
0.0203256
0.0203195
0.0203235
0.0203256
0.0203269
0.0203201
0.02032
0.0203201
0.0203194
0.0203202
0.0203234
0.0203269
0.0203256
0.0203193
0.0203193
0.0203234
0.0203264
0.0203256
0.0203242
0.0203241
0.0203236
0.0203258
0.0203257
0.0203252
0.020321
0.0203252
0.0203211
0.0203265
0.02032
0.0203252
0.02032
0.0203237
0.0203225
0.0203221
0.0203267
0.0203222
0.020322
0.0203227
0.0203225
0.0203231
0.0203238
0.0203228
0.0203211
0.0203211
0.0203256
0.0203225
0.0203237
0.020327
0.0203217
0.0203227
0.0203231
0.020325
0.020326
0.0203209
0.0203222
0.0203261
0.0203255
0.0203265
0.0203235
0.0203226
0.0203264
0.020318
0.0203252
0.020318
0.0203215
0.0203227
0.0203252
0.0203257
0.0203261
0.020323
0.0203217
0.0203235
0.0203247
0.0203255
0.020326
0.0203231
0.020323
0.0203231
0.0203221
0.0203235
0.0203261
0.0203226
0.0203237
0.0203263
0.0203261
0.0203232
0.0203231
0.0203252
0.02032
0.0203261
0.02032
0.0203252
0.0203244
0.0203217
0.0203228
0.0203225
0.0203225
0.0203215
0.0203203
0.020323
0.0203261
0.0203252
0.0203209
0.0203229
0.0203223
0.0203229
0.0203255
0.0203199
0.0203263
0.0203234
0.0203222
0.0203199
0.0203254
0.020323
0.0203244
0.0203229
0.0203261
0.0203231
0.0203231
0.0203236
0.0203236
0.0203248
0.020324
0.0203228
0.0203255
0.0203234
0.020323
0.0203229
0.0203228
0.0203255
0.0203254
0.0203234
0.0203241
0.0203255
0.0203264
0.0203256
0.0203254
0.0203231
0.0203254
0.0203255
0.0203256
0.0203254
0.0203215
0.0203252
0.0203257
0.0203228
0.0203252
0.0203222
0.0203215
0.0203232
0.0203211
0.020323
0.0203256
0.020323
0.020323
0.0203254
0.0203226
0.0203257
0.0203225
0.0203222
0.0203215
0.020323
0.0203225
0.020326
0.0203252
0.0203256
0.0203229
0.0203233
0.0203232
0.0203223
0.0203228
0.0203227
0.0203228
0.0203243
0.020325
0.0203223
0.0203256
0.0203223
0.0203227
0.0203255
0.0203219
0.0203228
0.0203219
0.0203229
0.0203231
0.0203222
0.0203247
0.0203229
0.020325
0.0203223
0.0203225
0.0203225
0.0203226
0.0203226
0.0203226
0.0203226
0.0203229
0.0203216
0.0203216
0.0203216
0.0203216
0.0203211
0.020321
0.0203248
0.0203229
0.0203228
0.0203242
0.0203215
0.0203215
0.0203228
0.020325
0.0203229
0.020323
0.0203248
0.0203219
0.0203248
0.0203222
0.0203229
0.0203247
0.020325
0.020326
0.0203258
0.0203223
0.0203262
0.0203235
0.020325
0.0203243
0.0203229
0.0203225
0.0203193
0.0203226
0.0203263
0.0203249
0.0203228
0.0203232
0.020325
0.0203226
0.0203244
0.0203193
0.020325
0.0203225
0.0203225
0.0203232
0.0203216
0.0203226
0.0203211
0.0203234
0.0203263
0.0203265
0.0203213
0.0203239
0.0203232
0.0203248
0.0203218
0.0203228
0.0203249
0.0203227
0.0203247
0.0203231
0.0203247
0.020325
0.0203186
0.0203214
0.0203215
0.0203215
0.020323
0.0203247
0.0203202
0.0203226
0.020324
0.0203247
0.0203248
0.0203213
0.0203248
0.0203215
0.0203248
0.0203264
0.0203246
0.0203261
0.0203222
0.0203247
0.0203186
0.0203248
0.0203223
0.0203248
0.0203224
0.0203248
0.0203236
0.0203269
0.0203236
0.0203248
0.0203213
0.0203247
0.0203239
0.0203225
0.0203228
0.0203248
0.0203247
0.0203244
0.0203222
0.0203247
0.0203232
0.0203235
0.0203212
0.0203247
0.0203244
0.0203239
0.0203244
0.0203247
0.0203244
0.020322
0.0203232
0.0203244
0.0203247
0.0203231
0.020323
0.0203247
0.0203212
0.0203272
0.0203235
0.020326
0.0203239
0.0203284
0.0203284
0.0203284
0.0203284
0.0203283
0.0203285
0.0203285
0.0203221
0.0203204
0.0203232
0.020324
0.0203243
0.0203244
0.0203231
0.0203244
0.0203244
0.0203204
0.0203244
0.0203219
0.0203252
0.0203217
0.0203236
0.020324
0.0203244
0.0203213
0.0203236
0.020324
0.0203236
0.020324
0.0203244
0.020325
0.020324
0.0203236
0.0203219
0.0203242
0.0203244
0.0203243
0.020324
0.0203236
0.0203231
0.0203243
0.0203231
0.0203236
0.020324
0.0203232
0.0203237
0.0203243
0.0203225
0.020324
0.0203206
0.0203264
0.0203222
0.0203219
0.0203236
0.020324
0.0203227
0.0203272
0.0203236
0.020324
0.0203269
0.0203187
0.0203187
0.0203235
0.0203243
0.0203239
0.0203243
0.0203174
0.0203174
0.0203231
0.0203232
0.0203232
0.0203273
0.0203244
0.0203223
0.0203241
0.0203242
0.0203241
0.0203272
0.0203225
0.0203243
0.0203236
0.0203236
0.0203242
0.020324
0.0203242
0.0203241
0.0203269
0.0203261
0.020324
0.0203236
0.020324
0.0203242
0.020324
0.0203239
0.020324
0.0203264
0.0203217
0.0203242
0.0203227
0.0203225
0.0203264
0.0203236
0.0203236
0.0203211
0.0203186
0.0203186
0.0203213
0.0203244
0.0203236
0.0203265
0.0203188
0.0203176
0.0203176
0.0203272
0.0203201
0.0203195
0.0203237
0.0203216
0.0203233
0.0203229
0.0203224
0.0203223
0.0203232
0.0203272
0.0203236
0.0203228
0.0203224
0.020327
0.0203198
0.020327
0.0203224
0.020323
0.0203247
0.0203234
0.0203233
0.0203209
0.0203232
0.0203209
0.0203236
0.0203224
0.0203196
0.0203196
0.0203265
0.0203228
0.0203279
0.0203279
0.0203279
0.0203226
0.0203273
0.0203279
0.0203242
0.0203279
0.0203208
0.0203208
0.0203279
0.0203239
0.020327
0.020328
0.0203269
0.020328
0.0203269
0.0203201
0.0203266
0.0203273
0.0203278
0.0203233
0.0203221
0.020327
0.0203233
0.0203279
0.020323
0.0203238
0.020328
0.020327
0.020328
0.0203272
0.0203237
0.0203205
0.0203177
0.0203177
0.0203229
0.0203176
0.0203177
0.0203177
0.0203183
0.0203265
0.0203198
0.0203213
0.0203204
0.0203229
0.0203182
0.0203182
0.0203204
0.0203272
0.0203239
0.0203274
0.0203271
0.0203269
0.0203189
0.0203189
0.020319
0.020319
0.0203189
0.0203178
0.020319
0.0203181
0.0203176
0.0203188
0.0203188
0.0203176
0.0203178
0.0203181
0.020319
FIELD solute_flux_TPM 2
S_ext 3 563 float
-5.43888e-05 1.81959e-05 2.95205e-19
2.34383e-06 4.51741e-06 2.88687e-18
-8.38412e-06 -6.66761e-06 -6.72926e-19
-2.76184e-06 2.78419e-06 2.71222e-18
1.521e-05 -4.3428e-06 -1.73549e-18
1.82946e-06 -1.04695e-05 2.17049e-18
-5.3558e-05 -1.84173e-05 -6.07924e-19
-9.13863e-06 -6.8196e-06 -4.36427e-18
1.46225e-05 6.16787e-07 3.31731e-18
7.57815e-06 -2.65108e-06 2.18348e-18
3.62013e-05 8.42952e-06 -2.16745e-18
1.54403e-06 -1.1324e-05 -2.00672e-18
9.04554e-06 7.39268e-06 3.30571e-19
1.75502e-06 9.05443e-06 -3.10559e-19
1.37898e-05 -2.01556e-06 -8.70116e-19
-1.06497e-05 -1.73644e-07 -2.16339e-18
1.83138e-06 9.31206e-06 1.20855e-18
6.76566e-06 -1.61535e-06 1.5118e-18
6.51055e-06 1.13538e-05 -1.1517e-18
-9.70653e-06 1.2259e-06 -1.57816e-19
-2.3597e-06 -1.39467e-05 -2.4908e-18
2.86307e-05 4.03952e-05 1.08603e-18
1.04151e-05 1.06159e-06 3.66906e-18
7.43996e-06 -7.44849e-06 -2.16865e-18
-9.84961e-06 -2.17484e-06 -1.98578e-18
-4.40179e-07 -7.31223e-06 3.30234e-19
4.15445e-05 -3.25404e-06 2.19682e-18
9.33766e-06 6.77897e-06 -1.70954e-19
-1.64275e-05 -1.33336e-05 -1.77374e-18
3.24507e-05 -8.58461e-06 3.29379e-18
-1.08231e-05 -3.96889e-06 1.71356e-19
3.50468e-06 -2.10615e-05 -4.82981e-19
3.11711e-05 -3.17744e-05 -9.43185e-19
-3.45646e-06 -2.7734e-05 -1.22294e-20
-1.95887e-05 2.43921e-05 1.71072e-19
-2.57451e-05 -1.08635e-05 -6.92292e-19
2.1508e-05 2.81726e-05 -1.71315e-18
-2.96175e-05 -5.7946e-06 -3.50058e-19
9.56597e-06 -7.29428e-06 -1.84662e-18
3.04521e-05 3.311e-05 -2.36571e-18
2.12063e-05 -9.28573e-06 -2.57228e-18
2.19368e-05 -2.71156e-05 1.02989e-18
-1.25211e-05 -3.25353e-05 3.14895e-18
-1.03749e-05 4.18067e-06 1.00681e-18
1.99353e-05 -1.95e-05 1.58231e-18
-1.96698e-05 6.99414e-06 -3.38862e-18
-2.69769e-06 -1.33028e-05 -9.87627e-19
5.18422e-06 1.32674e-05 1.67585e-19
-1.07087e-05 3.87977e-06 -1.6632e-18
-1.18277e-05 1.85968e-05 1.44922e-18
2.14e-05 1.00848e-05 9.7199e-19
1.93333e-05 -6.70647e-06 -3.27647e-19
-1.04028e-05 1.04308e-05 -2.62225e-21
-1.53056e-05 -1.33003e-05 6.49947e-19
-1.40205e-05 -3.42629e-06 -1.02421e-18
-2.90693e-05 1.73089e-05 3.01106e-18
-1.9392e-05 -2.51021e-05 1.70016e-19
4.04507e-06 -2.0016e-05 2.60512e-18
-3.14428e-05 4.28466e-06 -2.60273e-18
4.00133e-06 9.02529e-06 -2.49779e-18
-3.66069e-06 -5.40502e-06 -5.04573e-18
-4.31446e-06 -1.18626e-05 3.59997e-19
3.75352e-05 1.63601e-05 -1.25415e-18
6.14883e-06 1.19772e-05 -1.49871e-18
8.16829e-06 -9.5432e-06 8.41565e-19
-1.1099e-06 -1.37036e-05 -2.52631e-18
3.07358e-06 -5.81285e-06 2.6914e-18
-6.60631e-06 -3.65756e-06 -9.98526e-19
-6.98649e-06 7.78032e-06 5.00454e-18
1.69664e-06 -2.77356e-06 -1.17917e-18
-9.97229e-06 -1.04928e-05 1.54645e-18
-1.41402e-05 3.43491e-06 -4.28241e-18
-2.51875e-06 2.24375e-05 1.92656e-18
-1.17851e-05 7.05447e-06 2.03443e-18
-5.97008e-06 9.53088e-06 4.69035e-18
-3.87795e-05 4.81974e-06 4.73065e-19
5.22388e-06 -1.433e-05 -3.58812e-18
-1.24556e-05 -5.80821e-06 -3.54481e-18
1.2746e-06 7.66409e-06 -1.0041e-18
1.73939e-05 3.34139e-06 6.5262e-18
2.24506e-05 -1.91382e-05 1.92779e-18
1.47568e-05 1.35908e-05 -6.58716e-19
7.98334e-06 -1.93776e-06 3.03199e-18
-2.09041e-05 1.53238e-05 9.61891e-19
2.49604e-05 3.19762e-06 2.10765e-18
-3.60368e-06 3.21027e-05 6.25598e-22
-1.16145e-06 -1.10646e-05 2.67278e-18
1.21041e-05 6.58049e-06 2.69883e-18
1.91727e-05 2.00817e-05 -2.21326e-18
4.25412e-05 2.6445e-05 -1.59214e-18
-3.56943e-06 2.01152e-05 -1.13452e-18
4.44347e-05 -2.49708e-05 -9.08428e-21
-1.80048e-05 3.48988e-06 1.7182e-18
1.19107e-05 7.35074e-06 1.68626e-18
-1.92199e-05 6.39133e-06 5.00695e-19
1.08457e-05 1.88224e-05 -9.60803e-19
6.45619e-06 -2.89695e-05 -2.08272e-18
1.28368e-06 7.65942e-06 6.73874e-19
-9.72954e-06 -1.16603e-05 2.56196e-18
2.01728e-06 1.14901e-05 -1.49969e-18
1.74199e-05 3.47821e-06 2.30779e-18
-1.01457e-05 2.15652e-05 3.07476e-18
2.66728e-05 -8.89017e-06 -1.75216e-18
-2.50469e-06 4.87182e-06 5.04591e-18
6.63899e-06 3.87856e-06 2.17928e-18
-1.48689e-06 -7.43517e-06 -1.51907e-18
2.15175e-06 -1.27488e-05 -1.0216e-18
1.15802e-05 2.57798e-06 5.5248e-18
-5.39884e-06 2.68021e-05 2.87094e-18
-6.52434e-06 1.3224e-07 2.53534e-18
6.18025e-06 7.83701e-06 4.96975e-19
-1.77184e-06 -2.73237e-05 -2.06624e-18
2.76647e-05 8.58441e-06 -4.75917e-19
2.96406e-06 -4.90413e-06 -1.84314e-18
-7.29436e-06 -2.34031e-06 -3.178e-18
-1.89885e-05 -8.07271e-06 -1.79249e-18
1.06466e-05 2.77693e-05 1.905e-18
-2.79509e-05 -9.95613e-06 -9.64997e-19
1.07953e-05 -2.78431e-05 -8.70215e-19
-2.47427e-06 -2.08477e-05 -4.55301e-18
1.44544e-05 3.98946e-07 3.46252e-18
-4.76666e-06 1.22364e-05 1.19465e-18
-1.04646e-06 2.60324e-06 -2.52763e-18
-2.44548e-06 -1.09366e-05 -1.34155e-18
3.50103e-06 -5.61651e-06 1.51572e-18
6.21113e-06 1.0497e-05 -3.041e-19
2.2353e-05 7.29384e-06 3.41351e-19
5.78654e-06 -4.90057e-06 -1.34827e-18
-5.53942e-06 -2.93217e-05 1.61461e-19
1.68333e-05 -1.24188e-05 9.74453e-19
3.30617e-06 1.84455e-05 2.49264e-20
-1.84072e-06 -1.87342e-06 -9.92383e-19
-5.71245e-06 -5.49577e-06 -1.34857e-18
-3.16071e-06 5.21972e-08 -4.03911e-18
-1.49146e-05 1.8416e-05 1.78168e-18
1.29186e-05 -2.50196e-05 -2.26847e-18
-1.74344e-05 2.75532e-05 3.02631e-18
-1.0708e-05 6.22974e-06 3.37304e-19
1.67359e-06 8.17872e-06 -3.38047e-18
-1.5179e-05 -2.36796e-05 6.95893e-19
9.04504e-06 2.19263e-05 4.10215e-21
1.16673e-05 6.15414e-06 -5.0975e-19
1.50618e-05 -5.6797e-06 4.9723e-19
-8.18e-07 -7.4249e-06 -1.62868e-19
-2.1951e-05 -2.01882e-05 -2.24769e-18
-1.80917e-06 7.4326e-06 3.04377e-18
1.14769e-05 6.76697e-06 1.00258e-18
1.25292e-05 -5.90132e-06 5.67652e-18
5.48832e-06 -9.43843e-06 -2.50838e-18
1.60932e-05 -7.13874e-06 -3.76909e-18
1.26001e-05 -5.96631e-06 2.82608e-18
3.14767e-06 1.86344e-07 -3.36427e-18
1.69003e-05 1.33793e-05 3.20746e-19
-1.78375e-06 -1.11581e-05 1.00198e-18
-6.90663e-06 -2.89815e-06 -5.04318e-18
7.49032e-07 -2.55436e-06 -6.82518e-19
-2.10046e-06 1.04462e-05 3.37869e-19
-2.2493e-05 1.77452e-06 1.30556e-18
-7.95844e-06 -2.1576e-05 -4.21505e-18
-5.19224e-06 6.39581e-06 2.52907e-18
8.94442e-06 1.09338e-05 -2.66076e-18
1.74385e-05 -1.24357e-05 1.12655e-18
-2.39411e-05 -1.29772e-05 1.57989e-19
1.13352e-05 -1.81774e-05 3.70408e-18
1.49419e-05 -1.7901e-05 3.2096e-19
-7.17053e-06 2.51174e-06 1.35514e-18
-1.29238e-05 -1.8602e-05 -3.31505e-19
-2.24753e-05 -3.73601e-06 -5.60878e-22
-2.7123e-06 -2.06863e-05 -4.51463e-18
1.0035e-05 -2.07706e-05 3.40306e-18
-6.06057e-06 -1.73758e-05 -5.1261e-19
2.88035e-06 2.05253e-05 -1.13685e-18
-1.04398e-05 -1.84914e-05 8.02861e-19
1.96998e-06 -1.07325e-05 1.59522e-19
-1.6098e-05 1.17231e-05 -1.45701e-18
-9.92023e-06 -8.01376e-06 -1.34552e-18
-1.81232e-05 -3.38171e-06 -4.61015e-18
1.04306e-05 -6.11941e-06 2.67968e-18
-2.84676e-06 1.58723e-05 -1.53911e-18
8.19643e-06 -6.17119e-06 1.00324e-18
-1.91977e-05 -8.41782e-06 1.63039e-19
-5.82313e-06 -4.87298e-06 -6.93316e-21
6.06795e-06 4.95029e-06 3.32787e-19
1.40416e-05 1.88602e-05 1.94324e-18
-1.15005e-05 -7.11905e-06 1.69098e-18
-2.10584e-05 -5.08504e-07 -6.48214e-19
-1.08019e-05 -3.26322e-06 -4.73014e-18
-3.02626e-06 -1.09493e-05 -2.36924e-18
1.18678e-05 1.42855e-05 2.56255e-21
-7.24374e-06 3.8229e-06 -1.16171e-18
4.44538e-07 -1.35578e-05 1.69393e-18
-2.70556e-05 6.9343e-06 -2.24777e-18
1.63785e-05 1.33306e-05 1.46571e-18
2.37068e-06 2.15389e-05 9.66771e-19
-1.58891e-06 2.51919e-06 8.72004e-21
-5.92242e-06 1.65937e-07 -8.24897e-19
2.90731e-06 5.10423e-06 1.50594e-18
-7.73972e-06 2.2786e-06 -4.06418e-18
-1.34106e-06 -2.47643e-06 3.02526e-18
1.11431e-06 1.36926e-05 -2.68202e-18
3.01641e-06 2.5724e-07 -2.86843e-18
-1.27386e-05 3.07472e-06 -3.25492e-19
-1.13686e-05 1.25598e-05 1.47038e-18
-2.03722e-06 7.66982e-06 1.19217e-18
-1.90508e-05 1.18663e-05 -3.52913e-21
-6.19962e-06 5.93059e-06 2.70717e-18
1.15561e-05 -7.81461e-06 1.68899e-18
2.4102e-05 -2.39353e-06 6.57691e-19
-1.40124e-05 7.44096e-06 -1.53067e-18
1.47855e-06 2.99809e-06 3.52899e-18
1.46341e-05 -2.84746e-06 2.54935e-18
-1.1369e-05 6.83429e-06 2.19071e-18
-6.47828e-06 3.64782e-06 3.19566e-18
7.97153e-06 2.56422e-06 -1.73563e-19
1.44149e-05 -8.93695e-06 -1.47791e-18
-1.14469e-05 6.51018e-06 3.54181e-18
-1.62671e-05 -3.41984e-06 -4.86162e-19
-1.10519e-05 -2.84902e-06 -5.25117e-18
6.67473e-06 5.17812e-08 -3.4792e-19
6.83865e-06 8.63407e-08 1.55044e-19
2.91216e-06 5.4982e-06 3.23105e-18
3.21155e-06 -5.81614e-06 6.62451e-19
-3.30503e-06 5.59626e-06 3.37262e-18
-3.46355e-06 -5.72735e-06 -3.20093e-19
6.59769e-06 -4.97631e-06 -2.35302e-18
-1.34997e-05 2.15992e-06 -8.17662e-18
-1.3348e-05 -2.2027e-06 5.11493e-19
-8.52779e-06 1.05483e-05 3.39592e-19
-8.57619e-06 -1.05892e-05 5.11483e-19
4.99727e-06 -1.33852e-05 -2.22785e-18
4.81463e-06 1.32708e-05 -1.71052e-18
9.71213e-07 1.69892e-05 4.96332e-19
7.5273e-06 -2.02798e-06 -1.01168e-18
1.62753e-06 -2.53393e-06 2.67891e-18
-1.39123e-05 9.32793e-07 -2.64905e-18
5.15989e-06 -1.31697e-05 -1.19345e-18
4.88898e-06 1.32173e-05 -8.44453e-19
3.18562e-06 -5.92437e-08 1.84195e-18
5.84066e-06 1.60658e-05 1.66321e-19
-1.48355e-06 -2.64094e-06 -2.02264e-18
1.56399e-06 -7.4599e-06 -5.01309e-19
-1.4598e-05 -7.83165e-06 1.59938e-19
-1.41432e-05 -7.5729e-06 1.7067e-19
-1.42906e-05 8.83446e-06 1.80941e-18
2.15915e-06 -8.28442e-06 2.19962e-18
-1.05407e-06 2.21419e-06 1.70382e-18
-4.72194e-07 -1.67016e-05 -1.3141e-18
-5.14042e-06 -1.59002e-05 1.79776e-18
2.14873e-05 2.00181e-05 -6.37957e-19
2.3447e-05 -1.21295e-06 -1.57153e-19
-8.43261e-06 -2.44333e-06 5.16099e-19
-1.4976e-05 -2.66668e-05 -2.5652e-18
5.50316e-06 9.04091e-06 5.04534e-19
-1.63967e-05 1.93481e-06 1.79659e-18
1.32924e-05 3.80896e-06 7.26733e-21
-2.98141e-06 -1.25168e-08 1.68909e-18
-3.07282e-06 -5.56857e-06 6.72448e-19
-5.43726e-06 -2.58692e-05 1.55646e-18
-6.44041e-06 -3.30054e-08 -5.39093e-18
-3.11291e-05 -1.1685e-06 -2.56315e-18
1.1364e-05 -1.26326e-05 1.62807e-18
1.65653e-06 2.6261e-06 -8.87985e-21
-7.46922e-08 -1.15345e-05 -2.33979e-18
-6.5266e-06 1.5673e-05 3.26774e-18
-2.88956e-06 5.71213e-06 6.65824e-19
1.35917e-05 -8.9839e-06 1.65129e-18
-2.5118e-05 -8.20644e-06 -2.95448e-18
-1.00218e-05 -1.32273e-05 -9.22673e-22
3.33251e-06 5.62609e-06 4.21142e-18
1.1131e-05 3.36709e-06 -1.36318e-18
-3.13541e-06 -4.80053e-06 -3.41164e-19
1.33311e-05 2.42476e-06 -2.55716e-18
1.21732e-05 -6.53646e-06 1.68606e-18
-2.5077e-07 1.79871e-05 2.06883e-18
5.52815e-06 -8.99181e-06 5.00822e-19
3.21693e-05 1.37651e-06 1.91102e-18
-2.73292e-05 7.12149e-06 -1.27329e-18
1.5379e-05 7.68299e-06 -1.70811e-19
-4.24048e-06 -1.12047e-05 1.99211e-18
-1.00742e-05 -5.63363e-06 -3.6896e-18
1.898e-05 -1.57143e-07 -4.86576e-19
-4.78581e-07 -1.60803e-05 -4.0858e-18
-8.26664e-06 -7.17275e-06 -2.51796e-18
6.67538e-06 -1.54835e-05 -2.32389e-21
-3.62008e-07 1.3555e-05 -2.51527e-18
5.1392e-06 1.70792e-05 -2.29341e-18
1.14993e-05 -6.60043e-06 -2.63209e-21
-1.23742e-05 1.24698e-05 -1.96627e-18
1.08432e-05 1.32181e-05 -9.76786e-19
-4.32784e-05 1.03246e-05 -7.25175e-19
-6.73569e-06 1.72509e-05 2.90997e-18
8.3159e-06 -1.01071e-05 1.53655e-19
-4.63944e-06 -1.21824e-05 3.59895e-18
-7.82958e-06 2.92142e-06 3.54117e-18
-1.67754e-05 -4.57292e-06 -8.27154e-19
-4.46159e-06 2.60724e-05 2.4419e-18
-8.28506e-06 7.88977e-06 2.70908e-18
1.37497e-05 -3.00872e-06 2.99923e-18
-4.5151e-06 -1.68185e-05 -4.79169e-22
-9.73661e-06 1.54987e-05 -2.28674e-18
-1.4422e-05 8.30617e-06 1.54433e-18
-1.34113e-05 -9.77006e-06 3.28663e-19
1.21144e-05 -1.39569e-05 3.75182e-18
-1.78121e-05 -9.44358e-07 -3.44049e-18
7.85834e-06 -2.6936e-05 9.48952e-19
1.27734e-05 -1.24513e-05 3.27434e-19
1.6088e-05 2.82665e-05 -3.51438e-18
1.29227e-06 1.31388e-05 -6.49616e-19
1.90528e-06 -1.66882e-05 -3.27609e-19
-2.81554e-05 3.30482e-05 -1.4123e-18
-8.3062e-06 -1.58453e-05 3.27739e-19
1.10007e-05 -4.26617e-06 -6.79707e-19
-1.67646e-06 1.68223e-05 1.9692e-18
8.60981e-06 -7.98161e-06 6.77585e-19
9.09355e-06 1.59522e-05 -2.13217e-18
1.1416e-05 -9.64899e-07 8.45172e-19
1.40857e-05 -4.12524e-05 4.76854e-19
-3.86499e-06 -8.4169e-06 6.6013e-19
-1.50894e-05 6.48326e-06 1.15125e-18
-1.32921e-05 1.24189e-05 -3.39641e-19
1.42284e-05 9.6254e-06 1.96799e-18
1.2357e-05 -7.15095e-06 1.65819e-19
9.95228e-06 8.40893e-06 1.69501e-18
-3.61397e-06 -2.3518e-09 4.38923e-18
1.01001e-05 -1.51638e-05 8.19629e-19
-1.10849e-05 -1.3204e-05 -1.97042e-18
1.489e-05 6.46558e-06 -3.28636e-19
8.56479e-06 -8.04404e-06 1.69636e-18
6.22219e-06 -1.62916e-05 -1.67317e-19
1.10687e-05 -4.66829e-06 1.67846e-18
-1.03439e-05 -4.92326e-06 2.00592e-18
8.75631e-07 -1.74055e-05 8.49462e-19
-1.69225e-05 2.9035e-06 -8.20302e-19
1.49997e-06 1.60672e-05 1.81711e-18
1.36173e-05 4.39335e-06 -1.54354e-19
-1.41303e-05 -6.95822e-06 2.47228e-18
-5.906e-06 1.66918e-05 5.02254e-19
-9.97746e-07 -1.58392e-05 7.99209e-21
1.30302e-05 7.9088e-06 -2.0468e-18
-1.15167e-06 1.18948e-05 1.69325e-18
-1.31461e-05 8.84792e-06 2.15224e-18
1.55391e-05 7.52164e-06 4.2637e-18
-1.12068e-05 -6.57735e-06 2.5258e-18
9.20082e-08 -1.30536e-05 -8.37121e-19
1.21029e-05 1.31376e-05 -2.62643e-18
-1.46233e-05 -9.44944e-06 -3.94621e-18
3.18418e-05 -2.2785e-05 -1.08511e-18
1.18984e-05 -7.16534e-06 1.50162e-18
5.68126e-06 2.81457e-05 -2.56708e-18
1.12943e-05 -9.02235e-06 1.65902e-18
-1.4828e-05 5.71805e-05 -2.82819e-18
-1.49053e-05 -5.66363e-05 -5.90437e-19
3.722e-05 4.86567e-05 -2.01454e-22
3.67721e-05 -4.86448e-05 4.71499e-21
6.07742e-05 -2.9716e-08 -1.36165e-19
-5.2297e-05 2.11873e-05 1.44012e-19
-5.14482e-05 -2.14087e-05 1.03142e-18
8.1844e-06 7.89712e-06 5.12721e-19
1.97724e-05 1.47182e-05 -1.03256e-18
7.60793e-06 2.20774e-06 2.34842e-18
1.25023e-05 6.43321e-06 -2.65117e-18
3.25707e-06 1.32722e-05 1.98416e-18
-1.22885e-05 -9.68771e-06 1.80862e-18
1.13882e-05 -6.75963e-06 2.18059e-18
1.31243e-05 9.58052e-06 -1.32141e-18
-2.10597e-06 1.59527e-05 3.30663e-18
1.98688e-05 -1.35145e-05 3.95719e-18
2.43228e-06 -1.55512e-05 -2.7973e-18
1.47171e-05 3.41073e-06 1.347e-18
1.96735e-05 7.30112e-06 -1.13748e-18
9.43265e-06 9.37062e-06 5.50897e-19
1.05454e-05 4.36358e-06 1.00776e-18
-1.21034e-05 7.12722e-06 1.50132e-18
-1.46898e-05 5.87463e-06 -1.6434e-18
1.54431e-05 -7.53581e-06 4.10456e-18
-1.19367e-05 -6.54016e-06 -1.8401e-18
-1.21224e-05 -6.8635e-06 1.15864e-18
-2.18781e-07 -1.36425e-05 1.17519e-18
-9.86279e-08 -1.38686e-05 -1.8208e-18
-1.31093e-05 -6.58389e-07 -4.61394e-18
1.76549e-05 -2.67854e-06 4.96836e-19
1.19759e-05 7.50528e-06 -2.31934e-18
-1.17149e-05 7.11016e-06 -6.6136e-19
-1.01272e-05 1.10117e-05 -2.04101e-18
1.05796e-05 -9.10552e-06 -3.30949e-18
-7.26886e-06 1.13746e-05 4.13287e-18
-9.31518e-06 -9.6934e-06 1.63057e-19
-8.11155e-07 1.38864e-05 1.17022e-18
-8.46814e-07 1.37733e-05 2.50925e-18
3.45287e-08 -1.30576e-05 1.68443e-18
4.01272e-06 -1.29924e-05 1.66384e-19
-1.12608e-05 -6.48495e-06 1.51252e-18
1.03446e-05 -3.66271e-06 3.00937e-18
4.18322e-07 1.41101e-05 8.36438e-19
1.70222e-07 1.21629e-05 -2.33348e-18
-1.57238e-06 1.10412e-05 2.6822e-18
1.4487e-05 -3.66429e-06 1.1604e-18
-1.09664e-05 3.50082e-06 5.59007e-18
2.69563e-06 1.41234e-05 -4.15118e-18
-2.17217e-05 8.5206e-06 8.56227e-19
6.16642e-06 2.75205e-05 -3.16214e-18
-1.12744e-05 2.98107e-06 -1.00527e-18
1.32184e-05 -7.82013e-06 1.6813e-19
5.78081e-07 1.38055e-05 -1.99807e-18
-1.33345e-05 4.37354e-06 2.49495e-18
1.61867e-06 -1.07069e-05 -1.01582e-18
5.98106e-07 -3.81389e-05 -7.71446e-19
1.31324e-06 1.15137e-05 -8.29808e-19
-1.11144e-05 9.09291e-06 3.66373e-18
1.1352e-05 4.17854e-05 6.36126e-19
3.15162e-05 2.61371e-05 -1.75728e-18
3.61277e-05 -2.47187e-05 -3.64382e-19
9.84473e-06 -6.74649e-06 -1.50819e-18
-1.03564e-05 9.13235e-06 2.48799e-18
-1.31634e-05 -5.17341e-06 3.29907e-19
-1.28057e-05 -4.42022e-06 1.32755e-22
4.44159e-05 -1.22042e-05 -1.78877e-18
4.53069e-05 9.52667e-06 2.65753e-18
7.2371e-06 2.52473e-06 1.34092e-18
4.74034e-07 1.28913e-05 -3.51438e-18
4.88456e-08 1.28826e-05 -3.84412e-18
-3.17725e-05 -2.32484e-05 -2.94668e-18
7.52259e-06 -1.13314e-05 -3.33643e-19
7.84135e-06 8.35749e-06 1.74418e-19
-1.39153e-05 -2.21969e-06 -1.32095e-18
-9.20427e-06 1.11719e-05 3.49052e-18
-1.23406e-05 5.9416e-06 1.66207e-18
3.14451e-05 2.25558e-05 -1.38578e-18
1.05605e-05 4.67768e-06 1.52232e-19
-3.70869e-06 1.30788e-05 5.12443e-18
-1.11325e-05 -7.63623e-06 -2.51045e-18
1.19137e-06 -1.35013e-05 3.38459e-19
-5.85937e-06 -1.25747e-05 -8.30009e-19
-1.12708e-05 -7.66898e-06 -2.66598e-18
6.9571e-06 -1.24421e-05 3.28276e-19
9.33754e-06 -1.11742e-05 6.59125e-19
-1.9417e-06 -3.99098e-05 3.15381e-19
1.70198e-05 -2.69969e-05 3.52301e-18
1.14351e-06 -1.36572e-05 -9.89045e-19
1.19269e-05 7.48171e-06 6.69275e-19
-9.48373e-06 -9.67659e-06 -2.16621e-18
-6.45918e-06 1.28464e-05 4.64918e-18
-3.3151e-06 1.37444e-05 6.75545e-19
1.10081e-05 9.36569e-06 4.98242e-19
3.96274e-06 -1.30452e-05 5.02566e-19
-9.13835e-06 -2.61688e-05 6.27021e-19
-1.35729e-06 1.66092e-05 1.91997e-19
9.75996e-06 9.54387e-06 -3.30099e-19
-8.50144e-06 -6.71442e-06 -2.18569e-18
-8.91485e-06 6.98375e-06 -8.41688e-19
2.92873e-05 -1.25889e-05 -6.31993e-19
4.99973e-06 -8.81717e-06 1.16375e-18
-5.47394e-06 -8.23559e-06 2.32705e-18
1.43536e-05 4.37466e-06 -1.74559e-19
8.8201e-06 -3.1821e-05 -1.23352e-18
-2.31528e-05 -2.35288e-05 5.28213e-19
1.56532e-05 4.10695e-06 -1.3741e-18
-6.14264e-06 -1.19117e-05 -1.48503e-18
1.24015e-05 6.29925e-06 -2.49983e-18
-1.88507e-05 -2.09302e-05 -3.2319e-19
7.14262e-06 3.23559e-05 2.00465e-19
3.13452e-05 -4.04822e-05 3.41069e-19
-1.93878e-05 -4.73768e-05 2.30654e-18
1.77715e-05 -3.47428e-05 -6.09192e-19
-8.42421e-06 2.89105e-05 -1.03359e-18
-4.79749e-06 2.56074e-05 1.75688e-18
-1.22607e-05 5.86227e-06 1.33537e-18
4.00207e-06 1.60585e-05 -2.53674e-18
-1.58682e-06 8.28399e-06 2.86434e-18
6.74078e-06 2.15376e-06 -6.69198e-19
-2.12417e-06 1.07229e-05 4.28047e-21
-1.62555e-07 1.38697e-05 -4.7246e-18
1.10787e-05 6.45362e-06 -6.66253e-19
5.54041e-07 3.79585e-05 -2.78134e-18
-9.66564e-06 6.97965e-06 4.85442e-18
1.06468e-05 -4.11841e-06 3.53586e-18
1.1346e-05 -2.95718e-06 3.36608e-19
-3.89094e-05 -5.58851e-06 2.34563e-18
-2.29552e-05 1.0922e-05 -2.78297e-18
-2.82368e-05 -3.34801e-05 -3.15266e-19
5.72798e-06 5.50073e-06 3.52271e-20
9.45129e-06 4.87022e-06 4.04153e-18
1.76811e-05 -2.81769e-06 1.314e-18
-5.31474e-06 -8.6522e-06 1.59195e-19
1.14348e-05 5.61234e-06 1.68483e-18
4.88273e-06 -1.99468e-05 -2.92443e-18
-9.05514e-06 6.654e-06 3.02789e-18
-1.48265e-05 -1.42002e-05 1.89322e-18
-3.83395e-06 1.06706e-05 1.68768e-18
-2.19542e-06 1.36676e-05 -1.51227e-18
2.29288e-05 1.4241e-05 1.90662e-18
2.44454e-05 -1.29736e-05 -8.77633e-19
-2.71724e-05 -7.31819e-06 2.94583e-21
5.0749e-06 5.12986e-06 -1.17725e-18
-3.18615e-06 6.63749e-05 -1.0857e-18
-1.60302e-08 -6.81799e-05 -1.85009e-18
3.36042e-05 5.75087e-05 -3.70404e-18
-1.26316e-05 5.52395e-06 3.72414e-18
-1.80255e-05 3.63962e-05 -1.86256e-18
3.38106e-05 -5.55071e-05 9.08875e-22
-7.67578e-06 -1.18815e-05 -3.1503e-18
5.14095e-05 4.47592e-05 -5.08728e-18
1.59627e-05 -1.18812e-05 -2.77054e-18
-2.32565e-06 -1.97546e-05 1.6826e-20
5.38663e-05 -4.37667e-05 -9.29532e-19
-4.4591e-06 9.48894e-06 5.16456e-18
-3.45122e-05 -2.19252e-05 -7.91249e-19
-2.84288e-05 -5.93574e-05 -1.70571e-18
-1.6094e-05 -3.75655e-05 -6.27605e-19
-2.92267e-05 6.033e-05 -2.63413e-18
-6.92061e-06 4.17426e-05 1.60147e-19
1.06878e-05 2.48325e-05 7.2336e-19
-1.85207e-05 2.37998e-05 3.46177e-18
-1.72482e-05 -3.54312e-05 -4.63894e-19
6.61461e-05 1.16052e-05 -7.51085e-19
-1.11377e-05 7.00682e-06 2.68835e-18
-3.93088e-06 1.07861e-05 2.04823e-18
-3.27311e-05 2.35733e-05 1.25302e-18
-1.13463e-05 6.51191e-06 6.80153e-19
6.54946e-05 -1.03464e-05 1.69694e-18
-1.01151e-05 5.09043e-06 4.87859e-18
4.76283e-06 -9.55893e-06 -1.16712e-18
-5.08577e-05 -3.875e-05 -4.32598e-18
-1.73386e-05 3.75998e-05 -1.0947e-18
-5.20698e-05 3.84728e-05 -4.59182e-19
1.57185e-05 3.46135e-05 -3.25022e-18
-9.70717e-06 6.90159e-06 2.1725e-18
-1.35865e-05 1.63166e-05 1.89345e-18
-2.41716e-05 3.03547e-05 1.06456e-18
-3.78985e-05 -4.88932e-06 -3.01629e-18
-6.31394e-07 1.07499e-05 5.14491e-19
-2.56024e-05 -3.04822e-05 6.53394e-18
-3.92111e-05 6.9372e-06 -3.89744e-18
-1.49342e-05 3.46441e-05 4.77215e-18
-1.15285e-05 4.61248e-05 3.00458e-18
-1.20858e-05 2.6791e-05 2.36911e-18
-2.23749e-05 1.80272e-05 -1.39091e-18
1.64466e-05 -4.05258e-06 -8.61103e-19
2.56931e-05 -1.39381e-06 2.75252e-18
8.98504e-06 5.45547e-06 -3.28246e-19
-8.09966e-06 -5.30672e-05 2.62734e-18
-5.00169e-05 -1.95062e-05 -1.2264e-18
2.50194e-05 3.41718e-07 8.55357e-19
3.87176e-05 -7.47454e-06 4.67797e-19
-6.93837e-06 -8.80916e-06 -1.66833e-18
-3.35977e-05 2.36193e-05 -1.54643e-18
-3.01098e-05 3.44892e-05 1.50879e-19
4.09284e-05 -1.47476e-05 2.37264e-21
-1.86896e-05 -3.16721e-05 5.40726e-18
-1.90242e-05 3.14274e-05 3.13602e-18
-3.69147e-05 -1.30514e-06 5.13534e-19
-1.67915e-05 3.30191e-05 1.22684e-18
-3.67967e-05 3.79584e-07 -3.84328e-18
4.57615e-05 1.63887e-05 1.59076e-19
3.69447e-05 1.35677e-06 3.13065e-18
3.47284e-05 -1.77931e-05 1.5889e-19
1.01255e-05 -4.88147e-05 -1.77455e-18
1.83594e-05 -3.19777e-05 -2.44198e-18
1.82348e-05 3.19742e-05 6.98177e-19
9.91583e-06 4.76963e-05 4.24392e-18
4.99764e-05 -1.40921e-05 4.93554e-18
3.20433e-05 1.58716e-05 2.63661e-18
3.0804e-05 8.41703e-06 1.68826e-19
P_ext 3 563 float
-1.09831e-06 3.71368e-07 -8.6855e-20
1.04248e-09 4.06811e-08 3.48564e-20
-1.01209e-07 -9.5177e-08 1.5397e-20
-3.20159e-08 2.95532e-08 1.44304e-19
2.79352e-08 5.32954e-10 6.62277e-20
3.3309e-08 -1.35185e-07 2.10704e-20
-1.08136e-06 -3.75861e-07 -4.08494e-20
-7.93483e-08 -9.0013e-08 -3.17703e-20
2.2072e-07 3.90991e-09 2.36843e-20
8.05861e-08 -7.57115e-09 -6.5088e-20
7.14918e-07 1.67565e-07 -5.09164e-20
3.92948e-08 -1.15035e-07 -4.17737e-20
9.00547e-08 1.07194e-07 -5.19627e-21
-9.27524e-09 8.39742e-08 2.66206e-20
2.52306e-08 9.3449e-09 3.39431e-20
-1.41099e-07 -2.3098e-09 7.6813e-21
-1.7627e-08 5.53388e-08 2.16861e-20
8.50571e-08 -1.28344e-08 -5.00504e-21
9.76955e-08 1.74231e-07 6.66332e-20
-1.31073e-07 1.32183e-08 6.74494e-20
-4.92058e-08 -1.85652e-07 -2.60092e-20
1.62196e-09 3.39366e-10 -2.41439e-20
1.45173e-07 1.18195e-08 3.42436e-20
9.24232e-08 -1.06712e-07 -6.24153e-20
-1.33895e-07 -2.15613e-08 -2.54746e-21
-2.52397e-08 -7.3274e-08 2.33635e-20
8.21899e-07 -6.72352e-08 5.14767e-20
1.00703e-07 8.48989e-08 9.33966e-20
-3.00729e-07 -2.38882e-07 -6.78711e-20
1.76742e-08 3.32392e-09 1.48729e-19
-1.34443e-07 -2.39437e-08 -6.23962e-20
5.87751e-08 -3.82461e-07 5.50896e-20
6.17622e-07 -6.32522e-07 -1.96495e-20
1.31654e-09 -2.90101e-08 2.9312e-20
-7.80761e-09 2.23105e-08 -4.85554e-20
-2.4216e-08 -1.5954e-08 -6.46127e-20
3.20836e-09 1.60182e-08 -5.9102e-20
-2.44851e-08 4.16908e-09 2.95074e-20
9.72497e-08 -1.05766e-07 -2.63483e-20
6.02682e-07 6.5918e-07 -6.37423e-20
3.84981e-07 -1.7442e-07 -1.12914e-19
5.95832e-09 -1.46686e-08 1.06455e-20
-9.64023e-09 -1.28485e-08 -2.64012e-20
-1.33555e-07 2.74351e-08 5.99454e-20
3.81941e-07 -3.75083e-07 -6.12856e-20
-3.55893e-07 1.28103e-07 9.75259e-21
-4.49652e-08 -1.96218e-07 -1.18302e-19
8.11333e-08 1.97085e-07 6.9698e-20
-1.28108e-07 3.35004e-08 -5.71736e-20
-2.20429e-07 3.42845e-07 -4.4863e-20
3.90729e-07 1.9135e-07 1.25945e-20
3.39281e-07 -1.11589e-07 -3.04287e-20
-9.99769e-09 2.37595e-08 -7.73628e-20
-2.65511e-07 -2.38258e-07 2.27154e-20
-2.60641e-08 3.44115e-09 -1.59943e-20
-5.69458e-07 3.34417e-07 -3.43205e-20
-7.24994e-09 -2.22173e-08 1.6125e-20
7.56057e-08 -3.5062e-07 2.82062e-20
-2.26438e-08 -4.93189e-09 -5.15402e-20
5.93201e-08 1.18941e-07 1.26473e-20
-3.16549e-08 -9.60829e-09 -6.0532e-20
-3.34237e-08 -3.13979e-08 -2.33479e-20
7.41068e-07 3.26263e-07 5.40008e-20
-6.35027e-10 6.47287e-08 -2.21487e-21
1.00061e-08 -4.31883e-08 5.53759e-20
1.68064e-08 -9.60811e-08 -2.64318e-20
-6.66837e-09 -3.14599e-08 1.10274e-19
-7.6894e-08 -1.9543e-08 -4.16873e-20
-8.95101e-08 1.09521e-07 8.35583e-20
2.40056e-08 -8.71747e-09 -5.39383e-21
-9.86113e-09 -2.44436e-08 6.95181e-20
-2.57789e-08 -3.77817e-09 3.43015e-20
-4.43642e-08 4.11015e-07 7.66569e-21
-7.8977e-08 3.98914e-08 7.39765e-20
-7.66176e-08 1.3105e-07 1.53883e-19
-7.70613e-07 9.05795e-08 -6.81702e-20
3.59445e-11 -6.10368e-08 -3.0949e-21
-7.41971e-08 -6.21643e-08 -7.91272e-20
3.12416e-08 7.62385e-08 4.16402e-20
2.95359e-07 5.90478e-08 5.14853e-20
4.23303e-07 -3.68306e-07 -2.46443e-20
1.16078e-08 2.84223e-08 -9.04851e-20
2.86389e-08 8.88563e-09 1.05672e-20
-3.94419e-07 2.91808e-07 -9.81224e-21
4.60405e-07 5.59747e-08 8.07512e-20
-6.97822e-08 6.24016e-07 -3.92819e-20
-2.41926e-08 -1.25071e-07 1.06868e-20
8.49327e-08 5.9818e-08 -5.08166e-21
3.67377e-07 3.87427e-07 -3.2214e-20
6.65784e-09 2.96451e-09 -3.31637e-20
-7.08067e-08 3.52602e-07 3.03302e-20
6.01413e-09 -3.22375e-09 -1.93465e-20
-4.25223e-08 2.89984e-08 4.81399e-20
9.17915e-08 3.73578e-08 -2.86741e-20
-3.39515e-07 1.04959e-07 5.34243e-20
1.97054e-07 3.46256e-07 -2.00607e-20
1.22589e-07 -5.53487e-07 1.73453e-20
2.88184e-08 7.55557e-08 -1.29421e-20
-5.21482e-08 -3.10308e-08 -7.66176e-20
4.32059e-08 1.38186e-07 3.90307e-20
2.87276e-07 4.8886e-08 5.61474e-21
-1.90698e-07 3.93974e-07 -3.24256e-20
5.06928e-07 -1.65679e-07 -4.98775e-20
-2.81328e-08 6.14222e-08 1.46783e-19
5.39208e-08 5.47605e-08 5.33228e-21
-3.20465e-08 -7.3931e-08 3.62258e-20
-1.28902e-08 -5.63316e-08 2.34776e-20
1.49128e-07 1.78788e-08 8.65254e-20
-1.08765e-07 5.0877e-07 -6.91832e-20
-2.51599e-08 1.55198e-08 4.49346e-20
7.43846e-08 1.10233e-07 5.95178e-20
-3.67784e-08 -5.221e-07 -4.46999e-20
5.28169e-07 1.58584e-07 3.70998e-20
3.59633e-08 -6.35502e-08 -2.6257e-20
-8.21062e-08 -9.39308e-09 7.72875e-21
-3.37818e-07 -1.35589e-07 -2.71371e-21
1.67081e-08 1.78721e-08 -1.87034e-20
-5.366e-07 -1.87662e-07 -1.98995e-20
1.6962e-08 -1.78226e-08 3.21666e-20
-5.2178e-08 -3.66882e-07 -1.06691e-19
2.26441e-07 8.59278e-09 -7.13933e-21
-2.01707e-08 1.72149e-08 -5.27374e-20
5.41324e-09 2.47312e-08 -5.00547e-20
1.51471e-08 -6.63418e-08 -7.88056e-20
2.63128e-08 -1.23072e-08 2.77378e-21
4.9349e-10 2.66543e-08 -9.2067e-20
2.30099e-08 -2.87225e-09 8.00249e-21
4.29216e-08 -6.33189e-08 1.01796e-20
-1.09869e-07 -5.60374e-07 -2.24972e-20
2.90259e-07 -2.23443e-07 -6.57651e-20
9.4119e-10 3.53682e-08 2.18212e-20
-2.44774e-08 -4.42839e-09 1.02049e-19
-7.96692e-09 -2.73792e-08 -7.63074e-20
-2.01857e-08 -1.42475e-08 4.64726e-20
-2.71351e-07 3.39085e-07 -2.73918e-20
-3.11741e-10 -2.69385e-08 -5.98285e-20
-3.39416e-07 5.32938e-07 -7.24832e-21
-1.27574e-07 5.86696e-08 -7.02263e-20
1.79398e-08 1.93487e-08 -6.34072e-20
-2.31926e-08 -1.35611e-08 -1.0504e-19
1.65498e-07 3.99424e-07 -5.06514e-21
9.54995e-08 8.51105e-08 6.25451e-20
2.31783e-07 -7.64393e-08 -6.39737e-20
1.30432e-08 -7.13243e-08 -2.60373e-20
-4.20531e-07 -3.87512e-07 -6.00744e-20
-4.05514e-08 7.00839e-08 7.90348e-20
1.05303e-07 5.61701e-08 4.43552e-20
1.53978e-07 -5.30118e-08 3.95347e-20
6.6497e-08 -1.32837e-07 -5.22293e-20
2.63593e-07 -1.21546e-07 -5.90179e-20
1.75381e-07 -8.27821e-08 -2.53594e-20
1.76271e-08 -1.46081e-08 2.83219e-20
3.05739e-07 2.41836e-07 3.25347e-20
-4.42603e-08 -1.27999e-07 -1.04285e-20
-5.43648e-08 -4.65112e-08 -3.18994e-20
-8.88645e-09 -2.33305e-08 3.36571e-20
1.22087e-08 9.13294e-08 2.62379e-20
-4.08935e-07 2.93189e-08 4.80933e-20
-1.4939e-07 -3.90366e-07 -1.08799e-19
-6.43414e-08 8.20139e-08 1.56766e-19
1.26521e-07 1.68615e-07 -1.32647e-20
3.14694e-07 -2.23202e-07 -9.52616e-20
-4.60031e-07 -2.45958e-07 -2.96038e-20
2.04659e-07 -3.33166e-07 4.04146e-20
2.66498e-07 -3.27812e-07 -7.5871e-21
-7.84968e-08 7.7765e-09 6.56325e-20
-2.33951e-07 -3.38547e-07 -8.09358e-20
-4.09522e-07 -6.4184e-08 -7.59899e-21
-4.88056e-08 -3.7372e-07 -1.79919e-20
1.82178e-07 -3.76546e-07 5.57865e-20
3.80886e-09 -5.17722e-08 -2.92407e-20
5.41369e-08 3.60536e-07 -5.06632e-20
-1.9286e-07 -3.37386e-07 1.50122e-20
-1.80909e-08 -8.27959e-08 6.79941e-20
-2.78797e-07 2.08719e-07 -1.01655e-20
-5.46269e-08 -1.79108e-08 -1.26321e-19
-4.25609e-08 -2.92484e-08 1.01807e-20
1.11282e-07 -5.70704e-08 4.19223e-20
-1.53155e-08 2.16854e-08 -8.00657e-20
5.91503e-08 -7.4658e-08 7.31411e-20
-3.4691e-07 -1.5428e-07 7.50232e-21
-4.5959e-08 -6.18973e-08 -2.10443e-20
4.80327e-08 6.56629e-08 -7.83593e-20
2.50851e-07 3.46264e-07 1.27927e-20
-8.88038e-08 -4.09513e-08 -1.55647e-20
-3.85895e-07 -8.68243e-09 4.47829e-20
-4.94722e-08 -4.58788e-08 5.99638e-20
-2.81686e-09 -6.64493e-08 -2.38692e-20
4.84594e-08 2.44431e-08 -3.70848e-20
-5.58862e-08 5.50855e-08 9.94036e-20
-9.33322e-09 -9.78165e-08 1.86241e-20
-5.15129e-07 1.26889e-07 -6.25037e-20
2.82389e-07 2.40904e-07 4.31218e-20
3.77324e-08 3.92346e-07 -1.24604e-20
-2.2752e-08 7.82339e-09 1.06271e-20
-7.59033e-08 2.35861e-09 5.21956e-20
3.48476e-08 6.65312e-08 -1.80873e-20
-2.75892e-08 -6.77285e-09 -1.8897e-20
3.26343e-09 -2.3519e-08 2.93829e-21
-1.51777e-08 1.03539e-07 -2.87541e-20
1.68214e-08 1.7722e-08 -4.4947e-20
-1.91723e-07 4.23808e-08 5.22358e-21
-1.94434e-07 2.12151e-07 -7.30947e-20
-2.0994e-08 1.94835e-08 -2.35262e-21
-3.51747e-07 2.12285e-07 -1.20446e-19
-9.03362e-09 2.99798e-08 1.60437e-20
9.49448e-08 -3.40128e-08 3.95904e-20
4.40929e-07 -4.05661e-08 9.08706e-20
-5.5282e-08 3.498e-08 1.30572e-20
2.23551e-08 1.03073e-08 -3.10124e-20
5.75395e-08 -3.60051e-08 5.84239e-20
-9.87073e-08 3.29005e-08 -4.98317e-21
-7.18339e-08 1.88333e-08 3.43531e-20
2.52635e-08 -7.37805e-09 1.15689e-19
2.33603e-07 -1.42068e-07 -4.59639e-20
-9.19439e-08 5.86236e-08 -1.52735e-20
-2.74632e-07 -5.7269e-08 -5.06678e-21
-5.83776e-08 -3.07357e-08 -3.4729e-20
2.23316e-08 -1.48232e-08 5.99224e-20
2.47374e-08 1.73768e-08 1.02381e-20
-6.24137e-09 2.81224e-08 -6.77671e-21
-2.53171e-09 -3.173e-08 7.70605e-21
-2.57475e-08 1.31634e-08 2.40519e-20
-2.88156e-08 -1.47645e-08 2.92144e-21
7.21862e-08 -2.72839e-08 -8.0857e-21
-2.64178e-08 -7.26369e-09 -3.79816e-20
-2.63617e-08 6.99653e-09 -3.69527e-20
-6.4991e-09 2.61902e-08 -1.3213e-20
-7.05549e-09 -2.67642e-08 1.59657e-20
1.74199e-08 -1.95062e-08 1.84427e-20
1.67475e-08 1.86689e-08 -5.87396e-20
1.01056e-08 2.78782e-07 3.08009e-20
5.40969e-08 -4.46218e-08 -2.8913e-20
1.26257e-08 -2.38104e-08 6.79572e-20
-2.10252e-07 7.77157e-09 7.53133e-21
1.9966e-08 -1.89581e-08 2.10833e-20
1.86414e-08 1.92531e-08 -5.30496e-21
2.85988e-08 -6.22206e-10 -1.5513e-20
9.65104e-08 2.73189e-07 -5.03799e-21
-1.44696e-08 -2.36634e-08 3.08392e-20
3.12875e-08 -7.16127e-08 -1.05103e-20
-2.34626e-07 -1.29813e-07 -7.14757e-20
-5.15661e-08 -3.34739e-08 -8.9892e-20
-2.35482e-07 1.39663e-07 5.13898e-20
2.0886e-08 -2.14167e-08 4.49511e-20
-1.001e-08 2.22489e-08 1.04939e-19
-5.50705e-09 -2.69959e-07 -1.04205e-20
-8.83803e-08 -2.67373e-07 -2.00879e-20
4.05194e-07 3.85647e-07 -2.36317e-21
4.3341e-07 -2.46119e-08 4.47692e-20
-3.07513e-08 6.69573e-09 2.85819e-21
-2.89863e-07 -5.1223e-07 -5.01405e-20
6.91226e-08 1.18517e-07 2.69976e-21
-2.77866e-07 3.27267e-08 -4.80468e-20
1.99486e-07 5.57819e-08 8.52128e-23
-2.72596e-08 -1.1026e-10 2.38738e-20
5.90428e-10 -2.83356e-08 -1.04264e-20
-2.47735e-09 -1.93865e-08 8.38491e-20
-2.41662e-08 -1.4376e-08 7.51577e-20
-6.01006e-07 -2.27752e-08 -6.48665e-20
1.88903e-07 -2.13649e-07 -2.02089e-20
1.28469e-08 2.49186e-08 -3.66788e-20
6.56675e-09 -1.19296e-07 3.90514e-20
-1.12677e-07 2.66843e-07 -6.27718e-20
2.3076e-09 2.99821e-08 -4.97909e-20
2.01577e-07 -1.44241e-07 -6.90843e-20
-1.77381e-08 -7.75476e-09 -1.0847e-19
-1.71409e-07 -2.22783e-07 -9.14026e-20
2.36215e-08 1.20237e-08 2.93029e-20
5.59038e-08 5.404e-08 -5.61393e-21
-3.97708e-08 -6.19546e-08 1.01443e-19
2.4478e-08 -7.91119e-09 5.00125e-20
8.2835e-08 -5.78274e-08 -3.92011e-20
-4.9211e-09 4.61932e-08 3.51072e-20
6.81414e-08 -1.14848e-07 -2.58106e-21
6.22156e-07 3.13479e-08 -2.24017e-21
-5.27077e-07 1.39454e-07 -8.63185e-20
4.415e-08 3.07658e-08 -2.92922e-20
-6.53058e-08 -1.57231e-07 -1.0326e-19
-9.92741e-08 -6.47627e-08 4.81095e-21
3.23098e-07 -3.24722e-09 -1.0141e-20
2.76333e-09 -6.16611e-08 -5.33637e-20
-8.07555e-08 -2.8517e-08 -7.34173e-20
1.10112e-07 -2.63083e-07 7.50949e-21
8.77912e-09 1.05991e-07 -7.84596e-21
9.0374e-08 2.80263e-07 1.00881e-20
1.08474e-07 -5.71637e-08 2.07657e-20
-1.97853e-07 2.10595e-07 3.06208e-20
1.81931e-07 2.24809e-07 5.01607e-21
-1.14486e-08 5.11959e-09 -7.41388e-20
1.88165e-09 4.8846e-08 -6.87061e-20
3.69034e-09 -2.21665e-08 2.08748e-20
-1.75456e-08 -1.45592e-08 1.13815e-20
-6.04298e-08 4.7912e-08 9.99045e-20
-2.77207e-07 -6.56794e-08 -4.62461e-20
9.70526e-10 3.11645e-08 4.63885e-20
-7.2507e-08 2.16483e-08 -3.63069e-20
1.96416e-07 -2.84765e-08 4.44747e-20
-8.39883e-08 -2.71982e-07 -5.11777e-20
-1.65421e-07 2.63446e-07 -1.52567e-20
-4.67196e-08 2.15937e-08 7.74053e-20
-2.21702e-07 -1.56871e-07 -4.0727e-20
5.01937e-08 -2.35439e-08 7.20114e-20
-3.00608e-07 -1.47197e-08 -9.46939e-20
1.47151e-07 -5.19242e-07 6.66585e-20
2.01066e-07 -2.11141e-07 -1.52848e-20
3.07428e-07 5.45067e-07 -4.26478e-20
-2.87866e-09 6.58961e-08 8.37918e-21
2.63916e-08 -2.73857e-07 -3.82085e-20
-1.06992e-08 6.48011e-09 -8.52904e-21
-1.42528e-07 -2.65958e-07 -8.16965e-20
4.78326e-08 -4.0933e-08 -5.79985e-20
-2.74968e-08 2.77017e-07 4.60956e-20
6.67662e-08 -1.96027e-08 1.58552e-20
1.51913e-07 2.70724e-07 -3.07386e-20
1.5216e-07 -3.5534e-09 4.70229e-20
2.77692e-07 -8.19348e-07 1.23728e-20
-5.88468e-08 -1.09556e-07 -2.62914e-21
-2.45412e-07 1.06931e-07 -1.5041e-20
-3.4394e-08 1.69034e-08 -4.51797e-20
2.32974e-07 1.5602e-07 -4.30035e-20
1.66064e-07 -9.16811e-08 5.41694e-20
8.7789e-08 3.85719e-08 -4.18033e-20
-1.79558e-08 1.51703e-08 1.28876e-19
1.6656e-07 -2.57308e-07 -2.53764e-21
-1.77571e-07 -2.2159e-07 -7.68363e-20
2.29111e-07 9.03724e-08 -2.3023e-20
5.82913e-08 -3.60312e-08 4.76568e-20
1.07108e-07 -2.66213e-07 1.27526e-20
1.25877e-07 -2.38643e-08 7.95939e-21
-1.22153e-07 -4.87357e-08 -8.02585e-20
-5.31238e-09 -4.95911e-08 -4.53704e-20
-2.79979e-07 3.88796e-08 1.01549e-20
2.94163e-08 2.45613e-07 -1.51216e-20
1.91544e-07 4.46982e-08 1.82903e-20
-2.17577e-07 -9.73866e-08 -4.08942e-20
-1.06984e-07 2.74324e-07 2.57657e-20
-2.44528e-08 -2.39294e-07 -1.52367e-20
6.32729e-08 3.0881e-08 -1.03364e-19
-4.10623e-08 1.15739e-07 3.43684e-20
-1.95657e-07 1.40327e-07 4.90559e-20
2.51274e-07 1.26743e-07 5.64225e-21
-1.14402e-07 -3.59417e-08 -8.58322e-20
-2.77386e-08 -1.1781e-07 2.58488e-21
1.92021e-07 2.23207e-07 -3.09252e-20
-4.51512e-08 -2.04808e-08 -1.17726e-19
6.31344e-07 -4.53969e-07 -7.47769e-20
1.33721e-07 -9.35544e-08 3.13069e-20
1.09187e-07 5.35069e-07 -6.2591e-20
1.41e-07 -1.35552e-07 6.47876e-20
-3.04794e-07 1.16074e-06 -3.49147e-20
-3.06561e-07 -1.14943e-06 -2.5434e-20
7.53188e-07 9.9003e-07 -1.8414e-20
7.43844e-07 -9.89765e-07 3.70074e-20
1.23292e-06 -4.80426e-10 1.86599e-20
-1.06283e-06 4.27594e-07 -6.47234e-20
-1.04521e-06 -4.32244e-07 -4.64135e-21
5.08422e-08 2.75833e-08 1.33383e-20
3.26258e-08 1.58409e-08 1.86347e-20
9.4753e-08 1.27616e-08 1.07026e-19
1.67279e-07 8.93987e-08 2.03501e-20
4.96205e-08 1.97654e-07 3.10384e-20
-1.79331e-07 -1.54071e-07 2.5712e-20
9.03183e-08 -8.32552e-08 6.28142e-20
1.9269e-07 1.5464e-07 -3.08272e-20
-4.45606e-08 2.43272e-07 1.84309e-20
3.16438e-08 -1.5542e-08 1.26185e-19
4.53517e-08 -2.33456e-07 -2.58462e-21
5.92672e-08 3.99597e-08 6.33883e-20
3.47531e-07 1.21745e-07 3.00902e-20
7.79745e-09 2.50244e-08 -4.42332e-21
1.34329e-07 4.39674e-08 2.10121e-20
-1.6625e-07 9.19632e-08 2.86745e-20
-2.27615e-07 7.87425e-08 -1.28597e-20
4.50757e-08 -3.08814e-08 1.78647e-19
-1.45329e-07 -6.72517e-08 -5.73514e-20
-1.59676e-07 -9.45787e-08 -5.92971e-20
-1.39956e-08 -1.60295e-07 -3.8669e-20
6.31631e-10 -1.84097e-07 -1.80846e-20
-2.02687e-07 -8.76186e-09 -6.70532e-20
3.00822e-07 -4.6707e-08 4.83433e-20
1.62298e-07 1.00023e-07 6.43341e-20
-1.34305e-07 9.16184e-08 1.04212e-20
-6.05631e-08 2.96496e-08 -1.03399e-19
1.51479e-07 -1.35729e-07 -8.10074e-21
-1.13812e-07 1.77209e-07 4.93449e-20
-1.40198e-07 -1.47683e-07 -6.42291e-20
-1.32859e-08 1.9303e-07 4.67225e-20
-2.88787e-08 1.62922e-07 8.86497e-20
4.761e-09 -1.18283e-07 -1.53419e-20
6.10184e-08 -1.97216e-07 -8.72779e-20
-9.97409e-08 -6.40085e-08 -5.72643e-20
1.38183e-07 -3.94084e-08 3.1565e-20
3.38832e-10 1.92792e-07 -2.28787e-20
-4.16951e-09 1.23191e-07 2.08664e-20
-3.09579e-08 1.38568e-07 6.02036e-20
2.2678e-07 -5.58103e-08 -1.00038e-20
-4.76367e-08 4.54758e-08 8.49052e-20
5.14014e-08 1.92949e-07 -4.42809e-20
-3.10711e-08 1.96113e-08 -2.68465e-21
1.14523e-07 5.31041e-07 -5.43869e-20
-5.61898e-08 3.03305e-08 7.39219e-20
5.96168e-08 -3.10327e-08 3.69646e-20
1.7146e-08 1.6396e-07 -3.3698e-20
-1.92283e-07 4.56755e-08 5.97831e-20
-5.9091e-09 -8.33599e-08 -2.11371e-20
7.93047e-09 -7.57597e-07 4.10335e-20
2.30161e-08 1.38997e-07 -2.85811e-20
-1.43648e-07 1.36656e-07 8.06063e-20
2.2305e-07 8.29576e-07 -3.66519e-20
1.07184e-08 7.05742e-09 1.33241e-20
9.26066e-09 -6.73089e-09 -2.48356e-20
1.08149e-07 -8.4335e-08 -3.40125e-20
-1.53504e-07 1.37442e-07 1.62162e-19
-1.84255e-07 -5.44298e-08 -7.49882e-20
-1.89341e-07 -6.21863e-08 -5.89639e-20
-3.76536e-09 2.31653e-09 -3.63371e-20
-2.59938e-09 -1.24836e-09 6.36452e-20
8.84459e-08 1.79726e-08 -7.72029e-21
2.80695e-08 1.29088e-07 -8.0204e-21
-3.24408e-09 1.28354e-07 -1.06103e-20
-6.34549e-07 -4.60934e-07 -1.11378e-19
1.12646e-07 -1.77174e-07 -2.32084e-20
5.69853e-08 2.05297e-08 -4.45718e-20
-2.0898e-07 -2.24821e-08 -1.05661e-19
-1.32138e-07 1.7457e-07 9.07106e-20
-1.70589e-07 8.02128e-08 1.82685e-20
6.22974e-07 4.4762e-07 -1.9222e-20
6.16635e-08 4.05311e-08 -1.34092e-20
-6.06431e-08 1.97928e-07 1.86465e-20
-1.19553e-07 -1.024e-07 -4.45377e-20
2.97391e-08 -1.55931e-07 2.34735e-20
-9.6736e-08 -1.84053e-07 -7.73867e-20
-1.55016e-07 -1.06253e-07 -2.62528e-20
1.06243e-07 -1.88419e-07 -2.83737e-20
1.27445e-07 -1.75141e-07 6.44589e-20
-4.03896e-08 -7.90568e-07 4.15318e-20
3.25049e-07 -5.19927e-07 9.49124e-20
1.55298e-08 -1.89288e-07 -5.1578e-20
1.33488e-07 1.01619e-07 2.85793e-20
-1.19906e-07 -1.45549e-07 -4.67603e-20
-1.03991e-07 1.93874e-07 5.75589e-21
-6.38885e-08 1.90021e-07 4.16135e-20
1.39185e-07 1.44124e-07 -5.15834e-21
6.82344e-08 -1.77735e-07 -1.10968e-19
-1.76409e-07 -5.02993e-07 -3.68901e-20
3.97654e-09 6.1132e-08 -2.07418e-20
1.40907e-07 1.44992e-07 -2.05912e-20
-7.59652e-08 -3.741e-08 -7.34899e-20
-6.31226e-08 3.44611e-08 -1.23561e-19
5.64808e-07 -2.47432e-07 3.68361e-20
7.01563e-08 -1.15947e-07 1.04907e-20
-6.65885e-08 -1.13916e-07 -4.65371e-20
2.52794e-08 -2.18513e-09 -2.13895e-20
2.18503e-09 -9.58228e-09 -2.47803e-20
-7.08751e-09 -7.01406e-09 -1.0602e-19
3.11239e-08 2.04013e-08 2.37226e-21
-9.75501e-08 -1.84148e-07 -1.59021e-19
1.50116e-07 6.02042e-08 2.83852e-20
-3.65257e-07 -4.01553e-07 -8.59817e-20
1.38207e-09 1.17771e-08 -6.73696e-20
1.3621e-09 2.09801e-09 2.45484e-20
2.62635e-09 -3.48084e-10 -3.27492e-20
3.50497e-07 -6.92146e-07 1.68435e-20
-1.45721e-08 1.71645e-08 -3.2313e-20
-3.34341e-09 2.07943e-08 1.67644e-20
-1.50939e-07 5.36573e-08 -3.09238e-20
-5.21479e-09 6.13169e-08 -2.46515e-21
-3.31608e-08 9.83258e-08 1.35978e-19
6.83609e-08 2.91653e-09 -3.92221e-20
1.54162e-08 5.91125e-08 -5.15176e-21
-4.04131e-09 8.174e-08 -2.64068e-20
1.17162e-07 6.37424e-08 -2.86441e-20
8.34471e-09 7.54059e-07 -1.18436e-19
-1.09005e-07 1.03142e-07 1.22795e-19
8.17372e-08 -5.49547e-08 3.27762e-22
4.71908e-08 -4.30841e-08 -1.42953e-23
-7.73409e-07 -1.06192e-07 -7.27033e-20
-2.20509e-08 8.73937e-09 -3.28251e-20
-5.63165e-07 -6.66173e-07 -4.89608e-20
1.02378e-08 2.74101e-08 -8.86999e-20
9.87918e-08 1.92119e-08 6.32626e-20
2.94103e-07 -3.81701e-08 -3.0347e-20
-6.72351e-08 -1.10483e-07 -4.95349e-20
1.28553e-07 3.6873e-08 5.50241e-20
6.71526e-10 -3.27207e-08 -6.44859e-20
-7.25044e-08 8.38835e-08 6.82816e-20
-2.7729e-08 -1.76424e-08 -1.83922e-20
-6.53473e-08 1.32762e-07 5.73203e-21
1.18215e-08 8.38001e-08 1.05872e-20
1.92161e-08 1.40858e-08 7.02798e-20
1.90708e-08 -1.35316e-08 4.29246e-20
-5.24307e-07 -1.42831e-07 -1.15453e-19
5.77663e-08 2.15578e-08 -4.46011e-20
-6.95433e-08 1.34596e-06 -1.2309e-20
-4.83915e-09 -1.38284e-06 3.34849e-20
6.80658e-07 1.1652e-06 -9.38874e-20
-7.06543e-08 5.60489e-08 1.24028e-19
-3.60669e-07 7.25844e-07 1.66666e-20
6.84567e-07 -1.12464e-06 -4.7785e-20
-1.1321e-07 -1.83231e-07 -8.27178e-20
1.03954e-06 9.1088e-07 -5.80443e-20
1.22263e-08 -2.16845e-08 -3.00381e-20
-1.2739e-08 -2.19726e-08 -3.17971e-20
1.08969e-06 -8.906e-07 4.98738e-21
-6.67804e-08 1.31331e-07 5.76438e-20
-6.84503e-07 -4.3594e-07 -7.85076e-20
-5.77213e-07 -1.20307e-06 -5.79001e-20
-3.23295e-07 -7.4375e-07 -5.37831e-20
-5.93389e-07 1.2231e-06 -1.00921e-19
-1.40231e-07 8.28857e-07 -4.15196e-20
-9.88356e-10 2.90347e-08 6.04078e-21
-3.60055e-07 4.63561e-07 2.8181e-21
-3.44706e-07 -7.05513e-07 -7.00828e-20
1.34043e-06 2.33909e-07 -4.0465e-20
-1.0483e-07 8.91211e-08 4.21193e-20
-2.46456e-09 5.88859e-08 7.43255e-20
-6.48388e-07 4.69389e-07 -1.20924e-20
-1.16258e-07 6.20491e-08 -4.92233e-20
1.32722e-06 -2.08051e-07 4.31078e-20
-8.8733e-08 5.95636e-08 8.41638e-20
6.46345e-08 -1.33671e-07 -6.47949e-20
-1.03285e-06 -7.84457e-07 4.34887e-21
-3.4827e-07 7.4622e-07 -5.12779e-20
-1.05788e-06 7.78696e-07 -7.64757e-20
3.09098e-07 6.89566e-07 -1.10902e-19
-1.13808e-07 9.04684e-08 1.06595e-19
-3.1587e-08 1.78906e-08 -1.32856e-20
-1.73132e-09 -2.74384e-09 -9.60765e-20
4.30563e-10 -2.37226e-09 1.86647e-20
8.65142e-09 9.08538e-08 3.95149e-20
-2.53843e-09 2.74833e-09 6.92143e-20
1.33526e-09 3.4064e-09 -2.0398e-19
2.28709e-09 -9.79546e-10 -4.07241e-20
-1.35431e-09 1.07648e-08 -4.74446e-21
-2.37842e-07 5.18919e-07 -7.03238e-21
-1.78941e-08 1.28468e-08 -2.71911e-20
3.0842e-08 -1.94278e-08 4.76405e-20
3.02311e-08 -1.75116e-08 8.32582e-20
8.7078e-08 3.39843e-08 2.62664e-20
-8.2135e-10 -9.2134e-09 5.47326e-20
-8.2271e-09 -4.16882e-09 -4.92445e-20
3.02135e-08 1.76246e-08 1.87126e-20
7.68629e-07 -1.48135e-07 2.71593e-22
-9.95967e-08 -1.26951e-07 -1.42375e-19
-6.72948e-07 4.69161e-07 4.31224e-20
-6.02525e-07 6.87212e-07 -1.96986e-20
8.1218e-07 -2.93308e-07 1.9651e-20
-3.902e-09 -1.13075e-08 9.00398e-20
-4.28457e-09 1.16151e-08 -1.06246e-20
-1.27674e-08 2.18836e-09 5.68185e-20
-8.36812e-09 8.54154e-09 -2.96032e-20
-1.1574e-08 -2.44794e-09 -1.55161e-19
2.14807e-09 2.71651e-09 -4.97603e-20
1.24234e-08 -3.05322e-09 1.63742e-20
5.24132e-09 -3.68234e-09 -3.06405e-21
-3.65947e-09 -2.64611e-09 -4.70414e-20
7.94225e-09 -8.17203e-09 -1.00652e-19
7.98628e-09 8.4153e-09 -4.87975e-20
-3.68178e-09 2.32676e-09 3.0632e-20
4.04673e-09 -8.0369e-10 6.89415e-20
6.708e-09 3.71395e-09 -2.49791e-21
1.45196e-08 5.17831e-09 9.74978e-20
SCALARS rr_necrosis float
LOOKUP_TABLE default
0
0
0
0
0
0
0
0
0
0
0
0
0
0
0
0
0
0
0
0
0
0
0
0
0
0
0
0
0
0
0
0
0
0
0
0
0
0
0
0
0
0
0
0
0
0
0
0
0
0
0
0
0
0
0
0
0
0
0
0
0
0
0
0
0
0
0
0
0
0
0
0
0
0
0
0
0
0
0
0
0
0
0
0
0
0
0
0
0
0
0
0
0
0
0
0
0
0
0
0
0
0
0
0
0
0
0
0
0
0
0
0
0
0
0
0
0
0
0
0
0
0
0
0
0
0
0
0
0
0
0
0
0
0
0
0
0
0
0
0
0
0
0
0
0
0
0
0
0
0
0
0
0
0
0
0
0
0
0
0
0
0
0
0
0
0
0
0
0
0
0
0
0
0
0
0
0
0
0
0
0
0
0
0
0
0
0
0
0
0
0
0
0
0
0
0
0
0
0
0
0
0
0
0
0
0
0
0
0
0
0
0
0
0
0
0
0
0
0
0
0
0
0
0
0
0
0
0
0
0
0
0
0
0
0
0
0
0
0
0
0
0
0
0
0
0
0
0
0
0
0
0
0
0
0
0
0
0
0
0
0
0
0
0
0
0
0
0
0
0
0
0
0
0
0
0
0
0
0
0
0
0
0
0
0
0
0
0
0
0
0
0
0
0
0
0
0
0
0
0
0
0
0
0
0
0
0
0
0
0
0
0
0
0
0
0
0
0
0
0
0
0
0
0
0
0
0
0
0
0
0
0
0
0
0
0
0
0
0
0
0
0
0
0
0
0
0
0
0
0
0
0
0
0
0
0
0
0
0
0
0
0
0
0
0
0
0
0
0
0
0
0
0
0
0
0
0
0
0
0
0
0
0
0
0
0
0
0
0
0
0
0
0
0
0
0
0
0
0
0
0
0
0
0
0
0
0
0
0
0
0
0
0
0
0
0
0
0
0
0
0
0
0
0
0
0
0
0
0
0
0
0
0
0
0
0
0
0
0
0
0
0
0
0
0
0
0
0
0
0
0
0
0
0
0
0
0
0
0
0
0
0
0
0
0
0
0
0
0
0
0
0
0
0
0
0
0
0
0
0
0
0
0
0
0
0
0
0
0
0
0
0
0
0
0
0
0
0
0
0
0
0
0
0
0
0
0
0
0
0
0
0
0
0
0
0
0
0
0
0
0
0
0
0
0
0
0
0
0
0
0
0
0
0
0
0
0
0
0
0
0
0
0
0
0
0
0
0
0
0
0
0
0
0
0
0
0
0
0
0
0
0
0
SCALARS rr_protein float
LOOKUP_TABLE default
1
1
1
1
1
1
1
1
1
1
1
1
1
1
1
1
1
1
1
1
1
1
1
1
1
1
1
1
1
1
1
1
1
1
1
1
1
1
1
1
1
1
1
1
1
1
1
1
1
1
1
1
1
1
1
1
1
1
1
1
1
1
1
1
1
1
1
1
1
1
1
1
1
1
1
1
1
1
1
1
1
1
1
1
1
1
1
1
1
1
1
1
1
1
1
1
1
1
1
1
1
1
1
1
1
1
1
1
1
1
1
1
1
1
1
1
1
1
1
1
1
1
1
1
1
1
1
1
1
1
1
1
1
1
1
1
1
1
1
1
1
1
1
1
1
1
1
1
1
1
1
1
1
1
1
1
1
1
1
1
1
1
1
1
1
1
1
1
1
1
1
1
1
1
1
1
1
1
1
1
1
1
1
1
1
1
1
1
1
1
1
1
1
1
1
1
1
1
1
1
1
1
1
1
1
1
1
1
1
1
1
1
1
1
1
1
1
1
1
1
1
1
1
1
1
1
1
1
1
1
1
1
1
1
1
1
1
1
1
1
1
1
1
1
1
1
1
1
1
1
1
1
1
1
1
1
1
1
1
1
1
1
1
1
1
1
1
1
1
1
1
1
1
1
1
1
1
1
1
1
1
1
1
1
1
1
1
1
1
1
1
1
1
1
1
1
1
1
1
1
1
1
1
1
1
1
1
1
1
1
1
1
1
1
1
1
1
1
1
1
1
1
1
1
1
1
1
1
1
1
1
1
1
1
1
1
1
1
1
1
1
1
1
1
1
1
1
1
1
1
1
1
1
1
1
1
1
1
1
1
1
1
1
1
1
1
1
1
1
1
1
1
1
1
1
1
1
1
1
1
1
1
1
1
1
1
1
1
1
1
1
1
1
1
1
1
1
1
1
1
1
1
1
1
1
1
1
1
1
1
1
1
1
1
1
1
1
1
1
1
1
1
1
1
1
1
1
1
1
1
1
1
1
1
1
1
1
1
1
1
1
1
1
1
1
1
1
1
1
1
1
1
1
1
1
1
1
1
1
1
1
1
1
1
1
1
1
1
1
1
1
1
1
1
1
1
1
1
1
1
1
1
1
1
1
1
1
1
1
1
1
1
1
1
1
1
1
1
1
1
1
1
1
1
1
1
1
1
1
1
1
1
1
1
1
1
1
1
1
1
1
1
1
1
1
1
1
1
1
1
1
1
1
1
1
1
1
1
1
1
1
1
1
1
1
1
1
1
1
1
1
1
1
1
1
1
1
1
1
1
1
1
1
SCALARS rr_(S_ext) float
LOOKUP_TABLE default
0.993214
0.993127
0.993139
0.993127
0.993123
0.993139
0.993214
0.993136
0.993147
0.993131
0.993181
0.993136
0.993137
0.993131
0.993121
0.993139
0.993126
0.993133
0.993146
0.993139
0.993144
0.993101
0.99314
0.99314
0.99314
0.993131
0.993187
0.993138
0.993166
0.99311
0.993138
0.993165
0.99319
0.993113
0.993115
0.993113
0.993107
0.993116
0.993138
0.99319
0.993165
0.993106
0.993106
0.993138
0.993175
0.993166
0.993147
0.993146
0.993139
0.993168
0.993167
0.993161
0.993119
0.993163
0.99312
0.993184
0.993115
0.993162
0.993115
0.993138
0.993125
0.993126
0.99319
0.993128
0.993125
0.993131
0.993125
0.993132
0.99314
0.993127
0.993119
0.993119
0.993167
0.99313
0.99314
0.993189
0.993125
0.993132
0.993131
0.993156
0.993175
0.993121
0.993125
0.993174
0.993168
0.99318
0.993138
0.993132
0.993175
0.993104
0.993162
0.993105
0.993123
0.993132
0.993162
0.993166
0.993177
0.99313
0.993125
0.993138
0.993155
0.993168
0.993173
0.99313
0.993131
0.993131
0.993125
0.993139
0.993174
0.993123
0.993138
0.993175
0.993174
0.993132
0.993131
0.993163
0.993117
0.993178
0.993118
0.993162
0.993149
0.993121
0.993126
0.993128
0.993123
0.99312
0.993118
0.99313
0.993177
0.993161
0.993117
0.993127
0.993124
0.993126
0.993168
0.993114
0.993182
0.993138
0.993124
0.993114
0.993166
0.993136
0.99315
0.99313
0.993179
0.99313
0.993135
0.993141
0.993139
0.993155
0.993145
0.993126
0.993164
0.993138
0.99313
0.993126
0.993131
0.993168
0.993167
0.993134
0.993146
0.993164
0.993177
0.993165
0.993166
0.993131
0.993167
0.993168
0.993165
0.993166
0.993122
0.993162
0.993166
0.993131
0.993162
0.993125
0.993122
0.993136
0.993121
0.993133
0.993167
0.99313
0.99313
0.993166
0.993131
0.993167
0.993128
0.993127
0.993124
0.99313
0.993131
0.993176
0.993161
0.993165
0.993126
0.993132
0.993132
0.993124
0.993126
0.993132
0.993126
0.993147
0.993157
0.993125
0.993168
0.993124
0.993132
0.993166
0.993126
0.993126
0.993127
0.993134
0.993132
0.993125
0.993154
0.993134
0.993157
0.993128
0.993123
0.993123
0.993122
0.993123
0.993123
0.993123
0.993131
0.99312
0.99312
0.99312
0.99312
0.993121
0.99312
0.993154
0.99313
0.993123
0.993147
0.993121
0.993121
0.993124
0.993156
0.993123
0.99313
0.993155
0.993125
0.993155
0.993125
0.993122
0.993154
0.993156
0.993175
0.993168
0.993125
0.99318
0.993138
0.993157
0.993147
0.993123
0.993123
0.993108
0.993123
0.993183
0.993156
0.993123
0.993135
0.993157
0.993122
0.99315
0.993108
0.993156
0.993123
0.993129
0.993132
0.993121
0.993132
0.993121
0.993136
0.993178
0.99318
0.993124
0.993143
0.993136
0.993157
0.993124
0.993131
0.993156
0.993132
0.993155
0.993136
0.993155
0.993156
0.993105
0.993121
0.993119
0.993119
0.993131
0.993155
0.993113
0.993129
0.993145
0.993155
0.993157
0.993122
0.993155
0.993124
0.993157
0.993175
0.993154
0.993179
0.993127
0.993154
0.993105
0.993156
0.993128
0.993155
0.993128
0.993156
0.993139
0.993195
0.993137
0.993155
0.99312
0.993154
0.993144
0.993131
0.993126
0.993156
0.993155
0.99315
0.993129
0.993154
0.993137
0.993138
0.993122
0.993155
0.99315
0.993145
0.993151
0.993155
0.99315
0.993127
0.993136
0.993151
0.993154
0.993135
0.993135
0.993154
0.993122
0.993184
0.993141
0.993175
0.993144
0.993186
0.993187
0.993185
0.993185
0.993182
0.993191
0.993192
0.993127
0.993117
0.993134
0.993144
0.993146
0.993151
0.993136
0.99315
0.993151
0.993117
0.99315
0.993127
0.993161
0.99312
0.993139
0.993145
0.993151
0.993124
0.993141
0.993145
0.993141
0.993144
0.993148
0.993157
0.993144
0.993141
0.993126
0.993147
0.993148
0.993147
0.993145
0.993141
0.993135
0.993147
0.993135
0.993139
0.993145
0.993136
0.993139
0.993149
0.993127
0.993145
0.993117
0.993175
0.993127
0.993127
0.993141
0.993146
0.99313
0.993186
0.993138
0.993145
0.993194
0.993108
0.993109
0.993139
0.993147
0.993145
0.993147
0.993104
0.993103
0.993133
0.993136
0.993136
0.99319
0.993148
0.993127
0.993147
0.993148
0.993145
0.993183
0.993129
0.993147
0.993141
0.99314
0.993147
0.993145
0.993147
0.993147
0.993189
0.993179
0.993144
0.993141
0.993145
0.993147
0.993145
0.993145
0.993145
0.993177
0.993124
0.993146
0.993131
0.993129
0.993177
0.993138
0.993138
0.993122
0.993102
0.993102
0.99312
0.993148
0.993141
0.993177
0.993103
0.993101
0.993101
0.993184
0.993115
0.993109
0.993141
0.993124
0.993134
0.993129
0.993126
0.993129
0.993137
0.993185
0.993139
0.993133
0.993128
0.99319
0.993111
0.993199
0.993125
0.993133
0.993155
0.993137
0.993137
0.993117
0.993134
0.993117
0.993139
0.993129
0.993111
0.993112
0.99318
0.993129
0.993215
0.993217
0.993212
0.993131
0.99319
0.993211
0.993148
0.993212
0.99312
0.99312
0.993214
0.993141
0.993193
0.993218
0.99319
0.993218
0.99319
0.993115
0.99318
0.993189
0.993212
0.993138
0.993126
0.993191
0.993137
0.993209
0.993134
0.993141
0.993218
0.99319
0.993217
0.993183
0.99314
0.993118
0.993099
0.993099
0.993132
0.993099
0.993099
0.993099
0.993103
0.993179
0.993111
0.993122
0.993119
0.993133
0.993103
0.993103
0.993119
0.993183
0.993142
0.993192
0.993202
0.993194
0.993103
0.993103
0.993104
0.993104
0.993103
0.993102
0.993108
0.993104
0.993103
0.993106
0.993105
0.993103
0.993101
0.993103
0.993106
SCALARS rr_(P_ext) float
LOOKUP_TABLE default
0.0215276
0.0214264
0.0214353
0.0214281
0.0214009
0.0214355
0.0215279
0.0214294
0.0214438
0.0214268
0.0215209
0.0214294
0.0214315
0.0214255
0.0214102
0.0214338
0.0214218
0.0214305
0.0214483
0.0214378
0.0214392
0.021366
0.0214391
0.0214377
0.021438
0.0214288
0.0215068
0.0214342
0.0214759
0.0213865
0.0214318
0.0214757
0.0215083
0.0213926
0.0213896
0.0213927
0.0213854
0.0213909
0.021432
0.021508
0.0214761
0.021385
0.0213851
0.0214318
0.0214986
0.0214745
0.0214462
0.0214421
0.0214351
0.0214821
0.0214785
0.0214656
0.0214023
0.0214653
0.0214031
0.0214955
0.0213894
0.0214653
0.0213895
0.0214373
0.0214222
0.0214138
0.0215004
0.0214143
0.0214137
0.0214219
0.0214218
0.0214288
0.0214385
0.021426
0.0214025
0.0214025
0.0214762
0.0214187
0.021435
0.0215126
0.0214084
0.021422
0.0214289
0.0214633
0.0214842
0.0213977
0.0214179
0.0214871
0.0214729
0.0214975
0.0214342
0.0214203
0.0214984
0.021371
0.0214655
0.0213711
0.0214078
0.021423
0.0214646
0.0214795
0.0214841
0.0214269
0.0214085
0.0214324
0.0214541
0.0214706
0.0214872
0.0214296
0.0214278
0.0214276
0.0214167
0.0214332
0.0214874
0.0214248
0.0214372
0.0214953
0.0214908
0.0214302
0.0214281
0.021465
0.0213895
0.0214845
0.0213898
0.0214647
0.0214505
0.0214113
0.0214264
0.02142
0.0214241
0.0214093
0.021393
0.021427
0.0214841
0.0214646
0.0214024
0.0214271
0.0214184
0.0214267
0.0214704
0.0213893
0.0214897
0.0214308
0.0214179
0.0213894
0.0214693
0.0214265
0.021449
0.0214267
0.0214849
0.0214285
0.021428
0.0214351
0.0214354
0.0214571
0.0214423
0.0214264
0.0214759
0.0214314
0.0214268
0.021427
0.021424
0.0214683
0.021468
0.0214315
0.021442
0.0214751
0.0214961
0.0214785
0.0214684
0.0214275
0.0214684
0.0214685
0.0214758
0.0214682
0.0214075
0.0214653
0.0214787
0.0214231
0.0214651
0.0214171
0.0214076
0.0214295
0.0214019
0.0214275
0.0214758
0.0214271
0.0214272
0.0214691
0.0214201
0.0214793
0.0214201
0.0214166
0.0214072
0.0214269
0.02142
0.021483
0.0214651
0.0214757
0.0214268
0.0214309
0.0214304
0.0214185
0.0214265
0.0214223
0.0214263
0.021447
0.0214626
0.0214186
0.0214756
0.021418
0.021422
0.0214711
0.0214125
0.0214262
0.0214116
0.0214249
0.0214281
0.0214178
0.0214568
0.0214241
0.0214616
0.0214166
0.0214243
0.0214244
0.0214255
0.021425
0.021425
0.0214251
0.0214261
0.0214109
0.0214112
0.0214109
0.0214108
0.0214029
0.0214028
0.0214575
0.0214258
0.021429
0.0214426
0.0214102
0.0214098
0.0214287
0.0214623
0.0214294
0.0214269
0.0214564
0.0214124
0.0214568
0.0214176
0.0214297
0.0214561
0.0214611
0.0214845
0.0214837
0.0214178
0.0214864
0.0214326
0.0214616
0.0214477
0.0214295
0.0214245
0.0213845
0.0214248
0.0214871
0.0214616
0.021429
0.0214294
0.0214628
0.0214246
0.0214485
0.0213846
0.0214614
0.0214241
0.0214206
0.0214304
0.0214104
0.0214205
0.0214023
0.0214316
0.0214938
0.0214975
0.0214051
0.021439
0.0214294
0.0214568
0.0214122
0.0214231
0.0214615
0.0214228
0.0214537
0.0214276
0.0214537
0.0214621
0.0213768
0.0214066
0.0214099
0.0214101
0.0214261
0.021453
0.0213937
0.021421
0.0214416
0.0214526
0.0214558
0.0214052
0.0214564
0.0214077
0.0214547
0.0214983
0.0214531
0.0214855
0.0214164
0.0214564
0.0213768
0.0214547
0.0214187
0.0214575
0.0214196
0.0214549
0.0214342
0.0215021
0.0214362
0.0214566
0.0214055
0.0214571
0.0214416
0.0214196
0.0214261
0.0214548
0.0214531
0.0214488
0.0214165
0.0214532
0.0214294
0.0214341
0.0214025
0.0214531
0.0214493
0.0214401
0.0214482
0.0214541
0.021448
0.0214135
0.0214297
0.0214489
0.0214568
0.0214269
0.0214267
0.0214536
0.0214026
0.0215245
0.0214345
0.0214844
0.0214397
0.021578
0.0215779
0.0215773
0.0215775
0.0215772
0.0215783
0.0215778
0.021416
0.0213964
0.0214312
0.021442
0.0214477
0.0214483
0.0214275
0.0214489
0.0214494
0.0213962
0.0214483
0.0214119
0.0214655
0.0214124
0.0214357
0.0214422
0.0214486
0.0214049
0.0214345
0.0214415
0.0214344
0.0214414
0.0214491
0.0214637
0.0214422
0.0214354
0.0214116
0.0214468
0.02145
0.0214472
0.0214429
0.0214357
0.0214274
0.0214473
0.0214276
0.0214365
0.0214426
0.0214292
0.0214363
0.0214485
0.0214197
0.0214406
0.0213973
0.0214982
0.0214161
0.0214135
0.0214356
0.0214403
0.0214221
0.0215232
0.0214356
0.0214408
0.0215015
0.0213774
0.0213771
0.0214345
0.0214478
0.0214395
0.0214467
0.021362
0.021362
0.0214292
0.0214291
0.0214296
0.0215235
0.0214494
0.0214183
0.0214426
0.0214435
0.0214427
0.0215251
0.0214202
0.0214483
0.0214348
0.0214348
0.0214436
0.0214416
0.0214436
0.0214428
0.0215073
0.0214852
0.0214417
0.0214346
0.0214405
0.021444
0.0214411
0.0214399
0.0214405
0.0214982
0.0214101
0.0214473
0.0214224
0.0214197
0.0214988
0.0214352
0.0214361
0.0214025
0.021378
0.0213781
0.0214066
0.0214496
0.0214351
0.0214998
0.02138
0.0213643
0.0213644
0.0215262
0.0213909
0.0213865
0.0214361
0.0214082
0.0214314
0.0214261
0.0214194
0.0214169
0.0214294
0.0215235
0.0214336
0.0214232
0.0214185
0.0215132
0.0213897
0.0215033
0.0214188
0.0214259
0.0214553
0.0214319
0.0214299
0.0214016
0.0214285
0.0214017
0.0214346
0.0214184
0.0213881
0.0213875
0.0214995
0.0214248
0.0215295
0.0215276
0.0215317
0.0214203
0.0215247
0.0215338
0.0214439
0.0215306
0.0213974
0.0213974
0.0215291
0.0214399
0.0215071
0.0215301
0.0215089
0.0215304
0.021509
0.0213903
0.0215032
0.0215242
0.0215293
0.0214303
0.0214147
0.0215106
0.02143
0.0215331
0.0214268
0.0214393
0.0215311
0.021512
0.0215326
0.0215262
0.0214365
0.0213957
0.0213661
0.0213674
0.0214251
0.0213663
0.0213664
0.0213669
0.0213747
0.0215013
0.0213888
0.0214059
0.0213956
0.0214263
0.0213726
0.0213727
0.0213938
0.0215272
0.0214402
0.021526
0.0215049
0.0215041
0.0213812
0.0213815
0.0213822
0.0213819
0.0213813
0.0213678
0.021382
0.0213726
0.0213658
0.021381
0.0213809
0.0213655
0.0213675
0.0213723
0.0213827
SCALARS rr_(S) float
LOOKUP_TABLE default
0.976137
0.976004
0.97602
0.976004
0.975988
0.976019
0.976136
0.976014
0.976032
0.976008
0.976102
0.976014
0.976016
0.976008
0.97599
0.976019
0.976001
0.976012
0.976033
0.976021
0.976026
0.975951
0.976022
0.976021
0.976021
0.976009
0.9761
0.976018
0.976065
0.975969
0.976017
0.976064
0.976104
0.975975
0.975975
0.975975
0.975966
0.975977
0.976018
0.976104
0.976064
0.975965
0.975965
0.976017
0.976084
0.976065
0.976032
0.97603
0.976019
0.97607
0.976067
0.976055
0.975985
0.976057
0.975986
0.976092
0.975975
0.976056
0.975975
0.97602
0.976
0.975997
0.9761
0.975999
0.975996
0.976006
0.976
0.97601
0.976022
0.976003
0.975986
0.975986
0.976066
0.976003
0.97602
0.976105
0.975994
0.976006
0.976009
0.976049
0.976078
0.975985
0.975998
0.976078
0.976066
0.976089
0.976018
0.976006
0.976084
0.975957
0.976056
0.975957
0.975991
0.976007
0.976056
0.976066
0.976079
0.976007
0.975994
0.976017
0.976044
0.976064
0.976078
0.976009
0.976009
0.976008
0.975998
0.976019
0.976079
0.975999
0.97602
0.976083
0.97608
0.97601
0.976008
0.976057
0.975978
0.976081
0.975978
0.976056
0.976036
0.975991
0.976003
0.976002
0.975999
0.975989
0.97598
0.976007
0.97608
0.976055
0.975983
0.976004
0.975998
0.976003
0.976065
0.975974
0.976087
0.976016
0.975997
0.975974
0.976062
0.976012
0.976037
0.976007
0.976082
0.976008
0.976013
0.976021
0.97602
0.976045
0.976029
0.976003
0.976063
0.976017
0.976007
0.976004
0.976007
0.976063
0.976062
0.976013
0.976029
0.976063
0.976085
0.976065
0.976061
0.976008
0.976062
0.976063
0.976064
0.976061
0.97599
0.976056
0.976067
0.976006
0.976056
0.975998
0.97599
0.976014
0.975987
0.97601
0.976066
0.976007
0.976007
0.976062
0.976005
0.976068
0.976002
0.976
0.975992
0.976007
0.976005
0.976078
0.976055
0.976064
0.976003
0.976011
0.97601
0.975998
0.976003
0.976007
0.976003
0.976033
0.97605
0.975998
0.976066
0.975997
0.976007
0.976063
0.975996
0.976003
0.975997
0.976009
0.976009
0.975998
0.976044
0.976009
0.976049
0.976
0.975999
0.975999
0.975999
0.975999
0.975999
0.976
0.976008
0.97599
0.97599
0.97599
0.97599
0.975987
0.975986
0.976045
0.976007
0.976002
0.976031
0.975991
0.975991
0.976002
0.976049
0.976002
0.976007
0.976045
0.975995
0.976045
0.975998
0.976001
0.976044
0.976048
0.976078
0.976071
0.975998
0.976084
0.976017
0.976049
0.976033
0.976002
0.975999
0.975967
0.975999
0.976087
0.976048
0.976001
0.976013
0.97605
0.975999
0.976037
0.975967
0.976049
0.975999
0.976003
0.97601
0.975991
0.976006
0.975987
0.976015
0.976085
0.976089
0.975991
0.976025
0.976014
0.976047
0.975995
0.976007
0.976048
0.976007
0.976043
0.976013
0.976044
0.976048
0.97596
0.975989
0.975989
0.975989
0.976007
0.976044
0.975976
0.976003
0.976029
0.976043
0.976047
0.97599
0.976045
0.975993
0.976046
0.976085
0.976043
0.976082
0.975999
0.976044
0.97596
0.976045
0.976001
0.976045
0.976002
0.976045
0.97602
0.976106
0.976018
0.976045
0.975988
0.976044
0.976028
0.976005
0.976003
0.976045
0.976043
0.976037
0.976001
0.976043
0.976015
0.976018
0.975988
0.976044
0.976037
0.976027
0.976037
0.976044
0.976036
0.975998
0.976014
0.976037
0.976045
0.976012
0.976012
0.976043
0.975988
0.976106
0.976021
0.976078
0.976027
0.976134
0.976134
0.976132
0.976132
0.97613
0.976139
0.976139
0.975999
0.97598
0.976013
0.976028
0.976033
0.976037
0.976013
0.976037
0.976038
0.975981
0.976036
0.975997
0.976055
0.975991
0.97602
0.976029
0.976037
0.975991
0.976021
0.976028
0.976021
0.976027
0.976035
0.97605
0.976028
0.976022
0.975996
0.976033
0.976035
0.976033
0.976029
0.976022
0.976012
0.976033
0.976012
0.976021
0.976029
0.976014
0.97602
0.976035
0.976001
0.976028
0.975981
0.976085
0.975999
0.975998
0.976022
0.976028
0.976005
0.976107
0.976019
0.976028
0.976105
0.975964
0.975964
0.976019
0.976034
0.976027
0.976033
0.975953
0.975952
0.976011
0.976014
0.976014
0.976112
0.976035
0.976
0.976031
0.976032
0.976029
0.976105
0.976003
0.976034
0.976021
0.976021
0.976031
0.976028
0.976031
0.976031
0.976103
0.976082
0.976028
0.976021
0.976027
0.976032
0.976028
0.976027
0.976027
0.976086
0.975993
0.976032
0.976006
0.976003
0.976087
0.976019
0.976019
0.975988
0.975958
0.975957
0.975988
0.976035
0.976021
0.976088
0.975959
0.97595
0.97595
0.976107
0.975976
0.975968
0.976022
0.975993
0.976013
0.976006
0.976
0.976001
0.976015
0.976106
0.976019
0.976008
0.976001
0.976106
0.975972
0.97611
0.975999
0.97601
0.976045
0.976016
0.976016
0.975983
0.976012
0.975983
0.97602
0.976002
0.975971
0.975972
0.97609
0.976005
0.976138
0.97614
0.976137
0.976004
0.976112
0.976137
0.976032
0.976136
0.975984
0.975984
0.976138
0.976023
0.976106
0.976142
0.976104
0.976142
0.976104
0.975976
0.976092
0.976111
0.976135
0.976016
0.975997
0.976106
0.976015
0.976134
0.976011
0.976024
0.976142
0.976106
0.976141
0.976106
0.976021
0.975981
0.975949
0.97595
0.976008
0.975949
0.975949
0.97595
0.975957
0.97609
0.975971
0.97599
0.975982
0.976009
0.975956
0.975956
0.975982
0.976106
0.976025
0.976114
0.976114
0.976106
0.97596
0.97596
0.975961
0.975961
0.97596
0.975953
0.975965
0.975957
0.975953
0.975963
0.975962
0.975953
0.975952
0.975956
0.975964
SCALARS rr_(P) float
LOOKUP_TABLE default
0.0245724
0.0245121
0.0245176
0.0245131
0.0244967
0.0245176
0.0245726
0.024514
0.0245226
0.0245124
0.0245682
0.024514
0.0245153
0.0245116
0.0245023
0.0245167
0.0245093
0.0245146
0.0245253
0.0245191
0.0245199
0.0244754
0.0245198
0.0245189
0.0245191
0.0245136
0.02456
0.0245168
0.0245417
0.0244878
0.0245155
0.0245415
0.0245609
0.0244915
0.0244898
0.0244916
0.0244871
0.0244907
0.0245156
0.0245607
0.0245418
0.0244869
0.0244869
0.0245155
0.024555
0.0245408
0.024524
0.0245217
0.0245174
0.0245454
0.0245432
0.0245356
0.0244975
0.0245355
0.024498
0.0245534
0.0244897
0.0245355
0.0244898
0.0245187
0.0245095
0.0245046
0.0245563
0.0245049
0.0245045
0.0245094
0.0245093
0.0245136
0.0245194
0.0245119
0.0244976
0.0244977
0.0245419
0.0245076
0.0245174
0.0245634
0.0245013
0.0245095
0.0245136
0.0245342
0.0245466
0.0244948
0.024507
0.0245483
0.02454
0.0245544
0.0245169
0.0245085
0.024555
0.0244783
0.0245356
0.0244784
0.0245009
0.0245101
0.024535
0.0245437
0.0245466
0.0245125
0.0245014
0.0245158
0.0245288
0.0245386
0.0245484
0.0245141
0.024513
0.0245129
0.0245063
0.0245163
0.0245485
0.0245111
0.0245186
0.0245531
0.0245505
0.0245144
0.0245132
0.0245353
0.0244898
0.0245469
0.0244899
0.0245351
0.0245266
0.024503
0.0245121
0.0245083
0.0245106
0.0245018
0.0244919
0.0245125
0.0245466
0.024535
0.0244975
0.0245125
0.0245073
0.0245123
0.0245385
0.0244896
0.0245499
0.0245149
0.0245069
0.0244897
0.0245378
0.0245123
0.0245257
0.0245123
0.0245471
0.0245134
0.0245131
0.0245174
0.0245176
0.0245305
0.0245218
0.0245121
0.0245416
0.0245152
0.0245124
0.0245124
0.0245107
0.0245373
0.0245371
0.0245153
0.0245216
0.0245412
0.0245536
0.0245432
0.0245373
0.0245128
0.0245373
0.0245374
0.0245416
0.0245372
0.0245007
0.0245355
0.0245433
0.0245102
0.0245353
0.0245065
0.0245008
0.024514
0.0244973
0.0245128
0.0245416
0.0245126
0.0245126
0.0245377
0.0245084
0.0245437
0.0245083
0.0245062
0.0245005
0.0245125
0.0245083
0.024546
0.0245353
0.0245416
0.0245123
0.0245149
0.0245145
0.0245074
0.0245122
0.0245097
0.024512
0.0245246
0.0245338
0.0245074
0.0245415
0.024507
0.0245095
0.0245389
0.0245038
0.0245119
0.0245032
0.0245113
0.0245132
0.0245069
0.0245303
0.0245108
0.0245332
0.0245063
0.0245108
0.0245108
0.0245114
0.0245112
0.0245112
0.0245112
0.0245119
0.0245027
0.0245029
0.0245027
0.0245026
0.0244979
0.0244978
0.0245308
0.0245118
0.0245136
0.024522
0.0245023
0.024502
0.0245134
0.0245336
0.0245138
0.0245125
0.0245301
0.0245037
0.0245304
0.0245068
0.024514
0.02453
0.0245329
0.0245468
0.0245462
0.024507
0.024548
0.0245159
0.0245333
0.0245249
0.0245139
0.0245109
0.0244866
0.0245111
0.0245485
0.0245332
0.0245136
0.024514
0.0245339
0.0245109
0.0245254
0.0244867
0.0245331
0.0245106
0.0245087
0.0245146
0.0245024
0.0245086
0.0244976
0.0245153
0.0245523
0.0245545
0.0244993
0.0245198
0.024514
0.0245304
0.0245036
0.0245102
0.0245331
0.02451
0.0245286
0.0245129
0.0245286
0.0245335
0.0244819
0.0245001
0.0245021
0.0245022
0.024512
0.0245282
0.0244922
0.0245089
0.0245213
0.0245279
0.0245298
0.0244993
0.0245302
0.0245009
0.0245292
0.0245549
0.0245282
0.0245474
0.0245061
0.0245301
0.0244819
0.0245292
0.0245075
0.0245308
0.024508
0.0245293
0.0245169
0.0245573
0.0245181
0.0245303
0.0244995
0.0245306
0.0245213
0.0245081
0.0245119
0.0245292
0.0245282
0.0245256
0.0245062
0.0245283
0.024514
0.0245168
0.0244977
0.0245282
0.0245259
0.0245204
0.0245253
0.0245288
0.0245251
0.0245043
0.0245142
0.0245257
0.0245304
0.0245125
0.0245124
0.0245285
0.0244978
0.0245703
0.024517
0.0245467
0.0245202
0.0246017
0.0246017
0.0246013
0.0246014
0.0246012
0.0246019
0.0246017
0.0245058
0.0244939
0.0245151
0.0245216
0.0245249
0.0245253
0.0245129
0.0245257
0.024526
0.0244938
0.0245253
0.0245034
0.0245355
0.0245036
0.0245178
0.0245217
0.0245256
0.0244992
0.0245171
0.0245213
0.024517
0.0245212
0.0245258
0.0245344
0.0245217
0.0245176
0.0245032
0.0245244
0.0245263
0.0245247
0.0245221
0.0245178
0.0245128
0.0245247
0.0245129
0.0245182
0.0245219
0.0245139
0.0245181
0.0245254
0.0245081
0.0245207
0.0244945
0.0245548
0.0245059
0.0245043
0.0245177
0.0245206
0.0245096
0.0245696
0.0245177
0.0245208
0.024557
0.0244823
0.0244821
0.0245171
0.024525
0.0245201
0.0245244
0.0244729
0.0244729
0.0245138
0.0245138
0.0245141
0.0245698
0.0245259
0.0245072
0.024522
0.0245225
0.024522
0.0245706
0.0245084
0.0245253
0.0245173
0.0245172
0.0245225
0.0245214
0.0245225
0.024522
0.0245603
0.0245473
0.0245214
0.0245171
0.0245207
0.0245228
0.0245211
0.0245203
0.0245207
0.0245548
0.0245023
0.0245247
0.0245098
0.0245081
0.0245552
0.0245175
0.024518
0.0244977
0.0244826
0.0244826
0.0245001
0.0245261
0.0245174
0.0245558
0.0244838
0.0244743
0.0244744
0.0245713
0.0244906
0.0244878
0.024518
0.0245012
0.0245152
0.024512
0.0245079
0.0245064
0.024514
0.0245697
0.0245166
0.0245102
0.0245074
0.0245638
0.0244898
0.024558
0.0245076
0.0245119
0.0245295
0.0245155
0.0245143
0.0244971
0.0245135
0.0244971
0.0245172
0.0245073
0.0244888
0.0244884
0.0245557
0.0245112
0.0245735
0.0245725
0.0245748
0.0245085
0.0245705
0.024576
0.0245227
0.0245742
0.0244946
0.0244947
0.0245733
0.0245203
0.0245602
0.0245739
0.0245613
0.0245741
0.0245613
0.0244903
0.0245578
0.0245702
0.0245734
0.0245145
0.0245051
0.0245622
0.0245144
0.0245756
0.0245124
0.0245199
0.0245746
0.0245631
0.0245754
0.0245713
0.0245183
0.0244935
0.0244754
0.0244761
0.0245114
0.0244755
0.0244756
0.0244759
0.0244806
0.0245567
0.0244892
0.0244997
0.0244934
0.0245121
0.0244794
0.0244794
0.0244924
0.0245719
0.0245205
0.0245713
0.024559
0.0245585
0.0244845
0.0244847
0.0244851
0.024485
0.0244846
0.0244764
0.024485
0.0244793
0.0244752
0.0244844
0.0244843
0.024475
0.0244763
0.0244791
0.0244855
SCALARS rr_(T) float
LOOKUP_TABLE default
0.218053
0.218077
0.218075
0.218076
0.218087
0.218075
0.218053
0.218077
0.218073
0.218077
0.218052
0.218077
0.218076
0.218078
0.218083
0.218075
0.218079
0.218076
0.218071
0.218074
0.218074
0.218101
0.218074
0.218074
0.218074
0.218076
0.218057
0.218075
0.218064
0.218093
0.218076
0.218064
0.218057
0.21809
0.218092
0.21809
0.218093
0.218091
0.218076
0.218057
0.218064
0.218093
0.218093
0.218076
0.218058
0.218065
0.218072
0.218073
0.218075
0.218063
0.218064
0.218067
0.218086
0.218067
0.218086
0.21806
0.218092
0.218067
0.218092
0.218074
0.218078
0.218082
0.218059
0.218082
0.218082
0.218079
0.218079
0.218076
0.218074
0.218077
0.218086
0.218086
0.218064
0.21808
0.218075
0.218055
0.218084
0.218079
0.218076
0.218067
0.218063
0.218088
0.21808
0.218062
0.218065
0.218059
0.218075
0.21808
0.218058
0.2181
0.218067
0.2181
0.218084
0.218079
0.218067
0.218063
0.218063
0.218077
0.218084
0.218076
0.21807
0.218066
0.218062
0.218076
0.218077
0.218077
0.218081
0.218076
0.218061
0.218077
0.218074
0.218059
0.21806
0.218076
0.218076
0.218067
0.218092
0.218063
0.218092
0.218067
0.218071
0.218083
0.218077
0.21808
0.218077
0.218084
0.21809
0.218077
0.218063
0.218067
0.218086
0.218076
0.21808
0.218077
0.218066
0.218092
0.218061
0.218076
0.21808
0.218092
0.218066
0.218078
0.218071
0.218077
0.218063
0.218076
0.218077
0.218075
0.218075
0.218069
0.218073
0.218077
0.218064
0.218076
0.218077
0.218077
0.218078
0.218067
0.218067
0.218076
0.218073
0.218064
0.218059
0.218063
0.218066
0.218077
0.218067
0.218067
0.218064
0.218067
0.218084
0.218067
0.218063
0.218078
0.218067
0.218081
0.218084
0.218077
0.218087
0.218077
0.218064
0.218077
0.218077
0.218066
0.21808
0.218063
0.218079
0.218081
0.218085
0.218077
0.21808
0.218063
0.218067
0.218064
0.218077
0.218076
0.218076
0.21808
0.218077
0.218079
0.218077
0.218072
0.218068
0.21808
0.218064
0.21808
0.218079
0.218066
0.218083
0.218077
0.218083
0.218078
0.218077
0.21808
0.218069
0.218079
0.218068
0.218081
0.218077
0.218077
0.218077
0.218077
0.218077
0.218077
0.218078
0.218083
0.218083
0.218083
0.218083
0.218086
0.218086
0.218069
0.218077
0.218075
0.218073
0.218083
0.218083
0.218076
0.218068
0.218075
0.218077
0.218069
0.218083
0.218069
0.21808
0.218075
0.218069
0.218068
0.218063
0.218062
0.21808
0.218062
0.218075
0.218068
0.218071
0.218075
0.218077
0.218094
0.218077
0.218062
0.218068
0.218075
0.218077
0.218067
0.218077
0.218071
0.218094
0.218068
0.218077
0.218079
0.218076
0.218083
0.21808
0.218087
0.218076
0.21806
0.218059
0.218086
0.218074
0.218077
0.218069
0.218083
0.218078
0.218068
0.218079
0.21807
0.218078
0.21807
0.218068
0.218097
0.218085
0.218083
0.218083
0.218077
0.21807
0.21809
0.218079
0.218073
0.21807
0.21807
0.218085
0.218069
0.218085
0.21807
0.218058
0.21807
0.218063
0.218081
0.218069
0.218097
0.21807
0.21808
0.218069
0.21808
0.21807
0.218075
0.218059
0.218074
0.218069
0.218085
0.218069
0.218073
0.21808
0.218077
0.21807
0.21807
0.218071
0.218081
0.21807
0.218077
0.218075
0.218087
0.21807
0.218071
0.218074
0.218072
0.21807
0.218072
0.218082
0.218077
0.218071
0.218069
0.218078
0.218078
0.21807
0.218087
0.218051
0.218075
0.218063
0.218074
0.218035
0.218035
0.218035
0.218035
0.218035
0.218035
0.218036
0.218081
0.218089
0.218076
0.218073
0.218071
0.218072
0.218078
0.218071
0.218071
0.218089
0.218071
0.218083
0.218067
0.218082
0.218075
0.218073
0.218071
0.218086
0.218075
0.218073
0.218075
0.218073
0.218071
0.218067
0.218073
0.218075
0.218083
0.218072
0.218071
0.218072
0.218073
0.218075
0.218078
0.218072
0.218077
0.218074
0.218073
0.218077
0.218075
0.218071
0.21808
0.218074
0.218089
0.218058
0.218081
0.218082
0.218075
0.218074
0.218079
0.218052
0.218075
0.218074
0.218059
0.218097
0.218097
0.218075
0.218071
0.218074
0.218072
0.218104
0.218103
0.218076
0.218077
0.218077
0.218052
0.218071
0.21808
0.218073
0.218073
0.218073
0.218051
0.21808
0.218071
0.218075
0.218075
0.218073
0.218073
0.218073
0.218073
0.218057
0.218063
0.218073
0.218075
0.218074
0.218073
0.218073
0.218074
0.218074
0.218058
0.218084
0.218072
0.218079
0.21808
0.218058
0.218075
0.218074
0.218087
0.218096
0.218096
0.218085
0.218071
0.218075
0.218058
0.218095
0.218102
0.218102
0.218051
0.218091
0.218093
0.218075
0.218084
0.218076
0.218077
0.21808
0.218081
0.218077
0.218052
0.218075
0.218079
0.21808
0.218055
0.218092
0.218059
0.21808
0.218078
0.21807
0.218076
0.218077
0.218087
0.218077
0.218087
0.218075
0.21808
0.218092
0.218093
0.218058
0.218078
0.218053
0.218054
0.218052
0.21808
0.218052
0.218051
0.218073
0.218052
0.218089
0.218088
0.218053
0.218073
0.218057
0.218053
0.218056
0.218053
0.218056
0.218091
0.218057
0.218052
0.218053
0.218077
0.218082
0.218056
0.218077
0.218051
0.218078
0.218074
0.218052
0.218056
0.218052
0.218051
0.218075
0.218089
0.218101
0.218101
0.218078
0.218101
0.218101
0.218101
0.218098
0.218058
0.218092
0.218085
0.218089
0.218078
0.218099
0.218099
0.21809
0.21805
0.218073
0.218051
0.218059
0.218058
0.218095
0.218095
0.218094
0.218094
0.218095
0.218101
0.218095
0.218099
0.218102
0.218095
0.218095
0.218102
0.218101
0.218099
0.218094
SCALARS rr_tsim float
LOOKUP_TABLE default
450
450
450
450
450
450
450
450
450
450
450
450
450
450
450
450
450
450
450
450
450
450
450
450
450
450
450
450
450
450
450
450
450
450
450
450
450
450
450
450
450
450
450
450
450
450
450
450
450
450
450
450
450
450
450
450
450
450
450
450
450
450
450
450
450
450
450
450
450
450
450
450
450
450
450
450
450
450
450
450
450
450
450
450
450
450
450
450
450
450
450
450
450
450
450
450
450
450
450
450
450
450
450
450
450
450
450
450
450
450
450
450
450
450
450
450
450
450
450
450
450
450
450
450
450
450
450
450
450
450
450
450
450
450
450
450
450
450
450
450
450
450
450
450
450
450
450
450
450
450
450
450
450
450
450
450
450
450
450
450
450
450
450
450
450
450
450
450
450
450
450
450
450
450
450
450
450
450
450
450
450
450
450
450
450
450
450
450
450
450
450
450
450
450
450
450
450
450
450
450
450
450
450
450
450
450
450
450
450
450
450
450
450
450
450
450
450
450
450
450
450
450
450
450
450
450
450
450
450
450
450
450
450
450
450
450
450
450
450
450
450
450
450
450
450
450
450
450
450
450
450
450
450
450
450
450
450
450
450
450
450
450
450
450
450
450
450
450
450
450
450
450
450
450
450
450
450
450
450
450
450
450
450
450
450
450
450
450
450
450
450
450
450
450
450
450
450
450
450
450
450
450
450
450
450
450
450
450
450
450
450
450
450
450
450
450
450
450
450
450
450
450
450
450
450
450
450
450
450
450
450
450
450
450
450
450
450
450
450
450
450
450
450
450
450
450
450
450
450
450
450
450
450
450
450
450
450
450
450
450
450
450
450
450
450
450
450
450
450
450
450
450
450
450
450
450
450
450
450
450
450
450
450
450
450
450
450
450
450
450
450
450
450
450
450
450
450
450
450
450
450
450
450
450
450
450
450
450
450
450
450
450
450
450
450
450
450
450
450
450
450
450
450
450
450
450
450
450
450
450
450
450
450
450
450
450
450
450
450
450
450
450
450
450
450
450
450
450
450
450
450
450
450
450
450
450
450
450
450
450
450
450
450
450
450
450
450
450
450
450
450
450
450
450
450
450
450
450
450
450
450
450
450
450
450
450
450
450
450
450
450
450
450
450
450
450
450
450
450
450
450
450
450
450
450
450
450
450
450
450
450
450
450
450
450
450
450
450
450
450
450
450
450
450
450
450
450
450
450
450
450
450
450
450
450
450
450
450
450
450
450
450
450
450
450
450
450
450
450
450
450
450
450
450
450
450
450
450
450
450
450
450
450
SCALARS rr_Vext float
LOOKUP_TABLE default
0.181359
0.449122
0.356048
0.468108
0.250492
0.377827
0.179274
0.465088
0.395106
0.504564
0.165389
0.466507
0.409825
0.435012
0.516134
0.424863
0.369043
0.414183
0.36553
0.360526
0.405108
0.0765106
0.415069
0.383013
0.347104
0.40347
0.15501
0.352833
0.267412
0.339246
0.361968
0.276484
0.17152
0.252901
0.249247
0.253451
0.330126
0.24949
0.361539
0.192836
0.22472
0.29105
0.291059
0.397271
0.216885
0.244119
0.344611
0.350183
0.330078
0.30376
0.312853
0.245236
0.401517
0.315206
0.369413
0.157753
0.266178
0.317515
0.26615
0.393184
0.470928
0.464871
0.153275
0.327641
0.445312
0.417373
0.455653
0.391904
0.357985
0.515555
0.435553
0.43079
0.277653
0.338744
0.353971
0.176426
0.372675
0.413476
0.395168
0.271132
0.24049
0.283506
0.52753
0.24025
0.32776
0.119291
0.407579
0.344608
0.229705
0.0374828
0.273092
0.0407607
0.316356
0.299311
0.258658
0.232982
0.220908
0.442929
0.37291
0.351855
0.293535
0.277769
0.230478
0.418574
0.426137
0.383831
0.340625
0.340847
0.244628
0.512517
0.326025
0.164038
0.220056
0.457877
0.429717
0.304481
0.30863
0.183508
0.320034
0.303365
0.266985
0.502647
0.511808
0.442039
0.484524
0.384951
0.220814
0.478208
0.200078
0.262278
0.227503
0.456393
0.449022
0.448247
0.288936
0.187537
0.190638
0.327439
0.404467
0.187459
0.241541
0.387288
0.287969
0.472756
0.223275
0.385188
0.34973
0.336126
0.214789
0.269545
0.304298
0.440625
0.248026
0.397409
0.461988
0.469241
0.307855
0.249007
0.247656
0.401134
0.333852
0.246116
0.160076
0.239703
0.240466
0.430954
0.252348
0.2551
0.274619
0.245938
0.386343
0.258183
0.226058
0.297713
0.272811
0.340305
0.382117
0.361132
0.313976
0.360844
0.266566
0.418244
0.44885
0.241614
0.442298
0.239439
0.436793
0.402736
0.378964
0.379413
0.446225
0.200774
0.266927
0.246016
0.447408
0.439019
0.407197
0.447893
0.45295
0.381864
0.466567
0.307714
0.274109
0.512729
0.285546
0.465952
0.36996
0.226654
0.286341
0.461723
0.389033
0.350306
0.450054
0.445254
0.278858
0.28422
0.267542
0.395451
0.433417
0.49809
0.478087
0.520368
0.471556
0.515285
0.432054
0.4572
0.460649
0.434353
0.456355
0.422917
0.416634
0.28241
0.389409
0.454293
0.312119
0.470271
0.432154
0.492657
0.288245
0.468274
0.448675
0.284499
0.406912
0.282468
0.455236
0.411288
0.296254
0.277677
0.235552
0.271096
0.455771
0.1975
0.347019
0.276527
0.313902
0.468669
0.455546
0.147788
0.457102
0.23643
0.261763
0.466268
0.379026
0.264584
0.52218
0.29123
0.147779
0.267723
0.406397
0.50892
0.382688
0.457753
0.425154
0.226614
0.21673
0.175978
0.201427
0.308133
0.229074
0.37198
0.227523
0.406391
0.287621
0.2681
0.323952
0.293521
0.39852
0.281485
0.287595
0.13637
0.30357
0.437808
0.438056
0.391523
0.281115
0.192358
0.545875
0.360487
0.298316
0.27429
0.284975
0.282728
0.358841
0.27809
0.192059
0.27479
0.183495
0.351066
0.279575
0.127091
0.26372
0.321336
0.279314
0.443668
0.290709
0.381466
0.138314
0.305661
0.287013
0.261623
0.269317
0.32199
0.308721
0.321044
0.266563
0.271162
0.293858
0.4036
0.276094
0.39902
0.358786
0.290795
0.286473
0.290121
0.323371
0.289911
0.270116
0.308528
0.333028
0.387864
0.290168
0.286352
0.425141
0.419246
0.27621
0.290834
0.117368
0.342062
0.227677
0.319679
0.126304
0.131123
0.117233
0.119129
0.126411
0.133076
0.137186
0.365817
0.275202
0.269662
0.305533
0.296206
0.292406
0.314708
0.285992
0.292385
0.310822
0.291313
0.368786
0.261062
0.378831
0.289102
0.277577
0.291595
0.322764
0.328992
0.304694
0.351047
0.326029
0.300388
0.213974
0.303858
0.29886
0.328279
0.305307
0.288517
0.275034
0.304062
0.31909
0.436159
0.283304
0.423998
0.438657
0.298863
0.422861
0.322473
0.255676
0.356791
0.307316
0.229503
0.185269
0.353347
0.377137
0.31343
0.259541
0.317011
0.138204
0.309862
0.289511
0.140568
0.0597484
0.0653752
0.26865
0.283292
0.331354
0.316584
0.0311308
0.0325286
0.318178
0.32154
0.30424
0.103723
0.264725
0.315901
0.315639
0.272073
0.24028
0.107863
0.464463
0.284944
0.352158
0.357669
0.255161
0.323443
0.249474
0.275478
0.129738
0.19938
0.323803
0.327748
0.280323
0.293561
0.303655
0.320502
0.306407
0.14396
0.275777
0.301351
0.290882
0.437485
0.143857
0.23373
0.24057
0.234521
0.155624
0.155628
0.267697
0.208506
0.301871
0.153855
0.185525
0.0614166
0.0614141
0.112309
0.199632
0.134971
0.256998
0.284536
0.297804
0.336998
0.307415
0.28523
0.222214
0.127171
0.278047
0.290578
0.282436
0.144129
0.147644
0.104628
0.281945
0.285968
0.224179
0.258248
0.238711
0.223789
0.292909
0.223756
0.257201
0.251384
0.158046
0.195239
0.165307
0.310643
0.112706
0.118918
0.115939
0.294531
0.10769
0.104732
0.200915
0.0979317
0.243153
0.243507
0.100659
0.255443
0.113722
0.110988
0.127154
0.105858
0.105723
0.174204
0.12624
0.112774
0.106277
0.235808
0.272656
0.118743
0.260314
0.0960764
0.264786
0.20817
0.100551
0.0864347
0.0948693
0.12646
0.22555
0.192178
0.0824423
0.091407
0.253854
0.0775857
0.0775825
0.0878714
0.0979617
0.0995845
0.127333
0.207531
0.193793
0.253766
0.0775241
0.0775207
0.229251
0.0843463
0.178712
0.0765187
0.078341
0.103271
0.198595
0.205595
0.218906
0.200659
0.198579
0.0438923
0.32038
0.0557535
0.0543416
0.259007
0.257237
0.0563344
0.0390571
0.0548043
0.238559
SCALARS rr_Vli float
LOOKUP_TABLE default
0.396486
0.903295
0.721401
0.9429
0.493002
0.765663
0.392034
0.937668
0.806265
1.01511
0.359835
0.94054
0.8277
0.874152
1.02412
0.859726
0.739393
0.835913
0.748795
0.732052
0.823478
0.146196
0.843736
0.777624
0.704886
0.813138
0.333348
0.714255
0.560607
0.6598
0.731223
0.579527
0.369271
0.494391
0.485904
0.495506
0.641456
0.486895
0.73048
0.415064
0.471209
0.565329
0.565389
0.802512
0.463322
0.511146
0.70466
0.71357
0.668679
0.640141
0.657313
0.509708
0.79128
0.654952
0.728497
0.336093
0.518807
0.659754
0.51879
0.798044
0.943862
0.925028
0.327839
0.652216
0.886008
0.836193
0.912998
0.789772
0.727288
1.0367
0.858505
0.84915
0.582209
0.67685
0.716967
0.381182
0.738158
0.828437
0.796419
0.562479
0.507622
0.556447
1.0535
0.508331
0.685382
0.254579
0.825073
0.689485
0.49066
0.0719434
0.567527
0.0782461
0.626349
0.600258
0.537107
0.489901
0.466216
0.891212
0.738705
0.711147
0.604216
0.579672
0.487749
0.844108
0.858079
0.772712
0.679545
0.689378
0.517758
1.02964
0.661676
0.349478
0.467058
0.923819
0.865434
0.63249
0.601612
0.38741
0.624
0.62999
0.547958
0.99831
1.02947
0.884276
0.972854
0.763251
0.431749
0.962234
0.422252
0.544645
0.448452
0.918477
0.897108
0.90182
0.602898
0.365537
0.404181
0.66093
0.80773
0.365414
0.503537
0.778932
0.590239
0.951058
0.47153
0.776063
0.704321
0.680953
0.435246
0.556267
0.620245
0.886305
0.519981
0.802495
0.929439
0.94426
0.617852
0.518655
0.515712
0.810195
0.680204
0.515658
0.341238
0.503637
0.500927
0.867512
0.525644
0.531442
0.575695
0.512235
0.764766
0.536472
0.475014
0.597024
0.566757
0.679099
0.75645
0.728157
0.61851
0.726371
0.558759
0.841634
0.903302
0.503621
0.884781
0.503407
0.873805
0.803282
0.749914
0.763387
0.89254
0.423343
0.554569
0.51569
0.900207
0.886298
0.821709
0.894902
0.911194
0.765269
0.938414
0.629673
0.568291
1.02453
0.59847
0.93055
0.741276
0.473239
0.569197
0.928572
0.772726
0.703604
0.906433
0.889135
0.575328
0.57047
0.554199
0.788781
0.870375
1.00028
0.961013
1.04558
0.947449
1.03539
0.86871
0.907695
0.914768
0.862343
0.90593
0.833929
0.821515
0.583003
0.782793
0.915905
0.636237
0.933119
0.857208
0.993022
0.597474
0.944367
0.902753
0.586735
0.8088
0.582773
0.908853
0.829724
0.610879
0.57498
0.497304
0.572061
0.9101
0.417613
0.70148
0.572845
0.642711
0.945255
0.914965
0.286927
0.918292
0.500196
0.542257
0.940098
0.764199
0.548648
1.04887
0.596675
0.286927
0.554499
0.815976
1.01856
0.772232
0.908464
0.850821
0.4466
0.437752
0.374434
0.429883
0.608683
0.465558
0.749991
0.469384
0.807667
0.576816
0.555339
0.649546
0.603994
0.802276
0.579178
0.596019
0.263019
0.600442
0.868509
0.869128
0.787207
0.578062
0.376387
1.09285
0.734299
0.613257
0.565365
0.562957
0.583122
0.710459
0.572676
0.410196
0.565166
0.387691
0.700125
0.576598
0.245149
0.543076
0.642112
0.576619
0.887239
0.598796
0.772172
0.296222
0.619802
0.592061
0.51704
0.555816
0.655878
0.617313
0.645548
0.549009
0.557646
0.602196
0.804985
0.567869
0.804504
0.726241
0.573154
0.589127
0.594775
0.657841
0.593794
0.555993
0.631806
0.662545
0.782179
0.59465
0.590809
0.855286
0.843306
0.568299
0.573277
0.256087
0.6926
0.480627
0.650102
0.287606
0.29855
0.266803
0.271172
0.287682
0.303056
0.312311
0.729342
0.539723
0.544564
0.622603
0.606499
0.598932
0.633518
0.58613
0.599483
0.609469
0.596711
0.732657
0.542544
0.753106
0.586002
0.565698
0.597464
0.637465
0.666111
0.620591
0.710714
0.663996
0.615741
0.444039
0.619296
0.605571
0.652003
0.624635
0.591867
0.562871
0.620017
0.64672
0.877916
0.579856
0.853547
0.889737
0.609276
0.852427
0.653928
0.523839
0.713542
0.625424
0.4504
0.395665
0.704467
0.750312
0.6352
0.528048
0.635251
0.301236
0.62802
0.589264
0.300912
0.115298
0.126126
0.544003
0.580096
0.673735
0.64766
0.0592774
0.0619388
0.641395
0.648086
0.613481
0.226113
0.542803
0.631011
0.643416
0.555013
0.489877
0.235469
0.929281
0.583732
0.713231
0.724381
0.520581
0.658847
0.508988
0.561646
0.279101
0.421176
0.659631
0.663707
0.570432
0.599123
0.618255
0.651891
0.623522
0.307427
0.547096
0.61683
0.583014
0.8749
0.307367
0.473532
0.487752
0.46224
0.300515
0.300535
0.529553
0.427592
0.611535
0.329005
0.358876
0.117176
0.117176
0.245398
0.389619
0.262494
0.52105
0.563538
0.60141
0.677645
0.614656
0.569069
0.448035
0.27725
0.562545
0.582799
0.564246
0.311556
0.287924
0.224284
0.563451
0.574849
0.461941
0.521746
0.481453
0.440836
0.590093
0.440797
0.520821
0.502146
0.307811
0.380027
0.353393
0.623981
0.246785
0.259979
0.254333
0.589282
0.234981
0.230138
0.410008
0.214644
0.47712
0.477842
0.220334
0.519609
0.244574
0.243122
0.273901
0.231958
0.227739
0.339829
0.270697
0.245996
0.232677
0.475748
0.543001
0.256116
0.525107
0.211011
0.532688
0.423218
0.220454
0.186663
0.208255
0.276319
0.457466
0.376607
0.157552
0.174883
0.509985
0.148307
0.148306
0.168048
0.188628
0.213205
0.248113
0.410273
0.37976
0.51034
0.149004
0.149003
0.448511
0.184461
0.363609
0.167149
0.16815
0.221553
0.384549
0.398195
0.424213
0.388778
0.384539
0.0840102
0.620731
0.107163
0.103829
0.501444
0.497965
0.107596
0.0747328
0.105301
0.462542
SCALARS rr_S_ext' float
LOOKUP_TABLE default
-0.000228503
-0.000522022
-0.000416808
-0.000544884
-0.000285105
-0.000442378
-0.000225935
-0.000541847
-0.000465734
-0.000586638
-0.000207412
-0.000543506
-0.000478273
-0.000505195
-0.0005921
-0.000496749
-0.000427354
-0.000483029
-0.000432482
-0.000422932
-0.000475736
-8.46216e-05
-0.000487438
-0.000449262
-0.000407235
-0.00046989
-0.000192223
-0.00041269
-0.000323546
-0.000381703
-0.000422523
-0.000334467
-0.000212929
-0.000285967
-0.000281082
-0.000286611
-0.000371101
-0.000281646
-0.000422091
-0.000239336
-0.000271949
-0.000327063
-0.000327097
-0.000463716
-0.00026723
-0.000295012
-0.000407015
-0.000412208
-0.000386348
-0.000369383
-0.00037933
-0.000294254
-0.00045758
-0.000378107
-0.000421266
-0.000193867
-0.000300118
-0.000380879
-0.000300107
-0.000461063
-0.000545526
-0.000534763
-0.000189081
-0.000377045
-0.000512207
-0.000483304
-0.000527692
-0.000456388
-0.000420172
-0.000599124
-0.000496452
-0.000491042
-0.000336011
-0.00039124
-0.00041425
-0.00021977
-0.000426794
-0.00047882
-0.000460228
-0.000324738
-0.0002929
-0.000321823
-0.000608966
-0.000293286
-0.000395592
-0.000146839
-0.00047672
-0.000398527
-0.000282999
-4.16369e-05
-0.000327635
-4.52844e-05
-0.000362152
-0.000346927
-0.000310081
-0.00028271
-0.00026901
-0.000515033
-0.00042711
-0.000410915
-0.000348923
-0.0003346
-0.000281408
-0.000487776
-0.000495873
-0.000446544
-0.000392816
-0.000398328
-0.000298721
-0.00059506
-0.000382279
-0.000201587
-0.000269445
-0.00053383
-0.000500121
-0.000365143
-0.000348017
-0.000223537
-0.000360966
-0.000363703
-0.000316465
-0.000577161
-0.000594938
-0.000511119
-0.00056225
-0.000441288
-0.000249733
-0.000556076
-0.000243643
-0.000314432
-0.000259328
-0.000530785
-0.000518556
-0.000521164
-0.000348008
-0.000211454
-0.00023318
-0.000381915
-0.000466899
-0.000211382
-0.000290663
-0.000450153
-0.000340899
-0.000549621
-0.000272071
-0.000448469
-0.000407017
-0.000393439
-0.000251473
-0.000321207
-0.000358294
-0.000512201
-0.000300098
-0.000463711
-0.000537127
-0.000545686
-0.000357087
-0.000299399
-0.000297702
-0.000468157
-0.000392935
-0.00029761
-0.00019683
-0.000290645
-0.000289163
-0.000501329
-0.000303432
-0.000306778
-0.000332254
-0.000295693
-0.000442187
-0.000309708
-0.000274126
-0.000345058
-0.000327194
-0.000392555
-0.000437378
-0.000420776
-0.000357676
-0.000419766
-0.000322481
-0.00048638
-0.000522016
-0.000290713
-0.000511411
-0.000290506
-0.000505066
-0.000464347
-0.000433604
-0.000441163
-0.000515898
-0.00024428
-0.000320156
-0.000297623
-0.000520231
-0.000512139
-0.000474823
-0.00051728
-0.000526583
-0.000442307
-0.000542317
-0.000363694
-0.000328101
-0.000592209
-0.000345401
-0.000537893
-0.000428442
-0.00027316
-0.000329066
-0.00053663
-0.000446742
-0.000406637
-0.000523813
-0.000513955
-0.000332216
-0.000329702
-0.000319974
-0.000455964
-0.000503021
-0.000578097
-0.000555386
-0.000604268
-0.000547556
-0.000598375
-0.000502041
-0.000524779
-0.000528864
-0.000498559
-0.00052376
-0.000482235
-0.000475057
-0.000336641
-0.000452391
-0.000529267
-0.000367531
-0.000539488
-0.000495604
-0.000573834
-0.000344952
-0.000545709
-0.000521703
-0.000338807
-0.000467587
-0.000336516
-0.000525357
-0.000479456
-0.000352751
-0.000331976
-0.000286945
-0.000330084
-0.000526074
-0.000240951
-0.000405327
-0.000330738
-0.000371217
-0.00054622
-0.000528788
-0.000166
-0.000530707
-0.000288594
-0.000313078
-0.000543246
-0.000441604
-0.000316758
-0.000606177
-0.000344621
-0.000166
-0.000320148
-0.000471584
-0.000588725
-0.000446233
-0.00052523
-0.000491777
-0.000258259
-0.000252947
-0.000215992
-0.000247952
-0.000351963
-0.000268962
-0.000433393
-0.000271041
-0.000466934
-0.000333378
-0.000320632
-0.000375416
-0.000348799
-0.00046363
-0.000334469
-0.000344113
-0.000152199
-0.000347183
-0.000502136
-0.000502492
-0.000454939
-0.000333831
-0.000217705
-0.00063166
-0.000424187
-0.00035416
-0.000326474
-0.000325522
-0.000336721
-0.000410784
-0.000330705
-0.00023659
-0.000326382
-0.000223693
-0.000404717
-0.000332954
-0.000141858
-0.000313612
-0.000371159
-0.000332955
-0.000512836
-0.000345787
-0.000446155
-0.000170839
-0.000358096
-0.00034188
-0.000298967
-0.000320946
-0.000378885
-0.000356817
-0.00037307
-0.000317037
-0.000322041
-0.000347807
-0.000465332
-0.000327943
-0.000464895
-0.000419617
-0.000331442
-0.000340221
-0.000343517
-0.000380036
-0.00034296
-0.000321076
-0.000364918
-0.000383023
-0.000451991
-0.000343449
-0.000341155
-0.000494275
-0.000487354
-0.000328187
-0.000331512
-0.000147597
-0.000400176
-0.000277323
-0.000375569
-0.000165511
-0.000171809
-0.000153542
-0.000156055
-0.000165558
-0.000174401
-0.00017973
-0.00042161
-0.000312157
-0.000314668
-0.000359658
-0.000350302
-0.000345927
-0.000366107
-0.000338527
-0.000346234
-0.000352498
-0.000344644
-0.000423574
-0.000313211
-0.000435386
-0.000338573
-0.000326785
-0.000345076
-0.000368608
-0.000384871
-0.000358502
-0.000410644
-0.000383577
-0.000355627
-0.000256356
-0.000357746
-0.000349883
-0.000376948
-0.000360786
-0.00034183
-0.000325108
-0.000358157
-0.000373655
-0.000507344
-0.000334917
-0.000493259
-0.00051405
-0.000351955
-0.000492591
-0.000377813
-0.000302553
-0.000412436
-0.000361303
-0.000260491
-0.00022821
-0.000407231
-0.000433762
-0.000367
-0.000305053
-0.000367161
-0.000173624
-0.00036285
-0.000340413
-0.000173546
-6.67175e-05
-7.29836e-05
-0.000314317
-0.000335051
-0.000389224
-0.000374086
-3.43148e-05
-3.58555e-05
-0.000370641
-0.00037451
-0.000354508
-0.000130325
-0.000313498
-0.000364746
-0.000371678
-0.000320603
-0.000282982
-0.000135711
-0.00053713
-0.000337146
-0.000412092
-0.000418535
-0.000300713
-0.0003806
-0.000294016
-0.000324441
-0.00016094
-0.000243015
-0.000381052
-0.00038348
-0.000329536
-0.000346078
-0.000357157
-0.0003766
-0.000360205
-0.000177317
-0.000316309
-0.000356272
-0.000336967
-0.000505704
-0.000177279
-0.000273596
-0.000281805
-0.000267303
-0.000173889
-0.000173901
-0.000306193
-0.000246956
-0.000353331
-0.000189754
-0.000207648
-6.78275e-05
-6.78271e-05
-0.000141429
-0.000225376
-0.000151856
-0.000301043
-0.000325832
-0.000347516
-0.00039162
-0.000355281
-0.000328954
-0.000258904
-0.000159798
-0.00032504
-0.000336835
-0.000326153
-0.000179625
-0.000166554
-0.000129346
-0.000325689
-0.000332216
-0.000266753
-0.000301479
-0.000278212
-0.000254929
-0.000341003
-0.000254907
-0.000300923
-0.000290258
-0.000178065
-0.000219845
-0.000203822
-0.000360619
-0.00014222
-0.000149832
-0.00014656
-0.000340609
-0.000135432
-0.000132609
-0.000236839
-0.000123693
-0.000275946
-0.000276363
-0.000126977
-0.000300179
-0.000141032
-0.000140107
-0.000157934
-0.000133671
-0.000131316
-0.000196578
-0.00015611
-0.000141782
-0.00013409
-0.000274913
-0.000313903
-0.000147672
-0.000303436
-0.00012159
-0.000307843
-0.000244498
-0.00012704
-0.000107622
-0.000120004
-0.000159249
-0.000264304
-0.000217822
-9.11942e-05
-0.000101222
-0.000294736
-8.58426e-05
-8.58417e-05
-9.72679e-05
-0.000109157
-0.000122961
-0.000143529
-0.000237229
-0.000219646
-0.000294931
-8.62319e-05
-8.62311e-05
-0.000259423
-0.000106306
-0.000210056
-9.6333e-05
-9.69695e-05
-0.000127768
-0.000222496
-0.00023039
-0.00024544
-0.000224939
-0.00022249
-4.86246e-05
-0.000359143
-6.20175e-05
-6.00986e-05
-0.000290132
-0.00028812
-6.22801e-05
-4.32554e-05
-6.09404e-05
-0.000267612
SCALARS rr_P_ext' float
LOOKUP_TABLE default
0.000184222
0.000425465
0.000339398
0.000444014
0.000232991
0.000360211
0.000182145
0.000441489
0.000378896
0.00047811
0.000167329
0.00044284
0.000389605
0.000411795
0.00048339
0.000404557
0.000348473
0.000393514
0.000351672
0.000344291
0.000387223
6.93996e-05
0.000396747
0.000365731
0.000331508
0.000382877
0.000155318
0.000336082
0.000262308
0.000312381
0.000344179
0.000271168
0.000172023
0.000233887
0.000229969
0.000234412
0.000303739
0.000230401
0.00034382
0.000193363
0.000220471
0.000267706
0.000267732
0.000377736
0.000216116
0.000239213
0.00033104
0.000335411
0.000314601
0.000299266
0.000307446
0.000238828
0.00037388
0.000306898
0.00034418
0.000156841
0.000245549
0.000309148
0.000245538
0.000375351
0.000444813
0.000436427
0.000152889
0.000307696
0.000418024
0.000394098
0.000430286
0.000371879
0.000342021
0.000488317
0.000405633
0.000401211
0.000272405
0.000319132
0.000337328
0.000177465
0.00034851
0.000390438
0.000375004
0.000263634
0.000237251
0.000263085
0.000496763
0.000237488
0.000320823
0.000118768
0.000388227
0.000325022
0.000228872
3.41291e-05
0.000265926
3.71182e-05
0.000295739
0.000282857
0.000251705
0.000229111
0.000217904
0.000419746
0.000348762
0.000334703
0.000283553
0.000271431
0.000227865
0.000397421
0.000404093
0.000363904
0.00032048
0.000324422
0.00024188
0.000485061
0.000311216
0.000163087
0.000218094
0.000434916
0.000407546
0.000296386
0.000284736
0.000181062
0.000295321
0.000295229
0.000257272
0.000471138
0.000484888
0.000416856
0.000458348
0.0003603
0.000204247
0.000453194
0.000197356
0.000255235
0.000211886
0.000432574
0.000422989
0.000424749
0.000282313
0.000173006
0.000188767
0.000311133
0.000380873
0.000172946
0.000235822
0.000366889
0.000277182
0.000447945
0.000220364
0.000365437
0.000331677
0.000320374
0.000204766
0.000260943
0.000291531
0.000417454
0.000243298
0.00037775
0.00043776
0.000444722
0.000291114
0.000242936
0.000241567
0.000381361
0.000319735
0.000241299
0.000159226
0.000235566
0.000234628
0.000408555
0.000246207
0.000248918
0.000269369
0.000239931
0.000361106
0.00025138
0.000222174
0.000281336
0.00026558
0.000320256
0.000357176
0.000342837
0.000292265
0.000342085
0.000261449
0.000396389
0.000425427
0.000235866
0.000417096
0.000235434
0.000411919
0.000378848
0.000354111
0.000359545
0.000420761
0.000197895
0.000259865
0.000241296
0.000423983
0.000417213
0.000386835
0.000421945
0.00042917
0.000360655
0.000442003
0.000295778
0.000266386
0.00048306
0.000280036
0.000438785
0.000349358
0.000221575
0.000268589
0.000437375
0.000364673
0.000331478
0.00042685
0.000419262
0.000269896
0.000268786
0.000259816
0.000372007
0.000410056
0.000471256
0.000452689
0.000492557
0.000446332
0.000487752
0.000409194
0.000428399
0.000431721
0.000406994
0.000427572
0.000393997
0.000388134
0.00027347
0.000368736
0.00043124
0.000299044
0.000440437
0.000404627
0.000467566
0.000280075
0.00044462
0.000425183
0.000275265
0.000381656
0.000273389
0.000428576
0.000390624
0.000286599
0.000269575
0.000232421
0.00026738
0.00042915
0.000195127
0.000330145
0.000268555
0.000301874
0.000445032
0.000431053
0.000135881
0.000432605
0.000233693
0.000254216
0.000442627
0.00035981
0.00025717
0.000494133
0.000280223
0.00013588
0.000259963
0.000384437
0.000480122
0.000363544
0.000428786
0.000401063
0.000211018
0.00020605
0.000174771
0.000200551
0.000287499
0.000218926
0.00035312
0.000220199
0.000381128
0.000271811
0.000260352
0.000306093
0.000283463
0.000377828
0.00027182
0.000279401
0.000124683
0.00028355
0.000409954
0.000410238
0.000370804
0.000271323
0.000178037
0.000515117
0.000345175
0.000287856
0.000265263
0.0002659
0.000273567
0.000335454
0.000268733
0.000191342
0.000265262
0.000181169
0.000330204
0.000270508
0.000116209
0.000254843
0.00030275
0.000270475
0.000418275
0.00028098
0.000363338
0.000138115
0.000291561
0.000277753
0.000244196
0.00026073
0.000308311
0.000291028
0.000304073
0.000257621
0.000261737
0.000282806
0.000379653
0.000266529
0.000378788
0.000341727
0.00027081
0.000276513
0.000279303
0.000309298
0.000278883
0.000260924
0.000296745
0.000312598
0.000368264
0.000279261
0.000277157
0.000402836
0.000397203
0.000266717
0.000270865
0.000119027
0.000325882
0.00022463
0.000305676
0.000132685
0.000137737
0.0001231
0.000125111
0.000132734
0.000139811
0.000144089
0.000343999
0.000255208
0.000256334
0.000292651
0.000284864
0.000281295
0.000298355
0.000275257
0.000281509
0.000288196
0.00028025
0.000345752
0.000254219
0.000355365
0.000275678
0.000265899
0.000280591
0.000301102
0.00031342
0.000291728
0.000334411
0.000312135
0.000289154
0.000208111
0.000291089
0.0002849
0.000307703
0.00029342
0.000277909
0.000264393
0.000291405
0.000304247
0.00041346
0.000272368
0.000401976
0.000418523
0.000286367
0.000401362
0.000307612
0.000246016
0.000336385
0.000294038
0.00021295
0.000184567
0.000332267
0.000354006
0.000298831
0.000248268
0.000299384
0.000140036
0.00029545
0.000277032
0.000140313
5.46521e-05
5.97868e-05
0.000255961
0.00027246
0.000316796
0.00030424
2.81538e-05
2.94178e-05
0.000301998
0.000305156
0.000288842
0.000105111
0.00025489
0.000297533
0.000302418
0.000260837
0.000230246
0.000109434
0.000438062
0.000274149
0.000335575
0.000340822
0.00024465
0.000309706
0.000239201
0.000263978
0.000130035
0.000196823
0.000310071
0.000312281
0.000268188
0.000281546
0.000290647
0.000306509
0.000293147
0.000143408
0.00025824
0.000289732
0.000274757
0.000412456
0.000143367
0.000222785
0.000229449
0.000218404
0.000142431
0.00014244
0.000250069
0.000200784
0.000287716
0.000153438
0.000170048
5.56365e-05
5.56359e-05
0.000114031
0.000184368
0.000124278
0.000245113
0.000266069
0.000283092
0.000319191
0.000289778
0.000268376
0.00021095
0.000128881
0.000264721
0.000274626
0.000266046
0.000145038
0.000136262
0.000104558
0.000265658
0.000270785
0.000216748
0.000245577
0.000226672
0.000208309
0.00027787
0.000208289
0.000245053
0.000236771
0.000145702
0.000179901
0.00016482
0.000293963
0.000114635
0.000120796
0.000118104
0.000277787
0.000109216
0.000106837
0.000192678
9.96885e-05
0.000225589
0.000225928
0.000102354
0.000244308
0.000113954
0.000112926
0.000127584
0.000107734
0.000106081
0.000160819
0.000126187
0.000114342
0.000108084
0.000223975
0.000256154
0.000119273
0.000247219
9.79666e-05
0.000250894
0.000199005
0.000102382
8.69107e-05
9.66954e-05
0.000128399
0.000215189
0.0001781
7.47888e-05
8.30017e-05
0.000240253
7.03978e-05
7.03968e-05
7.9763e-05
8.94401e-05
9.94131e-05
0.000117436
0.000193761
0.000179592
0.000240381
7.06711e-05
7.06702e-05
0.000212157
8.57021e-05
0.000170954
7.76742e-05
7.83722e-05
0.000103271
0.000182185
0.000188643
0.000200952
0.000184172
0.000182179
3.987e-05
0.000294053
5.08262e-05
4.92883e-05
0.000237571
0.000235927
5.10796e-05
3.54687e-05
4.99455e-05
0.000219092
SCALARS rr_S' float
LOOKUP_TABLE default
1.00133e-05
2.42705e-05
1.92847e-05
2.53081e-05
1.34427e-05
2.04653e-05
9.89875e-06
2.51527e-05
2.14456e-05
2.72694e-05
9.12188e-06
2.52295e-05
2.21758e-05
2.35021e-05
2.77721e-05
2.30031e-05
1.99192e-05
2.24065e-05
1.98622e-05
1.95398e-05
2.19634e-05
4.06348e-06
2.25032e-05
2.07578e-05
1.8813e-05
2.18175e-05
8.52837e-06
1.91053e-05
1.46226e-05
1.81314e-05
1.95878e-05
1.51179e-05
9.43921e-06
1.35406e-05
1.33326e-05
1.35704e-05
1.76381e-05
1.33505e-05
1.95656e-05
1.06117e-05
1.22887e-05
1.55484e-05
1.55493e-05
2.1498e-05
1.19144e-05
1.33447e-05
1.87158e-05
1.89993e-05
1.78772e-05
1.66321e-05
1.71169e-05
1.33796e-05
2.15566e-05
1.71959e-05
1.98375e-05
8.66085e-06
1.42373e-05
1.73219e-05
1.42361e-05
2.13071e-05
2.54212e-05
2.50373e-05
8.42277e-06
1.76486e-05
2.3983e-05
2.2528e-05
2.45946e-05
2.11917e-05
1.94052e-05
2.78586e-05
2.33853e-05
2.31299e-05
1.51835e-05
1.82686e-05
1.91704e-05
9.71667e-06
2.00418e-05
2.23182e-05
2.13686e-05
1.47849e-05
1.31733e-05
1.52005e-05
2.84444e-05
1.31679e-05
1.79108e-05
6.55173e-06
2.20697e-05
1.85927e-05
1.26183e-05
1.99393e-06
1.48989e-05
2.16841e-06
1.70107e-05
1.61606e-05
1.41085e-05
1.27496e-05
1.21003e-05
2.39392e-05
2.00552e-05
1.90434e-05
1.59722e-05
1.51711e-05
1.26328e-05
2.26385e-05
2.3037e-05
2.07485e-05
1.83606e-05
1.84515e-05
1.34089e-05
2.76862e-05
1.76672e-05
9.00559e-06
1.20701e-05
2.47679e-05
2.32318e-05
1.66096e-05
1.65086e-05
1.00526e-05
1.712e-05
1.65474e-05
1.45153e-05
2.70548e-05
2.76587e-05
2.38478e-05
2.61693e-05
2.07084e-05
1.18236e-05
2.58462e-05
1.09593e-05
1.4306e-05
1.2215e-05
2.4668e-05
2.42146e-05
2.42255e-05
1.57805e-05
1.00309e-05
1.04541e-05
1.77149e-05
2.18087e-05
1.0027e-05
1.31887e-05
2.09296e-05
1.56503e-05
2.55499e-05
1.22321e-05
2.08269e-05
1.89075e-05
1.8205e-05
1.1634e-05
1.46773e-05
1.6511e-05
2.38119e-05
1.35625e-05
2.15031e-05
2.49683e-05
2.53618e-05
1.66257e-05
1.35934e-05
1.35187e-05
2.17058e-05
1.81125e-05
1.3456e-05
8.78934e-06
1.31148e-05
1.31275e-05
2.32953e-05
1.37759e-05
1.39267e-05
1.50165e-05
1.34256e-05
2.07724e-05
1.4085e-05
1.23686e-05
1.60741e-05
1.48823e-05
1.8345e-05
2.05457e-05
1.95311e-05
1.68547e-05
1.95055e-05
1.45759e-05
2.26058e-05
2.42606e-05
1.31922e-05
2.38621e-05
1.31025e-05
2.3565e-05
2.17072e-05
2.03737e-05
2.05061e-05
2.40731e-05
1.0995e-05
1.45615e-05
1.34521e-05
2.41808e-05
2.37522e-05
2.20277e-05
2.41541e-05
2.44788e-05
2.06133e-05
2.52133e-05
1.67155e-05
1.49447e-05
2.76514e-05
1.56132e-05
2.51243e-05
1.99695e-05
1.23809e-05
1.54169e-05
2.49507e-05
2.09406e-05
1.89231e-05
2.43317e-05
2.40075e-05
1.51832e-05
1.53499e-05
1.45833e-05
2.13149e-05
2.34101e-05
2.69036e-05
2.58306e-05
2.81117e-05
2.54743e-05
2.78372e-05
2.33463e-05
2.46055e-05
2.47931e-05
2.33759e-05
2.45593e-05
2.27098e-05
2.23722e-05
1.53792e-05
2.10404e-05
2.45675e-05
1.6936e-05
2.53043e-05
2.32509e-05
2.66403e-05
1.57145e-05
2.53259e-05
2.42496e-05
1.54888e-05
2.19078e-05
1.53799e-05
2.4544e-05
2.22461e-05
1.6128e-05
1.51341e-05
1.29035e-05
1.48485e-05
2.45744e-05
1.08233e-05
1.87825e-05
1.50732e-05
1.70544e-05
2.5348e-05
2.46067e-05
7.89388e-06
2.46925e-05
1.29585e-05
1.42684e-05
2.52155e-05
2.04986e-05
1.44261e-05
2.82066e-05
1.58257e-05
7.89359e-06
1.45926e-05
2.19495e-05
2.74602e-05
2.07017e-05
2.46323e-05
2.29399e-05
1.21666e-05
1.17276e-05
9.65827e-06
1.10629e-05
1.65562e-05
1.24188e-05
2.01175e-05
1.23881e-05
2.18788e-05
1.55295e-05
1.46135e-05
1.749e-05
1.597e-05
2.15428e-05
1.53149e-05
1.56782e-05
7.26706e-06
1.63178e-05
2.35557e-05
2.35702e-05
2.11562e-05
1.52921e-05
1.03023e-05
2.94572e-05
1.95562e-05
1.62265e-05
1.49308e-05
1.5312e-05
1.53926e-05
1.9295e-05
1.51338e-05
1.055e-05
1.49488e-05
1.00538e-05
1.89213e-05
1.52208e-05
6.77282e-06
1.43517e-05
1.73299e-05
1.52107e-05
2.39331e-05
1.58214e-05
2.06555e-05
7.60302e-06
1.65594e-05
1.56267e-05
1.40591e-05
1.4665e-05
1.74677e-05
1.66533e-05
1.73479e-05
1.45069e-05
1.47511e-05
1.59695e-05
2.17536e-05
1.50199e-05
2.15799e-05
1.94273e-05
1.56131e-05
1.55839e-05
1.57683e-05
1.7536e-05
1.57527e-05
1.46979e-05
1.67634e-05
1.79352e-05
2.09779e-05
1.57692e-05
1.55914e-05
2.29771e-05
2.26575e-05
1.50276e-05
1.56156e-05
6.4772e-06
1.85235e-05
1.24718e-05
1.73339e-05
7.021e-06
7.28876e-06
6.51623e-06
6.6218e-06
7.02628e-06
7.39764e-06
7.62576e-06
1.97146e-05
1.47508e-05
1.45909e-05
1.65768e-05
1.60931e-05
1.58885e-05
1.70119e-05
1.55425e-05
1.58919e-05
1.6659e-05
1.58292e-05
1.98521e-05
1.42427e-05
2.03965e-05
1.56605e-05
1.50606e-05
1.58459e-05
1.73412e-05
1.78156e-05
1.6529e-05
1.90094e-05
1.76859e-05
1.63256e-05
1.1669e-05
1.64867e-05
1.61876e-05
1.767e-05
1.65838e-05
1.56839e-05
1.49408e-05
1.65002e-05
1.72846e-05
2.35763e-05
1.53905e-05
2.29199e-05
2.37666e-05
1.6217e-05
2.28681e-05
1.74706e-05
1.38937e-05
1.9247e-05
1.66673e-05
1.23043e-05
1.01769e-05
1.90426e-05
2.03108e-05
1.69776e-05
1.40751e-05
1.7112e-05
7.62547e-06
1.67846e-05
1.57023e-05
7.72612e-06
3.18457e-06
3.48418e-06
1.45483e-05
1.53919e-05
1.79663e-05
1.71961e-05
1.65125e-06
1.72539e-06
1.72066e-05
1.7388e-05
1.64546e-05
5.72326e-06
1.43885e-05
1.70347e-05
1.7127e-05
1.47662e-05
1.30384e-05
5.95322e-06
2.50589e-05
1.54835e-05
1.90718e-05
1.93701e-05
1.38488e-05
1.75466e-05
1.35402e-05
1.49485e-05
7.13863e-06
1.09237e-05
1.75665e-05
1.7749e-05
1.52029e-05
1.59346e-05
1.6471e-05
1.73795e-05
1.66175e-05
7.9077e-06
1.48383e-05
1.63711e-05
1.57026e-05
2.36e-05
7.903e-06
1.26592e-05
1.30326e-05
1.25916e-05
8.29653e-06
8.29687e-06
1.439e-05
1.13334e-05
1.63495e-05
8.4539e-06
9.89665e-06
3.26003e-06
3.25995e-06
6.19978e-06
1.06827e-05
7.21357e-06
1.39226e-05
1.53014e-05
1.61138e-05
1.82102e-05
1.65822e-05
1.53752e-05
1.20179e-05
7.01702e-06
1.50534e-05
1.56896e-05
1.52309e-05
7.93878e-06
7.89841e-06
5.75261e-06
1.52059e-05
1.54515e-05
1.22019e-05
1.39754e-05
1.29114e-05
1.20129e-05
1.58373e-05
1.20114e-05
1.39284e-05
1.35559e-05
8.45102e-06
1.04378e-05
9.08263e-06
1.67805e-05
6.22481e-06
6.56592e-06
6.40562e-06
1.58908e-05
5.94324e-06
5.78832e-06
1.09054e-05
5.40982e-06
1.30357e-05
1.3055e-05
5.5591e-06
1.38518e-05
6.25701e-06
6.13051e-06
6.99847e-06
5.84749e-06
5.81891e-06
9.3205e-06
6.94093e-06
6.22343e-06
5.86953e-06
1.27557e-05
1.46888e-05
6.53741e-06
1.40806e-05
5.30938e-06
1.43105e-05
1.12866e-05
5.55494e-06
4.75995e-06
5.2423e-06
6.98091e-06
1.22203e-05
1.02982e-05
4.3787e-06
4.85684e-06
1.37137e-05
4.12111e-06
4.12099e-06
4.66828e-06
5.21718e-06
5.4734e-06
6.80995e-06
1.11535e-05
1.03846e-05
1.37133e-05
4.12605e-06
4.12593e-06
1.2278e-05
4.65694e-06
9.69168e-06
4.22392e-06
4.30859e-06
5.6789e-06
1.05976e-05
1.09721e-05
1.16848e-05
1.07101e-05
1.0597e-05
2.33253e-06
1.71002e-05
2.96737e-06
2.886e-06
1.38206e-05
1.37257e-05
2.99144e-06
2.07536e-06
2.91648e-06
1.27362e-05
SCALARS rr_P' float
LOOKUP_TABLE default
3.42672e-05
7.2287e-05
5.81253e-05
7.55614e-05
3.86714e-05
6.17016e-05
3.38907e-05
7.52054e-05
6.5392e-05
8.12583e-05
3.09613e-05
7.54365e-05
6.64928e-05
6.98984e-05
8.09385e-05
6.91885e-05
5.89613e-05
6.71089e-05
6.09473e-05
5.91009e-05
6.65495e-05
1.11585e-05
6.81873e-05
6.27736e-05
5.69142e-05
6.5195e-05
2.83765e-05
5.75025e-05
4.66154e-05
5.11903e-05
5.87555e-05
4.81809e-05
3.14673e-05
3.8539e-05
3.77807e-05
3.86285e-05
4.97236e-05
3.78951e-05
5.8705e-05
3.53617e-05
3.91896e-05
4.38081e-05
4.38157e-05
6.44818e-05
3.91998e-05
4.24545e-05
5.72588e-05
5.77974e-05
5.38696e-05
5.34854e-05
5.47676e-05
4.20457e-05
6.21438e-05
5.4013e-05
5.72484e-05
2.8365e-05
4.03317e-05
5.44092e-05
4.03331e-05
6.44049e-05
7.52911e-05
7.32991e-05
2.77689e-05
5.17004e-05
7.01998e-05
6.66782e-05
7.28106e-05
6.33174e-05
5.87459e-05
8.2948e-05
6.74342e-05
6.6702e-05
4.84218e-05
5.38392e-05
5.77512e-05
3.25883e-05
5.82429e-05
6.60636e-05
6.38555e-05
4.63188e-05
4.24762e-05
4.35373e-05
8.3758e-05
4.26294e-05
5.68581e-05
2.15188e-05
6.64237e-05
5.49116e-05
4.15089e-05
5.51393e-06
4.68093e-05
5.99778e-06
4.94019e-05
4.79087e-05
4.4268e-05
4.08492e-05
3.90058e-05
7.13476e-05
5.82922e-05
5.71686e-05
4.93987e-05
4.79979e-05
4.09106e-05
6.77173e-05
6.87435e-05
6.18913e-05
5.39753e-05
5.54542e-05
4.34325e-05
8.2313e-05
5.33953e-05
2.94942e-05
3.92809e-05
7.41454e-05
6.93435e-05
5.21471e-05
4.67733e-05
3.24222e-05
4.85253e-05
5.19271e-05
4.46783e-05
7.8968e-05
8.23916e-05
7.04142e-05
7.77323e-05
6.02796e-05
3.36619e-05
7.70361e-05
3.53272e-05
4.48909e-05
3.52273e-05
7.35432e-05
7.13524e-05
7.21899e-05
4.9915e-05
2.84172e-05
3.39588e-05
5.30673e-05
6.42172e-05
2.84097e-05
4.16525e-05
6.23349e-05
4.80668e-05
7.61262e-05
3.94751e-05
6.22054e-05
5.64326e-05
5.486e-05
3.5073e-05
4.55868e-05
5.02514e-05
7.09347e-05
4.32384e-05
6.44583e-05
7.4399e-05
7.56021e-05
4.93469e-05
4.28691e-05
4.2616e-05
6.50899e-05
5.50883e-05
4.28545e-05
2.88145e-05
4.19642e-05
4.14085e-05
6.94795e-05
4.3449e-05
4.39333e-05
4.78684e-05
4.23363e-05
6.03086e-05
4.42425e-05
3.95828e-05
4.76485e-05
4.67317e-05
5.39541e-05
5.96564e-05
5.84072e-05
4.85571e-05
5.81748e-05
4.6456e-05
6.73851e-05
7.23285e-05
4.16543e-05
7.04534e-05
4.19701e-05
6.9582e-05
6.37909e-05
5.91195e-05
6.11125e-05
7.10641e-05
3.53896e-05
4.57293e-05
4.28757e-05
7.20664e-05
7.11732e-05
6.59607e-05
7.11807e-05
7.29338e-05
6.10388e-05
7.50997e-05
5.12001e-05
4.67699e-05
8.1498e-05
4.9752e-05
7.39842e-05
5.9115e-05
3.9204e-05
4.50607e-05
7.43048e-05
6.11289e-05
5.62366e-05
7.26317e-05
7.06857e-05
4.71369e-05
4.55664e-05
4.5574e-05
6.26414e-05
6.95541e-05
7.99376e-05
7.68662e-05
8.35991e-05
7.57491e-05
8.27853e-05
6.95004e-05
7.17746e-05
7.23502e-05
6.81888e-05
7.16286e-05
6.55278e-05
6.45506e-05
4.77919e-05
6.26138e-05
7.34596e-05
5.15507e-05
7.37466e-05
6.77268e-05
7.96277e-05
4.91622e-05
7.57626e-05
7.22699e-05
4.8054e-05
6.40237e-05
4.77467e-05
7.22374e-05
6.65862e-05
5.0024e-05
4.72667e-05
4.1621e-05
4.78554e-05
7.23496e-05
3.50012e-05
5.63994e-05
4.71099e-05
5.22885e-05
7.58407e-05
7.31285e-05
2.22248e-05
7.34093e-05
4.19433e-05
4.45941e-05
7.54038e-05
6.12955e-05
4.51612e-05
8.38368e-05
4.85721e-05
2.22261e-05
4.5593e-05
6.51967e-05
8.11429e-05
6.19877e-05
7.18114e-05
6.77741e-05
3.50745e-05
3.5169e-05
3.15629e-05
3.63383e-05
4.79079e-05
3.76175e-05
6.01556e-05
3.84544e-05
6.39269e-05
4.60379e-05
4.56665e-05
5.18332e-05
4.9366e-05
6.42587e-05
4.73339e-05
4.90343e-05
2.02492e-05
4.73155e-05
6.86258e-05
6.8684e-05
6.29791e-05
4.72161e-05
2.93655e-05
8.70855e-05
5.94563e-05
5.00776e-05
4.62801e-05
4.43105e-05
4.77611e-05
5.60356e-05
4.68391e-05
3.4698e-05
4.61709e-05
3.24694e-05
5.55917e-05
4.72251e-05
1.88753e-05
4.44175e-05
5.10792e-05
4.72691e-05
7.06284e-05
4.89857e-05
6.21618e-05
2.51207e-05
4.99757e-05
4.8501e-05
4.07118e-05
4.55514e-05
5.31062e-05
4.91366e-05
5.16494e-05
4.49088e-05
4.55523e-05
4.90318e-05
6.39247e-05
4.63935e-05
6.45276e-05
5.84627e-05
4.50187e-05
4.81235e-05
4.84454e-05
5.32018e-05
4.83242e-05
4.54549e-05
5.14089e-05
5.24903e-05
6.27493e-05
4.84187e-05
4.84067e-05
6.84616e-05
6.74938e-05
4.6443e-05
4.50317e-05
2.20924e-05
5.57703e-05
4.02211e-05
5.25589e-05
2.58042e-05
2.67837e-05
2.39255e-05
2.43216e-05
2.57972e-05
2.71928e-05
2.80147e-05
5.7897e-05
4.21981e-05
4.3743e-05
5.04305e-05
4.93441e-05
4.87444e-05
5.07396e-05
4.77278e-05
4.88338e-05
4.76431e-05
4.85651e-05
5.79698e-05
4.475e-05
5.96237e-05
4.72339e-05
4.58258e-05
4.86396e-05
5.01648e-05
5.36355e-05
5.02448e-05
5.72231e-05
5.37554e-05
5.01469e-05
3.6576e-05
5.01706e-05
4.87954e-05
5.15751e-05
5.07822e-05
4.82371e-05
4.57736e-05
5.02518e-05
5.2123e-05
7.03074e-05
4.71594e-05
6.83638e-05
7.176e-05
4.93708e-05
6.83608e-05
5.27299e-05
4.26435e-05
5.6804e-05
5.05983e-05
3.52362e-05
3.34664e-05
5.59214e-05
5.94446e-05
5.11908e-05
4.27092e-05
5.06646e-05
2.59625e-05
5.0616e-05
4.76785e-05
2.55077e-05
8.88082e-06
9.71268e-06
4.38082e-05
4.71987e-05
5.44613e-05
5.26505e-05
4.50983e-06
4.71231e-06
5.14364e-05
5.19666e-05
4.92114e-05
1.94904e-05
4.42192e-05
5.01783e-05
5.21326e-05
4.50001e-05
3.96979e-05
2.03233e-05
7.40087e-05
4.75137e-05
5.74455e-05
5.83428e-05
4.22135e-05
5.33473e-05
4.12743e-05
4.55146e-05
2.37664e-05
3.5268e-05
5.34146e-05
5.34504e-05
4.6145e-05
4.85972e-05
5.00393e-05
5.27121e-05
5.04405e-05
2.60018e-05
4.32306e-05
5.01693e-05
4.65074e-05
6.96481e-05
2.60092e-05
3.81511e-05
3.93237e-05
3.6307e-05
2.31615e-05
2.3164e-05
4.17341e-05
3.48382e-05
4.92659e-05
2.78617e-05
2.77039e-05
8.931e-06
8.93125e-06
2.11979e-05
3.03258e-05
2.03647e-05
4.20075e-05
4.44618e-05
4.83103e-05
5.42188e-05
4.89215e-05
4.52031e-05
3.59365e-05
2.39002e-05
4.52652e-05
4.65193e-05
4.48753e-05
2.6648e-05
2.23938e-05
1.90362e-05
4.48255e-05
4.59804e-05
3.78037e-05
4.19273e-05
3.86285e-05
3.46075e-05
4.72954e-05
3.46065e-05
4.19414e-05
3.99315e-05
2.39121e-05
2.95061e-05
2.99191e-05
4.98757e-05
2.13596e-05
2.24692e-05
2.20503e-05
4.69305e-05
2.02724e-05
1.99836e-05
3.32548e-05
1.85944e-05
3.73216e-05
3.738e-05
1.90643e-05
4.20192e-05
2.08207e-05
2.10503e-05
2.33518e-05
2.00896e-05
1.94164e-05
2.64388e-05
2.2982e-05
2.12165e-05
2.01361e-05
3.81818e-05
4.30605e-05
2.18617e-05
4.21371e-05
1.83143e-05
4.26391e-05
3.42071e-05
1.91033e-05
1.59515e-05
1.80666e-05
2.3869e-05
3.68944e-05
2.94239e-05
1.20268e-05
1.33638e-05
4.07694e-05
1.13237e-05
1.13239e-05
1.28366e-05
1.44998e-05
1.80749e-05
1.92829e-05
3.23147e-05
2.96695e-05
4.0837e-05
1.14347e-05
1.1435e-05
3.49879e-05
1.5947e-05
2.941e-05
1.44349e-05
1.42887e-05
1.88185e-05
2.97137e-05
3.07746e-05
3.28026e-05
3.00572e-05
2.97144e-05
6.42212e-06
4.79893e-05
8.22401e-06
7.9243e-06
3.87401e-05
3.84675e-05
8.20902e-06
5.71131e-06
8.0784e-06
3.57837e-05
SCALARS rr_T' float
LOOKUP_TABLE default
0.000208456
0.000474891
0.000379266
0.000495713
0.000259185
0.000402536
0.000206115
0.000492964
0.000423884
0.000533678
0.000189184
0.000494474
0.00043515
0.00045957
0.000538409
0.000451988
0.000388722
0.000439467
0.00039367
0.000384865
0.000432932
7.68579e-05
0.000443582
0.000408824
0.000370583
0.000427493
0.000175258
0.000375509
0.000294736
0.000346872
0.000384429
0.000304683
0.000194145
0.000259914
0.000255452
0.0002605
0.000337228
0.000255973
0.000384038
0.000218221
0.000247736
0.000297206
0.000297238
0.000421908
0.000243591
0.000268732
0.000370466
0.00037515
0.000351548
0.000336551
0.000345579
0.000267975
0.000415997
0.000344336
0.000382991
0.000176701
0.00027275
0.000346861
0.000272741
0.00041956
0.000496217
0.000486315
0.000172362
0.00034289
0.000465801
0.000439613
0.000479991
0.000415209
0.000382361
0.000545028
0.000451339
0.000446422
0.000306093
0.000355841
0.000376935
0.000200407
0.000388071
0.000435536
0.000418704
0.000295718
0.000266881
0.000292539
0.000553859
0.000267254
0.000360336
0.000133844
0.000433769
0.000362484
0.000257964
3.78221e-05
0.000298373
4.11356e-05
0.000329289
0.000315575
0.00028238
0.000257563
0.000245112
0.000468539
0.000388359
0.000373874
0.00031766
0.000304759
0.000256432
0.000443775
0.00045112
0.00040624
0.000357257
0.00036243
0.00027221
0.000541316
0.000347866
0.000183737
0.000245555
0.000485682
0.000454987
0.000332527
0.000316283
0.00020368
0.000328053
0.000331212
0.000288083
0.00052484
0.000541226
0.000464891
0.000511459
0.000401263
0.000226982
0.000505877
0.000221998
0.000286343
0.000235763
0.000482873
0.000471637
0.000474115
0.00031697
0.000192172
0.000212498
0.000347473
0.000424648
0.000192107
0.000264731
0.00040951
0.000310312
0.000500002
0.000247906
0.000408001
0.000370285
0.000358001
0.000228824
0.000292452
0.000326086
0.000465958
0.000273377
0.000421899
0.000488636
0.000496427
0.000324825
0.00027268
0.000271132
0.000425947
0.000357608
0.000271104
0.000179405
0.000264785
0.000263359
0.000456079
0.000276354
0.000279402
0.000302668
0.000269304
0.000402059
0.000282046
0.000249736
0.000313875
0.000297968
0.000357023
0.000397687
0.000382817
0.000325168
0.000381877
0.000293764
0.000442474
0.000474895
0.000264775
0.000465157
0.000264664
0.000459386
0.00042231
0.000394251
0.000401337
0.000469236
0.000222571
0.00029156
0.000271121
0.000473267
0.000465956
0.000432
0.000470477
0.000479043
0.000402326
0.000493354
0.000331043
0.000298774
0.000538629
0.000314642
0.000489218
0.000389713
0.000248803
0.000299244
0.000488179
0.000406245
0.000369907
0.000476542
0.000467445
0.000302473
0.000299915
0.000291365
0.000414686
0.000457583
0.000525878
0.000505234
0.000549694
0.000498103
0.000544334
0.000456709
0.000477201
0.000480919
0.000453358
0.000476273
0.000438419
0.000431893
0.000306508
0.000411539
0.00048152
0.000334493
0.000490568
0.000450659
0.000522063
0.000314117
0.000496483
0.000474606
0.00030847
0.00042521
0.000306387
0.000477812
0.000436212
0.000321164
0.00030229
0.000261456
0.000300758
0.000478467
0.000219559
0.000368792
0.000301168
0.000337897
0.00049695
0.000481025
0.000150844
0.000482774
0.000262977
0.000285087
0.000494239
0.000401765
0.000288447
0.000551425
0.000313695
0.000150844
0.000291523
0.000428983
0.000535487
0.000405988
0.000477606
0.000447304
0.00023479
0.000230141
0.000196858
0.000226011
0.000320002
0.000244761
0.000394295
0.000246774
0.000424615
0.000303251
0.000291965
0.000341487
0.000317544
0.000421783
0.000304497
0.000313352
0.000138275
0.000315669
0.0004566
0.000456925
0.00041386
0.00030391
0.000197876
0.000574545
0.000386048
0.000322414
0.000297235
0.000295962
0.000306571
0.000373509
0.000301079
0.00021566
0.00029713
0.000203828
0.000368077
0.000303141
0.00012888
0.000285517
0.000337578
0.000303152
0.000466449
0.000314811
0.000405958
0.000155739
0.000325851
0.00031127
0.000271822
0.000292215
0.000344819
0.000324541
0.000339385
0.000288636
0.000293177
0.000316597
0.000423205
0.000298551
0.000422955
0.00038181
0.000301323
0.000309727
0.000312696
0.000345851
0.00031218
0.000292308
0.000332165
0.00034832
0.000411218
0.00031263
0.000310612
0.000449652
0.000443354
0.000298777
0.000301388
0.000134639
0.000364124
0.000252688
0.000341782
0.000151212
0.000156966
0.000140274
0.000142571
0.000151252
0.000159335
0.000164201
0.000383437
0.000283746
0.000286296
0.000327325
0.00031886
0.000314881
0.000333062
0.000308151
0.000315171
0.000320414
0.000313714
0.00038518
0.000285239
0.000395929
0.000308082
0.000297408
0.00031411
0.000335134
0.000350198
0.000326267
0.000373647
0.000349087
0.000323718
0.00023345
0.000325587
0.00031837
0.000342777
0.000328394
0.000311167
0.000295922
0.000325965
0.000340003
0.000461549
0.000304852
0.000448738
0.000467766
0.000320319
0.000448149
0.000343793
0.000275402
0.000375131
0.000328808
0.000236787
0.00020802
0.00037036
0.000394461
0.000333947
0.000277614
0.000333972
0.000158376
0.000330172
0.000309798
0.000158205
6.06148e-05
6.63072e-05
0.000286001
0.000304978
0.000354207
0.000340499
3.11633e-05
3.25625e-05
0.000337202
0.00034072
0.000322527
0.00011888
0.000285372
0.000331742
0.000338267
0.000291791
0.000257546
0.000123799
0.000488552
0.00030689
0.00037497
0.000380833
0.000273689
0.00034638
0.000267594
0.000295278
0.000146738
0.000221432
0.000346792
0.000348934
0.000299897
0.000314981
0.000325039
0.000342723
0.000327808
0.000161629
0.000287624
0.000324291
0.000306509
0.000459962
0.000161598
0.000248952
0.000256428
0.000243012
0.000157987
0.000157998
0.000278401
0.000224801
0.000321505
0.000172974
0.000188669
6.16017e-05
6.16015e-05
0.000129019
0.000204832
0.000137999
0.000273934
0.000296268
0.000316181
0.00035626
0.000323143
0.000299177
0.000235547
0.000145765
0.000295749
0.000306396
0.000296642
0.000163802
0.000151369
0.000117918
0.000296223
0.000302217
0.000242861
0.0002743
0.000253116
0.000231759
0.000310231
0.000231739
0.000273814
0.000263994
0.000161824
0.000199789
0.000185796
0.000328046
0.00012975
0.000136687
0.000133718
0.000309804
0.000123542
0.000120997
0.000215557
0.000112851
0.000250835
0.000251214
0.000115843
0.000273177
0.000128585
0.000127824
0.000144004
0.000121954
0.000119734
0.000178657
0.000142319
0.000129334
0.000122332
0.000250117
0.000285472
0.000134654
0.000276066
0.000110941
0.000280052
0.000222501
0.000115906
9.81385e-05
0.000109492
0.000145275
0.000240506
0.000197992
8.28279e-05
9.19392e-05
0.000268116
7.79678e-05
7.79671e-05
8.83463e-05
9.91658e-05
0.000112093
0.000130439
0.000215692
0.00019965
0.000268302
7.83346e-05
7.8334e-05
0.000235794
9.69812e-05
0.000191162
8.78792e-05
8.84056e-05
0.000116482
0.000202166
0.00020934
0.000223018
0.000204389
0.000202161
4.41658e-05
0.000326332
5.63379e-05
5.45847e-05
0.00026362
0.000261791
5.65654e-05
3.92885e-05
5.53588e-05
0.000243169
SCALARS rr_uec(SIM,_S_ext) float
LOOKUP_TABLE default
0.0132877
0.0302749
0.0241783
0.0316023
0.0165235
0.0256617
0.0131385
0.0314267
0.0270224
0.0340224
0.0120597
0.0315229
0.027741
0.029298
0.0343246
0.0288143
0.0247815
0.0280163
0.0250962
0.0245352
0.0275993
0.0049
0.0282784
0.0260626
0.0236247
0.0272531
0.011172
0.0239388
0.0187887
0.0221142
0.0245075
0.0194228
0.0123759
0.0165702
0.0162857
0.0166076
0.0214994
0.0163189
0.0244826
0.0139106
0.0157926
0.0189479
0.0189499
0.0268968
0.0155281
0.017131
0.023617
0.0239157
0.0224113
0.0214543
0.0220298
0.0170829
0.0265207
0.0219508
0.0244165
0.011264
0.0173885
0.0221117
0.0173879
0.026747
0.0316345
0.0310033
0.0109873
0.0218597
0.0296955
0.0280258
0.0306001
0.0264699
0.0243755
0.0347462
0.0287738
0.0284603
0.0195127
0.0226853
0.0240296
0.0127751
0.0247401
0.0277658
0.0266927
0.0188516
0.0170128
0.01865
0.0353093
0.0170366
0.0229705
0.0085321
0.0276529
0.0231087
0.0164443
0.0024113
0.0190207
0.00262254
0.0209928
0.0201182
0.0180012
0.016419
0.0156251
0.0298698
0.0247585
0.0238346
0.0202505
0.0194277
0.0163468
0.0282911
0.0287593
0.0258982
0.0227757
0.023105
0.0173525
0.0345097
0.0221765
0.0117127
0.0156533
0.0309626
0.0290058
0.0211979
0.0201638
0.0129839
0.0209142
0.0211142
0.0183651
0.0334595
0.0345038
0.0296374
0.0326063
0.0255813
0.0144706
0.0322502
0.0141516
0.0182538
0.0150304
0.0307837
0.0300676
0.0302255
0.0202061
0.0122515
0.0135459
0.0221515
0.027072
0.0122473
0.016876
0.0261065
0.0197821
0.0318756
0.0158032
0.0260105
0.0236059
0.0228226
0.0145876
0.0186434
0.0207879
0.0297054
0.0174272
0.0268962
0.031151
0.0316478
0.0207079
0.0173827
0.0172841
0.0271543
0.0227974
0.0172823
0.0114365
0.0168794
0.0167886
0.0290755
0.0176169
0.0178112
0.0192944
0.0171675
0.025632
0.0179799
0.0159201
0.0200098
0.0189949
0.0227607
0.0253533
0.0244047
0.0207301
0.0243449
0.0187268
0.0282081
0.030275
0.0168788
0.0296542
0.0168717
0.0292864
0.0269228
0.0251342
0.0255856
0.0299143
0.0141882
0.0185864
0.0172833
0.0301714
0.0297051
0.0275403
0.0299936
0.0305396
0.0256487
0.0314519
0.0211038
0.0190464
0.0343384
0.0200577
0.0311884
0.0248445
0.0158606
0.0190772
0.031122
0.0258987
0.0235819
0.0303799
0.0298003
0.0192823
0.0191198
0.0185741
0.0264368
0.0291716
0.0335256
0.0322095
0.0350438
0.0317548
0.0347021
0.0291156
0.0304225
0.0306595
0.0289025
0.0303633
0.0279501
0.0275341
0.0195395
0.026236
0.0306976
0.0213238
0.0312746
0.0287303
0.0332822
0.0200245
0.0316515
0.0302566
0.0196646
0.0271078
0.0195318
0.0304612
0.0278091
0.0204738
0.0192706
0.016667
0.0191726
0.030503
0.0139961
0.0235106
0.019199
0.0215408
0.0316813
0.0306661
0.00961678
0.0307776
0.0167638
0.0181739
0.0315085
0.0256127
0.0183881
0.0351542
0.0199978
0.0096168
0.0185842
0.0273483
0.0341379
0.025882
0.0304482
0.028516
0.0149683
0.0146716
0.012549
0.0144073
0.0204007
0.0156035
0.0251365
0.0157315
0.0270698
0.0193325
0.0186123
0.0217701
0.020243
0.0268889
0.0194113
0.0199757
0.0088155
0.0201245
0.0291091
0.0291299
0.026384
0.0193739
0.0126151
0.0366279
0.0246104
0.0205535
0.0189483
0.0188682
0.0195435
0.0238118
0.0191933
0.0137476
0.0189417
0.0129933
0.0234654
0.0193249
0.00821656
0.0182013
0.021521
0.0193255
0.0297367
0.0200688
0.0258799
0.00992764
0.0207731
0.0198431
0.0173292
0.0186283
0.0219821
0.0206898
0.0216362
0.0184002
0.0186897
0.0201828
0.0269798
0.0190323
0.0269636
0.0243405
0.0192099
0.0197447
0.0199341
0.0220479
0.0199012
0.0186343
0.0211752
0.0222059
0.0262153
0.0199299
0.0198011
0.0286656
0.0282641
0.0190467
0.019214
0.00858264
0.0232129
0.0161081
0.0217885
0.00963896
0.0100057
0.00894176
0.00908817
0.00964154
0.0101567
0.0104669
0.0244446
0.0180895
0.0182515
0.0208669
0.0203271
0.0200734
0.0212329
0.0196444
0.0200919
0.0204271
0.019999
0.0245557
0.0181834
0.0252412
0.0196403
0.0189597
0.0200242
0.0213653
0.0223251
0.0207994
0.0238201
0.0222542
0.0206368
0.0148821
0.020756
0.0202961
0.0218526
0.020935
0.0198367
0.0188649
0.0207802
0.0216752
0.029424
0.0194342
0.0286073
0.0298201
0.0204202
0.0285698
0.0219168
0.0175567
0.0239151
0.0209614
0.0150958
0.0132606
0.0236109
0.0251475
0.0212891
0.0176978
0.021291
0.0100957
0.0210485
0.0197495
0.0100848
0.00386439
0.0042273
0.0182326
0.0194422
0.0225806
0.0217066
0.00198678
0.00207598
0.0214969
0.0217211
0.0205613
0.00757801
0.0181923
0.021149
0.0215644
0.0186015
0.0164185
0.00789163
0.0311458
0.019564
0.0239044
0.0242781
0.0174475
0.0220816
0.017059
0.0188238
0.00935389
0.0141156
0.0221079
0.0222446
0.0191183
0.0200799
0.0207211
0.0218485
0.0208977
0.0103033
0.0183365
0.0206734
0.0195402
0.0293231
0.0103013
0.0158708
0.0163474
0.0154925
0.0100723
0.0100729
0.0177486
0.0143309
0.020496
0.0110265
0.0120283
0.00392736
0.00392734
0.00822439
0.0130586
0.00879788
0.0174633
0.0188876
0.0201568
0.0227119
0.0206008
0.0190729
0.0150162
0.0092919
0.0188541
0.019533
0.0189113
0.0104416
0.00965019
0.00751666
0.0188846
0.0192665
0.0154821
0.0174867
0.0161362
0.0147752
0.0197774
0.0147739
0.0174557
0.0168299
0.0103167
0.0127371
0.0118438
0.0209133
0.00827068
0.00871284
0.00852366
0.0197503
0.00787522
0.00771279
0.0137416
0.00719352
0.0159913
0.0160154
0.00738419
0.017415
0.0081967
0.00814789
0.00917961
0.00777373
0.00763251
0.0113898
0.0090723
0.0082444
0.00779789
0.015945
0.0181993
0.00858354
0.0175993
0.0070718
0.0178535
0.0141844
0.00738821
0.00625587
0.00697936
0.00926068
0.0153323
0.0126225
0.00528062
0.0058615
0.0170926
0.00497077
0.00497073
0.00563244
0.00632219
0.00714549
0.00831587
0.0137508
0.0127281
0.0171045
0.00499412
0.00499409
0.0150324
0.00618214
0.0121866
0.00560187
0.00563538
0.00742519
0.0128888
0.0133462
0.0142182
0.0130305
0.0128885
0.00281574
0.0208047
0.00359175
0.00347998
0.0168067
0.0166901
0.00360626
0.0025048
0.00352933
0.0155028
SCALARS rr_uec(PEX,_P_ext) float
LOOKUP_TABLE default
-0.06084
-0.13866
-0.110735
-0.144739
-0.0756854
-0.117529
-0.0601567
-0.143935
-0.123758
-0.155825
-0.0552173
-0.144376
-0.127054
-0.134187
-0.157217
-0.131969
-0.113502
-0.128315
-0.114935
-0.112369
-0.126402
-0.0224468
-0.129512
-0.119364
-0.108199
-0.12482
-0.0511555
-0.109639
-0.0860404
-0.101298
-0.112244
-0.0889442
-0.0566679
-0.075901
-0.0745988
-0.0760721
-0.0984816
-0.0747506
-0.11213
-0.0636953
-0.0723198
-0.0867941
-0.0868032
-0.123187
-0.0711034
-0.0784497
-0.108161
-0.10953
-0.102642
-0.0982448
-0.100882
-0.0782315
-0.121476
-0.100524
-0.111838
-0.0515789
-0.0796504
-0.101261
-0.0796477
-0.122499
-0.14489
-0.142003
-0.0503113
-0.100123
-0.136013
-0.128362
-0.140152
-0.121233
-0.111637
-0.15914
-0.131796
-0.13036
-0.0893557
-0.103903
-0.110055
-0.0584948
-0.113318
-0.127171
-0.122253
-0.0863317
-0.077906
-0.0854264
-0.161723
-0.078014
-0.105192
-0.0390689
-0.126649
-0.105842
-0.0752989
-0.0110459
-0.0871058
-0.0120136
-0.0961543
-0.0921438
-0.0824371
-0.0751876
-0.0715513
-0.136805
-0.113403
-0.109162
-0.0927407
-0.0889681
-0.0748551
-0.129573
-0.131719
-0.118615
-0.104317
-0.10582
-0.0794607
-0.158057
-0.101567
-0.053633
-0.0716789
-0.141809
-0.132848
-0.0970767
-0.092363
-0.0594568
-0.0958001
-0.0966931
-0.0841069
-0.153254
-0.158029
-0.135744
-0.149339
-0.11717
-0.0662839
-0.147708
-0.064804
-0.0835941
-0.0688457
-0.140991
-0.137715
-0.138434
-0.0925329
-0.0561194
-0.0620294
-0.101454
-0.123995
-0.0561005
-0.0772833
-0.11957
-0.0905972
-0.145992
-0.0723667
-0.119129
-0.108116
-0.104526
-0.0668102
-0.0853801
-0.0952052
-0.136052
-0.0798052
-0.123185
-0.142674
-0.144948
-0.0948443
-0.079604
-0.0791523
-0.124367
-0.104409
-0.079142
-0.0523684
-0.0772961
-0.076883
-0.133167
-0.0806765
-0.0815664
-0.0883561
-0.0786186
-0.117404
-0.0823395
-0.072903
-0.0916474
-0.0869878
-0.104249
-0.116127
-0.111775
-0.094953
-0.111501
-0.0857567
-0.129195
-0.138661
-0.0772962
-0.135821
-0.0772606
-0.134137
-0.123312
-0.115124
-0.117184
-0.137013
-0.0649718
-0.085117
-0.0791466
-0.138186
-0.136049
-0.126135
-0.137376
-0.139873
-0.117475
-0.144051
-0.0966506
-0.087224
-0.157276
-0.0918516
-0.142849
-0.113792
-0.0726327
-0.0873791
-0.142541
-0.118624
-0.108007
-0.139141
-0.136491
-0.0883059
-0.0875708
-0.0850613
-0.121086
-0.133608
-0.153549
-0.147521
-0.160503
-0.145439
-0.158938
-0.133352
-0.139344
-0.140429
-0.132382
-0.139073
-0.128023
-0.126118
-0.0894837
-0.120163
-0.140595
-0.0976598
-0.143247
-0.131594
-0.152433
-0.0917033
-0.144964
-0.138577
-0.0900569
-0.124161
-0.0894486
-0.139518
-0.127365
-0.0937628
-0.0882511
-0.0763225
-0.0877957
-0.139709
-0.0640916
-0.107678
-0.0879232
-0.0986517
-0.1451
-0.140453
-0.0440515
-0.140963
-0.0767655
-0.0832285
-0.144309
-0.117307
-0.084209
-0.161009
-0.0915851
-0.0440516
-0.0851075
-0.125257
-0.156357
-0.11854
-0.139462
-0.130608
-0.0685614
-0.0671958
-0.0574632
-0.0659719
-0.0934432
-0.0714623
-0.115126
-0.0720447
-0.123988
-0.0885452
-0.0852364
-0.0997099
-0.0927069
-0.123153
-0.0888978
-0.0914799
-0.0403821
-0.0921776
-0.133329
-0.133424
-0.12084
-0.0887267
-0.0577843
-0.167761
-0.112712
-0.0941291
-0.0867771
-0.0864235
-0.0895024
-0.109066
-0.0878995
-0.0629505
-0.0867473
-0.0594996
-0.107477
-0.088501
-0.0376385
-0.0833563
-0.0985703
-0.0885038
-0.136199
-0.0919087
-0.118529
-0.0454589
-0.0951393
-0.0908743
-0.0793743
-0.085311
-0.100675
-0.0947631
-0.0990951
-0.0842669
-0.0855932
-0.0924325
-0.123574
-0.0871623
-0.123494
-0.111479
-0.0879897
-0.0904251
-0.0912933
-0.100977
-0.091143
-0.0853391
-0.0969778
-0.101709
-0.120067
-0.0912743
-0.090682
-0.13129
-0.129452
-0.0872281
-0.0880086
-0.0392966
-0.106314
-0.0737629
-0.0997891
-0.0441244
-0.0458035
-0.0409329
-0.0416031
-0.0441362
-0.0464947
-0.0479147
-0.111962
-0.0828593
-0.0835919
-0.0955672
-0.0930934
-0.0919317
-0.0972479
-0.0899665
-0.0920158
-0.093567
-0.0915908
-0.112473
-0.0832714
-0.115612
-0.0899513
-0.0868324
-0.0917063
-0.0978619
-0.102248
-0.0952586
-0.109095
-0.101921
-0.0945115
-0.0681529
-0.0950596
-0.0929551
-0.100091
-0.0958775
-0.0908467
-0.0863969
-0.0951699
-0.0992714
-0.134764
-0.0890041
-0.131023
-0.136574
-0.0935214
-0.130851
-0.100378
-0.0804055
-0.109535
-0.0960007
-0.0691462
-0.0607205
-0.108143
-0.115182
-0.0975031
-0.0810539
-0.0975158
-0.0462248
-0.096401
-0.0904503
-0.0461788
-0.017702
-0.0193645
-0.0835047
-0.0890407
-0.103417
-0.0994118
-0.00910153
-0.00951018
-0.0984564
-0.0994835
-0.0941713
-0.0346971
-0.083316
-0.0968663
-0.0987617
-0.085192
-0.0751941
-0.0361326
-0.142653
-0.0895986
-0.109481
-0.111193
-0.0799069
-0.101131
-0.0781274
-0.0862104
-0.0428307
-0.0646387
-0.101251
-0.101879
-0.0875597
-0.0919625
-0.0949002
-0.100064
-0.0957088
-0.0471792
-0.083987
-0.0946793
-0.0894969
-0.134305
-0.0471699
-0.0726873
-0.0748698
-0.0709624
-0.0461388
-0.0461419
-0.081295
-0.0656319
-0.0938707
-0.0504903
-0.0550986
-0.0179912
-0.0179911
-0.037656
-0.0598163
-0.0403001
-0.0799809
-0.0865118
-0.0923178
-0.104022
-0.0943552
-0.087358
-0.0687749
-0.0425442
-0.0863513
-0.0894637
-0.0866172
-0.0478102
-0.0442038
-0.034419
-0.086495
-0.0882424
-0.0709028
-0.0800891
-0.0739045
-0.0676767
-0.0905816
-0.0676708
-0.0799462
-0.0770843
-0.0472572
-0.0583444
-0.054233
-0.0957848
-0.0378685
-0.0398933
-0.0390264
-0.0904598
-0.0360577
-0.0353134
-0.0629343
-0.0329363
-0.0732482
-0.073359
-0.0338096
-0.0797587
-0.0375322
-0.0373063
-0.0420324
-0.0355931
-0.0349484
-0.0521724
-0.0415416
-0.0377481
-0.0357037
-0.0730287
-0.083357
-0.0393029
-0.0806055
-0.0323786
-0.0817702
-0.0649631
-0.0338278
-0.0286447
-0.0319557
-0.0424008
-0.0702208
-0.0578177
-0.0241903
-0.0268512
-0.0782857
-0.0227709
-0.0227707
-0.0258019
-0.0289609
-0.0327191
-0.0380919
-0.0629837
-0.0583018
-0.0783398
-0.0228774
-0.0228772
-0.0688569
-0.0283053
-0.055813
-0.0256488
-0.0258045
-0.0339999
-0.05904
-0.061135
-0.0651295
-0.0596892
-0.0590385
-0.0128988
-0.0953009
-0.0164533
-0.0159418
-0.0769871
-0.0764529
-0.0165202
-0.0114744
-0.0161674
-0.0710139
SCALARS cell_type float
LOOKUP_TABLE default
0
0
0
0
0
0
0
0
0
0
0
0
0
0
0
0
0
0
0
0
0
1
0
0
0
0
0
0
0
0
0
0
0
0
0
0
0
0
0
0
0
0
0
0
0
0
0
0
0
0
0
0
0
0
0
0
0
0
0
0
0
0
0
0
0
0
0
0
0
0
0
0
0
0
0
0
0
0
0
0
0
0
0
0
0
0
0
0
0
0
0
0
0
0
0
0
0
0
0
0
0
0
0
0
0
0
0
0
0
0
0
0
0
0
0
0
0
0
0
0
0
0
0
0
0
0
0
0
0
0
0
0
0
0
0
0
0
0
0
0
0
0
0
0
0
0
0
0
0
0
0
0
0
0
0
0
0
0
0
0
0
0
0
0
0
0
0
0
0
0
0
0
0
0
0
0
0
0
0
0
0
0
0
0
0
0
0
0
0
0
0
0
0
0
0
0
0
0
0
0
0
0
0
0
0
0
0
0
0
0
0
0
0
0
0
0
0
0
0
0
0
0
0
0
0
0
0
0
0
0
0
0
0
0
0
0
0
0
0
0
0
0
0
0
0
0
0
0
0
0
0
0
0
0
0
0
0
0
0
0
0
0
0
0
0
0
0
0
0
0
0
0
0
0
0
0
0
0
0
0
0
0
0
0
0
0
0
0
0
0
0
0
0
0
0
0
0
0
0
0
0
0
0
0
0
0
0
0
0
0
0
0
0
0
0
0
0
0
0
0
0
0
0
0
0
0
0
0
0
0
0
0
0
0
0
0
0
0
0
0
0
0
0
0
0
0
0
0
0
0
2
2
2
2
2
2
2
0
0
0
0
0
0
0
0
0
0
0
0
0
0
0
0
0
0
0
0
0
0
0
0
0
0
0
0
0
0
0
0
0
0
0
0
0
0
0
0
0
0
0
0
0
0
0
0
0
0
0
0
0
0
0
0
0
0
0
1
1
0
0
0
0
0
0
0
0
0
0
0
0
0
0
0
0
0
0
0
0
0
0
0
0
0
0
0
0
0
0
0
0
0
0
0
0
0
0
0
0
0
0
0
1
1
0
0
0
0
0
0
0
0
0
0
0
0
0
0
0
0
0
0
0
0
0
0
0
0
0
0
0
0
0
0
0
0
0
0
0
0
0
0
0
0
0
0
0
0
0
0
0
0
0
0
0
0
0
0
0
0
0
0
0
0
0
0
0
0
0
1
1
0
0
0
0
0
0
0
0
0
0
0
0
0
0
0
0
0
0
0
0
0
0
0
0
0
0
0
0
0
0
0
0
0
TENSORS Lagrange_strain float
0.0305673 -0.0031982 -3.6385e-08
-0.0031982 0.0133887 -1.52563e-07
-3.6385e-08 -1.52563e-07 0.00740156

0.0291919 -0.00280096 5.15165e-08
-0.00280096 0.0335526 1.73793e-08
5.15165e-08 1.73793e-08 0.0331625

0.0300203 0.00367904 2.47319e-07
0.00367904 0.0311686 -1.12864e-07
2.47319e-07 -1.12864e-07 0.0304669

0.0291611 -0.00392478 8.38247e-08
-0.00392478 0.0327978 2.82786e-08
8.38247e-08 2.82786e-08 0.0330874

0.035366 0.00266972 -3.91647e-08
0.00266972 0.0380845 8.91922e-08
-3.91647e-08 8.91922e-08 0.0352914

0.0277345 -0.00236709 -1.00036e-07
-0.00236709 0.0333831 6.92316e-10
-1.00036e-07 6.92316e-10 0.030438

0.0302612 0.00339402 -3.82395e-08
0.00339402 0.0134943 -7.27647e-08
-3.82395e-08 -7.27647e-08 0.007463

0.0317536 0.00393947 -1.99536e-08
0.00393947 0.031199 -1.72155e-07
-1.99536e-08 -1.72155e-07 0.0315597

0.0332407 0.000715383 5.8438e-08
0.000715383 0.0262206 -2.53393e-09
5.8438e-08 -2.53393e-09 0.0281412

0.035466 -0.000991012 -4.9098e-08
-0.000991012 0.0275502 -3.8421e-08
-4.9098e-08 -3.8421e-08 0.0327201

0.0280606 0.00205097 9.07511e-08
0.00205097 0.0138086 -1.80347e-07
9.07511e-08 -1.80347e-07 0.0117531

0.0279524 -0.00176576 -3.74408e-08
-0.00176576 0.0350053 1.99605e-07
-3.74408e-08 1.99605e-07 0.0315483

0.0311202 0.00365716 -1.16768e-07
0.00365716 0.0312992 -1.66369e-08
-1.16768e-07 -1.66369e-08 0.0310786

0.0290683 -0.00187977 -1.11094e-07
-0.00187977 0.0347979 -2.68809e-08
-1.11094e-07 -2.68809e-08 0.0325455

0.034631 0.00441842 3.37144e-08
0.00441842 0.0343619 -2.79649e-08
3.37144e-08 -2.79649e-08 0.0348838

0.0343264 7.30524e-05 -1.25668e-07
7.30524e-05 0.027285 -5.10705e-08
-1.25668e-07 -5.10705e-08 0.0307775

0.028692 -0.00235352 -1.32472e-07
-0.00235352 0.0360129 -1.00397e-07
-1.32472e-07 -1.00397e-07 0.0334492

0.0345719 -0.000353009 -5.22723e-08
-0.000353009 0.0273554 -3.43725e-08
-5.22723e-08 -3.43725e-08 0.0319761

0.0269193 0.00347798 1.72327e-07
0.00347798 0.030944 1.13723e-07
1.72327e-07 1.13723e-07 0.0275757

0.0338834 -0.000550299 -5.05723e-09
-0.000550299 0.0264085 1.23086e-07
-5.05723e-09 1.23086e-07 0.0301333

0.0266211 0.00113504 -1.88516e-08
0.00113504 0.0340327 -1.65273e-07
-1.88516e-08 -1.65273e-07 0.0291491

0.0452949 0.000852707 1.43171e-07
0.000852707 0.0452644 4.84481e-08
1.43171e-07 4.84481e-08 0.0366374

0.0336743 0.000247451 6.25582e-08
0.000247451 0.0263145 -2.96298e-09
6.25582e-08 -2.96298e-09 0.0298042

0.0293086 -0.00363207 -6.90455e-09
-0.00363207 0.0311348 8.21958e-09
-6.90455e-09 8.21958e-09 0.0300457

0.0337785 0.000900039 -1.59945e-07
0.000900039 0.0264956 3.22773e-08
-1.59945e-07 3.22773e-08 0.0300803

0.0285452 0.00250753 8.24954e-08
0.00250753 0.0338925 5.21319e-08
8.24954e-08 5.21319e-08 0.032286

0.0286287 0.000526767 3.54758e-08
0.000526767 0.0176893 -6.55305e-08
3.54758e-08 -6.55305e-08 0.0131709

0.0309132 0.00403441 -3.70395e-08
0.00403441 0.0306456 -1.94152e-07
-3.70395e-08 -1.94152e-07 0.0306098

0.0259241 0.00477616 -1.75604e-07
0.00477616 0.0257324 -1.3522e-07
-1.75604e-07 -1.3522e-07 0.0211273

0.0415291 0.00137016 5.83005e-08
0.00137016 0.0383494 6.49517e-08
5.83005e-08 6.49517e-08 0.0361344

0.0344096 0.00187119 -1.56238e-07
0.00187119 0.0279515 3.91738e-08
-1.56238e-07 3.91738e-08 0.0309991

0.0217591 -0.00228769 2.77474e-08
-0.00228769 0.0299912 1.00015e-07
2.77474e-08 1.00015e-07 0.0211242

0.0228628 -0.00535223 -8.77468e-08
-0.00535223 0.0234723 8.71131e-08
-8.77468e-08 8.71131e-08 0.0125785

0.034832 0.000800933 -4.53893e-08
0.000800933 0.0422549 -9.52534e-08
-4.53893e-08 -9.52534e-08 0.0357855

0.0374529 -0.000661704 1.31352e-07
-0.000661704 0.0412026 -7.42785e-08
1.31352e-07 -7.42785e-08 0.0359001

0.0410751 0.00281316 -1.87163e-07
0.00281316 0.0359856 -1.52244e-07
-1.87163e-07 -1.52244e-07 0.0357657

0.0372534 0.000705292 9.66324e-10
0.000705292 0.043215 -5.93135e-08
9.66324e-10 -5.93135e-08 0.0361408

0.0402605 -0.00121873 -1.18893e-07
-0.00121873 0.0378298 4.38003e-08
-1.18893e-07 4.38003e-08 0.0358074

0.0312148 -0.00367766 1.92893e-07
-0.00367766 0.0311224 2.03124e-08
1.92893e-07 2.03124e-08 0.0309245

0.0227467 0.00527883 1.38133e-07
0.00527883 0.0237083 2.02101e-07
1.38133e-07 2.02101e-07 0.0125807

0.0297599 -0.00231561 -2.90216e-08
-0.00231561 0.0220304 2.83579e-08
-2.90216e-08 2.83579e-08 0.0208742

0.0376187 -0.000522918 4.2559e-08
-0.000522918 0.0430643 1.52967e-07
4.2559e-08 1.52967e-07 0.0361436

0.0412407 0.00263429 -2.13984e-07
0.00263429 0.0394146 1.58507e-07
-2.13984e-07 1.58507e-07 0.0361261

0.0342999 -0.00161715 5.84443e-08
-0.00161715 0.0279936 -1.44925e-07
5.84443e-08 -1.44925e-07 0.0310831

0.0231049 -0.00552554 6.78771e-08
-0.00552554 0.023562 -8.29381e-08
6.78771e-08 -8.29381e-08 0.0162155

0.0299424 -0.00233225 7.79825e-08
-0.00233225 0.0221545 1.45101e-07
7.79825e-08 1.45101e-07 0.0213434

0.0258928 0.0022272 -2.5737e-08
0.0022272 0.0326529 -1.50611e-07
-2.5737e-08 -1.50611e-07 0.0279144

0.0275499 0.00252866 1.7312e-07
0.00252866 0.0323729 1.12858e-07
1.7312e-07 1.12858e-07 0.0284899

0.0341737 -0.00214098 -6.56999e-09
-0.00214098 0.0271064 -2.07041e-07
-6.56999e-09 -2.07041e-07 0.0304712

0.0229018 -0.00439215 -3.34856e-08
-0.00439215 0.0272479 -5.45383e-08
-3.34856e-08 -5.45383e-08 0.0198496

0.0294926 0.00247142 6.64653e-08
0.00247142 0.0218336 6.51006e-08
6.64653e-08 6.51006e-08 0.0202803

0.0298713 -0.00327075 -1.49638e-07
-0.00327075 0.0245128 1.99196e-07
-1.49638e-07 1.99196e-07 0.0230474

0.0344771 0.00257808 -5.14776e-08
0.00257808 0.0382028 2.01664e-07
-5.14776e-08 2.01664e-07 0.0352702

0.0286884 0.00383831 1.87767e-08
0.00383831 0.025779 -1.40505e-07
1.87767e-08 -1.40505e-07 0.023116

0.0349272 -0.00291609 -5.70545e-08
-0.00291609 0.0374321 5.33353e-08
-5.70545e-08 5.33353e-08 0.0351885

0.0255792 -0.00545521 2.28347e-07
-0.00545521 0.0229017 -9.46181e-08
2.28347e-07 -9.46181e-08 0.0158191

0.0373463 0.000746108 -9.01184e-08
0.000746108 0.0414128 1.06067e-07
-9.01184e-08 1.06067e-07 0.0359206

0.0231669 -0.000693148 -2.64566e-08
-0.000693148 0.031312 6.90086e-09
-2.64566e-08 6.90086e-09 0.023102

0.0410299 0.00138004 7.08924e-08
0.00138004 0.0377066 -8.61597e-08
7.08924e-08 -8.61597e-08 0.0358988

0.0276749 0.00280494 1.35969e-07
0.00280494 0.0327485 -2.1103e-08
1.35969e-07 -2.1103e-08 0.0302302

0.0361383 0.000784765 1.96575e-09
0.000784765 0.0281306 -6.83272e-08
1.96575e-09 -6.83272e-08 0.0336724

0.0362536 0.00153415 3.3378e-08
0.00153415 0.0316923 2.41688e-07
3.3378e-08 2.41688e-07 0.03422

0.0286365 0.00405686 1.98666e-07
0.00405686 0.0198968 3.29086e-07
1.98666e-07 3.29086e-07 0.0137588

0.0309718 -0.00078368 1.39496e-07
-0.00078368 0.0370841 6.90646e-08
1.39496e-07 6.90646e-08 0.0338808

0.0315542 0.00124368 -2.78186e-08
0.00124368 0.03642 1.43122e-09
-2.78186e-08 1.43122e-09 0.0342588

0.0285482 -0.000374988 -6.91131e-08
-0.000374988 0.0369552 2.50019e-08
-6.91131e-08 2.50019e-08 0.0326698

0.0296018 0.00307126 1.21077e-07
0.00307126 0.0347905 -1.07545e-07
1.21077e-07 -1.07545e-07 0.0337081

0.0347184 0.00112208 -3.22927e-10
0.00112208 0.0278378 5.0881e-08
-3.22927e-10 5.0881e-08 0.0322077

0.0291865 -0.00369874 -2.20878e-08
-0.00369874 0.0310202 -4.6181e-08
-2.20878e-08 -4.6181e-08 0.0299087

0.0350538 -0.000236849 -8.17447e-08
-0.000236849 0.027579 -3.90659e-08
-8.17447e-08 -3.90659e-08 0.0333923

0.0344517 -0.00254824 -1.44615e-07
-0.00254824 0.0381332 2.19419e-08
-1.44615e-07 2.19419e-08 0.0352601

0.0350099 0.00284963 5.34715e-08
0.00284963 0.0375698 -8.52009e-08
5.34715e-08 -8.52009e-08 0.03524

0.021888 -0.00213179 7.29267e-08
-0.00213179 0.0299213 1.95072e-07
7.29267e-08 1.95072e-07 0.0208507

0.0347007 -0.00369093 -1.7344e-07
-0.00369093 0.0319572 6.46399e-08
-1.7344e-07 6.46399e-08 0.0330782

0.0292912 -0.00329716 -1.10924e-08
-0.00329716 0.0321114 -2.67866e-08
-1.10924e-08 -2.67866e-08 0.0304325

0.0267789 -0.00401678 -1.57647e-07
-0.00401678 0.0176049 -4.91459e-08
-1.57647e-07 -4.91459e-08 0.0127255

0.0324035 0.000418598 -3.85536e-08
0.000418598 0.0381042 7.96722e-09
-3.85536e-08 7.96722e-09 0.0344051

0.0345364 0.00381724 -1.00753e-07
0.00381724 0.0309406 -8.52771e-08
-1.00753e-07 -8.52771e-08 0.0326595

0.0283758 0.00258137 1.15467e-07
0.00258137 0.0341285 -2.7066e-09
1.15467e-07 -2.7066e-09 0.032213

0.0315408 0.00103768 -7.89499e-08
0.00103768 0.0228433 1.28925e-07
-7.89499e-08 1.28925e-07 0.0240685

0.0270963 -0.00435847 2.04793e-07
-0.00435847 0.0237361 -7.1098e-08
2.04793e-07 -7.1098e-08 0.0183229

0.0362597 -0.0014031 -4.65057e-08
-0.0014031 0.0387416 -1.60522e-07
-4.65057e-08 -1.60522e-07 0.0354005

0.0315553 0.00317091 -2.19539e-07
0.00317091 0.0344009 -2.40591e-08
-2.19539e-07 -2.40591e-08 0.0340895

0.0273007 -0.00415586 -2.21054e-08
-0.00415586 0.0221743 -3.42782e-08
-2.21054e-08 -3.42782e-08 0.0184108

0.0303569 0.00139095 3.41481e-08
0.00139095 0.0228299 1.26321e-07
3.41481e-08 1.26321e-07 0.0209539

0.0186016 -0.00269685 1.67291e-07
-0.00269685 0.0289276 -5.75677e-08
1.67291e-07 -5.75677e-08 0.0158925

0.0271991 0.00188872 4.74758e-08
0.00188872 0.0343189 -6.14249e-09
4.74758e-08 -6.14249e-09 0.0306537

0.035381 0.00305653 -1.24421e-07
0.00305653 0.0308191 1.31302e-07
-1.24421e-07 1.31302e-07 0.032753

0.0226472 0.00538557 -1.8279e-07
0.00538557 0.0240878 -1.68529e-07
-1.8279e-07 -1.68529e-07 0.016198

0.0459502 0.00223795 7.825e-07
0.00223795 0.0417503 -5.52121e-07
7.825e-07 -5.52121e-07 0.0366384

0.0230807 -0.00053443 -1.35597e-07
-0.00053443 0.031353 -2.44749e-07
-1.35597e-07 -2.44749e-07 0.0230718

0.0463635 -0.00225609 4.16479e-07
-0.00225609 0.0412944 -9.8993e-08
4.16479e-07 -9.8993e-08 0.0365935

0.0370642 -0.00362445 1.23079e-07
-0.00362445 0.0334901 -2.58178e-07
1.23079e-07 -2.58178e-07 0.0346201

0.0351365 0.00361913 -6.43556e-08
0.00361913 0.0300035 -9.07819e-08
-6.43556e-08 -9.07819e-08 0.0324556

0.0299609 -0.00315867 1.77151e-07
-0.00315867 0.0246898 -9.22645e-09
1.77151e-07 -9.22645e-09 0.0232852

0.0230116 0.00402956 -1.68907e-07
0.00402956 0.0277782 -8.50039e-08
-1.68907e-07 -8.50039e-08 0.0203814

0.0210933 -0.00137847 3.46257e-09
-0.00137847 0.0298944 1.64548e-07
3.46257e-09 1.64548e-07 0.018251

0.0287445 0.00288879 -1.43996e-07
0.00288879 0.0342263 -4.89306e-08
-1.43996e-07 -4.89306e-08 0.0326988

0.0370112 0.00223599 -4.61805e-08
0.00223599 0.0334514 5.31236e-08
-4.61805e-08 5.31236e-08 0.0343834

0.0281476 0.00198804 1.16539e-07
0.00198804 0.0340588 3.56242e-09
1.16539e-07 3.56242e-09 0.0308645

0.0318816 0.00207294 -1.04769e-07
0.00207294 0.0252533 8.87829e-08
-1.04769e-07 8.87829e-08 0.0256167

0.0239068 -0.00277414 9.88965e-08
-0.00277414 0.029764 1.97929e-07
9.88965e-08 1.97929e-07 0.0215608

0.0278977 -0.00376351 2.54169e-07
-0.00376351 0.0218147 5.04932e-08
2.54169e-07 5.04932e-08 0.0180754

0.0293306 -0.00323165 7.26156e-08
-0.00323165 0.0326287 -6.43012e-08
7.26156e-08 -6.43012e-08 0.0324019

0.0306251 0.00361459 1.8539e-08
0.00361459 0.0322276 1.80832e-07
1.8539e-08 1.80832e-07 0.0323698

0.0287071 0.00304804 -3.28568e-08
0.00304804 0.0340257 3.76618e-08
-3.28568e-08 3.76618e-08 0.0326292

0.029206 0.00172534 -2.70019e-08
0.00172534 0.0376165 1.86393e-09
-2.70019e-08 1.86393e-09 0.0338453

0.0344765 0.00123247 8.96776e-08
0.00123247 0.0275229 3.13245e-08
8.96776e-08 3.13245e-08 0.0306738

0.0199601 -0.000605245 1.92862e-07
-0.000605245 0.0296595 1.52494e-08
1.92862e-07 1.52494e-08 0.0181033

0.0297962 -0.00486313 1.15654e-07
-0.00486313 0.0330481 9.74834e-10
1.15654e-07 9.74834e-10 0.0337406

0.0290803 0.00359985 -1.16103e-07
0.00359985 0.0313586 -1.67076e-08
-1.16103e-07 -1.67076e-08 0.0302631

0.0181051 0.000282937 -4.80576e-08
0.000282937 0.0293099 1.75616e-07
-4.80576e-08 1.75616e-07 0.0168779

0.0278426 0.00442354 -8.86629e-08
0.00442354 0.0209676 1.03316e-07
-8.86629e-08 1.03316e-07 0.0174541

0.0291899 -0.00302031 -3.69855e-08
-0.00302031 0.0327019 -1.23467e-07
-3.69855e-08 -1.23467e-07 0.0321843

0.0352416 0.000759544 1.06207e-07
0.000759544 0.0273376 -1.50597e-07
1.06207e-07 -1.50597e-07 0.0325517

0.0294261 0.00352001 -1.51193e-07
0.00352001 0.0252004 1.00279e-07
-1.51193e-07 1.00279e-07 0.0231104

0.0396355 0.0017099 2.12847e-07
0.0017099 0.0390391 1.49053e-07
2.12847e-07 1.49053e-07 0.0359392

0.028374 0.00312327 2.02662e-07
0.00312327 0.0224006 -5.33016e-08
2.02662e-07 -5.33016e-08 0.0182857

0.0394884 -0.00175068 5.24884e-08
-0.00175068 0.0390646 4.82403e-08
5.24884e-08 4.82403e-08 0.0359043

0.0232602 0.000103443 -2.01722e-07
0.000103443 0.0315164 -1.57576e-08
-2.01722e-07 -1.57576e-08 0.0231188

0.0327574 -0.000288503 -1.29808e-07
-0.000288503 0.0246591 -1.97504e-07
-1.29808e-07 -1.97504e-07 0.0269653

0.0380534 -0.00212919 -5.9407e-08
-0.00212919 0.0304628 8.63507e-08
-5.9407e-08 8.63507e-08 0.0347922

0.0292369 0.00320577 -7.84439e-08
0.00320577 0.0332765 9.37763e-08
-7.84439e-08 9.37763e-08 0.0333418

0.0289495 -0.00177268 3.30242e-08
-0.00177268 0.0366082 1.53492e-09
3.30242e-08 1.53492e-09 0.0334985

0.0365824 -0.00108481 -9.752e-08
-0.00108481 0.0264751 -1.43792e-08
-9.752e-08 -1.43792e-08 0.0338589

0.0311793 -0.00292583 1.4745e-07
-0.00292583 0.0383049 -9.02482e-08
1.4745e-07 -9.02482e-08 0.0348426

0.0381648 -0.000885238 -1.91354e-07
-0.000885238 0.0387302 8.93189e-08
-1.91354e-07 8.93189e-08 0.0358344

0.0301788 -0.00393983 1.70848e-07
-0.00393983 0.0327091 -1.24357e-07
1.70848e-07 -1.24357e-07 0.0327622

0.021332 0.00146929 -1.15539e-08
0.00146929 0.0296124 1.96742e-07
-1.15539e-08 1.96742e-07 0.0182949

0.0293869 -0.00364543 -2.63121e-07
-0.00364543 0.0253484 -6.14779e-08
-2.63121e-07 -6.14779e-08 0.0231811

0.0328586 -0.0018172 -1.73856e-07
-0.0018172 0.0397163 -1.06083e-07
-1.73856e-07 -1.06083e-07 0.03524

0.0350898 7.65006e-05 -1.14145e-07
7.65006e-05 0.0272209 -1.69703e-07
-1.14145e-07 -1.69703e-07 0.0332501

0.0308172 -0.00282896 4.80544e-08
-0.00282896 0.0348902 -2.36686e-08
4.80544e-08 -2.36686e-08 0.034083

0.0295331 0.00338851 -6.01058e-08
0.00338851 0.0328699 7.6063e-08
-6.01058e-08 7.6063e-08 0.0333249

0.0264592 -0.00406305 -1.0782e-07
-0.00406305 0.0272605 -5.62407e-08
-1.0782e-07 -5.62407e-08 0.0215836

0.0371718 -0.000958388 -3.88506e-08
-0.000958388 0.0416093 -9.41807e-08
-3.88506e-08 -9.41807e-08 0.0358856

0.0227101 -0.00423746 -9.12531e-08
-0.00423746 0.0272426 3.8033e-08
-9.12531e-08 3.8033e-08 0.0168767

0.0341812 -0.00252443 -9.52562e-09
-0.00252443 0.0286054 8.75162e-08
-9.52562e-09 8.75162e-08 0.0310433

0.0364245 0.000289914 1.22296e-07
0.000289914 0.0294363 3.75458e-08
1.22296e-07 3.75458e-08 0.0341926

0.0396399 0.0023967 -1.07344e-08
0.0023967 0.0391125 -3.66486e-07
-1.07344e-08 -3.66486e-07 0.0358665

0.0238552 0.00260903 -1.43376e-07
0.00260903 0.0301503 -1.32462e-07
-1.43376e-07 -1.32462e-07 0.0217979

0.0334294 0.00358133 5.45557e-08
0.00358133 0.0307141 -2.17482e-07
5.45557e-08 -2.17482e-07 0.0317661

0.0316416 -0.00319424 2.52479e-07
-0.00319424 0.0265509 -2.50097e-08
2.52479e-07 -2.50097e-08 0.0269343

0.0289281 -0.00234102 5.42574e-08
-0.00234102 0.0342338 4.78432e-08
5.42574e-08 4.78432e-08 0.0326047

0.0262435 0.00450115 -6.95458e-08
0.00450115 0.0245567 -3.75835e-09
-6.95458e-08 -3.75835e-09 0.0180803

0.0284215 -0.00286664 2.56426e-08
-0.00286664 0.0340307 3.56399e-08
2.56426e-08 3.56399e-08 0.0324479

0.0331477 0.00405865 -5.21489e-08
0.00405865 0.0304634 1.13582e-07
-5.21489e-08 1.13582e-07 0.0315412

0.0333333 -0.00331162 -9.86215e-08
-0.00331162 0.028356 8.29794e-09
-9.86215e-08 8.29794e-09 0.0300448

0.02916 -0.00329546 -5.22948e-08
-0.00329546 0.0319859 -3.85267e-08
-5.22948e-08 -3.85267e-08 0.0304361

0.0314538 -0.00242928 7.64118e-08
-0.00242928 0.0247179 2.31385e-07
7.64118e-08 2.31385e-07 0.0251552

0.0329542 -0.0024666 -4.97862e-08
-0.0024666 0.0267084 -6.18531e-08
-4.97862e-08 -6.18531e-08 0.0285955

0.0294902 -0.00334194 -1.14065e-08
-0.00334194 0.0329492 2.25404e-07
-1.14065e-08 2.25404e-07 0.0334062

0.0261331 0.00463366 3.4701e-08
0.00463366 0.0255403 -1.88998e-07
3.4701e-08 -1.88998e-07 0.0210915

0.028149 0.00201676 6.30498e-08
0.00201676 0.0343345 -3.40586e-09
6.30498e-08 -3.40586e-09 0.0311083

0.0308854 0.00348106 4.05209e-08
0.00348106 0.0322544 -6.64277e-08
4.05209e-08 -6.64277e-08 0.0325991

0.0291562 0.00334809 -8.26389e-08
0.00334809 0.0331903 -7.11408e-08
-8.26389e-08 -7.11408e-08 0.0332593

0.0289831 0.00152316 5.51963e-09
0.00152316 0.035469 8.88165e-08
5.51963e-09 8.88165e-08 0.0326945

0.0310517 -0.00106168 -1.36492e-07
-0.00106168 0.0231405 -2.40049e-07
-1.36492e-07 -2.40049e-07 0.0220771

0.023883 0.00240553 1.75041e-07
0.00240553 0.0304093 -6.34628e-08
1.75041e-07 -6.34628e-08 0.0221121

0.0292124 -0.00320384 -1.40656e-08
-0.00320384 0.0326353 -1.49112e-08
-1.40656e-08 -1.49112e-08 0.0316174

0.0289863 0.00335662 2.15619e-08
0.00335662 0.0309316 1.37351e-07
2.15619e-08 1.37351e-07 0.028567

0.0266115 -0.00459104 1.75097e-07
-0.00459104 0.0252296 -3.07358e-08
1.75097e-07 -3.07358e-08 0.0212558

0.026277 0.00489313 -1.13679e-07
0.00489313 0.0209456 1.70603e-07
-1.13679e-07 1.70603e-07 0.0167617

0.023502 -0.00428662 1.23378e-08
-0.00428662 0.0274636 -5.40877e-08
1.23378e-08 -5.40877e-08 0.0206256

0.0266707 -0.00402738 1.68351e-07
-0.00402738 0.0274816 -4.63556e-08
1.68351e-07 -4.63556e-08 0.0220492

0.0353641 -0.000906383 6.13952e-08
-0.000906383 0.0273893 1.7745e-07
6.13952e-08 1.7745e-07 0.032654

0.0260444 0.00392148 -2.45572e-07
0.00392148 0.0280912 -2.72294e-08
-2.45572e-07 -2.72294e-08 0.0221016

0.030787 0.00171644 -3.17382e-07
0.00171644 0.0233595 -2.54256e-08
-3.17382e-07 -2.54256e-08 0.0220248

0.0214302 0.00172186 -1.14759e-07
0.00172186 0.0302396 -1.17452e-07
-1.14759e-07 -1.17452e-07 0.021132

0.024262 -0.00288928 8.43814e-08
-0.00288928 0.0299507 1.01897e-07
8.43814e-08 1.01897e-07 0.0220854

0.0313451 -0.000131054 -8.66627e-08
-0.000131054 0.039273 -8.01674e-08
-8.66627e-08 -8.01674e-08 0.0346703

0.0230576 0.000294791 -7.16621e-08
0.000294791 0.0314594 -2.40648e-07
-7.16621e-08 -2.40648e-07 0.0230615

0.0227764 0.00400131 1.24189e-07
0.00400131 0.0281263 3.1326e-09
1.24189e-07 3.1326e-09 0.0206373

0.0288876 0.0015856 1.38643e-07
0.0015856 0.0358322 -2.82594e-08
1.38643e-07 -2.82594e-08 0.032893

0.0293149 -0.0035799 1.94541e-07
-0.0035799 0.0251288 2.04038e-08
1.94541e-07 2.04038e-08 0.023239

0.0369764 0.00273289 -5.65024e-08
0.00273289 0.0297226 3.0284e-07
-5.65024e-08 3.0284e-07 0.0338012

0.0371751 0.00348317 1.13239e-07
0.00348317 0.0334225 1.69299e-08
1.13239e-07 1.69299e-08 0.0346518

0.0345433 -0.00244633 -2.1297e-08
-0.00244633 0.0285294 1.67017e-08
-2.1297e-08 1.67017e-08 0.0313783

0.0390559 -0.00026561 -1.44657e-07
-0.00026561 0.0339245 -7.61751e-08
-1.44657e-07 -7.61751e-08 0.0352078

0.0314787 -0.00418757 4.5065e-08
-0.00418757 0.0317815 1.41819e-07
4.5065e-08 1.41819e-07 0.0321558

0.0294612 0.00300746 -2.40687e-07
0.00300746 0.0223267 -1.31231e-07
-2.40687e-07 -1.31231e-07 0.0210659

0.0302291 0.00397306 -4.85434e-08
0.00397306 0.0326627 9.72487e-08
-4.85434e-08 9.72487e-08 0.0327194

0.0302764 0.00384666 1.53861e-07
0.00384666 0.0326067 -7.6566e-08
1.53861e-07 -7.6566e-08 0.0326742

0.0262437 0.00396161 -2.09412e-08
0.00396161 0.027767 -7.89769e-08
-2.09412e-08 -7.89769e-08 0.0218642

0.0344495 0.00357666 -3.0987e-08
0.00357666 0.0317793 -1.82478e-07
-3.0987e-08 -1.82478e-07 0.032831

0.0302478 0.000452427 -3.02713e-07
0.000452427 0.0204279 4.50973e-09
-3.02713e-07 4.50973e-09 0.0205727

0.0331857 0.00420075 -1.04485e-08
0.00420075 0.0323727 -7.14439e-08
-1.04485e-08 -7.14439e-08 0.0334834

0.0305005 -0.00165432 -5.00757e-08
-0.00165432 0.0366159 -2.32746e-09
-5.00757e-08 -2.32746e-09 0.0336623

0.03736 0.00323262 3.94385e-08
0.00323262 0.0334595 -1.01718e-07
3.94385e-08 -1.01718e-07 0.0346638

0.0307363 -0.00389591 3.0802e-08
-0.00389591 0.0322724 -7.34343e-08
3.0802e-08 -7.34343e-08 0.0326797

0.0293736 -0.000645001 -9.24534e-08
-0.000645001 0.0369025 2.29929e-08
-9.24534e-08 2.29929e-08 0.0328474

0.028812 -0.00315224 1.11193e-07
-0.00315224 0.0221395 1.45049e-07
1.11193e-07 1.45049e-07 0.0187585

0.029002 0.00384431 -8.5939e-08
0.00384431 0.0255773 -1.86392e-07
-8.5939e-08 -1.86392e-07 0.0230723

0.0217009 0.00189101 -1.32827e-07
0.00189101 0.0300606 -1.31642e-07
-1.32827e-07 -1.31642e-07 0.0210833

0.0349892 -0.000161248 -2.78648e-08
-0.000161248 0.027389 1.77577e-07
-2.78648e-08 1.77577e-07 0.0333011

0.0344195 2.41847e-07 1.73078e-07
2.41847e-07 0.0272742 -2.97615e-08
1.73078e-07 -2.97615e-08 0.0320407

0.0291651 0.00303967 -1.34496e-07
0.00303967 0.0326795 -6.39123e-08
-1.34496e-07 -6.39123e-08 0.0321322

0.0314493 0.003166 1.23646e-07
0.003166 0.0342495 1.69128e-07
1.23646e-07 1.69128e-07 0.0340577

0.029168 -0.00320413 1.19617e-07
-0.00320413 0.0332379 -6.21756e-08
1.19617e-07 -6.21756e-08 0.0333785

0.0287732 -8.56944e-05 8.89823e-08
-8.56944e-05 0.0367039 1.88731e-07
8.89823e-08 1.88731e-07 0.0325252

0.0294634 0.00337561 1.33224e-07
0.00337561 0.0330743 -1.08418e-07
1.33224e-07 -1.08418e-07 0.0333542

0.0328585 -0.00134645 -1.89443e-08
-0.00134645 0.0253614 1.80553e-07
-1.89443e-08 1.80553e-07 0.0278284

0.0263544 -0.00425449 -1.49037e-07
-0.00425449 0.0281792 1.12708e-08
-1.49037e-07 1.12708e-08 0.0242671

0.0362972 -0.00033156 7.69047e-08
-0.00033156 0.0293828 -1.42842e-07
7.69047e-08 -1.42842e-07 0.0340275

0.0267804 -0.00444523 -5.51202e-08
-0.00444523 0.0251899 2.87476e-08
-5.51202e-08 2.87476e-08 0.0209487

0.0308993 0.00250722 9.17241e-08
0.00250722 0.0350625 -1.2904e-07
9.17241e-08 -1.2904e-07 0.0340673

0.0351128 -0.00349683 6.3791e-09
-0.00349683 0.030388 -2.40435e-08
6.3791e-09 -2.40435e-08 0.0326144

0.0305013 -0.00124976 -9.64895e-08
-0.00124976 0.022978 -1.28495e-07
-9.64895e-08 -1.28495e-07 0.021478

0.0371473 -0.00307693 2.01665e-07
-0.00307693 0.0316529 -3.55391e-09
2.01665e-07 -3.55391e-09 0.0339875

0.0349685 0.000322022 4.15586e-08
0.000322022 0.0275542 -3.10884e-08
4.15586e-08 -3.10884e-08 0.0334295

0.0358425 -0.00308823 -4.4025e-08
-0.00308823 0.0332577 -3.20864e-08
-4.4025e-08 -3.20864e-08 0.034143

0.0349283 -0.0034105 -9.88759e-08
-0.0034105 0.0295945 1.67865e-07
-9.88759e-08 1.67865e-07 0.0321776

0.0349088 -0.00113366 -1.22194e-07
-0.00113366 0.0278496 -1.2032e-07
-1.22194e-07 -1.2032e-07 0.0323409

0.0314892 -0.00306243 -7.59491e-08
-0.00306243 0.0344478 -1.6452e-07
-7.59491e-08 -1.6452e-07 0.0341461

0.0292349 -0.00407076 -1.92353e-07
-0.00407076 0.0268992 -1.6489e-07
-1.92353e-07 -1.6489e-07 0.0253457

0.0349924 -0.00324354 -1.38524e-07
-0.00324354 0.0299148 1.15674e-08
-1.38524e-07 1.15674e-08 0.0321948

0.0314616 0.00140899 2.96813e-07
0.00140899 0.0233266 5.65759e-09
2.96813e-07 5.65759e-09 0.0244832

0.0336644 0.00348422 -5.8882e-08
0.00348422 0.0334438 3.55681e-09
-5.8882e-08 3.55681e-09 0.0336496

0.0298922 -0.00496718 1.2193e-07
-0.00496718 0.0330779 2.20194e-07
1.2193e-07 2.20194e-07 0.0338567

0.0300428 0.0049205 -1.79352e-07
0.0049205 0.0329397 -9.49567e-08
-1.79352e-07 -9.49567e-08 0.0338236

0.0276876 -0.00374173 4.15066e-08
-0.00374173 0.0348067 5.26645e-13
4.15066e-08 5.26645e-13 0.0337663

0.0279251 0.0035471 -4.97492e-08
0.0035471 0.0348347 -1.14921e-07
-4.97492e-08 -1.14921e-07 0.0337311

0.0364292 -0.00115387 1.15866e-07
-0.00115387 0.0263412 -7.90782e-08
1.15866e-07 -7.90782e-08 0.0337574

0.0361981 0.00124754 -4.23858e-08
0.00124754 0.0265626 -2.36421e-16
-4.23858e-08 -2.36421e-16 0.0337202

0.0350337 -0.00130644 -3.13051e-09
-0.00130644 0.0284676 7.00014e-08
-3.13051e-09 7.00014e-08 0.0325753

0.0344362 0.0042591 -7.89264e-08
0.0042591 0.0342886 1.65533e-07
-7.89264e-08 1.65533e-07 0.0348121

0.0343115 -0.00435712 -6.88065e-08
-0.00435712 0.0342806 3.28214e-08
-6.88065e-08 3.28214e-08 0.0348004

0.0305204 0.00209355 -7.54068e-08
0.00209355 0.0381652 2.00425e-07
-7.54068e-08 2.00425e-07 0.0348492

0.0306635 -0.00205953 6.80588e-08
-0.00205953 0.0380948 1.16538e-08
6.80588e-08 1.16538e-08 0.0348365

0.0395021 -0.000529062 4.09301e-08
-0.000529062 0.032849 7.71284e-08
4.09301e-08 7.71284e-08 0.0352575

0.0397044 0.000513303 1.16977e-07
0.000513303 0.0326215 -9.05384e-08
1.16977e-07 -9.05384e-08 0.0353027

0.0239647 0.001276 1.82269e-07
0.001276 0.0320025 2.25792e-07
1.82269e-07 2.25792e-07 0.0251838

0.0311618 -0.00326519 1.06622e-07
-0.00326519 0.0322401 -2.30985e-07
1.06622e-07 -2.30985e-07 0.0328014

0.0277792 -0.00478588 -1.67079e-07
-0.00478588 0.0333113 -5.55911e-08
-1.67079e-07 -5.55911e-08 0.0334547

0.0333581 -0.000610239 -5.35046e-08
-0.000610239 0.0264027 1.19522e-07
-5.35046e-08 1.19522e-07 0.0284477

0.0381877 -0.00225215 -4.65234e-08
-0.00225215 0.030794 -7.19657e-08
-4.65234e-08 -7.19657e-08 0.0348923

0.0382356 0.00218396 7.80052e-08
0.00218396 0.030907 -3.23855e-08
7.80052e-08 -3.23855e-08 0.0349245

0.0360832 1.5622e-05 -1.8421e-08
1.5622e-05 0.0251252 7.54634e-08
-1.8421e-08 7.54634e-08 0.0334698

0.0242405 0.00302877 -6.92776e-08
0.00302877 0.0303971 3.32867e-09
-6.92776e-08 3.32867e-09 0.0242766

0.0276736 0.00475612 2.80029e-08
0.00475612 0.0333118 -6.64827e-08
2.80029e-08 -6.64827e-08 0.0333926

0.0286739 -0.00307575 5.56813e-08
-0.00307575 0.0342607 4.7824e-08
5.56813e-08 4.7824e-08 0.0327518

0.0310847 0.00303561 -8.07149e-09
0.00303561 0.0251462 1.0787e-07
-8.07149e-09 1.0787e-07 0.0254668

0.0372274 0.00316568 1.69057e-07
0.00316568 0.0315403 -1.46566e-07
1.69057e-07 -1.46566e-07 0.0340754

0.0292263 -0.00406718 1.01504e-07
-0.00406718 0.0269352 1.71434e-07
1.01504e-07 1.71434e-07 0.0253209

0.0364011 -0.000453649 -9.03621e-08
-0.000453649 0.0296911 -1.39304e-10
-9.03621e-08 -1.39304e-10 0.0341306

0.0273439 -0.0044949 5.68315e-09
-0.0044949 0.0333947 5.48381e-08
5.68315e-09 5.48381e-08 0.0334413

0.0240374 0.00107894 -1.23548e-07
0.00107894 0.0322437 1.45778e-07
-1.23548e-07 1.45778e-07 0.0255055

0.0242293 0.00282649 2.16339e-07
0.00282649 0.0307009 1.86976e-08
2.16339e-07 1.86976e-08 0.0245445

0.026792 0.00459425 5.25948e-08
0.00459425 0.0240413 -1.62396e-07
5.25948e-08 -1.62396e-07 0.0182132

0.0298502 0.000199888 -7.33758e-08
0.000199888 0.0200881 -1.62753e-07
-7.33758e-08 -1.62753e-07 0.0193621

0.0319083 -0.00302371 1.32323e-07
-0.00302371 0.0341619 2.3462e-08
1.32323e-07 2.3462e-08 0.0340351

0.0229182 0.00399949 1.94477e-07
0.00399949 0.0276595 1.30395e-07
1.94477e-07 1.30395e-07 0.0176528

0.0292094 0.00310076 -1.10374e-07
0.00310076 0.0327627 -2.74614e-08
-1.10374e-07 -2.74614e-08 0.0310118

0.031594 -0.000694466 5.34749e-08
-0.000694466 0.0231596 -2.35563e-07
5.34749e-08 -2.35563e-07 0.0244844

0.0327606 0.00146447 2.3837e-08
0.00146447 0.0253464 7.84913e-08
2.3837e-08 7.84913e-08 0.0276125

0.0359775 5.62357e-05 -1.70147e-07
5.62357e-05 0.0249583 -7.90507e-08
-1.70147e-07 -7.90507e-08 0.0333858

0.0279652 -0.00380529 1.39701e-07
-0.00380529 0.0349483 -2.62818e-08
1.39701e-07 -2.62818e-08 0.0338155

0.0393145 -0.00084379 -2.834e-07
-0.00084379 0.0416019 1.18042e-07
-2.834e-07 1.18042e-07 0.0361897

0.0298673 0.004939 1.72171e-07
0.004939 0.0329555 8.25277e-08
1.72171e-07 8.25277e-08 0.0337786

0.0302878 0.000214505 2.02815e-07
0.000214505 0.0203965 3.75723e-08
2.02815e-07 3.75723e-08 0.0172758

0.0266733 -0.00425025 1.32378e-07
-0.00425025 0.0281325 7.09042e-09
1.32378e-07 7.09042e-09 0.0244371

0.0277455 0.00481575 1.74533e-08
0.00481575 0.0333145 9.49112e-08
1.74533e-08 9.49112e-08 0.0334549

0.0279447 -0.00145841 1.55079e-08
-0.00145841 0.0350845 2.06396e-07
1.55079e-08 2.06396e-07 0.0314499

0.0244647 -0.00330496 2.31867e-07
-0.00330496 0.0300149 -1.74411e-08
2.31867e-07 -1.74411e-08 0.0242167

0.0279901 0.00377955 5.15436e-08
0.00377955 0.0349097 -1.26401e-07
5.15436e-08 -1.26401e-07 0.0337864

0.031361 -0.00340932 2.0771e-07
-0.00340932 0.0270082 -1.26031e-07
2.0771e-07 -1.26031e-07 0.026991

0.0402798 0.00140908 -1.00792e-07
0.00140908 0.0406178 2.588e-07
-1.00792e-07 2.588e-07 0.0361701

0.0258807 0.00400268 -9.92144e-08
0.00400268 0.0289538 2.44873e-07
-9.92144e-08 2.44873e-07 0.0245106

0.0366774 0.00110304 1.0687e-07
0.00110304 0.0263518 6.11139e-08
1.0687e-07 6.11139e-08 0.0338974

0.0333416 0.00398391 -8.98862e-08
0.00398391 0.0321151 1.92787e-07
-8.98862e-08 1.92787e-07 0.0333153

0.0292276 0.00306732 -6.92897e-08
0.00306732 0.032605 9.65237e-08
-6.92897e-08 9.65237e-08 0.0321573

0.0343644 -0.00431095 -5.84464e-08
-0.00431095 0.0345044 -1.65042e-07
-5.84464e-08 -1.65042e-07 0.0348846

0.0354893 -0.00306358 5.69439e-08
-0.00306358 0.0305895 7.90509e-08
5.69439e-08 7.90509e-08 0.0327501

0.0333663 0.00138766 8.62261e-08
0.00138766 0.0395766 1.98744e-07
8.62261e-08 1.98744e-07 0.0350022

0.0291967 -0.00307955 -5.7973e-08
-0.00307955 0.0328736 -8.98583e-08
-5.7973e-08 -8.98583e-08 0.0313829

0.0292645 -0.00123213 1.16075e-07
-0.00123213 0.0192869 -1.05914e-07
1.16075e-07 -1.05914e-07 0.0164119

0.0287781 -0.00183229 1.9559e-07
-0.00183229 0.0184138 2.29439e-08
1.9559e-07 2.29439e-08 0.0161968

0.0385293 0.00220181 -1.40064e-07
0.00220181 0.0332385 2.32963e-07
-1.40064e-07 2.32963e-07 0.0347626

0.0280558 0.00294498 1.34683e-07
0.00294498 0.0323345 1.93978e-07
1.34683e-07 1.93978e-07 0.0295178

0.0320669 0.00383424 -8.91078e-08
0.00383424 0.0309603 -8.42271e-08
-8.91078e-08 -8.42271e-08 0.0314541

0.0320495 8.98506e-05 8.7571e-08
8.98506e-05 0.0245767 -2.23859e-07
8.7571e-08 -2.23859e-07 0.0248878

0.0302374 0.000866061 -1.05194e-07
0.000866061 0.0385808 -1.24263e-08
-1.05194e-07 -1.24263e-08 0.0340961

0.0354016 0.00219138 -7.06923e-08
0.00219138 0.0293226 -9.6241e-08
-7.06923e-08 -9.6241e-08 0.032858

0.0248112 -0.00333879 4.9384e-08
-0.00333879 0.0300057 1.57493e-07
4.9384e-08 1.57493e-07 0.0244698

0.0286504 -0.000337813 7.2895e-09
-0.000337813 0.0366567 1.8088e-07
7.2895e-09 1.8088e-07 0.0323955

0.025215 0.00173996 -2.01684e-07
0.00173996 0.0320292 2.14377e-07
-2.01684e-07 2.14377e-07 0.0256837

0.0332803 -0.00390979 -2.18506e-08
-0.00390979 0.0304965 7.42681e-08
-2.18506e-08 7.42681e-08 0.0315921

0.0290645 -0.00389605 2.15291e-08
-0.00389605 0.0282 1.69536e-08
2.15291e-08 1.69536e-08 0.0257134

0.0261491 0.00409872 6.4575e-08
0.00409872 0.0285459 7.18459e-08
6.4575e-08 7.18459e-08 0.0243179

0.0452873 -0.00201688 -1.30581e-07
-0.00201688 0.039606 -1.51311e-07
-1.30581e-07 -1.51311e-07 0.0363667

0.0316665 0.000256355 -6.26986e-08
0.000256355 0.0393264 1.80582e-07
-6.26986e-08 1.80582e-07 0.0347688

0.0306163 0.00265108 -4.01218e-08
0.00265108 0.038443 4.56613e-08
-4.01218e-08 4.56613e-08 0.0349575

0.0387658 0.0020951 -1.61305e-07
0.0020951 0.0302215 4.31814e-08
-1.61305e-07 4.31814e-08 0.0349423

0.0313703 -0.00345054 1.88256e-08
-0.00345054 0.0321399 -9.18729e-08
1.88256e-08 -9.18729e-08 0.0325725

0.0318174 0.00233597 1.97938e-07
0.00233597 0.0256201 -1.94898e-07
1.97938e-07 -1.94898e-07 0.0258794

0.0349936 -0.000708738 2.13815e-07
-0.000708738 0.0415753 -4.91627e-08
2.13815e-07 -4.91627e-08 0.0357274

0.0357879 -0.00251874 -1.15831e-07
-0.00251874 0.02955 -1.35404e-07
-1.15831e-07 -1.35404e-07 0.0332577

0.0332968 -0.00203955 -4.13979e-08
-0.00203955 0.0266524 -4.03984e-08
-4.13979e-08 -4.03984e-08 0.0286752

0.0252521 0.00151083 1.32696e-07
0.00151083 0.032274 1.55343e-07
1.32696e-07 1.55343e-07 0.0259498

0.0268045 -0.00334466 -1.72108e-07
-0.00334466 0.0300092 -3.17857e-08
-1.72108e-07 -3.17857e-08 0.025187

0.0364772 -0.00336028 2.46599e-07
-0.00336028 0.0352875 -9.06399e-08
2.46599e-07 -9.06399e-08 0.0347421

0.0284753 0.004152 1.45967e-07
0.004152 0.0277158 9.8582e-08
1.45967e-07 9.8582e-08 0.0254675

0.0372435 -0.00334552 -3.66709e-08
-0.00334552 0.0333219 8.33897e-08
-3.66709e-08 8.33897e-08 0.0346114

0.0322055 0.000337875 2.30389e-07
0.000337875 0.0248623 1.07964e-07
2.30389e-07 1.07964e-07 0.0254373

0.0191608 -0.00368903 -1.65206e-07
-0.00368903 0.0275257 -1.13567e-07
-1.65206e-07 -1.13567e-07 0.0163106

0.0292096 -0.00380348 -1.24392e-07
-0.00380348 0.0281921 -1.58703e-08
-1.24392e-07 -1.58703e-08 0.0258075

0.0230455 0.00412721 -1.95498e-07
0.00412721 0.02802 -1.3349e-07
-1.95498e-07 -1.3349e-07 0.0175919

0.0296907 -0.00155962 1.29568e-07
-0.00155962 0.0375333 7.14385e-08
1.29568e-07 7.14385e-08 0.0336482

0.0243599 -0.00179362 4.74761e-09
-0.00179362 0.0318719 -4.12386e-08
4.74761e-09 -4.12386e-08 0.0254476

0.0424367 -0.00323425 -7.55663e-08
-0.00323425 0.042376 -6.87141e-08
-7.55663e-08 -6.87141e-08 0.0363751

0.0263361 0.00309093 4.32747e-08
0.00309093 0.0307011 1.86657e-08
4.32747e-08 1.86657e-08 0.0254774

0.0334761 -0.00432343 -1.61306e-08
-0.00432343 0.0326593 -2.14227e-08
-1.61306e-08 -2.14227e-08 0.033566

0.0240803 -0.00155089 -2.82433e-07
-0.00155089 0.0318865 7.46402e-09
-2.82433e-07 7.46402e-09 0.0251764

0.0362222 -0.00253871 4.04407e-08
-0.00253871 0.0295107 5.527e-09
4.04407e-08 5.527e-09 0.0335189

0.0266732 0.0031045 1.08488e-07
0.0031045 0.0303941 4.87973e-10
1.08488e-07 4.87973e-10 0.0253127

0.0343426 -0.000653742 6.99265e-08
-0.000653742 0.0272763 -1.73505e-08
6.99265e-08 -1.73505e-08 0.0305772

0.0188902 -0.00387145 -2.74453e-07
-0.00387145 0.0298012 1.39639e-07
-2.74453e-07 1.39639e-07 0.012961

0.0279988 0.00275446 1.01156e-07
0.00275446 0.0326286 -5.44587e-08
1.01156e-07 -5.44587e-08 0.030573

0.0314368 -0.00251215 -2.96743e-07
-0.00251215 0.0247218 -2.13268e-08
-2.96743e-07 -2.13268e-08 0.0254054

0.0391182 -0.00286937 1.01105e-07
-0.00286937 0.0322208 3.92085e-09
1.01105e-07 3.92085e-09 0.0349363

0.0287525 0.00412365 1.65327e-07
0.00412365 0.0272992 2.49727e-07
1.65327e-07 2.49727e-07 0.0252549

0.0313605 -0.00391912 4.46957e-08
-0.00391912 0.0285413 1.19214e-07
4.46957e-08 1.19214e-07 0.0287303

0.0354074 0.00276392 -1.18972e-07
0.00276392 0.0308553 -6.1083e-08
-1.18972e-07 -6.1083e-08 0.0330385

0.029772 -0.00370366 -4.73087e-08
-0.00370366 0.0329369 8.79403e-09
-4.73087e-08 8.79403e-09 0.0333415

0.0270543 -0.00341005 2.09842e-07
-0.00341005 0.0299816 1.69947e-07
2.09842e-07 1.69947e-07 0.0253967

0.02844 0.00377098 4.56249e-08
0.00377098 0.0289387 2.49281e-07
4.56249e-08 2.49281e-07 0.0258865

0.0313701 0.00341311 6.04924e-08
0.00341311 0.0268985 -1.43371e-07
6.04924e-08 -1.43371e-07 0.0269652

0.0365351 -0.00194425 2.72777e-08
-0.00194425 0.0306244 -2.2416e-08
2.72777e-08 -2.2416e-08 0.0336348

0.025533 -0.00216315 -5.05391e-08
-0.00216315 0.0318006 -4.59544e-08
-5.05391e-08 -4.59544e-08 0.0258529

0.0346985 -0.00231383 2.36598e-09
-0.00231383 0.0283333 7.02978e-08
2.36598e-09 7.02978e-08 0.031455

0.0341846 0.00222311 -3.85069e-08
0.00222311 0.0274309 -1.8772e-07
-3.85069e-08 -1.8772e-07 0.0306028

0.0336442 -0.00124581 -3.93774e-08
-0.00124581 0.0392987 -8.07398e-08
-3.93774e-08 -8.07398e-08 0.0349264

0.0320708 -0.00174668 -1.95384e-07
-0.00174668 0.0253295 1.72901e-07
-1.95384e-07 1.72901e-07 0.0258703

0.0250009 7.98394e-05 3.11147e-07
7.98394e-05 0.03315 1.67019e-08
3.11147e-07 1.67019e-08 0.0268602

0.0332459 0.00242865 -4.64867e-08
0.00242865 0.0271927 -3.45919e-08
-4.64867e-08 -3.45919e-08 0.0289211

0.0311162 0.00359873 -1.61714e-08
0.00359873 0.0272917 9.17138e-08
-1.61714e-08 9.17138e-08 0.0271216

0.0252945 -0.00204097 2.52566e-07
-0.00204097 0.0318632 1.98016e-08
2.52566e-07 1.98016e-08 0.0256102

0.0252002 -0.000154703 -3.57274e-09
-0.000154703 0.0332907 -3.85085e-08
-3.57274e-09 -3.85085e-08 0.027143

0.0354121 0.00385797 -5.6667e-08
0.00385797 0.0329944 2.2614e-07
-5.6667e-08 2.2614e-07 0.0338944

0.0275847 -0.00143089 -4.1853e-08
-0.00143089 0.0353409 -9.45231e-08
-4.1853e-08 -9.45231e-08 0.031441

0.0312329 -0.00348366 7.8751e-08
-0.00348366 0.0269765 1.70841e-07
7.8751e-08 1.70841e-07 0.0270088

0.0312954 0.00277254 2.95911e-08
0.00277254 0.0249212 -1.95958e-07
2.95911e-08 -1.95958e-07 0.0252452

0.0345811 0.00311825 1.42283e-07
0.00311825 0.0293855 1.46492e-07
1.42283e-07 1.46492e-07 0.0317947

0.0279902 0.000716467 1.80663e-08
0.000716467 0.036038 4.19436e-08
1.80663e-08 4.19436e-08 0.0318171

0.0287152 0.00378107 2.73662e-07
0.00378107 0.0285579 6.7622e-08
2.73662e-07 6.7622e-08 0.0257269

0.0367893 0.00305724 1.81556e-07
0.00305724 0.0361246 -1.03494e-07
1.81556e-07 -1.03494e-07 0.0349061

0.0226794 -0.00754497 -9.37245e-08
-0.00754497 0.0186871 -5.24978e-08
-9.37245e-08 -5.24978e-08 0.0108447

0.0332897 -0.00328736 -4.7275e-08
-0.00328736 0.0286314 1.1188e-07
-4.7275e-08 1.1188e-07 0.0301229

0.0207261 0.000913397 -7.58463e-08
0.000913397 0.0300299 -1.86021e-08
-7.58463e-08 -1.86021e-08 0.0183457

0.0312991 -0.00378146 5.5466e-08
-0.00378146 0.0292301 1.38484e-07
5.5466e-08 1.38484e-07 0.0290305

0.00153952 -0.00651859 -2.14477e-08
-0.00651859 0.0275675 9.39686e-08
-2.14477e-08 9.39686e-08 0.00290823

0.00146992 0.00636816 2.67871e-09
0.00636816 0.0275854 1.17362e-08
2.67871e-09 1.17362e-08 0.00300118

0.0119843 0.0145046 -4.31922e-08
0.0145046 0.017532 -5.41613e-08
-4.31922e-08 -5.41613e-08 0.0027711

0.0121656 -0.0144952 -4.60352e-08
-0.0144952 0.0172234 5.77263e-08
-4.60352e-08 5.77263e-08 0.00280371

0.02934 -0.000164084 -4.10548e-08
-0.000164084 0 0
-4.10548e-08 0 0.00295253

0.0235915 -0.0112823 1.05308e-07
-0.0112823 0.00539531 -5.07137e-08
1.05308e-07 -5.07137e-08 0.00297822

0.0236335 0.0113485 -8.29524e-08
0.0113485 0.00544937 -3.99478e-08
-8.29524e-08 -3.99478e-08 0.00303939

0.0369102 0.00191117 9.93411e-08
0.00191117 0.0302413 1.61044e-09
9.93411e-08 1.61044e-09 0.0338768

0.0387049 0.00340982 -1.23741e-07
0.00340982 0.036617 2.59094e-07
-1.23741e-07 2.59094e-07 0.0355777

0.0344134 0.000872287 8.5653e-08
0.000872287 0.0274559 3.09691e-08
8.5653e-08 3.09691e-08 0.0316869

0.0328718 0.00285012 1.42503e-08
0.00285012 0.0268884 -1.44009e-07
1.42503e-08 -1.44009e-07 0.0286454

0.0256999 0.00231321 -2.56147e-07
0.00231321 0.0323661 1.05477e-07
-2.56147e-07 1.05477e-07 0.0276347

0.0307117 0.00376877 -1.58218e-08
0.00376877 0.0276753 9.11958e-08
-1.58218e-08 9.11958e-08 0.0271168

0.0333048 -0.00390316 -9.36773e-08
-0.00390316 0.0304647 -2.91544e-08
-9.36773e-08 -2.91544e-08 0.031629

0.0309722 0.00365419 -1.60074e-07
0.00365419 0.0272859 2.4565e-07
-1.60074e-07 2.4565e-07 0.0269244

0.0249864 -0.000371595 -2.88206e-07
-0.000371595 0.033121 -2.5206e-09
-2.88206e-07 -2.5206e-09 0.0268424

0.0385475 -0.00348468 1.06607e-07
-0.00348468 0.0368804 -1.13103e-08
1.06607e-07 -1.13103e-08 0.0355832

0.0251749 -0.000635507 6.55039e-09
-0.000635507 0.0332094 -3.76483e-08
6.55039e-09 -3.76483e-08 0.0271019

0.036017 0.00304744 1.02633e-07
0.00304744 0.0330102 -1.99237e-07
1.02633e-07 -1.99237e-07 0.0340973

0.029622 0.0034757 -8.45289e-08
0.0034757 0.0248456 -1.8896e-07
-8.45289e-08 -1.8896e-07 0.0230221

0.0304951 -0.00171382 -1.99627e-07
-0.00171382 0.0375117 3.63469e-08
-1.99627e-07 3.63469e-08 0.0347358

0.0339198 0.00180447 1.27659e-07
0.00180447 0.0271809 -3.29974e-08
1.27659e-07 -3.29974e-08 0.0303197

0.0312004 -0.00392014 6.93878e-08
-0.00392014 0.0285302 1.86986e-07
6.93878e-08 1.86986e-07 0.0286137

0.0315828 -0.00322127 -1.49778e-07
-0.00322127 0.026691 -2.68844e-07
-1.49778e-07 -2.68844e-07 0.027047

0.0384791 -0.00214128 -6.95626e-09
-0.00214128 0.0334165 1.40142e-07
-6.95626e-09 1.40142e-07 0.0347442

0.0326805 0.00366396 -6.41544e-08
0.00366396 0.0292315 1.69939e-07
-6.41544e-08 1.69939e-07 0.0301543

0.0326441 0.00313751 -1.04363e-07
0.00313751 0.0272517 8.82774e-08
-1.04363e-07 8.82774e-08 0.0287873

0.0269545 -0.000365157 -1.4556e-07
-0.000365157 0.0349862 -4.05107e-08
-1.4556e-07 -4.05107e-08 0.0301673

0.025899 0.000765761 -6.29846e-08
0.000765761 0.034003 -1.67074e-07
-6.29846e-08 -1.67074e-07 0.0288223

0.0327772 0.000345364 -3.87168e-08
0.000345364 0.0248611 9.178e-08
-3.87168e-08 9.178e-08 0.0274431

0.0313865 -0.000944846 1.45809e-07
-0.000944846 0.0230034 -1.17998e-07
1.45809e-07 -1.17998e-07 0.0238916

0.0308798 0.00398515 -1.53119e-07
0.00398515 0.0288054 2.59236e-07
-1.53119e-07 2.59236e-07 0.0286235

0.0331169 -0.0034314 -1.18084e-08
-0.0034314 0.0285397 1.86417e-07
-1.18084e-08 1.86417e-07 0.0299686

0.0364121 -0.00282357 1.73879e-07
-0.00282357 0.0327323 -2.9009e-08
1.73879e-07 -2.9009e-08 0.0341435

0.0292055 -0.0041275 -2.13174e-07
-0.0041275 0.0291917 1.19398e-07
-2.13174e-07 1.19398e-07 0.0277533

0.0269714 -0.00362029 -2.02107e-07
-0.00362029 0.0304642 1.77268e-08
-2.02107e-07 1.77268e-08 0.0272128

0.0283258 0.00389943 -1.88741e-07
0.00389943 0.0299 -2.16132e-07
-1.88741e-07 -2.16132e-07 0.0277514

0.0259007 -0.00124899 -2.5953e-07
-0.00124899 0.0336127 -4.85117e-08
-2.5953e-07 -4.85117e-08 0.0285153

0.0266539 -0.000202027 -1.96266e-07
-0.000202027 0.0349125 6.87478e-08
-1.96266e-07 6.87478e-08 0.0299192

0.0277618 0.000752977 -1.07308e-07
0.000752977 0.0360375 4.28862e-08
-1.07308e-07 4.28862e-08 0.0316576

0.0262466 -0.00274928 3.69301e-08
-0.00274928 0.0319619 -1.76596e-07
3.69301e-08 -1.76596e-07 0.02771

0.0345816 0.00317563 1.23832e-07
0.00317563 0.0291678 1.81179e-07
1.23832e-07 1.81179e-07 0.0316338

0.0339087 -0.0012609 6.91718e-08
-0.0012609 0.0269297 -1.91518e-08
6.91718e-08 -1.91518e-08 0.0302011

0.0257898 0.00097449 2.6183e-07
0.00097449 0.033829 -7.22552e-08
2.6183e-07 -7.22552e-08 0.0285413

0.0278234 -0.00126996 -8.61058e-08
-0.00126996 0.0353967 -1.03549e-07
-8.61058e-08 -1.03549e-07 0.0313654

0.0272924 -0.00213707 4.67755e-09
-0.00213707 0.0336563 5.20227e-09
4.67755e-09 5.20227e-09 0.030225

0.032776 -0.00107709 -1.32704e-07
-0.00107709 0.0253195 4.39662e-08
-1.32704e-07 4.39662e-08 0.0272537

0.0333149 -0.00427113 1.96376e-07
-0.00427113 0.0323795 -1.2529e-07
1.96376e-07 -1.2529e-07 0.0335286

0.0264881 0.00121981 -1.44425e-07
0.00121981 0.033835 -7.73862e-08
-1.44425e-07 -7.73862e-08 0.0288154

0.0398112 -0.00243166 -2.38964e-07
-0.00243166 0.0352181 -7.36261e-08
-2.38964e-07 -7.36261e-08 0.0354605

0.0188885 0.00316457 -2.10068e-08
0.00316457 0.0278754 -1.16893e-07
-2.10068e-08 -1.16893e-07 0.0162725

0.0338155 -0.00352265 1.136e-07
-0.00352265 0.033494 -2.5723e-07
1.136e-07 -2.5723e-07 0.0337255

0.0353429 -0.0039994 5.14699e-09
-0.0039994 0.033046 1.41361e-07
5.14699e-09 1.41361e-07 0.0339034

0.0266853 -9.03477e-05 1.70692e-07
-9.03477e-05 0.0349176 7.71649e-08
1.70692e-07 7.71649e-08 0.0299273

0.0332421 -0.00217662 1.88502e-07
-0.00217662 0.0271525 -2.4331e-07
1.88502e-07 -2.4331e-07 0.0289021

0.0293469 0.00168467 -2.16224e-08
0.00168467 0.035819 -1.88689e-08
-2.16224e-08 -1.88689e-08 0.0328791

0.0132072 -0.000379122 1.47991e-07
-0.000379122 0.0283616 2.88717e-08
1.47991e-07 2.88717e-08 0.0111516

0.027113 0.00186844 -1.00686e-07
0.00186844 0.0340608 5.29669e-09
-1.00686e-07 5.29669e-09 0.0303056

0.0311084 -0.00385837 2.80083e-08
-0.00385837 0.0291532 1.03567e-07
2.80083e-08 1.03567e-07 0.0288058

0.0186195 0.00320458 6.78554e-08
0.00320458 0.030139 1.28192e-07
6.78554e-08 1.28192e-07 0.0131265

0.0426002 0.00351784 -4.54685e-07
0.00351784 0.0418486 -5.97391e-07
-4.54685e-07 -5.97391e-07 0.0364798

0.043206 -0.00374868 4.62607e-08
-0.00374868 0.0414175 -8.43319e-08
4.62607e-08 -8.43319e-08 0.0364623

0.0310645 -0.00399068 1.66114e-07
-0.00399068 0.0304703 -3.54155e-08
1.66114e-07 -3.54155e-08 0.0304603

0.0289212 -0.00406395 -3.03023e-08
-0.00406395 0.0291496 1.02915e-07
-3.03023e-08 1.02915e-07 0.0275937

0.0330502 0.00272696 6.28189e-08
0.00272696 0.0275277 -1.78592e-07
6.28189e-08 -1.78592e-07 0.0290747

0.0327787 0.00196002 5.09853e-08
0.00196002 0.0255905 -2.00793e-07
5.09853e-08 -2.00793e-07 0.027822

0.0464016 0.000418537 4.16889e-07
0.000418537 0.046357 -4.72623e-08
4.16889e-07 -4.72623e-08 0.0366941

0.0469203 -0.000951666 6.08233e-07
-0.000951666 0.0457683 4.71437e-07
6.08233e-07 4.71437e-07 0.0367652

0.0347984 0.000638128 -3.28051e-08
0.000638128 0.0275722 1.33976e-07
-3.28051e-08 1.33976e-07 0.0322158

0.027751 0.000882316 -8.70195e-08
0.000882316 0.0355695 -1.81113e-08
-8.70195e-08 -1.81113e-08 0.0313478

0.0276069 0.000882832 1.18069e-07
0.000882832 0.0355696 -1.22512e-08
1.18069e-07 -1.22512e-08 0.031244

0.0234586 0.00739969 -8.37995e-10
0.00739969 0.0183017 2.80399e-07
-8.37995e-10 2.80399e-07 0.0109013

0.0272462 -0.00367538 1.40589e-07
-0.00367538 0.0303462 2.73789e-07
1.40589e-07 2.73789e-07 0.0273187

0.0365662 0.00239153 7.25445e-08
0.00239153 0.0295752 3.58867e-08
7.25445e-08 3.58867e-08 0.0337836

0.0332728 0.00124752 -7.06885e-08
0.00124752 0.0265034 3.32216e-08
-7.06885e-08 3.32216e-08 0.0284309

0.0291515 -0.00349221 -7.0954e-08
-0.00349221 0.0304704 2.86723e-08
-7.0954e-08 2.86723e-08 0.0281725

0.0328103 -0.00264768 1.78564e-07
-0.00264768 0.0267272 -2.58488e-07
1.78564e-07 -2.58488e-07 0.0285859

0.0224594 0.00761258 1.25046e-07
0.00761258 0.01859 3.9552e-07
1.25046e-07 3.9552e-07 0.0109037

0.0331439 0.00410238 7.46397e-08
0.00410238 0.0326373 -1.908e-07
7.46397e-08 -1.908e-07 0.0331808

0.0258894 -0.00257807 1.49482e-07
-0.00257807 0.032023 1.8988e-07
1.49482e-07 1.8988e-07 0.0275066

0.0324816 0.00378575 -8.41184e-10
0.00378575 0.0292673 8.3994e-08
-8.41184e-10 8.3994e-08 0.030146

0.0268151 -0.000543521 1.55365e-07
-0.000543521 0.0349512 -9.75025e-09
1.55365e-07 -9.75025e-09 0.030137

0.0269891 0.00256323 -2.22455e-07
0.00256323 0.0324472 -1.06572e-07
-2.22455e-07 -1.06572e-07 0.0282855

0.0305253 0.0039909 -2.04612e-08
0.0039909 0.0293223 8.20603e-08
-2.04612e-08 8.20603e-08 0.0287742

0.0276078 -0.00293705 -8.36138e-08
-0.00293705 0.0318524 -1.98074e-07
-8.36138e-08 -1.98074e-07 0.0282481

0.029455 -0.00357577 -1.33332e-07
-0.00357577 0.0303499 2.56375e-07
-1.33332e-07 2.56375e-07 0.0283041

0.0181372 0.00142548 -5.21949e-08
0.00142548 0.0280357 -1.34132e-07
-5.21949e-08 -1.34132e-07 0.0131272

0.0234731 -0.00429377 5.46854e-08
-0.00429377 0.0275554 -1.19695e-07
5.46854e-08 -1.19695e-07 0.0177227

0.0262046 -0.00152585 8.93278e-08
-0.00152585 0.0336226 -1.57972e-07
8.93278e-08 -1.57972e-07 0.0287509

0.0330227 0.00347491 2.71384e-08
0.00347491 0.0288768 2.44202e-07
2.71384e-08 2.44202e-07 0.030068

0.0303207 0.00385746 2.19237e-07
0.00385746 0.0298853 -1.88827e-07
2.19237e-07 -1.88827e-07 0.0289893

0.0274134 -0.00280057 -1.22719e-07
-0.00280057 0.0319827 1.70221e-07
-1.22719e-07 1.70221e-07 0.0281381

0.0265537 -0.00154063 2.97922e-08
-0.00154063 0.0335812 -3.37196e-08
2.97922e-08 -3.37196e-08 0.0287454

0.0309554 0.00371811 2.70343e-08
0.00371811 0.0295624 -9.45068e-08
2.70343e-08 -9.45068e-08 0.0289403

0.0267584 -0.00181583 4.03908e-08
-0.00181583 0.033473 -1.68482e-07
4.03908e-08 -1.68482e-07 0.0289533

0.0191655 0.00355428 7.31418e-08
0.00355428 0.0276068 1.16575e-07
7.31418e-08 1.16575e-07 0.0162917

0.0308726 -0.000534658 -2.30235e-07
-0.000534658 0.0388185 -2.15764e-07
-2.30235e-07 -2.15764e-07 0.0342934

0.0286553 0.00404764 1.58951e-07
0.00404764 0.0295175 -1.09146e-07
1.58951e-07 -1.09146e-07 0.0277136

0.0355791 0.00197485 -2.07452e-07
0.00197485 0.029502 1.64875e-07
-2.07452e-07 1.64875e-07 0.0328416

0.0362583 -0.00211473 1.08807e-07
-0.00211473 0.0297543 1.81275e-07
1.08807e-07 1.81275e-07 0.0332168

0.0285096 -0.00309563 1.73596e-07
-0.00309563 0.0185684 1.66958e-07
1.73596e-07 1.66958e-07 0.0157294

0.0283522 -0.00279008 -1.86222e-07
-0.00279008 0.0327745 -4.42142e-08
-1.86222e-07 -4.42142e-08 0.0305706

0.0291899 0.00350088 -2.75844e-07
0.00350088 0.0315987 1.67782e-07
-2.75844e-07 1.67782e-07 0.0304864

0.0349586 -0.00290762 1.43682e-07
-0.00290762 0.0376747 2.12762e-07
1.43682e-07 2.12762e-07 0.0352351

0.0394597 0.00188548 1.21372e-07
0.00188548 0.0446087 1.82489e-07
1.21372e-07 1.82489e-07 0.0364321

0.0449431 0.00129037 4.241e-07
0.00129037 0.0391156 -3.67285e-07
4.241e-07 -3.67285e-07 0.036414

0.0355591 0.0043457 -6.15602e-08
0.0043457 0.0351342 -3.18551e-07
-6.15602e-08 -3.18551e-07 0.0350024

0.0265708 0.00338784 -1.41898e-07
0.00338784 0.0310052 -3.18031e-07
-1.41898e-07 -3.18031e-07 0.0272548

0.0330383 0.00349713 1.12189e-07
0.00349713 0.0286661 3.03626e-08
1.12189e-07 3.03626e-08 0.030049

0.022059 0.00576402 3.24977e-07
0.00576402 0.0242367 -7.51341e-08
3.24977e-07 -7.51341e-08 0.0160718

0.0386177 -0.00151218 -7.726e-08
-0.00151218 0.0444319 -3.56605e-08
-7.726e-08 -3.56605e-08 0.0363612

0.0460479 -0.000463846 4.34238e-08
-0.000463846 0.0454387 2.13018e-07
4.34238e-08 2.13018e-07 0.0366902

0.0451791 -3.20329e-05 3.28902e-07
-3.20329e-05 0.0463021 2.59284e-07
3.28902e-07 2.59284e-07 0.0366721

0.0176405 -0.00679466 -3.23123e-07
-0.00679466 0.0231075 4.08053e-08
-3.23123e-07 4.08053e-08 0.0107382

0.0392911 -0.00155602 -2.79914e-07
-0.00155602 0.038714 2.43561e-07
-2.79914e-07 2.43561e-07 0.0358526

0.0383961 0.00117671 1.96626e-07
0.00117671 0.0415173 -6.85809e-08
1.96626e-07 -6.85809e-08 0.036124

0.0331738 -0.00343533 -6.00794e-08
-0.00343533 0.0282187 7.49996e-08
-6.00794e-08 7.49996e-08 0.0299024

0.0318436 0.000140293 -1.40406e-07
0.000140293 0.0386713 -2.24928e-07
-1.40406e-07 -2.24928e-07 0.0344495

0.0285758 -0.00266 1.6524e-08
-0.00266 0.0333794 1.10691e-09
1.6524e-08 1.10691e-09 0.0315883

0.0356614 0.00083175 -2.01794e-07
0.00083175 0.0273766 7.23416e-09
-2.01794e-07 7.23416e-09 0.0329991

0.028875 0.00204447 3.22307e-08
0.00204447 0.0368157 -1.99563e-07
3.22307e-08 -1.99563e-07 0.0336686

0.0298685 0.000946629 -2.24334e-07
0.000946629 0.0373874 -2.28926e-07
-2.24334e-07 -2.28926e-07 0.0333625

0.0344006 0.00268489 5.69545e-08
0.00268489 0.0288508 3.74402e-08
5.69545e-08 3.74402e-08 0.0312253

0.0132788 -0.000409371 -4.94457e-08
-0.000409371 0.0281221 8.18561e-08
-4.94457e-08 8.18561e-08 0.011201

0.0309637 -0.003626 1.12206e-07
-0.003626 0.0309143 -7.47881e-09
1.12206e-07 -7.47881e-09 0.0306086

0.0329275 -0.00344337 -1.06446e-07
-0.00344337 0.03202 1.63134e-08
-1.06446e-07 1.63134e-08 0.0325783

0.0335698 -0.00415904 -5.99343e-08
-0.00415904 0.0325335 -1.90378e-07
-5.99343e-08 -1.90378e-07 0.0337347

0.0265612 0.00414855 7.65573e-08
0.00414855 0.017691 2.81078e-08
7.65573e-08 2.81078e-08 0.0126048

0.0388279 -0.0026963 -1.963e-07
-0.0026963 0.0395756 -1.5293e-07
-1.963e-07 -1.5293e-07 0.0359574

0.0230822 0.00692061 1.70104e-07
0.00692061 0.0255013 -2.80191e-07
1.70104e-07 -2.80191e-07 0.0126091

0.0308737 -0.0028174 -2.34407e-07
-0.0028174 0.0348067 -2.97504e-12
-2.34407e-07 -2.97504e-12 0.0339553

0.0354103 0.00193657 -5.58167e-08
0.00193657 0.0284648 -1.70714e-07
-5.58167e-08 -1.70714e-07 0.0323436

0.03182 -0.00189324 2.21811e-08
-0.00189324 0.02495 8.54332e-08
2.21811e-08 8.54332e-08 0.0253947

0.0292912 0.00315915 -1.82964e-07
0.00315915 0.032731 -1.04494e-07
-1.82964e-07 -1.04494e-07 0.0312786

0.034436 0.00268861 1.01674e-07
0.00268861 0.0286335 -6.87038e-08
1.01674e-07 -6.87038e-08 0.0312199

0.0325179 0.00149888 -4.41406e-08
0.00149888 0.0403731 -9.07197e-08
-4.41406e-08 -9.07197e-08 0.0353357

0.031939 -0.00415446 -3.47645e-08
-0.00415446 0.0312005 7.01058e-08
-3.47645e-08 7.01058e-08 0.0318097

0.0396756 0.0026555 9.59313e-09
0.0026555 0.0331976 8.12964e-08
9.59313e-09 8.12964e-08 0.035315

0.0279706 -0.00241837 1.16194e-08
-0.00241837 0.0335501 6.30404e-09
1.16194e-08 6.30404e-09 0.0304696

0.0293501 0.000558389 1.08278e-07
0.000558389 0.037311 -1.93693e-07
1.08278e-07 -1.93693e-07 0.0332517

0.0419426 0.00133736 1.43788e-07
0.00133736 0.0370997 2.24559e-07
1.43788e-07 2.24559e-07 0.0361154

0.0420973 -0.00114776 -1.42642e-08
-0.00114776 0.0373259 -2.38249e-08
-1.42642e-08 -2.38249e-08 0.0360973

0.0283824 0.00236902 2.23788e-07
0.00236902 0.0181811 6.28711e-09
2.23788e-07 6.28711e-09 0.0159493

0.0350253 0.00106137 -1.02984e-07
0.00106137 0.0285652 -1.68159e-07
-1.02984e-07 -1.68159e-07 0.0330581

0.0128667 0.000923326 -4.76885e-08
0.000923326 0.0316257 6.99839e-08
-4.76885e-08 6.99839e-08 0.00612157

0.0131623 -0.0013881 1.44198e-07
-0.0013881 0.0321315 -1.14133e-07
1.44198e-07 -1.14133e-07 0.00611188

0.0152685 0.00715413 -8.07636e-08
0.00715413 0.0284524 7.80214e-08
-8.07636e-08 7.80214e-08 0.00598401

0.0347637 -0.00382114 -1.14857e-07
-0.00382114 0.031267 1.72146e-07
-1.14857e-07 1.72146e-07 0.0329382

0.0155804 -0.00619417 8.50231e-08
-0.00619417 0.0261523 -3.33897e-07
8.50231e-08 -3.33897e-07 0.0104717

0.0155126 -0.00708666 -1.2291e-07
-0.00708666 0.0274229 -2.16376e-07
-1.2291e-07 -2.16376e-07 0.00591381

0.0284253 0.0034256 -1.13876e-07
0.0034256 0.0310055 -3.18194e-07
-1.13876e-07 -3.18194e-07 0.0281519

0.0251928 0.00932569 -2.44192e-07
0.00932569 0.0190205 -1.62677e-08
-2.44192e-07 -1.62677e-08 0.00593367

0.0365373 0.00173184 9.81585e-08
0.00173184 0.0385514 1.36748e-08
9.81585e-08 1.36748e-08 0.0354744

0.0395347 2.52348e-05 -2.01456e-07
2.52348e-05 0.0355391 1.74152e-07
-2.01456e-07 1.74152e-07 0.035455

0.0261069 -0.00924425 -1.79499e-07
-0.00924425 0.0188122 2.99586e-08
-1.79499e-07 2.99586e-08 0.00588784

0.0276891 -0.00306508 -5.27162e-09
-0.00306508 0.0320938 -2.70263e-08
-5.27162e-09 -2.70263e-08 0.029622

0.0262545 0.00441795 1.21451e-08
0.00441795 0.0201578 2.76074e-07
1.21451e-08 2.76074e-07 0.0130443

0.0172789 0.00797299 1.14692e-07
0.00797299 0.0271484 4.4959e-08
1.14692e-07 4.4959e-08 0.00598768

0.0181959 0.00275509 -7.73764e-08
0.00275509 0.0275893 -1.29881e-07
-7.73764e-08 -1.29881e-07 0.0128498

0.0173038 -0.00827613 -1.29731e-07
-0.00827613 0.0271518 1.27621e-07
-1.29731e-07 1.27621e-07 0.00581364

0.0179326 -0.00157094 1.57635e-07
-0.00157094 0.0280049 -3.10006e-08
1.57635e-07 -3.10006e-08 0.0126902

0.0370497 0.000923372 -8.18857e-08
0.000923372 0.0412996 -2.53895e-08
-8.18857e-08 -2.53895e-08 0.0358091

0.0221307 -0.00585493 -1.84709e-07
-0.00585493 0.0236642 -3.42393e-07
-1.84709e-07 -3.42393e-07 0.0151585

0.0156998 0.00598612 -2.34741e-08
0.00598612 0.0259018 -2.52913e-07
-2.34741e-08 -2.52913e-07 0.0107499

0.030208 0.00472985 -1.59943e-07
0.00472985 0.014349 -2.05697e-07
-1.59943e-07 -2.05697e-07 0.00611567

0.0329371 -0.00384952 1.08333e-07
-0.00384952 0.0301232 -2.07344e-08
1.08333e-07 -2.07344e-08 0.0310504

0.0308879 0.00169373 1.03018e-07
0.00169373 0.0368422 -2.0267e-07
1.03018e-07 -2.0267e-07 0.0339493

0.0260893 -0.00484389 -2.88108e-08
-0.00484389 0.0191967 3.54748e-07
-2.88108e-08 3.54748e-07 0.0126947

0.0329994 -0.00378591 1.09374e-07
-0.00378591 0.0300744 -1.82837e-08
1.09374e-07 -1.82837e-08 0.0311267

0.0300184 -0.00451979 -1.34456e-07
-0.00451979 0.0130533 1.61558e-07
-1.34456e-07 1.61558e-07 0.00603711

0.0324719 -0.0037275 1.84784e-08
-0.0037275 0.0313065 1.48228e-07
1.84784e-08 1.48228e-07 0.0319785

0.0280901 -0.00331101 -1.90629e-07
-0.00331101 0.0320025 -5.78419e-08
-1.90629e-07 -5.78419e-08 0.0296245

0.0234431 0.00874339 -7.45442e-08
0.00874339 0.0204826 2.19515e-07
-7.45442e-08 2.19515e-07 0.00602601

0.0181992 -0.00292068 2.23617e-07
-0.00292068 0.0268659 -4.19495e-09
2.23617e-07 -4.19495e-09 0.0122696

0.0233141 -0.00901906 8.54231e-08
-0.00901906 0.0201516 3.34758e-07
8.54231e-08 3.34758e-07 0.00588384

0.0170821 0.00640812 2.2272e-08
0.00640812 0.0235655 2.1087e-07
2.2272e-08 2.1087e-07 0.0108308

0.0308253 -0.00396021 1.07788e-07
-0.00396021 0.0301594 -2.0676e-08
1.07788e-07 -2.0676e-08 0.0300847

0.0389176 -0.00195883 8.0746e-08
-0.00195883 0.03694 2.32176e-07
8.0746e-08 2.32176e-07 0.0354986

0.045541 0.00150612 2.52206e-07
0.00150612 0.0449514 1.61755e-07
2.52206e-07 1.61755e-07 0.0366183

0.0435642 -0.000711784 -1.68028e-07
-0.000711784 0.0462317 -4.43393e-08
-1.68028e-07 -4.43393e-08 0.036584

0.0286148 0.00171583 -3.62646e-08
0.00171583 0.0355646 8.01387e-08
-3.62646e-08 8.01387e-08 0.0323887

0.0453362 -0.00144726 -1.97854e-08
-0.00144726 0.0449791 -2.33805e-07
-1.97854e-08 -2.33805e-07 0.0366361

0.0438073 0.000568377 -1.82216e-07
0.000568377 0.0465063 -5.09897e-07
-1.82216e-07 -5.09897e-07 0.0366172

0.04668 0.000991547 -5.16603e-08
0.000991547 0.0433765 -6.57044e-08
-5.16603e-08 -6.57044e-08 0.0365923

0.03975 -0.00163932 1.59174e-07
-0.00163932 0.0460747 4.61884e-08
1.59174e-07 4.61884e-08 0.036482

0.0190534 -0.00388715 2.30634e-07
-0.00388715 0.02723 -1.71979e-08
2.30634e-07 -1.71979e-08 0.0154706

0.0421403 -0.00175032 -2.16711e-07
-0.00175032 0.0367247 2.92301e-07
-2.16711e-07 2.92301e-07 0.0360039

0.0359631 -0.00457331 2.55136e-07
-0.00457331 0.0351499 -2.27923e-07
2.55136e-07 -2.27923e-07 0.0349672

0.0397526 -0.00242164 -3.66402e-08
-0.00242164 0.0360632 -3.10528e-07
-3.66402e-08 -3.10528e-07 0.0355664

0.0351837 0.00204319 -1.26391e-07
0.00204319 0.0285481 -8.33236e-08
-1.26391e-07 -8.33236e-08 0.032231

0.039692 0.0013379 -2.84417e-07
0.0013379 0.0472264 1.08778e-07
-2.84417e-07 1.08778e-07 0.0365478

0.0464955 0.00259367 1.86688e-07
0.00259367 0.0404181 3.88905e-07
1.86688e-07 3.88905e-07 0.036529

0.0400867 0.00150538 1.12097e-07
0.00150538 0.0366733 -3.8748e-07
1.12097e-07 -3.8748e-07 0.0356144

0.0279137 -0.00191982 1.83965e-07
-0.00191982 0.0125244 1.2838e-07
1.83965e-07 1.2838e-07 0.0106242

0.0283181 0.00326748 3.11614e-08
0.00326748 0.0315487 2.86451e-07
3.11614e-08 2.86451e-07 0.0294098

0.0231877 -0.00773578 4.55566e-08
-0.00773578 0.0181794 3.68401e-07
4.55566e-08 3.68401e-07 0.0102892

0.0228303 -0.00731545 -1.59229e-07
-0.00731545 0.025768 -3.64369e-07
-1.59229e-07 -3.64369e-07 0.0119542

0.0290216 -0.00464682 1.70519e-07
-0.00464682 0.0191278 1.66928e-07
1.70519e-07 1.66928e-07 0.0126147

0.0375737 -0.000660709 -5.96832e-08
-0.000660709 0.0449116 -2.28105e-07
-5.96832e-08 -2.28105e-07 0.036293

0.0375715 0.000358443 1.45776e-07
0.000358443 0.0447889 1.44396e-07
1.45776e-07 1.44396e-07 0.0362732

0.0426052 -0.00327475 -1.34768e-07
-0.00327475 0.03945 5.32786e-08
-1.34768e-07 5.32786e-08 0.036227

0.0429982 -0.00294492 7.18533e-08
-0.00294492 0.0391683 6.48503e-08
7.18533e-08 6.48503e-08 0.0362341

0.0425015 0.00350473 -2.59098e-07
0.00350473 0.0399723 -3.19053e-07
-2.59098e-07 -3.19053e-07 0.0362719

0.0443985 0.000417636 3.07124e-07
0.000417636 0.0450803 4.81348e-07
3.07124e-07 4.81348e-07 0.0366352

0.0426086 -0.002745 2.25476e-08
-0.002745 0.0395067 4.18337e-09
2.25476e-08 4.18337e-09 0.0362886

0.0426031 -0.00251197 7.66252e-08
-0.00251197 0.0442679 -2.37376e-07
7.66252e-08 -2.37376e-07 0.0365628

0.0451167 0.000331411 -4.84734e-07
0.000331411 0.0454684 -7.22108e-07
-4.84734e-07 -7.22108e-07 0.0366535

0.0436365 -0.002783 -7.97115e-08
-0.002783 0.038916 1.22506e-07
-7.97115e-08 1.22506e-07 0.0363292

0.0435121 0.00283879 -1.31561e-07
0.00283879 0.039069 -4.68421e-08
-1.31561e-07 -4.68421e-08 0.0363674

0.0451927 -0.000470172 -1.99946e-07
-0.000470172 0.0455815 8.50212e-08
-1.99946e-07 8.50212e-08 0.0367022

0.045227 -0.000426384 7.65992e-07
-0.000426384 0.0443626 -1.18079e-06
7.65992e-07 -1.18079e-06 0.0367205

0.042798 0.00163935 -5.42291e-07
0.00163935 0.0442484 1.00771e-06
-5.42291e-07 1.00771e-06 0.0366066

0.0411164 0.00361853 9.96584e-08
0.00361853 0.0405161 -4.0475e-07
9.96584e-08 -4.0475e-07 0.0363212

SCALARS pressure float
LOOKUP_TABLE default
-60.0502
19.3081
5.80314
21.29
15.8788
5.8871
-58.6734
7.78291
-3.80509
15.1244
-24.4314
7.61706
5.59188
12.279
23.3377
5.53876
18.5207
13.207
-0.693129
6.75627
-0.905062
33.1353
5.80049
5.79657
6.60156
14.9026
-38.3846
6.67142
-15.2424
30.6266
5.17611
-15.6571
-42.0556
27.3263
20.7793
27.3592
31.8849
19.8092
4.8594
-42.5988
-17.4073
31.9057
31.9939
5.99336
-21.8047
-15.9758
-1.0527
-3.40569
6.54453
-16.2177
-18.9187
-15.3459
20.7557
-15.3731
20.3088
-33.1483
21.1298
-15.4603
21.1396
7.04462
21.7646
16.1187
-45.5614
12.7897
16.362
10.9049
21.5739
13.8279
5.7732
21.8169
20.8117
20.7824
-17.6909
11.6004
3.97373
-31.6091
14.3566
10.9961
14.1459
-8.72018
-28.9445
14.9777
20.163
-22.0377
-23.4293
-28.0916
7.09749
9.63222
-22.2155
37.742
-15.509
38.4446
18.3045
10.7613
-15.1666
-15.8727
-30.221
14.7533
14.3656
4.59848
-10.7664
-21.9394
-25.1013
16.2127
14.0999
14.9614
18.6974
3.7745
-24.5581
26.5131
7.21725
-21.4087
-24.6117
14.8376
15.0779
-16.1457
20.1651
-29.1129
20.6287
-16.7293
-2.90499
23.834
21.7269
16.0328
26.6798
22.6316
21.7858
15.7083
-29.7806
-16.099
24.0918
21.6172
20.9892
22.0656
-22.0138
23.5874
-33.837
5.46316
21.7543
23.6308
-21.9367
6.67624
-5.96695
15.0833
-30.4072
15.6237
7.83294
2.40732
5.17751
-9.39467
-0.458284
22.6414
-15.4546
5.29079
15.2039
21.5604
11.508
-21.1132
-21.2637
10.7902
-2.84301
-15.1976
-21.2202
-15.1653
-20.9864
15.2795
-20.6358
-21.2015
-15.2078
-21.0637
19.0044
-15.941
-14.8245
12.0643
-14.4847
18.8027
19.0534
7.47247
18.0479
11.7728
-16.249
15.288
14.9608
-21.5284
10.4263
-14.2213
16.0485
14.5954
17.0818
14.835
10.3436
-26.9761
-16.0822
-15.9581
21.9068
14.5255
14.6244
20.9226
22.4868
9.50247
21.7336
-0.385035
-8.17107
20.7787
-17.8387
19.9455
10.364
-21.5175
15.721
22.5261
14.7312
9.39323
14.1896
21.0556
-7.83313
8.82733
-7.90893
14.6481
26.9277
26.5814
27.9606
26.3886
26.7244
26.291
13.8256
23.4304
24.0296
23.9738
23.4001
21.1928
21.8573
-8.26318
15.9333
28.1911
-3.18906
23.5761
23.2054
27.8344
-8.49388
28.0965
15.3444
-7.58196
17.492
-8.25815
20.2271
29.6128
-7.48635
-8.10111
-29.5917
-18.189
19.5272
-31.9851
5.73396
-7.7943
-1.18996
28.2492
26.6403
30.4271
26.761
-34.8005
-8.18
28.3374
8.07247
-8.29551
26.446
-6.29568
30.472
-7.95443
27.0472
14.5659
14.7869
23.8452
10.0472
18.021
8.11667
-29.8596
-24.5528
16.8068
1.75919
8.17912
-13.609
17.4357
11.6996
-8.10186
9.45185
-10.8237
7.51653
-10.7549
-8.48508
33.2651
19.1517
25.0884
25.3127
13.8289
-10.4048
26.4301
14.6848
-1.65951
-10.2741
-12.5644
17.5066
-7.4856
17.5745
-12.0414
-21.3502
-10.6085
-34.6808
15.5623
-7.76333
34.4431
-11.5782
16.8712
-8.40911
15.9726
-12.7585
4.28866
-51.1175
8.52117
-7.747
21.3339
-8.15251
-0.123425
10.7151
21.124
-12.0609
-10.201
-6.06874
14.3178
-10.1803
6.88748
6.38513
16.3054
-10.4198
-6.33085
-1.70287
-5.66095
-11.0787
-5.84517
15.3054
7.8075
-5.55654
-8.96081
7.80494
7.69379
-10.6749
16.3093
-27.213
2.29246
-28.481
-0.958126
-8.8777
-8.09599
-11.7786
-10.9423
-9.88058
-7.77559
-7.89895
16.6376
24.7781
12.1155
-0.292272
-0.825832
-5.67511
7.30466
-6.3212
-6.3185
24.9239
-5.73054
14.1179
-15.9084
24.3254
5.96749
-0.391827
-5.6444
16.2749
2.47645
0.198387
2.44744
0.455255
-0.741524
-9.93062
-0.0962698
2.11261
15.0688
-1.28895
-1.40784
-0.999494
-0.389246
1.96465
8.05013
-1.19423
8.07757
5.58256
-0.436309
7.03467
5.48959
-3.87708
16.4764
-1.90402
23.0623
-21.9731
15.0439
15.6822
2.039
-1.9981
12.5425
-26.5056
5.79158
-1.65855
-50.4819
30.499
30.6357
5.82422
-1.14504
-1.04744
-0.850369
33.4199
33.2946
13.0944
6.08133
6.66179
-28.9617
-1.2801
16.5333
-3.18331
-4.34871
-0.0176177
-25.2703
14.3029
-1.28087
2.86114
2.69253
-2.72388
-0.0499945
-3.21011
-4.03416
-37.9815
-33.6828
-0.1287
1.87383
-0.534742
-3.7448
-1.93722
-1.87834
-0.924965
-21.9071
17.2495
-0.770009
12.5647
14.1833
-26.7635
6.28565
7.13618
18.4778
36.4289
36.4614
22.6387
-1.75648
2.59897
-20.9292
36.1275
32.7612
32.8282
-24.8077
21.7759
30.5242
2.59846
15.7239
10.3707
17.1641
17.726
12.5052
5.68077
-25.3971
4.25944
10.4089
16.2438
-31.7089
28.3104
-52.7089
18.6847
10.2985
-10.6277
7.41677
5.45647
24.4747
9.41051
24.4077
4.10453
12.3995
30.6414
29.4671
-22.9897
17.4352
-70.2277
-74.3741
-67.1717
11.6479
-31.2588
-63.6051
-3.8041
-69.9331
16.4633
16.407
-73.7492
5.21142
-39.7285
-70.7337
-37.7545
-71.87
-39.45
21.1372
-23.9594
-29.0428
-70.6175
4.8308
15.7574
-36.1884
6.05287
-63.6129
9.83539
3.88096
-67.8962
-37.6221
-66.4057
-23.7544
5.02838
20.5265
35.3732
36.729
11.8115
36.8528
36.9062
36.4945
36.4064
-24.4782
28.249
20.6691
21.981
11.534
36.0623
36.0937
18.1203
-23.9391
3.24586
-30.525
-56.5949
-50.4722
36.1453
35.826
35.3826
35.4529
36.1613
35.6011
33.1117
37.3731
35.4025
36.0081
35.6403
34.1989
34.3355
35.8586
35.3114
