# vtk DataFile Version 3.0
vtk output at time 730
ASCII
DATASET UNSTRUCTURED_GRID
POINTS 626 float
-3.68058e-05 0.000978749 0 3.68058e-05 0.000978749 0 -0.000829194 0.00052125 0 
-0.0008235 0.0005 0 -0.000866 0.0004575 0 -0.000866 -0.0004575 0 
-0.0008235 -0.0005 0 -0.000829194 -0.00052125 0 -3.68058e-05 -0.000978749 0 
3.68058e-05 -0.000978749 0 0.000829194 -0.00052125 0 0.000866 -0.0004575 0 
0.000866 0.0004575 0 0.000829194 0.00052125 0 8.5e-05 0 0 
-3.68058e-05 0.000978749 -0.001 3.68058e-05 0.000978749 -0.001 -0.000829194 0.00052125 -0.001 
-0.0008235 0.0005 -0.001 -0.000866 0.0004575 -0.001 -0.000866 -0.0004575 -0.001 
-0.0008235 -0.0005 -0.001 -0.000829194 -0.00052125 -0.001 -3.68058e-05 -0.000978749 -0.001 
3.68058e-05 -0.000978749 -0.001 0.000829194 -0.00052125 -0.001 0.000866 -0.0004575 -0.001 
0.000866 0.0004575 -0.001 0.000829194 0.00052125 -0.001 8.5e-05 0 -0.001 
8.46223e-17 0.0009575 0 -0.000715996 0.000586607 0 -0.000602797 0.000651965 0 
-0.000489599 0.000717321 0 -0.000376401 0.000782678 0 -0.000263202 0.000848036 0 
-0.000150004 0.000913393 0 -0.000835948 0.000469948 0 -0.000866 -0.000326786 0 
-0.000866 -0.000196071 0 -0.000866 -6.53571e-05 0 -0.000866 6.53571e-05 0 
-0.000866 0.000196071 0 -0.000866 0.000326786 0 -0.000835948 -0.000469948 0 
-0.000150004 -0.000913393 0 -0.000263202 -0.000848036 0 -0.000376401 -0.000782678 0 
-0.000489599 -0.000717321 0 -0.000602797 -0.000651965 0 -0.000715996 -0.000586607 0 
8.47648e-17 -0.0009575 0 0.000715996 -0.000586607 0 0.000602797 -0.000651965 0 
0.000489599 -0.000717321 0 0.000376401 -0.000782678 0 0.000263202 -0.000848036 0 
0.000150004 -0.000913393 0 0.000829194 -0.00047875 0 0.000866 0.000326786 0 
0.000866 0.000196071 0 0.000866 6.53571e-05 0 0.000866 -6.53571e-05 0 
0.000866 -0.000196071 0 0.000866 -0.000326786 0 0.000829194 0.00047875 0 
0.000150004 0.000913393 0 0.000263202 0.000848036 0 0.000376401 0.000782678 0 
0.000489599 0.000717321 0 0.000602797 0.000651965 0 0.000715996 0.000586607 0 
5.29966e-05 6.64557e-05 0 -1.89143e-05 8.28689e-05 0 -7.65824e-05 3.68801e-05 0 
-7.65824e-05 -3.68801e-05 0 -1.89143e-05 -8.28689e-05 0 5.29966e-05 -6.64557e-05 0 
8.46223e-17 0.0009575 -0.001 -0.000715996 0.000586607 -0.001 -0.000602797 0.000651965 -0.001 
-0.000489599 0.000717321 -0.001 -0.000376401 0.000782678 -0.001 -0.000263202 0.000848036 -0.001 
-0.000150004 0.000913393 -0.001 -0.000835948 0.000469948 -0.001 -0.000866 -0.000326786 -0.001 
-0.000866 -0.000196071 -0.001 -0.000866 -6.53571e-05 -0.001 -0.000866 6.53571e-05 -0.001 
-0.000866 0.000196071 -0.001 -0.000866 0.000326786 -0.001 -0.000835948 -0.000469948 -0.001 
-0.000150004 -0.000913393 -0.001 -0.000263202 -0.000848036 -0.001 -0.000376401 -0.000782678 -0.001 
-0.000489599 -0.000717321 -0.001 -0.000602797 -0.000651965 -0.001 -0.000715996 -0.000586607 -0.001 
8.47648e-17 -0.0009575 -0.001 0.000715996 -0.000586607 -0.001 0.000602797 -0.000651965 -0.001 
0.000489599 -0.000717321 -0.001 0.000376401 -0.000782678 -0.001 0.000263202 -0.000848036 -0.001 
0.000150004 -0.000913393 -0.001 0.000829194 -0.00047875 -0.001 0.000866 0.000326786 -0.001 
0.000866 0.000196071 -0.001 0.000866 6.53571e-05 -0.001 0.000866 -6.53571e-05 -0.001 
0.000866 -0.000196071 -0.001 0.000866 -0.000326786 -0.001 0.000829194 0.00047875 -0.001 
0.000150004 0.000913393 -0.001 0.000263202 0.000848036 -0.001 0.000376401 0.000782678 -0.001 
0.000489599 0.000717321 -0.001 0.000602797 0.000651965 -0.001 0.000715996 0.000586607 -0.001 
5.29966e-05 6.64557e-05 -0.001 -1.89143e-05 8.28689e-05 -0.001 -7.65824e-05 3.68801e-05 -0.001 
-7.65824e-05 -3.68801e-05 -0.001 -1.89143e-05 -8.28689e-05 -0.001 5.29966e-05 -6.64557e-05 -0.001 
0.000131234 6.38474e-05 0 0.00012964 -6.2443e-05 0 3.13827e-05 0.0001394 0 
3.12554e-05 -0.000136939 0 -0.000140461 8.25467e-19 0 -8.90565e-05 -0.000102707 0 
-9.04142e-05 0.000102872 0 -0.000765769 -0.00025965 0 -0.000756873 0.000262774 0 
-0.00015609 0.000787505 0 -0.000155807 -0.00079355 0 0.000605069 0.000528035 0 
0.000608694 -0.00052497 0 0.000744069 0.000116929 0 -0.000494418 0.000596218 0 
-0.000483866 -0.000584648 0 0.000269496 0.000702219 0 0.000263201 -0.000717324 0 
0.000754429 -0.000127825 0 -0.000748858 5.84659e-07 0 -0.000747838 0.000373886 0 
-0.0006542 0.000324842 0 -0.000645137 0.000210123 0 -0.000550884 0.000274171 0 
-0.000538857 0.000163195 0 -0.00045062 0.000224461 0 -0.000438393 0.000123907 0 
-0.000354088 0.000181668 0 -0.000363908 0.000282171 0 -0.000270361 0.000239477 0 
-0.000279138 0.000337653 0 -0.000188888 0.000294791 0 -0.000196448 0.000393271 0 
-0.000104767 0.000348259 0 -0.000113332 0.000449012 0 -2.01066e-05 0.000403223 0 
-2.89189e-05 0.000507105 0 6.9524e-05 0.000461596 0 -0.000213644 0.000490203 0 
7.33757e-05 0.000357726 0 0.000163331 0.00041299 0 0.000163359 0.000313022 0 
0.000248077 0.000366368 0 0.000250914 0.000265758 0 0.000335709 0.000322266 0 
0.000340555 0.000218148 0 0.000427299 0.000276717 0 0.000431508 0.000173093 0 
0.000328731 0.000425633 0 0.00034586 0.000114823 0 0.000435362 7.05241e-05 0 
0.000350892 1.5455e-05 0 0.000441547 -3.11896e-05 0 0.000353547 -8.47783e-05 0 
0.000445767 -0.000132964 0 0.000356135 -0.000186358 0 0.000449094 -0.000234674 0 
0.000359978 -0.000287876 0 0.00026856 -0.000240545 0 0.000271895 -0.000341045 0 
0.000181792 -0.00029305 0 0.00018533 -0.000392851 0 9.75701e-05 -0.00034483 0 
9.98764e-05 -0.000444884 0 8.75116e-06 -0.000396343 0 1.20916e-05 -0.000500496 0 
-7.83929e-05 -0.000449843 0 -8.1471e-05 -0.000347249 0 -0.000171566 -0.000403733 0 
-0.000169889 -0.000298891 0 -0.000259867 -0.000354132 0 -0.000257696 -0.000249137 0 
-0.00034313 -0.000299896 0 -0.000344514 -0.000199127 0 -0.000434309 -0.000250039 0 
-0.000169832 -0.000505815 0 -0.000435227 -0.000146227 0 0.000280331 -0.000442424 0 
-0.000340889 8.76793e-05 0 -0.000515252 4.06198e-05 0 6.50491e-05 0.000568253 0 
0.00053278 1.74743e-05 0 0.000522071 0.000229831 0 -0.00037162 0.000391659 0 
-0.000255272 -0.000150439 0 -0.000442893 -0.000350705 0 0.000450067 -0.000332559 0 
0.000545175 -0.000276306 0 -0.000527797 -0.000197598 0 0.000105306 -0.000551033 0 
1.45836e-05 -0.000609147 0 0.00017145 0.000214453 0 0.000515525 0.000341711 0 
0.000636086 0.000290368 0 -0.000558657 0.000404468 0 -4.01232e-05 0.000616718 0 
6.60192e-05 0.000696422 0 -0.000101806 0.0002546 0 0.000271142 -3.88908e-05 0 
0.000179455 -0.00018534 0 -8.79553e-05 -0.000254307 0 -0.000749267 -0.000373451 0 
-0.000655941 -0.000323397 0 0.000709746 0.000466718 0 0.000698426 -0.000473086 0 
-5.25801e-05 -0.00084886 0 -4.93005e-05 0.000848038 0 0.000617396 -0.000413362 0 
0.000702056 -0.000369817 0 0.000131459 -0.000679171 0 2.48171e-05 -0.000715924 0 
-0.000664217 -0.00042729 0 -0.000528828 -8.80444e-05 0 -0.000611101 -0.000136672 0 
-0.000426972 -4.45841e-05 0 0.000800669 0.000378216 0 0.000821144 -0.000415062 0 
7.2799e-05 0.00088254 0 6.81831e-05 -0.00087503 0 0.000104963 -0.000788946 0 
-7.40696e-05 -0.000660054 0 0.000126061 0.000809943 0 0.000764361 0.000295682 0 
0.000166862 0.000630623 0 0.000516462 -0.00046707 0 -0.000563585 -0.000389606 0 
-0.000622598 -1.40238e-05 0 0.000629891 0.000171529 0 2.5614e-06 -0.000299794 0 
8.6901e-05 -0.00024329 0 0.000272045 -0.000136982 0 -0.00075148 0.000138321 0 
0.000209366 -0.000599589 0 0.000324913 -0.000630055 0 0.000614044 0.00041245 0 
0.00049651 -0.000573327 0 0.000394822 -0.000507321 0 -0.000173714 -0.000206698 0 
0.000264897 5.63722e-05 0 0.000247997 0.000152811 0 -4.63327e-05 -0.000920208 0 
9.18688e-05 0.000258626 0 -5.54111e-06 0.000290558 0 -0.000184219 0.000201484 0 
-0.000263559 0.000142267 0 -0.000256427 5.13624e-05 0 -0.000336894 -2.06179e-06 0 
-0.000228499 -4.2388e-05 0 -0.00017589 0.000106626 0 -0.000769947 -0.000133367 0 
0.000767591 -0.000500293 0 -5.05874e-05 0.000737978 0 0.000754456 -3.51771e-06 0 
0.00064691 -6.15298e-05 0 0.000630483 -0.00018134 0 0.000749187 -0.000265543 0 
-0.000760805 -0.000462521 0 0.000638155 6.09315e-05 0 -4.46661e-05 0.000922995 0 
-2.37945e-05 0.000207237 0 0.000776979 0.000500181 0 -0.000605691 0.000527596 0 
-0.000377914 -0.000653727 0 -0.000372325 -0.000526022 0 -0.000275829 -0.000589621 0 
-0.000254285 -0.000710579 0 -0.000379307 0.000656222 0 -0.000379818 0.00052718 0 
-0.000266817 0.000721555 0 -0.000150544 0.000668174 0 0.000381963 0.00065079 0 
0.000493113 0.000590432 0 0.000505439 0.000463708 0 -0.000269094 0.000596608 0 
0.000385815 0.000532045 0 0.000283599 0.0005899 0 -0.000176405 -0.000108505 0 
-0.000278769 -0.000475415 0 0.000185395 2.33014e-06 0 0.000186773 0.000517571 0 
0.000540032 -8.68444e-05 0 -0.000600694 -0.000514877 0 -0.00063703 8.98033e-05 0 
-0.000459677 0.000335729 0 -0.000338836 -0.000100751 0 -0.000457327 0.000432721 0 
-8.72007e-06 -0.000210238 0 0.000156073 0.000129496 0 -7.70692e-05 -0.000555049 0 
0.00036091 -0.000389728 0 0.000531628 0.000120564 0 -0.000285451 0.000435562 0 
0.000192719 -0.000494604 0 0.00041642 0.00039368 0 -0.000135943 0.000554637 0 
-0.000170665 -0.000610079 0 -0.000666304 0.000434981 0 -0.000758736 0.000479231 0 
-0.000470189 -0.000458901 0 0.000203433 -8.59809e-05 0 0.000101846 0.000170114 0 
-0.00035513 -0.00040726 0 0.000100184 -0.000165831 0 2.96286e-05 0.00081537 0 
0.000720946 0.000381836 0 -0.000539809 -0.000292001 0 0.00052211 -0.000182426 0 
-6.41339e-05 -0.000753908 0 0.000638039 -0.000299861 0 -0.000605136 -0.000230182 0 
-3.41638e-05 -0.000145561 0 -0.000104037 0.000172396 0 -0.000808575 -0.00042774 0 
-0.000807207 -0.000465052 0 -0.00080817 0.000429771 0 -0.000806589 0.000469738 0 
-9.50634e-05 -0.000178909 0 0.000247777 0.000445058 0 1.48293e-05 -0.000814201 0 
-4.11555e-05 0.000140955 0 0.000276104 -0.000536845 0 0.000765969 -0.000436638 0 
0.000780871 -0.000362769 0 0.000424176 -0.000642018 0 0.00053413 -0.000368009 0 
-0.000416333 4.17911e-05 0 -0.000133891 -6.23822e-05 0 4.2574e-05 0.000206312 0 
0.000141163 -0.000121542 0 0.000707423 0.000212137 0 0.000172327 0.000723882 0 
7.72652e-06 -0.00090254 0 -0.000134435 5.66935e-05 0 -0.000188826 3.70894e-05 0 
0.000197119 8.09714e-05 0 1.27801e-05 0.000917296 0 0.000800767 0.00044758 0 
-0.000686682 0.000507104 0 9.35831e-05 0.000110457 0 -0.000696793 -0.000509595 0 
-0.00068446 -8.52012e-05 0 -0.000691033 -0.000201242 0 5.24052e-05 -0.000189075 0 
-0.000151818 -0.000701092 0 -0.000296988 0.000518087 0 9.31023e-05 -0.000108117 0 
0.00044261 -0.000416726 0 0.000197044 -0.000784423 0 -0.000516861 0.000504567 0 
0.000298997 0.000502377 0 0.000131234 6.38474e-05 -0.001 0.00012964 -6.2443e-05 -0.001 
3.13827e-05 0.0001394 -0.001 3.12554e-05 -0.000136939 -0.001 -0.000140461 8.25467e-19 -0.001 
-8.90565e-05 -0.000102707 -0.001 -9.04142e-05 0.000102872 -0.001 -0.000765769 -0.00025965 -0.001 
-0.000756873 0.000262774 -0.001 -0.00015609 0.000787505 -0.001 -0.000155807 -0.00079355 -0.001 
0.000605069 0.000528035 -0.001 0.000608694 -0.00052497 -0.001 0.000744069 0.000116929 -0.001 
-0.000494418 0.000596218 -0.001 -0.000483866 -0.000584648 -0.001 0.000269496 0.000702219 -0.001 
0.000263201 -0.000717324 -0.001 0.000754429 -0.000127825 -0.001 -0.000748858 5.84659e-07 -0.001 
-0.000747838 0.000373886 -0.001 -0.0006542 0.000324842 -0.001 -0.000645137 0.000210123 -0.001 
-0.000550884 0.000274171 -0.001 -0.000538857 0.000163195 -0.001 -0.00045062 0.000224461 -0.001 
-0.000438393 0.000123907 -0.001 -0.000354088 0.000181668 -0.001 -0.000363908 0.000282171 -0.001 
-0.000270361 0.000239477 -0.001 -0.000279138 0.000337653 -0.001 -0.000188888 0.000294791 -0.001 
-0.000196448 0.000393271 -0.001 -0.000104767 0.000348259 -0.001 -0.000113332 0.000449012 -0.001 
-2.01066e-05 0.000403223 -0.001 -2.89189e-05 0.000507105 -0.001 6.9524e-05 0.000461596 -0.001 
-0.000213644 0.000490203 -0.001 7.33757e-05 0.000357726 -0.001 0.000163331 0.00041299 -0.001 
0.000163359 0.000313022 -0.001 0.000248077 0.000366368 -0.001 0.000250914 0.000265758 -0.001 
0.000335709 0.000322266 -0.001 0.000340555 0.000218148 -0.001 0.000427299 0.000276717 -0.001 
0.000431508 0.000173093 -0.001 0.000328731 0.000425633 -0.001 0.00034586 0.000114823 -0.001 
0.000435362 7.05241e-05 -0.001 0.000350892 1.5455e-05 -0.001 0.000441547 -3.11896e-05 -0.001 
0.000353547 -8.47783e-05 -0.001 0.000445767 -0.000132964 -0.001 0.000356135 -0.000186358 -0.001 
0.000449094 -0.000234674 -0.001 0.000359978 -0.000287876 -0.001 0.00026856 -0.000240545 -0.001 
0.000271895 -0.000341045 -0.001 0.000181792 -0.00029305 -0.001 0.00018533 -0.000392851 -0.001 
9.75701e-05 -0.00034483 -0.001 9.98764e-05 -0.000444884 -0.001 8.75116e-06 -0.000396343 -0.001 
1.20916e-05 -0.000500496 -0.001 -7.83929e-05 -0.000449843 -0.001 -8.1471e-05 -0.000347249 -0.001 
-0.000171566 -0.000403733 -0.001 -0.000169889 -0.000298891 -0.001 -0.000259867 -0.000354132 -0.001 
-0.000257696 -0.000249137 -0.001 -0.00034313 -0.000299896 -0.001 -0.000344514 -0.000199127 -0.001 
-0.000434309 -0.000250039 -0.001 -0.000169832 -0.000505815 -0.001 -0.000435227 -0.000146227 -0.001 
0.000280331 -0.000442424 -0.001 -0.000340889 8.76793e-05 -0.001 -0.000515252 4.06198e-05 -0.001 
6.50491e-05 0.000568253 -0.001 0.00053278 1.74743e-05 -0.001 0.000522071 0.000229831 -0.001 
-0.00037162 0.000391659 -0.001 -0.000255272 -0.000150439 -0.001 -0.000442893 -0.000350705 -0.001 
0.000450067 -0.000332559 -0.001 0.000545175 -0.000276306 -0.001 -0.000527797 -0.000197598 -0.001 
0.000105306 -0.000551033 -0.001 1.45836e-05 -0.000609147 -0.001 0.00017145 0.000214453 -0.001 
0.000515525 0.000341711 -0.001 0.000636086 0.000290368 -0.001 -0.000558657 0.000404468 -0.001 
-4.01232e-05 0.000616718 -0.001 6.60192e-05 0.000696422 -0.001 -0.000101806 0.0002546 -0.001 
0.000271142 -3.88908e-05 -0.001 0.000179455 -0.00018534 -0.001 -8.79553e-05 -0.000254307 -0.001 
-0.000749267 -0.000373451 -0.001 -0.000655941 -0.000323397 -0.001 0.000709746 0.000466718 -0.001 
0.000698426 -0.000473086 -0.001 -5.25801e-05 -0.00084886 -0.001 -4.93005e-05 0.000848038 -0.001 
0.000617396 -0.000413362 -0.001 0.000702056 -0.000369817 -0.001 0.000131459 -0.000679171 -0.001 
2.48171e-05 -0.000715924 -0.001 -0.000664217 -0.00042729 -0.001 -0.000528828 -8.80444e-05 -0.001 
-0.000611101 -0.000136672 -0.001 -0.000426972 -4.45841e-05 -0.001 0.000800669 0.000378216 -0.001 
0.000821144 -0.000415062 -0.001 7.2799e-05 0.00088254 -0.001 6.81831e-05 -0.00087503 -0.001 
0.000104963 -0.000788946 -0.001 -7.40696e-05 -0.000660054 -0.001 0.000126061 0.000809943 -0.001 
0.000764361 0.000295682 -0.001 0.000166862 0.000630623 -0.001 0.000516462 -0.00046707 -0.001 
-0.000563585 -0.000389606 -0.001 -0.000622598 -1.40238e-05 -0.001 0.000629891 0.000171529 -0.001 
2.5614e-06 -0.000299794 -0.001 8.6901e-05 -0.00024329 -0.001 0.000272045 -0.000136982 -0.001 
-0.00075148 0.000138321 -0.001 0.000209366 -0.000599589 -0.001 0.000324913 -0.000630055 -0.001 
0.000614044 0.00041245 -0.001 0.00049651 -0.000573327 -0.001 0.000394822 -0.000507321 -0.001 
-0.000173714 -0.000206698 -0.001 0.000264897 5.63722e-05 -0.001 0.000247997 0.000152811 -0.001 
-4.63327e-05 -0.000920208 -0.001 9.18688e-05 0.000258626 -0.001 -5.54111e-06 0.000290558 -0.001 
-0.000184219 0.000201484 -0.001 -0.000263559 0.000142267 -0.001 -0.000256427 5.13624e-05 -0.001 
-0.000336894 -2.06179e-06 -0.001 -0.000228499 -4.2388e-05 -0.001 -0.00017589 0.000106626 -0.001 
-0.000769947 -0.000133367 -0.001 0.000767591 -0.000500293 -0.001 -5.05874e-05 0.000737978 -0.001 
0.000754456 -3.51771e-06 -0.001 0.00064691 -6.15298e-05 -0.001 0.000630483 -0.00018134 -0.001 
0.000749187 -0.000265543 -0.001 -0.000760805 -0.000462521 -0.001 0.000638155 6.09315e-05 -0.001 
-4.46661e-05 0.000922995 -0.001 -2.37945e-05 0.000207237 -0.001 0.000776979 0.000500181 -0.001 
-0.000605691 0.000527596 -0.001 -0.000377914 -0.000653727 -0.001 -0.000372325 -0.000526022 -0.001 
-0.000275829 -0.000589621 -0.001 -0.000254285 -0.000710579 -0.001 -0.000379307 0.000656222 -0.001 
-0.000379818 0.00052718 -0.001 -0.000266817 0.000721555 -0.001 -0.000150544 0.000668174 -0.001 
0.000381963 0.00065079 -0.001 0.000493113 0.000590432 -0.001 0.000505439 0.000463708 -0.001 
-0.000269094 0.000596608 -0.001 0.000385815 0.000532045 -0.001 0.000283599 0.0005899 -0.001 
-0.000176405 -0.000108505 -0.001 -0.000278769 -0.000475415 -0.001 0.000185395 2.33014e-06 -0.001 
0.000186773 0.000517571 -0.001 0.000540032 -8.68444e-05 -0.001 -0.000600694 -0.000514877 -0.001 
-0.00063703 8.98033e-05 -0.001 -0.000459677 0.000335729 -0.001 -0.000338836 -0.000100751 -0.001 
-0.000457327 0.000432721 -0.001 -8.72007e-06 -0.000210238 -0.001 0.000156073 0.000129496 -0.001 
-7.70692e-05 -0.000555049 -0.001 0.00036091 -0.000389728 -0.001 0.000531628 0.000120564 -0.001 
-0.000285451 0.000435562 -0.001 0.000192719 -0.000494604 -0.001 0.00041642 0.00039368 -0.001 
-0.000135943 0.000554637 -0.001 -0.000170665 -0.000610079 -0.001 -0.000666304 0.000434981 -0.001 
-0.000758736 0.000479231 -0.001 -0.000470189 -0.000458901 -0.001 0.000203433 -8.59809e-05 -0.001 
0.000101846 0.000170114 -0.001 -0.00035513 -0.00040726 -0.001 0.000100184 -0.000165831 -0.001 
2.96286e-05 0.00081537 -0.001 0.000720946 0.000381836 -0.001 -0.000539809 -0.000292001 -0.001 
0.00052211 -0.000182426 -0.001 -6.41339e-05 -0.000753908 -0.001 0.000638039 -0.000299861 -0.001 
-0.000605136 -0.000230182 -0.001 -3.41638e-05 -0.000145561 -0.001 -0.000104037 0.000172396 -0.001 
-0.000808575 -0.00042774 -0.001 -0.000807207 -0.000465052 -0.001 -0.00080817 0.000429771 -0.001 
-0.000806589 0.000469738 -0.001 -9.50634e-05 -0.000178909 -0.001 0.000247777 0.000445058 -0.001 
1.48293e-05 -0.000814201 -0.001 -4.11555e-05 0.000140955 -0.001 0.000276104 -0.000536845 -0.001 
0.000765969 -0.000436638 -0.001 0.000780871 -0.000362769 -0.001 0.000424176 -0.000642018 -0.001 
0.00053413 -0.000368009 -0.001 -0.000416333 4.17911e-05 -0.001 -0.000133891 -6.23822e-05 -0.001 
4.2574e-05 0.000206312 -0.001 0.000141163 -0.000121542 -0.001 0.000707423 0.000212137 -0.001 
0.000172327 0.000723882 -0.001 7.72652e-06 -0.00090254 -0.001 -0.000134435 5.66935e-05 -0.001 
-0.000188826 3.70894e-05 -0.001 0.000197119 8.09714e-05 -0.001 1.27801e-05 0.000917296 -0.001 
0.000800767 0.00044758 -0.001 -0.000686682 0.000507104 -0.001 9.35831e-05 0.000110457 -0.001 
-0.000696793 -0.000509595 -0.001 -0.00068446 -8.52012e-05 -0.001 -0.000691033 -0.000201242 -0.001 
5.24052e-05 -0.000189075 -0.001 -0.000151818 -0.000701092 -0.001 -0.000296988 0.000518087 -0.001 
9.31023e-05 -0.000108117 -0.001 0.00044261 -0.000416726 -0.001 0.000197044 -0.000784423 -0.001 
-0.000516861 0.000504567 -0.001 0.000298997 0.000502377 -0.001 

CELLS 563 3941
6 14 304 127 29 554 377 
6 143 259 55 393 509 103 
6 300 319 174 550 569 424 
6 259 349 55 509 599 103 
6 50 365 307 98 615 557 
6 299 320 164 549 570 414 
6 126 304 14 376 554 29 
6 298 319 300 548 569 550 
6 205 240 238 455 490 488 
6 257 308 145 507 558 395 
6 130 352 273 380 602 523 
6 295 320 299 545 570 549 
6 324 327 289 574 577 539 
6 235 258 143 485 508 393 
6 50 307 49 98 557 97 
6 207 283 279 457 533 529 
6 143 373 235 393 623 485 
6 145 308 252 395 558 502 
6 194 303 196 444 553 446 
6 279 306 207 529 556 457 
6 206 305 163 456 555 413 
6 51 357 9 99 607 24 
6 238 252 205 488 502 455 
6 293 317 209 543 567 459 
6 207 316 283 457 566 533 
6 142 301 249 392 551 499 
6 273 359 130 523 609 380 
6 211 327 324 461 577 574 
6 169 265 217 419 515 467 
6 7 365 50 22 615 98 
6 283 316 253 533 566 503 
6 159 268 223 409 518 473 
6 274 337 132 524 587 382 
6 232 361 329 482 611 579 
6 231 266 45 481 516 93 
6 229 362 330 479 612 580 
6 9 244 57 24 494 105 
6 230 276 52 480 526 100 
6 209 311 293 459 561 543 
6 131 342 302 381 592 552 
6 270 271 204 520 521 454 
6 66 243 1 114 493 16 
6 59 241 12 107 491 27 
6 280 306 279 530 556 529 
6 269 337 274 519 587 524 
6 179 256 224 429 506 474 
6 163 305 166 413 555 416 
6 201 303 194 451 553 444 
6 280 332 306 530 582 556 
6 186 255 225 436 505 475 
6 210 310 273 460 560 523 
6 153 270 204 403 520 454 
6 136 231 45 386 481 93 
6 171 265 169 421 515 419 
6 138 230 52 388 480 100 
6 225 354 325 475 604 575 
6 36 284 232 84 534 482 
6 161 268 159 411 518 409 
6 71 286 229 119 536 479 
6 290 303 201 540 553 451 
6 139 355 60 389 605 108 
6 60 355 248 108 605 498 
6 273 352 302 523 602 552 
6 235 373 245 485 623 495 
6 67 356 247 115 606 497 
6 221 295 277 471 545 527 
6 142 356 67 392 606 115 
6 139 283 253 389 533 503 
6 203 315 262 453 565 512 
6 41 257 145 89 507 395 
6 36 232 135 84 482 385 
6 71 229 137 119 479 387 
6 254 255 188 504 505 438 
6 233 350 334 483 600 584 
6 262 346 203 512 596 453 
6 304 325 127 554 575 377 
6 222 329 247 472 579 497 
6 218 298 260 468 548 510 
6 290 321 291 540 571 541 
6 272 310 240 522 560 490 
6 269 274 270 519 524 520 
6 244 245 57 494 495 105 
6 49 307 141 97 557 391 
6 225 325 256 475 575 506 
6 273 310 272 523 560 522 
6 312 368 255 562 618 505 
6 249 305 206 499 555 456 
6 228 331 251 478 581 501 
6 302 342 263 552 592 513 
6 338 339 44 588 589 92 
6 190 254 188 440 504 438 
6 37 341 340 85 591 590 
6 138 233 230 388 483 480 
6 228 335 331 478 585 581 
6 181 256 179 431 506 429 
6 195 263 226 445 513 476 
6 268 285 223 518 535 473 
6 290 291 288 540 541 538 
6 219 330 248 469 580 498 
6 201 321 290 451 571 540 
6 240 310 202 490 560 452 
6 188 255 186 438 505 436 
6 270 274 271 520 524 521 
6 262 349 259 512 599 509 
6 141 324 289 391 574 539 
6 296 301 142 546 551 392 
6 247 356 222 497 606 472 
6 239 252 238 489 502 488 
6 254 312 255 504 562 505 
6 54 261 53 102 511 101 
6 289 327 303 539 577 553 
6 268 353 285 518 603 535 
6 273 302 210 523 552 460 
6 292 299 293 542 549 543 
6 278 283 139 528 533 389 
6 175 265 171 425 515 421 
6 227 338 38 477 588 86 
6 264 360 265 514 610 515 
6 43 340 146 91 590 396 
6 165 268 161 415 518 411 
6 205 351 240 455 601 490 
6 64 281 63 112 531 111 
6 288 291 47 538 541 95 
6 135 295 294 385 545 544 
6 42 257 41 90 507 89 
6 245 373 57 495 623 105 
6 31 363 323 79 613 573 
6 292 293 140 542 543 390 
6 267 353 268 517 603 518 
6 155 270 153 405 520 403 
6 244 344 245 494 594 495 
6 61 278 139 109 528 389 
6 135 294 35 385 544 83 
6 69 297 296 117 547 546 
6 186 225 184 436 475 434 
6 329 361 243 579 611 493 
6 255 328 225 505 578 475 
6 213 332 280 463 582 530 
6 39 275 133 87 525 383 
6 330 362 241 580 612 491 
6 195 226 193 445 476 443 
6 211 324 251 461 574 501 
6 151 153 152 401 403 402 
6 295 299 294 545 549 544 
6 265 313 217 515 563 467 
6 258 259 143 508 509 393 
6 251 331 211 501 581 461 
6 149 151 150 399 401 400 
6 293 370 317 543 620 567 
6 153 204 152 403 454 402 
6 151 152 150 401 402 400 
6 33 292 140 81 542 390 
6 210 263 197 460 513 447 
6 301 305 249 551 555 499 
6 298 300 297 548 550 547 
6 68 296 142 116 546 392 
6 321 369 291 571 619 541 
6 179 224 177 429 474 427 
6 167 267 165 417 517 415 
6 259 346 262 509 596 512 
6 303 327 196 553 577 446 
6 269 270 155 519 520 405 
6 265 360 313 515 610 563 
6 223 269 157 473 519 407 
6 157 269 155 407 519 405 
6 144 279 278 394 529 528 
6 169 217 167 419 467 417 
6 177 264 175 427 514 425 
6 267 268 165 517 518 415 
6 159 223 157 409 473 407 
6 232 277 135 482 527 385 
6 193 254 190 443 504 440 
6 217 267 167 467 517 417 
6 249 356 142 499 606 392 
6 184 256 181 434 506 431 
6 248 355 219 498 605 469 
6 229 260 137 479 510 387 
6 149 150 148 399 400 398 
6 64 348 281 112 598 531 
6 311 374 293 561 624 543 
6 264 265 175 514 515 425 
6 297 300 296 547 550 546 
6 141 289 288 391 539 538 
6 197 263 195 447 513 445 
6 218 260 219 468 510 469 
6 224 264 177 474 514 427 
6 137 298 297 387 548 547 
6 277 295 135 527 545 385 
6 133 228 227 383 478 477 
6 261 349 262 511 599 512 
6 221 277 222 471 527 472 
6 256 325 224 506 575 474 
6 199 210 197 449 460 447 
6 226 254 193 476 504 443 
6 144 278 62 394 528 110 
6 279 283 278 529 533 528 
6 289 290 288 539 540 538 
6 137 297 70 387 547 118 
6 34 294 292 82 544 542 
6 235 236 216 485 486 466 
6 141 288 48 391 538 96 
6 178 306 180 428 556 430 
6 185 186 184 435 436 434 
6 63 281 144 111 531 394 
6 225 256 184 475 506 434 
6 46 291 136 94 541 386 
6 147 149 148 397 399 398 
6 271 272 204 521 522 454 
6 233 334 234 483 584 484 
6 145 275 40 395 525 88 
6 220 322 287 470 572 537 
6 280 334 213 530 584 463 
6 144 280 279 394 530 529 
6 140 287 32 390 537 80 
6 154 155 153 404 405 403 
6 334 350 213 584 600 463 
6 176 177 175 426 427 425 
6 260 298 137 510 548 387 
6 33 140 32 81 390 80 
6 49 141 48 97 391 96 
6 56 143 55 104 393 103 
6 68 142 67 116 392 115 
6 63 144 62 111 394 110 
6 61 139 60 109 389 108 
6 148 308 257 398 558 507 
6 71 137 70 119 387 118 
6 53 138 52 101 388 100 
6 46 136 45 94 386 93 
6 36 135 35 84 385 83 
6 43 146 134 91 396 384 
6 133 227 38 383 477 86 
6 192 193 190 442 443 440 
6 293 374 140 543 624 390 
6 34 292 33 82 542 81 
6 207 306 178 457 556 428 
6 43 134 42 91 384 90 
6 39 133 38 87 383 86 
6 41 145 40 89 395 88 
6 194 195 193 444 445 443 
6 69 296 68 117 546 116 
6 294 299 292 544 549 542 
6 173 175 171 423 425 421 
6 260 330 219 510 580 469 
6 183 184 181 433 434 431 
6 134 257 42 384 507 90 
6 55 349 54 103 599 102 
6 163 165 161 413 415 411 
6 166 167 165 416 417 415 
6 210 302 263 460 552 513 
6 271 273 272 521 523 522 
6 53 261 138 101 511 388 
6 217 326 267 467 576 517 
6 289 303 290 539 553 540 
6 178 179 177 428 429 427 
6 238 240 202 488 490 452 
6 62 278 61 110 528 109 
6 35 294 34 83 544 82 
6 284 361 232 534 611 482 
6 70 297 69 118 547 117 
6 224 304 264 474 554 514 
6 156 157 155 406 407 405 
6 48 288 47 96 538 95 
6 221 320 295 471 570 545 
6 187 188 186 437 438 436 
6 47 291 46 95 541 94 
6 151 154 153 401 404 403 
6 286 362 229 536 612 479 
6 168 169 167 418 419 417 
6 40 275 39 88 525 87 
6 307 324 141 557 574 391 
6 300 301 296 550 551 546 
6 32 287 31 80 537 79 
6 147 220 149 397 470 399 
6 333 344 231 583 594 481 
6 299 370 293 549 620 543 
6 271 359 273 521 609 523 
6 224 325 304 474 575 554 
6 228 237 227 478 487 477 
6 305 375 343 555 625 593 
6 218 319 298 468 569 548 
6 240 351 272 490 601 522 
6 277 329 222 527 579 472 
6 253 355 139 503 605 389 
6 158 159 157 408 409 407 
6 236 246 216 486 496 466 
6 192 194 193 442 444 443 
6 220 309 149 470 559 399 
6 183 185 184 433 435 434 
6 196 197 195 446 447 445 
6 276 347 58 526 597 106 
6 136 333 231 386 583 481 
6 67 247 66 115 497 114 
6 60 248 59 108 498 107 
6 261 262 250 511 512 500 
6 173 176 175 423 426 425 
6 344 357 231 594 607 481 
6 144 281 280 394 531 530 
6 152 205 150 402 455 400 
6 163 166 165 413 416 415 
6 185 187 186 435 437 436 
6 233 234 230 483 484 480 
6 170 171 169 420 421 419 
6 146 147 134 396 397 384 
6 176 178 177 426 428 427 
6 285 337 223 535 587 473 
6 154 156 155 404 406 405 
6 263 342 226 513 592 476 
6 235 245 236 485 495 486 
6 160 161 159 410 411 409 
6 58 347 242 106 597 492 
6 166 168 167 416 418 417 
6 287 374 220 537 624 470 
6 189 190 188 439 440 438 
6 148 257 134 398 507 384 
6 194 196 195 444 446 445 
6 252 308 205 502 558 455 
6 285 345 337 535 595 587 
6 301 375 305 551 625 555 
6 180 181 179 430 431 429 
6 281 348 234 531 598 484 
6 198 199 197 448 449 447 
6 151 309 154 401 559 404 
6 228 367 335 478 617 585 
6 54 349 261 102 599 511 
6 156 158 157 406 408 407 
6 168 170 169 418 420 419 
6 200 202 199 450 452 449 
6 147 148 134 397 398 384 
6 158 160 159 408 410 409 
6 150 308 148 400 558 398 
6 253 316 208 503 566 458 
6 232 329 277 482 579 527 
6 178 180 179 428 430 429 
6 191 192 190 441 442 440 
6 214 238 202 464 488 452 
6 172 173 171 422 423 421 
6 187 189 188 437 439 438 
6 162 163 161 412 413 411 
6 228 251 237 478 501 487 
6 215 258 235 465 508 485 
6 182 183 181 432 433 431 
6 202 310 199 452 560 449 
6 219 253 208 469 503 458 
6 222 249 206 472 499 456 
6 196 198 197 446 448 447 
6 229 330 260 479 580 510 
6 132 358 274 382 608 524 
6 149 309 151 399 559 401 
6 226 312 254 476 562 504 
6 154 309 209 404 559 459 
6 77 129 76 125 379 124 
6 73 128 72 121 378 120 
6 76 131 75 124 381 123 
6 74 132 73 122 382 121 
6 75 130 74 123 380 122 
6 14 127 77 29 377 125 
6 72 126 14 120 376 29 
6 133 367 228 383 617 478 
6 237 282 227 487 532 477 
6 239 366 252 489 616 502 
6 200 214 202 450 464 452 
6 192 201 194 442 451 444 
6 170 172 171 420 422 421 
6 220 311 309 470 561 559 
6 198 200 199 448 450 449 
6 189 191 190 439 441 440 
6 146 323 322 396 573 572 
6 160 162 161 410 412 411 
6 251 307 237 501 557 487 
6 199 310 210 449 560 460 
6 57 373 56 105 623 104 
6 214 239 238 464 489 488 
6 182 212 183 432 462 433 
6 180 182 181 430 432 431 
6 146 322 147 396 572 397 
6 172 218 208 422 468 458 
6 172 208 173 422 458 423 
6 162 221 206 412 471 456 
6 162 206 163 412 456 413 
6 176 207 178 426 457 428 
6 272 351 204 522 601 454 
6 198 211 200 448 461 450 
6 182 213 212 432 463 462 
6 234 334 281 484 584 531 
6 154 209 156 404 459 406 
6 185 203 187 435 453 437 
6 168 174 170 418 424 420 
6 189 215 191 439 465 441 
6 215 216 191 465 466 441 
6 221 222 206 471 472 456 
6 158 164 160 408 414 410 
6 218 219 208 468 469 458 
6 205 308 150 455 558 400 
6 191 314 192 441 564 442 
6 215 235 216 465 485 466 
6 215 318 258 465 568 508 
6 152 351 205 402 601 455 
6 138 261 250 388 511 500 
6 192 314 201 442 564 451 
6 234 347 230 484 597 480 
6 226 342 312 476 592 562 
6 138 250 233 388 500 483 
6 147 322 220 397 572 470 
6 216 314 191 466 564 441 
6 306 332 180 556 582 430 
6 222 356 249 472 606 499 
6 128 345 285 378 595 535 
6 314 321 201 564 571 451 
6 212 315 183 462 565 433 
6 312 342 336 562 592 586 
6 282 339 338 532 589 588 
6 340 341 323 590 591 573 
6 309 311 209 559 561 459 
6 183 315 185 433 565 435 
6 208 316 173 458 566 423 
6 173 316 176 423 566 426 
6 3 341 37 18 591 85 
6 44 339 6 92 589 21 
6 252 366 145 502 616 395 
6 246 321 314 496 571 564 
6 246 314 216 496 564 466 
6 126 364 313 376 614 563 
6 156 317 158 406 567 408 
6 275 367 133 525 617 383 
6 176 316 207 426 566 457 
6 185 315 203 435 565 453 
6 180 332 182 430 582 432 
6 302 352 131 552 602 381 
6 251 324 307 501 574 557 
6 187 318 189 437 568 439 
6 172 319 218 422 569 468 
6 162 320 221 412 570 471 
6 305 343 166 555 593 416 
6 170 319 172 420 569 422 
6 158 317 164 408 567 414 
6 209 317 156 459 567 406 
6 285 353 128 535 603 378 
6 223 337 269 473 587 519 
6 160 320 162 410 570 412 
6 211 331 200 461 581 450 
6 174 319 170 424 569 420 
6 203 318 187 453 568 437 
6 189 318 215 439 568 465 
6 198 327 211 448 577 461 
6 164 320 160 414 570 410 
6 326 353 267 576 603 517 
6 236 344 333 486 594 583 
6 196 327 198 446 577 448 
6 219 355 253 469 605 503 
6 281 334 280 531 584 530 
6 274 359 271 524 609 521 
6 164 370 299 414 620 549 
6 174 375 300 424 625 550 
6 287 363 31 537 613 79 
6 243 361 1 493 611 16 
6 241 362 12 491 612 27 
6 307 365 237 557 615 487 
6 166 343 168 416 593 418 
6 200 331 214 450 581 464 
6 313 326 217 563 576 467 
6 9 357 244 24 607 494 
6 1 361 30 16 611 78 
6 12 362 65 27 612 113 
6 337 345 132 587 595 382 
6 242 348 64 492 598 112 
6 231 357 266 481 607 516 
6 182 332 213 432 582 463 
6 245 344 236 495 594 486 
6 258 346 259 508 596 509 
6 145 366 275 395 616 525 
6 291 369 136 541 619 386 
6 236 333 246 486 583 496 
6 331 335 214 581 585 464 
6 312 336 129 562 586 379 
6 315 372 262 565 622 512 
6 220 374 311 470 624 561 
6 140 374 287 390 624 537 
6 126 360 304 376 610 554 
6 230 347 276 480 597 526 
6 313 364 326 563 614 576 
6 56 373 143 104 623 393 
6 239 367 366 489 617 616 
6 204 351 152 454 601 402 
6 300 375 301 550 625 551 
6 214 335 239 464 585 489 
6 247 329 243 497 579 493 
6 262 372 250 512 622 500 
6 248 330 241 498 580 491 
6 318 346 258 568 596 508 
6 333 369 246 583 619 496 
6 282 338 227 532 588 477 
6 146 340 323 396 590 573 
6 304 360 264 554 610 514 
6 366 367 275 616 617 525 
6 129 336 76 379 586 124 
6 73 345 128 121 595 378 
6 76 336 131 124 586 381 
6 250 350 233 500 600 483 
6 129 371 328 379 621 578 
6 132 345 73 382 595 121 
6 168 343 174 418 593 424 
6 131 352 75 381 602 123 
6 66 247 243 114 497 493 
6 59 248 241 107 498 491 
6 74 358 132 122 608 382 
6 203 346 318 453 596 568 
6 313 360 126 563 610 376 
6 128 364 72 378 614 120 
6 128 353 326 378 603 576 
6 77 371 129 125 621 379 
6 129 368 312 379 618 562 
6 244 357 344 494 607 594 
6 328 354 225 578 604 475 
6 326 364 128 576 614 378 
6 75 352 130 123 602 380 
6 350 372 212 600 622 462 
6 136 369 333 386 619 583 
6 325 354 127 575 604 377 
6 213 350 212 463 600 462 
6 130 358 74 380 608 122 
6 250 372 350 500 622 600 
6 317 370 164 567 620 414 
6 72 364 126 120 614 376 
6 328 368 129 578 618 379 
6 127 371 77 377 621 125 
6 336 342 131 586 592 381 
6 212 372 315 462 622 565 
6 234 348 347 484 598 597 
6 8 266 51 23 516 99 
6 10 276 58 25 526 106 
6 246 369 321 496 619 571 
6 30 284 0 78 534 15 
6 65 286 13 113 536 28 
6 58 242 11 106 492 26 
6 266 357 51 516 607 99 
6 255 368 328 505 618 578 
6 347 348 242 597 598 492 
6 322 363 287 572 613 537 
6 323 363 322 573 613 572 
6 335 367 239 585 617 489 
6 30 361 284 78 611 534 
6 65 362 286 113 612 536 
6 237 365 282 487 615 532 
6 130 359 358 380 609 608 
6 343 375 174 593 625 424 
6 354 371 127 604 621 377 
6 328 371 354 578 621 604 
6 358 359 274 608 609 524 
6 0 284 36 15 534 84 
6 45 266 8 93 516 23 
6 52 276 10 100 526 25 
6 11 242 64 26 492 112 
6 13 286 71 28 536 119 
6 2 323 3 17 573 18 
6 31 323 2 79 573 17 
6 323 341 3 573 591 18 
6 37 340 4 85 590 19 
6 4 340 43 19 590 91 
6 38 338 5 86 588 20 
6 5 338 44 20 588 92 
6 6 282 7 21 532 22 
6 6 339 282 21 589 532 
6 282 365 7 532 615 22 

CELL_TYPES 563
13
13
13
13
13
13
13
13
13
13
13
13
13
13
13
13
13
13
13
13
13
13
13
13
13
13
13
13
13
13
13
13
13
13
13
13
13
13
13
13
13
13
13
13
13
13
13
13
13
13
13
13
13
13
13
13
13
13
13
13
13
13
13
13
13
13
13
13
13
13
13
13
13
13
13
13
13
13
13
13
13
13
13
13
13
13
13
13
13
13
13
13
13
13
13
13
13
13
13
13
13
13
13
13
13
13
13
13
13
13
13
13
13
13
13
13
13
13
13
13
13
13
13
13
13
13
13
13
13
13
13
13
13
13
13
13
13
13
13
13
13
13
13
13
13
13
13
13
13
13
13
13
13
13
13
13
13
13
13
13
13
13
13
13
13
13
13
13
13
13
13
13
13
13
13
13
13
13
13
13
13
13
13
13
13
13
13
13
13
13
13
13
13
13
13
13
13
13
13
13
13
13
13
13
13
13
13
13
13
13
13
13
13
13
13
13
13
13
13
13
13
13
13
13
13
13
13
13
13
13
13
13
13
13
13
13
13
13
13
13
13
13
13
13
13
13
13
13
13
13
13
13
13
13
13
13
13
13
13
13
13
13
13
13
13
13
13
13
13
13
13
13
13
13
13
13
13
13
13
13
13
13
13
13
13
13
13
13
13
13
13
13
13
13
13
13
13
13
13
13
13
13
13
13
13
13
13
13
13
13
13
13
13
13
13
13
13
13
13
13
13
13
13
13
13
13
13
13
13
13
13
13
13
13
13
13
13
13
13
13
13
13
13
13
13
13
13
13
13
13
13
13
13
13
13
13
13
13
13
13
13
13
13
13
13
13
13
13
13
13
13
13
13
13
13
13
13
13
13
13
13
13
13
13
13
13
13
13
13
13
13
13
13
13
13
13
13
13
13
13
13
13
13
13
13
13
13
13
13
13
13
13
13
13
13
13
13
13
13
13
13
13
13
13
13
13
13
13
13
13
13
13
13
13
13
13
13
13
13
13
13
13
13
13
13
13
13
13
13
13
13
13
13
13
13
13
13
13
13
13
13
13
13
13
13
13
13
13
13
13
13
13
13
13
13
13
13
13
13
13
13
13
13
13
13
13
13
13
13
13
13
13
13
13
13
13
13
13
13
13
13
13
13
13
13
13
13
13
13
13
13
13
13
13
13
13
13
13
13
13
13
13
13
13
13
13
13
13
13
13
13
13
13
13
13
13
13
13
13
13
13
13
13
13
13
13
13
13
13
13
13
13
13
13
13
13
13
13
13
13
13
13
13

POINT_DATA 626
VECTORS displacement float
-1.74395e-06 3.0954e-05 1.80548e-05
1.73566e-06 3.0973e-05 1.80999e-05
-2.59859e-05 1.69926e-05 1.80868e-05
-2.58405e-05 1.60328e-05 1.80514e-05
-2.77203e-05 1.39726e-05 1.80688e-05
-2.77132e-05 -1.40189e-05 1.80943e-05
-2.58117e-05 -1.6071e-05 1.81057e-05
-2.59821e-05 -1.70107e-05 1.81668e-05
-1.67741e-06 -3.09577e-05 1.80512e-05
1.75546e-06 -3.09592e-05 1.81017e-05
2.59432e-05 -1.69805e-05 1.80433e-05
2.77166e-05 -1.39365e-05 1.80431e-05
2.76721e-05 1.39892e-05 1.80914e-05
2.59146e-05 1.69928e-05 1.80458e-05
0 0 0
-1.74395e-06 3.0954e-05 -1.80548e-05
1.73566e-06 3.0973e-05 -1.80999e-05
-2.59859e-05 1.69926e-05 -1.80868e-05
-2.58405e-05 1.60328e-05 -1.80514e-05
-2.77203e-05 1.39726e-05 -1.80688e-05
-2.77132e-05 -1.40189e-05 -1.80943e-05
-2.58117e-05 -1.6071e-05 -1.81057e-05
-2.59821e-05 -1.70107e-05 -1.81668e-05
-1.67741e-06 -3.09577e-05 -1.80512e-05
1.75546e-06 -3.09592e-05 -1.81017e-05
2.59432e-05 -1.69805e-05 -1.80433e-05
2.77166e-05 -1.39365e-05 -1.80431e-05
2.76721e-05 1.39892e-05 -1.80914e-05
2.59146e-05 1.69928e-05 -1.80458e-05
0 0 0
2.48962e-08 3.01539e-05 1.8034e-05
-2.11402e-05 1.87121e-05 1.75495e-05
-1.72322e-05 1.98335e-05 1.69205e-05
-1.40067e-05 2.10538e-05 1.65546e-05
-1.12067e-05 2.26644e-05 1.65485e-05
-8.52396e-06 2.48324e-05 1.69011e-05
-5.56775e-06 2.76212e-05 1.75372e-05
-2.64495e-05 1.46789e-05 1.80332e-05
-2.67683e-05 -9.01133e-06 1.75772e-05
-2.58058e-05 -5.03534e-06 1.69257e-05
-2.5254e-05 -1.63616e-06 1.65711e-05
-2.5257e-05 1.6078e-06 1.65741e-05
-2.5798e-05 5.02274e-06 1.69239e-05
-2.67545e-05 8.98442e-06 1.75637e-05
-2.64364e-05 -1.47252e-05 1.8062e-05
-5.54101e-06 -2.76357e-05 1.75294e-05
-8.47648e-06 -2.48414e-05 1.69004e-05
-1.11699e-05 -2.26838e-05 1.65558e-05
-1.39703e-05 -2.10869e-05 1.65592e-05
-1.72146e-05 -1.98689e-05 1.69364e-05
-2.11338e-05 -1.87489e-05 1.7562e-05
8.98424e-08 -3.01387e-05 1.80291e-05
2.11236e-05 -1.86246e-05 1.75112e-05
1.72443e-05 -1.97618e-05 1.68726e-05
1.40336e-05 -2.10108e-05 1.65113e-05
1.12249e-05 -2.25925e-05 1.65458e-05
8.58112e-06 -2.47796e-05 1.68739e-05
5.65463e-06 -2.7626e-05 1.75347e-05
2.61242e-05 -1.50595e-05 1.80281e-05
2.67164e-05 8.9382e-06 1.75012e-05
2.57216e-05 5.04946e-06 1.69081e-05
2.52061e-05 1.62327e-06 1.65229e-05
2.52032e-05 -1.59939e-06 1.65212e-05
2.57502e-05 -4.99725e-06 1.6888e-05
2.66984e-05 -8.91696e-06 1.75094e-05
2.61072e-05 1.50606e-05 1.80252e-05
5.63309e-06 2.76173e-05 1.75093e-05
8.5085e-06 2.48063e-05 1.69109e-05
1.12169e-05 2.26406e-05 1.65291e-05
1.40042e-05 2.10217e-05 1.65244e-05
1.72213e-05 1.97931e-05 1.68848e-05
2.11146e-05 1.86342e-05 1.75251e-05
0 0 0
0 0 0
0 0 0
0 0 0
0 0 0
0 0 0
2.48962e-08 3.01539e-05 -1.8034e-05
-2.11402e-05 1.87121e-05 -1.75495e-05
-1.72322e-05 1.98335e-05 -1.69205e-05
-1.40067e-05 2.10538e-05 -1.65546e-05
-1.12067e-05 2.26644e-05 -1.65485e-05
-8.52396e-06 2.48324e-05 -1.69011e-05
-5.56775e-06 2.76212e-05 -1.75372e-05
-2.64495e-05 1.46789e-05 -1.80332e-05
-2.67683e-05 -9.01133e-06 -1.75772e-05
-2.58058e-05 -5.03534e-06 -1.69257e-05
-2.5254e-05 -1.63616e-06 -1.65711e-05
-2.5257e-05 1.6078e-06 -1.65741e-05
-2.5798e-05 5.02274e-06 -1.69239e-05
-2.67545e-05 8.98442e-06 -1.75637e-05
-2.64364e-05 -1.47252e-05 -1.8062e-05
-5.54101e-06 -2.76357e-05 -1.75294e-05
-8.47648e-06 -2.48414e-05 -1.69004e-05
-1.11699e-05 -2.26838e-05 -1.65558e-05
-1.39703e-05 -2.10869e-05 -1.65592e-05
-1.72146e-05 -1.98689e-05 -1.69364e-05
-2.11338e-05 -1.87489e-05 -1.7562e-05
8.98424e-08 -3.01387e-05 -1.80291e-05
2.11236e-05 -1.86246e-05 -1.75112e-05
1.72443e-05 -1.97618e-05 -1.68726e-05
1.40336e-05 -2.10108e-05 -1.65113e-05
1.12249e-05 -2.25925e-05 -1.65458e-05
8.58112e-06 -2.47796e-05 -1.68739e-05
5.65463e-06 -2.7626e-05 -1.75347e-05
2.61242e-05 -1.50595e-05 -1.80281e-05
2.67164e-05 8.9382e-06 -1.75012e-05
2.57216e-05 5.04946e-06 -1.69081e-05
2.52061e-05 1.62327e-06 -1.65229e-05
2.52032e-05 -1.59939e-06 -1.65212e-05
2.57502e-05 -4.99725e-06 -1.6888e-05
2.66984e-05 -8.91696e-06 -1.75094e-05
2.61072e-05 1.50606e-05 -1.80252e-05
5.63309e-06 2.76173e-05 -1.75093e-05
8.5085e-06 2.48063e-05 -1.69109e-05
1.12169e-05 2.26406e-05 -1.65291e-05
1.40042e-05 2.10217e-05 -1.65244e-05
1.72213e-05 1.97931e-05 -1.68848e-05
2.11146e-05 1.86342e-05 -1.75251e-05
0 0 0
0 0 0
0 0 0
0 0 0
0 0 0
0 0 0
1.79365e-06 8.58733e-07 4.55216e-06
1.73779e-06 -8.25101e-07 4.46071e-06
4.31947e-07 1.8496e-06 4.49502e-06
4.36091e-07 -1.7806e-06 4.356e-06
-1.84746e-06 2.09627e-08 4.42227e-06
-1.12307e-06 -1.30885e-06 4.15091e-06
-1.15919e-06 1.30678e-06 4.19969e-06
-2.25126e-05 -7.28751e-06 1.69996e-05
-2.2196e-05 7.3714e-06 1.69683e-05
-4.86036e-06 2.2898e-05 1.69367e-05
-4.85788e-06 -2.31312e-05 1.69636e-05
1.74209e-05 1.56352e-05 1.69295e-05
1.75684e-05 -1.55361e-05 1.69388e-05
2.10731e-05 3.1638e-06 1.63241e-05
-1.39528e-05 1.71509e-05 1.6478e-05
-1.35909e-05 -1.67409e-05 1.64096e-05
7.76769e-06 1.98191e-05 1.63309e-05
7.68472e-06 -2.03095e-05 1.64022e-05
2.14719e-05 -3.44365e-06 1.63998e-05
-2.11023e-05 6.58808e-09 1.62463e-05
-2.24199e-05 1.09995e-05 1.74533e-05
-1.87505e-05 9.25451e-06 1.66267e-05
-1.79824e-05 5.79532e-06 1.6036e-05
-1.49836e-05 7.44817e-06 1.5486e-05
-1.42241e-05 4.30763e-06 1.48293e-05
-1.15324e-05 5.74376e-06 1.40943e-05
-1.08578e-05 3.06867e-06 1.33732e-05
-8.40031e-06 4.30478e-06 1.2404e-05
-9.05861e-06 7.01326e-06 1.3456e-05
-6.20397e-06 5.48839e-06 1.16886e-05
-6.82815e-06 8.24927e-06 1.30795e-05
-4.28131e-06 6.67477e-06 1.14501e-05
-4.79991e-06 9.60972e-06 1.30935e-05
-2.40082e-06 7.99318e-06 1.17226e-05
-2.81279e-06 1.1167e-05 1.34745e-05
-4.754e-07 9.59509e-06 1.25006e-05
-7.38337e-07 1.29966e-05 1.41413e-05
1.73104e-06 1.15175e-05 1.35346e-05
-5.53457e-06 1.27001e-05 1.44365e-05
1.68504e-06 8.2238e-06 1.17472e-05
4.00409e-06 1.01207e-05 1.31505e-05
3.70528e-06 7.0978e-06 1.14779e-05
6.06728e-06 8.96648e-06 1.31129e-05
5.7667e-06 6.10666e-06 1.17352e-05
8.3579e-06 8.02015e-06 1.34916e-05
8.10548e-06 5.19516e-06 1.25e-05
1.09538e-05 7.0969e-06 1.41465e-05
1.07457e-05 4.3227e-06 1.34987e-05
8.53034e-06 1.10372e-05 1.44603e-05
7.93753e-06 2.64369e-06 1.1727e-05
1.06458e-05 1.73716e-06 1.31036e-05
7.94852e-06 3.58753e-07 1.14552e-05
1.08062e-05 -7.59097e-07 1.31237e-05
8.11148e-06 -1.93776e-06 1.17087e-05
1.1098e-05 -3.31278e-06 1.34835e-05
8.46956e-06 -4.42389e-06 1.24437e-05
1.15035e-05 -6.00275e-06 1.4109e-05
8.95539e-06 -7.13796e-06 1.34277e-05
6.1474e-06 -5.4943e-06 1.16409e-05
6.64436e-06 -8.30069e-06 1.30179e-05
4.10512e-06 -6.58838e-06 1.13106e-05
4.52326e-06 -9.55067e-06 1.29879e-05
2.24225e-06 -7.85813e-06 1.1597e-05
2.48478e-06 -1.10017e-05 1.33506e-05
2.25287e-07 -9.3735e-06 1.23532e-05
3.30008e-07 -1.27695e-05 1.40334e-05
-1.9154e-06 -1.11505e-05 1.33766e-05
-1.84103e-06 -7.92146e-06 1.15818e-05
-4.16781e-06 -9.87465e-06 1.30847e-05
-3.81386e-06 -6.73037e-06 1.13168e-05
-6.34549e-06 -8.66184e-06 1.30989e-05
-5.89118e-06 -5.6979e-06 1.16281e-05
-8.49955e-06 -7.43565e-06 1.33793e-05
-8.16738e-06 -4.72796e-06 1.24083e-05
-1.10954e-05 -6.40264e-06 1.40695e-05
-4.37156e-06 -1.31229e-05 1.44333e-05
-1.08086e-05 -3.65061e-06 1.34388e-05
7.22597e-06 -1.13725e-05 1.42726e-05
-7.74155e-06 1.98265e-06 1.14926e-05
-1.32159e-05 1.03504e-06 1.42106e-05
1.72909e-06 1.50825e-05 1.49519e-05
1.37678e-05 4.62228e-07 1.43874e-05
1.38429e-05 6.09998e-06 1.49314e-05
-9.69387e-06 1.01961e-05 1.45322e-05
-5.41591e-06 -3.1976e-06 1.01819e-05
-1.17134e-05 -9.29716e-06 1.48889e-05
1.18821e-05 -8.76004e-06 1.47868e-05
1.47815e-05 -7.47346e-06 1.5403e-05
-1.39595e-05 -5.24379e-06 1.48613e-05
2.79577e-06 -1.45159e-05 1.47959e-05
4.24556e-07 -1.64991e-05 1.53974e-05
3.51837e-06 4.39686e-06 9.58089e-06
1.40103e-05 9.29888e-06 1.54913e-05
1.79305e-05 8.1448e-06 1.63003e-05
-1.56752e-05 1.13951e-05 1.62332e-05
-1.09407e-06 1.67688e-05 1.5495e-05
1.90683e-06 1.96213e-05 1.63107e-05
-2.09183e-06 5.21999e-06 9.59739e-06
5.55385e-06 -7.8459e-07 9.59393e-06
3.58589e-06 -3.6835e-06 9.08178e-06
-1.77961e-06 -5.17849e-06 9.4494e-06
-2.24684e-05 -1.10106e-05 1.74741e-05
-1.87978e-05 -9.24125e-06 1.66508e-05
2.11475e-05 1.41646e-05 1.75054e-05
2.07534e-05 -1.43174e-05 1.74353e-05
-1.76459e-06 -2.54461e-05 1.75107e-05
-1.68212e-06 2.54101e-05 1.75154e-05
1.77127e-05 -1.19067e-05 1.66869e-05
2.06454e-05 -1.07509e-05 1.71157e-05
3.77558e-06 -1.89848e-05 1.61391e-05
7.68521e-07 -2.03454e-05 1.64826e-05
-1.94047e-05 -1.26503e-05 1.71429e-05
-1.37308e-05 -2.30688e-06 1.44716e-05
-1.65924e-05 -3.70136e-06 1.54772e-05
-1.03756e-05 -1.09637e-06 1.29518e-05
2.44517e-05 1.10726e-05 1.76514e-05
2.54972e-05 -1.2403e-05 1.78479e-05
2.64923e-06 2.67255e-05 1.76603e-05
2.52099e-06 -2.64132e-05 1.76291e-05
3.33942e-06 -2.30315e-05 1.70288e-05
-2.05386e-06 -1.83195e-05 1.59506e-05
4.05902e-06 2.37909e-05 1.71301e-05
2.26138e-05 8.37908e-06 1.7119e-05
4.61352e-06 1.7313e-05 1.5727e-05
1.44267e-05 -1.31192e-05 1.61371e-05
-1.57874e-05 -1.09845e-05 1.62143e-05
-1.67994e-05 -3.81419e-07 1.5377e-05
1.73056e-05 4.68738e-06 1.57253e-05
6.5521e-08 -6.38719e-06 1.02672e-05
1.74168e-06 -4.84837e-06 9.09228e-06
5.85035e-06 -2.93545e-06 1.03779e-05
-2.14437e-05 3.75042e-06 1.64585e-05
5.72924e-06 -1.62741e-05 1.55074e-05
9.08327e-06 -1.74987e-05 1.59972e-05
1.75718e-05 1.18814e-05 1.6672e-05
1.39939e-05 -1.63819e-05 1.64009e-05
1.07397e-05 -1.37887e-05 1.55498e-05
-3.5479e-06 -4.22011e-06 9.50055e-06
5.39901e-06 1.13847e-06 9.49883e-06
5.21795e-06 3.22281e-06 1.0047e-05
-1.74977e-06 -2.8354e-05 1.78766e-05
1.89202e-06 5.29879e-06 9.58423e-06
-1.13821e-07 6.10488e-06 1.00385e-05
-3.78485e-06 4.12766e-06 9.57819e-06
-5.62256e-06 3.03412e-06 1.0285e-05
-5.16537e-06 1.04065e-06 9.2134e-06
-7.52709e-06 -6.17378e-08 1.11721e-05
-4.33429e-06 -8.10263e-07 8.38167e-06
-3.10853e-06 1.8723e-06 7.3739e-06
-2.20807e-05 -3.60766e-06 1.65155e-05
2.34058e-05 -1.56877e-05 1.78359e-05
-1.50717e-06 2.11675e-05 1.66817e-05
2.12612e-05 -8.45175e-08 1.62254e-05
1.76217e-05 -1.64676e-06 1.55811e-05
1.73473e-05 -4.94156e-06 1.57703e-05
2.18911e-05 -7.45094e-06 1.69133e-05
-2.31818e-05 -1.42543e-05 1.78324e-05
1.73242e-05 1.64883e-06 1.55082e-05
-1.73399e-06 2.84725e-05 1.78939e-05
-4.22064e-07 3.68335e-06 7.49513e-06
2.37715e-05 1.57421e-05 1.78843e-05
-1.7497e-05 1.56419e-05 1.69746e-05
-1.0626e-05 -1.84657e-05 1.62547e-05
-1.00993e-05 -1.4342e-05 1.55713e-05
-7.5076e-06 -1.60945e-05 1.56217e-05
-7.32197e-06 -2.01201e-05 1.6395e-05
-1.07042e-05 1.85348e-05 1.62664e-05
-1.03471e-05 1.43838e-05 1.5619e-05
-7.77248e-06 2.0492e-05 1.64439e-05
-4.2529e-06 1.86093e-05 1.60526e-05
1.07595e-05 1.8345e-05 1.62258e-05
1.38913e-05 1.69345e-05 1.64307e-05
1.40416e-05 1.29726e-05 1.6051e-05
-7.36141e-06 1.62879e-05 1.56382e-05
1.05249e-05 1.45467e-05 1.56449e-05
7.74858e-06 1.60919e-05 1.56136e-05
-3.11641e-06 -1.89873e-06 7.39302e-06
-7.25748e-06 -1.24217e-05 1.46248e-05
3.00861e-06 4.03594e-08 6.60084e-06
4.87247e-06 1.35224e-05 1.46178e-05
1.40757e-05 -2.26034e-06 1.45701e-05
-1.72894e-05 -1.52164e-05 1.69452e-05
-1.73661e-05 2.42025e-06 1.55975e-05
-1.22044e-05 8.91175e-06 1.49432e-05
-7.70547e-06 -2.29247e-06 1.15544e-05
-1.24495e-05 1.18124e-05 1.55397e-05
-1.42733e-07 -3.75416e-06 7.55402e-06
2.73018e-06 2.27204e-06 7.25178e-06
-2.00382e-06 -1.46502e-05 1.48077e-05
9.3649e-06 -1.0068e-05 1.43891e-05
1.38605e-05 3.15775e-06 1.45658e-05
-7.33989e-06 1.11991e-05 1.426e-05
4.99712e-06 -1.27745e-05 1.4369e-05
1.10316e-05 1.04303e-05 1.49193e-05
-3.59637e-06 1.4685e-05 1.49077e-05
-4.63537e-06 -1.66165e-05 1.55485e-05
-1.95067e-05 1.28922e-05 1.7161e-05
-2.31265e-05 1.48579e-05 1.78432e-05
-1.29047e-05 -1.26858e-05 1.58122e-05
3.76074e-06 -1.5861e-06 7.90679e-06
1.76437e-06 2.92223e-06 7.08429e-06
-9.2303e-06 -1.06093e-05 1.45315e-05
1.72771e-06 -2.82311e-06 6.93093e-06
9.94721e-07 2.41164e-05 1.73082e-05
2.13676e-05 1.11936e-05 1.72984e-05
-1.46643e-05 -7.95324e-06 1.54851e-05
1.37078e-05 -4.78623e-06 1.46904e-05
-1.90985e-06 -2.17626e-05 1.68025e-05
1.80601e-05 -8.41891e-06 1.63405e-05
-1.66786e-05 -6.32845e-06 1.57822e-05
-4.32894e-07 -1.92229e-06 4.79838e-06
-1.80534e-06 2.99539e-06 7.17704e-06
-2.50516e-05 -1.29816e-05 1.79221e-05
-2.51268e-05 -1.45071e-05 1.80019e-05
-2.50448e-05 1.30335e-05 1.79058e-05
-2.51177e-05 1.46498e-05 1.7982e-05
-1.64843e-06 -3.1248e-06 7.20977e-06
6.32783e-06 1.13682e-05 1.40763e-05
5.33706e-07 -2.40857e-05 1.7302e-05
-5.2277e-07 1.80952e-06 4.64492e-06
7.40732e-06 -1.43434e-05 1.51521e-05
2.33025e-05 -1.32091e-05 1.77286e-05
2.36323e-05 -1.05374e-05 1.74906e-05
1.19882e-05 -1.82106e-05 1.6293e-05
1.47299e-05 -1.01465e-05 1.57953e-05
-1.00269e-05 1.00123e-06 1.27544e-05
-1.73999e-06 -8.15891e-07 4.72337e-06
7.69053e-07 3.7083e-06 7.573e-06
2.34304e-06 -1.99713e-06 6.55517e-06
2.01562e-05 5.89771e-06 1.64534e-05
5.07001e-06 2.05956e-05 1.64958e-05
3.42117e-07 -2.76796e-05 1.78538e-05
-1.7312e-06 7.09102e-07 4.60624e-06
-3.21146e-06 6.23039e-07 6.82402e-06
3.57716e-06 1.47539e-06 7.63648e-06
4.99224e-07 2.83234e-05 1.79271e-05
2.476e-05 1.37339e-05 1.79182e-05
-2.0328e-05 1.55356e-05 1.74288e-05
1.17869e-06 1.36446e-06 4.45977e-06
-2.06393e-05 -1.57282e-05 1.75274e-05
-1.89986e-05 -2.32214e-06 1.59459e-05
-1.95588e-05 -5.58488e-06 1.6332e-05
9.05669e-07 -3.24771e-06 7.00597e-06
-4.36595e-06 -1.9789e-05 1.63216e-05
-7.93714e-06 1.38342e-05 1.51008e-05
1.16573e-06 -1.30417e-06 4.33922e-06
1.19342e-05 -1.12282e-05 1.52919e-05
6.13299e-06 -2.26957e-05 1.68203e-05
-1.45219e-05 1.43551e-05 1.63234e-05
7.92893e-06 1.3321e-05 1.49477e-05
1.79365e-06 8.58733e-07 -4.55216e-06
1.73779e-06 -8.25101e-07 -4.46071e-06
4.31947e-07 1.8496e-06 -4.49502e-06
4.36091e-07 -1.7806e-06 -4.356e-06
-1.84746e-06 2.09627e-08 -4.42227e-06
-1.12307e-06 -1.30885e-06 -4.15091e-06
-1.15919e-06 1.30678e-06 -4.19969e-06
-2.25126e-05 -7.28751e-06 -1.69996e-05
-2.2196e-05 7.3714e-06 -1.69683e-05
-4.86036e-06 2.2898e-05 -1.69367e-05
-4.85788e-06 -2.31312e-05 -1.69636e-05
1.74209e-05 1.56352e-05 -1.69295e-05
1.75684e-05 -1.55361e-05 -1.69388e-05
2.10731e-05 3.1638e-06 -1.63241e-05
-1.39528e-05 1.71509e-05 -1.6478e-05
-1.35909e-05 -1.67409e-05 -1.64096e-05
7.76769e-06 1.98191e-05 -1.63309e-05
7.68472e-06 -2.03095e-05 -1.64022e-05
2.14719e-05 -3.44365e-06 -1.63998e-05
-2.11023e-05 6.58808e-09 -1.62463e-05
-2.24199e-05 1.09995e-05 -1.74533e-05
-1.87505e-05 9.25451e-06 -1.66267e-05
-1.79824e-05 5.79532e-06 -1.6036e-05
-1.49836e-05 7.44817e-06 -1.5486e-05
-1.42241e-05 4.30763e-06 -1.48293e-05
-1.15324e-05 5.74376e-06 -1.40943e-05
-1.08578e-05 3.06867e-06 -1.33732e-05
-8.40031e-06 4.30478e-06 -1.2404e-05
-9.05861e-06 7.01326e-06 -1.3456e-05
-6.20397e-06 5.48839e-06 -1.16886e-05
-6.82815e-06 8.24927e-06 -1.30795e-05
-4.28131e-06 6.67477e-06 -1.14501e-05
-4.79991e-06 9.60972e-06 -1.30935e-05
-2.40082e-06 7.99318e-06 -1.17226e-05
-2.81279e-06 1.1167e-05 -1.34745e-05
-4.754e-07 9.59509e-06 -1.25006e-05
-7.38337e-07 1.29966e-05 -1.41413e-05
1.73104e-06 1.15175e-05 -1.35346e-05
-5.53457e-06 1.27001e-05 -1.44365e-05
1.68504e-06 8.2238e-06 -1.17472e-05
4.00409e-06 1.01207e-05 -1.31505e-05
3.70528e-06 7.0978e-06 -1.14779e-05
6.06728e-06 8.96648e-06 -1.31129e-05
5.7667e-06 6.10666e-06 -1.17352e-05
8.3579e-06 8.02015e-06 -1.34916e-05
8.10548e-06 5.19516e-06 -1.25e-05
1.09538e-05 7.0969e-06 -1.41465e-05
1.07457e-05 4.3227e-06 -1.34987e-05
8.53034e-06 1.10372e-05 -1.44603e-05
7.93753e-06 2.64369e-06 -1.1727e-05
1.06458e-05 1.73716e-06 -1.31036e-05
7.94852e-06 3.58753e-07 -1.14552e-05
1.08062e-05 -7.59097e-07 -1.31237e-05
8.11148e-06 -1.93776e-06 -1.17087e-05
1.1098e-05 -3.31278e-06 -1.34835e-05
8.46956e-06 -4.42389e-06 -1.24437e-05
1.15035e-05 -6.00275e-06 -1.4109e-05
8.95539e-06 -7.13796e-06 -1.34277e-05
6.1474e-06 -5.4943e-06 -1.16409e-05
6.64436e-06 -8.30069e-06 -1.30179e-05
4.10512e-06 -6.58838e-06 -1.13106e-05
4.52326e-06 -9.55067e-06 -1.29879e-05
2.24225e-06 -7.85813e-06 -1.1597e-05
2.48478e-06 -1.10017e-05 -1.33506e-05
2.25287e-07 -9.3735e-06 -1.23532e-05
3.30008e-07 -1.27695e-05 -1.40334e-05
-1.9154e-06 -1.11505e-05 -1.33766e-05
-1.84103e-06 -7.92146e-06 -1.15818e-05
-4.16781e-06 -9.87465e-06 -1.30847e-05
-3.81386e-06 -6.73037e-06 -1.13168e-05
-6.34549e-06 -8.66184e-06 -1.30989e-05
-5.89118e-06 -5.6979e-06 -1.16281e-05
-8.49955e-06 -7.43565e-06 -1.33793e-05
-8.16738e-06 -4.72796e-06 -1.24083e-05
-1.10954e-05 -6.40264e-06 -1.40695e-05
-4.37156e-06 -1.31229e-05 -1.44333e-05
-1.08086e-05 -3.65061e-06 -1.34388e-05
7.22597e-06 -1.13725e-05 -1.42726e-05
-7.74155e-06 1.98265e-06 -1.14926e-05
-1.32159e-05 1.03504e-06 -1.42106e-05
1.72909e-06 1.50825e-05 -1.49519e-05
1.37678e-05 4.62228e-07 -1.43874e-05
1.38429e-05 6.09998e-06 -1.49314e-05
-9.69387e-06 1.01961e-05 -1.45322e-05
-5.41591e-06 -3.1976e-06 -1.01819e-05
-1.17134e-05 -9.29716e-06 -1.48889e-05
1.18821e-05 -8.76004e-06 -1.47868e-05
1.47815e-05 -7.47346e-06 -1.5403e-05
-1.39595e-05 -5.24379e-06 -1.48613e-05
2.79577e-06 -1.45159e-05 -1.47959e-05
4.24556e-07 -1.64991e-05 -1.53974e-05
3.51837e-06 4.39686e-06 -9.58089e-06
1.40103e-05 9.29888e-06 -1.54913e-05
1.79305e-05 8.1448e-06 -1.63003e-05
-1.56752e-05 1.13951e-05 -1.62332e-05
-1.09407e-06 1.67688e-05 -1.5495e-05
1.90683e-06 1.96213e-05 -1.63107e-05
-2.09183e-06 5.21999e-06 -9.59739e-06
5.55385e-06 -7.8459e-07 -9.59393e-06
3.58589e-06 -3.6835e-06 -9.08178e-06
-1.77961e-06 -5.17849e-06 -9.4494e-06
-2.24684e-05 -1.10106e-05 -1.74741e-05
-1.87978e-05 -9.24125e-06 -1.66508e-05
2.11475e-05 1.41646e-05 -1.75054e-05
2.07534e-05 -1.43174e-05 -1.74353e-05
-1.76459e-06 -2.54461e-05 -1.75107e-05
-1.68212e-06 2.54101e-05 -1.75154e-05
1.77127e-05 -1.19067e-05 -1.66869e-05
2.06454e-05 -1.07509e-05 -1.71157e-05
3.77558e-06 -1.89848e-05 -1.61391e-05
7.68521e-07 -2.03454e-05 -1.64826e-05
-1.94047e-05 -1.26503e-05 -1.71429e-05
-1.37308e-05 -2.30688e-06 -1.44716e-05
-1.65924e-05 -3.70136e-06 -1.54772e-05
-1.03756e-05 -1.09637e-06 -1.29518e-05
2.44517e-05 1.10726e-05 -1.76514e-05
2.54972e-05 -1.2403e-05 -1.78479e-05
2.64923e-06 2.67255e-05 -1.76603e-05
2.52099e-06 -2.64132e-05 -1.76291e-05
3.33942e-06 -2.30315e-05 -1.70288e-05
-2.05386e-06 -1.83195e-05 -1.59506e-05
4.05902e-06 2.37909e-05 -1.71301e-05
2.26138e-05 8.37908e-06 -1.7119e-05
4.61352e-06 1.7313e-05 -1.5727e-05
1.44267e-05 -1.31192e-05 -1.61371e-05
-1.57874e-05 -1.09845e-05 -1.62143e-05
-1.67994e-05 -3.81419e-07 -1.5377e-05
1.73056e-05 4.68738e-06 -1.57253e-05
6.5521e-08 -6.38719e-06 -1.02672e-05
1.74168e-06 -4.84837e-06 -9.09228e-06
5.85035e-06 -2.93545e-06 -1.03779e-05
-2.14437e-05 3.75042e-06 -1.64585e-05
5.72924e-06 -1.62741e-05 -1.55074e-05
9.08327e-06 -1.74987e-05 -1.59972e-05
1.75718e-05 1.18814e-05 -1.6672e-05
1.39939e-05 -1.63819e-05 -1.64009e-05
1.07397e-05 -1.37887e-05 -1.55498e-05
-3.5479e-06 -4.22011e-06 -9.50055e-06
5.39901e-06 1.13847e-06 -9.49883e-06
5.21795e-06 3.22281e-06 -1.0047e-05
-1.74977e-06 -2.8354e-05 -1.78766e-05
1.89202e-06 5.29879e-06 -9.58423e-06
-1.13821e-07 6.10488e-06 -1.00385e-05
-3.78485e-06 4.12766e-06 -9.57819e-06
-5.62256e-06 3.03412e-06 -1.0285e-05
-5.16537e-06 1.04065e-06 -9.2134e-06
-7.52709e-06 -6.17378e-08 -1.11721e-05
-4.33429e-06 -8.10263e-07 -8.38167e-06
-3.10853e-06 1.8723e-06 -7.3739e-06
-2.20807e-05 -3.60766e-06 -1.65155e-05
2.34058e-05 -1.56877e-05 -1.78359e-05
-1.50717e-06 2.11675e-05 -1.66817e-05
2.12612e-05 -8.45175e-08 -1.62254e-05
1.76217e-05 -1.64676e-06 -1.55811e-05
1.73473e-05 -4.94156e-06 -1.57703e-05
2.18911e-05 -7.45094e-06 -1.69133e-05
-2.31818e-05 -1.42543e-05 -1.78324e-05
1.73242e-05 1.64883e-06 -1.55082e-05
-1.73399e-06 2.84725e-05 -1.78939e-05
-4.22064e-07 3.68335e-06 -7.49513e-06
2.37715e-05 1.57421e-05 -1.78843e-05
-1.7497e-05 1.56419e-05 -1.69746e-05
-1.0626e-05 -1.84657e-05 -1.62547e-05
-1.00993e-05 -1.4342e-05 -1.55713e-05
-7.5076e-06 -1.60945e-05 -1.56217e-05
-7.32197e-06 -2.01201e-05 -1.6395e-05
-1.07042e-05 1.85348e-05 -1.62664e-05
-1.03471e-05 1.43838e-05 -1.5619e-05
-7.77248e-06 2.0492e-05 -1.64439e-05
-4.2529e-06 1.86093e-05 -1.60526e-05
1.07595e-05 1.8345e-05 -1.62258e-05
1.38913e-05 1.69345e-05 -1.64307e-05
1.40416e-05 1.29726e-05 -1.6051e-05
-7.36141e-06 1.62879e-05 -1.56382e-05
1.05249e-05 1.45467e-05 -1.56449e-05
7.74858e-06 1.60919e-05 -1.56136e-05
-3.11641e-06 -1.89873e-06 -7.39302e-06
-7.25748e-06 -1.24217e-05 -1.46248e-05
3.00861e-06 4.03594e-08 -6.60084e-06
4.87247e-06 1.35224e-05 -1.46178e-05
1.40757e-05 -2.26034e-06 -1.45701e-05
-1.72894e-05 -1.52164e-05 -1.69452e-05
-1.73661e-05 2.42025e-06 -1.55975e-05
-1.22044e-05 8.91175e-06 -1.49432e-05
-7.70547e-06 -2.29247e-06 -1.15544e-05
-1.24495e-05 1.18124e-05 -1.55397e-05
-1.42733e-07 -3.75416e-06 -7.55402e-06
2.73018e-06 2.27204e-06 -7.25178e-06
-2.00382e-06 -1.46502e-05 -1.48077e-05
9.3649e-06 -1.0068e-05 -1.43891e-05
1.38605e-05 3.15775e-06 -1.45658e-05
-7.33989e-06 1.11991e-05 -1.426e-05
4.99712e-06 -1.27745e-05 -1.4369e-05
1.10316e-05 1.04303e-05 -1.49193e-05
-3.59637e-06 1.4685e-05 -1.49077e-05
-4.63537e-06 -1.66165e-05 -1.55485e-05
-1.95067e-05 1.28922e-05 -1.7161e-05
-2.31265e-05 1.48579e-05 -1.78432e-05
-1.29047e-05 -1.26858e-05 -1.58122e-05
3.76074e-06 -1.5861e-06 -7.90679e-06
1.76437e-06 2.92223e-06 -7.08429e-06
-9.2303e-06 -1.06093e-05 -1.45315e-05
1.72771e-06 -2.82311e-06 -6.93093e-06
9.94721e-07 2.41164e-05 -1.73082e-05
2.13676e-05 1.11936e-05 -1.72984e-05
-1.46643e-05 -7.95324e-06 -1.54851e-05
1.37078e-05 -4.78623e-06 -1.46904e-05
-1.90985e-06 -2.17626e-05 -1.68025e-05
1.80601e-05 -8.41891e-06 -1.63405e-05
-1.66786e-05 -6.32845e-06 -1.57822e-05
-4.32894e-07 -1.92229e-06 -4.79838e-06
-1.80534e-06 2.99539e-06 -7.17704e-06
-2.50516e-05 -1.29816e-05 -1.79221e-05
-2.51268e-05 -1.45071e-05 -1.80019e-05
-2.50448e-05 1.30335e-05 -1.79058e-05
-2.51177e-05 1.46498e-05 -1.7982e-05
-1.64843e-06 -3.1248e-06 -7.20977e-06
6.32783e-06 1.13682e-05 -1.40763e-05
5.33706e-07 -2.40857e-05 -1.7302e-05
-5.2277e-07 1.80952e-06 -4.64492e-06
7.40732e-06 -1.43434e-05 -1.51521e-05
2.33025e-05 -1.32091e-05 -1.77286e-05
2.36323e-05 -1.05374e-05 -1.74906e-05
1.19882e-05 -1.82106e-05 -1.6293e-05
1.47299e-05 -1.01465e-05 -1.57953e-05
-1.00269e-05 1.00123e-06 -1.27544e-05
-1.73999e-06 -8.15891e-07 -4.72337e-06
7.69053e-07 3.7083e-06 -7.573e-06
2.34304e-06 -1.99713e-06 -6.55517e-06
2.01562e-05 5.89771e-06 -1.64534e-05
5.07001e-06 2.05956e-05 -1.64958e-05
3.42117e-07 -2.76796e-05 -1.78538e-05
-1.7312e-06 7.09102e-07 -4.60624e-06
-3.21146e-06 6.23039e-07 -6.82402e-06
3.57716e-06 1.47539e-06 -7.63648e-06
4.99224e-07 2.83234e-05 -1.79271e-05
2.476e-05 1.37339e-05 -1.79182e-05
-2.0328e-05 1.55356e-05 -1.74288e-05
1.17869e-06 1.36446e-06 -4.45977e-06
-2.06393e-05 -1.57282e-05 -1.75274e-05
-1.89986e-05 -2.32214e-06 -1.59459e-05
-1.95588e-05 -5.58488e-06 -1.6332e-05
9.05669e-07 -3.24771e-06 -7.00597e-06
-4.36595e-06 -1.9789e-05 -1.63216e-05
-7.93714e-06 1.38342e-05 -1.51008e-05
1.16573e-06 -1.30417e-06 -4.33922e-06
1.19342e-05 -1.12282e-05 -1.52919e-05
6.13299e-06 -2.26957e-05 -1.68203e-05
-1.45219e-05 1.43551e-05 -1.63234e-05
7.92893e-06 1.3321e-05 -1.49477e-05
SCALARS effective_fluid_pressure_TPM float
LOOKUP_TABLE default
665
665
665
665
665
665
665
665
665
665
665
665
665
665
133
665
665
665
665
665
665
665
665
665
665
665
665
665
665
133
665
560.313
520.655
502.795
502.566
519.782
559.933
665
561.979
520.75
503.238
503.347
520.682
561.601
665
559.6
519.653
502.74
502.958
521.151
561.617
665
558.856
518.997
501.528
502.224
518.846
559.445
665
558.496
519.937
501.861
501.792
519.37
557.936
665
558.653
519.951
502.033
501.895
519.358
559.659
133
133
133
133
133
133
665
560.313
520.655
502.795
502.566
519.782
559.933
665
561.979
520.75
503.238
503.347
520.682
561.601
665
559.6
519.653
502.74
502.958
521.151
561.617
665
558.856
518.997
501.528
502.224
518.846
559.445
665
558.496
519.937
501.861
501.792
519.37
557.936
665
558.653
519.951
502.033
501.895
519.358
559.659
133
133
133
133
133
133
228.253
226.324
227.037
224.105
225.521
219.843
220.859
529.156
528.166
526.545
527.924
526.572
527.625
498.691
503.538
501.576
498.932
501.448
501.23
494.311
562.495
518.97
495.016
480.722
461.342
443.262
425.03
402.104
427.254
385.25
417.722
379.597
417.885
385.935
427.371
404.282
444.365
429.06
450.242
386.544
419.285
380.192
418.297
386.174
427.744
404.21
444.475
428.144
450.838
386.019
418.148
379.608
418.505
385.542
427.58
402.903
443.538
426.435
384.036
416.121
376.292
415.328
383.008
424.402
400.829
441.687
425.209
382.744
417.761
376.557
418.079
383.83
425.249
402.196
442.66
450.632
426.709
445.99
380.717
444.656
465.271
448.723
464.745
453.393
350.893
463.486
461.018
478.425
462.754
460.624
478.33
337.268
480.802
505.834
503.594
480.867
506.141
337.681
337.492
326.157
334.407
563.371
519.645
567.572
562.358
567.89
567.743
521.794
542.707
498.606
513.719
542.051
451.434
477.552
414.64
579.514
611.025
579.667
576.027
534.54
494.456
538.214
537.911
485.012
498.092
503.311
473.113
485.06
352.738
326.407
355.167
503.42
477.691
488.333
520.863
502.002
477.888
335.532
335.395
347.69
613.442
337.369
347.561
337.256
353.194
329.18
373.244
310.652
288.781
504.685
608.377
521.084
493.695
478.301
486.329
526.478
600.336
476.538
615.896
291.39
615.795
528.707
494.507
478.208
479.382
501.289
494.813
479.408
502.485
495.149
493.718
502.237
495.222
479.855
480.021
479.023
289.287
454.564
271.936
454.972
453.6
526.987
479.445
465.195
382.087
480.481
292.662
286.075
461.451
449.605
453.949
445.827
448.661
463.576
463.233
479.925
543.446
601.697
487.465
300.294
282.454
452.985
279.156
552.229
551.989
480.747
457.989
526.21
508.161
488.563
233.725
284.551
614.503
636.32
615.137
636.676
285.273
441.312
553.07
230.481
467.523
590.258
566.023
495.787
490.022
410.017
232.114
293.089
271.12
507.869
509.167
607.81
229.658
276.969
294.423
618.875
618.788
558.504
226.517
562.517
488.285
503.368
280.84
504.039
466.35
224.003
473.557
519.555
502.954
462.416
228.253
226.324
227.037
224.105
225.521
219.843
220.859
529.156
528.166
526.545
527.924
526.572
527.625
498.691
503.538
501.576
498.932
501.448
501.23
494.311
562.495
518.97
495.016
480.722
461.342
443.262
425.03
402.104
427.254
385.25
417.722
379.597
417.885
385.935
427.371
404.282
444.365
429.06
450.242
386.544
419.285
380.192
418.297
386.174
427.744
404.21
444.475
428.144
450.838
386.019
418.148
379.608
418.505
385.542
427.58
402.903
443.538
426.435
384.036
416.121
376.292
415.328
383.008
424.402
400.829
441.687
425.209
382.744
417.761
376.557
418.079
383.83
425.249
402.196
442.66
450.632
426.709
445.99
380.717
444.656
465.271
448.723
464.745
453.393
350.893
463.486
461.018
478.425
462.754
460.624
478.33
337.268
480.802
505.834
503.594
480.867
506.141
337.681
337.492
326.157
334.407
563.371
519.645
567.572
562.358
567.89
567.743
521.794
542.707
498.606
513.719
542.051
451.434
477.552
414.64
579.514
611.025
579.667
576.027
534.54
494.456
538.214
537.911
485.012
498.092
503.311
473.113
485.06
352.738
326.407
355.167
503.42
477.691
488.333
520.863
502.002
477.888
335.532
335.395
347.69
613.442
337.369
347.561
337.256
353.194
329.18
373.244
310.652
288.781
504.685
608.377
521.084
493.695
478.301
486.329
526.478
600.336
476.538
615.896
291.39
615.795
528.707
494.507
478.208
479.382
501.289
494.813
479.408
502.485
495.149
493.718
502.237
495.222
479.855
480.021
479.023
289.287
454.564
271.936
454.972
453.6
526.987
479.445
465.195
382.087
480.481
292.662
286.075
461.451
449.605
453.949
445.827
448.661
463.576
463.233
479.925
543.446
601.697
487.465
300.294
282.454
452.985
279.156
552.229
551.989
480.747
457.989
526.21
508.161
488.563
233.725
284.551
614.503
636.32
615.137
636.676
285.273
441.312
553.07
230.481
467.523
590.258
566.023
495.787
490.022
410.017
232.114
293.089
271.12
507.869
509.167
607.81
229.658
276.969
294.423
618.875
618.788
558.504
226.517
562.517
488.285
503.368
280.84
504.039
466.35
224.003
473.557
519.555
502.954
462.416

CELL_DATA 563
TENSORS stress float
164.608 -24.9202 1.34529e-12
-24.9202 28.1477 -2.68704e-12
1.34529e-12 -2.68704e-12 -12.605

-40.3383 -21.3202 1.79827e-12
-21.3202 -7.35467 1.70234e-12
1.79827e-12 1.70234e-12 -10.2313

-9.93959 28.0428 -1.06818e-12
28.0428 -1.11014 -5.57184e-13
-1.06818e-12 -5.57184e-13 -6.35958

-40.4266 -29.8427 4.1663e-12
-29.8427 -12.8459 6.57548e-13
4.1663e-12 6.57548e-13 -10.5976

-22.6926 19.931 3.34014e-12
19.931 -1.92198 1.04553e-12
3.34014e-12 1.04553e-12 -23.0217

-27.1387 -18.0741 -5.67102e-13
-18.0741 15.8879 3.39521e-12
-5.67102e-13 3.39521e-12 -6.41035

161.259 26.4843 -1.67688e-12
26.4843 28.0243 -8.64494e-13
-1.67688e-12 -8.64494e-13 -13.2639

-5.96112 29.9576 2.21216e-12
29.9576 -10.1118 1.07203e-12
2.21216e-12 1.07203e-12 -7.27568

34.6308 5.48306 -1.51227e-12
5.48306 -19.094 -2.2918e-12
-1.51227e-12 -2.2918e-12 -4.12142

11.8603 -7.47756 1.19282e-12
-7.47756 -48.2869 2.94853e-12
1.19282e-12 2.94853e-12 -8.94647

104.192 16.3082 -2.55559e-12
16.3082 -8.44342 9.8647e-13
-2.55559e-12 9.8647e-13 -22.4545

-34.637 -13.453 9.51831e-14
-13.453 18.9658 2.35841e-12
9.51831e-14 2.35841e-12 -7.17994

-6.02567 27.8328 1.10134e-12
27.8328 -4.59135 4.11523e-13
1.10134e-12 4.11523e-13 -6.15854

-35.5512 -14.3399 -1.12278e-12
-14.3399 7.84496 4.26326e-13
-1.12278e-12 4.26326e-13 -9.13081

-23.6537 33.3116 1.42434e-12
33.3116 -24.9944 -6.19005e-13
1.42434e-12 -6.19005e-13 -21.3652

21.3106 0.560956 1.53714e-12
0.560956 -32.3378 -2.8485e-12
1.53714e-12 -2.8485e-12 -5.58898

-48.9594 -17.9692 -1.71002e-13
-17.9692 6.34303 -2.23584e-12
-1.71002e-13 -2.23584e-12 -12.9457

11.6601 -2.6652 2.91411e-12
-2.6652 -43.2481 -1.87287e-12
2.91411e-12 -1.87287e-12 -8.03286

-11.3491 26.6732 -2.34153e-12
26.6732 19.5173 -1.49036e-12
-2.34153e-12 -1.49036e-12 -6.08868

21.7654 -4.19549 2.50111e-12
-4.19549 -35.2936 -2.53664e-12
2.50111e-12 -2.53664e-12 -6.7405

-24.4784 8.66841 2.49948e-12
8.66841 32.1273 -2.2086e-13
2.49948e-12 -2.2086e-13 -4.93359

-11.8088 6.28787 -4.87816e-12
6.28787 -11.9744 -6.78628e-12
-4.87816e-12 -6.78628e-12 -75.623

22.7431 1.87596 -1.50398e-12
1.87596 -33.4679 -5.17586e-13
-1.50398e-12 -5.17586e-13 -6.67648

-12.3875 -27.7147 1.43648e-12
-27.7147 1.5999 5.72579e-13
1.43648e-12 5.72579e-13 -6.60199

21.3042 6.84928 -4.91459e-13
6.84928 -34.303 -1.04879e-12
-4.91459e-13 -1.04879e-12 -6.80574

-37.9046 19.1127 -3.99303e-12
19.1127 2.65399 -5.62513e-13
-3.99303e-12 -5.62513e-13 -9.45703

106.601 4.18128 9.40285e-13
4.18128 20.6023 -2.21897e-12
9.40285e-13 -2.21897e-12 -12.0495

-5.30146 30.7454 1.76333e-12
30.7454 -7.27178 -9.76996e-15
1.76333e-12 -9.76996e-15 -7.44088

27.8898 37.0736 1.67451e-12
37.0736 26.469 -4.73695e-13
1.67451e-12 -4.73695e-13 -8.6317

-9.43909 10.3235 7.0699e-13
10.3235 -32.9309 -3.55975e-13
7.0699e-13 -3.55975e-13 -49.5102

19.8306 14.2168 -2.78651e-12
14.2168 -29.3585 -2.57912e-12
-2.78651e-12 -2.57912e-12 -6.00026

-4.20968 -17.78 -3.48136e-12
-17.78 59.6567 8.87942e-12
-3.48136e-12 8.87942e-12 -8.4756

66.2819 -42.1009 -5.17749e-12
-42.1009 71.137 -3.49113e-12
-5.17749e-12 -3.49113e-12 -11.2523

-48.2103 5.98691 1.16721e-13
5.98691 7.26965 -3.61933e-12
1.16721e-13 -3.61933e-12 -41.0386

-26.2913 -4.84092 -9.08458e-13
-4.84092 1.75674 2.3063e-13
-9.08458e-13 2.3063e-13 -37.8034

-1.46667 21.0279 3.75847e-12
21.0279 -39.5068 3.35465e-12
3.75847e-12 3.35465e-12 -41.1044

-43.9766 5.06774 -4.78847e-12
5.06774 0.514248 -2.76223e-13
-4.78847e-12 -2.76223e-13 -52.1927

-2.75991 -9.16984 -3.4787e-13
-9.16984 -20.7701 -3.42665e-12
-3.4787e-13 -3.42665e-12 -35.8977

-3.97388 -27.9978 1.16411e-12
-27.9978 -4.61034 1.36602e-12
1.16411e-12 1.36602e-12 -5.99387

65.5957 41.5202 -9.04758e-13
41.5202 73.1646 1.06581e-12
-9.04758e-13 1.06581e-12 -10.964

60.1541 -17.9487 7.29491e-12
-17.9487 0.117454 5.21065e-14
7.29491e-12 5.21065e-14 -8.04961

-41.8043 -3.70626 1.04361e-13
-3.70626 -1.18565 -5.47769e-12
1.04361e-13 -5.47769e-12 -52.7275

-14.5942 19.5559 7.58593e-12
19.5559 -28.5519 1.07381e-12
7.58593e-12 1.07381e-12 -52.8357

18.1408 -12.2732 1.51523e-12
-12.2732 -29.8984 2.78296e-12
1.51523e-12 2.78296e-12 -6.22245

38.1725 -43.2981 -4.22418e-12
-43.2981 41.8004 -5.24262e-12
-4.22418e-12 -5.24262e-12 -14.5588

58.1428 -18.063 7.83966e-13
-18.063 -2.30219 1.85037e-12
7.83966e-13 1.85037e-12 -7.91317

-21.441 17.0853 2.74358e-12
17.0853 30.3269 3.51541e-12
2.74358e-12 3.51541e-12 -5.72762

-11.3721 19.3386 -4.98564e-13
19.3386 25.5103 -6.75016e-13
-4.98564e-13 -6.75016e-13 -3.92106

20.7911 -16.3008 -3.01389e-13
-16.3008 -33.1135 6.20245e-14
-3.01389e-13 6.20245e-14 -7.311

12.6154 -34.1845 1.25233e-12
-34.1845 46.4347 2.88954e-12
1.25233e-12 2.88954e-12 -10.3969

62.3589 19.1813 1.0291e-12
19.1813 2.81065 2.08189e-12
1.0291e-12 2.08189e-12 -8.41357

46.5128 -25.2878 3.54087e-12
-25.2878 5.13442 4.32128e-12
3.54087e-12 4.32128e-12 -5.6095

-31.8955 19.4859 -2.04651e-12
19.4859 -4.28561 -1.90366e-12
-2.04651e-12 -1.90366e-12 -26.0859

37.0386 29.6486 3.60364e-12
29.6486 14.5127 3.78956e-14
3.60364e-12 3.78956e-14 -5.43193

-27.4501 -21.8128 -4.64873e-12
-21.8128 -8.22804 -4.53929e-12
-4.64873e-12 -4.53929e-12 -25.2482

64.8674 -42.7102 1.72188e-12
-42.7102 44.0793 6.63173e-14
1.72188e-12 6.63173e-14 -9.50206

-27.7497 5.45994 -4.52246e-12
5.45994 2.66936 -4.7559e-12
-4.52246e-12 -4.7559e-12 -38.3091

-5.55717 -5.32964 -2.62249e-12
-5.32964 57.387 1.34766e-12
-2.62249e-12 1.34766e-12 -5.44896

-0.199955 10.3842 8.41993e-13
10.3842 -24.8484 1.41916e-12
8.41993e-13 1.41916e-12 -38.3706

-26.4844 21.4126 2.0511e-12
21.4126 12.2196 4.67478e-12
2.0511e-12 4.67478e-12 -6.86893

4.72656 5.75378 2.40889e-12
5.75378 -56.0399 -2.70791e-12
2.40889e-12 -2.70791e-12 -13.9804

0.539692 11.4589 5.31708e-12
11.4589 -34.0563 1.48592e-12
5.31708e-12 1.48592e-12 -14.8396

106.342 31.8192 -6.15567e-12
31.8192 37.8323 -3.58587e-12
-6.15567e-12 -3.58587e-12 -7.48978

-35.4915 -6.03503 -4.55502e-12
-6.03503 10.6012 -4.02996e-12
-4.55502e-12 -4.02996e-12 -13.4787

-35.3598 9.51961 3.15496e-12
9.51961 1.23357 -1.90011e-12
3.15496e-12 -1.90011e-12 -14.9598

-42.5872 -2.8807 -3.338e-12
-2.8807 21.1109 7.22977e-13
-3.338e-12 7.22977e-13 -11.2384

-44.9076 23.4021 -7.2875e-13
23.4021 -5.89261 5.27963e-12
-7.2875e-13 5.27963e-12 -13.9214

9.97105 8.4634 9.29035e-13
8.4634 -42.3773 -1.60982e-12
9.29035e-13 -1.60982e-12 -9.07725

-12.3339 -28.2388 2.98783e-12
-28.2388 1.68756 3.80496e-12
2.98783e-12 3.80496e-12 -6.67315

1.30886 -1.7112 -3.65485e-13
-1.7112 -55.456 1.90788e-12
-3.65485e-13 1.90788e-12 -11.3034

-31.885 -19.262 9.72555e-14
-19.262 -4.59499 -1.17299e-12
9.72555e-14 -1.17299e-12 -25.9552

-27.9756 21.3078 2.07123e-12
21.3078 -8.35789 6.01579e-13
2.07123e-12 6.01579e-13 -26.0136

-0.651278 -16.583 4.37798e-12
-16.583 61.6725 -1.46846e-12
4.37798e-12 -1.46846e-12 -7.94846

-0.650085 -27.9359 -3.97075e-12
-27.9359 -21.3604 -1.91906e-12
-3.97075e-12 -1.91906e-12 -12.7906

-14.0927 -25.1342 5.87678e-13
-25.1342 7.40688 6.06093e-12
5.87678e-13 6.06093e-12 -5.23527

91.6759 -31.7099 1.7503e-12
-31.7099 19.4845 2.15827e-13
1.7503e-12 2.15827e-13 -16.3333

-33.7057 3.22256 2.28706e-14
3.22256 9.19924 1.65024e-12
2.28706e-14 1.65024e-12 -18.5635

2.75241 28.9436 -1.63306e-12
28.9436 -24.4244 -2.93987e-13
-1.63306e-12 -2.93987e-13 -11.3161

-38.4328 19.664 1.24685e-12
19.664 5.22978 -1.56023e-12
1.24685e-12 -1.56023e-12 -9.2345

50.1897 7.99933 1.79294e-12
7.99933 -16.9628 -2.55618e-12
1.79294e-12 -2.55618e-12 -7.06624

60.0304 -33.9347 1.08831e-12
-33.9347 33.7865 -6.93016e-12
1.08831e-12 -6.93016e-12 -6.98347

-18.9596 -10.5876 -5.00133e-12
-10.5876 -0.541883 4.75886e-12
-5.00133e-12 4.75886e-12 -25.4317

-33.9261 23.8994 -2.02268e-12
23.8994 -12.0229 7.36874e-13
-2.02268e-12 7.36874e-13 -14.5399

58.1552 -32.3829 8.84626e-13
-32.3829 18.0913 -6.26462e-13
8.84626e-13 -6.26462e-13 -10.1334

66.8584 10.7908 3.20573e-12
10.7908 8.51349 -2.76697e-12
3.20573e-12 -2.76697e-12 -5.084

7.67421 -21.2054 1.27069e-12
-21.2054 88.4627 -5.88093e-12
1.27069e-12 -5.88093e-12 -11.8621

-33.9849 14.4255 4.80949e-12
14.4255 20.2383 8.36072e-13
4.80949e-12 8.36072e-13 -7.54571

8.47562 23.1427 2.54078e-12
23.1427 -26.0735 9.28472e-12
2.54078e-12 9.28472e-12 -11.2987

34.8682 42.1976 2.96059e-14
42.1976 46.1985 5.21775e-12
2.96059e-14 5.21775e-12 -14.4203

-4.39443 16.5073 6.32013e-12
16.5073 -35.5425 2.24887e-12
6.32013e-12 2.24887e-12 -73.2895

-5.97925 -4.10824 2.6971e-12
-4.10824 57.9474 -5.92119e-15
2.6971e-12 -5.92119e-15 -5.44116

-1.81876 -16.6324 -6.33641e-12
-16.6324 -39.4027 1.10327e-12
-6.33641e-12 1.10327e-12 -74.1128

-3.32928 -27.335 -3.32475e-12
-27.335 -30.0298 -1.8594e-12
-3.32475e-12 -1.8594e-12 -21.5543

8.96724 27.4244 4.87847e-12
27.4244 -29.9943 -4.0267e-12
4.87847e-12 -4.0267e-12 -11.2567

45.7106 -24.41 1.23042e-12
-24.41 5.02471 3.19744e-14
1.23042e-12 3.19744e-14 -5.23557

10.0955 31.3224 -1.89419e-12
31.3224 47.1625 -1.92794e-12
-1.89419e-12 -1.92794e-12 -9.6399

14.2725 -10.7048 1.84623e-12
-10.7048 82.8372 -6.74305e-12
1.84623e-12 -6.74305e-12 -6.44679

-38.6329 21.9706 -2.01024e-13
21.9706 2.94161 -3.79933e-12
-2.01024e-13 -3.79933e-12 -8.56847

1.19262 16.7939 -1.77991e-12
16.7939 -25.7219 -2.02475e-12
-1.77991e-12 -2.02475e-12 -18.5677

-26.5373 15.1536 3.35169e-12
15.1536 18.4493 1.62418e-12
3.35169e-12 1.62418e-12 -5.70735

43.6582 15.9535 4.26918e-12
15.9535 -7.28438 -2.80028e-12
4.26918e-12 -2.80028e-12 -4.07453

12.5772 -21.4719 -2.68585e-12
-21.4719 57.9546 -1.43885e-12
-2.68585e-12 -1.43885e-12 -4.71359

65.9952 -29.3898 4.81274e-12
-29.3898 18.6435 7.02845e-13
4.81274e-12 7.02845e-13 -9.33499

-32.3808 -24.5727 4.37754e-12
-24.5727 -7.28147 -2.76668e-12
4.37754e-12 -2.76668e-12 -8.97568

-22.6666 27.4507 -7.97288e-13
27.4507 -10.3498 7.40445e-13
-7.97288e-13 7.40445e-13 -9.28329

-38.351 23.1875 3.93256e-12
23.1875 1.99112 -1.51582e-12
3.93256e-12 -1.51582e-12 -8.52436

-51.5532 13.1692 -1.24152e-12
13.1692 11.9271 1.20259e-12
-1.24152e-12 1.20259e-12 -16.4661

23.4845 9.37217 -3.8239e-12
9.37217 -29.4871 -1.34603e-12
-3.8239e-12 -1.34603e-12 -5.32084

3.76899 -4.66495 -2.70362e-12
-4.66495 79.4365 4.94301e-12
-2.70362e-12 4.94301e-12 -9.5311

-44.94 -36.8334 -1.40036e-13
-36.8334 -19.8289 2.76446e-13
-1.40036e-13 2.76446e-13 -14.7703

-16.079 27.4647 2.04281e-14
27.4647 1.34129 3.66522e-13
2.04281e-14 3.66522e-13 -6.91394

-5.0148 2.17029 9.86618e-13
2.17029 82.6718 -6.31436e-12
9.86618e-13 -6.31436e-12 -13.4309

69.0441 34.6094 9.9476e-14
34.6094 15.4967 1.71241e-12
9.9476e-14 1.71241e-12 -10.7056

-31.3513 -22.9736 2.34375e-12
-22.9736 -4.63229 3.40853e-12
2.34375e-12 3.40853e-12 -8.52917

11.7429 5.73296 9.4591e-13
5.73296 -48.3357 3.11743e-12
9.4591e-13 3.11743e-12 -8.64077

43.065 27.2033 1.06581e-13
27.2033 10.4523 9.71075e-13
1.06581e-13 9.71075e-13 -5.08032

-9.41504 12.7456 -1.69849e-12
12.7456 -14.0389 -3.81177e-12
-1.69849e-12 -3.81177e-12 -37.0415

70.3332 24.3298 2.25005e-13
24.3298 23.8048 2.71487e-12
2.25005e-13 2.71487e-12 -6.79927

-10.5863 -13.0551 1.61352e-12
-13.0551 -13.9207 3.12846e-12
1.61352e-12 3.12846e-12 -37.3793

-4.37894 0.778509 2.62664e-12
0.778509 59.397 3.39047e-12
2.62664e-12 3.39047e-12 -4.83017

38.3564 -2.23526 -1.90189e-12
-2.23526 -23.8097 1.53736e-12
-1.90189e-12 1.53736e-12 -5.83165

3.5938 -15.7682 2.18107e-12
-15.7682 -53.9715 -3.51423e-12
2.18107e-12 -3.51423e-12 -21.1243

-42.2768 24.3881 3.59105e-12
24.3881 -11.7369 1.22213e-12
3.59105e-12 1.22213e-12 -11.167

-46.8123 -13.5349 1.97389e-13
-13.5349 11.0675 7.25938e-13
1.97389e-13 7.25938e-13 -12.3535

5.81023 -8.00005 -1.32457e-12
-8.00005 -70.9679 3.29159e-12
-1.32457e-12 3.29159e-12 -14.8816

-49.5391 -22.2843 -3.10907e-12
-22.2843 3.74869 4.22625e-12
-3.10907e-12 4.22625e-12 -22.1042

-17.4594 -6.59628 -3.02662e-12
-6.59628 -13.1158 -4.35348e-12
-3.02662e-12 -4.35348e-12 -34.7822

-28.7295 -29.9081 2.40015e-12
-29.9081 -9.39983 -2.29446e-13
2.40015e-12 -2.29446e-13 -8.9955

15.6935 11.4533 4.49152e-12
11.4533 80.1787 -4.78195e-12
4.49152e-12 -4.78195e-12 -6.53045

42.2894 -28.1457 -3.4035e-12
-28.1457 11.0511 1.45069e-13
-3.4035e-12 1.45069e-13 -5.04355

-47.1705 -13.7724 -3.03172e-12
-13.7724 4.19613 2.67194e-12
-3.03172e-12 2.67194e-12 -29.3011

2.96491 0.504365 -4.03411e-12
0.504365 -56.8117 2.56795e-12
-4.03411e-12 2.56795e-12 -11.0047

-39.3363 -21.5246 2.68526e-12
-21.5246 -8.85735 -2.96652e-12
2.68526e-12 -2.96652e-12 -14.7739

-40.1948 25.6976 -1.75548e-12
25.6976 -14.6914 -6.86747e-13
-1.75548e-12 -6.86747e-13 -11.3104

32.2602 -31.4635 2.67046e-12
-31.4635 38.4289 5.23196e-12
2.67046e-12 5.23196e-12 -4.64777

-31.4688 -7.08529 8.72731e-12
-7.08529 1.70015 1.53448e-12
8.72731e-12 1.53448e-12 -40.9937

36.6295 -33.0759 1.70293e-12
-33.0759 72.0259 -4.87906e-13
1.70293e-12 -4.87906e-13 -7.14461

16.6125 -19.1793 1.68162e-13
-19.1793 -25.8692 1.6381e-12
1.68162e-13 1.6381e-12 -7.13274

1.50262 1.97015 1.0442e-12
1.97015 -51.3914 -9.68114e-13
1.0442e-12 -9.68114e-13 -15.374

-12.8764 17.8752 -3.31587e-13
17.8752 -16.9548 9.06771e-12
-3.31587e-13 9.06771e-12 -41.0613

10.7134 20.1822 -1.08772e-12
20.1822 59.453 -2.63967e-12
-1.08772e-12 -2.63967e-12 -4.35623

4.31857 27.2101 5.23433e-13
27.2101 -16.2234 -2.90849e-12
5.23433e-13 -2.90849e-12 -8.12376

30.9042 -24.511 1.96347e-12
-24.511 -8.13167 -2.66631e-12
1.96347e-12 -2.66631e-12 -4.87157

-37.7868 -17.8384 -1.30177e-12
-17.8384 2.40089 -2.14347e-13
-1.30177e-12 -2.14347e-13 -9.8639

55.5127 35.0672 -1.76096e-12
35.0672 42.3448 -8.53836e-13
-1.76096e-12 -8.53836e-13 -6.63608

-40.0146 -21.8309 1.81958e-12
-21.8309 2.53689 2.23821e-13
1.81958e-12 2.23821e-13 -9.39341

2.96672 30.8501 -1.71182e-12
30.8501 -17.3877 8.60082e-12
-1.71182e-12 8.60082e-12 -9.07774

18.5373 -25.2436 6.68502e-13
-25.2436 -19.4172 2.39246e-12
6.68502e-13 2.39246e-12 -6.34189

-15.6532 -25.1259 -1.18483e-12
-25.1259 5.8957 5.02058e-12
-1.18483e-12 5.02058e-12 -5.7749

42.7177 -18.6876 -2.8102e-12
-18.6876 -9.16508 5.10821e-12
-2.8102e-12 5.10821e-12 -5.36851

27.4317 -18.8491 5.1988e-12
-18.8491 -20.3676 -2.7495e-12
5.1988e-12 -2.7495e-12 -5.68912

-41.3937 -25.3369 2.23155e-12
-25.3369 -14.964 1.50391e-12
2.23155e-12 1.50391e-12 -11.5666

29.7806 35.9682 -7.11727e-13
35.9682 25.2269 4.28931e-12
-7.11727e-13 4.28931e-12 -8.64382

-28.5177 15.3764 -2.28987e-12
15.3764 18.5188 -1.06522e-12
-2.28987e-12 -1.06522e-12 -5.87338

-23.1077 26.4218 3.00056e-12
26.4218 -12.5464 4.31951e-13
3.00056e-12 4.31951e-13 -9.95753

-42.0963 25.4736 3.08451e-12
25.4736 -11.5925 -4.73917e-12
3.08451e-12 -4.73917e-12 -10.9922

-37.288 11.6213 -5.52706e-14
11.6213 11.8441 4.89505e-12
-5.52706e-14 4.89505e-12 -9.08

64.3918 -8.22674 1.94452e-12
-8.22674 3.19813 1.83083e-12
1.94452e-12 1.83083e-12 -4.25034

8.73417 18.6058 1.46253e-13
18.6058 59.2188 -3.60008e-13
1.46253e-13 -3.60008e-13 -4.16182

-25.614 -24.3801 8.20677e-13
-24.3801 0.458524 -5.86494e-13
8.20677e-13 -5.86494e-13 -7.21492

-1.14121 25.6652 -1.97235e-12
25.6652 13.7523 1.41457e-12
-1.97235e-12 1.41457e-12 -4.08202

32.3783 -35.6282 -5.36578e-12
-35.6282 21.7 1.73846e-12
-5.36578e-12 1.73846e-12 -8.48553

59.535 38.3154 1.89715e-12
38.3154 17.8476 2.19676e-12
1.89715e-12 2.19676e-12 -13.722

12.1253 -33.3099 -2.23051e-12
-33.3099 42.9127 2.76638e-12
-2.23051e-12 2.76638e-12 -9.54216

30.551 -31.1585 -9.43838e-13
-31.1585 36.813 3.51719e-13
-9.43838e-13 3.51719e-13 -4.40492

11.7688 -6.83866 -2.70065e-12
-6.83866 -48.8377 4.41869e-13
-2.70065e-12 4.41869e-13 -8.76961

25.2743 30.3407 3.42482e-12
30.3407 41.0884 8.92915e-13
3.42482e-12 8.92915e-13 -4.45542

62.6809 13.2942 4.55103e-12
13.2942 5.22859 -6.06004e-12
4.55103e-12 -6.06004e-12 -4.30493

-7.02502 13.3784 6.47808e-12
13.3784 61.343 4.38168e-14
6.47808e-12 4.38168e-14 -8.69438

11.7299 -22.3396 -8.88178e-13
-22.3396 55.7621 1.9611e-12
-8.88178e-13 1.9611e-12 -4.30088

-47.2606 -1.09143 -3.27109e-12
-1.09143 12.4097 1.4199e-12
-3.27109e-12 1.4199e-12 -22.1622

-5.91836 2.24652 -6.08906e-12
2.24652 59.0032 2.60532e-13
-6.08906e-12 2.60532e-13 -5.26188

6.26905 31.0882 -6.14916e-12
31.0882 47.8643 -7.33043e-13
-6.14916e-12 -7.33043e-13 -9.65996

-39.7251 12.1077 -6.11744e-12
12.1077 12.8449 9.11863e-13
-6.11744e-12 9.11863e-13 -9.31249

40.7377 -27.6467 3.44021e-12
-27.6467 8.35788 -2.67579e-12
3.44021e-12 -2.67579e-12 -5.64132

7.54017 20.5569 -3.62258e-12
20.5569 -47.4668 4.68988e-12
-3.62258e-12 4.68988e-12 -16.4815

-3.42096 26.2704 2.40933e-12
26.2704 -31.4867 -1.59576e-13
2.40933e-12 -1.59576e-13 -22.2526

15.7774 -18.5672 1.33819e-13
-18.5672 -30.0124 3.25281e-12
1.33819e-13 3.25281e-12 -8.18233

4.42882 -1.80094 3.39847e-12
-1.80094 -34.133 -3.73479e-12
3.39847e-12 -3.73479e-12 -24.4397

-14.3393 -31.8115 -1.56912e-12
-31.8115 -11.93 2.00876e-12
-1.56912e-12 2.00876e-12 -9.04887

56.2172 23.327 1.77636e-12
23.327 0.817345 3.10093e-12
1.77636e-12 3.10093e-12 -8.28741

-27.8279 30.162 -5.15143e-13
30.162 -9.23637 4.83317e-12
-5.15143e-13 4.83317e-12 -8.79975

-27.0034 29.2058 -1.18128e-13
29.2058 -9.20175 3.25665e-12
-1.18128e-13 3.25665e-12 -8.67703

28.6284 30.6598 4.70142e-13
30.6598 40.4053 -1.11792e-12
4.70142e-13 -1.11792e-12 -4.44844

0.343104 27.0848 -1.84149e-13
27.0848 -19.8454 -2.4194e-12
-1.84149e-13 -2.4194e-12 -11.7767

64.5067 3.52503 7.99597e-12
3.52503 -11.8249 -2.60962e-12
7.99597e-12 -2.60962e-12 -10.0178

-14.8996 31.8172 -2.39897e-12
31.8172 -20.7987 -5.04485e-13
-2.39897e-12 -5.04485e-13 -12.4471

-37.9436 -12.5997 -5.11931e-12
-12.5997 8.18001 8.82849e-13
-5.11931e-12 8.82849e-13 -14.0225

-0.475068 24.2783 1.83083e-12
24.2783 -29.9989 1.47319e-12
1.83083e-12 1.47319e-12 -20.7715

-23.7272 -29.5786 3.56722e-12
-29.5786 -11.9349 -2.02001e-12
3.56722e-12 -2.02001e-12 -8.84269

-38.1477 -4.89813 1.40186e-12
-4.89813 18.8465 -1.33641e-12
1.40186e-12 -1.33641e-12 -11.7297

69.9432 -24.5555 -7.57912e-14
-24.5555 18.0289 3.61311e-12
-7.57912e-14 3.61311e-12 -7.04401

39.9816 29.6922 -6.43752e-12
29.6922 13.4796 3.43547e-12
-6.43752e-12 3.43547e-12 -5.21443

-4.29548 14.696 -5.3794e-12
14.696 60.5702 -5.44276e-12
-5.3794e-12 -5.44276e-12 -8.40032

1.61144 -1.13885 -1.76496e-12
-1.13885 -56.1231 5.21657e-13
-1.76496e-12 5.21657e-13 -11.2086

9.61413 0.00223577 -1.56675e-12
0.00223577 -44.7533 -2.40738e-12
-1.56675e-12 -2.40738e-12 -8.43723

-31.0783 23.1236 7.91959e-13
23.1236 -4.33699 2.02534e-12
7.91959e-13 2.02534e-12 -8.45768

-34.7626 23.8709 -9.4591e-13
23.8709 -13.1923 3.46441e-12
-9.4591e-13 3.46441e-12 -14.8128

-43.3785 -24.3807 1.90771e-12
-24.3807 -12.6139 -3.62377e-12
1.90771e-12 -3.62377e-12 -11.4681

-39.0586 -0.672679 -4.05639e-12
-0.672679 21.0464 1.31332e-12
-4.05639e-12 1.31332e-12 -10.4951

-40.8066 25.5903 -2.28913e-12
25.5903 -13.2224 3.5083e-14
-2.28913e-12 3.5083e-14 -11.1717

32.3213 -10.3077 -1.63188e-12
-10.3077 -25.1527 2.67727e-12
-1.63188e-12 2.67727e-12 -6.01346

8.70701 -32.8325 3.05533e-12
-32.8325 22.7976 -9.19561e-13
3.05533e-12 -9.19561e-13 -6.99134

2.39689 -2.30056 2.52391e-13
-2.30056 -49.9606 -4.82873e-13
2.52391e-13 -4.82873e-13 -14.7723

36.7452 -34.5073 2.07005e-12
-34.5073 24.4795 -9.2785e-13
2.07005e-12 -9.2785e-13 -7.70863

-38.2937 19.0861 7.26678e-13
19.0861 -7.09373 1.61945e-13
7.26678e-13 1.61945e-13 -14.4492

7.87077 -26.4786 -4.05542e-12
-26.4786 -27.994 4.75945e-12
-4.05542e-12 4.75945e-12 -10.9686

63.9463 -9.68999 4.98564e-12
-9.68999 5.67789 -3.59771e-12
4.98564e-12 -3.59771e-12 -5.07183

6.04098 -23.1918 -1.79412e-13
-23.1918 -35.468 -3.31291e-12
-1.79412e-13 -3.31291e-12 -17.736

0.141351 2.35825 -2.69429e-12
2.35825 -56.1739 -2.43405e-12
-2.69429e-12 -2.43405e-12 -11.5455

-4.06197 -23.3212 3.40409e-12
-23.3212 -23.4116 -4.88543e-12
3.40409e-12 -4.88543e-12 -16.7199

11.0389 -25.8593 -5.58783e-12
-25.8593 -29.4853 4.37339e-12
-5.58783e-12 4.37339e-12 -9.73313

10.2015 -8.54597 -1.88353e-12
-8.54597 -43.4894 1.89626e-12
-1.88353e-12 1.89626e-12 -9.2808

-35.4183 -23.068 2.78562e-12
-23.068 -12.6456 5.3089e-13
2.78562e-12 5.3089e-13 -15.1028

23.6642 -31.3411 2.09965e-12
-31.3411 5.7128 7.87518e-13
2.09965e-12 7.87518e-13 -5.87756

11.06 -24.5869 -3.47219e-12
-24.5869 -27.4942 -4.06727e-12
-3.47219e-12 -4.06727e-12 -10.0477

46.6424 10.8642 -6.70989e-12
10.8642 -16.1164 -4.25852e-12
-6.70989e-12 -4.25852e-12 -6.7992

-14.1861 26.3401 -1.61352e-12
26.3401 -15.6394 -8.8729e-13
-1.61352e-12 -8.8729e-13 -14.1187

-45.252 -37.6131 9.94464e-13
-37.6131 -20.6125 1.62833e-15
9.94464e-13 1.62833e-15 -14.9188

-43.7087 37.2654 -2.13163e-13
37.2654 -21.2663 8.3585e-13
-2.13163e-13 8.3585e-13 -14.7692

-61.1854 -28.5735 1.77588e-12
-28.5735 -7.49703 -2.36137e-12
1.77588e-12 -2.36137e-12 -15.1993

-58.4163 27.0642 -1.85881e-12
27.0642 -6.27166 5.15291e-12
-1.85881e-12 5.15291e-12 -14.4778

5.6007 -8.52771 -1.59872e-13
-8.52771 -71.0644 -2.72464e-12
-1.59872e-13 -2.72464e-12 -14.7094

4.39741 9.27373 -1.17935e-12
9.27373 -68.833 4.16896e-12
-1.17935e-12 4.16896e-12 -14.4374

9.02399 -9.84603 -6.93963e-13
-9.84603 -40.8895 7.70347e-13
-6.93963e-13 7.70347e-13 -9.61131

-24.3355 32.1164 1.19164e-12
32.1164 -24.8102 2.67525e-12
1.19164e-12 2.67525e-12 -21.1454

-25.523 -32.8545 -6.4837e-14
-32.8545 -25.0963 2.69575e-12
-6.4837e-14 2.69575e-12 -21.4696

-53.9203 16.0686 1.28623e-12
16.0686 3.40194 -1.27542e-12
1.28623e-12 -1.27542e-12 -21.403

-52.4212 -15.801 1.52441e-12
-15.801 3.29724 -3.18205e-12
1.52441e-12 -3.18205e-12 -21.0763

6.11244 -3.74741 2.99671e-12
-3.74741 -43.9254 6.19652e-13
2.99671e-12 6.19652e-13 -25.7654

6.91862 3.61019 9.28146e-14
3.61019 -46.3489 7.21793e-13
9.28146e-14 7.21793e-13 -26.1418

-15.625 9.83666 -5.24299e-12
9.83666 46.262 2.4715e-12
-5.24299e-12 2.4715e-12 -5.84737

-22.9184 -24.7739 -1.69612e-12
-24.7739 -14.5521 -4.3768e-12
-1.69612e-12 -4.3768e-12 -10.3294

-56.6039 -36.3877 1.28016e-12
-36.3877 -14.5327 -3.10966e-12
1.28016e-12 -3.10966e-12 -13.4368

33.358 -4.66423 -2.75927e-12
-4.66423 -19.8463 -8.68824e-13
-2.75927e-12 -8.68824e-13 -3.94447

3.43348 -16.6949 2.17086e-12
-16.6949 -52.6291 -4.10338e-13
2.17086e-12 -4.10338e-13 -21.5329

3.67461 16.1759 2.07567e-12
16.1759 -51.8848 -2.73618e-12
2.07567e-12 -2.73618e-12 -21.4061

6.5558 0.121884 -2.86023e-12
0.121884 -76.7553 -2.11513e-12
-2.86023e-12 -2.11513e-12 -13.3036

-7.56893 23.3747 8.31039e-13
23.3747 39.9353 -3.20928e-13
8.31039e-13 -3.20928e-13 -6.88466

-56.8896 36.1717 4.16408e-13
36.1717 -14.0114 -1.52604e-12
4.16408e-13 -1.52604e-12 -13.3884

-39.7945 -23.3957 4.72511e-13
-23.3957 2.56161 -2.46914e-13
4.72511e-13 -2.46914e-13 -8.80039

37.1164 23.3523 3.70311e-12
23.3523 -8.61247 1.04272e-12
3.70311e-12 1.04272e-12 -5.758

4.7355 23.8581 -1.46431e-12
23.8581 -38.2258 -1.55786e-12
-1.46431e-12 -1.55786e-12 -18.9858

24.0134 -31.3129 1.26595e-12
-31.3129 6.40866 -4.50247e-12
1.26595e-12 -4.50247e-12 -5.64755

2.43083 -3.23082 -2.80072e-13
-3.23082 -48.3697 2.20061e-12
-2.80072e-13 2.20061e-12 -14.7424

-60.4581 -34.1611 -1.79627e-12
-34.1611 -14.3498 1.95118e-12
-1.79627e-12 1.95118e-12 -14.0305

-17.4518 8.31979 -8.03672e-13
8.31979 45.6914 -1.3903e-12
-8.03672e-13 -1.3903e-12 -5.78041

-9.46814 21.8111 -3.43666e-12
21.8111 40.4247 7.38964e-13
-3.43666e-12 7.38964e-13 -6.65314

58.6028 35.7751 -2.1115e-12
35.7751 37.0878 5.27578e-12
-2.1115e-12 5.27578e-12 -6.91566

70.483 1.57872 1.97531e-12
1.57872 -5.54239 3.43895e-12
1.97531e-12 3.43895e-12 -10.3736

-30.7595 -22.8044 2.27966e-13
-22.8044 -13.3562 -6.6791e-13
2.27966e-13 -6.6791e-13 -14.4658

32.8411 31.1832 -1.67214e-12
31.1832 69.7933 6.24567e-12
-1.67214e-12 6.24567e-12 -6.67918

-19.3761 23.6097 -4.32839e-13
23.6097 7.68696 3.88193e-12
-4.32839e-13 3.88193e-12 -5.51267

47.6365 -5.34944 -3.91983e-12
-5.34944 -17.4324 9.579e-13
-3.91983e-12 9.579e-13 -6.82115

33.2192 11.2159 -2.88776e-12
11.2159 -23.636 -1.2997e-13
-2.88776e-12 -1.2997e-13 -6.01323

6.25432 0.429907 -1.51153e-12
0.429907 -77.5526 -1.00264e-12
-1.51153e-12 -1.00264e-12 -13.4493

-58.9361 -29.0312 4.04647e-12
-29.0312 -6.28805 -3.70459e-12
4.04647e-12 -3.70459e-12 -14.6968

-28.3321 -6.31908 -5.99891e-13
-6.31908 -11.3588 -8.58869e-13
-5.99891e-13 -8.58869e-13 -51.5906

-44.6983 37.4118 1.95103e-12
37.4118 -20.8116 9.4443e-13
1.95103e-12 9.4443e-13 -14.7732

93.7891 1.66326 -2.25242e-12
1.66326 16.6554 -2.56787e-12
-2.25242e-12 -2.56787e-12 -6.04293

10.0367 -32.7862 -4.59366e-12
-32.7862 21.311 -1.77636e-14
-4.59366e-12 -1.77636e-14 -6.80759

-56.9364 36.6132 -1.08084e-12
36.6132 -14.5713 5.93155e-13
-1.08084e-12 5.93155e-13 -13.5046

-35.0785 -11.1337 -3.28959e-12
-11.1337 19.177 1.69583e-12
-3.28959e-12 1.69583e-12 -8.3159

-5.47688 -25.514 -1.80271e-12
-25.514 37.3499 1.10134e-12
-1.80271e-12 1.10134e-12 -6.98643

-58.4526 28.8302 7.86519e-13
28.8302 -6.27143 5.49486e-13
7.86519e-13 5.49486e-13 -14.6139

28.4957 -26.1413 7.19306e-12
-26.1413 -4.91202 6.20541e-13
7.19306e-12 6.20541e-13 -4.69661

-21.1709 10.4834 2.92181e-12
10.4834 -18.559 -8.01463e-12
2.92181e-12 -8.01463e-12 -51.6861

3.43329 30.8713 3.62022e-12
30.8713 27.1625 7.51991e-13
3.62022e-12 7.51991e-13 -6.73238

6.14066 8.1268 -2.40859e-12
8.1268 -72.2982 2.03763e-12
-2.40859e-12 2.03763e-12 -14.984

-11.5455 30.1905 -1.23338e-12
30.1905 -20.6032 -1.38112e-12
-1.23338e-12 -1.38112e-12 -11.5488

-30.7972 23.3316 4.22625e-13
23.3316 -5.09957 3.45057e-12
4.22625e-13 3.45057e-12 -8.46374

-25.8638 -32.4891 9.8795e-13
-32.4891 -24.113 3.517e-13
9.8795e-13 3.517e-13 -21.559

9.2056 -23.1899 -2.26249e-12
-23.1899 -27.9219 1.6683e-12
-2.26249e-12 1.6683e-12 -11.4254

-37.6606 10.4709 2.506e-12
10.4709 8.9289 2.27137e-12
2.506e-12 2.27137e-12 -25.3314

-23.0401 -23.4335 2.64055e-12
-23.4335 4.95254 1.91195e-12
2.64055e-12 1.91195e-12 -6.26237

88.8019 -9.70757 -4.03825e-12
-9.70757 10.8074 8.34222e-13
-4.03825e-12 8.34222e-13 -10.0307

84.0421 -14.2769 -5.34565e-12
-14.2769 2.81294 -2.56447e-12
-5.34565e-12 -2.56447e-12 -13.1966

5.88817 16.5292 2.01498e-12
16.5292 -33.9324 -1.47734e-12
2.01498e-12 -1.47734e-12 -22.3762

-16.4208 22.5013 -2.25716e-12
22.5013 16.228 3.57936e-12
-2.25716e-12 3.57936e-12 -5.08465

-3.91214 29.1628 -2.84809e-13
29.1628 -12.2294 1.62862e-12
-2.84809e-13 1.62862e-12 -8.39575

50.992 0.68866 9.92391e-13
0.68866 -6.53116 2.7725e-12
9.92391e-13 2.7725e-12 -3.63385

-48.1409 6.57128 9.17479e-13
6.57128 14.7862 1.29437e-12
9.17479e-13 1.29437e-12 -18.9525

10.1157 16.5408 2.02445e-12
16.5408 -36.0793 -5.55792e-12
2.02445e-12 -5.55792e-12 -9.13503

-4.5031 -25.7605 2.52776e-12
-25.7605 35.5551 -1.79886e-12
2.52776e-12 -1.79886e-12 -6.74638

-39.1907 -2.57247 5.47162e-12
-2.57247 21.5042 -4.93827e-13
5.47162e-12 -4.93827e-13 -10.669

-7.99002 13.3648 8.15348e-13
13.3648 44.4048 2.41229e-12
8.15348e-13 2.41229e-12 -3.94372

3.73478 -29.713 -5.32907e-15
-29.713 -17.3642 1.41161e-12
-5.32907e-15 1.41161e-12 -8.92005

21.4259 -29.9468 4.96077e-12
-29.9468 14.7562 -1.01667e-12
4.96077e-12 -1.01667e-12 -3.91729

6.88128 31.6221 -1.37964e-13
31.6221 25.4016 -2.84217e-12
-1.37964e-13 -2.84217e-12 -6.82754

2.78572 -15.0202 1.17832e-12
-15.0202 -39.268 -5.2857e-12
1.17832e-12 -5.2857e-12 -63.3133

-46.1597 2.0412 -5.70433e-13
2.0412 11.4615 1.48918e-12
-5.70433e-13 1.48918e-12 -22.757

-55.4452 20.3003 2.37425e-12
20.3003 3.09599 -2.27551e-12
2.37425e-12 -2.27551e-12 -22.9161

5.91703 15.4392 1.27498e-12
15.4392 -58.8191 1.51582e-13
1.27498e-12 1.51582e-13 -23.0361

-18.9212 -26.1884 3.18116e-12
-26.1884 -12.9132 -9.41469e-14
3.18116e-12 -9.41469e-14 -9.65212

41.3456 17.9569 1.07174e-12
17.9569 -6.27039 4.02463e-12
1.07174e-12 4.02463e-12 -3.86082

-44.6829 -5.29424 1.71397e-12
-5.29424 4.53831 1.9984e-12
1.71397e-12 1.9984e-12 -39.1459

7.49924 -18.9882 -2.1115e-12
-18.9882 -39.8941 5.34683e-13
-2.1115e-12 5.34683e-13 -11.6596

30.2907 -15.5986 1.18015e-11
-15.5986 -20.5077 -1.06655e-12
1.18015e-11 -1.06655e-12 -4.80437

-9.63773 11.6029 -1.66889e-12
11.6029 44.3187 -1.20792e-13
-1.66889e-12 -1.20792e-13 -3.85847

8.33425 -25.7336 9.60002e-12
-25.7336 32.9915 1.79649e-12
9.60002e-12 1.79649e-12 -3.63244

-10.2448 -25.2738 -2.22489e-12
-25.2738 -19.0999 2.25005e-14
-2.22489e-12 2.25005e-14 -23.175

17.0051 31.9587 2.61421e-12
31.9587 11.1974 7.61465e-13
2.61421e-12 7.61465e-13 -5.7457

-1.06931 -25.1348 1.28401e-12
-25.1348 -30.7626 5.19584e-13
1.28401e-12 5.19584e-13 -20.8917

48.0644 2.59731 -3.59061e-12
2.59731 -8.40901 -3.37508e-12
-3.59061e-12 -3.37508e-12 -3.531

6.55275 -28.9298 3.66462e-12
-28.9298 72.049 3.07902e-14
3.66462e-12 3.07902e-14 -14.5513

21.7915 -29.2303 -3.96187e-12
-29.2303 13.9637 -1.71715e-14
-3.96187e-12 -1.71715e-14 -3.92967

35.3509 32.1582 2.15887e-12
32.1582 74.133 8.02913e-13
2.15887e-12 8.02913e-13 -5.44152

-45.2829 -11.877 -6.26654e-12
-11.877 13.9222 -3.59239e-12
-6.26654e-12 -3.59239e-12 -15.3261

-14.4196 -13.821 3.72887e-13
-13.821 43.3817 -5.44157e-12
3.72887e-13 -5.44157e-12 -5.67202

-19.244 -23.9884 4.64369e-13
-23.9884 -19.8306 5.6577e-13
4.64369e-13 5.6577e-13 -64.2552

2.4387 23.7702 2.31637e-12
23.7702 36.0063 9.74628e-13
2.31637e-12 9.74628e-13 -3.71045

-15.1822 -32.7262 3.86624e-12
-32.7262 -21.1187 -2.52568e-12
3.86624e-12 -2.52568e-12 -14.3126

-14.5643 -11.9628 2.29801e-12
-11.9628 45.5299 -1.88175e-12
2.29801e-12 -1.88175e-12 -5.73822

7.83565 -19.1169 -1.67096e-12
-19.1169 -43.1217 1.2393e-12
-1.67096e-12 1.2393e-12 -12.6317

6.54602 23.8765 -2.32407e-12
23.8765 35.1709 -7.12911e-13
-2.32407e-12 -7.12911e-13 -3.44142

23.1732 -4.97543 -8.05874e-13
-4.97543 -30.6755 -8.30595e-13
-8.05874e-13 -8.30595e-13 -5.3636

36.9697 -30.3421 -1.67333e-12
-30.3421 122.625 1.90189e-12
-1.67333e-12 1.90189e-12 -6.24201

-26.8685 21.0137 -2.40193e-12
21.0137 8.43432 2.2015e-12
-2.40193e-12 2.2015e-12 -7.12921

40.3379 -19.3228 1.18424e-14
-19.3228 -11.3716 8.55316e-13
1.18424e-14 8.55316e-13 -5.72523

6.52879 -21.4459 5.8753e-12
-21.4459 -45.5583 -3.99947e-12
5.8753e-12 -3.99947e-12 -24.972

20.7051 31.7532 -4.43734e-12
31.7532 9.55779 3.8843e-12
-4.43734e-12 3.8843e-12 -5.80527

13.919 -29.9712 9.10679e-13
-29.9712 -7.60508 2.91826e-12
9.10679e-13 2.91826e-12 -5.94349

6.7548 20.8851 -2.16242e-12
20.8851 -27.7916 2.77704e-13
-2.16242e-12 2.77704e-13 -11.1084

-38.2739 -28.0758 -4.6995e-12
-28.0758 -14.0376 -2.76816e-14
-4.6995e-12 -2.76816e-14 -11.0604

8.64668 -26.2246 1.66208e-12
-26.2246 31.1706 1.73609e-12
1.66208e-12 1.73609e-12 -3.63446

15.3316 28.9804 -2.03393e-12
28.9804 19.1538 2.45019e-12
-2.03393e-12 2.45019e-12 -3.88222

28.6401 26.1908 5.99461e-12
26.1908 -5.63259 -3.01211e-12
5.99461e-12 -3.01211e-12 -4.80119

7.91489 -14.6097 5.10407e-13
-14.6097 -36.8772 3.59031e-12
5.10407e-13 3.59031e-12 -13.9909

-6.84069 -16.6171 -5.11591e-13
-16.6171 41.3404 -8.08005e-12
-5.11591e-13 -8.08005e-12 -3.95866

17.4406 -17.5681 -1.88886e-12
-17.5681 -30.9985 -1.5928e-13
-1.88886e-12 -1.5928e-13 -7.10448

19.8419 16.9082 -2.50822e-12
16.9082 -31.6635 -1.85659e-12
-2.50822e-12 -1.85659e-12 -7.33368

-33.6793 -9.38702 -7.5732e-13
-9.38702 8.75595 2.52953e-12
-7.5732e-13 2.52953e-12 -23.993

43.4309 -13.4297 2.78296e-12
-13.4297 -8.36798 -7.43553e-13
2.78296e-12 -7.43553e-13 -3.8034

-19.3775 0.593989 -3.49158e-12
0.593989 43.1448 -2.65269e-12
-3.49158e-12 -2.65269e-12 -4.77465

28.0557 18.5547 -2.98013e-12
18.5547 -18.1981 3.57344e-13
-2.98013e-12 3.57344e-13 -4.74888

25.5282 27.6034 -2.56388e-12
27.6034 -3.77494 -1.58362e-12
-2.56388e-12 -1.58362e-12 -4.77034

-6.71449 -15.6857 -2.06413e-12
-15.6857 43.7979 -1.83557e-12
-2.06413e-12 -1.83557e-12 -3.8472

-19.9055 -1.2023 -1.18357e-12
-1.2023 42.1273 -6.63173e-14
-1.18357e-12 -6.63173e-14 -4.68621

-5.47319 29.1343 -5.59967e-12
29.1343 -23.6461 -1.68458e-13
-5.59967e-12 -1.68458e-13 -16.7967

-37.2731 -10.9219 -2.77482e-12
-10.9219 21.68 2.88066e-12
-2.77482e-12 2.88066e-12 -7.82928

27.1432 -26.7147 -5.59493e-12
-26.7147 -5.53008 -6.11185e-12
-5.59493e-12 -6.11185e-12 -4.94339

40.7185 21.332 6.4612e-12
21.332 -8.36929 -1.08358e-13
6.4612e-12 -1.08358e-13 -5.46675

12.378 23.6651 -4.61261e-13
23.6651 -27.1264 2.56476e-12
-4.61261e-13 2.56476e-12 -8.66631

-37.7958 5.47063 1.26195e-12
5.47063 23.3113 1.01904e-12
1.26195e-12 1.01904e-12 -8.59675

18.5931 29.0648 -1.83971e-12
29.0648 17.3778 -1.71892e-12
-1.83971e-12 -1.71892e-12 -3.94631

-9.98925 22.9638 3.07902e-14
22.9638 -14.9125 6.19934e-12
3.07902e-14 6.19934e-12 -24.0262

68.3151 -59.6906 -1.66504e-12
-59.6906 36.3345 8.91613e-12
-1.66504e-12 8.91613e-12 -23.0108

17.531 -25.0473 3.73509e-12
-25.0473 -17.9913 1.14072e-12
3.73509e-12 1.14072e-12 -6.41688

10.0587 7.06975 -2.32999e-12
7.06975 82.5491 4.6659e-12
-2.32999e-12 4.6659e-12 -7.16494

11.9205 -28.8887 1.5626e-12
-28.8887 -3.88108 -1.17536e-12
1.5626e-12 -1.17536e-12 -5.16497

-66.9451 -52.7006 1.78228e-12
-52.7006 143.248 7.67386e-13
1.78228e-12 7.67386e-13 -49.6698

-68.3883 51.4512 2.77467e-12
51.4512 142.535 1.84267e-12
2.77467e-12 1.84267e-12 -49.8589

19.5684 117.153 -4.76537e-12
117.153 64.1274 -3.69956e-12
-4.76537e-12 -3.69956e-12 -48.3604

20.5273 -117.096 2.79717e-12
-117.096 61.0243 -1.36424e-12
2.79717e-12 -1.36424e-12 -48.7251

157.741 -1.36335 2.32111e-12
-1.36335 -79.1872 2.66997e-14
2.32111e-12 2.66997e-14 -48.9121

110.324 -91.1248 5.68434e-14
-91.1248 -36.6905 -4.87906e-13
5.68434e-14 -4.87906e-13 -50.3066

110.377 91.6526 -1.26003e-12
91.6526 -36.5007 -4.49063e-12
-1.26003e-12 -4.49063e-12 -50.1795

7.8472 14.3301 -1.4128e-12
14.3301 -42.6813 2.11683e-13
-1.4128e-12 2.11683e-13 -15.0788

-11.7911 25.5367 5.50078e-13
25.5367 -27.4046 6.82121e-13
5.50078e-13 6.82121e-13 -35.1386

12.4381 6.60592 9.08192e-12
6.60592 -40.5329 2.25819e-13
9.08192e-12 2.25819e-13 -8.25168

26.2547 21.7842 6.51331e-14
21.7842 -19.5277 -3.57581e-12
6.51331e-14 -3.57581e-12 -5.85003

-21.2291 17.7441 -5.68612e-12
17.7441 29.8682 -2.58223e-12
-5.68612e-12 -2.58223e-12 -6.16149

22.5304 28.8979 -4.50662e-12
28.8979 -0.774943 -8.05282e-14
-4.50662e-12 -8.05282e-14 -4.72997

4.05578 -29.6631 -5.57184e-13
-29.6631 -17.4659 -2.95882e-12
-5.57184e-13 -2.95882e-12 -8.50376

25.9952 28.0272 -7.88702e-13
28.0272 -2.3011 3.47929e-12
-7.88702e-13 3.47929e-12 -4.73037

-19.3461 -2.84117 5.36312e-12
-2.84117 43.0708 -4.45037e-12
5.36312e-12 -4.45037e-12 -4.76919

-13.4118 -26.0975 -3.32416e-12
-26.0975 -25.8383 -7.85298e-13
-3.32416e-12 -7.85298e-13 -35.5218

-19.8412 -4.86226 5.21731e-12
-4.86226 41.7759 3.32652e-12
5.21731e-12 3.32652e-12 -4.74305

-1.82675 23.016 -7.21497e-12
23.016 -24.377 -2.79628e-12
-7.21497e-12 -2.79628e-12 -16.1498

44.982 26.8701 -3.65811e-12
26.8701 8.11183 -1.2772e-12
-3.65811e-12 -1.2772e-12 -5.36847

-52.5092 -13.216 1.93801e-12
-13.216 0.150489 -7.17944e-13
1.93801e-12 -7.17944e-13 -20.6174

20.2804 13.7277 -6.54884e-13
13.7277 -31.1406 1.16973e-12
-6.54884e-13 1.16973e-12 -7.04218

13.7008 -29.9871 -7.60754e-12
-29.9871 -6.69083 -2.90227e-12
-7.60754e-12 -2.90227e-12 -5.83442

29.6306 -24.713 -2.52243e-12
-24.713 -7.873 3.32564e-12
-2.52243e-12 3.32564e-12 -4.82435

5.765 -16.0744 9.65746e-13
-16.0744 -32.3341 -1.85985e-12
9.65746e-13 -1.85985e-12 -22.2557

12.6277 27.9285 -1.29437e-12
27.9285 -13.6381 3.37537e-12
-1.29437e-12 3.37537e-12 -6.41887

23.309 23.977 -2.0961e-13
23.977 -17.9424 -8.12091e-13
-2.0961e-13 -8.12091e-13 -5.96156

-31.076 -2.79296 -2.42961e-12
-2.79296 30.1315 -2.01439e-12
-2.42961e-12 -2.01439e-12 -6.39773

-28.6283 5.87329 -2.46519e-12
5.87329 33.3212 -1.5549e-12
-2.46519e-12 -1.5549e-12 -6.05852

34.5482 2.64666 -3.31468e-12
2.64666 -26.1823 -4.29242e-12
-3.31468e-12 -4.29242e-12 -6.14124

50.6507 -7.2895 -2.18137e-12
-7.2895 -14.0808 -3.62925e-12
-2.18137e-12 -3.62925e-12 -6.77795

11.0413 30.4842 -8.43769e-13
30.4842 -4.78702 4.4178e-12
-8.43769e-13 4.4178e-12 -5.96536

17.4676 -26.155 -4.71327e-13
-26.155 -17.4543 1.05279e-12
-4.71327e-13 1.05279e-12 -6.35099

-0.0845447 -21.2543 5.15232e-12
-21.2543 -27.9556 -1.70205e-12
5.15232e-12 -1.70205e-12 -17.1664

4.93937 -31.6331 7.51991e-14
-31.6331 4.8618 -2.22281e-12
7.51991e-14 -2.22281e-12 -5.93419

-8.22644 -27.785 7.9042e-12
-27.785 18.5789 7.86926e-13
7.9042e-12 7.86926e-13 -6.1288

-1.64975 29.8866 -7.42517e-13
29.8866 10.4476 -5.81402e-12
-7.42517e-13 -5.81402e-12 -5.79923

-26.0155 -9.57776 -8.94322e-13
-9.57776 32.9696 1.39148e-12
-8.94322e-13 1.39148e-12 -5.78619

-31.3219 -1.54472 -9.37768e-13
-1.54472 31.6506 1.36779e-13
-9.37768e-13 1.36779e-13 -6.22255

-38.9146 5.74796 -3.4243e-13
5.74796 23.9465 9.64562e-13
-3.4243e-13 9.64562e-13 -9.18215

-17.2172 -21.0887 -3.63117e-12
-21.0887 26.5709 1.6378e-12
-3.63117e-12 1.6378e-12 -5.77088

13.072 24.1109 -8.52651e-14
24.1109 -28.1006 1.99811e-12
-8.52651e-14 1.99811e-12 -9.20403

21.5549 -9.58961 -1.18009e-12
-9.58961 -31.7055 -3.63665e-12
-1.18009e-12 -3.63665e-12 -6.597

-27.1525 7.46517 2.98965e-12
7.46517 34.3344 -3.27679e-12
2.98965e-12 -3.27679e-12 -5.87292

-35.2348 -9.70104 -3.67242e-12
-9.70104 22.3135 2.28913e-12
-3.67242e-12 2.28913e-12 -8.18256

-29.1547 -16.3304 -4.94567e-12
-16.3304 19.3467 3.19567e-12
-4.94567e-12 3.19567e-12 -6.66068

36.9675 -8.23907 9.11863e-13
-8.23907 -20.2357 7.91574e-12
9.11863e-13 7.91574e-12 -5.10042

-14.8095 -32.3468 2.05732e-12
-32.3468 -21.6274 -3.41475e-12
2.05732e-12 -3.41475e-12 -12.9924

-22.8232 9.32068 7.88702e-13
9.32068 33.3232 -2.68585e-12
7.88702e-13 -2.68585e-12 -4.78777

-0.750885 -18.2126 -3.09856e-12
-18.2126 -35.1577 3.42408e-12
-3.09856e-12 3.42408e-12 -33.2782

4.9324 24.8223 -1.05989e-12
24.8223 75.3056 -1.97531e-12
-1.05989e-12 -1.97531e-12 -14.3187

-14.1417 -26.626 -2.00817e-12
-26.626 -16.3497 -1.59946e-12
-2.00817e-12 -1.59946e-12 -14.6403

-6.35702 -30.2028 1.29911e-12
-30.2028 -23.6019 -2.23051e-12
1.29911e-12 -2.23051e-12 -17.0875

-31.2697 -0.701324 1.2507e-12
-0.701324 31.5003 -1.15404e-12
1.2507e-12 -1.15404e-12 -6.34743

28.4875 -16.6224 1.94748e-12
-16.6224 -18.0561 -8.4673e-14
1.94748e-12 -8.4673e-14 -4.43698

-37.8042 12.8416 2.62494e-13
12.8416 11.1651 -7.98176e-13
2.62494e-13 -7.98176e-13 -10.9883

-8.8611 -3.18046 7.49001e-12
-3.18046 111.049 2.67164e-12
7.49001e-12 2.67164e-12 -22.6717

-31.6016 14.2735 4.24868e-12
14.2735 21.3504 4.00865e-12
4.24868e-12 4.00865e-12 -7.12339

12.4221 -29.4888 -1.01152e-11
-29.4888 -2.51916 9.50943e-13
-1.01152e-11 9.50943e-13 -4.9272

33.6316 25.1054 1.72662e-12
25.1054 124.028 -4.34142e-12
1.72662e-12 -4.34142e-12 -6.21434

-13.5028 26.0983 -1.23429e-11
26.0983 -19.0974 4.82873e-12
-1.23429e-11 4.82873e-12 -58.897

-9.55285 -27.8077 8.87734e-12
-27.8077 -22.807 3.72709e-12
8.87734e-12 3.72709e-12 -59.5474

-2.86546 -30.4187 9.99497e-13
-30.4187 -7.32072 -3.95506e-12
9.99497e-13 -3.95506e-12 -7.28635

3.86066 -31.1597 4.22654e-12
-31.1597 5.63598 2.80664e-13
4.22654e-12 2.80664e-13 -6.06141

25.1519 20.8272 -5.56592e-14
20.8272 -17.0336 -2.57513e-12
-5.56592e-14 -2.57513e-12 -4.97588

31.805 15.0059 1.44122e-12
15.0059 -23.3 1.89389e-12
1.44122e-12 1.89389e-12 -5.9537

-9.48898 3.08372 -6.32435e-12
3.08372 -9.83072 6.65601e-12
-6.32435e-12 6.65601e-12 -80.9402

-5.54917 -7.00038 2.78858e-12
-7.00038 -14.042 -3.7268e-12
2.78858e-12 -3.7268e-12 -80.2929

11.7485 4.82432 6.26758e-12
4.82432 -43.205 6.2926e-12
6.26758e-12 6.2926e-12 -7.82662

-35.056 6.73087 3.7567e-12
6.73087 24.3753 -4.45866e-13
3.7567e-12 -4.45866e-13 -7.56316

-36.1097 6.73631 4.18797e-12
6.73631 24.4326 1.5324e-12
4.18797e-12 1.5324e-12 -8.30813

74.5857 58.6336 -2.61243e-12
58.6336 34.1722 -9.45022e-13
-2.61243e-12 -9.45022e-13 -21.8731

-6.91924 -28.1993 3.43843e-12
-28.1993 16.8754 -2.27137e-12
3.43843e-12 -2.27137e-12 -6.11569

8.17208 17.9746 1.8335e-12
17.9746 -44.8757 6.4689e-13
1.8335e-12 6.4689e-13 -12.8963

32.7029 9.53965 4.46458e-13
9.53965 -19.0794 1.76659e-12
4.46458e-13 1.76659e-12 -4.07345

3.3882 -26.7229 1.84208e-12
-26.7229 13.4841 -2.6675e-12
1.84208e-12 -2.6675e-12 -3.8261

26.2375 -20.2374 3.76824e-12
-20.2374 -20.3222 3.53288e-12
3.76824e-12 3.53288e-12 -5.86228

65.3895 60.2315 5.27696e-12
60.2315 34.289 -9.85404e-12
5.27696e-12 -9.85404e-12 -23.8679

-13.2423 31.069 -1.67866e-12
31.069 -16.8809 -5.91083e-12
-1.67866e-12 -5.91083e-12 -12.7854

-18.6034 -19.7858 -2.58253e-12
-19.7858 28.4147 -1.40924e-12
-2.58253e-12 -1.40924e-12 -5.96854

11.1747 28.8574 2.26367e-12
28.8574 -13.3227 1.00779e-12
2.26367e-12 1.00779e-12 -6.43529

-31.8683 -4.14474 2.2223e-12
-4.14474 30.1478 -1.02259e-12
2.2223e-12 -1.02259e-12 -6.35699

-14.5957 19.6089 4.12411e-13
19.6089 27.1852 4.54807e-12
4.12411e-13 4.54807e-12 -4.41778

7.47955 30.5184 -4.71978e-12
30.5184 -1.66988 1.50161e-12
-4.71978e-12 1.50161e-12 -5.65957

-9.34426 -22.4729 2.28321e-12
-22.4729 23.1492 -1.32753e-12
2.28321e-12 -1.32753e-12 -4.17454

4.59094 -27.3522 3.15422e-12
-27.3522 11.4492 -3.87897e-12
3.15422e-12 -3.87897e-12 -3.93761

24.2716 11.2568 -9.06534e-13
11.2568 102.078 1.83083e-12
-9.06534e-13 1.83083e-12 -12.4051

37.4664 -33.4557 1.51582e-13
-33.4557 69.2849 -5.94487e-13
1.51582e-13 -5.94487e-13 -5.70289

-25.3344 -11.6904 1.80256e-12
-11.6904 31.3681 1.57326e-12
1.80256e-12 1.57326e-12 -5.64747

16.0967 26.4842 -4.8536e-12
26.4842 -15.5015 4.42609e-12
-4.8536e-12 4.42609e-12 -6.2166

4.95615 29.4776 -6.762e-13
29.4776 1.63724 -2.01439e-12
-6.762e-13 -2.01439e-12 -4.98906

-9.85404 -21.4336 5.36785e-12
-21.4336 25.1209 -9.166e-13
5.36785e-12 -9.166e-13 -4.03233

-21.6339 -11.7822 8.13867e-13
-11.7822 32.082 1.89478e-12
8.13867e-13 1.89478e-12 -4.63631

10.4632 28.4092 6.03961e-13
28.4092 -0.156118 9.25482e-13
6.03961e-13 9.25482e-13 -4.67201

-21.8461 -13.8776 -1.21088e-12
-13.8776 29.4673 7.44294e-13
-1.21088e-12 7.44294e-13 -4.84625

6.95885 27.8545 -5.61151e-12
27.8545 73.0841 5.46171e-12
-5.61151e-12 5.46171e-12 -14.3219

-45.8315 -4.04135 -9.43303e-13
-4.04135 14.048 2.16716e-12
-9.43303e-13 2.16716e-12 -19.9649

0.877614 31.0271 5.26986e-14
31.0271 7.52069 -7.92255e-13
5.26986e-14 -7.92255e-13 -6.08815

9.71932 14.9011 -4.3805e-12
14.9011 -36.4287 3.38426e-12
-4.3805e-12 3.38426e-12 -10.9848

9.92891 -15.9273 5.55408e-13
-15.9273 -39.4101 4.84649e-12
5.55408e-13 4.84649e-12 -13.0687

85.6123 -24.2042 -1.63899e-12
-24.2042 7.63602 8.32874e-12
-1.63899e-12 8.32874e-12 -12.9578

-23.2064 -21.267 1.30266e-14
-21.267 10.5139 1.66326e-12
1.30266e-14 1.66326e-12 -6.1644

-16.6004 26.698 1.75859e-12
26.698 1.7788 4.01101e-12
1.75859e-12 4.01101e-12 -6.58684

-26.2016 -21.7279 -3.25665e-12
-21.7279 -5.36457 -3.68287e-12
-3.25665e-12 -3.68287e-12 -23.8674

-41.5973 14.1069 2.71605e-12
14.1069 -3.56019 -7.07878e-12
2.71605e-12 -7.07878e-12 -64.1295

-0.893339 9.44535 -9.85138e-13
9.44535 -44.2601 2.50141e-12
-9.85138e-13 2.50141e-12 -64.2309

-20.3843 32.7056 1.32842e-12
32.7056 -23.2023 4.24401e-13
1.32842e-12 4.24401e-13 -24.3297

-11.4098 26 1.97768e-13
26 22.6041 1.713e-12
1.97768e-13 1.713e-12 -5.92477

16.0388 26.6612 3.69305e-12
26.6612 -17.2865 -3.59742e-12
3.69305e-12 -3.59742e-12 -6.54907

30.4281 45.1853 1.84149e-12
45.1853 47.5543 -7.14569e-12
1.84149e-12 -7.14569e-12 -15.1948

-44.8892 -11.3439 -4.02241e-12
-11.3439 -1.80811 -3.91213e-12
-4.02241e-12 -3.91213e-12 -61.6855

-8.29819 -3.43305 -3.28843e-12
-3.43305 -12.7555 8.03801e-14
-3.28843e-12 8.03801e-14 -77.2302

-14.6919 -0.210139 1.73195e-13
-0.210139 -6.41858 -2.03615e-13
1.73195e-13 -2.03615e-13 -77.3745

27.6647 -53.8019 -1.66385e-12
-53.8019 71.1478 -5.34091e-12
-1.66385e-12 -5.34091e-12 -24.3897

-11.6915 -11.6001 -2.23777e-12
-11.6001 -16.2044 7.51843e-12
-2.23777e-12 7.51843e-12 -37.4319

-32.6105 8.81316 2.56091e-12
8.81316 -9.41974 -1.59961e-12
2.56091e-12 -1.59961e-12 -49.5426

18.2563 -26.1993 3.69009e-12
-26.1993 -19.5457 2.73914e-12
3.69009e-12 2.73914e-12 -6.50581

-39.4298 1.01116 3.00833e-13
1.01116 11.9802 2.36788e-12
3.00833e-13 2.36788e-12 -19.722

-30.2019 -20.2677 2.18137e-12
-20.2677 6.3052 1.3151e-12
2.18137e-12 1.3151e-12 -7.21529

10.5366 6.25531 -1.61737e-12
6.25531 -52.3897 -1.54706e-12
-1.61737e-12 -1.54706e-12 -9.63906

-49.8126 15.5963 -2.06484e-12
15.5963 10.1655 -4.06578e-12
-2.06484e-12 -4.06578e-12 -13.5307

-40.2831 7.19166 2.67168e-12
7.19166 16.5415 -5.64289e-13
2.67168e-12 -5.64289e-13 -13.7739

16.405 20.3926 2.23939e-12
20.3926 -25.8402 -6.18468e-12
2.23939e-12 -6.18468e-12 -7.60697

-9.10012 -3.1139 -1.79123e-12
-3.1139 108.393 1.50398e-12
-1.79123e-12 1.50398e-12 -23.1021

-3.31974 -27.6234 -2.54434e-12
-27.6234 -3.62924 2.70421e-12
-2.54434e-12 2.70421e-12 -5.82923

-7.3348 -26.1161 -3.80436e-12
-26.1161 -14.0816 -2.02179e-12
-3.80436e-12 -2.02179e-12 -9.81017

-14.1981 -31.4837 2.44693e-12
-31.4837 -21.7779 -4.31758e-12
2.44693e-12 -4.31758e-12 -12.7553

90.7265 32.7491 2.10794e-13
32.7491 20.9062 -7.11016e-12
2.10794e-13 -7.11016e-12 -16.506

-23.1178 -20.1166 1.75978e-12
-20.1166 -17.3849 -6.9816e-12
1.75978e-12 -6.9816e-12 -44.4287

72.6295 54.3217 -1.66978e-12
54.3217 91.6395 -2.73085e-12
-1.66978e-12 -2.73085e-12 -6.14256

-36.2148 -21.4396 3.02425e-12
-21.4396 -6.79682 -2.24235e-12
3.02425e-12 -2.24235e-12 -13.0426

15.0339 14.6503 1.76511e-12
14.6503 -37.7512 -6.46653e-12
1.76511e-12 -6.46653e-12 -8.17813

44.5723 -14.5722 -6.21843e-12
-14.5722 -8.27118 5.20532e-12
-6.21843e-12 5.20532e-12 -4.4178

-21.2302 24.0465 -4.80505e-13
24.0465 4.95566 1.87702e-13
-4.80505e-13 1.87702e-13 -5.97561

17.3732 20.4278 5.50671e-14
20.4278 -26.7918 6.93371e-13
5.50671e-14 6.93371e-13 -6.95077

-51.1401 11.4007 1.07625e-12
11.4007 7.71058 3.57344e-12
1.07625e-12 3.57344e-12 -29.9946

-7.28667 -31.58 2.38387e-12
-31.58 -12.8264 -2.51473e-12
2.38387e-12 -2.51473e-12 -8.11839

2.79689 19.8124 1.06581e-13
19.8124 -46.0335 -1.07766e-13
1.06581e-13 -1.07766e-13 -29.9865

-24.6704 -18.4432 -1.39977e-12
-18.4432 17.8362 6.42508e-12
-1.39977e-12 6.42508e-12 -5.47929

-42.3402 4.28309 2.81023e-12
4.28309 17.8694 -2.55203e-13
2.81023e-12 -2.55203e-13 -12.7278

-4.09805 9.92666 -1.03381e-11
9.92666 -40.2763 1.36839e-12
-1.03381e-11 1.36839e-12 -47.55

-2.68826 -8.51326 2.46173e-12
-8.51326 -38.3075 5.77286e-12
2.46173e-12 5.77286e-12 -47.4057

81.7214 18.5121 -4.61379e-12
18.5121 1.70046 -1.10963e-12
-4.61379e-12 -1.10963e-12 -14.453

3.89494 7.96493 1.43915e-12
7.96493 -45.1827 -3.39284e-12
1.43915e-12 -3.39284e-12 -11.0176

35.8708 7.74034 8.95136e-13
7.74034 184.57 2.73322e-12
8.95136e-13 2.73322e-12 -9.75816

40.1442 -11.385 6.33071e-12
-11.385 190.368 -3.16428e-12
6.33071e-12 -3.16428e-12 -7.39001

53.7635 56.4062 -1.79294e-12
56.4062 159.252 1.35951e-12
-1.79294e-12 1.35951e-12 -11.5009

1.70917 -28.9503 -7.11312e-12
-28.9503 -24.6906 -1.81129e-12
-7.11312e-12 -1.81129e-12 -11.9624

16.0485 -49.1896 4.53563e-12
-49.1896 99.417 -2.8327e-12
4.53563e-12 -2.8327e-12 -21.6895

54.5114 -55.9488 -6.23383e-12
-55.9488 149.969 -1.75267e-12
-6.23383e-12 -1.75267e-12 -13.6657

-2.16518 26.2196 -4.1324e-12
26.2196 17.5727 -2.94698e-12
-4.1324e-12 -2.94698e-12 -3.9951

134.936 73.8428 5.43802e-12
73.8428 85.0229 -1.80478e-12
5.43802e-12 -1.80478e-12 -10.16

-18.7195 13.0474 -5.74e-12
13.0474 -3.90037 3.04023e-12
-5.74e-12 3.04023e-12 -26.77

3.74116 0.0391674 1.5891e-12
0.0391674 -26.1888 -3.68831e-12
1.5891e-12 -3.68831e-12 -26.7732

144.094 -73.1283 -8.28967e-13
-73.1283 85.3504 3.78956e-14
-8.28967e-13 3.78956e-14 -8.19726

-21.3921 -23.4236 1.73224e-12
-23.4236 12.2482 3.0731e-12
1.73224e-12 3.0731e-12 -6.49024

89.3445 34.7285 -8.31335e-13
34.7285 41.3892 1.81425e-12
-8.31335e-13 1.81425e-12 -11.5482

72.1851 63.4899 -6.627e-12
63.4899 149.69 8.66862e-13
-6.627e-12 8.66862e-13 -9.67457

26.164 21.6297 -8.78349e-12
21.6297 100.131 -5.47118e-13
-8.78349e-12 -5.47118e-13 -13.0317

73.8719 -65.9187 -8.57388e-13
-65.9187 151.141 -2.71427e-12
-8.57388e-13 -2.71427e-12 -9.40313

25.7685 -12.3808 -6.24153e-12
-12.3808 105.01 2.20268e-13
-6.24153e-12 2.20268e-13 -12.4287

-28.6639 6.84196 -3.76617e-12
6.84196 3.10669 -1.86814e-13
-3.76617e-12 -1.86814e-13 -37.8545

37.7422 -45.9738 8.90547e-13
-45.9738 49.6684 -9.166e-13
8.90547e-13 -9.166e-13 -15.5323

14.4433 47.5309 -7.91781e-12
47.5309 94.8776 -8.47914e-13
-7.91781e-12 -8.47914e-13 -22.1926

173.335 37.9108 2.38269e-12
37.9108 48.04 9.40285e-13
2.38269e-12 9.40285e-13 -9.5232

7.02105 -29.2853 1.14279e-12
-29.2853 -14.358 1.08654e-13
1.14279e-12 1.08654e-13 -7.15536

-38.417 12.8967 -1.03872e-12
12.8967 6.43527 -3.6741e-12
-1.03872e-12 -3.6741e-12 -15.2903

88.5027 -38.1116 -4.64221e-13
-38.1116 34.1622 1.79294e-12
-4.64221e-13 1.79294e-12 -14.0999

6.04195 -28.8018 -6.96924e-13
-28.8018 -16.1712 -6.72736e-12
-6.96924e-13 -6.72736e-12 -8.02921

169.202 -36.3427 1.0895e-13
-36.3427 34.9276 -2.53308e-12
1.0895e-13 -2.53308e-12 -13.291

-5.72488 -28.3171 -1.32753e-12
-28.3171 -14.4724 1.0146e-12
-1.32753e-12 1.0146e-12 -9.30881

-17.7898 -25.2944 9.18969e-13
-25.2944 12.0804 4.43497e-12
9.18969e-13 4.43497e-12 -5.9334

118.873 69.4593 -2.67164e-12
69.4593 96.2165 -1.86399e-12
-2.67164e-12 -1.86399e-12 -11.4012

29.4123 -22.9323 6.23975e-12
-22.9323 97.794 4.56168e-12
6.23975e-12 4.56168e-12 -14.3403

117.956 -71.6913 8.81073e-13
-71.6913 93.6779 3.58114e-12
8.81073e-13 3.58114e-12 -12.4172

22.264 50.7364 -2.68111e-12
50.7364 73.7765 3.45561e-12
-2.68111e-12 3.45561e-12 -24.7777

-1.53589 -30.2117 -6.30666e-12
-30.2117 -6.55202 -1.5931e-12
-6.30666e-12 -1.5931e-12 -6.99709

-7.04532 -14.6402 3.10774e-12
-14.6402 -21.9193 7.68689e-12
3.10774e-12 7.68689e-12 -32.615

-11.8921 11.0928 1.21569e-11
11.0928 -16.4312 4.21145e-12
1.21569e-11 4.21145e-12 -77.7966

-26.1696 -5.15996 -5.47222e-12
-5.15996 -6.38739 -1.76706e-11
-5.47222e-12 -1.76706e-11 -77.6304

-38.9405 13.0836 1.90614e-12
13.0836 13.7444 3.02336e-12
1.90614e-12 3.02336e-12 -10.2383

-14.4807 -10.6672 2.44789e-12
-10.6672 -17.3188 4.77929e-12
2.44789e-12 4.77929e-12 -78.7594

-25.9033 4.09169 2.43672e-12
4.09169 -5.91389 5.54068e-12
2.43672e-12 5.54068e-12 -78.9016

-3.63396 7.43434 -7.39305e-12
7.43434 -27.861 -3.78586e-12
-7.39305e-12 -3.78586e-12 -77.9888

-43.9758 -12.1154 4.37302e-12
-12.1154 2.91635 -7.22133e-12
4.37302e-12 -7.22133e-12 -68.1599

11.9737 -30.4694 6.18527e-12
-30.4694 76.1617 -7.74492e-13
6.18527e-12 -7.74492e-13 -14.7009

0.521996 -12.9721 -3.60068e-12
-12.9721 -39.991 5.18637e-12
-3.60068e-12 5.18637e-12 -45.2781

-16.3488 -34.4179 -2.59644e-12
-34.4179 -22.0684 4.49862e-13
-2.59644e-12 4.49862e-13 -23.5902

-2.42049 -18.1768 -6.02777e-13
-18.1768 -29.8955 2.17308e-12
-6.02777e-13 2.17308e-12 -33.6272

12.7384 15.459 -6.38304e-13
15.459 -37.7157 4.90156e-12
-6.38304e-13 4.90156e-12 -9.62463

-46.9092 9.86441 -7.5151e-13
9.86441 8.87781 7.16271e-12
-7.5151e-13 7.16271e-12 -70.1558

3.46277 19.2278 1.96583e-13
19.2278 -41.4726 1.61093e-12
1.96583e-13 1.61093e-12 -70.2716

1.47247 11.3061 1.54543e-13
11.3061 -23.9652 5.74725e-12
1.54543e-13 5.74725e-12 -31.8684

109.39 -15.3391 2.60532e-14
-15.3391 -12.5355 1.81188e-12
2.60532e-14 1.81188e-12 -25.0373

-14.3198 24.9637 -4.32869e-12
24.9637 10.3863 1.97176e-13
-4.32869e-12 1.97176e-13 -5.80392

76.6057 -61.3537 7.14095e-12
-61.3537 37.3645 4.403e-12
7.14095e-12 4.403e-12 -22.3955

76.1131 -57.4564 -1.06581e-13
-57.4564 99.2269 -1.12503e-12
-1.06581e-13 -1.12503e-12 -5.55553

118.195 -36.5435 1.45898e-12
-36.5435 40.6004 7.964e-12
1.45898e-12 7.964e-12 -7.37866

-51.1152 -5.15898 -3.43725e-12
-5.15898 3.34088 -9.09199e-13
-3.43725e-12 -9.09199e-13 -60.662

-50.4791 2.89122 2.49785e-12
2.89122 3.13514 -6.1684e-13
2.49785e-12 -6.1684e-13 -60.1345

-11.9756 -24.4567 -2.53723e-12
-24.4567 -35.004 1.22583e-12
-2.53723e-12 1.22583e-12 -59.1686

-8.99204 -21.7609 5.46341e-13
-21.7609 -37.8887 6.54114e-12
5.46341e-13 6.54114e-12 -59.4782

-14.7028 26.1364 2.08988e-12
26.1364 -33.0283 1.06996e-12
2.08988e-12 1.06996e-12 -60.7531

-18.158 3.09971 1.9608e-12
3.09971 -13.1648 -2.37439e-11
1.9608e-12 -2.37439e-11 -75.481

-9.94511 -20.5092 3.94795e-12
-20.5092 -32.6513 -8.51674e-12
3.94795e-12 -8.51674e-12 -56.7388

-26.649 -18.5685 5.71099e-12
-18.5685 -14.196 -1.67422e-12
5.71099e-12 -1.67422e-12 -71.2746

-15.4795 2.4347 7.37321e-12
2.4347 -12.8528 -4.68588e-12
7.37321e-12 -4.68588e-12 -77.8756

-6.02759 -20.5266 5.54053e-12
-20.5266 -41.4878 8.76632e-13
5.54053e-12 8.76632e-13 -60.5093

-6.75689 20.9562 4.21781e-12
20.9562 -40.1441 1.20496e-12
4.21781e-12 1.20496e-12 -60.0204

-14.3167 -3.45874 1.55653e-12
-3.45874 -11.3903 4.68855e-12
1.55653e-12 4.68855e-12 -76.89

-11.2644 -3.1175 -3.91924e-12
-3.1175 -17.6897 9.92332e-12
-3.91924e-12 9.92332e-12 -74.0527

-24.2046 12.1098 -7.50762e-12
12.1098 -13.4007 4.89853e-12
-7.50762e-12 4.89853e-12 -69.9707

-22.0828 26.93 2.91026e-13
26.93 -26.2671 -2.5475e-14
2.91026e-13 -2.5475e-14 -57.5844

VECTORS fluid_flux_TPM float
-8.72051e-05 3.10231e-05 3.02649e-21
3.55895e-06 6.88141e-06 1.16791e-20
-1.27853e-05 -1.02238e-05 -1.36166e-20
-4.1699e-06 4.25332e-06 -3.38999e-21
2.2704e-05 -6.31226e-06 -3.19023e-20
2.75712e-06 -1.5901e-05 -1.40335e-20
-8.57812e-05 -3.10879e-05 -8.75509e-21
-1.38901e-05 -1.0465e-05 -4.90339e-21
2.21182e-05 9.45367e-07 -8.17969e-21
1.13822e-05 -3.90746e-06 -1.1476e-20
5.45922e-05 1.24821e-05 7.32838e-21
2.34647e-06 -1.71913e-05 5.87775e-21
1.36093e-05 1.1252e-05 6.44132e-21
2.66164e-06 1.37823e-05 -3.71382e-22
2.05777e-05 -2.94617e-06 -2.62277e-20
-1.63297e-05 -2.72855e-07 -3.30479e-21
2.75307e-06 1.40965e-05 -8.97382e-22
1.01801e-05 -2.3915e-06 1.12265e-20
9.89701e-06 1.722e-05 -1.53701e-20
-1.48461e-05 1.88515e-06 -3.92234e-21
-3.60061e-06 -2.13006e-05 -9.9044e-21
3.41061e-05 5.94091e-05 7.59304e-21
1.5695e-05 1.63105e-06 -3.43186e-22
1.12255e-05 -1.12797e-05 -4.77969e-21
-1.5076e-05 -3.33188e-06 -6.80937e-21
-6.77124e-07 -1.11291e-05 -1.48581e-20
6.28947e-05 -4.90779e-06 5.84379e-21
1.40638e-05 1.02473e-05 5.04616e-21
-2.5146e-05 -2.06398e-05 -1.38248e-22
4.91135e-05 -1.28121e-05 -2.34643e-20
-1.65799e-05 -6.03742e-06 -1.52592e-20
5.53628e-06 -3.20324e-05 -8.746e-21
4.76481e-05 -4.80411e-05 2.56174e-21
-4.92272e-06 -4.12425e-05 -8.25528e-22
-2.96695e-05 3.70006e-05 1.95468e-20
-3.82426e-05 -1.6393e-05 2.13231e-20
3.26984e-05 4.321e-05 1.00011e-20
-4.47351e-05 -8.72475e-06 -3.29628e-20
1.43725e-05 -1.10803e-05 -7.88895e-21
4.64641e-05 5.01089e-05 9.43598e-21
3.21253e-05 -1.40203e-05 -1.91564e-20
3.36358e-05 -4.23382e-05 -1.72637e-20
-1.98939e-05 -5.03721e-05 5.04966e-20
-1.58958e-05 6.35595e-06 -1.48948e-20
3.05215e-05 -2.93107e-05 -1.05186e-20
-3.03287e-05 1.09888e-05 -1.0401e-20
-4.04971e-06 -2.03681e-05 -9.87408e-21
7.88513e-06 2.02093e-05 -3.00754e-20
-1.63405e-05 5.92711e-06 -3.43516e-21
-1.78177e-05 2.87222e-05 -2.43484e-20
3.24048e-05 1.52891e-05 1.11355e-20
2.93617e-05 -1.0074e-05 -1.59383e-20
-1.56645e-05 1.57586e-05 1.60814e-20
-2.35385e-05 -2.06879e-05 4.49714e-21
-2.11375e-05 -5.13187e-06 -4.05037e-20
-4.47865e-05 2.7073e-05 -1.82863e-20
-2.93687e-05 -3.8019e-05 -4.32556e-21
6.36272e-06 -3.06245e-05 -2.98626e-22
-4.77027e-05 6.48218e-06 2.01435e-20
6.07346e-06 1.36956e-05 -2.6616e-20
-5.57625e-06 -8.17263e-06 -5.53699e-21
-6.5829e-06 -1.79419e-05 1.17834e-20
5.71385e-05 2.48573e-05 1.35483e-21
9.24197e-06 1.81426e-05 7.5457e-22
1.22954e-05 -1.44437e-05 -1.08915e-20
-1.64044e-06 -2.07506e-05 -1.48754e-20
4.62067e-06 -8.80474e-06 -3.03229e-21
-1.00896e-05 -5.56439e-06 -1.87628e-21
-1.06017e-05 1.19282e-05 6.19966e-22
2.55797e-06 -4.09224e-06 -2.34583e-20
-1.50421e-05 -1.58418e-05 -6.15e-21
-2.1363e-05 5.16547e-06 -1.36421e-22
-3.55654e-06 3.44783e-05 -2.58624e-20
-1.78703e-05 1.07099e-05 -8.60199e-21
-9.07003e-06 1.46134e-05 4.98614e-21
-6.03496e-05 7.69143e-06 -8.70871e-21
7.81739e-06 -2.16797e-05 -1.32022e-20
-1.88785e-05 -8.89932e-06 1.06114e-20
1.93355e-06 1.16231e-05 3.29053e-21
2.62988e-05 5.08922e-06 1.03485e-20
3.41662e-05 -2.89727e-05 3.23468e-22
2.21446e-05 2.05545e-05 1.58403e-21
1.19075e-05 -2.82209e-06 -4.67573e-21
-3.21511e-05 2.40651e-05 -1.20029e-20
3.79013e-05 4.84546e-06 6.31181e-22
-4.98048e-06 4.94106e-05 -1.94601e-20
-1.74098e-06 -1.68558e-05 -2.78641e-21
1.81224e-05 9.95386e-06 2.1196e-20
2.9315e-05 3.02834e-05 2.1564e-21
5.50203e-05 3.80104e-05 -3.23292e-21
-5.33093e-06 3.07704e-05 -1.25189e-20
5.9175e-05 -3.55096e-05 -1.45792e-20
-2.71227e-05 5.34075e-06 -2.57529e-20
1.78379e-05 1.1001e-05 -6.14812e-22
-2.96387e-05 9.90251e-06 -1.37334e-20
1.66517e-05 2.85189e-05 2.00992e-20
1.0168e-05 -4.43831e-05 -2.50381e-20
1.91532e-06 1.16199e-05 -9.27533e-21
-1.47996e-05 -1.76187e-05 2.62844e-20
3.06964e-06 1.74733e-05 -1.79977e-20
2.64048e-05 5.25707e-06 1.34781e-20
-1.54421e-05 3.32085e-05 -2.71147e-20
4.0549e-05 -1.33321e-05 -1.52792e-20
-3.77277e-06 7.45445e-06 -3.58372e-21
9.95206e-06 5.89885e-06 -1.89505e-20
-2.28041e-06 -1.13237e-05 -8.48469e-21
3.2204e-06 -1.92504e-05 -2.66448e-20
1.7468e-05 3.89178e-06 1.34805e-20
-7.9366e-06 4.09694e-05 -2.91635e-20
-9.80485e-06 2.47903e-07 -1.77952e-20
9.31778e-06 1.18848e-05 -2.35435e-20
-2.1772e-06 -4.17106e-05 -2.34577e-20
4.20197e-05 1.2864e-05 1.15815e-20
4.4222e-06 -7.45261e-06 1.12738e-20
-1.11443e-05 -3.55336e-06 1.24695e-20
-2.93233e-05 -1.2485e-05 -1.32143e-20
1.58025e-05 4.1144e-05 -6.08452e-21
-4.34815e-05 -1.55725e-05 -5.81834e-21
1.60173e-05 -4.11205e-05 -1.46583e-20
-3.69953e-06 -3.19176e-05 -1.87268e-20
2.18371e-05 6.52114e-07 -1.24989e-20
-7.17093e-06 1.83952e-05 4.5417e-21
-1.61107e-06 3.96926e-06 1.71752e-20
-3.68569e-06 -1.65374e-05 -1.1775e-21
5.22957e-06 -8.30145e-06 -1.53453e-20
9.35875e-06 1.58623e-05 5.32387e-21
3.30986e-05 1.06515e-05 -1.66759e-20
8.61478e-06 -7.45745e-06 9.82222e-21
-8.27029e-06 -4.51563e-05 -1.63187e-20
2.55501e-05 -1.88184e-05 -1.12862e-20
4.97752e-06 2.7769e-05 -1.19873e-21
-2.81611e-06 -2.84138e-06 8.47947e-22
-8.62557e-06 -8.32519e-06 -1.40247e-20
-4.7763e-06 4.41244e-08 -3.1098e-20
-2.28708e-05 2.85918e-05 -2.41458e-20
1.87616e-05 -3.7372e-05 -7.34326e-21
-2.65779e-05 4.27109e-05 -1.47641e-20
-1.63704e-05 9.53448e-06 1.24297e-22
2.52775e-06 1.21979e-05 -2.86594e-20
-2.29849e-05 -3.49865e-05 3.83913e-20
1.3935e-05 3.34633e-05 -2.1562e-20
1.75063e-05 9.36844e-06 2.05506e-20
2.28096e-05 -8.52196e-06 -1.58082e-20
-1.2531e-06 -1.12645e-05 -1.2216e-20
-3.39088e-05 -3.15553e-05 9.0728e-21
-2.75126e-06 1.13024e-05 1.23321e-20
1.72453e-05 1.01709e-05 2.4694e-20
1.88858e-05 -8.8201e-06 -5.55035e-21
8.24248e-06 -1.43437e-05 -5.36055e-21
2.43549e-05 -1.07944e-05 -5.64675e-21
1.90079e-05 -8.99711e-06 -1.15336e-20
4.64023e-06 2.05781e-07 1.30655e-20
2.57384e-05 2.02194e-05 1.02958e-20
-2.7414e-06 -1.70285e-05 -1.62357e-20
-1.04789e-05 -4.45661e-06 -1.56263e-20
1.12575e-06 -3.88974e-06 -2.16714e-20
-3.15479e-06 1.58456e-05 3.05043e-21
-3.48803e-05 2.76786e-06 5.3645e-21
-1.21205e-05 -3.32553e-05 -4.37346e-21
-7.8784e-06 9.77816e-06 -3.74318e-21
1.35641e-05 1.66389e-05 -1.75135e-20
2.65662e-05 -1.87431e-05 -5.7953e-21
-3.67891e-05 -2.03489e-05 -1.79437e-20
1.74015e-05 -2.75052e-05 -1.17355e-21
2.28019e-05 -2.72142e-05 6.09659e-22
-1.09434e-05 3.7846e-06 -3.10901e-20
-1.98272e-05 -2.88376e-05 -1.77958e-20
-3.48767e-05 -5.79089e-06 1.41169e-20
-3.85213e-06 -3.17398e-05 -6.37798e-21
1.54463e-05 -3.16964e-05 -6.41739e-21
-9.10536e-06 -2.61972e-05 -2.06946e-20
4.58078e-06 3.14027e-05 -6.63416e-21
-1.5751e-05 -2.85195e-05 -1.14627e-21
2.93855e-06 -1.62908e-05 -7.30963e-21
-2.47371e-05 1.82582e-05 -7.7401e-21
-1.50295e-05 -1.21101e-05 2.45824e-20
-2.73504e-05 -5.17198e-06 -2.64662e-21
1.56667e-05 -9.18079e-06 8.03202e-21
-4.30656e-06 2.39504e-05 -1.09518e-20
1.22315e-05 -9.32369e-06 -7.45178e-21
-2.95833e-05 -1.3163e-05 -2.72545e-21
-8.83091e-06 -7.45744e-06 -7.43998e-21
9.08131e-06 7.5402e-06 -1.86925e-20
2.1425e-05 2.86983e-05 1.31779e-20
-1.75074e-05 -1.08083e-05 2.35086e-20
-3.25033e-05 -7.51008e-07 -3.33754e-21
-1.63353e-05 -5.01572e-06 -1.36854e-20
-4.57774e-06 -1.65818e-05 -9.45875e-21
1.76832e-05 2.12374e-05 -4.66935e-21
-1.09564e-05 5.87425e-06 -1.05022e-20
6.35983e-07 -2.05536e-05 -7.99113e-21
-4.19361e-05 1.08499e-05 6.05479e-21
2.48584e-05 2.02446e-05 -4.94674e-21
3.79414e-06 3.27826e-05 -1.36497e-20
-2.43176e-06 3.79688e-06 -2.89766e-21
-9.05015e-06 2.5118e-07 -1.67056e-20
4.35472e-06 7.75945e-06 -1.33711e-20
-1.1693e-05 3.40118e-06 -1.43451e-20
-2.07321e-06 -3.78462e-06 1.38613e-20
1.65964e-06 2.07582e-05 -4.12517e-21
4.47203e-06 4.49664e-07 -2.15881e-20
-1.95365e-05 4.75624e-06 1.39092e-20
-1.7297e-05 1.93564e-05 -1.77648e-20
-3.10719e-06 1.15772e-05 -1.23218e-20
-2.92146e-05 1.83928e-05 1.14565e-21
-9.34262e-06 8.9786e-06 -2.26312e-21
1.73098e-05 -1.16129e-05 5.1524e-23
3.66013e-05 -3.56441e-06 -8.91183e-21
-2.1139e-05 1.12964e-05 -2.68686e-20
2.23283e-06 4.49788e-06 -3.12966e-20
2.17736e-05 -4.34455e-06 -1.72319e-20
-1.72775e-05 1.0352e-05 -3.28813e-21
-9.87098e-06 5.53859e-06 -2.40631e-20
1.18305e-05 3.74239e-06 -1.55654e-20
2.18781e-05 -1.34701e-05 -9.71128e-21
-1.73786e-05 9.9553e-06 -4.68056e-21
-2.50349e-05 -5.30261e-06 3.06742e-21
-1.67604e-05 -4.36212e-06 -1.93782e-21
9.87542e-06 6.23555e-09 7.607e-21
1.01731e-05 1.95347e-07 -4.24461e-22
4.39041e-06 8.3165e-06 -7.32143e-21
4.82916e-06 -8.79706e-06 -1.2648e-20
-5.00995e-06 8.41916e-06 -1.79134e-20
-5.26625e-06 -8.65691e-06 2.23554e-21
9.91021e-06 -7.40742e-06 -1.30181e-21
-2.03258e-05 3.23466e-06 1.63374e-21
-2.00583e-05 -3.28347e-06 -2.28377e-20
-1.28337e-05 1.58752e-05 2.06404e-20
-1.29135e-05 -1.59295e-05 -9.78312e-21
7.48567e-06 -1.98421e-05 -1.14924e-20
7.20544e-06 1.97622e-05 -2.8628e-21
1.55765e-06 2.58829e-05 7.00491e-21
1.12395e-05 -3.13658e-06 -1.08654e-20
2.35971e-06 -3.86622e-06 2.15338e-20
-2.14096e-05 1.42157e-06 1.0945e-22
7.67656e-06 -1.95114e-05 -2.85326e-20
7.27284e-06 1.966e-05 -1.53441e-20
4.76841e-06 -5.27101e-08 -1.97412e-20
8.96743e-06 2.44011e-05 -4.52595e-21
-2.24211e-06 -4.01599e-06 -2.14483e-20
2.31755e-06 -1.1316e-05 4.56868e-21
-2.24285e-05 -1.21505e-05 -6.92124e-21
-2.13562e-05 -1.14936e-05 1.40471e-20
-2.18906e-05 1.36273e-05 -8.58744e-21
3.25096e-06 -1.22865e-05 -1.63473e-20
-1.5652e-06 3.38165e-06 -1.58779e-20
-5.87316e-07 -2.55665e-05 -1.28603e-20
-7.71951e-06 -2.44204e-05 4.93308e-21
3.27007e-05 3.03595e-05 4.01813e-21
3.54496e-05 -1.81501e-06 -1.88933e-21
-1.27098e-05 -3.63181e-06 -1.49011e-20
-2.28902e-05 -4.13815e-05 1.35817e-21
8.30337e-06 1.37465e-05 -1.32847e-20
-2.52331e-05 3.03297e-06 1.56828e-21
2.0063e-05 5.7858e-06 -1.14623e-20
-4.53265e-06 -3.27396e-08 7.34627e-21
-4.66471e-06 -8.41186e-06 6.6681e-21
-7.07215e-06 -3.93286e-05 1.01236e-20
-9.70732e-06 -8.39038e-08 -2.40934e-20
-4.86688e-05 -1.81551e-06 -8.58566e-22
1.73068e-05 -1.91032e-05 1.92539e-21
2.42909e-06 3.99865e-06 -1.70441e-21
-1.20633e-07 -1.75117e-05 -2.09823e-20
-9.81737e-06 2.40811e-05 -2.93072e-20
-4.37158e-06 8.62646e-06 -1.19841e-21
2.05539e-05 -1.36045e-05 -2.37423e-20
-3.76546e-05 -1.35499e-05 2.88388e-20
-1.5264e-05 -2.03634e-05 2.28404e-21
4.9765e-06 8.3881e-06 -3.34776e-20
1.66292e-05 5.15997e-06 -4.9322e-21
-4.76332e-06 -7.3374e-06 -7.3466e-21
1.97941e-05 3.54675e-06 -2.69489e-20
1.81862e-05 -9.82454e-06 -1.36958e-20
-3.48782e-07 2.71692e-05 -5.99872e-21
8.31926e-06 -1.36649e-05 1.35248e-20
4.87972e-05 2.20028e-06 -2.3841e-21
-4.23507e-05 1.14517e-05 -9.62729e-21
2.28566e-05 1.15545e-05 -9.35293e-21
-6.45197e-06 -1.71766e-05 5.73404e-21
-1.53475e-05 -8.61679e-06 -1.73265e-20
2.87829e-05 -2.10513e-07 7.15589e-21
-6.91875e-07 -2.42511e-05 -2.34022e-20
-1.26154e-05 -1.08723e-05 -6.12088e-21
1.02222e-05 -2.34958e-05 -1.96452e-22
-4.96531e-07 2.0552e-05 -2.65847e-21
7.91637e-06 2.60634e-05 -8.00991e-21
1.7265e-05 -9.88262e-06 2.82942e-21
-1.89447e-05 1.92953e-05 -1.47584e-20
1.6525e-05 2.0026e-05 -1.28269e-20
-6.222e-05 1.60192e-05 -3.51453e-20
-1.01074e-05 2.60117e-05 -1.58221e-21
1.25169e-05 -1.52457e-05 -1.29815e-20
-7.02789e-06 -1.83946e-05 3.4233e-20
-1.18515e-05 4.5049e-06 -4.23977e-21
-2.58889e-05 -7.04457e-06 -3.76317e-21
-6.38502e-06 3.88512e-05 7.62761e-21
-1.26037e-05 1.19004e-05 -1.35645e-20
2.0773e-05 -4.47483e-06 -1.30149e-21
-6.87129e-06 -2.57897e-05 -2.65721e-20
-1.48662e-05 2.38868e-05 -1.02427e-20
-2.17852e-05 1.25626e-05 -1.01748e-20
-2.05659e-05 -1.50528e-05 4.65812e-21
1.80255e-05 -2.06515e-05 -1.22248e-20
-2.75259e-05 -1.45599e-06 -1.00068e-20
1.23649e-05 -4.08032e-05 -4.42624e-22
1.93829e-05 -1.89099e-05 -1.14809e-20
2.47283e-05 4.30744e-05 -1.76989e-21
1.97078e-06 1.98631e-05 1.81971e-20
2.96057e-06 -2.54168e-05 -2.16848e-20
-4.16292e-05 4.69537e-05 4.07151e-22
-1.26999e-05 -2.44073e-05 -5.89625e-21
1.6364e-05 -6.41943e-06 -1.75478e-20
-2.4105e-06 2.57678e-05 5.35381e-22
1.28808e-05 -1.18244e-05 -1.30453e-21
1.38781e-05 2.43088e-05 4.11697e-21
1.72269e-05 -1.40025e-06 1.22581e-20
2.21162e-05 -6.32056e-05 3.56582e-21
-5.87511e-06 -1.2857e-05 -1.24461e-20
-2.31803e-05 1.00853e-05 1.39049e-20
-2.00165e-05 1.87157e-05 -1.25895e-20
2.16086e-05 1.45651e-05 6.15818e-21
1.86694e-05 -1.07548e-05 -1.8387e-21
1.49494e-05 1.25913e-05 -3.70255e-21
-5.4272e-06 4.55029e-08 -1.38085e-20
1.54009e-05 -2.30833e-05 -1.42769e-20
-1.69873e-05 -2.04056e-05 -5.30963e-21
2.2558e-05 9.77203e-06 -2.29496e-21
1.28044e-05 -1.19877e-05 1.14322e-21
9.55226e-06 -2.48475e-05 -2.85612e-21
1.66563e-05 -6.93169e-06 -1.56275e-20
-1.58027e-05 -7.54332e-06 1.81253e-20
1.29662e-06 -2.62984e-05 -3.75242e-20
-2.61022e-05 4.47229e-06 4.80152e-21
2.38997e-06 2.45385e-05 -1.41526e-20
2.05814e-05 6.62632e-06 -1.89575e-20
-2.17167e-05 -1.07e-05 -5.27142e-21
-8.97567e-06 2.56056e-05 -8.70087e-22
-1.49514e-06 -2.41838e-05 -1.12917e-20
1.94631e-05 1.18354e-05 -5.13439e-21
-1.76867e-06 1.80817e-05 -4.10152e-21
-2.01353e-05 1.37002e-05 -2.36483e-20
2.35069e-05 1.14133e-05 3.45577e-21
-1.71123e-05 -9.98393e-06 5.21898e-21
9.50826e-08 -1.98314e-05 -9.02674e-21
1.83793e-05 1.99809e-05 6.03631e-21
-2.21501e-05 -1.43013e-05 1.26753e-20
4.83431e-05 -3.39767e-05 -1.24019e-20
1.78941e-05 -1.08207e-05 9.59497e-22
9.0004e-06 4.30803e-05 -2.68504e-20
1.70314e-05 -1.36765e-05 4.82182e-21
-1.98719e-05 8.70219e-05 1.22963e-21
-1.97622e-05 -8.65361e-05 -1.72216e-20
5.71755e-05 7.17067e-05 7.14922e-21
5.6913e-05 -7.13805e-05 -8.65352e-21
9.06334e-05 -1.6198e-10 7.97413e-21
-7.81893e-05 3.76321e-05 1.57206e-20
-7.74436e-05 -3.72764e-05 -1.58403e-21
1.2232e-05 1.18169e-05 -2.23978e-20
2.93636e-05 2.18892e-05 -1.21057e-20
1.14465e-05 3.33234e-06 -9.64071e-22
1.8853e-05 9.7501e-06 3.75681e-21
4.9885e-06 2.01672e-05 -1.61144e-20
-1.88291e-05 -1.49782e-05 -2.94494e-21
1.70355e-05 -1.02128e-05 -2.7956e-20
1.98498e-05 1.45473e-05 4.43954e-21
-3.1665e-06 2.43605e-05 3.06013e-21
2.94364e-05 -1.999e-05 -7.93443e-21
3.79335e-06 -2.37365e-05 -1.84727e-20
2.19578e-05 5.22632e-06 -6.25156e-21
2.98916e-05 1.10244e-05 -2.7012e-21
1.42067e-05 1.41418e-05 -1.98988e-20
1.5881e-05 6.59278e-06 -3.82472e-21
-1.84962e-05 1.09351e-05 -2.98314e-21
-2.256e-05 9.03537e-06 1.09803e-20
2.29263e-05 -1.12619e-05 -1.38813e-20
-1.82654e-05 -9.99662e-06 2.0976e-21
-1.85519e-05 -1.0581e-05 4.9525e-21
-3.43814e-07 -2.07649e-05 -3.32526e-20
-8.61469e-08 -2.11579e-05 -2.66451e-20
-2.01243e-05 -1.00534e-06 -8.35517e-22
2.66954e-05 -4.01862e-06 1.02209e-20
1.81096e-05 1.13406e-05 2.81306e-21
-1.78618e-05 1.09436e-05 -1.16718e-21
-1.53594e-05 1.66214e-05 1.49615e-20
1.60199e-05 -1.37514e-05 -9.60486e-21
-1.1022e-05 1.7461e-05 -1.41848e-20
-1.4223e-05 -1.48876e-05 -4.14366e-21
-1.1551e-06 2.12078e-05 -5.90383e-21
-1.28752e-06 2.09655e-05 -1.19883e-20
8.97035e-08 -1.98314e-05 -6.62431e-22
6.11001e-06 -1.97347e-05 -8.81269e-21
-1.71387e-05 -9.93418e-06 9.1298e-21
1.55848e-05 -5.48957e-06 -2.08556e-20
6.63068e-07 2.1475e-05 -1.60262e-20
3.00797e-07 1.85051e-05 6.42435e-21
-2.34546e-06 1.68551e-05 8.26881e-21
2.1906e-05 -5.52671e-06 -6.92398e-21
-1.65392e-05 5.37738e-06 3.87443e-21
4.15692e-06 2.15147e-05 -1.31349e-20
-3.25543e-05 1.29176e-05 -8.30097e-21
9.76207e-06 4.17263e-05 -3.10745e-21
-1.70514e-05 4.56756e-06 -1.4574e-20
1.9682e-05 -1.16287e-05 -2.66379e-20
9.45645e-07 2.10169e-05 -1.43936e-20
-2.04787e-05 6.69859e-06 1.13032e-20
2.44379e-06 -1.62605e-05 -1.27863e-20
1.81884e-06 -5.80055e-05 -2.39057e-20
2.00621e-06 1.74841e-05 -2.32373e-20
-1.696e-05 1.40209e-05 -2.22857e-21
1.78519e-05 6.3964e-05 3.58369e-21
4.57638e-05 3.77023e-05 -5.02463e-21
5.20587e-05 -3.52514e-05 -1.37952e-20
1.48137e-05 -1.01659e-05 -3.59705e-21
-1.57836e-05 1.40359e-05 8.60888e-23
-2.02145e-05 -7.91976e-06 1.18844e-20
-1.96433e-05 -6.8216e-06 -7.70432e-21
5.92601e-05 -2.46091e-05 -2.91635e-20
5.7427e-05 2.38681e-05 -8.96122e-21
1.08933e-05 3.81704e-06 -1.48335e-20
7.66538e-07 1.95771e-05 -2.88273e-20
7.83425e-08 1.95584e-05 -1.54584e-20
-4.83773e-05 -3.69143e-05 -1.05577e-20
1.14238e-05 -1.717e-05 -8.98762e-21
1.1732e-05 1.24632e-05 -7.92535e-21
-2.14157e-05 -3.39536e-06 2.74e-21
-1.40434e-05 1.72002e-05 2.09768e-20
-1.88864e-05 9.16672e-06 1.7314e-20
4.7638e-05 3.36906e-05 -1.89814e-20
1.58047e-05 7.06088e-06 -3.19355e-21
-5.56615e-06 2.00281e-05 8.72022e-21
-1.69762e-05 -1.17479e-05 -1.57715e-20
1.85603e-06 -2.05406e-05 -1.53383e-20
-8.94875e-06 -1.92652e-05 7.13738e-21
-1.72473e-05 -1.17722e-05 2.37073e-22
1.05784e-05 -1.89337e-05 -2.22826e-21
1.41209e-05 -1.69875e-05 -1.37937e-20
-2.44016e-06 -6.14307e-05 -7.79285e-21
2.61774e-05 -4.11213e-05 -9.61789e-21
1.74729e-06 -2.07834e-05 -2.33637e-20
1.79568e-05 1.13542e-05 1.32531e-20
-1.44748e-05 -1.49037e-05 -3.50186e-21
-9.84004e-06 1.9708e-05 1.3878e-20
-5.0389e-06 2.10045e-05 -2.32285e-21
1.66255e-05 1.42422e-05 -2.10427e-21
6.05835e-06 -1.98593e-05 -2.13031e-20
-1.34051e-05 -4.03536e-05 -4.77909e-21
-1.98818e-06 2.50379e-05 -1.53386e-20
1.47903e-05 1.44536e-05 -5.326e-21
-1.2957e-05 -1.02157e-05 3.37059e-21
-1.35136e-05 1.06071e-05 5.96321e-22
4.43383e-05 -1.89113e-05 -2.24981e-20
7.56226e-06 -1.33988e-05 -4.3871e-21
-8.31631e-06 -1.26257e-05 -9.74684e-22
2.13283e-05 6.36282e-06 -1.57103e-20
1.09932e-05 -5.06568e-05 -1.17864e-20
-3.84475e-05 -3.48994e-05 5.3216e-20
2.33044e-05 6.20677e-06 -3.26608e-20
-9.3273e-06 -1.82793e-05 -2.85916e-21
1.87037e-05 9.48183e-06 -3.36664e-21
-2.85616e-05 -3.25479e-05 -9.69581e-21
9.6872e-06 5.00418e-05 1.56915e-20
3.43307e-05 -5.98537e-05 6.22062e-21
-3.47336e-05 -5.97705e-05 3.02576e-20
2.78055e-05 -5.2017e-05 -6.36312e-21
-1.26968e-05 4.36288e-05 -1.40004e-20
-6.27545e-06 3.89735e-05 2.77232e-20
-1.87288e-05 8.94498e-06 3.65344e-21
5.9766e-06 2.42397e-05 -8.7363e-21
-2.39134e-06 1.26528e-05 5.42331e-21
1.01192e-05 3.23281e-06 -2.76216e-20
-3.18816e-06 1.62039e-05 1.14693e-20
-2.47435e-07 2.09896e-05 -5.1338e-21
1.66589e-05 9.7496e-06 6.7827e-21
1.70996e-06 5.77183e-05 1.23946e-20
-1.47158e-05 1.07316e-05 -4.44167e-21
1.59478e-05 -6.24598e-06 -1.73065e-20
1.68702e-05 -4.50852e-06 -3.47945e-20
-6.06563e-05 -8.76794e-06 -1.33183e-20
-3.46022e-05 1.67398e-05 -2.83341e-20
-4.35102e-05 -5.25407e-05 -2.28253e-21
8.65563e-06 8.34484e-06 1.42032e-21
1.42085e-05 7.29181e-06 -1.21854e-20
2.6802e-05 -4.19544e-06 -1.68317e-21
-8.10356e-06 -1.32415e-05 -2.10943e-21
1.72148e-05 8.42776e-06 2.44563e-20
7.33457e-06 -3.00315e-05 -1.60574e-20
-1.37123e-05 1.02039e-05 3.38623e-22
-2.23721e-05 -2.14201e-05 2.39806e-20
-5.83538e-06 1.6296e-05 1.6691e-20
-3.27067e-06 2.06764e-05 -2.69574e-21
3.38463e-05 2.12942e-05 -1.62951e-21
3.61095e-05 -1.92809e-05 -4.16033e-21
-4.2066e-05 -1.16217e-05 -7.37387e-21
7.63339e-06 7.68495e-06 -1.61381e-20
-4.05822e-06 0.000101351 5.18017e-21
8.61566e-07 -0.000104457 -2.83841e-20
5.24487e-05 8.76358e-05 -7.67309e-21
-1.9101e-05 8.45701e-06 -7.29567e-21
-2.63739e-05 5.65435e-05 -7.40813e-21
5.30269e-05 -8.46307e-05 -1.64546e-20
-1.17193e-05 -1.82804e-05 -4.04665e-21
7.79918e-05 6.74907e-05 -6.20427e-21
2.3991e-05 -1.79749e-05 -3.00194e-20
-3.60706e-06 -2.9819e-05 2.13401e-20
8.17701e-05 -6.58435e-05 5.07709e-21
-6.74393e-06 1.45168e-05 1.84533e-20
-5.38263e-05 -3.482e-05 -1.77867e-20
-4.30087e-05 -9.31197e-05 -1.60617e-20
-2.411e-05 -5.7798e-05 -1.73547e-20
-4.39702e-05 9.41266e-05 -5.18866e-21
-1.00923e-05 6.4077e-05 -2.3582e-20
1.56311e-05 3.71043e-05 1.96631e-21
-2.79524e-05 3.72364e-05 -1.55126e-20
-2.52703e-05 -5.51773e-05 -1.27641e-20
0.000100355 1.73151e-05 -7.4627e-21
-1.69257e-05 1.07659e-05 -1.96108e-20
-5.91172e-06 1.63313e-05 2.70113e-20
-5.07525e-05 3.76355e-05 -1.25795e-20
-1.72744e-05 9.94305e-06 1.28915e-20
9.91921e-05 -1.52617e-05 1.19695e-20
-1.53586e-05 7.79786e-06 -1.09467e-20
7.19183e-06 -1.44934e-05 1.04591e-21
-7.7961e-05 -6.09414e-05 -1.30524e-20
-2.58762e-05 5.77109e-05 -9.23895e-21
-7.91139e-05 6.03688e-05 -2.18916e-21
2.45375e-05 5.19447e-05 7.87681e-21
-1.4766e-05 1.05813e-05 5.29264e-21
-2.05276e-05 2.44739e-05 -9.32242e-22
-2.85296e-05 4.98125e-05 2.10824e-20
-5.67699e-05 2.07965e-07 -1.94022e-20
-9.44013e-07 1.62943e-05 -6.80969e-21
-2.88465e-05 -5.0401e-05 -2.3103e-20
-5.81921e-05 -2.19775e-07 3.56039e-20
-2.83465e-05 4.8691e-05 -1.34453e-20
-1.51886e-05 6.6259e-05 2.15374e-20
-1.78629e-05 4.1256e-05 -2.66301e-21
-3.38966e-05 2.71344e-05 -1.90257e-20
2.43803e-05 -6.05629e-06 -1.86301e-20
3.79986e-05 -2.19508e-06 -2.23011e-20
1.34809e-05 8.19943e-06 1.36733e-20
-1.0468e-05 -7.39796e-05 1.55878e-20
-6.94414e-05 -2.79712e-05 2.97938e-20
3.71282e-05 7.32661e-07 -3.27115e-20
5.83598e-05 -1.0891e-05 -5.94203e-21
-1.05826e-05 -1.34956e-05 7.10252e-21
-5.08233e-05 3.76212e-05 -9.16558e-21
-4.61286e-05 5.39941e-05 1.16015e-20
6.23559e-05 -2.223e-05 6.80027e-21
-2.81743e-05 -5.04916e-05 -1.59102e-21
-2.8774e-05 4.97741e-05 2.69253e-20
-5.72482e-05 -1.17103e-06 -2.78842e-20
-2.65705e-05 5.05923e-05 6.32493e-21
-5.79469e-05 -8.16926e-07 5.91171e-21
6.6069e-05 1.73906e-05 -1.98579e-20
5.63741e-05 1.29236e-06 -1.14436e-20
5.08946e-05 -2.92707e-05 -1.40496e-20
2.49075e-05 -5.94207e-05 -5.08722e-22
2.99153e-05 -4.88515e-05 -2.25485e-20
2.91643e-05 4.86755e-05 5.48425e-21
2.43424e-05 5.80831e-05 5.21656e-21
7.57942e-05 -2.00354e-05 -2.37316e-21
4.62613e-05 2.90601e-05 1.18728e-20
4.66192e-05 1.3744e-05 -1.04898e-20
TENSORS solid_stress_TPM float
375.027 -24.9202 1.34529e-12
-24.9202 238.567 -2.68704e-12
1.34529e-12 -2.68704e-12 197.815

456.997 -21.3202 1.79827e-12
-21.3202 489.981 1.70234e-12
1.79827e-12 1.70234e-12 487.104

454.872 28.0428 -1.06818e-12
28.0428 463.702 -5.57184e-13
-1.06818e-12 -5.57184e-13 458.452

455.021 -29.8427 4.1663e-12
-29.8427 482.602 6.57548e-13
4.1663e-12 6.57548e-13 484.85

527.681 19.931 3.34014e-12
19.931 548.452 1.04553e-12
3.34014e-12 1.04553e-12 527.352

437.305 -18.0741 -5.67102e-13
-18.0741 480.331 3.39521e-12
-5.67102e-13 3.39521e-12 458.033

372.322 26.4843 -1.67688e-12
26.4843 239.087 -8.64494e-13
-1.67688e-12 -8.64494e-13 197.799

473.645 29.9576 2.21216e-12
29.9576 469.495 1.07203e-12
2.21216e-12 1.07203e-12 472.331

471.541 5.48306 -1.51227e-12
5.48306 417.816 -2.2918e-12
-1.51227e-12 -2.2918e-12 432.789

504.252 -7.47756 1.19282e-12
-7.47756 444.105 2.94853e-12
1.19282e-12 2.94853e-12 483.445

360.288 16.3082 -2.55559e-12
16.3082 247.652 9.8647e-13
-2.55559e-12 9.8647e-13 233.641

444.775 -13.453 9.51831e-14
-13.453 498.378 2.35841e-12
9.51831e-14 2.35841e-12 472.232

466.86 27.8328 1.10134e-12
27.8328 468.295 4.11523e-13
1.10134e-12 4.11523e-13 466.728

457.03 -14.3399 -1.12278e-12
-14.3399 500.427 4.26326e-13
-1.12278e-12 4.26326e-13 483.451

512.932 33.3116 1.42434e-12
33.3116 511.591 -6.19005e-13
1.42434e-12 -6.19005e-13 515.22

489.164 0.560956 1.53714e-12
0.560956 435.516 -2.8485e-12
1.53714e-12 -2.8485e-12 462.265

457.577 -17.9692 -1.71002e-13
-17.9692 512.879 -2.23584e-12
-1.71002e-13 -2.23584e-12 493.591

493.95 -2.6652 2.91411e-12
-2.6652 439.042 -1.87287e-12
2.91411e-12 -1.87287e-12 474.257

418.786 26.6732 -2.34153e-12
26.6732 449.652 -1.49036e-12
-2.34153e-12 -1.49036e-12 424.046

481.973 -4.19549 2.50111e-12
-4.19549 424.914 -2.53664e-12
2.50111e-12 -2.53664e-12 453.467

425.289 8.66841 2.49948e-12
8.66841 481.895 -2.2086e-13
2.49948e-12 -2.2086e-13 444.834

634.128 6.28787 -4.87816e-12
6.28787 633.962 -6.78628e-12
-4.87816e-12 -6.78628e-12 570.314

479.144 1.87596 -1.50398e-12
1.87596 422.933 -5.17586e-13
-1.50398e-12 -5.17586e-13 449.725

447.155 -27.7147 1.43648e-12
-27.7147 461.142 5.72579e-13
1.43648e-12 5.72579e-13 452.941

481.041 6.84928 -4.91459e-13
6.84928 425.434 -1.04879e-12
-4.91459e-13 -1.04879e-12 452.931

449.751 19.1127 -3.99303e-12
19.1127 490.31 -5.62513e-13
-3.99303e-12 -5.62513e-13 478.199

377.648 4.18128 9.40285e-13
4.18128 291.65 -2.21897e-12
9.40285e-13 -2.21897e-12 258.998

462.678 30.7454 1.76333e-12
30.7454 460.707 -9.76996e-15
1.76333e-12 -9.76996e-15 460.538

384.934 37.0736 1.67451e-12
37.0736 383.513 -4.73695e-13
1.67451e-12 -4.73695e-13 348.412

586.939 10.3235 7.0699e-13
10.3235 563.447 -3.55975e-13
7.0699e-13 -3.55975e-13 546.868

491.679 14.2168 -2.78651e-12
14.2168 442.49 -2.57912e-12
-2.78651e-12 -2.57912e-12 465.849

352.849 -17.78 -3.48136e-12
-17.78 416.716 8.87942e-12
-3.48136e-12 8.87942e-12 348.583

331.012 -42.1009 -5.17749e-12
-42.1009 335.867 -3.49113e-12
-5.17749e-12 -3.49113e-12 253.478

531.405 5.98691 1.16721e-13
5.98691 586.885 -3.61933e-12
1.16721e-13 -3.61933e-12 538.577

554.019 -4.84092 -9.08458e-13
-4.84092 582.067 2.3063e-13
-9.08458e-13 2.3063e-13 542.507

577.983 21.0279 3.75847e-12
21.0279 539.943 3.35465e-12
3.75847e-12 3.35465e-12 538.345

556.181 5.06774 -4.78847e-12
5.06774 600.672 -2.76223e-13
-4.78847e-12 -2.76223e-13 547.965

573.771 -9.16984 -3.4787e-13
-9.16984 555.76 -3.42665e-12
-3.4787e-13 -3.42665e-12 540.633

467.12 -27.9978 1.16411e-12
-27.9978 466.484 1.36602e-12
1.16411e-12 1.36602e-12 465.1

330.397 41.5202 -9.04758e-13
41.5202 337.966 1.06581e-12
-9.04758e-13 1.06581e-12 253.837

414.518 -17.9487 7.29491e-12
-17.9487 354.481 5.21065e-14
7.29491e-12 5.21065e-14 346.314

559.302 -3.70626 1.04361e-13
-3.70626 599.921 -5.47769e-12
1.04361e-13 -5.47769e-12 548.379

586.409 19.5559 7.58593e-12
19.5559 572.451 1.07381e-12
7.58593e-12 1.07381e-12 548.168

490.884 -12.2732 1.51523e-12
-12.2732 442.845 2.78296e-12
1.51523e-12 2.78296e-12 466.521

341.702 -43.2981 -4.22418e-12
-43.2981 345.33 -5.24262e-12
-4.22418e-12 -5.24262e-12 288.97

417.543 -18.063 7.83966e-13
-18.063 357.098 1.85037e-12
7.83966e-13 1.85037e-12 351.487

412.998 17.0853 2.74358e-12
17.0853 464.766 3.51541e-12
2.74358e-12 3.51541e-12 428.711

429.614 19.3386 -4.98564e-13
19.3386 466.496 -6.75016e-13
-4.98564e-13 -6.75016e-13 437.065

486.764 -16.3008 -3.01389e-13
-16.3008 432.859 6.20245e-14
-3.01389e-13 6.20245e-14 458.662

355.567 -34.1845 1.25233e-12
-34.1845 389.386 2.88954e-12
1.25233e-12 2.88954e-12 332.555

410.236 19.1813 1.0291e-12
19.1813 350.688 2.08189e-12
1.0291e-12 2.08189e-12 339.464

425.184 -25.2878 3.54087e-12
-25.2878 383.806 4.32128e-12
3.54087e-12 4.32128e-12 373.062

519.909 19.4859 -2.04651e-12
19.4859 547.519 -1.90366e-12
-2.04651e-12 -1.90366e-12 525.719

416.397 29.6486 3.60364e-12
29.6486 393.871 3.78956e-14
3.60364e-12 3.78956e-14 373.926

522.163 -21.8128 -4.64873e-12
-21.8128 541.385 -4.53929e-12
-4.64873e-12 -4.53929e-12 524.365

364.057 -42.7102 1.72188e-12
-42.7102 343.269 6.63173e-14
1.72188e-12 6.63173e-14 289.688

553.441 5.45994 -4.52246e-12
5.45994 583.86 -4.7559e-12
-4.52246e-12 -4.7559e-12 542.882

373.702 -5.32964 -2.62249e-12
-5.32964 436.646 1.34766e-12
-2.62249e-12 1.34766e-12 373.81

580.809 10.3842 8.41993e-13
10.3842 556.16 1.41916e-12
8.41993e-13 1.41916e-12 542.638

435.042 21.4126 2.0511e-12
21.4126 473.745 4.67478e-12
2.0511e-12 4.67478e-12 454.657

513.559 5.75378 2.40889e-12
5.75378 452.792 -2.70791e-12
2.40889e-12 -2.70791e-12 494.852

522.445 11.4589 5.31708e-12
11.4589 487.849 1.48592e-12
5.31708e-12 1.48592e-12 507.066

383.693 31.8192 -6.15567e-12
31.8192 315.183 -3.58587e-12
-6.15567e-12 -3.58587e-12 269.861

482.075 -6.03503 -4.55502e-12
-6.03503 528.168 -4.02996e-12
-4.55502e-12 -4.02996e-12 504.088

487.084 9.51961 3.15496e-12
9.51961 523.677 -1.90011e-12
3.15496e-12 -1.90011e-12 507.484

456.446 -2.8807 -3.338e-12
-2.8807 520.144 7.22977e-13
-3.338e-12 7.22977e-13 487.795

464.442 23.4021 -7.2875e-13
23.4021 503.457 5.27963e-12
-7.2875e-13 5.27963e-12 495.428

496.734 8.4634 9.29035e-13
8.4634 444.386 -1.60982e-12
9.29035e-13 -1.60982e-12 477.686

445.494 -28.2388 2.98783e-12
-28.2388 459.515 3.80496e-12
2.98783e-12 3.80496e-12 451.154

501.668 -1.7112 -3.65485e-13
-1.7112 444.903 1.90788e-12
-3.65485e-13 1.90788e-12 489.056

519.522 -19.262 9.72555e-14
-19.262 546.812 -1.17299e-12
9.72555e-14 -1.17299e-12 525.452

523.292 21.3078 2.07123e-12
21.3078 542.91 6.01579e-13
2.07123e-12 6.01579e-13 525.254

353.399 -16.583 4.37798e-12
-16.583 415.723 -1.46846e-12
4.37798e-12 -1.46846e-12 346.102

506.009 -27.9359 -3.97075e-12
-27.9359 485.298 -1.91906e-12
-3.97075e-12 -1.91906e-12 493.868

449.708 -25.1342 5.87678e-13
-25.1342 471.207 6.06093e-12
5.87678e-13 6.06093e-12 458.565

357.86 -31.7099 1.7503e-12
-31.7099 285.669 2.15827e-13
1.7503e-12 2.15827e-13 249.851

498.489 3.22256 2.28706e-14
3.22256 541.394 1.65024e-12
2.28706e-14 1.65024e-12 513.631

501.715 28.9436 -1.63306e-12
28.9436 474.538 -2.93987e-13
-1.63306e-12 -2.93987e-13 487.646

448.433 19.664 1.24685e-12
19.664 492.095 -1.56023e-12
1.24685e-12 -1.56023e-12 477.631

440.18 7.99933 1.79294e-12
7.99933 373.027 -2.55618e-12
1.79294e-12 -2.55618e-12 382.924

386.44 -33.9347 1.08831e-12
-33.9347 360.197 -6.93016e-12
1.08831e-12 -6.93016e-12 319.427

537.711 -10.5876 -5.00133e-12
-10.5876 556.129 4.75886e-12
-5.00133e-12 4.75886e-12 531.239

482.645 23.8994 -2.02268e-12
23.8994 504.549 7.36874e-13
-2.02268e-12 7.36874e-13 502.032

385.361 -32.3829 8.84626e-13
-32.3829 345.297 -6.26462e-13
8.84626e-13 -6.26462e-13 317.072

422.186 10.7908 3.20573e-12
10.7908 363.841 -2.76697e-12
3.20573e-12 -2.76697e-12 350.244

307.644 -21.2054 1.27069e-12
-21.2054 388.432 -5.88093e-12
1.27069e-12 -5.88093e-12 288.107

434.433 14.4255 4.80949e-12
14.4255 488.657 8.36072e-13
4.80949e-12 8.36072e-13 460.873

509.71 23.1427 2.54078e-12
23.1427 475.161 9.28472e-12
2.54078e-12 9.28472e-12 489.936

338.232 42.1976 2.96059e-14
42.1976 349.562 5.21775e-12
2.96059e-14 5.21775e-12 288.944

634.213 16.5073 6.32013e-12
16.5073 603.065 2.24887e-12
6.32013e-12 2.24887e-12 565.318

372.879 -4.10824 2.6971e-12
-4.10824 436.806 -5.92119e-15
2.6971e-12 -5.92119e-15 373.417

637.119 -16.6324 -6.33641e-12
-16.6324 599.535 1.10327e-12
-6.33641e-12 1.10327e-12 564.825

533.93 -27.335 -3.32475e-12
-27.335 507.229 -1.8594e-12
-3.32475e-12 -1.8594e-12 515.705

505.286 27.4244 4.87847e-12
27.4244 466.324 -4.0267e-12
4.87847e-12 -4.0267e-12 485.062

426.915 -24.41 1.23042e-12
-24.41 386.229 3.19744e-14
1.23042e-12 3.19744e-14 375.969

358.927 31.3224 -1.89419e-12
31.3224 395.994 -1.92794e-12
-1.89419e-12 -1.92794e-12 339.192

339.816 -10.7048 1.84623e-12
-10.7048 408.381 -6.74305e-12
1.84623e-12 -6.74305e-12 319.097

453.093 21.9706 -2.01024e-13
21.9706 494.668 -3.79933e-12
-2.01024e-13 -3.79933e-12 483.158

533.104 16.7939 -1.77991e-12
16.7939 506.189 -2.02475e-12
-1.77991e-12 -2.02475e-12 513.344

443.442 15.1536 3.35169e-12
15.1536 488.429 1.62418e-12
3.35169e-12 1.62418e-12 464.272

451.47 15.9535 4.26918e-12
15.9535 400.527 -2.80028e-12
4.26918e-12 -2.80028e-12 403.737

374.479 -21.4719 -2.68585e-12
-21.4719 419.857 -1.43885e-12
-2.68585e-12 -1.43885e-12 357.189

389.713 -29.3898 4.81274e-12
-29.3898 342.362 7.02845e-13
4.81274e-12 7.02845e-13 314.383

454.955 -24.5727 4.37754e-12
-24.5727 480.055 -2.76668e-12
4.37754e-12 -2.76668e-12 478.36

466.416 27.4507 -7.97288e-13
27.4507 478.733 7.40445e-13
-7.97288e-13 7.40445e-13 479.8

452.207 23.1875 3.93256e-12
23.1875 492.549 -1.51582e-12
3.93256e-12 -1.51582e-12 482.033

466.287 13.1692 -1.24152e-12
13.1692 529.768 1.20259e-12
-1.24152e-12 1.20259e-12 501.374

490.851 9.37217 -3.8239e-12
9.37217 437.88 -1.34603e-12
-3.8239e-12 -1.34603e-12 462.046

327.705 -4.66495 -2.70362e-12
-4.66495 403.372 4.94301e-12
-2.70362e-12 4.94301e-12 314.404

462.569 -36.8334 -1.40036e-13
-36.8334 487.68 2.76446e-13
-1.40036e-13 2.76446e-13 492.739

445.84 27.4647 2.04281e-14
27.4647 463.26 3.66522e-13
2.04281e-14 3.66522e-13 455.005

305.665 2.17029 9.86618e-13
2.17029 393.352 -6.31436e-12
9.86618e-13 -6.31436e-12 297.249

385.988 34.6094 9.9476e-14
34.6094 332.441 1.71241e-12
9.9476e-14 1.71241e-12 306.238

453.341 -22.9736 2.34375e-12
-22.9736 480.06 3.40853e-12
2.34375e-12 3.40853e-12 476.163

501.384 5.73296 9.4591e-13
5.73296 441.306 3.11743e-12
9.4591e-13 3.11743e-12 481.001

422.371 27.2033 1.06581e-13
27.2033 389.758 9.71075e-13
1.06581e-13 9.71075e-13 374.226

570.536 12.7456 -1.69849e-12
12.7456 565.912 -3.81177e-12
-1.69849e-12 -3.81177e-12 542.91

396.169 24.3298 2.25005e-13
24.3298 349.641 2.71487e-12
2.25005e-13 2.71487e-12 319.037

569.158 -13.0551 1.61352e-12
-13.0551 565.824 3.12846e-12
1.61352e-12 3.12846e-12 542.365

375.083 0.778509 2.62664e-12
0.778509 438.859 3.39047e-12
2.62664e-12 3.39047e-12 374.632

461.461 -2.23526 -1.90189e-12
-2.23526 399.295 1.53736e-12
-1.90189e-12 1.53736e-12 417.273

538.188 -15.7682 2.18107e-12
-15.7682 480.623 -3.51423e-12
2.18107e-12 -3.51423e-12 513.47

457.235 24.3881 3.59105e-12
24.3881 487.775 1.22213e-12
3.59105e-12 1.22213e-12 488.345

461.247 -13.5349 1.97389e-13
-13.5349 519.127 7.25938e-13
1.97389e-13 7.25938e-13 495.706

514.96 -8.00005 -1.32457e-12
-8.00005 438.182 3.29159e-12
-1.32457e-12 3.29159e-12 494.268

488.307 -22.2843 -3.10907e-12
-22.2843 541.595 4.22625e-12
-3.10907e-12 4.22625e-12 515.742

556.045 -6.59628 -3.02662e-12
-6.59628 560.389 -4.35348e-12
-3.02662e-12 -4.35348e-12 538.722

463.857 -29.9081 2.40015e-12
-29.9081 483.187 -2.29446e-13
2.40015e-12 -2.29446e-13 483.591

341.7 11.4533 4.49152e-12
11.4533 406.185 -4.78195e-12
4.49152e-12 -4.78195e-12 319.476

422.472 -28.1457 -3.4035e-12
-28.1457 391.234 1.45069e-13
-3.4035e-12 1.45069e-13 375.139

507.375 -13.7724 -3.03172e-12
-13.7724 558.742 2.67194e-12
-3.03172e-12 2.67194e-12 525.245

501.047 0.504365 -4.03411e-12
0.504365 441.271 2.56795e-12
-4.03411e-12 2.56795e-12 487.078

476.934 -21.5246 2.68526e-12
-21.5246 507.413 -2.96652e-12
2.68526e-12 -2.96652e-12 501.496

459.088 25.6976 -1.75548e-12
25.6976 484.592 -6.86747e-13
-1.75548e-12 -6.86747e-13 487.973

394.422 -31.4635 2.67046e-12
-31.4635 400.59 5.23196e-12
2.67046e-12 5.23196e-12 357.514

552.122 -7.08529 8.72731e-12
-7.08529 585.291 1.53448e-12
8.72731e-12 1.53448e-12 542.597

347.203 -33.0759 1.70293e-12
-33.0759 382.599 -4.87906e-13
1.70293e-12 -4.87906e-13 303.429

490.86 -19.1793 1.68162e-13
-19.1793 448.379 1.6381e-12
1.68162e-13 1.6381e-12 467.115

519.7 1.97015 1.0442e-12
1.97015 466.806 -9.68114e-13
1.0442e-12 -9.68114e-13 502.823

570.554 17.8752 -3.31587e-13
17.8752 566.475 9.06771e-12
-3.31587e-13 9.06771e-12 542.369

375.283 20.1822 -1.08772e-12
20.1822 424.022 -2.63967e-12
-1.08772e-12 -2.63967e-12 360.213

489.073 27.2101 5.23433e-13
27.2101 468.531 -2.90849e-12
5.23433e-13 -2.90849e-12 476.63

454.369 -24.511 1.96347e-12
-24.511 415.333 -2.66631e-12
1.96347e-12 -2.66631e-12 418.594

454.709 -17.8384 -1.30177e-12
-17.8384 494.897 -2.14347e-13
-1.30177e-12 -2.14347e-13 482.632

379.19 35.0672 -1.76096e-12
35.0672 366.022 -8.53836e-13
-1.76096e-12 -8.53836e-13 317.042

449.143 -21.8309 1.81958e-12
-21.8309 491.694 2.23821e-13
1.81958e-12 2.23821e-13 479.764

485.481 30.8501 -1.71182e-12
30.8501 465.127 8.60082e-12
-1.71182e-12 8.60082e-12 473.437

480.312 -25.2436 6.68502e-13
-25.2436 442.358 2.39246e-12
6.68502e-13 2.39246e-12 455.433

448.208 -25.1259 -1.18483e-12
-25.1259 469.757 5.02058e-12
-1.18483e-12 5.02058e-12 458.087

445.335 -18.6876 -2.8102e-12
-18.6876 393.452 5.10821e-12
-2.8102e-12 5.10821e-12 397.248

470.643 -18.8491 5.1988e-12
-18.8491 422.843 -2.7495e-12
5.1988e-12 -2.7495e-12 437.522

458.988 -25.3369 2.23155e-12
-25.3369 485.418 1.50391e-12
2.23155e-12 1.50391e-12 488.815

386.532 35.9682 -7.11727e-13
35.9682 381.978 4.28931e-12
-7.11727e-13 4.28931e-12 348.108

444.485 15.3764 -2.28987e-12
15.3764 491.521 -1.06522e-12
-2.28987e-12 -1.06522e-12 467.129

469.386 26.4218 3.00056e-12
26.4218 479.947 4.31951e-13
3.00056e-12 4.31951e-13 482.536

456.131 25.4736 3.08451e-12
25.4736 486.635 -4.73917e-12
3.08451e-12 -4.73917e-12 487.235

457.796 11.6213 -5.52706e-14
11.6213 506.928 4.89505e-12
-5.52706e-14 4.89505e-12 486.004

431.939 -8.22674 1.94452e-12
-8.22674 370.746 1.83083e-12
1.94452e-12 1.83083e-12 363.297

376.769 18.6058 1.46253e-13
18.6058 427.254 -3.60008e-13
1.46253e-13 -3.60008e-13 363.873

452.301 -24.3801 8.20677e-13
-24.3801 478.373 -5.86494e-13
8.20677e-13 -5.86494e-13 470.7

440.735 25.6652 -1.97235e-12
25.6652 455.628 1.41457e-12
-1.97235e-12 1.41457e-12 437.794

390.945 -35.6282 -5.36578e-12
-35.6282 380.267 1.73846e-12
-5.36578e-12 1.73846e-12 350.081

368.931 38.3154 1.89715e-12
38.3154 327.243 2.19676e-12
1.89715e-12 2.19676e-12 295.674

363.637 -33.3099 -2.23051e-12
-33.3099 394.424 2.76638e-12
-2.23051e-12 2.76638e-12 341.969

397.919 -31.1585 -9.43838e-13
-31.1585 404.181 3.51719e-13
-9.43838e-13 3.51719e-13 362.963

502.844 -6.83866 -2.70065e-12
-6.83866 442.238 4.41869e-13
-2.70065e-12 4.41869e-13 482.306

393.152 30.3407 3.42482e-12
30.3407 408.966 8.92915e-13
3.42482e-12 8.92915e-13 363.423

429.688 13.2942 4.55103e-12
13.2942 372.236 -6.06004e-12
4.55103e-12 -6.06004e-12 362.702

350.133 13.3784 6.47808e-12
13.3784 418.501 4.38168e-14
6.47808e-12 4.38168e-14 348.464

379.467 -22.3396 -8.88178e-13
-22.3396 423.5 1.9611e-12
-8.88178e-13 1.9611e-12 363.437

491.197 -1.09143 -3.27109e-12
-1.09143 550.867 1.4199e-12
-3.27109e-12 1.4199e-12 516.295

372.852 2.24652 -6.08906e-12
2.24652 437.774 2.60532e-13
-6.08906e-12 2.60532e-13 373.509

357.879 31.0882 -6.14916e-12
31.0882 399.474 -7.33043e-13
-6.14916e-12 -7.33043e-13 341.95

457.979 12.1077 -6.11744e-12
12.1077 510.548 9.11863e-13
-6.11744e-12 9.11863e-13 488.391

421.44 -27.6467 3.44021e-12
-27.6467 389.06 -2.67579e-12
3.44021e-12 -2.67579e-12 375.061

524.745 20.5569 -3.62258e-12
20.5569 469.738 4.68988e-12
-3.62258e-12 4.68988e-12 500.723

534.915 26.2704 2.40933e-12
26.2704 506.849 -1.59576e-13
2.40933e-12 -1.59576e-13 516.083

494.804 -18.5672 1.33819e-13
-18.5672 449.014 3.25281e-12
1.33819e-13 3.25281e-12 470.844

554.575 -1.80094 3.39847e-12
-1.80094 516.013 -3.73479e-12
3.39847e-12 -3.73479e-12 525.706

473.275 -31.8115 -1.56912e-12
-31.8115 475.684 2.00876e-12
-1.56912e-12 2.00876e-12 478.565

412.585 23.327 1.77636e-12
23.327 357.185 3.10093e-12
1.77636e-12 3.10093e-12 348.081

464.164 30.162 -5.15143e-13
30.162 482.755 4.83317e-12
-5.15143e-13 4.83317e-12 483.192

464.427 29.2058 -1.18128e-13
29.2058 482.228 3.25665e-12
-1.18128e-13 3.25665e-12 482.753

393.934 30.6598 4.70142e-13
30.6598 405.711 -1.11792e-12
4.70142e-13 -1.11792e-12 360.858

502.843 27.0848 -1.84149e-13
27.0848 482.654 -2.4194e-12
-1.84149e-13 -2.4194e-12 490.723

415.339 3.52503 7.99597e-12
3.52503 339.007 -2.60962e-12
7.99597e-12 -2.60962e-12 340.814

493.111 31.8172 -2.39897e-12
31.8172 487.211 -5.04485e-13
-2.39897e-12 -5.04485e-13 495.563

476.316 -12.5997 -5.11931e-12
-12.5997 522.439 8.82849e-13
-5.11931e-12 8.82849e-13 500.237

536.916 24.2783 1.83083e-12
24.2783 507.392 1.47319e-12
1.83083e-12 1.47319e-12 516.619

468.165 -29.5786 3.56722e-12
-29.5786 479.957 -2.02001e-12
3.56722e-12 -2.02001e-12 483.05

464.55 -4.89813 1.40186e-12
-4.89813 521.544 -1.33641e-12
1.40186e-12 -1.33641e-12 490.968

400.928 -24.5555 -7.57912e-14
-24.5555 349.013 3.61311e-12
-7.57912e-14 3.61311e-12 323.94

418.955 29.6922 -6.43752e-12
29.6922 392.453 3.43547e-12
-6.43752e-12 3.43547e-12 373.759

352.334 14.696 -5.3794e-12
14.696 417.2 -5.44276e-12
-5.3794e-12 -5.44276e-12 348.229

500.517 -1.13885 -1.76496e-12
-1.13885 442.783 5.21657e-13
-1.76496e-12 5.21657e-13 487.697

492.459 0.00223577 -1.56675e-12
0.00223577 438.091 -2.40738e-12
-1.56675e-12 -2.40738e-12 474.407

452.954 23.1236 7.91959e-13
23.1236 479.695 2.02534e-12
7.91959e-13 2.02534e-12 475.574

481.293 23.8709 -9.4591e-13
23.8709 502.863 3.46441e-12
-9.4591e-13 3.46441e-12 501.243

456.576 -24.3807 1.90771e-12
-24.3807 487.341 -3.62377e-12
1.90771e-12 -3.62377e-12 488.486

457.826 -0.672679 -4.05639e-12
-0.672679 517.931 1.31332e-12
-4.05639e-12 1.31332e-12 486.39

458.874 25.5903 -2.28913e-12
25.5903 486.458 3.5083e-14
-2.28913e-12 3.5083e-14 488.508

465.55 -10.3077 -1.63188e-12
-10.3077 408.076 2.67727e-12
-1.63188e-12 2.67727e-12 427.215

400.857 -32.8325 3.05533e-12
-32.8325 414.947 -9.19561e-13
3.05533e-12 -9.19561e-13 385.158

518.089 -2.30056 2.52391e-13
-2.30056 465.732 -4.82873e-13
2.52391e-13 -4.82873e-13 500.92

391.865 -34.5073 2.07005e-12
-34.5073 379.599 -9.2785e-13
2.07005e-12 -9.2785e-13 347.411

477.995 19.0861 7.26678e-13
19.0861 509.195 1.61945e-13
7.26678e-13 1.61945e-13 501.84

506.107 -26.4786 -4.05542e-12
-26.4786 470.242 4.75945e-12
-4.05542e-12 4.75945e-12 487.267

424.993 -9.68999 4.98564e-12
-9.68999 366.725 -3.59771e-12
4.98564e-12 -3.59771e-12 355.975

530.261 -23.1918 -1.79412e-13
-23.1918 488.752 -3.31291e-12
-1.79412e-13 -3.31291e-12 506.484

500.886 2.35825 -2.69429e-12
2.35825 444.571 -2.43405e-12
-2.69429e-12 -2.43405e-12 489.199

521.187 -23.3212 3.40409e-12
-23.3212 501.837 -4.88543e-12
3.40409e-12 -4.88543e-12 508.529

502.011 -25.8593 -5.58783e-12
-25.8593 461.486 4.37339e-12
-5.58783e-12 4.37339e-12 481.239

498.821 -8.54597 -1.88353e-12
-8.54597 445.131 1.89626e-12
-1.88353e-12 1.89626e-12 479.339

482.215 -23.068 2.78562e-12
-23.068 504.988 5.3089e-13
2.78562e-12 5.3089e-13 502.53

428.534 -31.3411 2.09965e-12
-31.3411 410.582 7.87518e-13
2.09965e-12 7.87518e-13 398.992

503.263 -24.5869 -3.47219e-12
-24.5869 464.708 -4.06727e-12
-3.47219e-12 -4.06727e-12 482.155

441.234 10.8642 -6.70989e-12
10.8642 378.475 -4.25852e-12
-6.70989e-12 -4.25852e-12 387.793

500.033 26.3401 -1.61352e-12
26.3401 498.579 -8.8729e-13
-1.61352e-12 -8.8729e-13 500.1

463.744 -37.6131 9.94464e-13
-37.6131 488.384 1.62833e-15
9.94464e-13 1.62833e-15 494.077

464.853 37.2654 -2.13163e-13
37.2654 487.295 8.3585e-13
-2.13163e-13 8.3585e-13 493.792

446.321 -28.5735 1.77588e-12
-28.5735 500.009 -2.36137e-12
1.77588e-12 -2.36137e-12 492.307

448.556 27.0642 -1.85881e-12
27.0642 500.7 5.15291e-12
-1.85881e-12 5.15291e-12 492.494

513.065 -8.52771 -1.59872e-13
-8.52771 436.4 -2.72464e-12
-1.59872e-13 -2.72464e-12 492.755

511.227 9.27373 -1.17935e-12
9.27373 437.996 4.16896e-12
-1.17935e-12 4.16896e-12 492.392

501.651 -9.84603 -6.93963e-13
-9.84603 451.737 7.70347e-13
-6.93963e-13 7.70347e-13 483.015

510.861 32.1164 1.19164e-12
32.1164 510.386 2.67525e-12
1.19164e-12 2.67525e-12 514.051

509.637 -32.8545 -6.4837e-14
-32.8545 510.063 2.69575e-12
-6.4837e-14 2.69575e-12 513.69

481.805 16.0686 1.28623e-12
16.0686 539.127 -1.27542e-12
1.28623e-12 -1.27542e-12 514.323

482.999 -15.801 1.52441e-12
-15.801 538.717 -3.18205e-12
1.52441e-12 -3.18205e-12 514.344

556.867 -3.74741 2.99671e-12
-3.74741 506.829 6.19652e-13
2.99671e-12 6.19652e-13 524.989

558.421 3.61019 9.28146e-14
3.61019 505.153 7.21793e-13
9.28146e-14 7.21793e-13 525.36

387.303 9.83666 -5.24299e-12
9.83666 449.19 2.4715e-12
-5.24299e-12 2.4715e-12 397.08

472.382 -24.7739 -1.69612e-12
-24.7739 480.748 -4.3768e-12
-1.69612e-12 -4.3768e-12 484.971

443.454 -36.3877 1.28016e-12
-36.3877 485.525 -3.10966e-12
1.28016e-12 -3.10966e-12 486.621

473.634 -4.66423 -2.75927e-12
-4.66423 420.43 -8.68824e-13
-2.75927e-12 -8.68824e-13 436.331

540.25 -16.6949 2.17086e-12
-16.6949 484.187 -4.10338e-13
2.17086e-12 -4.10338e-13 515.284

540.97 16.1759 2.07567e-12
16.1759 485.41 -2.73618e-12
2.07567e-12 -2.73618e-12 515.889

506.855 0.121884 -2.86023e-12
0.121884 423.544 -2.11513e-12
-2.86023e-12 -2.11513e-12 486.995

384.785 23.3747 8.31039e-13
23.3747 432.289 -3.20928e-13
8.31039e-13 -3.20928e-13 385.469

442.326 36.1717 4.16408e-13
36.1717 485.204 -1.52604e-12
4.16408e-13 -1.52604e-12 485.827

452.59 -23.3957 4.72511e-13
-23.3957 494.946 -2.46914e-13
4.72511e-13 -2.46914e-13 483.584

443.241 23.3523 3.70311e-12
23.3523 397.512 1.04272e-12
3.70311e-12 1.04272e-12 400.366

530.964 23.8581 -1.46431e-12
23.8581 488.003 -1.55786e-12
-1.46431e-12 -1.55786e-12 507.243

428.472 -31.3129 1.26595e-12
-31.3129 410.867 -4.50247e-12
1.26595e-12 -4.50247e-12 398.811

519.853 -3.23082 -2.80072e-13
-3.23082 469.053 2.20061e-12
-2.80072e-13 2.20061e-12 502.68

439.388 -34.1611 -1.79627e-12
-34.1611 485.497 1.95118e-12
-1.79627e-12 1.95118e-12 485.816

389.177 8.31979 -8.03672e-13
8.31979 452.32 -1.3903e-12
-8.03672e-13 -1.3903e-12 400.848

385.872 21.8111 -3.43666e-12
21.8111 435.765 7.38964e-13
-3.43666e-12 7.38964e-13 388.687

383.84 35.7751 -2.1115e-12
35.7751 362.325 5.27578e-12
-2.1115e-12 5.27578e-12 318.322

408.175 1.57872 1.97531e-12
1.57872 332.15 3.43895e-12
1.97531e-12 3.43895e-12 327.318

485.449 -22.8044 2.27966e-13
-22.8044 502.852 -6.6791e-13
2.27966e-13 -6.6791e-13 501.742

351.872 31.1832 -1.67214e-12
31.1832 388.824 6.24567e-12
-1.67214e-12 6.24567e-12 312.351

451.342 23.6097 -4.32839e-13
23.6097 478.405 3.88193e-12
-4.32839e-13 3.88193e-12 465.205

442.188 -5.34944 -3.91983e-12
-5.34944 377.119 9.579e-13
-3.91983e-12 9.579e-13 387.73

464.147 11.2159 -2.88776e-12
11.2159 407.292 -1.2997e-13
-2.88776e-12 -1.2997e-13 424.915

505.37 0.429907 -1.51153e-12
0.429907 421.563 -1.00264e-12
-1.51153e-12 -1.00264e-12 485.667

449.341 -29.0312 4.04647e-12
-29.0312 501.989 -3.70459e-12
4.04647e-12 -3.70459e-12 493.581

572.506 -6.31908 -5.99891e-13
-6.31908 589.479 -8.58869e-13
-5.99891e-13 -8.58869e-13 549.247

463.131 37.4118 1.95103e-12
37.4118 487.018 9.4443e-13
1.95103e-12 9.4443e-13 493.057

408.73 1.66326 -2.25242e-12
1.66326 331.597 -2.56787e-12
-2.25242e-12 -2.56787e-12 308.898

404.227 -32.7862 -4.59366e-12
-32.7862 415.501 -1.77636e-14
-4.59366e-12 -1.77636e-14 387.382

443.132 36.6132 -1.08084e-12
36.6132 485.497 5.93155e-13
-1.08084e-12 5.93155e-13 486.564

444.671 -11.1337 -3.28959e-12
-11.1337 498.927 1.69583e-12
-3.28959e-12 1.69583e-12 471.434

386.066 -25.514 -1.80271e-12
-25.514 428.893 1.10134e-12
-1.80271e-12 1.10134e-12 384.556

449.441 28.8302 7.86519e-13
28.8302 501.623 5.49486e-13
7.86519e-13 5.49486e-13 493.28

452.702 -26.1413 7.19306e-12
-26.1413 419.295 6.20541e-13
7.19306e-12 6.20541e-13 419.51

579.547 10.4834 2.92181e-12
10.4834 582.159 -8.01463e-12
2.92181e-12 -8.01463e-12 549.032

398.321 30.8713 3.62022e-12
30.8713 422.05 7.51991e-13
3.62022e-12 7.51991e-13 388.155

515.698 8.1268 -2.40859e-12
8.1268 437.26 2.03763e-12
-2.40859e-12 2.03763e-12 494.574

493.797 30.1905 -1.23338e-12
30.1905 484.74 -1.38112e-12
-1.23338e-12 -1.38112e-12 493.794

453.457 23.3316 4.22625e-13
23.3316 479.154 3.45057e-12
4.22625e-13 3.45057e-12 475.79

510.695 -32.4891 9.8795e-13
-32.4891 512.445 3.517e-13
9.8795e-13 3.517e-13 514.999

510.301 -23.1899 -2.26249e-12
-23.1899 473.173 1.6683e-12
-2.26249e-12 1.6683e-12 489.67

511.396 10.4709 2.506e-12
10.4709 557.985 2.27137e-12
2.506e-12 2.27137e-12 523.725

452.164 -23.4335 2.64055e-12
-23.4335 480.157 1.91195e-12
2.64055e-12 1.91195e-12 468.942

394.402 -9.70757 -4.03825e-12
-9.70757 316.408 8.34222e-13
-4.03825e-12 8.34222e-13 295.57

387.283 -14.2769 -5.34565e-12
-14.2769 306.054 -2.56447e-12
-5.34565e-12 -2.56447e-12 290.044

547.577 16.5292 2.01498e-12
16.5292 507.757 -1.47734e-12
2.01498e-12 -1.47734e-12 519.313

436.479 22.5013 -2.25716e-12
22.5013 469.128 3.57936e-12
-2.25716e-12 3.57936e-12 447.815

475.954 29.1628 -2.84809e-13
29.1628 467.637 1.62862e-12
-2.84809e-13 1.62862e-12 471.471

450.292 0.68866 9.92391e-13
0.68866 392.769 2.7725e-12
9.92391e-13 2.7725e-12 395.667

478.344 6.57128 9.17479e-13
6.57128 541.271 1.29437e-12
9.17479e-13 1.29437e-12 507.532

507.322 16.5408 2.02445e-12
16.5408 461.127 -5.55792e-12
2.02445e-12 -5.55792e-12 488.072

389.969 -25.7605 2.52776e-12
-25.7605 430.028 -1.79886e-12
2.52776e-12 -1.79886e-12 387.726

456.311 -2.57247 5.47162e-12
-2.57247 517.006 -4.93827e-13
5.47162e-12 -4.93827e-13 484.832

400.582 13.3648 8.15348e-13
13.3648 452.976 2.41229e-12
8.15348e-13 2.41229e-12 404.628

486.905 -29.713 -5.32907e-15
-29.713 465.806 1.41161e-12
-5.32907e-15 1.41161e-12 474.25

430.29 -29.9468 4.96077e-12
-29.9468 423.62 -1.01667e-12
4.96077e-12 -1.01667e-12 404.947

399.703 31.6221 -1.37964e-13
31.6221 418.223 -2.84217e-12
-1.37964e-13 -2.84217e-12 385.994

623.997 -15.0202 1.17832e-12
-15.0202 581.944 -5.2857e-12
1.17832e-12 -5.2857e-12 557.898

494.515 2.0412 -5.70433e-13
2.0412 552.136 1.48918e-12
-5.70433e-13 1.48918e-12 517.917

483.494 20.3003 2.37425e-12
20.3003 542.035 -2.27551e-12
2.37425e-12 -2.27551e-12 516.023

544.698 15.4392 1.27498e-12
15.4392 479.962 1.51582e-13
1.27498e-12 1.51582e-13 515.745

473.74 -26.1884 3.18116e-12
-26.1884 479.748 -9.41469e-14
3.18116e-12 -9.41469e-14 483.009

452.116 17.9569 1.07174e-12
17.9569 404.5 4.02463e-12
1.07174e-12 4.02463e-12 406.91

531.574 -5.29424 1.71397e-12
-5.29424 580.795 1.9984e-12
1.71397e-12 1.9984e-12 537.111

512.178 -18.9882 -2.1115e-12
-18.9882 464.785 5.34683e-13
-2.1115e-12 5.34683e-13 493.02

473.966 -15.5986 1.18015e-11
-15.5986 423.168 -1.06655e-12
1.18015e-11 -1.06655e-12 438.871

401.992 11.6029 -1.66889e-12
11.6029 455.948 -1.20792e-13
-1.66889e-12 -1.20792e-13 407.771

410.915 -25.7336 9.60002e-12
-25.7336 435.572 1.79649e-12
9.60002e-12 1.79649e-12 398.948

532.041 -25.2738 -2.22489e-12
-25.2738 523.186 2.25005e-14
-2.22489e-12 2.25005e-14 519.111

423.048 31.9587 2.61421e-12
31.9587 417.24 7.61465e-13
2.61421e-12 7.61465e-13 400.297

535.474 -25.1348 1.28401e-12
-25.1348 505.781 5.19584e-13
1.28401e-12 5.19584e-13 515.652

453.485 2.59731 -3.59061e-12
2.59731 397.011 -3.37508e-12
-3.59061e-12 -3.37508e-12 401.889

311.093 -28.9298 3.66462e-12
-28.9298 376.59 3.07902e-14
3.66462e-12 3.07902e-14 289.989

431.867 -29.2303 -3.96187e-12
-29.2303 424.039 -1.71715e-14
-3.96187e-12 -1.71715e-14 406.146

353.755 32.1582 2.15887e-12
32.1582 392.537 8.02913e-13
2.15887e-12 8.02913e-13 312.962

470.339 -11.877 -6.26654e-12
-11.877 529.544 -3.59239e-12
-6.26654e-12 -3.59239e-12 500.295

391.443 -13.821 3.72887e-13
-13.821 449.244 -5.44157e-12
3.72887e-13 -5.44157e-12 400.19

602.85 -23.9884 4.64369e-13
-23.9884 602.264 5.6577e-13
4.64369e-13 5.6577e-13 557.839

408.363 23.7702 2.31637e-12
23.7702 441.931 9.74628e-13
2.31637e-12 9.74628e-13 402.214

496.569 -32.7262 3.86624e-12
-32.7262 490.633 -2.52568e-12
3.86624e-12 -2.52568e-12 497.439

388.182 -11.9628 2.29801e-12
-11.9628 448.276 -1.88175e-12
2.29801e-12 -1.88175e-12 397.008

516.703 -19.1169 -1.67096e-12
-19.1169 465.745 1.2393e-12
-1.67096e-12 1.2393e-12 496.235

410.678 23.8765 -2.32407e-12
23.8765 439.303 -7.12911e-13
-2.32407e-12 -7.12911e-13 400.691

488.911 -4.97543 -8.05874e-13
-4.97543 435.063 -8.30595e-13
-8.05874e-13 -8.30595e-13 460.374

305.777 -30.3421 -1.67333e-12
-30.3421 391.432 1.90189e-12
-1.67333e-12 1.90189e-12 262.565

438.602 21.0137 -2.40193e-12
21.0137 473.905 2.2015e-12
-2.40193e-12 2.2015e-12 458.341

445.68 -19.3228 1.18424e-14
-19.3228 393.97 8.55316e-13
1.18424e-14 8.55316e-13 399.617

551.598 -21.4459 5.8753e-12
-21.4459 499.511 -3.99947e-12
5.8753e-12 -3.99947e-12 520.097

424.464 31.7532 -4.43734e-12
31.7532 413.316 3.8843e-12
-4.43734e-12 3.8843e-12 397.953

459.156 -29.9712 9.10679e-13
-29.9712 437.632 2.91826e-12
9.10679e-13 2.91826e-12 439.294

510.614 20.8851 -2.16242e-12
20.8851 476.067 2.77704e-13
-2.16242e-12 2.77704e-13 492.75

461.498 -28.0758 -4.6995e-12
-28.0758 485.735 -2.76816e-14
-4.6995e-12 -2.76816e-14 488.712

413.715 -26.2246 1.66208e-12
-26.2246 436.239 1.73609e-12
1.66208e-12 1.73609e-12 401.434

426.07 28.9804 -2.03393e-12
28.9804 429.892 2.45019e-12
-2.03393e-12 2.45019e-12 406.856

452.495 26.1908 5.99461e-12
26.1908 418.223 -3.01211e-12
5.99461e-12 -3.01211e-12 419.054

521.965 -14.6097 5.10407e-13
-14.6097 477.173 3.59031e-12
5.10407e-13 3.59031e-12 500.06

403.556 -16.6171 -5.11591e-13
-16.6171 451.737 -8.08005e-12
-5.11591e-13 -8.08005e-12 406.438

496.041 -17.5681 -1.88886e-12
-17.5681 447.602 -1.5928e-13
-1.88886e-12 -1.5928e-13 471.496

487.76 16.9082 -2.50822e-12
16.9082 436.254 -1.85659e-12
-2.50822e-12 -1.85659e-12 460.584

513.339 -9.38702 -7.5732e-13
-9.38702 555.775 2.52953e-12
-7.5732e-13 2.52953e-12 523.026

453.973 -13.4297 2.78296e-12
-13.4297 402.174 -7.43553e-13
2.78296e-12 -7.43553e-13 406.739

403.198 0.593989 -3.49158e-12
0.593989 465.72 -2.65269e-12
-3.49158e-12 -2.65269e-12 417.801

475.021 18.5547 -2.98013e-12
18.5547 428.768 3.57344e-13
-2.98013e-12 3.57344e-13 442.217

451.138 27.6034 -2.56388e-12
27.6034 421.835 -1.58362e-12
-2.56388e-12 -1.58362e-12 420.839

400.865 -15.6857 -2.06413e-12
-15.6857 451.377 -1.83557e-12
-2.06413e-12 -1.83557e-12 403.732

405.997 -1.2023 -1.18357e-12
-1.2023 468.03 -6.63173e-14
-1.18357e-12 -6.63173e-14 421.216

516.196 29.1343 -5.59967e-12
29.1343 498.023 -1.68458e-13
-5.59967e-12 -1.68458e-13 504.872

441.7 -10.9219 -2.77482e-12
-10.9219 500.653 2.88066e-12
-2.77482e-12 2.88066e-12 471.144

451.435 -26.7147 -5.59493e-12
-26.7147 418.762 -6.11185e-12
-5.59493e-12 -6.11185e-12 419.349

444.383 21.332 6.4612e-12
21.332 395.295 -1.08358e-13
6.4612e-12 -1.08358e-13 398.197

497.591 23.6651 -4.61261e-13
23.6651 458.087 2.56476e-12
-4.61261e-13 2.56476e-12 476.547

447.679 5.47063 1.26195e-12
5.47063 508.786 1.01904e-12
1.26195e-12 1.01904e-12 476.878

427.646 29.0648 -1.83971e-12
29.0648 426.431 -1.71892e-12
-1.83971e-12 -1.71892e-12 405.106

536.819 22.9638 3.07902e-14
22.9638 531.895 6.19934e-12
3.07902e-14 6.19934e-12 522.782

314.748 -59.6906 -1.66504e-12
-59.6906 282.767 8.91613e-12
-1.66504e-12 8.91613e-12 223.422

480.59 -25.0473 3.73509e-12
-25.0473 445.068 1.14072e-12
3.73509e-12 1.14072e-12 456.643

336.661 7.06975 -2.32999e-12
7.06975 409.151 4.6659e-12
-2.32999e-12 4.6659e-12 319.437

460.535 -28.8887 1.5626e-12
-28.8887 444.733 -1.17536e-12
1.5626e-12 -1.17536e-12 443.449

96.4233 -52.7006 1.78228e-12
-52.7006 306.616 7.67386e-13
1.78228e-12 7.67386e-13 113.699

95.9572 51.4512 2.77467e-12
51.4512 306.88 1.84267e-12
2.77467e-12 1.84267e-12 114.487

181.516 117.153 -4.76537e-12
117.153 226.075 -3.69956e-12
-4.76537e-12 -3.69956e-12 113.587

182.814 -117.096 2.79717e-12
-117.096 223.311 -1.36424e-12
2.79717e-12 -1.36424e-12 113.561

321.581 -1.36335 2.32111e-12
-1.36335 84.653 2.66997e-14
2.32111e-12 2.66997e-14 114.928

274.431 -91.1248 5.68434e-14
-91.1248 127.417 -4.87906e-13
5.68434e-14 -4.87906e-13 113.801

275.128 91.6526 -1.26003e-12
91.6526 128.25 -4.49063e-12
-1.26003e-12 -4.49063e-12 114.571

525.237 14.3301 -1.4128e-12
14.3301 474.709 2.11683e-13
-1.4128e-12 2.11683e-13 502.311

556.795 25.5367 5.50078e-13
25.5367 541.182 6.82121e-13
5.50078e-13 6.82121e-13 533.448

492.088 6.60592 9.08192e-12
6.60592 439.117 2.25819e-13
9.08192e-12 2.25819e-13 471.398

470.296 21.7842 6.51331e-14
21.7842 424.513 -3.57581e-12
6.51331e-14 -3.57581e-12 438.191

409.972 17.7441 -5.68612e-12
17.7441 461.069 -2.58223e-12
-5.68612e-12 -2.58223e-12 425.039

448.007 28.8979 -4.50662e-12
28.8979 424.701 -8.05282e-14
-4.50662e-12 -8.05282e-14 420.746

487.146 -29.6631 -5.57184e-13
-29.6631 465.624 -2.95882e-12
-5.57184e-13 -2.95882e-12 474.586

449.364 28.0272 -7.88702e-13
28.0272 421.068 3.47929e-12
-7.88702e-13 3.47929e-12 418.638

402.96 -2.84117 5.36312e-12
-2.84117 465.377 -4.45037e-12
5.36312e-12 -4.45037e-12 417.537

555.801 -26.0975 -3.32416e-12
-26.0975 543.375 -7.85298e-13
-3.32416e-12 -7.85298e-13 533.691

405.498 -4.86226 5.21731e-12
-4.86226 467.115 3.32652e-12
5.21731e-12 3.32652e-12 420.596

522.29 23.016 -7.21497e-12
23.016 499.739 -2.79628e-12
-7.21497e-12 -2.79628e-12 507.967

423.374 26.8701 -3.65811e-12
26.8701 386.504 -1.2772e-12
-3.65811e-12 -1.2772e-12 373.024

480.106 -13.216 1.93801e-12
-13.216 532.766 -7.17944e-13
1.93801e-12 -7.17944e-13 511.998

484.194 13.7277 -6.54884e-13
13.7277 432.773 1.16973e-12
-6.54884e-13 1.16973e-12 456.871

457.365 -29.9871 -7.60754e-12
-29.9871 436.973 -2.90227e-12
-7.60754e-12 -2.90227e-12 437.829

454.304 -24.713 -2.52243e-12
-24.713 416.801 3.32564e-12
-2.52243e-12 3.32564e-12 419.849

547.402 -16.0744 9.65746e-13
-16.0744 509.303 -1.85985e-12
9.65746e-13 -1.85985e-12 519.382

475.968 27.9285 -1.29437e-12
27.9285 449.702 3.37537e-12
-1.29437e-12 3.37537e-12 456.922

469.097 23.977 -2.0961e-13
23.977 427.846 -8.12091e-13
-2.0961e-13 -8.12091e-13 439.826

432.425 -2.79296 -2.42961e-12
-2.79296 493.633 -2.01439e-12
-2.42961e-12 -2.01439e-12 457.103

417.604 5.87329 -2.46519e-12
5.87329 479.553 -1.5549e-12
-2.46519e-12 -1.5549e-12 440.173

463.007 2.64666 -3.31468e-12
2.64666 402.276 -4.29242e-12
-3.31468e-12 -4.29242e-12 422.317

438.644 -7.2895 -2.18137e-12
-7.2895 373.912 -3.62925e-12
-2.18137e-12 -3.62925e-12 381.215

454.84 30.4842 -8.43769e-13
30.4842 439.012 4.4178e-12
-8.43769e-13 4.4178e-12 437.833

478.461 -26.155 -4.71327e-13
-26.155 443.539 1.05279e-12
-4.71327e-13 1.05279e-12 454.643

525.697 -21.2543 5.15232e-12
-21.2543 497.826 -1.70205e-12
5.15232e-12 -1.70205e-12 508.616

437.729 -31.6331 7.51991e-14
-31.6331 437.652 -2.22281e-12
7.51991e-14 -2.22281e-12 426.856

417.587 -27.785 7.9042e-12
-27.785 444.392 7.86926e-13
7.9042e-12 7.86926e-13 419.684

430.643 29.8866 -7.42517e-13
29.8866 442.74 -5.81402e-12
-7.42517e-13 -5.81402e-12 426.494

416.222 -9.57776 -8.94322e-13
-9.57776 475.207 1.39148e-12
-8.94322e-13 1.39148e-12 436.451

428.892 -1.54472 -9.37768e-13
-1.54472 491.864 1.36779e-13
-9.37768e-13 1.36779e-13 453.991

445.179 5.74796 -3.4243e-13
5.74796 508.04 9.64562e-13
-3.4243e-13 9.64562e-13 474.911

414.615 -21.0887 -3.63117e-12
-21.0887 458.403 1.6378e-12
-3.63117e-12 1.6378e-12 426.062

496.866 24.1109 -8.52651e-14
24.1109 455.693 1.99811e-12
-8.52651e-14 1.99811e-12 474.589

483.369 -9.58961 -1.18009e-12
-9.58961 430.109 -3.63665e-12
-1.18009e-12 -3.63665e-12 455.217

415.63 7.46517 2.98965e-12
7.46517 477.117 -3.27679e-12
2.98965e-12 -3.27679e-12 436.91

443.952 -9.70104 -3.67242e-12
-9.70104 501.5 2.28913e-12
-3.67242e-12 2.28913e-12 471.004

433.17 -16.3304 -4.94567e-12
-16.3304 481.672 3.19567e-12
-4.94567e-12 3.19567e-12 455.664

463.535 -8.23907 9.11863e-13
-8.23907 406.332 7.91574e-12
9.11863e-13 7.91574e-12 421.467

494.43 -32.3468 2.05732e-12
-32.3468 487.612 -3.41475e-12
2.05732e-12 -3.41475e-12 496.247

422.941 9.32068 7.88702e-13
9.32068 479.087 -2.68585e-12
7.88702e-13 -2.68585e-12 440.976

564.356 -18.2126 -3.09856e-12
-18.2126 529.95 3.42408e-12
-3.09856e-12 3.42408e-12 531.829

309.046 24.8223 -1.05989e-12
24.8223 379.42 -1.97531e-12
-1.05989e-12 -1.97531e-12 289.795

501.695 -26.626 -2.00817e-12
-26.626 499.487 -1.59946e-12
-2.00817e-12 -1.59946e-12 501.197

515.646 -30.2028 1.29911e-12
-30.2028 498.402 -2.23051e-12
1.29911e-12 -2.23051e-12 504.916

429.22 -0.701324 1.2507e-12
-0.701324 491.99 -1.15404e-12
1.2507e-12 -1.15404e-12 454.142

474.877 -16.6224 1.94748e-12
-16.6224 428.334 -8.4673e-14
1.94748e-12 -8.4673e-14 441.953

462.302 12.8416 2.62494e-13
12.8416 511.272 -7.98176e-13
2.62494e-13 -7.98176e-13 489.118

240.775 -3.18046 7.49001e-12
-3.18046 360.685 2.67164e-12
7.49001e-12 2.67164e-12 226.964

432.401 14.2735 4.24868e-12
14.2735 485.353 4.00865e-12
4.24868e-12 4.00865e-12 456.879

458.108 -29.4888 -1.01152e-11
-29.4888 443.167 9.50943e-13
-1.01152e-11 9.50943e-13 440.759

304.185 25.1054 1.72662e-12
25.1054 394.582 -4.34142e-12
1.72662e-12 -4.34142e-12 264.339

603.55 26.0983 -1.23429e-11
26.0983 597.955 4.82873e-12
-1.23429e-11 4.82873e-12 558.156

608.284 -27.8077 8.87734e-12
-27.8077 595.03 3.72709e-12
8.87734e-12 3.72709e-12 558.29

463.491 -30.4187 9.99497e-13
-30.4187 459.035 -3.95506e-12
9.99497e-13 -3.95506e-12 459.07

434.581 -31.1597 4.22654e-12
-31.1597 436.357 2.80664e-13
4.22654e-12 2.80664e-13 424.659

474.098 20.8272 -5.56592e-14
20.8272 431.912 -2.57513e-12
-5.56592e-14 -2.57513e-12 443.97

465.219 15.0059 1.44122e-12
15.0059 410.114 1.89389e-12
1.44122e-12 1.89389e-12 427.46

646.07 3.08372 -6.32435e-12
3.08372 645.728 6.65601e-12
-6.32435e-12 6.65601e-12 574.619

649.891 -7.00038 2.78858e-12
-7.00038 641.398 -3.7268e-12
2.78858e-12 -3.7268e-12 575.147

496.985 4.82432 6.26758e-12
4.82432 442.031 6.2926e-12
6.26758e-12 6.2926e-12 477.41

443.555 6.73087 3.7567e-12
6.73087 502.986 -4.45866e-13
3.7567e-12 -4.45866e-13 471.047

441.969 6.73631 4.18797e-12
6.73631 502.511 1.5324e-12
4.18797e-12 1.5324e-12 469.771

321.534 58.6336 -2.61243e-12
58.6336 281.121 -9.45022e-13
-2.61243e-12 -9.45022e-13 225.075

420.225 -28.1993 3.43843e-12
-28.1993 444.02 -2.27137e-12
3.43843e-12 -2.27137e-12 421.029

520.575 17.9746 1.8335e-12
17.9746 467.528 6.4689e-13
1.8335e-12 6.4689e-13 499.507

472.976 9.53965 4.46458e-13
9.53965 421.194 1.76659e-12
4.46458e-13 1.76659e-12 436.2

440.627 -26.7229 1.84208e-12
-26.7229 450.723 -2.6675e-12
1.84208e-12 -2.6675e-12 433.413

469.273 -20.2374 3.76824e-12
-20.2374 422.714 3.53288e-12
3.76824e-12 3.53288e-12 437.174

312.471 60.2315 5.27696e-12
60.2315 281.37 -9.85404e-12
5.27696e-12 -9.85404e-12 223.214

492.679 31.069 -1.67866e-12
31.069 489.04 -5.91083e-12
-1.67866e-12 -5.91083e-12 493.136

410.86 -19.7858 -2.58253e-12
-19.7858 457.878 -1.40924e-12
-2.58253e-12 -1.40924e-12 423.495

474.126 28.8574 2.26367e-12
28.8574 449.628 1.00779e-12
2.26367e-12 1.00779e-12 456.516

430.953 -4.14474 2.2223e-12
-4.14474 492.97 -1.02259e-12
2.2223e-12 -1.02259e-12 456.465

423.927 19.6089 4.12411e-13
19.6089 465.708 4.54807e-12
4.12411e-13 4.54807e-12 434.105

452.745 30.5184 -4.71978e-12
30.5184 443.595 1.50161e-12
-4.71978e-12 1.50161e-12 439.605

428.64 -22.4729 2.28321e-12
-22.4729 461.134 -1.32753e-12
2.28321e-12 -1.32753e-12 433.81

443.571 -27.3522 3.15422e-12
-27.3522 450.43 -3.87897e-12
3.15422e-12 -3.87897e-12 435.043

294.777 11.2568 -9.06534e-13
11.2568 372.583 1.83083e-12
-9.06534e-13 1.83083e-12 258.1

357.296 -33.4557 1.51582e-13
-33.4557 389.114 -5.94487e-13
1.51582e-13 -5.94487e-13 314.126

419.655 -11.6904 1.80256e-12
-11.6904 476.358 1.57326e-12
1.80256e-12 1.57326e-12 439.342

478.395 26.4842 -4.8536e-12
26.4842 446.796 4.42609e-12
-4.8536e-12 4.42609e-12 456.081

452.342 29.4776 -6.762e-13
29.4776 449.023 -2.01439e-12
-6.762e-13 -2.01439e-12 442.397

426.806 -21.4336 5.36785e-12
-21.4336 461.781 -9.166e-13
5.36785e-12 -9.166e-13 432.627

422.928 -11.7822 8.13867e-13
-11.7822 476.644 1.89478e-12
8.13867e-13 1.89478e-12 439.926

457.704 28.4092 6.03961e-13
28.4092 447.084 9.25482e-13
6.03961e-13 9.25482e-13 442.568

425.102 -13.8776 -1.21088e-12
-13.8776 476.416 7.44294e-13
-1.21088e-12 7.44294e-13 442.102

311.263 27.8545 -5.61151e-12
27.8545 377.388 5.46171e-12
-5.61151e-12 5.46171e-12 289.982

485.168 -4.04135 -9.43303e-13
-4.04135 545.047 2.16716e-12
-9.43303e-13 2.16716e-12 511.034

432.982 31.0271 5.26986e-14
31.0271 439.625 -7.92255e-13
5.26986e-14 -7.92255e-13 426.016

509.307 14.9011 -4.3805e-12
14.9011 463.159 3.38426e-12
-4.3805e-12 3.38426e-12 488.603

516.918 -15.9273 5.55408e-13
-15.9273 467.579 4.84649e-12
5.55408e-13 4.84649e-12 493.921

383.922 -24.2042 -1.63899e-12
-24.2042 305.946 8.32874e-12
-1.63899e-12 8.32874e-12 285.352

442.276 -21.267 1.30266e-14
-21.267 475.996 1.66326e-12
1.30266e-14 1.66326e-12 459.318

447.825 26.698 1.75859e-12
26.698 466.204 4.01101e-12
1.75859e-12 4.01101e-12 457.838

522.973 -21.7279 -3.25665e-12
-21.7279 543.81 -3.68287e-12
-3.25665e-12 -3.68287e-12 525.307

579.583 14.1069 2.71605e-12
14.1069 617.62 -7.07878e-12
2.71605e-12 -7.07878e-12 557.051

620.207 9.44535 -9.85138e-13
9.44535 576.841 2.50141e-12
-9.85138e-13 2.50141e-12 556.87

523.468 32.7056 1.32842e-12
32.7056 520.65 4.24401e-13
1.32842e-12 4.24401e-13 519.522

414.888 26 1.97768e-13
26 448.902 1.713e-12
1.97768e-13 1.713e-12 420.373

478.092 26.6612 3.69305e-12
26.6612 444.767 -3.59742e-12
3.69305e-12 -3.59742e-12 455.505

332.361 45.1853 1.84149e-12
45.1853 349.487 -7.14569e-12
1.84149e-12 -7.14569e-12 286.738

571.39 -11.3439 -4.02241e-12
-11.3439 614.471 -3.91213e-12
-4.02241e-12 -3.91213e-12 554.594

641.327 -3.43305 -3.28843e-12
-3.43305 636.869 8.03801e-14
-3.28843e-12 8.03801e-14 572.395

634.904 -0.210139 1.73195e-13
-0.210139 643.177 -2.03615e-13
1.73195e-13 -2.03615e-13 572.222

272.962 -53.8019 -1.66385e-12
-53.8019 316.445 -5.34091e-12
-1.66385e-12 -5.34091e-12 220.907

566.637 -11.6001 -2.23777e-12
-11.6001 562.124 7.51843e-12
-2.23777e-12 7.51843e-12 540.896

563.77 8.81316 2.56091e-12
8.81316 586.961 -1.59961e-12
2.56091e-12 -1.59961e-12 546.838

478.24 -26.1993 3.69009e-12
-26.1993 440.438 2.73914e-12
3.69009e-12 2.73914e-12 453.478

494.346 1.01116 3.00833e-13
1.01116 545.756 2.36788e-12
3.00833e-13 2.36788e-12 514.054

447.647 -20.2677 2.18137e-12
-20.2677 484.154 1.3151e-12
2.18137e-12 1.3151e-12 470.634

506.297 6.25531 -1.61737e-12
6.25531 443.371 -1.54706e-12
-1.61737e-12 -1.54706e-12 486.121

461.271 15.5963 -2.06484e-12
15.5963 521.249 -4.06578e-12
-2.06484e-12 -4.06578e-12 497.553

471.178 7.19166 2.67168e-12
7.19166 528.003 -5.64289e-13
2.67168e-12 -5.64289e-13 497.688

493.759 20.3926 2.23939e-12
20.3926 451.514 -6.18468e-12
2.23939e-12 -6.18468e-12 469.748

241.064 -3.1139 -1.79123e-12
-3.1139 358.557 1.50398e-12
-1.79123e-12 1.50398e-12 227.062

463.697 -27.6234 -2.54434e-12
-27.6234 463.387 2.70421e-12
-2.54434e-12 2.70421e-12 461.187

488.341 -26.1161 -3.80436e-12
-26.1161 481.594 -2.02179e-12
-3.80436e-12 -2.02179e-12 485.866

497.535 -31.4837 2.44693e-12
-31.4837 489.955 -4.31758e-12
2.44693e-12 -4.31758e-12 498.977

355.597 32.7491 2.10794e-13
32.7491 285.777 -7.11016e-12
2.10794e-13 -7.11016e-12 248.364

563.88 -20.1166 1.75978e-12
-20.1166 569.613 -6.9816e-12
1.75978e-12 -6.9816e-12 542.569

337.645 54.3217 -1.66978e-12
54.3217 356.655 -2.73085e-12
-1.66978e-12 -2.73085e-12 258.873

477.068 -21.4396 3.02425e-12
-21.4396 506.486 -2.24235e-12
3.02425e-12 -2.24235e-12 500.24

504.769 14.6503 1.76511e-12
14.6503 451.984 -6.46653e-12
1.76511e-12 -6.46653e-12 481.557

449.827 -14.5722 -6.21843e-12
-14.5722 396.984 5.20532e-12
-6.21843e-12 5.20532e-12 400.837

452.59 24.0465 -4.80505e-13
24.0465 478.776 1.87702e-13
-4.80505e-13 1.87702e-13 467.844

493.663 20.4278 5.50671e-14
20.4278 449.498 6.93371e-13
5.50671e-14 6.93371e-13 469.339

505.563 11.4007 1.07625e-12
11.4007 564.414 3.57344e-12
1.07625e-12 3.57344e-12 526.709

475.892 -31.58 2.38387e-12
-31.58 470.353 -2.51473e-12
2.38387e-12 -2.51473e-12 475.06

559.268 19.8124 1.06581e-13
19.8124 510.438 -1.07766e-13
1.06581e-13 -1.07766e-13 526.485

439.954 -18.4432 -1.39977e-12
-18.4432 482.461 6.42508e-12
-1.39977e-12 6.42508e-12 459.146

465.895 4.28309 2.81023e-12
4.28309 526.104 -2.55203e-13
2.81023e-12 -2.55203e-13 495.507

588.639 9.92666 -1.03381e-11
9.92666 552.46 1.36839e-12
-1.03381e-11 1.36839e-12 545.187

590.422 -8.51326 2.46173e-12
-8.51326 554.802 5.77286e-12
2.46173e-12 5.77286e-12 545.704

382.306 18.5121 -4.61379e-12
18.5121 302.285 -1.10963e-12
-4.61379e-12 -1.10963e-12 286.132

502.674 7.96493 1.43915e-12
7.96493 453.597 -3.39284e-12
1.43915e-12 -3.39284e-12 487.762

232.814 7.74034 8.95136e-13
7.74034 381.513 2.73322e-12
8.95136e-13 2.73322e-12 187.185

236.983 -11.385 6.33071e-12
-11.385 387.207 -3.16428e-12
6.33071e-12 -3.16428e-12 189.449

249.286 56.4062 -1.79294e-12
56.4062 354.774 1.35951e-12
-1.79294e-12 1.35951e-12 184.022

505.012 -28.9503 -7.11312e-12
-28.9503 478.612 -1.81129e-12
-7.11312e-12 -1.81129e-12 491.34

258.47 -49.1896 4.53563e-12
-49.1896 341.838 -2.8327e-12
4.53563e-12 -2.8327e-12 220.732

249.291 -55.9488 -6.23383e-12
-55.9488 344.749 -1.75267e-12
-6.23383e-12 -1.75267e-12 181.114

434.65 26.2196 -4.1324e-12
26.2196 454.388 -2.94698e-12
-4.1324e-12 -2.94698e-12 432.82

329.922 73.8428 5.43802e-12
73.8428 280.009 -1.80478e-12
5.43802e-12 -1.80478e-12 184.826

540.125 13.0474 -5.74e-12
13.0474 554.944 3.04023e-12
-5.74e-12 3.04023e-12 532.074

562.382 0.0391674 1.5891e-12
0.0391674 532.452 -3.68831e-12
1.5891e-12 -3.68831e-12 531.867

338.6 -73.1283 -8.28967e-13
-73.1283 279.856 3.78956e-14
-8.28967e-13 3.78956e-14 186.308

432.666 -23.4236 1.73224e-12
-23.4236 466.306 3.0731e-12
1.73224e-12 3.0731e-12 447.568

358.928 34.7285 -8.31335e-13
34.7285 310.973 1.81425e-12
-8.31335e-13 1.81425e-12 258.035

267.703 63.4899 -6.627e-12
63.4899 345.208 8.66862e-13
-6.627e-12 8.66862e-13 185.843

293.691 21.6297 -8.78349e-12
21.6297 367.658 -5.47118e-13
-8.78349e-12 -5.47118e-13 254.495

267.575 -65.9187 -8.57388e-13
-65.9187 344.843 -2.71427e-12
-8.57388e-13 -2.71427e-12 184.3

291.638 -12.3808 -6.24153e-12
-12.3808 370.879 2.20268e-13
-6.24153e-12 2.20268e-13 253.44

550.305 6.84196 -3.76617e-12
6.84196 582.076 -1.86814e-13
-3.76617e-12 -1.86814e-13 541.115

329.886 -45.9738 8.90547e-13
-45.9738 341.812 -9.166e-13
8.90547e-13 -9.166e-13 276.612

259.779 47.5309 -7.91781e-12
47.5309 340.214 -8.47914e-13
-7.91781e-12 -8.47914e-13 223.144

370.214 37.9108 2.38269e-12
37.9108 244.918 9.40285e-13
2.38269e-12 9.40285e-13 187.355

481.887 -29.2853 1.14279e-12
-29.2853 460.508 1.08654e-13
1.14279e-12 1.08654e-13 467.71

480.974 12.8967 -1.03872e-12
12.8967 525.826 -3.6741e-12
-1.03872e-12 -3.6741e-12 504.1

354.415 -38.1116 -4.64221e-13
-38.1116 300.074 1.79294e-12
-4.64221e-13 1.79294e-12 251.812

482.53 -28.8018 -6.96924e-13
-28.8018 460.317 -6.72736e-12
-6.96924e-13 -6.72736e-12 468.459

365.261 -36.3427 1.0895e-13
-36.3427 230.987 -2.53308e-12
1.0895e-13 -2.53308e-12 182.769

481.499 -28.3171 -1.32753e-12
-28.3171 472.751 1.0146e-12
-1.32753e-12 1.0146e-12 477.915

436.349 -25.2944 9.18969e-13
-25.2944 466.22 4.43497e-12
9.18969e-13 4.43497e-12 448.206

314.796 69.4593 -2.67164e-12
69.4593 292.14 -1.86399e-12
-2.67164e-12 -1.86399e-12 184.522

290.779 -22.9323 6.23975e-12
-22.9323 359.161 4.56168e-12
6.23975e-12 4.56168e-12 247.027

312.398 -71.6913 8.81073e-13
-71.6913 288.12 3.58114e-12
8.81073e-13 3.58114e-12 182.025

268.544 50.7364 -2.68111e-12
50.7364 320.057 3.45561e-12
-2.68111e-12 3.45561e-12 221.502

459.857 -30.2117 -6.30666e-12
-30.2117 454.841 -1.5931e-12
-6.30666e-12 -1.5931e-12 454.396

559.284 -14.6402 3.10774e-12
-14.6402 544.41 7.68689e-12
3.10774e-12 7.68689e-12 533.714

635.922 11.0928 1.21569e-11
11.0928 631.383 4.21145e-12
1.21569e-11 4.21145e-12 570.018

619.956 -5.15996 -5.47222e-12
-5.15996 639.738 -1.76706e-11
-5.47222e-12 -1.76706e-11 568.495

453.866 13.0836 1.90614e-12
13.0836 506.551 3.02336e-12
1.90614e-12 3.02336e-12 482.568

634.151 -10.6672 2.44789e-12
-10.6672 631.313 4.77929e-12
2.44789e-12 4.77929e-12 569.873

622.695 4.09169 2.43672e-12
4.09169 642.684 5.54068e-12
2.43672e-12 5.54068e-12 569.697

643.374 7.43434 -7.39305e-12
7.43434 619.147 -3.78586e-12
-7.39305e-12 -3.78586e-12 569.019

584.775 -12.1154 4.37302e-12
-12.1154 631.667 -7.22133e-12
4.37302e-12 -7.22133e-12 560.591

307.441 -30.4694 6.18527e-12
-30.4694 371.629 -7.74492e-13
6.18527e-12 -7.74492e-13 280.767

589.624 -12.9721 -3.60068e-12
-12.9721 549.111 5.18637e-12
-3.60068e-12 5.18637e-12 543.824

527.203 -34.4179 -2.59644e-12
-34.4179 521.484 4.49862e-13
-2.59644e-12 4.49862e-13 519.962

565.462 -18.1768 -6.02777e-13
-18.1768 537.987 2.17308e-12
-6.02777e-13 2.17308e-12 534.255

502.566 15.459 -6.38304e-13
15.459 452.112 4.90156e-12
-6.38304e-13 4.90156e-12 480.203

586.348 9.86441 -7.5151e-13
9.86441 642.135 7.16271e-12
-7.5151e-13 7.16271e-12 563.101

636.657 19.2278 1.96583e-13
19.2278 591.722 1.61093e-12
1.96583e-13 1.61093e-12 562.923

569.774 11.3061 1.54543e-13
11.3061 544.336 5.74725e-12
1.54543e-13 5.74725e-12 536.433

353.439 -15.3391 2.60532e-14
-15.3391 231.514 1.81188e-12
2.60532e-14 1.81188e-12 219.012

437.202 24.9637 -4.32869e-12
24.9637 461.908 1.97176e-13
-4.32869e-12 1.97176e-13 445.718

317.088 -61.3537 7.14095e-12
-61.3537 277.846 4.403e-12
7.14095e-12 4.403e-12 218.086

334.206 -57.4564 -1.06581e-13
-57.4564 357.32 -1.12503e-12
-1.06581e-13 -1.12503e-12 252.537

383.331 -36.5435 1.45898e-12
-36.5435 305.736 7.964e-12
1.45898e-12 7.964e-12 257.757

562.495 -5.15898 -3.43725e-12
-5.15898 616.951 -9.09199e-13
-3.43725e-12 -9.09199e-13 552.948

562.202 2.89122 2.49785e-12
2.89122 615.816 -6.1684e-13
2.49785e-12 -6.1684e-13 552.546

598.769 -24.4567 -2.53723e-12
-24.4567 575.741 1.22583e-12
-2.53723e-12 1.22583e-12 551.576

602.328 -21.7609 5.46341e-13
-21.7609 573.432 6.54114e-12
5.46341e-13 6.54114e-12 551.842

598.782 26.1364 2.08988e-12
26.1364 580.456 1.06996e-12
2.08988e-12 1.06996e-12 552.731

625.741 3.09971 1.9608e-12
3.09971 630.734 -2.37439e-11
1.9608e-12 -2.37439e-11 568.418

599.058 -20.5092 3.94795e-12
-20.5092 576.352 -8.51674e-12
3.94795e-12 -8.51674e-12 552.265

607.809 -18.5685 5.71099e-12
-18.5685 620.262 -1.67422e-12
5.71099e-12 -1.67422e-12 563.183

632.9 2.4347 7.37321e-12
2.4347 635.526 -4.68588e-12
7.37321e-12 -4.68588e-12 570.503

607.885 -20.5266 5.54053e-12
-20.5266 572.425 8.76632e-13
5.54053e-12 8.76632e-13 553.404

607.071 20.9562 4.21781e-12
20.9562 573.683 1.20496e-12
4.21781e-12 1.20496e-12 553.807

633.851 -3.45874 1.55653e-12
-3.45874 636.777 4.68855e-12
1.55653e-12 4.68855e-12 571.278

632.181 -3.1175 -3.91924e-12
-3.1175 625.756 9.92332e-12
-3.91924e-12 9.92332e-12 569.393

609.681 12.1098 -7.50762e-12
12.1098 620.485 4.89853e-12
-7.50762e-12 4.89853e-12 563.915

587.201 26.93 2.91026e-13
26.93 583.017 -2.5475e-14
2.91026e-13 -2.5475e-14 551.7

FIELD solute_concentration_TPM 2
S_ext 1 563 float
0.997016
0.996824
0.996844
0.996825
0.996793
0.996844
0.997016
0.996835
0.996861
0.996827
0.996977
0.996835
0.996839
0.996827
0.996801
0.996842
0.996818
0.996833
0.996865
0.996847
0.996853
0.996736
0.996849
0.996847
0.996848
0.99683
0.996967
0.996842
0.996914
0.996765
0.99684
0.996912
0.996972
0.996775
0.996774
0.996775
0.996762
0.996776
0.99684
0.996972
0.996913
0.996761
0.996761
0.996839
0.996946
0.996912
0.996863
0.996858
0.996844
0.996922
0.996917
0.996898
0.996791
0.996899
0.996792
0.996952
0.996774
0.996898
0.996774
0.996846
0.996817
0.996809
0.996963
0.996811
0.996809
0.996823
0.996816
0.996831
0.996848
0.996823
0.996791
0.996791
0.996915
0.996818
0.996845
0.996976
0.996803
0.996823
0.99683
0.99689
0.996931
0.996788
0.996812
0.996934
0.996912
0.99695
0.996842
0.996822
0.996946
0.996745
0.996898
0.996745
0.9968
0.996825
0.996898
0.996917
0.996933
0.996827
0.996803
0.99684
0.996879
0.99691
0.996933
0.99683
0.996829
0.996828
0.996811
0.996842
0.996934
0.996818
0.996845
0.996943
0.996937
0.996832
0.996829
0.996899
0.996776
0.996935
0.996777
0.996898
0.99687
0.996802
0.996822
0.996817
0.996817
0.996799
0.99678
0.996827
0.996933
0.996897
0.996789
0.996824
0.996812
0.996823
0.99691
0.996773
0.996944
0.996839
0.996812
0.996773
0.996907
0.996832
0.99687
0.996827
0.996936
0.996829
0.996833
0.996846
0.996845
0.996883
0.996857
0.996822
0.996912
0.996839
0.996827
0.996823
0.996825
0.996907
0.996906
0.996836
0.996858
0.996911
0.996946
0.996916
0.996905
0.996828
0.996906
0.996908
0.996913
0.996905
0.996799
0.996898
0.996917
0.996824
0.996898
0.996812
0.996799
0.996836
0.996792
0.99683
0.996915
0.996827
0.996827
0.996906
0.996821
0.996918
0.996817
0.996814
0.996801
0.996827
0.996821
0.996931
0.996897
0.996912
0.996823
0.996833
0.996832
0.996812
0.996822
0.996824
0.996822
0.996864
0.99689
0.996813
0.996915
0.996812
0.996824
0.996909
0.996808
0.996822
0.996808
0.996828
0.99683
0.996812
0.996881
0.996827
0.996889
0.996814
0.996817
0.996817
0.996817
0.996818
0.996818
0.996818
0.996827
0.996801
0.996801
0.9968
0.996801
0.996793
0.996792
0.996883
0.996826
0.996822
0.99686
0.996801
0.996801
0.996823
0.996889
0.996823
0.996827
0.996882
0.996807
0.996883
0.996813
0.996822
0.996881
0.996888
0.996932
0.996924
0.996812
0.996938
0.99684
0.996889
0.996865
0.996823
0.996817
0.996762
0.996817
0.996942
0.996888
0.996822
0.996835
0.99689
0.996817
0.996869
0.996762
0.996889
0.996817
0.996819
0.996832
0.996801
0.996822
0.996792
0.996838
0.996944
0.99695
0.996798
0.996852
0.996835
0.996885
0.996806
0.996824
0.996888
0.996825
0.996879
0.996833
0.99688
0.996889
0.996751
0.996797
0.996799
0.996799
0.996827
0.996879
0.996777
0.99682
0.996857
0.996878
0.996883
0.996797
0.996882
0.996802
0.996882
0.996946
0.996878
0.996937
0.996813
0.996881
0.996751
0.996881
0.996816
0.996883
0.996818
0.996882
0.996844
0.99697
0.996844
0.996882
0.996795
0.996882
0.996856
0.99682
0.996822
0.996881
0.996879
0.996869
0.996815
0.996878
0.996836
0.996842
0.996794
0.996879
0.99687
0.996855
0.996869
0.99688
0.996868
0.99681
0.996835
0.99687
0.996882
0.996832
0.996831
0.996879
0.996794
0.996984
0.996845
0.996932
0.996854
0.997043
0.997043
0.99704
0.997041
0.997038
0.997048
0.997048
0.996812
0.996782
0.996835
0.996857
0.996865
0.996869
0.996833
0.99687
0.99687
0.996783
0.996869
0.996808
0.996898
0.996802
0.996845
0.996858
0.99687
0.996799
0.996845
0.996856
0.996845
0.996856
0.996867
0.996892
0.996857
0.996847
0.996807
0.996864
0.996869
0.996865
0.996858
0.996847
0.996832
0.996864
0.996833
0.996846
0.996857
0.996835
0.996845
0.996868
0.996817
0.996855
0.996783
0.996946
0.996813
0.99681
0.996846
0.996856
0.996822
0.996984
0.996844
0.996856
0.996969
0.996755
0.996756
0.996843
0.996866
0.996854
0.996864
0.996736
0.996734
0.996832
0.996835
0.996835
0.996988
0.996867
0.996815
0.99686
0.996861
0.996858
0.996983
0.996819
0.996866
0.996845
0.996845
0.996861
0.996857
0.996861
0.99686
0.99697
0.996936
0.996856
0.996845
0.996855
0.996862
0.996857
0.996855
0.996855
0.996948
0.996803
0.996864
0.996823
0.996818
0.996949
0.996844
0.996844
0.996794
0.996749
0.996749
0.996797
0.996868
0.996846
0.99695
0.996752
0.996734
0.996734
0.996985
0.996776
0.996764
0.996847
0.996802
0.996836
0.996825
0.996815
0.996815
0.996836
0.996983
0.996843
0.996826
0.996816
0.996977
0.99677
0.996975
0.996814
0.996829
0.996881
0.996838
0.996837
0.996788
0.996833
0.996788
0.996844
0.996817
0.996769
0.996769
0.996952
0.996823
0.997018
0.997019
0.997019
0.99682
0.996989
0.99702
0.996862
0.997017
0.996787
0.996787
0.997018
0.996851
0.996973
0.997023
0.996972
0.997023
0.996973
0.996775
0.996957
0.996988
0.997016
0.996838
0.99681
0.996975
0.996837
0.997017
0.99683
0.996851
0.997024
0.996976
0.997024
0.996984
0.996846
0.996783
0.996734
0.996736
0.996826
0.996735
0.996734
0.996736
0.996747
0.996953
0.996769
0.996797
0.996783
0.996829
0.996745
0.996745
0.996783
0.996985
0.996852
0.996992
0.99698
0.996971
0.996753
0.996754
0.996756
0.996756
0.996753
0.996739
0.996759
0.996746
0.996738
0.996756
0.996756
0.996738
0.996738
0.996745
0.996758
P_ext 1 563 float
0.0204393
0.0204343
0.0204351
0.0204344
0.0204325
0.020435
0.0204393
0.0204347
0.0204356
0.0204344
0.0204385
0.0204347
0.0204348
0.0204344
0.020433
0.020435
0.020434
0.0204346
0.0204357
0.0204352
0.0204353
0.0204291
0.0204352
0.0204351
0.0204352
0.0204345
0.0204382
0.0204349
0.020437
0.0204309
0.0204349
0.020437
0.0204384
0.0204315
0.0204314
0.0204315
0.0204308
0.0204316
0.0204349
0.0204384
0.020437
0.0204307
0.0204307
0.0204349
0.0204378
0.020437
0.0204357
0.0204355
0.020435
0.0204373
0.0204371
0.0204366
0.0204324
0.0204367
0.0204325
0.0204379
0.0204314
0.0204366
0.0204314
0.0204351
0.0204339
0.0204335
0.0204382
0.0204336
0.0204335
0.0204341
0.0204339
0.0204346
0.0204352
0.0204342
0.0204325
0.0204325
0.0204371
0.0204339
0.0204351
0.0204385
0.0204331
0.0204341
0.0204345
0.0204364
0.0204374
0.0204323
0.0204336
0.0204375
0.020437
0.0204379
0.0204349
0.020434
0.0204378
0.0204294
0.0204366
0.0204294
0.0204329
0.0204341
0.0204366
0.0204371
0.0204375
0.0204344
0.0204331
0.0204349
0.0204361
0.0204369
0.0204375
0.0204346
0.0204344
0.0204345
0.0204336
0.0204349
0.0204375
0.020434
0.0204351
0.0204377
0.0204376
0.0204346
0.0204345
0.0204367
0.0204314
0.0204375
0.0204314
0.0204366
0.0204358
0.0204331
0.0204342
0.0204339
0.0204339
0.0204329
0.0204317
0.0204344
0.0204375
0.0204366
0.0204323
0.0204343
0.0204337
0.0204343
0.020437
0.0204313
0.0204378
0.0204348
0.0204336
0.0204314
0.0204369
0.0204345
0.0204358
0.0204344
0.0204376
0.0204345
0.0204345
0.020435
0.020435
0.0204362
0.0204354
0.0204342
0.020437
0.0204349
0.0204344
0.0204343
0.0204343
0.0204369
0.0204368
0.0204348
0.0204355
0.0204369
0.0204378
0.0204371
0.0204368
0.0204345
0.0204369
0.0204369
0.020437
0.0204368
0.0204329
0.0204366
0.0204371
0.0204342
0.0204367
0.0204336
0.0204329
0.0204346
0.0204325
0.0204344
0.0204371
0.0204344
0.0204344
0.0204368
0.020434
0.0204372
0.0204339
0.0204337
0.0204329
0.0204344
0.020434
0.0204375
0.0204366
0.020437
0.0204343
0.0204347
0.0204346
0.0204337
0.0204342
0.0204341
0.0204342
0.0204357
0.0204364
0.0204337
0.0204371
0.0204337
0.0204341
0.0204369
0.0204333
0.0204342
0.0204333
0.0204343
0.0204345
0.0204336
0.0204362
0.0204343
0.0204364
0.0204337
0.0204339
0.0204339
0.020434
0.020434
0.020434
0.020434
0.0204343
0.0204331
0.0204331
0.020433
0.020433
0.0204325
0.0204324
0.0204362
0.0204343
0.0204342
0.0204356
0.020433
0.0204329
0.0204342
0.0204364
0.0204343
0.0204344
0.0204362
0.0204333
0.0204362
0.0204336
0.0204343
0.0204362
0.0204364
0.0204375
0.0204373
0.0204337
0.0204376
0.0204349
0.0204364
0.0204357
0.0204343
0.020434
0.0204307
0.020434
0.0204377
0.0204364
0.0204342
0.0204346
0.0204365
0.020434
0.0204358
0.0204307
0.0204364
0.0204339
0.0204339
0.0204346
0.020433
0.020434
0.0204325
0.0204348
0.0204377
0.0204379
0.0204327
0.0204353
0.0204346
0.0204363
0.0204332
0.0204342
0.0204364
0.0204342
0.0204361
0.0204345
0.0204362
0.0204364
0.02043
0.0204328
0.0204329
0.0204329
0.0204344
0.0204361
0.0204316
0.020434
0.0204354
0.0204361
0.0204363
0.0204328
0.0204362
0.0204329
0.0204362
0.0204378
0.0204361
0.0204376
0.0204336
0.0204362
0.02043
0.0204362
0.0204337
0.0204362
0.0204338
0.0204362
0.020435
0.0204383
0.020435
0.0204362
0.0204327
0.0204362
0.0204354
0.0204339
0.0204343
0.0204362
0.0204361
0.0204358
0.0204336
0.0204361
0.0204346
0.020435
0.0204326
0.0204361
0.0204359
0.0204353
0.0204358
0.0204362
0.0204358
0.0204334
0.0204347
0.0204359
0.0204362
0.0204345
0.0204345
0.0204361
0.0204326
0.0204386
0.020435
0.0204375
0.0204353
0.0204399
0.0204399
0.0204398
0.0204398
0.0204398
0.02044
0.02044
0.0204336
0.0204318
0.0204347
0.0204354
0.0204357
0.0204358
0.0204345
0.0204358
0.0204359
0.0204318
0.0204358
0.0204333
0.0204366
0.0204331
0.020435
0.0204355
0.0204359
0.0204327
0.020435
0.0204354
0.020435
0.0204354
0.0204358
0.0204365
0.0204354
0.0204351
0.0204333
0.0204356
0.0204358
0.0204357
0.0204355
0.0204351
0.0204345
0.0204357
0.0204345
0.0204351
0.0204354
0.0204346
0.0204351
0.0204358
0.0204339
0.0204354
0.020432
0.0204378
0.0204336
0.0204334
0.0204351
0.0204354
0.0204341
0.0204386
0.020435
0.0204354
0.0204383
0.0204301
0.0204301
0.0204349
0.0204357
0.0204354
0.0204357
0.0204288
0.0204288
0.0204346
0.0204346
0.0204346
0.0204387
0.0204358
0.0204337
0.0204356
0.0204356
0.0204355
0.0204386
0.0204339
0.0204358
0.020435
0.020435
0.0204356
0.0204354
0.0204356
0.0204355
0.0204383
0.0204376
0.0204354
0.020435
0.0204354
0.0204356
0.0204354
0.0204353
0.0204354
0.0204378
0.0204331
0.0204357
0.0204341
0.0204339
0.0204379
0.020435
0.0204351
0.0204325
0.02043
0.02043
0.0204327
0.0204358
0.020435
0.0204379
0.0204302
0.020429
0.020429
0.0204387
0.0204315
0.0204309
0.0204351
0.020433
0.0204348
0.0204343
0.0204338
0.0204337
0.0204346
0.0204386
0.020435
0.0204342
0.0204338
0.0204385
0.0204312
0.0204384
0.0204338
0.0204344
0.0204362
0.0204349
0.0204347
0.0204323
0.0204346
0.0204323
0.0204351
0.0204338
0.020431
0.020431
0.0204379
0.0204342
0.0204394
0.0204394
0.0204394
0.020434
0.0204388
0.0204394
0.0204356
0.0204393
0.0204322
0.0204322
0.0204393
0.0204353
0.0204384
0.0204395
0.0204384
0.0204395
0.0204384
0.0204315
0.020438
0.0204387
0.0204393
0.0204348
0.0204335
0.0204385
0.0204347
0.0204393
0.0204345
0.0204353
0.0204395
0.0204385
0.0204395
0.0204386
0.0204351
0.0204319
0.0204291
0.0204291
0.0204343
0.020429
0.0204291
0.0204291
0.0204297
0.020438
0.0204312
0.0204327
0.0204319
0.0204344
0.0204296
0.0204296
0.0204318
0.0204386
0.0204353
0.0204388
0.0204385
0.0204383
0.0204303
0.0204303
0.0204304
0.0204304
0.0204303
0.0204292
0.0204304
0.0204295
0.020429
0.0204302
0.0204302
0.020429
0.0204292
0.0204295
0.0204304
FIELD solute_flux_TPM 2
S_ext 3 563 float
-5.45231e-05 1.82413e-05 7.75616e-19
2.34396e-06 4.5224e-06 3.35645e-18
-8.39652e-06 -6.67926e-06 -1.67388e-18
-2.76576e-06 2.78781e-06 3.29704e-19
1.52134e-05 -4.34274e-06 -2.25189e-18
1.83354e-06 -1.0486e-05 -2.50424e-18
-5.36902e-05 -1.84632e-05 -1.54938e-18
-9.14835e-06 -6.83062e-06 1.62756e-19
1.46495e-05 6.17266e-07 -5.04473e-19
7.58802e-06 -2.65201e-06 4.89886e-19
3.62887e-05 8.45e-06 2.64756e-18
1.54884e-06 -1.1338e-05 1.84084e-18
9.05657e-06 7.4058e-06 3.17195e-18
1.75388e-06 9.06471e-06 6.70434e-19
1.37929e-05 -2.01442e-06 -1.72126e-18
-1.06669e-05 -1.73927e-07 -1.33228e-18
1.82922e-06 9.31884e-06 1.67747e-18
6.77607e-06 -1.61692e-06 4.50986e-18
6.5225e-06 1.13751e-05 -2.14764e-18
-9.72258e-06 1.22752e-06 -1.16325e-18
-2.36572e-06 -1.39694e-05 4.85913e-19
2.86309e-05 4.03952e-05 3.70332e-18
1.04328e-05 1.06304e-06 3.326e-19
7.45128e-06 -7.46155e-06 -5.01238e-19
-9.866e-06 -2.17748e-06 -1.49615e-18
-4.43266e-07 -7.3212e-06 1.51852e-19
4.1645e-05 -3.26227e-06 2.03154e-18
9.34999e-06 6.78936e-06 2.82824e-18
-1.64643e-05 -1.33628e-05 4.81289e-19
3.24529e-05 -8.5842e-06 -2.09901e-18
-1.08395e-05 -3.97182e-06 -3.67722e-18
3.51187e-06 -2.11083e-05 -3.27801e-19
3.12467e-05 -3.18518e-05 9.37858e-19
-3.45629e-06 -2.77376e-05 1.20406e-18
-1.95897e-05 2.43948e-05 1.40006e-18
-2.57481e-05 -1.08654e-05 7.09292e-19
2.15084e-05 2.81745e-05 4.51057e-18
-2.96205e-05 -5.79409e-06 -2.79045e-18
9.57788e-06 -7.30723e-06 -1.50601e-18
3.05258e-05 3.31906e-05 2.81683e-18
2.12534e-05 -9.30706e-06 -2.58402e-18
2.19375e-05 -2.71174e-05 1.57198e-19
-1.25222e-05 -3.25369e-05 7.14931e-18
-1.03912e-05 4.18403e-06 -3.34556e-18
1.9982e-05 -1.95459e-05 -1.5799e-18
-1.97133e-05 7.00981e-06 -1.61551e-18
-2.70319e-06 -1.33268e-05 1.55216e-19
5.19416e-06 1.32916e-05 -4.15814e-18
-1.07244e-05 3.88387e-06 -1.71604e-19
-1.18547e-05 1.86387e-05 -2.89695e-18
2.14478e-05 1.01082e-05 2.89262e-18
1.93748e-05 -6.72012e-06 -2.28275e-18
-1.0404e-05 1.04337e-05 1.55229e-18
-1.53381e-05 -1.33295e-05 1.30405e-18
-1.40237e-05 -3.42587e-06 -5.49754e-18
-2.91389e-05 1.73498e-05 -2.2313e-18
-1.93929e-05 -2.51049e-05 3.41352e-19
4.05432e-06 -2.00589e-05 9.75448e-19
-3.14455e-05 4.28406e-06 4.33325e-18
4.00859e-06 9.03985e-06 -3.17354e-18
-3.66457e-06 -5.4062e-06 -1.68432e-18
-4.31855e-06 -1.18665e-05 1.19462e-18
3.76258e-05 1.64e-05 1.58185e-18
6.14876e-06 1.19852e-05 8.47197e-19
8.16953e-06 -9.5485e-06 1.67947e-18
-1.10784e-06 -1.37154e-05 -3.48239e-19
3.07276e-06 -5.81671e-06 4.02538e-18
-6.61572e-06 -3.65996e-06 -1.17135e-18
-6.99745e-06 7.79372e-06 6.65194e-19
1.69958e-06 -2.77463e-06 -6.93183e-19
-9.9735e-06 -1.04958e-05 -8.58875e-19
-1.41434e-05 3.43445e-06 -3.40799e-19
-2.52417e-06 2.24878e-05 -2.43125e-18
-1.17948e-05 7.05936e-06 -1.01814e-18
-5.97946e-06 9.54692e-06 1.33009e-18
-3.88738e-05 4.83082e-06 -9.3968e-19
5.22389e-06 -1.43375e-05 -3.52404e-19
-1.24646e-05 -5.81582e-06 1.69059e-18
1.27843e-06 7.67343e-06 2.33947e-18
1.743e-05 3.34862e-06 2.44225e-18
2.25024e-05 -1.91833e-05 9.57264e-19
1.47582e-05 1.35943e-05 1.3732e-18
7.98686e-06 -1.93667e-06 1.67934e-18
-2.09523e-05 1.53595e-05 -1.27849e-18
2.50168e-05 3.20447e-06 9.66377e-19
-3.61221e-06 3.2179e-05 -9.65384e-19
-1.16441e-06 -1.10799e-05 2.15651e-18
1.21145e-05 6.58781e-06 4.22179e-18
1.92176e-05 2.01291e-05 1.25954e-18
4.25421e-05 2.64453e-05 -3.33283e-18
-3.57809e-06 2.01584e-05 -4.94406e-19
4.44355e-05 -2.49712e-05 -1.59133e-18
-1.801e-05 3.49343e-06 -3.4215e-18
1.1922e-05 7.35532e-06 -6.70687e-19
-1.92614e-05 6.40417e-06 -2.1243e-18
1.08698e-05 1.88648e-05 4.8162e-18
6.47118e-06 -2.90372e-05 -3.85252e-18
1.28721e-06 7.66868e-06 1.57703e-19
-9.73593e-06 -1.16641e-05 3.42078e-18
2.02257e-06 1.1507e-05 -5.14712e-19
1.7455e-05 3.4842e-06 2.62609e-18
-1.0169e-05 2.16134e-05 -3.25447e-18
2.67348e-05 -8.91043e-06 -1.9237e-18
-2.50814e-06 4.87934e-06 3.2921e-19
6.64559e-06 3.88526e-06 -8.54366e-19
-1.49081e-06 -7.44422e-06 1.32717e-18
2.15017e-06 -1.27557e-05 -2.05016e-18
1.15985e-05 2.58017e-06 2.17426e-18
-5.41214e-06 2.68643e-05 -3.04687e-18
-6.52742e-06 1.34139e-07 -2.52922e-18
6.18936e-06 7.85051e-06 -3.00485e-18
-1.77634e-06 -2.73876e-05 -3.80973e-18
2.77293e-05 8.6038e-06 3.49499e-18
2.96847e-06 -4.91191e-06 2.34597e-18
-7.30442e-06 -2.34146e-06 2.18365e-18
-1.90298e-05 -8.08929e-06 -2.12147e-18
1.06487e-05 2.77715e-05 1.66668e-19
-2.80166e-05 -9.97908e-06 -3.2469e-19
1.07974e-05 -2.78453e-05 -2.42978e-18
-2.48066e-06 -2.08926e-05 -2.1222e-18
1.44821e-05 3.99998e-07 -1.65324e-18
-4.76913e-06 1.22385e-05 1.35978e-18
-1.0458e-06 2.60627e-06 4.36506e-18
-2.44363e-06 -1.09447e-05 8.40065e-19
3.50426e-06 -5.61802e-06 3.19595e-19
6.2112e-06 1.05003e-05 1.36309e-18
2.23559e-05 7.29348e-06 -1.73627e-18
5.7918e-06 -4.90832e-06 2.51742e-18
-5.55286e-06 -2.93902e-05 -2.56366e-18
1.68688e-05 -1.24461e-05 -9.82586e-19
3.30628e-06 1.84499e-05 1.5351e-18
-1.84372e-06 -1.87396e-06 6.69728e-19
-5.71343e-06 -5.49913e-06 -1.86549e-18
-3.16318e-06 5.04547e-08 -4.0437e-18
-1.49478e-05 1.84575e-05 -3.56409e-18
1.29186e-05 -2.50229e-05 3.3705e-19
-1.74759e-05 2.76183e-05 -1.44243e-18
-1.07237e-05 6.23692e-06 -9.50942e-22
1.67578e-06 8.18109e-06 -1.37537e-18
-1.51818e-05 -2.36812e-05 4.35265e-18
9.06528e-06 2.19752e-05 -3.08678e-18
1.1679e-05 6.16457e-06 5.53761e-18
1.50902e-05 -5.68906e-06 -2.47443e-18
-8.16406e-07 -7.43364e-06 -1.68185e-18
-2.20025e-05 -2.02356e-05 1.60638e-18
-1.81413e-06 7.44118e-06 2.84922e-18
1.14898e-05 6.77385e-06 4.86818e-18
1.2548e-05 -5.90781e-06 8.26338e-19
5.49646e-06 -9.45469e-06 -8.37761e-19
1.61254e-05 -7.15362e-06 -4.94588e-19
1.26216e-05 -5.97644e-06 -1.33502e-18
3.14983e-06 1.84557e-07 3.02237e-18
1.69377e-05 1.34089e-05 2.89417e-18
-1.78916e-06 -1.11737e-05 -1.82987e-19
-6.91329e-06 -2.90384e-06 -1.6873e-18
7.47946e-07 -2.55722e-06 -1.69269e-18
-2.09897e-06 1.04574e-05 2.01335e-18
-2.2543e-05 1.77811e-06 3.30399e-19
-7.97672e-06 -2.16238e-05 8.06661e-19
-5.20012e-06 6.40585e-06 1.63698e-19
8.95991e-06 1.09544e-05 -2.32709e-18
1.7477e-05 -1.2463e-05 -9.65235e-21
-2.39974e-05 -1.30073e-05 -2.53865e-18
1.13602e-05 -1.82181e-05 3.18597e-19
1.49745e-05 -1.79411e-05 6.49371e-19
-7.18014e-06 2.5127e-06 -4.87549e-18
-1.29524e-05 -1.86434e-05 -2.92189e-18
-2.25254e-05 -3.74387e-06 2.43772e-18
-2.71827e-06 -2.0732e-05 -6.6374e-21
1.00573e-05 -2.08167e-05 -6.52638e-19
-6.06011e-06 -1.73821e-05 -2.90948e-18
2.88698e-06 2.05694e-05 3.17215e-19
-1.04634e-05 -1.85327e-05 6.40635e-19
1.96777e-06 -1.07427e-05 2.34014e-18
-1.61321e-05 1.17486e-05 -9.79341e-19
-9.92692e-06 -8.01596e-06 3.22827e-18
-1.81284e-05 -3.38529e-06 -1.70104e-18
1.04442e-05 -6.1264e-06 3.84565e-18
-2.84864e-06 1.58749e-05 -6.95425e-19
8.20367e-06 -6.18033e-06 -1.51105e-18
-1.92401e-05 -8.43669e-06 -3.22335e-19
-5.82876e-06 -4.88056e-06 8.28519e-19
6.07384e-06 4.95833e-06 -1.02094e-18
1.40723e-05 1.89026e-05 2.75384e-18
-1.15113e-05 -7.12407e-06 3.88897e-18
-2.11056e-05 -5.09566e-07 -4.82717e-19
-1.0808e-05 -3.26884e-06 -2.36882e-18
-3.02661e-06 -1.09575e-05 3.27443e-19
1.18738e-05 1.42885e-05 3.35694e-19
-7.25059e-06 3.82965e-06 -6.77678e-19
4.43395e-07 -1.35697e-05 8.31332e-19
-2.71186e-05 6.94982e-06 1.76329e-18
1.6413e-05 1.33601e-05 -8.14232e-19
2.37529e-06 2.15869e-05 -1.13462e-18
-1.59169e-06 2.52015e-06 1.33434e-18
-5.93171e-06 1.66226e-07 -3.51375e-18
2.91158e-06 5.11238e-06 -5.12352e-19
-7.74311e-06 2.27778e-06 -1.36061e-18
-1.34066e-06 -2.47931e-06 2.85548e-18
1.11246e-06 1.37053e-05 1.16974e-18
3.01847e-06 2.59408e-07 -1.02468e-18
-1.27621e-05 3.07991e-06 1.16441e-18
-1.13924e-05 1.25858e-05 -2.12189e-18
-2.03979e-06 7.67221e-06 -1.81271e-19
-1.90938e-05 1.18923e-05 1.44655e-18
-6.20073e-06 5.93427e-06 -6.76877e-19
1.15677e-05 -7.81878e-06 1.67757e-18
2.4156e-05 -2.3985e-06 -9.73964e-19
-1.40192e-05 7.44525e-06 -3.58104e-18
1.48129e-06 2.99935e-06 -1.87053e-18
1.46412e-05 -2.85187e-06 -8.65709e-19
-1.13811e-05 6.83832e-06 -1.71381e-19
-6.48707e-06 3.65013e-06 -3.52892e-18
7.97463e-06 2.56332e-06 -1.70023e-18
1.44435e-05 -8.95433e-06 -6.62599e-19
-1.14582e-05 6.51736e-06 -5.59743e-21
-1.63007e-05 -3.42685e-06 1.65726e-19
-1.10591e-05 -2.85278e-06 -5.06964e-19
6.67747e-06 4.99684e-08 1.51415e-18
6.84168e-06 8.84661e-08 3.68426e-18
2.91141e-06 5.50164e-06 1.60096e-19
3.21124e-06 -5.82003e-06 9.92778e-19
-3.30819e-06 5.59788e-06 -1.02214e-18
-3.46708e-06 -5.72916e-06 1.70901e-19
6.60652e-06 -4.97965e-06 2.00571e-18
-1.35029e-05 2.15904e-06 1.35765e-18
-1.33512e-05 -2.20184e-06 -3.41031e-18
-8.52859e-06 1.05515e-05 2.0549e-18
-8.57706e-06 -1.05925e-05 -8.5693e-19
4.9994e-06 -1.33876e-05 -1.03508e-18
4.81668e-06 1.32731e-05 1.87375e-18
9.7245e-07 1.70233e-05 2.4509e-18
7.53393e-06 -2.03345e-06 -1.35012e-18
1.62907e-06 -2.53684e-06 4.1916e-18
-1.3938e-05 9.33745e-07 -8.27122e-19
5.16234e-06 -1.31721e-05 -3.08073e-18
4.89126e-06 1.32196e-05 1.53444e-19
3.18913e-06 -5.93198e-08 6.47681e-19
5.85247e-06 1.60992e-05 -3.29686e-19
-1.48532e-06 -2.64383e-06 -2.18941e-18
1.56782e-06 -7.46867e-06 1.34263e-18
-1.46267e-05 -7.84753e-06 -1.47524e-18
-1.41495e-05 -7.57701e-06 1.02976e-18
-1.43194e-05 8.85154e-06 -1.14718e-18
2.16171e-06 -8.28705e-06 -6.90464e-19
-1.05529e-06 2.21691e-06 -2.01567e-18
-4.72868e-07 -1.67347e-05 -5.00112e-19
-5.15123e-06 -1.59329e-05 2.27879e-18
2.15368e-05 2.00652e-05 1.75509e-18
2.35e-05 -1.21596e-06 7.99532e-19
-8.43638e-06 -2.44252e-06 -1.86858e-18
-1.50114e-05 -2.67295e-05 6.41707e-19
5.51163e-06 9.05542e-06 -1.01239e-18
-1.64307e-05 1.93881e-06 -4.85018e-19
1.33168e-05 3.81579e-06 -2.31493e-18
-2.98475e-06 -1.25303e-08 2.50889e-18
-3.07275e-06 -5.57204e-06 2.01519e-18
-5.43757e-06 -2.58716e-05 2.78241e-18
-6.44337e-06 -3.47637e-08 -3.20514e-18
-3.12026e-05 -1.17128e-06 3.15989e-19
1.13871e-05 -1.26587e-05 1.30051e-18
1.65811e-06 2.62915e-06 1.49959e-18
-7.38898e-08 -1.15491e-05 -3.19282e-18
-6.54039e-06 1.57057e-05 -4.7315e-18
-2.88928e-06 5.71581e-06 -3.3553e-19
1.36163e-05 -9.00155e-06 -2.97637e-18
-2.51202e-05 -8.20739e-06 4.0137e-18
-1.00428e-05 -1.32546e-05 9.7799e-19
3.33541e-06 5.62757e-06 -1.54049e-18
1.11378e-05 3.3737e-06 1.17086e-18
-3.14028e-06 -4.80811e-06 6.60516e-19
1.33341e-05 2.42379e-06 -4.26195e-18
1.21834e-05 -6.54354e-06 -1.18813e-18
-2.51375e-07 1.79928e-05 -8.59507e-19
5.5365e-06 -9.00587e-06 2.51119e-18
3.22454e-05 1.38035e-06 9.49673e-19
-2.73937e-05 7.13855e-06 -1.42749e-18
1.53844e-05 7.68677e-06 -1.20152e-18
-4.24847e-06 -1.1224e-05 2.81947e-18
-1.00864e-05 -5.64156e-06 -3.02069e-18
1.90195e-05 -1.5754e-07 2.1287e-18
-4.78241e-07 -1.60878e-05 -2.05467e-18
-8.27653e-06 -7.17625e-06 -2.18525e-18
6.68885e-06 -1.55157e-05 1.61311e-19
-3.60933e-07 1.3568e-05 1.50584e-18
5.15026e-06 1.71135e-05 -9.87814e-19
1.15126e-05 -6.60743e-06 2.50965e-18
-1.23984e-05 1.24956e-05 -2.30225e-18
1.08655e-05 1.32456e-05 -2.12021e-18
-4.32798e-05 1.03252e-05 -4.7429e-18
-6.73547e-06 1.72569e-05 -1.02232e-18
8.31636e-06 -1.01098e-05 8.34484e-19
-4.64159e-06 -1.21841e-05 3.93401e-18
-7.83699e-06 2.92728e-06 6.65185e-19
-1.68093e-05 -4.58096e-06 -1.31419e-18
-4.46147e-06 2.60762e-05 1.72698e-18
-8.29394e-06 7.89243e-06 -8.51747e-19
1.37737e-05 -3.01221e-06 3.26967e-19
-4.52538e-06 -1.68518e-05 -2.97208e-18
-9.75685e-06 1.55309e-05 -1.31285e-18
-1.44277e-05 8.30882e-06 5.00264e-19
-1.34385e-05 -9.78925e-06 1.47202e-18
1.21206e-05 -1.39597e-05 -1.03154e-18
-1.78489e-05 -9.46159e-07 -2.29678e-18
7.87633e-06 -2.69995e-05 3.16943e-19
1.2798e-05 -1.24771e-05 -5.02667e-19
1.61256e-05 2.83331e-05 1.11137e-18
1.29192e-06 1.31469e-05 5.24577e-18
1.90851e-06 -1.67217e-05 -3.12376e-18
-2.81567e-05 3.3049e-05 5.43786e-22
-8.32364e-06 -1.58778e-05 -7.88178e-21
1.10066e-05 -4.27118e-06 -1.02817e-18
-1.67982e-06 1.68562e-05 9.76355e-19
8.61798e-06 -7.98401e-06 1.51295e-18
9.11214e-06 1.59853e-05 1.3118e-18
1.14346e-05 -9.65335e-07 3.33636e-18
1.41196e-05 -4.13526e-05 6.25005e-19
-3.8722e-06 -8.43031e-06 -1.77041e-19
-1.51194e-05 6.49635e-06 1.97101e-18
-1.32963e-05 1.2421e-05 -1.03436e-18
1.42569e-05 9.64449e-06 8.19912e-19
1.23773e-05 -7.16217e-06 1.15584e-18
9.96303e-06 8.41365e-06 -4.89852e-21
-3.61617e-06 -4.96312e-10 -1.35224e-18
1.01204e-05 -1.51953e-05 -2.46814e-18
-1.11067e-05 -1.32311e-05 -3.3212e-19
1.4918e-05 6.47664e-06 -3.28601e-19
8.57193e-06 -8.04846e-06 2.02376e-18
6.2353e-06 -1.63242e-05 -1.62801e-19
1.10841e-05 -4.67122e-06 -1.68045e-18
-1.03589e-05 -4.92923e-06 2.84366e-18
8.74978e-07 -1.74116e-05 -5.49745e-18
-1.69567e-05 2.90826e-06 3.34776e-19
1.50357e-06 1.60973e-05 -1.16313e-18
1.36407e-05 4.39882e-06 -3.82424e-18
-1.4157e-05 -6.97014e-06 -8.27432e-19
-5.91909e-06 1.67253e-05 4.923e-19
-1.00074e-06 -1.58685e-05 -6.70166e-19
1.3038e-05 7.91258e-06 -1.1907e-18
-1.1567e-06 1.1909e-05 1.62695e-19
-1.31701e-05 8.86509e-06 -4.61708e-18
1.55699e-05 7.53715e-06 9.78482e-19
-1.12208e-05 -6.58175e-06 3.37291e-19
8.86149e-08 -1.3068e-05 3.2527e-19
1.21264e-05 1.31649e-05 9.86161e-19
-1.46288e-05 -9.45195e-06 -1.57969e-19
3.1919e-05 -2.28405e-05 -1.71154e-18
1.19148e-05 -7.17679e-06 2.49357e-18
5.69461e-06 2.82112e-05 -2.7324e-18
1.13116e-05 -9.03894e-06 2.15452e-18
-1.48653e-05 5.73223e-05 4.34425e-19
-1.49427e-05 -5.67768e-05 -2.97045e-18
3.73121e-05 4.87777e-05 1.48583e-18
3.6863e-05 -4.87658e-05 -1.48978e-18
6.09249e-05 -2.97737e-08 1.48962e-18
-5.24269e-05 2.12395e-05 2.80816e-18
-5.1576e-05 -2.14615e-05 -2.94585e-19
8.19063e-06 7.9005e-06 -2.72214e-18
1.97764e-05 1.47201e-05 -2.41134e-18
7.61953e-06 2.20931e-06 8.31593e-19
1.25227e-05 6.44415e-06 8.29605e-19
3.26314e-06 1.32964e-05 -1.6617e-18
-1.23104e-05 -9.70656e-06 -4.97208e-19
1.13993e-05 -6.76983e-06 -3.86881e-18
1.31479e-05 9.59945e-06 8.23495e-19
-2.11142e-06 1.59824e-05 1.47642e-18
1.98727e-05 -1.35164e-05 -1.809e-19
2.43783e-06 -1.55798e-05 -2.48199e-18
1.47244e-05 3.41563e-06 -8.54037e-19
1.9716e-05 7.31602e-06 -1.63163e-19
9.43361e-06 9.37369e-06 -3.06501e-18
1.05618e-05 4.36896e-06 -1.49544e-18
-1.21238e-05 7.13847e-06 -6.61047e-19
-1.47177e-05 5.88427e-06 1.32826e-18
1.54486e-05 -7.53959e-06 -1.03605e-18
-1.19545e-05 -6.54839e-06 3.34156e-19
-1.21419e-05 -6.87508e-06 6.66944e-19
-2.20494e-07 -1.36622e-05 -4.35214e-18
-9.85503e-08 -1.38911e-05 -2.99893e-18
-1.31341e-05 -6.59462e-07 -6.58542e-19
1.76917e-05 -2.68425e-06 2.11824e-18
1.19957e-05 7.51753e-06 8.28979e-19
-1.17313e-05 7.12138e-06 -4.99643e-19
-1.01346e-05 1.10153e-05 4.25002e-18
1.05982e-05 -9.12213e-06 -9.95215e-19
-7.28278e-06 1.13962e-05 -2.47302e-18
-9.33234e-06 -9.71147e-06 -3.32458e-19
-8.1278e-07 1.39101e-05 -3.36246e-19
-8.50348e-07 1.37932e-05 -1.33778e-18
3.51123e-08 -1.30721e-05 1.83783e-18
4.02018e-06 -1.30165e-05 -1.81295e-18
-1.1273e-05 -6.49279e-06 1.67941e-18
1.03615e-05 -3.66754e-06 -2.34294e-18
4.18364e-07 1.41337e-05 -1.82921e-18
1.69714e-07 1.2178e-05 2.34576e-18
-1.57617e-06 1.10582e-05 1.83362e-18
1.45147e-05 -3.67112e-06 -6.65072e-19
-1.09723e-05 3.50638e-06 1.51828e-18
2.70192e-06 1.4147e-05 -3.43487e-19
-2.17255e-05 8.523e-06 8.49968e-19
6.18042e-06 2.75855e-05 1.25184e-18
-1.12813e-05 2.98478e-06 -1.53304e-18
1.32257e-05 -7.82393e-06 -3.07046e-18
5.8018e-07 1.38256e-05 -1.67443e-18
-1.33581e-05 4.37913e-06 5.07406e-19
1.61795e-06 -1.07172e-05 3.22533e-19
5.99065e-07 -3.82316e-05 -4.34669e-18
1.31606e-06 1.15307e-05 -2.34358e-18
-1.1132e-05 9.10963e-06 1.6387e-19
1.13793e-05 4.18868e-05 2.20388e-18
3.15175e-05 2.6138e-05 -2.61922e-18
3.61288e-05 -2.47195e-05 -1.23423e-18
9.85797e-06 -6.75682e-06 1.61417e-19
-1.03752e-05 9.14917e-06 1.14599e-18
-1.3186e-05 -5.18008e-06 1.83333e-18
-1.28288e-05 -4.42784e-06 -1.65196e-18
4.44154e-05 -1.22039e-05 -3.38489e-18
4.53066e-05 9.52653e-06 -4.24807e-18
7.24793e-06 2.52693e-06 -8.51021e-19
4.77469e-07 1.29071e-05 -3.86607e-18
4.84482e-08 1.28983e-05 -2.01695e-18
-3.185e-05 -2.33047e-05 -1.85862e-18
7.53637e-06 -1.13531e-05 -6.64222e-19
7.84834e-06 8.36001e-06 1.50749e-18
-1.39409e-05 -2.22244e-06 1.67446e-19
-9.22045e-06 1.11932e-05 4.80218e-18
-1.23615e-05 5.95141e-06 2.98656e-18
3.15212e-05 2.26105e-05 -2.1821e-18
1.05681e-05 4.68264e-06 8.35682e-19
-3.71611e-06 1.31031e-05 2.1461e-18
-1.11471e-05 -7.64877e-06 -3.00331e-18
1.19501e-06 -1.35204e-05 -1.8408e-18
-5.87121e-06 -1.25972e-05 3.30517e-18
-1.12898e-05 -7.68199e-06 1.65994e-19
6.97011e-06 -1.24652e-05 -1.64849e-19
9.35314e-06 -1.11956e-05 -1.83006e-18
-1.94664e-06 -4.00065e-05 -9.40079e-19
1.70596e-05 -2.70604e-05 -1.44551e-18
1.14541e-06 -1.36804e-05 -3.6554e-18
1.19433e-05 7.49415e-06 2.8384e-18
-9.49841e-06 -9.6944e-06 3.23877e-19
-6.47191e-06 1.28701e-05 2.65124e-18
-3.32292e-06 1.37677e-05 1.62012e-19
1.10251e-05 9.38333e-06 1.63763e-19
3.97109e-06 -1.3067e-05 -3.6553e-18
-9.15992e-06 -2.62303e-05 -4.79876e-19
-1.3568e-06 1.66167e-05 -1.54251e-18
9.77721e-06 9.56162e-06 -4.97128e-21
-8.51075e-06 -6.719e-06 -6.67967e-19
-8.92258e-06 6.98798e-06 5.06302e-19
2.93563e-05 -1.26191e-05 -2.85642e-18
5.00832e-06 -8.83136e-06 -3.38883e-19
-5.48209e-06 -8.24954e-06 1.16089e-18
1.43567e-05 4.37439e-06 -1.89262e-18
8.82038e-06 -3.18222e-05 -1.22963e-18
-2.31536e-05 -2.35297e-05 5.97476e-18
1.5657e-05 4.10945e-06 -4.79182e-18
-6.15458e-06 -1.19342e-05 1.14667e-18
1.24198e-05 6.30662e-06 -3.34209e-19
-1.88953e-05 -2.09793e-05 -1.11484e-18
7.1428e-06 3.23574e-05 4.88472e-18
3.13453e-05 -4.04819e-05 1.94494e-18
-1.93875e-05 -4.73768e-05 4.6135e-18
1.78143e-05 -3.48274e-05 -1.08226e-18
-8.426e-06 2.89126e-05 -2.42612e-18
-4.7979e-06 2.56099e-05 3.65985e-18
-1.22792e-05 5.86884e-06 5.00564e-19
4.00143e-06 1.6066e-05 -1.78146e-19
-1.59088e-06 8.29603e-06 1.33852e-18
6.74915e-06 2.15412e-06 -2.36921e-18
-2.12229e-06 1.07302e-05 2.70131e-18
-1.63051e-07 1.38797e-05 6.69446e-19
1.10931e-05 6.46143e-06 1.17535e-18
5.55052e-07 3.80507e-05 3.56533e-18
-9.67899e-06 6.99228e-06 4.94196e-19
1.06569e-05 -4.12514e-06 -2.19733e-18
1.13518e-05 -2.96245e-06 -5.42047e-18
-3.9004e-05 -5.60149e-06 -2.18783e-18
-2.29579e-05 1.09231e-05 -2.78831e-18
-2.83056e-05 -3.35616e-05 3.1388e-19
5.72924e-06 5.50409e-06 1.34757e-18
9.46339e-06 4.87258e-06 -1.01624e-18
1.77171e-05 -2.82237e-06 -3.29373e-19
-5.32297e-06 -8.66572e-06 1.66144e-18
1.14505e-05 5.61686e-06 4.19334e-18
4.88282e-06 -1.99508e-05 -3.57904e-19
-9.06402e-06 6.66427e-06 1.50455e-18
-1.48299e-05 -1.42024e-05 1.73127e-18
-3.84195e-06 1.06868e-05 3.50299e-18
-2.19398e-06 1.36778e-05 1.65233e-19
2.29312e-05 1.42428e-05 -1.7431e-19
2.44478e-05 -1.29752e-05 -1.77437e-19
-2.72365e-05 -7.33565e-06 -9.47165e-19
5.08197e-06 5.1325e-06 -5.18007e-19
-3.19467e-06 6.65394e-05 1.22589e-18
-1.66341e-08 -6.8349e-05 -4.49215e-18
3.36874e-05 5.76512e-05 -1.08266e-18
-1.26403e-05 5.53082e-06 3.28031e-19
-1.80696e-05 3.64849e-05 -7.73417e-19
3.38943e-05 -5.56446e-05 -2.6277e-18
-7.68964e-06 -1.19039e-05 1.60542e-19
5.15366e-05 4.48706e-05 -3.08185e-19
1.59642e-05 -1.18838e-05 -3.11587e-18
-2.32721e-06 -1.97573e-05 1.564e-18
5.39996e-05 -4.38756e-05 1.53807e-18
-4.46727e-06 9.50501e-06 3.32491e-18
-3.45959e-05 -2.19785e-05 -3.3007e-18
-2.84994e-05 -5.95045e-05 -2.31486e-18
-1.61336e-05 -3.76564e-05 -1.89115e-18
-2.92993e-05 6.04796e-05 -6.20958e-19
-6.93776e-06 4.18439e-05 -2.52635e-18
1.06877e-05 2.4836e-05 2.76078e-18
-1.85647e-05 2.38565e-05 -2.06034e-18
-1.72903e-05 -3.55174e-05 -1.39385e-18
6.631e-05 1.16338e-05 -6.16903e-19
-1.11506e-05 7.01773e-06 -3.02168e-18
-3.93119e-06 1.07934e-05 5.09203e-18
-3.28104e-05 2.36307e-05 -1.10281e-18
-1.13606e-05 6.51951e-06 3.01335e-18
6.56568e-05 -1.03718e-05 2.62321e-18
-1.0126e-05 5.09773e-06 -6.79185e-19
4.77074e-06 -9.5753e-06 4.96561e-19
-5.0984e-05 -3.88459e-05 -2.30841e-18
-1.73812e-05 3.7691e-05 -4.73942e-19
-5.21992e-05 3.8568e-05 1.45977e-19
1.57563e-05 3.46978e-05 2.16397e-18
-9.72111e-06 6.91266e-06 1.50003e-18
-1.35904e-05 1.63188e-05 1.20014e-18
-2.41718e-05 3.03544e-05 2.48472e-18
-3.78984e-05 -4.8896e-06 -8.9831e-19
-6.30337e-07 1.0761e-05 3.29288e-19
-2.56027e-05 -3.04819e-05 -3.54219e-18
-3.92109e-05 6.93761e-06 5.13765e-18
-1.4934e-05 3.4644e-05 -3.70601e-18
-1.15287e-05 4.61262e-05 3.51449e-18
-1.21149e-05 2.68544e-05 1.25565e-18
-2.23771e-05 1.80288e-05 -2.7815e-18
1.64504e-05 -4.05496e-06 -1.37984e-18
2.56968e-05 -1.39596e-06 -1.90985e-18
8.9957e-06 5.45964e-06 3.52522e-18
-8.09977e-06 -5.30684e-05 3.51523e-18
-5.00179e-05 -1.95067e-05 2.8293e-18
2.50231e-05 3.43883e-07 -5.0168e-18
3.88115e-05 -7.49264e-06 -4.66465e-19
-6.95056e-06 -8.8247e-06 2.8169e-18
-3.368e-05 2.36766e-05 -9.32303e-19
-3.01835e-05 3.45732e-05 2.98475e-18
4.10277e-05 -1.47834e-05 2.36368e-18
-1.86901e-05 -3.16735e-05 8.66822e-19
-1.90247e-05 3.14288e-05 2.63163e-18
-3.69163e-05 -1.30488e-06 -1.76244e-18
-1.67925e-05 3.30201e-05 -3.42524e-19
-3.67981e-05 3.79295e-07 8.73603e-19
4.57617e-05 1.6389e-05 -2.48033e-18
3.69463e-05 1.3564e-06 -1.2272e-18
3.4729e-05 -1.77935e-05 -5.39159e-19
1.0125e-05 -4.88151e-05 1.40747e-18
1.83604e-05 -3.19787e-05 -3.66981e-18
1.82358e-05 3.19752e-05 1.80518e-19
9.9154e-06 4.76966e-05 -5.23389e-19
4.99769e-05 -1.40922e-05 -1.76004e-18
3.20441e-05 1.58721e-05 7.11829e-19
3.08058e-05 8.41766e-06 -2.09134e-18
P_ext 3 563 float
-1.1044e-06 3.73428e-07 -2.15969e-21
1.0486e-09 4.09074e-08 3.15975e-20
-1.01772e-07 -9.5706e-08 -3.91968e-20
-3.21939e-08 2.97175e-08 5.17647e-21
2.80915e-08 5.35669e-10 -6.20838e-20
3.34941e-08 -1.35936e-07 -4.69269e-20
-1.08736e-06 -3.77946e-07 1.91901e-20
-7.97897e-08 -9.05134e-08 -4.70275e-20
2.21946e-07 3.93169e-09 -3.35903e-20
8.10343e-08 -7.61347e-09 7.81287e-20
7.18882e-07 1.68494e-07 1.22665e-20
3.95131e-08 -1.15675e-07 2.09595e-20
9.05556e-08 1.07789e-07 1.83828e-20
-9.32646e-09 8.44414e-08 -2.35127e-20
2.53716e-08 9.39658e-09 3.91734e-20
-1.41883e-07 -2.32264e-09 1.82313e-20
-1.77246e-08 5.56469e-08 -5.24799e-20
8.55299e-08 -1.29058e-08 8.09701e-20
9.82382e-08 1.75199e-07 -6.95988e-20
-1.31802e-07 1.32918e-08 -1.56256e-20
-4.9479e-08 -1.86683e-07 4.62744e-20
1.63078e-09 3.42418e-10 6.06459e-20
1.45979e-07 1.18852e-08 2.06657e-20
9.2937e-08 -1.07305e-07 8.78919e-20
-1.34639e-07 -2.16813e-08 7.64058e-21
-2.53798e-08 -7.36815e-08 -6.80761e-20
8.26457e-07 -6.7608e-08 5.37051e-20
1.01263e-07 8.53708e-08 -3.88799e-20
-3.02398e-07 -2.40207e-07 9.0166e-20
1.77729e-08 3.34226e-09 -1.3557e-19
-1.3519e-07 -2.40771e-08 -5.49751e-20
5.91014e-08 -3.84583e-07 -7.68567e-21
6.21047e-07 -6.3603e-07 -1.95733e-20
1.32403e-09 -2.91719e-08 -2.95851e-20
-7.85133e-09 2.24349e-08 4.3541e-20
-2.4351e-08 -1.60431e-08 -3.45583e-20
3.22664e-09 1.61075e-08 2.4548e-20
-2.46218e-08 4.19225e-09 -4.64401e-20
9.77905e-08 -1.06354e-07 1.09037e-19
6.06024e-07 6.62835e-07 -2.19198e-20
3.87118e-07 -1.75388e-07 5.96916e-20
5.99197e-09 -1.47503e-08 1.85736e-20
-9.69369e-09 -1.29205e-08 7.94998e-20
-1.34298e-07 2.75879e-08 -4.97207e-20
3.84059e-07 -3.77163e-07 3.43598e-20
-3.57868e-07 1.28814e-07 -2.03411e-20
-4.52149e-08 -1.97308e-07 2.55124e-20
8.15841e-08 1.9818e-07 2.78004e-20
-1.2882e-07 3.36868e-08 -2.86391e-20
-2.21652e-07 3.44747e-07 -3.52836e-20
3.92898e-07 1.92412e-07 -4.23504e-20
3.41164e-07 -1.12209e-07 -3.82584e-20
-1.00536e-08 2.38923e-08 3.50075e-20
-2.66985e-07 -2.3958e-07 6.58376e-20
-2.62099e-08 3.46027e-09 -4.07894e-20
-5.72616e-07 3.36272e-07 -8.42835e-20
-7.29056e-09 -2.23413e-08 1.07768e-19
7.60254e-08 -3.52567e-07 2.59542e-21
-2.27702e-08 -4.95926e-09 2.19645e-20
5.96497e-08 1.19602e-07 1.50006e-20
-3.1831e-08 -9.66222e-09 -8.40197e-20
-3.36097e-08 -3.15732e-08 -4.19846e-20
7.45179e-07 3.28072e-07 -3.66906e-20
-6.38079e-10 6.50893e-08 1.32411e-20
1.00623e-08 -4.3429e-08 -1.60585e-20
1.68997e-08 -9.66158e-08 2.36933e-21
-6.70503e-09 -3.16352e-08 -4.72829e-20
-7.73215e-08 -1.9652e-08 -1.30685e-20
-9.00075e-08 1.10129e-07 8.53738e-20
2.4139e-08 -8.76618e-09 7.78936e-20
-9.91633e-09 -2.45802e-08 3.7233e-20
-2.5923e-08 -3.79918e-09 -9.06118e-20
-4.46104e-08 4.13296e-07 2.95024e-20
-7.94166e-08 4.01135e-08 -1.59549e-20
-7.70435e-08 1.31778e-07 3.8986e-20
-7.74886e-07 9.10818e-08 -4.97486e-21
3.64258e-11 -6.13769e-08 -7.45416e-20
-7.46101e-08 -6.251e-08 -9.94718e-20
3.14151e-08 7.66625e-08 -5.14177e-21
2.96998e-07 5.93756e-08 2.80808e-20
4.25652e-07 -3.7035e-07 1.76834e-20
1.16728e-08 2.85811e-08 -1.87159e-20
2.87987e-08 8.93479e-09 1.07817e-19
-3.96608e-07 2.93427e-07 2.95883e-20
4.6296e-07 5.62854e-08 -1.5024e-20
-7.01692e-08 6.27477e-07 3.40758e-20
-2.43269e-08 -1.25766e-07 2.56355e-21
8.54054e-08 6.01508e-08 -2.06418e-20
3.69414e-07 3.89576e-07 -1.22885e-20
6.69496e-09 2.98151e-09 3.27842e-20
-7.11997e-08 3.54559e-07 -4.07288e-20
6.04767e-09 -3.24215e-09 -4.9571e-20
-4.27594e-08 2.91597e-08 2.14573e-21
9.23023e-08 3.75658e-08 -5.24371e-20
-3.414e-07 1.05542e-07 9.78127e-21
1.98148e-07 3.48178e-07 1.55274e-19
1.23269e-07 -5.56558e-07 -4.78026e-20
2.89785e-08 7.59759e-08 8.60045e-20
-5.24387e-08 -3.1204e-08 1.11039e-20
4.3446e-08 1.38954e-07 -2.63976e-20
2.88872e-07 4.91575e-08 2.58893e-20
-1.91757e-07 3.9616e-07 2.71169e-20
5.09741e-07 -1.66598e-07 4.19705e-20
-2.82891e-08 6.17637e-08 -2.68557e-21
5.42209e-08 5.50648e-08 -2.39095e-20
-3.22245e-08 -7.43423e-08 2.41591e-21
-1.29616e-08 -5.66454e-08 -7.69354e-20
1.49957e-07 1.79784e-08 6.7834e-20
-1.09369e-07 5.11593e-07 3.66338e-20
-2.53002e-08 1.5606e-08 -1.60476e-20
7.47982e-08 1.10846e-07 3.32072e-20
-3.69824e-08 -5.24996e-07 -5.95962e-20
5.31099e-07 1.59464e-07 5.08276e-21
3.61633e-08 -6.39035e-08 2.88873e-20
-8.25628e-08 -9.4455e-09 -1.27599e-20
-3.39694e-07 -1.36342e-07 1.99932e-20
1.68013e-08 1.7972e-08 1.02332e-19
-5.39577e-07 -1.88703e-07 1.48502e-20
1.70566e-08 -1.79222e-08 -5.15107e-20
-5.24675e-08 -3.68918e-07 1.2198e-20
2.27699e-07 8.64048e-09 3.03814e-20
-2.0283e-08 1.73114e-08 4.50579e-20
5.44317e-09 2.48688e-08 1.17911e-19
1.5231e-08 -6.67112e-08 -3.15555e-20
2.64591e-08 -1.23761e-08 1.227e-19
4.96784e-10 2.68031e-08 4.51813e-20
2.31386e-08 -2.88822e-09 -5.9469e-20
4.31605e-08 -6.36709e-08 4.98158e-20
-1.10478e-07 -5.63483e-07 -3.01566e-20
2.9187e-07 -2.24683e-07 -2.03835e-20
9.46758e-10 3.55655e-08 -4.80106e-20
-2.46134e-08 -4.4532e-09 2.6312e-21
-8.01166e-09 -2.75318e-08 -2.39533e-20
-2.02981e-08 -1.43266e-08 -5.81052e-20
-2.72857e-07 3.40967e-07 -1.5635e-20
-3.13474e-10 -2.70891e-08 -3.78689e-20
-3.41299e-07 5.35894e-07 -3.49888e-20
-1.28284e-07 5.89959e-08 2.60498e-20
1.80397e-08 1.94569e-08 1.51988e-20
-2.33222e-08 -1.36368e-08 -2.34801e-20
1.66417e-07 4.01641e-07 -2.31508e-20
9.60309e-08 8.55836e-08 1.86725e-20
2.33071e-07 -7.6864e-08 7.14825e-20
1.31155e-08 -7.1721e-08 -8.07954e-21
-4.22864e-07 -3.89662e-07 6.7467e-20
-4.07766e-08 7.04737e-08 7.85343e-20
1.05889e-07 5.64825e-08 7.87868e-20
1.54834e-07 -5.33067e-08 -6.23626e-20
6.68667e-08 -1.33575e-07 5.06962e-21
2.65056e-07 -1.22221e-07 5.01717e-21
1.76356e-07 -8.32421e-08 3.07024e-20
1.77254e-08 -1.46891e-08 6.55794e-20
3.07436e-07 2.43178e-07 8.79626e-20
-4.45061e-08 -1.28711e-07 -8.88294e-20
-5.46674e-08 -4.67697e-08 -1.98817e-19
-8.93564e-09 -2.34603e-08 1.00075e-20
1.22763e-08 9.18375e-08 1.58179e-20
-4.11205e-07 2.94816e-08 8.33511e-20
-1.50219e-07 -3.92533e-07 -7.58268e-20
-6.46991e-08 8.24698e-08 6.49799e-20
1.27224e-07 1.69552e-07 7.41474e-21
3.16441e-07 -2.2444e-07 2.98313e-20
-4.62583e-07 -2.47322e-07 4.72074e-21
2.05795e-07 -3.35015e-07 5.7505e-20
2.67977e-07 -3.29632e-07 1.77251e-20
-7.89334e-08 7.81997e-09 -4.24146e-20
-2.3525e-07 -3.40426e-07 -7.10644e-20
-4.11795e-07 -6.45403e-08 7.85485e-20
-4.90764e-08 -3.75794e-07 -4.03901e-20
1.83189e-07 -3.78636e-07 9.92031e-21
3.82981e-09 -5.20607e-08 4.86627e-21
5.44374e-08 3.62537e-07 -2.71993e-21
-1.9393e-07 -3.39258e-07 -5.2478e-20
-1.81911e-08 -8.32567e-08 2.46595e-21
-2.80344e-07 2.09878e-07 3.2615e-20
-5.49309e-08 -1.80109e-08 -1.52906e-20
-4.27982e-08 -2.94111e-08 -6.9056e-20
1.11901e-07 -5.73879e-08 7.84091e-20
-1.54011e-08 2.18067e-08 -5.62839e-20
5.94795e-08 -7.5073e-08 1.35653e-19
-3.48836e-07 -1.55137e-07 5.50327e-20
-4.62148e-08 -6.22414e-08 -6.54296e-20
4.83001e-08 6.60279e-08 9.88647e-20
2.52243e-07 3.48186e-07 1.36415e-19
-8.9298e-08 -4.11793e-08 1.08953e-20
-3.88036e-07 -8.73062e-09 -2.49568e-21
-4.97478e-08 -4.61338e-08 -1.42114e-19
-2.83276e-09 -6.68193e-08 -2.12877e-20
4.87293e-08 2.45796e-08 -1.00981e-19
-5.61972e-08 5.53917e-08 -2.63314e-20
-9.38506e-09 -9.83609e-08 -5.01215e-20
-5.17987e-07 1.27593e-07 1.49706e-19
2.83957e-07 2.42242e-07 7.33301e-20
3.79419e-08 3.94523e-07 -5.30476e-21
-2.28784e-08 7.86712e-09 2.60672e-20
-7.63252e-08 2.37172e-09 -3.56752e-22
3.50414e-08 6.6901e-08 9.09071e-20
-2.77431e-08 -6.8103e-09 -1.00239e-19
3.28139e-09 -2.36498e-08 5.49656e-21
-1.52619e-08 1.04115e-07 3.39852e-20
1.69151e-08 1.78204e-08 4.92045e-20
-1.92788e-07 4.26163e-08 1.05249e-20
-1.95513e-07 2.13329e-07 -3.07292e-20
-2.11108e-08 1.95924e-08 1.02707e-20
-3.53699e-07 2.13463e-07 1.76498e-20
-9.08431e-09 3.01468e-08 2.88699e-20
9.5473e-08 -3.42023e-08 1.57421e-20
4.43376e-07 -4.07912e-08 8.03841e-20
-5.559e-08 3.51749e-08 3.38272e-20
2.24793e-08 1.03649e-08 2.80911e-20
5.78602e-08 -3.62053e-08 4.19626e-20
-9.92564e-08 3.30838e-08 6.79681e-20
-7.22333e-08 1.89383e-08 -3.43807e-20
2.54046e-08 -7.41883e-09 4.44323e-20
2.349e-07 -1.42857e-07 -7.84674e-21
-9.24555e-08 5.89498e-08 2.48055e-21
-2.76157e-07 -5.7587e-08 -1.51482e-20
-5.87028e-08 -3.09066e-08 -1.37053e-19
2.24563e-08 -1.49055e-08 9.43777e-20
2.48754e-08 1.74733e-08 -5.23473e-20
-6.27567e-09 2.82791e-08 3.64464e-20
-2.54539e-09 -3.19067e-08 2.06692e-20
-2.58907e-08 1.3237e-08 -3.86419e-22
-2.89759e-08 -1.48471e-08 -2.60962e-20
7.25876e-08 -2.74359e-08 1.20184e-19
-2.65654e-08 -7.30383e-09 -7.90106e-21
-2.6509e-08 7.03519e-09 2.33309e-20
-6.53578e-09 2.63363e-08 -2.20157e-21
-7.09527e-09 -2.69135e-08 -3.72637e-20
1.75171e-08 -1.96153e-08 -3.22435e-20
1.6841e-08 1.87734e-08 -8.05555e-21
1.01618e-08 2.8033e-07 1.6016e-22
5.4398e-08 -4.48697e-08 7.29459e-20
1.2696e-08 -2.39428e-08 -1.52058e-20
-2.1142e-07 7.81481e-09 -2.83469e-20
2.00771e-08 -1.90643e-08 -9.59608e-20
1.87451e-08 1.93609e-08 6.06388e-20
2.87579e-08 -6.25655e-10 8.04305e-20
9.70463e-08 2.74706e-07 7.43809e-21
-1.45501e-08 -2.37951e-08 -4.35421e-22
3.14614e-08 -7.20111e-08 -1.55633e-20
-2.35929e-07 -1.30534e-07 -1.54352e-20
-5.18534e-08 -3.36604e-08 -2.3481e-20
-2.36789e-07 1.40438e-07 8.64191e-20
2.10022e-08 -2.15363e-08 -5.6112e-21
-1.00656e-08 2.23726e-08 -1.59482e-20
-5.53764e-09 -2.71458e-07 -3.07941e-20
-8.88709e-08 -2.68857e-07 -4.93644e-21
4.07442e-07 3.87786e-07 5.49125e-20
4.35815e-07 -2.47484e-08 1.09617e-19
-3.09229e-08 6.73275e-09 -1.0848e-20
-2.91472e-07 -5.15072e-07 -4.8903e-21
6.95069e-08 1.19176e-07 5.17195e-20
-2.79409e-07 3.29084e-08 8.87586e-20
2.00594e-07 5.60918e-08 -2.87229e-21
-2.74112e-08 -1.10873e-10 -1.02684e-20
5.93398e-10 -2.84934e-08 -1.29455e-20
-2.49135e-09 -1.9495e-08 4.62233e-20
-2.4301e-08 -1.44558e-08 -1.35722e-20
-6.0434e-07 -2.29016e-08 -5.05331e-21
1.89952e-07 -2.14835e-07 -2.78835e-20
1.29184e-08 2.50572e-08 1.09417e-19
6.60318e-09 -1.19959e-07 -4.99685e-20
-1.13303e-07 2.68325e-07 -2.84563e-20
2.32012e-09 3.01491e-08 4.96779e-20
2.02697e-07 -1.45042e-07 -8.18313e-21
-1.78374e-08 -7.79802e-09 -1.56383e-19
-1.72361e-07 -2.2402e-07 5.0779e-20
2.3753e-08 1.2091e-08 -8.53351e-21
5.62152e-08 5.43404e-08 2.8842e-20
-3.99919e-08 -6.2299e-08 -7.56335e-20
2.46148e-08 -7.9549e-09 9.47654e-20
8.32961e-08 -5.81491e-08 -3.17875e-20
-4.94861e-09 4.64509e-08 2.5261e-21
6.85202e-08 -1.15486e-07 1.04377e-19
6.25608e-07 3.15218e-08 5.43318e-20
-5.3e-07 1.40228e-07 6.88796e-20
4.43961e-08 3.09374e-08 -4.00634e-20
-6.56686e-08 -1.58104e-07 -2.57337e-20
-9.98263e-08 -6.51227e-08 -7.33647e-20
3.24892e-07 -3.26523e-09 2.05822e-20
2.77879e-09 -6.20046e-08 -1.19472e-19
-8.12046e-08 -2.8676e-08 -9.97024e-20
1.10724e-07 -2.64543e-07 5.13672e-21
8.82792e-09 1.06581e-07 7.74071e-21
9.08758e-08 2.81819e-07 -3.85101e-20
1.09077e-07 -5.74817e-08 -3.90853e-20
-1.98951e-07 2.11764e-07 4.3126e-20
1.82941e-07 2.26057e-07 3.51304e-20
-1.15127e-08 5.14836e-09 2.10826e-20
1.89185e-09 4.91182e-08 1.3217e-20
3.71148e-09 -2.22902e-08 5.27344e-20
-1.76433e-08 -1.46409e-08 2.98486e-20
-6.07661e-08 4.81783e-08 1.8213e-20
-2.78747e-07 -6.60442e-08 -2.81922e-20
9.7605e-10 3.13383e-08 6.4612e-20
-7.29104e-08 2.17692e-08 2.33441e-20
1.97507e-07 -2.86349e-08 4.89811e-20
-8.44545e-08 -2.73492e-07 -5.93646e-20
-1.6634e-07 2.64909e-07 -2.56675e-20
-4.69801e-08 2.1714e-08 9.02218e-20
-2.22933e-07 -1.57742e-07 4.85506e-20
5.04733e-08 -2.36753e-08 -2.14924e-20
-3.02278e-07 -1.48015e-08 7.11324e-20
1.47967e-07 -5.22122e-07 -1.06238e-22
2.02183e-07 -2.12313e-07 -2.06599e-20
3.09134e-07 5.48091e-07 4.96863e-20
-2.89441e-09 6.62631e-08 -1.01492e-20
2.65383e-08 -2.75378e-07 -4.81859e-22
-1.07592e-08 6.51638e-09 -1.36238e-20
-1.4332e-07 -2.67435e-07 -3.84378e-20
4.80992e-08 -4.11606e-08 1.10095e-19
-2.76495e-08 2.78555e-07 -5.09589e-20
6.71377e-08 -1.97123e-08 1.28717e-19
1.52756e-07 2.72227e-07 2.04494e-20
1.53005e-07 -3.57324e-09 1.1965e-19
2.79232e-07 -8.23892e-07 2.93984e-20
-5.91738e-08 -1.10165e-07 -1.58223e-20
-2.46774e-07 1.07525e-07 -2.00484e-20
-3.45856e-08 1.6998e-08 3.42994e-20
2.34268e-07 1.56886e-07 9.43754e-20
1.66987e-07 -9.21906e-08 -4.38976e-20
8.82774e-08 3.87869e-08 -5.52904e-20
-1.80559e-08 1.52545e-08 -5.25602e-20
1.67485e-07 -2.58737e-07 -6.41131e-20
-1.78557e-07 -2.22821e-07 -4.10387e-20
2.30384e-07 9.08745e-08 -4.69006e-23
5.86157e-08 -3.6232e-08 -2.37237e-20
1.07703e-07 -2.67692e-07 5.87134e-20
1.26577e-07 -2.39973e-08 3.10296e-20
-1.22832e-07 -4.90068e-08 1.11978e-19
-5.34204e-09 -4.98677e-08 -7.27753e-20
-2.81534e-07 3.90956e-08 -1.51871e-20
2.95797e-08 2.46978e-07 -2.84798e-20
1.92609e-07 4.49468e-08 -7.27797e-20
-2.18785e-07 -9.79277e-08 -4.11576e-20
-1.07578e-07 2.75847e-07 -1.01964e-20
-2.45885e-08 -2.40623e-07 4.89203e-21
6.36253e-08 3.1053e-08 -7.40973e-20
-4.12903e-08 1.16382e-07 -7.56595e-20
-1.96744e-07 1.41107e-07 2.26034e-20
2.5267e-07 1.27446e-07 2.60273e-21
-1.15038e-07 -3.61419e-08 3.93207e-20
-2.78926e-08 -1.18466e-07 -2.89418e-20
1.93088e-07 2.24447e-07 1.15105e-19
-4.5403e-08 -2.0595e-08 3.75707e-20
6.34844e-07 -4.56486e-07 4.69511e-21
1.34464e-07 -9.40744e-08 -7.00593e-20
1.09793e-07 5.38038e-07 -3.79194e-20
1.41784e-07 -1.36305e-07 2.33403e-20
-3.06483e-07 1.16717e-06 -6.23294e-20
-3.0826e-07 -1.1558e-06 -6.96379e-20
7.57361e-07 9.95517e-07 9.01365e-20
7.47966e-07 -9.9525e-07 -2.11248e-20
1.23976e-06 -4.83025e-10 7.62523e-20
-1.06872e-06 4.29962e-07 2.54859e-20
-1.051e-06 -4.34638e-07 2.32741e-20
5.11253e-08 2.77372e-08 -1.26966e-19
3.28078e-08 1.59291e-08 -4.04295e-20
9.52798e-08 1.28327e-08 -5.20603e-20
1.68208e-07 8.98955e-08 5.16271e-20
4.98962e-08 1.98752e-07 -5.45492e-21
-1.80328e-07 -1.54927e-07 4.62012e-20
9.08209e-08 -8.37181e-08 -5.80125e-20
1.9376e-07 1.55499e-07 3.08223e-20
-4.48079e-08 2.44623e-07 2.56888e-20
3.18204e-08 -1.56286e-08 -2.16313e-20
4.56036e-08 -2.34753e-07 3.80353e-20
5.95976e-08 4.0182e-08 8.18912e-20
3.4946e-07 1.22421e-07 1.00766e-20
7.84144e-09 2.5164e-08 -5.59447e-20
1.35075e-07 4.42119e-08 1.02935e-20
-1.67173e-07 9.24743e-08 4.12373e-20
-2.28879e-07 7.918e-08 4.89661e-20
4.5327e-08 -3.10535e-08 -7.47712e-20
-1.46137e-07 -6.76256e-08 7.79421e-21
-1.60563e-07 -9.51042e-08 1.03913e-20
-1.40733e-08 -1.61186e-07 -4.48394e-20
6.35164e-10 -1.85121e-07 -2.6367e-20
-2.03813e-07 -8.81055e-09 -4.76758e-23
3.02492e-07 -4.69663e-08 -4.03065e-20
1.632e-07 1.00579e-07 1.81034e-20
-1.35051e-07 9.21277e-08 2.58378e-20
-6.09003e-08 2.98151e-08 5.06061e-20
1.5232e-07 -1.36483e-07 3.57935e-20
-1.14444e-07 1.78194e-07 -1.30639e-20
-1.40977e-07 -1.48503e-07 -1.03568e-20
-1.33596e-08 1.94103e-07 4.63072e-20
-2.90391e-08 1.63827e-07 -3.1308e-20
4.78751e-09 -1.18941e-07 6.00485e-20
6.13574e-08 -1.98311e-07 -1.29914e-20
-1.00296e-07 -6.43646e-08 4.98349e-20
1.38951e-07 -3.96276e-08 2.81099e-20
3.408e-10 1.93864e-07 -4.93638e-20
-4.19255e-09 1.23876e-07 2.88334e-20
-3.11298e-08 1.39338e-07 -2.41205e-21
2.28039e-07 -5.61203e-08 2.39444e-21
-4.79022e-08 4.57286e-08 8.17439e-23
5.16869e-08 1.94021e-07 -2.61054e-20
-3.12445e-08 1.97208e-08 5.07033e-20
1.15159e-07 5.33986e-07 2.94344e-20
-5.65028e-08 3.04992e-08 -1.34832e-20
5.99489e-08 -3.12055e-08 -5.86628e-20
1.72413e-08 1.64871e-07 -5.50698e-21
-1.93351e-07 4.59295e-08 1.45555e-22
-5.94165e-09 -8.38238e-08 -6.31939e-20
7.97412e-09 -7.61797e-07 -4.38563e-20
2.31439e-08 1.39769e-07 -4.45291e-20
-1.44446e-07 1.37415e-07 5.41379e-20
2.24287e-07 8.34177e-07 2.20474e-20
1.07785e-08 7.09687e-09 5.3406e-21
9.31262e-09 -6.76852e-09 -5.47535e-20
1.0875e-07 -8.48037e-08 -2.68161e-21
-1.54357e-07 1.38206e-07 3.07596e-20
-1.85279e-07 -5.47325e-08 3.38262e-20
-1.90393e-07 -6.25318e-08 -1.30183e-20
-3.78538e-09 2.32872e-09 4.08032e-20
-2.61298e-09 -1.25437e-09 -8.46338e-21
8.89376e-08 1.80727e-08 -1.33105e-20
2.82254e-08 1.29806e-07 -1.10395e-20
-3.26208e-09 1.29068e-07 -2.63834e-20
-6.38067e-07 -4.63489e-07 3.11184e-20
1.13272e-07 -1.78158e-07 -3.60712e-20
5.73024e-08 2.06444e-08 -4.75361e-20
-2.10141e-07 -2.26071e-08 4.64749e-20
-1.32872e-07 1.7554e-07 8.55269e-20
-1.71537e-07 8.06585e-08 6.98996e-20
6.26428e-07 4.50102e-07 -6.54779e-20
6.2007e-08 4.07565e-08 5.26266e-21
-6.09798e-08 1.99027e-07 2.07492e-20
-1.20218e-07 -1.02969e-07 2.30107e-20
2.99043e-08 -1.56798e-07 -3.66037e-20
-9.72734e-08 -1.85075e-07 -2.40586e-21
-1.55878e-07 -1.06844e-07 4.64546e-20
1.06833e-07 -1.89466e-07 -5.12548e-21
1.28153e-07 -1.76114e-07 -8.01742e-21
-4.06136e-08 -7.94952e-07 -7.09062e-20
3.26853e-07 -5.22811e-07 -2.26445e-20
1.56161e-08 -1.9034e-07 -1.60449e-20
1.3423e-07 1.02183e-07 4.18343e-20
-1.20573e-07 -1.46358e-07 -1.81939e-20
-1.04568e-07 1.94951e-07 4.40907e-20
-6.42433e-08 1.91077e-07 6.70306e-20
1.39958e-07 1.44925e-07 7.99981e-20
6.86135e-08 -1.78723e-07 -7.53311e-20
-1.77387e-07 -5.05782e-07 -2.48245e-20
3.99867e-09 6.14726e-08 2.34946e-20
1.4169e-07 1.45798e-07 3.06814e-20
-7.63878e-08 -3.76185e-08 -3.66666e-20
-6.34739e-08 3.46532e-08 1.84539e-20
5.67941e-07 -2.48805e-07 2.17858e-20
7.05462e-08 -1.16592e-07 -2.86502e-20
-6.69586e-08 -1.14549e-07 -5.96706e-20
2.54208e-08 -2.1972e-09 5.03173e-20
2.19791e-09 -9.63614e-09 -6.01291e-20
-7.12706e-09 -7.05397e-09 -2.34023e-20
3.12977e-08 2.05148e-08 -1.39485e-20
-9.80919e-08 -1.85171e-07 -2.82184e-20
1.50951e-07 6.0539e-08 -4.41372e-20
-3.67282e-07 -4.0378e-07 -7.4041e-20
1.39037e-09 1.18431e-08 -2.3917e-21
1.36946e-09 2.10853e-09 6.34716e-20
2.63984e-09 -3.50406e-10 -2.69107e-20
3.5244e-07 -6.95983e-07 -2.38898e-21
-1.46534e-08 1.72604e-08 -7.8374e-20
-3.36226e-09 2.09106e-08 4.92124e-20
-1.51778e-07 5.39558e-08 1.0115e-19
-5.24359e-09 6.16586e-08 7.78148e-21
-3.3345e-08 9.88725e-08 6.51742e-20
6.87411e-08 2.93298e-09 8.56879e-20
1.55016e-08 5.94417e-08 3.17662e-20
-4.06381e-09 8.21951e-08 -5.34937e-21
1.17813e-07 6.40969e-08 -7.6978e-21
8.39069e-09 7.5824e-07 3.88446e-20
-1.09611e-07 1.03715e-07 4.40622e-20
8.21921e-08 -5.52601e-08 1.54042e-20
4.74539e-08 -4.33235e-08 7.5608e-20
-7.77698e-07 -1.06781e-07 1.67217e-20
-2.21741e-08 8.78793e-09 7.47096e-21
-5.66289e-07 -6.69868e-07 7.38403e-21
1.02952e-08 2.75628e-08 1.31952e-20
9.93412e-08 1.93191e-08 -7.87133e-20
2.95736e-07 -3.83822e-08 -5.10473e-20
-6.76089e-08 -1.11097e-07 -1.09346e-19
1.29268e-07 3.70783e-08 -2.55659e-20
6.75638e-10 -3.29031e-08 -1.63458e-20
-7.29079e-08 8.43498e-08 1.30722e-20
-2.78835e-08 -1.7741e-08 -1.8185e-20
-6.57104e-08 1.335e-07 6.26107e-20
1.1887e-08 8.42665e-08 -1.06044e-20
1.93234e-08 1.41646e-08 5.66275e-20
1.91773e-08 -1.36073e-08 -5.1376e-20
-5.27215e-07 -1.43623e-07 2.68593e-20
5.80876e-08 2.16781e-08 -6.31147e-20
-6.99294e-08 1.35343e-06 -9.61331e-21
-4.86633e-09 -1.39051e-06 -1.20799e-19
6.84433e-07 1.17166e-06 -2.88094e-20
-7.10477e-08 5.63606e-08 3.92364e-20
-3.62669e-07 7.29869e-07 -4.34767e-20
6.88363e-07 -1.13087e-06 -6.02182e-20
-1.13839e-07 -1.84249e-07 -3.1004e-20
1.0453e-06 9.15931e-07 4.53955e-20
1.22947e-08 -2.18058e-08 2.08154e-20
-1.28102e-08 -2.20955e-08 -4.50815e-20
1.09574e-06 -8.95539e-07 -1.19255e-20
-6.71515e-08 1.32061e-07 1.06306e-19
-6.88299e-07 -4.38357e-07 4.85006e-20
-5.80413e-07 -1.20975e-06 -6.50355e-20
-3.25088e-07 -7.47875e-07 -1.05248e-19
-5.96678e-07 1.22988e-06 -5.52582e-20
-1.41009e-07 8.33454e-07 -7.36865e-20
-9.93818e-10 2.91969e-08 -2.6899e-20
-3.62052e-07 4.66132e-07 -1.74956e-20
-3.46617e-07 -7.09425e-07 -5.55475e-20
1.34786e-06 2.35205e-07 1.90458e-20
-1.05413e-07 8.96166e-08 -6.03091e-20
-2.47853e-09 5.92139e-08 3.74609e-20
-6.51984e-07 4.71991e-07 -1.00341e-20
-1.16904e-07 6.23942e-08 2.8923e-20
1.33458e-06 -2.09205e-07 6.26435e-20
-8.92267e-08 5.98948e-08 -2.11214e-20
6.49938e-08 -1.34414e-07 4.65394e-20
-1.03858e-06 -7.88807e-07 -4.96393e-21
-3.50201e-07 7.50358e-07 -7.06739e-20
-1.06374e-06 7.83013e-07 -2.44386e-21
3.10812e-07 6.93389e-07 4.97807e-21
-1.14441e-07 9.09713e-08 6.74656e-20
-3.17633e-08 1.79906e-08 -1.87942e-20
-1.74116e-09 -2.75789e-09 1.24171e-19
4.31769e-10 -2.38514e-09 1.33313e-20
8.69937e-09 9.13592e-08 -8.90779e-20
-2.55271e-09 2.76242e-09 1.03995e-19
1.34157e-09 3.42489e-09 -2.95051e-20
2.29895e-09 -9.84059e-10 -5.76356e-21
-1.36191e-09 1.0825e-08 1.36897e-19
-2.39161e-07 5.21797e-07 2.46325e-20
-1.79938e-08 1.29189e-08 -1.10962e-19
3.10142e-08 -1.95359e-08 5.27816e-20
3.03999e-08 -1.76092e-08 -8.89346e-20
8.75623e-08 3.41735e-08 -7.80991e-20
-8.26159e-10 -9.26491e-09 1.01479e-19
-8.27322e-09 -4.19191e-09 -6.5008e-20
3.03822e-08 1.77229e-08 -2.21218e-20
7.72891e-07 -1.48956e-07 3.8277e-20
-1.0015e-07 -1.27656e-07 3.11056e-20
-6.7668e-07 4.71762e-07 -2.58918e-21
-6.05867e-07 6.91024e-07 7.85261e-20
8.16685e-07 -2.94935e-07 3.68678e-20
-3.92441e-09 -1.13703e-08 1.84516e-19
-4.30908e-09 1.16796e-08 -4.87857e-21
-1.28387e-08 2.19992e-09 -1.41285e-20
-8.41421e-09 8.58964e-09 -1.34349e-20
-1.16386e-08 -2.46089e-09 -2.15902e-20
2.16092e-09 2.73104e-09 -6.08124e-20
1.24929e-08 -3.06971e-09 -1.92338e-20
5.27116e-09 -3.70273e-09 -1.94279e-20
-3.67881e-09 -2.66128e-09 7.14954e-20
7.98618e-09 -8.21806e-09 -4.66104e-20
8.03045e-09 8.46269e-09 1.3586e-19
-3.70124e-09 2.34023e-09 -1.36555e-20
4.07012e-09 -8.0728e-10 -1.10318e-20
6.74618e-09 3.73474e-09 1.93935e-20
1.46011e-08 5.20671e-09 -3.54198e-20
SCALARS rr_necrosis float
LOOKUP_TABLE default
0
0
0
0
0
0
0
0
0
0
0
0
0
0
0
0
0
0
0
0
0
0
0
0
0
0
0
0
0
0
0
0
0
0
0
0
0
0
0
0
0
0
0
0
0
0
0
0
0
0
0
0
0
0
0
0
0
0
0
0
0
0
0
0
0
0
0
0
0
0
0
0
0
0
0
0
0
0
0
0
0
0
0
0
0
0
0
0
0
0
0
0
0
0
0
0
0
0
0
0
0
0
0
0
0
0
0
0
0
0
0
0
0
0
0
0
0
0
0
0
0
0
0
0
0
0
0
0
0
0
0
0
0
0
0
0
0
0
0
0
0
0
0
0
0
0
0
0
0
0
0
0
0
0
0
0
0
0
0
0
0
0
0
0
0
0
0
0
0
0
0
0
0
0
0
0
0
0
0
0
0
0
0
0
0
0
0
0
0
0
0
0
0
0
0
0
0
0
0
0
0
0
0
0
0
0
0
0
0
0
0
0
0
0
0
0
0
0
0
0
0
0
0
0
0
0
0
0
0
0
0
0
0
0
0
0
0
0
0
0
0
0
0
0
0
0
0
0
0
0
0
0
0
0
0
0
0
0
0
0
0
0
0
0
0
0
0
0
0
0
0
0
0
0
0
0
0
0
0
0
0
0
0
0
0
0
0
0
0
0
0
0
0
0
0
0
0
0
0
0
0
0
0
0
0
0
0
0
0
0
0
0
0
0
0
0
0
0
0
0
0
0
0
0
0
0
0
0
0
0
0
0
0
0
0
0
0
0
0
0
0
0
0
0
0
0
0
0
0
0
0
0
0
0
0
0
0
0
0
0
0
0
0
0
0
0
0
0
0
0
0
0
0
0
0
0
0
0
0
0
0
0
0
0
0
0
0
0
0
0
0
0
0
0
0
0
0
0
0
0
0
0
0
0
0
0
0
0
0
0
0
0
0
0
0
0
0
0
0
0
0
0
0
0
0
0
0
0
0
0
0
0
0
0
0
0
0
0
0
0
0
0
0
0
0
0
0
0
0
0
0
0
0
0
0
0
0
0
0
0
0
0
0
0
0
0
0
0
0
0
0
0
0
0
0
0
0
0
0
0
0
0
0
0
0
0
0
0
0
0
0
0
0
0
0
0
0
0
0
0
0
0
0
0
0
0
0
0
0
0
0
0
0
0
0
0
0
0
0
0
0
0
0
0
0
0
0
0
0
0
0
0
0
0
0
0
0
0
0
0
0
0
0
0
0
0
0
0
0
0
0
0
0
0
0
0
0
0
0
0
0
0
0
SCALARS rr_protein float
LOOKUP_TABLE default
1
1
1
1
1
1
1
1
1
1
1
1
1
1
1
1
1
1
1
1
1
1
1
1
1
1
1
1
1
1
1
1
1
1
1
1
1
1
1
1
1
1
1
1
1
1
1
1
1
1
1
1
1
1
1
1
1
1
1
1
1
1
1
1
1
1
1
1
1
1
1
1
1
1
1
1
1
1
1
1
1
1
1
1
1
1
1
1
1
1
1
1
1
1
1
1
1
1
1
1
1
1
1
1
1
1
1
1
1
1
1
1
1
1
1
1
1
1
1
1
1
1
1
1
1
1
1
1
1
1
1
1
1
1
1
1
1
1
1
1
1
1
1
1
1
1
1
1
1
1
1
1
1
1
1
1
1
1
1
1
1
1
1
1
1
1
1
1
1
1
1
1
1
1
1
1
1
1
1
1
1
1
1
1
1
1
1
1
1
1
1
1
1
1
1
1
1
1
1
1
1
1
1
1
1
1
1
1
1
1
1
1
1
1
1
1
1
1
1
1
1
1
1
1
1
1
1
1
1
1
1
1
1
1
1
1
1
1
1
1
1
1
1
1
1
1
1
1
1
1
1
1
1
1
1
1
1
1
1
1
1
1
1
1
1
1
1
1
1
1
1
1
1
1
1
1
1
1
1
1
1
1
1
1
1
1
1
1
1
1
1
1
1
1
1
1
1
1
1
1
1
1
1
1
1
1
1
1
1
1
1
1
1
1
1
1
1
1
1
1
1
1
1
1
1
1
1
1
1
1
1
1
1
1
1
1
1
1
1
1
1
1
1
1
1
1
1
1
1
1
1
1
1
1
1
1
1
1
1
1
1
1
1
1
1
1
1
1
1
1
1
1
1
1
1
1
1
1
1
1
1
1
1
1
1
1
1
1
1
1
1
1
1
1
1
1
1
1
1
1
1
1
1
1
1
1
1
1
1
1
1
1
1
1
1
1
1
1
1
1
1
1
1
1
1
1
1
1
1
1
1
1
1
1
1
1
1
1
1
1
1
1
1
1
1
1
1
1
1
1
1
1
1
1
1
1
1
1
1
1
1
1
1
1
1
1
1
1
1
1
1
1
1
1
1
1
1
1
1
1
1
1
1
1
1
1
1
1
1
1
1
1
1
1
1
1
1
1
1
1
1
1
1
1
1
1
1
1
1
1
1
1
1
1
1
1
1
1
1
1
1
1
1
1
1
1
1
1
1
1
1
1
1
1
1
1
1
1
1
1
1
1
1
1
1
1
1
1
1
1
1
1
1
1
1
1
1
1
1
1
1
1
1
SCALARS rr_(S_ext) float
LOOKUP_TABLE default
0.995805
0.995709
0.995722
0.995709
0.995702
0.995722
0.995805
0.995718
0.995731
0.995713
0.995771
0.995718
0.99572
0.995713
0.995701
0.995721
0.995708
0.995715
0.99573
0.995722
0.995727
0.995678
0.995723
0.995723
0.995723
0.995713
0.995776
0.99572
0.995752
0.995688
0.995721
0.995751
0.995779
0.995692
0.995694
0.995692
0.995685
0.995695
0.995721
0.995779
0.995752
0.995685
0.995685
0.99572
0.995763
0.995753
0.99573
0.99573
0.995721
0.995755
0.995753
0.995746
0.995699
0.995748
0.9957
0.995772
0.995694
0.995747
0.995694
0.995721
0.995707
0.995707
0.995778
0.995709
0.995706
0.995713
0.995706
0.995714
0.995723
0.995709
0.995699
0.995699
0.995753
0.995712
0.995723
0.995779
0.995705
0.995713
0.995713
0.995741
0.995762
0.995701
0.995706
0.995761
0.995754
0.995768
0.99572
0.995714
0.995763
0.995682
0.995747
0.995682
0.995703
0.995714
0.995748
0.995752
0.995764
0.995712
0.995706
0.995721
0.995739
0.995754
0.995761
0.995713
0.995713
0.995713
0.995706
0.995722
0.995762
0.995705
0.995721
0.995763
0.995761
0.995714
0.995713
0.995749
0.995696
0.995765
0.995697
0.995748
0.995733
0.995701
0.995708
0.995709
0.995705
0.995701
0.995697
0.995712
0.995764
0.995746
0.995697
0.995709
0.995706
0.995708
0.995754
0.995693
0.995769
0.99572
0.995706
0.995693
0.995752
0.995718
0.995734
0.995712
0.995766
0.995713
0.995718
0.995724
0.995722
0.995739
0.995728
0.995708
0.99575
0.99572
0.995712
0.995708
0.995713
0.995753
0.995752
0.995717
0.995729
0.99575
0.995765
0.995752
0.995751
0.995713
0.995752
0.995753
0.995751
0.995751
0.995702
0.995747
0.995753
0.995713
0.995747
0.995706
0.995703
0.995719
0.995701
0.995715
0.995753
0.995712
0.995713
0.995752
0.995713
0.995754
0.995709
0.995709
0.995704
0.995713
0.995713
0.995763
0.995747
0.995751
0.995708
0.995715
0.995714
0.995706
0.995708
0.995714
0.995708
0.995731
0.995742
0.995706
0.995754
0.995706
0.995714
0.995752
0.995707
0.995708
0.995708
0.995715
0.995714
0.995706
0.995738
0.995715
0.995742
0.995709
0.995705
0.995705
0.995704
0.995705
0.995705
0.995705
0.995713
0.995701
0.995701
0.9957
0.995701
0.995701
0.9957
0.995739
0.995712
0.995705
0.995731
0.995702
0.995702
0.995706
0.995741
0.995705
0.995712
0.995739
0.995705
0.99574
0.995707
0.995705
0.995738
0.995741
0.995762
0.995755
0.995706
0.995767
0.99572
0.995742
0.995731
0.995706
0.995705
0.995687
0.995705
0.99577
0.995741
0.995705
0.995718
0.995742
0.995704
0.995734
0.995687
0.995741
0.995705
0.99571
0.995714
0.995702
0.995714
0.995701
0.995719
0.995766
0.995768
0.995704
0.995726
0.995718
0.995742
0.995705
0.995713
0.995741
0.995714
0.995739
0.995718
0.99574
0.995741
0.995683
0.995702
0.9957
0.9957
0.995713
0.99574
0.995693
0.995711
0.995729
0.995739
0.995742
0.995703
0.995739
0.995705
0.995742
0.995763
0.995739
0.995766
0.995708
0.995739
0.995682
0.995741
0.995709
0.995739
0.99571
0.995741
0.995722
0.995784
0.99572
0.99574
0.9957
0.995739
0.995728
0.995713
0.995708
0.99574
0.995739
0.995734
0.99571
0.995739
0.995719
0.995721
0.995702
0.99574
0.995735
0.995728
0.995735
0.99574
0.995734
0.995708
0.995718
0.995735
0.995739
0.995717
0.995717
0.995739
0.995702
0.995775
0.995724
0.995762
0.995728
0.995781
0.995782
0.99578
0.99578
0.995777
0.995786
0.995787
0.995708
0.995696
0.995716
0.995728
0.99573
0.995735
0.995718
0.995734
0.995735
0.995696
0.995734
0.995708
0.995747
0.995701
0.995722
0.995729
0.995735
0.995705
0.995724
0.995728
0.995723
0.995727
0.995732
0.995742
0.995728
0.995724
0.995707
0.995731
0.995732
0.995731
0.995728
0.995724
0.995717
0.995731
0.995717
0.995722
0.995728
0.995718
0.995722
0.995733
0.995709
0.995728
0.995696
0.995763
0.995708
0.995708
0.995724
0.995729
0.995712
0.995776
0.995721
0.995729
0.995783
0.995686
0.995687
0.995721
0.995731
0.995728
0.995731
0.995681
0.99568
0.995715
0.995719
0.995718
0.995781
0.995732
0.995709
0.995731
0.995731
0.995729
0.995774
0.995711
0.995731
0.995724
0.995723
0.99573
0.995728
0.99573
0.995731
0.995778
0.995766
0.995728
0.995724
0.995728
0.995731
0.995729
0.995728
0.995728
0.995765
0.995704
0.99573
0.995712
0.99571
0.995766
0.995721
0.995721
0.995702
0.99568
0.995679
0.995701
0.995732
0.995723
0.995766
0.995681
0.995678
0.995677
0.995775
0.995694
0.995687
0.995724
0.995704
0.995717
0.995711
0.995708
0.99571
0.995719
0.995775
0.995722
0.995714
0.995709
0.995779
0.99569
0.995788
0.995707
0.995715
0.995739
0.995719
0.99572
0.995697
0.995717
0.995697
0.995722
0.99571
0.99569
0.995691
0.995768
0.995711
0.995806
0.995808
0.995803
0.995712
0.995781
0.995802
0.995731
0.995803
0.9957
0.9957
0.995805
0.995724
0.995782
0.995809
0.995779
0.995809
0.995779
0.995694
0.995769
0.99578
0.995803
0.99572
0.995707
0.995781
0.99572
0.9958
0.995716
0.995724
0.995809
0.99578
0.995808
0.995774
0.995723
0.995697
0.995676
0.995676
0.995713
0.995676
0.995675
0.995676
0.99568
0.995767
0.99569
0.995702
0.995698
0.995715
0.99568
0.99568
0.995699
0.995773
0.995725
0.995782
0.995791
0.995782
0.995681
0.995681
0.995682
0.995682
0.995681
0.995679
0.995686
0.995681
0.99568
0.995684
0.995683
0.99568
0.995678
0.99568
0.995684
SCALARS rr_(P_ext) float
LOOKUP_TABLE default
0.0216455
0.0215439
0.0215529
0.0215456
0.0215183
0.021553
0.0216458
0.021547
0.0215614
0.0215443
0.0216388
0.0215469
0.021549
0.021543
0.0215276
0.0215514
0.0215393
0.0215481
0.0215659
0.0215554
0.0215568
0.0214833
0.0215566
0.0215552
0.0215555
0.0215464
0.0216247
0.0215517
0.0215936
0.0215038
0.0215494
0.0215934
0.0216262
0.0215099
0.0215069
0.02151
0.0215027
0.0215082
0.0215495
0.0216259
0.0215939
0.0215023
0.0215024
0.0215493
0.0216164
0.0215922
0.0215638
0.0215597
0.0215526
0.0215999
0.0215962
0.0215833
0.0215197
0.021583
0.0215205
0.0216134
0.0215067
0.021583
0.0215068
0.0215549
0.0215397
0.0215313
0.0216182
0.0215318
0.0215311
0.0215394
0.0215393
0.0215463
0.021556
0.0215436
0.0215199
0.0215199
0.0215939
0.0215362
0.0215525
0.0216305
0.0215258
0.0215395
0.0215464
0.021581
0.021602
0.0215151
0.0215354
0.0216048
0.0215907
0.0216153
0.0215517
0.0215378
0.0216163
0.0214882
0.0215832
0.0214884
0.0215252
0.0215405
0.0215823
0.0215972
0.0216018
0.0215445
0.021526
0.0215499
0.0215717
0.0215883
0.021605
0.0215471
0.0215453
0.0215451
0.0215342
0.0215508
0.0216052
0.0215423
0.0215548
0.0216131
0.0216086
0.0215477
0.0215456
0.0215827
0.0215068
0.0216023
0.0215071
0.0215823
0.0215681
0.0215288
0.0215439
0.0215375
0.0215416
0.0215268
0.0215104
0.0215445
0.0216018
0.0215822
0.0215198
0.0215446
0.0215359
0.0215442
0.0215881
0.0215066
0.0216075
0.0215484
0.0215353
0.0215067
0.021587
0.021544
0.0215666
0.0215442
0.0216027
0.021546
0.0215455
0.0215527
0.021553
0.0215748
0.0215599
0.0215439
0.0215936
0.0215489
0.0215443
0.0215445
0.0215415
0.021586
0.0215857
0.0215491
0.0215595
0.0215929
0.0216139
0.0215962
0.0215861
0.021545
0.0215861
0.0215862
0.0215936
0.0215859
0.0215249
0.021583
0.0215964
0.0215406
0.0215828
0.0215345
0.021525
0.021547
0.0215193
0.021545
0.0215935
0.0215446
0.0215447
0.0215868
0.0215376
0.0215971
0.0215376
0.021534
0.0215246
0.0215444
0.0215375
0.0216008
0.0215828
0.0215935
0.0215443
0.0215484
0.0215479
0.021536
0.0215441
0.0215397
0.0215438
0.0215646
0.0215802
0.0215361
0.0215934
0.0215354
0.0215395
0.0215888
0.02153
0.0215437
0.0215291
0.0215424
0.0215456
0.0215353
0.0215744
0.0215416
0.0215792
0.0215341
0.0215418
0.0215419
0.021543
0.0215425
0.0215425
0.0215426
0.0215436
0.0215283
0.0215286
0.0215283
0.0215282
0.0215203
0.0215202
0.0215751
0.0215433
0.0215465
0.0215602
0.0215276
0.0215272
0.0215462
0.02158
0.0215469
0.0215444
0.021574
0.0215298
0.0215745
0.021535
0.0215472
0.0215738
0.0215788
0.0216022
0.0216015
0.0215353
0.0216042
0.0215501
0.0215793
0.0215653
0.021547
0.021542
0.0215018
0.0215423
0.0216049
0.0215792
0.0215466
0.0215469
0.0215805
0.0215421
0.0215661
0.0215019
0.0215791
0.0215416
0.0215381
0.0215479
0.0215279
0.021538
0.0215197
0.0215491
0.0216116
0.0216153
0.0215225
0.0215565
0.021547
0.0215744
0.0215297
0.0215406
0.0215792
0.0215403
0.0215714
0.0215451
0.0215713
0.0215797
0.021494
0.021524
0.0215273
0.0215275
0.0215436
0.0215706
0.021511
0.0215385
0.0215592
0.0215702
0.0215734
0.0215226
0.0215741
0.0215252
0.0215724
0.0216161
0.0215708
0.0216032
0.0215338
0.021574
0.0214941
0.0215723
0.0215361
0.0215752
0.0215371
0.0215726
0.0215517
0.0216199
0.0215537
0.0215743
0.021523
0.0215748
0.0215591
0.0215371
0.0215436
0.0215725
0.0215707
0.0215664
0.021534
0.0215708
0.021547
0.0215517
0.0215199
0.0215707
0.0215669
0.0215577
0.0215658
0.0215717
0.0215656
0.0215309
0.0215472
0.0215665
0.0215745
0.0215444
0.0215442
0.0215712
0.0215201
0.0216424
0.021552
0.0216021
0.0215572
0.0216962
0.0216961
0.0216955
0.0216957
0.0216954
0.0216964
0.021696
0.0215335
0.0215138
0.0215488
0.0215596
0.0215653
0.0215659
0.0215451
0.0215665
0.021567
0.0215136
0.0215659
0.0215293
0.0215832
0.0215299
0.0215533
0.0215598
0.0215663
0.0215223
0.021552
0.0215591
0.0215519
0.021559
0.0215667
0.0215813
0.0215598
0.0215529
0.021529
0.0215644
0.0215676
0.0215648
0.0215604
0.0215532
0.0215449
0.0215649
0.0215451
0.0215541
0.0215602
0.0215468
0.0215538
0.0215661
0.0215372
0.0215582
0.0215147
0.021616
0.0215335
0.0215309
0.0215531
0.0215579
0.0215396
0.0216412
0.0215532
0.0215583
0.0216193
0.0214947
0.0214944
0.0215521
0.0215654
0.0215571
0.0215643
0.0214792
0.0214792
0.0215467
0.0215466
0.0215471
0.0216414
0.021567
0.0215357
0.0215602
0.021561
0.0215603
0.021643
0.0215377
0.021566
0.0215524
0.0215523
0.0215612
0.0215592
0.0215612
0.0215603
0.0216252
0.021603
0.0215593
0.0215522
0.0215581
0.0215616
0.0215587
0.0215575
0.0215581
0.021616
0.0215275
0.0215649
0.0215399
0.0215372
0.0216166
0.0215527
0.0215536
0.0215199
0.0214953
0.0214954
0.021524
0.0215672
0.0215526
0.0216177
0.0214973
0.0214815
0.0214816
0.0216442
0.0215083
0.0215038
0.0215536
0.0215257
0.0215489
0.0215436
0.0215369
0.0215344
0.021547
0.0216414
0.0215512
0.0215407
0.0215359
0.0216311
0.0215071
0.0216211
0.0215363
0.0215434
0.021573
0.0215495
0.0215474
0.021519
0.021546
0.0215191
0.0215522
0.0215358
0.0215054
0.0215048
0.0216174
0.0215423
0.0216474
0.0216456
0.0216497
0.0215378
0.0216426
0.0216517
0.0215615
0.0216486
0.0215147
0.0215148
0.021647
0.0215575
0.0216249
0.021648
0.0216268
0.0216484
0.0216268
0.0215077
0.0216211
0.0216422
0.0216472
0.0215478
0.0215322
0.0216284
0.0215476
0.0216511
0.0215443
0.0215569
0.0216491
0.0216299
0.0216506
0.0216441
0.021554
0.0215131
0.0214833
0.0214846
0.0215426
0.0214836
0.0214836
0.0214842
0.021492
0.0216191
0.0215061
0.0215233
0.0215129
0.0215438
0.0214899
0.02149
0.0215112
0.0216452
0.0215578
0.021644
0.0216227
0.021622
0.0214985
0.0214988
0.0214995
0.0214993
0.0214986
0.0214851
0.0214993
0.0214899
0.0214831
0.0214983
0.0214982
0.0214827
0.0214848
0.0214895
0.0215001
SCALARS rr_(S) float
LOOKUP_TABLE default
0.979953
0.979813
0.979829
0.979813
0.979795
0.979829
0.979953
0.979823
0.979842
0.979817
0.979917
0.979823
0.979826
0.979817
0.979798
0.979828
0.97981
0.979821
0.979844
0.979831
0.979836
0.979756
0.979832
0.979831
0.979831
0.979818
0.979915
0.979827
0.979878
0.979775
0.979827
0.979876
0.979919
0.979781
0.979781
0.979781
0.979771
0.979784
0.979827
0.979919
0.979877
0.979771
0.979771
0.979826
0.979899
0.979877
0.979843
0.97984
0.979829
0.979883
0.97988
0.979867
0.979792
0.979869
0.979794
0.979906
0.979781
0.979868
0.979781
0.97983
0.979809
0.979805
0.979914
0.979807
0.979804
0.979815
0.979808
0.979819
0.979832
0.979812
0.979793
0.979793
0.979878
0.979812
0.97983
0.97992
0.979801
0.979815
0.979818
0.979861
0.979891
0.979792
0.979806
0.979892
0.979878
0.979903
0.979827
0.979814
0.979899
0.979762
0.979868
0.979762
0.979799
0.979816
0.979868
0.979879
0.979893
0.979816
0.979801
0.979827
0.979855
0.979876
0.979891
0.979818
0.979818
0.979817
0.979806
0.979828
0.979892
0.979808
0.979829
0.979897
0.979893
0.979819
0.979817
0.979869
0.979784
0.979894
0.979784
0.979868
0.979847
0.979798
0.979812
0.97981
0.979808
0.979797
0.979786
0.979816
0.979893
0.979867
0.979791
0.979813
0.979806
0.979812
0.979877
0.97978
0.979901
0.979826
0.979806
0.97978
0.979874
0.979821
0.979848
0.979816
0.979895
0.979817
0.979822
0.979831
0.97983
0.979856
0.979839
0.979812
0.979876
0.979826
0.979816
0.979812
0.979816
0.979875
0.979874
0.979823
0.97984
0.979875
0.979899
0.979878
0.979873
0.979817
0.979874
0.979875
0.979877
0.979873
0.979798
0.979868
0.979879
0.979815
0.979868
0.979806
0.979798
0.979823
0.979794
0.979819
0.979879
0.979816
0.979816
0.979874
0.979814
0.97988
0.97981
0.979808
0.9798
0.979816
0.979813
0.979892
0.979867
0.979876
0.979812
0.97982
0.979819
0.979806
0.979812
0.979815
0.979812
0.979843
0.979861
0.979806
0.979879
0.979806
0.979816
0.979875
0.979804
0.979812
0.979805
0.979818
0.979818
0.979806
0.979855
0.979818
0.979861
0.979808
0.979808
0.979808
0.979807
0.979808
0.979808
0.979808
0.979817
0.979798
0.979798
0.979798
0.979798
0.979794
0.979794
0.979856
0.979815
0.979811
0.979841
0.979799
0.979798
0.979811
0.97986
0.979811
0.979816
0.979856
0.979803
0.979857
0.979806
0.97981
0.979855
0.97986
0.979891
0.979884
0.979806
0.979897
0.979826
0.979861
0.979843
0.979811
0.979808
0.979772
0.979808
0.979901
0.97986
0.97981
0.979823
0.979861
0.979807
0.979847
0.979772
0.97986
0.979808
0.979812
0.979819
0.979799
0.979815
0.979794
0.979824
0.979899
0.979903
0.979798
0.979835
0.979823
0.979859
0.979803
0.979815
0.97986
0.979816
0.979854
0.979822
0.979855
0.97986
0.979765
0.979797
0.979796
0.979796
0.979816
0.979855
0.979782
0.979812
0.979839
0.979854
0.979858
0.979797
0.979856
0.9798
0.979857
0.979899
0.979854
0.979896
0.979807
0.979855
0.979765
0.979856
0.979809
0.979856
0.979811
0.979856
0.979829
0.97992
0.979828
0.979856
0.979795
0.979856
0.979838
0.979813
0.979812
0.979856
0.979854
0.979847
0.979809
0.979854
0.979824
0.979828
0.979795
0.979855
0.979848
0.979837
0.979848
0.979855
0.979847
0.979806
0.979823
0.979848
0.979856
0.979821
0.979821
0.979854
0.979795
0.979922
0.979831
0.979891
0.979837
0.979954
0.979954
0.979952
0.979952
0.979949
0.979958
0.979959
0.979807
0.979787
0.979822
0.979838
0.979843
0.979848
0.979822
0.979847
0.979848
0.979787
0.979847
0.979805
0.979867
0.979799
0.979829
0.979839
0.979848
0.979799
0.979831
0.979838
0.97983
0.979837
0.979845
0.979862
0.979838
0.979832
0.979804
0.979843
0.979846
0.979844
0.979839
0.979831
0.979821
0.979843
0.979821
0.97983
0.979839
0.979823
0.97983
0.979846
0.97981
0.979838
0.979787
0.979899
0.979807
0.979806
0.979831
0.979838
0.979814
0.979923
0.979829
0.979838
0.979919
0.979769
0.979769
0.979829
0.979844
0.979837
0.979843
0.979757
0.979756
0.97982
0.979823
0.979823
0.979928
0.979845
0.979809
0.979841
0.979842
0.979839
0.979921
0.979812
0.979844
0.979831
0.97983
0.979841
0.979838
0.979841
0.979841
0.979918
0.979895
0.979838
0.979831
0.979838
0.979842
0.979838
0.979837
0.979837
0.9799
0.979801
0.979843
0.979814
0.979811
0.979901
0.979829
0.979829
0.979795
0.979763
0.979763
0.979796
0.979846
0.979831
0.979902
0.979765
0.979755
0.979754
0.979923
0.979783
0.979774
0.979832
0.9798
0.979823
0.979815
0.979808
0.979809
0.979824
0.979922
0.979829
0.979817
0.979809
0.979921
0.979778
0.979925
0.979807
0.979819
0.979856
0.979825
0.979825
0.97979
0.979821
0.97979
0.979829
0.97981
0.979777
0.979778
0.979904
0.979814
0.979954
0.979956
0.979953
0.979813
0.979928
0.979953
0.979842
0.979953
0.979791
0.979791
0.979954
0.979833
0.979921
0.979958
0.979919
0.979958
0.979919
0.979782
0.979906
0.979927
0.979952
0.979825
0.979805
0.979921
0.979825
0.979951
0.97982
0.979834
0.979959
0.979921
0.979958
0.979922
0.979831
0.979787
0.979754
0.979755
0.979816
0.979754
0.979754
0.979755
0.979762
0.979904
0.979777
0.979797
0.979788
0.979818
0.979761
0.979761
0.979788
0.979922
0.979835
0.97993
0.979928
0.97992
0.979765
0.979765
0.979767
0.979767
0.979765
0.979758
0.97977
0.979762
0.979758
0.979768
0.979768
0.979758
0.979757
0.979761
0.979769
SCALARS rr_(P) float
LOOKUP_TABLE default
0.0247043
0.0246437
0.0246491
0.0246447
0.0246282
0.0246492
0.0247045
0.0246456
0.0246543
0.0246439
0.0247
0.0246456
0.0246469
0.0246432
0.0246338
0.0246483
0.0246409
0.0246462
0.0246569
0.0246507
0.0246515
0.0246068
0.0246514
0.0246505
0.0246507
0.0246452
0.0246918
0.0246484
0.0246734
0.0246193
0.0246471
0.0246732
0.0246927
0.024623
0.0246213
0.0246231
0.0246186
0.0246221
0.0246472
0.0246925
0.0246735
0.0246183
0.0246184
0.0246471
0.0246868
0.0246726
0.0246557
0.0246533
0.024649
0.0246771
0.0246749
0.0246673
0.024629
0.0246672
0.0246295
0.0246851
0.0246211
0.0246671
0.0246212
0.0246503
0.0246411
0.0246361
0.024688
0.0246364
0.024636
0.024641
0.0246409
0.0246452
0.024651
0.0246434
0.0246291
0.0246292
0.0246736
0.0246391
0.024649
0.0246952
0.0246328
0.0246411
0.0246452
0.0246659
0.0246784
0.0246263
0.0246385
0.0246801
0.0246717
0.0246862
0.0246484
0.02464
0.0246867
0.0246097
0.0246672
0.0246098
0.0246324
0.0246417
0.0246667
0.0246755
0.0246783
0.0246441
0.0246329
0.0246474
0.0246604
0.0246703
0.0246801
0.0246456
0.0246446
0.0246445
0.0246378
0.0246479
0.0246803
0.0246427
0.0246502
0.0246849
0.0246822
0.024646
0.0246448
0.024667
0.0246212
0.0246786
0.0246214
0.0246668
0.0246583
0.0246345
0.0246437
0.0246399
0.0246422
0.0246333
0.0246233
0.0246441
0.0246783
0.0246667
0.024629
0.0246441
0.0246388
0.0246438
0.0246702
0.0246211
0.0246817
0.0246465
0.0246385
0.0246211
0.0246695
0.0246438
0.0246574
0.0246439
0.0246789
0.024645
0.0246447
0.024649
0.0246492
0.0246622
0.0246534
0.0246437
0.0246734
0.0246468
0.0246439
0.024644
0.0246423
0.024669
0.0246688
0.0246469
0.0246532
0.0246729
0.0246854
0.0246749
0.024669
0.0246444
0.024669
0.0246691
0.0246733
0.0246689
0.0246322
0.0246671
0.024675
0.0246417
0.024667
0.024638
0.0246323
0.0246456
0.0246288
0.0246444
0.0246733
0.0246442
0.0246442
0.0246694
0.02464
0.0246754
0.0246399
0.0246378
0.024632
0.0246441
0.0246399
0.0246777
0.024667
0.0246733
0.0246439
0.0246465
0.0246461
0.0246389
0.0246437
0.0246412
0.0246436
0.0246562
0.0246655
0.024639
0.0246733
0.0246386
0.0246411
0.0246706
0.0246353
0.0246435
0.0246348
0.0246429
0.0246448
0.0246385
0.024662
0.0246424
0.0246649
0.0246378
0.0246423
0.0246423
0.024643
0.0246428
0.0246427
0.0246428
0.0246435
0.0246342
0.0246344
0.0246342
0.0246341
0.0246294
0.0246293
0.0246624
0.0246433
0.0246451
0.0246536
0.0246338
0.0246336
0.024645
0.0246653
0.0246454
0.024644
0.0246618
0.0246352
0.0246621
0.0246383
0.0246456
0.0246616
0.0246646
0.0246785
0.024678
0.0246385
0.0246797
0.0246475
0.0246649
0.0246565
0.0246455
0.0246425
0.024618
0.0246426
0.0246802
0.0246649
0.0246452
0.0246456
0.0246656
0.0246425
0.0246571
0.0246181
0.0246648
0.0246422
0.0246402
0.0246461
0.0246339
0.0246402
0.0246291
0.0246469
0.0246841
0.0246863
0.0246308
0.0246514
0.0246456
0.0246621
0.0246351
0.0246418
0.0246648
0.0246416
0.0246602
0.0246445
0.0246602
0.0246652
0.0246133
0.0246316
0.0246336
0.0246337
0.0246436
0.0246598
0.0246237
0.0246405
0.024653
0.0246596
0.0246615
0.0246308
0.0246618
0.0246324
0.0246609
0.0246867
0.0246599
0.0246792
0.0246376
0.0246618
0.0246133
0.0246608
0.024639
0.0246625
0.0246396
0.024661
0.0246485
0.0246891
0.0246497
0.024662
0.024631
0.0246622
0.0246529
0.0246396
0.0246435
0.0246609
0.0246599
0.0246572
0.0246377
0.0246599
0.0246456
0.0246484
0.0246292
0.0246599
0.0246575
0.024652
0.0246569
0.0246605
0.0246568
0.0246359
0.0246457
0.0246573
0.024662
0.024644
0.0246439
0.0246601
0.0246293
0.0247022
0.0246486
0.0246785
0.0246518
0.0247338
0.0247337
0.0247333
0.0247334
0.0247332
0.0247339
0.0247337
0.0246374
0.0246254
0.0246466
0.0246532
0.0246566
0.024657
0.0246444
0.0246573
0.0246576
0.0246252
0.0246569
0.0246349
0.0246672
0.0246351
0.0246494
0.0246533
0.0246572
0.0246307
0.0246487
0.0246529
0.0246486
0.0246528
0.0246574
0.0246661
0.0246533
0.0246492
0.0246347
0.024656
0.0246579
0.0246563
0.0246537
0.0246494
0.0246444
0.0246563
0.0246445
0.0246498
0.0246535
0.0246455
0.0246497
0.0246571
0.0246397
0.0246523
0.0246259
0.0246866
0.0246375
0.0246359
0.0246493
0.0246522
0.0246411
0.0247014
0.0246493
0.0246525
0.0246888
0.0246137
0.0246136
0.0246486
0.0246567
0.0246517
0.024656
0.0246043
0.0246043
0.0246454
0.0246454
0.0246457
0.0247017
0.0246576
0.0246388
0.0246536
0.0246541
0.0246536
0.0247025
0.0246399
0.024657
0.0246489
0.0246488
0.0246542
0.024653
0.0246542
0.0246537
0.0246921
0.024679
0.024653
0.0246487
0.0246523
0.0246544
0.0246527
0.0246519
0.0246523
0.0246866
0.0246338
0.0246563
0.0246413
0.0246397
0.024687
0.0246491
0.0246496
0.0246292
0.024614
0.0246141
0.0246316
0.0246577
0.024649
0.0246876
0.0246152
0.0246057
0.0246058
0.0247032
0.0246221
0.0246192
0.0246496
0.0246327
0.0246468
0.0246435
0.0246394
0.024638
0.0246456
0.0247016
0.0246482
0.0246418
0.0246389
0.0246956
0.0246213
0.0246898
0.0246391
0.0246434
0.0246612
0.0246471
0.0246459
0.0246286
0.024645
0.0246286
0.0246488
0.0246389
0.0246202
0.0246199
0.0246875
0.0246427
0.0247054
0.0247044
0.0247067
0.02464
0.0247023
0.0247079
0.0246544
0.0247061
0.0246261
0.0246261
0.0247052
0.0246519
0.024692
0.0247058
0.0246931
0.024706
0.0246931
0.0246217
0.0246896
0.0247021
0.0247053
0.0246461
0.0246366
0.0246941
0.024646
0.0247075
0.024644
0.0246515
0.0247064
0.0246949
0.0247073
0.0247032
0.0246499
0.024625
0.0246068
0.0246075
0.0246429
0.0246069
0.0246069
0.0246073
0.024612
0.0246885
0.0246207
0.0246312
0.0246249
0.0246437
0.0246108
0.0246108
0.0246239
0.0247038
0.0246521
0.0247032
0.0246908
0.0246903
0.024616
0.0246161
0.0246166
0.0246164
0.024616
0.0246078
0.0246165
0.0246107
0.0246066
0.0246158
0.0246158
0.0246064
0.0246077
0.0246105
0.0246169
SCALARS rr_(T) float
LOOKUP_TABLE default
0.363956
0.363972
0.363971
0.363971
0.363981
0.363971
0.363956
0.363972
0.363969
0.363972
0.363953
0.363972
0.363972
0.363973
0.363977
0.363971
0.363973
0.363971
0.363968
0.36397
0.36397
0.363993
0.36397
0.36397
0.36397
0.363972
0.363957
0.363971
0.363963
0.363985
0.363972
0.363963
0.363958
0.363983
0.363985
0.363983
0.363986
0.363984
0.363972
0.363958
0.363963
0.363986
0.363986
0.363971
0.363958
0.363963
0.363968
0.36397
0.363971
0.363961
0.363962
0.363965
0.36398
0.363965
0.36398
0.36396
0.363985
0.363965
0.363985
0.36397
0.363973
0.363976
0.36396
0.363976
0.363976
0.363974
0.363973
0.363972
0.36397
0.363972
0.36398
0.36398
0.363963
0.363975
0.363971
0.363956
0.363978
0.363974
0.363972
0.363965
0.363962
0.363982
0.363975
0.363961
0.363964
0.363959
0.363971
0.363975
0.363958
0.363992
0.363965
0.363992
0.363978
0.363974
0.363965
0.363962
0.363962
0.363972
0.363978
0.363971
0.363967
0.363964
0.363961
0.363971
0.363972
0.363972
0.363975
0.363971
0.363961
0.363972
0.36397
0.363959
0.36396
0.363971
0.363972
0.363965
0.363985
0.363962
0.363985
0.363965
0.363967
0.363977
0.363972
0.363974
0.363972
0.363978
0.363984
0.363972
0.363962
0.363965
0.36398
0.363971
0.363974
0.363971
0.363965
0.363985
0.363961
0.363972
0.363975
0.363985
0.363965
0.363973
0.363968
0.363972
0.363962
0.363972
0.363973
0.363971
0.363971
0.363966
0.363969
0.363972
0.363963
0.363972
0.363972
0.363971
0.363973
0.363965
0.363965
0.363971
0.36397
0.363963
0.363959
0.363962
0.363965
0.363972
0.363965
0.363965
0.363963
0.363965
0.363978
0.363965
0.363962
0.363973
0.363965
0.363975
0.363978
0.363972
0.36398
0.363972
0.363963
0.363972
0.363972
0.363965
0.363975
0.363962
0.363974
0.363976
0.363979
0.363972
0.363975
0.363962
0.363965
0.363963
0.363971
0.363971
0.363971
0.363974
0.363972
0.363974
0.363972
0.363968
0.363965
0.363974
0.363963
0.363975
0.363974
0.363964
0.363977
0.363972
0.363977
0.363973
0.363972
0.363975
0.363966
0.363974
0.363965
0.363976
0.363972
0.363972
0.363971
0.363972
0.363972
0.363972
0.363973
0.363977
0.363977
0.363977
0.363977
0.36398
0.36398
0.363966
0.363973
0.36397
0.363969
0.363977
0.363977
0.36397
0.363965
0.36397
0.363972
0.363967
0.363977
0.363967
0.363975
0.36397
0.363967
0.363965
0.363962
0.363961
0.363975
0.363962
0.363971
0.363965
0.363968
0.36397
0.363972
0.363986
0.363972
0.363962
0.363965
0.36397
0.363972
0.363965
0.363972
0.363968
0.363986
0.363965
0.363972
0.363974
0.363971
0.363977
0.363975
0.36398
0.363971
0.36396
0.363959
0.36398
0.36397
0.363972
0.363967
0.363977
0.363974
0.363965
0.363974
0.363967
0.363973
0.363967
0.363965
0.363989
0.363979
0.363977
0.363977
0.363973
0.363968
0.363983
0.363974
0.36397
0.363968
0.363967
0.363979
0.363967
0.363979
0.363967
0.363958
0.363968
0.363962
0.363976
0.363967
0.363989
0.363967
0.363975
0.363966
0.363975
0.363967
0.363971
0.36396
0.36397
0.363967
0.363979
0.363966
0.36397
0.363975
0.363972
0.363967
0.363968
0.363968
0.363976
0.363967
0.363972
0.363971
0.36398
0.363968
0.363968
0.36397
0.363968
0.363967
0.363968
0.363977
0.363972
0.363968
0.363966
0.363973
0.363973
0.363967
0.36398
0.363952
0.363971
0.363962
0.36397
0.363938
0.363938
0.363938
0.363938
0.363938
0.363939
0.363939
0.363976
0.363982
0.363971
0.36397
0.363968
0.363968
0.363973
0.363968
0.363968
0.363983
0.363968
0.363977
0.363965
0.363976
0.363971
0.363969
0.363968
0.36398
0.363971
0.36397
0.363971
0.36397
0.363968
0.363965
0.363969
0.363971
0.363977
0.363968
0.363968
0.363968
0.363969
0.363971
0.363973
0.363968
0.363973
0.36397
0.363969
0.363972
0.36397
0.363968
0.363974
0.36397
0.363982
0.363958
0.363976
0.363977
0.363971
0.36397
0.363974
0.363953
0.363971
0.36397
0.36396
0.363989
0.363989
0.363971
0.363968
0.36397
0.363968
0.363995
0.363995
0.363972
0.363972
0.363972
0.363953
0.363968
0.363975
0.363969
0.363969
0.363969
0.363952
0.363975
0.363968
0.363971
0.363971
0.363969
0.36397
0.363969
0.363969
0.363958
0.363962
0.36397
0.363971
0.36397
0.363969
0.36397
0.36397
0.36397
0.363958
0.363978
0.363968
0.363974
0.363975
0.363958
0.363971
0.36397
0.36398
0.363988
0.363988
0.363979
0.363968
0.363971
0.363958
0.363987
0.363994
0.363993
0.363952
0.363984
0.363985
0.363971
0.363978
0.363971
0.363972
0.363974
0.363976
0.363972
0.363953
0.363971
0.363974
0.363975
0.363956
0.363984
0.36396
0.363974
0.363973
0.363967
0.363971
0.363972
0.36398
0.363972
0.36398
0.363971
0.363975
0.363985
0.363986
0.363958
0.363973
0.363955
0.363956
0.363955
0.363975
0.363953
0.363954
0.363969
0.363955
0.363982
0.363982
0.363956
0.363969
0.363958
0.363956
0.363957
0.363956
0.363957
0.363984
0.363957
0.363953
0.363955
0.363972
0.363976
0.363957
0.363972
0.363954
0.363973
0.36397
0.363955
0.363957
0.363955
0.363952
0.36397
0.363983
0.363993
0.363992
0.363973
0.363993
0.363992
0.363992
0.36399
0.363958
0.363985
0.363979
0.363983
0.363973
0.363991
0.36399
0.363984
0.363951
0.363969
0.363953
0.36396
0.363959
0.363987
0.363987
0.363987
0.363987
0.363987
0.363992
0.363987
0.363991
0.363993
0.363987
0.363987
0.363993
0.363992
0.363991
0.363987
SCALARS rr_tsim float
LOOKUP_TABLE default
730
730
730
730
730
730
730
730
730
730
730
730
730
730
730
730
730
730
730
730
730
730
730
730
730
730
730
730
730
730
730
730
730
730
730
730
730
730
730
730
730
730
730
730
730
730
730
730
730
730
730
730
730
730
730
730
730
730
730
730
730
730
730
730
730
730
730
730
730
730
730
730
730
730
730
730
730
730
730
730
730
730
730
730
730
730
730
730
730
730
730
730
730
730
730
730
730
730
730
730
730
730
730
730
730
730
730
730
730
730
730
730
730
730
730
730
730
730
730
730
730
730
730
730
730
730
730
730
730
730
730
730
730
730
730
730
730
730
730
730
730
730
730
730
730
730
730
730
730
730
730
730
730
730
730
730
730
730
730
730
730
730
730
730
730
730
730
730
730
730
730
730
730
730
730
730
730
730
730
730
730
730
730
730
730
730
730
730
730
730
730
730
730
730
730
730
730
730
730
730
730
730
730
730
730
730
730
730
730
730
730
730
730
730
730
730
730
730
730
730
730
730
730
730
730
730
730
730
730
730
730
730
730
730
730
730
730
730
730
730
730
730
730
730
730
730
730
730
730
730
730
730
730
730
730
730
730
730
730
730
730
730
730
730
730
730
730
730
730
730
730
730
730
730
730
730
730
730
730
730
730
730
730
730
730
730
730
730
730
730
730
730
730
730
730
730
730
730
730
730
730
730
730
730
730
730
730
730
730
730
730
730
730
730
730
730
730
730
730
730
730
730
730
730
730
730
730
730
730
730
730
730
730
730
730
730
730
730
730
730
730
730
730
730
730
730
730
730
730
730
730
730
730
730
730
730
730
730
730
730
730
730
730
730
730
730
730
730
730
730
730
730
730
730
730
730
730
730
730
730
730
730
730
730
730
730
730
730
730
730
730
730
730
730
730
730
730
730
730
730
730
730
730
730
730
730
730
730
730
730
730
730
730
730
730
730
730
730
730
730
730
730
730
730
730
730
730
730
730
730
730
730
730
730
730
730
730
730
730
730
730
730
730
730
730
730
730
730
730
730
730
730
730
730
730
730
730
730
730
730
730
730
730
730
730
730
730
730
730
730
730
730
730
730
730
730
730
730
730
730
730
730
730
730
730
730
730
730
730
730
730
730
730
730
730
730
730
730
730
730
730
730
730
730
730
730
730
730
730
730
730
730
730
730
730
730
730
730
730
730
730
730
730
730
730
730
730
730
730
730
730
730
730
730
730
730
730
730
730
730
730
730
730
730
730
730
730
730
730
730
730
730
730
730
730
730
730
730
730
730
730
730
730
SCALARS rr_Vext float
LOOKUP_TABLE default
0.181358
0.449122
0.356048
0.468108
0.250492
0.377827
0.179274
0.465088
0.395105
0.504564
0.165389
0.466507
0.409825
0.435012
0.516134
0.424863
0.369043
0.414183
0.36553
0.360526
0.405108
0.0765106
0.415069
0.383013
0.347104
0.40347
0.15501
0.352833
0.267412
0.339246
0.361968
0.276484
0.17152
0.252901
0.249247
0.253451
0.330126
0.24949
0.361539
0.192836
0.22472
0.29105
0.291059
0.397271
0.216885
0.244119
0.344611
0.350183
0.330078
0.30376
0.312853
0.245236
0.401517
0.315206
0.369413
0.157753
0.266178
0.317515
0.26615
0.393184
0.470928
0.464871
0.153275
0.327641
0.445312
0.417373
0.455653
0.391904
0.357985
0.515555
0.435553
0.430789
0.277653
0.338744
0.353971
0.176426
0.372675
0.413476
0.395168
0.271132
0.24049
0.283506
0.52753
0.24025
0.32776
0.119291
0.407579
0.344608
0.229705
0.0374828
0.273092
0.0407607
0.316356
0.299311
0.258658
0.232982
0.220908
0.442929
0.37291
0.351854
0.293534
0.277769
0.230478
0.418574
0.426136
0.38383
0.340625
0.340847
0.244628
0.512517
0.326025
0.164038
0.220056
0.457877
0.429717
0.304481
0.30863
0.183508
0.320034
0.303365
0.266985
0.502647
0.511808
0.442038
0.484524
0.38495
0.220814
0.478208
0.200078
0.262278
0.227502
0.456393
0.449022
0.448247
0.288936
0.187537
0.190638
0.327439
0.404467
0.187459
0.241541
0.387288
0.287968
0.472756
0.223275
0.385188
0.34973
0.336126
0.214788
0.269545
0.304298
0.440624
0.248026
0.397409
0.461988
0.469241
0.307854
0.249007
0.247656
0.401134
0.333851
0.246116
0.160076
0.239703
0.240466
0.430954
0.252348
0.2551
0.274619
0.245938
0.386342
0.258182
0.226058
0.297713
0.272811
0.340305
0.382116
0.361131
0.313976
0.360844
0.266566
0.418244
0.44885
0.241613
0.442298
0.239439
0.436793
0.402736
0.378964
0.379413
0.446225
0.200774
0.266927
0.246016
0.447408
0.439019
0.407197
0.447892
0.45295
0.381863
0.466567
0.307714
0.274109
0.512729
0.285546
0.465952
0.36996
0.226654
0.28634
0.461723
0.389033
0.350306
0.450054
0.445254
0.278858
0.28422
0.267542
0.395451
0.433417
0.49809
0.478086
0.520368
0.471556
0.515285
0.432053
0.4572
0.460649
0.434353
0.456355
0.422917
0.416634
0.28241
0.389409
0.454293
0.312119
0.470271
0.432154
0.492657
0.288245
0.468274
0.448675
0.284499
0.406912
0.282468
0.455236
0.411287
0.296254
0.277677
0.235552
0.271096
0.455771
0.1975
0.347019
0.276527
0.313902
0.468669
0.455546
0.147788
0.457102
0.23643
0.261763
0.466268
0.379025
0.264584
0.522179
0.291229
0.147779
0.267723
0.406397
0.508919
0.382688
0.457753
0.425154
0.226614
0.21673
0.175978
0.201427
0.308133
0.229074
0.37198
0.227523
0.40639
0.287621
0.2681
0.323952
0.293521
0.39852
0.281485
0.287595
0.13637
0.30357
0.437808
0.438056
0.391523
0.281115
0.192358
0.545875
0.360487
0.298316
0.27429
0.284975
0.282728
0.358841
0.27809
0.192059
0.27479
0.183495
0.351066
0.279575
0.127091
0.26372
0.321336
0.279314
0.443667
0.290709
0.381466
0.138314
0.30566
0.287012
0.261623
0.269317
0.32199
0.308721
0.321044
0.266563
0.271162
0.293858
0.4036
0.276094
0.39902
0.358785
0.290795
0.286473
0.290121
0.323371
0.289911
0.270116
0.308527
0.333028
0.387864
0.290168
0.286352
0.425141
0.419246
0.27621
0.290834
0.117368
0.342062
0.227677
0.319679
0.126304
0.131123
0.117233
0.119129
0.126411
0.133076
0.137186
0.365817
0.275202
0.269662
0.305532
0.296205
0.292406
0.314708
0.285992
0.292385
0.310822
0.291313
0.368786
0.261062
0.378831
0.289102
0.277577
0.291594
0.322764
0.328992
0.304694
0.351047
0.326029
0.300388
0.213974
0.303858
0.29886
0.328279
0.305307
0.288517
0.275034
0.304061
0.31909
0.436158
0.283304
0.423998
0.438656
0.298863
0.422861
0.322473
0.255676
0.356791
0.307316
0.229503
0.185269
0.353347
0.377137
0.31343
0.259541
0.317011
0.138203
0.309862
0.289511
0.140568
0.0597484
0.0653752
0.26865
0.283292
0.331354
0.316584
0.0311308
0.0325286
0.318178
0.32154
0.30424
0.103723
0.264725
0.315901
0.315639
0.272073
0.24028
0.107863
0.464463
0.284943
0.352158
0.357669
0.255161
0.323443
0.249474
0.275478
0.129738
0.19938
0.323803
0.327748
0.280323
0.293561
0.303655
0.320502
0.306407
0.14396
0.275777
0.301351
0.290882
0.437484
0.143857
0.23373
0.24057
0.234521
0.155624
0.155628
0.267697
0.208506
0.301871
0.153855
0.185525
0.0614166
0.0614141
0.112309
0.199632
0.134971
0.256998
0.284536
0.297804
0.336997
0.307415
0.28523
0.222214
0.127171
0.278047
0.290578
0.282436
0.144129
0.147644
0.104628
0.281945
0.285968
0.224179
0.258248
0.23871
0.223789
0.292908
0.223756
0.257201
0.251384
0.158046
0.195239
0.165307
0.310643
0.112706
0.118918
0.115939
0.294531
0.10769
0.104732
0.200915
0.0979317
0.243153
0.243507
0.100659
0.255443
0.113722
0.110988
0.127154
0.105858
0.105723
0.174204
0.12624
0.112774
0.106277
0.235808
0.272656
0.118743
0.260314
0.0960764
0.264786
0.20817
0.100551
0.0864347
0.0948693
0.12646
0.225549
0.192178
0.0824423
0.091407
0.253854
0.0775857
0.0775824
0.0878714
0.0979617
0.0995845
0.127333
0.207531
0.193793
0.253766
0.0775241
0.0775207
0.229251
0.0843463
0.178712
0.0765187
0.078341
0.10327
0.198595
0.205595
0.218905
0.200658
0.198579
0.0438923
0.32038
0.0557535
0.0543416
0.259007
0.257237
0.0563344
0.0390571
0.0548043
0.238559
SCALARS rr_Vli float
LOOKUP_TABLE default
0.396486
0.903295
0.721401
0.9429
0.493002
0.765663
0.392034
0.937668
0.806265
1.01511
0.359835
0.94054
0.8277
0.874152
1.02412
0.859726
0.739393
0.835913
0.748795
0.732051
0.823478
0.146196
0.843736
0.777624
0.704886
0.813138
0.333348
0.714255
0.560607
0.6598
0.731223
0.579527
0.369271
0.494391
0.485903
0.495506
0.641456
0.486895
0.73048
0.415064
0.471209
0.565329
0.565389
0.802512
0.463322
0.511146
0.70466
0.71357
0.668679
0.640141
0.657313
0.509708
0.79128
0.654952
0.728497
0.336093
0.518807
0.659754
0.51879
0.798044
0.943862
0.925028
0.327839
0.652216
0.886008
0.836193
0.912997
0.789772
0.727287
1.0367
0.858505
0.84915
0.582209
0.67685
0.716967
0.381182
0.738157
0.828437
0.796419
0.562479
0.507622
0.556447
1.0535
0.508331
0.685382
0.254579
0.825073
0.689485
0.49066
0.0719434
0.567527
0.078246
0.626349
0.600258
0.537107
0.489901
0.466216
0.891212
0.738705
0.711147
0.604216
0.579672
0.487748
0.844108
0.858079
0.772712
0.679545
0.689378
0.517758
1.02964
0.661676
0.349478
0.467058
0.923819
0.865434
0.63249
0.601612
0.38741
0.624
0.62999
0.547958
0.99831
1.02947
0.884276
0.972854
0.763251
0.431749
0.962234
0.422252
0.544645
0.448452
0.918477
0.897108
0.90182
0.602898
0.365537
0.404181
0.66093
0.80773
0.365414
0.503537
0.778932
0.590239
0.951058
0.47153
0.776063
0.704321
0.680953
0.435246
0.556267
0.620245
0.886305
0.519981
0.802495
0.929439
0.944259
0.617852
0.518655
0.515712
0.810195
0.680204
0.515658
0.341238
0.503637
0.500927
0.867512
0.525644
0.531442
0.575695
0.512235
0.764766
0.536472
0.475014
0.597024
0.566757
0.679099
0.75645
0.728157
0.61851
0.726371
0.558759
0.841634
0.903302
0.503621
0.88478
0.503407
0.873805
0.803282
0.749914
0.763387
0.89254
0.423343
0.554569
0.51569
0.900207
0.886298
0.821709
0.894902
0.911194
0.765269
0.938414
0.629673
0.568291
1.02453
0.59847
0.93055
0.741276
0.473239
0.569197
0.928571
0.772726
0.703604
0.906433
0.889135
0.575328
0.57047
0.554199
0.788781
0.870375
1.00028
0.961013
1.04558
0.947449
1.03539
0.86871
0.907695
0.914767
0.862343
0.90593
0.833929
0.821515
0.583003
0.782793
0.915905
0.636237
0.933119
0.857208
0.993021
0.597474
0.944367
0.902753
0.586735
0.8088
0.582773
0.908853
0.829724
0.610879
0.57498
0.497304
0.572061
0.9101
0.417613
0.70148
0.572845
0.642711
0.945255
0.914965
0.286927
0.918292
0.500196
0.542257
0.940098
0.764199
0.548648
1.04887
0.596674
0.286927
0.554499
0.815975
1.01856
0.772232
0.908464
0.850821
0.4466
0.437752
0.374434
0.429883
0.608682
0.465558
0.749991
0.469384
0.807667
0.576816
0.555339
0.649546
0.603994
0.802275
0.579177
0.596019
0.263019
0.600441
0.868509
0.869128
0.787207
0.578061
0.376387
1.09285
0.734298
0.613257
0.565365
0.562957
0.583122
0.710458
0.572676
0.410196
0.565166
0.387691
0.700125
0.576598
0.245149
0.543076
0.642112
0.576618
0.887239
0.598796
0.772172
0.296222
0.619802
0.592061
0.517039
0.555816
0.655878
0.617313
0.645548
0.549009
0.557646
0.602196
0.804984
0.567869
0.804504
0.726241
0.573154
0.589127
0.594775
0.657841
0.593794
0.555993
0.631806
0.662545
0.782179
0.59465
0.590809
0.855286
0.843306
0.568299
0.573277
0.256087
0.6926
0.480627
0.650102
0.287606
0.29855
0.266803
0.271172
0.287682
0.303056
0.312311
0.729342
0.539723
0.544564
0.622603
0.606499
0.598932
0.633518
0.58613
0.599482
0.609469
0.596711
0.732657
0.542544
0.753106
0.586002
0.565698
0.597464
0.637465
0.666111
0.620591
0.710714
0.663996
0.615741
0.444039
0.619296
0.60557
0.652003
0.624635
0.591867
0.56287
0.620016
0.64672
0.877915
0.579856
0.853547
0.889737
0.609276
0.852427
0.653928
0.523839
0.713542
0.625424
0.4504
0.395665
0.704467
0.750312
0.635199
0.528048
0.635251
0.301236
0.62802
0.589264
0.300912
0.115298
0.126126
0.544003
0.580096
0.673735
0.64766
0.0592774
0.0619388
0.641395
0.648086
0.613481
0.226113
0.542803
0.631011
0.643415
0.555013
0.489877
0.235469
0.929281
0.583732
0.713231
0.724381
0.520581
0.658846
0.508988
0.561646
0.279101
0.421176
0.659631
0.663707
0.570432
0.599123
0.618255
0.651891
0.623522
0.307427
0.547096
0.61683
0.583014
0.8749
0.307367
0.473532
0.487752
0.46224
0.300515
0.300535
0.529553
0.427592
0.611535
0.329005
0.358876
0.117176
0.117176
0.245398
0.389619
0.262494
0.52105
0.563538
0.60141
0.677645
0.614656
0.569068
0.448035
0.27725
0.562545
0.582799
0.564246
0.311556
0.287924
0.224284
0.563451
0.574849
0.461941
0.521746
0.481452
0.440836
0.590093
0.440797
0.520821
0.502146
0.307811
0.380027
0.353393
0.623981
0.246785
0.259979
0.254333
0.589282
0.234981
0.230138
0.410008
0.214644
0.47712
0.477842
0.220334
0.519609
0.244574
0.243122
0.273901
0.231958
0.227739
0.339829
0.270697
0.245996
0.232677
0.475748
0.543001
0.256116
0.525107
0.211011
0.532688
0.423218
0.220454
0.186663
0.208255
0.276319
0.457466
0.376607
0.157552
0.174883
0.509985
0.148307
0.148306
0.168048
0.188628
0.213205
0.248113
0.410273
0.37976
0.51034
0.149004
0.149003
0.448511
0.184461
0.363609
0.167149
0.16815
0.221553
0.384549
0.398195
0.424213
0.388778
0.384539
0.0840102
0.620731
0.107163
0.103829
0.501444
0.497965
0.107596
0.0747328
0.105301
0.462542
SCALARS rr_S_ext' float
LOOKUP_TABLE default
-0.000211555
-0.000483367
-0.000385939
-0.000504535
-0.000264002
-0.000409616
-0.000209177
-0.000501722
-0.000431237
-0.000543198
-0.00019203
-0.000503258
-0.000442855
-0.000467787
-0.000548268
-0.000459961
-0.000395711
-0.000447259
-0.000400446
-0.000391608
-0.000440501
-7.83618e-05
-0.000451336
-0.000415989
-0.000377074
-0.000435094
-0.00017797
-0.000382127
-0.000299568
-0.000353457
-0.000391233
-0.00030968
-0.000197141
-0.000264804
-0.000260281
-0.0002654
-0.00034364
-0.000260803
-0.000390833
-0.00022159
-0.000251795
-0.000302861
-0.000302892
-0.000429375
-0.000247419
-0.00027315
-0.000376866
-0.000381677
-0.000357735
-0.000342006
-0.000351218
-0.000272451
-0.000423711
-0.000350091
-0.000390084
-0.000179495
-0.000277908
-0.000352657
-0.000277898
-0.000426916
-0.000505133
-0.000495173
-0.000175063
-0.000349131
-0.000474287
-0.000447519
-0.00048862
-0.000422592
-0.000389052
-0.00055476
-0.000459705
-0.000454696
-0.000311109
-0.000362273
-0.000383571
-0.000203474
-0.0003952
-0.000443367
-0.000426147
-0.000300677
-0.000271191
-0.000298003
-0.000563879
-0.000271547
-0.000366276
-0.000135953
-0.000441415
-0.000369019
-0.000262019
-3.85566e-05
-0.000303358
-4.19343e-05
-0.000335343
-0.000321239
-0.000287106
-0.000261758
-0.000249072
-0.000476895
-0.000395492
-0.000380484
-0.000323074
-0.000309805
-0.00026055
-0.000451655
-0.000459154
-0.000413477
-0.000363733
-0.000368829
-0.000276579
-0.000550999
-0.000353967
-0.000186643
-0.000249472
-0.000494298
-0.000463087
-0.000338088
-0.000322263
-0.000206968
-0.000334253
-0.000336754
-0.000293022
-0.000534433
-0.000550884
-0.000473275
-0.000520618
-0.000408621
-0.00023125
-0.000514899
-0.000225584
-0.000291134
-0.000240133
-0.000491481
-0.000480162
-0.000482573
-0.00032222
-0.000195806
-0.000215895
-0.000353633
-0.000432331
-0.000195739
-0.000269125
-0.00041682
-0.000315647
-0.000508922
-0.000251905
-0.000415259
-0.000376877
-0.000364301
-0.000232849
-0.00029741
-0.000331755
-0.000474273
-0.000277859
-0.000429371
-0.000497353
-0.000505279
-0.000330646
-0.000277213
-0.000275642
-0.000433487
-0.000363831
-0.000275555
-0.000182239
-0.000269105
-0.000267736
-0.000464206
-0.000280948
-0.000284046
-0.000307631
-0.000273782
-0.000409454
-0.00028676
-0.00025381
-0.000319508
-0.00030295
-0.000363491
-0.000405001
-0.000389616
-0.000331202
-0.000388682
-0.000298582
-0.000450364
-0.000483361
-0.000269171
-0.000473546
-0.000268976
-0.00046767
-0.000429968
-0.000401507
-0.000408495
-0.0004777
-0.000226174
-0.000296434
-0.000275567
-0.000481708
-0.000474213
-0.000439661
-0.000478981
-0.00048759
-0.000409557
-0.000502159
-0.000336753
-0.000303791
-0.000548363
-0.000319804
-0.000498069
-0.000396719
-0.000252918
-0.000304705
-0.000496894
-0.00041367
-0.000376527
-0.000485025
-0.000475903
-0.000307604
-0.000305289
-0.000296266
-0.000422206
-0.000465774
-0.000535292
-0.000514262
-0.000559524
-0.000507011
-0.000554067
-0.000464865
-0.00048593
-0.000489712
-0.000461651
-0.000484987
-0.00044654
-0.000439893
-0.000311701
-0.000418892
-0.000490074
-0.000340308
-0.00049955
-0.000458916
-0.000531341
-0.000319393
-0.000505298
-0.000483071
-0.000313707
-0.000432971
-0.000311584
-0.000486461
-0.000443952
-0.000326618
-0.000307379
-0.000265677
-0.000305619
-0.000487125
-0.000223091
-0.00037531
-0.000306233
-0.000343719
-0.000505772
-0.000489633
-0.000153716
-0.00049141
-0.000267203
-0.000289882
-0.000503019
-0.000408902
-0.000293288
-0.000561292
-0.000319093
-0.000153716
-0.000296428
-0.000436665
-0.000545135
-0.000413188
-0.000486348
-0.000455365
-0.000239143
-0.000234215
-0.00019998
-0.00022957
-0.00032591
-0.000249041
-0.0004013
-0.000250961
-0.000432366
-0.000308693
-0.000296876
-0.000347618
-0.000322959
-0.000429298
-0.000309691
-0.000318617
-0.000140938
-0.000321483
-0.000464964
-0.000465293
-0.000421251
-0.000309101
-0.000201593
-0.000584891
-0.000392769
-0.000327924
-0.000302287
-0.000301426
-0.000311775
-0.000380376
-0.000306206
-0.000219051
-0.000302203
-0.000207112
-0.000374753
-0.000308287
-0.000131362
-0.000290379
-0.000343679
-0.000308287
-0.000474866
-0.00032017
-0.000413114
-0.000158173
-0.000331576
-0.000316552
-0.000276836
-0.000297168
-0.000350822
-0.000330398
-0.000345445
-0.00029355
-0.000298183
-0.000322043
-0.00043088
-0.000303648
-0.000430469
-0.000388541
-0.000306909
-0.000315017
-0.00031807
-0.000351888
-0.000317555
-0.00029729
-0.000337886
-0.000354667
-0.00041852
-0.000318007
-0.00031588
-0.000457674
-0.000451266
-0.000303874
-0.000306974
-0.00013665
-0.000370539
-0.000256768
-0.000347752
-0.000153225
-0.000159056
-0.000142145
-0.000144471
-0.000153269
-0.000161456
-0.000166389
-0.000390396
-0.000289054
-0.000291366
-0.000333019
-0.000324353
-0.000320303
-0.000338996
-0.00031345
-0.000320586
-0.000326409
-0.000319115
-0.000392217
-0.000290004
-0.000403154
-0.000313498
-0.000302581
-0.000319514
-0.000341323
-0.000356368
-0.000331949
-0.000380232
-0.000355166
-0.000329283
-0.000237361
-0.000331249
-0.000323971
-0.000349043
-0.000334061
-0.000316508
-0.000301026
-0.000331628
-0.000345982
-0.000469775
-0.000310109
-0.000456733
-0.000475979
-0.000325886
-0.000456113
-0.000349831
-0.000280141
-0.000381899
-0.000334543
-0.000241211
-0.000211292
-0.000377081
-0.000401649
-0.00033982
-0.000282459
-0.000339975
-0.000160747
-0.000335978
-0.0003152
-0.00016068
-6.17812e-05
-6.75837e-05
-0.000291039
-0.000310232
-0.000360396
-0.000346376
-3.17766e-05
-3.32033e-05
-0.000343195
-0.000346777
-0.000328256
-0.000120659
-0.000290275
-0.000337741
-0.000344148
-0.000296856
-0.000262022
-0.000125645
-0.00049736
-0.000312172
-0.000381573
-0.000387539
-0.000278439
-0.00035241
-0.000272238
-0.00030041
-0.000149007
-0.000225002
-0.000352829
-0.00035508
-0.000305129
-0.000320444
-0.000330703
-0.000348707
-0.000333526
-0.000164172
-0.000292893
-0.000329882
-0.000312016
-0.000468262
-0.000164137
-0.000253333
-0.000260934
-0.000247517
-0.000161024
-0.000161034
-0.000283527
-0.000228662
-0.000327164
-0.000175686
-0.000192284
-6.28102e-05
-6.28098e-05
-0.000130939
-0.000208697
-0.000140619
-0.000278748
-0.000301712
-0.000321781
-0.000362621
-0.000328976
-0.000304599
-0.000239732
-0.000147947
-0.000300968
-0.000311894
-0.000302005
-0.000166305
-0.000154229
-0.000119756
-0.000301575
-0.000307616
-0.000246991
-0.000279153
-0.000257609
-0.00023606
-0.000315751
-0.000236039
-0.000278637
-0.000268768
-0.000164888
-0.000203577
-0.000188711
-0.000333916
-0.000131671
-0.000138718
-0.000135689
-0.000315389
-0.000125387
-0.000122773
-0.000219296
-0.000114518
-0.000255522
-0.000255908
-0.000117559
-0.000277946
-0.000130575
-0.000129714
-0.000146223
-0.000123756
-0.000121579
-0.00018203
-0.000144536
-0.000131267
-0.000124144
-0.000254554
-0.000290664
-0.000136722
-0.000280966
-0.000112571
-0.000285048
-0.00022639
-0.000117616
-9.96418e-05
-0.000111103
-0.000147438
-0.000244729
-0.000201701
-8.44482e-05
-9.37343e-05
-0.000272912
-7.94925e-05
-7.94916e-05
-9.00725e-05
-0.000101081
-0.000113845
-0.000132907
-0.000219668
-0.00020339
-0.000273092
-7.98523e-05
-7.98516e-05
-0.000240224
-9.84215e-05
-0.000194498
-8.91882e-05
-8.97797e-05
-0.000118295
-0.000206033
-0.000213343
-0.000227279
-0.000208295
-0.000206027
-4.50276e-05
-0.000332569
-5.74294e-05
-5.56529e-05
-0.000268665
-0.000266801
-5.7673e-05
-4.00555e-05
-5.6432e-05
-0.00024781
SCALARS rr_P_ext' float
LOOKUP_TABLE default
0.000184979
0.000427208
0.000340788
0.000445833
0.000233945
0.000361687
0.000182894
0.000443298
0.000380449
0.000480069
0.000168016
0.000444655
0.000391201
0.000413482
0.000485369
0.000406215
0.0003499
0.000395126
0.000353114
0.000345702
0.00038881
6.96835e-05
0.000398374
0.00036723
0.000332867
0.000384446
0.000155956
0.000337459
0.000263384
0.00031366
0.00034559
0.000272281
0.000172729
0.000234845
0.00023091
0.000235371
0.000304982
0.000231344
0.000345229
0.000194157
0.000221375
0.000268802
0.000268827
0.000379284
0.000217003
0.000240195
0.000332397
0.000336786
0.00031589
0.000300494
0.000308708
0.000239808
0.00037541
0.000308156
0.000345589
0.000157485
0.000246554
0.000310415
0.000246543
0.00037689
0.000446636
0.000438214
0.000153517
0.000308956
0.000419736
0.000395712
0.000432049
0.000373403
0.000343423
0.000490317
0.000407294
0.000402853
0.000273523
0.000320439
0.000338711
0.000178194
0.000349937
0.000392038
0.00037654
0.000264715
0.000238225
0.000264162
0.000498798
0.000238463
0.000322139
0.000119256
0.000389817
0.000326354
0.000229811
3.42687e-05
0.000267017
3.727e-05
0.00029695
0.000284016
0.000252737
0.000230052
0.000218799
0.000421466
0.00035019
0.000336075
0.000284715
0.000272543
0.0002288
0.000399049
0.000405748
0.000365395
0.000321793
0.000325752
0.000242873
0.000487048
0.000312492
0.000163757
0.000218989
0.000436698
0.000409215
0.000297602
0.000285901
0.000181805
0.000296529
0.000296439
0.000258327
0.000473067
0.000486874
0.000418564
0.000460226
0.000361775
0.000205083
0.00045505
0.000198166
0.000256282
0.000212753
0.000434346
0.000424721
0.000426489
0.00028347
0.000173714
0.000189542
0.000312408
0.000382433
0.000173653
0.000236789
0.000368392
0.000278319
0.00044978
0.000221268
0.000366934
0.000333036
0.000321687
0.000205605
0.000262013
0.000292726
0.000419165
0.000244296
0.000379298
0.000439553
0.000446544
0.000292307
0.000243933
0.000242558
0.000382924
0.000321045
0.000242289
0.00015988
0.000236532
0.00023559
0.000410229
0.000247217
0.000249939
0.000270474
0.000240915
0.000362584
0.000252411
0.000223086
0.000282488
0.000266669
0.000321567
0.000358638
0.000344242
0.000293461
0.000343487
0.000262522
0.000398013
0.00042717
0.000236834
0.000418804
0.0002364
0.000413606
0.0003804
0.000355561
0.000361018
0.000422484
0.000198707
0.000260931
0.000242286
0.00042572
0.000418923
0.00038842
0.000423673
0.000430928
0.000362133
0.000443814
0.000296991
0.000267478
0.000485038
0.000281185
0.000440582
0.000350789
0.000222484
0.000269689
0.000439167
0.000366166
0.000332836
0.000428599
0.000420979
0.000271003
0.000269887
0.000260882
0.000373531
0.000411736
0.000473187
0.000454544
0.000494575
0.000448161
0.00048975
0.00041087
0.000430153
0.000433488
0.00040866
0.000429323
0.00039561
0.000389723
0.000274592
0.000370247
0.000433007
0.00030027
0.00044224
0.000406284
0.000469482
0.000281224
0.000446442
0.000426925
0.000276393
0.000383219
0.00027451
0.000430331
0.000392224
0.000287775
0.00027068
0.000233374
0.000268477
0.000430908
0.000195928
0.000331498
0.000269657
0.000303112
0.000446855
0.000432818
0.000136437
0.000434377
0.000234652
0.000255258
0.000444441
0.000361284
0.000258225
0.000496158
0.000281372
0.000136436
0.000261029
0.000386012
0.000482089
0.000365033
0.000430542
0.000402705
0.000211882
0.000206895
0.000175488
0.000201374
0.000288676
0.000219823
0.000354567
0.000221101
0.000382689
0.000272924
0.00026142
0.000307347
0.000284625
0.000379376
0.000272935
0.000280547
0.000125193
0.000284711
0.000411633
0.000411917
0.000372323
0.000272436
0.000178765
0.000517227
0.00034659
0.000289036
0.000266351
0.000266988
0.000274689
0.000336827
0.000269834
0.000192128
0.00026635
0.000181913
0.000331556
0.000271617
0.000116685
0.000255888
0.00030399
0.000271584
0.000419988
0.000282132
0.000364827
0.000138682
0.000292756
0.000278892
0.000245196
0.000261799
0.000309575
0.00029222
0.000305319
0.000258678
0.00026281
0.000283965
0.000381208
0.000267622
0.00038034
0.000343127
0.000271919
0.000277647
0.000280448
0.000310565
0.000280027
0.000261994
0.000297962
0.000313878
0.000369772
0.000280406
0.000278293
0.000404486
0.00039883
0.00026781
0.000271974
0.000119516
0.000327217
0.000225552
0.000306929
0.000133232
0.000138304
0.000123607
0.000125626
0.00013328
0.000140386
0.000144682
0.000345408
0.000256253
0.000257385
0.000293851
0.000286032
0.000282448
0.000299577
0.000276385
0.000282663
0.000289375
0.000281399
0.000347168
0.000255261
0.000356821
0.000276808
0.000266989
0.000281741
0.000302335
0.000314705
0.000292924
0.000335781
0.000313415
0.00029034
0.000208964
0.000292282
0.000286068
0.000308963
0.000294623
0.000279048
0.000265477
0.000292599
0.000305494
0.000415154
0.000273484
0.000403622
0.000420238
0.000287541
0.000403006
0.000308873
0.000247024
0.000337763
0.000295243
0.000213822
0.000185324
0.000333628
0.000355456
0.000300056
0.000249286
0.00030061
0.000140612
0.00029666
0.000278167
0.000140889
5.48757e-05
6.00313e-05
0.000257009
0.000273577
0.000318095
0.000305487
2.82689e-05
2.95381e-05
0.000303236
0.000306406
0.000290025
0.000105543
0.000255935
0.000298752
0.000303658
0.000261906
0.00023119
0.000109884
0.000439856
0.000275273
0.00033695
0.000342219
0.000245653
0.000310976
0.000240182
0.00026506
0.000130569
0.000197631
0.000311342
0.00031356
0.000269287
0.000282701
0.000291838
0.000307765
0.000294349
0.000143996
0.000259297
0.00029092
0.000275882
0.000414146
0.000143956
0.000223698
0.000230389
0.000219298
0.000143014
0.000143023
0.000251093
0.000201607
0.000288895
0.000154068
0.000170743
5.5864e-05
5.58634e-05
0.0001145
0.000185122
0.000124787
0.000246118
0.000267158
0.000284252
0.000320498
0.000290965
0.000269475
0.000211814
0.000129411
0.000265806
0.000275751
0.000267136
0.000145634
0.00013682
0.000104987
0.000266746
0.000271894
0.000217637
0.000246583
0.000227601
0.000209162
0.000279009
0.000209141
0.000246057
0.000237741
0.000146298
0.000180638
0.000165497
0.000295167
0.000115106
0.000121293
0.000118589
0.000278925
0.000109665
0.000107277
0.000193468
0.000100098
0.000226512
0.000226853
0.000102775
0.000245309
0.000114422
0.00011339
0.000128108
0.000108177
0.000106517
0.000161477
0.000126705
0.000114812
0.000108528
0.000224893
0.000257203
0.000119763
0.000248232
9.83693e-05
0.000251922
0.00019982
0.000102802
8.72677e-05
9.70929e-05
0.000128927
0.000216071
0.000178829
7.50946e-05
8.33411e-05
0.000241237
7.06857e-05
7.06847e-05
8.00892e-05
8.9806e-05
9.98213e-05
0.000117916
0.000194554
0.000180327
0.000241366
7.09602e-05
7.09593e-05
0.000213026
8.60543e-05
0.000171655
7.79933e-05
7.8694e-05
0.000103695
0.00018293
0.000189415
0.000201775
0.000184925
0.000182924
4.0033e-05
0.000295256
5.10341e-05
4.94899e-05
0.000238543
0.000236892
5.12885e-05
3.56138e-05
5.01498e-05
0.000219988
SCALARS rr_S' float
LOOKUP_TABLE default
-7.22365e-06
-1.50406e-05
-1.21082e-05
-1.57257e-05
-8.0181e-06
-1.28535e-05
-7.14458e-06
-1.56537e-05
-1.36374e-05
-1.6908e-05
-6.52203e-06
-1.57019e-05
-1.38441e-05
-1.45415e-05
-1.6804e-05
-1.44098e-05
-1.22603e-05
-1.39709e-05
-1.27183e-05
-1.23157e-05
-1.38702e-05
-2.30243e-06
-1.42116e-05
-1.30808e-05
-1.18602e-05
-1.35694e-05
-5.96667e-06
-1.19768e-05
-9.76269e-06
-1.05933e-05
-1.22336e-05
-1.00903e-05
-6.6177e-06
-7.98191e-06
-7.82131e-06
-8.00056e-06
-1.02882e-05
-7.84633e-06
-1.22235e-05
-7.43644e-06
-8.20779e-06
-9.06374e-06
-9.06541e-06
-1.34259e-05
-8.23396e-06
-8.88953e-06
-1.19451e-05
-1.20508e-05
-1.12214e-05
-1.12107e-05
-1.1474e-05
-8.79414e-06
-1.28877e-05
-1.12967e-05
-1.18737e-05
-5.95552e-06
-8.34913e-06
-1.13796e-05
-8.34952e-06
-1.34201e-05
-1.56569e-05
-1.52248e-05
-5.83394e-06
-1.07393e-05
-1.45808e-05
-1.38648e-05
-1.51404e-05
-1.31784e-05
-1.22427e-05
-1.72582e-05
-1.39852e-05
-1.38334e-05
-1.01414e-05
-1.11903e-05
-1.20296e-05
-6.85725e-06
-1.20885e-05
-1.37372e-05
-1.32906e-05
-9.68504e-06
-8.90536e-06
-9.02296e-06
-1.74074e-05
-8.94084e-06
-1.1903e-05
-4.5193e-06
-1.38349e-05
-1.14157e-05
-8.71885e-06
-1.13858e-06
-9.79025e-06
-1.23852e-06
-1.02529e-05
-9.96355e-06
-9.25756e-06
-8.55914e-06
-8.17755e-06
-1.48461e-05
-1.2099e-05
-1.19042e-05
-1.03162e-05
-1.00452e-05
-8.58062e-06
-1.40958e-05
-1.43059e-05
-1.28795e-05
-1.12158e-05
-1.15485e-05
-9.10974e-06
-1.71236e-05
-1.11259e-05
-6.19264e-06
-8.24259e-06
-1.5435e-05
-1.44312e-05
-1.09059e-05
-9.68276e-06
-6.79765e-06
-1.00459e-05
-1.08594e-05
-9.32612e-06
-1.63974e-05
-1.71433e-05
-1.46382e-05
-1.61692e-05
-1.25134e-05
-6.97199e-06
-1.60298e-05
-7.40633e-06
-9.3879e-06
-7.30588e-06
-1.53034e-05
-1.48302e-05
-1.50211e-05
-1.04462e-05
-5.88273e-06
-7.12455e-06
-1.10478e-05
-1.33462e-05
-5.88124e-06
-8.71585e-06
-1.29697e-05
-1.00313e-05
-1.58399e-05
-8.27681e-06
-1.29465e-05
-1.17442e-05
-1.14277e-05
-7.30627e-06
-9.52404e-06
-1.04779e-05
-1.47595e-05
-9.05551e-06
-1.34202e-05
-1.54807e-05
-1.57317e-05
-1.02639e-05
-8.9692e-06
-8.9159e-06
-1.35522e-05
-1.14857e-05
-8.97423e-06
-6.05048e-06
-8.79168e-06
-8.66378e-06
-1.44584e-05
-9.09061e-06
-9.19211e-06
-1.00251e-05
-8.85766e-06
-1.25161e-05
-9.25321e-06
-8.29289e-06
-9.90939e-06
-9.77351e-06
-1.12119e-05
-1.23808e-05
-1.21575e-05
-1.00693e-05
-1.21059e-05
-9.72909e-06
-1.40218e-05
-1.50506e-05
-8.71604e-06
-1.46462e-05
-8.7938e-06
-1.44652e-05
-1.3255e-05
-1.22686e-05
-1.27163e-05
-1.47729e-05
-7.41836e-06
-9.56397e-06
-8.97932e-06
-1.49956e-05
-1.48177e-05
-1.37316e-05
-1.47947e-05
-1.51757e-05
-1.26928e-05
-1.56259e-05
-1.06824e-05
-9.77835e-06
-1.69393e-05
-1.04192e-05
-1.53762e-05
-1.22923e-05
-8.20525e-06
-9.35795e-06
-1.54602e-05
-1.26933e-05
-1.16984e-05
-1.51156e-05
-1.46905e-05
-9.84747e-06
-9.4777e-06
-9.52701e-06
-1.30162e-05
-1.44684e-05
-1.66285e-05
-1.5992e-05
-1.73916e-05
-1.57584e-05
-1.72224e-05
-1.446e-05
-1.49028e-05
-1.50229e-05
-1.41583e-05
-1.48722e-05
-1.35907e-05
-1.33879e-05
-9.98525e-06
-1.30268e-05
-1.52906e-05
-1.0749e-05
-1.53108e-05
-1.40603e-05
-1.65738e-05
-1.02782e-05
-1.57706e-05
-1.50379e-05
-1.00384e-05
-1.32959e-05
-9.97484e-06
-1.50124e-05
-1.38613e-05
-1.04497e-05
-9.8803e-06
-8.72634e-06
-1.00327e-05
-1.50361e-05
-7.34017e-06
-1.17443e-05
-9.84818e-06
-1.09105e-05
-1.57871e-05
-1.52124e-05
-4.59786e-06
-1.52713e-05
-8.79673e-06
-9.32227e-06
-1.56954e-05
-1.27585e-05
-9.4423e-06
-1.74401e-05
-1.01361e-05
-4.59818e-06
-9.53079e-06
-1.35616e-05
-1.68698e-05
-1.29044e-05
-1.49095e-05
-1.40901e-05
-7.27391e-06
-7.32245e-06
-6.62564e-06
-7.63169e-06
-9.93912e-06
-7.83998e-06
-1.25213e-05
-8.03347e-06
-1.32755e-05
-9.57449e-06
-9.54632e-06
-1.07794e-05
-1.03089e-05
-1.33721e-05
-9.88435e-06
-1.02512e-05
-4.18463e-06
-9.81829e-06
-1.42472e-05
-1.42596e-05
-1.31032e-05
-9.85879e-06
-6.08289e-06
-1.81062e-05
-1.2396e-05
-1.04558e-05
-9.66698e-06
-9.19286e-06
-9.97736e-06
-1.16296e-05
-9.78232e-06
-7.28809e-06
-9.64087e-06
-6.80838e-06
-1.1551e-05
-9.86533e-06
-3.90077e-06
-9.27656e-06
-1.06168e-05
-9.87605e-06
-1.46819e-05
-1.0231e-05
-1.29471e-05
-5.27863e-06
-1.04119e-05
-1.01322e-05
-8.44683e-06
-9.51671e-06
-1.1072e-05
-1.02141e-05
-1.07461e-05
-9.3794e-06
-9.51154e-06
-1.02324e-05
-1.32827e-05
-9.6874e-06
-1.34313e-05
-1.21766e-05
-9.33634e-06
-1.00484e-05
-1.01106e-05
-1.10897e-05
-1.00838e-05
-9.49255e-06
-1.07272e-05
-1.09023e-05
-1.30616e-05
-1.01045e-05
-1.01128e-05
-1.42451e-05
-1.40434e-05
-9.69825e-06
-9.33917e-06
-4.65584e-06
-1.16164e-05
-8.43268e-06
-1.09551e-05
-5.47402e-06
-5.68174e-06
-5.07507e-06
-5.15924e-06
-5.47207e-06
-5.76867e-06
-5.94271e-06
-1.20295e-05
-8.74432e-06
-9.10739e-06
-1.05148e-05
-1.02962e-05
-1.01716e-05
-1.05587e-05
-9.96037e-06
-1.01919e-05
-9.87234e-06
-1.01342e-05
-1.20377e-05
-9.35961e-06
-1.23825e-05
-9.84004e-06
-9.55492e-06
-1.01503e-05
-1.0407e-05
-1.11716e-05
-1.04753e-05
-1.19187e-05
-1.12071e-05
-1.04656e-05
-7.64823e-06
-1.04609e-05
-1.01647e-05
-1.07093e-05
-1.05949e-05
-1.00682e-05
-9.55041e-06
-1.04787e-05
-1.08583e-05
-1.46304e-05
-9.83972e-06
-1.42262e-05
-1.4951e-05
-1.02946e-05
-1.42288e-05
-1.09858e-05
-8.89891e-06
-1.18082e-05
-1.05476e-05
-7.30246e-06
-7.02932e-06
-1.1619e-05
-1.23468e-05
-1.0664e-05
-8.90268e-06
-1.05354e-05
-5.47055e-06
-1.05444e-05
-9.93918e-06
-5.35955e-06
-1.83543e-06
-2.00728e-06
-9.1249e-06
-9.84864e-06
-1.13513e-05
-1.09846e-05
-9.30013e-07
-9.71768e-07
-1.07061e-05
-1.08162e-05
-1.02434e-05
-4.1069e-06
-9.2289e-06
-1.04289e-05
-1.08703e-05
-9.38418e-06
-8.27774e-06
-4.28336e-06
-1.53858e-05
-9.91505e-06
-1.19658e-05
-1.21527e-05
-8.80326e-06
-1.11223e-05
-8.60742e-06
-9.49062e-06
-4.99757e-06
-7.39499e-06
-1.11365e-05
-1.11334e-05
-9.61917e-06
-1.0135e-05
-1.04319e-05
-1.09873e-05
-1.05146e-05
-5.46139e-06
-8.97496e-06
-1.04678e-05
-9.67123e-06
-1.44782e-05
-5.46339e-06
-7.94724e-06
-8.19247e-06
-7.52963e-06
-4.78744e-06
-4.78798e-06
-8.6603e-06
-7.27117e-06
-1.02624e-05
-5.85328e-06
-5.72797e-06
-1.84235e-06
-1.84241e-06
-4.46832e-06
-6.27916e-06
-4.21424e-06
-8.75154e-06
-9.2281e-06
-1.00583e-05
-1.12808e-05
-1.01693e-05
-9.39306e-06
-7.48012e-06
-5.0362e-06
-9.42707e-06
-9.67475e-06
-9.32695e-06
-5.60771e-06
-4.6362e-06
-4.00064e-06
-9.31712e-06
-9.56614e-06
-7.89608e-06
-8.72996e-06
-8.04088e-06
-7.17656e-06
-9.8432e-06
-7.17642e-06
-8.73606e-06
-8.29925e-06
-4.94948e-06
-6.10678e-06
-6.28522e-06
-1.03753e-05
-4.50377e-06
-4.73658e-06
-4.65075e-06
-9.75643e-06
-4.2723e-06
-4.21594e-06
-6.93526e-06
-3.9213e-06
-7.73445e-06
-7.74663e-06
-4.0196e-06
-8.75862e-06
-4.37793e-06
-4.43882e-06
-4.91139e-06
-4.23644e-06
-4.08371e-06
-5.47389e-06
-4.83022e-06
-4.47104e-06
-4.24572e-06
-7.94829e-06
-8.94525e-06
-4.59892e-06
-8.77144e-06
-3.86349e-06
-8.87213e-06
-7.12961e-06
-4.02881e-06
-3.35628e-06
-3.81091e-06
-5.03136e-06
-7.68681e-06
-6.09648e-06
-2.48165e-06
-2.75806e-06
-8.48119e-06
-2.33666e-06
-2.33673e-06
-2.64908e-06
-2.99568e-06
-3.79795e-06
-3.99162e-06
-6.70497e-06
-6.14732e-06
-8.49668e-06
-2.36172e-06
-2.36179e-06
-7.24732e-06
-3.36195e-06
-6.13053e-06
-3.0426e-06
-3.00351e-06
-3.95541e-06
-6.14454e-06
-6.36417e-06
-6.78417e-06
-6.21617e-06
-6.14474e-06
-1.3255e-06
-9.92469e-06
-1.69858e-06
-1.63507e-06
-8.01089e-06
-7.95438e-06
-1.69372e-06
-1.17874e-06
-1.66841e-06
-7.40134e-06
SCALARS rr_P' float
LOOKUP_TABLE default
3.37988e-05
7.12002e-05
5.72587e-05
7.44273e-05
3.80756e-05
6.07818e-05
3.34275e-05
7.40778e-05
6.44249e-05
8.00371e-05
3.05356e-05
7.43054e-05
6.54978e-05
6.88465e-05
7.97029e-05
6.81555e-05
5.8071e-05
6.61039e-05
6.00498e-05
5.82219e-05
6.55609e-05
1.09808e-05
6.71744e-05
6.18399e-05
5.60678e-05
6.42171e-05
2.79812e-05
5.66443e-05
4.59468e-05
5.03911e-05
5.78765e-05
4.74898e-05
3.10295e-05
3.79408e-05
3.71924e-05
3.8029e-05
4.89465e-05
3.73057e-05
5.7827e-05
3.48696e-05
3.86277e-05
4.31232e-05
4.31307e-05
6.35171e-05
3.86495e-05
4.18447e-05
5.64139e-05
5.69412e-05
5.30663e-05
5.27229e-05
5.39841e-05
4.14367e-05
6.11879e-05
5.32314e-05
5.63684e-05
2.79656e-05
3.97035e-05
5.36219e-05
3.97049e-05
6.34466e-05
7.41547e-05
7.21837e-05
2.73797e-05
5.0914e-05
6.91314e-05
6.56714e-05
7.17113e-05
6.23676e-05
5.78727e-05
8.17007e-05
6.6397e-05
6.56761e-05
4.77274e-05
5.30237e-05
5.68898e-05
3.21367e-05
5.7352e-05
6.50661e-05
6.28977e-05
4.56465e-05
4.18717e-05
4.28645e-05
8.24887e-05
4.20243e-05
5.60402e-05
2.12164e-05
6.54323e-05
5.40812e-05
4.09262e-05
5.42656e-06
4.61312e-05
5.90276e-06
4.86459e-05
4.71861e-05
4.36261e-05
4.02653e-05
3.84506e-05
7.02754e-05
5.74006e-05
5.63139e-05
4.86753e-05
4.73068e-05
4.03301e-05
6.67023e-05
6.77114e-05
6.09618e-05
5.31564e-05
5.46258e-05
4.28163e-05
8.1074e-05
5.26007e-05
2.90789e-05
3.87253e-05
7.30347e-05
6.83025e-05
5.13913e-05
4.60449e-05
3.19609e-05
4.77698e-05
5.11742e-05
4.40218e-05
7.77638e-05
8.11531e-05
6.93491e-05
7.65614e-05
5.93586e-05
3.31395e-05
7.58785e-05
3.48244e-05
4.424e-05
3.46855e-05
7.24383e-05
7.02716e-05
7.1105e-05
4.91959e-05
2.79746e-05
3.34779e-05
5.22727e-05
6.3244e-05
2.79672e-05
4.10512e-05
6.13977e-05
4.73594e-05
7.4982e-05
3.89137e-05
6.1272e-05
5.55854e-05
5.4042e-05
3.45502e-05
4.49211e-05
4.95073e-05
6.98684e-05
4.26183e-05
6.34936e-05
7.32809e-05
7.44661e-05
4.86032e-05
4.22497e-05
4.20001e-05
6.4116e-05
5.42721e-05
4.22395e-05
2.8409e-05
4.13638e-05
4.08102e-05
6.84359e-05
4.28213e-05
4.32986e-05
4.71818e-05
4.17246e-05
5.93855e-05
4.36015e-05
3.90165e-05
4.69298e-05
4.60545e-05
5.31357e-05
5.87434e-05
5.75316e-05
4.78098e-05
5.7301e-05
4.57896e-05
6.63726e-05
7.12418e-05
4.10529e-05
6.93877e-05
4.13701e-05
6.85296e-05
6.28228e-05
5.82142e-05
6.01941e-05
6.99891e-05
3.48854e-05
4.50666e-05
4.22606e-05
7.09835e-05
7.01077e-05
6.49728e-05
7.01025e-05
7.18375e-05
6.01174e-05
7.39707e-05
5.04452e-05
4.60905e-05
8.02637e-05
4.90382e-05
7.2863e-05
5.82224e-05
3.86391e-05
4.43743e-05
7.31876e-05
6.01968e-05
5.53898e-05
7.15414e-05
6.96144e-05
4.64483e-05
4.48798e-05
4.49113e-05
6.16908e-05
6.85066e-05
7.87338e-05
7.57098e-05
8.23409e-05
7.46089e-05
8.15394e-05
6.84552e-05
7.06796e-05
7.12468e-05
6.71486e-05
7.05357e-05
6.45204e-05
6.35582e-05
4.70943e-05
6.16719e-05
7.23582e-05
5.07874e-05
7.26208e-05
6.66925e-05
7.84335e-05
4.84479e-05
7.46271e-05
7.11839e-05
4.73517e-05
6.30482e-05
4.70492e-05
7.11423e-05
6.55886e-05
4.92929e-05
4.65792e-05
4.10288e-05
4.71741e-05
7.1253e-05
3.4504e-05
5.55563e-05
4.64249e-05
5.15181e-05
7.4704e-05
7.20274e-05
2.18771e-05
7.23042e-05
4.13479e-05
4.39458e-05
7.42733e-05
6.03765e-05
4.45053e-05
8.25745e-05
4.7857e-05
2.18784e-05
4.493e-05
6.42146e-05
7.99162e-05
6.10592e-05
7.07154e-05
6.67494e-05
3.4535e-05
3.46428e-05
3.11178e-05
3.58276e-05
4.71729e-05
3.70585e-05
5.92537e-05
3.78926e-05
6.29528e-05
4.53434e-05
4.50025e-05
5.10512e-05
4.86428e-05
6.32936e-05
4.66404e-05
4.83217e-05
1.99301e-05
4.65906e-05
6.75779e-05
6.76355e-05
6.20319e-05
4.65238e-05
2.89101e-05
8.57694e-05
5.85752e-05
4.93431e-05
4.56033e-05
4.36307e-05
4.70632e-05
5.51781e-05
4.61534e-05
3.42108e-05
4.54941e-05
3.20079e-05
5.47479e-05
4.6535e-05
1.85779e-05
4.37673e-05
5.03056e-05
4.65792e-05
6.95597e-05
4.82688e-05
6.1234e-05
2.47691e-05
4.92313e-05
4.77924e-05
4.00875e-05
4.48862e-05
5.23192e-05
4.8393e-05
5.08727e-05
4.42516e-05
4.48845e-05
4.83101e-05
6.29545e-05
4.57135e-05
6.35602e-05
5.75901e-05
4.43262e-05
4.74179e-05
4.77326e-05
5.24122e-05
4.76124e-05
4.47892e-05
5.06515e-05
5.16914e-05
6.18088e-05
4.7706e-05
4.76997e-05
6.74326e-05
6.64792e-05
4.57624e-05
4.43392e-05
2.17897e-05
5.49382e-05
3.96487e-05
5.17786e-05
2.54676e-05
2.64343e-05
2.36133e-05
2.40043e-05
2.54605e-05
2.68382e-05
2.76492e-05
5.70179e-05
4.15454e-05
4.30884e-05
4.96834e-05
4.86171e-05
4.80265e-05
4.99775e-05
4.70253e-05
4.81154e-05
4.6906e-05
4.78499e-05
5.70861e-05
4.41026e-05
5.87155e-05
4.653e-05
4.51471e-05
4.79235e-05
4.9395e-05
5.28352e-05
4.95001e-05
5.63691e-05
5.29586e-05
4.9409e-05
3.60452e-05
4.94275e-05
4.8068e-05
5.07887e-05
5.00333e-05
4.7528e-05
4.50988e-05
4.95079e-05
5.13461e-05
6.92513e-05
4.64643e-05
6.7337e-05
7.06914e-05
4.86398e-05
6.73357e-05
5.19445e-05
4.20157e-05
5.59445e-05
4.98477e-05
3.46916e-05
3.29964e-05
5.50723e-05
5.85399e-05
5.04277e-05
4.20754e-05
4.98998e-05
2.56064e-05
4.98616e-05
4.69713e-05
2.51504e-05
8.74095e-06
9.55967e-06
4.31546e-05
4.65034e-05
5.36525e-05
5.1874e-05
4.43773e-06
4.63697e-06
5.06651e-05
5.11872e-05
4.84737e-05
1.92231e-05
4.35687e-05
4.94181e-05
5.13606e-05
4.43343e-05
3.91102e-05
2.0045e-05
7.28895e-05
4.68141e-05
5.65886e-05
5.74725e-05
4.1589e-05
5.25567e-05
4.06637e-05
4.48407e-05
2.34355e-05
3.47665e-05
5.2623e-05
5.2653e-05
4.54604e-05
4.78785e-05
4.92973e-05
5.19296e-05
4.96922e-05
2.56366e-05
4.25705e-05
4.94299e-05
4.58054e-05
6.85942e-05
2.56442e-05
3.75823e-05
3.87378e-05
3.57485e-05
2.2797e-05
2.27994e-05
4.10948e-05
3.43258e-05
4.85312e-05
2.7471e-05
2.72687e-05
8.78853e-06
8.78879e-06
2.09079e-05
2.98542e-05
2.00467e-05
4.13816e-05
4.37817e-05
4.75873e-05
5.34035e-05
4.81811e-05
4.45173e-05
3.53977e-05
2.35725e-05
4.45892e-05
4.58177e-05
4.41954e-05
2.62789e-05
2.20453e-05
1.877e-05
4.41467e-05
4.52887e-05
3.72507e-05
4.13002e-05
3.80496e-05
3.40749e-05
4.65857e-05
3.40739e-05
4.13156e-05
3.93265e-05
2.35393e-05
2.90459e-05
2.94995e-05
4.91247e-05
2.10681e-05
2.21621e-05
2.17501e-05
4.62208e-05
1.99947e-05
1.9712e-05
3.2763e-05
1.83409e-05
3.67447e-05
3.68022e-05
1.88041e-05
4.13955e-05
2.05306e-05
2.07632e-05
2.30271e-05
1.98157e-05
1.91465e-05
2.60274e-05
2.26608e-05
2.09257e-05
1.98613e-05
3.76098e-05
4.24059e-05
2.15581e-05
4.15057e-05
1.80652e-05
4.19983e-05
3.3699e-05
1.8843e-05
1.57304e-05
1.78208e-05
2.35425e-05
3.6345e-05
2.89684e-05
1.18353e-05
1.31513e-05
4.01557e-05
1.11434e-05
1.11436e-05
1.26324e-05
1.42709e-05
1.78218e-05
1.89825e-05
3.18194e-05
2.92102e-05
4.0223e-05
1.12538e-05
1.12541e-05
3.44453e-05
1.57291e-05
2.89736e-05
1.42374e-05
1.40892e-05
1.85556e-05
2.92475e-05
3.02919e-05
3.22884e-05
2.95859e-05
2.92482e-05
6.32004e-06
4.72369e-05
8.0939e-06
7.7981e-06
3.81322e-05
3.78638e-05
8.07823e-06
5.6205e-06
7.95054e-06
3.52231e-05
SCALARS rr_T' float
LOOKUP_TABLE default
0.000204859
0.000466696
0.000372721
0.000487159
0.000254712
0.00039559
0.000202559
0.000484457
0.000416569
0.000524469
0.00018592
0.000485941
0.000427641
0.00045164
0.000529118
0.000444189
0.000382014
0.000431884
0.000386877
0.000378224
0.000425462
7.55317e-05
0.000435927
0.00040177
0.000364189
0.000420116
0.000172234
0.000369029
0.00028965
0.000340887
0.000377796
0.000299425
0.000190795
0.000255429
0.000251044
0.000256004
0.000331409
0.000251556
0.000377412
0.000214456
0.000243461
0.000292078
0.000292109
0.000414628
0.000239388
0.000264095
0.000364073
0.000368677
0.000345482
0.000330744
0.000339616
0.000263351
0.000408819
0.000338395
0.000376382
0.000173652
0.000268043
0.000340876
0.000268034
0.00041232
0.000487655
0.000477923
0.000169388
0.000336973
0.000457763
0.000432028
0.000471708
0.000408044
0.000375763
0.000535623
0.000443551
0.000438718
0.000300811
0.000349701
0.00037043
0.000196949
0.000381374
0.00042802
0.000411479
0.000290615
0.000262276
0.000287491
0.000544302
0.000262642
0.000354118
0.000131535
0.000426284
0.000356229
0.000253513
3.71695e-05
0.000293225
4.04257e-05
0.000323607
0.000310129
0.000277507
0.000253118
0.000240882
0.000460454
0.000381657
0.000367423
0.000312179
0.0002995
0.000252008
0.000436117
0.000443336
0.00039923
0.000351092
0.000356176
0.000267513
0.000531975
0.000341864
0.000180567
0.000241318
0.000477301
0.000447136
0.000326789
0.000310825
0.000200165
0.000322392
0.000325497
0.000283112
0.000515783
0.000531886
0.000456869
0.000502634
0.000394339
0.000223065
0.000497148
0.000218167
0.000281402
0.000231695
0.00047454
0.000463498
0.000465934
0.000311501
0.000188856
0.000208831
0.000341477
0.00041732
0.000188792
0.000260163
0.000402444
0.000304957
0.000491374
0.000243628
0.000400961
0.000363895
0.000351823
0.000224875
0.000287405
0.000320459
0.000457918
0.00026866
0.000414619
0.000480204
0.000487861
0.000319219
0.000267975
0.000266454
0.000418597
0.000351438
0.000266426
0.00017631
0.000260216
0.000258815
0.000448209
0.000271585
0.000274581
0.000297446
0.000264657
0.000395121
0.000277179
0.000245427
0.000308458
0.000292827
0.000350862
0.000390825
0.000376211
0.000319557
0.000375287
0.000288695
0.000434839
0.0004667
0.000260207
0.00045713
0.000260097
0.000451459
0.000415022
0.000387448
0.000394412
0.000461139
0.000218731
0.000286529
0.000266443
0.000465101
0.000457916
0.000424545
0.000462359
0.000470777
0.000395384
0.000484841
0.00032533
0.000293619
0.000529334
0.000309213
0.000480776
0.000382988
0.00024451
0.00029408
0.000479755
0.000399235
0.000363524
0.000468318
0.000459379
0.000297253
0.000294739
0.000286337
0.00040753
0.000449687
0.000516804
0.000496516
0.000540209
0.000489508
0.000534941
0.000448828
0.000468967
0.000472621
0.000445535
0.000468055
0.000430854
0.00042444
0.000301219
0.000404438
0.000473211
0.000328721
0.000482102
0.000442882
0.000513054
0.000308697
0.000487916
0.000466417
0.000303147
0.000417873
0.0003011
0.000469567
0.000428685
0.000315622
0.000297074
0.000256945
0.000295569
0.000470211
0.000215771
0.000362428
0.000295971
0.000332067
0.000488375
0.000472725
0.000148241
0.000474444
0.00025844
0.000280168
0.000485711
0.000394832
0.00028347
0.00054191
0.000308282
0.000148241
0.000286493
0.000421581
0.000526247
0.000398982
0.000469364
0.000439585
0.000230738
0.00022617
0.000193461
0.000222111
0.00031448
0.000240537
0.000387491
0.000242516
0.000417287
0.000298018
0.000286927
0.000335594
0.000312064
0.000414505
0.000299242
0.000307945
0.000135889
0.000310222
0.000448721
0.000449041
0.000406719
0.000298666
0.000194462
0.000564631
0.000379386
0.00031685
0.000292107
0.000290855
0.000301281
0.000367063
0.000295883
0.000211939
0.000292003
0.000200311
0.000361725
0.00029791
0.000126656
0.00028059
0.000331753
0.000297921
0.0004584
0.000309379
0.000398953
0.000153052
0.000320228
0.000305899
0.000267132
0.000287172
0.000338869
0.000318941
0.000333529
0.000283656
0.000288118
0.000311134
0.000415902
0.0002934
0.000415657
0.000375222
0.000296123
0.000304383
0.0003073
0.000339883
0.000306793
0.000287264
0.000326433
0.000342309
0.000404122
0.000307236
0.000305252
0.000441893
0.000435703
0.000293622
0.000296187
0.000132316
0.000357841
0.000248328
0.000335885
0.000148603
0.000154257
0.000137854
0.000140111
0.000148642
0.000156586
0.000161368
0.000376821
0.00027885
0.000281355
0.000321677
0.000313357
0.000309448
0.000327314
0.000302834
0.000309733
0.000314885
0.000308301
0.000378533
0.000280317
0.000389097
0.000302766
0.000292276
0.00030869
0.000329351
0.000344155
0.000320637
0.0003672
0.000343063
0.000318133
0.000229421
0.000319968
0.000312876
0.000336862
0.000322728
0.000305798
0.000290816
0.000320341
0.000334136
0.000453585
0.000299592
0.000440994
0.000459694
0.000314791
0.000440416
0.00033786
0.00027065
0.000368658
0.000323134
0.000232701
0.000204431
0.000363969
0.000387655
0.000328184
0.000272824
0.000328209
0.000155643
0.000324475
0.000304452
0.000155475
5.95688e-05
6.5163e-05
0.000281066
0.000299716
0.000348095
0.000334624
3.06255e-05
3.20005e-05
0.000331384
0.000334841
0.000316962
0.000116829
0.000280448
0.000326017
0.00033243
0.000286756
0.000253102
0.000121663
0.000480122
0.000301594
0.0003685
0.000374261
0.000268966
0.000340403
0.000262977
0.000290183
0.000144206
0.000217611
0.000340808
0.000342913
0.000294722
0.000309546
0.000319431
0.000336809
0.000322151
0.000158841
0.000282661
0.000318695
0.00030122
0.000452025
0.00015881
0.000244657
0.000252004
0.000238819
0.000155261
0.000155271
0.000273597
0.000220922
0.000315957
0.000169989
0.000185413
6.05387e-05
6.05384e-05
0.000126793
0.000201298
0.000135618
0.000269207
0.000291156
0.000310726
0.000350112
0.000317567
0.000294014
0.000231483
0.00014325
0.000290646
0.000301109
0.000291523
0.000160975
0.000148757
0.000115883
0.000291112
0.000297002
0.00023867
0.000269566
0.000248748
0.00022776
0.000304878
0.00022774
0.000269089
0.000259438
0.000159031
0.000196342
0.00018259
0.000322386
0.000127511
0.000134328
0.000131411
0.000304458
0.00012141
0.000118909
0.000211837
0.000110904
0.000246506
0.000246879
0.000113844
0.000268463
0.000126367
0.000125618
0.000141519
0.00011985
0.000117668
0.000175574
0.000139863
0.000127102
0.000120221
0.000245801
0.000280546
0.00013233
0.000271303
0.000109027
0.000275219
0.000218662
0.000113906
9.64451e-05
0.000107603
0.000142769
0.000236356
0.000194576
8.13986e-05
9.03527e-05
0.000263489
7.66224e-05
7.66217e-05
8.68218e-05
9.74546e-05
0.000110158
0.000128188
0.00021197
0.000196205
0.000263672
7.69828e-05
7.69822e-05
0.000231725
9.53078e-05
0.000187864
8.63629e-05
8.68802e-05
0.000114472
0.000198677
0.000205727
0.00021917
0.000200862
0.000198672
4.34037e-05
0.000320701
5.53657e-05
5.36428e-05
0.000259071
0.000257274
5.55893e-05
3.86106e-05
5.44035e-05
0.000238973
SCALARS rr_uec(SIM,_S_ext) float
LOOKUP_TABLE default
0.0132602
0.0302123
0.0241283
0.031537
0.0164894
0.0256087
0.0131113
0.0313617
0.0269665
0.0339522
0.0120347
0.0314578
0.0276836
0.0292375
0.0342537
0.0287548
0.0247303
0.0279585
0.0250443
0.0244845
0.0275423
0.0048899
0.0282199
0.0260087
0.0235759
0.0271967
0.0111488
0.0238893
0.0187498
0.0220686
0.0244568
0.0193826
0.0123502
0.016536
0.0162521
0.0165733
0.021455
0.0162852
0.024432
0.0138818
0.0157599
0.0189088
0.0189108
0.0268412
0.0154959
0.0170956
0.0235682
0.0238662
0.0223649
0.0214099
0.0219842
0.0170476
0.026466
0.0219054
0.0243661
0.0112407
0.0173526
0.022066
0.0173521
0.0266917
0.0315692
0.0309393
0.0109646
0.0218145
0.0296342
0.0279679
0.0305369
0.0264152
0.0243251
0.0346744
0.0287144
0.0284016
0.0194723
0.0226384
0.02398
0.0127486
0.0246891
0.0277085
0.0266376
0.0188126
0.0169776
0.0186115
0.0352364
0.0170013
0.022923
0.00851443
0.0275958
0.023061
0.0164103
0.00240633
0.0189814
0.00261713
0.0209494
0.0200766
0.0179639
0.016385
0.0155927
0.0298081
0.0247074
0.0237853
0.0202086
0.0193875
0.0163129
0.0282326
0.0286999
0.0258446
0.0227286
0.0230572
0.0173166
0.0344384
0.0221307
0.0116884
0.0156209
0.0308986
0.0289459
0.0211541
0.0201222
0.012957
0.020871
0.0210705
0.0183271
0.0333904
0.0344325
0.0295762
0.0325389
0.0255285
0.0144408
0.0321835
0.0141223
0.0182161
0.0149994
0.0307201
0.0300055
0.030163
0.0201643
0.0122262
0.0135179
0.0221058
0.027016
0.0122221
0.0168411
0.0260526
0.0197412
0.0318097
0.0157704
0.0259567
0.0235571
0.0227754
0.0145574
0.0186049
0.0207449
0.0296441
0.0173911
0.0268406
0.0310867
0.0315824
0.0206651
0.0173467
0.0172483
0.0270982
0.0227503
0.0172465
0.0114128
0.0168445
0.0167538
0.0290154
0.0175805
0.0177744
0.0192545
0.017132
0.0255791
0.0179427
0.0158871
0.0199685
0.0189556
0.0227137
0.025301
0.0243543
0.0206873
0.0242946
0.018688
0.0281499
0.0302124
0.0168439
0.029593
0.0168368
0.029226
0.0268672
0.0250823
0.0255328
0.0298525
0.0141589
0.018548
0.0172476
0.030109
0.0296437
0.0274834
0.0299317
0.0304765
0.0255957
0.0313869
0.0210602
0.019007
0.0342674
0.0200162
0.031124
0.0247932
0.0158278
0.0190378
0.0310577
0.0258452
0.0235332
0.0303172
0.0297388
0.0192424
0.0190803
0.0185357
0.0263822
0.0291113
0.0334563
0.0321429
0.0349714
0.0316892
0.0346304
0.0290554
0.0303597
0.0305962
0.0288428
0.0303006
0.0278924
0.0274772
0.0194991
0.0261818
0.0306342
0.0212797
0.03121
0.028671
0.0332134
0.0199831
0.0315861
0.0301941
0.0196239
0.0270518
0.0194914
0.0303983
0.0277517
0.0204315
0.0192307
0.0166325
0.0191329
0.03044
0.0139672
0.023462
0.0191593
0.0214962
0.0316158
0.0306027
0.00959694
0.030714
0.0167291
0.0181363
0.0314434
0.0255598
0.01835
0.0350816
0.0199564
0.00959696
0.0185457
0.0272918
0.0340674
0.0258286
0.0303854
0.0284571
0.0149374
0.0146413
0.012523
0.0143775
0.0203585
0.0155712
0.0250846
0.015699
0.027014
0.0192926
0.0185738
0.0217251
0.0202012
0.0268333
0.0193711
0.0199344
0.00879732
0.0200829
0.029049
0.0290697
0.0263294
0.0193338
0.0125891
0.0365522
0.0245595
0.020511
0.0189092
0.0188292
0.0195031
0.0237626
0.0191537
0.0137191
0.0189025
0.0129664
0.0234169
0.0192849
0.00819961
0.0181637
0.0214766
0.0192856
0.0296752
0.0200273
0.0258264
0.00990708
0.0207302
0.019802
0.0172934
0.0185898
0.0219367
0.0206471
0.0215915
0.0183621
0.018651
0.0201411
0.0269241
0.0189929
0.0269079
0.0242902
0.0191703
0.0197039
0.0198929
0.0220023
0.0198601
0.0185957
0.0211315
0.02216
0.0261612
0.0198887
0.0197602
0.0286064
0.0282057
0.0190073
0.0191744
0.00856485
0.023165
0.0160747
0.0217435
0.00961895
0.00998496
0.0089232
0.0090693
0.00962152
0.0101356
0.0104451
0.0243942
0.0180522
0.0182138
0.0208237
0.0202851
0.0200319
0.021189
0.0196038
0.0200503
0.020385
0.0199577
0.024505
0.0181458
0.0251891
0.0195997
0.0189205
0.0199828
0.0213212
0.022279
0.0207564
0.0237708
0.0222082
0.0205942
0.0148513
0.0207131
0.0202541
0.0218074
0.0208917
0.0197957
0.0188259
0.0207372
0.0216304
0.0293633
0.019394
0.0285482
0.0297585
0.020378
0.0285107
0.0218715
0.0175204
0.0238657
0.0209181
0.0150646
0.0132331
0.0235622
0.0250955
0.0212451
0.0176612
0.021247
0.0100748
0.021005
0.0197087
0.0100639
0.00385642
0.00421858
0.018195
0.019402
0.0225339
0.0216618
0.00198268
0.0020717
0.0214525
0.0216762
0.0205188
0.00756231
0.0181547
0.0211053
0.0215198
0.0185631
0.0163845
0.00787528
0.0310814
0.0195236
0.023855
0.0242279
0.0174115
0.022036
0.0170237
0.0187849
0.00933452
0.0140863
0.0220622
0.0221986
0.0190788
0.0200384
0.0206783
0.0218033
0.0208545
0.010282
0.0182987
0.0206306
0.0194999
0.0292625
0.01028
0.015838
0.0163136
0.0154605
0.0100515
0.0100522
0.0177119
0.0143013
0.0204536
0.0110037
0.0120035
0.00391926
0.00391924
0.00820734
0.0130316
0.00877973
0.0174272
0.0188486
0.0201151
0.022665
0.0205583
0.0190335
0.0149852
0.00927264
0.0188151
0.0194927
0.0188722
0.01042
0.00963027
0.0075011
0.0188456
0.0192267
0.0154501
0.0174506
0.0161029
0.0147447
0.0197366
0.0147434
0.0174196
0.0167952
0.0102954
0.0127109
0.0118193
0.0208701
0.00825353
0.00869478
0.00850599
0.0197095
0.00785889
0.0076968
0.0137132
0.00717861
0.0159582
0.0159824
0.00736889
0.0173791
0.00817972
0.008131
0.00916059
0.00775761
0.0076167
0.0113663
0.0090535
0.00822732
0.00778172
0.0159121
0.0181617
0.00856575
0.017563
0.00705714
0.0178166
0.0141551
0.00737289
0.00624291
0.0069649
0.00924149
0.0153006
0.0125964
0.00526973
0.00584941
0.0170573
0.00496052
0.00496048
0.00562083
0.00630915
0.00713069
0.00829871
0.0137224
0.0127019
0.0170691
0.00498382
0.00498379
0.0150014
0.00616932
0.0121614
0.00559026
0.00562371
0.00740981
0.0128622
0.0133186
0.0141889
0.0130037
0.0128619
0.00280994
0.0207618
0.00358434
0.00347281
0.016772
0.0166557
0.00359882
0.00249963
0.00352205
0.0154708
SCALARS rr_uec(PEX,_P_ext) float
LOOKUP_TABLE default
-0.0608136
-0.1386
-0.110687
-0.144676
-0.0756527
-0.117478
-0.0601306
-0.143873
-0.123704
-0.155757
-0.0551933
-0.144314
-0.126999
-0.134129
-0.157149
-0.131912
-0.113453
-0.128259
-0.114885
-0.11232
-0.126347
-0.0224371
-0.129456
-0.119313
-0.108152
-0.124766
-0.0511333
-0.109591
-0.0860031
-0.101254
-0.112196
-0.0889056
-0.0566433
-0.0758682
-0.0745665
-0.0760392
-0.098439
-0.0747183
-0.112082
-0.0636677
-0.0722884
-0.0867566
-0.0867657
-0.123134
-0.0710725
-0.0784157
-0.108114
-0.109483
-0.102598
-0.0982021
-0.100838
-0.0781976
-0.121424
-0.100481
-0.111789
-0.0515565
-0.0796159
-0.101217
-0.0796133
-0.122446
-0.144827
-0.141942
-0.0502895
-0.10008
-0.135954
-0.128306
-0.140091
-0.12118
-0.111589
-0.159071
-0.131739
-0.130304
-0.0893169
-0.103858
-0.110007
-0.0584694
-0.113269
-0.127116
-0.1222
-0.0862942
-0.0778722
-0.0853895
-0.161653
-0.0779802
-0.105146
-0.0390519
-0.126594
-0.105796
-0.0752662
-0.0110412
-0.087068
-0.0120084
-0.0961127
-0.0921038
-0.0824013
-0.075155
-0.0715203
-0.136746
-0.113353
-0.109115
-0.0927005
-0.0889295
-0.0748226
-0.129517
-0.131662
-0.118563
-0.104272
-0.105775
-0.0794262
-0.157988
-0.101523
-0.0536097
-0.0716478
-0.141747
-0.13279
-0.0970346
-0.092323
-0.0594309
-0.0957587
-0.0966511
-0.0840705
-0.153188
-0.157961
-0.135685
-0.149275
-0.11712
-0.0662552
-0.147644
-0.0647759
-0.0835578
-0.0688159
-0.14093
-0.137655
-0.138374
-0.0924928
-0.0560951
-0.0620025
-0.101411
-0.123941
-0.0560762
-0.0772498
-0.119518
-0.090558
-0.145929
-0.0723353
-0.119077
-0.108069
-0.104481
-0.0667813
-0.0853431
-0.095164
-0.135993
-0.0797706
-0.123131
-0.142612
-0.144886
-0.0948032
-0.0795695
-0.079118
-0.124313
-0.104364
-0.0791077
-0.0523456
-0.0772626
-0.0768496
-0.133109
-0.0806415
-0.081531
-0.0883177
-0.0785845
-0.117353
-0.0823038
-0.0728714
-0.0916077
-0.08695
-0.104204
-0.116077
-0.111726
-0.0949119
-0.111453
-0.0857195
-0.129139
-0.138601
-0.0772627
-0.135763
-0.077227
-0.134079
-0.123259
-0.115074
-0.117133
-0.136953
-0.0649436
-0.0850801
-0.0791123
-0.138126
-0.13599
-0.12608
-0.137317
-0.139812
-0.117424
-0.143989
-0.0966088
-0.0871862
-0.157208
-0.0918117
-0.142787
-0.113742
-0.0726012
-0.0873413
-0.142479
-0.118572
-0.107961
-0.139081
-0.136432
-0.0882676
-0.0875329
-0.0850244
-0.121034
-0.13355
-0.153483
-0.147457
-0.160433
-0.145376
-0.158869
-0.133294
-0.139283
-0.140369
-0.132324
-0.139013
-0.127968
-0.126063
-0.0894449
-0.120111
-0.140534
-0.0976174
-0.143185
-0.131537
-0.152367
-0.0916635
-0.144901
-0.138517
-0.0900178
-0.124108
-0.0894099
-0.139458
-0.12731
-0.0937222
-0.0882128
-0.0762894
-0.0877576
-0.139649
-0.0640638
-0.107632
-0.087885
-0.0986089
-0.145037
-0.140392
-0.0440324
-0.140902
-0.0767322
-0.0831924
-0.144246
-0.117256
-0.0841725
-0.160939
-0.0915454
-0.0440325
-0.0850706
-0.125203
-0.156289
-0.118488
-0.139402
-0.130552
-0.0685317
-0.0671667
-0.0574383
-0.0659433
-0.0934027
-0.0714313
-0.115076
-0.0720135
-0.123934
-0.0885069
-0.0851995
-0.0996667
-0.0926667
-0.123099
-0.0888593
-0.0914403
-0.0403647
-0.0921377
-0.133271
-0.133366
-0.120788
-0.0886883
-0.0577593
-0.167689
-0.112663
-0.0940883
-0.0867395
-0.0863861
-0.0894636
-0.109019
-0.0878614
-0.0629231
-0.0867097
-0.0594738
-0.10743
-0.0884626
-0.0376222
-0.0833201
-0.0985276
-0.0884654
-0.13614
-0.0918688
-0.118478
-0.0454392
-0.0950981
-0.0908349
-0.0793399
-0.085274
-0.100631
-0.0947221
-0.0990521
-0.0842304
-0.0855561
-0.0923924
-0.12352
-0.0871245
-0.123441
-0.11143
-0.0879517
-0.0903859
-0.0912537
-0.100933
-0.0911035
-0.0853021
-0.0969358
-0.101665
-0.120015
-0.0912347
-0.0906427
-0.131234
-0.129396
-0.0871903
-0.0879705
-0.0392795
-0.106268
-0.0737309
-0.0997459
-0.0441052
-0.0457835
-0.0409151
-0.041585
-0.044117
-0.0464745
-0.0478938
-0.111914
-0.0828235
-0.0835557
-0.0955258
-0.0930531
-0.0918918
-0.0972057
-0.0899275
-0.091976
-0.0935265
-0.0915511
-0.112424
-0.0832353
-0.115561
-0.0899123
-0.0867948
-0.0916665
-0.0978196
-0.102204
-0.0952173
-0.109048
-0.101877
-0.0944705
-0.0681233
-0.0950184
-0.0929148
-0.100048
-0.095836
-0.0908074
-0.0863594
-0.0951287
-0.0992284
-0.134706
-0.0889655
-0.130966
-0.136515
-0.0934809
-0.130794
-0.100334
-0.0803706
-0.109488
-0.0959591
-0.0691162
-0.0606942
-0.108097
-0.115132
-0.0974608
-0.0810187
-0.0974736
-0.0462047
-0.0963592
-0.0904111
-0.0461587
-0.0176944
-0.0193561
-0.0834686
-0.0890021
-0.103372
-0.0993687
-0.0090976
-0.00950607
-0.0984138
-0.0994404
-0.0941305
-0.034682
-0.0832799
-0.0968243
-0.0987189
-0.0851551
-0.0751615
-0.0361169
-0.142591
-0.0895598
-0.109434
-0.111145
-0.0798722
-0.101087
-0.0780935
-0.086173
-0.0428121
-0.0646106
-0.101207
-0.101835
-0.0875218
-0.0919226
-0.094859
-0.10002
-0.0956673
-0.0471587
-0.0839507
-0.0946383
-0.0894582
-0.134247
-0.0471494
-0.0726558
-0.0748374
-0.0709317
-0.0461188
-0.0461219
-0.0812598
-0.0656034
-0.09383
-0.0504684
-0.0550748
-0.0179835
-0.0179834
-0.0376397
-0.0597904
-0.0402827
-0.0799463
-0.0864744
-0.0922778
-0.103977
-0.0943144
-0.0873201
-0.0687451
-0.0425257
-0.0863138
-0.0894249
-0.0865797
-0.0477895
-0.0441846
-0.034404
-0.0864575
-0.0882041
-0.0708721
-0.0800544
-0.0738725
-0.0676474
-0.0905424
-0.0676415
-0.0799116
-0.0770509
-0.0472368
-0.0583192
-0.0542095
-0.0957433
-0.037852
-0.039876
-0.0390094
-0.0904206
-0.036042
-0.0352981
-0.0629071
-0.032922
-0.0732165
-0.0733272
-0.0337949
-0.0797242
-0.0375159
-0.03729
-0.0420142
-0.0355776
-0.0349333
-0.0521499
-0.0415236
-0.0377317
-0.0356882
-0.072997
-0.0833209
-0.0392858
-0.0805706
-0.0323646
-0.0817348
-0.0649349
-0.0338131
-0.0286322
-0.0319418
-0.0423823
-0.0701903
-0.0577926
-0.0241799
-0.0268396
-0.0782518
-0.0227611
-0.0227609
-0.0257908
-0.0289484
-0.0327049
-0.0380754
-0.0629564
-0.0582765
-0.0783058
-0.0228675
-0.0228674
-0.0688271
-0.028293
-0.0557888
-0.0256376
-0.0257932
-0.0339851
-0.0590145
-0.0611086
-0.0651014
-0.0596634
-0.059013
-0.0128932
-0.0952597
-0.0164462
-0.0159349
-0.0769538
-0.0764199
-0.0165131
-0.0114694
-0.0161604
-0.0709832
SCALARS cell_type float
LOOKUP_TABLE default
0
0
0
0
0
0
0
0
0
0
0
0
0
0
0
0
0
0
0
0
0
1
0
0
0
0
0
0
0
0
0
0
0
0
0
0
0
0
0
0
0
0
0
0
0
0
0
0
0
0
0
0
0
0
0
0
0
0
0
0
0
0
0
0
0
0
0
0
0
0
0
0
0
0
0
0
0
0
0
0
0
0
0
0
0
0
0
0
0
0
0
0
0
0
0
0
0
0
0
0
0
0
0
0
0
0
0
0
0
0
0
0
0
0
0
0
0
0
0
0
0
0
0
0
0
0
0
0
0
0
0
0
0
0
0
0
0
0
0
0
0
0
0
0
0
0
0
0
0
0
0
0
0
0
0
0
0
0
0
0
0
0
0
0
0
0
0
0
0
0
0
0
0
0
0
0
0
0
0
0
0
0
0
0
0
0
0
0
0
0
0
0
0
0
0
0
0
0
0
0
0
0
0
0
0
0
0
0
0
0
0
0
0
0
0
0
0
0
0
0
0
0
0
0
0
0
0
0
0
0
0
0
0
0
0
0
0
0
0
0
0
0
0
0
0
0
0
0
0
0
0
0
0
0
0
0
0
0
0
0
0
0
0
0
0
0
0
0
0
0
0
0
0
0
0
0
0
0
0
0
0
0
0
0
0
0
0
0
0
0
0
0
0
0
0
0
0
0
0
0
0
0
0
0
0
0
0
0
0
0
0
0
0
0
0
0
0
0
0
0
0
0
0
0
0
0
0
0
0
0
0
0
0
0
0
0
0
0
0
0
0
0
0
0
0
0
0
0
0
0
2
2
2
2
2
2
2
0
0
0
0
0
0
0
0
0
0
0
0
0
0
0
0
0
0
0
0
0
0
0
0
0
0
0
0
0
0
0
0
0
0
0
0
0
0
0
0
0
0
0
0
0
0
0
0
0
0
0
0
0
0
0
0
0
0
0
1
1
0
0
0
0
0
0
0
0
0
0
0
0
0
0
0
0
0
0
0
0
0
0
0
0
0
0
0
0
0
0
0
0
0
0
0
0
0
0
0
0
0
0
0
1
1
0
0
0
0
0
0
0
0
0
0
0
0
0
0
0
0
0
0
0
0
0
0
0
0
0
0
0
0
0
0
0
0
0
0
0
0
0
0
0
0
0
0
0
0
0
0
0
0
0
0
0
0
0
0
0
0
0
0
0
0
0
0
0
0
0
1
1
0
0
0
0
0
0
0
0
0
0
0
0
0
0
0
0
0
0
0
0
0
0
0
0
0
0
0
0
0
0
0
0
0
TENSORS Lagrange_strain float
0.0305673 -0.0031982 -6.28219e-08
-0.0031982 0.0133887 -1.43951e-07
-6.28219e-08 -1.43951e-07 0.00740156

0.0291917 -0.0028009 -2.78189e-07
-0.0028009 0.0335526 -9.38483e-08
-2.78189e-07 -9.38483e-08 0.0331625

0.0300203 0.00367892 -3.93149e-08
0.00367892 0.0311683 3.86971e-08
-3.93149e-08 3.86971e-08 0.0304668

0.0291608 -0.00392473 8.38247e-08
-0.00392473 0.0327978 2.82786e-08
8.38247e-08 2.82786e-08 0.0330874

0.0353659 0.00266905 -4.39948e-08
0.00266905 0.0380855 9.03966e-08
-4.39948e-08 9.03966e-08 0.0352914

0.0277342 -0.00236707 1.70621e-07
-0.00236707 0.0333831 1.39535e-07
1.70621e-07 1.39535e-07 0.0304379

0.0302612 0.00339402 -6.42492e-08
0.00339402 0.0134943 -8.26317e-08
-6.42492e-08 -8.26317e-08 0.00746299

0.0317538 0.00393967 -1.61898e-07
0.00393967 0.0311988 1.16315e-08
-1.61898e-07 1.16315e-08 0.0315597

0.0332407 0.000715358 6.32428e-08
0.000715358 0.0262205 -3.04094e-09
6.32428e-08 -3.04094e-09 0.0281412

0.0354664 -0.000991227 2.1552e-07
-0.000991227 0.0275502 -3.33854e-08
2.1552e-07 -3.33854e-08 0.03272

0.0280605 0.00205106 1.08158e-07
0.00205106 0.0138086 -1.78514e-07
1.08158e-07 -1.78514e-07 0.0117531

0.0279522 -0.0017657 1.13131e-07
-0.0017657 0.0350053 -4.32666e-08
1.13131e-07 -4.32666e-08 0.0315482

0.0311201 0.00365691 -1.17999e-07
0.00365691 0.0312993 -1.84318e-08
-1.17999e-07 -1.84318e-08 0.0310786

0.0290683 -0.00187995 1.47592e-07
-0.00187995 0.0347983 9.14037e-08
1.47592e-07 9.14037e-08 0.0325454

0.0346307 0.00441834 2.95958e-08
0.00441834 0.0343614 -2.79017e-08
2.95958e-08 -2.79017e-08 0.0348838

0.0343264 7.30388e-05 5.04985e-08
7.30388e-05 0.027285 2.06387e-07
5.04985e-08 2.06387e-07 0.0307774

0.028692 -0.0023538 1.41609e-07
-0.0023538 0.0360125 7.03883e-08
1.41609e-07 7.03883e-08 0.0334491

0.0345719 -0.000353005 -1.82724e-08
-0.000353005 0.0273554 2.59488e-07
-1.82724e-08 2.59488e-07 0.0319761

0.026919 0.00347809 4.69996e-08
0.00347809 0.0309437 -1.0939e-07
4.69996e-08 -1.0939e-07 0.0275757

0.0338834 -0.000550297 -5.5802e-09
-0.000550297 0.0264084 1.25294e-07
-5.5802e-09 1.25294e-07 0.0301333

0.0266212 0.0011352 -1.5312e-07
0.0011352 0.0340324 1.07616e-07
-1.5312e-07 1.07616e-07 0.029149

0.0452949 0.000853002 1.43171e-07
0.000853002 0.0452654 4.84481e-08
1.43171e-07 4.84481e-08 0.0366374

0.0336738 0.000247493 6.48623e-08
0.000247493 0.0263144 -3.20611e-09
6.48623e-08 -3.20611e-09 0.0298042

0.0293085 -0.00363174 -3.41519e-09
-0.00363174 0.0311347 6.70321e-09
-3.41519e-09 6.70321e-09 0.0300457

0.0337785 0.000900038 1.20919e-07
0.000900038 0.0264954 3.54157e-08
1.20919e-07 3.54157e-08 0.0300802

0.028545 0.00250765 7.9816e-08
0.00250765 0.0338925 5.59729e-08
7.9816e-08 5.59729e-08 0.032286

0.0286288 0.00052663 5.40747e-08
0.00052663 0.0176893 -6.61197e-08
5.40747e-08 -6.61197e-08 0.0131709

0.0309129 0.00403437 -1.78492e-07
0.00403437 0.0306454 1.16471e-07
-1.78492e-07 1.16471e-07 0.0306097

0.0259237 0.00477616 2.2738e-08
0.00477616 0.0257321 1.18615e-07
2.2738e-08 1.18615e-07 0.0211273

0.0415287 0.00136978 5.46641e-08
0.00136978 0.0383502 6.58585e-08
5.46641e-08 6.58585e-08 0.0361344

0.0344096 0.00187121 -2.31283e-08
0.00187121 0.0279514 -2.22066e-07
-2.31283e-08 -2.22066e-07 0.030999

0.021759 -0.0022878 3.14072e-08
-0.0022878 0.0299912 9.02168e-08
3.14072e-08 9.02168e-08 0.0211242

0.0228628 -0.00535218 -7.09684e-08
-0.00535218 0.0234723 7.05328e-08
-7.09684e-08 7.05328e-08 0.0125785

0.034832 0.000800521 8.7988e-08
0.000800521 0.0422547 2.26993e-07
8.7988e-08 2.26993e-07 0.0357855

0.0374528 -0.000661762 -1.56835e-07
-0.000661762 0.0412017 -1.06111e-07
-1.56835e-07 -1.06111e-07 0.0359001

0.0410745 0.00281348 1.59789e-07
0.00281348 0.0359856 -1.00922e-07
1.59789e-07 -1.00922e-07 0.0357657

0.0372532 0.000705438 -8.97912e-10
0.000705438 0.0432156 -6.32896e-08
-8.97912e-10 -6.32896e-08 0.0361408

0.0402605 -0.00121901 -1.06136e-07
-0.00121901 0.0378294 4.16281e-08
-1.06136e-07 4.16281e-08 0.0358073

0.0312145 -0.00367779 1.89224e-07
-0.00367779 0.0311221 1.83617e-08
1.89224e-07 1.83617e-08 0.0309245

0.0227467 0.00527882 1.77399e-07
0.00527882 0.0237084 -1.71083e-07
1.77399e-07 -1.71083e-07 0.0125806

0.0297599 -0.00231566 -1.70757e-08
-0.00231566 0.0220303 2.41893e-08
-1.70757e-08 2.41893e-08 0.0208742

0.0376187 -0.000522807 -1.93433e-07
-0.000522807 0.0430638 -2.48567e-07
-1.93433e-07 -2.48567e-07 0.0361435

0.0412411 0.00263461 -2.11148e-07
0.00263461 0.0394148 1.62109e-07
-2.11148e-07 1.62109e-07 0.036126

0.0342999 -0.00161714 5.94019e-08
-0.00161714 0.0279935 -1.48968e-07
5.94019e-08 -1.48968e-07 0.031083

0.023105 -0.00552553 7.86509e-08
-0.00552553 0.023562 -9.29522e-08
7.86509e-08 -9.29522e-08 0.0162154

0.0299422 -0.00233209 6.93041e-08
-0.00233209 0.0221545 1.49755e-07
6.93041e-08 1.49755e-07 0.0213434

0.0258927 0.00222735 -2.66168e-08
0.00222735 0.0326531 -1.57116e-07
-2.66168e-08 -1.57116e-07 0.0279143

0.0275497 0.00252876 -1.01572e-07
0.00252876 0.0323726 1.12772e-07
-1.01572e-07 1.12772e-07 0.0284898

0.0341743 -0.00214071 -4.38028e-09
-0.00214071 0.0271062 -2.09902e-07
-4.38028e-09 -2.09902e-07 0.0304712

0.0229018 -0.00439211 -3.76625e-08
-0.00439211 0.027248 -4.38666e-08
-3.76625e-08 -4.38666e-08 0.0198496

0.0294929 0.00247134 7.70602e-08
0.00247134 0.0218335 6.89151e-08
7.70602e-08 6.89151e-08 0.0202802

0.0298711 -0.00327064 -1.3984e-07
-0.00327064 0.0245126 1.98097e-07
-1.3984e-07 1.98097e-07 0.0230474

0.034477 0.00257771 -1.87177e-07
0.00257771 0.0382028 -6.01029e-08
-1.87177e-07 -6.01029e-08 0.0352701

0.0286884 0.00383832 -1.78007e-07
0.00383832 0.0257787 1.24025e-07
-1.78007e-07 1.24025e-07 0.0231159

0.0349278 -0.00291582 -5.4855e-08
-0.00291582 0.0374319 4.95313e-08
-5.4855e-08 4.95313e-08 0.0351884

0.0255794 -0.0054552 -3.36088e-07
-0.0054552 0.0229015 4.62398e-08
-3.36088e-07 4.62398e-08 0.015819

0.0373463 0.000746143 -8.61994e-08
0.000746143 0.041412 1.12105e-07
-8.61994e-08 1.12105e-07 0.0359206

0.0231668 -0.000693233 -2.15111e-08
-0.000693233 0.0313123 -7.16741e-10
-2.15111e-08 -7.16741e-10 0.023102

0.0410292 0.00137993 7.80813e-08
0.00137993 0.0377061 -8.65345e-08
7.80813e-08 -8.65345e-08 0.0358988

0.0276746 0.00280504 -1.40564e-07
0.00280504 0.0327483 -2.61701e-08
-1.40564e-07 -2.61701e-08 0.0302301

0.0361379 0.000784644 3.57791e-08
0.000784644 0.0281306 2.65434e-07
3.57791e-08 2.65434e-07 0.0336722

0.0362531 0.00153389 -7.45969e-10
0.00153389 0.0316924 -9.51386e-08
-7.45969e-10 -9.51386e-08 0.0342199

0.0286364 0.0040569 2.17358e-07
0.0040569 0.0198969 3.36842e-07
2.17358e-07 3.36842e-07 0.0137587

0.0309718 -0.00078368 1.34544e-07
-0.00078368 0.0370841 6.59791e-08
1.34544e-07 6.59791e-08 0.0338808

0.0315542 0.0012434 1.57427e-07
0.0012434 0.0364204 1.11941e-07
1.57427e-07 1.11941e-07 0.0342587

0.0285481 -0.000375293 -6.91131e-08
-0.000375293 0.0369552 2.50019e-08
-6.91131e-08 2.50019e-08 0.0326698

0.0296018 0.00307153 1.7238e-07
0.00307153 0.0347902 1.00879e-07
1.7238e-07 1.00879e-07 0.0337081

0.0347184 0.0011221 -1.34963e-07
0.0011221 0.0278377 -2.30673e-07
-1.34963e-07 -2.30673e-07 0.0322077

0.0291862 -0.00369894 -2.3183e-08
-0.00369894 0.0310201 -4.45063e-08
-2.3183e-08 -4.45063e-08 0.0299086

0.0350535 -0.00023707 -8.17447e-08
-0.00023707 0.027579 -3.90659e-08
-8.17447e-08 -3.90659e-08 0.0333923

0.0344517 -0.0025481 -1.42264e-07
-0.0025481 0.0381327 2.55657e-08
-1.42264e-07 2.55657e-08 0.0352601

0.0350102 0.00284951 5.78331e-08
0.00284951 0.0375692 -8.54283e-08
5.78331e-08 -8.54283e-08 0.03524

0.021888 -0.00213167 2.51445e-07
-0.00213167 0.029921 -6.72843e-08
2.51445e-07 -6.72843e-08 0.0208506

0.0347007 -0.00369093 1.54934e-07
-0.00369093 0.0319572 4.91704e-09
1.54934e-07 4.91704e-09 0.0330781

0.0292909 -0.00329719 1.62414e-07
-0.00329719 0.0321117 2.82923e-07
1.62414e-07 2.82923e-07 0.0304324

0.0267789 -0.00401678 -1.77118e-07
-0.00401678 0.0176049 -4.66046e-08
-1.77118e-07 -4.66046e-08 0.0127255

0.0324035 0.000418902 -3.83273e-08
0.000418902 0.0381039 1.19889e-08
-3.83273e-08 1.19889e-08 0.0344051

0.0345361 0.00381748 -9.88634e-08
0.00381748 0.0309406 -8.12735e-08
-9.88634e-08 -8.12735e-08 0.0326594

0.0283755 0.00258134 -1.3106e-07
0.00258134 0.0341285 1.97746e-07
-1.3106e-07 1.97746e-07 0.0322129

0.0315408 0.0010377 -7.3733e-08
0.0010377 0.0228432 1.28822e-07
-7.3733e-08 1.28822e-07 0.0240684

0.0270963 -0.00435838 2.12486e-07
-0.00435838 0.0237362 -8.1405e-08
2.12486e-07 -8.1405e-08 0.0183229

0.0362596 -0.00140307 -4.65057e-08
-0.00140307 0.0387416 -1.60521e-07
-4.65057e-08 -1.60521e-07 0.0354005

0.031555 0.00317057 3.55923e-08
0.00317057 0.0344004 -2.79733e-08
3.55923e-08 -2.79733e-08 0.0340895

0.0273003 -0.00415586 -3.34737e-08
-0.00415586 0.0221742 -2.68745e-08
-3.34737e-08 -2.68745e-08 0.0184108

0.0303571 0.00139095 4.69016e-08
0.00139095 0.0228298 1.2607e-07
4.69016e-08 1.2607e-07 0.0209539

0.0186016 -0.00269685 1.64949e-07
-0.00269685 0.0289276 -3.98883e-08
1.64949e-07 -3.98883e-08 0.0158925

0.0271992 0.00188899 -2.18548e-07
0.00188899 0.034319 -4.88496e-08
-2.18548e-07 -4.88496e-08 0.0306537

0.0353805 0.0030566 -3.82785e-08
0.0030566 0.0308191 -2.02281e-07
-3.82785e-08 -2.02281e-07 0.0327529

0.0226473 0.00538557 1.97935e-07
0.00538557 0.0240878 -1.48682e-07
1.97935e-07 -1.48682e-07 0.016198

0.0459481 0.00223843 7.825e-07
0.00223843 0.0417503 -5.52121e-07
7.825e-07 -5.52121e-07 0.0366384

0.0230806 -0.00053427 1.82151e-07
-0.00053427 0.031353 -2.14743e-07
1.82151e-07 -2.14743e-07 0.0230718

0.0463635 -0.00225533 -6.10156e-07
-0.00225533 0.0412937 -5.8365e-08
-6.10156e-07 -5.8365e-08 0.0365935

0.0370646 -0.0036241 -4.01945e-08
-0.0036241 0.0334903 2.42003e-08
-4.01945e-08 2.42003e-08 0.03462

0.0351359 0.00361934 -6.90948e-08
0.00361934 0.0300032 -8.81989e-08
-6.90948e-08 -8.81989e-08 0.0324556

0.0299611 -0.00315877 1.68648e-07
-0.00315877 0.0246897 -4.86326e-09
1.68648e-07 -4.86326e-09 0.0232852

0.0230117 0.00402956 -1.64618e-07
0.00402956 0.0277782 -7.72779e-08
-1.64618e-07 -7.72779e-08 0.0203814

0.0210933 -0.00137856 9.11384e-09
-0.00137856 0.0298941 1.49419e-07
9.11384e-09 1.49419e-07 0.0182509

0.0287448 0.00288882 -1.74064e-08
0.00288882 0.0342263 2.1809e-07
-1.74064e-08 2.1809e-07 0.0326987

0.0370108 0.00223599 -4.61805e-08
0.00223599 0.0334515 5.31236e-08
-4.61805e-08 5.31236e-08 0.0343834

0.0281473 0.00198804 -1.67742e-07
0.00198804 0.0340588 8.0822e-09
-1.67742e-07 8.0822e-09 0.0308645

0.0318816 0.00207298 -9.97395e-08
0.00207298 0.0252533 8.83744e-08
-9.97395e-08 8.83744e-08 0.0256167

0.0239068 -0.00277419 -6.75781e-08
-0.00277419 0.0297637 -1.00869e-07
-6.75781e-08 -1.00869e-07 0.0215608

0.0278977 -0.00376345 2.64302e-07
-0.00376345 0.0218145 4.61961e-08
2.64302e-07 4.61961e-08 0.0180754

0.0293303 -0.00323169 1.00211e-07
-0.00323169 0.0326287 1.64671e-07
1.00211e-07 1.64671e-07 0.0324019

0.0306253 0.00361463 -1.33888e-07
0.00361463 0.0322278 -4.14109e-08
-1.33888e-07 -4.14109e-08 0.0323697

0.0287069 0.00304788 -3.5257e-08
0.00304788 0.0340257 4.15392e-08
-3.5257e-08 4.15392e-08 0.0326292

0.029206 0.00172501 -3.33597e-08
0.00172501 0.0376168 9.36586e-09
-3.33597e-08 9.36586e-09 0.0338452

0.0344758 0.00123243 -1.16023e-07
0.00123243 0.0275228 -2.32422e-07
-1.16023e-07 -2.32422e-07 0.0306738

0.0199601 -0.00060524 1.88207e-07
-0.00060524 0.0296595 2.62932e-08
1.88207e-07 2.62932e-08 0.0181033

0.0297965 -0.00486293 1.13716e-07
-0.00486293 0.0330481 4.33074e-09
1.13716e-07 4.33074e-09 0.0337406

0.0290805 0.00359988 2.29919e-07
0.00359988 0.0313585 -6.87782e-08
2.29919e-07 -6.87782e-08 0.030263

0.0181051 0.000282822 -4.99869e-08
0.000282822 0.0293095 1.62165e-07
-4.99869e-08 1.62165e-07 0.0168779

0.0278422 0.00442343 -7.57062e-08
0.00442343 0.0209675 1.06528e-07
-7.57062e-08 1.06528e-07 0.0174541

0.0291901 -0.0030203 -3.47002e-08
-0.0030203 0.0327023 -1.27112e-07
-3.47002e-08 -1.27112e-07 0.0321843

0.0352413 0.000759799 -1.65016e-07
0.000759799 0.0273375 -1.73986e-07
-1.65016e-07 -1.73986e-07 0.0325517

0.0294261 0.00351999 3.8439e-08
0.00351999 0.0252002 -1.82597e-07
3.8439e-08 -1.82597e-07 0.0231104

0.0396358 0.00171021 2.10434e-07
0.00171021 0.0390387 1.43017e-07
2.10434e-07 1.43017e-07 0.0359392

0.0283739 0.00312308 1.86211e-07
0.00312308 0.0224007 -6.09852e-08
1.86211e-07 -6.09852e-08 0.0182857

0.039488 -0.00175078 5.01407e-08
-0.00175078 0.0390648 5.41301e-08
5.01407e-08 5.41301e-08 0.0359043

0.0232602 0.000103512 -2.03356e-07
0.000103512 0.0315167 -2.42259e-08
-2.03356e-07 -2.42259e-08 0.0231188

0.0327577 -0.000288348 1.73308e-07
-0.000288348 0.0246591 1.11073e-07
1.73308e-07 1.11073e-07 0.0269652

0.0380536 -0.00212948 -5.72672e-08
-0.00212948 0.0304626 8.27528e-08
-5.72672e-08 8.27528e-08 0.0347922

0.0292372 0.00320577 -7.46243e-08
0.00320577 0.0332765 9.38211e-08
-7.46243e-08 9.38211e-08 0.0333418

0.0289493 -0.00177248 3.71522e-08
-0.00177248 0.0366083 1.72679e-09
3.71522e-08 1.72679e-09 0.0334985

0.0365822 -0.00108501 -9.98103e-08
-0.00108501 0.026475 -1.07844e-08
-9.98103e-08 -1.07844e-08 0.0338589

0.0311793 -0.00292577 1.42432e-07
-0.00292577 0.0383049 -9.20646e-08
1.42432e-07 -9.20646e-08 0.0348426

0.0381645 -0.00088454 2.89447e-07
-0.00088454 0.0387305 -1.06442e-07
2.89447e-07 -1.06442e-07 0.0358343

0.0301789 -0.00393981 -9.28627e-08
-0.00393981 0.0327096 -1.26951e-07
-9.28627e-08 -1.26951e-07 0.0327621

0.021332 0.00146945 -1.36172e-08
0.00146945 0.0296124 1.83198e-07
-1.36172e-08 1.83198e-07 0.0182949

0.0293866 -0.00364547 -1.18266e-07
-0.00364547 0.0253482 2.47734e-07
-1.18266e-07 2.47734e-07 0.023181

0.0328586 -0.0018172 -1.73856e-07
-0.0018172 0.0397163 -1.06083e-07
-1.73856e-07 -1.06083e-07 0.0352399

0.0350895 7.67242e-05 1.41686e-07
7.67242e-05 0.0272208 -1.47642e-07
1.41686e-07 -1.47642e-07 0.03325

0.0308171 -0.0028288 5.01209e-08
-0.0028288 0.0348901 -2.00118e-08
5.01209e-08 -2.00118e-08 0.0340829

0.0295331 0.00338888 8.38511e-08
0.00338888 0.0328704 -1.56834e-07
8.38511e-08 -1.56834e-07 0.0333248

0.0264592 -0.00406309 -1.14259e-07
-0.00406309 0.0272606 -4.56001e-08
-1.14259e-07 -4.56001e-08 0.0215836

0.0371718 -0.000958388 1.5341e-07
-0.000958388 0.0416093 2.37827e-07
1.5341e-07 2.37827e-07 0.0358855

0.0227101 -0.00423736 -9.89223e-08
-0.00423736 0.0272426 5.42709e-08
-9.89223e-08 5.42709e-08 0.0168767

0.0341818 -0.00252468 -7.34377e-09
-0.00252468 0.0286053 8.55562e-08
-7.34377e-09 8.55562e-08 0.0310432

0.0364245 0.000289838 -1.86681e-07
0.000289838 0.0294363 2.35998e-08
-1.86681e-07 2.35998e-08 0.0341926

0.0396399 0.00239652 1.51989e-08
0.00239652 0.0391129 7.46363e-08
1.51989e-08 7.46363e-08 0.0358664

0.0238553 0.00260912 -1.40423e-07
0.00260912 0.03015 -1.22259e-07
-1.40423e-07 -1.22259e-07 0.0217979

0.0334297 0.00358121 -4.41252e-08
0.00358121 0.0307139 8.26502e-08
-4.41252e-08 8.26502e-08 0.031766

0.0316419 -0.00319422 7.11378e-08
-0.00319422 0.0265509 2.47745e-07
7.11378e-08 2.47745e-07 0.0269342

0.028928 -0.00234088 5.82605e-08
-0.00234088 0.0342333 4.77703e-08
5.82605e-08 4.77703e-08 0.0326047

0.0262432 0.00450126 -8.24827e-08
0.00450126 0.0245567 -1.23141e-08
-8.24827e-08 -1.23141e-08 0.0180803

0.0284215 -0.00286686 -2.69915e-07
-0.00286686 0.034031 -9.95043e-08
-2.69915e-07 -9.95043e-08 0.0324478

0.033148 0.00405849 5.49601e-08
0.00405849 0.0304634 -2.24753e-07
5.49601e-08 -2.24753e-07 0.0315411

0.0333333 -0.00331161 2.15853e-07
-0.00331161 0.0283558 4.44878e-08
2.15853e-07 4.44878e-08 0.0300447

0.0291596 -0.00329512 -4.97398e-08
-0.00329512 0.031986 -4.10074e-08
-4.97398e-08 -4.10074e-08 0.0304361

0.0314539 -0.00242906 8.30043e-08
-0.00242906 0.0247178 2.29831e-07
8.30043e-08 2.29831e-07 0.0251552

0.0329542 -0.00246668 7.38929e-08
-0.00246668 0.0267084 2.48456e-07
7.38929e-08 2.48456e-07 0.0285954

0.0294902 -0.00334167 -1.52182e-07
-0.00334167 0.0329492 -1.33371e-08
-1.52182e-07 -1.33371e-08 0.0334062

0.0261328 0.00463352 4.22854e-08
0.00463352 0.0255401 -1.82129e-07
4.22854e-08 -1.82129e-07 0.0210915

0.0281488 0.00201674 6.0313e-08
0.00201674 0.0343345 2.57847e-10
6.0313e-08 2.57847e-10 0.0311083

0.0308852 0.00348087 -8.00633e-08
0.00348087 0.0322542 1.55172e-07
-8.00633e-08 1.55172e-07 0.032599

0.029156 0.00334793 -8.68967e-08
0.00334793 0.0331903 -7.13204e-08
-8.68967e-08 -7.13204e-08 0.0332593

0.028983 0.00152275 1.02502e-09
0.00152275 0.0354695 8.78857e-08
1.02502e-09 8.78857e-08 0.0326944

0.0310513 -0.00106169 2.10642e-08
-0.00106169 0.0231405 6.31435e-08
2.10642e-08 6.31435e-08 0.022077

0.023883 0.00240553 1.69906e-07
0.00240553 0.0304093 -7.37993e-08
1.69906e-07 -7.37993e-08 0.0221121

0.0292121 -0.0032039 2.07291e-07
-0.0032039 0.0326353 1.03515e-07
2.07291e-07 1.03515e-07 0.0316173

0.0289866 0.00335667 1.75277e-07
0.00335667 0.0309313 -1.29477e-07
1.75277e-07 -1.29477e-07 0.028567

0.0266115 -0.0045909 -3.66531e-08
-0.0045909 0.0252295 2.52973e-07
-3.66531e-08 2.52973e-07 0.0212558

0.0262767 0.00489312 -1.26102e-07
0.00489312 0.0209455 1.60095e-07
-1.26102e-07 1.60095e-07 0.0167617

0.0235019 -0.00428644 1.69955e-08
-0.00428644 0.0274632 -6.13144e-08
1.69955e-08 -6.13144e-08 0.0206256

0.0266708 -0.00402719 -1.79763e-07
-0.00402719 0.0274813 -7.12451e-08
-1.79763e-07 -7.12451e-08 0.0220491

0.0353638 -0.000906625 1.91761e-07
-0.000906625 0.0273893 -6.42295e-08
1.91761e-07 -6.42295e-08 0.032654

0.0260441 0.00392133 1.04527e-07
0.00392133 0.0280913 -7.91998e-09
1.04527e-07 -7.91998e-09 0.0221016

0.0307866 0.00171644 2.75204e-08
0.00171644 0.0233595 -1.02965e-08
2.75204e-08 -1.02965e-08 0.0220247

0.0214302 0.00172202 -1.15492e-07
0.00172202 0.0302396 -1.26958e-07
-1.15492e-07 -1.26958e-07 0.021132

0.0242619 -0.00288907 8.78566e-08
-0.00288907 0.0299507 9.20837e-08
8.78566e-08 9.20837e-08 0.0220854

0.0313451 -0.00013121 -8.46679e-08
-0.00013121 0.0392735 -7.59181e-08
-8.46679e-08 -7.59181e-08 0.0346702

0.0230575 0.000294616 -6.89007e-08
0.000294616 0.0314594 -2.30836e-07
-6.89007e-08 -2.30836e-07 0.0230614

0.0227764 0.00400125 1.18714e-07
0.00400125 0.0281264 -6.73229e-09
1.18714e-07 -6.73229e-09 0.0206373

0.0288876 0.00158583 1.42304e-07
0.00158583 0.0358316 -3.3508e-08
1.42304e-07 -3.3508e-08 0.032893

0.0293151 -0.00357996 1.86278e-07
-0.00357996 0.0251288 2.51739e-08
1.86278e-07 2.51739e-08 0.0232389

0.036976 0.0027328 -4.11565e-08
0.0027328 0.0297225 -6.75604e-08
-4.11565e-08 -6.75604e-08 0.0338011

0.0371757 0.00348342 1.17946e-07
0.00348342 0.0334222 1.72953e-08
1.17946e-07 1.72953e-08 0.0346517

0.0345433 -0.00244639 -1.80012e-08
-0.00244639 0.0285291 1.9171e-08
-1.80012e-08 1.9171e-08 0.0313783

0.0390566 -0.00026551 -1.42859e-07
-0.00026551 0.0339245 -8.04283e-08
-1.42859e-07 -8.04283e-08 0.0352078

0.0314785 -0.0041874 4.20535e-08
-0.0041874 0.0317807 1.39324e-07
4.20535e-08 1.39324e-07 0.0321557

0.029461 0.0030073 7.79714e-08
0.0030073 0.0223267 -8.02037e-08
7.79714e-08 -8.02037e-08 0.0210659

0.0302287 0.00397293 8.67326e-08
0.00397293 0.0326627 -1.51351e-07
8.67326e-08 -1.51351e-07 0.0327193

0.0302766 0.0038469 -1.23772e-07
0.0038469 0.0326062 -6.07416e-08
-1.23772e-07 -6.07416e-08 0.0326741

0.0262434 0.00396143 -1.38459e-08
0.00396143 0.027767 -7.11237e-08
-1.38459e-08 -7.11237e-08 0.0218642

0.0344498 0.00357644 -2.67688e-08
0.00357644 0.0317793 -1.81716e-07
-2.67688e-08 -1.81716e-07 0.032831

0.0302474 0.000452417 4.53777e-08
0.000452417 0.0204279 2.73288e-08
4.53777e-08 2.73288e-08 0.0205726

0.0331854 0.00420043 -1.52315e-07
0.00420043 0.0323724 1.4828e-07
-1.52315e-07 1.4828e-07 0.0334833

0.0305005 -0.00165468 -5.00757e-08
-0.00165468 0.0366159 -2.32746e-09
-5.00757e-08 -2.32746e-09 0.0336623

0.03736 0.00323277 3.68197e-08
0.00323277 0.0334595 -1.0623e-07
3.68197e-08 -1.0623e-07 0.0346638

0.0307367 -0.00389588 -1.39292e-07
-0.00389588 0.0322724 1.12515e-07
-1.39292e-07 1.12515e-07 0.0326797

0.0293736 -0.000644751 -9.24534e-08
-0.000644751 0.0369025 2.29929e-08
-9.24534e-08 2.29929e-08 0.0328474

0.0288118 -0.00315209 9.77339e-08
-0.00315209 0.0221395 1.49647e-07
9.77339e-08 1.49647e-07 0.0187585

0.029002 0.00384435 -7.92825e-08
0.00384435 0.0255772 -1.79486e-07
-7.92825e-08 -1.79486e-07 0.0230723

0.0217008 0.00189092 -1.30282e-07
0.00189092 0.0300602 -1.21474e-07
-1.30282e-07 -1.21474e-07 0.0210833

0.0349895 -0.000161457 -1.61901e-07
-0.000161457 0.027389 -6.41933e-08
-1.61901e-07 -6.41933e-08 0.033301

0.034419 2.38434e-07 4.57484e-08
2.38434e-07 0.0272741 2.06289e-07
4.57484e-08 2.06289e-07 0.0320406

0.0291652 0.00303993 1.65557e-07
0.00303993 0.032679 -7.33687e-08
1.65557e-07 -7.33687e-08 0.0321321

0.0314493 0.00316614 -1.43551e-07
0.00316614 0.03425 1.64231e-07
-1.43551e-07 1.64231e-07 0.0340577

0.0291683 -0.0032044 1.21662e-07
-0.0032044 0.0332379 -5.85085e-08
1.21662e-07 -5.85085e-08 0.0333785

0.0287732 -8.55148e-05 -8.98157e-08
-8.55148e-05 0.0367045 -1.09697e-07
-8.98157e-08 -1.09697e-07 0.0325252

0.0294634 0.00337574 -1.10386e-09
0.00337574 0.0330738 1.2749e-07
-1.10386e-09 1.2749e-07 0.0333541

0.0328589 -0.00134645 -1.94923e-07
-0.00134645 0.0253614 -1.18263e-07
-1.94923e-07 -1.18263e-07 0.0278284

0.0263543 -0.00425425 -1.51785e-07
-0.00425425 0.0281789 1.5813e-08
-1.51785e-07 1.5813e-08 0.0242671

0.0362969 -0.000331401 -5.39164e-08
-0.000331401 0.0293826 7.71283e-08
-5.39164e-08 7.71283e-08 0.0340274

0.0267802 -0.00444545 -6.51574e-08
-0.00444545 0.0251899 3.35675e-08
-6.51574e-08 3.35675e-08 0.0209487

0.0308992 0.00250733 9.44555e-08
0.00250733 0.0350625 -1.25798e-07
9.44555e-08 -1.25798e-07 0.0340673

0.0351128 -0.0034969 8.46653e-09
-0.0034969 0.0303877 -1.97874e-08
8.46653e-09 -1.97874e-08 0.0326143

0.0305013 -0.00124978 -8.2475e-08
-0.00124978 0.022978 -1.27871e-07
-8.2475e-08 -1.27871e-07 0.0214779

0.0371473 -0.00307713 -1.90265e-07
-0.00307713 0.031653 6.77282e-08
-1.90265e-07 6.77282e-08 0.0339874

0.0349685 0.000321987 4.15586e-08
0.000321987 0.0275543 -3.10884e-08
4.15586e-08 -3.10884e-08 0.0334295

0.035843 -0.00308831 -4.4025e-08
-0.00308831 0.0332573 -3.20864e-08
-4.4025e-08 -3.20864e-08 0.034143

0.0349283 -0.00341052 1.6445e-07
-0.00341052 0.0295944 -6.86835e-08
1.6445e-07 -6.86835e-08 0.0321775

0.0349088 -0.00113369 1.3311e-07
-0.00113369 0.0278495 -1.5924e-07
1.3311e-07 -1.5924e-07 0.0323409

0.0314889 -0.00306234 4.27037e-08
-0.00306234 0.0344483 7.45916e-08
4.27037e-08 7.45916e-08 0.034146

0.0292346 -0.00407091 1.47043e-07
-0.00407091 0.0268994 -1.36368e-07
1.47043e-07 -1.36368e-07 0.0253456

0.0349924 -0.00324354 1.75224e-07
-0.00324354 0.0299148 -2.62195e-08
1.75224e-07 -2.62195e-08 0.0321947

0.0314616 0.00140899 -5.1318e-08
0.00140899 0.0233266 -1.43167e-08
-5.1318e-08 -1.43167e-08 0.0244831

0.0336639 0.00348413 -5.8882e-08
0.00348413 0.0334435 3.55681e-09
-5.8882e-08 3.55681e-09 0.0336496

0.0298917 -0.00496744 -5.53004e-09
-0.00496744 0.0330779 -1.91804e-08
-5.53004e-09 -1.91804e-08 0.0338566

0.0300423 0.00492038 -5.3725e-08
0.00492038 0.0329393 1.29819e-07
-5.3725e-08 1.29819e-07 0.0338236

0.0276873 -0.00374187 -2.26211e-07
-0.00374187 0.0348062 -3.59745e-09
-2.26211e-07 -3.59745e-09 0.0337662

0.0279251 0.00354697 -2.04326e-07
0.00354697 0.0348343 8.46224e-08
-2.04326e-07 8.46224e-08 0.033731

0.036429 -0.00115362 -1.51639e-07
-0.00115362 0.0263413 -8.26726e-08
-1.51639e-07 -8.26726e-08 0.0337573

0.0361976 0.00124753 2.05743e-07
0.00124753 0.0265625 3.59434e-09
2.05743e-07 3.59434e-09 0.0337201

0.035034 -0.00130668 1.58091e-07
-0.00130668 0.0284676 -1.6878e-07
1.58091e-07 -1.6878e-07 0.0325753

0.0344362 0.00425898 -7.47273e-08
0.00425898 0.0342891 1.6561e-07
-7.47273e-08 1.6561e-07 0.034812

0.0343118 -0.00435709 -6.24653e-08
-0.00435709 0.0342806 3.62304e-08
-6.24653e-08 3.62304e-08 0.0348004

0.0305205 0.00209349 5.51841e-08
0.00209349 0.0381652 -4.83469e-08
5.51841e-08 -4.83469e-08 0.0348492

0.0306635 -0.00205939 7.0114e-08
-0.00205939 0.0380943 1.52905e-08
7.0114e-08 1.52905e-08 0.0348365

0.0395016 -0.000528908 3.91857e-08
-0.000528908 0.032849 8.15048e-08
3.91857e-08 8.15048e-08 0.0352574

0.0397044 0.000513303 1.15222e-07
0.000513303 0.0326215 -9.49275e-08
1.15222e-07 -9.49275e-08 0.0353027

0.0239646 0.00127587 2.25844e-08
0.00127587 0.0320025 -6.29209e-08
2.25844e-08 -6.29209e-08 0.0251838

0.0311617 -0.0032655 4.75659e-08
-0.0032655 0.0322401 1.06155e-07
4.75659e-08 1.06155e-07 0.0328013

0.0277792 -0.00478561 -1.73457e-07
-0.00478561 0.0333113 -5.173e-08
-1.73457e-07 -5.173e-08 0.0334547

0.0333584 -0.000610233 -5.95981e-08
-0.000610233 0.0264026 1.21339e-07
-5.95981e-08 1.21339e-07 0.0284477

0.0381874 -0.00225182 -4.87228e-08
-0.00225182 0.0307939 -6.83674e-08
-4.87228e-08 -6.83674e-08 0.0348923

0.0382356 0.00218392 -7.85325e-08
0.00218392 0.0309071 1.94313e-07
-7.85325e-08 1.94313e-07 0.0349244

0.0360832 1.56062e-05 -1.8421e-08
1.56062e-05 0.0251252 7.54634e-08
-1.8421e-08 7.54634e-08 0.0334698

0.0242406 0.00302886 -6.82759e-08
0.00302886 0.0303968 9.97491e-09
-6.82759e-08 9.97491e-09 0.0242765

0.0276738 0.00475651 2.80029e-08
0.00475651 0.0333118 -6.64827e-08
2.80029e-08 -6.64827e-08 0.0333926

0.0286741 -0.00307588 5.98987e-08
-0.00307588 0.0342602 4.77472e-08
5.98987e-08 4.77472e-08 0.0327518

0.0310851 0.00303567 -1.59769e-07
0.00303567 0.0251461 -1.93187e-07
-1.59769e-07 -1.93187e-07 0.0254667

0.0372272 0.00316556 1.69057e-07
0.00316556 0.0315404 -1.46566e-07
1.69057e-07 -1.46566e-07 0.0340754

0.0292263 -0.00406705 9.63033e-08
-0.00406705 0.0269351 1.71237e-07
9.63033e-08 1.71237e-07 0.0253209

0.0364011 -0.000453582 -9.26109e-08
-0.000453582 0.0296911 3.53987e-09
-9.26109e-08 3.53987e-09 0.0341305

0.0273436 -0.00449484 5.68315e-09
-0.00449484 0.0333947 5.48381e-08
5.68315e-09 5.48381e-08 0.0334413

0.0240374 0.00107887 -1.24345e-07
0.00107887 0.0322434 1.39015e-07
-1.24345e-07 1.39015e-07 0.0255055

0.0242292 0.00282634 2.14024e-07
0.00282634 0.0307006 1.40377e-08
2.14024e-07 1.40377e-08 0.0245444

0.0267916 0.00459415 6.21175e-08
0.00459415 0.0240413 -1.52705e-07
6.21175e-08 -1.52705e-07 0.0182132

0.0298503 0.000199824 -5.99841e-08
0.000199824 0.020088 -1.61235e-07
-5.99841e-08 -1.61235e-07 0.0193621

0.031908 -0.00302394 1.30695e-07
-0.00302394 0.0341619 2.72383e-08
1.30695e-07 2.72383e-08 0.0340351

0.0229182 0.00399944 1.87512e-07
0.00399944 0.0276596 1.17848e-07
1.87512e-07 1.17848e-07 0.0176527

0.0292094 0.00310098 2.02244e-07
0.00310098 0.0327625 -1.73637e-08
2.02244e-07 -1.73637e-08 0.0310117

0.031594 -0.00069446 -1.31349e-07
-0.00069446 0.0231596 5.92511e-08
-1.31349e-07 5.92511e-08 0.0244844

0.0327606 0.00146444 2.85878e-08
0.00146444 0.0253464 7.81055e-08
2.85878e-08 7.81055e-08 0.0276125

0.0359777 5.60069e-05 -4.2656e-08
5.60069e-05 0.0249581 1.50915e-07
-4.2656e-08 1.50915e-07 0.0333857

0.0279654 -0.00380568 1.4174e-07
-0.00380568 0.0349483 -2.26251e-08
1.4174e-07 -2.26251e-08 0.0338155

0.0393145 -0.000843831 2.38663e-07
-0.000843831 0.0416011 9.20466e-08
2.38663e-07 9.20466e-08 0.0361897

0.029867 0.00493937 3.73396e-08
0.00493937 0.032956 -1.5819e-07
3.73396e-08 -1.5819e-07 0.0337786

0.0302878 0.000214496 1.87498e-07
0.000214496 0.0203965 3.65682e-08
1.87498e-07 3.65682e-08 0.0172758

0.0266735 -0.00425034 -2.07979e-07
-0.00425034 0.0281328 -3.04522e-08
-2.07979e-07 -3.04522e-08 0.024437

0.0277455 0.00481575 1.74533e-08
0.00481575 0.0333145 9.49112e-08
1.74533e-08 9.49112e-08 0.0334549

0.0279446 -0.00145863 -1.14471e-07
-0.00145863 0.0350844 -7.25319e-08
-1.14471e-07 -7.25319e-08 0.0314498

0.0244647 -0.00330497 -1.14518e-07
-0.00330497 0.0300146 -2.50548e-08
-1.14518e-07 -2.50548e-08 0.0242166

0.0279902 0.00377966 5.34459e-08
0.00377966 0.0349097 -1.23106e-07
5.34459e-08 -1.23106e-07 0.0337864

0.0313613 -0.00340927 -1.10398e-07
-0.00340927 0.0270083 -1.61757e-07
-1.10398e-07 -1.61757e-07 0.0269909

0.0402791 0.00140891 1.37699e-07
0.00140891 0.0406178 -2.063e-07
1.37699e-07 -2.063e-07 0.0361701

0.0258805 0.00400274 8.15547e-08
0.00400274 0.0289541 -5.09383e-08
8.15547e-08 -5.09383e-08 0.0245105

0.0366774 0.00110298 -5.85802e-08
0.00110298 0.0263517 -1.72557e-07
-5.85802e-08 -1.72557e-07 0.0338973

0.0333417 0.00398409 1.76554e-08
0.00398409 0.0321153 -5.7944e-08
1.76554e-08 -5.7944e-08 0.0333152

0.0292278 0.0030669 8.41531e-08
0.0030669 0.032605 -1.51353e-07
8.41531e-08 -1.51353e-07 0.0321573

0.0343642 -0.00431085 6.52368e-08
-0.00431085 0.0345049 7.41196e-08
6.52368e-08 7.41196e-08 0.0348845

0.0354895 -0.00306329 5.69439e-08
-0.00306329 0.0305898 7.90509e-08
5.69439e-08 7.90509e-08 0.0327501

0.0333662 0.00138796 8.86233e-08
0.00138796 0.0395773 1.94082e-07
8.86233e-08 1.94082e-07 0.0350021

0.0291964 -0.00307896 -5.55648e-08
-0.00307896 0.0328734 -9.3699e-08
-5.55648e-08 -9.3699e-08 0.0313829

0.0292645 -0.0012322 1.3011e-07
-0.0012322 0.0192868 -1.04198e-07
1.3011e-07 -1.04198e-07 0.0164119

0.0287781 -0.00183229 1.82644e-07
-0.00183229 0.0184138 2.68399e-08
1.82644e-07 2.68399e-08 0.0161968

0.038529 0.0022022 1.69858e-08
0.0022022 0.0332388 -6.92529e-08
1.69858e-08 -6.92529e-08 0.0347626

0.0280555 0.00294488 7.10823e-08
0.00294488 0.032335 -2.75792e-07
7.10823e-08 -2.75792e-07 0.0295178

0.0320669 0.00383448 -8.94738e-08
0.00383448 0.0309603 -8.04144e-08
-8.94738e-08 -8.04144e-08 0.0314541

0.0320493 9.00351e-05 -7.99678e-08
9.00351e-05 0.0245767 1.42009e-07
-7.99678e-08 1.42009e-07 0.0248878

0.0302374 0.00086625 -1.03614e-07
0.00086625 0.0385804 -7.99151e-09
-1.03614e-07 -7.99151e-09 0.0340961

0.0354016 0.00219144 1.17147e-07
0.00219144 0.0293227 2.96561e-07
1.17147e-07 2.96561e-07 0.032858

0.0248111 -0.00333863 4.96106e-08
-0.00333863 0.0300058 1.52781e-07
4.96106e-08 1.52781e-07 0.0244697

0.0286504 -0.000337967 1.65387e-07
-0.000337967 0.0366572 -8.52264e-08
1.65387e-07 -8.52264e-08 0.0323955

0.025215 0.00173999 -2.18036e-08
0.00173999 0.0320292 -6.42829e-08
-2.18036e-08 -6.42829e-08 0.0256837

0.0332803 -0.00390963 -2.43216e-08
-0.00390963 0.0304967 7.41207e-08
-2.43216e-08 7.41207e-08 0.0315921

0.0290647 -0.00389581 1.87834e-08
-0.00389581 0.0281997 2.15022e-08
1.87834e-08 2.15022e-08 0.0257133

0.0261487 0.00409864 6.96799e-08
0.00409864 0.0285462 7.61756e-08
6.96799e-08 7.61756e-08 0.0243179

0.0452876 -0.00201743 -1.30581e-07
-0.00201743 0.0396065 -1.51311e-07
-1.30581e-07 -1.51311e-07 0.0363667

0.0316665 0.000256267 -6.06638e-08
0.000256267 0.039327 1.75877e-07
-6.06638e-08 1.75877e-07 0.0347688

0.0306163 0.00265093 1.90805e-07
0.00265093 0.0384425 -7.78531e-09
1.90805e-07 -7.78531e-09 0.0349574

0.0387658 0.00209497 -8.73023e-08
0.00209497 0.0302214 -1.83521e-07
-8.73023e-08 -1.83521e-07 0.0349423

0.0313706 -0.00345048 -7.93516e-08
-0.00345048 0.0321402 2.04826e-07
-7.93516e-08 2.04826e-07 0.0325723

0.0318176 0.00233612 -1.48321e-07
0.00233612 0.0256201 -2.10182e-07
-1.48321e-07 -2.10182e-07 0.0258793

0.0349936 -0.000708269 2.16673e-07
-0.000708269 0.0415752 -5.47209e-08
2.16673e-07 -5.47209e-08 0.0357274

0.0357877 -0.00251853 3.25564e-08
-0.00251853 0.0295498 7.37825e-08
3.25564e-08 7.37825e-08 0.0332577

0.0332968 -0.00203963 -3.88811e-08
-0.00203963 0.0266524 -3.99137e-08
-3.88811e-08 -3.99137e-08 0.0286751

0.025252 0.00151075 1.31672e-07
0.00151075 0.0322737 1.4857e-07
1.31672e-07 1.4857e-07 0.0259498

0.0268042 -0.00334451 -1.74844e-07
-0.00334451 0.0300089 -2.72128e-08
-1.74844e-07 -2.72128e-08 0.025187

0.0364772 -0.00336039 -1.15464e-07
-0.00336039 0.0352872 -7.79124e-08
-1.15464e-07 -7.79124e-08 0.034742

0.0284753 0.00415205 -2.01854e-07
0.00415205 0.0277157 8.01545e-08
-2.01854e-07 8.01545e-08 0.0254674

0.0372435 -0.00334568 -3.93614e-08
-0.00334568 0.033322 8.78404e-08
-3.93614e-08 8.78404e-08 0.0346114

0.0322055 0.000337886 -1.1731e-07
0.000337886 0.0248623 8.68221e-08
-1.1731e-07 8.68221e-08 0.0254372

0.0191608 -0.00368908 -1.59031e-07
-0.00368908 0.0275257 -1.27788e-07
-1.59031e-07 -1.27788e-07 0.0163106

0.0292093 -0.00380359 2.12628e-07
-0.00380359 0.0281924 7.13334e-09
2.12628e-07 7.13334e-09 0.0258074

0.0230456 0.00412722 4.17601e-08
0.00412722 0.02802 2.93887e-07
4.17601e-08 2.93887e-07 0.0175919

0.0296907 -0.00155931 -1.76349e-07
-0.00155931 0.0375332 1.40998e-07
-1.76349e-07 1.40998e-07 0.0336482

0.0243598 -0.00179363 7.59441e-09
-0.00179363 0.0318719 -4.56235e-08
7.59441e-09 -4.56235e-08 0.0254476

0.0424371 -0.00323479 2.68663e-07
-0.00323479 0.0423764 4.48097e-07
2.68663e-07 4.48097e-07 0.036375

0.0263362 0.00309095 4.07088e-08
0.00309095 0.0307008 1.40016e-08
4.07088e-08 1.40016e-08 0.0254774

0.0334768 -0.00432362 -1.61306e-08
-0.00432362 0.0326588 -2.14227e-08
-1.61306e-08 -2.14227e-08 0.033566

0.0240802 -0.00155072 4.76276e-08
-0.00155072 0.0318865 1.7401e-08
4.76276e-08 1.7401e-08 0.0251763

0.0362222 -0.00253871 3.79647e-08
-0.00253871 0.0295107 9.19416e-09
3.79647e-08 9.19416e-09 0.0335189

0.0266729 0.00310459 1.122e-07
0.00310459 0.0303938 7.09744e-09
1.122e-07 7.09744e-09 0.0253127

0.0343421 -0.00065378 -6.53101e-08
-0.00065378 0.0272763 2.52605e-07
-6.53101e-08 2.52605e-07 0.0305771

0.0188901 -0.00387144 -2.65941e-07
-0.00387144 0.0298012 1.20037e-07
-2.65941e-07 1.20037e-07 0.012961

0.0279985 0.00275443 1.01156e-07
0.00275443 0.0326286 -5.44587e-08
1.01156e-07 -5.44587e-08 0.030573

0.0314366 -0.00251234 2.58779e-08
-0.00251234 0.0247217 -8.5189e-09
2.58779e-08 -8.5189e-09 0.0254053

0.0391175 -0.00286931 1.07324e-07
-0.00286931 0.0322209 1.10976e-09
1.07324e-07 1.10976e-09 0.0349362

0.0287525 0.00412378 -2.50476e-09
0.00412378 0.0272993 -4.62879e-08
-2.50476e-09 -4.62879e-08 0.0252548

0.0313607 -0.00391886 -1.10341e-07
-0.00391886 0.0285412 -1.62382e-07
-1.10341e-07 -1.62382e-07 0.0287302

0.0354074 0.0027638 -1.14354e-07
0.0027638 0.0308551 -6.36001e-08
-1.14354e-07 -6.36001e-08 0.0330384

0.029772 -0.00370346 -4.3751e-08
-0.00370346 0.0329369 1.1885e-08
-4.3751e-08 1.1885e-08 0.0333415

0.0270545 -0.00341022 -1.27529e-07
-0.00341022 0.0299816 1.39314e-07
-1.27529e-07 1.39314e-07 0.0253966

0.0284398 0.00377103 -1.1089e-07
0.00377103 0.028939 -5.64333e-08
-1.1089e-07 -5.64333e-08 0.0258864

0.0313704 0.00341319 6.4397e-08
0.00341319 0.0268985 -1.41088e-07
6.4397e-08 -1.41088e-07 0.0269651

0.0365351 -0.00194431 2.49149e-08
-0.00194431 0.0306241 -1.85075e-08
2.49149e-08 -1.85075e-08 0.0336348

0.0255329 -0.00216298 -5.02565e-08
-0.00216298 0.0318006 -5.0559e-08
-5.02565e-08 -5.0559e-08 0.0258528

0.0346983 -0.00231409 -1.0885e-07
-0.00231409 0.0283333 -1.86576e-07
-1.0885e-07 -1.86576e-07 0.0314549

0.0341849 0.00222281 -1.76924e-07
0.00222281 0.027431 7.45581e-08
-1.76924e-07 7.45581e-08 0.0306028

0.0336442 -0.00124608 -3.7617e-08
-0.00124608 0.0392993 -7.64867e-08
-3.7617e-08 -7.64867e-08 0.0349264

0.0320708 -0.00174668 -2.77214e-08
-0.00174668 0.0253295 -1.11125e-07
-2.77214e-08 -1.11125e-07 0.0258702

0.0250009 7.96747e-05 -2.3855e-08
7.96747e-05 0.03315 1.26806e-08
-2.3855e-08 1.26806e-08 0.0268602

0.0332459 0.00242863 -4.14605e-08
0.00242863 0.0271927 -3.45446e-08
-4.14605e-08 -3.45446e-08 0.0289211

0.0311164 0.00359868 -1.87909e-08
0.00359868 0.0272917 9.16074e-08
-1.87909e-08 9.16074e-08 0.0271216

0.0252944 -0.00204097 -9.31935e-08
-0.00204097 0.0318632 1.41618e-08
-9.31935e-08 1.41618e-08 0.0256101

0.0252002 -0.000154675 -5.73544e-09
-0.000154675 0.0332902 -4.31867e-08
-5.73544e-09 -4.31867e-08 0.027143

0.0354119 0.00385836 5.50663e-08
0.00385836 0.0329947 -7.22309e-08
5.50663e-08 -7.22309e-08 0.0338943

0.0275847 -0.00143069 7.5477e-08
-0.00143069 0.0353405 1.61755e-07
7.5477e-08 1.61755e-07 0.0314409

0.0312326 -0.0034837 7.36279e-08
-0.0034837 0.0269764 1.70647e-07
7.36279e-08 1.70647e-07 0.0270087

0.0312955 0.00277244 3.34129e-08
0.00277244 0.0249211 -1.93809e-07
3.34129e-08 -1.93809e-07 0.0252452

0.0345817 0.00311814 -1.28504e-07
0.00311814 0.0293854 1.64554e-07
-1.28504e-07 1.64554e-07 0.0317946

0.0279902 0.000716649 -1.32799e-07
0.000716649 0.0360385 -1.89271e-07
-1.32799e-07 -1.89271e-07 0.031817

0.0287152 0.00378116 -7.71429e-08
0.00378116 0.0285582 7.93149e-08
-7.71429e-08 7.93149e-08 0.0257269

0.0367895 0.00305775 1.83205e-07
0.00305775 0.0361247 -9.77348e-08
1.83205e-07 -9.77348e-08 0.034906

0.0226794 -0.00754512 -7.674e-08
-0.00754512 0.0186871 -6.37117e-08
-7.674e-08 -6.37117e-08 0.0108447

0.0332898 -0.00328717 1.22605e-07
-0.00328717 0.0286312 -1.43622e-07
1.22605e-07 -1.43622e-07 0.0301229

0.020726 0.000913397 -7.23359e-08
0.000913397 0.0300299 -6.52717e-09
-7.23359e-08 -6.52717e-09 0.0183457

0.0312989 -0.00378152 5.67646e-08
-0.00378152 0.0292298 1.36439e-07
5.67646e-08 1.36439e-07 0.0290304

0.00153952 -0.00651859 -2.74054e-08
-0.00651859 0.0275675 1.20071e-07
-2.74054e-08 1.20071e-07 0.00290822

0.00146992 0.00636816 -3.44405e-09
0.00636816 0.0275854 -1.50894e-08
-3.44405e-09 -1.50894e-08 0.00300117

0.0119843 0.0145045 -2.51954e-08
0.0145045 0.017532 -3.15941e-08
-2.51954e-08 -3.15941e-08 0.0027711

0.0121656 -0.0144952 -2.95097e-08
-0.0144952 0.0172234 3.7004e-08
-2.95097e-08 3.7004e-08 0.00280371

0.0293398 -0.000164083 -1.24949e-08
-0.000164083 0 0
-1.24949e-08 0 0.00295253

0.0235915 -0.0112823 8.24151e-08
-0.0112823 0.00539531 -3.9689e-08
8.24151e-08 -3.9689e-08 0.00297822

0.0236335 0.0113485 -1.06653e-07
0.0113485 0.00544937 -5.13614e-08
-1.06653e-07 -5.13614e-08 0.00303939

0.0369102 0.00191129 9.66615e-08
0.00191129 0.0302413 -3.00605e-09
9.66615e-08 -3.00605e-09 0.0338768

0.0387046 0.00341008 6.12326e-10
0.00341008 0.0366167 -9.51913e-08
6.12326e-10 -9.51913e-08 0.0355776

0.0344143 0.00087234 -9.81236e-08
0.00087234 0.0274558 -2.30955e-07
-9.81236e-08 -2.30955e-07 0.0316868

0.0328718 0.00285012 1.80332e-08
0.00285012 0.0268884 -1.41724e-07
1.80332e-08 -1.41724e-07 0.0286454

0.0256999 0.00231314 6.72092e-08
0.00231314 0.0323658 1.15546e-07
6.72092e-08 1.15546e-07 0.0276346

0.0307117 0.0037689 -1.69634e-08
0.0037689 0.0276752 8.89004e-08
-1.69634e-08 8.89004e-08 0.0271168

0.0333045 -0.0039032 -9.43559e-08
-0.0039032 0.0304651 -2.67206e-08
-9.43559e-08 -2.67206e-08 0.031629

0.0309725 0.00365423 1.05874e-08
0.00365423 0.027286 -4.61815e-08
1.05874e-08 -4.61815e-08 0.0269244

0.0249863 -0.000371424 4.63736e-08
-0.000371424 0.033121 1.49327e-08
4.63736e-08 1.49327e-08 0.0268423

0.0385475 -0.00348465 9.81429e-08
-0.00348465 0.0368798 -7.71818e-09
9.81429e-08 -7.71818e-09 0.0355832

0.0251748 -0.00063565 9.47297e-09
-0.00063565 0.0332088 -4.18949e-08
9.47297e-09 -4.18949e-08 0.0271019

0.036017 0.00304755 1.49371e-09
0.00304755 0.0330103 7.08428e-08
1.49371e-09 7.08428e-08 0.0340972

0.0296222 0.00347557 -7.50983e-08
0.00347557 0.0248455 -1.8714e-07
-7.50983e-08 -1.8714e-07 0.0230221

0.0304952 -0.00171377 1.34591e-07
-0.00171377 0.0375117 -8.92008e-08
1.34591e-07 -8.92008e-08 0.0347357

0.0339191 0.0018044 -2.31809e-07
0.0018044 0.0271809 -3.63818e-08
-2.31809e-07 -3.63818e-08 0.0303196

0.0312002 -0.00392042 6.41719e-08
-0.00392042 0.0285304 1.86934e-07
6.41719e-08 1.86934e-07 0.0286137

0.0315825 -0.00322131 1.66181e-09
-0.00322131 0.0266908 3.21867e-08
1.66181e-09 3.21867e-08 0.0270469

0.0384791 -0.00214145 -1.22853e-08
-0.00214145 0.0334165 1.39556e-07
-1.22853e-08 1.39556e-07 0.0347442

0.0326801 0.00366388 1.21411e-07
0.00366388 0.0292312 -8.91603e-08
1.21411e-07 -8.91603e-08 0.0301542

0.0326437 0.00313736 2.15406e-07
0.00313736 0.0272517 1.01266e-07
2.15406e-07 1.01266e-07 0.0287872

0.0269544 -0.000365154 1.5114e-07
-0.000365154 0.0349862 -1.01828e-08
1.5114e-07 -1.01828e-08 0.0301672

0.025899 0.000765814 6.82801e-08
0.000765814 0.0340027 1.1687e-07
6.82801e-08 1.1687e-07 0.0288223

0.0327776 0.000345364 -4.36754e-08
0.000345364 0.0248611 9.14785e-08
-4.36754e-08 9.14785e-08 0.0274431

0.0313861 -0.000944854 -2.32648e-07
-0.000944854 0.0230034 -1.34842e-07
-2.32648e-07 -1.34842e-07 0.0238915

0.0308799 0.00398499 8.81777e-09
0.00398499 0.0288054 -4.95234e-08
8.81777e-09 -4.95234e-08 0.0286234

0.0331171 -0.00343145 -9.36149e-09
-0.00343145 0.0285399 1.86441e-07
-9.36149e-09 1.86441e-07 0.0299686

0.0364117 -0.00282381 -1.40658e-07
-0.00282381 0.0327326 1.13159e-07
-1.40658e-07 1.13159e-07 0.0341434

0.0292054 -0.00412756 1.25343e-07
-0.00412756 0.0291915 1.4111e-07
1.25343e-07 1.4111e-07 0.0277532

0.0269714 -0.00362044 -3.66825e-08
-0.00362044 0.0304642 -2.58688e-07
-3.66825e-08 -2.58688e-07 0.0272127

0.0283255 0.00389932 -4.19814e-08
0.00389932 0.0299003 8.07815e-08
-4.19814e-08 8.07815e-08 0.0277513

0.0259007 -0.00124895 7.30857e-08
-0.00124895 0.033613 -2.70929e-08
7.30857e-08 -2.70929e-08 0.0285152

0.0266539 -0.000202184 1.28028e-07
-0.000202184 0.0349119 7.40314e-08
1.28028e-07 7.40314e-08 0.0299191

0.0277617 0.000753114 6.81437e-08
0.000753114 0.0360379 -1.90763e-07
6.81437e-08 -1.90763e-07 0.0316575

0.0262465 -0.00274921 3.73071e-08
-0.00274921 0.0319622 -1.81349e-07
3.73071e-08 -1.81349e-07 0.02771

0.0345821 0.00317559 9.75242e-09
0.00317559 0.0291676 -9.58268e-08
9.75242e-09 -9.58268e-08 0.0316337

0.0339082 -0.00126095 -1.95601e-07
-0.00126095 0.0269297 -7.01414e-08
-1.95601e-07 -7.01414e-08 0.030201

0.0257897 0.000974206 8.65329e-08
0.000974206 0.0338287 2.09961e-07
8.65329e-08 2.09961e-07 0.0285413

0.0278234 -0.00127012 7.2473e-08
-0.00127012 0.0353961 1.61132e-07
7.2473e-08 1.61132e-07 0.0313653

0.0272923 -0.00213698 -1.40478e-07
-0.00213698 0.0336558 -3.01061e-07
-1.40478e-07 -3.01061e-07 0.0302249

0.0327763 -0.00107723 1.77507e-07
-0.00107723 0.0253194 -2.39499e-07
1.77507e-07 -2.39499e-07 0.0272537

0.0333143 -0.00427114 6.57475e-08
-0.00427114 0.0323798 1.77752e-07
6.57475e-08 1.77752e-07 0.0335285

0.0264881 0.0012197 1.01246e-08
0.0012197 0.0338347 2.09054e-07
1.01246e-08 2.09054e-07 0.0288154

0.0398103 -0.00243156 -2.2476e-07
-0.00243156 0.0352178 -7.41254e-08
-2.2476e-07 -7.41254e-08 0.0354605

0.0188884 0.00316457 -2.2507e-07
0.00316457 0.0278754 2.68361e-07
-2.2507e-07 2.68361e-07 0.0162724

0.0338152 -0.00352245 -3.11102e-08
-0.00352245 0.0334942 2.34743e-08
-3.11102e-08 2.34743e-08 0.0337254

0.0353435 -0.00399923 5.14699e-09
-0.00399923 0.033046 1.41361e-07
5.14699e-09 1.41361e-07 0.0339033

0.0266852 -9.05188e-05 1.69403e-07
-9.05188e-05 0.034917 7.49809e-08
1.69403e-07 7.49809e-08 0.0299273

0.0332421 -0.00217626 -1.65257e-07
-0.00217626 0.0271523 -1.79425e-07
-1.65257e-07 -1.79425e-07 0.028902

0.0293469 0.00168447 -2.47861e-08
0.00168447 0.0358184 -2.37174e-08
-2.47861e-08 -2.37174e-08 0.0328791

0.0132072 -0.000379122 1.47622e-07
-0.000379122 0.0283616 1.16265e-08
1.47622e-07 1.16265e-08 0.0111516

0.0271131 0.00186844 -9.69858e-08
0.00186844 0.0340608 7.51298e-09
-9.69858e-08 7.51298e-09 0.0303055

0.0311085 -0.00385832 -1.21336e-07
-0.00385832 0.0291535 -1.87069e-07
-1.21336e-07 -1.87069e-07 0.0288057

0.0186194 0.00320455 -3.24488e-07
0.00320455 0.030139 -8.34651e-09
-3.24488e-07 -8.34651e-09 0.0131265

0.0426002 0.00351784 1.8358e-07
0.00351784 0.0418486 -5.73991e-07
1.8358e-07 -5.73991e-07 0.0364798

0.0432044 -0.00374813 4.62607e-08
-0.00374813 0.0414168 -8.43319e-08
4.62607e-08 -8.43319e-08 0.0364622

0.0310642 -0.00399078 1.64556e-07
-0.00399078 0.0304706 -3.29631e-08
1.64556e-07 -3.29631e-08 0.0304603

0.0289214 -0.00406389 1.43149e-07
-0.00406389 0.0291499 -1.84437e-07
1.43149e-07 -1.84437e-07 0.0275936

0.0330499 0.00272663 2.11037e-07
0.00272663 0.0275278 1.08361e-07
2.11037e-07 1.08361e-07 0.0290747

0.0327789 0.0019601 4.7386e-08
0.0019601 0.0255904 -2.03206e-07
4.7386e-08 -2.03206e-07 0.027822

0.0464016 0.000418534 -6.14152e-07
0.000418534 0.046356 -6.07867e-07
-6.14152e-07 -6.07867e-07 0.036694

0.0469183 -0.00095158 7.67887e-07
-0.00095158 0.0457687 -4.65853e-07
7.67887e-07 -4.65853e-07 0.0367651

0.0347985 0.000638511 -7.71548e-08
0.000638511 0.0275721 -2.49337e-07
-7.71548e-08 -2.49337e-07 0.0322157

0.0277511 0.000882352 -8.46751e-08
0.000882352 0.0355695 -1.35799e-08
-8.46751e-08 -1.35799e-08 0.0313478

0.0276069 0.000882867 1.20749e-07
0.000882867 0.0355696 -7.71061e-09
1.20749e-07 -7.71061e-09 0.031244

0.0234586 0.00739966 -1.55958e-08
0.00739966 0.0183014 2.68478e-07
-1.55958e-08 2.68478e-07 0.0109012

0.0272464 -0.00367555 -6.34118e-09
-0.00367555 0.0303462 -4.09523e-08
-6.34118e-09 -4.09523e-08 0.0273186

0.0365662 0.00239163 6.92505e-08
0.00239163 0.0295752 3.2057e-08
6.92505e-08 3.2057e-08 0.0337836

0.0332731 0.00124747 -7.55168e-08
0.00124747 0.0265033 3.31677e-08
-7.55168e-08 3.31677e-08 0.0284309

0.0291514 -0.00349254 1.09186e-07
-0.00349254 0.0304704 -2.46782e-07
1.09186e-07 -2.46782e-07 0.0281724

0.0328099 -0.00264764 -2.87571e-08
-0.00264764 0.0267271 3.12385e-08
-2.87571e-08 3.12385e-08 0.0285858

0.0224594 0.00761263 1.387e-07
0.00761263 0.01859 4.0785e-07
1.387e-07 4.0785e-07 0.0109037

0.0331442 0.00410242 -4.32393e-08
0.00410242 0.0326374 8.40331e-08
-4.32393e-08 8.40331e-08 0.0331807

0.0258893 -0.00257816 -1.88205e-07
-0.00257816 0.0320233 1.69949e-07
-1.88205e-07 1.69949e-07 0.0275065

0.0324813 0.00378567 -4.4282e-09
0.00378567 0.029267 8.16587e-08
-4.4282e-09 8.16587e-08 0.030146

0.0268151 -0.000543805 -1.35673e-07
-0.000543805 0.0349511 -3.94993e-08
-1.35673e-07 -3.94993e-08 0.0301369

0.0269893 0.00256323 1.61494e-07
0.00256323 0.0324475 -1.99338e-07
1.61494e-07 -1.99338e-07 0.0282855

0.0305253 0.003991 -2.15036e-08
0.003991 0.0293221 7.99642e-08
-2.15036e-08 7.99642e-08 0.0287741

0.027608 -0.00293714 -8.32485e-08
-0.00293714 0.0318527 -2.02831e-07
-8.32485e-08 -2.02831e-07 0.0282481

0.029455 -0.0035756 2.0018e-08
-0.0035756 0.0303499 -3.92906e-08
2.0018e-08 -3.92906e-08 0.028304

0.0181372 0.00142537 -5.41897e-08
0.00142537 0.0280355 -1.52732e-07
-5.41897e-08 -1.52732e-07 0.0131272

0.0234731 -0.00429382 6.39169e-08
-0.00429382 0.0275554 -1.34018e-07
6.39169e-08 -1.34018e-07 0.0177227

0.0262046 -0.0015262 -7.93087e-08
-0.0015262 0.0336224 8.70657e-08
-7.93087e-08 8.70657e-08 0.0287508

0.0330228 0.0034746 1.53331e-07
0.0034746 0.0288768 -6.19123e-08
1.53331e-07 -6.19123e-08 0.0300679

0.0303207 0.00385734 -2.34127e-08
0.00385734 0.0298856 8.21331e-08
-2.34127e-08 8.21331e-08 0.0289893

0.0274136 -0.00280048 2.01914e-07
-0.00280048 0.031983 1.98388e-07
2.01914e-07 1.98388e-07 0.0281381

0.0265536 -0.00154076 -3.044e-07
-0.00154076 0.0335814 -4.64092e-08
-3.044e-07 -4.64092e-08 0.0287453

0.0309553 0.00371826 -1.20916e-07
0.00371826 0.0295624 2.05198e-07
-1.20916e-07 2.05198e-07 0.0289402

0.0267583 -0.00181588 1.69539e-07
-0.00181588 0.033473 1.40356e-07
1.69539e-07 1.40356e-07 0.0289533

0.0191655 0.00355434 6.9624e-08
0.00355434 0.027607 1.04432e-07
6.9624e-08 1.04432e-07 0.0162916

0.0308725 -0.000534872 -1.11839e-08
-0.000534872 0.0388179 6.33188e-08
-1.11839e-08 6.33188e-08 0.0342934

0.0286555 0.00404777 -4.04131e-09
0.00404777 0.0295175 1.91912e-07
-4.04131e-09 1.91912e-07 0.0277136

0.0355791 0.00197499 1.95035e-07
0.00197499 0.0295019 1.47843e-07
1.95035e-07 1.47843e-07 0.0328416

0.0362577 -0.00211472 -7.95926e-08
-0.00211472 0.0297542 -8.43188e-08
-7.95926e-08 -8.43188e-08 0.0332168

0.0285096 -0.00309561 1.85732e-07
-0.00309561 0.0185684 1.5972e-07
1.85732e-07 1.5972e-07 0.0157294

0.0283525 -0.00278994 -1.87114e-07
-0.00278994 0.0327745 -4.68802e-08
-1.87114e-07 -4.68802e-08 0.0305705

0.0291902 0.00350064 1.47881e-07
0.00350064 0.0315984 -6.17221e-08
1.47881e-07 -6.17221e-08 0.0304863

0.0349584 -0.00290761 -1.10101e-07
-0.00290761 0.0376745 -2.53641e-07
-1.10101e-07 -2.53641e-07 0.0352351

0.0394597 0.00188524 -1.10252e-07
0.00188524 0.0446079 -2.17495e-07
-1.10252e-07 -2.17495e-07 0.036432

0.044944 0.00129034 -1.05248e-07
0.00129034 0.039116 7.48438e-08
-1.05248e-07 7.48438e-08 0.0364139

0.0355591 0.00434537 -4.6985e-08
0.00434537 0.0351337 3.57424e-08
-4.6985e-08 3.57424e-08 0.0350023

0.026571 0.00338792 6.42113e-08
0.00338792 0.0310048 5.66215e-08
6.42113e-08 5.66215e-08 0.0272548

0.0330383 0.00349705 1.15825e-07
0.00349705 0.0286658 3.23798e-08
1.15825e-07 3.23798e-08 0.030049

0.022059 0.00576402 3.15928e-07
0.00576402 0.0242367 -8.43723e-08
3.15928e-07 -8.43723e-08 0.0160718

0.0386177 -0.00151233 -8.38981e-08
-0.00151233 0.0444325 -3.81934e-08
-8.38981e-08 -3.81934e-08 0.0363611

0.046048 -0.00046561 4.09278e-07
-0.00046561 0.0454391 -4.2067e-07
4.09278e-07 -4.2067e-07 0.0366901

0.0451798 -3.13932e-05 -3.69527e-08
-3.13932e-05 0.0463021 -3.74391e-07
-3.69527e-08 -3.74391e-07 0.036672

0.0176404 -0.00679461 -3.13859e-07
-0.00679461 0.0231075 2.27883e-08
-3.13859e-07 2.27883e-08 0.0107381

0.0392916 -0.00155581 -9.33115e-08
-0.00155581 0.038714 -1.979e-07
-9.33115e-08 -1.979e-07 0.0358526

0.0383961 0.00117681 1.98723e-07
0.00117681 0.0415165 -7.49971e-08
1.98723e-07 -7.49971e-08 0.036124

0.0331738 -0.0034356 -5.8562e-08
-0.0034356 0.0282185 7.28791e-08
-5.8562e-08 7.28791e-08 0.0299024

0.0318436 0.000140382 -2.27329e-07
0.000140382 0.0386706 8.52945e-08
-2.27329e-07 8.52945e-08 0.0344494

0.0285758 -0.0026603 -2.84023e-07
-0.0026603 0.0333791 -1.53756e-07
-2.84023e-07 -1.53756e-07 0.0315882

0.0356606 0.000831858 1.83919e-07
0.000831858 0.0273766 -5.34913e-08
1.83919e-07 -5.34913e-08 0.032999

0.0288749 0.00204429 2.80996e-08
0.00204429 0.0368151 -2.04466e-07
2.80996e-08 -2.04466e-07 0.0336686

0.0298685 0.000946262 1.01024e-07
0.000946262 0.0373873 -1.99486e-07
1.01024e-07 -1.99486e-07 0.0333625

0.0343998 0.00268501 5.26473e-08
0.00268501 0.0288504 4.04708e-08
5.26473e-08 4.04708e-08 0.0312253

0.0132788 -0.000409378 -4.83315e-08
-0.000409378 0.0281221 1.00068e-07
-4.83315e-08 1.00068e-07 0.011201

0.0309637 -0.003626 -2.95856e-07
-0.003626 0.0309143 -1.23167e-07
-2.95856e-07 -1.23167e-07 0.0306085

0.0329271 -0.0034432 -1.06446e-07
-0.0034432 0.0320194 1.63134e-08
-1.06446e-07 1.63134e-08 0.0325782

0.0335703 -0.00415943 1.87958e-08
-0.00415943 0.0325335 1.13304e-07
1.87958e-08 1.13304e-07 0.0337346

0.0265612 0.00414855 5.95689e-08
0.00414855 0.017691 2.62493e-08
5.95689e-08 2.62493e-08 0.0126048

0.0388275 -0.00269691 -1.82548e-07
-0.00269691 0.039576 -1.52579e-07
-1.82548e-07 -1.52579e-07 0.0359574

0.0230822 0.00692056 1.56396e-07
0.00692056 0.0255012 -2.95658e-07
1.56396e-07 -2.95658e-07 0.0126091

0.0308737 -0.00281762 2.16744e-07
-0.00281762 0.0348063 -3.59247e-09
2.16744e-07 -3.59247e-09 0.0339552

0.0354107 0.00193633 1.18821e-07
0.00193633 0.0284647 7.81855e-08
1.18821e-07 7.81855e-08 0.0323435

0.0318199 -0.0018934 -1.20981e-07
-0.0018934 0.0249499 -3.19176e-07
-1.20981e-07 -3.19176e-07 0.0253946

0.0292915 0.00315885 1.42995e-07
0.00315885 0.0327309 -4.71457e-08
1.42995e-07 -4.71457e-08 0.0312786

0.0344353 0.00268855 -3.08439e-08
0.00268855 0.0286336 2.38639e-07
-3.08439e-08 2.38639e-07 0.0312198

0.0325179 0.00149918 -1.94128e-08
0.00149918 0.0403727 3.48728e-07
-1.94128e-08 3.48728e-07 0.0353356

0.0319393 -0.00415439 9.80483e-08
-0.00415439 0.0312003 -3.31265e-07
9.80483e-08 -3.31265e-07 0.0318096

0.0396756 0.00265531 1.56334e-08
0.00265531 0.0331974 8.43403e-08
1.56334e-08 8.43403e-08 0.035315

0.0279707 -0.00241859 -1.44434e-07
-0.00241859 0.0335495 -3.01752e-07
-1.44434e-07 -3.01752e-07 0.0304696

0.02935 0.000558709 1.1078e-07
0.000558709 0.0373111 -1.98432e-07
1.1078e-07 -1.98432e-07 0.0332517

0.041943 0.00133756 4.8616e-07
0.00133756 0.0370994 -1.58139e-07
4.8616e-07 -1.58139e-07 0.0361153

0.0420973 -0.00114805 -1.83169e-08
-0.00114805 0.0373252 -1.97743e-08
-1.83169e-08 -1.97743e-08 0.0360972

0.0283824 0.002369 2.0934e-07
0.002369 0.0181811 4.03555e-09
2.0934e-07 4.03555e-09 0.0159493

0.0350249 0.00106118 1.09405e-07
0.00106118 0.0285651 7.87758e-08
1.09405e-07 7.87758e-08 0.033058

0.0128667 0.000923326 -4.82989e-08
0.000923326 0.0316257 1.01149e-07
-4.82989e-08 1.01149e-07 0.00612156

0.0131623 -0.0013881 1.43517e-07
-0.0013881 0.0321315 -1.459e-07
1.43517e-07 -1.459e-07 0.00611188

0.0152685 0.00715407 -6.39187e-08
0.00715407 0.0284524 1.04936e-07
-6.39187e-08 1.04936e-07 0.005984

0.0347637 -0.00382114 6.58184e-08
-0.00382114 0.031267 -1.5866e-07
6.58184e-08 -1.5866e-07 0.0329381

0.0155804 -0.00619417 7.71268e-08
-0.00619417 0.0261523 -3.16953e-07
7.71268e-08 -3.16953e-07 0.0104717

0.0155126 -0.00708666 -1.07702e-07
-0.00708666 0.0274229 -2.42053e-07
-1.07702e-07 -2.42053e-07 0.00591381

0.0284249 0.00342574 -2.40098e-08
0.00342574 0.0310051 5.63331e-08
-2.40098e-08 5.63331e-08 0.0281518

0.0251928 0.00932572 -2.21988e-07
0.00932572 0.0190204 5.58377e-09
-2.21988e-07 5.58377e-09 0.00593367

0.0365373 0.00173197 -3.38428e-07
0.00173197 0.0385507 1.1472e-07
-3.38428e-07 1.1472e-07 0.0354743

0.0395347 2.51288e-05 -1.98122e-07
2.51288e-05 0.0355388 1.78387e-07
-1.98122e-07 1.78387e-07 0.0354549

0.0261066 -0.00924425 -1.54378e-07
-0.00924425 0.0188122 1.0964e-08
-1.54378e-07 1.0964e-08 0.00588784

0.0276893 -0.003065 1.51867e-07
-0.003065 0.0320941 2.83173e-07
1.51867e-07 2.83173e-07 0.029622

0.0262545 0.00441798 -2.1836e-09
0.00441798 0.0201575 2.63953e-07
-2.1836e-09 2.63953e-07 0.0130443

0.0172789 0.00797292 1.01153e-07
0.00797292 0.0271484 1.58615e-08
1.01153e-07 1.58615e-08 0.00598768

0.0181959 0.00275503 -8.43397e-08
0.00275503 0.0275891 -1.47645e-07
-8.43397e-08 -1.47645e-07 0.0128498

0.0173038 -0.00827613 -1.42975e-07
-0.00827613 0.0271518 1.56041e-07
-1.42975e-07 1.56041e-07 0.00581364

0.0179325 -0.00157094 1.54234e-07
-0.00157094 0.0280049 -1.02992e-08
1.54234e-07 -1.02992e-08 0.0126902

0.0370497 0.000923372 -8.7451e-08
0.000923372 0.0412996 -3.02709e-08
-8.7451e-08 -3.02709e-08 0.0358091

0.0221307 -0.00585499 -5.99636e-08
-0.00585499 0.0236641 2.11815e-07
-5.99636e-08 2.11815e-07 0.0151584

0.0156998 0.00598603 -3.10518e-08
0.00598603 0.0259017 -2.69198e-07
-3.10518e-08 -2.69198e-07 0.0107499

0.0302079 0.00472997 -1.29439e-07
0.00472997 0.014349 -2.02485e-07
-1.29439e-07 -2.02485e-07 0.00611566

0.0329372 -0.00384918 1.12151e-07
-0.00384918 0.0301232 -1.82887e-08
1.12151e-07 -1.82887e-08 0.0310504

0.0308879 0.00169395 1.05258e-07
0.00169395 0.0368416 -2.07849e-07
1.05258e-07 -2.07849e-07 0.0339493

0.0260894 -0.00484376 -2.14747e-07
-0.00484376 0.0191967 -1.64588e-07
-2.14747e-07 -1.64588e-07 0.0126947

0.0329994 -0.00378574 1.12027e-07
-0.00378574 0.0300743 -1.86032e-08
1.12027e-07 -1.86032e-08 0.0311267

0.0300182 -0.00451976 -1.03936e-07
-0.00451976 0.0130533 1.58314e-07
-1.03936e-07 1.58314e-07 0.00603711

0.0324723 -0.00372736 1.99591e-07
-0.00372736 0.0313064 -1.82387e-07
1.99591e-07 -1.82387e-07 0.0319785

0.0280903 -0.003311 -1.91624e-07
-0.003311 0.0320025 -6.08167e-08
-1.91624e-07 -6.08167e-08 0.0296245

0.0234431 0.00874339 -9.85808e-08
0.00874339 0.0204824 2.00099e-07
-9.85808e-08 2.00099e-07 0.006026

0.0181992 -0.00292068 2.16661e-07
-0.00292068 0.0268659 1.5055e-08
2.16661e-07 1.5055e-08 0.0122696

0.0233141 -0.00901906 6.20645e-08
-0.00901906 0.0201516 3.53444e-07
6.20645e-08 3.53444e-07 0.00588383

0.0170821 0.00640805 -2.53379e-07
0.00640805 0.0235656 -1.36857e-07
-2.53379e-07 -1.36857e-07 0.0108307

0.0308254 -0.00396004 -2.50455e-07
-0.00396004 0.0301594 1.38451e-08
-2.50455e-07 1.38451e-08 0.0300846

0.0389169 -0.00195855 8.7407e-08
-0.00195855 0.0369399 2.24461e-07
8.7407e-08 2.24461e-07 0.0354986

0.045541 0.00150587 2.52206e-07
0.00150587 0.0449524 1.61755e-07
2.52206e-07 1.61755e-07 0.0366183

0.0435642 -0.00071153 -1.68028e-07
-0.00071153 0.0462302 -4.43393e-08
-1.68028e-07 -4.43393e-08 0.036584

0.0286147 0.00171593 -3.62646e-08
0.00171593 0.0355653 8.01387e-08
-3.62646e-08 8.01387e-08 0.0323887

0.0453362 -0.00144696 -1.97854e-08
-0.00144696 0.0449801 -2.33805e-07
-1.97854e-08 -2.33805e-07 0.036636

0.0438079 0.000567363 1.08961e-07
0.000567363 0.0465049 1.99525e-07
1.08961e-07 1.99525e-07 0.0366171

0.046679 0.000991263 4.57052e-07
0.000991263 0.043377 4.71993e-07
4.57052e-07 4.71993e-07 0.0365922

0.03975 -0.00163951 1.59174e-07
-0.00163951 0.0460759 4.61884e-08
1.59174e-07 4.61884e-08 0.036482

0.0190534 -0.00388715 2.2536e-07
-0.00388715 0.02723 -1.3912e-09
2.2536e-07 -1.3912e-09 0.0154706

0.0421403 -0.00175032 3.78919e-07
-0.00175032 0.0367247 1.65766e-07
3.78919e-07 1.65766e-07 0.0360039

0.0359632 -0.0045737 -1.90332e-07
-0.0045737 0.03515 6.36188e-08
-1.90332e-07 6.36188e-08 0.0349672

0.0397526 -0.00242134 1.82793e-07
-0.00242134 0.0360638 1.69105e-07
1.82793e-07 1.69105e-07 0.0355663

0.0351837 0.00204313 -1.19706e-08
0.00204313 0.0285482 2.40072e-07
-1.19706e-08 2.40072e-07 0.0322309

0.039692 0.00133798 1.80668e-07
0.00133798 0.0472279 -4.93267e-07
1.80668e-07 -4.93267e-07 0.0365478

0.0464969 0.00259399 -1.02167e-07
0.00259399 0.0404181 -3.14862e-07
-1.02167e-07 -3.14862e-07 0.036529

0.0400867 0.00150536 -4.71788e-08
0.00150536 0.0366726 3.58289e-08
-4.71788e-08 3.58289e-08 0.0356143

0.027914 -0.00191986 2.01536e-07
-0.00191986 0.0125243 1.26512e-07
2.01536e-07 1.26512e-07 0.0106242

0.0283177 0.00326761 -7.28752e-08
0.00326761 0.0315488 -1.47132e-07
-7.28752e-08 -1.47132e-07 0.0294097

0.0231874 -0.00773568 5.29955e-07
-0.00773568 0.0181794 -1.9106e-08
5.29955e-07 -1.9106e-08 0.0102891

0.02283 -0.00731547 4.60641e-07
-0.00731547 0.025768 -2.70365e-07
4.60641e-07 -2.70365e-07 0.0119541

0.0290219 -0.00464688 1.90585e-07
-0.00464688 0.0191278 1.58229e-07
1.90585e-07 1.58229e-07 0.0126147

0.0375737 -0.000660757 -5.51541e-08
-0.000660757 0.0449127 -2.28743e-07
-5.51541e-08 -2.28743e-07 0.0362929

0.0375714 0.000358499 -1.43513e-07
0.000358499 0.04479 9.73177e-08
-1.43513e-07 9.73177e-08 0.0362732

0.0426052 -0.00327444 -1.33225e-07
-0.00327444 0.0394489 5.78126e-08
-1.33225e-07 5.78126e-08 0.036227

0.0429987 -0.00294469 -1.49705e-07
-0.00294469 0.0391683 -1.69331e-07
-1.49705e-07 -1.69331e-07 0.036234

0.0425015 0.00350439 1.91932e-07
0.00350439 0.0399712 -6.24933e-09
1.91932e-07 -6.24933e-09 0.0362718

0.0443975 0.000417496 2.91388e-07
0.000417496 0.0450803 4.54962e-07
2.91388e-07 4.54962e-07 0.0366352

0.0426082 -0.0027445 2.04337e-08
-0.0027445 0.0395071 6.38743e-10
2.04337e-08 6.38743e-10 0.0362886

0.0426019 -0.00251248 7.38453e-08
-0.00251248 0.0442667 -2.23364e-07
7.38453e-08 -2.23364e-07 0.0365628

0.0451178 0.000332266 5.35635e-08
0.000332266 0.0454673 4.00547e-07
5.35635e-08 4.00547e-07 0.0366535

0.0436363 -0.00278318 -7.79839e-08
-0.00278318 0.0389162 1.26109e-07
-7.79839e-08 1.26109e-07 0.0363292

0.0435119 0.00283908 -1.29693e-07
0.00283908 0.0390688 -5.04454e-08
-1.29693e-07 -5.04454e-08 0.0363673

0.0451938 -0.000471538 -1.99946e-07
-0.000471538 0.0455825 8.50212e-08
-1.99946e-07 8.50212e-08 0.0367022

0.0452258 -0.000424927 -2.53e-07
-0.000424927 0.0443591 5.11219e-07
-2.53e-07 5.11219e-07 0.0367204

0.0427981 0.00163844 1.62299e-07
0.00163844 0.0442493 -1.83506e-07
1.62299e-07 -1.83506e-07 0.0366065

0.041116 0.00361828 4.61416e-08
0.00361828 0.0405155 1.62794e-07
4.61416e-08 1.62794e-07 0.0363211

SCALARS pressure float
LOOKUP_TABLE default
-60.0501
19.3081
5.8031
21.29
15.8788
5.88706
-58.6732
7.78288
-3.80512
15.1244
-24.4313
7.61703
5.59185
12.279
23.3378
5.53873
18.5207
13.207
-0.693171
6.75623
-0.905097
33.1354
5.80045
5.79653
6.60151
14.9026
-38.3845
6.67137
-15.2424
30.6267
5.17607
-15.6571
-42.0555
27.3264
20.7793
27.3593
31.885
19.8092
4.85936
-42.5988
-17.4073
31.9058
31.9939
5.99333
-21.8047
-15.9758
-1.05274
-3.40572
6.54448
-16.2177
-18.9187
-15.3459
20.7557
-15.3731
20.3088
-33.1482
21.1298
-15.4603
21.1397
7.04458
21.7646
16.1187
-45.5614
12.7897
16.362
10.9049
21.5739
13.8278
5.77316
21.8169
20.8117
20.7824
-17.6909
11.6004
3.97369
-31.609
14.3566
10.996
14.1459
-8.72021
-28.9445
14.9777
20.163
-22.0377
-23.4293
-28.0916
7.09745
9.6322
-22.2155
37.7421
-15.509
38.4448
18.3045
10.7613
-15.1666
-15.8727
-30.221
14.7532
14.3656
4.59845
-10.7664
-21.9394
-25.1012
16.2127
14.0999
14.9614
18.6974
3.77447
-24.5581
26.5131
7.2172
-21.4087
-24.6117
14.8376
15.0778
-16.1457
20.1651
-29.1129
20.6287
-16.7293
-2.90503
23.834
21.7269
16.0328
26.6798
22.6316
21.7858
15.7083
-29.7806
-16.099
24.0918
21.6171
20.9892
22.0655
-22.0138
23.5875
-33.8369
5.46313
21.7543
23.6308
-21.9367
6.67621
-5.96698
15.0833
-30.4071
15.6237
7.8329
2.40728
5.17748
-9.39469
-0.458323
22.6414
-15.4546
5.29075
15.2039
21.5603
11.508
-21.1132
-21.2637
10.7901
-2.84304
-15.1976
-21.2202
-15.1653
-20.9864
15.2795
-20.6358
-21.2015
-15.2079
-21.0637
19.0044
-15.941
-14.8245
12.0642
-14.4847
18.8027
19.0534
7.47243
18.048
11.7727
-16.249
15.288
14.9607
-21.5284
10.4263
-14.2213
16.0485
14.5954
17.0818
14.8349
10.3436
-26.976
-16.0823
-15.9581
21.9068
14.5255
14.6243
20.9225
22.4868
9.50244
21.7336
-0.385075
-8.1711
20.7787
-17.8387
19.9455
10.364
-21.5174
15.721
22.526
14.7311
9.3932
14.1896
21.0556
-7.83316
8.8273
-7.90896
14.6481
26.9277
26.5814
27.9606
26.3886
26.7244
26.291
13.8256
23.4304
24.0296
23.9738
23.4001
21.1928
21.8574
-8.26321
15.9333
28.1911
-3.18909
23.5762
23.2054
27.8344
-8.49391
28.0965
15.3444
-7.58199
17.492
-8.25818
20.2271
29.6128
-7.48638
-8.10113
-29.5916
-18.189
19.5272
-31.9851
5.73393
-7.79433
-1.19
28.2492
26.6403
30.4271
26.761
-34.8005
-8.18003
28.3374
8.07244
-8.29553
26.446
-6.29571
30.472
-7.95446
27.0472
14.5659
14.7868
23.8453
10.0472
18.021
8.11664
-29.8596
-24.5528
16.8068
1.75915
8.17909
-13.609
17.4357
11.6996
-8.10189
9.45183
-10.8237
7.51649
-10.7549
-8.4851
33.2652
19.1517
25.0884
25.3127
13.8288
-10.4048
26.4301
14.6848
-1.65954
-10.2742
-12.5644
17.5066
-7.48563
17.5745
-12.0415
-21.3502
-10.6085
-34.6808
15.5623
-7.76336
34.4432
-11.5782
16.8712
-8.40914
15.9726
-12.7585
4.28862
-51.1175
8.52113
-7.74703
21.3339
-8.15254
-0.123464
10.7151
21.124
-12.0609
-10.201
-6.06877
14.3177
-10.1803
6.88744
6.38509
16.3054
-10.4198
-6.33088
-1.70291
-5.66098
-11.0787
-5.8452
15.3053
7.80746
-5.55657
-8.96083
7.8049
7.69376
-10.6749
16.3093
-27.2129
2.29242
-28.4809
-0.958161
-8.87758
-8.09587
-11.7785
-10.9421
-9.88045
-7.77547
-7.89883
16.6376
24.7781
12.1155
-0.292311
-0.825873
-5.67515
7.30462
-6.32124
-6.31853
24.924
-5.73057
14.1178
-15.9085
24.3254
5.96745
-0.391866
-5.64443
16.2749
2.47642
0.198348
2.4474
0.455215
-0.741566
-9.93064
-0.09631
2.11258
15.0688
-1.28899
-1.40788
-0.999534
-0.389284
1.96461
8.05009
-1.19427
8.07754
5.58252
-0.436348
7.03463
5.48955
-3.87712
16.4764
-1.90406
23.0623
-21.9731
15.0439
15.6821
2.03896
-1.99814
12.5425
-26.5055
5.79154
-1.65859
-50.4819
30.4991
30.6358
5.82418
-1.14508
-1.04748
-0.85041
33.42
33.2947
13.0944
6.08129
6.66175
-28.9616
-1.28014
16.5333
-3.18334
-4.34874
-0.017657
-25.2702
14.3029
-1.28091
2.8611
2.69249
-2.72392
-0.0500334
-3.21014
-4.03419
-37.9815
-33.6828
-0.12874
1.87379
-0.534778
-3.74483
-1.93726
-1.87837
-0.925
-21.907
17.2495
-0.770051
12.5647
14.1833
-26.7635
6.28561
7.13614
18.4778
36.429
36.4615
22.6388
-1.75652
2.59894
-20.9292
36.1276
32.7613
32.8283
-24.8076
21.7759
30.5243
2.59842
15.7239
10.3707
17.1641
17.7259
12.5052
5.68073
-25.397
4.25941
10.4088
16.2438
-31.7089
28.3104
-52.7088
18.6847
10.2985
-10.6278
7.41673
5.45644
24.4747
9.41047
24.4077
4.1045
12.3995
30.6414
29.4672
-22.9896
17.4351
-70.2275
-74.3739
-67.1716
11.6479
-31.2587
-63.605
-3.80414
-69.933
16.4633
16.407
-73.749
5.21138
-39.7285
-70.7335
-37.7545
-71.8698
-39.4499
21.1372
-23.9594
-29.0427
-70.6174
4.83076
15.7573
-36.1883
6.05283
-63.6127
9.83535
3.88091
-67.896
-37.622
-66.4056
-23.7543
5.02834
20.5265
35.3733
36.7291
11.8114
36.853
36.9063
36.4946
36.4065
-24.4782
28.249
20.6691
21.9811
11.534
36.0624
36.0938
18.1204
-23.939
3.24581
-30.5249
-56.5948
-50.4721
36.1454
35.8261
35.3827
35.453
36.1614
35.6013
33.1118
37.3732
35.4026
36.0082
35.6404
34.199
34.3356
35.8587
35.3115
