# vtk DataFile Version 3.0
vtk output at time 70
ASCII
DATASET UNSTRUCTURED_GRID
POINTS 626 float
-3.68058e-05 0.000978749 0 3.68058e-05 0.000978749 0 -0.000829194 0.00052125 0 
-0.0008235 0.0005 0 -0.000866 0.0004575 0 -0.000866 -0.0004575 0 
-0.0008235 -0.0005 0 -0.000829194 -0.00052125 0 -3.68058e-05 -0.000978749 0 
3.68058e-05 -0.000978749 0 0.000829194 -0.00052125 0 0.000866 -0.0004575 0 
0.000866 0.0004575 0 0.000829194 0.00052125 0 8.5e-05 0 0 
-3.68058e-05 0.000978749 -0.001 3.68058e-05 0.000978749 -0.001 -0.000829194 0.00052125 -0.001 
-0.0008235 0.0005 -0.001 -0.000866 0.0004575 -0.001 -0.000866 -0.0004575 -0.001 
-0.0008235 -0.0005 -0.001 -0.000829194 -0.00052125 -0.001 -3.68058e-05 -0.000978749 -0.001 
3.68058e-05 -0.000978749 -0.001 0.000829194 -0.00052125 -0.001 0.000866 -0.0004575 -0.001 
0.000866 0.0004575 -0.001 0.000829194 0.00052125 -0.001 8.5e-05 0 -0.001 
8.46223e-17 0.0009575 0 -0.000715996 0.000586607 0 -0.000602797 0.000651965 0 
-0.000489599 0.000717321 0 -0.000376401 0.000782678 0 -0.000263202 0.000848036 0 
-0.000150004 0.000913393 0 -0.000835948 0.000469948 0 -0.000866 -0.000326786 0 
-0.000866 -0.000196071 0 -0.000866 -6.53571e-05 0 -0.000866 6.53571e-05 0 
-0.000866 0.000196071 0 -0.000866 0.000326786 0 -0.000835948 -0.000469948 0 
-0.000150004 -0.000913393 0 -0.000263202 -0.000848036 0 -0.000376401 -0.000782678 0 
-0.000489599 -0.000717321 0 -0.000602797 -0.000651965 0 -0.000715996 -0.000586607 0 
8.47648e-17 -0.0009575 0 0.000715996 -0.000586607 0 0.000602797 -0.000651965 0 
0.000489599 -0.000717321 0 0.000376401 -0.000782678 0 0.000263202 -0.000848036 0 
0.000150004 -0.000913393 0 0.000829194 -0.00047875 0 0.000866 0.000326786 0 
0.000866 0.000196071 0 0.000866 6.53571e-05 0 0.000866 -6.53571e-05 0 
0.000866 -0.000196071 0 0.000866 -0.000326786 0 0.000829194 0.00047875 0 
0.000150004 0.000913393 0 0.000263202 0.000848036 0 0.000376401 0.000782678 0 
0.000489599 0.000717321 0 0.000602797 0.000651965 0 0.000715996 0.000586607 0 
5.29966e-05 6.64557e-05 0 -1.89143e-05 8.28689e-05 0 -7.65824e-05 3.68801e-05 0 
-7.65824e-05 -3.68801e-05 0 -1.89143e-05 -8.28689e-05 0 5.29966e-05 -6.64557e-05 0 
8.46223e-17 0.0009575 -0.001 -0.000715996 0.000586607 -0.001 -0.000602797 0.000651965 -0.001 
-0.000489599 0.000717321 -0.001 -0.000376401 0.000782678 -0.001 -0.000263202 0.000848036 -0.001 
-0.000150004 0.000913393 -0.001 -0.000835948 0.000469948 -0.001 -0.000866 -0.000326786 -0.001 
-0.000866 -0.000196071 -0.001 -0.000866 -6.53571e-05 -0.001 -0.000866 6.53571e-05 -0.001 
-0.000866 0.000196071 -0.001 -0.000866 0.000326786 -0.001 -0.000835948 -0.000469948 -0.001 
-0.000150004 -0.000913393 -0.001 -0.000263202 -0.000848036 -0.001 -0.000376401 -0.000782678 -0.001 
-0.000489599 -0.000717321 -0.001 -0.000602797 -0.000651965 -0.001 -0.000715996 -0.000586607 -0.001 
8.47648e-17 -0.0009575 -0.001 0.000715996 -0.000586607 -0.001 0.000602797 -0.000651965 -0.001 
0.000489599 -0.000717321 -0.001 0.000376401 -0.000782678 -0.001 0.000263202 -0.000848036 -0.001 
0.000150004 -0.000913393 -0.001 0.000829194 -0.00047875 -0.001 0.000866 0.000326786 -0.001 
0.000866 0.000196071 -0.001 0.000866 6.53571e-05 -0.001 0.000866 -6.53571e-05 -0.001 
0.000866 -0.000196071 -0.001 0.000866 -0.000326786 -0.001 0.000829194 0.00047875 -0.001 
0.000150004 0.000913393 -0.001 0.000263202 0.000848036 -0.001 0.000376401 0.000782678 -0.001 
0.000489599 0.000717321 -0.001 0.000602797 0.000651965 -0.001 0.000715996 0.000586607 -0.001 
5.29966e-05 6.64557e-05 -0.001 -1.89143e-05 8.28689e-05 -0.001 -7.65824e-05 3.68801e-05 -0.001 
-7.65824e-05 -3.68801e-05 -0.001 -1.89143e-05 -8.28689e-05 -0.001 5.29966e-05 -6.64557e-05 -0.001 
0.000131234 6.38474e-05 0 0.00012964 -6.2443e-05 0 3.13827e-05 0.0001394 0 
3.12554e-05 -0.000136939 0 -0.000140461 8.25467e-19 0 -8.90565e-05 -0.000102707 0 
-9.04142e-05 0.000102872 0 -0.000765769 -0.00025965 0 -0.000756873 0.000262774 0 
-0.00015609 0.000787505 0 -0.000155807 -0.00079355 0 0.000605069 0.000528035 0 
0.000608694 -0.00052497 0 0.000744069 0.000116929 0 -0.000494418 0.000596218 0 
-0.000483866 -0.000584648 0 0.000269496 0.000702219 0 0.000263201 -0.000717324 0 
0.000754429 -0.000127825 0 -0.000748858 5.84659e-07 0 -0.000747838 0.000373886 0 
-0.0006542 0.000324842 0 -0.000645137 0.000210123 0 -0.000550884 0.000274171 0 
-0.000538857 0.000163195 0 -0.00045062 0.000224461 0 -0.000438393 0.000123907 0 
-0.000354088 0.000181668 0 -0.000363908 0.000282171 0 -0.000270361 0.000239477 0 
-0.000279138 0.000337653 0 -0.000188888 0.000294791 0 -0.000196448 0.000393271 0 
-0.000104767 0.000348259 0 -0.000113332 0.000449012 0 -2.01066e-05 0.000403223 0 
-2.89189e-05 0.000507105 0 6.9524e-05 0.000461596 0 -0.000213644 0.000490203 0 
7.33757e-05 0.000357726 0 0.000163331 0.00041299 0 0.000163359 0.000313022 0 
0.000248077 0.000366368 0 0.000250914 0.000265758 0 0.000335709 0.000322266 0 
0.000340555 0.000218148 0 0.000427299 0.000276717 0 0.000431508 0.000173093 0 
0.000328731 0.000425633 0 0.00034586 0.000114823 0 0.000435362 7.05241e-05 0 
0.000350892 1.5455e-05 0 0.000441547 -3.11896e-05 0 0.000353547 -8.47783e-05 0 
0.000445767 -0.000132964 0 0.000356135 -0.000186358 0 0.000449094 -0.000234674 0 
0.000359978 -0.000287876 0 0.00026856 -0.000240545 0 0.000271895 -0.000341045 0 
0.000181792 -0.00029305 0 0.00018533 -0.000392851 0 9.75701e-05 -0.00034483 0 
9.98764e-05 -0.000444884 0 8.75116e-06 -0.000396343 0 1.20916e-05 -0.000500496 0 
-7.83929e-05 -0.000449843 0 -8.1471e-05 -0.000347249 0 -0.000171566 -0.000403733 0 
-0.000169889 -0.000298891 0 -0.000259867 -0.000354132 0 -0.000257696 -0.000249137 0 
-0.00034313 -0.000299896 0 -0.000344514 -0.000199127 0 -0.000434309 -0.000250039 0 
-0.000169832 -0.000505815 0 -0.000435227 -0.000146227 0 0.000280331 -0.000442424 0 
-0.000340889 8.76793e-05 0 -0.000515252 4.06198e-05 0 6.50491e-05 0.000568253 0 
0.00053278 1.74743e-05 0 0.000522071 0.000229831 0 -0.00037162 0.000391659 0 
-0.000255272 -0.000150439 0 -0.000442893 -0.000350705 0 0.000450067 -0.000332559 0 
0.000545175 -0.000276306 0 -0.000527797 -0.000197598 0 0.000105306 -0.000551033 0 
1.45836e-05 -0.000609147 0 0.00017145 0.000214453 0 0.000515525 0.000341711 0 
0.000636086 0.000290368 0 -0.000558657 0.000404468 0 -4.01232e-05 0.000616718 0 
6.60192e-05 0.000696422 0 -0.000101806 0.0002546 0 0.000271142 -3.88908e-05 0 
0.000179455 -0.00018534 0 -8.79553e-05 -0.000254307 0 -0.000749267 -0.000373451 0 
-0.000655941 -0.000323397 0 0.000709746 0.000466718 0 0.000698426 -0.000473086 0 
-5.25801e-05 -0.00084886 0 -4.93005e-05 0.000848038 0 0.000617396 -0.000413362 0 
0.000702056 -0.000369817 0 0.000131459 -0.000679171 0 2.48171e-05 -0.000715924 0 
-0.000664217 -0.00042729 0 -0.000528828 -8.80444e-05 0 -0.000611101 -0.000136672 0 
-0.000426972 -4.45841e-05 0 0.000800669 0.000378216 0 0.000821144 -0.000415062 0 
7.2799e-05 0.00088254 0 6.81831e-05 -0.00087503 0 0.000104963 -0.000788946 0 
-7.40696e-05 -0.000660054 0 0.000126061 0.000809943 0 0.000764361 0.000295682 0 
0.000166862 0.000630623 0 0.000516462 -0.00046707 0 -0.000563585 -0.000389606 0 
-0.000622598 -1.40238e-05 0 0.000629891 0.000171529 0 2.5614e-06 -0.000299794 0 
8.6901e-05 -0.00024329 0 0.000272045 -0.000136982 0 -0.00075148 0.000138321 0 
0.000209366 -0.000599589 0 0.000324913 -0.000630055 0 0.000614044 0.00041245 0 
0.00049651 -0.000573327 0 0.000394822 -0.000507321 0 -0.000173714 -0.000206698 0 
0.000264897 5.63722e-05 0 0.000247997 0.000152811 0 -4.63327e-05 -0.000920208 0 
9.18688e-05 0.000258626 0 -5.54111e-06 0.000290558 0 -0.000184219 0.000201484 0 
-0.000263559 0.000142267 0 -0.000256427 5.13624e-05 0 -0.000336894 -2.06179e-06 0 
-0.000228499 -4.2388e-05 0 -0.00017589 0.000106626 0 -0.000769947 -0.000133367 0 
0.000767591 -0.000500293 0 -5.05874e-05 0.000737978 0 0.000754456 -3.51771e-06 0 
0.00064691 -6.15298e-05 0 0.000630483 -0.00018134 0 0.000749187 -0.000265543 0 
-0.000760805 -0.000462521 0 0.000638155 6.09315e-05 0 -4.46661e-05 0.000922995 0 
-2.37945e-05 0.000207237 0 0.000776979 0.000500181 0 -0.000605691 0.000527596 0 
-0.000377914 -0.000653727 0 -0.000372325 -0.000526022 0 -0.000275829 -0.000589621 0 
-0.000254285 -0.000710579 0 -0.000379307 0.000656222 0 -0.000379818 0.00052718 0 
-0.000266817 0.000721555 0 -0.000150544 0.000668174 0 0.000381963 0.00065079 0 
0.000493113 0.000590432 0 0.000505439 0.000463708 0 -0.000269094 0.000596608 0 
0.000385815 0.000532045 0 0.000283599 0.0005899 0 -0.000176405 -0.000108505 0 
-0.000278769 -0.000475415 0 0.000185395 2.33014e-06 0 0.000186773 0.000517571 0 
0.000540032 -8.68444e-05 0 -0.000600694 -0.000514877 0 -0.00063703 8.98033e-05 0 
-0.000459677 0.000335729 0 -0.000338836 -0.000100751 0 -0.000457327 0.000432721 0 
-8.72007e-06 -0.000210238 0 0.000156073 0.000129496 0 -7.70692e-05 -0.000555049 0 
0.00036091 -0.000389728 0 0.000531628 0.000120564 0 -0.000285451 0.000435562 0 
0.000192719 -0.000494604 0 0.00041642 0.00039368 0 -0.000135943 0.000554637 0 
-0.000170665 -0.000610079 0 -0.000666304 0.000434981 0 -0.000758736 0.000479231 0 
-0.000470189 -0.000458901 0 0.000203433 -8.59809e-05 0 0.000101846 0.000170114 0 
-0.00035513 -0.00040726 0 0.000100184 -0.000165831 0 2.96286e-05 0.00081537 0 
0.000720946 0.000381836 0 -0.000539809 -0.000292001 0 0.00052211 -0.000182426 0 
-6.41339e-05 -0.000753908 0 0.000638039 -0.000299861 0 -0.000605136 -0.000230182 0 
-3.41638e-05 -0.000145561 0 -0.000104037 0.000172396 0 -0.000808575 -0.00042774 0 
-0.000807207 -0.000465052 0 -0.00080817 0.000429771 0 -0.000806589 0.000469738 0 
-9.50634e-05 -0.000178909 0 0.000247777 0.000445058 0 1.48293e-05 -0.000814201 0 
-4.11555e-05 0.000140955 0 0.000276104 -0.000536845 0 0.000765969 -0.000436638 0 
0.000780871 -0.000362769 0 0.000424176 -0.000642018 0 0.00053413 -0.000368009 0 
-0.000416333 4.17911e-05 0 -0.000133891 -6.23822e-05 0 4.2574e-05 0.000206312 0 
0.000141163 -0.000121542 0 0.000707423 0.000212137 0 0.000172327 0.000723882 0 
7.72652e-06 -0.00090254 0 -0.000134435 5.66935e-05 0 -0.000188826 3.70894e-05 0 
0.000197119 8.09714e-05 0 1.27801e-05 0.000917296 0 0.000800767 0.00044758 0 
-0.000686682 0.000507104 0 9.35831e-05 0.000110457 0 -0.000696793 -0.000509595 0 
-0.00068446 -8.52012e-05 0 -0.000691033 -0.000201242 0 5.24052e-05 -0.000189075 0 
-0.000151818 -0.000701092 0 -0.000296988 0.000518087 0 9.31023e-05 -0.000108117 0 
0.00044261 -0.000416726 0 0.000197044 -0.000784423 0 -0.000516861 0.000504567 0 
0.000298997 0.000502377 0 0.000131234 6.38474e-05 -0.001 0.00012964 -6.2443e-05 -0.001 
3.13827e-05 0.0001394 -0.001 3.12554e-05 -0.000136939 -0.001 -0.000140461 8.25467e-19 -0.001 
-8.90565e-05 -0.000102707 -0.001 -9.04142e-05 0.000102872 -0.001 -0.000765769 -0.00025965 -0.001 
-0.000756873 0.000262774 -0.001 -0.00015609 0.000787505 -0.001 -0.000155807 -0.00079355 -0.001 
0.000605069 0.000528035 -0.001 0.000608694 -0.00052497 -0.001 0.000744069 0.000116929 -0.001 
-0.000494418 0.000596218 -0.001 -0.000483866 -0.000584648 -0.001 0.000269496 0.000702219 -0.001 
0.000263201 -0.000717324 -0.001 0.000754429 -0.000127825 -0.001 -0.000748858 5.84659e-07 -0.001 
-0.000747838 0.000373886 -0.001 -0.0006542 0.000324842 -0.001 -0.000645137 0.000210123 -0.001 
-0.000550884 0.000274171 -0.001 -0.000538857 0.000163195 -0.001 -0.00045062 0.000224461 -0.001 
-0.000438393 0.000123907 -0.001 -0.000354088 0.000181668 -0.001 -0.000363908 0.000282171 -0.001 
-0.000270361 0.000239477 -0.001 -0.000279138 0.000337653 -0.001 -0.000188888 0.000294791 -0.001 
-0.000196448 0.000393271 -0.001 -0.000104767 0.000348259 -0.001 -0.000113332 0.000449012 -0.001 
-2.01066e-05 0.000403223 -0.001 -2.89189e-05 0.000507105 -0.001 6.9524e-05 0.000461596 -0.001 
-0.000213644 0.000490203 -0.001 7.33757e-05 0.000357726 -0.001 0.000163331 0.00041299 -0.001 
0.000163359 0.000313022 -0.001 0.000248077 0.000366368 -0.001 0.000250914 0.000265758 -0.001 
0.000335709 0.000322266 -0.001 0.000340555 0.000218148 -0.001 0.000427299 0.000276717 -0.001 
0.000431508 0.000173093 -0.001 0.000328731 0.000425633 -0.001 0.00034586 0.000114823 -0.001 
0.000435362 7.05241e-05 -0.001 0.000350892 1.5455e-05 -0.001 0.000441547 -3.11896e-05 -0.001 
0.000353547 -8.47783e-05 -0.001 0.000445767 -0.000132964 -0.001 0.000356135 -0.000186358 -0.001 
0.000449094 -0.000234674 -0.001 0.000359978 -0.000287876 -0.001 0.00026856 -0.000240545 -0.001 
0.000271895 -0.000341045 -0.001 0.000181792 -0.00029305 -0.001 0.00018533 -0.000392851 -0.001 
9.75701e-05 -0.00034483 -0.001 9.98764e-05 -0.000444884 -0.001 8.75116e-06 -0.000396343 -0.001 
1.20916e-05 -0.000500496 -0.001 -7.83929e-05 -0.000449843 -0.001 -8.1471e-05 -0.000347249 -0.001 
-0.000171566 -0.000403733 -0.001 -0.000169889 -0.000298891 -0.001 -0.000259867 -0.000354132 -0.001 
-0.000257696 -0.000249137 -0.001 -0.00034313 -0.000299896 -0.001 -0.000344514 -0.000199127 -0.001 
-0.000434309 -0.000250039 -0.001 -0.000169832 -0.000505815 -0.001 -0.000435227 -0.000146227 -0.001 
0.000280331 -0.000442424 -0.001 -0.000340889 8.76793e-05 -0.001 -0.000515252 4.06198e-05 -0.001 
6.50491e-05 0.000568253 -0.001 0.00053278 1.74743e-05 -0.001 0.000522071 0.000229831 -0.001 
-0.00037162 0.000391659 -0.001 -0.000255272 -0.000150439 -0.001 -0.000442893 -0.000350705 -0.001 
0.000450067 -0.000332559 -0.001 0.000545175 -0.000276306 -0.001 -0.000527797 -0.000197598 -0.001 
0.000105306 -0.000551033 -0.001 1.45836e-05 -0.000609147 -0.001 0.00017145 0.000214453 -0.001 
0.000515525 0.000341711 -0.001 0.000636086 0.000290368 -0.001 -0.000558657 0.000404468 -0.001 
-4.01232e-05 0.000616718 -0.001 6.60192e-05 0.000696422 -0.001 -0.000101806 0.0002546 -0.001 
0.000271142 -3.88908e-05 -0.001 0.000179455 -0.00018534 -0.001 -8.79553e-05 -0.000254307 -0.001 
-0.000749267 -0.000373451 -0.001 -0.000655941 -0.000323397 -0.001 0.000709746 0.000466718 -0.001 
0.000698426 -0.000473086 -0.001 -5.25801e-05 -0.00084886 -0.001 -4.93005e-05 0.000848038 -0.001 
0.000617396 -0.000413362 -0.001 0.000702056 -0.000369817 -0.001 0.000131459 -0.000679171 -0.001 
2.48171e-05 -0.000715924 -0.001 -0.000664217 -0.00042729 -0.001 -0.000528828 -8.80444e-05 -0.001 
-0.000611101 -0.000136672 -0.001 -0.000426972 -4.45841e-05 -0.001 0.000800669 0.000378216 -0.001 
0.000821144 -0.000415062 -0.001 7.2799e-05 0.00088254 -0.001 6.81831e-05 -0.00087503 -0.001 
0.000104963 -0.000788946 -0.001 -7.40696e-05 -0.000660054 -0.001 0.000126061 0.000809943 -0.001 
0.000764361 0.000295682 -0.001 0.000166862 0.000630623 -0.001 0.000516462 -0.00046707 -0.001 
-0.000563585 -0.000389606 -0.001 -0.000622598 -1.40238e-05 -0.001 0.000629891 0.000171529 -0.001 
2.5614e-06 -0.000299794 -0.001 8.6901e-05 -0.00024329 -0.001 0.000272045 -0.000136982 -0.001 
-0.00075148 0.000138321 -0.001 0.000209366 -0.000599589 -0.001 0.000324913 -0.000630055 -0.001 
0.000614044 0.00041245 -0.001 0.00049651 -0.000573327 -0.001 0.000394822 -0.000507321 -0.001 
-0.000173714 -0.000206698 -0.001 0.000264897 5.63722e-05 -0.001 0.000247997 0.000152811 -0.001 
-4.63327e-05 -0.000920208 -0.001 9.18688e-05 0.000258626 -0.001 -5.54111e-06 0.000290558 -0.001 
-0.000184219 0.000201484 -0.001 -0.000263559 0.000142267 -0.001 -0.000256427 5.13624e-05 -0.001 
-0.000336894 -2.06179e-06 -0.001 -0.000228499 -4.2388e-05 -0.001 -0.00017589 0.000106626 -0.001 
-0.000769947 -0.000133367 -0.001 0.000767591 -0.000500293 -0.001 -5.05874e-05 0.000737978 -0.001 
0.000754456 -3.51771e-06 -0.001 0.00064691 -6.15298e-05 -0.001 0.000630483 -0.00018134 -0.001 
0.000749187 -0.000265543 -0.001 -0.000760805 -0.000462521 -0.001 0.000638155 6.09315e-05 -0.001 
-4.46661e-05 0.000922995 -0.001 -2.37945e-05 0.000207237 -0.001 0.000776979 0.000500181 -0.001 
-0.000605691 0.000527596 -0.001 -0.000377914 -0.000653727 -0.001 -0.000372325 -0.000526022 -0.001 
-0.000275829 -0.000589621 -0.001 -0.000254285 -0.000710579 -0.001 -0.000379307 0.000656222 -0.001 
-0.000379818 0.00052718 -0.001 -0.000266817 0.000721555 -0.001 -0.000150544 0.000668174 -0.001 
0.000381963 0.00065079 -0.001 0.000493113 0.000590432 -0.001 0.000505439 0.000463708 -0.001 
-0.000269094 0.000596608 -0.001 0.000385815 0.000532045 -0.001 0.000283599 0.0005899 -0.001 
-0.000176405 -0.000108505 -0.001 -0.000278769 -0.000475415 -0.001 0.000185395 2.33014e-06 -0.001 
0.000186773 0.000517571 -0.001 0.000540032 -8.68444e-05 -0.001 -0.000600694 -0.000514877 -0.001 
-0.00063703 8.98033e-05 -0.001 -0.000459677 0.000335729 -0.001 -0.000338836 -0.000100751 -0.001 
-0.000457327 0.000432721 -0.001 -8.72007e-06 -0.000210238 -0.001 0.000156073 0.000129496 -0.001 
-7.70692e-05 -0.000555049 -0.001 0.00036091 -0.000389728 -0.001 0.000531628 0.000120564 -0.001 
-0.000285451 0.000435562 -0.001 0.000192719 -0.000494604 -0.001 0.00041642 0.00039368 -0.001 
-0.000135943 0.000554637 -0.001 -0.000170665 -0.000610079 -0.001 -0.000666304 0.000434981 -0.001 
-0.000758736 0.000479231 -0.001 -0.000470189 -0.000458901 -0.001 0.000203433 -8.59809e-05 -0.001 
0.000101846 0.000170114 -0.001 -0.00035513 -0.00040726 -0.001 0.000100184 -0.000165831 -0.001 
2.96286e-05 0.00081537 -0.001 0.000720946 0.000381836 -0.001 -0.000539809 -0.000292001 -0.001 
0.00052211 -0.000182426 -0.001 -6.41339e-05 -0.000753908 -0.001 0.000638039 -0.000299861 -0.001 
-0.000605136 -0.000230182 -0.001 -3.41638e-05 -0.000145561 -0.001 -0.000104037 0.000172396 -0.001 
-0.000808575 -0.00042774 -0.001 -0.000807207 -0.000465052 -0.001 -0.00080817 0.000429771 -0.001 
-0.000806589 0.000469738 -0.001 -9.50634e-05 -0.000178909 -0.001 0.000247777 0.000445058 -0.001 
1.48293e-05 -0.000814201 -0.001 -4.11555e-05 0.000140955 -0.001 0.000276104 -0.000536845 -0.001 
0.000765969 -0.000436638 -0.001 0.000780871 -0.000362769 -0.001 0.000424176 -0.000642018 -0.001 
0.00053413 -0.000368009 -0.001 -0.000416333 4.17911e-05 -0.001 -0.000133891 -6.23822e-05 -0.001 
4.2574e-05 0.000206312 -0.001 0.000141163 -0.000121542 -0.001 0.000707423 0.000212137 -0.001 
0.000172327 0.000723882 -0.001 7.72652e-06 -0.00090254 -0.001 -0.000134435 5.66935e-05 -0.001 
-0.000188826 3.70894e-05 -0.001 0.000197119 8.09714e-05 -0.001 1.27801e-05 0.000917296 -0.001 
0.000800767 0.00044758 -0.001 -0.000686682 0.000507104 -0.001 9.35831e-05 0.000110457 -0.001 
-0.000696793 -0.000509595 -0.001 -0.00068446 -8.52012e-05 -0.001 -0.000691033 -0.000201242 -0.001 
5.24052e-05 -0.000189075 -0.001 -0.000151818 -0.000701092 -0.001 -0.000296988 0.000518087 -0.001 
9.31023e-05 -0.000108117 -0.001 0.00044261 -0.000416726 -0.001 0.000197044 -0.000784423 -0.001 
-0.000516861 0.000504567 -0.001 0.000298997 0.000502377 -0.001 

CELLS 563 3941
6 14 304 127 29 554 377 
6 143 259 55 393 509 103 
6 300 319 174 550 569 424 
6 259 349 55 509 599 103 
6 50 365 307 98 615 557 
6 299 320 164 549 570 414 
6 126 304 14 376 554 29 
6 298 319 300 548 569 550 
6 205 240 238 455 490 488 
6 257 308 145 507 558 395 
6 130 352 273 380 602 523 
6 295 320 299 545 570 549 
6 324 327 289 574 577 539 
6 235 258 143 485 508 393 
6 50 307 49 98 557 97 
6 207 283 279 457 533 529 
6 143 373 235 393 623 485 
6 145 308 252 395 558 502 
6 194 303 196 444 553 446 
6 279 306 207 529 556 457 
6 206 305 163 456 555 413 
6 51 357 9 99 607 24 
6 238 252 205 488 502 455 
6 293 317 209 543 567 459 
6 207 316 283 457 566 533 
6 142 301 249 392 551 499 
6 273 359 130 523 609 380 
6 211 327 324 461 577 574 
6 169 265 217 419 515 467 
6 7 365 50 22 615 98 
6 283 316 253 533 566 503 
6 159 268 223 409 518 473 
6 274 337 132 524 587 382 
6 232 361 329 482 611 579 
6 231 266 45 481 516 93 
6 229 362 330 479 612 580 
6 9 244 57 24 494 105 
6 230 276 52 480 526 100 
6 209 311 293 459 561 543 
6 131 342 302 381 592 552 
6 270 271 204 520 521 454 
6 66 243 1 114 493 16 
6 59 241 12 107 491 27 
6 280 306 279 530 556 529 
6 269 337 274 519 587 524 
6 179 256 224 429 506 474 
6 163 305 166 413 555 416 
6 201 303 194 451 553 444 
6 280 332 306 530 582 556 
6 186 255 225 436 505 475 
6 210 310 273 460 560 523 
6 153 270 204 403 520 454 
6 136 231 45 386 481 93 
6 171 265 169 421 515 419 
6 138 230 52 388 480 100 
6 225 354 325 475 604 575 
6 36 284 232 84 534 482 
6 161 268 159 411 518 409 
6 71 286 229 119 536 479 
6 290 303 201 540 553 451 
6 139 355 60 389 605 108 
6 60 355 248 108 605 498 
6 273 352 302 523 602 552 
6 235 373 245 485 623 495 
6 67 356 247 115 606 497 
6 221 295 277 471 545 527 
6 142 356 67 392 606 115 
6 139 283 253 389 533 503 
6 203 315 262 453 565 512 
6 41 257 145 89 507 395 
6 36 232 135 84 482 385 
6 71 229 137 119 479 387 
6 254 255 188 504 505 438 
6 233 350 334 483 600 584 
6 262 346 203 512 596 453 
6 304 325 127 554 575 377 
6 222 329 247 472 579 497 
6 218 298 260 468 548 510 
6 290 321 291 540 571 541 
6 272 310 240 522 560 490 
6 269 274 270 519 524 520 
6 244 245 57 494 495 105 
6 49 307 141 97 557 391 
6 225 325 256 475 575 506 
6 273 310 272 523 560 522 
6 312 368 255 562 618 505 
6 249 305 206 499 555 456 
6 228 331 251 478 581 501 
6 302 342 263 552 592 513 
6 338 339 44 588 589 92 
6 190 254 188 440 504 438 
6 37 341 340 85 591 590 
6 138 233 230 388 483 480 
6 228 335 331 478 585 581 
6 181 256 179 431 506 429 
6 195 263 226 445 513 476 
6 268 285 223 518 535 473 
6 290 291 288 540 541 538 
6 219 330 248 469 580 498 
6 201 321 290 451 571 540 
6 240 310 202 490 560 452 
6 188 255 186 438 505 436 
6 270 274 271 520 524 521 
6 262 349 259 512 599 509 
6 141 324 289 391 574 539 
6 296 301 142 546 551 392 
6 247 356 222 497 606 472 
6 239 252 238 489 502 488 
6 254 312 255 504 562 505 
6 54 261 53 102 511 101 
6 289 327 303 539 577 553 
6 268 353 285 518 603 535 
6 273 302 210 523 552 460 
6 292 299 293 542 549 543 
6 278 283 139 528 533 389 
6 175 265 171 425 515 421 
6 227 338 38 477 588 86 
6 264 360 265 514 610 515 
6 43 340 146 91 590 396 
6 165 268 161 415 518 411 
6 205 351 240 455 601 490 
6 64 281 63 112 531 111 
6 288 291 47 538 541 95 
6 135 295 294 385 545 544 
6 42 257 41 90 507 89 
6 245 373 57 495 623 105 
6 31 363 323 79 613 573 
6 292 293 140 542 543 390 
6 267 353 268 517 603 518 
6 155 270 153 405 520 403 
6 244 344 245 494 594 495 
6 61 278 139 109 528 389 
6 135 294 35 385 544 83 
6 69 297 296 117 547 546 
6 186 225 184 436 475 434 
6 329 361 243 579 611 493 
6 255 328 225 505 578 475 
6 213 332 280 463 582 530 
6 39 275 133 87 525 383 
6 330 362 241 580 612 491 
6 195 226 193 445 476 443 
6 211 324 251 461 574 501 
6 151 153 152 401 403 402 
6 295 299 294 545 549 544 
6 265 313 217 515 563 467 
6 258 259 143 508 509 393 
6 251 331 211 501 581 461 
6 149 151 150 399 401 400 
6 293 370 317 543 620 567 
6 153 204 152 403 454 402 
6 151 152 150 401 402 400 
6 33 292 140 81 542 390 
6 210 263 197 460 513 447 
6 301 305 249 551 555 499 
6 298 300 297 548 550 547 
6 68 296 142 116 546 392 
6 321 369 291 571 619 541 
6 179 224 177 429 474 427 
6 167 267 165 417 517 415 
6 259 346 262 509 596 512 
6 303 327 196 553 577 446 
6 269 270 155 519 520 405 
6 265 360 313 515 610 563 
6 223 269 157 473 519 407 
6 157 269 155 407 519 405 
6 144 279 278 394 529 528 
6 169 217 167 419 467 417 
6 177 264 175 427 514 425 
6 267 268 165 517 518 415 
6 159 223 157 409 473 407 
6 232 277 135 482 527 385 
6 193 254 190 443 504 440 
6 217 267 167 467 517 417 
6 249 356 142 499 606 392 
6 184 256 181 434 506 431 
6 248 355 219 498 605 469 
6 229 260 137 479 510 387 
6 149 150 148 399 400 398 
6 64 348 281 112 598 531 
6 311 374 293 561 624 543 
6 264 265 175 514 515 425 
6 297 300 296 547 550 546 
6 141 289 288 391 539 538 
6 197 263 195 447 513 445 
6 218 260 219 468 510 469 
6 224 264 177 474 514 427 
6 137 298 297 387 548 547 
6 277 295 135 527 545 385 
6 133 228 227 383 478 477 
6 261 349 262 511 599 512 
6 221 277 222 471 527 472 
6 256 325 224 506 575 474 
6 199 210 197 449 460 447 
6 226 254 193 476 504 443 
6 144 278 62 394 528 110 
6 279 283 278 529 533 528 
6 289 290 288 539 540 538 
6 137 297 70 387 547 118 
6 34 294 292 82 544 542 
6 235 236 216 485 486 466 
6 141 288 48 391 538 96 
6 178 306 180 428 556 430 
6 185 186 184 435 436 434 
6 63 281 144 111 531 394 
6 225 256 184 475 506 434 
6 46 291 136 94 541 386 
6 147 149 148 397 399 398 
6 271 272 204 521 522 454 
6 233 334 234 483 584 484 
6 145 275 40 395 525 88 
6 220 322 287 470 572 537 
6 280 334 213 530 584 463 
6 144 280 279 394 530 529 
6 140 287 32 390 537 80 
6 154 155 153 404 405 403 
6 334 350 213 584 600 463 
6 176 177 175 426 427 425 
6 260 298 137 510 548 387 
6 33 140 32 81 390 80 
6 49 141 48 97 391 96 
6 56 143 55 104 393 103 
6 68 142 67 116 392 115 
6 63 144 62 111 394 110 
6 61 139 60 109 389 108 
6 148 308 257 398 558 507 
6 71 137 70 119 387 118 
6 53 138 52 101 388 100 
6 46 136 45 94 386 93 
6 36 135 35 84 385 83 
6 43 146 134 91 396 384 
6 133 227 38 383 477 86 
6 192 193 190 442 443 440 
6 293 374 140 543 624 390 
6 34 292 33 82 542 81 
6 207 306 178 457 556 428 
6 43 134 42 91 384 90 
6 39 133 38 87 383 86 
6 41 145 40 89 395 88 
6 194 195 193 444 445 443 
6 69 296 68 117 546 116 
6 294 299 292 544 549 542 
6 173 175 171 423 425 421 
6 260 330 219 510 580 469 
6 183 184 181 433 434 431 
6 134 257 42 384 507 90 
6 55 349 54 103 599 102 
6 163 165 161 413 415 411 
6 166 167 165 416 417 415 
6 210 302 263 460 552 513 
6 271 273 272 521 523 522 
6 53 261 138 101 511 388 
6 217 326 267 467 576 517 
6 289 303 290 539 553 540 
6 178 179 177 428 429 427 
6 238 240 202 488 490 452 
6 62 278 61 110 528 109 
6 35 294 34 83 544 82 
6 284 361 232 534 611 482 
6 70 297 69 118 547 117 
6 224 304 264 474 554 514 
6 156 157 155 406 407 405 
6 48 288 47 96 538 95 
6 221 320 295 471 570 545 
6 187 188 186 437 438 436 
6 47 291 46 95 541 94 
6 151 154 153 401 404 403 
6 286 362 229 536 612 479 
6 168 169 167 418 419 417 
6 40 275 39 88 525 87 
6 307 324 141 557 574 391 
6 300 301 296 550 551 546 
6 32 287 31 80 537 79 
6 147 220 149 397 470 399 
6 333 344 231 583 594 481 
6 299 370 293 549 620 543 
6 271 359 273 521 609 523 
6 224 325 304 474 575 554 
6 228 237 227 478 487 477 
6 305 375 343 555 625 593 
6 218 319 298 468 569 548 
6 240 351 272 490 601 522 
6 277 329 222 527 579 472 
6 253 355 139 503 605 389 
6 158 159 157 408 409 407 
6 236 246 216 486 496 466 
6 192 194 193 442 444 443 
6 220 309 149 470 559 399 
6 183 185 184 433 435 434 
6 196 197 195 446 447 445 
6 276 347 58 526 597 106 
6 136 333 231 386 583 481 
6 67 247 66 115 497 114 
6 60 248 59 108 498 107 
6 261 262 250 511 512 500 
6 173 176 175 423 426 425 
6 344 357 231 594 607 481 
6 144 281 280 394 531 530 
6 152 205 150 402 455 400 
6 163 166 165 413 416 415 
6 185 187 186 435 437 436 
6 233 234 230 483 484 480 
6 170 171 169 420 421 419 
6 146 147 134 396 397 384 
6 176 178 177 426 428 427 
6 285 337 223 535 587 473 
6 154 156 155 404 406 405 
6 263 342 226 513 592 476 
6 235 245 236 485 495 486 
6 160 161 159 410 411 409 
6 58 347 242 106 597 492 
6 166 168 167 416 418 417 
6 287 374 220 537 624 470 
6 189 190 188 439 440 438 
6 148 257 134 398 507 384 
6 194 196 195 444 446 445 
6 252 308 205 502 558 455 
6 285 345 337 535 595 587 
6 301 375 305 551 625 555 
6 180 181 179 430 431 429 
6 281 348 234 531 598 484 
6 198 199 197 448 449 447 
6 151 309 154 401 559 404 
6 228 367 335 478 617 585 
6 54 349 261 102 599 511 
6 156 158 157 406 408 407 
6 168 170 169 418 420 419 
6 200 202 199 450 452 449 
6 147 148 134 397 398 384 
6 158 160 159 408 410 409 
6 150 308 148 400 558 398 
6 253 316 208 503 566 458 
6 232 329 277 482 579 527 
6 178 180 179 428 430 429 
6 191 192 190 441 442 440 
6 214 238 202 464 488 452 
6 172 173 171 422 423 421 
6 187 189 188 437 439 438 
6 162 163 161 412 413 411 
6 228 251 237 478 501 487 
6 215 258 235 465 508 485 
6 182 183 181 432 433 431 
6 202 310 199 452 560 449 
6 219 253 208 469 503 458 
6 222 249 206 472 499 456 
6 196 198 197 446 448 447 
6 229 330 260 479 580 510 
6 132 358 274 382 608 524 
6 149 309 151 399 559 401 
6 226 312 254 476 562 504 
6 154 309 209 404 559 459 
6 77 129 76 125 379 124 
6 73 128 72 121 378 120 
6 76 131 75 124 381 123 
6 74 132 73 122 382 121 
6 75 130 74 123 380 122 
6 14 127 77 29 377 125 
6 72 126 14 120 376 29 
6 133 367 228 383 617 478 
6 237 282 227 487 532 477 
6 239 366 252 489 616 502 
6 200 214 202 450 464 452 
6 192 201 194 442 451 444 
6 170 172 171 420 422 421 
6 220 311 309 470 561 559 
6 198 200 199 448 450 449 
6 189 191 190 439 441 440 
6 146 323 322 396 573 572 
6 160 162 161 410 412 411 
6 251 307 237 501 557 487 
6 199 310 210 449 560 460 
6 57 373 56 105 623 104 
6 214 239 238 464 489 488 
6 182 212 183 432 462 433 
6 180 182 181 430 432 431 
6 146 322 147 396 572 397 
6 172 218 208 422 468 458 
6 172 208 173 422 458 423 
6 162 221 206 412 471 456 
6 162 206 163 412 456 413 
6 176 207 178 426 457 428 
6 272 351 204 522 601 454 
6 198 211 200 448 461 450 
6 182 213 212 432 463 462 
6 234 334 281 484 584 531 
6 154 209 156 404 459 406 
6 185 203 187 435 453 437 
6 168 174 170 418 424 420 
6 189 215 191 439 465 441 
6 215 216 191 465 466 441 
6 221 222 206 471 472 456 
6 158 164 160 408 414 410 
6 218 219 208 468 469 458 
6 205 308 150 455 558 400 
6 191 314 192 441 564 442 
6 215 235 216 465 485 466 
6 215 318 258 465 568 508 
6 152 351 205 402 601 455 
6 138 261 250 388 511 500 
6 192 314 201 442 564 451 
6 234 347 230 484 597 480 
6 226 342 312 476 592 562 
6 138 250 233 388 500 483 
6 147 322 220 397 572 470 
6 216 314 191 466 564 441 
6 306 332 180 556 582 430 
6 222 356 249 472 606 499 
6 128 345 285 378 595 535 
6 314 321 201 564 571 451 
6 212 315 183 462 565 433 
6 312 342 336 562 592 586 
6 282 339 338 532 589 588 
6 340 341 323 590 591 573 
6 309 311 209 559 561 459 
6 183 315 185 433 565 435 
6 208 316 173 458 566 423 
6 173 316 176 423 566 426 
6 3 341 37 18 591 85 
6 44 339 6 92 589 21 
6 252 366 145 502 616 395 
6 246 321 314 496 571 564 
6 246 314 216 496 564 466 
6 126 364 313 376 614 563 
6 156 317 158 406 567 408 
6 275 367 133 525 617 383 
6 176 316 207 426 566 457 
6 185 315 203 435 565 453 
6 180 332 182 430 582 432 
6 302 352 131 552 602 381 
6 251 324 307 501 574 557 
6 187 318 189 437 568 439 
6 172 319 218 422 569 468 
6 162 320 221 412 570 471 
6 305 343 166 555 593 416 
6 170 319 172 420 569 422 
6 158 317 164 408 567 414 
6 209 317 156 459 567 406 
6 285 353 128 535 603 378 
6 223 337 269 473 587 519 
6 160 320 162 410 570 412 
6 211 331 200 461 581 450 
6 174 319 170 424 569 420 
6 203 318 187 453 568 437 
6 189 318 215 439 568 465 
6 198 327 211 448 577 461 
6 164 320 160 414 570 410 
6 326 353 267 576 603 517 
6 236 344 333 486 594 583 
6 196 327 198 446 577 448 
6 219 355 253 469 605 503 
6 281 334 280 531 584 530 
6 274 359 271 524 609 521 
6 164 370 299 414 620 549 
6 174 375 300 424 625 550 
6 287 363 31 537 613 79 
6 243 361 1 493 611 16 
6 241 362 12 491 612 27 
6 307 365 237 557 615 487 
6 166 343 168 416 593 418 
6 200 331 214 450 581 464 
6 313 326 217 563 576 467 
6 9 357 244 24 607 494 
6 1 361 30 16 611 78 
6 12 362 65 27 612 113 
6 337 345 132 587 595 382 
6 242 348 64 492 598 112 
6 231 357 266 481 607 516 
6 182 332 213 432 582 463 
6 245 344 236 495 594 486 
6 258 346 259 508 596 509 
6 145 366 275 395 616 525 
6 291 369 136 541 619 386 
6 236 333 246 486 583 496 
6 331 335 214 581 585 464 
6 312 336 129 562 586 379 
6 315 372 262 565 622 512 
6 220 374 311 470 624 561 
6 140 374 287 390 624 537 
6 126 360 304 376 610 554 
6 230 347 276 480 597 526 
6 313 364 326 563 614 576 
6 56 373 143 104 623 393 
6 239 367 366 489 617 616 
6 204 351 152 454 601 402 
6 300 375 301 550 625 551 
6 214 335 239 464 585 489 
6 247 329 243 497 579 493 
6 262 372 250 512 622 500 
6 248 330 241 498 580 491 
6 318 346 258 568 596 508 
6 333 369 246 583 619 496 
6 282 338 227 532 588 477 
6 146 340 323 396 590 573 
6 304 360 264 554 610 514 
6 366 367 275 616 617 525 
6 129 336 76 379 586 124 
6 73 345 128 121 595 378 
6 76 336 131 124 586 381 
6 250 350 233 500 600 483 
6 129 371 328 379 621 578 
6 132 345 73 382 595 121 
6 168 343 174 418 593 424 
6 131 352 75 381 602 123 
6 66 247 243 114 497 493 
6 59 248 241 107 498 491 
6 74 358 132 122 608 382 
6 203 346 318 453 596 568 
6 313 360 126 563 610 376 
6 128 364 72 378 614 120 
6 128 353 326 378 603 576 
6 77 371 129 125 621 379 
6 129 368 312 379 618 562 
6 244 357 344 494 607 594 
6 328 354 225 578 604 475 
6 326 364 128 576 614 378 
6 75 352 130 123 602 380 
6 350 372 212 600 622 462 
6 136 369 333 386 619 583 
6 325 354 127 575 604 377 
6 213 350 212 463 600 462 
6 130 358 74 380 608 122 
6 250 372 350 500 622 600 
6 317 370 164 567 620 414 
6 72 364 126 120 614 376 
6 328 368 129 578 618 379 
6 127 371 77 377 621 125 
6 336 342 131 586 592 381 
6 212 372 315 462 622 565 
6 234 348 347 484 598 597 
6 8 266 51 23 516 99 
6 10 276 58 25 526 106 
6 246 369 321 496 619 571 
6 30 284 0 78 534 15 
6 65 286 13 113 536 28 
6 58 242 11 106 492 26 
6 266 357 51 516 607 99 
6 255 368 328 505 618 578 
6 347 348 242 597 598 492 
6 322 363 287 572 613 537 
6 323 363 322 573 613 572 
6 335 367 239 585 617 489 
6 30 361 284 78 611 534 
6 65 362 286 113 612 536 
6 237 365 282 487 615 532 
6 130 359 358 380 609 608 
6 343 375 174 593 625 424 
6 354 371 127 604 621 377 
6 328 371 354 578 621 604 
6 358 359 274 608 609 524 
6 0 284 36 15 534 84 
6 45 266 8 93 516 23 
6 52 276 10 100 526 25 
6 11 242 64 26 492 112 
6 13 286 71 28 536 119 
6 2 323 3 17 573 18 
6 31 323 2 79 573 17 
6 323 341 3 573 591 18 
6 37 340 4 85 590 19 
6 4 340 43 19 590 91 
6 38 338 5 86 588 20 
6 5 338 44 20 588 92 
6 6 282 7 21 532 22 
6 6 339 282 21 589 532 
6 282 365 7 532 615 22 

CELL_TYPES 563
13
13
13
13
13
13
13
13
13
13
13
13
13
13
13
13
13
13
13
13
13
13
13
13
13
13
13
13
13
13
13
13
13
13
13
13
13
13
13
13
13
13
13
13
13
13
13
13
13
13
13
13
13
13
13
13
13
13
13
13
13
13
13
13
13
13
13
13
13
13
13
13
13
13
13
13
13
13
13
13
13
13
13
13
13
13
13
13
13
13
13
13
13
13
13
13
13
13
13
13
13
13
13
13
13
13
13
13
13
13
13
13
13
13
13
13
13
13
13
13
13
13
13
13
13
13
13
13
13
13
13
13
13
13
13
13
13
13
13
13
13
13
13
13
13
13
13
13
13
13
13
13
13
13
13
13
13
13
13
13
13
13
13
13
13
13
13
13
13
13
13
13
13
13
13
13
13
13
13
13
13
13
13
13
13
13
13
13
13
13
13
13
13
13
13
13
13
13
13
13
13
13
13
13
13
13
13
13
13
13
13
13
13
13
13
13
13
13
13
13
13
13
13
13
13
13
13
13
13
13
13
13
13
13
13
13
13
13
13
13
13
13
13
13
13
13
13
13
13
13
13
13
13
13
13
13
13
13
13
13
13
13
13
13
13
13
13
13
13
13
13
13
13
13
13
13
13
13
13
13
13
13
13
13
13
13
13
13
13
13
13
13
13
13
13
13
13
13
13
13
13
13
13
13
13
13
13
13
13
13
13
13
13
13
13
13
13
13
13
13
13
13
13
13
13
13
13
13
13
13
13
13
13
13
13
13
13
13
13
13
13
13
13
13
13
13
13
13
13
13
13
13
13
13
13
13
13
13
13
13
13
13
13
13
13
13
13
13
13
13
13
13
13
13
13
13
13
13
13
13
13
13
13
13
13
13
13
13
13
13
13
13
13
13
13
13
13
13
13
13
13
13
13
13
13
13
13
13
13
13
13
13
13
13
13
13
13
13
13
13
13
13
13
13
13
13
13
13
13
13
13
13
13
13
13
13
13
13
13
13
13
13
13
13
13
13
13
13
13
13
13
13
13
13
13
13
13
13
13
13
13
13
13
13
13
13
13
13
13
13
13
13
13
13
13
13
13
13
13
13
13
13
13
13
13
13
13
13
13
13
13
13
13
13
13
13
13
13
13
13
13
13
13
13
13
13
13
13
13
13
13
13
13
13
13
13
13
13
13
13
13
13
13
13
13
13
13
13
13
13
13
13
13
13
13
13
13
13
13
13
13
13
13
13
13
13
13
13
13
13
13
13
13
13
13
13
13
13
13
13
13
13
13

POINT_DATA 626
VECTORS displacement float
-1.74393e-06 3.09586e-05 1.80569e-05
1.73562e-06 3.09776e-05 1.8102e-05
-2.59899e-05 1.69949e-05 1.8089e-05
-2.58444e-05 1.6035e-05 1.80535e-05
-2.77242e-05 1.39749e-05 1.8071e-05
-2.77171e-05 -1.40212e-05 1.80964e-05
-2.58156e-05 -1.60732e-05 1.81077e-05
-2.59861e-05 -1.70129e-05 1.81689e-05
-1.67739e-06 -3.09623e-05 1.80533e-05
1.75542e-06 -3.09638e-05 1.81038e-05
2.59472e-05 -1.69827e-05 1.80454e-05
2.77206e-05 -1.39388e-05 1.80453e-05
2.7676e-05 1.39915e-05 1.80935e-05
2.59185e-05 1.6995e-05 1.80479e-05
0 0 0
-1.74393e-06 3.09586e-05 -1.80569e-05
1.73562e-06 3.09776e-05 -1.8102e-05
-2.59899e-05 1.69949e-05 -1.8089e-05
-2.58444e-05 1.6035e-05 -1.80535e-05
-2.77242e-05 1.39749e-05 -1.8071e-05
-2.77171e-05 -1.40212e-05 -1.80964e-05
-2.58156e-05 -1.60732e-05 -1.81077e-05
-2.59861e-05 -1.70129e-05 -1.81689e-05
-1.67739e-06 -3.09623e-05 -1.80533e-05
1.75542e-06 -3.09638e-05 -1.81038e-05
2.59472e-05 -1.69827e-05 -1.80454e-05
2.77206e-05 -1.39388e-05 -1.80453e-05
2.7676e-05 1.39915e-05 -1.80935e-05
2.59185e-05 1.6995e-05 -1.80479e-05
0 0 0
2.48768e-08 3.01584e-05 1.80361e-05
-2.11441e-05 1.87148e-05 1.75518e-05
-1.72355e-05 1.98368e-05 1.69231e-05
-1.40094e-05 2.10577e-05 1.65574e-05
-1.12086e-05 2.26687e-05 1.65512e-05
-8.52516e-06 2.4837e-05 1.69037e-05
-5.56821e-06 2.76259e-05 1.75395e-05
-2.64533e-05 1.46811e-05 1.80354e-05
-2.67726e-05 -9.01329e-06 1.75795e-05
-2.58103e-05 -5.03661e-06 1.69283e-05
-2.52587e-05 -1.63659e-06 1.65738e-05
-2.52616e-05 1.60823e-06 1.65768e-05
-2.58026e-05 5.02399e-06 1.69265e-05
-2.67588e-05 8.98636e-06 1.7566e-05
-2.64402e-05 -1.47275e-05 1.80641e-05
-5.54146e-06 -2.76404e-05 1.75318e-05
-8.47768e-06 -2.4846e-05 1.6903e-05
-1.11719e-05 -2.26881e-05 1.65586e-05
-1.3973e-05 -2.10907e-05 1.6562e-05
-1.7218e-05 -1.98721e-05 1.6939e-05
-2.11376e-05 -1.87516e-05 1.75643e-05
8.98167e-08 -3.01431e-05 1.80313e-05
2.11274e-05 -1.86273e-05 1.75136e-05
1.72477e-05 -1.97652e-05 1.68752e-05
1.40363e-05 -2.10146e-05 1.6514e-05
1.12268e-05 -2.25968e-05 1.65486e-05
8.5823e-06 -2.47842e-05 1.68765e-05
5.65505e-06 -2.76306e-05 1.75371e-05
2.61281e-05 -1.50617e-05 1.80303e-05
2.67207e-05 8.94018e-06 1.75036e-05
2.57261e-05 5.05073e-06 1.69107e-05
2.52108e-05 1.62371e-06 1.65256e-05
2.52079e-05 -1.59981e-06 1.65239e-05
2.57548e-05 -4.99851e-06 1.68906e-05
2.67027e-05 -8.91892e-06 1.75118e-05
2.61111e-05 1.50628e-05 1.80273e-05
5.63351e-06 2.7622e-05 1.75117e-05
8.50968e-06 2.48109e-05 1.69135e-05
1.12188e-05 2.26449e-05 1.65318e-05
1.40069e-05 2.10256e-05 1.65272e-05
1.72247e-05 1.97964e-05 1.68874e-05
2.11184e-05 1.86369e-05 1.75275e-05
0 0 0
0 0 0
0 0 0
0 0 0
0 0 0
0 0 0
2.48768e-08 3.01584e-05 -1.80361e-05
-2.11441e-05 1.87148e-05 -1.75518e-05
-1.72355e-05 1.98368e-05 -1.69231e-05
-1.40094e-05 2.10577e-05 -1.65574e-05
-1.12086e-05 2.26687e-05 -1.65512e-05
-8.52516e-06 2.4837e-05 -1.69037e-05
-5.56821e-06 2.76259e-05 -1.75395e-05
-2.64533e-05 1.46811e-05 -1.80354e-05
-2.67726e-05 -9.01329e-06 -1.75795e-05
-2.58103e-05 -5.03661e-06 -1.69283e-05
-2.52587e-05 -1.63659e-06 -1.65738e-05
-2.52616e-05 1.60823e-06 -1.65768e-05
-2.58026e-05 5.02399e-06 -1.69265e-05
-2.67588e-05 8.98636e-06 -1.7566e-05
-2.64402e-05 -1.47275e-05 -1.80641e-05
-5.54146e-06 -2.76404e-05 -1.75318e-05
-8.47768e-06 -2.4846e-05 -1.6903e-05
-1.11719e-05 -2.26881e-05 -1.65586e-05
-1.3973e-05 -2.10907e-05 -1.6562e-05
-1.7218e-05 -1.98721e-05 -1.6939e-05
-2.11376e-05 -1.87516e-05 -1.75643e-05
8.98167e-08 -3.01431e-05 -1.80313e-05
2.11274e-05 -1.86273e-05 -1.75136e-05
1.72477e-05 -1.97652e-05 -1.68752e-05
1.40363e-05 -2.10146e-05 -1.6514e-05
1.12268e-05 -2.25968e-05 -1.65486e-05
8.5823e-06 -2.47842e-05 -1.68765e-05
5.65505e-06 -2.76306e-05 -1.75371e-05
2.61281e-05 -1.50617e-05 -1.80303e-05
2.67207e-05 8.94018e-06 -1.75036e-05
2.57261e-05 5.05073e-06 -1.69107e-05
2.52108e-05 1.62371e-06 -1.65256e-05
2.52079e-05 -1.59981e-06 -1.65239e-05
2.57548e-05 -4.99851e-06 -1.68906e-05
2.67027e-05 -8.91892e-06 -1.75118e-05
2.61111e-05 1.50628e-05 -1.80273e-05
5.63351e-06 2.7622e-05 -1.75117e-05
8.50968e-06 2.48109e-05 -1.69135e-05
1.12188e-05 2.26449e-05 -1.65318e-05
1.40069e-05 2.10256e-05 -1.65272e-05
1.72247e-05 1.97964e-05 -1.68874e-05
2.11184e-05 1.86369e-05 -1.75275e-05
0 0 0
0 0 0
0 0 0
0 0 0
0 0 0
0 0 0
1.7939e-06 8.58852e-07 4.553e-06
1.73803e-06 -8.25216e-07 4.46153e-06
4.32007e-07 1.84985e-06 4.49585e-06
4.36151e-07 -1.78085e-06 4.3568e-06
-1.84771e-06 2.09665e-08 4.42308e-06
-1.12322e-06 -1.30903e-06 4.15168e-06
-1.15935e-06 1.30696e-06 4.20046e-06
-2.25166e-05 -7.28898e-06 1.70022e-05
-2.21999e-05 7.37287e-06 1.69708e-05
-4.86108e-06 2.29022e-05 1.69392e-05
-4.85858e-06 -2.31353e-05 1.69661e-05
1.74241e-05 1.56378e-05 1.69321e-05
1.75717e-05 -1.55388e-05 1.69413e-05
2.1077e-05 3.16448e-06 1.63268e-05
-1.39555e-05 1.7154e-05 1.64807e-05
-1.35935e-05 -1.6744e-05 1.64123e-05
7.76906e-06 1.98229e-05 1.63336e-05
7.68605e-06 -2.03134e-05 1.64049e-05
2.14759e-05 -3.44439e-06 1.64025e-05
-2.11063e-05 6.58822e-09 1.62491e-05
-2.24237e-05 1.10015e-05 1.74557e-05
-1.87539e-05 9.25619e-06 1.66293e-05
-1.79857e-05 5.79643e-06 1.60386e-05
-1.49864e-05 7.44955e-06 1.54886e-05
-1.42268e-05 4.30844e-06 1.48319e-05
-1.15345e-05 5.74483e-06 1.40969e-05
-1.08598e-05 3.06923e-06 1.33757e-05
-8.40184e-06 4.30556e-06 1.24063e-05
-9.06029e-06 7.01455e-06 1.34585e-05
-6.20509e-06 5.48938e-06 1.16909e-05
-6.82942e-06 8.25079e-06 1.3082e-05
-4.28208e-06 6.67596e-06 1.14523e-05
-4.8008e-06 9.6115e-06 1.3096e-05
-2.40126e-06 7.99462e-06 1.17248e-05
-2.81332e-06 1.11691e-05 1.3477e-05
-4.75491e-07 9.59684e-06 1.2503e-05
-7.38482e-07 1.29991e-05 1.41439e-05
1.73136e-06 1.15197e-05 1.35371e-05
-5.53562e-06 1.27025e-05 1.44392e-05
1.68535e-06 8.22529e-06 1.17494e-05
4.00483e-06 1.01225e-05 1.3153e-05
3.70594e-06 7.09908e-06 1.14801e-05
6.0684e-06 8.96815e-06 1.31154e-05
5.76774e-06 6.10777e-06 1.17374e-05
8.35946e-06 8.02165e-06 1.34942e-05
8.10696e-06 5.19611e-06 1.25023e-05
1.09558e-05 7.09823e-06 1.41491e-05
1.07477e-05 4.32351e-06 1.35012e-05
8.53195e-06 1.10393e-05 1.4463e-05
7.93896e-06 2.64417e-06 1.17293e-05
1.06478e-05 1.73749e-06 1.31061e-05
7.94995e-06 3.58818e-07 1.14574e-05
1.08082e-05 -7.59237e-07 1.31262e-05
8.11294e-06 -1.93811e-06 1.1711e-05
1.11001e-05 -3.3134e-06 1.3486e-05
8.47111e-06 -4.4247e-06 1.2446e-05
1.15056e-05 -6.00388e-06 1.41116e-05
8.95704e-06 -7.13929e-06 1.34302e-05
6.1485e-06 -5.49529e-06 1.16432e-05
6.64559e-06 -8.30223e-06 1.30203e-05
4.10585e-06 -6.58956e-06 1.13128e-05
4.5241e-06 -9.55244e-06 1.29904e-05
2.24265e-06 -7.85954e-06 1.15992e-05
2.48524e-06 -1.10037e-05 1.33531e-05
2.25323e-07 -9.37521e-06 1.23556e-05
3.30061e-07 -1.27719e-05 1.4036e-05
-1.91576e-06 -1.11525e-05 1.33791e-05
-1.84136e-06 -7.92288e-06 1.1584e-05
-4.16859e-06 -9.87648e-06 1.30871e-05
-3.81455e-06 -6.73157e-06 1.13189e-05
-6.34667e-06 -8.66345e-06 1.31014e-05
-5.89224e-06 -5.69892e-06 1.16303e-05
-8.50113e-06 -7.43702e-06 1.33818e-05
-8.16887e-06 -4.72882e-06 1.24106e-05
-1.10975e-05 -6.40383e-06 1.40721e-05
-4.37239e-06 -1.31254e-05 1.44359e-05
-1.08106e-05 -3.65128e-06 1.34413e-05
7.22733e-06 -1.13747e-05 1.42752e-05
-7.74294e-06 1.983e-06 1.14948e-05
-1.32183e-05 1.03523e-06 1.42132e-05
1.7294e-06 1.50853e-05 1.49545e-05
1.37704e-05 4.62318e-07 1.43901e-05
1.38455e-05 6.10113e-06 1.4934e-05
-9.6957e-06 1.0198e-05 1.45348e-05
-5.41685e-06 -3.19815e-06 1.01838e-05
-1.17156e-05 -9.29888e-06 1.48915e-05
1.18844e-05 -8.76168e-06 1.47894e-05
1.47842e-05 -7.47486e-06 1.54057e-05
-1.39621e-05 -5.24477e-06 1.4864e-05
2.79628e-06 -1.45186e-05 1.47985e-05
4.24621e-07 -1.65022e-05 1.54001e-05
3.51897e-06 4.39761e-06 9.58273e-06
1.40129e-05 9.30061e-06 1.54939e-05
1.79337e-05 8.14633e-06 1.63029e-05
-1.56781e-05 1.13972e-05 1.62358e-05
-1.09427e-06 1.67719e-05 1.54976e-05
1.90714e-06 1.96248e-05 1.63133e-05
-2.09219e-06 5.22088e-06 9.59923e-06
5.55479e-06 -7.84724e-07 9.59578e-06
3.58649e-06 -3.68412e-06 9.08353e-06
-1.77991e-06 -5.17936e-06 9.45122e-06
-2.24722e-05 -1.10126e-05 1.74764e-05
-1.88012e-05 -9.24293e-06 1.66533e-05
2.11511e-05 1.41669e-05 1.75077e-05
2.0757e-05 -1.43197e-05 1.74377e-05
-1.76478e-06 -2.54504e-05 1.7513e-05
-1.6823e-06 2.54144e-05 1.75177e-05
1.77159e-05 -1.19088e-05 1.66894e-05
2.0649e-05 -1.07528e-05 1.71182e-05
3.77622e-06 -1.89883e-05 1.61418e-05
7.68625e-07 -2.03491e-05 1.64851e-05
-1.94082e-05 -1.26525e-05 1.71453e-05
-1.37334e-05 -2.30732e-06 1.44742e-05
-1.65955e-05 -3.70207e-06 1.54799e-05
-1.03775e-05 -1.09657e-06 1.29542e-05
2.44556e-05 1.10746e-05 1.76537e-05
2.55011e-05 -1.24052e-05 1.78501e-05
2.64944e-06 2.673e-05 1.76625e-05
2.52118e-06 -2.64176e-05 1.76314e-05
3.33987e-06 -2.30356e-05 1.70313e-05
-2.05422e-06 -1.83229e-05 1.59532e-05
4.05953e-06 2.37951e-05 1.71326e-05
2.26177e-05 8.38073e-06 1.71215e-05
4.61434e-06 1.73162e-05 1.57297e-05
1.44294e-05 -1.31216e-05 1.61397e-05
-1.57903e-05 -1.09865e-05 1.62169e-05
-1.68026e-05 -3.81497e-07 1.53797e-05
1.73088e-05 4.68829e-06 1.5728e-05
6.55295e-08 -6.3883e-06 1.02692e-05
1.74197e-06 -4.84918e-06 9.09403e-06
5.85137e-06 -2.93597e-06 1.03799e-05
-2.14477e-05 3.75121e-06 1.64612e-05
5.7303e-06 -1.62772e-05 1.55101e-05
9.08497e-06 -1.7502e-05 1.59999e-05
1.7575e-05 1.18835e-05 1.66746e-05
1.39966e-05 -1.63849e-05 1.64036e-05
1.07418e-05 -1.37913e-05 1.55525e-05
-3.5485e-06 -4.22083e-06 9.50237e-06
5.39993e-06 1.13867e-06 9.50066e-06
5.21885e-06 3.22337e-06 1.00489e-05
-1.74988e-06 -2.83585e-05 1.78788e-05
1.89234e-06 5.29969e-06 9.58607e-06
-1.13843e-07 6.10594e-06 1.00404e-05
-3.78549e-06 4.12836e-06 9.58002e-06
-5.62354e-06 3.03465e-06 1.0287e-05
-5.16624e-06 1.04083e-06 9.21516e-06
-7.52842e-06 -6.17493e-08 1.11743e-05
-4.33499e-06 -8.10393e-07 8.38326e-06
-3.10902e-06 1.8726e-06 7.37529e-06
-2.20847e-05 -3.60845e-06 1.65182e-05
2.34096e-05 -1.569e-05 1.78381e-05
-1.50741e-06 2.11713e-05 1.66843e-05
2.12652e-05 -8.45358e-08 1.62282e-05
1.7625e-05 -1.64709e-06 1.55838e-05
1.73506e-05 -4.94251e-06 1.5773e-05
2.1895e-05 -7.45241e-06 1.69158e-05
-2.31855e-05 -1.42565e-05 1.78346e-05
1.73275e-05 1.64916e-06 1.55109e-05
-1.73409e-06 2.8477e-05 1.7896e-05
-4.22131e-07 3.68393e-06 7.49655e-06
2.37754e-05 1.57444e-05 1.78865e-05
-1.75002e-05 1.56446e-05 1.69772e-05
-1.0628e-05 -1.84692e-05 1.62575e-05
-1.01013e-05 -1.43447e-05 1.55741e-05
-7.50902e-06 -1.60975e-05 1.56245e-05
-7.32327e-06 -2.01238e-05 1.63977e-05
-1.07062e-05 1.85383e-05 1.62692e-05
-1.03491e-05 1.43865e-05 1.56218e-05
-7.77385e-06 2.04958e-05 1.64466e-05
-4.25366e-06 1.86127e-05 1.60553e-05
1.07615e-05 1.83485e-05 1.62286e-05
1.3894e-05 1.69376e-05 1.64334e-05
1.40443e-05 1.2975e-05 1.60536e-05
-7.3628e-06 1.6291e-05 1.56409e-05
1.05269e-05 1.45495e-05 1.56476e-05
7.75003e-06 1.6095e-05 1.56164e-05
-3.1169e-06 -1.89903e-06 7.39442e-06
-7.25887e-06 -1.24241e-05 1.46275e-05
3.00907e-06 4.03658e-08 6.60208e-06
4.87338e-06 1.3525e-05 1.46204e-05
1.40784e-05 -2.26077e-06 1.45728e-05
-1.72926e-05 -1.5219e-05 1.69477e-05
-1.73694e-05 2.42072e-06 1.56002e-05
-1.22067e-05 8.9134e-06 1.49458e-05
-7.70685e-06 -2.29288e-06 1.15566e-05
-1.24519e-05 1.18146e-05 1.55423e-05
-1.42757e-07 -3.75475e-06 7.55545e-06
2.73061e-06 2.2724e-06 7.25315e-06
-2.0042e-06 -1.46529e-05 1.48104e-05
9.36666e-06 -1.00699e-05 1.43917e-05
1.38631e-05 3.15835e-06 1.45684e-05
-7.34128e-06 1.12013e-05 1.42626e-05
4.99805e-06 -1.27769e-05 1.43716e-05
1.10337e-05 1.04322e-05 1.4922e-05
-3.59705e-06 1.46877e-05 1.49104e-05
-4.63623e-06 -1.66197e-05 1.55512e-05
-1.95102e-05 1.28944e-05 1.71635e-05
-2.31303e-05 1.48602e-05 1.78454e-05
-1.29071e-05 -1.26882e-05 1.58149e-05
3.76134e-06 -1.58635e-06 7.90829e-06
1.76464e-06 2.92269e-06 7.08563e-06
-9.23204e-06 -1.06113e-05 1.45342e-05
1.72798e-06 -2.82355e-06 6.93224e-06
9.94825e-07 2.41206e-05 1.73106e-05
2.13713e-05 1.11956e-05 1.73008e-05
-1.46671e-05 -7.9547e-06 1.54877e-05
1.37104e-05 -4.78713e-06 1.4693e-05
-1.91016e-06 -2.17665e-05 1.6805e-05
1.80633e-05 -8.42047e-06 1.6343e-05
-1.66817e-05 -6.32964e-06 1.57848e-05
-4.32957e-07 -1.92257e-06 4.79927e-06
-1.80563e-06 2.99586e-06 7.17839e-06
-2.50555e-05 -1.29838e-05 1.79243e-05
-2.51307e-05 -1.45093e-05 1.8004e-05
-2.50487e-05 1.30357e-05 1.7908e-05
-2.51216e-05 1.4652e-05 1.79841e-05
-1.64869e-06 -3.12529e-06 7.21114e-06
6.32902e-06 1.13703e-05 1.40789e-05
5.33754e-07 -2.40899e-05 1.73044e-05
-5.22847e-07 1.80978e-06 4.64578e-06
7.40872e-06 -1.43461e-05 1.51548e-05
2.33063e-05 -1.32113e-05 1.77309e-05
2.36362e-05 -1.05393e-05 1.7493e-05
1.19905e-05 -1.8214e-05 1.62958e-05
1.47326e-05 -1.01483e-05 1.5798e-05
-1.00287e-05 1.00141e-06 1.27568e-05
-1.74024e-06 -8.16008e-07 4.72424e-06
7.69174e-07 3.70888e-06 7.57444e-06
2.3434e-06 -1.99744e-06 6.5564e-06
2.01599e-05 5.89888e-06 1.6456e-05
5.07084e-06 2.05994e-05 1.64984e-05
3.42124e-07 -2.76841e-05 1.7856e-05
-1.73145e-06 7.09203e-07 4.60709e-06
-3.21196e-06 6.23134e-07 6.8253e-06
3.57773e-06 1.47563e-06 7.63793e-06
4.9924e-07 2.83279e-05 1.79293e-05
2.47639e-05 1.37361e-05 1.79204e-05
-2.03316e-05 1.55381e-05 1.74312e-05
1.17886e-06 1.36465e-06 4.4606e-06
-2.06429e-05 -1.57306e-05 1.75297e-05
-1.90021e-05 -2.32261e-06 1.59486e-05
-1.95624e-05 -5.58598e-06 1.63347e-05
9.05809e-07 -3.24821e-06 7.0073e-06
-4.3667e-06 -1.97926e-05 1.63242e-05
-7.93865e-06 1.38368e-05 1.51035e-05
1.1659e-06 -1.30435e-06 4.34002e-06
1.19365e-05 -1.12303e-05 1.52946e-05
6.13389e-06 -2.26999e-05 1.68229e-05
-1.45246e-05 1.43577e-05 1.63261e-05
7.93044e-06 1.33235e-05 1.49504e-05
1.7939e-06 8.58852e-07 -4.553e-06
1.73803e-06 -8.25216e-07 -4.46153e-06
4.32007e-07 1.84985e-06 -4.49585e-06
4.36151e-07 -1.78085e-06 -4.3568e-06
-1.84771e-06 2.09665e-08 -4.42308e-06
-1.12322e-06 -1.30903e-06 -4.15168e-06
-1.15935e-06 1.30696e-06 -4.20046e-06
-2.25166e-05 -7.28898e-06 -1.70022e-05
-2.21999e-05 7.37287e-06 -1.69708e-05
-4.86108e-06 2.29022e-05 -1.69392e-05
-4.85858e-06 -2.31353e-05 -1.69661e-05
1.74241e-05 1.56378e-05 -1.69321e-05
1.75717e-05 -1.55388e-05 -1.69413e-05
2.1077e-05 3.16448e-06 -1.63268e-05
-1.39555e-05 1.7154e-05 -1.64807e-05
-1.35935e-05 -1.6744e-05 -1.64123e-05
7.76906e-06 1.98229e-05 -1.63336e-05
7.68605e-06 -2.03134e-05 -1.64049e-05
2.14759e-05 -3.44439e-06 -1.64025e-05
-2.11063e-05 6.58822e-09 -1.62491e-05
-2.24237e-05 1.10015e-05 -1.74557e-05
-1.87539e-05 9.25619e-06 -1.66293e-05
-1.79857e-05 5.79643e-06 -1.60386e-05
-1.49864e-05 7.44955e-06 -1.54886e-05
-1.42268e-05 4.30844e-06 -1.48319e-05
-1.15345e-05 5.74483e-06 -1.40969e-05
-1.08598e-05 3.06923e-06 -1.33757e-05
-8.40184e-06 4.30556e-06 -1.24063e-05
-9.06029e-06 7.01455e-06 -1.34585e-05
-6.20509e-06 5.48938e-06 -1.16909e-05
-6.82942e-06 8.25079e-06 -1.3082e-05
-4.28208e-06 6.67596e-06 -1.14523e-05
-4.8008e-06 9.6115e-06 -1.3096e-05
-2.40126e-06 7.99462e-06 -1.17248e-05
-2.81332e-06 1.11691e-05 -1.3477e-05
-4.75491e-07 9.59684e-06 -1.2503e-05
-7.38482e-07 1.29991e-05 -1.41439e-05
1.73136e-06 1.15197e-05 -1.35371e-05
-5.53562e-06 1.27025e-05 -1.44392e-05
1.68535e-06 8.22529e-06 -1.17494e-05
4.00483e-06 1.01225e-05 -1.3153e-05
3.70594e-06 7.09908e-06 -1.14801e-05
6.0684e-06 8.96815e-06 -1.31154e-05
5.76774e-06 6.10777e-06 -1.17374e-05
8.35946e-06 8.02165e-06 -1.34942e-05
8.10696e-06 5.19611e-06 -1.25023e-05
1.09558e-05 7.09823e-06 -1.41491e-05
1.07477e-05 4.32351e-06 -1.35012e-05
8.53195e-06 1.10393e-05 -1.4463e-05
7.93896e-06 2.64417e-06 -1.17293e-05
1.06478e-05 1.73749e-06 -1.31061e-05
7.94995e-06 3.58818e-07 -1.14574e-05
1.08082e-05 -7.59237e-07 -1.31262e-05
8.11294e-06 -1.93811e-06 -1.1711e-05
1.11001e-05 -3.3134e-06 -1.3486e-05
8.47111e-06 -4.4247e-06 -1.2446e-05
1.15056e-05 -6.00388e-06 -1.41116e-05
8.95704e-06 -7.13929e-06 -1.34302e-05
6.1485e-06 -5.49529e-06 -1.16432e-05
6.64559e-06 -8.30223e-06 -1.30203e-05
4.10585e-06 -6.58956e-06 -1.13128e-05
4.5241e-06 -9.55244e-06 -1.29904e-05
2.24265e-06 -7.85954e-06 -1.15992e-05
2.48524e-06 -1.10037e-05 -1.33531e-05
2.25323e-07 -9.37521e-06 -1.23556e-05
3.30061e-07 -1.27719e-05 -1.4036e-05
-1.91576e-06 -1.11525e-05 -1.33791e-05
-1.84136e-06 -7.92288e-06 -1.1584e-05
-4.16859e-06 -9.87648e-06 -1.30871e-05
-3.81455e-06 -6.73157e-06 -1.13189e-05
-6.34667e-06 -8.66345e-06 -1.31014e-05
-5.89224e-06 -5.69892e-06 -1.16303e-05
-8.50113e-06 -7.43702e-06 -1.33818e-05
-8.16887e-06 -4.72882e-06 -1.24106e-05
-1.10975e-05 -6.40383e-06 -1.40721e-05
-4.37239e-06 -1.31254e-05 -1.44359e-05
-1.08106e-05 -3.65128e-06 -1.34413e-05
7.22733e-06 -1.13747e-05 -1.42752e-05
-7.74294e-06 1.983e-06 -1.14948e-05
-1.32183e-05 1.03523e-06 -1.42132e-05
1.7294e-06 1.50853e-05 -1.49545e-05
1.37704e-05 4.62318e-07 -1.43901e-05
1.38455e-05 6.10113e-06 -1.4934e-05
-9.6957e-06 1.0198e-05 -1.45348e-05
-5.41685e-06 -3.19815e-06 -1.01838e-05
-1.17156e-05 -9.29888e-06 -1.48915e-05
1.18844e-05 -8.76168e-06 -1.47894e-05
1.47842e-05 -7.47486e-06 -1.54057e-05
-1.39621e-05 -5.24477e-06 -1.4864e-05
2.79628e-06 -1.45186e-05 -1.47985e-05
4.24621e-07 -1.65022e-05 -1.54001e-05
3.51897e-06 4.39761e-06 -9.58273e-06
1.40129e-05 9.30061e-06 -1.54939e-05
1.79337e-05 8.14633e-06 -1.63029e-05
-1.56781e-05 1.13972e-05 -1.62358e-05
-1.09427e-06 1.67719e-05 -1.54976e-05
1.90714e-06 1.96248e-05 -1.63133e-05
-2.09219e-06 5.22088e-06 -9.59923e-06
5.55479e-06 -7.84724e-07 -9.59578e-06
3.58649e-06 -3.68412e-06 -9.08353e-06
-1.77991e-06 -5.17936e-06 -9.45122e-06
-2.24722e-05 -1.10126e-05 -1.74764e-05
-1.88012e-05 -9.24293e-06 -1.66533e-05
2.11511e-05 1.41669e-05 -1.75077e-05
2.0757e-05 -1.43197e-05 -1.74377e-05
-1.76478e-06 -2.54504e-05 -1.7513e-05
-1.6823e-06 2.54144e-05 -1.75177e-05
1.77159e-05 -1.19088e-05 -1.66894e-05
2.0649e-05 -1.07528e-05 -1.71182e-05
3.77622e-06 -1.89883e-05 -1.61418e-05
7.68625e-07 -2.03491e-05 -1.64851e-05
-1.94082e-05 -1.26525e-05 -1.71453e-05
-1.37334e-05 -2.30732e-06 -1.44742e-05
-1.65955e-05 -3.70207e-06 -1.54799e-05
-1.03775e-05 -1.09657e-06 -1.29542e-05
2.44556e-05 1.10746e-05 -1.76537e-05
2.55011e-05 -1.24052e-05 -1.78501e-05
2.64944e-06 2.673e-05 -1.76625e-05
2.52118e-06 -2.64176e-05 -1.76314e-05
3.33987e-06 -2.30356e-05 -1.70313e-05
-2.05422e-06 -1.83229e-05 -1.59532e-05
4.05953e-06 2.37951e-05 -1.71326e-05
2.26177e-05 8.38073e-06 -1.71215e-05
4.61434e-06 1.73162e-05 -1.57297e-05
1.44294e-05 -1.31216e-05 -1.61397e-05
-1.57903e-05 -1.09865e-05 -1.62169e-05
-1.68026e-05 -3.81497e-07 -1.53797e-05
1.73088e-05 4.68829e-06 -1.5728e-05
6.55295e-08 -6.3883e-06 -1.02692e-05
1.74197e-06 -4.84918e-06 -9.09403e-06
5.85137e-06 -2.93597e-06 -1.03799e-05
-2.14477e-05 3.75121e-06 -1.64612e-05
5.7303e-06 -1.62772e-05 -1.55101e-05
9.08497e-06 -1.7502e-05 -1.59999e-05
1.7575e-05 1.18835e-05 -1.66746e-05
1.39966e-05 -1.63849e-05 -1.64036e-05
1.07418e-05 -1.37913e-05 -1.55525e-05
-3.5485e-06 -4.22083e-06 -9.50237e-06
5.39993e-06 1.13867e-06 -9.50066e-06
5.21885e-06 3.22337e-06 -1.00489e-05
-1.74988e-06 -2.83585e-05 -1.78788e-05
1.89234e-06 5.29969e-06 -9.58607e-06
-1.13843e-07 6.10594e-06 -1.00404e-05
-3.78549e-06 4.12836e-06 -9.58002e-06
-5.62354e-06 3.03465e-06 -1.0287e-05
-5.16624e-06 1.04083e-06 -9.21516e-06
-7.52842e-06 -6.17493e-08 -1.11743e-05
-4.33499e-06 -8.10393e-07 -8.38326e-06
-3.10902e-06 1.8726e-06 -7.37529e-06
-2.20847e-05 -3.60845e-06 -1.65182e-05
2.34096e-05 -1.569e-05 -1.78381e-05
-1.50741e-06 2.11713e-05 -1.66843e-05
2.12652e-05 -8.45358e-08 -1.62282e-05
1.7625e-05 -1.64709e-06 -1.55838e-05
1.73506e-05 -4.94251e-06 -1.5773e-05
2.1895e-05 -7.45241e-06 -1.69158e-05
-2.31855e-05 -1.42565e-05 -1.78346e-05
1.73275e-05 1.64916e-06 -1.55109e-05
-1.73409e-06 2.8477e-05 -1.7896e-05
-4.22131e-07 3.68393e-06 -7.49655e-06
2.37754e-05 1.57444e-05 -1.78865e-05
-1.75002e-05 1.56446e-05 -1.69772e-05
-1.0628e-05 -1.84692e-05 -1.62575e-05
-1.01013e-05 -1.43447e-05 -1.55741e-05
-7.50902e-06 -1.60975e-05 -1.56245e-05
-7.32327e-06 -2.01238e-05 -1.63977e-05
-1.07062e-05 1.85383e-05 -1.62692e-05
-1.03491e-05 1.43865e-05 -1.56218e-05
-7.77385e-06 2.04958e-05 -1.64466e-05
-4.25366e-06 1.86127e-05 -1.60553e-05
1.07615e-05 1.83485e-05 -1.62286e-05
1.3894e-05 1.69376e-05 -1.64334e-05
1.40443e-05 1.2975e-05 -1.60536e-05
-7.3628e-06 1.6291e-05 -1.56409e-05
1.05269e-05 1.45495e-05 -1.56476e-05
7.75003e-06 1.6095e-05 -1.56164e-05
-3.1169e-06 -1.89903e-06 -7.39442e-06
-7.25887e-06 -1.24241e-05 -1.46275e-05
3.00907e-06 4.03658e-08 -6.60208e-06
4.87338e-06 1.3525e-05 -1.46204e-05
1.40784e-05 -2.26077e-06 -1.45728e-05
-1.72926e-05 -1.5219e-05 -1.69477e-05
-1.73694e-05 2.42072e-06 -1.56002e-05
-1.22067e-05 8.9134e-06 -1.49458e-05
-7.70685e-06 -2.29288e-06 -1.15566e-05
-1.24519e-05 1.18146e-05 -1.55423e-05
-1.42757e-07 -3.75475e-06 -7.55545e-06
2.73061e-06 2.2724e-06 -7.25315e-06
-2.0042e-06 -1.46529e-05 -1.48104e-05
9.36666e-06 -1.00699e-05 -1.43917e-05
1.38631e-05 3.15835e-06 -1.45684e-05
-7.34128e-06 1.12013e-05 -1.42626e-05
4.99805e-06 -1.27769e-05 -1.43716e-05
1.10337e-05 1.04322e-05 -1.4922e-05
-3.59705e-06 1.46877e-05 -1.49104e-05
-4.63623e-06 -1.66197e-05 -1.55512e-05
-1.95102e-05 1.28944e-05 -1.71635e-05
-2.31303e-05 1.48602e-05 -1.78454e-05
-1.29071e-05 -1.26882e-05 -1.58149e-05
3.76134e-06 -1.58635e-06 -7.90829e-06
1.76464e-06 2.92269e-06 -7.08563e-06
-9.23204e-06 -1.06113e-05 -1.45342e-05
1.72798e-06 -2.82355e-06 -6.93224e-06
9.94825e-07 2.41206e-05 -1.73106e-05
2.13713e-05 1.11956e-05 -1.73008e-05
-1.46671e-05 -7.9547e-06 -1.54877e-05
1.37104e-05 -4.78713e-06 -1.4693e-05
-1.91016e-06 -2.17665e-05 -1.6805e-05
1.80633e-05 -8.42047e-06 -1.6343e-05
-1.66817e-05 -6.32964e-06 -1.57848e-05
-4.32957e-07 -1.92257e-06 -4.79927e-06
-1.80563e-06 2.99586e-06 -7.17839e-06
-2.50555e-05 -1.29838e-05 -1.79243e-05
-2.51307e-05 -1.45093e-05 -1.8004e-05
-2.50487e-05 1.30357e-05 -1.7908e-05
-2.51216e-05 1.4652e-05 -1.79841e-05
-1.64869e-06 -3.12529e-06 -7.21114e-06
6.32902e-06 1.13703e-05 -1.40789e-05
5.33754e-07 -2.40899e-05 -1.73044e-05
-5.22847e-07 1.80978e-06 -4.64578e-06
7.40872e-06 -1.43461e-05 -1.51548e-05
2.33063e-05 -1.32113e-05 -1.77309e-05
2.36362e-05 -1.05393e-05 -1.7493e-05
1.19905e-05 -1.8214e-05 -1.62958e-05
1.47326e-05 -1.01483e-05 -1.5798e-05
-1.00287e-05 1.00141e-06 -1.27568e-05
-1.74024e-06 -8.16008e-07 -4.72424e-06
7.69174e-07 3.70888e-06 -7.57444e-06
2.3434e-06 -1.99744e-06 -6.5564e-06
2.01599e-05 5.89888e-06 -1.6456e-05
5.07084e-06 2.05994e-05 -1.64984e-05
3.42124e-07 -2.76841e-05 -1.7856e-05
-1.73145e-06 7.09203e-07 -4.60709e-06
-3.21196e-06 6.23134e-07 -6.8253e-06
3.57773e-06 1.47563e-06 -7.63793e-06
4.9924e-07 2.83279e-05 -1.79293e-05
2.47639e-05 1.37361e-05 -1.79204e-05
-2.03316e-05 1.55381e-05 -1.74312e-05
1.17886e-06 1.36465e-06 -4.4606e-06
-2.06429e-05 -1.57306e-05 -1.75297e-05
-1.90021e-05 -2.32261e-06 -1.59486e-05
-1.95624e-05 -5.58598e-06 -1.63347e-05
9.05809e-07 -3.24821e-06 -7.0073e-06
-4.3667e-06 -1.97926e-05 -1.63242e-05
-7.93865e-06 1.38368e-05 -1.51035e-05
1.1659e-06 -1.30435e-06 -4.34002e-06
1.19365e-05 -1.12303e-05 -1.52946e-05
6.13389e-06 -2.26999e-05 -1.68229e-05
-1.45246e-05 1.43577e-05 -1.63261e-05
7.93044e-06 1.33235e-05 -1.49504e-05
SCALARS effective_fluid_pressure_TPM float
LOOKUP_TABLE default
665
665
665
665
665
665
665
665
665
665
665
665
665
665
133
665
665
665
665
665
665
665
665
665
665
665
665
665
665
133
665
560.367
520.73
502.878
502.649
519.857
559.988
665
562.033
520.824
503.32
503.43
520.756
561.655
665
559.655
519.728
502.823
503.04
521.225
561.671
665
558.911
519.072
501.612
502.308
518.921
559.5
665
558.552
520.012
501.944
501.875
519.445
557.991
665
558.708
520.026
502.116
501.978
519.433
559.714
133
133
133
133
133
133
665
560.367
520.73
502.878
502.649
519.857
559.988
665
562.033
520.824
503.32
503.43
520.756
561.655
665
559.655
519.728
502.823
503.04
521.225
561.671
665
558.911
519.072
501.612
502.308
518.921
559.5
665
558.552
520.012
501.944
501.875
519.445
557.991
665
558.708
520.026
502.116
501.978
519.433
559.714
133
133
133
133
133
133
228.282
226.353
227.066
224.134
225.549
219.87
220.886
529.225
528.235
526.615
527.993
526.642
527.695
498.773
503.618
501.657
499.014
501.529
501.311
494.395
562.547
519.04
495.094
480.801
461.423
443.342
425.109
402.18
427.334
385.323
417.801
379.669
417.965
386.008
427.451
404.358
444.446
429.14
450.324
386.618
419.365
380.264
418.376
386.248
427.824
404.286
444.556
428.224
450.921
386.092
418.228
379.68
418.584
385.616
427.66
402.98
443.619
426.515
384.109
416.2
376.363
415.408
383.081
424.481
400.905
441.768
425.289
382.817
417.84
376.628
418.158
383.902
425.329
402.272
442.74
450.714
426.789
446.073
380.789
444.738
465.352
448.806
464.826
453.475
350.958
463.567
461.099
478.505
462.835
460.705
478.409
337.33
480.881
505.909
503.669
480.947
506.215
337.743
337.554
326.216
334.468
563.423
519.715
567.622
562.41
567.939
567.792
521.863
542.767
498.684
513.79
542.112
451.517
477.634
414.718
579.558
611.053
579.711
576.073
534.606
494.533
538.278
537.975
485.093
498.17
503.385
473.198
485.141
352.803
326.466
355.233
503.5
477.774
488.418
520.932
502.083
477.972
335.593
335.457
347.755
613.469
337.431
347.626
337.317
353.259
329.239
373.315
310.706
288.829
504.766
608.407
521.154
493.78
478.385
486.41
526.548
600.369
476.622
615.922
291.438
615.82
528.776
494.591
478.292
479.466
501.37
494.897
479.492
502.566
495.228
493.802
502.318
495.301
479.939
480.105
479.108
289.335
454.647
271.979
455.055
453.683
527.057
479.528
465.276
382.159
480.561
292.712
286.122
461.532
449.687
454.032
445.909
448.744
463.658
463.315
480.007
543.507
601.73
487.546
300.345
282.501
453.068
279.202
552.286
552.046
480.826
458.071
526.277
508.235
488.641
233.756
284.598
614.529
636.335
615.163
636.691
285.32
441.394
553.126
230.511
467.607
590.296
566.074
495.871
490.1
410.095
232.145
293.138
271.162
507.945
509.243
607.84
229.688
277.014
294.473
618.899
618.812
558.558
226.547
562.57
488.367
503.446
280.886
504.115
466.434
224.031
473.638
519.628
503.031
462.5
228.282
226.353
227.066
224.134
225.549
219.87
220.886
529.225
528.235
526.615
527.993
526.642
527.695
498.773
503.618
501.657
499.014
501.529
501.311
494.395
562.547
519.04
495.094
480.801
461.423
443.342
425.109
402.18
427.334
385.323
417.801
379.669
417.965
386.008
427.451
404.358
444.446
429.14
450.324
386.618
419.365
380.264
418.376
386.248
427.824
404.286
444.556
428.224
450.921
386.092
418.228
379.68
418.584
385.616
427.66
402.98
443.619
426.515
384.109
416.2
376.363
415.408
383.081
424.481
400.905
441.768
425.289
382.817
417.84
376.628
418.158
383.902
425.329
402.272
442.74
450.714
426.789
446.073
380.789
444.738
465.352
448.806
464.826
453.475
350.958
463.567
461.099
478.505
462.835
460.705
478.409
337.33
480.881
505.909
503.669
480.947
506.215
337.743
337.554
326.216
334.468
563.423
519.715
567.622
562.41
567.939
567.792
521.863
542.767
498.684
513.79
542.112
451.517
477.634
414.718
579.558
611.053
579.711
576.073
534.606
494.533
538.278
537.975
485.093
498.17
503.385
473.198
485.141
352.803
326.466
355.233
503.5
477.774
488.418
520.932
502.083
477.972
335.593
335.457
347.755
613.469
337.431
347.626
337.317
353.259
329.239
373.315
310.706
288.829
504.766
608.407
521.154
493.78
478.385
486.41
526.548
600.369
476.622
615.922
291.438
615.82
528.776
494.591
478.292
479.466
501.37
494.897
479.492
502.566
495.228
493.802
502.318
495.301
479.939
480.105
479.108
289.335
454.647
271.979
455.055
453.683
527.057
479.528
465.276
382.159
480.561
292.712
286.122
461.532
449.687
454.032
445.909
448.744
463.658
463.315
480.007
543.507
601.73
487.546
300.345
282.501
453.068
279.202
552.286
552.046
480.826
458.071
526.277
508.235
488.641
233.756
284.598
614.529
636.335
615.163
636.691
285.32
441.394
553.126
230.511
467.607
590.296
566.074
495.871
490.1
410.095
232.145
293.138
271.162
507.945
509.243
607.84
229.688
277.014
294.473
618.899
618.812
558.558
226.547
562.57
488.367
503.446
280.886
504.115
466.434
224.031
473.638
519.628
503.031
462.5

CELL_DATA 563
TENSORS stress float
164.638 -24.9224 2.65269e-12
-24.9224 28.1566 5.80277e-14
2.65269e-12 5.80277e-14 -12.5971

-40.341 -21.3213 -5.42462e-12
-21.3213 -7.35509 4.92347e-13
-5.42462e-12 4.92347e-13 -10.2366

-9.94455 28.0481 -2.61953e-12
28.0481 -1.11274 -1.33967e-12
-2.61953e-12 -1.33967e-12 -6.3662

-40.4281 -29.8422 3.60897e-13
-29.8422 -12.8456 -2.88954e-13
3.60897e-13 -2.88954e-13 -10.6029

-22.6897 19.9307 -1.29378e-12
19.9307 -1.92993 1.77924e-12
-1.29378e-12 1.77924e-12 -23.0186

-27.1465 -18.0778 -1.75356e-12
-18.0778 15.888 -2.11386e-12
-1.75356e-12 -2.11386e-12 -6.41702

161.289 26.4868 1.9232e-12
26.4868 28.0331 -2.65861e-12
1.9232e-12 -2.65861e-12 -13.2561

-5.96462 29.9609 9.54496e-13
29.9609 -10.1144 -1.68221e-12
9.54496e-13 -1.68221e-12 -7.28143

34.6345 5.48402 5.50671e-13
5.48402 -19.1027 4.73584e-13
5.50671e-13 4.73584e-13 -4.12794

11.8601 -7.47771 -8.18901e-13
-7.47771 -48.2895 -1.12036e-12
-8.18901e-13 -1.12036e-12 -8.95181

104.214 16.3122 2.79243e-12
16.3122 -8.44429 2.27374e-12
2.79243e-12 2.27374e-12 -22.4528

-34.6426 -13.4551 1.18261e-12
-13.4551 18.9654 2.11623e-12
1.18261e-12 2.11623e-12 -7.18573

-6.02943 27.8368 -1.16588e-12
27.8368 -4.59293 -3.86062e-13
-1.16588e-12 -3.86062e-13 -6.16454

-35.5569 -14.342 1.92076e-12
-14.342 7.84515 6.83305e-13
1.92076e-12 6.83305e-13 -9.13597

-23.6538 33.307 4.21589e-13
33.307 -24.9913 -1.43358e-14
4.21589e-13 -1.43358e-14 -21.3635

21.3121 0.56119 9.50943e-13
0.56119 -32.3445 7.88934e-13
9.50943e-13 7.88934e-13 -5.59536

-48.961 -17.9685 1.93007e-12
-17.9685 6.34175 4.12707e-13
1.93007e-12 4.12707e-13 -12.9493

11.6604 -2.66519 1.32072e-12
-2.66519 -43.2556 1.91773e-13
1.32072e-12 1.91773e-13 -8.03938

-11.3565 26.6795 6.51331e-14
26.6795 19.5171 1.30385e-12
6.51331e-14 1.30385e-12 -6.09566

21.7662 -4.19651 7.83373e-13
-4.19651 -35.3036 -1.93638e-12
7.83373e-13 -1.93638e-12 -6.74758

-24.4865 8.67076 2.3328e-12
8.67076 32.1295 2.72552e-12
2.3328e-12 2.72552e-12 -4.93991

-11.8082 6.2845 2.40544e-11
6.2845 -11.9667 1.8292e-12
2.40544e-11 1.8292e-12 -75.5903

22.7445 1.87623 -4.74287e-13
1.87623 -33.4782 1.15241e-13
-4.74287e-13 1.15241e-13 -6.68354

-12.3931 -27.7202 -4.49566e-12
-27.7202 1.59727 -2.89428e-12
-4.49566e-12 -2.89428e-12 -6.60885

21.3053 6.85048 -6.24093e-13
6.85048 -34.313 -7.14243e-13
-6.24093e-13 -7.14243e-13 -6.81273

-37.9108 19.1147 2.83625e-13
19.1147 2.65348 1.95873e-12
2.83625e-13 1.95873e-12 -9.4629

106.622 4.18234 5.48302e-12
4.18234 20.6051 1.87376e-12
5.48302e-12 1.87376e-12 -12.0476

-5.30529 30.7504 -3.36324e-13
30.7504 -7.27683 2.77793e-12
-3.36324e-13 2.77793e-12 -7.44731

27.891 37.0831 -6.87805e-12
37.0831 26.4701 -2.86112e-12
-6.87805e-12 -2.86112e-12 -8.63632

-9.43928 10.3237 -9.53015e-13
10.3237 -32.9205 3.11791e-12
-9.53015e-13 3.11791e-12 -49.4921

19.8316 14.2179 -1.00364e-12
14.2179 -29.3651 -3.53243e-12
-1.00364e-12 -3.53243e-12 -6.00631

-4.21657 -17.7846 4.1549e-12
-17.7846 59.6662 -5.33854e-12
4.1549e-12 -5.33854e-12 -8.4802

66.2946 -42.1097 1.85925e-12
-42.1097 71.1506 -9.00021e-13
1.85925e-12 -9.00021e-13 -11.2496

-48.2058 5.98425 2.57665e-12
5.98425 7.26857 -3.88726e-13
2.57665e-12 -3.88726e-13 -41.0259

-26.2896 -4.83685 1.50369e-12
-4.83685 1.75645 -6.40081e-12
1.50369e-12 -6.40081e-12 -37.7915

-1.46868 21.0269 7.46958e-13
21.0269 -39.5014 -5.91616e-12
7.46958e-13 -5.91616e-12 -41.0918

-43.9664 5.06372 -6.54143e-13
5.06372 0.51386 -5.06558e-12
-6.54143e-13 -5.06558e-12 -52.1734

-2.76244 -9.17167 2.28884e-12
-9.17167 -20.7663 4.83613e-13
2.28884e-12 4.83613e-13 -35.8867

-3.97777 -28.002 -4.45273e-13
-28.002 -4.61213 -4.58241e-12
-4.45273e-13 -4.58241e-12 -5.99993

65.6083 41.5289 -9.81733e-12
41.5289 73.1787 -8.04098e-12
-9.81733e-12 -8.04098e-12 -10.9613

60.1638 -17.9532 -2.67993e-12
-17.9532 0.111588 -2.28736e-12
-2.67993e-12 -2.28736e-12 -8.05389

-41.7946 -3.70281 -9.03573e-13
-3.70281 -1.18569 -3.28744e-12
-9.03573e-13 -3.28744e-12 -52.7079

-14.5889 19.5499 -1.93808e-12
19.5499 -28.5476 6.0781e-13
-1.93808e-12 6.0781e-13 -52.8161

18.1425 -12.274 -7.58504e-13
-12.274 -29.9051 7.66794e-13
-7.58504e-13 7.66794e-13 -6.22844

38.1777 -43.3085 -7.48438e-13
-43.3085 41.8066 -1.7278e-12
-7.48438e-13 -1.7278e-12 -14.5606

58.152 -18.0675 6.30962e-12
-18.0675 -2.30882 -8.64494e-13
6.30962e-12 -8.64494e-13 -7.91781

-21.4504 17.0893 2.34731e-12
17.0893 30.3291 9.39101e-13
2.34731e-12 9.39101e-13 -5.73441

-11.3783 19.3431 -2.04222e-12
19.3431 25.5118 -8.28966e-15
-2.04222e-12 -8.28966e-15 -3.92751

20.7909 -16.3034 -3.62199e-12
-16.3034 -33.1221 6.25278e-13
-3.62199e-12 6.25278e-13 -7.31748

12.6131 -34.1933 -9.15416e-13
-34.1933 46.4412 -2.58993e-12
-9.15416e-13 -2.58993e-12 -10.4009

62.3691 19.1862 -4.39352e-12
19.1862 2.80576 -1.76037e-12
-4.39352e-12 -1.76037e-12 -8.41744

46.5186 -25.2941 -4.37931e-12
-25.2941 5.1296 1.25233e-13
-4.37931e-12 1.25233e-13 -5.61464

-31.8978 19.4822 -7.40149e-13
19.4822 -4.28408 -1.92646e-12
-7.40149e-13 -1.92646e-12 -26.0814

37.0419 29.6561 -3.25073e-12
29.6561 14.5107 2.7119e-13
-3.25073e-12 2.7119e-13 -5.43702

-27.4465 -21.8126 -2.81997e-12
-21.8126 -8.23287 6.19255e-13
-2.81997e-12 6.19255e-13 -25.2441

64.8778 -42.72 -2.65032e-12
-42.72 44.0858 1.83557e-12
-2.65032e-12 1.83557e-12 -9.50253

-27.7475 5.45575 -1.27764e-12
5.45575 2.66874 -6.46298e-13
-1.27764e-12 -6.46298e-13 -38.2968

-5.56442 -5.33114 3.71377e-12
-5.33114 57.3955 -1.5549e-12
3.71377e-12 -1.5549e-12 -5.45406

-0.203501 10.3851 -3.76588e-13
10.3851 -24.8433 2.41012e-12
-3.76588e-13 2.41012e-12 -38.3584

-26.4924 21.4168 -1.21592e-12
21.4168 12.2189 -4.62623e-12
-1.21592e-12 -4.62623e-12 -6.87591

4.72468 5.7555 1.6942e-12
5.7555 -56.0406 1.80256e-12
1.6942e-12 1.80256e-12 -13.984

0.541204 11.4591 1.83868e-12
11.4591 -34.0588 -5.16861e-12
1.83868e-12 -5.16861e-12 -14.8409

106.36 31.8251 -1.11555e-12
31.8251 37.8375 -8.84034e-12
-1.11555e-12 -8.84034e-12 -7.48815

-35.4945 -6.03695 1.53936e-12
-6.03695 10.6015 9.39101e-13
1.53936e-12 9.39101e-13 -13.4805

-35.3614 9.52125 2.72212e-12
9.52125 1.2343 -1.68932e-12
2.72212e-12 -1.68932e-12 -14.9611

-42.5922 -2.88217 -7.30897e-13
-2.88217 21.1103 -2.21038e-12
-7.30897e-13 -2.21038e-12 -11.2421

-44.9103 23.4008 -1.18535e-13
23.4008 -5.89267 2.74151e-13
-1.18535e-13 2.74151e-13 -13.9249

9.97089 8.4648 -2.03008e-12
8.4648 -42.384 -2.13222e-12
-2.03008e-12 -2.13222e-12 -9.08315

-12.3395 -28.2444 3.00678e-12
-28.2444 1.68469 1.52826e-12
3.00678e-12 1.52826e-12 -6.68006

1.30876 -1.71177 2.18344e-13
-1.71177 -55.4584 3.01241e-14
2.18344e-13 3.01241e-14 -11.3086

-31.8874 -19.2582 -3.12343e-13
-19.2582 -4.59325 1.82402e-12
-3.12343e-13 1.82402e-12 -25.9507

-27.9717 21.3078 -2.04696e-12
21.3078 -8.36248 1.9768e-12
-2.04696e-12 1.9768e-12 -26.0091

-0.657242 -16.5873 3.2081e-12
-16.5873 61.6825 5.56592e-14
3.2081e-12 5.56592e-14 -7.9527

-0.650627 -27.938 4.55872e-12
-27.938 -21.3658 3.27412e-12
4.55872e-12 3.27412e-12 -12.7934

-14.0973 -25.1385 -1.09246e-12
-25.1385 7.40594 -8.23637e-13
-1.09246e-12 -8.23637e-13 -5.24175

91.6944 -31.7167 9.9476e-14
-31.7167 19.4877 5.41907e-12
9.9476e-14 5.41907e-12 -16.3317

-33.7099 3.22348 9.11937e-13
3.22348 9.20106 1.7728e-12
9.11937e-13 1.7728e-12 -18.5625

2.74939 28.9462 3.51541e-12
28.9462 -24.4271 -5.90047e-13
3.51541e-12 -5.90047e-13 -11.3197

-38.4392 19.6657 -2.78192e-12
19.6657 5.22902 -7.35708e-13
-2.78192e-12 -7.35708e-13 -9.24045

50.1968 8.00132 9.76996e-13
8.00132 -16.9732 -6.34751e-12
9.76996e-13 -6.34751e-12 -7.07228

60.0399 -33.9429 2.94757e-12
-33.9429 33.7893 -5.24025e-12
2.94757e-12 -5.24025e-12 -6.98557

-18.9648 -10.5863 6.15893e-12
-10.5863 -0.539545 -2.82115e-12
6.15893e-12 -2.82115e-12 -25.4264

-33.9254 23.9009 1.08654e-13
23.9009 -12.0263 -1.77847e-12
1.08654e-13 -1.77847e-12 -14.5427

58.1645 -32.391 -1.66149e-12
-32.391 18.0908 -1.72899e-12
-1.66149e-12 -1.72899e-12 -10.1362

66.8696 10.7935 -3.09086e-13
10.7935 8.50967 -6.11999e-12
-3.09086e-13 -6.11999e-12 -5.08761

7.67226 -21.2105 -4.71919e-13
-21.2105 88.4797 -2.52716e-12
-4.71919e-13 -2.52716e-12 -11.8631

-33.9939 14.4274 -1.65016e-12
14.4274 20.2383 -7.2499e-12
-1.65016e-12 -7.2499e-12 -7.55215

8.47381 23.1464 5.50671e-14
23.1464 -26.0773 6.92187e-13
5.50671e-14 6.92187e-13 -11.3021

34.8726 42.2077 4.0347e-12
42.2077 46.2056 4.54037e-12
4.0347e-12 4.54037e-12 -14.4221

-4.39428 16.5038 9.47916e-12
16.5038 -35.5324 8.83589e-13
9.47916e-12 8.83589e-13 -73.2589

-5.98669 -4.10937 2.88984e-12
-4.10937 57.9561 2.04873e-13
2.88984e-12 2.04873e-13 -5.44628

-1.8197 -16.6292 -4.61919e-12
-16.6292 -39.3912 3.01329e-12
-4.61919e-12 3.01329e-12 -74.0819

-3.33159 -27.3346 3.96128e-13
-27.3346 -30.0288 -3.21743e-12
3.96128e-13 -3.21743e-12 -21.5522

8.96572 27.426 1.53951e-12
27.426 -29.9996 -4.82459e-12
1.53951e-12 -4.82459e-12 -11.2607

45.7164 -24.416 9.43838e-13
-24.416 5.01996 4.48441e-12
9.43838e-13 4.48441e-12 -5.24073

10.0924 31.3305 7.06398e-12
31.3305 47.1689 -1.20082e-12
7.06398e-12 -1.20082e-12 -9.64423

14.2707 -10.7074 -1.63839e-12
-10.7074 82.8519 6.9799e-12
-1.63839e-12 6.9799e-12 -6.44879

-38.6346 21.972 5.21376e-12
21.972 2.94076 7.86926e-13
5.21376e-12 7.86926e-13 -8.5739

1.19367 16.7961 -1.3823e-12
16.7961 -25.7254 5.03568e-12
-1.3823e-12 5.03568e-12 -18.5667

-26.5431 15.1567 -3.37893e-12
15.1567 18.4496 -1.10016e-12
-3.37893e-12 -1.10016e-12 -5.71351

43.6636 15.957 5.20709e-12
15.957 -7.29186 3.52548e-12
5.20709e-12 3.52548e-12 -4.08047

12.5743 -21.4774 -2.52776e-12
-21.4774 57.9634 1.21621e-12
-2.52776e-12 1.21621e-12 -4.71761

66.0063 -29.3971 1.83794e-12
-29.3971 18.6432 2.63019e-12
1.83794e-12 2.63019e-12 -9.33734

-32.3839 -24.5754 -2.97259e-12
-24.5754 -7.28361 -2.80309e-12
-2.97259e-12 -2.80309e-12 -8.98175

-22.6702 27.454 -3.59061e-12
27.454 -10.3538 -2.12748e-12
-3.59061e-12 -2.12748e-12 -9.28921

-38.3528 23.1889 2.04651e-12
23.1889 1.99037 -1.35714e-12
2.04651e-12 -1.35714e-12 -8.52985

-51.5547 13.1684 1.46498e-12
13.1684 11.9248 3.86654e-13
1.46498e-12 3.86654e-13 -16.4678

23.486 9.37315 8.43769e-13
9.37315 -29.4946 2.28588e-12
8.43769e-13 2.28588e-12 -5.32721

3.76481 -4.66595 5.35868e-14
-4.66595 79.4509 1.70767e-12
5.35868e-14 1.70767e-12 -9.53358

-44.9374 -36.8304 -1.40806e-12
-36.8304 -19.828 4.87314e-13
-1.40806e-12 4.87314e-13 -14.7734

-16.0851 27.47 -6.89522e-13
27.47 1.33827 -9.13639e-13
-6.89522e-13 -9.13639e-13 -6.92097

-5.02027 2.17059 6.3302e-12
2.17059 82.6877 7.88229e-12
6.3302e-12 7.88229e-12 -13.433

69.0559 34.6179 4.68958e-13
34.6179 15.4961 -3.94766e-12
4.68958e-13 -3.94766e-12 -10.7077

-31.3564 -22.9766 8.40957e-13
-22.9766 -4.6341 -1.96199e-12
8.40957e-13 -1.96199e-12 -8.53561

11.7432 5.73292 -9.14232e-13
5.73292 -48.3384 4.87906e-13
-9.14232e-13 4.87906e-13 -8.64623

43.0701 27.2101 -2.65506e-12
27.2101 10.449 2.52124e-12
-2.65506e-12 2.52124e-12 -5.0853

-9.41064 12.744 6.36528e-14
12.744 -14.0418 1.09009e-12
6.36528e-14 1.09009e-12 -37.0298

70.3452 24.3359 2.04163e-12
24.3359 23.8054 2.61776e-12
2.04163e-12 2.61776e-12 -6.80129

-10.5815 -13.0535 5.10703e-12
-13.0535 -13.9237 -6.18468e-13
5.10703e-12 -6.18468e-13 -37.3674

-4.3859 0.778794 1.44507e-12
0.778794 59.406 -2.64796e-12
1.44507e-12 -2.64796e-12 -4.83512

38.3608 -2.23581 -7.28306e-13
-2.23581 -23.8206 8.83182e-13
-7.28306e-13 8.83182e-13 -5.83844

3.5925 -15.7652 -1.96465e-12
-15.7652 -53.9664 1.77369e-12
-1.96465e-12 1.77369e-12 -21.1228

-42.2793 24.3885 2.75336e-12
24.3885 -11.737 -7.01365e-13
2.75336e-12 -7.01365e-13 -11.1722

-46.8131 -13.5357 2.84923e-12
-13.5357 11.066 1.89478e-13
2.84923e-12 1.89478e-13 -12.3568

5.80915 -7.99895 2.76372e-13
-7.99895 -70.9628 -1.70012e-12
2.76372e-13 -1.70012e-12 -14.8846

-49.538 -22.2804 5.16076e-12
-22.2804 3.74592 -1.06049e-12
5.16076e-12 -1.06049e-12 -22.1028

-17.4576 -6.59999 -7.71117e-12
-6.59999 -13.1151 -6.90244e-12
-7.71117e-12 -6.90244e-12 -34.7721

-28.7314 -29.9088 2.43805e-12
-29.9088 -9.4003 -1.48326e-12
2.43805e-12 -1.48326e-12 -9.00083

15.6921 11.4561 -5.59168e-12
11.4561 80.193 3.07902e-13
-5.59168e-12 3.07902e-13 -6.53243

42.2941 -28.1528 2.08426e-12
-28.1528 11.0481 1.43056e-12
2.08426e-12 1.43056e-12 -5.0486

-47.1699 -13.7692 -2.95948e-12
-13.7692 4.19641 -1.96643e-12
-2.95948e-12 -1.96643e-12 -29.2952

2.96414 0.505429 2.97999e-12
0.505429 -56.8141 1.50087e-12
2.97999e-12 1.50087e-12 -11.0101

-39.339 -21.5236 1.81958e-12
-21.5236 -8.85628 2.26367e-12
1.81958e-12 2.26367e-12 -14.7766

-40.196 25.6987 3.99532e-13
25.6987 -14.6925 5.58442e-13
3.99532e-13 5.58442e-13 -11.3156

32.2622 -31.4715 3.71495e-12
-31.4715 38.4327 -4.07852e-12
3.71495e-12 -4.07852e-12 -4.65177

-31.4676 -7.08089 7.48882e-13
-7.08089 1.70274 3.75551e-12
7.48882e-13 3.75551e-12 -40.9801

36.6335 -33.0836 -6.24449e-12
-33.0836 72.0381 -1.6153e-12
-6.24449e-12 -1.6153e-12 -7.14556

16.6134 -19.1824 -1.11733e-12
-19.1824 -25.8762 2.53368e-12
-1.11733e-12 2.53368e-12 -7.13833

1.50207 1.97227 -4.51868e-12
1.97227 -51.3917 -1.02644e-12
-4.51868e-12 -1.02644e-12 -15.3763

-12.8703 17.8736 -3.87483e-12
17.8736 -16.957 2.35752e-12
-3.87483e-12 2.35752e-12 -41.0476

10.71 20.1875 3.15126e-12
20.1875 59.4621 2.67756e-12
3.15126e-12 2.67756e-12 -4.36036

4.31593 27.2141 4.17385e-12
27.2141 -16.226 1.33079e-12
4.17385e-12 1.33079e-12 -8.12859

30.9065 -24.5161 -3.21994e-12
-24.5161 -8.13877 2.09314e-13
-3.21994e-12 2.09314e-13 -4.8779

-37.7928 -17.84 1.93588e-12
-17.84 2.40056 -3.58232e-14
1.93588e-12 -3.58232e-14 -9.8694

55.5209 35.0756 3.04941e-12
35.0756 42.3499 4.33431e-12
3.04941e-12 4.33431e-12 -6.63791

-40.0182 -21.8318 -9.59233e-13
-21.8318 2.53649 1.3296e-12
-9.59233e-13 1.3296e-12 -9.39892

2.96481 30.8534 3.97963e-12
30.8534 -17.394 3.201e-12
3.97963e-12 3.201e-12 -9.08295

18.5375 -25.2472 -1.69583e-12
-25.2472 -19.4244 9.38213e-13
-1.69583e-12 9.38213e-13 -6.34794

-15.6581 -25.1302 1.48237e-12
-25.1302 5.89477 1.58688e-12
1.48237e-12 1.58688e-12 -5.78141

42.7227 -18.6921 -1.46845e-13
-18.6921 -9.17294 -6.06626e-12
-1.46845e-13 -6.06626e-12 -5.37453

27.4332 -18.8532 -3.19744e-14
-18.8532 -20.376 -1.07114e-12
-3.19744e-14 -1.07114e-12 -5.69566

-41.3946 -25.3381 4.79616e-14
-25.3381 -14.965 1.11885e-12
4.79616e-14 1.11885e-12 -11.5716

29.7824 35.9775 -4.53563e-12
35.9775 25.2276 -9.60417e-13
-4.53563e-12 -9.60417e-13 -8.6484

-28.5231 15.3795 -1.88945e-12
15.3795 18.519 -5.41434e-12
-1.88945e-12 -5.41434e-12 -5.87941

-23.1108 26.4251 -7.70051e-13
26.4251 -12.5496 2.88066e-13
-7.70051e-13 2.88066e-13 -9.96298

-42.0992 25.4737 9.87238e-13
25.4737 -11.5927 7.80857e-13
9.87238e-13 7.80857e-13 -10.9976

-37.2924 11.6235 -8.08811e-13
11.6235 11.8441 -1.46372e-12
-8.08811e-13 -1.46372e-12 -9.08477

64.4023 -8.22877 1.51109e-12
-8.22877 3.19276 -5.21938e-12
1.51109e-12 -5.21938e-12 -4.25465

8.73036 18.6107 5.1088e-12
18.6107 59.2278 3.24363e-12
5.1088e-12 3.24363e-12 -4.16609

-25.6197 -24.3833 -2.0585e-12
-24.3833 0.457485 -3.34103e-12
-2.0585e-12 -3.34103e-12 -7.22142

-1.14564 25.6708 -3.36916e-13
25.6708 13.7519 3.63087e-12
-3.36916e-13 3.63087e-12 -4.0885

32.3806 -35.6373 9.35548e-13
-35.6373 21.6998 9.41469e-13
9.35548e-13 9.41469e-13 -8.49021

59.545 38.3249 1.83438e-12
38.3249 17.8481 4.29286e-12
1.83438e-12 4.29286e-12 -13.724

12.1226 -33.3186 2.77763e-12
-33.3186 42.918 -2.66572e-12
2.77763e-12 -2.66572e-12 -9.54665

30.5526 -31.1666 -1.58925e-12
-31.1666 36.8165 -2.22755e-12
-1.58925e-12 -2.22755e-12 -4.40921

11.769 -6.83858 -3.53288e-12
-6.83858 -48.8401 1.91284e-12
-3.53288e-12 1.91284e-12 -8.77497

25.2746 30.3485 -4.66116e-12
30.3485 41.0929 -1.74083e-13
-4.66116e-12 -1.74083e-13 -4.45975

62.6909 13.2975 2.5994e-12
13.2975 5.22378 9.12455e-13
2.5994e-12 9.12455e-13 -4.30918

-7.0327 13.3819 -3.3468e-12
13.3819 61.3528 5.32907e-12
-3.3468e-12 5.32907e-12 -8.69905

11.7267 -22.3454 1.10253e-12
-22.3454 55.7703 -6.73239e-12
1.10253e-12 -6.73239e-12 -4.30519

-47.2598 -1.09305 -2.42525e-12
-1.09305 12.4084 2.02682e-12
-2.42525e-12 2.02682e-12 -22.1597

-5.92577 2.2472 -5.44942e-12
2.2472 59.0122 1.13924e-12
-5.44942e-12 1.13924e-12 -5.26693

6.26493 31.0962 4.1999e-12
31.0962 47.871 9.23706e-13
4.1999e-12 9.23706e-13 -9.66445

-39.7278 12.1095 8.5365e-13
12.1095 12.8437 1.26358e-12
8.5365e-13 1.26358e-12 -9.31704

40.742 -27.6537 -1.56912e-12
-27.6537 8.35422 -1.6757e-13
-1.56912e-12 -1.6757e-13 -5.64654

7.53728 20.5572 -3.53673e-12
20.5572 -47.4678 2.01498e-12
-3.53673e-12 2.01498e-12 -16.4832

-3.42314 26.2704 -9.4443e-13
26.2704 -31.485 -4.6955e-12
-9.4443e-13 -4.6955e-12 -22.2501

15.7768 -18.5706 5.34624e-12
-18.5706 -30.0193 -1.0371e-12
5.34624e-12 -1.0371e-12 -8.18791

4.42683 -1.80479 -4.61705e-12
-1.80479 -34.1329 -1.96287e-12
-4.61705e-12 -1.96287e-12 -24.4356

-14.3428 -31.8142 1.84445e-12
-31.8142 -11.9337 -2.16005e-12
1.84445e-12 -2.16005e-12 -9.05445

56.2258 23.3329 -1.82728e-12
23.3329 0.811534 6.13731e-12
-1.82728e-12 6.13731e-12 -8.29195

-27.8298 30.1629 3.52311e-14
30.1629 -9.23693 1.75119e-12
3.52311e-14 1.75119e-12 -8.80511

-27.0055 29.2068 -2.84868e-12
29.2068 -9.20211 1.77873e-12
-2.84868e-12 1.77873e-12 -8.68243

28.6295 30.6677 -5.2971e-12
30.6677 40.4095 -1.94807e-12
-5.2971e-12 -1.94807e-12 -4.45265

0.343005 27.0872 2.07834e-12
27.0872 -19.851 1.93801e-12
2.07834e-12 1.93801e-12 -11.7799

64.5177 3.52593 2.74388e-12
3.52593 -11.8336 -3.24707e-12
2.74388e-12 -3.24707e-12 -10.0223

-14.9016 31.8173 1.01637e-12
31.8173 -20.7991 9.39101e-13
1.01637e-12 9.39101e-13 -12.4504

-37.9493 -12.5991 -3.74937e-12
-12.5991 8.18046 1.01608e-12
-3.74937e-12 1.01608e-12 -14.0249

-0.474414 24.2769 2.33887e-12
24.2769 -30.001 3.74278e-12
2.33887e-12 3.74278e-12 -20.7696

-23.7294 -29.5798 8.98837e-13
-29.5798 -11.9352 -3.43459e-12
8.98837e-13 -3.43459e-12 -8.84796

-38.1541 -4.89699 1.42479e-12
-4.89699 18.8472 -7.63833e-13
1.42479e-12 -7.63833e-13 -11.7329

69.9552 -24.5617 -7.27122e-13
-24.5617 18.0279 -3.48876e-12
-7.27122e-13 -3.48876e-12 -7.04648

39.9855 29.6997 3.63206e-12
29.6997 13.4772 -3.51008e-12
3.63206e-12 -3.51008e-12 -5.21946

-4.30238 14.6999 -2.94638e-12
14.6999 60.5799 1.70886e-12
-2.94638e-12 1.70886e-12 -8.40487

1.61113 -1.1395 4.08532e-12
-1.1395 -56.1254 1.9927e-12
4.08532e-12 1.9927e-12 -11.2139

9.61416 0.00212508 -3.38514e-12
0.00212508 -44.7606 -1.4988e-13
-3.38514e-12 -1.4988e-13 -8.44377

-31.0836 23.1267 4.39796e-12
23.1267 -4.33887 4.5904e-12
4.39796e-12 4.5904e-12 -8.46418

-34.7616 23.872 3.53199e-13
23.872 -13.1948 -9.87025e-13
3.53199e-13 -9.87025e-13 -14.8153

-43.3805 -24.3811 -3.05472e-12
-24.3811 -12.6138 -2.04281e-13
-3.05472e-12 -2.04281e-13 -11.4732

-39.0644 -0.674009 1.6509e-12
-0.674009 21.0463 -1.0593e-12
1.6509e-12 -1.0593e-12 -10.499

-40.8077 25.5915 -4.2002e-12
25.5915 -13.224 1.40673e-12
-4.2002e-12 1.40673e-12 -11.177

32.3243 -10.3099 2.65565e-12
-10.3099 -25.163 -2.06501e-13
2.65565e-12 -2.06501e-13 -6.02035

8.70331 -32.8409 5.73763e-13
-32.8409 22.7978 -1.63247e-12
5.73763e-13 -1.63247e-12 -6.99744

2.39614 -2.30294 4.92791e-13
-2.30294 -49.9619 -5.45845e-12
4.92791e-13 -5.45845e-12 -14.775

36.7486 -34.5161 7.56846e-12
-34.5161 24.4801 -8.90547e-13
7.56846e-12 -8.90547e-13 -7.71288

-38.2963 19.0858 -6.52811e-13
19.0858 -7.09277 9.4739e-13
-6.52811e-13 9.4739e-13 -14.4517

7.87032 -26.4799 2.72493e-12
-26.4799 -27.9994 -1.61056e-13
2.72493e-12 -1.61056e-13 -10.9724

63.9566 -9.69249 -3.13705e-12
-9.69249 5.67316 5.29191e-12
-3.13705e-12 5.29191e-12 -5.07589

6.03774 -23.1935 1.92794e-12
-23.1935 -35.4697 4.5226e-12
1.92794e-12 4.5226e-12 -17.7364

0.141546 2.35855 7.08322e-13
2.35855 -56.1756 5.11739e-13
7.08322e-13 5.11739e-13 -11.5505

-4.06311 -23.3238 -3.9897e-12
-23.3238 -23.4125 1.02762e-12
-3.9897e-12 1.02762e-12 -16.7201

11.0376 -25.8609 6.79753e-13
-25.8609 -29.4909 -4.23069e-12
6.79753e-13 -4.23069e-12 -9.73774

10.2005 -8.54789 -2.0511e-12
-8.54789 -43.4959 3.62184e-12
-2.0511e-12 3.62184e-12 -9.2867

-35.4168 -23.0692 -1.92202e-12
-23.0692 -12.6483 -1.32067e-12
-1.92202e-12 -1.32067e-12 -15.1052

23.6644 -31.3486 -4.07378e-13
-31.3486 5.70856 1.95103e-12
-4.07378e-13 1.95103e-12 -5.88378

11.0583 -24.5907 1.31154e-12
-24.5907 -27.4986 2.54374e-12
1.31154e-12 2.54374e-12 -10.0518

46.6486 10.8669 -1.21858e-12
10.8669 -16.1263 -8.81369e-13
-1.21858e-12 -8.81369e-13 -6.80539

-14.1866 26.3424 4.15105e-12
26.3424 -15.6441 -3.59046e-12
4.15105e-12 -3.59046e-12 -14.1211

-45.2492 -37.6097 -2.01617e-12
-37.6097 -20.6109 9.65635e-13
-2.01617e-12 9.65635e-13 -14.9217

-43.7064 37.2623 8.63902e-13
37.2623 -21.2645 1.65697e-12
8.63902e-13 1.65697e-12 -14.7722

-61.1802 -28.5715 -1.39925e-13
-28.5715 -7.4974 7.01661e-13
-1.39925e-13 7.01661e-13 -15.2022

-58.4118 27.0627 2.09736e-12
27.0627 -6.27194 2.13163e-14
2.09736e-12 2.13163e-14 -14.4809

5.5999 -8.52647 4.1213e-12
-8.52647 -71.0593 -1.30118e-13
4.1213e-12 -1.30118e-13 -14.7125

4.39703 9.27239 -8.67454e-13
9.27239 -68.8284 1.58673e-12
-8.67454e-13 1.58673e-12 -14.4405

9.02359 -9.84784 -7.60281e-13
-9.84784 -40.8957 -1.00172e-12
-7.60281e-13 -1.00172e-12 -9.61675

-24.3352 32.1123 -5.1988e-13
32.1123 -24.8069 -2.28053e-12
-5.1988e-13 -2.28053e-12 -21.1438

-25.5221 -32.85 -2.80812e-12
-32.85 -25.0932 -1.08473e-12
-2.80812e-12 -1.08473e-12 -21.4678

-53.9137 16.0676 1.94037e-12
16.0676 3.39928 1.45365e-12
1.94037e-12 1.45365e-12 -21.4013

-52.4151 -15.8003 -1.48341e-12
-15.8003 3.29478 -1.46609e-12
-1.48341e-12 -1.46609e-12 -21.0747

6.1093 -3.75083 5.88181e-12
-3.75083 -43.9232 9.79957e-13
5.88181e-12 9.79957e-13 -25.7612

6.91516 3.61348 -1.34441e-12
3.61348 -46.3461 3.2078e-12
-1.34441e-12 3.2078e-12 -26.1374

-15.6344 9.83903 -6.52589e-13
9.83903 46.2676 -7.20017e-13
-6.52589e-13 -7.20017e-13 -5.85353

-22.9214 -24.777 1.19371e-12
-24.777 -14.5541 -1.09364e-12
1.19371e-12 -1.09364e-12 -10.3345

-56.6003 -36.3852 -1.11688e-13
-36.3852 -14.5321 2.21408e-12
-1.11688e-13 2.21408e-12 -13.441

33.3617 -4.66494 3.8464e-12
-4.66494 -19.8545 4.01901e-13
3.8464e-12 4.01901e-13 -3.95094

3.43226 -16.6915 6.21281e-13
-16.6915 -52.6243 -2.25834e-12
6.21281e-13 -2.25834e-12 -21.531

3.67343 16.1725 2.64796e-12
16.1725 -51.88 1.45484e-12
2.64796e-12 1.45484e-12 -21.4043

6.55497 0.121847 -1.28638e-13
0.121847 -76.7504 6.29161e-14
-1.28638e-13 6.29161e-14 -13.3078

-7.57663 23.3807 5.36312e-12
23.3807 39.9396 4.1922e-13
5.36312e-12 4.1922e-13 -6.89076

-56.8859 36.1691 8.53169e-13
36.1691 -14.0107 7.38668e-14
8.53169e-13 7.38668e-14 -13.3926

-39.796 -23.3967 2.38476e-13
-23.3967 2.56088 5.71099e-13
2.38476e-13 5.71099e-13 -8.80572

37.1198 23.3579 3.97075e-12
23.3579 -8.62 2.56091e-12
3.97075e-12 2.56091e-12 -5.76425

4.73259 23.8595 2.39098e-12
23.8595 -38.2268 2.07834e-12
2.39098e-12 2.07834e-12 -18.9856

24.0137 -31.3204 -3.27442e-12
-31.3204 6.40468 -4.08562e-14
-3.27442e-12 -4.08562e-14 -5.6537

2.43016 -3.23291 1.85037e-14
-3.23291 -48.371 -5.99224e-13
1.85037e-14 -5.99224e-13 -14.7449

-60.4532 -34.1591 -3.0842e-13
-34.1591 -14.3498 2.54404e-12
-3.0842e-13 2.54404e-12 -14.0345

-17.4615 8.32174 1.9485e-12
8.32174 45.6968 -8.56204e-13
1.9485e-12 -8.56204e-13 -5.78666

-9.47629 21.8167 -7.20313e-13
21.8167 40.4292 8.05282e-14
-7.20313e-13 8.05282e-14 -6.65931

58.6119 35.7836 2.62901e-12
35.7836 37.0912 1.7657e-12
2.62901e-12 1.7657e-12 -6.91771

70.4956 1.57914 -8.47914e-13
1.57914 -5.54934 -1.85185e-13
-8.47914e-13 -1.85185e-13 -10.3773

-30.759 -22.8058 -1.23279e-12
-22.8058 -13.3586 -3.30928e-12
-1.23279e-12 -3.30928e-12 -14.4683

32.8439 31.1906 5.07328e-12
31.1906 69.8048 -2.67638e-12
5.07328e-12 -2.67638e-12 -6.68072

-19.3807 23.6131 9.79957e-14
23.6131 7.68638 -4.36332e-12
9.79957e-14 -4.36332e-12 -5.51903

47.6431 -5.35074 -5.59552e-12
-5.35074 -17.4427 7.54952e-15
-5.59552e-12 7.54952e-15 -6.82733

33.2222 11.2184 -2.88007e-12
11.2184 -23.6463 1.6979e-12
-2.88007e-12 1.6979e-12 -6.02007

6.25352 0.429858 1.83883e-12
0.429858 -77.5474 -2.30217e-12
1.83883e-12 -2.30217e-12 -13.4535

-58.9315 -29.0292 -1.55786e-12
-29.0292 -6.2886 2.1562e-12
-1.55786e-12 2.1562e-12 -14.6999

-28.3307 -6.31704 5.63549e-12
-6.31704 -11.3523 7.23214e-12
5.63549e-12 7.23214e-12 -51.5716

-44.6957 37.4085 -1.668e-12
37.4085 -20.81 1.9537e-12
-1.668e-12 1.9537e-12 -14.7762

93.8061 1.66358 -6.90884e-12
1.66358 16.6546 -1.75023e-12
-6.90884e-12 -1.75023e-12 -6.04403

10.0334 -32.7946 -3.3585e-12
-32.7946 21.3106 -3.27619e-12
-3.3585e-12 -3.27619e-12 -6.81374

-56.9327 36.6105 -4.30937e-12
36.6105 -14.5705 -1.6717e-12
-4.30937e-12 -1.6717e-12 -13.5088

-35.0867 -11.1349 -6.34215e-13
-11.1349 19.1777 1.00483e-12
-6.34215e-13 1.00483e-12 -8.32152

-5.48415 -25.5206 -6.07514e-12
-25.5206 37.3537 -6.26462e-13
-6.07514e-12 -6.26462e-13 -6.99253

-58.4482 28.8282 1.61415e-12
28.8282 -6.27198 2.52628e-12
1.61415e-12 2.52628e-12 -14.617

28.497 -26.1474 -3.33304e-12
-26.1474 -4.91768 1.00423e-12
-3.33304e-12 1.00423e-12 -4.70285

-21.164 10.4846 1.61234e-12
10.4846 -18.5582 -4.59099e-12
1.61234e-12 -4.59099e-12 -51.6671

3.4283 30.8792 -5.004e-12
30.8792 27.1637 2.81493e-12
-5.004e-12 2.81493e-12 -6.73855

6.13936 8.12558 -4.7747e-12
8.12558 -72.2924 6.95592e-13
-4.7747e-12 6.95592e-13 -14.9869

-11.5481 30.1916 1.48089e-12
30.1916 -20.603 -2.5242e-12
1.48089e-12 -2.5242e-12 -11.5523

-30.802 23.3346 -1.3635e-12
23.3346 -5.10127 -1.88856e-12
-1.3635e-12 -1.88856e-12 -8.47014

-25.863 -32.4848 4.15579e-12
-32.4848 -24.1099 -1.06911e-12
4.15579e-12 -1.06911e-12 -21.5572

9.2034 -23.1934 3.97134e-12
-23.1934 -27.9256 -1.11585e-12
3.97134e-12 -1.11585e-12 -11.4288

-37.6632 10.4677 4.95159e-14
10.4677 8.9291 3.8014e-13
4.95159e-14 3.8014e-13 -25.3271

-23.0451 -23.4366 2.26456e-12
-23.4366 4.95152 -6.84726e-12
2.26456e-12 -6.84726e-12 -6.26881

88.8184 -9.71016 3.91272e-12
-9.71016 10.8055 9.16526e-13
3.91272e-12 9.16526e-13 -10.0319

84.0583 -14.28 -2.02031e-12
-14.28 2.8095 5.36993e-12
-2.02031e-12 5.36993e-12 -13.1981

5.88528 16.5322 4.87373e-12
16.5322 -33.9323 2.96681e-12
4.87373e-12 2.96681e-12 -22.3735

-16.4273 22.5061 -4.27895e-12
22.5061 16.2277 -4.60787e-12
-4.27895e-12 -4.60787e-12 -5.09141

-3.91461 29.1672 7.28306e-14
29.1672 -12.2345 -2.96059e-16
7.28306e-14 -2.96059e-16 -8.40132

50.9995 0.688778 -5.94724e-12
0.688778 -6.53873 -5.45832e-13
-5.94724e-12 -5.45832e-13 -3.63945

-48.1435 6.56973 1.37201e-12
6.56973 14.785 -1.90662e-13
1.37201e-12 -1.90662e-13 -18.9523

10.1158 16.5406 -2.7948e-12
16.5406 -36.0834 -1.72869e-12
-2.7948e-12 -1.72869e-12 -9.13963

-4.51002 -25.7672 -2.02801e-12
-25.7672 35.5584 1.81188e-12
-2.02801e-12 1.81188e-12 -6.75255

-39.1972 -2.57137 -3.90861e-12
-2.57137 21.5047 1.04213e-12
-3.90861e-12 1.04213e-12 -10.6729

-7.99718 13.3685 2.28795e-12
13.3685 44.4101 -5.92119e-14
2.28795e-12 -5.92119e-14 -3.94962

3.7335 -29.7166 -3.86062e-13
-29.7166 -17.3702 -1.31036e-12
-3.86062e-13 -1.31036e-12 -8.92509

21.4253 -29.9541 -3.35199e-12
-29.9541 14.7549 8.01729e-13
-3.35199e-12 8.01729e-13 -3.92318

6.87716 31.6302 -3.47159e-12
31.6302 25.4023 2.449e-12
-3.47159e-12 2.449e-12 -6.83364

2.78341 -15.0184 2.64914e-12
-15.0184 -39.2574 2.47254e-12
2.64914e-12 2.47254e-12 -63.288

-46.1589 2.04265 -5.78278e-13
2.04265 11.4604 5.39124e-12
-5.78278e-13 5.39124e-12 -22.7541

-55.4388 20.2973 1.17965e-12
20.2973 3.09277 -1.1946e-12
1.17965e-12 -1.1946e-12 -22.9138

5.91368 15.4365 -1.46431e-12
15.4365 -58.8125 -4.49418e-13
-1.46431e-12 -4.49418e-13 -23.0339

-18.9244 -26.1918 6.89819e-14
-26.1918 -12.916 -5.17808e-13
6.89819e-14 -5.17808e-13 -9.6574

41.3505 17.9609 -6.22909e-13
17.9609 -6.27742 2.28647e-12
-6.22909e-13 2.28647e-12 -3.86675

-44.6799 -5.29168 4.30735e-12
-5.29168 4.53862 -8.57684e-13
4.30735e-12 -8.57684e-13 -39.1342

7.49968 -18.9875 3.47278e-13
-18.9875 -39.8968 -4.99689e-12
3.47278e-13 -4.99689e-12 -11.663

30.2931 -15.6012 4.45273e-13
-15.6012 -20.5162 2.7686e-12
4.45273e-13 2.7686e-12 -4.81091

-9.64516 11.6061 -1.58866e-12
11.6061 44.3239 -6.762e-13
-1.58866e-12 -6.762e-13 -3.86444

8.33061 -25.7402 6.76022e-12
-25.7402 32.9944 1.22924e-12
6.76022e-12 1.22924e-12 -3.63817

-10.2428 -25.274 3.51926e-12
-25.274 -19.1042 4.69106e-13
3.51926e-12 4.69106e-13 -23.1719

17.0037 31.9666 -6.62581e-13
31.9666 11.1948 -1.84741e-13
-6.62581e-13 -1.84741e-13 -5.75195

-1.06868 -25.1334 -2.7273e-12
-25.1334 -30.7645 2.15561e-12
-2.7273e-12 2.15561e-12 -20.8898

48.0711 2.59786 -1.48977e-12
2.59786 -8.41676 2.71583e-12
-1.48977e-12 2.71583e-12 -3.53681

6.55074 -28.9367 -2.5467e-12
-28.9367 72.0625 3.56929e-12
-2.5467e-12 3.56929e-12 -14.5531

21.7911 -29.2374 -3.30521e-12
-29.2374 13.9622 -2.33058e-12
-3.30521e-12 -2.33058e-12 -3.93557

35.3542 32.1658 6.40199e-12
32.1658 74.1457 -2.60532e-12
6.40199e-12 -2.60532e-12 -5.44273

-45.2873 -11.8756 -9.44134e-13
-11.8756 13.921 1.37845e-12
-9.44134e-13 1.37845e-12 -15.3281

-14.4286 -13.8245 2.36848e-12
-13.8245 43.3868 6.44225e-13
2.36848e-12 6.44225e-13 -5.67825

-19.2364 -23.9826 8.52622e-12
-23.9826 -19.8286 6.3598e-12
8.52622e-12 6.3598e-12 -64.2294

2.43381 23.7763 -1.97472e-12
23.7763 36.0099 -1.98952e-13
-1.97472e-12 -1.98952e-13 -3.7163

-15.1837 -32.7265 -2.71309e-12
-32.7265 -21.1223 -1.5025e-12
-2.71309e-12 -1.5025e-12 -14.3154

-14.5734 -11.9658 3.74982e-12
-11.9658 45.5355 -1.77517e-12
3.74982e-12 -1.77517e-12 -5.74436

7.83498 -19.1163 -2.036e-12
-19.1163 -43.1236 -1.26802e-12
-2.036e-12 -1.26802e-12 -12.6348

6.54205 23.8826 -1.27424e-12
23.8826 35.1743 2.76164e-12
-1.27424e-12 2.76164e-12 -3.44715

23.175 -4.97597 -2.02505e-12
-4.97597 -30.6825 -1.49884e-12
-2.02505e-12 -1.49884e-12 -5.36996

36.9752 -30.3476 -1.64491e-12
-30.3476 122.647 -1.13829e-11
-1.64491e-12 -1.13829e-11 -6.23939

-26.876 21.0174 -5.39213e-12
21.0174 8.43354 -2.39275e-12
-5.39213e-12 -2.39275e-12 -7.13607

40.3423 -19.3274 -5.10407e-12
-19.3274 -11.3799 5.30775e-12
-5.10407e-12 5.30775e-12 -5.73145

6.5248 -21.4454 1.62507e-12
-21.4454 -45.5561 1.52589e-12
1.62507e-12 1.52589e-12 -24.9686

20.7046 31.761 7.04622e-12
31.761 9.55459 2.58282e-12
7.04622e-12 2.58282e-12 -5.81145

13.9178 -29.9769 1.36187e-14
-29.9769 -7.61117 -2.49045e-12
1.36187e-14 -2.49045e-12 -5.94996

6.75571 20.8867 -5.39657e-12
20.8867 -27.7968 -3.05593e-12
-5.39657e-12 -3.05593e-12 -11.1117

-38.2756 -28.0766 -4.35652e-12
-28.0766 -14.0393 2.05517e-12
-4.35652e-12 2.05517e-12 -11.0656

8.64312 -26.2312 4.1697e-12
-26.2312 31.173 2.90257e-12
4.1697e-12 2.90257e-12 -3.64027

15.3296 28.9875 -4.9288e-12
28.9875 19.1536 2.39334e-12
-4.9288e-12 2.39334e-12 -3.88821

28.6419 26.1964 2.60651e-12
26.1964 -5.63908 -1.40539e-12
2.60651e-12 -1.40539e-12 -4.8075

7.91316 -14.6127 -7.00477e-13
-14.6127 -36.8808 -6.29422e-13
-7.00477e-13 -6.29422e-13 -13.9933

-6.84755 -16.6216 -2.04518e-12
-16.6216 41.3449 9.07126e-13
-2.04518e-12 9.07126e-13 -3.96467

17.441 -17.5694 2.96888e-12
-17.5694 -31.0048 2.55647e-13
2.96888e-12 2.55647e-13 -7.11019

19.8415 16.9113 -2.52183e-12
16.9113 -31.6718 -8.70415e-14
-2.52183e-12 -8.70415e-14 -7.34005

-33.6828 -9.38386 -3.36671e-12
-9.38386 8.75685 1.98952e-12
-3.36671e-12 1.98952e-12 -23.9891

43.4364 -13.4326 -5.11354e-12
-13.4326 -8.37551 -1.52619e-13
-5.11354e-12 -1.52619e-13 -3.80937

-19.3867 0.594483 -4.1777e-12
0.594483 43.1495 2.91441e-12
-4.1777e-12 2.91441e-12 -4.78091

28.0578 18.5577 -4.86663e-12
18.5577 -18.2061 -2.93454e-12
-4.86663e-12 -2.93454e-12 -4.75526

25.5294 27.6093 -8.78704e-13
27.6093 -3.7809 1.90366e-13
-8.78704e-13 1.90366e-13 -4.77665

-6.72141 -15.6899 -3.23119e-12
-15.6899 43.8031 -9.11863e-13
-3.23119e-12 -9.11863e-13 -3.8531

-19.9147 -1.20223 8.95654e-13
-1.20223 42.1319 9.31995e-13
8.95654e-13 9.31995e-13 -4.6925

-5.47339 29.135 -3.74278e-12
29.135 -23.6507 3.59179e-12
-3.74278e-12 3.59179e-12 -16.7976

-37.279 -10.9238 1.24315e-12
-10.9238 21.6797 -6.4837e-13
1.24315e-12 -6.4837e-13 -7.83483

27.1441 -26.7208 3.26909e-12
-26.7208 -5.53581 -9.53312e-13
3.26909e-12 -9.53312e-13 -4.94969

40.7228 21.3373 6.88634e-12
21.3373 -8.37682 8.69231e-13
6.88634e-12 8.69231e-13 -5.47285

12.3781 23.667 -1.62833e-12
23.667 -27.1325 3.02099e-12
-1.62833e-12 3.02099e-12 -8.67119

-37.8019 5.47243 -1.6284e-12
5.47243 23.3116 -2.53308e-12
-1.6284e-12 -2.53308e-12 -8.60162

18.5919 29.072 4.8613e-12
29.072 17.3771 1.98715e-12
4.8613e-12 1.98715e-12 -3.95225

-9.98672 22.9642 -2.48838e-12
22.9642 -14.9177 -7.62605e-12
-2.48838e-12 -7.62605e-12 -24.0223

68.3305 -59.702 1.27898e-13
-59.702 36.3423 3.54561e-12
1.27898e-13 3.54561e-12 -23.0085

17.5299 -25.0521 1.15759e-12
-25.0521 -17.9973 -2.72197e-12
1.15759e-12 -2.72197e-12 -6.42283

10.0559 7.07135 -6.574e-12
7.07135 82.564 1.02792e-12
-6.574e-12 1.02792e-12 -7.16712

11.9184 -28.8945 1.41457e-12
-28.8945 -3.8848 1.86399e-12
1.41457e-12 1.86399e-12 -5.17124

-66.9415 -52.7077 5.92119e-15
-52.7077 143.279 -5.59908e-12
5.92119e-15 -5.59908e-12 -49.6614

-68.3851 51.4582 -8.27782e-13
51.4582 142.567 -3.71377e-12
-8.27782e-13 -3.71377e-12 -49.8506

19.5838 117.169 -1.49214e-13
117.169 64.1487 3.72324e-12
-1.49214e-13 3.72324e-12 -48.3517

20.5427 -117.112 9.42653e-13
-117.112 61.0451 2.25479e-12
9.42653e-13 2.25479e-12 -48.7165

157.774 -1.36359 -1.35477e-12
-1.36359 -79.1853 5.09407e-14
-1.35477e-12 5.09407e-14 -48.9036

110.351 -91.1372 -2.6669e-12
-91.1372 -36.6828 5.42381e-13
-2.6669e-12 5.42381e-13 -50.2984

110.404 91.6651 -3.17849e-12
91.6651 -36.493 -4.51195e-12
-3.17849e-12 -4.51195e-12 -50.1712

7.84467 14.3326 -5.48006e-13
14.3326 -42.6836 -7.32451e-13
-5.48006e-13 -7.32451e-13 -15.0809

-11.7885 25.5345 -3.88993e-12
25.5345 -27.4054 -6.57977e-12
-3.88993e-12 -6.57977e-12 -35.1292

12.4383 6.60729 2.64085e-12
6.60729 -40.5407 2.3482e-12
2.64085e-12 2.3482e-12 -8.25807

26.2554 21.7887 -6.26225e-12
21.7887 -19.5357 -7.70051e-13
-6.26225e-12 -7.70051e-13 -5.85657

-21.2385 17.7482 1.01622e-12
17.7482 29.87 8.92915e-13
1.01622e-12 8.92915e-13 -6.16837

22.53 28.9044 -6.86266e-13
28.9044 -0.779458 -3.79252e-12
-6.86266e-13 -3.79252e-12 -4.73631

4.05287 -29.6669 -5.64881e-13
-29.6669 -17.4694 7.73307e-13
-5.64881e-13 7.73307e-13 -8.50881

25.9956 28.0337 -2.37144e-12
28.0337 -2.30612 1.87406e-12
-2.37144e-12 1.87406e-12 -4.73666

-19.3553 -2.84223 3.29781e-12
-2.84223 43.0754 3.65219e-12
3.29781e-12 3.65219e-12 -4.77549

-13.4086 -26.0953 1.77073e-12
-26.0953 -25.8392 3.04438e-12
1.77073e-12 3.04438e-12 -35.5121

-19.8503 -4.86383 3.26864e-12
-4.86383 41.7802 -4.73695e-14
3.26864e-12 -4.73695e-14 -4.74941

-1.82849 23.0187 -1.14693e-12
23.0187 -24.3779 -3.59446e-12
-1.14693e-12 -3.59446e-12 -16.1503

44.9873 26.8768 -1.06463e-12
26.8768 8.10785 3.76055e-12
-1.06463e-12 3.76055e-12 -5.37354

-52.5026 -13.2166 -1.6643e-12
-13.2166 0.149273 -1.47674e-12
-1.6643e-12 -1.47674e-12 -20.616

20.281 13.7302 2.47506e-13
13.7302 -31.1496 -2.49312e-12
2.47506e-13 -2.49312e-12 -7.04873

13.6995 -29.9929 1.97412e-12
-29.9929 -6.69672 1.40125e-12
1.97412e-12 1.40125e-12 -5.84091

29.6328 -24.7182 2.91204e-12
-24.7182 -7.8799 -6.71581e-12
2.91204e-12 -6.71581e-12 -4.83066

5.76228 -16.0776 1.25144e-12
-16.0776 -32.3343 5.16565e-12
1.25144e-12 5.16565e-12 -22.2529

12.6272 27.933 8.78112e-13
27.933 -13.6446 -1.28875e-12
8.78112e-13 -1.28875e-12 -6.4248

23.309 23.982 2.81197e-12
23.982 -17.9499 -2.85461e-12
2.81197e-12 -2.85461e-12 -5.96806

-31.0849 -2.79267 1.91114e-12
-2.79267 30.1334 -3.39403e-12
1.91114e-12 -3.39403e-12 -6.40369

-28.6382 5.87406 -2.84004e-12
5.87406 33.3235 2.62249e-12
-2.84004e-12 2.62249e-12 -6.06504

34.5518 2.64725 1.4347e-12
2.64725 -26.1933 1.56064e-12
1.4347e-12 1.56064e-12 -6.14821

50.6579 -7.29136 1.78938e-12
-7.29136 -14.0904 5.28777e-12
1.78938e-12 5.28777e-12 -6.78384

11.0394 30.4902 -5.03538e-12
30.4902 -4.7926 -5.79507e-12
-5.03538e-12 -5.79507e-12 -5.97193

17.4665 -26.1599 -1.23161e-13
-26.1599 -17.4602 7.99361e-13
-1.23161e-13 7.99361e-13 -6.35698

-0.0829385 -21.2551 1.16233e-12
-21.2551 -27.959 7.00181e-13
1.16233e-12 7.00181e-13 -17.1663

4.93571 -31.64 2.21452e-13
-31.64 4.85817 -2.15531e-13
2.21452e-13 -2.15531e-13 -5.94097

-8.23338 -27.7917 6.20185e-12
-27.7917 18.5785 1.71241e-12
6.20185e-12 1.71241e-12 -6.13572

-1.6549 29.8935 6.7916e-13
29.8935 10.4456 4.90334e-12
6.7916e-13 4.90334e-12 -5.80609

-26.0252 -9.57966 3.5331e-12
-9.57966 32.9722 2.88362e-13
3.5331e-12 2.88362e-13 -5.79274

-31.3305 -1.5458 3.02743e-12
-1.5458 31.6523 -1.4347e-12
3.02743e-12 -1.4347e-12 -6.22861

-38.9225 5.74756 9.92465e-13
5.74756 23.9469 -1.32635e-12
9.92465e-13 -1.32635e-12 -9.18715

-17.2257 -21.0937 1.06907e-12
-21.0937 26.5723 -1.73787e-12
1.06907e-12 -1.73787e-12 -5.77775

13.0701 24.1147 -4.23365e-13
24.1147 -28.1061 -2.0437e-12
-4.23365e-13 -2.0437e-12 -9.20902

21.5561 -9.59141 2.23821e-13
-9.59141 -31.7147 1.03769e-12
2.23821e-13 1.03769e-12 -6.60371

-27.1622 7.46642 -2.03981e-12
7.46642 34.337 1.33286e-12
-2.03981e-12 1.33286e-12 -5.87944

-35.2431 -9.70168 7.0427e-13
-9.70168 22.3144 7.22385e-14
7.0427e-13 7.22385e-14 -8.188

-29.1634 -16.3335 -1.74971e-13
-16.3335 19.3473 -2.21808e-12
-1.74971e-13 -2.21808e-12 -6.66731

36.9718 -8.24083 1.86754e-12
-8.24083 -20.2455 2.06709e-12
1.86754e-12 2.06709e-12 -5.10702

-14.8114 -32.3468 -2.13429e-12
-32.3468 -21.628 -2.65713e-12
-2.13429e-12 -2.65713e-12 -12.9955

-22.8313 9.32329 1.85318e-12
9.32329 33.3256 2.09847e-12
1.85318e-12 2.09847e-12 -4.79411

-0.752583 -18.2135 -1.60849e-12
-18.2135 -35.1549 2.07597e-12
-1.60849e-12 2.07597e-12 -33.2697

4.92985 24.8282 -4.51017e-12
24.8282 75.3198 -3.2235e-12
-4.51017e-12 -3.2235e-12 -14.3205

-14.1422 -26.6281 -1.87998e-12
-26.6281 -16.3541 -1.93268e-12
-1.87998e-12 -1.93268e-12 -14.6424

-6.35735 -30.2032 -1.5105e-12
-30.2032 -23.6065 3.80407e-12
-1.5105e-12 3.80407e-12 -17.0884

-31.2786 -0.700656 -2.15746e-12
-0.700656 31.5022 -1.67274e-12
-2.15746e-12 -1.67274e-12 -6.35345

28.49 -16.6251 3.16132e-12
-16.6251 -18.0639 -1.27542e-12
3.16132e-12 -1.27542e-12 -4.44333

-37.8106 12.8422 2.11781e-12
12.8422 11.1652 8.36072e-13
2.11781e-12 8.36072e-13 -10.9925

-8.86168 -3.18177 -8.88319e-12
-3.18177 111.072 -8.98837e-12
-8.88319e-12 -8.98837e-12 -22.6696

-31.6106 14.2759 1.35092e-12
14.2759 21.3508 -4.09154e-13
1.35092e-12 -4.09154e-13 -7.1299

12.4199 -29.4948 -1.44595e-12
-29.4948 -2.52277 -2.61539e-12
-1.44595e-12 -2.61539e-12 -4.93352

33.6364 25.11 -2.71368e-12
25.11 124.05 -1.55609e-12
-2.71368e-12 -1.55609e-12 -6.2119

-13.4994 26.0925 8.21713e-13
26.0925 -19.0958 -8.15466e-12
8.21713e-13 -8.15466e-12 -58.8741

-9.55114 -27.8012 3.92397e-12
-27.8012 -22.804 9.28354e-12
3.92397e-12 9.28354e-12 -59.5242

-2.86909 -30.4238 1.18897e-12
-30.4238 -7.32582 -3.9897e-12
1.18897e-12 -3.9897e-12 -7.29273

3.85667 -31.1668 -3.53732e-12
-31.1668 5.63265 -1.61471e-12
-3.53732e-12 -1.61471e-12 -6.06822

25.1536 20.8307 3.60364e-12
20.8307 -17.0411 1.97116e-12
3.60364e-12 1.97116e-12 -4.98217

31.8074 15.0092 9.51535e-13
15.0092 -23.3099 1.73817e-12
9.51535e-13 1.73817e-12 -5.96053

-9.48475 3.07998 -3.2722e-13
3.07998 -9.82791 1.1995e-11
-3.2722e-13 1.1995e-11 -80.9046

-5.54629 -6.99488 1.0341e-11
-6.99488 -14.0372 1.4026e-11
1.0341e-11 1.4026e-11 -80.2575

11.7492 4.82409 3.9968e-13
4.82409 -43.2104 2.30941e-12
3.9968e-13 2.30941e-12 -7.83268

-35.0628 6.7328 3.89222e-12
6.7328 24.3758 1.26713e-13
3.89222e-12 1.26713e-13 -7.56854

-36.118 6.73651 -3.50556e-12
6.73651 24.4332 -7.4607e-14
-3.50556e-12 -7.4607e-14 -8.31355

74.6006 58.6453 -2.6598e-12
58.6453 34.1811 7.88702e-13
-2.6598e-12 7.88702e-13 -21.8706

-6.92582 -28.2061 3.68061e-12
-28.2061 16.8746 1.8859e-12
3.68061e-12 1.8859e-12 -6.12263

8.17144 17.9738 -3.48758e-13
17.9738 -44.8769 -1.08358e-12
-3.48758e-13 -1.08358e-12 -12.8991

32.7062 9.54118 -1.03384e-12
9.54118 -19.0877 1.58229e-12
-1.03384e-12 1.58229e-12 -4.07993

3.38434 -26.7288 1.37372e-12
-26.7288 13.4836 1.80063e-12
1.37372e-12 1.80063e-12 -3.83249

26.2386 -20.2416 3.12047e-12
-20.2416 -20.3306 -7.24161e-12
3.12047e-12 -7.24161e-12 -5.86887

65.4044 60.2432 -7.27596e-12
60.2432 34.2966 -6.30725e-12
-7.27596e-12 -6.30725e-12 -23.8657

-13.2438 31.0707 1.80034e-12
31.0707 -16.8861 -7.02638e-12
1.80034e-12 -7.02638e-12 -12.7889

-18.6125 -19.7905 -3.41031e-12
-19.7905 28.4165 -3.1027e-12
-3.41031e-12 -3.1027e-12 -5.97541

11.1723 28.8623 6.22317e-13
28.8623 -13.3274 1.46727e-12
6.22317e-13 1.46727e-12 -6.44133

-31.8767 -4.14621 3.78867e-12
-4.14621 30.1492 -2.76579e-12
3.78867e-12 -2.76579e-12 -6.36306

-14.6027 19.6134 8.80777e-13
19.6134 27.1868 5.1011e-12
8.80777e-13 5.1011e-12 -4.42438

7.47708 30.5247 -1.24996e-12
30.5247 -1.67445 2.32821e-12
-1.24996e-12 2.32821e-12 -5.66611

-9.35045 -22.4781 4.14128e-12
-22.4781 23.1503 -3.64212e-12
4.14128e-12 -3.64212e-12 -4.18112

4.5873 -27.358 -6.7241e-12
-27.358 11.4484 -2.3892e-12
-6.7241e-12 -2.3892e-12 -3.94399

24.2753 11.2591 8.36353e-12
11.2591 102.098 6.26936e-12
8.36353e-12 6.26936e-12 -12.4032

37.4702 -33.4637 1.4803e-13
-33.4637 69.2964 2.6669e-12
1.4803e-13 2.6669e-12 -5.70428

-25.3438 -11.6927 2.85993e-12
-11.6927 31.3705 5.79684e-13
2.85993e-12 5.79684e-13 -5.65403

16.0954 26.4892 -1.5549e-12
26.4892 -15.5067 -8.46849e-12
-1.5549e-12 -8.46849e-12 -6.22251

4.95273 29.4833 -2.22578e-12
29.4833 1.63458 1.34589e-12
-2.22578e-12 1.34589e-12 -4.99555

-9.86026 -21.4386 1.40391e-12
-21.4386 25.1223 -1.75504e-12
1.40391e-12 -1.75504e-12 -4.03885

-21.6419 -11.7852 -3.06185e-12
-11.7852 32.0843 1.83202e-12
-3.06185e-12 1.83202e-12 -4.64274

10.4608 28.4149 -6.20363e-12
28.4149 -0.158958 -2.11209e-12
-6.20363e-12 -2.11209e-12 -4.67829

-21.8538 -13.8809 8.26894e-13
-13.8809 29.469 -1.17003e-12
8.26894e-13 -1.17003e-12 -4.85276

6.95671 27.8615 -2.62309e-13
27.8615 73.0977 -5.3646e-12
-2.62309e-13 -5.3646e-12 -14.3236

-45.8337 -4.03982 -5.90382e-12
-4.03982 14.0475 -7.43701e-13
-5.90382e-12 -7.43701e-13 -19.9639

0.87298 31.0342 1.13983e-12
31.0342 7.51772 -3.31705e-12
1.13983e-12 -3.31705e-12 -6.09504

9.71837 14.9035 -2.64026e-12
14.9035 -36.434 1.56379e-12
-2.64026e-12 1.56379e-12 -10.989

9.92654 -15.93 2.8475e-12
-15.93 -39.4138 -4.74198e-12
2.8475e-12 -4.74198e-12 -13.0719

85.6289 -24.2098 -1.75741e-12
-24.2098 7.63435 2.90375e-12
-1.75741e-12 2.90375e-12 -12.9587

-23.2125 -21.2705 -3.98022e-12
-21.2705 10.5136 -3.70963e-12
-3.98022e-12 -3.70963e-12 -6.171

-16.6057 26.7026 -2.6444e-12
26.7026 1.77656 -4.83761e-13
-2.6444e-12 -4.83761e-13 -6.59362

-26.1984 -21.7273 1.96287e-13
-21.7273 -5.37054 5.41271e-13
1.96287e-13 5.41271e-13 -23.8639

-41.5891 14.1017 -2.69029e-12
14.1017 -3.55859 -2.50022e-12
-2.69029e-12 -2.50022e-12 -64.1041

-0.894619 9.4451 -9.6767e-13
9.4451 -44.249 -5.15084e-12
-9.6767e-13 -5.15084e-12 -64.2055

-20.3822 32.7034 -8.3548e-13
32.7034 -23.2049 -3.32771e-12
-8.3548e-13 -3.32771e-12 -24.3267

-11.4174 26.0063 -1.63099e-12
26.0063 22.6046 1.51938e-12
-1.63099e-12 1.51938e-12 -5.93169

16.0385 26.6651 -3.02336e-12
26.6651 -17.2936 9.66338e-13
-3.02336e-12 9.66338e-13 -6.55512

30.4319 45.1959 -6.59621e-13
45.1959 47.5624 2.64322e-12
-6.59621e-13 2.64322e-12 -15.1964

-44.8803 -11.3397 5.21686e-12
-11.3397 -1.80719 3.00204e-13
5.21686e-12 3.00204e-13 -61.6615

-8.29781 -3.43069 -9.51369e-14
-3.43069 -12.7477 -3.07606e-12
-9.51369e-14 -3.07606e-12 -77.1964

-14.6838 -0.208074 2.68452e-12
-0.208074 -6.41837 3.09604e-13
2.68452e-12 3.09604e-13 -77.3406

27.6712 -53.8124 1.00305e-12
-53.8124 71.1641 -1.84031e-12
1.00305e-12 -1.84031e-12 -24.3873

-11.6866 -11.5982 -1.28727e-12
-11.5982 -16.2065 -6.18468e-12
-1.28727e-12 -6.18468e-12 -37.4201

-32.6083 8.81035 -1.848e-12
8.81035 -9.41462 -2.62664e-12
-1.848e-12 -2.62664e-12 -49.525

18.2562 -26.203 -6.96924e-13
-26.203 -19.5531 2.44456e-12
-6.96924e-13 2.44456e-12 -6.51195

-39.4328 1.00935 -1.6697e-12
1.00935 11.9809 -1.35832e-12
-1.6697e-12 -1.35832e-12 -19.7205

-30.2079 -20.271 -2.3926e-12
-20.271 6.30428 -5.42973e-12
-2.3926e-12 -5.42973e-12 -7.22175

10.5357 6.25571 -2.9224e-12
6.25571 -52.3917 1.87665e-12
-2.9224e-12 1.87665e-12 -9.64435

-49.8138 15.5962 -4.15693e-12
15.5962 10.1637 -4.2825e-12
-4.15693e-12 -4.2825e-12 -13.5337

-40.2888 7.19066 -1.65042e-12
7.19066 16.5414 -1.79412e-12
-1.65042e-12 -1.79412e-12 -13.7762

16.4045 20.3963 5.58072e-12
20.3963 -25.847 9.19561e-13
5.58072e-12 9.19561e-13 -7.6125

-9.10087 -3.11392 2.64292e-12
-3.11392 108.416 -7.4607e-13
2.64292e-12 -7.4607e-13 -23.1

-3.32374 -27.6284 6.77384e-13
-27.6284 -3.63122 2.6823e-12
6.77384e-13 2.6823e-12 -5.83544

-7.33686 -26.12 4.47642e-13
-26.12 -14.0848 -5.62513e-12
4.47642e-13 -5.62513e-12 -9.81452

-14.2003 -31.4836 -3.82302e-12
-31.4836 -21.778 2.73367e-12
-3.82302e-12 2.73367e-12 -12.7582

90.7449 32.7561 -1.12266e-12
32.7561 20.9097 -8.02232e-12
-1.12266e-12 -8.02232e-12 -16.5044

-23.1117 -20.1148 4.23572e-12
-20.1148 -17.3863 -2.34561e-12
4.23572e-12 -2.34561e-12 -44.414

72.642 54.3315 -3.33955e-12
54.3315 91.6554 8.88178e-12
-3.33955e-12 8.88178e-12 -6.1396

-36.2185 -21.4382 2.86112e-12
-21.4382 -6.79683 1.92468e-12
2.86112e-12 1.92468e-12 -13.046

15.0341 14.6509 4.67833e-12
14.6509 -37.7562 -3.02292e-12
4.67833e-12 -3.02292e-12 -8.18338

44.5779 -14.5755 -1.32398e-12
-14.5755 -8.27901 2.73367e-12
-1.32398e-12 2.73367e-12 -4.42374

-21.2347 24.0496 5.74947e-13
24.0496 4.9547 -3.87246e-13
5.74947e-13 -3.87246e-13 -5.98198

17.3735 20.4299 3.91805e-12
20.4299 -26.7985 3.49528e-12
3.91805e-12 3.49528e-12 -6.95646

-51.1379 11.3981 8.89289e-13
11.3981 7.70895 5.38088e-12
8.89289e-13 5.38088e-12 -29.9884

-7.29024 -31.5832 6.91299e-13
-31.5832 -12.8295 8.05578e-13
6.91299e-13 8.05578e-13 -8.12403

2.79392 19.812 -5.87234e-12
19.812 -46.03 7.65935e-12
-5.87234e-12 7.65935e-12 -29.9803

-24.6766 -18.4465 -2.70894e-13
-18.4465 17.8364 -4.40596e-12
-2.70894e-13 -4.40596e-12 -5.48572

-42.344 4.28457 2.57208e-12
4.28457 17.8691 -9.82325e-13
2.57208e-12 -9.82325e-13 -12.7304

-4.098 9.92847 2.81108e-12
9.92847 -40.2697 -5.55467e-12
2.81108e-12 -5.55467e-12 -47.5337

-2.68861 -8.5154 5.01791e-12
-8.5154 -38.3011 4.23498e-12
5.01791e-12 4.23498e-12 -47.3893

81.7374 18.5161 -4.53089e-12
18.5161 1.69698 -5.86494e-12
-4.53089e-12 -5.86494e-12 -14.4545

3.89516 7.96635 -6.62285e-13
7.96635 -45.1874 -1.0895e-12
-6.62285e-13 -1.0895e-12 -11.0225

35.8827 7.74234 4.45347e-12
7.74234 184.603 8.05282e-14
4.45347e-12 8.05282e-14 -9.74851

40.1568 -11.3873 -9.7472e-12
-11.3873 190.401 2.29742e-12
-9.7472e-12 2.29742e-12 -7.37998

53.7774 56.4137 1.81188e-12
56.4137 159.282 -3.83693e-13
1.81188e-12 -3.83693e-13 -11.4912

1.70628 -28.9528 -2.7723e-12
-28.9528 -24.6929 -4.35622e-12
-2.7723e-12 -4.35622e-12 -11.9656

16.0538 -49.1994 -3.51127e-12
-49.1994 99.437 -7.98413e-12
-3.51127e-12 -7.98413e-12 -21.6865

54.5254 -55.9562 -6.25278e-12
-55.9562 149.998 4.59484e-12
-6.25278e-12 4.59484e-12 -13.6563

-2.17015 26.2255 -7.44294e-13
26.2255 17.5727 -1.60938e-12
-7.44294e-13 -1.60938e-12 -4.00164

134.963 73.8529 2.79006e-12
73.8529 85.0409 6.3262e-12
2.79006e-12 6.3262e-12 -10.1501

-18.7242 13.0455 -8.68342e-13
13.0455 -3.89769 1.47171e-12
-8.68342e-13 1.47171e-12 -26.7642

3.74029 0.0433448 4.28102e-13
0.0433448 -26.19 9.21041e-13
4.28102e-13 9.21041e-13 -26.7674

144.122 -73.1381 3.68061e-12
-73.1381 85.3685 1.78583e-12
3.68061e-12 1.78583e-12 -8.18708

-21.4 -23.4284 -1.8329e-12
-23.4284 12.2471 1.44477e-13
-1.8329e-12 1.44477e-13 -6.49737

89.362 34.7358 -1.79057e-12
34.7358 41.3964 3.50534e-12
-1.79057e-12 3.50534e-12 -11.5461

72.2027 63.4991 3.24955e-12
63.4991 149.717 -8.52651e-13
3.24955e-12 -8.52651e-13 -9.66475

26.1683 21.6344 2.83743e-12
21.6344 100.151 4.15194e-12
2.83743e-12 4.15194e-12 -13.0296

73.89 -65.9282 -7.16227e-12
-65.9282 151.168 1.04213e-12
-7.16227e-12 1.04213e-12 -9.39304

25.7728 -12.3833 -1.82965e-12
-12.3833 105.031 3.34666e-12
-1.82965e-12 3.34666e-12 -12.4263

-28.6641 6.8379 1.758e-12
6.8379 3.10854 -9.27554e-13
1.758e-12 -9.27554e-13 -37.8426

37.7483 -45.9842 9.03573e-13
-45.9842 49.6769 4.5155e-12
9.03573e-13 4.5155e-12 -15.5331

14.4481 47.5406 5.58368e-12
47.5406 94.8967 3.9222e-12
5.58368e-12 3.9222e-12 -22.1901

173.366 37.9167 -8.81073e-13
37.9167 48.0539 9.48575e-13
-8.81073e-13 9.48575e-13 -9.51353

7.01842 -29.2898 -6.47304e-12
-29.2898 -14.3618 8.58869e-13
-6.47304e-12 8.58869e-13 -7.16085

-38.4219 12.8959 2.62242e-12
12.8959 6.43598 -1.16351e-12
2.62242e-12 -1.16351e-12 -15.2919

88.5206 -38.1197 -3.43192e-12
-38.1197 34.1684 -3.41061e-12
-3.43192e-12 -3.41061e-12 -14.0977

6.0404 -28.8058 -1.36365e-12
-28.8058 -16.1773 3.82035e-12
-1.36365e-12 3.82035e-12 -8.03468

169.232 -36.3485 3.31587e-14
-36.3485 34.9395 -3.3881e-12
3.31587e-14 -3.3881e-12 -13.2818

-5.72715 -28.3211 -8.47914e-13
-28.3211 -14.4769 -3.88489e-12
-8.47914e-13 -3.88489e-12 -9.31384

-17.7969 -25.2997 2.32703e-13
-25.2997 12.0791 5.0413e-12
2.32703e-13 5.0413e-12 -5.94047

118.896 69.4692 2.74743e-12
69.4692 96.2374 3.60956e-12
2.74743e-12 3.60956e-12 -11.3916

29.4177 -22.9372 -2.28676e-12
-22.9372 97.8137 1.75267e-13
-2.28676e-12 1.75267e-13 -14.3379

117.979 -71.7015 -1.73846e-12
-71.7015 93.6987 9.121e-12
-1.73846e-12 9.121e-12 -12.4076

22.2696 50.7462 -3.59771e-12
50.7462 73.7931 -5.42144e-12
-3.59771e-12 -5.42144e-12 -24.7755

-1.53966 -30.2171 5.52447e-13
-30.2171 -6.55675 -3.00204e-13
5.52447e-13 -3.00204e-13 -7.00358

-7.04178 -14.6415 1.67155e-12
-14.6415 -21.9212 2.32407e-12
1.67155e-12 2.32407e-12 -32.6061

-11.891 11.089 3.43444e-12
11.089 -16.4225 4.35059e-12
3.43444e-12 4.35059e-12 -77.7629

-26.1588 -5.16067 2.27063e-12
-5.16067 -6.38694 -2.35354e-12
2.27063e-12 -2.35354e-12 -77.5969

-38.9476 13.0842 3.76693e-12
13.0842 13.7442 1.49806e-13
3.76693e-12 1.49806e-13 -10.2431

-14.4785 -10.6633 3.26413e-12
-10.6633 -17.3096 -1.9836e-14
3.26413e-12 -1.9836e-14 -78.7253

-25.8926 4.09277 -2.53353e-12
4.09277 -5.91331 -6.14553e-12
-2.53353e-12 -6.14553e-12 -78.8674

-3.63114 7.42926 5.18208e-12
7.42926 -27.8528 1.41694e-12
5.18208e-12 1.41694e-12 -77.9551

-43.9655 -12.1106 -6.47634e-12
-12.1106 2.91575 5.45712e-12
-6.47634e-12 5.45712e-12 -68.1322

11.9731 -30.4767 8.73968e-13
-30.4767 76.1762 -3.47692e-12
8.73968e-13 -3.47692e-12 -14.7019

0.519535 -12.9721 6.63617e-12
-12.9721 -39.9856 2.22104e-12
6.63617e-12 2.22104e-12 -45.2632

-16.3482 -34.4149 2.87178e-13
-34.4149 -22.0715 -2.12793e-12
2.87178e-13 -2.12793e-12 -23.5875

-2.42254 -18.1781 -1.59428e-12
-18.1781 -29.8919 -7.01335e-12
-1.59428e-12 -7.01335e-12 -33.6181

12.7368 15.4616 -2.00255e-12
15.4616 -37.7219 2.54374e-12
-2.00255e-12 2.54374e-12 -9.62995

-46.8977 9.86105 2.41773e-12
9.86105 8.87471 -1.22687e-12
2.41773e-12 -1.22687e-12 -70.127

3.46042 19.2232 4.2526e-12
19.2232 -41.4618 4.34504e-12
4.2526e-12 4.34504e-12 -70.2428

1.46959 11.3098 -1.60405e-12
11.3098 -23.963 -1.39814e-12
-1.60405e-12 -1.39814e-12 -31.8597

109.413 -15.3428 -8.76336e-13
-15.3428 -12.5357 -1.68221e-12
-8.76336e-13 -1.68221e-12 -25.035

-14.3265 24.969 -2.63523e-12
24.969 10.3852 -7.50215e-13
-2.63523e-12 -7.50215e-13 -5.81086

76.6212 -61.3655 5.04249e-12
-61.3655 37.3743 -7.74492e-13
5.04249e-12 -7.74492e-13 -22.3924

76.1263 -57.4665 7.13859e-12
-57.4665 99.2446 -5.65355e-12
7.13859e-12 -5.65355e-12 -5.55181

118.215 -36.5504 -3.56456e-12
-36.5504 40.607 3.61903e-12
-3.56456e-12 3.61903e-12 -7.37594

-51.1013 -5.15846 -8.99429e-13
-5.15846 3.33833 -5.75836e-13
-8.99429e-13 -5.75836e-13 -60.6384

-50.4655 2.8915 2.91915e-12
2.8915 3.1326 7.45981e-12
2.91915e-12 7.45981e-12 -60.1112

-11.9747 -24.45 2.98724e-12
-24.45 -34.9941 -1.2527e-12
2.98724e-12 -1.2527e-12 -59.1458

-8.99004 -21.7537 -5.67276e-12
-21.7537 -37.8798 -3.69926e-12
-5.67276e-12 -3.69926e-12 -59.4552

-14.7008 26.129 -1.6532e-12
26.129 -33.019 4.16704e-14
-1.6532e-12 4.16704e-14 -60.7295

-18.1505 3.09501 -1.01578e-12
3.09501 -13.1608 1.95658e-13
-1.01578e-12 1.95658e-13 -75.4484

-9.94435 -20.504 -2.96533e-12
-20.504 -32.6425 -3.64198e-12
-2.96533e-12 -3.64198e-12 -56.7171

-26.6392 -18.5645 7.08692e-12
-18.5645 -14.1952 8.52355e-12
7.08692e-12 8.52355e-12 -71.2451

-15.4712 2.43123 9.19398e-12
2.43123 -12.8503 4.26696e-12
9.19398e-12 4.26696e-12 -77.8417

-6.0265 -20.5204 4.28776e-12
-20.5204 -41.4778 2.42946e-12
4.28776e-12 2.42946e-12 -60.4858

-6.75561 20.9498 -4.40773e-12
20.9498 -40.1345 1.60257e-12
-4.40773e-12 1.60257e-12 -59.9971

-14.3089 -3.45501 -3.72162e-12
-3.45501 -11.3883 3.54087e-13
-3.72162e-12 3.54087e-13 -76.8566

-11.2597 -3.11225 2.36158e-11
-3.11225 -17.683 -1.65863e-11
2.36158e-11 -1.65863e-11 -74.0206

-24.195 12.1089 1.25189e-12
12.1089 -13.4 1.16564e-11
1.25189e-12 1.16564e-11 -69.9417

-22.0776 26.9241 9.4739e-15
26.9241 -26.2638 5.87643e-12
9.4739e-15 5.87643e-12 -57.5628

VECTORS fluid_flux_TPM float
-8.72818e-05 3.10519e-05 1.93995e-21
3.56196e-06 6.88715e-06 -1.2669e-20
-1.27958e-05 -1.02324e-05 -5.71452e-21
-4.17329e-06 4.25688e-06 -2.05461e-20
2.27228e-05 -6.31753e-06 5.46453e-21
2.75952e-06 -1.59141e-05 -9.17437e-21
-8.58566e-05 -3.11164e-05 5.15834e-21
-1.39015e-05 -1.04738e-05 -1.13749e-20
2.21365e-05 9.46149e-07 5.89791e-21
1.13916e-05 -3.91067e-06 -1.47341e-20
5.46374e-05 1.24923e-05 3.02875e-21
2.34852e-06 -1.72055e-05 -1.63325e-20
1.36206e-05 1.12612e-05 1.01202e-20
2.66392e-06 1.37938e-05 1.31755e-20
2.05947e-05 -2.94864e-06 -1.8096e-21
-1.63433e-05 -2.73072e-07 1.59927e-20
2.75542e-06 1.41082e-05 -1.52932e-21
1.01886e-05 -2.39346e-06 -1.65767e-20
9.90533e-06 1.72342e-05 -1.55901e-21
-1.48584e-05 1.88675e-06 6.59202e-21
-3.60349e-06 -2.13183e-05 -1.26129e-20
3.41343e-05 5.94582e-05 8.17772e-21
1.5708e-05 1.6324e-06 -1.16129e-20
1.12349e-05 -1.1289e-05 -3.32391e-21
-1.50886e-05 -3.33465e-06 1.61259e-20
-6.77613e-07 -1.11383e-05 -4.88506e-21
6.29465e-05 -4.91177e-06 6.63171e-21
1.40755e-05 1.02557e-05 2.69711e-21
-2.51669e-05 -2.06573e-05 8.58788e-21
4.9154e-05 -1.28228e-05 2.08097e-20
-1.65937e-05 -6.04242e-06 2.19694e-20
5.54123e-06 -3.20589e-05 -1.29007e-20
4.76879e-05 -4.80805e-05 3.73498e-21
-4.92673e-06 -4.12766e-05 -2.84567e-21
-2.96941e-05 3.70312e-05 1.53844e-20
-3.82742e-05 -1.64066e-05 -3.46425e-21
3.27256e-05 4.32457e-05 -1.31657e-20
-4.4772e-05 -8.73202e-06 1.2886e-21
1.43845e-05 -1.10894e-05 -3.89476e-21
4.65028e-05 5.015e-05 -2.24416e-23
3.21519e-05 -1.40317e-05 -5.68054e-21
3.36637e-05 -4.23732e-05 -2.2337e-20
-1.99103e-05 -5.04138e-05 -6.38568e-21
-1.59091e-05 6.36124e-06 7.50788e-21
3.05472e-05 -2.93347e-05 -4.00739e-21
-3.03542e-05 1.09983e-05 1.14176e-20
-4.05293e-06 -2.03851e-05 -1.65845e-20
7.89176e-06 2.0226e-05 -7.86346e-21
-1.63541e-05 5.93207e-06 5.38582e-22
-1.78322e-05 2.87465e-05 -8.70249e-21
3.24316e-05 1.53016e-05 4.9055e-21
2.9386e-05 -1.00822e-05 4.15028e-22
-1.56775e-05 1.57716e-05 8.10634e-21
-2.35582e-05 -2.07054e-05 9.98471e-21
-2.11549e-05 -5.13611e-06 -4.01089e-22
-4.4824e-05 2.70962e-05 -5.32008e-21
-2.9393e-05 -3.80504e-05 -5.78561e-21
6.36828e-06 -3.065e-05 -1.27889e-20
-4.77422e-05 6.48759e-06 -1.12536e-20
6.07859e-06 1.37069e-05 -7.43782e-21
-5.58086e-06 -8.17938e-06 2.20533e-20
-6.58834e-06 -1.79567e-05 2.51799e-20
5.71857e-05 2.48777e-05 -7.74673e-23
9.24967e-06 1.81576e-05 -1.75638e-21
1.23056e-05 -1.44556e-05 -1.39138e-20
-1.6417e-06 -2.07678e-05 2.6304e-21
4.62455e-06 -8.81203e-06 -1.60127e-20
-1.0098e-05 -5.569e-06 2.21659e-20
-1.06104e-05 1.19382e-05 -7.24398e-21
2.56008e-06 -4.0956e-06 -1.53438e-20
-1.50545e-05 -1.58549e-05 3.73862e-21
-2.13806e-05 5.16975e-06 -2.24887e-20
-3.55914e-06 3.45073e-05 -5.01783e-21
-1.78851e-05 1.07188e-05 -8.16922e-21
-9.07748e-06 1.46256e-05 -1.13006e-21
-6.0401e-05 7.69827e-06 8.74917e-21
7.82392e-06 -2.16976e-05 -7.30795e-21
-1.88941e-05 -8.90675e-06 -6.92459e-21
1.93524e-06 1.16326e-05 1.04348e-20
2.63205e-05 5.09341e-06 4.53836e-21
3.41946e-05 -2.89965e-05 7.99762e-21
2.21629e-05 2.05715e-05 2.05243e-21
1.19173e-05 -2.82445e-06 1.03957e-20
-3.2178e-05 2.40858e-05 2.4053e-21
3.79326e-05 4.84945e-06 1.48958e-20
-4.98401e-06 4.94521e-05 -6.57018e-21
-1.74232e-06 -1.68698e-05 2.81713e-21
1.81374e-05 9.96205e-06 -2.01392e-21
2.93397e-05 3.03082e-05 -7.90809e-22
5.50658e-05 3.80418e-05 1.66311e-20
-5.33512e-06 3.0796e-05 8.64923e-22
5.9224e-05 -3.5539e-05 -2.08364e-20
-2.71451e-05 5.3452e-06 -1.08369e-20
1.78526e-05 1.101e-05 -1.41081e-20
-2.96636e-05 9.91092e-06 -5.36153e-22
1.66658e-05 2.85425e-05 8.1336e-21
1.01769e-05 -4.44201e-05 -1.48781e-20
1.91697e-06 1.16295e-05 1.38349e-20
-1.48118e-05 -1.76333e-05 1.58655e-20
3.07228e-06 1.74877e-05 3.96193e-21
2.64266e-05 5.26139e-06 -1.59924e-22
-1.54547e-05 3.32364e-05 -5.33085e-21
4.05826e-05 -1.3343e-05 -1.61996e-21
-3.77583e-06 7.46069e-06 -6.83016e-21
9.96033e-06 5.90369e-06 1.09314e-20
-2.28224e-06 -1.13331e-05 -1.86842e-20
3.22314e-06 -1.92663e-05 1.14328e-20
1.74824e-05 3.89498e-06 3.23928e-22
-7.94274e-06 4.10035e-05 9.64244e-21
-9.81288e-06 2.48153e-07 -7.76861e-21
9.32556e-06 1.18946e-05 2.73911e-21
-2.17833e-06 -4.17454e-05 -1.25631e-20
4.20545e-05 1.28745e-05 -3.7738e-21
4.42594e-06 -7.45873e-06 -9.59545e-21
-1.11535e-05 -3.5563e-06 1.09953e-20
-2.93479e-05 -1.24955e-05 1.96722e-21
1.58156e-05 4.1178e-05 -1.25238e-21
-4.35183e-05 -1.55859e-05 -7.582e-21
1.60305e-05 -4.11545e-05 -8.04981e-23
-3.70237e-06 -3.19442e-05 -1.53941e-20
2.18552e-05 6.52665e-07 1.28298e-20
-7.17683e-06 1.84104e-05 -4.84986e-21
-1.61233e-06 3.9725e-06 1.59304e-20
-3.68864e-06 -1.65511e-05 -3.24477e-21
5.23388e-06 -8.30827e-06 -1.28431e-20
9.36655e-06 1.58754e-05 -5.7004e-21
3.31259e-05 1.06604e-05 -1.89014e-20
8.62196e-06 -7.46358e-06 -1.54538e-21
-8.27682e-06 -4.51942e-05 -7.10922e-21
2.55713e-05 -1.88338e-05 -2.14928e-21
4.98171e-06 2.7792e-05 1.36412e-20
-2.81844e-06 -2.84372e-06 2.62195e-20
-8.63262e-06 -8.33201e-06 2.65844e-21
-4.78018e-06 4.41186e-08 -2.09024e-20
-2.28898e-05 2.8616e-05 -1.46976e-20
1.87772e-05 -3.74029e-05 -6.0627e-21
-2.65998e-05 4.2747e-05 -2.44517e-21
-1.63841e-05 9.54245e-06 1.5542e-20
2.52982e-06 1.22079e-05 -5.79166e-21
-2.30039e-05 -3.50155e-05 2.13717e-21
1.39467e-05 3.3491e-05 -5.15394e-21
1.75208e-05 9.37615e-06 6.29279e-21
2.28285e-05 -8.52894e-06 5.73208e-21
-1.25404e-06 -1.12737e-05 -8.61972e-21
-3.39373e-05 -3.15822e-05 4.18108e-21
-2.75347e-06 1.13118e-05 6.08722e-21
1.72595e-05 1.01793e-05 -2.88688e-21
1.89015e-05 -8.82734e-06 3.61342e-21
8.24938e-06 -1.43555e-05 5.59777e-21
2.4375e-05 -1.08033e-05 3.43485e-21
1.90236e-05 -9.00449e-06 -3.44182e-21
4.64412e-06 2.05985e-07 -7.6003e-22
2.57599e-05 2.0236e-05 2.33376e-21
-2.7436e-06 -1.70426e-05 -9.76063e-22
-1.04875e-05 -4.46036e-06 -1.92702e-20
1.12674e-06 -3.89299e-06 -2.72777e-20
-3.15732e-06 1.58587e-05 4.6974e-21
-3.49097e-05 2.77024e-06 3.22249e-21
-1.21304e-05 -3.32832e-05 -6.70313e-21
-7.88486e-06 9.78632e-06 -1.39465e-20
1.35754e-05 1.66526e-05 5.39967e-21
2.65884e-05 -1.87585e-05 1.35393e-21
-3.68199e-05 -2.03664e-05 6.28671e-21
1.74162e-05 -2.75279e-05 -1.2085e-20
2.2821e-05 -2.72366e-05 -3.97222e-21
-1.09525e-05 3.78774e-06 7.00887e-21
-1.98437e-05 -2.8862e-05 -7.12392e-21
-3.49061e-05 -5.7958e-06 1.04446e-20
-3.85496e-06 -3.17664e-05 1.17126e-21
1.54593e-05 -3.17226e-05 -6.37413e-22
-9.11282e-06 -2.62188e-05 -1.12975e-21
4.58484e-06 3.14288e-05 -1.12111e-21
-1.57639e-05 -2.85436e-05 -1.7539e-22
2.94104e-06 -1.63043e-05 4.06859e-21
-2.47578e-05 1.82738e-05 6.66348e-22
-1.50419e-05 -1.21201e-05 1.4275e-20
-2.7373e-05 -5.17629e-06 1.61131e-21
1.56797e-05 -9.18833e-06 9.99822e-21
-4.31007e-06 2.39703e-05 9.25031e-21
1.22417e-05 -9.33135e-06 -3.10669e-21
-2.96081e-05 -1.31743e-05 1.63736e-20
-8.83816e-06 -7.46368e-06 -2.12185e-20
9.08886e-06 7.5464e-06 1.46039e-20
2.14428e-05 2.8722e-05 1.77394e-20
-1.75219e-05 -1.08173e-05 2.30617e-21
-3.25307e-05 -7.5161e-07 7.66006e-21
-1.63488e-05 -5.01993e-06 -5.64857e-21
-4.58144e-06 -1.65955e-05 -6.30158e-21
1.76978e-05 2.12549e-05 1.08051e-20
-1.09654e-05 5.87918e-06 -2.75176e-20
6.36591e-07 -2.05706e-05 -4.88414e-21
-4.19715e-05 1.08592e-05 4.17063e-21
2.48791e-05 2.02613e-05 -2.21719e-21
3.79762e-06 3.28098e-05 -1.34665e-21
-2.43378e-06 3.80003e-06 1.43288e-20
-9.05767e-06 2.51402e-07 8.95944e-21
4.35839e-06 7.76583e-06 4.19627e-21
-1.17026e-05 3.40397e-06 -9.69082e-21
-2.07485e-06 -3.7877e-06 -7.09374e-21
1.66109e-06 2.07754e-05 -7.85634e-21
4.47577e-06 4.50007e-07 7.85425e-21
-1.95528e-05 4.76027e-06 3.28783e-21
-1.73113e-05 1.93727e-05 -1.11672e-20
-3.10974e-06 1.15868e-05 4.35967e-21
-2.92389e-05 1.84084e-05 -8.06513e-23
-9.35027e-06 8.98597e-06 1.40406e-20
1.73241e-05 -1.16224e-05 4.12273e-21
3.66315e-05 -3.56731e-06 1.19206e-20
-2.11565e-05 1.13058e-05 1.24843e-21
2.23467e-06 4.50158e-06 -1.92619e-20
2.17916e-05 -4.34809e-06 -2.10792e-20
-1.72918e-05 1.03606e-05 2.4242e-20
-9.87918e-06 5.5432e-06 3.98526e-21
1.18403e-05 3.74552e-06 -1.16318e-20
2.18963e-05 -1.34811e-05 1.56023e-21
-1.7393e-05 9.96362e-06 7.10133e-21
-2.50559e-05 -5.30709e-06 3.78428e-20
-1.67742e-05 -4.36577e-06 -1.56051e-20
9.88361e-06 6.27804e-09 5.38254e-21
1.01815e-05 1.95478e-07 6.36652e-22
4.3941e-06 8.3234e-06 -2.04888e-20
4.83321e-06 -8.80435e-06 -3.01165e-20
-5.01409e-06 8.42613e-06 3.2886e-21
-5.27061e-06 -8.66405e-06 2.95073e-20
9.9184e-06 -7.41351e-06 -1.94209e-20
-2.03426e-05 3.23731e-06 -4.79563e-21
-2.00748e-05 -3.28616e-06 9.45114e-21
-1.28443e-05 1.58883e-05 2.10089e-20
-1.29241e-05 -1.59426e-05 -2.75169e-21
7.49182e-06 -1.98585e-05 7.78283e-21
7.21135e-06 1.97785e-05 2.31458e-20
1.55914e-06 2.59044e-05 -5.66493e-21
1.12489e-05 -3.13914e-06 2.51019e-21
2.36172e-06 -3.86937e-06 -5.36373e-21
-2.14275e-05 1.42277e-06 1.6623e-20
7.68287e-06 -1.95275e-05 1.02195e-20
7.27882e-06 1.96762e-05 1.12342e-20
4.77234e-06 -5.27494e-08 -1.03593e-20
8.97507e-06 2.44213e-05 -1.58091e-22
-2.2439e-06 -4.01935e-06 -3.20495e-20
2.31955e-06 -1.13254e-05 4.78e-21
-2.24472e-05 -1.21608e-05 -4.93597e-21
-2.13738e-05 -1.15031e-05 3.25402e-21
-2.19089e-05 1.36388e-05 1.50732e-21
3.25363e-06 -1.22966e-05 -1.44741e-20
-1.56642e-06 3.38449e-06 -2.92916e-20
-5.87582e-07 -2.55879e-05 -1.61438e-20
-7.72572e-06 -2.44409e-05 -7.5053e-21
3.27278e-05 3.03844e-05 5.91352e-21
3.54789e-05 -1.81648e-06 5.28582e-21
-1.27203e-05 -3.63479e-06 -1.015e-21
-2.29091e-05 -4.14166e-05 8.46919e-21
8.31031e-06 1.37578e-05 7.15728e-21
-2.52542e-05 3.03557e-06 3.20385e-21
2.00796e-05 5.79056e-06 8.21181e-21
-4.5364e-06 -3.27563e-08 3.07263e-20
-4.66848e-06 -8.41876e-06 9.94152e-21
-7.07794e-06 -3.93611e-05 -5.2252e-22
-9.71527e-06 -8.40128e-08 -7.17592e-21
-4.87102e-05 -1.81704e-06 9.26971e-21
1.73213e-05 -1.91189e-05 -4.02739e-21
2.43114e-06 4.00192e-06 1.28963e-20
-1.20625e-07 -1.75262e-05 -8.29732e-21
-9.82531e-06 2.41014e-05 -1.35202e-20
-4.37512e-06 8.63354e-06 2.23864e-20
2.0571e-05 -1.36157e-05 2.51081e-21
-3.76857e-05 -1.35611e-05 1.76894e-22
-1.52766e-05 -2.03805e-05 -1.96664e-21
4.98059e-06 8.39499e-06 -6.83879e-21
1.66429e-05 5.1642e-06 1.30053e-20
-4.7672e-06 -7.34353e-06 -1.66713e-20
1.98104e-05 3.54973e-06 -2.9387e-20
1.82012e-05 -9.83262e-06 -1.01175e-20
-3.49007e-07 2.71916e-05 5.71043e-21
8.32622e-06 -1.36762e-05 -1.05366e-20
4.88375e-05 2.20213e-06 -8.67975e-21
-4.23867e-05 1.14618e-05 9.53058e-21
2.28755e-05 1.1564e-05 1.02905e-20
-6.45724e-06 -1.71909e-05 -2.2306e-20
-1.53602e-05 -8.624e-06 -1.9545e-20
2.88067e-05 -2.10675e-07 1.11264e-20
-6.92365e-07 -2.42711e-05 -9.52037e-23
-1.26258e-05 -1.08813e-05 2.17348e-20
1.02309e-05 -2.35152e-05 -1.76905e-22
-4.96846e-07 2.0569e-05 1.67759e-21
7.9231e-06 2.6085e-05 -1.66694e-21
1.72793e-05 -9.89074e-06 -6.07466e-21
-1.89605e-05 1.93115e-05 -6.71177e-21
1.65388e-05 2.00425e-05 3.64055e-21
-6.22715e-05 1.60325e-05 7.15936e-22
-1.01157e-05 2.60332e-05 4.29479e-21
1.25273e-05 -1.52583e-05 -2.40836e-20
-7.03367e-06 -1.84099e-05 5.31905e-21
-1.18613e-05 4.50869e-06 -8.92563e-21
-2.59106e-05 -7.05049e-06 6.31128e-21
-6.39025e-06 3.88833e-05 3.83551e-21
-1.26141e-05 1.19103e-05 2.78619e-22
2.07902e-05 -4.4785e-06 1.03285e-20
-6.87685e-06 -2.58112e-05 -2.9301e-21
-1.48785e-05 2.39068e-05 -1.59828e-20
-2.18032e-05 1.2573e-05 1.73486e-21
-2.0583e-05 -1.50654e-05 4.86017e-21
1.80404e-05 -2.06685e-05 4.74801e-21
-2.7549e-05 -1.45721e-06 2.53752e-20
1.23758e-05 -4.08369e-05 3.03161e-22
1.9399e-05 -1.89254e-05 2.81216e-21
2.4749e-05 4.311e-05 -2.95631e-21
1.97249e-06 1.98795e-05 3.68558e-21
2.96323e-06 -2.54379e-05 -1.38278e-20
-4.16636e-05 4.69927e-05 6.47015e-21
-1.27104e-05 -2.44278e-05 -9.33354e-21
1.63776e-05 -6.42469e-06 -2.50317e-20
-2.41228e-06 2.57893e-05 -2.35089e-21
1.28914e-05 -1.18342e-05 -4.56551e-21
1.38898e-05 2.43289e-05 -1.52794e-21
1.72412e-05 -1.40139e-06 3.08061e-21
2.21352e-05 -6.32581e-05 -8.4833e-21
-5.87989e-06 -1.28677e-05 -8.75647e-21
-2.31997e-05 1.00939e-05 -7.43238e-21
-2.0033e-05 1.87312e-05 -7.81785e-21
2.16265e-05 1.45771e-05 7.92351e-21
1.86849e-05 -1.07637e-05 -6.90759e-22
1.49617e-05 1.26016e-05 -1.87783e-20
-5.43161e-06 4.55878e-08 -1.14066e-20
1.54138e-05 -2.31023e-05 -1.07317e-20
-1.70014e-05 -2.04228e-05 -8.95534e-21
2.25766e-05 9.78006e-06 9.87119e-21
1.2815e-05 -1.19975e-05 7.82012e-22
9.56036e-06 -2.4868e-05 -8.14331e-21
1.66701e-05 -6.93739e-06 -9.87421e-21
-1.58158e-05 -7.54961e-06 1.34261e-20
1.29776e-06 -2.63201e-05 -2.38747e-22
-2.61241e-05 4.47608e-06 -3.53049e-21
2.39213e-06 2.45589e-05 4.18913e-21
2.05984e-05 6.63177e-06 -2.23144e-21
-2.17348e-05 -1.0709e-05 -7.86545e-21
-8.98298e-06 2.5627e-05 -2.38939e-21
-1.49622e-06 -2.42039e-05 -1.35822e-20
1.94792e-05 1.18451e-05 -2.99678e-21
-1.77005e-06 1.80967e-05 1.35616e-20
-2.01521e-05 1.37118e-05 -1.26588e-20
2.35264e-05 1.14226e-05 -2.71354e-23
-1.71265e-05 -9.99222e-06 2.29158e-20
9.52403e-08 -1.98479e-05 1.87278e-21
1.83946e-05 1.99974e-05 4.20004e-21
-2.21684e-05 -1.43131e-05 4.25507e-21
4.83835e-05 -3.40042e-05 7.01507e-21
1.79089e-05 -1.08296e-05 3.12411e-21
9.00828e-06 4.31161e-05 -7.1244e-22
1.70455e-05 -1.36877e-05 -6.55144e-22
-1.98856e-05 8.70954e-05 -2.80442e-21
-1.97754e-05 -8.66097e-05 -9.16042e-21
5.72245e-05 7.17645e-05 -7.94609e-21
5.69623e-05 -7.14378e-05 1.23244e-20
9.0708e-05 -1.24982e-10 2.08691e-20
-7.82538e-05 3.76698e-05 -6.24943e-21
-7.75081e-05 -3.73131e-05 -5.84092e-21
1.22421e-05 1.18266e-05 -2.43912e-21
2.93879e-05 2.19072e-05 9.20512e-21
1.14559e-05 3.33508e-06 -2.00605e-20
1.88686e-05 9.75811e-06 -1.21462e-21
4.99278e-06 2.01839e-05 -1.00038e-20
-1.88448e-05 -1.49908e-05 2.05772e-21
1.70496e-05 -1.02212e-05 -5.52943e-21
1.98662e-05 1.45592e-05 2.91356e-21
-3.16897e-06 2.43808e-05 -1.21199e-20
2.94608e-05 -2.00065e-05 -7.18623e-21
3.79668e-06 -2.37562e-05 -1.26649e-21
2.19759e-05 5.2306e-06 1.39968e-20
2.99164e-05 1.10335e-05 1.21457e-24
1.42185e-05 1.41535e-05 -3.9992e-21
1.58941e-05 6.5982e-06 -1.45852e-21
-1.85115e-05 1.09442e-05 -7.34734e-21
-2.25788e-05 9.04298e-06 -1.35768e-20
2.29453e-05 -1.12712e-05 -6.34009e-21
-1.82805e-05 -1.0005e-05 -9.44509e-21
-1.85673e-05 -1.05899e-05 5.68145e-21
-3.43989e-07 -2.07821e-05 -1.43967e-20
-8.60678e-08 -2.11755e-05 -2.07195e-20
-2.01411e-05 -1.00617e-06 7.1553e-21
2.67175e-05 -4.0219e-06 9.01413e-21
1.81246e-05 1.135e-05 3.50686e-21
-1.78766e-05 1.09528e-05 -1.42593e-21
-1.53721e-05 1.66352e-05 8.29943e-21
1.60333e-05 -1.37627e-05 2.06424e-21
-1.10311e-05 1.74757e-05 -1.80818e-20
-1.42348e-05 -1.49001e-05 -9.11572e-21
-1.15592e-06 2.12255e-05 5.68768e-21
-1.28847e-06 2.09829e-05 9.76934e-21
8.98879e-08 -1.98478e-05 -7.96839e-21
6.11522e-06 -1.97511e-05 -6.09907e-21
-1.71529e-05 -9.94248e-06 4.63251e-21
1.55977e-05 -5.49408e-06 3.10153e-21
6.63755e-07 2.14928e-05 5.50093e-21
3.01148e-07 1.85205e-05 -1.17308e-21
-2.34729e-06 1.68692e-05 1.70151e-20
2.19241e-05 -5.53124e-06 1.53416e-21
-1.65528e-05 5.38189e-06 -4.72634e-21
4.1605e-06 2.15325e-05 -2.03559e-21
-3.25812e-05 1.29284e-05 -1.26453e-20
9.77073e-06 4.17608e-05 -6.03828e-21
-1.70654e-05 4.57138e-06 -7.16384e-22
1.96983e-05 -1.16382e-05 -1.49892e-20
9.46556e-07 2.10343e-05 -4.83697e-21
-2.04958e-05 6.70421e-06 7.54926e-21
2.44589e-06 -1.62739e-05 1.61646e-20
1.82164e-06 -5.80538e-05 1.66876e-21
2.00799e-06 1.74986e-05 -5.71312e-21
-1.6974e-05 1.40327e-05 -1.25283e-21
1.78673e-05 6.40171e-05 7.24858e-22
4.58016e-05 3.77334e-05 -6.41294e-23
5.21018e-05 -3.52805e-05 1.06272e-21
1.4826e-05 -1.01743e-05 -1.17297e-20
-1.57967e-05 1.40477e-05 -1.32586e-20
-2.02314e-05 -7.92638e-06 1.69894e-21
-1.96597e-05 -6.82734e-06 -9.71126e-21
5.93091e-05 -2.46294e-05 7.33579e-21
5.74745e-05 2.38878e-05 2.55063e-20
1.09023e-05 3.82019e-06 -1.16909e-20
7.67278e-07 1.95933e-05 5.22794e-21
7.85101e-08 1.95746e-05 -4.26035e-21
-4.84175e-05 -3.69469e-05 -6.94556e-22
1.14334e-05 -1.71841e-05 4.03799e-21
1.17416e-05 1.24735e-05 -5.18529e-23
-2.14336e-05 -3.39819e-06 9.22803e-21
-1.4055e-05 1.72146e-05 -1.25453e-20
-1.89022e-05 9.17444e-06 -4.27022e-21
4.76777e-05 3.37179e-05 -3.23158e-21
1.58178e-05 7.06667e-06 1.48528e-20
-5.57062e-06 2.00449e-05 3.0227e-21
-1.69903e-05 -1.17577e-05 1.84702e-21
1.8577e-06 -2.05576e-05 -1.73233e-20
-8.95609e-06 -1.92812e-05 -8.98763e-21
-1.72616e-05 -1.17821e-05 -2.88325e-21
1.05873e-05 -1.89494e-05 -5.88823e-21
1.41327e-05 -1.70015e-05 1.72049e-20
-2.44151e-06 -6.14823e-05 4.39512e-21
2.61994e-05 -4.11552e-05 -1.55981e-20
1.74888e-06 -2.08006e-05 -5.45425e-21
1.79716e-05 1.13636e-05 4.16018e-21
-1.44868e-05 -1.49162e-05 -6.14395e-21
-9.84811e-06 1.97245e-05 1.46716e-21
-5.04297e-06 2.1022e-05 -3.90617e-22
1.66393e-05 1.4254e-05 -4.37662e-21
6.06351e-06 -1.98758e-05 -1.49613e-21
-1.34157e-05 -4.03878e-05 1.67718e-20
-1.98975e-06 2.50586e-05 5.29782e-21
1.48026e-05 1.44655e-05 -1.6082e-22
-1.29677e-05 -1.02241e-05 1.03945e-20
-1.35248e-05 1.06159e-05 3.1358e-21
4.43749e-05 -1.89267e-05 -6.57018e-21
7.56862e-06 -1.34099e-05 -2.07988e-20
-8.32314e-06 -1.26362e-05 -8.87532e-21
2.13459e-05 6.36813e-06 -3.65673e-20
1.10023e-05 -5.06987e-05 -1.1702e-20
-3.84794e-05 -3.49283e-05 1.01393e-20
2.33236e-05 6.21185e-06 1.36112e-20
-9.33493e-06 -1.82946e-05 -1.35733e-20
1.87192e-05 9.48963e-06 1.10379e-20
-2.85851e-05 -3.25757e-05 5.13423e-21
9.69528e-06 5.00832e-05 -3.22292e-21
3.43591e-05 -5.99031e-05 -7.16274e-21
-3.47624e-05 -5.98199e-05 -1.31235e-20
2.78296e-05 -5.20596e-05 -1.06472e-21
-1.27073e-05 4.36649e-05 8.15822e-22
-6.28058e-06 3.90057e-05 7.66963e-21
-1.87444e-05 8.95246e-06 5.07453e-21
5.98161e-06 2.42598e-05 1.72946e-20
-2.39324e-06 1.26633e-05 1.9068e-22
1.01275e-05 3.23547e-06 -1.78738e-20
-3.19071e-06 1.62172e-05 1.25768e-20
-2.4756e-07 2.1007e-05 6.89913e-21
1.66727e-05 9.75762e-06 -4.89398e-21
1.71259e-06 5.77665e-05 4.32691e-21
-1.47279e-05 1.07406e-05 3.3499e-22
1.5961e-05 -6.2511e-06 6.2966e-22
1.68841e-05 -4.5122e-06 -1.7743e-20
-6.07082e-05 -8.77556e-06 6.38888e-21
-3.46308e-05 1.67536e-05 -7.347e-22
-4.35464e-05 -5.25856e-05 -4.04635e-21
8.66285e-06 8.35175e-06 -6.57065e-21
1.42202e-05 7.29781e-06 -1.04549e-20
2.68242e-05 -4.19886e-06 -7.4272e-23
-8.11022e-06 -1.32525e-05 -4.2998e-21
1.7229e-05 8.43469e-06 -6.64445e-21
7.34071e-06 -3.00564e-05 -2.42391e-20
-1.37236e-05 1.02125e-05 -1.74371e-20
-2.23905e-05 -2.14378e-05 1.04663e-20
-5.84014e-06 1.63096e-05 1.03612e-20
-3.27329e-06 2.06935e-05 3.44821e-21
3.38743e-05 2.13118e-05 8.02157e-21
3.61394e-05 -1.92968e-05 -2.78686e-21
-4.21016e-05 -1.16319e-05 -4.45516e-21
7.6397e-06 7.69128e-06 -1.97591e-20
-4.06034e-06 0.000101434 -1.11625e-21
8.63575e-07 -0.000104544 2.93084e-21
5.24934e-05 8.77084e-05 1.21068e-21
-1.91167e-05 8.46408e-06 -1.00811e-20
-2.63948e-05 5.65917e-05 -2.00771e-21
5.30724e-05 -8.4701e-05 -7.10436e-21
-1.17289e-05 -1.82957e-05 -1.0037e-20
7.80562e-05 6.75454e-05 1.27391e-20
2.40109e-05 -1.79898e-05 -2.06696e-20
-3.60998e-06 -2.98437e-05 1.15507e-20
8.18375e-05 -6.58967e-05 1.23955e-20
-6.74942e-06 1.45289e-05 1.14109e-20
-5.38721e-05 -3.48504e-05 2.39939e-21
-4.3044e-05 -9.31994e-05 4.2396e-21
-2.41295e-05 -5.78466e-05 1.35818e-20
-4.40061e-05 9.42067e-05 -8.27851e-21
-1.01e-05 6.41307e-05 -1.02001e-20
1.56441e-05 3.7135e-05 1.90372e-20
-2.79753e-05 3.72684e-05 -8.78419e-22
-2.52904e-05 -5.52245e-05 5.37419e-21
0.000100437 1.73292e-05 1.39036e-20
-1.69396e-05 1.07749e-05 -8.40069e-22
-5.91654e-06 1.63447e-05 1.21349e-20
-5.07955e-05 3.76685e-05 4.89247e-21
-1.72887e-05 9.95136e-06 -8.302e-21
9.92736e-05 -1.5274e-05 1.93093e-20
-1.53712e-05 7.80439e-06 -4.43712e-21
7.1979e-06 -1.45053e-05 -9.8186e-21
-7.80257e-05 -6.0994e-05 9.00246e-21
-2.5897e-05 5.77594e-05 5.41239e-21
-7.9179e-05 6.04208e-05 -1.09025e-20
2.45587e-05 5.19874e-05 2.96509e-21
-1.47782e-05 1.05901e-05 -2.13866e-20
-2.05446e-05 2.44942e-05 -2.57825e-21
-2.85531e-05 4.98537e-05 1.0277e-20
-5.68169e-05 2.08179e-07 -3.03891e-21
-9.44701e-07 1.63078e-05 -4.26596e-21
-2.88703e-05 -5.04427e-05 7.23076e-21
-5.82402e-05 -2.20055e-07 -4.95976e-21
-2.83699e-05 4.87313e-05 9.30579e-22
-1.52012e-05 6.63138e-05 2.0019e-20
-1.78771e-05 4.12908e-05 -4.60704e-21
-3.39246e-05 2.71569e-05 2.19492e-21
2.44004e-05 -6.06125e-06 -2.55175e-20
3.803e-05 -2.19683e-06 -2.0572e-20
1.3492e-05 8.20617e-06 -1.19307e-20
-1.04766e-05 -7.40408e-05 -3.57569e-21
-6.94989e-05 -2.79943e-05 -1.436e-20
3.71589e-05 7.33209e-07 2.6311e-20
5.8408e-05 -1.08998e-05 1.375e-20
-1.05913e-05 -1.35069e-05 1.35603e-21
-5.08651e-05 3.76545e-05 -1.54523e-20
-4.61667e-05 5.40401e-05 -3.74044e-21
6.24074e-05 -2.22482e-05 1.07161e-20
-2.81977e-05 -5.05334e-05 -2.32044e-21
-2.87978e-05 4.98153e-05 3.17502e-20
-5.72956e-05 -1.17204e-06 8.25291e-21
-2.65924e-05 5.06343e-05 -9.27031e-21
-5.79949e-05 -8.1757e-07 -9.37416e-21
6.61236e-05 1.7405e-05 6.26895e-21
5.64208e-05 1.29352e-06 -5.7922e-22
5.09367e-05 -2.92949e-05 -9.1316e-22
2.49282e-05 -5.94698e-05 8.74537e-21
2.994e-05 -4.8892e-05 7.63383e-21
2.91884e-05 4.87158e-05 2.05392e-20
2.43626e-05 5.81311e-05 8.97897e-21
7.58569e-05 -2.00521e-05 2.83669e-20
4.62996e-05 2.90841e-05 7.39675e-21
4.66578e-05 1.37553e-05 3.50038e-20
TENSORS solid_stress_TPM float
375.082 -24.9224 2.65269e-12
-24.9224 238.6 5.80277e-14
2.65269e-12 5.80277e-14 197.847

457.077 -21.3213 -5.42462e-12
-21.3213 490.063 4.92347e-13
-5.42462e-12 4.92347e-13 487.182

454.95 28.0481 -2.61953e-12
28.0481 463.782 -1.33967e-12
-2.61953e-12 -1.33967e-12 458.529

455.104 -29.8422 3.60897e-13
-29.8422 482.686 -2.88954e-13
3.60897e-13 -2.88954e-13 484.929

527.743 19.9307 -1.29378e-12
19.9307 548.503 1.77924e-12
-1.29378e-12 1.77924e-12 527.414

437.38 -18.0778 -1.75356e-12
-18.0778 480.414 -2.11386e-12
-1.75356e-12 -2.11386e-12 458.109

372.376 26.4868 1.9232e-12
26.4868 239.12 -2.65861e-12
1.9232e-12 -2.65861e-12 197.831

473.723 29.9609 9.54496e-13
29.9609 469.574 -1.68221e-12
9.54496e-13 -1.68221e-12 472.407

471.626 5.48402 5.50671e-13
5.48402 417.889 4.73584e-13
5.50671e-13 4.73584e-13 432.863

504.334 -7.47771 -8.18901e-13
-7.47771 444.185 -1.12036e-12
-8.18901e-13 -1.12036e-12 483.523

360.348 16.3122 2.79243e-12
16.3122 247.689 2.27374e-12
2.79243e-12 2.27374e-12 233.681

444.851 -13.4551 1.18261e-12
-13.4551 498.459 2.11623e-12
1.18261e-12 2.11623e-12 472.308

466.939 27.8368 -1.16588e-12
27.8368 468.375 -3.86062e-13
-1.16588e-12 -3.86062e-13 466.804

457.105 -14.342 1.92076e-12
-14.342 500.507 6.83305e-13
1.92076e-12 6.83305e-13 483.526

512.997 33.307 4.21589e-13
33.307 511.66 -1.43358e-14
4.21589e-13 -1.43358e-14 515.287

489.25 0.56119 9.50943e-13
0.56119 435.593 7.88934e-13
9.50943e-13 7.88934e-13 462.342

457.653 -17.9685 1.93007e-12
-17.9685 512.955 4.12707e-13
1.93007e-12 4.12707e-13 493.664

494.034 -2.66519 1.32072e-12
-2.66519 439.118 1.91773e-13
1.32072e-12 1.91773e-13 474.334

418.859 26.6795 6.51331e-14
26.6795 449.732 1.30385e-12
6.51331e-14 1.30385e-12 424.12

482.058 -4.19651 7.83373e-13
-4.19651 424.988 -1.93638e-12
7.83373e-13 -1.93638e-12 453.544

425.362 8.67076 2.3328e-12
8.67076 481.978 2.72552e-12
2.3328e-12 2.72552e-12 444.909

634.138 6.2845 2.40544e-11
6.2845 633.98 1.8292e-12
2.40544e-11 1.8292e-12 570.356

479.229 1.87623 -4.74287e-13
1.87623 423.006 1.15241e-13
-4.74287e-13 1.15241e-13 449.801

447.232 -27.7202 -4.49566e-12
-27.7202 461.223 -2.89428e-12
-4.49566e-12 -2.89428e-12 453.017

481.125 6.85048 -6.24093e-13
6.85048 425.507 -7.14243e-13
-6.24093e-13 -7.14243e-13 453.007

449.827 19.1147 2.83625e-13
19.1147 490.392 1.95873e-12
2.83625e-13 1.95873e-12 478.275

377.712 4.18234 5.48302e-12
4.18234 291.695 1.87376e-12
5.48302e-12 1.87376e-12 259.042

462.755 30.7504 -3.36324e-13
30.7504 460.783 2.77793e-12
-3.36324e-13 2.77793e-12 460.613

385.002 37.0831 -6.87805e-12
37.0831 383.581 -2.86112e-12
-6.87805e-12 -2.86112e-12 348.474

586.974 10.3237 -9.53015e-13
10.3237 563.493 3.11791e-12
-9.53015e-13 3.11791e-12 546.921

491.763 14.2179 -1.00364e-12
14.2179 442.566 -3.53243e-12
-1.00364e-12 -3.53243e-12 465.925

352.909 -17.7846 4.1549e-12
-17.7846 416.792 -5.33854e-12
4.1549e-12 -5.33854e-12 348.645

331.066 -42.1097 1.85925e-12
-42.1097 335.922 -9.00021e-13
1.85925e-12 -9.00021e-13 253.522

531.453 5.98425 2.57665e-12
5.98425 586.928 -3.88726e-13
2.57665e-12 -3.88726e-13 538.633

554.065 -4.83685 1.50369e-12
-4.83685 582.111 -6.40081e-12
1.50369e-12 -6.40081e-12 542.563

578.024 21.0269 7.46958e-13
21.0269 539.992 -5.91616e-12
7.46958e-13 -5.91616e-12 538.401

556.225 5.06372 -6.54143e-13
5.06372 600.705 -5.06558e-12
-6.54143e-13 -5.06558e-12 548.018

573.814 -9.17167 2.28884e-12
-9.17167 555.81 4.83613e-13
2.28884e-12 4.83613e-13 540.689

467.198 -28.002 -4.45273e-13
-28.002 466.564 -4.58241e-12
-4.45273e-13 -4.58241e-12 465.176

330.45 41.5289 -9.81733e-12
41.5289 338.02 -8.04098e-12
-9.81733e-12 -8.04098e-12 253.88

414.593 -17.9532 -2.67993e-12
-17.9532 354.541 -2.28736e-12
-2.67993e-12 -2.28736e-12 346.375

559.345 -3.70281 -9.03573e-13
-3.70281 599.954 -3.28744e-12
-9.03573e-13 -3.28744e-12 548.432

586.448 19.5499 -1.93808e-12
19.5499 572.489 6.0781e-13
-1.93808e-12 6.0781e-13 548.22

490.969 -12.274 -7.58504e-13
-12.274 442.921 7.66794e-13
-7.58504e-13 7.66794e-13 466.598

341.759 -43.3085 -7.48438e-13
-43.3085 345.388 -1.7278e-12
-7.48438e-13 -1.7278e-12 289.021

417.62 -18.0675 6.30962e-12
-18.0675 357.159 -8.64494e-13
6.30962e-12 -8.64494e-13 351.55

413.069 17.0893 2.34731e-12
17.0893 464.849 9.39101e-13
2.34731e-12 9.39101e-13 428.785

429.689 19.3431 -2.04222e-12
19.3431 466.579 -8.28966e-15
-2.04222e-12 -8.28966e-15 437.14

486.846 -16.3034 -3.62199e-12
-16.3034 432.933 6.25278e-13
-3.62199e-12 6.25278e-13 458.737

355.628 -34.1933 -9.15416e-13
-34.1933 389.456 -2.58993e-12
-9.15416e-13 -2.58993e-12 332.614

410.31 19.1862 -4.39352e-12
19.1862 350.747 -1.76037e-12
-4.39352e-12 -1.76037e-12 339.524

425.261 -25.2941 -4.37931e-12
-25.2941 383.872 1.25233e-13
-4.37931e-12 1.25233e-13 373.128

519.964 19.4822 -7.40149e-13
19.4822 547.578 -1.92646e-12
-7.40149e-13 -1.92646e-12 525.781

416.471 29.6561 -3.25073e-12
29.6561 393.94 2.7119e-13
-3.25073e-12 2.7119e-13 373.993

522.225 -21.8126 -2.81997e-12
-21.8126 541.439 6.19255e-13
-2.81997e-12 6.19255e-13 524.428

364.119 -42.72 -2.65032e-12
-42.72 343.327 1.83557e-12
-2.65032e-12 1.83557e-12 289.739

553.486 5.45575 -1.27764e-12
5.45575 583.903 -6.46298e-13
-1.27764e-12 -6.46298e-13 542.937

373.766 -5.33114 3.71377e-12
-5.33114 436.726 -1.5549e-12
3.71377e-12 -1.5549e-12 373.877

580.848 10.3851 -3.76588e-13
10.3851 556.209 2.41012e-12
-3.76588e-13 2.41012e-12 542.694

435.117 21.4168 -1.21592e-12
21.4168 473.828 -4.62623e-12
-1.21592e-12 -4.62623e-12 454.733

513.635 5.7555 1.6942e-12
5.7555 452.869 1.80256e-12
1.6942e-12 1.80256e-12 494.926

522.519 11.4591 1.83868e-12
11.4591 487.919 -5.16861e-12
1.83868e-12 -5.16861e-12 507.137

383.756 31.8251 -1.11555e-12
31.8251 315.233 -8.84034e-12
-1.11555e-12 -8.84034e-12 269.908

482.145 -6.03695 1.53936e-12
-6.03695 528.241 9.39101e-13
1.53936e-12 9.39101e-13 504.159

487.154 9.52125 2.72212e-12
9.52125 523.75 -1.68932e-12
2.72212e-12 -1.68932e-12 507.554

456.517 -2.88217 -7.30897e-13
-2.88217 520.22 -2.21038e-12
-7.30897e-13 -2.21038e-12 487.867

464.517 23.4008 -1.18535e-13
23.4008 503.535 2.74151e-13
-1.18535e-13 2.74151e-13 495.502

496.816 8.4648 -2.03008e-12
8.4648 444.461 -2.13222e-12
-2.03008e-12 -2.13222e-12 477.762

445.571 -28.2444 3.00678e-12
-28.2444 459.595 1.52826e-12
3.00678e-12 1.52826e-12 451.231

501.75 -1.71177 2.18344e-13
-1.71177 444.983 3.01241e-14
2.18344e-13 3.01241e-14 489.133

519.578 -19.2582 -3.12343e-13
-19.2582 546.872 1.82402e-12
-3.12343e-13 1.82402e-12 525.514

523.354 21.3078 -2.04696e-12
21.3078 542.963 1.9768e-12
-2.04696e-12 1.9768e-12 525.317

353.459 -16.5873 3.2081e-12
-16.5873 415.799 5.56592e-14
3.2081e-12 5.56592e-14 346.164

506.082 -27.938 4.55872e-12
-27.938 485.367 3.27412e-12
4.55872e-12 3.27412e-12 493.939

449.787 -25.1385 -1.09246e-12
-25.1385 471.29 -8.23637e-13
-1.09246e-12 -8.23637e-13 458.642

357.92 -31.7167 9.9476e-14
-31.7167 285.713 5.41907e-12
9.9476e-14 5.41907e-12 249.894

498.55 3.22348 9.11937e-13
3.22348 541.461 1.7728e-12
9.11937e-13 1.7728e-12 513.698

501.787 28.9462 3.51541e-12
28.9462 474.611 -5.90047e-13
3.51541e-12 -5.90047e-13 487.718

448.508 19.6657 -2.78192e-12
19.6657 492.177 -7.35708e-13
-2.78192e-12 -7.35708e-13 477.707

440.261 8.00132 9.76996e-13
8.00132 373.091 -6.34751e-12
9.76996e-13 -6.34751e-12 382.992

386.508 -33.9429 2.94757e-12
-33.9429 360.258 -5.24025e-12
2.94757e-12 -5.24025e-12 319.483

537.761 -10.5863 6.15893e-12
-10.5863 556.187 -2.82115e-12
6.15893e-12 -2.82115e-12 531.3

482.721 23.9009 1.08654e-13
23.9009 504.62 -1.77847e-12
1.08654e-13 -1.77847e-12 502.104

385.429 -32.391 -1.66149e-12
-32.391 345.356 -1.72899e-12
-1.66149e-12 -1.72899e-12 317.129

422.263 10.7935 -3.09086e-13
10.7935 363.903 -6.11999e-12
-3.09086e-13 -6.11999e-12 350.306

307.693 -21.2105 -4.71919e-13
-21.2105 388.501 -2.52716e-12
-4.71919e-13 -2.52716e-12 288.158

434.506 14.4274 -1.65016e-12
14.4274 488.738 -7.2499e-12
-1.65016e-12 -7.2499e-12 460.948

509.783 23.1464 5.50671e-14
23.1464 475.232 6.92187e-13
5.50671e-14 6.92187e-13 490.007

338.289 42.2077 4.0347e-12
42.2077 349.622 4.54037e-12
4.0347e-12 4.54037e-12 288.994

634.227 16.5038 9.47916e-12
16.5038 603.089 8.83589e-13
9.47916e-12 8.83589e-13 565.362

372.943 -4.10937 2.88984e-12
-4.10937 436.886 2.04873e-13
2.88984e-12 2.04873e-13 373.484

637.132 -16.6292 -4.61919e-12
-16.6292 599.56 3.01329e-12
-4.61919e-12 3.01329e-12 564.869

533.991 -27.3346 3.96128e-13
-27.3346 507.294 -3.21743e-12
3.96128e-13 -3.21743e-12 515.77

505.36 27.426 1.53951e-12
27.426 466.394 -4.82459e-12
1.53951e-12 -4.82459e-12 485.133

426.993 -24.416 9.43838e-13
-24.416 386.296 4.48441e-12
9.43838e-13 4.48441e-12 376.036

358.989 31.3305 7.06398e-12
31.3305 396.065 -1.20082e-12
7.06398e-12 -1.20082e-12 339.252

339.873 -10.7074 -1.63839e-12
-10.7074 408.454 6.9799e-12
-1.63839e-12 6.9799e-12 319.154

453.174 21.972 5.21376e-12
21.972 494.75 7.86926e-13
5.21376e-12 7.86926e-13 483.235

533.17 16.7961 -1.3823e-12
16.7961 506.251 5.03568e-12
-1.3823e-12 5.03568e-12 513.41

443.519 15.1567 -3.37893e-12
15.1567 488.512 -1.10016e-12
-3.37893e-12 -1.10016e-12 464.349

451.552 15.957 5.20709e-12
15.957 400.597 3.52548e-12
5.20709e-12 3.52548e-12 403.808

374.544 -21.4774 -2.52776e-12
-21.4774 419.933 1.21621e-12
-2.52776e-12 1.21621e-12 357.252

389.782 -29.3971 1.83794e-12
-29.3971 342.419 2.63019e-12
1.83794e-12 2.63019e-12 314.439

455.036 -24.5754 -2.97259e-12
-24.5754 480.137 -2.80309e-12
-2.97259e-12 -2.80309e-12 478.438

466.495 27.454 -3.59061e-12
27.454 478.811 -2.12748e-12
-3.59061e-12 -2.12748e-12 479.876

452.288 23.1889 2.04651e-12
23.1889 492.631 -1.35714e-12
2.04651e-12 -1.35714e-12 482.111

466.357 13.1684 1.46498e-12
13.1684 529.837 3.86654e-13
1.46498e-12 3.86654e-13 501.444

490.936 9.37315 8.43769e-13
9.37315 437.955 2.28588e-12
8.43769e-13 2.28588e-12 462.122

327.758 -4.66595 5.35868e-14
-4.66595 403.444 1.70767e-12
5.35868e-14 1.70767e-12 314.46

462.651 -36.8304 -1.40806e-12
-36.8304 487.761 4.87314e-13
-1.40806e-12 4.87314e-13 492.815

445.917 27.47 -6.89522e-13
27.47 463.34 -9.13639e-13
-6.89522e-13 -9.13639e-13 455.081

305.714 2.17059 6.3302e-12
2.17059 393.422 7.88229e-12
6.3302e-12 7.88229e-12 297.301

386.056 34.6179 4.68958e-13
34.6179 332.496 -3.94766e-12
4.68958e-13 -3.94766e-12 306.292

453.42 -22.9766 8.40957e-13
-22.9766 480.142 -1.96199e-12
8.40957e-13 -1.96199e-12 476.241

501.468 5.73292 -9.14232e-13
5.73292 441.386 4.87906e-13
-9.14232e-13 4.87906e-13 481.079

422.448 27.2101 -2.65506e-12
27.2101 389.827 2.52124e-12
-2.65506e-12 2.52124e-12 374.292

570.584 12.744 6.36528e-14
12.744 565.953 1.09009e-12
6.36528e-14 1.09009e-12 542.965

396.24 24.3359 2.04163e-12
24.3359 349.7 2.61776e-12
2.04163e-12 2.61776e-12 319.093

569.207 -13.0535 5.10703e-12
-13.0535 565.865 -6.18468e-13
5.10703e-12 -6.18468e-13 542.421

375.148 0.778794 1.44507e-12
0.778794 438.94 -2.64796e-12
1.44507e-12 -2.64796e-12 374.699

461.545 -2.23581 -7.28306e-13
-2.23581 399.363 8.83182e-13
-7.28306e-13 8.83182e-13 417.345

538.254 -15.7652 -1.96465e-12
-15.7652 480.695 1.77369e-12
-1.96465e-12 1.77369e-12 513.539

457.315 24.3885 2.75336e-12
24.3885 487.858 -7.01365e-13
2.75336e-12 -7.01365e-13 488.423

461.323 -13.5357 2.84923e-12
-13.5357 519.202 1.89478e-13
2.84923e-12 1.89478e-13 495.779

515.038 -7.99895 2.76372e-13
-7.99895 438.266 -1.70012e-12
2.76372e-13 -1.70012e-12 494.344

488.373 -22.2804 5.16076e-12
-22.2804 541.657 -1.06049e-12
5.16076e-12 -1.06049e-12 515.808

556.094 -6.59999 -7.71117e-12
-6.59999 560.437 -6.90244e-12
-7.71117e-12 -6.90244e-12 538.78

463.938 -29.9088 2.43805e-12
-29.9088 483.269 -1.48326e-12
2.43805e-12 -1.48326e-12 483.668

341.757 11.4561 -5.59168e-12
11.4561 406.258 3.07902e-13
-5.59168e-12 3.07902e-13 319.532

422.548 -28.1528 2.08426e-12
-28.1528 391.302 1.43056e-12
2.08426e-12 1.43056e-12 375.206

507.432 -13.7692 -2.95948e-12
-13.7692 558.798 -1.96643e-12
-2.95948e-12 -1.96643e-12 525.306

501.13 0.505429 2.97999e-12
0.505429 441.351 1.50087e-12
2.97999e-12 1.50087e-12 487.155

477.007 -21.5236 1.81958e-12
-21.5236 507.489 2.26367e-12
1.81958e-12 2.26367e-12 501.569

459.17 25.6987 3.99532e-13
25.6987 484.673 5.58442e-13
3.99532e-13 5.58442e-13 488.05

394.491 -31.4715 3.71495e-12
-31.4715 400.662 -4.07852e-12
3.71495e-12 -4.07852e-12 357.577

552.164 -7.08089 7.48882e-13
-7.08089 585.335 3.75551e-12
7.48882e-13 3.75551e-12 542.652

347.261 -33.0836 -6.24449e-12
-33.0836 382.666 -1.6153e-12
-6.24449e-12 -1.6153e-12 303.482

490.942 -19.1824 -1.11733e-12
-19.1824 448.452 2.53368e-12
-1.11733e-12 2.53368e-12 467.19

519.774 1.97227 -4.51868e-12
1.97227 466.88 -1.02644e-12
-4.51868e-12 -1.02644e-12 502.895

570.602 17.8736 -3.87483e-12
17.8736 566.515 2.35752e-12
-3.87483e-12 2.35752e-12 542.424

375.348 20.1875 3.15126e-12
20.1875 424.1 2.67756e-12
3.15126e-12 2.67756e-12 360.277

489.149 27.2141 4.17385e-12
27.2141 468.607 1.33079e-12
4.17385e-12 1.33079e-12 476.704

454.45 -24.5161 -3.21994e-12
-24.5161 415.405 2.09314e-13
-3.21994e-12 2.09314e-13 418.666

454.785 -17.84 1.93588e-12
-17.84 494.978 -3.58232e-14
1.93588e-12 -3.58232e-14 482.708

379.256 35.0756 3.04941e-12
35.0756 366.085 4.33431e-12
3.04941e-12 4.33431e-12 317.098

449.222 -21.8318 -9.59233e-13
-21.8318 491.777 1.3296e-12
-9.59233e-13 1.3296e-12 479.841

485.558 30.8534 3.97963e-12
30.8534 465.199 3.201e-12
3.97963e-12 3.201e-12 473.51

480.393 -25.2472 -1.69583e-12
-25.2472 442.431 9.38213e-13
-1.69583e-12 9.38213e-13 455.508

448.287 -25.1302 1.48237e-12
-25.1302 469.84 1.58688e-12
1.48237e-12 1.58688e-12 458.164

445.415 -18.6921 -1.46845e-13
-18.6921 393.52 -6.06626e-12
-1.46845e-13 -6.06626e-12 397.318

470.725 -18.8532 -3.19744e-14
-18.8532 422.916 -1.07114e-12
-3.19744e-14 -1.07114e-12 437.596

459.07 -25.3381 4.79616e-14
-25.3381 485.5 1.11885e-12
4.79616e-14 1.11885e-12 488.893

386.6 35.9775 -4.53563e-12
35.9775 382.045 -9.60417e-13
-4.53563e-12 -9.60417e-13 348.169

444.562 15.3795 -1.88945e-12
15.3795 491.604 -5.41434e-12
-1.88945e-12 -5.41434e-12 467.206

469.464 26.4251 -7.70051e-13
26.4251 480.025 2.88066e-13
-7.70051e-13 2.88066e-13 482.612

456.212 25.4737 9.87238e-13
25.4737 486.718 7.80857e-13
9.87238e-13 7.80857e-13 487.313

457.872 11.6235 -8.08811e-13
11.6235 507.008 -1.46372e-12
-8.08811e-13 -1.46372e-12 486.079

432.019 -8.22877 1.51109e-12
-8.22877 370.81 -5.21938e-12
1.51109e-12 -5.21938e-12 363.362

376.835 18.6107 5.1088e-12
18.6107 427.332 3.24363e-12
5.1088e-12 3.24363e-12 363.938

452.379 -24.3833 -2.0585e-12
-24.3833 478.457 -3.34103e-12
-2.0585e-12 -3.34103e-12 470.778

440.812 25.6708 -3.36916e-13
25.6708 455.71 3.63087e-12
-3.36916e-13 3.63087e-12 437.869

391.014 -35.6373 9.35548e-13
-35.6373 380.333 9.41469e-13
9.35548e-13 9.41469e-13 350.143

368.995 38.3249 1.83438e-12
38.3249 327.298 4.29286e-12
1.83438e-12 4.29286e-12 295.726

363.699 -33.3186 2.77763e-12
-33.3186 394.494 -2.66572e-12
2.77763e-12 -2.66572e-12 342.03

397.989 -31.1666 -1.58925e-12
-31.1666 404.253 -2.22755e-12
-1.58925e-12 -2.22755e-12 363.027

502.928 -6.83858 -3.53288e-12
-6.83858 442.318 1.91284e-12
-3.53288e-12 1.91284e-12 482.384

393.222 30.3485 -4.66116e-12
30.3485 409.04 -1.74083e-13
-4.66116e-12 -1.74083e-13 363.488

429.767 13.2975 2.5994e-12
13.2975 372.3 9.12455e-13
2.5994e-12 9.12455e-13 362.767

350.192 13.3819 -3.3468e-12
13.3819 418.578 5.32907e-12
-3.3468e-12 5.32907e-12 348.526

379.533 -22.3454 1.10253e-12
-22.3454 423.577 -6.73239e-12
1.10253e-12 -6.73239e-12 363.502

491.26 -1.09305 -2.42525e-12
-1.09305 550.929 2.02682e-12
-2.42525e-12 2.02682e-12 516.36

372.916 2.2472 -5.44942e-12
2.2472 437.854 1.13924e-12
-5.44942e-12 1.13924e-12 373.575

357.94 31.0962 4.1999e-12
31.0962 399.546 9.23706e-13
4.1999e-12 9.23706e-13 342.011

458.055 12.1095 8.5365e-13
12.1095 510.627 1.26358e-12
8.5365e-13 1.26358e-12 488.466

421.516 -27.6537 -1.56912e-12
-27.6537 389.128 -1.6757e-13
-1.56912e-12 -1.6757e-13 375.127

524.814 20.5572 -3.53673e-12
20.5572 469.809 2.01498e-12
-3.53673e-12 2.01498e-12 500.793

534.976 26.2704 -9.4443e-13
26.2704 506.914 -4.6955e-12
-9.4443e-13 -4.6955e-12 516.149

494.883 -18.5706 5.34624e-12
-18.5706 449.087 -1.0371e-12
5.34624e-12 -1.0371e-12 470.918

554.631 -1.80479 -4.61705e-12
-1.80479 516.072 -1.96287e-12
-4.61705e-12 -1.96287e-12 525.769

473.352 -31.8142 1.84445e-12
-31.8142 475.761 -2.16005e-12
1.84445e-12 -2.16005e-12 478.641

412.66 23.3329 -1.82728e-12
23.3329 357.246 6.13731e-12
-1.82728e-12 6.13731e-12 348.143

464.245 30.1629 3.52311e-14
30.1629 482.838 1.75119e-12
3.52311e-14 1.75119e-12 483.27

464.508 29.2068 -2.84868e-12
29.2068 482.311 1.77873e-12
-2.84868e-12 1.77873e-12 482.831

394.004 30.6677 -5.2971e-12
30.6677 405.784 -1.94807e-12
-5.2971e-12 -1.94807e-12 360.922

502.917 27.0872 2.07834e-12
27.0872 482.723 1.93801e-12
2.07834e-12 1.93801e-12 490.794

415.415 3.52593 2.74388e-12
3.52593 339.064 -3.24707e-12
2.74388e-12 -3.24707e-12 340.875

493.185 31.8173 1.01637e-12
31.8173 487.288 9.39101e-13
1.01637e-12 9.39101e-13 495.636

476.383 -12.5991 -3.74937e-12
-12.5991 522.512 1.01608e-12
-3.74937e-12 1.01608e-12 500.307

536.98 24.2769 2.33887e-12
24.2769 507.453 3.74278e-12
2.33887e-12 3.74278e-12 516.685

468.246 -29.5798 8.98837e-13
-29.5798 480.04 -3.43459e-12
8.98837e-13 -3.43459e-12 483.127

464.618 -4.89699 1.42479e-12
-4.89699 521.619 -7.63833e-13
1.42479e-12 -7.63833e-13 491.039

401 -24.5617 -7.27122e-13
-24.5617 349.072 -3.48876e-12
-7.27122e-13 -3.48876e-12 323.998

419.03 29.6997 3.63206e-12
29.6997 392.522 -3.51008e-12
3.63206e-12 -3.51008e-12 373.825

352.394 14.6999 -2.94638e-12
14.6999 417.276 1.70886e-12
-2.94638e-12 1.70886e-12 348.291

500.6 -1.1395 4.08532e-12
-1.1395 442.863 1.9927e-12
4.08532e-12 1.9927e-12 487.775

492.543 0.00212508 -3.38514e-12
0.00212508 438.168 -1.4988e-13
-3.38514e-12 -1.4988e-13 474.485

453.033 23.1267 4.39796e-12
23.1267 479.777 4.5904e-12
4.39796e-12 4.5904e-12 475.652

481.369 23.872 3.53199e-13
23.872 502.936 -9.87025e-13
3.53199e-13 -9.87025e-13 501.315

456.657 -24.3811 -3.05472e-12
-24.3811 487.423 -2.04281e-13
-3.05472e-12 -2.04281e-13 488.564

457.897 -0.674009 1.6509e-12
-0.674009 518.007 -1.0593e-12
1.6509e-12 -1.0593e-12 486.462

458.955 25.5915 -4.2002e-12
25.5915 486.539 1.40673e-12
-4.2002e-12 1.40673e-12 488.586

465.634 -10.3099 2.65565e-12
-10.3099 408.146 -2.06501e-13
2.65565e-12 -2.06501e-13 427.289

400.927 -32.8409 5.73763e-13
-32.8409 415.022 -1.63247e-12
5.73763e-13 -1.63247e-12 385.227

518.164 -2.30294 4.92791e-13
-2.30294 465.806 -5.45845e-12
4.92791e-13 -5.45845e-12 500.993

391.934 -34.5161 7.56846e-12
-34.5161 379.666 -8.90547e-13
7.56846e-12 -8.90547e-13 347.473

478.067 19.0858 -6.52811e-13
19.0858 509.271 9.4739e-13
-6.52811e-13 9.4739e-13 501.912

506.182 -26.4799 2.72493e-12
-26.4799 470.312 -1.61056e-13
2.72493e-12 -1.61056e-13 487.339

425.071 -9.69249 -3.13705e-12
-9.69249 366.788 5.29191e-12
-3.13705e-12 5.29191e-12 356.038

530.326 -23.1935 1.92794e-12
-23.1935 488.819 4.5226e-12
1.92794e-12 4.5226e-12 506.552

500.969 2.35855 7.08322e-13
2.35855 444.652 5.11739e-13
7.08322e-13 5.11739e-13 489.277

521.254 -23.3238 -3.9897e-12
-23.3238 501.905 1.02762e-12
-3.9897e-12 1.02762e-12 508.597

502.087 -25.8609 6.79753e-13
-25.8609 461.559 -4.23069e-12
6.79753e-13 -4.23069e-12 481.312

498.903 -8.54789 -2.0511e-12
-8.54789 445.206 3.62184e-12
-2.0511e-12 3.62184e-12 479.415

482.291 -23.0692 -1.92202e-12
-23.0692 505.06 -1.32067e-12
-1.92202e-12 -1.32067e-12 502.603

428.61 -31.3486 -4.07378e-13
-31.3486 410.654 1.95103e-12
-4.07378e-13 1.95103e-12 399.062

503.338 -24.5907 1.31154e-12
-24.5907 464.781 2.54374e-12
1.31154e-12 2.54374e-12 482.228

441.315 10.8669 -1.21858e-12
10.8669 378.541 -8.81369e-13
-1.21858e-12 -8.81369e-13 387.862

500.105 26.3424 4.15105e-12
26.3424 498.648 -3.59046e-12
4.15105e-12 -3.59046e-12 500.171

463.826 -37.6097 -2.01617e-12
-37.6097 488.464 9.65635e-13
-2.01617e-12 9.65635e-13 494.154

464.934 37.2623 8.63902e-13
37.2623 487.376 1.65697e-12
8.63902e-13 1.65697e-12 493.869

446.406 -28.5715 -1.39925e-13
-28.5715 500.089 7.01661e-13
-1.39925e-13 7.01661e-13 492.384

448.64 27.0627 2.09736e-12
27.0627 500.78 2.13163e-14
2.09736e-12 2.13163e-14 492.571

513.144 -8.52647 4.1213e-12
-8.52647 436.484 -1.30118e-13
4.1213e-12 -1.30118e-13 492.831

511.306 9.27239 -8.67454e-13
9.27239 438.081 1.58673e-12
-8.67454e-13 1.58673e-12 492.469

501.731 -9.84784 -7.60281e-13
-9.84784 451.812 -1.00172e-12
-7.60281e-13 -1.00172e-12 483.09

510.928 32.1123 -5.1988e-13
32.1123 510.456 -2.28053e-12
-5.1988e-13 -2.28053e-12 514.119

509.704 -32.85 -2.80812e-12
-32.85 510.133 -1.08473e-12
-2.80812e-12 -1.08473e-12 513.758

481.878 16.0676 1.94037e-12
16.0676 539.191 1.45365e-12
1.94037e-12 1.45365e-12 514.391

483.071 -15.8003 -1.48341e-12
-15.8003 538.781 -1.46609e-12
-1.48341e-12 -1.46609e-12 514.412

556.922 -3.75083 5.88181e-12
-3.75083 506.889 9.79957e-13
5.88181e-12 9.79957e-13 525.051

558.475 3.61348 -1.34441e-12
3.61348 505.214 3.2078e-12
-1.34441e-12 3.2078e-12 525.423

387.369 9.83903 -6.52589e-13
9.83903 449.271 -7.20017e-13
-6.52589e-13 -7.20017e-13 397.15

472.459 -24.777 1.19371e-12
-24.777 480.827 -1.09364e-12
1.19371e-12 -1.09364e-12 485.046

443.541 -36.3852 -1.11688e-13
-36.3852 485.609 2.21408e-12
-1.11688e-13 2.21408e-12 486.7

473.72 -4.66494 3.8464e-12
-4.66494 420.504 4.01901e-13
3.8464e-12 4.01901e-13 436.407

540.314 -16.6915 6.21281e-13
-16.6915 484.258 -2.25834e-12
6.21281e-13 -2.25834e-12 515.351

541.034 16.1725 2.64796e-12
16.1725 485.481 1.45484e-12
2.64796e-12 1.45484e-12 515.956

506.937 0.121847 -1.28638e-13
0.121847 423.632 6.29161e-14
-1.28638e-13 6.29161e-14 487.074

384.852 23.3807 5.36312e-12
23.3807 432.368 4.1922e-13
5.36312e-12 4.1922e-13 385.538

442.413 36.1691 8.53169e-13
36.1691 485.288 7.38668e-14
8.53169e-13 7.38668e-14 485.906

452.671 -23.3967 2.38476e-13
-23.3967 495.028 5.71099e-13
2.38476e-13 5.71099e-13 483.662

443.321 23.3579 3.97075e-12
23.3579 397.581 2.56091e-12
3.97075e-12 2.56091e-12 400.437

531.028 23.8595 2.39098e-12
23.8595 488.069 2.07834e-12
2.39098e-12 2.07834e-12 507.31

428.548 -31.3204 -3.27442e-12
-31.3204 410.939 -4.08562e-14
-3.27442e-12 -4.08562e-14 398.881

519.927 -3.23291 1.85037e-14
-3.23291 469.126 -5.99224e-13
1.85037e-14 -5.99224e-13 502.752

439.477 -34.1591 -3.0842e-13
-34.1591 485.58 2.54404e-12
-3.0842e-13 2.54404e-12 485.895

389.244 8.32174 1.9485e-12
8.32174 452.402 -8.56204e-13
1.9485e-12 -8.56204e-13 400.919

385.939 21.8167 -7.20313e-13
21.8167 435.845 8.05282e-14
-7.20313e-13 8.05282e-14 388.756

383.907 35.7836 2.62901e-12
35.7836 362.387 1.7657e-12
2.62901e-12 1.7657e-12 318.378

408.249 1.57914 -8.47914e-13
1.57914 332.204 -1.85185e-13
-8.47914e-13 -1.85185e-13 327.376

485.524 -22.8058 -1.23279e-12
-22.8058 502.925 -3.30928e-12
-1.23279e-12 -3.30928e-12 501.815

351.931 31.1906 5.07328e-12
31.1906 388.892 -2.67638e-12
5.07328e-12 -2.67638e-12 312.406

451.421 23.6131 9.79957e-14
23.6131 478.488 -4.36332e-12
9.79957e-14 -4.36332e-12 465.283

442.27 -5.35074 -5.59552e-12
-5.35074 377.184 7.54952e-15
-5.59552e-12 7.54952e-15 387.799

464.23 11.2184 -2.88007e-12
11.2184 407.362 1.6979e-12
-2.88007e-12 1.6979e-12 424.988

505.453 0.429858 1.83883e-12
0.429858 421.652 -2.30217e-12
1.83883e-12 -2.30217e-12 485.746

449.425 -29.0292 -1.55786e-12
-29.0292 502.068 2.1562e-12
-1.55786e-12 2.1562e-12 493.657

572.54 -6.31704 5.63549e-12
-6.31704 589.519 7.23214e-12
5.63549e-12 7.23214e-12 549.299

463.214 37.4085 -1.668e-12
37.4085 487.099 1.9537e-12
-1.668e-12 1.9537e-12 493.133

408.803 1.66358 -6.90884e-12
1.66358 331.651 -1.75023e-12
-6.90884e-12 -1.75023e-12 308.953

404.298 -32.7946 -3.3585e-12
-32.7946 415.575 -3.27619e-12
-3.3585e-12 -3.27619e-12 387.451

443.219 36.6105 -4.30937e-12
36.6105 485.581 -1.6717e-12
-4.30937e-12 -1.6717e-12 486.643

444.743 -11.1349 -6.34215e-13
-11.1349 499.008 1.00483e-12
-6.34215e-13 1.00483e-12 471.508

386.133 -25.5206 -6.07514e-12
-25.5206 428.971 -6.26462e-13
-6.07514e-12 -6.26462e-13 384.625

449.525 28.8282 1.61415e-12
28.8282 501.702 2.52628e-12
1.61415e-12 2.52628e-12 493.357

452.782 -26.1474 -3.33304e-12
-26.1474 419.368 1.00423e-12
-3.33304e-12 1.00423e-12 419.582

579.587 10.4846 1.61234e-12
10.4846 582.193 -4.59099e-12
1.61234e-12 -4.59099e-12 549.084

398.391 30.8792 -5.004e-12
30.8792 422.126 2.81493e-12
-5.004e-12 2.81493e-12 388.224

515.776 8.12558 -4.7747e-12
8.12558 437.344 6.95592e-13
-4.7747e-12 6.95592e-13 494.65

493.872 30.1916 1.48089e-12
30.1916 484.817 -2.5242e-12
1.48089e-12 -2.5242e-12 493.867

453.536 23.3346 -1.3635e-12
23.3346 479.237 -1.88856e-12
-1.3635e-12 -1.88856e-12 475.868

510.761 -32.4848 4.15579e-12
-32.4848 512.514 -1.06911e-12
4.15579e-12 -1.06911e-12 515.067

510.373 -23.1934 3.97134e-12
-23.1934 473.244 -1.11585e-12
3.97134e-12 -1.11585e-12 489.741

511.451 10.4677 4.95159e-14
10.4677 558.043 3.8014e-13
4.95159e-14 3.8014e-13 523.787

452.243 -23.4366 2.26456e-12
-23.4366 480.24 -6.84726e-12
2.26456e-12 -6.84726e-12 469.02

394.472 -9.71016 3.91272e-12
-9.71016 316.459 9.16526e-13
3.91272e-12 9.16526e-13 295.621

387.351 -14.28 -2.02031e-12
-14.28 306.102 5.36993e-12
-2.02031e-12 5.36993e-12 290.095

547.635 16.5322 4.87373e-12
16.5322 507.818 2.96681e-12
4.87373e-12 2.96681e-12 519.377

436.556 22.5061 -4.27895e-12
22.5061 469.211 -4.60787e-12
-4.27895e-12 -4.60787e-12 447.892

476.032 29.1672 7.28306e-14
29.1672 467.712 -2.96059e-16
7.28306e-14 -2.96059e-16 471.545

450.375 0.688778 -5.94724e-12
0.688778 392.837 -5.45832e-13
-5.94724e-12 -5.45832e-13 395.737

478.408 6.56973 1.37201e-12
6.56973 541.337 -1.90662e-13
1.37201e-12 -1.90662e-13 507.599

507.402 16.5406 -2.7948e-12
16.5406 461.203 -1.72869e-12
-2.7948e-12 -1.72869e-12 488.147

390.037 -25.7672 -2.02801e-12
-25.7672 430.106 1.81188e-12
-2.02801e-12 1.81188e-12 387.795

456.38 -2.57137 -3.90861e-12
-2.57137 517.082 1.04213e-12
-3.90861e-12 1.04213e-12 484.905

400.652 13.3685 2.28795e-12
13.3685 453.059 -5.92119e-14
2.28795e-12 -5.92119e-14 404.699

486.982 -29.7166 -3.86062e-13
-29.7166 465.878 -1.31036e-12
-3.86062e-13 -1.31036e-12 474.323

430.367 -29.9541 -3.35199e-12
-29.9541 423.696 8.01729e-13
-3.35199e-12 8.01729e-13 405.018

399.773 31.6302 -3.47159e-12
31.6302 418.299 2.449e-12
-3.47159e-12 2.449e-12 386.063

624.018 -15.0184 2.64914e-12
-15.0184 581.977 2.47254e-12
2.64914e-12 2.47254e-12 557.946

494.578 2.04265 -5.78278e-13
2.04265 552.197 5.39124e-12
-5.78278e-13 5.39124e-12 517.982

483.565 20.2973 1.17965e-12
20.2973 542.097 -1.1946e-12
1.17965e-12 -1.1946e-12 516.09

544.76 15.4365 -1.46431e-12
15.4365 480.034 -4.49418e-13
-1.46431e-12 -4.49418e-13 515.812

473.817 -26.1918 6.89819e-14
-26.1918 479.826 -5.17808e-13
6.89819e-14 -5.17808e-13 483.084

452.199 17.9609 -6.22909e-13
17.9609 404.571 2.28647e-12
-6.22909e-13 2.28647e-12 406.981

531.622 -5.29168 4.30735e-12
-5.29168 580.84 -8.57684e-13
4.30735e-12 -8.57684e-13 537.167

512.256 -18.9875 3.47278e-13
-18.9875 464.86 -4.99689e-12
3.47278e-13 -4.99689e-12 493.093

474.05 -15.6012 4.45273e-13
-15.6012 423.241 2.7686e-12
4.45273e-13 2.7686e-12 438.946

402.062 11.6061 -1.58866e-12
11.6061 456.031 -6.762e-13
-1.58866e-12 -6.762e-13 407.843

410.988 -25.7402 6.76022e-12
-25.7402 435.652 1.22924e-12
6.76022e-12 1.22924e-12 399.019

532.104 -25.274 3.51926e-12
-25.274 523.243 4.69106e-13
3.51926e-12 4.69106e-13 519.175

423.123 31.9666 -6.62581e-13
31.9666 417.314 -1.84741e-13
-6.62581e-13 -1.84741e-13 400.367

535.539 -25.1334 -2.7273e-12
-25.1334 505.843 2.15561e-12
-2.7273e-12 2.15561e-12 515.718

453.569 2.59786 -1.48977e-12
2.59786 397.081 2.71583e-12
-1.48977e-12 2.71583e-12 401.961

311.144 -28.9367 -2.5467e-12
-28.9367 376.656 3.56929e-12
-2.5467e-12 3.56929e-12 290.04

431.944 -29.2374 -3.30521e-12
-29.2374 424.115 -2.33058e-12
-3.30521e-12 -2.33058e-12 406.217

353.814 32.1658 6.40199e-12
32.1658 392.606 -2.60532e-12
6.40199e-12 -2.60532e-12 313.017

470.406 -11.8756 -9.44134e-13
-11.8756 529.614 1.37845e-12
-9.44134e-13 1.37845e-12 500.365

391.51 -13.8245 2.36848e-12
-13.8245 449.326 6.44225e-13
2.36848e-12 6.44225e-13 400.261

602.88 -23.9826 8.52622e-12
-23.9826 602.288 6.3598e-12
8.52622e-12 6.3598e-12 557.887

408.436 23.7763 -1.97472e-12
23.7763 442.012 -1.98952e-13
-1.97472e-12 -1.98952e-13 402.285

496.642 -32.7265 -2.71309e-12
-32.7265 490.703 -1.5025e-12
-2.71309e-12 -1.5025e-12 497.51

388.249 -11.9658 3.74982e-12
-11.9658 448.358 -1.77517e-12
3.74982e-12 -1.77517e-12 397.078

516.778 -19.1163 -2.036e-12
-19.1163 465.819 -1.26802e-12
-2.036e-12 -1.26802e-12 496.308

410.751 23.8826 -1.27424e-12
23.8826 439.383 2.76164e-12
-1.27424e-12 2.76164e-12 400.762

488.996 -4.97597 -2.02505e-12
-4.97597 435.139 -1.49884e-12
-2.02505e-12 -1.49884e-12 460.451

305.824 -30.3476 -1.64491e-12
-30.3476 391.496 -1.13829e-11
-1.64491e-12 -1.13829e-11 262.61

438.678 21.0174 -5.39213e-12
21.0174 473.988 -2.39275e-12
-5.39213e-12 -2.39275e-12 458.418

445.761 -19.3274 -5.10407e-12
-19.3274 394.039 5.30775e-12
-5.10407e-12 5.30775e-12 399.687

551.655 -21.4454 1.62507e-12
-21.4454 499.574 1.52589e-12
1.62507e-12 1.52589e-12 520.161

424.539 31.761 7.04622e-12
31.761 413.389 2.58282e-12
7.04622e-12 2.58282e-12 398.023

459.235 -29.9769 1.36187e-14
-29.9769 437.706 -2.49045e-12
1.36187e-14 -2.49045e-12 439.367

510.69 20.8867 -5.39657e-12
20.8867 476.137 -3.05593e-12
-5.39657e-12 -3.05593e-12 492.822

461.579 -28.0766 -4.35652e-12
-28.0766 485.816 2.05517e-12
-4.35652e-12 2.05517e-12 488.789

413.788 -26.2312 4.1697e-12
-26.2312 436.318 2.90257e-12
4.1697e-12 2.90257e-12 401.505

426.146 28.9875 -4.9288e-12
28.9875 429.97 2.39334e-12
-4.9288e-12 2.39334e-12 406.928

452.576 26.1964 2.60651e-12
26.1964 418.295 -1.40539e-12
2.60651e-12 -1.40539e-12 419.126

522.036 -14.6127 -7.00477e-13
-14.6127 477.242 -6.29422e-13
-7.00477e-13 -6.29422e-13 500.13

403.627 -16.6216 -2.04518e-12
-16.6216 451.819 9.07126e-13
-2.04518e-12 9.07126e-13 406.51

496.123 -17.5694 2.96888e-12
-17.5694 447.677 2.55647e-13
2.96888e-12 2.55647e-13 471.572

487.841 16.9113 -2.52183e-12
16.9113 436.328 -8.70415e-14
-2.52183e-12 -8.70415e-14 460.659

513.395 -9.38386 -3.36671e-12
-9.38386 555.834 1.98952e-12
-3.36671e-12 1.98952e-12 523.088

454.056 -13.4326 -5.11354e-12
-13.4326 402.245 -1.52619e-13
-5.11354e-12 -1.52619e-13 406.811

403.267 0.594483 -4.1777e-12
0.594483 465.804 2.91441e-12
-4.1777e-12 2.91441e-12 417.873

475.105 18.5577 -4.86663e-12
18.5577 428.841 -2.93454e-12
-4.86663e-12 -2.93454e-12 442.291

451.218 27.6093 -8.78704e-13
27.6093 421.908 1.90366e-13
-8.78704e-13 1.90366e-13 420.912

400.935 -15.6899 -3.23119e-12
-15.6899 451.46 -9.11863e-13
-3.23119e-12 -9.11863e-13 403.803

406.067 -1.20223 8.95654e-13
-1.20223 468.113 9.31995e-13
8.95654e-13 9.31995e-13 421.289

516.264 29.135 -3.74278e-12
29.135 498.087 3.59179e-12
-3.74278e-12 3.59179e-12 504.94

441.775 -10.9238 1.24315e-12
-10.9238 500.734 -6.4837e-13
1.24315e-12 -6.4837e-13 471.219

451.515 -26.7208 3.26909e-12
-26.7208 418.835 -9.53312e-13
3.26909e-12 -9.53312e-13 419.422

444.463 21.3373 6.88634e-12
21.3373 395.363 8.69231e-13
6.88634e-12 8.69231e-13 398.267

497.67 23.667 -1.62833e-12
23.667 458.159 3.02099e-12
-1.62833e-12 3.02099e-12 476.621

447.752 5.47243 -1.6284e-12
5.47243 508.865 -2.53308e-12
-1.6284e-12 -2.53308e-12 476.952

427.722 29.072 4.8613e-12
29.072 426.507 1.98715e-12
4.8613e-12 1.98715e-12 405.178

536.88 22.9642 -2.48838e-12
22.9642 531.949 -7.62605e-12
-2.48838e-12 -7.62605e-12 522.844

314.798 -59.702 1.27898e-13
-59.702 282.81 3.54561e-12
1.27898e-13 3.54561e-12 223.459

480.669 -25.0521 1.15759e-12
-25.0521 445.142 -2.72197e-12
1.15759e-12 -2.72197e-12 456.717

336.717 7.07135 -6.574e-12
7.07135 409.225 1.02792e-12
-6.574e-12 1.02792e-12 319.494

460.613 -28.8945 1.41457e-12
-28.8945 444.81 1.86399e-12
1.41457e-12 1.86399e-12 443.524

96.4363 -52.7077 5.92119e-15
-52.7077 306.657 -5.59908e-12
5.92119e-15 -5.59908e-12 113.716

95.9702 51.4582 -8.27782e-13
51.4582 306.922 -3.71377e-12
-8.27782e-13 -3.71377e-12 114.505

181.54 117.169 -1.49214e-13
117.169 226.105 3.72324e-12
-1.49214e-13 3.72324e-12 113.605

182.838 -117.112 9.42653e-13
-117.112 223.34 2.25479e-12
9.42653e-13 2.25479e-12 113.579

321.624 -1.36359 -1.35477e-12
-1.36359 84.6644 5.09407e-14
-1.35477e-12 5.09407e-14 114.946

274.469 -91.1372 -2.6669e-12
-91.1372 127.435 5.42381e-13
-2.6669e-12 5.42381e-13 113.819

275.165 91.6651 -3.17849e-12
91.6651 128.268 -4.51195e-12
-3.17849e-12 -4.51195e-12 114.59

525.307 14.3326 -5.48006e-13
14.3326 474.778 -7.32451e-13
-5.48006e-13 -7.32451e-13 502.381

556.846 25.5345 -3.88993e-12
25.5345 541.229 -6.57977e-12
-3.88993e-12 -6.57977e-12 533.506

492.171 6.60729 2.64085e-12
6.60729 439.192 2.3482e-12
2.64085e-12 2.3482e-12 471.475

470.377 21.7887 -6.26225e-12
21.7887 424.585 -7.70051e-13
-6.26225e-12 -7.70051e-13 438.265

410.043 17.7482 1.01622e-12
17.7482 461.151 8.92915e-13
1.01622e-12 8.92915e-13 425.113

448.086 28.9044 -6.86266e-13
28.9044 424.776 -3.79252e-12
-6.86266e-13 -3.79252e-12 420.819

487.222 -29.6669 -5.64881e-13
-29.6669 465.699 7.73307e-13
-5.64881e-13 7.73307e-13 474.66

449.443 28.0337 -2.37144e-12
28.0337 421.141 1.87406e-12
-2.37144e-12 1.87406e-12 418.711

403.03 -2.84223 3.29781e-12
-2.84223 465.46 3.65219e-12
3.29781e-12 3.65219e-12 417.609

555.853 -26.0953 1.77073e-12
-26.0953 543.422 3.04438e-12
1.77073e-12 3.04438e-12 533.749

405.568 -4.86383 3.26864e-12
-4.86383 467.198 -4.73695e-14
3.26864e-12 -4.73695e-14 420.669

522.356 23.0187 -1.14693e-12
23.0187 499.807 -3.59446e-12
-1.14693e-12 -3.59446e-12 508.035

423.45 26.8768 -1.06463e-12
26.8768 386.571 3.76055e-12
-1.06463e-12 3.76055e-12 373.09

480.181 -13.2166 -1.6643e-12
-13.2166 532.832 -1.47674e-12
-1.6643e-12 -1.47674e-12 512.067

484.276 13.7302 2.47506e-13
13.7302 432.846 -2.49312e-12
2.47506e-13 -2.49312e-12 456.946

457.444 -29.9929 1.97412e-12
-29.9929 437.048 1.40125e-12
1.97412e-12 1.40125e-12 437.904

454.386 -24.7182 2.91204e-12
-24.7182 416.873 -6.71581e-12
2.91204e-12 -6.71581e-12 419.922

547.46 -16.0776 1.25144e-12
-16.0776 509.364 5.16565e-12
1.25144e-12 5.16565e-12 519.445

476.048 27.933 8.78112e-13
27.933 449.776 -1.28875e-12
8.78112e-13 -1.28875e-12 456.996

469.178 23.982 2.81197e-12
23.982 427.919 -2.85461e-12
2.81197e-12 -2.85461e-12 439.901

432.497 -2.79267 1.91114e-12
-2.79267 493.715 -3.39403e-12
1.91114e-12 -3.39403e-12 457.178

417.674 5.87406 -2.84004e-12
5.87406 479.636 2.62249e-12
-2.84004e-12 2.62249e-12 440.248

463.091 2.64725 1.4347e-12
2.64725 402.346 1.56064e-12
1.4347e-12 1.56064e-12 422.391

438.724 -7.29136 1.78938e-12
-7.29136 373.976 5.28777e-12
1.78938e-12 5.28777e-12 381.282

454.918 30.4902 -5.03538e-12
30.4902 439.086 -5.79507e-12
-5.03538e-12 -5.79507e-12 437.907

478.541 -26.1599 -1.23161e-13
-26.1599 443.614 7.99361e-13
-1.23161e-13 7.99361e-13 454.717

525.767 -21.2551 1.16233e-12
-21.2551 497.891 7.00181e-13
1.16233e-12 7.00181e-13 508.684

437.806 -31.64 2.21452e-13
-31.64 437.728 -2.15531e-13
2.21452e-13 -2.15531e-13 426.929

417.66 -27.7917 6.20185e-12
-27.7917 444.472 1.71241e-12
6.20185e-12 1.71241e-12 419.758

430.719 29.8935 6.7916e-13
29.8935 442.819 4.90334e-12
6.7916e-13 4.90334e-12 426.568

416.293 -9.57966 3.5331e-12
-9.57966 475.291 2.88362e-13
3.5331e-12 2.88362e-13 436.526

428.964 -1.5458 3.02743e-12
-1.5458 491.947 -1.4347e-12
3.02743e-12 -1.4347e-12 454.066

445.249 5.74756 9.92465e-13
5.74756 508.118 -1.32635e-12
9.92465e-13 -1.32635e-12 474.984

414.688 -21.0937 1.06907e-12
-21.0937 458.486 -1.73787e-12
1.06907e-12 -1.73787e-12 426.136

496.942 24.1147 -4.23365e-13
24.1147 455.766 -2.0437e-12
-4.23365e-13 -2.0437e-12 474.663

483.453 -9.59141 2.23821e-13
-9.59141 430.182 1.03769e-12
2.23821e-13 1.03769e-12 455.293

415.701 7.46642 -2.03981e-12
7.46642 477.2 1.33286e-12
-2.03981e-12 1.33286e-12 436.984

444.023 -9.70168 7.0427e-13
-9.70168 501.58 7.22385e-14
7.0427e-13 7.22385e-14 471.078

433.244 -16.3335 -1.74971e-13
-16.3335 481.755 -2.21808e-12
-1.74971e-13 -2.21808e-12 455.74

463.619 -8.24083 1.86754e-12
-8.24083 406.402 2.06709e-12
1.86754e-12 2.06709e-12 421.541

494.504 -32.3468 -2.13429e-12
-32.3468 487.688 -2.65713e-12
-2.13429e-12 -2.65713e-12 496.32

423.014 9.32329 1.85318e-12
9.32329 479.171 2.09847e-12
1.85318e-12 2.09847e-12 441.051

564.405 -18.2135 -1.60849e-12
-18.2135 530.003 2.07597e-12
-1.60849e-12 2.07597e-12 531.888

309.096 24.8282 -4.51017e-12
24.8282 379.486 -3.2235e-12
-4.51017e-12 -3.2235e-12 289.846

501.767 -26.6281 -1.87998e-12
-26.6281 499.555 -1.93268e-12
-1.87998e-12 -1.93268e-12 501.267

515.715 -30.2032 -1.5105e-12
-30.2032 498.465 3.80407e-12
-1.5105e-12 3.80407e-12 504.984

429.291 -0.700656 -2.15746e-12
-0.700656 492.072 -1.67274e-12
-2.15746e-12 -1.67274e-12 454.216

474.962 -16.6251 3.16132e-12
-16.6251 428.408 -1.27542e-12
3.16132e-12 -1.27542e-12 442.028

462.373 12.8422 2.11781e-12
12.8422 511.349 8.36072e-13
2.11781e-12 8.36072e-13 489.191

240.81 -3.18177 -8.88319e-12
-3.18177 360.744 -8.98837e-12
-8.88319e-12 -8.98837e-12 227.002

432.474 14.2759 1.35092e-12
14.2759 485.435 -4.09154e-13
1.35092e-12 -4.09154e-13 456.954

458.187 -29.4948 -1.44595e-12
-29.4948 443.245 -2.61539e-12
-1.44595e-12 -2.61539e-12 440.834

304.232 25.11 -2.71368e-12
25.11 394.646 -1.55609e-12
-2.71368e-12 -1.55609e-12 264.384

603.578 26.0925 8.21713e-13
26.0925 597.982 -8.15466e-12
8.21713e-13 -8.15466e-12 558.203

608.31 -27.8012 3.92397e-12
-27.8012 595.057 9.28354e-12
3.92397e-12 9.28354e-12 558.337

463.568 -30.4238 1.18897e-12
-30.4238 459.112 -3.9897e-12
1.18897e-12 -3.9897e-12 459.145

434.658 -31.1668 -3.53732e-12
-31.1668 436.434 -1.61471e-12
-3.53732e-12 -1.61471e-12 424.733

474.181 20.8307 3.60364e-12
20.8307 431.986 1.97116e-12
3.60364e-12 1.97116e-12 444.045

465.302 15.0092 9.51535e-13
15.0092 410.185 1.73817e-12
9.51535e-13 1.73817e-12 427.534

646.079 3.07998 -3.2722e-13
3.07998 645.736 1.1995e-11
-3.2722e-13 1.1995e-11 574.659

649.899 -6.99488 1.0341e-11
-6.99488 641.408 1.4026e-11
1.0341e-11 1.4026e-11 575.187

497.069 4.82409 3.9968e-13
4.82409 442.11 2.30941e-12
3.9968e-13 2.30941e-12 477.487

443.628 6.7328 3.89222e-12
6.7328 503.066 1.26713e-13
3.89222e-12 1.26713e-13 471.122

442.04 6.73651 -3.50556e-12
6.73651 502.591 -7.4607e-14
-3.50556e-12 -7.4607e-14 469.845

321.584 58.6453 -2.6598e-12
58.6453 281.165 7.88702e-13
-2.6598e-12 7.88702e-13 225.113

420.299 -28.2061 3.68061e-12
-28.2061 444.1 1.8859e-12
3.68061e-12 1.8859e-12 421.102

520.65 17.9738 -3.48758e-13
17.9738 467.602 -1.08358e-12
-3.48758e-13 -1.08358e-12 499.58

473.062 9.54118 -1.03384e-12
9.54118 421.268 1.58229e-12
-1.03384e-12 1.58229e-12 436.275

440.705 -26.7288 1.37372e-12
-26.7288 450.804 1.80063e-12
1.37372e-12 1.80063e-12 433.488

469.355 -20.2416 3.12047e-12
-20.2416 422.786 -7.24161e-12
3.12047e-12 -7.24161e-12 437.248

312.521 60.2432 -7.27596e-12
60.2432 281.413 -6.30725e-12
-7.27596e-12 -6.30725e-12 223.251

492.752 31.0707 1.80034e-12
31.0707 489.11 -7.02638e-12
1.80034e-12 -7.02638e-12 493.207

410.932 -19.7905 -3.41031e-12
-19.7905 457.961 -3.1027e-12
-3.41031e-12 -3.1027e-12 423.569

474.204 28.8623 6.22317e-13
28.8623 449.704 1.46727e-12
6.22317e-13 1.46727e-12 456.59

431.026 -4.14621 3.78867e-12
-4.14621 493.052 -2.76579e-12
3.78867e-12 -2.76579e-12 456.54

424.002 19.6134 8.80777e-13
19.6134 465.791 5.1011e-12
8.80777e-13 5.1011e-12 434.18

452.823 30.5247 -1.24996e-12
30.5247 443.672 2.32821e-12
-1.24996e-12 2.32821e-12 439.68

428.716 -22.4781 4.14128e-12
-22.4781 461.216 -3.64212e-12
4.14128e-12 -3.64212e-12 433.885

443.649 -27.358 -6.7241e-12
-27.358 450.51 -2.3892e-12
-6.7241e-12 -2.3892e-12 435.118

294.823 11.2591 8.36353e-12
11.2591 372.645 6.26936e-12
8.36353e-12 6.26936e-12 258.144

357.356 -33.4637 1.4803e-13
-33.4637 389.182 2.6669e-12
1.4803e-13 2.6669e-12 314.182

419.727 -11.6927 2.85993e-12
-11.6927 476.441 5.79684e-13
2.85993e-12 5.79684e-13 439.417

478.473 26.4892 -1.5549e-12
26.4892 446.871 -8.46849e-12
-1.5549e-12 -8.46849e-12 456.155

452.42 29.4833 -2.22578e-12
29.4833 449.102 1.34589e-12
-2.22578e-12 1.34589e-12 442.472

426.881 -21.4386 1.40391e-12
-21.4386 461.864 -1.75504e-12
1.40391e-12 -1.75504e-12 432.702

423.002 -11.7852 -3.06185e-12
-11.7852 476.728 1.83202e-12
-3.06185e-12 1.83202e-12 440.001

457.782 28.4149 -6.20363e-12
28.4149 447.162 -2.11209e-12
-6.20363e-12 -2.11209e-12 442.643

425.176 -13.8809 8.26894e-13
-13.8809 476.499 -1.17003e-12
8.26894e-13 -1.17003e-12 442.177

311.313 27.8615 -2.62309e-13
27.8615 377.454 -5.3646e-12
-2.62309e-13 -5.3646e-12 290.033

485.231 -4.03982 -5.90382e-12
-4.03982 545.112 -7.43701e-13
-5.90382e-12 -7.43701e-13 511.101

433.058 31.0342 1.13983e-12
31.0342 439.703 -3.31705e-12
1.13983e-12 -3.31705e-12 426.09

509.383 14.9035 -2.64026e-12
14.9035 463.231 1.56379e-12
-2.64026e-12 1.56379e-12 488.676

516.991 -15.93 2.8475e-12
-15.93 467.65 -4.74198e-12
2.8475e-12 -4.74198e-12 493.992

383.99 -24.2098 -1.75741e-12
-24.2098 305.995 2.90375e-12
-1.75741e-12 2.90375e-12 285.402

442.353 -21.2705 -3.98022e-12
-21.2705 476.079 -3.70963e-12
-3.98022e-12 -3.70963e-12 459.395

447.903 26.7026 -2.6444e-12
26.7026 466.285 -4.83761e-13
-2.6444e-12 -4.83761e-13 457.915

523.035 -21.7273 1.96287e-13
-21.7273 543.863 5.41271e-13
1.96287e-13 5.41271e-13 525.37

579.614 14.1017 -2.69029e-12
14.1017 617.645 -2.50022e-12
-2.69029e-12 -2.50022e-12 557.099

620.229 9.4451 -9.6767e-13
9.4451 576.874 -5.15084e-12
-9.6767e-13 -5.15084e-12 556.918

523.531 32.7034 -8.3548e-13
32.7034 520.708 -3.32771e-12
-8.3548e-13 -3.32771e-12 519.586

414.961 26.0063 -1.63099e-12
26.0063 448.983 1.51938e-12
-1.63099e-12 1.51938e-12 420.447

478.172 26.6651 -3.02336e-12
26.6651 444.84 9.66338e-13
-3.02336e-12 9.66338e-13 455.579

332.416 45.1959 -6.59621e-13
45.1959 349.547 2.64322e-12
-6.59621e-13 2.64322e-12 286.788

571.424 -11.3397 5.21686e-12
-11.3397 614.497 3.00204e-13
5.21686e-12 3.00204e-13 554.643

641.335 -3.43069 -9.51369e-14
-3.43069 636.885 -3.07606e-12
-9.51369e-14 -3.07606e-12 572.437

634.92 -0.208074 2.68452e-12
-0.208074 643.186 3.09604e-13
2.68452e-12 3.09604e-13 572.263

273.003 -53.8124 1.00305e-12
-53.8124 316.496 -1.84031e-12
1.00305e-12 -1.84031e-12 220.945

566.686 -11.5982 -1.28727e-12
-11.5982 562.166 -6.18468e-12
-1.28727e-12 -6.18468e-12 540.953

563.808 8.81035 -1.848e-12
8.81035 587.001 -2.62664e-12
-1.848e-12 -2.62664e-12 546.891

478.321 -26.203 -6.96924e-13
-26.203 440.512 2.44456e-12
-6.96924e-13 2.44456e-12 453.553

494.408 1.00935 -1.6697e-12
1.00935 545.822 -1.35832e-12
-1.6697e-12 -1.35832e-12 514.12

447.725 -20.271 -2.3926e-12
-20.271 484.237 -5.42973e-12
-2.3926e-12 -5.42973e-12 470.711

506.379 6.25571 -2.9224e-12
6.25571 443.451 1.87665e-12
-2.9224e-12 1.87665e-12 486.198

461.346 15.5962 -4.15693e-12
15.5962 521.323 -4.2825e-12
-4.15693e-12 -4.2825e-12 497.626

471.245 7.19066 -1.65042e-12
7.19066 528.075 -1.79412e-12
-1.65042e-12 -1.79412e-12 497.757

493.838 20.3963 5.58072e-12
20.3963 451.587 9.19561e-13
5.58072e-12 9.19561e-13 469.821

241.1 -3.11392 2.64292e-12
-3.11392 358.616 -7.4607e-13
2.64292e-12 -7.4607e-13 227.1

463.776 -27.6284 6.77384e-13
-27.6284 463.468 2.6823e-12
6.77384e-13 2.6823e-12 461.264

488.417 -26.12 4.47642e-13
-26.12 481.669 -5.62513e-12
4.47642e-13 -5.62513e-12 485.939

497.608 -31.4836 -3.82302e-12
-31.4836 490.03 2.73367e-12
-3.82302e-12 2.73367e-12 499.05

355.656 32.7561 -1.12266e-12
32.7561 285.821 -8.02232e-12
-1.12266e-12 -8.02232e-12 248.407

563.926 -20.1148 4.23572e-12
-20.1148 569.651 -2.34561e-12
4.23572e-12 -2.34561e-12 542.624

337.699 54.3315 -3.33955e-12
54.3315 356.712 8.88178e-12
-3.33955e-12 8.88178e-12 258.917

477.141 -21.4382 2.86112e-12
-21.4382 506.563 1.92468e-12
2.86112e-12 1.92468e-12 500.314

504.85 14.6509 4.67833e-12
14.6509 452.059 -3.02292e-12
4.67833e-12 -3.02292e-12 481.632

449.909 -14.5755 -1.32398e-12
-14.5755 397.052 2.73367e-12
-1.32398e-12 2.73367e-12 400.907

452.67 24.0496 5.74947e-13
24.0496 478.859 -3.87246e-13
5.74947e-13 -3.87246e-13 467.922

493.743 20.4299 3.91805e-12
20.4299 449.572 3.49528e-12
3.91805e-12 3.49528e-12 469.414

505.621 11.3981 8.89289e-13
11.3981 564.467 5.38088e-12
8.89289e-13 5.38088e-12 526.77

475.97 -31.5832 6.91299e-13
-31.5832 470.431 8.05578e-13
6.91299e-13 8.05578e-13 475.136

559.32 19.812 -5.87234e-12
19.812 510.496 7.65935e-12
-5.87234e-12 7.65935e-12 526.546

440.032 -18.4465 -2.70894e-13
-18.4465 482.545 -4.40596e-12
-2.70894e-13 -4.40596e-12 459.223

465.965 4.28457 2.57208e-12
4.28457 526.178 -9.82325e-13
2.57208e-12 -9.82325e-13 495.578

588.676 9.92847 2.81108e-12
9.92847 552.504 -5.55467e-12
2.81108e-12 -5.55467e-12 545.24

590.458 -8.5154 5.01791e-12
-8.5154 554.846 4.23498e-12
5.01791e-12 4.23498e-12 545.757

382.373 18.5161 -4.53089e-12
18.5161 302.333 -5.86494e-12
-4.53089e-12 -5.86494e-12 286.182

502.755 7.96635 -6.62285e-13
7.96635 453.672 -1.0895e-12
-6.62285e-13 -1.0895e-12 487.837

232.846 7.74234 4.45347e-12
7.74234 381.566 8.05282e-14
4.45347e-12 8.05282e-14 187.215

237.016 -11.3873 -9.7472e-12
-11.3873 387.26 2.29742e-12
-9.7472e-12 2.29742e-12 189.479

249.319 56.4137 1.81188e-12
56.4137 354.824 -3.83693e-13
1.81188e-12 -3.83693e-13 184.051

505.084 -28.9528 -2.7723e-12
-28.9528 478.685 -4.35622e-12
-2.7723e-12 -4.35622e-12 491.412

258.509 -49.1994 -3.51127e-12
-49.1994 341.892 -7.98413e-12
-3.51127e-12 -7.98413e-12 220.769

249.325 -55.9562 -6.25278e-12
-55.9562 344.797 4.59484e-12
-6.25278e-12 4.59484e-12 181.143

434.727 26.2255 -7.44294e-13
26.2255 454.47 -1.60938e-12
-7.44294e-13 -1.60938e-12 432.896

329.968 73.8529 2.79006e-12
73.8529 280.046 6.3262e-12
2.79006e-12 6.3262e-12 184.855

540.175 13.0455 -8.68342e-13
13.0455 555.001 1.47171e-12
-8.68342e-13 1.47171e-12 532.135

562.435 0.0433448 4.28102e-13
0.0433448 532.505 9.21041e-13
4.28102e-13 9.21041e-13 531.927

338.647 -73.1381 3.68061e-12
-73.1381 279.893 1.78583e-12
3.68061e-12 1.78583e-12 186.338

432.741 -23.4284 -1.8329e-12
-23.4284 466.388 1.44477e-13
-1.8329e-12 1.44477e-13 447.644

358.988 34.7358 -1.79057e-12
34.7358 311.022 3.50534e-12
-1.79057e-12 3.50534e-12 258.08

267.74 63.4991 3.24955e-12
63.4991 345.255 -8.52651e-13
3.24955e-12 -8.52651e-13 185.873

293.737 21.6344 2.83743e-12
21.6344 367.719 4.15194e-12
2.83743e-12 4.15194e-12 254.539

267.612 -65.9282 -7.16227e-12
-65.9282 344.89 1.04213e-12
-7.16227e-12 1.04213e-12 184.329

291.683 -12.3833 -1.82965e-12
-12.3833 370.941 3.34666e-12
-1.82965e-12 3.34666e-12 253.484

550.349 6.8379 1.758e-12
6.8379 582.121 -9.27554e-13
1.758e-12 -9.27554e-13 541.17

329.941 -45.9842 9.03573e-13
-45.9842 341.87 4.5155e-12
9.03573e-13 4.5155e-12 276.66

259.819 47.5406 5.58368e-12
47.5406 340.268 3.9222e-12
5.58368e-12 3.9222e-12 223.181

370.264 37.9167 -8.81073e-13
37.9167 244.952 9.48575e-13
-8.81073e-13 9.48575e-13 187.385

481.964 -29.2898 -6.47304e-12
-29.2898 460.584 8.58869e-13
-6.47304e-12 8.58869e-13 467.785

481.04 12.8959 2.62242e-12
12.8959 525.898 -1.16351e-12
2.62242e-12 -1.16351e-12 504.17

354.474 -38.1197 -3.43192e-12
-38.1197 300.122 -3.41061e-12
-3.43192e-12 -3.41061e-12 251.856

482.608 -28.8058 -1.36365e-12
-28.8058 460.391 3.82035e-12
-1.36365e-12 3.82035e-12 468.533

365.311 -36.3485 3.31587e-14
-36.3485 231.019 -3.3881e-12
3.31587e-14 -3.3881e-12 182.797

481.576 -28.3211 -8.47914e-13
-28.3211 472.826 -3.88489e-12
-8.47914e-13 -3.88489e-12 477.989

436.425 -25.2997 2.32703e-13
-25.2997 466.302 5.0413e-12
2.32703e-13 5.0413e-12 448.282

314.839 69.4692 2.74743e-12
69.4692 292.181 3.60956e-12
2.74743e-12 3.60956e-12 184.551

290.825 -22.9372 -2.28676e-12
-22.9372 359.221 1.75267e-13
-2.28676e-12 1.75267e-13 247.069

312.44 -71.7015 -1.73846e-12
-71.7015 288.16 9.121e-12
-1.73846e-12 9.121e-12 182.054

268.585 50.7462 -3.59771e-12
50.7462 320.108 -5.42144e-12
-3.59771e-12 -5.42144e-12 221.54

459.935 -30.2171 5.52447e-13
-30.2171 454.918 -3.00204e-13
5.52447e-13 -3.00204e-13 454.471

559.337 -14.6415 1.67155e-12
-14.6415 544.458 2.32407e-12
1.67155e-12 2.32407e-12 533.773

635.932 11.089 3.43444e-12
11.089 631.401 4.35059e-12
3.43444e-12 4.35059e-12 570.06

619.977 -5.16067 2.27063e-12
-5.16067 639.749 -2.35354e-12
2.27063e-12 -2.35354e-12 568.539

453.938 13.0842 3.76693e-12
13.0842 506.629 1.49806e-13
3.76693e-12 1.49806e-13 482.642

634.162 -10.6633 3.26413e-12
-10.6633 631.331 -1.9836e-14
3.26413e-12 -1.9836e-14 569.915

622.714 4.09277 -2.53353e-12
4.09277 642.693 -6.14553e-12
-2.53353e-12 -6.14553e-12 569.739

643.387 7.42926 5.18208e-12
7.42926 619.165 1.41694e-12
5.18208e-12 1.41694e-12 569.063

584.804 -12.1106 -6.47634e-12
-12.1106 631.685 5.45712e-12
-6.47634e-12 5.45712e-12 560.637

307.491 -30.4767 8.73968e-13
-30.4767 371.694 -3.47692e-12
8.73968e-13 -3.47692e-12 280.816

589.661 -12.9721 6.63617e-12
-12.9721 549.156 2.22104e-12
6.63617e-12 2.22104e-12 543.878

527.265 -34.4149 2.87178e-13
-34.4149 521.542 -2.12793e-12
2.87178e-13 -2.12793e-12 520.026

565.509 -18.1781 -1.59428e-12
-18.1781 538.04 -7.01335e-12
-1.59428e-12 -7.01335e-12 534.314

502.644 15.4616 -2.00255e-12
15.4616 452.185 2.54374e-12
-2.00255e-12 2.54374e-12 480.277

586.376 9.86105 2.41773e-12
9.86105 642.148 -1.22687e-12
2.41773e-12 -1.22687e-12 563.146

636.671 19.2232 4.2526e-12
19.2232 591.749 4.34504e-12
4.2526e-12 4.34504e-12 562.968

569.82 11.3098 -1.60405e-12
11.3098 544.387 -1.39814e-12
-1.60405e-12 -1.39814e-12 536.491

353.497 -15.3428 -8.76336e-13
-15.3428 231.548 -1.68221e-12
-8.76336e-13 -1.68221e-12 219.049

437.279 24.969 -2.63523e-12
24.969 461.99 -7.50215e-13
-2.63523e-12 -7.50215e-13 445.794

317.137 -61.3655 5.04249e-12
-61.3655 277.89 -7.74492e-13
5.04249e-12 -7.74492e-13 218.123

334.258 -57.4665 7.13859e-12
-57.4665 357.376 -5.65355e-12
7.13859e-12 -5.65355e-12 252.58

383.392 -36.5504 -3.56456e-12
-36.5504 305.784 3.61903e-12
-3.56456e-12 3.61903e-12 257.801

562.535 -5.15846 -8.99429e-13
-5.15846 616.975 -5.75836e-13
-8.99429e-13 -5.75836e-13 552.998

562.242 2.8915 2.91915e-12
2.8915 615.841 7.45981e-12
2.91915e-12 7.45981e-12 552.597

598.798 -24.45 2.98724e-12
-24.45 575.779 -1.2527e-12
2.98724e-12 -1.2527e-12 551.627

602.358 -21.7537 -5.67276e-12
-21.7537 573.468 -3.69926e-12
-5.67276e-12 -3.69926e-12 551.893

598.811 26.129 -1.6532e-12
26.129 580.492 4.16704e-14
-1.6532e-12 4.16704e-14 552.782

625.76 3.09501 -1.01578e-12
3.09501 630.749 1.95658e-13
-1.01578e-12 1.95658e-13 568.462

599.088 -20.504 -2.96533e-12
-20.504 576.39 -3.64198e-12
-2.96533e-12 -3.64198e-12 552.315

607.835 -18.5645 7.08692e-12
-18.5645 620.279 8.52355e-12
7.08692e-12 8.52355e-12 563.229

632.916 2.43123 9.19398e-12
2.43123 635.537 4.26696e-12
9.19398e-12 4.26696e-12 570.546

607.913 -20.5204 4.28776e-12
-20.5204 572.462 2.42946e-12
4.28776e-12 2.42946e-12 553.454

607.098 20.9498 -4.40773e-12
20.9498 573.72 1.60257e-12
-4.40773e-12 1.60257e-12 553.857

633.867 -3.45501 -3.72162e-12
-3.45501 636.788 3.54087e-13
-3.72162e-12 3.54087e-13 571.32

632.197 -3.11225 2.36158e-11
-3.11225 625.773 -1.65863e-11
2.36158e-11 -1.65863e-11 569.436

609.706 12.1089 1.25189e-12
12.1089 620.501 1.16564e-11
1.25189e-12 1.16564e-11 563.96

587.235 26.9241 9.4739e-15
26.9241 583.049 5.87643e-12
9.4739e-15 5.87643e-12 551.75

FIELD solute_concentration_TPM 2
S_ext 1 563 float
0.71064
0.710516
0.710526
0.710516
0.710511
0.710527
0.71064
0.710522
0.710536
0.710519
0.710612
0.710523
0.710524
0.710518
0.710512
0.710525
0.710515
0.710521
0.710538
0.710528
0.710532
0.710501
0.71053
0.710528
0.710528
0.710519
0.710605
0.710526
0.710569
0.710506
0.710524
0.710568
0.710609
0.710507
0.710506
0.710507
0.710504
0.710507
0.710525
0.710609
0.710569
0.710503
0.710503
0.710524
0.710591
0.710568
0.710537
0.710534
0.710527
0.710574
0.710571
0.710559
0.710509
0.710559
0.71051
0.710595
0.710506
0.710559
0.710506
0.710527
0.710515
0.710513
0.710603
0.710514
0.710513
0.710519
0.710515
0.71052
0.710529
0.710517
0.71051
0.710509
0.710569
0.710517
0.710526
0.710611
0.710512
0.710518
0.71052
0.710554
0.710581
0.710509
0.710514
0.710582
0.710568
0.710593
0.710526
0.710519
0.710591
0.710506
0.710559
0.710507
0.710512
0.71052
0.710558
0.710571
0.710582
0.710518
0.710512
0.710525
0.710547
0.710566
0.710582
0.710519
0.71052
0.710518
0.710514
0.710526
0.710582
0.710514
0.710527
0.710589
0.710585
0.71052
0.710518
0.710559
0.710509
0.710583
0.710509
0.710559
0.710541
0.710511
0.710516
0.710516
0.710515
0.710511
0.710509
0.710518
0.710582
0.710558
0.710509
0.710516
0.710514
0.710516
0.710566
0.710507
0.710589
0.710524
0.710514
0.710506
0.710564
0.710522
0.710541
0.710519
0.710584
0.710519
0.710523
0.710529
0.710527
0.710549
0.710535
0.710516
0.710568
0.710524
0.710518
0.710516
0.710518
0.710564
0.710563
0.710522
0.710534
0.710567
0.71059
0.71057
0.710563
0.710518
0.710564
0.710564
0.710568
0.710563
0.710512
0.710559
0.710571
0.710517
0.710558
0.710514
0.710511
0.710524
0.71051
0.710521
0.710569
0.710518
0.710518
0.710564
0.710518
0.710572
0.710515
0.710515
0.710513
0.710518
0.710518
0.71058
0.710558
0.710568
0.710516
0.71052
0.71052
0.710513
0.710516
0.710519
0.710516
0.710538
0.710553
0.710514
0.710569
0.710513
0.71052
0.710566
0.710514
0.710516
0.710515
0.71052
0.710519
0.710514
0.710548
0.71052
0.710553
0.710515
0.710515
0.710515
0.710514
0.710514
0.710514
0.710514
0.71052
0.710511
0.710511
0.710511
0.710511
0.710512
0.710511
0.710549
0.710519
0.710516
0.710535
0.710513
0.710512
0.710516
0.710553
0.710515
0.710518
0.710548
0.710513
0.710549
0.710515
0.710515
0.710548
0.710552
0.710581
0.710576
0.710513
0.710585
0.710524
0.710553
0.710538
0.710515
0.710514
0.710505
0.710514
0.710588
0.710552
0.710515
0.710523
0.710553
0.710514
0.710541
0.710505
0.710552
0.710515
0.710517
0.71052
0.710512
0.710519
0.71051
0.710523
0.71059
0.710593
0.710513
0.71053
0.710523
0.71055
0.710514
0.710518
0.710552
0.710519
0.710546
0.710523
0.710547
0.710553
0.710504
0.710511
0.71051
0.71051
0.710518
0.710546
0.710507
0.710516
0.710534
0.710546
0.710549
0.710511
0.710548
0.710514
0.710548
0.710591
0.710546
0.710584
0.710515
0.710548
0.710504
0.710548
0.710517
0.710549
0.710517
0.710548
0.710527
0.710607
0.710526
0.710548
0.71051
0.710549
0.710534
0.710518
0.710515
0.710548
0.710546
0.710541
0.710517
0.710546
0.710524
0.710526
0.710511
0.710546
0.710541
0.710533
0.710541
0.710547
0.71054
0.710515
0.710523
0.710541
0.710549
0.710522
0.710522
0.710546
0.71051
0.710617
0.710529
0.710581
0.710533
0.710659
0.710659
0.710658
0.710658
0.710656
0.710662
0.710663
0.710515
0.71051
0.710522
0.710534
0.710538
0.710541
0.710523
0.710541
0.710541
0.71051
0.710541
0.710515
0.710559
0.710511
0.710528
0.710534
0.710541
0.710513
0.710528
0.710533
0.710528
0.710533
0.710539
0.710555
0.710534
0.710529
0.710513
0.710538
0.71054
0.710538
0.710534
0.710529
0.710522
0.710538
0.710522
0.710528
0.710534
0.710523
0.710527
0.71054
0.710515
0.710533
0.710508
0.710591
0.710515
0.710516
0.710529
0.710533
0.710518
0.710617
0.710527
0.710533
0.710606
0.710506
0.710507
0.710527
0.710538
0.710532
0.710538
0.710506
0.710504
0.710521
0.710523
0.710524
0.71062
0.71054
0.710516
0.710535
0.710536
0.710534
0.710617
0.710517
0.710539
0.710528
0.710528
0.710535
0.710533
0.710536
0.710536
0.710607
0.710584
0.710534
0.710529
0.710533
0.710536
0.710533
0.710533
0.710533
0.710592
0.710513
0.710538
0.710518
0.710517
0.710593
0.710526
0.710526
0.710512
0.710502
0.710502
0.710512
0.71054
0.710529
0.710593
0.710503
0.710501
0.710501
0.710618
0.710507
0.710505
0.710529
0.710512
0.710522
0.710518
0.710515
0.710516
0.710524
0.710616
0.710526
0.71052
0.710516
0.710612
0.710506
0.710611
0.710514
0.71052
0.710548
0.710523
0.710524
0.710509
0.710521
0.710509
0.710526
0.710516
0.710508
0.710508
0.710595
0.710518
0.710642
0.710642
0.710642
0.710517
0.710621
0.710643
0.710536
0.710641
0.710509
0.710508
0.710642
0.71053
0.710609
0.710645
0.710609
0.710645
0.710609
0.710507
0.710598
0.71062
0.71064
0.710524
0.710514
0.710611
0.710524
0.710641
0.710521
0.71053
0.710645
0.710612
0.710645
0.710617
0.710528
0.710508
0.7105
0.710501
0.710519
0.710501
0.7105
0.710501
0.710503
0.710596
0.710506
0.710512
0.71051
0.710521
0.710504
0.710503
0.71051
0.710618
0.710531
0.710623
0.710614
0.710608
0.710502
0.710502
0.710503
0.710503
0.710502
0.710504
0.710506
0.710506
0.710505
0.710505
0.710505
0.710504
0.710502
0.710504
0.710505
P_ext 1 563 float
0.00849594
0.00849381
0.00849412
0.00849384
0.00849305
0.00849411
0.00849594
0.00849397
0.00849434
0.00849384
0.00849558
0.00849396
0.00849402
0.00849383
0.00849325
0.00849411
0.00849367
0.00849395
0.00849441
0.00849418
0.00849424
0.00849165
0.00849418
0.00849416
0.00849418
0.0084939
0.00849548
0.00849406
0.00849497
0.00849238
0.00849406
0.00849495
0.00849553
0.00849263
0.00849262
0.00849264
0.00849233
0.00849268
0.00849404
0.00849553
0.00849495
0.00849232
0.00849233
0.00849405
0.00849529
0.00849496
0.00849438
0.00849432
0.0084941
0.00849506
0.00849499
0.00849479
0.00849303
0.00849481
0.00849307
0.00849535
0.00849261
0.0084948
0.00849262
0.00849414
0.00849366
0.00849347
0.00849545
0.00849351
0.00849346
0.00849372
0.00849364
0.00849391
0.00849419
0.00849376
0.00849304
0.00849305
0.00849498
0.00849363
0.00849414
0.00849557
0.0084933
0.00849373
0.00849389
0.0084947
0.00849514
0.00849296
0.00849354
0.00849517
0.00849494
0.00849533
0.00849407
0.00849367
0.00849529
0.00849175
0.0084948
0.00849175
0.00849324
0.00849373
0.0084948
0.008495
0.00849516
0.00849386
0.00849331
0.00849406
0.00849457
0.00849492
0.00849516
0.00849392
0.00849387
0.00849388
0.0084935
0.00849408
0.00849517
0.00849368
0.00849414
0.00849526
0.0084952
0.00849393
0.0084939
0.00849481
0.00849262
0.00849518
0.00849262
0.0084948
0.00849446
0.0084933
0.00849378
0.00849364
0.00849365
0.00849324
0.00849271
0.00849385
0.00849517
0.00849478
0.00849299
0.00849382
0.00849355
0.0084938
0.00849493
0.00849257
0.00849527
0.00849401
0.00849351
0.00849258
0.00849489
0.00849387
0.00849445
0.00849383
0.00849519
0.00849389
0.00849389
0.00849411
0.00849412
0.00849461
0.00849428
0.00849377
0.00849494
0.00849404
0.00849385
0.00849381
0.00849379
0.0084949
0.00849488
0.00849401
0.00849431
0.00849493
0.00849529
0.00849498
0.00849487
0.00849388
0.00849489
0.0084949
0.00849496
0.00849487
0.00849321
0.0084948
0.008495
0.00849377
0.0084948
0.00849352
0.00849323
0.00849394
0.00849307
0.00849387
0.00849498
0.00849387
0.00849386
0.00849488
0.00849368
0.00849502
0.00849365
0.00849354
0.00849322
0.00849386
0.00849367
0.00849515
0.00849478
0.00849495
0.00849381
0.00849397
0.00849394
0.00849356
0.00849378
0.00849374
0.00849378
0.0084944
0.00849472
0.00849357
0.00849498
0.00849354
0.00849372
0.00849491
0.00849341
0.00849376
0.00849338
0.00849383
0.00849389
0.00849352
0.00849459
0.0084938
0.00849471
0.00849355
0.00849365
0.00849366
0.00849368
0.00849369
0.00849369
0.0084937
0.00849382
0.00849329
0.00849329
0.00849327
0.00849328
0.00849304
0.00849303
0.00849462
0.0084938
0.00849378
0.00849435
0.00849325
0.00849324
0.00849377
0.0084947
0.0084938
0.00849385
0.00849461
0.00849338
0.00849462
0.00849352
0.0084938
0.0084946
0.00849469
0.00849515
0.00849506
0.00849355
0.00849522
0.00849406
0.00849471
0.00849439
0.00849381
0.00849367
0.00849232
0.00849368
0.00849526
0.00849468
0.00849378
0.00849394
0.00849472
0.00849367
0.00849444
0.00849233
0.0084947
0.00849364
0.00849366
0.00849395
0.00849325
0.00849368
0.00849306
0.00849402
0.00849527
0.00849533
0.00849315
0.00849423
0.00849395
0.00849464
0.00849337
0.00849379
0.00849468
0.00849375
0.00849458
0.00849388
0.00849459
0.00849469
0.00849202
0.00849318
0.00849323
0.00849324
0.00849384
0.00849458
0.00849267
0.00849369
0.00849428
0.00849456
0.00849464
0.00849316
0.00849461
0.00849323
0.00849463
0.00849529
0.00849456
0.0084952
0.00849352
0.0084946
0.00849201
0.00849461
0.00849357
0.00849463
0.00849362
0.00849461
0.0084941
0.00849552
0.00849412
0.00849462
0.00849313
0.0084946
0.00849426
0.00849366
0.00849379
0.0084946
0.00849458
0.00849444
0.00849353
0.00849456
0.00849396
0.00849408
0.00849309
0.00849458
0.00849446
0.00849425
0.00849446
0.00849459
0.00849444
0.00849342
0.00849396
0.00849446
0.0084946
0.00849389
0.00849388
0.00849457
0.0084931
0.00849564
0.00849409
0.00849515
0.00849423
0.00849618
0.00849618
0.00849615
0.00849616
0.00849613
0.00849622
0.00849622
0.0084935
0.00849277
0.00849396
0.00849427
0.0084944
0.00849446
0.00849389
0.00849445
0.00849447
0.00849277
0.00849444
0.0084934
0.00849479
0.00849332
0.0084941
0.0084943
0.00849446
0.00849315
0.00849411
0.00849428
0.0084941
0.00849427
0.00849445
0.00849472
0.00849427
0.00849413
0.0084934
0.00849438
0.00849446
0.00849441
0.0084943
0.00849413
0.00849389
0.0084944
0.0084939
0.00849413
0.00849429
0.00849395
0.00849413
0.00849443
0.00849363
0.00849427
0.00849284
0.00849529
0.00849353
0.00849342
0.00849413
0.00849429
0.00849373
0.00849564
0.0084941
0.00849428
0.0084955
0.00849207
0.00849206
0.00849407
0.00849442
0.00849426
0.0084944
0.0084915
0.0084915
0.00849392
0.00849395
0.00849395
0.00849569
0.00849443
0.00849358
0.00849435
0.00849436
0.00849431
0.00849563
0.00849363
0.00849442
0.00849412
0.00849411
0.00849435
0.00849429
0.00849435
0.00849433
0.00849552
0.00849519
0.00849428
0.0084941
0.00849427
0.00849437
0.00849429
0.00849425
0.00849427
0.00849531
0.00849331
0.00849438
0.00849374
0.00849364
0.00849532
0.00849411
0.00849413
0.00849307
0.00849202
0.00849203
0.00849313
0.00849446
0.0084941
0.00849533
0.00849209
0.0084916
0.00849161
0.00849566
0.00849266
0.00849238
0.00849415
0.00849327
0.00849401
0.00849381
0.0084936
0.00849356
0.00849395
0.00849564
0.0084941
0.00849376
0.00849359
0.00849558
0.00849253
0.00849557
0.00849359
0.00849385
0.00849459
0.00849405
0.00849397
0.00849296
0.00849393
0.00849297
0.00849412
0.00849361
0.00849243
0.00849242
0.00849535
0.00849376
0.00849596
0.00849597
0.00849596
0.00849368
0.0084957
0.00849597
0.00849437
0.00849595
0.00849294
0.00849295
0.00849595
0.00849422
0.00849555
0.008496
0.00849554
0.008496
0.00849554
0.00849263
0.00849539
0.00849569
0.00849593
0.008494
0.00849348
0.00849557
0.00849398
0.00849594
0.00849387
0.00849421
0.00849601
0.00849558
0.00849601
0.00849565
0.00849414
0.00849283
0.00849162
0.00849166
0.0084938
0.00849161
0.00849162
0.00849164
0.0084919
0.00849536
0.0084925
0.00849314
0.00849279
0.00849383
0.00849184
0.00849185
0.00849278
0.00849565
0.00849425
0.00849573
0.00849561
0.00849552
0.00849213
0.00849214
0.00849218
0.00849217
0.00849214
0.00849167
0.00849219
0.00849181
0.00849161
0.00849212
0.00849212
0.00849161
0.00849168
0.00849182
0.00849218
FIELD solute_flux_TPM 2
S_ext 3 563 float
-3.88522e-05 1.29405e-05 -6.0271e-20
2.32832e-06 3.94019e-06 -9.19763e-20
-6.94912e-06 -5.31857e-06 1.4069e-18
-2.30789e-06 2.36504e-06 -6.82226e-19
1.48115e-05 -4.3498e-06 1.71194e-18
1.35751e-06 -8.55302e-06 -4.23293e-19
-3.82613e-05 -1.30983e-05 9.96409e-19
-8.01283e-06 -5.54343e-06 -2.58187e-19
1.14949e-05 5.61264e-07 1.23991e-18
6.43518e-06 -2.54319e-06 -2.18335e-18
2.60891e-05 6.06032e-06 1.77243e-18
9.87286e-07 -9.69233e-06 -2.34682e-18
7.76808e-06 5.8732e-06 3.41319e-19
1.88571e-06 7.86297e-06 2.77071e-18
1.34304e-05 -2.14744e-06 1.01547e-18
-8.64935e-06 -1.40895e-07 1.00746e-18
2.0804e-06 8.52627e-06 2.50383e-19
5.5597e-06 -1.43317e-06 -2.67814e-18
5.12629e-06 8.88532e-06 -1.47875e-18
-7.84868e-06 1.03842e-06 -8.0086e-20
-1.66273e-06 -1.13152e-05 -2.56562e-19
2.86084e-05 4.0387e-05 4.45954e-19
8.35748e-06 8.93978e-07 -1.91128e-18
6.12963e-06 -5.9361e-06 5.74842e-19
-7.95179e-06 -1.86897e-06 1.50288e-18
-8.29048e-08 -6.27288e-06 1.83159e-18
2.99165e-05 -2.30272e-06 2.04044e-18
7.90948e-06 5.57549e-06 -5.80442e-19
-1.21705e-05 -9.95205e-06 3.05496e-18
3.21991e-05 -8.63151e-06 4.25241e-18
-8.91687e-06 -3.62876e-06 2.09609e-18
2.67259e-06 -1.56475e-05 -1.05312e-18
2.24334e-05 -2.28259e-05 1.56448e-18
-3.4756e-06 -2.73214e-05 1.11705e-18
-1.94774e-05 2.40746e-05 -1.54164e-18
-2.54009e-05 -1.06362e-05 -1.46445e-18
2.14615e-05 2.7945e-05 -3.55751e-18
-2.92689e-05 -5.85377e-06 1.73499e-19
8.18656e-06 -5.79506e-06 6.62345e-19
2.19258e-05 2.37842e-05 8.53254e-19
1.57566e-05 -6.81681e-06 -9.66914e-19
2.18511e-05 -2.69073e-05 3.30169e-19
-1.23847e-05 -3.23519e-05 -4.24672e-18
-8.48132e-06 3.79104e-06 -1.62506e-19
1.45312e-05 -1.4193e-05 2.29663e-19
-1.46318e-05 5.18069e-06 2.49631e-18
-2.06078e-06 -1.05224e-05 -6.69692e-19
4.03452e-06 1.04745e-05 -3.47024e-18
-8.89243e-06 3.4044e-06 -1.16328e-18
-8.70794e-06 1.37443e-05 -9.64439e-19
1.58693e-05 7.37635e-06 1.76063e-18
1.45292e-05 -5.12633e-06 4.83538e-19
-1.02602e-05 1.00921e-05 -1.10416e-18
-1.15461e-05 -9.92678e-06 3.32419e-18
-1.36489e-05 -3.47511e-06 1.70278e-19
-2.10113e-05 1.2577e-05 -8.70274e-19
-1.92885e-05 -2.4786e-05 8.59235e-19
2.97457e-06 -1.50514e-05 -4.14196e-19
-3.11204e-05 4.35453e-06 -1.7334e-18
3.16057e-06 7.3393e-06 -3.31962e-18
-3.21154e-06 -5.26756e-06 9.38617e-19
-3.83999e-06 -1.14156e-05 2.13089e-18
2.70487e-05 1.17431e-05 1.01723e-18
6.15675e-06 1.10578e-05 -8.44388e-19
8.02506e-06 -8.92944e-06 6.6575e-19
-1.34785e-06 -1.234e-05 1.26192e-18
3.16716e-06 -5.36587e-06 -5.99373e-19
-5.51597e-06 -3.37977e-06 1.26671e-18
-5.71767e-06 6.22805e-06 4.91884e-19
1.35633e-06 -2.64939e-06 -1.51658e-18
-9.83157e-06 -1.01445e-05 1.62422e-18
-1.37727e-05 3.48859e-06 -3.17295e-18
-1.89079e-06 1.66195e-05 7.60828e-20
-1.0664e-05 6.48806e-06 -2.02617e-18
-4.88392e-06 7.67314e-06 1.07972e-18
-2.78785e-05 3.53858e-06 1.48237e-18
5.22275e-06 -1.34625e-05 1.52126e-18
-1.14022e-05 -4.92647e-06 7.90094e-20
8.3198e-07 6.58272e-06 -4.92522e-19
1.32113e-05 2.50527e-06 1.62307e-18
1.64596e-05 -1.39256e-05 2.07254e-18
1.4591e-05 1.31858e-05 -1.70263e-19
7.57577e-06 -2.06321e-06 1.86021e-18
-1.53223e-05 1.11942e-05 9.5637e-19
1.84428e-05 2.40518e-06 3.87224e-18
-2.6164e-06 2.32733e-05 -6.3457e-19
-8.18877e-07 -9.29111e-06 3.57611e-18
1.08986e-05 5.73163e-06 -1.77491e-21
1.39747e-05 1.46e-05 4.76479e-19
4.24466e-05 2.64015e-05 3.42895e-18
-2.56705e-06 1.51225e-05 8.09075e-19
4.43492e-05 -2.49238e-05 -4.52876e-19
-1.74001e-05 3.07838e-06 -2.04656e-18
1.06082e-05 6.82018e-06 -2.60775e-18
-1.44125e-05 4.90498e-06 7.27561e-19
8.05643e-06 1.39214e-05 1.12804e-18
4.72112e-06 -2.11359e-05 -1.44118e-18
8.75291e-07 6.58762e-06 -5.73436e-19
-8.98871e-06 -1.12189e-05 6.90541e-19
1.40508e-06 9.53069e-06 -1.74614e-18
1.33507e-05 2.78559e-06 4.88569e-19
-7.44606e-06 1.59876e-05 -4.08563e-19
1.94986e-05 -6.54552e-06 2.35155e-19
-2.10581e-06 4.00097e-06 1.24671e-18
5.87367e-06 3.10238e-06 4.25606e-19
-1.03285e-06 -6.38641e-06 -1.01598e-18
2.33377e-06 -1.19486e-05 4.3913e-18
9.46591e-06 2.32411e-06 4.15621e-19
-3.85962e-06 1.9602e-05 2.46947e-18
-6.16658e-06 -8.74988e-08 1.08307e-18
5.12557e-06 6.27466e-06 -1.2412e-18
-1.25137e-06 -1.99361e-05 -8.81197e-19
2.01902e-05 6.34042e-06 3.11276e-19
2.45411e-06 -4.00319e-06 -2.42427e-18
-6.12996e-06 -2.20665e-06 -5.76373e-19
-1.42052e-05 -6.15269e-06 1.45434e-18
1.04088e-05 2.75146e-05 1.20624e-18
-2.03566e-05 -7.30017e-06 -4.04009e-19
1.0554e-05 -2.75892e-05 9.48265e-19
-1.73565e-06 -1.56527e-05 -7.42073e-19
1.12464e-05 2.77233e-07 2.38565e-18
-4.48025e-06 1.19905e-05 -2.11954e-18
-1.12281e-06 2.25243e-06 -1.56089e-19
-2.6595e-06 -9.99466e-06 8.18566e-20
3.12769e-06 -5.44095e-06 7.57727e-20
6.20283e-06 1.01176e-05 -7.67639e-19
2.2025e-05 7.33467e-06 -9.8897e-20
5.17724e-06 -4.00281e-06 -4.19408e-19
-3.98453e-06 -2.13907e-05 3.90377e-19
1.27231e-05 -9.25495e-06 -4.88699e-19
3.292e-06 1.79425e-05 -5.89034e-19
-1.49372e-06 -1.81017e-06 1.52296e-18
-5.59844e-06 -5.10664e-06 1.18042e-18
-2.87409e-06 2.53881e-07 -2.02104e-18
-1.1073e-05 1.36155e-05 -1.78418e-18
1.29232e-05 -2.46357e-05 1.54964e-18
-1.26312e-05 2.00113e-05 -3.21121e-19
-8.89906e-06 5.39738e-06 1.01092e-18
1.41893e-06 7.9029e-06 -6.77664e-19
-1.48484e-05 -2.34864e-05 -1.29249e-18
6.70193e-06 1.62714e-05 -1.37448e-18
1.03121e-05 4.94742e-06 1.00773e-18
1.17779e-05 -4.59652e-06 1.31525e-18
-1.00241e-06 -6.41308e-06 -2.2629e-18
-1.59994e-05 -1.47039e-05 2.07682e-18
-1.2347e-06 6.4384e-06 2.9243e-18
9.98298e-06 5.97019e-06 -5.03109e-19
1.03461e-05 -5.14936e-06 8.57022e-20
4.5455e-06 -7.5555e-06 2.15857e-18
1.23597e-05 -5.41732e-06 5.72138e-19
1.01146e-05 -4.79306e-06 -9.92927e-19
2.89721e-06 3.93063e-07 -5.01587e-19
1.25723e-05 9.95595e-06 4.05974e-19
-1.15679e-06 -9.3429e-06 2.83167e-18
-6.13505e-06 -2.2389e-06 -1.4351e-18
8.74546e-07 -2.22335e-06 -2.27576e-18
-2.27288e-06 9.15029e-06 -1.67181e-18
-1.67033e-05 1.35939e-06 5.69108e-19
-5.8435e-06 -1.60491e-05 -2.45381e-19
-4.27999e-06 5.23305e-06 -1.17615e-18
7.15121e-06 8.54447e-06 -1.60345e-19
1.29837e-05 -9.27604e-06 8.17246e-20
-1.74319e-05 -9.49718e-06 2.05447e-18
8.4382e-06 -1.34615e-05 -1.53206e-18
1.11687e-05 -1.32599e-05 -3.22623e-19
-6.05725e-06 2.40093e-06 -5.79817e-19
-9.61154e-06 -1.38088e-05 -7.21044e-21
-1.66773e-05 -2.82721e-06 1.46077e-18
-2.02149e-06 -1.5396e-05 1.76738e-18
7.45567e-06 -1.54394e-05 9.68926e-19
-6.11408e-06 -1.66401e-05 6.78522e-19
2.1138e-06 1.54202e-05 2.41411e-19
-7.70996e-06 -1.37158e-05 1.04133e-18
2.2256e-06 -9.55746e-06 3.60783e-18
-1.21503e-05 8.76775e-06 1.05078e-18
-9.14481e-06 -7.75852e-06 1.10624e-18
-1.75181e-05 -2.96668e-06 8.49753e-19
8.85238e-06 -5.30971e-06 1.34141e-18
-2.62849e-06 1.5563e-05 1.28783e-18
7.35681e-06 -5.11273e-06 9.98799e-19
-1.4287e-05 -6.23386e-06 3.30277e-18
-5.17089e-06 -3.99532e-06 -1.93724e-18
5.38619e-06 4.01934e-06 4.28563e-19
1.049e-05 1.3958e-05 2.91786e-18
-1.02401e-05 -6.53766e-06 1.26285e-18
-1.55963e-05 -3.85585e-07 6.48068e-19
-1.0099e-05 -2.61278e-06 4.99623e-19
-2.98573e-06 -1.00057e-05 -4.26317e-19
1.11795e-05 1.39376e-05 2.9813e-18
-6.45057e-06 3.04198e-06 -2.77865e-18
5.76797e-07 -1.21694e-05 6.68294e-19
-1.9765e-05 5.13837e-06 9.5935e-19
1.23798e-05 9.91959e-06 -4.07528e-19
1.83642e-06 1.5985e-05 -8.04698e-19
-1.26639e-06 2.4077e-06 -1.57211e-19
-4.84633e-06 1.32496e-07 -3.25515e-19
2.41315e-06 4.16104e-06 -1.99627e-18
-7.34718e-06 2.37417e-06 3.30107e-19
-1.3869e-06 -2.14281e-06 -2.17808e-18
1.32905e-06 1.22232e-05 -3.35989e-18
2.77737e-06 6.34254e-09 -5.79599e-19
-1.00221e-05 2.47411e-06 -8.1748e-19
-8.61533e-06 9.55554e-06 -8.18697e-19
-1.73926e-06 7.39211e-06 -3.34222e-19
-1.40717e-05 8.86126e-06 1.12089e-18
-6.07045e-06 5.50454e-06 9.93877e-21
1.02089e-05 -7.33136e-06 5.89669e-19
1.78597e-05 -1.8192e-06 3.15015e-18
-1.32271e-05 6.94397e-06 -8.38571e-20
1.16166e-06 2.85131e-06 -2.85696e-18
1.38164e-05 -2.33663e-06 -2.64027e-18
-9.96866e-06 6.36682e-06 2.69548e-18
-5.45961e-06 3.38005e-06 -1.16625e-18
7.61183e-06 2.66831e-06 -1.60835e-18
1.11061e-05 -6.92469e-06 5.7123e-19
-1.01423e-05 5.67837e-06 4.23757e-19
-1.23779e-05 -2.60879e-06 5.8694e-18
-1.02226e-05 -2.41302e-06 -1.19188e-18
6.35696e-06 2.61573e-07 5.06062e-19
6.48676e-06 -1.59642e-07 -7.52427e-19
2.99974e-06 5.09872e-06 -1.1026e-18
3.24653e-06 -5.36545e-06 -1.94602e-18
-2.93974e-06 5.40852e-06 -1.83974e-18
-3.05474e-06 -5.51688e-06 2.03002e-18
5.5739e-06 -4.58861e-06 -3.52749e-18
-1.31234e-05 2.26234e-06 1.43693e-18
-1.29724e-05 -2.30134e-06 2.80239e-18
-8.43432e-06 1.01758e-05 1.03174e-18
-8.47484e-06 -1.02086e-05 1.52314e-18
4.74924e-06 -1.3107e-05 1.96684e-18
4.57612e-06 1.30044e-05 5.475e-18
8.27906e-07 1.30407e-05 -1.06499e-18
6.7593e-06 -1.39564e-06 1.25693e-18
1.44833e-06 -2.19621e-06 -2.08903e-18
-1.09329e-05 8.22523e-07 1.82728e-18
4.87641e-06 -1.28991e-05 3.22766e-18
4.62431e-06 1.29424e-05 2.63742e-18
2.77992e-06 -5.04449e-08 -6.74983e-19
4.47386e-06 1.21971e-05 -1.13971e-18
-1.27836e-06 -2.30523e-06 -3.52465e-18
1.12057e-06 -6.44399e-06 4.23381e-21
-1.12747e-05 -5.993e-06 -5.76279e-19
-1.34106e-05 -7.09726e-06 3.32632e-21
-1.09554e-05 6.85621e-06 1.38586e-18
1.86269e-06 -7.97928e-06 -7.683e-19
-9.12138e-07 1.89863e-06 -2.27106e-18
-3.94201e-07 -1.28779e-05 -1.15179e-18
-3.88892e-06 -1.21137e-05 1.55954e-19
1.57525e-05 1.45599e-05 1.75274e-18
1.73129e-05 -8.64676e-07 1.60064e-18
-7.99515e-06 -2.5378e-06 1.01082e-18
-1.08738e-05 -1.94175e-05 2.4708e-18
4.52303e-06 7.36065e-06 -9.11195e-19
-1.24618e-05 1.47135e-06 -7.95815e-20
1.04659e-05 3.01854e-06 1.81045e-18
-2.59472e-06 -1.09539e-08 2.43995e-18
-3.08045e-06 -5.1661e-06 2.35153e-18
-5.40152e-06 -2.55925e-05 1.81922e-18
-6.09675e-06 1.70515e-07 9.15943e-19
-2.26235e-05 -8.46152e-07 1.59478e-18
8.68877e-06 -9.60705e-06 -6.49657e-19
1.47419e-06 2.27268e-06 -5.74837e-19
-1.67568e-07 -9.84247e-06 1.61446e-19
-4.93108e-06 1.18943e-05 -1.06242e-18
-2.92156e-06 5.28632e-06 1.43908e-18
1.07355e-05 -6.94045e-06 -1.63399e-19
-2.48646e-05 -8.09612e-06 3.46937e-19
-7.59445e-06 -1.00723e-05 1.05365e-18
2.99734e-06 5.45451e-06 -1.0104e-18
1.03367e-05 2.601e-06 1.85813e-18
-2.57159e-06 -3.92217e-06 -9.28574e-19
1.29822e-05 2.53629e-06 -3.66463e-18
1.09974e-05 -5.71589e-06 -1.18215e-18
-1.80553e-07 1.73301e-05 -1.53122e-18
4.56192e-06 -7.36347e-06 -1.7562e-18
2.33653e-05 9.32773e-07 -8.76421e-19
-1.98717e-05 5.1482e-06 1.81695e-18
1.47514e-05 7.24552e-06 2.64622e-18
-3.31508e-06 -8.97614e-06 -1.00926e-18
-8.66601e-06 -4.71534e-06 -2.43134e-18
1.4404e-05 -1.11195e-07 2.61422e-18
-5.17997e-07 -1.52043e-05 1.18269e-18
-7.12109e-06 -6.76714e-06 1.4412e-18
5.11593e-06 -1.17579e-05 9.77471e-19
-4.86467e-07 1.20509e-05 -3.1026e-18
3.85914e-06 1.31094e-05 -1.22826e-18
9.96046e-06 -5.78957e-06 -4.21151e-19
-9.57156e-06 9.48686e-06 2.38715e-19
8.26677e-06 1.00345e-05 4.8697e-19
-4.31149e-05 1.02512e-05 -1.48102e-18
-6.7618e-06 1.65568e-05 -9.32803e-19
8.26213e-06 -9.79153e-06 1.51679e-19
-4.39026e-06 -1.19741e-05 -3.13263e-18
-6.97187e-06 2.2423e-06 -5.0696e-19
-1.28487e-05 -3.64233e-06 5.74974e-19
-4.47573e-06 2.56291e-05 -1.80175e-18
-7.25635e-06 7.58146e-06 -1.25852e-18
1.09661e-05 -2.60484e-06 1.57663e-18
-3.32568e-06 -1.29657e-05 1.06017e-18
-7.39374e-06 1.17674e-05 -1.6397e-18
-1.37578e-05 7.99931e-06 5.10835e-19
-1.02712e-05 -7.54809e-06 2.12489e-18
1.14015e-05 -1.36217e-05 1.1932e-18
-1.35543e-05 -7.35823e-07 2.79433e-18
5.77632e-06 -1.95893e-05 4.73193e-19
9.92503e-06 -9.46064e-06 1.04232e-21
1.1737e-05 2.05523e-05 -4.78677e-19
1.33248e-06 1.22029e-05 -7.56278e-19
1.53134e-06 -1.28094e-05 -1.23285e-18
-2.80024e-05 3.29558e-05 -6.05367e-19
-6.28754e-06 -1.20782e-05 -1.67141e-19
1.03209e-05 -3.68572e-06 -2.28959e-18
-1.28709e-06 1.28988e-05 -3.27008e-19
7.6624e-06 -7.70232e-06 -8.77584e-20
6.9418e-06 1.21178e-05 -1.47334e-18
9.25889e-06 -9.14329e-07 5.00041e-19
1.01561e-05 -2.96584e-05 -1.02489e-18
-3.03108e-06 -6.86384e-06 4.08659e-19
-1.16134e-05 4.9687e-06 -1.63575e-18
-1.28035e-05 1.21778e-05 -2.304e-18
1.09285e-05 7.41556e-06 9.02404e-19
1.00033e-05 -5.85152e-06 -3.28896e-19
8.70659e-06 7.86081e-06 -3.8805e-18
-3.35878e-06 -2.17115e-07 5.77438e-19
7.7408e-06 -1.15194e-05 -1.31437e-18
-8.56956e-06 -1.00652e-05 -2.50337e-19
1.1644e-05 5.185e-06 1.483e-18
7.73729e-06 -7.53188e-06 1.70599e-19
4.70508e-06 -1.25207e-05 -7.90666e-21
9.28361e-06 -4.32919e-06 -2.34399e-18
-8.61203e-06 -4.23188e-06 1.5896e-18
9.51324e-07 -1.67002e-05 5.97062e-19
-1.29566e-05 2.35258e-06 -1.47406e-18
1.08326e-06 1.25874e-05 -1.61514e-19
1.09025e-05 3.75946e-06 -8.36627e-20
-1.10477e-05 -5.57822e-06 -9.09408e-19
-4.3909e-06 1.2806e-05 -8.33946e-20
-6.51527e-07 -1.24487e-05 -6.6508e-19
1.21314e-05 7.47017e-06 -4.23599e-19
-5.7012e-07 1.02531e-05 1.84489e-18
-1.0374e-05 6.85985e-06 -1.73428e-18
1.19801e-05 5.72655e-06 2.45175e-19
-9.58417e-06 -6.06681e-06 2.85867e-18
4.84716e-07 -1.13822e-05 3.01143e-18
9.3827e-06 9.9761e-06 4.09919e-19
-1.39811e-05 -9.15834e-06 -4.23249e-19
2.29127e-05 -1.6363e-05 1.92784e-18
1.00023e-05 -5.83907e-06 5.0021e-19
4.13585e-06 2.0573e-05 2.3915e-19
9.29548e-06 -7.1014e-06 4.94751e-19
-1.05189e-05 4.07731e-05 -5.20828e-19
-1.05711e-05 -4.0389e-05 -1.18944e-18
2.65737e-05 3.46609e-05 -1.33366e-18
2.62581e-05 -3.46526e-05 2.51828e-18
4.33455e-05 -2.31039e-08 3.78122e-18
-3.72736e-05 1.51448e-05 -1.34302e-18
-3.6674e-05 -1.53002e-05 -1.11364e-18
7.46254e-06 7.50467e-06 5.05161e-19
1.93083e-05 1.44932e-05 3.5213e-18
6.2645e-06 2.0264e-06 -2.92887e-18
1.01314e-05 5.16616e-06 -7.40814e-19
2.55399e-06 1.04717e-05 -3.45675e-18
-9.74752e-06 -7.5049e-06 9.87669e-19
1.01066e-05 -5.57917e-06 4.94871e-19
1.03941e-05 7.38976e-06 1.65516e-19
-1.47498e-06 1.2506e-05 -2.63379e-18
1.94186e-05 -1.32938e-05 8.53379e-19
1.78985e-06 -1.22434e-05 1.97015e-18
1.38748e-05 2.84374e-06 3.14171e-18
1.47526e-05 5.57715e-06 -2.41346e-19
9.32063e-06 9.01468e-06 4.19362e-19
8.64109e-06 3.73993e-06 -1.67353e-19
-9.74726e-06 5.82375e-06 -1.07722e-18
-1.14651e-05 4.75875e-06 -2.96288e-18
1.48023e-05 -7.09676e-06 -1.75619e-19
-9.87621e-06 -5.58642e-06 -1.25239e-18
-9.85919e-06 -5.52299e-06 1.15908e-18
-2.06132e-08 -1.13697e-05 -4.25412e-19
-1.07644e-07 -1.12593e-05 -1.49889e-18
-1.02377e-05 -5.34201e-07 3.34722e-19
1.3395e-05 -2.01717e-06 2.5168e-18
9.67557e-06 6.08769e-06 -7.96442e-20
-9.81066e-06 5.81128e-06 -7.50008e-19
-9.26725e-06 1.05899e-05 1.10734e-18
8.4331e-06 -7.18242e-06 5.76689e-19
-5.65653e-06 8.86399e-06 -1.57031e-18
-7.32873e-06 -7.60094e-06 1.57666e-19
-6.23039e-07 1.11507e-05 -1.60686e-19
-4.37854e-07 1.14633e-05 -7.73114e-20
-3.30996e-08 -1.13796e-05 8.31452e-19
3.14816e-06 -1.01981e-05 3.24402e-19
-9.84583e-06 -5.5769e-06 5.02716e-19
8.38581e-06 -3.10381e-06 2.50676e-19
4.1338e-07 1.13778e-05 1.69386e-19
2.28995e-07 1.04156e-05 -2.25325e-18
-1.13395e-06 9.07676e-06 2.41824e-18
1.1274e-05 -2.87354e-06 1.64946e-19
-1.02895e-05 2.85607e-06 2.49578e-19
1.96736e-06 1.13886e-05 -1.48891e-18
-2.12797e-05 8.24146e-06 -2.5811e-18
4.54605e-06 2.00068e-05 -5.55119e-19
-1.04761e-05 2.5508e-06 6.74842e-19
1.23714e-05 -7.37943e-06 -1.87042e-18
3.351e-07 1.14809e-05 -2.65974e-18
-1.06094e-05 3.72581e-06 -7.44621e-20
1.70175e-06 -9.52382e-06 5.13001e-18
4.87123e-07 -2.74235e-05 8.49882e-19
9.8712e-07 9.54305e-06 -3.07436e-18
-9.07826e-06 7.15629e-06 4.12361e-19
8.1957e-06 3.00467e-05 1.02515e-18
3.13628e-05 2.60365e-05 1.21972e-18
3.59951e-05 -2.46227e-05 3.05145e-18
8.31106e-06 -5.55102e-06 -8.38113e-19
-8.18142e-06 7.185e-06 -1.16124e-18
-1.05519e-05 -4.40152e-06 8.33095e-20
-1.01228e-05 -3.53894e-06 -2.63613e-18
4.44666e-05 -1.2235e-05 5.56914e-18
4.53413e-05 9.54169e-06 5.05201e-18
5.98295e-06 2.26951e-06 -1.51146e-18
7.64083e-08 1.10603e-05 -1.83254e-18
9.48122e-08 1.10621e-05 -3.5059e-18
-2.27966e-05 -1.67301e-05 5.40181e-19
5.92653e-06 -8.82135e-06 1.64288e-18
7.03268e-06 8.06493e-06 1.43272e-18
-1.09539e-05 -1.90084e-06 6.68522e-19
-7.33173e-06 8.69824e-06 -5.85602e-19
-9.92301e-06 4.80468e-06 -1.40464e-18
2.26346e-05 1.62239e-05 -1.58249e-19
9.68473e-06 4.10286e-06 2.7849e-18
-2.84968e-06 1.02745e-05 4.11761e-19
-9.43713e-06 -6.18462e-06 1.49583e-18
7.7002e-07 -1.12904e-05 -5.11144e-19
-4.48882e-06 -9.96642e-06 6.54073e-19
-9.07378e-06 -6.16312e-06 1.65427e-19
5.45158e-06 -9.77218e-06 9.0426e-19
7.53123e-06 -8.69249e-06 3.47829e-18
-1.37021e-06 -2.87255e-05 1.87729e-18
1.24194e-05 -1.96384e-05 -2.07926e-18
9.23418e-07 -1.09745e-05 1.07108e-18
1.00341e-05 6.04118e-06 4.19785e-19
-7.78404e-06 -7.61394e-06 7.40114e-19
-4.98582e-06 1.00991e-05 1.07299e-18
-2.41011e-06 1.10512e-05 -1.23919e-18
9.03497e-06 7.3233e-06 -1.82042e-18
2.9959e-06 -1.05261e-05 1.48595e-18
-6.64252e-06 -1.9052e-05 4.0289e-18
-1.41375e-06 1.57406e-05 -1.0983e-18
7.76325e-06 7.48958e-06 -9.86003e-19
-7.42369e-06 -6.18286e-06 7.63517e-19
-8.019e-06 6.49391e-06 -1.17545e-18
2.12957e-05 -9.08784e-06 -6.3327e-19
4.00522e-06 -7.17351e-06 -3.50115e-18
-4.52992e-06 -6.62085e-06 1.40303e-18
1.3993e-05 4.40553e-06 -3.77934e-18
8.78715e-06 -3.16835e-05 7.752e-19
-2.30519e-05 -2.34269e-05 1.13874e-18
1.521e-05 3.81758e-06 3.49531e-18
-4.76072e-06 -9.30273e-06 -1.72818e-19
1.02731e-05 5.44536e-06 1.91649e-18
-1.36828e-05 -1.52489e-05 1.97556e-18
7.12141e-06 3.21875e-05 -2.78374e-18
3.13265e-05 -4.05086e-05 1.31695e-18
-1.94219e-05 -4.73708e-05 -3.18248e-18
1.28137e-05 -2.49541e-05 3.12704e-19
-8.21705e-06 2.86661e-05 -6.89065e-19
-4.74937e-06 2.5311e-05 -1.72307e-18
-1.01209e-05 5.10118e-06 -3.28149e-19
4.07562e-06 1.51871e-05 1.09234e-20
-1.11711e-06 6.88971e-06 1.24851e-18
5.77112e-06 2.11185e-06 -2.6049e-18
-2.34202e-06 9.88354e-06 9.36981e-21
-1.05151e-07 1.27091e-05 -6.6795e-19
9.41707e-06 5.54936e-06 -1.33735e-18
4.37042e-07 2.72934e-05 1.0839e-18
-8.11988e-06 5.51768e-06 8.31636e-19
9.48662e-06 -3.33927e-06 1.59467e-18
1.06752e-05 -2.34646e-06 -1.69664e-18
-2.7969e-05 -4.08644e-06 1.87113e-18
-2.26409e-05 1.07982e-05 -2.5009e-18
-2.02678e-05 -2.40536e-05 3.92346e-19
5.58151e-06 5.1111e-06 5.84013e-19
8.05004e-06 4.59692e-06 -1.59636e-18
1.35154e-05 -2.27687e-06 -4.08453e-19
-4.36148e-06 -7.08571e-06 1.91114e-18
9.61173e-06 5.08881e-06 -1.7566e-18
4.8723e-06 -1.94816e-05 -1.04123e-18
-8.02627e-06 5.46469e-06 -2.01538e-18
-1.44326e-05 -1.39487e-05 -1.10296e-18
-2.90797e-06 8.78825e-06 2.16786e-18
-2.36259e-06 1.24779e-05 -1.93351e-18
2.26552e-05 1.404e-05 2.76832e-18
2.41738e-05 -1.27804e-05 1.46695e-18
-1.97544e-05 -5.29718e-06 -8.40757e-20
4.25562e-06 4.82324e-06 -2.94386e-18
-2.20079e-06 4.73338e-05 -4.0615e-21
5.37374e-08 -4.86163e-05 1.1573e-18
2.39742e-05 4.10263e-05 4.65194e-19
-1.16284e-05 4.72891e-06 -1.35175e-18
-1.29252e-05 2.61293e-05 1.86039e-21
2.41258e-05 -3.95992e-05 -7.7255e-19
-6.07156e-06 -9.28513e-06 5.68407e-19
3.67043e-05 3.18715e-05 2.54388e-18
1.57883e-05 -1.15718e-05 1.01307e-18
-2.14392e-06 -1.94413e-05 -7.62831e-19
3.84508e-05 -3.11655e-05 3.08363e-18
-3.5128e-06 7.62753e-06 3.1508e-18
-2.48283e-05 -1.57578e-05 1.17279e-18
-2.02643e-05 -4.23375e-05 1.38632e-18
-1.15205e-05 -2.70438e-05 3.67962e-18
-2.08333e-05 4.30268e-05 -1.22502e-18
-4.93673e-06 3.00168e-05 -1.41311e-18
1.07019e-05 2.44188e-05 1.30572e-18
-1.34269e-05 1.72413e-05 -7.88975e-20
-1.23738e-05 -2.5452e-05 1.77625e-18
4.71824e-05 8.29737e-06 3.46196e-18
-9.6507e-06 5.74322e-06 -1.66628e-19
-3.89531e-06 9.94966e-06 6.8494e-19
-2.35587e-05 1.69331e-05 5.44977e-19
-9.69744e-06 5.63178e-06 -1.75783e-18
4.6719e-05 -7.40472e-06 4.38042e-18
-8.8561e-06 4.2458e-06 -2.27366e-21
3.84667e-06 -7.66438e-06 -5.86939e-19
-3.6246e-05 -2.7654e-05 2.07944e-18
-1.24118e-05 2.70438e-05 1.40642e-18
-3.71044e-05 2.74585e-05 -2.30447e-18
1.13464e-05 2.48613e-05 1.07936e-18
-8.09357e-06 5.61919e-06 -2.91692e-18
-1.3137e-05 1.60618e-05 -1.80383e-18
-2.41465e-05 3.03901e-05 -1.48865e-18
-3.79012e-05 -4.85663e-06 -2.28741e-18
-7.53687e-07 9.46076e-06 -2.93316e-18
-2.5566e-05 -3.05177e-05 3.26009e-18
-3.92268e-05 6.89025e-06 -2.11503e-18
-1.49641e-05 3.46553e-05 -1.75827e-18
-1.15092e-05 4.59714e-05 3.63328e-19
-8.7207e-06 1.94493e-05 -5.47775e-19
-2.21207e-05 1.78435e-05 -9.47908e-19
1.60074e-05 -3.77708e-06 -2.39982e-18
2.52629e-05 -1.14483e-06 -7.00069e-19
7.74986e-06 4.97278e-06 -2.18269e-18
-8.08735e-06 -5.29359e-05 2.00966e-18
-4.98993e-05 -1.94473e-05 -2.4602e-18
2.45893e-05 9.08006e-08 5.17598e-18
2.78464e-05 -5.38064e-06 3.08421e-18
-5.52687e-06 -7.00996e-06 2.72868e-18
-2.40788e-05 1.69848e-05 -2.93507e-18
-2.15838e-05 2.4765e-05 -5.50726e-19
2.94358e-05 -1.05975e-05 2.59163e-18
-1.86325e-05 -3.1512e-05 2.51756e-18
-1.89616e-05 3.12629e-05 8.04774e-19
-3.6733e-05 -1.33457e-06 -4.28856e-19
-1.6674e-05 3.28964e-05 -2.26274e-18
-3.66318e-05 4.1256e-07 -6.15264e-19
4.57284e-05 1.63519e-05 5.27551e-18
3.67676e-05 1.3988e-06 2.86466e-18
3.46522e-05 -1.77411e-05 3.41144e-18
1.01744e-05 -4.87759e-05 3.26262e-18
1.82474e-05 -3.18603e-05 1.74267e-18
1.81223e-05 3.18533e-05 4.27067e-18
9.96505e-06 4.76618e-05 2.64788e-18
4.99166e-05 -1.40833e-05 5.99628e-18
3.19457e-05 1.58185e-05 2.98141e-18
3.05964e-05 8.34469e-06 6.79036e-18
P_ext 3 563 float
-4.52068e-07 1.52797e-07 -1.66885e-20
3.97197e-10 1.66704e-08 1.81911e-20
-4.15186e-08 -3.90594e-08 -2.46873e-20
-1.31336e-08 1.21172e-08 -1.77548e-22
1.1366e-08 2.42239e-10 2.72857e-21
1.36753e-08 -5.54661e-08 6.73262e-20
-4.45096e-07 -1.54647e-07 -2.35336e-21
-3.25196e-08 -3.69282e-08 2.98718e-20
9.0621e-08 1.59984e-09 -1.41137e-20
3.30423e-08 -3.0836e-09 -2.72897e-21
2.94276e-07 6.90039e-08 -3.59356e-21
1.61353e-08 -4.71656e-08 5.85164e-20
3.6917e-08 4.39894e-08 -1.55181e-20
-3.83836e-09 3.44145e-08 1.0576e-20
1.02803e-08 3.85913e-09 -2.67443e-21
-5.78921e-08 -9.47592e-10 -8.96146e-21
-7.26818e-09 2.26527e-08 1.9652e-20
3.4892e-08 -5.257e-09 1.28676e-20
4.01124e-08 7.15479e-08 -6.44219e-21
-5.37902e-08 5.42012e-09 -1.02937e-20
-2.02154e-08 -7.61884e-08 -1.06355e-22
6.85094e-10 2.57659e-11 -1.50595e-20
5.9582e-08 4.84753e-09 -2.46157e-20
3.79168e-08 -4.38001e-08 3.10055e-20
-5.49492e-08 -8.83838e-09 1.05027e-20
-1.03778e-08 -3.00396e-08 2.73334e-20
3.38227e-07 -2.76708e-08 -2.19175e-20
4.12957e-08 3.48368e-08 1.30853e-21
-1.23652e-07 -9.82141e-08 8.8555e-21
7.20876e-09 1.37574e-09 1.504e-20
-5.51517e-08 -9.79601e-09 2.87927e-20
2.41575e-08 -1.57253e-07 -2.89756e-20
2.5417e-07 -2.60307e-07 -1.46416e-20
5.23128e-10 -1.18481e-08 2.55203e-20
-3.17382e-09 9.10843e-09 3.78653e-20
-9.89635e-09 -6.50529e-09 2.65451e-21
1.27358e-09 6.55316e-09 -3.12156e-20
-9.98745e-09 1.71099e-09 3.90499e-20
3.98714e-08 -4.34044e-08 -7.84652e-21
2.48024e-07 2.71277e-07 -3.41568e-20
1.58291e-07 -7.17258e-08 6.20901e-21
2.39386e-09 -6.00441e-09 1.16649e-21
-3.9682e-09 -5.2222e-09 -4.20018e-20
-5.47906e-08 1.12285e-08 2.67613e-21
1.57142e-07 -1.54326e-07 2.33133e-20
-1.46323e-07 5.26692e-08 -2.62214e-20
-1.8471e-08 -8.05603e-08 -2.1985e-20
3.33086e-08 8.09103e-08 -1.55158e-20
-5.25561e-08 1.37265e-08 1.31348e-21
-9.06561e-08 1.40991e-07 -3.79829e-21
1.60668e-07 7.8694e-08 -2.48331e-21
1.39449e-07 -4.58591e-08 1.26207e-20
-4.06546e-09 9.67872e-09 2.93951e-20
-1.09125e-07 -9.79309e-08 2.62206e-21
-1.06133e-08 1.41261e-09 4.53085e-20
-2.34284e-07 1.37583e-07 -1.24468e-21
-2.94507e-09 -9.07082e-09 5.38798e-20
3.10778e-08 -1.44108e-07 -1.38164e-21
-9.23632e-09 -2.02769e-09 3.09018e-20
2.4346e-08 4.88076e-08 5.10153e-21
-1.29725e-08 -3.8919e-09 -3.25892e-20
-1.36899e-08 -1.28054e-08 1.34205e-20
3.04899e-07 1.34233e-07 -4.79398e-20
-3.06156e-10 2.64862e-08 6.59811e-21
4.04843e-09 -1.76606e-08 2.36486e-20
6.90838e-09 -3.93598e-08 2.23219e-20
-2.77508e-09 -1.2868e-08 1.42935e-20
-3.15386e-08 -7.98836e-09 1.84391e-20
-3.67308e-08 4.4949e-08 1.41676e-20
9.84956e-09 -3.5531e-09 -1.05827e-20
-4.00894e-09 -9.95942e-09 5.33512e-20
-1.04969e-08 -1.54832e-09 1.04769e-20
-1.82417e-08 1.69e-07 -3.85242e-21
-3.2344e-08 1.6331e-08 -6.65827e-21
-3.14373e-08 5.37738e-08 -9.0711e-21
-3.17164e-07 3.72769e-08 3.70699e-21
-1.20916e-11 -2.49596e-08 1.71649e-20
-3.03817e-08 -2.54876e-08 3.92913e-20
1.28287e-08 3.12566e-08 -1.21545e-21
1.21375e-07 2.42692e-08 5.1044e-21
1.74098e-07 -1.51489e-07 1.624e-20
4.71243e-09 1.15828e-08 -2.67529e-20
1.16875e-08 3.66768e-09 1.71932e-20
-1.62233e-07 1.20028e-07 -1.98615e-20
1.89299e-07 2.30109e-08 2.15213e-20
-2.87147e-08 2.56741e-07 -4.86254e-21
-9.94226e-09 -5.1299e-08 2.20784e-20
3.47882e-08 2.45114e-08 -2.89178e-20
1.51151e-07 1.59403e-07 -4.05675e-20
2.72153e-09 1.16503e-09 3.98415e-20
-2.91158e-08 1.44923e-07 -1.26343e-20
2.45658e-09 -1.27597e-09 1.76181e-20
-1.73724e-08 1.18826e-08 5.82946e-20
3.76124e-08 1.52884e-08 2.08528e-20
-1.39545e-07 4.31291e-08 -4.17656e-20
8.10264e-08 1.42386e-07 1.25496e-20
5.04172e-08 -2.27648e-07 4.87138e-21
1.183e-08 3.09726e-08 7.96539e-21
-2.1337e-08 -1.26687e-08 2.79403e-21
1.77393e-08 5.6683e-08 -9.07437e-21
1.18014e-07 2.00742e-08 -8.94331e-21
-7.84086e-08 1.61968e-07 2.00705e-20
2.08511e-07 -6.81473e-08 1.61413e-20
-1.15409e-08 2.51964e-08 6.46676e-21
2.20864e-08 2.24733e-08 -2.73039e-20
-1.31602e-08 -3.03059e-08 3.50771e-20
-5.31855e-09 -2.30483e-08 6.19815e-20
6.11816e-08 7.3192e-09 1.1701e-20
-4.47469e-08 2.09271e-07 9.97194e-21
-1.02793e-08 6.37878e-09 -2.36066e-20
3.05117e-08 4.52436e-08 -4.4019e-20
-1.51339e-08 -2.14794e-07 4.7987e-21
2.17264e-07 6.52346e-08 -2.4782e-20
1.47501e-08 -2.60736e-08 1.2928e-20
-3.36706e-08 -3.83369e-09 -2.99141e-20
-1.38852e-07 -5.57193e-08 -3.79816e-20
6.82206e-09 7.27848e-09 1.34678e-20
-2.2071e-07 -7.71818e-08 -2.37056e-20
6.92725e-09 -7.26104e-09 1.75143e-20
-2.14586e-08 -1.50791e-07 1.50252e-20
9.29974e-08 3.53115e-09 9.03456e-21
-8.25792e-09 6.98648e-09 -1.45989e-20
2.23608e-09 1.0139e-08 -2.48161e-21
6.24377e-09 -2.71631e-08 2.36158e-20
1.07829e-08 -5.00502e-09 1.16799e-20
1.49551e-10 1.08771e-08 -1.86055e-20
9.36972e-09 -1.17805e-09 2.40229e-20
1.75769e-08 -2.59753e-08 2.74254e-20
-4.51966e-08 -2.30482e-07 -5.05046e-21
1.1929e-07 -9.18442e-08 1.63912e-20
3.53748e-10 1.44463e-08 1.08375e-22
-1.00429e-08 -1.79783e-09 -4.99964e-21
-3.22588e-09 -1.11953e-08 1.31689e-20
-8.26405e-09 -5.85752e-09 -1.97696e-20
-1.11558e-07 1.39404e-07 -1.64702e-20
-1.27262e-10 -1.09759e-08 1.61393e-20
-1.39628e-07 2.19229e-07 1.25175e-21
-5.23276e-08 2.40475e-08 -5.09098e-21
7.34862e-09 7.87721e-09 1.04749e-20
-9.44838e-09 -5.52758e-09 -6.72117e-21
6.80343e-08 1.64204e-07 8.74292e-21
3.91307e-08 3.49165e-08 2.35592e-20
9.51854e-08 -3.13815e-08 -1.21525e-21
5.37064e-09 -2.92366e-08 5.08637e-20
-1.72968e-07 -1.59386e-07 3.78047e-21
-1.66554e-08 2.87278e-08 -2.55451e-21
4.31629e-08 2.3026e-08 -6.54891e-21
6.31725e-08 -2.17329e-08 1.81864e-20
2.72775e-08 -5.45138e-08 2.20455e-20
1.08292e-07 -4.99429e-08 5.14191e-21
7.19895e-08 -3.39806e-08 4.89848e-20
7.20862e-09 -6.00917e-09 1.30587e-20
1.25706e-07 9.94333e-08 -2.50184e-20
-1.81813e-08 -5.24944e-08 4.29376e-20
-2.22707e-08 -1.90876e-08 1.14431e-21
-3.66547e-09 -9.56123e-09 8.90365e-21
5.03545e-09 3.74261e-08 -3.89484e-21
-1.68106e-07 1.20493e-08 -6.24152e-21
-6.14194e-08 -1.60468e-07 8.82429e-21
-2.63956e-08 3.36456e-08 -1.83318e-20
5.19304e-08 6.92287e-08 -1.28605e-20
1.29385e-07 -9.17685e-08 3.51328e-20
-1.89264e-07 -1.0119e-07 2.49407e-21
8.41498e-08 -1.36999e-07 1.73666e-20
1.09547e-07 -1.34764e-07 8.8117e-21
-3.21878e-08 3.16739e-09 -1.30003e-20
-9.61739e-08 -1.3917e-07 -1.33417e-21
-1.6835e-07 -2.638e-08 7.93753e-23
-2.00694e-08 -1.53656e-07 4.89307e-20
7.48883e-08 -1.54792e-07 2.89532e-20
1.58381e-09 -2.11737e-08 1.46037e-20
2.22517e-08 1.48184e-07 -2.52644e-20
-7.9308e-08 -1.3873e-07 -2.12519e-20
-7.45784e-09 -3.39179e-08 2.23163e-20
-1.14585e-07 8.57879e-08 -2.53042e-20
-2.23724e-08 -7.29423e-09 6.70608e-21
-1.73921e-08 -1.19859e-08 2.92139e-20
4.56339e-08 -2.33919e-08 4.0473e-20
-6.24239e-09 8.82296e-09 3.34254e-20
2.4225e-08 -3.06295e-08 5.34951e-20
-1.42635e-07 -6.34339e-08 -2.36224e-21
-1.88286e-08 -2.53889e-08 -5.39734e-21
1.96735e-08 2.69385e-08 -1.16221e-20
1.03117e-07 1.42353e-07 -1.99758e-20
-3.638e-08 -1.67675e-08 -1.31113e-20
-1.58682e-07 -3.56881e-09 -2.74155e-20
-2.02333e-08 -1.88221e-08 2.09617e-20
-1.13258e-09 -2.71997e-08 4.73562e-20
1.98305e-08 9.96948e-09 2.73535e-21
-2.28937e-08 2.26009e-08 -2.41381e-22
-3.83355e-09 -4.00677e-08 1.44104e-20
-2.11868e-07 5.21808e-08 -4.23389e-20
1.16058e-07 9.90237e-08 1.2557e-21
1.55037e-08 1.6132e-07 9.95504e-21
-9.33613e-09 3.18629e-09 -1.03237e-20
-3.11404e-08 9.67656e-10 -1.8131e-20
1.4291e-08 2.72971e-08 -3.7741e-20
-1.12634e-08 -2.79787e-09 -4.03107e-21
1.35557e-09 -9.64182e-09 -7.90048e-21
-6.24676e-09 4.2418e-08 -1.70774e-20
6.8781e-09 7.28538e-09 -3.25971e-20
-7.87224e-08 1.73973e-08 -1.79328e-20
-7.99045e-08 8.71764e-08 1.17274e-21
-8.60134e-09 7.93322e-09 1.35237e-21
-1.44633e-07 8.72784e-08 -3.51261e-20
-3.66174e-09 1.226e-08 2.51231e-20
3.89076e-08 -1.39117e-08 1.83921e-20
1.81277e-07 -1.66746e-08 1.37348e-21
-2.26162e-08 1.43084e-08 -1.5857e-20
9.17333e-09 4.20241e-09 1.02821e-20
2.35261e-08 -1.4759e-08 3.55395e-20
-4.04581e-08 1.34557e-08 -1.28766e-20
-2.94601e-08 7.69616e-09 3.52489e-20
1.03032e-08 -3.04906e-09 3.14817e-20
9.59676e-08 -5.83626e-08 2.1647e-20
-3.76771e-08 2.40241e-08 -1.03983e-20
-1.1285e-07 -2.35315e-08 -4.76597e-21
-2.38835e-08 -1.26001e-08 -5.40443e-21
9.11316e-09 -6.0966e-09 3.7991e-20
1.01001e-08 7.14475e-09 3.14159e-20
-2.59857e-09 1.15051e-08 2.44158e-21
-1.07638e-09 -1.29828e-08 -1.56645e-21
-1.05523e-08 5.35423e-09 -1.27599e-21
-1.18104e-08 -6.01e-09 -1.28235e-20
2.96002e-08 -1.11585e-08 -1.19367e-20
-1.07676e-08 -3.0028e-09 3.94219e-21
-1.07434e-08 2.89292e-09 5.03763e-20
-2.61277e-09 1.06965e-08 5.97366e-20
-2.8412e-09 -1.09313e-08 -1.1927e-20
7.10755e-09 -7.93463e-09 4.27031e-20
6.83126e-09 7.59112e-09 4.15065e-20
4.14093e-09 1.14536e-07 -5.11737e-21
2.21512e-08 -1.83186e-08 6.27832e-20
5.17088e-09 -9.76225e-09 9.07843e-21
-8.63184e-08 3.18429e-09 -2.17536e-20
8.17466e-09 -7.70423e-09 5.70302e-20
7.63292e-09 7.8232e-09 3.32009e-20
1.17225e-08 -2.56242e-10 3.82358e-21
3.96524e-08 1.12263e-07 -2.91616e-20
-5.9346e-09 -9.69841e-09 2.9697e-20
1.28422e-08 -2.9355e-08 1.83064e-20
-9.6385e-08 -5.33306e-08 -2.42816e-20
-2.10962e-08 -1.36906e-08 -6.57144e-21
-9.67465e-08 5.73706e-08 -5.09607e-20
8.55581e-09 -8.72608e-09 1.17277e-20
-4.10659e-09 9.1217e-09 -1.97861e-20
-2.26233e-09 -1.109e-07 1.26111e-20
-3.6321e-08 -1.09863e-07 1.38989e-20
1.6665e-07 1.5862e-07 -1.98407e-20
1.78247e-07 -1.01264e-08 1.3739e-20
-1.25575e-08 2.76624e-09 -3.92626e-25
-1.19231e-07 -2.1069e-07 1.00354e-20
2.83521e-08 4.86243e-08 -9.05464e-21
-1.1418e-07 1.34484e-08 -1.52105e-20
8.1912e-08 2.2904e-08 1.80128e-20
-1.11744e-08 -4.5213e-11 -1.0155e-20
2.71907e-10 -1.15947e-08 1.18504e-20
-9.94144e-10 -7.88393e-09 7.71487e-20
-9.87211e-09 -5.90964e-09 5.17129e-21
-2.47213e-07 -9.36759e-09 -1.85523e-20
7.76184e-08 -8.77939e-08 1.89651e-20
5.2613e-09 1.02172e-08 7.92544e-21
2.7014e-09 -4.89148e-08 2.86137e-20
-4.63079e-08 1.09655e-07 -2.80012e-20
9.75599e-10 1.22699e-08 -3.73276e-21
8.27713e-08 -5.92426e-08 2.05781e-20
-7.20497e-09 -3.16697e-09 -1.35222e-21
-7.04389e-08 -9.15418e-08 2.78931e-20
9.67931e-09 4.88686e-09 2.61162e-20
2.28673e-08 2.21744e-08 6.67108e-21
-1.63177e-08 -2.54165e-08 1.28799e-20
9.96671e-09 -3.2716e-09 1.56384e-20
3.39272e-08 -2.36972e-08 -2.69866e-21
-2.0034e-09 1.88695e-08 4.2713e-20
2.79489e-08 -4.7115e-08 1.21043e-21
2.55952e-07 1.28974e-08 -1.61839e-20
-2.16858e-07 5.7373e-08 -1.71756e-20
1.80493e-08 1.25726e-08 -1.25269e-21
-2.68121e-08 -6.4529e-08 -2.77868e-21
-4.06989e-08 -2.65636e-08 2.59197e-20
1.32753e-07 -1.3361e-09 -7.55549e-21
1.1245e-09 -2.52239e-08 2.6436e-20
-3.31054e-08 -1.16457e-08 2.37545e-20
4.5241e-08 -1.08108e-07 1.14197e-20
3.60214e-09 4.34279e-08 -6.53453e-21
3.71282e-08 1.15132e-07 -1.66023e-20
4.44648e-08 -2.34345e-08 -3.96602e-21
-8.12733e-08 8.65152e-08 -3.32466e-20
7.4756e-08 9.23815e-08 1.64991e-20
-4.65541e-09 2.07037e-09 -6.79911e-21
7.95996e-10 1.99749e-08 8.10826e-20
1.45459e-09 -9.04099e-09 -1.53548e-21
-7.18174e-09 -5.89783e-09 2.69508e-21
-2.47533e-08 1.96622e-08 6.46476e-21
-1.13874e-07 -2.69689e-08 -3.06308e-20
3.85304e-10 1.27278e-08 3.09221e-20
-2.97174e-08 8.82443e-09 -2.59689e-21
8.06266e-08 -1.16759e-08 2.33196e-20
-3.45145e-08 -1.11719e-07 2.29544e-20
-6.79675e-08 1.08237e-07 -1.03286e-20
-1.90943e-08 8.82964e-09 2.79498e-20
-9.10843e-08 -6.44402e-08 -1.22059e-21
2.05408e-08 -9.60298e-09 2.52519e-20
-1.235e-07 -6.04561e-09 -7.46423e-21
6.05371e-08 -2.13638e-07 -9.84612e-21
8.25855e-08 -8.67435e-08 1.53521e-20
1.26446e-07 2.24198e-07 1.11666e-20
-1.20524e-09 2.69664e-08 -1.84209e-20
1.08331e-08 -1.12508e-07 -2.43555e-20
-4.34455e-09 2.63555e-09 5.50825e-21
-5.85604e-08 -1.09261e-07 -2.61882e-21
1.95563e-08 -1.67885e-08 2.08323e-20
-1.12999e-08 1.13809e-07 -1.14805e-20
2.73583e-08 -7.98637e-09 1.17898e-20
6.24076e-08 1.11227e-07 -2.97557e-23
6.24322e-08 -1.44976e-09 1.43116e-20
1.14247e-07 -3.37117e-07 -2.09351e-20
-2.41582e-08 -4.49517e-08 4.26825e-20
-1.0082e-07 4.39301e-08 -5.13269e-21
-1.40711e-08 6.87405e-09 2.25377e-20
9.57127e-08 6.40965e-08 -1.01262e-20
6.81571e-08 -3.76281e-08 2.44925e-20
3.5975e-08 1.57737e-08 -2.79965e-21
-7.34207e-09 6.23618e-09 -2.36207e-20
6.84229e-08 -1.05715e-07 2.43191e-21
-7.294e-08 -9.10293e-08 -3.92637e-21
9.40874e-08 3.71035e-08 2.70094e-20
2.38718e-08 -1.47297e-08 3.033e-20
4.40018e-08 -1.09356e-07 -1.79735e-20
5.16255e-08 -9.75948e-09 3.50791e-20
-5.01112e-08 -1.99772e-08 1.69864e-20
-2.16699e-09 -2.02602e-08 2.26514e-20
-1.15013e-07 1.59618e-08 6.38802e-21
1.20832e-08 1.00864e-07 -2.04979e-20
7.86202e-08 1.83303e-08 9.00483e-21
-8.93494e-08 -3.9981e-08 -4.23825e-20
-4.39633e-08 1.12691e-07 -3.96402e-20
-1.00538e-08 -9.82616e-08 1.6543e-20
2.58891e-08 1.26361e-08 1.84575e-20
-1.68726e-08 4.74494e-08 2.48505e-20
-8.03442e-08 5.76303e-08 -6.54883e-20
1.03227e-07 5.20745e-08 6.37815e-21
-4.69069e-08 -1.47049e-08 1.50964e-21
-1.14045e-08 -4.82878e-08 1.43878e-20
7.88719e-08 9.17018e-08 2.04604e-20
-1.8443e-08 -8.37226e-09 3.06868e-20
2.59909e-07 -1.86847e-07 8.46973e-21
5.48486e-08 -3.83879e-08 2.33711e-20
4.49059e-08 2.20073e-07 9.95862e-21
5.78553e-08 -5.56483e-08 1.80665e-20
-1.25563e-07 4.78177e-07 -4.73598e-20
-1.26288e-07 -4.73522e-07 2.53181e-20
3.10282e-07 4.07822e-07 -8.07211e-21
3.0644e-07 -4.0771e-07 2.43454e-20
5.07892e-07 -2.04647e-10 3.59319e-20
-4.37842e-07 1.76186e-07 9.0679e-21
-4.30584e-07 -1.78096e-07 -5.83591e-21
2.08167e-08 1.12613e-08 3.82e-20
1.33234e-08 6.48182e-09 2.01697e-20
3.88696e-08 5.2188e-09 2.45489e-20
6.86574e-08 3.66948e-08 3.88065e-21
2.03723e-08 8.11592e-08 -5.19006e-21
-7.36343e-08 -6.3273e-08 -1.15164e-20
3.70062e-08 -3.41531e-08 1.29893e-20
7.91206e-08 6.35139e-08 1.31681e-21
-1.83164e-08 9.99026e-08 -3.60113e-20
1.29177e-08 -6.35753e-09 2.1381e-20
1.86288e-08 -9.58637e-08 -3.87217e-21
2.42338e-08 1.63774e-08 1.33491e-20
1.42843e-07 5.0031e-08 2.02545e-20
3.13779e-09 1.02195e-08 -9.29637e-21
5.51149e-08 1.80264e-08 -7.78052e-21
-6.82407e-08 3.77412e-08 -2.97119e-20
-9.34755e-08 3.23238e-08 -2.44884e-20
1.84246e-08 -1.26227e-08 1.85751e-20
-5.96212e-08 -2.75784e-08 -7.86111e-21
-6.55338e-08 -3.88177e-08 -8.97609e-21
-5.75428e-09 -6.57553e-08 -1.05075e-20
2.56714e-10 -7.55564e-08 1.0167e-20
-8.32348e-08 -3.59589e-09 -4.60745e-20
1.23624e-07 -1.91969e-08 -6.28071e-21
6.6613e-08 4.10546e-08 -1.25833e-21
-5.50947e-08 3.75898e-08 -4.02134e-20
-2.47951e-08 1.21058e-08 7.94069e-23
6.21888e-08 -5.57331e-08 1.28754e-20
-4.67437e-08 7.27739e-08 -9.12159e-21
-5.75681e-08 -6.06399e-08 -1.16407e-20
-5.46047e-09 7.92339e-08 -1.79647e-20
-1.18693e-08 6.68372e-08 3.252e-20
1.94826e-09 -4.84843e-08 2.08164e-20
2.50528e-08 -8.0981e-08 -5.16302e-21
-4.0885e-08 -2.62375e-08 1.17666e-20
5.67035e-08 -1.61612e-08 6.51966e-21
1.30761e-10 7.91349e-08 2.65229e-21
-1.72427e-09 5.05082e-08 3.77618e-20
-1.27199e-08 5.68504e-08 3.38318e-20
9.31306e-08 -2.29196e-08 -8.98039e-21
-1.94801e-08 1.86562e-08 5.22197e-21
2.11076e-08 7.91934e-08 2.45242e-20
-1.26871e-08 8.00402e-09 -1.88604e-20
4.71128e-08 2.18492e-07 6.18677e-21
-2.29849e-08 1.24332e-08 2.63561e-21
2.43896e-08 -1.27016e-08 3.82117e-21
7.03889e-09 6.72636e-08 -1.81759e-20
-7.89277e-08 1.87316e-08 -6.38695e-21
-2.45285e-09 -3.41478e-08 4.08053e-20
3.29076e-09 -3.1186e-07 5.97029e-21
9.44842e-09 5.70239e-08 1.81168e-20
-5.8952e-08 5.60992e-08 9.00746e-21
9.17645e-08 3.41325e-07 2.51327e-21
4.34496e-09 2.87415e-09 3.40418e-20
3.75322e-09 -2.74041e-09 -6.79937e-21
4.43529e-08 -3.46062e-08 -1.8251e-20
-6.30321e-08 5.6435e-08 -5.2308e-21
-7.56266e-08 -2.23211e-08 1.03498e-20
-7.77416e-08 -2.55277e-08 -2.31837e-20
-1.63316e-09 1.01772e-09 5.93993e-20
-1.14877e-09 -6.02645e-10 4.35358e-21
3.62774e-08 7.35675e-09 3.37837e-20
1.15292e-08 5.29271e-08 1.17349e-20
-1.334e-09 5.26269e-08 1.81837e-20
-2.61183e-07 -1.89769e-07 -7.1977e-21
4.62531e-08 -7.27625e-08 -1.23803e-21
2.3348e-08 8.36165e-09 -1.84048e-20
-8.57958e-08 -9.21854e-09 -4.37389e-20
-5.4247e-08 7.16759e-08 -1.29915e-20
-7.0023e-08 3.2921e-08 -3.48333e-20
2.5647e-07 1.84237e-07 -3.26041e-20
2.52347e-08 1.66203e-08 1.44013e-21
-2.49105e-08 8.12733e-08 -4.48778e-20
-4.90335e-08 -4.20177e-08 1.31856e-21
1.2212e-08 -6.39636e-08 1.67066e-20
-3.97275e-08 -7.55579e-08 -2.5802e-20
-6.36271e-08 -4.36121e-08 -1.67811e-20
4.36183e-08 -7.73594e-08 4.50504e-20
5.23087e-08 -7.19133e-08 3.88013e-20
-1.6623e-08 -3.25344e-07 3.29918e-20
1.33693e-07 -2.13855e-07 1.23314e-20
6.37209e-09 -7.76954e-08 2.54597e-21
5.47526e-08 4.16992e-08 -3.84252e-21
-4.92045e-08 -5.97491e-08 -5.21132e-21
-4.2705e-08 7.95969e-08 -2.18553e-20
-2.62457e-08 7.79926e-08 -1.15834e-20
5.71114e-08 5.91695e-08 -1.3114e-21
2.80171e-08 -7.29472e-08 5.42329e-20
-7.25883e-08 -2.06947e-07 1.39955e-21
1.62854e-09 2.50043e-08 -2.60603e-21
5.78489e-08 5.95387e-08 -1.66875e-20
-3.11351e-08 -1.53006e-08 -1.4328e-20
-2.58592e-08 1.40875e-08 -1.17879e-20
2.32384e-07 -1.01808e-07 -4.97882e-21
2.87872e-08 -4.75755e-08 2.70498e-20
-2.73198e-08 -4.67466e-08 1.20255e-21
1.02855e-08 -9.03747e-10 3.70101e-21
8.2487e-10 -3.87392e-09 4.48021e-20
-2.89347e-09 -2.78809e-09 -8.07796e-21
1.26921e-08 8.36424e-09 -7.84521e-21
-4.00658e-08 -7.5621e-08 1.01338e-20
6.15854e-08 2.4685e-08 2.66131e-21
-1.50287e-07 -1.65219e-07 2.34024e-20
5.07889e-10 4.78011e-09 -8.17905e-21
5.79006e-10 9.72402e-10 3.71232e-20
1.18487e-09 -1.05348e-10 -1.2508e-20
1.44263e-07 -2.84957e-07 -1.4412e-20
-5.95797e-09 6.99588e-09 1.88443e-20
-1.34602e-09 8.47094e-09 -3.98934e-21
-6.19293e-08 2.19971e-08 -4.53325e-20
-2.15698e-09 2.50749e-08 1.86978e-20
-1.36219e-08 4.03277e-08 2.60615e-21
2.80266e-08 1.17354e-09 -1.45227e-20
6.3535e-09 2.41977e-08 1.32548e-20
-1.65526e-09 3.34651e-08 -1.83678e-20
4.80434e-08 2.61301e-08 1.29953e-20
3.45835e-09 3.10411e-07 -1.31843e-20
-4.47081e-08 4.23277e-08 2.33678e-20
3.34778e-08 -2.25457e-08 2.35982e-20
1.92896e-08 -1.76805e-08 4.71968e-20
-3.18319e-07 -4.37018e-08 9.78286e-21
-8.9835e-09 3.58738e-09 1.33632e-21
-2.31712e-07 -2.74089e-07 -2.49237e-21
4.14587e-09 1.12048e-08 6.51188e-21
4.0505e-08 7.84398e-09 1.55997e-20
1.20827e-07 -1.56724e-08 7.6624e-21
-2.75832e-08 -4.53219e-08 3.37759e-20
5.27223e-08 1.50964e-08 -2.67112e-21
2.39032e-10 -1.33679e-08 -1.48861e-20
-2.97077e-08 3.44114e-08 1.81023e-20
-1.13454e-08 -7.18006e-09 -1.25006e-21
-2.68306e-08 5.44642e-08 -2.84467e-20
4.86725e-09 3.43159e-08 -1.57389e-20
7.83891e-09 5.73046e-09 3.11097e-20
7.77505e-09 -5.5035e-09 -1.37603e-21
-2.15729e-07 -5.87638e-08 -1.35713e-20
2.36874e-08 8.80457e-09 -1.06296e-20
-2.85887e-08 5.53993e-07 -1.91758e-20
-1.96262e-09 -5.69146e-07 1.80434e-20
2.80127e-07 4.79631e-07 -1.55544e-20
-2.89245e-08 2.29783e-08 7.79407e-21
-1.48503e-07 2.98769e-07 -2.53118e-20
2.81749e-07 -4.62959e-07 -7.25701e-21
-4.64796e-08 -7.52303e-08 1.19147e-21
4.279e-07 3.74872e-07 8.43954e-21
4.97006e-09 -8.82441e-09 1.18726e-20
-5.18672e-09 -8.94039e-09 -9.26961e-21
4.48516e-07 -3.66512e-07 3.12976e-20
-2.74173e-08 5.38999e-08 -2.18463e-20
-2.81688e-07 -1.794e-07 6.14153e-21
-2.37613e-07 -4.95158e-07 2.5215e-20
-1.33059e-07 -3.06086e-07 9.80864e-21
-2.44272e-07 5.03401e-07 -7.27603e-21
-5.7716e-08 3.41113e-07 -1.35157e-20
-4.08077e-10 1.18341e-08 1.90232e-20
-1.48164e-07 1.90745e-07 -3.30893e-20
-1.41933e-07 -2.90402e-07 2.65184e-20
5.51694e-07 9.63119e-08 -1.15078e-21
-4.29762e-08 3.65597e-08 2.34336e-20
-9.85973e-10 2.40944e-08 4.10174e-20
-2.66846e-07 1.9318e-07 1.4582e-20
-4.76702e-08 2.54381e-08 -2.22352e-20
5.46295e-07 -8.56807e-08 2.29224e-20
-3.63644e-08 2.44289e-08 2.08626e-20
2.65233e-08 -5.48631e-08 3.35201e-20
-4.25106e-07 -3.22915e-07 1.21417e-20
-1.43342e-07 3.07124e-07 -5.10434e-20
-4.35419e-07 3.20551e-07 2.50327e-20
1.27225e-07 2.83892e-07 1.08524e-20
-4.6688e-08 3.71229e-08 8.89581e-21
-1.28952e-08 7.29097e-09 3.08131e-20
-6.8998e-10 -1.24372e-09 -2.66443e-21
2.92046e-10 -1.00338e-09 -1.10109e-20
3.56259e-09 3.72311e-08 -9.18565e-21
-1.02526e-09 1.24295e-09 7.42866e-20
6.5693e-10 1.44064e-09 1.09546e-20
1.02223e-09 -4.92443e-10 -6.86277e-21
-5.49509e-10 4.38449e-09 -6.65399e-21
-9.78691e-08 2.13519e-07 -3.55595e-20
-7.32023e-09 5.21138e-09 1.64759e-23
1.25766e-08 -7.96804e-09 3.56713e-20
1.23367e-08 -7.16017e-09 2.79796e-20
3.56987e-08 1.39072e-08 -5.33226e-21
-3.13444e-10 -3.75157e-09 9.15632e-20
-3.33827e-09 -1.71771e-09 1.35474e-20
1.23259e-08 7.19416e-09 2.17064e-20
3.16416e-07 -6.10204e-08 3.613e-20
-4.08833e-08 -5.21079e-08 -7.72474e-21
-2.76998e-07 1.93161e-07 -4.96244e-21
-2.47909e-07 2.82751e-07 -3.4297e-20
3.34168e-07 -1.2069e-07 1.84504e-20
-1.53189e-09 -4.64373e-09 4.88474e-20
-1.69083e-09 4.77172e-09 2.98872e-21
-5.2092e-09 9.56496e-10 5.02331e-20
-3.47473e-09 3.44552e-09 -3.94188e-20
-4.71709e-09 -1.06753e-09 2.97653e-20
7.9341e-10 1.17084e-09 1.79007e-20
5.05617e-09 -1.29966e-09 4.7462e-20
2.08273e-09 -1.51915e-09 -3.69042e-24
-1.59872e-09 -1.04101e-09 6.33349e-20
3.28034e-09 -3.2947e-09 6.65778e-20
3.29908e-09 3.39373e-09 5.85348e-20
-1.60864e-09 9.02091e-10 4.20027e-21
1.57357e-09 -4.1562e-10 1.5345e-20
2.66567e-09 1.50903e-09 2.87784e-20
5.88857e-09 2.16266e-09 1.52182e-20
SCALARS rr_necrosis float
LOOKUP_TABLE default
0
0
0
0
0
0
0
0
0
0
0
0
0
0
0
0
0
0
0
0
0
0
0
0
0
0
0
0
0
0
0
0
0
0
0
0
0
0
0
0
0
0
0
0
0
0
0
0
0
0
0
0
0
0
0
0
0
0
0
0
0
0
0
0
0
0
0
0
0
0
0
0
0
0
0
0
0
0
0
0
0
0
0
0
0
0
0
0
0
0
0
0
0
0
0
0
0
0
0
0
0
0
0
0
0
0
0
0
0
0
0
0
0
0
0
0
0
0
0
0
0
0
0
0
0
0
0
0
0
0
0
0
0
0
0
0
0
0
0
0
0
0
0
0
0
0
0
0
0
0
0
0
0
0
0
0
0
0
0
0
0
0
0
0
0
0
0
0
0
0
0
0
0
0
0
0
0
0
0
0
0
0
0
0
0
0
0
0
0
0
0
0
0
0
0
0
0
0
0
0
0
0
0
0
0
0
0
0
0
0
0
0
0
0
0
0
0
0
0
0
0
0
0
0
0
0
0
0
0
0
0
0
0
0
0
0
0
0
0
0
0
0
0
0
0
0
0
0
0
0
0
0
0
0
0
0
0
0
0
0
0
0
0
0
0
0
0
0
0
0
0
0
0
0
0
0
0
0
0
0
0
0
0
0
0
0
0
0
0
0
0
0
0
0
0
0
0
0
0
0
0
0
0
0
0
0
0
0
0
0
0
0
0
0
0
0
0
0
0
0
0
0
0
0
0
0
0
0
0
0
0
0
0
0
0
0
0
0
0
0
0
0
0
0
0
0
0
0
0
0
0
0
0
0
0
0
0
0
0
0
0
0
0
0
0
0
0
0
0
0
0
0
0
0
0
0
0
0
0
0
0
0
0
0
0
0
0
0
0
0
0
0
0
0
0
0
0
0
0
0
0
0
0
0
0
0
0
0
0
0
0
0
0
0
0
0
0
0
0
0
0
0
0
0
0
0
0
0
0
0
0
0
0
0
0
0
0
0
0
0
0
0
0
0
0
0
0
0
0
0
0
0
0
0
0
0
0
0
0
0
0
0
0
0
0
0
0
0
0
0
0
0
0
0
0
0
0
0
0
0
0
0
0
0
0
0
0
0
0
0
0
0
0
0
0
0
0
0
0
0
0
0
0
0
0
0
0
0
0
0
0
0
0
0
0
0
0
0
0
0
0
0
0
0
0
0
0
0
0
0
0
0
0
0
0
0
0
0
0
0
0
0
0
0
0
0
0
0
0
0
0
0
0
0
0
0
0
0
0
0
0
0
0
SCALARS rr_protein float
LOOKUP_TABLE default
1
1
1
1
1
1
1
1
1
1
1
1
1
1
1
1
1
1
1
1
1
1
1
1
1
1
1
1
1
1
1
1
1
1
1
1
1
1
1
1
1
1
1
1
1
1
1
1
1
1
1
1
1
1
1
1
1
1
1
1
1
1
1
1
1
1
1
1
1
1
1
1
1
1
1
1
1
1
1
1
1
1
1
1
1
1
1
1
1
1
1
1
1
1
1
1
1
1
1
1
1
1
1
1
1
1
1
1
1
1
1
1
1
1
1
1
1
1
1
1
1
1
1
1
1
1
1
1
1
1
1
1
1
1
1
1
1
1
1
1
1
1
1
1
1
1
1
1
1
1
1
1
1
1
1
1
1
1
1
1
1
1
1
1
1
1
1
1
1
1
1
1
1
1
1
1
1
1
1
1
1
1
1
1
1
1
1
1
1
1
1
1
1
1
1
1
1
1
1
1
1
1
1
1
1
1
1
1
1
1
1
1
1
1
1
1
1
1
1
1
1
1
1
1
1
1
1
1
1
1
1
1
1
1
1
1
1
1
1
1
1
1
1
1
1
1
1
1
1
1
1
1
1
1
1
1
1
1
1
1
1
1
1
1
1
1
1
1
1
1
1
1
1
1
1
1
1
1
1
1
1
1
1
1
1
1
1
1
1
1
1
1
1
1
1
1
1
1
1
1
1
1
1
1
1
1
1
1
1
1
1
1
1
1
1
1
1
1
1
1
1
1
1
1
1
1
1
1
1
1
1
1
1
1
1
1
1
1
1
1
1
1
1
1
1
1
1
1
1
1
1
1
1
1
1
1
1
1
1
1
1
1
1
1
1
1
1
1
1
1
1
1
1
1
1
1
1
1
1
1
1
1
1
1
1
1
1
1
1
1
1
1
1
1
1
1
1
1
1
1
1
1
1
1
1
1
1
1
1
1
1
1
1
1
1
1
1
1
1
1
1
1
1
1
1
1
1
1
1
1
1
1
1
1
1
1
1
1
1
1
1
1
1
1
1
1
1
1
1
1
1
1
1
1
1
1
1
1
1
1
1
1
1
1
1
1
1
1
1
1
1
1
1
1
1
1
1
1
1
1
1
1
1
1
1
1
1
1
1
1
1
1
1
1
1
1
1
1
1
1
1
1
1
1
1
1
1
1
1
1
1
1
1
1
1
1
1
1
1
1
1
1
1
1
1
1
1
1
1
1
1
1
1
1
1
1
1
1
1
1
1
1
1
1
1
1
1
1
1
1
1
1
1
1
1
1
1
1
1
1
1
1
1
SCALARS rr_(S_ext) float
LOOKUP_TABLE default
0.69434
0.695201
0.695127
0.695184
0.695438
0.695126
0.694336
0.69518
0.695056
0.6952
0.694372
0.69518
0.695162
0.695213
0.695349
0.695141
0.695244
0.695167
0.695013
0.695104
0.695096
0.695752
0.695093
0.695106
0.695103
0.695181
0.694507
0.695138
0.694774
0.695564
0.695159
0.694776
0.694496
0.695509
0.695539
0.695508
0.695573
0.695527
0.695158
0.694499
0.694772
0.695576
0.695575
0.695159
0.694573
0.694788
0.695033
0.69507
0.695129
0.694718
0.694751
0.694865
0.695422
0.694869
0.695415
0.694609
0.695541
0.694869
0.69554
0.695108
0.695239
0.695318
0.694569
0.695315
0.695319
0.695247
0.695242
0.695182
0.695099
0.695204
0.695421
0.69542
0.694772
0.695276
0.695131
0.694456
0.695369
0.695246
0.695181
0.694883
0.694706
0.695466
0.695279
0.694678
0.694804
0.694587
0.695137
0.695263
0.694574
0.695709
0.694867
0.695708
0.695373
0.695238
0.694876
0.694741
0.694708
0.695198
0.695368
0.695154
0.694966
0.694825
0.694676
0.695173
0.695191
0.695192
0.695291
0.695147
0.694675
0.695212
0.695109
0.694603
0.694644
0.695169
0.695188
0.694872
0.695542
0.694706
0.69554
0.694875
0.694995
0.695338
0.6952
0.695261
0.695219
0.695356
0.695509
0.695198
0.694708
0.694875
0.69542
0.695194
0.695274
0.695197
0.694827
0.695541
0.694661
0.695168
0.695279
0.69554
0.694836
0.695207
0.69501
0.695201
0.694702
0.695184
0.695193
0.695131
0.695126
0.694939
0.695067
0.6952
0.694773
0.695163
0.6952
0.695195
0.695227
0.694846
0.694848
0.695159
0.695072
0.69478
0.694597
0.694749
0.694843
0.695193
0.694845
0.694844
0.694774
0.694845
0.695375
0.694868
0.694749
0.695235
0.694871
0.695288
0.695374
0.69518
0.695427
0.695196
0.694776
0.695197
0.695196
0.694837
0.695264
0.694743
0.695261
0.695294
0.69538
0.695198
0.695265
0.694718
0.69487
0.694775
0.695196
0.695163
0.695167
0.695273
0.695198
0.695244
0.695201
0.695025
0.694889
0.695272
0.694778
0.695278
0.695247
0.694819
0.69533
0.695202
0.69534
0.69522
0.695188
0.69528
0.694941
0.695228
0.694899
0.695293
0.695217
0.695217
0.695206
0.69521
0.695211
0.69521
0.695208
0.695342
0.695339
0.695342
0.695343
0.695418
0.695418
0.694935
0.695209
0.695174
0.695067
0.69535
0.695353
0.695177
0.694891
0.69517
0.695199
0.694945
0.695331
0.694941
0.695283
0.695166
0.694947
0.694902
0.694703
0.694704
0.695279
0.694689
0.695152
0.694898
0.695019
0.695169
0.695215
0.695583
0.695212
0.694685
0.694898
0.695173
0.69518
0.694887
0.695214
0.695015
0.695581
0.6949
0.695219
0.695257
0.695167
0.695347
0.695261
0.695423
0.69516
0.694619
0.694587
0.695399
0.695096
0.69518
0.694944
0.695333
0.695235
0.694899
0.695239
0.69497
0.695198
0.694971
0.694893
0.695653
0.695383
0.69535
0.695348
0.695207
0.694977
0.695499
0.695253
0.695074
0.69498
0.694953
0.695397
0.694945
0.695375
0.694963
0.694575
0.694975
0.694698
0.695295
0.694945
0.695652
0.694962
0.695275
0.694935
0.695266
0.69496
0.695138
0.694558
0.695118
0.694943
0.695392
0.694938
0.695074
0.695269
0.695203
0.694961
0.694976
0.695012
0.695296
0.694974
0.695181
0.695138
0.695422
0.694977
0.695008
0.695088
0.695018
0.694967
0.695019
0.695323
0.695177
0.695012
0.694941
0.695203
0.695205
0.694971
0.695421
0.694342
0.695137
0.694704
0.695092
0.693848
0.69385
0.693854
0.693851
0.693852
0.69385
0.693855
0.695299
0.695476
0.695161
0.69507
0.695018
0.695017
0.695198
0.695011
0.695006
0.695479
0.695017
0.695338
0.694867
0.695327
0.695124
0.695069
0.695014
0.695402
0.695137
0.695075
0.695138
0.695075
0.695007
0.69488
0.695068
0.695129
0.69534
0.695028
0.694999
0.695024
0.695062
0.695126
0.695198
0.695023
0.695197
0.695117
0.695065
0.695182
0.695119
0.695013
0.695264
0.695083
0.695468
0.694576
0.695298
0.695323
0.695127
0.695087
0.695244
0.694354
0.695125
0.695082
0.694563
0.69565
0.695653
0.695135
0.695018
0.695093
0.695028
0.695794
0.695792
0.69518
0.695184
0.695179
0.694356
0.695004
0.695278
0.695067
0.695059
0.695064
0.694335
0.695261
0.695013
0.695134
0.695134
0.695057
0.695073
0.695057
0.695065
0.694504
0.694699
0.695073
0.695136
0.695084
0.695054
0.695079
0.69509
0.695084
0.694578
0.695352
0.695022
0.695242
0.695265
0.694573
0.695128
0.69512
0.695423
0.695639
0.695638
0.695383
0.695002
0.695132
0.694563
0.69562
0.695768
0.695767
0.694325
0.695527
0.695564
0.695123
0.69537
0.69516
0.695205
0.695266
0.695291
0.695181
0.694351
0.695143
0.695236
0.695276
0.69445
0.695535
0.694551
0.695271
0.695211
0.694955
0.695157
0.695177
0.695427
0.695187
0.695426
0.695134
0.695278
0.695551
0.695558
0.694568
0.695217
0.694322
0.694342
0.6943
0.695261
0.694345
0.69428
0.695055
0.69431
0.695469
0.695468
0.694326
0.695086
0.69451
0.69432
0.69449
0.694317
0.69449
0.695532
0.694534
0.694348
0.694322
0.695174
0.69531
0.694476
0.695175
0.694284
0.695203
0.695092
0.69431
0.694462
0.694295
0.694325
0.695117
0.695483
0.695749
0.695738
0.695217
0.695747
0.695746
0.695742
0.695671
0.694551
0.695544
0.69539
0.695486
0.695207
0.695691
0.69569
0.695503
0.694314
0.695084
0.694334
0.694538
0.694538
0.695609
0.695606
0.695601
0.695603
0.695608
0.695736
0.695606
0.695692
0.695756
0.695614
0.695615
0.69576
0.695738
0.695695
0.695598
SCALARS rr_(P_ext) float
LOOKUP_TABLE default
0.00899833
0.00894652
0.00895105
0.00894741
0.00893353
0.00895115
0.00899849
0.00894806
0.00895539
0.00894672
0.00899497
0.00894805
0.00894911
0.00894604
0.0089383
0.0089503
0.00894419
0.00894863
0.0089577
0.00895235
0.00895305
0.00891584
0.008953
0.00895227
0.00895242
0.00894777
0.00898773
0.00895048
0.00897186
0.00892629
0.00894928
0.00897174
0.00898847
0.00892936
0.00892782
0.00892941
0.00892572
0.00892847
0.00894936
0.00898832
0.00897198
0.00892552
0.00892557
0.00894926
0.0089835
0.00897112
0.00895661
0.00895454
0.00895095
0.00897507
0.0089732
0.00896657
0.00893425
0.00896643
0.00893466
0.00898192
0.0089277
0.00896642
0.00892775
0.00895209
0.00894438
0.00894011
0.0089844
0.00894037
0.00894003
0.00894422
0.00894421
0.00894774
0.00895268
0.00894636
0.00893436
0.00893439
0.008972
0.00894261
0.00895089
0.00899068
0.00893734
0.00894426
0.00894778
0.00896539
0.00897612
0.00893191
0.00894222
0.00897758
0.00897034
0.00898292
0.00895049
0.00894341
0.00898343
0.00891839
0.00896651
0.00891847
0.00893705
0.0089448
0.00896604
0.00897369
0.00897604
0.0089468
0.00893741
0.00894957
0.00896067
0.00896911
0.00897768
0.00894815
0.00894725
0.00894713
0.0089416
0.00894999
0.00897777
0.00894576
0.00895203
0.00898182
0.00897949
0.00894845
0.00894737
0.00896627
0.00892777
0.00897626
0.00892791
0.00896608
0.00895885
0.00893888
0.00894654
0.00894328
0.0089454
0.00893786
0.00892955
0.00894681
0.00897604
0.00896604
0.00893434
0.00894687
0.00894247
0.00894668
0.00896904
0.00892768
0.0089789
0.00894877
0.00894219
0.00892773
0.00896846
0.00894658
0.00895806
0.00894668
0.00897648
0.00894759
0.00894735
0.00895097
0.00895113
0.00896222
0.00895466
0.00894654
0.00897185
0.00894903
0.00894671
0.00894682
0.00894528
0.00896795
0.00896779
0.00894913
0.00895445
0.00897147
0.00898221
0.0089732
0.008968
0.00894709
0.00896798
0.00896806
0.00897183
0.00896789
0.00893692
0.00896643
0.00897328
0.00894481
0.00896632
0.00894178
0.00893697
0.00894808
0.00893406
0.00894707
0.00897179
0.00894687
0.00894691
0.00896837
0.00894332
0.00897362
0.00894331
0.00894152
0.00893674
0.00894679
0.00894324
0.00897549
0.00896634
0.00897177
0.00894674
0.00894882
0.00894855
0.00894252
0.00894661
0.0089444
0.0089465
0.00895706
0.00896502
0.00894257
0.00897172
0.00894224
0.00894427
0.00896939
0.00893947
0.00894643
0.00893901
0.00894576
0.00894739
0.00894217
0.00896204
0.00894535
0.00896451
0.00894155
0.00894549
0.00894551
0.00894608
0.00894585
0.00894582
0.00894587
0.00894636
0.00893865
0.00893879
0.00893864
0.00893858
0.00893458
0.00893455
0.00896242
0.00894621
0.00894787
0.00895477
0.00893829
0.0089381
0.00894773
0.00896488
0.00894806
0.00894678
0.00896183
0.0089394
0.00896207
0.00894203
0.00894825
0.00896172
0.00896427
0.00897625
0.00897587
0.00894217
0.00897725
0.00894966
0.00896454
0.00895739
0.00894812
0.0089456
0.00892526
0.00894574
0.00897761
0.00896452
0.0089479
0.00894806
0.00896514
0.00894564
0.00895781
0.00892531
0.00896442
0.00894538
0.00894358
0.00894855
0.00893841
0.00894354
0.00893428
0.00894915
0.00898105
0.00898295
0.00893569
0.00895293
0.00894807
0.00896204
0.00893932
0.00894485
0.00896447
0.00894471
0.00896049
0.00894713
0.00896045
0.00896477
0.00892131
0.00893644
0.00893815
0.00893824
0.00894637
0.00896008
0.00892992
0.00894378
0.00895429
0.0089599
0.00896153
0.00893572
0.00896187
0.00893704
0.00896098
0.00898336
0.00896018
0.00897675
0.00894141
0.00896183
0.00892136
0.00896096
0.0089426
0.00896243
0.00894307
0.0089611
0.00895049
0.00898526
0.00895151
0.00896198
0.00893593
0.00896223
0.00895427
0.00894305
0.00894636
0.00896104
0.00896013
0.00895795
0.00894149
0.00896021
0.00894807
0.00895046
0.00893438
0.00896013
0.0089582
0.00895351
0.00895765
0.00896068
0.00895753
0.00893995
0.00894819
0.00895798
0.00896207
0.00894675
0.00894665
0.0089604
0.00893444
0.0089968
0.00895064
0.00897619
0.00895329
0.0090243
0.00902424
0.00902392
0.00902405
0.00902388
0.0090244
0.00902419
0.00894124
0.0089313
0.00894899
0.00895451
0.00895742
0.00895768
0.00894711
0.008958
0.00895827
0.00893119
0.00895769
0.00893913
0.00896651
0.00893943
0.00895127
0.00895459
0.00895788
0.00893559
0.00895064
0.00895423
0.00895058
0.00895417
0.0089581
0.00896559
0.00895461
0.0089511
0.00893898
0.00895693
0.00895857
0.00895714
0.00895492
0.00895124
0.00894704
0.00895719
0.00894713
0.00895168
0.00895478
0.00894796
0.00895155
0.00895781
0.00894311
0.00895375
0.00893173
0.00898332
0.00894126
0.00893996
0.00895119
0.0089536
0.00894434
0.00899616
0.00895122
0.00895384
0.00898496
0.00892164
0.0089215
0.00895067
0.00895747
0.00895322
0.00895691
0.00891381
0.00891381
0.00894793
0.00894788
0.00894813
0.00899629
0.00895827
0.00894238
0.00895477
0.00895521
0.00895483
0.00899711
0.00894337
0.00895773
0.00895082
0.0089508
0.00895528
0.0089543
0.00895529
0.00895486
0.00898798
0.00897663
0.00895434
0.00895072
0.0089537
0.00895549
0.00895403
0.00895341
0.0089537
0.0089833
0.00893824
0.00895721
0.00894447
0.00894311
0.00898363
0.008951
0.00895145
0.00893436
0.00892196
0.00892199
0.00893647
0.00895838
0.00895094
0.00898415
0.00892304
0.00891497
0.008915
0.00899769
0.00892848
0.00892627
0.00895145
0.00893728
0.00894905
0.0089464
0.00894296
0.0089417
0.00894807
0.00899629
0.00895019
0.00894488
0.00894248
0.00899099
0.00892792
0.00898586
0.00894267
0.00894625
0.00896131
0.00894933
0.00894828
0.00893394
0.00894759
0.00893399
0.00895072
0.00894242
0.00892711
0.00892678
0.00898399
0.00894573
0.00899931
0.00899835
0.00900046
0.00894341
0.00899688
0.00900152
0.00895544
0.00899991
0.00893174
0.00893178
0.0089991
0.00895343
0.00898783
0.0089996
0.00898881
0.0089998
0.00898882
0.0089282
0.00898588
0.00899667
0.00899921
0.00894849
0.00894059
0.00898963
0.00894837
0.00900118
0.00894673
0.0089531
0.00900016
0.0089904
0.00900093
0.00899769
0.00895167
0.00893091
0.00891589
0.00891655
0.00894586
0.00891602
0.00891604
0.00891631
0.00892029
0.0089849
0.00892744
0.00893612
0.00893086
0.00894649
0.00891923
0.00891926
0.00892995
0.00899824
0.00895358
0.00899759
0.00898669
0.00898631
0.00892363
0.00892377
0.00892412
0.008924
0.00892367
0.00891679
0.00892401
0.00891922
0.00891577
0.00892353
0.00892347
0.00891557
0.00891662
0.00891903
0.00892441
SCALARS rr_(S) float
LOOKUP_TABLE default
0.583974
0.584431
0.584391
0.584421
0.584567
0.58439
0.583972
0.584419
0.584352
0.584431
0.583987
0.58442
0.58441
0.584438
0.584516
0.584398
0.584455
0.584413
0.584329
0.584378
0.584374
0.58475
0.584373
0.58438
0.584377
0.58442
0.58406
0.584397
0.584201
0.584641
0.584408
0.584202
0.584055
0.584609
0.584625
0.584608
0.584645
0.584618
0.584408
0.584056
0.5842
0.584647
0.584647
0.584408
0.584094
0.584208
0.58434
0.58436
0.584392
0.584171
0.584189
0.58425
0.584558
0.584252
0.584554
0.584114
0.584626
0.584252
0.584625
0.58438
0.584453
0.584497
0.584094
0.584496
0.584498
0.584458
0.584454
0.584421
0.584375
0.584433
0.584557
0.584556
0.5842
0.584474
0.584392
0.584033
0.584527
0.584457
0.58442
0.584259
0.584165
0.584583
0.584476
0.58415
0.584217
0.584102
0.584396
0.584467
0.584094
0.584726
0.584251
0.584726
0.584529
0.584453
0.584256
0.584183
0.584167
0.584429
0.584526
0.584405
0.584304
0.584229
0.584149
0.584415
0.584426
0.584426
0.584483
0.584402
0.584149
0.584437
0.584381
0.58411
0.584132
0.584413
0.584423
0.584254
0.584627
0.584166
0.584626
0.584255
0.584319
0.584509
0.58443
0.584465
0.584442
0.58452
0.584609
0.58443
0.584167
0.584255
0.584557
0.584427
0.584472
0.584429
0.58423
0.584627
0.584142
0.584414
0.584476
0.584626
0.584235
0.584436
0.584328
0.584431
0.584164
0.584421
0.584428
0.584394
0.58439
0.584289
0.584359
0.584431
0.5842
0.58441
0.584431
0.584427
0.584446
0.58424
0.584241
0.584407
0.584361
0.584204
0.584107
0.584188
0.584239
0.584426
0.584239
0.584239
0.584201
0.58424
0.584531
0.584252
0.584188
0.58445
0.584253
0.584481
0.58453
0.584421
0.58456
0.584429
0.584202
0.584428
0.584428
0.584235
0.584467
0.584184
0.584465
0.584484
0.584534
0.584429
0.584468
0.584172
0.584252
0.584201
0.584428
0.584409
0.584412
0.584472
0.58443
0.584456
0.584431
0.584335
0.584262
0.584471
0.584203
0.584475
0.584458
0.584226
0.584505
0.584432
0.584511
0.584443
0.584424
0.584476
0.584291
0.584447
0.584267
0.584484
0.584441
0.58444
0.584434
0.584436
0.584437
0.584436
0.584436
0.584511
0.58451
0.584512
0.584512
0.584556
0.584556
0.584287
0.584436
0.584416
0.584358
0.584517
0.584518
0.584418
0.584264
0.584413
0.58443
0.584293
0.584506
0.584291
0.584478
0.584411
0.584293
0.584269
0.584164
0.584164
0.584476
0.584157
0.584404
0.584267
0.584333
0.584413
0.584439
0.584651
0.584437
0.584155
0.584267
0.584415
0.58442
0.584261
0.584439
0.58433
0.58465
0.584268
0.584442
0.584463
0.584412
0.584515
0.584466
0.584558
0.584408
0.584119
0.584102
0.584545
0.584374
0.58442
0.584292
0.584507
0.58445
0.584267
0.584453
0.584306
0.584431
0.584306
0.584265
0.584693
0.584535
0.584517
0.584515
0.584434
0.58431
0.584603
0.584461
0.584363
0.584311
0.584297
0.584543
0.584292
0.584531
0.584302
0.584095
0.584309
0.584162
0.584485
0.584292
0.584692
0.584302
0.584474
0.584287
0.584469
0.584301
0.584397
0.584089
0.584385
0.584291
0.584541
0.584289
0.584363
0.58447
0.584432
0.584301
0.584309
0.584329
0.584486
0.584308
0.584421
0.584397
0.584557
0.584309
0.584326
0.58437
0.584332
0.584304
0.584333
0.584501
0.584418
0.584328
0.58429
0.584433
0.584434
0.584307
0.584557
0.583971
0.584397
0.584165
0.584372
0.583706
0.583707
0.583709
0.583708
0.583708
0.583708
0.58371
0.584487
0.58459
0.58441
0.58436
0.584332
0.584331
0.584431
0.584328
0.584326
0.584592
0.584331
0.584509
0.584251
0.584503
0.584389
0.584359
0.584329
0.584547
0.584397
0.584363
0.584397
0.584363
0.584325
0.584257
0.584359
0.584392
0.58451
0.584337
0.584321
0.584335
0.584356
0.584391
0.58443
0.584334
0.58443
0.584386
0.584357
0.584421
0.584386
0.584329
0.584467
0.584367
0.584584
0.584096
0.584487
0.584502
0.584391
0.584369
0.584456
0.583978
0.58439
0.584367
0.584091
0.584691
0.584693
0.584396
0.584332
0.584373
0.584337
0.584775
0.584774
0.584419
0.584422
0.58442
0.583979
0.584324
0.584475
0.584358
0.584354
0.584357
0.583967
0.584466
0.584329
0.584395
0.584395
0.584353
0.584362
0.584353
0.584358
0.584059
0.584162
0.584361
0.584396
0.584368
0.584351
0.584365
0.584371
0.584368
0.584097
0.584518
0.584334
0.584454
0.584468
0.584094
0.584391
0.584386
0.584558
0.584684
0.584683
0.584536
0.584323
0.584394
0.584089
0.584674
0.584759
0.584758
0.583962
0.584618
0.58464
0.584389
0.584527
0.584408
0.584434
0.584468
0.584483
0.584421
0.583976
0.5844
0.584452
0.584474
0.58403
0.584623
0.584085
0.58447
0.584437
0.584298
0.584406
0.584419
0.584561
0.584424
0.58456
0.584394
0.584475
0.584634
0.584638
0.584091
0.584441
0.583965
0.583976
0.583952
0.584466
0.583973
0.583942
0.584352
0.583958
0.584584
0.584584
0.583967
0.584368
0.584062
0.583964
0.584051
0.583962
0.584051
0.584621
0.584074
0.583975
0.583965
0.584417
0.584493
0.584044
0.584418
0.583943
0.584433
0.584372
0.583959
0.584036
0.58395
0.583962
0.584386
0.584593
0.584748
0.584742
0.584441
0.584747
0.584747
0.584744
0.584703
0.584082
0.584628
0.58454
0.584595
0.584435
0.584715
0.584714
0.584605
0.583956
0.584367
0.583967
0.584079
0.584078
0.584667
0.584665
0.584662
0.584663
0.584666
0.584741
0.584666
0.584717
0.584753
0.58467
0.584671
0.584755
0.584742
0.584717
0.584661
SCALARS rr_(P) float
LOOKUP_TABLE default
0.0105901
0.0105632
0.0105656
0.0105636
0.0105565
0.0105656
0.0105902
0.010564
0.0105678
0.0105633
0.0105882
0.010564
0.0105646
0.010563
0.0105589
0.0105652
0.010562
0.0105643
0.010569
0.0105662
0.0105666
0.0105473
0.0105666
0.0105662
0.0105663
0.0105639
0.0105845
0.0105653
0.0105763
0.0105527
0.0105647
0.0105763
0.0105849
0.0105543
0.0105535
0.0105543
0.0105524
0.0105538
0.0105647
0.0105849
0.0105764
0.0105523
0.0105523
0.0105647
0.0105823
0.010576
0.0105685
0.0105674
0.0105655
0.010578
0.010577
0.0105736
0.0105568
0.0105736
0.010557
0.0105816
0.0105534
0.0105736
0.0105535
0.0105661
0.0105621
0.0105599
0.0105829
0.01056
0.0105598
0.010562
0.010562
0.0105638
0.0105664
0.0105631
0.0105569
0.0105569
0.0105764
0.0105612
0.0105655
0.0105861
0.0105584
0.010562
0.0105639
0.010573
0.0105786
0.0105556
0.0105609
0.0105793
0.0105756
0.0105821
0.0105653
0.0105616
0.0105823
0.0105486
0.0105736
0.0105487
0.0105583
0.0105623
0.0105734
0.0105773
0.0105785
0.0105633
0.0105585
0.0105648
0.0105706
0.010575
0.0105794
0.010564
0.0105636
0.0105635
0.0105606
0.010565
0.0105794
0.0105628
0.0105661
0.0105815
0.0105803
0.0105642
0.0105637
0.0105735
0.0105535
0.0105787
0.0105536
0.0105734
0.0105696
0.0105592
0.0105632
0.0105615
0.0105626
0.0105587
0.0105544
0.0105634
0.0105785
0.0105734
0.0105568
0.0105634
0.0105611
0.0105633
0.0105749
0.0105534
0.01058
0.0105644
0.0105609
0.0105534
0.0105746
0.0105633
0.0105692
0.0105633
0.0105788
0.0105638
0.0105636
0.0105655
0.0105656
0.0105714
0.0105675
0.0105632
0.0105763
0.0105645
0.0105633
0.0105633
0.0105626
0.0105744
0.0105743
0.0105646
0.0105674
0.0105761
0.0105817
0.010577
0.0105744
0.0105635
0.0105744
0.0105744
0.0105763
0.0105743
0.0105582
0.0105736
0.0105771
0.0105623
0.0105735
0.0105607
0.0105582
0.010564
0.0105567
0.0105635
0.0105763
0.0105634
0.0105634
0.0105746
0.0105616
0.0105773
0.0105615
0.0105606
0.0105581
0.0105633
0.0105615
0.0105783
0.0105735
0.0105763
0.0105633
0.0105644
0.0105643
0.0105611
0.0105632
0.0105621
0.0105632
0.0105687
0.0105728
0.0105611
0.0105763
0.010561
0.010562
0.0105751
0.0105595
0.0105631
0.0105593
0.0105628
0.0105637
0.0105609
0.0105713
0.0105626
0.0105726
0.0105606
0.0105626
0.0105626
0.0105629
0.0105628
0.0105628
0.0105628
0.0105631
0.0105591
0.0105592
0.0105591
0.010559
0.010557
0.010557
0.0105715
0.010563
0.0105639
0.0105675
0.0105589
0.0105588
0.0105638
0.0105727
0.0105639
0.0105633
0.0105712
0.0105595
0.0105713
0.0105609
0.010564
0.0105711
0.0105724
0.0105786
0.0105784
0.0105609
0.0105792
0.0105649
0.0105726
0.0105689
0.010564
0.0105627
0.0105522
0.0105628
0.0105794
0.0105725
0.0105639
0.010564
0.0105729
0.0105627
0.0105691
0.0105522
0.0105725
0.0105626
0.0105617
0.0105643
0.010559
0.0105617
0.0105568
0.0105646
0.0105811
0.0105821
0.0105576
0.0105666
0.010564
0.0105713
0.0105595
0.0105624
0.0105725
0.0105623
0.0105705
0.0105635
0.0105705
0.0105727
0.0105502
0.010558
0.0105588
0.0105589
0.0105631
0.0105703
0.0105546
0.0105618
0.0105673
0.0105702
0.010571
0.0105576
0.0105712
0.0105583
0.0105708
0.0105823
0.0105703
0.0105789
0.0105605
0.0105712
0.0105502
0.0105707
0.0105612
0.0105715
0.0105614
0.0105708
0.0105653
0.0105833
0.0105658
0.0105712
0.0105577
0.0105714
0.0105672
0.0105614
0.0105631
0.0105708
0.0105703
0.0105692
0.0105606
0.0105703
0.010564
0.0105653
0.0105569
0.0105703
0.0105693
0.0105669
0.010569
0.0105706
0.0105689
0.0105598
0.0105641
0.0105692
0.0105713
0.0105633
0.0105633
0.0105704
0.0105569
0.0105892
0.0105654
0.0105786
0.0105667
0.0106032
0.0106032
0.010603
0.0106031
0.010603
0.0106033
0.0106032
0.0105605
0.0105553
0.0105645
0.0105674
0.0105689
0.010569
0.0105635
0.0105692
0.0105693
0.0105552
0.010569
0.0105594
0.0105736
0.0105595
0.0105657
0.0105674
0.0105691
0.0105575
0.0105654
0.0105672
0.0105653
0.0105672
0.0105692
0.0105731
0.0105674
0.0105656
0.0105593
0.0105686
0.0105695
0.0105687
0.0105676
0.0105657
0.0105635
0.0105688
0.0105635
0.0105659
0.0105675
0.010564
0.0105658
0.0105691
0.0105614
0.010567
0.0105555
0.0105822
0.0105605
0.0105598
0.0105657
0.0105669
0.0105621
0.0105888
0.0105657
0.010567
0.0105832
0.0105504
0.0105503
0.0105654
0.0105689
0.0105667
0.0105686
0.0105463
0.0105463
0.0105639
0.0105639
0.0105641
0.0105889
0.0105693
0.010561
0.0105675
0.0105678
0.0105675
0.0105893
0.0105616
0.010569
0.0105655
0.0105655
0.0105678
0.0105673
0.0105678
0.0105676
0.0105847
0.0105788
0.0105673
0.0105654
0.010567
0.0105679
0.0105671
0.0105668
0.010567
0.0105822
0.0105589
0.0105688
0.0105622
0.0105614
0.0105824
0.0105655
0.0105658
0.0105569
0.0105505
0.0105505
0.010558
0.0105694
0.0105655
0.0105827
0.010551
0.0105469
0.0105469
0.0105896
0.0105538
0.0105527
0.0105658
0.0105584
0.0105645
0.0105631
0.0105613
0.0105607
0.010564
0.0105889
0.0105651
0.0105624
0.0105611
0.0105862
0.0105535
0.0105837
0.0105612
0.0105631
0.0105709
0.0105647
0.0105641
0.0105566
0.0105638
0.0105567
0.0105654
0.0105611
0.0105531
0.0105529
0.0105826
0.0105628
0.0105906
0.0105901
0.0105912
0.0105616
0.0105892
0.0105917
0.0105679
0.0105909
0.0105555
0.0105556
0.0105905
0.0105668
0.0105846
0.0105908
0.0105851
0.0105909
0.0105851
0.0105537
0.0105836
0.0105891
0.0105905
0.0105643
0.0105601
0.0105855
0.0105642
0.0105915
0.0105633
0.0105666
0.010591
0.0105859
0.0105914
0.0105896
0.0105659
0.0105551
0.0105473
0.0105477
0.0105629
0.0105474
0.0105474
0.0105475
0.0105496
0.0105831
0.0105533
0.0105578
0.0105551
0.0105632
0.0105491
0.0105491
0.0105546
0.0105899
0.0105669
0.0105896
0.0105841
0.0105839
0.0105513
0.0105514
0.0105515
0.0105515
0.0105513
0.0105478
0.0105515
0.0105491
0.0105473
0.0105512
0.0105512
0.0105472
0.0105477
0.010549
0.0105517
SCALARS rr_(T) float
LOOKUP_TABLE default
0.0212077
0.0212298
0.0212276
0.0212291
0.021239
0.0212276
0.0212076
0.0212292
0.0212255
0.0212297
0.0212084
0.0212292
0.0212286
0.0212303
0.0212355
0.0212278
0.0212315
0.0212288
0.0212245
0.0212269
0.0212267
0.0212523
0.0212267
0.021227
0.0212269
0.0212293
0.0212117
0.0212281
0.0212183
0.0212444
0.0212285
0.0212183
0.0212114
0.0212422
0.0212431
0.0212422
0.0212448
0.0212426
0.0212285
0.0212115
0.0212182
0.0212449
0.0212449
0.0212285
0.0212133
0.0212186
0.021225
0.0212259
0.0212278
0.0212169
0.0212177
0.0212206
0.0212384
0.0212206
0.0212381
0.0212142
0.0212432
0.0212206
0.0212431
0.0212271
0.0212313
0.0212341
0.0212133
0.021234
0.0212341
0.0212318
0.0212315
0.0212293
0.0212268
0.0212299
0.0212384
0.0212383
0.0212182
0.0212328
0.0212276
0.0212104
0.0212362
0.0212317
0.0212293
0.0212211
0.0212166
0.02124
0.0212328
0.0212159
0.021219
0.0212136
0.0212281
0.0212323
0.0212134
0.0212507
0.0212206
0.0212506
0.0212365
0.0212315
0.0212208
0.0212175
0.0212166
0.0212296
0.0212362
0.0212284
0.0212232
0.0212195
0.0212159
0.0212289
0.0212297
0.0212294
0.0212334
0.0212282
0.0212158
0.0212302
0.0212271
0.021214
0.0212151
0.0212288
0.0212292
0.0212207
0.0212432
0.0212165
0.0212431
0.0212208
0.021224
0.021235
0.0212298
0.021232
0.0212305
0.0212359
0.0212419
0.0212296
0.0212166
0.0212208
0.0212385
0.0212296
0.0212326
0.0212297
0.0212195
0.0212433
0.0212154
0.021229
0.0212328
0.0212432
0.0212198
0.0212303
0.0212244
0.02123
0.0212164
0.0212293
0.02123
0.0212279
0.0212275
0.0212225
0.021226
0.0212298
0.0212183
0.0212286
0.0212299
0.0212296
0.0212308
0.02122
0.02122
0.0212284
0.021226
0.0212184
0.0212139
0.0212177
0.02122
0.0212294
0.02122
0.0212199
0.0212183
0.02122
0.0212366
0.0212206
0.0212176
0.021231
0.0212207
0.0212333
0.0212365
0.0212295
0.0212385
0.0212299
0.0212183
0.0212295
0.0212296
0.0212198
0.0212323
0.0212175
0.021232
0.0212334
0.0212367
0.0212296
0.0212324
0.0212168
0.0212207
0.0212183
0.0212296
0.0212286
0.0212288
0.0212325
0.0212297
0.0212316
0.0212298
0.0212247
0.0212212
0.0212325
0.0212183
0.0212327
0.0212318
0.0212194
0.0212349
0.0212299
0.0212351
0.0212308
0.0212295
0.0212328
0.0212226
0.0212311
0.0212214
0.0212334
0.0212304
0.0212304
0.02123
0.0212301
0.0212301
0.0212301
0.0212302
0.0212352
0.0212351
0.0212352
0.0212352
0.0212383
0.0212383
0.0212224
0.0212302
0.0212288
0.0212257
0.0212355
0.0212356
0.0212289
0.0212213
0.0212286
0.0212296
0.0212226
0.021235
0.0212225
0.0212329
0.0212285
0.0212227
0.0212215
0.0212165
0.0212166
0.0212327
0.0212161
0.0212282
0.0212214
0.0212247
0.0212286
0.0212303
0.0212452
0.0212302
0.021216
0.0212214
0.0212287
0.0212294
0.0212211
0.0212303
0.0212245
0.0212452
0.0212214
0.0212305
0.0212319
0.0212287
0.0212354
0.0212323
0.0212385
0.0212285
0.0212145
0.0212136
0.0212376
0.0212266
0.0212294
0.0212225
0.0212351
0.021231
0.0212214
0.0212315
0.0212232
0.0212301
0.0212232
0.0212213
0.0212482
0.0212369
0.0212356
0.0212355
0.0212301
0.0212234
0.0212418
0.0212317
0.0212261
0.0212235
0.0212227
0.0212375
0.0212226
0.0212365
0.0212229
0.0212134
0.0212234
0.0212163
0.0212336
0.0212226
0.0212482
0.021223
0.0212328
0.0212223
0.0212323
0.0212229
0.0212278
0.021213
0.0212273
0.0212225
0.0212374
0.0212225
0.0212263
0.0212324
0.0212299
0.021223
0.0212234
0.0212245
0.0212335
0.0212233
0.0212293
0.0212281
0.0212384
0.0212233
0.0212243
0.0212266
0.0212245
0.0212231
0.0212246
0.0212347
0.0212292
0.0212244
0.0212226
0.0212302
0.0212302
0.0212233
0.0212383
0.0212077
0.0212281
0.0212165
0.0212267
0.0211953
0.0211953
0.0211955
0.0211954
0.0211954
0.0211953
0.0211954
0.0212337
0.0212408
0.0212287
0.0212261
0.0212246
0.0212245
0.02123
0.0212244
0.0212243
0.0212409
0.0212245
0.021235
0.0212206
0.0212346
0.0212277
0.021226
0.0212244
0.0212376
0.0212281
0.0212262
0.0212281
0.0212263
0.0212242
0.021221
0.0212261
0.0212278
0.0212351
0.0212249
0.021224
0.0212247
0.0212259
0.0212277
0.0212301
0.0212247
0.0212301
0.0212274
0.021226
0.0212295
0.0212274
0.0212244
0.0212322
0.0212264
0.0212404
0.0212134
0.0212336
0.0212347
0.0212278
0.0212264
0.0212316
0.0212079
0.0212277
0.0212263
0.0212131
0.0212481
0.0212482
0.0212281
0.0212246
0.0212266
0.0212249
0.021254
0.021254
0.0212291
0.0212295
0.0212295
0.021208
0.0212242
0.0212326
0.0212258
0.0212256
0.0212259
0.0212075
0.0212323
0.0212244
0.0212279
0.021228
0.0212255
0.0212261
0.0212255
0.0212258
0.0212116
0.0212164
0.0212261
0.0212281
0.0212264
0.0212254
0.0212262
0.0212266
0.0212264
0.0212134
0.0212357
0.0212247
0.0212315
0.0212324
0.0212133
0.0212276
0.0212273
0.0212384
0.0212478
0.0212477
0.021237
0.0212241
0.021228
0.021213
0.021247
0.0212529
0.0212529
0.0212072
0.0212426
0.0212445
0.0212276
0.0212363
0.0212285
0.0212299
0.0212323
0.0212334
0.0212295
0.0212079
0.021228
0.0212312
0.0212326
0.0212103
0.0212432
0.0212128
0.0212324
0.0212302
0.0212229
0.0212283
0.0212293
0.0212388
0.0212295
0.0212388
0.0212277
0.0212328
0.021244
0.0212442
0.0212131
0.0212305
0.0212074
0.0212079
0.0212068
0.0212322
0.0212077
0.0212063
0.0212254
0.0212071
0.0212401
0.0212401
0.0212075
0.0212264
0.0212117
0.0212073
0.0212113
0.0212072
0.0212113
0.0212429
0.0212123
0.0212078
0.0212074
0.0212292
0.021234
0.0212109
0.0212293
0.0212064
0.0212302
0.0212266
0.021207
0.0212106
0.0212066
0.0212072
0.0212275
0.0212409
0.0212523
0.0212518
0.0212307
0.0212522
0.0212522
0.021252
0.0212491
0.0212128
0.0212437
0.0212373
0.021241
0.0212304
0.0212499
0.0212499
0.0212416
0.021207
0.0212263
0.0212074
0.0212125
0.0212126
0.0212465
0.0212464
0.0212461
0.0212462
0.0212464
0.0212517
0.0212462
0.02125
0.0212525
0.0212466
0.0212467
0.0212526
0.0212517
0.02125
0.0212461
SCALARS rr_tsim float
LOOKUP_TABLE default
70
70
70
70
70
70
70
70
70
70
70
70
70
70
70
70
70
70
70
70
70
70
70
70
70
70
70
70
70
70
70
70
70
70
70
70
70
70
70
70
70
70
70
70
70
70
70
70
70
70
70
70
70
70
70
70
70
70
70
70
70
70
70
70
70
70
70
70
70
70
70
70
70
70
70
70
70
70
70
70
70
70
70
70
70
70
70
70
70
70
70
70
70
70
70
70
70
70
70
70
70
70
70
70
70
70
70
70
70
70
70
70
70
70
70
70
70
70
70
70
70
70
70
70
70
70
70
70
70
70
70
70
70
70
70
70
70
70
70
70
70
70
70
70
70
70
70
70
70
70
70
70
70
70
70
70
70
70
70
70
70
70
70
70
70
70
70
70
70
70
70
70
70
70
70
70
70
70
70
70
70
70
70
70
70
70
70
70
70
70
70
70
70
70
70
70
70
70
70
70
70
70
70
70
70
70
70
70
70
70
70
70
70
70
70
70
70
70
70
70
70
70
70
70
70
70
70
70
70
70
70
70
70
70
70
70
70
70
70
70
70
70
70
70
70
70
70
70
70
70
70
70
70
70
70
70
70
70
70
70
70
70
70
70
70
70
70
70
70
70
70
70
70
70
70
70
70
70
70
70
70
70
70
70
70
70
70
70
70
70
70
70
70
70
70
70
70
70
70
70
70
70
70
70
70
70
70
70
70
70
70
70
70
70
70
70
70
70
70
70
70
70
70
70
70
70
70
70
70
70
70
70
70
70
70
70
70
70
70
70
70
70
70
70
70
70
70
70
70
70
70
70
70
70
70
70
70
70
70
70
70
70
70
70
70
70
70
70
70
70
70
70
70
70
70
70
70
70
70
70
70
70
70
70
70
70
70
70
70
70
70
70
70
70
70
70
70
70
70
70
70
70
70
70
70
70
70
70
70
70
70
70
70
70
70
70
70
70
70
70
70
70
70
70
70
70
70
70
70
70
70
70
70
70
70
70
70
70
70
70
70
70
70
70
70
70
70
70
70
70
70
70
70
70
70
70
70
70
70
70
70
70
70
70
70
70
70
70
70
70
70
70
70
70
70
70
70
70
70
70
70
70
70
70
70
70
70
70
70
70
70
70
70
70
70
70
70
70
70
70
70
70
70
70
70
70
70
70
70
70
70
70
70
70
70
70
70
70
70
70
70
70
70
70
70
70
70
70
70
70
70
70
70
70
70
70
70
70
70
70
70
70
70
70
70
70
70
70
70
70
70
70
70
70
70
70
70
70
70
70
70
70
70
SCALARS rr_Vext float
LOOKUP_TABLE default
0.181363
0.449144
0.356064
0.468131
0.2505
0.377845
0.179279
0.46511
0.395124
0.504588
0.165393
0.466529
0.409844
0.435032
0.516155
0.424884
0.369059
0.414203
0.365547
0.360543
0.405127
0.0765117
0.415088
0.383031
0.347121
0.403489
0.155014
0.35285
0.267423
0.339255
0.361985
0.276495
0.171525
0.252908
0.249254
0.253459
0.330134
0.249497
0.361556
0.192842
0.224729
0.291057
0.291067
0.39729
0.216892
0.244129
0.344627
0.350199
0.330094
0.303772
0.312865
0.245246
0.401531
0.315219
0.369427
0.157759
0.266185
0.317529
0.266157
0.393202
0.470949
0.464891
0.15328
0.327655
0.445331
0.417391
0.455674
0.391922
0.358001
0.51558
0.435569
0.430805
0.277664
0.338758
0.353988
0.176431
0.372689
0.413494
0.395187
0.271143
0.240499
0.283515
0.527553
0.240259
0.327773
0.119295
0.407598
0.344623
0.229713
0.0374834
0.273103
0.0407613
0.316369
0.299324
0.258669
0.232991
0.220916
0.44295
0.372924
0.351871
0.293548
0.27778
0.230486
0.418595
0.426156
0.383849
0.34064
0.340863
0.244637
0.512542
0.326041
0.164044
0.220064
0.457899
0.429738
0.304494
0.308639
0.183515
0.320044
0.303378
0.266997
0.502668
0.511833
0.442058
0.484547
0.384966
0.220821
0.478231
0.200086
0.262289
0.22751
0.456415
0.449042
0.448269
0.288948
0.187542
0.190645
0.327454
0.404485
0.187464
0.241551
0.387306
0.287981
0.472778
0.223283
0.385207
0.349746
0.336142
0.214799
0.269557
0.304312
0.440646
0.248036
0.397428
0.462009
0.469264
0.307869
0.249018
0.247666
0.401154
0.333867
0.246126
0.160081
0.239713
0.240476
0.430975
0.252358
0.25511
0.27463
0.245948
0.386357
0.258193
0.226067
0.297726
0.272822
0.340319
0.382131
0.361148
0.313987
0.36086
0.266577
0.418265
0.448872
0.241624
0.442317
0.239448
0.436813
0.402753
0.378979
0.379431
0.446245
0.200781
0.266938
0.246026
0.447429
0.43904
0.407217
0.447912
0.452972
0.38188
0.46659
0.307729
0.274121
0.512752
0.285558
0.465972
0.369976
0.226663
0.286352
0.461745
0.389049
0.350322
0.450075
0.445274
0.27887
0.284233
0.267553
0.395468
0.433438
0.498114
0.47811
0.520393
0.471579
0.51531
0.432073
0.457219
0.460668
0.434371
0.456374
0.422932
0.416649
0.282422
0.389427
0.454316
0.312134
0.47029
0.432172
0.492682
0.288258
0.468298
0.448697
0.284512
0.406928
0.28248
0.455256
0.411308
0.296267
0.277689
0.235561
0.271106
0.455791
0.197508
0.347036
0.276539
0.313916
0.468693
0.455568
0.147792
0.457124
0.236439
0.261775
0.466291
0.379043
0.264595
0.522205
0.291243
0.147783
0.267735
0.406416
0.508943
0.382706
0.457772
0.425172
0.226622
0.216741
0.175984
0.201434
0.308145
0.229085
0.371997
0.227534
0.406407
0.287634
0.268112
0.323966
0.293534
0.398538
0.281498
0.287607
0.136373
0.303582
0.437826
0.438074
0.391541
0.281127
0.192364
0.5459
0.360503
0.29833
0.274302
0.284985
0.282741
0.358855
0.278103
0.192065
0.274803
0.183502
0.35108
0.279588
0.127094
0.263732
0.32135
0.279326
0.443687
0.290722
0.381484
0.138318
0.305675
0.287025
0.261633
0.269328
0.322005
0.308735
0.32106
0.266575
0.271175
0.293871
0.403617
0.276107
0.399039
0.358802
0.290806
0.286486
0.290134
0.323386
0.289924
0.270128
0.308542
0.333041
0.387882
0.290181
0.286365
0.42516
0.419265
0.276223
0.290844
0.117371
0.342077
0.227686
0.319694
0.126306
0.131125
0.117235
0.119131
0.126413
0.133078
0.137188
0.365832
0.27521
0.269674
0.305546
0.296219
0.292419
0.314722
0.286005
0.292399
0.310832
0.291326
0.368801
0.261073
0.378847
0.289115
0.27759
0.291608
0.322775
0.329007
0.304708
0.351063
0.326044
0.300402
0.213983
0.303872
0.298874
0.328292
0.305321
0.28853
0.275047
0.304075
0.319104
0.436178
0.283317
0.424017
0.438677
0.298876
0.42288
0.322488
0.255688
0.356807
0.30733
0.229511
0.185276
0.353362
0.377152
0.313445
0.259553
0.317025
0.138207
0.309876
0.289524
0.140573
0.0597497
0.0653765
0.268662
0.283305
0.33137
0.316599
0.0311312
0.0325289
0.318193
0.321555
0.304254
0.103726
0.264737
0.315915
0.315654
0.272086
0.240291
0.107866
0.464483
0.284957
0.352174
0.357686
0.255173
0.323458
0.249485
0.275491
0.129742
0.199387
0.323818
0.327763
0.280336
0.293575
0.30367
0.320517
0.306421
0.143965
0.275788
0.301365
0.290895
0.437503
0.143862
0.233741
0.240582
0.23453
0.155627
0.155631
0.267707
0.208515
0.301885
0.15386
0.185529
0.0614174
0.0614149
0.112312
0.199638
0.134974
0.25701
0.284547
0.297818
0.337014
0.307429
0.285242
0.222224
0.127174
0.278061
0.290591
0.282448
0.144133
0.147648
0.104631
0.281958
0.285982
0.224189
0.25826
0.238721
0.223797
0.292922
0.223764
0.257214
0.251395
0.15805
0.195245
0.165313
0.310658
0.112708
0.11892
0.115941
0.294544
0.107692
0.104735
0.200924
0.0979339
0.243161
0.243516
0.100661
0.255455
0.113725
0.110991
0.127158
0.10586
0.105726
0.174209
0.126244
0.112777
0.106279
0.235819
0.272668
0.118747
0.260326
0.0960785
0.264798
0.20818
0.100553
0.0864372
0.0948713
0.126463
0.22556
0.192185
0.0824435
0.0914084
0.253866
0.0775868
0.0775836
0.0878727
0.0979636
0.0995878
0.127337
0.207539
0.193799
0.253777
0.0775254
0.0775221
0.229258
0.0843484
0.178721
0.0765207
0.0783434
0.103274
0.198599
0.2056
0.218911
0.200663
0.198584
0.043893
0.320387
0.0557545
0.0543424
0.259013
0.257243
0.0563352
0.0390577
0.0548053
0.238565
SCALARS rr_Vli float
LOOKUP_TABLE default
0.396489
0.903311
0.721413
0.942917
0.493008
0.765675
0.392037
0.937684
0.806278
1.01513
0.359838
0.940556
0.827714
0.874166
1.02413
0.859741
0.739405
0.835927
0.748807
0.732064
0.823492
0.146196
0.843749
0.777637
0.704897
0.813152
0.333352
0.714267
0.560615
0.659807
0.731235
0.579535
0.369275
0.494397
0.485909
0.495511
0.641462
0.4869
0.730492
0.415068
0.471216
0.565334
0.565394
0.802526
0.463327
0.511153
0.704671
0.713582
0.66869
0.640149
0.657322
0.509715
0.79129
0.654962
0.728507
0.336097
0.518812
0.659764
0.518796
0.798057
0.943877
0.925042
0.327843
0.652226
0.886021
0.836206
0.913012
0.789785
0.727299
1.03672
0.858516
0.849161
0.582217
0.676861
0.716979
0.381185
0.738168
0.82845
0.796432
0.562487
0.507629
0.556454
1.05352
0.508337
0.685392
0.254581
0.825087
0.689496
0.490665
0.0719438
0.567535
0.0782465
0.626357
0.600267
0.537115
0.489907
0.466222
0.891227
0.738716
0.711159
0.604225
0.57968
0.487754
0.844123
0.858093
0.772725
0.679555
0.689389
0.517764
1.02966
0.661687
0.349482
0.467064
0.923834
0.865449
0.632499
0.601618
0.387415
0.624007
0.629999
0.547967
0.998325
1.02949
0.88429
0.972871
0.763262
0.431754
0.96225
0.422257
0.544653
0.448458
0.918493
0.897122
0.901836
0.602906
0.365541
0.404186
0.660941
0.807743
0.365417
0.503544
0.778944
0.590249
0.951073
0.471536
0.776076
0.704332
0.680964
0.435253
0.556275
0.620255
0.88632
0.519988
0.802508
0.929455
0.944276
0.617862
0.518663
0.515719
0.810208
0.680215
0.515665
0.341242
0.503644
0.500934
0.867527
0.525651
0.531449
0.575703
0.512242
0.764777
0.53648
0.47502
0.597034
0.566765
0.679109
0.756461
0.728168
0.618518
0.726383
0.558766
0.841648
0.903317
0.503628
0.884794
0.503414
0.873819
0.803294
0.749924
0.7634
0.892553
0.423349
0.554577
0.515697
0.900223
0.886313
0.821723
0.894916
0.911209
0.765281
0.93843
0.629683
0.568299
1.02455
0.598478
0.930565
0.741288
0.473246
0.569205
0.928587
0.772737
0.703615
0.906448
0.889149
0.575336
0.570479
0.554207
0.788793
0.87039
1.0003
0.96103
1.0456
0.947465
1.0354
0.868724
0.907709
0.914781
0.862355
0.905944
0.833939
0.821525
0.583012
0.782806
0.915921
0.636247
0.933133
0.857221
0.993039
0.597483
0.944383
0.902768
0.586744
0.808811
0.582782
0.908868
0.829739
0.610888
0.574988
0.497311
0.572068
0.910114
0.417619
0.701492
0.572853
0.642721
0.945271
0.914981
0.286929
0.918308
0.500202
0.542265
0.940115
0.764211
0.548656
1.04889
0.596684
0.28693
0.554507
0.815989
1.01857
0.772245
0.908478
0.850834
0.446605
0.437759
0.374438
0.429888
0.608691
0.465566
0.750003
0.469391
0.807679
0.576825
0.555348
0.649556
0.604003
0.802288
0.579186
0.596028
0.263021
0.60045
0.868521
0.869141
0.78722
0.578071
0.376391
1.09287
0.73431
0.613267
0.565374
0.562965
0.583131
0.710468
0.572685
0.4102
0.565175
0.387696
0.700135
0.576607
0.245151
0.543084
0.642122
0.576627
0.887253
0.598806
0.772185
0.296225
0.619812
0.59207
0.517046
0.555824
0.655888
0.617323
0.645559
0.549018
0.557655
0.602205
0.804997
0.567878
0.804518
0.726253
0.573161
0.589136
0.594784
0.657852
0.593803
0.556002
0.631816
0.662555
0.782191
0.594659
0.590818
0.855299
0.84332
0.568308
0.573284
0.25609
0.692611
0.480633
0.650113
0.287608
0.298551
0.266804
0.271173
0.287684
0.303058
0.312312
0.729353
0.539729
0.544573
0.622613
0.606509
0.598941
0.633528
0.586139
0.599492
0.609476
0.59672
0.732668
0.542552
0.753117
0.586012
0.565707
0.597474
0.637474
0.666122
0.620601
0.710726
0.664006
0.615751
0.444045
0.619306
0.60558
0.652012
0.624645
0.591876
0.562879
0.620026
0.64673
0.877929
0.579865
0.85356
0.889752
0.609286
0.852441
0.653938
0.523848
0.713553
0.625434
0.450406
0.395669
0.704478
0.750323
0.63521
0.528056
0.635261
0.301238
0.62803
0.589274
0.300915
0.115299
0.126127
0.544012
0.580105
0.673746
0.647671
0.0592776
0.0619391
0.641406
0.648096
0.61349
0.226115
0.542812
0.631021
0.643426
0.555022
0.489885
0.235471
0.929295
0.583741
0.713242
0.724393
0.52059
0.658857
0.508997
0.561655
0.279104
0.421181
0.659641
0.663718
0.570442
0.599133
0.618265
0.651902
0.623532
0.30743
0.547103
0.61684
0.583023
0.874913
0.307371
0.47354
0.487761
0.462246
0.300517
0.300537
0.52956
0.427598
0.611544
0.329009
0.358879
0.117177
0.117176
0.2454
0.389623
0.262496
0.521058
0.563546
0.60142
0.677656
0.614665
0.569077
0.448042
0.277253
0.562554
0.582808
0.564255
0.311559
0.287927
0.224286
0.56346
0.574858
0.461948
0.521755
0.48146
0.440841
0.590103
0.440803
0.520829
0.502154
0.307814
0.380031
0.353397
0.623991
0.246787
0.259981
0.254335
0.589291
0.234983
0.23014
0.410015
0.214646
0.477126
0.477848
0.220335
0.519618
0.244576
0.243124
0.273904
0.231959
0.227741
0.339833
0.2707
0.245998
0.232679
0.475755
0.543009
0.256118
0.525115
0.211013
0.532697
0.423225
0.220456
0.186665
0.208256
0.276321
0.457473
0.376612
0.157552
0.174884
0.509993
0.148308
0.148306
0.168049
0.18863
0.213208
0.248116
0.410278
0.379765
0.510348
0.149005
0.149004
0.448516
0.184463
0.363615
0.16715
0.168152
0.221556
0.384552
0.398198
0.424217
0.388782
0.384542
0.0840107
0.620736
0.107164
0.103829
0.501448
0.497969
0.107597
0.0747333
0.105301
0.462546
SCALARS rr_S_ext' float
LOOKUP_TABLE default
-0.00205058
-0.00468542
-0.00374104
-0.0048906
-0.002559
-0.00397054
-0.00202753
-0.00486336
-0.00418012
-0.00526539
-0.0018613
-0.00487825
-0.00429274
-0.0045344
-0.00531444
-0.00445857
-0.00383573
-0.00433542
-0.00388164
-0.00379598
-0.00426992
-0.000759529
-0.00437494
-0.00403231
-0.0036551
-0.00421749
-0.00172506
-0.00370407
-0.00290377
-0.00342601
-0.00379236
-0.00300178
-0.00191089
-0.00256672
-0.0025229
-0.0025725
-0.00333085
-0.00252797
-0.00378848
-0.00214787
-0.0024407
-0.00293558
-0.00293588
-0.00416209
-0.00239823
-0.0026477
-0.00365308
-0.00369972
-0.00346764
-0.00331511
-0.00340441
-0.00264093
-0.00410707
-0.00339353
-0.00378112
-0.00173987
-0.00269375
-0.0034184
-0.00269366
-0.00413823
-0.00489638
-0.00479983
-0.0016969
-0.00338422
-0.00459738
-0.00433792
-0.00473631
-0.00409632
-0.00377121
-0.00537744
-0.00445597
-0.00440741
-0.00301564
-0.00351161
-0.00371809
-0.00197226
-0.00383075
-0.00429768
-0.00413077
-0.00291453
-0.0026287
-0.00288858
-0.00546581
-0.00263214
-0.0035504
-0.0013178
-0.00427877
-0.003577
-0.00253975
-0.000373714
-0.00294053
-0.000406452
-0.00325054
-0.00311385
-0.002783
-0.00253726
-0.0024143
-0.0046227
-0.00383358
-0.00368817
-0.00313166
-0.00300302
-0.00252554
-0.00437804
-0.00445071
-0.00400797
-0.00352574
-0.00357519
-0.00268092
-0.00534096
-0.00343111
-0.00180914
-0.00241815
-0.00479139
-0.00448885
-0.00327718
-0.00312369
-0.00200618
-0.00323991
-0.00326425
-0.00284035
-0.00518035
-0.00533987
-0.00458758
-0.00504646
-0.00396081
-0.00224151
-0.00499108
-0.00218663
-0.00282204
-0.00232762
-0.00476407
-0.00465432
-0.00467771
-0.00312336
-0.00189793
-0.00209271
-0.00342788
-0.00419067
-0.00189729
-0.0026087
-0.00404037
-0.00305966
-0.00493313
-0.00244176
-0.00402524
-0.00365318
-0.00353129
-0.00225708
-0.00288288
-0.00321581
-0.00459726
-0.00269333
-0.00416205
-0.00482099
-0.00489781
-0.00320506
-0.00268711
-0.00267188
-0.00420194
-0.00352674
-0.002671
-0.00176645
-0.00260847
-0.00259524
-0.0044997
-0.00272331
-0.00275334
-0.00298192
-0.00265384
-0.00396889
-0.00277964
-0.00246022
-0.0030971
-0.00293658
-0.0035234
-0.00392573
-0.00377667
-0.00321038
-0.00376761
-0.00289422
-0.00436552
-0.00468538
-0.00260914
-0.00459021
-0.00260723
-0.00453326
-0.00416778
-0.00389187
-0.00395968
-0.00463048
-0.00219235
-0.00287341
-0.00267112
-0.00466934
-0.0045967
-0.00426177
-0.00464287
-0.00472634
-0.00396996
-0.00486757
-0.00326426
-0.00294472
-0.00531541
-0.00309993
-0.00482789
-0.00384551
-0.00245159
-0.00295357
-0.00481652
-0.00400979
-0.00364979
-0.00470149
-0.00461304
-0.00298169
-0.00295926
-0.00287179
-0.00409254
-0.00451485
-0.0051887
-0.00498485
-0.0054236
-0.00491458
-0.00537071
-0.00450608
-0.0047102
-0.00474686
-0.00447485
-0.00470105
-0.00432835
-0.00426392
-0.0030214
-0.00406044
-0.00475041
-0.00329873
-0.00484221
-0.00444834
-0.00515042
-0.00309596
-0.00489799
-0.00468256
-0.00304085
-0.00419687
-0.00302028
-0.00471538
-0.00430333
-0.003166
-0.00297951
-0.00257525
-0.0029624
-0.00472182
-0.00216246
-0.00363802
-0.0029684
-0.00333177
-0.00490258
-0.00474613
-0.00148995
-0.00476336
-0.00259005
-0.0028099
-0.00487588
-0.00396362
-0.00284292
-0.00544073
-0.00309306
-0.00148995
-0.00287336
-0.00423269
-0.00528414
-0.00400516
-0.00471424
-0.00441397
-0.00231804
-0.00227033
-0.00193842
-0.00222524
-0.00315908
-0.00241404
-0.00388993
-0.00243264
-0.00419101
-0.00299226
-0.0028777
-0.00336957
-0.00313055
-0.00416131
-0.00300194
-0.00308844
-0.00136608
-0.00311618
-0.00450695
-0.00451015
-0.00408332
-0.00299622
-0.00195403
-0.00566951
-0.00380724
-0.00317867
-0.00293017
-0.00292177
-0.00302212
-0.00368704
-0.00296816
-0.00212326
-0.00292935
-0.00200758
-0.00363257
-0.00298831
-0.00127325
-0.00281474
-0.00333136
-0.00298832
-0.004603
-0.00310351
-0.00400445
-0.00153318
-0.00321407
-0.00306843
-0.0026834
-0.00288053
-0.00340063
-0.00320265
-0.0033485
-0.00284547
-0.00289039
-0.00312166
-0.00417662
-0.00294336
-0.00417267
-0.00376625
-0.0029749
-0.00305356
-0.00308315
-0.00341096
-0.00307817
-0.00288173
-0.00327524
-0.00343786
-0.00405685
-0.00308255
-0.00306192
-0.00443638
-0.00437426
-0.00294555
-0.00297554
-0.00132451
-0.00359176
-0.00248889
-0.00337088
-0.00148508
-0.00154159
-0.00137769
-0.00140023
-0.0014855
-0.00156486
-0.00161267
-0.00378419
-0.00280179
-0.0028243
-0.00322806
-0.00314405
-0.0031048
-0.003286
-0.00303837
-0.00310755
-0.00316388
-0.00309328
-0.00380184
-0.00281108
-0.00390783
-0.00303883
-0.00293301
-0.00309716
-0.00330849
-0.0034544
-0.00321769
-0.00368571
-0.00344274
-0.00319185
-0.0023008
-0.00321089
-0.00314036
-0.00338335
-0.00323816
-0.00306801
-0.00291794
-0.00321458
-0.00335372
-0.00455367
-0.00300598
-0.00442726
-0.00461381
-0.00315892
-0.00442125
-0.00339103
-0.0027155
-0.00370185
-0.00324284
-0.00233806
-0.00204805
-0.00365514
-0.00389326
-0.00329398
-0.00273797
-0.00329547
-0.00155809
-0.00325674
-0.00305534
-0.00155748
-0.000598831
-0.000655073
-0.00282113
-0.00300718
-0.00349344
-0.00335754
-0.000307996
-0.000321824
-0.0033267
-0.00336142
-0.00318188
-0.00116953
-0.00281372
-0.00327381
-0.00333595
-0.00287754
-0.00253987
-0.00121785
-0.00482103
-0.00302598
-0.00369872
-0.00375654
-0.002699
-0.00341603
-0.0026389
-0.00291197
-0.00144432
-0.00218099
-0.00342008
-0.0034419
-0.00295772
-0.00310618
-0.00320562
-0.00338014
-0.00323298
-0.00159132
-0.00283906
-0.00319764
-0.00302447
-0.00453898
-0.00159098
-0.00245565
-0.00252932
-0.00239921
-0.00156076
-0.00156086
-0.00274826
-0.00221649
-0.0031713
-0.00170293
-0.00186376
-0.000608792
-0.000608789
-0.00126916
-0.0020229
-0.001363
-0.002702
-0.00292455
-0.00311913
-0.00351499
-0.00318885
-0.00295256
-0.00232379
-0.00143402
-0.00291739
-0.00302329
-0.00292741
-0.00161198
-0.00149492
-0.00116081
-0.00292325
-0.00298183
-0.00239416
-0.00270593
-0.00249709
-0.00228814
-0.00306068
-0.00228794
-0.00270093
-0.00260524
-0.00159824
-0.00197324
-0.00182918
-0.00323674
-0.00127627
-0.00134459
-0.00131521
-0.00305716
-0.00121535
-0.00119001
-0.00212571
-0.00111
-0.0024768
-0.00248055
-0.00113949
-0.00269422
-0.00126566
-0.00125731
-0.00141734
-0.00119956
-0.00117847
-0.00176442
-0.00140099
-0.00127234
-0.00120331
-0.00246748
-0.00281747
-0.00132525
-0.00272349
-0.00109113
-0.00276306
-0.00219447
-0.00114004
-0.000965822
-0.0010769
-0.00142907
-0.00237224
-0.00195509
-0.00081852
-0.000908527
-0.00264541
-0.000770485
-0.000770478
-0.000873035
-0.000979747
-0.0011035
-0.00128825
-0.00212927
-0.00197146
-0.00264716
-0.00077398
-0.000773974
-0.0023285
-0.000953971
-0.00188533
-0.000864482
-0.000870243
-0.00114664
-0.00199702
-0.00206788
-0.00220296
-0.00201895
-0.00199697
-0.000436434
-0.00322351
-0.000556642
-0.000539419
-0.0026041
-0.00258604
-0.000559
-0.000388242
-0.000546975
-0.00240196
SCALARS rr_P_ext' float
LOOKUP_TABLE default
0.000101221
0.000234252
0.000186831
0.000244457
0.000128351
0.000198288
0.000100079
0.000243059
0.000208538
0.000263236
9.19503e-05
0.000243804
0.000214486
0.00022673
0.000266237
0.000222706
0.000191881
0.000216642
0.000193536
0.000189515
0.000213141
3.82633e-05
0.000218384
0.000201317
0.000182478
0.000210794
8.53747e-05
0.00018501
0.000144276
0.000172143
0.000189477
0.00014915
9.45544e-05
0.000128869
0.000126719
0.000129158
0.000167385
0.000126953
0.000189279
0.000106285
0.000121264
0.00014753
0.000147543
0.000207951
0.000118814
0.000131577
0.00018219
0.000184611
0.000173182
0.000164583
0.000169094
0.000131388
0.000205958
0.000168837
0.000189594
8.62321e-05
0.000135305
0.000170074
0.000135298
0.000206614
0.000244927
0.000240352
8.40511e-05
0.000169455
0.000230218
0.000217003
0.00023693
0.000204739
0.000188263
0.00026886
0.000223449
0.000221012
0.000149829
0.000175736
0.000185693
9.75373e-05
0.000191956
0.000214988
0.000206459
0.000145041
0.000130472
0.000144939
0.000273557
0.000130595
0.000176471
6.52967e-05
0.000213715
0.000178974
0.000125827
1.88151e-05
0.000146296
2.04629e-05
0.000162893
0.000155747
0.000138475
0.000126008
0.000119833
0.000231101
0.000192095
0.000184258
0.000156029
0.00014931
0.000125302
0.000218797
0.000222479
0.000200353
0.000176486
0.000178595
0.000133009
0.000267074
0.000171311
8.96664e-05
0.000119921
0.000239437
0.000224378
0.000163055
0.000156897
9.95712e-05
0.000162729
0.000162419
0.000141578
0.000259483
0.00026697
0.000229544
0.00025237
0.000198446
0.000112537
0.000249517
0.000108533
0.000140417
0.00011672
0.000238163
0.000232929
0.000233857
0.000155296
9.53314e-05
0.000103798
0.000171288
0.00020974
9.52979e-05
0.000129725
0.000202001
0.00015254
0.000246628
0.000121183
0.000201193
0.000182609
0.00017636
0.000112719
0.000143579
0.000160458
0.000229842
0.00013382
0.00020796
0.00024102
0.000244852
0.00016029
0.000133641
0.000132889
0.000209947
0.000175983
0.000132723
8.75424e-05
0.00012956
0.00012907
0.000224937
0.00013544
0.000136931
0.00014816
0.000131988
0.000198898
0.000138294
0.000122194
0.000154909
0.000146106
0.000176361
0.000196733
0.000188748
0.000161
0.000188341
0.000143804
0.000218241
0.000234228
0.00012975
0.000229675
0.000129485
0.000226825
0.00020863
0.000195047
0.000197956
0.000231694
0.000108832
0.000142963
0.000132719
0.000233435
0.000229688
0.000212966
0.000232353
0.000236292
0.000198587
0.000243359
0.00016278
0.000146557
0.000266007
0.000154028
0.000241629
0.000192368
0.000121884
0.000147923
0.000240811
0.000200845
0.000182511
0.000235006
0.00023088
0.000148506
0.000147995
0.000142946
0.000204862
0.000225779
0.000259476
0.000249247
0.0002712
0.000245749
0.000268555
0.000225296
0.000235946
0.000237774
0.000224157
0.000235492
0.000217037
0.000213807
0.000150471
0.000203022
0.00023742
0.000164592
0.00024258
0.000222859
0.000257421
0.00015409
0.000244784
0.000234095
0.000151462
0.000210195
0.000150428
0.00023601
0.000215055
0.000157699
0.000148316
0.000127815
0.000147042
0.000236325
0.000107302
0.000181748
0.000147754
0.000166133
0.00024501
0.000237339
7.48835e-05
0.000238192
0.000128507
0.000139865
0.000243689
0.000198092
0.000141487
0.000272071
0.000154215
7.48827e-05
0.000143027
0.000211674
0.000264378
0.000200143
0.000236162
0.000220845
0.000116243
0.000113435
9.60931e-05
0.000110259
0.000158364
0.000120505
0.000194409
0.000121161
0.000209905
0.000149664
0.000143241
0.000168541
0.000155981
0.00020802
0.000149575
0.000153719
6.87278e-05
0.000156183
0.000225793
0.000225948
0.000204158
0.000149303
9.80936e-05
0.000283646
0.000189986
0.000158402
0.00014596
0.000146466
0.000150527
0.000184768
0.000147872
0.000105195
0.000145968
9.96284e-05
0.000181843
0.000148844
6.40572e-05
0.00014023
0.000166716
0.000148823
0.000230327
0.000154611
0.000200014
7.59264e-05
0.000160495
0.00015283
0.00013451
0.000143462
0.000169697
0.000160257
0.000167418
0.000141758
0.000144028
0.000155635
0.000209074
0.000146665
0.00020854
0.000188118
0.000149179
0.000152159
0.000153706
0.000170245
0.000153478
0.000143577
0.000163309
0.000172158
0.000202745
0.000153684
0.000152501
0.000221791
0.000218691
0.000146767
0.000149209
6.54028e-05
0.000179394
0.000123531
0.000168253
7.28264e-05
7.55991e-05
6.75664e-05
6.86699e-05
7.28543e-05
7.67371e-05
7.90859e-05
0.000189441
0.000140604
0.000141118
0.000161076
0.000156771
0.000154805
0.000164265
0.000151481
0.000154919
0.000158779
0.00015423
0.000190423
0.000139855
0.000195716
0.000151754
0.000146351
0.000154417
0.000165858
0.000172534
0.000160569
0.00018409
0.000171802
0.000159128
0.000114494
0.000160215
0.000156831
0.000169469
0.000161483
0.000152936
0.000145507
0.000160387
0.00016748
0.000227638
0.000149895
0.000221314
0.000230382
0.000157615
0.000220969
0.00016933
0.00013539
0.000185233
0.000161844
0.00011732
0.00010147
0.00018298
0.000194963
0.000164499
0.000136652
0.00016485
7.69489e-05
0.000162638
0.000152483
7.71353e-05
3.01251e-05
3.29556e-05
0.000140903
0.000149945
0.000174374
0.000167438
1.55238e-05
1.62208e-05
0.000166265
0.000168003
0.00015902
5.77576e-05
0.000140271
0.000163844
0.000166449
0.000143561
0.000126726
6.0131e-05
0.00024122
0.000150872
0.000184729
0.000187617
0.000134652
0.000170464
0.000131653
0.000145292
7.14765e-05
0.000108237
0.000170665
0.000171906
0.000147616
0.000154957
0.000159975
0.00016871
0.000161354
7.88418e-05
0.000142231
0.000159452
0.000151288
0.000227122
7.88186e-05
0.000122639
0.000126304
0.000120311
7.85094e-05
7.8514e-05
0.000137742
0.000110495
0.000158382
8.43537e-05
9.37232e-05
3.06761e-05
3.06757e-05
6.26554e-05
0.000101588
6.84857e-05
0.000134927
0.000146549
0.000155848
0.000175741
0.00015957
0.000147792
0.000116137
7.08189e-05
0.000145728
0.000151214
0.000146505
7.97138e-05
7.50837e-05
5.74774e-05
0.000146289
0.00014909
0.000119266
0.000135194
0.000124792
0.000114752
0.000152983
0.000114741
0.000134898
0.000130384
8.02886e-05
9.91358e-05
9.06114e-05
0.000161855
6.29835e-05
6.63713e-05
6.48864e-05
0.000152964
6.00117e-05
5.8694e-05
0.000106046
5.47701e-05
0.000124283
0.000124469
5.62364e-05
0.000134473
6.26377e-05
6.20437e-05
7.0127e-05
5.91909e-05
5.83079e-05
8.86137e-05
6.93674e-05
6.2829e-05
5.93845e-05
0.000123306
0.000141068
6.55569e-05
0.000136103
5.38213e-05
0.000138136
0.000109539
5.62492e-05
4.77678e-05
5.31235e-05
7.055e-05
0.000118454
9.81238e-05
4.12345e-05
4.57614e-05
0.000132282
3.88134e-05
3.88128e-05
4.39763e-05
4.93036e-05
5.46513e-05
6.47114e-05
0.000106728
9.89463e-05
0.000132349
3.89589e-05
3.89584e-05
0.000116893
4.70888e-05
9.4097e-05
4.2679e-05
4.30813e-05
5.67688e-05
0.000100409
0.000103968
0.00011075
0.000101503
0.000100406
2.19814e-05
0.000162062
2.80191e-05
2.71751e-05
0.000130936
0.00013003
2.8163e-05
1.95549e-05
2.75338e-05
0.000120746
SCALARS rr_S' float
LOOKUP_TABLE default
0.00187258
0.00427974
0.00341706
0.00446714
0.00233757
0.00362668
0.00185153
0.00444224
0.00381804
0.00480948
0.00169975
0.00445584
0.00392102
0.00414181
0.00485446
0.00407246
0.00350365
0.00396001
0.00354537
0.00346722
0.0039001
0.000693855
0.00399602
0.00368308
0.00333854
0.0038523
0.00157539
0.0033833
0.00265204
0.00312963
0.00346396
0.00274156
0.00174509
0.00234465
0.00230464
0.00234993
0.00304271
0.00230926
0.00346041
0.00196152
0.00222911
0.00268164
0.00268192
0.00380168
0.0021902
0.00241818
0.00333663
0.00337927
0.00316734
0.00302768
0.00310926
0.00241205
0.00375166
0.00309942
0.00345391
0.00158896
0.00246072
0.00312214
0.00246063
0.00377983
0.00447247
0.00438437
0.0015497
0.00309128
0.00419944
0.00396237
0.00432626
0.00374162
0.00344459
0.00491184
0.00407036
0.00402601
0.00275421
0.00320761
0.0033961
0.00180112
0.00349921
0.00392561
0.00377309
0.00266195
0.00240077
0.00263864
0.00499265
0.00240389
0.00324264
0.00120349
0.00390823
0.00326734
0.00231944
0.000341396
0.00268568
0.000371303
0.00296921
0.00284426
0.00254181
0.00231728
0.00220496
0.00422244
0.0035018
0.00336879
0.00286032
0.00274273
0.00230653
0.00399894
0.00406534
0.00366094
0.00322054
0.00326559
0.00244844
0.00487853
0.00313395
0.00165222
0.00220843
0.00437649
0.00410018
0.00299316
0.00285346
0.00183223
0.00295962
0.00298136
0.00259428
0.00473197
0.00487752
0.00419043
0.00460954
0.003618
0.00204758
0.00455892
0.00199703
0.00257747
0.00212619
0.00435157
0.00425141
0.00427269
0.00285264
0.00173374
0.00191123
0.00313105
0.0038279
0.00173316
0.00238259
0.00369054
0.0027946
0.004506
0.00223004
0.0036767
0.00333686
0.00322547
0.00206162
0.00263308
0.00293726
0.00419921
0.00245984
0.00380165
0.00440357
0.00447373
0.00292757
0.00245421
0.0024403
0.00383808
0.00322127
0.00243945
0.00161323
0.00238233
0.0023703
0.00411009
0.00248727
0.0025147
0.00272342
0.00242383
0.0036254
0.00253874
0.00224693
0.00282896
0.00268207
0.00321839
0.00358597
0.00344965
0.00293257
0.00344139
0.00264332
0.00398753
0.00427969
0.00238299
0.00419284
0.00238118
0.00414081
0.003807
0.00355504
0.00361683
0.00422962
0.00200226
0.00262438
0.00243956
0.00426504
0.00419866
0.00389273
0.00424095
0.00431711
0.00362626
0.00444611
0.00298148
0.00268953
0.00485526
0.00283119
0.00440996
0.00351258
0.00223909
0.00269792
0.00439949
0.00366272
0.00333379
0.0042944
0.0042137
0.00272333
0.00270305
0.00262292
0.00373828
0.00412395
0.00473946
0.00455325
0.00495401
0.00448907
0.0049057
0.00411593
0.00430251
0.004336
0.00408753
0.00429416
0.00395379
0.00389493
0.0027596
0.00370888
0.00433907
0.00301301
0.00442311
0.00406332
0.00470444
0.00282766
0.00447386
0.00427712
0.00277737
0.0038336
0.00275858
0.00430718
0.0039307
0.00289168
0.00272131
0.00235195
0.00270553
0.00431307
0.00197495
0.00332298
0.00271116
0.00304314
0.00447806
0.0043352
0.00136106
0.00435094
0.00236545
0.00256639
0.00445367
0.00362041
0.00259654
0.00496966
0.00282511
0.00136106
0.00262436
0.00386622
0.00482668
0.00365835
0.00430621
0.00403185
0.00211745
0.00207373
0.0017703
0.00203222
0.00288569
0.00220496
0.0035531
0.00222186
0.00382825
0.0027332
0.00262832
0.00307784
0.00285931
0.003801
0.00274185
0.00282079
0.00124793
0.00284649
0.00411687
0.00411978
0.00372977
0.00273663
0.00178496
0.00517869
0.00347747
0.00290328
0.00267628
0.00266891
0.00276026
0.00336794
0.00271098
0.00193908
0.00267555
0.0018335
0.00331812
0.00272938
0.00116313
0.00257086
0.00304296
0.00272938
0.00420451
0.00283461
0.00365767
0.00140018
0.00293572
0.00280256
0.00245118
0.00263094
0.00310608
0.00292539
0.00305858
0.00259893
0.00263997
0.00285123
0.00381508
0.00268835
0.00381136
0.0034401
0.00271747
0.002789
0.00281605
0.00311553
0.00281151
0.00263205
0.00299151
0.00314028
0.00370556
0.0028155
0.0027966
0.00405226
0.00399552
0.00269034
0.00271804
0.00120954
0.00328071
0.00227308
0.00307892
0.00135599
0.00140759
0.00125793
0.00127852
0.00135637
0.00142883
0.00147249
0.00345662
0.00255937
0.00257973
0.00294845
0.00287169
0.00283583
0.00300147
0.00277515
0.00283833
0.00289012
0.00282531
0.00347277
0.00256745
0.00356958
0.00277566
0.00267896
0.00282885
0.00302217
0.00315525
0.00293898
0.00336653
0.00314454
0.00291533
0.00210141
0.00293277
0.0028684
0.00309051
0.00295764
0.00280221
0.00266516
0.00293614
0.00306328
0.00415939
0.00274558
0.00404392
0.00421423
0.0028853
0.00403842
0.00309735
0.00248025
0.00338138
0.00296196
0.00213576
0.0018704
0.00333874
0.00355627
0.00300872
0.00250083
0.00301017
0.00142285
0.00297469
0.0027907
0.00142237
0.000547038
0.000598416
0.00257682
0.00274667
0.00319087
0.00306668
0.000281366
0.000293999
0.00303864
0.00307036
0.00290636
0.00106802
0.00256996
0.0029904
0.003047
0.00262829
0.00231987
0.00111214
0.00440367
0.00276384
0.0033784
0.00343122
0.00246522
0.00312015
0.00241032
0.00265975
0.00131901
0.00199187
0.00312385
0.00314383
0.00270154
0.00283712
0.00292797
0.00308738
0.00295296
0.00145329
0.00259333
0.00292064
0.00276262
0.00414604
0.00145297
0.00224298
0.00231027
0.00219159
0.00142576
0.00142586
0.00251041
0.00202447
0.00289666
0.00155521
0.00170255
0.000556154
0.000556151
0.00115899
0.00184789
0.00124509
0.00246799
0.00267144
0.00284903
0.00321065
0.00291279
0.00269697
0.00212258
0.00130954
0.00266475
0.00276154
0.00267399
0.0014721
0.00136559
0.00106011
0.00267018
0.00272365
0.00218672
0.00247161
0.00228087
0.00209013
0.00279566
0.00208995
0.00246703
0.00237971
0.00145997
0.00180254
0.00167051
0.0029565
0.00116547
0.00122787
0.00120103
0.0027925
0.00110986
0.00108669
0.00194158
0.00101364
0.0022625
0.00226592
0.00104057
0.00246087
0.00115585
0.00114816
0.00129437
0.00109542
0.00107622
0.00161177
0.00127945
0.0011619
0.00109885
0.00225382
0.00257359
0.00121026
0.00248766
0.000996396
0.00252382
0.0020044
0.00104107
0.000882016
0.000983409
0.00130502
0.00216679
0.00178593
0.000747745
0.000829967
0.00241637
0.000703863
0.000703856
0.000797544
0.000895014
0.00100777
0.00117681
0.001945
0.00180088
0.00241796
0.000707046
0.00070704
0.00212704
0.000871158
0.00172204
0.000789441
0.000794746
0.00104716
0.00182429
0.00188901
0.00201241
0.00184432
0.00182424
0.000398695
0.00294468
0.000508503
0.000492777
0.00237885
0.00236235
0.000510665
0.000354671
0.000499672
0.00219419
SCALARS rr_P' float
LOOKUP_TABLE default
7.67814e-05
0.000171431
0.000137151
0.000179011
9.30866e-05
0.000145572
7.59241e-05
0.000178057
0.000153545
0.000192666
6.9599e-05
0.000178603
0.00015724
0.000165866
0.00019374
0.000163399
0.000140197
0.000158773
0.000142731
0.000139247
0.000156679
2.74111e-05
0.000160533
0.000147911
0.000134083
0.000154395
6.42921e-05
0.000135763
0.000107455
0.00012423
0.000138921
0.000111076
7.12404e-05
9.31992e-05
9.15399e-05
9.3411e-05
0.000120749
9.175e-05
0.000138785
8.00701e-05
9.03238e-05
0.000106409
0.000106423
0.000152463
8.9214e-05
9.79452e-05
0.00013426
0.000135846
0.000127123
0.000122854
0.000126058
9.7496e-05
0.000149452
0.00012527
0.000137616
6.46737e-05
9.77338e-05
0.000126188
9.77323e-05
0.000151785
0.000178982
0.000175113
6.31462e-05
0.00012348
0.000167722
0.000158551
0.000173118
0.000149956
0.000138359
0.00019674
0.000162155
0.00016039
0.000111601
0.000128257
0.000136298
7.3602e-05
0.000139585
0.000157083
0.000151222
0.000107541
9.746e-05
0.000104998
0.000199603
9.76526e-05
0.000131291
4.90079e-05
0.000156827
0.000130692
9.44757e-05
1.35029e-05
0.000108552
1.46863e-05
0.00011843
0.000113842
0.000102714
9.39701e-05
8.9507e-05
0.000169155
0.000139693
0.000135122
0.000115305
0.000110987
9.37029e-05
0.0001603
0.000162895
0.000146682
0.000128719
0.000131008
9.94712e-05
0.000195357
0.000125846
6.72486e-05
8.97918e-05
0.000175457
0.000164298
0.000120966
0.000113336
7.43833e-05
0.000117561
0.000120479
0.000104496
0.0001889
0.000195381
0.000167608
0.000184557
0.000144364
8.13945e-05
0.000182637
8.10663e-05
0.000104157
8.47051e-05
0.000174337
0.000169989
0.000171163
0.000115431
6.88608e-05
7.76836e-05
0.000125541
0.000153037
6.88389e-05
9.63855e-05
0.00014783
0.000112524
0.000180506
9.05423e-05
0.000147345
0.000133711
0.000129457
8.27501e-05
0.00010622
0.000118087
0.00016821
9.9668e-05
0.000152446
0.000176405
0.000179227
0.0001172
9.92591e-05
9.86897e-05
0.000153917
0.00012949
9.88247e-05
6.56726e-05
9.65866e-05
9.58688e-05
0.000164675
0.000100598
0.00010171
0.000110345
9.80288e-05
0.000144596
0.000102609
9.10995e-05
0.000113228
0.000108396
0.000128643
0.000143026
0.000138275
0.000116809
0.000137882
0.000107097
0.000159749
0.000171457
9.63983e-05
0.000167703
9.65578e-05
0.000165624
0.00015215
0.000141777
0.000144892
0.00016917
8.12584e-05
0.000106067
9.8842e-05
0.000170861
0.000168355
0.000156071
0.000169573
0.000172938
0.000145113
0.000178097
0.000119994
0.000108636
0.000194141
0.000114705
0.000176309
0.000140557
9.06199e-05
0.000107726
0.000176224
0.000146219
0.000133491
0.000172084
0.000168458
0.000109853
0.000108214
0.00010592
0.000149405
0.000165122
0.000189769
0.000182359
0.000198388
0.000179766
0.000196454
0.000164856
0.000171738
0.000173086
0.000163157
0.0001714
0.000157528
0.000155182
0.000111334
0.000148543
0.000173922
0.000121134
0.000176525
0.000162152
0.000188556
0.000114209
0.000179339
0.000171344
0.00011202
0.00015307
0.000111274
0.000172184
0.000157581
0.000116626
0.000109882
9.5484e-05
0.000109823
0.000172429
8.02133e-05
0.00013329
0.000109485
0.000122495
0.000179512
0.000173588
5.4001e-05
0.000174229
9.60881e-05
0.000103639
0.000178519
0.000145118
0.000104886
0.000198997
0.000113739
5.40019e-05
0.000105974
0.000154796
0.000193082
0.000146673
0.000171869
0.000161282
8.43513e-05
8.31622e-05
7.20283e-05
8.2756e-05
0.000115028
8.85752e-05
0.00014242
8.96226e-05
0.000152851
0.000109397
0.000106137
0.000123184
0.000115254
0.000152293
0.000110517
0.000113926
4.94212e-05
0.000113505
0.000164293
0.000164416
0.000149389
0.000110288
7.09695e-05
0.00020718
0.00013978
0.000116994
0.000107926
0.000106388
0.000111333
0.000134334
0.000109298
7.89802e-05
0.000107832
7.44515e-05
0.000132607
0.000110086
4.60645e-05
0.000103648
0.000121676
0.000110115
0.000168156
0.00011429
0.00014677
5.70745e-05
0.000117857
0.000113044
9.77198e-05
0.000106135
0.000124851
0.000116995
0.000122508
0.000104784
0.000106395
0.000114798
0.000152472
0.000108349
0.000152772
0.000138039
0.000108257
0.000112401
0.000113394
0.000125187
0.000113182
0.000106102
0.000120422
0.000125417
0.00014854
0.00011336
0.00011281
0.00016233
0.000160051
0.00010844
0.000108283
4.95672e-05
0.000131654
9.22793e-05
0.000123704
5.62663e-05
5.84059e-05
5.21891e-05
5.30462e-05
5.62727e-05
5.92906e-05
6.10961e-05
0.000138131
0.000101822
0.000103449
0.000118528
0.000115595
0.000114163
0.000120257
0.000111737
0.000114294
0.000114975
0.00011374
0.000138643
0.000103774
0.000142534
0.00011142
0.000107698
0.000113892
0.000120462
0.000126618
0.000118132
0.000135094
0.000126392
0.000117387
8.49028e-05
0.000117904
0.000115131
0.000123373
0.000119029
0.000112857
0.000107267
0.000118055
0.000122962
0.000166646
0.000110507
0.000162025
0.000169197
0.000116003
0.000161865
0.000124348
9.98553e-05
0.000135238
0.000119029
8.49847e-05
7.61809e-05
0.00013342
0.000142032
0.000120769
0.00010049
0.000120456
5.8291e-05
0.000119406
0.000112151
5.79716e-05
2.16671e-05
2.37006e-05
0.00010341
0.000110564
0.000128196
0.000123414
1.11054e-05
1.1604e-05
0.000121793
0.000123059
0.0001165
4.37559e-05
0.000103489
0.000119562
0.000122501
0.000105688
9.32718e-05
4.55821e-05
0.000176145
0.000111269
0.000135584
0.000137704
9.91347e-05
0.000125417
9.69275e-05
0.000106937
5.38343e-05
8.08784e-05
0.000125569
0.000126166
0.000108561
0.0001141
0.000117677
0.00012405
0.000118665
5.91911e-05
0.000103494
0.000117554
0.000110556
0.000165819
5.91871e-05
9.0025e-05
9.27447e-05
8.73078e-05
5.6482e-05
5.64864e-05
0.000100107
8.15264e-05
0.000116259
6.33666e-05
6.74826e-05
2.19624e-05
2.19625e-05
4.75148e-05
7.34203e-05
4.94229e-05
9.90757e-05
0.000106563
0.000114249
0.0001286
0.000116489
0.000107795
8.50801e-05
5.36526e-05
0.000106913
0.000110533
0.000106915
6.01654e-05
5.4246e-05
4.32236e-05
0.000106772
0.000109084
8.81767e-05
9.91255e-05
9.14331e-05
8.32533e-05
0.000112035
8.32474e-05
9.90034e-05
9.51453e-05
5.7975e-05
7.15665e-05
6.80592e-05
0.000118386
4.78096e-05
5.03463e-05
4.92943e-05
0.000111698
4.54826e-05
4.46234e-05
7.80829e-05
4.15928e-05
9.0024e-05
9.01614e-05
4.26816e-05
9.88793e-05
4.71713e-05
4.71047e-05
5.28483e-05
4.49452e-05
4.39416e-05
6.40305e-05
5.21716e-05
4.76109e-05
4.50749e-05
9.03565e-05
0.000102813
4.94325e-05
9.97272e-05
4.09096e-05
0.000101102
8.05261e-05
4.27222e-05
3.60385e-05
4.03703e-05
5.35018e-05
8.69934e-05
7.10368e-05
2.95412e-05
3.27993e-05
9.67613e-05
2.78093e-05
2.78093e-05
3.15146e-05
3.54295e-05
4.10754e-05
4.67365e-05
7.7547e-05
7.16309e-05
9.68524e-05
2.79753e-05
2.79754e-05
8.45666e-05
3.57238e-05
6.91969e-05
3.23619e-05
3.24159e-05
4.27057e-05
7.23279e-05
7.48988e-05
7.98034e-05
7.3134e-05
7.2327e-05
1.57576e-05
0.000116767
2.01198e-05
1.94671e-05
9.43105e-05
9.36534e-05
2.01718e-05
1.40165e-05
1.97686e-05
8.70246e-05
SCALARS rr_T' float
LOOKUP_TABLE default
0.000176658
0.000402617
0.000321533
0.000420267
0.000219763
0.000341261
0.000174673
0.000417934
0.000359347
0.000452457
0.000160329
0.000419214
0.000368917
0.000389629
0.0004565
0.000383188
0.000329569
0.000372578
0.000333726
0.000326277
0.000367025
6.51777e-05
0.000376053
0.000346589
0.000314169
0.000362429
0.000148536
0.00031835
0.000249829
0.000294132
0.000325915
0.00025826
0.000164542
0.000220389
0.000216608
0.000220886
0.000285955
0.000217049
0.000325584
0.000184947
0.000209989
0.000252019
0.000252045
0.00035769
0.000206457
0.000227788
0.000314059
0.000318035
0.000298035
0.000285265
0.000292922
0.000227155
0.000352723
0.000291884
0.000324736
0.000149766
0.000231276
0.000294024
0.000231269
0.000355691
0.000420705
0.000412324
0.000146085
0.00029072
0.000394932
0.000372716
0.000406949
0.000352015
0.000324153
0.000462081
0.000382689
0.000378519
0.000259455
0.000301696
0.000319557
0.000169847
0.000329035
0.000369258
0.000354977
0.000250674
0.00022621
0.000248048
0.000469584
0.000226523
0.000305437
0.000113441
0.000367742
0.000307326
0.000218639
3.20736e-05
0.000252923
3.48834e-05
0.000279197
0.000267551
0.000239366
0.000218316
0.000207758
0.000397231
0.000329279
0.000316966
0.000269284
0.00025833
0.000217351
0.000376232
0.000382462
0.000344412
0.000302899
0.000307263
0.000230724
0.000458936
0.000294911
0.00015573
0.000208128
0.000411759
0.00038574
0.000281874
0.00026819
0.00017264
0.00027817
0.00028076
0.000244215
0.000444993
0.000458857
0.00039415
0.000433625
0.000340219
0.000192465
0.000428887
0.000188167
0.000242726
0.000199903
0.000409383
0.000399872
0.000401959
0.000268681
0.000162951
0.00018011
0.000294586
0.000360034
0.000162896
0.000224402
0.000347187
0.00026306
0.000423906
0.000210126
0.000345905
0.000313929
0.000303506
0.000193992
0.000247912
0.00027644
0.000395044
0.000231724
0.000357683
0.00041427
0.000420875
0.000275392
0.00023114
0.000229829
0.000361114
0.000303164
0.000229798
0.000152058
0.000224438
0.000223239
0.000386667
0.000234255
0.000236839
0.000256552
0.000228279
0.000340897
0.000239083
0.000211683
0.00026611
0.00025258
0.000302699
0.00033719
0.000324552
0.000275709
0.000323758
0.000249005
0.000375133
0.00040262
0.000224439
0.000394375
0.000224335
0.000389483
0.000358053
0.000334278
0.000340257
0.000397834
0.000188654
0.000247148
0.000229812
0.00040124
0.000395035
0.000366247
0.000398888
0.000406137
0.000341102
0.000418271
0.000280637
0.000253265
0.00045667
0.000266702
0.000414779
0.000330409
0.000210898
0.000253717
0.000413884
0.00034444
0.000313613
0.000404014
0.000396319
0.000256407
0.000254273
0.000246986
0.000351589
0.000387947
0.000445849
0.000428344
0.000466039
0.0004223
0.000461495
0.000387203
0.000404603
0.000407755
0.000384387
0.000403816
0.000371734
0.0003662
0.000259827
0.000348908
0.000408233
0.000283568
0.000415937
0.0003821
0.000442606
0.000266271
0.000420918
0.000402375
0.000261491
0.000360519
0.000259725
0.000405109
0.00036982
0.000272252
0.000256248
0.000221612
0.000254925
0.000405664
0.000186098
0.000312657
0.000255296
0.000286447
0.000421314
0.000407821
0.00012791
0.000409304
0.000222899
0.000241664
0.000419016
0.000340616
0.000244511
0.000467508
0.000265929
0.00012791
0.00024712
0.0003637
0.000454003
0.000344195
0.000404947
0.000379238
0.000199077
0.000195111
0.000166851
0.000191557
0.000271325
0.0002075
0.000334283
0.000209191
0.000360014
0.000257102
0.000247494
0.000289521
0.000269186
0.00035759
0.000258126
0.000265623
0.000117256
0.00026765
0.000387137
0.000387413
0.000350875
0.000257629
0.000167785
0.000487116
0.000327274
0.000273316
0.000251968
0.000250942
0.000259881
0.000316689
0.000255227
0.000182784
0.000251882
0.000172765
0.000312072
0.000256974
0.000109289
0.000242035
0.000286212
0.000256981
0.000395472
0.000266868
0.000344164
0.000131996
0.000276249
0.000263865
0.000230474
0.000247711
0.000292322
0.000275157
0.000287734
0.00024468
0.000248531
0.000268389
0.000358813
0.000253087
0.000358581
0.000323692
0.00025549
0.000262561
0.000265082
0.000293199
0.000264645
0.000247793
0.000281587
0.000295325
0.000348629
0.000265026
0.000263306
0.000381219
0.000375879
0.000253278
0.000255545
0.000114102
0.000308698
0.00021418
0.00028975
0.000128118
0.000132993
0.000118851
0.000120797
0.000128152
0.000135001
0.000139124
0.000325096
0.000240594
0.000242719
0.000277491
0.000270308
0.000266935
0.000282372
0.000261229
0.00026718
0.000271685
0.000265945
0.000326579
0.000241789
0.000335693
0.000261185
0.000252129
0.000266281
0.000284156
0.000296891
0.000276595
0.000316771
0.000295941
0.000274426
0.00019789
0.000276017
0.000269907
0.000290628
0.000278392
0.000263785
0.000250864
0.000276338
0.000288247
0.000391304
0.000258434
0.000380442
0.00039656
0.000271551
0.000379941
0.000291459
0.000233467
0.000318049
0.00027875
0.000200775
0.000176309
0.000314008
0.000334447
0.000283113
0.00023535
0.00028315
0.000134218
0.000279912
0.000262634
0.000134086
5.14006e-05
5.62278e-05
0.000242466
0.00025854
0.000300284
0.000288654
2.64278e-05
2.76144e-05
0.00028588
0.000288863
0.000273438
0.000100747
0.000241918
0.000281264
0.000286767
0.000247366
0.000218335
0.000104915
0.00041421
0.00026016
0.000317892
0.000322862
0.00023202
0.000293645
0.000226853
0.000250323
0.000124364
0.000187687
0.000293995
0.00029582
0.000254241
0.000267025
0.000275555
0.000290548
0.000277903
0.00013699
0.000243867
0.000274913
0.000259866
0.000389971
0.000136963
0.000211057
0.000217394
0.000206049
0.000133971
0.000133979
0.000236051
0.00019057
0.000272566
0.000146604
0.000159987
5.22404e-05
5.22401e-05
0.000109338
0.000173685
0.000117017
0.000232235
0.000251199
0.000268056
0.000302041
0.000273972
0.000253655
0.000199697
0.000123531
0.000250732
0.000259769
0.000251504
0.000138823
0.000128352
9.99403e-05
0.000251149
0.000256223
0.000205875
0.000232549
0.000214591
0.000196508
0.000263015
0.000196491
0.000232134
0.000223824
0.000137218
0.000169412
0.000157472
0.000278123
0.000109956
0.000115836
0.000113318
0.000262662
0.000104698
0.000102537
0.000182738
9.56351e-05
0.000212686
0.000213008
9.81709e-05
0.000231589
0.00010898
0.000108324
0.000122046
0.00010335
0.000101477
0.00015149
0.000120621
0.000109606
0.00010367
0.000212048
0.000242038
0.000114121
0.000234048
9.40155e-05
0.00023743
0.000188628
9.82239e-05
8.31733e-05
9.27877e-05
0.000123115
0.000203895
0.000167882
7.02403e-05
7.79666e-05
0.000227312
6.61188e-05
6.61182e-05
7.49199e-05
8.40923e-05
9.50036e-05
0.000110605
0.000182882
0.000169288
0.000227469
6.6428e-05
6.64275e-05
0.000199936
8.21872e-05
0.00016206
7.44741e-05
7.49269e-05
9.87231e-05
0.000171431
0.000177514
0.000189113
0.000173316
0.000171427
3.74536e-05
0.00027672
4.77748e-05
4.62895e-05
0.000223543
0.000221992
4.79692e-05
3.33176e-05
4.69446e-05
0.000206199
SCALARS rr_uec(SIM,_S_ext) float
LOOKUP_TABLE default
0.0174267
0.0396658
0.0316809
0.0414057
0.0216432
0.0336247
0.0172311
0.0411761
0.0354105
0.044576
0.0158153
0.0413022
0.0363477
0.0383855
0.0449642
0.037755
0.0324669
0.0367082
0.0328879
0.0321494
0.0361649
0.00641589
0.0370547
0.0341507
0.0309564
0.0357075
0.014649
0.0313667
0.0246288
0.0289618
0.0321111
0.02546
0.0162278
0.0217025
0.0213292
0.0217514
0.0281563
0.021373
0.0320785
0.0182402
0.0207014
0.0248146
0.0248173
0.0352417
0.0203593
0.0224556
0.0309488
0.0313389
0.0293655
0.0281247
0.0288781
0.0223905
0.0347385
0.0287707
0.0319825
0.014768
0.0227735
0.0289817
0.0227728
0.0350474
0.0414454
0.0406149
0.0144059
0.0286367
0.0389016
0.0367173
0.04009
0.0346814
0.0319404
0.0455239
0.0376898
0.0372792
0.0255779
0.0297196
0.031486
0.016752
0.0324082
0.0363767
0.0349733
0.0247082
0.0223027
0.0244277
0.0462578
0.0223345
0.0301096
0.0111865
0.0362333
0.0302748
0.0215605
0.00315743
0.0249304
0.00343405
0.0274992
0.0263576
0.0235939
0.0215233
0.0204835
0.0391353
0.0324323
0.0312297
0.0265392
0.025465
0.0214302
0.0370678
0.0376806
0.0339319
0.0298374
0.0302739
0.0227488
0.0452135
0.0290586
0.0153562
0.0205219
0.0405684
0.0380037
0.0277839
0.0264082
0.0170211
0.0273911
0.027674
0.0240675
0.0438315
0.0452065
0.038828
0.0427194
0.0335104
0.0189527
0.042254
0.0185519
0.023925
0.0196878
0.0403328
0.0393909
0.0396012
0.0264853
0.0160456
0.0177588
0.029024
0.0354662
0.0160402
0.0221202
0.0342044
0.0259241
0.0417631
0.0207171
0.0340793
0.0309286
0.0299044
0.0191142
0.0244338
0.0272403
0.0389197
0.0228441
0.0352408
0.0408138
0.0414649
0.0271305
0.0227841
0.0226547
0.0355791
0.0298735
0.022654
0.0149943
0.0221266
0.0220053
0.0380948
0.0230911
0.0233458
0.0252917
0.022502
0.0335762
0.0235662
0.0208691
0.0262157
0.0248965
0.0298179
0.0332111
0.0319757
0.0271535
0.0318968
0.0245476
0.0369582
0.0396663
0.0221238
0.0388501
0.0221167
0.0383683
0.0352703
0.032924
0.0335222
0.0391907
0.0185996
0.0243611
0.0226555
0.0395304
0.038921
0.0360845
0.0392941
0.0400127
0.0336031
0.0412079
0.0276556
0.0249633
0.0449861
0.0262922
0.0408591
0.0325495
0.0207896
0.0249912
0.0407757
0.033927
0.0308962
0.0398041
0.0390406
0.025271
0.0250499
0.0243441
0.0346337
0.0382195
0.0439239
0.0422001
0.0459134
0.0416042
0.0454657
0.0381467
0.0398528
0.0401635
0.0378616
0.0397753
0.036611
0.036066
0.0256083
0.0343739
0.0402207
0.0279427
0.0409687
0.0376357
0.043607
0.0262452
0.0414707
0.0396421
0.025772
0.0355112
0.0255981
0.0399062
0.0364365
0.0268325
0.0252568
0.0218495
0.0251339
0.0399611
0.0183485
0.0308052
0.0251631
0.0282284
0.0415098
0.0401776
0.0125943
0.0403238
0.0219769
0.0238195
0.0412832
0.0335585
0.0241005
0.0460578
0.0262066
0.0125944
0.0243572
0.0358307
0.0447244
0.0339117
0.0398864
0.037359
0.0196064
0.0192235
0.0164525
0.0188896
0.0267228
0.0204461
0.0329345
0.0206174
0.0354614
0.0253284
0.0243942
0.0285218
0.0265294
0.0352299
0.0254393
0.0261812
0.011544
0.0263615
0.038132
0.0381592
0.0345678
0.0253901
0.0165226
0.0479868
0.0322491
0.0269359
0.0248331
0.0247154
0.0256133
0.0311919
0.025154
0.0180247
0.0248238
0.0170336
0.0307409
0.0253267
0.0107597
0.0238538
0.0281943
0.0253279
0.0389579
0.0263014
0.0339101
0.0130168
0.0272194
0.026006
0.0226996
0.0244141
0.028805
0.0271056
0.0283474
0.0241145
0.0244935
0.0264492
0.035345
0.0249425
0.0353284
0.0318931
0.0251624
0.0258762
0.0261234
0.0288908
0.02608
0.0244211
0.0277495
0.02909
0.0343481
0.0261178
0.025951
0.0375574
0.0370313
0.0249615
0.0251678
0.0112558
0.0304157
0.0211167
0.0285508
0.0126478
0.0131291
0.0117329
0.0119251
0.0126511
0.0133272
0.0137342
0.0320236
0.0236933
0.0239141
0.0273438
0.026638
0.0263057
0.0278193
0.0257436
0.0263302
0.026755
0.0262082
0.0321678
0.0238329
0.033066
0.0257348
0.0248446
0.0262413
0.0279864
0.0292525
0.0272553
0.0312112
0.0291615
0.0270443
0.0195055
0.0271986
0.026594
0.0286266
0.0274343
0.0259959
0.0247217
0.0272304
0.0284012
0.0385514
0.0254677
0.0374813
0.0390739
0.0267586
0.0374328
0.028718
0.0230076
0.0313311
0.0274673
0.0197723
0.0173862
0.0309315
0.0329435
0.0278953
0.0231906
0.027894
0.01324
0.0275801
0.0258792
0.0132228
0.0050605
0.00553572
0.0238901
0.0254784
0.0295887
0.0284456
0.00260131
0.00271811
0.0281658
0.0284595
0.02694
0.00993815
0.0238408
0.0277068
0.0282579
0.0243756
0.0215148
0.0103496
0.0408041
0.0256382
0.0313219
0.0318115
0.0228635
0.0289354
0.0223543
0.0246668
0.0122652
0.0185048
0.0289699
0.0291469
0.0250521
0.026313
0.0271526
0.0286295
0.0273837
0.0135089
0.0240202
0.0270917
0.0256003
0.0384161
0.0135063
0.0207955
0.0214202
0.0202931
0.0131899
0.0131908
0.0232492
0.0187805
0.0268559
0.0144573
0.0157518
0.00514226
0.00514224
0.0107861
0.0171029
0.0115221
0.0228824
0.0247417
0.0264105
0.0297568
0.026989
0.0249866
0.0196747
0.0121858
0.0247042
0.025591
0.0247753
0.0136922
0.0126388
0.0098557
0.0247405
0.0252426
0.0202903
0.0229122
0.0211422
0.0193533
0.0259127
0.0193516
0.0228721
0.0220485
0.0135115
0.0166813
0.0155289
0.0273999
0.0108471
0.0114268
0.0111792
0.025875
0.010328
0.0101159
0.0180072
0.00943454
0.0209453
0.020977
0.00968445
0.0228201
0.0107478
0.0106861
0.0120368
0.0101955
0.0100082
0.0149172
0.0118954
0.0108122
0.010227
0.0208918
0.0238416
0.0112554
0.0230593
0.00927513
0.0233915
0.0185867
0.00968991
0.0082033
0.00915384
0.0121452
0.0200902
0.0165326
0.00691427
0.00767496
0.0223942
0.00650858
0.00650853
0.00737499
0.00827881
0.00936887
0.0108911
0.0180123
0.0166709
0.02241
0.00653958
0.00653954
0.0196886
0.00810785
0.0159689
0.00734673
0.00738911
0.00973584
0.0168788
0.0174778
0.01862
0.0170646
0.0168784
0.00368691
0.0272456
0.00470323
0.00455656
0.0220095
0.0218568
0.00472188
0.00327975
0.00462148
0.0203024
SCALARS rr_uec(PEX,_P_ext) float
LOOKUP_TABLE default
-0.0637851
-0.145349
-0.116078
-0.151721
-0.0793324
-0.1232
-0.0630687
-0.150879
-0.129731
-0.163341
-0.0578896
-0.151341
-0.133183
-0.14066
-0.164796
-0.138336
-0.118976
-0.134505
-0.120483
-0.117791
-0.132502
-0.0235268
-0.135762
-0.125124
-0.11342
-0.130841
-0.05363
-0.114929
-0.0901979
-0.106176
-0.11766
-0.093242
-0.0594092
-0.0795571
-0.0781917
-0.0797363
-0.103224
-0.078351
-0.11754
-0.0667765
-0.0758144
-0.0909735
-0.0909831
-0.12913
-0.0745418
-0.0822402
-0.113382
-0.114817
-0.107595
-0.102993
-0.105757
-0.0820103
-0.12733
-0.10538
-0.117227
-0.0540729
-0.0834865
-0.106152
-0.0834838
-0.12841
-0.151878
-0.148849
-0.0527444
-0.10495
-0.14257
-0.134552
-0.146911
-0.127081
-0.117025
-0.166816
-0.138148
-0.136642
-0.0936734
-0.108913
-0.115365
-0.0613249
-0.11878
-0.133304
-0.128151
-0.0905014
-0.0816716
-0.0895422
-0.169521
-0.0817852
-0.110274
-0.0409581
-0.13276
-0.110946
-0.0789402
-0.0115775
-0.0913133
-0.0125918
-0.100789
-0.0965877
-0.0864189
-0.0788211
-0.0750097
-0.143404
-0.118869
-0.114429
-0.0972186
-0.0932663
-0.0784736
-0.135824
-0.138073
-0.124336
-0.109347
-0.110926
-0.0833018
-0.16568
-0.106468
-0.0562263
-0.0751442
-0.14865
-0.139256
-0.101766
-0.0968115
-0.0623306
-0.100414
-0.101364
-0.0881674
-0.160642
-0.165652
-0.14229
-0.156542
-0.122818
-0.0694767
-0.154832
-0.0679363
-0.0876318
-0.0721633
-0.147792
-0.144355
-0.145111
-0.0970033
-0.0588222
-0.0650281
-0.106349
-0.129974
-0.0588024
-0.0810168
-0.125337
-0.0949708
-0.153034
-0.0758646
-0.124875
-0.113331
-0.10957
-0.0700339
-0.089503
-0.0998002
-0.142615
-0.0836614
-0.129128
-0.149556
-0.15194
-0.0994187
-0.0834495
-0.082976
-0.130367
-0.109448
-0.0829661
-0.0549006
-0.0810314
-0.080597
-0.139591
-0.0845739
-0.0855067
-0.0926254
-0.0824165
-0.123062
-0.0863167
-0.0764261
-0.0960674
-0.0911895
-0.109275
-0.121724
-0.117167
-0.0995286
-0.11688
-0.0899005
-0.135427
-0.14535
-0.0810303
-0.142371
-0.0809943
-0.140605
-0.129258
-0.120672
-0.122836
-0.14362
-0.0681121
-0.0892283
-0.082971
-0.144852
-0.142613
-0.13222
-0.144
-0.14662
-0.12314
-0.151
-0.101316
-0.0914367
-0.16486
-0.0962898
-0.149737
-0.119279
-0.0761418
-0.0915915
-0.149416
-0.124342
-0.113217
-0.145853
-0.143073
-0.09257
-0.0917944
-0.0891695
-0.126925
-0.140052
-0.160955
-0.154637
-0.168245
-0.152454
-0.166604
-0.139784
-0.146061
-0.147199
-0.138763
-0.145777
-0.134193
-0.132195
-0.0938048
-0.125959
-0.147377
-0.102373
-0.150152
-0.137937
-0.159786
-0.0961323
-0.151957
-0.145261
-0.0944055
-0.130147
-0.093768
-0.146246
-0.13351
-0.0982904
-0.0925132
-0.0800115
-0.0920392
-0.146446
-0.0671897
-0.112873
-0.0921696
-0.103414
-0.1521
-0.147227
-0.0461727
-0.147762
-0.0804763
-0.0872482
-0.15127
-0.122966
-0.0882761
-0.168774
-0.0960063
-0.0461727
-0.0892179
-0.131299
-0.163897
-0.124259
-0.146185
-0.136907
-0.0718653
-0.0704377
-0.0602416
-0.0691621
-0.0979466
-0.0749109
-0.12068
-0.0755237
-0.129965
-0.0928157
-0.089353
-0.104519
-0.097183
-0.129093
-0.0931901
-0.0958982
-0.042326
-0.0966202
-0.139756
-0.139855
-0.126669
-0.0930106
-0.0605678
-0.175852
-0.118152
-0.0986737
-0.0909673
-0.0905886
-0.0938243
-0.114323
-0.0921437
-0.0659946
-0.0909357
-0.0623756
-0.112659
-0.0927745
-0.0394503
-0.0873811
-0.103323
-0.0927776
-0.142767
-0.0963465
-0.124248
-0.0476575
-0.0997301
-0.0952624
-0.0831997
-0.0894305
-0.105534
-0.0993328
-0.103875
-0.0883358
-0.0897258
-0.0968946
-0.129532
-0.0913707
-0.129452
-0.116857
-0.0922299
-0.094791
-0.0957005
-0.10585
-0.0955429
-0.0894596
-0.101659
-0.106612
-0.125859
-0.0956805
-0.0950609
-0.137623
-0.135696
-0.0914397
-0.0922496
-0.0411986
-0.111444
-0.0773282
-0.104605
-0.0462641
-0.0480246
-0.0429178
-0.0436205
-0.0462764
-0.0487494
-0.0502382
-0.11736
-0.0868511
-0.0876247
-0.10018
-0.0975873
-0.0963696
-0.101939
-0.0943096
-0.096458
-0.0980746
-0.0960123
-0.117895
-0.0872936
-0.121185
-0.0942916
-0.0910232
-0.0961334
-0.102578
-0.107182
-0.0998559
-0.114359
-0.10684
-0.0990741
-0.0714447
-0.0996474
-0.0974403
-0.104916
-0.100506
-0.0952325
-0.0905674
-0.0997633
-0.104061
-0.141265
-0.0933005
-0.137343
-0.143164
-0.0980351
-0.137163
-0.105221
-0.084287
-0.114817
-0.100634
-0.0724775
-0.0636568
-0.113358
-0.120735
-0.102208
-0.0849655
-0.102219
-0.048462
-0.101052
-0.0948155
-0.0484121
-0.0185542
-0.0202966
-0.0875338
-0.0933389
-0.108408
-0.10421
-0.00953938
-0.00996768
-0.103206
-0.104283
-0.0987142
-0.0363764
-0.0873382
-0.101537
-0.103528
-0.0893039
-0.0788232
-0.0378815
-0.149532
-0.0939239
-0.114764
-0.116558
-0.0837636
-0.106011
-0.0818983
-0.0903713
-0.0449026
-0.0677631
-0.106138
-0.106795
-0.0917854
-0.0964012
-0.0994802
-0.104893
-0.100328
-0.0494606
-0.0880355
-0.0992497
-0.0938131
-0.140781
-0.049451
-0.0761946
-0.0784825
-0.074382
-0.0483598
-0.0483631
-0.0852131
-0.0688004
-0.0984
-0.0529321
-0.0577512
-0.0188568
-0.0188567
-0.0394788
-0.0626974
-0.0422408
-0.0838402
-0.0906817
-0.0967717
-0.10904
-0.0989052
-0.0915701
-0.0720927
-0.0446033
-0.0905176
-0.0937784
-0.0907939
-0.0501234
-0.0463327
-0.0360837
-0.0906658
-0.0924987
-0.0743264
-0.083953
-0.0774697
-0.0709378
-0.0949512
-0.0709316
-0.0838037
-0.0808013
-0.0495331
-0.0611542
-0.0568558
-0.100405
-0.0397016
-0.0418244
-0.0409158
-0.0948221
-0.037803
-0.0370232
-0.065972
-0.0345308
-0.0767772
-0.0768933
-0.0354463
-0.0836078
-0.0393477
-0.0391123
-0.0440658
-0.0373162
-0.0366391
-0.0546853
-0.0435508
-0.0395752
-0.037432
-0.0765517
-0.0873759
-0.0412043
-0.084494
-0.0339463
-0.0857145
-0.0680981
-0.0354655
-0.0300305
-0.0335028
-0.0444532
-0.0736091
-0.060603
-0.0253543
-0.0281432
-0.0820616
-0.0238665
-0.0238663
-0.0270434
-0.0303549
-0.0343015
-0.0399264
-0.0660192
-0.0611104
-0.0821185
-0.0239785
-0.0239783
-0.0721739
-0.0296754
-0.0585065
-0.0268903
-0.0270526
-0.0356443
-0.0618825
-0.0640784
-0.0682653
-0.062563
-0.0618809
-0.0135194
-0.0998893
-0.0172452
-0.0167088
-0.0806936
-0.0801337
-0.0173151
-0.0120265
-0.0169455
-0.0744331
SCALARS cell_type float
LOOKUP_TABLE default
0
0
0
0
0
0
0
0
0
0
0
0
0
0
0
0
0
0
0
0
0
1
0
0
0
0
0
0
0
0
0
0
0
0
0
0
0
0
0
0
0
0
0
0
0
0
0
0
0
0
0
0
0
0
0
0
0
0
0
0
0
0
0
0
0
0
0
0
0
0
0
0
0
0
0
0
0
0
0
0
0
0
0
0
0
0
0
0
0
0
0
0
0
0
0
0
0
0
0
0
0
0
0
0
0
0
0
0
0
0
0
0
0
0
0
0
0
0
0
0
0
0
0
0
0
0
0
0
0
0
0
0
0
0
0
0
0
0
0
0
0
0
0
0
0
0
0
0
0
0
0
0
0
0
0
0
0
0
0
0
0
0
0
0
0
0
0
0
0
0
0
0
0
0
0
0
0
0
0
0
0
0
0
0
0
0
0
0
0
0
0
0
0
0
0
0
0
0
0
0
0
0
0
0
0
0
0
0
0
0
0
0
0
0
0
0
0
0
0
0
0
0
0
0
0
0
0
0
0
0
0
0
0
0
0
0
0
0
0
0
0
0
0
0
0
0
0
0
0
0
0
0
0
0
0
0
0
0
0
0
0
0
0
0
0
0
0
0
0
0
0
0
0
0
0
0
0
0
0
0
0
0
0
0
0
0
0
0
0
0
0
0
0
0
0
0
0
0
0
0
0
0
0
0
0
0
0
0
0
0
0
0
0
0
0
0
0
0
0
0
0
0
0
0
0
0
0
0
0
0
0
0
0
0
0
0
0
0
0
0
0
0
0
0
0
0
0
0
0
0
2
2
2
2
2
2
2
0
0
0
0
0
0
0
0
0
0
0
0
0
0
0
0
0
0
0
0
0
0
0
0
0
0
0
0
0
0
0
0
0
0
0
0
0
0
0
0
0
0
0
0
0
0
0
0
0
0
0
0
0
0
0
0
0
0
0
1
1
0
0
0
0
0
0
0
0
0
0
0
0
0
0
0
0
0
0
0
0
0
0
0
0
0
0
0
0
0
0
0
0
0
0
0
0
0
0
0
0
0
0
0
1
1
0
0
0
0
0
0
0
0
0
0
0
0
0
0
0
0
0
0
0
0
0
0
0
0
0
0
0
0
0
0
0
0
0
0
0
0
0
0
0
0
0
0
0
0
0
0
0
0
0
0
0
0
0
0
0
0
0
0
0
0
0
0
0
0
0
1
1
0
0
0
0
0
0
0
0
0
0
0
0
0
0
0
0
0
0
0
0
0
0
0
0
0
0
0
0
0
0
0
0
0
TENSORS Lagrange_strain float
0.0305719 -0.00319859 1.28777e-07
-0.00319859 0.0133906 -4.36596e-08
1.28777e-07 -4.36596e-08 0.00740292

0.0291978 -0.00280109 1.91339e-07
-0.00280109 0.0335591 7.99328e-08
1.91339e-07 7.99328e-08 0.0331681

0.030026 0.00367957 -4.42513e-08
0.00367957 0.0311747 -3.34848e-08
-4.42513e-08 -3.34848e-08 0.0304724

0.0291671 -0.00392487 -2.29819e-07
-0.00392487 0.0328044 -6.21477e-08
-2.29819e-07 -6.21477e-08 0.033093

0.035371 0.00266914 -1.37423e-07
0.00266914 0.038089 8.31445e-08
-1.37423e-07 8.31445e-08 0.0352963

0.0277397 -0.00236761 -3.56606e-08
-0.00236761 0.0333896 -4.0593e-08
-3.56606e-08 -4.0593e-08 0.0304434

0.0302658 0.00339437 1.30463e-07
0.00339437 0.0134962 -1.15999e-07
1.30463e-07 -1.15999e-07 0.00746436

0.0317594 0.00394003 -1.32161e-07
0.00394003 0.0312051 -5.2954e-08
-1.32161e-07 -5.2954e-08 0.0315652

0.0332471 0.000715618 9.00749e-08
0.000715618 0.0262255 1.97547e-07
9.00749e-08 1.97547e-07 0.0281464

0.0354724 -0.00099112 5.90588e-08
-0.00099112 0.027556 5.22424e-08
5.90588e-08 5.22424e-08 0.0327257

0.0280656 0.00205151 9.2122e-08
0.00205151 0.0138106 4.47316e-08
9.2122e-08 4.47316e-08 0.0117554

0.0279578 -0.00176612 -4.62425e-08
-0.00176612 0.0350116 -7.40874e-08
-4.62425e-08 -7.40874e-08 0.0315538

0.031126 0.00365747 6.88484e-08
0.00365747 0.0313053 2.35752e-08
6.88484e-08 2.35752e-08 0.031084

0.0290736 -0.00188011 3.66126e-08
-0.00188011 0.0348047 5.26168e-08
3.66126e-08 5.26168e-08 0.0325511

0.0346359 0.00441781 -1.20971e-07
0.00441781 0.0343667 5.67516e-08
-1.20971e-07 5.67516e-08 0.0348889

0.0343332 7.30578e-05 6.46477e-08
7.30578e-05 0.0272905 -4.8942e-08
6.46477e-08 -4.8942e-08 0.030783

0.0286975 -0.00235367 -3.54012e-08
-0.00235367 0.0360185 -1.96107e-07
-3.54012e-08 -1.96107e-07 0.0334546

0.0345786 -0.000353125 1.23064e-07
-0.000353125 0.0273609 -2.8071e-08
1.23064e-07 -2.8071e-08 0.0319817

0.0269244 0.00347897 -2.23088e-07
0.00347897 0.03095 7.80751e-09
-2.23088e-07 7.80751e-09 0.0275809

0.0338898 -0.00055077 -2.71257e-08
-0.00055077 0.0264135 -1.81433e-07
-2.71257e-08 -1.81433e-07 0.0301388

0.0266262 0.00113549 -1.04128e-07
0.00113549 0.0340392 1.05286e-07
-1.04128e-07 1.05286e-07 0.0291544

0.045295 0.000851481 -1.48851e-07
0.000851481 0.0452648 -1.24798e-07
-1.48851e-07 -1.24798e-07 0.0366418

0.0336809 0.000247597 -5.56614e-09
0.000247597 0.0263194 2.07965e-07
-5.56614e-09 2.07965e-07 0.0298096

0.0293144 -0.00363265 3.11848e-09
-0.00363265 0.0311408 -2.74507e-08
3.11848e-09 -2.74507e-08 0.0300512

0.0337851 0.000900455 3.58403e-08
0.000900455 0.0265006 2.08393e-08
3.58403e-08 2.08393e-08 0.0300858

0.0285507 0.00250771 1.97194e-07
0.00250771 0.033899 1.22274e-08
1.97194e-07 1.22274e-08 0.0322916

0.028634 0.000526869 9.74723e-08
0.000526869 0.0176921 3.39459e-08
9.74723e-08 3.39459e-08 0.0131734

0.0309189 0.00403504 9.82983e-08
0.00403504 0.0306511 -4.21179e-08
9.82983e-08 -4.21179e-08 0.0306152

0.0259287 0.00477742 -1.00169e-07
0.00477742 0.0257371 6.01323e-08
-1.00169e-07 6.01323e-08 0.0211314

0.0415312 0.00137021 1.04689e-07
0.00137021 0.0383538 2.28122e-08
1.04689e-07 2.28122e-08 0.0361391

0.0344158 0.00187135 -1.93075e-08
0.00187135 0.0279569 -7.77139e-08
-1.93075e-08 -7.77139e-08 0.0310046

0.0217629 -0.00228839 1.66396e-08
-0.00228839 0.0299973 -6.39136e-08
1.66396e-08 -6.39136e-08 0.0211283

0.0228666 -0.0053533 -1.91349e-07
-0.0053533 0.0234763 5.85348e-08
-1.91349e-07 5.85348e-08 0.0125809

0.0348356 0.000800631 1.86154e-07
0.000800631 0.0422578 3.06075e-09
1.86154e-07 3.06075e-09 0.0357902

0.0374561 -0.000661501 3.02271e-08
-0.000661501 0.0412052 -2.37472e-08
3.02271e-08 -2.37472e-08 0.0359048

0.0410778 0.00281326 8.93843e-08
0.00281326 0.0359895 5.61588e-08
8.93843e-08 5.61588e-08 0.0357705

0.0372567 0.000704837 1.3954e-07
0.000704837 0.0432169 -2.05658e-07
1.3954e-07 -2.05658e-07 0.0361455

0.0402634 -0.00121891 -2.29043e-07
-0.00121891 0.0378332 6.01844e-09
-2.29043e-07 6.01844e-09 0.0358121

0.0312205 -0.00367828 8.77043e-08
-0.00367828 0.0311283 -2.2357e-08
8.77043e-08 -2.2357e-08 0.03093

0.0227506 0.00527997 2.5213e-08
0.00527997 0.0237123 -2.2102e-07
2.5213e-08 -2.2102e-07 0.012583

0.0297657 -0.00231619 3.18653e-08
-0.00231619 0.0220341 -2.81349e-08
3.18653e-08 -2.81349e-08 0.0208782

0.0376221 -0.000522553 -1.10148e-08
-0.000522553 0.0430651 -3.34878e-08
-1.10148e-08 -3.34878e-08 0.0361482

0.0412426 0.00263376 5.90832e-08
0.00263376 0.0394174 1.11676e-07
5.90832e-08 1.11676e-07 0.0361307

0.034306 -0.00161723 -6.96439e-08
-0.00161723 0.027999 -2.18677e-09
-6.96439e-08 -2.18677e-09 0.0310885

0.0231091 -0.00552695 3.05804e-09
-0.00552695 0.0235663 -1.5439e-07
3.05804e-09 -1.5439e-07 0.0162186

0.0299483 -0.00233279 -1.63249e-07
-0.00233279 0.0221584 4.58357e-08
-1.63249e-07 4.58357e-08 0.0213476

0.0258977 0.00222783 -5.06941e-08
0.00222783 0.0326596 -6.50908e-09
-5.06941e-08 -6.50908e-09 0.0279197

0.0275553 0.0025293 -2.17121e-07
0.0025293 0.0323794 -1.3985e-09
-2.17121e-07 -1.3985e-09 0.0284952

0.0341804 -0.00214097 9.3544e-08
-0.00214097 0.0271114 1.5398e-07
9.3544e-08 1.5398e-07 0.0304766

0.0229059 -0.00439326 -7.85062e-08
-0.00439326 0.0272531 1.33642e-08
-7.85062e-08 1.33642e-08 0.0198535

0.0294985 0.00247209 1.5336e-07
0.00247209 0.0218374 -2.46217e-07
1.5336e-07 -2.46217e-07 0.0202841

0.0298773 -0.00327168 7.76618e-09
-0.00327168 0.0245172 6.03924e-09
7.76618e-09 6.03924e-09 0.0230519

0.034481 0.00257726 -4.13968e-08
0.00257726 0.0382069 8.43698e-08
-4.13968e-08 8.43698e-08 0.0352751

0.028694 0.00383943 1.47937e-07
0.00383943 0.0257837 5.38359e-08
1.47937e-07 5.38359e-08 0.0231204

0.0349326 -0.00291574 8.38797e-08
-0.00291574 0.0374356 5.44263e-08
8.38797e-08 5.44263e-08 0.0351934

0.0255839 -0.00545649 -1.52637e-07
-0.00545649 0.0229058 -1.19766e-08
-1.52637e-07 -1.19766e-08 0.0158221

0.0373496 0.00074552 -2.00649e-07
0.00074552 0.0414161 4.38104e-08
-2.00649e-07 4.38104e-08 0.0359253

0.0231711 -0.000693391 3.75227e-08
-0.000693391 0.0313186 -2.8177e-08
3.75227e-08 -2.8177e-08 0.0231065

0.0410319 0.00138014 -4.02896e-08
0.00138014 0.0377099 -1.75342e-08
-4.02896e-08 -1.75342e-08 0.0359035

0.0276802 0.00280549 -1.91573e-07
0.00280549 0.0327548 9.14298e-08
-1.91573e-07 9.14298e-08 0.0302357

0.036144 0.000785169 -2.26207e-08
0.000785169 0.0281364 -1.8576e-08
-2.26207e-08 -1.8576e-08 0.0336778

0.0362591 0.00153391 -7.67908e-09
0.00153391 0.0316977 1.29013e-07
-7.67908e-09 1.29013e-07 0.0342252

0.0286416 0.0040577 1.06892e-07
0.0040577 0.0199001 1.13851e-07
1.06892e-07 1.13851e-07 0.0137614

0.0309769 -0.000784162 1.32089e-07
-0.000784162 0.0370894 -9.1811e-08
1.32089e-07 -9.1811e-08 0.0338861

0.0315594 0.0012438 4.72769e-08
0.0012438 0.0364254 -8.38258e-08
4.72769e-08 -8.38258e-08 0.0342641

0.0285532 -0.00037532 -1.09643e-07
-0.00037532 0.0369606 2.9246e-08
-1.09643e-07 2.9246e-08 0.0326752

0.0296074 0.00307102 6.95503e-08
0.00307102 0.0347963 -1.00104e-07
6.95503e-08 -1.00104e-07 0.0337135

0.0347247 0.0011223 2.60525e-08
0.0011223 0.0278433 -7.44115e-08
2.60525e-08 -7.44115e-08 0.0322133

0.0291922 -0.0036996 -6.48933e-08
-0.0036996 0.0310263 -2.0705e-08
-6.48933e-08 -2.0705e-08 0.0299142

0.03506 -0.000237023 2.04797e-08
-0.000237023 0.0275849 5.15405e-08
2.04797e-08 5.15405e-08 0.0333979

0.0344557 -0.0025478 -1.53773e-07
-0.0025478 0.038138 1.15824e-07
-1.53773e-07 1.15824e-07 0.0352651

0.0350146 0.00284966 -1.42001e-07
0.00284966 0.0375731 -1.22202e-08
-1.42001e-07 -1.22202e-08 0.0352449

0.0218919 -0.0021323 1.09248e-07
-0.0021323 0.0299271 1.5318e-07
1.09248e-07 1.5318e-07 0.0208547

0.0347063 -0.00369141 1.21144e-07
-0.00369141 0.0319623 -1.29594e-07
1.21144e-07 -1.29594e-07 0.0330835

0.0292967 -0.00329795 -6.6204e-09
-0.00329795 0.0321181 8.21463e-08
-6.6204e-09 8.21463e-08 0.030438

0.0267835 -0.00401764 -1.56912e-07
-0.00401764 0.0176076 2.02605e-07
-1.56912e-07 2.02605e-07 0.0127279

0.0324079 0.000418843 -1.15435e-07
0.000418843 0.0381096 2.79235e-08
-1.15435e-07 2.79235e-08 0.0344102

0.0345418 0.00381783 1.74487e-07
0.00381783 0.0309463 -2.40475e-08
1.74487e-07 -2.40475e-08 0.0326648

0.028381 0.00258166 9.1851e-10
0.00258166 0.0341346 5.05878e-08
9.1851e-10 5.05878e-08 0.0322185

0.0315474 0.0010379 -1.74043e-08
0.0010379 0.0228473 2.50369e-07
-1.74043e-08 2.50369e-07 0.0240731

0.0271014 -0.00435953 1.90705e-07
-0.00435953 0.0237405 -1.3823e-07
1.90705e-07 -1.3823e-07 0.0183265

0.0362632 -0.00140259 2.15665e-07
-0.00140259 0.0387467 -4.29468e-08
2.15665e-07 -4.29468e-08 0.0354054

0.0315606 0.00317119 -3.53068e-08
0.00317119 0.0344057 5.53965e-08
-3.53068e-08 5.53965e-08 0.0340949

0.0273057 -0.00415696 5.78537e-08
-0.00415696 0.0221783 -6.28947e-08
5.78537e-08 -6.28947e-08 0.0184143

0.0303631 0.00139125 -1.09864e-07
0.00139125 0.0228339 2.51445e-07
-1.09864e-07 2.51445e-07 0.0209579

0.0186046 -0.00269755 1.35139e-07
-0.00269755 0.0289331 1.49885e-07
1.35139e-07 1.49885e-07 0.0158955

0.0272042 0.00188915 -1.45937e-07
0.00188915 0.0343254 5.37771e-09
-1.45937e-07 5.37771e-09 0.0306592

0.0353864 0.00305734 8.86589e-08
0.00305734 0.0308242 1.80391e-07
8.86589e-08 1.80391e-07 0.0327582

0.0226512 0.00538692 1.79796e-07
0.00538692 0.0240922 -4.3304e-08
1.79796e-07 -4.3304e-08 0.0162011

0.0459505 0.00223752 -2.25694e-07
0.00223752 0.0417519 4.58899e-07
-2.25694e-07 4.58899e-07 0.0366428

0.0230848 -0.000534482 3.43349e-08
-0.000534482 0.0313595 -5.02501e-09
3.43349e-08 -5.02501e-09 0.0230763

0.0463635 -0.00225532 5.96905e-07
-0.00225532 0.0412959 4.47873e-07
5.96905e-07 4.47873e-07 0.0365979

0.0370691 -0.00362418 1.13078e-07
-0.00362418 0.0334954 3.82244e-09
1.13078e-07 3.82244e-09 0.0346252

0.0351421 0.00361944 1.02071e-07
0.00361944 0.0300086 1.30638e-07
1.02071e-07 1.30638e-07 0.0324609

0.0299671 -0.00315964 -1.18997e-07
-0.00315964 0.0246944 -2.36407e-08
-1.18997e-07 -2.36407e-08 0.0232897

0.0230158 0.00403069 1.53407e-07
0.00403069 0.0277836 -8.42138e-08
1.53407e-07 -8.42138e-08 0.0203853

0.021097 -0.00137885 1.70087e-08
-0.00137885 0.0298999 -6.48481e-08
1.70087e-08 -6.48481e-08 0.0182545

0.0287506 0.00288903 2.9404e-08
0.00288903 0.0342323 5.56844e-08
2.9404e-08 5.56844e-08 0.0327044

0.0370159 0.00223628 1.76039e-07
0.00223628 0.0334558 -9.1364e-08
1.76039e-07 -9.1364e-08 0.0343886

0.0281529 0.00198857 -3.07203e-08
0.00198857 0.0340651 -1.12108e-07
-3.07203e-08 -1.12108e-07 0.0308701

0.0318883 0.00207345 -2.07411e-07
0.00207345 0.025258 -4.73766e-08
-2.07411e-07 -4.73766e-08 0.0256216

0.0239112 -0.00277481 -1.19573e-08
-0.00277481 0.0297698 1.40541e-07
-1.19573e-08 1.40541e-07 0.021565

0.0279031 -0.00376433 2.42145e-07
-0.00376433 0.0218183 -1.1555e-08
2.42145e-07 -1.1555e-08 0.0180788

0.0293365 -0.00323226 -2.16107e-07
-0.00323226 0.0326348 5.04502e-08
-2.16107e-07 5.04502e-08 0.0324076

0.0306313 0.00361516 1.30059e-07
0.00361516 0.0322335 1.12728e-07
1.30059e-07 1.12728e-07 0.0323753

0.028713 0.00304831 -2.27453e-07
0.00304831 0.0340322 -4.10952e-08
-2.27453e-07 -4.10952e-08 0.0326348

0.0292111 0.00172534 7.13413e-08
0.00172534 0.0376218 -7.08468e-08
7.13413e-08 -7.08468e-08 0.0338505

0.034483 0.00123267 -9.227e-08
0.00123267 0.0275282 9.8305e-08
-9.227e-08 9.8305e-08 0.0306793

0.0199635 -0.000605388 1.27006e-07
-0.000605388 0.0296653 1.25839e-07
1.27006e-07 1.25839e-07 0.0181068

0.0298022 -0.0048627 -1.52199e-07
-0.0048627 0.0330543 -7.42681e-08
-1.52199e-07 -7.42681e-08 0.0337462

0.0290858 0.00360041 2.10612e-08
0.00360041 0.0313646 3.04684e-08
2.10612e-08 3.04684e-08 0.0302685

0.018108 0.000282937 1.30418e-08
0.000282937 0.0293152 -6.3898e-08
1.30418e-08 -6.3898e-08 0.0168811

0.0278478 0.00442462 -2.29208e-07
0.00442462 0.0209711 -1.50858e-07
-2.29208e-07 -1.50858e-07 0.0174575

0.0291958 -0.00302083 6.31422e-08
-0.00302083 0.0327084 1.56086e-07
6.31422e-08 1.56086e-07 0.03219

0.0352478 0.000759704 -8.77317e-09
0.000759704 0.0273435 -8.54955e-09
-8.77317e-09 -8.54955e-09 0.0325573

0.0294321 0.00352086 8.74369e-08
0.00352086 0.025205 1.39541e-07
8.74369e-08 1.39541e-07 0.0231149

0.0396394 0.00171003 1.11107e-07
0.00171003 0.0390418 -9.53619e-08
1.11107e-07 -9.53619e-08 0.0359438

0.0283794 0.00312399 -1.75038e-07
0.00312399 0.0224046 -1.43493e-07
-1.75038e-07 -1.43493e-07 0.0182893

0.0394922 -0.00175071 1.11181e-07
-0.00175071 0.0390674 -9.90036e-08
1.11181e-07 -9.90036e-08 0.035909

0.0232644 0.000103593 9.43527e-08
0.000103593 0.0315231 -2.08305e-08
9.43527e-08 -2.08305e-08 0.0231233

0.0327638 -0.000288459 -5.94974e-08
-0.000288459 0.0246637 4.24605e-08
-5.94974e-08 4.24605e-08 0.0269703

0.0380582 -0.00212878 -3.45734e-08
-0.00212878 0.0304683 -1.04341e-07
-3.45734e-08 -1.04341e-07 0.0347974

0.0292429 0.003206 -4.33323e-08
0.003206 0.0332831 -1.0249e-07
-4.33323e-08 -1.0249e-07 0.0333474

0.028955 -0.00177272 -7.57165e-08
-0.00177272 0.0366138 -1.53284e-08
-7.57165e-08 -1.53284e-08 0.033504

0.0365881 -0.00108476 -6.11773e-08
-0.00108476 0.0264815 1.79741e-07
-6.11773e-08 1.79741e-07 0.0338644

0.0311843 -0.00292555 1.31301e-07
-0.00292555 0.0383096 -7.34177e-08
1.31301e-07 -7.34177e-08 0.0348477

0.0381678 -0.000885247 -4.55147e-08
-0.000885247 0.0387337 8.38799e-08
-4.55147e-08 8.38799e-08 0.0358391

0.0301849 -0.00394009 1.63476e-07
-0.00394009 0.0327156 1.55773e-07
1.63476e-07 1.55773e-07 0.0327678

0.0213357 0.00146982 -3.17392e-08
0.00146982 0.0296181 -8.95712e-08
-3.17392e-08 -8.95712e-08 0.0182984

0.0293927 -0.00364647 2.24846e-08
-0.00364647 0.0253531 3.98552e-08
2.24846e-08 3.98552e-08 0.0231856

0.0328628 -0.00181659 9.10815e-08
-0.00181659 0.0397213 1.02752e-08
9.10815e-08 1.02752e-08 0.0352449

0.0350962 7.67669e-05 8.56902e-09
7.67669e-05 0.0272268 -7.05916e-09
8.56902e-09 -7.05916e-09 0.0332557

0.0308224 -0.00282894 -9.76207e-08
-0.00282894 0.0348964 2.13692e-08
-9.76207e-08 2.13692e-08 0.0340883

0.0295391 0.00338876 1.15529e-07
0.00338876 0.0328765 1.66057e-07
1.15529e-07 1.66057e-07 0.0333305

0.0264643 -0.00406419 1.74034e-08
-0.00406419 0.0272657 1.54701e-08
1.74034e-08 1.54701e-08 0.0215878

0.0371749 -0.000957628 -4.37701e-08
-0.000957628 0.0416126 -3.49486e-08
-4.37701e-08 -3.49486e-08 0.0358902

0.0227141 -0.00423845 -1.72557e-07
-0.00423845 0.0272478 1.63896e-07
-1.72557e-07 1.63896e-07 0.01688

0.0341879 -0.00252521 9.39563e-08
-0.00252521 0.0286105 1.17932e-07
9.39563e-08 1.17932e-07 0.0310487

0.03643 0.000290229 1.40927e-07
0.000290229 0.0294418 -8.0946e-08
1.40927e-07 -8.0946e-08 0.034198

0.0396444 0.00239609 5.18599e-08
0.00239609 0.0391155 1.01733e-07
5.18599e-08 1.01733e-07 0.0358712

0.0238597 0.00260978 8.67553e-08
0.00260978 0.0301561 3.85418e-08
8.67553e-08 3.85418e-08 0.0218021

0.0334354 0.00358181 1.03364e-07
0.00358181 0.0307196 -4.34149e-08
1.03364e-07 -4.34149e-08 0.0317715

0.0316479 -0.00319489 -9.17995e-08
-0.00319489 0.0265559 -1.85262e-07
-9.17995e-08 -1.85262e-07 0.0269394

0.0289334 -0.00234119 -7.83137e-08
-0.00234119 0.0342396 -2.11108e-08
-7.83137e-08 -2.11108e-08 0.0326102

0.0262482 0.00450236 -1.39841e-07
0.00450236 0.0245613 1.0327e-08
-1.39841e-07 1.0327e-08 0.0180838

0.0284273 -0.00286689 1.53917e-07
-0.00286689 0.0340375 1.06251e-07
1.53917e-07 1.06251e-07 0.0324535

0.0331536 0.00405935 2.6394e-08
0.00405935 0.0304685 1.95329e-07
2.6394e-08 1.95329e-07 0.0315465

0.03334 -0.00331213 -2.67671e-07
-0.00331213 0.0283611 -5.01036e-08
-2.67671e-07 -5.01036e-08 0.0300501

0.0291653 -0.00329602 2.57607e-07
-0.00329602 0.0319925 2.34661e-07
2.57607e-07 2.34661e-07 0.0304417

0.0314603 -0.00242983 -2.02295e-07
-0.00242983 0.0247224 -2.34512e-08
-2.02295e-07 -2.34512e-08 0.02516

0.0329609 -0.00246714 -1.66883e-07
-0.00246714 0.0267135 -1.94666e-07
-1.66883e-07 -1.94666e-07 0.0286007

0.0294963 -0.00334204 2.14911e-07
-0.00334204 0.0329552 5.73829e-08
2.14911e-07 5.73829e-08 0.0334118

0.0261381 0.00463473 -2.34694e-07
0.00463473 0.025545 1.04692e-08
-2.34694e-07 1.04692e-08 0.0210956

0.0281545 0.00201694 2.16887e-07
0.00201694 0.0343409 6.92901e-08
2.16887e-07 6.92901e-08 0.0311138

0.030891 0.00348127 -9.23297e-08
0.00348127 0.0322599 1.69448e-08
-9.23297e-08 1.69448e-08 0.0326047

0.0291619 0.00334813 -1.56441e-07
0.00334813 0.0331967 1.1447e-07
-1.56441e-07 1.1447e-07 0.0332649

0.0289885 0.00152338 1.23888e-07
0.00152338 0.0354751 -5.17048e-08
1.23888e-07 -5.17048e-08 0.0326999

0.0310578 -0.00106194 -5.28626e-08
-0.00106194 0.0231448 2.44307e-07
-5.28626e-08 2.44307e-07 0.0220813

0.0238874 0.00240602 1.22888e-07
0.00240602 0.0304155 8.62352e-08
1.22888e-07 8.62352e-08 0.0221164

0.0292178 -0.00320432 3.71372e-08
-0.00320432 0.0326415 -9.37425e-08
3.71372e-08 -9.37425e-08 0.031623

0.0289921 0.0033574 -2.65199e-08
0.0033574 0.0309377 -2.28528e-08
-2.65199e-08 -2.28528e-08 0.0285723

0.0266166 -0.00459218 5.6322e-08
-0.00459218 0.0252343 4.21523e-08
5.6322e-08 4.21523e-08 0.0212599

0.0262818 0.00489431 -8.44874e-08
0.00489431 0.0209492 -2.07229e-07
-8.44874e-08 -2.07229e-07 0.0167649

0.0235062 -0.00428771 6.9659e-09
-0.00428771 0.0274686 -1.95443e-08
6.9659e-09 -1.95443e-08 0.0206296

0.0266758 -0.00402835 2.96275e-08
-0.00402835 0.0274867 -1.84375e-08
2.96275e-08 -1.84375e-08 0.0220535

0.0353703 -0.000906527 -9.39901e-08
-0.000906527 0.0273953 5.28816e-08
-9.39901e-08 5.28816e-08 0.0326596

0.0260492 0.00392243 -8.14368e-08
0.00392243 0.0280965 3.10299e-08
-8.14368e-08 3.10299e-08 0.0221059

0.0307932 0.00171703 4.38032e-08
0.00171703 0.0233638 -1.9184e-07
4.38032e-08 -1.9184e-07 0.022029

0.021434 0.00172251 1.95448e-08
0.00172251 0.0302458 6.68911e-08
1.95448e-08 6.68911e-08 0.0211361

0.0242664 -0.00288994 -1.39634e-08
-0.00288994 0.0299568 -6.49405e-08
-1.39634e-08 -6.49405e-08 0.0220897

0.03135 -0.000131348 -7.89056e-08
-0.000131348 0.0392779 -1.61681e-08
-7.89056e-08 -1.61681e-08 0.0346754

0.0230617 0.000294721 -2.39105e-07
0.000294721 0.031466 -2.25552e-08
-2.39105e-07 -2.25552e-08 0.0230659

0.0227804 0.00400225 1.50199e-07
0.00400225 0.0281317 4.9991e-08
1.50199e-07 4.9991e-08 0.0206413

0.0288934 0.00158577 1.19418e-07
0.00158577 0.035838 1.23888e-07
1.19418e-07 1.23888e-07 0.0328985

0.0293209 -0.00358096 -9.40214e-08
-0.00358096 0.0251336 1.88862e-08
-9.40214e-08 1.88862e-08 0.0232435

0.0369812 0.00273283 1.71887e-07
0.00273283 0.0297281 6.58515e-09
1.71887e-07 6.58515e-09 0.0338065

0.0371797 0.00348341 -1.28708e-07
0.00348341 0.0334271 1.03475e-08
-1.28708e-07 1.03475e-08 0.0346568

0.0345493 -0.00244685 2.63535e-07
-0.00244685 0.0285344 7.43796e-09
2.63535e-07 7.43796e-09 0.0313837

0.0390603 -0.000265974 -4.91478e-08
-0.000265974 0.0339287 -1.32155e-07
-4.91478e-08 -1.32155e-07 0.0352128

0.0314843 -0.00418781 1.82373e-08
-0.00418781 0.0317869 3.47016e-08
1.82373e-08 3.47016e-08 0.0321613

0.0294673 0.00300825 -1.14867e-08
0.00300825 0.0223307 -1.15135e-07
-1.14867e-08 -1.15135e-07 0.02107

0.0302349 0.00397293 -2.88346e-08
0.00397293 0.0326688 -9.97587e-08
-2.88346e-08 -9.97587e-08 0.0327251

0.0302828 0.00384702 1.34502e-07
0.00384702 0.0326128 1.04378e-07
1.34502e-07 1.04378e-07 0.0326798

0.0262487 0.00396255 -1.79964e-07
0.00396255 0.0277724 -9.81721e-08
-1.79964e-07 -9.81721e-08 0.0218684

0.0344555 0.00357706 2.43248e-08
0.00357706 0.0317843 1.85121e-07
2.43248e-08 1.85121e-07 0.0328363

0.0302538 0.000452541 1.2608e-07
0.000452541 0.0204313 -1.85244e-08
1.2608e-07 -1.85244e-08 0.0205767

0.0331914 0.00420067 1.97172e-07
0.00420067 0.0323781 4.51259e-08
1.97172e-07 4.51259e-08 0.0334888

0.0305053 -0.00165451 -7.85059e-08
-0.00165451 0.0366214 -1.54598e-08
-7.85059e-08 -1.54598e-08 0.0336677

0.037365 0.00323258 -1.36881e-07
0.00323258 0.033464 2.97377e-08
-1.36881e-07 2.97377e-08 0.0346689

0.0307427 -0.00389595 5.2263e-08
-0.00389595 0.0322788 1.0896e-07
5.2263e-08 1.0896e-07 0.0326853

0.0293784 -0.000644759 5.99251e-08
-0.000644759 0.036908 4.38855e-08
5.99251e-08 4.38855e-08 0.0328528

0.0288175 -0.00315302 1.40704e-07
-0.00315302 0.0221434 4.85169e-08
1.40704e-07 4.85169e-08 0.0187621

0.0290075 0.00384535 -7.88871e-09
0.00384535 0.025582 4.90639e-09
-7.88871e-09 4.90639e-09 0.0230767

0.0217047 0.00189144 -2.59477e-07
0.00189144 0.0300664 1.43639e-08
-2.59477e-07 1.43639e-08 0.0210874

0.0349957 -0.00016145 1.30359e-07
-0.00016145 0.027395 5.2866e-08
1.30359e-07 5.2866e-08 0.0333067

0.0344257 2.27428e-07 -3.5144e-08
2.27428e-07 0.0272796 -5.61404e-08
-3.5144e-08 -5.61404e-08 0.0320463

0.0291708 0.00304017 -5.00662e-09
0.00304017 0.0326856 1.10427e-07
-5.00662e-09 1.10427e-07 0.0321378

0.0314553 0.00316629 8.42039e-08
0.00316629 0.0342553 -1.57735e-07
8.42039e-08 -1.57735e-07 0.0340631

0.0291742 -0.00320445 1.02949e-08
-0.00320445 0.0332441 -9.68053e-08
1.02949e-08 -9.68053e-08 0.0333841

0.0287784 -8.58564e-05 -1.23063e-07
-8.58564e-05 0.03671 -1.91998e-07
-1.23063e-07 -1.91998e-07 0.0325306

0.0294698 0.00337588 -4.5324e-08
0.00337588 0.0330802 -1.71505e-07
-4.5324e-08 -1.71505e-07 0.0333598

0.0328657 -0.00134677 7.85224e-08
-0.00134677 0.0253661 9.2778e-08
7.85224e-08 9.2778e-08 0.0278336

0.0263595 -0.00425559 1.94338e-08
-0.00425559 0.0281845 1.22284e-08
1.94338e-08 1.22284e-08 0.0242718

0.036303 -0.000331938 -8.21825e-08
-0.000331938 0.0293882 -2.41722e-08
-8.21825e-08 -2.41722e-08 0.0340329

0.0267854 -0.0044466 1.71751e-08
-0.0044466 0.0251947 1.51093e-08
1.71751e-08 1.51093e-08 0.0209528

0.0309045 0.00250715 8.71614e-08
0.00250715 0.0350686 5.24713e-08
8.71614e-08 5.24713e-08 0.0340727

0.0351182 -0.00349688 1.02168e-07
-0.00349688 0.0303929 2.45365e-07
1.02168e-07 2.45365e-07 0.0326197

0.0305073 -0.00125 -8.3329e-08
-0.00125 0.0229821 -2.96098e-07
-8.3329e-08 -2.96098e-07 0.0214821

0.0371517 -0.00307733 -4.91448e-08
-0.00307733 0.031658 -9.87148e-08
-4.91448e-08 -9.87148e-08 0.0339927

0.034975 0.000321943 -1.26511e-07
0.000321943 0.0275602 -9.5798e-08
-1.26511e-07 -9.5798e-08 0.0334351

0.0358478 -0.00308854 6.78078e-08
-0.00308854 0.0332627 -1.45877e-07
6.78078e-08 -1.45877e-07 0.0341482

0.0349341 -0.0034109 5.41869e-08
-0.0034109 0.0295997 1.53873e-07
5.41869e-08 1.53873e-07 0.032183

0.0349151 -0.00113391 -1.23374e-07
-0.00113391 0.027855 5.16603e-09
-1.23374e-07 5.16603e-09 0.0323465

0.0314947 -0.00306247 -3.19195e-08
-0.00306247 0.0344531 -3.03665e-09
-3.19195e-08 -3.03665e-09 0.0341515

0.0292406 -0.00407185 -1.13556e-07
-0.00407185 0.0269043 2.37038e-07
-1.13556e-07 2.37038e-07 0.0253505

0.0349981 -0.0032442 2.10032e-08
-0.0032442 0.0299201 2.30507e-08
2.10032e-08 2.30507e-08 0.0322002

0.031468 0.00140946 -1.38783e-07
0.00140946 0.0233309 -2.01543e-07
-1.38783e-07 -2.01543e-07 0.0244879

0.0336699 0.00348456 2.03042e-07
0.00348456 0.0334485 3.60892e-08
2.03042e-07 3.60892e-08 0.0336548

0.0298979 -0.00496689 3.50701e-09
-0.00496689 0.0330838 6.58224e-08
3.50701e-09 6.58224e-08 0.0338622

0.0300485 0.00492019 9.6638e-08
0.00492019 0.0329456 -1.77716e-07
9.6638e-08 -1.77716e-07 0.0338291

0.027694 -0.00374172 1.18295e-07
-0.00374172 0.0348122 -4.67283e-08
1.18295e-07 -4.67283e-08 0.0337717

0.0279316 0.00354689 7.05401e-09
0.00354689 0.0348405 -1.02803e-07
7.05401e-09 -1.02803e-07 0.0337366

0.0364352 -0.00115377 5.13495e-08
-0.00115377 0.0263477 1.94102e-07
5.13495e-08 1.94102e-07 0.0337629

0.0362042 0.00124744 -6.68328e-09
0.00124744 0.026569 -4.31323e-08
-6.68328e-09 -4.31323e-08 0.0337257

0.03504 -0.00130675 5.42945e-10
-0.00130675 0.0284729 -8.57789e-08
5.42945e-10 -8.57789e-08 0.0325809

0.0344411 0.0042584 -6.36165e-08
0.0042584 0.0342944 -1.60556e-07
-6.36165e-08 -1.60556e-07 0.0348172

0.034317 -0.00435628 1.07176e-07
-0.00435628 0.0342857 9.5015e-08
1.07176e-07 9.5015e-08 0.0348056

0.0305262 0.0020935 6.83816e-08
0.0020935 0.0381693 8.96517e-08
6.83816e-08 8.96517e-08 0.0348544

0.0306691 -0.00205949 -4.72552e-08
-0.00205949 0.0380996 1.10631e-07
-4.72552e-08 1.10631e-07 0.0348416

0.0395057 -0.000529206 1.03731e-07
-0.000529206 0.0328537 -8.04222e-08
1.03731e-07 -8.04222e-08 0.0352624

0.0397081 0.000513728 1.79372e-07
0.000513728 0.0326263 7.56262e-08
1.79372e-07 7.56262e-08 0.0353076

0.0239691 0.00127617 -1.79548e-07
0.00127617 0.0320089 8.774e-08
-1.79548e-07 8.774e-08 0.0251887

0.0311675 -0.00326595 3.3795e-08
-0.00326595 0.032246 -5.94948e-08
3.3795e-08 -5.94948e-08 0.0328069

0.0277859 -0.0047854 1.28e-07
-0.0047854 0.0333175 -9.95173e-08
1.28e-07 -9.95173e-08 0.0334604

0.033365 -0.000610636 -7.82684e-08
-0.000610636 0.0264078 -1.84703e-07
-7.82684e-08 -1.84703e-07 0.028453

0.0381921 -0.00225139 7.69798e-08
-0.00225139 0.0307994 -1.2594e-07
7.69798e-08 -1.2594e-07 0.0348974

0.0382401 0.00218351 2.10664e-07
0.00218351 0.0309125 2.87873e-08
2.10664e-07 2.87873e-08 0.0349296

0.0360894 1.56218e-05 -9.34609e-08
1.56218e-05 0.0251319 -1.54521e-07
-9.34609e-08 -1.54521e-07 0.0334755

0.024245 0.00302962 1.29076e-07
0.00302962 0.0304031 1.15636e-07
1.29076e-07 1.15636e-07 0.0242813

0.0276801 0.00475604 1.397e-07
0.00475604 0.0333181 1.26975e-07
1.397e-07 1.26975e-07 0.0333982

0.0286802 -0.00307605 -3.31609e-08
-0.00307605 0.0342665 -2.19368e-08
-3.31609e-08 -2.19368e-08 0.0327574

0.031091 0.00303626 8.98383e-08
0.00303626 0.0251509 1.39968e-07
8.98383e-08 1.39968e-07 0.0254716

0.0372318 0.00316575 -9.8352e-08
0.00316575 0.0315453 1.63183e-07
-9.8352e-08 1.63183e-07 0.0340806

0.0292321 -0.00406815 4.01438e-08
-0.00406815 0.0269403 -1.98212e-07
4.01438e-08 -1.98212e-07 0.0253257

0.0364068 -0.000453932 -8.3208e-08
-0.000453932 0.0296966 1.3613e-07
-8.3208e-08 1.3613e-07 0.0341359

0.0273505 -0.00449453 1.36862e-07
-0.00449453 0.0334009 -1.86737e-07
1.36862e-07 -1.86737e-07 0.033447

0.0240419 0.0010792 8.77448e-08
0.0010792 0.03225 -3.48972e-08
8.77448e-08 -3.48972e-08 0.0255104

0.0242337 0.00282711 2.68866e-09
0.00282711 0.0307072 -1.56085e-07
2.68866e-09 -1.56085e-07 0.0245492

0.0267971 0.00459528 -2.79874e-07
0.00459528 0.0240457 -5.59975e-08
-2.79874e-07 -5.59975e-08 0.0182167

0.0298562 0.000199903 -2.3048e-07
0.000199903 0.0200914 -7.36039e-08
-2.3048e-07 -7.36039e-08 0.0193658

0.0319136 -0.0030241 -2.25762e-08
-0.0030241 0.0341671 1.00968e-07
-2.25762e-08 1.00968e-07 0.0340406

0.0229223 0.00400048 5.44127e-08
0.00400048 0.0276648 -1.21944e-07
5.44127e-08 -1.21944e-07 0.0176561

0.0292149 0.00310119 -1.43928e-08
0.00310119 0.0327691 9.6061e-08
-1.43928e-08 9.6061e-08 0.0310173

0.0316005 -0.000694609 1.20653e-07
-0.000694609 0.0231638 2.49469e-07
1.20653e-07 2.49469e-07 0.0244891

0.032767 0.00146482 2.08973e-07
0.00146482 0.0253511 -8.13122e-08
2.08973e-07 -8.13122e-08 0.0276177

0.0359839 5.62321e-05 5.52409e-08
5.62321e-05 0.0249649 -8.26443e-08
5.52409e-08 -8.26443e-08 0.0333914

0.0279718 -0.00380528 7.35063e-08
-0.00380528 0.0349545 1.64746e-08
7.35063e-08 1.64746e-08 0.033821

0.0393167 -0.000843697 1.66049e-07
-0.000843697 0.0416051 2.11462e-08
1.66049e-07 2.11462e-08 0.0361943

0.0298734 0.00493886 -9.42219e-08
0.00493886 0.0329621 1.60318e-07
-9.42219e-08 1.60318e-07 0.0337842

0.0302936 0.000214547 -1.21866e-07
0.000214547 0.0204 -3.46935e-08
-1.21866e-07 -3.46935e-08 0.0172791

0.0266784 -0.00425145 1.7686e-08
-0.00425145 0.0281382 -7.90837e-10
1.7686e-08 -7.90837e-10 0.0244418

0.0277523 0.00481547 -8.43553e-08
0.00481547 0.033321 -1.02982e-07
-8.43553e-08 -1.02982e-07 0.0334605

0.0279497 -0.00145858 -1.64754e-07
-0.00145858 0.0350908 -8.93222e-08
-1.64754e-07 -8.93222e-08 0.0314553

0.0244693 -0.00330584 1.75509e-07
-0.00330584 0.0300209 -1.64073e-07
1.75509e-07 -1.64073e-07 0.0242213

0.0279966 0.00377946 -1.43701e-07
0.00377946 0.0349158 6.74328e-08
-1.43701e-07 6.74328e-08 0.0337919

0.0313671 -0.0034102 1.05048e-07
-0.0034102 0.0270133 2.58785e-07
1.05048e-07 2.58785e-07 0.026996

0.0402825 0.00140882 3.99952e-08
0.00140882 0.0406199 -1.78866e-07
3.99952e-08 -1.78866e-07 0.0361747

0.0258857 0.00400396 -1.2785e-07
0.00400396 0.0289598 -5.45272e-08
-1.2785e-07 -5.45272e-08 0.0245153

0.0366833 0.00110273 1.76554e-08
0.00110273 0.0263582 1.07849e-07
1.76554e-08 1.07849e-07 0.0339029

0.0333469 0.00398447 7.04067e-09
0.00398447 0.0321211 1.26222e-07
7.04067e-09 1.26222e-07 0.0333207

0.0292336 0.00306769 -1.87866e-07
0.00306769 0.0326111 -1.04864e-07
-1.87866e-07 -1.04864e-07 0.0321629

0.0343693 -0.00431037 -9.88659e-08
-0.00431037 0.0345097 -1.48171e-09
-9.88659e-08 -1.48171e-09 0.0348897

0.0354944 -0.00306383 -1.69012e-08
-0.00306383 0.0305948 2.59433e-09
-1.69012e-08 2.59433e-09 0.0327553

0.0333703 0.00138737 -7.47373e-08
0.00138737 0.0395817 5.03545e-08
-7.47373e-08 5.03545e-08 0.0350072

0.0292021 -0.0030796 2.21449e-07
-0.0030796 0.0328797 -9.65798e-08
2.21449e-07 -9.65798e-08 0.0313885

0.0292702 -0.00123252 1.10142e-07
-0.00123252 0.01929 2.78819e-08
1.10142e-07 2.78819e-08 0.0164151

0.0287836 -0.00183271 8.99089e-09
-0.00183271 0.0184167 2.37283e-07
8.99089e-09 2.37283e-07 0.0161999

0.0385334 0.00220254 -7.30802e-08
0.00220254 0.0332434 -8.92396e-08
-7.30802e-08 -8.92396e-08 0.0347676

0.0280612 0.0029459 2.02607e-07
0.0029459 0.0323415 2.65365e-09
2.02607e-07 2.65365e-09 0.0295233

0.0320726 0.00383502 -1.34801e-07
0.00383502 0.030966 -4.95752e-08
-1.34801e-07 -4.95752e-08 0.0314596

0.032056 8.99728e-05 8.95172e-08
8.99728e-05 0.0245812 2.40365e-08
8.95172e-08 2.40365e-08 0.0248925

0.0302422 0.000866051 7.50506e-08
0.000866051 0.0385859 8.61819e-08
7.50506e-08 8.61819e-08 0.0341012

0.0354078 0.00219162 6.98071e-08
0.00219162 0.0293281 1.70075e-08
6.98071e-08 1.70075e-08 0.0328635

0.0248158 -0.00333972 -3.70265e-08
-0.00333972 0.0300121 -2.88537e-08
-3.70265e-08 -2.88537e-08 0.0244745

0.0286553 -0.000337847 -7.75275e-08
-0.000337847 0.0366629 -1.87612e-07
-7.75275e-08 -1.87612e-07 0.0324009

0.0252197 0.00174053 1.40782e-07
0.00174053 0.0320357 9.73949e-08
1.40782e-07 9.73949e-08 0.0256886

0.0332863 -0.00391015 3.47305e-08
-0.00391015 0.0305017 5.67053e-09
3.47305e-08 5.67053e-09 0.0315975

0.0290702 -0.003897 1.51426e-07
-0.003897 0.0282054 1.66246e-08
1.51426e-07 1.66246e-08 0.0257182

0.0261539 0.00409976 -1.05798e-07
0.00409976 0.0285518 3.32336e-08
-1.05798e-07 3.32336e-08 0.0243225

0.0452886 -0.00201678 -4.04556e-08
-0.00201678 0.0396084 6.36819e-09
-4.04556e-08 6.36819e-09 0.0363712

0.0316712 0.000256592 -5.85325e-08
0.000256592 0.0393317 5.23133e-08
-5.85325e-08 5.23133e-08 0.0347739

0.0306218 0.00265082 1.08117e-08
0.00265082 0.0384467 4.75141e-08
1.08117e-08 4.75141e-08 0.0349626

0.0387702 0.00209435 -1.34208e-07
0.00209435 0.030227 -1.42907e-17
-1.34208e-07 -1.42907e-17 0.0349474

0.0313764 -0.00345099 2.69889e-08
-0.00345099 0.0321458 7.00201e-08
2.69889e-08 7.00201e-08 0.0325779

0.0318237 0.00233652 5.53445e-08
0.00233652 0.0256249 1.90776e-07
5.53445e-08 1.90776e-07 0.0258843

0.0349972 -0.000708164 4.6177e-08
-0.000708164 0.0415787 -1.84883e-07
4.6177e-08 -1.84883e-07 0.0357322

0.0357939 -0.00251874 -1.11298e-07
-0.00251874 0.0295554 -2.30442e-08
-1.11298e-07 -2.30442e-08 0.0332632

0.0333034 -0.00204025 -9.17005e-08
-0.00204025 0.0266575 -2.40022e-09
-9.17005e-08 -2.40022e-09 0.0286804

0.0252568 0.00151121 -6.83223e-08
0.00151121 0.0322804 -4.07006e-08
-6.83223e-08 -4.07006e-08 0.0259548

0.0268097 -0.00334552 -7.93616e-08
-0.00334552 0.0300152 -1.73266e-07
-7.93616e-08 -1.73266e-07 0.0251919

0.0364818 -0.00336065 -1.35678e-08
-0.00336065 0.0352916 -1.6802e-07
-1.35678e-08 -1.6802e-07 0.0347471

0.0284809 0.00415326 6.2906e-08
0.00415326 0.0277212 -1.06771e-07
6.2906e-08 -1.06771e-07 0.0254724

0.0372487 -0.00334532 8.42724e-08
-0.00334532 0.0333266 -7.87966e-08
8.42724e-08 -7.87966e-08 0.0346164

0.0322122 0.00033797 -1.23595e-07
0.00033797 0.024867 -2.25217e-07
-1.23595e-07 -2.25217e-07 0.0254422

0.019164 -0.00368995 1.75889e-08
-0.00368995 0.0275308 -6.37184e-08
1.75889e-08 -6.37184e-08 0.0163137

0.0292152 -0.00380447 -2.32402e-07
-0.00380447 0.0281978 -2.31511e-08
-2.32402e-07 -2.31511e-08 0.0258124

0.0230496 0.00412828 1.78292e-07
0.00412828 0.0280255 -3.84203e-08
1.78292e-07 -3.84203e-08 0.0175953

0.0296956 -0.00155931 -1.84097e-07
-0.00155931 0.0375383 -1.54804e-08
-1.84097e-07 -1.54804e-08 0.0336535

0.0243643 -0.00179409 -2.44377e-08
-0.00179409 0.0318784 6.73266e-08
-2.44377e-08 6.73266e-08 0.0254525

0.0424388 -0.00323386 1.44823e-07
-0.00323386 0.0423775 2.84538e-07
1.44823e-07 2.84538e-07 0.0363795

0.0263415 0.00309181 -6.39507e-08
0.00309181 0.0307074 -1.56243e-07
-6.39507e-08 -1.56243e-07 0.0254824

0.0334821 -0.00432346 -3.7663e-08
-0.00432346 0.0326644 -1.86073e-07
-3.7663e-08 -1.86073e-07 0.0335714

0.0240847 -0.00155111 9.5051e-08
-0.00155111 0.0318928 -1.09603e-07
9.5051e-08 -1.09603e-07 0.0251813

0.0362279 -0.00253867 -1.47405e-07
-0.00253867 0.0295162 1.33268e-07
-1.47405e-07 1.33268e-07 0.0335243

0.0266782 0.0031054 -1.59373e-07
0.0031054 0.0304001 1.20365e-07
-1.59373e-07 1.20365e-07 0.0253176

0.0343494 -0.000653939 1.15186e-07
-0.000653939 0.0272817 -2.91066e-08
1.15186e-07 -2.91066e-08 0.0305826

0.0188932 -0.00387216 4.83721e-09
-0.00387216 0.0298064 -3.42752e-08
4.83721e-09 -3.42752e-08 0.0129634

0.0280042 0.00275498 2.12585e-07
0.00275498 0.0326343 7.48678e-08
2.12585e-07 7.48678e-08 0.0305786

0.0314431 -0.00251295 1.53002e-07
-0.00251295 0.0247264 -1.67532e-08
1.53002e-07 -1.67532e-08 0.0254103

0.039122 -0.00286899 1.84059e-07
-0.00286899 0.0322256 -5.61279e-08
1.84059e-07 -5.61279e-08 0.0349413

0.028758 0.00412499 8.58602e-08
0.00412499 0.0273046 1.67693e-07
8.58602e-08 1.67693e-07 0.0252597

0.0313666 -0.00392 1.05589e-07
-0.00392 0.0285465 2.5866e-07
1.05589e-07 2.5866e-07 0.0287355

0.0354137 0.00276416 2.70107e-07
0.00276416 0.0308602 3.91558e-08
2.70107e-07 3.91558e-08 0.0330438

0.029778 -0.00370346 2.44407e-07
-0.00370346 0.0329431 -9.32733e-08
2.44407e-07 -9.32733e-08 0.0333472

0.0270595 -0.00341105 5.9299e-09
-0.00341105 0.0299879 -2.5579e-08
5.9299e-09 -2.5579e-08 0.0254016

0.0284455 0.00377215 2.52555e-08
0.00377215 0.0289447 -5.02778e-08
2.52555e-08 -5.02778e-08 0.0258915

0.0313767 0.00341397 3.61624e-08
0.00341397 0.0269037 -4.17743e-09
3.61624e-08 -4.17743e-09 0.0269702

0.0365407 -0.0019445 -1.02103e-07
-0.0019445 0.0306293 2.29454e-07
-1.02103e-07 2.29454e-07 0.03364

0.0255378 -0.0021638 1.16856e-08
-0.0021638 0.0318071 7.04241e-08
1.16856e-08 7.04241e-08 0.0258579

0.0347047 -0.0023141 2.29238e-07
-0.0023141 0.0283387 -7.02804e-08
2.29238e-07 -7.02804e-08 0.0314604

0.0341907 0.00222338 -8.89135e-08
0.00222338 0.027436 5.65326e-08
-8.89135e-08 5.65326e-08 0.0306083

0.0336481 -0.00124529 1.76808e-07
-0.00124529 0.0393037 -1.91623e-08
1.76808e-07 -1.91623e-08 0.0349314

0.0320775 -0.00174708 2.13134e-07
-0.00174708 0.0253343 9.81934e-08
2.13134e-07 9.81934e-08 0.0258752

0.0250056 7.96974e-05 2.76603e-08
7.96974e-05 0.0331566 -2.501e-07
2.76603e-08 -2.501e-07 0.0268653

0.0332524 0.00242924 2.5069e-07
0.00242924 0.0271978 -1.4717e-08
2.5069e-07 -1.4717e-08 0.0289264

0.0311225 0.00359961 1.59395e-09
0.00359961 0.0272968 -3.82355e-08
1.59395e-09 -3.82355e-08 0.0271267

0.0252994 -0.00204156 2.07054e-07
-0.00204156 0.0318695 -1.07067e-07
2.07054e-07 -1.07067e-07 0.025615

0.0252049 -0.000154663 -5.48005e-08
-0.000154663 0.0332971 1.84132e-07
-5.48005e-08 1.84132e-07 0.0271482

0.0354173 0.00385849 -1.02919e-07
0.00385849 0.0329993 -8.67857e-08
-1.02919e-07 -8.67857e-08 0.0338996

0.02759 -0.0014311 -6.29303e-08
-0.0014311 0.0353474 1.49972e-07
-6.29303e-08 1.49972e-07 0.0314464

0.0312389 -0.00348451 1.60337e-07
-0.00348451 0.0269817 -1.93982e-07
1.60337e-07 -1.93982e-07 0.0270138

0.031302 0.00277317 -1.0973e-07
0.00277317 0.0249258 -2.54247e-07
-1.0973e-07 -2.54247e-07 0.02525

0.0345874 0.00311867 -1.41243e-07
0.00311867 0.0293908 -3.99939e-08
-1.41243e-07 -3.99939e-08 0.0318001

0.0279954 0.000716949 -1.0518e-07
0.000716949 0.0360441 -6.14099e-08
-1.0518e-07 -6.14099e-08 0.0318225

0.0287209 0.00378211 1.69182e-07
0.00378211 0.0285639 2.7591e-08
1.69182e-07 2.7591e-08 0.0257318

0.036794 0.00305755 -1.37704e-07
0.00305755 0.0361286 2.61613e-08
-1.37704e-07 2.61613e-08 0.034911

0.0226831 -0.00754656 -1.83293e-07
-0.00754656 0.01869 2.34453e-07
-1.83293e-07 2.34453e-07 0.0108468

0.0332962 -0.00328807 -1.23699e-07
-0.00328807 0.0286366 2.40325e-07
-1.23699e-07 2.40325e-07 0.0301282

0.0207296 0.000913596 -2.25028e-07
0.000913596 0.0300358 8.15183e-08
-2.25028e-07 8.15183e-08 0.0183492

0.031305 -0.00378238 -1.06588e-07
-0.00378238 0.0292358 -1.20724e-07
-1.06588e-07 -1.20724e-07 0.0290357

0.00153973 -0.00651949 -3.93208e-08
-0.00651949 0.0275714 1.72276e-07
-3.93208e-08 1.72276e-07 0.00290877

0.00147012 0.00636905 7.27079e-09
0.00636905 0.0275893 3.18554e-08
7.27079e-09 3.18554e-08 0.00300172

0.0119859 0.0145065 1.16379e-07
0.0145065 0.0175344 1.45935e-07
1.16379e-07 1.45935e-07 0.00277163

0.0121673 -0.0144973 8.61685e-08
-0.0144973 0.0172259 -1.08052e-07
8.61685e-08 -1.08052e-07 0.00280424

0.029344 -0.000164113 1.78499e-09
-0.000164113 0 0
1.78499e-09 0 0.00295307

0.0235949 -0.0112839 1.12939e-07
-0.0112839 0.00539608 -5.43887e-08
1.12939e-07 -5.43887e-08 0.00297877

0.0236368 0.0113501 -1.77755e-08
0.0113501 0.00545016 -8.56024e-09
-1.77755e-08 -8.56024e-09 0.00303994

0.0369154 0.00191146 -2.11646e-07
0.00191146 0.0302464 -9.92668e-08
-2.11646e-07 -9.92668e-08 0.0338821

0.0387085 0.00340968 -5.24404e-08
0.00340968 0.0366202 -5.6615e-08
-5.24404e-08 -5.6615e-08 0.0355824

0.0344201 0.00087257 5.13594e-09
0.00087257 0.0274612 1.07537e-07
5.13594e-09 1.07537e-07 0.0316925

0.0328783 0.00285071 2.43764e-07
0.00285071 0.0268936 -2.34951e-09
2.43764e-07 -2.34951e-09 0.0286507

0.0257046 0.0023138 9.46832e-08
0.0023138 0.0323726 3.89657e-09
9.46832e-08 3.89657e-09 0.0276399

0.0307178 0.00376971 4.84395e-08
0.00376971 0.0276806 -1.07616e-07
4.84395e-08 -1.07616e-07 0.0271219

0.0333103 -0.00390364 -1.43066e-07
-0.00390364 0.0304706 -2.50347e-07
-1.43066e-07 -2.50347e-07 0.0316344

0.0309785 0.00365533 -6.02971e-08
0.00365533 0.0272912 1.65949e-07
-6.02971e-08 1.65949e-07 0.0269295

0.024991 -0.000371483 2.03312e-08
-0.000371483 0.0331277 -2.5033e-07
2.03312e-08 -2.5033e-07 0.0268475

0.0385513 -0.00348467 3.05323e-08
-0.00348467 0.0368835 -6.38574e-08
3.05323e-08 -6.38574e-08 0.035588

0.0251796 -0.000635791 3.66494e-08
-0.000635791 0.0332157 1.91882e-07
3.66494e-08 1.91882e-07 0.027107

0.0360222 0.00304765 -1.36541e-07
0.00304765 0.0330157 2.92951e-09
-1.36541e-07 2.92951e-09 0.0341024

0.0296277 0.00347652 1.41095e-07
0.00347652 0.0248502 -2.68171e-07
1.41095e-07 -2.68171e-07 0.0230265

0.030501 -0.00171378 -1.23425e-07
-0.00171378 0.0375166 1.94925e-08
-1.23425e-07 1.94925e-08 0.034741

0.033926 0.00180496 -2.39147e-08
0.00180496 0.027186 -1.73249e-08
-2.39147e-08 -1.73249e-08 0.0303252

0.0312063 -0.00392105 1.17339e-08
-0.00392105 0.0285357 5.50503e-08
1.17339e-08 5.50503e-08 0.028619

0.0315889 -0.00322202 2.06222e-07
-0.00322202 0.026696 -1.05718e-07
2.06222e-07 -1.05718e-07 0.0270521

0.0384832 -0.00214202 6.67833e-08
-0.00214202 0.0334211 -1.12218e-07
6.67833e-08 -1.12218e-07 0.0347492

0.0326863 0.00366446 -5.69184e-08
0.00366446 0.0292366 -1.10057e-07
-5.69184e-08 -1.10057e-07 0.0301596

0.0326502 0.00313825 -2.18851e-08
0.00313825 0.0272568 -3.92496e-08
-2.18851e-08 -3.92496e-08 0.0287925

0.0269595 -0.000365095 8.97514e-08
-0.000365095 0.0349928 -1.72386e-07
8.97514e-08 -1.72386e-07 0.0301726

0.0259038 0.000765958 -9.12385e-08
0.000765958 0.0340095 1.05793e-07
-9.12385e-08 1.05793e-07 0.0288276

0.0327838 0.000345471 -5.83835e-08
0.000345471 0.0248658 -2.21667e-07
-5.83835e-08 -2.21667e-07 0.0274483

0.0313929 -0.000944965 -8.7762e-08
-0.000944965 0.0230075 -2.96972e-07
-8.7762e-08 -2.96972e-07 0.0238961

0.0308858 0.00398597 -1.00862e-07
0.00398597 0.0288106 9.2209e-08
-1.00862e-07 9.2209e-08 0.0286287

0.0331231 -0.00343206 -2.37886e-07
-0.00343206 0.0285452 5.26381e-08
-2.37886e-07 5.26381e-08 0.029974

0.0364174 -0.00282368 5.91003e-08
-0.00282368 0.0327372 3.32357e-10
5.91003e-08 3.32357e-10 0.0341487

0.0292113 -0.00412859 -1.66334e-07
-0.00412859 0.0291974 -1.24796e-07
-1.66334e-07 -1.24796e-07 0.0277584

0.0269765 -0.00362114 -1.13001e-07
-0.00362114 0.0304703 -1.17646e-07
-1.13001e-07 -1.17646e-07 0.0272179

0.0283311 0.00390045 1.06586e-07
0.00390045 0.0299062 1.11151e-07
1.06586e-07 1.11151e-07 0.0277566

0.0259056 -0.001249 -8.00738e-08
-0.001249 0.0336192 -9.21862e-08
-8.00738e-08 -9.21862e-08 0.0285205

0.026659 -0.000201984 8.42119e-08
-0.000201984 0.0349186 2.10909e-07
8.42119e-08 2.10909e-07 0.0299245

0.0277668 0.000752938 1.40277e-07
0.000752938 0.0360436 -6.32584e-08
1.40277e-07 -6.32584e-08 0.0316629

0.0262516 -0.00275003 -1.07573e-07
-0.00275003 0.0319683 2.48409e-07
-1.07573e-07 2.48409e-07 0.0277152

0.0345877 0.00317617 -1.02522e-07
0.00317617 0.029173 -1.12874e-07
-1.02522e-07 -1.12874e-07 0.0316392

0.0339154 -0.00126139 1.44291e-07
-0.00126139 0.0269348 4.30689e-08
1.44291e-07 4.30689e-08 0.0302065

0.0257946 0.000974325 1.08993e-07
0.000974325 0.0338352 -1.05287e-07
1.08993e-07 -1.05287e-07 0.0285466

0.0278285 -0.00127008 1.01991e-07
-0.00127008 0.0354032 1.83621e-07
1.01991e-07 1.83621e-07 0.0313708

0.0272975 -0.00213761 -7.93056e-08
-0.00213761 0.0336626 1.14552e-07
-7.93056e-08 1.14552e-07 0.0302304

0.0327824 -0.00107742 -5.86222e-08
-0.00107742 0.0253241 -3.28084e-08
-5.86222e-08 -3.28084e-08 0.0272588

0.0333202 -0.00427158 -1.24686e-08
-0.00427158 0.0323854 7.74963e-08
-1.24686e-08 7.74963e-08 0.0335339

0.026493 0.00122026 1.61241e-07
0.00122026 0.0338413 -1.04658e-07
1.61241e-07 -1.04658e-07 0.0288207

0.0398142 -0.002432 -1.41625e-07
-0.002432 0.0352222 -1.63632e-07
-1.41625e-07 -1.63632e-07 0.0354653

0.0188915 0.00316531 -1.41246e-07
0.00316531 0.0278809 -6.84742e-08
-1.41246e-07 -6.84742e-08 0.0162755

0.0338211 -0.00352299 -5.07182e-08
-0.00352299 0.0334994 1.65839e-08
-5.07182e-08 1.65839e-08 0.0337308

0.0353484 -0.00399957 7.76903e-08
-0.00399957 0.0330506 -1.10925e-07
7.76903e-08 -1.10925e-07 0.0339085

0.0266901 -9.05179e-05 -8.2081e-08
-9.05179e-05 0.0349237 2.07096e-07
-8.2081e-08 2.07096e-07 0.0299327

0.0332488 -0.00217655 4.43134e-08
-0.00217655 0.0271575 1.62957e-07
4.43134e-08 1.62957e-07 0.0289074

0.0293519 0.00168492 1.94797e-08
0.00168492 0.0358248 1.29742e-07
1.94797e-08 1.29742e-07 0.0328845

0.0132091 -0.000379244 3.39655e-08
-0.000379244 0.0283666 -4.18463e-08
3.39655e-08 -4.18463e-08 0.0111536

0.0271181 0.00186903 1.56828e-07
0.00186903 0.0340671 -1.13548e-07
1.56828e-07 -1.13548e-07 0.030311

0.0311143 -0.00385918 3.12551e-08
-0.00385918 0.0291591 9.44137e-08
3.12551e-08 9.44137e-08 0.028811

0.0186224 0.00320513 -1.93002e-08
0.00320513 0.0301443 2.66632e-07
-1.93002e-08 2.66632e-07 0.013129

0.0426016 0.00351702 5.01396e-07
0.00351702 0.0418502 4.85485e-07
5.01396e-07 4.85485e-07 0.0364843

0.0432069 -0.00374746 -3.81987e-07
-0.00374746 0.041419 4.86554e-07
-3.81987e-07 4.86554e-07 0.0364667

0.0310701 -0.00399142 -2.283e-08
-0.00399142 0.0304762 -2.52982e-07
-2.283e-08 -2.52982e-07 0.0304657

0.0289268 -0.00406497 1.0442e-07
-0.00406497 0.0291555 9.49748e-08
1.0442e-07 9.49748e-08 0.0275988

0.0330569 0.00272729 -8.22148e-08
0.00272729 0.0275328 5.70258e-08
-8.22148e-08 5.70258e-08 0.02908

0.0327856 0.00196053 -1.30743e-08
0.00196053 0.0255953 1.88553e-07
-1.30743e-08 1.88553e-07 0.0278273

0.0464016 0.000418537 5.92441e-07
0.000418537 0.046357 -1.82688e-07
5.92441e-07 -1.82688e-07 0.0366984

0.0469203 -0.000951091 -3.80356e-08
-0.000951091 0.0457678 -6.42895e-07
-3.80356e-08 -6.42895e-07 0.0367695

0.0348051 0.000638199 1.26577e-07
0.000638199 0.0275778 2.04566e-09
1.26577e-07 2.04566e-09 0.0322214

0.0277563 0.000882787 7.57588e-08
0.000882787 0.0355758 2.44864e-08
7.57588e-08 2.44864e-08 0.0313532

0.0276119 0.000882796 -1.94681e-07
0.000882796 0.0355759 1.67587e-08
-1.94681e-07 1.67587e-08 0.0312494

0.0234624 0.00740123 -1.08735e-07
0.00740123 0.0183045 1.09411e-07
-1.08735e-07 1.09411e-07 0.0109033

0.0272514 -0.00367626 -6.15619e-08
-0.00367626 0.0303523 7.4733e-08
-6.15619e-08 7.4733e-08 0.0273239

0.0365717 0.00239152 -2.16716e-07
0.00239152 0.0295807 -9.27474e-08
-2.16716e-07 -9.27474e-08 0.033789

0.0332796 0.00124801 7.39489e-08
0.00124801 0.0265084 2.12333e-08
7.39489e-08 2.12333e-08 0.0284363

0.0291572 -0.0034931 -7.06828e-09
-0.0034931 0.0304765 -1.08929e-07
-7.06828e-09 -1.08929e-07 0.0281777

0.0328161 -0.00264829 -1.37121e-07
-0.00264829 0.0267322 -1.17114e-07
-1.37121e-07 -1.17114e-07 0.0285912

0.0224633 0.00761419 -3.76273e-09
0.00761419 0.0185929 2.15256e-07
-3.76273e-09 2.15256e-07 0.0109058

0.0331496 0.00410262 8.84931e-08
0.00410262 0.0326427 -6.37014e-08
8.84931e-08 -6.37014e-08 0.0331861

0.0258942 -0.00257873 1.17361e-07
-0.00257873 0.0320294 4.06553e-08
1.17361e-07 4.06553e-08 0.0275117

0.0324872 0.00378637 -1.20864e-07
0.00378637 0.0292727 -2.32525e-08
-1.20864e-07 -2.32525e-08 0.0301514

0.0268201 -0.000543783 -9.82164e-08
-0.000543783 0.0349577 -1.91595e-07
-9.82164e-08 -1.91595e-07 0.0301424

0.0269942 0.00256385 1.40528e-07
0.00256385 0.0324539 -4.93775e-08
1.40528e-07 -4.93775e-08 0.0282909

0.0305312 0.0039917 1.00817e-07
0.0039917 0.0293278 -2.61739e-09
1.00817e-07 -2.61739e-09 0.0287795

0.027613 -0.00293779 3.27722e-08
-0.00293779 0.0318588 2.73443e-07
3.27722e-08 2.73443e-07 0.0282534

0.029461 -0.00357654 -4.93629e-08
-0.00357654 0.030356 7.55931e-08
-4.93629e-08 7.55931e-08 0.0283094

0.0181401 0.00142575 1.30596e-08
0.00142575 0.0280406 -5.89848e-08
1.30596e-08 -5.89848e-08 0.0131296

0.0234773 -0.00429491 3.58271e-08
-0.00429491 0.0275605 -6.42998e-08
3.58271e-08 -6.42998e-08 0.0177262

0.0262095 -0.0015263 5.83051e-08
-0.0015263 0.033629 1.60798e-07
5.83051e-08 1.60798e-07 0.0287562

0.0330284 0.0034755 -3.9063e-08
0.0034755 0.0288821 8.70537e-08
-3.9063e-08 8.70537e-08 0.0300733

0.0303265 0.00385805 6.06926e-09
0.00385805 0.0298914 1.04487e-07
6.06926e-09 1.04487e-07 0.0289947

0.0274187 -0.00280121 -3.62522e-08
-0.00280121 0.0319891 2.95196e-08
-3.62522e-08 2.95196e-08 0.0281434

0.0265587 -0.00154117 4.98818e-08
-0.00154117 0.0335876 -8.55578e-08
4.98818e-08 -8.55578e-08 0.0287506

0.0309612 0.00371898 2.5172e-08
0.00371898 0.0295682 -1.55289e-07
2.5172e-08 -1.55289e-07 0.0289455

0.0267636 -0.00181632 -1.6326e-07
-0.00181632 0.0334794 1.13397e-07
-1.6326e-07 1.13397e-07 0.0289586

0.0191686 0.00355526 8.20956e-09
0.00355526 0.0276121 -1.26983e-07
8.20956e-09 -1.26983e-07 0.0162947

0.0308772 -0.000534632 5.43326e-08
-0.000534632 0.0388234 2.19292e-07
5.43326e-08 2.19292e-07 0.0342985

0.0286611 0.00404862 4.87407e-08
0.00404862 0.0295233 -1.57747e-07
4.87407e-08 -1.57747e-07 0.0277188

0.0355853 0.00197532 1.06448e-07
0.00197532 0.0295073 -5.29525e-08
1.06448e-07 -5.29525e-08 0.0328471

0.0362637 -0.00211521 1.24178e-08
-0.00211521 0.0297595 1.51357e-07
1.24178e-08 1.51357e-07 0.0332222

0.0285152 -0.00309635 1.34657e-07
-0.00309635 0.0185713 1.44315e-07
1.34657e-07 1.44315e-07 0.0157324

0.0283579 -0.00279053 4.69523e-09
-0.00279053 0.0327809 -1.95656e-08
4.69523e-09 -1.95656e-08 0.030576

0.0291958 0.00350125 -1.14789e-07
0.00350125 0.0316049 4.35357e-09
-1.14789e-07 4.35357e-09 0.0304919

0.0349639 -0.00290712 -5.51648e-08
-0.00290712 0.0376783 8.02655e-08
-5.51648e-08 8.02655e-08 0.0352401

0.0394619 0.00188458 -5.17699e-08
0.00188458 0.0446087 -4.87426e-08
-5.17699e-08 -4.87426e-08 0.0364365

0.0449442 0.00128995 7.11711e-08
0.00128995 0.0391186 1.01758e-07
7.11711e-08 1.01758e-07 0.0364184

0.0355641 0.00434467 -1.42006e-07
0.00434467 0.035138 -9.47267e-10
-1.42006e-07 -9.47267e-10 0.0350074

0.0265759 0.0033885 8.09764e-08
0.0033885 0.0310113 1.07128e-07
8.09764e-08 1.07128e-07 0.02726

0.0330444 0.00349733 9.92184e-08
0.00349733 0.0286713 -2.60613e-07
9.92184e-08 -2.60613e-07 0.0300544

0.022063 0.00576545 -1.54911e-08
0.00576545 0.0242411 -1.21509e-08
-1.54911e-08 -1.21509e-08 0.0160748

0.0386201 -0.00151175 -1.39593e-07
-0.00151175 0.0444332 -1.21248e-07
-1.39593e-07 -1.21248e-07 0.0363657

0.0460479 -0.000464306 3.49162e-08
-0.000464306 0.0454387 -8.26495e-08
3.49162e-08 -8.26495e-08 0.0366945

0.0451801 -3.17104e-05 6.85981e-08
-3.17104e-05 0.0463006 1.18814e-07
6.85981e-08 1.18814e-07 0.0366765

0.0176431 -0.00679595 7.74426e-08
-0.00679595 0.0231114 1.1103e-07
7.74426e-08 1.1103e-07 0.0107402

0.0392952 -0.00155579 -6.77843e-08
-0.00155579 0.0387168 -8.82141e-08
-6.77843e-08 -8.82141e-08 0.0358573

0.0383987 0.00117635 2.03159e-07
0.00117635 0.0415199 -8.61045e-09
2.03159e-07 -8.61045e-09 0.0361287

0.0331799 -0.00343617 -2.45788e-07
-0.00343617 0.0282238 3.43619e-08
-2.45788e-07 3.43619e-08 0.0299078

0.0318481 0.000140342 3.17952e-08
0.000140342 0.0386762 2.21615e-07
3.17952e-08 2.21615e-07 0.0344545

0.0285814 -0.00266067 1.11326e-07
-0.00266067 0.0333853 -5.48912e-08
1.11326e-07 -5.48912e-08 0.0315938

0.0356673 0.000831762 -2.49146e-08
0.000831762 0.0273825 -1.11746e-07
-2.49146e-08 -1.11746e-07 0.0330047

0.0288805 0.00204444 1.11658e-07
0.00204444 0.0368215 8.15657e-08
1.11658e-07 8.15657e-08 0.033674

0.0298733 0.000946279 9.64711e-08
0.000946279 0.0373931 1.20308e-07
9.64711e-08 1.20308e-07 0.0333678

0.0344061 0.00268514 -2.28894e-07
0.00268514 0.0288559 -2.19138e-07
-2.28894e-07 -2.19138e-07 0.0312307

0.0132807 -0.000409412 -3.91796e-07
-0.000409412 0.0281271 1.19579e-07
-3.91796e-07 1.19579e-07 0.0112031

0.0309694 -0.00362661 -1.49667e-07
-0.00362661 0.0309206 -4.51539e-08
-1.49667e-07 -4.51539e-08 0.030614

0.0329329 -0.00344364 -1.7751e-07
-0.00344364 0.0320255 -1.27494e-07
-1.7751e-07 -1.27494e-07 0.0325837

0.0335756 -0.00415936 -2.54995e-09
-0.00415936 0.0325392 -5.06395e-08
-2.54995e-09 -5.06395e-08 0.0337401

0.026566 0.00414945 1.85568e-07
0.00414945 0.0176938 -6.86499e-08
1.85568e-07 -6.86499e-08 0.0126071

0.0388311 -0.00269627 -2.30847e-07
-0.00269627 0.039578 1.51325e-09
-2.30847e-07 1.51325e-09 0.0359621

0.023086 0.0069219 -5.55283e-08
0.0069219 0.0255056 -6.56322e-08
-5.55283e-08 -6.56322e-08 0.0126114

0.0308789 -0.00281737 -1.87005e-07
-0.00281737 0.0348122 -4.67404e-08
-1.87005e-07 -4.67404e-08 0.0339607

0.0354166 0.00193671 -4.85693e-08
0.00193671 0.0284703 3.10568e-08
-4.85693e-08 3.10568e-08 0.0323492

0.0318267 -0.00189365 -2.22124e-07
-0.00189365 0.0249546 -7.67005e-08
-2.22124e-07 -7.67005e-08 0.0253995

0.0292973 0.00315945 -1.19041e-07
0.00315945 0.0327365 1.65473e-08
-1.19041e-07 1.65473e-08 0.0312842

0.0344416 0.00268871 -2.07923e-07
0.00268871 0.0286388 -2.68909e-07
-2.07923e-07 -2.68909e-07 0.0312253

0.0325222 0.00149871 -1.16444e-07
0.00149871 0.040377 1.17917e-08
-1.16444e-07 1.17917e-08 0.0353405

0.031945 -0.00415474 1.10526e-07
-0.00415474 0.0312063 -1.82545e-07
1.10526e-07 -1.82545e-07 0.0318152

0.0396801 0.00265553 3.99475e-08
0.00265553 0.0332017 -1.60102e-07
3.99475e-08 -1.60102e-07 0.0353199

0.0279763 -0.00241918 -5.21189e-08
-0.00241918 0.0335562 1.18892e-07
-5.21189e-08 1.18892e-07 0.0304751

0.0293552 0.000558651 -6.64725e-08
0.000558651 0.0373168 1.03047e-07
-6.64725e-08 1.03047e-07 0.033257

0.0419454 0.00133796 9.29074e-08
0.00133796 0.0371026 -7.54757e-08
9.29074e-08 -7.54757e-08 0.0361199

0.0421 -0.00114823 1.55742e-07
-0.00114823 0.037329 -5.0937e-08
1.55742e-07 -5.0937e-08 0.0361019

0.0283877 0.00236959 -1.30541e-07
0.00236959 0.018184 -2.16572e-08
-1.30541e-07 -2.16572e-08 0.0159523

0.0350311 0.00106158 -1.07262e-07
0.00106158 0.0285707 3.44006e-08
-1.07262e-07 3.44006e-08 0.0330636

0.0128685 0.000923535 -3.57988e-07
0.000923535 0.0316303 -1.22738e-07
-3.57988e-07 -1.22738e-07 0.00612268

0.0131641 -0.00138836 3.48494e-08
-0.00138836 0.0321362 7.43646e-09
3.48494e-08 7.43646e-09 0.00611299

0.0152706 0.00715509 2.33558e-07
0.00715509 0.0284566 -2.66601e-07
2.33558e-07 -2.66601e-07 0.0059851

0.0347692 -0.00382148 7.35585e-08
-0.00382148 0.0312725 -2.16914e-07
7.35585e-08 -2.16914e-07 0.0329436

0.0155829 -0.00619545 3.89155e-07
-0.00619545 0.0261566 5.77056e-08
3.89155e-07 5.77056e-08 0.0104736

0.0155147 -0.00708769 1.28913e-07
-0.00708769 0.027427 4.34549e-08
1.28913e-07 4.34549e-08 0.0059149

0.0284309 0.00342637 1.09467e-07
0.00342637 0.0310116 1.07328e-07
1.09467e-07 1.07328e-07 0.0281572

0.0251964 0.00932703 -3.83089e-08
0.00932703 0.0190231 1.75776e-07
-3.83089e-08 1.75776e-07 0.0059348

0.0365409 0.00173139 -4.89023e-08
0.00173139 0.0385553 6.13587e-08
-4.89023e-08 6.13587e-08 0.0354792

0.0395383 2.61122e-05 -1.04753e-07
2.61122e-05 0.0355427 -9.64642e-08
-1.04753e-07 -9.64642e-08 0.0354598

0.0261104 -0.00924557 1.5989e-07
-0.00924557 0.0188148 -9.29861e-08
1.5989e-07 -9.29861e-08 0.00588897

0.0276946 -0.00306599 -6.92547e-08
-0.00306599 0.0321005 8.48878e-08
-6.92547e-08 8.48878e-08 0.0296274

0.0262593 0.00441886 1.66378e-07
0.00441886 0.0201609 5.46162e-09
1.66378e-07 5.46162e-09 0.0130467

0.0172814 0.00797409 1.20582e-07
0.00797409 0.0271523 6.55182e-08
1.20582e-07 6.55182e-08 0.00598878

0.0181987 0.00275567 4.60859e-08
0.00275567 0.0275941 -6.44933e-08
4.60859e-08 -6.44933e-08 0.0128522

0.0173063 -0.00827738 3.96258e-07
-0.00827738 0.0271557 3.83795e-08
3.96258e-07 3.83795e-08 0.00581468

0.0179354 -0.00157129 2.70076e-07
-0.00157129 0.0280099 -2.41527e-07
2.70076e-07 -2.41527e-07 0.0126926

0.0370527 0.000922679 -1.16481e-07
0.000922679 0.0413031 -1.71818e-07
-1.16481e-07 -1.71818e-07 0.0358139

0.0221345 -0.00585641 -2.26393e-07
-0.00585641 0.0236684 -5.62968e-08
-2.26393e-07 -5.62968e-08 0.0151613

0.0157022 0.00598726 5.30422e-08
0.00598726 0.0259062 -8.05366e-08
5.30422e-08 -8.05366e-08 0.0107519

0.0302123 0.00473066 2.33218e-08
0.00473066 0.0143511 3.72931e-08
2.33218e-08 3.72931e-08 0.00611681

0.0329433 -0.00384986 -1.59784e-07
-0.00384986 0.0301289 2.42454e-07
-1.59784e-07 2.42454e-07 0.0310558

0.0308927 0.00169377 -7.46402e-08
0.00169377 0.0368481 8.96265e-08
-7.46402e-08 8.96265e-08 0.0339546

0.0260939 -0.00484476 -1.99119e-07
-0.00484476 0.0191998 7.02618e-08
-1.99119e-07 7.02618e-08 0.0126971

0.0330055 -0.00378644 -2.39127e-07
-0.00378644 0.0300797 5.43544e-08
-2.39127e-07 5.43544e-08 0.0311322

0.0300225 -0.00452044 1.21031e-07
-0.00452044 0.0130551 -2.06531e-07
1.21031e-07 -2.06531e-07 0.00603825

0.0324781 -0.00372774 8.57741e-08
-0.00372774 0.0313119 -2.18909e-07
8.57741e-08 -2.18909e-07 0.031984

0.0280955 -0.00331192 8.14521e-08
-0.00331192 0.0320089 2.09883e-07
8.14521e-08 2.09883e-07 0.0296299

0.0234464 0.00874471 -1.13019e-08
0.00874471 0.0204854 1.87174e-07
-1.13019e-08 1.87174e-07 0.00602711

0.0182022 -0.00292127 2.63275e-07
-0.00292127 0.0268707 -2.44141e-07
2.63275e-07 -2.44141e-07 0.0122719

0.0233175 -0.00902038 1.22213e-07
-0.00902038 0.0201546 -2.25456e-07
1.22213e-07 -2.25456e-07 0.00588489

0.0170847 0.00640933 2.57265e-07
0.00640933 0.0235695 -2.38938e-07
2.57265e-07 -2.38938e-07 0.0108328

0.030831 -0.00396082 -5.76215e-08
-0.00396082 0.0301652 2.33195e-07
-5.76215e-08 2.33195e-07 0.0300901

0.0389215 -0.00195898 1.6734e-07
-0.00195898 0.0369438 1.31885e-07
1.6734e-07 1.31885e-07 0.0355035

0.0455411 0.00150622 4.08392e-07
0.00150622 0.0449528 2.08153e-09
4.08392e-07 2.08153e-09 0.0366227

0.0435657 -0.000711508 -3.43598e-08
-0.000711508 0.0462316 -1.10848e-08
-3.43598e-08 -1.10848e-08 0.0365884

0.0286198 0.00171603 2.59175e-08
0.00171603 0.0355707 -7.19702e-08
2.59175e-08 -7.19702e-08 0.0323941

0.0453363 -0.00144727 1.5669e-07
-0.00144727 0.0449806 -3.89898e-08
1.5669e-07 -3.89898e-08 0.0366405

0.043809 0.000567921 7.92827e-08
0.000567921 0.0465063 -5.54241e-07
7.92827e-08 -5.54241e-07 0.0366216

0.0466785 0.000990303 -2.50645e-07
0.000990303 0.0433776 2.34605e-07
-2.50645e-07 2.34605e-07 0.0365967

0.0397522 -0.00163858 2.59977e-07
-0.00163858 0.0460745 -1.82252e-07
2.59977e-07 -1.82252e-07 0.0364864

0.0190566 -0.00388807 8.69658e-08
-0.00388807 0.0272352 1.19208e-07
8.69658e-08 1.19208e-07 0.0154736

0.0421424 -0.00175031 2.07575e-07
-0.00175031 0.0367285 1.23846e-07
2.07575e-07 1.23846e-07 0.0360086

0.0359686 -0.00457326 -1.09607e-08
-0.00457326 0.0351543 -9.44039e-08
-1.09607e-08 -9.44039e-08 0.0349723

0.0397557 -0.00242206 2.00821e-08
-0.00242206 0.0360676 -8.56843e-08
2.00821e-08 -8.56843e-08 0.0355712

0.0351899 0.00204346 1.7425e-07
0.00204346 0.0285534 -2.44774e-07
1.7425e-07 -2.44774e-07 0.0322364

0.0396942 0.00133725 1.59744e-07
0.00133725 0.047226 -4.29569e-08
1.59744e-07 -4.29569e-08 0.0365523

0.0464963 0.00259244 2.77356e-07
0.00259244 0.0404196 -7.15927e-08
2.77356e-07 -7.15927e-08 0.0365335

0.0400901 0.00150555 -6.10482e-08
0.00150555 0.0366764 -3.30228e-08
-6.10482e-08 -3.30228e-08 0.0356192

0.0279187 -0.00192025 -7.20509e-08
-0.00192025 0.0125262 -1.86884e-07
-7.20509e-08 -1.86884e-07 0.0106262

0.0283238 0.00326845 1.05308e-07
0.00326845 0.0315554 8.95795e-08
1.05308e-07 8.95795e-08 0.0294152

0.0231913 -0.00773716 -2.38275e-07
-0.00773716 0.0181823 6.23713e-08
-2.38275e-07 6.23713e-08 0.010291

0.0228338 -0.00731682 -2.62323e-07
-0.00731682 0.0257722 -2.22239e-08
-2.62323e-07 -2.22239e-08 0.0119564

0.0290268 -0.00464773 -2.14952e-07
-0.00464773 0.0191308 2.08838e-07
-2.14952e-07 2.08838e-07 0.0126171

0.037577 -0.000660651 -1.97724e-07
-0.000660651 0.044913 1.09809e-08
-1.97724e-07 1.09809e-08 0.0362975

0.0375747 0.000358204 2.78662e-08
0.000358204 0.0447902 -5.98242e-08
2.78662e-08 -5.98242e-08 0.0362778

0.0426068 -0.00327384 -6.24302e-08
-0.00327384 0.0394525 -9.36272e-08
-6.24302e-08 -9.36272e-08 0.0362316

0.0429999 -0.00294378 -3.97456e-07
-0.00294378 0.0391708 7.92618e-08
-3.97456e-07 7.92618e-08 0.0362386

0.0425033 0.00350382 -1.15753e-07
0.00350382 0.0399743 -7.07785e-08
-1.15753e-07 -7.07785e-08 0.0362764

0.0443985 0.000416723 1.09612e-07
0.000416723 0.0450806 2.51068e-07
1.09612e-07 2.51068e-07 0.0366397

0.04261 -0.00274399 -7.02545e-10
-0.00274399 0.0395096 6.60708e-08
-7.02545e-10 6.60708e-08 0.0362932

0.0426042 -0.00251108 -1.65258e-07
-0.00251108 0.0442686 -6.06047e-07
-1.65258e-07 -6.06047e-07 0.0365672

0.0451177 0.000331116 -5.23173e-07
0.000331116 0.045468 -3.26539e-07
-5.23173e-07 -3.26539e-07 0.0366579

0.0436376 -0.00278243 -3.02568e-07
-0.00278243 0.038919 1.33316e-07
-3.02568e-07 1.33316e-07 0.0363338

0.0435133 0.00283802 1.90182e-07
0.00283802 0.0390716 -5.04456e-08
1.90182e-07 -5.04456e-08 0.0363719

0.0451938 -0.000470506 3.18554e-09
-0.000470506 0.0455827 3.10483e-07
3.18554e-09 3.10483e-07 0.0367066

0.0452261 -0.000424834 -4.78179e-07
-0.000424834 0.0443626 8.37616e-07
-4.78179e-07 8.37616e-07 0.0367249

0.0427993 0.00163904 5.78683e-07
0.00163904 0.0442484 -9.30317e-07
5.78683e-07 -9.30317e-07 0.036611

0.0411188 0.00361744 9.13744e-08
0.00361744 0.0405179 1.74278e-07
9.13744e-08 1.74278e-07 0.0363257

SCALARS pressure float
LOOKUP_TABLE default
-60.0658
19.3109
5.80783
21.2922
15.8794
5.89183
-58.6887
7.78681
-3.80129
15.1271
-24.4389
7.62097
5.59563
12.2826
23.3362
5.54259
18.5228
13.2115
-0.688318
6.76163
-0.901043
33.1217
5.80575
5.80156
6.60681
14.9067
-38.3931
6.67648
-15.2416
30.6173
5.17995
-15.6565
-42.0652
27.3211
20.7749
27.354
31.8753
19.8052
4.86327
-42.6086
-17.4072
31.8961
31.9842
5.99704
-21.8079
-15.9751
-1.04812
-3.40201
6.54953
-16.2178
-18.9192
-15.3445
20.7544
-15.3719
20.3078
-33.1537
21.1252
-15.459
21.135
7.04982
21.7666
16.1195
-45.5699
12.7912
16.3627
10.908
21.576
13.8321
5.77828
21.8194
20.8105
20.7811
-17.6908
11.6033
3.97772
-31.6168
14.3571
10.9991
14.1502
-8.71712
-28.9479
14.9769
20.1648
-22.0397
-23.4305
-28.0963
7.10257
9.63518
-22.2187
37.7285
-15.5077
38.4309
18.3042
10.7649
-15.1652
-15.8724
-30.2246
14.7559
14.3661
4.60235
-10.7638
-21.94
-25.104
16.2164
14.1044
14.9641
18.6992
3.7786
-24.5607
26.5129
7.22259
-21.4115
-24.6147
14.842
15.0805
-16.1446
20.1607
-29.1164
20.6242
-16.7283
-2.90061
23.8322
21.7295
16.0346
26.6794
22.6316
21.7816
15.7108
-29.7842
-16.0978
24.0896
21.62
20.9906
22.068
-22.0144
23.5817
-33.842
5.46703
21.7553
23.625
-21.9373
6.67954
-5.96327
15.0872
-30.4109
15.6269
7.83737
2.41162
5.18159
-9.39174
-0.453854
22.6437
-15.4539
5.29451
15.2078
21.5631
11.511
-21.1135
-21.264
10.7946
-2.83926
-15.1967
-21.223
-15.1647
-20.9866
15.282
-20.6359
-21.2018
-15.207
-21.0639
19.0037
-15.9398
-14.8238
12.067
-14.4832
18.8046
19.0528
7.4768
18.0472
11.777
-16.2484
15.2906
14.9634
-21.5288
10.4293
-14.2206
16.0503
14.5979
17.0817
14.8375
10.3466
-26.9789
-16.0811
-15.9575
21.9094
14.5301
14.6289
20.9239
22.4892
9.5057
21.7362
-0.3803
-8.16788
20.7803
-17.8386
19.9469
10.3672
-21.518
15.7228
22.5282
14.7319
9.39701
14.194
21.0568
-7.82974
8.83074
-7.90563
14.6506
26.9273
26.581
27.9599
26.3882
26.724
26.2906
13.8296
23.4286
24.0277
23.9719
23.3983
21.1917
21.8561
-8.25992
15.9366
28.1911
-3.18542
23.5744
23.2036
27.8344
-8.49074
28.0964
15.3469
-7.57852
17.4933
-8.25489
20.2286
29.6125
-7.48289
-8.09785
-29.5951
-18.1897
19.5286
-31.9893
5.73779
-7.79103
-1.18528
28.2491
26.64
30.4182
26.7607
-34.8055
-8.17675
28.3373
8.07685
-8.29235
26.4457
-6.29216
30.4631
-7.95116
27.0467
14.5678
14.7911
23.8433
10.0503
18.0204
8.12079
-29.864
-24.5565
16.8068
1.76365
8.18346
-13.6071
17.4369
11.7024
-8.09862
9.45516
-10.8211
7.52059
-10.7523
-8.48195
33.254
19.1509
25.0866
25.3109
13.8326
-10.4021
26.4252
14.6867
-1.65534
-10.2714
-12.5623
17.5063
-7.48218
17.5743
-12.0392
-21.3534
-10.6059
-34.6857
15.5648
-7.75998
34.4314
-11.5758
16.8738
-8.40592
15.9745
-12.7564
4.29246
-51.1275
8.52616
-7.74365
21.3333
-8.14923
-0.118886
10.7176
21.1268
-12.0586
-10.1983
-6.0651
14.3203
-10.1776
6.89132
6.39012
16.305
-10.4172
-6.3273
-1.69883
-5.65729
-11.0762
-5.84155
15.3072
7.81138
-5.55286
-8.95772
7.80853
7.69732
-10.6722
16.3089
-27.2214
2.29674
-28.4842
-0.954119
-8.89215
-8.1103
-11.7936
-10.9571
-9.89517
-7.79002
-7.91341
16.6399
24.7744
12.1202
-0.287714
-0.821046
-5.67142
7.30844
-6.31762
-6.31489
24.9199
-5.72682
14.1189
-15.9072
24.3231
5.97242
-0.387297
-5.64073
16.275
2.48072
0.202973
2.45171
0.459895
-0.736746
-9.92787
-0.0916363
2.11689
15.0694
-1.2843
-1.40315
-0.994859
-0.384759
1.96892
8.05424
-1.18962
8.08167
5.58742
-0.431776
7.03889
5.49446
-3.8731
16.4783
-1.90007
23.0591
-21.9764
15.0462
15.6841
2.04329
-1.99427
12.546
-26.5137
5.79657
-1.65454
-50.4916
30.4897
30.6265
5.82921
-1.14037
-1.04345
-0.845641
33.4058
33.2803
13.098
6.08516
6.66611
-28.9704
-1.27539
16.5349
-3.17954
-4.34514
-0.0130363
-25.2785
14.3063
-1.27621
2.86548
2.69687
-2.71989
-0.0455062
-3.20623
-4.03055
-37.99
-33.6874
-0.124215
1.87794
-0.530586
-3.74106
-1.93323
-1.87452
-0.920813
-21.9102
17.25
-0.765219
12.5682
14.1864
-26.7682
6.28996
7.14094
18.4776
36.4173
36.4497
22.6379
-1.75183
2.60341
-20.9326
36.1164
32.7473
32.8143
-24.816
21.7711
30.516
2.60295
15.7242
10.3751
17.1668
17.728
12.5079
5.685
-25.4051
4.26347
10.4121
16.2455
-31.7168
28.304
-52.7192
18.6871
10.3018
-10.6251
7.42068
5.46049
24.4724
9.4146
24.4055
4.10861
12.4018
30.6338
29.4597
-22.9933
17.4382
-70.2456
-74.3925
-67.1894
11.6507
-31.2681
-63.6225
-3.80032
-69.9511
16.462
16.4057
-73.7678
5.21676
-39.7375
-70.7517
-37.7632
-71.8884
-39.4591
21.1327
-23.964
-29.0516
-70.6355
4.83473
15.7593
-36.1971
6.05719
-63.6299
9.8393
3.88609
-67.9139
-37.6312
-66.4234
-23.7624
5.03333
20.523
35.3588
36.7142
11.8155
36.8378
36.8911
36.4797
36.394
-24.4825
28.2431
20.6691
21.9775
11.5383
36.05
36.0814
18.1177
-23.9474
3.25071
-30.5344
-56.6063
-50.4822
36.1338
35.8147
35.3715
35.4417
36.1498
35.5865
33.1013
37.3598
35.3877
35.9967
35.6291
34.1846
34.3211
35.8456
35.3014
