# vtk DataFile Version 3.0
vtk output at time 200
ASCII
DATASET UNSTRUCTURED_GRID
POINTS 626 float
-3.68058e-05 0.000978749 0 3.68058e-05 0.000978749 0 -0.000829194 0.00052125 0 
-0.0008235 0.0005 0 -0.000866 0.0004575 0 -0.000866 -0.0004575 0 
-0.0008235 -0.0005 0 -0.000829194 -0.00052125 0 -3.68058e-05 -0.000978749 0 
3.68058e-05 -0.000978749 0 0.000829194 -0.00052125 0 0.000866 -0.0004575 0 
0.000866 0.0004575 0 0.000829194 0.00052125 0 8.5e-05 0 0 
-3.68058e-05 0.000978749 -0.001 3.68058e-05 0.000978749 -0.001 -0.000829194 0.00052125 -0.001 
-0.0008235 0.0005 -0.001 -0.000866 0.0004575 -0.001 -0.000866 -0.0004575 -0.001 
-0.0008235 -0.0005 -0.001 -0.000829194 -0.00052125 -0.001 -3.68058e-05 -0.000978749 -0.001 
3.68058e-05 -0.000978749 -0.001 0.000829194 -0.00052125 -0.001 0.000866 -0.0004575 -0.001 
0.000866 0.0004575 -0.001 0.000829194 0.00052125 -0.001 8.5e-05 0 -0.001 
8.46223e-17 0.0009575 0 -0.000715996 0.000586607 0 -0.000602797 0.000651965 0 
-0.000489599 0.000717321 0 -0.000376401 0.000782678 0 -0.000263202 0.000848036 0 
-0.000150004 0.000913393 0 -0.000835948 0.000469948 0 -0.000866 -0.000326786 0 
-0.000866 -0.000196071 0 -0.000866 -6.53571e-05 0 -0.000866 6.53571e-05 0 
-0.000866 0.000196071 0 -0.000866 0.000326786 0 -0.000835948 -0.000469948 0 
-0.000150004 -0.000913393 0 -0.000263202 -0.000848036 0 -0.000376401 -0.000782678 0 
-0.000489599 -0.000717321 0 -0.000602797 -0.000651965 0 -0.000715996 -0.000586607 0 
8.47648e-17 -0.0009575 0 0.000715996 -0.000586607 0 0.000602797 -0.000651965 0 
0.000489599 -0.000717321 0 0.000376401 -0.000782678 0 0.000263202 -0.000848036 0 
0.000150004 -0.000913393 0 0.000829194 -0.00047875 0 0.000866 0.000326786 0 
0.000866 0.000196071 0 0.000866 6.53571e-05 0 0.000866 -6.53571e-05 0 
0.000866 -0.000196071 0 0.000866 -0.000326786 0 0.000829194 0.00047875 0 
0.000150004 0.000913393 0 0.000263202 0.000848036 0 0.000376401 0.000782678 0 
0.000489599 0.000717321 0 0.000602797 0.000651965 0 0.000715996 0.000586607 0 
5.29966e-05 6.64557e-05 0 -1.89143e-05 8.28689e-05 0 -7.65824e-05 3.68801e-05 0 
-7.65824e-05 -3.68801e-05 0 -1.89143e-05 -8.28689e-05 0 5.29966e-05 -6.64557e-05 0 
8.46223e-17 0.0009575 -0.001 -0.000715996 0.000586607 -0.001 -0.000602797 0.000651965 -0.001 
-0.000489599 0.000717321 -0.001 -0.000376401 0.000782678 -0.001 -0.000263202 0.000848036 -0.001 
-0.000150004 0.000913393 -0.001 -0.000835948 0.000469948 -0.001 -0.000866 -0.000326786 -0.001 
-0.000866 -0.000196071 -0.001 -0.000866 -6.53571e-05 -0.001 -0.000866 6.53571e-05 -0.001 
-0.000866 0.000196071 -0.001 -0.000866 0.000326786 -0.001 -0.000835948 -0.000469948 -0.001 
-0.000150004 -0.000913393 -0.001 -0.000263202 -0.000848036 -0.001 -0.000376401 -0.000782678 -0.001 
-0.000489599 -0.000717321 -0.001 -0.000602797 -0.000651965 -0.001 -0.000715996 -0.000586607 -0.001 
8.47648e-17 -0.0009575 -0.001 0.000715996 -0.000586607 -0.001 0.000602797 -0.000651965 -0.001 
0.000489599 -0.000717321 -0.001 0.000376401 -0.000782678 -0.001 0.000263202 -0.000848036 -0.001 
0.000150004 -0.000913393 -0.001 0.000829194 -0.00047875 -0.001 0.000866 0.000326786 -0.001 
0.000866 0.000196071 -0.001 0.000866 6.53571e-05 -0.001 0.000866 -6.53571e-05 -0.001 
0.000866 -0.000196071 -0.001 0.000866 -0.000326786 -0.001 0.000829194 0.00047875 -0.001 
0.000150004 0.000913393 -0.001 0.000263202 0.000848036 -0.001 0.000376401 0.000782678 -0.001 
0.000489599 0.000717321 -0.001 0.000602797 0.000651965 -0.001 0.000715996 0.000586607 -0.001 
5.29966e-05 6.64557e-05 -0.001 -1.89143e-05 8.28689e-05 -0.001 -7.65824e-05 3.68801e-05 -0.001 
-7.65824e-05 -3.68801e-05 -0.001 -1.89143e-05 -8.28689e-05 -0.001 5.29966e-05 -6.64557e-05 -0.001 
0.000131234 6.38474e-05 0 0.00012964 -6.2443e-05 0 3.13827e-05 0.0001394 0 
3.12554e-05 -0.000136939 0 -0.000140461 8.25467e-19 0 -8.90565e-05 -0.000102707 0 
-9.04142e-05 0.000102872 0 -0.000765769 -0.00025965 0 -0.000756873 0.000262774 0 
-0.00015609 0.000787505 0 -0.000155807 -0.00079355 0 0.000605069 0.000528035 0 
0.000608694 -0.00052497 0 0.000744069 0.000116929 0 -0.000494418 0.000596218 0 
-0.000483866 -0.000584648 0 0.000269496 0.000702219 0 0.000263201 -0.000717324 0 
0.000754429 -0.000127825 0 -0.000748858 5.84659e-07 0 -0.000747838 0.000373886 0 
-0.0006542 0.000324842 0 -0.000645137 0.000210123 0 -0.000550884 0.000274171 0 
-0.000538857 0.000163195 0 -0.00045062 0.000224461 0 -0.000438393 0.000123907 0 
-0.000354088 0.000181668 0 -0.000363908 0.000282171 0 -0.000270361 0.000239477 0 
-0.000279138 0.000337653 0 -0.000188888 0.000294791 0 -0.000196448 0.000393271 0 
-0.000104767 0.000348259 0 -0.000113332 0.000449012 0 -2.01066e-05 0.000403223 0 
-2.89189e-05 0.000507105 0 6.9524e-05 0.000461596 0 -0.000213644 0.000490203 0 
7.33757e-05 0.000357726 0 0.000163331 0.00041299 0 0.000163359 0.000313022 0 
0.000248077 0.000366368 0 0.000250914 0.000265758 0 0.000335709 0.000322266 0 
0.000340555 0.000218148 0 0.000427299 0.000276717 0 0.000431508 0.000173093 0 
0.000328731 0.000425633 0 0.00034586 0.000114823 0 0.000435362 7.05241e-05 0 
0.000350892 1.5455e-05 0 0.000441547 -3.11896e-05 0 0.000353547 -8.47783e-05 0 
0.000445767 -0.000132964 0 0.000356135 -0.000186358 0 0.000449094 -0.000234674 0 
0.000359978 -0.000287876 0 0.00026856 -0.000240545 0 0.000271895 -0.000341045 0 
0.000181792 -0.00029305 0 0.00018533 -0.000392851 0 9.75701e-05 -0.00034483 0 
9.98764e-05 -0.000444884 0 8.75116e-06 -0.000396343 0 1.20916e-05 -0.000500496 0 
-7.83929e-05 -0.000449843 0 -8.1471e-05 -0.000347249 0 -0.000171566 -0.000403733 0 
-0.000169889 -0.000298891 0 -0.000259867 -0.000354132 0 -0.000257696 -0.000249137 0 
-0.00034313 -0.000299896 0 -0.000344514 -0.000199127 0 -0.000434309 -0.000250039 0 
-0.000169832 -0.000505815 0 -0.000435227 -0.000146227 0 0.000280331 -0.000442424 0 
-0.000340889 8.76793e-05 0 -0.000515252 4.06198e-05 0 6.50491e-05 0.000568253 0 
0.00053278 1.74743e-05 0 0.000522071 0.000229831 0 -0.00037162 0.000391659 0 
-0.000255272 -0.000150439 0 -0.000442893 -0.000350705 0 0.000450067 -0.000332559 0 
0.000545175 -0.000276306 0 -0.000527797 -0.000197598 0 0.000105306 -0.000551033 0 
1.45836e-05 -0.000609147 0 0.00017145 0.000214453 0 0.000515525 0.000341711 0 
0.000636086 0.000290368 0 -0.000558657 0.000404468 0 -4.01232e-05 0.000616718 0 
6.60192e-05 0.000696422 0 -0.000101806 0.0002546 0 0.000271142 -3.88908e-05 0 
0.000179455 -0.00018534 0 -8.79553e-05 -0.000254307 0 -0.000749267 -0.000373451 0 
-0.000655941 -0.000323397 0 0.000709746 0.000466718 0 0.000698426 -0.000473086 0 
-5.25801e-05 -0.00084886 0 -4.93005e-05 0.000848038 0 0.000617396 -0.000413362 0 
0.000702056 -0.000369817 0 0.000131459 -0.000679171 0 2.48171e-05 -0.000715924 0 
-0.000664217 -0.00042729 0 -0.000528828 -8.80444e-05 0 -0.000611101 -0.000136672 0 
-0.000426972 -4.45841e-05 0 0.000800669 0.000378216 0 0.000821144 -0.000415062 0 
7.2799e-05 0.00088254 0 6.81831e-05 -0.00087503 0 0.000104963 -0.000788946 0 
-7.40696e-05 -0.000660054 0 0.000126061 0.000809943 0 0.000764361 0.000295682 0 
0.000166862 0.000630623 0 0.000516462 -0.00046707 0 -0.000563585 -0.000389606 0 
-0.000622598 -1.40238e-05 0 0.000629891 0.000171529 0 2.5614e-06 -0.000299794 0 
8.6901e-05 -0.00024329 0 0.000272045 -0.000136982 0 -0.00075148 0.000138321 0 
0.000209366 -0.000599589 0 0.000324913 -0.000630055 0 0.000614044 0.00041245 0 
0.00049651 -0.000573327 0 0.000394822 -0.000507321 0 -0.000173714 -0.000206698 0 
0.000264897 5.63722e-05 0 0.000247997 0.000152811 0 -4.63327e-05 -0.000920208 0 
9.18688e-05 0.000258626 0 -5.54111e-06 0.000290558 0 -0.000184219 0.000201484 0 
-0.000263559 0.000142267 0 -0.000256427 5.13624e-05 0 -0.000336894 -2.06179e-06 0 
-0.000228499 -4.2388e-05 0 -0.00017589 0.000106626 0 -0.000769947 -0.000133367 0 
0.000767591 -0.000500293 0 -5.05874e-05 0.000737978 0 0.000754456 -3.51771e-06 0 
0.00064691 -6.15298e-05 0 0.000630483 -0.00018134 0 0.000749187 -0.000265543 0 
-0.000760805 -0.000462521 0 0.000638155 6.09315e-05 0 -4.46661e-05 0.000922995 0 
-2.37945e-05 0.000207237 0 0.000776979 0.000500181 0 -0.000605691 0.000527596 0 
-0.000377914 -0.000653727 0 -0.000372325 -0.000526022 0 -0.000275829 -0.000589621 0 
-0.000254285 -0.000710579 0 -0.000379307 0.000656222 0 -0.000379818 0.00052718 0 
-0.000266817 0.000721555 0 -0.000150544 0.000668174 0 0.000381963 0.00065079 0 
0.000493113 0.000590432 0 0.000505439 0.000463708 0 -0.000269094 0.000596608 0 
0.000385815 0.000532045 0 0.000283599 0.0005899 0 -0.000176405 -0.000108505 0 
-0.000278769 -0.000475415 0 0.000185395 2.33014e-06 0 0.000186773 0.000517571 0 
0.000540032 -8.68444e-05 0 -0.000600694 -0.000514877 0 -0.00063703 8.98033e-05 0 
-0.000459677 0.000335729 0 -0.000338836 -0.000100751 0 -0.000457327 0.000432721 0 
-8.72007e-06 -0.000210238 0 0.000156073 0.000129496 0 -7.70692e-05 -0.000555049 0 
0.00036091 -0.000389728 0 0.000531628 0.000120564 0 -0.000285451 0.000435562 0 
0.000192719 -0.000494604 0 0.00041642 0.00039368 0 -0.000135943 0.000554637 0 
-0.000170665 -0.000610079 0 -0.000666304 0.000434981 0 -0.000758736 0.000479231 0 
-0.000470189 -0.000458901 0 0.000203433 -8.59809e-05 0 0.000101846 0.000170114 0 
-0.00035513 -0.00040726 0 0.000100184 -0.000165831 0 2.96286e-05 0.00081537 0 
0.000720946 0.000381836 0 -0.000539809 -0.000292001 0 0.00052211 -0.000182426 0 
-6.41339e-05 -0.000753908 0 0.000638039 -0.000299861 0 -0.000605136 -0.000230182 0 
-3.41638e-05 -0.000145561 0 -0.000104037 0.000172396 0 -0.000808575 -0.00042774 0 
-0.000807207 -0.000465052 0 -0.00080817 0.000429771 0 -0.000806589 0.000469738 0 
-9.50634e-05 -0.000178909 0 0.000247777 0.000445058 0 1.48293e-05 -0.000814201 0 
-4.11555e-05 0.000140955 0 0.000276104 -0.000536845 0 0.000765969 -0.000436638 0 
0.000780871 -0.000362769 0 0.000424176 -0.000642018 0 0.00053413 -0.000368009 0 
-0.000416333 4.17911e-05 0 -0.000133891 -6.23822e-05 0 4.2574e-05 0.000206312 0 
0.000141163 -0.000121542 0 0.000707423 0.000212137 0 0.000172327 0.000723882 0 
7.72652e-06 -0.00090254 0 -0.000134435 5.66935e-05 0 -0.000188826 3.70894e-05 0 
0.000197119 8.09714e-05 0 1.27801e-05 0.000917296 0 0.000800767 0.00044758 0 
-0.000686682 0.000507104 0 9.35831e-05 0.000110457 0 -0.000696793 -0.000509595 0 
-0.00068446 -8.52012e-05 0 -0.000691033 -0.000201242 0 5.24052e-05 -0.000189075 0 
-0.000151818 -0.000701092 0 -0.000296988 0.000518087 0 9.31023e-05 -0.000108117 0 
0.00044261 -0.000416726 0 0.000197044 -0.000784423 0 -0.000516861 0.000504567 0 
0.000298997 0.000502377 0 0.000131234 6.38474e-05 -0.001 0.00012964 -6.2443e-05 -0.001 
3.13827e-05 0.0001394 -0.001 3.12554e-05 -0.000136939 -0.001 -0.000140461 8.25467e-19 -0.001 
-8.90565e-05 -0.000102707 -0.001 -9.04142e-05 0.000102872 -0.001 -0.000765769 -0.00025965 -0.001 
-0.000756873 0.000262774 -0.001 -0.00015609 0.000787505 -0.001 -0.000155807 -0.00079355 -0.001 
0.000605069 0.000528035 -0.001 0.000608694 -0.00052497 -0.001 0.000744069 0.000116929 -0.001 
-0.000494418 0.000596218 -0.001 -0.000483866 -0.000584648 -0.001 0.000269496 0.000702219 -0.001 
0.000263201 -0.000717324 -0.001 0.000754429 -0.000127825 -0.001 -0.000748858 5.84659e-07 -0.001 
-0.000747838 0.000373886 -0.001 -0.0006542 0.000324842 -0.001 -0.000645137 0.000210123 -0.001 
-0.000550884 0.000274171 -0.001 -0.000538857 0.000163195 -0.001 -0.00045062 0.000224461 -0.001 
-0.000438393 0.000123907 -0.001 -0.000354088 0.000181668 -0.001 -0.000363908 0.000282171 -0.001 
-0.000270361 0.000239477 -0.001 -0.000279138 0.000337653 -0.001 -0.000188888 0.000294791 -0.001 
-0.000196448 0.000393271 -0.001 -0.000104767 0.000348259 -0.001 -0.000113332 0.000449012 -0.001 
-2.01066e-05 0.000403223 -0.001 -2.89189e-05 0.000507105 -0.001 6.9524e-05 0.000461596 -0.001 
-0.000213644 0.000490203 -0.001 7.33757e-05 0.000357726 -0.001 0.000163331 0.00041299 -0.001 
0.000163359 0.000313022 -0.001 0.000248077 0.000366368 -0.001 0.000250914 0.000265758 -0.001 
0.000335709 0.000322266 -0.001 0.000340555 0.000218148 -0.001 0.000427299 0.000276717 -0.001 
0.000431508 0.000173093 -0.001 0.000328731 0.000425633 -0.001 0.00034586 0.000114823 -0.001 
0.000435362 7.05241e-05 -0.001 0.000350892 1.5455e-05 -0.001 0.000441547 -3.11896e-05 -0.001 
0.000353547 -8.47783e-05 -0.001 0.000445767 -0.000132964 -0.001 0.000356135 -0.000186358 -0.001 
0.000449094 -0.000234674 -0.001 0.000359978 -0.000287876 -0.001 0.00026856 -0.000240545 -0.001 
0.000271895 -0.000341045 -0.001 0.000181792 -0.00029305 -0.001 0.00018533 -0.000392851 -0.001 
9.75701e-05 -0.00034483 -0.001 9.98764e-05 -0.000444884 -0.001 8.75116e-06 -0.000396343 -0.001 
1.20916e-05 -0.000500496 -0.001 -7.83929e-05 -0.000449843 -0.001 -8.1471e-05 -0.000347249 -0.001 
-0.000171566 -0.000403733 -0.001 -0.000169889 -0.000298891 -0.001 -0.000259867 -0.000354132 -0.001 
-0.000257696 -0.000249137 -0.001 -0.00034313 -0.000299896 -0.001 -0.000344514 -0.000199127 -0.001 
-0.000434309 -0.000250039 -0.001 -0.000169832 -0.000505815 -0.001 -0.000435227 -0.000146227 -0.001 
0.000280331 -0.000442424 -0.001 -0.000340889 8.76793e-05 -0.001 -0.000515252 4.06198e-05 -0.001 
6.50491e-05 0.000568253 -0.001 0.00053278 1.74743e-05 -0.001 0.000522071 0.000229831 -0.001 
-0.00037162 0.000391659 -0.001 -0.000255272 -0.000150439 -0.001 -0.000442893 -0.000350705 -0.001 
0.000450067 -0.000332559 -0.001 0.000545175 -0.000276306 -0.001 -0.000527797 -0.000197598 -0.001 
0.000105306 -0.000551033 -0.001 1.45836e-05 -0.000609147 -0.001 0.00017145 0.000214453 -0.001 
0.000515525 0.000341711 -0.001 0.000636086 0.000290368 -0.001 -0.000558657 0.000404468 -0.001 
-4.01232e-05 0.000616718 -0.001 6.60192e-05 0.000696422 -0.001 -0.000101806 0.0002546 -0.001 
0.000271142 -3.88908e-05 -0.001 0.000179455 -0.00018534 -0.001 -8.79553e-05 -0.000254307 -0.001 
-0.000749267 -0.000373451 -0.001 -0.000655941 -0.000323397 -0.001 0.000709746 0.000466718 -0.001 
0.000698426 -0.000473086 -0.001 -5.25801e-05 -0.00084886 -0.001 -4.93005e-05 0.000848038 -0.001 
0.000617396 -0.000413362 -0.001 0.000702056 -0.000369817 -0.001 0.000131459 -0.000679171 -0.001 
2.48171e-05 -0.000715924 -0.001 -0.000664217 -0.00042729 -0.001 -0.000528828 -8.80444e-05 -0.001 
-0.000611101 -0.000136672 -0.001 -0.000426972 -4.45841e-05 -0.001 0.000800669 0.000378216 -0.001 
0.000821144 -0.000415062 -0.001 7.2799e-05 0.00088254 -0.001 6.81831e-05 -0.00087503 -0.001 
0.000104963 -0.000788946 -0.001 -7.40696e-05 -0.000660054 -0.001 0.000126061 0.000809943 -0.001 
0.000764361 0.000295682 -0.001 0.000166862 0.000630623 -0.001 0.000516462 -0.00046707 -0.001 
-0.000563585 -0.000389606 -0.001 -0.000622598 -1.40238e-05 -0.001 0.000629891 0.000171529 -0.001 
2.5614e-06 -0.000299794 -0.001 8.6901e-05 -0.00024329 -0.001 0.000272045 -0.000136982 -0.001 
-0.00075148 0.000138321 -0.001 0.000209366 -0.000599589 -0.001 0.000324913 -0.000630055 -0.001 
0.000614044 0.00041245 -0.001 0.00049651 -0.000573327 -0.001 0.000394822 -0.000507321 -0.001 
-0.000173714 -0.000206698 -0.001 0.000264897 5.63722e-05 -0.001 0.000247997 0.000152811 -0.001 
-4.63327e-05 -0.000920208 -0.001 9.18688e-05 0.000258626 -0.001 -5.54111e-06 0.000290558 -0.001 
-0.000184219 0.000201484 -0.001 -0.000263559 0.000142267 -0.001 -0.000256427 5.13624e-05 -0.001 
-0.000336894 -2.06179e-06 -0.001 -0.000228499 -4.2388e-05 -0.001 -0.00017589 0.000106626 -0.001 
-0.000769947 -0.000133367 -0.001 0.000767591 -0.000500293 -0.001 -5.05874e-05 0.000737978 -0.001 
0.000754456 -3.51771e-06 -0.001 0.00064691 -6.15298e-05 -0.001 0.000630483 -0.00018134 -0.001 
0.000749187 -0.000265543 -0.001 -0.000760805 -0.000462521 -0.001 0.000638155 6.09315e-05 -0.001 
-4.46661e-05 0.000922995 -0.001 -2.37945e-05 0.000207237 -0.001 0.000776979 0.000500181 -0.001 
-0.000605691 0.000527596 -0.001 -0.000377914 -0.000653727 -0.001 -0.000372325 -0.000526022 -0.001 
-0.000275829 -0.000589621 -0.001 -0.000254285 -0.000710579 -0.001 -0.000379307 0.000656222 -0.001 
-0.000379818 0.00052718 -0.001 -0.000266817 0.000721555 -0.001 -0.000150544 0.000668174 -0.001 
0.000381963 0.00065079 -0.001 0.000493113 0.000590432 -0.001 0.000505439 0.000463708 -0.001 
-0.000269094 0.000596608 -0.001 0.000385815 0.000532045 -0.001 0.000283599 0.0005899 -0.001 
-0.000176405 -0.000108505 -0.001 -0.000278769 -0.000475415 -0.001 0.000185395 2.33014e-06 -0.001 
0.000186773 0.000517571 -0.001 0.000540032 -8.68444e-05 -0.001 -0.000600694 -0.000514877 -0.001 
-0.00063703 8.98033e-05 -0.001 -0.000459677 0.000335729 -0.001 -0.000338836 -0.000100751 -0.001 
-0.000457327 0.000432721 -0.001 -8.72007e-06 -0.000210238 -0.001 0.000156073 0.000129496 -0.001 
-7.70692e-05 -0.000555049 -0.001 0.00036091 -0.000389728 -0.001 0.000531628 0.000120564 -0.001 
-0.000285451 0.000435562 -0.001 0.000192719 -0.000494604 -0.001 0.00041642 0.00039368 -0.001 
-0.000135943 0.000554637 -0.001 -0.000170665 -0.000610079 -0.001 -0.000666304 0.000434981 -0.001 
-0.000758736 0.000479231 -0.001 -0.000470189 -0.000458901 -0.001 0.000203433 -8.59809e-05 -0.001 
0.000101846 0.000170114 -0.001 -0.00035513 -0.00040726 -0.001 0.000100184 -0.000165831 -0.001 
2.96286e-05 0.00081537 -0.001 0.000720946 0.000381836 -0.001 -0.000539809 -0.000292001 -0.001 
0.00052211 -0.000182426 -0.001 -6.41339e-05 -0.000753908 -0.001 0.000638039 -0.000299861 -0.001 
-0.000605136 -0.000230182 -0.001 -3.41638e-05 -0.000145561 -0.001 -0.000104037 0.000172396 -0.001 
-0.000808575 -0.00042774 -0.001 -0.000807207 -0.000465052 -0.001 -0.00080817 0.000429771 -0.001 
-0.000806589 0.000469738 -0.001 -9.50634e-05 -0.000178909 -0.001 0.000247777 0.000445058 -0.001 
1.48293e-05 -0.000814201 -0.001 -4.11555e-05 0.000140955 -0.001 0.000276104 -0.000536845 -0.001 
0.000765969 -0.000436638 -0.001 0.000780871 -0.000362769 -0.001 0.000424176 -0.000642018 -0.001 
0.00053413 -0.000368009 -0.001 -0.000416333 4.17911e-05 -0.001 -0.000133891 -6.23822e-05 -0.001 
4.2574e-05 0.000206312 -0.001 0.000141163 -0.000121542 -0.001 0.000707423 0.000212137 -0.001 
0.000172327 0.000723882 -0.001 7.72652e-06 -0.00090254 -0.001 -0.000134435 5.66935e-05 -0.001 
-0.000188826 3.70894e-05 -0.001 0.000197119 8.09714e-05 -0.001 1.27801e-05 0.000917296 -0.001 
0.000800767 0.00044758 -0.001 -0.000686682 0.000507104 -0.001 9.35831e-05 0.000110457 -0.001 
-0.000696793 -0.000509595 -0.001 -0.00068446 -8.52012e-05 -0.001 -0.000691033 -0.000201242 -0.001 
5.24052e-05 -0.000189075 -0.001 -0.000151818 -0.000701092 -0.001 -0.000296988 0.000518087 -0.001 
9.31023e-05 -0.000108117 -0.001 0.00044261 -0.000416726 -0.001 0.000197044 -0.000784423 -0.001 
-0.000516861 0.000504567 -0.001 0.000298997 0.000502377 -0.001 

CELLS 563 3941
6 14 304 127 29 554 377 
6 143 259 55 393 509 103 
6 300 319 174 550 569 424 
6 259 349 55 509 599 103 
6 50 365 307 98 615 557 
6 299 320 164 549 570 414 
6 126 304 14 376 554 29 
6 298 319 300 548 569 550 
6 205 240 238 455 490 488 
6 257 308 145 507 558 395 
6 130 352 273 380 602 523 
6 295 320 299 545 570 549 
6 324 327 289 574 577 539 
6 235 258 143 485 508 393 
6 50 307 49 98 557 97 
6 207 283 279 457 533 529 
6 143 373 235 393 623 485 
6 145 308 252 395 558 502 
6 194 303 196 444 553 446 
6 279 306 207 529 556 457 
6 206 305 163 456 555 413 
6 51 357 9 99 607 24 
6 238 252 205 488 502 455 
6 293 317 209 543 567 459 
6 207 316 283 457 566 533 
6 142 301 249 392 551 499 
6 273 359 130 523 609 380 
6 211 327 324 461 577 574 
6 169 265 217 419 515 467 
6 7 365 50 22 615 98 
6 283 316 253 533 566 503 
6 159 268 223 409 518 473 
6 274 337 132 524 587 382 
6 232 361 329 482 611 579 
6 231 266 45 481 516 93 
6 229 362 330 479 612 580 
6 9 244 57 24 494 105 
6 230 276 52 480 526 100 
6 209 311 293 459 561 543 
6 131 342 302 381 592 552 
6 270 271 204 520 521 454 
6 66 243 1 114 493 16 
6 59 241 12 107 491 27 
6 280 306 279 530 556 529 
6 269 337 274 519 587 524 
6 179 256 224 429 506 474 
6 163 305 166 413 555 416 
6 201 303 194 451 553 444 
6 280 332 306 530 582 556 
6 186 255 225 436 505 475 
6 210 310 273 460 560 523 
6 153 270 204 403 520 454 
6 136 231 45 386 481 93 
6 171 265 169 421 515 419 
6 138 230 52 388 480 100 
6 225 354 325 475 604 575 
6 36 284 232 84 534 482 
6 161 268 159 411 518 409 
6 71 286 229 119 536 479 
6 290 303 201 540 553 451 
6 139 355 60 389 605 108 
6 60 355 248 108 605 498 
6 273 352 302 523 602 552 
6 235 373 245 485 623 495 
6 67 356 247 115 606 497 
6 221 295 277 471 545 527 
6 142 356 67 392 606 115 
6 139 283 253 389 533 503 
6 203 315 262 453 565 512 
6 41 257 145 89 507 395 
6 36 232 135 84 482 385 
6 71 229 137 119 479 387 
6 254 255 188 504 505 438 
6 233 350 334 483 600 584 
6 262 346 203 512 596 453 
6 304 325 127 554 575 377 
6 222 329 247 472 579 497 
6 218 298 260 468 548 510 
6 290 321 291 540 571 541 
6 272 310 240 522 560 490 
6 269 274 270 519 524 520 
6 244 245 57 494 495 105 
6 49 307 141 97 557 391 
6 225 325 256 475 575 506 
6 273 310 272 523 560 522 
6 312 368 255 562 618 505 
6 249 305 206 499 555 456 
6 228 331 251 478 581 501 
6 302 342 263 552 592 513 
6 338 339 44 588 589 92 
6 190 254 188 440 504 438 
6 37 341 340 85 591 590 
6 138 233 230 388 483 480 
6 228 335 331 478 585 581 
6 181 256 179 431 506 429 
6 195 263 226 445 513 476 
6 268 285 223 518 535 473 
6 290 291 288 540 541 538 
6 219 330 248 469 580 498 
6 201 321 290 451 571 540 
6 240 310 202 490 560 452 
6 188 255 186 438 505 436 
6 270 274 271 520 524 521 
6 262 349 259 512 599 509 
6 141 324 289 391 574 539 
6 296 301 142 546 551 392 
6 247 356 222 497 606 472 
6 239 252 238 489 502 488 
6 254 312 255 504 562 505 
6 54 261 53 102 511 101 
6 289 327 303 539 577 553 
6 268 353 285 518 603 535 
6 273 302 210 523 552 460 
6 292 299 293 542 549 543 
6 278 283 139 528 533 389 
6 175 265 171 425 515 421 
6 227 338 38 477 588 86 
6 264 360 265 514 610 515 
6 43 340 146 91 590 396 
6 165 268 161 415 518 411 
6 205 351 240 455 601 490 
6 64 281 63 112 531 111 
6 288 291 47 538 541 95 
6 135 295 294 385 545 544 
6 42 257 41 90 507 89 
6 245 373 57 495 623 105 
6 31 363 323 79 613 573 
6 292 293 140 542 543 390 
6 267 353 268 517 603 518 
6 155 270 153 405 520 403 
6 244 344 245 494 594 495 
6 61 278 139 109 528 389 
6 135 294 35 385 544 83 
6 69 297 296 117 547 546 
6 186 225 184 436 475 434 
6 329 361 243 579 611 493 
6 255 328 225 505 578 475 
6 213 332 280 463 582 530 
6 39 275 133 87 525 383 
6 330 362 241 580 612 491 
6 195 226 193 445 476 443 
6 211 324 251 461 574 501 
6 151 153 152 401 403 402 
6 295 299 294 545 549 544 
6 265 313 217 515 563 467 
6 258 259 143 508 509 393 
6 251 331 211 501 581 461 
6 149 151 150 399 401 400 
6 293 370 317 543 620 567 
6 153 204 152 403 454 402 
6 151 152 150 401 402 400 
6 33 292 140 81 542 390 
6 210 263 197 460 513 447 
6 301 305 249 551 555 499 
6 298 300 297 548 550 547 
6 68 296 142 116 546 392 
6 321 369 291 571 619 541 
6 179 224 177 429 474 427 
6 167 267 165 417 517 415 
6 259 346 262 509 596 512 
6 303 327 196 553 577 446 
6 269 270 155 519 520 405 
6 265 360 313 515 610 563 
6 223 269 157 473 519 407 
6 157 269 155 407 519 405 
6 144 279 278 394 529 528 
6 169 217 167 419 467 417 
6 177 264 175 427 514 425 
6 267 268 165 517 518 415 
6 159 223 157 409 473 407 
6 232 277 135 482 527 385 
6 193 254 190 443 504 440 
6 217 267 167 467 517 417 
6 249 356 142 499 606 392 
6 184 256 181 434 506 431 
6 248 355 219 498 605 469 
6 229 260 137 479 510 387 
6 149 150 148 399 400 398 
6 64 348 281 112 598 531 
6 311 374 293 561 624 543 
6 264 265 175 514 515 425 
6 297 300 296 547 550 546 
6 141 289 288 391 539 538 
6 197 263 195 447 513 445 
6 218 260 219 468 510 469 
6 224 264 177 474 514 427 
6 137 298 297 387 548 547 
6 277 295 135 527 545 385 
6 133 228 227 383 478 477 
6 261 349 262 511 599 512 
6 221 277 222 471 527 472 
6 256 325 224 506 575 474 
6 199 210 197 449 460 447 
6 226 254 193 476 504 443 
6 144 278 62 394 528 110 
6 279 283 278 529 533 528 
6 289 290 288 539 540 538 
6 137 297 70 387 547 118 
6 34 294 292 82 544 542 
6 235 236 216 485 486 466 
6 141 288 48 391 538 96 
6 178 306 180 428 556 430 
6 185 186 184 435 436 434 
6 63 281 144 111 531 394 
6 225 256 184 475 506 434 
6 46 291 136 94 541 386 
6 147 149 148 397 399 398 
6 271 272 204 521 522 454 
6 233 334 234 483 584 484 
6 145 275 40 395 525 88 
6 220 322 287 470 572 537 
6 280 334 213 530 584 463 
6 144 280 279 394 530 529 
6 140 287 32 390 537 80 
6 154 155 153 404 405 403 
6 334 350 213 584 600 463 
6 176 177 175 426 427 425 
6 260 298 137 510 548 387 
6 33 140 32 81 390 80 
6 49 141 48 97 391 96 
6 56 143 55 104 393 103 
6 68 142 67 116 392 115 
6 63 144 62 111 394 110 
6 61 139 60 109 389 108 
6 148 308 257 398 558 507 
6 71 137 70 119 387 118 
6 53 138 52 101 388 100 
6 46 136 45 94 386 93 
6 36 135 35 84 385 83 
6 43 146 134 91 396 384 
6 133 227 38 383 477 86 
6 192 193 190 442 443 440 
6 293 374 140 543 624 390 
6 34 292 33 82 542 81 
6 207 306 178 457 556 428 
6 43 134 42 91 384 90 
6 39 133 38 87 383 86 
6 41 145 40 89 395 88 
6 194 195 193 444 445 443 
6 69 296 68 117 546 116 
6 294 299 292 544 549 542 
6 173 175 171 423 425 421 
6 260 330 219 510 580 469 
6 183 184 181 433 434 431 
6 134 257 42 384 507 90 
6 55 349 54 103 599 102 
6 163 165 161 413 415 411 
6 166 167 165 416 417 415 
6 210 302 263 460 552 513 
6 271 273 272 521 523 522 
6 53 261 138 101 511 388 
6 217 326 267 467 576 517 
6 289 303 290 539 553 540 
6 178 179 177 428 429 427 
6 238 240 202 488 490 452 
6 62 278 61 110 528 109 
6 35 294 34 83 544 82 
6 284 361 232 534 611 482 
6 70 297 69 118 547 117 
6 224 304 264 474 554 514 
6 156 157 155 406 407 405 
6 48 288 47 96 538 95 
6 221 320 295 471 570 545 
6 187 188 186 437 438 436 
6 47 291 46 95 541 94 
6 151 154 153 401 404 403 
6 286 362 229 536 612 479 
6 168 169 167 418 419 417 
6 40 275 39 88 525 87 
6 307 324 141 557 574 391 
6 300 301 296 550 551 546 
6 32 287 31 80 537 79 
6 147 220 149 397 470 399 
6 333 344 231 583 594 481 
6 299 370 293 549 620 543 
6 271 359 273 521 609 523 
6 224 325 304 474 575 554 
6 228 237 227 478 487 477 
6 305 375 343 555 625 593 
6 218 319 298 468 569 548 
6 240 351 272 490 601 522 
6 277 329 222 527 579 472 
6 253 355 139 503 605 389 
6 158 159 157 408 409 407 
6 236 246 216 486 496 466 
6 192 194 193 442 444 443 
6 220 309 149 470 559 399 
6 183 185 184 433 435 434 
6 196 197 195 446 447 445 
6 276 347 58 526 597 106 
6 136 333 231 386 583 481 
6 67 247 66 115 497 114 
6 60 248 59 108 498 107 
6 261 262 250 511 512 500 
6 173 176 175 423 426 425 
6 344 357 231 594 607 481 
6 144 281 280 394 531 530 
6 152 205 150 402 455 400 
6 163 166 165 413 416 415 
6 185 187 186 435 437 436 
6 233 234 230 483 484 480 
6 170 171 169 420 421 419 
6 146 147 134 396 397 384 
6 176 178 177 426 428 427 
6 285 337 223 535 587 473 
6 154 156 155 404 406 405 
6 263 342 226 513 592 476 
6 235 245 236 485 495 486 
6 160 161 159 410 411 409 
6 58 347 242 106 597 492 
6 166 168 167 416 418 417 
6 287 374 220 537 624 470 
6 189 190 188 439 440 438 
6 148 257 134 398 507 384 
6 194 196 195 444 446 445 
6 252 308 205 502 558 455 
6 285 345 337 535 595 587 
6 301 375 305 551 625 555 
6 180 181 179 430 431 429 
6 281 348 234 531 598 484 
6 198 199 197 448 449 447 
6 151 309 154 401 559 404 
6 228 367 335 478 617 585 
6 54 349 261 102 599 511 
6 156 158 157 406 408 407 
6 168 170 169 418 420 419 
6 200 202 199 450 452 449 
6 147 148 134 397 398 384 
6 158 160 159 408 410 409 
6 150 308 148 400 558 398 
6 253 316 208 503 566 458 
6 232 329 277 482 579 527 
6 178 180 179 428 430 429 
6 191 192 190 441 442 440 
6 214 238 202 464 488 452 
6 172 173 171 422 423 421 
6 187 189 188 437 439 438 
6 162 163 161 412 413 411 
6 228 251 237 478 501 487 
6 215 258 235 465 508 485 
6 182 183 181 432 433 431 
6 202 310 199 452 560 449 
6 219 253 208 469 503 458 
6 222 249 206 472 499 456 
6 196 198 197 446 448 447 
6 229 330 260 479 580 510 
6 132 358 274 382 608 524 
6 149 309 151 399 559 401 
6 226 312 254 476 562 504 
6 154 309 209 404 559 459 
6 77 129 76 125 379 124 
6 73 128 72 121 378 120 
6 76 131 75 124 381 123 
6 74 132 73 122 382 121 
6 75 130 74 123 380 122 
6 14 127 77 29 377 125 
6 72 126 14 120 376 29 
6 133 367 228 383 617 478 
6 237 282 227 487 532 477 
6 239 366 252 489 616 502 
6 200 214 202 450 464 452 
6 192 201 194 442 451 444 
6 170 172 171 420 422 421 
6 220 311 309 470 561 559 
6 198 200 199 448 450 449 
6 189 191 190 439 441 440 
6 146 323 322 396 573 572 
6 160 162 161 410 412 411 
6 251 307 237 501 557 487 
6 199 310 210 449 560 460 
6 57 373 56 105 623 104 
6 214 239 238 464 489 488 
6 182 212 183 432 462 433 
6 180 182 181 430 432 431 
6 146 322 147 396 572 397 
6 172 218 208 422 468 458 
6 172 208 173 422 458 423 
6 162 221 206 412 471 456 
6 162 206 163 412 456 413 
6 176 207 178 426 457 428 
6 272 351 204 522 601 454 
6 198 211 200 448 461 450 
6 182 213 212 432 463 462 
6 234 334 281 484 584 531 
6 154 209 156 404 459 406 
6 185 203 187 435 453 437 
6 168 174 170 418 424 420 
6 189 215 191 439 465 441 
6 215 216 191 465 466 441 
6 221 222 206 471 472 456 
6 158 164 160 408 414 410 
6 218 219 208 468 469 458 
6 205 308 150 455 558 400 
6 191 314 192 441 564 442 
6 215 235 216 465 485 466 
6 215 318 258 465 568 508 
6 152 351 205 402 601 455 
6 138 261 250 388 511 500 
6 192 314 201 442 564 451 
6 234 347 230 484 597 480 
6 226 342 312 476 592 562 
6 138 250 233 388 500 483 
6 147 322 220 397 572 470 
6 216 314 191 466 564 441 
6 306 332 180 556 582 430 
6 222 356 249 472 606 499 
6 128 345 285 378 595 535 
6 314 321 201 564 571 451 
6 212 315 183 462 565 433 
6 312 342 336 562 592 586 
6 282 339 338 532 589 588 
6 340 341 323 590 591 573 
6 309 311 209 559 561 459 
6 183 315 185 433 565 435 
6 208 316 173 458 566 423 
6 173 316 176 423 566 426 
6 3 341 37 18 591 85 
6 44 339 6 92 589 21 
6 252 366 145 502 616 395 
6 246 321 314 496 571 564 
6 246 314 216 496 564 466 
6 126 364 313 376 614 563 
6 156 317 158 406 567 408 
6 275 367 133 525 617 383 
6 176 316 207 426 566 457 
6 185 315 203 435 565 453 
6 180 332 182 430 582 432 
6 302 352 131 552 602 381 
6 251 324 307 501 574 557 
6 187 318 189 437 568 439 
6 172 319 218 422 569 468 
6 162 320 221 412 570 471 
6 305 343 166 555 593 416 
6 170 319 172 420 569 422 
6 158 317 164 408 567 414 
6 209 317 156 459 567 406 
6 285 353 128 535 603 378 
6 223 337 269 473 587 519 
6 160 320 162 410 570 412 
6 211 331 200 461 581 450 
6 174 319 170 424 569 420 
6 203 318 187 453 568 437 
6 189 318 215 439 568 465 
6 198 327 211 448 577 461 
6 164 320 160 414 570 410 
6 326 353 267 576 603 517 
6 236 344 333 486 594 583 
6 196 327 198 446 577 448 
6 219 355 253 469 605 503 
6 281 334 280 531 584 530 
6 274 359 271 524 609 521 
6 164 370 299 414 620 549 
6 174 375 300 424 625 550 
6 287 363 31 537 613 79 
6 243 361 1 493 611 16 
6 241 362 12 491 612 27 
6 307 365 237 557 615 487 
6 166 343 168 416 593 418 
6 200 331 214 450 581 464 
6 313 326 217 563 576 467 
6 9 357 244 24 607 494 
6 1 361 30 16 611 78 
6 12 362 65 27 612 113 
6 337 345 132 587 595 382 
6 242 348 64 492 598 112 
6 231 357 266 481 607 516 
6 182 332 213 432 582 463 
6 245 344 236 495 594 486 
6 258 346 259 508 596 509 
6 145 366 275 395 616 525 
6 291 369 136 541 619 386 
6 236 333 246 486 583 496 
6 331 335 214 581 585 464 
6 312 336 129 562 586 379 
6 315 372 262 565 622 512 
6 220 374 311 470 624 561 
6 140 374 287 390 624 537 
6 126 360 304 376 610 554 
6 230 347 276 480 597 526 
6 313 364 326 563 614 576 
6 56 373 143 104 623 393 
6 239 367 366 489 617 616 
6 204 351 152 454 601 402 
6 300 375 301 550 625 551 
6 214 335 239 464 585 489 
6 247 329 243 497 579 493 
6 262 372 250 512 622 500 
6 248 330 241 498 580 491 
6 318 346 258 568 596 508 
6 333 369 246 583 619 496 
6 282 338 227 532 588 477 
6 146 340 323 396 590 573 
6 304 360 264 554 610 514 
6 366 367 275 616 617 525 
6 129 336 76 379 586 124 
6 73 345 128 121 595 378 
6 76 336 131 124 586 381 
6 250 350 233 500 600 483 
6 129 371 328 379 621 578 
6 132 345 73 382 595 121 
6 168 343 174 418 593 424 
6 131 352 75 381 602 123 
6 66 247 243 114 497 493 
6 59 248 241 107 498 491 
6 74 358 132 122 608 382 
6 203 346 318 453 596 568 
6 313 360 126 563 610 376 
6 128 364 72 378 614 120 
6 128 353 326 378 603 576 
6 77 371 129 125 621 379 
6 129 368 312 379 618 562 
6 244 357 344 494 607 594 
6 328 354 225 578 604 475 
6 326 364 128 576 614 378 
6 75 352 130 123 602 380 
6 350 372 212 600 622 462 
6 136 369 333 386 619 583 
6 325 354 127 575 604 377 
6 213 350 212 463 600 462 
6 130 358 74 380 608 122 
6 250 372 350 500 622 600 
6 317 370 164 567 620 414 
6 72 364 126 120 614 376 
6 328 368 129 578 618 379 
6 127 371 77 377 621 125 
6 336 342 131 586 592 381 
6 212 372 315 462 622 565 
6 234 348 347 484 598 597 
6 8 266 51 23 516 99 
6 10 276 58 25 526 106 
6 246 369 321 496 619 571 
6 30 284 0 78 534 15 
6 65 286 13 113 536 28 
6 58 242 11 106 492 26 
6 266 357 51 516 607 99 
6 255 368 328 505 618 578 
6 347 348 242 597 598 492 
6 322 363 287 572 613 537 
6 323 363 322 573 613 572 
6 335 367 239 585 617 489 
6 30 361 284 78 611 534 
6 65 362 286 113 612 536 
6 237 365 282 487 615 532 
6 130 359 358 380 609 608 
6 343 375 174 593 625 424 
6 354 371 127 604 621 377 
6 328 371 354 578 621 604 
6 358 359 274 608 609 524 
6 0 284 36 15 534 84 
6 45 266 8 93 516 23 
6 52 276 10 100 526 25 
6 11 242 64 26 492 112 
6 13 286 71 28 536 119 
6 2 323 3 17 573 18 
6 31 323 2 79 573 17 
6 323 341 3 573 591 18 
6 37 340 4 85 590 19 
6 4 340 43 19 590 91 
6 38 338 5 86 588 20 
6 5 338 44 20 588 92 
6 6 282 7 21 532 22 
6 6 339 282 21 589 532 
6 282 365 7 532 615 22 

CELL_TYPES 563
13
13
13
13
13
13
13
13
13
13
13
13
13
13
13
13
13
13
13
13
13
13
13
13
13
13
13
13
13
13
13
13
13
13
13
13
13
13
13
13
13
13
13
13
13
13
13
13
13
13
13
13
13
13
13
13
13
13
13
13
13
13
13
13
13
13
13
13
13
13
13
13
13
13
13
13
13
13
13
13
13
13
13
13
13
13
13
13
13
13
13
13
13
13
13
13
13
13
13
13
13
13
13
13
13
13
13
13
13
13
13
13
13
13
13
13
13
13
13
13
13
13
13
13
13
13
13
13
13
13
13
13
13
13
13
13
13
13
13
13
13
13
13
13
13
13
13
13
13
13
13
13
13
13
13
13
13
13
13
13
13
13
13
13
13
13
13
13
13
13
13
13
13
13
13
13
13
13
13
13
13
13
13
13
13
13
13
13
13
13
13
13
13
13
13
13
13
13
13
13
13
13
13
13
13
13
13
13
13
13
13
13
13
13
13
13
13
13
13
13
13
13
13
13
13
13
13
13
13
13
13
13
13
13
13
13
13
13
13
13
13
13
13
13
13
13
13
13
13
13
13
13
13
13
13
13
13
13
13
13
13
13
13
13
13
13
13
13
13
13
13
13
13
13
13
13
13
13
13
13
13
13
13
13
13
13
13
13
13
13
13
13
13
13
13
13
13
13
13
13
13
13
13
13
13
13
13
13
13
13
13
13
13
13
13
13
13
13
13
13
13
13
13
13
13
13
13
13
13
13
13
13
13
13
13
13
13
13
13
13
13
13
13
13
13
13
13
13
13
13
13
13
13
13
13
13
13
13
13
13
13
13
13
13
13
13
13
13
13
13
13
13
13
13
13
13
13
13
13
13
13
13
13
13
13
13
13
13
13
13
13
13
13
13
13
13
13
13
13
13
13
13
13
13
13
13
13
13
13
13
13
13
13
13
13
13
13
13
13
13
13
13
13
13
13
13
13
13
13
13
13
13
13
13
13
13
13
13
13
13
13
13
13
13
13
13
13
13
13
13
13
13
13
13
13
13
13
13
13
13
13
13
13
13
13
13
13
13
13
13
13
13
13
13
13
13
13
13
13
13
13
13
13
13
13
13
13
13
13
13
13
13
13
13
13
13
13
13
13
13
13
13
13
13
13
13
13
13
13
13
13
13
13
13
13
13
13
13
13
13
13
13
13
13
13
13
13
13
13
13
13
13
13
13
13
13
13
13
13
13
13
13
13
13
13
13
13
13
13
13
13
13
13
13
13
13
13
13
13
13
13
13
13

POINT_DATA 626
VECTORS displacement float
-1.74394e-06 3.09548e-05 1.80552e-05
1.73565e-06 3.09739e-05 1.81003e-05
-2.59866e-05 1.6993e-05 1.80872e-05
-2.58412e-05 1.60332e-05 1.80518e-05
-2.7721e-05 1.3973e-05 1.80692e-05
-2.7714e-05 -1.40193e-05 1.80947e-05
-2.58124e-05 -1.60714e-05 1.8106e-05
-2.59828e-05 -1.70111e-05 1.81672e-05
-1.6774e-06 -3.09586e-05 1.80516e-05
1.75545e-06 -3.09601e-05 1.81021e-05
2.5944e-05 -1.69809e-05 1.80437e-05
2.77173e-05 -1.39369e-05 1.80435e-05
2.76728e-05 1.39896e-05 1.80918e-05
2.59153e-05 1.69932e-05 1.80462e-05
0 0 0
-1.74394e-06 3.09548e-05 -1.80552e-05
1.73565e-06 3.09739e-05 -1.81003e-05
-2.59866e-05 1.6993e-05 -1.80872e-05
-2.58412e-05 1.60332e-05 -1.80518e-05
-2.7721e-05 1.3973e-05 -1.80692e-05
-2.7714e-05 -1.40193e-05 -1.80947e-05
-2.58124e-05 -1.60714e-05 -1.8106e-05
-2.59828e-05 -1.70111e-05 -1.81672e-05
-1.6774e-06 -3.09586e-05 -1.80516e-05
1.75545e-06 -3.09601e-05 -1.81021e-05
2.5944e-05 -1.69809e-05 -1.80437e-05
2.77173e-05 -1.39369e-05 -1.80435e-05
2.76728e-05 1.39896e-05 -1.80918e-05
2.59153e-05 1.69932e-05 -1.80462e-05
0 0 0
2.48927e-08 3.01547e-05 1.80344e-05
-2.11409e-05 1.87126e-05 1.75499e-05
-1.72328e-05 1.98341e-05 1.6921e-05
-1.40072e-05 2.10545e-05 1.65551e-05
-1.1207e-05 2.26652e-05 1.6549e-05
-8.52418e-06 2.48332e-05 1.69015e-05
-5.56783e-06 2.76221e-05 1.75376e-05
-2.64502e-05 1.46793e-05 1.80336e-05
-2.67691e-05 -9.01169e-06 1.75776e-05
-2.58066e-05 -5.03557e-06 1.69261e-05
-2.52548e-05 -1.63624e-06 1.65716e-05
-2.52578e-05 1.60788e-06 1.65746e-05
-2.57989e-05 5.02297e-06 1.69243e-05
-2.67553e-05 8.98477e-06 1.75641e-05
-2.64371e-05 -1.47257e-05 1.80624e-05
-5.54109e-06 -2.76366e-05 1.75298e-05
-8.4767e-06 -2.48422e-05 1.69009e-05
-1.11702e-05 -2.26846e-05 1.65564e-05
-1.39708e-05 -2.10876e-05 1.65597e-05
-1.72152e-05 -1.98695e-05 1.69368e-05
-2.11345e-05 -1.87494e-05 1.75624e-05
8.98377e-08 -3.01395e-05 1.80295e-05
2.11243e-05 -1.8625e-05 1.75116e-05
1.7245e-05 -1.97625e-05 1.6873e-05
1.40341e-05 -2.10115e-05 1.65118e-05
1.12252e-05 -2.25933e-05 1.65463e-05
8.58134e-06 -2.47804e-05 1.68743e-05
5.65471e-06 -2.76268e-05 1.75352e-05
2.61249e-05 -1.50599e-05 1.80285e-05
2.67172e-05 8.93856e-06 1.75017e-05
2.57224e-05 5.04969e-06 1.69086e-05
2.52069e-05 1.62335e-06 1.65234e-05
2.52041e-05 -1.59946e-06 1.65217e-05
2.5751e-05 -4.99748e-06 1.68885e-05
2.66992e-05 -8.91731e-06 1.75098e-05
2.61079e-05 1.5061e-05 1.80256e-05
5.63317e-06 2.76182e-05 1.75097e-05
8.50871e-06 2.48071e-05 1.69114e-05
1.12172e-05 2.26414e-05 1.65296e-05
1.40047e-05 2.10224e-05 1.65249e-05
1.7222e-05 1.97937e-05 1.68853e-05
2.11153e-05 1.86347e-05 1.75255e-05
0 0 0
0 0 0
0 0 0
0 0 0
0 0 0
0 0 0
2.48927e-08 3.01547e-05 -1.80344e-05
-2.11409e-05 1.87126e-05 -1.75499e-05
-1.72328e-05 1.98341e-05 -1.6921e-05
-1.40072e-05 2.10545e-05 -1.65551e-05
-1.1207e-05 2.26652e-05 -1.6549e-05
-8.52418e-06 2.48332e-05 -1.69015e-05
-5.56783e-06 2.76221e-05 -1.75376e-05
-2.64502e-05 1.46793e-05 -1.80336e-05
-2.67691e-05 -9.01169e-06 -1.75776e-05
-2.58066e-05 -5.03557e-06 -1.69261e-05
-2.52548e-05 -1.63624e-06 -1.65716e-05
-2.52578e-05 1.60788e-06 -1.65746e-05
-2.57989e-05 5.02297e-06 -1.69243e-05
-2.67553e-05 8.98477e-06 -1.75641e-05
-2.64371e-05 -1.47257e-05 -1.80624e-05
-5.54109e-06 -2.76366e-05 -1.75298e-05
-8.4767e-06 -2.48422e-05 -1.69009e-05
-1.11702e-05 -2.26846e-05 -1.65564e-05
-1.39708e-05 -2.10876e-05 -1.65597e-05
-1.72152e-05 -1.98695e-05 -1.69368e-05
-2.11345e-05 -1.87494e-05 -1.75624e-05
8.98377e-08 -3.01395e-05 -1.80295e-05
2.11243e-05 -1.8625e-05 -1.75116e-05
1.7245e-05 -1.97625e-05 -1.6873e-05
1.40341e-05 -2.10115e-05 -1.65118e-05
1.12252e-05 -2.25933e-05 -1.65463e-05
8.58134e-06 -2.47804e-05 -1.68743e-05
5.65471e-06 -2.76268e-05 -1.75352e-05
2.61249e-05 -1.50599e-05 -1.80285e-05
2.67172e-05 8.93856e-06 -1.75017e-05
2.57224e-05 5.04969e-06 -1.69086e-05
2.52069e-05 1.62335e-06 -1.65234e-05
2.52041e-05 -1.59946e-06 -1.65217e-05
2.5751e-05 -4.99748e-06 -1.68885e-05
2.66992e-05 -8.91731e-06 -1.75098e-05
2.61079e-05 1.5061e-05 -1.80256e-05
5.63317e-06 2.76182e-05 -1.75097e-05
8.50871e-06 2.48071e-05 -1.69114e-05
1.12172e-05 2.26414e-05 -1.65296e-05
1.40047e-05 2.10224e-05 -1.65249e-05
1.7222e-05 1.97937e-05 -1.68853e-05
2.11153e-05 1.86347e-05 -1.75255e-05
0 0 0
0 0 0
0 0 0
0 0 0
0 0 0
0 0 0
1.7937e-06 8.58755e-07 4.55231e-06
1.73784e-06 -8.25122e-07 4.46086e-06
4.31958e-07 1.84964e-06 4.49518e-06
4.36102e-07 -1.78065e-06 4.35614e-06
-1.8475e-06 2.09634e-08 4.42242e-06
-1.1231e-06 -1.30889e-06 4.15105e-06
-1.15922e-06 1.30681e-06 4.19983e-06
-2.25133e-05 -7.28778e-06 1.70001e-05
-2.21967e-05 7.37167e-06 1.69688e-05
-4.86049e-06 2.28988e-05 1.69372e-05
-4.85801e-06 -2.31319e-05 1.69641e-05
1.74215e-05 1.56357e-05 1.693e-05
1.7569e-05 -1.55366e-05 1.69393e-05
2.10738e-05 3.16393e-06 1.63245e-05
-1.39533e-05 1.71515e-05 1.64785e-05
-1.35914e-05 -1.67415e-05 1.64101e-05
7.76794e-06 1.98198e-05 1.63314e-05
7.68496e-06 -2.03102e-05 1.64026e-05
2.14726e-05 -3.44378e-06 1.64003e-05
-2.1103e-05 6.5881e-09 1.62468e-05
-2.24206e-05 1.09999e-05 1.74538e-05
-1.87511e-05 9.25481e-06 1.66272e-05
-1.7983e-05 5.79553e-06 1.60364e-05
-1.49841e-05 7.44843e-06 1.54865e-05
-1.42246e-05 4.30777e-06 1.48298e-05
-1.15327e-05 5.74396e-06 1.40948e-05
-1.08582e-05 3.06877e-06 1.33736e-05
-8.40059e-06 4.30493e-06 1.24044e-05
-9.05892e-06 7.01349e-06 1.34564e-05
-6.20418e-06 5.48857e-06 1.1689e-05
-6.82839e-06 8.24954e-06 1.308e-05
-4.28145e-06 6.67499e-06 1.14505e-05
-4.80007e-06 9.61004e-06 1.3094e-05
-2.4009e-06 7.99344e-06 1.1723e-05
-2.81289e-06 1.11674e-05 1.3475e-05
-4.75416e-07 9.59541e-06 1.2501e-05
-7.38364e-07 1.29971e-05 1.41418e-05
1.7311e-06 1.15179e-05 1.3535e-05
-5.53476e-06 1.27005e-05 1.4437e-05
1.6851e-06 8.22408e-06 1.17476e-05
4.00423e-06 1.0121e-05 1.3151e-05
3.7054e-06 7.09804e-06 1.14783e-05
6.06748e-06 8.96678e-06 1.31134e-05
5.76689e-06 6.10686e-06 1.17356e-05
8.35819e-06 8.02042e-06 1.34921e-05
8.10575e-06 5.19533e-06 1.25004e-05
1.09541e-05 7.09714e-06 1.4147e-05
1.07461e-05 4.32285e-06 1.34991e-05
8.53063e-06 1.10376e-05 1.44608e-05
7.93779e-06 2.64378e-06 1.17274e-05
1.06461e-05 1.73722e-06 1.31041e-05
7.94878e-06 3.58765e-07 1.14556e-05
1.08065e-05 -7.59122e-07 1.31242e-05
8.11174e-06 -1.93783e-06 1.17091e-05
1.10984e-05 -3.31289e-06 1.3484e-05
8.46984e-06 -4.42404e-06 1.24441e-05
1.15039e-05 -6.00296e-06 1.41095e-05
8.95569e-06 -7.1382e-06 1.34281e-05
6.1476e-06 -5.49448e-06 1.16413e-05
6.64458e-06 -8.30097e-06 1.30183e-05
4.10526e-06 -6.58859e-06 1.1311e-05
4.52341e-06 -9.55099e-06 1.29883e-05
2.24232e-06 -7.85839e-06 1.15974e-05
2.48487e-06 -1.1002e-05 1.3351e-05
2.25294e-07 -9.37381e-06 1.23536e-05
3.30017e-07 -1.277e-05 1.40339e-05
-1.91546e-06 -1.11508e-05 1.33771e-05
-1.84109e-06 -7.92172e-06 1.15822e-05
-4.16795e-06 -9.87498e-06 1.30851e-05
-3.81399e-06 -6.73059e-06 1.13172e-05
-6.34571e-06 -8.66214e-06 1.30994e-05
-5.89138e-06 -5.69809e-06 1.16285e-05
-8.49984e-06 -7.4359e-06 1.33798e-05
-8.16765e-06 -4.72812e-06 1.24087e-05
-1.10958e-05 -6.40286e-06 1.407e-05
-4.37171e-06 -1.31234e-05 1.44338e-05
-1.0809e-05 -3.65073e-06 1.34393e-05
7.22622e-06 -1.13729e-05 1.42731e-05
-7.7418e-06 1.98271e-06 1.1493e-05
-1.32163e-05 1.03507e-06 1.4211e-05
1.72915e-06 1.5083e-05 1.49523e-05
1.37683e-05 4.62244e-07 1.43879e-05
1.38434e-05 6.10019e-06 1.49318e-05
-9.6942e-06 1.01964e-05 1.45326e-05
-5.41608e-06 -3.1977e-06 1.01822e-05
-1.17138e-05 -9.29747e-06 1.48893e-05
1.18826e-05 -8.76034e-06 1.47873e-05
1.4782e-05 -7.47371e-06 1.54035e-05
-1.39599e-05 -5.24397e-06 1.48618e-05
2.79586e-06 -1.45164e-05 1.47963e-05
4.24568e-07 -1.64997e-05 1.53979e-05
3.51848e-06 4.397e-06 9.58123e-06
1.40108e-05 9.2992e-06 1.54918e-05
1.79311e-05 8.14508e-06 1.63007e-05
-1.56757e-05 1.13955e-05 1.62337e-05
-1.0941e-06 1.67693e-05 1.54955e-05
1.90689e-06 1.96219e-05 1.63112e-05
-2.0919e-06 5.22015e-06 9.59772e-06
5.55402e-06 -7.84615e-07 9.59427e-06
3.586e-06 -3.68362e-06 9.0821e-06
-1.77966e-06 -5.17865e-06 9.44973e-06
-2.24691e-05 -1.1011e-05 1.74745e-05
-1.87985e-05 -9.24156e-06 1.66512e-05
2.11481e-05 1.4165e-05 1.75058e-05
2.07541e-05 -1.43178e-05 1.74357e-05
-1.76462e-06 -2.54469e-05 1.75111e-05
-1.68215e-06 2.54109e-05 1.75158e-05
1.77133e-05 -1.19071e-05 1.66874e-05
2.0646e-05 -1.07512e-05 1.71162e-05
3.7757e-06 -1.89854e-05 1.61396e-05
7.6854e-07 -2.03461e-05 1.64831e-05
-1.94054e-05 -1.26507e-05 1.71433e-05
-1.37313e-05 -2.30696e-06 1.4472e-05
-1.6593e-05 -3.70149e-06 1.54777e-05
-1.0376e-05 -1.0964e-06 1.29522e-05
2.44524e-05 1.1073e-05 1.76518e-05
2.54979e-05 -1.24034e-05 1.78483e-05
2.64927e-06 2.67264e-05 1.76607e-05
2.52102e-06 -2.6414e-05 1.76295e-05
3.3395e-06 -2.30322e-05 1.70293e-05
-2.05392e-06 -1.83202e-05 1.59511e-05
4.05911e-06 2.37917e-05 1.71306e-05
2.26145e-05 8.37938e-06 1.71194e-05
4.61367e-06 1.73136e-05 1.57275e-05
1.44272e-05 -1.31196e-05 1.61376e-05
-1.57879e-05 -1.09849e-05 1.62147e-05
-1.68e-05 -3.81433e-07 1.53775e-05
1.73062e-05 4.68755e-06 1.57258e-05
6.55226e-08 -6.38739e-06 1.02676e-05
1.74173e-06 -4.84852e-06 9.0926e-06
5.85053e-06 -2.93555e-06 1.03783e-05
-2.14445e-05 3.75056e-06 1.6459e-05
5.72944e-06 -1.62747e-05 1.55079e-05
9.08358e-06 -1.74993e-05 1.59977e-05
1.75724e-05 1.18818e-05 1.66725e-05
1.39944e-05 -1.63825e-05 1.64014e-05
1.07401e-05 -1.37892e-05 1.55503e-05
-3.54801e-06 -4.22024e-06 9.50088e-06
5.39918e-06 1.13851e-06 9.49917e-06
5.21811e-06 3.22291e-06 1.00474e-05
-1.74979e-06 -2.83548e-05 1.7877e-05
1.89208e-06 5.29895e-06 9.58457e-06
-1.13825e-07 6.10508e-06 1.00389e-05
-3.78496e-06 4.12779e-06 9.57852e-06
-5.62274e-06 3.03422e-06 1.02854e-05
-5.16553e-06 1.04068e-06 9.21372e-06
-7.52733e-06 -6.17399e-08 1.11725e-05
-4.33442e-06 -8.10286e-07 8.38196e-06
-3.10862e-06 1.87235e-06 7.37415e-06
-2.20814e-05 -3.6078e-06 1.6516e-05
2.34065e-05 -1.56881e-05 1.78363e-05
-1.50721e-06 2.11682e-05 1.66822e-05
2.12619e-05 -8.45208e-08 1.62259e-05
1.76223e-05 -1.64682e-06 1.55816e-05
1.73479e-05 -4.94173e-06 1.57708e-05
2.18918e-05 -7.45121e-06 1.69138e-05
-2.31825e-05 -1.42547e-05 1.78328e-05
1.73248e-05 1.64889e-06 1.55087e-05
-1.73401e-06 2.84734e-05 1.78943e-05
-4.22076e-07 3.68346e-06 7.49539e-06
2.37722e-05 1.57425e-05 1.78847e-05
-1.74976e-05 1.56424e-05 1.69751e-05
-1.06263e-05 -1.84663e-05 1.62552e-05
-1.00997e-05 -1.43425e-05 1.55718e-05
-7.50786e-06 -1.6095e-05 1.56222e-05
-7.32221e-06 -2.01207e-05 1.63954e-05
-1.07046e-05 1.85354e-05 1.6267e-05
-1.03475e-05 1.43843e-05 1.56195e-05
-7.77273e-06 2.04927e-05 1.64444e-05
-4.25304e-06 1.86099e-05 1.60531e-05
1.07598e-05 1.83457e-05 1.62263e-05
1.38918e-05 1.69351e-05 1.64312e-05
1.40421e-05 1.2973e-05 1.60515e-05
-7.36167e-06 1.62885e-05 1.56387e-05
1.05253e-05 1.45472e-05 1.56454e-05
7.74885e-06 1.60925e-05 1.56141e-05
-3.1165e-06 -1.89879e-06 7.39328e-06
-7.25774e-06 -1.24222e-05 1.46253e-05
3.00869e-06 4.03606e-08 6.60107e-06
4.87264e-06 1.35229e-05 1.46183e-05
1.40762e-05 -2.26042e-06 1.45706e-05
-1.729e-05 -1.52169e-05 1.69457e-05
-1.73667e-05 2.42034e-06 1.5598e-05
-1.22049e-05 8.91205e-06 1.49436e-05
-7.70573e-06 -2.29255e-06 1.15548e-05
-1.24499e-05 1.18128e-05 1.55402e-05
-1.42737e-07 -3.75427e-06 7.55428e-06
2.73026e-06 2.2721e-06 7.25203e-06
-2.00389e-06 -1.46507e-05 1.48082e-05
9.36522e-06 -1.00684e-05 1.43896e-05
1.38609e-05 3.15786e-06 1.45663e-05
-7.34014e-06 1.11995e-05 1.42605e-05
4.99729e-06 -1.2775e-05 1.43695e-05
1.1032e-05 1.04306e-05 1.49198e-05
-3.5965e-06 1.46855e-05 1.49082e-05
-4.63553e-06 -1.66171e-05 1.5549e-05
-1.95073e-05 1.28926e-05 1.71615e-05
-2.31272e-05 1.48584e-05 1.78436e-05
-1.29051e-05 -1.26863e-05 1.58127e-05
3.76085e-06 -1.58614e-06 7.90706e-06
1.76442e-06 2.92232e-06 7.08454e-06
-9.23061e-06 -1.06096e-05 1.4532e-05
1.72776e-06 -2.82319e-06 6.93117e-06
9.9474e-07 2.41172e-05 1.73087e-05
2.13683e-05 1.1194e-05 1.72989e-05
-1.46648e-05 -7.95351e-06 1.54856e-05
1.37083e-05 -4.78639e-06 1.46908e-05
-1.90991e-06 -2.17633e-05 1.68029e-05
1.80607e-05 -8.41919e-06 1.63409e-05
-1.66792e-05 -6.32866e-06 1.57826e-05
-4.32906e-07 -1.92235e-06 4.79855e-06
-1.80539e-06 2.99548e-06 7.17729e-06
-2.50523e-05 -1.2982e-05 1.79225e-05
-2.51275e-05 -1.45075e-05 1.80023e-05
-2.50455e-05 1.30339e-05 1.79062e-05
-2.51184e-05 1.46502e-05 1.79823e-05
-1.64848e-06 -3.12489e-06 7.21002e-06
6.32805e-06 1.13686e-05 1.40768e-05
5.33715e-07 -2.40865e-05 1.73024e-05
-5.22784e-07 1.80957e-06 4.64508e-06
7.40758e-06 -1.43439e-05 1.51526e-05
2.33032e-05 -1.32095e-05 1.7729e-05
2.3633e-05 -1.05377e-05 1.7491e-05
1.19886e-05 -1.82112e-05 1.62935e-05
1.47304e-05 -1.01468e-05 1.57958e-05
-1.00272e-05 1.00126e-06 1.27548e-05
-1.74003e-06 -8.15912e-07 4.72353e-06
7.69075e-07 3.7084e-06 7.57327e-06
2.3431e-06 -1.99719e-06 6.55539e-06
2.01568e-05 5.89793e-06 1.64538e-05
5.07016e-06 2.05963e-05 1.64962e-05
3.42118e-07 -2.76804e-05 1.78542e-05
-1.73125e-06 7.0912e-07 4.6064e-06
-3.21155e-06 6.23056e-07 6.82425e-06
3.57727e-06 1.47543e-06 7.63675e-06
4.99227e-07 2.83242e-05 1.79275e-05
2.47607e-05 1.37343e-05 1.79186e-05
-2.03287e-05 1.55361e-05 1.74293e-05
1.17872e-06 1.36449e-06 4.45992e-06
-2.06399e-05 -1.57286e-05 1.75278e-05
-1.89992e-05 -2.32222e-06 1.59464e-05
-1.95595e-05 -5.58508e-06 1.63325e-05
9.05695e-07 -3.2478e-06 7.00622e-06
-4.36609e-06 -1.97896e-05 1.63221e-05
-7.93742e-06 1.38346e-05 1.51013e-05
1.16576e-06 -1.3042e-06 4.33936e-06
1.19346e-05 -1.12285e-05 1.52924e-05
6.13315e-06 -2.26965e-05 1.68207e-05
-1.45224e-05 1.43556e-05 1.63239e-05
7.92921e-06 1.33215e-05 1.49482e-05
1.7937e-06 8.58755e-07 -4.55231e-06
1.73784e-06 -8.25122e-07 -4.46086e-06
4.31958e-07 1.84964e-06 -4.49518e-06
4.36102e-07 -1.78065e-06 -4.35614e-06
-1.8475e-06 2.09634e-08 -4.42242e-06
-1.1231e-06 -1.30889e-06 -4.15105e-06
-1.15922e-06 1.30681e-06 -4.19983e-06
-2.25133e-05 -7.28778e-06 -1.70001e-05
-2.21967e-05 7.37167e-06 -1.69688e-05
-4.86049e-06 2.28988e-05 -1.69372e-05
-4.85801e-06 -2.31319e-05 -1.69641e-05
1.74215e-05 1.56357e-05 -1.693e-05
1.7569e-05 -1.55366e-05 -1.69393e-05
2.10738e-05 3.16393e-06 -1.63245e-05
-1.39533e-05 1.71515e-05 -1.64785e-05
-1.35914e-05 -1.67415e-05 -1.64101e-05
7.76794e-06 1.98198e-05 -1.63314e-05
7.68496e-06 -2.03102e-05 -1.64026e-05
2.14726e-05 -3.44378e-06 -1.64003e-05
-2.1103e-05 6.5881e-09 -1.62468e-05
-2.24206e-05 1.09999e-05 -1.74538e-05
-1.87511e-05 9.25481e-06 -1.66272e-05
-1.7983e-05 5.79553e-06 -1.60364e-05
-1.49841e-05 7.44843e-06 -1.54865e-05
-1.42246e-05 4.30777e-06 -1.48298e-05
-1.15327e-05 5.74396e-06 -1.40948e-05
-1.08582e-05 3.06877e-06 -1.33736e-05
-8.40059e-06 4.30493e-06 -1.24044e-05
-9.05892e-06 7.01349e-06 -1.34564e-05
-6.20418e-06 5.48857e-06 -1.1689e-05
-6.82839e-06 8.24954e-06 -1.308e-05
-4.28145e-06 6.67499e-06 -1.14505e-05
-4.80007e-06 9.61004e-06 -1.3094e-05
-2.4009e-06 7.99344e-06 -1.1723e-05
-2.81289e-06 1.11674e-05 -1.3475e-05
-4.75416e-07 9.59541e-06 -1.2501e-05
-7.38364e-07 1.29971e-05 -1.41418e-05
1.7311e-06 1.15179e-05 -1.3535e-05
-5.53476e-06 1.27005e-05 -1.4437e-05
1.6851e-06 8.22408e-06 -1.17476e-05
4.00423e-06 1.0121e-05 -1.3151e-05
3.7054e-06 7.09804e-06 -1.14783e-05
6.06748e-06 8.96678e-06 -1.31134e-05
5.76689e-06 6.10686e-06 -1.17356e-05
8.35819e-06 8.02042e-06 -1.34921e-05
8.10575e-06 5.19533e-06 -1.25004e-05
1.09541e-05 7.09714e-06 -1.4147e-05
1.07461e-05 4.32285e-06 -1.34991e-05
8.53063e-06 1.10376e-05 -1.44608e-05
7.93779e-06 2.64378e-06 -1.17274e-05
1.06461e-05 1.73722e-06 -1.31041e-05
7.94878e-06 3.58765e-07 -1.14556e-05
1.08065e-05 -7.59122e-07 -1.31242e-05
8.11174e-06 -1.93783e-06 -1.17091e-05
1.10984e-05 -3.31289e-06 -1.3484e-05
8.46984e-06 -4.42404e-06 -1.24441e-05
1.15039e-05 -6.00296e-06 -1.41095e-05
8.95569e-06 -7.1382e-06 -1.34281e-05
6.1476e-06 -5.49448e-06 -1.16413e-05
6.64458e-06 -8.30097e-06 -1.30183e-05
4.10526e-06 -6.58859e-06 -1.1311e-05
4.52341e-06 -9.55099e-06 -1.29883e-05
2.24232e-06 -7.85839e-06 -1.15974e-05
2.48487e-06 -1.1002e-05 -1.3351e-05
2.25294e-07 -9.37381e-06 -1.23536e-05
3.30017e-07 -1.277e-05 -1.40339e-05
-1.91546e-06 -1.11508e-05 -1.33771e-05
-1.84109e-06 -7.92172e-06 -1.15822e-05
-4.16795e-06 -9.87498e-06 -1.30851e-05
-3.81399e-06 -6.73059e-06 -1.13172e-05
-6.34571e-06 -8.66214e-06 -1.30994e-05
-5.89138e-06 -5.69809e-06 -1.16285e-05
-8.49984e-06 -7.4359e-06 -1.33798e-05
-8.16765e-06 -4.72812e-06 -1.24087e-05
-1.10958e-05 -6.40286e-06 -1.407e-05
-4.37171e-06 -1.31234e-05 -1.44338e-05
-1.0809e-05 -3.65073e-06 -1.34393e-05
7.22622e-06 -1.13729e-05 -1.42731e-05
-7.7418e-06 1.98271e-06 -1.1493e-05
-1.32163e-05 1.03507e-06 -1.4211e-05
1.72915e-06 1.5083e-05 -1.49523e-05
1.37683e-05 4.62244e-07 -1.43879e-05
1.38434e-05 6.10019e-06 -1.49318e-05
-9.6942e-06 1.01964e-05 -1.45326e-05
-5.41608e-06 -3.1977e-06 -1.01822e-05
-1.17138e-05 -9.29747e-06 -1.48893e-05
1.18826e-05 -8.76034e-06 -1.47873e-05
1.4782e-05 -7.47371e-06 -1.54035e-05
-1.39599e-05 -5.24397e-06 -1.48618e-05
2.79586e-06 -1.45164e-05 -1.47963e-05
4.24568e-07 -1.64997e-05 -1.53979e-05
3.51848e-06 4.397e-06 -9.58123e-06
1.40108e-05 9.2992e-06 -1.54918e-05
1.79311e-05 8.14508e-06 -1.63007e-05
-1.56757e-05 1.13955e-05 -1.62337e-05
-1.0941e-06 1.67693e-05 -1.54955e-05
1.90689e-06 1.96219e-05 -1.63112e-05
-2.0919e-06 5.22015e-06 -9.59772e-06
5.55402e-06 -7.84615e-07 -9.59427e-06
3.586e-06 -3.68362e-06 -9.0821e-06
-1.77966e-06 -5.17865e-06 -9.44973e-06
-2.24691e-05 -1.1011e-05 -1.74745e-05
-1.87985e-05 -9.24156e-06 -1.66512e-05
2.11481e-05 1.4165e-05 -1.75058e-05
2.07541e-05 -1.43178e-05 -1.74357e-05
-1.76462e-06 -2.54469e-05 -1.75111e-05
-1.68215e-06 2.54109e-05 -1.75158e-05
1.77133e-05 -1.19071e-05 -1.66874e-05
2.0646e-05 -1.07512e-05 -1.71162e-05
3.7757e-06 -1.89854e-05 -1.61396e-05
7.6854e-07 -2.03461e-05 -1.64831e-05
-1.94054e-05 -1.26507e-05 -1.71433e-05
-1.37313e-05 -2.30696e-06 -1.4472e-05
-1.6593e-05 -3.70149e-06 -1.54777e-05
-1.0376e-05 -1.0964e-06 -1.29522e-05
2.44524e-05 1.1073e-05 -1.76518e-05
2.54979e-05 -1.24034e-05 -1.78483e-05
2.64927e-06 2.67264e-05 -1.76607e-05
2.52102e-06 -2.6414e-05 -1.76295e-05
3.3395e-06 -2.30322e-05 -1.70293e-05
-2.05392e-06 -1.83202e-05 -1.59511e-05
4.05911e-06 2.37917e-05 -1.71306e-05
2.26145e-05 8.37938e-06 -1.71194e-05
4.61367e-06 1.73136e-05 -1.57275e-05
1.44272e-05 -1.31196e-05 -1.61376e-05
-1.57879e-05 -1.09849e-05 -1.62147e-05
-1.68e-05 -3.81433e-07 -1.53775e-05
1.73062e-05 4.68755e-06 -1.57258e-05
6.55226e-08 -6.38739e-06 -1.02676e-05
1.74173e-06 -4.84852e-06 -9.0926e-06
5.85053e-06 -2.93555e-06 -1.03783e-05
-2.14445e-05 3.75056e-06 -1.6459e-05
5.72944e-06 -1.62747e-05 -1.55079e-05
9.08358e-06 -1.74993e-05 -1.59977e-05
1.75724e-05 1.18818e-05 -1.66725e-05
1.39944e-05 -1.63825e-05 -1.64014e-05
1.07401e-05 -1.37892e-05 -1.55503e-05
-3.54801e-06 -4.22024e-06 -9.50088e-06
5.39918e-06 1.13851e-06 -9.49917e-06
5.21811e-06 3.22291e-06 -1.00474e-05
-1.74979e-06 -2.83548e-05 -1.7877e-05
1.89208e-06 5.29895e-06 -9.58457e-06
-1.13825e-07 6.10508e-06 -1.00389e-05
-3.78496e-06 4.12779e-06 -9.57852e-06
-5.62274e-06 3.03422e-06 -1.02854e-05
-5.16553e-06 1.04068e-06 -9.21372e-06
-7.52733e-06 -6.17399e-08 -1.11725e-05
-4.33442e-06 -8.10286e-07 -8.38196e-06
-3.10862e-06 1.87235e-06 -7.37415e-06
-2.20814e-05 -3.6078e-06 -1.6516e-05
2.34065e-05 -1.56881e-05 -1.78363e-05
-1.50721e-06 2.11682e-05 -1.66822e-05
2.12619e-05 -8.45208e-08 -1.62259e-05
1.76223e-05 -1.64682e-06 -1.55816e-05
1.73479e-05 -4.94173e-06 -1.57708e-05
2.18918e-05 -7.45121e-06 -1.69138e-05
-2.31825e-05 -1.42547e-05 -1.78328e-05
1.73248e-05 1.64889e-06 -1.55087e-05
-1.73401e-06 2.84734e-05 -1.78943e-05
-4.22076e-07 3.68346e-06 -7.49539e-06
2.37722e-05 1.57425e-05 -1.78847e-05
-1.74976e-05 1.56424e-05 -1.69751e-05
-1.06263e-05 -1.84663e-05 -1.62552e-05
-1.00997e-05 -1.43425e-05 -1.55718e-05
-7.50786e-06 -1.6095e-05 -1.56222e-05
-7.32221e-06 -2.01207e-05 -1.63954e-05
-1.07046e-05 1.85354e-05 -1.6267e-05
-1.03475e-05 1.43843e-05 -1.56195e-05
-7.77273e-06 2.04927e-05 -1.64444e-05
-4.25304e-06 1.86099e-05 -1.60531e-05
1.07598e-05 1.83457e-05 -1.62263e-05
1.38918e-05 1.69351e-05 -1.64312e-05
1.40421e-05 1.2973e-05 -1.60515e-05
-7.36167e-06 1.62885e-05 -1.56387e-05
1.05253e-05 1.45472e-05 -1.56454e-05
7.74885e-06 1.60925e-05 -1.56141e-05
-3.1165e-06 -1.89879e-06 -7.39328e-06
-7.25774e-06 -1.24222e-05 -1.46253e-05
3.00869e-06 4.03606e-08 -6.60107e-06
4.87264e-06 1.35229e-05 -1.46183e-05
1.40762e-05 -2.26042e-06 -1.45706e-05
-1.729e-05 -1.52169e-05 -1.69457e-05
-1.73667e-05 2.42034e-06 -1.5598e-05
-1.22049e-05 8.91205e-06 -1.49436e-05
-7.70573e-06 -2.29255e-06 -1.15548e-05
-1.24499e-05 1.18128e-05 -1.55402e-05
-1.42737e-07 -3.75427e-06 -7.55428e-06
2.73026e-06 2.2721e-06 -7.25203e-06
-2.00389e-06 -1.46507e-05 -1.48082e-05
9.36522e-06 -1.00684e-05 -1.43896e-05
1.38609e-05 3.15786e-06 -1.45663e-05
-7.34014e-06 1.11995e-05 -1.42605e-05
4.99729e-06 -1.2775e-05 -1.43695e-05
1.1032e-05 1.04306e-05 -1.49198e-05
-3.5965e-06 1.46855e-05 -1.49082e-05
-4.63553e-06 -1.66171e-05 -1.5549e-05
-1.95073e-05 1.28926e-05 -1.71615e-05
-2.31272e-05 1.48584e-05 -1.78436e-05
-1.29051e-05 -1.26863e-05 -1.58127e-05
3.76085e-06 -1.58614e-06 -7.90706e-06
1.76442e-06 2.92232e-06 -7.08454e-06
-9.23061e-06 -1.06096e-05 -1.4532e-05
1.72776e-06 -2.82319e-06 -6.93117e-06
9.9474e-07 2.41172e-05 -1.73087e-05
2.13683e-05 1.1194e-05 -1.72989e-05
-1.46648e-05 -7.95351e-06 -1.54856e-05
1.37083e-05 -4.78639e-06 -1.46908e-05
-1.90991e-06 -2.17633e-05 -1.68029e-05
1.80607e-05 -8.41919e-06 -1.63409e-05
-1.66792e-05 -6.32866e-06 -1.57826e-05
-4.32906e-07 -1.92235e-06 -4.79855e-06
-1.80539e-06 2.99548e-06 -7.17729e-06
-2.50523e-05 -1.2982e-05 -1.79225e-05
-2.51275e-05 -1.45075e-05 -1.80023e-05
-2.50455e-05 1.30339e-05 -1.79062e-05
-2.51184e-05 1.46502e-05 -1.79823e-05
-1.64848e-06 -3.12489e-06 -7.21002e-06
6.32805e-06 1.13686e-05 -1.40768e-05
5.33715e-07 -2.40865e-05 -1.73024e-05
-5.22784e-07 1.80957e-06 -4.64508e-06
7.40758e-06 -1.43439e-05 -1.51526e-05
2.33032e-05 -1.32095e-05 -1.7729e-05
2.3633e-05 -1.05377e-05 -1.7491e-05
1.19886e-05 -1.82112e-05 -1.62935e-05
1.47304e-05 -1.01468e-05 -1.57958e-05
-1.00272e-05 1.00126e-06 -1.27548e-05
-1.74003e-06 -8.15912e-07 -4.72353e-06
7.69075e-07 3.7084e-06 -7.57327e-06
2.3431e-06 -1.99719e-06 -6.55539e-06
2.01568e-05 5.89793e-06 -1.64538e-05
5.07016e-06 2.05963e-05 -1.64962e-05
3.42118e-07 -2.76804e-05 -1.78542e-05
-1.73125e-06 7.0912e-07 -4.6064e-06
-3.21155e-06 6.23056e-07 -6.82425e-06
3.57727e-06 1.47543e-06 -7.63675e-06
4.99227e-07 2.83242e-05 -1.79275e-05
2.47607e-05 1.37343e-05 -1.79186e-05
-2.03287e-05 1.55361e-05 -1.74293e-05
1.17872e-06 1.36449e-06 -4.45992e-06
-2.06399e-05 -1.57286e-05 -1.75278e-05
-1.89992e-05 -2.32222e-06 -1.59464e-05
-1.95595e-05 -5.58508e-06 -1.63325e-05
9.05695e-07 -3.2478e-06 -7.00622e-06
-4.36609e-06 -1.97896e-05 -1.63221e-05
-7.93742e-06 1.38346e-05 -1.51013e-05
1.16576e-06 -1.3042e-06 -4.33936e-06
1.19346e-05 -1.12285e-05 -1.52924e-05
6.13315e-06 -2.26965e-05 -1.68207e-05
-1.45224e-05 1.43556e-05 -1.63239e-05
7.92921e-06 1.33215e-05 -1.49482e-05
SCALARS effective_fluid_pressure_TPM float
LOOKUP_TABLE default
665
665
665
665
665
665
665
665
665
665
665
665
665
665
133
665
665
665
665
665
665
665
665
665
665
665
665
665
665
133
665
560.323
520.669
502.81
502.581
519.795
559.943
665
561.989
520.764
503.253
503.362
520.696
561.611
665
559.61
519.666
502.755
502.973
521.164
561.627
665
558.866
519.011
501.544
502.239
518.86
559.455
665
558.506
519.95
501.876
501.807
519.383
557.946
665
558.663
519.964
502.049
501.91
519.371
559.669
133
133
133
133
133
133
665
560.323
520.669
502.81
502.581
519.795
559.943
665
561.989
520.764
503.253
503.362
520.696
561.611
665
559.61
519.666
502.755
502.973
521.164
561.627
665
558.866
519.011
501.544
502.239
518.86
559.455
665
558.506
519.95
501.876
501.807
519.383
557.946
665
558.663
519.964
502.049
501.91
519.371
559.669
133
133
133
133
133
133
228.258
226.329
227.042
224.11
225.526
219.848
220.864
529.169
528.178
526.557
527.936
526.585
527.638
498.706
503.552
501.591
498.947
501.463
501.245
494.327
562.505
518.983
495.03
480.736
461.357
443.276
425.044
402.118
427.269
385.264
417.737
379.61
417.9
385.948
427.385
404.296
444.38
429.075
450.257
386.558
419.3
380.205
418.311
386.188
427.759
404.224
444.49
428.158
450.853
386.032
418.163
379.621
418.519
385.556
427.595
402.917
443.553
426.45
384.049
416.136
376.305
415.343
383.021
424.416
400.843
441.702
425.224
382.758
417.776
376.57
418.094
383.843
425.264
402.21
442.675
450.647
426.724
446.005
380.73
444.671
465.286
448.738
464.759
453.408
350.905
463.501
461.033
478.44
462.769
460.639
478.344
337.279
480.816
505.848
503.607
480.882
506.155
337.692
337.504
326.167
334.418
563.381
519.658
567.581
562.367
567.899
567.752
521.806
542.718
498.62
513.732
542.062
451.45
477.567
414.654
579.522
611.03
579.675
576.035
534.552
494.47
538.226
537.923
485.027
498.106
503.324
473.129
485.075
352.75
326.417
355.179
503.434
477.706
488.349
520.876
502.017
477.903
335.543
335.406
347.702
613.447
337.38
347.573
337.267
353.206
329.191
373.257
310.662
288.79
504.7
608.383
521.097
493.711
478.316
486.344
526.491
600.342
476.553
615.901
291.398
615.799
528.719
494.522
478.223
479.397
501.304
494.829
479.424
502.499
495.163
493.733
502.251
495.237
479.871
480.037
479.039
289.296
454.579
271.944
454.987
453.615
527
479.46
465.21
382.1
480.496
292.671
286.083
461.466
449.62
453.964
445.842
448.676
463.591
463.248
479.94
543.458
601.703
487.48
300.303
282.463
453
279.164
552.24
551.999
480.762
458.004
526.222
508.174
488.577
233.73
284.56
614.508
636.322
615.142
636.679
285.281
441.327
553.08
230.486
467.538
590.265
566.033
495.802
490.036
410.032
232.12
293.098
271.127
507.883
509.18
607.816
229.664
276.977
294.432
618.879
618.792
558.514
226.523
562.527
488.3
503.382
280.848
504.053
466.365
224.008
473.572
519.568
502.968
462.431
228.258
226.329
227.042
224.11
225.526
219.848
220.864
529.169
528.178
526.557
527.936
526.585
527.638
498.706
503.552
501.591
498.947
501.463
501.245
494.327
562.505
518.983
495.03
480.736
461.357
443.276
425.044
402.118
427.269
385.264
417.737
379.61
417.9
385.948
427.385
404.296
444.38
429.075
450.257
386.558
419.3
380.205
418.311
386.188
427.759
404.224
444.49
428.158
450.853
386.032
418.163
379.621
418.519
385.556
427.595
402.917
443.553
426.45
384.049
416.136
376.305
415.343
383.021
424.416
400.843
441.702
425.224
382.758
417.776
376.57
418.094
383.843
425.264
402.21
442.675
450.647
426.724
446.005
380.73
444.671
465.286
448.738
464.759
453.408
350.905
463.501
461.033
478.44
462.769
460.639
478.344
337.279
480.816
505.848
503.607
480.882
506.155
337.692
337.504
326.167
334.418
563.381
519.658
567.581
562.367
567.899
567.752
521.806
542.718
498.62
513.732
542.062
451.45
477.567
414.654
579.522
611.03
579.675
576.035
534.552
494.47
538.226
537.923
485.027
498.106
503.324
473.129
485.075
352.75
326.417
355.179
503.434
477.706
488.349
520.876
502.017
477.903
335.543
335.406
347.702
613.447
337.38
347.573
337.267
353.206
329.191
373.257
310.662
288.79
504.7
608.383
521.097
493.711
478.316
486.344
526.491
600.342
476.553
615.901
291.398
615.799
528.719
494.522
478.223
479.397
501.304
494.829
479.424
502.499
495.163
493.733
502.251
495.237
479.871
480.037
479.039
289.296
454.579
271.944
454.987
453.615
527
479.46
465.21
382.1
480.496
292.671
286.083
461.466
449.62
453.964
445.842
448.676
463.591
463.248
479.94
543.458
601.703
487.48
300.303
282.463
453
279.164
552.24
551.999
480.762
458.004
526.222
508.174
488.577
233.73
284.56
614.508
636.322
615.142
636.679
285.281
441.327
553.08
230.486
467.538
590.265
566.033
495.802
490.036
410.032
232.12
293.098
271.127
507.883
509.18
607.816
229.664
276.977
294.432
618.879
618.792
558.514
226.523
562.527
488.3
503.382
280.848
504.053
466.365
224.008
473.572
519.568
502.968
462.431

CELL_DATA 563
TENSORS stress float
164.613 -24.9206 -4.29168e-12
-24.9206 28.1493 1.77636e-14
-4.29168e-12 1.77636e-14 -12.6035

-40.3388 -21.3204 -2.84935e-12
-21.3204 -7.35474 -7.39557e-13
-2.84935e-12 -7.39557e-13 -10.2322

-9.94049 28.0438 5.28585e-12
28.0438 -1.11062 -1.08121e-12
5.28585e-12 -1.08121e-12 -6.36079

-40.4269 -29.8426 7.03881e-13
-29.8426 -12.8459 -3.41297e-12
7.03881e-13 -3.41297e-12 -10.5985

-22.6921 19.9309 -3.07665e-12
19.9309 -1.92343 2.88488e-12
-3.07665e-12 2.88488e-12 -23.0212

-27.1402 -18.0748 -1.82698e-12
-18.0748 15.8879 2.52835e-13
-1.82698e-12 2.52835e-13 -6.41157

161.265 26.4848 -4.38642e-12
26.4848 28.0259 3.12284e-12
-4.38642e-12 3.12284e-12 -13.2625

-5.96176 29.9582 -1.65083e-12
29.9582 -10.1123 -1.32605e-12
-1.65083e-12 -1.32605e-12 -7.27673

34.6315 5.48323 -2.51532e-12
5.48323 -19.0956 9.98942e-13
-2.51532e-12 9.98942e-13 -4.12261

11.8602 -7.47759 1.58007e-12
-7.47759 -48.2874 -1.81936e-12
1.58007e-12 -1.81936e-12 -8.94744

104.196 16.3089 -1.79294e-12
16.3089 -8.44358 7.62649e-13
-1.79294e-12 7.62649e-13 -22.4542

-34.638 -13.4534 -1.23531e-12
-13.4534 18.9657 -3.45205e-13
-1.23531e-12 -3.45205e-13 -7.181

-6.02636 27.8335 -2.61124e-13
27.8335 -4.59164 2.87711e-12
-2.61124e-13 2.87711e-12 -6.15963

-35.5522 -14.3403 -1.32638e-12
-14.3403 7.845 -4.37635e-12
-1.32638e-12 -4.37635e-12 -9.13175

-23.6537 33.3108 7.98472e-13
33.3108 -24.9938 4.70995e-12
7.98472e-13 4.70995e-12 -21.3649

21.3109 0.560999 1.61648e-13
0.560999 -32.3391 4.48047e-12
1.61648e-13 4.48047e-12 -5.59014

-48.9597 -17.9691 -3.00727e-12
-17.9691 6.34279 -3.24659e-12
-3.00727e-12 -3.24659e-12 -12.9464

11.6601 -2.6652 1.01193e-12
-2.6652 -43.2495 8.13349e-13
1.01193e-12 8.13349e-13 -8.03405

-11.3505 26.6744 3.7037e-12
26.6744 19.5173 -3.21817e-12
3.7037e-12 -3.21817e-12 -6.08996

21.7656 -4.19568 -2.18906e-12
-4.19568 -35.2954 3.33067e-15
-2.18906e-12 3.33067e-15 -6.7418

-24.4799 8.66884 3.10862e-14
8.66884 32.1277 -1.65675e-12
3.10862e-14 -1.65675e-12 -4.93474

-11.8087 6.28726 -1.507e-12
6.28726 -11.973 2.99893e-12
-1.507e-12 2.99893e-12 -75.617

22.7433 1.87601 1.99544e-13
1.87601 -33.4698 -2.05524e-12
1.99544e-13 -2.05524e-12 -6.67777

-12.3885 -27.7157 1.91639e-12
-27.7157 1.59942 3.23238e-12
1.91639e-12 3.23238e-12 -6.60324

21.3044 6.8495 2.79006e-12
6.8495 -34.3049 -4.46458e-13
2.79006e-12 -4.46458e-13 -6.80702

-37.9058 19.1131 4.31507e-13
19.1131 2.6539 -2.42562e-12
4.31507e-13 -2.42562e-12 -9.4581

106.605 4.18148 8.95284e-13
4.18148 20.6028 1.33789e-12
8.95284e-13 1.33789e-12 -12.0491

-5.30216 30.7463 2.31992e-12
30.7463 -7.27271 -3.20603e-12
2.31992e-12 -3.20603e-12 -7.44205

27.89 37.0753 7.10543e-14
37.0753 26.4692 1.71714e-12
7.10543e-14 1.71714e-12 -8.63254

-9.43912 10.3235 -5.61329e-13
10.3235 -32.929 3.30465e-12
-5.61329e-13 3.30465e-12 -49.5069

19.8308 14.217 2.33887e-13
14.217 -29.3597 -5.17601e-12
2.33887e-13 -5.17601e-12 -6.00136

-4.21094 -17.7808 -2.43923e-12
-17.7808 59.6584 2.43124e-12
-2.43923e-12 2.43124e-12 -8.47645

66.2842 -42.1025 1.01844e-12
-42.1025 71.1395 -8.73968e-13
1.01844e-12 -8.73968e-13 -11.2518

-48.2095 5.98643 -2.64055e-12
5.98643 7.26946 -3.9592e-12
-2.64055e-12 -3.9592e-12 -41.0363

-26.291 -4.84018 -3.48921e-12
-4.84018 1.75669 6.24982e-13
-3.48921e-12 6.24982e-13 -37.8013

-1.46704 21.0277 1.73817e-12
21.0277 -39.5058 2.30926e-13
1.73817e-12 2.30926e-13 -41.1021

-43.9747 5.067 5.47769e-12
5.067 0.514177 -4.80416e-12
5.47769e-12 -4.80416e-12 -52.1891

-2.76037 -9.17018 3.92516e-12
-9.17018 -20.7694 -1.68531e-12
3.92516e-12 -1.68531e-12 -35.8957

-3.97459 -27.9985 -2.12985e-12
-27.9985 -4.61067 1.54958e-12
-2.12985e-12 1.54958e-12 -5.99497

65.598 41.5218 -3.66166e-12
41.5218 73.1672 -8.31098e-12
-3.66166e-12 -8.31098e-12 -10.9635

60.1559 -17.9495 -6.43396e-12
-17.9495 0.116381 2.37144e-12
-6.43396e-12 2.37144e-12 -8.05039

-41.8026 -3.70563 4.00568e-13
-3.70563 -1.18566 4.40892e-12
4.00568e-13 4.40892e-12 -52.7239

-14.5933 19.5548 3.64087e-12
19.5548 -28.5511 2.71871e-12
3.64087e-12 2.71871e-12 -52.8321

18.1411 -12.2734 -2.20801e-12
-12.2734 -29.8996 -4.64577e-12
-2.20801e-12 -4.64577e-12 -6.22355

38.1735 -43.3 -1.99663e-12
-43.3 41.8016 -1.71241e-12
-1.99663e-12 -1.71241e-12 -14.5592

58.1445 -18.0638 -6.09409e-12
-18.0638 -2.3034 -2.54611e-12
-6.09409e-12 -2.54611e-12 -7.91402

-21.4427 17.086 -1.89478e-12
17.086 30.3273 3.62969e-12
-1.89478e-12 3.62969e-12 -5.72886

-11.3732 19.3394 -3.44702e-12
19.3394 25.5106 -1.0066e-13
-3.44702e-12 -1.0066e-13 -3.92224

20.7911 -16.3013 2.48453e-12
-16.3013 -33.1151 1.74083e-12
2.48453e-12 1.74083e-12 -7.31219

12.615 -34.1861 -3.69305e-12
-34.1861 46.4359 4.07141e-12
-3.69305e-12 4.07141e-12 -10.3976

62.3608 19.1822 -3.78956e-14
19.1822 2.80976 -4.7784e-13
-3.78956e-14 -4.7784e-13 -8.41428

46.5139 -25.2889 -6.77384e-13
-25.2889 5.13354 -8.71185e-12
-6.77384e-13 -8.71185e-12 -5.61044

-31.8959 19.4853 -2.4829e-12
19.4853 -4.28533 -3.43311e-12
-2.4829e-12 -3.43311e-12 -26.0851

37.0392 29.65 1.54425e-12
29.65 14.5124 4.673e-12
1.54425e-12 4.673e-12 -5.43286

-27.4495 -21.8127 -1.97176e-12
-21.8127 -8.22893 -4.84284e-12
-1.97176e-12 -4.84284e-12 -25.2475

64.8693 -42.712 9.166e-13
-42.712 44.0805 -3.41061e-13
9.166e-13 -3.41061e-13 -9.50214

-27.7493 5.45917 2.46085e-12
5.45917 2.66924 3.16843e-12
2.46085e-12 3.16843e-12 -38.3068

-5.55849 -5.32992 -3.28567e-12
-5.32992 57.3886 -3.9447e-12
-3.28567e-12 -3.9447e-12 -5.4499

-0.200602 10.3843 3.78986e-12
10.3843 -24.8474 3.48405e-12
3.78986e-12 3.48405e-12 -38.3684

-26.4858 21.4134 1.06818e-12
21.4134 12.2194 3.26198e-12
1.06818e-12 3.26198e-12 -6.87021

4.72621 5.75409 -1.8859e-12
5.75409 -56.0401 4.79024e-13
-1.8859e-12 4.79024e-13 -13.9811

0.539968 11.4589 -1.06034e-12
11.4589 -34.0568 8.62125e-13
-1.06034e-12 8.62125e-13 -14.8398

106.345 31.8203 -1.99663e-12
31.8203 37.8332 1.80241e-12
-1.99663e-12 1.80241e-12 -7.48948

-35.4921 -6.03538 -9.29479e-13
-6.03538 10.6012 -1.47497e-12
-9.29479e-13 -1.47497e-12 -13.479

-35.3601 9.51991 2.95541e-12
9.51991 1.2337 -8.18012e-13
2.95541e-12 -8.18012e-13 -14.9601

-42.5881 -2.88097 -1.88608e-12
-2.88097 21.1108 -1.0747e-12
-1.88608e-12 -1.0747e-12 -11.2391

-44.9081 23.4019 -3.94869e-14
23.4019 -5.89262 -1.76451e-13
-3.94869e-14 -1.76451e-13 -13.922

9.97102 8.46366 -1.94245e-12
8.46366 -42.3785 -2.55751e-12
-1.94245e-12 -2.55751e-12 -9.07833

-12.3349 -28.2398 -2.84484e-12
-28.2398 1.68703 -2.02623e-12
-2.84484e-12 -2.02623e-12 -6.67442

1.30885 -1.7113 1.94674e-12
-1.7113 -55.4565 -2.26752e-12
1.94674e-12 -2.26752e-12 -11.3044

-31.8855 -19.2613 -5.75836e-14
-19.2613 -4.59467 -8.34296e-13
-5.75836e-14 -8.34296e-13 -25.9544

-27.9749 21.3078 -2.91323e-12
21.3078 -8.35873 2.08762e-12
-2.91323e-12 2.08762e-12 -26.0128

-0.652369 -16.5838 5.32152e-12
-16.5838 61.6743 4.48945e-12
5.32152e-12 4.48945e-12 -7.94923

-0.650184 -27.9363 -2.33295e-12
-27.9363 -21.3614 2.39423e-12
-2.33295e-12 2.39423e-12 -12.7911

-14.0935 -25.135 -2.76253e-12
-25.135 7.40671 -1.04213e-13
-2.76253e-12 -1.04213e-13 -5.23645

91.6793 -31.7111 -1.68872e-12
-31.7111 19.4851 2.00876e-12
-1.68872e-12 2.00876e-12 -16.333

-33.7064 3.22273 4.61209e-12
3.22273 9.19957 5.18104e-13
4.61209e-12 5.18104e-13 -18.5633

2.75186 28.9441 2.82559e-12
28.9441 -24.4249 4.94419e-13
2.82559e-12 4.94419e-13 -11.3167

-38.434 19.6643 -1.29422e-12
19.6643 5.22964 -3.02958e-12
-1.29422e-12 -3.02958e-12 -9.23558

50.191 7.99969 2.6823e-12
7.99969 -16.9647 -1.82432e-12
2.6823e-12 -1.82432e-12 -7.06734

60.0321 -33.9362 -2.58282e-12
-33.9362 33.787 -2.23584e-12
-2.58282e-12 -2.23584e-12 -6.98386

-18.9606 -10.5873 7.93499e-12
-10.5873 -0.541456 3.94085e-12
7.93499e-12 3.94085e-12 -25.4307

-33.926 23.8997 2.48098e-13
23.8997 -12.0235 4.68848e-12
2.48098e-13 4.68848e-12 -14.5404

58.1569 -32.3844 -2.49282e-12
-32.3844 18.0912 -7.91071e-12
-2.49282e-12 -7.91071e-12 -10.1339

66.8604 10.7913 1.66978e-12
10.7913 8.51279 -2.65343e-12
1.66978e-12 -2.65343e-12 -5.08466

7.67385 -21.2064 -8.82849e-13
-21.2064 88.4658 -1.13924e-11
-8.82849e-13 -1.13924e-11 -11.8623

-33.9865 14.4258 2.22785e-13
14.4258 20.2383 2.57453e-12
2.22785e-13 2.57453e-12 -7.54689

8.47529 23.1434 9.28443e-13
23.1434 -26.0742 -3.75936e-12
9.28443e-13 -3.75936e-12 -11.2993

34.869 42.1994 8.75152e-13
42.1994 46.1998 -5.33381e-12
8.75152e-13 -5.33381e-12 -14.4206

-4.39441 16.5066 7.0716e-12
16.5066 -35.5406 4.61453e-12
7.0716e-12 4.61453e-12 -73.2839

-5.98061 -4.10844 -7.71827e-13
-4.10844 57.949 -2.88125e-12
-7.71827e-13 -2.88125e-12 -5.44209

-1.81893 -16.6318 -2.48126e-11
-16.6318 -39.4006 -6.15478e-12
-2.48126e-11 -6.15478e-12 -74.1072

-3.3297 -27.3349 3.92397e-12
-27.3349 -30.0296 -5.90935e-13
3.92397e-12 -5.90935e-13 -21.5539

8.96696 27.4247 -2.04044e-12
27.4247 -29.9953 3.74693e-12
-2.04044e-12 3.74693e-12 -11.2574

45.7116 -24.411 -3.89022e-12
-24.411 5.02384 -1.63129e-12
-3.89022e-12 -1.63129e-12 -5.23652

10.095 31.3239 4.38168e-14
31.3239 47.1637 -2.23939e-12
4.38168e-14 -2.23939e-12 -9.64069

14.2722 -10.7053 1.06167e-12
-10.7053 82.8399 -3.90088e-12
1.06167e-12 -3.90088e-12 -6.44715

-38.6332 21.9708 -1.26935e-12
21.9708 2.94146 -1.65616e-12
-1.26935e-12 -1.65616e-12 -8.56946

1.19281 16.7943 -1.9007e-13
16.7943 -25.7225 -3.569e-12
-1.9007e-13 -3.569e-12 -18.5675

-26.5384 15.1542 -6.49703e-13
15.1542 18.4494 5.42263e-12
-6.49703e-13 5.42263e-12 -5.70848

43.6592 15.9541 3.07547e-12
15.9541 -7.28574 7.81153e-13
3.07547e-12 7.81153e-13 -4.07561

12.5767 -21.4729 -6.17876e-12
-21.4729 57.9562 4.85538e-14
-6.17876e-12 4.85538e-14 -4.71433

65.9972 -29.3912 -1.93268e-12
-29.3912 18.6435 4.30293e-12
-1.93268e-12 4.30293e-12 -9.33542

-32.3814 -24.5732 2.63907e-12
-24.5732 -7.28186 -1.03443e-12
2.63907e-12 -1.03443e-12 -8.97679

-22.6673 27.4513 -7.59393e-13
27.4513 -10.3505 -1.12947e-12
-7.59393e-13 -1.12947e-12 -9.28437

-38.3513 23.1877 1.34885e-12
23.1877 1.99098 -4.1395e-12
1.34885e-12 -4.1395e-12 -8.52537

-51.5535 13.169 8.64734e-13
13.169 11.9267 1.59635e-12
8.64734e-13 1.59635e-12 -16.4664

23.4848 9.37235 1.58629e-12
9.37235 -29.4884 1.35492e-12
1.58629e-12 1.35492e-12 -5.322

3.76822 -4.66513 5.32315e-12
-4.66513 79.4391 8.34177e-12
5.32315e-12 8.34177e-12 -9.53156

-44.9396 -36.8329 1.30355e-12
-36.8329 -19.8287 -2.46373e-12
1.30355e-12 -2.46373e-12 -14.7709

-16.0801 27.4657 3.80614e-12
27.4657 1.34074 1.95636e-12
3.80614e-12 1.95636e-12 -6.91522

-5.0158 2.17034 -3.33629e-12
2.17034 82.6747 -4.62563e-12
-3.33629e-12 -4.62563e-12 -13.4313

69.0463 34.611 -5.36933e-12
34.611 15.4965 -1.8184e-12
-5.36933e-12 -1.8184e-12 -10.706

-31.3522 -22.9741 -1.12118e-12
-22.9741 -4.63262 1.08062e-12
-1.12118e-12 1.08062e-12 -8.53034

11.743 5.73296 -1.38053e-12
5.73296 -48.3362 6.36528e-15
-1.38053e-12 6.36528e-15 -8.64176

43.066 27.2046 4.93946e-12
27.2046 10.4517 -6.9574e-13
4.93946e-12 -6.9574e-13 -5.08123

-9.41424 12.7453 1.36469e-12
12.7453 -14.0394 -5.04071e-12
1.36469e-12 -5.04071e-12 -37.0393

70.3354 24.331 1.1724e-12
24.331 23.8049 -3.41534e-12
1.1724e-12 -3.41534e-12 -6.79964

-10.5854 -13.0548 -1.30695e-12
-13.0548 -13.9213 5.18134e-12
-1.30695e-12 5.18134e-12 -37.3771

-4.38021 0.778561 2.34598e-12
0.778561 59.3987 -2.26663e-12
2.34598e-12 -2.26663e-12 -4.83108

38.3572 -2.23536 -1.55609e-12
-2.23536 -23.8117 -2.60188e-12
-1.55609e-12 -2.60188e-12 -5.83289

3.59357 -15.7676 1.08358e-13
-15.7676 -53.9706 9.19561e-13
1.08358e-13 9.19561e-13 -21.124

-42.2773 24.3882 1.21592e-12
24.3882 -11.737 -9.23113e-13
1.21592e-12 -9.23113e-13 -11.168

-46.8124 -13.5351 -9.27043e-13
-13.5351 11.0672 1.04746e-12
-9.27043e-13 1.04746e-12 -12.3541

5.81003 -7.99985 -1.61278e-12
-7.99985 -70.967 2.83433e-12
-1.61278e-12 2.83433e-12 -14.8821

-49.5389 -22.2836 -2.01913e-13
-22.2836 3.74818 -1.53951e-14
-2.01913e-13 -1.53951e-14 -22.104

-17.459 -6.59696 1.1798e-12
-6.59696 -13.1157 -2.54082e-12
1.1798e-12 -2.54082e-12 -34.7804

-28.7299 -29.9082 1.71537e-12
-29.9082 -9.39992 -2.54611e-13
1.71537e-12 -2.54611e-13 -8.99648

15.6932 11.4538 -3.4032e-12
11.4538 80.1813 -3.19981e-12
-3.4032e-12 -3.19981e-12 -6.53081

42.2903 -28.147 1.76688e-12
-28.147 11.0505 -7.66439e-12
1.76688e-12 -7.66439e-12 -5.04448

-47.1704 -13.7718 -4.076e-13
-13.7718 4.19618 5.63283e-12
-4.076e-13 5.63283e-12 -29.3

2.96477 0.504559 -5.82645e-13
0.504559 -56.8121 -8.16384e-14
-5.82645e-13 -8.16384e-14 -11.0057

-39.3368 -21.5244 2.17619e-12
-21.5244 -8.85715 -2.42443e-12
2.17619e-12 -2.42443e-12 -14.7744

-40.195 25.6978 3.71407e-13
25.6978 -14.6916 9.68559e-13
3.71407e-13 9.68559e-13 -11.3113

32.2605 -31.465 -5.34328e-12
-31.465 38.4296 5.90461e-12
-5.34328e-12 5.90461e-12 -4.6485

-31.4686 -7.08449 8.03646e-12
-7.08449 1.70062 5.33795e-13
8.03646e-12 5.33795e-13 -40.9912

36.6302 -33.0773 1.7278e-12
-33.0773 72.0281 -5.13012e-12
1.7278e-12 -5.13012e-12 -7.14478

16.6127 -19.1799 3.19034e-12
-19.1799 -25.8705 -1.76274e-12
3.19034e-12 -1.76274e-12 -7.13376

1.50252 1.97054 -6.72055e-14
1.97054 -51.3915 1.35773e-12
-6.72055e-14 1.35773e-12 -15.3744

-12.8753 17.8749 1.68369e-12
17.8749 -16.9552 1.84415e-12
1.68369e-12 1.84415e-12 -41.0588

10.7127 20.1832 -7.94328e-12
20.1832 59.4547 -6.86858e-14
-7.94328e-12 -6.86858e-14 -4.35698

4.31809 27.2108 -3.17198e-12
27.2108 -16.2239 7.98472e-13
-3.17198e-12 7.98472e-13 -8.12464

30.9046 -24.5119 -2.32111e-12
-24.5119 -8.13297 -4.12381e-12
-2.32111e-12 -4.12381e-12 -4.87272

-37.7879 -17.8387 -1.47678e-13
-17.8387 2.40083 4.21589e-13
-1.47678e-13 4.21589e-13 -9.8649

55.5142 35.0687 -5.53039e-12
35.0687 42.3457 -2.66098e-12
-5.53039e-12 -2.66098e-12 -6.63641

-40.0153 -21.8311 -9.82917e-13
-21.8311 2.53682 5.41197e-13
-9.82917e-13 5.41197e-13 -9.39442

2.96637 30.8507 -3.76528e-12
30.8507 -17.3888 -3.25606e-12
-3.76528e-12 -3.25606e-12 -9.07869

18.5373 -25.2443 -4.26859e-12
-25.2443 -19.4185 -6.08402e-12
-4.26859e-12 -6.08402e-12 -6.34299

-15.6541 -25.1267 -5.21982e-12
-25.1267 5.89553 -4.25615e-12
-5.21982e-12 -4.25615e-12 -5.77609

42.7186 -18.6884 6.14619e-13
-18.6884 -9.16652 -7.78636e-12
6.14619e-13 -7.78636e-12 -5.36961

27.432 -18.8499 -5.34743e-12
-18.8499 -20.3691 -6.21133e-13
-5.34743e-12 -6.21133e-13 -5.69031

-41.3939 -25.3371 2.6595e-12
-25.3371 -14.9641 -5.01858e-13
2.6595e-12 -5.01858e-13 -11.5675

29.781 35.9699 -1.11318e-13
35.9699 25.227 1.79175e-12
-1.11318e-13 1.79175e-12 -8.64466

-28.5186 15.377 -1.26195e-12
15.377 18.5188 1.97116e-12
-1.26195e-12 1.97116e-12 -5.87448

-23.1083 26.4224 5.35868e-14
26.4224 -12.547 1.48918e-12
5.35868e-14 1.48918e-12 -9.95853

-42.0968 25.4736 3.29682e-12
25.4736 -11.5925 1.74631e-12
3.29682e-12 1.74631e-12 -10.9932

-37.2888 11.6217 -2.31748e-12
11.6217 11.8441 -2.63375e-12
-2.31748e-12 -2.63375e-12 -9.08087

64.3937 -8.22711 -3.35495e-12
-8.22711 3.19715 1.00601e-12
-3.35495e-12 1.00601e-12 -4.25113

8.73348 18.6067 3.25369e-12
18.6067 59.2205 5.68434e-13
3.25369e-12 5.68434e-13 -4.1626

-25.6151 -24.3807 -4.88528e-12
-24.3807 0.458334 4.54422e-12
-4.88528e-12 4.54422e-12 -7.21611

-1.14202 25.6662 -1.90722e-12
25.6662 13.7523 -7.92255e-13
-1.90722e-12 -7.92255e-13 -4.0832

32.3787 -35.6298 2.17781e-12
-35.6298 21.7 -4.41365e-12
2.17781e-12 -4.41365e-12 -8.48638

59.5368 38.3171 -3.60008e-12
38.3171 17.8477 8.86994e-13
-3.60008e-12 8.86994e-13 -13.7224

12.1248 -33.3115 1.46549e-12
-33.3115 42.9137 -3.58232e-12
1.46549e-12 -3.58232e-12 -9.54298

30.5513 -31.16 4.44089e-12
-31.16 36.8137 -3.05533e-12
4.44089e-12 -3.05533e-12 -4.4057

11.7689 -6.83864 3.56367e-12
-6.83864 -48.8382 9.35622e-13
3.56367e-12 9.35622e-13 -8.77059

25.2744 30.3421 5.33736e-12
30.3421 41.0892 9.9476e-13
5.33736e-12 9.9476e-13 -4.45621

62.6827 13.2948 1.25529e-12
13.2948 5.22771 1.70234e-13
1.25529e-12 1.70234e-13 -4.30571

-7.02643 13.379 1.68991e-12
13.379 61.3447 3.51363e-12
1.68991e-12 3.51363e-12 -8.69524

11.7293 -22.3407 2.79717e-12
-22.3407 55.7636 -1.91491e-12
2.79717e-12 -1.91491e-12 -4.30167

-47.2604 -1.09173 -2.11527e-12
-1.09173 12.4094 -1.98952e-13
-2.11527e-12 -1.98952e-13 -22.1617

-5.91971 2.24665 9.87802e-13
2.24665 59.0049 -7.17174e-12
9.87802e-13 -7.17174e-12 -5.2628

6.26829 31.0897 3.64508e-12
31.0897 47.8655 4.38168e-14
3.64508e-12 4.38168e-14 -9.66078

-39.7256 12.108 -5.63882e-13
12.108 12.8447 -1.94511e-12
-5.63882e-13 -1.94511e-12 -9.31332

40.7384 -27.648 8.26598e-13
-27.648 8.35721 1.46964e-12
8.26598e-13 1.46964e-12 -5.64228

7.53964 20.557 -1.4572e-12
20.557 -47.4669 -1.18424e-15
-1.4572e-12 -1.18424e-15 -16.4818

-3.42136 26.2704 -1.84031e-12
26.2704 -31.4864 -2.02075e-12
-1.84031e-12 -2.02075e-12 -22.2521

15.7773 -18.5678 3.61785e-12
-18.5678 -30.0136 -3.97815e-12
3.61785e-12 -3.97815e-12 -8.18335

4.42845 -1.80165 5.33943e-13
-1.80165 -34.133 -7.91663e-13
5.33943e-13 -7.91663e-13 -24.4389

-14.34 -31.812 2.28795e-12
-31.812 -11.9307 -1.78109e-12
2.28795e-12 -1.78109e-12 -9.04989

56.2187 23.3281 2.51651e-12
23.3281 0.816282 -3.75285e-12
2.51651e-12 -3.75285e-12 -8.28824

-27.8282 30.1622 -1.08654e-13
30.1622 -9.23647 2.76816e-13
-1.08654e-13 2.76816e-13 -8.80073

-27.0038 29.2059 7.59097e-13
29.2059 -9.20181 -1.04183e-12
7.59097e-13 -1.04183e-12 -8.67802

28.6286 30.6613 2.99257e-12
30.6613 40.406 -4.52734e-12
2.99257e-12 -4.52734e-12 -4.44921

0.343086 27.0852 3.65278e-12
27.0852 -19.8464 6.4689e-13
3.65278e-12 6.4689e-13 -11.7773

64.5087 3.5252 1.4803e-13
3.5252 -11.8265 -2.71931e-12
1.4803e-13 -2.71931e-12 -10.0186

-14.8999 31.8172 1.78435e-12
31.8172 -20.7988 -2.35663e-13
1.78435e-12 -2.35663e-13 -12.4477

-37.9446 -12.5996 -1.79804e-12
-12.5996 8.18009 6.65542e-13
-1.79804e-12 6.65542e-13 -14.0229

-0.474949 24.278 -2.70154e-12
24.278 -29.9993 -2.81641e-12
-2.70154e-12 -2.81641e-12 -20.7711

-23.7276 -29.5788 4.30737e-12
-29.5788 -11.9349 -1.97945e-12
4.30737e-12 -1.97945e-12 -8.84365

-38.1489 -4.89793 -1.46883e-13
-4.89793 18.8466 -2.90671e-12
-1.46883e-13 -2.90671e-12 -11.7303

69.9454 -24.5567 -7.12911e-13
-24.5567 18.0287 8.95284e-13
-7.12911e-13 8.95284e-13 -7.04446

39.9823 29.6936 2.68585e-12
29.6936 13.4792 3.48048e-12
2.68585e-12 3.48048e-12 -5.21535

-4.29675 14.6967 -6.13642e-12
14.6967 60.572 7.65018e-13
-6.13642e-12 7.65018e-13 -8.40116

1.61138 -1.13897 1.07396e-12
-1.13897 -56.1235 -4.06564e-13
1.07396e-12 -4.06564e-13 -11.2096

9.61414 0.00221554 1.55017e-12
0.00221554 -44.7546 4.55434e-12
1.55017e-12 4.55434e-12 -8.43843

-31.0793 23.1242 5.55408e-13
23.1242 -4.33733 -2.19647e-12
5.55408e-13 -2.19647e-12 -8.45887

-34.7624 23.8711 1.47171e-12
23.8711 -13.1928 6.11622e-13
1.47171e-12 6.11622e-13 -14.8132

-43.3788 -24.3808 3.85432e-14
-24.3808 -12.6139 6.18024e-13
3.85432e-14 6.18024e-13 -11.469

-39.0597 -0.672922 3.80868e-12
-0.672922 21.0463 -2.36907e-12
3.80868e-12 -2.36907e-12 -10.4958

-40.8068 25.5905 1.13391e-13
25.5905 -13.2227 -3.44902e-12
1.13391e-13 -3.44902e-12 -11.1727

32.3219 -10.3081 -6.41857e-12
-10.3081 -25.1545 9.13492e-13
-6.41857e-12 9.13492e-13 -6.01472

8.70633 -32.8341 -3.13172e-12
-32.8341 22.7977 -3.4112e-12
-3.13172e-12 -3.4112e-12 -6.99245

2.39675 -2.30099 1.3037e-12
-2.30099 -49.9608 8.79593e-13
1.3037e-12 8.79593e-13 -14.7728

36.7458 -34.5089 -4.01457e-12
-34.5089 24.4796 2.85342e-12
-4.01457e-12 2.85342e-12 -7.7094

-38.2941 19.0861 1.72543e-12
19.0861 -7.09355 1.40954e-12
1.72543e-12 1.40954e-12 -14.4496

7.87069 -26.4788 -1.84504e-12
-26.4788 -27.995 1.19253e-12
-1.84504e-12 1.19253e-12 -10.9693

63.9482 -9.69044 -5.53394e-12
-9.69044 5.67702 1.14898e-11
-5.53394e-12 1.14898e-11 -5.07257

6.04039 -23.1921 3.39876e-12
-23.1921 -35.4683 3.58854e-12
3.39876e-12 3.58854e-12 -17.7361

0.141387 2.35831 9.79513e-13
2.35831 -56.1742 -1.46401e-13
9.79513e-13 -1.46401e-13 -11.5465

-4.06218 -23.3217 -2.179e-12
-23.3217 -23.4118 -2.14495e-13
-2.179e-12 -2.14495e-13 -16.7199

11.0386 -25.8596 2.35782e-12
-25.8596 -29.4864 -3.18205e-12
2.35782e-12 -3.18205e-12 -9.73397

10.2013 -8.54632 2.69e-12
-8.54632 -43.4906 -5.41315e-12
2.69e-12 -5.41315e-12 -9.28187

-35.418 -23.0683 6.86562e-13
-23.0683 -12.6461 1.20937e-12
6.86562e-13 1.20937e-12 -15.1033

23.6643 -31.3425 -2.31637e-12
-31.3425 5.71202 3.72739e-12
-2.31637e-12 3.72739e-12 -5.8787

11.0596 -24.5876 -2.96059e-13
-24.5876 -27.495 -5.58072e-13
-2.96059e-13 -5.58072e-13 -10.0484

46.6436 10.8647 -6.56423e-12
10.8647 -16.1182 1.11614e-13
-6.56423e-12 1.11614e-13 -6.80033

-14.1862 26.3405 1.05545e-12
26.3405 -15.6403 -1.64313e-14
1.05545e-12 -1.64313e-14 -14.1191

-45.2515 -37.6125 -4.88202e-13
-37.6125 -20.6122 -1.29378e-12
-4.88202e-13 -1.29378e-12 -14.9193

-43.7083 37.2648 5.21657e-12
37.2648 -21.266 -3.62739e-12
5.21657e-12 -3.62739e-12 -14.7697

-61.1845 -28.5731 1.22084e-12
-28.5731 -7.49709 4.3876e-13
1.22084e-12 4.3876e-13 -15.1998

-58.4155 27.0639 4.62245e-12
27.0639 -6.27171 -1.19401e-12
4.62245e-12 -1.19401e-12 -14.4784

5.60055 -8.52748 1.34204e-12
-8.52748 -71.0635 1.33656e-12
1.34204e-12 1.33656e-12 -14.71

4.39734 9.27348 5.93303e-13
9.27348 -68.8322 2.0699e-12
5.93303e-13 2.0699e-12 -14.4379

9.02392 -9.84636 4.08562e-13
-9.84636 -40.8906 -3.9185e-12
4.08562e-13 -3.9185e-12 -9.6123

-24.3355 32.1157 -3.54383e-13
32.1157 -24.8096 1.3615e-13
-3.54383e-13 1.3615e-13 -21.1451

-25.5228 -32.8537 1.3148e-12
-32.8537 -25.0957 -3.34466e-12
1.3148e-12 -3.34466e-12 -21.4692

-53.9191 16.0684 3.97164e-13
16.0684 3.40145 -3.9222e-12
3.97164e-13 -3.9222e-12 -21.4027

-52.4201 -15.8009 -2.24561e-13
-15.8009 3.29679 -2.29387e-12
-2.24561e-13 -2.29387e-12 -21.076

6.11187 -3.74804 1.65853e-12
-3.74804 -43.925 -3.23889e-13
1.65853e-12 -3.23889e-13 -25.7646

6.91799 3.61079 4.85893e-12
3.61079 -46.3484 -1.41043e-12
4.85893e-12 -1.41043e-12 -26.141

-15.6267 9.83709 3.60785e-12
9.83709 46.2631 -2.79125e-12
3.60785e-12 -2.79125e-12 -5.8485

-22.9189 -24.7744 2.08041e-12
-24.7744 -14.5525 8.88919e-13
2.08041e-12 8.88919e-13 -10.3303

-56.6032 -36.3872 3.61696e-12
-36.3872 -14.5326 6.07662e-13
3.61696e-12 6.07662e-13 -13.4375

33.3587 -4.66436 3.90799e-14
-4.66436 -19.8478 1.04868e-12
3.90799e-14 1.04868e-12 -3.94565

3.43326 -16.6943 -1.112e-12
-16.6943 -52.6282 -2.44042e-12
-1.112e-12 -2.44042e-12 -21.5325

3.6744 16.1753 1.22998e-12
16.1753 -51.8839 4.4782e-12
1.22998e-12 4.4782e-12 -21.4058

6.55565 0.121877 1.01859e-12
0.121877 -76.7544 -1.38785e-12
1.01859e-12 -1.38785e-12 -13.3044

-7.57033 23.3758 1.10726e-13
23.3758 39.9361 3.74574e-12
1.10726e-13 3.74574e-12 -6.88578

-56.8889 36.1712 1.05715e-12
36.1712 -14.0113 2.65432e-12
1.05715e-12 2.65432e-12 -13.3892

-39.7948 -23.3959 -2.17752e-12
-23.3959 2.56147 2.45729e-12
-2.17752e-12 2.45729e-12 -8.80136

37.1171 23.3533 6.48962e-13
23.3533 -8.61385 -3.38337e-12
6.48962e-13 -3.38337e-12 -5.75914

4.73497 23.8584 -3.22527e-12
23.8584 -38.226 -4.7932e-13
-3.22527e-12 -4.7932e-13 -18.9857

24.0135 -31.3143 3.04586e-12
-31.3143 6.40793 -4.24905e-12
3.04586e-12 -4.24905e-12 -5.64867

2.43071 -3.23121 -1.89404e-12
-3.23121 -48.3699 2.27907e-12
-1.89404e-12 2.27907e-12 -14.7429

-60.4572 -34.1607 1.43663e-12
-34.1607 -14.3498 -3.63028e-12
1.43663e-12 -3.63028e-12 -14.0312

-17.4536 8.32015 3.75237e-12
8.32015 45.6924 6.60805e-13
3.75237e-12 6.60805e-13 -5.78155

-9.46963 21.8121 9.91799e-13
21.8121 40.4255 -7.5436e-13
9.91799e-13 -7.5436e-13 -6.65427

58.6045 35.7766 -5.31131e-12
35.7766 37.0884 -2.62546e-12
-5.31131e-12 -2.62546e-12 -6.91604

70.4853 1.5788 1.64964e-12
1.5788 -5.54366 -1.54254e-12
1.64964e-12 -1.54254e-12 -10.3743

-30.7594 -22.8046 -1.75267e-13
-22.8046 -13.3566 -4.47696e-12
-1.75267e-13 -4.47696e-12 -14.4663

32.8416 31.1846 1.89952e-12
31.1846 69.7954 -7.99361e-12
1.89952e-12 -7.99361e-12 -6.67946

-19.3769 23.6103 5.07979e-12
23.6103 7.68686 3.39521e-12
5.07979e-12 3.39521e-12 -5.51383

47.6377 -5.34967 3.69127e-12
-5.34967 -17.4343 1.897e-12
3.69127e-12 1.897e-12 -6.82228

33.2198 11.2163 -5.31131e-12
11.2163 -23.6379 -2.64648e-12
-5.31131e-12 -2.64648e-12 -6.01448

6.25417 0.429898 9.22225e-14
0.429898 -77.5516 -3.47257e-12
9.22225e-14 -3.47257e-12 -13.4501

-58.9353 -29.0308 -1.11385e-12
-29.0308 -6.28815 -3.6288e-12
-1.11385e-12 -3.6288e-12 -14.6974

-28.3318 -6.31871 -8.71917e-12
-6.31871 -11.3576 2.90819e-12
-8.71917e-12 2.90819e-12 -51.5871

-44.6978 37.4112 3.53199e-12
37.4112 -20.8113 6.37971e-13
3.53199e-12 6.37971e-13 -14.7738

93.7922 1.66332 2.25479e-12
1.66332 16.6553 -7.96104e-13
2.25479e-12 -7.96104e-13 -6.04314

10.0361 -32.7877 -3.02691e-12
-32.7877 21.3109 1.90722e-12
-3.02691e-12 1.90722e-12 -6.80872

-56.9357 36.6127 4.54081e-13
36.6127 -14.5711 3.07754e-13
4.54081e-13 3.07754e-13 -13.5054

-35.08 -11.1339 2.05223e-12
-11.1339 19.1772 3.05711e-12
2.05223e-12 3.05711e-12 -8.31693

-5.47821 -25.5152 -2.15709e-12
-25.5152 37.3506 3.90799e-14
-2.15709e-12 3.90799e-14 -6.98754

-58.4518 28.8298 -1.14116e-12
28.8298 -6.27153 1.59694e-12
-1.14116e-12 1.59694e-12 -14.6144

28.496 -26.1424 1.8184e-12
-26.1424 -4.91306 -7.12319e-13
1.8184e-12 -7.12319e-13 -4.69775

-21.1697 10.4836 -3.54383e-13
10.4836 -18.5589 8.15777e-12
-3.54383e-13 8.15777e-12 -51.6826

3.43237 30.8727 3.64568e-12
30.8727 27.1627 2.32111e-12
3.64568e-12 2.32111e-12 -6.73351

6.14042 8.12658 2.17544e-12
8.12658 -72.2971 -2.6823e-13
2.17544e-12 -2.6823e-13 -14.9845

-11.546 30.1907 -2.75661e-12
30.1907 -20.6032 -8.00545e-13
-2.75661e-12 -8.00545e-13 -11.5495

-30.7981 23.3322 -2.60976e-12
23.3322 -5.09988 -1.49688e-12
-2.60976e-12 -1.49688e-12 -8.46491

-25.8636 -32.4883 -2.60532e-13
-32.4883 -24.1124 4.52305e-13
-2.60532e-13 4.52305e-13 -21.5587

9.2052 -23.1906 -1.7053e-13
-23.1906 -27.9226 -5.52743e-13
-1.7053e-13 -5.52743e-13 -11.426

-37.6611 10.4703 4.37491e-12
10.4703 8.92894 5.30598e-12
4.37491e-12 5.30598e-12 -25.3306

-23.041 -23.4341 -1.11052e-12
-23.4341 4.95236 2.01853e-12
-1.11052e-12 2.01853e-12 -6.26355

88.805 -9.70805 6.88753e-12
-9.70805 10.8071 -3.60815e-12
6.88753e-12 -3.60815e-12 -10.0309

84.0451 -14.2775 5.96856e-13
-14.2775 2.81231 9.21929e-13
5.96856e-13 9.21929e-13 -13.1969

5.88764 16.5298 -1.80034e-12
16.5298 -33.9324 3.31498e-12
-1.80034e-12 3.31498e-12 -22.3757

-16.422 22.5021 -2.04932e-12
22.5021 16.2279 -4.98446e-12
-2.04932e-12 -4.98446e-12 -5.08589

-3.91259 29.1636 -1.94156e-12
29.1636 -12.2303 1.06463e-12
-1.94156e-12 1.06463e-12 -8.39677

50.9934 0.688681 -8.62125e-13
0.688681 -6.53254 -4.2461e-12
-8.62125e-13 -4.2461e-12 -3.63488

-48.1413 6.571 -5.14033e-13
6.571 14.786 -9.23113e-13
-5.14033e-13 -9.23113e-13 -18.9524

10.1157 16.5407 1.533e-12
16.5407 -36.0801 5.62069e-12
1.533e-12 5.62069e-12 -9.13587

-4.50437 -25.7617 2.38683e-12
-25.7617 35.5557 1.3974e-13
2.38683e-12 1.3974e-13 -6.74751

-39.1919 -2.57227 -2.06585e-12
-2.57227 21.5043 -2.96e-12
-2.06585e-12 -2.96e-12 -10.6697

-7.99133 13.3655 -3.33363e-13
13.3655 44.4058 7.25938e-13
-3.33363e-13 7.25938e-13 -3.9448

3.73455 -29.7136 8.70415e-14
-29.7136 -17.3653 -1.1872e-12
8.70415e-14 -1.1872e-12 -8.92097

21.4258 -29.9481 8.24822e-13
-29.9481 14.7559 7.66202e-13
8.24822e-13 7.66202e-13 -3.91837

6.88052 31.6236 2.55559e-12
31.6236 25.4017 -1.10489e-12
2.55559e-12 -1.10489e-12 -6.82866

2.7853 -15.0199 -1.72307e-13
-15.0199 -39.266 -4.16334e-13
-1.72307e-13 -4.16334e-13 -63.3087

-46.1596 2.04147 -1.89471e-12
2.04147 11.4613 3.39995e-12
-1.89471e-12 3.39995e-12 -22.7565

-55.4441 20.2997 -5.46082e-13
20.2997 3.0954 -3.90147e-12
-5.46082e-13 -3.90147e-12 -22.9157

5.91642 15.4387 -2.82574e-12
15.4387 -58.8179 -3.06125e-13
-2.82574e-12 -3.06125e-13 -23.0357

-18.9218 -26.189 -1.04687e-12
-26.189 -12.9137 -1.10874e-12
-1.04687e-12 -1.10874e-12 -9.65308

41.3465 17.9576 -3.2306e-12
17.9576 -6.27167 4.89594e-12
-3.2306e-12 4.89594e-12 -3.86191

-44.6823 -5.29377 6.05471e-12
-5.29377 4.53836 -9.31107e-13
6.05471e-12 -9.31107e-13 -39.1437

7.49932 -18.9881 -2.18196e-13
-18.9881 -39.8946 1.73491e-13
-2.18196e-13 1.73491e-13 -11.6602

30.2912 -15.5991 3.06836e-12
-15.5991 -20.5093 4.67478e-13
3.06836e-12 4.67478e-13 -4.80556

-9.63908 11.6035 -5.0638e-12
11.6035 44.3196 1.03029e-12
-5.0638e-12 1.03029e-12 -3.85956

8.33358 -25.7348 1.75741e-12
-25.7348 32.9921 -1.77399e-12
1.75741e-12 -1.77399e-12 -3.63349

-10.2445 -25.2738 2.51799e-12
-25.2738 -19.1007 2.43687e-12
2.51799e-12 2.43687e-12 -23.1744

17.0049 31.9602 -7.18832e-13
31.9602 11.197 2.10261e-12
-7.18832e-13 2.10261e-12 -5.74685

-1.0692 -25.1345 -1.81662e-12
-25.1345 -30.763 3.16251e-12
-1.81662e-12 3.16251e-12 -20.8913

48.0656 2.59741 -7.23569e-13
2.59741 -8.41042 -5.43943e-12
-7.23569e-13 -5.43943e-12 -3.53206

6.55238 -28.9311 3.30758e-12
-28.9311 72.0515 -2.76164e-12
3.30758e-12 -2.76164e-12 -14.5516

21.7914 -29.2316 -1.96524e-12
-29.2316 13.9634 2.85283e-12
-1.96524e-12 2.85283e-12 -3.93075

35.3515 32.1596 -2.07242e-13
32.1596 74.1353 4.4551e-12
-2.07242e-13 4.4551e-12 -5.44174

-45.2837 -11.8767 8.85865e-13
-11.8767 13.922 -9.74628e-13
8.85865e-13 -9.74628e-13 -15.3265

-14.4213 -13.8216 -9.42328e-12
-13.8216 43.3827 1.51464e-12
-9.42328e-12 1.51464e-12 -5.67316

-19.2426 -23.9874 -2.68378e-13
-23.9874 -19.8302 3.29351e-12
-2.68378e-13 3.29351e-12 -64.2505

2.43781 23.7713 8.0617e-12
23.7713 36.007 -8.01729e-13
8.0617e-12 -8.01729e-13 -3.71152

-15.1825 -32.7263 -1.02644e-12
-32.7263 -21.1193 3.8319e-12
-1.02644e-12 3.8319e-12 -14.3131

-14.5659 -11.9634 -2.93054e-12
-11.9634 45.5309 2.54137e-12
-2.93054e-12 2.54137e-12 -5.73934

7.83553 -19.1168 -2.97214e-12
-19.1168 -43.122 -7.31267e-14
-2.97214e-12 -7.31267e-14 -12.6322

6.54529 23.8776 9.20745e-13
23.8776 35.1716 1.6082e-12
9.20745e-13 1.6082e-12 -3.44247

23.1735 -4.97553 2.3744e-13
-4.97553 -30.6768 1.78306e-12
2.3744e-13 1.78306e-12 -5.36476

36.9707 -30.3431 -7.57912e-13
-30.3431 122.629 3.8464e-12
-7.57912e-13 3.8464e-12 -6.24153

-26.8699 21.0144 -8.46138e-13
21.0144 8.43418 4.99985e-12
-8.46138e-13 4.99985e-12 -7.13046

40.3387 -19.3237 9.68707e-12
-19.3237 -11.3731 -1.57504e-12
9.68707e-12 -1.57504e-12 -5.72637

6.52806 -21.4458 -3.83693e-13
-21.4458 -45.5579 -1.45099e-12
-3.83693e-13 -1.45099e-12 -24.9714

20.705 31.7547 -9.4739e-14
31.7547 9.5572 -1.39148e-13
-9.4739e-14 -1.39148e-13 -5.8064

13.9187 -29.9722 2.64973e-12
-29.9722 -7.6062 -1.42641e-12
2.64973e-12 -1.42641e-12 -5.94467

6.75497 20.8854 4.2597e-12
20.8854 -27.7926 -7.99657e-13
4.2597e-12 -7.99657e-13 -11.109

-38.2742 -28.0759 3.0543e-12
-28.0759 -14.0379 -1.31214e-12
3.0543e-12 -1.31214e-12 -11.0613

8.64603 -26.2258 -1.87524e-12
-26.2258 31.171 1.04568e-12
-1.87524e-12 1.04568e-12 -3.63552

15.3312 28.9817 -2.81079e-12
28.9817 19.1538 2.74269e-12
-2.81079e-12 2.74269e-12 -3.88332

28.6404 26.1918 1.3145e-13
26.1918 -5.63378 -7.55248e-13
1.3145e-13 -7.55248e-13 -4.80235

7.91458 -14.6103 -2.69503e-12
-14.6103 -36.8779 -7.75676e-14
-2.69503e-12 -7.75676e-14 -13.9914

-6.84194 -16.6179 3.33304e-12
-16.6179 41.3412 6.63173e-14
3.33304e-12 6.63173e-14 -3.95976

17.4407 -17.5684 1.2997e-12
-17.5684 -30.9996 -2.64973e-14
1.2997e-12 -2.64973e-14 -7.10552

19.8418 16.9087 -3.03935e-12
16.9087 -31.665 -5.66954e-13
-3.03935e-12 -5.66954e-13 -7.33484

-33.6799 -9.38644 -1.73358e-12
-9.38644 8.75611 -7.58504e-13
-1.73358e-12 -7.58504e-13 -23.9923

43.4319 -13.4303 1.14362e-11
-13.4303 -8.36936 -1.05856e-12
1.14362e-11 -1.05856e-12 -3.80449

-19.3792 0.594079 1.61648e-13
0.594079 43.1456 2.47624e-12
1.61648e-13 2.47624e-12 -4.77579

28.0561 18.5552 -3.0204e-12
18.5552 -18.1995 2.93277e-12
-3.0204e-12 2.93277e-12 -4.75005

25.5284 27.6044 -7.60281e-13
27.6044 -3.77603 -2.83092e-12
-7.60281e-13 -2.83092e-12 -4.77149

-6.71575 -15.6865 1.11141e-12
-15.6865 43.7989 7.88702e-13
1.11141e-12 7.88702e-13 -3.84828

-19.9072 -1.20229 1.66511e-12
-1.20229 42.1282 5.32197e-12
1.66511e-12 5.32197e-12 -4.68736

-5.47323 29.1344 2.9979e-12
29.1344 -23.647 1.76896e-12
2.9979e-12 1.76896e-12 -16.7969

-37.2741 -10.9223 -1.67866e-12
-10.9223 21.6799 -2.7652e-12
-1.67866e-12 -2.7652e-12 -7.83029

27.1433 -26.7158 2.8102e-12
-26.7158 -5.53113 -4.26681e-12
2.8102e-12 -4.26681e-12 -4.94454

40.7193 21.333 3.03994e-12
21.333 -8.37066 3.37389e-12
3.03994e-12 3.37389e-12 -5.46787

12.378 23.6655 -2.76579e-12
23.6655 -27.1275 3.09175e-12
-2.76579e-12 3.09175e-12 -8.6672

-37.797 5.47096 2.7797e-12
5.47096 23.3114 -1.03739e-12
2.7797e-12 -1.03739e-12 -8.59764

18.5929 29.0661 1.713e-12
29.0661 17.3777 1.89004e-12
1.713e-12 1.89004e-12 -3.9474

-9.98879 22.9639 -2.65447e-12
22.9639 -14.9135 -2.85076e-12
-2.65447e-12 -2.85076e-12 -24.0255

68.3179 -59.6927 2.7948e-12
-59.6927 36.3359 -6.30844e-12
2.7948e-12 -6.30844e-12 -23.0104

17.5308 -25.0482 1.11022e-12
-25.0482 -17.9924 -2.38328e-13
1.11022e-12 -2.38328e-13 -6.41797

10.0581 7.07004 -2.66157e-12
7.07004 82.5518 8.84626e-12
-2.66157e-12 8.84626e-12 -7.16534

11.9201 -28.8898 -2.00136e-13
-28.8898 -3.88176 -1.47378e-12
-2.00136e-13 -1.47378e-12 -5.16612

-66.9444 -52.7019 -9.58048e-13
-52.7019 143.253 4.51431e-12
-9.58048e-13 4.51431e-12 -49.6683

-68.3877 51.4525 -8.68046e-13
51.4525 142.541 -4.59958e-12
-8.68046e-13 -4.59958e-12 -49.8574

19.5712 117.156 -1.08002e-12
117.156 64.1313 1.83794e-12
-1.08002e-12 1.83794e-12 -48.3588

20.5301 -117.099 9.73444e-13
-117.099 61.0281 1.37845e-12
9.73444e-13 1.37845e-12 -48.7236

157.747 -1.36339 4.26326e-14
-1.36339 -79.1869 4.58025e-14
4.26326e-14 4.58025e-14 -48.9105

110.329 -91.127 3.69482e-12
-91.127 -36.6891 2.25005e-12
3.69482e-12 2.25005e-12 -50.3051

110.382 91.6549 -1.29792e-12
91.6549 -36.4993 -8.52651e-13
-1.29792e-12 -8.52651e-13 -50.1779

7.84673 14.3306 -2.95556e-12
14.3306 -42.6817 -1.11555e-12
-2.95556e-12 -1.11555e-12 -15.0791

-11.7906 25.5363 -5.56177e-12
25.5363 -27.4048 1.40569e-12
-5.56177e-12 1.40569e-12 -35.1369

12.4381 6.60617 -2.9073e-13
6.60617 -40.5343 8.21121e-13
-2.9073e-13 8.21121e-13 -8.25285

26.2548 21.785 2.48868e-12
21.785 -19.5292 -9.17784e-15
2.48868e-12 -9.17784e-15 -5.85123

-21.2308 17.7448 -3.78172e-12
17.7448 29.8685 -1.1197e-12
-3.78172e-12 -1.1197e-12 -6.16275

22.5303 28.8991 -1.99722e-12
28.8991 -0.775769 8.14164e-13
-1.99722e-12 8.14164e-13 -4.73113

4.05525 -29.6638 2.10854e-12
-29.6638 -17.4665 5.92119e-14
2.10854e-12 5.92119e-14 -8.50468

25.9953 28.0284 -1.31332e-12
28.0284 -2.30201 8.28374e-13
-1.31332e-12 8.28374e-13 -4.73152

-19.3477 -2.84136 2.09314e-13
-2.84136 43.0717 1.60109e-12
2.09314e-13 1.60109e-12 -4.77034

-13.4112 -26.0971 4.73281e-12
-26.0971 -25.8385 -4.21293e-13
4.73281e-12 -4.21293e-13 -35.52

-19.8428 -4.86255 -5.83681e-13
-4.86255 41.7767 5.54105e-12
-5.83681e-13 5.54105e-12 -4.74422

-1.82707 23.0165 7.50096e-12
23.0165 -24.3772 -4.82133e-13
7.50096e-12 -4.82133e-13 -16.1499

44.983 26.8713 2.45848e-12
26.8713 8.1111 1.68043e-12
2.45848e-12 1.68043e-12 -5.3694

-52.508 -13.2161 -4.09894e-12
-13.2161 0.150267 2.42206e-12
-4.09894e-12 2.42206e-12 -20.6171

20.2805 13.7282 2.79125e-12
13.7282 -31.1422 1.50043e-12
2.79125e-12 1.50043e-12 -7.04338

13.7006 -29.9882 4.73754e-12
-29.9882 -6.69191 1.02229e-12
4.73754e-12 1.02229e-12 -5.83561

29.631 -24.714 3.63324e-12
-24.714 -7.87426 4.16852e-13
3.63324e-12 4.16852e-13 -4.8255

5.7645 -16.075 -1.18424e-12
-16.075 -32.3342 2.69829e-12
-1.18424e-12 2.69829e-12 -22.2552

12.6276 27.9294 1.46253e-12
27.9294 -13.6393 -1.02525e-12
1.46253e-12 -1.02525e-12 -6.41995

23.309 23.9779 5.31723e-13
23.9779 -17.9438 -9.48575e-13
5.31723e-13 -9.48575e-13 -5.96275

-31.0776 -2.7929 -4.06841e-12
-2.7929 30.1319 -3.33422e-12
-4.06841e-12 -3.33422e-12 -6.39882

-28.6301 5.87343 -4.43471e-12
5.87343 33.3216 -8.28967e-13
-4.43471e-12 -8.28967e-13 -6.05971

34.5489 2.64677 -2.30926e-13
2.64677 -26.1843 -6.9356e-12
-2.30926e-13 -6.9356e-12 -6.14251

50.652 -7.28984 7.41451e-12
-7.28984 -14.0826 7.95926e-12
7.41451e-12 7.95926e-12 -6.77903

11.041 30.4853 2.10854e-12
30.4853 -4.78804 8.46138e-13
2.10854e-12 8.46138e-13 -5.96656

17.4674 -26.1559 2.18847e-12
-26.1559 -17.4554 2.48986e-13
2.18847e-12 2.48986e-13 -6.35208

-0.084251 -21.2544 -8.12979e-13
-21.2544 -27.9562 9.72851e-13
-8.12979e-13 9.72851e-13 -17.1664

4.9387 -31.6343 6.63232e-12
-31.6343 4.86114 2.62901e-13
6.63232e-12 2.62901e-13 -5.93543

-8.22771 -27.7862 -1.82373e-12
-27.7862 18.5788 -2.67046e-12
-1.82373e-12 -2.67046e-12 -6.13006

-1.65069 29.8878 -3.59179e-12
29.8878 10.4472 -3.66818e-12
-3.59179e-12 -3.66818e-12 -5.80049

-26.0173 -9.57811 -3.3357e-12
-9.57811 32.97 1.10371e-12
-3.3357e-12 1.10371e-12 -5.78738

-31.3235 -1.54492 -3.31868e-12
-1.54492 31.6509 2.52657e-12
-3.31868e-12 2.52657e-12 -6.22366

-38.916 5.74789 -3.68687e-12
5.74789 23.9466 9.95352e-13
-3.68687e-12 9.95352e-13 -9.18307

-17.2188 -21.0896 2.05761e-12
-21.0896 26.5712 -1.3974e-13
2.05761e-12 -1.3974e-13 -5.77214

13.0716 24.1116 1.78109e-12
24.1116 -28.1016 -1.67984e-12
1.78109e-12 -1.67984e-12 -9.20494

21.5551 -9.58994 1.68754e-12
-9.58994 -31.7072 -4.959e-14
1.68754e-12 -4.959e-14 -6.59823

-27.1542 7.4654 1.49262e-12
7.4654 34.3349 2.49815e-12
1.49262e-12 2.49815e-12 -5.87411

-35.2363 -9.70116 1.79738e-12
-9.70116 22.3137 -3.22586e-12
1.79738e-12 -3.22586e-12 -8.18355

-29.1563 -16.331 2.14673e-12
-16.331 19.3468 9.77588e-13
2.14673e-12 9.77588e-13 -6.66189

36.9683 -8.23939 -4.1247e-12
-8.23939 -20.2375 3.5761e-12
-4.1247e-12 3.5761e-12 -5.10163

-14.8098 -32.3468 -1.91995e-12
-32.3468 -21.6275 9.55384e-13
-1.91995e-12 9.55384e-13 -12.993

-22.8247 9.32115 -7.46662e-13
9.32115 33.3236 3.34547e-13
-7.46662e-13 3.34547e-13 -4.78893

-0.751195 -18.2127 4.05276e-12
-18.2127 -35.1572 1.74187e-12
4.05276e-12 1.74187e-12 -33.2767

4.93193 24.8234 8.39033e-13
24.8234 75.3082 3.76824e-12
8.39033e-13 3.76824e-12 -14.319

-14.1418 -26.6264 -2.24324e-12
-26.6264 -16.3505 -1.80448e-12
-2.24324e-12 -1.80448e-12 -14.6407

-6.35708 -30.2029 -3.37389e-12
-30.2029 -23.6027 -3.90206e-13
-3.37389e-12 -3.90206e-13 -17.0877

-31.2714 -0.701202 1.07322e-12
-0.701202 31.5006 8.90547e-13
1.07322e-12 8.90547e-13 -6.34853

28.488 -16.6229 -8.05282e-12
-16.6229 -18.0575 2.25272e-12
-8.05282e-12 2.25272e-12 -4.43814

-37.8054 12.8417 1.90923e-12
12.8417 11.1651 -2.10202e-13
1.90923e-12 -2.10202e-13 -10.9891

-8.86121 -3.1807 -4.33557e-12
-3.1807 111.054 2.66217e-12
-4.33557e-12 2.66217e-12 -22.6714

-31.6033 14.2739 1.06715e-12
14.2739 21.3505 5.26631e-12
1.06715e-12 5.26631e-12 -7.12458

12.4217 -29.4899 4.23957e-12
-29.4899 -2.51982 2.53723e-12
4.23957e-12 2.53723e-12 -4.92835

33.6325 25.1062 -1.28667e-12
25.1062 124.032 1.83794e-12
-1.28667e-12 1.83794e-12 -6.2139

-13.5022 26.0972 -1.21828e-11
26.0972 -19.0971 2.43805e-13
-1.21828e-11 2.43805e-13 -58.8928

-9.55254 -27.8065 5.43891e-12
-27.8065 -22.8065 -1.45985e-11
5.43891e-12 -1.45985e-11 -59.5432

-2.86612 -30.4197 -4.10279e-12
-30.4197 -7.32165 2.60118e-12
-4.10279e-12 2.60118e-12 -7.28752

3.85993 -31.161 -1.58629e-12
-31.161 5.63537 1.01608e-12
-1.58629e-12 1.01608e-12 -6.06266

25.1522 20.8279 4.64813e-13
20.8279 -17.035 7.09655e-13
4.64813e-13 7.09655e-13 -4.97703

31.8054 15.0065 3.82746e-12
15.0065 -23.3018 2.65921e-12
3.82746e-12 2.65921e-12 -5.95495

-9.48821 3.08304 -2.20057e-11
3.08304 -9.83021 -6.17417e-12
-2.20057e-11 -6.17417e-12 -80.9337

-5.54865 -6.99937 1.91018e-12
-6.99937 -14.0411 1.07437e-11
1.91018e-12 1.07437e-11 -80.2865

11.7486 4.82427 8.08834e-13
4.82427 -43.206 5.07209e-12
8.08834e-13 5.07209e-12 -7.82773

-35.0573 6.73123 5.29169e-12
6.73123 24.3754 -3.84463e-12
5.29169e-12 -3.84463e-12 -7.56415

-36.1112 6.73635 -4.26458e-12
6.73635 24.4327 -4.05661e-12
-4.26458e-12 -4.05661e-12 -8.30912

74.5884 58.6357 9.4739e-15
58.6357 34.1738 1.78109e-12
9.4739e-15 1.78109e-12 -21.8727

-6.92044 -28.2006 2.16005e-12
-28.2006 16.8752 2.08426e-12
2.16005e-12 2.08426e-12 -6.11696

8.17196 17.9744 -1.72011e-12
17.9744 -44.8759 6.81233e-13
-1.72011e-12 6.81233e-13 -12.8968

32.7035 9.53993 5.27223e-12
9.53993 -19.0809 1.69538e-12
5.27223e-12 1.69538e-12 -4.07464

3.3875 -26.724 -4.42313e-12
-26.724 13.484 -6.11659e-12
-4.42313e-12 -6.11659e-12 -3.82726

26.2377 -20.2382 -9.75457e-12
-20.2382 -20.3238 9.22521e-13
-9.75457e-12 9.22521e-13 -5.86349

65.3922 60.2336 -3.59535e-12
60.2336 34.2904 5.37526e-12
-3.59535e-12 5.37526e-12 -23.8675

-13.2426 31.0693 -1.91195e-12
31.0693 -16.8818 1.5475e-12
-1.91195e-12 1.5475e-12 -12.786

-18.6051 -19.7867 3.64183e-12
-19.7867 28.415 -3.11336e-12
3.64183e-12 -3.11336e-12 -5.9698

11.1742 28.8583 2.35071e-12
28.8583 -13.3235 1.16233e-12
2.35071e-12 1.16233e-12 -6.43639

-31.8699 -4.14501 3.67884e-12
-4.14501 30.1481 -5.17038e-12
3.67884e-12 -5.17038e-12 -6.3581

-14.597 19.6097 3.56811e-12
19.6097 27.1855 3.60956e-12
3.56811e-12 3.60956e-12 -4.41899

7.47909 30.5195 4.93827e-13
30.5195 -1.67071 2.67223e-12
4.93827e-13 2.67223e-12 -5.66076

-9.3454 -22.4738 2.62486e-12
-22.4738 23.1494 -7.12319e-13
2.62486e-12 -7.12319e-13 -4.17574

4.59027 -27.3533 4.05898e-12
-27.3533 11.4491 -1.60701e-12
4.05898e-12 -1.60701e-12 -3.93877

24.2723 11.2573 -4.49329e-12
11.2573 102.082 4.43142e-12
-4.49329e-12 4.43142e-12 -12.4047

37.4671 -33.4572 2.55795e-13
-33.4572 69.287 -7.53175e-13
2.55795e-13 -7.53175e-13 -5.70315

-25.3361 -11.6908 4.74339e-12
-11.6908 31.3685 -1.46786e-12
4.74339e-12 -1.46786e-12 -5.64867

16.0965 26.4851 -3.11455e-13
26.4851 -15.5024 1.803e-12
-3.11455e-13 1.803e-12 -6.21768

4.95553 29.4786 3.45383e-12
29.4786 1.63675 -2.01913e-12
3.45383e-12 -2.01913e-12 -4.99025

-9.85518 -21.4345 5.34269e-12
-21.4345 25.1211 -2.9529e-12
5.34269e-12 -2.9529e-12 -4.03353

-21.6354 -11.7827 1.79856e-12
-11.7827 32.0824 6.83305e-13
1.79856e-12 6.83305e-13 -4.63749

10.4628 28.4102 7.94624e-13
28.4102 -0.156637 -3.69482e-13
7.94624e-13 -3.69482e-13 -4.67316

-21.8475 -13.8782 5.01229e-13
-13.8782 29.4676 -3.25133e-12
5.01229e-13 -3.25133e-12 -4.84744

6.95846 27.8558 1.41516e-13
27.8558 73.0866 -8.00071e-12
1.41516e-13 -8.00071e-12 -14.3222

-45.8319 -4.04107 -1.57876e-12
-4.04107 14.0479 -1.15522e-12
-1.57876e-12 -1.15522e-12 -19.9648

0.876767 31.0284 8.76336e-14
31.0284 7.52015 -1.62418e-12
8.76336e-14 -1.62418e-12 -6.08941

9.71914 14.9015 2.12808e-12
14.9015 -36.4296 3.77269e-12
2.12808e-12 3.77269e-12 -10.9855

9.92848 -15.9278 -1.21059e-12
-15.9278 -39.4108 -2.83181e-12
-1.21059e-12 -2.83181e-12 -13.0693

85.6153 -24.2052 2.54374e-12
-24.2052 7.63571 -4.03707e-12
2.54374e-12 -4.03707e-12 -12.9579

-23.2075 -21.2677 6.47393e-12
-21.2677 10.5139 3.78186e-12
6.47393e-12 3.78186e-12 -6.16561

-16.6014 26.6988 8.1594e-13
26.6988 1.77839 -9.02389e-13
8.1594e-13 -9.02389e-13 -6.58808

-26.201 -21.7278 1.16263e-12
-21.7278 -5.36566 -3.76051e-12
1.16263e-12 -3.76051e-12 -23.8667

-41.5958 14.106 7.85387e-12
14.106 -3.5599 4.29642e-12
7.85387e-12 4.29642e-12 -64.1248

-0.893573 9.4453 4.74731e-13
9.4453 -44.2581 -1.42671e-12
4.74731e-13 -1.42671e-12 -64.2263

-20.3839 32.7052 -3.69837e-12
32.7052 -23.2028 -3.79859e-12
-3.69837e-12 -3.79859e-12 -24.3292

-11.4112 26.0011 5.88862e-12
26.0011 22.6042 -3.44672e-12
5.88862e-12 -3.44672e-12 -5.92604

16.0387 26.6619 1.12917e-12
26.6619 -17.2878 8.76336e-13
1.12917e-12 8.76336e-13 -6.55017

30.4288 45.1873 -2.45137e-13
45.1873 47.5558 2.69059e-12
-2.45137e-13 2.69059e-12 -15.1951

-44.8876 -11.3431 -1.00801e-11
-11.3431 -1.80794 -2.62812e-12
-1.00801e-11 -2.62812e-12 -61.6811

-8.29813 -3.43262 8.60545e-12
-3.43262 -12.7541 7.88318e-12
8.60545e-12 7.88318e-12 -77.2241

-14.6904 -0.209762 8.30802e-12
-0.209762 -6.41854 -1.33654e-11
8.30802e-12 -1.33654e-11 -77.3683

27.6659 -53.8038 6.08698e-13
-53.8038 71.1507 -1.7953e-12
6.08698e-13 -1.7953e-12 -24.3893

-11.6906 -11.5998 7.36744e-13
-11.5998 -16.2048 -1.47793e-12
7.36744e-13 -1.47793e-12 -37.4297

-32.6101 8.81265 4.31233e-12
8.81265 -9.41881 6.93667e-13
4.31233e-12 6.93667e-13 -49.5394

18.2562 -26.2 -2.80309e-12
-26.2 -19.5471 -4.15312e-12
-2.80309e-12 -4.15312e-12 -6.50693

-39.4304 1.01083 3.06196e-12
1.01083 11.9803 2.77763e-12
3.06196e-12 2.77763e-12 -19.7217

-30.203 -20.2683 2.22415e-12
-20.2683 6.30503 9.05883e-12
2.22415e-12 9.05883e-12 -7.21647

10.5365 6.25538 -3.06599e-12
6.25538 -52.3901 1.16773e-12
-3.06599e-12 1.16773e-12 -9.64002

-49.8128 15.5963 -3.70089e-12
15.5963 10.1651 2.10854e-12
-3.70089e-12 2.10854e-12 -13.5313

-40.2842 7.19148 -7.52731e-13
7.19148 16.5414 9.75812e-13
-7.52731e-13 9.75812e-13 -13.7743

16.4049 20.3932 -4.87965e-12
20.3932 -25.8414 -8.30447e-13
-4.87965e-12 -8.30447e-13 -7.60798

-9.10026 -3.11391 -1.42124e-11
-3.11391 108.397 -2.62901e-12
-1.42124e-11 -2.62901e-12 -23.1017

-3.32047 -27.6243 1.08535e-12
-27.6243 -3.6296 -1.72366e-12
1.08535e-12 -1.72366e-12 -5.83037

-7.33517 -26.1168 1.18542e-12
-26.1168 -14.0822 -2.1337e-12
1.18542e-12 -2.1337e-12 -9.81096

-14.1985 -31.4837 -2.04903e-12
-31.4837 -21.7779 3.72206e-12
-2.04903e-12 3.72206e-12 -12.7558

90.7299 32.7504 -5.64408e-12
32.7504 20.9068 8.50579e-13
-5.64408e-12 8.50579e-13 -16.5057

-23.1166 -20.1163 7.44797e-12
-20.1163 -17.3852 -7.85002e-13
7.44797e-12 -7.85002e-13 -44.426

72.6318 54.3235 4.99748e-13
54.3235 91.6424 9.71075e-13
4.99748e-13 9.71075e-13 -6.14202

-36.2155 -21.4394 -5.9542e-12
-21.4394 -6.79682 -1.84741e-13
-5.9542e-12 -1.84741e-13 -13.0432

15.034 14.6504 -1.50398e-13
14.6504 -37.7522 -1.11422e-12
-1.50398e-13 -1.11422e-12 -8.17909

44.5733 -14.5728 4.73932e-12
-14.5728 -8.27261 6.23368e-12
4.73932e-12 6.23368e-12 -4.41889

-21.2311 24.0471 3.84374e-12
24.0471 4.95548 7.11135e-12
3.84374e-12 7.11135e-12 -5.97677

17.3733 20.4282 -2.95704e-12
20.4282 -26.793 -6.86088e-12
-2.95704e-12 -6.86088e-12 -6.95181

-51.1397 11.4002 3.66388e-12
11.4002 7.71028 -9.25778e-13
3.66388e-12 -9.25778e-13 -29.9934

-7.28732 -31.5806 -1.4122e-13
-31.5806 -12.8269 1.13272e-12
-1.4122e-13 1.13272e-12 -8.11942

2.79635 19.8123 5.59552e-13
19.8123 -46.0329 -3.75788e-12
5.59552e-13 -3.75788e-12 -29.9853

-24.6715 -18.4438 5.17097e-12
-18.4438 17.8362 5.20709e-12
5.17097e-12 5.20709e-12 -5.48047

-42.3409 4.28336 1.31408e-12
4.28336 17.8694 5.03597e-12
1.31408e-12 5.03597e-12 -12.7283

-4.09804 9.92699 1.40865e-12
9.92699 -40.2751 4.26207e-12
1.40865e-12 4.26207e-12 -47.547

-2.68832 -8.51365 -6.94408e-12
-8.51365 -38.3063 -5.57243e-12
-6.94408e-12 -5.57243e-12 -47.4027

81.7243 18.5128 6.987e-13
18.5128 1.69982 1.3524e-12
6.987e-13 1.3524e-12 -14.4532

3.89498 7.96519 -1.70886e-12
7.96519 -45.1836 7.68126e-13
-1.70886e-12 7.68126e-13 -11.0185

35.8729 7.74071 -8.89896e-12
7.74071 184.576 -8.28967e-13
-8.89896e-12 -8.28967e-13 -9.75639

40.1465 -11.3854 -5.30949e-12
-11.3854 190.374 2.269e-12
-5.30949e-12 2.269e-12 -7.38818

53.7661 56.4076 8.05992e-12
56.4076 159.257 -6.47541e-12
8.05992e-12 -6.47541e-12 -11.4991

1.70865 -28.9508 -4.31122e-12
-28.9508 -24.691 1.29171e-12
-4.31122e-12 1.29171e-12 -11.963

16.0495 -49.1914 8.86757e-12
-49.1914 99.4207 1.75978e-12
8.86757e-12 1.75978e-12 -21.689

54.5139 -55.9501 -8.36072e-13
-55.9501 149.975 -2.72375e-12
-8.36072e-13 -2.72375e-12 -13.664

-2.16609 26.2207 -4.96314e-12
26.2207 17.5727 -4.37043e-12
-4.96314e-12 -4.37043e-12 -3.99629

134.941 73.8447 8.52651e-14
73.8447 85.0262 3.65219e-12
8.52651e-14 3.65219e-12 -10.1582

-18.7203 13.047 -3.1033e-12
13.047 -3.89988 -8.08538e-13
-3.1033e-12 -8.08538e-13 -26.7689

3.741 0.0399305 -2.79377e-12
0.0399305 -26.1891 -1.65024e-12
-2.79377e-12 -1.65024e-12 -26.7722

144.099 -73.1301 -6.30962e-12
-73.1301 85.3537 9.54496e-13
-6.30962e-12 9.54496e-13 -8.1954

-21.3935 -23.4244 2.39808e-14
-23.4244 12.248 -4.67715e-12
2.39808e-14 -4.67715e-12 -6.49155

89.3477 34.7298 -5.38591e-12
34.7298 41.3905 5.35986e-12
-5.38591e-12 5.35986e-12 -11.5478

72.1884 63.4916 2.33769e-12
63.4916 149.695 -1.80478e-12
2.33769e-12 -1.80478e-12 -9.67277

26.1648 21.6306 8.19374e-12
21.6306 100.135 2.85164e-12
8.19374e-12 2.85164e-12 -13.0313

73.8752 -65.9205 7.1528e-12
-65.9205 151.146 4.26326e-14
7.1528e-12 4.26326e-14 -9.40129

25.7693 -12.3813 -7.12082e-12
-12.3813 105.014 -4.86011e-12
-7.12082e-12 -4.86011e-12 -12.4283

-28.6639 6.84122 -8.06274e-12
6.84122 3.10703 -2.63375e-12
-8.06274e-12 -2.63375e-12 -37.8523

37.7433 -45.9757 2.67046e-12
-45.9757 49.6699 -2.61953e-12
2.67046e-12 -2.61953e-12 -15.5325

14.4441 47.5327 3.72324e-12
47.5327 94.8811 2.82559e-12
3.72324e-12 2.82559e-12 -22.1922

173.341 37.9119 1.80478e-12
37.9119 48.0426 -7.70347e-13
1.80478e-12 -7.70347e-13 -9.52143

7.02057 -29.2861 1.58392e-12
-29.2861 -14.3587 5.36815e-12
1.58392e-12 5.36815e-12 -7.15636

-38.4179 12.8966 8.47026e-13
12.8966 6.4354 -1.63366e-12
8.47026e-13 -1.63366e-12 -15.2906

88.506 -38.1131 -1.26003e-12
-38.1131 34.1633 -4.36273e-12
-1.26003e-12 -4.36273e-12 -14.0995

6.04167 -28.8026 -1.2097e-12
-28.8026 -16.1723 -1.33434e-12
-1.2097e-12 -1.33434e-12 -8.03021

169.207 -36.3437 8.2423e-13
-36.3437 34.9298 9.09139e-12
8.2423e-13 9.09139e-12 -13.2893

-5.72529 -28.3178 -1.7284e-12
-28.3178 -14.4732 2.07834e-13
-1.7284e-12 2.07834e-13 -9.30973

-17.7911 -25.2954 -2.70894e-13
-25.2954 12.0802 -8.24762e-12
-2.70894e-13 -8.24762e-12 -5.93469

118.877 69.4611 3.78956e-14
69.4611 96.2203 4.73695e-15
3.78956e-14 4.73695e-15 -11.3994

29.4133 -22.9332 4.86485e-12
-22.9332 97.7976 -5.26749e-12
4.86485e-12 -5.26749e-12 -14.3399

117.96 -71.6932 9.4739e-15
-71.6932 93.6817 -1.76451e-12
9.4739e-15 -1.76451e-12 -12.4154

22.265 50.7382 2.64796e-12
50.7382 73.7795 -9.95233e-12
2.64796e-12 -9.95233e-12 -24.7773

-1.53658 -30.2127 6.38245e-12
-30.2127 -6.55289 3.74071e-12
6.38245e-12 3.74071e-12 -6.99828

-7.04467 -14.6405 2.43361e-13
-14.6405 -21.9196 -6.62877e-13
2.43361e-13 -6.62877e-13 -32.6133

-11.8919 11.0921 3.53229e-12
11.0921 -16.4297 -3.91539e-13
3.53229e-12 -3.91539e-13 -77.7905

-26.1676 -5.16009 -3.17317e-12
-5.16009 -6.38731 -1.81383e-12
-3.17317e-12 -1.81383e-12 -77.6242

-38.9418 13.0837 5.63631e-12
13.0837 13.7444 -2.94046e-12
5.63631e-12 -2.94046e-12 -10.2391

-14.4803 -10.6664 -5.9243e-12
-10.6664 -17.3171 -5.39835e-12
-5.9243e-12 -5.39835e-12 -78.7532

-25.9014 4.09189 -5.33307e-12
4.09189 -5.91379 9.33923e-12
-5.33307e-12 9.33923e-12 -78.8954

-3.63344 7.43341 1.15287e-11
7.43341 -27.8595 1.13761e-12
1.15287e-11 1.13761e-12 -77.9827

-43.9739 -12.1145 3.94329e-12
-12.1145 2.91624 -1.574e-12
3.94329e-12 -1.574e-12 -68.1549

11.9736 -30.4708 3.5012e-12
-30.4708 76.1644 -3.43429e-12
3.5012e-12 -3.43429e-12 -14.7011

0.521547 -12.9721 -6.78864e-13
-12.9721 -39.99 4.24253e-13
-6.78864e-13 4.24253e-13 -45.2753

-16.3487 -34.4173 -5.47414e-13
-34.4173 -22.069 8.3622e-13
-5.47414e-13 8.3622e-13 -23.5897

-2.42087 -18.177 6.9423e-12
-18.177 -29.8948 -1.20555e-12
6.9423e-12 -1.20555e-12 -33.6255

12.7381 15.4595 3.61489e-12
15.4595 -37.7168 -6.23975e-12
3.61489e-12 -6.23975e-12 -9.6256

-46.9071 9.86379 -1.09559e-11
9.86379 8.87724 6.22983e-12
-1.09559e-11 6.22983e-12 -70.1505

3.46234 19.227 -3.20396e-12
19.227 -41.4707 5.38958e-12
-3.20396e-12 5.38958e-12 -70.2664

1.47194 11.3068 -1.61056e-13
11.3068 -23.9648 -2.97999e-12
-1.61056e-13 -2.97999e-12 -31.8668

109.394 -15.3398 -8.28967e-14
-15.3398 -12.5355 3.58587e-12
-8.28967e-14 3.58587e-12 -25.0369

-14.321 24.9646 -4.12322e-12
24.9646 10.3861 -3.5835e-12
-4.12322e-12 -3.5835e-12 -5.80519

76.6085 -61.3559 -5.35276e-12
-61.3559 37.3663 -3.40824e-12
-5.35276e-12 -3.40824e-12 -22.3949

76.1155 -57.4583 -3.63798e-12
-57.4583 99.2302 3.2306e-12
-3.63798e-12 3.2306e-12 -5.55485

118.198 -36.5448 3.07428e-12
-36.5448 40.6016 -8.92915e-13
3.07428e-12 -8.92915e-13 -7.37817

-51.1126 -5.15889 4.51417e-12
-5.15889 3.34041 -3.7074e-12
4.51417e-12 -3.7074e-12 -60.6576

-50.4766 2.89127 -4.05098e-12
2.89127 3.13468 -1.52056e-12
-4.05098e-12 -1.52056e-12 -60.1302

-11.9754 -24.4554 -2.97747e-12
-24.4554 -35.0022 9.72555e-14
-2.97747e-12 9.72555e-14 -59.1644

-8.99167 -21.7596 4.32543e-13
-21.7596 -37.8871 -1.98982e-12
4.32543e-13 -1.98982e-12 -59.474

-14.7024 26.135 -1.94333e-12
26.135 -33.0266 -2.62464e-12
-1.94333e-12 -2.62464e-12 -60.7488

-18.1567 3.09885 1.05202e-11
3.09885 -13.1641 6.12636e-12
1.05202e-11 6.12636e-12 -75.475

-9.94497 -20.5082 -4.959e-12
-20.5082 -32.6497 3.72021e-12
-4.959e-12 3.72021e-12 -56.7349

-26.6472 -18.5678 1.856e-12
-18.5678 -14.1958 2.71383e-12
1.856e-12 2.71383e-12 -71.2692

-15.478 2.43407 1.04327e-11
2.43407 -12.8523 6.18409e-12
1.04327e-11 6.18409e-12 -77.8694

-6.02739 -20.5255 5.33965e-12
-20.5255 -41.486 2.51058e-12
5.33965e-12 2.51058e-12 -60.505

-6.75665 20.955 5.50079e-12
20.955 -40.1423 -2.04844e-12
5.50079e-12 -2.04844e-12 -60.0161

-14.3153 -3.45806 1.35891e-13
-3.45806 -11.39 7.31963e-12
1.35891e-13 7.31963e-12 -76.8839

-11.2635 -3.11654 2.0572e-11
-3.11654 -17.6885 -4.1019e-11
2.0572e-11 -4.1019e-11 -74.0469

-24.2029 12.1097 -1.18994e-11
12.1097 -13.4006 2.83586e-11
-1.18994e-11 2.83586e-11 -69.9654

-22.0819 26.9289 1.65823e-12
26.9289 -26.2665 -6.26652e-12
1.65823e-12 -6.26652e-12 -57.5804

VECTORS fluid_flux_TPM float
-8.72192e-05 3.10284e-05 5.91504e-21
3.5595e-06 6.88247e-06 1.19938e-20
-1.27872e-05 -1.02254e-05 -3.44608e-21
-4.17052e-06 4.25397e-06 2.71363e-21
2.27075e-05 -6.31323e-06 -2.6994e-21
2.75756e-06 -1.59034e-05 1.6517e-20
-8.57951e-05 -3.10931e-05 1.85482e-20
-1.38922e-05 -1.04666e-05 -8.5747e-21
2.21216e-05 9.45511e-07 -1.3657e-20
1.13839e-05 -3.90805e-06 2.48843e-20
5.46005e-05 1.2484e-05 -1.51722e-20
2.34685e-06 -1.71939e-05 -3.77318e-21
1.36114e-05 1.12537e-05 -7.49634e-21
2.66206e-06 1.37844e-05 -4.80241e-21
2.05808e-05 -2.94662e-06 5.32567e-21
-1.63322e-05 -2.72895e-07 -7.87745e-21
2.7535e-06 1.40987e-05 -2.74816e-21
1.01817e-05 -2.39186e-06 -4.95098e-21
9.89854e-06 1.72226e-05 1.15187e-20
-1.48483e-05 1.88545e-06 -3.00436e-20
-3.60114e-06 -2.13039e-05 4.38102e-21
3.41113e-05 5.94181e-05 -2.00935e-21
1.56974e-05 1.63129e-06 7.7986e-21
1.12273e-05 -1.12814e-05 -1.36236e-20
-1.50783e-05 -3.33239e-06 2.0515e-21
-6.77213e-07 -1.11308e-05 -2.0006e-21
6.29042e-05 -4.90852e-06 -6.77268e-22
1.4066e-05 1.02488e-05 9.20165e-21
-2.51498e-05 -2.0643e-05 -1.15424e-20
4.91209e-05 -1.28141e-05 -3.63677e-21
-1.65825e-05 -6.03834e-06 -2.79095e-21
5.53719e-06 -3.20373e-05 6.592e-21
4.76554e-05 -4.80483e-05 -8.20303e-21
-4.92346e-06 -4.12487e-05 -1.66183e-20
-2.9674e-05 3.70062e-05 7.58975e-21
-3.82484e-05 -1.63955e-05 -4.35528e-21
3.27034e-05 4.32166e-05 2.77489e-21
-4.47419e-05 -8.72609e-06 -2.91036e-21
1.43747e-05 -1.1082e-05 1.96396e-20
4.64712e-05 5.01164e-05 -1.10897e-21
3.21302e-05 -1.40224e-05 9.80797e-21
3.36409e-05 -4.23446e-05 -1.37118e-20
-1.9897e-05 -5.03798e-05 -9.92984e-21
-1.58983e-05 6.35692e-06 -4.85428e-21
3.05262e-05 -2.93151e-05 1.0441e-20
-3.03334e-05 1.09906e-05 -9.41175e-21
-4.05031e-06 -2.03712e-05 2.23993e-20
7.88635e-06 2.02124e-05 1.69657e-20
-1.6343e-05 5.92802e-06 7.37446e-21
-1.78204e-05 2.87267e-05 1.15227e-20
3.24097e-05 1.52914e-05 2.50716e-21
2.93661e-05 -1.00755e-05 3.17201e-21
-1.56669e-05 1.5761e-05 1.24695e-20
-2.35421e-05 -2.06911e-05 4.71936e-21
-2.11407e-05 -5.13265e-06 -1.58867e-20
-4.47934e-05 2.70772e-05 1.47881e-20
-2.93732e-05 -3.80247e-05 -8.93972e-21
6.36374e-06 -3.06292e-05 1.49175e-20
-4.771e-05 6.48318e-06 -8.79965e-21
6.0744e-06 1.36977e-05 -3.81955e-21
-5.5771e-06 -8.17388e-06 -3.6104e-21
-6.5839e-06 -1.79446e-05 -6.90015e-22
5.71472e-05 2.48611e-05 -1.14399e-20
9.24338e-06 1.81453e-05 -1.63615e-21
1.22972e-05 -1.44458e-05 7.98534e-21
-1.64068e-06 -2.07538e-05 -5.81227e-21
4.62138e-06 -8.80608e-06 -3.48975e-21
-1.00911e-05 -5.56524e-06 -9.72554e-21
-1.06033e-05 1.19301e-05 1.59474e-20
2.55836e-06 -4.09286e-06 1.02191e-20
-1.50444e-05 -1.58442e-05 -1.7616e-20
-2.13663e-05 5.16626e-06 6.28551e-21
-3.55702e-06 3.44837e-05 8.37189e-21
-1.7873e-05 1.07116e-05 -4.93219e-21
-9.0714e-06 1.46156e-05 1.09409e-20
-6.0359e-05 7.69269e-06 3.59978e-21
7.81859e-06 -2.1683e-05 4.5884e-21
-1.88814e-05 -8.90069e-06 -2.64187e-20
1.93386e-06 1.16248e-05 1.28112e-20
2.63028e-05 5.08999e-06 -8.56076e-21
3.41714e-05 -2.89771e-05 1.63072e-21
2.21479e-05 2.05576e-05 3.35788e-21
1.19093e-05 -2.82253e-06 -1.18944e-20
-3.2156e-05 2.40689e-05 1.61623e-20
3.7907e-05 4.8462e-06 -2.39622e-21
-4.98112e-06 4.94182e-05 -2.34801e-21
-1.74122e-06 -1.68583e-05 1.21992e-21
1.81252e-05 9.95536e-06 -1.52705e-21
2.93196e-05 3.02879e-05 -1.2591e-20
5.50287e-05 3.80161e-05 2.18587e-20
-5.3317e-06 3.07751e-05 -3.68617e-21
5.9184e-05 -3.5515e-05 -3.0458e-20
-2.71268e-05 5.34157e-06 4.6939e-21
1.78406e-05 1.10026e-05 -4.27979e-21
-2.96433e-05 9.90406e-06 -1.50825e-21
1.66543e-05 2.85233e-05 -9.80525e-21
1.01696e-05 -4.43899e-05 8.62412e-21
1.91562e-06 1.16217e-05 1.73744e-22
-1.48018e-05 -1.76214e-05 -3.76168e-21
3.07013e-06 1.7476e-05 2.05564e-20
2.64088e-05 5.25786e-06 -8.40524e-21
-1.54444e-05 3.32136e-05 6.15151e-21
4.05552e-05 -1.33341e-05 1.21784e-20
-3.77334e-06 7.45559e-06 1.00696e-20
9.95358e-06 5.89974e-06 4.50806e-21
-2.28074e-06 -1.13254e-05 2.48897e-21
3.22091e-06 -1.92533e-05 2.41865e-21
1.74706e-05 3.89237e-06 -8.11208e-21
-7.93773e-06 4.09756e-05 -4.81486e-21
-9.80633e-06 2.47949e-07 4.93037e-21
9.31921e-06 1.18866e-05 -2.93705e-21
-2.17741e-06 -4.1717e-05 -5.36419e-21
4.20261e-05 1.28659e-05 4.61992e-21
4.42289e-06 -7.45374e-06 -5.19503e-21
-1.1146e-05 -3.5539e-06 -1.15952e-20
-2.93278e-05 -1.24869e-05 4.97796e-21
1.58049e-05 4.11503e-05 -7.64312e-21
-4.34882e-05 -1.5575e-05 1.76614e-20
1.60197e-05 -4.11268e-05 4.45926e-21
-3.70005e-06 -3.19225e-05 2.56498e-20
2.18405e-05 6.52215e-07 -9.03491e-21
-7.17201e-06 1.8398e-05 1.04045e-21
-1.6113e-06 3.96985e-06 1.78895e-20
-3.68623e-06 -1.65399e-05 -1.08248e-20
5.23037e-06 -8.3027e-06 3.0415e-20
9.36018e-06 1.58647e-05 1.19962e-20
3.31036e-05 1.06532e-05 1.6614e-20
8.6161e-06 -7.45858e-06 5.0492e-21
-8.27149e-06 -4.51633e-05 2.08244e-20
2.5554e-05 -1.88212e-05 1.22312e-20
4.97829e-06 2.77733e-05 1.39792e-21
-2.81654e-06 -2.84181e-06 -2.44105e-20
-8.62687e-06 -8.32644e-06 -1.60289e-20
-4.77701e-06 4.41237e-08 -1.0612e-20
-2.28743e-05 2.85962e-05 3.63312e-21
1.87644e-05 -3.73777e-05 -6.10814e-21
-2.65819e-05 4.27176e-05 1.33689e-20
-1.63729e-05 9.53594e-06 -4.39135e-21
2.52813e-06 1.21997e-05 -4.16321e-20
-2.29884e-05 -3.49918e-05 -1.21772e-20
1.39371e-05 3.34684e-05 -2.28356e-20
1.7509e-05 9.36986e-06 -4.42196e-21
2.28131e-05 -8.52324e-06 -1.34975e-20
-1.25327e-06 -1.12662e-05 1.00644e-20
-3.3914e-05 -3.15602e-05 -1.47854e-21
-2.75166e-06 1.13041e-05 1.13086e-20
1.72479e-05 1.01724e-05 -4.98463e-21
1.88887e-05 -8.82144e-06 -6.02084e-21
8.24374e-06 -1.43458e-05 -7.03796e-21
2.43586e-05 -1.07961e-05 1.81213e-20
1.90108e-05 -8.99847e-06 4.6084e-21
4.64095e-06 2.05819e-07 -2.01289e-20
2.57424e-05 2.02225e-05 1.07645e-20
-2.7418e-06 -1.70311e-05 3.78681e-21
-1.04805e-05 -4.4573e-06 2.71241e-21
1.12593e-06 -3.89034e-06 -3.56099e-21
-3.15526e-06 1.5848e-05 1.16925e-20
-3.48857e-05 2.7683e-06 -1.34241e-20
-1.21223e-05 -3.32604e-05 1.28408e-20
-7.87959e-06 9.77966e-06 4.09303e-21
1.35661e-05 1.66414e-05 -7.16067e-22
2.65703e-05 -1.87459e-05 -1.42124e-21
-3.67947e-05 -2.03521e-05 2.36977e-20
1.74042e-05 -2.75094e-05 4.7136e-21
2.28054e-05 -2.72183e-05 1.61999e-20
-1.09451e-05 3.78517e-06 -1.36976e-20
-1.98302e-05 -2.88421e-05 -5.00222e-21
-3.48821e-05 -5.79179e-06 3.05711e-20
-3.85265e-06 -3.17447e-05 1.13629e-20
1.54487e-05 -3.17012e-05 8.27881e-21
-9.10673e-06 -2.62012e-05 -2.49035e-20
4.58153e-06 3.14074e-05 2.02364e-21
-1.57534e-05 -2.85239e-05 1.98117e-21
2.93901e-06 -1.62933e-05 -7.42118e-21
-2.47409e-05 1.82611e-05 2.63835e-20
-1.50318e-05 -1.21119e-05 -9.42115e-21
-2.73546e-05 -5.17277e-06 -9.49541e-21
1.56691e-05 -9.18218e-06 1.19114e-21
-4.3072e-06 2.39541e-05 1.77542e-20
1.22334e-05 -9.3251e-06 1.74547e-20
-2.95878e-05 -1.31651e-05 9.97047e-21
-8.83224e-06 -7.45859e-06 -8.87272e-21
9.0827e-06 7.54134e-06 -2.24371e-21
2.14282e-05 2.87026e-05 -4.78211e-21
-1.751e-05 -1.081e-05 -1.51206e-20
-3.25084e-05 -7.51119e-07 -9.24738e-23
-1.63378e-05 -5.0165e-06 -1.1817e-20
-4.57842e-06 -1.65844e-05 -6.18244e-21
1.76859e-05 2.12406e-05 -9.57941e-21
-1.09581e-05 5.87516e-06 -9.48177e-21
6.36095e-07 -2.05567e-05 1.22494e-20
-4.19426e-05 1.08516e-05 -6.59595e-21
2.48622e-05 2.02477e-05 -3.12058e-25
3.79478e-06 3.27876e-05 -1.57409e-20
-2.43214e-06 3.79746e-06 -2.29963e-20
-9.05153e-06 2.51221e-07 -3.38996e-20
4.35539e-06 7.76062e-06 2.06522e-20
-1.16947e-05 3.40169e-06 -1.52683e-20
-2.07351e-06 -3.78518e-06 -1.82123e-20
1.65991e-06 2.07613e-05 8.23722e-22
4.47271e-06 4.49727e-07 -6.91244e-21
-1.95395e-05 4.75698e-06 -9.0813e-21
-1.72996e-05 1.93594e-05 2.00668e-20
-3.10766e-06 1.1579e-05 -5.93608e-22
-2.9219e-05 1.83956e-05 2.1478e-20
-9.34403e-06 8.97996e-06 2.13173e-20
1.73124e-05 -1.16146e-05 1.78273e-22
3.66068e-05 -3.56494e-06 5.77376e-21
-2.11422e-05 1.12981e-05 -8.48133e-21
2.23316e-06 4.49856e-06 -1.06429e-20
2.17769e-05 -4.3452e-06 9.53968e-21
-1.72801e-05 1.03536e-05 -5.01446e-22
-9.87249e-06 5.53943e-06 -2.97353e-20
1.18323e-05 3.74296e-06 4.7233e-21
2.18814e-05 -1.34721e-05 1.14293e-20
-1.73812e-05 9.95683e-06 2.01391e-21
-2.50387e-05 -5.30343e-06 8.20302e-21
-1.67629e-05 -4.36279e-06 -9.61789e-21
9.87693e-06 6.2436e-09 -2.24495e-21
1.01746e-05 1.9537e-07 -9.39477e-21
4.39109e-06 8.31777e-06 6.68236e-21
4.82991e-06 -8.7984e-06 -1.34811e-20
-5.01071e-06 8.42044e-06 -1.17555e-20
-5.26705e-06 -8.65822e-06 -1.12444e-20
9.91172e-06 -7.40854e-06 7.3701e-22
-2.03289e-05 3.23514e-06 -2.10645e-20
-2.00613e-05 -3.28397e-06 2.74078e-22
-1.28357e-05 1.58776e-05 1.92482e-20
-1.29155e-05 -1.59319e-05 -2.2145e-20
7.4868e-06 -1.98451e-05 6.96734e-21
7.20652e-06 1.97652e-05 -2.72003e-20
1.55792e-06 2.58869e-05 -2.35662e-20
1.12413e-05 -3.13705e-06 -1.49321e-20
2.36008e-06 -3.8668e-06 -3.15922e-20
-2.14129e-05 1.42179e-06 -1.25195e-20
7.67772e-06 -1.95144e-05 1.96331e-21
7.27394e-06 1.96629e-05 -3.51756e-20
4.76913e-06 -5.27173e-08 2.12057e-20
8.96883e-06 2.44048e-05 -7.82436e-21
-2.24244e-06 -4.01661e-06 -2.95891e-21
2.31792e-06 -1.13178e-05 -3.18475e-21
-2.24319e-05 -1.21524e-05 9.05127e-21
-2.13594e-05 -1.14953e-05 -8.52924e-21
-2.1894e-05 1.36294e-05 -1.11195e-20
3.25145e-06 -1.22884e-05 1.11719e-20
-1.56542e-06 3.38218e-06 1.92252e-20
-5.87365e-07 -2.55705e-05 1.91036e-20
-7.72065e-06 -2.44242e-05 1.311e-20
3.27057e-05 3.03641e-05 7.74433e-21
3.5455e-05 -1.81528e-06 -2.10724e-20
-1.27117e-05 -3.63236e-06 3.59827e-21
-2.28937e-05 -4.1388e-05 6.26629e-22
8.30465e-06 1.37486e-05 6.52867e-21
-2.52369e-05 3.03345e-06 -2.03851e-20
2.00661e-05 5.78667e-06 4.15698e-21
-4.53334e-06 -3.27427e-08 -1.64679e-20
-4.6654e-06 -8.41313e-06 -7.83318e-21
-7.07322e-06 -3.93345e-05 -8.02961e-21
-9.70878e-06 -8.39235e-08 -1.47678e-20
-4.86764e-05 -1.8158e-06 1.65431e-20
1.73095e-05 -1.91061e-05 1.26817e-20
2.42946e-06 3.99925e-06 1.00878e-20
-1.20632e-07 -1.75144e-05 -7.45784e-23
-9.81883e-06 2.40849e-05 9.74158e-21
-4.37223e-06 8.62776e-06 1.71443e-20
2.0557e-05 -1.36066e-05 2.85187e-20
-3.76603e-05 -1.35519e-05 -1.45928e-20
-1.52663e-05 -2.03665e-05 -6.86061e-21
4.97725e-06 8.38936e-06 -2.30481e-20
1.66317e-05 5.16075e-06 -8.49922e-21
-4.76403e-06 -7.33853e-06 1.44934e-20
1.97971e-05 3.5473e-06 -8.29149e-22
1.81889e-05 -9.82603e-06 5.72163e-21
-3.48823e-07 2.71733e-05 2.67794e-20
8.32054e-06 -1.3667e-05 -1.63436e-21
4.88046e-05 2.20062e-06 -7.27322e-21
-4.23573e-05 1.14535e-05 -1.96866e-20
2.28601e-05 1.15562e-05 -3.21963e-21
-6.45293e-06 -1.71792e-05 1.50042e-20
-1.53498e-05 -8.61812e-06 -2.25791e-20
2.87872e-05 -2.10543e-07 -5.91263e-21
-6.91966e-07 -2.42548e-05 -8.99913e-21
-1.26173e-05 -1.08739e-05 -2.15826e-20
1.02238e-05 -2.34994e-05 3.95993e-21
-4.9659e-07 2.05551e-05 -1.2591e-20
7.91761e-06 2.60674e-05 -1.5227e-20
1.72677e-05 -9.88412e-06 2.72063e-20
-1.89476e-05 1.92982e-05 -1.30391e-21
1.65275e-05 2.00291e-05 -1.4279e-21
-6.22294e-05 1.60216e-05 -1.51673e-21
-1.01089e-05 2.60157e-05 2.1153e-20
1.25188e-05 -1.5248e-05 4.21944e-21
-7.02895e-06 -1.83974e-05 8.24395e-21
-1.18533e-05 4.50559e-06 5.08619e-21
-2.58928e-05 -7.04566e-06 2.70471e-20
-6.38599e-06 3.88571e-05 2.43408e-20
-1.26056e-05 1.19022e-05 -1.82451e-20
2.07762e-05 -4.47551e-06 -1.00457e-20
-6.87231e-06 -2.57936e-05 3.42636e-20
-1.48685e-05 2.38905e-05 5.98174e-21
-2.17885e-05 1.25645e-05 -1.9263e-21
-2.05691e-05 -1.50551e-05 2.39196e-21
1.80282e-05 -2.06546e-05 4.75029e-21
-2.75301e-05 -1.45622e-06 2.71816e-21
1.23669e-05 -4.08094e-05 -4.21419e-23
1.93858e-05 -1.89127e-05 6.15696e-21
2.47321e-05 4.3081e-05 -1.34408e-20
1.97109e-06 1.98661e-05 -1.87232e-21
2.96106e-06 -2.54207e-05 8.12147e-21
-4.16355e-05 4.69609e-05 -3.15382e-21
-1.27018e-05 -2.44111e-05 5.67584e-21
1.63665e-05 -6.4204e-06 4.84063e-21
-2.41082e-06 2.57717e-05 -8.76417e-21
1.28827e-05 -1.18262e-05 1.66756e-20
1.38803e-05 2.43125e-05 6.82423e-21
1.72295e-05 -1.40046e-06 -6.14211e-22
2.21197e-05 -6.32153e-05 -5.27355e-21
-5.87599e-06 -1.28589e-05 1.34505e-20
-2.31839e-05 1.00869e-05 -1.07018e-21
-2.00195e-05 1.87186e-05 -1.61496e-21
2.16119e-05 1.45673e-05 -1.25886e-20
1.86722e-05 -1.07564e-05 5.23777e-21
1.49516e-05 1.25932e-05 -3.03894e-21
-5.42801e-06 4.55182e-08 -5.62612e-21
1.54033e-05 -2.30868e-05 1.61935e-20
-1.69899e-05 -2.04088e-05 6.14271e-21
2.25614e-05 9.77351e-06 6.18425e-21
1.28064e-05 -1.19895e-05 -3.65281e-21
9.55375e-06 -2.48512e-05 3.88869e-21
1.66588e-05 -6.93274e-06 -2.17154e-20
-1.58051e-05 -7.54447e-06 -1.84273e-20
1.29683e-06 -2.63024e-05 -2.60236e-20
-2.61062e-05 4.47299e-06 -1.35093e-20
2.39037e-06 2.45423e-05 -5.92503e-21
2.05845e-05 6.62732e-06 -2.6345e-21
-2.172e-05 -1.07016e-05 2.66996e-21
-8.97701e-06 2.56095e-05 -2.90219e-21
-1.49534e-06 -2.41875e-05 1.39307e-20
1.9466e-05 1.18372e-05 -4.94554e-21
-1.76892e-06 1.80844e-05 1.32454e-21
-2.01384e-05 1.37024e-05 2.11366e-21
2.35105e-05 1.1415e-05 -1.41124e-21
-1.71149e-05 -9.98546e-06 -1.61038e-20
9.5112e-08 -1.98344e-05 -1.21945e-20
1.83821e-05 1.9984e-05 7.03402e-21
-2.21535e-05 -1.43034e-05 -6.54927e-21
4.83505e-05 -3.39818e-05 -1.49348e-20
1.78968e-05 -1.08224e-05 7.62277e-21
9.00185e-06 4.30868e-05 -1.89578e-20
1.7034e-05 -1.36785e-05 1.7307e-20
-1.98744e-05 8.70354e-05 7.30262e-21
-1.97646e-05 -8.65496e-05 -2.09244e-21
5.71845e-05 7.17173e-05 4.28311e-21
5.6922e-05 -7.1391e-05 -1.3512e-20
9.06471e-05 -1.55169e-10 -1.1854e-20
-7.82011e-05 3.7639e-05 -1.15293e-21
-7.74555e-05 -3.72831e-05 7.53212e-21
1.22339e-05 1.18187e-05 -2.18903e-20
2.93681e-05 2.18925e-05 -8.44315e-21
1.14482e-05 3.33284e-06 1.49671e-21
1.88558e-05 9.75157e-06 5.90259e-22
4.98929e-06 2.01703e-05 5.84502e-21
-1.8832e-05 -1.49805e-05 -2.00098e-20
1.70381e-05 -1.02143e-05 -6.18152e-21
1.98528e-05 1.45495e-05 -1.16543e-20
-3.16695e-06 2.43643e-05 1.71108e-21
2.94409e-05 -1.9993e-05 -4.40497e-21
3.79396e-06 -2.37401e-05 1.56727e-20
2.19611e-05 5.2271e-06 -7.88199e-21
2.98962e-05 1.10261e-05 -1.19812e-21
1.42089e-05 1.4144e-05 1.07645e-22
1.58834e-05 6.59377e-06 -1.07351e-20
-1.8499e-05 1.09367e-05 1.03052e-20
-2.25635e-05 9.03677e-06 -8.66051e-21
2.29298e-05 -1.12636e-05 1.85261e-20
-1.82681e-05 -9.99816e-06 -1.87498e-20
-1.85547e-05 -1.05826e-05 -2.08686e-20
-3.43846e-07 -2.07681e-05 2.41052e-20
-8.61326e-08 -2.11611e-05 1.42239e-20
-2.01274e-05 -1.00549e-06 -6.41254e-21
2.66995e-05 -4.01922e-06 -6.18183e-21
1.81124e-05 1.13423e-05 -7.49119e-21
-1.78645e-05 1.09453e-05 -2.91008e-21
-1.53617e-05 1.66239e-05 -1.58601e-20
1.60224e-05 -1.37535e-05 7.70341e-21
-1.10237e-05 1.74637e-05 2.29838e-20
-1.42252e-05 -1.48899e-05 -6.32038e-21
-1.15525e-06 2.12111e-05 1.47484e-20
-1.28769e-06 2.09687e-05 8.10421e-21
8.97372e-08 -1.98344e-05 1.52934e-20
6.11097e-06 -1.97377e-05 -9.64366e-22
-1.71413e-05 -9.9357e-06 -1.93489e-20
1.55871e-05 -5.4904e-06 1.00402e-20
6.63194e-07 2.14783e-05 1.75632e-20
3.00861e-07 1.85079e-05 -6.7948e-21
-2.34579e-06 1.68577e-05 1.60588e-21
2.19093e-05 -5.52754e-06 -1.13832e-20
-1.65417e-05 5.37821e-06 8.0127e-22
4.15758e-06 2.1518e-05 -1.49367e-21
-3.25592e-05 1.29196e-05 -4.41013e-21
9.76366e-06 4.17326e-05 -2.92732e-20
-1.70539e-05 4.56826e-06 -9.83556e-21
1.9685e-05 -1.16304e-05 6.72056e-21
9.45812e-07 2.10201e-05 5.92689e-21
-2.04818e-05 6.69962e-06 -2.9675e-20
2.44418e-06 -1.62629e-05 1.00848e-20
1.81935e-06 -5.80143e-05 -5.9872e-21
2.00654e-06 1.74868e-05 2.32221e-20
-1.69626e-05 1.4023e-05 1.09094e-20
1.78547e-05 6.39738e-05 -1.42366e-21
4.57707e-05 3.7708e-05 -2.26468e-21
5.20666e-05 -3.52568e-05 -1.35181e-21
1.48159e-05 -1.01675e-05 1.86558e-20
-1.5786e-05 1.40381e-05 9.66518e-21
-2.02176e-05 -7.92098e-06 -1.22785e-20
-1.96463e-05 -6.82266e-06 6.87334e-21
5.92691e-05 -2.46128e-05 -1.03834e-20
5.74357e-05 2.38718e-05 -8.6646e-22
1.08949e-05 3.81762e-06 -2.00878e-21
7.66674e-07 1.95801e-05 -6.62169e-21
7.83733e-08 1.95614e-05 7.18472e-21
-4.83847e-05 -3.69203e-05 1.78057e-20
1.14256e-05 -1.71726e-05 -2.38833e-21
1.17337e-05 1.24651e-05 -2.85272e-20
-2.1419e-05 -3.39588e-06 -9.96957e-21
-1.40456e-05 1.72028e-05 3.24325e-21
-1.88893e-05 9.16813e-06 -1.00517e-20
4.76453e-05 3.36956e-05 -1.16506e-21
1.58071e-05 7.06194e-06 -1.58619e-20
-5.56697e-06 2.00312e-05 -1.39625e-20
-1.69788e-05 -1.17497e-05 -2.65527e-20
1.85634e-06 -2.05437e-05 1.39419e-20
-8.9501e-06 -1.92681e-05 2.04269e-20
-1.72499e-05 -1.17741e-05 -1.41214e-20
1.058e-05 -1.89366e-05 3.30449e-21
1.41231e-05 -1.69901e-05 -3.30479e-21
-2.44041e-06 -6.14402e-05 -4.93764e-21
2.61814e-05 -4.11275e-05 3.40332e-21
1.74759e-06 -2.07865e-05 -6.94862e-22
1.79595e-05 1.13559e-05 3.79895e-21
-1.4477e-05 -1.4906e-05 1.01407e-21
-9.84152e-06 1.9711e-05 2.11155e-21
-5.03964e-06 2.10077e-05 7.0404e-21
1.6628e-05 1.42444e-05 7.18045e-21
6.0593e-06 -1.98623e-05 1.26116e-21
-1.34071e-05 -4.03599e-05 5.49151e-21
-1.98847e-06 2.50417e-05 1.62724e-20
1.47926e-05 1.44558e-05 8.5935e-21
-1.29589e-05 -1.02172e-05 -3.04708e-20
-1.35157e-05 1.06087e-05 -9.20923e-21
4.4345e-05 -1.89141e-05 -2.72998e-24
7.56343e-06 -1.34008e-05 -1.68335e-20
-8.31757e-06 -1.26276e-05 -2.24615e-21
2.13316e-05 6.36379e-06 1.46053e-20
1.09949e-05 -5.06645e-05 8.64382e-21
-3.84534e-05 -3.49047e-05 -3.65647e-21
2.33079e-05 6.2077e-06 2.98827e-21
-9.3287e-06 -1.82821e-05 5.44604e-21
1.87066e-05 9.48326e-06 1.71075e-21
-2.85659e-05 -3.2553e-05 -2.20523e-21
9.68868e-06 5.00494e-05 6.44167e-21
3.43359e-05 -5.98628e-05 -1.92655e-20
-3.47389e-05 -5.97796e-05 -1.39334e-20
2.78099e-05 -5.20248e-05 -7.86075e-21
-1.26988e-05 4.36354e-05 7.71462e-21
-6.27639e-06 3.89794e-05 3.30353e-20
-1.87317e-05 8.94635e-06 -1.21511e-20
5.97752e-06 2.42434e-05 3.35514e-21
-2.39169e-06 1.26547e-05 9.36111e-21
1.01207e-05 3.2333e-06 -1.44491e-20
-3.18863e-06 1.62063e-05 2.27904e-20
-2.47458e-07 2.09928e-05 2.00074e-20
1.66614e-05 9.75107e-06 -5.35086e-21
1.71044e-06 5.77272e-05 4.74179e-21
-1.4718e-05 1.07332e-05 -1.14008e-20
1.59502e-05 -6.24692e-06 1.35708e-20
1.68727e-05 -4.50919e-06 -2.73728e-21
-6.06658e-05 -8.76933e-06 -7.70132e-23
-3.46074e-05 1.67423e-05 -1.15609e-20
-4.35168e-05 -5.2549e-05 -4.54627e-21
8.65696e-06 8.34611e-06 9.66065e-21
1.42106e-05 7.29291e-06 -1.90806e-20
2.68061e-05 -4.19607e-06 -5.57914e-21
-8.10478e-06 -1.32435e-05 1.17594e-20
1.72174e-05 8.42903e-06 -1.7412e-20
7.3357e-06 -3.00361e-05 -7.70067e-21
-1.37144e-05 1.02055e-05 -1.52804e-20
-2.23755e-05 -2.14234e-05 -9.82981e-21
-5.83626e-06 1.62985e-05 -9.03036e-21
-3.27115e-06 2.06796e-05 1.80413e-20
3.38514e-05 2.12975e-05 -1.58752e-20
3.6115e-05 -1.92838e-05 1.24634e-20
-4.20725e-05 -1.16236e-05 1.64806e-20
7.63455e-06 7.68611e-06 -3.43088e-20
-4.05861e-06 0.000101366 1.21814e-20
8.61934e-07 -0.000104473 -9.03946e-21
5.24569e-05 8.76491e-05 1.22863e-20
-1.91039e-05 8.45831e-06 2.85247e-21
-2.63777e-05 5.65523e-05 2.19864e-20
5.30353e-05 -8.46436e-05 -3.75258e-21
-1.17211e-05 -1.82832e-05 4.88761e-21
7.80036e-05 6.75007e-05 -2.27537e-20
2.39947e-05 -1.79777e-05 1.5804e-21
-3.6076e-06 -2.98235e-05 1.75854e-20
8.17825e-05 -6.58532e-05 -6.78179e-21
-6.74493e-06 1.4519e-05 1.11101e-20
-5.38347e-05 -3.48256e-05 1.55969e-20
-4.30152e-05 -9.31343e-05 -1.15239e-20
-2.41136e-05 -5.78069e-05 7.5979e-21
-4.39768e-05 9.41413e-05 4.65842e-21
-1.00937e-05 6.40868e-05 7.78647e-21
1.56335e-05 3.71099e-05 1.35124e-21
-2.79566e-05 3.72423e-05 1.62326e-20
-2.5274e-05 -5.5186e-05 5.42875e-21
0.00010037 1.73177e-05 -1.13529e-20
-1.69282e-05 1.07675e-05 -1.87719e-20
-5.91261e-06 1.63337e-05 1.69336e-20
-5.07604e-05 3.76415e-05 2.11821e-21
-1.7277e-05 9.94458e-06 -1.87447e-21
9.92071e-05 -1.5264e-05 8.97671e-22
-1.53609e-05 7.79906e-06 -9.88195e-21
7.19295e-06 -1.44956e-05 -9.03127e-21
-7.79729e-05 -6.09511e-05 1.08127e-20
-2.588e-05 5.77198e-05 1.17152e-20
-7.91259e-05 6.03783e-05 1.9733e-21
2.45414e-05 5.19525e-05 6.32401e-21
-1.47682e-05 1.05829e-05 -2.64269e-21
-2.05308e-05 2.44777e-05 -1.1054e-20
-2.85339e-05 4.98201e-05 -8.37945e-21
-5.67785e-05 2.08004e-07 -9.52179e-21
-9.4414e-07 1.62968e-05 1.50097e-20
-2.88509e-05 -5.04087e-05 -3.7958e-20
-5.82009e-05 -2.19826e-07 -1.6447e-20
-2.83508e-05 4.86984e-05 -3.24538e-21
-1.5191e-05 6.6269e-05 1.10325e-20
-1.78655e-05 4.12624e-05 -2.73243e-21
-3.39017e-05 2.71386e-05 -8.57863e-21
2.4384e-05 -6.0572e-06 6.79696e-21
3.80044e-05 -2.1954e-06 1.42791e-20
1.34829e-05 8.20067e-06 -1.90351e-20
-1.04696e-05 -7.39909e-05 -2.56365e-20
-6.9452e-05 -2.79754e-05 -1.78825e-20
3.71339e-05 7.32761e-07 -4.86976e-21
5.83687e-05 -1.08926e-05 -6.75511e-21
-1.05842e-05 -1.34977e-05 1.59064e-20
-5.0831e-05 3.76273e-05 2.39166e-20
-4.61356e-05 5.40025e-05 2.10105e-20
6.23654e-05 -2.22334e-05 -1.02206e-20
-2.81786e-05 -5.04993e-05 -1.96893e-20
-2.87783e-05 4.97817e-05 5.7741e-21
-5.7257e-05 -1.17121e-06 1.87993e-21
-2.65745e-05 5.06e-05 5.53878e-22
-5.79557e-05 -8.17045e-07 -1.93098e-20
6.6079e-05 1.73932e-05 -7.26261e-21
5.63827e-05 1.29257e-06 -1.90447e-21
5.09024e-05 -2.92752e-05 -1.3703e-20
2.49113e-05 -5.94298e-05 -1.49988e-20
2.99198e-05 -4.88589e-05 -1.19189e-20
2.91687e-05 4.86829e-05 7.12707e-22
2.43461e-05 5.80919e-05 3.25902e-20
7.58057e-05 -2.00385e-05 -2.0362e-20
4.62684e-05 2.90645e-05 -1.68972e-20
4.66263e-05 1.37461e-05 -6.6572e-21
TENSORS solid_stress_TPM float
375.037 -24.9206 -4.29168e-12
-24.9206 238.573 1.77636e-14
-4.29168e-12 1.77636e-14 197.821

457.012 -21.3204 -2.84935e-12
-21.3204 489.996 -7.39557e-13
-2.84935e-12 -7.39557e-13 487.118

454.886 28.0438 5.28585e-12
28.0438 463.716 -1.08121e-12
5.28585e-12 -1.08121e-12 458.466

455.037 -29.8426 7.03881e-13
-29.8426 482.618 -3.41297e-12
7.03881e-13 -3.41297e-12 484.865

527.692 19.9309 -3.07665e-12
19.9309 548.461 2.88488e-12
-3.07665e-12 2.88488e-12 527.363

437.318 -18.0748 -1.82698e-12
-18.0748 480.346 2.52835e-13
-1.82698e-12 2.52835e-13 458.047

372.332 26.4848 -4.38642e-12
26.4848 239.093 3.12284e-12
-4.38642e-12 3.12284e-12 197.805

473.66 29.9582 -1.65083e-12
29.9582 469.509 -1.32605e-12
-1.65083e-12 -1.32605e-12 472.345

471.556 5.48323 -2.51532e-12
5.48323 417.829 9.98942e-13
-2.51532e-12 9.98942e-13 432.802

504.267 -7.47759 1.58007e-12
-7.47759 444.12 -1.81936e-12
1.58007e-12 -1.81936e-12 483.459

360.298 16.3089 -1.79294e-12
16.3089 247.659 7.62649e-13
-1.79294e-12 7.62649e-13 233.648

444.789 -13.4534 -1.23531e-12
-13.4534 498.393 -3.45205e-13
-1.23531e-12 -3.45205e-13 472.246

466.875 27.8335 -2.61124e-13
27.8335 468.309 2.87711e-12
-2.61124e-13 2.87711e-12 466.741

457.044 -14.3403 -1.32638e-12
-14.3403 500.441 -4.37635e-12
-1.32638e-12 -4.37635e-12 483.465

512.943 33.3108 7.98472e-13
33.3108 511.603 4.70995e-12
7.98472e-13 4.70995e-12 515.232

489.18 0.560999 1.61648e-13
0.560999 435.53 4.48047e-12
1.61648e-13 4.48047e-12 462.279

457.591 -17.9691 -3.00727e-12
-17.9691 512.893 -3.24659e-12
-3.00727e-12 -3.24659e-12 493.604

493.965 -2.6652 1.01193e-12
-2.6652 439.056 8.13349e-13
1.01193e-12 8.13349e-13 474.271

418.799 26.6744 3.7037e-12
26.6744 449.667 -3.21817e-12
3.7037e-12 -3.21817e-12 424.06

481.989 -4.19568 -2.18906e-12
-4.19568 424.928 3.33067e-15
-2.18906e-12 3.33067e-15 453.481

425.303 8.66884 3.10862e-14
8.66884 481.91 -1.65675e-12
3.10862e-14 -1.65675e-12 444.848

634.13 6.28726 -1.507e-12
6.28726 633.966 2.99893e-12
-1.507e-12 2.99893e-12 570.322

479.16 1.87601 1.99544e-13
1.87601 422.947 -2.05524e-12
1.99544e-13 -2.05524e-12 449.739

447.169 -27.7157 1.91639e-12
-27.7157 461.157 3.23238e-12
1.91639e-12 3.23238e-12 452.954

481.056 6.8495 2.79006e-12
6.8495 425.447 -4.46458e-13
2.79006e-12 -4.46458e-13 452.945

449.765 19.1131 4.31507e-13
19.1131 490.325 -2.42562e-12
4.31507e-13 -2.42562e-12 478.213

377.66 4.18148 8.95284e-13
4.18148 291.658 1.33789e-12
8.95284e-13 1.33789e-12 259.006

462.692 30.7463 2.31992e-12
30.7463 460.721 -3.20603e-12
2.31992e-12 -3.20603e-12 460.552

384.946 37.0753 7.10543e-14
37.0753 383.526 1.71714e-12
7.10543e-14 1.71714e-12 348.424

586.945 10.3235 -5.61329e-13
10.3235 563.456 3.30465e-12
-5.61329e-13 3.30465e-12 546.878

491.695 14.217 2.33887e-13
14.217 442.504 -5.17601e-12
2.33887e-13 -5.17601e-12 465.863

352.86 -17.7808 -2.43923e-12
-17.7808 416.73 2.43124e-12
-2.43923e-12 2.43124e-12 348.595

331.022 -42.1025 1.01844e-12
-42.1025 335.877 -8.73968e-13
1.01844e-12 -8.73968e-13 253.486

531.414 5.98643 -2.64055e-12
5.98643 586.893 -3.9592e-12
-2.64055e-12 -3.9592e-12 538.587

554.028 -4.84018 -3.48921e-12
-4.84018 582.075 6.24982e-13
-3.48921e-12 6.24982e-13 542.517

577.991 21.0277 1.73817e-12
21.0277 539.952 2.30926e-13
1.73817e-12 2.30926e-13 538.356

556.189 5.067 5.47769e-12
5.067 600.678 -4.80416e-12
5.47769e-12 -4.80416e-12 547.974

573.778 -9.17018 3.92516e-12
-9.17018 555.769 -1.68531e-12
3.92516e-12 -1.68531e-12 540.643

467.134 -27.9985 -2.12985e-12
-27.9985 466.498 1.54958e-12
-2.12985e-12 1.54958e-12 465.114

330.406 41.5218 -3.66166e-12
41.5218 337.976 -8.31098e-12
-3.66166e-12 -8.31098e-12 253.845

414.531 -17.9495 -6.43396e-12
-17.9495 354.492 2.37144e-12
-6.43396e-12 2.37144e-12 346.325

559.31 -3.70563 4.00568e-13
-3.70563 599.927 4.40892e-12
4.00568e-13 4.40892e-12 548.389

586.416 19.5548 3.64087e-12
19.5548 572.458 2.71871e-12
3.64087e-12 2.71871e-12 548.177

490.9 -12.2734 -2.20801e-12
-12.2734 442.859 -4.64577e-12
-2.20801e-12 -4.64577e-12 466.535

341.712 -43.3 -1.99663e-12
-43.3 345.34 -1.71241e-12
-1.99663e-12 -1.71241e-12 288.98

417.557 -18.0638 -6.09409e-12
-18.0638 357.109 -2.54611e-12
-6.09409e-12 -2.54611e-12 351.499

413.011 17.086 -1.89478e-12
17.086 464.781 3.62969e-12
-1.89478e-12 3.62969e-12 428.725

429.627 19.3394 -3.44702e-12
19.3394 466.511 -1.0066e-13
-3.44702e-12 -1.0066e-13 437.078

486.779 -16.3013 2.48453e-12
-16.3013 432.873 1.74083e-12
2.48453e-12 1.74083e-12 458.676

355.578 -34.1861 -3.69305e-12
-34.1861 389.399 4.07141e-12
-3.69305e-12 4.07141e-12 332.566

410.25 19.1822 -3.78956e-14
19.1822 350.699 -4.7784e-13
-3.78956e-14 -4.7784e-13 339.475

425.198 -25.2889 -6.77384e-13
-25.2889 383.818 -8.71185e-12
-6.77384e-13 -8.71185e-12 373.074

519.919 19.4853 -2.4829e-12
19.4853 547.53 -3.43311e-12
-2.4829e-12 -3.43311e-12 525.73

416.41 29.65 1.54425e-12
29.65 393.883 4.673e-12
1.54425e-12 4.673e-12 373.938

522.174 -21.8127 -1.97176e-12
-21.8127 541.395 -4.84284e-12
-1.97176e-12 -4.84284e-12 524.376

364.069 -42.712 9.166e-13
-42.712 343.28 -3.41061e-13
9.166e-13 -3.41061e-13 289.697

553.449 5.45917 2.46085e-12
5.45917 583.868 3.16843e-12
2.46085e-12 3.16843e-12 542.892

373.714 -5.32992 -3.28567e-12
-5.32992 436.661 -3.9447e-12
-3.28567e-12 -3.9447e-12 373.822

580.816 10.3843 3.78986e-12
10.3843 556.169 3.48405e-12
3.78986e-12 3.48405e-12 542.648

435.055 21.4134 1.06818e-12
21.4134 473.761 3.26198e-12
1.06818e-12 3.26198e-12 454.671

513.573 5.75409 -1.8859e-12
5.75409 452.806 4.79024e-13
-1.8859e-12 4.79024e-13 494.865

522.459 11.4589 -1.06034e-12
11.4589 487.862 8.62125e-13
-1.06034e-12 8.62125e-13 507.079

383.704 31.8203 -1.99663e-12
31.8203 315.193 1.80241e-12
-1.99663e-12 1.80241e-12 269.87

482.088 -6.03538 -9.29479e-13
-6.03538 528.181 -1.47497e-12
-9.29479e-13 -1.47497e-12 504.101

487.097 9.51991 2.95541e-12
9.51991 523.691 -8.18012e-13
2.95541e-12 -8.18012e-13 507.497

456.459 -2.88097 -1.88608e-12
-2.88097 520.158 -1.0747e-12
-1.88608e-12 -1.0747e-12 487.808

464.456 23.4019 -3.94869e-14
23.4019 503.471 -1.76451e-13
-3.94869e-14 -1.76451e-13 495.442

496.749 8.46366 -1.94245e-12
8.46366 444.399 -2.55751e-12
-1.94245e-12 -2.55751e-12 477.7

445.508 -28.2398 -2.84484e-12
-28.2398 459.53 -2.02623e-12
-2.84484e-12 -2.02623e-12 451.168

501.683 -1.7113 1.94674e-12
-1.7113 444.918 -2.26752e-12
1.94674e-12 -2.26752e-12 489.07

519.532 -19.2613 -5.75836e-14
-19.2613 546.823 -8.34296e-13
-5.75836e-14 -8.34296e-13 525.463

523.303 21.3078 -2.91323e-12
21.3078 542.92 2.08762e-12
-2.91323e-12 2.08762e-12 525.266

353.41 -16.5838 5.32152e-12
-16.5838 415.737 4.48945e-12
5.32152e-12 4.48945e-12 346.114

506.022 -27.9363 -2.33295e-12
-27.9363 485.311 2.39423e-12
-2.33295e-12 2.39423e-12 493.881

449.722 -25.135 -2.76253e-12
-25.135 471.222 -1.04213e-13
-2.76253e-12 -1.04213e-13 458.579

357.871 -31.7111 -1.68872e-12
-31.7111 285.677 2.00876e-12
-1.68872e-12 2.00876e-12 249.859

498.5 3.22273 4.61209e-12
3.22273 541.406 5.18104e-13
4.61209e-12 5.18104e-13 513.643

501.728 28.9441 2.82559e-12
28.9441 474.551 4.94419e-13
2.82559e-12 4.94419e-13 487.659

448.446 19.6643 -1.29422e-12
19.6643 492.11 -3.02958e-12
-1.29422e-12 -3.02958e-12 477.645

440.195 7.99969 2.6823e-12
7.99969 373.039 -1.82432e-12
2.6823e-12 -1.82432e-12 382.936

386.453 -33.9362 -2.58282e-12
-33.9362 360.208 -2.23584e-12
-2.58282e-12 -2.23584e-12 319.437

537.72 -10.5873 7.93499e-12
-10.5873 556.139 3.94085e-12
7.93499e-12 3.94085e-12 531.25

482.659 23.8997 2.48098e-13
23.8997 504.562 4.68848e-12
2.48098e-13 4.68848e-12 502.045

385.373 -32.3844 -2.49282e-12
-32.3844 345.308 -7.91071e-12
-2.49282e-12 -7.91071e-12 317.083

422.2 10.7913 1.66978e-12
10.7913 363.852 -2.65343e-12
1.66978e-12 -2.65343e-12 350.255

307.653 -21.2064 -8.82849e-13
-21.2064 388.445 -1.13924e-11
-8.82849e-13 -1.13924e-11 288.117

434.447 14.4258 2.22785e-13
14.4258 488.672 2.57453e-12
2.22785e-13 2.57453e-12 460.886

509.723 23.1434 9.28443e-13
23.1434 475.174 -3.75936e-12
9.28443e-13 -3.75936e-12 489.949

338.242 42.1994 8.75152e-13
42.1994 349.573 -5.33381e-12
8.75152e-13 -5.33381e-12 288.953

634.216 16.5066 7.0716e-12
16.5066 603.069 4.61453e-12
7.0716e-12 4.61453e-12 565.326

372.891 -4.10844 -7.71827e-13
-4.10844 436.82 -2.88125e-12
-7.71827e-13 -2.88125e-12 373.429

637.121 -16.6318 -2.48126e-11
-16.6318 599.54 -6.15478e-12
-2.48126e-11 -6.15478e-12 564.833

533.941 -27.3349 3.92397e-12
-27.3349 507.241 -5.90935e-13
3.92397e-12 -5.90935e-13 515.717

505.299 27.4247 -2.04044e-12
27.4247 466.337 3.74693e-12
-2.04044e-12 3.74693e-12 485.075

426.929 -24.411 -3.89022e-12
-24.411 386.241 -1.63129e-12
-3.89022e-12 -1.63129e-12 375.981

358.938 31.3239 4.38168e-14
31.3239 396.007 -2.23939e-12
4.38168e-14 -2.23939e-12 339.203

339.827 -10.7053 1.06167e-12
-10.7053 408.395 -3.90088e-12
1.06167e-12 -3.90088e-12 319.107

453.108 21.9708 -1.26935e-12
21.9708 494.683 -1.65616e-12
-1.26935e-12 -1.65616e-12 483.172

533.116 16.7943 -1.9007e-13
16.7943 506.201 -3.569e-12
-1.9007e-13 -3.569e-12 513.356

443.456 15.1542 -6.49703e-13
15.1542 488.444 5.42263e-12
-6.49703e-13 5.42263e-12 464.286

451.485 15.9541 3.07547e-12
15.9541 400.54 7.81153e-13
3.07547e-12 7.81153e-13 403.75

374.491 -21.4729 -6.17876e-12
-21.4729 419.871 4.85538e-14
-6.17876e-12 4.85538e-14 357.2

389.726 -29.3912 -1.93268e-12
-29.3912 342.372 4.30293e-12
-1.93268e-12 4.30293e-12 314.393

454.97 -24.5732 2.63907e-12
-24.5732 480.07 -1.03443e-12
2.63907e-12 -1.03443e-12 478.375

466.431 27.4513 -7.59393e-13
27.4513 478.747 -1.12947e-12
-7.59393e-13 -1.12947e-12 479.814

452.221 23.1877 1.34885e-12
23.1877 492.564 -4.1395e-12
1.34885e-12 -4.1395e-12 482.047

466.3 13.169 8.64734e-13
13.169 529.78 1.59635e-12
8.64734e-13 1.59635e-12 501.387

490.867 9.37235 1.58629e-12
9.37235 437.893 1.35492e-12
1.58629e-12 1.35492e-12 462.06

327.714 -4.66513 5.32315e-12
-4.66513 403.385 8.34177e-12
5.32315e-12 8.34177e-12 314.415

462.584 -36.8329 1.30355e-12
-36.8329 487.695 -2.46373e-12
1.30355e-12 -2.46373e-12 492.753

445.854 27.4657 3.80614e-12
27.4657 463.275 1.95636e-12
3.80614e-12 1.95636e-12 455.019

305.674 2.17034 -3.33629e-12
2.17034 393.364 -4.62563e-12
-3.33629e-12 -4.62563e-12 297.258

386.001 34.611 -5.36933e-12
34.611 332.451 -1.8184e-12
-5.36933e-12 -1.8184e-12 306.248

453.355 -22.9741 -1.12118e-12
-22.9741 480.075 1.08062e-12
-1.12118e-12 1.08062e-12 476.177

501.4 5.73296 -1.38053e-12
5.73296 441.32 6.36528e-15
-1.38053e-12 6.36528e-15 481.015

422.385 27.2046 4.93946e-12
27.2046 389.771 -6.9574e-13
4.93946e-12 -6.9574e-13 374.238

570.545 12.7453 1.36469e-12
12.7453 565.92 -5.04071e-12
1.36469e-12 -5.04071e-12 542.92

396.182 24.331 1.1724e-12
24.331 349.652 -3.41534e-12
1.1724e-12 -3.41534e-12 319.047

569.167 -13.0548 -1.30695e-12
-13.0548 565.831 5.18134e-12
-1.30695e-12 5.18134e-12 542.375

375.095 0.778561 2.34598e-12
0.778561 438.874 -2.26663e-12
2.34598e-12 -2.26663e-12 374.644

461.476 -2.23536 -1.55609e-12
-2.23536 399.307 -2.60188e-12
-1.55609e-12 -2.60188e-12 417.286

538.2 -15.7676 1.08358e-13
-15.7676 480.636 9.19561e-13
1.08358e-13 9.19561e-13 513.483

457.25 24.3882 1.21592e-12
24.3882 487.79 -9.23113e-13
1.21592e-12 -9.23113e-13 488.359

461.261 -13.5351 -9.27043e-13
-13.5351 519.141 1.04746e-12
-9.27043e-13 1.04746e-12 495.719

514.974 -7.99985 -1.61278e-12
-7.99985 438.197 2.83433e-12
-1.61278e-12 2.83433e-12 494.282

488.319 -22.2836 -2.01913e-13
-22.2836 541.607 -1.53951e-14
-2.01913e-13 -1.53951e-14 515.754

556.054 -6.59696 1.1798e-12
-6.59696 560.398 -2.54082e-12
1.1798e-12 -2.54082e-12 538.733

463.872 -29.9082 1.71537e-12
-29.9082 483.202 -2.54611e-13
1.71537e-12 -2.54611e-13 483.605

341.71 11.4538 -3.4032e-12
11.4538 406.198 -3.19981e-12
-3.4032e-12 -3.19981e-12 319.486

422.486 -28.147 1.76688e-12
-28.147 391.246 -7.66439e-12
1.76688e-12 -7.66439e-12 375.151

507.385 -13.7718 -4.076e-13
-13.7718 558.752 5.63283e-12
-4.076e-13 5.63283e-12 525.256

501.062 0.504559 -5.82645e-13
0.504559 441.285 -8.16384e-14
-5.82645e-13 -8.16384e-14 487.092

476.947 -21.5244 2.17619e-12
-21.5244 507.427 -2.42443e-12
2.17619e-12 -2.42443e-12 501.51

459.103 25.6978 3.71407e-13
25.6978 484.607 9.68559e-13
3.71407e-13 9.68559e-13 487.987

394.434 -31.465 -5.34328e-12
-31.465 400.603 5.90461e-12
-5.34328e-12 5.90461e-12 357.525

552.129 -7.08449 8.03646e-12
-7.08449 585.299 5.33795e-13
8.03646e-12 5.33795e-13 542.607

347.213 -33.0773 1.7278e-12
-33.0773 382.611 -5.13012e-12
1.7278e-12 -5.13012e-12 303.438

490.875 -19.1799 3.19034e-12
-19.1799 448.392 -1.76274e-12
3.19034e-12 -1.76274e-12 467.129

519.713 1.97054 -6.72055e-14
1.97054 466.819 1.35773e-12
-6.72055e-14 1.35773e-12 502.836

570.563 17.8749 1.68369e-12
17.8749 566.483 1.84415e-12
1.68369e-12 1.84415e-12 542.379

375.294 20.1832 -7.94328e-12
20.1832 424.036 -6.86858e-14
-7.94328e-12 -6.86858e-14 360.225

489.087 27.2108 -3.17198e-12
27.2108 468.545 7.98472e-13
-3.17198e-12 7.98472e-13 476.644

454.384 -24.5119 -2.32111e-12
-24.5119 415.346 -4.12381e-12
-2.32111e-12 -4.12381e-12 418.607

454.723 -17.8387 -1.47678e-13
-17.8387 494.912 4.21589e-13
-1.47678e-13 4.21589e-13 482.646

379.202 35.0687 -5.53039e-12
35.0687 366.034 -2.66098e-12
-5.53039e-12 -2.66098e-12 317.052

449.157 -21.8311 -9.82917e-13
-21.8311 491.709 5.41197e-13
-9.82917e-13 5.41197e-13 479.778

485.495 30.8507 -3.76528e-12
30.8507 465.14 -3.25606e-12
-3.76528e-12 -3.25606e-12 473.45

480.327 -25.2443 -4.26859e-12
-25.2443 442.371 -6.08402e-12
-4.26859e-12 -6.08402e-12 455.447

448.223 -25.1267 -5.21982e-12
-25.1267 469.772 -4.25615e-12
-5.21982e-12 -4.25615e-12 458.101

445.349 -18.6884 6.14619e-13
-18.6884 393.464 -7.78636e-12
6.14619e-13 -7.78636e-12 397.261

470.658 -18.8499 -5.34743e-12
-18.8499 422.857 -6.21133e-13
-5.34743e-12 -6.21133e-13 437.535

459.003 -25.3371 2.6595e-12
-25.3371 485.433 -5.01858e-13
2.6595e-12 -5.01858e-13 488.83

386.545 35.9699 -1.11318e-13
35.9699 381.991 1.79175e-12
-1.11318e-13 1.79175e-12 348.119

444.499 15.377 -1.26195e-12
15.377 491.536 1.97116e-12
-1.26195e-12 1.97116e-12 467.143

469.4 26.4224 5.35868e-14
26.4224 479.961 1.48918e-12
5.35868e-14 1.48918e-12 482.55

456.146 25.4736 3.29682e-12
25.4736 486.65 1.74631e-12
3.29682e-12 1.74631e-12 487.25

457.81 11.6217 -2.31748e-12
11.6217 506.943 -2.63375e-12
-2.31748e-12 -2.63375e-12 486.018

431.954 -8.22711 -3.35495e-12
-8.22711 370.757 1.00601e-12
-3.35495e-12 1.00601e-12 363.309

376.781 18.6067 3.25369e-12
18.6067 427.268 5.68434e-13
3.25369e-12 5.68434e-13 363.885

452.315 -24.3807 -4.88528e-12
-24.3807 478.389 4.54422e-12
-4.88528e-12 4.54422e-12 470.714

440.749 25.6662 -1.90722e-12
25.6662 455.643 -7.92255e-13
-1.90722e-12 -7.92255e-13 437.808

390.957 -35.6298 2.17781e-12
-35.6298 380.279 -4.41365e-12
2.17781e-12 -4.41365e-12 350.092

368.943 38.3171 -3.60008e-12
38.3171 327.253 8.86994e-13
-3.60008e-12 8.86994e-13 295.683

363.648 -33.3115 1.46549e-12
-33.3115 394.437 -3.58232e-12
1.46549e-12 -3.58232e-12 341.98

397.932 -31.16 4.44089e-12
-31.16 404.194 -3.05533e-12
4.44089e-12 -3.05533e-12 362.975

502.859 -6.83864 3.56367e-12
-6.83864 442.252 9.35622e-13
3.56367e-12 9.35622e-13 482.32

393.165 30.3421 5.33736e-12
30.3421 408.98 9.9476e-13
5.33736e-12 9.9476e-13 363.435

429.703 13.2948 1.25529e-12
13.2948 372.248 1.70234e-13
1.25529e-12 1.70234e-13 362.714

350.144 13.379 1.68991e-12
13.379 418.515 3.51363e-12
1.68991e-12 3.51363e-12 348.475

379.48 -22.3407 2.79717e-12
-22.3407 423.514 -1.91491e-12
2.79717e-12 -1.91491e-12 363.449

491.208 -1.09173 -2.11527e-12
-1.09173 550.878 -1.98952e-13
-2.11527e-12 -1.98952e-13 516.307

372.864 2.24665 9.87802e-13
2.24665 437.788 -7.17174e-12
9.87802e-13 -7.17174e-12 373.521

357.89 31.0897 3.64508e-12
31.0897 399.487 4.38168e-14
3.64508e-12 4.38168e-14 341.961

457.993 12.108 -5.63882e-13
12.108 510.563 -1.94511e-12
-5.63882e-13 -1.94511e-12 488.405

421.454 -27.648 8.26598e-13
-27.648 389.072 1.46964e-12
8.26598e-13 1.46964e-12 375.073

524.758 20.557 -1.4572e-12
20.557 469.751 -1.18424e-15
-1.4572e-12 -1.18424e-15 500.736

534.926 26.2704 -1.84031e-12
26.2704 506.861 -2.02075e-12
-1.84031e-12 -2.02075e-12 516.095

494.818 -18.5678 3.61785e-12
-18.5678 449.027 -3.97815e-12
3.61785e-12 -3.97815e-12 470.858

554.585 -1.80165 5.33943e-13
-1.80165 516.023 -7.91663e-13
5.33943e-13 -7.91663e-13 525.718

473.289 -31.812 2.28795e-12
-31.812 475.698 -1.78109e-12
2.28795e-12 -1.78109e-12 478.579

412.599 23.3281 2.51651e-12
23.3281 357.196 -3.75285e-12
2.51651e-12 -3.75285e-12 348.092

464.179 30.1622 -1.08654e-13
30.1622 482.771 2.76816e-13
-1.08654e-13 2.76816e-13 483.206

464.442 29.2059 7.59097e-13
29.2059 482.244 -1.04183e-12
7.59097e-13 -1.04183e-12 482.767

393.947 30.6613 2.99257e-12
30.6613 405.725 -4.52734e-12
2.99257e-12 -4.52734e-12 360.869

502.856 27.0852 3.65278e-12
27.0852 482.667 6.4689e-13
3.65278e-12 6.4689e-13 490.736

415.353 3.5252 1.4803e-13
3.5252 339.017 -2.71931e-12
1.4803e-13 -2.71931e-12 340.825

493.124 31.8172 1.78435e-12
31.8172 487.225 -2.35663e-13
1.78435e-12 -2.35663e-13 495.576

476.328 -12.5996 -1.79804e-12
-12.5996 522.453 6.65542e-13
-1.79804e-12 6.65542e-13 500.25

536.928 24.278 -2.70154e-12
24.278 507.403 -2.81641e-12
-2.70154e-12 -2.81641e-12 516.631

468.18 -29.5788 4.30737e-12
-29.5788 479.973 -1.97945e-12
4.30737e-12 -1.97945e-12 483.064

464.562 -4.89793 -1.46883e-13
-4.89793 521.558 -2.90671e-12
-1.46883e-13 -2.90671e-12 490.981

400.941 -24.5567 -7.12911e-13
-24.5567 349.024 8.95284e-13
-7.12911e-13 8.95284e-13 323.951

418.968 29.6936 2.68585e-12
29.6936 392.465 3.48048e-12
2.68585e-12 3.48048e-12 373.771

352.345 14.6967 -6.13642e-12
14.6967 417.214 7.65018e-13
-6.13642e-12 7.65018e-13 348.241

500.532 -1.13897 1.07396e-12
-1.13897 442.797 -4.06564e-13
1.07396e-12 -4.06564e-13 487.711

492.474 0.00221554 1.55017e-12
0.00221554 438.105 4.55434e-12
1.55017e-12 4.55434e-12 474.421

452.968 23.1242 5.55408e-13
23.1242 479.71 -2.19647e-12
5.55408e-13 -2.19647e-12 475.589

481.307 23.8711 1.47171e-12
23.8711 502.876 6.11622e-13
1.47171e-12 6.11622e-13 501.256

456.591 -24.3808 3.85432e-14
-24.3808 487.356 6.18024e-13
3.85432e-14 6.18024e-13 488.501

457.839 -0.672922 3.80868e-12
-0.672922 517.945 -2.36907e-12
3.80868e-12 -2.36907e-12 486.403

458.889 25.5905 1.13391e-13
25.5905 486.473 -3.44902e-12
1.13391e-13 -3.44902e-12 488.523

465.565 -10.3081 -6.41857e-12
-10.3081 408.088 9.13492e-13
-6.41857e-12 9.13492e-13 427.228

400.87 -32.8341 -3.13172e-12
-32.8341 414.961 -3.4112e-12
-3.13172e-12 -3.4112e-12 385.171

518.103 -2.30099 1.3037e-12
-2.30099 465.746 8.79593e-13
1.3037e-12 8.79593e-13 500.934

391.878 -34.5089 -4.01457e-12
-34.5089 379.611 2.85342e-12
-4.01457e-12 2.85342e-12 347.422

478.008 19.0861 1.72543e-12
19.0861 509.209 1.40954e-12
1.72543e-12 1.40954e-12 501.853

506.12 -26.4788 -1.84504e-12
-26.4788 470.255 1.19253e-12
-1.84504e-12 1.19253e-12 487.28

425.008 -9.69044 -5.53394e-12
-9.69044 366.736 1.14898e-11
-5.53394e-12 1.14898e-11 355.987

530.273 -23.1921 3.39876e-12
-23.1921 488.765 3.58854e-12
3.39876e-12 3.58854e-12 506.497

500.901 2.35831 9.79513e-13
2.35831 444.586 -1.46401e-13
9.79513e-13 -1.46401e-13 489.213

521.199 -23.3217 -2.179e-12
-23.3217 501.85 -2.14495e-13
-2.179e-12 -2.14495e-13 508.542

502.025 -25.8596 2.35782e-12
-25.8596 461.5 -3.18205e-12
2.35782e-12 -3.18205e-12 481.252

498.836 -8.54632 2.69e-12
-8.54632 445.144 -5.41315e-12
2.69e-12 -5.41315e-12 479.353

482.229 -23.0683 6.86562e-13
-23.0683 505.001 1.20937e-12
6.86562e-13 1.20937e-12 502.544

428.548 -31.3425 -2.31637e-12
-31.3425 410.595 3.72739e-12
-2.31637e-12 3.72739e-12 399.005

503.276 -24.5876 -2.96059e-13
-24.5876 464.722 -5.58072e-13
-2.96059e-13 -5.58072e-13 482.168

441.249 10.8647 -6.56423e-12
10.8647 378.487 1.11614e-13
-6.56423e-12 1.11614e-13 387.805

500.046 26.3405 1.05545e-12
26.3405 498.592 -1.64313e-14
1.05545e-12 -1.64313e-14 500.113

463.759 -37.6125 -4.88202e-13
-37.6125 488.398 -1.29378e-12
-4.88202e-13 -1.29378e-12 494.091

464.868 37.2648 5.21657e-12
37.2648 487.31 -3.62739e-12
5.21657e-12 -3.62739e-12 493.806

446.336 -28.5731 1.22084e-12
-28.5731 500.024 4.3876e-13
1.22084e-12 4.3876e-13 492.321

448.571 27.0639 4.62245e-12
27.0639 500.715 -1.19401e-12
4.62245e-12 -1.19401e-12 492.508

513.079 -8.52748 1.34204e-12
-8.52748 436.415 1.33656e-12
1.34204e-12 1.33656e-12 492.769

511.241 9.27348 5.93303e-13
9.27348 438.012 2.0699e-12
5.93303e-13 2.0699e-12 492.406

501.665 -9.84636 4.08562e-13
-9.84636 451.751 -3.9185e-12
4.08562e-13 -3.9185e-12 483.029

510.873 32.1157 -3.54383e-13
32.1157 510.399 1.3615e-13
-3.54383e-13 1.3615e-13 514.063

509.649 -32.8537 1.3148e-12
-32.8537 510.076 -3.34466e-12
1.3148e-12 -3.34466e-12 513.702

481.819 16.0684 3.97164e-13
16.0684 539.139 -3.9222e-12
3.97164e-13 -3.9222e-12 514.335

483.012 -15.8009 -2.24561e-13
-15.8009 538.729 -2.29387e-12
-2.24561e-13 -2.29387e-12 514.356

556.877 -3.74804 1.65853e-12
-3.74804 506.84 -3.23889e-13
1.65853e-12 -3.23889e-13 525

558.431 3.61079 4.85893e-12
3.61079 505.164 -1.41043e-12
4.85893e-12 -1.41043e-12 525.372

387.315 9.83709 3.60785e-12
9.83709 449.205 -2.79125e-12
3.60785e-12 -2.79125e-12 397.093

472.396 -24.7744 2.08041e-12
-24.7744 480.762 8.88919e-13
2.08041e-12 8.88919e-13 484.984

443.47 -36.3872 3.61696e-12
-36.3872 485.541 6.07662e-13
3.61696e-12 6.07662e-13 486.636

473.65 -4.66436 3.90799e-14
-4.66436 420.443 1.04868e-12
3.90799e-14 1.04868e-12 436.345

540.262 -16.6943 -1.112e-12
-16.6943 484.2 -2.44042e-12
-1.112e-12 -2.44042e-12 515.296

540.982 16.1753 1.22998e-12
16.1753 485.423 4.4782e-12
1.22998e-12 4.4782e-12 515.901

506.87 0.121877 1.01859e-12
0.121877 423.56 -1.38785e-12
1.01859e-12 -1.38785e-12 487.01

384.797 23.3758 1.10726e-13
23.3758 432.304 3.74574e-12
1.10726e-13 3.74574e-12 385.482

442.342 36.1712 1.05715e-12
36.1712 485.219 2.65432e-12
1.05715e-12 2.65432e-12 485.841

452.605 -23.3959 -2.17752e-12
-23.3959 494.961 2.45729e-12
-2.17752e-12 2.45729e-12 483.598

443.255 23.3533 6.48962e-13
23.3533 397.524 -3.38337e-12
6.48962e-13 -3.38337e-12 400.379

530.976 23.8584 -3.22527e-12
23.8584 488.015 -4.7932e-13
-3.22527e-12 -4.7932e-13 507.255

428.486 -31.3143 3.04586e-12
-31.3143 410.88 -4.24905e-12
3.04586e-12 -4.24905e-12 398.823

519.867 -3.23121 -1.89404e-12
-3.23121 469.066 2.27907e-12
-1.89404e-12 2.27907e-12 502.693

439.404 -34.1607 1.43663e-12
-34.1607 485.512 -3.63028e-12
1.43663e-12 -3.63028e-12 485.83

389.189 8.32015 3.75237e-12
8.32015 452.335 6.60805e-13
3.75237e-12 6.60805e-13 400.861

385.884 21.8121 9.91799e-13
21.8121 435.78 -7.5436e-13
9.91799e-13 -7.5436e-13 388.7

383.852 35.7766 -5.31131e-12
35.7766 362.336 -2.62546e-12
-5.31131e-12 -2.62546e-12 318.332

408.189 1.5788 1.64964e-12
1.5788 332.16 -1.54254e-12
1.64964e-12 -1.54254e-12 327.329

485.462 -22.8046 -1.75267e-13
-22.8046 502.865 -4.47696e-12
-1.75267e-13 -4.47696e-12 501.756

351.883 31.1846 1.89952e-12
31.1846 388.836 -7.99361e-12
1.89952e-12 -7.99361e-12 312.361

451.356 23.6103 5.07979e-12
23.6103 478.42 3.39521e-12
5.07979e-12 3.39521e-12 465.219

442.203 -5.34967 3.69127e-12
-5.34967 377.131 1.897e-12
3.69127e-12 1.897e-12 387.743

464.162 11.2163 -5.31131e-12
11.2163 407.305 -2.64648e-12
-5.31131e-12 -2.64648e-12 424.928

505.385 0.429898 9.22225e-14
0.429898 421.58 -3.47257e-12
9.22225e-14 -3.47257e-12 485.681

449.357 -29.0308 -1.11385e-12
-29.0308 502.004 -3.6288e-12
-1.11385e-12 -3.6288e-12 493.595

572.512 -6.31871 -8.71917e-12
-6.31871 589.486 2.90819e-12
-8.71917e-12 2.90819e-12 549.257

463.146 37.4112 3.53199e-12
37.4112 487.033 6.37971e-13
3.53199e-12 6.37971e-13 493.07

408.743 1.66332 2.25479e-12
1.66332 331.607 -7.96104e-13
2.25479e-12 -7.96104e-13 308.908

404.24 -32.7877 -3.02691e-12
-32.7877 415.514 1.90722e-12
-3.02691e-12 1.90722e-12 387.395

443.148 36.6127 4.54081e-13
36.6127 485.512 3.07754e-13
4.54081e-13 3.07754e-13 486.578

444.684 -11.1339 2.05223e-12
-11.1339 498.942 3.05711e-12
2.05223e-12 3.05711e-12 471.447

386.078 -25.5152 -2.15709e-12
-25.5152 428.907 3.90799e-14
-2.15709e-12 3.90799e-14 384.569

449.457 28.8298 -1.14116e-12
28.8298 501.637 1.59694e-12
-1.14116e-12 1.59694e-12 493.294

452.717 -26.1424 1.8184e-12
-26.1424 419.308 -7.12319e-13
1.8184e-12 -7.12319e-13 419.523

579.555 10.4836 -3.54383e-13
10.4836 582.166 8.15777e-12
-3.54383e-13 8.15777e-12 549.042

398.334 30.8727 3.64568e-12
30.8727 422.064 2.32111e-12
3.64568e-12 2.32111e-12 388.168

515.713 8.12658 2.17544e-12
8.12658 437.275 -2.6823e-13
2.17544e-12 -2.6823e-13 494.588

493.811 30.1907 -2.75661e-12
30.1907 484.754 -8.00545e-13
-2.75661e-12 -8.00545e-13 493.808

453.471 23.3322 -2.60976e-12
23.3322 479.17 -1.49688e-12
-2.60976e-12 -1.49688e-12 475.805

510.707 -32.4883 -2.60532e-13
-32.4883 512.458 4.52305e-13
-2.60532e-13 4.52305e-13 515.012

510.314 -23.1906 -1.7053e-13
-23.1906 473.186 -5.52743e-13
-1.7053e-13 -5.52743e-13 489.683

511.406 10.4703 4.37491e-12
10.4703 557.996 5.30598e-12
4.37491e-12 5.30598e-12 523.736

452.179 -23.4341 -1.11052e-12
-23.4341 480.172 2.01853e-12
-1.11052e-12 2.01853e-12 468.956

394.415 -9.70805 6.88753e-12
-9.70805 316.417 -3.60815e-12
6.88753e-12 -3.60815e-12 295.579

387.295 -14.2775 5.96856e-13
-14.2775 306.063 9.21929e-13
5.96856e-13 9.21929e-13 290.053

547.588 16.5298 -1.80034e-12
16.5298 507.768 3.31498e-12
-1.80034e-12 3.31498e-12 519.325

436.493 22.5021 -2.04932e-12
22.5021 469.143 -4.98446e-12
-2.04932e-12 -4.98446e-12 447.829

475.969 29.1636 -1.94156e-12
29.1636 467.651 1.06463e-12
-1.94156e-12 1.06463e-12 471.484

450.308 0.688681 -8.62125e-13
0.688681 392.782 -4.2461e-12
-8.62125e-13 -4.2461e-12 395.679

478.356 6.571 -5.14033e-13
6.571 541.283 -9.23113e-13
-5.14033e-13 -9.23113e-13 507.545

507.337 16.5407 1.533e-12
16.5407 461.141 5.62069e-12
1.533e-12 5.62069e-12 488.085

389.982 -25.7617 2.38683e-12
-25.7617 430.042 1.3974e-13
2.38683e-12 1.3974e-13 387.739

456.323 -2.57227 -2.06585e-12
-2.57227 517.02 -2.96e-12
-2.06585e-12 -2.96e-12 484.846

400.594 13.3655 -3.33363e-13
13.3655 452.992 7.25938e-13
-3.33363e-13 7.25938e-13 404.641

486.919 -29.7136 8.70415e-14
-29.7136 465.819 -1.1872e-12
8.70415e-14 -1.1872e-12 474.264

430.304 -29.9481 8.24822e-13
-29.9481 423.634 7.66202e-13
8.24822e-13 7.66202e-13 404.96

399.716 31.6236 2.55559e-12
31.6236 418.237 -1.10489e-12
2.55559e-12 -1.10489e-12 386.007

624.001 -15.0199 -1.72307e-13
-15.0199 581.95 -4.16334e-13
-1.72307e-13 -4.16334e-13 557.907

494.526 2.04147 -1.89471e-12
2.04147 552.147 3.39995e-12
-1.89471e-12 3.39995e-12 517.929

483.507 20.2997 -5.46082e-13
20.2997 542.046 -3.90147e-12
-5.46082e-13 -3.90147e-12 516.035

544.71 15.4387 -2.82574e-12
15.4387 479.975 -3.06125e-13
-2.82574e-12 -3.06125e-13 515.757

473.754 -26.189 -1.04687e-12
-26.189 479.762 -1.10874e-12
-1.04687e-12 -1.10874e-12 483.022

452.131 17.9576 -3.2306e-12
17.9576 404.513 4.89594e-12
-3.2306e-12 4.89594e-12 406.923

531.582 -5.29377 6.05471e-12
-5.29377 580.803 -9.31107e-13
6.05471e-12 -9.31107e-13 537.121

512.193 -18.9881 -2.18196e-13
-18.9881 464.799 1.73491e-13
-2.18196e-13 1.73491e-13 493.033

473.982 -15.5991 3.06836e-12
-15.5991 423.181 4.67478e-13
3.06836e-12 4.67478e-13 438.885

402.005 11.6035 -5.0638e-12
11.6035 455.964 1.03029e-12
-5.0638e-12 1.03029e-12 407.784

410.928 -25.7348 1.75741e-12
-25.7348 435.587 -1.77399e-12
1.75741e-12 -1.77399e-12 398.961

532.053 -25.2738 2.51799e-12
-25.2738 523.196 2.43687e-12
2.51799e-12 2.43687e-12 519.123

423.062 31.9602 -7.18832e-13
31.9602 417.254 2.10261e-12
-7.18832e-13 2.10261e-12 400.31

535.486 -25.1345 -1.81662e-12
-25.1345 505.792 3.16251e-12
-1.81662e-12 3.16251e-12 515.664

453.5 2.59741 -7.23569e-13
2.59741 397.024 -5.43943e-12
-7.23569e-13 -5.43943e-12 401.902

311.103 -28.9311 3.30758e-12
-28.9311 376.602 -2.76164e-12
3.30758e-12 -2.76164e-12 289.999

431.881 -29.2316 -1.96524e-12
-29.2316 424.053 2.85283e-12
-1.96524e-12 2.85283e-12 406.159

353.766 32.1596 -2.07242e-13
32.1596 392.549 4.4551e-12
-2.07242e-13 4.4551e-12 312.972

470.351 -11.8767 8.85865e-13
-11.8767 529.557 -9.74628e-13
8.85865e-13 -9.74628e-13 500.308

391.455 -13.8216 -9.42328e-12
-13.8216 449.259 1.51464e-12
-9.42328e-12 1.51464e-12 400.203

602.856 -23.9874 -2.68378e-13
-23.9874 602.268 3.29351e-12
-2.68378e-13 3.29351e-12 557.848

408.377 23.7713 8.0617e-12
23.7713 441.946 -8.01729e-13
8.0617e-12 -8.01729e-13 402.227

496.582 -32.7263 -1.02644e-12
-32.7263 490.646 3.8319e-12
-1.02644e-12 3.8319e-12 497.452

388.194 -11.9634 -2.93054e-12
-11.9634 448.291 2.54137e-12
-2.93054e-12 2.54137e-12 397.021

516.716 -19.1168 -2.97214e-12
-19.1168 465.759 -7.31267e-14
-2.97214e-12 -7.31267e-14 496.249

410.692 23.8776 9.20745e-13
23.8776 439.318 1.6082e-12
9.20745e-13 1.6082e-12 400.704

488.927 -4.97553 2.3744e-13
-4.97553 435.076 1.78306e-12
2.3744e-13 1.78306e-12 460.388

305.786 -30.3431 -7.57912e-13
-30.3431 391.444 3.8464e-12
-7.57912e-13 3.8464e-12 262.573

438.616 21.0144 -8.46138e-13
21.0144 473.92 4.99985e-12
-8.46138e-13 4.99985e-12 458.355

445.695 -19.3237 9.68707e-12
-19.3237 393.983 -1.57504e-12
9.68707e-12 -1.57504e-12 399.63

551.609 -21.4458 -3.83693e-13
-21.4458 499.522 -1.45099e-12
-3.83693e-13 -1.45099e-12 520.109

424.477 31.7547 -9.4739e-14
31.7547 413.33 -1.39148e-13
-9.4739e-14 -1.39148e-13 397.966

459.17 -29.9722 2.64973e-12
-29.9722 437.645 -1.42641e-12
2.64973e-12 -1.42641e-12 439.307

510.627 20.8854 4.2597e-12
20.8854 476.08 -7.99657e-13
4.2597e-12 -7.99657e-13 492.764

461.513 -28.0759 3.0543e-12
-28.0759 485.75 -1.31214e-12
3.0543e-12 -1.31214e-12 488.726

413.728 -26.2258 -1.87524e-12
-26.2258 436.253 1.04568e-12
-1.87524e-12 1.04568e-12 401.447

426.084 28.9817 -2.81079e-12
28.9817 429.906 2.74269e-12
-2.81079e-12 2.74269e-12 406.869

452.51 26.1918 1.3145e-13
26.1918 418.236 -7.55248e-13
1.3145e-13 -7.55248e-13 419.067

521.978 -14.6103 -2.69503e-12
-14.6103 477.186 -7.75676e-14
-2.69503e-12 -7.75676e-14 500.072

403.569 -16.6179 3.33304e-12
-16.6179 451.752 6.63173e-14
3.33304e-12 6.63173e-14 406.451

496.056 -17.5684 1.2997e-12
-17.5684 447.616 -2.64973e-14
1.2997e-12 -2.64973e-14 471.51

487.775 16.9087 -3.03935e-12
16.9087 436.268 -5.66954e-13
-3.03935e-12 -5.66954e-13 460.598

513.35 -9.38644 -1.73358e-12
-9.38644 555.786 -7.58504e-13
-1.73358e-12 -7.58504e-13 523.037

453.988 -13.4303 1.14362e-11
-13.4303 402.187 -1.05856e-12
1.14362e-11 -1.05856e-12 406.752

403.211 0.594079 1.61648e-13
0.594079 465.735 2.47624e-12
1.61648e-13 2.47624e-12 417.814

475.037 18.5552 -3.0204e-12
18.5552 428.781 2.93277e-12
-3.0204e-12 2.93277e-12 442.23

451.153 27.6044 -7.60281e-13
27.6044 421.848 -2.83092e-12
-7.60281e-13 -2.83092e-12 420.853

400.878 -15.6865 1.11141e-12
-15.6865 451.392 7.88702e-13
1.11141e-12 7.88702e-13 403.745

406.009 -1.20229 1.66511e-12
-1.20229 468.045 5.32197e-12
1.66511e-12 5.32197e-12 421.229

516.208 29.1344 2.9979e-12
29.1344 498.035 1.76896e-12
2.9979e-12 1.76896e-12 504.885

441.714 -10.9223 -1.67866e-12
-10.9223 500.668 -2.7652e-12
-1.67866e-12 -2.7652e-12 471.158

451.45 -26.7158 2.8102e-12
-26.7158 418.776 -4.26681e-12
2.8102e-12 -4.26681e-12 419.362

444.397 21.333 3.03994e-12
21.333 395.307 3.37389e-12
3.03994e-12 3.37389e-12 398.21

497.605 23.6655 -2.76579e-12
23.6655 458.1 3.09175e-12
-2.76579e-12 3.09175e-12 476.56

447.692 5.47096 2.7797e-12
5.47096 508.801 -1.03739e-12
2.7797e-12 -1.03739e-12 476.892

427.66 29.0661 1.713e-12
29.0661 426.445 1.89004e-12
1.713e-12 1.89004e-12 405.119

536.83 22.9639 -2.65447e-12
22.9639 531.905 -2.85076e-12
-2.65447e-12 -2.85076e-12 522.793

314.757 -59.6927 2.7948e-12
-59.6927 282.775 -6.30844e-12
2.7948e-12 -6.30844e-12 223.429

480.605 -25.0482 1.11022e-12
-25.0482 445.082 -2.38328e-13
1.11022e-12 -2.38328e-13 456.656

336.671 7.07004 -2.66157e-12
7.07004 409.165 8.84626e-12
-2.66157e-12 8.84626e-12 319.448

460.549 -28.8898 -2.00136e-13
-28.8898 444.747 -1.47378e-12
-2.00136e-13 -1.47378e-12 443.463

96.4257 -52.7019 -9.58048e-13
-52.7019 306.624 4.51431e-12
-9.58048e-13 4.51431e-12 113.702

95.9596 51.4525 -8.68046e-13
51.4525 306.888 -4.59958e-12
-8.68046e-13 -4.59958e-12 114.49

181.52 117.156 -1.08002e-12
117.156 226.08 1.83794e-12
-1.08002e-12 1.83794e-12 113.59

182.818 -117.099 9.73444e-13
-117.099 223.316 1.37845e-12
9.73444e-13 1.37845e-12 113.564

321.589 -1.36339 4.26326e-14
-1.36339 84.6551 4.58025e-14
4.26326e-14 4.58025e-14 114.931

274.438 -91.127 3.69482e-12
-91.127 127.421 2.25005e-12
3.69482e-12 2.25005e-12 113.804

275.134 91.6549 -1.29792e-12
91.6549 128.253 -8.52651e-13
-1.29792e-12 -8.52651e-13 114.575

525.25 14.3306 -2.95556e-12
14.3306 474.721 -1.11555e-12
-2.95556e-12 -1.11555e-12 502.324

556.804 25.5363 -5.56177e-12
25.5363 541.19 1.40569e-12
-5.56177e-12 1.40569e-12 533.458

492.103 6.60617 -2.9073e-13
6.60617 439.131 8.21121e-13
-2.9073e-13 8.21121e-13 471.412

470.31 21.785 2.48868e-12
21.785 424.526 -9.17784e-15
2.48868e-12 -9.17784e-15 438.204

409.985 17.7448 -3.78172e-12
17.7448 461.084 -1.1197e-12
-3.78172e-12 -1.1197e-12 425.053

448.021 28.8991 -1.99722e-12
28.8991 424.715 8.14164e-13
-1.99722e-12 8.14164e-13 420.76

487.159 -29.6638 2.10854e-12
-29.6638 465.638 5.92119e-14
2.10854e-12 5.92119e-14 474.6

449.378 28.0284 -1.31332e-12
28.0284 421.081 8.28374e-13
-1.31332e-12 8.28374e-13 418.651

402.973 -2.84136 2.09314e-13
-2.84136 465.392 1.60109e-12
2.09314e-13 1.60109e-12 417.55

555.811 -26.0971 4.73281e-12
-26.0971 543.383 -4.21293e-13
4.73281e-12 -4.21293e-13 533.702

405.511 -4.86255 -5.83681e-13
-4.86255 467.13 5.54105e-12
-5.83681e-13 5.54105e-12 420.609

522.302 23.0165 7.50096e-12
23.0165 499.752 -4.82133e-13
7.50096e-12 -4.82133e-13 507.979

423.388 26.8713 2.45848e-12
26.8713 386.516 1.68043e-12
2.45848e-12 1.68043e-12 373.036

480.12 -13.2161 -4.09894e-12
-13.2161 532.778 2.42206e-12
-4.09894e-12 2.42206e-12 512.01

484.209 13.7282 2.79125e-12
13.7282 432.786 1.50043e-12
2.79125e-12 1.50043e-12 456.885

457.379 -29.9882 4.73754e-12
-29.9882 436.987 1.02229e-12
4.73754e-12 1.02229e-12 437.843

454.319 -24.714 3.63324e-12
-24.714 416.814 4.16852e-13
3.63324e-12 4.16852e-13 419.863

547.413 -16.075 -1.18424e-12
-16.075 509.314 2.69829e-12
-1.18424e-12 2.69829e-12 519.393

475.983 27.9294 1.46253e-12
27.9294 449.716 -1.02525e-12
1.46253e-12 -1.02525e-12 456.935

469.112 23.9779 5.31723e-13
23.9779 427.859 -9.48575e-13
5.31723e-13 -9.48575e-13 439.84

432.438 -2.7929 -4.06841e-12
-2.7929 493.648 -3.33422e-12
-4.06841e-12 -3.33422e-12 457.117

417.617 5.87343 -4.43471e-12
5.87343 479.568 -8.28967e-13
-4.43471e-12 -8.28967e-13 440.187

463.022 2.64677 -2.30926e-13
2.64677 402.289 -6.9356e-12
-2.30926e-13 -6.9356e-12 422.331

438.658 -7.28984 7.41451e-12
-7.28984 373.924 7.95926e-12
7.41451e-12 7.95926e-12 381.227

454.854 30.4853 2.10854e-12
30.4853 439.025 8.46138e-13
2.10854e-12 8.46138e-13 437.847

478.476 -26.1559 2.18847e-12
-26.1559 443.553 2.48986e-13
2.18847e-12 2.48986e-13 454.656

525.71 -21.2544 -8.12979e-13
-21.2544 497.838 9.72851e-13
-8.12979e-13 9.72851e-13 508.628

437.743 -31.6343 6.63232e-12
-31.6343 437.666 2.62901e-13
6.63232e-12 2.62901e-13 426.869

417.6 -27.7862 -1.82373e-12
-27.7862 444.407 -2.67046e-12
-1.82373e-12 -2.67046e-12 419.698

430.657 29.8878 -3.59179e-12
29.8878 442.755 -3.66818e-12
-3.59179e-12 -3.66818e-12 426.507

416.235 -9.57811 -3.3357e-12
-9.57811 475.222 1.10371e-12
-3.3357e-12 1.10371e-12 436.465

428.905 -1.54492 -3.31868e-12
-1.54492 491.879 2.52657e-12
-3.31868e-12 2.52657e-12 454.005

445.191 5.74789 -3.68687e-12
5.74789 508.054 9.95352e-13
-3.68687e-12 9.95352e-13 474.924

414.629 -21.0896 2.05761e-12
-21.0896 458.418 -1.3974e-13
2.05761e-12 -1.3974e-13 426.075

496.879 24.1116 1.78109e-12
24.1116 455.706 -1.67984e-12
1.78109e-12 -1.67984e-12 474.603

483.384 -9.58994 1.68754e-12
-9.58994 430.122 -4.959e-14
1.68754e-12 -4.959e-14 455.231

415.643 7.4654 1.49262e-12
7.4654 477.132 2.49815e-12
1.49262e-12 2.49815e-12 436.923

443.965 -9.70116 1.79738e-12
-9.70116 501.515 -3.22586e-12
1.79738e-12 -3.22586e-12 471.017

433.184 -16.331 2.14673e-12
-16.331 481.687 9.77588e-13
2.14673e-12 9.77588e-13 455.678

463.551 -8.23939 -4.1247e-12
-8.23939 406.345 3.5761e-12
-4.1247e-12 3.5761e-12 421.481

494.444 -32.3468 -1.91995e-12
-32.3468 487.626 9.55384e-13
-1.91995e-12 9.55384e-13 496.261

422.954 9.32115 -7.46662e-13
9.32115 479.102 3.34547e-13
-7.46662e-13 3.34547e-13 440.99

564.365 -18.2127 4.05276e-12
-18.2127 529.959 1.74187e-12
4.05276e-12 1.74187e-12 531.84

309.055 24.8234 8.39033e-13
24.8234 379.432 3.76824e-12
8.39033e-13 3.76824e-12 289.804

501.708 -26.6264 -2.24324e-12
-26.6264 499.5 -1.80448e-12
-2.24324e-12 -1.80448e-12 501.21

515.659 -30.2029 -3.37389e-12
-30.2029 498.413 -3.90206e-13
-3.37389e-12 -3.90206e-13 504.928

429.233 -0.701202 1.07322e-12
-0.701202 492.005 8.90547e-13
1.07322e-12 8.90547e-13 454.156

474.893 -16.6229 -8.05282e-12
-16.6229 428.347 2.25272e-12
-8.05282e-12 2.25272e-12 441.967

462.315 12.8417 1.90923e-12
12.8417 511.286 -2.10202e-13
1.90923e-12 -2.10202e-13 489.132

240.781 -3.1807 -4.33557e-12
-3.1807 360.696 2.66217e-12
-4.33557e-12 2.66217e-12 226.971

432.414 14.2739 1.06715e-12
14.2739 485.368 5.26631e-12
1.06715e-12 5.26631e-12 456.893

458.123 -29.4899 4.23957e-12
-29.4899 443.181 2.53723e-12
4.23957e-12 2.53723e-12 440.773

304.194 25.1062 -1.28667e-12
25.1062 394.593 1.83794e-12
-1.28667e-12 1.83794e-12 264.347

603.555 26.0972 -1.21828e-11
26.0972 597.96 2.43805e-13
-1.21828e-11 2.43805e-13 558.165

608.289 -27.8065 5.43891e-12
-27.8065 595.035 -1.45985e-11
5.43891e-12 -1.45985e-11 558.298

463.505 -30.4197 -4.10279e-12
-30.4197 459.049 2.60118e-12
-4.10279e-12 2.60118e-12 459.083

434.595 -31.161 -1.58629e-12
-31.161 436.371 1.01608e-12
-1.58629e-12 1.01608e-12 424.673

474.113 20.8279 4.64813e-13
20.8279 431.926 7.09655e-13
4.64813e-13 7.09655e-13 443.984

465.234 15.0065 3.82746e-12
15.0065 410.127 2.65921e-12
3.82746e-12 2.65921e-12 427.474

646.071 3.08304 -2.20057e-11
3.08304 645.729 -6.17417e-12
-2.20057e-11 -6.17417e-12 574.626

649.892 -6.99937 1.91018e-12
-6.99937 641.4 1.07437e-11
1.91018e-12 1.07437e-11 575.154

497 4.82427 8.08834e-13
4.82427 442.046 5.07209e-12
8.08834e-13 5.07209e-12 477.424

443.568 6.73123 5.29169e-12
6.73123 503.001 -3.84463e-12
5.29169e-12 -3.84463e-12 471.061

441.982 6.73635 -4.26458e-12
6.73635 502.526 -4.05661e-12
-4.26458e-12 -4.05661e-12 469.784

321.543 58.6357 9.4739e-15
58.6357 281.129 1.78109e-12
9.4739e-15 1.78109e-12 225.082

420.239 -28.2006 2.16005e-12
-28.2006 444.035 2.08426e-12
2.16005e-12 2.08426e-12 421.042

520.589 17.9744 -1.72011e-12
17.9744 467.541 6.81233e-13
-1.72011e-12 6.81233e-13 499.52

472.992 9.53993 5.27223e-12
9.53993 421.208 1.69538e-12
5.27223e-12 1.69538e-12 436.214

440.641 -26.724 -4.42313e-12
-26.724 450.738 -6.11659e-12
-4.42313e-12 -6.11659e-12 433.426

469.288 -20.2382 -9.75457e-12
-20.2382 422.727 9.22521e-13
-9.75457e-12 9.22521e-13 437.187

312.48 60.2336 -3.59535e-12
60.2336 281.378 5.37526e-12
-3.59535e-12 5.37526e-12 223.22

492.692 31.0693 -1.91195e-12
31.0693 489.053 1.5475e-12
-1.91195e-12 1.5475e-12 493.149

410.873 -19.7867 3.64183e-12
-19.7867 457.893 -3.11336e-12
3.64183e-12 -3.11336e-12 423.509

474.14 28.8583 2.35071e-12
28.8583 449.642 1.16233e-12
2.35071e-12 1.16233e-12 456.529

430.967 -4.14501 3.67884e-12
-4.14501 492.985 -5.17038e-12
3.67884e-12 -5.17038e-12 456.478

423.941 19.6097 3.56811e-12
19.6097 465.723 3.60956e-12
3.56811e-12 3.60956e-12 434.119

452.759 30.5195 4.93827e-13
30.5195 443.609 2.67223e-12
4.93827e-13 2.67223e-12 439.619

428.654 -22.4738 2.62486e-12
-22.4738 461.149 -7.12319e-13
2.62486e-12 -7.12319e-13 433.824

443.586 -27.3533 4.05898e-12
-27.3533 450.444 -1.60701e-12
4.05898e-12 -1.60701e-12 435.057

294.785 11.2573 -4.49329e-12
11.2573 372.594 4.43142e-12
-4.49329e-12 4.43142e-12 258.108

357.307 -33.4572 2.55795e-13
-33.4572 389.127 -7.53175e-13
2.55795e-13 -7.53175e-13 314.137

419.668 -11.6908 4.74339e-12
-11.6908 476.373 -1.46786e-12
4.74339e-12 -1.46786e-12 439.356

478.409 26.4851 -3.11455e-13
26.4851 446.81 1.803e-12
-3.11455e-13 1.803e-12 456.095

452.356 29.4786 3.45383e-12
29.4786 449.038 -2.01913e-12
3.45383e-12 -2.01913e-12 442.411

426.819 -21.4345 5.34269e-12
-21.4345 461.796 -2.9529e-12
5.34269e-12 -2.9529e-12 432.641

422.941 -11.7827 1.79856e-12
-11.7827 476.659 6.83305e-13
1.79856e-12 6.83305e-13 439.939

457.718 28.4102 7.94624e-13
28.4102 447.098 -3.69482e-13
7.94624e-13 -3.69482e-13 442.582

425.116 -13.8782 5.01229e-13
-13.8782 476.431 -3.25133e-12
5.01229e-13 -3.25133e-12 442.116

311.272 27.8558 1.41516e-13
27.8558 377.4 -8.00071e-12
1.41516e-13 -8.00071e-12 289.991

485.179 -4.04107 -1.57876e-12
-4.04107 545.059 -1.15522e-12
-1.57876e-12 -1.15522e-12 511.047

432.996 31.0284 8.76336e-14
31.0284 439.639 -1.62418e-12
8.76336e-14 -1.62418e-12 426.03

509.321 14.9015 2.12808e-12
14.9015 463.172 3.77269e-12
2.12808e-12 3.77269e-12 488.616

516.932 -15.9278 -1.21059e-12
-15.9278 467.592 -2.83181e-12
-1.21059e-12 -2.83181e-12 493.934

383.935 -24.2052 2.54374e-12
-24.2052 305.955 -4.03707e-12
2.54374e-12 -4.03707e-12 285.361

442.29 -21.2677 6.47393e-12
-21.2677 476.011 3.78186e-12
6.47393e-12 3.78186e-12 459.332

447.839 26.6988 8.1594e-13
26.6988 466.219 -9.02389e-13
8.1594e-13 -9.02389e-13 457.852

522.984 -21.7278 1.16263e-12
-21.7278 543.82 -3.76051e-12
1.16263e-12 -3.76051e-12 525.318

579.589 14.106 7.85387e-12
14.106 617.625 4.29642e-12
7.85387e-12 4.29642e-12 557.06

620.211 9.4453 4.74731e-13
9.4453 576.847 -1.42671e-12
4.74731e-13 -1.42671e-12 556.878

523.479 32.7052 -3.69837e-12
32.7052 520.66 -3.79859e-12
-3.69837e-12 -3.79859e-12 519.534

414.901 26.0011 5.88862e-12
26.0011 448.917 -3.44672e-12
5.88862e-12 -3.44672e-12 420.387

478.107 26.6619 1.12917e-12
26.6619 444.78 8.76336e-13
1.12917e-12 8.76336e-13 455.518

332.371 45.1873 -2.45137e-13
45.1873 349.498 2.69059e-12
-2.45137e-13 2.69059e-12 286.747

571.396 -11.3431 -1.00801e-11
-11.3431 614.476 -2.62812e-12
-1.00801e-11 -2.62812e-12 554.603

641.328 -3.43262 8.60545e-12
-3.43262 636.872 7.88318e-12
8.60545e-12 7.88318e-12 572.402

634.907 -0.209762 8.30802e-12
-0.209762 643.179 -1.33654e-11
8.30802e-12 -1.33654e-11 572.229

272.969 -53.8038 6.08698e-13
-53.8038 316.454 -1.7953e-12
6.08698e-13 -1.7953e-12 220.914

566.646 -11.5998 7.36744e-13
-11.5998 562.131 -1.47793e-12
7.36744e-13 -1.47793e-12 540.906

563.777 8.81265 4.31233e-12
8.81265 586.968 6.93667e-13
4.31233e-12 6.93667e-13 546.848

478.255 -26.2 -2.80309e-12
-26.2 440.452 -4.15312e-12
-2.80309e-12 -4.15312e-12 453.492

494.358 1.01083 3.06196e-12
1.01083 545.768 2.77763e-12
3.06196e-12 2.77763e-12 514.066

447.661 -20.2683 2.22415e-12
-20.2683 484.169 9.05883e-12
2.22415e-12 9.05883e-12 470.648

506.312 6.25538 -3.06599e-12
6.25538 443.385 1.16773e-12
-3.06599e-12 1.16773e-12 486.135

461.285 15.5963 -3.70089e-12
15.5963 521.263 2.10854e-12
-3.70089e-12 2.10854e-12 497.567

471.19 7.19148 -7.52731e-13
7.19148 528.016 9.75812e-13
-7.52731e-13 9.75812e-13 497.7

493.774 20.3932 -4.87965e-12
20.3932 451.528 -8.30447e-13
-4.87965e-12 -8.30447e-13 469.761

241.07 -3.11391 -1.42124e-11
-3.11391 358.568 -2.62901e-12
-1.42124e-11 -2.62901e-12 227.069

463.711 -27.6243 1.08535e-12
-27.6243 463.402 -1.72366e-12
1.08535e-12 -1.72366e-12 461.201

488.355 -26.1168 1.18542e-12
-26.1168 481.608 -2.1337e-12
1.18542e-12 -2.1337e-12 485.879

497.548 -31.4837 -2.04903e-12
-31.4837 489.969 3.72206e-12
-2.04903e-12 3.72206e-12 498.991

355.608 32.7504 -5.64408e-12
32.7504 285.785 8.50579e-13
-5.64408e-12 8.50579e-13 248.372

563.888 -20.1163 7.44797e-12
-20.1163 569.62 -7.85002e-13
7.44797e-12 -7.85002e-13 542.579

337.655 54.3235 4.99748e-13
54.3235 356.665 9.71075e-13
4.99748e-13 9.71075e-13 258.881

477.082 -21.4394 -5.9542e-12
-21.4394 506.5 -1.84741e-13
-5.9542e-12 -1.84741e-13 500.254

504.784 14.6504 -1.50398e-13
14.6504 451.998 -1.11422e-12
-1.50398e-13 -1.11422e-12 481.571

449.842 -14.5728 4.73932e-12
-14.5728 396.996 6.23368e-12
4.73932e-12 6.23368e-12 400.85

452.604 24.0471 3.84374e-12
24.0471 478.791 7.11135e-12
3.84374e-12 7.11135e-12 467.859

493.677 20.4282 -2.95704e-12
20.4282 449.511 -6.86088e-12
-2.95704e-12 -6.86088e-12 469.352

505.574 11.4002 3.66388e-12
11.4002 564.424 -9.25778e-13
3.66388e-12 -9.25778e-13 526.72

475.906 -31.5806 -1.4122e-13
-31.5806 470.367 1.13272e-12
-1.4122e-13 1.13272e-12 475.074

559.278 19.8123 5.59552e-13
19.8123 510.448 -3.75788e-12
5.59552e-13 -3.75788e-12 526.496

439.969 -18.4438 5.17097e-12
-18.4438 482.476 5.20709e-12
5.17097e-12 5.20709e-12 459.16

465.907 4.28336 1.31408e-12
4.28336 526.118 5.03597e-12
1.31408e-12 5.03597e-12 495.52

588.645 9.92699 1.40865e-12
9.92699 552.468 4.26207e-12
1.40865e-12 4.26207e-12 545.196

590.428 -8.51365 -6.94408e-12
-8.51365 554.81 -5.57243e-12
-6.94408e-12 -5.57243e-12 545.714

382.318 18.5128 6.987e-13
18.5128 302.294 1.3524e-12
6.987e-13 1.3524e-12 286.141

502.689 7.96519 -1.70886e-12
7.96519 453.611 7.68126e-13
-1.70886e-12 7.68126e-13 487.776

232.82 7.74071 -8.89896e-12
7.74071 381.523 -8.28967e-13
-8.89896e-12 -8.28967e-13 187.191

236.989 -11.3854 -5.30949e-12
-11.3854 387.216 2.269e-12
-5.30949e-12 2.269e-12 189.455

249.292 56.4076 8.05992e-12
56.4076 354.784 -6.47541e-12
8.05992e-12 -6.47541e-12 184.027

505.025 -28.9508 -4.31122e-12
-28.9508 478.625 1.29171e-12
-4.31122e-12 1.29171e-12 491.353

258.477 -49.1914 8.86757e-12
-49.1914 341.848 1.75978e-12
8.86757e-12 1.75978e-12 220.739

249.297 -55.9501 -8.36072e-13
-55.9501 344.758 -2.72375e-12
-8.36072e-13 -2.72375e-12 181.119

434.664 26.2207 -4.96314e-12
26.2207 454.403 -4.37043e-12
-4.96314e-12 -4.37043e-12 432.834

329.93 73.8447 8.52651e-14
73.8447 280.015 3.65219e-12
8.52651e-14 3.65219e-12 184.831

540.134 13.047 -3.1033e-12
13.047 554.955 -8.08538e-13
-3.1033e-12 -8.08538e-13 532.086

562.391 0.0399305 -2.79377e-12
0.0399305 532.461 -1.65024e-12
-2.79377e-12 -1.65024e-12 531.878

338.608 -73.1301 -6.30962e-12
-73.1301 279.863 9.54496e-13
-6.30962e-12 9.54496e-13 186.314

432.68 -23.4244 2.39808e-14
-23.4244 466.321 -4.67715e-12
2.39808e-14 -4.67715e-12 447.582

358.939 34.7298 -5.38591e-12
34.7298 310.982 5.35986e-12
-5.38591e-12 5.35986e-12 258.043

267.71 63.4916 2.33769e-12
63.4916 345.216 -1.80478e-12
2.33769e-12 -1.80478e-12 185.849

293.699 21.6306 8.19374e-12
21.6306 367.669 2.85164e-12
8.19374e-12 2.85164e-12 254.503

267.581 -65.9205 7.1528e-12
-65.9205 344.852 4.26326e-14
7.1528e-12 4.26326e-14 184.305

291.646 -12.3813 -7.12082e-12
-12.3813 370.89 -4.86011e-12
-7.12082e-12 -4.86011e-12 253.448

550.313 6.84122 -8.06274e-12
6.84122 582.084 -2.63375e-12
-8.06274e-12 -2.63375e-12 541.125

329.896 -45.9757 2.67046e-12
-45.9757 341.823 -2.61953e-12
2.67046e-12 -2.61953e-12 276.621

259.787 47.5327 3.72324e-12
47.5327 340.224 2.82559e-12
3.72324e-12 2.82559e-12 223.15

370.223 37.9119 1.80478e-12
37.9119 244.925 -7.70347e-13
1.80478e-12 -7.70347e-13 187.361

481.901 -29.2861 1.58392e-12
-29.2861 460.522 5.36815e-12
1.58392e-12 5.36815e-12 467.724

480.986 12.8966 8.47026e-13
12.8966 525.839 -1.63366e-12
8.47026e-13 -1.63366e-12 504.113

354.426 -38.1131 -1.26003e-12
-38.1131 300.083 -4.36273e-12
-1.26003e-12 -4.36273e-12 251.82

482.545 -28.8026 -1.2097e-12
-28.8026 460.331 -1.33434e-12
-1.2097e-12 -1.33434e-12 468.473

365.27 -36.3437 8.2423e-13
-36.3437 230.993 9.09139e-12
8.2423e-13 9.09139e-12 182.774

481.513 -28.3178 -1.7284e-12
-28.3178 472.765 2.07834e-13
-1.7284e-12 2.07834e-13 477.928

436.363 -25.2954 -2.70894e-13
-25.2954 466.235 -8.24762e-12
-2.70894e-13 -8.24762e-12 448.22

314.804 69.4611 3.78956e-14
69.4611 292.147 4.73695e-15
3.78956e-14 4.73695e-15 184.528

290.788 -22.9332 4.86485e-12
-22.9332 359.172 -5.26749e-12
4.86485e-12 -5.26749e-12 247.035

312.406 -71.6932 9.4739e-15
-71.6932 288.127 -1.76451e-12
9.4739e-15 -1.76451e-12 182.03

268.552 50.7382 2.64796e-12
50.7382 320.066 -9.95233e-12
2.64796e-12 -9.95233e-12 221.509

459.872 -30.2127 6.38245e-12
-30.2127 454.855 3.74071e-12
6.38245e-12 3.74071e-12 454.41

559.294 -14.6405 2.43361e-13
-14.6405 544.419 -6.62877e-13
2.43361e-13 -6.62877e-13 533.725

635.924 11.0921 3.53229e-12
11.0921 631.386 -3.91539e-13
3.53229e-12 -3.91539e-13 570.025

619.96 -5.16009 -3.17317e-12
-5.16009 639.74 -1.81383e-12
-3.17317e-12 -1.81383e-12 568.503

453.879 13.0837 5.63631e-12
13.0837 506.565 -2.94046e-12
5.63631e-12 -2.94046e-12 482.582

634.153 -10.6664 -5.9243e-12
-10.6664 631.316 -5.39835e-12
-5.9243e-12 -5.39835e-12 569.88

622.698 4.09189 -5.33307e-12
4.09189 642.686 9.33923e-12
-5.33307e-12 9.33923e-12 569.704

643.377 7.43341 1.15287e-11
7.43341 619.151 1.13761e-12
1.15287e-11 1.13761e-12 569.027

584.78 -12.1145 3.94329e-12
-12.1145 631.671 -1.574e-12
3.94329e-12 -1.574e-12 560.599

307.45 -30.4708 3.5012e-12
-30.4708 371.641 -3.43429e-12
3.5012e-12 -3.43429e-12 280.776

589.631 -12.9721 -6.78864e-13
-12.9721 549.119 4.24253e-13
-6.78864e-13 4.24253e-13 543.834

527.215 -34.4173 -5.47414e-13
-34.4173 521.495 8.3622e-13
-5.47414e-13 8.3622e-13 519.974

565.471 -18.177 6.9423e-12
-18.177 537.997 -1.20555e-12
6.9423e-12 -1.20555e-12 534.266

502.58 15.4595 3.61489e-12
15.4595 452.125 -6.23975e-12
3.61489e-12 -6.23975e-12 480.217

586.353 9.86379 -1.09559e-11
9.86379 642.137 6.22983e-12
-1.09559e-11 6.22983e-12 563.109

636.66 19.227 -3.20396e-12
19.227 591.727 5.38958e-12
-3.20396e-12 5.38958e-12 562.931

569.782 11.3068 -1.61056e-13
11.3068 544.346 -2.97999e-12
-1.61056e-13 -2.97999e-12 536.444

353.45 -15.3398 -8.28967e-14
-15.3398 231.52 3.58587e-12
-8.28967e-14 3.58587e-12 219.019

437.216 24.9646 -4.12322e-12
24.9646 461.923 -3.5835e-12
-4.12322e-12 -3.5835e-12 445.732

317.097 -61.3559 -5.35276e-12
-61.3559 277.854 -3.40824e-12
-5.35276e-12 -3.40824e-12 218.093

334.215 -57.4583 -3.63798e-12
-57.4583 357.33 3.2306e-12
-3.63798e-12 3.2306e-12 252.545

383.342 -36.5448 3.07428e-12
-36.5448 305.745 -8.92915e-13
3.07428e-12 -8.92915e-13 257.765

562.502 -5.15889 4.51417e-12
-5.15889 616.955 -3.7074e-12
4.51417e-12 -3.7074e-12 552.957

562.209 2.89127 -4.05098e-12
2.89127 615.82 -1.52056e-12
-4.05098e-12 -1.52056e-12 552.556

598.774 -24.4554 -2.97747e-12
-24.4554 575.747 9.72555e-14
-2.97747e-12 9.72555e-14 551.585

602.334 -21.7596 4.32543e-13
-21.7596 573.438 -1.98982e-12
4.32543e-13 -1.98982e-12 551.851

598.787 26.135 -1.94333e-12
26.135 580.463 -2.62464e-12
-1.94333e-12 -2.62464e-12 552.741

625.745 3.09885 1.05202e-11
3.09885 630.737 6.12636e-12
1.05202e-11 6.12636e-12 568.426

599.064 -20.5082 -4.959e-12
-20.5082 576.359 3.72021e-12
-4.959e-12 3.72021e-12 552.274

607.814 -18.5678 1.856e-12
-18.5678 620.265 2.71383e-12
1.856e-12 2.71383e-12 563.192

632.903 2.43407 1.04327e-11
2.43407 635.528 6.18409e-12
1.04327e-11 6.18409e-12 570.511

607.89 -20.5255 5.33965e-12
-20.5255 572.432 2.51058e-12
5.33965e-12 2.51058e-12 553.413

607.076 20.955 5.50079e-12
20.955 573.69 -2.04844e-12
5.50079e-12 -2.04844e-12 553.816

633.854 -3.45806 1.35891e-13
-3.45806 636.779 7.31963e-12
1.35891e-13 7.31963e-12 571.285

632.184 -3.11654 2.0572e-11
-3.11654 625.759 -4.1019e-11
2.0572e-11 -4.1019e-11 569.401

609.685 12.1097 -1.18994e-11
12.1097 620.488 2.83586e-11
-1.18994e-11 2.83586e-11 563.923

587.208 26.9289 1.65823e-12
26.9289 583.023 -6.26652e-12
1.65823e-12 -6.26652e-12 551.709

FIELD solute_concentration_TPM 2
S_ext 1 563 float
0.944767
0.944587
0.944605
0.944588
0.94456
0.944605
0.944767
0.944597
0.944621
0.94459
0.944729
0.944597
0.944601
0.94459
0.944567
0.944604
0.944582
0.944596
0.944625
0.944608
0.944614
0.944513
0.94461
0.944608
0.944609
0.944592
0.94472
0.944604
0.94467
0.944537
0.944602
0.944669
0.944725
0.944545
0.944544
0.944545
0.944534
0.944546
0.944602
0.944725
0.94467
0.944533
0.944533
0.944601
0.944701
0.944669
0.944623
0.944619
0.944605
0.944678
0.944673
0.944655
0.944559
0.944656
0.94456
0.944706
0.944544
0.944655
0.944544
0.944607
0.944581
0.944574
0.944716
0.944576
0.944574
0.944587
0.944581
0.944593
0.944609
0.944586
0.944559
0.944559
0.944671
0.944583
0.944606
0.944728
0.944569
0.944587
0.944593
0.944648
0.944687
0.944556
0.944577
0.944689
0.944669
0.944704
0.944603
0.944586
0.944701
0.944521
0.944656
0.944521
0.944566
0.944589
0.944655
0.944673
0.944688
0.94459
0.944569
0.944602
0.944638
0.944666
0.944688
0.944592
0.944592
0.944591
0.944576
0.944604
0.944689
0.944582
0.944607
0.944698
0.944692
0.944594
0.944591
0.944656
0.944547
0.94469
0.944547
0.944655
0.944629
0.944568
0.944586
0.944582
0.944582
0.944566
0.94455
0.94459
0.944688
0.944654
0.944557
0.944587
0.944577
0.944586
0.944667
0.944543
0.944698
0.9446
0.944577
0.944543
0.944664
0.944595
0.944629
0.94459
0.944691
0.944591
0.944596
0.944607
0.944606
0.944641
0.944618
0.944586
0.944668
0.944601
0.94459
0.944586
0.944588
0.944664
0.944663
0.944598
0.944618
0.944667
0.9447
0.944672
0.944662
0.944591
0.944663
0.944664
0.944669
0.944662
0.944566
0.944655
0.944673
0.944587
0.944655
0.944577
0.944566
0.944598
0.94456
0.944593
0.944671
0.94459
0.94459
0.944663
0.944585
0.944674
0.944582
0.944578
0.944567
0.94459
0.944585
0.944687
0.944655
0.944669
0.944586
0.944595
0.944594
0.944577
0.944586
0.944588
0.944586
0.944624
0.944648
0.944578
0.944671
0.944577
0.944588
0.944665
0.944573
0.944586
0.944574
0.944591
0.944592
0.944577
0.94464
0.944591
0.944647
0.944578
0.944581
0.944581
0.944581
0.944582
0.944582
0.944582
0.94459
0.944567
0.944567
0.944567
0.944567
0.944561
0.94456
0.944641
0.944589
0.944586
0.94462
0.944568
0.944567
0.944586
0.944647
0.944586
0.94459
0.94464
0.944572
0.944641
0.944578
0.944585
0.944639
0.944646
0.944687
0.944679
0.944577
0.944693
0.944602
0.944647
0.944625
0.944586
0.944581
0.944535
0.944581
0.944697
0.944646
0.944585
0.944597
0.944648
0.944581
0.944629
0.944534
0.944647
0.944581
0.944583
0.944594
0.944568
0.944586
0.94456
0.944599
0.944699
0.944704
0.944565
0.944612
0.944597
0.944643
0.944572
0.944587
0.944646
0.944588
0.944638
0.944596
0.944638
0.944647
0.944526
0.944564
0.944565
0.944565
0.94459
0.944637
0.944547
0.944584
0.944617
0.944636
0.944642
0.944564
0.94464
0.944568
0.944641
0.944701
0.944637
0.944692
0.944577
0.944639
0.944525
0.94464
0.944581
0.944641
0.944582
0.94464
0.944605
0.944723
0.944605
0.944641
0.944563
0.94464
0.944617
0.944584
0.944586
0.94464
0.944637
0.944629
0.94458
0.944637
0.944598
0.944604
0.944561
0.944638
0.944629
0.944615
0.944629
0.944638
0.944628
0.944575
0.944597
0.944629
0.94464
0.944594
0.944594
0.944637
0.944562
0.944736
0.944607
0.944687
0.944615
0.944792
0.944792
0.94479
0.94479
0.944788
0.944797
0.944797
0.944577
0.944552
0.944597
0.944617
0.944624
0.944629
0.944596
0.944629
0.94463
0.944552
0.944628
0.944574
0.944655
0.944568
0.944606
0.944618
0.944629
0.944566
0.944607
0.944617
0.944606
0.944616
0.944627
0.94465
0.944617
0.944608
0.944573
0.944624
0.944628
0.944624
0.944618
0.944608
0.944595
0.944624
0.944595
0.944607
0.944618
0.944597
0.944607
0.944627
0.944581
0.944616
0.944552
0.944701
0.944578
0.944576
0.944608
0.944616
0.944586
0.944736
0.944606
0.944617
0.944722
0.944529
0.944529
0.944605
0.944625
0.944615
0.944624
0.944513
0.944512
0.944594
0.944597
0.944598
0.94474
0.944627
0.94458
0.94462
0.944621
0.944618
0.944735
0.944583
0.944626
0.944607
0.944607
0.944621
0.944617
0.944621
0.94462
0.944723
0.944691
0.944617
0.944607
0.944616
0.944621
0.944617
0.944615
0.944615
0.944702
0.944569
0.944624
0.944586
0.944582
0.944704
0.944605
0.944606
0.944562
0.944524
0.944523
0.944564
0.944628
0.944607
0.944704
0.944526
0.944511
0.944511
0.944737
0.944546
0.944536
0.944609
0.944568
0.944598
0.944588
0.94458
0.94458
0.944599
0.944735
0.944604
0.944589
0.94458
0.944729
0.944541
0.944728
0.944578
0.944592
0.944639
0.9446
0.944599
0.944556
0.944595
0.944557
0.944605
0.944581
0.94454
0.944541
0.944706
0.944587
0.944769
0.94477
0.944769
0.944584
0.944741
0.94477
0.944622
0.944768
0.944555
0.944555
0.944768
0.944611
0.944726
0.944773
0.944725
0.944773
0.944726
0.944545
0.94471
0.94474
0.944767
0.9446
0.944575
0.944728
0.944599
0.944767
0.944593
0.944611
0.944774
0.944729
0.944774
0.944737
0.944607
0.944552
0.944511
0.944512
0.94459
0.944511
0.944511
0.944512
0.944522
0.944707
0.94454
0.944565
0.944553
0.944592
0.94452
0.94452
0.944552
0.944737
0.944613
0.944744
0.944732
0.944724
0.944527
0.944527
0.944529
0.944529
0.944527
0.944516
0.944532
0.944521
0.944515
0.94453
0.944529
0.944515
0.944514
0.94452
0.944531
P_ext 1 563 float
0.0179342
0.0179298
0.0179304
0.0179298
0.0179282
0.0179304
0.0179342
0.0179301
0.0179309
0.0179298
0.0179334
0.0179301
0.0179302
0.0179298
0.0179286
0.0179304
0.0179295
0.0179301
0.017931
0.0179305
0.0179307
0.0179252
0.0179306
0.0179305
0.0179306
0.01793
0.0179332
0.0179303
0.0179322
0.0179268
0.0179303
0.0179321
0.0179333
0.0179273
0.0179273
0.0179273
0.0179267
0.0179274
0.0179303
0.0179333
0.0179322
0.0179266
0.0179267
0.0179303
0.0179328
0.0179322
0.017931
0.0179308
0.0179304
0.0179324
0.0179322
0.0179318
0.0179281
0.0179319
0.0179282
0.017933
0.0179272
0.0179318
0.0179273
0.0179305
0.0179295
0.0179291
0.0179332
0.0179291
0.017929
0.0179296
0.0179294
0.01793
0.0179306
0.0179297
0.0179282
0.0179282
0.0179322
0.0179294
0.0179305
0.0179334
0.0179287
0.0179296
0.01793
0.0179316
0.0179325
0.017928
0.0179292
0.0179326
0.0179321
0.0179329
0.0179303
0.0179295
0.0179328
0.0179254
0.0179318
0.0179254
0.0179286
0.0179296
0.0179318
0.0179322
0.0179326
0.0179299
0.0179287
0.0179303
0.0179314
0.0179321
0.0179326
0.01793
0.0179299
0.0179299
0.0179291
0.0179303
0.0179326
0.0179295
0.0179305
0.0179328
0.0179327
0.01793
0.01793
0.0179319
0.0179273
0.0179326
0.0179273
0.0179318
0.0179311
0.0179287
0.0179297
0.0179294
0.0179294
0.0179286
0.0179275
0.0179299
0.0179326
0.0179318
0.0179281
0.0179298
0.0179292
0.0179298
0.0179321
0.0179272
0.0179328
0.0179302
0.0179292
0.0179272
0.017932
0.0179299
0.0179311
0.0179298
0.0179327
0.0179299
0.0179299
0.0179304
0.0179304
0.0179314
0.0179308
0.0179297
0.0179321
0.0179303
0.0179299
0.0179298
0.0179297
0.017932
0.017932
0.0179302
0.0179308
0.0179321
0.0179329
0.0179322
0.017932
0.0179299
0.017932
0.0179321
0.0179322
0.017932
0.0179285
0.0179318
0.0179323
0.0179297
0.0179318
0.0179292
0.0179285
0.01793
0.0179282
0.0179299
0.0179322
0.0179299
0.0179299
0.017932
0.0179295
0.0179323
0.0179294
0.0179292
0.0179285
0.0179299
0.0179295
0.0179326
0.0179318
0.0179321
0.0179298
0.0179301
0.01793
0.0179293
0.0179297
0.0179296
0.0179297
0.017931
0.0179317
0.0179293
0.0179322
0.0179292
0.0179296
0.0179321
0.0179289
0.0179297
0.0179289
0.0179298
0.01793
0.0179292
0.0179314
0.0179298
0.0179316
0.0179292
0.0179295
0.0179295
0.0179295
0.0179295
0.0179295
0.0179296
0.0179298
0.0179287
0.0179287
0.0179286
0.0179287
0.0179282
0.0179281
0.0179315
0.0179298
0.0179297
0.0179309
0.0179286
0.0179286
0.0179297
0.0179316
0.0179298
0.0179299
0.0179315
0.0179289
0.0179315
0.0179292
0.0179298
0.0179314
0.0179316
0.0179326
0.0179324
0.0179292
0.0179327
0.0179303
0.0179316
0.017931
0.0179298
0.0179295
0.0179266
0.0179295
0.0179328
0.0179316
0.0179297
0.0179301
0.0179317
0.0179295
0.0179311
0.0179267
0.0179316
0.0179294
0.0179295
0.0179301
0.0179286
0.0179295
0.0179282
0.0179302
0.0179328
0.0179329
0.0179284
0.0179307
0.0179301
0.0179315
0.0179289
0.0179297
0.0179316
0.0179297
0.0179314
0.0179299
0.0179314
0.0179316
0.017926
0.0179285
0.0179286
0.0179286
0.0179298
0.0179314
0.0179274
0.0179295
0.0179308
0.0179313
0.0179315
0.0179284
0.0179315
0.0179286
0.0179315
0.0179329
0.0179313
0.0179327
0.0179292
0.0179314
0.017926
0.0179315
0.0179293
0.0179315
0.0179294
0.0179314
0.0179304
0.0179333
0.0179304
0.0179315
0.0179284
0.0179314
0.0179307
0.0179295
0.0179297
0.0179314
0.0179314
0.0179311
0.0179292
0.0179313
0.0179301
0.0179303
0.0179283
0.0179314
0.0179311
0.0179307
0.0179311
0.0179314
0.0179311
0.017929
0.0179301
0.0179311
0.0179314
0.0179299
0.0179299
0.0179314
0.0179283
0.0179336
0.0179304
0.0179326
0.0179307
0.0179347
0.0179347
0.0179346
0.0179346
0.0179346
0.0179348
0.0179348
0.0179291
0.0179276
0.0179301
0.0179307
0.017931
0.0179311
0.0179299
0.0179311
0.0179312
0.0179276
0.0179311
0.0179289
0.0179318
0.0179288
0.0179304
0.0179308
0.0179311
0.0179284
0.0179304
0.0179308
0.0179304
0.0179307
0.0179311
0.0179317
0.0179307
0.0179305
0.0179289
0.017931
0.0179311
0.017931
0.0179308
0.0179305
0.0179299
0.017931
0.01793
0.0179304
0.0179308
0.0179301
0.0179305
0.0179311
0.0179294
0.0179307
0.0179277
0.0179329
0.0179292
0.017929
0.0179304
0.0179308
0.0179296
0.0179336
0.0179304
0.0179308
0.0179333
0.0179261
0.0179261
0.0179303
0.017931
0.0179307
0.017931
0.0179249
0.0179249
0.01793
0.0179301
0.0179301
0.0179337
0.0179311
0.0179293
0.0179309
0.0179309
0.0179308
0.0179336
0.0179294
0.0179311
0.0179304
0.0179304
0.0179309
0.0179308
0.0179309
0.0179309
0.0179333
0.0179326
0.0179308
0.0179304
0.0179307
0.0179309
0.0179308
0.0179307
0.0179307
0.0179329
0.0179287
0.017931
0.0179296
0.0179294
0.0179329
0.0179304
0.0179305
0.0179282
0.017926
0.017926
0.0179284
0.0179311
0.0179304
0.0179329
0.0179262
0.0179251
0.0179251
0.0179336
0.0179274
0.0179268
0.0179305
0.0179286
0.0179302
0.0179298
0.0179293
0.0179293
0.0179301
0.0179336
0.0179304
0.0179297
0.0179293
0.0179335
0.0179271
0.0179334
0.0179293
0.0179299
0.0179314
0.0179303
0.0179301
0.017928
0.01793
0.017928
0.0179304
0.0179294
0.0179269
0.0179269
0.017933
0.0179297
0.0179342
0.0179342
0.0179342
0.0179295
0.0179337
0.0179342
0.0179309
0.0179342
0.0179279
0.017928
0.0179342
0.0179306
0.0179334
0.0179343
0.0179334
0.0179343
0.0179334
0.0179273
0.0179331
0.0179337
0.0179342
0.0179302
0.0179291
0.0179334
0.0179301
0.0179342
0.0179299
0.0179306
0.0179343
0.0179334
0.0179343
0.0179336
0.0179305
0.0179277
0.0179252
0.0179252
0.0179298
0.0179252
0.0179252
0.0179252
0.0179258
0.017933
0.017927
0.0179284
0.0179276
0.0179298
0.0179256
0.0179257
0.0179276
0.0179336
0.0179307
0.0179337
0.0179335
0.0179333
0.0179262
0.0179263
0.0179263
0.0179263
0.0179263
0.0179253
0.0179264
0.0179256
0.0179251
0.0179262
0.0179262
0.0179251
0.0179253
0.0179256
0.0179264
FIELD solute_flux_TPM 2
S_ext 3 563 float
-5.1672e-05 1.7277e-05 1.09104e-18
2.34116e-06 4.41657e-06 1.01499e-18
-8.13337e-06 -6.43186e-06 4.95079e-19
-2.68252e-06 2.71096e-06 -4.98361e-19
1.51405e-05 -4.34406e-06 2.22034e-18
1.74698e-06 -1.01346e-05 3.50137e-18
-5.08831e-05 -1.74872e-05 4.32687e-18
-8.94195e-06 -6.5966e-06 -1.51002e-18
1.40759e-05 6.07091e-07 -1.82658e-18
7.37845e-06 -2.63226e-06 3.86988e-18
3.44331e-05 8.01521e-06 -2.80412e-18
1.44673e-06 -1.10389e-05 -1.17169e-18
8.82235e-06 7.12715e-06 -2.67088e-18
1.77789e-06 8.84627e-06 -3.18398e-18
1.37271e-05 -2.03864e-06 3.05638e-18
-1.03001e-05 -1.67921e-07 1.15607e-18
1.87494e-06 9.17481e-06 -3.02445e-18
6.55493e-06 -1.58353e-06 -1.33781e-18
6.26862e-06 1.09224e-05 1.65299e-18
-9.38187e-06 1.19314e-06 -3.67314e-18
-2.23787e-06 -1.34868e-05 1.4939e-18
2.86268e-05 4.03939e-05 -3.34606e-18
1.00555e-05 1.03231e-06 1.6621e-18
7.211e-06 -7.18418e-06 -3.32507e-18
-9.51796e-06 -2.1214e-06 2.32153e-18
-3.77718e-07 -7.13064e-06 1.33157e-18
3.95113e-05 -3.08768e-06 -3.11078e-19
9.08812e-06 6.56866e-06 1.17107e-18
-1.56832e-05 -1.27424e-05 -1.93915e-18
3.24068e-05 -8.59282e-06 6.87677e-19
-1.049e-05 -3.90949e-06 1.32899e-18
3.35923e-06 -2.0115e-05 1.93067e-18
2.96433e-05 -3.02097e-05 -1.10373e-18
-3.45978e-06 -2.7662e-05 -3.97295e-18
-1.95693e-05 2.43367e-05 -1.54511e-18
-2.5685e-05 -1.08238e-05 1.37173e-18
2.14999e-05 2.81328e-05 -2.07415e-18
-2.95566e-05 -5.80494e-06 -2.41501e-18
9.32496e-06 -7.03229e-06 3.34735e-18
2.89612e-05 3.14793e-05 -6.27497e-19
2.02535e-05 -8.85408e-06 2.09569e-18
2.19219e-05 -2.70792e-05 -1.91764e-18
-1.24972e-05 -3.25033e-05 -2.78127e-18
-1.0044e-05 4.11262e-06 8.28925e-19
1.89904e-05 -1.85721e-05 2.05478e-18
-1.87891e-05 6.67711e-06 -8.11596e-19
-2.58637e-06 -1.28169e-05 4.7952e-18
4.98329e-06 1.27793e-05 1.99988e-18
-1.03913e-05 3.79672e-06 3.49255e-18
-1.12823e-05 1.77484e-05 2.56689e-18
2.04331e-05 9.61123e-06 1.12142e-18
1.84935e-05 -6.43025e-06 8.15373e-19
-1.03779e-05 1.03717e-05 8.65658e-19
-1.46484e-05 -1.27106e-05 1.30029e-18
-1.39556e-05 -3.43482e-06 -4.10807e-18
-2.76604e-05 1.64816e-05 2.53423e-18
-1.9374e-05 -2.5047e-05 -1.04383e-18
3.85793e-06 -1.91482e-05 3.41274e-18
-3.13865e-05 4.29688e-06 -1.38955e-18
3.8544e-06 8.73066e-06 -2.82028e-18
-3.58222e-06 -5.38106e-06 1.33927e-18
-4.23157e-06 -1.17846e-05 1.35181e-18
3.57016e-05 1.55528e-05 -2.36509e-18
6.15028e-06 1.18167e-05 -3.55047e-18
8.14334e-06 -9.43602e-06 2.71236e-18
-1.1515e-06 -1.34654e-05 -8.46385e-19
3.08998e-06 -5.7348e-06 2.01146e-18
-6.41579e-06 -3.60906e-06 9.92057e-19
-6.76476e-06 7.50905e-06 3.32365e-18
1.63717e-06 -2.75189e-06 1.18064e-18
-9.94774e-06 -1.04321e-05 -2.40562e-18
-1.40761e-05 3.44429e-06 1.03002e-18
-2.40897e-06 2.14204e-05 1.13236e-18
-1.15893e-05 6.95554e-06 -1.7152e-19
-5.78027e-06 9.20624e-06 2.8323e-18
-3.68734e-05 4.59574e-06 3.14496e-19
5.22372e-06 -1.41785e-05 4.12476e-21
-1.22716e-05 -5.65415e-06 -3.8879e-18
1.19725e-06 7.47515e-06 -1.65483e-18
1.66627e-05 3.19523e-06 -6.56035e-19
2.14032e-05 -1.82268e-05 4.85354e-19
1.47279e-05 1.35201e-05 -3.0811e-18
7.9122e-06 -1.95971e-06 -1.0214e-18
-1.99282e-05 1.46018e-05 3.19734e-18
2.3821e-05 3.05909e-06 -9.11399e-21
-3.43105e-06 3.05589e-05 1.23177e-21
-1.10157e-06 -1.07547e-05 1.82694e-18
1.18935e-05 6.43219e-06 1.34322e-18
1.82638e-05 1.91232e-05 -2.21298e-18
4.25247e-05 2.64374e-05 7.55537e-18
-3.39418e-06 1.92424e-05 -1.78405e-18
4.44198e-05 -2.49627e-05 -5.28455e-18
-1.78992e-05 3.41799e-06 1.73327e-19
1.16832e-05 7.25808e-06 1.50357e-18
-1.83795e-05 6.13152e-06 4.8281e-19
1.03581e-05 1.79656e-05 -1.61349e-18
6.15284e-06 -2.75999e-05 1.75791e-18
1.21231e-06 7.47216e-06 -3.67734e-18
-9.60015e-06 -1.15833e-05 1.35571e-18
1.91029e-06 1.11477e-05 6.84362e-19
1.67086e-05 3.35716e-06 -8.25941e-19
-9.67371e-06 2.05901e-05 8.10674e-19
2.54185e-05 -8.48024e-06 2.55462e-18
-2.43499e-06 4.71965e-06 1.51032e-18
6.5053e-06 3.74292e-06 6.72926e-19
-1.40753e-06 -7.25194e-06 1.84049e-18
2.18359e-06 -1.2609e-05 5.07469e-19
1.12107e-05 2.53363e-06 -8.39415e-19
-5.1297e-06 2.55432e-05 -1.11824e-18
-6.46188e-06 9.38291e-08 -1.62793e-19
5.99596e-06 7.56398e-06 -1.32904e-18
-1.68082e-06 -2.6032e-05 -7.91625e-19
2.63578e-05 8.19208e-06 1.27553e-18
2.87496e-06 -4.7467e-06 -5.04623e-19
-7.09091e-06 -2.31698e-06 6.55361e-19
-1.81523e-05 -7.73709e-06 1.13964e-18
1.06051e-05 2.77248e-05 3.61661e-18
-2.66232e-05 -9.49178e-06 4.31788e-18
1.07532e-05 -2.77988e-05 -5.13526e-19
-2.34513e-06 -1.99395e-05 5.20728e-18
1.38937e-05 3.77668e-07 -1.15274e-18
-4.71663e-06 1.21935e-05 8.46843e-19
-1.05982e-06 2.54195e-06 -1.50414e-19
-2.48292e-06 -1.0772e-05 -1.52201e-18
3.43581e-06 -5.58589e-06 3.21161e-18
6.20975e-06 1.04308e-05 -8.36827e-19
2.22958e-05 7.30097e-06 1.39175e-18
5.68011e-06 -4.74369e-06 1.50793e-18
-5.26755e-06 -2.7935e-05 4.95608e-18
1.61148e-05 -1.18657e-05 2.7661e-18
3.30373e-06 1.83577e-05 -3.24061e-18
-1.78008e-06 -1.86239e-06 -1.69429e-18
-5.69258e-06 -5.42782e-06 -2.37241e-18
-3.11064e-06 8.74545e-08 4.91685e-19
-1.4243e-05 1.75767e-05 6.43073e-19
1.29194e-05 -2.49526e-05 -2.76601e-18
-1.65945e-05 2.62345e-05 3.02554e-18
-1.0392e-05 6.08432e-06 1.16353e-18
1.6291e-06 8.13059e-06 -3.91304e-18
-1.51213e-05 -2.36459e-05 -1.04543e-18
8.63542e-06 2.09377e-05 -4.5409e-18
1.14306e-05 5.94327e-06 -8.40619e-19
1.44879e-05 -5.4904e-06 -1.65635e-18
-8.50246e-07 -7.24812e-06 2.85196e-18
-2.09104e-05 -1.92293e-05 7.95112e-19
-1.70876e-06 7.2589e-06 1.51211e-18
1.12159e-05 6.62777e-06 -6.72448e-19
1.21477e-05 -5.76994e-06 -1.66505e-18
5.32357e-06 -9.10938e-06 -1.99762e-18
1.54406e-05 -6.83783e-06 3.9284e-18
1.21657e-05 -5.76127e-06 8.29367e-19
3.10393e-06 2.22487e-07 -1.52374e-18
1.61437e-05 1.27808e-05 2.41274e-18
-1.67416e-06 -1.08409e-05 2.16414e-18
-6.77184e-06 -2.78295e-06 1.00514e-18
7.7099e-07 -2.49653e-06 1.66788e-18
-2.13062e-06 1.02198e-05 -1.83404e-18
-2.14808e-05 1.70196e-06 -1.46516e-18
-7.5887e-06 -2.06098e-05 3.406e-18
-5.03283e-06 6.19263e-06 1.70734e-19
8.63104e-06 1.05162e-05 -1.15709e-18
1.66597e-05 -1.18833e-05 -1.61795e-19
-2.2803e-05 -1.23688e-05 5.38526e-18
1.08287e-05 -1.73529e-05 1.44337e-18
1.42823e-05 -1.70896e-05 3.5706e-18
-6.97601e-06 2.49241e-06 -1.79627e-19
-1.23448e-05 -1.7764e-05 -5.06995e-21
-2.14617e-05 -3.57715e-06 6.64736e-18
-2.59153e-06 -1.97614e-05 2.89918e-18
9.5841e-06 -1.98386e-05 2.26901e-18
-6.06995e-06 -1.72473e-05 -3.25272e-18
2.74635e-06 1.96328e-05 -1.13364e-18
-9.96252e-06 -1.76565e-05 1.44296e-18
2.01469e-06 -1.05273e-05 4.96892e-19
-1.54079e-05 1.12064e-05 4.88254e-18
-9.78478e-06 -7.96923e-06 -1.77975e-19
-1.80175e-05 -3.3092e-06 -1.87673e-18
1.01548e-05 -5.97794e-06 -1.00106e-18
-2.80866e-06 1.58183e-05 4.62592e-18
8.04976e-06 -5.98623e-06 3.35616e-18
-1.83392e-05 -8.03602e-06 2.25738e-18
-5.70919e-06 -4.71963e-06 -6.75922e-19
5.94886e-06 4.78761e-06 -1.67349e-18
1.34208e-05 1.80032e-05 -1.29277e-18
-1.12803e-05 -7.0175e-06 -6.8452e-19
-2.01035e-05 -4.87017e-07 9.56116e-19
-1.06792e-05 -3.14956e-06 -1.86002e-18
-3.0192e-06 -1.07845e-05 -3.43155e-19
1.17476e-05 1.42248e-05 8.40029e-19
-7.10518e-06 3.68644e-06 -2.01472e-18
4.67659e-07 -1.33152e-05 2.87073e-18
-2.57809e-05 6.62033e-06 -7.99124e-19
1.56795e-05 1.27343e-05 9.70134e-19
2.2773e-06 2.05679e-05 -3.54769e-18
-1.53255e-06 2.49973e-06 -1.86028e-18
-5.73438e-06 1.60094e-07 -3.69872e-18
2.82097e-06 4.93941e-06 1.35222e-18
-7.67119e-06 2.29533e-06 -1.36157e-18
-1.34909e-06 -2.41814e-06 -1.68874e-18
1.15186e-06 1.34359e-05 -2.68117e-18
2.97467e-06 2.13379e-07 -2.18025e-18
-1.22638e-05 2.96976e-06 -1.74062e-19
-1.08873e-05 1.20347e-05 3.42418e-18
-1.98516e-06 7.62137e-06 1.34634e-18
-1.81803e-05 1.1341e-05 4.35024e-18
-6.1771e-06 5.85619e-06 2.01359e-20
1.13207e-05 -7.73022e-06 -1.34133e-18
2.30108e-05 -2.29313e-06 1.61472e-18
-1.38752e-05 7.35417e-06 -1.70055e-18
1.42318e-06 2.97247e-06 3.24125e-19
1.44913e-05 -2.75821e-06 8.56181e-19
-1.11244e-05 6.75266e-06 1.3397e-18
-6.30029e-06 3.60106e-06 -3.20013e-18
7.90875e-06 2.58244e-06 1.01519e-18
1.38365e-05 -8.58523e-06 2.77952e-18
-1.1219e-05 6.36486e-06 1.34088e-18
-1.55873e-05 -3.27807e-06 1.79443e-18
-1.09071e-05 -2.77284e-06 -1.52492e-18
6.61927e-06 8.84604e-08 1.33748e-18
6.77722e-06 4.33369e-08 -6.78209e-19
2.92752e-06 5.42843e-06 -3.28167e-19
3.21771e-06 -5.73743e-06 -1.79923e-19
-3.24122e-06 5.56351e-06 3.22983e-19
-3.39213e-06 -5.69063e-06 -1.77586e-19
6.41881e-06 -4.9086e-06 -1.8384e-18
-1.3434e-05 2.17785e-06 -2.89986e-18
-1.32824e-05 -2.21996e-06 -2.03212e-18
-8.51152e-06 1.04833e-05 3.57444e-19
-8.55855e-06 -1.05228e-05 -2.8997e-18
4.95397e-06 -1.33367e-05 -5.05218e-19
4.773e-06 1.32243e-05 -7.07313e-19
9.46184e-07 1.6299e-05 -6.21411e-18
7.39315e-06 -1.91747e-06 -2.02199e-18
1.59623e-06 -2.47492e-06 -4.03359e-18
-1.33916e-05 9.1353e-07 -3.40562e-19
5.11038e-06 -1.31225e-05 -1.52381e-18
4.84275e-06 1.31693e-05 -1.55942e-18
3.11474e-06 -5.77049e-08 5.02653e-18
5.60176e-06 1.53895e-05 -2.44084e-18
-1.44769e-06 -2.58229e-06 2.83263e-18
1.4865e-06 -7.28241e-06 1.64992e-19
-1.40171e-05 -7.51026e-06 2.77921e-18
-1.40152e-05 -7.48984e-06 -8.60985e-21
-1.37076e-05 8.48869e-06 -2.29361e-18
2.10736e-06 -8.23117e-06 1.78016e-19
-1.02927e-06 2.15906e-06 2.01903e-18
-4.58561e-07 -1.60333e-05 3.76864e-18
-4.92165e-06 -1.52383e-05 2.9351e-18
2.04846e-05 1.90637e-05 2.08033e-18
2.23745e-05 -1.15205e-06 -3.20371e-18
-8.35624e-06 -2.45987e-06 -3.33618e-19
-1.42587e-05 -2.53994e-05 1.42823e-18
5.3319e-06 8.74729e-06 -1.32576e-18
-1.57089e-05 1.85379e-06 -2.45407e-18
1.27984e-05 3.67081e-06 1.8101e-18
-2.91385e-06 -1.22436e-08 -1.58211e-20
-3.07419e-06 -5.49828e-06 1.59725e-19
-5.43104e-06 -2.58209e-05 -1.73981e-18
-6.38041e-06 2.57216e-09 -1.8169e-19
-2.9642e-05 -1.11214e-06 3.83456e-18
1.08964e-05 -1.21037e-05 2.93391e-18
1.62468e-06 2.56435e-06 -6.57554e-19
-9.09272e-08 -1.12388e-05 2.79346e-22
-6.24769e-06 1.50125e-05 1.63e-18
-2.89518e-06 5.63776e-06 -1.15551e-18
1.30925e-05 -8.62673e-06 6.26458e-18
-2.50738e-05 -8.18718e-06 -1.39984e-18
-9.59749e-06 -1.26758e-05 -8.18673e-19
3.27396e-06 5.59617e-06 -5.24994e-19
1.09923e-05 3.23321e-06 -1.35072e-18
-3.03689e-06 -4.64705e-06 3.84783e-18
1.32702e-05 2.44428e-06 -8.48598e-19
1.19678e-05 -6.3931e-06 1.7385e-19
-2.38515e-07 1.78724e-05 2.24315e-18
5.35932e-06 -8.70727e-06 -4.99651e-19
3.06299e-05 1.29891e-06 -1.11271e-18
-2.60253e-05 6.77647e-06 -3.33235e-18
1.52694e-05 7.60661e-06 2.38128e-18
-4.07875e-06 -1.08152e-05 3.81969e-18
-9.82818e-06 -5.47318e-06 -2.85711e-18
1.81801e-05 -1.49109e-07 3.22967e-19
-4.85458e-07 -1.59273e-05 -1.8709e-18
-8.06649e-06 -7.10194e-06 -1.36088e-18
6.4028e-06 -1.48323e-05 8.18769e-19
-3.83757e-07 1.32922e-05 -5.7153e-18
4.91545e-06 1.63853e-05 -3.60744e-18
1.12304e-05 -6.45876e-06 4.86891e-18
-1.18843e-05 1.19484e-05 -4.92144e-19
1.03929e-05 1.26616e-05 -3.25239e-19
-4.32499e-05 1.03118e-05 1.72399e-19
-6.74029e-06 1.71297e-05 8.71317e-19
8.30658e-06 -1.0052e-05 1.53064e-18
-4.59592e-06 -1.21461e-05 1.87132e-18
-7.67975e-06 2.80274e-06 6.71813e-19
-1.6089e-05 -4.41028e-06 5.58748e-18
-4.46405e-06 2.5995e-05 8.80995e-19
-8.10533e-06 7.83597e-06 -2.20221e-18
1.32632e-05 -2.93815e-06 -1.66355e-18
-4.30718e-06 -1.61451e-05 6.41469e-18
-9.32707e-06 1.48464e-05 1.31235e-18
-1.4306e-05 8.25258e-06 -8.5363e-19
-1.28625e-05 -9.38169e-06 1.46811e-18
1.19899e-05 -1.38984e-05 -3.36486e-19
-1.70678e-05 -9.07909e-07 1.63946e-18
7.49433e-06 -2.56514e-05 1.56949e-19
1.22755e-05 -1.19285e-05 1.80224e-18
1.53273e-05 2.69177e-05 -2.56614e-18
1.29933e-06 1.29753e-05 -3.54262e-18
1.83994e-06 -1.60102e-05 2.12638e-18
-2.81287e-05 3.30321e-05 -8.75002e-19
-7.95334e-06 -1.51868e-05 1.6403e-18
1.0882e-05 -4.16475e-06 6.76048e-19
-1.60839e-06 1.61365e-05 -2.94093e-18
8.44429e-06 -7.93287e-06 8.55658e-19
8.71744e-06 1.5282e-05 9.8724e-19
1.1039e-05 -9.56073e-07 -1.67088e-19
1.33986e-05 -3.92251e-05 -7.91035e-19
-3.71925e-06 -8.14551e-06 3.4957e-18
-1.44818e-05 6.21853e-06 1.30521e-18
-1.32068e-05 1.23769e-05 -1.71259e-19
1.36516e-05 9.23913e-06 -2.13282e-18
1.19457e-05 -6.92386e-06 1.49306e-18
9.73465e-06 8.31321e-06 1.84774e-18
-3.56941e-06 -3.98947e-08 -1.67793e-18
9.68768e-06 -1.45268e-05 3.11908e-18
-1.06453e-05 -1.26554e-05 2.13776e-18
1.43227e-05 6.24177e-06 1.31749e-18
8.42024e-06 -7.95461e-06 -2.70028e-18
5.95701e-06 -1.56325e-05 1.14746e-18
1.07568e-05 -4.60907e-06 -5.02564e-18
-1.00413e-05 -4.80246e-06 -1.01481e-18
8.88847e-07 -1.72824e-05 -4.28886e-18
-1.62293e-05 2.80722e-06 -5.01564e-19
1.42713e-06 1.5459e-05 -2.95834e-18
1.31429e-05 4.28259e-06 -4.07816e-21
-1.35915e-05 -6.71704e-06 9.85984e-19
-5.64115e-06 1.60126e-05 -8.20896e-19
-9.37213e-07 -1.52466e-05 2.80506e-18
1.28732e-05 7.83219e-06 1.00994e-18
-1.05001e-06 1.1608e-05 -2.00027e-18
-1.26616e-05 8.50044e-06 3.32501e-19
1.4917e-05 7.20786e-06 3.27347e-19
-1.09233e-05 -6.48819e-06 -6.82898e-19
1.60665e-07 -1.27616e-05 -1.34693e-18
1.16274e-05 1.2585e-05 1.64122e-18
-1.45112e-05 -9.39861e-06 -3.45744e-19
3.02804e-05 -2.1662e-05 -2.3211e-18
1.15671e-05 -6.93357e-06 1.33612e-18
5.41107e-06 2.68217e-05 -4.00571e-18
1.0945e-05 -8.68662e-06 3.98297e-18
-1.40744e-05 5.43111e-05 1.49049e-18
-1.41472e-05 -5.37949e-05 -3.02265e-19
3.53582e-05 4.6209e-05 4.40651e-19
3.49334e-05 -4.61977e-05 -2.08992e-18
5.77262e-05 -2.85513e-08 -2.21506e-18
-4.96696e-05 2.01306e-05 -4.42695e-19
-4.88644e-05 -2.03404e-05 1.77845e-18
8.05831e-06 7.82861e-06 -1.36923e-18
1.96914e-05 1.46789e-05 1.19317e-18
7.37318e-06 2.17608e-06 1.66747e-18
1.20879e-05 6.21177e-06 3.34034e-19
3.1342e-06 1.27828e-05 4.85115e-21
-1.18444e-05 -9.3062e-06 -2.81043e-18
1.11643e-05 -6.55336e-06 -1.50983e-18
1.26471e-05 9.19761e-06 -1.32532e-18
-1.99565e-06 1.53503e-05 -1.47238e-18
1.97902e-05 -1.3476e-05 -1.37751e-18
2.31999e-06 -1.49731e-05 3.46317e-18
1.457e-05 3.31167e-06 3.31689e-19
1.88132e-05 6.99977e-06 1.29396e-18
9.41316e-06 9.30849e-06 -2.53989e-18
1.02126e-05 4.25461e-06 -1.00702e-18
-1.16917e-05 6.89943e-06 2.32074e-18
-1.41262e-05 5.67962e-06 -3.34169e-19
1.53312e-05 -7.45914e-06 1.88994e-18
-1.15766e-05 -6.37351e-06 -1.84367e-18
-1.17269e-05 -6.62924e-06 -2.82758e-18
-1.84133e-07 -1.32454e-05 5.33997e-18
-1.002e-07 -1.34126e-05 2.82313e-18
-1.26074e-05 -6.36687e-07 -1.73097e-19
1.69102e-05 -2.56292e-06 -4.90504e-19
1.15739e-05 7.25755e-06 -1.32826e-18
-1.13822e-05 6.88319e-06 -3.94651e-21
-9.977e-06 1.09381e-05 -2.38386e-18
1.02045e-05 -8.76941e-06 1.48406e-18
-6.98705e-06 1.09358e-05 4.44829e-18
-8.968e-06 -9.3277e-06 -1.71301e-19
-7.7827e-07 1.34083e-05 1.17047e-18
-7.7532e-07 1.33696e-05 -9.89172e-19
2.27173e-08 -1.27644e-05 3.68911e-18
3.86162e-06 -1.2504e-05 -1.64305e-19
-1.10136e-05 -6.3263e-06 -1.52053e-18
1.00023e-05 -3.56505e-06 1.99793e-18
4.17474e-07 1.36326e-05 1.00934e-18
1.8051e-07 1.18576e-05 -4.17602e-18
-1.49575e-06 1.0698e-05 -1.48976e-18
1.39254e-05 -3.52608e-06 -1.48821e-18
-1.08482e-05 3.38815e-06 -5.02577e-19
2.56835e-06 1.36455e-05 -2.8079e-18
-2.16446e-05 8.47187e-06 -1.37501e-18
5.88312e-06 2.62068e-05 -5.5436e-18
-1.1135e-05 2.9059e-06 -2.70899e-18
1.30705e-05 -7.74316e-06 -1.61909e-19
5.35616e-07 1.33993e-05 -1.3258e-18
-1.28583e-05 4.26036e-06 -3.49909e-18
1.63322e-06 -1.05003e-05 3.36691e-18
5.78713e-07 -3.62652e-05 -3.13597e-19
1.25625e-06 1.11693e-05 1.84888e-18
-1.07586e-05 8.75445e-06 1.99318e-18
1.08002e-05 3.97328e-05 -3.22356e-19
3.14894e-05 2.61196e-05 4.18088e-18
3.61046e-05 -2.47019e-05 -1.75676e-19
9.57675e-06 -6.53758e-06 4.17054e-18
-9.97627e-06 8.79201e-06 1.9826e-18
-1.27071e-05 -5.03854e-06 -1.33427e-18
-1.23368e-05 -4.26621e-06 1.81511e-18
4.44249e-05 -1.22096e-05 -3.631e-19
4.5313e-05 9.52939e-06 1.94197e-18
7.01795e-06 2.48015e-06 1.33237e-18
4.04536e-07 1.25714e-05 -4.34538e-18
5.68857e-08 1.25645e-05 -1.4959e-18
-3.02029e-05 -2.21086e-05 4.48963e-18
7.24364e-06 -1.08927e-05 -8.2463e-19
7.70008e-06 8.30644e-06 -2.21645e-18
-1.33977e-05 -2.16398e-06 -8.37174e-19
-8.87701e-06 1.07395e-05 4.98394e-19
-1.19181e-05 5.74291e-06 -5.06012e-19
2.99044e-05 2.14486e-05 -4.65038e-19
1.04076e-05 4.57724e-06 -2.70127e-18
-3.55854e-06 1.25887e-05 -3.13377e-18
-1.08362e-05 -7.38256e-06 -3.34529e-18
1.11773e-06 -1.31149e-05 3.00011e-18
-5.61982e-06 -1.21188e-05 4.63667e-18
-1.08869e-05 -7.40582e-06 -1.33662e-18
6.69398e-06 -1.19755e-05 3.31257e-19
9.02187e-06 -1.07404e-05 -1.32205e-18
-1.84175e-06 -3.79542e-05 -4.74816e-19
1.62155e-05 -2.57103e-05 1.11874e-18
1.10506e-06 -1.31884e-05 9.88177e-19
1.15962e-05 7.22997e-06 1.33296e-18
-9.18671e-06 -9.31611e-06 1.487e-18
-6.20167e-06 1.23663e-05 -3.29667e-19
-3.15691e-06 1.32738e-05 1.70061e-19
1.06633e-05 9.00874e-06 1.16447e-18
3.79376e-06 -1.2605e-05 8.28234e-19
-8.70195e-06 -2.49245e-05 2.20604e-18
-1.36715e-06 1.64575e-05 -3.23577e-19
9.411e-06 9.18483e-06 1.15968e-18
-8.31315e-06 -6.62159e-06 -3.3848e-18
-8.75835e-06 6.89822e-06 -8.49747e-19
2.789e-05 -1.19767e-05 1.57617e-19
4.82594e-06 -8.52994e-06 -2.83946e-18
-5.30898e-06 -7.95341e-06 1.63449e-19
1.42907e-05 4.38006e-06 1.37876e-18
8.81442e-06 -3.1797e-05 1.92436e-18
-2.31352e-05 -2.35111e-05 -7.0072e-19
1.55758e-05 4.05639e-06 3.40319e-18
-5.90111e-06 -1.14557e-05 1.48008e-18
1.20296e-05 6.15006e-06 8.33677e-19
-1.79471e-05 -1.99369e-05 7.79765e-19
7.13899e-06 3.23265e-05 -2.60172e-18
3.13419e-05 -4.04869e-05 -3.72019e-18
-1.93939e-05 -4.73758e-05 -3.5389e-18
1.69046e-05 -3.3031e-05 -9.25552e-19
-8.38804e-06 2.88678e-05 1.73109e-18
-4.78911e-06 2.55556e-05 2.97147e-18
-1.18868e-05 5.7293e-06 -1.1719e-18
4.01495e-06 1.59063e-05 -2.20363e-18
-1.50472e-06 8.04036e-06 1.34106e-18
6.57136e-06 2.14647e-06 -1.01744e-18
-2.16227e-06 1.05763e-05 1.89602e-19
-1.52525e-07 1.3667e-05 6.94127e-19
1.07884e-05 6.29563e-06 -4.39973e-21
5.33594e-07 3.60935e-05 1.07948e-18
-9.39554e-06 6.72416e-06 -1.50661e-18
1.04442e-05 -3.98226e-06 3.36635e-18
1.12289e-05 -2.85045e-06 3.33954e-19
-3.69964e-05 -5.32588e-06 1.08463e-18
-2.29004e-05 1.09004e-05 -2.25296e-18
-2.68434e-05 -3.18319e-05 4.73437e-19
5.70245e-06 5.43269e-06 -1.58694e-19
9.20646e-06 4.82251e-06 -1.52285e-18
1.6953e-05 -2.72318e-06 -8.21302e-19
-5.14816e-06 -8.37847e-06 2.50914e-18
1.11162e-05 5.5209e-06 -2.35062e-18
4.88095e-06 -1.98656e-05 -2.3969e-18
-8.8754e-06 6.44618e-06 -3.01916e-18
-1.47577e-05 -1.41563e-05 -8.62459e-19
-3.67211e-06 1.03416e-05 -1.66799e-18
-2.22465e-06 1.34598e-05 3.53323e-19
2.28811e-05 1.4206e-05 -1.88176e-19
2.4398e-05 -1.29399e-05 7.02976e-19
-2.58754e-05 -6.96482e-06 3.47976e-18
4.93175e-06 5.07633e-06 -3.71643e-18
-3.01383e-06 6.30452e-05 2.61962e-18
-3.81596e-09 -6.47589e-05 -1.24867e-18
3.19202e-05 5.46264e-05 2.31541e-18
-1.24564e-05 5.38505e-06 8.4354e-19
-1.71336e-05 3.46009e-05 4.64316e-18
3.2117e-05 -5.27253e-05 -3.6868e-21
-7.39541e-06 -1.14277e-05 1.49061e-18
4.8838e-05 4.25055e-05 -4.31537e-18
1.59323e-05 -1.18272e-05 -6.83643e-19
-2.29393e-06 -1.97e-05 3.27274e-18
5.11706e-05 -4.15632e-05 -9.378e-19
-4.29371e-06 9.16365e-06 2.324e-18
-3.28189e-05 -2.08468e-05 4.08037e-18
-2.70011e-05 -5.63812e-05 -1.70508e-18
-1.52943e-05 -3.57257e-05 2.51392e-18
-2.7759e-05 5.73043e-05 1.08479e-18
-6.57369e-06 3.96922e-05 1.87956e-18
1.06903e-05 2.47603e-05 -4.48134e-18
-1.76301e-05 2.2653e-05 3.31257e-18
-1.63958e-05 -3.36862e-05 2.1689e-18
6.28299e-05 1.10267e-05 -2.30907e-18
-1.08779e-05 6.78602e-06 -2.68647e-18
-3.9247e-06 1.06401e-05 -6.60212e-19
-3.11273e-05 2.24122e-05 -1.43991e-19
-1.10582e-05 6.35814e-06 4.98832e-19
6.22113e-05 -9.83196e-06 6.55212e-21
-9.89516e-06 4.94285e-06 -1.68205e-18
4.60273e-06 -9.22784e-06 -1.82811e-18
-4.83026e-05 -3.68096e-05 2.93268e-18
-1.64771e-05 3.5754e-05 2.81256e-18
-4.94528e-05 3.65468e-05 3.03683e-19
1.4954e-05 3.29082e-05 7.73837e-19
-9.42521e-06 6.67749e-06 -1.6969e-19
-1.35081e-05 1.62721e-05 -2.58411e-18
-2.41672e-05 3.0361e-05 -3.52752e-18
-3.78991e-05 -4.88358e-06 -1.23977e-18
-6.52777e-07 1.05247e-05 -4.89573e-19
-2.55961e-05 -3.04886e-05 -6.0177e-18
-3.92139e-05 6.92895e-06 -3.18248e-18
-1.49395e-05 3.46461e-05 -3.5482e-19
-1.15251e-05 4.60981e-05 -1.73643e-18
-1.14974e-05 2.55073e-05 1.57552e-19
-2.23305e-05 1.79952e-05 -3.1156e-18
1.637e-05 -4.00444e-06 1.76852e-19
2.5618e-05 -1.35033e-06 1.21519e-18
8.76923e-06 5.37117e-06 -1.3548e-18
-8.09754e-06 -5.30443e-05 -5.4487e-18
-4.99964e-05 -1.94959e-05 -2.29138e-18
2.49443e-05 2.97911e-07 2.22939e-18
3.68166e-05 -7.10836e-06 -1.2304e-18
-6.69169e-06 -8.49474e-06 3.98176e-18
-3.19332e-05 2.24592e-05 4.33264e-18
-2.8619e-05 3.27889e-05 4.09613e-18
3.89188e-05 -1.40219e-05 -1.74087e-18
-1.86797e-05 -3.16441e-05 -2.102e-18
-1.90133e-05 3.13986e-05 -2.07825e-18
-3.6883e-05 -1.31035e-06 -8.65855e-19
-1.67709e-05 3.29977e-05 5.21492e-19
-3.67679e-05 3.85415e-07 -2.62365e-18
4.57558e-05 1.63822e-05 -8.8527e-19
3.69138e-05 1.36417e-06 -8.69594e-19
3.47151e-05 -1.7784e-05 -1.23796e-18
1.01341e-05 -4.8808e-05 -1.59855e-18
1.83398e-05 -3.19572e-05 -1.40021e-18
1.82151e-05 3.19531e-05 4.17018e-18
9.92453e-06 4.76903e-05 7.95498e-18
4.99661e-05 -1.40905e-05 -3.00774e-18
3.20263e-05 1.58623e-05 -8.91034e-19
3.07678e-05 8.40435e-06 -7.32841e-21
P_ext 3 563 float
-9.67463e-07 3.27111e-07 2.17715e-20
9.11025e-10 3.58175e-08 5.43137e-21
-8.91197e-08 -8.38115e-08 2.33044e-20
-2.81915e-08 2.60216e-08 -1.29759e-20
2.45769e-08 4.74703e-10 2.13186e-20
2.93328e-08 -1.19039e-07 2.62391e-20
-9.52531e-07 -3.31069e-07 -9.23626e-21
-6.98629e-08 -7.92614e-08 3.11278e-20
1.94372e-07 3.44193e-09 2.03339e-20
7.09562e-08 -6.66166e-09 3.70182e-20
6.29747e-07 1.47609e-07 -2.92653e-20
3.46046e-08 -1.01288e-07 1.55647e-20
7.92916e-08 9.43928e-08 -1.83246e-20
-8.1749e-09 7.39356e-08 -2.68423e-21
2.22007e-08 8.23449e-09 5.04121e-20
-1.24247e-07 -2.0339e-09 -3.12973e-20
-1.55299e-08 4.87173e-08 -3.41505e-20
7.48967e-08 -1.12995e-08 3.37542e-20
8.60337e-08 1.53436e-07 9.00671e-20
-1.15421e-07 1.16388e-08 -1.04067e-19
-4.33349e-08 -1.63482e-07 7.82367e-21
1.43258e-09 2.73267e-10 -7.704e-20
1.27838e-07 1.04074e-08 1.79905e-22
8.13837e-08 -9.39705e-08 -7.78669e-20
-1.17906e-07 -1.89843e-08 -2.54977e-21
-2.22302e-08 -6.45169e-08 1.48579e-19
7.23963e-07 -5.92241e-08 -4.83231e-21
8.86707e-08 7.47597e-08 7.28652e-20
-2.64871e-07 -2.10397e-07 7.30004e-21
1.55533e-08 2.92971e-09 -5.41271e-20
-1.18383e-07 -2.10776e-08 1.55345e-20
5.1765e-08 -3.36857e-07 -7.51079e-20
5.44029e-07 -5.57155e-07 4.61923e-21
1.15551e-09 -2.55327e-08 -4.33225e-20
-6.8682e-09 1.96353e-08 -2.41249e-20
-2.13146e-08 -1.40392e-08 1.60253e-20
2.81533e-09 1.41006e-08 -8.06597e-21
-2.15471e-08 3.67133e-09 5.37925e-20
8.56278e-08 -9.31362e-08 -4.86196e-21
5.3087e-07 5.80636e-07 -5.3745e-20
3.39077e-07 -1.53625e-07 5.02741e-20
5.23504e-09 -1.29133e-08 -2.45992e-20
-8.49165e-09 -1.13025e-08 -3.80484e-20
-1.17603e-07 2.4152e-08 8.31541e-20
3.36422e-07 -3.30383e-07 1.98213e-20
-3.13455e-07 1.12828e-07 -7.70825e-21
-3.95997e-08 -1.72794e-07 2.3598e-20
7.14477e-08 1.73557e-07 4.68504e-20
-1.12806e-07 2.9495e-08 4.42466e-20
-1.94151e-07 3.01971e-07 2.51177e-20
3.44143e-07 1.68538e-07 4.48991e-20
2.98814e-07 -9.82784e-08 4.30734e-20
-8.79518e-09 2.09059e-08 -2.37964e-20
-2.33842e-07 -2.09841e-07 6.33141e-20
-2.29327e-08 3.03039e-09 -5.0905e-20
-5.01589e-07 2.94561e-07 5.2058e-20
-6.37715e-09 -1.95534e-08 -2.17097e-20
6.65889e-08 -3.08801e-07 -4.52837e-20
-1.99267e-08 -4.34384e-09 4.83664e-20
5.22368e-08 1.04737e-07 3.35921e-20
-2.78706e-08 -8.44921e-09 7.79784e-21
-2.94263e-08 -2.76303e-08 6.33553e-20
6.5275e-07 2.87379e-07 -4.18305e-20
-5.69622e-10 5.69815e-08 -5.54945e-20
8.79796e-09 -3.80165e-08 -1.04213e-20
1.48021e-08 -8.45915e-08 4.18723e-20
-5.88084e-09 -2.76934e-08 5.5017e-20
-6.77077e-08 -1.7202e-08 1.02313e-20
-7.88205e-08 9.64432e-08 8.06272e-21
2.11385e-08 -7.67088e-09 -4.16349e-20
-8.67482e-09 -2.15083e-08 -1.14943e-19
-2.26817e-08 -3.32657e-09 5.60749e-20
-3.90743e-08 3.62008e-07 -2.30207e-21
-6.95307e-08 3.51187e-08 1.8329e-20
-6.7467e-08 1.15399e-07 -4.91829e-20
-6.78799e-07 7.97868e-08 -4.82189e-21
2.54928e-11 -5.37278e-08 -5.55837e-20
-6.53213e-08 -5.47356e-08 2.15165e-21
2.75126e-08 6.71275e-08 5.76284e-20
2.60126e-07 5.20049e-08 -7.61197e-20
3.72841e-07 -3.24403e-07 5.23392e-20
1.02098e-08 2.50097e-08 6.09055e-23
2.5204e-08 7.82939e-09 1.55702e-20
-3.47404e-07 2.57025e-07 3.5078e-20
4.05507e-07 4.92995e-08 -1.02852e-20
-6.14664e-08 5.49648e-07 -4.68045e-20
-2.13067e-08 -1.10129e-07 9.34662e-20
7.47752e-08 5.26664e-08 1.83593e-20
3.23594e-07 3.41255e-07 -2.47467e-20
5.86029e-09 2.59883e-09 7.15823e-20
-6.23644e-08 3.10546e-07 2.77354e-20
5.29328e-09 -2.82814e-09 -7.44563e-20
-3.74265e-08 2.55315e-08 -2.57202e-21
8.08171e-08 3.28869e-08 2.87484e-20
-2.99021e-07 9.24383e-08 -1.26594e-20
1.73559e-07 3.04973e-07 -5.76875e-20
1.07975e-07 -4.87507e-07 3.73721e-20
2.53778e-08 6.65253e-08 6.52544e-20
-4.59064e-08 -2.73102e-08 4.2382e-20
3.80484e-08 1.21678e-07 6.80046e-20
2.52999e-07 4.3051e-08 -7.41361e-20
-1.6796e-07 3.46993e-07 1.26438e-20
4.46501e-07 -1.4593e-07 6.23893e-20
-2.47722e-08 5.40851e-08 -1.28514e-20
4.74723e-08 4.82213e-08 1.577e-20
-2.82217e-08 -6.50947e-08 1.30576e-19
-1.13575e-08 -4.95889e-08 -2.62999e-20
1.31315e-07 1.57397e-08 -4.6922e-20
-9.58023e-08 4.48125e-07 9.83095e-21
-2.21448e-08 1.36688e-08 -1.2986e-20
6.54987e-08 9.70711e-08 6.20088e-20
-3.23955e-08 -4.59875e-07 1.95043e-20
4.65214e-07 1.39682e-07 4.20642e-20
3.16668e-08 -5.59599e-08 -3.13218e-20
-7.22959e-08 -8.26658e-09 -8.11337e-20
-2.97527e-07 -1.19415e-07 7.09201e-20
1.4705e-08 1.5725e-08 4.56827e-20
-4.72635e-07 -1.65291e-07 9.74311e-20
1.49288e-08 -1.5682e-08 -8.01482e-21
-4.59575e-08 -3.23123e-07 8.09683e-21
1.99416e-07 7.56777e-09 -5.30147e-21
-1.77575e-08 1.51412e-08 7.407e-20
4.77017e-09 2.17756e-08 -1.7959e-20
1.33446e-08 -5.84053e-08 -4.74784e-20
2.31671e-08 -1.08271e-08 -3.86979e-20
4.22478e-10 2.34573e-08 3.73388e-20
2.02454e-08 -2.5292e-09 -1.58291e-20
3.77876e-08 -5.57554e-08 4.97207e-20
-9.67734e-08 -4.93573e-07 1.52996e-20
2.55637e-07 -1.96794e-07 7.76743e-21
8.21419e-10 3.1129e-08 1.8682e-20
-2.15539e-08 -3.89511e-09 -3.95988e-20
-7.00553e-09 -2.41004e-08 -4.23612e-20
-1.77706e-08 -1.25486e-08 6.24992e-20
-2.38993e-07 2.9865e-07 7.55523e-20
-2.74478e-10 -2.37035e-08 1.06861e-20
-2.98961e-07 4.69415e-07 -4.74528e-21
-1.12334e-07 5.16568e-08 -5.47365e-20
1.57944e-08 1.70237e-08 5.97812e-20
-2.04072e-08 -1.19329e-08 5.63931e-20
1.45762e-07 3.51792e-07 -5.07478e-20
8.40815e-08 7.49444e-08 5.11371e-21
2.04119e-07 -6.7314e-08 -4.63498e-20
1.14897e-08 -6.27994e-08 -3.63854e-20
-3.70402e-07 -3.41319e-07 8.20414e-20
-3.57121e-08 6.17071e-08 -1.54856e-20
9.27163e-08 4.94567e-08 1.55785e-20
1.35587e-07 -4.66763e-08 -2.08225e-20
5.85536e-08 -1.16974e-07 3.35319e-20
2.32142e-07 -1.07045e-07 2.58248e-20
1.54442e-07 -7.28985e-08 3.36196e-20
1.55164e-08 -1.28669e-08 -6.30689e-20
2.69283e-07 2.13e-07 3.27192e-20
-3.89789e-08 -1.12706e-07 1.01501e-19
-4.78637e-08 -4.09571e-08 6.0116e-20
-7.8295e-09 -2.05414e-08 7.82676e-20
1.07566e-08 8.04109e-08 -1.02805e-20
-3.60167e-07 2.58217e-08 2.99998e-20
-1.31576e-07 -3.43812e-07 2.54702e-20
-5.66559e-08 7.22175e-08 2.65317e-21
1.11414e-07 1.48487e-07 9.80597e-20
2.7717e-07 -1.96587e-07 -4.55862e-23
-4.05205e-07 -2.16645e-07 4.97065e-20
1.80256e-07 -2.93443e-07 -2.00089e-20
2.34715e-07 -2.8872e-07 -9.76144e-21
-6.91172e-08 6.84239e-09 -1.59269e-20
-2.06051e-07 -2.98173e-07 -1.52453e-20
-3.60685e-07 -5.65286e-08 4.59613e-20
-4.29865e-08 -3.29157e-07 -1.24031e-20
1.60452e-07 -3.31641e-07 -4.02417e-20
3.35885e-09 -4.55731e-08 -1.19907e-19
4.76801e-08 3.17534e-07 3.28564e-20
-1.69866e-07 -2.97159e-07 1.26338e-20
-1.59382e-08 -7.28951e-08 7.58729e-20
-2.45543e-07 1.83825e-07 9.90732e-20
-4.80931e-08 -1.57591e-08 9.46028e-20
-3.74614e-08 -2.57518e-08 7.78082e-21
9.79857e-08 -5.02487e-08 -2.87107e-20
-1.34769e-08 1.90783e-08 4.03353e-20
5.20756e-08 -6.57406e-08 2.90157e-20
-3.05545e-07 -1.35884e-07 8.0392e-20
-4.04634e-08 -5.45029e-08 8.60149e-20
4.22881e-08 5.78198e-08 4.9599e-20
2.20934e-07 3.04972e-07 3.52527e-20
-7.81848e-08 -3.60524e-08 -1.08103e-20
-3.39886e-07 -7.6469e-09 1.25193e-20
-4.35485e-08 -4.03989e-08 1.29169e-20
-2.4751e-09 -5.84982e-08 -4.49066e-20
4.26597e-08 2.15101e-08 1.11348e-19
-4.92031e-08 4.85063e-08 -5.23713e-20
-8.21945e-09 -8.61186e-08 -7.07172e-20
-4.53722e-07 1.11761e-07 -7.53609e-21
2.48706e-07 2.12173e-07 6.3193e-20
3.3231e-08 3.45564e-07 -5.54182e-20
-2.00348e-08 6.8836e-09 -6.83123e-20
-6.68372e-08 2.07689e-09 -6.04789e-20
3.0684e-08 5.85849e-08 1.09752e-19
-2.42812e-08 -5.96831e-09 2.35952e-21
2.87748e-09 -2.07082e-08 4.66966e-20
-1.33694e-08 9.11579e-08 -1.4417e-19
1.48069e-08 1.56086e-08 -2.7324e-21
-1.68838e-07 3.7321e-08 3.31992e-20
-1.71241e-07 1.86842e-07 6.3733e-20
-1.84837e-08 1.71426e-08 -1.58047e-20
-3.09807e-07 1.86971e-07 1.10707e-19
-7.94442e-09 2.63898e-08 4.24517e-20
8.35941e-08 -2.99404e-08 -1.04901e-19
3.88349e-07 -3.57279e-08 1.77118e-20
-4.86643e-08 3.07922e-08 2.09594e-20
1.96853e-08 9.07017e-09 2.59426e-20
5.06485e-08 -3.17017e-08 1.87106e-20
-8.69088e-08 2.89611e-08 3.66154e-20
-6.32514e-08 1.65769e-08 -8.14202e-20
2.2232e-08 -6.50186e-09 -1.04288e-20
2.0573e-07 -1.25116e-07 3.5865e-20
-8.09518e-08 5.16153e-08 3.93105e-20
-2.4187e-07 -5.04369e-08 1.05447e-22
-5.13896e-08 -2.70623e-08 -2.38813e-20
1.96531e-08 -1.30562e-08 -3.40532e-20
2.17715e-08 1.53049e-08 -2.37322e-20
-5.50455e-09 2.47559e-08 -3.64973e-20
-2.23793e-09 -2.79321e-08 6.25163e-20
-2.26696e-08 1.15805e-08 -1.06577e-20
-2.53711e-08 -1.29901e-08 -2.63646e-20
6.35606e-08 -2.4017e-08 -4.44225e-20
-2.32461e-08 -6.40132e-09 2.60798e-20
-2.31965e-08 6.16601e-09 -7.40769e-20
-5.71052e-09 2.30508e-08 2.94606e-20
-6.20048e-09 -2.35561e-08 -3.7439e-20
1.53303e-08 -1.71607e-08 2.67738e-20
1.47381e-08 1.64234e-08 8.21095e-20
8.89747e-09 2.4552e-07 -6.15216e-20
4.76256e-08 -3.92948e-08 -4.73378e-20
1.11156e-08 -2.09649e-08 -6.31184e-20
-1.85153e-07 6.84238e-09 -9.30075e-20
1.75773e-08 -1.66768e-08 1.06067e-20
1.64113e-08 1.69361e-08 6.29082e-20
2.51805e-08 -5.48108e-10 3.74072e-22
8.49961e-08 2.406e-07 -7.79521e-21
-1.27409e-08 -2.08348e-08 2.07928e-20
2.75519e-08 -6.30533e-08 1.82255e-20
-2.06631e-07 -1.14324e-07 -5.08265e-20
-4.53933e-08 -2.9466e-08 1.57551e-20
-2.07386e-07 1.22998e-07 3.53777e-20
1.83884e-08 -1.88448e-08 -5.50573e-20
-8.81428e-09 1.959e-08 2.90093e-20
-4.84988e-09 -2.37748e-07 5.42629e-21
-7.78379e-08 -2.35476e-07 4.08148e-20
3.56891e-07 3.39676e-07 1.26261e-20
3.81741e-07 -2.16788e-08 -4.18022e-22
-2.70649e-08 5.90041e-09 -6.04644e-20
-2.55312e-07 -4.51171e-07 7.5033e-21
6.0865e-08 1.04361e-07 1.1189e-19
-2.44718e-07 2.88227e-08 -3.33714e-20
1.75675e-07 4.91234e-08 2.06219e-20
-2.40015e-08 -9.70842e-11 -4.19816e-20
5.26731e-10 -2.49442e-08 -5.36926e-21
-2.17638e-09 -1.7055e-08 -1.63738e-20
-2.127e-08 -1.26616e-08 -1.07177e-20
-5.29367e-07 -2.00603e-08 -2.44459e-20
1.66367e-07 -1.88162e-07 3.32122e-20
1.13103e-08 2.19408e-08 6.01306e-20
5.78409e-09 -1.05041e-07 -1.56504e-20
-9.92368e-08 2.35012e-07 -2.36212e-21
2.03861e-09 2.63939e-08 3.9562e-20
1.77516e-07 -1.27027e-07 6.72318e-20
-1.56029e-08 -6.82518e-09 1.32672e-20
-1.50962e-07 -1.96206e-07 -4.58598e-20
2.07974e-08 1.0577e-08 -3.03033e-21
4.92109e-08 4.75862e-08 4.44663e-20
-3.50207e-08 -5.45543e-08 1.53931e-19
2.15369e-08 -6.97218e-09 -2.91431e-20
7.29279e-08 -5.09141e-08 -4.98318e-20
-4.32978e-09 4.0657e-08 3.1242e-21
6.00008e-08 -1.01129e-07 -3.90555e-20
5.48004e-07 2.7612e-08 -1.24984e-20
-4.64262e-07 1.22834e-07 -1.76843e-20
3.8862e-08 2.70798e-08 7.44801e-20
-5.75099e-08 -1.38456e-07 3.13001e-20
-8.74097e-08 -5.70258e-08 3.60666e-20
2.84551e-07 -2.86024e-09 3.29856e-20
2.43123e-09 -5.42793e-08 -5.29866e-20
-7.1104e-08 -2.50985e-08 2.32242e-20
9.69753e-08 -2.31699e-07 -3.5429e-20
7.73066e-09 9.33184e-08 -5.26509e-20
7.95911e-08 2.46822e-07 -7.94866e-20
9.55087e-08 -5.03319e-08 -1.7801e-20
-1.74244e-07 1.85467e-07 -2.59441e-21
1.60227e-07 1.97991e-07 8.11167e-20
-1.00716e-08 4.5013e-09 -9.53914e-20
1.66248e-09 4.29968e-08 2.69842e-20
3.23596e-09 -1.95066e-08 -2.63993e-20
-1.54461e-08 -1.28029e-08 -7.81626e-21
-5.3203e-08 4.21906e-08 -6.00438e-20
-2.4413e-07 -5.78397e-08 5.5012e-22
8.5177e-10 2.74288e-08 -6.13505e-20
-6.38398e-08 1.90495e-08 1.5454e-20
1.72965e-07 -2.50736e-08 2.04305e-20
-7.39694e-08 -2.39526e-07 -2.4972e-20
-1.45686e-07 2.32014e-07 1.80045e-20
-4.11226e-08 1.90077e-08 3.71945e-20
-1.9525e-07 -1.38152e-07 -1.52665e-20
4.41865e-08 -2.07188e-08 -8.21956e-20
-2.64742e-07 -1.29631e-08 -1.5246e-20
1.29613e-07 -4.57362e-07 6.63783e-20
1.77072e-07 -1.85949e-07 -2.38655e-21
2.70781e-07 4.80094e-07 -1.77104e-20
-2.54031e-09 5.80096e-08 -1.05419e-19
2.32407e-08 -2.41182e-07 -3.8026e-20
-9.41102e-09 5.70077e-09 -1.28101e-19
-1.25524e-07 -2.34225e-07 4.60809e-20
4.21039e-08 -3.60427e-08 -1.30834e-20
-2.42167e-08 2.43966e-07 4.82009e-20
5.87838e-08 -1.72485e-08 -6.012e-20
1.33787e-07 2.38424e-07 3.5846e-20
1.33987e-07 -3.12712e-09 5.22563e-21
2.44597e-07 -7.21703e-07 2.20216e-20
-5.18215e-08 -9.64714e-08 3.91104e-20
-2.1613e-07 9.41728e-08 1.52441e-20
-3.02767e-08 1.48704e-08 -8.0185e-21
2.05177e-07 1.37404e-07 2.01128e-20
1.46235e-07 -8.07338e-08 2.32939e-20
7.72938e-08 3.39531e-08 2.09644e-20
-1.58055e-08 1.33612e-08 -3.66883e-20
1.46686e-07 -2.26609e-07 1.30297e-20
-1.56382e-07 -1.9515e-07 5.2429e-21
2.01766e-07 7.95842e-08 4.36858e-20
5.1319e-08 -3.17155e-08 -6.59206e-20
9.43283e-08 -2.34447e-07 -7.54624e-21
1.10838e-07 -2.10068e-08 -1.07287e-19
-1.07562e-07 -4.29107e-08 2.30033e-20
-4.67504e-09 -4.36483e-08 -7.51145e-20
-2.46571e-07 3.42382e-08 1.25497e-20
2.59062e-08 2.16299e-07 4.99919e-21
1.68674e-07 3.93575e-08 5.12484e-21
-1.91608e-07 -8.57606e-08 1.79497e-20
-9.42216e-08 2.41591e-07 2.80563e-20
-2.15369e-08 -2.10732e-07 -1.25313e-20
5.56995e-08 2.71849e-08 2.89957e-20
-3.61637e-08 1.01907e-07 -4.95505e-20
-1.72304e-07 1.2358e-07 -5.03207e-21
2.21293e-07 1.11621e-07 -3.82121e-20
-1.00731e-07 -3.16394e-08 1.28126e-20
-2.4431e-08 -1.03728e-07 -4.20332e-20
1.69107e-07 1.96576e-07 3.58519e-20
-3.97398e-08 -1.80276e-08 7.72102e-20
5.56137e-07 -3.99882e-07 -3.63165e-20
1.17746e-07 -8.23813e-08 -3.10339e-20
9.6171e-08 4.71285e-07 -1.76913e-20
1.2416e-07 -1.19369e-07 5.18986e-20
-2.68505e-07 1.02255e-06 2.51977e-21
-2.7006e-07 -1.01259e-06 2.31262e-20
6.63516e-07 8.72152e-07 2.54415e-20
6.55287e-07 -8.71918e-07 9.02764e-21
1.08613e-06 -4.24675e-10 -5.1051e-20
-9.36291e-07 3.76695e-07 1.86736e-20
-9.20769e-07 -3.8079e-07 -2.51259e-20
4.47599e-08 2.42761e-08 5.76073e-20
2.87147e-08 1.39448e-08 4.80639e-20
8.34345e-08 1.12335e-08 2.3432e-20
1.47305e-07 7.87247e-08 -1.29195e-20
4.36971e-08 1.74061e-07 -2.04585e-20
-1.57926e-07 -1.35683e-07 -7.98772e-20
7.95194e-08 -7.33102e-08 -5.75363e-20
1.69689e-07 1.36186e-07 -1.04619e-20
-3.9246e-08 2.14237e-07 -2.56049e-20
2.78494e-08 -1.36812e-08 -1.61476e-20
3.994e-08 -2.05591e-07 1.31142e-20
5.21696e-08 3.5183e-08 -1.86907e-20
3.06081e-07 1.07222e-07 5.02753e-21
6.85206e-09 2.20246e-08 -3.43823e-20
1.18285e-07 3.87131e-08 -3.64878e-20
-1.464e-07 8.09816e-08 -1.01167e-20
-2.00449e-07 6.93416e-08 -3.85767e-20
3.96761e-08 -2.71822e-08 -5.01988e-20
-1.2797e-07 -5.92161e-08 2.3104e-21
-1.40609e-07 -8.32855e-08 -3.13672e-20
-1.23267e-08 -1.41147e-07 -2.02961e-20
5.55692e-10 -1.62115e-07 1.57881e-20
-1.78496e-07 -7.7156e-09 -6.1686e-20
2.64938e-07 -4.11361e-08 7.49823e-21
1.42919e-07 8.80804e-08 2.56542e-20
-1.18262e-07 8.06757e-08 1.2918e-20
-5.33175e-08 2.60948e-08 -3.99594e-20
1.33396e-07 -1.19528e-07 1.55298e-20
-1.00229e-07 1.56059e-07 8.49354e-20
-1.23464e-07 -1.30055e-07 -1.03998e-20
-1.17011e-08 1.69984e-07 -1.00368e-20
-2.54342e-08 1.43461e-07 1.05093e-20
4.19124e-09 -1.04145e-07 -3.63492e-20
5.37346e-08 -1.73676e-07 -2.5594e-21
-8.78196e-08 -5.6358e-08 2.2611e-21
1.21681e-07 -3.46999e-08 5.35548e-21
2.96526e-10 1.69774e-07 -7.35167e-21
-3.67457e-09 1.08469e-07 -7.5751e-20
-2.72645e-08 1.22017e-07 3.37425e-20
1.99713e-07 -4.91493e-08 -2.04114e-22
-4.19323e-08 4.00438e-08 -8.66834e-20
4.52664e-08 1.6991e-07 -1.00701e-19
-2.7346e-08 1.72594e-08 -5.09493e-20
1.00874e-07 4.67754e-07 -6.70295e-20
-4.94628e-08 2.67054e-08 -5.02613e-20
5.24802e-08 -2.73191e-08 -3.153e-20
1.50991e-08 1.44375e-07 -4.66323e-20
-1.69325e-07 4.02182e-08 -6.25637e-20
-5.20979e-09 -7.33914e-08 -7.68754e-21
6.99224e-09 -6.67345e-07 1.2037e-20
2.02683e-08 1.22394e-07 4.96692e-20
-1.26494e-07 1.20341e-07 2.34099e-20
1.96466e-07 7.30712e-07 -4.42417e-20
9.42619e-09 6.20954e-09 1.63032e-20
8.144e-09 -5.92207e-09 -1.90926e-20
9.52274e-08 -7.42632e-08 -2.82398e-20
-1.35182e-07 1.21036e-07 -7.44569e-21
-1.62255e-07 -4.79264e-08 3.85312e-20
-1.6674e-07 -5.4762e-08 1.48156e-22
-3.33546e-09 2.05495e-09 2.74114e-20
-2.30742e-09 -1.11955e-09 -1.65769e-20
7.78797e-08 1.58221e-08 1.5629e-20
2.47199e-08 1.13662e-07 -3.65843e-20
-2.85727e-09 1.13016e-07 -7.54045e-20
-5.5895e-07 -4.0603e-07 4.13309e-20
9.92002e-08 -1.56029e-07 5.08505e-21
5.01717e-08 1.80636e-08 5.73751e-20
-1.84033e-07 -1.97956e-08 -7.49496e-20
-1.16363e-07 1.53732e-07 1.55243e-20
-1.50222e-07 7.06349e-08 -1.69751e-22
5.48766e-07 3.9429e-07 -3.61566e-20
5.42837e-08 3.56881e-08 -3.44289e-20
-5.34066e-08 1.74303e-07 -2.07506e-20
-1.0527e-07 -9.01706e-08 -3.41786e-20
2.61895e-08 -1.37304e-07 5.2111e-20
-8.51907e-08 -1.6208e-07 3.89998e-20
-1.36507e-07 -9.35667e-08 -5.18675e-20
9.35601e-08 -1.65927e-07 3.09798e-20
1.12228e-07 -1.54235e-07 1.8048e-20
-3.55771e-08 -6.96369e-07 3.65653e-20
2.86301e-07 -4.5795e-07 5.07937e-21
1.36751e-08 -1.66687e-07 -3.10094e-20
1.17541e-07 8.9483e-08 -1.29199e-20
-1.05587e-07 -1.28172e-07 2.32269e-20
-9.15791e-08 1.7073e-07 5.4053e-20
-5.62653e-08 1.67332e-07 -2.4175e-21
1.22562e-07 1.26919e-07 7.50961e-20
6.00896e-08 -1.56512e-07 2.06542e-20
-1.55386e-07 -4.43048e-07 -4.91738e-20
3.50097e-09 5.38128e-08 4.00245e-20
1.24086e-07 1.27686e-07 1.08022e-19
-6.68847e-08 -3.29309e-08 -3.15611e-21
-5.55744e-08 3.03334e-08 1.82397e-20
4.97497e-07 -2.17946e-07 1.22567e-20
6.17777e-08 -1.021e-07 -5.4892e-21
-5.86352e-08 -1.00312e-07 1.8136e-20
2.22404e-08 -1.92585e-09 -1.04158e-20
1.90789e-09 -8.42469e-09 1.10379e-20
-6.23764e-09 -6.15601e-09 -3.54532e-20
2.73888e-08 1.79632e-08 1.3322e-20
-8.59085e-08 -1.62169e-07 -3.06439e-20
1.32185e-07 5.30099e-08 4.93715e-20
-3.21728e-07 -3.53699e-07 1.46786e-20
1.20363e-09 1.03586e-08 -8.68107e-20
1.2039e-09 1.87257e-09 2.16906e-20
2.3368e-09 -2.98025e-10 2.17846e-20
3.08739e-07 -6.097e-07 -7.37819e-21
-1.28269e-08 1.51036e-08 8.36187e-20
-2.93823e-09 1.82968e-08 -4.26333e-20
-1.32911e-07 4.72446e-08 -2.80965e-21
-4.59596e-09 5.39745e-08 1.86377e-20
-2.92039e-08 8.65788e-08 5.38755e-21
6.01913e-08 2.56291e-09 7.02984e-20
1.35815e-08 5.20396e-08 -1.27419e-20
-3.55797e-09 7.19608e-08 1.87909e-20
1.03162e-07 5.6124e-08 2.59929e-20
7.35647e-09 6.64231e-07 2.17097e-20
-9.59823e-08 9.08249e-08 -3.65961e-20
7.19615e-08 -4.83907e-08 -3.11975e-20
4.15379e-08 -3.79391e-08 -5.52866e-20
-6.81263e-07 -9.35388e-08 -4.87062e-20
-1.94025e-08 7.69586e-09 -2.71582e-20
-4.96051e-07 -5.86782e-07 -9.80789e-21
9.00254e-09 2.41269e-08 -5.10477e-21
8.6986e-08 1.69085e-08 2.58051e-20
2.59013e-07 -3.36138e-08 -7.71806e-21
-5.92041e-08 -9.72851e-08 1.27681e-19
1.13194e-07 3.24616e-08 -3.67692e-20
5.83013e-10 -2.87994e-08 -3.48288e-20
-6.38355e-08 7.38636e-08 -7.07213e-20
-2.44098e-08 -1.55218e-08 5.31842e-20
-5.75468e-08 1.16904e-07 -2.86868e-20
1.04135e-08 7.3776e-08 5.58675e-21
1.69106e-08 1.23923e-08 -1.37875e-20
1.67816e-08 -1.19044e-08 -5.64895e-20
-4.61825e-07 -1.25809e-07 1.50416e-20
5.08638e-08 1.89738e-08 1.76648e-20
-6.12494e-08 1.18561e-06 -2.37251e-21
-4.25542e-09 -1.21809e-06 1.16943e-20
5.99559e-07 1.02638e-06 -6.76538e-21
-6.22009e-08 4.93505e-08 -3.93377e-20
-3.17711e-07 6.39371e-07 -4.53859e-20
6.03005e-07 -9.90662e-07 -7.26497e-21
-9.96955e-08 -1.61358e-07 1.55574e-20
9.15697e-07 8.02348e-07 -6.27726e-20
1.07553e-08 -1.9078e-08 -1.87158e-20
-1.12084e-08 -1.93311e-08 2.70926e-20
9.59868e-07 -7.84481e-07 4.58189e-21
-5.88085e-08 1.15649e-07 5.95802e-20
-6.0294e-07 -3.83995e-07 6.1528e-20
-5.08452e-07 -1.05974e-06 3.82963e-20
-2.84776e-07 -6.55132e-07 -2.42479e-20
-5.227e-07 1.07738e-06 -9.53812e-21
-1.23523e-07 7.30098e-07 -5.34478e-20
-8.70993e-10 2.55489e-08 -7.27249e-20
-3.17151e-07 4.08321e-07 1.5102e-20
-3.0365e-07 -6.21463e-07 4.58667e-20
1.18073e-06 2.06049e-07 -2.3955e-20
-9.23018e-08 7.84755e-08 -2.11767e-20
-2.1644e-09 5.18377e-08 5.30644e-20
-5.71133e-07 4.13462e-07 -2.65651e-20
-1.02366e-07 5.46336e-08 -7.8258e-21
1.1691e-06 -1.83275e-07 7.12896e-21
-7.81255e-08 5.24474e-08 -1.06317e-20
5.69158e-08 -1.1771e-07 -2.60378e-20
-9.09795e-07 -6.91006e-07 1.93916e-22
-3.06776e-07 6.57312e-07 -6.55037e-20
-9.31842e-07 6.85933e-07 -1.65992e-20
2.72273e-07 6.07427e-07 8.77611e-23
-1.00214e-07 7.96642e-08 3.8814e-20
-2.77996e-08 1.57425e-08 -8.06587e-20
-1.5199e-09 -2.44267e-09 -9.91377e-20
4.05163e-10 -2.09563e-09 -4.41317e-20
7.62112e-09 7.99921e-08 -2.58941e-20
-2.23151e-09 2.44604e-09 -6.11641e-20
1.20038e-09 3.00917e-09 1.3448e-20
2.03278e-09 -8.82987e-10 -1.23706e-19
-1.19112e-09 9.47171e-09 -8.98598e-20
-2.095e-07 4.57081e-07 -1.25076e-19
-1.57518e-08 1.12988e-08 -7.83702e-20
2.71405e-08 -1.71067e-08 -2.11407e-20
2.6605e-08 -1.54145e-08 -1.0448e-20
7.66712e-08 2.9917e-08 -3.35634e-22
-7.17906e-10 -8.10639e-09 -8.6624e-21
-7.23596e-09 -3.67251e-09 2.70197e-20
2.65887e-08 1.55112e-08 -8.16748e-21
6.77067e-07 -1.30497e-07 -1.09273e-22
-8.77057e-08 -1.11793e-07 2.09619e-20
-5.92777e-07 4.13279e-07 4.64176e-22
-5.30721e-07 6.05315e-07 -5.84107e-20
7.15389e-07 -2.58356e-07 -1.24443e-20
-3.42025e-09 -9.95772e-09 5.0769e-21
-3.75757e-09 1.0229e-08 -7.04566e-20
-1.12357e-08 1.94023e-09 -1.89521e-20
-7.37788e-09 7.50784e-09 -2.43929e-20
-1.01842e-08 -2.16982e-09 -5.7815e-21
1.87164e-09 2.40465e-09 -1.31917e-22
1.09301e-08 -2.69915e-09 -5.96859e-20
4.59998e-09 -3.24439e-09 -2.4876e-22
-3.24424e-09 -2.31992e-09 -3.87729e-20
6.99844e-09 -7.18266e-09 -5.17789e-20
7.03737e-09 7.3967e-09 5.16007e-20
-3.26407e-09 2.03695e-09 1.2165e-19
3.54377e-09 -7.26959e-10 -2.50938e-20
5.88723e-09 3.26704e-09 -5.49913e-20
1.27698e-08 4.56837e-09 -1.91021e-20
SCALARS rr_necrosis float
LOOKUP_TABLE default
0
0
0
0
0
0
0
0
0
0
0
0
0
0
0
0
0
0
0
0
0
0
0
0
0
0
0
0
0
0
0
0
0
0
0
0
0
0
0
0
0
0
0
0
0
0
0
0
0
0
0
0
0
0
0
0
0
0
0
0
0
0
0
0
0
0
0
0
0
0
0
0
0
0
0
0
0
0
0
0
0
0
0
0
0
0
0
0
0
0
0
0
0
0
0
0
0
0
0
0
0
0
0
0
0
0
0
0
0
0
0
0
0
0
0
0
0
0
0
0
0
0
0
0
0
0
0
0
0
0
0
0
0
0
0
0
0
0
0
0
0
0
0
0
0
0
0
0
0
0
0
0
0
0
0
0
0
0
0
0
0
0
0
0
0
0
0
0
0
0
0
0
0
0
0
0
0
0
0
0
0
0
0
0
0
0
0
0
0
0
0
0
0
0
0
0
0
0
0
0
0
0
0
0
0
0
0
0
0
0
0
0
0
0
0
0
0
0
0
0
0
0
0
0
0
0
0
0
0
0
0
0
0
0
0
0
0
0
0
0
0
0
0
0
0
0
0
0
0
0
0
0
0
0
0
0
0
0
0
0
0
0
0
0
0
0
0
0
0
0
0
0
0
0
0
0
0
0
0
0
0
0
0
0
0
0
0
0
0
0
0
0
0
0
0
0
0
0
0
0
0
0
0
0
0
0
0
0
0
0
0
0
0
0
0
0
0
0
0
0
0
0
0
0
0
0
0
0
0
0
0
0
0
0
0
0
0
0
0
0
0
0
0
0
0
0
0
0
0
0
0
0
0
0
0
0
0
0
0
0
0
0
0
0
0
0
0
0
0
0
0
0
0
0
0
0
0
0
0
0
0
0
0
0
0
0
0
0
0
0
0
0
0
0
0
0
0
0
0
0
0
0
0
0
0
0
0
0
0
0
0
0
0
0
0
0
0
0
0
0
0
0
0
0
0
0
0
0
0
0
0
0
0
0
0
0
0
0
0
0
0
0
0
0
0
0
0
0
0
0
0
0
0
0
0
0
0
0
0
0
0
0
0
0
0
0
0
0
0
0
0
0
0
0
0
0
0
0
0
0
0
0
0
0
0
0
0
0
0
0
0
0
0
0
0
0
0
0
0
0
0
0
0
0
0
0
0
0
0
0
0
0
0
0
0
0
0
0
0
0
0
0
0
0
0
0
0
0
0
0
0
0
0
0
0
0
0
0
0
0
0
0
0
0
0
0
0
0
0
0
0
0
0
0
0
0
0
0
0
0
0
0
0
SCALARS rr_protein float
LOOKUP_TABLE default
1
1
1
1
1
1
1
1
1
1
1
1
1
1
1
1
1
1
1
1
1
1
1
1
1
1
1
1
1
1
1
1
1
1
1
1
1
1
1
1
1
1
1
1
1
1
1
1
1
1
1
1
1
1
1
1
1
1
1
1
1
1
1
1
1
1
1
1
1
1
1
1
1
1
1
1
1
1
1
1
1
1
1
1
1
1
1
1
1
1
1
1
1
1
1
1
1
1
1
1
1
1
1
1
1
1
1
1
1
1
1
1
1
1
1
1
1
1
1
1
1
1
1
1
1
1
1
1
1
1
1
1
1
1
1
1
1
1
1
1
1
1
1
1
1
1
1
1
1
1
1
1
1
1
1
1
1
1
1
1
1
1
1
1
1
1
1
1
1
1
1
1
1
1
1
1
1
1
1
1
1
1
1
1
1
1
1
1
1
1
1
1
1
1
1
1
1
1
1
1
1
1
1
1
1
1
1
1
1
1
1
1
1
1
1
1
1
1
1
1
1
1
1
1
1
1
1
1
1
1
1
1
1
1
1
1
1
1
1
1
1
1
1
1
1
1
1
1
1
1
1
1
1
1
1
1
1
1
1
1
1
1
1
1
1
1
1
1
1
1
1
1
1
1
1
1
1
1
1
1
1
1
1
1
1
1
1
1
1
1
1
1
1
1
1
1
1
1
1
1
1
1
1
1
1
1
1
1
1
1
1
1
1
1
1
1
1
1
1
1
1
1
1
1
1
1
1
1
1
1
1
1
1
1
1
1
1
1
1
1
1
1
1
1
1
1
1
1
1
1
1
1
1
1
1
1
1
1
1
1
1
1
1
1
1
1
1
1
1
1
1
1
1
1
1
1
1
1
1
1
1
1
1
1
1
1
1
1
1
1
1
1
1
1
1
1
1
1
1
1
1
1
1
1
1
1
1
1
1
1
1
1
1
1
1
1
1
1
1
1
1
1
1
1
1
1
1
1
1
1
1
1
1
1
1
1
1
1
1
1
1
1
1
1
1
1
1
1
1
1
1
1
1
1
1
1
1
1
1
1
1
1
1
1
1
1
1
1
1
1
1
1
1
1
1
1
1
1
1
1
1
1
1
1
1
1
1
1
1
1
1
1
1
1
1
1
1
1
1
1
1
1
1
1
1
1
1
1
1
1
1
1
1
1
1
1
1
1
1
1
1
1
1
1
1
1
1
1
1
1
1
1
1
1
1
1
1
1
1
1
1
1
1
1
1
1
1
1
1
1
1
1
1
1
1
1
1
1
1
1
1
1
1
SCALARS rr_(S_ext) float
LOOKUP_TABLE default
0.940827
0.940914
0.94091
0.94091
0.940953
0.940909
0.940826
0.940917
0.940903
0.940916
0.940806
0.940917
0.940915
0.940919
0.940935
0.940912
0.940921
0.940912
0.940895
0.940906
0.940908
0.940993
0.940904
0.940906
0.940906
0.940913
0.940835
0.94091
0.940867
0.940965
0.940915
0.940866
0.940836
0.940958
0.940965
0.940958
0.940965
0.940964
0.940915
0.940836
0.940866
0.940965
0.940965
0.940915
0.940837
0.94087
0.940899
0.940905
0.94091
0.940858
0.940863
0.94088
0.940947
0.940882
0.940947
0.940851
0.940965
0.940881
0.940965
0.940906
0.940919
0.940934
0.940849
0.940934
0.940934
0.940925
0.940919
0.940914
0.940905
0.940913
0.940947
0.940947
0.940867
0.940929
0.940911
0.940828
0.940942
0.940925
0.940913
0.940879
0.940862
0.940957
0.940926
0.940856
0.940874
0.940844
0.94091
0.940929
0.940837
0.940987
0.94088
0.940987
0.940941
0.940924
0.940883
0.940861
0.940864
0.940915
0.940942
0.940914
0.940893
0.940878
0.940855
0.940911
0.940915
0.940915
0.940928
0.940914
0.940856
0.940912
0.940906
0.940843
0.940849
0.940911
0.940914
0.940883
0.940968
0.940864
0.940968
0.940883
0.940893
0.940933
0.940912
0.940925
0.940914
0.940936
0.940962
0.940915
0.940864
0.940882
0.940945
0.940912
0.940924
0.940912
0.940878
0.940965
0.940859
0.940916
0.940925
0.940964
0.940879
0.940921
0.940897
0.940916
0.940864
0.940913
0.940919
0.940912
0.94091
0.940888
0.940903
0.940912
0.940865
0.940915
0.940916
0.940912
0.940922
0.940881
0.940881
0.940912
0.940905
0.940866
0.940843
0.940862
0.940879
0.940915
0.940881
0.940881
0.940866
0.94088
0.940941
0.940881
0.940863
0.940923
0.940881
0.940928
0.940941
0.940917
0.94095
0.940917
0.940868
0.940915
0.940915
0.940878
0.940928
0.940862
0.940925
0.940931
0.940944
0.940916
0.940928
0.940865
0.940881
0.940866
0.940912
0.940911
0.940911
0.940924
0.940912
0.940925
0.940912
0.940897
0.94088
0.940924
0.940869
0.940925
0.940926
0.940875
0.940936
0.940913
0.940939
0.940922
0.940915
0.940926
0.940888
0.940924
0.940882
0.940931
0.940913
0.940913
0.94091
0.940912
0.940912
0.940912
0.940918
0.940934
0.940933
0.940933
0.940934
0.940948
0.940947
0.940887
0.940917
0.940905
0.940905
0.940936
0.940936
0.940906
0.94088
0.940904
0.940915
0.940889
0.940935
0.940889
0.940927
0.940903
0.940889
0.940882
0.940862
0.940856
0.940926
0.940863
0.940913
0.940882
0.940896
0.940904
0.940912
0.940968
0.940912
0.940865
0.940881
0.940905
0.940916
0.94088
0.940912
0.940898
0.940967
0.940882
0.940913
0.940925
0.940911
0.940935
0.940929
0.940949
0.940913
0.940848
0.940844
0.940947
0.940907
0.940916
0.940891
0.940935
0.940923
0.940881
0.940925
0.940893
0.94092
0.940894
0.94088
0.940978
0.940942
0.940934
0.940934
0.940917
0.940896
0.940957
0.940924
0.940905
0.940895
0.940892
0.940945
0.940889
0.940943
0.940894
0.940838
0.940894
0.940864
0.94093
0.940888
0.940977
0.940893
0.940927
0.940887
0.940926
0.940893
0.940912
0.940851
0.940907
0.940889
0.940943
0.940887
0.940904
0.940929
0.940913
0.940893
0.940895
0.940897
0.940932
0.940894
0.940917
0.940911
0.94095
0.940895
0.940897
0.940907
0.940899
0.940894
0.940899
0.940935
0.940916
0.940898
0.940888
0.94092
0.94092
0.940893
0.940949
0.940803
0.940913
0.940862
0.940907
0.940714
0.940714
0.940713
0.940713
0.940711
0.940718
0.940719
0.940931
0.940955
0.940912
0.940904
0.940896
0.940899
0.94092
0.940897
0.940897
0.940956
0.940898
0.940938
0.94088
0.940931
0.940909
0.940904
0.940898
0.940948
0.940913
0.940905
0.940913
0.940904
0.940895
0.940879
0.940903
0.940912
0.940938
0.940898
0.940893
0.940897
0.940902
0.940911
0.940919
0.940897
0.940919
0.940908
0.940903
0.940917
0.940908
0.940897
0.940925
0.940906
0.940953
0.940838
0.940931
0.940936
0.940911
0.940908
0.940924
0.940806
0.940909
0.940907
0.940851
0.94098
0.940981
0.940911
0.940896
0.940908
0.940898
0.941003
0.941002
0.940914
0.940918
0.940917
0.94081
0.940894
0.940928
0.940905
0.940904
0.940903
0.9408
0.940926
0.940895
0.940912
0.940912
0.940903
0.940904
0.940903
0.940905
0.940836
0.940864
0.940904
0.940913
0.940906
0.940903
0.940906
0.940907
0.940906
0.94084
0.940938
0.940896
0.940924
0.940927
0.940839
0.940909
0.940908
0.94095
0.940973
0.940972
0.940941
0.940894
0.940912
0.940837
0.94097
0.940995
0.940995
0.9408
0.940963
0.940964
0.940911
0.940942
0.940912
0.940916
0.940924
0.940931
0.940918
0.940805
0.940913
0.940924
0.940928
0.940827
0.940961
0.940853
0.940925
0.94092
0.940891
0.940913
0.940917
0.940946
0.940917
0.940946
0.940911
0.940929
0.940964
0.940966
0.94084
0.940918
0.940824
0.94083
0.940818
0.940927
0.940808
0.940813
0.940903
0.94082
0.940957
0.940957
0.940824
0.940903
0.94084
0.940826
0.940835
0.940826
0.940835
0.940964
0.940834
0.940808
0.940822
0.940917
0.940932
0.940833
0.940917
0.940812
0.940919
0.940905
0.940824
0.94083
0.94082
0.940799
0.940908
0.940957
0.94099
0.940988
0.94092
0.94099
0.94099
0.940989
0.940979
0.940837
0.940963
0.940944
0.940958
0.940919
0.940983
0.940983
0.940962
0.940796
0.940904
0.940807
0.940853
0.940846
0.940968
0.940967
0.940967
0.940968
0.940968
0.940991
0.940971
0.940984
0.940995
0.940971
0.940971
0.940996
0.94099
0.940984
0.940968
SCALARS rr_(P_ext) float
LOOKUP_TABLE default
0.0189937
0.0189022
0.0189102
0.0189038
0.0188791
0.0189104
0.018994
0.0189049
0.0189179
0.0189025
0.0189877
0.0189049
0.0189068
0.0189013
0.0188876
0.0189089
0.018898
0.0189059
0.018922
0.0189125
0.0189138
0.0188476
0.0189137
0.0189124
0.0189127
0.0189044
0.018975
0.0189092
0.018947
0.0188661
0.0189071
0.0189468
0.0189763
0.0188716
0.0188689
0.0188717
0.0188651
0.0188701
0.0189073
0.018976
0.0189472
0.0188648
0.0188648
0.0189071
0.0189675
0.0189457
0.0189201
0.0189164
0.0189101
0.0189526
0.0189493
0.0189377
0.0188804
0.0189374
0.0188811
0.0189648
0.0188687
0.0189374
0.0188688
0.0189121
0.0188984
0.0188908
0.0189691
0.0188913
0.0188907
0.0188981
0.0188981
0.0189044
0.0189131
0.0189019
0.0188806
0.0188806
0.0189472
0.0188953
0.01891
0.0189802
0.0188859
0.0188982
0.0189044
0.0189356
0.0189545
0.0188763
0.0188945
0.0189571
0.0189443
0.0189665
0.0189092
0.0188967
0.0189674
0.0188521
0.0189376
0.0188522
0.0188854
0.0188991
0.0189367
0.0189502
0.0189544
0.0189027
0.018886
0.0189076
0.0189273
0.0189422
0.0189573
0.0189051
0.0189035
0.0189033
0.0188934
0.0189084
0.0189574
0.0189008
0.018912
0.0189645
0.0189604
0.0189056
0.0189037
0.0189371
0.0188688
0.0189548
0.0188691
0.0189368
0.018924
0.0188886
0.0189022
0.0188964
0.0189002
0.0188868
0.018872
0.0189027
0.0189544
0.0189367
0.0188805
0.0189028
0.018895
0.0189025
0.018942
0.0188687
0.0189594
0.0189062
0.0188945
0.0188688
0.018941
0.0189023
0.0189226
0.0189025
0.0189552
0.0189041
0.0189037
0.0189101
0.0189104
0.01893
0.0189166
0.0189022
0.018947
0.0189067
0.0189025
0.0189027
0.0189
0.0189401
0.0189398
0.0189068
0.0189163
0.0189463
0.0189652
0.0189493
0.0189402
0.0189032
0.0189402
0.0189403
0.0189469
0.01894
0.0188851
0.0189374
0.0189495
0.0188992
0.0189372
0.0188938
0.0188852
0.018905
0.0188801
0.0189032
0.0189469
0.0189028
0.0189029
0.0189408
0.0188965
0.0189501
0.0188965
0.0188933
0.0188848
0.0189027
0.0188964
0.0189534
0.0189372
0.0189468
0.0189026
0.0189063
0.0189058
0.0188951
0.0189023
0.0188985
0.0189021
0.0189209
0.0189349
0.0188952
0.0189468
0.0188946
0.0188982
0.0189426
0.0188897
0.018902
0.0188889
0.0189009
0.0189038
0.0188944
0.0189297
0.0189001
0.018934
0.0188934
0.0189003
0.0189004
0.0189014
0.018901
0.0189009
0.018901
0.0189019
0.0188882
0.0188884
0.0188882
0.0188881
0.018881
0.0188809
0.0189303
0.0189016
0.0189045
0.0189168
0.0188875
0.0188872
0.0189043
0.0189347
0.0189049
0.0189027
0.0189293
0.0188895
0.0189297
0.0188942
0.0189052
0.0189291
0.0189336
0.0189547
0.018954
0.0188945
0.0189565
0.0189078
0.0189341
0.0189214
0.018905
0.0189005
0.0188643
0.0189008
0.0189572
0.018934
0.0189046
0.0189049
0.0189351
0.0189006
0.0189222
0.0188644
0.0189339
0.0189001
0.018897
0.0189058
0.0188878
0.0188969
0.0188804
0.0189069
0.0189632
0.0189666
0.0188829
0.0189136
0.018905
0.0189297
0.0188894
0.0188993
0.0189339
0.018899
0.0189269
0.0189033
0.0189269
0.0189345
0.0188573
0.0188843
0.0188873
0.0188874
0.0189019
0.0189262
0.0188726
0.0188973
0.018916
0.0189259
0.0189288
0.018883
0.0189294
0.0188853
0.0189278
0.0189673
0.0189264
0.0189556
0.0188931
0.0189293
0.0188574
0.0189278
0.0188952
0.0189304
0.0188961
0.018928
0.0189092
0.0189707
0.018911
0.0189296
0.0188834
0.01893
0.0189159
0.0188961
0.0189019
0.0189279
0.0189263
0.0189224
0.0188933
0.0189264
0.018905
0.0189092
0.0188806
0.0189263
0.0189229
0.0189146
0.0189219
0.0189273
0.0189217
0.0188905
0.0189052
0.0189225
0.0189297
0.0189026
0.0189024
0.0189268
0.0188807
0.0189909
0.0189095
0.0189546
0.0189142
0.0190394
0.0190393
0.0190387
0.019039
0.0190387
0.0190396
0.0190393
0.0188928
0.0188751
0.0189066
0.0189163
0.0189215
0.018922
0.0189032
0.0189225
0.018923
0.0188749
0.018922
0.0188891
0.0189376
0.0188896
0.0189106
0.0189165
0.0189223
0.0188828
0.0189095
0.0189159
0.0189094
0.0189158
0.0189227
0.0189359
0.0189165
0.0189103
0.0188888
0.0189206
0.0189235
0.018921
0.0189171
0.0189106
0.0189031
0.0189211
0.0189033
0.0189113
0.0189168
0.0189048
0.0189111
0.0189222
0.0188961
0.018915
0.0188759
0.0189672
0.0188929
0.0188905
0.0189105
0.0189148
0.0188983
0.0189898
0.0189105
0.0189152
0.0189701
0.0188579
0.0188577
0.0189096
0.0189216
0.0189141
0.0189206
0.018844
0.018844
0.0189047
0.0189046
0.0189051
0.0189901
0.018923
0.0188948
0.0189168
0.0189176
0.0189169
0.0189915
0.0188966
0.0189221
0.0189098
0.0189098
0.0189177
0.018916
0.0189177
0.018917
0.0189754
0.0189554
0.018916
0.0189097
0.0189149
0.0189181
0.0189155
0.0189144
0.0189149
0.0189672
0.0188875
0.0189211
0.0188986
0.0188962
0.0189677
0.0189101
0.0189109
0.0188806
0.0188585
0.0188585
0.0188843
0.0189232
0.01891
0.0189687
0.0188603
0.0188461
0.0188461
0.0189925
0.0188701
0.0188661
0.0189109
0.0188858
0.0189067
0.018902
0.0188959
0.0188936
0.018905
0.0189901
0.0189087
0.0188993
0.018895
0.0189807
0.0188691
0.0189717
0.0188954
0.0189017
0.0189284
0.0189072
0.0189053
0.0188798
0.0189041
0.0188799
0.0189097
0.0188949
0.0188676
0.018867
0.0189684
0.0189008
0.0189955
0.0189938
0.0189975
0.0188967
0.0189911
0.0189993
0.018918
0.0189965
0.0188759
0.018876
0.0189951
0.0189144
0.0189752
0.018996
0.0189769
0.0189963
0.0189769
0.0188696
0.0189717
0.0189907
0.0189953
0.0189057
0.0188917
0.0189783
0.0189055
0.0189987
0.0189026
0.0189139
0.018997
0.0189797
0.0189983
0.0189925
0.0189113
0.0188744
0.0188477
0.0188489
0.018901
0.0188479
0.018848
0.0188484
0.0188555
0.01897
0.0188682
0.0188837
0.0188743
0.0189021
0.0188536
0.0188537
0.0188727
0.0189935
0.0189147
0.0189924
0.0189732
0.0189725
0.0188614
0.0188616
0.0188622
0.018862
0.0188614
0.0188493
0.0188621
0.0188536
0.0188475
0.0188612
0.0188611
0.0188471
0.018849
0.0188533
0.0188627
SCALARS rr_(S) float
LOOKUP_TABLE default
0.900639
0.900644
0.900646
0.900642
0.900662
0.900646
0.900638
0.900648
0.900646
0.900647
0.900615
0.900648
0.900648
0.900648
0.900653
0.900647
0.900647
0.900645
0.900642
0.900644
0.900648
0.900676
0.900644
0.900645
0.900644
0.900645
0.90063
0.900646
0.900637
0.900665
0.900649
0.900636
0.900632
0.900662
0.900666
0.900662
0.900663
0.900666
0.900649
0.900633
0.900636
0.900663
0.900663
0.900648
0.900626
0.900638
0.900644
0.900647
0.900646
0.900634
0.900635
0.900641
0.900658
0.900642
0.900658
0.900637
0.900666
0.900642
0.900666
0.900644
0.900646
0.900653
0.900638
0.900655
0.900653
0.900651
0.900646
0.900646
0.900644
0.900644
0.900658
0.900658
0.900637
0.900653
0.900647
0.900628
0.900658
0.900651
0.900645
0.900638
0.900638
0.900664
0.900649
0.900635
0.900641
0.900632
0.900646
0.900653
0.900627
0.900675
0.900641
0.900675
0.900656
0.900651
0.900643
0.900634
0.90064
0.900646
0.900658
0.900648
0.900644
0.900643
0.900634
0.900644
0.900646
0.900645
0.90065
0.900648
0.900635
0.900641
0.900644
0.900629
0.900632
0.900644
0.900645
0.900643
0.900668
0.900641
0.900669
0.900643
0.900642
0.900651
0.900643
0.90065
0.900643
0.900653
0.900666
0.900646
0.90064
0.900642
0.900657
0.900643
0.900648
0.900642
0.900643
0.900666
0.90064
0.900649
0.900649
0.900665
0.900643
0.900651
0.900645
0.900646
0.900641
0.900645
0.90065
0.900648
0.900646
0.900642
0.900646
0.900643
0.900635
0.900649
0.900646
0.900642
0.900649
0.900644
0.900644
0.900645
0.900647
0.900636
0.90063
0.900634
0.900643
0.900646
0.900644
0.900644
0.900636
0.900643
0.900656
0.900642
0.900635
0.90065
0.900642
0.90065
0.900656
0.900649
0.90066
0.900648
0.900638
0.900646
0.900646
0.900642
0.900653
0.900635
0.90065
0.900653
0.900658
0.900646
0.900653
0.90064
0.900641
0.900636
0.900643
0.900644
0.900644
0.900648
0.900642
0.900652
0.900643
0.900644
0.900639
0.900648
0.900638
0.900649
0.900652
0.900641
0.900655
0.900643
0.900657
0.90065
0.900646
0.900649
0.900642
0.900651
0.90064
0.900653
0.900642
0.900642
0.90064
0.900641
0.900641
0.900641
0.900648
0.900652
0.900651
0.900651
0.900652
0.900659
0.900659
0.900641
0.900647
0.900638
0.900647
0.900653
0.900653
0.900639
0.900639
0.900638
0.900646
0.900643
0.900654
0.900643
0.90065
0.900637
0.900642
0.90064
0.900638
0.900632
0.900649
0.900641
0.900647
0.90064
0.900643
0.900638
0.900642
0.900665
0.900641
0.900643
0.900639
0.900638
0.900648
0.900639
0.900641
0.900645
0.900665
0.90064
0.900642
0.90065
0.900644
0.900653
0.900653
0.90066
0.900647
0.900633
0.900632
0.90066
0.900646
0.900648
0.900645
0.900654
0.90065
0.900639
0.900651
0.900645
0.90065
0.900645
0.900639
0.90067
0.900656
0.900651
0.900651
0.900647
0.900646
0.900661
0.90065
0.900647
0.900646
0.900645
0.900658
0.900642
0.900658
0.900646
0.900627
0.900645
0.900641
0.900652
0.900642
0.900669
0.900645
0.900651
0.900642
0.900651
0.900645
0.900648
0.900642
0.900644
0.900643
0.900656
0.900641
0.900646
0.900653
0.900643
0.900645
0.900646
0.900645
0.900654
0.900645
0.900649
0.900647
0.90066
0.900646
0.900645
0.900647
0.900646
0.900645
0.900645
0.900655
0.900648
0.900645
0.900642
0.90065
0.90065
0.900645
0.90066
0.900614
0.900649
0.900638
0.900647
0.900573
0.900574
0.900573
0.900572
0.900571
0.900577
0.900578
0.900653
0.900662
0.900645
0.900646
0.900643
0.900646
0.90065
0.900645
0.900645
0.900662
0.900645
0.900656
0.900641
0.90065
0.900646
0.900646
0.900646
0.900661
0.900649
0.900646
0.900648
0.900646
0.900643
0.900639
0.900645
0.900648
0.900656
0.900644
0.900642
0.900644
0.900645
0.900648
0.90065
0.900643
0.90065
0.900646
0.900645
0.900649
0.900646
0.900644
0.90065
0.900647
0.900661
0.900627
0.900653
0.900655
0.900648
0.900648
0.90065
0.900617
0.900646
0.900647
0.900641
0.900672
0.900673
0.900647
0.900643
0.900648
0.900644
0.900683
0.900682
0.900646
0.900649
0.900649
0.90062
0.900642
0.900651
0.900647
0.900647
0.900646
0.900613
0.900651
0.900643
0.900648
0.900648
0.900646
0.900646
0.900646
0.900647
0.900632
0.900641
0.900646
0.900649
0.900647
0.900646
0.900647
0.900648
0.900647
0.900629
0.900655
0.900643
0.90065
0.900651
0.900629
0.900646
0.900645
0.900661
0.900666
0.900665
0.900656
0.900643
0.900648
0.900628
0.900665
0.900677
0.900677
0.900613
0.900665
0.900664
0.900648
0.900657
0.900646
0.900646
0.900649
0.900653
0.90065
0.900615
0.900648
0.900651
0.900651
0.900628
0.900663
0.900644
0.900649
0.900649
0.900644
0.900647
0.90065
0.900657
0.900648
0.900657
0.900647
0.900652
0.900665
0.900666
0.90063
0.900647
0.900637
0.900641
0.900633
0.900652
0.900619
0.900631
0.900647
0.900634
0.900663
0.900663
0.900637
0.900644
0.900636
0.90064
0.900632
0.90064
0.900632
0.900666
0.900627
0.900619
0.900635
0.90065
0.900653
0.900631
0.900649
0.900629
0.900649
0.900645
0.900639
0.90063
0.900636
0.900612
0.900646
0.900663
0.900674
0.900673
0.900649
0.900674
0.900674
0.900674
0.90067
0.900628
0.900664
0.900658
0.900664
0.900649
0.900672
0.900671
0.900666
0.90061
0.900645
0.90062
0.900645
0.900639
0.900663
0.900663
0.900664
0.900664
0.900663
0.900675
0.900667
0.900673
0.900678
0.900666
0.900666
0.900679
0.900675
0.900672
0.900665
SCALARS rr_(P) float
LOOKUP_TABLE default
0.0217436
0.0216898
0.0216947
0.0216907
0.0216761
0.0216947
0.0217438
0.0216915
0.0216992
0.0216901
0.0217398
0.0216915
0.0216926
0.0216894
0.0216811
0.0216939
0.0216874
0.0216921
0.0217016
0.021696
0.0216968
0.0216571
0.0216967
0.0216959
0.0216961
0.0216912
0.0217325
0.021694
0.0217162
0.0216682
0.0216928
0.0217161
0.0217333
0.0216715
0.02167
0.0216716
0.0216676
0.0216707
0.0216929
0.0217332
0.0217163
0.0216674
0.0216674
0.0216928
0.0217281
0.0217155
0.0217005
0.0216983
0.0216945
0.0217195
0.0217176
0.0217108
0.0216768
0.0217107
0.0216773
0.0217266
0.0216699
0.0217106
0.0216699
0.0216957
0.0216875
0.0216831
0.0217292
0.0216834
0.021683
0.0216875
0.0216874
0.0216912
0.0216963
0.0216896
0.0216769
0.021677
0.0217164
0.0216858
0.0216945
0.0217356
0.0216802
0.0216875
0.0216912
0.0217095
0.0217206
0.0216744
0.0216853
0.0217221
0.0217147
0.0217276
0.021694
0.0216866
0.021728
0.0216597
0.0217107
0.0216598
0.0216798
0.021688
0.0217103
0.0217181
0.0217206
0.0216902
0.0216803
0.0216931
0.0217047
0.0217134
0.0217222
0.0216916
0.0216906
0.0216905
0.0216846
0.0216936
0.0217223
0.0216889
0.0216956
0.0217264
0.021724
0.0216919
0.0216908
0.0217105
0.0216699
0.0217208
0.0216701
0.0217103
0.0217027
0.0216817
0.0216898
0.0216864
0.0216885
0.0216806
0.0216718
0.0216902
0.0217206
0.0217102
0.0216769
0.0216902
0.0216855
0.02169
0.0217134
0.0216698
0.0217235
0.0216923
0.0216852
0.0216699
0.0217128
0.02169
0.021702
0.02169
0.021721
0.021691
0.0216907
0.0216946
0.0216947
0.0217063
0.0216984
0.0216898
0.0217162
0.0216926
0.0216901
0.0216901
0.0216886
0.0217123
0.0217121
0.0216926
0.0216982
0.0217158
0.0217268
0.0217176
0.0217123
0.0216905
0.0217123
0.0217124
0.0217162
0.0217122
0.0216797
0.0217106
0.0217177
0.0216881
0.0217105
0.0216848
0.0216797
0.0216915
0.0216767
0.0216904
0.0217162
0.0216902
0.0216903
0.0217127
0.0216865
0.021718
0.0216865
0.0216846
0.0216795
0.0216902
0.0216864
0.02172
0.0217105
0.0217161
0.02169
0.0216923
0.021692
0.0216856
0.0216899
0.0216877
0.0216898
0.0217009
0.0217092
0.0216857
0.0217161
0.0216853
0.0216875
0.0217137
0.0216824
0.0216897
0.0216819
0.0216891
0.0216908
0.0216852
0.0217061
0.0216887
0.0217086
0.0216846
0.0216886
0.0216887
0.0216892
0.021689
0.021689
0.0216891
0.0216897
0.0216815
0.0216816
0.0216814
0.0216814
0.0216772
0.0216771
0.0217065
0.0216895
0.0216911
0.0216986
0.0216811
0.0216809
0.021691
0.021709
0.0216913
0.0216901
0.0217059
0.0216823
0.0217061
0.0216851
0.0216915
0.0217058
0.0217084
0.0217208
0.0217203
0.0216852
0.0217218
0.0216932
0.0217087
0.0217012
0.0216914
0.0216888
0.0216671
0.0216889
0.0217222
0.0217086
0.0216912
0.0216915
0.0217093
0.0216888
0.0217017
0.0216672
0.0217085
0.0216885
0.0216868
0.021692
0.0216812
0.0216867
0.0216769
0.0216927
0.0217257
0.0217276
0.0216784
0.0216966
0.0216915
0.0217061
0.0216822
0.0216882
0.0217086
0.021688
0.0217045
0.0216905
0.0217045
0.0217089
0.0216629
0.0216792
0.0216809
0.021681
0.0216897
0.0217041
0.0216721
0.021687
0.021698
0.0217039
0.0217056
0.0216784
0.0217059
0.0216798
0.0217051
0.021728
0.0217042
0.0217213
0.0216845
0.0217059
0.021663
0.021705
0.0216857
0.0217065
0.0216862
0.0217051
0.0216941
0.0217301
0.0216951
0.021706
0.0216786
0.0217063
0.021698
0.0216862
0.0216896
0.0217051
0.0217042
0.0217018
0.0216846
0.0217042
0.0216915
0.021694
0.021677
0.0217042
0.0217021
0.0216972
0.0217016
0.0217047
0.0217014
0.0216829
0.0216917
0.0217019
0.0217061
0.0216901
0.02169
0.0217044
0.0216771
0.0217417
0.0216942
0.0217207
0.021697
0.0217698
0.0217697
0.0217694
0.0217695
0.0217693
0.0217699
0.0217697
0.0216843
0.0216736
0.0216924
0.0216982
0.0217013
0.0217016
0.0216905
0.0217019
0.0217022
0.0216735
0.0217016
0.0216821
0.0217107
0.0216823
0.0216949
0.0216984
0.0217018
0.0216783
0.0216942
0.021698
0.0216942
0.0216979
0.021702
0.0217097
0.0216983
0.0216947
0.0216819
0.0217008
0.0217025
0.021701
0.0216987
0.0216949
0.0216904
0.021701
0.0216905
0.0216953
0.0216985
0.0216914
0.0216952
0.0217017
0.0216863
0.0216975
0.0216741
0.0217279
0.0216843
0.0216829
0.0216948
0.0216974
0.0216876
0.0217411
0.0216948
0.0216976
0.0217298
0.0216633
0.0216632
0.0216942
0.0217013
0.021697
0.0217008
0.021655
0.021655
0.0216913
0.0216913
0.0216916
0.0217413
0.0217021
0.0216855
0.0216986
0.0216991
0.0216986
0.021742
0.0216865
0.0217016
0.0216944
0.0216944
0.0216991
0.0216981
0.0216991
0.0216987
0.0217328
0.0217212
0.0216981
0.0216943
0.0216975
0.0216993
0.0216978
0.0216971
0.0216974
0.0217279
0.0216811
0.021701
0.0216877
0.0216863
0.0217283
0.0216946
0.0216951
0.021677
0.0216636
0.0216636
0.0216791
0.0217023
0.0216945
0.0217288
0.0216646
0.0216562
0.0216563
0.0217426
0.0216707
0.0216682
0.0216951
0.0216801
0.0216925
0.0216897
0.0216861
0.0216848
0.0216915
0.0217412
0.0216938
0.0216882
0.0216856
0.0217359
0.02167
0.0217308
0.0216858
0.0216896
0.0217053
0.0216929
0.0216918
0.0216764
0.021691
0.0216765
0.0216943
0.0216856
0.0216691
0.0216687
0.0217287
0.021689
0.0217446
0.0217437
0.0217457
0.0216866
0.0217419
0.0217468
0.0216993
0.0217452
0.0216742
0.0216743
0.0217444
0.0216971
0.0217327
0.0217449
0.0217337
0.0217451
0.0217337
0.0216704
0.0217306
0.0217417
0.0217445
0.021692
0.0216836
0.0217345
0.0216919
0.0217464
0.0216901
0.0216968
0.0217455
0.0217353
0.0217463
0.0217426
0.0216953
0.0216733
0.0216571
0.0216578
0.0216892
0.0216573
0.0216573
0.0216576
0.0216618
0.0217296
0.0216695
0.0216788
0.0216732
0.0216898
0.0216607
0.0216607
0.0216723
0.0217432
0.0216973
0.0217426
0.0217316
0.0217312
0.0216653
0.0216654
0.0216658
0.0216657
0.0216653
0.0216581
0.0216657
0.0216606
0.021657
0.0216652
0.0216651
0.0216568
0.0216579
0.0216605
0.0216661
SCALARS rr_(T) float
LOOKUP_TABLE default
0.0861301
0.0861588
0.0861561
0.086158
0.0861699
0.0861561
0.08613
0.0861581
0.0861535
0.0861588
0.0861306
0.0861582
0.0861574
0.0861595
0.0861657
0.0861565
0.0861608
0.0861575
0.086152
0.0861552
0.086155
0.0861856
0.0861549
0.0861553
0.0861552
0.0861582
0.0861352
0.0861567
0.0861439
0.0861762
0.0861573
0.086144
0.0861349
0.0861736
0.0861748
0.0861736
0.0861767
0.0861742
0.0861573
0.086135
0.0861439
0.0861768
0.0861768
0.0861572
0.0861373
0.0861444
0.0861527
0.086154
0.0861563
0.086142
0.0861432
0.086147
0.0861692
0.0861471
0.0861689
0.0861386
0.0861749
0.0861471
0.0861748
0.0861554
0.0861606
0.0861641
0.0861374
0.086164
0.0861641
0.0861612
0.0861607
0.0861582
0.086155
0.0861589
0.0861691
0.0861691
0.0861438
0.0861625
0.0861561
0.0861335
0.0861666
0.0861611
0.0861582
0.0861475
0.0861417
0.0861712
0.0861624
0.0861408
0.086145
0.0861378
0.0861566
0.0861619
0.0861373
0.0861837
0.086147
0.0861837
0.0861669
0.0861609
0.0861473
0.0861428
0.0861418
0.0861586
0.0861665
0.0861571
0.0861504
0.0861456
0.0861407
0.0861577
0.0861586
0.0861584
0.0861631
0.0861569
0.0861407
0.0861593
0.0861555
0.0861382
0.0861396
0.0861576
0.0861582
0.0861472
0.086175
0.0861417
0.0861749
0.0861473
0.0861514
0.0861651
0.0861587
0.0861616
0.0861596
0.0861662
0.0861734
0.0861586
0.0861418
0.0861473
0.0861692
0.0861585
0.0861621
0.0861586
0.0861457
0.086175
0.0861403
0.0861578
0.0861624
0.0861749
0.086146
0.0861594
0.086152
0.086159
0.0861416
0.0861581
0.086159
0.0861565
0.086156
0.0861495
0.086154
0.0861587
0.0861439
0.0861574
0.0861589
0.0861585
0.0861601
0.0861463
0.0861464
0.0861571
0.086154
0.0861441
0.0861381
0.0861431
0.0861463
0.0861584
0.0861463
0.0861463
0.0861439
0.0861463
0.086167
0.0861471
0.0861431
0.0861604
0.0861471
0.086163
0.0861669
0.0861584
0.0861693
0.0861589
0.086144
0.0861585
0.0861586
0.086146
0.0861619
0.0861429
0.0861615
0.0861632
0.0861672
0.0861586
0.086162
0.0861421
0.0861472
0.0861439
0.0861586
0.0861573
0.0861575
0.0861621
0.0861587
0.086161
0.0861588
0.0861524
0.0861477
0.0861621
0.086144
0.0861623
0.0861612
0.0861455
0.086165
0.0861588
0.0861653
0.08616
0.0861585
0.0861624
0.0861496
0.0861604
0.0861481
0.0861632
0.0861595
0.0861595
0.0861589
0.0861591
0.0861592
0.0861591
0.0861593
0.0861653
0.0861652
0.0861653
0.0861653
0.0861691
0.0861691
0.0861493
0.0861593
0.0861575
0.0861538
0.0861657
0.0861658
0.0861576
0.0861478
0.0861573
0.0861586
0.0861497
0.086165
0.0861496
0.0861626
0.0861571
0.0861497
0.0861482
0.0861417
0.0861416
0.0861624
0.0861412
0.0861569
0.086148
0.0861523
0.0861572
0.0861594
0.0861772
0.0861592
0.0861411
0.0861481
0.0861574
0.0861583
0.0861477
0.0861593
0.0861522
0.0861771
0.0861481
0.0861596
0.0861614
0.0861575
0.0861656
0.0861618
0.0861693
0.0861572
0.0861389
0.0861377
0.0861682
0.0861549
0.0861583
0.0861496
0.0861651
0.0861603
0.0861481
0.0861609
0.0861505
0.0861592
0.0861505
0.0861479
0.0861808
0.0861674
0.0861658
0.0861657
0.0861592
0.0861508
0.0861731
0.0861612
0.0861542
0.0861509
0.0861499
0.0861681
0.0861496
0.086167
0.0861502
0.0861373
0.0861507
0.0861415
0.0861634
0.0861497
0.0861807
0.0861502
0.0861624
0.0861493
0.0861618
0.0861501
0.0861565
0.0861371
0.0861557
0.0861496
0.0861679
0.0861494
0.0861543
0.086162
0.0861589
0.0861502
0.0861507
0.0861521
0.0861633
0.0861507
0.0861582
0.0861567
0.0861692
0.0861507
0.0861519
0.0861548
0.0861522
0.0861504
0.0861523
0.0861647
0.0861581
0.086152
0.0861496
0.0861593
0.0861593
0.0861506
0.0861691
0.0861296
0.0861567
0.0861417
0.0861549
0.0861127
0.0861128
0.0861129
0.0861129
0.0861129
0.0861128
0.086113
0.0861635
0.086172
0.0861574
0.0861542
0.0861522
0.0861522
0.0861591
0.086152
0.0861518
0.0861721
0.0861522
0.0861652
0.086147
0.0861645
0.0861561
0.0861541
0.0861521
0.0861683
0.0861567
0.0861543
0.0861567
0.0861543
0.0861517
0.0861475
0.0861541
0.0861564
0.0861652
0.0861526
0.0861515
0.0861524
0.0861538
0.0861562
0.0861592
0.0861524
0.0861591
0.0861558
0.086154
0.0861584
0.0861558
0.086152
0.0861617
0.0861546
0.0861715
0.0861374
0.0861634
0.0861647
0.0861563
0.0861546
0.086161
0.08613
0.0861561
0.0861545
0.0861373
0.0861806
0.0861808
0.0861566
0.0861522
0.0861549
0.0861526
0.0861878
0.0861877
0.086158
0.0861584
0.0861584
0.0861301
0.0861517
0.0861623
0.0861538
0.0861536
0.0861539
0.0861294
0.0861619
0.086152
0.0861565
0.0861565
0.0861535
0.0861542
0.0861535
0.0861538
0.0861351
0.0861415
0.0861542
0.0861567
0.0861545
0.0861534
0.0861543
0.0861548
0.0861546
0.0861374
0.086166
0.0861524
0.0861609
0.086162
0.0861373
0.0861561
0.0861557
0.0861692
0.0861801
0.0861801
0.0861675
0.0861516
0.0861565
0.0861369
0.0861792
0.0861864
0.0861863
0.086129
0.0861742
0.0861763
0.0861561
0.0861667
0.0861572
0.086159
0.0861618
0.0861632
0.0861584
0.0861299
0.0861567
0.0861606
0.0861622
0.0861333
0.0861749
0.0861369
0.0861619
0.0861594
0.08615
0.086157
0.0861582
0.0861696
0.0861585
0.0861695
0.0861563
0.0861625
0.0861757
0.086176
0.0861371
0.0861597
0.0861296
0.0861303
0.0861288
0.0861618
0.0861298
0.0861281
0.0861534
0.0861292
0.0861713
0.0861713
0.0861298
0.0861545
0.0861354
0.0861296
0.0861347
0.0861294
0.0861347
0.0861745
0.086136
0.0861299
0.0861296
0.0861581
0.0861639
0.0861342
0.0861582
0.0861282
0.0861592
0.0861548
0.0861292
0.0861337
0.0861287
0.086129
0.0861559
0.0861721
0.0861855
0.086185
0.0861599
0.0861854
0.0861854
0.0861852
0.0861817
0.0861365
0.0861753
0.0861678
0.0861723
0.0861594
0.0861827
0.0861827
0.0861731
0.0861286
0.0861545
0.0861294
0.0861365
0.0861365
0.0861786
0.0861785
0.0861782
0.0861783
0.0861785
0.0861849
0.0861784
0.0861828
0.0861859
0.0861789
0.0861789
0.086186
0.0861849
0.0861829
0.0861781
SCALARS rr_tsim float
LOOKUP_TABLE default
200
200
200
200
200
200
200
200
200
200
200
200
200
200
200
200
200
200
200
200
200
200
200
200
200
200
200
200
200
200
200
200
200
200
200
200
200
200
200
200
200
200
200
200
200
200
200
200
200
200
200
200
200
200
200
200
200
200
200
200
200
200
200
200
200
200
200
200
200
200
200
200
200
200
200
200
200
200
200
200
200
200
200
200
200
200
200
200
200
200
200
200
200
200
200
200
200
200
200
200
200
200
200
200
200
200
200
200
200
200
200
200
200
200
200
200
200
200
200
200
200
200
200
200
200
200
200
200
200
200
200
200
200
200
200
200
200
200
200
200
200
200
200
200
200
200
200
200
200
200
200
200
200
200
200
200
200
200
200
200
200
200
200
200
200
200
200
200
200
200
200
200
200
200
200
200
200
200
200
200
200
200
200
200
200
200
200
200
200
200
200
200
200
200
200
200
200
200
200
200
200
200
200
200
200
200
200
200
200
200
200
200
200
200
200
200
200
200
200
200
200
200
200
200
200
200
200
200
200
200
200
200
200
200
200
200
200
200
200
200
200
200
200
200
200
200
200
200
200
200
200
200
200
200
200
200
200
200
200
200
200
200
200
200
200
200
200
200
200
200
200
200
200
200
200
200
200
200
200
200
200
200
200
200
200
200
200
200
200
200
200
200
200
200
200
200
200
200
200
200
200
200
200
200
200
200
200
200
200
200
200
200
200
200
200
200
200
200
200
200
200
200
200
200
200
200
200
200
200
200
200
200
200
200
200
200
200
200
200
200
200
200
200
200
200
200
200
200
200
200
200
200
200
200
200
200
200
200
200
200
200
200
200
200
200
200
200
200
200
200
200
200
200
200
200
200
200
200
200
200
200
200
200
200
200
200
200
200
200
200
200
200
200
200
200
200
200
200
200
200
200
200
200
200
200
200
200
200
200
200
200
200
200
200
200
200
200
200
200
200
200
200
200
200
200
200
200
200
200
200
200
200
200
200
200
200
200
200
200
200
200
200
200
200
200
200
200
200
200
200
200
200
200
200
200
200
200
200
200
200
200
200
200
200
200
200
200
200
200
200
200
200
200
200
200
200
200
200
200
200
200
200
200
200
200
200
200
200
200
200
200
200
200
200
200
200
200
200
200
200
200
200
200
200
200
200
200
200
200
200
200
200
200
200
200
200
200
200
200
200
200
200
200
200
200
200
200
200
200
200
200
200
200
200
200
200
200
200
200
200
200
200
200
200
200
200
200
200
200
200
200
200
200
200
200
200
200
200
200
200
200
200
200
SCALARS rr_Vext float
LOOKUP_TABLE default
0.181359
0.449126
0.356051
0.468112
0.250493
0.37783
0.179275
0.465092
0.395109
0.504568
0.16539
0.466511
0.409828
0.435016
0.516137
0.424867
0.369046
0.414186
0.365533
0.360529
0.405111
0.0765108
0.415072
0.383016
0.347107
0.403474
0.155011
0.352836
0.267414
0.339247
0.361971
0.276486
0.171521
0.252902
0.249248
0.253453
0.330127
0.249491
0.361542
0.192837
0.224722
0.291051
0.291061
0.397274
0.216886
0.244121
0.344614
0.350186
0.330081
0.303762
0.312855
0.245238
0.401519
0.315208
0.369416
0.157754
0.266179
0.317518
0.266151
0.393187
0.470932
0.464875
0.153276
0.327643
0.445316
0.417376
0.455657
0.391907
0.357988
0.515559
0.435556
0.430792
0.277655
0.338746
0.353974
0.176427
0.372677
0.413479
0.395171
0.271134
0.240491
0.283508
0.527534
0.240251
0.327762
0.119292
0.407582
0.344611
0.229707
0.0374829
0.273094
0.0407608
0.316359
0.299314
0.25866
0.232984
0.220909
0.442933
0.372912
0.351857
0.293537
0.277771
0.230479
0.418578
0.42614
0.383834
0.340628
0.34085
0.24463
0.512521
0.326028
0.164039
0.220057
0.457881
0.42972
0.304483
0.308632
0.183509
0.320036
0.303367
0.266987
0.502651
0.511813
0.442042
0.484528
0.384953
0.220816
0.478212
0.200079
0.26228
0.227504
0.456397
0.449026
0.448251
0.288938
0.187538
0.190639
0.327441
0.40447
0.18746
0.241543
0.387291
0.287971
0.47276
0.223276
0.385191
0.349733
0.336129
0.21479
0.269547
0.3043
0.440628
0.248028
0.397413
0.461992
0.469245
0.307857
0.249009
0.247658
0.401138
0.333854
0.246118
0.160077
0.239705
0.240468
0.430957
0.25235
0.255102
0.274621
0.24594
0.386345
0.258184
0.22606
0.297715
0.272813
0.340308
0.382119
0.361134
0.313978
0.360847
0.266568
0.418248
0.448854
0.241615
0.442302
0.239441
0.436797
0.402739
0.378967
0.379416
0.446229
0.200775
0.266929
0.246018
0.447412
0.439023
0.407201
0.447896
0.452954
0.381866
0.466571
0.307717
0.274111
0.512733
0.285548
0.465956
0.369963
0.226656
0.286343
0.461727
0.389036
0.350309
0.450058
0.445257
0.27886
0.284222
0.267544
0.395454
0.433421
0.498094
0.478091
0.520373
0.47156
0.515289
0.432057
0.457203
0.460652
0.434356
0.456359
0.42292
0.416636
0.282412
0.389412
0.454297
0.312122
0.470274
0.432157
0.492662
0.288247
0.468279
0.448679
0.284501
0.406915
0.28247
0.45524
0.411291
0.296256
0.277679
0.235553
0.271098
0.455775
0.197502
0.347022
0.276529
0.313904
0.468673
0.45555
0.147789
0.457106
0.236432
0.261765
0.466272
0.379029
0.264586
0.522184
0.291232
0.14778
0.267725
0.4064
0.508924
0.382691
0.457756
0.425157
0.226615
0.216732
0.175979
0.201429
0.308135
0.229076
0.371983
0.227525
0.406393
0.287624
0.268102
0.323954
0.293523
0.398523
0.281488
0.287597
0.13637
0.303572
0.437811
0.438059
0.391526
0.281117
0.192359
0.54588
0.36049
0.298319
0.274292
0.284977
0.28273
0.358844
0.278092
0.19206
0.274793
0.183496
0.351068
0.279577
0.127091
0.263723
0.321339
0.279316
0.443671
0.290711
0.381469
0.138315
0.305663
0.287015
0.261625
0.269319
0.321993
0.308723
0.321047
0.266565
0.271165
0.29386
0.403603
0.276096
0.399024
0.358789
0.290797
0.286475
0.290124
0.323374
0.289913
0.270118
0.30853
0.33303
0.387867
0.29017
0.286354
0.425144
0.41925
0.276213
0.290836
0.117369
0.342064
0.227679
0.319681
0.126304
0.131123
0.117233
0.11913
0.126411
0.133076
0.137186
0.365819
0.275203
0.269664
0.305535
0.296208
0.292409
0.31471
0.285994
0.292388
0.310824
0.291315
0.368789
0.261064
0.378834
0.289104
0.277579
0.291597
0.322766
0.328994
0.304697
0.35105
0.326032
0.30039
0.213976
0.30386
0.298863
0.328281
0.305309
0.288519
0.275036
0.304064
0.319092
0.436162
0.283307
0.424002
0.43866
0.298865
0.422864
0.322476
0.255678
0.356794
0.307318
0.229505
0.185271
0.353349
0.377139
0.313433
0.259543
0.317013
0.138204
0.309864
0.289513
0.140569
0.0597486
0.0653754
0.268652
0.283295
0.331357
0.316587
0.0311309
0.0325286
0.31818
0.321543
0.304242
0.103724
0.264727
0.315904
0.315642
0.272076
0.240282
0.107863
0.464467
0.284946
0.352161
0.357672
0.255163
0.323446
0.249476
0.27548
0.129739
0.199381
0.323806
0.32775
0.280325
0.293563
0.303658
0.320505
0.306409
0.143961
0.275779
0.301353
0.290884
0.437488
0.143858
0.233732
0.240572
0.234523
0.155625
0.155629
0.267699
0.208507
0.301873
0.153856
0.185526
0.0614167
0.0614142
0.11231
0.199633
0.134971
0.257
0.284538
0.297807
0.337
0.307418
0.285232
0.222216
0.127171
0.27805
0.290581
0.282438
0.14413
0.147645
0.104629
0.281948
0.285971
0.224181
0.25825
0.238712
0.223791
0.292911
0.223757
0.257204
0.251386
0.158046
0.19524
0.165308
0.310646
0.112706
0.118918
0.115939
0.294533
0.10769
0.104733
0.200916
0.0979321
0.243155
0.243509
0.100659
0.255445
0.113722
0.110989
0.127155
0.105858
0.105723
0.174205
0.126241
0.112775
0.106277
0.23581
0.272658
0.118744
0.260316
0.0960767
0.264788
0.208172
0.100551
0.0864351
0.0948697
0.126461
0.225551
0.192179
0.0824425
0.0914073
0.253856
0.0775859
0.0775826
0.0878717
0.097962
0.0995851
0.127334
0.207532
0.193794
0.253768
0.0775243
0.077521
0.229252
0.0843467
0.178714
0.076519
0.0783415
0.103271
0.198596
0.205596
0.218906
0.200659
0.19858
0.0438924
0.320381
0.0557537
0.0543418
0.259008
0.257238
0.0563345
0.0390572
0.0548045
0.23856
SCALARS rr_Vli float
LOOKUP_TABLE default
0.396487
0.903298
0.721404
0.942903
0.493003
0.765665
0.392034
0.937671
0.806267
1.01512
0.359835
0.940543
0.827702
0.874155
1.02412
0.859729
0.739395
0.835916
0.748797
0.732054
0.823481
0.146196
0.843738
0.777626
0.704888
0.81314
0.333349
0.714257
0.560608
0.659801
0.731225
0.579528
0.369272
0.494392
0.485904
0.495507
0.641457
0.486896
0.730482
0.415065
0.47121
0.56533
0.56539
0.802515
0.463323
0.511147
0.704662
0.713572
0.668681
0.640142
0.657315
0.509709
0.791282
0.654954
0.728499
0.336094
0.518808
0.659756
0.518791
0.798046
0.943865
0.92503
0.32784
0.652218
0.88601
0.836196
0.913
0.789774
0.72729
1.03671
0.858507
0.849152
0.58221
0.676852
0.716969
0.381182
0.738159
0.828439
0.796422
0.56248
0.507623
0.556448
1.05351
0.508332
0.685384
0.254579
0.825076
0.689487
0.490661
0.0719434
0.567529
0.0782461
0.62635
0.600259
0.537108
0.489902
0.466217
0.891214
0.738707
0.711149
0.604217
0.579673
0.48775
0.844111
0.858081
0.772714
0.679547
0.68938
0.517759
1.02965
0.661678
0.349478
0.467059
0.923821
0.865436
0.632492
0.601613
0.387411
0.624002
0.629991
0.54796
0.998312
1.02947
0.884278
0.972857
0.763253
0.43175
0.962237
0.422253
0.544646
0.448453
0.91848
0.897111
0.901823
0.602899
0.365537
0.404182
0.660932
0.807733
0.365414
0.503538
0.778934
0.590241
0.95106
0.471531
0.776065
0.704323
0.680955
0.435247
0.556268
0.620247
0.886308
0.519982
0.802497
0.929442
0.944262
0.617854
0.518657
0.515713
0.810197
0.680206
0.51566
0.341239
0.503638
0.500928
0.867515
0.525645
0.531443
0.575696
0.512236
0.764768
0.536474
0.475015
0.597026
0.566759
0.679101
0.756452
0.728159
0.618512
0.726373
0.55876
0.841636
0.903305
0.503622
0.884783
0.503409
0.873807
0.803284
0.749916
0.76339
0.892542
0.423344
0.55457
0.515691
0.90021
0.886301
0.821712
0.894905
0.911197
0.765271
0.938417
0.629674
0.568293
1.02454
0.598471
0.930553
0.741278
0.473241
0.569199
0.928574
0.772728
0.703606
0.906436
0.889138
0.575329
0.570472
0.5542
0.788783
0.870378
1.00028
0.961016
1.04558
0.947452
1.03539
0.868713
0.907698
0.91477
0.862345
0.905933
0.833931
0.821517
0.583004
0.782795
0.915908
0.636239
0.933122
0.85721
0.993025
0.597476
0.94437
0.902756
0.586736
0.808802
0.582775
0.908856
0.829726
0.610881
0.574981
0.497306
0.572062
0.910102
0.417614
0.701482
0.572846
0.642713
0.945258
0.914968
0.286927
0.918295
0.500197
0.542259
0.940101
0.764201
0.548649
1.04888
0.596676
0.286928
0.554501
0.815978
1.01856
0.772234
0.908467
0.850824
0.446601
0.437753
0.374434
0.429884
0.608684
0.46556
0.749993
0.469385
0.807669
0.576818
0.555341
0.649548
0.603996
0.802278
0.579179
0.59602
0.263019
0.600443
0.868511
0.86913
0.787209
0.578063
0.376388
1.09285
0.734301
0.613259
0.565367
0.562958
0.583124
0.71046
0.572677
0.410196
0.565167
0.387692
0.700126
0.5766
0.245149
0.543077
0.642114
0.57662
0.887241
0.598798
0.772174
0.296223
0.619804
0.592063
0.517041
0.555817
0.65588
0.617315
0.64555
0.549011
0.557648
0.602197
0.804987
0.567871
0.804507
0.726243
0.573155
0.589128
0.594777
0.657843
0.593795
0.555995
0.631808
0.662547
0.782181
0.594652
0.59081
0.855288
0.843309
0.568301
0.573278
0.256088
0.692602
0.480628
0.650104
0.287607
0.29855
0.266803
0.271172
0.287683
0.303056
0.312311
0.729344
0.539724
0.544566
0.622604
0.606501
0.598933
0.63352
0.586132
0.599484
0.60947
0.596713
0.732659
0.542546
0.753108
0.586004
0.565699
0.597466
0.637467
0.666113
0.620593
0.710716
0.663997
0.615743
0.44404
0.619298
0.605572
0.652005
0.624637
0.591869
0.562872
0.620018
0.646722
0.877918
0.579858
0.853549
0.88974
0.609278
0.852429
0.65393
0.523841
0.713544
0.625425
0.450401
0.395665
0.704469
0.750314
0.635201
0.528049
0.635253
0.301236
0.628022
0.589266
0.300912
0.115298
0.126126
0.544005
0.580098
0.673737
0.647662
0.0592774
0.0619389
0.641397
0.648088
0.613482
0.226113
0.542805
0.631012
0.643417
0.555015
0.489878
0.235469
0.929284
0.583734
0.713233
0.724383
0.520583
0.658848
0.50899
0.561648
0.279102
0.421177
0.659633
0.663709
0.570434
0.599125
0.618257
0.651893
0.623523
0.307428
0.547097
0.616832
0.583016
0.874902
0.307368
0.473534
0.487754
0.462241
0.300515
0.300536
0.529554
0.427593
0.611537
0.329006
0.358876
0.117176
0.117176
0.245398
0.38962
0.262494
0.521051
0.56354
0.601412
0.677647
0.614657
0.56907
0.448037
0.277251
0.562547
0.582801
0.564248
0.311557
0.287924
0.224284
0.563452
0.57485
0.461943
0.521748
0.481454
0.440837
0.590095
0.440798
0.520822
0.502148
0.307811
0.380028
0.353394
0.623982
0.246786
0.25998
0.254334
0.589284
0.234981
0.230138
0.41001
0.214644
0.477121
0.477843
0.220334
0.519611
0.244574
0.243122
0.273901
0.231958
0.227739
0.33983
0.270697
0.245997
0.232678
0.475749
0.543003
0.256116
0.525108
0.211012
0.53269
0.42322
0.220454
0.186663
0.208255
0.276319
0.457467
0.376608
0.157552
0.174883
0.509987
0.148307
0.148306
0.168049
0.188629
0.213206
0.248113
0.410274
0.379761
0.510341
0.149004
0.149003
0.448512
0.184462
0.36361
0.167149
0.16815
0.221554
0.384549
0.398195
0.424214
0.388779
0.38454
0.0840103
0.620732
0.107163
0.103829
0.501445
0.497965
0.107596
0.0747329
0.105301
0.462543
SCALARS rr_S_ext' float
LOOKUP_TABLE default
-0.0005671
-0.00129457
-0.00103372
-0.00135128
-0.000706897
-0.00109714
-0.000560727
-0.00134377
-0.00115514
-0.00145481
-0.000514724
-0.00134788
-0.00118612
-0.00125283
-0.00146817
-0.00123197
-0.00105976
-0.00119791
-0.0010727
-0.00104893
-0.0011799
-0.000209755
-0.00120892
-0.00111423
-0.00101
-0.00116531
-0.000476983
-0.0010235
-0.000802667
-0.000946293
-0.00104787
-0.000829758
-0.000528371
-0.000708986
-0.000696861
-0.000710583
-0.000920001
-0.000698268
-0.0010468
-0.000593897
-0.000674664
-0.000810823
-0.000810908
-0.00115003
-0.000663065
-0.000731873
-0.00100952
-0.00102237
-0.000958175
-0.000916424
-0.000941077
-0.000729942
-0.00113455
-0.000937953
-0.00104451
-0.000481025
-0.000744053
-0.000944828
-0.000744028
-0.00114349
-0.00135281
-0.00132604
-0.000469167
-0.000934954
-0.00127011
-0.00119851
-0.00130858
-0.00113182
-0.00104209
-0.00148576
-0.00123093
-0.00121752
-0.000833592
-0.000970185
-0.00102737
-0.000545363
-0.00105827
-0.00118739
-0.00114135
-0.000805547
-0.000726686
-0.000797918
-0.00151008
-0.000727657
-0.000981381
-0.000364342
-0.0011823
-0.000988267
-0.000702191
-0.000103211
-0.000812748
-0.000112252
-0.000897977
-0.000860326
-0.000769199
-0.000701377
-0.000667415
-0.00127724
-0.00105905
-0.00101908
-0.000865484
-0.000830059
-0.000698189
-0.00120967
-0.00122974
-0.0011074
-0.000974075
-0.000987872
-0.000741145
-0.00147567
-0.000948097
-0.000500177
-0.000668522
-0.00132389
-0.00124027
-0.000905792
-0.000862807
-0.000554597
-0.000894911
-0.000902216
-0.000784952
-0.00143114
-0.00147539
-0.00126747
-0.0013943
-0.00109421
-0.000619155
-0.00137902
-0.000604478
-0.000779992
-0.00064299
-0.0013163
-0.00128589
-0.00129244
-0.000863321
-0.000524237
-0.000578544
-0.000947151
-0.00115779
-0.000524059
-0.000721056
-0.00111634
-0.000845548
-0.00136301
-0.000675013
-0.00111218
-0.00100938
-0.000975762
-0.000623675
-0.000796752
-0.000888647
-0.00127021
-0.000744496
-0.00115001
-0.00133203
-0.00135326
-0.000885529
-0.000742722
-0.000738511
-0.00116103
-0.000974564
-0.000738319
-0.000488378
-0.000721057
-0.00071733
-0.00124326
-0.000752728
-0.000761029
-0.000824269
-0.000733527
-0.00109642
-0.000768277
-0.000680077
-0.000855693
-0.000811652
-0.00097343
-0.0010845
-0.00104351
-0.000886839
-0.00104099
-0.000800024
-0.00120619
-0.00129456
-0.000721178
-0.0012682
-0.000720718
-0.00125246
-0.00115145
-0.00107514
-0.00109405
-0.00127932
-0.000606054
-0.000794194
-0.000738356
-0.00129013
-0.0012701
-0.00117755
-0.00128273
-0.00130588
-0.00109685
-0.00134489
-0.000902072
-0.000813885
-0.00146854
-0.000856885
-0.00133384
-0.00106247
-0.000677644
-0.000815969
-0.00133079
-0.00110776
-0.00100842
-0.00129903
-0.00127448
-0.000824058
-0.00081762
-0.00079372
-0.00113067
-0.00124742
-0.0014336
-0.00137729
-0.00149851
-0.00135787
-0.00148389
-0.00124501
-0.00130125
-0.00131138
-0.00123623
-0.00129872
-0.00119568
-0.00117788
-0.00083504
-0.00112188
-0.00131255
-0.000911561
-0.00133771
-0.00122889
-0.00142307
-0.000855684
-0.00135333
-0.00129378
-0.000840406
-0.00115945
-0.000834724
-0.00130275
-0.00118903
-0.000874992
-0.000823489
-0.000711912
-0.000818932
-0.00130453
-0.000597811
-0.00100523
-0.000820423
-0.000920736
-0.0013546
-0.00131132
-0.00041153
-0.00131608
-0.00071602
-0.000776615
-0.00134722
-0.00109517
-0.000785749
-0.00150324
-0.000854775
-0.00041153
-0.000794152
-0.00116946
-0.00145992
-0.00110665
-0.00130236
-0.00121951
-0.000640342
-0.000627312
-0.000535913
-0.000615229
-0.000872694
-0.000667068
-0.00107481
-0.000672315
-0.00115783
-0.00082673
-0.000795352
-0.000930975
-0.000865174
-0.00114977
-0.000829629
-0.000853603
-0.000377293
-0.000860852
-0.00124509
-0.00124597
-0.00112821
-0.000828043
-0.00053975
-0.0015664
-0.00105207
-0.000878464
-0.000809811
-0.000807135
-0.000835231
-0.00101856
-0.000820301
-0.000587039
-0.000809565
-0.000554987
-0.00100359
-0.000825886
-0.000351657
-0.000777901
-0.000920386
-0.000825896
-0.00127172
-0.00085771
-0.00110649
-0.000423909
-0.000888115
-0.000848031
-0.000741292
-0.000796105
-0.000939713
-0.000884831
-0.000925177
-0.000786397
-0.000798797
-0.00086268
-0.00115389
-0.000813438
-0.00115293
-0.00104068
-0.000821797
-0.000843892
-0.000852042
-0.000942556
-0.000850656
-0.000796412
-0.000905115
-0.00094977
-0.00112093
-0.000851871
-0.000846231
-0.00122576
-0.0012086
-0.000814046
-0.000821972
-0.000366293
-0.000992465
-0.000688039
-0.000931475
-0.000410906
-0.000426543
-0.000381189
-0.000387429
-0.000411019
-0.00043298
-0.000446207
-0.00104547
-0.000773941
-0.000780378
-0.000892029
-0.00086886
-0.000858016
-0.000907922
-0.000839663
-0.000858784
-0.000873957
-0.000854833
-0.00105031
-0.000776969
-0.0010796
-0.000839692
-0.000810499
-0.000855906
-0.000913966
-0.00095451
-0.000889159
-0.00101842
-0.000951348
-0.000882078
-0.00063592
-0.000887288
-0.000867742
-0.000934694
-0.000894858
-0.000847861
-0.000806369
-0.000888311
-0.0009267
-0.00125818
-0.0008307
-0.00122325
-0.0012749
-0.000872927
-0.00122161
-0.000937014
-0.000750433
-0.00102275
-0.0008961
-0.000645848
-0.000566245
-0.00100982
-0.00107558
-0.000910194
-0.000756587
-0.000910498
-0.000430883
-0.000899902
-0.000844289
-0.000430625
-0.00016539
-0.000180923
-0.000779528
-0.000831035
-0.000965342
-0.000927847
-8.5055e-05
-8.88739e-05
-0.000919177
-0.000928774
-0.000879172
-0.000323429
-0.000777584
-0.000904481
-0.000921846
-0.000795175
-0.00070186
-0.000336797
-0.00133197
-0.000836234
-0.00102202
-0.001038
-0.000745841
-0.000943968
-0.000729231
-0.000804688
-0.000399359
-0.000602925
-0.000945089
-0.000951059
-0.000817311
-0.000858362
-0.00088582
-0.000934035
-0.000893377
-0.000439968
-0.000784319
-0.000883667
-0.000835623
-0.00125404
-0.000439876
-0.00067854
-0.000698904
-0.000662765
-0.000431066
-0.000431095
-0.000759214
-0.000612538
-0.000876291
-0.000470832
-0.000514761
-0.000168125
-0.000168124
-0.00035099
-0.00055876
-0.000376472
-0.000746619
-0.000807923
-0.000861842
-0.000971179
-0.000881018
-0.000815719
-0.000642076
-0.000396572
-0.000806117
-0.000835303
-0.00080878
-0.000445743
-0.000412921
-0.000320955
-0.000807632
-0.000823865
-0.000661673
-0.000747676
-0.000689961
-0.00063208
-0.000845672
-0.000632024
-0.000746311
-0.000719771
-0.000441453
-0.000545031
-0.000505738
-0.000894291
-0.000352966
-0.000371854
-0.000363743
-0.000844641
-0.000336105
-0.000329124
-0.000587419
-0.000306987
-0.00068417
-0.000685205
-0.000315136
-0.000744496
-0.000349959
-0.000347724
-0.000391906
-0.000331754
-0.000325855
-0.00048736
-0.000387362
-0.000351864
-0.000332788
-0.000681782
-0.000778383
-0.000366446
-0.000752518
-0.000301774
-0.000763428
-0.000606395
-0.000315296
-0.000267065
-0.000297838
-0.000395215
-0.000655502
-0.000540052
-0.000226047
-0.000250906
-0.000730913
-0.000212782
-0.00021278
-0.000241103
-0.00027059
-0.000305105
-0.000355834
-0.000588214
-0.000544573
-0.000731404
-0.000213757
-0.000213756
-0.000643186
-0.000263827
-0.000520977
-0.000239075
-0.000240619
-0.00031704
-0.000551574
-0.000571144
-0.000608457
-0.000557634
-0.000551559
-0.000120529
-0.000890331
-0.000153733
-0.000148969
-0.000719244
-0.000714256
-0.000154375
-0.00010722
-0.000151063
-0.000663425
SCALARS rr_P_ext' float
LOOKUP_TABLE default
0.000168025
0.000388166
0.000309636
0.000405087
0.00021258
0.000328625
0.00016613
0.000402782
0.000345663
0.000436196
0.000152619
0.000404015
0.000355444
0.000375695
0.000441033
0.000369084
0.000317928
0.000359012
0.000320823
0.000314098
0.000353264
6.33263e-05
0.000361953
0.000333658
0.000302436
0.000349309
0.00014167
0.000306613
0.000239282
0.000285028
0.000314002
0.000247364
0.000156907
0.000213404
0.00020983
0.000213882
0.000277143
0.000210223
0.000313674
0.000176371
0.000201117
0.000244266
0.000244289
0.000344616
0.00019713
0.000218216
0.000302003
0.000305994
0.000287014
0.000272989
0.000280456
0.000217868
0.000341126
0.000279964
0.000314028
0.000143064
0.000224045
0.000282016
0.000224036
0.000342435
0.000405823
0.000398181
0.000139458
0.000280731
0.000381391
0.000359553
0.00039257
0.000339275
0.000312027
0.000445509
0.000370097
0.000366062
0.000248493
0.000291161
0.000307749
0.000161869
0.000317973
0.000356215
0.000342126
0.000240498
0.000216419
0.00024004
0.000453225
0.000216632
0.000292663
0.000108335
0.000354185
0.000296534
0.000208766
3.11419e-05
0.000242587
3.38694e-05
0.000269827
0.000258063
0.000229614
0.000208998
0.000198771
0.000382948
0.000318204
0.000305356
0.000258675
0.000247607
0.000207854
0.000362577
0.000368666
0.000332001
0.000292393
0.000295976
0.000220638
0.00044254
0.000283925
0.000148761
0.000198939
0.000396785
0.000371816
0.000270375
0.000259801
0.000165163
0.000269458
0.000269319
0.000234702
0.000429853
0.00044238
0.000380319
0.000418169
0.000328729
0.000186359
0.000413463
0.000180027
0.000232835
0.000193323
0.000394651
0.000385915
0.000387512
0.000257534
0.000157855
0.000172189
0.000283854
0.000347492
0.0001578
0.000215124
0.000334725
0.000252867
0.000408675
0.000201014
0.000333398
0.000302599
0.000292281
0.00018681
0.000238047
0.000265962
0.000380858
0.00022194
0.000344629
0.000399382
0.000405735
0.000265595
0.000221614
0.000220366
0.000347924
0.000291692
0.000220118
0.00014524
0.000214886
0.000214035
0.000372737
0.000224598
0.000227071
0.000245723
0.000218873
0.000329466
0.000229318
0.00020267
0.000256674
0.000242271
0.000292188
0.000325881
0.00031278
0.000266661
0.000312095
0.000238498
0.000361638
0.000388131
0.000215164
0.000380537
0.000214765
0.000375814
0.000345646
0.000323085
0.000328024
0.000383881
0.00018052
0.000237059
0.000220114
0.000386814
0.000380633
0.000352918
0.000384963
0.000391546
0.000329042
0.000403255
0.000269833
0.000243009
0.000440721
0.000255454
0.000400328
0.000318735
0.000202127
0.000245052
0.000399032
0.000332717
0.00030242
0.000389428
0.000382516
0.000246215
0.000245224
0.000237016
0.000339404
0.000374111
0.000429945
0.000413005
0.000449378
0.000407206
0.000444995
0.000373322
0.00039086
0.00039389
0.00037133
0.000390106
0.000359481
0.000354131
0.000249475
0.000336411
0.000393432
0.000272816
0.000401844
0.000369172
0.000426574
0.000255497
0.000405639
0.000387909
0.000251112
0.000348211
0.000249401
0.000391014
0.000356376
0.000261453
0.000245919
0.000212012
0.000243902
0.000391538
0.000177991
0.000301198
0.000244988
0.000275394
0.000406014
0.000393266
0.000123983
0.000394682
0.00021317
0.000231907
0.000403821
0.000328264
0.000234602
0.000450817
0.000255641
0.000123982
0.00023715
0.000350738
0.000438039
0.000331669
0.000391214
0.000365909
0.000192532
0.000187984
0.000159419
0.000182933
0.00026231
0.000199726
0.000322161
0.000200878
0.00034773
0.000247985
0.000237505
0.000279262
0.000258593
0.000344704
0.000247972
0.000254882
0.000113768
0.000258706
0.000374033
0.000374291
0.000338297
0.000247519
0.000162444
0.000469966
0.000314901
0.000262602
0.000241989
0.000242604
0.000249564
0.000306062
0.000245155
0.000174533
0.00024199
0.00016526
0.000301265
0.000246773
0.000106036
0.000232484
0.000276215
0.000246742
0.000381614
0.000256327
0.000331478
0.000125981
0.000265994
0.000253382
0.000222801
0.000237852
0.000281271
0.000265519
0.000277417
0.000235018
0.000238774
0.000257997
0.00034638
0.000243146
0.000345578
0.000311762
0.000247086
0.000252254
0.000254801
0.000282172
0.000254419
0.000238031
0.000270714
0.000285204
0.000335976
0.000254763
0.000252838
0.00036752
0.000362381
0.000243316
0.000247135
0.000108563
0.000297306
0.000204906
0.000278868
0.000121002
0.000125609
0.000112261
0.000114095
0.000121047
0.0001275
0.000131402
0.000313851
0.000232854
0.000233859
0.000266984
0.000259876
0.000256619
0.000272199
0.00025111
0.000256813
0.000262953
0.000255666
0.000315454
0.000231907
0.000324225
0.000251504
0.000242578
0.000255976
0.000274722
0.000285938
0.000266142
0.000305088
0.00028476
0.000263789
0.000189847
0.000265559
0.000259917
0.00028074
0.000267682
0.000253529
0.000241201
0.000265846
0.000277568
0.000377213
0.000248476
0.000366735
0.000381822
0.000261251
0.000366173
0.000280637
0.000224435
0.000306901
0.00026825
0.000194298
0.000168353
0.000303147
0.000322983
0.000272627
0.000226495
0.000273142
0.000127725
0.000269542
0.000252736
0.000127985
4.98678e-05
5.4553e-05
0.000233516
0.00024856
0.000289013
0.000277552
2.56902e-05
2.68437e-05
0.000275521
0.000278402
0.000263518
9.58707e-05
0.00023253
0.000271456
0.000275894
0.000237959
0.000210052
9.9813e-05
0.000399666
0.0002501
0.000306149
0.000310937
0.000223192
0.000282544
0.000218221
0.000240825
0.000118608
0.00017954
0.000282876
0.000284898
0.000244668
0.000256852
0.000265156
0.000279628
0.000267438
0.000130809
0.000235612
0.000264317
0.000250673
0.000376305
0.000130772
0.00020325
0.000209328
0.000199271
0.000129963
0.00012997
0.000228159
0.00018317
0.000262487
0.000139958
0.00015516
5.07678e-05
5.07673e-05
0.000104005
0.000168221
0.000113396
0.000223619
0.000242756
0.00025827
0.000291209
0.000264379
0.000244855
0.000192455
0.000117551
0.000241509
0.000250553
0.000242729
0.000132291
0.000124329
9.53711e-05
0.000242374
0.000247046
0.000197731
0.000224044
0.000206799
0.00019006
0.000253509
0.000190042
0.000223565
0.000216019
0.000132943
0.000164148
0.00015034
0.000268193
0.000104556
0.000110176
0.000107719
0.000253439
9.96143e-05
9.74423e-05
0.000175778
9.09228e-05
0.000205829
0.000206138
9.33543e-05
0.000222882
0.000103941
0.000102996
0.000116372
9.82613e-05
9.67591e-05
0.000146735
0.0001151
0.00010429
9.85806e-05
0.000204338
0.000233705
0.000108792
0.000225544
8.93517e-05
0.000228899
0.000181552
9.33789e-05
7.92727e-05
8.81925e-05
0.00011711
0.000196319
0.0001625
6.82438e-05
7.57377e-05
0.000219192
6.42371e-05
6.42361e-05
7.27825e-05
8.1611e-05
9.0679e-05
0.000107152
0.000176785
0.000163862
0.000219308
6.44853e-05
6.44845e-05
0.000193576
7.8167e-05
0.000155961
7.08451e-05
7.1486e-05
9.41968e-05
0.000166234
0.000172127
0.000183358
0.000168047
0.000166229
3.63807e-05
0.000268308
4.63774e-05
4.4975e-05
0.000216772
0.000215271
4.66096e-05
3.23646e-05
4.55739e-05
0.000199909
SCALARS rr_S' float
LOOKUP_TABLE default
0.000354642
0.000810533
0.000647154
0.000846022
0.000442719
0.000686854
0.000350656
0.000841314
0.000723096
0.000910861
0.000321908
0.00084389
0.000742598
0.000784414
0.000919389
0.00077128
0.000663554
0.000749981
0.000671454
0.000656655
0.00073864
0.000131415
0.000756803
0.000697535
0.000632284
0.000729584
0.000298359
0.000640761
0.000502265
0.000592735
0.000656037
0.000519218
0.000330497
0.000444063
0.000436486
0.000445063
0.000576273
0.000437362
0.000655365
0.000371486
0.000422166
0.000507888
0.000507941
0.000719996
0.000414795
0.000457974
0.000631922
0.000639997
0.000599861
0.000573404
0.000588855
0.000456814
0.000710535
0.000586995
0.000654145
0.000300929
0.000466046
0.000591297
0.00046603
0.000715859
0.000847038
0.000830358
0.000293494
0.00058546
0.000795334
0.000750434
0.000819347
0.000708622
0.000652368
0.000930244
0.000770896
0.000762496
0.000521614
0.000607492
0.000643184
0.000341108
0.000662722
0.000743472
0.000714582
0.000504142
0.000454676
0.000499742
0.000945556
0.000455267
0.000614118
0.000227926
0.000740178
0.000618803
0.000439272
6.46595e-05
0.000508637
7.03236e-05
0.000562345
0.000538676
0.000481389
0.000438864
0.000417592
0.000799682
0.000663212
0.000638012
0.000541714
0.000519441
0.000436829
0.000757353
0.000769931
0.00069334
0.000609939
0.000618467
0.000463704
0.000923934
0.000593536
0.000312909
0.000418249
0.000828857
0.000776526
0.00056687
0.000540429
0.000347002
0.000560536
0.000564635
0.000491327
0.000896189
0.000923745
0.000793624
0.00087299
0.000685218
0.000387799
0.000863408
0.000378214
0.000488143
0.000402685
0.000824136
0.000805172
0.000809198
0.000540257
0.000328361
0.000361963
0.000592989
0.000724964
0.00032825
0.000451235
0.00069895
0.000529267
0.000853387
0.000422343
0.000696325
0.000631968
0.000610871
0.000390447
0.000498675
0.000556286
0.00079528
0.000465864
0.000719991
0.000833988
0.000847272
0.00055445
0.0004648
0.000462165
0.000726889
0.000610074
0.000462003
0.000305525
0.000451183
0.000448908
0.000778404
0.00047106
0.000476255
0.000515783
0.000459045
0.000686621
0.000480807
0.00042554
0.000535776
0.000507954
0.000609533
0.000679154
0.000653328
0.000555407
0.000651762
0.000500613
0.000755193
0.000810524
0.000451311
0.000794084
0.000450967
0.000784227
0.000721011
0.000673296
0.000684987
0.00080105
0.000379205
0.000497028
0.000462023
0.000807748
0.000795178
0.000737239
0.000803192
0.00081761
0.000686778
0.000842041
0.00056466
0.000509366
0.000919537
0.000536194
0.0008352
0.000665249
0.000424057
0.000510962
0.000833211
0.000693688
0.000631387
0.000813313
0.000798031
0.000515767
0.000511931
0.000496751
0.000707995
0.000781026
0.000897596
0.000862329
0.000938229
0.000850174
0.00092908
0.000779512
0.000814855
0.000821196
0.000774139
0.000813273
0.000748817
0.00073767
0.000522637
0.00070242
0.000821763
0.000570631
0.000837694
0.000769556
0.000890961
0.000535526
0.000847291
0.000810038
0.000526003
0.000726051
0.000522444
0.000815736
0.000744422
0.000547651
0.000515385
0.000445431
0.000512394
0.000816851
0.000374032
0.000629335
0.000513463
0.000576338
0.000848086
0.000821035
0.000257778
0.000824014
0.000447989
0.000486045
0.000843468
0.000685667
0.000491755
0.000941194
0.000535046
0.000257778
0.000497023
0.000732215
0.000914124
0.00069285
0.000815555
0.000763593
0.000401029
0.000392742
0.000335273
0.000384877
0.000546528
0.000417597
0.00067292
0.000420795
0.000725037
0.00051764
0.000497773
0.000582913
0.000541523
0.000719871
0.000519276
0.000534225
0.000236352
0.000539102
0.000779696
0.000780249
0.000706379
0.000518287
0.000338061
0.00098079
0.000658596
0.000549849
0.000506859
0.000505471
0.000522763
0.00063786
0.000513431
0.000367237
0.00050672
0.000347243
0.000628421
0.000516914
0.000220293
0.000486893
0.000576308
0.000516914
0.000796292
0.000536843
0.000692723
0.000265178
0.000555992
0.000530773
0.000464233
0.00049827
0.000588259
0.000554041
0.000579259
0.000492209
0.000499981
0.000539991
0.00072254
0.000509143
0.000721832
0.000651518
0.000514669
0.000528207
0.00053333
0.00059005
0.00053247
0.000498482
0.00056656
0.000594742
0.000701794
0.000533226
0.000529645
0.000767457
0.000756711
0.000509522
0.000514778
0.00022907
0.000621332
0.000430495
0.000583115
0.000256796
0.000266569
0.000238227
0.000242125
0.000256869
0.000270592
0.000278859
0.000654652
0.000484727
0.000488572
0.000558406
0.000543866
0.000537076
0.000568449
0.000525584
0.000537549
0.00054737
0.000535083
0.000657713
0.000486245
0.000676044
0.00052568
0.000507368
0.000535753
0.000572376
0.000597571
0.000556613
0.000637586
0.000595544
0.000552132
0.000397982
0.000555437
0.000543245
0.000585315
0.000560146
0.000530708
0.000504753
0.000556073
0.000580153
0.000787746
0.000519982
0.000765878
0.00079813
0.000546445
0.000764835
0.000586605
0.000469732
0.000640399
0.000560965
0.000404499
0.000354229
0.000632327
0.000673526
0.00056982
0.000473631
0.000570096
0.000269467
0.000563375
0.00052853
0.000269381
0.000103607
0.000113338
0.000488023
0.000520189
0.000604318
0.000580797
5.32907e-05
5.56833e-05
0.000575484
0.000581494
0.000550436
0.000202267
0.000486722
0.000566352
0.00057707
0.000497769
0.000439358
0.000210622
0.000834012
0.00052344
0.000639835
0.000649838
0.000466886
0.000590923
0.000456488
0.000503728
0.000249803
0.000377237
0.000591624
0.000595409
0.000511643
0.00053732
0.000554526
0.000584717
0.00055926
0.000275233
0.000491155
0.000553136
0.000523213
0.00078522
0.000275174
0.000424796
0.000437541
0.000415071
0.000270033
0.000270051
0.000475451
0.000383412
0.000548598
0.000294535
0.000322455
0.000105335
0.000105334
0.000219495
0.00034998
0.000235813
0.000467412
0.000505948
0.000539575
0.000608061
0.000551653
0.000510781
0.000401994
0.000248008
0.000504675
0.000523007
0.000506426
0.000278796
0.000258636
0.000200772
0.000505705
0.00051583
0.00041414
0.000468096
0.000431973
0.000395856
0.000529469
0.000395821
0.000467228
0.000450694
0.00027651
0.000341391
0.000316373
0.000559928
0.000220726
0.000232543
0.000227459
0.000528872
0.000210191
0.000205805
0.000367715
0.00019197
0.000428502
0.00042915
0.00019707
0.000466062
0.000218904
0.000217447
0.000245136
0.000207459
0.000203822
0.000305261
0.00024231
0.000220047
0.000208108
0.00042685
0.000487414
0.000229207
0.000471138
0.000188704
0.000477985
0.000379612
0.000197166
0.000167042
0.000186245
0.000247151
0.000410367
0.000338244
0.000141622
0.000157194
0.000457636
0.00013331
0.000133309
0.000151053
0.000169512
0.000190859
0.000222881
0.000368367
0.000341076
0.000457936
0.000133912
0.000133911
0.000402848
0.000164984
0.000326136
0.000149509
0.000150516
0.00019832
0.000345511
0.000357769
0.000381139
0.000349305
0.000345502
7.55119e-05
0.000557708
9.63088e-05
9.33312e-05
0.000450542
0.000447418
9.67192e-05
6.71739e-05
9.46364e-05
0.000415568
SCALARS rr_P' float
LOOKUP_TABLE default
4.44323e-05
9.58674e-05
7.6929e-05
0.000100168
5.15978e-05
8.16582e-05
4.3941e-05
9.96712e-05
8.63766e-05
0.000107756
4.01965e-05
9.99772e-05
8.80815e-05
9.27223e-05
0.000107746
9.16038e-05
7.82782e-05
8.89149e-05
8.04203e-05
7.81737e-05
8.79995e-05
1.50139e-05
9.01647e-05
8.30341e-05
7.52787e-05
8.6413e-05
3.69545e-05
7.61232e-05
6.11197e-05
6.85304e-05
7.7827e-05
6.31754e-05
4.09673e-05
5.1519e-05
5.0545e-05
5.16376e-05
6.65847e-05
5.06827e-05
7.77564e-05
4.60404e-05
5.13804e-05
5.86693e-05
5.86782e-05
8.54127e-05
5.11399e-05
5.56827e-05
7.55911e-05
7.6375e-05
7.12996e-05
7.00302e-05
7.17658e-05
5.52601e-05
8.28854e-05
7.0994e-05
7.63417e-05
3.70316e-05
5.39608e-05
7.15147e-05
5.39616e-05
8.51987e-05
9.9948e-05
9.74996e-05
3.62154e-05
6.87623e-05
9.338e-05
8.85244e-05
9.66626e-05
8.39261e-05
7.76923e-05
0.000110012
8.99371e-05
8.89595e-05
6.34843e-05
7.1532e-05
7.64406e-05
4.23869e-05
7.75725e-05
8.77069e-05
8.46372e-05
6.09071e-05
5.55914e-05
5.81353e-05
0.000111299
5.5757e-05
7.46005e-05
2.8081e-05
8.79336e-05
7.29299e-05
5.41538e-05
7.40953e-06
6.15232e-05
8.05939e-06
6.5805e-05
6.35876e-05
5.81956e-05
5.35158e-05
5.10516e-05
9.46107e-05
7.76357e-05
7.57145e-05
6.50958e-05
6.30114e-05
5.35061e-05
8.97406e-05
9.11382e-05
8.2059e-05
7.17441e-05
7.34298e-05
5.68027e-05
0.000109198
7.06362e-05
3.85059e-05
5.13345e-05
9.8246e-05
9.19294e-05
6.85467e-05
6.25774e-05
4.24313e-05
6.49167e-05
6.82629e-05
5.89227e-05
0.000105095
0.000109265
9.35236e-05
0.000103137
8.0262e-05
4.49969e-05
0.000102153
4.62371e-05
5.90138e-05
4.69818e-05
9.75169e-05
9.48031e-05
9.57303e-05
6.55305e-05
3.80198e-05
4.43923e-05
7.03083e-05
8.53334e-05
3.80089e-05
5.46978e-05
8.2669e-05
6.34146e-05
0.000100952
5.16565e-05
8.24572e-05
7.4814e-05
7.26098e-05
4.64176e-05
6.00302e-05
6.63983e-05
9.40709e-05
5.66916e-05
8.53904e-05
9.86606e-05
0.000100249
6.5483e-05
5.63086e-05
5.598e-05
8.62217e-05
7.27977e-05
5.61976e-05
3.76126e-05
5.49882e-05
5.43882e-05
9.21219e-05
5.70694e-05
5.77036e-05
6.27632e-05
5.56096e-05
8.03373e-05
5.81517e-05
5.18664e-05
6.32432e-05
6.14267e-05
7.17102e-05
7.94671e-05
7.7406e-05
6.47713e-05
7.71334e-05
6.0913e-05
8.93536e-05
9.59062e-05
5.47021e-05
9.35762e-05
5.49863e-05
9.24177e-05
8.47962e-05
7.87605e-05
8.10392e-05
9.43902e-05
4.63295e-05
6.0108e-05
5.62182e-05
9.55643e-05
9.42922e-05
8.73967e-05
9.45735e-05
9.67192e-05
8.10309e-05
9.95967e-05
6.7579e-05
6.1511e-05
0.000108279
6.52369e-05
9.83111e-05
7.8481e-05
5.14588e-05
5.99551e-05
9.85453e-05
8.13522e-05
7.46094e-05
9.62874e-05
9.39303e-05
6.2076e-05
6.04649e-05
5.99521e-05
8.32674e-05
9.2282e-05
0.000106058
0.000101956
0.000110899
0.000100487
0.000109819
9.21795e-05
9.55323e-05
9.62918e-05
9.07594e-05
9.53406e-05
8.73848e-05
8.60823e-05
6.29284e-05
8.30507e-05
9.73571e-05
6.81138e-05
9.81725e-05
9.0167e-05
0.000105538
6.4661e-05
0.000100401
9.58344e-05
6.32907e-05
8.51881e-05
6.28792e-05
9.59987e-05
8.82322e-05
6.58882e-05
6.21852e-05
5.44691e-05
6.26365e-05
9.61425e-05
4.57875e-05
7.46926e-05
6.19716e-05
6.90044e-05
0.000100502
9.702e-05
2.97681e-05
9.73866e-05
5.48611e-05
5.86623e-05
9.99321e-05
8.12348e-05
5.93921e-05
0.000111224
6.40887e-05
2.97693e-05
5.99794e-05
8.65048e-05
0.000107759
8.21331e-05
9.55909e-05
9.00076e-05
4.67811e-05
4.65866e-05
4.12209e-05
4.74191e-05
6.38556e-05
4.97448e-05
7.97243e-05
5.06428e-05
8.50622e-05
6.11046e-05
6.00743e-05
6.88003e-05
6.50584e-05
8.51981e-05
6.23819e-05
6.44958e-05
2.71729e-05
6.30431e-05
9.13614e-05
9.14352e-05
8.35305e-05
6.2237e-05
3.92455e-05
0.000115641
7.8575e-05
6.6014e-05
6.09636e-05
5.90601e-05
6.29038e-05
7.46413e-05
6.17154e-05
4.52695e-05
6.08561e-05
4.24844e-05
7.39e-05
6.21985e-05
2.53284e-05
5.8525e-05
6.78637e-05
6.22399e-05
9.38168e-05
6.45398e-05
8.22928e-05
3.27505e-05
6.61285e-05
6.38752e-05
5.42571e-05
5.99829e-05
7.01831e-05
6.52707e-05
6.85021e-05
5.917e-05
6.00425e-05
6.46912e-05
8.49746e-05
6.11488e-05
8.55187e-05
7.73964e-05
6.00422e-05
6.34317e-05
6.39105e-05
7.03345e-05
6.37668e-05
5.98993e-05
6.78407e-05
6.98245e-05
8.3157e-05
6.38818e-05
6.37477e-05
9.07878e-05
8.95079e-05
6.12084e-05
6.00583e-05
2.86607e-05
7.38258e-05
5.26386e-05
6.94913e-05
3.31077e-05
3.43653e-05
3.07017e-05
3.12084e-05
3.31036e-05
3.48885e-05
3.59461e-05
7.69704e-05
5.63592e-05
5.7947e-05
6.66396e-05
6.51181e-05
6.43205e-05
6.72746e-05
6.29691e-05
6.4421e-05
6.36348e-05
6.40833e-05
7.71438e-05
5.8816e-05
7.93299e-05
6.2507e-05
6.05532e-05
6.41765e-05
6.68672e-05
7.10006e-05
6.64033e-05
7.57512e-05
7.10442e-05
6.61577e-05
4.80917e-05
6.6293e-05
6.45798e-05
6.86393e-05
6.70306e-05
6.36245e-05
6.04144e-05
6.63914e-05
6.8979e-05
9.32217e-05
6.22417e-05
9.06415e-05
9.49462e-05
6.52316e-05
9.0603e-05
6.97719e-05
5.62659e-05
7.54525e-05
6.68854e-05
4.70522e-05
4.36636e-05
7.43444e-05
7.90749e-05
6.77468e-05
5.64613e-05
6.72604e-05
3.36906e-05
6.69845e-05
6.30235e-05
3.3259e-05
1.19156e-05
1.30326e-05
5.79896e-05
6.22859e-05
7.20098e-05
6.94982e-05
6.07412e-06
6.34683e-06
6.81722e-05
6.88776e-05
6.52179e-05
2.52912e-05
5.83324e-05
6.66739e-05
6.88825e-05
5.94465e-05
5.24503e-05
2.6362e-05
9.82935e-05
6.2694e-05
7.60378e-05
7.72258e-05
5.57633e-05
7.05015e-05
5.45222e-05
6.01352e-05
3.09479e-05
4.61482e-05
7.05888e-05
7.07522e-05
6.10004e-05
6.41901e-05
6.61382e-05
6.96904e-05
6.66783e-05
3.3925e-05
5.75523e-05
6.62131e-05
6.17378e-05
9.25139e-05
3.393e-05
5.04942e-05
5.20355e-05
4.84232e-05
3.10703e-05
3.10733e-05
5.56045e-05
4.59555e-05
6.52064e-05
3.63385e-05
3.71454e-05
1.2022e-05
1.20222e-05
2.749e-05
4.05585e-05
2.72633e-05
5.55871e-05
5.9219e-05
6.3997e-05
7.19094e-05
6.49864e-05
6.00831e-05
4.76266e-05
3.10127e-05
5.99326e-05
6.1742e-05
5.96251e-05
3.46559e-05
2.99568e-05
2.48119e-05
5.95535e-05
6.09885e-05
4.98019e-05
5.5535e-05
5.11897e-05
4.61639e-05
6.26946e-05
4.61618e-05
5.55185e-05
5.30584e-05
3.19994e-05
3.9492e-05
3.90249e-05
6.61689e-05
2.76844e-05
2.91346e-05
2.85658e-05
6.23303e-05
2.62993e-05
2.58769e-05
4.3926e-05
2.40942e-05
4.98391e-05
4.99163e-05
2.47117e-05
5.5552e-05
2.71142e-05
2.72807e-05
3.03975e-05
2.60334e-05
2.52746e-05
3.53646e-05
2.99523e-05
2.75264e-05
2.60995e-05
5.05934e-05
5.72641e-05
2.84479e-05
5.58368e-05
2.37185e-05
5.65443e-05
4.52307e-05
2.47516e-05
2.07504e-05
2.34008e-05
3.09539e-05
4.8816e-05
3.93069e-05
1.61815e-05
1.79746e-05
5.40857e-05
1.52344e-05
1.52346e-05
1.72676e-05
1.94668e-05
2.35667e-05
2.58012e-05
4.30623e-05
3.96352e-05
5.41597e-05
1.53597e-05
1.536e-05
4.67617e-05
2.06757e-05
3.88794e-05
1.8721e-05
1.86176e-05
2.45228e-05
3.98287e-05
4.1248e-05
4.39591e-05
4.02822e-05
3.9829e-05
8.63687e-06
6.43148e-05
1.10468e-05
1.06624e-05
5.19302e-05
5.15664e-05
1.10467e-05
7.6816e-06
1.08524e-05
4.7947e-05
SCALARS rr_T' float
LOOKUP_TABLE default
0.000207602
0.000472969
0.000377729
0.000493706
0.000258139
0.000400904
0.000205271
0.000490967
0.000422164
0.000531517
0.00018841
0.000492471
0.000433387
0.00045771
0.000536234
0.000450157
0.000387149
0.000437688
0.000392072
0.000383305
0.000431177
7.65489e-05
0.000441783
0.000407167
0.000369081
0.000425762
0.000174542
0.000373987
0.000293536
0.000345475
0.000382872
0.000303442
0.000193352
0.000258866
0.000254422
0.000259449
0.000335869
0.000254941
0.000382483
0.000217329
0.000246727
0.000296009
0.00029604
0.000420199
0.000242596
0.000267638
0.000368963
0.000373629
0.000350123
0.00033518
0.000344171
0.000266885
0.000414318
0.000342936
0.000381445
0.00017598
0.00027165
0.00034545
0.000271642
0.000417859
0.00049421
0.000484349
0.000171658
0.000341504
0.000463918
0.000437835
0.000478049
0.000413528
0.000380811
0.000542822
0.000449517
0.000444619
0.000304847
0.000354402
0.000375407
0.000199588
0.000386503
0.000433774
0.000417008
0.000294516
0.000265793
0.000291359
0.000551619
0.000266164
0.000358869
0.000133298
0.000432012
0.000361018
0.00025691
3.767e-05
0.00029716
4.09701e-05
0.000327959
0.000314298
0.000281232
0.000256513
0.000244113
0.000466642
0.00038679
0.00037236
0.00031637
0.000303519
0.000255387
0.000441978
0.000449294
0.000404595
0.000355813
0.000360962
0.0002711
0.000539125
0.000346456
0.000182987
0.000244553
0.000483715
0.000453145
0.000331175
0.000315008
0.00020285
0.000326731
0.000329866
0.000286913
0.000522719
0.000539035
0.000463011
0.00050939
0.000399642
0.000226067
0.00050383
0.000221093
0.000285179
0.000234811
0.000480918
0.000469729
0.000472196
0.00031568
0.000191397
0.000211631
0.000346066
0.000422931
0.000191333
0.000263654
0.000407853
0.000309052
0.000497978
0.000246896
0.000406349
0.000368786
0.00035655
0.000227897
0.000291264
0.000324763
0.000464072
0.000272264
0.00042019
0.000486658
0.000494417
0.00032351
0.000271571
0.000270029
0.000424221
0.000356158
0.00027
0.000178673
0.000263706
0.000262288
0.000454233
0.00027523
0.000278266
0.000301436
0.000268209
0.000400435
0.000280899
0.000248719
0.000312605
0.000296757
0.000355579
0.000396081
0.000381266
0.000323855
0.000380331
0.000292568
0.000440683
0.000472973
0.000263698
0.000463276
0.000263586
0.000457528
0.000420602
0.000392659
0.000399713
0.000467338
0.000221664
0.000290374
0.000270017
0.000471352
0.000464069
0.00043025
0.000468574
0.000477104
0.000400699
0.000491357
0.000329699
0.000297559
0.00053645
0.000313361
0.00048724
0.000388136
0.00024779
0.000298034
0.000486203
0.000404604
0.00036841
0.000474612
0.000465555
0.000301244
0.000298701
0.000290181
0.000413009
0.000455731
0.00052375
0.000503189
0.00054747
0.000496087
0.000542131
0.00045486
0.000475273
0.000478976
0.000451526
0.000474349
0.000436649
0.000430149
0.000305263
0.000409873
0.00047957
0.000333137
0.000488586
0.000448838
0.000519949
0.00031284
0.000494473
0.000472685
0.000307217
0.000423491
0.000305142
0.00047588
0.000434445
0.000319859
0.000301062
0.000260391
0.000299533
0.000476532
0.000218664
0.000367298
0.000299944
0.000336526
0.000494938
0.000479079
0.000150236
0.00048082
0.000261905
0.000283928
0.000492238
0.000400138
0.000287274
0.000549194
0.000312421
0.000150237
0.000290338
0.000427247
0.000533321
0.000404344
0.000475676
0.000445494
0.000233842
0.000229209
0.000196055
0.000225088
0.000318709
0.000243769
0.000392698
0.000245771
0.000422898
0.000302024
0.000290778
0.000340105
0.000316254
0.000420075
0.00030326
0.000312078
0.000137718
0.000314394
0.000454755
0.000455079
0.000412185
0.000302676
0.000197078
0.000572221
0.000384482
0.000321104
0.000296028
0.000294767
0.000305325
0.000372
0.000299856
0.000214779
0.000295923
0.000202997
0.000366588
0.000301909
0.000128361
0.000284357
0.000336213
0.00030192
0.000464562
0.000313533
0.000404313
0.000155103
0.000324531
0.000310006
0.000270724
0.000291027
0.000343421
0.000323228
0.000338011
0.000287464
0.000291986
0.000315312
0.000421494
0.000297339
0.000421242
0.000380263
0.000300106
0.00030847
0.000311427
0.000344449
0.000310913
0.000291121
0.000330817
0.000346912
0.000409552
0.000311362
0.00030935
0.000447832
0.000441559
0.000297564
0.000300171
0.000134087
0.000362649
0.000251658
0.000340397
0.000150589
0.000156319
0.000139696
0.000141983
0.000150628
0.000158678
0.000163524
0.000381887
0.000282602
0.000285136
0.000325998
0.000317565
0.000313603
0.000331713
0.0003069
0.000313892
0.000319121
0.000312441
0.000383623
0.000284079
0.000394329
0.000306833
0.000296202
0.000312835
0.00033378
0.000348779
0.000324944
0.000372133
0.000347671
0.000322405
0.0002325
0.000324266
0.00031708
0.000341392
0.000327062
0.000309904
0.000294721
0.000324643
0.000338625
0.000459681
0.000303615
0.000446921
0.00046587
0.00031902
0.000446335
0.000342399
0.000274285
0.000373613
0.000327475
0.000235832
0.000207171
0.000368862
0.000392867
0.000332593
0.000276488
0.00033262
0.000157727
0.000328834
0.000308541
0.000157559
6.03708e-05
6.60403e-05
0.000284842
0.000303741
0.000352771
0.000339118
3.10381e-05
3.24316e-05
0.000335837
0.000339341
0.000321221
0.000118393
0.000284214
0.0003304
0.000336895
0.000290608
0.000256502
0.000123292
0.000486576
0.000305644
0.000373451
0.00037929
0.000272579
0.000344975
0.000266509
0.000294081
0.000146138
0.00022053
0.000345386
0.00034752
0.000298681
0.000313704
0.000323721
0.000341333
0.000326479
0.00016097
0.000286462
0.000322975
0.000305269
0.000458102
0.000160938
0.000247944
0.000255389
0.000242031
0.000157351
0.000157362
0.000277276
0.000223889
0.000320202
0.000172268
0.000187909
6.13541e-05
6.13539e-05
0.00012849
0.000204007
0.000137443
0.000272824
0.000295072
0.000314901
0.000354818
0.000321836
0.000297967
0.000234593
0.000145168
0.000294551
0.000305156
0.000295442
0.000163132
0.000150758
0.000117436
0.000295025
0.000300993
0.000241875
0.000273189
0.000252091
0.000230824
0.000308975
0.000230804
0.000272704
0.000262926
0.000161171
0.000198984
0.000185038
0.000326719
0.000129218
0.000136127
0.00013317
0.000308551
0.000123036
0.000120501
0.000214682
0.000112389
0.000249823
0.000250201
0.000115368
0.00027207
0.00012806
0.0001273
0.000143415
0.000121454
0.000119245
0.000177937
0.000141738
0.000128804
0.000121831
0.000249104
0.000284318
0.000134103
0.000274948
0.000110486
0.000278918
0.000221599
0.000115431
9.77372e-05
0.000109043
0.00014468
0.000239531
0.000197194
8.24949e-05
9.15695e-05
0.000267031
7.76544e-05
7.76537e-05
8.79911e-05
9.87668e-05
0.000111635
0.000129913
0.000214821
0.000198845
0.000267216
7.80194e-05
7.80188e-05
0.000234843
9.65839e-05
0.000190387
8.75193e-05
8.80444e-05
0.000116006
0.000201352
0.000208497
0.00022212
0.000203566
0.000201346
4.39882e-05
0.000325018
5.61113e-05
5.43653e-05
0.000262559
0.000260737
5.6338e-05
3.91306e-05
5.51361e-05
0.000242189
SCALARS rr_uec(SIM,_S_ext) float
LOOKUP_TABLE default
0.0138689
0.0315945
0.0252325
0.0329798
0.0172431
0.0267806
0.0137131
0.0327966
0.0282009
0.0355054
0.012587
0.0328971
0.0289503
0.030575
0.0358199
0.0300706
0.0258615
0.0292377
0.0261909
0.0256051
0.0288029
0.00511312
0.0295115
0.0271991
0.0246549
0.0284411
0.0116603
0.0249825
0.0196091
0.0230767
0.0255759
0.0202709
0.0129168
0.0172916
0.0169946
0.0173306
0.0224351
0.0170293
0.0255499
0.0145186
0.0164821
0.0197726
0.0197747
0.0280694
0.0162066
0.017879
0.0246471
0.0249586
0.0233884
0.0223912
0.0229917
0.0178285
0.0276757
0.0229088
0.0254798
0.0117561
0.0181454
0.0230768
0.0181449
0.0279133
0.0330132
0.032354
0.0114674
0.0228121
0.0309893
0.0292472
0.0319337
0.0276238
0.0254384
0.0362607
0.030027
0.0296998
0.0203647
0.0236738
0.0250773
0.0133335
0.0258178
0.0289759
0.0278563
0.0196743
0.0177558
0.0194621
0.0368479
0.0177807
0.0239734
0.00890489
0.0288586
0.0241157
0.0171629
0.00251619
0.0198509
0.00273663
0.0219072
0.020995
0.0187868
0.017136
0.0163075
0.0311718
0.025837
0.0248737
0.021134
0.0202757
0.0170608
0.0295244
0.0300129
0.0270271
0.0237681
0.0241123
0.0181105
0.0360138
0.0231435
0.0122244
0.0163371
0.0323124
0.0302702
0.0221231
0.0210415
0.013551
0.0218246
0.0220357
0.0191662
0.0349172
0.0360078
0.0309289
0.0340274
0.0266956
0.0151006
0.0336559
0.0147697
0.0190505
0.015685
0.0321255
0.0313778
0.0315429
0.0210881
0.0127848
0.0141376
0.0231172
0.0282516
0.0127805
0.0176127
0.0272444
0.020645
0.033265
0.0164934
0.0271443
0.0246349
0.0238177
0.0152236
0.0194569
0.0216944
0.0310002
0.0181881
0.0280687
0.0325089
0.0330273
0.0216104
0.0181415
0.0180385
0.0283382
0.0237916
0.0180368
0.0119361
0.0176164
0.0175214
0.0303429
0.0183859
0.0185887
0.0201368
0.0179169
0.0267485
0.0187647
0.0166152
0.0208819
0.019824
0.0237525
0.0264577
0.0254686
0.0216329
0.0254061
0.0195444
0.0294377
0.0315947
0.0176156
0.0309465
0.0176084
0.0305627
0.0280959
0.026229
0.0267009
0.0312179
0.0148078
0.0193976
0.0180379
0.0314865
0.031
0.0287409
0.0313006
0.0318708
0.0267665
0.0328229
0.0220243
0.0198776
0.0358347
0.0209334
0.0325474
0.0259273
0.016553
0.0199084
0.0324786
0.027027
0.0246097
0.0317042
0.0310989
0.0201236
0.0199531
0.0193847
0.0275887
0.030443
0.0349868
0.0336134
0.0365713
0.0331389
0.0362146
0.0303847
0.0317478
0.0319952
0.0301616
0.0316861
0.0291674
0.0287332
0.0203921
0.0273796
0.0320358
0.0222537
0.032637
0.0299819
0.034733
0.0208984
0.0330313
0.0315754
0.0205226
0.0282888
0.020384
0.0317885
0.0290214
0.0213671
0.0201115
0.0173949
0.0200099
0.0318321
0.0146074
0.0245356
0.0200369
0.0224804
0.0330623
0.0320027
0.0100353
0.0321191
0.017496
0.018967
0.032882
0.0267293
0.0191905
0.0366864
0.0208701
0.0100354
0.0193952
0.0285403
0.0356256
0.0270103
0.0317747
0.0297587
0.0156202
0.0153112
0.0130972
0.0150368
0.0212892
0.0162839
0.0262323
0.0164179
0.0282492
0.0201751
0.0194246
0.0227189
0.0211262
0.028061
0.0202582
0.0208475
0.00919907
0.0210011
0.0303772
0.0303989
0.027534
0.0202191
0.0131644
0.0382241
0.0256837
0.0214502
0.0197751
0.01969
0.0203962
0.024849
0.0200307
0.0143483
0.0197681
0.0135608
0.0244878
0.020168
0.00857407
0.0189954
0.0224588
0.0201688
0.0310325
0.0209444
0.0270082
0.0103615
0.0216789
0.0207089
0.018084
0.0194412
0.0229408
0.0215914
0.0225793
0.019203
0.019505
0.0210632
0.0281554
0.0198626
0.028139
0.0254017
0.0200465
0.0206061
0.0208037
0.0230094
0.0207693
0.0194473
0.0220989
0.0231733
0.0273581
0.0207993
0.0206651
0.0299151
0.0294961
0.0198777
0.0200508
0.00895798
0.024225
0.0168116
0.0227387
0.0100613
0.0104441
0.00933351
0.00948633
0.0100639
0.0106017
0.0109255
0.0255097
0.0188771
0.0190472
0.0217769
0.0212138
0.020949
0.0221584
0.0205013
0.0209683
0.0213165
0.0208714
0.0256255
0.0189771
0.0263409
0.0204966
0.0197865
0.0208977
0.0222959
0.0232985
0.0217065
0.0248586
0.0232247
0.0215371
0.0155316
0.0216612
0.021181
0.0228046
0.0218481
0.020702
0.0196877
0.0216865
0.0226203
0.0307066
0.0202819
0.0298543
0.0311204
0.0213108
0.0298152
0.0228725
0.0183225
0.0249572
0.0218755
0.0157531
0.01384
0.0246397
0.0262431
0.0222174
0.0184696
0.0222189
0.0105372
0.0219663
0.0206107
0.0105255
0.00403254
0.00441124
0.0190276
0.0202902
0.0235653
0.0226535
0.00207318
0.00216626
0.022434
0.022668
0.0214576
0.00790941
0.0189859
0.0220705
0.0225048
0.0194128
0.0171345
0.00823676
0.032503
0.0204174
0.0249466
0.0253366
0.0182085
0.0230446
0.017803
0.0196448
0.00976272
0.014732
0.023072
0.0232144
0.0199521
0.0209556
0.0216248
0.0228013
0.021809
0.0107535
0.0191353
0.0215751
0.0203918
0.0306009
0.0107514
0.0165628
0.0170602
0.0161672
0.0105105
0.0105112
0.0185217
0.0149561
0.0213896
0.0115083
0.0125517
0.00409816
0.00409815
0.00858408
0.0136271
0.00918082
0.0182247
0.0197104
0.0210355
0.0237019
0.0214985
0.019904
0.0156708
0.00969824
0.0196761
0.0203843
0.0197353
0.0108981
0.0100703
0.00784515
0.0197076
0.0201063
0.0161576
0.0182491
0.0168397
0.0154186
0.0206396
0.0154173
0.0182167
0.0175633
0.0107658
0.0132916
0.0123614
0.0218248
0.00863243
0.00909391
0.00889651
0.020611
0.00821962
0.00805019
0.0143409
0.00750817
0.0166876
0.0167128
0.00770717
0.0181745
0.00855495
0.00850427
0.00958084
0.00811375
0.00796612
0.0118856
0.00946876
0.00860495
0.00813896
0.0166401
0.0189922
0.00895874
0.0183666
0.00738115
0.0186317
0.014803
0.00771138
0.00652934
0.00728467
0.0096657
0.0160008
0.0131721
0.0055103
0.00611645
0.0178376
0.00518697
0.00518693
0.00587742
0.00659725
0.00745774
0.00867785
0.0143497
0.0132823
0.01785
0.00521139
0.00521135
0.0156869
0.00645252
0.012718
0.00584687
0.00588167
0.00774968
0.0134497
0.013927
0.014837
0.0135976
0.0134494
0.00293822
0.0217101
0.003748
0.00363134
0.0175381
0.0174164
0.00376311
0.00261375
0.00368287
0.0161775
SCALARS rr_uec(PEX,_P_ext) float
LOOKUP_TABLE default
-0.0614135
-0.139963
-0.111776
-0.146099
-0.0763958
-0.118634
-0.0607238
-0.145288
-0.124921
-0.157289
-0.0557377
-0.145733
-0.128248
-0.135448
-0.158693
-0.133209
-0.114569
-0.129521
-0.116015
-0.113425
-0.12759
-0.0226572
-0.130729
-0.120486
-0.109216
-0.125993
-0.0516374
-0.110669
-0.0868501
-0.102248
-0.113299
-0.0897812
-0.0572018
-0.0766132
-0.0752987
-0.0767859
-0.0994055
-0.075452
-0.113184
-0.0642954
-0.0730004
-0.0876083
-0.0876175
-0.124345
-0.071773
-0.0791879
-0.109178
-0.11056
-0.103607
-0.0991695
-0.101831
-0.0789675
-0.122617
-0.10147
-0.112887
-0.0520646
-0.0803977
-0.102214
-0.080395
-0.12365
-0.146251
-0.143337
-0.0507851
-0.101063
-0.13729
-0.129568
-0.141469
-0.122372
-0.112687
-0.160635
-0.133034
-0.131584
-0.0901966
-0.104879
-0.111089
-0.0590459
-0.114382
-0.128366
-0.123402
-0.0871438
-0.0786394
-0.0862282
-0.163242
-0.0787485
-0.106182
-0.0394368
-0.12784
-0.106836
-0.076008
-0.0111495
-0.0879253
-0.0121262
-0.0970571
-0.0930094
-0.0832126
-0.0758952
-0.0722249
-0.138091
-0.114467
-0.110188
-0.0936129
-0.0898052
-0.0755598
-0.130791
-0.132956
-0.119729
-0.105297
-0.106815
-0.0802087
-0.159542
-0.102521
-0.0541381
-0.0723538
-0.143141
-0.134096
-0.0979899
-0.0932296
-0.0600164
-0.096699
-0.0976027
-0.0848978
-0.154693
-0.159514
-0.137019
-0.150742
-0.11827
-0.0669058
-0.149095
-0.065414
-0.0843805
-0.069492
-0.142315
-0.139008
-0.139735
-0.0934036
-0.0566459
-0.0626134
-0.102408
-0.125159
-0.0566268
-0.0780105
-0.120693
-0.0914491
-0.147364
-0.073048
-0.120248
-0.109132
-0.105509
-0.0674381
-0.0861831
-0.0961002
-0.137331
-0.0805562
-0.124342
-0.144014
-0.14631
-0.0957353
-0.0803529
-0.079897
-0.125535
-0.10539
-0.0798868
-0.0528615
-0.0780236
-0.0776063
-0.134418
-0.0814356
-0.0823338
-0.0891875
-0.0793583
-0.118506
-0.0831141
-0.0735892
-0.0925083
-0.0878061
-0.105228
-0.117217
-0.112825
-0.0958443
-0.112549
-0.0865638
-0.130409
-0.139964
-0.0780235
-0.137097
-0.0779877
-0.135397
-0.12447
-0.116205
-0.118285
-0.1383
-0.0655834
-0.0859177
-0.0798915
-0.139485
-0.137327
-0.12732
-0.138666
-0.141187
-0.118578
-0.145405
-0.0975593
-0.0880445
-0.158753
-0.092716
-0.14419
-0.11486
-0.0733161
-0.0881997
-0.14388
-0.119738
-0.109022
-0.140449
-0.137773
-0.0891364
-0.0883935
-0.0858615
-0.122223
-0.134863
-0.154992
-0.148907
-0.162011
-0.146805
-0.160431
-0.134604
-0.140652
-0.141748
-0.133625
-0.140379
-0.129225
-0.127302
-0.0903253
-0.121292
-0.141916
-0.0985778
-0.144592
-0.132829
-0.153865
-0.0925659
-0.146326
-0.139879
-0.0909038
-0.125327
-0.0902899
-0.140829
-0.128562
-0.0946446
-0.0890812
-0.0770409
-0.0886222
-0.141022
-0.064695
-0.10869
-0.0887502
-0.0995792
-0.146463
-0.141772
-0.0444647
-0.142288
-0.0774882
-0.0840114
-0.145664
-0.118409
-0.0850011
-0.162521
-0.0924463
-0.0444648
-0.0859081
-0.126434
-0.157826
-0.119654
-0.140772
-0.131835
-0.069205
-0.0678273
-0.0580043
-0.0665932
-0.0943204
-0.072134
-0.116208
-0.0727223
-0.125152
-0.0893771
-0.0860382
-0.100647
-0.0935787
-0.12431
-0.0897338
-0.0923405
-0.0407608
-0.093043
-0.134581
-0.134676
-0.121976
-0.0895611
-0.0583266
-0.169337
-0.113772
-0.0950142
-0.0875932
-0.0872349
-0.0903441
-0.11009
-0.0887261
-0.0635433
-0.0875631
-0.0600597
-0.108486
-0.0893333
-0.0379914
-0.0841402
-0.0994962
-0.0893361
-0.137478
-0.092773
-0.119643
-0.0458871
-0.0960335
-0.0917289
-0.0801195
-0.0861133
-0.101621
-0.0956532
-0.100026
-0.0850594
-0.0863981
-0.0933016
-0.124734
-0.0879819
-0.124655
-0.112526
-0.0888157
-0.0912755
-0.0921517
-0.101926
-0.092
-0.0861417
-0.0978896
-0.102664
-0.121195
-0.0921325
-0.0915349
-0.132524
-0.130668
-0.0880484
-0.0888347
-0.039667
-0.107314
-0.0744573
-0.100727
-0.0445411
-0.0462359
-0.0413194
-0.0419959
-0.0445529
-0.0469337
-0.0483671
-0.113014
-0.0836369
-0.0843774
-0.0964656
-0.0939687
-0.0927961
-0.0981616
-0.0908124
-0.092881
-0.0944451
-0.092452
-0.113529
-0.0840548
-0.116697
-0.0907967
-0.0876487
-0.0925685
-0.0987806
-0.103209
-0.096154
-0.11012
-0.102879
-0.0954002
-0.068794
-0.0959532
-0.0938287
-0.101031
-0.0967789
-0.091701
-0.0872092
-0.0960646
-0.100204
-0.13603
-0.0898409
-0.132254
-0.137858
-0.0944006
-0.13208
-0.101321
-0.0811615
-0.110564
-0.0969031
-0.0697951
-0.0612924
-0.109159
-0.116264
-0.0984194
-0.0818157
-0.0984319
-0.0466604
-0.097307
-0.0913005
-0.0466137
-0.017868
-0.0195461
-0.0842895
-0.0898778
-0.104389
-0.100346
-0.00918683
-0.00959931
-0.0993815
-0.100418
-0.0950562
-0.0350241
-0.0840994
-0.0977761
-0.0996901
-0.0859929
-0.0759009
-0.0364732
-0.143993
-0.090441
-0.11051
-0.112238
-0.080658
-0.102081
-0.0788619
-0.0870208
-0.0432342
-0.0652472
-0.102203
-0.102837
-0.0883828
-0.092827
-0.0957922
-0.101004
-0.0966085
-0.0476235
-0.0847756
-0.0955695
-0.0903377
-0.135566
-0.0476141
-0.0733704
-0.0755735
-0.0716285
-0.0465715
-0.0465746
-0.0820582
-0.066249
-0.0947529
-0.0509658
-0.0556154
-0.0181599
-0.0181598
-0.038011
-0.0603775
-0.0406781
-0.0807326
-0.0873241
-0.0931854
-0.104999
-0.0952415
-0.0881784
-0.0694212
-0.0429451
-0.0871628
-0.0903041
-0.0874308
-0.0482607
-0.0446185
-0.0347432
-0.0873074
-0.0890714
-0.0715696
-0.0808417
-0.0745989
-0.068312
-0.0914327
-0.068306
-0.0806976
-0.0778083
-0.0477006
-0.0588918
-0.0547438
-0.0966846
-0.0382254
-0.0402694
-0.0393943
-0.0913095
-0.0363976
-0.0356464
-0.063526
-0.0332468
-0.0739356
-0.0740475
-0.0341283
-0.0805084
-0.0378857
-0.0376579
-0.0424284
-0.0359286
-0.0352777
-0.0526619
-0.0419329
-0.0381039
-0.0360402
-0.0737149
-0.0841398
-0.0396732
-0.0813629
-0.0326839
-0.0825385
-0.0655737
-0.0341467
-0.0289146
-0.0322569
-0.0428004
-0.0708807
-0.0583602
-0.0244171
-0.0271029
-0.0790212
-0.0229844
-0.0229841
-0.0260438
-0.0292325
-0.0330272
-0.0384493
-0.063575
-0.0588489
-0.0790758
-0.0230919
-0.0230917
-0.0695031
-0.0285721
-0.0563376
-0.0258906
-0.0260475
-0.0343201
-0.0595938
-0.0617084
-0.0657404
-0.060249
-0.0595922
-0.0130197
-0.0961948
-0.0166076
-0.0160912
-0.0777091
-0.07717
-0.0166751
-0.0115819
-0.016319
-0.07168
SCALARS cell_type float
LOOKUP_TABLE default
0
0
0
0
0
0
0
0
0
0
0
0
0
0
0
0
0
0
0
0
0
1
0
0
0
0
0
0
0
0
0
0
0
0
0
0
0
0
0
0
0
0
0
0
0
0
0
0
0
0
0
0
0
0
0
0
0
0
0
0
0
0
0
0
0
0
0
0
0
0
0
0
0
0
0
0
0
0
0
0
0
0
0
0
0
0
0
0
0
0
0
0
0
0
0
0
0
0
0
0
0
0
0
0
0
0
0
0
0
0
0
0
0
0
0
0
0
0
0
0
0
0
0
0
0
0
0
0
0
0
0
0
0
0
0
0
0
0
0
0
0
0
0
0
0
0
0
0
0
0
0
0
0
0
0
0
0
0
0
0
0
0
0
0
0
0
0
0
0
0
0
0
0
0
0
0
0
0
0
0
0
0
0
0
0
0
0
0
0
0
0
0
0
0
0
0
0
0
0
0
0
0
0
0
0
0
0
0
0
0
0
0
0
0
0
0
0
0
0
0
0
0
0
0
0
0
0
0
0
0
0
0
0
0
0
0
0
0
0
0
0
0
0
0
0
0
0
0
0
0
0
0
0
0
0
0
0
0
0
0
0
0
0
0
0
0
0
0
0
0
0
0
0
0
0
0
0
0
0
0
0
0
0
0
0
0
0
0
0
0
0
0
0
0
0
0
0
0
0
0
0
0
0
0
0
0
0
0
0
0
0
0
0
0
0
0
0
0
0
0
0
0
0
0
0
0
0
0
0
0
0
0
0
0
0
0
0
0
0
0
0
0
0
0
0
0
0
0
0
0
2
2
2
2
2
2
2
0
0
0
0
0
0
0
0
0
0
0
0
0
0
0
0
0
0
0
0
0
0
0
0
0
0
0
0
0
0
0
0
0
0
0
0
0
0
0
0
0
0
0
0
0
0
0
0
0
0
0
0
0
0
0
0
0
0
0
1
1
0
0
0
0
0
0
0
0
0
0
0
0
0
0
0
0
0
0
0
0
0
0
0
0
0
0
0
0
0
0
0
0
0
0
0
0
0
0
0
0
0
0
0
1
1
0
0
0
0
0
0
0
0
0
0
0
0
0
0
0
0
0
0
0
0
0
0
0
0
0
0
0
0
0
0
0
0
0
0
0
0
0
0
0
0
0
0
0
0
0
0
0
0
0
0
0
0
0
0
0
0
0
0
0
0
0
0
0
0
0
1
1
0
0
0
0
0
0
0
0
0
0
0
0
0
0
0
0
0
0
0
0
0
0
0
0
0
0
0
0
0
0
0
0
0
TENSORS Lagrange_strain float
0.0305682 -0.00319824 -8.49887e-08
-0.00319824 0.0133891 1.72169e-07
-8.49887e-08 1.72169e-07 0.00740184

0.0291929 -0.00280089 7.43291e-08
-0.00280089 0.0335538 2.8152e-08
7.43291e-08 2.8152e-08 0.0331635

0.0300214 0.00367901 2.60287e-07
0.00367901 0.0311696 -8.46065e-08
2.60287e-07 -8.46065e-08 0.0304679

0.029162 -0.00392507 8.42113e-08
-0.00392507 0.0327988 3.14856e-08
8.42113e-08 3.14856e-08 0.0330884

0.0353666 0.00266936 5.26065e-08
0.00266936 0.0380855 6.63091e-08
5.26065e-08 6.63091e-08 0.0352923

0.0277354 -0.00236696 -1.19597e-07
-0.00236696 0.0333838 2.79152e-08
-1.19597e-07 2.79152e-08 0.0304389

0.0302621 0.00339405 -8.2848e-08
0.00339405 0.0134946 7.97253e-08
-8.2848e-08 7.97253e-08 0.00746324

0.0317548 0.00393967 -3.9227e-08
0.00393967 0.0312001 -1.51003e-07
-3.9227e-08 -1.51003e-07 0.0315607

0.0332417 0.000715567 -2.32129e-08
0.000715567 0.0262214 6.33197e-10
-2.32129e-08 6.33197e-10 0.0281421

0.0354671 -0.000991067 -4.27546e-08
-0.000991067 0.0275512 -6.21556e-08
-4.27546e-08 -6.21556e-08 0.0327211

0.0280614 0.00205105 -1.62453e-07
0.00205105 0.013809 2.20733e-07
-1.62453e-07 2.20733e-07 0.0117535

0.0279533 -0.00176559 -6.68021e-08
-0.00176559 0.0350064 1.95829e-07
-6.68021e-08 1.95829e-07 0.0315492

0.0311215 0.00365724 -1.10327e-07
0.00365724 0.0313002 -4.91398e-08
-1.10327e-07 -4.91398e-08 0.0310795

0.0290692 -0.00188003 -8.64574e-08
-0.00188003 0.0347992 -1.56157e-08
-8.64574e-08 -1.56157e-08 0.0325465

0.0346315 0.00441814 1.27052e-07
0.00441814 0.0343628 -5.34137e-08
1.27052e-07 -5.34137e-08 0.0348847

0.0343275 7.30724e-05 -9.17428e-08
7.30724e-05 0.027286 -5.2471e-08
-9.17428e-08 -5.2471e-08 0.0307784

0.028693 -0.0023538 -9.69074e-08
-0.0023538 0.0360136 -5.14595e-08
-9.69074e-08 -5.14595e-08 0.0334501

0.0345733 -0.000353204 -6.03552e-08
-0.000353204 0.0273564 -4.00138e-08
-6.03552e-08 -4.00138e-08 0.0319771

0.02692 0.00347814 1.36962e-07
0.00347814 0.0309449 4.60558e-08
1.36962e-07 4.60558e-08 0.0275767

0.0338845 -0.000550294 2.99473e-08
-0.000550294 0.0264093 1.23276e-07
2.99473e-08 1.23276e-07 0.0301343

0.026622 0.0011352 9.41755e-09
0.0011352 0.0340335 -1.15839e-07
9.41755e-09 -1.15839e-07 0.02915

0.0452949 0.000853056 -8.9912e-07
0.000853056 0.0452654 -2.93624e-07
-8.9912e-07 -2.93624e-07 0.0366382

0.0336753 0.000247644 1.71074e-08
0.000247644 0.0263153 -3.62428e-09
1.71074e-08 -3.62428e-09 0.0298052

0.0293097 -0.00363209 8.70132e-08
-0.00363209 0.031136 -1.76119e-07
8.70132e-08 -1.76119e-07 0.0300467

0.0337797 0.000900039 -1.2584e-07
0.000900039 0.0264964 3.03875e-08
-1.2584e-07 3.03875e-08 0.0300812

0.0285461 0.00250775 1.00465e-07
0.00250775 0.0338942 4.60334e-08
1.00465e-07 4.60334e-08 0.032287

0.0286296 0.00052676 6.64743e-08
0.00052676 0.0176898 -2.54902e-07
6.64743e-08 -2.54902e-07 0.0131713

0.0309144 0.00403462 -3.85523e-08
0.00403462 0.0306464 -2.08925e-07
-3.85523e-08 -2.08925e-07 0.0306107

0.0259248 0.00477636 -2.16106e-08
0.00477636 0.025733 -1.17732e-08
-2.16106e-08 -1.17732e-08 0.021128

0.0415295 0.00137007 -8.35182e-08
0.00137007 0.0383502 1.00314e-07
-8.35182e-08 1.00314e-07 0.0361353

0.0344108 0.00187127 -1.31886e-07
0.00187127 0.0279525 1.98069e-08
-1.31886e-07 1.98069e-08 0.031

0.0217597 -0.0022878 1.16393e-07
-0.0022878 0.0299925 -2.11046e-08
1.16393e-07 -2.11046e-08 0.0211249

0.0228635 -0.00535239 -6.56439e-08
-0.00535239 0.023473 3.8463e-08
-6.56439e-08 3.8463e-08 0.0125789

0.0348327 0.000800629 -4.80159e-08
0.000800629 0.0422554 -1.88057e-07
-4.80159e-08 -1.88057e-07 0.0357863

0.0374534 -0.000661519 6.8512e-08
-0.000661519 0.0412026 5.99906e-09
6.8512e-08 5.99906e-09 0.0359009

0.0410758 0.00281311 6.74843e-08
0.00281311 0.0359863 -1.46375e-07
6.74843e-08 -1.46375e-07 0.0357666

0.037254 0.000705174 6.98046e-08
0.000705174 0.0432158 1.58312e-09
6.98046e-08 1.58312e-09 0.0361417

0.0402612 -0.00121883 2.48987e-07
-0.00121883 0.0378303 9.65913e-08
2.48987e-07 9.65913e-08 0.0358082

0.0312158 -0.00367783 8.21688e-08
-0.00367783 0.0311235 -1.76562e-07
8.21688e-08 -1.76562e-07 0.0309255

0.0227475 0.00527905 1.50185e-07
0.00527905 0.0237091 2.38915e-07
1.50185e-07 2.38915e-07 0.0125811

0.0297608 -0.00231582 -2.7378e-09
-0.00231582 0.022031 -1.91682e-07
-2.7378e-09 -1.91682e-07 0.0208748

0.0376192 -0.00052259 1.13934e-07
-0.00052259 0.0430641 9.64631e-08
1.13934e-07 9.64631e-08 0.0361444

0.0412407 0.00263447 5.25773e-08
0.00263447 0.0394151 -1.6211e-07
5.25773e-08 -1.6211e-07 0.0361269

0.034301 -0.00161727 8.89568e-08
-0.00161727 0.0279945 -1.25638e-07
8.89568e-08 -1.25638e-07 0.031084

0.0231057 -0.00552573 1.34743e-07
-0.00552573 0.0235626 -1.80579e-07
1.34743e-07 -1.80579e-07 0.016216

0.0299432 -0.00233233 -1.03363e-07
-0.00233233 0.0221551 7.24233e-08
-1.03363e-07 7.24233e-08 0.0213442

0.0258936 0.00222738 -7.13271e-09
0.00222738 0.0326543 -8.10593e-08
-7.13271e-09 -8.10593e-08 0.0279153

0.0275508 0.0025288 1.38765e-07
0.0025288 0.0323738 4.35763e-08
1.38765e-07 4.35763e-08 0.0284908

0.0341754 -0.00214089 1.06526e-08
-0.00214089 0.0271072 -2.00469e-07
1.06526e-08 -2.00469e-07 0.0304722

0.0229025 -0.00439234 -9.19905e-08
-0.00439234 0.0272488 3.89013e-08
-9.19905e-08 3.89013e-08 0.0198504

0.029494 0.00247144 1.22556e-08
0.00247144 0.0218342 2.07327e-07
1.22556e-08 2.07327e-07 0.0202809

0.0298722 -0.00327095 -1.11558e-07
-0.00327095 0.0245135 -3.79354e-08
-1.11558e-07 -3.79354e-08 0.0230482

0.0344777 0.00257782 5.75929e-08
0.00257782 0.0382039 2.24193e-08
5.75929e-08 2.24193e-08 0.035271

0.0286892 0.00383853 -1.80508e-07
0.00383853 0.0257796 -7.69399e-09
-1.80508e-07 -7.69399e-09 0.0231168

0.0349287 -0.00291607 -1.41479e-07
-0.00291607 0.0374327 3.61243e-08
-1.41479e-07 3.61243e-08 0.0351894

0.02558 -0.00545538 -2.26969e-07
-0.00545538 0.0229023 2.05853e-07
-2.26969e-07 2.05853e-07 0.0158196

0.037347 0.000746152 1.33115e-07
0.000746152 0.0414136 1.06126e-08
1.33115e-07 1.06126e-08 0.0359214

0.0231676 -0.000693231 9.00664e-08
-0.000693231 0.0313133 -6.67973e-08
9.00664e-08 -6.67973e-08 0.0231028

0.0410299 0.00137991 2.97905e-07
0.00137991 0.0377071 1.6118e-07
2.97905e-07 1.6118e-07 0.0358996

0.0276757 0.0028051 1.14476e-07
0.0028051 0.0327496 -4.42086e-08
1.14476e-07 -4.42086e-08 0.0302312

0.0361394 0.000784764 2.49316e-08
0.000784764 0.0281316 2.16848e-07
2.49316e-08 2.16848e-07 0.0336732

0.0362547 0.00153422 -1.53556e-08
0.00153422 0.0316933 -1.80829e-07
-1.53556e-08 -1.80829e-07 0.0342209

0.0286373 0.00405702 -1.74027e-07
0.00405702 0.0198974 1.67905e-07
-1.74027e-07 1.67905e-07 0.0137592

0.0309727 -0.000783644 -1.29167e-07
-0.000783644 0.0370852 -7.15577e-08
-1.29167e-07 -7.15577e-08 0.0338817

0.0315551 0.00124341 -2.42936e-07
0.00124341 0.0364212 1.58889e-07
-2.42936e-07 1.58889e-07 0.0342597

0.0285491 -0.000375308 -9.86433e-08
-0.000375308 0.0369562 -2.01247e-08
-9.86433e-08 -2.01247e-08 0.0326708

0.029603 0.00307144 1.62645e-07
0.00307144 0.034791 -1.37972e-07
1.62645e-07 -1.37972e-07 0.0337091

0.0347195 0.00112217 1.94229e-09
0.00112217 0.0278388 2.98398e-08
1.94229e-09 2.98398e-08 0.0322087

0.0291874 -0.00369915 1.67574e-07
-0.00369915 0.031021 2.23496e-07
1.67574e-07 2.23496e-07 0.0299097

0.0350548 -0.000236858 -8.69796e-08
-0.000236858 0.0275801 -6.30359e-08
-8.69796e-08 -6.30359e-08 0.0333933

0.0344525 -0.00254807 8.93871e-08
-0.00254807 0.0381341 -5.66472e-08
8.93871e-08 -5.66472e-08 0.035261

0.035011 0.00284947 1.13466e-07
0.00284947 0.0375703 1.70686e-07
1.13466e-07 1.70686e-07 0.0352409

0.0218887 -0.00213178 9.02829e-08
-0.00213178 0.0299222 -1.56539e-08
9.02829e-08 -1.56539e-08 0.0208514

0.0347014 -0.00369096 -1.73355e-08
-0.00369096 0.031958 -2.07832e-07
-1.73355e-08 -2.07832e-07 0.0330791

0.0292922 -0.00329735 4.24883e-09
-0.00329735 0.0321127 -6.46777e-08
4.24883e-09 -6.46777e-08 0.0304335

0.0267797 -0.00401686 2.31772e-07
-0.00401686 0.0176054 -9.99714e-08
2.31772e-07 -9.99714e-08 0.012726

0.0324043 0.000418902 1.58231e-08
0.000418902 0.038105 1.94558e-07
1.58231e-08 1.94558e-07 0.0344059

0.034537 0.00381722 1.32386e-07
0.00381722 0.0309416 -5.8307e-08
1.32386e-07 -5.8307e-08 0.0326604

0.0283766 0.00258142 9.85446e-08
0.00258142 0.0341295 2.03686e-09
9.85446e-08 2.03686e-09 0.0322139

0.031542 0.00103786 1.13035e-07
0.00103786 0.022844 9.44841e-08
1.13035e-07 9.44841e-08 0.0240693

0.0270973 -0.00435864 2.0351e-07
-0.00435864 0.0237368 -1.74933e-07
2.0351e-07 -1.74933e-07 0.0183236

0.0362604 -0.00140311 1.64258e-07
-0.00140311 0.0387424 2.0314e-07
1.64258e-07 2.0314e-07 0.0354014

0.0315563 0.00317091 -1.65973e-07
0.00317091 0.0344017 -4.88798e-08
-1.65973e-07 -4.88798e-08 0.0340905

0.0273016 -0.00415606 6.76572e-09
-0.00415606 0.022175 1.49828e-07
6.76572e-09 1.49828e-07 0.0184114

0.0303581 0.00139112 7.17453e-08
0.00139112 0.0228305 9.50087e-08
7.17453e-08 9.50087e-08 0.0209546

0.0186021 -0.00269698 4.73482e-08
-0.00269698 0.0289287 7.05962e-08
4.73482e-08 7.05962e-08 0.0158931

0.0272001 0.00188898 6.04372e-08
0.00188898 0.03432 6.50003e-09
6.04372e-08 6.50003e-09 0.0306547

0.035382 0.00305683 -8.96542e-08
0.00305683 0.0308202 1.3726e-07
-8.96542e-08 1.3726e-07 0.0327539

0.0226479 0.0053858 -1.05118e-07
0.0053858 0.0240886 -5.58189e-08
-1.05118e-07 -5.58189e-08 0.0161986

0.0459481 0.00223843 -3.72823e-07
0.00223843 0.0417503 2.6411e-07
-3.72823e-07 2.6411e-07 0.0366392

0.0230814 -0.000534294 5.03447e-08
-0.000534294 0.0313543 -1.00348e-07
5.03447e-08 -1.00348e-07 0.0230726

0.0463614 -0.00225604 4.32268e-07
-0.00225604 0.0412944 -1.3498e-07
4.32268e-07 -1.3498e-07 0.0365943

0.0370653 -0.0036242 -1.38974e-07
-0.0036242 0.0334911 3.19027e-08
-1.38974e-07 3.19027e-08 0.034621

0.0351375 0.00361936 -3.92618e-08
0.00361936 0.0300042 -4.90815e-08
-3.92618e-08 -4.90815e-08 0.0324566

0.029962 -0.00315903 -1.43115e-08
-0.00315903 0.0246905 -6.67718e-08
-1.43115e-08 -6.67718e-08 0.023286

0.0230123 0.0040298 -8.73236e-08
0.0040298 0.027779 6.68266e-08
-8.73236e-08 6.68266e-08 0.0203821

0.021094 -0.0013785 8.33817e-08
-0.0013785 0.0298953 6.64702e-08
8.33817e-08 6.64702e-08 0.0182516

0.028746 0.00288879 -1.60786e-07
0.00288879 0.0342273 -4.41601e-08
-1.60786e-07 -4.41601e-08 0.0326998

0.0370122 0.00223598 -9.10791e-08
0.00223598 0.0334522 -1.31568e-08
-9.10791e-08 -1.31568e-08 0.0343843

0.0281484 0.00198815 9.43801e-08
0.00198815 0.0340599 -1.8731e-08
9.43801e-08 -1.8731e-08 0.0308655

0.0318825 0.00207298 8.36512e-08
0.00207298 0.0252541 4.82525e-08
8.36512e-08 4.82525e-08 0.0256176

0.0239076 -0.00277426 -1.33101e-07
-0.00277426 0.0297649 -3.91429e-08
-1.33101e-07 -3.91429e-08 0.0215616

0.0278986 -0.00376368 2.0342e-07
-0.00376368 0.0218153 -1.74993e-07
2.0342e-07 -1.74993e-07 0.018076

0.0293315 -0.0032319 7.17533e-08
-0.0032319 0.0326299 -7.14566e-08
7.17533e-08 -7.14566e-08 0.0324029

0.0306264 0.00361466 3.81657e-08
0.00361466 0.0322285 1.67502e-07
3.81657e-08 1.67502e-07 0.0323707

0.0287081 0.00304807 -1.47742e-08
0.00304807 0.0340273 3.15748e-08
-1.47742e-08 3.15748e-08 0.0326302

0.0292069 0.00172509 -8.11584e-08
0.00172509 0.0376177 2.45746e-07
-8.11584e-08 2.45746e-07 0.0338462

0.0344772 0.00123252 5.74001e-08
0.00123252 0.0275238 4.73978e-08
5.74001e-08 4.73978e-08 0.0306748

0.0199607 -0.000605271 4.22551e-08
-0.000605271 0.0296607 5.57198e-08
4.22551e-08 5.57198e-08 0.018104

0.0297973 -0.00486299 6.55773e-08
-0.00486299 0.0330494 -1.29362e-08
6.55773e-08 -1.29362e-08 0.0337416

0.0290812 0.00359996 -1.27459e-07
0.00359996 0.0313596 -4.66093e-08
-1.27459e-07 -4.66093e-08 0.0302641

0.0181056 0.000282938 -3.70223e-08
0.000282938 0.0293108 9.27353e-08
-3.70223e-08 9.27353e-08 0.0168784

0.0278433 0.00442367 -9.30066e-08
0.00442367 0.0209681 2.32836e-07
-9.30066e-08 2.32836e-07 0.0174547

0.0291911 -0.0030206 8.82809e-08
-0.0030206 0.0327033 1.15993e-07
8.82809e-08 1.15993e-07 0.0321853

0.0352427 0.000759638 -1.8513e-08
0.000759638 0.0273386 6.85402e-08
-1.8513e-08 6.85402e-08 0.0325527

0.029427 0.00352011 -9.35699e-08
0.00352011 0.0252011 -1.30852e-07
-9.35699e-08 -1.30852e-07 0.0231112

0.0396362 0.00171017 -8.50529e-08
0.00171017 0.0390394 4.95549e-08
-8.50529e-08 4.95549e-08 0.03594

0.0283748 0.00312339 1.79412e-08
0.00312339 0.0224014 -3.52628e-08
1.79412e-08 -3.52628e-08 0.0182864

0.0394891 -0.00175085 -2.38479e-07
-0.00175085 0.0390652 1.38485e-07
-2.38479e-07 1.38485e-07 0.0359051

0.0232609 0.000103438 2.82875e-08
0.000103438 0.0315178 -7.47855e-08
2.82875e-08 -7.47855e-08 0.0231196

0.0327584 -0.00028839 7.66403e-08
-0.00028839 0.0246599 1.04063e-07
7.66403e-08 1.04063e-07 0.0269662

0.0380546 -0.00212907 5.62535e-08
-0.00212907 0.0304639 -5.39692e-08
5.62535e-08 -5.39692e-08 0.0347931

0.0292383 0.00320575 -9.41741e-08
0.00320575 0.0332779 1.00876e-07
-9.41741e-08 1.00876e-07 0.0333428

0.0289504 -0.00177254 -5.64721e-09
-0.00177254 0.0366088 -4.7499e-08
-5.64721e-09 -4.7499e-08 0.0334995

0.0365834 -0.00108485 -8.82611e-08
-0.00108485 0.0264763 -6.11117e-08
-8.82611e-08 -6.11117e-08 0.0338599

0.0311801 -0.00292566 -1.37413e-07
-0.00292566 0.0383058 9.3881e-08
-1.37413e-07 9.3881e-08 0.0348435

0.0381655 -0.000885232 2.47149e-08
-0.000885232 0.0387309 -2.15895e-07
2.47149e-08 -2.15895e-07 0.0358352

0.0301797 -0.00393979 6.58725e-08
-0.00393979 0.0327105 1.16145e-07
6.58725e-08 1.16145e-07 0.0327632

0.0213327 0.00146951 -1.00204e-07
0.00146951 0.0296135 5.68069e-08
-1.00204e-07 5.68069e-08 0.0182955

0.0293878 -0.00364567 -6.26018e-08
-0.00364567 0.025349 7.45758e-08
-6.26018e-08 7.45758e-08 0.0231819

0.0328593 -0.00181717 1.20561e-07
-0.00181717 0.0397171 2.21769e-07
1.20561e-07 2.21769e-07 0.0352408

0.0350908 7.65779e-05 -5.16833e-09
7.65779e-05 0.0272219 6.97369e-08
-5.16833e-09 6.97369e-08 0.0332511

0.0308182 -0.00282913 -7.71185e-10
-0.00282913 0.0348916 -5.57167e-08
-7.71185e-10 -5.57167e-08 0.0340839

0.0295342 0.00338865 -7.76831e-08
0.00338865 0.0328713 9.03816e-08
-7.76831e-08 9.03816e-08 0.0333258

0.0264602 -0.0040633 2.02725e-07
-0.0040633 0.0272614 4.53633e-08
2.02725e-07 4.53633e-08 0.0215843

0.0371724 -0.000958232 -1.12651e-08
-0.000958232 0.04161 -1.81998e-07
-1.12651e-08 -1.81998e-07 0.0358863

0.0227107 -0.00423758 -1.85459e-07
-0.00423758 0.0272436 1.88493e-07
-1.85459e-07 1.88493e-07 0.0168773

0.0341829 -0.00252494 7.72962e-09
-0.00252494 0.0286064 9.17555e-08
7.72962e-09 9.17555e-08 0.0310442

0.0364254 0.000289808 1.24973e-07
0.000289808 0.0294374 1.00911e-07
1.24973e-07 1.00911e-07 0.0341936

0.0396407 0.00239671 -5.31424e-08
0.00239671 0.0391129 7.46975e-11
-5.31424e-08 7.46975e-11 0.0358674

0.0238559 0.0026092 -4.91625e-08
0.0026092 0.0301512 -3.42993e-09
-4.91625e-08 -3.42993e-09 0.0217987

0.0334306 0.00358145 7.89116e-08
0.00358145 0.0307149 -2.38797e-07
7.89116e-08 -2.38797e-07 0.0317671

0.0316429 -0.00319425 -2.75584e-08
-0.00319425 0.0265519 2.70563e-07
-2.75584e-08 2.70563e-07 0.0269352

0.028929 -0.00234082 3.14043e-08
-0.00234082 0.0342348 3.32345e-08
3.14043e-08 3.32345e-08 0.0326057

0.0262443 0.0045014 -9.4805e-08
0.0045014 0.0245576 -1.02711e-07
-9.4805e-08 -1.02711e-07 0.0180809

0.0284224 -0.0028667 4.87331e-08
-0.0028667 0.0340322 4.61981e-08
4.87331e-08 4.61981e-08 0.0324489

0.0331489 0.00405875 -3.82183e-08
0.00405875 0.0304646 1.246e-07
-3.82183e-08 1.246e-07 0.0315422

0.0333346 -0.00331185 1.85395e-07
-0.00331185 0.0283568 3.48584e-08
1.85395e-07 3.48584e-08 0.0300457

0.0291606 -0.00329572 3.08193e-07
-0.00329572 0.031987 5.15988e-08
3.08193e-07 5.15988e-08 0.0304371

0.0314553 -0.00242931 1.57669e-07
-0.00242931 0.0247186 -1.70675e-10
1.57669e-07 -1.70675e-10 0.0251561

0.0329551 -0.00246665 1.73586e-08
-0.00246665 0.0267094 2.76457e-07
1.73586e-08 2.76457e-07 0.0285964

0.029491 -0.00334169 1.33299e-07
-0.00334169 0.0329502 -1.30608e-08
1.33299e-07 -1.30608e-08 0.0334072

0.0261339 0.00463384 8.43787e-08
0.00463384 0.0255412 -1.3832e-08
8.43787e-08 -1.3832e-08 0.0210923

0.0281498 0.00201669 8.82906e-08
0.00201669 0.0343356 1.14037e-08
8.82906e-08 1.14037e-08 0.0311093

0.0308865 0.00348114 1.8488e-08
0.00348114 0.0322554 -5.00527e-08
1.8488e-08 -5.00527e-08 0.0326001

0.029157 0.00334789 -6.46705e-08
0.00334789 0.0331917 -7.75046e-08
-6.46705e-08 -7.75046e-08 0.0332603

0.0289838 0.0015231 -3.32482e-08
0.0015231 0.0354703 1.11732e-07
-3.32482e-08 1.11732e-07 0.0326954

0.0310524 -0.00106173 -1.22364e-07
-0.00106173 0.0231413 3.8483e-08
-1.22364e-07 3.8483e-08 0.0220778

0.0238838 0.00240563 -1.10589e-07
0.00240563 0.0304103 6.84564e-08
-1.10589e-07 6.84564e-08 0.0221129

0.0292134 -0.00320404 -4.94936e-09
-0.00320404 0.0326365 -2.77447e-08
-4.94936e-09 -2.77447e-08 0.0316184

0.0289872 0.00335672 -2.23923e-08
0.00335672 0.0309326 7.09544e-08
-2.23923e-08 7.09544e-08 0.028568

0.0266125 -0.00459121 1.36196e-08
-0.00459121 0.0252302 7.97637e-08
1.36196e-08 7.97637e-08 0.0212565

0.0262778 0.00489333 -1.40166e-07
0.00489333 0.0209462 7.67443e-08
-1.40166e-07 7.67443e-08 0.0167622

0.0235027 -0.00428681 -9.36147e-08
-0.00428681 0.0274645 1.14672e-07
-9.36147e-08 1.14672e-07 0.0206263

0.0266717 -0.0040274 3.18403e-08
-0.0040274 0.0274825 1.21113e-07
3.18403e-08 1.21113e-07 0.0220499

0.0353652 -0.000906406 -9.10782e-08
-0.000906406 0.0273904 -4.15146e-08
-9.10782e-08 -4.15146e-08 0.032655

0.0260452 0.00392154 5.89494e-08
0.00392154 0.0280922 -1.36591e-07
5.89494e-08 -1.36591e-07 0.0221024

0.030788 0.00171652 -1.02266e-07
0.00171652 0.0233603 6.51109e-09
-1.02266e-07 6.51109e-09 0.0220255

0.0214309 0.00172205 -9.58346e-08
0.00172205 0.0302406 7.1126e-08
-9.58346e-08 7.1126e-08 0.0211327

0.0242627 -0.00288936 -1.60536e-07
-0.00288936 0.029952 -2.98827e-08
-1.60536e-07 -2.98827e-08 0.0220862

0.031346 -0.000131036 -3.32474e-09
-0.000131036 0.0392741 1.06856e-07
-3.32474e-09 1.06856e-07 0.0346711

0.0230584 0.000294622 6.98012e-08
0.000294622 0.0314607 -9.90996e-08
6.98012e-08 -9.90996e-08 0.0230623

0.022777 0.00400143 4.61611e-08
0.00400143 0.0281274 -1.37442e-07
4.61611e-08 -1.37442e-07 0.0206381

0.0288888 0.00158594 1.7858e-07
0.00158594 0.0358328 -6.58375e-08
1.7858e-07 -6.58375e-08 0.032894

0.0293161 -0.00358008 -1.82644e-08
-0.00358008 0.0251297 -7.35019e-08
-1.82644e-08 -7.35019e-08 0.0232398

0.0369774 0.00273303 -8.60826e-08
0.00273303 0.0297236 -1.32552e-07
-8.60826e-08 -1.32552e-07 0.0338021

0.0371763 0.00348324 -1.38178e-07
0.00348324 0.0334235 -2.58899e-07
-1.38178e-07 -2.58899e-07 0.0346526

0.0345442 -0.00244666 -1.86233e-08
-0.00244666 0.0285302 1.2767e-08
-1.86233e-08 1.2767e-08 0.0313793

0.0390572 -0.000265679 1.41788e-07
-0.000265679 0.0339249 1.09114e-07
1.41788e-07 1.09114e-07 0.0352087

0.0314796 -0.00418746 -1.21686e-07
-0.00418746 0.0317822 -9.41609e-09
-1.21686e-07 -9.41609e-09 0.0321568

0.0294621 0.00300762 -6.18486e-08
0.00300762 0.0223274 -4.93478e-08
-6.18486e-08 -4.93478e-08 0.0210666

0.0302302 0.00397309 -6.77809e-08
0.00397309 0.0326637 1.08484e-07
-6.77809e-08 1.08484e-07 0.0327204

0.0302776 0.00384689 1.72714e-07
0.00384689 0.0326076 -8.84174e-08
1.72714e-07 -8.84174e-08 0.0326752

0.0262445 0.00396177 4.09374e-08
0.00396177 0.0277678 7.22476e-08
4.09374e-08 7.22476e-08 0.021865

0.0344504 0.00357653 5.32594e-08
0.00357653 0.0317801 5.19143e-08
5.32594e-08 5.19143e-08 0.0328319

0.0302487 0.00045231 -1.01428e-07
0.00045231 0.0204285 7.96336e-09
-1.01428e-07 7.96336e-09 0.0205734

0.0331863 0.00420078 -7.49413e-08
0.00420078 0.0323736 -5.91835e-08
-7.49413e-08 -5.91835e-08 0.0334844

0.0305014 -0.00165448 -7.73006e-08
-0.00165448 0.0366164 -5.08366e-08
-7.73006e-08 -5.08366e-08 0.0336633

0.0373606 0.00323276 9.12535e-08
0.00323276 0.0334603 -1.98251e-08
9.12535e-08 -1.98251e-08 0.0346648

0.0307375 -0.00389574 4.0277e-09
-0.00389574 0.0322738 -8.62384e-08
4.0277e-09 -8.62384e-08 0.0326807

0.0293744 -0.000644814 -7.90361e-08
-0.000644814 0.0369035 -1.84347e-08
-7.90361e-08 -1.84347e-08 0.0328484

0.0288131 -0.00315231 -5.05798e-08
-0.00315231 0.0221401 7.27272e-08
-5.05798e-08 7.27272e-08 0.0187591

0.0290029 0.00384454 -5.1595e-08
0.00384454 0.0255782 -1.0514e-08
-5.1595e-08 -1.0514e-08 0.0230732

0.0217016 0.00189098 1.32877e-08
0.00189098 0.0300615 9.27047e-10
1.32877e-08 9.27047e-10 0.0210841

0.0349903 -0.000161276 1.1168e-07
-0.000161276 0.0273901 -4.15829e-08
1.1168e-07 -4.15829e-08 0.0333021

0.0344206 2.95644e-07 -8.5321e-08
2.95644e-07 0.0272751 -5.20665e-08
-8.5321e-08 -5.20665e-08 0.0320417

0.0291663 0.00303988 -1.41556e-07
0.00303988 0.0326804 -7.46241e-08
-1.41556e-07 -7.46241e-08 0.0321332

0.0314501 0.00316625 6.86282e-08
0.00316625 0.0342505 1.98458e-07
6.86282e-08 1.98458e-07 0.0340587

0.0291692 -0.00320431 1.00644e-07
-0.00320431 0.0332389 -6.54538e-08
1.00644e-07 -6.54538e-08 0.0333795

0.0287742 -8.55949e-05 -6.3206e-08
-8.55949e-05 0.036705 -7.19857e-08
-6.3206e-08 -7.19857e-08 0.0325261

0.0294646 0.00337582 1.52358e-07
0.00337582 0.0330752 -1.19865e-07
1.52358e-07 -1.19865e-07 0.0333552

0.0328598 -0.00134646 -1.18106e-07
-0.00134646 0.0253621 -1.33441e-07
-1.18106e-07 -1.33441e-07 0.0278293

0.0263553 -0.00425457 2.79821e-07
-0.00425457 0.0281801 -8.10646e-08
2.79821e-07 -8.10646e-08 0.0242679

0.0362985 -0.000331468 7.45353e-08
-0.000331468 0.0293838 -8.47383e-08
7.45353e-08 -8.47383e-08 0.0340285

0.0267814 -0.00444554 1.26066e-07
-0.00444554 0.0251908 -7.81972e-08
1.26066e-07 -7.81972e-08 0.0209494

0.0309 0.00250726 3.75859e-08
0.00250726 0.0350634 -9.13361e-08
3.75859e-08 -9.13361e-08 0.0340683

0.0351134 -0.00349691 3.54025e-08
-0.00349691 0.0303887 -6.67544e-08
3.54025e-08 -6.67544e-08 0.0326153

0.0305023 -0.00124979 3.93153e-08
-0.00124979 0.0229787 -9.3988e-08
3.93153e-08 -9.3988e-08 0.0214786

0.037148 -0.00307723 -1.1901e-07
-0.00307723 0.0316538 -1.8952e-07
-1.1901e-07 -1.8952e-07 0.0339884

0.0349697 0.000321974 3.73629e-08
0.000321974 0.0275552 -9.38879e-09
3.73629e-08 -9.38879e-09 0.0334304

0.0358441 -0.00308831 3.44034e-08
-0.00308831 0.0332585 -3.26656e-08
3.44034e-08 -3.26656e-08 0.034144

0.034929 -0.00341053 -1.19481e-07
-0.00341053 0.0295954 2.06135e-07
-1.19481e-07 2.06135e-07 0.0321786

0.0349099 -0.0011338 -1.2493e-07
-0.0011338 0.0278505 -9.6447e-08
-1.2493e-07 -9.6447e-08 0.0323419

0.0314903 -0.00306248 -1.6906e-07
-0.00306248 0.0344488 1.09753e-07
-1.6906e-07 1.09753e-07 0.034147

0.0292358 -0.00407113 4.05673e-08
-0.00407113 0.0269002 -7.48822e-08
4.05673e-08 -7.48822e-08 0.0253466

0.034993 -0.00324362 -1.66679e-07
-0.00324362 0.0299158 2.00743e-08
-1.66679e-07 2.00743e-08 0.0321958

0.031463 0.00140905 8.33435e-08
0.00140905 0.0233274 1.59386e-08
8.33435e-08 1.59386e-08 0.024484

0.033665 0.00348421 4.46713e-08
0.00348421 0.0334448 -2.44468e-07
4.46713e-08 -2.44468e-07 0.0336505

0.0298933 -0.00496723 -2.24842e-07
-0.00496723 0.0330789 1.18609e-09
-2.24842e-07 1.18609e-09 0.0338577

0.0300436 0.00492071 -1.32689e-07
0.00492071 0.0329406 -1.07598e-07
-1.32689e-07 -1.07598e-07 0.0338246

0.0276886 -0.00374174 7.67869e-08
-0.00374174 0.0348076 3.23522e-08
7.67869e-08 3.23522e-08 0.0337672

0.0279263 0.00354704 -1.34918e-08
0.00354704 0.0348352 -1.45577e-07
-1.34918e-08 -1.45577e-07 0.033732

0.0364303 -0.00115393 1.06548e-07
-0.00115393 0.0263424 -3.23502e-08
1.06548e-07 -3.23502e-08 0.0337584

0.0361991 0.0012476 4.43738e-08
0.0012476 0.0265637 1.86906e-07
4.43738e-08 1.86906e-07 0.0337211

0.0350348 -0.00130648 1.36963e-10
-0.00130648 0.0284686 3.90161e-08
1.36963e-10 3.90161e-08 0.0325763

0.0344371 0.0042591 9.83592e-08
0.0042591 0.0342895 1.99142e-07
9.83592e-08 1.99142e-07 0.0348129

0.0343129 -0.00435713 -1.55887e-07
-0.00435713 0.0342815 1.0941e-08
-1.55887e-07 1.0941e-08 0.0348013

0.0305213 0.00209335 -1.82655e-08
0.00209335 0.0381662 1.87383e-08
-1.82655e-08 1.87383e-08 0.0348501

0.0306646 -0.00205967 1.14717e-09
-0.00205967 0.0380957 -5.23604e-08
1.14717e-09 -5.23604e-08 0.0348374

0.0395024 -0.000528838 -1.92792e-07
-0.000528838 0.0328498 2.41453e-08
-1.92792e-07 2.41453e-08 0.0352583

0.039705 0.000513511 -1.25286e-07
0.000513511 0.0326224 -5.12445e-08
-1.25286e-07 -5.12445e-08 0.0353036

0.0239655 0.00127587 1.9234e-08
0.00127587 0.0320037 -1.9249e-07
1.9234e-08 -1.9249e-07 0.0251847

0.0311627 -0.00326519 -9.76808e-08
-0.00326519 0.0322413 -1.55346e-07
-9.76808e-08 -1.55346e-07 0.0328024

0.0277802 -0.00478551 1.04233e-07
-0.00478551 0.0333123 -6.55408e-08
1.04233e-07 -6.55408e-08 0.0334557

0.0333594 -0.000610194 2.6705e-08
-0.000610194 0.0264035 1.22858e-07
2.6705e-08 1.22858e-07 0.0284487

0.0381882 -0.00225173 -1.66781e-07
-0.00225173 0.0307948 6.83674e-08
-1.66781e-07 6.83674e-08 0.0348932

0.0382365 0.00218383 -4.62727e-08
0.00218383 0.030908 -1.69125e-07
-4.62727e-08 -1.69125e-07 0.0349254

0.0360842 1.56191e-05 -1.04013e-08
1.56191e-05 0.0251264 7.54635e-08
-1.04013e-08 7.54635e-08 0.0334708

0.0242413 0.00302905 -1.15618e-07
0.00302905 0.0303982 -1.24734e-07
-1.15618e-07 -1.24734e-07 0.0242774

0.0276747 0.00475628 2.3788e-08
0.00475628 0.0333131 -7.37831e-08
2.3788e-08 -7.37831e-08 0.0333936

0.0286752 -0.00307605 4.34149e-08
-0.00307605 0.0342616 3.30203e-08
4.34149e-08 3.30203e-08 0.0327528

0.0310861 0.00303575 -5.36952e-08
0.00303575 0.025147 -1.29088e-07
-5.36952e-08 -1.29088e-07 0.0254676

0.0372284 0.00316564 -1.26297e-07
0.00316564 0.0315411 1.95445e-08
-1.26297e-07 1.95445e-08 0.0340763

0.0292273 -0.00406722 -1.23479e-07
-0.00406722 0.0269362 9.63384e-08
-1.23479e-07 9.63384e-08 0.0253218

0.0364022 -0.000453712 -8.79474e-08
-0.000453712 0.0296921 -6.04607e-08
-8.79474e-08 -6.04607e-08 0.0341315

0.0273451 -0.00449497 3.28483e-09
-0.00449497 0.0333956 5.8992e-08
3.28483e-09 5.8992e-08 0.0334423

0.0240382 0.00107895 5.71252e-08
0.00107895 0.0322448 -1.5835e-08
5.71252e-08 -1.5835e-08 0.0255063

0.0242301 0.00282655 -7.31884e-08
0.00282655 0.0307018 1.44417e-07
-7.31884e-08 1.44417e-07 0.0245453

0.0267927 0.00459435 5.81727e-08
0.00459435 0.0240421 -5.14464e-08
5.81727e-08 -5.14464e-08 0.0182139

0.0298513 0.000199905 1.50184e-08
0.000199905 0.0200887 -5.73216e-08
1.50184e-08 -5.73216e-08 0.0193627

0.0319091 -0.0030239 7.53197e-08
-0.0030239 0.0341629 2.03708e-10
7.53197e-08 2.03708e-10 0.0340361

0.0229189 0.00399967 1.45725e-07
0.00399967 0.0276607 4.25645e-08
1.45725e-07 4.25645e-08 0.0176534

0.0292104 0.00310081 -1.25506e-07
0.00310081 0.0327638 -5.04198e-08
-1.25506e-07 -5.04198e-08 0.0310128

0.0315953 -0.000694453 8.7934e-09
-0.000694453 0.0231604 4.20527e-08
8.7934e-09 4.20527e-08 0.0244853

0.0327618 0.00146444 -4.81307e-08
0.00146444 0.0253472 5.90586e-08
-4.81307e-08 5.90586e-08 0.0276135

0.0359785 5.62324e-05 8.89266e-08
5.62324e-05 0.0249594 -8.2644e-08
8.89266e-08 -8.2644e-08 0.0333868

0.0279663 -0.00380546 1.04462e-07
-0.00380546 0.0349497 -5.87098e-08
1.04462e-07 -5.87098e-08 0.0338165

0.0393149 -0.000844186 -2.99601e-07
-0.000844186 0.0416027 3.73711e-08
-2.99601e-07 3.73711e-08 0.0361905

0.0298683 0.00493889 1.26025e-07
0.00493889 0.0329569 9.60615e-08
1.26025e-07 9.60615e-08 0.0337796

0.0302887 0.000214383 1.64576e-07
0.000214383 0.0203971 2.53549e-08
1.64576e-07 2.53549e-08 0.0172764

0.0266743 -0.00425041 4.40211e-08
-0.00425041 0.0281337 1.03555e-07
4.40211e-08 1.03555e-07 0.0244379

0.027747 0.00481552 2.5866e-08
0.00481552 0.0333159 1.02295e-07
2.5866e-08 1.02295e-07 0.0334559

0.0279456 -0.00145874 6.47484e-09
-0.00145874 0.0350855 2.05234e-07
6.47484e-09 2.05234e-07 0.0314508

0.0244655 -0.00330521 -5.87587e-08
-0.00330521 0.0300161 -1.60713e-07
-5.87587e-08 -1.60713e-07 0.0242175

0.0279914 0.00377976 1.8555e-08
0.00377976 0.0349105 -9.00782e-08
1.8555e-08 -9.00782e-08 0.0337874

0.0313622 -0.0034095 -1.90779e-07
-0.0034095 0.0270092 -9.76091e-08
-1.90779e-07 -9.76091e-08 0.0269918

0.0402803 0.00140849 1.81436e-07
0.00140849 0.0406183 3.95381e-07
1.81436e-07 3.95381e-07 0.0361709

0.0258815 0.00400283 1.65499e-07
0.00400283 0.028955 6.02178e-08
1.65499e-07 6.02178e-08 0.0245114

0.0366783 0.0011029 1.20392e-07
0.0011029 0.0263529 1.07848e-07
1.20392e-07 1.07848e-07 0.0338984

0.0333427 0.003984 -3.19976e-08
0.003984 0.032116 1.75286e-07
-3.19976e-08 1.75286e-07 0.0333162

0.0292288 0.00306734 -6.24557e-08
0.00306734 0.032606 1.08598e-07
-6.24557e-08 1.08598e-07 0.0321583

0.034365 -0.0043107 1.52821e-07
-0.0043107 0.0345053 1.02337e-07
1.52821e-07 1.02337e-07 0.0348855

0.0354901 -0.00306334 1.01147e-07
-0.00306334 0.0305907 6.72776e-08
1.01147e-07 6.72776e-08 0.032751

0.033367 0.00138774 -1.90977e-07
0.00138774 0.0395779 -6.28701e-08
-1.90977e-07 -6.28701e-08 0.035003

0.0291975 -0.00307927 2.81654e-07
-0.00307927 0.0328743 -1.92598e-07
2.81654e-07 -1.92598e-07 0.0313839

0.0292654 -0.00123222 -2.01736e-07
-0.00123222 0.0192874 -1.21717e-07
-2.01736e-07 -1.21717e-07 0.0164124

0.0287791 -0.00183228 9.00104e-08
-0.00183228 0.0184143 -1.29423e-07
9.00104e-08 -1.29423e-07 0.0161974

0.0385297 0.00220218 9.43708e-08
0.00220218 0.0332393 -2.56234e-08
9.43708e-08 -2.56234e-08 0.0347635

0.0280568 0.00294517 1.57944e-07
0.00294517 0.0323359 2.4259e-07
1.57944e-07 2.4259e-07 0.0295188

0.0320682 0.0038344 -9.72574e-08
0.0038344 0.0309613 -7.7215e-08
-9.72574e-08 -7.7215e-08 0.0314551

0.0320507 8.99499e-05 1.10724e-07
8.99499e-05 0.0245775 9.96406e-08
1.10724e-07 9.96406e-08 0.0248886

0.0302383 0.000866147 -5.56614e-09
0.000866147 0.0385813 1.8796e-07
-5.56614e-09 1.8796e-07 0.034097

0.0354025 0.00219128 1.06256e-07
0.00219128 0.0293235 2.47992e-07
1.06256e-07 2.47992e-07 0.032859

0.024812 -0.00333887 -1.5867e-07
-0.00333887 0.030007 -3.34629e-08
-1.5867e-07 -3.34629e-08 0.0244706

0.0286512 -0.000337787 1.51269e-07
-0.000337787 0.0366578 -5.14222e-08
1.51269e-07 -5.14222e-08 0.0323964

0.0252159 0.00174014 -7.16322e-08
0.00174014 0.0320304 -1.95308e-07
-7.16322e-08 -1.95308e-07 0.0256846

0.0332812 -0.00390959 -1.49822e-08
-0.00390959 0.0304976 6.02833e-08
-1.49822e-08 6.02833e-08 0.0315931

0.0290655 -0.00389614 -2.24115e-07
-0.00389614 0.0282009 -9.79127e-08
-2.24115e-07 -9.79127e-08 0.0257142

0.0261499 0.00409901 -1.86301e-08
0.00409901 0.028547 -3.28789e-08
-1.86301e-08 -3.28789e-08 0.0243188

0.0452876 -0.00201743 -2.06479e-07
-0.00201743 0.0396065 -1.31048e-07
-2.06479e-07 -1.31048e-07 0.0363675

0.0316674 0.000256384 2.60251e-08
0.000256384 0.0393277 -3.64568e-08
2.60251e-08 -3.64568e-08 0.0347697

0.0306173 0.00265081 -2.0855e-07
0.00265081 0.0384437 3.46269e-08
-2.0855e-07 3.46269e-08 0.0349583

0.0387661 0.00209477 1.16128e-07
0.00209477 0.0302225 -4.67799e-08
1.16128e-07 -4.67799e-08 0.0349432

0.0313714 -0.00345058 -1.04079e-08
-0.00345058 0.032141 -1.08468e-07
-1.04079e-08 -1.08468e-07 0.0325734

0.0318188 0.00233605 -1.58851e-08
0.00233605 0.0256209 -1.84745e-07
-1.58851e-08 -1.84745e-07 0.0258803

0.0349943 -0.000708443 -2.67383e-07
-0.000708443 0.0415759 8.54407e-08
-2.67383e-07 8.54407e-08 0.0357283

0.0357887 -0.00251863 -1.33574e-07
-0.00251863 0.029551 -7.67575e-08
-1.33574e-07 -7.67575e-08 0.0332587

0.0332975 -0.00203985 -1.07834e-07
-0.00203985 0.0266533 -4.36555e-08
-1.07834e-07 -4.36555e-08 0.0286761

0.0252528 0.00151086 2.59963e-08
0.00151086 0.0322752 -1.69969e-08
2.59963e-08 -1.69969e-08 0.0259507

0.0268052 -0.00334474 2.43303e-07
-0.00334474 0.0300104 -1.50152e-07
2.43303e-07 -1.50152e-07 0.0251879

0.0364779 -0.00336045 -1.94393e-07
-0.00336045 0.0352881 -4.32602e-08
-1.94393e-07 -4.32602e-08 0.0347429

0.0284761 0.00415236 -9.59594e-08
0.00415236 0.0277168 1.52245e-07
-9.59594e-08 1.52245e-07 0.0254684

0.0372444 -0.0033454 1.38852e-08
-0.0033454 0.0333228 7.33497e-09
1.38852e-08 7.33497e-09 0.0346123

0.0322069 0.000337929 3.41989e-08
0.000337929 0.0248632 9.14513e-08
3.41989e-08 9.14513e-08 0.0254382

0.0191614 -0.00368924 -8.61775e-08
-0.00368924 0.0275264 -2.12681e-07
-8.61775e-08 -2.12681e-07 0.0163112

0.0292105 -0.00380381 1.25419e-07
-0.00380381 0.0281933 1.10962e-07
1.25419e-07 1.10962e-07 0.0258083

0.0230462 0.00412744 -1.2465e-07
0.00412744 0.0280208 -1.01249e-09
-1.2465e-07 -1.01249e-09 0.0175925

0.0296916 -0.00155946 -5.74917e-08
-0.00155946 0.0375344 -8.88355e-08
-5.74917e-08 -8.88355e-08 0.0336491

0.0243606 -0.0017937 -6.88602e-09
-0.0017937 0.0318731 8.26991e-08
-6.88602e-09 8.26991e-08 0.0254485

0.0424378 -0.0032341 -1.3015e-07
-0.0032341 0.0423769 -1.6451e-08
-1.3015e-07 -1.6451e-08 0.0363758

0.0263372 0.003091 1.12554e-07
0.003091 0.030702 1.44597e-07
1.12554e-07 1.44597e-07 0.0254783

0.0334774 -0.00432395 5.13922e-08
-0.00432395 0.0326598 -2.61512e-08
5.13922e-08 -2.61512e-08 0.033567

0.0240811 -0.0015508 5.75484e-08
-0.0015508 0.0318877 -1.12796e-07
5.75484e-08 -1.12796e-07 0.0251772

0.0362233 -0.00253873 6.28903e-08
-0.00253873 0.0295117 -5.38916e-08
6.28903e-08 -5.38916e-08 0.0335199

0.026674 0.00310479 3.93247e-08
0.00310479 0.0303952 -1.27337e-07
3.93247e-08 -1.27337e-07 0.0253136

0.0343439 -0.000653953 2.92787e-08
-0.000653953 0.0272772 -2.75126e-08
2.92787e-08 -2.75126e-08 0.0305781

0.0188907 -0.00387161 -1.98226e-07
-0.00387161 0.0298022 4.6708e-08
-1.98226e-07 4.6708e-08 0.0129614

0.0279997 0.00275441 1.20858e-07
0.00275441 0.0326293 -3.22594e-08
1.20858e-07 -3.22594e-08 0.030574

0.0314378 -0.00251247 1.41508e-07
-0.00251247 0.0247225 -6.29367e-08
1.41508e-07 -6.29367e-08 0.0254063

0.0391182 -0.00286922 4.67258e-08
-0.00286922 0.0322215 7.8119e-08
4.67258e-08 7.8119e-08 0.0349372

0.0287533 0.00412398 -1.13138e-07
0.00412398 0.0273004 -1.17188e-07
-1.13138e-07 -1.17188e-07 0.0252557

0.0313617 -0.00391927 -1.60745e-07
-0.00391927 0.0285422 -1.4337e-07
-1.60745e-07 -1.4337e-07 0.0287312

0.0354082 0.002764 -9.85824e-08
0.002764 0.0308561 -1.67885e-08
-9.85824e-08 -1.67885e-08 0.0330394

0.0297733 -0.00370345 -7.19003e-08
-0.00370345 0.0329381 -6.33411e-09
-7.19003e-08 -6.33411e-09 0.0333425

0.0270554 -0.00341013 -1.58597e-08
-0.00341013 0.0299828 -2.25182e-08
-1.58597e-08 -2.25182e-08 0.0253975

0.0284408 0.00377128 -3.09867e-08
0.00377128 0.0289399 5.47514e-08
-3.09867e-08 5.47514e-08 0.0258874

0.0313716 0.00341335 -3.16027e-08
0.00341335 0.0268993 -1.6892e-07
-3.16027e-08 -1.6892e-07 0.0269661

0.0365363 -0.0019443 5.7635e-08
-0.0019443 0.0306252 -6.50645e-08
5.7635e-08 -6.50645e-08 0.0336357

0.0255337 -0.00216323 -1.05944e-07
-0.00216323 0.0318018 7.43107e-08
-1.05944e-07 7.43107e-08 0.0258538

0.0346997 -0.00231384 -7.27356e-09
-0.00231384 0.0283344 3.84758e-08
-7.27356e-09 3.84758e-08 0.0314559

0.034186 0.00222295 -2.26983e-08
0.00222295 0.0274318 -1.90625e-07
-2.26983e-08 -1.90625e-07 0.0306038

0.0336449 -0.00124592 7.3662e-08
-0.00124592 0.0392998 1.05981e-07
7.3662e-08 1.05981e-07 0.0349273

0.0320721 -0.00174666 1.09808e-07
-0.00174666 0.0253303 -1.23752e-07
1.09808e-07 -1.23752e-07 0.0258711

0.0250017 7.97481e-05 -4.45658e-08
7.97481e-05 0.0331508 -8.88261e-08
-4.45658e-08 -8.88261e-08 0.0268611

0.0332472 0.00242872 -1.05468e-07
0.00242872 0.0271936 -3.30126e-08
-1.05468e-07 -3.30126e-08 0.028922

0.0311175 0.0035989 7.19819e-08
0.0035989 0.0272926 1.24583e-07
7.19819e-08 1.24583e-07 0.0271226

0.0252954 -0.00204122 -3.36765e-08
-0.00204122 0.0318644 -1.14946e-07
-3.36765e-08 -1.14946e-07 0.025611

0.0252011 -0.000154661 1.11422e-08
-0.000154661 0.0332916 5.48823e-08
1.11422e-08 5.48823e-08 0.0271439

0.0354132 0.00385821 -1.90356e-07
0.00385821 0.0329953 -2.93006e-09
-1.90356e-07 -2.93006e-09 0.0338953

0.0275857 -0.00143098 -1.35217e-08
-0.00143098 0.0353418 -8.69114e-08
-1.35217e-08 -8.69114e-08 0.0314419

0.0312339 -0.0034837 1.4842e-07
-0.0034837 0.0269776 1.06795e-07
1.4842e-07 1.06795e-07 0.0270097

0.0312965 0.00277243 8.86759e-08
0.00277243 0.024922 3.75224e-08
8.86759e-08 3.75224e-08 0.0252461

0.0345827 0.00311824 1.40526e-07
0.00311824 0.0293864 1.11066e-07
1.40526e-07 1.11066e-07 0.0317956

0.0279912 0.000716625 4.90258e-08
0.000716625 0.0360394 2.52431e-08
4.90258e-08 2.52431e-08 0.031818

0.0287161 0.00378139 -1.65083e-07
0.00378139 0.028559 -2.98962e-08
-1.65083e-07 -2.98962e-08 0.0257278

0.0367905 0.00305742 -1.83357e-07
0.00305742 0.0361254 -1.79346e-07
-1.83357e-07 -1.79346e-07 0.0349069

0.0226801 -0.00754525 -4.68915e-08
-0.00754525 0.0186877 4.62764e-07
-4.68915e-08 4.62764e-07 0.0108451

0.0332911 -0.00328743 1.07797e-07
-0.00328743 0.0286323 -1.21682e-07
1.07797e-07 -1.21682e-07 0.0301238

0.0207267 0.000913368 4.06962e-08
0.000913368 0.0300311 5.55352e-08
4.06962e-08 5.55352e-08 0.0183464

0.0313002 -0.00378165 2.55411e-08
-0.00378165 0.0292309 1.89779e-07
2.55411e-08 1.89779e-07 0.0290314

0.00153956 -0.00651876 -1.19154e-09
-0.00651876 0.0275682 5.22048e-09
-1.19154e-09 5.22048e-09 0.00290831

0.00146996 0.00636832 2.60218e-08
0.00636832 0.027586 1.14009e-07
2.60218e-08 1.14009e-07 0.00300126

0.0119845 0.0145049 -8.51846e-08
0.0145049 0.0175324 -1.06818e-07
-8.51846e-08 -1.06818e-07 0.00277119

0.0121659 -0.0144956 -9.20704e-08
-0.0144956 0.0172239 1.15453e-07
-9.20704e-08 1.15453e-07 0.0028038

0.0293407 -0.000164089 -1.37444e-07
-0.000164089 0 0
-1.37444e-07 0 0.00295261

0.0235921 -0.0112826 -1.93828e-07
-0.0112826 0.00539546 9.33426e-08
-1.93828e-07 9.33426e-08 0.00297835

0.0236341 0.0113488 1.62942e-08
0.0113488 0.00544951 7.84688e-09
1.62942e-08 7.84688e-09 0.00303948

0.0369109 0.0019114 1.31272e-07
0.0019114 0.0302423 4.92505e-08
1.31272e-07 4.92505e-08 0.0338778

0.0387053 0.00341007 8.68302e-08
0.00341007 0.0366174 -3.76683e-08
8.68302e-08 -3.76683e-08 0.0355785

0.0344152 0.000872421 7.2641e-08
0.000872421 0.0274568 4.88665e-08
7.2641e-08 4.88665e-08 0.0316879

0.032873 0.00285035 -2.98748e-08
0.00285035 0.0268893 -1.69173e-07
-2.98748e-08 -1.69173e-07 0.0286464

0.0257008 0.00231328 4.58362e-08
0.00231328 0.032367 4.19643e-08
4.58362e-08 4.19643e-08 0.0276356

0.0307128 0.00376903 4.85949e-08
0.00376903 0.0276763 1.59219e-07
4.85949e-08 1.59219e-07 0.0271177

0.0333054 -0.0039033 -6.58141e-08
-0.0039033 0.0304657 -1.29087e-08
-6.58141e-08 -1.29087e-08 0.03163

0.0309736 0.00365435 -6.12287e-08
0.00365435 0.0272871 -1.16658e-07
-6.12287e-08 -1.16658e-07 0.0269253

0.0249872 -0.000371529 7.25037e-08
-0.000371529 0.0331219 -8.507e-08
7.25037e-08 -8.507e-08 0.0268433

0.0385479 -0.00348498 -1.43453e-08
-0.00348498 0.0368809 2.04031e-07
-1.43453e-08 2.04031e-07 0.0355841

0.0251756 -0.000635634 -2.20056e-08
-0.000635634 0.0332102 5.20683e-08
-2.20056e-08 5.20683e-08 0.0271028

0.0360181 0.00304748 -1.53751e-07
0.00304748 0.0330111 -1.00776e-07
-1.53751e-07 -1.00776e-07 0.0340982

0.0296232 0.00347563 -8.31608e-08
0.00347563 0.0248464 4.73494e-08
-8.31608e-08 4.73494e-08 0.0230229

0.0304965 -0.00171406 -1.26732e-07
-0.00171406 0.0375129 8.9981e-08
-1.26732e-07 8.9981e-08 0.0347367

0.0339205 0.00180447 1.03759e-07
0.00180447 0.0271818 -3.1085e-08
1.03759e-07 -3.1085e-08 0.0303206

0.0312014 -0.0039202 1.16275e-07
-0.0039202 0.0285313 1.6118e-07
1.16275e-07 1.6118e-07 0.0286147

0.0315837 -0.0032215 9.81636e-08
-0.0032215 0.0266919 1.00967e-08
9.81636e-08 1.00967e-08 0.0270479

0.0384794 -0.00214164 6.28642e-08
-0.00214164 0.0334173 1.00847e-07
6.28642e-08 1.00847e-07 0.0347452

0.0326814 0.0036643 -4.08459e-08
0.0036643 0.0292323 1.67117e-07
-4.08459e-08 1.67117e-07 0.0301552

0.0326448 0.00313759 -6.43745e-08
0.00313759 0.0272526 1.19236e-07
-6.43745e-08 1.19236e-07 0.0287882

0.0269554 -0.0003652 -1.33928e-07
-0.0003652 0.0349873 -2.00977e-08
-1.33928e-07 -2.00977e-08 0.0301682

0.0258999 0.000765788 -6.93137e-08
0.000765788 0.0340038 -1.19106e-07
-6.93137e-08 -1.19106e-07 0.0288233

0.0327785 0.000345413 4.29933e-08
0.000345413 0.024862 9.21565e-08
4.29933e-08 9.21565e-08 0.027444

0.0313877 -0.000944833 2.76209e-09
-0.000944833 0.0230041 -9.58363e-08
2.76209e-09 -9.58363e-08 0.0238923

0.030881 0.0039851 1.16504e-07
0.0039851 0.0288065 2.08377e-07
1.16504e-07 2.08377e-07 0.0286244

0.0331185 -0.0034314 6.10695e-09
-0.0034314 0.0285408 1.60289e-07
6.10695e-09 1.60289e-07 0.0299696

0.0364127 -0.00282387 1.31513e-07
-0.00282387 0.0327333 3.97224e-08
1.31513e-07 3.97224e-08 0.0341444

0.0292064 -0.0041277 7.21966e-08
-0.0041277 0.0291925 1.92839e-07
7.21966e-08 1.92839e-07 0.0277542

0.0269722 -0.00362033 2.02643e-09
-0.00362033 0.0304651 2.53502e-07
2.02643e-09 2.53502e-07 0.0272137

0.0283265 0.00389959 -1.3841e-07
0.00389959 0.0299012 -1.58497e-07
-1.3841e-07 -1.58497e-07 0.0277523

0.0259016 -0.00124902 -9.6809e-08
-0.00124902 0.0336138 1.82239e-07
-9.6809e-08 1.82239e-07 0.0285162

0.0266548 -0.000202053 -1.72317e-07
-0.000202053 0.0349136 4.34444e-08
-1.72317e-07 4.34444e-08 0.0299201

0.0277626 0.000753013 -1.12647e-07
0.000753013 0.0360389 2.64629e-08
-1.12647e-07 2.64629e-08 0.0316585

0.0262475 -0.00274957 1.18728e-08
-0.00274957 0.0319634 -1.01517e-07
1.18728e-08 -1.01517e-07 0.0277109

0.0345828 0.00317599 1.06047e-07
0.00317599 0.0291686 1.75947e-07
1.06047e-07 1.75947e-07 0.0316347

0.0339101 -0.00126102 3.37429e-08
-0.00126102 0.0269306 -1.64238e-08
3.37429e-08 -1.64238e-08 0.030202

0.0257906 0.000974484 9.16416e-08
0.000974484 0.0338301 1.54474e-07
9.16416e-08 1.54474e-07 0.0285422

0.0278243 -0.00126996 -8.02874e-08
-0.00126996 0.0353976 -1.00532e-07
-8.02874e-08 -1.00532e-07 0.0313663

0.0272933 -0.00213717 1.79204e-08
-0.00213717 0.0336575 -1.94613e-08
1.79204e-08 -1.94613e-08 0.030226

0.0327769 -0.00107733 8.04661e-08
-0.00107733 0.0253202 -2.1723e-07
8.04661e-08 -2.1723e-07 0.0272546

0.0333155 -0.00427116 1.33846e-07
-0.00427116 0.0323806 -1.35653e-07
1.33846e-07 -1.35653e-07 0.0335295

0.026489 0.0012198 -2.2103e-08
0.0012198 0.0338362 1.53083e-07
-2.2103e-08 1.53083e-07 0.0288164

0.0398112 -0.00243159 1.27002e-07
-0.00243159 0.0352186 -5.45917e-08
1.27002e-07 -5.45917e-08 0.0354614

0.018889 0.00316471 6.22131e-08
0.00316471 0.0278763 1.65903e-08
6.22131e-08 1.65903e-08 0.016273

0.0338164 -0.00352241 2.21419e-07
-0.00352241 0.033495 3.78328e-09
2.21419e-07 3.78328e-09 0.0337265

0.0353445 -0.00399948 7.25177e-08
-0.00399948 0.0330468 1.01834e-07
7.25177e-08 1.01834e-07 0.0339043

0.0266861 -9.03522e-05 1.55223e-07
-9.03522e-05 0.0349187 5.09572e-08
1.55223e-07 5.09572e-08 0.0299283

0.0332432 -0.00217644 -9.53687e-08
-0.00217644 0.0271533 -1.80296e-07
-9.53687e-08 -1.80296e-07 0.028903

0.0293478 0.00168456 -3.41255e-09
0.00168456 0.0358197 -5.51735e-08
-3.41255e-09 -5.51735e-08 0.0328801

0.0132076 -0.000379145 1.25954e-07
-0.000379145 0.0283625 -3.81927e-08
1.25954e-07 -3.81927e-08 0.0111519

0.0271139 0.00186842 -1.12556e-07
0.00186842 0.0340619 -1.70672e-08
-1.12556e-07 -1.70672e-08 0.0303065

0.0311094 -0.00385841 -8.36045e-08
-0.00385841 0.0291544 -2.41823e-07
-8.36045e-08 -2.41823e-07 0.0288067

0.01862 0.00320467 1.45241e-07
0.00320467 0.0301397 2.45889e-07
1.45241e-07 2.45889e-07 0.013127

0.0426002 0.00351784 2.07767e-07
0.00351784 0.0418486 2.85353e-07
2.07767e-07 2.85353e-07 0.0364806

0.043206 -0.00374836 1.12859e-07
-0.00374836 0.0414175 -1.22325e-07
1.12859e-07 -1.22325e-07 0.036463

0.0310655 -0.00399082 1.57912e-07
-0.00399082 0.0304712 -1.83144e-08
1.57912e-07 -1.83144e-08 0.0304613

0.0289222 -0.00406414 -1.37622e-07
-0.00406414 0.0291508 -2.4204e-07
-1.37622e-07 -2.4204e-07 0.0275945

0.0330512 0.00272676 1.21677e-07
0.00272676 0.0275286 -1.77726e-07
1.21677e-07 -1.77726e-07 0.0290757

0.03278 0.00196005 1.20244e-07
0.00196005 0.0255913 -1.7997e-07
1.20244e-07 -1.7997e-07 0.027823

0.0463995 0.00041896 4.32777e-07
0.00041896 0.046356 -6.95207e-08
4.32777e-07 -6.95207e-08 0.0366948

0.0469183 -0.00095158 -3.46179e-07
-0.00095158 0.0457687 1.07463e-07
-3.46179e-07 1.07463e-07 0.036766

0.0347999 0.000638333 -3.88649e-08
0.000638333 0.0275731 1.45835e-07
-3.88649e-08 1.45835e-07 0.0322167

0.0277519 0.000882314 -1.16812e-07
0.000882314 0.0355706 -1.00335e-08
-1.16812e-07 -1.00335e-08 0.0313488

0.0276078 0.000882855 1.23429e-07
0.000882855 0.0355708 -3.17006e-09
1.23429e-07 -3.17006e-09 0.0312449

0.0234592 0.00739997 -6.45041e-08
0.00739997 0.0183021 2.11711e-07
-6.45041e-08 2.11711e-07 0.0109016

0.0272473 -0.0036754 -5.2833e-08
-0.0036754 0.0303474 3.23671e-08
-5.2833e-08 3.23671e-08 0.0273196

0.0365674 0.00239139 9.17706e-08
0.00239139 0.0295763 9.97748e-08
9.17706e-08 9.97748e-08 0.0337846

0.033274 0.00124754 1.015e-08
0.00124754 0.0265042 3.18575e-08
1.015e-08 3.18575e-08 0.0284319

0.0291524 -0.0034926 1.39788e-07
-0.0034926 0.0304713 2.65196e-07
1.39788e-07 2.65196e-07 0.0281733

0.0328109 -0.00264783 2.64642e-08
-0.00264783 0.0267281 7.76128e-09
2.64642e-08 7.76128e-09 0.0285868

0.0224602 0.00761284 1.76046e-07
0.00761284 0.0185905 -1.54796e-07
1.76046e-07 -1.54796e-07 0.0109041

0.033145 0.0041025 1.21297e-07
0.0041025 0.0326382 -1.82129e-07
1.21297e-07 -1.82129e-07 0.0331817

0.0258902 -0.00257821 -1.59683e-07
-0.00257821 0.0320239 9.16882e-08
-1.59683e-07 9.16882e-08 0.0275075

0.0324829 0.00378587 1.08633e-09
0.00378587 0.029268 1.10196e-07
1.08633e-09 1.10196e-07 0.0301469

0.026816 -0.000543862 1.34517e-07
-0.000543862 0.0349522 7.34214e-09
1.34517e-07 7.34214e-09 0.0301379

0.0269901 0.00256343 -1.80463e-07
0.00256343 0.0324486 -4.22365e-08
-1.80463e-07 -4.22365e-08 0.0282865

0.0305263 0.00399098 2.52117e-08
0.00399098 0.0293231 1.12297e-07
2.52117e-08 1.12297e-07 0.0287751

0.0276087 -0.00293717 -1.28355e-07
-0.00293717 0.031854 -1.26446e-07
-1.28355e-07 -1.26446e-07 0.028249

0.029456 -0.00357571 -2.0289e-08
-0.00357571 0.0303511 3.44989e-08
-2.0289e-08 3.44989e-08 0.028305

0.0181377 0.00142553 -4.06031e-08
0.00142553 0.0280366 -1.73938e-07
-4.06031e-08 -1.73938e-07 0.0131276

0.0234739 -0.00429398 1.2124e-07
-0.00429398 0.0275561 -2.18603e-07
1.2124e-07 -2.18603e-07 0.0177234

0.0262055 -0.00152618 8.5103e-08
-0.00152618 0.0336239 -1.03535e-07
8.5103e-08 -1.03535e-07 0.0287519

0.0330236 0.00347477 1.79553e-08
0.00347477 0.028878 2.17078e-07
1.79553e-08 2.17078e-07 0.0300689

0.0303217 0.00385736 2.42257e-07
0.00385736 0.0298864 -1.32972e-07
2.42257e-07 -1.32972e-07 0.0289903

0.0274143 -0.00280053 -7.94526e-08
-0.00280053 0.0319836 9.75761e-08
-7.94526e-08 9.75761e-08 0.0281391

0.0265545 -0.00154067 -1.11824e-07
-0.00154067 0.0335823 1.81511e-07
-1.11824e-07 1.81511e-07 0.0287463

0.0309565 0.00371829 1.66736e-07
0.00371829 0.0295633 1.09878e-07
1.66736e-07 1.09878e-07 0.0289412

0.0267594 -0.00181604 3.9655e-09
-0.00181604 0.0334744 -1.20927e-07
3.9655e-09 -1.20927e-07 0.0289543

0.019166 0.00355451 -6.03262e-08
0.00355451 0.027608 1.93036e-08
-6.03262e-08 1.93036e-08 0.0162922

0.0308734 -0.000534779 -2.75191e-08
-0.000534779 0.0388191 1.51077e-07
-2.75191e-08 1.51077e-07 0.0342943

0.0286562 0.00404782 -5.80418e-08
0.00404782 0.0295183 1.34853e-07
-5.80418e-08 1.34853e-07 0.0277145

0.0355799 0.00197489 1.78957e-07
0.00197489 0.0295029 1.09179e-07
1.78957e-07 1.09179e-07 0.0328426

0.0362588 -0.00211484 7.60919e-08
-0.00211484 0.0297552 2.18812e-07
7.60919e-08 2.18812e-07 0.0332178

0.0285105 -0.00309575 -1.14963e-07
-0.00309575 0.018569 2.88715e-07
-1.14963e-07 2.88715e-07 0.0157299

0.0283536 -0.00278983 -2.085e-07
-0.00278983 0.0327752 -1.84026e-08
-2.085e-07 -1.84026e-08 0.0305715

0.0291908 0.00350089 -2.67457e-07
0.00350089 0.0315997 1.98498e-07
-2.67457e-07 1.98498e-07 0.0304874

0.0349593 -0.00290724 -2.76584e-08
-0.00290724 0.0376757 -2.3508e-07
-2.76584e-08 -2.3508e-07 0.035236

0.0394601 0.00188508 1.6003e-07
0.00188508 0.0446079 1.13723e-07
1.6003e-07 1.13723e-07 0.0364328

0.0449431 0.00129057 -1.44441e-07
0.00129057 0.039116 2.03027e-10
-1.44441e-07 2.03027e-10 0.0364148

0.0355597 0.00434528 5.1596e-08
0.00434528 0.0351348 4.81616e-08
5.1596e-08 4.81616e-08 0.0350033

0.0265718 0.00338799 -1.02639e-07
0.00338799 0.0310063 -2.46669e-07
-1.02639e-07 -2.46669e-07 0.0272558

0.0330392 0.00349709 8.80365e-08
0.00349709 0.0286667 4.08754e-08
8.80365e-08 4.08754e-08 0.03005

0.0220598 0.0057643 2.81208e-07
0.0057643 0.0242375 -1.70535e-07
2.81208e-07 -1.70535e-07 0.0160723

0.038618 -0.00151221 -3.90838e-08
-0.00151221 0.0444325 3.45288e-08
-3.90838e-08 3.45288e-08 0.036362

0.0460479 -0.000465693 3.38427e-08
-0.000465693 0.0454391 1.63099e-07
3.38427e-08 1.63099e-07 0.0366909

0.0451791 -3.18493e-05 -2.5577e-07
-3.18493e-05 0.0463028 7.32034e-07
-2.5577e-07 7.32034e-07 0.0366729

0.0176409 -0.00679491 -2.16714e-07
-0.00679491 0.0231082 8.76951e-09
-2.16714e-07 8.76951e-09 0.0107385

0.0392925 -0.00155627 1.41847e-07
-0.00155627 0.0387142 1.09242e-07
1.41847e-07 1.09242e-07 0.0358535

0.0383966 0.00117659 -3.72603e-07
0.00117659 0.0415173 -3.2626e-08
-3.72603e-07 -3.2626e-08 0.0361248

0.0331749 -0.00343586 -2.73619e-08
-0.00343586 0.0282196 8.30377e-08
-2.73619e-08 8.30377e-08 0.0299034

0.0318445 0.00014022 1.45145e-07
0.00014022 0.0386719 1.33551e-07
1.45145e-07 1.33551e-07 0.0344503

0.0285766 -0.0026602 3.46783e-08
-0.0026602 0.0333806 -6.9934e-09
3.46783e-08 -6.9934e-09 0.0315892

0.0356621 0.000831715 -1.96717e-07
0.000831715 0.0273776 2.74653e-08
-1.96717e-07 2.74653e-08 0.033

0.0288757 0.00204442 -9.31943e-09
0.00204442 0.0368164 -1.46957e-07
-9.31943e-09 -1.46957e-07 0.0336696

0.0298693 0.000946462 9.87419e-08
0.000946462 0.037388 -1.44681e-07
9.87419e-08 -1.44681e-07 0.0333634

0.0344014 0.002685 5.04369e-08
0.002685 0.0288514 4.57174e-08
5.04369e-08 4.57174e-08 0.0312262

0.0132791 -0.000409297 -1.17157e-07
-0.000409297 0.0281228 1.42308e-07
-1.17157e-07 1.42308e-07 0.0112014

0.0309648 -0.00362613 -1.89489e-07
-0.00362613 0.0309153 1.20639e-07
-1.89489e-07 1.20639e-07 0.0306095

0.0329281 -0.00344356 -7.71497e-08
-0.00344356 0.0320204 2.75243e-08
-7.71497e-08 2.75243e-08 0.0325792

0.0335711 -0.00415936 1.0969e-08
-0.00415936 0.0325348 -1.82109e-07
1.0969e-08 -1.82109e-07 0.0337357

0.0265621 0.00414869 3.09137e-09
0.00414869 0.0176915 1.5616e-07
3.09137e-09 1.5616e-07 0.0126052

0.0388284 -0.00269667 1.63195e-07
-0.00269667 0.039576 -1.21579e-07
1.63195e-07 -1.21579e-07 0.0359583

0.0230828 0.00692082 1.17849e-07
0.00692082 0.025502 -3.86797e-07
1.17849e-07 -3.86797e-07 0.0126095

0.0308748 -0.00281787 -1.81985e-07
-0.00281787 0.0348077 3.23547e-08
-1.81985e-07 3.23547e-08 0.0339562

0.0354115 0.00193636 -5.58656e-08
0.00193636 0.0284657 -1.34319e-07
-5.58656e-08 -1.34319e-07 0.0323446

0.0318215 -0.0018934 7.68523e-08
-0.0018934 0.0249507 -2.17779e-07
7.68523e-08 -2.17779e-07 0.0253955

0.0292923 0.00315896 -1.71181e-07
0.00315896 0.0327317 -8.36756e-08
-1.71181e-07 -8.36756e-08 0.0312796

0.0344368 0.00268868 9.04966e-08
0.00268868 0.0286346 -4.93663e-08
9.04966e-08 -4.93663e-08 0.0312209

0.0325187 0.00149911 -5.56238e-09
0.00149911 0.0403736 -1.85566e-07
-5.56238e-09 -1.85566e-07 0.0353364

0.0319401 -0.00415448 -6.43509e-08
-0.00415448 0.0312014 5.46519e-08
-6.43509e-08 5.46519e-08 0.0318107

0.0396763 0.00265536 -5.28396e-08
0.00265536 0.0331983 6.14188e-09
-5.28396e-08 6.14188e-09 0.0353159

0.0279714 -0.00241852 4.26836e-08
-0.00241852 0.0335512 -1.55398e-08
4.26836e-08 -1.55398e-08 0.0304706

0.029351 0.000558564 7.75436e-08
0.000558564 0.0373117 -1.46909e-07
7.75436e-08 -1.46909e-07 0.0332526

0.041943 0.00133779 -1.75874e-08
0.00133779 0.0371 -2.4155e-08
-1.75874e-08 -2.4155e-08 0.0361162

0.0420978 -0.001148 -1.95055e-07
-0.001148 0.0373264 1.85435e-07
-1.95055e-07 1.85435e-07 0.0360981

0.0283831 0.00236908 8.31977e-08
0.00236908 0.0181816 1.44728e-07
8.31977e-08 1.44728e-07 0.0159499

0.0350263 0.00106112 -1.07158e-07
0.00106112 0.0285661 -1.31506e-07
-1.07158e-07 -1.31506e-07 0.033059

0.012867 0.000923427 -8.79886e-08
0.000923427 0.0316267 -7.52953e-08
-8.79886e-08 -7.52953e-08 0.00612174

0.0131626 -0.00138816 1.26679e-07
-0.00138816 0.0321323 2.48757e-08
1.26679e-07 2.48757e-08 0.00611206

0.0152688 0.00715427 -9.49509e-08
0.00715427 0.0284533 -7.35886e-08
-9.49509e-08 -7.35886e-08 0.00598418

0.0347646 -0.00382087 1.60303e-07
-0.00382087 0.0312679 1.1833e-07
1.60303e-07 1.1833e-07 0.0329392

0.0155808 -0.00619442 3.23832e-08
-0.00619442 0.026153 -2.16955e-07
3.23832e-08 -2.16955e-07 0.010472

0.015513 -0.00708689 -1.47123e-07
-0.00708689 0.0274236 -7.99587e-08
-1.47123e-07 -7.99587e-08 0.00591399

0.028426 0.00342574 -7.36443e-08
0.00342574 0.0310066 -2.46768e-07
-7.36443e-08 -2.46768e-07 0.0281529

0.0251935 0.0093259 1.73264e-07
0.0093259 0.0190209 -1.5618e-07
1.73264e-07 -1.5618e-07 0.00593389

0.0365379 0.00173201 1.73927e-07
0.00173201 0.0385518 -5.39018e-08
1.73927e-07 -5.39018e-08 0.0354751

0.0395347 2.54468e-05 1.23757e-07
2.54468e-05 0.0355397 -7.15486e-08
1.23757e-07 -7.15486e-08 0.0354558

0.0261075 -0.00924449 2.41528e-07
-0.00924449 0.0188127 1.85788e-07
2.41528e-07 1.85788e-07 0.00588806

0.02769 -0.00306514 1.74762e-08
-0.00306514 0.0320951 -6.52206e-08
1.74762e-08 -6.52206e-08 0.029623

0.0262554 0.00441812 -5.64145e-09
0.00441812 0.0201582 1.89832e-07
-5.64145e-09 1.89832e-07 0.0130447

0.0172793 0.00797316 1.64179e-07
0.00797316 0.0271491 1.55261e-07
1.64179e-07 1.55261e-07 0.00598786

0.0181963 0.00275516 -1.65329e-07
0.00275516 0.0275902 -1.53028e-07
-1.65329e-07 -1.53028e-07 0.0128502

0.0173042 -0.00827638 -8.25408e-08
-0.00827638 0.0271525 3.03274e-08
-8.25408e-08 3.03274e-08 0.00581381

0.0179331 -0.001571 5.47093e-08
-0.001571 0.0280057 4.86909e-08
5.47093e-08 4.86909e-08 0.0126906

0.0370501 0.000923229 -5.44504e-08
0.000923229 0.0413003 6.8325e-08
-5.44504e-08 6.8325e-08 0.03581

0.0221313 -0.00585523 -1.72863e-07
-0.00585523 0.0236648 2.3811e-07
-1.72863e-07 2.3811e-07 0.0151589

0.0157002 0.00598627 -7.48857e-08
0.00598627 0.0259025 -3.59429e-07
-7.48857e-08 -3.59429e-07 0.0107502

0.0302088 0.00473 -1.40259e-09
0.00473 0.0143494 2.36378e-07
-1.40259e-09 2.36378e-07 0.00611588

0.0329388 -0.00384956 9.77229e-08
-0.00384956 0.0301243 -3.92831e-08
9.77229e-08 -3.92831e-08 0.0310514

0.0308888 0.0016939 7.5398e-08
0.0016939 0.0368429 -1.50651e-07
7.5398e-08 -1.50651e-07 0.0339503

0.0260901 -0.004844 1.30077e-07
-0.004844 0.0191973 -4.18765e-07
1.30077e-07 -4.18765e-07 0.0126951

0.0330011 -0.00378599 1.08773e-07
-0.00378599 0.0300754 -1.31003e-08
1.08773e-07 -1.31003e-08 0.0311277

0.0300192 -0.00451994 6.03469e-08
-0.00451994 0.0130537 -3.43313e-07
6.03469e-08 -3.43313e-07 0.00603733

0.0324733 -0.00372724 -1.38838e-09
-0.00372724 0.0313074 1.47036e-07
-1.38838e-09 1.47036e-07 0.0319795

0.0280911 -0.00331111 -2.09096e-07
-0.00331111 0.0320036 -2.07247e-08
-2.09096e-07 -2.07247e-08 0.0296255

0.0234437 0.00874362 2.55206e-08
0.00874362 0.020483 2.83171e-07
2.55206e-08 2.83171e-07 0.00602619

0.0181998 -0.00292075 1.62226e-07
-0.00292075 0.0268667 9.22961e-08
1.62226e-07 9.22961e-08 0.01227

0.0233147 -0.0090193 -1.85867e-07
-0.0090193 0.0201522 -6.91322e-08
-1.85867e-07 -6.91322e-08 0.00588405

0.0170825 0.00640828 1.48599e-07
0.00640828 0.0235662 2.38612e-07
1.48599e-07 2.38612e-07 0.0108311

0.0308263 -0.00396027 -2.32543e-07
-0.00396027 0.0301605 -9.99443e-09
-2.32543e-07 -9.99443e-09 0.0300856

0.0389176 -0.00195867 6.40106e-08
-0.00195867 0.0369408 -1.14848e-07
6.40106e-08 -1.14848e-07 0.0354995

0.045541 0.00150565 2.2993e-07
0.00150565 0.0449523 2.2251e-07
2.2993e-07 2.2251e-07 0.036619

0.0435642 -0.00071153 -2.36853e-07
-0.00071153 0.0462302 -4.434e-08
-2.36853e-07 -4.434e-08 0.0365848

0.0286157 0.00171587 -5.64249e-08
0.00171587 0.0355659 1.06899e-07
-5.64249e-08 1.06899e-07 0.0323897

0.0453362 -0.00144705 -3.50162e-08
-0.00144705 0.0449791 -2.82357e-07
-3.50162e-08 -2.82357e-07 0.0366368

0.0438085 0.000568076 -2.31878e-07
0.000568076 0.0465049 -5.20982e-07
-2.31878e-07 -5.20982e-07 0.0366179

0.0466785 0.000991198 -8.35014e-08
0.000991198 0.0433773 -1.05546e-08
-8.35014e-08 -1.05546e-08 0.036593

0.0397504 -0.00163949 -2.57991e-07
-0.00163949 0.0460759 -3.83697e-07
-2.57991e-07 -3.83697e-07 0.0364828

0.019054 -0.00388729 1.43633e-07
-0.00388729 0.027231 1.31843e-07
1.43633e-07 1.31843e-07 0.0154712

0.0421415 -0.00175032 -1.04933e-07
-0.00175032 0.0367255 -8.08135e-08
-1.04933e-07 -8.08135e-08 0.0360048

0.0359638 -0.00457291 -1.01326e-07
-0.00457291 0.0351504 5.61566e-08
-1.01326e-07 5.61566e-08 0.0349681

0.0397533 -0.00242161 -8.25772e-08
-0.00242161 0.0360636 6.15013e-08
-8.25772e-08 6.15013e-08 0.0355672

0.0351844 0.00204323 -1.13899e-07
0.00204323 0.0285492 -6.24571e-08
-1.13899e-07 -6.24571e-08 0.0322319

0.0396924 0.00133741 -2.97686e-07
0.00133741 0.0472276 5.76927e-08
-2.97686e-07 5.76927e-08 0.0365486

0.0464963 0.00259343 1.35812e-07
0.00259343 0.0404188 3.74854e-07
1.35812e-07 3.74854e-07 0.0365298

0.0400874 0.00150516 5.61724e-08
0.00150516 0.0366737 4.63895e-08
5.61724e-08 4.63895e-08 0.0356153

0.0279145 -0.00191989 1.64126e-09
-0.00191989 0.0125247 -3.38597e-07
1.64126e-09 -3.38597e-07 0.0106246

0.028319 0.0032678 6.39105e-08
0.0032678 0.03155 3.26578e-07
6.39105e-08 3.26578e-07 0.0294108

0.0231883 -0.00773601 2.25455e-07
-0.00773601 0.0181799 -3.99126e-07
2.25455e-07 -3.99126e-07 0.0102895

0.0228309 -0.00731577 2.85479e-07
-0.00731577 0.0257686 -1.86218e-07
2.85479e-07 -1.86218e-07 0.0119545

0.0290225 -0.00464699 -2.32268e-07
-0.00464699 0.0191284 3.09728e-07
-2.32268e-07 3.09728e-07 0.0126151

0.0375744 -0.000660554 1.62397e-07
-0.000660554 0.0449116 -3.10096e-07
1.62397e-07 -3.10096e-07 0.0362938

0.037572 0.000358622 8.11749e-08
0.000358622 0.0447901 1.98242e-07
8.11749e-08 1.98242e-07 0.036274

0.0426052 -0.00327425 -1.1482e-07
-0.00327425 0.0394501 3.14157e-07
-1.1482e-07 3.14157e-07 0.0362279

0.0429977 -0.0029449 6.62608e-08
-0.0029449 0.0391687 1.47715e-07
6.62608e-08 1.47715e-07 0.0362348

0.0425024 0.00350449 -3.28606e-07
0.00350449 0.0399722 -2.80912e-07
-3.28606e-07 -2.80912e-07 0.0362726

0.0443965 0.000416443 3.55233e-07
0.000416443 0.0450806 4.499e-07
3.55233e-07 4.499e-07 0.036636

0.0426089 -0.00274429 -2.91299e-08
-0.00274429 0.0395068 -1.9455e-07
-2.91299e-08 -1.9455e-07 0.0362894

0.0426027 -0.00251069 1.35357e-07
-0.00251069 0.0442674 -2.35689e-07
1.35357e-07 -2.35689e-07 0.0365636

0.0451178 0.000332146 3.34694e-07
0.000332146 0.0454679 -2.02466e-07
3.34694e-07 -2.02466e-07 0.0366543

0.0436365 -0.0027831 3.41805e-07
-0.0027831 0.0389167 -1.87362e-07
3.41805e-07 -1.87362e-07 0.03633

0.0435121 0.00283893 -1.15229e-07
0.00283893 0.0390695 3.24292e-08
-1.15229e-07 3.24292e-08 0.0363681

0.0451938 -0.000471138 -1.65721e-07
-0.000471138 0.045582 1.298e-07
-1.65721e-07 1.298e-07 0.036703

0.0452238 -0.000424233 8.23913e-07
-0.000424233 0.0443625 -1.15197e-06
8.23913e-07 -1.15197e-06 0.0367213

0.0427981 0.00163844 2.32204e-07
0.00163844 0.0442493 -1.62176e-07
2.32204e-07 -1.62176e-07 0.0366074

0.041117 0.00361821 -6.43551e-08
0.00361821 0.0405167 -1.17527e-07
-6.43551e-08 -1.17527e-07 0.036322

SCALARS pressure float
LOOKUP_TABLE default
-60.0529
19.3086
5.80397
21.2904
15.8789
5.88793
-58.6761
7.7836
-3.80442
15.1249
-24.4327
7.61775
5.59254
12.2797
23.3375
5.53943
18.5211
13.2078
-0.692284
6.75721
-0.904355
33.1329
5.80142
5.79745
6.60248
14.9033
-38.3861
6.67231
-15.2422
30.625
5.17678
-15.657
-42.0573
27.3254
20.7785
27.3583
31.8832
19.8085
4.86008
-42.6006
-17.4073
31.904
31.9922
5.99401
-21.8053
-15.9757
-1.0519
-3.40505
6.54541
-16.2177
-18.9187
-15.3457
20.7554
-15.3729
20.3086
-33.1492
21.129
-15.4601
21.1388
7.04554
21.765
16.1189
-45.5629
12.79
16.3622
10.9055
21.5742
13.8286
5.7741
21.8173
20.8115
20.7821
-17.6909
11.6009
3.97443
-31.6105
14.3567
10.9966
14.1466
-8.71964
-28.9451
14.9776
20.1633
-22.038
-23.4295
-28.0924
7.09838
9.63274
-22.2161
37.7397
-15.5088
38.4422
18.3044
10.7619
-15.1663
-15.8726
-30.2216
14.7537
14.3657
4.59916
-10.7659
-21.9395
-25.1018
16.2133
14.1007
14.9619
18.6977
3.77522
-24.5586
26.5131
7.21819
-21.4092
-24.6123
14.8384
15.0783
-16.1455
20.1643
-29.1135
20.6279
-16.7291
-2.90422
23.8337
21.7274
16.0331
26.6797
22.6316
21.785
15.7088
-29.7813
-16.0988
24.0914
21.6177
20.9895
22.066
-22.0139
23.5864
-33.8378
5.46384
21.7544
23.6297
-21.9368
6.67682
-5.9663
15.084
-30.4078
15.6243
7.83372
2.40807
5.17823
-9.39415
-0.457507
22.6418
-15.4544
5.29144
15.2046
21.5609
11.5085
-21.1132
-21.2638
10.7909
-2.84235
-15.1974
-21.2207
-15.1652
-20.9864
15.28
-20.6358
-21.2016
-15.2077
-21.0638
19.0042
-15.9408
-14.8243
12.0647
-14.4845
18.803
19.0533
7.47323
18.0478
11.7735
-16.2489
15.2885
14.9612
-21.5285
10.4269
-14.2212
16.0488
14.5958
17.0818
14.8354
10.3442
-26.9765
-16.082
-15.958
21.9072
14.5263
14.6251
20.9228
22.4872
9.50304
21.734
-0.384202
-8.17051
20.779
-17.8387
19.9458
10.3646
-21.5175
15.7213
22.5264
14.7313
9.39389
14.1904
21.0558
-7.83253
8.82793
-7.90835
14.6485
26.9277
26.5813
27.9605
26.3885
26.7243
26.2909
13.8263
23.4301
24.0292
23.9735
23.3997
21.1926
21.8571
-8.26261
15.9339
28.1911
-3.18842
23.5758
23.2051
27.8344
-8.49333
28.0964
15.3449
-7.58136
17.4923
-8.25758
20.2274
29.6127
-7.48574
-8.10053
-29.5923
-18.1891
19.5274
-31.9859
5.73463
-7.79372
-1.18913
28.2492
26.6403
30.4255
26.761
-34.8014
-8.17943
28.3374
8.07324
-8.29495
26.4459
-6.29506
30.4704
-7.95386
27.0471
14.5662
14.7876
23.8449
10.0478
18.0209
8.1174
-29.8604
-24.5535
16.8068
1.75997
8.17989
-13.6087
17.4359
11.7001
-8.10129
9.45243
-10.8232
7.51724
-10.7545
-8.48452
33.2631
19.1516
25.0881
25.3124
13.8295
-10.4043
26.4292
14.6852
-1.65877
-10.2737
-12.5641
17.5065
-7.485
17.5745
-12.041
-21.3508
-10.608
-34.6817
15.5627
-7.76274
34.4411
-11.5778
16.8717
-8.40855
15.9729
-12.7581
4.28933
-51.1193
8.52205
-7.74641
21.3338
-8.15194
-0.122627
10.7155
21.1245
-12.0605
-10.2005
-6.0681
14.3182
-10.1798
6.88815
6.38601
16.3054
-10.4193
-6.33022
-1.70216
-5.6603
-11.0783
-5.84453
15.3057
7.80818
-5.55589
-8.96027
7.80557
7.69441
-10.6744
16.3093
-27.2145
2.29321
-28.4815
-0.957422
-8.88024
-8.09851
-11.7812
-10.9449
-9.88314
-7.77813
-7.90149
16.638
24.7774
12.1163
-0.291471
-0.82499
-5.67446
7.30532
-6.32057
-6.31786
24.9232
-5.72989
14.118
-15.9082
24.325
5.96836
-0.391031
-5.64375
16.275
2.4772
0.199193
2.44819
0.456071
-0.740685
-9.93013
-0.0954555
2.11336
15.0689
-1.28813
-1.40701
-0.998679
-0.388456
1.9654
8.05085
-1.19342
8.07829
5.58341
-0.435512
7.03541
5.49045
-3.87638
16.4768
-1.90333
23.0617
-21.9737
15.0443
15.6825
2.03975
-1.99743
12.5431
-26.507
5.79246
-1.65785
-50.4836
30.4974
30.6341
5.8251
-1.14421
-1.04674
-0.849539
33.4174
33.2921
13.095
6.082
6.66255
-28.9632
-1.27927
16.5336
-3.18265
-4.34808
-0.0168123
-25.2717
14.3035
-1.28005
2.8619
2.69329
-2.72318
-0.0492056
-3.20943
-4.03352
-37.983
-33.6837
-0.127912
1.87455
-0.534011
-3.74414
-1.93652
-1.87767
-0.924235
-21.9076
17.2496
-0.769167
12.5653
14.1839
-26.7644
6.2864
7.13702
18.4778
36.4269
36.4593
22.6386
-1.75566
2.59975
-20.9298
36.1255
32.7588
32.8257
-24.8091
21.775
30.5228
2.59925
15.7239
10.3715
17.1646
17.7263
12.5057
5.68151
-25.3985
4.26015
10.4094
16.2441
-31.7103
28.3093
-52.7107
18.6852
10.2991
-10.6273
7.41745
5.45718
24.4743
9.41122
24.4073
4.10525
12.3999
30.6401
29.4658
-22.9903
17.4357
-70.2308
-74.3773
-67.1748
11.6484
-31.2604
-63.6082
-3.80344
-69.9363
16.463
16.4067
-73.7525
5.21236
-39.7301
-70.7368
-37.7561
-71.8732
-39.4516
21.1364
-23.9602
-29.0443
-70.6207
4.83149
15.7577
-36.1899
6.05363
-63.6159
9.83608
3.88186
-67.8993
-37.6237
-66.4088
-23.7558
5.02925
20.5259
35.3707
36.7264
11.8122
36.8502
36.9035
36.4919
36.4042
-24.479
28.2479
20.6691
21.9804
11.5348
36.0601
36.0916
18.1199
-23.9406
3.24671
-30.5266
-56.5969
-50.474
36.1433
35.8241
35.3807
35.4509
36.1593
35.5986
33.1098
37.3707
35.3999
36.0061
35.6384
34.1964
34.333
35.8563
35.3096
