# vtk DataFile Version 3.0
vtk output at time 380
ASCII
DATASET UNSTRUCTURED_GRID
POINTS 626 float
-3.68058e-05 0.000978749 0 3.68058e-05 0.000978749 0 -0.000829194 0.00052125 0 
-0.0008235 0.0005 0 -0.000866 0.0004575 0 -0.000866 -0.0004575 0 
-0.0008235 -0.0005 0 -0.000829194 -0.00052125 0 -3.68058e-05 -0.000978749 0 
3.68058e-05 -0.000978749 0 0.000829194 -0.00052125 0 0.000866 -0.0004575 0 
0.000866 0.0004575 0 0.000829194 0.00052125 0 8.5e-05 0 0 
-3.68058e-05 0.000978749 -0.001 3.68058e-05 0.000978749 -0.001 -0.000829194 0.00052125 -0.001 
-0.0008235 0.0005 -0.001 -0.000866 0.0004575 -0.001 -0.000866 -0.0004575 -0.001 
-0.0008235 -0.0005 -0.001 -0.000829194 -0.00052125 -0.001 -3.68058e-05 -0.000978749 -0.001 
3.68058e-05 -0.000978749 -0.001 0.000829194 -0.00052125 -0.001 0.000866 -0.0004575 -0.001 
0.000866 0.0004575 -0.001 0.000829194 0.00052125 -0.001 8.5e-05 0 -0.001 
8.46223e-17 0.0009575 0 -0.000715996 0.000586607 0 -0.000602797 0.000651965 0 
-0.000489599 0.000717321 0 -0.000376401 0.000782678 0 -0.000263202 0.000848036 0 
-0.000150004 0.000913393 0 -0.000835948 0.000469948 0 -0.000866 -0.000326786 0 
-0.000866 -0.000196071 0 -0.000866 -6.53571e-05 0 -0.000866 6.53571e-05 0 
-0.000866 0.000196071 0 -0.000866 0.000326786 0 -0.000835948 -0.000469948 0 
-0.000150004 -0.000913393 0 -0.000263202 -0.000848036 0 -0.000376401 -0.000782678 0 
-0.000489599 -0.000717321 0 -0.000602797 -0.000651965 0 -0.000715996 -0.000586607 0 
8.47648e-17 -0.0009575 0 0.000715996 -0.000586607 0 0.000602797 -0.000651965 0 
0.000489599 -0.000717321 0 0.000376401 -0.000782678 0 0.000263202 -0.000848036 0 
0.000150004 -0.000913393 0 0.000829194 -0.00047875 0 0.000866 0.000326786 0 
0.000866 0.000196071 0 0.000866 6.53571e-05 0 0.000866 -6.53571e-05 0 
0.000866 -0.000196071 0 0.000866 -0.000326786 0 0.000829194 0.00047875 0 
0.000150004 0.000913393 0 0.000263202 0.000848036 0 0.000376401 0.000782678 0 
0.000489599 0.000717321 0 0.000602797 0.000651965 0 0.000715996 0.000586607 0 
5.29966e-05 6.64557e-05 0 -1.89143e-05 8.28689e-05 0 -7.65824e-05 3.68801e-05 0 
-7.65824e-05 -3.68801e-05 0 -1.89143e-05 -8.28689e-05 0 5.29966e-05 -6.64557e-05 0 
8.46223e-17 0.0009575 -0.001 -0.000715996 0.000586607 -0.001 -0.000602797 0.000651965 -0.001 
-0.000489599 0.000717321 -0.001 -0.000376401 0.000782678 -0.001 -0.000263202 0.000848036 -0.001 
-0.000150004 0.000913393 -0.001 -0.000835948 0.000469948 -0.001 -0.000866 -0.000326786 -0.001 
-0.000866 -0.000196071 -0.001 -0.000866 -6.53571e-05 -0.001 -0.000866 6.53571e-05 -0.001 
-0.000866 0.000196071 -0.001 -0.000866 0.000326786 -0.001 -0.000835948 -0.000469948 -0.001 
-0.000150004 -0.000913393 -0.001 -0.000263202 -0.000848036 -0.001 -0.000376401 -0.000782678 -0.001 
-0.000489599 -0.000717321 -0.001 -0.000602797 -0.000651965 -0.001 -0.000715996 -0.000586607 -0.001 
8.47648e-17 -0.0009575 -0.001 0.000715996 -0.000586607 -0.001 0.000602797 -0.000651965 -0.001 
0.000489599 -0.000717321 -0.001 0.000376401 -0.000782678 -0.001 0.000263202 -0.000848036 -0.001 
0.000150004 -0.000913393 -0.001 0.000829194 -0.00047875 -0.001 0.000866 0.000326786 -0.001 
0.000866 0.000196071 -0.001 0.000866 6.53571e-05 -0.001 0.000866 -6.53571e-05 -0.001 
0.000866 -0.000196071 -0.001 0.000866 -0.000326786 -0.001 0.000829194 0.00047875 -0.001 
0.000150004 0.000913393 -0.001 0.000263202 0.000848036 -0.001 0.000376401 0.000782678 -0.001 
0.000489599 0.000717321 -0.001 0.000602797 0.000651965 -0.001 0.000715996 0.000586607 -0.001 
5.29966e-05 6.64557e-05 -0.001 -1.89143e-05 8.28689e-05 -0.001 -7.65824e-05 3.68801e-05 -0.001 
-7.65824e-05 -3.68801e-05 -0.001 -1.89143e-05 -8.28689e-05 -0.001 5.29966e-05 -6.64557e-05 -0.001 
0.000131234 6.38474e-05 0 0.00012964 -6.2443e-05 0 3.13827e-05 0.0001394 0 
3.12554e-05 -0.000136939 0 -0.000140461 8.25467e-19 0 -8.90565e-05 -0.000102707 0 
-9.04142e-05 0.000102872 0 -0.000765769 -0.00025965 0 -0.000756873 0.000262774 0 
-0.00015609 0.000787505 0 -0.000155807 -0.00079355 0 0.000605069 0.000528035 0 
0.000608694 -0.00052497 0 0.000744069 0.000116929 0 -0.000494418 0.000596218 0 
-0.000483866 -0.000584648 0 0.000269496 0.000702219 0 0.000263201 -0.000717324 0 
0.000754429 -0.000127825 0 -0.000748858 5.84659e-07 0 -0.000747838 0.000373886 0 
-0.0006542 0.000324842 0 -0.000645137 0.000210123 0 -0.000550884 0.000274171 0 
-0.000538857 0.000163195 0 -0.00045062 0.000224461 0 -0.000438393 0.000123907 0 
-0.000354088 0.000181668 0 -0.000363908 0.000282171 0 -0.000270361 0.000239477 0 
-0.000279138 0.000337653 0 -0.000188888 0.000294791 0 -0.000196448 0.000393271 0 
-0.000104767 0.000348259 0 -0.000113332 0.000449012 0 -2.01066e-05 0.000403223 0 
-2.89189e-05 0.000507105 0 6.9524e-05 0.000461596 0 -0.000213644 0.000490203 0 
7.33757e-05 0.000357726 0 0.000163331 0.00041299 0 0.000163359 0.000313022 0 
0.000248077 0.000366368 0 0.000250914 0.000265758 0 0.000335709 0.000322266 0 
0.000340555 0.000218148 0 0.000427299 0.000276717 0 0.000431508 0.000173093 0 
0.000328731 0.000425633 0 0.00034586 0.000114823 0 0.000435362 7.05241e-05 0 
0.000350892 1.5455e-05 0 0.000441547 -3.11896e-05 0 0.000353547 -8.47783e-05 0 
0.000445767 -0.000132964 0 0.000356135 -0.000186358 0 0.000449094 -0.000234674 0 
0.000359978 -0.000287876 0 0.00026856 -0.000240545 0 0.000271895 -0.000341045 0 
0.000181792 -0.00029305 0 0.00018533 -0.000392851 0 9.75701e-05 -0.00034483 0 
9.98764e-05 -0.000444884 0 8.75116e-06 -0.000396343 0 1.20916e-05 -0.000500496 0 
-7.83929e-05 -0.000449843 0 -8.1471e-05 -0.000347249 0 -0.000171566 -0.000403733 0 
-0.000169889 -0.000298891 0 -0.000259867 -0.000354132 0 -0.000257696 -0.000249137 0 
-0.00034313 -0.000299896 0 -0.000344514 -0.000199127 0 -0.000434309 -0.000250039 0 
-0.000169832 -0.000505815 0 -0.000435227 -0.000146227 0 0.000280331 -0.000442424 0 
-0.000340889 8.76793e-05 0 -0.000515252 4.06198e-05 0 6.50491e-05 0.000568253 0 
0.00053278 1.74743e-05 0 0.000522071 0.000229831 0 -0.00037162 0.000391659 0 
-0.000255272 -0.000150439 0 -0.000442893 -0.000350705 0 0.000450067 -0.000332559 0 
0.000545175 -0.000276306 0 -0.000527797 -0.000197598 0 0.000105306 -0.000551033 0 
1.45836e-05 -0.000609147 0 0.00017145 0.000214453 0 0.000515525 0.000341711 0 
0.000636086 0.000290368 0 -0.000558657 0.000404468 0 -4.01232e-05 0.000616718 0 
6.60192e-05 0.000696422 0 -0.000101806 0.0002546 0 0.000271142 -3.88908e-05 0 
0.000179455 -0.00018534 0 -8.79553e-05 -0.000254307 0 -0.000749267 -0.000373451 0 
-0.000655941 -0.000323397 0 0.000709746 0.000466718 0 0.000698426 -0.000473086 0 
-5.25801e-05 -0.00084886 0 -4.93005e-05 0.000848038 0 0.000617396 -0.000413362 0 
0.000702056 -0.000369817 0 0.000131459 -0.000679171 0 2.48171e-05 -0.000715924 0 
-0.000664217 -0.00042729 0 -0.000528828 -8.80444e-05 0 -0.000611101 -0.000136672 0 
-0.000426972 -4.45841e-05 0 0.000800669 0.000378216 0 0.000821144 -0.000415062 0 
7.2799e-05 0.00088254 0 6.81831e-05 -0.00087503 0 0.000104963 -0.000788946 0 
-7.40696e-05 -0.000660054 0 0.000126061 0.000809943 0 0.000764361 0.000295682 0 
0.000166862 0.000630623 0 0.000516462 -0.00046707 0 -0.000563585 -0.000389606 0 
-0.000622598 -1.40238e-05 0 0.000629891 0.000171529 0 2.5614e-06 -0.000299794 0 
8.6901e-05 -0.00024329 0 0.000272045 -0.000136982 0 -0.00075148 0.000138321 0 
0.000209366 -0.000599589 0 0.000324913 -0.000630055 0 0.000614044 0.00041245 0 
0.00049651 -0.000573327 0 0.000394822 -0.000507321 0 -0.000173714 -0.000206698 0 
0.000264897 5.63722e-05 0 0.000247997 0.000152811 0 -4.63327e-05 -0.000920208 0 
9.18688e-05 0.000258626 0 -5.54111e-06 0.000290558 0 -0.000184219 0.000201484 0 
-0.000263559 0.000142267 0 -0.000256427 5.13624e-05 0 -0.000336894 -2.06179e-06 0 
-0.000228499 -4.2388e-05 0 -0.00017589 0.000106626 0 -0.000769947 -0.000133367 0 
0.000767591 -0.000500293 0 -5.05874e-05 0.000737978 0 0.000754456 -3.51771e-06 0 
0.00064691 -6.15298e-05 0 0.000630483 -0.00018134 0 0.000749187 -0.000265543 0 
-0.000760805 -0.000462521 0 0.000638155 6.09315e-05 0 -4.46661e-05 0.000922995 0 
-2.37945e-05 0.000207237 0 0.000776979 0.000500181 0 -0.000605691 0.000527596 0 
-0.000377914 -0.000653727 0 -0.000372325 -0.000526022 0 -0.000275829 -0.000589621 0 
-0.000254285 -0.000710579 0 -0.000379307 0.000656222 0 -0.000379818 0.00052718 0 
-0.000266817 0.000721555 0 -0.000150544 0.000668174 0 0.000381963 0.00065079 0 
0.000493113 0.000590432 0 0.000505439 0.000463708 0 -0.000269094 0.000596608 0 
0.000385815 0.000532045 0 0.000283599 0.0005899 0 -0.000176405 -0.000108505 0 
-0.000278769 -0.000475415 0 0.000185395 2.33014e-06 0 0.000186773 0.000517571 0 
0.000540032 -8.68444e-05 0 -0.000600694 -0.000514877 0 -0.00063703 8.98033e-05 0 
-0.000459677 0.000335729 0 -0.000338836 -0.000100751 0 -0.000457327 0.000432721 0 
-8.72007e-06 -0.000210238 0 0.000156073 0.000129496 0 -7.70692e-05 -0.000555049 0 
0.00036091 -0.000389728 0 0.000531628 0.000120564 0 -0.000285451 0.000435562 0 
0.000192719 -0.000494604 0 0.00041642 0.00039368 0 -0.000135943 0.000554637 0 
-0.000170665 -0.000610079 0 -0.000666304 0.000434981 0 -0.000758736 0.000479231 0 
-0.000470189 -0.000458901 0 0.000203433 -8.59809e-05 0 0.000101846 0.000170114 0 
-0.00035513 -0.00040726 0 0.000100184 -0.000165831 0 2.96286e-05 0.00081537 0 
0.000720946 0.000381836 0 -0.000539809 -0.000292001 0 0.00052211 -0.000182426 0 
-6.41339e-05 -0.000753908 0 0.000638039 -0.000299861 0 -0.000605136 -0.000230182 0 
-3.41638e-05 -0.000145561 0 -0.000104037 0.000172396 0 -0.000808575 -0.00042774 0 
-0.000807207 -0.000465052 0 -0.00080817 0.000429771 0 -0.000806589 0.000469738 0 
-9.50634e-05 -0.000178909 0 0.000247777 0.000445058 0 1.48293e-05 -0.000814201 0 
-4.11555e-05 0.000140955 0 0.000276104 -0.000536845 0 0.000765969 -0.000436638 0 
0.000780871 -0.000362769 0 0.000424176 -0.000642018 0 0.00053413 -0.000368009 0 
-0.000416333 4.17911e-05 0 -0.000133891 -6.23822e-05 0 4.2574e-05 0.000206312 0 
0.000141163 -0.000121542 0 0.000707423 0.000212137 0 0.000172327 0.000723882 0 
7.72652e-06 -0.00090254 0 -0.000134435 5.66935e-05 0 -0.000188826 3.70894e-05 0 
0.000197119 8.09714e-05 0 1.27801e-05 0.000917296 0 0.000800767 0.00044758 0 
-0.000686682 0.000507104 0 9.35831e-05 0.000110457 0 -0.000696793 -0.000509595 0 
-0.00068446 -8.52012e-05 0 -0.000691033 -0.000201242 0 5.24052e-05 -0.000189075 0 
-0.000151818 -0.000701092 0 -0.000296988 0.000518087 0 9.31023e-05 -0.000108117 0 
0.00044261 -0.000416726 0 0.000197044 -0.000784423 0 -0.000516861 0.000504567 0 
0.000298997 0.000502377 0 0.000131234 6.38474e-05 -0.001 0.00012964 -6.2443e-05 -0.001 
3.13827e-05 0.0001394 -0.001 3.12554e-05 -0.000136939 -0.001 -0.000140461 8.25467e-19 -0.001 
-8.90565e-05 -0.000102707 -0.001 -9.04142e-05 0.000102872 -0.001 -0.000765769 -0.00025965 -0.001 
-0.000756873 0.000262774 -0.001 -0.00015609 0.000787505 -0.001 -0.000155807 -0.00079355 -0.001 
0.000605069 0.000528035 -0.001 0.000608694 -0.00052497 -0.001 0.000744069 0.000116929 -0.001 
-0.000494418 0.000596218 -0.001 -0.000483866 -0.000584648 -0.001 0.000269496 0.000702219 -0.001 
0.000263201 -0.000717324 -0.001 0.000754429 -0.000127825 -0.001 -0.000748858 5.84659e-07 -0.001 
-0.000747838 0.000373886 -0.001 -0.0006542 0.000324842 -0.001 -0.000645137 0.000210123 -0.001 
-0.000550884 0.000274171 -0.001 -0.000538857 0.000163195 -0.001 -0.00045062 0.000224461 -0.001 
-0.000438393 0.000123907 -0.001 -0.000354088 0.000181668 -0.001 -0.000363908 0.000282171 -0.001 
-0.000270361 0.000239477 -0.001 -0.000279138 0.000337653 -0.001 -0.000188888 0.000294791 -0.001 
-0.000196448 0.000393271 -0.001 -0.000104767 0.000348259 -0.001 -0.000113332 0.000449012 -0.001 
-2.01066e-05 0.000403223 -0.001 -2.89189e-05 0.000507105 -0.001 6.9524e-05 0.000461596 -0.001 
-0.000213644 0.000490203 -0.001 7.33757e-05 0.000357726 -0.001 0.000163331 0.00041299 -0.001 
0.000163359 0.000313022 -0.001 0.000248077 0.000366368 -0.001 0.000250914 0.000265758 -0.001 
0.000335709 0.000322266 -0.001 0.000340555 0.000218148 -0.001 0.000427299 0.000276717 -0.001 
0.000431508 0.000173093 -0.001 0.000328731 0.000425633 -0.001 0.00034586 0.000114823 -0.001 
0.000435362 7.05241e-05 -0.001 0.000350892 1.5455e-05 -0.001 0.000441547 -3.11896e-05 -0.001 
0.000353547 -8.47783e-05 -0.001 0.000445767 -0.000132964 -0.001 0.000356135 -0.000186358 -0.001 
0.000449094 -0.000234674 -0.001 0.000359978 -0.000287876 -0.001 0.00026856 -0.000240545 -0.001 
0.000271895 -0.000341045 -0.001 0.000181792 -0.00029305 -0.001 0.00018533 -0.000392851 -0.001 
9.75701e-05 -0.00034483 -0.001 9.98764e-05 -0.000444884 -0.001 8.75116e-06 -0.000396343 -0.001 
1.20916e-05 -0.000500496 -0.001 -7.83929e-05 -0.000449843 -0.001 -8.1471e-05 -0.000347249 -0.001 
-0.000171566 -0.000403733 -0.001 -0.000169889 -0.000298891 -0.001 -0.000259867 -0.000354132 -0.001 
-0.000257696 -0.000249137 -0.001 -0.00034313 -0.000299896 -0.001 -0.000344514 -0.000199127 -0.001 
-0.000434309 -0.000250039 -0.001 -0.000169832 -0.000505815 -0.001 -0.000435227 -0.000146227 -0.001 
0.000280331 -0.000442424 -0.001 -0.000340889 8.76793e-05 -0.001 -0.000515252 4.06198e-05 -0.001 
6.50491e-05 0.000568253 -0.001 0.00053278 1.74743e-05 -0.001 0.000522071 0.000229831 -0.001 
-0.00037162 0.000391659 -0.001 -0.000255272 -0.000150439 -0.001 -0.000442893 -0.000350705 -0.001 
0.000450067 -0.000332559 -0.001 0.000545175 -0.000276306 -0.001 -0.000527797 -0.000197598 -0.001 
0.000105306 -0.000551033 -0.001 1.45836e-05 -0.000609147 -0.001 0.00017145 0.000214453 -0.001 
0.000515525 0.000341711 -0.001 0.000636086 0.000290368 -0.001 -0.000558657 0.000404468 -0.001 
-4.01232e-05 0.000616718 -0.001 6.60192e-05 0.000696422 -0.001 -0.000101806 0.0002546 -0.001 
0.000271142 -3.88908e-05 -0.001 0.000179455 -0.00018534 -0.001 -8.79553e-05 -0.000254307 -0.001 
-0.000749267 -0.000373451 -0.001 -0.000655941 -0.000323397 -0.001 0.000709746 0.000466718 -0.001 
0.000698426 -0.000473086 -0.001 -5.25801e-05 -0.00084886 -0.001 -4.93005e-05 0.000848038 -0.001 
0.000617396 -0.000413362 -0.001 0.000702056 -0.000369817 -0.001 0.000131459 -0.000679171 -0.001 
2.48171e-05 -0.000715924 -0.001 -0.000664217 -0.00042729 -0.001 -0.000528828 -8.80444e-05 -0.001 
-0.000611101 -0.000136672 -0.001 -0.000426972 -4.45841e-05 -0.001 0.000800669 0.000378216 -0.001 
0.000821144 -0.000415062 -0.001 7.2799e-05 0.00088254 -0.001 6.81831e-05 -0.00087503 -0.001 
0.000104963 -0.000788946 -0.001 -7.40696e-05 -0.000660054 -0.001 0.000126061 0.000809943 -0.001 
0.000764361 0.000295682 -0.001 0.000166862 0.000630623 -0.001 0.000516462 -0.00046707 -0.001 
-0.000563585 -0.000389606 -0.001 -0.000622598 -1.40238e-05 -0.001 0.000629891 0.000171529 -0.001 
2.5614e-06 -0.000299794 -0.001 8.6901e-05 -0.00024329 -0.001 0.000272045 -0.000136982 -0.001 
-0.00075148 0.000138321 -0.001 0.000209366 -0.000599589 -0.001 0.000324913 -0.000630055 -0.001 
0.000614044 0.00041245 -0.001 0.00049651 -0.000573327 -0.001 0.000394822 -0.000507321 -0.001 
-0.000173714 -0.000206698 -0.001 0.000264897 5.63722e-05 -0.001 0.000247997 0.000152811 -0.001 
-4.63327e-05 -0.000920208 -0.001 9.18688e-05 0.000258626 -0.001 -5.54111e-06 0.000290558 -0.001 
-0.000184219 0.000201484 -0.001 -0.000263559 0.000142267 -0.001 -0.000256427 5.13624e-05 -0.001 
-0.000336894 -2.06179e-06 -0.001 -0.000228499 -4.2388e-05 -0.001 -0.00017589 0.000106626 -0.001 
-0.000769947 -0.000133367 -0.001 0.000767591 -0.000500293 -0.001 -5.05874e-05 0.000737978 -0.001 
0.000754456 -3.51771e-06 -0.001 0.00064691 -6.15298e-05 -0.001 0.000630483 -0.00018134 -0.001 
0.000749187 -0.000265543 -0.001 -0.000760805 -0.000462521 -0.001 0.000638155 6.09315e-05 -0.001 
-4.46661e-05 0.000922995 -0.001 -2.37945e-05 0.000207237 -0.001 0.000776979 0.000500181 -0.001 
-0.000605691 0.000527596 -0.001 -0.000377914 -0.000653727 -0.001 -0.000372325 -0.000526022 -0.001 
-0.000275829 -0.000589621 -0.001 -0.000254285 -0.000710579 -0.001 -0.000379307 0.000656222 -0.001 
-0.000379818 0.00052718 -0.001 -0.000266817 0.000721555 -0.001 -0.000150544 0.000668174 -0.001 
0.000381963 0.00065079 -0.001 0.000493113 0.000590432 -0.001 0.000505439 0.000463708 -0.001 
-0.000269094 0.000596608 -0.001 0.000385815 0.000532045 -0.001 0.000283599 0.0005899 -0.001 
-0.000176405 -0.000108505 -0.001 -0.000278769 -0.000475415 -0.001 0.000185395 2.33014e-06 -0.001 
0.000186773 0.000517571 -0.001 0.000540032 -8.68444e-05 -0.001 -0.000600694 -0.000514877 -0.001 
-0.00063703 8.98033e-05 -0.001 -0.000459677 0.000335729 -0.001 -0.000338836 -0.000100751 -0.001 
-0.000457327 0.000432721 -0.001 -8.72007e-06 -0.000210238 -0.001 0.000156073 0.000129496 -0.001 
-7.70692e-05 -0.000555049 -0.001 0.00036091 -0.000389728 -0.001 0.000531628 0.000120564 -0.001 
-0.000285451 0.000435562 -0.001 0.000192719 -0.000494604 -0.001 0.00041642 0.00039368 -0.001 
-0.000135943 0.000554637 -0.001 -0.000170665 -0.000610079 -0.001 -0.000666304 0.000434981 -0.001 
-0.000758736 0.000479231 -0.001 -0.000470189 -0.000458901 -0.001 0.000203433 -8.59809e-05 -0.001 
0.000101846 0.000170114 -0.001 -0.00035513 -0.00040726 -0.001 0.000100184 -0.000165831 -0.001 
2.96286e-05 0.00081537 -0.001 0.000720946 0.000381836 -0.001 -0.000539809 -0.000292001 -0.001 
0.00052211 -0.000182426 -0.001 -6.41339e-05 -0.000753908 -0.001 0.000638039 -0.000299861 -0.001 
-0.000605136 -0.000230182 -0.001 -3.41638e-05 -0.000145561 -0.001 -0.000104037 0.000172396 -0.001 
-0.000808575 -0.00042774 -0.001 -0.000807207 -0.000465052 -0.001 -0.00080817 0.000429771 -0.001 
-0.000806589 0.000469738 -0.001 -9.50634e-05 -0.000178909 -0.001 0.000247777 0.000445058 -0.001 
1.48293e-05 -0.000814201 -0.001 -4.11555e-05 0.000140955 -0.001 0.000276104 -0.000536845 -0.001 
0.000765969 -0.000436638 -0.001 0.000780871 -0.000362769 -0.001 0.000424176 -0.000642018 -0.001 
0.00053413 -0.000368009 -0.001 -0.000416333 4.17911e-05 -0.001 -0.000133891 -6.23822e-05 -0.001 
4.2574e-05 0.000206312 -0.001 0.000141163 -0.000121542 -0.001 0.000707423 0.000212137 -0.001 
0.000172327 0.000723882 -0.001 7.72652e-06 -0.00090254 -0.001 -0.000134435 5.66935e-05 -0.001 
-0.000188826 3.70894e-05 -0.001 0.000197119 8.09714e-05 -0.001 1.27801e-05 0.000917296 -0.001 
0.000800767 0.00044758 -0.001 -0.000686682 0.000507104 -0.001 9.35831e-05 0.000110457 -0.001 
-0.000696793 -0.000509595 -0.001 -0.00068446 -8.52012e-05 -0.001 -0.000691033 -0.000201242 -0.001 
5.24052e-05 -0.000189075 -0.001 -0.000151818 -0.000701092 -0.001 -0.000296988 0.000518087 -0.001 
9.31023e-05 -0.000108117 -0.001 0.00044261 -0.000416726 -0.001 0.000197044 -0.000784423 -0.001 
-0.000516861 0.000504567 -0.001 0.000298997 0.000502377 -0.001 

CELLS 563 3941
6 14 304 127 29 554 377 
6 143 259 55 393 509 103 
6 300 319 174 550 569 424 
6 259 349 55 509 599 103 
6 50 365 307 98 615 557 
6 299 320 164 549 570 414 
6 126 304 14 376 554 29 
6 298 319 300 548 569 550 
6 205 240 238 455 490 488 
6 257 308 145 507 558 395 
6 130 352 273 380 602 523 
6 295 320 299 545 570 549 
6 324 327 289 574 577 539 
6 235 258 143 485 508 393 
6 50 307 49 98 557 97 
6 207 283 279 457 533 529 
6 143 373 235 393 623 485 
6 145 308 252 395 558 502 
6 194 303 196 444 553 446 
6 279 306 207 529 556 457 
6 206 305 163 456 555 413 
6 51 357 9 99 607 24 
6 238 252 205 488 502 455 
6 293 317 209 543 567 459 
6 207 316 283 457 566 533 
6 142 301 249 392 551 499 
6 273 359 130 523 609 380 
6 211 327 324 461 577 574 
6 169 265 217 419 515 467 
6 7 365 50 22 615 98 
6 283 316 253 533 566 503 
6 159 268 223 409 518 473 
6 274 337 132 524 587 382 
6 232 361 329 482 611 579 
6 231 266 45 481 516 93 
6 229 362 330 479 612 580 
6 9 244 57 24 494 105 
6 230 276 52 480 526 100 
6 209 311 293 459 561 543 
6 131 342 302 381 592 552 
6 270 271 204 520 521 454 
6 66 243 1 114 493 16 
6 59 241 12 107 491 27 
6 280 306 279 530 556 529 
6 269 337 274 519 587 524 
6 179 256 224 429 506 474 
6 163 305 166 413 555 416 
6 201 303 194 451 553 444 
6 280 332 306 530 582 556 
6 186 255 225 436 505 475 
6 210 310 273 460 560 523 
6 153 270 204 403 520 454 
6 136 231 45 386 481 93 
6 171 265 169 421 515 419 
6 138 230 52 388 480 100 
6 225 354 325 475 604 575 
6 36 284 232 84 534 482 
6 161 268 159 411 518 409 
6 71 286 229 119 536 479 
6 290 303 201 540 553 451 
6 139 355 60 389 605 108 
6 60 355 248 108 605 498 
6 273 352 302 523 602 552 
6 235 373 245 485 623 495 
6 67 356 247 115 606 497 
6 221 295 277 471 545 527 
6 142 356 67 392 606 115 
6 139 283 253 389 533 503 
6 203 315 262 453 565 512 
6 41 257 145 89 507 395 
6 36 232 135 84 482 385 
6 71 229 137 119 479 387 
6 254 255 188 504 505 438 
6 233 350 334 483 600 584 
6 262 346 203 512 596 453 
6 304 325 127 554 575 377 
6 222 329 247 472 579 497 
6 218 298 260 468 548 510 
6 290 321 291 540 571 541 
6 272 310 240 522 560 490 
6 269 274 270 519 524 520 
6 244 245 57 494 495 105 
6 49 307 141 97 557 391 
6 225 325 256 475 575 506 
6 273 310 272 523 560 522 
6 312 368 255 562 618 505 
6 249 305 206 499 555 456 
6 228 331 251 478 581 501 
6 302 342 263 552 592 513 
6 338 339 44 588 589 92 
6 190 254 188 440 504 438 
6 37 341 340 85 591 590 
6 138 233 230 388 483 480 
6 228 335 331 478 585 581 
6 181 256 179 431 506 429 
6 195 263 226 445 513 476 
6 268 285 223 518 535 473 
6 290 291 288 540 541 538 
6 219 330 248 469 580 498 
6 201 321 290 451 571 540 
6 240 310 202 490 560 452 
6 188 255 186 438 505 436 
6 270 274 271 520 524 521 
6 262 349 259 512 599 509 
6 141 324 289 391 574 539 
6 296 301 142 546 551 392 
6 247 356 222 497 606 472 
6 239 252 238 489 502 488 
6 254 312 255 504 562 505 
6 54 261 53 102 511 101 
6 289 327 303 539 577 553 
6 268 353 285 518 603 535 
6 273 302 210 523 552 460 
6 292 299 293 542 549 543 
6 278 283 139 528 533 389 
6 175 265 171 425 515 421 
6 227 338 38 477 588 86 
6 264 360 265 514 610 515 
6 43 340 146 91 590 396 
6 165 268 161 415 518 411 
6 205 351 240 455 601 490 
6 64 281 63 112 531 111 
6 288 291 47 538 541 95 
6 135 295 294 385 545 544 
6 42 257 41 90 507 89 
6 245 373 57 495 623 105 
6 31 363 323 79 613 573 
6 292 293 140 542 543 390 
6 267 353 268 517 603 518 
6 155 270 153 405 520 403 
6 244 344 245 494 594 495 
6 61 278 139 109 528 389 
6 135 294 35 385 544 83 
6 69 297 296 117 547 546 
6 186 225 184 436 475 434 
6 329 361 243 579 611 493 
6 255 328 225 505 578 475 
6 213 332 280 463 582 530 
6 39 275 133 87 525 383 
6 330 362 241 580 612 491 
6 195 226 193 445 476 443 
6 211 324 251 461 574 501 
6 151 153 152 401 403 402 
6 295 299 294 545 549 544 
6 265 313 217 515 563 467 
6 258 259 143 508 509 393 
6 251 331 211 501 581 461 
6 149 151 150 399 401 400 
6 293 370 317 543 620 567 
6 153 204 152 403 454 402 
6 151 152 150 401 402 400 
6 33 292 140 81 542 390 
6 210 263 197 460 513 447 
6 301 305 249 551 555 499 
6 298 300 297 548 550 547 
6 68 296 142 116 546 392 
6 321 369 291 571 619 541 
6 179 224 177 429 474 427 
6 167 267 165 417 517 415 
6 259 346 262 509 596 512 
6 303 327 196 553 577 446 
6 269 270 155 519 520 405 
6 265 360 313 515 610 563 
6 223 269 157 473 519 407 
6 157 269 155 407 519 405 
6 144 279 278 394 529 528 
6 169 217 167 419 467 417 
6 177 264 175 427 514 425 
6 267 268 165 517 518 415 
6 159 223 157 409 473 407 
6 232 277 135 482 527 385 
6 193 254 190 443 504 440 
6 217 267 167 467 517 417 
6 249 356 142 499 606 392 
6 184 256 181 434 506 431 
6 248 355 219 498 605 469 
6 229 260 137 479 510 387 
6 149 150 148 399 400 398 
6 64 348 281 112 598 531 
6 311 374 293 561 624 543 
6 264 265 175 514 515 425 
6 297 300 296 547 550 546 
6 141 289 288 391 539 538 
6 197 263 195 447 513 445 
6 218 260 219 468 510 469 
6 224 264 177 474 514 427 
6 137 298 297 387 548 547 
6 277 295 135 527 545 385 
6 133 228 227 383 478 477 
6 261 349 262 511 599 512 
6 221 277 222 471 527 472 
6 256 325 224 506 575 474 
6 199 210 197 449 460 447 
6 226 254 193 476 504 443 
6 144 278 62 394 528 110 
6 279 283 278 529 533 528 
6 289 290 288 539 540 538 
6 137 297 70 387 547 118 
6 34 294 292 82 544 542 
6 235 236 216 485 486 466 
6 141 288 48 391 538 96 
6 178 306 180 428 556 430 
6 185 186 184 435 436 434 
6 63 281 144 111 531 394 
6 225 256 184 475 506 434 
6 46 291 136 94 541 386 
6 147 149 148 397 399 398 
6 271 272 204 521 522 454 
6 233 334 234 483 584 484 
6 145 275 40 395 525 88 
6 220 322 287 470 572 537 
6 280 334 213 530 584 463 
6 144 280 279 394 530 529 
6 140 287 32 390 537 80 
6 154 155 153 404 405 403 
6 334 350 213 584 600 463 
6 176 177 175 426 427 425 
6 260 298 137 510 548 387 
6 33 140 32 81 390 80 
6 49 141 48 97 391 96 
6 56 143 55 104 393 103 
6 68 142 67 116 392 115 
6 63 144 62 111 394 110 
6 61 139 60 109 389 108 
6 148 308 257 398 558 507 
6 71 137 70 119 387 118 
6 53 138 52 101 388 100 
6 46 136 45 94 386 93 
6 36 135 35 84 385 83 
6 43 146 134 91 396 384 
6 133 227 38 383 477 86 
6 192 193 190 442 443 440 
6 293 374 140 543 624 390 
6 34 292 33 82 542 81 
6 207 306 178 457 556 428 
6 43 134 42 91 384 90 
6 39 133 38 87 383 86 
6 41 145 40 89 395 88 
6 194 195 193 444 445 443 
6 69 296 68 117 546 116 
6 294 299 292 544 549 542 
6 173 175 171 423 425 421 
6 260 330 219 510 580 469 
6 183 184 181 433 434 431 
6 134 257 42 384 507 90 
6 55 349 54 103 599 102 
6 163 165 161 413 415 411 
6 166 167 165 416 417 415 
6 210 302 263 460 552 513 
6 271 273 272 521 523 522 
6 53 261 138 101 511 388 
6 217 326 267 467 576 517 
6 289 303 290 539 553 540 
6 178 179 177 428 429 427 
6 238 240 202 488 490 452 
6 62 278 61 110 528 109 
6 35 294 34 83 544 82 
6 284 361 232 534 611 482 
6 70 297 69 118 547 117 
6 224 304 264 474 554 514 
6 156 157 155 406 407 405 
6 48 288 47 96 538 95 
6 221 320 295 471 570 545 
6 187 188 186 437 438 436 
6 47 291 46 95 541 94 
6 151 154 153 401 404 403 
6 286 362 229 536 612 479 
6 168 169 167 418 419 417 
6 40 275 39 88 525 87 
6 307 324 141 557 574 391 
6 300 301 296 550 551 546 
6 32 287 31 80 537 79 
6 147 220 149 397 470 399 
6 333 344 231 583 594 481 
6 299 370 293 549 620 543 
6 271 359 273 521 609 523 
6 224 325 304 474 575 554 
6 228 237 227 478 487 477 
6 305 375 343 555 625 593 
6 218 319 298 468 569 548 
6 240 351 272 490 601 522 
6 277 329 222 527 579 472 
6 253 355 139 503 605 389 
6 158 159 157 408 409 407 
6 236 246 216 486 496 466 
6 192 194 193 442 444 443 
6 220 309 149 470 559 399 
6 183 185 184 433 435 434 
6 196 197 195 446 447 445 
6 276 347 58 526 597 106 
6 136 333 231 386 583 481 
6 67 247 66 115 497 114 
6 60 248 59 108 498 107 
6 261 262 250 511 512 500 
6 173 176 175 423 426 425 
6 344 357 231 594 607 481 
6 144 281 280 394 531 530 
6 152 205 150 402 455 400 
6 163 166 165 413 416 415 
6 185 187 186 435 437 436 
6 233 234 230 483 484 480 
6 170 171 169 420 421 419 
6 146 147 134 396 397 384 
6 176 178 177 426 428 427 
6 285 337 223 535 587 473 
6 154 156 155 404 406 405 
6 263 342 226 513 592 476 
6 235 245 236 485 495 486 
6 160 161 159 410 411 409 
6 58 347 242 106 597 492 
6 166 168 167 416 418 417 
6 287 374 220 537 624 470 
6 189 190 188 439 440 438 
6 148 257 134 398 507 384 
6 194 196 195 444 446 445 
6 252 308 205 502 558 455 
6 285 345 337 535 595 587 
6 301 375 305 551 625 555 
6 180 181 179 430 431 429 
6 281 348 234 531 598 484 
6 198 199 197 448 449 447 
6 151 309 154 401 559 404 
6 228 367 335 478 617 585 
6 54 349 261 102 599 511 
6 156 158 157 406 408 407 
6 168 170 169 418 420 419 
6 200 202 199 450 452 449 
6 147 148 134 397 398 384 
6 158 160 159 408 410 409 
6 150 308 148 400 558 398 
6 253 316 208 503 566 458 
6 232 329 277 482 579 527 
6 178 180 179 428 430 429 
6 191 192 190 441 442 440 
6 214 238 202 464 488 452 
6 172 173 171 422 423 421 
6 187 189 188 437 439 438 
6 162 163 161 412 413 411 
6 228 251 237 478 501 487 
6 215 258 235 465 508 485 
6 182 183 181 432 433 431 
6 202 310 199 452 560 449 
6 219 253 208 469 503 458 
6 222 249 206 472 499 456 
6 196 198 197 446 448 447 
6 229 330 260 479 580 510 
6 132 358 274 382 608 524 
6 149 309 151 399 559 401 
6 226 312 254 476 562 504 
6 154 309 209 404 559 459 
6 77 129 76 125 379 124 
6 73 128 72 121 378 120 
6 76 131 75 124 381 123 
6 74 132 73 122 382 121 
6 75 130 74 123 380 122 
6 14 127 77 29 377 125 
6 72 126 14 120 376 29 
6 133 367 228 383 617 478 
6 237 282 227 487 532 477 
6 239 366 252 489 616 502 
6 200 214 202 450 464 452 
6 192 201 194 442 451 444 
6 170 172 171 420 422 421 
6 220 311 309 470 561 559 
6 198 200 199 448 450 449 
6 189 191 190 439 441 440 
6 146 323 322 396 573 572 
6 160 162 161 410 412 411 
6 251 307 237 501 557 487 
6 199 310 210 449 560 460 
6 57 373 56 105 623 104 
6 214 239 238 464 489 488 
6 182 212 183 432 462 433 
6 180 182 181 430 432 431 
6 146 322 147 396 572 397 
6 172 218 208 422 468 458 
6 172 208 173 422 458 423 
6 162 221 206 412 471 456 
6 162 206 163 412 456 413 
6 176 207 178 426 457 428 
6 272 351 204 522 601 454 
6 198 211 200 448 461 450 
6 182 213 212 432 463 462 
6 234 334 281 484 584 531 
6 154 209 156 404 459 406 
6 185 203 187 435 453 437 
6 168 174 170 418 424 420 
6 189 215 191 439 465 441 
6 215 216 191 465 466 441 
6 221 222 206 471 472 456 
6 158 164 160 408 414 410 
6 218 219 208 468 469 458 
6 205 308 150 455 558 400 
6 191 314 192 441 564 442 
6 215 235 216 465 485 466 
6 215 318 258 465 568 508 
6 152 351 205 402 601 455 
6 138 261 250 388 511 500 
6 192 314 201 442 564 451 
6 234 347 230 484 597 480 
6 226 342 312 476 592 562 
6 138 250 233 388 500 483 
6 147 322 220 397 572 470 
6 216 314 191 466 564 441 
6 306 332 180 556 582 430 
6 222 356 249 472 606 499 
6 128 345 285 378 595 535 
6 314 321 201 564 571 451 
6 212 315 183 462 565 433 
6 312 342 336 562 592 586 
6 282 339 338 532 589 588 
6 340 341 323 590 591 573 
6 309 311 209 559 561 459 
6 183 315 185 433 565 435 
6 208 316 173 458 566 423 
6 173 316 176 423 566 426 
6 3 341 37 18 591 85 
6 44 339 6 92 589 21 
6 252 366 145 502 616 395 
6 246 321 314 496 571 564 
6 246 314 216 496 564 466 
6 126 364 313 376 614 563 
6 156 317 158 406 567 408 
6 275 367 133 525 617 383 
6 176 316 207 426 566 457 
6 185 315 203 435 565 453 
6 180 332 182 430 582 432 
6 302 352 131 552 602 381 
6 251 324 307 501 574 557 
6 187 318 189 437 568 439 
6 172 319 218 422 569 468 
6 162 320 221 412 570 471 
6 305 343 166 555 593 416 
6 170 319 172 420 569 422 
6 158 317 164 408 567 414 
6 209 317 156 459 567 406 
6 285 353 128 535 603 378 
6 223 337 269 473 587 519 
6 160 320 162 410 570 412 
6 211 331 200 461 581 450 
6 174 319 170 424 569 420 
6 203 318 187 453 568 437 
6 189 318 215 439 568 465 
6 198 327 211 448 577 461 
6 164 320 160 414 570 410 
6 326 353 267 576 603 517 
6 236 344 333 486 594 583 
6 196 327 198 446 577 448 
6 219 355 253 469 605 503 
6 281 334 280 531 584 530 
6 274 359 271 524 609 521 
6 164 370 299 414 620 549 
6 174 375 300 424 625 550 
6 287 363 31 537 613 79 
6 243 361 1 493 611 16 
6 241 362 12 491 612 27 
6 307 365 237 557 615 487 
6 166 343 168 416 593 418 
6 200 331 214 450 581 464 
6 313 326 217 563 576 467 
6 9 357 244 24 607 494 
6 1 361 30 16 611 78 
6 12 362 65 27 612 113 
6 337 345 132 587 595 382 
6 242 348 64 492 598 112 
6 231 357 266 481 607 516 
6 182 332 213 432 582 463 
6 245 344 236 495 594 486 
6 258 346 259 508 596 509 
6 145 366 275 395 616 525 
6 291 369 136 541 619 386 
6 236 333 246 486 583 496 
6 331 335 214 581 585 464 
6 312 336 129 562 586 379 
6 315 372 262 565 622 512 
6 220 374 311 470 624 561 
6 140 374 287 390 624 537 
6 126 360 304 376 610 554 
6 230 347 276 480 597 526 
6 313 364 326 563 614 576 
6 56 373 143 104 623 393 
6 239 367 366 489 617 616 
6 204 351 152 454 601 402 
6 300 375 301 550 625 551 
6 214 335 239 464 585 489 
6 247 329 243 497 579 493 
6 262 372 250 512 622 500 
6 248 330 241 498 580 491 
6 318 346 258 568 596 508 
6 333 369 246 583 619 496 
6 282 338 227 532 588 477 
6 146 340 323 396 590 573 
6 304 360 264 554 610 514 
6 366 367 275 616 617 525 
6 129 336 76 379 586 124 
6 73 345 128 121 595 378 
6 76 336 131 124 586 381 
6 250 350 233 500 600 483 
6 129 371 328 379 621 578 
6 132 345 73 382 595 121 
6 168 343 174 418 593 424 
6 131 352 75 381 602 123 
6 66 247 243 114 497 493 
6 59 248 241 107 498 491 
6 74 358 132 122 608 382 
6 203 346 318 453 596 568 
6 313 360 126 563 610 376 
6 128 364 72 378 614 120 
6 128 353 326 378 603 576 
6 77 371 129 125 621 379 
6 129 368 312 379 618 562 
6 244 357 344 494 607 594 
6 328 354 225 578 604 475 
6 326 364 128 576 614 378 
6 75 352 130 123 602 380 
6 350 372 212 600 622 462 
6 136 369 333 386 619 583 
6 325 354 127 575 604 377 
6 213 350 212 463 600 462 
6 130 358 74 380 608 122 
6 250 372 350 500 622 600 
6 317 370 164 567 620 414 
6 72 364 126 120 614 376 
6 328 368 129 578 618 379 
6 127 371 77 377 621 125 
6 336 342 131 586 592 381 
6 212 372 315 462 622 565 
6 234 348 347 484 598 597 
6 8 266 51 23 516 99 
6 10 276 58 25 526 106 
6 246 369 321 496 619 571 
6 30 284 0 78 534 15 
6 65 286 13 113 536 28 
6 58 242 11 106 492 26 
6 266 357 51 516 607 99 
6 255 368 328 505 618 578 
6 347 348 242 597 598 492 
6 322 363 287 572 613 537 
6 323 363 322 573 613 572 
6 335 367 239 585 617 489 
6 30 361 284 78 611 534 
6 65 362 286 113 612 536 
6 237 365 282 487 615 532 
6 130 359 358 380 609 608 
6 343 375 174 593 625 424 
6 354 371 127 604 621 377 
6 328 371 354 578 621 604 
6 358 359 274 608 609 524 
6 0 284 36 15 534 84 
6 45 266 8 93 516 23 
6 52 276 10 100 526 25 
6 11 242 64 26 492 112 
6 13 286 71 28 536 119 
6 2 323 3 17 573 18 
6 31 323 2 79 573 17 
6 323 341 3 573 591 18 
6 37 340 4 85 590 19 
6 4 340 43 19 590 91 
6 38 338 5 86 588 20 
6 5 338 44 20 588 92 
6 6 282 7 21 532 22 
6 6 339 282 21 589 532 
6 282 365 7 532 615 22 

CELL_TYPES 563
13
13
13
13
13
13
13
13
13
13
13
13
13
13
13
13
13
13
13
13
13
13
13
13
13
13
13
13
13
13
13
13
13
13
13
13
13
13
13
13
13
13
13
13
13
13
13
13
13
13
13
13
13
13
13
13
13
13
13
13
13
13
13
13
13
13
13
13
13
13
13
13
13
13
13
13
13
13
13
13
13
13
13
13
13
13
13
13
13
13
13
13
13
13
13
13
13
13
13
13
13
13
13
13
13
13
13
13
13
13
13
13
13
13
13
13
13
13
13
13
13
13
13
13
13
13
13
13
13
13
13
13
13
13
13
13
13
13
13
13
13
13
13
13
13
13
13
13
13
13
13
13
13
13
13
13
13
13
13
13
13
13
13
13
13
13
13
13
13
13
13
13
13
13
13
13
13
13
13
13
13
13
13
13
13
13
13
13
13
13
13
13
13
13
13
13
13
13
13
13
13
13
13
13
13
13
13
13
13
13
13
13
13
13
13
13
13
13
13
13
13
13
13
13
13
13
13
13
13
13
13
13
13
13
13
13
13
13
13
13
13
13
13
13
13
13
13
13
13
13
13
13
13
13
13
13
13
13
13
13
13
13
13
13
13
13
13
13
13
13
13
13
13
13
13
13
13
13
13
13
13
13
13
13
13
13
13
13
13
13
13
13
13
13
13
13
13
13
13
13
13
13
13
13
13
13
13
13
13
13
13
13
13
13
13
13
13
13
13
13
13
13
13
13
13
13
13
13
13
13
13
13
13
13
13
13
13
13
13
13
13
13
13
13
13
13
13
13
13
13
13
13
13
13
13
13
13
13
13
13
13
13
13
13
13
13
13
13
13
13
13
13
13
13
13
13
13
13
13
13
13
13
13
13
13
13
13
13
13
13
13
13
13
13
13
13
13
13
13
13
13
13
13
13
13
13
13
13
13
13
13
13
13
13
13
13
13
13
13
13
13
13
13
13
13
13
13
13
13
13
13
13
13
13
13
13
13
13
13
13
13
13
13
13
13
13
13
13
13
13
13
13
13
13
13
13
13
13
13
13
13
13
13
13
13
13
13
13
13
13
13
13
13
13
13
13
13
13
13
13
13
13
13
13
13
13
13
13
13
13
13
13
13
13
13
13
13
13
13
13
13
13
13
13
13
13
13
13
13
13
13
13
13
13
13
13
13
13
13
13
13
13
13
13
13
13
13
13
13
13
13
13
13
13
13
13
13
13
13
13
13
13
13
13
13
13
13
13
13
13
13
13
13
13
13
13
13
13
13
13
13
13
13

POINT_DATA 626
VECTORS displacement float
-1.74395e-06 3.09541e-05 1.80548e-05
1.73566e-06 3.09731e-05 1.80999e-05
-2.5986e-05 1.69927e-05 1.80869e-05
-2.58406e-05 1.60328e-05 1.80515e-05
-2.77204e-05 1.39726e-05 1.80689e-05
-2.77133e-05 -1.40189e-05 1.80943e-05
-2.58118e-05 -1.6071e-05 1.81057e-05
-2.59822e-05 -1.70107e-05 1.81669e-05
-1.67741e-06 -3.09578e-05 1.80512e-05
1.75545e-06 -3.09593e-05 1.81017e-05
2.59433e-05 -1.69805e-05 1.80433e-05
2.77167e-05 -1.39365e-05 1.80432e-05
2.76722e-05 1.39892e-05 1.80915e-05
2.59147e-05 1.69928e-05 1.80459e-05
0 0 0
-1.74395e-06 3.09541e-05 -1.80548e-05
1.73566e-06 3.09731e-05 -1.80999e-05
-2.5986e-05 1.69927e-05 -1.80869e-05
-2.58406e-05 1.60328e-05 -1.80515e-05
-2.77204e-05 1.39726e-05 -1.80689e-05
-2.77133e-05 -1.40189e-05 -1.80943e-05
-2.58118e-05 -1.6071e-05 -1.81057e-05
-2.59822e-05 -1.70107e-05 -1.81669e-05
-1.67741e-06 -3.09578e-05 -1.80512e-05
1.75545e-06 -3.09593e-05 -1.81017e-05
2.59433e-05 -1.69805e-05 -1.80433e-05
2.77167e-05 -1.39365e-05 -1.80432e-05
2.76722e-05 1.39892e-05 -1.80915e-05
2.59147e-05 1.69928e-05 -1.80459e-05
0 0 0
2.48958e-08 3.0154e-05 1.8034e-05
-2.11403e-05 1.87122e-05 1.75495e-05
-1.72322e-05 1.98335e-05 1.69206e-05
-1.40067e-05 2.10539e-05 1.65547e-05
-1.12067e-05 2.26645e-05 1.65486e-05
-8.52398e-06 2.48325e-05 1.69011e-05
-5.56776e-06 2.76213e-05 1.75372e-05
-2.64495e-05 1.46789e-05 1.80333e-05
-2.67684e-05 -9.01137e-06 1.75772e-05
-2.58059e-05 -5.03537e-06 1.69257e-05
-2.52541e-05 -1.63617e-06 1.65712e-05
-2.5257e-05 1.60781e-06 1.65741e-05
-2.57981e-05 5.02277e-06 1.69239e-05
-2.67546e-05 8.98446e-06 1.75637e-05
-2.64364e-05 -1.47253e-05 1.80621e-05
-5.54102e-06 -2.76358e-05 1.75295e-05
-8.4765e-06 -2.48415e-05 1.69004e-05
-1.11699e-05 -2.26839e-05 1.65559e-05
-1.39704e-05 -2.10869e-05 1.65593e-05
-1.72147e-05 -1.98689e-05 1.69364e-05
-2.11339e-05 -1.8749e-05 1.7562e-05
8.98419e-08 -3.01387e-05 1.80292e-05
2.11237e-05 -1.86246e-05 1.75112e-05
1.72444e-05 -1.97619e-05 1.68726e-05
1.40337e-05 -2.10109e-05 1.65113e-05
1.12249e-05 -2.25926e-05 1.65459e-05
8.58115e-06 -2.47797e-05 1.68739e-05
5.65464e-06 -2.76261e-05 1.75348e-05
2.61242e-05 -1.50595e-05 1.80282e-05
2.67165e-05 8.93824e-06 1.75013e-05
2.57217e-05 5.04949e-06 1.69081e-05
2.52062e-05 1.62328e-06 1.65229e-05
2.52033e-05 -1.5994e-06 1.65212e-05
2.57503e-05 -4.99728e-06 1.68881e-05
2.66985e-05 -8.917e-06 1.75095e-05
2.61073e-05 1.50606e-05 1.80252e-05
5.6331e-06 2.76174e-05 1.75093e-05
8.50852e-06 2.48064e-05 1.69109e-05
1.12169e-05 2.26407e-05 1.65291e-05
1.40043e-05 2.10218e-05 1.65245e-05
1.72214e-05 1.97932e-05 1.68848e-05
2.11147e-05 1.86342e-05 1.75252e-05
0 0 0
0 0 0
0 0 0
0 0 0
0 0 0
0 0 0
2.48958e-08 3.0154e-05 -1.8034e-05
-2.11403e-05 1.87122e-05 -1.75495e-05
-1.72322e-05 1.98335e-05 -1.69206e-05
-1.40067e-05 2.10539e-05 -1.65547e-05
-1.12067e-05 2.26645e-05 -1.65486e-05
-8.52398e-06 2.48325e-05 -1.69011e-05
-5.56776e-06 2.76213e-05 -1.75372e-05
-2.64495e-05 1.46789e-05 -1.80333e-05
-2.67684e-05 -9.01137e-06 -1.75772e-05
-2.58059e-05 -5.03537e-06 -1.69257e-05
-2.52541e-05 -1.63617e-06 -1.65712e-05
-2.5257e-05 1.60781e-06 -1.65741e-05
-2.57981e-05 5.02277e-06 -1.69239e-05
-2.67546e-05 8.98446e-06 -1.75637e-05
-2.64364e-05 -1.47253e-05 -1.80621e-05
-5.54102e-06 -2.76358e-05 -1.75295e-05
-8.4765e-06 -2.48415e-05 -1.69004e-05
-1.11699e-05 -2.26839e-05 -1.65559e-05
-1.39704e-05 -2.10869e-05 -1.65593e-05
-1.72147e-05 -1.98689e-05 -1.69364e-05
-2.11339e-05 -1.8749e-05 -1.7562e-05
8.98419e-08 -3.01387e-05 -1.80292e-05
2.11237e-05 -1.86246e-05 -1.75112e-05
1.72444e-05 -1.97619e-05 -1.68726e-05
1.40337e-05 -2.10109e-05 -1.65113e-05
1.12249e-05 -2.25926e-05 -1.65459e-05
8.58115e-06 -2.47797e-05 -1.68739e-05
5.65464e-06 -2.76261e-05 -1.75348e-05
2.61242e-05 -1.50595e-05 -1.80282e-05
2.67165e-05 8.93824e-06 -1.75013e-05
2.57217e-05 5.04949e-06 -1.69081e-05
2.52062e-05 1.62328e-06 -1.65229e-05
2.52033e-05 -1.5994e-06 -1.65212e-05
2.57503e-05 -4.99728e-06 -1.68881e-05
2.66985e-05 -8.917e-06 -1.75095e-05
2.61073e-05 1.50606e-05 -1.80252e-05
5.6331e-06 2.76174e-05 -1.75093e-05
8.50852e-06 2.48064e-05 -1.69109e-05
1.12169e-05 2.26407e-05 -1.65291e-05
1.40043e-05 2.10218e-05 -1.65245e-05
1.72214e-05 1.97932e-05 -1.68848e-05
2.11147e-05 1.86342e-05 -1.75252e-05
0 0 0
0 0 0
0 0 0
0 0 0
0 0 0
0 0 0
1.79366e-06 8.58735e-07 4.55217e-06
1.7378e-06 -8.25104e-07 4.46073e-06
4.31948e-07 1.8496e-06 4.49504e-06
4.36092e-07 -1.78061e-06 4.35601e-06
-1.84746e-06 2.09628e-08 4.42229e-06
-1.12307e-06 -1.30886e-06 4.15093e-06
-1.15919e-06 1.30678e-06 4.19971e-06
-2.25127e-05 -7.28754e-06 1.69997e-05
-2.2196e-05 7.37143e-06 1.69684e-05
-4.86038e-06 2.28981e-05 1.69368e-05
-4.85789e-06 -2.31313e-05 1.69637e-05
1.74209e-05 1.56352e-05 1.69296e-05
1.75685e-05 -1.55362e-05 1.69389e-05
2.10732e-05 3.16382e-06 1.63241e-05
-1.39529e-05 1.7151e-05 1.64781e-05
-1.35909e-05 -1.6741e-05 1.64097e-05
7.76772e-06 1.98192e-05 1.63309e-05
7.68474e-06 -2.03096e-05 1.64022e-05
2.14719e-05 -3.44366e-06 1.63999e-05
-2.11024e-05 6.58808e-09 1.62464e-05
-2.242e-05 1.09996e-05 1.74534e-05
-1.87506e-05 9.25454e-06 1.66268e-05
-1.79825e-05 5.79535e-06 1.6036e-05
-1.49837e-05 7.4482e-06 1.54861e-05
-1.42242e-05 4.30764e-06 1.48293e-05
-1.15324e-05 5.74379e-06 1.40944e-05
-1.08578e-05 3.06868e-06 1.33732e-05
-8.40034e-06 4.3048e-06 1.2404e-05
-9.05864e-06 7.01328e-06 1.3456e-05
-6.204e-06 5.48841e-06 1.16887e-05
-6.82818e-06 8.2493e-06 1.30796e-05
-4.28132e-06 6.67479e-06 1.14502e-05
-4.79992e-06 9.60975e-06 1.30935e-05
-2.40083e-06 7.99321e-06 1.17226e-05
-2.8128e-06 1.1167e-05 1.34745e-05
-4.75401e-07 9.59513e-06 1.25006e-05
-7.3834e-07 1.29967e-05 1.41414e-05
1.73105e-06 1.15176e-05 1.35346e-05
-5.53459e-06 1.27002e-05 1.44366e-05
1.68505e-06 8.22383e-06 1.17472e-05
4.00411e-06 1.01207e-05 1.31506e-05
3.70529e-06 7.09783e-06 1.14779e-05
6.0673e-06 8.96651e-06 1.3113e-05
5.76672e-06 6.10669e-06 1.17352e-05
8.35794e-06 8.02018e-06 1.34917e-05
8.10551e-06 5.19518e-06 1.25e-05
1.09538e-05 7.09693e-06 1.41466e-05
1.07458e-05 4.32272e-06 1.34987e-05
8.53037e-06 1.10373e-05 1.44604e-05
7.93756e-06 2.6437e-06 1.17271e-05
1.06458e-05 1.73717e-06 1.31037e-05
7.94855e-06 3.58754e-07 1.14552e-05
1.08062e-05 -7.59099e-07 1.31238e-05
8.11151e-06 -1.93777e-06 1.17088e-05
1.10981e-05 -3.31279e-06 1.34835e-05
8.46959e-06 -4.4239e-06 1.24437e-05
1.15035e-05 -6.00278e-06 1.4109e-05
8.95542e-06 -7.13799e-06 1.34277e-05
6.14742e-06 -5.49432e-06 1.1641e-05
6.64438e-06 -8.30072e-06 1.30179e-05
4.10514e-06 -6.5884e-06 1.13106e-05
4.52328e-06 -9.5507e-06 1.29879e-05
2.24226e-06 -7.85816e-06 1.1597e-05
2.48479e-06 -1.10017e-05 1.33506e-05
2.25288e-07 -9.37353e-06 1.23533e-05
3.30009e-07 -1.27696e-05 1.40335e-05
-1.9154e-06 -1.11505e-05 1.33767e-05
-1.84104e-06 -7.92149e-06 1.15819e-05
-4.16783e-06 -9.87469e-06 1.30847e-05
-3.81388e-06 -6.73039e-06 1.13168e-05
-6.34551e-06 -8.66188e-06 1.3099e-05
-5.8912e-06 -5.69792e-06 1.16281e-05
-8.49958e-06 -7.43567e-06 1.33794e-05
-8.16741e-06 -4.72798e-06 1.24083e-05
-1.10955e-05 -6.40266e-06 1.40696e-05
-4.37158e-06 -1.3123e-05 1.44333e-05
-1.08087e-05 -3.65062e-06 1.34389e-05
7.226e-06 -1.13726e-05 1.42726e-05
-7.74158e-06 1.98265e-06 1.14926e-05
-1.32159e-05 1.03504e-06 1.42106e-05
1.7291e-06 1.50826e-05 1.49519e-05
1.37678e-05 4.6223e-07 1.43875e-05
1.3843e-05 6.1e-06 1.49314e-05
-9.6939e-06 1.01961e-05 1.45322e-05
-5.41593e-06 -3.19761e-06 1.01819e-05
-1.17134e-05 -9.29719e-06 1.48889e-05
1.18822e-05 -8.76007e-06 1.47868e-05
1.47815e-05 -7.47349e-06 1.54031e-05
-1.39595e-05 -5.24381e-06 1.48614e-05
2.79578e-06 -1.45159e-05 1.47959e-05
4.24558e-07 -1.64992e-05 1.53975e-05
3.51839e-06 4.39688e-06 9.58093e-06
1.40104e-05 9.29892e-06 1.54913e-05
1.79305e-05 8.14484e-06 1.63003e-05
-1.56752e-05 1.13952e-05 1.62332e-05
-1.09407e-06 1.67688e-05 1.5495e-05
1.90684e-06 1.96213e-05 1.63107e-05
-2.09184e-06 5.22001e-06 9.59742e-06
5.55387e-06 -7.84593e-07 9.59397e-06
3.58591e-06 -3.68352e-06 9.08182e-06
-1.77961e-06 -5.17851e-06 9.44944e-06
-2.24685e-05 -1.10107e-05 1.74741e-05
-1.87979e-05 -9.24129e-06 1.66508e-05
2.11476e-05 1.41646e-05 1.75054e-05
2.07535e-05 -1.43174e-05 1.74354e-05
-1.76459e-06 -2.54462e-05 1.75107e-05
-1.68212e-06 2.54102e-05 1.75154e-05
1.77127e-05 -1.19067e-05 1.6687e-05
2.06454e-05 -1.07509e-05 1.71158e-05
3.7756e-06 -1.89849e-05 1.61392e-05
7.68523e-07 -2.03455e-05 1.64826e-05
-1.94048e-05 -1.26504e-05 1.71429e-05
-1.37309e-05 -2.30689e-06 1.44716e-05
-1.65925e-05 -3.70137e-06 1.54773e-05
-1.03757e-05 -1.09637e-06 1.29518e-05
2.44518e-05 1.10726e-05 1.76514e-05
2.54973e-05 -1.24031e-05 1.7848e-05
2.64923e-06 2.67256e-05 1.76603e-05
2.52099e-06 -2.64132e-05 1.76292e-05
3.33943e-06 -2.30316e-05 1.70289e-05
-2.05386e-06 -1.83196e-05 1.59507e-05
4.05903e-06 2.3791e-05 1.71302e-05
2.26138e-05 8.37911e-06 1.7119e-05
4.61353e-06 1.73131e-05 1.5727e-05
1.44268e-05 -1.31192e-05 1.61371e-05
-1.57874e-05 -1.09846e-05 1.62143e-05
-1.67995e-05 -3.81421e-07 1.53771e-05
1.73056e-05 4.6874e-06 1.57254e-05
6.55212e-08 -6.38721e-06 1.02672e-05
1.74169e-06 -4.84839e-06 9.09232e-06
5.85037e-06 -2.93546e-06 1.0378e-05
-2.14438e-05 3.75043e-06 1.64586e-05
5.72927e-06 -1.62742e-05 1.55074e-05
9.0833e-06 -1.74987e-05 1.59972e-05
1.75719e-05 1.18815e-05 1.66721e-05
1.3994e-05 -1.6382e-05 1.6401e-05
1.07398e-05 -1.37887e-05 1.55498e-05
-3.54791e-06 -4.22013e-06 9.50059e-06
5.39903e-06 1.13848e-06 9.49887e-06
5.21797e-06 3.22282e-06 1.0047e-05
-1.74978e-06 -2.83541e-05 1.78767e-05
1.89203e-06 5.2988e-06 9.58427e-06
-1.13821e-07 6.1049e-06 1.00385e-05
-3.78486e-06 4.12767e-06 9.57822e-06
-5.62258e-06 3.03413e-06 1.02851e-05
-5.16539e-06 1.04066e-06 9.21344e-06
-7.52711e-06 -6.1738e-08 1.11722e-05
-4.3343e-06 -8.10265e-07 8.3817e-06
-3.10854e-06 1.87231e-06 7.37393e-06
-2.20808e-05 -3.60768e-06 1.65155e-05
2.34058e-05 -1.56877e-05 1.78359e-05
-1.50717e-06 2.11675e-05 1.66818e-05
2.12612e-05 -8.45178e-08 1.62255e-05
1.76217e-05 -1.64677e-06 1.55812e-05
1.73474e-05 -4.94158e-06 1.57704e-05
2.18912e-05 -7.45097e-06 1.69133e-05
-2.31818e-05 -1.42543e-05 1.78325e-05
1.73243e-05 1.64884e-06 1.55083e-05
-1.73399e-06 2.84726e-05 1.78939e-05
-4.22065e-07 3.68336e-06 7.49516e-06
2.37716e-05 1.57421e-05 1.78843e-05
-1.7497e-05 1.5642e-05 1.69747e-05
-1.0626e-05 -1.84658e-05 1.62548e-05
-1.00994e-05 -1.43421e-05 1.55714e-05
-7.50763e-06 -1.60945e-05 1.56218e-05
-7.322e-06 -2.01201e-05 1.6395e-05
-1.07043e-05 1.85349e-05 1.62665e-05
-1.03471e-05 1.43838e-05 1.56191e-05
-7.77251e-06 2.0492e-05 1.6444e-05
-4.25292e-06 1.86093e-05 1.60527e-05
1.07595e-05 1.83451e-05 1.62259e-05
1.38914e-05 1.69346e-05 1.64307e-05
1.40417e-05 1.29727e-05 1.6051e-05
-7.36144e-06 1.6288e-05 1.56382e-05
1.05249e-05 1.45468e-05 1.56449e-05
7.74861e-06 1.6092e-05 1.56137e-05
-3.11642e-06 -1.89874e-06 7.39305e-06
-7.25751e-06 -1.24218e-05 1.46249e-05
3.00862e-06 4.03596e-08 6.60086e-06
4.87249e-06 1.35225e-05 1.46178e-05
1.40758e-05 -2.26035e-06 1.45702e-05
-1.72895e-05 -1.52165e-05 1.69453e-05
-1.73662e-05 2.42026e-06 1.55976e-05
-1.22045e-05 8.91178e-06 1.49432e-05
-7.7055e-06 -2.29248e-06 1.15544e-05
-1.24496e-05 1.18124e-05 1.55397e-05
-1.42733e-07 -3.75417e-06 7.55405e-06
2.73019e-06 2.27205e-06 7.25181e-06
-2.00383e-06 -1.46502e-05 1.48078e-05
9.36493e-06 -1.00681e-05 1.43891e-05
1.38605e-05 3.15776e-06 1.45658e-05
-7.33992e-06 1.11992e-05 1.426e-05
4.99714e-06 -1.27746e-05 1.4369e-05
1.10317e-05 1.04303e-05 1.49194e-05
-3.59639e-06 1.4685e-05 1.49078e-05
-4.63539e-06 -1.66166e-05 1.55486e-05
-1.95068e-05 1.28923e-05 1.71611e-05
-2.31266e-05 1.4858e-05 1.78432e-05
-1.29047e-05 -1.26859e-05 1.58123e-05
3.76075e-06 -1.5861e-06 7.90682e-06
1.76437e-06 2.92224e-06 7.08432e-06
-9.23033e-06 -1.06093e-05 1.45316e-05
1.72772e-06 -2.82312e-06 6.93095e-06
9.94723e-07 2.41165e-05 1.73083e-05
2.13677e-05 1.11937e-05 1.72985e-05
-1.46644e-05 -7.95327e-06 1.54851e-05
1.37079e-05 -4.78624e-06 1.46904e-05
-1.90986e-06 -2.17626e-05 1.68025e-05
1.80601e-05 -8.41894e-06 1.63405e-05
-1.66787e-05 -6.32847e-06 1.57822e-05
-4.32895e-07 -1.9223e-06 4.7984e-06
-1.80535e-06 2.9954e-06 7.17707e-06
-2.50517e-05 -1.29816e-05 1.79221e-05
-2.51269e-05 -1.45071e-05 1.8002e-05
-2.50449e-05 1.30335e-05 1.79059e-05
-2.51178e-05 1.46498e-05 1.7982e-05
-1.64843e-06 -3.12481e-06 7.2098e-06
6.32785e-06 1.13682e-05 1.40763e-05
5.33707e-07 -2.40858e-05 1.73021e-05
-5.22772e-07 1.80952e-06 4.64494e-06
7.40735e-06 -1.43435e-05 1.51522e-05
2.33026e-05 -1.32092e-05 1.77287e-05
2.36324e-05 -1.05374e-05 1.74907e-05
1.19882e-05 -1.82107e-05 1.62931e-05
1.47299e-05 -1.01465e-05 1.57954e-05
-1.00269e-05 1.00123e-06 1.27544e-05
-1.73999e-06 -8.15893e-07 4.72339e-06
7.69055e-07 3.70831e-06 7.57303e-06
2.34305e-06 -1.99714e-06 6.55519e-06
2.01563e-05 5.89773e-06 1.64534e-05
5.07003e-06 2.05957e-05 1.64958e-05
3.42117e-07 -2.76797e-05 1.78539e-05
-1.73121e-06 7.09104e-07 4.60626e-06
-3.21147e-06 6.23041e-07 6.82404e-06
3.57717e-06 1.4754e-06 7.63651e-06
4.99224e-07 2.83235e-05 1.79271e-05
2.47601e-05 1.37339e-05 1.79183e-05
-2.03281e-05 1.55357e-05 1.74289e-05
1.17869e-06 1.36446e-06 4.45979e-06
-2.06393e-05 -1.57282e-05 1.75275e-05
-1.89986e-05 -2.32215e-06 1.5946e-05
-1.95589e-05 -5.58491e-06 1.63321e-05
9.05672e-07 -3.24772e-06 7.006e-06
-4.36597e-06 -1.9789e-05 1.63217e-05
-7.93717e-06 1.38342e-05 1.51009e-05
1.16574e-06 -1.30417e-06 4.33923e-06
1.19343e-05 -1.12282e-05 1.5292e-05
6.13301e-06 -2.26958e-05 1.68203e-05
-1.45219e-05 1.43552e-05 1.63235e-05
7.92897e-06 1.3321e-05 1.49478e-05
1.79366e-06 8.58735e-07 -4.55217e-06
1.7378e-06 -8.25104e-07 -4.46073e-06
4.31948e-07 1.8496e-06 -4.49504e-06
4.36092e-07 -1.78061e-06 -4.35601e-06
-1.84746e-06 2.09628e-08 -4.42229e-06
-1.12307e-06 -1.30886e-06 -4.15093e-06
-1.15919e-06 1.30678e-06 -4.19971e-06
-2.25127e-05 -7.28754e-06 -1.69997e-05
-2.2196e-05 7.37143e-06 -1.69684e-05
-4.86038e-06 2.28981e-05 -1.69368e-05
-4.85789e-06 -2.31313e-05 -1.69637e-05
1.74209e-05 1.56352e-05 -1.69296e-05
1.75685e-05 -1.55362e-05 -1.69389e-05
2.10732e-05 3.16382e-06 -1.63241e-05
-1.39529e-05 1.7151e-05 -1.64781e-05
-1.35909e-05 -1.6741e-05 -1.64097e-05
7.76772e-06 1.98192e-05 -1.63309e-05
7.68474e-06 -2.03096e-05 -1.64022e-05
2.14719e-05 -3.44366e-06 -1.63999e-05
-2.11024e-05 6.58808e-09 -1.62464e-05
-2.242e-05 1.09996e-05 -1.74534e-05
-1.87506e-05 9.25454e-06 -1.66268e-05
-1.79825e-05 5.79535e-06 -1.6036e-05
-1.49837e-05 7.4482e-06 -1.54861e-05
-1.42242e-05 4.30764e-06 -1.48293e-05
-1.15324e-05 5.74379e-06 -1.40944e-05
-1.08578e-05 3.06868e-06 -1.33732e-05
-8.40034e-06 4.3048e-06 -1.2404e-05
-9.05864e-06 7.01328e-06 -1.3456e-05
-6.204e-06 5.48841e-06 -1.16887e-05
-6.82818e-06 8.2493e-06 -1.30796e-05
-4.28132e-06 6.67479e-06 -1.14502e-05
-4.79992e-06 9.60975e-06 -1.30935e-05
-2.40083e-06 7.99321e-06 -1.17226e-05
-2.8128e-06 1.1167e-05 -1.34745e-05
-4.75401e-07 9.59513e-06 -1.25006e-05
-7.3834e-07 1.29967e-05 -1.41414e-05
1.73105e-06 1.15176e-05 -1.35346e-05
-5.53459e-06 1.27002e-05 -1.44366e-05
1.68505e-06 8.22383e-06 -1.17472e-05
4.00411e-06 1.01207e-05 -1.31506e-05
3.70529e-06 7.09783e-06 -1.14779e-05
6.0673e-06 8.96651e-06 -1.3113e-05
5.76672e-06 6.10669e-06 -1.17352e-05
8.35794e-06 8.02018e-06 -1.34917e-05
8.10551e-06 5.19518e-06 -1.25e-05
1.09538e-05 7.09693e-06 -1.41466e-05
1.07458e-05 4.32272e-06 -1.34987e-05
8.53037e-06 1.10373e-05 -1.44604e-05
7.93756e-06 2.6437e-06 -1.17271e-05
1.06458e-05 1.73717e-06 -1.31037e-05
7.94855e-06 3.58754e-07 -1.14552e-05
1.08062e-05 -7.59099e-07 -1.31238e-05
8.11151e-06 -1.93777e-06 -1.17088e-05
1.10981e-05 -3.31279e-06 -1.34835e-05
8.46959e-06 -4.4239e-06 -1.24437e-05
1.15035e-05 -6.00278e-06 -1.4109e-05
8.95542e-06 -7.13799e-06 -1.34277e-05
6.14742e-06 -5.49432e-06 -1.1641e-05
6.64438e-06 -8.30072e-06 -1.30179e-05
4.10514e-06 -6.5884e-06 -1.13106e-05
4.52328e-06 -9.5507e-06 -1.29879e-05
2.24226e-06 -7.85816e-06 -1.1597e-05
2.48479e-06 -1.10017e-05 -1.33506e-05
2.25288e-07 -9.37353e-06 -1.23533e-05
3.30009e-07 -1.27696e-05 -1.40335e-05
-1.9154e-06 -1.11505e-05 -1.33767e-05
-1.84104e-06 -7.92149e-06 -1.15819e-05
-4.16783e-06 -9.87469e-06 -1.30847e-05
-3.81388e-06 -6.73039e-06 -1.13168e-05
-6.34551e-06 -8.66188e-06 -1.3099e-05
-5.8912e-06 -5.69792e-06 -1.16281e-05
-8.49958e-06 -7.43567e-06 -1.33794e-05
-8.16741e-06 -4.72798e-06 -1.24083e-05
-1.10955e-05 -6.40266e-06 -1.40696e-05
-4.37158e-06 -1.3123e-05 -1.44333e-05
-1.08087e-05 -3.65062e-06 -1.34389e-05
7.226e-06 -1.13726e-05 -1.42726e-05
-7.74158e-06 1.98265e-06 -1.14926e-05
-1.32159e-05 1.03504e-06 -1.42106e-05
1.7291e-06 1.50826e-05 -1.49519e-05
1.37678e-05 4.6223e-07 -1.43875e-05
1.3843e-05 6.1e-06 -1.49314e-05
-9.6939e-06 1.01961e-05 -1.45322e-05
-5.41593e-06 -3.19761e-06 -1.01819e-05
-1.17134e-05 -9.29719e-06 -1.48889e-05
1.18822e-05 -8.76007e-06 -1.47868e-05
1.47815e-05 -7.47349e-06 -1.54031e-05
-1.39595e-05 -5.24381e-06 -1.48614e-05
2.79578e-06 -1.45159e-05 -1.47959e-05
4.24558e-07 -1.64992e-05 -1.53975e-05
3.51839e-06 4.39688e-06 -9.58093e-06
1.40104e-05 9.29892e-06 -1.54913e-05
1.79305e-05 8.14484e-06 -1.63003e-05
-1.56752e-05 1.13952e-05 -1.62332e-05
-1.09407e-06 1.67688e-05 -1.5495e-05
1.90684e-06 1.96213e-05 -1.63107e-05
-2.09184e-06 5.22001e-06 -9.59742e-06
5.55387e-06 -7.84593e-07 -9.59397e-06
3.58591e-06 -3.68352e-06 -9.08182e-06
-1.77961e-06 -5.17851e-06 -9.44944e-06
-2.24685e-05 -1.10107e-05 -1.74741e-05
-1.87979e-05 -9.24129e-06 -1.66508e-05
2.11476e-05 1.41646e-05 -1.75054e-05
2.07535e-05 -1.43174e-05 -1.74354e-05
-1.76459e-06 -2.54462e-05 -1.75107e-05
-1.68212e-06 2.54102e-05 -1.75154e-05
1.77127e-05 -1.19067e-05 -1.6687e-05
2.06454e-05 -1.07509e-05 -1.71158e-05
3.7756e-06 -1.89849e-05 -1.61392e-05
7.68523e-07 -2.03455e-05 -1.64826e-05
-1.94048e-05 -1.26504e-05 -1.71429e-05
-1.37309e-05 -2.30689e-06 -1.44716e-05
-1.65925e-05 -3.70137e-06 -1.54773e-05
-1.03757e-05 -1.09637e-06 -1.29518e-05
2.44518e-05 1.10726e-05 -1.76514e-05
2.54973e-05 -1.24031e-05 -1.7848e-05
2.64923e-06 2.67256e-05 -1.76603e-05
2.52099e-06 -2.64132e-05 -1.76292e-05
3.33943e-06 -2.30316e-05 -1.70289e-05
-2.05386e-06 -1.83196e-05 -1.59507e-05
4.05903e-06 2.3791e-05 -1.71302e-05
2.26138e-05 8.37911e-06 -1.7119e-05
4.61353e-06 1.73131e-05 -1.5727e-05
1.44268e-05 -1.31192e-05 -1.61371e-05
-1.57874e-05 -1.09846e-05 -1.62143e-05
-1.67995e-05 -3.81421e-07 -1.53771e-05
1.73056e-05 4.6874e-06 -1.57254e-05
6.55212e-08 -6.38721e-06 -1.02672e-05
1.74169e-06 -4.84839e-06 -9.09232e-06
5.85037e-06 -2.93546e-06 -1.0378e-05
-2.14438e-05 3.75043e-06 -1.64586e-05
5.72927e-06 -1.62742e-05 -1.55074e-05
9.0833e-06 -1.74987e-05 -1.59972e-05
1.75719e-05 1.18815e-05 -1.66721e-05
1.3994e-05 -1.6382e-05 -1.6401e-05
1.07398e-05 -1.37887e-05 -1.55498e-05
-3.54791e-06 -4.22013e-06 -9.50059e-06
5.39903e-06 1.13848e-06 -9.49887e-06
5.21797e-06 3.22282e-06 -1.0047e-05
-1.74978e-06 -2.83541e-05 -1.78767e-05
1.89203e-06 5.2988e-06 -9.58427e-06
-1.13821e-07 6.1049e-06 -1.00385e-05
-3.78486e-06 4.12767e-06 -9.57822e-06
-5.62258e-06 3.03413e-06 -1.02851e-05
-5.16539e-06 1.04066e-06 -9.21344e-06
-7.52711e-06 -6.1738e-08 -1.11722e-05
-4.3343e-06 -8.10265e-07 -8.3817e-06
-3.10854e-06 1.87231e-06 -7.37393e-06
-2.20808e-05 -3.60768e-06 -1.65155e-05
2.34058e-05 -1.56877e-05 -1.78359e-05
-1.50717e-06 2.11675e-05 -1.66818e-05
2.12612e-05 -8.45178e-08 -1.62255e-05
1.76217e-05 -1.64677e-06 -1.55812e-05
1.73474e-05 -4.94158e-06 -1.57704e-05
2.18912e-05 -7.45097e-06 -1.69133e-05
-2.31818e-05 -1.42543e-05 -1.78325e-05
1.73243e-05 1.64884e-06 -1.55083e-05
-1.73399e-06 2.84726e-05 -1.78939e-05
-4.22065e-07 3.68336e-06 -7.49516e-06
2.37716e-05 1.57421e-05 -1.78843e-05
-1.7497e-05 1.5642e-05 -1.69747e-05
-1.0626e-05 -1.84658e-05 -1.62548e-05
-1.00994e-05 -1.43421e-05 -1.55714e-05
-7.50763e-06 -1.60945e-05 -1.56218e-05
-7.322e-06 -2.01201e-05 -1.6395e-05
-1.07043e-05 1.85349e-05 -1.62665e-05
-1.03471e-05 1.43838e-05 -1.56191e-05
-7.77251e-06 2.0492e-05 -1.6444e-05
-4.25292e-06 1.86093e-05 -1.60527e-05
1.07595e-05 1.83451e-05 -1.62259e-05
1.38914e-05 1.69346e-05 -1.64307e-05
1.40417e-05 1.29727e-05 -1.6051e-05
-7.36144e-06 1.6288e-05 -1.56382e-05
1.05249e-05 1.45468e-05 -1.56449e-05
7.74861e-06 1.6092e-05 -1.56137e-05
-3.11642e-06 -1.89874e-06 -7.39305e-06
-7.25751e-06 -1.24218e-05 -1.46249e-05
3.00862e-06 4.03596e-08 -6.60086e-06
4.87249e-06 1.35225e-05 -1.46178e-05
1.40758e-05 -2.26035e-06 -1.45702e-05
-1.72895e-05 -1.52165e-05 -1.69453e-05
-1.73662e-05 2.42026e-06 -1.55976e-05
-1.22045e-05 8.91178e-06 -1.49432e-05
-7.7055e-06 -2.29248e-06 -1.15544e-05
-1.24496e-05 1.18124e-05 -1.55397e-05
-1.42733e-07 -3.75417e-06 -7.55405e-06
2.73019e-06 2.27205e-06 -7.25181e-06
-2.00383e-06 -1.46502e-05 -1.48078e-05
9.36493e-06 -1.00681e-05 -1.43891e-05
1.38605e-05 3.15776e-06 -1.45658e-05
-7.33992e-06 1.11992e-05 -1.426e-05
4.99714e-06 -1.27746e-05 -1.4369e-05
1.10317e-05 1.04303e-05 -1.49194e-05
-3.59639e-06 1.4685e-05 -1.49078e-05
-4.63539e-06 -1.66166e-05 -1.55486e-05
-1.95068e-05 1.28923e-05 -1.71611e-05
-2.31266e-05 1.4858e-05 -1.78432e-05
-1.29047e-05 -1.26859e-05 -1.58123e-05
3.76075e-06 -1.5861e-06 -7.90682e-06
1.76437e-06 2.92224e-06 -7.08432e-06
-9.23033e-06 -1.06093e-05 -1.45316e-05
1.72772e-06 -2.82312e-06 -6.93095e-06
9.94723e-07 2.41165e-05 -1.73083e-05
2.13677e-05 1.11937e-05 -1.72985e-05
-1.46644e-05 -7.95327e-06 -1.54851e-05
1.37079e-05 -4.78624e-06 -1.46904e-05
-1.90986e-06 -2.17626e-05 -1.68025e-05
1.80601e-05 -8.41894e-06 -1.63405e-05
-1.66787e-05 -6.32847e-06 -1.57822e-05
-4.32895e-07 -1.9223e-06 -4.7984e-06
-1.80535e-06 2.9954e-06 -7.17707e-06
-2.50517e-05 -1.29816e-05 -1.79221e-05
-2.51269e-05 -1.45071e-05 -1.8002e-05
-2.50449e-05 1.30335e-05 -1.79059e-05
-2.51178e-05 1.46498e-05 -1.7982e-05
-1.64843e-06 -3.12481e-06 -7.2098e-06
6.32785e-06 1.13682e-05 -1.40763e-05
5.33707e-07 -2.40858e-05 -1.73021e-05
-5.22772e-07 1.80952e-06 -4.64494e-06
7.40735e-06 -1.43435e-05 -1.51522e-05
2.33026e-05 -1.32092e-05 -1.77287e-05
2.36324e-05 -1.05374e-05 -1.74907e-05
1.19882e-05 -1.82107e-05 -1.62931e-05
1.47299e-05 -1.01465e-05 -1.57954e-05
-1.00269e-05 1.00123e-06 -1.27544e-05
-1.73999e-06 -8.15893e-07 -4.72339e-06
7.69055e-07 3.70831e-06 -7.57303e-06
2.34305e-06 -1.99714e-06 -6.55519e-06
2.01563e-05 5.89773e-06 -1.64534e-05
5.07003e-06 2.05957e-05 -1.64958e-05
3.42117e-07 -2.76797e-05 -1.78539e-05
-1.73121e-06 7.09104e-07 -4.60626e-06
-3.21147e-06 6.23041e-07 -6.82404e-06
3.57717e-06 1.4754e-06 -7.63651e-06
4.99224e-07 2.83235e-05 -1.79271e-05
2.47601e-05 1.37339e-05 -1.79183e-05
-2.03281e-05 1.55357e-05 -1.74289e-05
1.17869e-06 1.36446e-06 -4.45979e-06
-2.06393e-05 -1.57282e-05 -1.75275e-05
-1.89986e-05 -2.32215e-06 -1.5946e-05
-1.95589e-05 -5.58491e-06 -1.63321e-05
9.05672e-07 -3.24772e-06 -7.006e-06
-4.36597e-06 -1.9789e-05 -1.63217e-05
-7.93717e-06 1.38342e-05 -1.51009e-05
1.16574e-06 -1.30417e-06 -4.33923e-06
1.19343e-05 -1.12282e-05 -1.5292e-05
6.13301e-06 -2.26958e-05 -1.68203e-05
-1.45219e-05 1.43552e-05 -1.63235e-05
7.92897e-06 1.3321e-05 -1.49478e-05
SCALARS effective_fluid_pressure_TPM float
LOOKUP_TABLE default
665
665
665
665
665
665
665
665
665
665
665
665
665
665
133
665
665
665
665
665
665
665
665
665
665
665
665
665
665
133
665
560.314
520.657
502.797
502.568
519.783
559.934
665
561.981
520.752
503.239
503.349
520.684
561.602
665
559.601
519.654
502.742
502.959
521.152
561.618
665
558.857
518.998
501.53
502.226
518.848
559.446
665
558.497
519.938
501.862
501.794
519.371
557.937
665
558.654
519.952
502.035
501.896
519.359
559.66
133
133
133
133
133
133
665
560.314
520.657
502.797
502.568
519.783
559.934
665
561.981
520.752
503.239
503.349
520.684
561.602
665
559.601
519.654
502.742
502.959
521.152
561.618
665
558.857
518.998
501.53
502.226
518.848
559.446
665
558.497
519.938
501.862
501.794
519.371
557.937
665
558.654
519.952
502.035
501.896
519.359
559.66
133
133
133
133
133
133
228.253
226.324
227.037
224.106
225.521
219.843
220.859
529.158
528.167
526.546
527.925
526.573
527.627
498.693
503.539
501.578
498.934
501.45
501.232
494.313
562.496
518.971
495.017
480.724
461.343
443.263
425.031
402.105
427.256
385.252
417.724
379.599
417.887
385.936
427.372
404.283
444.367
429.062
450.243
386.546
419.287
380.193
418.298
386.176
427.745
404.211
444.477
428.145
450.84
386.02
418.15
379.61
418.506
385.544
427.582
402.905
443.54
426.437
384.037
416.123
376.293
415.33
383.009
424.403
400.831
441.689
425.211
382.746
417.763
376.558
418.081
383.831
425.251
402.198
442.662
450.634
426.711
445.991
380.719
444.658
465.273
448.725
464.746
453.394
350.894
463.488
461.02
478.427
462.755
460.625
478.331
337.269
480.803
505.836
503.595
480.869
506.142
337.682
337.494
326.158
334.408
563.372
519.647
567.573
562.359
567.891
567.744
521.795
542.708
498.607
513.72
542.053
451.436
477.554
414.641
579.515
611.026
579.668
576.028
534.542
494.457
538.215
537.912
485.014
498.093
503.312
473.115
485.062
352.739
326.408
355.168
503.421
477.692
488.335
520.864
502.004
477.89
335.533
335.396
347.691
613.443
337.37
347.563
337.257
353.195
329.181
373.246
310.653
288.782
504.687
608.378
521.086
493.697
478.302
486.331
526.48
600.337
476.539
615.897
291.391
615.795
528.708
494.509
478.209
479.384
501.291
494.815
479.41
502.486
495.15
493.719
502.238
495.224
479.857
480.023
479.025
289.288
454.566
271.937
454.973
453.602
526.989
479.446
465.197
382.088
480.482
292.663
286.076
461.453
449.607
453.951
445.828
448.662
463.578
463.235
479.927
543.448
601.698
487.467
300.295
282.455
452.987
279.157
552.231
551.99
480.749
457.991
526.211
508.163
488.564
233.725
284.552
614.503
636.32
615.138
636.677
285.274
441.314
553.071
230.481
467.525
590.258
566.025
495.788
490.023
410.019
232.115
293.09
271.12
507.87
509.168
607.811
229.659
276.97
294.424
618.875
618.789
558.505
226.518
562.518
488.286
503.37
280.841
504.04
466.351
224.003
473.558
519.556
502.955
462.417
228.253
226.324
227.037
224.106
225.521
219.843
220.859
529.158
528.167
526.546
527.925
526.573
527.627
498.693
503.539
501.578
498.934
501.45
501.232
494.313
562.496
518.971
495.017
480.724
461.343
443.263
425.031
402.105
427.256
385.252
417.724
379.599
417.887
385.936
427.372
404.283
444.367
429.062
450.243
386.546
419.287
380.193
418.298
386.176
427.745
404.211
444.477
428.145
450.84
386.02
418.15
379.61
418.506
385.544
427.582
402.905
443.54
426.437
384.037
416.123
376.293
415.33
383.009
424.403
400.831
441.689
425.211
382.746
417.763
376.558
418.081
383.831
425.251
402.198
442.662
450.634
426.711
445.991
380.719
444.658
465.273
448.725
464.746
453.394
350.894
463.488
461.02
478.427
462.755
460.625
478.331
337.269
480.803
505.836
503.595
480.869
506.142
337.682
337.494
326.158
334.408
563.372
519.647
567.573
562.359
567.891
567.744
521.795
542.708
498.607
513.72
542.053
451.436
477.554
414.641
579.515
611.026
579.668
576.028
534.542
494.457
538.215
537.912
485.014
498.093
503.312
473.115
485.062
352.739
326.408
355.168
503.421
477.692
488.335
520.864
502.004
477.89
335.533
335.396
347.691
613.443
337.37
347.563
337.257
353.195
329.181
373.246
310.653
288.782
504.687
608.378
521.086
493.697
478.302
486.331
526.48
600.337
476.539
615.897
291.391
615.795
528.708
494.509
478.209
479.384
501.291
494.815
479.41
502.486
495.15
493.719
502.238
495.224
479.857
480.023
479.025
289.288
454.566
271.937
454.973
453.602
526.989
479.446
465.197
382.088
480.482
292.663
286.076
461.453
449.607
453.951
445.828
448.662
463.578
463.235
479.927
543.448
601.698
487.467
300.295
282.455
452.987
279.157
552.231
551.99
480.749
457.991
526.211
508.163
488.564
233.725
284.552
614.503
636.32
615.138
636.677
285.274
441.314
553.071
230.481
467.525
590.258
566.025
495.788
490.023
410.019
232.115
293.09
271.12
507.87
509.168
607.811
229.659
276.97
294.424
618.875
618.789
558.505
226.518
562.518
488.286
503.37
280.841
504.04
466.351
224.003
473.558
519.556
502.955
462.417

CELL_DATA 563
TENSORS stress float
164.608 -24.9203 -1.73846e-12
-24.9203 28.1478 9.04758e-13
-1.73846e-12 9.04758e-13 -12.6048

-40.3383 -21.3202 -7.84809e-12
-21.3202 -7.35468 2.32347e-12
-7.84809e-12 2.32347e-12 -10.2314

-9.93969 28.0429 -9.16008e-13
28.0429 -1.1102 1.23575e-12
-9.16008e-13 1.23575e-12 -6.35972

-40.4266 -29.8427 -1.54647e-12
-29.8427 -12.8459 3.72354e-12
-1.54647e-12 3.72354e-12 -10.5977

-22.6926 19.9309 -6.42893e-12
19.9309 -1.92214 4.33631e-12
-6.42893e-12 4.33631e-12 -23.0217

-27.1389 -18.0742 -1.44359e-12
-18.0742 15.8879 5.62513e-13
-1.44359e-12 5.62513e-13 -6.41049

161.26 26.4844 1.94689e-12
26.4844 28.0245 -8.91731e-13
1.94689e-12 -8.91731e-13 -13.2637

-5.96119 29.9577 -2.0132e-12
29.9577 -10.1119 3.39284e-13
-2.0132e-12 3.39284e-13 -7.2758

34.6309 5.48308 -1.58688e-13
5.48308 -19.0942 6.20541e-13
-1.58688e-13 6.20541e-13 -4.12155

11.8603 -7.47756 -2.20742e-12
-7.47756 -48.287 2.17744e-12
-2.20742e-12 2.17744e-12 -8.94658

104.192 16.3083 -2.84691e-12
16.3083 -8.44344 4.73636e-12
-2.84691e-12 4.73636e-12 -22.4544

-34.6371 -13.4531 4.02789e-13
-13.4531 18.9658 7.14095e-13
4.02789e-13 7.14095e-13 -7.18006

-6.02575 27.8329 3.26198e-12
27.8329 -4.59138 3.23948e-12
3.26198e-12 3.23948e-12 -6.15866

-35.5513 -14.3399 7.26687e-13
-14.3399 7.84497 -6.64357e-13
7.26687e-13 -6.64357e-13 -9.13091

-23.6537 33.3115 -2.65121e-12
33.3115 -24.9943 3.44798e-13
-2.65121e-12 3.44798e-13 -21.3652

21.3107 0.560961 -5.50671e-13
0.560961 -32.338 -4.78589e-13
-5.50671e-13 -4.78589e-13 -5.58911

-48.9594 -17.9692 2.46348e-12
-17.9692 6.343 1.72721e-12
2.46348e-12 1.72721e-12 -12.9458

11.6601 -2.6652 -3.49942e-12
-2.6652 -43.2482 -1.63839e-12
-3.49942e-12 -1.63839e-12 -8.03299

-11.3493 26.6733 -4.47583e-12
26.6733 19.5173 6.73713e-12
-4.47583e-12 6.73713e-12 -6.08882

21.7655 -4.19552 -1.79116e-12
-4.19552 -35.2938 -2.39808e-14
-1.79116e-12 -2.39808e-14 -6.74065

-24.4786 8.66846 2.52494e-12
8.66846 32.1273 -1.3601e-12
2.52494e-12 -1.3601e-12 -4.93372

-11.8088 6.2878 -5.43837e-12
6.2878 -11.9743 -3.18057e-12
-5.43837e-12 -3.18057e-12 -75.6224

22.7431 1.87596 1.94215e-12
1.87596 -33.4681 1.53573e-12
1.94215e-12 1.53573e-12 -6.67662

-12.3876 -27.7148 -1.86369e-12
-27.7148 1.59984 1.40569e-12
-1.86369e-12 1.40569e-12 -6.60213

21.3043 6.84931 -2.75631e-12
6.84931 -34.3032 2.49874e-13
-2.75631e-12 2.49874e-13 -6.80588

-37.9048 19.1127 -1.53951e-12
19.1127 2.65398 -3.80881e-12
-1.53951e-12 -3.80881e-12 -9.45715

106.601 4.18131 6.25751e-12
4.18131 20.6024 -3.51215e-12
6.25751e-12 -3.51215e-12 -12.0494

-5.30154 30.7455 3.68476e-12
30.7455 -7.27189 1.00246e-12
3.68476e-12 1.00246e-12 -7.44101

27.8898 37.0738 1.84623e-12
37.0738 26.469 2.20505e-12
1.84623e-12 2.20505e-12 -8.63179

-9.43909 10.3235 1.7432e-12
10.3235 -32.9306 3.33152e-12
1.7432e-12 3.33152e-12 -49.5098

19.8306 14.2168 -2.77585e-12
14.2168 -29.3587 -9.22669e-13
-2.77585e-12 -9.22669e-13 -6.00038

-4.20982 -17.7801 -1.72188e-12
-17.7801 59.6569 3.54798e-12
-1.72188e-12 3.54798e-12 -8.4757

66.2821 -42.1011 7.10543e-15
-42.1011 71.1373 -3.61666e-12
7.10543e-15 -3.61666e-12 -11.2522

-48.2102 5.98686 -4.18693e-13
5.98686 7.26963 1.88619e-12
-4.18693e-13 1.88619e-12 -41.0383

-26.2912 -4.84084 3.82805e-13
-4.84084 1.75673 -4.22773e-12
3.82805e-13 -4.22773e-12 -37.8032

-1.46672 21.0279 4.82162e-12
21.0279 -39.5067 1.77858e-12
4.82162e-12 1.77858e-12 -41.1042

-43.9764 5.06765 -2.87178e-13
5.06765 0.51424 -6.4689e-13
-2.87178e-13 -6.4689e-13 -52.1923

-2.75996 -9.16988 -1.90277e-12
-9.16988 -20.77 -3.50207e-12
-1.90277e-12 -3.50207e-12 -35.8975

-3.97396 -27.9979 -1.42109e-12
-27.9979 -4.61038 3.09145e-12
-1.42109e-12 3.09145e-12 -5.99399

65.5959 41.5204 5.44986e-12
41.5204 73.1649 3.40113e-12
5.44986e-12 3.40113e-12 -10.964

60.1543 -17.9488 5.20117e-12
-17.9488 0.117335 9.56864e-13
5.20117e-12 9.56864e-13 -8.0497

-41.8041 -3.70619 5.29636e-12
-3.70619 -1.18565 6.88205e-12
5.29636e-12 6.88205e-12 -52.7271

-14.5941 19.5558 -8.91635e-12
19.5558 -28.5518 1.27631e-12
-8.91635e-12 1.27631e-12 -52.8353

18.1409 -12.2732 4.06786e-13
-12.2732 -29.8985 3.74367e-13
4.06786e-13 3.74367e-13 -6.22257

38.1726 -43.2983 -5.42381e-13
-43.2983 41.8006 -5.39776e-12
-5.42381e-13 -5.39776e-12 -14.5589

58.143 -18.0631 -6.06211e-12
-18.0631 -2.30232 2.70302e-12
-6.06211e-12 2.70302e-12 -7.91327

-21.4412 17.0854 2.06353e-13
17.0854 30.3269 6.57726e-12
2.06353e-13 6.57726e-12 -5.72776

-11.3722 19.3387 3.72443e-13
19.3387 25.5104 -4.42668e-12
3.72443e-13 -4.42668e-12 -3.92119

20.7911 -16.3009 3.82035e-12
-16.3009 -33.1137 5.15454e-12
3.82035e-12 5.15454e-12 -7.31113

12.6153 -34.1847 8.28374e-13
-34.1847 46.4348 2.63375e-12
8.28374e-13 2.63375e-12 -10.397

62.3591 19.1814 4.27984e-12
19.1814 2.81055 -1.25411e-12
4.27984e-12 -1.25411e-12 -8.41365

46.5129 -25.2879 -1.50398e-13
-25.2879 5.13432 5.39568e-12
-1.50398e-13 5.39568e-12 -5.6096

-31.8956 19.4859 -1.07484e-12
19.4859 -4.28558 4.88794e-13
-1.07484e-12 4.88794e-13 -26.0858

37.0387 29.6487 2.88243e-12
29.6487 14.5127 3.94588e-12
2.88243e-12 3.94588e-12 -5.43204

-27.4501 -21.8128 3.328e-12
-21.8128 -8.22814 -2.9641e-12
3.328e-12 -2.9641e-12 -25.2481

64.8676 -42.7104 4.73695e-14
-42.7104 44.0794 2.66217e-12
4.73695e-14 2.66217e-12 -9.50207

-27.7497 5.45986 -1.76896e-12
5.45986 2.66934 2.75661e-12
-1.76896e-12 2.75661e-12 -38.3088

-5.55731 -5.32967 1.16351e-13
-5.32967 57.3872 8.65678e-13
1.16351e-13 8.65678e-13 -5.44907

-0.200027 10.3842 2.42177e-12
10.3842 -24.8483 1.14862e-12
2.42177e-12 1.14862e-12 -38.3704

-26.4845 21.4127 2.15442e-12
21.4127 12.2196 -1.5176e-12
2.15442e-12 -1.5176e-12 -6.86908

4.72652 5.75381 -2.15087e-12
5.75381 -56.0399 2.58682e-12
-2.15087e-12 2.58682e-12 -13.9805

0.539722 11.4589 -2.00477e-12
11.4589 -34.0564 -4.33194e-12
-2.00477e-12 -4.33194e-12 -14.8396

106.342 31.8193 -2.48453e-12
31.8193 37.8324 4.44089e-12
-2.48453e-12 4.44089e-12 -7.48975

-35.4916 -6.03507 3.28241e-12
-6.03507 10.6012 6.0633e-13
3.28241e-12 6.0633e-13 -13.4787

-35.3598 9.51964 2.96074e-12
9.51964 1.23359 3.30343e-12
2.96074e-12 3.30343e-12 -14.9599

-42.5873 -2.88073 -2.16053e-12
-2.88073 21.1109 -2.12038e-12
-2.16053e-12 -2.12038e-12 -11.2385

-44.9076 23.4021 -2.8065e-12
23.4021 -5.89261 4.39027e-12
-2.8065e-12 4.39027e-12 -13.9215

9.97105 8.46343 3.93463e-13
8.46343 -42.3774 -1.36143e-12
3.93463e-13 -1.36143e-12 -9.07737

-12.334 -28.2389 1.41694e-12
-28.2389 1.6875 -8.76928e-13
1.41694e-12 -8.76928e-13 -6.67329

1.30886 -1.71121 5.59301e-12
-1.71121 -55.4561 -1.65941e-13
5.59301e-12 -1.65941e-13 -11.3035

-31.8851 -19.2619 -2.16893e-12
-19.2619 -4.59496 2.28084e-12
-2.16893e-12 2.28084e-12 -25.9551

-27.9755 21.3078 -3.85055e-12
21.3078 -8.35799 2.61928e-12
-3.85055e-12 2.61928e-12 -26.0135

-0.651399 -16.5831 -4.74435e-13
-16.5831 61.6727 3.82509e-13
-4.74435e-13 3.82509e-13 -7.94854

-0.650096 -27.9359 -7.57912e-14
-27.9359 -21.3605 -3.17198e-12
-7.57912e-14 -3.17198e-12 -12.7907

-14.0928 -25.1343 1.68339e-12
-25.1343 7.40686 1.00364e-12
1.68339e-12 1.00364e-12 -5.2354

91.6763 -31.71 -1.65793e-12
-31.71 19.4845 4.61261e-13
-1.65793e-12 4.61261e-13 -16.3333

-33.7057 3.22258 -4.24845e-13
3.22258 9.19927 -2.74151e-12
-4.24845e-13 -2.74151e-12 -18.5635

2.75235 28.9437 2.10854e-12
28.9437 -24.4245 -2.72819e-12
2.10854e-12 -2.72819e-12 -11.3161

-38.433 19.6641 5.71321e-12
19.6641 5.22977 -1.31539e-12
5.71321e-12 -1.31539e-12 -9.23462

50.1899 7.99937 -1.20555e-12
7.99937 -16.9631 6.95769e-12
-1.20555e-12 6.95769e-12 -7.06636

60.0306 -33.9348 -1.65083e-12
-33.9348 33.7865 -5.18222e-12
-1.65083e-12 -5.18222e-12 -6.98352

-18.9597 -10.5875 -2.54019e-13
-10.5875 -0.541836 -7.59689e-13
-2.54019e-13 -7.59689e-13 -25.4316

-33.9261 23.8994 -1.0371e-12
23.8994 -12.023 2.63863e-13
-1.0371e-12 2.63863e-13 -14.54

58.1553 -32.3831 -2.40045e-12
-32.3831 18.0913 -5.79329e-12
-2.40045e-12 -5.79329e-12 -10.1335

66.8586 10.7908 4.31773e-12
10.7908 8.51341 3.5653e-12
4.31773e-12 3.5653e-12 -5.08407

7.67417 -21.2055 -4.90452e-12
-21.2055 88.463 -9.69417e-12
-4.90452e-12 -9.69417e-12 -11.8622

-33.9851 14.4255 4.08547e-12
14.4255 20.2383 1.61589e-12
4.08547e-12 1.61589e-12 -7.54584

8.47558 23.1427 1.2393e-12
23.1427 -26.0736 2.58253e-12
1.2393e-12 2.58253e-12 -11.2988

34.8683 42.1978 -2.25124e-12
42.1978 46.1987 -8.84981e-12
-2.25124e-12 -8.84981e-12 -14.4204

-4.39443 16.5072 1.6419e-11
16.5072 -35.5423 -2.13903e-12
1.6419e-11 -2.13903e-12 -73.2889

-5.9794 -4.10826 -1.71655e-12
-4.10826 57.9476 -2.54374e-12
-1.71655e-12 -2.54374e-12 -5.44126

-1.81878 -16.6324 5.73186e-12
-16.6324 -39.4024 -8.96335e-12
5.73186e-12 -8.96335e-12 -74.1122

-3.32933 -27.335 -3.03994e-12
-27.335 -30.0298 5.77775e-12
-3.03994e-12 5.77775e-12 -21.5543

8.96721 27.4244 1.39562e-12
27.4244 -29.9944 -1.17891e-12
1.39562e-12 -1.17891e-12 -11.2568

45.7107 -24.4101 -1.41753e-12
-24.4101 5.02462 -6.91358e-12
-1.41753e-12 -6.91358e-12 -5.23568

10.0955 31.3225 -2.00255e-12
31.3225 47.1626 -2.16597e-12
-2.00255e-12 -2.16597e-12 -9.63999

14.2725 -10.7049 1.81425e-12
-10.7049 82.8375 2.96059e-12
1.81425e-12 2.96059e-12 -6.44683

-38.6329 21.9706 -6.50739e-13
21.9706 2.94159 -5.89454e-13
-6.50739e-13 -5.89454e-13 -8.56858

1.19264 16.794 -1.22539e-12
16.794 -25.7219 -3.03224e-12
-1.22539e-12 -3.03224e-12 -18.5677

-26.5374 15.1536 2.49978e-12
15.1536 18.4493 -2.46677e-12
2.49978e-12 -2.46677e-12 -5.70748

43.6583 15.9535 -2.24887e-12
15.9535 -7.28453 -2.6373e-12
-2.24887e-12 -2.6373e-12 -4.07465

12.5771 -21.472 -4.4326e-12
-21.472 57.9548 -4.23128e-12
-4.4326e-12 -4.23128e-12 -4.71367

65.9954 -29.39 -2.51058e-13
-29.39 18.6435 -3.9672e-14
-2.51058e-13 -3.9672e-14 -9.33503

-32.3809 -24.5728 -2.79702e-12
-24.5728 -7.28152 -2.24117e-13
-2.79702e-12 -2.24117e-13 -8.9758

-22.6667 27.4507 3.84877e-15
27.4507 -10.3499 -1.01844e-12
3.84877e-15 -1.01844e-12 -9.28341

-38.3511 23.1875 3.54398e-12
23.1875 1.99111 -5.36045e-12
3.54398e-12 -5.36045e-12 -8.52448

-51.5532 13.1692 -3.32936e-12
13.1692 11.9271 -1.06167e-12
-3.32936e-12 -1.06167e-12 -16.4661

23.4845 9.37219 -1.23398e-12
9.37219 -29.4872 -1.86917e-12
-1.23398e-12 -1.86917e-12 -5.32097

3.7689 -4.66497 -1.81988e-12
-4.66497 79.4368 1.89478e-13
-1.81988e-12 1.89478e-13 -9.53115

-44.94 -36.8334 2.34094e-12
-36.8334 -19.8289 1.74135e-12
2.34094e-12 1.74135e-12 -14.7704

-16.0791 27.4649 -2.49963e-12
27.4649 1.34123 3.86594e-12
-2.49963e-12 3.86594e-12 -6.91408

-5.01491 2.1703 3.59098e-12
2.1703 82.6721 7.50807e-13
3.59098e-12 7.50807e-13 -13.4309

69.0444 34.6096 -3.70193e-12
34.6096 15.4966 1.33997e-12
-3.70193e-12 1.33997e-12 -10.7057

-31.3514 -22.9736 6.27646e-13
-22.9736 -4.63233 2.61421e-13
6.27646e-13 2.61421e-13 -8.5293

11.7429 5.73296 9.64858e-13
5.73296 -48.3357 -1.75659e-12
9.64858e-13 -1.75659e-12 -8.64088

43.0651 27.2034 5.99224e-13
27.2034 10.4522 -1.64431e-12
5.99224e-13 -1.64431e-12 -5.08042

-9.41495 12.7455 -4.95959e-12
12.7455 -14.039 2.00699e-12
-4.95959e-12 2.00699e-12 -37.0412

70.3335 24.33 2.54611e-12
24.33 23.8048 -4.33135e-12
2.54611e-12 -4.33135e-12 -6.79931

-10.5862 -13.0551 1.09098e-12
-13.0551 -13.9208 3.28152e-12
1.09098e-12 3.28152e-12 -37.379

-4.37908 0.778515 -3.24333e-13
0.778515 59.3972 9.6397e-13
-3.24333e-13 9.6397e-13 -4.83027

38.3565 -2.23527 -1.44832e-12
-2.23527 -23.8099 1.86599e-12
-1.44832e-12 1.86599e-12 -5.83179

3.59378 -15.7681 -3.25532e-12
-15.7681 -53.9714 1.71507e-12
-3.25532e-12 1.71507e-12 -21.1243

-42.2768 24.3881 7.66022e-13
24.3881 -11.7369 1.50768e-12
7.66022e-13 1.50768e-12 -11.1671

-46.8123 -13.535 -3.7257e-13
-13.535 11.0674 -1.13509e-12
-3.7257e-13 -1.13509e-12 -12.3536

5.81021 -8.00003 2.24768e-12
-8.00003 -70.9678 7.06398e-13
2.24768e-12 7.06398e-13 -14.8817

-49.5391 -22.2842 1.73091e-12
-22.2842 3.74863 -7.73899e-13
1.73091e-12 -7.73899e-13 -22.1042

-17.4593 -6.59636 -4.20049e-12
-6.59636 -13.1158 -1.51238e-12
-4.20049e-12 -1.51238e-12 -34.782

-28.7296 -29.9081 7.61761e-13
-29.9081 -9.39984 -4.4705e-13
7.61761e-13 -4.4705e-13 -8.99561

15.6935 11.4534 5.05077e-13
11.4534 80.179 2.20268e-13
5.05077e-13 2.20268e-13 -6.53049

42.2895 -28.1459 -1.57859e-12
-28.1459 11.051 -3.21106e-12
-1.57859e-12 -3.21106e-12 -5.04366

-47.1705 -13.7723 -2.62087e-13
-13.7723 4.19613 -7.1075e-12
-2.62087e-13 -7.1075e-12 -29.301

2.96489 0.504386 2.90849e-12
0.504386 -56.8117 8.51911e-13
2.90849e-12 8.51911e-13 -11.0048

-39.3364 -21.5246 8.09723e-13
-21.5246 -8.85733 2.8777e-12
8.09723e-13 2.8777e-12 -14.774

-40.1948 25.6976 -2.77556e-12
25.6976 -14.6914 -1.63462e-12
-2.77556e-12 -1.63462e-12 -11.3105

32.2602 -31.4637 -7.27122e-13
-31.4637 38.429 3.13586e-12
-7.27122e-13 3.13586e-12 -4.64785

-31.4688 -7.0852 -8.99999e-12
-7.0852 1.7002 -2.01024e-12
-8.99999e-12 -2.01024e-12 -40.9934

36.6295 -33.076 -9.6397e-13
-33.076 72.0261 1.82136e-12
-9.6397e-13 1.82136e-12 -7.14463

16.6125 -19.1794 2.71013e-12
-19.1794 -25.8693 1.16055e-13
2.71013e-12 1.16055e-13 -7.13285

1.50261 1.97019 2.40504e-12
1.97019 -51.3914 2.22045e-14
2.40504e-12 2.22045e-14 -15.374

-12.8763 17.8751 1.03014e-11
17.8751 -16.9548 -1.70086e-12
1.03014e-11 -1.70086e-12 -41.061

10.7133 20.1823 1.75859e-13
20.1823 59.4532 -2.40992e-12
1.75859e-13 -2.40992e-12 -4.35631

4.31851 27.2102 -3.15481e-12
27.2102 -16.2235 2.88806e-12
-3.15481e-12 2.88806e-12 -8.12386

30.9042 -24.5111 2.92625e-12
-24.5111 -8.13181 1.07766e-13
2.92625e-12 1.07766e-13 -4.8717

-37.7869 -17.8384 8.34832e-13
-17.8384 2.40088 -1.93919e-13
8.34832e-13 -1.93919e-13 -9.86401

55.5129 35.0674 -4.98564e-13
35.0674 42.3449 3.46626e-12
-4.98564e-13 3.46626e-12 -6.63612

-40.0147 -21.831 6.80197e-13
-21.831 2.53688 9.06238e-13
6.80197e-13 9.06238e-13 -9.39352

2.96668 30.8501 -1.18424e-12
30.8501 -17.3878 2.21068e-12
-1.18424e-12 2.21068e-12 -9.07784

18.5373 -25.2437 1.06463e-12
-25.2437 -19.4173 1.76748e-12
1.06463e-12 1.76748e-12 -6.34201

-15.6533 -25.126 -4.89209e-12
-25.126 5.89568 2.78651e-12
-4.89209e-12 2.78651e-12 -5.77503

42.7178 -18.6877 -2.06057e-12
-18.6877 -9.16524 -2.28558e-13
-2.06057e-12 -2.28558e-13 -5.36864

27.4317 -18.8492 -2.46795e-12
-18.8492 -20.3678 -7.92847e-13
-2.46795e-12 -7.92847e-13 -5.68925

-41.3937 -25.3369 1.71063e-12
-25.3369 -14.964 -1.47071e-12
1.71063e-12 -1.47071e-12 -11.5667

29.7807 35.9684 3.86772e-12
35.9684 25.2269 -2.5769e-12
3.86772e-12 -2.5769e-12 -8.64391

-28.5178 15.3765 1.76155e-13
15.3765 18.5188 1.2393e-12
1.76155e-13 1.2393e-12 -5.8735

-23.1078 26.4219 -2.40371e-12
26.4219 -12.5465 8.08242e-14
-2.40371e-12 8.08242e-14 -9.95765

-42.0963 25.4736 3.65622e-12
25.4736 -11.5925 -3.72191e-12
3.65622e-12 -3.72191e-12 -10.9923

-37.2881 11.6213 -3.59714e-12
11.6213 11.8441 3.43133e-12
-3.59714e-12 3.43133e-12 -9.0801

64.392 -8.22678 -3.37034e-12
-8.22678 3.19803 3.61207e-12
-3.37034e-12 3.61207e-12 -4.25042

8.7341 18.6059 -3.75818e-12
18.6059 59.219 3.08731e-12
-3.75818e-12 3.08731e-12 -4.1619

-25.6141 -24.3802 4.08977e-12
-24.3802 0.458503 -1.10667e-12
4.08977e-12 -1.10667e-12 -7.21505

-1.1413 25.6653 -2.1263e-12
25.6653 13.7523 4.97676e-12
-2.1263e-12 4.97676e-12 -4.08215

32.3783 -35.6283 -1.69109e-12
-35.6283 21.7 -1.6982e-12
-1.69109e-12 -1.6982e-12 -8.48562

59.5352 38.3156 3.68653e-12
38.3156 17.8476 -4.94893e-12
3.68653e-12 -4.94893e-12 -13.722

12.1252 -33.3101 -1.65793e-14
-33.3101 42.9128 3.42955e-12
-1.65793e-14 3.42955e-12 -9.54225

30.5511 -31.1587 1.80478e-12
-31.1587 36.8131 4.11167e-12
1.80478e-12 4.11167e-12 -4.405

11.7688 -6.83866 2.08811e-12
-6.83866 -48.8378 4.17222e-13
2.08811e-12 4.17222e-13 -8.76972

25.2743 30.3409 6.24686e-12
30.3409 41.0885 -5.28999e-12
6.24686e-12 -5.28999e-12 -4.4555

62.6811 13.2943 -3.24481e-13
13.2943 5.22849 1.03591e-12
-3.24481e-13 1.03591e-12 -4.30502

-7.02518 13.3784 1.33819e-13
13.3784 61.3432 2.57572e-12
1.33819e-13 2.57572e-12 -8.69448

11.7298 -22.3397 -4.31832e-12
-22.3397 55.7623 1.11437e-12
-4.31832e-12 1.11437e-12 -4.30097

-47.2606 -1.09147 -3.83138e-12
-1.09147 12.4097 3.86002e-12
-3.83138e-12 3.86002e-12 -22.1621

-5.91851 2.24654 8.56648e-13
2.24654 59.0034 -1.75267e-12
8.56648e-13 -1.75267e-12 -5.26198

6.26896 31.0884 8.76336e-14
31.0884 47.8644 -4.47523e-12
8.76336e-14 -4.47523e-12 -9.66005

-39.7251 12.1077 -4.85858e-12
12.1077 12.8448 -6.27646e-13
-4.85858e-12 -6.27646e-13 -9.31258

40.7377 -27.6468 4.68958e-12
-27.6468 8.3578 -3.53199e-12
4.68958e-12 -3.53199e-12 -5.64143

7.54011 20.5569 -5.26068e-12
20.5569 -47.4668 -1.2547e-12
-5.26068e-12 -1.2547e-12 -16.4815

-3.42101 26.2704 -2.94105e-12
26.2704 -31.4867 1.80404e-12
-2.94105e-12 1.80404e-12 -22.2525

15.7774 -18.5673 1.09009e-12
-18.5673 -30.0125 2.3513e-12
1.09009e-12 2.3513e-12 -8.18244

4.42878 -1.80102 -2.367e-12
-1.80102 -34.133 2.45374e-12
-2.367e-12 2.45374e-12 -24.4396

-14.3394 -31.8116 -4.9886e-13
-31.8116 -11.9301 3.10389e-12
-4.9886e-13 3.10389e-12 -9.04898

56.2173 23.3271 -9.05942e-13
23.3271 0.817227 -4.82636e-12
-9.05942e-13 -4.82636e-12 -8.2875

-27.8279 30.162 -3.058e-12
30.162 -9.23638 -3.18856e-13
-3.058e-12 -3.18856e-13 -8.79986

-27.0035 29.2058 1.43737e-12
29.2058 -9.20175 -8.21269e-13
1.43737e-12 -8.21269e-13 -8.67714

28.6284 30.66 5.98159e-12
30.66 40.4053 8.40809e-14
5.98159e-12 8.40809e-14 -4.44853

0.343102 27.0848 1.35595e-12
27.0848 -19.8455 -4.05809e-12
1.35595e-12 -4.05809e-12 -11.7767

64.5069 3.52505 9.01205e-13
3.52505 -11.8251 -5.37662e-12
9.01205e-13 -5.37662e-12 -10.0179

-14.8996 31.8172 4.17473e-12
31.8172 -20.7987 2.41881e-13
4.17473e-12 2.41881e-13 -12.4472

-37.9437 -12.5997 -4.72918e-12
-12.5997 8.18002 1.11792e-12
-4.72918e-12 1.11792e-12 -14.0226

-0.475055 24.2782 1.23161e-12
24.2782 -29.999 3.26761e-12
1.23161e-12 3.26761e-12 -20.7714

-23.7273 -29.5786 5.65474e-13
-29.5786 -11.9349 -1.32161e-12
5.65474e-13 -1.32161e-12 -8.8428

-38.1478 -4.89811 6.51268e-12
-4.89811 18.8465 -4.51787e-12
6.51268e-12 -4.51787e-12 -11.7298

69.9435 -24.5557 2.38506e-12
-24.5557 18.0288 9.31403e-13
2.38506e-12 9.31403e-13 -7.04406

39.9817 29.6923 -5.29118e-12
29.6923 13.4795 2.59585e-12
-5.29118e-12 2.59585e-12 -5.21453

-4.29562 14.6961 1.20866e-12
14.6961 60.5704 -2.77349e-12
1.20866e-12 -2.77349e-12 -8.40042

1.61143 -1.13886 8.17272e-13
-1.13886 -56.1232 -1.5928e-13
8.17272e-13 -1.5928e-13 -11.2087

9.61413 0.00223352 1.74971e-12
0.00223352 -44.7534 -1.10895e-12
1.74971e-12 -1.10895e-12 -8.43736

-31.0784 23.1237 -1.62714e-12
23.1237 -4.33702 -9.4591e-13
-1.62714e-12 -9.4591e-13 -8.45781

-34.7625 23.8709 -6.79753e-13
23.8709 -13.1923 -3.54992e-12
-6.79753e-13 -3.54992e-12 -14.8128

-43.3785 -24.3807 -1.34763e-13
-24.3807 -12.6139 4.89534e-13
-1.34763e-13 4.89534e-13 -11.4682

-39.0587 -0.672706 2.09878e-12
-0.672706 21.0464 9.79365e-13
2.09878e-12 9.79365e-13 -10.4951

-40.8066 25.5903 -6.32975e-13
25.5903 -13.2224 1.18431e-12
-6.32975e-13 1.18431e-12 -11.1718

32.3214 -10.3077 3.4935e-14
-10.3077 -25.1529 -7.71531e-13
3.4935e-14 -7.71531e-13 -6.0136

8.70693 -32.8327 1.32871e-12
-32.8327 22.7976 8.02321e-12
1.32871e-12 8.02321e-12 -6.99146

2.39688 -2.3006 -1.03295e-12
-2.3006 -49.9606 -8.2571e-13
-1.03295e-12 -8.2571e-13 -14.7724

36.7453 -34.5075 2.31163e-12
-34.5075 24.4796 -1.82432e-12
2.31163e-12 -1.82432e-12 -7.70871

-38.2937 19.0861 3.33748e-12
19.0861 -7.09371 -1.83883e-12
3.33748e-12 -1.83883e-12 -14.4492

7.87076 -26.4786 1.42109e-14
-26.4786 -27.9942 3.54709e-12
1.42109e-14 3.54709e-12 -10.9687

63.9465 -9.69004 4.19575e-12
-9.69004 5.67779 -5.16713e-12
4.19575e-12 -5.16713e-12 -5.07191

6.04092 -23.1919 -9.16008e-13
-23.1919 -35.468 -4.02552e-12
-9.16008e-13 -4.02552e-12 -17.736

0.141355 2.35826 -5.82349e-13
2.35826 -56.174 3.15821e-13
-5.82349e-13 3.15821e-13 -11.5456

-4.062 -23.3213 -4.14542e-12
-23.3213 -23.4116 3.04053e-13
-4.14542e-12 3.04053e-13 -16.7199

11.0389 -25.8593 -6.22909e-13
-25.8593 -29.4855 1.85392e-12
-6.22909e-13 1.85392e-12 -9.73322

10.2014 -8.54601 1.53536e-12
-8.54601 -43.4895 -4.19516e-13
1.53536e-12 -4.19516e-13 -9.28092

-35.4182 -23.0681 2.04163e-12
-23.0681 -12.6457 1.14144e-12
2.04163e-12 1.14144e-12 -15.1029

23.6642 -31.3413 -4.25141e-13
-31.3413 5.71271 -3.3431e-12
-4.25141e-13 -3.3431e-12 -5.87769

11.0599 -24.587 -4.99393e-12
-24.587 -27.4943 -3.3212e-12
-4.99393e-12 -3.3212e-12 -10.0477

46.6426 10.8642 -3.48166e-12
10.8642 -16.1166 9.97128e-13
-3.48166e-12 9.97128e-13 -6.79933

-14.1861 26.3401 5.03035e-12
26.3401 -15.6395 1.20437e-12
5.03035e-12 1.20437e-12 -14.1188

-45.2519 -37.6131 1.21e-12
-37.6131 -20.6125 -8.83515e-13
1.21e-12 -8.83515e-13 -14.9188

-43.7086 37.2653 1.52471e-13
37.2653 -21.2663 1.74423e-12
1.52471e-13 1.74423e-12 -14.7692

-61.1853 -28.5735 -4.28468e-12
-28.5735 -7.49703 1.99396e-12
-4.28468e-12 1.99396e-12 -15.1993

-58.4162 27.0642 -2.58993e-12
27.0642 -6.27167 3.75936e-12
-2.58993e-12 3.75936e-12 -14.4779

5.60068 -8.52769 1.64076e-12
-8.52769 -71.0643 1.6717e-12
1.64076e-12 1.6717e-12 -14.7095

4.3974 9.2737 1.55801e-12
9.2737 -68.8329 -2.6111e-12
1.55801e-12 -2.6111e-12 -14.4374

9.02399 -9.84607 -1.55402e-12
-9.84607 -40.8896 2.63434e-12
-1.55402e-12 2.63434e-12 -9.61142

-24.3355 32.1163 -9.47982e-13
32.1163 -24.8102 -3.39255e-12
-9.47982e-13 -3.39255e-12 -21.1454

-25.5229 -32.8544 2.68023e-12
-32.8544 -25.0962 -4.70946e-12
2.68023e-12 -4.70946e-12 -21.4695

-53.9202 16.0686 2.24828e-12
16.0686 3.40188 2.3738e-12
2.24828e-12 2.3738e-12 -21.403

-52.4211 -15.801 4.94271e-13
-15.801 3.29719 2.90227e-12
4.94271e-13 2.90227e-12 -21.0762

6.11238 -3.74748 1.67955e-12
-3.74748 -43.9253 6.99292e-13
1.67955e-12 6.99292e-13 -25.7653

6.91855 3.61026 -3.02188e-12
3.61026 -46.3489 1.63602e-12
-3.02188e-12 1.63602e-12 -26.1417

-15.6252 9.83671 2.58245e-12
9.83671 46.2621 1.7207e-12
2.58245e-12 1.7207e-12 -5.84749

-22.9184 -24.7739 8.83441e-13
-24.7739 -14.5521 -6.06774e-13
8.83441e-13 -6.06774e-13 -10.3295

-56.6038 -36.3877 1.85333e-12
-36.3877 -14.5327 -1.2282e-12
1.85333e-12 -1.2282e-12 -13.4368

33.3581 -4.66424 -1.55372e-12
-4.66424 -19.8465 3.64856e-13
-1.55372e-12 3.64856e-13 -3.9446

3.43346 -16.6949 -3.78956e-14
-16.6949 -52.629 -9.62489e-13
-3.78956e-14 -9.62489e-13 -21.5328

3.67459 16.1758 -8.27782e-13
16.1758 -51.8847 -1.79678e-12
-8.27782e-13 -1.79678e-12 -21.4061

6.55579 0.121883 2.34642e-12
0.121883 -76.7552 -1.47715e-12
2.34642e-12 -1.47715e-12 -13.3037

-7.56908 23.3748 1.53833e-12
23.3748 39.9354 5.33262e-12
1.53833e-12 5.33262e-12 -6.88479

-56.8895 36.1716 -7.10321e-13
36.1716 -14.0114 -4.41662e-12
-7.10321e-13 -4.41662e-12 -13.3885

-39.7945 -23.3957 -5.70803e-13
-23.3957 2.56159 8.34888e-13
-5.70803e-13 8.34888e-13 -8.8005

37.1165 23.3524 -2.11268e-12
23.3524 -8.61262 -7.6857e-13
-2.11268e-12 -7.6857e-13 -5.75813

4.73544 23.8581 -3.71495e-12
23.8581 -38.2258 -2.69118e-12
-3.71495e-12 -2.69118e-12 -18.9858

24.0134 -31.3131 -1.89596e-12
-31.3131 6.40857 6.93608e-12
-1.89596e-12 6.93608e-12 -5.64767

2.43082 -3.23087 1.61663e-12
-3.23087 -48.3697 -1.13598e-12
1.61663e-12 -1.13598e-12 -14.7425

-60.458 -34.1611 2.36107e-14
-34.1611 -14.3498 3.41801e-12
2.36107e-14 3.41801e-12 -14.0306

-17.452 8.31983 3.69009e-12
8.31983 45.6915 1.62004e-12
3.69009e-12 1.62004e-12 -5.78053

-9.46831 21.8112 -8.55642e-12
21.8112 40.4248 3.04941e-12
-8.55642e-12 3.04941e-12 -6.65327

58.603 35.7753 1.64135e-12
35.7753 37.0878 -3.4864e-12
1.64135e-12 -3.4864e-12 -6.9157

70.4832 1.57873 3.41534e-12
1.57873 -5.54253 2.69533e-12
3.41534e-12 2.69533e-12 -10.3737

-30.7595 -22.8044 -9.15416e-13
-22.8044 -13.3563 -4.17535e-12
-9.15416e-13 -4.17535e-12 -14.4658

32.8411 31.1834 3.69719e-12
31.1834 69.7936 -4.50484e-12
3.69719e-12 -4.50484e-12 -6.67921

-19.3762 23.6097 -8.15052e-13
23.6097 7.68695 -1.2245e-12
-8.15052e-13 -1.2245e-12 -5.51279

47.6366 -5.34946 5.44749e-13
-5.34946 -17.4326 1.90026e-12
5.44749e-13 1.90026e-12 -6.82128

33.2193 11.2159 -2.41407e-12
11.2159 -23.6362 1.77547e-12
-2.41407e-12 1.77547e-12 -6.01336

6.2543 0.429906 2.38594e-12
0.429906 -77.5525 2.12058e-12
2.38594e-12 2.12058e-12 -13.4494

-58.936 -29.0312 1.83113e-12
-29.0312 -6.28807 5.49782e-13
1.83113e-12 5.49782e-13 -14.6969

-28.332 -6.31904 -3.43103e-12
-6.31904 -11.3586 3.34784e-12
-3.43103e-12 3.34784e-12 -51.5902

-44.6983 37.4117 -9.03573e-13
37.4117 -20.8115 -2.42558e-12
-9.03573e-13 -2.42558e-12 -14.7733

93.7894 1.66327 1.16055e-13
1.66327 16.6554 3.60208e-12
1.16055e-13 3.60208e-12 -6.04296

10.0367 -32.7864 1.79471e-12
-32.7864 21.3109 3.56929e-12
1.79471e-12 3.56929e-12 -6.80772

-56.9363 36.6131 3.21002e-13
36.6131 -14.5712 1.58377e-12
3.21002e-13 1.58377e-12 -13.5047

-35.0786 -11.1338 7.99564e-13
-11.1338 19.1771 2.45729e-13
7.99564e-13 2.45729e-13 -8.31602

-5.47703 -25.5141 -9.40581e-13
-25.5141 37.35 -6.93963e-13
-9.40581e-13 -6.93963e-13 -6.98655

-58.4525 28.8302 1.32213e-12
28.8302 -6.27144 1.74557e-12
1.32213e-12 1.74557e-12 -14.6139

28.4958 -26.1414 -1.62418e-12
-26.1414 -4.91214 -2.23584e-12
-1.62418e-12 -2.23584e-12 -4.69673

-21.1708 10.4834 1.47378e-12
10.4834 -18.559 -4.78032e-12
1.47378e-12 -4.78032e-12 -51.6857

3.43318 30.8714 7.21379e-12
30.8714 27.1625 1.39858e-12
7.21379e-12 1.39858e-12 -6.7325

6.14064 8.12678 1.20541e-12
8.12678 -72.2981 2.2015e-12
1.20541e-12 2.2015e-12 -14.9841

-11.5456 30.1905 -1.11378e-12
30.1905 -20.6032 -1.73461e-12
-1.11378e-12 -1.73461e-12 -11.5489

-30.7973 23.3317 5.01969e-13
23.3317 -5.0996 -1.51553e-12
5.01969e-13 -1.51553e-12 -8.46387

-25.8637 -32.489 -1.37697e-12
-32.489 -24.1129 4.71697e-13
-1.37697e-12 4.71697e-13 -21.559

9.20556 -23.19 2.08367e-12
-23.19 -27.922 7.28306e-14
2.08367e-12 7.28306e-14 -11.4254

-37.6607 10.4708 -1.53451e-12
10.4708 8.9289 -2.52835e-12
-1.53451e-12 -2.52835e-12 -25.3313

-23.0402 -23.4336 -2.97569e-12
-23.4336 4.95252 6.11481e-12
-2.97569e-12 6.11481e-12 -6.26251

88.8023 -9.70763 -1.47556e-12
-9.70763 10.8074 1.79205e-12
-1.47556e-12 1.79205e-12 -10.0307

84.0424 -14.277 5.00459e-12
-14.277 2.81287 1.80478e-12
5.00459e-12 1.80478e-12 -13.1967

5.88812 16.5293 2.94283e-12
16.5293 -33.9324 2.95675e-12
2.94283e-12 2.95675e-12 -22.3762

-16.4209 22.5014 6.63469e-13
22.5014 16.228 3.58883e-12
6.63469e-13 3.58883e-12 -5.08479

-3.91219 29.1629 6.33567e-13
29.1629 -12.2295 -3.6285e-12
6.33567e-13 -3.6285e-12 -8.39587

50.9922 0.688662 -4.71564e-12
0.688662 -6.53131 5.97677e-12
-4.71564e-12 5.97677e-12 -3.63397

-48.1409 6.57125 6.90556e-12
6.57125 14.7862 2.83033e-13
6.90556e-12 2.83033e-13 -18.9525

10.1157 16.5408 6.91713e-12
16.5408 -36.0794 4.77248e-12
6.91713e-12 4.77248e-12 -9.13512

-4.50324 -25.7606 -2.59407e-12
-25.7606 35.5552 7.66202e-13
-2.59407e-12 7.66202e-13 -6.74651

-39.1908 -2.57245 5.47203e-12
-2.57245 21.5042 2.33828e-12
5.47203e-12 2.33828e-12 -10.6691

-7.99017 13.3649 3.33955e-12
13.3649 44.4049 9.48575e-13
3.33955e-12 9.48575e-13 -3.94384

3.73475 -29.713 -2.92744e-12
-29.713 -17.3643 9.77884e-13
-2.92744e-12 9.77884e-13 -8.92015

21.4259 -29.9469 -1.12562e-12
-29.9469 14.7561 6.98108e-12
-1.12562e-12 6.98108e-12 -3.91741

6.88119 31.6222 3.21757e-12
31.6222 25.4016 -6.28297e-12
3.21757e-12 -6.28297e-12 -6.82767

2.78567 -15.0202 -2.04607e-12
-15.0202 -39.2678 1.50472e-13
-2.04607e-12 1.50472e-13 -63.3128

-46.1597 2.04123 -1.90196e-12
2.04123 11.4615 -2.79776e-12
-1.90196e-12 -2.79776e-12 -22.7569

-55.4451 20.3002 4.1848e-12
20.3002 3.09593 -1.66918e-12
4.1848e-12 -1.66918e-12 -22.916

5.91697 15.4391 -1.10874e-13
15.4391 -58.819 -2.93957e-12
-1.10874e-13 -2.93957e-12 -23.0361

-18.9213 -26.1885 -2.30926e-14
-26.1885 -12.9132 6.51331e-14
-2.30926e-14 6.51331e-14 -9.65222

41.3457 17.957 1.04331e-12
17.957 -6.27053 -1.18986e-12
1.04331e-12 -1.18986e-12 -3.86094

-44.6828 -5.29418 2.23342e-12
-5.29418 4.53831 -1.18276e-12
2.23342e-12 -1.18276e-12 -39.1456

7.49925 -18.9882 2.85342e-12
-18.9882 -39.8941 -2.15413e-12
2.85342e-12 -2.15413e-12 -11.6596

30.2908 -15.5987 -1.40865e-12
-15.5987 -20.5079 6.83305e-13
-1.40865e-12 6.83305e-13 -4.8045

-9.63788 11.603 -6.3712e-13
11.603 44.3188 -2.46914e-12
-6.3712e-13 -2.46914e-12 -3.85859

8.33418 -25.7337 8.82849e-13
-25.7337 32.9916 1.96583e-12
8.82849e-13 1.96583e-12 -3.63256

-10.2448 -25.2738 -1.65083e-12
-25.2738 -19.1 2.37854e-12
-1.65083e-12 2.37854e-12 -23.1749

17.0051 31.9589 1.00542e-12
31.9589 11.1974 -1.6301e-12
1.00542e-12 -1.6301e-12 -5.74583

-1.0693 -25.1348 -2.71783e-13
-25.1348 -30.7627 -1.69642e-12
-2.71783e-13 -1.69642e-12 -20.8916

48.0645 2.59733 7.10543e-15
2.59733 -8.40916 -2.82663e-12
7.10543e-15 -2.82663e-12 -3.53112

6.55271 -28.93 -2.20327e-12
-28.93 72.0493 1.71241e-12
-2.20327e-12 1.71241e-12 -14.5513

21.7915 -29.2304 -2.93099e-13
-29.2304 13.9637 5.39243e-12
-2.93099e-13 5.39243e-12 -3.92979

35.351 32.1583 1.23634e-12
32.1583 74.1333 -2.58638e-12
1.23634e-12 -2.58638e-12 -5.44154

-45.283 -11.877 7.2677e-13
-11.877 13.9222 3.55567e-12
7.2677e-13 3.55567e-12 -15.3261

-14.4198 -13.8211 -8.26746e-13
-13.8211 43.3819 5.98869e-12
-8.26746e-13 5.98869e-12 -5.67214

-19.2438 -23.9883 9.33372e-12
-23.9883 -19.8305 6.67614e-12
9.33372e-12 6.67614e-12 -64.2546

2.4386 23.7703 3.76588e-12
23.7703 36.0064 2.79006e-12
3.76588e-12 2.79006e-12 -3.71057

-15.1823 -32.7262 2.57009e-12
-32.7262 -21.1188 1.67126e-12
2.57009e-12 1.67126e-12 -14.3127

-14.5645 -11.9629 -4.37287e-12
-11.9629 45.53 -9.58048e-13
-4.37287e-12 -9.58048e-13 -5.73834

7.83563 -19.1169 -3.0426e-12
-19.1169 -43.1217 -8.33703e-13
-3.0426e-12 -8.33703e-13 -12.6317

6.54594 23.8766 -3.33126e-12
23.8766 35.171 5.38947e-12
-3.33126e-12 5.38947e-12 -3.44154

23.1732 -4.97544 3.39995e-12
-4.97544 -30.6756 -1.60316e-13
3.39995e-12 -1.60316e-13 -5.36372

36.9698 -30.3422 -1.77162e-12
-30.3422 122.625 -1.39503e-12
-1.77162e-12 -1.39503e-12 -6.24196

-26.8687 21.0138 -7.84558e-13
21.0138 8.43431 2.78888e-13
-7.84558e-13 2.78888e-13 -7.12935

40.338 -19.3229 3.04586e-12
-19.3229 -11.3717 -4.28694e-12
3.04586e-12 -4.28694e-12 -5.72536

6.52871 -21.4459 -1.86577e-12
-21.4459 -45.5583 1.99041e-12
-1.86577e-12 1.99041e-12 -24.972

20.7051 31.7534 -3.66285e-12
31.7534 9.55773 7.48202e-12
-3.66285e-12 7.48202e-12 -5.8054

13.9189 -29.9713 5.9804e-14
-29.9713 -7.60521 -7.44886e-13
5.9804e-14 -7.44886e-13 -5.94362

6.75482 20.8852 6.53107e-13
20.8852 -27.7917 -4.05009e-13
6.53107e-13 -4.05009e-13 -11.1085

-38.274 -28.0758 -5.23507e-12
-28.0758 -14.0377 6.05975e-12
-5.23507e-12 6.05975e-12 -11.0605

8.64661 -26.2247 5.36697e-12
-26.2247 31.1706 -2.73204e-12
5.36697e-12 -2.73204e-12 -3.63458

15.3315 28.9805 -1.49214e-13
28.9805 19.1538 1.57859e-12
-1.49214e-13 1.57859e-12 -3.88234

28.6401 26.1909 2.22874e-12
26.1909 -5.63272 -3.09145e-12
2.22874e-12 -3.09145e-12 -4.80132

7.91486 -14.6098 1.66385e-12
-14.6098 -36.8773 2.25775e-12
1.66385e-12 2.25775e-12 -13.991

-6.84083 -16.6172 9.75516e-13
-16.6172 41.3405 2.46558e-12
9.75516e-13 2.46558e-12 -3.95878

17.4406 -17.5682 -7.16464e-13
-17.5682 -30.9986 1.96776e-12
-7.16464e-13 1.96776e-12 -7.1046

19.8419 16.9082 -3.69778e-12
16.9082 -31.6637 1.31598e-12
-3.69778e-12 1.31598e-12 -7.33381

-33.6793 -9.38696 1.90895e-12
-9.38696 8.75597 3.5012e-12
1.90895e-12 3.5012e-12 -23.9929

43.431 -13.4298 5.58487e-12
-13.4298 -8.36813 -1.12162e-12
5.58487e-12 -1.12162e-12 -3.80352

-19.3777 0.593999 -4.82281e-13
0.593999 43.1449 2.81849e-12
-4.82281e-13 2.81849e-12 -4.77478

28.0557 18.5547 -5.12124e-12
18.5547 -18.1982 -1.64402e-12
-5.12124e-12 -1.64402e-12 -4.74901

25.5282 27.6035 -4.24312e-12
27.6035 -3.77506 4.61261e-13
-4.24312e-12 4.61261e-13 -4.77047

-6.71463 -15.6858 -8.33111e-13
-15.6858 43.798 -2.62427e-12
-8.33111e-13 -2.62427e-12 -3.84732

-19.9057 -1.2023 1.0291e-12
-1.2023 42.1274 -7.93439e-14
1.0291e-12 -7.93439e-14 -4.68634

-5.4732 29.1343 1.39918e-12
29.1343 -23.6462 2.35782e-12
1.39918e-12 2.35782e-12 -16.7967

-37.2732 -10.922 1.12991e-12
-10.922 21.68 -6.8449e-13
1.12991e-12 -6.8449e-13 -7.82939

27.1432 -26.7148 -4.13773e-12
-26.7148 -5.53019 6.96569e-12
-4.13773e-12 6.96569e-12 -4.94352

40.7186 21.3321 4.42194e-12
21.3321 -8.36944 -7.9267e-12
4.42194e-12 -7.9267e-12 -5.46688

12.378 23.6652 -1.33878e-12
23.6652 -27.1266 4.9433e-12
-1.33878e-12 4.9433e-12 -8.6664

-37.796 5.47067 1.60161e-12
5.47067 23.3113 4.21766e-12
1.60161e-12 4.21766e-12 -8.59685

18.5931 29.065 7.2955e-12
29.065 17.3778 -5.02354e-12
7.2955e-12 -5.02354e-12 -3.94643

-9.9892 22.9638 -3.45294e-12
22.9638 -14.9126 -2.35723e-12
-3.45294e-12 -2.35723e-12 -24.0262

68.3154 -59.6908 -2.68348e-12
-59.6908 36.3346 2.64559e-12
-2.68348e-12 2.64559e-12 -23.0108

17.5309 -25.0474 2.7652e-13
-25.0474 -17.9915 -1.25381e-12
2.7652e-13 -1.25381e-12 -6.417

10.0586 7.06978 1.64935e-12
7.06978 82.5494 2.69533e-12
1.64935e-12 2.69533e-12 -7.16499

11.9205 -28.8888 -1.62359e-12
-28.8888 -3.88116 9.10087e-13
-1.62359e-12 9.10087e-13 -5.1651

-66.945 -52.7007 8.78704e-13
-52.7007 143.248 8.14756e-13
8.78704e-13 8.14756e-13 -49.6696

-68.3883 51.4514 9.68707e-13
51.4514 142.535 -8.95284e-13
9.68707e-13 -8.95284e-13 -49.8587

19.5687 117.154 -4.77248e-12
117.154 64.1278 -2.72848e-12
-4.77248e-12 -2.72848e-12 -48.3603

20.5276 -117.096 -1.77636e-12
-117.096 61.0247 -4.02641e-13
-1.77636e-12 -4.02641e-13 -48.725

157.741 -1.36335 -1.84267e-12
-1.36335 -79.1872 2.91861e-14
-1.84267e-12 2.91861e-14 -48.9119

110.324 -91.125 2.80901e-12
-91.125 -36.6903 -1.37372e-12
2.80901e-12 -1.37372e-12 -50.3065

110.377 91.6529 -3.13112e-12
91.6529 -36.5006 -2.68111e-12
-3.13112e-12 -2.68111e-12 -50.1793

7.84714 14.3302 6.0485e-13
14.3302 -42.6814 -1.02644e-12
6.0485e-13 -1.02644e-12 -15.0788

-11.7911 25.5367 -2.14939e-13
25.5367 -27.4046 -8.65234e-13
-2.14939e-13 -8.65234e-13 -35.1384

12.4381 6.60595 6.5666e-13
6.60595 -40.533 -1.33789e-12
6.5666e-13 -1.33789e-12 -8.25181

26.2547 21.7843 7.67978e-13
21.7843 -19.5279 -2.54611e-12
7.67978e-13 -2.54611e-12 -5.85017

-21.2292 17.7441 1.1798e-12
17.7441 29.8682 -3.42837e-12
1.1798e-12 -3.42837e-12 -6.16163

22.5303 28.898 -1.91906e-12
28.898 -0.775035 -1.91018e-12
-1.91906e-12 -1.91018e-12 -4.7301

4.05572 -29.6632 -1.5105e-12
-29.6632 -17.466 9.01205e-13
-1.5105e-12 9.01205e-13 -8.50386

25.9952 28.0274 -3.90443e-12
28.0274 -2.3012 6.17047e-12
-3.90443e-12 6.17047e-12 -4.7305

-19.3462 -2.84119 -2.19913e-12
-2.84119 43.0709 3.49824e-12
-2.19913e-12 3.49824e-12 -4.76932

-13.4117 -26.0975 1.92143e-12
-26.0975 -25.8383 3.37212e-12
1.92143e-12 3.37212e-12 -35.5216

-19.8413 -4.86229 -4.70394e-12
-4.86229 41.776 -4.46458e-13
-4.70394e-12 -4.46458e-13 -4.74318

-1.82679 23.0161 3.72324e-12
23.0161 -24.377 1.35358e-12
3.72324e-12 1.35358e-12 -16.1498

44.9821 26.8702 -2.90494e-12
26.8702 8.11174 -6.30015e-12
-2.90494e-12 -6.30015e-12 -5.36857

-52.5091 -13.2161 -1.86221e-13
-13.2161 0.150465 4.98564e-13
-1.86221e-13 4.98564e-13 -20.6174

20.2804 13.7278 -2.11268e-12
13.7278 -31.1408 -7.50807e-13
-2.11268e-12 -7.50807e-13 -7.04231

13.7008 -29.9872 2.69414e-13
-29.9872 -6.69095 2.32407e-12
2.69414e-13 2.32407e-12 -5.83455

29.6307 -24.7131 2.07478e-12
-24.7131 -7.87314 5.92504e-12
2.07478e-12 5.92504e-12 -4.82447

5.76494 -16.0745 5.25624e-12
-16.0745 -32.3342 -6.59917e-13
5.25624e-12 -6.59917e-13 -22.2556

12.6277 27.9286 -2.21452e-13
27.9286 -13.6382 -1.41487e-12
-2.21452e-13 -1.41487e-12 -6.41899

23.309 23.9771 3.0506e-12
23.9771 -17.9426 1.74616e-12
3.0506e-12 1.74616e-12 -5.96169

-31.0762 -2.79295 -1.5596e-12
-2.79295 30.1316 5.09222e-14
-1.5596e-12 5.09222e-14 -6.39785

-28.6285 5.8733 -1.59911e-12
5.8733 33.3213 -2.66394e-12
-1.59911e-12 -2.66394e-12 -6.05865

34.5483 2.64667 -1.76629e-12
2.64667 -26.1825 9.73222e-13
-1.76629e-12 9.73222e-13 -6.14138

50.6508 -7.28954 -6.40791e-12
-7.28954 -14.081 -5.15262e-12
-6.40791e-12 -5.15262e-12 -6.77807

11.0413 30.4843 -4.49774e-12
30.4843 -4.78713 7.20194e-12
-4.49774e-12 7.20194e-12 -5.9655

17.4676 -26.1551 -1.91491e-12
-26.1551 -17.4545 5.42263e-12
-1.91491e-12 5.42263e-12 -6.35111

-0.0845121 -21.2543 6.24389e-12
-21.2543 -27.9557 -2.26634e-12
6.24389e-12 -2.26634e-12 -17.1664

4.93929 -31.6332 2.94579e-12
-31.6332 4.86173 8.28967e-14
2.94579e-12 8.28967e-14 -5.93433

-8.22658 -27.7851 -3.57166e-12
-27.7851 18.5789 -2.2015e-12
-3.57166e-12 -2.2015e-12 -6.12894

-1.64985 29.8867 3.32593e-12
29.8867 10.4475 1.84149e-12
3.32593e-12 1.84149e-12 -5.79937

-26.0157 -9.5778 7.95068e-13
-9.5778 32.9696 -3.45205e-13
7.95068e-13 -3.45205e-13 -5.78632

-31.3221 -1.54474 -4.01834e-12
-1.54474 31.6507 -3.36916e-12
-4.01834e-12 -3.36916e-12 -6.22268

-38.9148 5.74795 3.26683e-13
5.74795 23.9465 1.89419e-12
3.26683e-13 1.89419e-12 -9.18225

-17.2174 -21.0888 1.75889e-12
-21.0888 26.5709 -3.03935e-12
1.75889e-12 -3.03935e-12 -5.77102

13.072 24.111 1.42109e-12
24.111 -28.1007 -1.00009e-12
1.42109e-12 -1.00009e-12 -9.20413

21.5549 -9.58965 5.24617e-13
-9.58965 -31.7057 2.90286e-13
5.24617e-13 2.90286e-13 -6.59714

-27.1527 7.4652 2.13785e-12
7.4652 34.3345 1.24996e-12
2.13785e-12 1.24996e-12 -5.87305

-35.235 -9.70106 -3.58774e-12
-9.70106 22.3135 -1.25648e-12
-3.58774e-12 -1.25648e-12 -8.18267

-29.1549 -16.3305 1.55268e-12
-16.3305 19.3467 -3.13172e-12
1.55268e-12 -3.13172e-12 -6.66081

36.9676 -8.2391 3.51008e-12
-8.2391 -20.2359 -4.61113e-12
3.51008e-12 -4.61113e-12 -5.10056

-14.8095 -32.3468 -5.52743e-12
-32.3468 -21.6274 2.8626e-12
-5.52743e-12 2.8626e-12 -12.9925

-22.8234 9.32073 1.69124e-12
9.32073 33.3232 -2.84217e-14
1.69124e-12 -2.84217e-14 -4.7879

-0.750919 -18.2126 -5.48835e-12
-18.2126 -35.1577 3.29396e-12
-5.48835e-12 3.29396e-12 -33.2781

4.93234 24.8224 4.31596e-12
24.8224 75.3059 -2.83033e-12
4.31596e-12 -2.83033e-12 -14.3188

-14.1417 -26.6261 -6.75371e-12
-26.6261 -16.3497 3.78408e-12
-6.75371e-12 3.78408e-12 -14.6403

-6.35703 -30.2028 -2.77467e-12
-30.2028 -23.602 2.24295e-12
-2.77467e-12 2.24295e-12 -17.0876

-31.2699 -0.70131 3.6815e-13
-0.70131 31.5003 -3.33777e-12
3.6815e-13 -3.33777e-12 -6.34755

28.4875 -16.6224 -4.94538e-12
-16.6224 -18.0563 7.42606e-12
-4.94538e-12 7.42606e-12 -4.43711

-37.8044 12.8416 -2.79884e-12
12.8416 11.1651 -3.36264e-12
-2.79884e-12 -3.36264e-12 -10.9884

-8.86111 -3.18048 -1.8429e-12
-3.18048 111.05 -3.70666e-12
-1.8429e-12 -3.70666e-12 -22.6717

-31.6018 14.2736 -4.04454e-12
14.2736 21.3504 -3.3508e-12
-4.04454e-12 -3.3508e-12 -7.12353

12.4221 -29.4889 -6.92779e-13
-29.4889 -2.51924 -5.22782e-12
-6.92779e-13 -5.22782e-12 -4.92732

33.6317 25.1055 6.206e-12
25.1055 124.029 -2.54374e-12
6.206e-12 -2.54374e-12 -6.21429

-13.5028 26.0982 -5.61492e-12
26.0982 -19.0974 -1.75889e-12
-5.61492e-12 -1.75889e-12 -58.8965

-9.55282 -27.8076 3.60216e-12
-27.8076 -22.8069 -2.03955e-12
3.60216e-12 -2.03955e-12 -59.5469

-2.86553 -30.4188 1.01193e-12
-30.4188 -7.32083 8.03801e-13
1.01193e-12 8.03801e-13 -7.28648

3.86058 -31.1599 -1.65793e-12
-31.1599 5.63591 -6.79279e-12
-1.65793e-12 -6.79279e-12 -6.06155

25.152 20.8273 5.35453e-12
20.8273 -17.0338 1.82728e-12
5.35453e-12 1.82728e-12 -4.97601

31.805 15.0059 -1.04213e-12
15.0059 -23.3002 -3.4562e-12
-1.04213e-12 -3.4562e-12 -5.95384

-9.4889 3.08365 1.18678e-11
3.08365 -9.83066 2.02471e-11
1.18678e-11 2.02471e-11 -80.9395

-5.54911 -7.00027 1.32698e-11
-7.00027 -14.0419 -1.37178e-11
1.32698e-11 -1.37178e-11 -80.2922

11.7485 4.82431 -3.74634e-12
4.82431 -43.2051 -5.05077e-13
-3.74634e-12 -5.05077e-13 -7.82675

-35.0562 6.73091 -4.03766e-12
6.73091 24.3753 2.12452e-12
-4.03766e-12 2.12452e-12 -7.56327

-36.1098 6.73632 4.1768e-12
6.73632 24.4326 5.46289e-12
4.1768e-12 5.46289e-12 -8.30824

74.586 58.6338 -7.07464e-12
58.6338 34.1724 -2.79006e-12
-7.07464e-12 -2.79006e-12 -21.8731

-6.91937 -28.1995 5.41552e-12
-28.1995 16.8753 -6.67022e-12
5.41552e-12 -6.67022e-12 -6.11583

8.17206 17.9745 -3.57936e-13
17.9745 -44.8757 2.98665e-12
-3.57936e-13 2.98665e-12 -12.8963

32.7029 9.53968 4.93827e-13
9.53968 -19.0796 9.43542e-13
4.93827e-13 9.43542e-13 -4.07359

3.38812 -26.723 3.20396e-12
-26.723 13.4841 -2.67519e-12
3.20396e-12 -2.67519e-12 -3.82623

26.2375 -20.2375 -3.96838e-12
-20.2375 -20.3224 4.45037e-12
-3.96838e-12 4.45037e-12 -5.86242

65.3898 60.2317 3.48166e-12
60.2317 34.2892 -5.31249e-12
3.48166e-12 -5.31249e-12 -23.8678

-13.2424 31.069 -3.28419e-12
31.069 -16.881 3.49646e-13
-3.28419e-12 3.49646e-13 -12.7854

-18.6036 -19.7859 -1.81396e-12
-19.7859 28.4147 7.84439e-12
-1.81396e-12 7.84439e-12 -5.96868

11.1746 28.8575 5.12124e-12
28.8575 -13.3228 -1.49628e-12
5.12124e-12 -1.49628e-12 -6.43541

-31.8685 -4.14477 1.77991e-12
-4.14477 30.1479 -1.66978e-13
1.77991e-12 -1.66978e-13 -6.35712

-14.5958 19.609 6.13435e-13
19.609 27.1852 3.71732e-12
6.13435e-13 3.71732e-12 -4.41792

7.4795 30.5185 4.13299e-13
30.5185 -1.66997 7.05214e-13
4.13299e-13 7.05214e-13 -5.6597

-9.34439 -22.473 4.05957e-12
-22.473 23.1493 -7.23925e-12
4.05957e-12 -7.23925e-12 -4.17467

4.59087 -27.3523 -3.35731e-13
-27.3523 11.4492 -6.15804e-12
-3.35731e-13 -6.15804e-12 -3.93774

24.2717 11.2569 3.14045e-12
11.2569 102.078 8.00545e-13
3.14045e-12 8.00545e-13 -12.405

37.4665 -33.4559 -8.5502e-13
-33.4559 69.2851 3.49587e-12
-8.5502e-13 3.49587e-12 -5.70292

-25.3346 -11.6904 -1.61116e-12
-11.6904 31.3681 -4.99215e-12
-1.61116e-12 -4.99215e-12 -5.6476

16.0967 26.4843 -3.28626e-13
26.4843 -15.5016 3.72147e-12
-3.28626e-13 3.72147e-12 -6.21672

4.95609 29.4777 2.67046e-13
29.4777 1.63718 1.42878e-12
2.67046e-13 1.42878e-12 -4.98919

-9.85417 -21.4337 8.82257e-13
-21.4337 25.1209 2.56565e-12
8.82257e-13 2.56565e-12 -4.03247

-21.6341 -11.7822 -5.6577e-13
-11.7822 32.0821 9.87654e-13
-5.6577e-13 9.87654e-13 -4.63644

10.4632 28.4093 1.27661e-12
28.4093 -0.156176 -3.15955e-12
1.27661e-12 -3.15955e-12 -4.67214

-21.8462 -13.8777 4.08769e-12
-13.8777 29.4674 -4.29464e-12
4.08769e-12 -4.29464e-12 -4.84638

6.9588 27.8547 -7.76268e-13
27.8547 73.0844 -9.00021e-14
-7.76268e-13 -9.00021e-14 -14.3219

-45.8315 -4.04132 -2.67049e-12
-4.04132 14.0479 1.09838e-12
-2.67049e-12 1.09838e-12 -19.9649

0.87752 31.0273 2.82855e-12
31.0273 7.52063 -4.15608e-12
2.82855e-12 -4.15608e-12 -6.08829

9.7193 14.9011 4.76656e-13
14.9011 -36.4288 4.30589e-12
4.76656e-13 4.30589e-12 -10.9849

9.92886 -15.9274 4.3275e-12
-15.9274 -39.4102 3.5089e-12
4.3275e-12 3.5089e-12 -13.0687

85.6126 -24.2043 -1.90189e-12
-24.2043 7.63598 3.5385e-12
-1.90189e-12 3.5385e-12 -12.9578

-23.2065 -21.2671 -1.70234e-12
-21.2671 10.5139 1.72307e-12
-1.70234e-12 1.72307e-12 -6.16453

-16.6005 26.6981 1.02111e-12
26.6981 1.77875 3.51423e-12
1.02111e-12 3.51423e-12 -6.58698

-26.2015 -21.7279 1.05397e-12
-21.7279 -5.36469 2.17844e-12
1.05397e-12 2.17844e-12 -23.8673

-41.5972 14.1068 -9.51239e-12
14.1068 -3.56016 -9.55088e-13
-9.51239e-12 -9.55088e-13 -64.129

-0.893365 9.44535 -2.71413e-12
9.44535 -44.2599 -2.00728e-13
-2.71413e-12 -2.00728e-13 -64.2304

-20.3842 32.7056 -6.72233e-12
32.7056 -23.2023 -5.27267e-12
-6.72233e-12 -5.27267e-12 -24.3297

-11.41 26.0001 3.37804e-12
26.0001 22.6042 -2.34183e-12
3.37804e-12 -2.34183e-12 -5.92491

16.0388 26.6613 4.68366e-13
26.6613 -17.2867 -5.06321e-12
4.68366e-13 -5.06321e-12 -6.54919

30.4282 45.1855 -6.69094e-13
45.1855 47.5545 1.77162e-12
-6.69094e-13 1.77162e-12 -15.1949

-44.889 -11.3438 -4.57027e-12
-11.3438 -1.80809 -1.50694e-12
-4.57027e-12 -1.50694e-12 -61.685

-8.29819 -3.433 -4.92548e-12
-3.433 -12.7554 -2.66157e-13
-4.92548e-12 -2.66157e-13 -77.2295

-14.6917 -0.210097 -5.53054e-12
-0.210097 -6.41858 6.70345e-12
-5.53054e-12 6.70345e-12 -77.3738

27.6648 -53.8021 -4.07378e-13
-53.8021 71.1481 -2.71664e-12
-4.07378e-13 -2.71664e-12 -24.3896

-11.6914 -11.6001 -7.4533e-13
-11.6001 -16.2045 -5.66095e-12
-7.4533e-13 -5.66095e-12 -37.4316

-32.6104 8.8131 -2.09173e-12
8.8131 -9.41964 -6.27646e-13
-2.09173e-12 -6.27646e-13 -49.5422

18.2563 -26.1994 1.63129e-12
-26.1994 -19.5459 -2.93513e-12
1.63129e-12 -2.93513e-12 -6.50594

-39.4299 1.01112 -3.64882e-12
1.01112 11.9802 9.17784e-13
-3.64882e-12 9.17784e-13 -19.7219

-30.202 -20.2677 1.03443e-12
-20.2677 6.30518 -4.58596e-12
1.03443e-12 -4.58596e-12 -7.21542

10.5366 6.25532 -3.44968e-12
6.25532 -52.3898 2.43035e-12
-3.44968e-12 2.43035e-12 -9.63917

-49.8126 15.5963 -3.29601e-12
15.5963 10.1654 -6.09557e-12
-3.29601e-12 -6.09557e-12 -13.5308

-40.2832 7.19164 1.21333e-12
7.19164 16.5415 -3.06185e-12
1.21333e-12 -3.06185e-12 -13.7739

16.405 20.3926 -1.01252e-12
20.3926 -25.8403 9.92095e-13
-1.01252e-12 9.92095e-13 -7.60708

-9.10013 -3.1139 -5.38377e-12
-3.1139 108.394 -5.32907e-12
-5.38377e-12 -5.32907e-12 -23.102

-3.31982 -27.6235 -5.14433e-12
-27.6235 -3.62928 1.05397e-12
-5.14433e-12 1.05397e-12 -5.82936

-7.33484 -26.1161 -8.78112e-13
-26.1161 -14.0816 -1.84741e-13
-8.78112e-13 -1.84741e-13 -9.81026

-14.1981 -31.4837 -1.5028e-12
-31.4837 -21.7779 6.06478e-13
-1.5028e-12 6.06478e-13 -12.7553

90.7269 32.7493 1.17476e-12
32.7493 20.9062 8.90843e-13
1.17476e-12 8.90843e-13 -16.506

-23.1176 -20.1166 -4.24194e-12
-20.1166 -17.385 -7.10572e-12
-4.24194e-12 -7.10572e-12 -44.4284

72.6298 54.3219 -8.73968e-12
54.3219 91.6398 -2.70954e-12
-8.73968e-12 -2.70954e-12 -6.1425

-36.2148 -21.4396 -4.83761e-13
-21.4396 -6.79682 9.75516e-13
-4.83761e-13 9.75516e-13 -13.0426

15.0339 14.6504 -1.70471e-12
14.6504 -37.7513 -1.12147e-12
-1.70471e-12 -1.12147e-12 -8.17824

44.5724 -14.5723 -4.53089e-12
-14.5723 -8.27134 -7.65536e-12
-4.53089e-12 -7.65536e-12 -4.41792

-21.2303 24.0466 5.49782e-13
24.0466 4.95564 2.60118e-12
5.49782e-13 2.60118e-12 -5.97573

17.3732 20.4279 -3.06185e-12
20.4279 -26.7919 5.53631e-14
-3.06185e-12 5.53631e-14 -6.95089

-51.1401 11.4006 1.22324e-12
11.4006 7.71055 -5.85102e-12
1.22324e-12 -5.85102e-12 -29.9944

-7.28675 -31.58 -7.74196e-13
-31.58 -12.8264 -1.99514e-12
-7.74196e-13 -1.99514e-12 -8.1185

2.79683 19.8124 4.15668e-12
19.8124 -46.0335 2.69947e-12
4.15668e-12 2.69947e-12 -29.9863

-24.6705 -18.4433 -1.99189e-12
-18.4433 17.8362 -2.83388e-12
-1.99189e-12 -2.83388e-12 -5.47942

-42.3402 4.28312 -1.44597e-12
4.28312 17.8694 1.58155e-12
-1.44597e-12 1.58155e-12 -12.7278

-4.09805 9.9267 -1.80537e-12
9.9267 -40.2762 -3.48329e-12
-1.80537e-12 -3.48329e-12 -47.5497

-2.68826 -8.5133 -5.5671e-12
-8.5133 -38.3074 -1.9836e-12
-5.5671e-12 -1.9836e-12 -47.4054

81.7217 18.5122 4.41484e-12
18.5122 1.70038 -2.27788e-12
4.41484e-12 -2.27788e-12 -14.453

3.89495 7.96496 -1.61885e-12
7.96496 -45.1828 -6.86858e-13
-1.61885e-12 -6.86858e-13 -11.0177

35.871 7.74038 -4.48426e-12
7.74038 184.571 -3.56219e-12
-4.48426e-12 -3.56219e-12 -9.75796

40.1444 -11.385 -2.63833e-12
-11.385 190.368 -1.74794e-12
-2.63833e-12 -1.74794e-12 -7.38981

53.7638 56.4064 -1.81188e-12
56.4064 159.253 -4.72748e-12
-1.81188e-12 -4.72748e-12 -11.5007

1.70912 -28.9504 -8.18308e-13
-28.9504 -24.6906 4.67774e-13
-8.18308e-13 4.67774e-13 -11.9625

16.0486 -49.1898 5.41197e-12
-49.1898 99.4174 -2.70717e-12
5.41197e-12 -2.70717e-12 -21.6894

54.5116 -55.9489 -4.50247e-12
-55.9489 149.97 -1.7953e-12
-4.50247e-12 -1.7953e-12 -13.6655

-2.16528 26.2197 5.61566e-12
26.2197 17.5727 -3.34902e-12
5.61566e-12 -3.34902e-12 -3.99523

134.936 73.8431 6.29541e-12
73.8431 85.0233 -2.66927e-12
6.29541e-12 -2.66927e-12 -10.1598

-18.7196 13.0474 7.45063e-12
13.0474 -3.90031 -2.41111e-12
7.45063e-12 -2.41111e-12 -26.7699

3.74114 0.0392521 -2.81789e-12
0.0392521 -26.1889 5.13101e-12
-2.81789e-12 5.13101e-12 -26.7731

144.095 -73.1285 -1.33582e-12
-73.1285 85.3507 9.45022e-13
-1.33582e-12 9.45022e-13 -8.19705

-21.3922 -23.4237 1.59132e-12
-23.4237 12.2482 1.24878e-12
1.59132e-12 1.24878e-12 -6.49039

89.3448 34.7286 3.66166e-12
34.7286 41.3893 -6.23975e-12
3.66166e-12 -6.23975e-12 -11.5482

72.1855 63.4901 3.21639e-12
63.4901 149.69 -4.49537e-12
3.21639e-12 -4.49537e-12 -9.67437

26.1641 21.6298 1.00187e-12
21.6298 100.131 -4.70142e-12
1.00187e-12 -4.70142e-12 -13.0316

73.8723 -65.9189 1.82846e-12
-65.9189 151.141 9.09495e-13
1.82846e-12 9.09495e-13 -9.40293

25.7686 -12.3809 -1.15765e-11
-12.3809 105.01 -4.37221e-12
-1.15765e-11 -4.37221e-12 -12.4286

-28.6639 6.84188 2.68763e-12
6.84188 3.10672 -2.91767e-12
2.68763e-12 -2.91767e-12 -37.8543

37.7423 -45.974 -1.73846e-12
-45.974 49.6685 -2.69296e-12
-1.73846e-12 -2.69296e-12 -15.5323

14.4433 47.5311 1.53951e-13
47.5311 94.8779 -3.71614e-12
1.53951e-13 -3.71614e-12 -22.1926

173.336 37.9109 -1.34529e-12
37.9109 48.0403 5.39657e-12
-1.34529e-12 5.39657e-12 -9.523

7.02099 -29.2854 2.71546e-12
-29.2854 -14.3581 -2.58638e-12
2.71546e-12 -2.58638e-12 -7.15547

-38.4171 12.8967 -7.59393e-14
12.8967 6.43529 -1.19342e-12
-7.59393e-14 -1.19342e-12 -15.2903

88.5031 -38.1118 -3.36324e-13
-38.1118 34.1623 6.39488e-14
-3.36324e-13 6.39488e-14 -14.0998

6.04192 -28.8019 1.93268e-12
-28.8019 -16.1714 -2.31933e-12
1.93268e-12 -2.31933e-12 -8.02932

169.202 -36.3428 -3.67587e-12
-36.3428 34.9278 -7.22385e-13
-3.67587e-12 -7.22385e-13 -13.2908

-5.72493 -28.3172 1.51405e-12
-28.3172 -14.4725 -7.67682e-13
1.51405e-12 -7.67682e-13 -9.30891

-17.7899 -25.2945 -4.2674e-12
-25.2945 12.0804 6.03369e-13
-4.2674e-12 6.03369e-13 -5.93355

118.873 69.4595 -7.38964e-13
69.4595 96.2169 7.18596e-12
-7.38964e-13 7.18596e-12 -11.401

29.4124 -22.9324 7.55307e-12
-22.9324 97.7943 4.55458e-12
7.55307e-12 4.55458e-12 -14.3402

117.956 -71.6915 5.44276e-12
-71.6915 93.6784 4.45037e-12
5.44276e-12 4.45037e-12 -12.417

22.2641 50.7366 5.09222e-14
50.7366 73.7768 1.80478e-12
5.09222e-14 1.80478e-12 -24.7776

-1.53597 -30.2118 -5.31486e-12
-30.2118 -6.55212 9.61305e-13
-5.31486e-12 9.61305e-13 -6.99722

-7.04525 -14.6403 1.19371e-12
-14.6403 -21.9193 6.60094e-12
1.19371e-12 6.60094e-12 -32.6148

-11.892 11.0927 4.73407e-12
11.0927 -16.4311 5.09844e-12
4.73407e-12 5.09844e-12 -77.7959

-26.1693 -5.15998 1.87998e-13
-5.15998 -6.38738 -2.09442e-11
1.87998e-13 -2.09442e-11 -77.6297

-38.9407 13.0836 -5.41613e-12
13.0836 13.7444 3.80851e-12
-5.41613e-12 3.80851e-12 -10.2384

-14.4806 -10.6671 -6.73483e-12
-10.6671 -17.3186 4.33239e-12
-6.73483e-12 4.33239e-12 -78.7588

-25.9031 4.09171 4.88306e-12
4.09171 -5.91388 7.10062e-12
4.88306e-12 7.10062e-12 -78.9009

-3.6339 7.43423 1.83616e-12
7.43423 -27.8608 4.40729e-12
1.83616e-12 4.40729e-12 -77.9881

-43.9756 -12.1153 -6.77377e-12
-12.1153 2.91634 -7.13207e-13
-6.77377e-12 -7.13207e-13 -68.1594

11.9737 -30.4696 6.19179e-12
-30.4696 76.162 -4.9738e-14
6.19179e-12 -4.9738e-14 -14.7009

0.521946 -12.9721 4.68958e-12
-12.9721 -39.9909 1.75534e-12
4.68958e-12 1.75534e-12 -45.2778

-16.3488 -34.4178 3.1859e-12
-34.4178 -22.0685 -5.03079e-12
3.1859e-12 -5.03079e-12 -23.5902

-2.42054 -18.1768 9.91799e-14
-18.1768 -29.8954 -7.4302e-12
9.91799e-14 -7.4302e-12 -33.627

12.7383 15.4591 2.19676e-12
15.4591 -37.7158 -1.03887e-12
2.19676e-12 -1.03887e-12 -9.62474

-46.909 9.86434 -3.95576e-12
9.86434 8.87775 -2.15235e-12
-3.95576e-12 -2.15235e-12 -70.1552

3.46272 19.2277 3.0654e-12
19.2277 -41.4724 -7.65684e-14
3.0654e-12 -7.65684e-14 -70.271

1.47241 11.3062 9.58641e-13
11.3062 -23.9652 -7.65121e-12
9.58641e-13 -7.65121e-12 -31.8682

109.39 -15.3391 4.51668e-12
-15.3391 -12.5355 2.96059e-14
4.51668e-12 2.96059e-14 -25.0373

-14.3199 24.9638 -4.84649e-13
24.9638 10.3862 3.32771e-12
-4.84649e-13 3.32771e-12 -5.80406

76.606 -61.354 -8.8581e-13
-61.354 37.3647 9.82917e-13
-8.8581e-13 9.82917e-13 -22.3954

76.1133 -57.4566 -7.10543e-15
-57.4566 99.2273 -4.17325e-12
-7.10543e-15 -4.17325e-12 -5.55545

118.195 -36.5436 8.91257e-12
-36.5436 40.6005 4.36273e-12
8.91257e-12 4.36273e-12 -7.37861

-51.1149 -5.15897 -2.27226e-12
-5.15897 3.34083 1.24079e-12
-2.27226e-12 1.24079e-12 -60.6615

-50.4788 2.89123 1.27661e-12
2.89123 3.13509 2.04651e-12
1.27661e-12 2.04651e-12 -60.134

-11.9756 -24.4565 2.968e-12
-24.4565 -35.0038 -8.42341e-12
2.968e-12 -8.42341e-12 -59.1681

-8.992 -21.7608 -7.99856e-12
-21.7608 -37.8885 8.81665e-13
-7.99856e-12 8.81665e-13 -59.4777

-14.7027 26.1362 -2.53072e-12
26.1362 -33.0281 3.24407e-12
-2.53072e-12 3.24407e-12 -60.7527

-18.1579 3.09962 -2.31148e-12
3.09962 -13.1647 -4.25771e-13
-2.31148e-12 -4.25771e-13 -75.4803

-9.94509 -20.5091 2.99316e-13
-20.5091 -32.6512 1.83586e-12
2.99316e-13 1.83586e-12 -56.7384

-26.6488 -18.5684 -5.39124e-13
-18.5684 -14.1959 4.7327e-12
-5.39124e-13 4.7327e-12 -71.274

-15.4793 2.43463 2.49134e-13
2.43463 -12.8527 -1.55782e-11
2.49134e-13 -1.55782e-11 -77.8749

-6.02757 -20.5265 5.10725e-12
-20.5265 -41.4876 -1.53951e-13
5.10725e-12 -1.53951e-13 -60.5088

-6.75686 20.956 -2.91818e-12
20.956 -40.1439 -1.76748e-13
-2.91818e-12 -1.76748e-13 -60.0199

-14.3165 -3.45866 -1.09609e-11
-3.45866 -11.3903 1.02148e-11
-1.09609e-11 1.02148e-11 -76.8894

-11.2643 -3.11739 -5.89691e-12
-3.11739 -17.6895 2.06179e-11
-5.89691e-12 2.06179e-11 -74.0521

-24.2044 12.1098 6.69983e-13
12.1098 -13.4007 -4.97202e-12
6.69983e-13 -4.97202e-12 -69.9701

-22.0827 26.9299 3.31675e-12
26.9299 -26.2671 -1.15777e-11
3.31675e-12 -1.15777e-11 -57.5839

VECTORS fluid_flux_TPM float
-8.72067e-05 3.10237e-05 1.86658e-21
3.55901e-06 6.88153e-06 1.60708e-21
-1.27855e-05 -1.0224e-05 -2.17145e-20
-4.16997e-06 4.25339e-06 8.38947e-21
2.27044e-05 -6.31237e-06 -1.29294e-20
2.75717e-06 -1.59012e-05 -8.41704e-21
-8.57828e-05 -3.10884e-05 5.86744e-21
-1.38903e-05 -1.04652e-05 9.75976e-21
2.21186e-05 9.45383e-07 3.29661e-21
1.13824e-05 -3.90753e-06 -9.23762e-22
5.45932e-05 1.24823e-05 -4.61508e-21
2.34652e-06 -1.71916e-05 -1.06232e-20
1.36095e-05 1.12522e-05 -2.98284e-21
2.66169e-06 1.37826e-05 -3.68739e-21
2.0578e-05 -2.94622e-06 -2.12185e-20
-1.633e-05 -2.7286e-07 -2.5599e-21
2.75312e-06 1.40968e-05 -1.64991e-20
1.01803e-05 -2.39154e-06 9.92346e-21
9.89718e-06 1.72202e-05 7.19075e-21
-1.48463e-05 1.88519e-06 -7.49118e-21
-3.60067e-06 -2.1301e-05 -1.18577e-20
3.41067e-05 5.94101e-05 3.89039e-20
1.56953e-05 1.63107e-06 -2.61784e-21
1.12257e-05 -1.12799e-05 8.64633e-22
-1.50763e-05 -3.33193e-06 -3.1147e-21
-6.77134e-07 -1.11293e-05 -2.53855e-20
6.28957e-05 -4.90787e-06 -7.71282e-21
1.40641e-05 1.02475e-05 -5.2206e-22
-2.51464e-05 -2.06401e-05 5.001e-21
4.91143e-05 -1.28123e-05 3.49366e-21
-1.65802e-05 -6.03752e-06 -1.50906e-20
5.53638e-06 -3.20329e-05 1.21672e-20
4.76489e-05 -4.80419e-05 -1.64546e-20
-4.9228e-06 -4.12432e-05 -1.12535e-20
-2.967e-05 3.70012e-05 6.07389e-21
-3.82432e-05 -1.63933e-05 1.71631e-20
3.26989e-05 4.32107e-05 1.67738e-20
-4.47358e-05 -8.7249e-06 1.79288e-21
1.43728e-05 -1.10805e-05 -8.13722e-21
4.64649e-05 5.01097e-05 -1.20135e-20
3.21259e-05 -1.40205e-05 -1.47296e-20
3.36364e-05 -4.23389e-05 -3.05178e-20
-1.98943e-05 -5.0373e-05 -1.35685e-20
-1.58961e-05 6.35605e-06 1.64361e-20
3.05221e-05 -2.93112e-05 -1.55636e-20
-3.03292e-05 1.0989e-05 1.55736e-20
-4.04978e-06 -2.03684e-05 -1.51215e-20
7.88527e-06 2.02097e-05 1.03015e-21
-1.63408e-05 5.92721e-06 1.14536e-20
-1.7818e-05 2.87227e-05 -7.24654e-21
3.24053e-05 1.52893e-05 -6.02661e-21
2.93622e-05 -1.00742e-05 -4.15912e-21
-1.56648e-05 1.57589e-05 -2.63411e-20
-2.35389e-05 -2.06882e-05 -2.48489e-20
-2.11379e-05 -5.13195e-06 -2.4064e-20
-4.47872e-05 2.70734e-05 -1.57124e-20
-2.93692e-05 -3.80196e-05 1.56627e-20
6.36283e-06 -3.0625e-05 1.19629e-20
-4.77035e-05 6.48229e-06 2.01062e-20
6.07356e-06 1.36958e-05 -3.19778e-20
-5.57635e-06 -8.17277e-06 -1.09894e-20
-6.58301e-06 -1.79422e-05 1.58734e-20
5.71395e-05 2.48577e-05 -4.58749e-21
9.24212e-06 1.81429e-05 -1.07714e-21
1.22956e-05 -1.44439e-05 -7.8047e-21
-1.64047e-06 -2.0751e-05 -4.69632e-21
4.62075e-06 -8.80489e-06 -9.77709e-21
-1.00898e-05 -5.56448e-06 -8.36216e-21
-1.06019e-05 1.19284e-05 -6.80003e-22
2.55801e-06 -4.09231e-06 -1.16549e-20
-1.50424e-05 -1.58421e-05 1.7382e-20
-2.13634e-05 5.16556e-06 2.83397e-21
-3.55659e-06 3.44789e-05 -1.41263e-20
-1.78706e-05 1.07101e-05 -1.1002e-21
-9.07019e-06 1.46137e-05 3.26235e-21
-6.03506e-05 7.69157e-06 -9.20893e-21
7.81752e-06 -2.16801e-05 -1.99546e-20
-1.88789e-05 -8.89947e-06 -6.16243e-21
1.93358e-06 1.16233e-05 -1.66628e-20
2.62992e-05 5.08931e-06 -2.96804e-22
3.41668e-05 -2.89732e-05 4.90731e-21
2.21449e-05 2.05548e-05 4.7779e-22
1.19077e-05 -2.82214e-06 -1.98003e-20
-3.21516e-05 2.40655e-05 -2.72117e-20
3.79019e-05 4.84554e-06 -2.36954e-21
-4.98055e-06 4.94114e-05 -1.76581e-20
-1.74101e-06 -1.6856e-05 -1.59064e-20
1.81227e-05 9.95403e-06 4.46651e-21
2.93155e-05 3.02839e-05 -4.02208e-21
5.50213e-05 3.8011e-05 3.08282e-20
-5.33102e-06 3.07709e-05 -1.48787e-20
5.9176e-05 -3.55102e-05 2.40555e-20
-2.71231e-05 5.34084e-06 7.48723e-21
1.78382e-05 1.10012e-05 4.4365e-21
-2.96392e-05 9.90268e-06 2.79973e-21
1.6652e-05 2.85194e-05 -1.42415e-20
1.01682e-05 -4.43839e-05 2.61916e-20
1.91535e-06 1.16201e-05 -4.07364e-21
-1.47998e-05 -1.7619e-05 2.42292e-20
3.0697e-06 1.74736e-05 -2.66397e-20
2.64052e-05 5.25715e-06 3.70769e-22
-1.54423e-05 3.32091e-05 -3.15067e-20
4.05497e-05 -1.33323e-05 -1.1821e-20
-3.77284e-06 7.45457e-06 8.2488e-21
9.95223e-06 5.89895e-06 -1.84979e-20
-2.28044e-06 -1.13238e-05 -3.52159e-20
3.22046e-06 -1.92507e-05 -1.80107e-20
1.74683e-05 3.89184e-06 -1.54399e-20
-7.93673e-06 4.09701e-05 -1.80671e-20
-9.80502e-06 2.47908e-07 1.71018e-20
9.31794e-06 1.1885e-05 -1.18537e-20
-2.17722e-06 -4.17113e-05 1.32695e-21
4.20204e-05 1.28642e-05 2.71544e-21
4.42228e-06 -7.45274e-06 -1.28563e-20
-1.11445e-05 -3.55342e-06 5.61463e-21
-2.93238e-05 -1.24852e-05 -2.10548e-21
1.58028e-05 4.11447e-05 5.33752e-21
-4.34822e-05 -1.55728e-05 -1.14048e-20
1.60176e-05 -4.11212e-05 4.82696e-21
-3.69959e-06 -3.19182e-05 1.5465e-20
2.18375e-05 6.52125e-07 3.25719e-21
-7.17105e-06 1.83955e-05 -1.05095e-20
-1.6111e-06 3.96932e-06 -3.25217e-20
-3.68575e-06 -1.65377e-05 -8.36156e-21
5.22966e-06 -8.30159e-06 -3.11544e-20
9.35891e-06 1.58625e-05 1.96296e-20
3.30991e-05 1.06517e-05 -6.64748e-21
8.61493e-06 -7.45758e-06 1.104e-20
-8.27042e-06 -4.51571e-05 7.26927e-21
2.55505e-05 -1.88187e-05 -1.29936e-20
4.97761e-06 2.77695e-05 -2.89856e-21
-2.81616e-06 -2.84143e-06 3.7629e-21
-8.62572e-06 -8.32533e-06 1.53653e-20
-4.77637e-06 4.41243e-08 -1.46171e-22
-2.28712e-05 2.85923e-05 -3.93083e-21
1.87619e-05 -3.73727e-05 2.59357e-21
-2.65783e-05 4.27117e-05 -3.57191e-20
-1.63707e-05 9.53464e-06 -6.38646e-21
2.5278e-06 1.21981e-05 -1.54523e-21
-2.29853e-05 -3.49871e-05 8.1139e-21
1.39352e-05 3.34639e-05 -1.46941e-20
1.75066e-05 9.3686e-06 9.73152e-22
2.281e-05 -8.5221e-06 -3.95843e-21
-1.25312e-06 -1.12646e-05 -1.20062e-20
-3.39094e-05 -3.15558e-05 7.65004e-21
-2.7513e-06 1.13026e-05 2.63904e-21
1.72455e-05 1.01711e-05 1.07466e-20
1.88862e-05 -8.82025e-06 3.77135e-21
8.24262e-06 -1.43439e-05 6.76997e-21
2.43553e-05 -1.07946e-05 -1.66113e-20
1.90082e-05 -8.99726e-06 -1.84394e-20
4.64031e-06 2.05786e-07 2.28222e-20
2.57389e-05 2.02198e-05 -1.89781e-21
-2.74144e-06 -1.70287e-05 -2.80458e-20
-1.04791e-05 -4.45669e-06 -9.75434e-21
1.12577e-06 -3.88981e-06 -2.82559e-20
-3.15485e-06 1.58459e-05 -3.18702e-20
-3.48809e-05 2.76791e-06 5.60553e-22
-1.21207e-05 -3.32559e-05 4.38072e-22
-7.87853e-06 9.77833e-06 9.05127e-21
1.35643e-05 1.66392e-05 -2.23464e-21
2.65667e-05 -1.87434e-05 4.44984e-21
-3.67897e-05 -2.03492e-05 1.20719e-21
1.74018e-05 -2.75057e-05 -7.06859e-21
2.28023e-05 -2.72146e-05 -1.02039e-20
-1.09436e-05 3.78466e-06 4.72514e-21
-1.98275e-05 -2.88381e-05 9.63456e-21
-3.48773e-05 -5.79099e-06 1.2655e-20
-3.85219e-06 -3.17404e-05 1.56239e-20
1.54465e-05 -3.16969e-05 1.26517e-20
-9.10551e-06 -2.61977e-05 -2.37407e-21
4.58086e-06 3.14032e-05 -6.89488e-21
-1.57513e-05 -2.852e-05 -2.4711e-21
2.9386e-06 -1.62911e-05 -1.1757e-20
-2.47376e-05 1.82586e-05 -4.16487e-21
-1.50297e-05 -1.21103e-05 2.96086e-20
-2.73509e-05 -5.17207e-06 -5.29387e-21
1.5667e-05 -9.18095e-06 -5.22172e-21
-4.30663e-06 2.39508e-05 -2.34446e-20
1.22317e-05 -9.32385e-06 -4.7535e-22
-2.95838e-05 -1.31633e-05 -8.1718e-21
-8.83106e-06 -7.45757e-06 -8.39981e-21
9.08147e-06 7.54033e-06 -2.1712e-20
2.14253e-05 2.86988e-05 3.86535e-21
-1.75077e-05 -1.08085e-05 2.30159e-20
-3.25039e-05 -7.5102e-07 -1.99622e-20
-1.63356e-05 -5.01581e-06 -9.13762e-22
-4.57782e-06 -1.65821e-05 1.73442e-21
1.76835e-05 2.12378e-05 4.13032e-21
-1.09566e-05 5.87435e-06 1.70096e-20
6.35996e-07 -2.05539e-05 -2.91948e-21
-4.19368e-05 1.08501e-05 -4.39073e-21
2.48589e-05 2.0245e-05 6.66353e-22
3.79421e-06 3.27832e-05 -7.27443e-21
-2.43181e-06 3.79695e-06 -3.51789e-21
-9.0503e-06 2.51184e-07 2.28497e-21
4.35479e-06 7.75958e-06 -1.28211e-20
-1.16932e-05 3.40124e-06 -1.6739e-20
-2.07325e-06 -3.78468e-06 -8.53702e-22
1.65967e-06 2.07585e-05 3.29418e-21
4.4721e-06 4.49671e-07 -1.59143e-20
-1.95368e-05 4.75632e-06 1.34309e-22
-1.72973e-05 1.93567e-05 -4.33616e-21
-3.10724e-06 1.15774e-05 -2.65565e-22
-2.92151e-05 1.83931e-05 -6.1024e-21
-9.34277e-06 8.97875e-06 -2.39658e-20
1.73101e-05 -1.1613e-05 -6.74784e-21
3.66019e-05 -3.56447e-06 -8.8903e-21
-2.11393e-05 1.12966e-05 -2.04669e-20
2.23286e-06 4.49796e-06 -1.65285e-20
2.17739e-05 -4.34462e-06 3.62859e-21
-1.72778e-05 1.03522e-05 3.47431e-22
-9.87115e-06 5.53868e-06 -1.18752e-20
1.18307e-05 3.74245e-06 9.29201e-21
2.18785e-05 -1.34703e-05 -1.54114e-20
-1.73789e-05 9.95547e-06 1.28602e-21
-2.50353e-05 -5.3027e-06 -5.71162e-21
-1.67607e-05 -4.3622e-06 1.17982e-20
9.87559e-06 6.23645e-09 1.83557e-20
1.01732e-05 1.95349e-07 -2.19058e-20
4.39049e-06 8.31664e-06 1.34454e-20
4.82925e-06 -8.79721e-06 -2.40146e-20
-5.01003e-06 8.4193e-06 -1.02012e-21
-5.26634e-06 -8.65705e-06 -9.07053e-22
9.91038e-06 -7.40754e-06 9.85073e-23
-2.03262e-05 3.23471e-06 -8.56836e-21
-2.00586e-05 -3.28353e-06 -3.03168e-21
-1.28339e-05 1.58755e-05 -7.86231e-21
-1.29137e-05 -1.59298e-05 8.42254e-21
7.48579e-06 -1.98425e-05 4.38617e-21
7.20556e-06 1.97626e-05 -1.90993e-21
1.55768e-06 2.58834e-05 -8.36916e-21
1.12397e-05 -3.13664e-06 8.06631e-21
2.35975e-06 -3.86628e-06 -3.7465e-21
-2.14099e-05 1.42159e-06 -1.73227e-21
7.67669e-06 -1.95118e-05 -1.30073e-20
7.27296e-06 1.96603e-05 -4.45591e-21
4.76849e-06 -5.27109e-08 -6.57203e-21
8.96758e-06 2.44015e-05 3.4973e-21
-2.24215e-06 -4.01606e-06 -1.13032e-20
2.31759e-06 -1.13162e-05 2.29739e-21
-2.24289e-05 -1.21507e-05 -9.17347e-21
-2.13566e-05 -1.14938e-05 4.09758e-21
-2.1891e-05 1.36276e-05 4.14275e-21
3.25102e-06 -1.22867e-05 -2.16708e-20
-1.56522e-06 3.38171e-06 1.51694e-20
-5.87321e-07 -2.5567e-05 1.87632e-20
-7.71963e-06 -2.44208e-05 -7.56668e-21
3.27012e-05 3.036e-05 -1.1067e-20
3.54502e-05 -1.81504e-06 4.31698e-22
-1.271e-05 -3.63187e-06 2.92582e-21
-2.28906e-05 -4.13823e-05 1.05322e-20
8.30351e-06 1.37467e-05 1.59759e-22
-2.52335e-05 3.03302e-06 -7.48603e-21
2.00634e-05 5.78589e-06 7.18318e-21
-4.53272e-06 -3.27399e-08 1.29579e-20
-4.66479e-06 -8.412e-06 4.21475e-23
-7.07227e-06 -3.93292e-05 -6.27611e-21
-9.70748e-06 -8.3906e-08 -1.82388e-21
-4.86696e-05 -1.81555e-06 1.09661e-20
1.73071e-05 -1.91035e-05 -1.26999e-20
2.42913e-06 3.99871e-06 -3.78886e-20
-1.20633e-07 -1.7512e-05 -2.95342e-21
-9.81753e-06 2.40816e-05 -2.34749e-20
-4.37165e-06 8.62661e-06 -2.82068e-20
2.05543e-05 -1.36047e-05 -1.06502e-20
-3.76552e-05 -1.35501e-05 8.73447e-21
-1.52643e-05 -2.03637e-05 4.09454e-21
4.97658e-06 8.38824e-06 -1.73078e-21
1.66294e-05 5.16006e-06 -2.2841e-20
-4.76339e-06 -7.33752e-06 -1.75311e-20
1.97944e-05 3.54681e-06 3.96328e-21
1.81865e-05 -9.82471e-06 1.66195e-21
-3.48786e-07 2.71697e-05 2.6839e-21
8.3194e-06 -1.36652e-05 -1.5254e-20
4.8798e-05 2.20032e-06 -1.39457e-21
-4.23515e-05 1.14519e-05 -6.33796e-21
2.2857e-05 1.15547e-05 3.47517e-21
-6.45207e-06 -1.71769e-05 -6.17942e-21
-1.53478e-05 -8.61694e-06 -8.81511e-21
2.87834e-05 -2.10517e-07 9.96195e-22
-6.91885e-07 -2.42515e-05 -1.51988e-20
-1.26156e-05 -1.08725e-05 -1.22567e-21
1.02224e-05 -2.34962e-05 -9.46788e-22
-4.96538e-07 2.05524e-05 -6.46258e-21
7.91651e-06 2.60638e-05 -5.91292e-21
1.72653e-05 -9.88279e-06 -1.11543e-20
-1.89451e-05 1.92956e-05 -4.0139e-21
1.65252e-05 2.00264e-05 1.57897e-20
-6.2221e-05 1.60195e-05 -4.13367e-21
-1.01076e-05 2.60122e-05 -1.64628e-20
1.25171e-05 -1.52459e-05 -2.79554e-20
-7.02801e-06 -1.8395e-05 2.86179e-22
-1.18517e-05 4.50497e-06 1.15163e-20
-2.58893e-05 -7.04469e-06 1.84545e-20
-6.38513e-06 3.88518e-05 1.4742e-20
-1.26039e-05 1.19006e-05 -1.46343e-20
2.07734e-05 -4.47491e-06 -8.33461e-21
-6.8714e-06 -2.57901e-05 -2.83064e-21
-1.48665e-05 2.38872e-05 -1.37049e-20
-2.17855e-05 1.25628e-05 -9.17348e-21
-2.05663e-05 -1.5053e-05 -2.42295e-20
1.80258e-05 -2.06518e-05 -1.65846e-20
-2.75263e-05 -1.45602e-06 -4.80849e-21
1.23652e-05 -4.08039e-05 -2.40107e-21
1.93832e-05 -1.89102e-05 -2.08083e-20
2.47287e-05 4.30752e-05 -1.21135e-20
1.97081e-06 1.98634e-05 1.75472e-21
2.96062e-06 -2.54172e-05 4.79848e-21
-4.16299e-05 4.69545e-05 1.35126e-20
-1.27001e-05 -2.44077e-05 -5.0298e-21
1.63643e-05 -6.41954e-06 2.62122e-20
-2.41053e-06 2.57682e-05 -2.58642e-20
1.2881e-05 -1.18246e-05 -2.34634e-20
1.38784e-05 2.43092e-05 9.18679e-21
1.72272e-05 -1.40027e-06 9.55875e-21
2.21166e-05 -6.32067e-05 -1.48053e-20
-5.8752e-06 -1.28572e-05 -2.52285e-20
-2.31807e-05 1.00855e-05 1.79728e-20
-2.00168e-05 1.87161e-05 1.80975e-22
2.16089e-05 1.45654e-05 2.29847e-20
1.86697e-05 -1.0755e-05 -1.62654e-20
1.49496e-05 1.25915e-05 -1.08897e-21
-5.42729e-06 4.55046e-08 8.32156e-21
1.54012e-05 -2.30837e-05 -1.42036e-20
-1.69876e-05 -2.0406e-05 -1.61647e-21
2.25583e-05 9.77219e-06 3.73134e-21
1.28046e-05 -1.19879e-05 -1.60647e-20
9.55243e-06 -2.48479e-05 7.34931e-21
1.66566e-05 -6.93181e-06 -1.42939e-20
-1.5803e-05 -7.54345e-06 -1.30615e-20
1.29664e-06 -2.62989e-05 -1.10901e-20
-2.61027e-05 4.47237e-06 2.92342e-21
2.39002e-06 2.45389e-05 -9.37052e-21
2.05817e-05 6.62643e-06 -1.78656e-21
-2.17171e-05 -1.07002e-05 1.77047e-21
-8.97582e-06 2.56061e-05 -2.36014e-20
-1.49516e-06 -2.41842e-05 2.86724e-20
1.94634e-05 1.18356e-05 -1.0592e-20
-1.7687e-06 1.8082e-05 -1.73265e-20
-2.01357e-05 1.37005e-05 1.41526e-20
2.35073e-05 1.14135e-05 5.27536e-21
-1.71126e-05 -9.9841e-06 3.35603e-21
9.50859e-08 -1.98318e-05 4.6141e-22
1.83796e-05 1.99813e-05 8.85331e-21
-2.21505e-05 -1.43015e-05 1.20559e-20
4.83439e-05 -3.39773e-05 2.41257e-21
1.78944e-05 -1.08209e-05 3.50451e-22
9.00056e-06 4.3081e-05 -1.53962e-20
1.70317e-05 -1.36767e-05 1.73403e-22
-1.98722e-05 8.70234e-05 -2.42471e-21
-1.97624e-05 -8.65376e-05 -2.89674e-21
5.71765e-05 7.17078e-05 -7.57668e-21
5.6914e-05 -7.13817e-05 -1.5509e-20
9.06349e-05 -1.61223e-10 -1.38055e-20
-7.81906e-05 3.76328e-05 4.86791e-21
-7.74449e-05 -3.72772e-05 -7.01219e-21
1.22322e-05 1.18171e-05 8.1148e-21
2.93641e-05 2.18895e-05 6.18547e-21
1.14467e-05 3.33239e-06 -2.24797e-20
1.88533e-05 9.75026e-06 7.57091e-21
4.98859e-06 2.01676e-05 -1.26256e-20
-1.88294e-05 -1.49784e-05 -1.05762e-20
1.70358e-05 -1.02129e-05 5.68525e-21
1.98501e-05 1.45475e-05 -1.08782e-20
-3.16655e-06 2.43609e-05 -4.83549e-21
2.94369e-05 -1.99903e-05 6.04964e-21
3.79342e-06 -2.37369e-05 9.24469e-21
2.19581e-05 5.2264e-06 -7.40642e-22
2.98921e-05 1.10246e-05 -1.14536e-20
1.4207e-05 1.41421e-05 1.93462e-20
1.58812e-05 6.59289e-06 2.87732e-21
-1.84965e-05 1.09352e-05 -5.18417e-23
-2.25604e-05 9.03553e-06 9.98988e-21
2.29267e-05 -1.12621e-05 -1.16488e-20
-1.82657e-05 -9.99679e-06 9.05005e-21
-1.85522e-05 -1.05812e-05 1.60344e-20
-3.43818e-07 -2.07653e-05 7.9229e-21
-8.61454e-08 -2.11582e-05 -2.86824e-21
-2.01246e-05 -1.00536e-06 3.28633e-22
2.66959e-05 -4.01869e-06 -1.5871e-20
1.81099e-05 1.13408e-05 8.95183e-21
-1.78621e-05 1.09438e-05 -1.75262e-20
-1.53596e-05 1.66217e-05 -7.59246e-21
1.60202e-05 -1.37516e-05 -1.07487e-20
-1.10222e-05 1.74613e-05 -3.87778e-21
-1.42233e-05 -1.48879e-05 -1.0217e-20
-1.15512e-06 2.12082e-05 -1.76105e-20
-1.28754e-06 2.09658e-05 -1.60244e-20
8.97073e-08 -1.98317e-05 -2.76244e-21
6.11012e-06 -1.97351e-05 -1.43706e-20
-1.7139e-05 -9.93435e-06 1.87944e-20
1.5585e-05 -5.48966e-06 -6.50107e-21
6.63082e-07 2.14754e-05 -3.23407e-20
3.00804e-07 1.85054e-05 -2.37811e-20
-2.34549e-06 1.68554e-05 -1.16888e-20
2.19063e-05 -5.5268e-06 1.80768e-20
-1.65395e-05 5.37747e-06 1.64467e-20
4.15699e-06 2.15151e-05 -1.63427e-20
-3.25548e-05 1.29179e-05 9.56149e-21
9.76225e-06 4.1727e-05 -1.63103e-20
-1.70516e-05 4.56764e-06 1.12243e-20
1.96823e-05 -1.16289e-05 -7.82649e-21
9.45664e-07 2.10172e-05 -4.16974e-21
-2.0479e-05 6.69871e-06 1.13799e-20
2.44383e-06 -1.62607e-05 -1.25713e-20
1.8189e-06 -5.80065e-05 -4.51715e-21
2.00625e-06 1.74844e-05 -2.00998e-20
-1.69603e-05 1.40211e-05 -8.43342e-21
1.78522e-05 6.39651e-05 -2.36265e-20
4.57645e-05 3.77029e-05 1.18146e-20
5.20596e-05 -3.5252e-05 -9.21439e-21
1.48139e-05 -1.01661e-05 -2.22389e-20
-1.57839e-05 1.40362e-05 6.86728e-21
-2.02148e-05 -7.9199e-06 8.33731e-21
-1.96437e-05 -6.82172e-06 8.50133e-21
5.92611e-05 -2.46095e-05 1.70439e-20
5.74279e-05 2.38685e-05 1.76166e-20
1.08934e-05 3.8171e-06 -3.10465e-20
7.66553e-07 1.95774e-05 -4.85986e-22
7.83459e-08 1.95588e-05 -1.55454e-20
-4.83782e-05 -3.6915e-05 -7.33355e-22
1.1424e-05 -1.71703e-05 4.71512e-21
1.17322e-05 1.24635e-05 -5.28931e-21
-2.14161e-05 -3.39542e-06 -1.12989e-21
-1.40437e-05 1.72005e-05 -2.12827e-22
-1.88868e-05 9.16687e-06 6.17879e-21
4.76388e-05 3.36912e-05 -1.37052e-20
1.5805e-05 7.06099e-06 -1.86783e-20
-5.56624e-06 2.00285e-05 -2.26858e-20
-1.69765e-05 -1.17481e-05 1.74289e-20
1.85607e-06 -2.0541e-05 -6.72114e-22
-8.9489e-06 -1.92655e-05 -6.26429e-21
-1.72476e-05 -1.17724e-05 -7.13256e-21
1.05786e-05 -1.8934e-05 6.19032e-21
1.41212e-05 -1.69878e-05 2.38833e-21
-2.44019e-06 -6.14317e-05 1.04007e-20
2.61778e-05 -4.11219e-05 3.99145e-21
1.74733e-06 -2.07837e-05 1.42517e-21
1.79571e-05 1.13544e-05 3.2484e-21
-1.44751e-05 -1.4904e-05 -3.38727e-21
-9.8402e-06 1.97083e-05 -3.70452e-20
-5.03898e-06 2.10049e-05 -2.93806e-20
1.66258e-05 1.42425e-05 7.58759e-21
6.05846e-06 -1.98597e-05 8.30068e-22
-1.34053e-05 -4.03543e-05 -1.21579e-22
-1.98821e-06 2.50383e-05 -4.8174e-22
1.47906e-05 1.44539e-05 -4.16254e-22
-1.29572e-05 -1.02158e-05 -5.29839e-21
-1.35138e-05 1.06073e-05 -4.31979e-21
4.4339e-05 -1.89116e-05 -1.68575e-20
7.56239e-06 -1.3399e-05 -3.84096e-22
-8.31645e-06 -1.26259e-05 -1.08124e-20
2.13287e-05 6.36293e-06 2.2016e-21
1.09934e-05 -5.06576e-05 -8.34005e-21
-3.84482e-05 -3.49e-05 1.91594e-20
2.33048e-05 6.20687e-06 1.52097e-21
-9.32745e-06 -1.82796e-05 1.00845e-20
1.8704e-05 9.48199e-06 7.70188e-21
-2.85621e-05 -3.25485e-05 -1.12174e-22
9.68736e-06 5.00426e-05 1.69099e-20
3.43313e-05 -5.98547e-05 -2.67958e-20
-3.47342e-05 -5.97715e-05 2.72869e-20
2.7806e-05 -5.20178e-05 -1.25698e-20
-1.2697e-05 4.36295e-05 8.57014e-21
-6.27555e-06 3.89741e-05 1.65652e-20
-1.87291e-05 8.94513e-06 -8.58229e-21
5.9767e-06 2.42402e-05 2.54051e-21
-2.39138e-06 1.2653e-05 1.8413e-20
1.01193e-05 3.23287e-06 -2.29905e-20
-3.18821e-06 1.62041e-05 -6.78333e-21
-2.47438e-07 2.099e-05 -1.53283e-20
1.66592e-05 9.74976e-06 6.32339e-21
1.71002e-06 5.77193e-05 -1.77754e-20
-1.4716e-05 1.07317e-05 -8.57835e-21
1.59481e-05 -6.24609e-06 1.51282e-20
1.68704e-05 -4.50859e-06 2.22902e-20
-6.06574e-05 -8.76809e-06 2.55264e-21
-3.46028e-05 1.674e-05 -2.7955e-21
-4.35109e-05 -5.25417e-05 9.66336e-21
8.65578e-06 8.34498e-06 1.11325e-20
1.42087e-05 7.29193e-06 -2.38227e-20
2.68025e-05 -4.19551e-06 -7.80043e-21
-8.1037e-06 -1.32417e-05 -3.30146e-20
1.72151e-05 8.4279e-06 -6.85244e-21
7.3347e-06 -3.0032e-05 7.21167e-21
-1.37125e-05 1.02041e-05 5.25443e-21
-2.23724e-05 -2.14205e-05 1.57382e-20
-5.83548e-06 1.62963e-05 3.05953e-21
-3.27072e-06 2.06768e-05 -1.59422e-20
3.38469e-05 2.12946e-05 1.21333e-20
3.61101e-05 -1.92812e-05 5.07435e-21
-4.20667e-05 -1.1622e-05 2.06757e-21
7.63352e-06 7.68508e-06 -2.03714e-20
-4.05826e-06 0.000101352 -9.64185e-21
8.61607e-07 -0.000104459 -3.06803e-21
5.24497e-05 8.76372e-05 -5.77741e-21
-1.91013e-05 8.45716e-06 5.27686e-21
-2.63743e-05 5.65445e-05 -3.56522e-21
5.30279e-05 -8.46321e-05 1.12222e-20
-1.17195e-05 -1.82807e-05 -5.45576e-21
7.79931e-05 6.74918e-05 -2.84247e-21
2.39914e-05 -1.79752e-05 -3.80726e-20
-3.60712e-06 -2.98195e-05 7.63609e-21
8.17715e-05 -6.58445e-05 -4.61356e-21
-6.74404e-06 1.4517e-05 -4.03057e-21
-5.38272e-05 -3.48206e-05 1.18749e-21
-4.30094e-05 -9.31213e-05 -1.87534e-20
-2.41104e-05 -5.7799e-05 1.10873e-20
-4.3971e-05 9.41283e-05 1.29875e-21
-1.00924e-05 6.40781e-05 -2.08598e-20
1.56313e-05 3.71049e-05 1.18452e-20
-2.79528e-05 3.7237e-05 -2.51839e-20
-2.52707e-05 -5.51783e-05 -1.14469e-20
0.000100357 1.73154e-05 -2.43472e-21
-1.69259e-05 1.07661e-05 -1.05444e-20
-5.91182e-06 1.63315e-05 -1.03085e-20
-5.07534e-05 3.76361e-05 -4.99524e-21
-1.72747e-05 9.94322e-06 -1.3837e-20
9.91938e-05 -1.5262e-05 -2.44775e-20
-1.53588e-05 7.79799e-06 -1.68781e-20
7.19196e-06 -1.44936e-05 -5.0013e-21
-7.79623e-05 -6.09425e-05 -1.18534e-20
-2.58766e-05 5.77119e-05 -2.6305e-20
-7.91153e-05 6.03698e-05 4.17427e-21
2.4538e-05 5.19456e-05 -7.74161e-21
-1.47662e-05 1.05815e-05 -2.52218e-20
-2.0528e-05 2.44744e-05 -8.75055e-21
-2.85301e-05 4.98133e-05 1.99179e-20
-5.67708e-05 2.07969e-07 1.63221e-21
-9.44027e-07 1.62946e-05 -1.70742e-20
-2.8847e-05 -5.04019e-05 -1.07138e-20
-5.81931e-05 -2.1978e-07 8.08721e-21
-2.83469e-05 4.86918e-05 -7.45784e-22
-1.51889e-05 6.62601e-05 3.05532e-20
-1.78632e-05 4.12567e-05 -8.95336e-21
-3.38972e-05 2.71349e-05 -9.54362e-21
2.43807e-05 -6.05639e-06 7.33143e-21
3.79992e-05 -2.19511e-06 4.17124e-21
1.34811e-05 8.19956e-06 -2.03705e-20
-1.04682e-05 -7.39809e-05 -1.82396e-20
-6.94426e-05 -2.79716e-05 3.89929e-21
3.71288e-05 7.32672e-07 1.81153e-20
5.83608e-05 -1.08912e-05 -9.75069e-21
-1.05827e-05 -1.34958e-05 -2.20192e-20
-5.08241e-05 3.76219e-05 -2.48595e-23
-4.61294e-05 5.3995e-05 8.3613e-22
6.2357e-05 -2.22304e-05 -1.82884e-20
-2.81748e-05 -5.04925e-05 1.09627e-20
-2.87744e-05 4.9775e-05 -3.23357e-21
-5.72492e-05 -1.17105e-06 -7.3739e-21
-2.65709e-05 5.05932e-05 -1.64236e-20
-5.79479e-05 -8.16939e-07 -5.57277e-21
6.60701e-05 1.73909e-05 1.32122e-20
5.63751e-05 1.29238e-06 3.00953e-21
5.08955e-05 -2.92712e-05 -3.27267e-21
2.49079e-05 -5.94217e-05 1.13114e-20
2.99158e-05 -4.88523e-05 1.98184e-20
2.91647e-05 4.86763e-05 1.27632e-20
2.43428e-05 5.80841e-05 3.80411e-21
7.57954e-05 -2.00357e-05 1.76251e-20
4.62621e-05 2.90606e-05 2.48571e-20
4.662e-05 1.37442e-05 1.40274e-20
TENSORS solid_stress_TPM float
375.028 -24.9203 -1.73846e-12
-24.9203 238.568 9.04758e-13
-1.73846e-12 9.04758e-13 197.815

456.999 -21.3202 -7.84809e-12
-21.3202 489.982 2.32347e-12
-7.84809e-12 2.32347e-12 487.106

454.874 28.0429 -9.16008e-13
28.0429 463.703 1.23575e-12
-9.16008e-13 1.23575e-12 458.454

455.023 -29.8427 -1.54647e-12
-29.8427 482.604 3.72354e-12
-1.54647e-12 3.72354e-12 484.852

527.682 19.9309 -6.42893e-12
19.9309 548.453 4.33631e-12
-6.42893e-12 4.33631e-12 527.353

437.306 -18.0742 -1.44359e-12
-18.0742 480.333 5.62513e-13
-1.44359e-12 5.62513e-13 458.035

372.323 26.4844 1.94689e-12
26.4844 239.088 -8.91731e-13
1.94689e-12 -8.91731e-13 197.8

473.647 29.9577 -2.0132e-12
29.9577 469.496 3.39284e-13
-2.0132e-12 3.39284e-13 472.332

471.543 5.48308 -1.58688e-13
5.48308 417.818 6.20541e-13
-1.58688e-13 6.20541e-13 432.79

504.254 -7.47756 -2.20742e-12
-7.47756 444.107 2.17744e-12
-2.20742e-12 2.17744e-12 483.447

360.289 16.3083 -2.84691e-12
16.3083 247.653 4.73636e-12
-2.84691e-12 4.73636e-12 233.642

444.777 -13.4531 4.02789e-13
-13.4531 498.38 7.14095e-13
4.02789e-13 7.14095e-13 472.234

466.862 27.8329 3.26198e-12
27.8329 468.296 3.23948e-12
3.26198e-12 3.23948e-12 466.729

457.032 -14.3399 7.26687e-13
-14.3399 500.428 -6.64357e-13
7.26687e-13 -6.64357e-13 483.452

512.933 33.3115 -2.65121e-12
33.3115 511.592 3.44798e-13
-2.65121e-12 3.44798e-13 515.221

489.166 0.560961 -5.50671e-13
0.560961 435.517 -4.78589e-13
-5.50671e-13 -4.78589e-13 462.266

457.578 -17.9692 2.46348e-12
-17.9692 512.881 1.72721e-12
2.46348e-12 1.72721e-12 493.592

493.952 -2.6652 -3.49942e-12
-2.6652 439.043 -1.63839e-12
-3.49942e-12 -1.63839e-12 474.258

418.787 26.6733 -4.47583e-12
26.6733 449.654 6.73713e-12
-4.47583e-12 6.73713e-12 424.048

481.975 -4.19552 -1.79116e-12
-4.19552 424.916 -2.39808e-14
-1.79116e-12 -2.39808e-14 453.469

425.291 8.66846 2.52494e-12
8.66846 481.897 -1.3601e-12
2.52494e-12 -1.3601e-12 444.836

634.128 6.2878 -5.43837e-12
6.2878 633.963 -3.18057e-12
-5.43837e-12 -3.18057e-12 570.315

479.146 1.87596 1.94215e-12
1.87596 422.935 1.53573e-12
1.94215e-12 1.53573e-12 449.726

447.157 -27.7148 -1.86369e-12
-27.7148 461.144 1.40569e-12
-1.86369e-12 1.40569e-12 452.942

481.042 6.84931 -2.75631e-12
6.84931 425.435 2.49874e-13
-2.75631e-12 2.49874e-13 452.932

449.753 19.1127 -1.53951e-12
19.1127 490.311 -3.80881e-12
-1.53951e-12 -3.80881e-12 478.2

377.649 4.18131 6.25751e-12
4.18131 291.651 -3.51215e-12
6.25751e-12 -3.51215e-12 258.999

462.679 30.7455 3.68476e-12
30.7455 460.709 1.00246e-12
3.68476e-12 1.00246e-12 460.54

384.935 37.0738 1.84623e-12
37.0738 383.514 2.20505e-12
1.84623e-12 2.20505e-12 348.414

586.94 10.3235 1.7432e-12
10.3235 563.448 3.33152e-12
1.7432e-12 3.33152e-12 546.869

491.681 14.2168 -2.77585e-12
14.2168 442.492 -9.22669e-13
-2.77585e-12 -9.22669e-13 465.85

352.851 -17.7801 -1.72188e-12
-17.7801 416.717 3.54798e-12
-1.72188e-12 3.54798e-12 348.585

331.013 -42.1011 7.10543e-15
-42.1011 335.868 -3.61666e-12
7.10543e-15 -3.61666e-12 253.479

531.406 5.98686 -4.18693e-13
5.98686 586.886 1.88619e-12
-4.18693e-13 1.88619e-12 538.578

554.02 -4.84084 3.82805e-13
-4.84084 582.068 -4.22773e-12
3.82805e-13 -4.22773e-12 542.508

577.984 21.0279 4.82162e-12
21.0279 539.944 1.77858e-12
4.82162e-12 1.77858e-12 538.346

556.182 5.06765 -2.87178e-13
5.06765 600.672 -6.4689e-13
-2.87178e-13 -6.4689e-13 547.966

573.771 -9.16988 -1.90277e-12
-9.16988 555.761 -3.50207e-12
-1.90277e-12 -3.50207e-12 540.634

467.122 -27.9979 -1.42109e-12
-27.9979 466.485 3.09145e-12
-1.42109e-12 3.09145e-12 465.102

330.398 41.5204 5.44986e-12
41.5204 337.967 3.40113e-12
5.44986e-12 3.40113e-12 253.838

414.519 -17.9488 5.20117e-12
-17.9488 354.482 9.56864e-13
5.20117e-12 9.56864e-13 346.315

559.303 -3.70619 5.29636e-12
-3.70619 599.921 6.88205e-12
5.29636e-12 6.88205e-12 548.38

586.41 19.5558 -8.91635e-12
19.5558 572.452 1.27631e-12
-8.91635e-12 1.27631e-12 548.169

490.886 -12.2732 4.06786e-13
-12.2732 442.846 3.74367e-13
4.06786e-13 3.74367e-13 466.522

341.703 -43.2983 -5.42381e-13
-43.2983 345.331 -5.39776e-12
-5.42381e-13 -5.39776e-12 288.971

417.545 -18.0631 -6.06211e-12
-18.0631 357.1 2.70302e-12
-6.06211e-12 2.70302e-12 351.489

412.999 17.0854 2.06353e-13
17.0854 464.767 6.57726e-12
2.06353e-13 6.57726e-12 428.713

429.615 19.3387 3.72443e-13
19.3387 466.498 -4.42668e-12
3.72443e-13 -4.42668e-12 437.066

486.766 -16.3009 3.82035e-12
-16.3009 432.861 5.15454e-12
3.82035e-12 5.15454e-12 458.663

355.568 -34.1847 8.28374e-13
-34.1847 389.388 2.63375e-12
8.28374e-13 2.63375e-12 332.556

410.238 19.1814 4.27984e-12
19.1814 350.689 -1.25411e-12
4.27984e-12 -1.25411e-12 339.465

425.186 -25.2879 -1.50398e-13
-25.2879 383.807 5.39568e-12
-1.50398e-13 5.39568e-12 373.063

519.91 19.4859 -1.07484e-12
19.4859 547.52 4.88794e-13
-1.07484e-12 4.88794e-13 525.72

416.398 29.6487 2.88243e-12
29.6487 393.872 3.94588e-12
2.88243e-12 3.94588e-12 373.927

522.164 -21.8128 3.328e-12
-21.8128 541.386 -2.9641e-12
3.328e-12 -2.9641e-12 524.366

364.059 -42.7104 4.73695e-14
-42.7104 343.27 2.66217e-12
4.73695e-14 2.66217e-12 289.689

553.442 5.45986 -1.76896e-12
5.45986 583.861 2.75661e-12
-1.76896e-12 2.75661e-12 542.883

373.703 -5.32967 1.16351e-13
-5.32967 436.648 8.65678e-13
1.16351e-13 8.65678e-13 373.812

580.81 10.3842 2.42177e-12
10.3842 556.161 1.14862e-12
2.42177e-12 1.14862e-12 542.639

435.043 21.4127 2.15442e-12
21.4127 473.747 -1.5176e-12
2.15442e-12 -1.5176e-12 454.658

513.56 5.75381 -2.15087e-12
5.75381 452.794 2.58682e-12
-2.15087e-12 2.58682e-12 494.853

522.447 11.4589 -2.00477e-12
11.4589 487.851 -4.33194e-12
-2.00477e-12 -4.33194e-12 507.067

383.694 31.8193 -2.48453e-12
31.8193 315.184 4.44089e-12
-2.48453e-12 4.44089e-12 269.862

482.077 -6.03507 3.28241e-12
-6.03507 528.17 6.0633e-13
3.28241e-12 6.0633e-13 504.09

487.085 9.51964 2.96074e-12
9.51964 523.679 3.30343e-12
2.96074e-12 3.30343e-12 507.485

456.448 -2.88073 -2.16053e-12
-2.88073 520.146 -2.12038e-12
-2.16053e-12 -2.12038e-12 487.796

464.444 23.4021 -2.8065e-12
23.4021 503.459 4.39027e-12
-2.8065e-12 4.39027e-12 495.43

496.736 8.46343 3.93463e-13
8.46343 444.387 -1.36143e-12
3.93463e-13 -1.36143e-12 477.687

445.495 -28.2389 1.41694e-12
-28.2389 459.517 -8.76928e-13
1.41694e-12 -8.76928e-13 451.156

501.67 -1.71121 5.59301e-12
-1.71121 444.905 -1.65941e-13
5.59301e-12 -1.65941e-13 489.058

519.523 -19.2619 -2.16893e-12
-19.2619 546.813 2.28084e-12
-2.16893e-12 2.28084e-12 525.453

523.293 21.3078 -3.85055e-12
21.3078 542.911 2.61928e-12
-3.85055e-12 2.61928e-12 525.255

353.401 -16.5831 -4.74435e-13
-16.5831 415.725 3.82509e-13
-4.74435e-13 3.82509e-13 346.104

506.01 -27.9359 -7.57912e-14
-27.9359 485.3 -3.17198e-12
-7.57912e-14 -3.17198e-12 493.87

449.709 -25.1343 1.68339e-12
-25.1343 471.209 1.00364e-12
1.68339e-12 1.00364e-12 458.567

357.862 -31.71 -1.65793e-12
-31.71 285.67 4.61261e-13
-1.65793e-12 4.61261e-13 249.852

498.49 3.22258 -4.24845e-13
3.22258 541.395 -2.74151e-12
-4.24845e-13 -2.74151e-12 513.633

501.716 28.9437 2.10854e-12
28.9437 474.539 -2.72819e-12
2.10854e-12 -2.72819e-12 487.648

448.434 19.6641 5.71321e-12
19.6641 492.097 -1.31539e-12
5.71321e-12 -1.31539e-12 477.633

440.181 7.99937 -1.20555e-12
7.99937 373.029 6.95769e-12
-1.20555e-12 6.95769e-12 382.925

386.442 -33.9348 -1.65083e-12
-33.9348 360.198 -5.18222e-12
-1.65083e-12 -5.18222e-12 319.428

537.712 -10.5875 -2.54019e-13
-10.5875 556.13 -7.59689e-13
-2.54019e-13 -7.59689e-13 531.24

482.647 23.8994 -1.0371e-12
23.8994 504.55 2.63863e-13
-1.0371e-12 2.63863e-13 502.033

385.362 -32.3831 -2.40045e-12
-32.3831 345.298 -5.79329e-12
-2.40045e-12 -5.79329e-12 317.073

422.188 10.7908 4.31773e-12
10.7908 363.842 3.5653e-12
4.31773e-12 3.5653e-12 350.245

307.645 -21.2055 -4.90452e-12
-21.2055 388.434 -9.69417e-12
-4.90452e-12 -9.69417e-12 288.109

434.435 14.4255 4.08547e-12
14.4255 488.658 1.61589e-12
4.08547e-12 1.61589e-12 460.874

509.711 23.1427 1.2393e-12
23.1427 475.162 2.58253e-12
1.2393e-12 2.58253e-12 489.937

338.233 42.1978 -2.25124e-12
42.1978 349.564 -8.84981e-12
-2.25124e-12 -8.84981e-12 288.945

634.213 16.5072 1.6419e-11
16.5072 603.066 -2.13903e-12
1.6419e-11 -2.13903e-12 565.319

372.88 -4.10826 -1.71655e-12
-4.10826 436.807 -2.54374e-12
-1.71655e-12 -2.54374e-12 373.418

637.119 -16.6324 5.73186e-12
-16.6324 599.536 -8.96335e-12
5.73186e-12 -8.96335e-12 564.826

533.931 -27.335 -3.03994e-12
-27.335 507.23 5.77775e-12
-3.03994e-12 5.77775e-12 515.706

505.287 27.4244 1.39562e-12
27.4244 466.326 -1.17891e-12
1.39562e-12 -1.17891e-12 485.063

426.916 -24.4101 -1.41753e-12
-24.4101 386.23 -6.91358e-12
-1.41753e-12 -6.91358e-12 375.97

358.928 31.3225 -2.00255e-12
31.3225 395.996 -2.16597e-12
-2.00255e-12 -2.16597e-12 339.193

339.818 -10.7049 1.81425e-12
-10.7049 408.383 2.96059e-12
1.81425e-12 2.96059e-12 319.098

453.095 21.9706 -6.50739e-13
21.9706 494.669 -5.89454e-13
-6.50739e-13 -5.89454e-13 483.159

533.105 16.794 -1.22539e-12
16.794 506.191 -3.03224e-12
-1.22539e-12 -3.03224e-12 513.345

443.444 15.1536 2.49978e-12
15.1536 488.431 -2.46677e-12
2.49978e-12 -2.46677e-12 464.274

451.472 15.9535 -2.24887e-12
15.9535 400.529 -2.6373e-12
-2.24887e-12 -2.6373e-12 403.739

374.481 -21.472 -4.4326e-12
-21.472 419.858 -4.23128e-12
-4.4326e-12 -4.23128e-12 357.19

389.715 -29.39 -2.51058e-13
-29.39 342.363 -3.9672e-14
-2.51058e-13 -3.9672e-14 314.384

454.957 -24.5728 -2.79702e-12
-24.5728 480.056 -2.24117e-13
-2.79702e-12 -2.24117e-13 478.362

466.418 27.4507 3.84877e-15
27.4507 478.735 -1.01844e-12
3.84877e-15 -1.01844e-12 479.801

452.208 23.1875 3.54398e-12
23.1875 492.55 -5.36045e-12
3.54398e-12 -5.36045e-12 482.035

466.289 13.1692 -3.32936e-12
13.1692 529.769 -1.06167e-12
-3.32936e-12 -1.06167e-12 501.376

490.853 9.37219 -1.23398e-12
9.37219 437.881 -1.86917e-12
-1.23398e-12 -1.86917e-12 462.047

327.706 -4.66497 -1.81988e-12
-4.66497 403.374 1.89478e-13
-1.81988e-12 1.89478e-13 314.406

462.571 -36.8334 2.34094e-12
-36.8334 487.682 1.74135e-12
2.34094e-12 1.74135e-12 492.74

445.841 27.4649 -2.49963e-12
27.4649 463.262 3.86594e-12
-2.49963e-12 3.86594e-12 455.007

305.666 2.1703 3.59098e-12
2.1703 393.353 7.50807e-13
3.59098e-12 7.50807e-13 297.25

385.99 34.6096 -3.70193e-12
34.6096 332.442 1.33997e-12
-3.70193e-12 1.33997e-12 306.24

453.343 -22.9736 6.27646e-13
-22.9736 480.062 2.61421e-13
6.27646e-13 2.61421e-13 476.165

501.386 5.73296 9.64858e-13
5.73296 441.307 -1.75659e-12
9.64858e-13 -1.75659e-12 481.002

422.373 27.2034 5.99224e-13
27.2034 389.76 -1.64431e-12
5.99224e-13 -1.64431e-12 374.227

570.537 12.7455 -4.95959e-12
12.7455 565.913 2.00699e-12
-4.95959e-12 2.00699e-12 542.911

396.171 24.33 2.54611e-12
24.33 349.642 -4.33135e-12
2.54611e-12 -4.33135e-12 319.038

569.159 -13.0551 1.09098e-12
-13.0551 565.825 3.28152e-12
1.09098e-12 3.28152e-12 542.366

375.085 0.778515 -3.24333e-13
0.778515 438.861 9.6397e-13
-3.24333e-13 9.6397e-13 374.634

461.463 -2.23527 -1.44832e-12
-2.23527 399.296 1.86599e-12
-1.44832e-12 1.86599e-12 417.274

538.19 -15.7681 -3.25532e-12
-15.7681 480.624 1.71507e-12
-3.25532e-12 1.71507e-12 513.471

457.237 24.3881 7.66022e-13
24.3881 487.777 1.50768e-12
7.66022e-13 1.50768e-12 488.347

461.249 -13.535 -3.7257e-13
-13.535 519.128 -1.13509e-12
-3.7257e-13 -1.13509e-12 495.707

514.962 -8.00003 2.24768e-12
-8.00003 438.184 7.06398e-13
2.24768e-12 7.06398e-13 494.27

488.309 -22.2842 1.73091e-12
-22.2842 541.596 -7.73899e-13
1.73091e-12 -7.73899e-13 515.744

556.046 -6.59636 -4.20049e-12
-6.59636 560.39 -1.51238e-12
-4.20049e-12 -1.51238e-12 538.724

463.858 -29.9081 7.61761e-13
-29.9081 483.188 -4.4705e-13
7.61761e-13 -4.4705e-13 483.592

341.701 11.4534 5.05077e-13
11.4534 406.186 2.20268e-13
5.05077e-13 2.20268e-13 319.477

422.474 -28.1459 -1.57859e-12
-28.1459 391.235 -3.21106e-12
-1.57859e-12 -3.21106e-12 375.14

507.376 -13.7723 -2.62087e-13
-13.7723 558.743 -7.1075e-12
-2.62087e-13 -7.1075e-12 525.246

501.049 0.504386 2.90849e-12
0.504386 441.272 8.51911e-13
2.90849e-12 8.51911e-13 487.079

476.936 -21.5246 8.09723e-13
-21.5246 507.415 2.8777e-12
8.09723e-13 2.8777e-12 501.498

459.09 25.6976 -2.77556e-12
25.6976 484.593 -1.63462e-12
-2.77556e-12 -1.63462e-12 487.974

394.423 -31.4637 -7.27122e-13
-31.4637 400.592 3.13586e-12
-7.27122e-13 3.13586e-12 357.515

552.122 -7.0852 -8.99999e-12
-7.0852 585.291 -2.01024e-12
-8.99999e-12 -2.01024e-12 542.598

347.204 -33.076 -9.6397e-13
-33.076 382.6 1.82136e-12
-9.6397e-13 1.82136e-12 303.43

490.862 -19.1794 2.71013e-12
-19.1794 448.38 1.16055e-13
2.71013e-12 1.16055e-13 467.117

519.701 1.97019 2.40504e-12
1.97019 466.807 2.22045e-14
2.40504e-12 2.22045e-14 502.825

570.555 17.8751 1.03014e-11
17.8751 566.476 -1.70086e-12
1.03014e-11 -1.70086e-12 542.37

375.284 20.1823 1.75859e-13
20.1823 424.024 -2.40992e-12
1.75859e-13 -2.40992e-12 360.214

489.074 27.2102 -3.15481e-12
27.2102 468.532 2.88806e-12
-3.15481e-12 2.88806e-12 476.632

454.371 -24.5111 2.92625e-12
-24.5111 415.335 1.07766e-13
2.92625e-12 1.07766e-13 418.595

454.711 -17.8384 8.34832e-13
-17.8384 494.899 -1.93919e-13
8.34832e-13 -1.93919e-13 482.634

379.192 35.0674 -4.98564e-13
35.0674 366.024 3.46626e-12
-4.98564e-13 3.46626e-12 317.043

449.144 -21.831 6.80197e-13
-21.831 491.696 9.06238e-13
6.80197e-13 9.06238e-13 479.766

485.483 30.8501 -1.18424e-12
30.8501 465.128 2.21068e-12
-1.18424e-12 2.21068e-12 473.438

480.314 -25.2437 1.06463e-12
-25.2437 442.359 1.76748e-12
1.06463e-12 1.76748e-12 455.435

448.21 -25.126 -4.89209e-12
-25.126 469.759 2.78651e-12
-4.89209e-12 2.78651e-12 458.088

445.336 -18.6877 -2.06057e-12
-18.6877 393.453 -2.28558e-13
-2.06057e-12 -2.28558e-13 397.25

470.644 -18.8492 -2.46795e-12
-18.8492 422.845 -7.92847e-13
-2.46795e-12 -7.92847e-13 437.523

458.99 -25.3369 1.71063e-12
-25.3369 485.42 -1.47071e-12
1.71063e-12 -1.47071e-12 488.817

386.534 35.9684 3.86772e-12
35.9684 381.98 -2.5769e-12
3.86772e-12 -2.5769e-12 348.109

444.486 15.3765 1.76155e-13
15.3765 491.523 1.2393e-12
1.76155e-13 1.2393e-12 467.131

469.387 26.4219 -2.40371e-12
26.4219 479.948 8.08242e-14
-2.40371e-12 8.08242e-14 482.537

456.133 25.4736 3.65622e-12
25.4736 486.637 -3.72191e-12
3.65622e-12 -3.72191e-12 487.237

457.798 11.6213 -3.59714e-12
11.6213 506.93 3.43133e-12
-3.59714e-12 3.43133e-12 486.006

431.941 -8.22678 -3.37034e-12
-8.22678 370.747 3.61207e-12
-3.37034e-12 3.61207e-12 363.299

376.771 18.6059 -3.75818e-12
18.6059 427.255 3.08731e-12
-3.75818e-12 3.08731e-12 363.875

452.302 -24.3802 4.08977e-12
-24.3802 478.375 -1.10667e-12
4.08977e-12 -1.10667e-12 470.701

440.736 25.6653 -2.1263e-12
25.6653 455.63 4.97676e-12
-2.1263e-12 4.97676e-12 437.796

390.946 -35.6283 -1.69109e-12
-35.6283 380.268 -1.6982e-12
-1.69109e-12 -1.6982e-12 350.082

368.932 38.3156 3.68653e-12
38.3156 327.245 -4.94893e-12
3.68653e-12 -4.94893e-12 295.675

363.638 -33.3101 -1.65793e-14
-33.3101 394.425 3.42955e-12
-1.65793e-14 3.42955e-12 341.97

397.92 -31.1587 1.80478e-12
-31.1587 404.182 4.11167e-12
1.80478e-12 4.11167e-12 362.964

502.846 -6.83866 2.08811e-12
-6.83866 442.239 4.17222e-13
2.08811e-12 4.17222e-13 482.307

393.154 30.3409 6.24686e-12
30.3409 408.968 -5.28999e-12
6.24686e-12 -5.28999e-12 363.424

429.69 13.2943 -3.24481e-13
13.2943 372.237 1.03591e-12
-3.24481e-13 1.03591e-12 362.704

350.134 13.3784 1.33819e-13
13.3784 418.503 2.57572e-12
1.33819e-13 2.57572e-12 348.465

379.469 -22.3397 -4.31832e-12
-22.3397 423.501 1.11437e-12
-4.31832e-12 1.11437e-12 363.438

491.198 -1.09147 -3.83138e-12
-1.09147 550.868 3.86002e-12
-3.83138e-12 3.86002e-12 516.296

372.853 2.24654 8.56648e-13
2.24654 437.775 -1.75267e-12
8.56648e-13 -1.75267e-12 373.51

357.88 31.0884 8.76336e-14
31.0884 399.475 -4.47523e-12
8.76336e-14 -4.47523e-12 341.951

457.98 12.1077 -4.85858e-12
12.1077 510.55 -6.27646e-13
-4.85858e-12 -6.27646e-13 488.393

421.441 -27.6468 4.68958e-12
-27.6468 389.061 -3.53199e-12
4.68958e-12 -3.53199e-12 375.062

524.746 20.5569 -5.26068e-12
20.5569 469.739 -1.2547e-12
-5.26068e-12 -1.2547e-12 500.725

534.916 26.2704 -2.94105e-12
26.2704 506.85 1.80404e-12
-2.94105e-12 1.80404e-12 516.084

494.805 -18.5673 1.09009e-12
-18.5673 449.015 2.3513e-12
1.09009e-12 2.3513e-12 470.846

554.576 -1.80102 -2.367e-12
-1.80102 516.014 2.45374e-12
-2.367e-12 2.45374e-12 525.707

473.277 -31.8116 -4.9886e-13
-31.8116 475.686 3.10389e-12
-4.9886e-13 3.10389e-12 478.567

412.587 23.3271 -9.05942e-13
23.3271 357.187 -4.82636e-12
-9.05942e-13 -4.82636e-12 348.082

464.166 30.162 -3.058e-12
30.162 482.757 -3.18856e-13
-3.058e-12 -3.18856e-13 483.194

464.428 29.2058 1.43737e-12
29.2058 482.23 -8.21269e-13
1.43737e-12 -8.21269e-13 482.755

393.936 30.66 5.98159e-12
30.66 405.713 8.40809e-14
5.98159e-12 8.40809e-14 360.859

502.844 27.0848 1.35595e-12
27.0848 482.656 -4.05809e-12
1.35595e-12 -4.05809e-12 490.724

415.34 3.52505 9.01205e-13
3.52505 339.008 -5.37662e-12
9.01205e-13 -5.37662e-12 340.815

493.112 31.8172 4.17473e-12
31.8172 487.213 2.41881e-13
4.17473e-12 2.41881e-13 495.565

476.317 -12.5997 -4.72918e-12
-12.5997 522.441 1.11792e-12
-4.72918e-12 1.11792e-12 500.238

536.917 24.2782 1.23161e-12
24.2782 507.393 3.26761e-12
1.23161e-12 3.26761e-12 516.621

468.167 -29.5786 5.65474e-13
-29.5786 479.959 -1.32161e-12
5.65474e-13 -1.32161e-12 483.051

464.551 -4.89811 6.51268e-12
-4.89811 521.546 -4.51787e-12
6.51268e-12 -4.51787e-12 490.969

400.929 -24.5557 2.38506e-12
-24.5557 349.014 9.31403e-13
2.38506e-12 9.31403e-13 323.942

418.956 29.6923 -5.29118e-12
29.6923 392.454 2.59585e-12
-5.29118e-12 2.59585e-12 373.76

352.335 14.6961 1.20866e-12
14.6961 417.201 -2.77349e-12
1.20866e-12 -2.77349e-12 348.23

500.519 -1.13886 8.17272e-13
-1.13886 442.784 -1.5928e-13
8.17272e-13 -1.5928e-13 487.699

492.46 0.00223352 1.74971e-12
0.00223352 438.093 -1.10895e-12
1.74971e-12 -1.10895e-12 474.409

452.955 23.1237 -1.62714e-12
23.1237 479.697 -9.4591e-13
-1.62714e-12 -9.4591e-13 475.576

481.294 23.8709 -6.79753e-13
23.8709 502.865 -3.54992e-12
-6.79753e-13 -3.54992e-12 501.244

456.578 -24.3807 -1.34763e-13
-24.3807 487.342 4.89534e-13
-1.34763e-13 4.89534e-13 488.488

457.828 -0.672706 2.09878e-12
-0.672706 517.933 9.79365e-13
2.09878e-12 9.79365e-13 486.391

458.875 25.5903 -6.32975e-13
25.5903 486.459 1.18431e-12
-6.32975e-13 1.18431e-12 488.51

465.551 -10.3077 3.4935e-14
-10.3077 408.077 -7.71531e-13
3.4935e-14 -7.71531e-13 427.216

400.858 -32.8327 1.32871e-12
-32.8327 414.949 8.02321e-12
1.32871e-12 8.02321e-12 385.16

518.091 -2.3006 -1.03295e-12
-2.3006 465.733 -8.2571e-13
-1.03295e-12 -8.2571e-13 500.922

391.866 -34.5075 2.31163e-12
-34.5075 379.601 -1.82432e-12
2.31163e-12 -1.82432e-12 347.412

477.996 19.0861 3.33748e-12
19.0861 509.197 -1.83883e-12
3.33748e-12 -1.83883e-12 501.841

506.108 -26.4786 1.42109e-14
-26.4786 470.243 3.54709e-12
1.42109e-14 3.54709e-12 487.269

424.995 -9.69004 4.19575e-12
-9.69004 366.726 -5.16713e-12
4.19575e-12 -5.16713e-12 355.977

530.263 -23.1919 -9.16008e-13
-23.1919 488.754 -4.02552e-12
-9.16008e-13 -4.02552e-12 506.486

500.888 2.35826 -5.82349e-13
2.35826 444.573 3.15821e-13
-5.82349e-13 3.15821e-13 489.201

521.188 -23.3213 -4.14542e-12
-23.3213 501.839 3.04053e-13
-4.14542e-12 3.04053e-13 508.53

502.012 -25.8593 -6.22909e-13
-25.8593 461.488 1.85392e-12
-6.22909e-13 1.85392e-12 481.24

498.823 -8.54601 1.53536e-12
-8.54601 445.132 -4.19516e-13
1.53536e-12 -4.19516e-13 479.341

482.217 -23.0681 2.04163e-12
-23.0681 504.989 1.14144e-12
2.04163e-12 1.14144e-12 502.532

428.535 -31.3413 -4.25141e-13
-31.3413 410.584 -3.3431e-12
-4.25141e-13 -3.3431e-12 398.993

503.264 -24.587 -4.99393e-12
-24.587 464.71 -3.3212e-12
-4.99393e-12 -3.3212e-12 482.156

441.236 10.8642 -3.48166e-12
10.8642 378.477 9.97128e-13
-3.48166e-12 9.97128e-13 387.794

500.034 26.3401 5.03035e-12
26.3401 498.581 1.20437e-12
5.03035e-12 1.20437e-12 500.102

463.746 -37.6131 1.21e-12
-37.6131 488.385 -8.83515e-13
1.21e-12 -8.83515e-13 494.079

464.855 37.2653 1.52471e-13
37.2653 487.297 1.74423e-12
1.52471e-13 1.74423e-12 493.794

446.323 -28.5735 -4.28468e-12
-28.5735 500.011 1.99396e-12
-4.28468e-12 1.99396e-12 492.309

448.557 27.0642 -2.58993e-12
27.0642 500.702 3.75936e-12
-2.58993e-12 3.75936e-12 492.496

513.066 -8.52769 1.64076e-12
-8.52769 436.401 1.6717e-12
1.64076e-12 1.6717e-12 492.756

511.228 9.2737 1.55801e-12
9.2737 437.998 -2.6111e-12
1.55801e-12 -2.6111e-12 492.394

501.652 -9.84607 -1.55402e-12
-9.84607 451.739 2.63434e-12
-1.55402e-12 2.63434e-12 483.017

510.862 32.1163 -9.47982e-13
32.1163 510.387 -3.39255e-12
-9.47982e-13 -3.39255e-12 514.052

509.638 -32.8544 2.68023e-12
-32.8544 510.065 -4.70946e-12
2.68023e-12 -4.70946e-12 513.691

481.807 16.0686 2.24828e-12
16.0686 539.129 2.3738e-12
2.24828e-12 2.3738e-12 514.324

483 -15.801 4.94271e-13
-15.801 538.718 2.90227e-12
4.94271e-13 2.90227e-12 514.345

556.868 -3.74748 1.67955e-12
-3.74748 506.83 6.99292e-13
1.67955e-12 6.99292e-13 524.99

558.422 3.61026 -3.02188e-12
3.61026 505.155 1.63602e-12
-3.02188e-12 1.63602e-12 525.362

387.304 9.83671 2.58245e-12
9.83671 449.191 1.7207e-12
2.58245e-12 1.7207e-12 397.082

472.383 -24.7739 8.83441e-13
-24.7739 480.749 -6.06774e-13
8.83441e-13 -6.06774e-13 484.972

443.456 -36.3877 1.85333e-12
-36.3877 485.527 -1.2282e-12
1.85333e-12 -1.2282e-12 486.623

473.636 -4.66424 -1.55372e-12
-4.66424 420.431 3.64856e-13
-1.55372e-12 3.64856e-13 436.333

540.251 -16.6949 -3.78956e-14
-16.6949 484.189 -9.62489e-13
-3.78956e-14 -9.62489e-13 515.285

540.971 16.1758 -8.27782e-13
16.1758 485.412 -1.79678e-12
-8.27782e-13 -1.79678e-12 515.891

506.856 0.121883 2.34642e-12
0.121883 423.545 -1.47715e-12
2.34642e-12 -1.47715e-12 486.997

384.787 23.3748 1.53833e-12
23.3748 432.291 5.33262e-12
1.53833e-12 5.33262e-12 385.471

442.327 36.1716 -7.10321e-13
36.1716 485.206 -4.41662e-12
-7.10321e-13 -4.41662e-12 485.828

452.592 -23.3957 -5.70803e-13
-23.3957 494.948 8.34888e-13
-5.70803e-13 8.34888e-13 483.586

443.242 23.3524 -2.11268e-12
23.3524 397.513 -7.6857e-13
-2.11268e-12 -7.6857e-13 400.368

530.965 23.8581 -3.71495e-12
23.8581 488.004 -2.69118e-12
-3.71495e-12 -2.69118e-12 507.244

428.473 -31.3131 -1.89596e-12
-31.3131 410.868 6.93608e-12
-1.89596e-12 6.93608e-12 398.812

519.855 -3.23087 1.61663e-12
-3.23087 469.054 -1.13598e-12
1.61663e-12 -1.13598e-12 502.682

439.39 -34.1611 2.36107e-14
-34.1611 485.498 3.41801e-12
2.36107e-14 3.41801e-12 485.818

389.178 8.31983 3.69009e-12
8.31983 452.322 1.62004e-12
3.69009e-12 1.62004e-12 400.85

385.874 21.8112 -8.55642e-12
21.8112 435.767 3.04941e-12
-8.55642e-12 3.04941e-12 388.689

383.842 35.7753 1.64135e-12
35.7753 362.326 -3.4864e-12
1.64135e-12 -3.4864e-12 318.323

408.177 1.57873 3.41534e-12
1.57873 332.151 2.69533e-12
3.41534e-12 2.69533e-12 327.32

485.45 -22.8044 -9.15416e-13
-22.8044 502.853 -4.17535e-12
-9.15416e-13 -4.17535e-12 501.744

351.873 31.1834 3.69719e-12
31.1834 388.825 -4.50484e-12
3.69719e-12 -4.50484e-12 312.353

451.343 23.6097 -8.15052e-13
23.6097 478.406 -1.2245e-12
-8.15052e-13 -1.2245e-12 465.207

442.19 -5.34946 5.44749e-13
-5.34946 377.121 1.90026e-12
5.44749e-13 1.90026e-12 387.732

464.149 11.2159 -2.41407e-12
11.2159 407.293 1.77547e-12
-2.41407e-12 1.77547e-12 424.916

505.372 0.429906 2.38594e-12
0.429906 421.565 2.12058e-12
2.38594e-12 2.12058e-12 485.668

449.343 -29.0312 1.83113e-12
-29.0312 501.991 5.49782e-13
1.83113e-12 5.49782e-13 493.582

572.507 -6.31904 -3.43103e-12
-6.31904 589.48 3.34784e-12
-3.43103e-12 3.34784e-12 549.248

463.133 37.4117 -9.03573e-13
37.4117 487.02 -2.42558e-12
-9.03573e-13 -2.42558e-12 493.058

408.732 1.66327 1.16055e-13
1.66327 331.598 3.60208e-12
1.16055e-13 3.60208e-12 308.899

404.228 -32.7864 1.79471e-12
-32.7864 415.502 3.56929e-12
1.79471e-12 3.56929e-12 387.384

443.134 36.6131 3.21002e-13
36.6131 485.499 1.58377e-12
3.21002e-13 1.58377e-12 486.565

444.673 -11.1338 7.99564e-13
-11.1338 498.928 2.45729e-13
7.99564e-13 2.45729e-13 471.435

386.067 -25.5141 -9.40581e-13
-25.5141 428.894 -6.93963e-13
-9.40581e-13 -6.93963e-13 384.558

449.443 28.8302 1.32213e-12
28.8302 501.624 1.74557e-12
1.32213e-12 1.74557e-12 493.282

452.704 -26.1414 -1.62418e-12
-26.1414 419.296 -2.23584e-12
-1.62418e-12 -2.23584e-12 419.512

579.548 10.4834 1.47378e-12
10.4834 582.16 -4.78032e-12
1.47378e-12 -4.78032e-12 549.033

398.322 30.8714 7.21379e-12
30.8714 422.052 1.39858e-12
7.21379e-12 1.39858e-12 388.157

515.7 8.12678 1.20541e-12
8.12678 437.261 2.2015e-12
1.20541e-12 2.2015e-12 494.575

493.799 30.1905 -1.11378e-12
30.1905 484.741 -1.73461e-12
-1.11378e-12 -1.73461e-12 493.796

453.458 23.3317 5.01969e-13
23.3317 479.156 -1.51553e-12
5.01969e-13 -1.51553e-12 475.792

510.696 -32.489 -1.37697e-12
-32.489 512.447 4.71697e-13
-1.37697e-12 4.71697e-13 515.001

510.302 -23.19 2.08367e-12
-23.19 473.175 7.28306e-14
2.08367e-12 7.28306e-14 489.671

511.397 10.4708 -1.53451e-12
10.4708 557.986 -2.52835e-12
-1.53451e-12 -2.52835e-12 523.726

452.166 -23.4336 -2.97569e-12
-23.4336 480.159 6.11481e-12
-2.97569e-12 6.11481e-12 468.944

394.404 -9.70763 -1.47556e-12
-9.70763 316.409 1.79205e-12
-1.47556e-12 1.79205e-12 295.571

387.284 -14.277 5.00459e-12
-14.277 306.055 1.80478e-12
5.00459e-12 1.80478e-12 290.045

547.579 16.5293 2.94283e-12
16.5293 507.758 2.95675e-12
2.94283e-12 2.95675e-12 519.314

436.481 22.5014 6.63469e-13
22.5014 469.129 3.58883e-12
6.63469e-13 3.58883e-12 447.817

475.956 29.1629 6.33567e-13
29.1629 467.639 -3.6285e-12
6.33567e-13 -3.6285e-12 471.472

450.294 0.688662 -4.71564e-12
0.688662 392.771 5.97677e-12
-4.71564e-12 5.97677e-12 395.668

478.345 6.57125 6.90556e-12
6.57125 541.272 2.83033e-13
6.90556e-12 2.83033e-13 507.534

507.324 16.5408 6.91713e-12
16.5408 461.129 4.77248e-12
6.91713e-12 4.77248e-12 488.073

389.971 -25.7606 -2.59407e-12
-25.7606 430.029 7.66202e-13
-2.59407e-12 7.66202e-13 387.727

456.312 -2.57245 5.47203e-12
-2.57245 517.007 2.33828e-12
5.47203e-12 2.33828e-12 484.834

400.583 13.3649 3.33955e-12
13.3649 452.978 9.48575e-13
3.33955e-12 9.48575e-13 404.629

486.907 -29.713 -2.92744e-12
-29.713 465.807 9.77884e-13
-2.92744e-12 9.77884e-13 474.252

430.292 -29.9469 -1.12562e-12
-29.9469 423.622 6.98108e-12
-1.12562e-12 6.98108e-12 404.948

399.704 31.6222 3.21757e-12
31.6222 418.225 -6.28297e-12
3.21757e-12 -6.28297e-12 385.996

623.998 -15.0202 -2.04607e-12
-15.0202 581.944 1.50472e-13
-2.04607e-12 1.50472e-13 557.899

494.516 2.04123 -1.90196e-12
2.04123 552.137 -2.79776e-12
-1.90196e-12 -2.79776e-12 517.919

483.495 20.3002 4.1848e-12
20.3002 542.036 -1.66918e-12
4.1848e-12 -1.66918e-12 516.024

544.7 15.4391 -1.10874e-13
15.4391 479.964 -2.93957e-12
-1.10874e-13 -2.93957e-12 515.747

473.741 -26.1885 -2.30926e-14
-26.1885 479.749 6.51331e-14
-2.30926e-14 6.51331e-14 483.01

452.118 17.957 1.04331e-12
17.957 404.501 -1.18986e-12
1.04331e-12 -1.18986e-12 406.911

531.575 -5.29418 2.23342e-12
-5.29418 580.796 -1.18276e-12
2.23342e-12 -1.18276e-12 537.112

512.18 -18.9882 2.85342e-12
-18.9882 464.787 -2.15413e-12
2.85342e-12 -2.15413e-12 493.021

473.968 -15.5987 -1.40865e-12
-15.5987 423.169 6.83305e-13
-1.40865e-12 6.83305e-13 438.873

401.993 11.603 -6.3712e-13
11.603 455.95 -2.46914e-12
-6.3712e-13 -2.46914e-12 407.773

410.916 -25.7337 8.82849e-13
-25.7337 435.574 1.96583e-12
8.82849e-13 1.96583e-12 398.949

532.042 -25.2738 -1.65083e-12
-25.2738 523.187 2.37854e-12
-1.65083e-12 2.37854e-12 519.112

423.049 31.9589 1.00542e-12
31.9589 417.242 -1.6301e-12
1.00542e-12 -1.6301e-12 400.298

535.476 -25.1348 -2.71783e-13
-25.1348 505.782 -1.69642e-12
-2.71783e-13 -1.69642e-12 515.653

453.486 2.59733 7.10543e-15
2.59733 397.013 -2.82663e-12
7.10543e-15 -2.82663e-12 401.891

311.094 -28.93 -2.20327e-12
-28.93 376.591 1.71241e-12
-2.20327e-12 1.71241e-12 289.99

431.869 -29.2304 -2.93099e-13
-29.2304 424.041 5.39243e-12
-2.93099e-13 5.39243e-12 406.147

353.756 32.1583 1.23634e-12
32.1583 392.538 -2.58638e-12
1.23634e-12 -2.58638e-12 312.963

470.34 -11.877 7.2677e-13
-11.877 529.545 3.55567e-12
7.2677e-13 3.55567e-12 500.297

391.444 -13.8211 -8.26746e-13
-13.8211 449.246 5.98869e-12
-8.26746e-13 5.98869e-12 400.192

602.851 -23.9883 9.33372e-12
-23.9883 602.264 6.67614e-12
9.33372e-12 6.67614e-12 557.84

408.365 23.7703 3.76588e-12
23.7703 441.933 2.79006e-12
3.76588e-12 2.79006e-12 402.216

496.571 -32.7262 2.57009e-12
-32.7262 490.634 1.67126e-12
2.57009e-12 1.67126e-12 497.44

388.183 -11.9629 -4.37287e-12
-11.9629 448.278 -9.58048e-13
-4.37287e-12 -9.58048e-13 397.009

516.704 -19.1169 -3.0426e-12
-19.1169 465.747 -8.33703e-13
-3.0426e-12 -8.33703e-13 496.237

410.68 23.8766 -3.33126e-12
23.8766 439.305 5.38947e-12
-3.33126e-12 5.38947e-12 400.692

488.913 -4.97544 3.39995e-12
-4.97544 435.064 -1.60316e-13
3.39995e-12 -1.60316e-13 460.376

305.778 -30.3422 -1.77162e-12
-30.3422 391.433 -1.39503e-12
-1.77162e-12 -1.39503e-12 262.566

438.603 21.0138 -7.84558e-13
21.0138 473.906 2.78888e-13
-7.84558e-13 2.78888e-13 458.343

445.681 -19.3229 3.04586e-12
-19.3229 393.972 -4.28694e-12
3.04586e-12 -4.28694e-12 399.618

551.599 -21.4459 -1.86577e-12
-21.4459 499.512 1.99041e-12
-1.86577e-12 1.99041e-12 520.099

424.465 31.7534 -3.66285e-12
31.7534 413.318 7.48202e-12
-3.66285e-12 7.48202e-12 397.955

459.158 -29.9713 5.9804e-14
-29.9713 437.633 -7.44886e-13
5.9804e-14 -7.44886e-13 439.295

510.615 20.8852 6.53107e-13
20.8852 476.069 -4.05009e-13
6.53107e-13 -4.05009e-13 492.752

461.5 -28.0758 -5.23507e-12
-28.0758 485.736 6.05975e-12
-5.23507e-12 6.05975e-12 488.714

413.716 -26.2247 5.36697e-12
-26.2247 436.24 -2.73204e-12
5.36697e-12 -2.73204e-12 401.435

426.071 28.9805 -1.49214e-13
28.9805 429.894 1.57859e-12
-1.49214e-13 1.57859e-12 406.858

452.497 26.1909 2.22874e-12
26.1909 418.224 -3.09145e-12
2.22874e-12 -3.09145e-12 419.055

521.967 -14.6098 1.66385e-12
-14.6098 477.175 2.25775e-12
1.66385e-12 2.25775e-12 500.061

403.558 -16.6172 9.75516e-13
-16.6172 451.739 2.46558e-12
9.75516e-13 2.46558e-12 406.44

496.043 -17.5682 -7.16464e-13
-17.5682 447.604 1.96776e-12
-7.16464e-13 1.96776e-12 471.498

487.761 16.9082 -3.69778e-12
16.9082 436.256 1.31598e-12
-3.69778e-12 1.31598e-12 460.586

513.341 -9.38696 1.90895e-12
-9.38696 555.776 3.5012e-12
1.90895e-12 3.5012e-12 523.027

453.975 -13.4298 5.58487e-12
-13.4298 402.176 -1.12162e-12
5.58487e-12 -1.12162e-12 406.74

403.199 0.593999 -4.82281e-13
0.593999 465.722 2.81849e-12
-4.82281e-13 2.81849e-12 417.802

475.023 18.5547 -5.12124e-12
18.5547 428.769 -1.64402e-12
-5.12124e-12 -1.64402e-12 442.218

451.14 27.6035 -4.24312e-12
27.6035 421.836 4.61261e-13
-4.24312e-12 4.61261e-13 420.841

400.866 -15.6858 -8.33111e-13
-15.6858 451.379 -2.62427e-12
-8.33111e-13 -2.62427e-12 403.734

405.998 -1.2023 1.0291e-12
-1.2023 468.031 -7.93439e-14
1.0291e-12 -7.93439e-14 421.217

516.197 29.1343 1.39918e-12
29.1343 498.024 2.35782e-12
1.39918e-12 2.35782e-12 504.874

441.702 -10.922 1.12991e-12
-10.922 500.655 -6.8449e-13
1.12991e-12 -6.8449e-13 471.146

451.437 -26.7148 -4.13773e-12
-26.7148 418.764 6.96569e-12
-4.13773e-12 6.96569e-12 419.35

444.384 21.3321 4.42194e-12
21.3321 395.296 -7.9267e-12
4.42194e-12 -7.9267e-12 398.199

497.593 23.6652 -1.33878e-12
23.6652 458.088 4.9433e-12
-1.33878e-12 4.9433e-12 476.548

447.68 5.47067 1.60161e-12
5.47067 508.788 4.21766e-12
1.60161e-12 4.21766e-12 476.88

427.647 29.065 7.2955e-12
29.065 426.432 -5.02354e-12
7.2955e-12 -5.02354e-12 405.108

536.82 22.9638 -3.45294e-12
22.9638 531.896 -2.35723e-12
-3.45294e-12 -2.35723e-12 522.783

314.749 -59.6908 -2.68348e-12
-59.6908 282.768 2.64559e-12
-2.68348e-12 2.64559e-12 223.423

480.592 -25.0474 2.7652e-13
-25.0474 445.07 -1.25381e-12
2.7652e-13 -1.25381e-12 456.644

336.662 7.06978 1.64935e-12
7.06978 409.153 2.69533e-12
1.64935e-12 2.69533e-12 319.438

460.536 -28.8888 -1.62359e-12
-28.8888 444.734 9.10087e-13
-1.62359e-12 9.10087e-13 443.451

96.4236 -52.7007 8.78704e-13
-52.7007 306.617 8.14756e-13
8.78704e-13 8.14756e-13 113.699

95.9575 51.4514 9.68707e-13
51.4514 306.881 -8.95284e-13
9.68707e-13 -8.95284e-13 114.487

181.516 117.154 -4.77248e-12
117.154 226.076 -2.72848e-12
-4.77248e-12 -2.72848e-12 113.587

182.814 -117.096 -1.77636e-12
-117.096 223.311 -4.02641e-13
-1.77636e-12 -4.02641e-13 113.562

321.582 -1.36335 -1.84267e-12
-1.36335 84.6532 2.91861e-14
-1.84267e-12 2.91861e-14 114.928

274.432 -91.125 2.80901e-12
-91.125 127.418 -1.37372e-12
2.80901e-12 -1.37372e-12 113.802

275.128 91.6529 -3.13112e-12
91.6529 128.251 -2.68111e-12
-3.13112e-12 -2.68111e-12 114.572

525.239 14.3302 6.0485e-13
14.3302 474.71 -1.02644e-12
6.0485e-13 -1.02644e-12 502.313

556.796 25.5367 -2.14939e-13
25.5367 541.182 -8.65234e-13
-2.14939e-13 -8.65234e-13 533.449

492.09 6.60595 6.5666e-13
6.60595 439.119 -1.33789e-12
6.5666e-13 -1.33789e-12 471.4

470.297 21.7843 7.67978e-13
21.7843 424.515 -2.54611e-12
7.67978e-13 -2.54611e-12 438.192

409.973 17.7441 1.1798e-12
17.7441 461.071 -3.42837e-12
1.1798e-12 -3.42837e-12 425.041

448.008 28.898 -1.91906e-12
28.898 424.703 -1.91018e-12
-1.91906e-12 -1.91018e-12 420.748

487.147 -29.6632 -1.5105e-12
-29.6632 465.625 9.01205e-13
-1.5105e-12 9.01205e-13 474.588

449.365 28.0274 -3.90443e-12
28.0274 421.069 6.17047e-12
-3.90443e-12 6.17047e-12 418.64

402.962 -2.84119 -2.19913e-12
-2.84119 465.379 3.49824e-12
-2.19913e-12 3.49824e-12 417.538

555.802 -26.0975 1.92143e-12
-26.0975 543.376 3.37212e-12
1.92143e-12 3.37212e-12 533.693

405.499 -4.86229 -4.70394e-12
-4.86229 467.117 -4.46458e-13
-4.70394e-12 -4.46458e-13 420.598

522.291 23.0161 3.72324e-12
23.0161 499.741 1.35358e-12
3.72324e-12 1.35358e-12 507.968

423.376 26.8702 -2.90494e-12
26.8702 386.505 -6.30015e-12
-2.90494e-12 -6.30015e-12 373.025

480.108 -13.2161 -1.86221e-13
-13.2161 532.767 4.98564e-13
-1.86221e-13 4.98564e-13 511.999

484.196 13.7278 -2.11268e-12
13.7278 432.774 -7.50807e-13
-2.11268e-12 -7.50807e-13 456.873

457.366 -29.9872 2.69414e-13
-29.9872 436.974 2.32407e-12
2.69414e-13 2.32407e-12 437.831

454.306 -24.7131 2.07478e-12
-24.7131 416.802 5.92504e-12
2.07478e-12 5.92504e-12 419.851

547.403 -16.0745 5.25624e-12
-16.0745 509.304 -6.59917e-13
5.25624e-12 -6.59917e-13 519.383

475.97 27.9286 -2.21452e-13
27.9286 449.704 -1.41487e-12
-2.21452e-13 -1.41487e-12 456.923

469.099 23.9771 3.0506e-12
23.9771 427.847 1.74616e-12
3.0506e-12 1.74616e-12 439.828

432.427 -2.79295 -1.5596e-12
-2.79295 493.634 5.09222e-14
-1.5596e-12 5.09222e-14 457.105

417.605 5.8733 -1.59911e-12
5.8733 479.555 -2.66394e-12
-1.59911e-12 -2.66394e-12 440.175

463.009 2.64667 -1.76629e-12
2.64667 402.278 9.73222e-13
-1.76629e-12 9.73222e-13 422.319

438.645 -7.28954 -6.40791e-12
-7.28954 373.913 -5.15262e-12
-6.40791e-12 -5.15262e-12 381.216

454.841 30.4843 -4.49774e-12
30.4843 439.013 7.20194e-12
-4.49774e-12 7.20194e-12 437.835

478.463 -26.1551 -1.91491e-12
-26.1551 443.541 5.42263e-12
-1.91491e-12 5.42263e-12 454.644

525.699 -21.2543 6.24389e-12
-21.2543 497.828 -2.26634e-12
6.24389e-12 -2.26634e-12 508.617

437.731 -31.6332 2.94579e-12
-31.6332 437.653 8.28967e-14
2.94579e-12 8.28967e-14 426.857

417.588 -27.7851 -3.57166e-12
-27.7851 444.394 -2.2015e-12
-3.57166e-12 -2.2015e-12 419.686

430.645 29.8867 3.32593e-12
29.8867 442.742 1.84149e-12
3.32593e-12 1.84149e-12 426.495

416.223 -9.5778 7.95068e-13
-9.5778 475.209 -3.45205e-13
7.95068e-13 -3.45205e-13 436.453

428.893 -1.54474 -4.01834e-12
-1.54474 491.866 -3.36916e-12
-4.01834e-12 -3.36916e-12 453.993

445.18 5.74795 3.26683e-13
5.74795 508.041 1.89419e-12
3.26683e-13 1.89419e-12 474.913

414.617 -21.0888 1.75889e-12
-21.0888 458.405 -3.03935e-12
1.75889e-12 -3.03935e-12 426.063

496.867 24.111 1.42109e-12
24.111 455.694 -1.00009e-12
1.42109e-12 -1.00009e-12 474.591

483.371 -9.58965 5.24617e-13
-9.58965 430.11 2.90286e-13
5.24617e-13 2.90286e-13 455.219

415.632 7.4652 2.13785e-12
7.4652 477.119 1.24996e-12
2.13785e-12 1.24996e-12 436.911

443.953 -9.70106 -3.58774e-12
-9.70106 501.502 -1.25648e-12
-3.58774e-12 -1.25648e-12 471.005

433.172 -16.3305 1.55268e-12
-16.3305 481.673 -3.13172e-12
1.55268e-12 -3.13172e-12 455.666

463.537 -8.2391 3.51008e-12
-8.2391 406.333 -4.61113e-12
3.51008e-12 -4.61113e-12 421.469

494.432 -32.3468 -5.52743e-12
-32.3468 487.614 2.8626e-12
-5.52743e-12 2.8626e-12 496.249

422.942 9.32073 1.69124e-12
9.32073 479.089 -2.84217e-14
1.69124e-12 -2.84217e-14 440.978

564.357 -18.2126 -5.48835e-12
-18.2126 529.951 3.29396e-12
-5.48835e-12 3.29396e-12 531.83

309.047 24.8224 4.31596e-12
24.8224 379.421 -2.83033e-12
4.31596e-12 -2.83033e-12 289.796

501.697 -26.6261 -6.75371e-12
-26.6261 499.489 3.78408e-12
-6.75371e-12 3.78408e-12 501.198

515.648 -30.2028 -2.77467e-12
-30.2028 498.403 2.24295e-12
-2.77467e-12 2.24295e-12 504.917

429.221 -0.70131 3.6815e-13
-0.70131 491.991 -3.33777e-12
3.6815e-13 -3.33777e-12 454.143

474.879 -16.6224 -4.94538e-12
-16.6224 428.335 7.42606e-12
-4.94538e-12 7.42606e-12 441.954

462.304 12.8416 -2.79884e-12
12.8416 511.273 -3.36264e-12
-2.79884e-12 -3.36264e-12 489.12

240.775 -3.18048 -1.8429e-12
-3.18048 360.686 -3.70666e-12
-1.8429e-12 -3.70666e-12 226.965

432.402 14.2736 -4.04454e-12
14.2736 485.355 -3.3508e-12
-4.04454e-12 -3.3508e-12 456.881

458.11 -29.4889 -6.92779e-13
-29.4889 443.169 -5.22782e-12
-6.92779e-13 -5.22782e-12 440.76

304.186 25.1055 6.206e-12
25.1055 394.583 -2.54374e-12
6.206e-12 -2.54374e-12 264.34

603.551 26.0982 -5.61492e-12
26.0982 597.956 -1.75889e-12
-5.61492e-12 -1.75889e-12 558.157

608.285 -27.8076 3.60216e-12
-27.8076 595.031 -2.03955e-12
3.60216e-12 -2.03955e-12 558.291

463.492 -30.4188 1.01193e-12
-30.4188 459.037 8.03801e-13
1.01193e-12 8.03801e-13 459.071

434.583 -31.1599 -1.65793e-12
-31.1599 436.358 -6.79279e-12
-1.65793e-12 -6.79279e-12 424.661

474.099 20.8273 5.35453e-12
20.8273 431.914 1.82728e-12
5.35453e-12 1.82728e-12 443.971

465.22 15.0059 -1.04213e-12
15.0059 410.115 -3.4562e-12
-1.04213e-12 -3.4562e-12 427.462

646.07 3.08365 1.18678e-11
3.08365 645.728 2.02471e-11
1.18678e-11 2.02471e-11 574.619

649.891 -7.00027 1.32698e-11
-7.00027 641.398 -1.37178e-11
1.32698e-11 -1.37178e-11 575.148

496.987 4.82431 -3.74634e-12
4.82431 442.033 -5.05077e-13
-3.74634e-12 -5.05077e-13 477.411

443.556 6.73091 -4.03766e-12
6.73091 502.988 2.12452e-12
-4.03766e-12 2.12452e-12 471.049

441.971 6.73632 4.1768e-12
6.73632 502.513 5.46289e-12
4.1768e-12 5.46289e-12 469.772

321.535 58.6338 -7.07464e-12
58.6338 281.121 -2.79006e-12
-7.07464e-12 -2.79006e-12 225.076

420.227 -28.1995 5.41552e-12
-28.1995 444.022 -6.67022e-12
5.41552e-12 -6.67022e-12 421.03

520.577 17.9745 -3.57936e-13
17.9745 467.529 2.98665e-12
-3.57936e-13 2.98665e-12 499.508

472.978 9.53968 4.93827e-13
9.53968 421.196 9.43542e-13
4.93827e-13 9.43542e-13 436.202

440.628 -26.723 3.20396e-12
-26.723 450.724 -2.67519e-12
3.20396e-12 -2.67519e-12 433.414

469.275 -20.2375 -3.96838e-12
-20.2375 422.715 4.45037e-12
-3.96838e-12 4.45037e-12 437.175

312.472 60.2317 3.48166e-12
60.2317 281.371 -5.31249e-12
3.48166e-12 -5.31249e-12 223.214

492.68 31.069 -3.28419e-12
31.069 489.042 3.49646e-13
-3.28419e-12 3.49646e-13 493.137

410.862 -19.7859 -1.81396e-12
-19.7859 457.88 7.84439e-12
-1.81396e-12 7.84439e-12 423.497

474.127 28.8575 5.12124e-12
28.8575 449.63 -1.49628e-12
5.12124e-12 -1.49628e-12 456.517

430.955 -4.14477 1.77991e-12
-4.14477 492.971 -1.66978e-13
1.77991e-12 -1.66978e-13 456.466

423.929 19.609 6.13435e-13
19.609 465.71 3.71732e-12
6.13435e-13 3.71732e-12 434.107

452.746 30.5185 4.13299e-13
30.5185 443.597 7.05214e-13
4.13299e-13 7.05214e-13 439.607

428.642 -22.473 4.05957e-12
-22.473 461.135 -7.23925e-12
4.05957e-12 -7.23925e-12 433.811

443.573 -27.3523 -3.35731e-13
-27.3523 450.431 -6.15804e-12
-3.35731e-13 -6.15804e-12 435.044

294.777 11.2569 3.14045e-12
11.2569 372.584 8.00545e-13
3.14045e-12 8.00545e-13 258.101

357.297 -33.4559 -8.5502e-13
-33.4559 389.116 3.49587e-12
-8.5502e-13 3.49587e-12 314.128

419.657 -11.6904 -1.61116e-12
-11.6904 476.359 -4.99215e-12
-1.61116e-12 -4.99215e-12 439.344

478.396 26.4843 -3.28626e-13
26.4843 446.798 3.72147e-12
-3.28626e-13 3.72147e-12 456.083

452.344 29.4777 2.67046e-13
29.4777 449.025 1.42878e-12
2.67046e-13 1.42878e-12 442.398

426.807 -21.4337 8.82257e-13
-21.4337 461.782 2.56565e-12
8.82257e-13 2.56565e-12 432.629

422.93 -11.7822 -5.6577e-13
-11.7822 476.646 9.87654e-13
-5.6577e-13 9.87654e-13 439.927

457.705 28.4093 1.27661e-12
28.4093 447.086 -3.15955e-12
1.27661e-12 -3.15955e-12 442.57

425.104 -13.8777 4.08769e-12
-13.8777 476.417 -4.29464e-12
4.08769e-12 -4.29464e-12 442.104

311.264 27.8547 -7.76268e-13
27.8547 377.389 -9.00021e-14
-7.76268e-13 -9.00021e-14 289.983

485.169 -4.04132 -2.67049e-12
-4.04132 545.049 1.09838e-12
-2.67049e-12 1.09838e-12 511.036

432.984 31.0273 2.82855e-12
31.0273 439.627 -4.15608e-12
2.82855e-12 -4.15608e-12 426.018

509.309 14.9011 4.76656e-13
14.9011 463.161 4.30589e-12
4.76656e-13 4.30589e-12 488.604

516.92 -15.9274 4.3275e-12
-15.9274 467.581 3.5089e-12
4.3275e-12 3.5089e-12 493.922

383.924 -24.2043 -1.90189e-12
-24.2043 305.947 3.5385e-12
-1.90189e-12 3.5385e-12 285.353

442.277 -21.2671 -1.70234e-12
-21.2671 475.998 1.72307e-12
-1.70234e-12 1.72307e-12 459.319

447.826 26.6981 1.02111e-12
26.6981 466.205 3.51423e-12
1.02111e-12 3.51423e-12 457.84

522.974 -21.7279 1.05397e-12
-21.7279 543.811 2.17844e-12
1.05397e-12 2.17844e-12 525.308

579.584 14.1068 -9.51239e-12
14.1068 617.621 -9.55088e-13
-9.51239e-12 -9.55088e-13 557.052

620.208 9.44535 -2.71413e-12
9.44535 576.841 -2.00728e-13
-2.71413e-12 -2.00728e-13 556.871

523.469 32.7056 -6.72233e-12
32.7056 520.651 -5.27267e-12
-6.72233e-12 -5.27267e-12 519.523

414.89 26.0001 3.37804e-12
26.0001 448.904 -2.34183e-12
3.37804e-12 -2.34183e-12 420.375

478.094 26.6613 4.68366e-13
26.6613 444.769 -5.06321e-12
4.68366e-13 -5.06321e-12 455.506

332.362 45.1855 -6.69094e-13
45.1855 349.488 1.77162e-12
-6.69094e-13 1.77162e-12 286.739

571.391 -11.3438 -4.57027e-12
-11.3438 614.472 -1.50694e-12
-4.57027e-12 -1.50694e-12 554.595

641.327 -3.433 -4.92548e-12
-3.433 636.87 -2.66157e-13
-4.92548e-12 -2.66157e-13 572.396

634.904 -0.210097 -5.53054e-12
-0.210097 643.178 6.70345e-12
-5.53054e-12 6.70345e-12 572.222

272.963 -53.8021 -4.07378e-13
-53.8021 316.446 -2.71664e-12
-4.07378e-13 -2.71664e-12 220.908

566.638 -11.6001 -7.4533e-13
-11.6001 562.125 -5.66095e-12
-7.4533e-13 -5.66095e-12 540.897

563.771 8.8131 -2.09173e-12
8.8131 586.962 -6.27646e-13
-2.09173e-12 -6.27646e-13 546.839

478.242 -26.1994 1.63129e-12
-26.1994 440.44 -2.93513e-12
1.63129e-12 -2.93513e-12 453.48

494.348 1.01112 -3.64882e-12
1.01112 545.758 9.17784e-13
-3.64882e-12 9.17784e-13 514.056

447.649 -20.2677 1.03443e-12
-20.2677 484.156 -4.58596e-12
1.03443e-12 -4.58596e-12 470.635

506.299 6.25532 -3.44968e-12
6.25532 443.372 2.43035e-12
-3.44968e-12 2.43035e-12 486.123

461.273 15.5963 -3.29601e-12
15.5963 521.251 -6.09557e-12
-3.29601e-12 -6.09557e-12 497.555

471.18 7.19164 1.21333e-12
7.19164 528.004 -3.06185e-12
1.21333e-12 -3.06185e-12 497.689

493.761 20.3926 -1.01252e-12
20.3926 451.516 9.92095e-13
-1.01252e-12 9.92095e-13 469.749

241.065 -3.1139 -5.38377e-12
-3.1139 358.558 -5.32907e-12
-5.38377e-12 -5.32907e-12 227.063

463.698 -27.6235 -5.14433e-12
-27.6235 463.389 1.05397e-12
-5.14433e-12 1.05397e-12 461.189

488.343 -26.1161 -8.78112e-13
-26.1161 481.596 -1.84741e-13
-8.78112e-13 -1.84741e-13 485.867

497.536 -31.4837 -1.5028e-12
-31.4837 489.956 6.06478e-13
-1.5028e-12 6.06478e-13 498.979

355.598 32.7493 1.17476e-12
32.7493 285.778 8.90843e-13
1.17476e-12 8.90843e-13 248.365

563.881 -20.1166 -4.24194e-12
-20.1166 569.613 -7.10572e-12
-4.24194e-12 -7.10572e-12 542.57

337.646 54.3219 -8.73968e-12
54.3219 356.656 -2.70954e-12
-8.73968e-12 -2.70954e-12 258.874

477.07 -21.4396 -4.83761e-13
-21.4396 506.488 9.75516e-13
-4.83761e-13 9.75516e-13 500.242

504.771 14.6504 -1.70471e-12
14.6504 451.985 -1.12147e-12
-1.70471e-12 -1.12147e-12 481.558

449.829 -14.5723 -4.53089e-12
-14.5723 396.985 -7.65536e-12
-4.53089e-12 -7.65536e-12 400.838

452.591 24.0466 5.49782e-13
24.0466 478.777 2.60118e-12
5.49782e-13 2.60118e-12 467.846

493.664 20.4279 -3.06185e-12
20.4279 449.499 5.53631e-14
-3.06185e-12 5.53631e-14 469.34

505.564 11.4006 1.22324e-12
11.4006 564.415 -5.85102e-12
1.22324e-12 -5.85102e-12 526.71

475.894 -31.58 -7.74196e-13
-31.58 470.354 -1.99514e-12
-7.74196e-13 -1.99514e-12 475.062

559.269 19.8124 4.15668e-12
19.8124 510.439 2.69947e-12
4.15668e-12 2.69947e-12 526.486

439.956 -18.4433 -1.99189e-12
-18.4433 482.463 -2.83388e-12
-1.99189e-12 -2.83388e-12 459.147

465.896 4.28312 -1.44597e-12
4.28312 526.106 1.58155e-12
-1.44597e-12 1.58155e-12 495.508

588.639 9.9267 -1.80537e-12
9.9267 552.461 -3.48329e-12
-1.80537e-12 -3.48329e-12 545.188

590.422 -8.5133 -5.5671e-12
-8.5133 554.803 -1.9836e-12
-5.5671e-12 -1.9836e-12 545.705

382.307 18.5122 4.41484e-12
18.5122 302.286 -2.27788e-12
4.41484e-12 -2.27788e-12 286.133

502.676 7.96496 -1.61885e-12
7.96496 453.598 -6.86858e-13
-1.61885e-12 -6.86858e-13 487.763

232.815 7.74038 -4.48426e-12
7.74038 381.514 -3.56219e-12
-4.48426e-12 -3.56219e-12 187.186

236.984 -11.385 -2.63833e-12
-11.385 387.208 -1.74794e-12
-2.63833e-12 -1.74794e-12 189.45

249.287 56.4064 -1.81188e-12
56.4064 354.775 -4.72748e-12
-1.81188e-12 -4.72748e-12 184.022

505.013 -28.9504 -8.18308e-13
-28.9504 478.613 4.67774e-13
-8.18308e-13 4.67774e-13 491.342

258.471 -49.1898 5.41197e-12
-49.1898 341.84 -2.70717e-12
5.41197e-12 -2.70717e-12 220.733

249.292 -55.9489 -4.50247e-12
-55.9489 344.75 -1.7953e-12
-4.50247e-12 -1.7953e-12 181.115

434.652 26.2197 5.61566e-12
26.2197 454.39 -3.34902e-12
5.61566e-12 -3.34902e-12 432.822

329.923 73.8431 6.29541e-12
73.8431 280.009 -2.66927e-12
6.29541e-12 -2.66927e-12 184.826

540.126 13.0474 7.45063e-12
13.0474 554.945 -2.41111e-12
7.45063e-12 -2.41111e-12 532.076

562.383 0.0392521 -2.81789e-12
0.0392521 532.453 5.13101e-12
-2.81789e-12 5.13101e-12 531.868

338.601 -73.1285 -1.33582e-12
-73.1285 279.857 9.45022e-13
-1.33582e-12 9.45022e-13 186.309

432.667 -23.4237 1.59132e-12
-23.4237 466.308 1.24878e-12
1.59132e-12 1.24878e-12 447.569

358.929 34.7286 3.66166e-12
34.7286 310.974 -6.23975e-12
3.66166e-12 -6.23975e-12 258.036

267.704 63.4901 3.21639e-12
63.4901 345.209 -4.49537e-12
3.21639e-12 -4.49537e-12 185.844

293.691 21.6298 1.00187e-12
21.6298 367.659 -4.70142e-12
1.00187e-12 -4.70142e-12 254.496

267.575 -65.9189 1.82846e-12
-65.9189 344.844 9.09495e-13
1.82846e-12 9.09495e-13 184.3

291.639 -12.3809 -1.15765e-11
-12.3809 370.88 -4.37221e-12
-1.15765e-11 -4.37221e-12 253.441

550.306 6.84188 2.68763e-12
6.84188 582.077 -2.91767e-12
2.68763e-12 -2.91767e-12 541.116

329.887 -45.974 -1.73846e-12
-45.974 341.814 -2.69296e-12
-1.73846e-12 -2.69296e-12 276.613

259.78 47.5311 1.53951e-13
47.5311 340.215 -3.71614e-12
1.53951e-13 -3.71614e-12 223.144

370.215 37.9109 -1.34529e-12
37.9109 244.919 5.39657e-12
-1.34529e-12 5.39657e-12 187.356

481.888 -29.2854 2.71546e-12
-29.2854 460.509 -2.58638e-12
2.71546e-12 -2.58638e-12 467.712

480.975 12.8967 -7.59393e-14
12.8967 525.827 -1.19342e-12
-7.59393e-14 -1.19342e-12 504.102

354.416 -38.1118 -3.36324e-13
-38.1118 300.075 6.39488e-14
-3.36324e-13 6.39488e-14 251.813

482.532 -28.8019 1.93268e-12
-28.8019 460.319 -2.31933e-12
1.93268e-12 -2.31933e-12 468.461

365.262 -36.3428 -3.67587e-12
-36.3428 230.988 -7.22385e-13
-3.67587e-12 -7.22385e-13 182.769

481.5 -28.3172 1.51405e-12
-28.3172 472.753 -7.67682e-13
1.51405e-12 -7.67682e-13 477.916

436.351 -25.2945 -4.2674e-12
-25.2945 466.221 6.03369e-13
-4.2674e-12 6.03369e-13 448.207

314.797 69.4595 -7.38964e-13
69.4595 292.141 7.18596e-12
-7.38964e-13 7.18596e-12 184.523

290.78 -22.9324 7.55307e-12
-22.9324 359.162 4.55458e-12
7.55307e-12 4.55458e-12 247.028

312.399 -71.6915 5.44276e-12
-71.6915 288.121 4.45037e-12
5.44276e-12 4.45037e-12 182.025

268.545 50.7366 5.09222e-14
50.7366 320.058 1.80478e-12
5.09222e-14 1.80478e-12 221.503

459.859 -30.2118 -5.31486e-12
-30.2118 454.843 9.61305e-13
-5.31486e-12 9.61305e-13 454.398

559.285 -14.6403 1.19371e-12
-14.6403 544.411 6.60094e-12
1.19371e-12 6.60094e-12 533.715

635.922 11.0927 4.73407e-12
11.0927 631.383 5.09844e-12
4.73407e-12 5.09844e-12 570.018

619.957 -5.15998 1.87998e-13
-5.15998 639.739 -2.09442e-11
1.87998e-13 -2.09442e-11 568.496

453.867 13.0836 -5.41613e-12
13.0836 506.553 3.80851e-12
-5.41613e-12 3.80851e-12 482.57

634.152 -10.6671 -6.73483e-12
-10.6671 631.314 4.33239e-12
-6.73483e-12 4.33239e-12 569.873

622.695 4.09171 4.88306e-12
4.09171 642.685 7.10062e-12
4.88306e-12 7.10062e-12 569.698

643.375 7.43423 1.83616e-12
7.43423 619.148 4.40729e-12
1.83616e-12 4.40729e-12 569.02

584.776 -12.1153 -6.77377e-12
-12.1153 631.668 -7.13207e-13
-6.77377e-12 -7.13207e-13 560.592

307.442 -30.4696 6.19179e-12
-30.4696 371.631 -4.9738e-14
6.19179e-12 -4.9738e-14 280.768

589.625 -12.9721 4.68958e-12
-12.9721 549.112 1.75534e-12
4.68958e-12 1.75534e-12 543.825

527.205 -34.4178 3.1859e-12
-34.4178 521.485 -5.03079e-12
3.1859e-12 -5.03079e-12 519.963

565.463 -18.1768 9.91799e-14
-18.1768 537.988 -7.4302e-12
9.91799e-14 -7.4302e-12 534.257

502.568 15.4591 2.19676e-12
15.4591 452.113 -1.03887e-12
2.19676e-12 -1.03887e-12 480.205

586.348 9.86434 -3.95576e-12
9.86434 642.135 -2.15235e-12
-3.95576e-12 -2.15235e-12 563.102

636.657 19.2277 3.0654e-12
19.2277 591.722 -7.65684e-14
3.0654e-12 -7.65684e-14 562.924

569.775 11.3062 9.58641e-13
11.3062 544.337 -7.65121e-12
9.58641e-13 -7.65121e-12 536.434

353.44 -15.3391 4.51668e-12
-15.3391 231.515 2.96059e-14
4.51668e-12 2.96059e-14 219.013

437.204 24.9638 -4.84649e-13
24.9638 461.91 3.32771e-12
-4.84649e-13 3.32771e-12 445.719

317.089 -61.354 -8.8581e-13
-61.354 277.847 9.82917e-13
-8.8581e-13 9.82917e-13 218.087

334.207 -57.4566 -7.10543e-15
-57.4566 357.321 -4.17325e-12
-7.10543e-15 -4.17325e-12 252.538

383.332 -36.5436 8.91257e-12
-36.5436 305.737 4.36273e-12
8.91257e-12 4.36273e-12 257.758

562.495 -5.15897 -2.27226e-12
-5.15897 616.951 1.24079e-12
-2.27226e-12 1.24079e-12 552.949

562.203 2.89123 1.27661e-12
2.89123 615.816 2.04651e-12
1.27661e-12 2.04651e-12 552.547

598.77 -24.4565 2.968e-12
-24.4565 575.741 -8.42341e-12
2.968e-12 -8.42341e-12 551.577

602.329 -21.7608 -7.99856e-12
-21.7608 573.432 8.81665e-13
-7.99856e-12 8.81665e-13 551.843

598.782 26.1362 -2.53072e-12
26.1362 580.457 3.24407e-12
-2.53072e-12 3.24407e-12 552.732

625.742 3.09962 -2.31148e-12
3.09962 630.735 -4.25771e-13
-2.31148e-12 -4.25771e-13 568.419

599.059 -20.5091 2.99316e-13
-20.5091 576.353 1.83586e-12
2.99316e-13 1.83586e-12 552.266

607.81 -18.5684 -5.39124e-13
-18.5684 620.262 4.7327e-12
-5.39124e-13 4.7327e-12 563.184

632.9 2.43463 2.49134e-13
2.43463 635.526 -1.55782e-11
2.49134e-13 -1.55782e-11 570.504

607.886 -20.5265 5.10725e-12
-20.5265 572.426 -1.53951e-13
5.10725e-12 -1.53951e-13 553.405

607.071 20.956 -2.91818e-12
20.956 573.684 -1.76748e-13
-2.91818e-12 -1.76748e-13 553.808

633.851 -3.45866 -1.09609e-11
-3.45866 636.778 1.02148e-11
-1.09609e-11 1.02148e-11 571.278

632.181 -3.11739 -5.89691e-12
-3.11739 625.756 2.06179e-11
-5.89691e-12 2.06179e-11 569.393

609.681 12.1098 6.69983e-13
12.1098 620.485 -4.97202e-12
6.69983e-13 -4.97202e-12 563.915

587.202 26.9299 3.31675e-12
26.9299 583.018 -1.15777e-11
3.31675e-12 -1.15777e-11 551.701

FIELD solute_concentration_TPM 2
S_ext 1 563 float
0.991202
0.991011
0.991031
0.991012
0.99098
0.991031
0.991202
0.991022
0.991048
0.991014
0.991163
0.991022
0.991026
0.991014
0.990988
0.991029
0.991005
0.99102
0.991052
0.991034
0.99104
0.990925
0.991036
0.991034
0.991034
0.991017
0.991153
0.991029
0.9911
0.990953
0.991027
0.991099
0.991158
0.990963
0.990961
0.990963
0.99095
0.990964
0.991027
0.991157
0.991099
0.990949
0.990949
0.991026
0.991132
0.991099
0.99105
0.991045
0.99103
0.991108
0.991103
0.991084
0.990978
0.991085
0.99098
0.991138
0.990961
0.991084
0.990961
0.991032
0.991004
0.990996
0.991149
0.990999
0.990996
0.99101
0.991004
0.991018
0.991035
0.99101
0.990979
0.990979
0.991101
0.991006
0.991031
0.991161
0.99099
0.99101
0.991017
0.991077
0.991117
0.990975
0.991
0.99112
0.991099
0.991136
0.991029
0.991009
0.991132
0.990933
0.991085
0.990934
0.990987
0.991012
0.991084
0.991103
0.991119
0.991014
0.99099
0.991027
0.991066
0.991096
0.991119
0.991017
0.991016
0.991015
0.990999
0.991029
0.99112
0.991005
0.991032
0.991129
0.991123
0.991019
0.991016
0.991086
0.990964
0.991121
0.990965
0.991084
0.991056
0.990989
0.991009
0.991004
0.991004
0.990986
0.990968
0.991014
0.991119
0.991083
0.990977
0.991011
0.991
0.99101
0.991096
0.99096
0.99113
0.991025
0.990999
0.99096
0.991093
0.991019
0.991056
0.991014
0.991122
0.991016
0.99102
0.991033
0.991031
0.991069
0.991044
0.991009
0.991098
0.991026
0.991014
0.99101
0.991012
0.991093
0.991092
0.991023
0.991045
0.991097
0.991132
0.991102
0.991091
0.991015
0.991093
0.991094
0.991099
0.991091
0.990986
0.991084
0.991103
0.991011
0.991085
0.990999
0.990987
0.991023
0.99098
0.991017
0.991101
0.991014
0.991014
0.991093
0.991008
0.991104
0.991005
0.991001
0.990988
0.991014
0.991008
0.991117
0.991084
0.991099
0.99101
0.99102
0.991019
0.991
0.991009
0.991011
0.991009
0.991051
0.991077
0.991
0.991101
0.990999
0.991011
0.991095
0.990995
0.991009
0.990995
0.991015
0.991016
0.991
0.991068
0.991014
0.991076
0.991001
0.991004
0.991004
0.991004
0.991005
0.991005
0.991005
0.991014
0.990988
0.990988
0.990988
0.990988
0.990981
0.99098
0.991069
0.991013
0.991009
0.991047
0.990989
0.990988
0.99101
0.991076
0.99101
0.991014
0.991068
0.990994
0.991069
0.991
0.991009
0.991067
0.991075
0.991118
0.99111
0.991
0.991125
0.991027
0.991076
0.991051
0.99101
0.991004
0.99095
0.991004
0.991128
0.991075
0.991009
0.991022
0.991077
0.991004
0.991056
0.99095
0.991075
0.991004
0.991006
0.991019
0.990989
0.99101
0.99098
0.991024
0.99113
0.991136
0.990986
0.991038
0.991022
0.991071
0.990993
0.991011
0.991075
0.991012
0.991065
0.99102
0.991066
0.991075
0.99094
0.990985
0.990986
0.990986
0.991014
0.991065
0.990964
0.991007
0.991044
0.991064
0.99107
0.990984
0.991068
0.990989
0.991069
0.991132
0.991065
0.991123
0.991
0.991067
0.990939
0.991068
0.991003
0.991069
0.991005
0.991068
0.99103
0.991156
0.99103
0.991069
0.990983
0.991068
0.991043
0.991008
0.991009
0.991068
0.991065
0.991056
0.991002
0.991065
0.991023
0.991029
0.990981
0.991066
0.991057
0.991042
0.991056
0.991066
0.991055
0.990997
0.991022
0.991057
0.991068
0.991019
0.991018
0.991065
0.990982
0.991169
0.991032
0.991118
0.991041
0.991228
0.991228
0.991226
0.991226
0.991223
0.991233
0.991233
0.991
0.99097
0.991022
0.991043
0.991051
0.991056
0.99102
0.991056
0.991057
0.99097
0.991055
0.990996
0.991084
0.99099
0.991031
0.991044
0.991056
0.990986
0.991032
0.991043
0.991032
0.991042
0.991054
0.991078
0.991044
0.991033
0.990994
0.991051
0.991055
0.991051
0.991045
0.991033
0.991019
0.991051
0.991019
0.991033
0.991044
0.991022
0.991032
0.991054
0.991004
0.991042
0.990971
0.991132
0.991
0.990997
0.991033
0.991043
0.991009
0.991169
0.991031
0.991043
0.991154
0.990943
0.990944
0.99103
0.991052
0.991041
0.991051
0.990924
0.990923
0.991018
0.991022
0.991022
0.991174
0.991054
0.991002
0.991047
0.991048
0.991045
0.991169
0.991006
0.991053
0.991032
0.991032
0.991047
0.991043
0.991047
0.991047
0.991156
0.991122
0.991043
0.991032
0.991042
0.991048
0.991043
0.991041
0.991042
0.991134
0.990991
0.991051
0.99101
0.991005
0.991135
0.99103
0.991031
0.990982
0.990938
0.990938
0.990984
0.991055
0.991032
0.991136
0.990941
0.990923
0.990923
0.991171
0.990963
0.990952
0.991034
0.990989
0.991023
0.991012
0.991002
0.991002
0.991023
0.991168
0.99103
0.991013
0.991003
0.991162
0.990958
0.991161
0.991001
0.991016
0.991067
0.991025
0.991024
0.990976
0.99102
0.990976
0.991031
0.991004
0.990957
0.990957
0.991138
0.99101
0.991204
0.991205
0.991204
0.991008
0.991175
0.991205
0.991048
0.991203
0.990974
0.990975
0.991203
0.991037
0.991159
0.991208
0.991158
0.991209
0.991158
0.990963
0.991142
0.991174
0.991202
0.991025
0.990997
0.991161
0.991024
0.991202
0.991017
0.991037
0.991209
0.991162
0.991209
0.99117
0.991033
0.99097
0.990923
0.990924
0.991013
0.990923
0.990923
0.990924
0.990935
0.991139
0.990957
0.990985
0.990971
0.991016
0.990933
0.990933
0.99097
0.99117
0.991039
0.991178
0.991165
0.991157
0.990942
0.990942
0.990944
0.990944
0.990942
0.990928
0.990947
0.990934
0.990927
0.990944
0.990944
0.990927
0.990927
0.990933
0.990946
P_ext 1 563 float
0.0201714
0.0201665
0.0201672
0.0201666
0.0201647
0.0201672
0.0201714
0.0201669
0.0201677
0.0201666
0.0201706
0.0201668
0.020167
0.0201665
0.0201652
0.0201672
0.0201661
0.0201668
0.0201679
0.0201673
0.0201675
0.0201614
0.0201674
0.0201673
0.0201674
0.0201667
0.0201704
0.0201671
0.0201692
0.0201631
0.0201671
0.0201691
0.0201705
0.0201637
0.0201637
0.0201637
0.020163
0.0201638
0.020167
0.0201705
0.0201692
0.0201629
0.020163
0.020167
0.0201699
0.0201692
0.0201678
0.0201677
0.0201672
0.0201694
0.0201692
0.0201688
0.0201646
0.0201688
0.0201647
0.0201701
0.0201636
0.0201688
0.0201637
0.0201673
0.0201661
0.0201657
0.0201703
0.0201658
0.0201657
0.0201663
0.0201661
0.0201667
0.0201674
0.0201664
0.0201647
0.0201647
0.0201692
0.0201661
0.0201673
0.0201706
0.0201653
0.0201663
0.0201667
0.0201686
0.0201696
0.0201645
0.0201658
0.0201697
0.0201691
0.02017
0.0201671
0.0201662
0.0201699
0.0201616
0.0201688
0.0201616
0.0201651
0.0201663
0.0201688
0.0201693
0.0201696
0.0201666
0.0201653
0.0201671
0.0201683
0.0201691
0.0201696
0.0201667
0.0201666
0.0201667
0.0201658
0.0201671
0.0201697
0.0201662
0.0201673
0.0201699
0.0201697
0.0201668
0.0201667
0.0201688
0.0201637
0.0201697
0.0201637
0.0201688
0.020168
0.0201653
0.0201664
0.0201661
0.0201661
0.0201651
0.0201639
0.0201666
0.0201696
0.0201687
0.0201645
0.0201665
0.0201659
0.0201665
0.0201691
0.0201635
0.0201699
0.020167
0.0201658
0.0201636
0.020169
0.0201666
0.020168
0.0201665
0.0201697
0.0201667
0.0201667
0.0201672
0.0201672
0.0201684
0.0201676
0.0201664
0.0201691
0.020167
0.0201666
0.0201665
0.0201664
0.020169
0.020169
0.020167
0.0201677
0.0201691
0.0201699
0.0201692
0.020169
0.0201667
0.020169
0.020169
0.0201692
0.020169
0.0201651
0.0201688
0.0201693
0.0201664
0.0201688
0.0201658
0.0201651
0.0201668
0.0201647
0.0201666
0.0201692
0.0201666
0.0201666
0.020169
0.0201662
0.0201693
0.0201661
0.0201659
0.0201651
0.0201666
0.0201662
0.0201696
0.0201688
0.0201691
0.0201665
0.0201669
0.0201668
0.0201659
0.0201664
0.0201663
0.0201664
0.0201679
0.0201686
0.0201659
0.0201692
0.0201659
0.0201663
0.020169
0.0201655
0.0201664
0.0201655
0.0201665
0.0201667
0.0201658
0.0201683
0.0201665
0.0201686
0.0201659
0.0201661
0.0201661
0.0201662
0.0201662
0.0201662
0.0201662
0.0201665
0.0201653
0.0201653
0.0201652
0.0201652
0.0201647
0.0201646
0.0201684
0.0201665
0.0201664
0.0201677
0.0201652
0.0201651
0.0201664
0.0201686
0.0201665
0.0201666
0.0201684
0.0201655
0.0201684
0.0201658
0.0201665
0.0201683
0.0201685
0.0201696
0.0201694
0.0201659
0.0201698
0.0201671
0.0201686
0.0201678
0.0201665
0.0201661
0.0201629
0.0201662
0.0201699
0.0201685
0.0201664
0.0201668
0.0201686
0.0201662
0.020168
0.020163
0.0201686
0.0201661
0.0201661
0.0201668
0.0201652
0.0201662
0.0201647
0.020167
0.0201699
0.02017
0.0201649
0.0201675
0.0201668
0.0201684
0.0201654
0.0201664
0.0201685
0.0201663
0.0201683
0.0201667
0.0201683
0.0201685
0.0201623
0.020165
0.0201651
0.0201651
0.0201665
0.0201683
0.0201638
0.0201662
0.0201676
0.0201682
0.0201684
0.020165
0.0201684
0.0201651
0.0201684
0.0201699
0.0201682
0.0201697
0.0201658
0.0201683
0.0201622
0.0201684
0.0201659
0.0201684
0.020166
0.0201684
0.0201672
0.0201705
0.0201672
0.0201684
0.0201649
0.0201683
0.0201675
0.0201661
0.0201664
0.0201683
0.0201683
0.020168
0.0201658
0.0201682
0.0201668
0.0201671
0.0201648
0.0201683
0.020168
0.0201675
0.020168
0.0201683
0.020168
0.0201656
0.0201668
0.020168
0.0201683
0.0201667
0.0201666
0.0201683
0.0201648
0.0201707
0.0201671
0.0201696
0.0201675
0.020172
0.020172
0.0201719
0.0201719
0.0201719
0.0201721
0.0201721
0.0201657
0.020164
0.0201668
0.0201676
0.0201679
0.020168
0.0201667
0.020168
0.020168
0.020164
0.020168
0.0201655
0.0201688
0.0201653
0.0201672
0.0201676
0.020168
0.0201649
0.0201672
0.0201676
0.0201672
0.0201676
0.020168
0.0201686
0.0201676
0.0201672
0.0201655
0.0201678
0.020168
0.0201679
0.0201676
0.0201672
0.0201667
0.0201679
0.0201667
0.0201672
0.0201676
0.0201668
0.0201672
0.0201679
0.0201661
0.0201676
0.0201642
0.0201699
0.0201658
0.0201656
0.0201672
0.0201676
0.0201663
0.0201707
0.0201672
0.0201676
0.0201704
0.0201624
0.0201623
0.0201671
0.0201679
0.0201675
0.0201679
0.020161
0.020161
0.0201667
0.0201668
0.0201668
0.0201709
0.0201679
0.0201659
0.0201677
0.0201678
0.0201677
0.0201707
0.0201661
0.0201679
0.0201672
0.0201672
0.0201678
0.0201676
0.0201677
0.0201677
0.0201705
0.0201697
0.0201676
0.0201672
0.0201676
0.0201678
0.0201676
0.0201675
0.0201676
0.02017
0.0201653
0.0201678
0.0201663
0.0201661
0.02017
0.0201672
0.0201672
0.0201647
0.0201622
0.0201623
0.0201649
0.020168
0.0201672
0.02017
0.0201624
0.0201612
0.0201613
0.0201708
0.0201638
0.0201631
0.0201673
0.0201652
0.0201669
0.0201665
0.020166
0.0201659
0.0201668
0.0201707
0.0201672
0.0201664
0.020166
0.0201706
0.0201634
0.0201706
0.020166
0.0201666
0.0201683
0.020167
0.0201669
0.0201645
0.0201668
0.0201645
0.0201672
0.020166
0.0201632
0.0201632
0.0201701
0.0201664
0.0201715
0.0201715
0.0201715
0.0201662
0.0201709
0.0201715
0.0201678
0.0201714
0.0201644
0.0201644
0.0201715
0.0201675
0.0201705
0.0201716
0.0201705
0.0201716
0.0201705
0.0201637
0.0201702
0.0201708
0.0201714
0.0201669
0.0201657
0.0201706
0.0201669
0.0201714
0.0201666
0.0201674
0.0201716
0.0201706
0.0201716
0.0201708
0.0201673
0.0201642
0.0201613
0.0201614
0.0201665
0.0201613
0.0201613
0.0201614
0.020162
0.0201701
0.0201634
0.0201649
0.0201641
0.0201665
0.0201618
0.0201618
0.020164
0.0201708
0.0201675
0.0201709
0.0201707
0.0201705
0.0201625
0.0201625
0.0201626
0.0201626
0.0201625
0.0201614
0.0201627
0.0201618
0.0201613
0.0201625
0.0201625
0.0201613
0.0201614
0.0201618
0.0201626
FIELD solute_flux_TPM 2
S_ext 3 563 float
-5.4206e-05 1.81341e-05 9.28337e-19
2.34365e-06 4.51063e-06 -3.32952e-19
-8.36725e-06 -6.65175e-06 -2.18135e-18
-2.7565e-06 2.77927e-06 1.17574e-18
1.52053e-05 -4.34289e-06 -8.66789e-19
1.82391e-06 -1.0447e-05 -2.99662e-18
-5.3378e-05 -1.83547e-05 1.70316e-18
-9.1254e-06 -6.80459e-06 3.01413e-18
1.45857e-05 6.16135e-07 1.15753e-18
7.56471e-06 -2.64982e-06 2.17292e-18
3.60823e-05 8.40164e-06 2.99277e-19
1.53748e-06 -1.13048e-05 -3.68018e-18
9.03053e-06 7.37482e-06 3.2973e-19
1.75656e-06 9.04042e-06 -8.38738e-19
1.37856e-05 -2.01712e-06 -1.88595e-18
-1.06262e-05 -1.73259e-07 -2.66024e-18
1.83431e-06 9.30283e-06 -3.87663e-18
6.75148e-06 -1.61321e-06 4.17684e-18
6.49427e-06 1.13248e-05 2.62876e-18
-9.68469e-06 1.2237e-06 -2.65643e-18
-2.35151e-06 -1.39158e-05 -1.50191e-18
2.86304e-05 4.03951e-05 4.6148e-18
1.03909e-05 1.05962e-06 1.15337e-18
7.42456e-06 -7.4307e-06 -8.29931e-19
-9.8273e-06 -2.17124e-06 -1.98918e-18
-4.35976e-07 -7.30001e-06 -1.52719e-18
4.14077e-05 -3.24285e-06 -1.60232e-19
9.32087e-06 6.76482e-06 1.16228e-18
-1.63774e-05 -1.32938e-05 1.45131e-18
3.24478e-05 -8.58516e-06 8.6791e-19
-1.08006e-05 -3.96489e-06 -4.67765e-18
3.49489e-06 -2.09979e-05 2.42166e-18
3.10683e-05 -3.16692e-05 -1.73415e-18
-3.45668e-06 -2.77292e-05 -1.904e-18
-1.95874e-05 2.43883e-05 2.76598e-18
-2.57411e-05 -1.08608e-05 2.77025e-18
2.15074e-05 2.81699e-05 1.05431e-18
-2.96134e-05 -5.79529e-06 4.65511e-18
9.54976e-06 -7.27666e-06 -3.17088e-18
3.03518e-05 3.30002e-05 -1.56785e-18
2.11422e-05 -9.25668e-06 -1.93965e-18
2.19358e-05 -2.71132e-05 -4.35995e-18
-1.25195e-05 -3.25332e-05 3.34437e-19
-1.03526e-05 4.17609e-06 2.34651e-18
1.98717e-05 -1.94376e-05 -1.11634e-18
-1.96105e-05 6.97281e-06 2.90758e-18
-2.6902e-06 -1.32701e-05 -2.1509e-18
5.17071e-06 1.32346e-05 8.25058e-19
-1.06873e-05 3.87418e-06 1.67108e-18
-1.1791e-05 1.85397e-05 -7.99902e-19
2.13349e-05 1.00529e-05 -9.68489e-19
1.92768e-05 -6.68788e-06 1.54124e-19
-1.04011e-05 1.04268e-05 -1.04989e-18
-1.52614e-05 -1.32606e-05 -4.07223e-18
-1.40161e-05 -3.42686e-06 -1.04726e-18
-2.89745e-05 1.72533e-05 -2.85624e-18
-1.93908e-05 -2.50984e-05 1.74135e-18
4.03248e-06 -1.99576e-05 2.59618e-18
-3.1439e-05 4.28548e-06 4.33289e-18
3.99144e-06 9.00547e-06 -5.00292e-18
-3.65541e-06 -5.40341e-06 -3.03033e-18
-4.30888e-06 -1.18574e-05 2.55145e-18
3.74118e-05 1.63058e-05 -4.79919e-19
6.14893e-06 1.19664e-05 -3.38462e-19
8.16662e-06 -9.53599e-06 2.19016e-18
-1.1127e-06 -1.36876e-05 -1.01482e-18
3.07468e-06 -5.8076e-06 2.00378e-18
-6.59349e-06 -3.6543e-06 -4.34873e-18
-6.97157e-06 7.76207e-06 4.95613e-19
1.69264e-06 -2.7721e-06 1.49435e-18
-9.97063e-06 -1.04888e-05 1.04066e-18
-1.41359e-05 3.43555e-06 2.05098e-18
-2.51136e-06 2.23691e-05 -1.77705e-18
-1.1772e-05 7.04781e-06 1.34642e-18
-5.95731e-06 9.50904e-06 1.33352e-18
-3.86513e-05 4.80467e-06 -1.10454e-18
5.22387e-06 -1.43198e-05 -1.88738e-18
-1.24432e-05 -5.79784e-06 -8.43149e-19
1.2694e-06 7.65138e-06 -1.18612e-18
1.73447e-05 3.33156e-06 6.47884e-19
2.23802e-05 -1.90769e-05 2.71745e-18
1.47548e-05 1.3586e-05 -1.72001e-19
7.97856e-06 -1.93924e-06 -1.87272e-18
-2.08384e-05 1.52752e-05 -4.79016e-18
2.48838e-05 3.1883e-06 3.1273e-19
-3.59207e-06 3.19988e-05 -2.6911e-18
-1.15742e-06 -1.10437e-05 -1.34547e-18
1.20899e-05 6.57051e-06 2.18897e-18
1.91115e-05 2.00172e-05 -7.90192e-19
4.25401e-05 2.64445e-05 4.93682e-18
-3.55763e-06 2.00565e-05 -1.31246e-18
4.44337e-05 -2.49703e-05 7.03204e-18
-1.79977e-05 3.48504e-06 3.74425e-18
1.18954e-05 7.34451e-06 2.18337e-18
-1.91634e-05 6.37385e-06 1.57315e-22
1.08129e-05 1.87648e-05 -2.09713e-18
6.43578e-06 -2.88773e-05 5.13104e-18
1.27888e-06 7.64682e-06 1.49907e-18
-9.72083e-06 -1.16552e-05 4.437e-18
2.01008e-06 1.1467e-05 -3.35713e-18
1.7372e-05 3.47007e-06 1.66389e-19
-1.01139e-05 2.14996e-05 -5.18674e-18
2.65884e-05 -8.86258e-06 -6.49955e-19
-2.5e-06 4.86159e-06 2.17592e-18
6.62999e-06 3.86943e-06 -2.02273e-18
-1.48155e-06 -7.42284e-06 -1.53691e-18
2.15389e-06 -1.27394e-05 -1.02924e-18
1.15553e-05 2.57499e-06 -1.84561e-18
-5.38073e-06 2.67174e-05 -3.03487e-18
-6.52014e-06 1.29656e-07 4.20145e-18
6.16785e-06 7.81864e-06 -1.33781e-18
-1.76572e-06 -2.72368e-05 7.87966e-19
2.75767e-05 8.55801e-06 9.48267e-19
2.95807e-06 -4.89354e-06 -4.34475e-18
-7.28067e-06 -2.33874e-06 -2.16587e-18
-1.89322e-05 -8.05012e-06 4.87498e-19
1.06438e-05 2.77663e-05 -1.66782e-19
-2.78616e-05 -9.92488e-06 -1.13222e-18
1.07925e-05 -2.78402e-05 3.62728e-18
-2.46558e-06 -2.07866e-05 2.61233e-18
1.44166e-05 3.97514e-07 1.1509e-18
-4.76329e-06 1.22335e-05 -5.18262e-19
-1.04736e-06 2.59912e-06 -2.37293e-18
-2.448e-06 -1.09255e-05 -3.70773e-18
3.49665e-06 -5.61445e-06 -2.20892e-18
6.21104e-06 1.04925e-05 2.90325e-18
2.23492e-05 7.29432e-06 -1.89855e-18
5.77938e-06 -4.89001e-06 5.13334e-19
-5.52113e-06 -2.92284e-05 2.07597e-18
1.67849e-05 -1.23815e-05 -8.22597e-19
3.306e-06 1.84396e-05 -1.74381e-19
-1.83664e-06 -1.87267e-06 -1.66699e-18
-5.71111e-06 -5.4912e-06 5.20977e-19
-3.15734e-06 5.45697e-08 5.51606e-18
-1.48694e-05 1.83595e-05 -1.64589e-19
1.29187e-05 -2.50151e-05 6.9347e-19
-1.73778e-05 2.74644e-05 -6.22271e-18
-1.06868e-05 6.21995e-06 -1.83847e-18
1.67059e-06 8.17548e-06 -6.75886e-19
-1.51751e-05 -2.36773e-05 1.21649e-18
9.01748e-06 2.18598e-05 -2.27181e-18
1.16514e-05 6.13996e-06 8.39038e-19
1.50232e-05 -5.66696e-06 1.14317e-18
-8.2017e-07 -7.41301e-06 -5.02541e-18
-2.1881e-05 -2.01237e-05 2.07763e-18
-1.80241e-06 7.42091e-06 8.37014e-19
1.14593e-05 6.75761e-06 3.51865e-18
1.25035e-05 -5.89248e-06 2.16087e-18
5.47723e-06 -9.41629e-06 1.71785e-19
1.60492e-05 -7.1185e-06 -2.13706e-18
1.25709e-05 -5.95251e-06 -1.33807e-18
3.14473e-06 1.88776e-07 3.19894e-18
1.68494e-05 1.3339e-05 -1.6682e-19
-1.77637e-06 -1.11367e-05 -3.02674e-18
-6.89756e-06 -2.8904e-06 8.2561e-19
7.50509e-07 -2.55047e-06 -6.96732e-19
-2.10249e-06 1.0431e-05 -3.5509e-18
-2.24248e-05 1.76964e-06 -1.67311e-19
-7.93356e-06 -2.1511e-05 1.60623e-19
-5.18151e-06 6.38213e-06 2.83911e-18
8.92333e-06 1.09057e-05 1.31773e-18
1.73861e-05 -1.23985e-05 2.25115e-18
-2.38646e-05 -1.29363e-05 9.47311e-19
1.13011e-05 -1.81219e-05 1.55142e-19
1.48975e-05 -1.78464e-05 -4.92672e-19
-7.15744e-06 2.51044e-06 -1.33128e-18
-1.28849e-05 -1.85456e-05 1.94278e-18
-2.24071e-05 -3.72532e-06 2.59395e-18
-2.70418e-06 -2.0624e-05 2.74306e-18
1.00047e-05 -2.07079e-05 2.91153e-18
-6.06121e-06 -1.73671e-05 -1.87128e-18
2.87134e-06 2.04652e-05 -1.68347e-19
-1.04077e-05 -1.84352e-05 3.17269e-19
1.97299e-06 -1.07187e-05 9.95236e-19
-1.60515e-05 1.16883e-05 -9.7596e-19
-9.91111e-06 -8.01077e-06 5.08651e-18
-1.81161e-05 -3.37683e-06 -5.49095e-21
1.0412e-05 -6.10989e-06 4.95651e-19
-2.8442e-06 1.58687e-05 -2.24206e-18
8.18656e-06 -6.15875e-06 -1.50359e-18
-1.91399e-05 -8.39213e-06 -6.44641e-19
-5.81546e-06 -4.86267e-06 2.83458e-18
6.05994e-06 4.93935e-06 -2.69432e-18
1.39999e-05 1.88026e-05 4.86681e-19
-1.14857e-05 -7.11222e-06 4.56226e-18
-2.09941e-05 -5.07058e-07 -3.38203e-18
-1.07937e-05 -3.25558e-06 2.69092e-18
-3.02578e-06 -1.09382e-05 -1.5162e-18
1.18598e-05 1.42815e-05 1.73937e-19
-7.23442e-06 3.81372e-06 4.02853e-18
4.46094e-07 -1.35414e-05 1.66108e-19
-2.69698e-05 6.91318e-06 -3.20217e-19
1.63314e-05 1.32905e-05 3.30871e-19
2.3644e-06 2.14736e-05 -9.68082e-19
-1.58511e-06 2.51788e-06 -4.34982e-18
-5.90976e-06 1.65544e-07 -2.1633e-18
2.9015e-06 5.09314e-06 -1.51518e-18
-7.73511e-06 2.27973e-06 8.25265e-19
-1.3416e-06 -2.47251e-06 -1.17117e-18
1.11684e-06 1.36753e-05 1.6824e-18
3.0136e-06 2.54289e-07 -5.1769e-19
-1.27066e-05 3.06766e-06 -8.22058e-19
-1.13362e-05 1.25245e-05 -4.9438e-19
-2.03371e-06 7.66656e-06 -8.41467e-19
-1.89922e-05 1.1831e-05 -6.4555e-19
-6.19811e-06 5.92559e-06 6.51394e-19
1.15402e-05 -7.80894e-06 -6.76759e-19
2.40286e-05 -2.38678e-06 -1.29777e-18
-1.40032e-05 7.43512e-06 -2.55904e-18
1.47483e-06 2.99637e-06 -6.85864e-19
1.46245e-05 -2.84145e-06 -6.72825e-19
-1.13526e-05 6.8288e-06 -5.00556e-19
-6.4663e-06 3.64467e-06 -4.18745e-18
7.96731e-06 2.56545e-06 -3.27303e-19
1.4376e-05 -8.91328e-06 -1.81136e-18
-1.14316e-05 6.5004e-06 8.38066e-19
-1.62214e-05 -3.4103e-06 -9.79665e-19
-1.10422e-05 -2.84389e-06 3.3828e-18
6.671e-06 5.42494e-08 2.3633e-18
6.83452e-06 8.3447e-08 -1.3616e-18
2.9132e-06 5.4935e-06 8.49875e-19
3.21196e-06 -5.81085e-06 6.46447e-19
-3.30074e-06 5.59406e-06 -3.01385e-18
-3.45874e-06 -5.72488e-06 -2.00973e-18
6.58565e-06 -4.97175e-06 2.50775e-18
-1.34953e-05 2.16113e-06 1.00854e-18
-1.33436e-05 -2.20386e-06 3.21582e-18
-8.52669e-06 1.05439e-05 4.39656e-18
-8.575e-06 -1.05848e-05 -1.34834e-18
4.99435e-06 -1.3382e-05 2.90492e-18
4.81183e-06 1.32677e-05 -5.13584e-19
9.69529e-07 1.69427e-05 -6.60558e-19
7.51828e-06 -2.02055e-06 -1.60363e-19
1.62542e-06 -2.52996e-06 -8.37779e-19
-1.38773e-05 9.31497e-07 -1.15741e-18
5.15656e-06 -1.31666e-05 6.66694e-19
4.88587e-06 1.32141e-05 -1.19371e-18
3.18085e-06 -5.91402e-08 2.32955e-18
5.82459e-06 1.60203e-05 1.46783e-18
-1.48114e-06 -2.63699e-06 3.49086e-18
1.55877e-06 -7.44796e-06 -8.31595e-19
-1.45589e-05 -7.81002e-06 -1.69494e-19
-1.41346e-05 -7.56731e-06 -3.33933e-19
-1.42514e-05 8.81119e-06 1.68484e-19
2.15567e-06 -8.28084e-06 -1.20088e-18
-1.0524e-06 2.21048e-06 1.84874e-18
-4.71277e-07 -1.66567e-05 3.27846e-18
-5.1257e-06 -1.58557e-05 -1.46684e-18
2.14198e-05 1.99538e-05 -1.76638e-18
2.33748e-05 -1.20885e-06 9.58697e-19
-8.42747e-06 -2.44445e-06 2.36161e-18
-1.49277e-05 -2.65815e-05 3.1859e-18
5.49164e-06 9.02116e-06 9.98515e-19
-1.63504e-05 1.92935e-06 -1.95288e-18
1.32592e-05 3.79966e-06 1.64739e-18
-2.97686e-06 -1.24984e-08 -1.15411e-18
-3.07291e-06 -5.56384e-06 -8.37326e-19
-5.43684e-06 -2.58659e-05 -1.21919e-18
-6.43637e-06 -3.06114e-08 4.68485e-18
-3.1029e-05 -1.16471e-06 2.86964e-18
1.13326e-05 -1.2597e-05 -1.47136e-18
1.65439e-06 2.62195e-06 -4.3741e-18
-7.57846e-08 -1.15146e-05 -1.50556e-18
-6.50784e-06 1.56286e-05 -2.94704e-18
-2.88994e-06 5.70713e-06 1.39971e-19
1.35581e-05 -8.95987e-06 -9.96315e-19
-2.5115e-05 -8.20514e-06 1.2205e-18
-9.99325e-06 -1.31902e-05 8.15096e-19
3.32857e-06 5.62408e-06 8.34729e-19
1.11217e-05 3.35808e-06 -3.04777e-18
-3.12878e-06 -4.7902e-06 3.17266e-19
1.3327e-05 2.42607e-06 -8.43096e-19
1.21594e-05 -6.52681e-06 -3.34194e-19
-2.49945e-07 1.79794e-05 1.70879e-18
5.51679e-06 -8.97266e-06 -5.01225e-18
3.20657e-05 1.37129e-06 7.92104e-19
-2.72415e-05 7.09828e-06 -1.59059e-19
1.53716e-05 7.67785e-06 6.84635e-19
-4.22959e-06 -1.11785e-05 9.83431e-19
-1.00577e-05 -5.62284e-06 -1.34339e-18
1.89262e-05 -1.56602e-07 4.88624e-19
-4.79044e-07 -1.607e-05 -2.72116e-18
-8.25317e-06 -7.16799e-06 -2.51436e-18
6.65703e-06 -1.54397e-05 4.84663e-19
-3.63471e-07 1.35373e-05 1.50209e-18
5.12414e-06 1.70325e-05 -6.62467e-19
1.14812e-05 -6.5909e-06 -2.68398e-18
-1.23412e-05 1.24347e-05 -6.59061e-19
1.08129e-05 1.31806e-05 3.42526e-18
-4.32764e-05 1.03237e-05 1.39164e-18
-6.736e-06 1.72427e-05 -1.65036e-20
8.31528e-06 -1.01034e-05 -2.06254e-18
-4.63651e-06 -1.21799e-05 1.0179e-18
-7.8195e-06 2.91343e-06 3.52381e-18
-1.67292e-05 -4.56197e-06 4.43353e-18
-4.46176e-06 2.60672e-05 2.76492e-18
-8.27296e-06 7.88615e-06 -3.87667e-18
1.3717e-05 -3.00397e-06 1.55879e-19
-4.50111e-06 -1.67732e-05 -8.23846e-19
-9.70905e-06 1.54548e-05 -1.31619e-18
-1.44142e-05 8.30256e-06 1.18312e-18
-1.33744e-05 -9.74393e-06 -3.93705e-18
1.21061e-05 -1.39529e-05 -1.88409e-18
-1.7762e-05 -9.41905e-07 -1.30861e-18
7.83384e-06 -2.68496e-05 1.54609e-19
1.27399e-05 -1.24161e-05 -3.13113e-18
1.60369e-05 2.81757e-05 -2.07808e-18
1.29275e-06 1.31278e-05 3.40217e-19
1.90089e-06 -1.66426e-05 1.47041e-18
-2.81536e-05 3.30471e-05 3.67534e-18
-8.28246e-06 -1.5801e-05 -4.9748e-19
1.09927e-05 -4.25935e-06 2.88442e-18
-1.67188e-06 1.67761e-05 -3.28008e-18
8.59867e-06 -7.97833e-06 -2.04031e-18
9.06825e-06 1.59071e-05 2.29542e-18
1.13906e-05 -9.64306e-07 4.15873e-18
1.40394e-05 -4.1116e-05 -1.7386e-18
-3.85519e-06 -8.39864e-06 -2.34818e-18
-1.50485e-05 6.46545e-06 2.46457e-18
-1.32864e-05 1.24161e-05 1.70095e-18
1.41895e-05 9.59941e-06 4.5878e-18
1.23293e-05 -7.13567e-06 -1.99389e-18
9.93763e-06 8.40249e-06 1.67792e-19
-3.61097e-06 -4.87802e-09 1.84802e-18
1.00723e-05 -1.5121e-05 -2.30057e-18
-1.10554e-05 -1.31671e-05 -3.29459e-19
1.48518e-05 6.45052e-06 1.64385e-18
8.55506e-06 -8.03803e-06 -1.70067e-18
6.20435e-06 -1.62473e-05 1.79998e-18
1.10477e-05 -4.66431e-06 -6.80625e-19
-1.03235e-05 -4.91513e-06 -2.83879e-18
8.7652e-07 -1.73972e-05 -1.54465e-18
-1.68758e-05 2.89702e-06 -4.87725e-19
1.49506e-06 1.60263e-05 1.55397e-19
1.35854e-05 4.3859e-06 6.5789e-19
-1.40941e-05 -6.94199e-06 1.31821e-18
-5.88818e-06 1.66461e-05 -2.31178e-18
-9.93673e-07 -1.57993e-05 5.77611e-18
1.30197e-05 7.90364e-06 -1.19306e-18
-1.14483e-06 1.18755e-05 -3.02237e-18
-1.31135e-05 8.82454e-06 2.47537e-18
1.54973e-05 7.50053e-06 1.14596e-18
-1.11877e-05 -6.57135e-06 6.72296e-19
9.66282e-08 -1.30339e-05 8.37831e-19
1.20709e-05 1.31004e-05 2.13578e-18
-1.46158e-05 -9.44602e-06 2.40179e-18
3.17367e-05 -2.27094e-05 1.54469e-18
1.18761e-05 -7.14975e-06 9.95609e-19
5.66307e-06 2.80567e-05 -2.56993e-18
1.12708e-05 -8.99976e-06 8.26203e-19
-1.47773e-05 5.69874e-05 -2.99686e-19
-1.48543e-05 -5.64451e-05 -4.48927e-19
3.70948e-05 4.8492e-05 -1.48352e-18
3.66484e-05 -4.84801e-05 -2.52215e-18
6.05691e-05 -2.96376e-08 -2.37059e-18
-5.21202e-05 2.11162e-05 1.03813e-18
-5.12744e-05 -2.13368e-05 -1.33212e-18
8.17592e-06 7.89251e-06 1.35559e-18
1.9767e-05 1.47155e-05 5.21291e-19
7.59213e-06 2.20561e-06 -2.85525e-18
1.24744e-05 6.41831e-06 2.64789e-18
3.2488e-06 1.32393e-05 -1.16403e-18
-1.22586e-05 -9.66204e-06 -1.48658e-18
1.13731e-05 -6.74575e-06 3.36898e-19
1.30922e-05 9.55476e-06 -1.48963e-18
-2.09854e-06 1.59121e-05 8.1369e-19
1.98636e-05 -1.35119e-05 2.06482e-18
2.42472e-06 -1.55123e-05 1.81625e-18
1.47072e-05 3.40407e-06 1.35576e-18
1.96156e-05 7.28084e-06 -2.27388e-18
9.43134e-06 9.36644e-06 1.0347e-18
1.0523e-05 4.35625e-06 2.15864e-18
-1.20757e-05 7.11189e-06 5.5864e-22
-1.46519e-05 5.86151e-06 1.48902e-18
1.54356e-05 -7.53065e-06 -1.0335e-18
-1.19125e-05 -6.52894e-06 2.99875e-18
-1.20958e-05 -6.84774e-06 4.63789e-18
-2.1645e-07 -1.36158e-05 1.67056e-18
-9.87336e-08 -1.38379e-05 -4.97468e-19
-1.30755e-05 -6.56929e-07 -3.26039e-19
1.76048e-05 -2.67076e-06 -2.28315e-18
1.19488e-05 7.48862e-06 2.64699e-18
-1.16925e-05 7.09489e-06 -3.3398e-18
-1.01171e-05 1.10068e-05 -3.44573e-19
1.05544e-05 -9.0829e-06 -2.14982e-18
-7.24989e-06 1.1345e-05 1.61567e-19
-9.29182e-06 -9.66879e-06 -1.16054e-18
-8.08942e-07 1.38543e-05 -1.33693e-18
-8.42003e-07 1.37461e-05 -1.50733e-18
3.3734e-08 -1.30378e-05 6.63574e-19
4.00255e-06 -1.29595e-05 -3.30052e-18
-1.12441e-05 -6.47428e-06 4.52964e-18
1.03215e-05 -3.65614e-06 3.25614e-19
4.18265e-07 1.4078e-05 -4.65132e-18
1.70915e-07 1.21424e-05 -3.69698e-18
-1.56723e-06 1.10181e-05 -1.50298e-18
1.44492e-05 -3.65499e-06 5.2721e-18
-1.09585e-05 3.49324e-06 4.72326e-18
2.68707e-06 1.40912e-05 -1.1751e-18
-2.17165e-05 8.51732e-06 3.43698e-18
6.14736e-06 2.74321e-05 -2.05873e-18
-1.1265e-05 2.97601e-06 4.73306e-18
1.32084e-05 -7.81495e-06 -1.69828e-18
5.75224e-07 1.37782e-05 1.16049e-18
-1.33025e-05 4.36593e-06 1.82945e-18
1.61965e-06 -1.0693e-05 -3.46497e-19
5.96801e-07 -3.80128e-05 -3.1256e-19
1.30941e-06 1.14905e-05 -1.67984e-18
-1.10905e-05 9.07013e-06 -1.99146e-18
1.13149e-05 4.16473e-05 -3.79106e-18
3.15144e-05 2.61359e-05 1.05756e-18
3.61261e-05 -2.47176e-05 -8.80783e-19
9.8267e-06 -6.73244e-06 -4.5052e-18
-1.03308e-05 9.10945e-06 1.64957e-18
-1.31327e-05 -5.16434e-06 2.98372e-18
-1.27741e-05 -4.40986e-06 2.47421e-18
4.44165e-05 -1.22045e-05 4.25597e-18
4.53073e-05 9.52685e-06 1.78366e-18
7.22235e-06 2.52173e-06 -3.70169e-18
4.69358e-07 1.28698e-05 1.49994e-18
4.93867e-08 1.28612e-05 -6.84264e-19
-3.16669e-05 -2.31717e-05 -1.47739e-19
7.50382e-06 -1.13019e-05 8.2279e-19
7.83185e-06 8.35405e-06 -5.10952e-19
-1.38805e-05 -2.21594e-06 -4.96368e-19
-9.18225e-06 1.11428e-05 6.59451e-19
-1.23122e-05 5.92823e-06 9.9514e-19
3.13414e-05 2.24813e-05 -2.32036e-18
1.05503e-05 4.67092e-06 -1.86899e-18
-3.69858e-06 1.30459e-05 -2.6523e-18
-1.11125e-05 -7.61916e-06 4.49979e-18
1.18642e-06 -1.34753e-05 -3.30994e-19
-5.84325e-06 -1.2544e-05 -3.35193e-19
-1.1245e-05 -7.65128e-06 -1.74111e-19
6.9394e-06 -1.24107e-05 8.29801e-19
9.3163e-06 -1.1145e-05 8.2771e-19
-1.93497e-06 -3.97782e-05 2.51682e-18
1.69657e-05 -2.69103e-05 2.23867e-18
1.14092e-06 -1.36256e-05 4.98533e-19
1.19047e-05 7.46477e-06 1.83027e-18
-9.46375e-06 -9.65233e-06 8.2397e-19
-6.44186e-06 1.28141e-05 -5.80291e-18
-3.30445e-06 1.37127e-05 -4.9833e-18
1.09849e-05 9.34167e-06 2.48737e-18
3.95137e-06 -1.30156e-05 -3.3298e-19
-9.10899e-06 -2.60851e-05 1.10106e-18
-1.35795e-06 1.6599e-05 1.35692e-18
9.73648e-06 9.51972e-06 9.80441e-19
-8.48877e-06 -6.70817e-06 -2.18667e-18
-8.90432e-06 6.978e-06 -3.4097e-19
2.91933e-05 -1.25477e-05 -2.53455e-18
4.98804e-06 -8.79784e-06 -1.65882e-18
-5.46284e-06 -8.2166e-06 -1.7868e-19
1.43493e-05 4.37502e-06 -1.53385e-18
8.81972e-06 -3.18194e-05 -2.27269e-18
-2.31516e-05 -2.35276e-05 4.19884e-18
1.5648e-05 4.10355e-06 1.19241e-18
-6.12639e-06 -1.1881e-05 2.30495e-18
1.23764e-05 6.28921e-06 3.49501e-18
-1.87899e-05 -2.08634e-05 3.10992e-19
7.14238e-06 3.23539e-05 1.92984e-18
3.13449e-05 -4.04825e-05 -2.49448e-18
-1.93883e-05 -4.73767e-05 5.3154e-18
1.77132e-05 -3.46276e-05 -1.54892e-18
-8.42178e-06 2.89076e-05 3.45513e-18
-4.79692e-06 2.56039e-05 2.78342e-18
-1.22356e-05 5.85333e-06 -1.00475e-18
4.00294e-06 1.60483e-05 1.02188e-18
-1.5813e-06 8.26759e-06 3.34888e-18
6.72938e-06 2.15327e-06 -2.69768e-18
-2.12674e-06 1.07131e-05 2.34872e-18
-1.6188e-07 1.38561e-05 -1.52849e-20
1.10592e-05 6.44299e-06 3.00901e-18
5.52666e-07 3.7833e-05 -2.94816e-18
-9.64747e-06 6.96246e-06 -8.39953e-19
1.06332e-05 -4.10925e-06 1.69164e-18
1.13381e-05 -2.95e-06 2.71579e-18
-3.87807e-05 -5.57083e-06 1.24034e-18
-2.29515e-05 1.09205e-05 1.89515e-18
-2.8143e-05 -3.33692e-05 2.21484e-18
5.72626e-06 5.49615e-06 1.79456e-19
9.43482e-06 4.86701e-06 -3.70515e-18
1.76321e-05 -2.81133e-06 -6.58182e-19
-5.30353e-06 -8.63378e-06 -4.02895e-18
1.14133e-05 5.60619e-06 6.60525e-19
4.88261e-06 -1.99413e-05 2.39739e-18
-9.04305e-06 6.64001e-06 2.67516e-18
-1.48218e-05 -1.41973e-05 3.2589e-18
-3.82306e-06 1.06484e-05 1.00119e-18
-2.19739e-06 1.36536e-05 -6.90955e-19
2.29256e-05 1.42387e-05 1.56604e-18
2.44423e-05 -1.29713e-05 2.59816e-18
-2.70851e-05 -7.29441e-06 1.5797e-18
5.06527e-06 5.12626e-06 -2.86601e-18
-3.17456e-06 6.61508e-05 -1.23625e-18
-1.5208e-08 -6.79497e-05 2.49416e-21
3.34909e-05 5.73147e-05 -9.25315e-19
-1.26199e-05 5.51461e-06 3.19791e-18
-1.79655e-05 3.62754e-05 -1.60658e-19
3.36966e-05 -5.53199e-05 2.45611e-18
-7.65692e-06 -1.1851e-05 3.24034e-19
5.12365e-05 4.46075e-05 -3.11202e-19
1.59607e-05 -1.18775e-05 -5.00836e-18
-2.32351e-06 -1.9751e-05 2.9203e-18
5.36849e-05 -4.36184e-05 -1.49949e-19
-4.44797e-06 9.46705e-06 -4.9664e-19
-3.43983e-05 -2.18527e-05 9.41293e-19
-2.83328e-05 -5.91571e-05 -3.54946e-18
-1.60402e-05 -3.74417e-05 2.82555e-18
-2.9128e-05 6.01264e-05 4.63126e-19
-6.89727e-06 4.16046e-05 -3.30194e-18
1.0688e-05 2.48276e-05 1.56311e-18
-1.84608e-05 2.37226e-05 -4.73458e-18
-1.71909e-05 -3.53138e-05 -1.39242e-18
6.59229e-05 1.15663e-05 1.48728e-19
-1.11202e-05 6.99196e-06 -1.17601e-18
-3.93047e-06 1.07763e-05 6.65232e-19
-3.26232e-05 2.34951e-05 -9.44903e-19
-1.1327e-05 6.50156e-06 -2.01386e-18
6.52736e-05 -1.03118e-05 -3.84739e-18
-1.01003e-05 5.0805e-06 -1.52098e-18
4.75206e-06 -9.53666e-06 -1.82453e-18
-5.06858e-05 -3.86194e-05 -2.14451e-18
-1.72807e-05 3.74756e-05 -4.55043e-18
-5.18937e-05 3.83432e-05 9.20554e-19
1.56671e-05 3.44988e-05 -9.28567e-19
-9.6882e-06 6.88651e-06 -4.3348e-18
-1.35813e-05 1.63136e-05 -5.22753e-19
-2.41713e-05 3.03551e-05 5.29938e-18
-3.78985e-05 -4.88893e-06 3.34153e-18
-6.32833e-07 1.07347e-05 -1.02218e-18
-2.5602e-05 -3.04827e-05 -3.62795e-19
-3.92113e-05 6.93665e-06 2.29554e-18
-1.49346e-05 3.46442e-05 -1.7653e-19
-1.15283e-05 4.6123e-05 5.4452e-18
-1.20462e-05 2.67046e-05 -1.42341e-18
-2.23719e-05 1.8025e-05 -1.21762e-18
1.64414e-05 -4.04934e-06 3.46966e-19
2.56881e-05 -1.39089e-06 8.62078e-19
8.97052e-06 5.4498e-06 -2.5283e-18
-8.09952e-06 -5.30657e-05 -1.24274e-18
-5.00155e-05 -1.95055e-05 1.57865e-18
2.50144e-05 3.38771e-07 2.59693e-18
3.85896e-05 -7.4499e-06 -6.20153e-19
-6.92177e-06 -8.78801e-06 -2.17271e-18
-3.34857e-05 2.35412e-05 2.07794e-21
-3.00095e-05 3.43748e-05 -1.59424e-19
4.07931e-05 -1.46987e-05 -2.21254e-18
-1.8689e-05 -3.16702e-05 1.40053e-18
-1.90234e-05 3.14254e-05 1.73256e-18
-3.69126e-05 -1.30549e-06 2.42287e-18
-1.67901e-05 3.30176e-05 -2.44706e-18
-3.67948e-05 3.79977e-07 -1.04907e-18
4.57611e-05 1.63883e-05 8.91781e-19
3.69426e-05 1.35727e-06 -1.38675e-18
3.47275e-05 -1.77925e-05 -3.36314e-21
1.01261e-05 -4.88143e-05 3.532e-18
1.83581e-05 -3.19763e-05 6.79626e-18
1.82335e-05 3.19728e-05 1.40248e-18
9.91641e-06 4.76959e-05 4.02927e-21
4.99757e-05 -1.4092e-05 1.42348e-18
3.20422e-05 1.5871e-05 3.17487e-18
3.08016e-05 8.41618e-06 1.0543e-18
P_ext 3 563 float
-1.08976e-06 3.68476e-07 -2.43654e-21
1.0339e-09 4.03633e-08 -1.82629e-20
-1.00419e-07 -9.44344e-08 -8.86478e-20
-3.1766e-08 2.93224e-08 3.4085e-20
2.77158e-08 5.29145e-10 -7.49927e-20
3.30492e-08 -1.3413e-07 -4.164e-20
-1.07294e-06 -3.72934e-07 -4.30314e-20
-7.87285e-08 -8.93105e-08 -7.01559e-20
2.18998e-07 3.87933e-09 1.55477e-20
7.99569e-08 -7.51173e-09 6.528e-20
7.09353e-07 1.66261e-07 5.56288e-20
3.89883e-08 -1.14137e-07 -3.41065e-20
8.93514e-08 1.06357e-07 -7.84481e-21
-9.20334e-09 8.33183e-08 -7.06599e-20
2.50326e-08 9.27235e-09 -9.04621e-20
-1.39998e-07 -2.29177e-09 -2.54848e-23
-1.749e-08 5.49061e-08 -5.01764e-20
8.43932e-08 -1.27341e-08 7.57071e-20
9.69335e-08 1.72872e-07 -1.27699e-20
-1.30051e-07 1.31151e-08 1.54438e-20
-4.88222e-08 -1.84203e-07 -3.38184e-20
1.60959e-09 3.35062e-10 1.72849e-20
1.4404e-07 1.17272e-08 5.42355e-20
9.17019e-08 -1.05879e-07 3.10382e-20
-1.3285e-07 -2.1393e-08 3.62167e-20
-2.50431e-08 -7.27018e-08 -5.00567e-20
8.155e-07 -6.67117e-08 8.55561e-20
9.99172e-08 8.42364e-08 6.7497e-20
-2.98386e-07 -2.37021e-07 8.53717e-20
1.75356e-08 3.29816e-09 6.49511e-20
-1.33393e-07 -2.37564e-08 -2.9068e-21
5.83171e-08 -3.79481e-07 3.10742e-22
6.12813e-07 -6.27598e-07 -5.41341e-20
1.30602e-09 -2.87829e-08 -2.3438e-22
-7.74624e-09 2.21357e-08 8.36639e-20
-2.40264e-08 -1.58289e-08 4.60437e-20
3.18268e-09 1.58929e-08 2.46759e-20
-2.42931e-08 4.13656e-09 5.41749e-21
9.64903e-08 -1.04941e-07 -1.3182e-20
5.9799e-07 6.54048e-07 1.6888e-20
3.81982e-07 -1.73062e-07 -2.04063e-20
5.91107e-09 -1.45539e-08 -3.3117e-20
-9.56518e-09 -1.27475e-08 -6.51897e-20
-1.32513e-07 2.72206e-08 2.89863e-20
3.78966e-07 -3.72162e-07 -1.20893e-19
-3.5312e-07 1.27105e-07 9.57242e-20
-4.46146e-08 -1.94687e-07 -1.82697e-20
8.05005e-08 1.95548e-07 5.10267e-21
-1.27108e-07 3.32387e-08 -2.05452e-20
-2.18712e-07 3.40174e-07 -1.26069e-20
3.87685e-07 1.8986e-07 6.24004e-20
3.36637e-07 -1.1072e-07 5.81344e-20
-9.91912e-09 2.35731e-08 -2.98421e-20
-2.63442e-07 -2.36401e-07 -2.32328e-20
-2.58595e-08 3.41432e-09 -1.11438e-20
-5.65023e-07 3.31813e-07 -5.95185e-20
-7.19292e-09 -2.20432e-08 4.34481e-20
7.50166e-08 -3.47888e-07 1.46922e-19
-2.24662e-08 -4.89347e-09 1.38993e-20
5.88573e-08 1.18013e-07 -9.38437e-20
-3.14076e-08 -9.53256e-09 -2.37846e-20
-3.31625e-08 -3.11517e-08 3.99473e-20
7.35298e-07 3.23722e-07 4.4195e-20
-6.30748e-10 6.42225e-08 -2.37369e-20
9.92718e-09 -4.28504e-08 -1.36141e-22
1.66755e-08 -9.53304e-08 -4.99344e-20
-6.61691e-09 -3.12138e-08 1.55365e-20
-7.62938e-08 -1.93901e-08 -7.99473e-21
-8.88116e-08 1.08666e-07 1.29548e-20
2.38182e-08 -8.64909e-09 -4.20432e-20
-9.78362e-09 -2.42518e-08 -1.29419e-20
-2.55765e-08 -3.74866e-09 -6.3926e-20
-4.40185e-08 4.07813e-07 1.96179e-20
-7.83598e-08 3.95796e-08 -2.3713e-20
-7.60197e-08 1.30027e-07 -5.9545e-20
-7.64614e-07 8.98743e-08 -3.91684e-20
3.52651e-11 -6.05592e-08 -8.79031e-20
-7.36172e-08 -6.16789e-08 3.39181e-20
3.09979e-08 7.56432e-08 2.2218e-21
2.93057e-07 5.85876e-08 -7.56662e-21
4.20006e-07 -3.65438e-07 -2.19251e-21
1.15164e-08 2.81994e-08 -9.63773e-20
2.84145e-08 8.81661e-09 -2.14668e-20
-3.91347e-07 2.89536e-07 -1.22122e-19
4.56818e-07 5.55385e-08 -1.02978e-20
-6.92388e-08 6.19156e-07 -4.46138e-20
-2.4004e-08 -1.24095e-07 -3.3737e-22
8.4269e-08 5.93507e-08 -1.82804e-20
3.64516e-07 3.8441e-07 2.21153e-20
6.60573e-09 2.94062e-09 -1.03338e-20
-7.02551e-08 3.49854e-07 -4.58947e-20
5.96703e-09 -3.19791e-09 -2.1415e-20
-4.21893e-08 2.87719e-08 6.65119e-20
9.10745e-08 3.70656e-08 -5.75404e-20
-3.36869e-07 1.04141e-07 1.27535e-20
1.95519e-07 3.43559e-07 -4.52899e-20
1.21634e-07 -5.49176e-07 8.50658e-20
2.85936e-08 7.49656e-08 3.91162e-20
-5.17404e-08 -3.07877e-08 5.62057e-20
4.28689e-08 1.37107e-07 -5.25577e-20
2.85037e-07 4.85047e-08 -2.29451e-20
-1.89213e-07 3.90904e-07 -1.01336e-19
5.0298e-07 -1.64389e-07 -6.97438e-20
-2.79132e-08 6.09428e-08 8.61896e-20
5.34995e-08 5.43332e-08 -7.34622e-20
-3.17966e-08 -7.33537e-08 -4.50901e-20
-1.27901e-08 -5.58911e-08 -8.72763e-20
1.47964e-07 1.77391e-08 7.45285e-21
-1.07918e-07 5.04808e-07 -2.75257e-20
-2.49629e-08 1.53989e-08 3.95689e-20
7.3804e-08 1.09373e-07 6.18557e-20
-3.6492e-08 -5.18035e-07 1.72003e-20
5.24055e-07 1.57349e-07 1.51066e-19
3.56826e-08 -6.30543e-08 3.3629e-20
-8.14653e-08 -9.31947e-09 1.36879e-22
-3.35186e-07 -1.34532e-07 -2.28116e-20
1.65772e-08 1.77318e-08 -2.68567e-20
-5.32421e-07 -1.862e-07 3.70843e-20
1.68291e-08 -1.76828e-08 7.01777e-20
-5.17716e-08 -3.64023e-07 1.11618e-19
2.24675e-07 8.5258e-09 7.18155e-20
-2.00131e-08 1.70794e-08 -1.64267e-19
5.37122e-09 2.45381e-08 -8.94887e-20
1.50293e-08 -6.58233e-08 -1.18387e-19
2.61072e-08 -1.22105e-08 3.07873e-20
4.88856e-10 2.64454e-08 3.48422e-20
2.28293e-08 -2.84984e-09 -1.89404e-20
4.25862e-08 -6.28247e-08 1.06698e-20
-1.09013e-07 -5.56009e-07 8.98074e-20
2.87996e-07 -2.21702e-07 -2.04415e-20
9.33368e-10 3.50912e-08 1.85995e-20
-2.42863e-08 -4.39354e-09 6.27458e-20
-7.90411e-09 -2.7165e-08 -3.38799e-20
-2.00279e-08 -1.41365e-08 -5.74628e-20
-2.69237e-07 3.36443e-07 -8.06687e-20
-3.09306e-10 -2.67272e-08 8.14455e-21
-3.36773e-07 5.28787e-07 -4.78695e-20
-1.26579e-07 5.82114e-08 3.63077e-20
1.77996e-08 1.91968e-08 8.15378e-20
-2.30106e-08 -1.34547e-08 4.33262e-20
1.64208e-07 3.96312e-07 -7.78486e-21
9.47535e-08 8.44462e-08 2.61281e-20
2.29976e-07 -7.5843e-08 9.97946e-20
1.29417e-08 -7.07673e-08 -3.94437e-20
-4.17256e-07 -3.84494e-07 2.50226e-20
-4.02352e-08 6.95366e-08 -1.82191e-20
1.0448e-07 5.57315e-08 6.28345e-20
1.52777e-07 -5.25979e-08 2.40718e-23
6.5978e-08 -1.318e-07 3.90461e-20
2.61538e-07 -1.20598e-07 -2.88671e-21
1.74013e-07 -8.21363e-08 -3.90648e-20
1.74892e-08 -1.44943e-08 4.22565e-20
3.03357e-07 2.39952e-07 2.9966e-20
-4.39152e-08 -1.27e-07 -5.77721e-20
-5.39401e-08 -4.61483e-08 -9.16107e-20
-8.81739e-09 -2.31482e-08 2.29264e-20
1.21138e-08 9.0616e-08 -9.74858e-20
-4.05748e-07 2.90904e-08 5.30836e-20
-1.48226e-07 -3.87325e-07 2.26682e-20
-6.38392e-08 8.13738e-08 -5.18228e-20
1.25534e-07 1.673e-07 3.34559e-20
3.12242e-07 -2.21463e-07 -5.50584e-20
-4.56449e-07 -2.44043e-07 -2.46498e-20
2.03065e-07 -3.30571e-07 -4.00413e-20
2.64421e-07 -3.25258e-07 -1.26321e-19
-7.7884e-08 7.71548e-09 -3.64354e-20
-2.32128e-07 -3.35909e-07 6.56865e-20
-4.06331e-07 -6.36838e-08 3.30172e-20
-4.84253e-08 -3.70808e-07 1.55738e-19
1.80759e-07 -3.73612e-07 -4.77291e-21
3.77946e-09 -5.13672e-08 -8.00114e-21
5.3715e-08 3.57726e-07 4.78498e-20
-1.91357e-07 -3.34757e-07 3.24948e-20
-1.79502e-08 -8.2149e-08 -5.52519e-20
-2.76624e-07 2.07093e-07 -3.54777e-20
-5.42e-08 -1.77702e-08 2.43305e-20
-4.22277e-08 -2.90199e-08 5.2247e-21
1.10414e-07 -5.66247e-08 -2.09486e-20
-1.51954e-08 2.15151e-08 7.51107e-21
5.8688e-08 -7.40753e-08 -4.17736e-20
-3.44208e-07 -1.53078e-07 -1.28085e-20
-4.56e-08 -6.14141e-08 -7.06468e-20
4.76574e-08 6.51504e-08 -4.74366e-20
2.48896e-07 3.43566e-07 3.02908e-20
-8.811e-08 -4.06312e-08 6.08277e-20
-3.82889e-07 -8.61476e-09 -1.04617e-20
-4.90851e-08 -4.55207e-08 2.62471e-20
-2.79453e-09 -6.59298e-08 -7.11099e-20
4.80805e-08 2.42515e-08 1.06747e-20
-5.54496e-08 5.46557e-08 1.54451e-19
-9.26045e-09 -9.70522e-08 -5.78896e-20
-5.11117e-07 1.25901e-07 -1.25077e-20
2.80189e-07 2.39027e-07 5.05863e-20
3.74383e-08 3.89289e-07 4.75237e-20
-2.25744e-08 7.76199e-09 -4.18701e-20
-7.53109e-08 2.34021e-09 2.35041e-20
3.45756e-08 6.6012e-08 -3.93069e-20
-2.73731e-08 -6.72028e-09 -4.76902e-20
3.23821e-09 -2.33353e-08 -9.40587e-20
-1.50596e-08 1.0273e-07 -2.617e-20
1.66897e-08 1.75839e-08 -1.60079e-20
-1.90228e-07 4.20502e-08 -2.31934e-20
-1.92919e-07 2.10497e-07 -7.86231e-20
-2.08299e-08 1.93305e-08 -4.20869e-20
-3.49006e-07 2.10631e-07 -5.26718e-20
-8.96246e-09 2.97452e-08 -8.46885e-20
9.42032e-08 -3.37467e-08 -2.639e-20
4.37493e-07 -4.02499e-08 4.25145e-20
-5.48496e-08 3.47064e-08 -1.89409e-20
2.21806e-08 1.02265e-08 -1.07953e-20
5.70893e-08 -3.57239e-08 -8.19636e-20
-9.79364e-08 3.26431e-08 1.57286e-20
-7.12731e-08 1.86859e-08 -9.16017e-20
2.50655e-08 -7.3208e-09 -4.71885e-20
2.31782e-07 -1.4096e-07 -2.82571e-21
-9.12257e-08 5.81657e-08 2.62158e-20
-2.72491e-07 -5.68226e-08 -1.12538e-22
-5.7921e-08 -3.04956e-08 2.39457e-20
2.21566e-08 -1.47078e-08 7.10235e-20
2.45436e-08 1.72414e-08 -4.49102e-20
-6.19323e-09 2.79024e-08 -1.53854e-20
-2.51251e-09 -3.14818e-08 7.01408e-20
-2.55464e-08 1.306e-08 -6.54184e-20
-2.85906e-08 -1.46486e-08 7.32524e-20
7.16226e-08 -2.70705e-08 4.43933e-20
-2.62105e-08 -7.20734e-09 2.36557e-20
-2.61549e-08 6.94227e-09 -7.25747e-23
-6.44758e-09 2.59851e-08 -1.60464e-20
-6.99963e-09 -2.65546e-08 -1.57542e-20
1.72834e-08 -1.93529e-08 5.33819e-20
1.66162e-08 1.85222e-08 -3.1992e-20
1.00266e-08 2.76609e-07 -5.28962e-21
5.36741e-08 -4.42737e-08 -4.43114e-20
1.2527e-08 -2.36245e-08 1.55571e-20
-2.08612e-07 7.71086e-09 -1.54918e-20
1.98099e-08 -1.88091e-08 5.00601e-20
1.84956e-08 1.91017e-08 3.69871e-20
2.83755e-08 -6.17364e-10 2.59228e-20
9.57581e-08 2.7106e-07 5.08219e-20
-1.43567e-08 -2.34786e-08 3.10413e-20
3.10435e-08 -7.10535e-08 3.65797e-20
-2.32797e-07 -1.28801e-07 -1.79978e-20
-5.11628e-08 -3.3212e-08 -2.10593e-20
-2.33646e-07 1.38574e-07 1.29069e-20
2.07228e-08 -2.12486e-08 6.8003e-20
-9.93183e-09 2.20752e-08 3.41577e-20
-5.46411e-09 -2.67855e-07 7.95587e-21
-8.76915e-08 -2.65289e-07 1.25292e-20
4.02038e-07 3.82643e-07 3.71303e-20
4.30034e-07 -2.44203e-08 5.47998e-20
-3.05105e-08 6.64377e-09 5.00528e-20
-2.87606e-07 -5.08241e-07 8.21536e-20
6.85831e-08 1.17592e-07 4.93393e-20
-2.757e-07 3.24716e-08 5.31542e-20
1.97931e-07 5.53468e-08 6.68473e-20
-2.70467e-08 -1.09397e-10 4.71607e-20
5.86264e-10 -2.8114e-08 -7.58616e-20
-2.45769e-09 -1.92342e-08 1.61028e-20
-2.3977e-08 -1.4264e-08 3.13385e-20
-5.96325e-07 -2.25978e-08 6.48279e-20
1.87431e-07 -2.11984e-07 -1.0929e-19
1.27465e-08 2.4724e-08 -6.59215e-20
6.51561e-09 -1.18365e-07 -3.65595e-20
-1.11799e-07 2.64763e-07 -1.4495e-19
2.29002e-09 2.97477e-08 -1.36448e-20
2.00005e-07 -1.43116e-07 4.59579e-20
-1.75986e-08 -7.69403e-09 8.29113e-21
-1.70073e-07 -2.21047e-07 5.59104e-20
2.3437e-08 1.19292e-08 4.96953e-20
5.54665e-08 5.36184e-08 -1.61998e-20
-3.94604e-08 -6.14711e-08 -8.16243e-21
2.42858e-08 -7.84983e-09 -7.84807e-21
8.21877e-08 -5.73757e-08 2.62631e-20
-4.88246e-09 4.58315e-08 7.74001e-20
6.76095e-08 -1.13951e-07 -3.15382e-20
6.17311e-07 3.11038e-08 4.98694e-21
-5.22972e-07 1.38369e-07 -4.4447e-20
4.38045e-08 3.0525e-08 2.93253e-20
-6.47964e-08 -1.56004e-07 6.44858e-20
-9.84989e-08 -6.42572e-08 -5.48833e-20
3.2058e-07 -3.22194e-09 3.56272e-20
2.74164e-09 -6.11788e-08 -2.66996e-20
-8.01249e-08 -2.82936e-08 -1.83289e-20
1.09254e-07 -2.61032e-07 3.8059e-20
8.71062e-09 1.05163e-07 -2.79146e-21
8.96694e-08 2.78078e-07 8.15615e-20
1.07627e-07 -5.67173e-08 -9.6804e-20
-1.9631e-07 2.08953e-07 -1.0248e-20
1.80513e-07 2.23056e-07 6.8791e-20
-1.13586e-08 5.0792e-09 1.33429e-19
1.86733e-09 4.84638e-08 -8.32746e-21
3.66066e-09 -2.19927e-08 1.00215e-20
-1.74084e-08 -1.44444e-08 1.05964e-20
-5.99576e-08 4.75382e-08 6.03363e-20
-2.75046e-07 -6.51671e-08 5.40642e-20
9.62768e-10 3.09204e-08 2.98395e-20
-7.19407e-08 2.14785e-08 -5.27831e-20
1.94884e-07 -2.82542e-08 2.0384e-20
-8.33336e-08 -2.69861e-07 -5.38214e-20
-1.64132e-07 2.61392e-07 -1.58351e-19
-4.63539e-08 2.14247e-08 -8.1718e-21
-2.19974e-07 -1.55648e-07 4.54422e-21
4.98012e-08 -2.33593e-08 -2.98061e-21
-2.98265e-07 -1.4605e-08 -1.79782e-20
1.46005e-07 -5.15199e-07 6.38149e-20
1.99499e-07 -2.09495e-07 -1.3154e-20
3.05034e-07 5.40822e-07 -5.7446e-20
-2.85655e-09 6.53808e-08 -3.15462e-20
2.61858e-08 -2.71722e-07 6.12456e-20
-1.06151e-08 6.42919e-09 5.47686e-20
-1.41417e-07 -2.63884e-07 -1.29685e-20
4.74583e-08 -4.06134e-08 3.73049e-20
-2.72825e-08 2.74857e-07 -1.32851e-19
6.62447e-08 -1.94489e-08 3.36863e-20
1.50729e-07 2.68614e-07 3.33217e-20
1.50972e-07 -3.52555e-09 1.29906e-19
2.7553e-07 -8.12967e-07 2.4459e-20
-5.83878e-08 -1.08701e-07 -3.10611e-21
-2.43498e-07 1.06098e-07 3.60313e-20
-3.4125e-08 1.67705e-08 7.71213e-20
2.31158e-07 1.54804e-07 8.19556e-20
1.64769e-07 -9.09658e-08 -3.12824e-20
8.71033e-08 3.82701e-08 3.15704e-20
-1.78153e-08 1.50521e-08 1.07319e-19
1.65261e-07 -2.55302e-07 1.25774e-20
-1.76186e-07 -2.19863e-07 1.07212e-19
2.27325e-07 8.96675e-08 7.50467e-25
5.78357e-08 -3.57492e-08 4.98977e-21
1.06273e-07 -2.64138e-07 8.18312e-20
1.24895e-07 -2.36776e-08 -3.42038e-20
-1.212e-07 -4.83551e-08 3.0911e-20
-5.27074e-09 -4.92028e-08 2.91221e-20
-2.77796e-07 3.85763e-08 -1.78738e-20
2.9187e-08 2.43698e-07 -6.41978e-20
1.9005e-07 4.43493e-08 7.70451e-21
-2.1588e-07 -9.66269e-08 2.06364e-20
-1.0615e-07 2.72185e-07 -1.02646e-19
-2.42622e-08 -2.37428e-07 7.50043e-20
6.27781e-08 3.06395e-08 -3.71957e-20
-4.07422e-08 1.14835e-07 -7.33107e-20
-1.94131e-07 1.39233e-07 3.87382e-20
2.49315e-07 1.25755e-07 -2.78955e-20
-1.13509e-07 -3.56606e-08 3.66264e-20
-2.75225e-08 -1.1689e-07 -1.56587e-20
1.90524e-07 2.21467e-07 6.40969e-20
-4.47976e-08 -2.03205e-08 2.95693e-20
6.2643e-07 -4.50435e-07 -4.32723e-20
1.32677e-07 -9.28243e-08 -4.15759e-20
1.08337e-07 5.30902e-07 -1.76003e-20
1.399e-07 -1.34494e-07 -1.03664e-20
-3.02423e-07 1.15171e-06 -2.30515e-21
-3.04176e-07 -1.14049e-06 7.13912e-21
7.47329e-07 9.82328e-07 4.83375e-20
7.38058e-07 -9.82065e-07 -3.47291e-20
1.22333e-06 -4.76775e-10 3.19224e-20
-1.05456e-06 4.24268e-07 3.70796e-20
-1.03708e-06 -4.28882e-07 3.44374e-20
5.04448e-08 2.73672e-08 3.96499e-20
3.23702e-08 1.5717e-08 -2.39741e-20
9.40135e-08 1.26617e-08 5.67806e-20
1.65974e-07 8.87013e-08 3.37263e-20
4.92335e-08 1.96113e-07 -3.6208e-20
-1.77933e-07 -1.52869e-07 4.91873e-21
8.96127e-08 -8.26054e-08 -5.98933e-20
1.91187e-07 1.53435e-07 -4.12677e-20
-4.42133e-08 2.41375e-07 -1.07733e-19
3.13959e-08 -1.54204e-08 -4.53967e-20
4.49981e-08 -2.31635e-07 5.28797e-21
5.88035e-08 3.96476e-08 -1.13762e-19
3.44823e-07 1.20796e-07 1.49318e-20
7.73569e-09 2.48284e-08 5.68776e-21
1.33281e-07 4.3624e-08 -2.3292e-20
-1.64953e-07 9.12457e-08 5.41613e-20
-2.2584e-07 7.81283e-08 -6.13192e-20
4.47229e-08 -3.06397e-08 -3.21921e-20
-1.44195e-07 -6.67266e-08 1.05909e-20
-1.5843e-07 -9.38408e-08 3.64554e-20
-1.38865e-08 -1.59044e-07 2.60726e-20
6.26671e-10 -1.82661e-07 -2.64921e-21
-2.01107e-07 -8.6935e-09 4.10107e-20
2.98478e-07 -4.6343e-08 7.33552e-21
1.61031e-07 9.92429e-08 9.3023e-20
-1.33256e-07 9.09034e-08 5.40757e-20
-6.00897e-08 2.94174e-08 2.10436e-20
1.50297e-07 -1.34671e-07 1.26063e-20
-1.12924e-07 1.75828e-07 -2.82651e-20
-1.39105e-07 -1.46531e-07 -2.33177e-20
-1.31823e-08 1.91525e-07 -1.26645e-19
-2.86537e-08 1.6165e-07 -5.48317e-20
4.72377e-09 -1.17359e-07 -1.18829e-22
6.05425e-08 -1.95678e-07 -5.38236e-21
-9.8962e-08 -6.35087e-08 -4.82403e-21
1.37105e-07 -3.91008e-08 4.13617e-20
3.36068e-10 1.91288e-07 -4.44805e-20
-4.13717e-09 1.22229e-07 -7.08719e-20
-3.07166e-08 1.37486e-07 -3.1341e-20
2.25011e-07 -5.53751e-08 5.93616e-20
-4.7264e-08 4.51209e-08 5.81266e-20
5.10006e-08 1.91444e-07 -2.87638e-20
-3.08277e-08 1.94576e-08 1.15357e-19
1.13631e-07 5.26906e-07 -1.13467e-19
-5.57503e-08 3.00936e-08 -2.08492e-20
5.91505e-08 -3.07901e-08 -1.05835e-19
1.70123e-08 1.6268e-07 5.69166e-20
-1.90783e-07 4.53189e-08 -3.85177e-20
-5.86341e-09 -8.27086e-08 -3.95954e-20
7.86918e-09 -7.517e-07 2.40266e-20
2.28365e-08 1.37912e-07 -2.11571e-20
-1.42527e-07 1.3559e-07 3.59522e-20
2.21313e-07 8.23116e-07 -6.17553e-20
1.0634e-08 7.00202e-09 -6.78462e-20
9.18771e-09 -6.67804e-09 -1.65263e-20
1.07304e-07 -8.36769e-08 -9.38663e-20
-1.52307e-07 1.3637e-07 -3.06859e-20
-1.82818e-07 -5.40049e-08 -7.57386e-21
-1.87864e-07 -6.17012e-08 6.69366e-20
-3.73725e-09 2.29943e-09 6.65784e-20
-2.58029e-09 -1.23993e-09 -7.92188e-21
8.77555e-08 1.78321e-08 -5.28018e-20
2.78507e-08 1.2808e-07 -2.87351e-20
-3.21881e-09 1.27352e-07 -3.41853e-20
-6.29609e-07 -4.57346e-07 1.2015e-20
1.11768e-07 -1.75792e-07 2.30891e-20
5.65401e-08 2.03685e-08 -1.85639e-20
-2.0735e-07 -2.23066e-08 3.34863e-20
-1.31107e-07 1.73209e-07 -8.7563e-20
-1.69258e-07 7.9587e-08 6.45498e-20
6.18126e-07 4.44135e-07 5.03627e-20
6.11813e-08 4.02147e-08 -8.17843e-20
-6.01702e-08 1.96384e-07 -1.18437e-19
-1.1862e-07 -1.01601e-07 3.66955e-20
2.95072e-08 -1.54714e-07 2.85568e-20
-9.59817e-08 -1.82617e-07 -2.84513e-20
-1.53807e-07 -1.05424e-07 -4.92505e-20
1.05414e-07 -1.8695e-07 6.9602e-20
1.26451e-07 -1.73775e-07 -5.07303e-21
-4.00751e-08 -7.84413e-07 8.08664e-20
3.22517e-07 -5.15877e-07 -9.93842e-20
1.54086e-08 -1.87811e-07 -6.95846e-20
1.32446e-07 1.00826e-07 5.97465e-20
-1.18971e-07 -1.44413e-07 -2.65801e-21
-1.0318e-07 1.92361e-07 -5.99429e-20
-6.33904e-08 1.88538e-07 -1.06414e-19
1.38099e-07 1.43e-07 7.24852e-20
6.77023e-08 -1.76348e-07 1.55136e-20
-1.75035e-07 -4.99076e-07 -2.70809e-20
3.94547e-09 6.06537e-08 7.94105e-21
1.39808e-07 1.43862e-07 5.89325e-20
-7.53719e-08 -3.71174e-08 7.74873e-21
-6.26294e-08 3.41914e-08 1.83097e-20
5.6041e-07 -2.45506e-07 -1.26924e-20
6.96088e-08 -1.15042e-07 1.29848e-20
-6.60688e-08 -1.13027e-07 -3.39477e-20
2.50809e-08 -2.16819e-09 -5.2616e-21
2.16693e-09 -9.50665e-09 2.70374e-20
-7.03198e-09 -6.958e-09 4.93773e-20
3.08799e-08 2.0242e-08 -2.91558e-20
-9.67895e-08 -1.82712e-07 4.12155e-20
1.48944e-07 5.97342e-08 -1.79755e-20
-3.62412e-07 -3.98426e-07 3.43442e-20
1.37042e-09 1.16844e-08 5.77685e-21
1.35176e-09 2.08327e-09 -1.07963e-19
2.60741e-09 -3.44817e-10 3.08504e-20
3.47768e-07 -6.86759e-07 -2.91055e-22
-1.44581e-08 1.70298e-08 2.87747e-21
-3.31694e-09 2.06312e-08 1.54357e-19
-1.49761e-07 5.32383e-08 -4.42563e-20
-5.17435e-09 6.08372e-08 -4.23573e-20
-3.29023e-08 9.75583e-08 3.72989e-22
6.78271e-08 2.89342e-09 1.26121e-20
1.52963e-08 5.86504e-08 -1.85419e-20
-4.00973e-09 8.11011e-08 -6.61425e-20
1.16247e-07 6.32446e-08 -3.63724e-20
8.28015e-09 7.4819e-07 -4.62434e-20
-1.08154e-07 1.02337e-07 5.17722e-20
8.10985e-08 -5.45258e-08 -7.04025e-20
4.68215e-08 -4.27479e-08 -2.84731e-20
-7.67388e-07 -1.05365e-07 1.93871e-20
-2.18778e-08 8.67119e-09 4.03715e-20
-5.5878e-07 -6.60986e-07 2.73703e-21
1.01571e-08 2.71955e-08 2.85513e-21
9.80204e-08 1.90614e-08 5.1828e-20
2.9181e-07 -3.78724e-08 1.51563e-20
-6.67104e-08 -1.0962e-07 -6.72301e-22
1.2755e-07 3.65847e-08 -7.04959e-20
6.65748e-10 -3.24645e-08 6.41682e-20
-7.1938e-08 8.32288e-08 7.31307e-20
-2.75122e-08 -1.75038e-08 6.70131e-20
-6.48376e-08 1.31726e-07 -3.10572e-20
1.17295e-08 8.31451e-08 4.69778e-20
1.90655e-08 1.39751e-08 2.72198e-20
1.89212e-08 -1.34253e-08 5.51465e-21
-5.20224e-07 -1.41719e-07 -1.96491e-20
5.73153e-08 2.1389e-08 7.28734e-20
-6.90014e-08 1.33549e-06 -2.90028e-20
-4.80099e-09 -1.37208e-06 -3.34124e-20
6.75359e-07 1.15613e-06 2.28624e-21
-7.0102e-08 5.56112e-08 3.68657e-20
-3.57862e-07 7.20194e-07 2.40712e-20
6.79238e-07 -1.11588e-06 2.64317e-20
-1.12327e-07 -1.81802e-07 3.08294e-20
1.03145e-06 9.03788e-07 -2.42689e-22
1.21302e-08 -2.15142e-08 -6.50484e-20
-1.2639e-08 -2.18e-08 -2.12945e-20
1.08121e-06 -8.83666e-07 -5.74821e-20
-6.62596e-08 1.30307e-07 -4.91656e-20
-6.79173e-07 -4.32546e-07 2.4202e-21
-5.7272e-07 -1.19371e-06 2.1162e-21
-3.20778e-07 -7.3796e-07 -4.64252e-21
-5.8877e-07 1.21358e-06 -2.87522e-20
-1.39139e-07 8.22404e-07 -1.75843e-20
-9.80688e-10 2.88069e-08 3.25752e-20
-3.57252e-07 4.59952e-07 -4.47347e-20
-3.42023e-07 -7.00021e-07 -5.80368e-20
1.33e-06 2.32088e-07 4.06151e-20
-1.04012e-07 8.84256e-08 3.88486e-20
-2.44496e-09 5.84254e-08 -8.14845e-21
-6.4334e-07 4.65734e-07 2.22812e-21
-1.1535e-07 6.15645e-08 -4.71389e-20
1.31689e-06 -2.06432e-07 4.58225e-21
-8.80399e-08 5.90987e-08 2.83547e-20
6.41302e-08 -1.32628e-07 -3.37309e-20
-1.02481e-06 -7.78351e-07 -2.60062e-21
-3.45559e-07 7.40411e-07 9.06857e-21
-1.04964e-06 7.72635e-07 -5.51425e-20
3.06692e-07 6.84199e-07 -1.45204e-20
-1.1292e-07 8.97625e-08 6.42773e-20
-3.13396e-08 1.77503e-08 1.05629e-20
-1.71751e-09 -2.72415e-09 1.65396e-19
4.28889e-10 -2.35418e-09 1.31878e-19
8.5841e-09 9.01441e-08 -2.12671e-20
-2.51838e-09 2.72856e-09 -1.12104e-20
1.32644e-09 3.38044e-09 5.51497e-20
2.27046e-09 -9.73224e-10 1.09649e-20
-1.34365e-09 1.06803e-08 5.79295e-20
-2.3599e-07 5.14879e-07 3.17369e-20
-1.77541e-08 1.27457e-08 5.37519e-20
3.06001e-08 -1.92762e-08 -7.69465e-20
2.99942e-08 -1.73745e-08 8.15257e-21
8.6398e-08 3.37185e-08 -9.70967e-20
-8.14593e-10 -9.14107e-09 -3.71717e-22
-8.16235e-09 -4.13639e-09 5.54607e-21
2.99766e-08 1.74865e-08 -1.5743e-20
7.62647e-07 -1.46982e-07 4.55357e-20
-9.88198e-08 -1.25961e-07 4.34911e-20
-6.6771e-07 4.6551e-07 -4.88941e-21
-5.97833e-07 6.81861e-07 4.39962e-20
8.05856e-07 -2.91024e-07 -2.23303e-20
-3.87053e-09 -1.12193e-08 1.3797e-20
-4.25014e-09 1.15245e-08 1.62302e-20
-1.26673e-08 2.17214e-09 5.68042e-20
-8.30341e-09 8.47401e-09 -2.7457e-20
-1.14832e-08 -2.42976e-09 -3.80931e-20
2.13002e-09 2.69613e-09 3.59659e-20
1.23259e-08 -3.03008e-09 -2.65569e-21
5.19943e-09 -3.65373e-09 2.66065e-21
-3.63232e-09 -2.6248e-09 -1.35293e-20
7.88058e-09 -8.10739e-09 -2.13058e-20
7.92427e-09 8.34875e-09 6.53994e-20
-3.65447e-09 2.30783e-09 1.10843e-20
4.01388e-09 -7.98665e-10 6.90196e-20
6.65438e-09 3.68475e-09 -2.13908e-20
1.44053e-08 5.13845e-09 5.70946e-21
SCALARS rr_necrosis float
LOOKUP_TABLE default
0
0
0
0
0
0
0
0
0
0
0
0
0
0
0
0
0
0
0
0
0
0
0
0
0
0
0
0
0
0
0
0
0
0
0
0
0
0
0
0
0
0
0
0
0
0
0
0
0
0
0
0
0
0
0
0
0
0
0
0
0
0
0
0
0
0
0
0
0
0
0
0
0
0
0
0
0
0
0
0
0
0
0
0
0
0
0
0
0
0
0
0
0
0
0
0
0
0
0
0
0
0
0
0
0
0
0
0
0
0
0
0
0
0
0
0
0
0
0
0
0
0
0
0
0
0
0
0
0
0
0
0
0
0
0
0
0
0
0
0
0
0
0
0
0
0
0
0
0
0
0
0
0
0
0
0
0
0
0
0
0
0
0
0
0
0
0
0
0
0
0
0
0
0
0
0
0
0
0
0
0
0
0
0
0
0
0
0
0
0
0
0
0
0
0
0
0
0
0
0
0
0
0
0
0
0
0
0
0
0
0
0
0
0
0
0
0
0
0
0
0
0
0
0
0
0
0
0
0
0
0
0
0
0
0
0
0
0
0
0
0
0
0
0
0
0
0
0
0
0
0
0
0
0
0
0
0
0
0
0
0
0
0
0
0
0
0
0
0
0
0
0
0
0
0
0
0
0
0
0
0
0
0
0
0
0
0
0
0
0
0
0
0
0
0
0
0
0
0
0
0
0
0
0
0
0
0
0
0
0
0
0
0
0
0
0
0
0
0
0
0
0
0
0
0
0
0
0
0
0
0
0
0
0
0
0
0
0
0
0
0
0
0
0
0
0
0
0
0
0
0
0
0
0
0
0
0
0
0
0
0
0
0
0
0
0
0
0
0
0
0
0
0
0
0
0
0
0
0
0
0
0
0
0
0
0
0
0
0
0
0
0
0
0
0
0
0
0
0
0
0
0
0
0
0
0
0
0
0
0
0
0
0
0
0
0
0
0
0
0
0
0
0
0
0
0
0
0
0
0
0
0
0
0
0
0
0
0
0
0
0
0
0
0
0
0
0
0
0
0
0
0
0
0
0
0
0
0
0
0
0
0
0
0
0
0
0
0
0
0
0
0
0
0
0
0
0
0
0
0
0
0
0
0
0
0
0
0
0
0
0
0
0
0
0
0
0
0
0
0
0
0
0
0
0
0
0
0
0
0
0
0
0
0
0
0
0
0
0
0
0
0
0
0
0
0
0
0
0
0
0
0
0
0
0
0
0
0
0
0
0
0
0
0
0
0
0
0
0
0
0
0
0
0
0
0
0
0
0
0
0
0
0
SCALARS rr_protein float
LOOKUP_TABLE default
1
1
1
1
1
1
1
1
1
1
1
1
1
1
1
1
1
1
1
1
1
1
1
1
1
1
1
1
1
1
1
1
1
1
1
1
1
1
1
1
1
1
1
1
1
1
1
1
1
1
1
1
1
1
1
1
1
1
1
1
1
1
1
1
1
1
1
1
1
1
1
1
1
1
1
1
1
1
1
1
1
1
1
1
1
1
1
1
1
1
1
1
1
1
1
1
1
1
1
1
1
1
1
1
1
1
1
1
1
1
1
1
1
1
1
1
1
1
1
1
1
1
1
1
1
1
1
1
1
1
1
1
1
1
1
1
1
1
1
1
1
1
1
1
1
1
1
1
1
1
1
1
1
1
1
1
1
1
1
1
1
1
1
1
1
1
1
1
1
1
1
1
1
1
1
1
1
1
1
1
1
1
1
1
1
1
1
1
1
1
1
1
1
1
1
1
1
1
1
1
1
1
1
1
1
1
1
1
1
1
1
1
1
1
1
1
1
1
1
1
1
1
1
1
1
1
1
1
1
1
1
1
1
1
1
1
1
1
1
1
1
1
1
1
1
1
1
1
1
1
1
1
1
1
1
1
1
1
1
1
1
1
1
1
1
1
1
1
1
1
1
1
1
1
1
1
1
1
1
1
1
1
1
1
1
1
1
1
1
1
1
1
1
1
1
1
1
1
1
1
1
1
1
1
1
1
1
1
1
1
1
1
1
1
1
1
1
1
1
1
1
1
1
1
1
1
1
1
1
1
1
1
1
1
1
1
1
1
1
1
1
1
1
1
1
1
1
1
1
1
1
1
1
1
1
1
1
1
1
1
1
1
1
1
1
1
1
1
1
1
1
1
1
1
1
1
1
1
1
1
1
1
1
1
1
1
1
1
1
1
1
1
1
1
1
1
1
1
1
1
1
1
1
1
1
1
1
1
1
1
1
1
1
1
1
1
1
1
1
1
1
1
1
1
1
1
1
1
1
1
1
1
1
1
1
1
1
1
1
1
1
1
1
1
1
1
1
1
1
1
1
1
1
1
1
1
1
1
1
1
1
1
1
1
1
1
1
1
1
1
1
1
1
1
1
1
1
1
1
1
1
1
1
1
1
1
1
1
1
1
1
1
1
1
1
1
1
1
1
1
1
1
1
1
1
1
1
1
1
1
1
1
1
1
1
1
1
1
1
1
1
1
1
1
1
1
1
1
1
1
1
1
1
1
1
1
1
1
1
1
1
1
1
1
1
1
1
1
1
1
1
1
1
1
1
1
1
1
1
1
1
1
1
SCALARS rr_(S_ext) float
LOOKUP_TABLE default
0.989688
0.989612
0.989623
0.989611
0.98961
0.989622
0.989687
0.98962
0.98963
0.989616
0.989655
0.98962
0.989622
0.989616
0.989608
0.989623
0.989612
0.989617
0.989629
0.989623
0.989628
0.989593
0.989623
0.989623
0.989623
0.989616
0.989662
0.989622
0.989645
0.989599
0.989623
0.989644
0.989665
0.989602
0.989604
0.989602
0.989596
0.989605
0.989623
0.989665
0.989644
0.989596
0.989596
0.989622
0.989651
0.989646
0.989629
0.989629
0.989622
0.989646
0.989646
0.989641
0.989607
0.989643
0.989608
0.989661
0.989604
0.989642
0.989604
0.989622
0.98961
0.989612
0.989666
0.989614
0.989612
0.989617
0.98961
0.989617
0.989623
0.989611
0.989607
0.989607
0.989646
0.989616
0.989624
0.989664
0.989612
0.989617
0.989616
0.989637
0.989653
0.989609
0.989611
0.989652
0.989647
0.989656
0.989622
0.989618
0.989651
0.989596
0.989642
0.989596
0.98961
0.989617
0.989643
0.989644
0.989655
0.989615
0.989612
0.989622
0.989636
0.989647
0.989651
0.989615
0.989616
0.989615
0.989611
0.989623
0.989652
0.989608
0.989622
0.989652
0.989651
0.989616
0.989616
0.989644
0.989606
0.989656
0.989607
0.989643
0.989631
0.989607
0.989611
0.989613
0.989608
0.989607
0.989607
0.989615
0.989655
0.989642
0.989605
0.989611
0.98961
0.989611
0.989648
0.989603
0.989659
0.989622
0.98961
0.989603
0.989646
0.98962
0.989632
0.989615
0.989657
0.989615
0.98962
0.989625
0.989623
0.989636
0.989628
0.989611
0.989643
0.989622
0.989615
0.989611
0.989616
0.989648
0.989647
0.989619
0.989629
0.989643
0.989654
0.989644
0.989645
0.989615
0.989647
0.989648
0.989644
0.989646
0.989609
0.989642
0.989645
0.989616
0.989642
0.989611
0.989609
0.989621
0.989609
0.989618
0.989646
0.989615
0.989615
0.989646
0.989617
0.989646
0.989613
0.989613
0.989611
0.989615
0.989617
0.989655
0.989641
0.989644
0.989611
0.989617
0.989616
0.98961
0.989611
0.989617
0.989611
0.989629
0.989637
0.98961
0.989647
0.98961
0.989618
0.989646
0.989612
0.989611
0.989614
0.989618
0.989616
0.989611
0.989635
0.989619
0.989637
0.989614
0.989608
0.989608
0.989607
0.989608
0.989608
0.989608
0.989616
0.989607
0.989607
0.989606
0.989607
0.989609
0.989608
0.989635
0.989615
0.989608
0.98963
0.989608
0.989608
0.989608
0.989636
0.989608
0.989615
0.989636
0.989611
0.989636
0.989611
0.989607
0.989635
0.989637
0.989653
0.989646
0.989611
0.989658
0.989622
0.989637
0.989629
0.989608
0.989608
0.989598
0.989608
0.989661
0.989636
0.989607
0.98962
0.989637
0.989608
0.989633
0.989598
0.989637
0.989608
0.989614
0.989616
0.989608
0.989618
0.989608
0.98962
0.989655
0.989656
0.989611
0.989626
0.98962
0.989638
0.989611
0.989617
0.989636
0.989618
0.989636
0.98962
0.989637
0.989636
0.989596
0.989609
0.989606
0.989606
0.989616
0.989637
0.989602
0.989614
0.989628
0.989636
0.989638
0.98961
0.989636
0.989611
0.989639
0.989651
0.989636
0.989657
0.989613
0.989635
0.989595
0.989638
0.989613
0.989636
0.989614
0.989638
0.989623
0.989671
0.989621
0.989636
0.989608
0.989635
0.989628
0.989617
0.989611
0.989637
0.989637
0.989632
0.989615
0.989636
0.989621
0.989622
0.98961
0.989637
0.989633
0.989628
0.989633
0.989637
0.989632
0.989613
0.98962
0.989633
0.989635
0.98962
0.98962
0.989636
0.98961
0.989658
0.989625
0.989654
0.989628
0.989653
0.989654
0.989652
0.989652
0.98965
0.989658
0.989659
0.989613
0.989605
0.989618
0.989627
0.989629
0.989633
0.989621
0.989632
0.989633
0.989605
0.989632
0.989613
0.989641
0.989607
0.989623
0.989628
0.989633
0.989612
0.989625
0.989628
0.989624
0.989627
0.98963
0.989637
0.989627
0.989625
0.989612
0.989629
0.98963
0.98963
0.989628
0.989625
0.98962
0.989629
0.98962
0.989623
0.989628
0.98962
0.989623
0.989631
0.989613
0.989628
0.989605
0.989652
0.989613
0.989613
0.989625
0.989629
0.989616
0.989659
0.989622
0.989629
0.98967
0.989599
0.9896
0.989623
0.98963
0.989628
0.98963
0.989597
0.989596
0.989617
0.989621
0.989621
0.989664
0.98963
0.989613
0.98963
0.989631
0.989628
0.989657
0.989615
0.98963
0.989625
0.989624
0.98963
0.989628
0.98963
0.98963
0.989665
0.989657
0.989627
0.989625
0.989628
0.98963
0.989628
0.989628
0.989628
0.989653
0.98961
0.989629
0.989616
0.989615
0.989654
0.989622
0.989622
0.98961
0.989592
0.989592
0.989608
0.98963
0.989624
0.989654
0.989593
0.989593
0.989593
0.989657
0.989604
0.989598
0.989625
0.989611
0.989619
0.989614
0.989612
0.989614
0.989622
0.989658
0.989623
0.989618
0.989614
0.989664
0.9896
0.989675
0.989611
0.989618
0.989636
0.989621
0.989622
0.989605
0.989619
0.989605
0.989623
0.989615
0.9896
0.989602
0.989656
0.989614
0.989687
0.98969
0.989685
0.989616
0.989664
0.989683
0.989631
0.989685
0.989608
0.989609
0.989687
0.989624
0.989668
0.989691
0.989665
0.989691
0.989665
0.989604
0.989656
0.989663
0.989685
0.989622
0.989612
0.989666
0.989622
0.989681
0.989618
0.989625
0.989691
0.989665
0.989689
0.989656
0.989623
0.989606
0.989591
0.989591
0.989617
0.989591
0.989591
0.989591
0.989594
0.989655
0.9896
0.989609
0.989607
0.989618
0.989594
0.989594
0.989608
0.989656
0.989625
0.989665
0.989677
0.98967
0.989593
0.989593
0.989594
0.989594
0.989593
0.989594
0.989598
0.989595
0.989595
0.989596
0.989596
0.989595
0.989593
0.989594
0.989596
SCALARS rr_(P_ext) float
LOOKUP_TABLE default
0.021362
0.0212614
0.0212703
0.0212632
0.0212361
0.0212705
0.0213623
0.0212645
0.0212787
0.0212618
0.0213554
0.0212644
0.0212665
0.0212605
0.0212453
0.0212688
0.0212569
0.0212656
0.0212832
0.0212728
0.0212742
0.0212014
0.021274
0.0212726
0.0212729
0.0212639
0.0213414
0.0212692
0.0213106
0.0212218
0.0212669
0.0213104
0.0213428
0.0212278
0.0212249
0.0212279
0.0212207
0.0212262
0.021267
0.0213425
0.0213109
0.0212203
0.0212204
0.0212668
0.0213332
0.0213092
0.0212811
0.0212771
0.0212701
0.0213168
0.0213132
0.0213004
0.0212375
0.0213001
0.0212383
0.0213302
0.0212246
0.0213001
0.0212247
0.0212723
0.0212572
0.0212489
0.021335
0.0212495
0.0212488
0.021257
0.0212569
0.0212638
0.0212734
0.0212611
0.0212377
0.0212377
0.0213109
0.0212538
0.02127
0.0213471
0.0212435
0.0212571
0.0212639
0.0212981
0.0213189
0.0212329
0.021253
0.0213217
0.0213077
0.0213321
0.0212692
0.0212554
0.021333
0.0212064
0.0213003
0.0212065
0.0212429
0.0212581
0.0212994
0.0213142
0.0213188
0.021262
0.0212437
0.0212674
0.021289
0.0213053
0.0213219
0.0212646
0.0212628
0.0212626
0.0212518
0.0212682
0.0213221
0.0212599
0.0212722
0.0213299
0.0213254
0.0212652
0.0212631
0.0212998
0.0212248
0.0213192
0.021225
0.0212995
0.0212854
0.0212465
0.0212615
0.0212551
0.0212592
0.0212445
0.0212282
0.021262
0.0213188
0.0212994
0.0212376
0.0212621
0.0212535
0.0212617
0.0213052
0.0212246
0.0213243
0.0212658
0.021253
0.0212247
0.0213041
0.0212616
0.0212839
0.0212617
0.0213196
0.0212635
0.0212631
0.0212701
0.0212704
0.021292
0.0212773
0.0212614
0.0213106
0.0212664
0.0212618
0.021262
0.021259
0.0213031
0.0213028
0.0212665
0.0212769
0.0213099
0.0213307
0.0213132
0.0213032
0.0212626
0.0213031
0.0213033
0.0213106
0.021303
0.0212427
0.0213001
0.0213134
0.0212581
0.0212999
0.0212522
0.0212428
0.0212645
0.0212371
0.0212625
0.0213105
0.0212621
0.0212622
0.0213039
0.0212552
0.0213141
0.0212552
0.0212517
0.0212423
0.021262
0.0212551
0.0213177
0.0212999
0.0213105
0.0212618
0.0212659
0.0212654
0.0212536
0.0212616
0.0212573
0.0212614
0.021282
0.0212974
0.0212537
0.0213104
0.0212531
0.0212571
0.0213059
0.0212477
0.0212612
0.0212468
0.02126
0.0212632
0.0212529
0.0212916
0.0212592
0.0212964
0.0212517
0.0212594
0.0212594
0.0212605
0.0212601
0.02126
0.0212601
0.0212611
0.021246
0.0212463
0.021246
0.0212459
0.0212381
0.021238
0.0212923
0.0212608
0.021264
0.0212775
0.0212453
0.021245
0.0212637
0.0212971
0.0212644
0.021262
0.0212912
0.0212475
0.0212917
0.0212527
0.0212647
0.021291
0.0212959
0.0213192
0.0213184
0.0212529
0.0213211
0.0212676
0.0212965
0.0212826
0.0212645
0.0212596
0.0212198
0.0212599
0.0213218
0.0212964
0.0212641
0.0212644
0.0212976
0.0212597
0.0212834
0.0212199
0.0212962
0.0212592
0.0212557
0.0212654
0.0212456
0.0212556
0.0212375
0.0212666
0.0213284
0.0213321
0.0212403
0.0212739
0.0212645
0.0212916
0.0212474
0.0212582
0.0212963
0.0212579
0.0212886
0.0212626
0.0212886
0.0212969
0.0212121
0.0212417
0.021245
0.0212452
0.0212611
0.0212878
0.0212289
0.0212561
0.0212766
0.0212875
0.0212906
0.0212403
0.0212913
0.0212429
0.0212896
0.0213329
0.021288
0.0213201
0.0212515
0.0212912
0.0212122
0.0212895
0.0212538
0.0212924
0.0212547
0.0212898
0.0212692
0.0213366
0.0212712
0.0212915
0.0212407
0.021292
0.0212765
0.0212547
0.0212611
0.0212897
0.0212879
0.0212837
0.0212516
0.0212881
0.0212645
0.0212691
0.0212377
0.0212879
0.0212842
0.0212751
0.0212831
0.021289
0.0212829
0.0212486
0.0212647
0.0212838
0.0212917
0.0212619
0.0212617
0.0212884
0.0212378
0.0213589
0.0212695
0.021319
0.0212746
0.0214121
0.021412
0.0214114
0.0214116
0.0214113
0.0214124
0.0214119
0.0212511
0.0212316
0.0212663
0.021277
0.0212826
0.0212832
0.0212626
0.0212838
0.0212843
0.0212314
0.0212832
0.021247
0.0213003
0.0212476
0.0212707
0.0212772
0.0212835
0.0212401
0.0212695
0.0212765
0.0212694
0.0212763
0.021284
0.0212985
0.0212772
0.0212704
0.0212467
0.0212817
0.0212849
0.0212821
0.0212778
0.0212707
0.0212625
0.0212822
0.0212626
0.0212715
0.0212775
0.0212643
0.0212713
0.0212834
0.0212548
0.0212755
0.0212325
0.0213328
0.0212512
0.0212486
0.0212706
0.0212753
0.0212572
0.0213577
0.0212706
0.0212757
0.0213361
0.0212128
0.0212125
0.0212695
0.0212827
0.0212745
0.0212817
0.0211975
0.0211975
0.0212642
0.0212641
0.0212646
0.0213579
0.0212843
0.0212534
0.0212775
0.0212784
0.0212776
0.0213595
0.0212553
0.0212833
0.0212698
0.0212698
0.0212785
0.0212766
0.0212785
0.0212777
0.0213419
0.0213199
0.0212767
0.0212696
0.0212754
0.0212789
0.0212761
0.0212749
0.0212754
0.0213328
0.0212453
0.0212822
0.0212575
0.0212548
0.0213334
0.0212702
0.021271
0.0212377
0.0212134
0.0212134
0.0212418
0.0212845
0.0212701
0.0213344
0.0212154
0.0211997
0.0211998
0.0213606
0.0212262
0.0212218
0.0212711
0.0212434
0.0212664
0.0212612
0.0212545
0.021252
0.0212645
0.0213579
0.0212686
0.0212583
0.0212536
0.0213477
0.021225
0.0213378
0.0212539
0.0212609
0.0212902
0.0212669
0.0212649
0.0212368
0.0212635
0.0212369
0.0212696
0.0212535
0.0212234
0.0212227
0.0213341
0.0212599
0.0213639
0.021362
0.0213661
0.0212554
0.0213591
0.0213681
0.0212788
0.021365
0.0212326
0.0212327
0.0213635
0.0212749
0.0213416
0.0213645
0.0213435
0.0213648
0.0213435
0.0212256
0.0213378
0.0213587
0.0213637
0.0212653
0.0212499
0.0213451
0.0212651
0.0213675
0.0212619
0.0212743
0.0213655
0.0213466
0.021367
0.0213606
0.0212715
0.0212309
0.0212015
0.0212028
0.0212602
0.0212018
0.0212018
0.0212023
0.0212101
0.0213359
0.0212241
0.0212411
0.0212308
0.0212614
0.021208
0.0212081
0.021229
0.0213617
0.0212752
0.0213605
0.0213394
0.0213387
0.0212165
0.0212168
0.0212175
0.0212173
0.0212166
0.0212033
0.0212173
0.021208
0.0212013
0.0212163
0.0212162
0.0212009
0.021203
0.0212076
0.0212181
SCALARS rr_(S) float
LOOKUP_TABLE default
0.970954
0.970831
0.970846
0.970831
0.970818
0.970846
0.970954
0.970841
0.970857
0.970835
0.97092
0.970841
0.970843
0.970835
0.970819
0.970845
0.970829
0.970838
0.970858
0.970847
0.970852
0.970785
0.970848
0.970847
0.970847
0.970836
0.970919
0.970844
0.970887
0.9708
0.970844
0.970886
0.970923
0.970805
0.970806
0.970805
0.970797
0.970808
0.970844
0.970923
0.970887
0.970796
0.970796
0.970843
0.970905
0.970887
0.970857
0.970855
0.970845
0.970892
0.970889
0.970879
0.970815
0.97088
0.970816
0.970912
0.970806
0.970879
0.970806
0.970846
0.970828
0.970825
0.97092
0.970827
0.970825
0.970834
0.970827
0.970837
0.970848
0.970831
0.970815
0.970815
0.970888
0.970831
0.970846
0.970924
0.970823
0.970834
0.970836
0.970873
0.970899
0.970815
0.970826
0.9709
0.970888
0.970909
0.970844
0.970834
0.970904
0.97079
0.970879
0.97079
0.97082
0.970835
0.970879
0.970888
0.970901
0.970834
0.970823
0.970844
0.970868
0.970887
0.970899
0.970836
0.970836
0.970835
0.970826
0.970845
0.9709
0.970826
0.970846
0.970903
0.970901
0.970837
0.970835
0.97088
0.970809
0.970903
0.970809
0.970879
0.970861
0.970819
0.97083
0.970829
0.970827
0.970818
0.97081
0.970834
0.970901
0.970878
0.970813
0.970831
0.970825
0.97083
0.970887
0.970805
0.970908
0.970843
0.970825
0.970805
0.970885
0.970839
0.970862
0.970834
0.970903
0.970835
0.97084
0.970848
0.970846
0.970869
0.970854
0.97083
0.970885
0.970843
0.970834
0.970831
0.970834
0.970886
0.970885
0.97084
0.970855
0.970885
0.970906
0.970887
0.970884
0.970835
0.970885
0.970886
0.970887
0.970884
0.970819
0.970879
0.970889
0.970834
0.970879
0.970826
0.97082
0.970841
0.970816
0.970837
0.970888
0.970834
0.970835
0.970885
0.970833
0.97089
0.970829
0.970828
0.970821
0.970835
0.970833
0.9709
0.970879
0.970886
0.970831
0.970838
0.970837
0.970826
0.97083
0.970834
0.97083
0.970858
0.970873
0.970826
0.970889
0.970825
0.970835
0.970886
0.970825
0.97083
0.970826
0.970837
0.970836
0.970826
0.970868
0.970837
0.970873
0.970828
0.970827
0.970826
0.970826
0.970827
0.970827
0.970827
0.970835
0.970819
0.970819
0.970819
0.970819
0.970817
0.970816
0.970869
0.970834
0.970828
0.970856
0.97082
0.97082
0.970829
0.970872
0.970828
0.970834
0.970869
0.970824
0.970869
0.970826
0.970828
0.970868
0.970872
0.9709
0.970892
0.970826
0.970905
0.970843
0.970873
0.970858
0.970829
0.970826
0.970798
0.970826
0.970908
0.970872
0.970828
0.97084
0.970873
0.970826
0.970862
0.970798
0.970872
0.970826
0.970831
0.970837
0.97082
0.970834
0.970816
0.970842
0.970906
0.970909
0.97082
0.970851
0.97084
0.970871
0.970823
0.970834
0.970872
0.970835
0.970868
0.97084
0.970869
0.970872
0.970793
0.970818
0.970818
0.970818
0.970835
0.970868
0.970806
0.970831
0.970854
0.970867
0.970871
0.970819
0.970869
0.970822
0.970871
0.970905
0.970867
0.970904
0.970827
0.970868
0.970792
0.97087
0.970829
0.970869
0.97083
0.97087
0.970846
0.970926
0.970845
0.970869
0.970817
0.970868
0.970854
0.970833
0.97083
0.970869
0.970868
0.970862
0.970829
0.970867
0.970841
0.970845
0.970818
0.970868
0.970862
0.970853
0.970862
0.970869
0.970861
0.970826
0.97084
0.970862
0.970869
0.970839
0.970839
0.970868
0.970818
0.970924
0.970847
0.9709
0.970853
0.970946
0.970947
0.970945
0.970945
0.970942
0.970951
0.970952
0.970827
0.97081
0.970839
0.970854
0.970858
0.970862
0.97084
0.970862
0.970862
0.970811
0.970861
0.970826
0.970879
0.970819
0.970846
0.970854
0.970862
0.970821
0.970847
0.970854
0.970847
0.970853
0.97086
0.970874
0.970854
0.970848
0.970825
0.970858
0.97086
0.970858
0.970854
0.970848
0.970839
0.970858
0.970839
0.970847
0.970854
0.970841
0.970846
0.97086
0.970829
0.970853
0.970811
0.970905
0.970827
0.970826
0.970848
0.970854
0.970833
0.970925
0.970846
0.970854
0.970924
0.970796
0.970796
0.970845
0.970859
0.970853
0.970858
0.970787
0.970785
0.970837
0.970841
0.970841
0.970929
0.970859
0.970829
0.970856
0.970857
0.970855
0.970923
0.970831
0.970859
0.970847
0.970847
0.970857
0.970854
0.970857
0.970857
0.970922
0.970903
0.970854
0.970847
0.970853
0.970857
0.970854
0.970853
0.970853
0.970906
0.970822
0.970857
0.970833
0.970831
0.970907
0.970845
0.970845
0.970818
0.97079
0.97079
0.970818
0.97086
0.970847
0.970908
0.970791
0.970784
0.970784
0.970924
0.970807
0.970799
0.970848
0.970822
0.97084
0.970833
0.970828
0.970829
0.970842
0.970924
0.970845
0.970835
0.970829
0.970925
0.970803
0.97093
0.970827
0.970837
0.970869
0.970842
0.970842
0.970812
0.970839
0.970813
0.970846
0.97083
0.970802
0.970803
0.97091
0.970832
0.970955
0.970957
0.970954
0.970832
0.97093
0.970953
0.970858
0.970953
0.970814
0.970814
0.970955
0.970849
0.970925
0.970959
0.970923
0.970959
0.970923
0.970807
0.970911
0.970928
0.970953
0.970843
0.970826
0.970925
0.970842
0.970951
0.970838
0.970849
0.970959
0.970925
0.970958
0.970923
0.970847
0.970811
0.970783
0.970783
0.970835
0.970783
0.970783
0.970783
0.970789
0.97091
0.970802
0.970819
0.970812
0.970837
0.970789
0.970789
0.970812
0.970923
0.970851
0.970932
0.970933
0.970925
0.970792
0.970792
0.970793
0.970793
0.970792
0.970786
0.970797
0.97079
0.970787
0.970794
0.970794
0.970787
0.970785
0.970789
0.970795
SCALARS rr_(P) float
LOOKUP_TABLE default
0.0243874
0.0243275
0.0243329
0.0243285
0.0243122
0.024333
0.0243876
0.0243294
0.024338
0.0243278
0.0243832
0.0243294
0.0243306
0.024327
0.0243177
0.0243321
0.0243248
0.02433
0.0243406
0.0243344
0.0243353
0.024291
0.0243351
0.0243343
0.0243345
0.024329
0.0243751
0.0243322
0.0243569
0.0243034
0.0243309
0.0243567
0.0243759
0.0243071
0.0243054
0.0243072
0.0243027
0.0243062
0.0243309
0.0243758
0.024357
0.0243024
0.0243025
0.0243308
0.0243701
0.024356
0.0243393
0.024337
0.0243328
0.0243605
0.0243584
0.0243508
0.024313
0.0243507
0.0243135
0.0243685
0.0243052
0.0243507
0.0243053
0.0243341
0.0243249
0.02432
0.0243713
0.0243204
0.0243199
0.0243249
0.0243247
0.024329
0.0243348
0.0243273
0.0243131
0.0243132
0.024357
0.024323
0.0243327
0.0243784
0.0243168
0.0243249
0.024329
0.0243494
0.0243618
0.0243104
0.0243224
0.0243634
0.0243552
0.0243695
0.0243322
0.0243239
0.02437
0.0242939
0.0243508
0.024294
0.0243164
0.0243255
0.0243503
0.0243589
0.0243617
0.0243279
0.0243168
0.0243312
0.0243441
0.0243538
0.0243635
0.0243294
0.0243284
0.0243283
0.0243217
0.0243317
0.0243637
0.0243265
0.024334
0.0243682
0.0243656
0.0243298
0.0243286
0.0243505
0.0243053
0.024362
0.0243055
0.0243503
0.0243419
0.0243184
0.0243275
0.0243237
0.024326
0.0243172
0.0243074
0.0243279
0.0243617
0.0243502
0.024313
0.0243279
0.0243227
0.0243277
0.0243537
0.0243052
0.024365
0.0243303
0.0243223
0.0243052
0.024353
0.0243277
0.024341
0.0243277
0.0243623
0.0243288
0.0243285
0.0243328
0.024333
0.0243458
0.0243371
0.0243275
0.0243568
0.0243306
0.0243278
0.0243278
0.0243261
0.0243525
0.0243523
0.0243306
0.0243369
0.0243564
0.0243687
0.0243584
0.0243525
0.0243282
0.0243525
0.0243526
0.0243568
0.0243524
0.0243162
0.0243507
0.0243585
0.0243256
0.0243506
0.0243219
0.0243162
0.0243294
0.0243128
0.0243282
0.0243568
0.024328
0.024328
0.0243529
0.0243238
0.0243589
0.0243238
0.0243217
0.024316
0.0243279
0.0243237
0.0243611
0.0243506
0.0243567
0.0243277
0.0243302
0.0243299
0.0243228
0.0243276
0.0243251
0.0243274
0.0243399
0.024349
0.0243228
0.0243567
0.0243224
0.0243249
0.0243541
0.0243192
0.0243273
0.0243187
0.0243267
0.0243286
0.0243223
0.0243456
0.0243262
0.0243485
0.0243217
0.0243262
0.0243262
0.0243268
0.0243266
0.0243266
0.0243266
0.0243273
0.0243182
0.0243183
0.0243181
0.0243181
0.0243134
0.0243133
0.024346
0.0243271
0.0243289
0.0243373
0.0243177
0.0243175
0.0243288
0.0243489
0.0243292
0.0243278
0.0243454
0.0243191
0.0243457
0.0243222
0.0243294
0.0243452
0.0243482
0.0243619
0.0243614
0.0243224
0.0243631
0.0243313
0.0243485
0.0243402
0.0243293
0.0243263
0.0243022
0.0243265
0.0243636
0.0243484
0.024329
0.0243294
0.0243492
0.0243263
0.0243407
0.0243022
0.0243483
0.024326
0.0243241
0.0243299
0.0243179
0.0243241
0.0243131
0.0243307
0.0243674
0.0243696
0.0243147
0.0243351
0.0243294
0.0243457
0.024319
0.0243256
0.0243484
0.0243254
0.0243439
0.0243283
0.0243438
0.0243487
0.0242975
0.0243156
0.0243175
0.0243177
0.0243274
0.0243434
0.0243078
0.0243243
0.0243367
0.0243432
0.0243451
0.0243148
0.0243454
0.0243163
0.0243445
0.02437
0.0243435
0.0243626
0.0243215
0.0243454
0.0242975
0.0243444
0.0243229
0.0243461
0.0243235
0.0243446
0.0243322
0.0243724
0.0243334
0.0243456
0.024315
0.0243458
0.0243366
0.0243235
0.0243273
0.0243445
0.0243435
0.0243409
0.0243216
0.0243435
0.0243294
0.0243322
0.0243132
0.0243435
0.0243412
0.0243358
0.0243406
0.0243441
0.0243404
0.0243198
0.0243295
0.024341
0.0243456
0.0243279
0.0243277
0.0243438
0.0243133
0.0243853
0.0243324
0.0243619
0.0243355
0.0244165
0.0244164
0.024416
0.0244162
0.024416
0.0244167
0.0244164
0.0243213
0.0243094
0.0243304
0.0243369
0.0243402
0.0243406
0.0243283
0.024341
0.0243413
0.0243093
0.0243406
0.0243188
0.0243508
0.0243191
0.0243331
0.024337
0.0243408
0.0243146
0.0243324
0.0243366
0.0243324
0.0243365
0.0243411
0.0243497
0.024337
0.024333
0.0243187
0.0243397
0.0243416
0.02434
0.0243374
0.0243331
0.0243282
0.02434
0.0243283
0.0243336
0.0243372
0.0243293
0.0243335
0.0243407
0.0243235
0.0243361
0.02431
0.0243699
0.0243214
0.0243198
0.0243331
0.0243359
0.024325
0.0243846
0.0243331
0.0243362
0.024372
0.0242979
0.0242978
0.0243324
0.0243403
0.0243355
0.0243397
0.0242886
0.0242886
0.0243292
0.0243292
0.0243295
0.0243848
0.0243412
0.0243227
0.0243373
0.0243378
0.0243373
0.0243856
0.0243238
0.0243406
0.0243326
0.0243326
0.0243378
0.0243367
0.0243378
0.0243374
0.0243754
0.0243624
0.0243367
0.0243325
0.024336
0.0243381
0.0243364
0.0243356
0.024336
0.0243699
0.0243177
0.02434
0.0243252
0.0243235
0.0243703
0.0243328
0.0243333
0.0243132
0.0242982
0.0242982
0.0243156
0.0243414
0.0243327
0.0243709
0.0242994
0.02429
0.02429
0.0243863
0.0243062
0.0243034
0.0243334
0.0243166
0.0243305
0.0243274
0.0243233
0.0243219
0.0243294
0.0243847
0.0243319
0.0243256
0.0243228
0.0243788
0.0243054
0.0243731
0.024323
0.0243273
0.0243448
0.0243309
0.0243296
0.0243126
0.0243288
0.0243126
0.0243325
0.0243227
0.0243043
0.024304
0.0243708
0.0243266
0.0243885
0.0243874
0.0243898
0.0243239
0.0243855
0.024391
0.024338
0.0243891
0.0243101
0.0243102
0.0243882
0.0243356
0.0243753
0.0243889
0.0243763
0.0243891
0.0243763
0.0243058
0.0243729
0.0243852
0.0243883
0.0243299
0.0243206
0.0243773
0.0243298
0.0243905
0.0243278
0.0243353
0.0243895
0.0243781
0.0243904
0.0243863
0.0243336
0.0243091
0.024291
0.0242918
0.0243268
0.0242912
0.0242912
0.0242915
0.0242962
0.0243718
0.0243048
0.0243152
0.024309
0.0243275
0.024295
0.024295
0.0243079
0.0243869
0.0243358
0.0243863
0.0243741
0.0243735
0.0243001
0.0243003
0.0243007
0.0243006
0.0243002
0.0242921
0.0243006
0.0242949
0.0242909
0.0243
0.0242999
0.0242907
0.0242919
0.0242947
0.024301
SCALARS rr_(T) float
LOOKUP_TABLE default
0.181172
0.181197
0.181195
0.181197
0.181208
0.181195
0.181172
0.181197
0.181193
0.181198
0.181171
0.181197
0.181196
0.181198
0.181204
0.181196
0.181199
0.181196
0.181191
0.181194
0.181194
0.181223
0.181194
0.181194
0.181194
0.181197
0.181176
0.181196
0.181184
0.181214
0.181196
0.181184
0.181176
0.181212
0.181213
0.181212
0.181214
0.181212
0.181196
0.181176
0.181184
0.181214
0.181214
0.181196
0.181178
0.181185
0.181192
0.181193
0.181195
0.181182
0.181183
0.181187
0.181207
0.181187
0.181207
0.181179
0.181213
0.181187
0.181213
0.181194
0.181199
0.181203
0.181178
0.181203
0.181203
0.1812
0.181199
0.181197
0.181194
0.181198
0.181207
0.181207
0.181184
0.181201
0.181195
0.181174
0.181205
0.1812
0.181197
0.181187
0.181182
0.181209
0.181201
0.181181
0.181185
0.181178
0.181196
0.181201
0.181178
0.181221
0.181187
0.181221
0.181205
0.1812
0.181187
0.181183
0.181182
0.181197
0.181205
0.181196
0.18119
0.181186
0.181181
0.181196
0.181197
0.181197
0.181202
0.181196
0.181181
0.181198
0.181195
0.181179
0.18118
0.181196
0.181197
0.181187
0.181213
0.181182
0.181213
0.181187
0.181191
0.181203
0.181197
0.1812
0.181198
0.181204
0.181211
0.181197
0.181182
0.181187
0.181207
0.181197
0.181201
0.181197
0.181186
0.181213
0.181181
0.181197
0.181201
0.181213
0.181186
0.181198
0.181192
0.181198
0.181182
0.181197
0.181198
0.181196
0.181195
0.181189
0.181193
0.181197
0.181184
0.181196
0.181198
0.181197
0.181199
0.181186
0.181187
0.181196
0.181193
0.181184
0.181179
0.181183
0.181186
0.181197
0.181186
0.181186
0.181184
0.181186
0.181205
0.181187
0.181183
0.181199
0.181187
0.181202
0.181205
0.181197
0.181208
0.181198
0.181184
0.181197
0.181197
0.181186
0.181201
0.181183
0.1812
0.181202
0.181206
0.181197
0.181201
0.181183
0.181187
0.181184
0.181197
0.181196
0.181196
0.181201
0.181197
0.1812
0.181197
0.181192
0.181188
0.181201
0.181184
0.181201
0.1812
0.181186
0.181204
0.181198
0.181204
0.181199
0.181197
0.181201
0.181189
0.181199
0.181188
0.181202
0.181198
0.181198
0.181197
0.181198
0.181198
0.181198
0.181198
0.181204
0.181203
0.181204
0.181204
0.181207
0.181207
0.181189
0.181198
0.181196
0.181193
0.181204
0.181204
0.181196
0.181188
0.181196
0.181197
0.181189
0.181204
0.181189
0.181201
0.181196
0.181189
0.181188
0.181182
0.181182
0.181201
0.181182
0.181196
0.181188
0.181192
0.181196
0.181198
0.181215
0.181198
0.181182
0.181188
0.181196
0.181197
0.181187
0.181198
0.181192
0.181215
0.181188
0.181198
0.1812
0.181196
0.181204
0.181201
0.181208
0.181196
0.181179
0.181178
0.181207
0.181194
0.181197
0.181189
0.181204
0.181199
0.181188
0.1812
0.18119
0.181198
0.18119
0.181188
0.181218
0.181206
0.181204
0.181204
0.181198
0.18119
0.181211
0.1812
0.181194
0.181191
0.18119
0.181206
0.181189
0.181205
0.18119
0.181178
0.18119
0.181182
0.181202
0.181189
0.181218
0.18119
0.181201
0.181189
0.181201
0.18119
0.181196
0.181178
0.181195
0.181189
0.181206
0.181189
0.181194
0.181201
0.181198
0.18119
0.18119
0.181192
0.181202
0.18119
0.181197
0.181196
0.181208
0.18119
0.181191
0.181194
0.181192
0.18119
0.181192
0.181203
0.181197
0.181192
0.181189
0.181198
0.181198
0.18119
0.181207
0.181171
0.181196
0.181182
0.181194
0.181154
0.181154
0.181154
0.181154
0.181154
0.181154
0.181154
0.181202
0.18121
0.181196
0.181193
0.181192
0.181192
0.181198
0.181192
0.181191
0.18121
0.181192
0.181204
0.181187
0.181203
0.181195
0.181193
0.181192
0.181207
0.181196
0.181194
0.181196
0.181194
0.181191
0.181187
0.181193
0.181196
0.181204
0.181192
0.181191
0.181192
0.181193
0.181195
0.181198
0.181192
0.181198
0.181195
0.181193
0.181197
0.181195
0.181192
0.1812
0.181194
0.18121
0.181178
0.181202
0.181203
0.181195
0.181194
0.1812
0.181171
0.181195
0.181194
0.181178
0.181218
0.181218
0.181196
0.181192
0.181194
0.181192
0.181225
0.181225
0.181197
0.181197
0.181197
0.181171
0.181191
0.181201
0.181193
0.181193
0.181193
0.18117
0.181201
0.181191
0.181196
0.181196
0.181193
0.181194
0.181193
0.181193
0.181176
0.181182
0.181194
0.181196
0.181194
0.181193
0.181194
0.181194
0.181194
0.181178
0.181204
0.181192
0.1812
0.181201
0.181178
0.181195
0.181195
0.181208
0.181218
0.181217
0.181206
0.181191
0.181196
0.181177
0.181217
0.181224
0.181224
0.18117
0.181212
0.181214
0.181195
0.181205
0.181196
0.181198
0.1812
0.181202
0.181197
0.181171
0.181196
0.181199
0.181201
0.181174
0.181213
0.181178
0.181201
0.181198
0.18119
0.181196
0.181197
0.181208
0.181197
0.181208
0.181195
0.181201
0.181214
0.181214
0.181178
0.181198
0.181171
0.181172
0.181171
0.181201
0.181171
0.18117
0.181193
0.181171
0.18121
0.181209
0.181172
0.181194
0.181176
0.181172
0.181176
0.181171
0.181176
0.181213
0.181177
0.181171
0.181171
0.181197
0.181202
0.181175
0.181197
0.18117
0.181198
0.181194
0.181171
0.181175
0.181171
0.18117
0.181195
0.18121
0.181223
0.181222
0.181199
0.181223
0.181223
0.181222
0.181219
0.181177
0.181213
0.181206
0.18121
0.181198
0.18122
0.18122
0.181211
0.181169
0.181194
0.181171
0.181178
0.181178
0.181216
0.181216
0.181216
0.181216
0.181216
0.181222
0.181216
0.18122
0.181223
0.181216
0.181216
0.181223
0.181222
0.18122
0.181216
SCALARS rr_tsim float
LOOKUP_TABLE default
380
380
380
380
380
380
380
380
380
380
380
380
380
380
380
380
380
380
380
380
380
380
380
380
380
380
380
380
380
380
380
380
380
380
380
380
380
380
380
380
380
380
380
380
380
380
380
380
380
380
380
380
380
380
380
380
380
380
380
380
380
380
380
380
380
380
380
380
380
380
380
380
380
380
380
380
380
380
380
380
380
380
380
380
380
380
380
380
380
380
380
380
380
380
380
380
380
380
380
380
380
380
380
380
380
380
380
380
380
380
380
380
380
380
380
380
380
380
380
380
380
380
380
380
380
380
380
380
380
380
380
380
380
380
380
380
380
380
380
380
380
380
380
380
380
380
380
380
380
380
380
380
380
380
380
380
380
380
380
380
380
380
380
380
380
380
380
380
380
380
380
380
380
380
380
380
380
380
380
380
380
380
380
380
380
380
380
380
380
380
380
380
380
380
380
380
380
380
380
380
380
380
380
380
380
380
380
380
380
380
380
380
380
380
380
380
380
380
380
380
380
380
380
380
380
380
380
380
380
380
380
380
380
380
380
380
380
380
380
380
380
380
380
380
380
380
380
380
380
380
380
380
380
380
380
380
380
380
380
380
380
380
380
380
380
380
380
380
380
380
380
380
380
380
380
380
380
380
380
380
380
380
380
380
380
380
380
380
380
380
380
380
380
380
380
380
380
380
380
380
380
380
380
380
380
380
380
380
380
380
380
380
380
380
380
380
380
380
380
380
380
380
380
380
380
380
380
380
380
380
380
380
380
380
380
380
380
380
380
380
380
380
380
380
380
380
380
380
380
380
380
380
380
380
380
380
380
380
380
380
380
380
380
380
380
380
380
380
380
380
380
380
380
380
380
380
380
380
380
380
380
380
380
380
380
380
380
380
380
380
380
380
380
380
380
380
380
380
380
380
380
380
380
380
380
380
380
380
380
380
380
380
380
380
380
380
380
380
380
380
380
380
380
380
380
380
380
380
380
380
380
380
380
380
380
380
380
380
380
380
380
380
380
380
380
380
380
380
380
380
380
380
380
380
380
380
380
380
380
380
380
380
380
380
380
380
380
380
380
380
380
380
380
380
380
380
380
380
380
380
380
380
380
380
380
380
380
380
380
380
380
380
380
380
380
380
380
380
380
380
380
380
380
380
380
380
380
380
380
380
380
380
380
380
380
380
380
380
380
380
380
380
380
380
380
380
380
380
380
380
380
380
380
380
380
380
380
380
380
380
380
380
380
380
380
380
380
380
380
380
380
380
380
380
380
380
380
380
380
380
380
380
380
SCALARS rr_Vext float
LOOKUP_TABLE default
0.181359
0.449122
0.356048
0.468108
0.250492
0.377827
0.179274
0.465088
0.395106
0.504564
0.165389
0.466508
0.409825
0.435012
0.516134
0.424864
0.369043
0.414183
0.365531
0.360526
0.405108
0.0765106
0.415069
0.383013
0.347105
0.403471
0.15501
0.352834
0.267412
0.339246
0.361969
0.276485
0.17152
0.252901
0.249247
0.253451
0.330126
0.24949
0.361539
0.192836
0.224721
0.29105
0.291059
0.397271
0.216885
0.244119
0.344612
0.350183
0.330079
0.30376
0.312853
0.245236
0.401517
0.315206
0.369414
0.157753
0.266178
0.317516
0.26615
0.393184
0.470928
0.464871
0.153275
0.327641
0.445313
0.417373
0.455654
0.391904
0.357985
0.515555
0.435554
0.43079
0.277654
0.338744
0.353971
0.176426
0.372675
0.413476
0.395168
0.271132
0.24049
0.283506
0.527531
0.24025
0.32776
0.119291
0.407579
0.344608
0.229706
0.0374828
0.273092
0.0407607
0.316357
0.299312
0.258658
0.232983
0.220908
0.442929
0.37291
0.351855
0.293535
0.277769
0.230478
0.418575
0.426137
0.383831
0.340626
0.340847
0.244628
0.512517
0.326025
0.164038
0.220056
0.457877
0.429717
0.304481
0.30863
0.183508
0.320034
0.303365
0.266985
0.502648
0.511809
0.442039
0.484524
0.384951
0.220815
0.478209
0.200078
0.262278
0.227503
0.456393
0.449022
0.448248
0.288936
0.187537
0.190638
0.327439
0.404467
0.187459
0.241541
0.387289
0.287969
0.472756
0.223275
0.385188
0.34973
0.336127
0.214789
0.269545
0.304298
0.440625
0.248026
0.397409
0.461988
0.469241
0.307855
0.249007
0.247656
0.401135
0.333852
0.246116
0.160076
0.239704
0.240466
0.430954
0.252348
0.2551
0.274619
0.245938
0.386343
0.258183
0.226058
0.297713
0.272811
0.340305
0.382117
0.361132
0.313976
0.360844
0.266566
0.418245
0.44885
0.241614
0.442299
0.239439
0.436794
0.402736
0.378965
0.379413
0.446226
0.200774
0.266927
0.246016
0.447408
0.439019
0.407198
0.447893
0.45295
0.381864
0.466568
0.307715
0.274109
0.51273
0.285547
0.465952
0.36996
0.226654
0.286341
0.461723
0.389033
0.350307
0.450054
0.445254
0.278858
0.28422
0.267542
0.395451
0.433418
0.49809
0.478087
0.520369
0.471556
0.515285
0.432054
0.4572
0.460649
0.434353
0.456355
0.422917
0.416634
0.28241
0.389409
0.454293
0.312119
0.470271
0.432154
0.492658
0.288245
0.468275
0.448676
0.284499
0.406912
0.282468
0.455237
0.411288
0.296254
0.277677
0.235552
0.271096
0.455772
0.1975
0.347019
0.276527
0.313902
0.46867
0.455546
0.147788
0.457103
0.23643
0.261764
0.466268
0.379026
0.264584
0.52218
0.29123
0.147779
0.267723
0.406397
0.50892
0.382688
0.457753
0.425154
0.226614
0.21673
0.175978
0.201428
0.308133
0.229074
0.37198
0.227524
0.406391
0.287621
0.268101
0.323952
0.293521
0.39852
0.281486
0.287595
0.13637
0.30357
0.437809
0.438056
0.391523
0.281115
0.192358
0.545876
0.360487
0.298316
0.27429
0.284975
0.282728
0.358841
0.27809
0.192059
0.274791
0.183495
0.351066
0.279575
0.127091
0.263721
0.321336
0.279314
0.443668
0.290709
0.381466
0.138314
0.305661
0.287013
0.261623
0.269317
0.32199
0.308721
0.321045
0.266563
0.271162
0.293858
0.4036
0.276094
0.399021
0.358786
0.290795
0.286473
0.290121
0.323371
0.289911
0.270116
0.308528
0.333028
0.387865
0.290168
0.286352
0.425141
0.419247
0.276211
0.290834
0.117368
0.342062
0.227677
0.319679
0.126304
0.131123
0.117233
0.119129
0.126411
0.133076
0.137186
0.365817
0.275202
0.269662
0.305533
0.296206
0.292406
0.314708
0.285992
0.292386
0.310822
0.291313
0.368786
0.261062
0.378831
0.289102
0.277577
0.291595
0.322764
0.328992
0.304694
0.351047
0.326029
0.300388
0.213974
0.303858
0.298861
0.328279
0.305307
0.288517
0.275034
0.304062
0.31909
0.436159
0.283304
0.423999
0.438657
0.298863
0.422861
0.322473
0.255676
0.356791
0.307316
0.229503
0.18527
0.353347
0.377137
0.313431
0.259541
0.317011
0.138204
0.309862
0.289511
0.140568
0.0597484
0.0653752
0.26865
0.283293
0.331355
0.316584
0.0311308
0.0325286
0.318178
0.32154
0.30424
0.103723
0.264725
0.315901
0.31564
0.272074
0.24028
0.107863
0.464464
0.284944
0.352158
0.357669
0.255161
0.323443
0.249474
0.275478
0.129739
0.19938
0.323803
0.327748
0.280323
0.293561
0.303656
0.320503
0.306407
0.14396
0.275777
0.301351
0.290882
0.437485
0.143857
0.23373
0.24057
0.234521
0.155624
0.155628
0.267697
0.208506
0.301871
0.153855
0.185525
0.0614166
0.0614141
0.112309
0.199632
0.134971
0.256998
0.284536
0.297804
0.336998
0.307415
0.28523
0.222214
0.127171
0.278048
0.290578
0.282436
0.144129
0.147644
0.104628
0.281945
0.285969
0.224179
0.258248
0.238711
0.223789
0.292909
0.223756
0.257202
0.251385
0.158046
0.19524
0.165307
0.310643
0.112706
0.118918
0.115939
0.294531
0.10769
0.104732
0.200915
0.0979318
0.243153
0.243507
0.100659
0.255443
0.113722
0.110988
0.127154
0.105858
0.105723
0.174204
0.12624
0.112774
0.106277
0.235808
0.272657
0.118743
0.260314
0.0960764
0.264786
0.20817
0.100551
0.0864347
0.0948693
0.12646
0.22555
0.192178
0.0824423
0.091407
0.253854
0.0775857
0.0775825
0.0878715
0.0979617
0.0995845
0.127333
0.207531
0.193793
0.253766
0.0775241
0.0775208
0.229251
0.0843463
0.178712
0.0765187
0.0783411
0.103271
0.198595
0.205595
0.218906
0.200659
0.198579
0.0438923
0.32038
0.0557535
0.0543417
0.259007
0.257237
0.0563344
0.0390571
0.0548043
0.238559
SCALARS rr_Vli float
LOOKUP_TABLE default
0.396486
0.903296
0.721402
0.942901
0.493002
0.765663
0.392034
0.937668
0.806265
1.01511
0.359835
0.940541
0.8277
0.874152
1.02412
0.859727
0.739393
0.835913
0.748795
0.732052
0.823478
0.146196
0.843736
0.777624
0.704886
0.813138
0.333348
0.714255
0.560607
0.6598
0.731223
0.579527
0.369271
0.494391
0.485904
0.495506
0.641456
0.486895
0.73048
0.415064
0.471209
0.565329
0.565389
0.802512
0.463322
0.511146
0.70466
0.71357
0.668679
0.640141
0.657313
0.509708
0.79128
0.654952
0.728498
0.336093
0.518807
0.659755
0.51879
0.798044
0.943862
0.925028
0.327839
0.652216
0.886008
0.836193
0.912998
0.789772
0.727288
1.0367
0.858505
0.84915
0.582209
0.67685
0.716967
0.381182
0.738158
0.828437
0.79642
0.562479
0.507622
0.556447
1.0535
0.508331
0.685383
0.254579
0.825073
0.689485
0.49066
0.0719434
0.567527
0.0782461
0.626349
0.600258
0.537107
0.489901
0.466216
0.891212
0.738706
0.711147
0.604216
0.579672
0.487749
0.844108
0.858079
0.772712
0.679545
0.689378
0.517758
1.02965
0.661676
0.349478
0.467058
0.923819
0.865434
0.63249
0.601612
0.38741
0.624
0.62999
0.547958
0.99831
1.02947
0.884276
0.972854
0.763251
0.431749
0.962234
0.422252
0.544645
0.448452
0.918478
0.897108
0.901821
0.602898
0.365537
0.404181
0.66093
0.80773
0.365414
0.503537
0.778932
0.59024
0.951058
0.47153
0.776063
0.704321
0.680953
0.435246
0.556267
0.620245
0.886305
0.519981
0.802495
0.92944
0.94426
0.617852
0.518656
0.515712
0.810195
0.680205
0.515658
0.341238
0.503637
0.500927
0.867512
0.525644
0.531442
0.575695
0.512235
0.764766
0.536472
0.475014
0.597024
0.566757
0.679099
0.75645
0.728157
0.61851
0.726371
0.558759
0.841634
0.903302
0.503621
0.884781
0.503407
0.873805
0.803282
0.749914
0.763387
0.89254
0.423343
0.554569
0.51569
0.900208
0.886298
0.821709
0.894902
0.911194
0.765269
0.938414
0.629673
0.568291
1.02453
0.59847
0.93055
0.741276
0.473239
0.569197
0.928572
0.772726
0.703604
0.906433
0.889136
0.575328
0.57047
0.554199
0.788781
0.870375
1.00028
0.961014
1.04558
0.94745
1.03539
0.86871
0.907696
0.914768
0.862343
0.90593
0.833929
0.821515
0.583003
0.782793
0.915905
0.636237
0.93312
0.857208
0.993022
0.597475
0.944367
0.902753
0.586735
0.8088
0.582773
0.908854
0.829724
0.610879
0.57498
0.497305
0.572061
0.9101
0.417613
0.70148
0.572845
0.642711
0.945255
0.914965
0.286927
0.918292
0.500196
0.542258
0.940099
0.764199
0.548648
1.04887
0.596675
0.286927
0.554499
0.815976
1.01856
0.772232
0.908465
0.850822
0.4466
0.437752
0.374434
0.429883
0.608683
0.465559
0.749991
0.469384
0.807668
0.576816
0.555339
0.649546
0.603994
0.802276
0.579178
0.596019
0.263019
0.600442
0.868509
0.869128
0.787207
0.578062
0.376387
1.09285
0.734299
0.613257
0.565366
0.562957
0.583123
0.710459
0.572676
0.410196
0.565166
0.387691
0.700125
0.576598
0.245149
0.543076
0.642112
0.576619
0.887239
0.598797
0.772172
0.296222
0.619802
0.592061
0.51704
0.555816
0.655878
0.617313
0.645548
0.549009
0.557646
0.602196
0.804985
0.56787
0.804505
0.726241
0.573154
0.589127
0.594775
0.657842
0.593794
0.555993
0.631806
0.662546
0.782179
0.59465
0.590809
0.855286
0.843306
0.568299
0.573277
0.256088
0.6926
0.480627
0.650102
0.287606
0.29855
0.266803
0.271172
0.287682
0.303056
0.312311
0.729342
0.539723
0.544564
0.622603
0.606499
0.598932
0.633518
0.58613
0.599483
0.609469
0.596711
0.732657
0.542544
0.753106
0.586003
0.565698
0.597464
0.637466
0.666112
0.620591
0.710715
0.663996
0.615741
0.444039
0.619296
0.605571
0.652003
0.624635
0.591867
0.562871
0.620017
0.64672
0.877916
0.579856
0.853547
0.889737
0.609276
0.852427
0.653928
0.523839
0.713542
0.625424
0.450401
0.395665
0.704467
0.750312
0.6352
0.528048
0.635251
0.301236
0.62802
0.589264
0.300912
0.115298
0.126126
0.544003
0.580096
0.673735
0.647661
0.0592774
0.0619388
0.641395
0.648086
0.613481
0.226113
0.542803
0.631011
0.643416
0.555013
0.489877
0.235469
0.929282
0.583732
0.713231
0.724382
0.520582
0.658847
0.508989
0.561646
0.279101
0.421176
0.659631
0.663707
0.570432
0.599123
0.618255
0.651892
0.623522
0.307427
0.547096
0.616831
0.583014
0.8749
0.307367
0.473533
0.487753
0.46224
0.300515
0.300535
0.529553
0.427592
0.611535
0.329005
0.358876
0.117176
0.117176
0.245398
0.389619
0.262494
0.52105
0.563539
0.60141
0.677645
0.614656
0.569069
0.448035
0.27725
0.562545
0.582799
0.564246
0.311556
0.287924
0.224284
0.563451
0.574849
0.461941
0.521746
0.481453
0.440836
0.590093
0.440798
0.520821
0.502146
0.307811
0.380027
0.353393
0.623981
0.246785
0.259979
0.254333
0.589282
0.234981
0.230138
0.410009
0.214644
0.47712
0.477842
0.220334
0.51961
0.244574
0.243122
0.273901
0.231958
0.227739
0.339829
0.270697
0.245996
0.232677
0.475748
0.543001
0.256116
0.525107
0.211011
0.532688
0.423218
0.220454
0.186663
0.208255
0.276319
0.457466
0.376607
0.157552
0.174883
0.509985
0.148307
0.148306
0.168048
0.188628
0.213205
0.248113
0.410273
0.37976
0.51034
0.149004
0.149003
0.448511
0.184461
0.363609
0.167149
0.16815
0.221553
0.384549
0.398195
0.424214
0.388778
0.384539
0.0840102
0.620731
0.107163
0.103829
0.501444
0.497965
0.107596
0.0747328
0.105301
0.462542
SCALARS rr_S_ext' float
LOOKUP_TABLE default
-0.000251546
-0.000574579
-0.000458778
-0.000599743
-0.000313797
-0.000486923
-0.000248719
-0.000596403
-0.000512637
-0.0006457
-0.000228325
-0.000598229
-0.00052643
-0.000556057
-0.000651697
-0.000546767
-0.000470376
-0.000531663
-0.000476039
-0.00046552
-0.000523643
-9.3133e-05
-0.000536523
-0.000494502
-0.000448243
-0.0005172
-0.0002116
-0.000454245
-0.000356146
-0.000420108
-0.000465066
-0.000368167
-0.000234395
-0.000314742
-0.000309364
-0.000315451
-0.000408438
-0.000309986
-0.000464591
-0.000263464
-0.000299351
-0.000359969
-0.000360006
-0.000510407
-0.000294165
-0.000324737
-0.000448006
-0.00045372
-0.000425251
-0.000406606
-0.000417553
-0.000323898
-0.000503631
-0.000416199
-0.000463663
-0.000213407
-0.000330315
-0.00041925
-0.000330304
-0.000507491
-0.000600445
-0.000588592
-0.00020814
-0.000414999
-0.000563765
-0.000531959
-0.000580815
-0.000502339
-0.000462483
-0.000659442
-0.000546416
-0.000540461
-0.000369867
-0.000430625
-0.000455962
-0.000241927
-0.000469752
-0.000527024
-0.000506565
-0.000357452
-0.000322417
-0.000354209
-0.000670268
-0.000322842
-0.00043545
-0.000161639
-0.000524722
-0.000438646
-0.000311524
-4.58251e-05
-0.000360641
-4.98395e-05
-0.000398603
-0.000381853
-0.000341319
-0.000311197
-0.000296119
-0.000566886
-0.000470099
-0.00045229
-0.000384069
-0.000368311
-0.000309768
-0.000536888
-0.000545799
-0.000491503
-0.000432358
-0.000438436
-0.000328826
-0.000654969
-0.000420773
-0.000221905
-0.0002966
-0.000587579
-0.000550474
-0.000401929
-0.000383035
-0.000246063
-0.000397286
-0.000400343
-0.000348339
-0.000635254
-0.000654836
-0.000562572
-0.000618854
-0.000485704
-0.000274862
-0.000612062
-0.000268195
-0.000346109
-0.000285427
-0.000584225
-0.000570757
-0.000573635
-0.00038307
-0.00023273
-0.00025668
-0.000420369
-0.000513899
-0.000232652
-0.000319947
-0.000495475
-0.000375234
-0.000604957
-0.000299489
-0.000493622
-0.000447997
-0.000433056
-0.000276795
-0.000353562
-0.000394376
-0.000563769
-0.000330336
-0.000510402
-0.000591205
-0.000600626
-0.000393037
-0.000329563
-0.000327695
-0.000515294
-0.000432506
-0.000327596
-0.000216669
-0.000319931
-0.000318296
-0.000551804
-0.000334002
-0.000337685
-0.000365731
-0.000325483
-0.000486693
-0.000340909
-0.000301747
-0.000379797
-0.000360156
-0.000432071
-0.0004814
-0.000463142
-0.000393673
-0.000462028
-0.000354974
-0.000535349
-0.000574573
-0.000320002
-0.000562895
-0.000319779
-0.00055591
-0.00051109
-0.000477246
-0.00048558
-0.000567833
-0.000268896
-0.000352409
-0.000327612
-0.000572607
-0.000563704
-0.000522631
-0.000569352
-0.000579598
-0.000486836
-0.000596916
-0.000400322
-0.000361153
-0.000651825
-0.000380203
-0.00059204
-0.000471575
-0.000300681
-0.000362189
-0.000590657
-0.00049171
-0.000447577
-0.000576552
-0.000565693
-0.00036568
-0.000362895
-0.000352206
-0.000501863
-0.000553662
-0.000636297
-0.0006113
-0.000665103
-0.000602681
-0.000658617
-0.000552586
-0.0005776
-0.000582096
-0.00054874
-0.000576479
-0.000530768
-0.000522867
-0.000370551
-0.000497936
-0.000582555
-0.000404544
-0.000593789
-0.000545488
-0.000631609
-0.000379701
-0.000600652
-0.000574228
-0.000372935
-0.000514653
-0.000370412
-0.000578242
-0.00052773
-0.000388283
-0.000365417
-0.000315861
-0.000363347
-0.000579032
-0.000265233
-0.00044614
-0.000364056
-0.000408604
-0.000601216
-0.000582024
-0.000182701
-0.000584136
-0.000317678
-0.000344617
-0.000597942
-0.000486067
-0.000348667
-0.000667204
-0.000379329
-0.000182701
-0.000352399
-0.00051906
-0.000647992
-0.000491162
-0.000578096
-0.000541284
-0.000284251
-0.000278416
-0.000237761
-0.000272944
-0.000387386
-0.000296046
-0.00047703
-0.000298343
-0.000513934
-0.000366941
-0.000352931
-0.000413211
-0.000383932
-0.000510309
-0.000368158
-0.000378778
-0.00016751
-0.000382126
-0.000552677
-0.000553069
-0.000500742
-0.000367456
-0.000239611
-0.00069525
-0.000466905
-0.000389832
-0.000359359
-0.000358285
-0.000370638
-0.00045213
-0.000364016
-0.000260437
-0.000359256
-0.000246235
-0.000445457
-0.000366491
-0.000156128
-0.000345201
-0.000408522
-0.000366493
-0.000564463
-0.000380616
-0.00049108
-0.00018806
-0.000394155
-0.000376318
-0.000329056
-0.000353275
-0.000417041
-0.000392738
-0.000410631
-0.000348971
-0.000354477
-0.000382837
-0.000512174
-0.000360974
-0.000511703
-0.000461869
-0.000364799
-0.000374489
-0.000378115
-0.000418306
-0.000377502
-0.000353417
-0.00040167
-0.000421578
-0.000497499
-0.00037804
-0.000375519
-0.000544039
-0.000536421
-0.000361243
-0.000364876
-0.000162479
-0.000440471
-0.00030527
-0.000413389
-0.000182213
-0.000189147
-0.000169036
-0.000171803
-0.000182265
-0.000192001
-0.000197867
-0.000464051
-0.000343569
-0.000346351
-0.000395878
-0.000385582
-0.000380768
-0.000402967
-0.000372622
-0.000381106
-0.00038797
-0.000379355
-0.00046621
-0.000344765
-0.00047921
-0.000372665
-0.000359694
-0.000379831
-0.000405707
-0.000423625
-0.000394605
-0.000451992
-0.000422205
-0.000391444
-0.000282181
-0.000393773
-0.000385114
-0.00041489
-0.000397122
-0.000376258
-0.000357851
-0.000394226
-0.00041128
-0.000558424
-0.000368648
-0.000542922
-0.000565813
-0.000387399
-0.000542187
-0.000415857
-0.000333025
-0.000453956
-0.000397688
-0.000286705
-0.000251212
-0.000448224
-0.000477423
-0.000403955
-0.000335772
-0.000404124
-0.000191131
-0.000399387
-0.000374694
-0.00019104
-7.34293e-05
-8.03257e-05
-0.000345967
-0.000368795
-0.000428419
-0.000411762
-3.77661e-05
-3.94617e-05
-0.000407959
-0.000412217
-0.000390202
-0.000143466
-0.000345072
-0.000401464
-0.000409108
-0.000352891
-0.00031148
-0.000149395
-0.000591202
-0.000371102
-0.000453588
-0.000460679
-0.000330997
-0.000418928
-0.000323625
-0.000357114
-0.000177164
-0.000267504
-0.000419426
-0.000422094
-0.000362721
-0.000380931
-0.000393124
-0.000414525
-0.000396479
-0.000195189
-0.000348146
-0.000392154
-0.00037089
-0.000556613
-0.000195148
-0.000301145
-0.000310181
-0.000294204
-0.000191383
-0.000191395
-0.00033701
-0.000271829
-0.00038891
-0.000208881
-0.000228538
-7.46495e-05
-7.46491e-05
-0.00015569
-0.000248054
-0.000167135
-0.000331357
-0.000358627
-0.000382506
-0.000431047
-0.000391047
-0.000362068
-0.000284972
-0.000175911
-0.000357768
-0.000370746
-0.000358985
-0.000197734
-0.000183313
-0.000142385
-0.000358475
-0.000365664
-0.000293623
-0.000331835
-0.000306224
-0.000280585
-0.000375336
-0.00028056
-0.000331224
-0.000319478
-0.000195981
-0.000241965
-0.000224366
-0.000396925
-0.000156562
-0.000164941
-0.00016134
-0.000374898
-0.000149088
-0.000145983
-0.00026069
-0.000136167
-0.000303715
-0.000304174
-0.000139782
-0.000330408
-0.000155249
-0.000154236
-0.000173856
-0.000147152
-0.000144555
-0.000216358
-0.000171846
-0.000156079
-0.000147612
-0.000302593
-0.000345501
-0.00016256
-0.000333988
-0.000133853
-0.000338837
-0.000269119
-0.000139851
-0.000118472
-0.000132107
-0.000175307
-0.000290918
-0.000239741
-0.000100367
-0.000111404
-0.000324409
-9.44768e-05
-9.44758e-05
-0.000107051
-0.000120138
-0.000135356
-0.00015797
-0.000261105
-0.000241749
-0.000324625
-9.49061e-05
-9.49053e-05
-0.000285528
-0.000117026
-0.000231209
-0.000106047
-0.000106745
-0.000140647
-0.00024488
-0.000253568
-0.000270133
-0.000247569
-0.000244874
-5.35155e-05
-0.000395275
-6.8256e-05
-6.61434e-05
-0.000319321
-0.000317106
-6.85442e-05
-4.76061e-05
-6.70705e-05
-0.000294535
SCALARS rr_P_ext' float
LOOKUP_TABLE default
0.000183163
0.000423025
0.000337451
0.000441468
0.000231656
0.000358146
0.000181098
0.000438957
0.000376723
0.000475369
0.000166367
0.000440301
0.00038737
0.000409434
0.00048062
0.000402237
0.000346475
0.000391257
0.000349655
0.000342316
0.000385002
6.90025e-05
0.000394472
0.000363633
0.000329607
0.000380682
0.000154425
0.000334155
0.000260802
0.000310592
0.000342206
0.000269611
0.000171034
0.000232548
0.000228652
0.000233069
0.000302
0.000229081
0.000341849
0.000192252
0.000219205
0.000266173
0.000266199
0.00037557
0.000214874
0.00023784
0.000329141
0.000333488
0.000312797
0.000297547
0.000305681
0.000237458
0.000371738
0.000305137
0.000342208
0.00015594
0.000244142
0.000307374
0.000244132
0.000373199
0.000442264
0.000433925
0.000152011
0.000305933
0.000415629
0.000391839
0.00042782
0.000369747
0.000340059
0.000485517
0.000403309
0.000398912
0.000270841
0.000317303
0.000335394
0.000176445
0.000346513
0.0003882
0.000372854
0.000262121
0.000235888
0.000261578
0.000493916
0.000236124
0.000318981
0.000118086
0.000386
0.000323159
0.000227557
3.39337e-05
0.0002644
3.69057e-05
0.000294045
0.000281236
0.00025026
0.000227796
0.000216653
0.000417339
0.000346764
0.000332784
0.000281926
0.000269873
0.000226556
0.000395142
0.000401776
0.000361818
0.000318643
0.000322562
0.000240491
0.00048228
0.000309432
0.00016215
0.000216841
0.000432423
0.000405209
0.000294685
0.000283105
0.000180022
0.000293629
0.000293534
0.000255796
0.000468438
0.000482108
0.000414467
0.00045572
0.000358235
0.000203077
0.000450595
0.000196223
0.00025377
0.000210672
0.000430094
0.000420564
0.000422313
0.000280693
0.000172015
0.000187683
0.000309349
0.00037869
0.000171955
0.000234468
0.000364785
0.000275592
0.000445377
0.000219098
0.000363341
0.000329776
0.000318537
0.000203592
0.000259445
0.000289859
0.000415061
0.000241901
0.000375584
0.00043525
0.000442172
0.000289445
0.000241542
0.000240181
0.000379174
0.000317901
0.000239914
0.000158312
0.000234213
0.000233281
0.000406212
0.000244794
0.000247489
0.000267822
0.000238554
0.000359037
0.000249937
0.000220899
0.000279723
0.000264055
0.00031842
0.000355129
0.000340872
0.00029059
0.000340124
0.000259948
0.000394116
0.000422988
0.000234512
0.000414705
0.000234082
0.000409558
0.000376677
0.000352082
0.000357483
0.000418349
0.000196759
0.000258374
0.00023991
0.000421553
0.000414821
0.000384617
0.000419526
0.000426709
0.000358588
0.000439469
0.000294081
0.000264857
0.000480291
0.000278428
0.00043627
0.000347355
0.000220304
0.000267049
0.000434867
0.000362583
0.000329577
0.000424403
0.000416859
0.000268347
0.000267245
0.000258325
0.000369875
0.000407706
0.000468554
0.000450094
0.000489733
0.000443773
0.000484956
0.000406848
0.000425944
0.000429247
0.000404662
0.000425122
0.00039174
0.00038591
0.000271901
0.000366622
0.000428767
0.000297329
0.000437913
0.000402308
0.000464885
0.000278467
0.000442071
0.000422746
0.000273685
0.000379469
0.00027182
0.000426119
0.000388384
0.000284955
0.000268028
0.000231086
0.000265844
0.000426691
0.000194006
0.000328252
0.000267014
0.000300142
0.00044248
0.000428581
0.000135103
0.000430125
0.00023235
0.000252757
0.000440089
0.000357747
0.000255694
0.0004913
0.000278615
0.000135102
0.000258471
0.000382234
0.00047737
0.000361459
0.000426329
0.000398764
0.000209809
0.000204869
0.000173767
0.000199399
0.000285852
0.00021767
0.000351096
0.000218935
0.000378944
0.000270253
0.000258858
0.000304338
0.000281837
0.000375662
0.000270261
0.000277797
0.000123969
0.000281925
0.000407605
0.000407887
0.000368678
0.000269766
0.000177017
0.000512165
0.000343195
0.000286204
0.000263741
0.000264376
0.000271997
0.000333532
0.00026719
0.000190243
0.00026374
0.000180129
0.000328311
0.000268955
0.000115544
0.000253381
0.000301014
0.000268923
0.000415877
0.000279367
0.000361254
0.000137321
0.000289889
0.000276159
0.000242797
0.000259233
0.000306543
0.000289359
0.00030233
0.000256143
0.000260235
0.000281183
0.000377477
0.000265
0.000376616
0.000339767
0.000269259
0.000274927
0.000277701
0.000307524
0.000277283
0.000259427
0.000295043
0.000310806
0.000366152
0.000277659
0.000275566
0.000400526
0.000394925
0.000265186
0.000269313
0.000118343
0.000324013
0.00022334
0.000303923
0.000131921
0.000136943
0.000122391
0.000124391
0.00013197
0.000139006
0.000143259
0.000342027
0.000253746
0.000254865
0.000290972
0.00028323
0.000279681
0.000296644
0.000273678
0.000279894
0.000286545
0.000278642
0.000343771
0.00025276
0.000353329
0.000274097
0.000264374
0.000278981
0.000299377
0.000311623
0.000290055
0.000332493
0.000310345
0.000287495
0.000206916
0.000289419
0.000283266
0.00030594
0.000291737
0.000276314
0.000262877
0.000289733
0.000302503
0.00041109
0.000270805
0.000399671
0.000416123
0.000284725
0.000399061
0.000305848
0.000244604
0.000334457
0.000292351
0.00021173
0.000183506
0.000330363
0.000351977
0.000297118
0.000246844
0.000297668
0.000139231
0.000293755
0.000275443
0.000139506
5.43393e-05
5.94445e-05
0.000254493
0.000270897
0.000314979
0.000302494
2.79927e-05
2.92495e-05
0.000300267
0.000303406
0.000287186
0.000104507
0.000253428
0.000295828
0.000300683
0.000259341
0.000228925
0.000108805
0.000435551
0.000272576
0.000333651
0.000338868
0.000243247
0.00030793
0.000237829
0.000262463
0.000129287
0.000195693
0.000308293
0.00031049
0.00026665
0.000279931
0.000288979
0.000304751
0.000291466
0.000142584
0.00025676
0.00028807
0.000273182
0.000410092
0.000142543
0.000221508
0.000228133
0.000217153
0.000141616
0.000141625
0.000248636
0.000199632
0.000286066
0.000152557
0.000169074
5.53181e-05
5.53175e-05
0.000113375
0.000183312
0.000123566
0.000243708
0.000264544
0.000281468
0.000317361
0.000288117
0.000266838
0.00020974
0.00012814
0.000263203
0.000273052
0.000264522
0.000144204
0.000135482
0.000103957
0.000264135
0.000269232
0.000215504
0.000244168
0.000225372
0.000207115
0.000276277
0.000207095
0.000243648
0.000235414
0.000144868
0.000178871
0.000163873
0.000292277
0.000113976
0.000120102
0.000117425
0.000276195
0.000108588
0.000106223
0.000191573
9.91151e-05
0.000224296
0.000224634
0.000101765
0.000242907
0.000113299
0.000112276
0.00012685
0.000107115
0.000105471
0.000159898
0.000125462
0.000113685
0.000107463
0.000222691
0.000254686
0.000118588
0.000245801
9.74032e-05
0.000249455
0.000197863
0.000101793
8.64111e-05
9.61393e-05
0.000127661
0.000213955
0.00017708
7.43608e-05
8.25266e-05
0.000238876
6.9995e-05
6.9994e-05
7.93065e-05
8.89281e-05
9.88418e-05
0.000116763
0.000192651
0.000178563
0.000239003
7.02666e-05
7.02657e-05
0.000210942
8.52093e-05
0.000169974
7.72275e-05
7.79218e-05
0.000102677
0.000181142
0.000187563
0.000199802
0.000183117
0.000181136
3.96418e-05
0.00029237
5.05352e-05
4.90063e-05
0.000236211
0.000234576
5.07873e-05
3.52657e-05
4.96597e-05
0.000217837
SCALARS rr_S' float
LOOKUP_TABLE default
3.34502e-05
7.7724e-05
6.1971e-05
8.1104e-05
4.26245e-05
6.57705e-05
3.30723e-05
8.06393e-05
6.91493e-05
8.73398e-05
3.03928e-05
8.0886e-05
7.1154e-05
7.52319e-05
8.83849e-05
7.38753e-05
6.36756e-05
7.18707e-05
6.41633e-05
6.28551e-05
7.06881e-05
1.27198e-05
7.2426e-05
6.67696e-05
6.05209e-05
6.99348e-05
2.82373e-05
6.13692e-05
4.77798e-05
5.71906e-05
6.28571e-05
4.93941e-05
3.12718e-05
4.28063e-05
4.20971e-05
4.29021e-05
5.56117e-05
4.21735e-05
6.27907e-05
3.51518e-05
4.01583e-05
4.90155e-05
4.902e-05
6.89856e-05
3.93102e-05
4.35771e-05
6.04068e-05
6.12194e-05
5.7444e-05
5.44905e-05
5.59925e-05
4.35299e-05
6.83929e-05
5.59381e-05
6.29574e-05
2.85349e-05
4.49497e-05
5.6348e-05
4.49476e-05
6.85273e-05
8.12775e-05
7.97843e-05
2.78077e-05
5.62494e-05
7.64206e-05
7.20135e-05
7.86244e-05
6.79264e-05
6.24383e-05
8.92065e-05
7.42006e-05
7.33915e-05
4.96182e-05
5.83256e-05
6.15947e-05
3.22522e-05
6.37315e-05
7.13446e-05
6.84966e-05
4.80573e-05
4.3194e-05
4.81388e-05
9.07919e-05
4.32294e-05
5.84495e-05
2.16051e-05
7.0891e-05
5.93968e-05
4.16307e-05
6.25349e-06
4.84695e-05
6.80112e-06
5.40826e-05
5.1683e-05
4.58801e-05
4.17235e-05
3.96724e-05
7.66775e-05
6.37773e-05
6.11243e-05
5.17175e-05
4.94583e-05
4.1477e-05
7.2588e-05
7.38143e-05
6.64742e-05
5.85773e-05
5.92439e-05
4.40278e-05
8.86165e-05
5.68186e-05
2.96708e-05
3.96895e-05
7.94339e-05
7.44442e-05
5.40232e-05
5.21229e-05
3.2964e-05
5.40596e-05
5.38132e-05
4.69335e-05
8.61394e-05
8.85784e-05
7.61794e-05
8.37393e-05
6.58822e-05
3.73814e-05
8.27872e-05
3.59314e-05
4.65234e-05
3.87588e-05
7.90193e-05
7.7306e-05
7.75912e-05
5.14417e-05
3.16699e-05
3.4356e-05
5.6825e-05
6.96109e-05
3.16588e-05
4.2973e-05
6.70243e-05
5.05706e-05
8.18297e-05
4.01183e-05
6.67504e-05
6.05862e-05
5.84981e-05
3.73881e-05
4.75847e-05
5.32091e-05
7.62595e-05
4.43167e-05
6.89899e-05
7.9969e-05
8.12388e-05
5.31891e-05
4.42724e-05
4.40236e-05
6.96479e-05
5.83586e-05
4.39548e-05
2.89672e-05
4.29014e-05
4.27576e-05
7.46309e-05
4.48682e-05
4.53619e-05
4.9066e-05
4.37247e-05
6.6037e-05
4.58187e-05
4.04624e-05
5.14052e-05
4.84075e-05
5.85353e-05
6.53181e-05
6.26197e-05
5.3465e-05
6.24891e-05
4.76239e-05
7.24103e-05
7.77142e-05
4.29815e-05
7.6224e-05
4.28754e-05
7.5277e-05
6.92474e-05
6.47595e-05
6.56804e-05
7.68942e-05
3.6032e-05
4.73656e-05
4.39526e-05
7.7451e-05
7.61977e-05
7.06514e-05
7.71151e-05
7.83992e-05
6.59014e-05
8.07447e-05
5.39695e-05
4.85614e-05
8.82841e-05
5.10101e-05
8.01952e-05
6.38378e-05
4.03724e-05
4.91047e-05
7.98995e-05
6.66747e-05
6.05608e-05
7.79703e-05
7.66275e-05
4.92183e-05
4.91094e-05
4.73667e-05
6.79969e-05
7.49157e-05
8.60965e-05
8.2699e-05
8.9985e-05
8.15406e-05
8.91072e-05
7.47536e-05
7.83275e-05
7.89333e-05
7.44135e-05
7.81767e-05
7.20701e-05
7.09976e-05
4.98681e-05
6.73634e-05
7.87646e-05
5.45805e-05
8.05312e-05
7.39852e-05
8.54008e-05
5.10575e-05
8.1207e-05
7.76708e-05
5.0199e-05
6.97764e-05
4.98556e-05
7.83311e-05
7.13431e-05
5.22665e-05
4.9147e-05
4.2314e-05
4.86798e-05
7.84353e-05
3.55205e-05
6.02912e-05
4.89597e-05
5.50794e-05
8.12817e-05
7.87508e-05
2.48799e-05
7.90334e-05
4.25395e-05
4.63454e-05
8.08441e-05
6.572e-05
4.68807e-05
9.02749e-05
5.11269e-05
2.48796e-05
4.73938e-05
7.0236e-05
8.77383e-05
6.63977e-05
7.83999e-05
7.32918e-05
3.86012e-05
3.7631e-05
3.17997e-05
3.64821e-05
5.25836e-05
3.99656e-05
6.44982e-05
4.01559e-05
6.96804e-05
4.96648e-05
4.74644e-05
5.59294e-05
5.17024e-05
6.90182e-05
4.95792e-05
5.09352e-05
2.28389e-05
5.18567e-05
7.49587e-05
7.50098e-05
6.77405e-05
4.94907e-05
3.25825e-05
9.41317e-05
6.30029e-05
5.25074e-05
4.83772e-05
4.8633e-05
4.98891e-05
6.13453e-05
4.90132e-05
3.48046e-05
4.83843e-05
3.29817e-05
6.03564e-05
4.93313e-05
2.12866e-05
4.64799e-05
5.53307e-05
4.93219e-05
7.64403e-05
5.12459e-05
6.63466e-05
2.51183e-05
5.32334e-05
5.06519e-05
4.46619e-05
4.75457e-05
5.62743e-05
5.31864e-05
5.55489e-05
4.6986e-05
4.77418e-05
5.15973e-05
6.93946e-05
4.86153e-05
6.91865e-05
6.24005e-05
4.95386e-05
5.04371e-05
5.09569e-05
5.64596e-05
5.08838e-05
4.75904e-05
5.41434e-05
5.71474e-05
6.72632e-05
5.09506e-05
5.05424e-05
7.359e-05
7.25616e-05
4.86483e-05
4.95484e-05
2.16147e-05
5.9506e-05
4.0896e-05
5.57998e-05
2.40099e-05
2.49242e-05
2.22764e-05
2.264e-05
2.40198e-05
2.52993e-05
2.60742e-05
6.28789e-05
4.66989e-05
4.68146e-05
5.34144e-05
5.19757e-05
5.13235e-05
5.4501e-05
5.02197e-05
5.13589e-05
5.27357e-05
5.11327e-05
6.32146e-05
4.63354e-05
6.49682e-05
5.03348e-05
4.85314e-05
5.11939e-05
5.50724e-05
5.72308e-05
5.3248e-05
6.1064e-05
5.6973e-05
5.27545e-05
3.79353e-05
5.31287e-05
5.20202e-05
5.62591e-05
5.35398e-05
5.07e-05
4.82425e-05
5.31846e-05
5.55519e-05
7.5528e-05
4.9697e-05
7.34295e-05
7.64127e-05
5.2266e-05
7.33106e-05
5.61639e-05
4.48857e-05
6.14747e-05
5.36726e-05
3.89649e-05
3.35723e-05
6.07349e-05
6.47174e-05
5.45633e-05
4.5319e-05
5.47057e-05
2.5432e-05
5.39452e-05
5.05681e-05
2.55188e-05
1.00107e-05
1.09514e-05
4.67379e-05
4.97124e-05
5.78306e-05
5.55145e-05
5.16123e-06
5.39296e-06
5.51609e-05
5.57386e-05
5.27572e-05
1.90892e-05
4.65021e-05
5.43787e-05
5.51962e-05
4.76046e-05
4.2023e-05
1.98718e-05
8.00539e-05
5.0019e-05
6.1275e-05
6.22331e-05
4.46499e-05
5.6529e-05
4.36553e-05
4.81795e-05
2.36402e-05
3.58318e-05
5.65952e-05
5.70219e-05
4.89545e-05
5.13825e-05
5.3052e-05
5.59512e-05
5.35103e-05
2.60858e-05
4.72188e-05
5.28651e-05
5.02049e-05
7.53771e-05
2.60774e-05
4.06788e-05
4.18933e-05
3.99519e-05
2.60879e-05
2.60894e-05
4.57329e-05
3.66308e-05
5.2535e-05
2.79075e-05
3.11427e-05
1.01982e-05
1.01981e-05
2.07051e-05
3.37471e-05
2.27529e-05
4.47537e-05
4.86558e-05
5.17015e-05
5.83107e-05
5.29577e-05
4.9054e-05
3.85304e-05
2.34057e-05
4.83407e-05
5.01788e-05
4.86236e-05
2.63579e-05
2.49427e-05
1.90141e-05
4.85514e-05
4.94693e-05
3.95299e-05
4.48489e-05
4.14013e-05
3.81062e-05
5.07563e-05
3.81024e-05
4.47464e-05
4.32737e-05
2.66727e-05
3.29347e-05
2.99784e-05
5.37058e-05
2.08123e-05
2.19338e-05
2.14388e-05
5.07647e-05
1.98332e-05
1.9391e-05
3.51642e-05
1.80972e-05
4.12784e-05
4.13404e-05
1.85831e-05
4.45963e-05
2.07174e-05
2.05015e-05
2.31923e-05
1.95585e-05
1.92835e-05
2.94376e-05
2.29462e-05
2.07646e-05
1.96231e-05
4.09079e-05
4.68255e-05
2.16795e-05
4.51537e-05
1.77816e-05
4.58331e-05
3.63279e-05
1.85858e-05
1.57956e-05
1.75518e-05
2.33139e-05
3.92888e-05
3.25913e-05
1.37073e-05
1.52115e-05
4.38933e-05
1.29023e-05
1.29021e-05
1.46184e-05
1.63849e-05
1.80797e-05
2.14977e-05
3.54368e-05
3.28643e-05
4.39135e-05
1.2948e-05
1.29478e-05
3.88279e-05
1.55601e-05
3.12058e-05
1.41041e-05
1.42509e-05
1.87787e-05
3.33633e-05
3.45455e-05
3.67985e-05
3.3726e-05
3.33621e-05
7.3067e-06
5.3848e-05
9.31208e-06
9.03372e-06
4.35067e-05
4.32058e-05
9.36227e-06
6.50024e-06
9.15096e-06
4.01188e-05
SCALARS rr_P' float
LOOKUP_TABLE default
3.49323e-05
7.38296e-05
5.93555e-05
7.71711e-05
3.9517e-05
6.30071e-05
3.45483e-05
7.68059e-05
6.67648e-05
8.29918e-05
3.15655e-05
7.70419e-05
6.79051e-05
7.13915e-05
8.26922e-05
7.06549e-05
6.0225e-05
6.85354e-05
6.22212e-05
6.03486e-05
6.79528e-05
1.14107e-05
6.9625e-05
6.40991e-05
5.81156e-05
6.6583e-05
2.89378e-05
5.87206e-05
4.75645e-05
5.23246e-05
6.00031e-05
4.91621e-05
3.20888e-05
3.93881e-05
3.86157e-05
3.94795e-05
5.08265e-05
3.87316e-05
5.99513e-05
3.60604e-05
3.99873e-05
4.47803e-05
4.47879e-05
6.5851e-05
3.9981e-05
4.33201e-05
5.84581e-05
5.90127e-05
5.50099e-05
5.4568e-05
5.58799e-05
4.29102e-05
6.35007e-05
5.51239e-05
5.84974e-05
2.8932e-05
4.12232e-05
5.55283e-05
4.12246e-05
6.57652e-05
7.69041e-05
7.48822e-05
2.83215e-05
5.28165e-05
7.17161e-05
6.81074e-05
7.4371e-05
6.46656e-05
5.99853e-05
8.47185e-05
6.89062e-05
6.8158e-05
4.94074e-05
5.49966e-05
5.89738e-05
3.32294e-05
5.95074e-05
6.74794e-05
6.5215e-05
4.72732e-05
4.33344e-05
4.44923e-05
8.55597e-05
4.34883e-05
5.8019e-05
2.19481e-05
6.78308e-05
5.60903e-05
4.23362e-05
5.63792e-06
4.77719e-05
6.13263e-06
5.0475e-05
4.89344e-05
4.51792e-05
4.1678e-05
3.9794e-05
7.28694e-05
5.95575e-05
5.83819e-05
5.04256e-05
4.89794e-05
4.17346e-05
6.9158e-05
7.02086e-05
6.32106e-05
5.51377e-05
5.66302e-05
4.43073e-05
8.40718e-05
5.45232e-05
3.00838e-05
4.00695e-05
7.57221e-05
7.0821e-05
5.322e-05
4.78071e-05
3.30771e-05
4.95975e-05
5.29958e-05
4.56102e-05
8.06772e-05
8.41496e-05
7.1926e-05
7.93942e-05
6.15868e-05
3.44034e-05
7.86792e-05
3.60411e-05
4.58149e-05
3.59962e-05
7.51115e-05
7.28865e-05
7.37299e-05
5.09359e-05
2.90454e-05
3.46414e-05
5.41952e-05
6.55985e-05
2.90376e-05
4.2506e-05
6.36651e-05
4.90709e-05
7.77502e-05
4.02722e-05
6.35302e-05
5.76351e-05
5.60212e-05
3.58152e-05
4.65317e-05
5.13078e-05
7.24482e-05
4.41187e-05
6.58277e-05
7.59862e-05
7.72144e-05
5.04025e-05
4.37484e-05
4.34904e-05
6.64723e-05
5.62469e-05
4.37276e-05
2.93901e-05
4.28164e-05
4.22577e-05
7.09607e-05
4.43401e-05
4.48342e-05
4.8843e-05
4.32047e-05
6.16188e-05
4.51525e-05
4.03866e-05
4.86687e-05
4.76931e-05
5.51156e-05
6.09524e-05
5.96501e-05
4.96177e-05
5.9415e-05
4.7402e-05
6.88222e-05
7.38709e-05
4.25079e-05
7.1966e-05
4.28218e-05
7.10759e-05
6.5165e-05
6.04043e-05
6.24161e-05
7.25901e-05
3.61054e-05
4.667e-05
4.37487e-05
7.36036e-05
7.26856e-05
6.7363e-05
7.2711e-05
7.44898e-05
6.23466e-05
7.67023e-05
5.22716e-05
4.77343e-05
8.32499e-05
5.07653e-05
7.55756e-05
6.03818e-05
4.0005e-05
4.60351e-05
7.58905e-05
6.24518e-05
5.74385e-05
7.41792e-05
7.22063e-05
4.81142e-05
4.65411e-05
4.65146e-05
6.39907e-05
7.10409e-05
8.16463e-05
7.85075e-05
8.5385e-05
7.73674e-05
8.45538e-05
7.09841e-05
7.33288e-05
7.39164e-05
6.96653e-05
7.31797e-05
6.69576e-05
6.59591e-05
4.87821e-05
6.39508e-05
7.5023e-05
5.26343e-05
7.53445e-05
6.91947e-05
8.13227e-05
5.01762e-05
7.73744e-05
7.38115e-05
4.90508e-05
6.54082e-05
4.87367e-05
7.37918e-05
6.80022e-05
5.10619e-05
4.82427e-05
4.24616e-05
4.88225e-05
7.3906e-05
3.57069e-05
5.75961e-05
4.80822e-05
5.33821e-05
7.74539e-05
7.46915e-05
2.27182e-05
7.49778e-05
4.27884e-05
4.55145e-05
7.70084e-05
6.25999e-05
4.60922e-05
8.56284e-05
4.95872e-05
2.27195e-05
4.65342e-05
6.65906e-05
8.2884e-05
6.33056e-05
7.3367e-05
6.92286e-05
3.58403e-05
3.59159e-05
3.21948e-05
3.70632e-05
4.89511e-05
3.84108e-05
6.14358e-05
3.92518e-05
6.53095e-05
4.70235e-05
4.66091e-05
5.29431e-05
5.03927e-05
6.56285e-05
4.83184e-05
5.00458e-05
2.07021e-05
4.83443e-05
7.01131e-05
7.01723e-05
6.43235e-05
4.81987e-05
3.00118e-05
8.89535e-05
6.0707e-05
5.11202e-05
4.72407e-05
4.52754e-05
4.87518e-05
5.72527e-05
4.78123e-05
3.53896e-05
4.71317e-05
3.31247e-05
5.67894e-05
4.82047e-05
1.92974e-05
4.53404e-05
5.21772e-05
4.82486e-05
7.21453e-05
5.00033e-05
6.34788e-05
2.56199e-05
5.10324e-05
4.95068e-05
4.15978e-05
4.64955e-05
5.42234e-05
5.0192e-05
5.27518e-05
4.58418e-05
4.65003e-05
5.00562e-05
6.53017e-05
4.73588e-05
6.59008e-05
5.97013e-05
4.60014e-05
4.9125e-05
4.94571e-05
5.43227e-05
4.93344e-05
4.63999e-05
5.24838e-05
5.36243e-05
6.40843e-05
4.94303e-05
4.94104e-05
6.99221e-05
6.89339e-05
4.74089e-05
4.60147e-05
2.25222e-05
5.69515e-05
4.10336e-05
5.36666e-05
2.62821e-05
2.72798e-05
2.43689e-05
2.47723e-05
2.62753e-05
2.76964e-05
2.85337e-05
5.91447e-05
4.31244e-05
4.46722e-05
5.14909e-05
5.0376e-05
4.97634e-05
5.18213e-05
4.87248e-05
4.98535e-05
4.86892e-05
4.95803e-05
5.92241e-05
4.56703e-05
6.09128e-05
4.82331e-05
4.67893e-05
4.9656e-05
5.12574e-05
5.47715e-05
5.13019e-05
5.84352e-05
5.48864e-05
5.11944e-05
3.73294e-05
5.12253e-05
4.9828e-05
5.26914e-05
5.18451e-05
4.92438e-05
4.67314e-05
5.13076e-05
5.32257e-05
7.18064e-05
4.81461e-05
6.98211e-05
7.32768e-05
5.04084e-05
6.98158e-05
5.38448e-05
4.35347e-05
5.80239e-05
5.16638e-05
3.60091e-05
3.41336e-05
5.71265e-05
6.07288e-05
5.22739e-05
4.36089e-05
5.17503e-05
2.64682e-05
5.16868e-05
4.86824e-05
2.60148e-05
9.07934e-06
9.92985e-06
4.47359e-05
4.81857e-05
5.56093e-05
5.37527e-05
4.61215e-06
4.81922e-06
5.25313e-05
5.30729e-05
5.02585e-05
1.987e-05
4.51425e-05
5.12574e-05
5.32284e-05
4.59452e-05
4.05322e-05
2.07184e-05
7.55974e-05
4.85068e-05
5.86618e-05
5.95781e-05
4.30999e-05
5.44695e-05
4.21409e-05
4.6471e-05
2.42363e-05
3.59798e-05
5.45381e-05
5.45823e-05
4.71169e-05
4.96173e-05
5.10925e-05
5.38228e-05
5.15028e-05
2.65202e-05
4.41674e-05
5.12189e-05
4.75037e-05
7.11439e-05
2.65274e-05
3.89586e-05
4.01553e-05
3.70995e-05
2.36788e-05
2.36813e-05
4.26415e-05
3.55655e-05
5.03087e-05
2.84163e-05
2.83215e-05
9.13319e-06
9.13344e-06
2.16096e-05
3.09952e-05
2.0816e-05
4.28958e-05
4.54272e-05
4.93365e-05
5.53761e-05
4.99724e-05
4.61765e-05
3.67013e-05
2.43656e-05
4.62247e-05
4.75152e-05
4.58401e-05
2.71719e-05
2.28886e-05
1.94141e-05
4.57889e-05
4.69622e-05
3.85886e-05
4.28175e-05
3.94503e-05
3.53635e-05
4.83028e-05
3.53624e-05
4.28296e-05
4.07902e-05
2.44411e-05
3.01593e-05
3.05149e-05
5.09415e-05
2.17734e-05
2.29053e-05
2.24766e-05
4.79379e-05
2.06668e-05
2.03692e-05
3.39529e-05
1.89542e-05
3.81404e-05
3.82001e-05
1.94339e-05
4.29045e-05
2.12325e-05
2.1458e-05
2.38128e-05
2.04785e-05
1.97997e-05
2.70226e-05
2.34381e-05
2.16294e-05
2.05263e-05
3.89938e-05
4.39897e-05
2.22926e-05
4.30333e-05
1.86679e-05
4.35488e-05
3.49282e-05
1.94728e-05
1.62655e-05
1.84156e-05
2.43325e-05
3.76743e-05
3.00704e-05
1.22985e-05
1.36654e-05
4.16405e-05
1.15795e-05
1.15797e-05
1.31265e-05
1.48247e-05
1.84342e-05
1.97093e-05
3.30178e-05
3.03214e-05
4.17086e-05
1.16915e-05
1.16918e-05
3.57581e-05
1.62564e-05
3.00295e-05
1.47154e-05
1.45719e-05
1.91917e-05
3.03754e-05
3.14597e-05
3.35324e-05
3.0726e-05
3.0376e-05
6.56699e-06
4.90572e-05
8.40865e-06
8.10341e-06
3.96029e-05
3.93243e-05
8.39464e-06
5.84019e-06
8.25985e-06
3.65793e-05
SCALARS rr_T' float
LOOKUP_TABLE default
0.000209308
0.000476832
0.000380816
0.000497739
0.000260244
0.000404181
0.000206957
0.000494978
0.000425616
0.000535859
0.000189957
0.000496495
0.000436928
0.000461448
0.00054061
0.000453835
0.00039031
0.000441263
0.000395278
0.000386438
0.000434702
7.71722e-05
0.000445395
0.000410495
0.000372098
0.00042924
0.000175974
0.000377043
0.00029594
0.000348291
0.000386
0.000305928
0.000194938
0.000260976
0.000256496
0.000261565
0.000338607
0.00025702
0.000385608
0.000219112
0.000248748
0.000298421
0.000298453
0.000423632
0.000244586
0.00026983
0.00037198
0.000376683
0.000352985
0.000337926
0.000346991
0.00026907
0.000417698
0.000345743
0.000384557
0.000177423
0.000273865
0.000348278
0.000273856
0.000421274
0.000498245
0.000488303
0.000173066
0.000344291
0.000467705
0.00044141
0.000481953
0.000416906
0.000383923
0.000547256
0.000453184
0.000448246
0.000307344
0.000357296
0.000378475
0.000201226
0.000389657
0.000437316
0.000420415
0.000296927
0.000267971
0.000293735
0.000556123
0.000268345
0.000361808
0.000134391
0.000435542
0.000363966
0.000259017
3.79768e-05
0.000299592
4.13038e-05
0.000330635
0.000316865
0.000283534
0.000258615
0.000246113
0.000470454
0.000389946
0.000375402
0.000318958
0.000306004
0.00025748
0.000445589
0.000452964
0.0004079
0.000358717
0.000363911
0.000273322
0.000543528
0.000349288
0.000184488
0.000246558
0.000487667
0.000456846
0.000333886
0.000317576
0.000204512
0.000329394
0.000332566
0.00028926
0.000526985
0.000543438
0.000466791
0.00051355
0.000402903
0.00022791
0.000507945
0.000222905
0.000287513
0.000236727
0.000484846
0.000473564
0.000476053
0.000318265
0.000192957
0.000213366
0.000348894
0.000426384
0.000192892
0.000265813
0.000411184
0.00031158
0.000502045
0.000248919
0.000409669
0.000371798
0.000359464
0.000229759
0.000293647
0.000327418
0.000467863
0.000274494
0.000423623
0.000490633
0.000498456
0.000326152
0.000273794
0.00027224
0.000427687
0.00035907
0.000272212
0.000180138
0.000265866
0.000264435
0.000457943
0.000277483
0.000280544
0.000303905
0.000270405
0.000403703
0.000283199
0.000250756
0.000315157
0.000299186
0.000358482
0.000399313
0.000384381
0.000326497
0.000383438
0.000294965
0.000444282
0.000476836
0.000265857
0.000467058
0.000265745
0.000461264
0.000424036
0.000395863
0.000402978
0.000471154
0.000223481
0.000292751
0.000272228
0.000475202
0.000467861
0.000433765
0.0004724
0.000481001
0.000403971
0.00049537
0.000332395
0.000299995
0.00054083
0.000315928
0.000491218
0.000391305
0.000249819
0.000300467
0.000490175
0.000407906
0.000371419
0.000478489
0.000469356
0.000303709
0.00030114
0.000292556
0.000416381
0.000459453
0.000528028
0.000507299
0.000551941
0.000500139
0.000546559
0.000458576
0.000479152
0.000482885
0.000455211
0.00047822
0.000440212
0.000433658
0.00030776
0.000413221
0.000483488
0.00033586
0.000492573
0.000452501
0.000524196
0.0003154
0.000498512
0.000476546
0.00030973
0.000426948
0.000307639
0.000479765
0.000437995
0.000322476
0.000303526
0.000262524
0.000301987
0.000480423
0.000220456
0.000370299
0.000302398
0.000339278
0.000498981
0.000482991
0.000151461
0.000484747
0.000264052
0.000286252
0.000496259
0.000403407
0.000289625
0.000553679
0.000314977
0.000151461
0.000292714
0.000430737
0.000537676
0.000407647
0.000479558
0.000449132
0.00023575
0.000231081
0.000197662
0.000226934
0.00032131
0.000245761
0.000395907
0.000247782
0.00042635
0.00030449
0.000293158
0.000342883
0.000318841
0.000423507
0.000305741
0.000314632
0.00013884
0.000316959
0.000458466
0.000458793
0.000415552
0.000305152
0.000198685
0.000576893
0.000387625
0.000323731
0.00029845
0.000297172
0.000307824
0.000375035
0.000302309
0.000216541
0.000298344
0.00020466
0.000369581
0.000304379
0.000129407
0.000286683
0.000338958
0.00030439
0.000468355
0.000316098
0.000407617
0.000156376
0.000327183
0.000312542
0.000272933
0.000293409
0.000346228
0.000325868
0.000340772
0.000289816
0.000294375
0.000317891
0.000424935
0.000299771
0.000424684
0.000383371
0.000302555
0.000310993
0.000313974
0.000347265
0.000313456
0.000293502
0.000333522
0.000349744
0.000412898
0.000313908
0.000311881
0.00045149
0.000445166
0.000299998
0.00030262
0.000135189
0.000365612
0.00025372
0.000343179
0.000151829
0.000157607
0.000140847
0.000143153
0.000151869
0.000159986
0.000164871
0.000385005
0.000284906
0.000287466
0.000328663
0.000320163
0.000316168
0.000334423
0.00030941
0.000316459
0.000321724
0.000314996
0.000386754
0.000286404
0.000397548
0.000309341
0.000298623
0.000315393
0.000336504
0.000351629
0.000327601
0.000375174
0.000350513
0.000325041
0.000234403
0.000326917
0.000319671
0.000344178
0.000329736
0.000312439
0.000297131
0.000327298
0.000341393
0.000463436
0.000306098
0.000450572
0.000469678
0.000321628
0.000449981
0.000345198
0.000276528
0.000376664
0.000330152
0.000237755
0.00020887
0.000371874
0.000396074
0.000335312
0.000278748
0.000335337
0.000159023
0.000331521
0.000311064
0.000158851
6.08626e-05
6.65783e-05
0.00028717
0.000306225
0.000355655
0.000341891
3.12907e-05
3.26956e-05
0.000338581
0.000342113
0.000323846
0.000119365
0.000286538
0.000333098
0.00033965
0.000292984
0.000258599
0.000124304
0.000490549
0.000308144
0.000376503
0.000382389
0.000274807
0.000347795
0.000268688
0.000296485
0.000147337
0.000222337
0.000348209
0.00035036
0.000301123
0.000316268
0.000326368
0.000344124
0.000329148
0.00016229
0.0002888
0.000325616
0.000307762
0.000461842
0.000162258
0.00024997
0.000257476
0.000244006
0.000158633
0.000158644
0.000279539
0.00022572
0.000322819
0.000173681
0.00018944
6.18536e-05
6.18533e-05
0.000129546
0.00020567
0.000138563
0.000275054
0.000297479
0.000317474
0.000357716
0.000324464
0.0003004
0.00023651
0.000146361
0.000296958
0.000307649
0.000297854
0.000164471
0.000151987
0.0001184
0.000297434
0.000303452
0.000243853
0.000275421
0.00025415
0.000232707
0.000311499
0.000232686
0.000274933
0.000265073
0.000162485
0.000200606
0.000186555
0.000329387
0.00013028
0.000137245
0.000134264
0.00031107
0.000124047
0.000121491
0.000216438
0.000113312
0.00025186
0.000252241
0.000116316
0.000274294
0.000129111
0.000128346
0.000144592
0.000122452
0.000120223
0.000179387
0.0001429
0.000129862
0.000122832
0.000251139
0.000286639
0.000135204
0.000277195
0.000111394
0.000281196
0.00022341
0.000116379
9.85394e-05
0.000109939
0.000145869
0.000241489
0.000198802
8.31666e-05
9.23151e-05
0.000269212
7.82866e-05
7.82859e-05
8.87075e-05
9.95713e-05
0.00011255
0.000130972
0.000216574
0.000200466
0.000269399
7.86548e-05
7.86543e-05
0.000236758
9.73773e-05
0.000191944
8.82382e-05
8.87667e-05
0.000116958
0.000202992
0.000210195
0.00022393
0.000205225
0.000202987
4.43464e-05
0.000327666
5.65682e-05
5.48079e-05
0.000264698
0.000262861
5.67966e-05
3.94492e-05
5.55851e-05
0.000244163
SCALARS rr_uec(SIM,_S_ext) float
LOOKUP_TABLE default
0.0133254
0.0303604
0.0242466
0.0316916
0.0165702
0.0257343
0.0131757
0.0315155
0.0270988
0.0341186
0.0120939
0.031612
0.0278194
0.0293808
0.0344215
0.0288958
0.0248515
0.0280955
0.0251672
0.0246046
0.0276773
0.00491382
0.0283583
0.0261363
0.0236915
0.0273301
0.0112036
0.0240064
0.0188419
0.0221766
0.0245767
0.0194778
0.0124109
0.016617
0.0163317
0.0166544
0.0215601
0.016365
0.0245518
0.01395
0.0158373
0.0190013
0.0190034
0.0269728
0.0155721
0.0171795
0.0236838
0.0239833
0.0224746
0.021515
0.0220922
0.0171312
0.0265956
0.0220129
0.0244854
0.0112959
0.0174376
0.0221743
0.017437
0.0268226
0.0317239
0.0310908
0.0110184
0.0219214
0.0297794
0.0281049
0.0306865
0.0265447
0.0244444
0.0348444
0.0288551
0.0285407
0.0195679
0.0227494
0.0240975
0.0128113
0.02481
0.0278443
0.0267681
0.0189049
0.017061
0.0187026
0.0354091
0.0170848
0.0230355
0.00855626
0.0277311
0.023174
0.0164909
0.0024181
0.0190745
0.00262994
0.0210521
0.020175
0.0180521
0.0164655
0.0156693
0.0299542
0.0248284
0.023902
0.0203077
0.0194826
0.0163931
0.028371
0.0288406
0.0259713
0.02284
0.0231703
0.0174017
0.0346072
0.0222392
0.0117458
0.0156977
0.0310501
0.0290878
0.0212579
0.0202207
0.0130207
0.0209732
0.0211739
0.018417
0.033554
0.0346013
0.0297211
0.0326984
0.0256535
0.0145115
0.0323413
0.0141917
0.0183055
0.0150729
0.0308707
0.0301525
0.0303109
0.0202632
0.012286
0.0135843
0.0222141
0.0271484
0.0122819
0.0169238
0.0261803
0.019838
0.0319656
0.0158479
0.026084
0.0236726
0.0228871
0.0146288
0.0186962
0.0208466
0.0297894
0.0174765
0.0269722
0.031239
0.0317373
0.0207664
0.0174319
0.017333
0.0272311
0.0228618
0.0173312
0.0114689
0.0169272
0.0168361
0.0291576
0.0176668
0.0178616
0.019349
0.0172161
0.0257044
0.0180308
0.0159651
0.0200663
0.0190487
0.022825
0.0254249
0.0244737
0.0207886
0.0244137
0.0187798
0.0282878
0.0303606
0.0169266
0.029738
0.0169194
0.0293692
0.0269988
0.0252052
0.0256579
0.0299988
0.0142284
0.018639
0.0173323
0.0302566
0.029789
0.0276182
0.0300784
0.0306259
0.0257211
0.0315408
0.0211635
0.0191003
0.0344354
0.0201144
0.0312765
0.0249147
0.0159055
0.0191311
0.03121
0.0259718
0.0236485
0.0304658
0.0298845
0.0193368
0.0191738
0.0186266
0.0265115
0.029254
0.0336203
0.0323005
0.0351429
0.0318446
0.0348002
0.0291979
0.0305084
0.0307461
0.0289841
0.0304491
0.028029
0.0276118
0.0195948
0.0263102
0.0307843
0.0213841
0.0313629
0.0288115
0.0333763
0.0200811
0.031741
0.0303421
0.0197202
0.0271844
0.019587
0.0305472
0.0278877
0.0205317
0.0193251
0.0167142
0.0192268
0.0305891
0.0140358
0.0235771
0.0192533
0.0216017
0.0317708
0.0307527
0.00964392
0.0308646
0.0168113
0.0182253
0.0315975
0.0256851
0.0184401
0.0352535
0.0200543
0.00964394
0.0186367
0.0274256
0.0342344
0.0259552
0.0305342
0.0285966
0.0150106
0.014713
0.0125845
0.0144482
0.0204583
0.0156476
0.0252076
0.015776
0.0271463
0.0193871
0.018665
0.0218316
0.0203003
0.0269649
0.0194662
0.0200322
0.00884037
0.0201813
0.0291914
0.0292122
0.0264585
0.0194287
0.0126507
0.0367314
0.02468
0.0206116
0.0190019
0.0189214
0.0195988
0.023879
0.0192476
0.0137865
0.0189953
0.0130301
0.0235317
0.0193795
0.00823974
0.0182528
0.0215818
0.0193802
0.0298207
0.0201256
0.025953
0.00995576
0.0208318
0.0198992
0.0173781
0.018681
0.0220442
0.0207483
0.0216974
0.0184522
0.0187425
0.0202399
0.027056
0.0190861
0.0270398
0.0244093
0.0192641
0.0198006
0.0199905
0.0221102
0.0199575
0.018687
0.0212351
0.0222686
0.0262894
0.0199863
0.0198571
0.0287466
0.028344
0.0191006
0.0192683
0.00860697
0.0232785
0.0161537
0.0218501
0.00966633
0.0100341
0.00896716
0.00911398
0.00966892
0.0101856
0.0104966
0.0245137
0.0181406
0.0183031
0.0209259
0.0203846
0.0201302
0.0212929
0.0196999
0.0201487
0.0204848
0.0200556
0.0246251
0.0182349
0.0253125
0.0196958
0.0190133
0.0200809
0.0214257
0.0223882
0.0208582
0.0238874
0.0223171
0.0206952
0.0149242
0.0208147
0.0203534
0.0219143
0.0209941
0.0198928
0.0189182
0.0208389
0.0217365
0.0295072
0.0194891
0.0286881
0.0299044
0.0204779
0.0286505
0.0219788
0.0176063
0.0239826
0.0210207
0.0151384
0.0132982
0.0236776
0.0252185
0.0213493
0.0177478
0.0213512
0.0101244
0.021108
0.0198053
0.0101134
0.00387529
0.00423923
0.0182842
0.0194972
0.0226444
0.021768
0.00199238
0.00208184
0.0215577
0.0217825
0.0206194
0.00759949
0.0182437
0.0212087
0.0216253
0.0186541
0.0164649
0.007914
0.0312337
0.0196194
0.0239719
0.0243467
0.0174969
0.022144
0.0171072
0.0188771
0.00938039
0.0141555
0.0221704
0.0223074
0.0191724
0.0201367
0.0207797
0.0219103
0.0209567
0.0103325
0.0183883
0.0207318
0.0195955
0.0294059
0.0103305
0.0159156
0.0163936
0.0155362
0.0101007
0.0101014
0.0177987
0.0143714
0.0205539
0.0110577
0.0120622
0.00393843
0.00393841
0.00824771
0.0130954
0.00882271
0.0175127
0.0189409
0.0202137
0.0227761
0.020659
0.0191268
0.0150587
0.00931824
0.0189074
0.0195882
0.0189647
0.0104712
0.00967742
0.00753796
0.018938
0.019321
0.0155259
0.0175361
0.0161818
0.0148169
0.0198333
0.0148156
0.017505
0.0168775
0.0103458
0.0127731
0.0118774
0.0209724
0.00829413
0.00873755
0.00854783
0.0198061
0.00789754
0.00773466
0.0137805
0.00721392
0.0160364
0.0160607
0.00740513
0.0174643
0.00821993
0.00817099
0.00920561
0.00779577
0.00765413
0.011422
0.009098
0.00826778
0.00781999
0.0159901
0.0182507
0.00860786
0.0176491
0.00709185
0.0179039
0.0142245
0.00740915
0.0062736
0.00699915
0.00928693
0.0153756
0.0126581
0.00529551
0.00587803
0.0171409
0.00498479
0.00498474
0.00564832
0.00634002
0.00716573
0.00833934
0.0137896
0.0127641
0.0171528
0.00500821
0.00500817
0.0150748
0.00619966
0.012221
0.00561775
0.00565135
0.00744622
0.0129252
0.0133838
0.0142583
0.0130673
0.0129248
0.00282368
0.0208634
0.00360188
0.0034898
0.0168541
0.0167372
0.00361643
0.00251186
0.00353928
0.0155466
SCALARS rr_uec(PEX,_P_ext) float
LOOKUP_TABLE default
-0.0608772
-0.138745
-0.110803
-0.144827
-0.0757314
-0.117601
-0.0601935
-0.144023
-0.123833
-0.15592
-0.055251
-0.144464
-0.127131
-0.134269
-0.157313
-0.132049
-0.113572
-0.128393
-0.115005
-0.112437
-0.126479
-0.0224604
-0.129591
-0.119437
-0.108265
-0.124896
-0.0511867
-0.109705
-0.0860929
-0.101359
-0.112313
-0.0889984
-0.0567025
-0.0759472
-0.0746441
-0.0761183
-0.0985415
-0.0747961
-0.112198
-0.0637342
-0.0723639
-0.0868468
-0.086856
-0.123262
-0.0711468
-0.0784975
-0.108227
-0.109597
-0.102705
-0.0983047
-0.100943
-0.0782792
-0.12155
-0.100585
-0.111906
-0.0516104
-0.0796988
-0.101323
-0.0796962
-0.122574
-0.144978
-0.142089
-0.050342
-0.100184
-0.136096
-0.12844
-0.140237
-0.121307
-0.111705
-0.159236
-0.131877
-0.13044
-0.0894102
-0.103966
-0.110122
-0.0585305
-0.113387
-0.127249
-0.122328
-0.0863843
-0.0779536
-0.0854784
-0.161822
-0.0780616
-0.105256
-0.0390927
-0.126726
-0.105906
-0.0753448
-0.0110526
-0.0871589
-0.0120209
-0.0962128
-0.0921998
-0.0824873
-0.0752334
-0.071595
-0.136889
-0.113471
-0.109229
-0.0927972
-0.0890224
-0.0749008
-0.129652
-0.131799
-0.118687
-0.104381
-0.105885
-0.0795091
-0.158153
-0.101628
-0.0536657
-0.0717226
-0.141895
-0.132929
-0.0971358
-0.0924191
-0.059493
-0.0958584
-0.096752
-0.0841582
-0.153347
-0.158125
-0.135827
-0.14943
-0.117242
-0.0663242
-0.147797
-0.0648436
-0.083645
-0.0688876
-0.141076
-0.137799
-0.138518
-0.0925893
-0.0561535
-0.0620672
-0.101516
-0.12407
-0.0561346
-0.0773304
-0.119643
-0.0906524
-0.146081
-0.0724109
-0.119201
-0.108182
-0.10459
-0.0668509
-0.0854322
-0.0952632
-0.136135
-0.0798539
-0.12326
-0.14276
-0.145037
-0.094902
-0.0796525
-0.0792006
-0.124442
-0.104472
-0.0791903
-0.0524003
-0.0773432
-0.0769298
-0.133248
-0.0807257
-0.0816161
-0.0884099
-0.0786665
-0.117475
-0.0823896
-0.0729475
-0.0917031
-0.0870408
-0.104312
-0.116198
-0.111843
-0.0950108
-0.111569
-0.085809
-0.129273
-0.138745
-0.0773433
-0.135904
-0.0773077
-0.134218
-0.123387
-0.115194
-0.117255
-0.137096
-0.0650115
-0.0851689
-0.0791949
-0.13827
-0.136132
-0.126212
-0.13746
-0.139958
-0.117546
-0.144139
-0.0967095
-0.0872771
-0.157371
-0.0919076
-0.142936
-0.113861
-0.072677
-0.0874323
-0.142627
-0.118696
-0.108073
-0.139226
-0.136574
-0.0883597
-0.0876241
-0.0851132
-0.12116
-0.133689
-0.153643
-0.147611
-0.160601
-0.145528
-0.159034
-0.133433
-0.139429
-0.140515
-0.132462
-0.139158
-0.128101
-0.126194
-0.0895382
-0.120236
-0.14068
-0.0977192
-0.143334
-0.131674
-0.152525
-0.0917592
-0.145052
-0.138661
-0.0901117
-0.124237
-0.0895031
-0.139603
-0.127443
-0.09382
-0.0883048
-0.076369
-0.0878493
-0.139794
-0.0641307
-0.107744
-0.0879767
-0.0987118
-0.145188
-0.140538
-0.0440783
-0.141049
-0.0768123
-0.0832792
-0.144396
-0.117379
-0.0842603
-0.161107
-0.0916409
-0.0440783
-0.0851594
-0.125334
-0.156452
-0.118612
-0.139547
-0.130688
-0.0686031
-0.0672367
-0.0574983
-0.0660122
-0.0935
-0.0715058
-0.115196
-0.0720886
-0.124063
-0.0885991
-0.0852884
-0.0997706
-0.0927633
-0.123228
-0.088952
-0.0915357
-0.0404067
-0.0922336
-0.13341
-0.133505
-0.120914
-0.0887808
-0.0578194
-0.167863
-0.112781
-0.0941864
-0.08683
-0.0864761
-0.0895569
-0.109133
-0.087953
-0.0629889
-0.0868002
-0.0595359
-0.107542
-0.0885549
-0.0376613
-0.083407
-0.0986303
-0.0885577
-0.136282
-0.0919647
-0.118601
-0.0454867
-0.0951972
-0.0909296
-0.0794226
-0.0853629
-0.100736
-0.0948208
-0.0991554
-0.0843183
-0.0856453
-0.0924888
-0.123649
-0.0872154
-0.123569
-0.111546
-0.0880433
-0.0904802
-0.0913489
-0.101038
-0.0911986
-0.0853911
-0.0970369
-0.101771
-0.12014
-0.0913299
-0.0907373
-0.13137
-0.12953
-0.0872812
-0.0880621
-0.0393206
-0.106379
-0.0738079
-0.0998499
-0.0441514
-0.0458315
-0.040958
-0.0416285
-0.0441632
-0.0465232
-0.047944
-0.11203
-0.0829097
-0.0836428
-0.0956254
-0.0931501
-0.0919877
-0.097307
-0.0900213
-0.0920719
-0.0936239
-0.0916466
-0.112541
-0.0833221
-0.115682
-0.0900061
-0.0868853
-0.0917621
-0.0979214
-0.102311
-0.0953166
-0.109162
-0.101983
-0.0945691
-0.0681944
-0.0951175
-0.0930117
-0.100152
-0.0959359
-0.0909021
-0.0864495
-0.0952279
-0.0993318
-0.134846
-0.0890583
-0.131103
-0.136657
-0.0935784
-0.13093
-0.100439
-0.0804545
-0.109602
-0.0960592
-0.0691882
-0.0607576
-0.108209
-0.115252
-0.0975625
-0.0811032
-0.0975752
-0.046253
-0.0964597
-0.0905053
-0.0462069
-0.0177128
-0.0193763
-0.0835556
-0.0890949
-0.10348
-0.0994723
-0.00910706
-0.00951595
-0.0985163
-0.0995441
-0.0942286
-0.0347183
-0.0833668
-0.0969252
-0.0988218
-0.0852439
-0.0752399
-0.0361547
-0.142739
-0.0896532
-0.109548
-0.111261
-0.0799555
-0.101192
-0.078175
-0.0862629
-0.0428568
-0.0646781
-0.101313
-0.101941
-0.0876131
-0.0920185
-0.0949579
-0.100125
-0.0957671
-0.047208
-0.0840381
-0.094737
-0.0895514
-0.134387
-0.0471987
-0.0727316
-0.0749154
-0.0710055
-0.0461668
-0.0461699
-0.0813444
-0.0656719
-0.0939279
-0.0505211
-0.0551321
-0.0180022
-0.0180021
-0.037679
-0.0598527
-0.0403246
-0.0800296
-0.0865644
-0.092374
-0.104085
-0.0944126
-0.0874111
-0.0688168
-0.0425701
-0.0864038
-0.0895181
-0.0866699
-0.0478394
-0.0442306
-0.03444
-0.0865476
-0.0882961
-0.070946
-0.0801378
-0.0739495
-0.0677179
-0.0906367
-0.0677119
-0.0799949
-0.0771312
-0.0472859
-0.0583799
-0.0542661
-0.0958431
-0.0378916
-0.0399177
-0.0390502
-0.0905149
-0.0360797
-0.035335
-0.0629727
-0.0329565
-0.0732927
-0.0734036
-0.0338303
-0.0798073
-0.0375551
-0.037329
-0.0420581
-0.0356148
-0.0349698
-0.0522041
-0.041567
-0.0377712
-0.0357255
-0.0730731
-0.0834077
-0.0393269
-0.0806545
-0.0323984
-0.08182
-0.0650026
-0.0338485
-0.0286622
-0.0319752
-0.0424266
-0.0702635
-0.0578528
-0.024205
-0.0268675
-0.0783334
-0.0227847
-0.0227845
-0.0258176
-0.0289785
-0.032739
-0.038115
-0.063022
-0.0583372
-0.0783874
-0.0228913
-0.0228911
-0.0688988
-0.0283226
-0.055847
-0.0256645
-0.0258202
-0.0340206
-0.0590759
-0.0611722
-0.0651691
-0.0597255
-0.0590744
-0.0129066
-0.0953588
-0.0164633
-0.0159514
-0.0770338
-0.0764994
-0.0165303
-0.0114813
-0.0161772
-0.0710571
SCALARS cell_type float
LOOKUP_TABLE default
0
0
0
0
0
0
0
0
0
0
0
0
0
0
0
0
0
0
0
0
0
1
0
0
0
0
0
0
0
0
0
0
0
0
0
0
0
0
0
0
0
0
0
0
0
0
0
0
0
0
0
0
0
0
0
0
0
0
0
0
0
0
0
0
0
0
0
0
0
0
0
0
0
0
0
0
0
0
0
0
0
0
0
0
0
0
0
0
0
0
0
0
0
0
0
0
0
0
0
0
0
0
0
0
0
0
0
0
0
0
0
0
0
0
0
0
0
0
0
0
0
0
0
0
0
0
0
0
0
0
0
0
0
0
0
0
0
0
0
0
0
0
0
0
0
0
0
0
0
0
0
0
0
0
0
0
0
0
0
0
0
0
0
0
0
0
0
0
0
0
0
0
0
0
0
0
0
0
0
0
0
0
0
0
0
0
0
0
0
0
0
0
0
0
0
0
0
0
0
0
0
0
0
0
0
0
0
0
0
0
0
0
0
0
0
0
0
0
0
0
0
0
0
0
0
0
0
0
0
0
0
0
0
0
0
0
0
0
0
0
0
0
0
0
0
0
0
0
0
0
0
0
0
0
0
0
0
0
0
0
0
0
0
0
0
0
0
0
0
0
0
0
0
0
0
0
0
0
0
0
0
0
0
0
0
0
0
0
0
0
0
0
0
0
0
0
0
0
0
0
0
0
0
0
0
0
0
0
0
0
0
0
0
0
0
0
0
0
0
0
0
0
0
0
0
0
0
0
0
0
0
0
0
0
0
0
0
0
0
0
0
0
0
0
0
0
0
0
0
0
2
2
2
2
2
2
2
0
0
0
0
0
0
0
0
0
0
0
0
0
0
0
0
0
0
0
0
0
0
0
0
0
0
0
0
0
0
0
0
0
0
0
0
0
0
0
0
0
0
0
0
0
0
0
0
0
0
0
0
0
0
0
0
0
0
0
1
1
0
0
0
0
0
0
0
0
0
0
0
0
0
0
0
0
0
0
0
0
0
0
0
0
0
0
0
0
0
0
0
0
0
0
0
0
0
0
0
0
0
0
0
1
1
0
0
0
0
0
0
0
0
0
0
0
0
0
0
0
0
0
0
0
0
0
0
0
0
0
0
0
0
0
0
0
0
0
0
0
0
0
0
0
0
0
0
0
0
0
0
0
0
0
0
0
0
0
0
0
0
0
0
0
0
0
0
0
0
0
1
1
0
0
0
0
0
0
0
0
0
0
0
0
0
0
0
0
0
0
0
0
0
0
0
0
0
0
0
0
0
0
0
0
0
TENSORS Lagrange_strain float
0.0305674 -0.00319815 4.02241e-10
-0.00319815 0.0133887 -1.64779e-07
4.02241e-10 -1.64779e-07 0.00740157

0.0291919 -0.00280096 5.37225e-08
-0.00280096 0.0335526 2.12003e-08
5.37225e-08 2.12003e-08 0.0331626

0.0300206 0.00367889 -3.73024e-08
0.00367889 0.0311685 4.42201e-08
-3.73024e-08 4.42201e-08 0.030467

0.0291607 -0.00392483 8.42112e-08
-0.00392483 0.0327978 3.14856e-08
8.42112e-08 3.14856e-08 0.0330874

0.0353659 0.00266905 -3.43346e-08
0.00266905 0.0380855 8.79879e-08
-3.43346e-08 8.79879e-08 0.0352915

0.0277344 -0.00236704 -1.02585e-07
-0.00236704 0.0333831 3.76598e-09
-1.02585e-07 3.76598e-09 0.030438

0.0302614 0.00339396 -2.04117e-09
0.00339396 0.0134944 -5.95126e-08
-2.04117e-09 -5.95126e-08 0.00746301

0.0317533 0.00393958 1.19589e-07
0.00393958 0.031199 7.89772e-08
1.19589e-07 7.89772e-08 0.0315598

0.0332408 0.000715586 5.36331e-08
0.000715586 0.0262206 -2.02691e-09
5.36331e-08 -2.02691e-09 0.0281412

0.0354666 -0.000991017 -4.64198e-08
-0.000991017 0.0275503 -4.1778e-08
-4.64198e-08 -4.1778e-08 0.0327201

0.0280606 0.00205094 -1.51199e-07
0.00205094 0.0138087 2.6248e-07
-1.51199e-07 2.6248e-07 0.0117532

0.0279523 -0.0017657 -1.27942e-07
-0.0017657 0.0350053 -7.63346e-08
-1.27942e-07 -7.63346e-08 0.0315484

0.0311203 0.00365697 1.63935e-07
0.00365697 0.0312995 -6.1225e-08
1.63935e-07 -6.1225e-08 0.0310787

0.0290684 -0.00188008 -1.11094e-07
-0.00188008 0.0347977 -2.68809e-08
-1.11094e-07 -2.68809e-08 0.0325456

0.0346304 0.00441856 3.9988e-08
0.00441856 0.0343614 -3.14921e-08
3.9988e-08 -3.14921e-08 0.0348839

0.0343264 7.30402e-05 -1.23508e-07
7.30402e-05 0.0272851 -5.09161e-08
-1.23508e-07 -5.09161e-08 0.0307775

0.0286922 -0.00235366 -1.30895e-07
-0.00235366 0.0360132 -9.49519e-08
-1.30895e-07 -9.49519e-08 0.0334492

0.0345724 -0.000352974 -5.22723e-08
-0.000352974 0.0273555 -3.43725e-08
-5.22723e-08 -3.43725e-08 0.0319762

0.0269191 0.00347799 -1.41968e-07
0.00347799 0.030944 1.56928e-07
-1.41968e-07 1.56928e-07 0.0275758

0.0338834 -0.000550307 -1.27001e-09
-0.000550307 0.0264085 1.25594e-07
-1.27001e-09 1.25594e-07 0.0301333

0.0266212 0.0011352 -1.69929e-08
0.0011352 0.0340324 -1.60809e-07
-1.69929e-08 -1.60809e-07 0.0291491

0.0452949 0.000850885 -9.07484e-07
0.000850885 0.0452638 -3.52452e-07
-9.07484e-07 -3.52452e-07 0.0366375

0.0336741 0.000247713 5.79499e-08
0.000247713 0.0263145 -2.47672e-09
5.79499e-08 -2.47672e-09 0.0298042

0.0293086 -0.0036319 -6.90455e-09
-0.0036319 0.0311349 8.21958e-09
-6.90455e-09 8.21958e-09 0.0300459

0.0337785 0.000900039 -3.7471e-08
0.000900039 0.0264956 -2.59309e-07
-3.7471e-08 -2.59309e-07 0.0300803

0.0285452 0.00250766 7.9816e-08
0.00250766 0.0338925 5.59729e-08
7.9816e-08 5.59729e-08 0.032286

0.0286288 0.000526644 5.85529e-09
0.000526644 0.0176893 -6.3787e-08
5.85529e-09 -6.3787e-08 0.0131709

0.0309132 0.00403441 1.16557e-07
0.00403441 0.0306456 4.41999e-08
1.16557e-07 4.41999e-08 0.0306099

0.0259239 0.00477621 2.14103e-07
0.00477621 0.0257322 -1.37061e-07
2.14103e-07 -1.37061e-07 0.0211274

0.0415291 0.00136972 -1.67155e-07
0.00136972 0.0383502 1.21169e-07
-1.67155e-07 1.21169e-07 0.0361345

0.0344096 0.00187123 1.39716e-07
0.00187123 0.0279516 5.7049e-08
1.39716e-07 5.7049e-08 0.0309991

0.0217591 -0.00228775 1.4414e-07
-0.00228775 0.0299916 -1.98675e-07
1.4414e-07 -1.98675e-07 0.0211242

0.0228628 -0.00535223 2.20506e-07
-0.00535223 0.0234724 -2.53156e-07
2.20506e-07 -2.53156e-07 0.0125786

0.0348321 0.000800937 -4.74413e-08
0.000800937 0.0422549 -1.00211e-07
-4.74413e-08 -1.00211e-07 0.0357856

0.0374529 -0.000662024 1.27221e-07
-0.000662024 0.0412025 -6.80418e-08
1.27221e-07 -6.80418e-08 0.0359001

0.0410751 0.00281316 -1.15724e-07
0.00281316 0.0359856 2.12104e-07
-1.15724e-07 2.12104e-07 0.0357658

0.0372534 0.000705414 -2.00436e-07
0.000705414 0.0432156 2.96721e-07
-2.00436e-07 2.96721e-07 0.036141

0.0402605 -0.00121855 2.32037e-07
-0.00121855 0.0378296 -1.71426e-07
2.32037e-07 -1.71426e-07 0.0358074

0.0312148 -0.00367784 -1.67471e-07
-0.00367784 0.0311223 -1.48587e-09
-1.67471e-07 -1.48587e-09 0.0309246

0.0227469 0.00527882 1.17225e-07
0.00527882 0.0237083 1.7958e-07
1.17225e-07 1.7958e-07 0.0125807

0.0297601 -0.00231581 -3.98314e-08
-0.00231581 0.0220304 3.51685e-08
-3.98314e-08 3.51685e-08 0.0208742

0.0376188 -0.000522775 4.59621e-08
-0.000522775 0.0430638 1.44451e-07
4.59621e-08 1.44451e-07 0.0361436

0.0412402 0.00263452 7.01853e-08
0.00263452 0.0394146 -7.56511e-08
7.01853e-08 -7.56511e-08 0.0361262

0.0342999 -0.00161716 1.68877e-09
-0.00161716 0.0279937 1.1321e-07
1.68877e-09 1.1321e-07 0.0310831

0.0231049 -0.00552552 -2.09543e-07
-0.00552552 0.0235621 2.16633e-07
-2.09543e-07 2.16633e-07 0.0162155

0.0299422 -0.0023321 -8.00851e-08
-0.0023321 0.0221546 -1.64056e-07
-8.00851e-08 -1.64056e-07 0.0213435

0.0258928 0.00222734 -1.75342e-07
0.00222734 0.0326531 1.71109e-07
-1.75342e-07 1.71109e-07 0.0279144

0.0275498 0.00252876 8.74931e-08
0.00252876 0.0323726 -1.86289e-07
8.74931e-08 -1.86289e-07 0.02849

0.0341743 -0.00214078 -7.52828e-09
-0.00214078 0.0271063 1.04323e-07
-7.52828e-09 1.04323e-07 0.0304713

0.0229019 -0.00439223 -2.4366e-08
-0.00439223 0.0272481 -6.51028e-08
-2.4366e-08 -6.51028e-08 0.0198496

0.0294929 0.00247139 5.23388e-08
0.00247139 0.0218336 6.00146e-08
5.23388e-08 6.00146e-08 0.0202803

0.0298711 -0.00327062 4.51161e-08
-0.00327062 0.0245127 -8.52122e-08
4.51161e-08 -8.52122e-08 0.0230475

0.0344771 0.00257788 1.07268e-07
0.00257788 0.0382023 -3.79927e-08
1.07268e-07 -3.79927e-08 0.0352702

0.0286884 0.00383836 2.56513e-08
0.00383836 0.0257788 -1.32446e-07
2.56513e-08 -1.32446e-07 0.023116

0.0349278 -0.00291582 8.10994e-08
-0.00291582 0.0374319 -1.94667e-07
8.10994e-08 -1.94667e-07 0.0351886

0.0255794 -0.00545511 2.4741e-07
-0.00545511 0.0229016 -1.08516e-07
2.4741e-07 -1.08516e-07 0.0158191

0.0373463 0.000746133 1.93626e-07
0.000746133 0.0414128 8.22425e-08
1.93626e-07 8.22425e-08 0.0359206

0.023167 -0.000693229 1.29451e-07
-0.000693229 0.0313123 -2.24781e-07
1.29451e-07 -2.24781e-07 0.0231021

0.0410301 0.00138007 6.37035e-08
0.00138007 0.0377063 -8.5785e-08
6.37035e-08 -8.5785e-08 0.0358988

0.0276747 0.00280504 1.34381e-07
0.00280504 0.0327483 -1.90937e-08
1.34381e-07 -1.90937e-08 0.0302303

0.0361383 0.000784769 1.44554e-09
0.000784769 0.0281307 -7.3462e-08
1.44554e-09 -7.3462e-08 0.0336724

0.0362536 0.00153416 3.28448e-08
0.00153416 0.0316925 2.36425e-07
3.28448e-08 2.36425e-07 0.03422

0.0286366 0.00405695 -2.0204e-07
0.00405695 0.0198968 2.38238e-08
-2.0204e-07 2.38238e-08 0.0137588

0.0309718 -0.000783986 1.39283e-07
-0.000783986 0.0370843 7.33965e-08
1.39283e-07 7.33965e-08 0.0338808

0.0315544 0.00124365 -2.35162e-08
0.00124365 0.03642 -1.71793e-09
-2.35162e-08 -1.71793e-09 0.0342588

0.0285481 -0.000375274 2.12452e-07
-0.000375274 0.0369552 4.5429e-08
2.12452e-07 4.5429e-08 0.0326699

0.029602 0.00307126 1.25234e-07
0.00307126 0.0347905 -1.10588e-07
1.25234e-07 -1.10588e-07 0.0337082

0.0347184 0.00112208 1.83465e-09
0.00112208 0.0278379 4.68001e-08
1.83465e-09 4.68001e-08 0.0322078

0.0291867 -0.00369882 -1.98973e-08
-0.00369882 0.0310203 -4.95304e-08
-1.98973e-08 -4.95304e-08 0.0299088

0.0350538 -0.000236851 -7.95981e-08
-0.000236851 0.0275791 -4.24351e-08
-7.95981e-08 -4.24351e-08 0.0333923

0.0344517 -0.00254819 1.42958e-07
-0.00254819 0.0381332 4.30106e-09
1.42958e-07 4.30106e-09 0.0352603

0.0350102 0.00284944 4.91099e-08
0.00284944 0.0375695 -8.49736e-08
4.91099e-08 -8.49736e-08 0.0352401

0.0218881 -0.00213159 7.1227e-08
-0.00213159 0.0299213 1.81181e-07
7.1227e-08 1.81181e-07 0.0208507

0.0347007 -0.00369103 -1.7344e-07
-0.00369103 0.0319575 6.46399e-08
-1.7344e-07 6.46399e-08 0.0330783

0.029291 -0.00329739 -9.84487e-09
-0.00329739 0.032112 -3.1803e-08
-9.84487e-09 -3.1803e-08 0.0304326

0.0267791 -0.00401676 -1.31946e-07
-0.00401676 0.0176049 -5.17182e-08
-1.31946e-07 -5.17182e-08 0.0127255

0.0324035 0.000418566 -3.40455e-08
0.000418566 0.0381042 1.44151e-09
-3.40455e-08 1.44151e-09 0.0344051

0.034537 0.00381733 1.56828e-08
0.00381733 0.0309408 1.7058e-07
1.56828e-08 1.7058e-07 0.0326595

0.0283756 0.00258135 1.14685e-07
0.00258135 0.0341285 -6.72458e-09
1.14685e-07 -6.72458e-09 0.032213

0.0315408 0.0010377 -8.97444e-08
0.0010377 0.0228433 1.2442e-07
-8.97444e-08 1.2442e-07 0.0240685

0.0270967 -0.0043584 -3.07847e-08
-0.0043584 0.0237362 2.32808e-07
-3.07847e-08 2.32808e-07 0.018323

0.0362597 -0.00140293 -3.51019e-07
-0.00140293 0.0387422 -2.49491e-08
-3.51019e-07 -2.49491e-08 0.0354006

0.0315553 0.00317078 4.15362e-08
0.00317078 0.0344004 -3.1493e-08
4.15362e-08 -3.1493e-08 0.0340896

0.0273005 -0.00415593 -7.95209e-09
-0.00415593 0.0221744 -4.70143e-08
-7.95209e-09 -4.70143e-08 0.0184108

0.0303572 0.00139095 1.96576e-08
0.00139095 0.0228299 1.21902e-07
1.96576e-08 1.21902e-07 0.0209539

0.0186016 -0.00269681 1.70238e-07
-0.00269681 0.0289277 -7.69926e-08
1.70238e-07 -7.69926e-08 0.0158926

0.0271992 0.001889 4.93377e-08
0.001889 0.034319 -1.67065e-09
4.93377e-08 -1.67065e-09 0.0306538

0.0353814 0.00305675 1.53894e-07
0.00305675 0.0308194 5.86967e-08
1.53894e-07 5.86967e-08 0.032753

0.0226474 0.00538564 -1.96761e-07
0.00538564 0.024088 -1.83028e-07
-1.96761e-07 -1.83028e-07 0.0161981

0.0459502 0.00223795 -3.96853e-07
0.00223795 0.0417503 2.12724e-07
-3.96853e-07 2.12724e-07 0.0366384

0.0230807 -0.000534267 1.42921e-08
-0.000534267 0.031353 6.11346e-08
1.42921e-08 6.11346e-08 0.0230719

0.0463635 -0.00225609 4.16479e-07
-0.00225609 0.0412944 -9.8993e-08
4.16479e-07 -9.8993e-08 0.0365935

0.0370646 -0.0036241 -4.82335e-08
-0.0036241 0.0334903 2.90404e-08
-4.82335e-08 2.90404e-08 0.0346202

0.0351369 0.00361937 1.35195e-07
0.00361937 0.0300034 1.27687e-07
1.35195e-07 1.27687e-07 0.0324557

0.0299611 -0.00315875 -1.72431e-07
-0.00315875 0.0246898 -2.0422e-08
-1.72431e-07 -2.0422e-08 0.0232853

0.0230118 0.0040296 8.37551e-09
0.0040296 0.027778 2.34339e-07
8.37551e-09 2.34339e-07 0.0203815

0.0210934 -0.00137843 1.35389e-09
-0.00137843 0.0298942 1.83069e-07
1.35389e-09 1.83069e-07 0.018251

0.0287448 0.00288882 1.18728e-07
0.00288882 0.0342263 -6.01689e-09
1.18728e-07 -6.01689e-09 0.0326989

0.0370112 0.0022361 1.94385e-07
0.0022361 0.0334515 -1.80341e-07
1.94385e-07 -1.80341e-07 0.0343835

0.0281474 0.00198804 1.16539e-07
0.00198804 0.0340588 3.56242e-09
1.16539e-07 3.56242e-09 0.0308646

0.0318816 0.00207299 -1.13704e-07
0.00207299 0.0252534 8.72149e-08
-1.13704e-07 8.72149e-08 0.0256167

0.0239069 -0.00277427 1.06821e-07
-0.00277427 0.029764 1.85039e-07
1.06821e-07 1.85039e-07 0.0215608

0.0278979 -0.00376362 -1.13495e-07
-0.00376362 0.0218147 2.92863e-08
-1.13495e-07 2.92863e-08 0.0180754

0.0293303 -0.00323169 7.26156e-08
-0.00323169 0.0326287 -6.43012e-08
7.26156e-08 -6.43012e-08 0.032402

0.0306256 0.00361462 1.53757e-07
0.00361462 0.0322278 -7.64296e-08
1.53757e-07 -7.64296e-08 0.0323698

0.0287069 0.00304788 -3.08296e-08
0.00304788 0.0340257 4.20951e-08
-3.08296e-08 4.20951e-08 0.0326292

0.0292061 0.00172528 -2.57635e-08
0.00172528 0.0376165 -2.93026e-09
-2.57635e-08 -2.93026e-09 0.0338453

0.0344758 0.00123244 8.75384e-08
0.00123244 0.0275229 3.49437e-08
8.75384e-08 3.49437e-08 0.0306739

0.0199602 -0.000605127 1.95513e-07
-0.000605127 0.0296597 -5.09227e-09
1.95513e-07 -5.09227e-09 0.0181034

0.0297965 -0.00486293 -1.63762e-07
-0.00486293 0.0330481 1.76487e-08
-1.63762e-07 1.76487e-08 0.0337407

0.0290805 0.00359981 -1.16504e-07
0.00359981 0.0313588 -2.05927e-08
-1.16504e-07 -2.05927e-08 0.0302631

0.0181051 0.000282829 -4.78068e-08
0.000282829 0.0293097 1.93595e-07
-4.78068e-08 1.93595e-07 0.0168779

0.0278423 0.00442356 -1.07065e-07
0.00442356 0.0209676 9.93131e-08
-1.07065e-07 9.93131e-08 0.0174542

0.0291902 -0.00302018 9.28515e-08
-0.00302018 0.0327023 1.08703e-07
9.28515e-08 1.08703e-07 0.0321844

0.0352413 0.000759801 -1.98884e-08
0.000759801 0.0273377 8.79039e-08
-1.98884e-08 8.79039e-08 0.0325518

0.0294261 0.00351999 -1.40602e-07
0.00351999 0.0252004 1.03074e-07
-1.40602e-07 1.03074e-07 0.0231104

0.0396355 0.0017099 -1.18835e-07
0.0017099 0.0390391 -3.4951e-08
-1.18835e-07 -3.4951e-08 0.0359393

0.028374 0.00312327 -1.25958e-07
0.00312327 0.0224008 1.98766e-07
-1.25958e-07 1.98766e-07 0.0182858

0.039488 -0.00175087 5.20505e-08
-0.00175087 0.0390646 3.93434e-08
5.20505e-08 3.93434e-08 0.0359044

0.0232603 0.000103513 1.99897e-09
0.000103513 0.0315167 -2.41262e-07
1.99897e-09 -2.41262e-07 0.0231188

0.0327571 -0.000288485 -1.36866e-07
-0.000288485 0.0246592 -1.99338e-07
-1.36866e-07 -1.99338e-07 0.0269653

0.0380534 -0.00212929 7.72856e-08
-0.00212929 0.0304629 -1.36722e-07
7.72856e-08 -1.36722e-07 0.0347924

0.0292372 0.00320588 5.8236e-08
0.00320588 0.033277 -1.37719e-07
5.8236e-08 -1.37719e-07 0.0333419

0.0289494 -0.00177248 3.11776e-08
-0.00177248 0.0366083 -2.48728e-09
3.11776e-08 -2.48728e-09 0.0334987

0.0365824 -0.0010848 -9.752e-08
-0.0010848 0.0264752 -1.43792e-08
-9.752e-08 -1.43792e-08 0.033859

0.0311793 -0.00292612 1.35594e-07
-0.00292612 0.0383051 1.51118e-07
1.35594e-07 1.51118e-07 0.0348427

0.0381645 -0.000885036 -1.85637e-07
-0.000885036 0.0387309 9.14272e-08
-1.85637e-07 9.14272e-08 0.0358344

0.030179 -0.00393969 4.9241e-08
-0.00393969 0.0327096 1.08935e-07
4.9241e-08 1.08935e-07 0.0327622

0.0213321 0.00146951 -7.27403e-09
0.00146951 0.0296126 2.17047e-07
-7.27403e-09 2.17047e-07 0.0182949

0.0293866 -0.00364544 6.86853e-08
-0.00364544 0.0253484 -3.10831e-08
6.86853e-08 -3.10831e-08 0.0231811

0.0328586 -0.0018169 2.09849e-07
-0.0018169 0.0397168 -2.64559e-07
2.09849e-07 -2.64559e-07 0.03524

0.03509 7.67424e-05 -8.60266e-09
7.67424e-05 0.027221 8.89359e-08
-8.60266e-09 8.89359e-08 0.0332501

0.0308173 -0.00282894 -1.00365e-07
-0.00282894 0.0348906 2.18391e-07
-1.00365e-07 2.18391e-07 0.0340831

0.0295334 0.00338889 -6.01058e-08
0.00338889 0.0328704 7.6063e-08
-6.01058e-08 7.6063e-08 0.0333249

0.0264594 -0.00406313 -9.8739e-08
-0.00406313 0.0272607 -6.6824e-08
-9.8739e-08 -6.6824e-08 0.0215836

0.0371718 -0.000958388 -3.31342e-08
-0.000958388 0.0416093 -9.78547e-08
-3.31342e-08 -9.78547e-08 0.0358856

0.0227102 -0.00423746 -7.79875e-08
-0.00423746 0.0272426 2.08354e-08
-7.79875e-08 2.08354e-08 0.0168767

0.0341818 -0.00252475 -4.20076e-09
-0.00252475 0.0286054 -2.28169e-07
-4.20076e-09 -2.28169e-07 0.0310434

0.0364245 0.000289876 1.19918e-07
0.000289876 0.0294364 4.11892e-08
1.19918e-07 4.11892e-08 0.0341927

0.0396399 0.0023967 3.08132e-09
0.0023967 0.0391125 6.78663e-08
3.08132e-09 6.78663e-08 0.0358666

0.0238554 0.00260904 2.0185e-07
0.00260904 0.0301503 -1.20872e-07
2.0185e-07 -1.20872e-07 0.0217979

0.0334297 0.00358129 -4.27708e-08
0.00358129 0.0307141 8.44757e-08
-4.27708e-08 8.44757e-08 0.0317662

0.0316419 -0.00319427 -8.12444e-08
-0.00319427 0.026551 -6.32694e-08
-8.12444e-08 -6.32694e-08 0.0269344

0.0289281 -0.00234088 -5.69073e-08
-0.00234088 0.0342333 -1.94291e-07
-5.69073e-08 -1.94291e-07 0.0326048

0.0262435 0.00450133 2.83327e-07
0.00450133 0.0245567 -4.99192e-08
2.83327e-07 -4.99192e-08 0.0180804

0.0284216 -0.00286668 3.02607e-08
-0.00286668 0.0340307 3.77515e-08
3.02607e-08 3.77515e-08 0.0324479

0.0331478 0.0040589 -5.04687e-08
0.0040589 0.0304637 1.08369e-07
-5.04687e-08 1.08369e-07 0.0315412

0.0333336 -0.00331156 -1.02194e-07
-0.00331156 0.0283559 5.80123e-09
-1.02194e-07 5.80123e-09 0.0300448

0.02916 -0.00329507 -4.9107e-08
-0.00329507 0.0319864 -3.52433e-08
-4.9107e-08 -3.52433e-08 0.0304363

0.0314539 -0.00242908 -5.61313e-08
-0.00242908 0.0247179 -9.96154e-08
-5.61313e-08 -9.96154e-08 0.0251553

0.0329545 -0.00246663 -5.61613e-08
-0.00246663 0.0267085 -6.03034e-08
-5.61613e-08 -6.03034e-08 0.0285955

0.0294905 -0.00334168 1.18659e-07
-0.00334168 0.0329492 -2.41136e-08
1.18659e-07 -2.41136e-08 0.0334063

0.0261329 0.00463357 2.29713e-07
0.00463357 0.0255403 9.7837e-08
2.29713e-07 9.7837e-08 0.0210916

0.0281489 0.00201675 6.0313e-08
0.00201675 0.0343345 2.57847e-10
6.0313e-08 2.57847e-10 0.0311084

0.0308852 0.00348111 3.86069e-08
0.00348111 0.0322542 -6.29102e-08
3.86069e-08 -6.29102e-08 0.0325992

0.029156 0.00334804 -8.26389e-08
0.00334804 0.0331908 -7.11408e-08
-8.26389e-08 -7.11408e-08 0.0332593

0.0289831 0.00152276 1.02502e-09
0.00152276 0.0354695 8.78857e-08
1.02502e-09 8.78857e-08 0.0326945

0.0310513 -0.00106171 4.55093e-08
-0.00106171 0.0231406 6.14729e-08
4.55093e-08 6.14729e-08 0.0220772

0.0238829 0.00240552 -1.82823e-07
0.00240552 0.0304093 -1.1852e-07
-1.82823e-07 -1.1852e-07 0.0221122

0.0292121 -0.0032039 -1.40656e-08
-0.0032039 0.0326353 -1.49112e-08
-1.40656e-08 -1.49112e-08 0.0316174

0.0289866 0.00335659 1.97185e-08
0.00335659 0.0309316 1.31856e-07
1.97185e-08 1.31856e-07 0.0285671

0.0266119 -0.00459094 1.61672e-07
-0.00459094 0.0252296 -2.45106e-08
1.61672e-07 -2.45106e-08 0.0212558

0.026277 0.00489321 2.95687e-07
0.00489321 0.0209456 -1.0001e-07
2.95687e-07 -1.0001e-07 0.0167617

0.0235019 -0.00428666 4.57498e-09
-0.00428666 0.0274634 -4.20432e-08
4.57498e-09 -4.20432e-08 0.0206256

0.026671 -0.00402732 1.57418e-07
-0.00402732 0.0274814 -3.44527e-08
1.57418e-07 -3.44527e-08 0.0220492

0.0353638 -0.000906624 -8.75859e-08
-0.000906624 0.0273894 -6.41701e-08
-8.75859e-08 -6.41701e-08 0.0326541

0.0260443 0.00392131 1.1651e-07
0.00392131 0.0280914 1.42781e-08
1.1651e-07 1.42781e-08 0.0221017

0.030787 0.00171643 5.0807e-08
0.00171643 0.0233595 -6.7791e-09
5.0807e-08 -6.7791e-09 0.0220248

0.0214303 0.00172203 -1.13207e-07
0.00172203 0.0302396 -1.0545e-07
-1.13207e-07 -1.0545e-07 0.021132

0.0242619 -0.00288921 -7.09058e-08
-0.00288921 0.029951 -2.05661e-07
-7.09058e-08 -2.05661e-07 0.0220855

0.0313452 -0.000131211 1.95047e-07
-0.000131211 0.0392735 -8.77342e-08
1.95047e-07 -8.77342e-08 0.0346703

0.0230576 0.000294619 -2.4114e-07
0.000294619 0.0314594 4.47582e-08
-2.4114e-07 4.47582e-08 0.0230615

0.0227764 0.00400112 -2.59964e-07
0.00400112 0.0281266 -1.66316e-08
-2.59964e-07 -1.66316e-08 0.0206374

0.0288877 0.00158559 1.42304e-07
0.00158559 0.0358322 -3.3508e-08
1.42304e-07 -3.3508e-08 0.032893

0.0293151 -0.00357992 -1.45684e-07
-0.00357992 0.025129 2.51169e-08
-1.45684e-07 2.51169e-08 0.023239

0.0369764 0.002733 1.8121e-07
0.002733 0.0297227 1.3521e-07
1.8121e-07 1.3521e-07 0.0338013

0.0371754 0.00348299 1.08533e-07
0.00348299 0.0334222 1.65644e-08
1.08533e-07 1.65644e-08 0.0346518

0.0345433 -0.00244636 -1.99602e-08
-0.00244636 0.0285292 1.47343e-08
-1.99602e-08 1.47343e-08 0.0313783

0.0390559 -0.000265766 1.64433e-07
-0.000265766 0.0339244 2.93898e-08
1.64433e-07 2.93898e-08 0.0352079

0.0314785 -0.00418743 -1.47674e-07
-0.00418743 0.0317811 -1.78912e-08
-1.47674e-07 -1.78912e-08 0.0321558

0.0294612 0.00300744 -1.01189e-07
0.00300744 0.0223268 2.03698e-07
-1.01189e-07 2.03698e-07 0.021066

0.030229 0.00397294 -4.85435e-08
0.00397294 0.0326627 9.72487e-08
-4.85435e-08 9.72487e-08 0.0327195

0.0302769 0.00384689 2.73135e-08
0.00384689 0.0326062 1.64199e-07
2.73135e-08 1.64199e-07 0.0326743

0.0262436 0.00396156 1.57644e-07
0.00396156 0.0277668 2.40864e-07
1.57644e-07 2.40864e-07 0.0218643

0.03445 0.00357677 8.07761e-08
0.00357677 0.0317796 7.99542e-08
8.07761e-08 7.99542e-08 0.0328311

0.0302476 0.000452252 6.76555e-08
0.000452252 0.0204279 2.87892e-08
6.76555e-08 2.87892e-08 0.0205728

0.0331857 0.00420068 -1.71365e-08
0.00420068 0.0323724 -6.83877e-08
-1.71365e-08 -6.83877e-08 0.0334834

0.0305006 -0.00165468 2.39384e-07
-0.00165468 0.0366159 7.18932e-09
2.39384e-07 7.18932e-09 0.0336624

0.0373598 0.00323301 -8.95465e-08
0.00323301 0.0334595 1.4817e-07
-8.95465e-08 1.4817e-07 0.0346639

0.030737 -0.00389584 3.0802e-08
-0.00389584 0.0322724 -7.34343e-08
3.0802e-08 -7.34343e-08 0.0326798

0.0293737 -0.00064473 -8.97233e-08
-0.00064473 0.0369025 1.93571e-08
-8.97233e-08 1.93571e-08 0.0328475

0.028812 -0.00315214 -9.47418e-08
-0.00315214 0.0221396 -1.63786e-07
-9.47418e-08 -1.63786e-07 0.0187586

0.029002 0.00384431 7.73779e-08
0.00384431 0.0255773 1.01776e-07
7.73779e-08 1.01776e-07 0.0230724

0.0217009 0.00189083 -1.34016e-07
0.00189083 0.0300605 -1.44212e-07
-1.34016e-07 -1.44212e-07 0.0210834

0.0349895 -0.000161456 1.07534e-07
-0.000161456 0.0273891 -6.42506e-08
1.07534e-07 -6.42506e-08 0.0333011

0.034419 2.39147e-07 -9.571e-08
2.39147e-07 0.0272742 -4.89787e-08
-9.571e-08 -4.89787e-08 0.0320407

0.0291652 0.00303993 1.13917e-08
0.00303993 0.032679 1.64812e-07
1.13917e-08 1.64812e-07 0.0321323

0.0314496 0.00316638 -1.93663e-08
0.00316638 0.03425 -7.24089e-08
-1.93663e-08 -7.24089e-08 0.0340578

0.0291683 -0.0032044 -1.53404e-07
-0.0032044 0.0332379 -5.21869e-08
-1.53404e-07 -5.21869e-08 0.0333786

0.0287734 -8.55134e-05 9.1776e-08
-8.55134e-05 0.0367045 1.93394e-07
9.1776e-08 1.93394e-07 0.0325252

0.0294637 0.00337588 -1.42703e-07
0.00337588 0.0330743 -9.64952e-08
-1.42703e-07 -9.64952e-08 0.0333543

0.0328589 -0.00134648 -1.54146e-08
-0.00134648 0.0253613 1.78404e-07
-1.54146e-08 1.78404e-07 0.0278285

0.0263544 -0.00425434 -1.42283e-07
-0.00425434 0.0281792 4.54492e-09
-1.42283e-07 4.54492e-09 0.0242671

0.0362972 -0.000331593 -5.60296e-08
-0.000331593 0.0293827 8.74464e-08
-5.60296e-08 8.74464e-08 0.0340276

0.0267804 -0.00444549 -4.38917e-08
-0.00444549 0.0251901 2.16466e-08
-4.38917e-08 2.16466e-08 0.0209488

0.0308991 0.00250711 -2.66601e-08
0.00250711 0.035063 1.04304e-07
-2.66601e-08 1.04304e-07 0.0340674

0.0351128 -0.00349695 9.01759e-09
-0.00349695 0.0303881 -2.79263e-08
9.01759e-09 -2.79263e-08 0.0326144

0.0305016 -0.00124978 -1.0937e-07
-0.00124978 0.0229781 -1.26481e-07
-1.0937e-07 -1.26481e-07 0.021478

0.0371473 -0.00307701 1.89418e-07
-0.00307701 0.0316532 -1.32635e-09
1.89418e-07 -1.32635e-09 0.0339876

0.0349688 0.000321776 3.93928e-08
0.000321776 0.0275543 -2.72409e-08
3.93928e-08 -2.72409e-08 0.0334295

0.035843 -0.00308842 4.22121e-08
-0.00308842 0.0332574 2.41345e-07
4.22121e-08 2.41345e-07 0.0341431

0.0349283 -0.00341052 -1.63172e-07
-0.00341052 0.0295944 -8.56115e-08
-1.63172e-07 -8.56115e-08 0.0321777

0.0349088 -0.00113367 2.0308e-08
-0.00113367 0.0278497 1.10791e-07
2.0308e-08 1.10791e-07 0.032341

0.0314889 -0.00306234 -7.40282e-08
-0.00306234 0.0344483 -1.60786e-07
-7.40282e-08 -1.60786e-07 0.0341461

0.0292348 -0.00407102 -5.61651e-08
-0.00407102 0.0268995 1.49885e-07
-5.61651e-08 1.49885e-07 0.0253458

0.0349924 -0.00324354 -1.38524e-07
-0.00324354 0.0299148 1.15674e-08
-1.38524e-07 1.15674e-08 0.0321948

0.031462 0.00140902 -3.67844e-08
0.00140902 0.0233267 -1.12371e-08
-3.67844e-08 -1.12371e-08 0.0244833

0.0336648 0.00348391 -6.33724e-08
0.00348391 0.0334435 3.20813e-09
-6.33724e-08 3.20813e-09 0.0336496

0.0298917 -0.00496744 -1.28139e-09
-0.00496744 0.0330779 -1.93495e-08
-1.28139e-09 -1.93495e-08 0.0338568

0.0300428 0.00492024 8.38898e-08
0.00492024 0.0329397 -1.06332e-07
8.38898e-08 -1.06332e-07 0.0338237

0.0276876 -0.00374173 4.15066e-08
-0.00374173 0.0348067 5.26702e-13
4.15066e-08 5.26702e-13 0.0337663

0.0279251 0.0035471 -4.74004e-08
0.0035471 0.0348347 -1.18041e-07
-4.74004e-08 -1.18041e-07 0.0337311

0.0364292 -0.00115384 -1.49483e-08
-0.00115384 0.0263413 1.54562e-07
-1.49483e-08 1.54562e-07 0.0337575

0.0361981 0.00124754 -4.62391e-08
0.00124754 0.0265627 -2.29081e-16
-4.62391e-08 -2.29081e-16 0.0337203

0.035034 -0.0013067 -6.11424e-10
-0.0013067 0.0284676 6.62704e-08
-6.11424e-10 6.62704e-08 0.0325754

0.034436 0.00425922 4.19076e-08
0.00425922 0.0342891 -7.13368e-08
4.19076e-08 -7.13368e-08 0.0348121

0.0343118 -0.00435709 2.04419e-07
-0.00435709 0.0342806 2.01359e-08
2.04419e-07 2.01359e-08 0.0348005

0.0305203 0.00209362 4.70231e-08
0.00209362 0.0381647 -4.0893e-08
4.70231e-08 -4.0893e-08 0.0348493

0.0306637 -0.00205948 -2.11817e-07
-0.00205948 0.0380948 2.14489e-08
-2.11817e-07 2.14489e-08 0.0348366

0.0395016 -0.00052904 3.85593e-08
-0.00052904 0.032849 7.30866e-08
3.85593e-08 7.30866e-08 0.0352575

0.0397046 0.000513586 -4.28211e-08
0.000513586 0.0326215 1.55042e-07
-4.28211e-08 1.55042e-07 0.0353028

0.0239647 0.00127595 -1.5234e-07
0.00127595 0.0320028 2.08939e-07
-1.5234e-07 2.08939e-07 0.0251839

0.0311617 -0.0032655 -1.21834e-07
-0.0032655 0.0322401 -1.75041e-07
-1.21834e-07 -1.75041e-07 0.0328014

0.0277795 -0.00478561 9.98859e-08
-0.00478561 0.0333113 -5.8012e-08
9.98859e-08 -5.8012e-08 0.0334548

0.0333584 -0.000610226 -4.72454e-08
-0.000610226 0.0264027 1.22198e-07
-4.72454e-08 1.22198e-07 0.0284478

0.0381874 -0.00225189 -4.86341e-08
-0.00225189 0.0307942 -7.55639e-08
-4.86341e-08 -7.55639e-08 0.0348924

0.0382359 0.00218415 7.78775e-08
0.00218415 0.0309071 -2.51887e-08
7.78775e-08 -2.51887e-08 0.0349245

0.0360832 1.56217e-05 -1.63981e-08
1.56217e-05 0.0251253 7.18699e-08
-1.63981e-08 7.18699e-08 0.0334698

0.0242406 0.00302884 2.62652e-07
0.00302884 0.0303974 -1.08627e-08
2.62652e-07 -1.08627e-08 0.0242767

0.027674 0.00475638 2.80029e-08
0.00475638 0.0333122 -6.64828e-08
2.80029e-08 -6.64828e-08 0.0333926

0.0286741 -0.00307588 -7.08957e-08
-0.00307588 0.0342602 -1.94063e-07
-7.08957e-08 -1.94063e-07 0.0327519

0.0310851 0.00303564 -1.66548e-09
0.00303564 0.0251463 1.10454e-07
-1.66548e-09 1.10454e-07 0.0254668

0.0372274 0.00316571 -5.90507e-08
0.00316571 0.0315406 5.47845e-08
-5.90507e-08 5.47845e-08 0.0340755

0.0292263 -0.00406701 -4.69139e-08
-0.00406701 0.0269352 -1.3493e-07
-4.69139e-08 -1.3493e-07 0.025321

0.0364011 -0.000453617 -9.23091e-08
-0.000453617 0.0296912 -4.00031e-09
-9.23091e-08 -4.00031e-09 0.0341306

0.0273438 -0.00449498 3.28483e-09
-0.00449498 0.0333947 5.8992e-08
3.28483e-09 5.8992e-08 0.0334414

0.0240376 0.00107894 1.99748e-07
0.00107894 0.0322437 1.64499e-07
1.99748e-07 1.64499e-07 0.0255055

0.0242292 0.00282649 -1.10357e-07
0.00282649 0.0307009 2.79248e-08
-1.10357e-07 2.79248e-08 0.0245446

0.0267918 0.00459421 3.97572e-08
0.00459421 0.0240415 -1.76892e-07
3.97572e-08 -1.76892e-07 0.0182133

0.0298505 0.000199936 -8.57334e-08
0.000199936 0.0200881 -1.6149e-07
-8.57334e-08 -1.6149e-07 0.0193621

0.031908 -0.00302394 -1.49818e-07
-0.00302394 0.0341619 3.65615e-08
-1.49818e-07 3.65615e-08 0.0340353

0.0229183 0.00399944 -1.91637e-07
0.00399944 0.0276598 1.05168e-07
-1.91637e-07 1.05168e-07 0.0176528

0.0292094 0.00310098 -1.13939e-07
0.00310098 0.0327625 -2.55014e-08
-1.13939e-07 -2.55014e-08 0.0310119

0.0315943 -0.000694463 2.16416e-07
-0.000694463 0.0231597 6.6138e-08
2.16416e-07 6.6138e-08 0.0244845

0.0327609 0.00146442 2.01018e-08
0.00146442 0.0253465 7.64967e-08
2.01018e-08 7.64967e-08 0.0276126

0.035978 5.62367e-05 9.7348e-08
5.62367e-05 0.0249583 -8.26439e-08
9.7348e-08 -8.26439e-08 0.0333859

0.0279654 -0.00380555 -4.09664e-09
-0.00380555 0.0349488 2.15586e-07
-4.09664e-09 2.15586e-07 0.0338156

0.0393145 -0.000843765 -2.84019e-07
-0.000843765 0.0416019 1.11798e-07
-2.84019e-07 1.11798e-07 0.0361898

0.0298675 0.00493938 -1.02011e-07
0.00493938 0.032956 7.49357e-08
-1.02011e-07 7.49357e-08 0.0337787

0.0302878 0.000214359 -1.31371e-07
0.000214359 0.0203966 1.56648e-08
-1.31371e-07 1.56648e-08 0.0172759

0.0266736 -0.00425034 1.25129e-07
-0.00425034 0.0281328 1.35581e-08
1.25129e-07 1.35581e-08 0.0244371

0.0277458 0.00481589 -1.18063e-07
0.00481589 0.033315 -1.39802e-07
-1.18063e-07 -1.39802e-07 0.033455

0.0279447 -0.00145863 1.73564e-07
-0.00145863 0.0350844 -3.75541e-08
1.73564e-07 -3.75541e-08 0.0314499

0.0244647 -0.00330506 5.78189e-08
-0.00330506 0.0300149 2.65656e-07
5.78189e-08 2.65656e-07 0.0242167

0.0279903 0.00377966 -8.69631e-08
0.00377966 0.0349101 1.08189e-07
-8.69631e-08 1.08189e-07 0.0337865

0.0313612 -0.00340947 1.65001e-08
-0.00340947 0.0270085 1.57228e-07
1.65001e-08 1.57228e-07 0.026991

0.0402798 0.00140914 -1.06509e-07
0.00140914 0.0406185 2.56214e-07
-1.06509e-07 2.56214e-07 0.0361702

0.0258809 0.00400274 8.78989e-08
0.00400274 0.0289541 -3.91861e-08
8.78989e-08 -3.91861e-08 0.0245107

0.0366777 0.00110279 1.04524e-07
0.00110279 0.0263518 6.47088e-08
1.04524e-07 6.47088e-08 0.0338974

0.0333417 0.00398409 2.31106e-08
0.00398409 0.0321153 -6.22722e-08
2.31106e-08 -6.22722e-08 0.0333154

0.0292278 0.0030669 -6.46141e-08
0.0030669 0.032605 9.66753e-08
-6.46141e-08 9.66753e-08 0.0321574

0.0343642 -0.00431085 -5.22364e-08
-0.00431085 0.0345049 -1.61405e-07
-5.22364e-08 -1.61405e-07 0.0348846

0.0354895 -0.00306344 -5.48638e-08
-0.00306344 0.0305898 -1.58183e-07
-5.48638e-08 -1.58183e-07 0.0327501

0.0333663 0.00138753 -1.83062e-07
0.00138753 0.0395772 -1.46125e-07
-1.83062e-07 -1.46125e-07 0.0350023

0.0291967 -0.00307902 -1.45596e-08
-0.00307902 0.0328734 2.79812e-07
-1.45596e-08 2.79812e-07 0.031383

0.0292643 -0.00123217 9.3476e-08
-0.00123217 0.0192869 -1.07717e-07
9.3476e-08 -1.07717e-07 0.016412

0.0287783 -0.00183227 -1.67112e-07
-0.00183227 0.0184138 -5.89845e-08
-1.67112e-07 -5.89845e-08 0.0161969

0.0385293 0.0022019 2.49779e-08
0.0022019 0.0332388 -6.53628e-08
2.49779e-08 -6.53628e-08 0.0347627

0.0280557 0.00294506 -1.64151e-07
0.00294506 0.032335 -5.74271e-08
-1.64151e-07 -5.74271e-08 0.0295179

0.0320666 0.00383429 4.57084e-08
0.00383429 0.0309605 1.72871e-07
4.57084e-08 1.72871e-07 0.0314542

0.0320495 8.98495e-05 7.51933e-08
8.98495e-05 0.0245767 -2.25031e-07
7.51933e-08 -2.25031e-07 0.0248878

0.0302375 0.000866333 -1.03831e-07
0.000866333 0.038581 -1.9912e-08
-1.03831e-07 -1.9912e-08 0.0340961

0.0354016 0.00219136 -6.8543e-08
0.00219136 0.0293226 -1.00344e-07
-6.8543e-08 -1.00344e-07 0.0328581

0.0248111 -0.00333872 -1.08133e-07
-0.00333872 0.0300061 -1.47815e-07
-1.08133e-07 -1.47815e-07 0.0244699

0.0286505 -0.000337967 4.89763e-09
-0.000337967 0.0366572 1.85045e-07
4.89763e-09 1.85045e-07 0.0323956

0.0252151 0.00174007 1.20005e-07
0.00174007 0.0320295 2.17211e-07
1.20005e-07 2.17211e-07 0.0256838

0.0332803 -0.00390947 1.27579e-07
-0.00390947 0.0304967 -1.47131e-07
1.27579e-07 -1.47131e-07 0.0315922

0.0290647 -0.00389574 2.82424e-08
-0.00389574 0.0282 1.02168e-08
2.82424e-08 1.02168e-08 0.0257134

0.0261489 0.0040988 -1.00749e-07
0.0040988 0.0285462 -2.15242e-07
-1.00749e-07 -2.15242e-07 0.024318

0.0452876 -0.00201775 -1.38159e-07
-0.00201775 0.0396055 -1.51504e-07
-1.38159e-07 -1.51504e-07 0.0363668

0.0316666 0.000256566 6.5489e-08
0.000256566 0.0393271 -1.15855e-07
6.5489e-08 -1.15855e-07 0.0347689

0.0306165 0.00265113 -3.51066e-08
0.00265113 0.038443 3.99537e-08
-3.51066e-08 3.99537e-08 0.0349575

0.0387654 0.00209485 -1.63731e-07
0.00209485 0.0302216 3.59845e-08
-1.63731e-07 3.59845e-08 0.0349424

0.0313709 -0.00345051 1.627e-08
-0.00345051 0.0321402 -9.58099e-08
1.627e-08 -9.58099e-08 0.0325725

0.0318178 0.00233599 1.28595e-08
0.00233599 0.0256201 8.91472e-08
1.28595e-08 8.91472e-08 0.0258795

0.0349937 -0.00070874 -2.5522e-07
-0.00070874 0.0415753 -6.12176e-09
-2.5522e-07 -6.12176e-09 0.0357275

0.0357879 -0.00251871 3.19179e-08
-0.00251871 0.0295499 8.40371e-08
3.19179e-08 8.40371e-08 0.0332578

0.0332969 -0.00203985 -4.81415e-08
-0.00203985 0.0266525 -3.97897e-08
-4.81415e-08 -3.97897e-08 0.0286752

0.025252 0.00151083 -1.85646e-07
0.00151083 0.032274 1.50274e-07
-1.85646e-07 1.50274e-07 0.0259499

0.0268044 -0.00334459 -4.36959e-09
-0.00334459 0.0300092 2.63695e-07
-4.36959e-09 2.63695e-07 0.0251871

0.0364772 -0.00336028 8.26144e-08
-0.00336028 0.0352875 2.06578e-07
8.26144e-08 2.06578e-07 0.0347421

0.0284753 0.00415205 -3.75985e-09
0.00415205 0.0277157 -1.88229e-07
-3.75985e-09 -1.88229e-07 0.0254676

0.0372435 -0.00334552 -3.39803e-08
-0.00334552 0.0333219 7.89389e-08
-3.39803e-08 7.89389e-08 0.0346114

0.0322059 0.000337894 8.2553e-08
0.000337894 0.0248624 -1.94348e-07
8.2553e-08 -1.94348e-07 0.0254374

0.0191609 -0.00368904 4.6639e-08
-0.00368904 0.0275255 2.5732e-07
4.6639e-08 2.5732e-07 0.0163107

0.0292096 -0.00380357 -1.28798e-07
-0.00380357 0.0281924 -9.13913e-09
-1.28798e-07 -9.13913e-09 0.0258075

0.0230457 0.00412731 -2.07181e-07
0.00412731 0.02802 -1.54535e-07
-2.07181e-07 -1.54535e-07 0.017592

0.0296908 -0.00155929 1.32764e-07
-0.00155929 0.0375332 7.49466e-08
1.32764e-07 7.49466e-08 0.0336483

0.0243599 -0.00179359 -1.765e-07
-0.00179359 0.0318719 2.46417e-07
-1.765e-07 2.46417e-07 0.0254477

0.0424378 -0.0032341 -7.83221e-08
-0.0032341 0.0423769 -6.16672e-08
-7.83221e-08 -6.16672e-08 0.0363751

0.0263365 0.00309093 4.56556e-08
0.00309093 0.0307011 2.79932e-08
4.56556e-08 2.79932e-08 0.0254776

0.0334768 -0.00432359 5.8902e-08
-0.00432359 0.032659 2.47598e-07
5.8902e-08 2.47598e-07 0.0335661

0.0240803 -0.00155081 4.78583e-08
-0.00155081 0.0318868 3.43216e-09
4.78583e-08 3.43216e-09 0.0251765

0.0362222 -0.00253875 4.29167e-08
-0.00253875 0.0295108 1.85984e-09
4.29167e-08 1.85984e-09 0.033519

0.026673 0.00310459 -2.31292e-07
0.00310459 0.0303943 -2.96993e-09
-2.31292e-07 -2.96993e-09 0.0253128

0.0343426 -0.00065374 6.5851e-08
-0.00065374 0.0272764 -1.79171e-08
6.5851e-08 -1.79171e-08 0.0305772

0.0188902 -0.00387152 1.33e-07
-0.00387152 0.0298015 5.72396e-08
1.33e-07 5.72396e-08 0.0129611

0.0279987 0.00275444 -1.23236e-07
0.00275444 0.0326286 2.45932e-07
-1.23236e-07 2.45932e-07 0.0305731

0.031437 -0.00251228 4.01633e-08
-0.00251228 0.0247218 -1.50386e-08
4.01633e-08 -1.50386e-08 0.0254055

0.0391182 -0.00286919 -2.7045e-07
-0.00286919 0.0322209 -1.12323e-07
-2.7045e-07 -1.12323e-07 0.0349364

0.0287525 0.00412374 -1.32875e-08
0.00412374 0.0272995 -5.56867e-08
-1.32875e-08 -5.56867e-08 0.025255

0.0313605 -0.00391909 4.08112e-08
-0.00391909 0.0285414 1.20999e-07
4.08112e-08 1.20999e-07 0.0287303

0.0354076 0.00276417 -2.57755e-08
0.00276417 0.0308551 2.15531e-07
-2.57755e-08 2.15531e-07 0.0330385

0.0297724 -0.00370347 -5.0554e-08
-0.00370347 0.0329369 1.22115e-08
-5.0554e-08 1.22115e-08 0.0333416

0.0270546 -0.00341014 5.44664e-08
-0.00341014 0.0299819 -1.35456e-07
5.44664e-08 -1.35456e-07 0.0253968

0.0284398 0.00377103 -9.95758e-08
0.00377103 0.028939 -4.45259e-08
-9.95758e-08 -4.45259e-08 0.0258866

0.0313704 0.00341324 -1.09637e-07
0.00341324 0.0268986 1.42937e-07
-1.09637e-07 1.42937e-07 0.0269653

0.0365351 -0.00194429 2.96404e-08
-0.00194429 0.0306245 -2.63245e-08
2.96404e-08 -2.63245e-08 0.0336348

0.0255329 -0.00216311 9.68329e-08
-0.00216311 0.0318006 2.69753e-07
9.68329e-08 2.69753e-07 0.025853

0.0346983 -0.00231407 2.86601e-09
-0.00231407 0.0283334 6.64349e-08
2.86601e-09 6.64349e-08 0.031455

0.0341849 0.00222288 1.17227e-07
0.00222288 0.027431 1.00286e-07
1.17227e-07 1.00286e-07 0.0306029

0.0336442 -0.0012457 -4.11377e-08
-0.0012457 0.0392993 -8.49929e-08
-4.11377e-08 -8.49929e-08 0.0349265

0.0320711 -0.00174665 1.44552e-07
-0.00174665 0.0253295 1.84705e-07
1.44552e-07 1.84705e-07 0.0258703

0.025001 7.97539e-05 -2.49888e-08
7.97539e-05 0.0331502 1.43951e-09
-2.49888e-08 1.43951e-09 0.0268603

0.0332462 0.00242862 -4.89999e-08
0.00242862 0.0271928 -3.46156e-08
-4.89999e-08 -3.46156e-08 0.0289211

0.0311165 0.00359878 -8.65442e-09
0.00359878 0.0272919 9.6525e-08
-8.65442e-09 9.6525e-08 0.0271217

0.0252945 -0.00204106 -8.74893e-08
-0.00204106 0.0318635 3.13346e-10
-8.74893e-08 3.13346e-10 0.0256102

0.0252003 -0.00015461 1.34534e-07
-0.00015461 0.0332905 2.65366e-07
1.34534e-07 2.65366e-07 0.0271431

0.0354121 0.00385791 6.29468e-08
0.00385791 0.0329947 -6.83356e-08
6.29468e-08 -6.83356e-08 0.0338945

0.0275847 -0.00143103 -4.1853e-08
-0.00143103 0.0353404 -9.45231e-08
-4.1853e-08 -9.45231e-08 0.031441

0.0312329 -0.00348374 -7.32717e-08
-0.00348374 0.0269765 -1.36142e-07
-7.32717e-08 -1.36142e-07 0.0270089

0.0312955 0.00277246 -1.26262e-07
0.00277246 0.0249212 1.13888e-07
-1.26262e-07 1.13888e-07 0.0252453

0.0345817 0.0031182 9.45532e-09
0.0031182 0.0293854 -9.91525e-08
9.45532e-09 -9.91525e-08 0.0317948

0.0279903 0.000716649 2.26941e-08
0.000716649 0.0360385 4.19085e-08
2.26941e-08 4.19085e-08 0.0318171

0.0287152 0.00378116 8.39304e-08
0.00378116 0.0285582 -2.19352e-07
8.39304e-08 -2.19352e-07 0.025727

0.0367893 0.00305724 -1.01184e-08
0.00305724 0.0361246 2.25855e-07
-1.01184e-08 2.25855e-07 0.0349061

0.0226794 -0.00754497 2.15751e-07
-0.00754497 0.0186872 -3.5249e-07
2.15751e-07 -3.5249e-07 0.0108448

0.03329 -0.00328723 -4.86212e-08
-0.00328723 0.0286315 1.13874e-07
-4.86212e-08 1.13874e-07 0.030123

0.0207261 0.000913265 -8.14803e-08
0.000913265 0.0300301 -3.99923e-08
-8.14803e-08 -3.99923e-08 0.0183458

0.0312991 -0.00378154 -1.06312e-07
-0.00378154 0.0292298 -1.42066e-07
-1.06312e-07 -1.42066e-07 0.0290305

0.00153952 -0.00651859 -1.31069e-08
-0.00651859 0.0275675 5.74253e-08
-1.31069e-08 5.74253e-08 0.00290823

0.00146992 0.00636819 1.07148e-08
0.00636819 0.0275856 4.69448e-08
1.07148e-08 4.69448e-08 0.00300118

0.0119843 0.0145046 -6.59881e-08
0.0145046 0.017532 -8.27464e-08
-6.59881e-08 -8.27464e-08 0.00277111

0.0121656 -0.0144953 -6.9643e-08
-0.0144953 0.0172235 8.73296e-08
-6.9643e-08 8.73296e-08 0.00280372

0.02934 -0.000164084 -7.67546e-08
-0.000164084 0 0
-7.67546e-08 0 0.00295253

0.0235915 -0.0112823 1.37358e-07
-0.0112823 0.00539531 -6.61483e-08
1.37358e-07 -6.61483e-08 0.00297823

0.0236335 0.0113486 -5.0364e-08
0.0113486 0.00544942 -2.4254e-08
-5.0364e-08 -2.4254e-08 0.00303939

0.0369099 0.00191149 -5.51079e-08
0.00191149 0.0302413 2.0728e-07
-5.51079e-08 2.0728e-07 0.0338769

0.0387049 0.00340982 8.81812e-09
0.00340982 0.036617 -9.09704e-08
8.81812e-09 -9.09704e-08 0.0355777

0.0344143 0.00087238 8.16821e-08
0.00087238 0.027456 3.44203e-08
8.16821e-08 3.44203e-08 0.031687

0.0328721 0.00285008 -1.47454e-07
0.00285008 0.0268885 1.42832e-07
-1.47454e-07 1.42832e-07 0.0286455

0.0256999 0.00231314 -8.0998e-08
0.00231314 0.0323658 -1.88999e-07
-8.0998e-08 -1.88999e-07 0.0276348

0.030712 0.00376891 1.78094e-07
0.00376891 0.0276752 -1.8006e-07
1.78094e-07 -1.8006e-07 0.0271169

0.0333045 -0.00390315 2.04501e-07
-0.00390315 0.0304647 -3.63803e-08
2.04501e-07 -3.63803e-08 0.0316291

0.0309725 0.00365427 2.90343e-09
0.00365427 0.0272862 -5.55524e-08
2.90343e-09 -5.55524e-08 0.0269245

0.0249864 -0.000371517 4.81188e-08
-0.000371517 0.0331213 3.78417e-09
4.81188e-08 3.78417e-09 0.0268425

0.0385475 -0.00348458 -2.33147e-07
-0.00348458 0.0368801 -5.09248e-08
-2.33147e-07 -5.09248e-08 0.0355833

0.0251748 -0.000635582 -1.80804e-07
-0.000635582 0.0332091 2.38606e-07
-1.80804e-07 2.38606e-07 0.027102

0.036017 0.00304739 1.04199e-08
0.00304739 0.0330104 7.19505e-08
1.04199e-08 7.19505e-08 0.0340973

0.0296222 0.00347555 7.72963e-08
0.00347555 0.0248456 1.01914e-07
7.72963e-08 1.01914e-07 0.0230222

0.0304954 -0.0017138 -2.56399e-08
-0.0017138 0.0375117 2.09905e-07
-2.56399e-08 2.09905e-07 0.0347359

0.0339191 0.00180443 1.27659e-07
0.00180443 0.027181 -3.29974e-08
1.27659e-07 -3.29974e-08 0.0303197

0.0312004 -0.00392027 -8.15794e-08
-0.00392027 0.0285304 -1.2262e-07
-8.15794e-08 -1.2262e-07 0.0286138

0.0315828 -0.00322131 1.32216e-08
-0.00322131 0.0266911 3.02697e-08
1.32216e-08 3.02697e-08 0.0270471

0.0384791 -0.00214128 -1.55872e-07
-0.00214128 0.0334165 -1.53767e-07
-1.55872e-07 -1.53767e-07 0.0347443

0.0326801 0.00366383 -2.00622e-07
0.00366383 0.0292313 -1.05907e-07
-2.00622e-07 -1.05907e-07 0.0301543

0.0326438 0.00313746 -1.02085e-07
0.00313746 0.0272519 9.2883e-08
-1.02085e-07 9.2883e-08 0.0287873

0.0269545 -0.000365164 -1.44528e-07
-0.000365164 0.0349862 -3.82691e-08
-1.44528e-07 -3.82691e-08 0.0301673

0.0258991 0.000765817 -6.33397e-08
0.000765817 0.0340027 -1.62704e-07
-6.33397e-08 -1.62704e-07 0.0288224

0.0327776 0.000345365 1.20554e-07
0.000345365 0.0248612 -1.92418e-07
1.20554e-07 -1.92418e-07 0.0274432

0.0313865 -0.000944847 1.35262e-07
-0.000944847 0.0230034 -1.15874e-07
1.35262e-07 -1.15874e-07 0.0238916

0.0308801 0.00398513 3.94123e-09
0.00398513 0.0288054 -5.37525e-08
3.94123e-09 -5.37525e-08 0.0286236

0.0331172 -0.00343129 1.69594e-07
-0.00343129 0.0285399 -1.20278e-07
1.69594e-07 -1.20278e-07 0.0299687

0.0364121 -0.00282362 -4.36712e-08
-0.00282362 0.0327326 -2.14651e-07
-4.36712e-08 -2.14651e-07 0.0341436

0.0292055 -0.00412742 -4.49808e-08
-0.00412742 0.0291915 -1.37583e-07
-4.49808e-08 -1.37583e-07 0.0277533

0.0269714 -0.00362021 1.29377e-07
-0.00362021 0.0304639 4.07057e-08
1.29377e-07 4.07057e-08 0.0272129

0.0283255 0.00389932 -3.4108e-08
0.00389932 0.0299003 8.58328e-08
-3.4108e-08 8.58328e-08 0.0277515

0.0259008 -0.00124895 7.1981e-08
-0.00124895 0.033613 -3.37561e-08
7.1981e-08 -3.37561e-08 0.0285154

0.026654 -0.000202183 -2.08192e-08
-0.000202183 0.0349119 -2.05145e-07
-2.08192e-08 -2.05145e-07 0.0299193

0.0277619 0.000753114 -1.07308e-07
0.000753114 0.0360379 4.28862e-08
-1.07308e-07 4.28862e-08 0.0316576

0.0262467 -0.00274944 1.70655e-07
-0.00274944 0.0319622 1.60405e-07
1.70655e-07 1.60405e-07 0.0277101

0.0345821 0.00317562 6.67888e-09
0.00317562 0.0291677 -9.3911e-08
6.67888e-09 -9.3911e-08 0.0316339

0.0339085 -0.00126116 6.58387e-08
-0.00126116 0.0269297 -1.78835e-08
6.58387e-08 -1.78835e-08 0.0302011

0.0257898 0.000974207 -7.11169e-08
0.000974207 0.0338287 -8.08884e-08
-7.11169e-08 -8.08884e-08 0.0285414

0.0278235 -0.00127014 -8.61058e-08
-0.00127014 0.0353961 -1.03549e-07
-8.61058e-08 -1.03549e-07 0.0313654

0.0272925 -0.00213707 4.67755e-09
-0.00213707 0.0336563 5.20227e-09
4.67755e-09 5.20227e-09 0.0302251

0.0327757 -0.00107713 -1.39796e-07
-0.00107713 0.0253195 4.49044e-08
-1.39796e-07 4.49044e-08 0.0272538

0.0333143 -0.00427114 -1.02252e-07
-0.00427114 0.0323798 -7.36389e-08
-1.02252e-07 -7.36389e-08 0.0335286

0.0264882 0.0012197 -1.468e-07
0.0012197 0.0338347 -8.18614e-08
-1.468e-07 -8.18614e-08 0.0288155

0.0398103 -0.00243164 5.51461e-08
-0.00243164 0.0352181 2.07684e-07
5.51461e-08 2.07684e-07 0.0354606

0.0188884 0.00316448 -2.71046e-08
0.00316448 0.0278754 -1.37386e-07
-2.71046e-08 -1.37386e-07 0.0162725

0.0338152 -0.00352245 -3.83035e-08
-0.00352245 0.0334942 2.82449e-08
-3.83035e-08 2.82449e-08 0.0337256

0.0353435 -0.00399937 -6.69776e-08
-0.00399937 0.033046 -1.4389e-07
-6.69776e-08 -1.4389e-07 0.0339035

0.0266853 -9.05177e-05 4.39876e-09
-9.05177e-05 0.034917 -2.04568e-07
4.39876e-09 -2.04568e-07 0.0299274

0.0332421 -0.00217633 2.38566e-08
-0.00217633 0.0271524 9.82857e-08
2.38566e-08 9.82857e-08 0.0289021

0.029347 0.00168467 -2.03021e-08
0.00168467 0.035819 -2.39802e-08
-2.03021e-08 -2.39802e-08 0.0328791

0.0132072 -0.000379031 1.45357e-07
-0.000379031 0.0283618 5.38405e-08
1.45357e-07 5.38405e-08 0.0111516

0.0271132 0.00186844 -1.00686e-07
0.00186844 0.0340608 5.29669e-09
-1.00686e-07 5.29669e-09 0.0303056

0.0311084 -0.00385847 2.94718e-08
-0.00385847 0.0291535 1.01284e-07
2.94718e-08 1.01284e-07 0.0288058

0.0186195 0.00320453 5.96134e-08
0.00320453 0.0301391 1.01801e-07
5.96134e-08 1.01801e-07 0.0131266

0.0426002 0.00351784 1.49729e-07
0.00351784 0.0418486 2.32728e-07
1.49729e-07 2.32728e-07 0.0364799

0.043206 -0.003749 4.62607e-08
-0.003749 0.0414175 -8.43319e-08
4.62607e-08 -8.43319e-08 0.0364623

0.0310645 -0.00399085 -1.79639e-07
-0.00399085 0.0304703 -2.70366e-08
-1.79639e-07 -2.70366e-08 0.0304604

0.0289215 -0.00406387 -2.62886e-08
-0.00406387 0.0291499 1.00659e-07
-2.62886e-08 1.00659e-07 0.0275937

0.0330502 0.00272664 -9.50227e-08
0.00272664 0.0275278 8.15918e-08
-9.50227e-08 8.15918e-08 0.0290748

0.032779 0.00195997 -9.28943e-08
0.00195997 0.0255905 8.53372e-08
-9.28943e-08 8.53372e-08 0.0278221

0.0464016 0.000419543 4.16889e-07
0.000419543 0.046356 -4.72623e-08
4.16889e-07 -4.72623e-08 0.0366941

0.0469206 -0.000952693 -3.74311e-07
-0.000952693 0.0457693 8.01318e-08
-3.74311e-07 8.01318e-08 0.0367652

0.0347989 0.000638326 -3.28051e-08
0.000638326 0.0275723 1.33976e-07
-3.28051e-08 1.33976e-07 0.0322158

0.0277511 0.000882354 -8.70195e-08
0.000882354 0.0355695 -1.81113e-08
-8.70195e-08 -1.81113e-08 0.0313479

0.027607 0.000882868 1.18069e-07
0.000882868 0.0355696 -1.22512e-08
1.18069e-07 -1.22512e-08 0.031244

0.0234584 0.00739974 -3.57375e-07
0.00739974 0.0183015 -1.00747e-08
-3.57375e-07 -1.00747e-08 0.0109013

0.0272466 -0.00367537 -1.21226e-08
-0.00367537 0.0303462 -3.65552e-08
-1.21226e-08 -3.65552e-08 0.0273188

0.0365662 0.00239158 7.58384e-08
0.00239158 0.0295753 3.97164e-08
7.58384e-08 3.97164e-08 0.0337837

0.0332731 0.00124748 8.53052e-08
0.00124748 0.0265034 -2.57534e-07
8.53052e-08 -2.57534e-07 0.0284311

0.0291519 -0.00349228 -6.80947e-08
-0.00349228 0.0304701 2.43e-08
-6.80947e-08 2.43e-08 0.0281725

0.0328099 -0.00264764 -2.08928e-08
-0.00264764 0.0267274 2.91973e-08
-2.08928e-08 2.91973e-08 0.028586

0.0224596 0.00761268 1.48787e-07
0.00761268 0.0185899 -2.99099e-07
1.48787e-07 -2.99099e-07 0.0109037

0.0331442 0.00410242 -4.09592e-08
0.00410242 0.0326374 8.71063e-08
-4.09592e-08 8.71063e-08 0.0331809

0.0258895 -0.00257823 -1.41573e-08
-0.00257823 0.0320233 -1.20378e-07
-1.41573e-08 -1.20378e-07 0.0275067

0.0324813 0.00378567 -1.42086e-07
0.00378567 0.029267 -1.85364e-07
-1.42086e-07 -1.85364e-07 0.0301461

0.0268152 -0.000543818 1.54067e-07
-0.000543818 0.0349511 -7.74699e-09
1.54067e-07 -7.74699e-09 0.030137

0.0269891 0.00256325 4.81258e-08
0.00256325 0.0324475 1.21065e-07
4.81258e-08 1.21065e-07 0.0282856

0.0305256 0.00399102 1.91414e-07
0.00399102 0.0293221 -1.54121e-07
1.91414e-07 -1.54121e-07 0.0287743

0.0276081 -0.00293702 7.3295e-08
-0.00293702 0.0318528 1.432e-07
7.3295e-08 1.432e-07 0.0282482

0.029455 -0.0035756 1.50369e-08
-0.0035756 0.0303499 -3.48375e-08
1.50369e-08 -3.48375e-08 0.0283042

0.0181372 0.00142537 -5.18116e-08
0.00142537 0.0280355 -1.06656e-07
-5.18116e-08 -1.06656e-07 0.0131272

0.023473 -0.00429385 -1.92719e-07
-0.00429385 0.0275552 2.64168e-07
-1.92719e-07 2.64168e-07 0.0177228

0.0262047 -0.00152616 8.90864e-08
-0.00152616 0.0336228 -1.53597e-07
8.90864e-08 -1.53597e-07 0.0287509

0.0330224 0.00347477 -1.41063e-07
0.00347477 0.0288768 -4.14612e-08
-1.41063e-07 -4.14612e-08 0.030068

0.030321 0.00385735 -2.17222e-08
0.00385735 0.0298856 8.67723e-08
-2.17222e-08 8.67723e-08 0.0289894

0.0274134 -0.0028004 4.77233e-08
-0.0028004 0.031983 -1.15956e-07
4.77233e-08 -1.15956e-07 0.0281382

0.0265538 -0.00154075 3.11687e-08
-0.00154075 0.0335814 -3.58519e-08
3.11687e-08 -3.58519e-08 0.0287454

0.0309556 0.00371824 2.5725e-08
0.00371824 0.0295624 -9.65386e-08
2.5725e-08 -9.65386e-08 0.0289403

0.0267585 -0.00181599 3.72723e-08
-0.00181599 0.0334733 -1.64721e-07
3.72723e-08 -1.64721e-07 0.0289533

0.0191655 0.00355444 7.88465e-08
0.00355444 0.0276071 1.35491e-07
7.88465e-08 1.35491e-07 0.0162917

0.0308726 -0.000535005 -1.54542e-08
-0.000535005 0.0388186 7.33192e-08
-1.54542e-08 7.33192e-08 0.0342935

0.0286555 0.00404777 1.55015e-07
0.00404777 0.0295175 -1.10881e-07
1.55015e-07 -1.10881e-07 0.0277137

0.0355791 0.00197489 -7.13201e-08
0.00197489 0.0295019 -9.50387e-08
-7.13201e-08 -9.50387e-08 0.0328417

0.0362583 -0.00211471 -8.49359e-08
-0.00211471 0.0297542 -8.06973e-08
-8.49359e-08 -8.06973e-08 0.033217

0.0285095 -0.0030955 6.68885e-08
-0.0030955 0.0185685 -2.3328e-07
6.68885e-08 -2.3328e-07 0.0157294

0.0283525 -0.00278994 2.4784e-07
-0.00278994 0.0327745 1.86386e-07
2.4784e-07 1.86386e-07 0.0305706

0.0291902 0.00350058 1.48422e-07
0.00350058 0.0315988 -5.54092e-08
1.48422e-07 -5.54092e-08 0.0304865

0.0349584 -0.00290736 1.48995e-07
-0.00290736 0.0376754 2.14721e-07
1.48995e-07 2.14721e-07 0.0352352

0.0394597 0.00188524 1.24152e-07
0.00188524 0.0446079 1.73737e-07
1.24152e-07 1.73737e-07 0.0364321

0.0449431 0.00129037 -1.04215e-07
0.00129037 0.0391156 6.80518e-08
-1.04215e-07 6.80518e-08 0.0364141

0.0355591 0.00434538 -3.70962e-08
0.00434538 0.035134 3.75437e-08
-3.70962e-08 3.75437e-08 0.0350025

0.0265709 0.00338766 6.79935e-08
0.00338766 0.0310052 6.85047e-08
6.79935e-08 6.85047e-08 0.0272549

0.0330383 0.0034967 -1.86728e-07
0.0034967 0.028666 7.33568e-08
-1.86728e-07 7.33568e-08 0.0300491

0.0220592 0.00576409 -1.41651e-07
0.00576409 0.0242367 2.6998e-08
-1.41651e-07 2.6998e-08 0.0160719

0.0386177 -0.00151233 3.54211e-07
-0.00151233 0.0444325 1.28977e-07
3.54211e-07 1.28977e-07 0.0363613

0.046048 -0.000463476 3.26082e-08
-0.000463476 0.0454374 2.0958e-07
3.26082e-08 2.0958e-07 0.0366902

0.0451791 -3.19451e-05 -2.07749e-07
-3.19451e-05 0.046301 7.48697e-07
-2.07749e-07 7.48697e-07 0.0366722

0.0176405 -0.00679476 -4.85149e-08
-0.00679476 0.0231076 -3.05337e-07
-4.85149e-08 -3.05337e-07 0.0107382

0.0392911 -0.00155615 1.70823e-07
-0.00155615 0.0387137 1.45237e-08
1.70823e-07 1.45237e-08 0.0358527

0.0383961 0.00117668 -3.47439e-07
0.00117668 0.0415173 -1.09621e-07
-3.47439e-07 -1.09621e-07 0.0361241

0.0331738 -0.00343556 1.38084e-07
-0.00343556 0.0282187 -1.92969e-07
1.38084e-07 -1.92969e-07 0.0299025

0.0318437 0.000140644 1.18899e-07
0.000140644 0.0386712 5.96755e-08
1.18899e-07 5.96755e-08 0.0344495

0.0285759 -0.00265996 2.12321e-08
-0.00265996 0.0333794 3.57224e-09
2.12321e-08 3.57224e-09 0.0315883

0.0356609 0.000831577 -1.97935e-07
0.000831577 0.0273767 1.01316e-08
-1.97935e-07 1.01316e-08 0.0329991

0.028875 0.00204425 -3.07369e-09
0.00204425 0.0368157 1.32248e-07
-3.07369e-09 1.32248e-07 0.0336687

0.0298686 0.000946267 -3.39126e-08
0.000946267 0.0373873 1.16513e-07
-3.39126e-08 1.16513e-07 0.0333626

0.0344001 0.00268464 5.47441e-08
0.00268464 0.0288506 4.26867e-08
5.47441e-08 4.26867e-08 0.0312253

0.0132788 -0.000409385 -4.98919e-08
-0.000409385 0.0281223 5.85753e-08
-4.98919e-08 5.85753e-08 0.011201

0.0309634 -0.00362587 1.1075e-07
-0.00362587 0.0309146 -1.18822e-08
1.1075e-07 -1.18822e-08 0.0306086

0.0329271 -0.00344325 1.34349e-07
-0.00344325 0.0320197 2.15844e-07
1.34349e-07 2.15844e-07 0.0325783

0.0335703 -0.00415943 -5.49608e-08
-0.00415943 0.0325335 -1.91596e-07
-5.49608e-08 -1.91596e-07 0.0337347

0.0265613 0.00414844 1.03264e-07
0.00414844 0.0176911 3.29089e-08
1.03264e-07 3.29089e-08 0.0126048

0.0388275 -0.00269665 2.43766e-07
-0.00269665 0.0395751 -1.41715e-07
2.43766e-07 -1.41715e-07 0.0359575

0.0230821 0.00692055 -3.03298e-07
0.00692055 0.0255013 -1.89538e-07
-3.03298e-07 -1.89538e-07 0.0126091

0.0308739 -0.0028174 -2.27304e-07
-0.0028174 0.0348067 -2.88485e-12
-2.27304e-07 -2.88485e-12 0.0339553

0.0354107 0.00193637 -5.92398e-08
0.00193637 0.0284648 -1.66477e-07
-5.92398e-08 -1.66477e-07 0.0323437

0.03182 -0.00189321 1.27308e-08
-0.00189321 0.02495 8.57329e-08
1.27308e-08 8.57329e-08 0.0253947

0.0292915 0.00315885 3.59133e-08
0.00315885 0.0327309 2.7411e-07
3.59133e-08 2.7411e-07 0.0312787

0.0344353 0.00268855 1.01674e-07
0.00268855 0.0286336 -6.87038e-08
1.01674e-07 -6.87038e-08 0.0312199

0.0325179 0.00149888 -3.94315e-08
0.00149888 0.0403731 -9.37463e-08
-3.94315e-08 -9.37463e-08 0.0353357

0.0319396 -0.00415454 -3.73602e-08
-0.00415454 0.0312007 6.62982e-08
-3.73602e-08 6.62982e-08 0.0318097

0.0396756 0.0026555 -1.29426e-08
0.0026555 0.0331976 -2.85063e-07
-1.29426e-08 -2.85063e-07 0.0353151

0.0279708 -0.00241835 1.77273e-08
-0.00241835 0.0335501 7.27256e-09
1.77273e-08 7.27256e-09 0.0304697

0.0293501 0.000558714 -5.43131e-08
0.000558714 0.0373111 1.14341e-07
-5.43131e-08 1.14341e-07 0.0332518

0.0419426 0.00133736 -7.78125e-08
0.00133736 0.0370997 -7.9793e-08
-7.78125e-08 -7.9793e-08 0.0361155

0.0420973 -0.0011479 -1.02116e-08
-0.0011479 0.0373255 -2.78755e-08
-1.02116e-08 -2.78755e-08 0.0360973

0.0283823 0.00236892 -1.70821e-07
0.00236892 0.0181812 7.39272e-08
-1.70821e-07 7.39272e-08 0.0159494

0.0350249 0.00106115 -9.96655e-08
0.00106115 0.0285652 -1.64301e-07
-9.96655e-08 -1.64301e-07 0.0330581

0.0128667 0.000923326 -4.55877e-08
0.000923326 0.0316257 2.75095e-08
-4.55877e-08 2.75095e-08 0.00612157

0.0131623 -0.001388 1.41997e-07
-0.001388 0.0321316 -6.96853e-08
1.41997e-07 -6.96853e-08 0.00611189

0.0152685 0.00715413 -1.01288e-07
0.00715413 0.0284524 4.10562e-08
-1.01288e-07 4.10562e-08 0.00598401

0.0347637 -0.00382123 -1.14857e-07
-0.00382123 0.0312673 1.72146e-07
-1.14857e-07 1.72146e-07 0.0329383

0.0155805 -0.00619419 9.64288e-08
-0.00619419 0.0261522 -3.58372e-07
9.64288e-08 -3.58372e-07 0.0104717

0.0155126 -0.00708672 -1.44548e-07
-0.00708672 0.0274229 -1.7938e-07
-1.44548e-07 -1.7938e-07 0.00591382

0.0284252 0.00342541 -2.11569e-08
0.00342541 0.0310055 6.82229e-08
-2.11569e-08 6.82229e-08 0.028152

0.0251928 0.00932576 2.81794e-07
0.00932576 0.0190205 -1.4895e-07
2.81794e-07 -1.4895e-07 0.00593372

0.0365374 0.0017319 1.00162e-07
0.0017319 0.0385514 8.66203e-09
1.00162e-07 8.66203e-09 0.0354744

0.039534 2.53843e-05 -7.37292e-08
2.53843e-05 0.0355391 -2.58359e-07
-7.37292e-08 -2.58359e-07 0.035455

0.0261069 -0.00924423 -2.13561e-07
-0.00924423 0.0188123 5.74764e-08
-2.13561e-07 5.74764e-08 0.00588785

0.0276891 -0.00306508 -2.23858e-09
-0.00306508 0.0320944 -3.21189e-08
-2.23858e-09 -3.21189e-08 0.0296221

0.0262545 0.00441796 1.66034e-07
0.00441796 0.0201576 -2.08418e-07
1.66034e-07 -2.08418e-07 0.0130443

0.017279 0.00797293 1.32463e-07
0.00797293 0.0271486 8.31493e-08
1.32463e-07 8.31493e-08 0.00598769

0.0181959 0.00275503 -6.74083e-08
0.00275503 0.0275891 -1.04016e-07
-6.74083e-08 -1.04016e-07 0.0128498

0.0173039 -0.00827622 -1.11189e-07
-0.00827622 0.0271518 8.78334e-08
-1.11189e-07 8.78334e-08 0.00581365

0.0179326 -0.00157083 1.63047e-07
-0.00157083 0.0280049 -5.75104e-08
1.63047e-07 -5.75104e-08 0.0126902

0.0370497 0.000923372 4.40946e-07
0.000923372 0.0412996 -6.20984e-08
4.40946e-07 -6.20984e-08 0.0358093

0.0221308 -0.00585507 -1.71525e-07
-0.00585507 0.0236639 -3.59803e-07
-1.71525e-07 -3.59803e-07 0.0151585

0.0156998 0.00598594 -1.25285e-08
0.00598594 0.0259018 -2.29391e-07
-1.25285e-08 -2.29391e-07 0.0107499

0.030208 0.00472989 8.82152e-08
0.00472989 0.0143491 2.86153e-07
8.82152e-08 2.86153e-07 0.00611571

0.0329376 -0.00384919 1.08333e-07
-0.00384919 0.0301232 -2.07344e-08
1.08333e-07 -2.07344e-08 0.0310504

0.030888 0.00169414 -4.25609e-08
0.00169414 0.0368422 1.33986e-07
-4.25609e-08 1.33986e-07 0.0339494

0.0260895 -0.00484383 -7.81877e-09
-0.00484383 0.019197 3.37414e-07
-7.81877e-09 3.37414e-07 0.0126947

0.0329997 -0.00378576 1.09374e-07
-0.00378576 0.0300743 -1.82837e-08
1.09374e-07 -1.82837e-08 0.0311268

0.0300184 -0.00451979 -1.75088e-07
-0.00451979 0.0130533 1.69912e-07
-1.75088e-07 1.69912e-07 0.00603712

0.0324726 -0.00372748 1.84784e-08
-0.00372748 0.0313068 1.48228e-07
1.84784e-08 1.48228e-07 0.0319786

0.0280903 -0.00331094 1.84456e-07
-0.00331094 0.0320029 -2.56951e-09
1.84456e-07 -2.56951e-09 0.0296246

0.0234431 0.00874352 -4.15779e-08
0.00874352 0.0204825 2.43692e-07
-4.15779e-08 2.43692e-07 0.00602602

0.0181994 -0.00292065 2.35275e-07
-0.00292065 0.0268659 -2.81591e-08
2.35275e-07 -2.81591e-08 0.0122697

0.0233141 -0.00901915 1.18125e-07
-0.00901915 0.0201518 3.08597e-07
1.18125e-07 3.08597e-07 0.00588385

0.0170821 0.00640812 1.2416e-08
0.00640812 0.0235655 1.87519e-07
1.2416e-08 1.87519e-07 0.0108308

0.030825 -0.00396002 1.07788e-07
-0.00396002 0.0301594 -2.0676e-08
1.07788e-07 -2.0676e-08 0.0300847

0.0389176 -0.00195823 -2.71293e-07
-0.00195823 0.0369403 -1.04542e-07
-2.71293e-07 -1.04542e-07 0.0354987

0.045541 0.00150735 2.59659e-07
0.00150735 0.0449528 1.71016e-07
2.59659e-07 1.71016e-07 0.0366183

0.0435642 -0.000712024 -1.75675e-07
-0.000712024 0.0462302 -4.43393e-08
-1.75675e-07 -4.43393e-08 0.036584

0.0286148 0.00171594 -3.62646e-08
0.00171594 0.0355653 8.01387e-08
-3.62646e-08 8.01387e-08 0.0323888

0.0453362 -0.00144849 -1.97854e-08
-0.00144849 0.0449806 -2.33805e-07
-1.97854e-08 -2.33805e-07 0.0366361

0.0438067 0.000567081 -1.82216e-07
0.000567081 0.0465063 -5.09897e-07
-1.82216e-07 -5.09897e-07 0.0366172

0.0466785 0.000991583 -5.56405e-08
0.000991583 0.0433774 -5.88107e-08
-5.56405e-08 -5.88107e-08 0.0365923

0.03975 -0.00163913 -2.37438e-07
-0.00163913 0.0460735 -4.46581e-07
-2.37438e-07 -4.46581e-07 0.036482

0.0190536 -0.00388717 2.38543e-07
-0.00388717 0.02723 -3.34567e-08
2.38543e-07 -3.34567e-08 0.0154707

0.0421412 -0.00174979 -4.35209e-08
-0.00174979 0.036725 -1.50568e-07
-4.35209e-08 -1.50568e-07 0.036004

0.0359631 -0.00457326 1.6199e-07
-0.00457326 0.0351495 1.63162e-07
1.6199e-07 1.63162e-07 0.0349673

0.0397526 -0.00242157 -1.76391e-07
-0.00242157 0.0360628 6.76233e-08
-1.76391e-07 6.76233e-08 0.0355664

0.0351837 0.00204322 -1.26391e-07
0.00204322 0.0285482 -8.33236e-08
-1.26391e-07 -8.33236e-08 0.032231

0.039692 0.00133782 -2.84417e-07
0.00133782 0.0472248 1.08778e-07
-2.84417e-07 1.08778e-07 0.0365479

0.0464955 0.0025931 1.86688e-07
0.0025931 0.0404182 3.88905e-07
1.86688e-07 3.88905e-07 0.0365291

0.0400867 0.00150546 -3.82264e-08
0.00150546 0.0366728 3.80041e-08
-3.82264e-08 3.80041e-08 0.0356145

0.027914 -0.00191984 1.58285e-07
-0.00191984 0.0125244 1.35162e-07
1.58285e-07 1.35162e-07 0.0106242

0.0283181 0.00326753 -7.12622e-08
0.00326753 0.0315491 -1.4041e-07
-7.12622e-08 -1.4041e-07 0.0294099

0.0231875 -0.00773584 6.7042e-08
-0.00773584 0.0181796 3.51213e-07
6.7042e-08 3.51213e-07 0.0102892

0.0228302 -0.00731556 -1.3946e-07
-0.00731556 0.0257678 -3.87855e-07
-1.3946e-07 -3.87855e-07 0.0119542

0.0290218 -0.00464675 3.07368e-07
-0.00464675 0.0191279 -2.77347e-07
3.07368e-07 -2.77347e-07 0.0126147

0.0375737 -0.000660757 2.25654e-07
-0.000660757 0.0449127 -2.68332e-07
2.25654e-07 -2.68332e-07 0.036293

0.0375715 0.000358179 1.41719e-07
0.000358179 0.0447899 1.51781e-07
1.41719e-07 1.51781e-07 0.0362733

0.0426052 -0.00327475 -1.42663e-07
-0.00327475 0.03945 5.2542e-08
-1.42663e-07 5.2542e-08 0.0362271

0.0429973 -0.00294502 6.47631e-08
-0.00294502 0.0391683 6.84531e-08
6.47631e-08 6.84531e-08 0.0362341

0.0425008 0.0035038 -2.6081e-07
0.0035038 0.0399712 -3.14811e-07
-2.6081e-07 -3.14811e-07 0.0362719

0.0443965 0.00041593 3.07124e-07
0.00041593 0.0450803 4.81348e-07
3.07124e-07 4.81348e-07 0.0366353

0.0426089 -0.00274464 2.46615e-08
-0.00274464 0.0395071 7.72801e-09
2.46615e-08 7.72801e-09 0.0362886

0.0426027 -0.00251126 7.66252e-08
-0.00251126 0.0442667 -2.37376e-07
7.66252e-08 -2.37376e-07 0.0365628

0.0451167 0.000331411 2.95217e-07
0.000331411 0.0454684 -1.82855e-07
2.95217e-07 -1.82855e-07 0.0366536

0.0436363 -0.00278323 3.27493e-07
-0.00278323 0.038916 -1.153e-07
3.27493e-07 -1.153e-07 0.0363293

0.0435121 0.00283879 -1.27094e-07
0.00283879 0.039069 -3.96357e-08
-1.27094e-07 -3.96357e-08 0.0363674

0.0451927 -0.000470172 -1.87588e-07
-0.000470172 0.0455815 7.70067e-08
-1.87588e-07 7.70067e-08 0.0367022

0.0452238 -0.00042322 7.74941e-07
-0.00042322 0.0443591 -1.18319e-06
7.74941e-07 -1.18319e-06 0.0367206

0.0427981 0.00163844 1.71962e-07
0.00163844 0.0442493 -1.74531e-07
1.71962e-07 -1.74531e-07 0.0366067

0.0411164 0.00361855 -1.46862e-07
0.00361855 0.0405155 -1.09662e-07
-1.46862e-07 -1.09662e-07 0.0363212

SCALARS pressure float
LOOKUP_TABLE default
-60.0504
19.3081
5.8032
21.2901
15.8788
5.88716
-58.6735
7.78296
-3.80504
15.1244
-24.4315
7.61711
5.59193
12.2791
23.3377
5.53881
18.5207
13.207
-0.693072
6.75633
-0.905013
33.1351
5.80056
5.79663
6.60162
14.9026
-38.3847
6.67148
-15.2424
30.6265
5.17615
-15.6571
-42.0557
27.3263
20.7792
27.3592
31.8848
19.8092
4.85944
-42.599
-17.4073
31.9056
31.9937
5.9934
-21.8048
-15.9758
-1.05265
-3.40565
6.54458
-16.2177
-18.9187
-15.3459
20.7556
-15.3731
20.3088
-33.1483
21.1297
-15.4603
21.1396
7.04469
21.7646
16.1188
-45.5615
12.7897
16.362
10.905
21.5739
13.8279
5.77326
21.8169
20.8117
20.7824
-17.6909
11.6004
3.97378
-31.6092
14.3567
10.9961
14.1459
-8.72015
-28.9445
14.9777
20.163
-22.0377
-23.4293
-28.0917
7.09755
9.63226
-22.2155
37.7419
-15.509
38.4445
18.3045
10.7613
-15.1665
-15.8727
-30.2211
14.7533
14.3657
4.59853
-10.7664
-21.9394
-25.1013
16.2127
14.1
14.9615
18.6974
3.77455
-24.5582
26.5131
7.21731
-21.4088
-24.6118
14.8377
15.0779
-16.1456
20.165
-29.113
20.6287
-16.7293
-2.90494
23.834
21.727
16.0328
26.6797
22.6316
21.7857
15.7083
-29.7807
-16.099
24.0918
21.6172
20.9892
22.0656
-22.0138
23.5873
-33.837
5.46321
21.7543
23.6307
-21.9367
6.67628
-5.96691
15.0833
-30.4072
15.6238
7.83299
2.40737
5.17756
-9.39463
-0.458232
22.6415
-15.4546
5.29083
15.204
21.5604
11.508
-21.1132
-21.2637
10.7902
-2.84296
-15.1976
-21.2202
-15.1653
-20.9864
15.2796
-20.6358
-21.2015
-15.2078
-21.0637
19.0043
-15.941
-14.8245
12.0643
-14.4847
18.8027
19.0534
7.47252
18.0479
11.7728
-16.249
15.2881
14.9608
-21.5284
10.4264
-14.2213
16.0485
14.5954
17.0818
14.835
10.3437
-26.9761
-16.0822
-15.9581
21.9068
14.5256
14.6244
20.9226
22.4869
9.50251
21.7336
-0.384979
-8.17103
20.7787
-17.8387
19.9455
10.364
-21.5175
15.721
22.5261
14.7312
9.39327
14.1897
21.0556
-7.83309
8.82738
-7.90889
14.6481
26.9277
26.5814
27.9606
26.3886
26.7244
26.291
13.8257
23.4303
24.0296
23.9738
23.4
21.1928
21.8573
-8.26315
15.9334
28.1911
-3.18902
23.5761
23.2054
27.8344
-8.49384
28.0965
15.3445
-7.58192
17.4921
-8.25811
20.2271
29.6128
-7.48631
-8.10107
-29.5917
-18.189
19.5272
-31.9852
5.734
-7.79426
-1.1899
28.2492
26.6403
30.427
26.761
-34.8006
-8.17996
28.3374
8.07253
-8.29547
26.446
-6.29564
30.4718
-7.95439
27.0472
14.5659
14.7869
23.8452
10.0473
18.021
8.11672
-29.8596
-24.5529
16.8068
1.75924
8.17918
-13.609
17.4357
11.6996
-8.10182
9.45189
-10.8236
7.51658
-10.7549
-8.48504
33.265
19.1517
25.0884
25.3127
13.8289
-10.4047
26.43
14.6848
-1.65946
-10.2741
-12.5644
17.5066
-7.48556
17.5745
-12.0414
-21.3502
-10.6085
-34.6809
15.5623
-7.76329
34.443
-11.5781
16.8712
-8.40907
15.9726
-12.7585
4.2887
-51.1177
8.52123
-7.74696
21.3338
-8.15247
-0.123371
10.7151
21.124
-12.0609
-10.201
-6.0687
14.3178
-10.1803
6.88752
6.38519
16.3054
-10.4198
-6.3308
-1.70282
-5.66091
-11.0787
-5.84512
15.3054
7.80754
-5.5565
-8.96077
7.80498
7.69383
-10.6748
16.3093
-27.2131
2.29251
-28.481
-0.958079
-8.87787
-8.09616
-11.7788
-10.9424
-9.88075
-7.77576
-7.89912
16.6377
24.7781
12.1156
-0.292218
-0.825775
-5.67507
7.3047
-6.32116
-6.31845
24.9239
-5.7305
14.1179
-15.9084
24.3253
5.96755
-0.391773
-5.64436
16.2749
2.47651
0.198442
2.44749
0.45531
-0.741468
-9.93058
-0.0962151
2.11266
15.0688
-1.2889
-1.40778
-0.999439
-0.389192
1.9647
8.05017
-1.19418
8.07762
5.58262
-0.436254
7.03472
5.48965
-3.87704
16.4765
-1.90398
23.0622
-21.9732
15.0439
15.6822
2.03905
-1.99806
12.5425
-26.5057
5.79164
-1.65851
-50.4821
30.4989
30.6356
5.82428
-1.14498
-1.04739
-0.850314
33.4197
33.2944
13.0944
6.08137
6.66184
-28.9618
-1.28005
16.5333
-3.18327
-4.34866
-0.0175633
-25.2704
14.3029
-1.28082
2.86119
2.69258
-2.72384
-0.0499415
-3.21006
-4.03411
-37.9816
-33.6829
-0.128647
1.87388
-0.534692
-3.74475
-1.93718
-1.8783
-0.924916
-21.9071
17.2495
-0.769953
12.5648
14.1834
-26.7636
6.2857
7.13624
18.4778
36.4288
36.4612
22.6387
-1.75643
2.59903
-20.9293
36.1274
32.761
32.828
-24.8077
21.7758
30.5241
2.59852
15.7239
10.3708
17.1641
17.726
12.5052
5.68082
-25.3972
4.25949
10.4089
16.2438
-31.709
28.3103
-52.709
18.6848
10.2985
-10.6277
7.41681
5.45652
24.4746
9.41055
24.4077
4.10458
12.3995
30.6413
29.467
-22.9897
17.4352
-70.2279
-74.3743
-67.1719
11.648
-31.2589
-63.6054
-3.80406
-69.9333
16.4632
16.4069
-73.7494
5.21149
-39.7287
-70.7339
-37.7546
-71.8702
-39.4501
21.1372
-23.9595
-29.0429
-70.6178
4.83084
15.7574
-36.1885
6.05292
-63.6131
9.83543
3.88102
-67.8964
-37.6222
-66.4059
-23.7544
5.02844
20.5265
35.373
36.7288
11.8115
36.8526
36.906
36.4943
36.4062
-24.4783
28.2489
20.6691
21.981
11.5341
36.0621
36.0936
18.1203
-23.9392
3.24591
-30.5251
-56.5951
-50.4723
36.1452
35.8259
35.3825
35.4527
36.1612
35.601
33.1115
37.3729
35.4023
36.008
35.6402
34.1987
34.3353
35.8584
35.3112
