# vtk DataFile Version 3.0
vtk output at time 170
ASCII
DATASET UNSTRUCTURED_GRID
POINTS 626 float
-3.68058e-05 0.000978749 0 3.68058e-05 0.000978749 0 -0.000829194 0.00052125 0 
-0.0008235 0.0005 0 -0.000866 0.0004575 0 -0.000866 -0.0004575 0 
-0.0008235 -0.0005 0 -0.000829194 -0.00052125 0 -3.68058e-05 -0.000978749 0 
3.68058e-05 -0.000978749 0 0.000829194 -0.00052125 0 0.000866 -0.0004575 0 
0.000866 0.0004575 0 0.000829194 0.00052125 0 8.5e-05 0 0 
-3.68058e-05 0.000978749 -0.001 3.68058e-05 0.000978749 -0.001 -0.000829194 0.00052125 -0.001 
-0.0008235 0.0005 -0.001 -0.000866 0.0004575 -0.001 -0.000866 -0.0004575 -0.001 
-0.0008235 -0.0005 -0.001 -0.000829194 -0.00052125 -0.001 -3.68058e-05 -0.000978749 -0.001 
3.68058e-05 -0.000978749 -0.001 0.000829194 -0.00052125 -0.001 0.000866 -0.0004575 -0.001 
0.000866 0.0004575 -0.001 0.000829194 0.00052125 -0.001 8.5e-05 0 -0.001 
8.46223e-17 0.0009575 0 -0.000715996 0.000586607 0 -0.000602797 0.000651965 0 
-0.000489599 0.000717321 0 -0.000376401 0.000782678 0 -0.000263202 0.000848036 0 
-0.000150004 0.000913393 0 -0.000835948 0.000469948 0 -0.000866 -0.000326786 0 
-0.000866 -0.000196071 0 -0.000866 -6.53571e-05 0 -0.000866 6.53571e-05 0 
-0.000866 0.000196071 0 -0.000866 0.000326786 0 -0.000835948 -0.000469948 0 
-0.000150004 -0.000913393 0 -0.000263202 -0.000848036 0 -0.000376401 -0.000782678 0 
-0.000489599 -0.000717321 0 -0.000602797 -0.000651965 0 -0.000715996 -0.000586607 0 
8.47648e-17 -0.0009575 0 0.000715996 -0.000586607 0 0.000602797 -0.000651965 0 
0.000489599 -0.000717321 0 0.000376401 -0.000782678 0 0.000263202 -0.000848036 0 
0.000150004 -0.000913393 0 0.000829194 -0.00047875 0 0.000866 0.000326786 0 
0.000866 0.000196071 0 0.000866 6.53571e-05 0 0.000866 -6.53571e-05 0 
0.000866 -0.000196071 0 0.000866 -0.000326786 0 0.000829194 0.00047875 0 
0.000150004 0.000913393 0 0.000263202 0.000848036 0 0.000376401 0.000782678 0 
0.000489599 0.000717321 0 0.000602797 0.000651965 0 0.000715996 0.000586607 0 
5.29966e-05 6.64557e-05 0 -1.89143e-05 8.28689e-05 0 -7.65824e-05 3.68801e-05 0 
-7.65824e-05 -3.68801e-05 0 -1.89143e-05 -8.28689e-05 0 5.29966e-05 -6.64557e-05 0 
8.46223e-17 0.0009575 -0.001 -0.000715996 0.000586607 -0.001 -0.000602797 0.000651965 -0.001 
-0.000489599 0.000717321 -0.001 -0.000376401 0.000782678 -0.001 -0.000263202 0.000848036 -0.001 
-0.000150004 0.000913393 -0.001 -0.000835948 0.000469948 -0.001 -0.000866 -0.000326786 -0.001 
-0.000866 -0.000196071 -0.001 -0.000866 -6.53571e-05 -0.001 -0.000866 6.53571e-05 -0.001 
-0.000866 0.000196071 -0.001 -0.000866 0.000326786 -0.001 -0.000835948 -0.000469948 -0.001 
-0.000150004 -0.000913393 -0.001 -0.000263202 -0.000848036 -0.001 -0.000376401 -0.000782678 -0.001 
-0.000489599 -0.000717321 -0.001 -0.000602797 -0.000651965 -0.001 -0.000715996 -0.000586607 -0.001 
8.47648e-17 -0.0009575 -0.001 0.000715996 -0.000586607 -0.001 0.000602797 -0.000651965 -0.001 
0.000489599 -0.000717321 -0.001 0.000376401 -0.000782678 -0.001 0.000263202 -0.000848036 -0.001 
0.000150004 -0.000913393 -0.001 0.000829194 -0.00047875 -0.001 0.000866 0.000326786 -0.001 
0.000866 0.000196071 -0.001 0.000866 6.53571e-05 -0.001 0.000866 -6.53571e-05 -0.001 
0.000866 -0.000196071 -0.001 0.000866 -0.000326786 -0.001 0.000829194 0.00047875 -0.001 
0.000150004 0.000913393 -0.001 0.000263202 0.000848036 -0.001 0.000376401 0.000782678 -0.001 
0.000489599 0.000717321 -0.001 0.000602797 0.000651965 -0.001 0.000715996 0.000586607 -0.001 
5.29966e-05 6.64557e-05 -0.001 -1.89143e-05 8.28689e-05 -0.001 -7.65824e-05 3.68801e-05 -0.001 
-7.65824e-05 -3.68801e-05 -0.001 -1.89143e-05 -8.28689e-05 -0.001 5.29966e-05 -6.64557e-05 -0.001 
0.000131234 6.38474e-05 0 0.00012964 -6.2443e-05 0 3.13827e-05 0.0001394 0 
3.12554e-05 -0.000136939 0 -0.000140461 8.25467e-19 0 -8.90565e-05 -0.000102707 0 
-9.04142e-05 0.000102872 0 -0.000765769 -0.00025965 0 -0.000756873 0.000262774 0 
-0.00015609 0.000787505 0 -0.000155807 -0.00079355 0 0.000605069 0.000528035 0 
0.000608694 -0.00052497 0 0.000744069 0.000116929 0 -0.000494418 0.000596218 0 
-0.000483866 -0.000584648 0 0.000269496 0.000702219 0 0.000263201 -0.000717324 0 
0.000754429 -0.000127825 0 -0.000748858 5.84659e-07 0 -0.000747838 0.000373886 0 
-0.0006542 0.000324842 0 -0.000645137 0.000210123 0 -0.000550884 0.000274171 0 
-0.000538857 0.000163195 0 -0.00045062 0.000224461 0 -0.000438393 0.000123907 0 
-0.000354088 0.000181668 0 -0.000363908 0.000282171 0 -0.000270361 0.000239477 0 
-0.000279138 0.000337653 0 -0.000188888 0.000294791 0 -0.000196448 0.000393271 0 
-0.000104767 0.000348259 0 -0.000113332 0.000449012 0 -2.01066e-05 0.000403223 0 
-2.89189e-05 0.000507105 0 6.9524e-05 0.000461596 0 -0.000213644 0.000490203 0 
7.33757e-05 0.000357726 0 0.000163331 0.00041299 0 0.000163359 0.000313022 0 
0.000248077 0.000366368 0 0.000250914 0.000265758 0 0.000335709 0.000322266 0 
0.000340555 0.000218148 0 0.000427299 0.000276717 0 0.000431508 0.000173093 0 
0.000328731 0.000425633 0 0.00034586 0.000114823 0 0.000435362 7.05241e-05 0 
0.000350892 1.5455e-05 0 0.000441547 -3.11896e-05 0 0.000353547 -8.47783e-05 0 
0.000445767 -0.000132964 0 0.000356135 -0.000186358 0 0.000449094 -0.000234674 0 
0.000359978 -0.000287876 0 0.00026856 -0.000240545 0 0.000271895 -0.000341045 0 
0.000181792 -0.00029305 0 0.00018533 -0.000392851 0 9.75701e-05 -0.00034483 0 
9.98764e-05 -0.000444884 0 8.75116e-06 -0.000396343 0 1.20916e-05 -0.000500496 0 
-7.83929e-05 -0.000449843 0 -8.1471e-05 -0.000347249 0 -0.000171566 -0.000403733 0 
-0.000169889 -0.000298891 0 -0.000259867 -0.000354132 0 -0.000257696 -0.000249137 0 
-0.00034313 -0.000299896 0 -0.000344514 -0.000199127 0 -0.000434309 -0.000250039 0 
-0.000169832 -0.000505815 0 -0.000435227 -0.000146227 0 0.000280331 -0.000442424 0 
-0.000340889 8.76793e-05 0 -0.000515252 4.06198e-05 0 6.50491e-05 0.000568253 0 
0.00053278 1.74743e-05 0 0.000522071 0.000229831 0 -0.00037162 0.000391659 0 
-0.000255272 -0.000150439 0 -0.000442893 -0.000350705 0 0.000450067 -0.000332559 0 
0.000545175 -0.000276306 0 -0.000527797 -0.000197598 0 0.000105306 -0.000551033 0 
1.45836e-05 -0.000609147 0 0.00017145 0.000214453 0 0.000515525 0.000341711 0 
0.000636086 0.000290368 0 -0.000558657 0.000404468 0 -4.01232e-05 0.000616718 0 
6.60192e-05 0.000696422 0 -0.000101806 0.0002546 0 0.000271142 -3.88908e-05 0 
0.000179455 -0.00018534 0 -8.79553e-05 -0.000254307 0 -0.000749267 -0.000373451 0 
-0.000655941 -0.000323397 0 0.000709746 0.000466718 0 0.000698426 -0.000473086 0 
-5.25801e-05 -0.00084886 0 -4.93005e-05 0.000848038 0 0.000617396 -0.000413362 0 
0.000702056 -0.000369817 0 0.000131459 -0.000679171 0 2.48171e-05 -0.000715924 0 
-0.000664217 -0.00042729 0 -0.000528828 -8.80444e-05 0 -0.000611101 -0.000136672 0 
-0.000426972 -4.45841e-05 0 0.000800669 0.000378216 0 0.000821144 -0.000415062 0 
7.2799e-05 0.00088254 0 6.81831e-05 -0.00087503 0 0.000104963 -0.000788946 0 
-7.40696e-05 -0.000660054 0 0.000126061 0.000809943 0 0.000764361 0.000295682 0 
0.000166862 0.000630623 0 0.000516462 -0.00046707 0 -0.000563585 -0.000389606 0 
-0.000622598 -1.40238e-05 0 0.000629891 0.000171529 0 2.5614e-06 -0.000299794 0 
8.6901e-05 -0.00024329 0 0.000272045 -0.000136982 0 -0.00075148 0.000138321 0 
0.000209366 -0.000599589 0 0.000324913 -0.000630055 0 0.000614044 0.00041245 0 
0.00049651 -0.000573327 0 0.000394822 -0.000507321 0 -0.000173714 -0.000206698 0 
0.000264897 5.63722e-05 0 0.000247997 0.000152811 0 -4.63327e-05 -0.000920208 0 
9.18688e-05 0.000258626 0 -5.54111e-06 0.000290558 0 -0.000184219 0.000201484 0 
-0.000263559 0.000142267 0 -0.000256427 5.13624e-05 0 -0.000336894 -2.06179e-06 0 
-0.000228499 -4.2388e-05 0 -0.00017589 0.000106626 0 -0.000769947 -0.000133367 0 
0.000767591 -0.000500293 0 -5.05874e-05 0.000737978 0 0.000754456 -3.51771e-06 0 
0.00064691 -6.15298e-05 0 0.000630483 -0.00018134 0 0.000749187 -0.000265543 0 
-0.000760805 -0.000462521 0 0.000638155 6.09315e-05 0 -4.46661e-05 0.000922995 0 
-2.37945e-05 0.000207237 0 0.000776979 0.000500181 0 -0.000605691 0.000527596 0 
-0.000377914 -0.000653727 0 -0.000372325 -0.000526022 0 -0.000275829 -0.000589621 0 
-0.000254285 -0.000710579 0 -0.000379307 0.000656222 0 -0.000379818 0.00052718 0 
-0.000266817 0.000721555 0 -0.000150544 0.000668174 0 0.000381963 0.00065079 0 
0.000493113 0.000590432 0 0.000505439 0.000463708 0 -0.000269094 0.000596608 0 
0.000385815 0.000532045 0 0.000283599 0.0005899 0 -0.000176405 -0.000108505 0 
-0.000278769 -0.000475415 0 0.000185395 2.33014e-06 0 0.000186773 0.000517571 0 
0.000540032 -8.68444e-05 0 -0.000600694 -0.000514877 0 -0.00063703 8.98033e-05 0 
-0.000459677 0.000335729 0 -0.000338836 -0.000100751 0 -0.000457327 0.000432721 0 
-8.72007e-06 -0.000210238 0 0.000156073 0.000129496 0 -7.70692e-05 -0.000555049 0 
0.00036091 -0.000389728 0 0.000531628 0.000120564 0 -0.000285451 0.000435562 0 
0.000192719 -0.000494604 0 0.00041642 0.00039368 0 -0.000135943 0.000554637 0 
-0.000170665 -0.000610079 0 -0.000666304 0.000434981 0 -0.000758736 0.000479231 0 
-0.000470189 -0.000458901 0 0.000203433 -8.59809e-05 0 0.000101846 0.000170114 0 
-0.00035513 -0.00040726 0 0.000100184 -0.000165831 0 2.96286e-05 0.00081537 0 
0.000720946 0.000381836 0 -0.000539809 -0.000292001 0 0.00052211 -0.000182426 0 
-6.41339e-05 -0.000753908 0 0.000638039 -0.000299861 0 -0.000605136 -0.000230182 0 
-3.41638e-05 -0.000145561 0 -0.000104037 0.000172396 0 -0.000808575 -0.00042774 0 
-0.000807207 -0.000465052 0 -0.00080817 0.000429771 0 -0.000806589 0.000469738 0 
-9.50634e-05 -0.000178909 0 0.000247777 0.000445058 0 1.48293e-05 -0.000814201 0 
-4.11555e-05 0.000140955 0 0.000276104 -0.000536845 0 0.000765969 -0.000436638 0 
0.000780871 -0.000362769 0 0.000424176 -0.000642018 0 0.00053413 -0.000368009 0 
-0.000416333 4.17911e-05 0 -0.000133891 -6.23822e-05 0 4.2574e-05 0.000206312 0 
0.000141163 -0.000121542 0 0.000707423 0.000212137 0 0.000172327 0.000723882 0 
7.72652e-06 -0.00090254 0 -0.000134435 5.66935e-05 0 -0.000188826 3.70894e-05 0 
0.000197119 8.09714e-05 0 1.27801e-05 0.000917296 0 0.000800767 0.00044758 0 
-0.000686682 0.000507104 0 9.35831e-05 0.000110457 0 -0.000696793 -0.000509595 0 
-0.00068446 -8.52012e-05 0 -0.000691033 -0.000201242 0 5.24052e-05 -0.000189075 0 
-0.000151818 -0.000701092 0 -0.000296988 0.000518087 0 9.31023e-05 -0.000108117 0 
0.00044261 -0.000416726 0 0.000197044 -0.000784423 0 -0.000516861 0.000504567 0 
0.000298997 0.000502377 0 0.000131234 6.38474e-05 -0.001 0.00012964 -6.2443e-05 -0.001 
3.13827e-05 0.0001394 -0.001 3.12554e-05 -0.000136939 -0.001 -0.000140461 8.25467e-19 -0.001 
-8.90565e-05 -0.000102707 -0.001 -9.04142e-05 0.000102872 -0.001 -0.000765769 -0.00025965 -0.001 
-0.000756873 0.000262774 -0.001 -0.00015609 0.000787505 -0.001 -0.000155807 -0.00079355 -0.001 
0.000605069 0.000528035 -0.001 0.000608694 -0.00052497 -0.001 0.000744069 0.000116929 -0.001 
-0.000494418 0.000596218 -0.001 -0.000483866 -0.000584648 -0.001 0.000269496 0.000702219 -0.001 
0.000263201 -0.000717324 -0.001 0.000754429 -0.000127825 -0.001 -0.000748858 5.84659e-07 -0.001 
-0.000747838 0.000373886 -0.001 -0.0006542 0.000324842 -0.001 -0.000645137 0.000210123 -0.001 
-0.000550884 0.000274171 -0.001 -0.000538857 0.000163195 -0.001 -0.00045062 0.000224461 -0.001 
-0.000438393 0.000123907 -0.001 -0.000354088 0.000181668 -0.001 -0.000363908 0.000282171 -0.001 
-0.000270361 0.000239477 -0.001 -0.000279138 0.000337653 -0.001 -0.000188888 0.000294791 -0.001 
-0.000196448 0.000393271 -0.001 -0.000104767 0.000348259 -0.001 -0.000113332 0.000449012 -0.001 
-2.01066e-05 0.000403223 -0.001 -2.89189e-05 0.000507105 -0.001 6.9524e-05 0.000461596 -0.001 
-0.000213644 0.000490203 -0.001 7.33757e-05 0.000357726 -0.001 0.000163331 0.00041299 -0.001 
0.000163359 0.000313022 -0.001 0.000248077 0.000366368 -0.001 0.000250914 0.000265758 -0.001 
0.000335709 0.000322266 -0.001 0.000340555 0.000218148 -0.001 0.000427299 0.000276717 -0.001 
0.000431508 0.000173093 -0.001 0.000328731 0.000425633 -0.001 0.00034586 0.000114823 -0.001 
0.000435362 7.05241e-05 -0.001 0.000350892 1.5455e-05 -0.001 0.000441547 -3.11896e-05 -0.001 
0.000353547 -8.47783e-05 -0.001 0.000445767 -0.000132964 -0.001 0.000356135 -0.000186358 -0.001 
0.000449094 -0.000234674 -0.001 0.000359978 -0.000287876 -0.001 0.00026856 -0.000240545 -0.001 
0.000271895 -0.000341045 -0.001 0.000181792 -0.00029305 -0.001 0.00018533 -0.000392851 -0.001 
9.75701e-05 -0.00034483 -0.001 9.98764e-05 -0.000444884 -0.001 8.75116e-06 -0.000396343 -0.001 
1.20916e-05 -0.000500496 -0.001 -7.83929e-05 -0.000449843 -0.001 -8.1471e-05 -0.000347249 -0.001 
-0.000171566 -0.000403733 -0.001 -0.000169889 -0.000298891 -0.001 -0.000259867 -0.000354132 -0.001 
-0.000257696 -0.000249137 -0.001 -0.00034313 -0.000299896 -0.001 -0.000344514 -0.000199127 -0.001 
-0.000434309 -0.000250039 -0.001 -0.000169832 -0.000505815 -0.001 -0.000435227 -0.000146227 -0.001 
0.000280331 -0.000442424 -0.001 -0.000340889 8.76793e-05 -0.001 -0.000515252 4.06198e-05 -0.001 
6.50491e-05 0.000568253 -0.001 0.00053278 1.74743e-05 -0.001 0.000522071 0.000229831 -0.001 
-0.00037162 0.000391659 -0.001 -0.000255272 -0.000150439 -0.001 -0.000442893 -0.000350705 -0.001 
0.000450067 -0.000332559 -0.001 0.000545175 -0.000276306 -0.001 -0.000527797 -0.000197598 -0.001 
0.000105306 -0.000551033 -0.001 1.45836e-05 -0.000609147 -0.001 0.00017145 0.000214453 -0.001 
0.000515525 0.000341711 -0.001 0.000636086 0.000290368 -0.001 -0.000558657 0.000404468 -0.001 
-4.01232e-05 0.000616718 -0.001 6.60192e-05 0.000696422 -0.001 -0.000101806 0.0002546 -0.001 
0.000271142 -3.88908e-05 -0.001 0.000179455 -0.00018534 -0.001 -8.79553e-05 -0.000254307 -0.001 
-0.000749267 -0.000373451 -0.001 -0.000655941 -0.000323397 -0.001 0.000709746 0.000466718 -0.001 
0.000698426 -0.000473086 -0.001 -5.25801e-05 -0.00084886 -0.001 -4.93005e-05 0.000848038 -0.001 
0.000617396 -0.000413362 -0.001 0.000702056 -0.000369817 -0.001 0.000131459 -0.000679171 -0.001 
2.48171e-05 -0.000715924 -0.001 -0.000664217 -0.00042729 -0.001 -0.000528828 -8.80444e-05 -0.001 
-0.000611101 -0.000136672 -0.001 -0.000426972 -4.45841e-05 -0.001 0.000800669 0.000378216 -0.001 
0.000821144 -0.000415062 -0.001 7.2799e-05 0.00088254 -0.001 6.81831e-05 -0.00087503 -0.001 
0.000104963 -0.000788946 -0.001 -7.40696e-05 -0.000660054 -0.001 0.000126061 0.000809943 -0.001 
0.000764361 0.000295682 -0.001 0.000166862 0.000630623 -0.001 0.000516462 -0.00046707 -0.001 
-0.000563585 -0.000389606 -0.001 -0.000622598 -1.40238e-05 -0.001 0.000629891 0.000171529 -0.001 
2.5614e-06 -0.000299794 -0.001 8.6901e-05 -0.00024329 -0.001 0.000272045 -0.000136982 -0.001 
-0.00075148 0.000138321 -0.001 0.000209366 -0.000599589 -0.001 0.000324913 -0.000630055 -0.001 
0.000614044 0.00041245 -0.001 0.00049651 -0.000573327 -0.001 0.000394822 -0.000507321 -0.001 
-0.000173714 -0.000206698 -0.001 0.000264897 5.63722e-05 -0.001 0.000247997 0.000152811 -0.001 
-4.63327e-05 -0.000920208 -0.001 9.18688e-05 0.000258626 -0.001 -5.54111e-06 0.000290558 -0.001 
-0.000184219 0.000201484 -0.001 -0.000263559 0.000142267 -0.001 -0.000256427 5.13624e-05 -0.001 
-0.000336894 -2.06179e-06 -0.001 -0.000228499 -4.2388e-05 -0.001 -0.00017589 0.000106626 -0.001 
-0.000769947 -0.000133367 -0.001 0.000767591 -0.000500293 -0.001 -5.05874e-05 0.000737978 -0.001 
0.000754456 -3.51771e-06 -0.001 0.00064691 -6.15298e-05 -0.001 0.000630483 -0.00018134 -0.001 
0.000749187 -0.000265543 -0.001 -0.000760805 -0.000462521 -0.001 0.000638155 6.09315e-05 -0.001 
-4.46661e-05 0.000922995 -0.001 -2.37945e-05 0.000207237 -0.001 0.000776979 0.000500181 -0.001 
-0.000605691 0.000527596 -0.001 -0.000377914 -0.000653727 -0.001 -0.000372325 -0.000526022 -0.001 
-0.000275829 -0.000589621 -0.001 -0.000254285 -0.000710579 -0.001 -0.000379307 0.000656222 -0.001 
-0.000379818 0.00052718 -0.001 -0.000266817 0.000721555 -0.001 -0.000150544 0.000668174 -0.001 
0.000381963 0.00065079 -0.001 0.000493113 0.000590432 -0.001 0.000505439 0.000463708 -0.001 
-0.000269094 0.000596608 -0.001 0.000385815 0.000532045 -0.001 0.000283599 0.0005899 -0.001 
-0.000176405 -0.000108505 -0.001 -0.000278769 -0.000475415 -0.001 0.000185395 2.33014e-06 -0.001 
0.000186773 0.000517571 -0.001 0.000540032 -8.68444e-05 -0.001 -0.000600694 -0.000514877 -0.001 
-0.00063703 8.98033e-05 -0.001 -0.000459677 0.000335729 -0.001 -0.000338836 -0.000100751 -0.001 
-0.000457327 0.000432721 -0.001 -8.72007e-06 -0.000210238 -0.001 0.000156073 0.000129496 -0.001 
-7.70692e-05 -0.000555049 -0.001 0.00036091 -0.000389728 -0.001 0.000531628 0.000120564 -0.001 
-0.000285451 0.000435562 -0.001 0.000192719 -0.000494604 -0.001 0.00041642 0.00039368 -0.001 
-0.000135943 0.000554637 -0.001 -0.000170665 -0.000610079 -0.001 -0.000666304 0.000434981 -0.001 
-0.000758736 0.000479231 -0.001 -0.000470189 -0.000458901 -0.001 0.000203433 -8.59809e-05 -0.001 
0.000101846 0.000170114 -0.001 -0.00035513 -0.00040726 -0.001 0.000100184 -0.000165831 -0.001 
2.96286e-05 0.00081537 -0.001 0.000720946 0.000381836 -0.001 -0.000539809 -0.000292001 -0.001 
0.00052211 -0.000182426 -0.001 -6.41339e-05 -0.000753908 -0.001 0.000638039 -0.000299861 -0.001 
-0.000605136 -0.000230182 -0.001 -3.41638e-05 -0.000145561 -0.001 -0.000104037 0.000172396 -0.001 
-0.000808575 -0.00042774 -0.001 -0.000807207 -0.000465052 -0.001 -0.00080817 0.000429771 -0.001 
-0.000806589 0.000469738 -0.001 -9.50634e-05 -0.000178909 -0.001 0.000247777 0.000445058 -0.001 
1.48293e-05 -0.000814201 -0.001 -4.11555e-05 0.000140955 -0.001 0.000276104 -0.000536845 -0.001 
0.000765969 -0.000436638 -0.001 0.000780871 -0.000362769 -0.001 0.000424176 -0.000642018 -0.001 
0.00053413 -0.000368009 -0.001 -0.000416333 4.17911e-05 -0.001 -0.000133891 -6.23822e-05 -0.001 
4.2574e-05 0.000206312 -0.001 0.000141163 -0.000121542 -0.001 0.000707423 0.000212137 -0.001 
0.000172327 0.000723882 -0.001 7.72652e-06 -0.00090254 -0.001 -0.000134435 5.66935e-05 -0.001 
-0.000188826 3.70894e-05 -0.001 0.000197119 8.09714e-05 -0.001 1.27801e-05 0.000917296 -0.001 
0.000800767 0.00044758 -0.001 -0.000686682 0.000507104 -0.001 9.35831e-05 0.000110457 -0.001 
-0.000696793 -0.000509595 -0.001 -0.00068446 -8.52012e-05 -0.001 -0.000691033 -0.000201242 -0.001 
5.24052e-05 -0.000189075 -0.001 -0.000151818 -0.000701092 -0.001 -0.000296988 0.000518087 -0.001 
9.31023e-05 -0.000108117 -0.001 0.00044261 -0.000416726 -0.001 0.000197044 -0.000784423 -0.001 
-0.000516861 0.000504567 -0.001 0.000298997 0.000502377 -0.001 

CELLS 563 3941
6 14 304 127 29 554 377 
6 143 259 55 393 509 103 
6 300 319 174 550 569 424 
6 259 349 55 509 599 103 
6 50 365 307 98 615 557 
6 299 320 164 549 570 414 
6 126 304 14 376 554 29 
6 298 319 300 548 569 550 
6 205 240 238 455 490 488 
6 257 308 145 507 558 395 
6 130 352 273 380 602 523 
6 295 320 299 545 570 549 
6 324 327 289 574 577 539 
6 235 258 143 485 508 393 
6 50 307 49 98 557 97 
6 207 283 279 457 533 529 
6 143 373 235 393 623 485 
6 145 308 252 395 558 502 
6 194 303 196 444 553 446 
6 279 306 207 529 556 457 
6 206 305 163 456 555 413 
6 51 357 9 99 607 24 
6 238 252 205 488 502 455 
6 293 317 209 543 567 459 
6 207 316 283 457 566 533 
6 142 301 249 392 551 499 
6 273 359 130 523 609 380 
6 211 327 324 461 577 574 
6 169 265 217 419 515 467 
6 7 365 50 22 615 98 
6 283 316 253 533 566 503 
6 159 268 223 409 518 473 
6 274 337 132 524 587 382 
6 232 361 329 482 611 579 
6 231 266 45 481 516 93 
6 229 362 330 479 612 580 
6 9 244 57 24 494 105 
6 230 276 52 480 526 100 
6 209 311 293 459 561 543 
6 131 342 302 381 592 552 
6 270 271 204 520 521 454 
6 66 243 1 114 493 16 
6 59 241 12 107 491 27 
6 280 306 279 530 556 529 
6 269 337 274 519 587 524 
6 179 256 224 429 506 474 
6 163 305 166 413 555 416 
6 201 303 194 451 553 444 
6 280 332 306 530 582 556 
6 186 255 225 436 505 475 
6 210 310 273 460 560 523 
6 153 270 204 403 520 454 
6 136 231 45 386 481 93 
6 171 265 169 421 515 419 
6 138 230 52 388 480 100 
6 225 354 325 475 604 575 
6 36 284 232 84 534 482 
6 161 268 159 411 518 409 
6 71 286 229 119 536 479 
6 290 303 201 540 553 451 
6 139 355 60 389 605 108 
6 60 355 248 108 605 498 
6 273 352 302 523 602 552 
6 235 373 245 485 623 495 
6 67 356 247 115 606 497 
6 221 295 277 471 545 527 
6 142 356 67 392 606 115 
6 139 283 253 389 533 503 
6 203 315 262 453 565 512 
6 41 257 145 89 507 395 
6 36 232 135 84 482 385 
6 71 229 137 119 479 387 
6 254 255 188 504 505 438 
6 233 350 334 483 600 584 
6 262 346 203 512 596 453 
6 304 325 127 554 575 377 
6 222 329 247 472 579 497 
6 218 298 260 468 548 510 
6 290 321 291 540 571 541 
6 272 310 240 522 560 490 
6 269 274 270 519 524 520 
6 244 245 57 494 495 105 
6 49 307 141 97 557 391 
6 225 325 256 475 575 506 
6 273 310 272 523 560 522 
6 312 368 255 562 618 505 
6 249 305 206 499 555 456 
6 228 331 251 478 581 501 
6 302 342 263 552 592 513 
6 338 339 44 588 589 92 
6 190 254 188 440 504 438 
6 37 341 340 85 591 590 
6 138 233 230 388 483 480 
6 228 335 331 478 585 581 
6 181 256 179 431 506 429 
6 195 263 226 445 513 476 
6 268 285 223 518 535 473 
6 290 291 288 540 541 538 
6 219 330 248 469 580 498 
6 201 321 290 451 571 540 
6 240 310 202 490 560 452 
6 188 255 186 438 505 436 
6 270 274 271 520 524 521 
6 262 349 259 512 599 509 
6 141 324 289 391 574 539 
6 296 301 142 546 551 392 
6 247 356 222 497 606 472 
6 239 252 238 489 502 488 
6 254 312 255 504 562 505 
6 54 261 53 102 511 101 
6 289 327 303 539 577 553 
6 268 353 285 518 603 535 
6 273 302 210 523 552 460 
6 292 299 293 542 549 543 
6 278 283 139 528 533 389 
6 175 265 171 425 515 421 
6 227 338 38 477 588 86 
6 264 360 265 514 610 515 
6 43 340 146 91 590 396 
6 165 268 161 415 518 411 
6 205 351 240 455 601 490 
6 64 281 63 112 531 111 
6 288 291 47 538 541 95 
6 135 295 294 385 545 544 
6 42 257 41 90 507 89 
6 245 373 57 495 623 105 
6 31 363 323 79 613 573 
6 292 293 140 542 543 390 
6 267 353 268 517 603 518 
6 155 270 153 405 520 403 
6 244 344 245 494 594 495 
6 61 278 139 109 528 389 
6 135 294 35 385 544 83 
6 69 297 296 117 547 546 
6 186 225 184 436 475 434 
6 329 361 243 579 611 493 
6 255 328 225 505 578 475 
6 213 332 280 463 582 530 
6 39 275 133 87 525 383 
6 330 362 241 580 612 491 
6 195 226 193 445 476 443 
6 211 324 251 461 574 501 
6 151 153 152 401 403 402 
6 295 299 294 545 549 544 
6 265 313 217 515 563 467 
6 258 259 143 508 509 393 
6 251 331 211 501 581 461 
6 149 151 150 399 401 400 
6 293 370 317 543 620 567 
6 153 204 152 403 454 402 
6 151 152 150 401 402 400 
6 33 292 140 81 542 390 
6 210 263 197 460 513 447 
6 301 305 249 551 555 499 
6 298 300 297 548 550 547 
6 68 296 142 116 546 392 
6 321 369 291 571 619 541 
6 179 224 177 429 474 427 
6 167 267 165 417 517 415 
6 259 346 262 509 596 512 
6 303 327 196 553 577 446 
6 269 270 155 519 520 405 
6 265 360 313 515 610 563 
6 223 269 157 473 519 407 
6 157 269 155 407 519 405 
6 144 279 278 394 529 528 
6 169 217 167 419 467 417 
6 177 264 175 427 514 425 
6 267 268 165 517 518 415 
6 159 223 157 409 473 407 
6 232 277 135 482 527 385 
6 193 254 190 443 504 440 
6 217 267 167 467 517 417 
6 249 356 142 499 606 392 
6 184 256 181 434 506 431 
6 248 355 219 498 605 469 
6 229 260 137 479 510 387 
6 149 150 148 399 400 398 
6 64 348 281 112 598 531 
6 311 374 293 561 624 543 
6 264 265 175 514 515 425 
6 297 300 296 547 550 546 
6 141 289 288 391 539 538 
6 197 263 195 447 513 445 
6 218 260 219 468 510 469 
6 224 264 177 474 514 427 
6 137 298 297 387 548 547 
6 277 295 135 527 545 385 
6 133 228 227 383 478 477 
6 261 349 262 511 599 512 
6 221 277 222 471 527 472 
6 256 325 224 506 575 474 
6 199 210 197 449 460 447 
6 226 254 193 476 504 443 
6 144 278 62 394 528 110 
6 279 283 278 529 533 528 
6 289 290 288 539 540 538 
6 137 297 70 387 547 118 
6 34 294 292 82 544 542 
6 235 236 216 485 486 466 
6 141 288 48 391 538 96 
6 178 306 180 428 556 430 
6 185 186 184 435 436 434 
6 63 281 144 111 531 394 
6 225 256 184 475 506 434 
6 46 291 136 94 541 386 
6 147 149 148 397 399 398 
6 271 272 204 521 522 454 
6 233 334 234 483 584 484 
6 145 275 40 395 525 88 
6 220 322 287 470 572 537 
6 280 334 213 530 584 463 
6 144 280 279 394 530 529 
6 140 287 32 390 537 80 
6 154 155 153 404 405 403 
6 334 350 213 584 600 463 
6 176 177 175 426 427 425 
6 260 298 137 510 548 387 
6 33 140 32 81 390 80 
6 49 141 48 97 391 96 
6 56 143 55 104 393 103 
6 68 142 67 116 392 115 
6 63 144 62 111 394 110 
6 61 139 60 109 389 108 
6 148 308 257 398 558 507 
6 71 137 70 119 387 118 
6 53 138 52 101 388 100 
6 46 136 45 94 386 93 
6 36 135 35 84 385 83 
6 43 146 134 91 396 384 
6 133 227 38 383 477 86 
6 192 193 190 442 443 440 
6 293 374 140 543 624 390 
6 34 292 33 82 542 81 
6 207 306 178 457 556 428 
6 43 134 42 91 384 90 
6 39 133 38 87 383 86 
6 41 145 40 89 395 88 
6 194 195 193 444 445 443 
6 69 296 68 117 546 116 
6 294 299 292 544 549 542 
6 173 175 171 423 425 421 
6 260 330 219 510 580 469 
6 183 184 181 433 434 431 
6 134 257 42 384 507 90 
6 55 349 54 103 599 102 
6 163 165 161 413 415 411 
6 166 167 165 416 417 415 
6 210 302 263 460 552 513 
6 271 273 272 521 523 522 
6 53 261 138 101 511 388 
6 217 326 267 467 576 517 
6 289 303 290 539 553 540 
6 178 179 177 428 429 427 
6 238 240 202 488 490 452 
6 62 278 61 110 528 109 
6 35 294 34 83 544 82 
6 284 361 232 534 611 482 
6 70 297 69 118 547 117 
6 224 304 264 474 554 514 
6 156 157 155 406 407 405 
6 48 288 47 96 538 95 
6 221 320 295 471 570 545 
6 187 188 186 437 438 436 
6 47 291 46 95 541 94 
6 151 154 153 401 404 403 
6 286 362 229 536 612 479 
6 168 169 167 418 419 417 
6 40 275 39 88 525 87 
6 307 324 141 557 574 391 
6 300 301 296 550 551 546 
6 32 287 31 80 537 79 
6 147 220 149 397 470 399 
6 333 344 231 583 594 481 
6 299 370 293 549 620 543 
6 271 359 273 521 609 523 
6 224 325 304 474 575 554 
6 228 237 227 478 487 477 
6 305 375 343 555 625 593 
6 218 319 298 468 569 548 
6 240 351 272 490 601 522 
6 277 329 222 527 579 472 
6 253 355 139 503 605 389 
6 158 159 157 408 409 407 
6 236 246 216 486 496 466 
6 192 194 193 442 444 443 
6 220 309 149 470 559 399 
6 183 185 184 433 435 434 
6 196 197 195 446 447 445 
6 276 347 58 526 597 106 
6 136 333 231 386 583 481 
6 67 247 66 115 497 114 
6 60 248 59 108 498 107 
6 261 262 250 511 512 500 
6 173 176 175 423 426 425 
6 344 357 231 594 607 481 
6 144 281 280 394 531 530 
6 152 205 150 402 455 400 
6 163 166 165 413 416 415 
6 185 187 186 435 437 436 
6 233 234 230 483 484 480 
6 170 171 169 420 421 419 
6 146 147 134 396 397 384 
6 176 178 177 426 428 427 
6 285 337 223 535 587 473 
6 154 156 155 404 406 405 
6 263 342 226 513 592 476 
6 235 245 236 485 495 486 
6 160 161 159 410 411 409 
6 58 347 242 106 597 492 
6 166 168 167 416 418 417 
6 287 374 220 537 624 470 
6 189 190 188 439 440 438 
6 148 257 134 398 507 384 
6 194 196 195 444 446 445 
6 252 308 205 502 558 455 
6 285 345 337 535 595 587 
6 301 375 305 551 625 555 
6 180 181 179 430 431 429 
6 281 348 234 531 598 484 
6 198 199 197 448 449 447 
6 151 309 154 401 559 404 
6 228 367 335 478 617 585 
6 54 349 261 102 599 511 
6 156 158 157 406 408 407 
6 168 170 169 418 420 419 
6 200 202 199 450 452 449 
6 147 148 134 397 398 384 
6 158 160 159 408 410 409 
6 150 308 148 400 558 398 
6 253 316 208 503 566 458 
6 232 329 277 482 579 527 
6 178 180 179 428 430 429 
6 191 192 190 441 442 440 
6 214 238 202 464 488 452 
6 172 173 171 422 423 421 
6 187 189 188 437 439 438 
6 162 163 161 412 413 411 
6 228 251 237 478 501 487 
6 215 258 235 465 508 485 
6 182 183 181 432 433 431 
6 202 310 199 452 560 449 
6 219 253 208 469 503 458 
6 222 249 206 472 499 456 
6 196 198 197 446 448 447 
6 229 330 260 479 580 510 
6 132 358 274 382 608 524 
6 149 309 151 399 559 401 
6 226 312 254 476 562 504 
6 154 309 209 404 559 459 
6 77 129 76 125 379 124 
6 73 128 72 121 378 120 
6 76 131 75 124 381 123 
6 74 132 73 122 382 121 
6 75 130 74 123 380 122 
6 14 127 77 29 377 125 
6 72 126 14 120 376 29 
6 133 367 228 383 617 478 
6 237 282 227 487 532 477 
6 239 366 252 489 616 502 
6 200 214 202 450 464 452 
6 192 201 194 442 451 444 
6 170 172 171 420 422 421 
6 220 311 309 470 561 559 
6 198 200 199 448 450 449 
6 189 191 190 439 441 440 
6 146 323 322 396 573 572 
6 160 162 161 410 412 411 
6 251 307 237 501 557 487 
6 199 310 210 449 560 460 
6 57 373 56 105 623 104 
6 214 239 238 464 489 488 
6 182 212 183 432 462 433 
6 180 182 181 430 432 431 
6 146 322 147 396 572 397 
6 172 218 208 422 468 458 
6 172 208 173 422 458 423 
6 162 221 206 412 471 456 
6 162 206 163 412 456 413 
6 176 207 178 426 457 428 
6 272 351 204 522 601 454 
6 198 211 200 448 461 450 
6 182 213 212 432 463 462 
6 234 334 281 484 584 531 
6 154 209 156 404 459 406 
6 185 203 187 435 453 437 
6 168 174 170 418 424 420 
6 189 215 191 439 465 441 
6 215 216 191 465 466 441 
6 221 222 206 471 472 456 
6 158 164 160 408 414 410 
6 218 219 208 468 469 458 
6 205 308 150 455 558 400 
6 191 314 192 441 564 442 
6 215 235 216 465 485 466 
6 215 318 258 465 568 508 
6 152 351 205 402 601 455 
6 138 261 250 388 511 500 
6 192 314 201 442 564 451 
6 234 347 230 484 597 480 
6 226 342 312 476 592 562 
6 138 250 233 388 500 483 
6 147 322 220 397 572 470 
6 216 314 191 466 564 441 
6 306 332 180 556 582 430 
6 222 356 249 472 606 499 
6 128 345 285 378 595 535 
6 314 321 201 564 571 451 
6 212 315 183 462 565 433 
6 312 342 336 562 592 586 
6 282 339 338 532 589 588 
6 340 341 323 590 591 573 
6 309 311 209 559 561 459 
6 183 315 185 433 565 435 
6 208 316 173 458 566 423 
6 173 316 176 423 566 426 
6 3 341 37 18 591 85 
6 44 339 6 92 589 21 
6 252 366 145 502 616 395 
6 246 321 314 496 571 564 
6 246 314 216 496 564 466 
6 126 364 313 376 614 563 
6 156 317 158 406 567 408 
6 275 367 133 525 617 383 
6 176 316 207 426 566 457 
6 185 315 203 435 565 453 
6 180 332 182 430 582 432 
6 302 352 131 552 602 381 
6 251 324 307 501 574 557 
6 187 318 189 437 568 439 
6 172 319 218 422 569 468 
6 162 320 221 412 570 471 
6 305 343 166 555 593 416 
6 170 319 172 420 569 422 
6 158 317 164 408 567 414 
6 209 317 156 459 567 406 
6 285 353 128 535 603 378 
6 223 337 269 473 587 519 
6 160 320 162 410 570 412 
6 211 331 200 461 581 450 
6 174 319 170 424 569 420 
6 203 318 187 453 568 437 
6 189 318 215 439 568 465 
6 198 327 211 448 577 461 
6 164 320 160 414 570 410 
6 326 353 267 576 603 517 
6 236 344 333 486 594 583 
6 196 327 198 446 577 448 
6 219 355 253 469 605 503 
6 281 334 280 531 584 530 
6 274 359 271 524 609 521 
6 164 370 299 414 620 549 
6 174 375 300 424 625 550 
6 287 363 31 537 613 79 
6 243 361 1 493 611 16 
6 241 362 12 491 612 27 
6 307 365 237 557 615 487 
6 166 343 168 416 593 418 
6 200 331 214 450 581 464 
6 313 326 217 563 576 467 
6 9 357 244 24 607 494 
6 1 361 30 16 611 78 
6 12 362 65 27 612 113 
6 337 345 132 587 595 382 
6 242 348 64 492 598 112 
6 231 357 266 481 607 516 
6 182 332 213 432 582 463 
6 245 344 236 495 594 486 
6 258 346 259 508 596 509 
6 145 366 275 395 616 525 
6 291 369 136 541 619 386 
6 236 333 246 486 583 496 
6 331 335 214 581 585 464 
6 312 336 129 562 586 379 
6 315 372 262 565 622 512 
6 220 374 311 470 624 561 
6 140 374 287 390 624 537 
6 126 360 304 376 610 554 
6 230 347 276 480 597 526 
6 313 364 326 563 614 576 
6 56 373 143 104 623 393 
6 239 367 366 489 617 616 
6 204 351 152 454 601 402 
6 300 375 301 550 625 551 
6 214 335 239 464 585 489 
6 247 329 243 497 579 493 
6 262 372 250 512 622 500 
6 248 330 241 498 580 491 
6 318 346 258 568 596 508 
6 333 369 246 583 619 496 
6 282 338 227 532 588 477 
6 146 340 323 396 590 573 
6 304 360 264 554 610 514 
6 366 367 275 616 617 525 
6 129 336 76 379 586 124 
6 73 345 128 121 595 378 
6 76 336 131 124 586 381 
6 250 350 233 500 600 483 
6 129 371 328 379 621 578 
6 132 345 73 382 595 121 
6 168 343 174 418 593 424 
6 131 352 75 381 602 123 
6 66 247 243 114 497 493 
6 59 248 241 107 498 491 
6 74 358 132 122 608 382 
6 203 346 318 453 596 568 
6 313 360 126 563 610 376 
6 128 364 72 378 614 120 
6 128 353 326 378 603 576 
6 77 371 129 125 621 379 
6 129 368 312 379 618 562 
6 244 357 344 494 607 594 
6 328 354 225 578 604 475 
6 326 364 128 576 614 378 
6 75 352 130 123 602 380 
6 350 372 212 600 622 462 
6 136 369 333 386 619 583 
6 325 354 127 575 604 377 
6 213 350 212 463 600 462 
6 130 358 74 380 608 122 
6 250 372 350 500 622 600 
6 317 370 164 567 620 414 
6 72 364 126 120 614 376 
6 328 368 129 578 618 379 
6 127 371 77 377 621 125 
6 336 342 131 586 592 381 
6 212 372 315 462 622 565 
6 234 348 347 484 598 597 
6 8 266 51 23 516 99 
6 10 276 58 25 526 106 
6 246 369 321 496 619 571 
6 30 284 0 78 534 15 
6 65 286 13 113 536 28 
6 58 242 11 106 492 26 
6 266 357 51 516 607 99 
6 255 368 328 505 618 578 
6 347 348 242 597 598 492 
6 322 363 287 572 613 537 
6 323 363 322 573 613 572 
6 335 367 239 585 617 489 
6 30 361 284 78 611 534 
6 65 362 286 113 612 536 
6 237 365 282 487 615 532 
6 130 359 358 380 609 608 
6 343 375 174 593 625 424 
6 354 371 127 604 621 377 
6 328 371 354 578 621 604 
6 358 359 274 608 609 524 
6 0 284 36 15 534 84 
6 45 266 8 93 516 23 
6 52 276 10 100 526 25 
6 11 242 64 26 492 112 
6 13 286 71 28 536 119 
6 2 323 3 17 573 18 
6 31 323 2 79 573 17 
6 323 341 3 573 591 18 
6 37 340 4 85 590 19 
6 4 340 43 19 590 91 
6 38 338 5 86 588 20 
6 5 338 44 20 588 92 
6 6 282 7 21 532 22 
6 6 339 282 21 589 532 
6 282 365 7 532 615 22 

CELL_TYPES 563
13
13
13
13
13
13
13
13
13
13
13
13
13
13
13
13
13
13
13
13
13
13
13
13
13
13
13
13
13
13
13
13
13
13
13
13
13
13
13
13
13
13
13
13
13
13
13
13
13
13
13
13
13
13
13
13
13
13
13
13
13
13
13
13
13
13
13
13
13
13
13
13
13
13
13
13
13
13
13
13
13
13
13
13
13
13
13
13
13
13
13
13
13
13
13
13
13
13
13
13
13
13
13
13
13
13
13
13
13
13
13
13
13
13
13
13
13
13
13
13
13
13
13
13
13
13
13
13
13
13
13
13
13
13
13
13
13
13
13
13
13
13
13
13
13
13
13
13
13
13
13
13
13
13
13
13
13
13
13
13
13
13
13
13
13
13
13
13
13
13
13
13
13
13
13
13
13
13
13
13
13
13
13
13
13
13
13
13
13
13
13
13
13
13
13
13
13
13
13
13
13
13
13
13
13
13
13
13
13
13
13
13
13
13
13
13
13
13
13
13
13
13
13
13
13
13
13
13
13
13
13
13
13
13
13
13
13
13
13
13
13
13
13
13
13
13
13
13
13
13
13
13
13
13
13
13
13
13
13
13
13
13
13
13
13
13
13
13
13
13
13
13
13
13
13
13
13
13
13
13
13
13
13
13
13
13
13
13
13
13
13
13
13
13
13
13
13
13
13
13
13
13
13
13
13
13
13
13
13
13
13
13
13
13
13
13
13
13
13
13
13
13
13
13
13
13
13
13
13
13
13
13
13
13
13
13
13
13
13
13
13
13
13
13
13
13
13
13
13
13
13
13
13
13
13
13
13
13
13
13
13
13
13
13
13
13
13
13
13
13
13
13
13
13
13
13
13
13
13
13
13
13
13
13
13
13
13
13
13
13
13
13
13
13
13
13
13
13
13
13
13
13
13
13
13
13
13
13
13
13
13
13
13
13
13
13
13
13
13
13
13
13
13
13
13
13
13
13
13
13
13
13
13
13
13
13
13
13
13
13
13
13
13
13
13
13
13
13
13
13
13
13
13
13
13
13
13
13
13
13
13
13
13
13
13
13
13
13
13
13
13
13
13
13
13
13
13
13
13
13
13
13
13
13
13
13
13
13
13
13
13
13
13
13
13
13
13
13
13
13
13
13
13
13
13
13
13
13
13
13
13
13
13
13
13
13
13
13
13
13
13
13
13
13
13
13
13
13
13
13
13
13
13
13
13
13
13
13
13
13
13
13
13
13
13
13
13
13
13
13
13
13
13
13
13
13
13
13
13
13
13
13
13

POINT_DATA 626
VECTORS displacement float
-1.74394e-06 3.09552e-05 1.80554e-05
1.73565e-06 3.09742e-05 1.81005e-05
-2.5987e-05 1.69932e-05 1.80874e-05
-2.58416e-05 1.60334e-05 1.8052e-05
-2.77213e-05 1.39732e-05 1.80694e-05
-2.77143e-05 -1.40195e-05 1.80949e-05
-2.58128e-05 -1.60716e-05 1.81062e-05
-2.59832e-05 -1.70113e-05 1.81674e-05
-1.6774e-06 -3.09589e-05 1.80518e-05
1.75545e-06 -3.09604e-05 1.81022e-05
2.59443e-05 -1.69811e-05 1.80438e-05
2.77177e-05 -1.39371e-05 1.80437e-05
2.76731e-05 1.39898e-05 1.8092e-05
2.59156e-05 1.69934e-05 1.80464e-05
0 0 0
-1.74394e-06 3.09552e-05 -1.80554e-05
1.73565e-06 3.09742e-05 -1.81005e-05
-2.5987e-05 1.69932e-05 -1.80874e-05
-2.58416e-05 1.60334e-05 -1.8052e-05
-2.77213e-05 1.39732e-05 -1.80694e-05
-2.77143e-05 -1.40195e-05 -1.80949e-05
-2.58128e-05 -1.60716e-05 -1.81062e-05
-2.59832e-05 -1.70113e-05 -1.81674e-05
-1.6774e-06 -3.09589e-05 -1.80518e-05
1.75545e-06 -3.09604e-05 -1.81022e-05
2.59443e-05 -1.69811e-05 -1.80438e-05
2.77177e-05 -1.39371e-05 -1.80437e-05
2.76731e-05 1.39898e-05 -1.8092e-05
2.59156e-05 1.69934e-05 -1.80464e-05
0 0 0
2.4891e-08 3.01551e-05 1.80345e-05
-2.11412e-05 1.87128e-05 1.75501e-05
-1.72331e-05 1.98344e-05 1.69212e-05
-1.40074e-05 2.10549e-05 1.65554e-05
-1.12072e-05 2.26655e-05 1.65492e-05
-8.52428e-06 2.48336e-05 1.69018e-05
-5.56787e-06 2.76225e-05 1.75378e-05
-2.64505e-05 1.46795e-05 1.80338e-05
-2.67694e-05 -9.01185e-06 1.75778e-05
-2.5807e-05 -5.03568e-06 1.69264e-05
-2.52552e-05 -1.63628e-06 1.65718e-05
-2.52582e-05 1.60792e-06 1.65748e-05
-2.57992e-05 5.02307e-06 1.69246e-05
-2.67556e-05 8.98493e-06 1.75643e-05
-2.64374e-05 -1.47258e-05 1.80626e-05
-5.54113e-06 -2.7637e-05 1.753e-05
-8.4768e-06 -2.48426e-05 1.69011e-05
-1.11704e-05 -2.2685e-05 1.65566e-05
-1.3971e-05 -2.10879e-05 1.656e-05
-1.72155e-05 -1.98697e-05 1.69371e-05
-2.11348e-05 -1.87496e-05 1.75626e-05
8.98355e-08 -3.01398e-05 1.80297e-05
2.11246e-05 -1.86253e-05 1.75118e-05
1.72452e-05 -1.97627e-05 1.68733e-05
1.40343e-05 -2.10118e-05 1.6512e-05
1.12254e-05 -2.25937e-05 1.65466e-05
8.58144e-06 -2.47808e-05 1.68746e-05
5.65475e-06 -2.76272e-05 1.75353e-05
2.61252e-05 -1.50601e-05 1.80287e-05
2.67175e-05 8.93873e-06 1.75019e-05
2.57228e-05 5.0498e-06 1.69088e-05
2.52073e-05 1.62339e-06 1.65236e-05
2.52044e-05 -1.5995e-06 1.65219e-05
2.57514e-05 -4.99759e-06 1.68887e-05
2.66996e-05 -8.91748e-06 1.751e-05
2.61083e-05 1.50612e-05 1.80257e-05
5.6332e-06 2.76186e-05 1.75099e-05
8.50881e-06 2.48075e-05 1.69116e-05
1.12174e-05 2.26417e-05 1.65298e-05
1.40049e-05 2.10228e-05 1.65252e-05
1.72222e-05 1.9794e-05 1.68855e-05
2.11156e-05 1.86349e-05 1.75257e-05
0 0 0
0 0 0
0 0 0
0 0 0
0 0 0
0 0 0
2.4891e-08 3.01551e-05 -1.80345e-05
-2.11412e-05 1.87128e-05 -1.75501e-05
-1.72331e-05 1.98344e-05 -1.69212e-05
-1.40074e-05 2.10549e-05 -1.65554e-05
-1.12072e-05 2.26655e-05 -1.65492e-05
-8.52428e-06 2.48336e-05 -1.69018e-05
-5.56787e-06 2.76225e-05 -1.75378e-05
-2.64505e-05 1.46795e-05 -1.80338e-05
-2.67694e-05 -9.01185e-06 -1.75778e-05
-2.5807e-05 -5.03568e-06 -1.69264e-05
-2.52552e-05 -1.63628e-06 -1.65718e-05
-2.52582e-05 1.60792e-06 -1.65748e-05
-2.57992e-05 5.02307e-06 -1.69246e-05
-2.67556e-05 8.98493e-06 -1.75643e-05
-2.64374e-05 -1.47258e-05 -1.80626e-05
-5.54113e-06 -2.7637e-05 -1.753e-05
-8.4768e-06 -2.48426e-05 -1.69011e-05
-1.11704e-05 -2.2685e-05 -1.65566e-05
-1.3971e-05 -2.10879e-05 -1.656e-05
-1.72155e-05 -1.98697e-05 -1.69371e-05
-2.11348e-05 -1.87496e-05 -1.75626e-05
8.98355e-08 -3.01398e-05 -1.80297e-05
2.11246e-05 -1.86253e-05 -1.75118e-05
1.72452e-05 -1.97627e-05 -1.68733e-05
1.40343e-05 -2.10118e-05 -1.6512e-05
1.12254e-05 -2.25937e-05 -1.65466e-05
8.58144e-06 -2.47808e-05 -1.68746e-05
5.65475e-06 -2.76272e-05 -1.75353e-05
2.61252e-05 -1.50601e-05 -1.80287e-05
2.67175e-05 8.93873e-06 -1.75019e-05
2.57228e-05 5.0498e-06 -1.69088e-05
2.52073e-05 1.62339e-06 -1.65236e-05
2.52044e-05 -1.5995e-06 -1.65219e-05
2.57514e-05 -4.99759e-06 -1.68887e-05
2.66996e-05 -8.91748e-06 -1.751e-05
2.61083e-05 1.50612e-05 -1.80257e-05
5.6332e-06 2.76186e-05 -1.75099e-05
8.50881e-06 2.48075e-05 -1.69116e-05
1.12174e-05 2.26417e-05 -1.65298e-05
1.40049e-05 2.10228e-05 -1.65252e-05
1.72222e-05 1.9794e-05 -1.68855e-05
2.11156e-05 1.86349e-05 -1.75257e-05
0 0 0
0 0 0
0 0 0
0 0 0
0 0 0
0 0 0
1.79372e-06 8.58764e-07 4.55238e-06
1.73786e-06 -8.25132e-07 4.46093e-06
4.31963e-07 1.84966e-06 4.49524e-06
4.36107e-07 -1.78067e-06 4.35621e-06
-1.84753e-06 2.09637e-08 4.42249e-06
-1.12311e-06 -1.3089e-06 4.15112e-06
-1.15923e-06 1.30682e-06 4.1999e-06
-2.25137e-05 -7.2879e-06 1.70003e-05
-2.2197e-05 7.37179e-06 1.6969e-05
-4.86055e-06 2.28991e-05 1.69374e-05
-4.85806e-06 -2.31323e-05 1.69643e-05
1.74217e-05 1.56359e-05 1.69302e-05
1.75693e-05 -1.55369e-05 1.69395e-05
2.10741e-05 3.16398e-06 1.63248e-05
-1.39535e-05 1.71517e-05 1.64788e-05
-1.35916e-05 -1.67417e-05 1.64103e-05
7.76806e-06 1.98201e-05 1.63316e-05
7.68507e-06 -2.03105e-05 1.64029e-05
2.14729e-05 -3.44385e-06 1.64006e-05
-2.11033e-05 6.58811e-09 1.6247e-05
-2.24209e-05 1.1e-05 1.7454e-05
-1.87514e-05 9.25495e-06 1.66274e-05
-1.79833e-05 5.79562e-06 1.60367e-05
-1.49844e-05 7.44854e-06 1.54867e-05
-1.42249e-05 4.30784e-06 1.483e-05
-1.15329e-05 5.74405e-06 1.4095e-05
-1.08583e-05 3.06882e-06 1.33738e-05
-8.40072e-06 4.30499e-06 1.24046e-05
-9.05906e-06 7.0136e-06 1.34566e-05
-6.20427e-06 5.48866e-06 1.16892e-05
-6.82849e-06 8.24967e-06 1.30802e-05
-4.28151e-06 6.67509e-06 1.14507e-05
-4.80014e-06 9.61019e-06 1.30942e-05
-2.40094e-06 7.99356e-06 1.17232e-05
-2.81293e-06 1.11675e-05 1.34752e-05
-4.75424e-07 9.59556e-06 1.25012e-05
-7.38376e-07 1.29973e-05 1.4142e-05
1.73113e-06 1.15181e-05 1.35352e-05
-5.53484e-06 1.27007e-05 1.44372e-05
1.68512e-06 8.2242e-06 1.17478e-05
4.00429e-06 1.01212e-05 1.31512e-05
3.70545e-06 7.09814e-06 1.14785e-05
6.06757e-06 8.96692e-06 1.31136e-05
5.76698e-06 6.10696e-06 1.17358e-05
8.35832e-06 8.02055e-06 1.34923e-05
8.10587e-06 5.19541e-06 1.25006e-05
1.09543e-05 7.09725e-06 1.41472e-05
1.07463e-05 4.32292e-06 1.34993e-05
8.53077e-06 1.10378e-05 1.4461e-05
7.93791e-06 2.64382e-06 1.17276e-05
1.06463e-05 1.73725e-06 1.31043e-05
7.9489e-06 3.5877e-07 1.14558e-05
1.08067e-05 -7.59134e-07 1.31244e-05
8.11187e-06 -1.93786e-06 1.17093e-05
1.10986e-05 -3.31295e-06 1.34842e-05
8.46997e-06 -4.4241e-06 1.24443e-05
1.1504e-05 -6.00305e-06 1.41097e-05
8.95583e-06 -7.13831e-06 1.34283e-05
6.14769e-06 -5.49457e-06 1.16415e-05
6.64469e-06 -8.3011e-06 1.30185e-05
4.10532e-06 -6.58869e-06 1.13112e-05
4.52348e-06 -9.55114e-06 1.29886e-05
2.24236e-06 -7.8585e-06 1.15976e-05
2.4849e-06 -1.10022e-05 1.33512e-05
2.25297e-07 -9.37395e-06 1.23538e-05
3.30022e-07 -1.27702e-05 1.40341e-05
-1.91549e-06 -1.1151e-05 1.33773e-05
-1.84112e-06 -7.92184e-06 1.15824e-05
-4.16802e-06 -9.87513e-06 1.30853e-05
-3.81405e-06 -6.73069e-06 1.13174e-05
-6.3458e-06 -8.66227e-06 1.30996e-05
-5.89146e-06 -5.69817e-06 1.16286e-05
-8.49997e-06 -7.43601e-06 1.338e-05
-8.16778e-06 -4.72819e-06 1.24089e-05
-1.1096e-05 -6.40295e-06 1.40702e-05
-4.37178e-06 -1.31236e-05 1.4434e-05
-1.08092e-05 -3.65079e-06 1.34395e-05
7.22633e-06 -1.13731e-05 1.42733e-05
-7.74192e-06 1.98274e-06 1.14932e-05
-1.32165e-05 1.03509e-06 1.42113e-05
1.72917e-06 1.50833e-05 1.49526e-05
1.37685e-05 4.62252e-07 1.43881e-05
1.38436e-05 6.10029e-06 1.49321e-05
-9.69435e-06 1.01966e-05 1.45329e-05
-5.41616e-06 -3.19774e-06 1.01824e-05
-1.1714e-05 -9.29762e-06 1.48896e-05
1.18827e-05 -8.76048e-06 1.47875e-05
1.47822e-05 -7.47383e-06 1.54037e-05
-1.39602e-05 -5.24405e-06 1.4862e-05
2.79591e-06 -1.45166e-05 1.47966e-05
4.24573e-07 -1.64999e-05 1.53981e-05
3.51853e-06 4.39706e-06 9.58138e-06
1.4011e-05 9.29934e-06 1.5492e-05
1.79313e-05 8.14521e-06 1.6301e-05
-1.56759e-05 1.13957e-05 1.62339e-05
-1.09412e-06 1.67696e-05 1.54957e-05
1.90691e-06 1.96222e-05 1.63114e-05
-2.09193e-06 5.22023e-06 9.59788e-06
5.5541e-06 -7.84626e-07 9.59443e-06
3.58605e-06 -3.68367e-06 9.08225e-06
-1.77969e-06 -5.17872e-06 9.44988e-06
-2.24694e-05 -1.10111e-05 1.74747e-05
-1.87987e-05 -9.2417e-06 1.66515e-05
2.11484e-05 1.41652e-05 1.7506e-05
2.07544e-05 -1.4318e-05 1.74359e-05
-1.76464e-06 -2.54472e-05 1.75113e-05
-1.68217e-06 2.54113e-05 1.7516e-05
1.77135e-05 -1.19072e-05 1.66876e-05
2.06463e-05 -1.07514e-05 1.71164e-05
3.77575e-06 -1.89857e-05 1.61398e-05
7.68549e-07 -2.03464e-05 1.64833e-05
-1.94057e-05 -1.26509e-05 1.71435e-05
-1.37315e-05 -2.307e-06 1.44723e-05
-1.65932e-05 -3.70155e-06 1.5478e-05
-1.03761e-05 -1.09642e-06 1.29524e-05
2.44527e-05 1.10731e-05 1.7652e-05
2.54982e-05 -1.24036e-05 1.78485e-05
2.64929e-06 2.67267e-05 1.76609e-05
2.52104e-06 -2.64143e-05 1.76297e-05
3.33954e-06 -2.30326e-05 1.70295e-05
-2.05395e-06 -1.83204e-05 1.59513e-05
4.05915e-06 2.3792e-05 1.71308e-05
2.26148e-05 8.37952e-06 1.71197e-05
4.61374e-06 1.73139e-05 1.57277e-05
1.44274e-05 -1.31198e-05 1.61378e-05
-1.57881e-05 -1.0985e-05 1.62149e-05
-1.68003e-05 -3.8144e-07 1.53777e-05
1.73064e-05 4.68762e-06 1.57261e-05
6.55233e-08 -6.38748e-06 1.02677e-05
1.74176e-06 -4.84859e-06 9.09275e-06
5.85062e-06 -2.93559e-06 1.03785e-05
-2.14448e-05 3.75063e-06 1.64592e-05
5.72952e-06 -1.6275e-05 1.55081e-05
9.08372e-06 -1.74995e-05 1.59979e-05
1.75727e-05 1.1882e-05 1.66727e-05
1.39946e-05 -1.63827e-05 1.64016e-05
1.07403e-05 -1.37894e-05 1.55505e-05
-3.54806e-06 -4.2203e-06 9.50103e-06
5.39926e-06 1.13853e-06 9.49932e-06
5.21819e-06 3.22296e-06 1.00475e-05
-1.7498e-06 -2.83552e-05 1.78772e-05
1.89211e-06 5.29903e-06 9.58472e-06
-1.13827e-07 6.10516e-06 1.0039e-05
-3.78502e-06 4.12785e-06 9.57867e-06
-5.62282e-06 3.03426e-06 1.02855e-05
-5.1656e-06 1.0407e-06 9.21387e-06
-7.52744e-06 -6.17409e-08 1.11727e-05
-4.33448e-06 -8.10297e-07 8.38209e-06
-3.10866e-06 1.87238e-06 7.37427e-06
-2.20818e-05 -3.60787e-06 1.65162e-05
2.34068e-05 -1.56883e-05 1.78365e-05
-1.50723e-06 2.11685e-05 1.66824e-05
2.12622e-05 -8.45223e-08 1.62261e-05
1.76226e-05 -1.64685e-06 1.55818e-05
1.73482e-05 -4.94181e-06 1.57711e-05
2.18921e-05 -7.45133e-06 1.6914e-05
-2.31828e-05 -1.42549e-05 1.7833e-05
1.73251e-05 1.64892e-06 1.55089e-05
-1.73402e-06 2.84737e-05 1.78944e-05
-4.22082e-07 3.6835e-06 7.49551e-06
2.37725e-05 1.57427e-05 1.78849e-05
-1.74978e-05 1.56426e-05 1.69753e-05
-1.06265e-05 -1.84666e-05 1.62555e-05
-1.00998e-05 -1.43427e-05 1.55721e-05
-7.50798e-06 -1.60953e-05 1.56224e-05
-7.32232e-06 -2.01211e-05 1.63957e-05
-1.07048e-05 1.85357e-05 1.62672e-05
-1.03476e-05 1.43845e-05 1.56197e-05
-7.77284e-06 2.0493e-05 1.64446e-05
-4.2531e-06 1.86102e-05 1.60534e-05
1.076e-05 1.8346e-05 1.62266e-05
1.38921e-05 1.69354e-05 1.64314e-05
1.40423e-05 1.29732e-05 1.60517e-05
-7.36178e-06 1.62888e-05 1.56389e-05
1.05254e-05 1.45474e-05 1.56456e-05
7.74897e-06 1.60928e-05 1.56143e-05
-3.11654e-06 -1.89881e-06 7.3934e-06
-7.25785e-06 -1.24223e-05 1.46255e-05
3.00873e-06 4.03611e-08 6.60117e-06
4.87271e-06 1.35231e-05 1.46185e-05
1.40764e-05 -2.26045e-06 1.45708e-05
-1.72902e-05 -1.52171e-05 1.69459e-05
-1.7367e-05 2.42038e-06 1.55982e-05
-1.2205e-05 8.91219e-06 1.49439e-05
-7.70584e-06 -2.29258e-06 1.1555e-05
-1.24501e-05 1.1813e-05 1.55404e-05
-1.42739e-07 -3.75432e-06 7.5544e-06
2.7303e-06 2.27213e-06 7.25214e-06
-2.00392e-06 -1.46509e-05 1.48085e-05
9.36536e-06 -1.00685e-05 1.43898e-05
1.38611e-05 3.15791e-06 1.45665e-05
-7.34026e-06 1.11997e-05 1.42607e-05
4.99737e-06 -1.27752e-05 1.43697e-05
1.10322e-05 1.04308e-05 1.49201e-05
-3.59655e-06 1.46857e-05 1.49084e-05
-4.6356e-06 -1.66174e-05 1.55492e-05
-1.95076e-05 1.28928e-05 1.71617e-05
-2.31275e-05 1.48585e-05 1.78438e-05
-1.29053e-05 -1.26865e-05 1.5813e-05
3.7609e-06 -1.58616e-06 7.90719e-06
1.76444e-06 2.92236e-06 7.08465e-06
-9.23076e-06 -1.06098e-05 1.45322e-05
1.72778e-06 -2.82323e-06 6.93128e-06
9.94749e-07 2.41176e-05 1.73089e-05
2.13686e-05 1.11942e-05 1.72991e-05
-1.46651e-05 -7.95363e-06 1.54858e-05
1.37085e-05 -4.78647e-06 1.46911e-05
-1.90993e-06 -2.17636e-05 1.68032e-05
1.80609e-05 -8.41932e-06 1.63411e-05
-1.66794e-05 -6.32876e-06 1.57829e-05
-4.32911e-07 -1.92237e-06 4.79862e-06
-1.80542e-06 2.99552e-06 7.1774e-06
-2.50527e-05 -1.29822e-05 1.79227e-05
-2.51279e-05 -1.45077e-05 1.80025e-05
-2.50458e-05 1.30341e-05 1.79064e-05
-2.51187e-05 1.46504e-05 1.79825e-05
-1.6485e-06 -3.12493e-06 7.21014e-06
6.32814e-06 1.13687e-05 1.4077e-05
5.33719e-07 -2.40868e-05 1.73026e-05
-5.22791e-07 1.80959e-06 4.64515e-06
7.40769e-06 -1.43441e-05 1.51528e-05
2.33035e-05 -1.32097e-05 1.77292e-05
2.36334e-05 -1.05379e-05 1.74912e-05
1.19888e-05 -1.82115e-05 1.62937e-05
1.47306e-05 -1.0147e-05 1.5796e-05
-1.00274e-05 1.00128e-06 1.2755e-05
-1.74006e-06 -8.15922e-07 4.7236e-06
7.69085e-07 3.70845e-06 7.57339e-06
2.34313e-06 -1.99721e-06 6.5555e-06
2.01572e-05 5.89802e-06 1.64541e-05
5.07023e-06 2.05966e-05 1.64965e-05
3.42119e-07 -2.76808e-05 1.78544e-05
-1.73127e-06 7.09129e-07 4.60647e-06
-3.21159e-06 6.23064e-07 6.82436e-06
3.57731e-06 1.47545e-06 7.63687e-06
4.99228e-07 2.83246e-05 1.79277e-05
2.4761e-05 1.37345e-05 1.79188e-05
-2.0329e-05 1.55363e-05 1.74295e-05
1.17874e-06 1.36451e-06 4.45999e-06
-2.06402e-05 -1.57288e-05 1.7528e-05
-1.89995e-05 -2.32226e-06 1.59466e-05
-1.95598e-05 -5.58518e-06 1.63327e-05
9.05707e-07 -3.24784e-06 7.00633e-06
-4.36615e-06 -1.97899e-05 1.63223e-05
-7.93754e-06 1.38349e-05 1.51016e-05
1.16578e-06 -1.30422e-06 4.33943e-06
1.19348e-05 -1.12287e-05 1.52926e-05
6.13323e-06 -2.26968e-05 1.68209e-05
-1.45226e-05 1.43558e-05 1.63241e-05
7.92933e-06 1.33217e-05 1.49485e-05
1.79372e-06 8.58764e-07 -4.55238e-06
1.73786e-06 -8.25132e-07 -4.46093e-06
4.31963e-07 1.84966e-06 -4.49524e-06
4.36107e-07 -1.78067e-06 -4.35621e-06
-1.84753e-06 2.09637e-08 -4.42249e-06
-1.12311e-06 -1.3089e-06 -4.15112e-06
-1.15923e-06 1.30682e-06 -4.1999e-06
-2.25137e-05 -7.2879e-06 -1.70003e-05
-2.2197e-05 7.37179e-06 -1.6969e-05
-4.86055e-06 2.28991e-05 -1.69374e-05
-4.85806e-06 -2.31323e-05 -1.69643e-05
1.74217e-05 1.56359e-05 -1.69302e-05
1.75693e-05 -1.55369e-05 -1.69395e-05
2.10741e-05 3.16398e-06 -1.63248e-05
-1.39535e-05 1.71517e-05 -1.64788e-05
-1.35916e-05 -1.67417e-05 -1.64103e-05
7.76806e-06 1.98201e-05 -1.63316e-05
7.68507e-06 -2.03105e-05 -1.64029e-05
2.14729e-05 -3.44385e-06 -1.64006e-05
-2.11033e-05 6.58811e-09 -1.6247e-05
-2.24209e-05 1.1e-05 -1.7454e-05
-1.87514e-05 9.25495e-06 -1.66274e-05
-1.79833e-05 5.79562e-06 -1.60367e-05
-1.49844e-05 7.44854e-06 -1.54867e-05
-1.42249e-05 4.30784e-06 -1.483e-05
-1.15329e-05 5.74405e-06 -1.4095e-05
-1.08583e-05 3.06882e-06 -1.33738e-05
-8.40072e-06 4.30499e-06 -1.24046e-05
-9.05906e-06 7.0136e-06 -1.34566e-05
-6.20427e-06 5.48866e-06 -1.16892e-05
-6.82849e-06 8.24967e-06 -1.30802e-05
-4.28151e-06 6.67509e-06 -1.14507e-05
-4.80014e-06 9.61019e-06 -1.30942e-05
-2.40094e-06 7.99356e-06 -1.17232e-05
-2.81293e-06 1.11675e-05 -1.34752e-05
-4.75424e-07 9.59556e-06 -1.25012e-05
-7.38376e-07 1.29973e-05 -1.4142e-05
1.73113e-06 1.15181e-05 -1.35352e-05
-5.53484e-06 1.27007e-05 -1.44372e-05
1.68512e-06 8.2242e-06 -1.17478e-05
4.00429e-06 1.01212e-05 -1.31512e-05
3.70545e-06 7.09814e-06 -1.14785e-05
6.06757e-06 8.96692e-06 -1.31136e-05
5.76698e-06 6.10696e-06 -1.17358e-05
8.35832e-06 8.02055e-06 -1.34923e-05
8.10587e-06 5.19541e-06 -1.25006e-05
1.09543e-05 7.09725e-06 -1.41472e-05
1.07463e-05 4.32292e-06 -1.34993e-05
8.53077e-06 1.10378e-05 -1.4461e-05
7.93791e-06 2.64382e-06 -1.17276e-05
1.06463e-05 1.73725e-06 -1.31043e-05
7.9489e-06 3.5877e-07 -1.14558e-05
1.08067e-05 -7.59134e-07 -1.31244e-05
8.11187e-06 -1.93786e-06 -1.17093e-05
1.10986e-05 -3.31295e-06 -1.34842e-05
8.46997e-06 -4.4241e-06 -1.24443e-05
1.1504e-05 -6.00305e-06 -1.41097e-05
8.95583e-06 -7.13831e-06 -1.34283e-05
6.14769e-06 -5.49457e-06 -1.16415e-05
6.64469e-06 -8.3011e-06 -1.30185e-05
4.10532e-06 -6.58869e-06 -1.13112e-05
4.52348e-06 -9.55114e-06 -1.29886e-05
2.24236e-06 -7.8585e-06 -1.15976e-05
2.4849e-06 -1.10022e-05 -1.33512e-05
2.25297e-07 -9.37395e-06 -1.23538e-05
3.30022e-07 -1.27702e-05 -1.40341e-05
-1.91549e-06 -1.1151e-05 -1.33773e-05
-1.84112e-06 -7.92184e-06 -1.15824e-05
-4.16802e-06 -9.87513e-06 -1.30853e-05
-3.81405e-06 -6.73069e-06 -1.13174e-05
-6.3458e-06 -8.66227e-06 -1.30996e-05
-5.89146e-06 -5.69817e-06 -1.16286e-05
-8.49997e-06 -7.43601e-06 -1.338e-05
-8.16778e-06 -4.72819e-06 -1.24089e-05
-1.1096e-05 -6.40295e-06 -1.40702e-05
-4.37178e-06 -1.31236e-05 -1.4434e-05
-1.08092e-05 -3.65079e-06 -1.34395e-05
7.22633e-06 -1.13731e-05 -1.42733e-05
-7.74192e-06 1.98274e-06 -1.14932e-05
-1.32165e-05 1.03509e-06 -1.42113e-05
1.72917e-06 1.50833e-05 -1.49526e-05
1.37685e-05 4.62252e-07 -1.43881e-05
1.38436e-05 6.10029e-06 -1.49321e-05
-9.69435e-06 1.01966e-05 -1.45329e-05
-5.41616e-06 -3.19774e-06 -1.01824e-05
-1.1714e-05 -9.29762e-06 -1.48896e-05
1.18827e-05 -8.76048e-06 -1.47875e-05
1.47822e-05 -7.47383e-06 -1.54037e-05
-1.39602e-05 -5.24405e-06 -1.4862e-05
2.79591e-06 -1.45166e-05 -1.47966e-05
4.24573e-07 -1.64999e-05 -1.53981e-05
3.51853e-06 4.39706e-06 -9.58138e-06
1.4011e-05 9.29934e-06 -1.5492e-05
1.79313e-05 8.14521e-06 -1.6301e-05
-1.56759e-05 1.13957e-05 -1.62339e-05
-1.09412e-06 1.67696e-05 -1.54957e-05
1.90691e-06 1.96222e-05 -1.63114e-05
-2.09193e-06 5.22023e-06 -9.59788e-06
5.5541e-06 -7.84626e-07 -9.59443e-06
3.58605e-06 -3.68367e-06 -9.08225e-06
-1.77969e-06 -5.17872e-06 -9.44988e-06
-2.24694e-05 -1.10111e-05 -1.74747e-05
-1.87987e-05 -9.2417e-06 -1.66515e-05
2.11484e-05 1.41652e-05 -1.7506e-05
2.07544e-05 -1.4318e-05 -1.74359e-05
-1.76464e-06 -2.54472e-05 -1.75113e-05
-1.68217e-06 2.54113e-05 -1.7516e-05
1.77135e-05 -1.19072e-05 -1.66876e-05
2.06463e-05 -1.07514e-05 -1.71164e-05
3.77575e-06 -1.89857e-05 -1.61398e-05
7.68549e-07 -2.03464e-05 -1.64833e-05
-1.94057e-05 -1.26509e-05 -1.71435e-05
-1.37315e-05 -2.307e-06 -1.44723e-05
-1.65932e-05 -3.70155e-06 -1.5478e-05
-1.03761e-05 -1.09642e-06 -1.29524e-05
2.44527e-05 1.10731e-05 -1.7652e-05
2.54982e-05 -1.24036e-05 -1.78485e-05
2.64929e-06 2.67267e-05 -1.76609e-05
2.52104e-06 -2.64143e-05 -1.76297e-05
3.33954e-06 -2.30326e-05 -1.70295e-05
-2.05395e-06 -1.83204e-05 -1.59513e-05
4.05915e-06 2.3792e-05 -1.71308e-05
2.26148e-05 8.37952e-06 -1.71197e-05
4.61374e-06 1.73139e-05 -1.57277e-05
1.44274e-05 -1.31198e-05 -1.61378e-05
-1.57881e-05 -1.0985e-05 -1.62149e-05
-1.68003e-05 -3.8144e-07 -1.53777e-05
1.73064e-05 4.68762e-06 -1.57261e-05
6.55233e-08 -6.38748e-06 -1.02677e-05
1.74176e-06 -4.84859e-06 -9.09275e-06
5.85062e-06 -2.93559e-06 -1.03785e-05
-2.14448e-05 3.75063e-06 -1.64592e-05
5.72952e-06 -1.6275e-05 -1.55081e-05
9.08372e-06 -1.74995e-05 -1.59979e-05
1.75727e-05 1.1882e-05 -1.66727e-05
1.39946e-05 -1.63827e-05 -1.64016e-05
1.07403e-05 -1.37894e-05 -1.55505e-05
-3.54806e-06 -4.2203e-06 -9.50103e-06
5.39926e-06 1.13853e-06 -9.49932e-06
5.21819e-06 3.22296e-06 -1.00475e-05
-1.7498e-06 -2.83552e-05 -1.78772e-05
1.89211e-06 5.29903e-06 -9.58472e-06
-1.13827e-07 6.10516e-06 -1.0039e-05
-3.78502e-06 4.12785e-06 -9.57867e-06
-5.62282e-06 3.03426e-06 -1.02855e-05
-5.1656e-06 1.0407e-06 -9.21387e-06
-7.52744e-06 -6.17409e-08 -1.11727e-05
-4.33448e-06 -8.10297e-07 -8.38209e-06
-3.10866e-06 1.87238e-06 -7.37427e-06
-2.20818e-05 -3.60787e-06 -1.65162e-05
2.34068e-05 -1.56883e-05 -1.78365e-05
-1.50723e-06 2.11685e-05 -1.66824e-05
2.12622e-05 -8.45223e-08 -1.62261e-05
1.76226e-05 -1.64685e-06 -1.55818e-05
1.73482e-05 -4.94181e-06 -1.57711e-05
2.18921e-05 -7.45133e-06 -1.6914e-05
-2.31828e-05 -1.42549e-05 -1.7833e-05
1.73251e-05 1.64892e-06 -1.55089e-05
-1.73402e-06 2.84737e-05 -1.78944e-05
-4.22082e-07 3.6835e-06 -7.49551e-06
2.37725e-05 1.57427e-05 -1.78849e-05
-1.74978e-05 1.56426e-05 -1.69753e-05
-1.06265e-05 -1.84666e-05 -1.62555e-05
-1.00998e-05 -1.43427e-05 -1.55721e-05
-7.50798e-06 -1.60953e-05 -1.56224e-05
-7.32232e-06 -2.01211e-05 -1.63957e-05
-1.07048e-05 1.85357e-05 -1.62672e-05
-1.03476e-05 1.43845e-05 -1.56197e-05
-7.77284e-06 2.0493e-05 -1.64446e-05
-4.2531e-06 1.86102e-05 -1.60534e-05
1.076e-05 1.8346e-05 -1.62266e-05
1.38921e-05 1.69354e-05 -1.64314e-05
1.40423e-05 1.29732e-05 -1.60517e-05
-7.36178e-06 1.62888e-05 -1.56389e-05
1.05254e-05 1.45474e-05 -1.56456e-05
7.74897e-06 1.60928e-05 -1.56143e-05
-3.11654e-06 -1.89881e-06 -7.3934e-06
-7.25785e-06 -1.24223e-05 -1.46255e-05
3.00873e-06 4.03611e-08 -6.60117e-06
4.87271e-06 1.35231e-05 -1.46185e-05
1.40764e-05 -2.26045e-06 -1.45708e-05
-1.72902e-05 -1.52171e-05 -1.69459e-05
-1.7367e-05 2.42038e-06 -1.55982e-05
-1.2205e-05 8.91219e-06 -1.49439e-05
-7.70584e-06 -2.29258e-06 -1.1555e-05
-1.24501e-05 1.1813e-05 -1.55404e-05
-1.42739e-07 -3.75432e-06 -7.5544e-06
2.7303e-06 2.27213e-06 -7.25214e-06
-2.00392e-06 -1.46509e-05 -1.48085e-05
9.36536e-06 -1.00685e-05 -1.43898e-05
1.38611e-05 3.15791e-06 -1.45665e-05
-7.34026e-06 1.11997e-05 -1.42607e-05
4.99737e-06 -1.27752e-05 -1.43697e-05
1.10322e-05 1.04308e-05 -1.49201e-05
-3.59655e-06 1.46857e-05 -1.49084e-05
-4.6356e-06 -1.66174e-05 -1.55492e-05
-1.95076e-05 1.28928e-05 -1.71617e-05
-2.31275e-05 1.48585e-05 -1.78438e-05
-1.29053e-05 -1.26865e-05 -1.5813e-05
3.7609e-06 -1.58616e-06 -7.90719e-06
1.76444e-06 2.92236e-06 -7.08465e-06
-9.23076e-06 -1.06098e-05 -1.45322e-05
1.72778e-06 -2.82323e-06 -6.93128e-06
9.94749e-07 2.41176e-05 -1.73089e-05
2.13686e-05 1.11942e-05 -1.72991e-05
-1.46651e-05 -7.95363e-06 -1.54858e-05
1.37085e-05 -4.78647e-06 -1.46911e-05
-1.90993e-06 -2.17636e-05 -1.68032e-05
1.80609e-05 -8.41932e-06 -1.63411e-05
-1.66794e-05 -6.32876e-06 -1.57829e-05
-4.32911e-07 -1.92237e-06 -4.79862e-06
-1.80542e-06 2.99552e-06 -7.1774e-06
-2.50527e-05 -1.29822e-05 -1.79227e-05
-2.51279e-05 -1.45077e-05 -1.80025e-05
-2.50458e-05 1.30341e-05 -1.79064e-05
-2.51187e-05 1.46504e-05 -1.79825e-05
-1.6485e-06 -3.12493e-06 -7.21014e-06
6.32814e-06 1.13687e-05 -1.4077e-05
5.33719e-07 -2.40868e-05 -1.73026e-05
-5.22791e-07 1.80959e-06 -4.64515e-06
7.40769e-06 -1.43441e-05 -1.51528e-05
2.33035e-05 -1.32097e-05 -1.77292e-05
2.36334e-05 -1.05379e-05 -1.74912e-05
1.19888e-05 -1.82115e-05 -1.62937e-05
1.47306e-05 -1.0147e-05 -1.5796e-05
-1.00274e-05 1.00128e-06 -1.2755e-05
-1.74006e-06 -8.15922e-07 -4.7236e-06
7.69085e-07 3.70845e-06 -7.57339e-06
2.34313e-06 -1.99721e-06 -6.5555e-06
2.01572e-05 5.89802e-06 -1.64541e-05
5.07023e-06 2.05966e-05 -1.64965e-05
3.42119e-07 -2.76808e-05 -1.78544e-05
-1.73127e-06 7.09129e-07 -4.60647e-06
-3.21159e-06 6.23064e-07 -6.82436e-06
3.57731e-06 1.47545e-06 -7.63687e-06
4.99228e-07 2.83246e-05 -1.79277e-05
2.4761e-05 1.37345e-05 -1.79188e-05
-2.0329e-05 1.55363e-05 -1.74295e-05
1.17874e-06 1.36451e-06 -4.45999e-06
-2.06402e-05 -1.57288e-05 -1.7528e-05
-1.89995e-05 -2.32226e-06 -1.59466e-05
-1.95598e-05 -5.58518e-06 -1.63327e-05
9.05707e-07 -3.24784e-06 -7.00633e-06
-4.36615e-06 -1.97899e-05 -1.63223e-05
-7.93754e-06 1.38349e-05 -1.51016e-05
1.16578e-06 -1.30422e-06 -4.33943e-06
1.19348e-05 -1.12287e-05 -1.52926e-05
6.13323e-06 -2.26968e-05 -1.68209e-05
-1.45226e-05 1.43558e-05 -1.63241e-05
7.92933e-06 1.33217e-05 -1.49485e-05
SCALARS effective_fluid_pressure_TPM float
LOOKUP_TABLE default
665
665
665
665
665
665
665
665
665
665
665
665
665
665
133
665
665
665
665
665
665
665
665
665
665
665
665
665
665
133
665
560.327
520.675
502.817
502.588
519.802
559.948
665
561.994
520.77
503.26
503.369
520.702
561.616
665
559.615
519.673
502.762
502.98
521.171
561.632
665
558.871
519.017
501.55
502.246
518.866
559.459
665
558.511
519.957
501.883
501.814
519.389
557.95
665
558.667
519.971
502.055
501.917
519.378
559.674
133
133
133
133
133
133
665
560.327
520.675
502.817
502.588
519.802
559.948
665
561.994
520.77
503.26
503.369
520.702
561.616
665
559.615
519.673
502.762
502.98
521.171
561.632
665
558.871
519.017
501.55
502.246
518.866
559.459
665
558.511
519.957
501.883
501.814
519.389
557.95
665
558.667
519.971
502.055
501.917
519.378
559.674
133
133
133
133
133
133
228.261
226.331
227.044
224.113
225.528
219.85
220.866
529.174
528.184
526.563
527.942
526.59
527.644
498.713
503.559
501.598
498.954
501.47
501.252
494.334
562.509
518.989
495.036
480.743
461.363
443.283
425.051
402.124
427.276
385.27
417.743
379.616
417.906
385.954
427.392
404.302
444.386
429.081
450.264
386.564
419.306
380.211
418.318
386.194
427.765
404.23
444.497
428.165
450.86
386.038
418.17
379.627
418.526
385.562
427.601
402.924
443.559
426.457
384.055
416.142
376.311
415.349
383.027
424.423
400.85
441.709
425.23
382.764
417.782
376.576
418.1
383.849
425.271
402.217
442.681
450.654
426.73
446.012
380.736
444.678
465.293
448.745
464.766
453.414
350.91
463.508
461.04
478.446
462.775
460.645
478.351
337.285
480.823
505.854
503.614
480.889
506.161
337.697
337.509
326.172
334.423
563.385
519.664
567.585
562.371
567.903
567.756
521.812
542.723
498.627
513.738
542.068
451.456
477.574
414.661
579.526
611.032
579.678
576.039
534.558
494.476
538.231
537.928
485.034
498.113
503.33
473.136
485.081
352.755
326.422
355.185
503.441
477.713
488.356
520.881
502.024
477.91
335.548
335.411
347.707
613.45
337.386
347.578
337.272
353.211
329.196
373.263
310.667
288.794
504.707
608.385
521.103
493.718
478.323
486.351
526.497
600.345
476.56
615.903
291.403
615.802
528.725
494.529
478.23
479.404
501.311
494.836
479.431
502.506
495.17
493.74
502.258
495.243
479.878
480.044
479.046
289.3
454.586
271.947
454.994
453.622
527.006
479.467
465.216
382.106
480.502
292.675
286.087
461.473
449.627
453.971
445.849
448.683
463.598
463.255
479.947
543.463
601.706
487.487
300.308
282.467
453.007
279.168
552.245
552.004
480.768
458.011
526.228
508.181
488.584
233.733
284.564
614.51
636.324
615.144
636.68
285.285
441.334
553.085
230.489
467.545
590.268
566.037
495.809
490.043
410.038
232.123
293.102
271.131
507.889
509.187
607.818
229.666
276.981
294.436
618.881
618.794
558.518
226.525
562.531
488.307
503.389
280.852
504.059
466.372
224.01
473.578
519.574
502.974
462.438
228.261
226.331
227.044
224.113
225.528
219.85
220.866
529.174
528.184
526.563
527.942
526.59
527.644
498.713
503.559
501.598
498.954
501.47
501.252
494.334
562.509
518.989
495.036
480.743
461.363
443.283
425.051
402.124
427.276
385.27
417.743
379.616
417.906
385.954
427.392
404.302
444.386
429.081
450.264
386.564
419.306
380.211
418.318
386.194
427.765
404.23
444.497
428.165
450.86
386.038
418.17
379.627
418.526
385.562
427.601
402.924
443.559
426.457
384.055
416.142
376.311
415.349
383.027
424.423
400.85
441.709
425.23
382.764
417.782
376.576
418.1
383.849
425.271
402.217
442.681
450.654
426.73
446.012
380.736
444.678
465.293
448.745
464.766
453.414
350.91
463.508
461.04
478.446
462.775
460.645
478.351
337.285
480.823
505.854
503.614
480.889
506.161
337.697
337.509
326.172
334.423
563.385
519.664
567.585
562.371
567.903
567.756
521.812
542.723
498.627
513.738
542.068
451.456
477.574
414.661
579.526
611.032
579.678
576.039
534.558
494.476
538.231
537.928
485.034
498.113
503.33
473.136
485.081
352.755
326.422
355.185
503.441
477.713
488.356
520.881
502.024
477.91
335.548
335.411
347.707
613.45
337.386
347.578
337.272
353.211
329.196
373.263
310.667
288.794
504.707
608.385
521.103
493.718
478.323
486.351
526.497
600.345
476.56
615.903
291.403
615.802
528.725
494.529
478.23
479.404
501.311
494.836
479.431
502.506
495.17
493.74
502.258
495.243
479.878
480.044
479.046
289.3
454.586
271.947
454.994
453.622
527.006
479.467
465.216
382.106
480.502
292.675
286.087
461.473
449.627
453.971
445.849
448.683
463.598
463.255
479.947
543.463
601.706
487.487
300.308
282.467
453.007
279.168
552.245
552.004
480.768
458.011
526.228
508.181
488.584
233.733
284.564
614.51
636.324
615.144
636.68
285.285
441.334
553.085
230.489
467.545
590.268
566.037
495.809
490.043
410.038
232.123
293.102
271.131
507.889
509.187
607.818
229.666
276.981
294.436
618.881
618.794
558.518
226.525
562.531
488.307
503.389
280.852
504.059
466.372
224.01
473.578
519.574
502.974
462.438

CELL_DATA 563
TENSORS stress float
164.616 -24.9208 -1.77636e-12
-24.9208 28.15 -1.76096e-12
-1.77636e-12 -1.76096e-12 -12.6029

-40.339 -21.3205 -5.04012e-12
-21.3205 -7.35478 9.6397e-13
-5.04012e-12 9.6397e-13 -10.2327

-9.94091 28.0442 2.87592e-12
28.0442 -1.11083 4.20404e-14
2.87592e-12 4.20404e-14 -6.36134

-40.427 -29.8426 -1.23827e-12
-29.8426 -12.8458 8.91139e-13
-1.23827e-12 8.91139e-13 -10.599

-22.6919 19.9309 -2.32999e-12
19.9309 -1.92409 -2.50526e-12
-2.32999e-12 -2.50526e-12 -23.0209

-27.1408 -18.0751 -1.92587e-13
-18.0751 15.8879 5.60381e-12
-1.92587e-13 5.60381e-12 -6.41213

161.267 26.485 1.08476e-12
26.485 28.0267 3.61548e-12
1.08476e-12 3.61548e-12 -13.2618

-5.96205 29.9585 9.58641e-13
29.9585 -10.1125 -1.64076e-12
9.58641e-13 -1.64076e-12 -7.27721

34.6318 5.48332 -1.37372e-13
5.48332 -19.0963 -2.52028e-12
-1.37372e-13 -2.52028e-12 -4.12315

11.8602 -7.4776 8.29559e-13
-7.4776 -48.2876 1.38696e-12
8.29559e-13 1.38696e-12 -8.94789

104.198 16.3093 -8.02913e-13
16.3093 -8.44365 1.26713e-12
-8.02913e-13 1.26713e-12 -22.454

-34.6385 -13.4536 4.41129e-13
-13.4536 18.9657 8.71007e-13
4.41129e-13 8.71007e-13 -7.18148

-6.02667 27.8339 -3.42837e-13
27.8339 -4.59177 -3.20692e-12
-3.42837e-13 -3.20692e-12 -6.16013

-35.5527 -14.3405 3.20356e-12
-14.3405 7.84501 -5.29946e-13
3.20356e-12 -5.29946e-13 -9.13218

-23.6537 33.3104 -5.80484e-12
33.3104 -24.9935 -6.84878e-13
-5.80484e-12 -6.84878e-13 -21.3648

21.311 0.561018 9.166e-13
0.561018 -32.3396 -9.31949e-13
9.166e-13 -9.31949e-13 -5.59067

-48.9598 -17.969 5.29524e-12
-17.969 6.34269 2.40163e-12
5.29524e-12 2.40163e-12 -12.9467

11.6602 -2.6652 2.86586e-12
-2.6652 -43.2501 8.90399e-14
2.86586e-12 8.90399e-14 -8.03459

-11.3511 26.6749 2.54522e-12
26.6749 19.5172 -4.04417e-13
2.54522e-12 -4.04417e-13 -6.09054

21.7656 -4.19576 3.23889e-13
-4.19576 -35.2962 8.28744e-13
3.23889e-13 8.28744e-13 -6.74239

-24.4806 8.66903 3.65101e-12
8.66903 32.1279 3.29692e-12
3.65101e-12 3.29692e-12 -4.93527

-11.8086 6.28698 8.64842e-12
6.28698 -11.9724 1.32102e-12
8.64842e-12 1.32102e-12 -75.6143

22.7434 1.87603 -1.85866e-12
1.87603 -33.4707 -2.01609e-12
-1.85866e-12 -2.01609e-12 -6.67836

-12.389 -27.7162 -2.35397e-12
-27.7162 1.5992 1.96583e-12
-2.35397e-12 1.96583e-12 -6.60381

21.3045 6.8496 -3.46745e-12
6.8496 -34.3057 1.28223e-12
-3.46745e-12 1.28223e-12 -6.8076

-37.9063 19.1132 2.24332e-12
19.1132 2.65386 9.31699e-13
2.24332e-12 9.31699e-13 -9.45859

106.606 4.18157 3.54798e-12
4.18157 20.6031 -3.04527e-12
3.54798e-12 -3.04527e-12 -12.049

-5.30248 30.7467 -5.86198e-13
30.7467 -7.27313 2.5695e-12
-5.86198e-13 2.5695e-12 -7.44259

27.8901 37.0761 -2.53072e-12
37.0761 26.4693 -3.42482e-12
-2.53072e-12 -3.42482e-12 -8.63293

-9.43914 10.3235 3.97608e-13
10.3235 -32.9281 -4.02008e-12
3.97608e-13 -4.02008e-12 -49.5054

19.8308 14.2171 -8.72191e-13
14.2171 -29.3603 1.53773e-12
-8.72191e-13 1.53773e-12 -6.00187

-4.21152 -17.7812 -3.63561e-13
-17.7812 59.6592 -1.60227e-12
-3.63561e-13 -1.60227e-12 -8.47683

66.2853 -42.1033 -1.73609e-12
-42.1033 71.1406 4.59011e-12
-1.73609e-12 4.59011e-12 -11.2516

-48.2091 5.9862 -7.96178e-13
5.9862 7.26937 -1.3302e-12
-7.96178e-13 -1.3302e-12 -41.0352

-26.2908 -4.83984 -2.97643e-12
-4.83984 1.75666 -2.64825e-12
-2.97643e-12 -2.64825e-12 -37.8003

-1.46721 21.0276 -5.51322e-12
21.0276 -39.5054 2.28972e-12
-5.51322e-12 2.28972e-12 -41.101

-43.9739 5.06667 -1.55032e-12
5.06667 0.514145 -1.26388e-12
-1.55032e-12 -1.26388e-12 -52.1875

-2.76058 -9.17033 -4.31832e-12
-9.17033 -20.7691 -2.10554e-12
-4.31832e-12 -2.10554e-12 -35.8948

-3.97491 -27.9989 2.82974e-12
-27.9989 -4.61082 -6.61989e-13
2.82974e-12 -6.61989e-13 -5.99548

65.599 41.5225 -1.72425e-12
41.5225 73.1684 5.54223e-13
-1.72425e-12 5.54223e-13 -10.9633

60.1567 -17.9499 -9.21337e-13
-17.9499 0.115893 7.28306e-14
-9.21337e-13 7.28306e-14 -8.05075

-41.8017 -3.70534 3.07043e-12
-3.70534 -1.18566 1.56097e-12
3.07043e-12 1.56097e-12 -52.7223

-14.5928 19.5543 -7.59837e-13
19.5543 -28.5508 -6.73239e-13
-7.59837e-13 -6.73239e-13 -52.8305

18.1413 -12.2734 6.26462e-13
-12.2734 -29.9002 3.98052e-13
6.26462e-13 3.98052e-13 -6.22404

38.1739 -43.3008 8.76336e-14
-43.3008 41.8021 2.88836e-12
8.76336e-14 2.88836e-12 -14.5593

58.1453 -18.0642 -3.45679e-12
-18.0642 -2.30395 1.01015e-12
-3.45679e-12 1.01015e-12 -7.91441

-21.4435 17.0864 6.78687e-12
17.0864 30.3275 1.31391e-12
6.78687e-12 1.31391e-12 -5.72943

-11.3737 19.3398 5.88566e-13
19.3398 25.5107 1.04805e-12
5.88566e-13 1.04805e-12 -3.92278

20.7911 -16.3015 1.43174e-12
-16.3015 -33.1158 8.48506e-13
1.43174e-12 8.48506e-13 -7.31273

12.6148 -34.1869 4.14779e-12
-34.1869 46.4364 2.46677e-12
4.14779e-12 2.46677e-12 -10.398

62.3616 19.1826 -6.07396e-12
19.1826 2.80935 3.04941e-12
-6.07396e-12 3.04941e-12 -8.4146

46.5143 -25.2894 -7.03793e-12
-25.2894 5.13314 1.03739e-12
-7.03793e-12 1.03739e-12 -5.61087

-31.8961 19.485 -6.22732e-12
19.485 -4.2852 1.39444e-13
-6.22732e-12 1.39444e-13 -26.0847

37.0395 29.6506 -3.40468e-12
29.6506 14.5122 -3.36205e-12
-3.40468e-12 -3.36205e-12 -5.43329

-27.4492 -21.8127 -3.67262e-12
-21.8127 -8.22933 -4.65637e-13
-3.67262e-12 -4.65637e-13 -25.2471

64.8702 -42.7128 -3.4485e-12
-42.7128 44.081 -4.78077e-12
-3.4485e-12 -4.78077e-12 -9.50218

-27.7491 5.45883 -6.55076e-12
5.45883 2.66919 -6.34159e-13
-6.55076e-12 -6.34159e-13 -38.3058

-5.5591 -5.33004 4.54126e-12
-5.33004 57.3893 2.01913e-12
4.54126e-12 2.01913e-12 -5.45032

-0.200897 10.3844 -1.65112e-12
10.3844 -24.847 5.86665e-13
-1.65112e-12 5.86665e-13 -38.3674

-26.4865 21.4137 1.3598e-12
21.4137 12.2194 1.93445e-12
1.3598e-12 1.93445e-12 -6.87079

4.72606 5.75424 -1.47956e-12
5.75424 -56.0401 -3.6288e-12
-1.47956e-12 -3.6288e-12 -13.9814

0.540094 11.4589 -7.37484e-13
11.4589 -34.057 -3.02454e-12
-7.37484e-13 -3.02454e-12 -14.8399

106.347 31.8208 -2.15058e-12
31.8208 37.8337 -2.63019e-12
-2.15058e-12 -2.63019e-12 -7.48935

-35.4923 -6.03554 -3.42097e-13
-6.03554 10.6012 1.8859e-12
-3.42097e-13 1.8859e-12 -13.4792

-35.3602 9.52004 1.23782e-12
9.52004 1.23376 3.38218e-12
1.23782e-12 3.38218e-12 -14.9602

-42.5885 -2.88109 -2.15764e-12
-2.88109 21.1108 -1.48859e-12
-2.15764e-12 -1.48859e-12 -11.2394

-44.9083 23.4017 4.37798e-13
23.4017 -5.89262 3.80703e-12
4.37798e-13 3.80703e-12 -13.9223

9.97101 8.46378 2.32051e-12
8.46378 -42.3791 2.31474e-12
2.32051e-12 2.31474e-12 -9.07882

-12.3354 -28.2403 -2.59851e-12
-28.2403 1.68679 9.87062e-13
-2.59851e-12 9.87062e-13 -6.67499

1.30884 -1.71135 4.51639e-13
-1.71135 -55.4567 7.81227e-13
4.51639e-13 7.81227e-13 -11.3048

-31.8857 -19.261 -1.20925e-12
-19.261 -4.59453 5.2968e-12
-1.20925e-12 5.2968e-12 -25.954

-27.9746 21.3078 -1.32783e-12
21.3078 -8.35911 -1.67734e-12
-1.32783e-12 -1.67734e-12 -26.0124

-0.652865 -16.5841 -6.94348e-12
-16.5841 61.6751 2.07242e-13
-6.94348e-12 2.07242e-13 -7.94958

-0.650229 -27.9365 9.91799e-13
-27.9365 -21.3618 9.84398e-13
9.91799e-13 9.84398e-13 -12.7914

-14.0939 -25.1353 -3.01921e-12
-25.1353 7.40663 -2.74684e-12
-3.01921e-12 -2.74684e-12 -5.23699

91.6808 -31.7117 9.80549e-13
-31.7117 19.4853 5.62513e-12
9.80549e-13 5.62513e-12 -16.3329

-33.7068 3.2228 -2.23525e-12
3.2228 9.19972 -6.60805e-13
-2.23525e-12 -6.60805e-13 -18.5632

2.75161 28.9443 1.23102e-12
28.9443 -24.4251 9.59529e-13
1.23102e-12 9.59529e-13 -11.317

-38.4345 19.6645 1.6677e-12
19.6645 5.22958 -9.70779e-13
1.6677e-12 -9.70779e-13 -9.23608

50.1916 7.99986 1.82965e-12
7.99986 -16.9656 -1.19549e-12
1.82965e-12 -1.19549e-12 -7.06785

60.0329 -33.9369 9.59233e-14
-33.9369 33.7872 2.15058e-12
9.59233e-14 2.15058e-12 -6.98403

-18.961 -10.5872 -4.36066e-12
-10.5872 -0.541261 -6.96036e-13
-4.36066e-12 -6.96036e-13 -25.4303

-33.926 23.8998 -2.28765e-12
23.8998 -12.0238 -2.22613e-12
-2.28765e-12 -2.22613e-12 -14.5406

58.1576 -32.3851 -2.34361e-12
-32.3851 18.0912 -2.50585e-12
-2.34361e-12 -2.50585e-12 -10.1342

66.8614 10.7915 1.71951e-12
10.7915 8.51247 -4.3839e-12
1.71951e-12 -4.3839e-12 -5.08496

7.67369 -21.2068 1.46846e-12
-21.2068 88.4672 3.8393e-12
1.46846e-12 3.8393e-12 -11.8624

-33.9873 14.426 1.39052e-12
14.426 20.2383 -5.93599e-12
1.39052e-12 -5.93599e-12 -7.54742

8.47514 23.1437 -3.13231e-13
23.1437 -26.0745 -2.0286e-12
-3.13231e-13 -2.0286e-12 -11.2996

34.8694 42.2003 -2.6444e-12
42.2003 46.2004 -5.35039e-12
-2.6444e-12 -5.35039e-12 -14.4208

-4.39439 16.5063 3.67343e-12
16.5063 -35.5398 1.01836e-11
3.67343e-12 1.01836e-11 -73.2814

-5.98123 -4.10854 -5.14285e-12
-4.10854 57.9497 7.24635e-12
-5.14285e-12 7.24635e-12 -5.44252

-1.81901 -16.6316 6.05242e-12
-16.6316 -39.3996 -5.8374e-12
6.05242e-12 -5.8374e-12 -74.1046

-3.3299 -27.3349 -2.28913e-12
-27.3349 -30.0296 1.07174e-13
-2.28913e-12 1.07174e-13 -21.5537

8.96683 27.4248 -5.85606e-13
27.4248 -29.9957 -3.38781e-12
-5.85606e-13 -3.38781e-12 -11.2577

45.7121 -24.4115 -3.34547e-12
-24.4115 5.02345 1.86873e-12
-3.34547e-12 1.86873e-12 -5.23694

10.0947 31.3245 8.23045e-14
31.3245 47.1642 -3.69719e-12
8.23045e-14 -3.69719e-12 -9.64105

14.272 -10.7055 -8.32519e-13
-10.7055 82.8411 1.76688e-12
-8.32519e-13 1.76688e-12 -6.44732

-38.6333 21.9709 -2.09136e-12
21.9709 2.94139 -2.59378e-12
-2.09136e-12 -2.59378e-12 -8.56992

1.1929 16.7945 4.52675e-13
16.7945 -25.7228 -2.682e-12
4.52675e-13 -2.682e-12 -18.5674

-26.5388 15.1544 3.24185e-14
15.1544 18.4494 6.18942e-12
3.24185e-14 6.18942e-12 -5.70899

43.6596 15.9544 5.29118e-12
15.9544 -7.28637 -9.65746e-13
5.29118e-12 -9.65746e-13 -4.07611

12.5764 -21.4734 2.79421e-12
-21.4734 57.957 -1.9386e-12
2.79421e-12 -1.9386e-12 -4.71466

65.9981 -29.3918 -2.20268e-13
-29.3918 18.6434 9.34956e-13
-2.20268e-13 9.34956e-13 -9.33561

-32.3816 -24.5734 -3.73568e-12
-24.5734 -7.28204 -1.13894e-12
-3.73568e-12 -1.13894e-12 -8.9773

-22.6676 27.4516 2.95823e-12
27.4516 -10.3509 1.55727e-12
2.95823e-12 1.55727e-12 -9.28486

-38.3515 23.1878 2.34124e-12
23.1878 1.99092 -1.85244e-12
2.34124e-12 -1.85244e-12 -8.52582

-51.5536 13.169 -1.29815e-12
13.169 11.9265 1.30858e-13
-1.29815e-12 1.30858e-13 -16.4665

23.4849 9.37243 1.11555e-12
9.37243 -29.4891 1.55328e-12
1.11555e-12 1.55328e-12 -5.32253

3.76787 -4.66521 -2.52805e-12
-4.66521 79.4403 -3.05533e-12
-2.52805e-12 -3.05533e-12 -9.53176

-44.9393 -36.8326 8.30743e-13
-36.8326 -19.8287 -2.07982e-14
8.30743e-13 -2.07982e-14 -14.7711

-16.0806 27.4661 3.47544e-12
27.4661 1.34048 -2.85046e-12
3.47544e-12 -2.85046e-12 -6.91581

-5.01625 2.17037 -2.62686e-12
2.17037 82.676 -1.85215e-12
-2.62686e-12 -1.85215e-12 -13.4314

69.0472 34.6117 9.49759e-13
34.6117 15.4965 -8.80481e-13
9.49759e-13 -8.80481e-13 -10.7062

-31.3527 -22.9744 -1.12443e-12
-22.9744 -4.63277 -1.00157e-12
-1.12443e-12 -1.00157e-12 -8.53088

11.743 5.73295 5.32759e-12
5.73295 -48.3364 5.58368e-13
5.32759e-12 5.58368e-13 -8.64222

43.0664 27.2051 -1.24345e-12
27.2051 10.4514 1.97057e-12
-1.24345e-12 1.97057e-12 -5.08164

-9.41387 12.7452 1.90381e-12
12.7452 -14.0397 -3.47219e-12
1.90381e-12 -3.47219e-12 -37.0384

70.3364 24.3315 -3.06244e-12
24.3315 23.8049 -7.1824e-13
-3.06244e-12 -7.1824e-13 -6.79981

-10.585 -13.0547 -6.9722e-14
-13.0547 -13.9215 -8.74856e-13
-6.9722e-14 -8.74856e-13 -37.3761

-4.38079 0.778585 -7.28454e-13
0.778585 59.3994 2.71901e-12
-7.28454e-13 2.71901e-12 -4.83149

38.3576 -2.2354 4.40181e-12
-2.2354 -23.8126 2.685e-12
4.40181e-12 2.685e-12 -5.83346

3.59346 -15.7674 2.8096e-13
-15.7674 -53.9701 -1.73106e-12
2.8096e-13 -1.73106e-12 -21.1239

-42.2775 24.3882 -2.17611e-13
24.3882 -11.737 -2.79391e-12
-2.17611e-13 -2.79391e-12 -11.1684

-46.8125 -13.5351 1.3478e-12
-13.5351 11.0671 -2.75335e-13
1.3478e-12 -2.75335e-13 -12.3544

5.80994 -7.99976 2.10498e-13
-7.99976 -70.9666 1.76599e-12
2.10498e-13 1.76599e-12 -14.8824

-49.5388 -22.2833 2.60059e-12
-22.2833 3.74795 -1.34944e-12
2.60059e-12 -1.34944e-12 -22.1039

-17.4589 -6.59727 6.6418e-12
-6.59727 -13.1156 -3.99384e-12
6.6418e-12 -3.99384e-12 -34.7795

-28.73 -29.9083 1.01696e-12
-29.9083 -9.39995 2.10202e-14
1.01696e-12 2.10202e-14 -8.99692

15.6931 11.4541 4.87876e-12
11.4541 80.1825 6.20067e-12
4.87876e-12 6.20067e-12 -6.53097

42.2907 -28.1476 -4.13417e-12
-28.1476 11.0503 2.6823e-13
-4.13417e-12 2.6823e-13 -5.0449

-47.1704 -13.7715 1.35151e-13
-13.7715 4.1962 -3.95003e-12
1.35151e-13 -3.95003e-12 -29.2995

2.9647 0.504648 -7.98472e-13
0.504648 -56.8123 1.28741e-12
-7.98472e-13 1.28741e-12 -11.0061

-39.337 -21.5243 8.49691e-13
-21.5243 -8.85706 -3.22705e-13
8.49691e-13 -3.22705e-13 -14.7746

-40.1951 25.6979 -3.88682e-12
25.6979 -14.6917 -1.52719e-12
-3.88682e-12 -1.52719e-12 -11.3118

32.2607 -31.4656 -4.1851e-12
-31.4656 38.4299 1.27187e-12
-4.1851e-12 1.27187e-12 -4.64884

-31.4685 -7.08412 4.50751e-13
-7.08412 1.70084 -1.74349e-12
4.50751e-13 -1.74349e-12 -40.9901

36.6305 -33.0779 1.08334e-11
-33.0779 72.0291 -9.18258e-12
1.08334e-11 -9.18258e-12 -7.14486

16.6128 -19.1801 3.10033e-12
-19.1801 -25.871 3.73242e-12
3.10033e-12 3.73242e-12 -7.13422

1.50247 1.97071 -5.02339e-13
1.97071 -51.3915 1.34825e-12
-5.02339e-13 1.34825e-12 -15.3746

-12.8748 17.8747 6.24271e-12
17.8747 -16.9554 -3.64834e-12
6.24271e-12 -3.64834e-12 -41.0576

10.7125 20.1836 -7.03674e-12
20.1836 59.4554 -1.89478e-13
-7.03674e-12 -1.89478e-13 -4.35733

4.31787 27.2112 -2.04163e-12
27.2112 -16.2241 -1.57326e-12
-2.04163e-12 -1.57326e-12 -8.12504

30.9048 -24.5124 4.92051e-12
-24.5124 -8.13356 2.69621e-12
4.92051e-12 2.69621e-12 -4.87325

-37.7884 -17.8388 1.68321e-12
-17.8388 2.4008 -3.19744e-13
1.68321e-12 -3.19744e-13 -9.86536

55.5149 35.0694 6.49791e-12
35.0694 42.3461 1.49214e-13
6.49791e-12 1.49214e-13 -6.63657

-40.0156 -21.8312 2.26337e-13
-21.8312 2.53678 -3.91154e-12
2.26337e-13 -3.91154e-12 -9.39488

2.96621 30.8509 -1.90722e-12
30.8509 -17.3894 -3.36797e-12
-1.90722e-12 -3.36797e-12 -9.07912

18.5373 -25.2446 -1.06581e-14
-25.2446 -19.4191 9.91799e-13
-1.06581e-14 9.91799e-13 -6.3435

-15.6545 -25.127 3.21225e-13
-25.127 5.89545 8.009e-12
3.21225e-13 8.009e-12 -5.77663

42.719 -18.6888 7.3778e-13
-18.6888 -9.16717 -7.33635e-13
7.3778e-13 -7.33635e-13 -5.37011

27.4321 -18.8502 -4.07259e-12
-18.8502 -20.3698 2.20742e-12
-4.07259e-12 2.20742e-12 -5.69086

-41.3939 -25.3372 -3.57492e-13
-25.3372 -14.9642 2.22318e-12
-3.57492e-13 2.22318e-12 -11.5679

29.7811 35.9707 9.10679e-13
35.9707 25.2271 4.448e-12
9.10679e-13 4.448e-12 -8.64504

-28.5191 15.3772 -1.23871e-12
15.3772 18.5188 -6.86443e-12
-1.23871e-12 -6.86443e-12 -5.87498

-23.1085 26.4227 6.93963e-13
26.4227 -12.5473 -3.66907e-12
6.93963e-13 -3.66907e-12 -9.95898

-42.097 25.4736 3.29857e-12
25.4736 -11.5925 -7.56432e-13
3.29857e-12 -7.56432e-13 -10.9937

-37.2892 11.6219 -2.44226e-12
11.6219 11.8441 3.03106e-12
-2.44226e-12 3.03106e-12 -9.08127

64.3946 -8.22728 -3.94351e-12
-8.22728 3.1967 1.00616e-12
-3.94351e-12 1.00616e-12 -4.25149

8.73316 18.6071 1.98952e-12
18.6071 59.2212 -1.16174e-12
1.98952e-12 -1.16174e-12 -4.16295

-25.6155 -24.381 -3.4032e-12
-24.381 0.458247 -1.17417e-12
-3.4032e-12 -1.17417e-12 -7.21665

-1.14239 25.6667 4.93294e-12
25.6667 13.7522 1.11792e-12
4.93294e-12 1.11792e-12 -4.08374

32.3789 -35.6306 5.38236e-12
-35.6306 21.7 1.89241e-12
5.38236e-12 1.89241e-12 -8.48677

59.5377 38.3179 2.69414e-12
38.3179 17.8477 -2.52006e-12
2.69414e-12 -2.52006e-12 -13.7225

12.1246 -33.3122 2.7048e-12
-33.3122 42.9141 -6.03132e-12
2.7048e-12 -6.03132e-12 -9.54336

30.5515 -31.1607 -7.22385e-13
-31.1607 36.814 -5.80513e-12
-7.22385e-13 -5.80513e-12 -4.40606

11.7689 -6.83863 3.35879e-12
-6.83863 -48.8384 -1.24767e-12
3.35879e-12 -1.24767e-12 -8.77103

25.2744 30.3428 9.4739e-14
30.3428 41.0896 2.67756e-12
9.4739e-14 2.67756e-12 -4.45657

62.6835 13.2951 9.59233e-14
13.2951 5.22731 -3.29307e-12
9.59233e-14 -3.29307e-12 -4.30606

-7.02707 13.3793 1.88101e-12
13.3793 61.3456 1.68399e-12
1.88101e-12 1.68399e-12 -8.69563

11.729 -22.3411 1.61056e-13
-22.3411 55.7643 -3.41061e-12
1.61056e-13 -3.41061e-12 -4.30203

-47.2604 -1.09186 4.90274e-13
-1.09186 12.4093 2.82559e-12
4.90274e-13 2.82559e-12 -22.1615

-5.92033 2.2467 3.18175e-12
2.2467 59.0056 4.57234e-12
3.18175e-12 4.57234e-12 -5.26322

6.26795 31.0903 -1.66089e-12
31.0903 47.8661 1.80715e-12
-1.66089e-12 1.80715e-12 -9.66115

-39.7258 12.1081 2.26402e-13
12.1081 12.8446 -5.50671e-14
2.26402e-13 -5.50671e-14 -9.3137

40.7388 -27.6486 1.07529e-12
-27.6486 8.3569 1.65556e-12
1.07529e-12 1.65556e-12 -5.64271

7.5394 20.557 -3.46626e-12
20.557 -47.467 -1.23871e-12
-3.46626e-12 -1.23871e-12 -16.482

-3.42154 26.2704 -8.92323e-13
26.2704 -31.4863 -2.30734e-12
-8.92323e-13 -2.30734e-12 -22.2519

15.7772 -18.5681 4.99571e-12
-18.5681 -30.0142 -5.23433e-13
4.99571e-12 -5.23433e-13 -8.18382

4.42829 -1.80197 3.43148e-12
-1.80197 -34.133 -3.86713e-12
3.43148e-12 -3.86713e-12 -24.4386

-14.3403 -31.8122 -1.51879e-13
-31.8122 -11.931 4.61882e-12
-1.51879e-13 4.61882e-12 -9.05035

56.2195 23.3286 2.96059e-14
23.3286 0.815798 -9.12455e-13
2.96059e-14 -9.12455e-13 -8.28862

-27.8284 30.1622 -1.37046e-12
30.1622 -9.23652 7.12023e-13
-1.37046e-12 7.12023e-13 -8.80118

-27.004 29.206 5.2817e-12
29.206 -9.20184 7.67386e-13
5.2817e-12 7.67386e-13 -8.67847

28.6287 30.6619 7.08411e-12
30.6619 40.4064 -1.00187e-12
7.08411e-12 -1.00187e-12 -4.44956

0.343078 27.0854 9.33772e-13
27.0854 -19.8469 1.79294e-12
9.33772e-13 1.79294e-12 -11.7775

64.5096 3.52527 1.78228e-12
3.52527 -11.8272 -2.20498e-12
1.78228e-12 -2.20498e-12 -10.019

-14.9001 31.8172 -3.72058e-12
31.8172 -20.7988 -3.52074e-12
-3.72058e-12 -3.52074e-12 -12.448

-37.9451 -12.5995 -1.74571e-12
-12.5995 8.18013 -1.78109e-12
-1.74571e-12 -1.78109e-12 -14.0231

-0.474894 24.2779 2.41436e-12
24.2779 -29.9995 -8.02321e-14
2.41436e-12 -8.02321e-14 -20.771

-23.7278 -29.5789 -6.42449e-13
-29.5789 -11.935 -1.82787e-12
-6.42449e-13 -1.82787e-12 -8.84409

-38.1494 -4.89783 3.42635e-12
-4.89783 18.8467 -5.93895e-13
3.42635e-12 -5.93895e-13 -11.7306

69.9464 -24.5572 1.07529e-12
-24.5572 18.0286 1.87939e-12
1.07529e-12 1.87939e-12 -7.04467

39.9826 29.6942 1.08121e-12
29.6942 13.479 3.4864e-12
1.08121e-12 3.4864e-12 -5.21577

-4.29732 14.6971 8.83604e-12
14.6971 60.5728 7.56728e-13
8.83604e-12 7.56728e-13 -8.40153

1.61136 -1.13902 1.65542e-12
-1.13902 -56.1237 -3.13527e-13
1.65542e-12 -3.13527e-13 -11.21

9.61414 0.00220634 4.8388e-12
0.00220634 -44.7552 -1.07991e-12
4.8388e-12 -1.07991e-12 -8.43897

-31.0797 23.1244 -1.49821e-12
23.1244 -4.33749 1.16381e-12
-1.49821e-12 1.16381e-12 -8.45941

-34.7623 23.8712 9.36436e-13
23.8712 -13.193 -1.0722e-12
9.36436e-13 -1.0722e-12 -14.8134

-43.379 -24.3808 1.23207e-12
-24.3808 -12.6138 -2.17989e-12
1.23207e-12 -2.17989e-12 -11.4695

-39.0602 -0.673032 1.29878e-12
-0.673032 21.0463 -8.90547e-13
1.29878e-12 -8.90547e-13 -10.4961

-40.8069 25.5906 2.825e-12
25.5906 -13.2228 -3.57714e-13
2.825e-12 -3.57714e-13 -11.1731

32.3221 -10.3083 -3.01389e-12
-10.3083 -25.1554 1.758e-12
-3.01389e-12 1.758e-12 -6.01529

8.70602 -32.8348 -5.12538e-12
-32.8348 22.7977 -2.47447e-12
-5.12538e-12 -2.47447e-12 -6.99296

2.39669 -2.30119 -4.45703e-12
-2.30119 -49.9609 3.66433e-12
-4.45703e-12 3.66433e-12 -14.7731

36.7461 -34.5096 -3.81088e-12
-34.5096 24.4797 2.80901e-12
-3.81088e-12 2.80901e-12 -7.70976

-38.2944 19.086 5.13278e-12
19.086 -7.09347 -1.67244e-12
5.13278e-12 -1.67244e-12 -14.4498

7.87065 -26.4789 1.81307e-12
-26.4789 -27.9955 3.95269e-12
1.81307e-12 3.95269e-12 -10.9696

63.949 -9.69065 -6.3712e-13
-9.69065 5.67663 4.5753e-12
-6.3712e-13 4.5753e-12 -5.07291

6.04012 -23.1923 -4.41129e-13
-23.1923 -35.4685 -3.02869e-13
-4.41129e-13 -3.02869e-13 -17.7361

0.141403 2.35833 5.40161e-13
2.35833 -56.1744 -4.41047e-12
5.40161e-13 -4.41047e-12 -11.5469

-4.06227 -23.3219 2.0665e-13
-23.3219 -23.4118 -3.43681e-12
2.0665e-13 -3.43681e-12 -16.7199

11.0385 -25.8597 4.17325e-12
-25.8597 -29.4868 -1.90277e-12
4.17325e-12 -1.90277e-12 -9.73435

10.2012 -8.54648 3.78927e-12
-8.54648 -43.4911 -5.58812e-13
3.78927e-12 -5.58812e-13 -9.28237

-35.4179 -23.0683 1.46105e-12
-23.0683 -12.6463 7.16482e-13
1.46105e-12 7.16482e-13 -15.1034

23.6643 -31.3431 -7.41333e-13
-31.3431 5.71167 -4.13832e-12
-7.41333e-13 -4.13832e-12 -5.87922

11.0595 -24.5879 -2.93691e-13
-24.5879 -27.4954 -4.29908e-12
-2.93691e-13 -4.29908e-12 -10.0488

46.6441 10.8649 4.03115e-12
10.8649 -16.119 -2.43509e-12
4.03115e-12 -2.43509e-12 -6.80085

-14.1862 26.3407 7.09655e-13
26.3407 -15.6407 -2.87133e-12
7.09655e-13 -2.87133e-12 -14.1193

-45.2512 -37.6122 1.17565e-12
-37.6122 -20.6121 -4.7536e-13
1.17565e-12 -4.7536e-13 -14.9196

-43.7081 37.2646 7.02549e-13
37.2646 -21.2658 -3.49099e-12
7.02549e-13 -3.49099e-12 -14.77

-61.184 -28.573 -3.38056e-12
-28.573 -7.49712 9.96832e-13
-3.38056e-12 9.96832e-13 -15.2

-58.4151 27.0638 2.17493e-12
27.0638 -6.27174 1.63247e-12
2.17493e-12 1.63247e-12 -14.4787

5.60049 -8.52738 -2.47565e-12
-8.52738 -71.063 4.41573e-12
-2.47565e-12 4.41573e-12 -14.7102

4.39731 9.27337 -1.31021e-12
9.27337 -68.8318 -1.32161e-12
-1.31021e-12 -1.32161e-12 -14.4382

9.02389 -9.84651 8.53243e-13
-9.84651 -40.8911 -1.43663e-12
8.53243e-13 -1.43663e-12 -9.61275

-24.3354 32.1153 -1.29289e-12
32.1153 -24.8094 2.32601e-13
-1.29289e-12 2.32601e-13 -21.145

-25.5227 -32.8533 -1.62833e-13
-32.8533 -25.0954 4.08073e-12
-1.62833e-13 4.08073e-12 -21.4691

-53.9186 16.0683 3.25207e-12
16.0683 3.40123 1.70678e-12
3.25207e-12 1.70678e-12 -21.4025

-52.4196 -15.8008 1.99352e-12
-15.8008 3.29659 4.43941e-12
1.99352e-12 4.43941e-12 -21.0758

6.11161 -3.74832 6.29274e-13
-3.74832 -43.9248 -3.86062e-13
6.29274e-13 -3.86062e-13 -25.7643

6.9177 3.61106 2.99449e-12
3.61106 -46.3482 1.01992e-12
2.99449e-12 1.01992e-12 -26.1406

-15.6275 9.83729 -1.62411e-12
9.83729 46.2635 -4.18154e-12
-1.62411e-12 -4.18154e-12 -5.84901

-22.9192 -24.7747 -4.08562e-14
-24.7747 -14.5526 -3.17524e-12
-4.08562e-14 -3.17524e-12 -10.3307

-56.6029 -36.387 -7.16908e-13
-36.387 -14.5325 -1.79545e-12
-7.16908e-13 -1.79545e-12 -13.4379

33.359 -4.66441 -1.6082e-12
-4.66441 -19.8485 6.527e-13
-1.6082e-12 6.527e-13 -3.94619

3.43316 -16.694 2.10291e-12
-16.694 -52.6278 2.49282e-12
2.10291e-12 2.49282e-12 -21.5324

3.6743 16.175 -2.33443e-13
16.175 -51.8835 1.30118e-12
-2.33443e-13 1.30118e-12 -21.4056

6.55558 0.121874 -1.36483e-12
0.121874 -76.754 -1.02066e-12
-1.36483e-12 -1.02066e-12 -13.3047

-7.57098 23.3763 -4.39352e-12
23.3763 39.9365 -4.25141e-13
-4.39352e-12 -4.25141e-13 -6.88629

-56.8886 36.171 -4.07407e-12
36.171 -14.0112 1.79664e-12
-4.07407e-12 1.79664e-12 -13.3895

-39.7949 -23.396 -1.4236e-12
-23.396 2.56141 -5.12183e-13
-1.4236e-12 -5.12183e-13 -8.80181

37.1173 23.3538 4.85656e-12
23.3538 -8.61447 1.97412e-12
4.85656e-12 1.97412e-12 -5.75966

4.73473 23.8585 -2.80072e-12
23.8585 -38.2261 1.19904e-13
-2.80072e-12 1.19904e-13 -18.9857

24.0135 -31.3149 -1.38556e-13
-31.3149 6.4076 -2.47091e-12
-1.38556e-13 -2.47091e-12 -5.64919

2.43065 -3.23138 4.71652e-12
-3.23138 -48.37 3.30876e-12
4.71652e-12 3.30876e-12 -14.7431

-60.4568 -34.1606 -2.23747e-13
-34.1606 -14.3498 9.83066e-13
-2.23747e-13 9.83066e-13 -14.0315

-17.4544 8.32031 -1.48489e-12
8.32031 45.6928 -2.34124e-12
-1.48489e-12 -2.34124e-12 -5.78207

-9.47031 21.8126 1.97146e-12
21.8126 40.4259 -5.0567e-13
1.97146e-12 -5.0567e-13 -6.65478

58.6052 35.7773 -1.26121e-12
35.7773 37.0887 5.92119e-14
-1.26121e-12 5.92119e-14 -6.91621

70.4863 1.57883 -9.42653e-13
1.57883 -5.54424 1.83727e-12
-9.42653e-13 1.83727e-12 -10.3746

-30.7594 -22.8048 1.45099e-12
-22.8048 -13.3568 8.32834e-13
1.45099e-12 8.32834e-13 -14.4665

32.8418 31.1852 -4.40063e-12
31.1852 69.7964 4.37221e-12
-4.40063e-12 4.37221e-12 -6.67959

-19.3773 23.6106 -9.22817e-13
23.6106 7.68681 1.21384e-12
-9.22817e-13 1.21384e-12 -5.51436

47.6383 -5.34978 -1.46609e-12
-5.34978 -17.4351 4.49907e-12
-1.46609e-12 4.49907e-12 -6.82279

33.22 11.2165 -8.49099e-13
11.2165 -23.6388 -7.4903e-14
-8.49099e-13 -7.4903e-14 -6.01505

6.25411 0.429894 3.83841e-13
0.429894 -77.5512 -3.06638e-12
3.83841e-13 -3.06638e-12 -13.4504

-58.9349 -29.0307 3.15762e-12
-29.0307 -6.2882 -1.65201e-13
3.15762e-12 -1.65201e-13 -14.6976

-28.3317 -6.31854 2.9942e-12
-6.31854 -11.3571 -3.22053e-12
2.9942e-12 -3.22053e-12 -51.5855

-44.6976 37.4109 6.36824e-13
37.4109 -20.8111 -2.15594e-12
6.36824e-13 -2.15594e-12 -14.774

93.7936 1.66334 3.07902e-14
1.66334 16.6552 -7.51917e-13
3.07902e-14 -7.51917e-13 -6.04323

10.0358 -32.7884 -4.17089e-12
-32.7884 21.3109 -5.15676e-12
-4.17089e-12 -5.15676e-12 -6.80923

-56.9354 36.6125 2.8757e-12
36.6125 -14.571 -1.76644e-12
2.8757e-12 -1.76644e-12 -13.5057

-35.0806 -11.134 2.70154e-15
-11.134 19.1772 9.73444e-13
2.70154e-15 9.73444e-13 -8.3174

-5.47882 -25.5157 4.04595e-12
-25.5157 37.3509 2.77941e-12
4.04595e-12 2.77941e-12 -6.98805

-58.4514 28.8297 -4.02297e-12
28.8297 -6.27158 2.08219e-12
-4.02297e-12 2.08219e-12 -14.6147

28.4961 -26.1429 -8.98837e-13
-26.1429 -4.91353 -6.0254e-12
-8.98837e-13 -6.0254e-12 -4.69827

-21.1691 10.4837 -2.76401e-12
10.4837 -18.5588 5.7887e-12
-2.76401e-12 5.7887e-12 -51.681

3.43196 30.8734 -7.61939e-12
30.8734 27.1628 2.51295e-12
-7.61939e-12 2.51295e-12 -6.73402

6.14032 8.12648 8.89807e-13
8.12648 -72.2966 -9.16156e-13
8.89807e-13 -9.16156e-13 -14.9848

-11.5462 30.1908 -3.53791e-13
30.1908 -20.6031 9.02981e-13
-3.53791e-13 9.02981e-13 -11.5497

-30.7985 23.3324 2.09314e-12
23.3324 -5.10002 2.29742e-13
2.09314e-12 2.29742e-13 -8.46544

-25.8636 -32.4879 -1.18572e-12
-32.4879 -24.1122 -5.15699e-13
-1.18572e-12 -5.15699e-13 -21.5585

9.20502 -23.1908 -9.02389e-13
-23.1908 -27.9229 -2.88776e-12
-9.02389e-13 -2.88776e-12 -11.4263

-37.6613 10.47 -1.61223e-12
10.47 8.92895 -2.94283e-13
-1.61223e-12 -2.94283e-13 -25.3302

-23.0414 -23.4343 4.87492e-12
-23.4343 4.95227 -2.63434e-12
4.87492e-12 -2.63434e-12 -6.26408

88.8063 -9.70826 9.54496e-13
-9.70826 10.8069 3.15303e-14
9.54496e-13 3.15303e-14 -10.031

84.0464 -14.2777 4.56879e-12
-14.2777 2.81203 9.58641e-13
4.56879e-12 9.58641e-13 -13.197

5.8874 16.53 4.04121e-13
16.53 -33.9323 1.87406e-13
4.04121e-13 1.87406e-13 -22.3755

-16.4225 22.5026 -5.81402e-12
22.5026 16.2279 1.86103e-12
-5.81402e-12 1.86103e-12 -5.08645

-3.91279 29.164 -3.9447e-12
29.164 -12.2307 1.73639e-12
-3.9447e-12 1.73639e-12 -8.39723

50.994 0.688691 1.7953e-12
0.688691 -6.53317 1.80149e-12
1.7953e-12 1.80149e-12 -3.63534

-48.1416 6.57087 8.72432e-13
6.57087 14.7859 1.91136e-12
8.72432e-13 1.91136e-12 -18.9524

10.1157 16.5407 2.82204e-12
16.5407 -36.0804 -1.61145e-12
2.82204e-12 -1.61145e-12 -9.13625

-4.50494 -25.7622 -2.92625e-12
-25.7622 35.556 6.32028e-12
-2.92625e-12 6.32028e-12 -6.74802

-39.1924 -2.57218 -8.99151e-13
-2.57218 21.5043 -9.08903e-13
-8.99151e-13 -9.08903e-13 -10.67

-7.99192 13.3658 -1.3299e-12
13.3658 44.4062 -2.71427e-12
-1.3299e-12 -2.71427e-12 -3.94529

3.73444 -29.7139 -5.06203e-12
-29.7139 -17.3658 -2.25035e-12
-5.06203e-12 -2.25035e-12 -8.92139

21.4258 -29.9487 -1.10726e-12
-29.9487 14.7558 1.71714e-13
-1.10726e-12 1.71714e-13 -3.91886

6.88018 31.6242 2.60059e-12
31.6242 25.4018 -4.62208e-12
2.60059e-12 -4.62208e-12 -6.82917

2.78511 -15.0198 -3.62022e-12
-15.0198 -39.2652 4.97313e-12
-3.62022e-12 4.97313e-12 -63.3066

-46.1595 2.04159 -2.04066e-12
2.04159 11.4612 -3.57048e-13
-2.04066e-12 -3.57048e-13 -22.7562

-55.4435 20.2995 1.803e-13
20.2995 3.09514 1.14279e-13
1.803e-13 1.14279e-13 -22.9155

5.91614 15.4385 2.84868e-12
15.4385 -58.8173 -2.81849e-13
2.84868e-12 -2.81849e-13 -23.0355

-18.9221 -26.1893 -8.81369e-13
-26.1893 -12.9139 3.94588e-12
-8.81369e-13 3.94588e-12 -9.65352

41.3469 17.9579 4.57471e-12
17.9579 -6.27226 -1.62063e-12
4.57471e-12 -1.62063e-12 -3.8624

-44.6821 -5.29356 1.45391e-12
-5.29356 4.53839 -3.01537e-12
1.45391e-12 -3.01537e-12 -39.1428

7.49936 -18.988 2.53042e-12
-18.988 -39.8948 2.76312e-12
2.53042e-12 2.76312e-12 -11.6605

30.2914 -15.5993 -1.43766e-12
-15.5993 -20.51 7.15072e-12
-1.43766e-12 7.15072e-12 -4.80611

-9.6397 11.6038 3.26909e-12
11.6038 44.32 -4.94775e-12
3.26909e-12 -4.94775e-12 -3.86006

8.33328 -25.7353 -8.10019e-13
-25.7353 32.9923 -7.69755e-13
-8.10019e-13 -7.69755e-13 -3.63397

-10.2443 -25.2738 5.77612e-13
-25.2738 -19.1011 -1.27809e-12
5.77612e-13 -1.27809e-12 -23.1742

17.0048 31.9608 9.65154e-13
31.9608 11.1967 2.17841e-12
9.65154e-13 2.17841e-12 -5.74736

-1.06914 -25.1344 2.26426e-12
-25.1344 -30.7631 3.03165e-12
2.26426e-12 3.03165e-12 -20.8912

48.0662 2.59746 8.90547e-13
2.59746 -8.41107 3.60541e-12
8.90547e-13 3.60541e-12 -3.53255

6.55222 -28.9317 -3.39876e-13
-28.9317 72.0526 1.90662e-12
-3.39876e-13 1.90662e-12 -14.5517

21.7914 -29.2321 1.68162e-12
-29.2321 13.9633 -1.4122e-12
1.68162e-12 -1.4122e-12 -3.93124

35.3518 32.1602 1.77754e-12
32.1602 74.1364 -2.59348e-12
1.77754e-12 -2.59348e-12 -5.44184

-45.284 -11.8766 -1.9139e-12
-11.8766 13.9219 2.12571e-12
-1.9139e-12 2.12571e-12 -15.3266

-14.422 -13.8219 1.54247e-12
-13.8219 43.3831 6.14501e-12
1.54247e-12 6.14501e-12 -5.67368

-19.242 -23.9869 4.8761e-13
-23.9869 -19.83 9.64665e-12
4.8761e-13 9.64665e-12 -64.2483

2.4374 23.7718 -1.48563e-12
23.7718 36.0073 1.16766e-12
-1.48563e-12 1.16766e-12 -3.712

-15.1826 -32.7263 6.69539e-12
-32.7263 -21.1196 2.30512e-12
6.69539e-12 2.30512e-12 -14.3134

-14.5667 -11.9636 -7.19128e-13
-11.9636 45.5314 -2.66809e-12
-7.19128e-13 -2.66809e-12 -5.73985

7.83547 -19.1168 -2.55499e-12
-19.1168 -43.1222 3.97963e-12
-2.55499e-12 3.97963e-12 -12.6325

6.54496 23.8781 8.84626e-13
23.8781 35.1718 -1.73846e-12
8.84626e-13 -1.73846e-12 -3.44295

23.1737 -4.97558 -2.69236e-12
-4.97558 -30.6773 -5.52965e-13
-2.69236e-12 -5.52965e-13 -5.36529

36.9711 -30.3436 1.83675e-12
-30.3436 122.631 6.38541e-12
1.83675e-12 6.38541e-12 -6.24132

-26.8705 21.0147 -4.22536e-12
21.0147 8.43411 -1.62477e-12
-4.22536e-12 -1.62477e-12 -7.13103

40.3391 -19.324 9.15416e-13
-19.324 -11.3738 -1.69257e-12
9.15416e-13 -1.69257e-12 -5.72689

6.52773 -21.4458 -4.70735e-13
-21.4458 -45.5578 -5.95968e-13
-4.70735e-13 -5.95968e-13 -24.9711

20.705 31.7553 -2.50348e-12
31.7553 9.55694 2.80901e-12
-2.50348e-12 2.80901e-12 -5.80692

13.9187 -29.9727 -1.36543e-12
-29.9727 -7.6067 -5.67398e-12
-1.36543e-12 -5.67398e-12 -5.94521

6.75504 20.8855 -4.74879e-12
20.8855 -27.793 -1.60464e-12
-4.74879e-12 -1.60464e-12 -11.1093

-38.2744 -28.076 -4.26178e-13
-28.076 -14.0381 3.1534e-12
-4.26178e-13 3.1534e-12 -11.0617

8.64573 -26.2263 2.47683e-12
-26.2263 31.1712 5.43565e-12
2.47683e-12 5.43565e-12 -3.63601

15.331 28.9823 1.54602e-12
28.9823 19.1537 9.67522e-13
1.54602e-12 9.67522e-13 -3.88382

28.6406 26.1923 -2.78651e-12
26.1923 -5.63432 2.31341e-12
-2.78651e-12 2.31341e-12 -4.80287

7.91443 -14.6105 -2.61095e-12
-14.6105 -36.8782 4.7257e-12
-2.61095e-12 4.7257e-12 -13.9916

-6.84251 -16.6183 2.0665e-13
-16.6183 41.3416 2.73204e-12
2.0665e-13 2.73204e-12 -3.96026

17.4407 -17.5685 2.48572e-12
-17.5685 -31.0001 2.30482e-13
2.48572e-12 2.30482e-13 -7.106

19.8418 16.909 1.01015e-12
16.909 -31.6657 3.75551e-12
1.01015e-12 3.75551e-12 -7.33537

-33.6802 -9.38618 2.43446e-12
-9.38618 8.75619 1.8557e-12
2.43446e-12 1.8557e-12 -23.992

43.4323 -13.4305 1.73254e-12
-13.4305 -8.36998 3.1665e-12
1.73254e-12 3.1665e-12 -3.80499

-19.3799 0.594121 -2.94683e-12
0.594121 43.146 1.94097e-12
-2.94683e-12 1.94097e-12 -4.77632

28.0562 18.5555 -1.91254e-13
18.5555 -18.2002 -4.53563e-13
-1.91254e-13 -4.53563e-13 -4.75058

25.5285 27.6049 8.69231e-13
27.6049 -3.77652 -1.82136e-12
8.69231e-13 -1.82136e-12 -4.77202

-6.71633 -15.6868 2.81553e-12
-15.6868 43.7993 -2.66217e-12
2.81553e-12 -2.66217e-12 -3.84877

-19.908 -1.20228 -3.53569e-13
-1.20228 42.1285 -3.5539e-12
-3.53569e-13 -3.5539e-12 -4.68789

-5.47324 29.1345 -3.04408e-12
29.1345 -23.6474 1.98212e-12
-3.04408e-12 1.98212e-12 -16.7969

-37.2746 -10.9224 1.46771e-12
-10.9224 21.6799 1.69642e-12
1.46771e-12 1.69642e-12 -7.83075

27.1434 -26.7163 2.25597e-13
-26.7163 -5.5316 -3.38337e-12
2.25597e-13 -3.38337e-12 -4.94507

40.7197 21.3334 3.09086e-12
21.3334 -8.37129 5.16268e-12
3.09086e-12 5.16268e-12 -5.46838

12.378 23.6656 -8.39033e-13
23.6656 -27.128 -4.19812e-13
-8.39033e-13 -4.19812e-13 -8.6676

-37.7975 5.47111 -2.4194e-12
5.47111 23.3114 -1.72662e-12
-2.4194e-12 -1.72662e-12 -8.59805

18.5928 29.0667 3.12757e-12
29.0667 17.3776 -3.48225e-12
3.12757e-12 -3.48225e-12 -3.94789

-9.98858 22.9639 -2.76401e-12
22.9639 -14.9139 1.431e-12
-2.76401e-12 1.431e-12 -24.0252

68.3192 -59.6936 -8.62125e-13
-59.6936 36.3365 1.82965e-12
-8.62125e-13 1.82965e-12 -23.0102

17.5307 -25.0486 -2.99612e-13
-25.0486 -17.9929 -5.15558e-12
-2.99612e-13 -5.15558e-12 -6.41846

10.0579 7.07017 4.90719e-12
7.07017 82.553 -3.47929e-12
4.90719e-12 -3.47929e-12 -7.16552

11.92 -28.8902 5.3119e-12
-28.8902 -3.88207 3.7789e-12
5.3119e-12 3.7789e-12 -5.16664

-66.9441 -52.7025 3.60245e-12
-52.7025 143.256 -9.4739e-14
3.60245e-12 -9.4739e-14 -49.6676

-68.3875 51.4531 -1.53951e-14
51.4531 142.543 -4.50958e-12
-1.53951e-14 -4.50958e-12 -49.8567

19.5725 117.158 1.66504e-12
117.158 64.133 1.88057e-12
1.66504e-12 1.88057e-12 -48.3581

20.5314 -117.1 2.79954e-12
-117.1 61.0298 -2.30216e-12
2.79954e-12 -2.30216e-12 -48.7228

157.75 -1.36341 5.16328e-13
-1.36341 -79.1867 4.96779e-14
5.16328e-13 4.96779e-14 -48.9098

110.331 -91.1281 1.82846e-12
-91.1281 -36.6885 -1.3974e-12
1.82846e-12 -1.3974e-12 -50.3044

110.384 91.656 1.49214e-12
91.656 -36.4987 -1.77162e-12
1.49214e-12 -1.77162e-12 -50.1773

7.84652 14.3308 -8.26006e-13
14.3308 -42.6819 -1.62685e-12
-8.26006e-13 -1.62685e-12 -15.0793

-11.7904 25.5361 -1.4649e-12
25.5361 -27.4048 -2.52657e-12
-1.4649e-12 -2.52657e-12 -35.1361

12.4381 6.60629 -3.05e-12
6.60629 -40.535 5.59034e-13
-3.05e-12 5.59034e-13 -8.25338

26.2549 21.7854 -4.26681e-12
21.7854 -19.5298 -8.85218e-13
-4.26681e-12 -8.85218e-13 -5.85177

-21.2316 17.7452 -2.06709e-12
17.7452 29.8687 2.36848e-15
-2.06709e-12 2.36848e-15 -6.16332

22.5303 28.8996 -3.47692e-12
28.8996 -0.776144 7.91071e-13
-3.47692e-12 7.91071e-13 -4.73166

4.05501 -29.6641 1.59043e-12
-29.6641 -17.4668 1.90722e-12
1.59043e-12 1.90722e-12 -8.5051

25.9953 28.0289 -1.14693e-12
28.0289 -2.30243 8.4673e-13
-1.14693e-12 8.4673e-13 -4.73205

-19.3485 -2.84145 2.35145e-12
-2.84145 43.0721 2.46795e-12
2.35145e-12 2.46795e-12 -4.77087

-13.4109 -26.0969 -2.89694e-12
-26.0969 -25.8386 -3.23608e-12
-2.89694e-12 -3.23608e-12 -35.5192

-19.8436 -4.86268 -1.42745e-12
-4.86268 41.777 -5.0567e-13
-1.42745e-12 -5.0567e-13 -4.74474

-1.82721 23.0167 4.7784e-13
23.0167 -24.3772 2.16538e-12
4.7784e-13 2.16538e-12 -16.1499

44.9834 26.8719 -1.95281e-12
26.8719 8.11077 7.95749e-12
-1.95281e-12 7.95749e-12 -5.36982

-52.5075 -13.2162 8.2645e-13
-13.2162 0.150166 -2.12896e-12
8.2645e-13 -2.12896e-12 -20.617

20.2806 13.7284 9.60417e-13
13.7284 -31.143 -6.81233e-13
9.60417e-13 -6.81233e-13 -7.04392

13.7005 -29.9887 2.0588e-12
-29.9887 -6.6924 -2.18936e-12
2.0588e-12 -2.18936e-12 -5.83615

29.6312 -24.7144 5.28407e-12
-24.7144 -7.87483 1.15582e-12
5.28407e-12 1.15582e-12 -4.82603

5.76428 -16.0753 -1.76333e-12
-16.0753 -32.3342 -2.58342e-12
-1.76333e-12 -2.58342e-12 -22.255

12.6276 27.9297 1.46727e-12
27.9297 -13.6398 -1.90425e-12
1.46727e-12 -1.90425e-12 -6.42044

23.309 23.9783 3.77239e-12
23.9783 -17.9444 -2.52331e-12
3.77239e-12 -2.52331e-12 -5.96329

-31.0784 -2.79288 1.12077e-12
-2.79288 30.132 -1.70057e-12
1.12077e-12 -1.70057e-12 -6.39932

-28.6309 5.87349 -2.82944e-12
5.87349 33.3218 3.28389e-12
-2.82944e-12 3.28389e-12 -6.06025

34.5492 2.64682 -3.77121e-12
2.64682 -26.1852 1.81758e-12
-3.77121e-12 1.81758e-12 -6.14309

50.6526 -7.28999 -1.86162e-12
-7.28999 -14.0834 1.04169e-12
-1.86162e-12 1.04169e-12 -6.77952

11.0408 30.4858 -2.85224e-12
30.4858 -4.7885 2.96059e-14
-2.85224e-12 2.96059e-14 -5.96711

17.4673 -26.1563 -4.95367e-12
-26.1563 -17.4559 -1.71418e-12
-4.95367e-12 -1.71418e-12 -6.35258

-0.0841175 -21.2545 -2.77319e-12
-21.2545 -27.9565 -2.82944e-12
-2.77319e-12 -2.82944e-12 -17.1663

4.93839 -31.6349 2.97244e-13
-31.6349 4.86083 1.59872e-12
2.97244e-13 1.59872e-12 -5.936

-8.22829 -27.7868 3.50534e-12
-27.7868 18.5788 -7.86689e-12
3.50534e-12 -7.86689e-12 -6.13064

-1.65112 29.8884 3.11455e-13
29.8884 10.447 2.10321e-12
3.11455e-13 2.10321e-12 -5.80106

-26.0181 -9.57827 8.94988e-13
-9.57827 32.9703 -1.8711e-13
8.94988e-13 -1.8711e-13 -5.78793

-31.3242 -1.54501 1.35617e-12
-1.54501 31.6511 5.36637e-12
1.35617e-12 5.36637e-12 -6.22416

-38.9167 5.74786 1.12438e-12
5.74786 23.9466 6.23501e-13
1.12438e-12 6.23501e-13 -9.18348

-17.2195 -21.09 4.70202e-12
-21.09 26.5713 -2.87474e-12
4.70202e-12 -2.87474e-12 -5.77271

13.0715 24.1119 -1.31154e-12
24.1119 -28.102 -8.64494e-13
-1.31154e-12 -8.64494e-13 -9.20536

21.5552 -9.59009 -1.4578e-12
-9.59009 -31.7079 5.43817e-12
-1.4578e-12 5.43817e-12 -6.59879

-27.1551 7.4655 9.86063e-14
7.4655 34.3351 4.44267e-12
9.86063e-14 4.44267e-12 -5.87465

-35.237 -9.70121 2.56801e-12
-9.70121 22.3137 2.30216e-12
2.56801e-12 2.30216e-12 -8.18401

-29.157 -16.3313 -4.93827e-13
-16.3313 19.3469 2.14939e-12
-4.93827e-13 2.14939e-12 -6.66244

36.9686 -8.23954 4.61379e-12
-8.23954 -20.2383 -2.91352e-12
4.61379e-12 -2.91352e-12 -5.10218

-14.81 -32.3468 5.49279e-12
-32.3468 -21.6275 -5.89158e-14
5.49279e-12 -5.89158e-14 -12.9932

-22.8254 9.32137 -2.50688e-12
9.32137 33.3238 2.50052e-12
-2.50688e-12 2.50052e-12 -4.78946

-0.751336 -18.2128 -4.65938e-12
-18.2128 -35.157 3.2679e-12
-4.65938e-12 3.2679e-12 -33.276

4.93172 24.8239 4.4782e-12
24.8239 75.3094 -4.37931e-12
4.4782e-12 -4.37931e-12 -14.3192

-14.1419 -26.6266 1.5401e-12
-26.6266 -16.3508 -1.22139e-12
1.5401e-12 -1.22139e-12 -14.6409

-6.35711 -30.2029 -8.2719e-13
-30.2029 -23.6031 -3.31261e-12
-8.2719e-13 -3.31261e-12 -17.0878

-31.2721 -0.701146 -2.06331e-12
-0.701146 31.5008 2.38091e-12
-2.06331e-12 2.38091e-12 -6.34903

28.4882 -16.6231 -9.37324e-13
-16.6231 -18.0582 2.06117e-12
-9.37324e-13 2.06117e-12 -4.43867

-37.8059 12.8418 -1.84388e-12
12.8418 11.1651 2.5698e-12
-1.84388e-12 2.5698e-12 -10.9894

-8.86126 -3.18081 -2.09899e-12
-3.18081 111.056 2.79006e-12
-2.09899e-12 2.79006e-12 -22.6712

-31.604 14.2741 -2.92832e-12
14.2741 21.3505 1.82017e-12
-2.92832e-12 1.82017e-12 -7.12512

12.4215 -29.4904 1.55254e-12
-29.4904 -2.52012 -1.74853e-12
1.55254e-12 -1.74853e-12 -4.92888

33.6329 25.1066 1.0792e-11
25.1066 124.034 2.78296e-12
1.0792e-11 2.78296e-12 -6.21369

-13.5019 26.0967 3.95402e-12
26.0967 -19.097 -1.51138e-13
3.95402e-12 -1.51138e-13 -58.8909

-9.55239 -27.806 2.33635e-12
-27.806 -22.8062 -1.12001e-11
2.33635e-12 -1.12001e-11 -59.5412

-2.86642 -30.4201 4.9211e-12
-30.4201 -7.32208 2.22785e-12
4.9211e-12 2.22785e-12 -7.28805

3.8596 -31.1616 1.85096e-12
-31.1616 5.63509 -4.47583e-12
1.85096e-12 -4.47583e-12 -6.06322

25.1524 20.8282 1.16647e-13
20.8282 -17.0356 8.3548e-13
1.16647e-13 8.3548e-13 -4.97755

31.8056 15.0067 -2.7948e-12
15.0067 -23.3027 -2.48364e-12
-2.7948e-12 -2.48364e-12 -5.95552

-9.48786 3.08273 5.61107e-12
3.08273 -9.82998 1.65674e-11
5.61107e-12 1.65674e-11 -80.9308

-5.54841 -6.99892 -2.10609e-12
-6.99892 -14.0407 -8.753e-12
-2.10609e-12 -8.753e-12 -80.2835

11.7487 4.82426 2.61776e-12
4.82426 -43.2064 -4.78328e-12
2.61776e-12 -4.78328e-12 -7.82823

-35.0578 6.73139 2.55662e-12
6.73139 24.3755 -5.14907e-12
2.55662e-12 -5.14907e-12 -7.56459

-36.1119 6.73636 -4.3447e-12
6.73636 24.4327 -1.06641e-12
-4.3447e-12 -1.06641e-12 -8.30957

74.5896 58.6367 -1.83794e-12
58.6367 34.1746 -1.76215e-12
-1.83794e-12 -1.76215e-12 -21.8724

-6.92099 -28.2011 2.99316e-12
-28.2011 16.8752 1.32102e-12
2.99316e-12 1.32102e-12 -6.11754

8.17191 17.9743 -8.57388e-13
17.9743 -44.876 -1.21325e-12
-8.57388e-13 -1.21325e-12 -12.897

32.7038 9.54006 -6.1912e-12
9.54006 -19.0816 9.29479e-13
-6.1912e-12 9.29479e-13 -4.07518

3.38718 -26.7245 1.40332e-12
-26.7245 13.484 -8.78349e-12
1.40332e-12 -8.78349e-12 -3.8278

26.2378 -20.2385 -3.49705e-12
-20.2385 -20.3245 2.59082e-12
-3.49705e-12 2.59082e-12 -5.86403

65.3935 60.2346 -2.58874e-12
60.2346 34.291 3.56692e-12
-2.58874e-12 3.56692e-12 -23.8673

-13.2427 31.0694 2.09018e-13
31.0694 -16.8823 2.16331e-12
2.09018e-13 2.16331e-12 -12.7863

-18.6058 -19.787 2.7122e-12
-19.787 28.4152 -3.49291e-12
2.7122e-12 -3.49291e-12 -5.97037

11.174 28.8587 -4.42254e-12
28.8587 -13.3239 3.28567e-12
-4.42254e-12 3.28567e-12 -6.43689

-31.8706 -4.14513 8.74264e-13
-4.14513 30.1482 -2.6746e-12
8.74264e-13 -2.6746e-12 -6.3586

-14.5975 19.6101 -2.50318e-12
19.6101 27.1856 1.49806e-13
-2.50318e-12 1.49806e-13 -4.41954

7.47889 30.5201 -4.88498e-13
30.5201 -1.67109 2.88303e-12
-4.88498e-13 2.88303e-12 -5.66131

-9.34591 -22.4743 3.49942e-13
-22.4743 23.1495 -4.96373e-12
3.49942e-13 -4.96373e-12 -4.17629

4.58997 -27.3537 -1.29141e-12
-27.3537 11.449 9.71075e-14
-1.29141e-12 9.71075e-14 -3.93931

24.2726 11.2574 -8.62125e-13
11.2574 102.083 3.68061e-12
-8.62125e-13 3.68061e-12 -12.4046

37.4674 -33.4578 8.40809e-14
-33.4578 69.288 3.0506e-12
8.40809e-14 3.0506e-12 -5.70326

-25.3369 -11.691 -2.21667e-12
-11.691 31.3687 -2.81493e-12
-2.21667e-12 -2.81493e-12 -5.64921

16.0963 26.4855 1.93268e-12
26.4855 -15.5029 1.69346e-13
1.93268e-12 1.69346e-13 -6.21817

4.95524 29.4791 2.29268e-12
29.4791 1.63653 -2.51651e-13
2.29268e-12 -2.51651e-13 -4.99079

-9.85569 -21.4349 3.1104e-12
-21.4349 25.1212 -1.07706e-12
3.1104e-12 -1.07706e-12 -4.03407

-21.6361 -11.783 1.74231e-12
-11.783 32.0826 1.0966e-12
1.74231e-12 1.0966e-12 -4.63802

10.4626 28.4107 -6.98523e-12
28.4107 -0.156874 -3.43429e-14
-6.98523e-12 -3.43429e-14 -4.67368

-21.8481 -13.8785 1.82106e-12
-13.8785 29.4678 1.76511e-12
1.82106e-12 1.76511e-12 -4.84798

6.95828 27.8564 8.91435e-12
27.8564 73.0877 7.23333e-12
8.91435e-12 7.23333e-12 -14.3223

-45.832 -4.04095 -1.88934e-12
-4.04095 14.0478 8.53243e-13
-1.88934e-12 8.53243e-13 -19.9647

0.876381 31.029 3.17198e-12
31.029 7.5199 -1.72188e-12
3.17198e-12 -1.72188e-12 -6.08998

9.71907 14.9017 -2.41881e-12
14.9017 -36.4301 1.30858e-12
-2.41881e-12 1.30858e-12 -10.9859

9.92828 -15.928 -4.37872e-12
-15.928 -39.4111 -2.09847e-12
-4.37872e-12 -2.09847e-12 -13.0695

85.6167 -24.2057 1.89478e-14
-24.2057 7.63557 3.00796e-13
1.89478e-14 3.00796e-13 -12.958

-23.208 -21.2679 -7.46218e-12
-21.2679 10.5138 -1.43944e-12
-7.46218e-12 -1.43944e-12 -6.16615

-16.6018 26.6992 -1.39918e-12
26.6992 1.7782 -3.56456e-13
-1.39918e-12 -3.56456e-13 -6.58864

-26.2007 -21.7277 -4.24934e-12
-21.7277 -5.36615 -5.20476e-12
-4.24934e-12 -5.20476e-12 -23.8664

-41.5951 14.1055 -4.24357e-12
14.1055 -3.55977 -6.84193e-13
-4.24357e-12 -6.84193e-13 -64.1227

-0.893679 9.44528 6.52219e-13
9.44528 -44.2572 -7.03526e-12
6.52219e-13 -7.03526e-12 -64.2242

-20.3837 32.705 -4.27658e-12
32.705 -23.203 4.34911e-13
-4.27658e-12 4.34911e-13 -24.3289

-11.4118 26.0017 -3.14534e-12
26.0017 22.6043 3.78719e-12
-3.14534e-12 3.78719e-12 -5.92661

16.0387 26.6623 -1.46846e-12
26.6623 -17.2884 2.65595e-12
-1.46846e-12 2.65595e-12 -6.55068

30.4291 45.1881 -1.7503e-12
45.1881 47.5565 3.63087e-12
-1.7503e-12 3.63087e-12 -15.1953

-44.8868 -11.3428 -5.94709e-12
-11.3428 -1.80787 4.14483e-13
-5.94709e-12 4.14483e-13 -61.6791

-8.29809 -3.43242 1.75307e-11
-3.43242 -12.7534 -3.37508e-13
1.75307e-11 -3.37508e-13 -77.2212

-14.6897 -0.20959 2.00551e-12
-0.20959 -6.41852 3.11062e-12
2.00551e-12 3.11062e-12 -77.3654

27.6664 -53.8047 -4.84472e-12
-53.8047 71.1521 5.51381e-12
-4.84472e-12 5.51381e-12 -24.3891

-11.6902 -11.5996 -1.53078e-12
-11.5996 -16.205 1.92794e-12
-1.53078e-12 1.92794e-12 -37.4288

-32.6099 8.81241 4.8892e-12
8.81241 -9.41838 -9.35548e-14
4.8892e-12 -9.35548e-14 -49.5379

18.2562 -26.2003 -3.16369e-12
-26.2003 -19.5477 -1.25174e-12
-3.16369e-12 -1.25174e-12 -6.50744

-39.4306 1.01068 -2.63656e-12
1.01068 11.9803 2.03926e-12
-2.63656e-12 2.03926e-12 -19.7216

-30.2035 -20.2685 4.0421e-12
-20.2685 6.30495 4.97972e-13
4.0421e-12 4.97972e-13 -7.21701

10.5364 6.25541 3.41623e-12
6.25541 -52.3903 -2.24842e-12
3.41623e-12 -2.24842e-12 -9.64046

-49.8129 15.5963 -1.7804e-12
15.5963 10.165 -6.9719e-12
-1.7804e-12 -6.9719e-12 -13.5315

-40.2846 7.1914 -3.3614e-12
7.1914 16.5414 1.64017e-12
-3.3614e-12 1.64017e-12 -13.7745

16.4048 20.3936 3.74338e-12
20.3936 -25.842 5.42085e-12
3.74338e-12 5.42085e-12 -7.60844

-9.10032 -3.11391 -2.54759e-12
-3.11391 108.399 1.44477e-12
-2.54759e-12 1.44477e-12 -23.1015

-3.3208 -27.6247 -6.34159e-13
-27.6247 -3.62977 1.71418e-12
-6.34159e-13 1.71418e-12 -5.83088

-7.33534 -26.1171 -2.09788e-12
-26.1171 -14.0824 3.08464e-12
-2.09788e-12 3.08464e-12 -9.81132

-14.1987 -31.4837 2.84454e-12
-31.4837 -21.7779 -4.22773e-12
2.84454e-12 -4.22773e-12 -12.7561

90.7314 32.751 7.31859e-13
32.751 20.9071 9.24002e-13
7.31859e-13 9.24002e-13 -16.5056

-23.1161 -20.1161 -4.19605e-12
-20.1161 -17.3853 6.84267e-13
-4.19605e-12 6.84267e-13 -44.4248

72.6328 54.3243 -6.65542e-12
54.3243 91.6437 8.05282e-12
-6.65542e-12 8.05282e-12 -6.14177

-36.2158 -21.4393 3.99029e-12
-21.4393 -6.79682 2.37144e-13
3.99029e-12 2.37144e-13 -13.0435

15.034 14.6505 -2.96829e-12
14.6505 -37.7526 2.15546e-12
-2.96829e-12 2.15546e-12 -8.17952

44.5738 -14.5731 1.38319e-12
-14.5731 -8.27326 -6.67022e-13
1.38319e-12 -6.67022e-13 -4.41938

-21.2314 24.0474 4.94745e-12
24.0474 4.9554 -1.13332e-12
4.94745e-12 -1.13332e-12 -5.9773

17.3733 20.4284 8.22631e-12
20.4284 -26.7935 2.49578e-13
8.22631e-12 2.49578e-13 -6.95228

-51.1395 11.4 3.86136e-13
11.4 7.71015 -3.00086e-12
3.86136e-13 -3.00086e-12 -29.9929

-7.28762 -31.5808 -3.76706e-12
-31.5808 -12.8272 -2.36759e-12
-3.76706e-12 -2.36759e-12 -8.11989

2.7961 19.8123 1.76215e-12
19.8123 -46.0326 1.25233e-13
1.76215e-12 1.25233e-13 -29.9848

-24.672 -18.4441 1.60375e-12
-18.4441 17.8362 2.50999e-12
1.60375e-12 2.50999e-12 -5.481

-42.3412 4.28349 -5.54193e-13
4.28349 17.8694 4.23483e-12
-5.54193e-13 4.23483e-12 -12.7285

-4.09804 9.92714 2.20031e-12
9.92714 -40.2745 -2.55707e-12
2.20031e-12 -2.55707e-12 -47.5457

-2.68835 -8.51383 -1.89893e-12
-8.51383 -38.3058 -5.63579e-12
-1.89893e-12 -5.63579e-12 -47.4014

81.7256 18.5132 -1.90662e-12
18.5132 1.69953 1.17476e-12
-1.90662e-12 1.17476e-12 -14.4534

3.895 7.96531 1.23161e-12
7.96531 -45.184 2.02401e-12
1.23161e-12 2.02401e-12 -11.0189

35.8739 7.74087 -5.28392e-12
7.74087 184.579 -5.34802e-12
-5.28392e-12 -5.34802e-12 -9.75559

40.1475 -11.3856 1.85126e-12
-11.3856 190.376 -7.12438e-12
1.85126e-12 -7.12438e-12 -7.38735

53.7672 56.4082 -8.21861e-13
56.4082 159.26 -4.09746e-12
-8.21861e-13 -4.09746e-12 -11.4983

1.70841 -28.951 1.49747e-12
-28.951 -24.6912 1.71152e-12
1.49747e-12 1.71152e-12 -11.9633

16.0499 -49.1922 -2.17663e-12
-49.1922 99.4223 3.64745e-12
-2.17663e-12 3.64745e-12 -21.6887

54.5151 -55.9508 -6.22909e-12
-55.9508 149.977 -5.33854e-12
-6.22909e-12 -5.33854e-12 -13.6632

-2.1665 26.2212 -5.09222e-13
26.2212 17.5727 1.6603e-12
-5.09222e-13 1.6603e-12 -3.99684

134.943 73.8455 4.67537e-12
73.8455 85.0277 3.6214e-12
4.67537e-12 3.6214e-12 -10.1573

-18.7207 13.0469 2.19617e-12
13.0469 -3.89965 4.37517e-12
2.19617e-12 4.37517e-12 -26.7684

3.74093 0.0402776 2.29609e-12
0.0402776 -26.1892 4.02907e-12
2.29609e-12 4.02907e-12 -26.7717

144.101 -73.1309 -4.02641e-13
-73.1309 85.3552 -8.21861e-13
-4.02641e-13 -8.21861e-13 -8.19455

-21.3942 -23.4248 2.50526e-12
-23.4248 12.2479 -1.50339e-12
2.50526e-12 -1.50339e-12 -6.49214

89.3491 34.7304 -2.84217e-14
34.7304 41.3911 -2.60414e-12
-2.84217e-14 -2.60414e-12 -11.5477

72.1898 63.4924 -5.06854e-13
63.4924 149.697 -3.5385e-12
-5.06854e-13 -3.5385e-12 -9.67196

26.1652 21.631 4.44326e-12
21.631 100.136 5.59434e-12
4.44326e-12 5.59434e-12 -13.0311

73.8767 -65.9212 -8.3844e-13
-65.9212 151.148 -1.77162e-12
-8.3844e-13 -1.77162e-12 -9.40045

25.7697 -12.3815 1.90366e-12
-12.3815 105.015 -2.26663e-12
1.90366e-12 -2.26663e-12 -12.4281

-28.664 6.84088 -1.4746e-12
6.84088 3.10718 -1.2621e-12
-1.4746e-12 -1.2621e-12 -37.8513

37.7438 -45.9766 9.06416e-12
-45.9766 49.6706 2.72019e-12
9.06416e-12 2.72019e-12 -15.5325

14.4445 47.5335 4.26326e-14
47.5335 94.8826 4.85064e-12
4.26326e-14 4.85064e-12 -22.192

173.344 37.9123 -8.33703e-13
37.9123 48.0437 6.09882e-14
-8.33703e-13 6.09882e-14 -9.52063

7.02035 -29.2865 -1.18424e-15
-29.2865 -14.359 2.46085e-12
-1.18424e-15 2.46085e-12 -7.15682

-38.4183 12.8965 2.39327e-12
12.8965 6.43546 -4.11138e-12
2.39327e-12 -4.11138e-12 -15.2907

88.5075 -38.1138 -2.16005e-12
-38.1138 34.1638 -7.81597e-13
-2.16005e-12 -7.81597e-13 -14.0993

6.04154 -28.8029 8.89363e-13
-28.8029 -16.1729 -2.11268e-12
8.89363e-13 -2.11268e-12 -8.03066

169.21 -36.3442 1.84741e-12
-36.3442 34.9308 1.81188e-13
1.84741e-12 1.81188e-13 -13.2886

-5.72548 -28.3182 2.85401e-12
-28.3182 -14.4736 6.84105e-12
2.85401e-12 6.84105e-12 -9.31015

-17.7917 -25.2958 -6.63262e-12
-25.2958 12.0801 1.58037e-12
-6.63262e-12 1.58037e-12 -5.93528

118.879 69.462 1.86636e-12
69.462 96.222 9.26074e-13
1.86636e-12 9.26074e-13 -11.3986

29.4138 -22.9336 -7.4453e-12
-22.9336 97.7992 -4.31299e-12
-7.4453e-12 -4.31299e-12 -14.3397

117.962 -71.694 4.49063e-12
-71.694 93.6835 7.98176e-13
4.49063e-12 7.98176e-13 -12.4147

22.2655 50.739 7.70939e-12
50.739 73.7809 2.76164e-12
7.70939e-12 2.76164e-12 -24.7771

-1.5369 -30.2131 1.65142e-12
-30.2131 -6.55328 2.25005e-12
1.65142e-12 2.25005e-12 -6.99882

-7.04438 -14.6406 -5.10999e-13
-14.6406 -21.9198 7.54892e-12
-5.10999e-13 7.54892e-12 -32.6126

-11.8918 11.0918 3.44073e-12
11.0918 -16.4289 1.70974e-12
3.44073e-12 1.70974e-12 -77.7877

-26.1667 -5.16015 -1.7469e-12
-5.16015 -6.38727 -3.86929e-12
-1.7469e-12 -3.86929e-12 -77.6215

-38.9424 13.0837 4.23532e-12
13.0837 13.7444 1.56675e-12
4.23532e-12 1.56675e-12 -10.2395

-14.4801 -10.6661 2.93188e-12
-10.6661 -17.3163 -6.93934e-12
2.93188e-12 -6.93934e-12 -78.7504

-25.9005 4.09198 -2.61554e-12
4.09198 -5.91374 1.22305e-11
-2.61554e-12 1.22305e-11 -78.8925

-3.63321 7.43299 -3.62717e-12
7.43299 -27.8588 4.02996e-12
-3.62717e-12 4.02996e-12 -77.9799

-43.9731 -12.1141 2.78074e-13
-12.1141 2.91619 -1.25929e-12
2.78074e-13 -1.25929e-12 -68.1526

11.9735 -30.4714 -1.578e-11
-30.4714 76.1656 -5.98277e-12
-1.578e-11 -5.98277e-12 -14.7011

0.521342 -12.9721 -8.57684e-13
-12.9721 -39.9895 3.22705e-12
-8.57684e-13 3.22705e-12 -45.2741

-16.3487 -34.4171 -4.43971e-12
-34.4171 -22.0692 8.91731e-13
-4.43971e-12 8.91731e-13 -23.5895

-2.42104 -18.1771 6.16455e-12
-18.1771 -29.8945 1.55254e-12
6.16455e-12 1.55254e-12 -33.6248

12.7379 15.4597 -3.25251e-12
15.4597 -37.7173 1.88649e-12
-3.25251e-12 1.88649e-12 -9.62605

-46.9061 9.86351 -3.87727e-13
9.86351 8.87699 1.2399e-12
-3.87727e-13 1.2399e-12 -70.1481

3.46215 19.2266 -9.7374e-13
19.2266 -41.4698 5.67002e-12
-9.7374e-13 5.67002e-12 -70.264

1.47171 11.3071 -4.26118e-12
11.3071 -23.9646 1.13243e-12
-4.26118e-12 1.13243e-12 -31.8661

109.396 -15.3401 -4.538e-12
-15.3401 -12.5355 1.05989e-13
-4.538e-12 1.05989e-13 -25.0367

-14.3216 24.9651 2.92714e-12
24.9651 10.386 -1.60287e-12
2.92714e-12 -1.60287e-12 -5.80576

76.6098 -61.3569 5.87145e-12
-61.3569 37.3671 -4.49537e-12
5.87145e-12 -4.49537e-12 -22.3947

76.1166 -57.4591 1.84267e-12
-57.4591 99.2316 2.97007e-12
1.84267e-12 2.97007e-12 -5.55454

118.2 -36.5453 4.95485e-12
-36.5453 40.6021 -8.32519e-13
4.95485e-12 -8.32519e-13 -7.37794

-51.1115 -5.15884 -4.57219e-12
-5.15884 3.3402 9.37028e-14
-4.57219e-12 9.37028e-14 -60.6557

-50.4755 2.8913 -1.14501e-12
2.8913 3.13447 5.12109e-12
-1.14501e-12 5.12109e-12 -60.1283

-11.9754 -24.4549 -1.79619e-12
-24.4549 -35.0014 -4.07718e-12
-1.79619e-12 -4.07718e-12 -59.1625

-8.99151 -21.759 -3.23948e-12
-21.759 -37.8863 5.34624e-12
-3.23948e-12 5.34624e-12 -59.4721

-14.7022 26.1344 -4.58034e-12
26.1344 -33.0258 -4.13891e-12
-4.58034e-12 -4.13891e-12 -60.7469

-18.156 3.09846 -1.3074e-12
3.09846 -13.1637 6.08617e-12
-1.3074e-12 6.08617e-12 -75.4723

-9.9449 -20.5078 -2.34124e-12
-20.5078 -32.649 2.50555e-12
-2.34124e-12 2.50555e-12 -56.7331

-26.6464 -18.5674 -1.9349e-12
-18.5674 -14.1958 4.67937e-12
-1.9349e-12 4.67937e-12 -71.2667

-15.4773 2.43378 -5.95361e-12
2.43378 -12.8521 -2.3554e-11
-5.95361e-12 -2.3554e-11 -77.8666

-6.0273 -20.525 -5.18511e-12
-20.525 -41.4852 4.1774e-13
-5.18511e-12 4.1774e-13 -60.503

-6.75655 20.9545 3.04105e-12
20.9545 -40.1415 -6.90411e-13
3.04105e-12 -6.90411e-13 -60.0142

-14.3146 -3.45775 4.05069e-12
-3.45775 -11.3898 1.56838e-12
4.05069e-12 1.56838e-12 -76.8811

-11.2631 -3.1161 -1.39146e-11
-3.1161 -17.6879 2.37315e-11
-1.39146e-11 2.37315e-11 -74.0442

-24.2021 12.1096 8.73257e-12
12.1096 -13.4005 -7.72197e-12
8.73257e-12 -7.72197e-12 -69.963

-22.0814 26.9284 -9.66634e-13
26.9284 -26.2662 9.00945e-12
-9.66634e-13 9.00945e-12 -57.5787

VECTORS fluid_flux_TPM float
-8.72256e-05 3.10308e-05 6.30188e-21
3.55975e-06 6.88294e-06 3.67414e-20
-1.27881e-05 -1.02261e-05 -5.26384e-21
-4.17081e-06 4.25427e-06 1.54932e-20
2.2709e-05 -6.31367e-06 -3.1714e-21
2.75776e-06 -1.59045e-05 -3.78469e-21
-8.58014e-05 -3.10955e-05 -7.58183e-21
-1.38931e-05 -1.04674e-05 -4.02966e-21
2.21231e-05 9.45576e-07 1.95541e-21
1.13847e-05 -3.90832e-06 1.00857e-20
5.46043e-05 1.24848e-05 3.02731e-20
2.34702e-06 -1.71951e-05 3.4282e-21
1.36123e-05 1.12545e-05 -4.49411e-21
2.66225e-06 1.37854e-05 2.2171e-20
2.05822e-05 -2.94683e-06 -1.17904e-20
-1.63333e-05 -2.72913e-07 -1.65795e-20
2.7537e-06 1.40996e-05 1.50221e-20
1.01824e-05 -2.39203e-06 -1.55817e-20
9.89923e-06 1.72238e-05 8.8045e-21
-1.48494e-05 1.88558e-06 -1.05292e-20
-3.60138e-06 -2.13053e-05 1.00554e-20
3.41136e-05 5.94222e-05 2.81043e-20
1.56985e-05 1.63141e-06 1.44015e-20
1.1228e-05 -1.12822e-05 -5.56761e-21
-1.50794e-05 -3.33262e-06 -3.09349e-20
-6.77254e-07 -1.11315e-05 -2.66178e-21
6.29085e-05 -4.90886e-06 7.47058e-21
1.4067e-05 1.02495e-05 8.20484e-21
-2.51516e-05 -2.06445e-05 -6.46165e-21
4.91243e-05 -1.2815e-05 -2.51645e-20
-1.65836e-05 -6.03875e-06 -3.31595e-20
5.5376e-06 -3.20395e-05 -7.48573e-21
4.76587e-05 -4.80516e-05 8.25487e-21
-4.92379e-06 -4.12516e-05 1.03798e-20
-2.96761e-05 3.70088e-05 4.43072e-20
-3.8251e-05 -1.63966e-05 -3.23683e-20
3.27057e-05 4.32196e-05 -1.01557e-20
-4.47449e-05 -8.72669e-06 -9.70279e-21
1.43757e-05 -1.10828e-05 -9.08586e-22
4.64744e-05 5.01199e-05 2.1193e-20
3.21324e-05 -1.40233e-05 9.8977e-21
3.36432e-05 -4.23475e-05 1.00375e-20
-1.98983e-05 -5.03833e-05 -1.79613e-20
-1.58994e-05 6.35736e-06 -1.9787e-20
3.05284e-05 -2.93171e-05 6.01539e-21
-3.03355e-05 1.09914e-05 -8.2003e-21
-4.05057e-06 -2.03726e-05 -2.29616e-21
7.8869e-06 2.02138e-05 -3.31692e-21
-1.63441e-05 5.92844e-06 -3.82808e-21
-1.78216e-05 2.87287e-05 1.25359e-20
3.24119e-05 1.52924e-05 -2.42533e-22
2.93682e-05 -1.00762e-05 1.80677e-20
-1.5668e-05 1.57621e-05 2.64514e-20
-2.35438e-05 -2.06926e-05 3.02194e-21
-2.11422e-05 -5.133e-06 -2.40767e-20
-4.47965e-05 2.70792e-05 -4.45834e-21
-2.93752e-05 -3.80274e-05 -5.33992e-21
6.3642e-06 -3.06313e-05 8.67475e-21
-4.77133e-05 6.48363e-06 -5.66131e-21
6.07483e-06 1.36986e-05 9.65549e-21
-5.57749e-06 -8.17444e-06 -3.18077e-20
-6.58436e-06 -1.79458e-05 -4.37166e-21
5.71511e-05 2.48628e-05 1.89602e-20
9.24403e-06 1.81466e-05 2.52576e-20
1.22981e-05 -1.44468e-05 -2.04018e-22
-1.64078e-06 -2.07552e-05 1.79395e-20
4.6217e-06 -8.80669e-06 2.33952e-20
-1.00918e-05 -5.56562e-06 -2.02575e-20
-1.06041e-05 1.19309e-05 1.1014e-21
2.55853e-06 -4.09314e-06 -1.04649e-20
-1.50454e-05 -1.58453e-05 7.47243e-21
-2.13677e-05 5.16661e-06 1.69056e-20
-3.55723e-06 3.44861e-05 1.98421e-21
-1.78743e-05 1.07123e-05 -2.90783e-20
-9.07202e-06 1.46167e-05 7.16384e-22
-6.03633e-05 7.69326e-06 7.32021e-21
7.81913e-06 -2.16845e-05 2.14944e-20
-1.88827e-05 -8.90131e-06 5.88684e-21
1.934e-06 1.16256e-05 -9.64355e-22
2.63046e-05 5.09034e-06 6.56229e-21
3.41738e-05 -2.89791e-05 6.43375e-21
2.21495e-05 2.0559e-05 -6.18e-21
1.19101e-05 -2.82272e-06 -3.16232e-21
-3.21583e-05 2.40706e-05 -1.01042e-20
3.79097e-05 4.84653e-06 9.01186e-21
-4.98142e-06 4.94217e-05 -1.15303e-20
-1.74134e-06 -1.68595e-05 1.63706e-20
1.81264e-05 9.95605e-06 1.228e-20
2.93216e-05 3.029e-05 2.7021e-21
5.50325e-05 3.80188e-05 -9.30108e-21
-5.33205e-06 3.07772e-05 4.8764e-21
5.91881e-05 -3.55175e-05 3.05525e-21
-2.71286e-05 5.34194e-06 -1.80262e-21
1.78418e-05 1.10034e-05 4.78182e-21
-2.96453e-05 9.90476e-06 -2.27526e-21
1.66554e-05 2.85252e-05 1.14833e-20
1.01704e-05 -4.4393e-05 7.26078e-22
1.91576e-06 1.16225e-05 -6.40919e-21
-1.48028e-05 -1.76226e-05 -1.72531e-20
3.07035e-06 1.74772e-05 2.15444e-20
2.64106e-05 5.25822e-06 6.03597e-22
-1.54455e-05 3.3216e-05 3.9375e-21
4.0558e-05 -1.3335e-05 6.30672e-21
-3.77359e-06 7.45611e-06 7.66431e-21
9.95427e-06 5.90015e-06 6.14817e-21
-2.28089e-06 -1.13262e-05 -1.53402e-22
3.22113e-06 -1.92546e-05 1.63104e-21
1.74719e-05 3.89264e-06 -1.34596e-20
-7.93824e-06 4.09785e-05 -1.01955e-21
-9.807e-06 2.4797e-07 1.56566e-20
9.31986e-06 1.18875e-05 -3.94295e-21
-2.1775e-06 -4.17199e-05 -3.42909e-21
4.2029e-05 1.28668e-05 7.41025e-21
4.4232e-06 -7.45425e-06 -1.32061e-20
-1.11468e-05 -3.55415e-06 -2.51851e-20
-2.93299e-05 -1.24878e-05 -9.82769e-21
1.5806e-05 4.11531e-05 -9.48662e-21
-4.34913e-05 -1.55761e-05 -2.76485e-22
1.60208e-05 -4.11296e-05 -6.56142e-21
-3.70029e-06 -3.19247e-05 -4.37102e-21
2.1842e-05 6.52261e-07 2.3176e-20
-7.1725e-06 1.83992e-05 -1.05407e-20
-1.61141e-06 3.97012e-06 1.57946e-20
-3.68648e-06 -1.65411e-05 -3.42148e-21
5.23073e-06 -8.30327e-06 -1.81324e-21
9.36083e-06 1.58658e-05 2.1822e-21
3.31059e-05 1.06539e-05 2.29156e-20
8.6167e-06 -7.45909e-06 -1.7763e-20
-8.27203e-06 -4.51664e-05 -2.81306e-21
2.55557e-05 -1.88225e-05 -3.50161e-22
4.97864e-06 2.77752e-05 9.15225e-21
-2.81673e-06 -2.84201e-06 -4.03455e-20
-8.62746e-06 -8.32701e-06 -6.02596e-21
-4.77733e-06 4.41233e-08 1.79028e-20
-2.28759e-05 2.85982e-05 1.00893e-21
1.87657e-05 -3.73803e-05 6.23791e-21
-2.65837e-05 4.27206e-05 -3.3624e-21
-1.63741e-05 9.53661e-06 -1.97206e-20
2.52831e-06 1.22006e-05 -1.26492e-20
-2.299e-05 -3.49942e-05 -9.32293e-21
1.39381e-05 3.34707e-05 -5.72769e-21
1.75102e-05 9.3705e-06 4.20853e-21
2.28147e-05 -8.52382e-06 3.38117e-21
-1.25335e-06 -1.12669e-05 -9.55251e-22
-3.39164e-05 -3.15625e-05 -3.35179e-21
-2.75185e-06 1.13049e-05 8.85455e-21
1.72491e-05 1.01731e-05 8.80094e-22
1.889e-05 -8.82204e-06 -1.08515e-20
8.24432e-06 -1.43468e-05 -1.03085e-20
2.43603e-05 -1.07968e-05 2.3544e-20
1.90121e-05 -8.99908e-06 8.54437e-21
4.64127e-06 2.05836e-07 -2.64969e-20
2.57442e-05 2.02239e-05 -4.66631e-21
-2.74199e-06 -1.70322e-05 9.76311e-21
-1.04812e-05 -4.45761e-06 -9.82192e-21
1.12601e-06 -3.89061e-06 -5.81984e-21
-3.15547e-06 1.58491e-05 1.94313e-20
-3.48882e-05 2.7685e-06 8.25092e-21
-1.21231e-05 -3.32628e-05 3.15261e-21
-7.88012e-06 9.78034e-06 1.91433e-20
1.35671e-05 1.66426e-05 -1.67065e-20
2.65721e-05 -1.87472e-05 1.02633e-20
-3.67973e-05 -2.03536e-05 -4.47774e-21
1.74054e-05 -2.75112e-05 -3.79713e-21
2.2807e-05 -2.72202e-05 -7.7601e-21
-1.09458e-05 3.78544e-06 -1.46762e-20
-1.98316e-05 -2.88441e-05 -8.14602e-22
-3.48845e-05 -5.7922e-06 1.57949e-21
-3.85289e-06 -3.17469e-05 -1.35154e-20
1.54498e-05 -3.17034e-05 -9.51299e-21
-9.10736e-06 -2.6203e-05 2.10954e-20
4.58187e-06 3.14096e-05 1.44579e-20
-1.57545e-05 -2.85259e-05 1.27826e-20
2.93921e-06 -1.62944e-05 4.03574e-21
-2.47427e-05 1.82624e-05 -1.3697e-21
-1.50328e-05 -1.21127e-05 -1.82717e-20
-2.73565e-05 -5.17313e-06 1.43727e-20
1.56702e-05 -9.18281e-06 -8.65414e-21
-4.3075e-06 2.39557e-05 -1.21942e-20
1.22342e-05 -9.32574e-06 -2.06103e-20
-2.95899e-05 -1.3166e-05 -7.72827e-21
-8.83285e-06 -7.45911e-06 5.30022e-21
9.08333e-06 7.54186e-06 -5.68494e-21
2.14297e-05 2.87046e-05 -1.5998e-21
-1.75112e-05 -1.08107e-05 1.26462e-20
-3.25106e-05 -7.51169e-07 -1.75351e-21
-1.63389e-05 -5.01685e-06 1.11495e-20
-4.57873e-06 -1.65855e-05 1.8514e-20
1.76871e-05 2.12421e-05 9.5903e-21
-1.09588e-05 5.87557e-06 2.33379e-20
6.36146e-07 -2.05581e-05 2.22411e-20
-4.19456e-05 1.08524e-05 -2.07031e-21
2.48639e-05 2.02491e-05 5.43872e-22
3.79507e-06 3.27899e-05 3.52428e-21
-2.4323e-06 3.79773e-06 -1.04686e-20
-9.05216e-06 2.51239e-07 -3.06912e-20
4.3557e-06 7.76115e-06 7.0128e-21
-1.16955e-05 3.40193e-06 1.29287e-20
-2.07365e-06 -3.78544e-06 1.92602e-21
1.66003e-06 2.07628e-05 3.19436e-20
4.47303e-06 4.49755e-07 -1.6621e-20
-1.95408e-05 4.75732e-06 -1.17032e-22
-1.73008e-05 1.93607e-05 2.49286e-20
-3.10787e-06 1.15798e-05 2.58388e-21
-2.92211e-05 1.83969e-05 5.13865e-22
-9.34466e-06 8.98057e-06 2.15932e-20
1.73136e-05 -1.16154e-05 1.0932e-21
3.66093e-05 -3.56518e-06 1.28463e-20
-2.11437e-05 1.12989e-05 -2.20716e-20
2.23332e-06 4.49887e-06 -1.05237e-20
2.17784e-05 -4.3455e-06 -1.88156e-20
-1.72813e-05 1.03543e-05 -1.83445e-20
-9.87317e-06 5.53982e-06 -1.4943e-20
1.18331e-05 3.74323e-06 -1.62139e-20
2.1883e-05 -1.3473e-05 1.43303e-20
-1.73824e-05 9.95753e-06 -2.18897e-20
-2.50405e-05 -5.3038e-06 -6.36585e-21
-1.67641e-05 -4.3631e-06 5.50001e-21
9.87761e-06 6.24722e-09 -3.09498e-20
1.01753e-05 1.95381e-07 1.24538e-21
4.3914e-06 8.31834e-06 3.26063e-20
4.83025e-06 -8.79901e-06 6.48712e-21
-5.01106e-06 8.42102e-06 -1.08187e-20
-5.26742e-06 -8.65882e-06 -1.4832e-20
9.9124e-06 -7.40905e-06 1.35426e-20
-2.03303e-05 3.23537e-06 1.71124e-20
-2.00627e-05 -3.28419e-06 9.17345e-21
-1.28365e-05 1.58787e-05 4.61401e-20
-1.29164e-05 -1.5933e-05 -7.75036e-21
7.48731e-06 -1.98465e-05 -1.74578e-20
7.20702e-06 1.97666e-05 9.21617e-22
1.55805e-06 2.58886e-05 1.63687e-23
1.1242e-05 -3.13727e-06 -1.53538e-20
2.36024e-06 -3.86706e-06 -1.38043e-20
-2.14144e-05 1.42189e-06 -3.61828e-21
7.67824e-06 -1.95157e-05 -9.98475e-21
7.27444e-06 1.96643e-05 -5.5564e-21
4.76946e-06 -5.27206e-08 3.79349e-21
8.96947e-06 2.44065e-05 9.81585e-21
-2.24259e-06 -4.01689e-06 1.16339e-20
2.31808e-06 -1.13185e-05 -1.68538e-20
-2.24335e-05 -1.21532e-05 4.82182e-21
-2.13609e-05 -1.14961e-05 -9.91653e-21
-2.18955e-05 1.36304e-05 -1.58682e-20
3.25168e-06 -1.22892e-05 -4.5108e-21
-1.56552e-06 3.38241e-06 1.90806e-20
-5.87387e-07 -2.55722e-05 6.30764e-21
-7.72117e-06 -2.44259e-05 8.52165e-21
3.27079e-05 3.03661e-05 7.22804e-21
3.54575e-05 -1.81541e-06 3.66768e-21
-1.27126e-05 -3.63261e-06 1.22791e-20
-2.28953e-05 -4.13909e-05 -1.21878e-20
8.30522e-06 1.37495e-05 1.93238e-21
-2.52387e-05 3.03366e-06 -5.00404e-21
2.00675e-05 5.78707e-06 9.99839e-22
-4.53365e-06 -3.27441e-08 -9.67037e-21
-4.66572e-06 -8.4137e-06 -1.35196e-20
-7.0737e-06 -3.93373e-05 -2.04332e-21
-9.70944e-06 -8.39325e-08 1.60495e-21
-4.86798e-05 -1.81592e-06 -9.07492e-21
1.73107e-05 -1.91074e-05 2.89431e-21
2.42964e-06 3.99952e-06 -2.11064e-21
-1.20631e-07 -1.75156e-05 1.50697e-20
-9.81949e-06 2.40865e-05 2.58024e-21
-4.37252e-06 8.62835e-06 8.69113e-21
2.05585e-05 -1.36075e-05 2.12101e-23
-3.76629e-05 -1.35529e-05 -3.80468e-20
-1.52674e-05 -2.03679e-05 2.06588e-20
4.97759e-06 8.38994e-06 -3.49002e-21
1.66328e-05 5.1611e-06 -9.69702e-21
-4.76435e-06 -7.33904e-06 1.29157e-20
1.97984e-05 3.54755e-06 4.6838e-22
1.81902e-05 -9.8267e-06 -1.52613e-20
-3.48842e-07 2.71752e-05 5.52887e-20
8.32112e-06 -1.3668e-05 -9.322e-21
4.8808e-05 2.20078e-06 5.07163e-21
-4.23603e-05 1.14544e-05 4.71208e-21
2.28616e-05 1.1557e-05 1.66956e-20
-6.45337e-06 -1.71804e-05 1.07314e-20
-1.53509e-05 -8.61872e-06 2.97828e-21
2.87892e-05 -2.10557e-07 1.74274e-20
-6.92007e-07 -2.42564e-05 1.07014e-20
-1.26182e-05 -1.08747e-05 -9.40479e-21
1.02245e-05 -2.3501e-05 -1.6158e-20
-4.96616e-07 2.05566e-05 2.20846e-20
7.91817e-06 2.60692e-05 1.22666e-20
1.72689e-05 -9.88479e-06 8.82115e-23
-1.89489e-05 1.92996e-05 -7.56335e-21
1.65287e-05 2.00304e-05 1.10773e-20
-6.22337e-05 1.60227e-05 -1.67089e-20
-1.01096e-05 2.60175e-05 3.9814e-20
1.25197e-05 -1.5249e-05 -2.9704e-21
-7.02943e-06 -1.83987e-05 -1.99258e-20
-1.18541e-05 4.50591e-06 6.64051e-21
-2.58947e-05 -7.04615e-06 -3.20688e-21
-6.38642e-06 3.88598e-05 2.93373e-20
-1.26065e-05 1.19031e-05 -6.43588e-21
2.07776e-05 -4.47581e-06 3.1744e-20
-6.87277e-06 -2.57954e-05 -4.40189e-22
-1.48695e-05 2.38921e-05 1.1161e-20
-2.179e-05 1.25654e-05 -1.1419e-20
-2.05705e-05 -1.50562e-05 4.27704e-21
1.80295e-05 -2.0656e-05 -6.21883e-21
-2.7532e-05 -1.45632e-06 1.36271e-21
1.23678e-05 -4.08122e-05 8.6408e-21
1.93872e-05 -1.8914e-05 4.3971e-21
2.47338e-05 4.30839e-05 -3.00163e-21
1.97123e-06 1.98675e-05 2.0949e-20
2.96128e-06 -2.54224e-05 -3.26902e-21
-4.16384e-05 4.69642e-05 1.64801e-21
-1.27027e-05 -2.44128e-05 2.03157e-20
1.63676e-05 -6.42084e-06 -1.47611e-20
-2.41097e-06 2.57735e-05 -9.25046e-21
1.28836e-05 -1.1827e-05 2.17973e-21
1.38813e-05 2.43141e-05 -5.22929e-21
1.72307e-05 -1.40056e-06 2.09405e-20
2.21213e-05 -6.32196e-05 8.89636e-21
-5.87638e-06 -1.28598e-05 1.4735e-20
-2.31855e-05 1.00876e-05 -7.73379e-22
-2.00209e-05 1.87199e-05 -7.37993e-21
2.16134e-05 1.45683e-05 1.17288e-20
1.86735e-05 -1.07572e-05 -1.45655e-20
1.49527e-05 1.2594e-05 2.89491e-21
-5.42838e-06 4.55252e-08 2.0761e-20
1.54044e-05 -2.30884e-05 1.22843e-21
-1.69911e-05 -2.04102e-05 1.45804e-20
2.25629e-05 9.77418e-06 4.46986e-21
1.28072e-05 -1.19903e-05 -1.62145e-20
9.55443e-06 -2.4853e-05 -1.0082e-20
1.666e-05 -6.93322e-06 -1.16809e-20
-1.58062e-05 -7.545e-06 -2.10293e-20
1.29692e-06 -2.63042e-05 2.57723e-20
-2.61081e-05 4.47331e-06 -1.13235e-20
2.39055e-06 2.4544e-05 9.30867e-21
2.05859e-05 6.62778e-06 -1.54459e-20
-2.17215e-05 -1.07024e-05 -4.52504e-21
-8.97762e-06 2.56113e-05 -1.13056e-20
-1.49543e-06 -2.41892e-05 9.55908e-21
1.94674e-05 1.1838e-05 4.58688e-21
-1.76904e-06 1.80857e-05 -1.04498e-20
-2.01398e-05 1.37033e-05 -7.52465e-22
2.35121e-05 1.14158e-05 -6.79089e-22
-1.71161e-05 -9.98615e-06 -7.50788e-21
9.51253e-08 -1.98358e-05 1.98485e-20
1.83834e-05 1.99853e-05 -4.66813e-21
-2.2155e-05 -1.43044e-05 -1.48323e-20
4.83539e-05 -3.39841e-05 2.27695e-20
1.78981e-05 -1.08231e-05 -8.70295e-21
9.00251e-06 4.30898e-05 6.66446e-21
1.70352e-05 -1.36795e-05 -1.6812e-20
-1.98756e-05 8.70415e-05 -2.0617e-20
-1.97657e-05 -8.65558e-05 2.21728e-20
5.71886e-05 7.17221e-05 8.46829e-21
5.69261e-05 -7.13958e-05 2.89219e-21
9.06533e-05 -1.52078e-10 2.0935e-20
-7.82065e-05 3.76421e-05 8.32641e-21
-7.74608e-05 -3.72862e-05 1.24446e-20
1.22347e-05 1.18195e-05 -1.00002e-20
2.93701e-05 2.1894e-05 -1.10224e-20
1.1449e-05 3.33307e-06 7.80224e-21
1.88571e-05 9.75224e-06 1.9883e-20
4.98964e-06 2.01717e-05 2.2922e-20
-1.88333e-05 -1.49815e-05 -1.91976e-20
1.70393e-05 -1.0215e-05 1.01845e-20
1.98541e-05 1.45505e-05 2.99617e-21
-3.16716e-06 2.43659e-05 -1.4933e-20
2.94429e-05 -1.99944e-05 7.50875e-21
3.79424e-06 -2.37417e-05 6.06333e-22
2.19626e-05 5.22746e-06 3.76379e-21
2.98983e-05 1.10268e-05 -4.00572e-21
1.42099e-05 1.4145e-05 9.73797e-21
1.58845e-05 6.59423e-06 -9.96805e-21
-1.85003e-05 1.09375e-05 -9.29624e-21
-2.2565e-05 9.03741e-06 -5.74164e-21
2.29314e-05 -1.12644e-05 -9.68279e-21
-1.82694e-05 -9.99885e-06 -1.38461e-20
-1.8556e-05 -1.05834e-05 -1.24604e-22
-3.43861e-07 -2.07695e-05 4.92649e-22
-8.6126e-08 -2.11626e-05 8.31338e-21
-2.01288e-05 -1.00556e-06 -1.14178e-20
2.67013e-05 -4.0195e-06 2.88985e-20
1.81136e-05 1.13431e-05 5.15259e-21
-1.78658e-05 1.0946e-05 -7.36508e-21
-1.53628e-05 1.66251e-05 -1.29624e-20
1.60235e-05 -1.37544e-05 1.39662e-20
-1.10244e-05 1.74649e-05 1.68359e-20
-1.42261e-05 -1.48909e-05 5.46181e-21
-1.15532e-06 2.12125e-05 1.86064e-20
-1.28777e-06 2.09701e-05 2.2948e-20
8.97526e-08 -1.98358e-05 2.08092e-20
6.1114e-06 -1.97391e-05 -2.82182e-20
-1.71425e-05 -9.9364e-06 -2.74668e-21
1.55882e-05 -5.49078e-06 4.52715e-21
6.63251e-07 2.14798e-05 3.52265e-20
3.00891e-07 1.85092e-05 2.79206e-20
-2.34595e-06 1.68589e-05 7.86116e-22
2.19108e-05 -5.52792e-06 2.59196e-20
-1.65429e-05 5.37859e-06 -2.26737e-21
4.15788e-06 2.15195e-05 2.60809e-20
-3.25615e-05 1.29205e-05 -1.90842e-21
9.76438e-06 4.17355e-05 1.31025e-20
-1.70551e-05 4.56858e-06 3.82291e-22
1.96864e-05 -1.16312e-05 -4.38983e-21
9.45888e-07 2.10215e-05 1.64103e-20
-2.04833e-05 6.70009e-06 -8.37099e-21
2.44435e-06 -1.62641e-05 1.58061e-20
1.81959e-06 -5.80184e-05 1.44612e-20
2.00669e-06 1.7488e-05 2.30599e-20
-1.69637e-05 1.4024e-05 8.63199e-21
1.7856e-05 6.39782e-05 -5.39997e-21
4.57739e-05 3.77106e-05 -1.59592e-20
5.20702e-05 -3.52592e-05 1.06656e-20
1.4817e-05 -1.01682e-05 -1.79686e-21
-1.57871e-05 1.40391e-05 3.81472e-21
-2.0219e-05 -7.92153e-06 -2.15338e-20
-1.96477e-05 -6.82314e-06 -1.82059e-20
5.92732e-05 -2.46145e-05 1.96751e-21
5.74397e-05 2.38734e-05 -1.87444e-20
1.08957e-05 3.81788e-06 3.56158e-21
7.66735e-07 1.95814e-05 1.91224e-20
7.83873e-08 1.95627e-05 2.28268e-20
-4.83881e-05 -3.6923e-05 7.56213e-21
1.14264e-05 -1.71738e-05 4.42742e-21
1.17345e-05 1.2466e-05 -1.13796e-20
-2.14205e-05 -3.39611e-06 -7.06981e-21
-1.40465e-05 1.7204e-05 6.22245e-21
-1.88906e-05 9.16878e-06 2.63085e-21
4.76486e-05 3.36979e-05 6.6875e-21
1.58082e-05 7.06242e-06 1.9009e-22
-5.56735e-06 2.00326e-05 5.01949e-21
-1.69799e-05 -1.17505e-05 -8.3055e-21
1.85648e-06 -2.05452e-05 9.38265e-21
-8.95071e-06 -1.92695e-05 -5.70737e-21
-1.72511e-05 -1.17749e-05 -4.72179e-21
1.05808e-05 -1.89379e-05 -1.53328e-20
1.41241e-05 -1.69912e-05 4.9634e-21
-2.44052e-06 -6.14445e-05 5.10529e-21
2.61832e-05 -4.11303e-05 -7.94289e-22
1.74772e-06 -2.0788e-05 7.54789e-21
1.79607e-05 1.13567e-05 1.66122e-20
-1.4478e-05 -1.49071e-05 1.09563e-21
-9.84219e-06 1.97124e-05 1.35036e-20
-5.03998e-06 2.10092e-05 9.74072e-22
1.66292e-05 1.42454e-05 -4.9916e-21
6.05973e-06 -1.98637e-05 -1.73322e-20
-1.34079e-05 -4.03628e-05 -1.4862e-20
-1.9886e-06 2.50434e-05 1.52292e-20
1.47936e-05 1.44568e-05 -9.66246e-21
-1.29598e-05 -1.02179e-05 -3.35696e-21
-1.35166e-05 1.06095e-05 -1.44328e-20
4.4348e-05 -1.89154e-05 2.2215e-20
7.56396e-06 -1.34017e-05 -5.05557e-21
-8.31814e-06 -1.26285e-05 -1.90123e-20
2.1333e-05 6.36424e-06 7.96048e-21
1.09956e-05 -5.0668e-05 2.55601e-20
-3.8456e-05 -3.49071e-05 -2.05212e-20
2.33095e-05 6.20813e-06 8.2382e-21
-9.32934e-06 -1.82833e-05 2.3277e-21
1.87079e-05 9.48391e-06 1.65455e-20
-2.85679e-05 -3.25553e-05 -2.46321e-21
9.68936e-06 5.00528e-05 2.43669e-20
3.43383e-05 -5.98669e-05 -2.81398e-21
-3.47413e-05 -5.97837e-05 -1.65249e-20
2.78119e-05 -5.20284e-05 1.03406e-20
-1.26996e-05 4.36384e-05 -7.85648e-21
-6.27682e-06 3.89821e-05 3.17941e-20
-1.8733e-05 8.94697e-06 6.41283e-21
5.97794e-06 2.42451e-05 3.52471e-20
-2.39185e-06 1.26556e-05 1.90369e-20
1.01214e-05 3.23352e-06 7.89016e-21
-3.18884e-06 1.62074e-05 1.19138e-20
-2.47469e-07 2.09942e-05 1.79392e-20
1.66626e-05 9.75174e-06 2.87266e-20
1.71066e-06 5.77312e-05 -2.45875e-20
-1.4719e-05 1.0734e-05 3.08258e-21
1.59513e-05 -6.24735e-06 -7.07344e-21
1.68739e-05 -4.5095e-06 -2.23035e-20
-6.06702e-05 -8.76997e-06 2.81155e-21
-3.46098e-05 1.67435e-05 -1.25504e-20
-4.35199e-05 -5.25527e-05 -1.31816e-21
8.65757e-06 8.34669e-06 1.60198e-20
1.42116e-05 7.29341e-06 -3.56855e-21
2.68079e-05 -4.19635e-06 2.5346e-20
-8.10534e-06 -1.32444e-05 9.8768e-21
1.72186e-05 8.42961e-06 9.86618e-21
7.33622e-06 -3.00382e-05 2.38694e-20
-1.37153e-05 1.02062e-05 -4.81365e-21
-2.2377e-05 -2.14249e-05 -1.79959e-20
-5.83665e-06 1.62997e-05 1.42657e-20
-3.27137e-06 2.0681e-05 3.23116e-20
3.38538e-05 2.12989e-05 -3.73831e-21
3.61175e-05 -1.92851e-05 -1.25868e-20
-4.20755e-05 -1.16245e-05 -6.04934e-21
7.63508e-06 7.68664e-06 -5.60217e-21
-4.05879e-06 0.000101373 -1.37491e-20
8.62101e-07 -0.00010448 2.95794e-20
5.24607e-05 8.76551e-05 -1.42502e-20
-1.91052e-05 8.4589e-06 -2.67185e-20
-2.63794e-05 5.65564e-05 -3.2669e-21
5.30391e-05 -8.46495e-05 1.83666e-20
-1.17219e-05 -1.82845e-05 1.08869e-20
7.8009e-05 6.75053e-05 1.4206e-20
2.39964e-05 -1.79789e-05 2.40731e-20
-3.60784e-06 -2.98256e-05 -1.80065e-20
8.17881e-05 -6.58577e-05 3.1108e-20
-6.74539e-06 1.452e-05 4.14608e-21
-5.38385e-05 -3.48281e-05 3.22385e-21
-4.30181e-05 -9.31409e-05 7.5793e-23
-2.41152e-05 -5.7811e-05 -6.2761e-21
-4.39798e-05 9.4148e-05 -1.76054e-20
-1.00943e-05 6.40913e-05 -4.53595e-21
1.56345e-05 3.71125e-05 1.74102e-20
-2.79585e-05 3.72449e-05 -2.14055e-20
-2.52757e-05 -5.51899e-05 -4.04785e-21
0.000100377 1.73189e-05 1.97439e-20
-1.69294e-05 1.07683e-05 -2.03606e-21
-5.91301e-06 1.63349e-05 2.88246e-20
-5.0764e-05 3.76443e-05 1.4732e-20
-1.72782e-05 9.94527e-06 -1.11574e-20
9.92139e-05 -1.5265e-05 2.43341e-20
-1.53619e-05 7.7996e-06 -1.10752e-20
7.19345e-06 -1.44965e-05 5.92323e-21
-7.79783e-05 -6.09555e-05 2.85156e-21
-2.58817e-05 5.77239e-05 -2.60934e-20
-7.91313e-05 6.03827e-05 -2.54931e-21
2.45432e-05 5.19561e-05 -1.28302e-20
-1.47692e-05 1.05836e-05 2.26494e-21
-2.05322e-05 2.44794e-05 -1.92812e-21
-2.85359e-05 4.98235e-05 2.09505e-20
-5.67824e-05 2.08022e-07 5.35965e-21
-9.44197e-07 1.62979e-05 2.45231e-21
-2.88529e-05 -5.04122e-05 8.78936e-21
-5.8205e-05 -2.1985e-07 -1.92722e-20
-2.83527e-05 4.87018e-05 7.90867e-21
-1.5192e-05 6.62736e-05 4.87944e-20
-1.78667e-05 4.12653e-05 -7.83256e-21
-3.39041e-05 2.71404e-05 -7.18862e-21
2.43857e-05 -6.05762e-06 -1.78582e-20
3.8007e-05 -2.19554e-06 2.09511e-20
1.34839e-05 8.20123e-06 -1.2983e-20
-1.04703e-05 -7.3996e-05 -1.63312e-20
-6.94568e-05 -2.79774e-05 -4.24794e-21
3.71364e-05 7.32807e-07 -1.03226e-21
5.83727e-05 -1.08933e-05 2.72114e-20
-1.05849e-05 -1.34986e-05 -2.99981e-21
-5.08344e-05 3.76301e-05 -5.56155e-21
-4.61388e-05 5.40064e-05 2.29556e-21
6.23697e-05 -2.22349e-05 1.87104e-20
-2.81806e-05 -5.05028e-05 1.19884e-20
-2.87803e-05 4.97851e-05 3.54445e-20
-5.72609e-05 -1.1713e-06 -9.87832e-21
-2.65763e-05 5.06035e-05 -2.49804e-21
-5.79597e-05 -8.17099e-07 -7.34053e-21
6.60836e-05 1.73944e-05 1.14805e-20
5.63866e-05 1.29267e-06 2.27055e-20
5.09059e-05 -2.92772e-05 -3.48004e-21
2.49131e-05 -5.94338e-05 -5.63191e-21
2.99219e-05 -4.88623e-05 -1.68169e-20
2.91707e-05 4.86863e-05 1.22836e-20
2.43478e-05 5.80959e-05 1.36212e-20
7.58109e-05 -2.00399e-05 -1.07875e-20
4.62716e-05 2.90665e-05 -4.29825e-21
4.66295e-05 1.3747e-05 -1.3603e-20
TENSORS solid_stress_TPM float
375.042 -24.9208 -1.77636e-12
-24.9208 238.576 -1.76096e-12
-1.77636e-12 -1.76096e-12 197.823

457.018 -21.3205 -5.04012e-12
-21.3205 490.003 9.6397e-13
-5.04012e-12 9.6397e-13 487.125

454.893 28.0442 2.87592e-12
28.0442 463.723 4.20404e-14
2.87592e-12 4.20404e-14 458.472

455.043 -29.8426 -1.23827e-12
-29.8426 482.625 8.91139e-13
-1.23827e-12 8.91139e-13 484.871

527.698 19.9309 -2.32999e-12
19.9309 548.465 -2.50526e-12
-2.32999e-12 -2.50526e-12 527.369

437.325 -18.0751 -1.92587e-13
-18.0751 480.353 5.60381e-12
-1.92587e-13 5.60381e-12 458.053

372.336 26.485 1.08476e-12
26.485 239.096 3.61548e-12
1.08476e-12 3.61548e-12 197.808

473.666 29.9585 9.58641e-13
29.9585 469.516 -1.64076e-12
9.58641e-13 -1.64076e-12 472.351

471.563 5.48332 -1.37372e-13
5.48332 417.835 -2.52028e-12
-1.37372e-13 -2.52028e-12 432.809

504.274 -7.4776 8.29559e-13
-7.4776 444.126 1.38696e-12
8.29559e-13 1.38696e-12 483.466

360.303 16.3093 -8.02913e-13
16.3093 247.662 1.26713e-12
-8.02913e-13 1.26713e-12 233.652

444.796 -13.4536 4.41129e-13
-13.4536 498.4 8.71007e-13
4.41129e-13 8.71007e-13 472.253

466.881 27.8339 -3.42837e-13
27.8339 468.316 -3.20692e-12
-3.42837e-13 -3.20692e-12 466.748

457.05 -14.3405 3.20356e-12
-14.3405 500.448 -5.29946e-13
3.20356e-12 -5.29946e-13 483.471

512.949 33.3104 -5.80484e-12
33.3104 511.609 -6.84878e-13
-5.80484e-12 -6.84878e-13 515.238

489.187 0.561018 9.166e-13
0.561018 435.536 -9.31949e-13
9.166e-13 -9.31949e-13 462.285

457.597 -17.969 5.29524e-12
-17.969 512.9 2.40163e-12
5.29524e-12 2.40163e-12 493.61

493.972 -2.6652 2.86586e-12
-2.6652 439.062 8.90399e-14
2.86586e-12 8.90399e-14 474.277

418.805 26.6749 2.54522e-12
26.6749 449.673 -4.04417e-13
2.54522e-12 -4.04417e-13 424.066

481.996 -4.19576 3.23889e-13
-4.19576 424.934 8.28744e-13
3.23889e-13 8.28744e-13 453.488

425.309 8.66903 3.65101e-12
8.66903 481.917 3.29692e-12
3.65101e-12 3.29692e-12 444.854

634.131 6.28698 8.64842e-12
6.28698 633.967 1.32102e-12
8.64842e-12 1.32102e-12 570.325

479.167 1.87603 -1.85866e-12
1.87603 422.953 -2.01609e-12
-1.85866e-12 -2.01609e-12 449.745

447.176 -27.7162 -2.35397e-12
-27.7162 461.164 1.96583e-12
-2.35397e-12 1.96583e-12 452.961

481.063 6.8496 -3.46745e-12
6.8496 425.453 1.28223e-12
-3.46745e-12 1.28223e-12 452.951

449.771 19.1132 2.24332e-12
19.1132 490.332 9.31699e-13
2.24332e-12 9.31699e-13 478.219

377.665 4.18157 3.54798e-12
4.18157 291.662 -3.04527e-12
3.54798e-12 -3.04527e-12 259.01

462.698 30.7467 -5.86198e-13
30.7467 460.727 2.5695e-12
-5.86198e-13 2.5695e-12 460.558

384.952 37.0761 -2.53072e-12
37.0761 383.531 -3.42482e-12
-2.53072e-12 -3.42482e-12 348.429

586.948 10.3235 3.97608e-13
10.3235 563.459 -4.02008e-12
3.97608e-13 -4.02008e-12 546.882

491.702 14.2171 -8.72191e-13
14.2171 442.51 1.53773e-12
-8.72191e-13 1.53773e-12 465.869

352.865 -17.7812 -3.63561e-13
-17.7812 416.736 -1.60227e-12
-3.63561e-13 -1.60227e-12 348.6

331.026 -42.1033 -1.73609e-12
-42.1033 335.882 4.59011e-12
-1.73609e-12 4.59011e-12 253.49

531.418 5.9862 -7.96178e-13
5.9862 586.897 -1.3302e-12
-7.96178e-13 -1.3302e-12 538.592

554.031 -4.83984 -2.97643e-12
-4.83984 582.079 -2.64825e-12
-2.97643e-12 -2.64825e-12 542.522

577.994 21.0276 -5.51322e-12
21.0276 539.956 2.28972e-12
-5.51322e-12 2.28972e-12 538.36

556.192 5.06667 -1.55032e-12
5.06667 600.68 -1.26388e-12
-1.55032e-12 -1.26388e-12 547.979

573.782 -9.17033 -4.31832e-12
-9.17033 555.773 -2.10554e-12
-4.31832e-12 -2.10554e-12 540.648

467.141 -27.9989 2.82974e-12
-27.9989 466.505 -6.61989e-13
2.82974e-12 -6.61989e-13 465.12

330.411 41.5225 -1.72425e-12
41.5225 337.98 5.54223e-13
-1.72425e-12 5.54223e-13 253.848

414.538 -17.9499 -9.21337e-13
-17.9499 354.497 7.28306e-14
-9.21337e-13 7.28306e-14 346.33

559.313 -3.70534 3.07043e-12
-3.70534 599.93 1.56097e-12
3.07043e-12 1.56097e-12 548.393

586.419 19.5543 -7.59837e-13
19.5543 572.461 -6.73239e-13
-7.59837e-13 -6.73239e-13 548.182

490.907 -12.2734 6.26462e-13
-12.2734 442.865 3.98052e-13
6.26462e-13 3.98052e-13 466.541

341.717 -43.3008 8.76336e-14
-43.3008 345.345 2.88836e-12
8.76336e-14 2.88836e-12 288.984

417.564 -18.0642 -3.45679e-12
-18.0642 357.114 1.01015e-12
-3.45679e-12 1.01015e-12 351.504

413.017 17.0864 6.78687e-12
17.0864 464.788 1.31391e-12
6.78687e-12 1.31391e-12 428.731

429.634 19.3398 5.88566e-13
19.3398 466.518 1.04805e-12
5.88566e-13 1.04805e-12 437.085

486.786 -16.3015 1.43174e-12
-16.3015 432.879 8.48506e-13
1.43174e-12 8.48506e-13 458.682

355.583 -34.1869 4.14779e-12
-34.1869 389.405 2.46677e-12
4.14779e-12 2.46677e-12 332.571

410.256 19.1826 -6.07396e-12
19.1826 350.704 3.04941e-12
-6.07396e-12 3.04941e-12 339.48

425.205 -25.2894 -7.03793e-12
-25.2894 383.824 1.03739e-12
-7.03793e-12 1.03739e-12 373.08

519.924 19.485 -6.22732e-12
19.485 547.535 1.39444e-13
-6.22732e-12 1.39444e-13 525.735

416.417 29.6506 -3.40468e-12
29.6506 393.889 -3.36205e-12
-3.40468e-12 -3.36205e-12 373.944

522.18 -21.8127 -3.67262e-12
-21.8127 541.399 -4.65637e-13
-3.67262e-12 -4.65637e-13 524.382

364.074 -42.7128 -3.4485e-12
-42.7128 343.285 -4.78077e-12
-3.4485e-12 -4.78077e-12 289.701

553.453 5.45883 -6.55076e-12
5.45883 583.871 -6.34159e-13
-6.55076e-12 -6.34159e-13 542.896

373.719 -5.33004 4.54126e-12
-5.33004 436.668 2.01913e-12
4.54126e-12 2.01913e-12 373.828

580.819 10.3844 -1.65112e-12
10.3844 556.173 5.86665e-13
-1.65112e-12 5.86665e-13 542.653

435.061 21.4137 1.3598e-12
21.4137 473.767 1.93445e-12
1.3598e-12 1.93445e-12 454.677

513.579 5.75424 -1.47956e-12
5.75424 452.813 -3.6288e-12
-1.47956e-12 -3.6288e-12 494.872

522.465 11.4589 -7.37484e-13
11.4589 487.868 -3.02454e-12
-7.37484e-13 -3.02454e-12 507.085

383.71 31.8208 -2.15058e-12
31.8208 315.197 -2.63019e-12
-2.15058e-12 -2.63019e-12 269.874

482.094 -6.03554 -3.42097e-13
-6.03554 528.187 1.8859e-12
-3.42097e-13 1.8859e-12 504.107

487.103 9.52004 1.23782e-12
9.52004 523.697 3.38218e-12
1.23782e-12 3.38218e-12 507.503

456.465 -2.88109 -2.15764e-12
-2.88109 520.164 -1.48859e-12
-2.15764e-12 -1.48859e-12 487.814

464.462 23.4017 4.37798e-13
23.4017 503.478 3.80703e-12
4.37798e-13 3.80703e-12 495.448

496.756 8.46378 2.32051e-12
8.46378 444.406 2.31474e-12
2.32051e-12 2.31474e-12 477.706

445.514 -28.2403 -2.59851e-12
-28.2403 459.537 9.87062e-13
-2.59851e-12 9.87062e-13 451.175

501.69 -1.71135 4.51639e-13
-1.71135 444.925 7.81227e-13
4.51639e-13 7.81227e-13 489.077

519.537 -19.261 -1.20925e-12
-19.261 546.828 5.2968e-12
-1.20925e-12 5.2968e-12 525.468

523.309 21.3078 -1.32783e-12
21.3078 542.924 -1.67734e-12
-1.32783e-12 -1.67734e-12 525.271

353.415 -16.5841 -6.94348e-12
-16.5841 415.743 2.07242e-13
-6.94348e-12 2.07242e-13 346.119

506.028 -27.9365 9.91799e-13
-27.9365 485.317 9.84398e-13
9.91799e-13 9.84398e-13 493.887

449.729 -25.1353 -3.01921e-12
-25.1353 471.229 -2.74684e-12
-3.01921e-12 -2.74684e-12 458.586

357.876 -31.7117 9.80549e-13
-31.7117 285.681 5.62513e-12
9.80549e-13 5.62513e-12 249.862

498.505 3.2228 -2.23525e-12
3.2228 541.412 -6.60805e-13
-2.23525e-12 -6.60805e-13 513.649

501.734 28.9443 1.23102e-12
28.9443 474.557 9.59529e-13
1.23102e-12 9.59529e-13 487.665

448.453 19.6645 1.6677e-12
19.6645 492.117 -9.70779e-13
1.6677e-12 -9.70779e-13 477.651

440.201 7.99986 1.82965e-12
7.99986 373.044 -1.19549e-12
1.82965e-12 -1.19549e-12 382.942

386.459 -33.9369 9.59233e-14
-33.9369 360.213 2.15058e-12
9.59233e-14 2.15058e-12 319.442

537.724 -10.5872 -4.36066e-12
-10.5872 556.144 -6.96036e-13
-4.36066e-12 -6.96036e-13 531.255

482.665 23.8998 -2.28765e-12
23.8998 504.568 -2.22613e-12
-2.28765e-12 -2.22613e-12 502.051

385.379 -32.3851 -2.34361e-12
-32.3851 345.313 -2.50585e-12
-2.34361e-12 -2.50585e-12 317.087

422.206 10.7915 1.71951e-12
10.7915 363.858 -4.3839e-12
1.71951e-12 -4.3839e-12 350.26

307.657 -21.2068 1.46846e-12
-21.2068 388.451 3.8393e-12
1.46846e-12 3.8393e-12 288.121

434.453 14.426 1.39052e-12
14.426 488.678 -5.93599e-12
1.39052e-12 -5.93599e-12 460.893

509.729 23.1437 -3.13231e-13
23.1437 475.18 -2.0286e-12
-3.13231e-13 -2.0286e-12 489.955

338.247 42.2003 -2.6444e-12
42.2003 349.578 -5.35039e-12
-2.6444e-12 -5.35039e-12 288.957

634.217 16.5063 3.67343e-12
16.5063 603.071 1.01836e-11
3.67343e-12 1.01836e-11 565.33

372.896 -4.10854 -5.14285e-12
-4.10854 436.827 7.24635e-12
-5.14285e-12 7.24635e-12 373.435

637.122 -16.6316 6.05242e-12
-16.6316 599.542 -5.8374e-12
6.05242e-12 -5.8374e-12 564.837

533.946 -27.3349 -2.28913e-12
-27.3349 507.246 1.07174e-13
-2.28913e-12 1.07174e-13 515.722

505.305 27.4248 -5.85606e-13
27.4248 466.343 -3.38781e-12
-5.85606e-13 -3.38781e-12 485.081

426.935 -24.4115 -3.34547e-12
-24.4115 386.247 1.86873e-12
-3.34547e-12 1.86873e-12 375.986

358.944 31.3245 8.23045e-14
31.3245 396.013 -3.69719e-12
8.23045e-14 -3.69719e-12 339.208

339.831 -10.7055 -8.32519e-13
-10.7055 408.401 1.76688e-12
-8.32519e-13 1.76688e-12 319.112

453.115 21.9709 -2.09136e-12
21.9709 494.69 -2.59378e-12
-2.09136e-12 -2.59378e-12 483.178

533.122 16.7945 4.52675e-13
16.7945 506.206 -2.682e-12
4.52675e-13 -2.682e-12 513.361

443.463 15.1544 3.24185e-14
15.1544 488.451 6.18942e-12
3.24185e-14 6.18942e-12 464.293

451.492 15.9544 5.29118e-12
15.9544 400.546 -9.65746e-13
5.29118e-12 -9.65746e-13 403.756

374.497 -21.4734 2.79421e-12
-21.4734 419.877 -1.9386e-12
2.79421e-12 -1.9386e-12 357.206

389.732 -29.3918 -2.20268e-13
-29.3918 342.377 9.34956e-13
-2.20268e-13 9.34956e-13 314.398

454.977 -24.5734 -3.73568e-12
-24.5734 480.076 -1.13894e-12
-3.73568e-12 -1.13894e-12 478.381

466.437 27.4516 2.95823e-12
27.4516 478.754 1.55727e-12
2.95823e-12 1.55727e-12 479.82

452.228 23.1878 2.34124e-12
23.1878 492.571 -1.85244e-12
2.34124e-12 -1.85244e-12 482.054

466.306 13.169 -1.29815e-12
13.169 529.786 1.30858e-13
-1.29815e-12 1.30858e-13 501.393

490.874 9.37243 1.11555e-12
9.37243 437.9 1.55328e-12
1.11555e-12 1.55328e-12 462.066

327.719 -4.66521 -2.52805e-12
-4.66521 403.391 -3.05533e-12
-2.52805e-12 -3.05533e-12 314.419

462.591 -36.8326 8.30743e-13
-36.8326 487.702 -2.07982e-14
8.30743e-13 -2.07982e-14 492.759

445.86 27.4661 3.47544e-12
27.4661 463.282 -2.85046e-12
3.47544e-12 -2.85046e-12 455.025

305.678 2.17037 -2.62686e-12
2.17037 393.37 -1.85215e-12
-2.62686e-12 -1.85215e-12 297.263

386.006 34.6117 9.49759e-13
34.6117 332.455 -8.80481e-13
9.49759e-13 -8.80481e-13 306.253

453.362 -22.9744 -1.12443e-12
-22.9744 480.082 -1.00157e-12
-1.12443e-12 -1.00157e-12 476.184

501.406 5.73295 5.32759e-12
5.73295 441.327 5.58368e-13
5.32759e-12 5.58368e-13 481.021

422.392 27.2051 -1.24345e-12
27.2051 389.777 1.97057e-12
-1.24345e-12 1.97057e-12 374.244

570.549 12.7452 1.90381e-12
12.7452 565.923 -3.47219e-12
1.90381e-12 -3.47219e-12 542.924

396.188 24.3315 -3.06244e-12
24.3315 349.656 -7.1824e-13
-3.06244e-12 -7.1824e-13 319.052

569.171 -13.0547 -6.9722e-14
-13.0547 565.835 -8.74856e-13
-6.9722e-14 -8.74856e-13 542.38

375.101 0.778585 -7.28454e-13
0.778585 438.881 2.71901e-12
-7.28454e-13 2.71901e-12 374.65

461.483 -2.2354 4.40181e-12
-2.2354 399.313 2.685e-12
4.40181e-12 2.685e-12 417.292

538.206 -15.7674 2.8096e-13
-15.7674 480.642 -1.73106e-12
2.8096e-13 -1.73106e-12 513.488

457.257 24.3882 -2.17611e-13
24.3882 487.797 -2.79391e-12
-2.17611e-13 -2.79391e-12 488.366

461.267 -13.5351 1.3478e-12
-13.5351 519.147 -2.75335e-13
1.3478e-12 -2.75335e-13 495.725

514.981 -7.99976 2.10498e-13
-7.99976 438.204 1.76599e-12
2.10498e-13 1.76599e-12 494.288

488.325 -22.2833 2.60059e-12
-22.2833 541.612 -1.34944e-12
2.60059e-12 -1.34944e-12 515.76

556.058 -6.59727 6.6418e-12
-6.59727 560.402 -3.99384e-12
6.6418e-12 -3.99384e-12 538.738

463.878 -29.9083 1.01696e-12
-29.9083 483.208 2.10202e-14
1.01696e-12 2.10202e-14 483.612

341.715 11.4541 4.87876e-12
11.4541 406.204 6.20067e-12
4.87876e-12 6.20067e-12 319.491

422.492 -28.1476 -4.13417e-12
-28.1476 391.252 2.6823e-13
-4.13417e-12 2.6823e-13 375.157

507.39 -13.7715 1.35151e-13
-13.7715 558.757 -3.95003e-12
1.35151e-13 -3.95003e-12 525.261

501.069 0.504648 -7.98472e-13
0.504648 441.292 1.28741e-12
-7.98472e-13 1.28741e-12 487.098

476.953 -21.5243 8.49691e-13
-21.5243 507.433 -3.22705e-13
8.49691e-13 -3.22705e-13 501.516

459.11 25.6979 -3.88682e-12
25.6979 484.613 -1.52719e-12
-3.88682e-12 -1.52719e-12 487.993

394.44 -31.4656 -4.1851e-12
-31.4656 400.609 1.27187e-12
-4.1851e-12 1.27187e-12 357.531

552.133 -7.08412 4.50751e-13
-7.08412 585.302 -1.74349e-12
4.50751e-13 -1.74349e-12 542.611

347.218 -33.0779 1.08334e-11
-33.0779 382.617 -9.18258e-12
1.08334e-11 -9.18258e-12 303.443

490.882 -19.1801 3.10033e-12
-19.1801 448.398 3.73242e-12
3.10033e-12 3.73242e-12 467.135

519.719 1.97071 -5.02339e-13
1.97071 466.826 1.34825e-12
-5.02339e-13 1.34825e-12 502.842

570.567 17.8747 6.24271e-12
17.8747 566.486 -3.64834e-12
6.24271e-12 -3.64834e-12 542.384

375.3 20.1836 -7.03674e-12
20.1836 424.043 -1.89478e-13
-7.03674e-12 -1.89478e-13 360.23

489.093 27.2112 -2.04163e-12
27.2112 468.551 -1.57326e-12
-2.04163e-12 -1.57326e-12 476.65

454.391 -24.5124 4.92051e-12
-24.5124 415.352 2.69621e-12
4.92051e-12 2.69621e-12 418.613

454.729 -17.8388 1.68321e-12
-17.8388 494.919 -3.19744e-13
1.68321e-12 -3.19744e-13 482.652

379.208 35.0694 6.49791e-12
35.0694 366.039 1.49214e-13
6.49791e-12 1.49214e-13 317.056

449.164 -21.8312 2.26337e-13
-21.8312 491.716 -3.91154e-12
2.26337e-13 -3.91154e-12 479.785

485.502 30.8509 -1.90722e-12
30.8509 465.146 -3.36797e-12
-1.90722e-12 -3.36797e-12 473.456

480.334 -25.2446 -1.06581e-14
-25.2446 442.377 9.91799e-13
-1.06581e-14 9.91799e-13 455.453

448.229 -25.127 3.21225e-13
-25.127 469.779 8.009e-12
3.21225e-13 8.009e-12 458.107

445.356 -18.6888 7.3778e-13
-18.6888 393.47 -7.33635e-13
7.3778e-13 -7.33635e-13 397.267

470.664 -18.8502 -4.07259e-12
-18.8502 422.863 2.20742e-12
-4.07259e-12 2.20742e-12 437.542

459.01 -25.3372 -3.57492e-13
-25.3372 485.44 2.22318e-12
-3.57492e-13 2.22318e-12 488.836

386.55 35.9707 9.10679e-13
35.9707 381.996 4.448e-12
9.10679e-13 4.448e-12 348.124

444.505 15.3772 -1.23871e-12
15.3772 491.543 -6.86443e-12
-1.23871e-12 -6.86443e-12 467.149

469.406 26.4227 6.93963e-13
26.4227 479.968 -3.66907e-12
6.93963e-13 -3.66907e-12 482.556

456.153 25.4736 3.29857e-12
25.4736 486.657 -7.56432e-13
3.29857e-12 -7.56432e-13 487.256

457.816 11.6219 -2.44226e-12
11.6219 506.95 3.03106e-12
-2.44226e-12 3.03106e-12 486.024

431.961 -8.22728 -3.94351e-12
-8.22728 370.763 1.00616e-12
-3.94351e-12 1.00616e-12 363.314

376.787 18.6071 1.98952e-12
18.6071 427.275 -1.16174e-12
1.98952e-12 -1.16174e-12 363.891

452.322 -24.381 -3.4032e-12
-24.381 478.395 -1.17417e-12
-3.4032e-12 -1.17417e-12 470.721

440.755 25.6667 4.93294e-12
25.6667 455.65 1.11792e-12
4.93294e-12 1.11792e-12 437.814

390.963 -35.6306 5.38236e-12
-35.6306 380.284 1.89241e-12
5.38236e-12 1.89241e-12 350.098

368.948 38.3179 2.69414e-12
38.3179 327.258 -2.52006e-12
2.69414e-12 -2.52006e-12 295.688

363.653 -33.3122 2.7048e-12
-33.3122 394.443 -6.03132e-12
2.7048e-12 -6.03132e-12 341.985

397.937 -31.1607 -7.22385e-13
-31.1607 404.2 -5.80513e-12
-7.22385e-13 -5.80513e-12 362.98

502.866 -6.83863 3.35879e-12
-6.83863 442.259 -1.24767e-12
3.35879e-12 -1.24767e-12 482.326

393.171 30.3428 9.4739e-14
30.3428 408.986 2.67756e-12
9.4739e-14 2.67756e-12 363.44

429.709 13.2951 9.59233e-14
13.2951 372.253 -3.29307e-12
9.59233e-14 -3.29307e-12 362.72

350.149 13.3793 1.88101e-12
13.3793 418.521 1.68399e-12
1.88101e-12 1.68399e-12 348.48

379.485 -22.3411 1.61056e-13
-22.3411 423.52 -3.41061e-12
1.61056e-13 -3.41061e-12 363.454

491.214 -1.09186 4.90274e-13
-1.09186 550.883 2.82559e-12
4.90274e-13 2.82559e-12 516.312

372.869 2.2467 3.18175e-12
2.2467 437.795 4.57234e-12
3.18175e-12 4.57234e-12 373.526

357.895 31.0903 -1.66089e-12
31.0903 399.493 1.80715e-12
-1.66089e-12 1.80715e-12 341.966

457.999 12.1081 2.26402e-13
12.1081 510.569 -5.50671e-14
2.26402e-13 -5.50671e-14 488.411

421.46 -27.6486 1.07529e-12
-27.6486 389.078 1.65556e-12
1.07529e-12 1.65556e-12 375.078

524.763 20.557 -3.46626e-12
20.557 469.757 -1.23871e-12
-3.46626e-12 -1.23871e-12 500.742

534.931 26.2704 -8.92323e-13
26.2704 506.866 -2.30734e-12
-8.92323e-13 -2.30734e-12 516.1

494.825 -18.5681 4.99571e-12
-18.5681 449.033 -5.23433e-13
4.99571e-12 -5.23433e-13 470.864

554.59 -1.80197 3.43148e-12
-1.80197 516.028 -3.86713e-12
3.43148e-12 -3.86713e-12 525.723

473.296 -31.8122 -1.51879e-13
-31.8122 475.705 4.61882e-12
-1.51879e-13 4.61882e-12 478.585

412.605 23.3286 2.96059e-14
23.3286 357.201 -9.12455e-13
2.96059e-14 -9.12455e-13 348.097

464.186 30.1622 -1.37046e-12
30.1622 482.777 7.12023e-13
-1.37046e-12 7.12023e-13 483.213

464.448 29.206 5.2817e-12
29.206 482.25 7.67386e-13
5.2817e-12 7.67386e-13 482.774

393.953 30.6619 7.08411e-12
30.6619 405.731 -1.00187e-12
7.08411e-12 -1.00187e-12 360.875

502.862 27.0854 9.33772e-13
27.0854 482.673 1.79294e-12
9.33772e-13 1.79294e-12 490.742

415.359 3.52527 1.78228e-12
3.52527 339.022 -2.20498e-12
1.78228e-12 -2.20498e-12 340.83

493.13 31.8172 -3.72058e-12
31.8172 487.232 -3.52074e-12
-3.72058e-12 -3.52074e-12 495.583

476.333 -12.5995 -1.74571e-12
-12.5995 522.459 -1.78109e-12
-1.74571e-12 -1.78109e-12 500.255

536.933 24.2779 2.41436e-12
24.2779 507.408 -8.02321e-14
2.41436e-12 -8.02321e-14 516.637

468.187 -29.5789 -6.42449e-13
-29.5789 479.979 -1.82787e-12
-6.42449e-13 -1.82787e-12 483.07

464.568 -4.89783 3.42635e-12
-4.89783 521.564 -5.93895e-13
3.42635e-12 -5.93895e-13 490.987

400.947 -24.5572 1.07529e-12
-24.5572 349.029 1.87939e-12
1.07529e-12 1.87939e-12 323.956

418.975 29.6942 1.08121e-12
29.6942 392.471 3.4864e-12
1.08121e-12 3.4864e-12 373.776

352.35 14.6971 8.83604e-12
14.6971 417.22 7.56728e-13
8.83604e-12 7.56728e-13 348.246

500.539 -1.13902 1.65542e-12
-1.13902 442.804 -3.13527e-13
1.65542e-12 -3.13527e-13 487.718

492.481 0.00220634 4.8388e-12
0.00220634 438.112 -1.07991e-12
4.8388e-12 -1.07991e-12 474.428

452.975 23.1244 -1.49821e-12
23.1244 479.717 1.16381e-12
-1.49821e-12 1.16381e-12 475.595

481.313 23.8712 9.36436e-13
23.8712 502.882 -1.0722e-12
9.36436e-13 -1.0722e-12 501.262

456.598 -24.3808 1.23207e-12
-24.3808 487.363 -2.17989e-12
1.23207e-12 -2.17989e-12 488.507

457.845 -0.673032 1.29878e-12
-0.673032 517.951 -8.90547e-13
1.29878e-12 -8.90547e-13 486.409

458.895 25.5906 2.825e-12
25.5906 486.479 -3.57714e-13
2.825e-12 -3.57714e-13 488.529

465.572 -10.3083 -3.01389e-12
-10.3083 408.094 1.758e-12
-3.01389e-12 1.758e-12 427.234

400.875 -32.8348 -5.12538e-12
-32.8348 414.967 -2.47447e-12
-5.12538e-12 -2.47447e-12 385.176

518.109 -2.30119 -4.45703e-12
-2.30119 465.752 3.66433e-12
-4.45703e-12 3.66433e-12 500.94

391.883 -34.5096 -3.81088e-12
-34.5096 379.617 2.80901e-12
-3.81088e-12 2.80901e-12 347.428

478.014 19.086 5.13278e-12
19.086 509.215 -1.67244e-12
5.13278e-12 -1.67244e-12 501.859

506.127 -26.4789 1.81307e-12
-26.4789 470.261 3.95269e-12
1.81307e-12 3.95269e-12 487.286

425.014 -9.69065 -6.3712e-13
-9.69065 366.742 4.5753e-12
-6.3712e-13 4.5753e-12 355.992

530.279 -23.1923 -4.41129e-13
-23.1923 488.77 -3.02869e-13
-4.41129e-13 -3.02869e-13 506.502

500.908 2.35833 5.40161e-13
2.35833 444.592 -4.41047e-12
5.40161e-13 -4.41047e-12 489.22

521.205 -23.3219 2.0665e-13
-23.3219 501.855 -3.43681e-12
2.0665e-13 -3.43681e-12 508.547

502.031 -25.8597 4.17325e-12
-25.8597 461.506 -1.90277e-12
4.17325e-12 -1.90277e-12 481.258

498.843 -8.54648 3.78927e-12
-8.54648 445.151 -5.58812e-13
3.78927e-12 -5.58812e-13 479.359

482.235 -23.0683 1.46105e-12
-23.0683 505.007 7.16482e-13
1.46105e-12 7.16482e-13 502.55

428.554 -31.3431 -7.41333e-13
-31.3431 410.601 -4.13832e-12
-7.41333e-13 -4.13832e-12 399.011

503.283 -24.5879 -2.93691e-13
-24.5879 464.728 -4.29908e-12
-2.93691e-13 -4.29908e-12 482.174

441.256 10.8649 4.03115e-12
10.8649 378.493 -2.43509e-12
4.03115e-12 -2.43509e-12 387.811

500.052 26.3407 7.09655e-13
26.3407 498.598 -2.87133e-12
7.09655e-13 -2.87133e-12 500.119

463.766 -37.6122 1.17565e-12
-37.6122 488.405 -4.7536e-13
1.17565e-12 -4.7536e-13 494.098

464.875 37.2646 7.02549e-13
37.2646 487.317 -3.49099e-12
7.02549e-13 -3.49099e-12 493.813

446.343 -28.573 -3.38056e-12
-28.573 500.03 9.96832e-13
-3.38056e-12 9.96832e-13 492.327

448.578 27.0638 2.17493e-12
27.0638 500.721 1.63247e-12
2.17493e-12 1.63247e-12 492.515

513.086 -8.52738 -2.47565e-12
-8.52738 436.422 4.41573e-12
-2.47565e-12 4.41573e-12 492.775

511.248 9.27337 -1.31021e-12
9.27337 438.019 -1.32161e-12
-1.31021e-12 -1.32161e-12 492.413

501.672 -9.84651 8.53243e-13
-9.84651 451.757 -1.43663e-12
8.53243e-13 -1.43663e-12 483.035

510.878 32.1153 -1.29289e-12
32.1153 510.405 2.32601e-13
-1.29289e-12 2.32601e-13 514.069

509.654 -32.8533 -1.62833e-13
-32.8533 510.082 4.08073e-12
-1.62833e-13 4.08073e-12 513.708

481.825 16.0683 3.25207e-12
16.0683 539.144 1.70678e-12
3.25207e-12 1.70678e-12 514.341

483.018 -15.8008 1.99352e-12
-15.8008 538.734 4.43941e-12
1.99352e-12 4.43941e-12 514.362

556.881 -3.74832 6.29274e-13
-3.74832 506.845 -3.86062e-13
6.29274e-13 -3.86062e-13 525.005

558.435 3.61106 2.99449e-12
3.61106 505.169 1.01992e-12
2.99449e-12 1.01992e-12 525.377

387.32 9.83729 -1.62411e-12
9.83729 449.211 -4.18154e-12
-1.62411e-12 -4.18154e-12 397.099

472.402 -24.7747 -4.08562e-14
-24.7747 480.769 -3.17524e-12
-4.08562e-14 -3.17524e-12 484.991

443.477 -36.387 -7.16908e-13
-36.387 485.548 -1.79545e-12
-7.16908e-13 -1.79545e-12 486.642

473.657 -4.66441 -1.6082e-12
-4.66441 420.449 6.527e-13
-1.6082e-12 6.527e-13 436.352

540.267 -16.694 2.10291e-12
-16.694 484.206 2.49282e-12
2.10291e-12 2.49282e-12 515.302

540.987 16.175 -2.33443e-13
16.175 485.429 1.30118e-12
-2.33443e-13 1.30118e-12 515.907

506.876 0.121874 -1.36483e-12
0.121874 423.567 -1.02066e-12
-1.36483e-12 -1.02066e-12 487.016

384.803 23.3763 -4.39352e-12
23.3763 432.31 -4.25141e-13
-4.39352e-12 -4.25141e-13 385.488

442.349 36.171 -4.07407e-12
36.171 485.226 1.79664e-12
-4.07407e-12 1.79664e-12 485.848

452.612 -23.396 -1.4236e-12
-23.396 494.968 -5.12183e-13
-1.4236e-12 -5.12183e-13 483.605

443.262 23.3538 4.85656e-12
23.3538 397.53 1.97412e-12
4.85656e-12 1.97412e-12 400.385

530.981 23.8585 -2.80072e-12
23.8585 488.02 1.19904e-13
-2.80072e-12 1.19904e-13 507.261

428.492 -31.3149 -1.38556e-13
-31.3149 410.886 -2.47091e-12
-1.38556e-13 -2.47091e-12 398.829

519.873 -3.23138 4.71652e-12
-3.23138 469.072 3.30876e-12
4.71652e-12 3.30876e-12 502.699

439.412 -34.1606 -2.23747e-13
-34.1606 485.519 9.83066e-13
-2.23747e-13 9.83066e-13 485.837

389.195 8.32031 -1.48489e-12
8.32031 452.342 -2.34124e-12
-1.48489e-12 -2.34124e-12 400.867

385.89 21.8126 1.97146e-12
21.8126 435.786 -5.0567e-13
1.97146e-12 -5.0567e-13 388.706

383.858 35.7773 -1.26121e-12
35.7773 362.341 5.92119e-14
-1.26121e-12 5.92119e-14 318.337

408.195 1.57883 -9.42653e-13
1.57883 332.164 1.83727e-12
-9.42653e-13 1.83727e-12 327.334

485.469 -22.8048 1.45099e-12
-22.8048 502.871 8.32834e-13
1.45099e-12 8.32834e-13 501.762

351.887 31.1852 -4.40063e-12
31.1852 388.842 4.37221e-12
-4.40063e-12 4.37221e-12 312.366

451.363 23.6106 -9.22817e-13
23.6106 478.427 1.21384e-12
-9.22817e-13 1.21384e-12 465.226

442.21 -5.34978 -1.46609e-12
-5.34978 377.136 4.49907e-12
-1.46609e-12 4.49907e-12 387.749

464.169 11.2165 -8.49099e-13
11.2165 407.31 -7.4903e-14
-8.49099e-13 -7.4903e-14 424.934

505.392 0.429894 3.83841e-13
0.429894 421.587 -3.06638e-12
3.83841e-13 -3.06638e-12 485.688

449.364 -29.0307 3.15762e-12
-29.0307 502.01 -1.65201e-13
3.15762e-12 -1.65201e-13 493.601

572.515 -6.31854 2.9942e-12
-6.31854 589.49 -3.22053e-12
2.9942e-12 -3.22053e-12 549.261

463.153 37.4109 6.36824e-13
37.4109 487.04 -2.15594e-12
6.36824e-13 -2.15594e-12 493.077

408.749 1.66334 3.07902e-14
1.66334 331.611 -7.51917e-13
3.07902e-14 -7.51917e-13 308.913

404.246 -32.7884 -4.17089e-12
-32.7884 415.521 -5.15676e-12
-4.17089e-12 -5.15676e-12 387.4

443.155 36.6125 2.8757e-12
36.6125 485.519 -1.76644e-12
2.8757e-12 -1.76644e-12 486.585

444.69 -11.134 2.70154e-15
-11.134 498.948 9.73444e-13
2.70154e-15 9.73444e-13 471.454

386.084 -25.5157 4.04595e-12
-25.5157 428.913 2.77941e-12
4.04595e-12 2.77941e-12 384.574

449.464 28.8297 -4.02297e-12
28.8297 501.644 2.08219e-12
-4.02297e-12 2.08219e-12 493.301

452.724 -26.1429 -8.98837e-13
-26.1429 419.314 -6.0254e-12
-8.98837e-13 -6.0254e-12 419.529

579.558 10.4837 -2.76401e-12
10.4837 582.168 5.7887e-12
-2.76401e-12 5.7887e-12 549.046

398.34 30.8734 -7.61939e-12
30.8734 422.07 2.51295e-12
-7.61939e-12 2.51295e-12 388.174

515.719 8.12648 8.89807e-13
8.12648 437.282 -9.16156e-13
8.89807e-13 -9.16156e-13 494.594

493.817 30.1908 -3.53791e-13
30.1908 484.76 9.02981e-13
-3.53791e-13 9.02981e-13 493.814

453.478 23.3324 2.09314e-12
23.3324 479.176 2.29742e-13
2.09314e-12 2.29742e-13 475.811

510.712 -32.4879 -1.18572e-12
-32.4879 512.464 -5.15699e-13
-1.18572e-12 -5.15699e-13 515.017

510.32 -23.1908 -9.02389e-13
-23.1908 473.192 -2.88776e-12
-9.02389e-13 -2.88776e-12 489.689

511.41 10.47 -1.61223e-12
10.47 558.001 -2.94283e-13
-1.61223e-12 -2.94283e-13 523.741

452.185 -23.4343 4.87492e-12
-23.4343 480.179 -2.63434e-12
4.87492e-12 -2.63434e-12 468.963

394.421 -9.70826 9.54496e-13
-9.70826 316.421 3.15303e-14
9.54496e-13 3.15303e-14 295.583

387.301 -14.2777 4.56879e-12
-14.2777 306.067 9.58641e-13
4.56879e-12 9.58641e-13 290.058

547.593 16.53 4.04121e-13
16.53 507.773 1.87406e-13
4.04121e-13 1.87406e-13 519.33

436.499 22.5026 -5.81402e-12
22.5026 469.15 1.86103e-12
-5.81402e-12 1.86103e-12 447.835

475.975 29.164 -3.9447e-12
29.164 467.657 1.73639e-12
-3.9447e-12 1.73639e-12 471.491

450.315 0.688691 1.7953e-12
0.688691 392.787 1.80149e-12
1.7953e-12 1.80149e-12 395.685

478.361 6.57087 8.72432e-13
6.57087 541.289 1.91136e-12
8.72432e-13 1.91136e-12 507.55

507.344 16.5407 2.82204e-12
16.5407 461.147 -1.61145e-12
2.82204e-12 -1.61145e-12 488.092

389.987 -25.7622 -2.92625e-12
-25.7622 430.048 6.32028e-12
-2.92625e-12 6.32028e-12 387.744

456.329 -2.57218 -8.99151e-13
-2.57218 517.026 -9.08903e-13
-8.99151e-13 -9.08903e-13 484.852

400.6 13.3658 -1.3299e-12
13.3658 452.998 -2.71427e-12
-1.3299e-12 -2.71427e-12 404.647

486.925 -29.7139 -5.06203e-12
-29.7139 465.825 -2.25035e-12
-5.06203e-12 -2.25035e-12 474.27

430.31 -29.9487 -1.10726e-12
-29.9487 423.64 1.71714e-13
-1.10726e-12 1.71714e-13 404.966

399.722 31.6242 2.60059e-12
31.6242 418.243 -4.62208e-12
2.60059e-12 -4.62208e-12 386.012

624.003 -15.0198 -3.62022e-12
-15.0198 581.953 4.97313e-12
-3.62022e-12 4.97313e-12 557.911

494.531 2.04159 -2.04066e-12
2.04159 552.152 -3.57048e-13
-2.04066e-12 -3.57048e-13 517.935

483.513 20.2995 1.803e-13
20.2995 542.052 1.14279e-13
1.803e-13 1.14279e-13 516.041

544.715 15.4385 2.84868e-12
15.4385 479.981 -2.81849e-13
2.84868e-12 -2.81849e-13 515.763

473.76 -26.1893 -8.81369e-13
-26.1893 479.768 3.94588e-12
-8.81369e-13 3.94588e-12 483.029

452.138 17.9579 4.57471e-12
17.9579 404.519 -1.62063e-12
4.57471e-12 -1.62063e-12 406.929

531.586 -5.29356 1.45391e-12
-5.29356 580.807 -3.01537e-12
1.45391e-12 -3.01537e-12 537.126

512.199 -18.988 2.53042e-12
-18.988 464.805 2.76312e-12
2.53042e-12 2.76312e-12 493.039

473.989 -15.5993 -1.43766e-12
-15.5993 423.187 7.15072e-12
-1.43766e-12 7.15072e-12 438.891

402.011 11.6038 3.26909e-12
11.6038 455.97 -4.94775e-12
3.26909e-12 -4.94775e-12 407.79

410.934 -25.7353 -8.10019e-13
-25.7353 435.593 -7.69755e-13
-8.10019e-13 -7.69755e-13 398.967

532.058 -25.2738 5.77612e-13
-25.2738 523.201 -1.27809e-12
5.77612e-13 -1.27809e-12 519.128

423.068 31.9608 9.65154e-13
31.9608 417.26 2.17841e-12
9.65154e-13 2.17841e-12 400.316

535.491 -25.1344 2.26426e-12
-25.1344 505.797 3.03165e-12
2.26426e-12 3.03165e-12 515.669

453.507 2.59746 8.90547e-13
2.59746 397.03 3.60541e-12
8.90547e-13 3.60541e-12 401.908

311.107 -28.9317 -3.39876e-13
-28.9317 376.607 1.90662e-12
-3.39876e-13 1.90662e-12 290.003

431.888 -29.2321 1.68162e-12
-29.2321 424.059 -1.4122e-12
1.68162e-12 -1.4122e-12 406.165

353.771 32.1602 1.77754e-12
32.1602 392.555 -2.59348e-12
1.77754e-12 -2.59348e-12 312.977

470.357 -11.8766 -1.9139e-12
-11.8766 529.562 2.12571e-12
-1.9139e-12 2.12571e-12 500.314

391.461 -13.8219 1.54247e-12
-13.8219 449.266 6.14501e-12
1.54247e-12 6.14501e-12 400.209

602.858 -23.9869 4.8761e-13
-23.9869 602.27 9.64665e-12
4.8761e-13 9.64665e-12 557.852

408.383 23.7718 -1.48563e-12
23.7718 441.952 1.16766e-12
-1.48563e-12 1.16766e-12 402.233

496.588 -32.7263 6.69539e-12
-32.7263 490.651 2.30512e-12
6.69539e-12 2.30512e-12 497.458

388.2 -11.9636 -7.19128e-13
-11.9636 448.298 -2.66809e-12
-7.19128e-13 -2.66809e-12 397.027

516.723 -19.1168 -2.55499e-12
-19.1168 465.765 3.97963e-12
-2.55499e-12 3.97963e-12 496.255

410.698 23.8781 8.84626e-13
23.8781 439.325 -1.73846e-12
8.84626e-13 -1.73846e-12 400.71

488.934 -4.97558 -2.69236e-12
-4.97558 435.083 -5.52965e-13
-2.69236e-12 -5.52965e-13 460.395

305.79 -30.3436 1.83675e-12
-30.3436 391.449 6.38541e-12
1.83675e-12 6.38541e-12 262.577

438.622 21.0147 -4.22536e-12
21.0147 473.927 -1.62477e-12
-4.22536e-12 -1.62477e-12 458.361

445.701 -19.324 9.15416e-13
-19.324 393.988 -1.69257e-12
9.15416e-13 -1.69257e-12 399.635

551.613 -21.4458 -4.70735e-13
-21.4458 499.528 -5.95968e-13
-4.70735e-13 -5.95968e-13 520.114

424.484 31.7553 -2.50348e-12
31.7553 413.336 2.80901e-12
-2.50348e-12 2.80901e-12 397.972

459.177 -29.9727 -1.36543e-12
-29.9727 437.652 -5.67398e-12
-1.36543e-12 -5.67398e-12 439.313

510.634 20.8855 -4.74879e-12
20.8855 476.086 -1.60464e-12
-4.74879e-12 -1.60464e-12 492.77

461.52 -28.076 -4.26178e-13
-28.076 485.756 3.1534e-12
-4.26178e-13 3.1534e-12 488.733

413.734 -26.2263 2.47683e-12
-26.2263 436.26 5.43565e-12
2.47683e-12 5.43565e-12 401.453

426.09 28.9823 1.54602e-12
28.9823 429.913 9.67522e-13
1.54602e-12 9.67522e-13 406.875

452.517 26.1923 -2.78651e-12
26.1923 418.242 2.31341e-12
-2.78651e-12 2.31341e-12 419.073

521.984 -14.6105 -2.61095e-12
-14.6105 477.192 4.7257e-12
-2.61095e-12 4.7257e-12 500.078

403.575 -16.6183 2.0665e-13
-16.6183 451.759 2.73204e-12
2.0665e-13 2.73204e-12 406.457

496.063 -17.5685 2.48572e-12
-17.5685 447.622 2.30482e-13
2.48572e-12 2.30482e-13 471.516

487.781 16.909 1.01015e-12
16.909 436.274 3.75551e-12
1.01015e-12 3.75551e-12 460.604

513.354 -9.38618 2.43446e-12
-9.38618 555.791 1.8557e-12
2.43446e-12 1.8557e-12 523.042

453.995 -13.4305 1.73254e-12
-13.4305 402.193 3.1665e-12
1.73254e-12 3.1665e-12 406.758

403.216 0.594121 -2.94683e-12
0.594121 465.742 1.94097e-12
-2.94683e-12 1.94097e-12 417.82

475.044 18.5555 -1.91254e-13
18.5555 428.787 -4.53563e-13
-1.91254e-13 -4.53563e-13 442.237

451.159 27.6049 8.69231e-13
27.6049 421.854 -1.82136e-12
8.69231e-13 -1.82136e-12 420.859

400.883 -15.6868 2.81553e-12
-15.6868 451.399 -2.66217e-12
2.81553e-12 -2.66217e-12 403.751

406.015 -1.20228 -3.53569e-13
-1.20228 468.052 -3.5539e-12
-3.53569e-13 -3.5539e-12 421.235

516.214 29.1345 -3.04408e-12
29.1345 498.04 1.98212e-12
-3.04408e-12 1.98212e-12 504.89

441.72 -10.9224 1.46771e-12
-10.9224 500.675 1.69642e-12
1.46771e-12 1.69642e-12 471.164

451.457 -26.7163 2.25597e-13
-26.7163 418.782 -3.38337e-12
2.25597e-13 -3.38337e-12 419.368

444.404 21.3334 3.09086e-12
21.3334 395.313 5.16268e-12
3.09086e-12 5.16268e-12 398.216

497.612 23.6656 -8.39033e-13
23.6656 458.106 -4.19812e-13
-8.39033e-13 -4.19812e-13 476.566

447.698 5.47111 -2.4194e-12
5.47111 508.807 -1.72662e-12
-2.4194e-12 -1.72662e-12 476.898

427.666 29.0667 3.12757e-12
29.0667 426.451 -3.48225e-12
3.12757e-12 -3.48225e-12 405.125

536.835 22.9639 -2.76401e-12
22.9639 531.91 1.431e-12
-2.76401e-12 1.431e-12 522.798

314.761 -59.6936 -8.62125e-13
-59.6936 282.779 1.82965e-12
-8.62125e-13 1.82965e-12 223.432

480.611 -25.0486 -2.99612e-13
-25.0486 445.088 -5.15558e-12
-2.99612e-13 -5.15558e-12 456.662

336.676 7.07017 4.90719e-12
7.07017 409.171 -3.47929e-12
4.90719e-12 -3.47929e-12 319.452

460.555 -28.8902 5.3119e-12
-28.8902 444.753 3.7789e-12
5.3119e-12 3.7789e-12 443.469

96.4268 -52.7025 3.60245e-12
-52.7025 306.627 -9.4739e-14
3.60245e-12 -9.4739e-14 113.703

95.9607 51.4531 -1.53951e-14
51.4531 306.891 -4.50958e-12
-1.53951e-14 -4.50958e-12 114.491

181.522 117.158 1.66504e-12
117.158 226.083 1.88057e-12
1.66504e-12 1.88057e-12 113.592

182.82 -117.1 2.79954e-12
-117.1 223.319 -2.30216e-12
2.79954e-12 -2.30216e-12 113.566

321.592 -1.36341 5.16328e-13
-1.36341 84.656 4.96779e-14
5.16328e-13 4.96779e-14 114.933

274.441 -91.1281 1.82846e-12
-91.1281 127.422 -1.3974e-12
1.82846e-12 -1.3974e-12 113.806

275.138 91.656 1.49214e-12
91.656 128.255 -1.77162e-12
1.49214e-12 -1.77162e-12 114.576

525.256 14.3308 -8.26006e-13
14.3308 474.727 -1.62685e-12
-8.26006e-13 -1.62685e-12 502.33

556.809 25.5361 -1.4649e-12
25.5361 541.194 -2.52657e-12
-1.4649e-12 -2.52657e-12 533.463

492.11 6.60629 -3.05e-12
6.60629 439.137 5.59034e-13
-3.05e-12 5.59034e-13 471.419

470.317 21.7854 -4.26681e-12
21.7854 424.532 -8.85218e-13
-4.26681e-12 -8.85218e-13 438.21

409.991 17.7452 -2.06709e-12
17.7452 461.091 2.36848e-15
-2.06709e-12 2.36848e-15 425.059

448.028 28.8996 -3.47692e-12
28.8996 424.721 7.91071e-13
-3.47692e-12 7.91071e-13 420.766

487.166 -29.6641 1.59043e-12
-29.6641 465.644 1.90722e-12
1.59043e-12 1.90722e-12 474.606

449.385 28.0289 -1.14693e-12
28.0289 421.087 8.4673e-13
-1.14693e-12 8.4673e-13 418.657

402.979 -2.84145 2.35145e-12
-2.84145 465.399 2.46795e-12
2.35145e-12 2.46795e-12 417.556

555.815 -26.0969 -2.89694e-12
-26.0969 543.387 -3.23608e-12
-2.89694e-12 -3.23608e-12 533.707

405.517 -4.86268 -1.42745e-12
-4.86268 467.137 -5.0567e-13
-1.42745e-12 -5.0567e-13 420.615

522.307 23.0167 4.7784e-13
23.0167 499.757 2.16538e-12
4.7784e-13 2.16538e-12 507.985

423.394 26.8719 -1.95281e-12
26.8719 386.522 7.95749e-12
-1.95281e-12 7.95749e-12 373.041

480.126 -13.2162 8.2645e-13
-13.2162 532.783 -2.12896e-12
8.2645e-13 -2.12896e-12 512.016

484.216 13.7284 9.60417e-13
13.7284 432.792 -6.81233e-13
9.60417e-13 -6.81233e-13 456.891

457.386 -29.9887 2.0588e-12
-29.9887 436.993 -2.18936e-12
2.0588e-12 -2.18936e-12 437.849

454.326 -24.7144 5.28407e-12
-24.7144 416.82 1.15582e-12
5.28407e-12 1.15582e-12 419.869

547.418 -16.0753 -1.76333e-12
-16.0753 509.319 -2.58342e-12
-1.76333e-12 -2.58342e-12 519.398

475.989 27.9297 1.46727e-12
27.9297 449.722 -1.90425e-12
1.46727e-12 -1.90425e-12 456.941

469.118 23.9783 3.77239e-12
23.9783 427.865 -2.52331e-12
3.77239e-12 -2.52331e-12 439.846

432.444 -2.79288 1.12077e-12
-2.79288 493.655 -1.70057e-12
1.12077e-12 -1.70057e-12 457.123

417.622 5.87349 -2.82944e-12
5.87349 479.575 3.28389e-12
-2.82944e-12 3.28389e-12 440.193

463.029 2.64682 -3.77121e-12
2.64682 402.295 1.81758e-12
-3.77121e-12 1.81758e-12 422.337

438.665 -7.28999 -1.86162e-12
-7.28999 373.929 1.04169e-12
-1.86162e-12 1.04169e-12 381.233

454.861 30.4858 -2.85224e-12
30.4858 439.031 2.96059e-14
-2.85224e-12 2.96059e-14 437.853

478.482 -26.1563 -4.95367e-12
-26.1563 443.559 -1.71418e-12
-4.95367e-12 -1.71418e-12 454.663

525.716 -21.2545 -2.77319e-12
-21.2545 497.844 -2.82944e-12
-2.77319e-12 -2.82944e-12 508.634

437.749 -31.6349 2.97244e-13
-31.6349 437.672 1.59872e-12
2.97244e-13 1.59872e-12 426.875

417.606 -27.7868 3.50534e-12
-27.7868 444.413 -7.86689e-12
3.50534e-12 -7.86689e-12 419.704

430.663 29.8884 3.11455e-13
29.8884 442.761 2.10321e-12
3.11455e-13 2.10321e-12 426.513

416.241 -9.57827 8.94988e-13
-9.57827 475.229 -1.8711e-13
8.94988e-13 -1.8711e-13 436.471

428.911 -1.54501 1.35617e-12
-1.54501 491.886 5.36637e-12
1.35617e-12 5.36637e-12 454.011

445.197 5.74786 1.12438e-12
5.74786 508.061 6.23501e-13
1.12438e-12 6.23501e-13 474.931

414.635 -21.09 4.70202e-12
-21.09 458.425 -2.87474e-12
4.70202e-12 -2.87474e-12 426.081

496.886 24.1119 -1.31154e-12
24.1119 455.712 -8.64494e-13
-1.31154e-12 -8.64494e-13 474.609

483.391 -9.59009 -1.4578e-12
-9.59009 430.128 5.43817e-12
-1.4578e-12 5.43817e-12 455.237

415.649 7.4655 9.86063e-14
7.4655 477.139 4.44267e-12
9.86063e-14 4.44267e-12 436.929

443.971 -9.70121 2.56801e-12
-9.70121 501.521 2.30216e-12
2.56801e-12 2.30216e-12 471.024

433.19 -16.3313 -4.93827e-13
-16.3313 481.694 2.14939e-12
-4.93827e-13 2.14939e-12 455.685

463.558 -8.23954 4.61379e-12
-8.23954 406.351 -2.91352e-12
4.61379e-12 -2.91352e-12 421.487

494.45 -32.3468 5.49279e-12
-32.3468 487.633 -5.89158e-14
5.49279e-12 -5.89158e-14 496.267

422.96 9.32137 -2.50688e-12
9.32137 479.109 2.50052e-12
-2.50688e-12 2.50052e-12 440.996

564.369 -18.2128 -4.65938e-12
-18.2128 529.964 3.2679e-12
-4.65938e-12 3.2679e-12 531.845

309.06 24.8239 4.4782e-12
24.8239 379.437 -4.37931e-12
4.4782e-12 -4.37931e-12 289.809

501.714 -26.6266 1.5401e-12
-26.6266 499.505 -1.22139e-12
1.5401e-12 -1.22139e-12 501.215

515.665 -30.2029 -8.2719e-13
-30.2029 498.419 -3.31261e-12
-8.2719e-13 -3.31261e-12 504.934

429.239 -0.701146 -2.06331e-12
-0.701146 492.012 2.38091e-12
-2.06331e-12 2.38091e-12 454.162

474.9 -16.6231 -9.37324e-13
-16.6231 428.353 2.06117e-12
-9.37324e-13 2.06117e-12 441.973

462.321 12.8418 -1.84388e-12
12.8418 511.292 2.5698e-12
-1.84388e-12 2.5698e-12 489.138

240.784 -3.18081 -2.09899e-12
-3.18081 360.701 2.79006e-12
-2.09899e-12 2.79006e-12 226.974

432.42 14.2741 -2.92832e-12
14.2741 485.375 1.82017e-12
-2.92832e-12 1.82017e-12 456.899

458.129 -29.4904 1.55254e-12
-29.4904 443.188 -1.74853e-12
1.55254e-12 -1.74853e-12 440.779

304.197 25.1066 1.0792e-11
25.1066 394.599 2.78296e-12
1.0792e-11 2.78296e-12 264.351

603.557 26.0967 3.95402e-12
26.0967 597.962 -1.51138e-13
3.95402e-12 -1.51138e-13 558.169

608.291 -27.806 2.33635e-12
-27.806 595.037 -1.12001e-11
2.33635e-12 -1.12001e-11 558.302

463.511 -30.4201 4.9211e-12
-30.4201 459.056 2.22785e-12
4.9211e-12 2.22785e-12 459.09

434.602 -31.1616 1.85096e-12
-31.1616 436.377 -4.47583e-12
1.85096e-12 -4.47583e-12 424.679

474.12 20.8282 1.16647e-13
20.8282 431.932 8.3548e-13
1.16647e-13 8.3548e-13 443.99

465.241 15.0067 -2.7948e-12
15.0067 410.133 -2.48364e-12
-2.7948e-12 -2.48364e-12 427.48

646.072 3.08273 5.61107e-12
3.08273 645.73 1.65674e-11
5.61107e-12 1.65674e-11 574.629

649.893 -6.99892 -2.10609e-12
-6.99892 641.401 -8.753e-12
-2.10609e-12 -8.753e-12 575.158

497.007 4.82426 2.61776e-12
4.82426 442.052 -4.78328e-12
2.61776e-12 -4.78328e-12 477.43

443.574 6.73139 2.55662e-12
6.73139 503.007 -5.14907e-12
2.55662e-12 -5.14907e-12 471.067

441.988 6.73636 -4.3447e-12
6.73636 502.533 -1.06641e-12
-4.3447e-12 -1.06641e-12 469.79

321.547 58.6367 -1.83794e-12
58.6367 281.132 -1.76215e-12
-1.83794e-12 -1.76215e-12 225.085

420.245 -28.2011 2.99316e-12
-28.2011 444.041 1.32102e-12
2.99316e-12 1.32102e-12 421.049

520.595 17.9743 -8.57388e-13
17.9743 467.547 -1.21325e-12
-8.57388e-13 -1.21325e-12 499.526

472.999 9.54006 -6.1912e-12
9.54006 421.214 9.29479e-13
-6.1912e-12 9.29479e-13 436.22

440.648 -26.7245 1.40332e-12
-26.7245 450.744 -8.78349e-12
1.40332e-12 -8.78349e-12 433.433

469.295 -20.2385 -3.49705e-12
-20.2385 422.733 2.59082e-12
-3.49705e-12 2.59082e-12 437.193

312.484 60.2346 -2.58874e-12
60.2346 281.382 3.56692e-12
-2.58874e-12 3.56692e-12 223.224

492.698 31.0694 2.09018e-13
31.0694 489.059 2.16331e-12
2.09018e-13 2.16331e-12 493.155

410.879 -19.787 2.7122e-12
-19.787 457.9 -3.49291e-12
2.7122e-12 -3.49291e-12 423.515

474.146 28.8587 -4.42254e-12
28.8587 449.648 3.28567e-12
-4.42254e-12 3.28567e-12 456.536

430.973 -4.14513 8.74264e-13
-4.14513 492.991 -2.6746e-12
8.74264e-13 -2.6746e-12 456.485

423.947 19.6101 -2.50318e-12
19.6101 465.73 1.49806e-13
-2.50318e-12 1.49806e-13 434.125

452.766 30.5201 -4.88498e-13
30.5201 443.616 2.88303e-12
-4.88498e-13 2.88303e-12 439.625

428.66 -22.4743 3.49942e-13
-22.4743 461.156 -4.96373e-12
3.49942e-13 -4.96373e-12 433.83

443.592 -27.3537 -1.29141e-12
-27.3537 450.451 9.71075e-14
-1.29141e-12 9.71075e-14 435.063

294.789 11.2574 -8.62125e-13
11.2574 372.599 3.68061e-12
-8.62125e-13 3.68061e-12 258.112

357.312 -33.4578 8.40809e-14
-33.4578 389.132 3.0506e-12
8.40809e-14 3.0506e-12 314.141

419.674 -11.691 -2.21667e-12
-11.691 476.38 -2.81493e-12
-2.21667e-12 -2.81493e-12 439.362

478.415 26.4855 1.93268e-12
26.4855 446.816 1.69346e-13
1.93268e-12 1.69346e-13 456.101

452.363 29.4791 2.29268e-12
29.4791 449.044 -2.51651e-13
2.29268e-12 -2.51651e-13 442.417

426.826 -21.4349 3.1104e-12
-21.4349 461.803 -1.07706e-12
3.1104e-12 -1.07706e-12 432.647

422.948 -11.783 1.74231e-12
-11.783 476.666 1.0966e-12
1.74231e-12 1.0966e-12 439.946

457.724 28.4107 -6.98523e-12
28.4107 447.105 -3.43429e-14
-6.98523e-12 -3.43429e-14 442.588

425.122 -13.8785 1.82106e-12
-13.8785 476.438 1.76511e-12
1.82106e-12 1.76511e-12 442.122

311.276 27.8564 8.91435e-12
27.8564 377.406 7.23333e-12
8.91435e-12 7.23333e-12 289.996

485.185 -4.04095 -1.88934e-12
-4.04095 545.065 8.53243e-13
-1.88934e-12 8.53243e-13 511.052

433.002 31.029 3.17198e-12
31.029 439.646 -1.72188e-12
3.17198e-12 -1.72188e-12 426.036

509.327 14.9017 -2.41881e-12
14.9017 463.178 1.30858e-12
-2.41881e-12 1.30858e-12 488.622

516.938 -15.928 -4.37872e-12
-15.928 467.598 -2.09847e-12
-4.37872e-12 -2.09847e-12 493.94

383.94 -24.2057 1.89478e-14
-24.2057 305.959 3.00796e-13
1.89478e-14 3.00796e-13 285.366

442.296 -21.2679 -7.46218e-12
-21.2679 476.018 -1.43944e-12
-7.46218e-12 -1.43944e-12 459.338

447.845 26.6992 -1.39918e-12
26.6992 466.225 -3.56456e-13
-1.39918e-12 -3.56456e-13 457.859

522.989 -21.7277 -4.24934e-12
-21.7277 543.824 -5.20476e-12
-4.24934e-12 -5.20476e-12 525.324

579.591 14.1055 -4.24357e-12
14.1055 617.627 -6.84193e-13
-4.24357e-12 -6.84193e-13 557.064

620.213 9.44528 6.52219e-13
9.44528 576.849 -7.03526e-12
6.52219e-13 -7.03526e-12 556.883

523.484 32.705 -4.27658e-12
32.705 520.665 4.34911e-13
-4.27658e-12 4.34911e-13 519.539

414.908 26.0017 -3.14534e-12
26.0017 448.924 3.78719e-12
-3.14534e-12 3.78719e-12 420.393

478.114 26.6623 -1.46846e-12
26.6623 444.786 2.65595e-12
-1.46846e-12 2.65595e-12 455.524

332.375 45.1881 -1.7503e-12
45.1881 349.503 3.63087e-12
-1.7503e-12 3.63087e-12 286.751

571.399 -11.3428 -5.94709e-12
-11.3428 614.478 4.14483e-13
-5.94709e-12 4.14483e-13 554.607

641.329 -3.43242 1.75307e-11
-3.43242 636.874 -3.37508e-13
1.75307e-11 -3.37508e-13 572.406

634.908 -0.20959 2.00551e-12
-0.20959 643.18 3.11062e-12
2.00551e-12 3.11062e-12 572.233

272.973 -53.8047 -4.84472e-12
-53.8047 316.458 5.51381e-12
-4.84472e-12 5.51381e-12 220.917

566.65 -11.5996 -1.53078e-12
-11.5996 562.135 1.92794e-12
-1.53078e-12 1.92794e-12 540.911

563.78 8.81241 4.8892e-12
8.81241 586.972 -9.35548e-14
4.8892e-12 -9.35548e-14 546.852

478.262 -26.2003 -3.16369e-12
-26.2003 440.458 -1.25174e-12
-3.16369e-12 -1.25174e-12 453.498

494.363 1.01068 -2.63656e-12
1.01068 545.774 2.03926e-12
-2.63656e-12 2.03926e-12 514.072

447.668 -20.2685 4.0421e-12
-20.2685 484.176 4.97972e-13
4.0421e-12 4.97972e-13 470.654

506.319 6.25541 3.41623e-12
6.25541 443.392 -2.24842e-12
3.41623e-12 -2.24842e-12 486.142

461.291 15.5963 -1.7804e-12
15.5963 521.269 -6.9719e-12
-1.7804e-12 -6.9719e-12 497.573

471.196 7.1914 -3.3614e-12
7.1914 528.022 1.64017e-12
-3.3614e-12 1.64017e-12 497.706

493.78 20.3936 3.74338e-12
20.3936 451.534 5.42085e-12
3.74338e-12 5.42085e-12 469.767

241.073 -3.11391 -2.54759e-12
-3.11391 358.573 1.44477e-12
-2.54759e-12 1.44477e-12 227.072

463.718 -27.6247 -6.34159e-13
-27.6247 463.409 1.71418e-12
-6.34159e-13 1.71418e-12 461.208

488.361 -26.1171 -2.09788e-12
-26.1171 481.614 3.08464e-12
-2.09788e-12 3.08464e-12 485.885

497.554 -31.4837 2.84454e-12
-31.4837 489.975 -4.22773e-12
2.84454e-12 -4.22773e-12 498.997

355.613 32.751 7.31859e-13
32.751 285.788 9.24002e-13
7.31859e-13 9.24002e-13 248.376

563.892 -20.1161 -4.19605e-12
-20.1161 569.623 6.84267e-13
-4.19605e-12 6.84267e-13 542.583

337.659 54.3243 -6.65542e-12
54.3243 356.67 8.05282e-12
-6.65542e-12 8.05282e-12 258.885

477.088 -21.4393 3.99029e-12
-21.4393 506.507 2.37144e-13
3.99029e-12 2.37144e-13 500.26

504.79 14.6505 -2.96829e-12
14.6505 452.004 2.15546e-12
-2.96829e-12 2.15546e-12 481.577

449.849 -14.5731 1.38319e-12
-14.5731 397.002 -6.67022e-13
1.38319e-12 -6.67022e-13 400.856

452.611 24.0474 4.94745e-12
24.0474 478.798 -1.13332e-12
4.94745e-12 -1.13332e-12 467.865

493.684 20.4284 8.22631e-12
20.4284 449.517 2.49578e-13
8.22631e-12 2.49578e-13 469.359

505.579 11.4 3.86136e-13
11.4 564.428 -3.00086e-12
3.86136e-13 -3.00086e-12 526.725

475.913 -31.5808 -3.76706e-12
-31.5808 470.373 -2.36759e-12
-3.76706e-12 -2.36759e-12 475.081

559.282 19.8123 1.76215e-12
19.8123 510.453 1.25233e-13
1.76215e-12 1.25233e-13 526.501

439.975 -18.4441 1.60375e-12
-18.4441 482.483 2.50999e-12
1.60375e-12 2.50999e-12 459.166

465.913 4.28349 -5.54193e-13
4.28349 526.124 4.23483e-12
-5.54193e-13 4.23483e-12 495.526

588.648 9.92714 2.20031e-12
9.92714 552.472 -2.55707e-12
2.20031e-12 -2.55707e-12 545.201

590.431 -8.51383 -1.89893e-12
-8.51383 554.814 -5.63579e-12
-1.89893e-12 -5.63579e-12 545.718

382.324 18.5132 -1.90662e-12
18.5132 302.298 1.17476e-12
-1.90662e-12 1.17476e-12 286.145

502.696 7.96531 1.23161e-12
7.96531 453.617 2.02401e-12
1.23161e-12 2.02401e-12 487.782

232.822 7.74087 -5.28392e-12
7.74087 381.527 -5.34802e-12
-5.28392e-12 -5.34802e-12 187.193

236.992 -11.3856 1.85126e-12
-11.3856 387.221 -7.12438e-12
1.85126e-12 -7.12438e-12 189.457

249.295 56.4082 -8.21861e-13
56.4082 354.788 -4.09746e-12
-8.21861e-13 -4.09746e-12 184.029

505.031 -28.951 1.49747e-12
-28.951 478.631 1.71152e-12
1.49747e-12 1.71152e-12 491.359

258.48 -49.1922 -2.17663e-12
-49.1922 341.853 3.64745e-12
-2.17663e-12 3.64745e-12 220.742

249.3 -55.9508 -6.22909e-12
-55.9508 344.762 -5.33854e-12
-6.22909e-12 -5.33854e-12 181.122

434.671 26.2212 -5.09222e-13
26.2212 454.41 1.6603e-12
-5.09222e-13 1.6603e-12 432.84

329.934 73.8455 4.67537e-12
73.8455 280.019 3.6214e-12
4.67537e-12 3.6214e-12 184.834

540.138 13.0469 2.19617e-12
13.0469 554.959 4.37517e-12
2.19617e-12 4.37517e-12 532.091

562.396 0.0402776 2.29609e-12
0.0402776 532.466 4.02907e-12
2.29609e-12 4.02907e-12 531.883

338.612 -73.1309 -4.02641e-13
-73.1309 279.866 -8.21861e-13
-4.02641e-13 -8.21861e-13 186.316

432.686 -23.4248 2.50526e-12
-23.4248 466.328 -1.50339e-12
2.50526e-12 -1.50339e-12 447.588

358.944 34.7304 -2.84217e-14
34.7304 310.986 -2.60414e-12
-2.84217e-14 -2.60414e-12 258.047

267.713 63.4924 -5.06854e-13
63.4924 345.22 -3.5385e-12
-5.06854e-13 -3.5385e-12 185.851

293.703 21.631 4.44326e-12
21.631 367.674 5.59434e-12
4.44326e-12 5.59434e-12 254.506

267.584 -65.9212 -8.3844e-13
-65.9212 344.856 -1.77162e-12
-8.3844e-13 -1.77162e-12 184.307

291.65 -12.3815 1.90366e-12
-12.3815 370.896 -2.26663e-12
1.90366e-12 -2.26663e-12 253.452

550.317 6.84088 -1.4746e-12
6.84088 582.088 -1.2621e-12
-1.4746e-12 -1.2621e-12 541.129

329.901 -45.9766 9.06416e-12
-45.9766 341.828 2.72019e-12
9.06416e-12 2.72019e-12 276.625

259.79 47.5335 4.26326e-14
47.5335 340.228 4.85064e-12
4.26326e-14 4.85064e-12 223.154

370.227 37.9123 -8.33703e-13
37.9123 244.927 6.09882e-14
-8.33703e-13 6.09882e-14 187.363

481.907 -29.2865 -1.18424e-15
-29.2865 460.528 2.46085e-12
-1.18424e-15 2.46085e-12 467.73

480.991 12.8965 2.39327e-12
12.8965 525.845 -4.11138e-12
2.39327e-12 -4.11138e-12 504.119

354.431 -38.1138 -2.16005e-12
-38.1138 300.087 -7.81597e-13
-2.16005e-12 -7.81597e-13 251.824

482.551 -28.8029 8.89363e-13
-28.8029 460.337 -2.11268e-12
8.89363e-13 -2.11268e-12 468.479

365.274 -36.3442 1.84741e-12
-36.3442 230.996 1.81188e-13
1.84741e-12 1.81188e-13 182.776

481.519 -28.3182 2.85401e-12
-28.3182 472.771 6.84105e-12
2.85401e-12 6.84105e-12 477.934

436.37 -25.2958 -6.63262e-12
-25.2958 466.241 1.58037e-12
-6.63262e-12 1.58037e-12 448.226

314.808 69.462 1.86636e-12
69.462 292.151 9.26074e-13
1.86636e-12 9.26074e-13 184.53

290.791 -22.9336 -7.4453e-12
-22.9336 359.177 -4.31299e-12
-7.4453e-12 -4.31299e-12 247.038

312.409 -71.694 4.49063e-12
-71.694 288.131 7.98176e-13
4.49063e-12 7.98176e-13 182.033

268.555 50.739 7.70939e-12
50.739 320.07 2.76164e-12
7.70939e-12 2.76164e-12 221.512

459.878 -30.2131 1.65142e-12
-30.2131 454.862 2.25005e-12
1.65142e-12 2.25005e-12 454.416

559.298 -14.6406 -5.10999e-13
-14.6406 544.423 7.54892e-12
-5.10999e-13 7.54892e-12 533.73

635.925 11.0918 3.44073e-12
11.0918 631.388 1.70974e-12
3.44073e-12 1.70974e-12 570.029

619.962 -5.16015 -1.7469e-12
-5.16015 639.741 -3.86929e-12
-1.7469e-12 -3.86929e-12 568.507

453.885 13.0837 4.23532e-12
13.0837 506.572 1.56675e-12
4.23532e-12 1.56675e-12 482.588

634.154 -10.6661 2.93188e-12
-10.6661 631.318 -6.93934e-12
2.93188e-12 -6.93934e-12 569.884

622.7 4.09198 -2.61554e-12
4.09198 642.687 1.22305e-11
-2.61554e-12 1.22305e-11 569.708

643.378 7.43299 -3.62717e-12
7.43299 619.152 4.02996e-12
-3.62717e-12 4.02996e-12 569.031

584.783 -12.1141 2.78074e-13
-12.1141 631.672 -1.25929e-12
2.78074e-13 -1.25929e-12 560.603

307.454 -30.4714 -1.578e-11
-30.4714 371.646 -5.98277e-12
-1.578e-11 -5.98277e-12 280.78

589.634 -12.9721 -8.57684e-13
-12.9721 549.123 3.22705e-12
-8.57684e-13 3.22705e-12 543.838

527.22 -34.4171 -4.43971e-12
-34.4171 521.499 8.91731e-13
-4.43971e-12 8.91731e-13 519.979

565.475 -18.1771 6.16455e-12
-18.1771 538.001 1.55254e-12
6.16455e-12 1.55254e-12 534.271

502.587 15.4597 -3.25251e-12
15.4597 452.131 1.88649e-12
-3.25251e-12 1.88649e-12 480.223

586.355 9.86351 -3.87727e-13
9.86351 642.138 1.2399e-12
-3.87727e-13 1.2399e-12 563.113

636.661 19.2266 -9.7374e-13
19.2266 591.729 5.67002e-12
-9.7374e-13 5.67002e-12 562.935

569.786 11.3071 -4.26118e-12
11.3071 544.35 1.13243e-12
-4.26118e-12 1.13243e-12 536.448

353.454 -15.3401 -4.538e-12
-15.3401 231.523 1.05989e-13
-4.538e-12 1.05989e-13 219.022

437.222 24.9651 2.92714e-12
24.9651 461.93 -1.60287e-12
2.92714e-12 -1.60287e-12 445.738

317.101 -61.3569 5.87145e-12
-61.3569 277.858 -4.49537e-12
5.87145e-12 -4.49537e-12 218.096

334.22 -57.4591 1.84267e-12
-57.4591 357.335 2.97007e-12
1.84267e-12 2.97007e-12 252.549

383.347 -36.5453 4.95485e-12
-36.5453 305.749 -8.32519e-13
4.95485e-12 -8.32519e-13 257.769

562.505 -5.15884 -4.57219e-12
-5.15884 616.957 9.37028e-14
-4.57219e-12 9.37028e-14 552.961

562.213 2.8913 -1.14501e-12
2.8913 615.823 5.12109e-12
-1.14501e-12 5.12109e-12 552.56

598.777 -24.4549 -1.79619e-12
-24.4549 575.751 -4.07718e-12
-1.79619e-12 -4.07718e-12 551.589

602.336 -21.759 -3.23948e-12
-21.759 573.441 5.34624e-12
-3.23948e-12 5.34624e-12 551.856

598.789 26.1344 -4.58034e-12
26.1344 580.466 -4.13891e-12
-4.58034e-12 -4.13891e-12 552.745

625.746 3.09846 -1.3074e-12
3.09846 630.738 6.08617e-12
-1.3074e-12 6.08617e-12 568.43

599.066 -20.5078 -2.34124e-12
-20.5078 576.362 2.50555e-12
-2.34124e-12 2.50555e-12 552.278

607.816 -18.5674 -1.9349e-12
-18.5674 620.266 4.67937e-12
-1.9349e-12 4.67937e-12 563.195

632.904 2.43378 -5.95361e-12
2.43378 635.529 -2.3554e-11
-5.95361e-12 -2.3554e-11 570.515

607.893 -20.525 -5.18511e-12
-20.525 572.435 4.1774e-13
-5.18511e-12 4.1774e-13 553.417

607.078 20.9545 3.04105e-12
20.9545 573.693 -6.90411e-13
3.04105e-12 -6.90411e-13 553.82

633.855 -3.45775 4.05069e-12
-3.45775 636.78 1.56838e-12
4.05069e-12 1.56838e-12 571.289

632.185 -3.1161 -1.39146e-11
-3.1161 625.76 2.37315e-11
-1.39146e-11 2.37315e-11 569.404

609.687 12.1096 8.73257e-12
12.1096 620.489 -7.72197e-12
8.73257e-12 -7.72197e-12 563.927

587.211 26.9284 -9.66634e-13
26.9284 583.026 9.00945e-12
-9.66634e-13 9.00945e-12 551.713

FIELD solute_concentration_TPM 2
S_ext 1 563 float
0.921019
0.920845
0.920863
0.920846
0.920821
0.920863
0.921019
0.920855
0.920878
0.920848
0.920983
0.920855
0.920858
0.920848
0.920827
0.920861
0.920841
0.920853
0.920881
0.920865
0.920871
0.920777
0.920867
0.920866
0.920866
0.92085
0.920974
0.920861
0.920925
0.9208
0.920859
0.920924
0.920978
0.920807
0.920806
0.920807
0.920796
0.920808
0.92086
0.920978
0.920925
0.920795
0.920795
0.920859
0.920955
0.920924
0.920879
0.920875
0.920862
0.920933
0.920928
0.920911
0.920819
0.920912
0.92082
0.92096
0.920806
0.920911
0.920805
0.920864
0.92084
0.920833
0.92097
0.920835
0.920833
0.920845
0.920839
0.920851
0.920866
0.920844
0.920819
0.920819
0.920926
0.920841
0.920863
0.920982
0.920829
0.920845
0.920851
0.920904
0.920941
0.920817
0.920836
0.920943
0.920924
0.920958
0.920861
0.920844
0.920955
0.920784
0.920911
0.920785
0.920826
0.920847
0.920911
0.920928
0.920943
0.920848
0.920829
0.92086
0.920894
0.920921
0.920943
0.92085
0.92085
0.920849
0.920835
0.920861
0.920944
0.92084
0.920864
0.920952
0.920946
0.920852
0.920849
0.920912
0.920808
0.920944
0.920809
0.920911
0.920885
0.920827
0.920844
0.92084
0.92084
0.920825
0.920811
0.920848
0.920943
0.92091
0.920818
0.920845
0.920836
0.920844
0.920922
0.920805
0.920952
0.920858
0.920836
0.920805
0.920919
0.920853
0.920885
0.920848
0.920945
0.920849
0.920854
0.920865
0.920863
0.920897
0.920875
0.920844
0.920923
0.920858
0.920848
0.920845
0.920846
0.920919
0.920918
0.920855
0.920875
0.920922
0.920954
0.920927
0.920917
0.920849
0.920918
0.920919
0.920924
0.920917
0.920826
0.920911
0.920928
0.920845
0.920911
0.920836
0.920826
0.920856
0.92082
0.920851
0.920926
0.920848
0.920848
0.920918
0.920843
0.920929
0.92084
0.920837
0.920827
0.920848
0.920843
0.920941
0.92091
0.920924
0.920844
0.920853
0.920852
0.920836
0.920844
0.920846
0.920844
0.920881
0.920904
0.920836
0.920926
0.920836
0.920846
0.920921
0.920833
0.920844
0.920833
0.920849
0.92085
0.920836
0.920896
0.920849
0.920903
0.920837
0.92084
0.92084
0.92084
0.92084
0.92084
0.92084
0.920849
0.920827
0.920827
0.920826
0.920827
0.920821
0.920821
0.920897
0.920847
0.920844
0.920877
0.920828
0.920827
0.920844
0.920903
0.920844
0.920848
0.920896
0.920832
0.920897
0.920836
0.920844
0.920895
0.920902
0.920942
0.920934
0.920836
0.920948
0.920859
0.920903
0.920881
0.920844
0.92084
0.920797
0.92084
0.920951
0.920902
0.920844
0.920855
0.920904
0.92084
0.920885
0.920797
0.920902
0.92084
0.920842
0.920852
0.920828
0.920845
0.92082
0.920857
0.920953
0.920958
0.920825
0.920869
0.920855
0.920899
0.920831
0.920846
0.920902
0.920847
0.920894
0.920854
0.920894
0.920902
0.920789
0.920824
0.920825
0.920825
0.920848
0.920893
0.920808
0.920842
0.920874
0.920892
0.920898
0.920824
0.920896
0.920828
0.920897
0.920955
0.920893
0.920946
0.920836
0.920895
0.920788
0.920896
0.920839
0.920897
0.920841
0.920896
0.920862
0.920977
0.920862
0.920897
0.920823
0.920896
0.920874
0.920843
0.920844
0.920896
0.920893
0.920885
0.920838
0.920893
0.920856
0.920861
0.920822
0.920894
0.920886
0.920872
0.920885
0.920895
0.920884
0.920835
0.920855
0.920886
0.920896
0.920852
0.920852
0.920893
0.920822
0.920989
0.920864
0.920942
0.920872
0.921044
0.921044
0.921042
0.921042
0.921039
0.921048
0.921048
0.920836
0.920813
0.920855
0.920874
0.920881
0.920885
0.920854
0.920885
0.920886
0.920813
0.920884
0.920833
0.920911
0.920828
0.920863
0.920875
0.920885
0.920826
0.920864
0.920874
0.920864
0.920873
0.920883
0.920905
0.920874
0.920865
0.920832
0.92088
0.920884
0.920881
0.920875
0.920865
0.920853
0.920881
0.920853
0.920865
0.920875
0.920855
0.920864
0.920884
0.92084
0.920873
0.920813
0.920955
0.920837
0.920835
0.920865
0.920873
0.920844
0.920989
0.920863
0.920873
0.920975
0.920792
0.920792
0.920862
0.920882
0.920872
0.92088
0.920778
0.920776
0.920852
0.920855
0.920856
0.920994
0.920883
0.920839
0.920877
0.920878
0.920875
0.920989
0.920842
0.920882
0.920864
0.920864
0.920877
0.920874
0.920877
0.920877
0.920977
0.920945
0.920874
0.920864
0.920872
0.920878
0.920874
0.920872
0.920872
0.920956
0.920829
0.92088
0.920845
0.920841
0.920958
0.920862
0.920863
0.920822
0.920787
0.920786
0.920824
0.920884
0.920864
0.920958
0.920789
0.920775
0.920775
0.920991
0.920807
0.920799
0.920866
0.920828
0.920855
0.920847
0.920838
0.920839
0.920856
0.920988
0.920862
0.920847
0.920839
0.920983
0.920803
0.920982
0.920837
0.92085
0.920896
0.920858
0.920857
0.920817
0.920853
0.920817
0.920863
0.92084
0.920802
0.920803
0.92096
0.920845
0.921021
0.921022
0.921022
0.920843
0.920995
0.921022
0.920878
0.92102
0.920816
0.920816
0.921021
0.920868
0.920979
0.921025
0.920979
0.921026
0.920979
0.920807
0.920964
0.920993
0.921019
0.920858
0.920834
0.920982
0.920857
0.92102
0.920851
0.920868
0.921026
0.920982
0.921026
0.92099
0.920865
0.920813
0.920775
0.920776
0.920848
0.920775
0.920775
0.920776
0.920785
0.920961
0.920802
0.920825
0.920814
0.92085
0.920784
0.920784
0.920813
0.92099
0.92087
0.920997
0.920985
0.920978
0.92079
0.92079
0.920791
0.920791
0.92079
0.92078
0.920795
0.920785
0.920779
0.920793
0.920792
0.920779
0.920778
0.920784
0.920794
P_ext 1 563 float
0.0168111
0.016807
0.0168076
0.016807
0.0168055
0.0168076
0.0168111
0.0168073
0.016808
0.016807
0.0168104
0.0168073
0.0168074
0.016807
0.0168059
0.0168075
0.0168067
0.0168072
0.0168081
0.0168077
0.0168078
0.0168027
0.0168077
0.0168076
0.0168077
0.0168071
0.0168102
0.0168074
0.0168092
0.0168041
0.0168074
0.0168092
0.0168103
0.0168046
0.0168046
0.0168046
0.016804
0.0168047
0.0168074
0.0168103
0.0168092
0.016804
0.016804
0.0168074
0.0168098
0.0168092
0.0168081
0.016808
0.0168075
0.0168094
0.0168093
0.0168089
0.0168054
0.0168089
0.0168055
0.01681
0.0168046
0.0168089
0.0168046
0.0168076
0.0168067
0.0168063
0.0168101
0.0168064
0.0168063
0.0168068
0.0168066
0.0168072
0.0168077
0.0168069
0.0168054
0.0168055
0.0168092
0.0168066
0.0168076
0.0168104
0.016806
0.0168068
0.0168071
0.0168087
0.0168096
0.0168053
0.0168064
0.0168096
0.0168092
0.0168099
0.0168075
0.0168067
0.0168098
0.0168029
0.0168089
0.0168029
0.0168058
0.0168068
0.0168089
0.0168093
0.0168096
0.0168071
0.016806
0.0168074
0.0168084
0.0168091
0.0168096
0.0168072
0.0168071
0.0168071
0.0168063
0.0168075
0.0168096
0.0168067
0.0168076
0.0168098
0.0168097
0.0168072
0.0168071
0.0168089
0.0168046
0.0168096
0.0168046
0.0168089
0.0168082
0.016806
0.0168069
0.0168066
0.0168066
0.0168058
0.0168048
0.016807
0.0168096
0.0168088
0.0168053
0.016807
0.0168064
0.0168069
0.0168091
0.0168045
0.0168098
0.0168074
0.0168064
0.0168045
0.0168091
0.0168071
0.0168082
0.016807
0.0168097
0.0168071
0.0168071
0.0168075
0.0168076
0.0168085
0.0168079
0.0168069
0.0168092
0.0168074
0.016807
0.016807
0.0168069
0.0168091
0.0168091
0.0168074
0.0168079
0.0168091
0.0168098
0.0168092
0.016809
0.0168071
0.0168091
0.0168091
0.0168092
0.016809
0.0168058
0.0168089
0.0168093
0.0168069
0.0168089
0.0168064
0.0168058
0.0168072
0.0168055
0.0168071
0.0168092
0.0168071
0.0168071
0.0168091
0.0168067
0.0168093
0.0168066
0.0168064
0.0168058
0.0168071
0.0168067
0.0168096
0.0168089
0.0168092
0.016807
0.0168073
0.0168072
0.0168065
0.0168069
0.0168068
0.0168069
0.0168081
0.0168087
0.0168065
0.0168092
0.0168064
0.0168068
0.0168091
0.0168062
0.0168069
0.0168061
0.016807
0.0168071
0.0168064
0.0168085
0.0168069
0.0168087
0.0168065
0.0168067
0.0168067
0.0168067
0.0168067
0.0168067
0.0168067
0.016807
0.0168059
0.0168059
0.0168059
0.0168059
0.0168054
0.0168054
0.0168085
0.0168069
0.0168069
0.016808
0.0168059
0.0168058
0.0168069
0.0168087
0.016807
0.016807
0.0168085
0.0168061
0.0168085
0.0168064
0.0168069
0.0168085
0.0168087
0.0168096
0.0168094
0.0168065
0.0168097
0.0168075
0.0168087
0.0168081
0.016807
0.0168067
0.016804
0.0168067
0.0168098
0.0168087
0.0168069
0.0168072
0.0168087
0.0168067
0.0168082
0.016804
0.0168087
0.0168066
0.0168067
0.0168072
0.0168059
0.0168067
0.0168055
0.0168074
0.0168098
0.0168099
0.0168057
0.0168078
0.0168072
0.0168086
0.0168061
0.0168069
0.0168087
0.0168068
0.0168085
0.0168071
0.0168085
0.0168087
0.0168034
0.0168057
0.0168058
0.0168058
0.016807
0.0168085
0.0168047
0.0168067
0.0168079
0.0168084
0.0168086
0.0168057
0.0168085
0.0168058
0.0168086
0.0168098
0.0168084
0.0168097
0.0168064
0.0168085
0.0168034
0.0168085
0.0168065
0.0168086
0.0168066
0.0168085
0.0168075
0.0168103
0.0168076
0.0168085
0.0168056
0.0168085
0.0168078
0.0168067
0.0168069
0.0168085
0.0168085
0.0168082
0.0168064
0.0168084
0.0168072
0.0168075
0.0168055
0.0168085
0.0168082
0.0168078
0.0168082
0.0168085
0.0168082
0.0168062
0.0168073
0.0168082
0.0168085
0.0168071
0.0168071
0.0168084
0.0168056
0.0168105
0.0168075
0.0168096
0.0168078
0.0168116
0.0168116
0.0168115
0.0168115
0.0168115
0.0168116
0.0168116
0.0168063
0.0168049
0.0168073
0.0168079
0.0168081
0.0168082
0.0168071
0.0168082
0.0168082
0.0168049
0.0168082
0.0168061
0.0168089
0.016806
0.0168075
0.0168079
0.0168082
0.0168057
0.0168076
0.0168079
0.0168075
0.0168079
0.0168082
0.0168087
0.0168079
0.0168076
0.0168061
0.0168081
0.0168082
0.0168081
0.0168079
0.0168076
0.0168071
0.0168081
0.0168071
0.0168076
0.0168079
0.0168072
0.0168076
0.0168082
0.0168066
0.0168079
0.0168051
0.0168098
0.0168064
0.0168062
0.0168076
0.0168079
0.0168068
0.0168105
0.0168075
0.0168079
0.0168103
0.0168035
0.0168035
0.0168075
0.0168081
0.0168078
0.0168081
0.0168024
0.0168024
0.0168072
0.0168072
0.0168072
0.0168106
0.0168082
0.0168065
0.016808
0.016808
0.0168079
0.0168105
0.0168066
0.0168082
0.0168076
0.0168075
0.016808
0.0168079
0.016808
0.016808
0.0168103
0.0168096
0.0168079
0.0168075
0.0168079
0.0168081
0.0168079
0.0168078
0.0168079
0.0168099
0.016806
0.0168081
0.0168068
0.0168066
0.0168099
0.0168075
0.0168076
0.0168055
0.0168034
0.0168034
0.0168056
0.0168082
0.0168075
0.0168099
0.0168036
0.0168026
0.0168026
0.0168105
0.0168047
0.0168041
0.0168076
0.0168059
0.0168073
0.016807
0.0168065
0.0168065
0.0168072
0.0168105
0.0168075
0.0168069
0.0168065
0.0168104
0.0168044
0.0168104
0.0168065
0.016807
0.0168085
0.0168074
0.0168073
0.0168053
0.0168072
0.0168053
0.0168076
0.0168066
0.0168042
0.0168042
0.01681
0.0168069
0.0168111
0.0168111
0.0168111
0.0168067
0.0168106
0.0168112
0.0168081
0.0168111
0.0168052
0.0168053
0.0168111
0.0168078
0.0168103
0.0168112
0.0168103
0.0168112
0.0168103
0.0168046
0.01681
0.0168106
0.0168111
0.0168073
0.0168063
0.0168104
0.0168073
0.0168111
0.0168071
0.0168077
0.0168112
0.0168104
0.0168112
0.0168105
0.0168076
0.016805
0.0168026
0.0168027
0.0168069
0.0168026
0.0168026
0.0168027
0.0168032
0.01681
0.0168044
0.0168056
0.0168049
0.016807
0.0168031
0.0168031
0.0168049
0.0168105
0.0168078
0.0168107
0.0168105
0.0168103
0.0168036
0.0168037
0.0168037
0.0168037
0.0168037
0.0168027
0.0168038
0.016803
0.0168026
0.0168036
0.0168036
0.0168026
0.0168028
0.016803
0.0168037
FIELD solute_flux_TPM 2
S_ext 3 563 float
-5.0375e-05 1.68383e-05 1.23702e-18
2.33988e-06 4.36842e-06 3.54572e-18
-8.01363e-06 -6.3193e-06 -1.33159e-18
-2.64464e-06 2.67599e-06 -1.5306e-19
1.51073e-05 -4.34465e-06 -1.03006e-18
1.7076e-06 -9.97468e-06 -2.32912e-18
-4.96062e-05 -1.70432e-05 -1.84742e-18
-8.84802e-06 -6.49011e-06 -3.35926e-19
1.38149e-05 6.0246e-07 6.61081e-19
7.28309e-06 -2.62327e-06 2.1839e-18
3.35889e-05 7.81742e-06 5.28959e-18
1.40027e-06 -1.09027e-05 -1.50016e-18
8.71577e-06 7.00035e-06 -1.33528e-18
1.78881e-06 8.74687e-06 1.3596e-18
1.36971e-05 -2.04965e-06 -1.53711e-18
-1.01332e-05 -1.65189e-07 -1.84344e-18
1.89573e-06 9.10927e-06 -4.89718e-19
6.45431e-06 -1.56833e-06 -3.18114e-18
6.15311e-06 1.07164e-05 1.65067e-18
-9.22685e-06 1.1775e-06 -6.72818e-19
-2.17971e-06 -1.32673e-05 1.00144e-18
2.86249e-05 4.03932e-05 1.0823e-18
9.88379e-06 1.01832e-06 2.16657e-18
7.10166e-06 -7.05798e-06 -9.99707e-19
-9.35961e-06 -2.09588e-06 -4.6657e-18
-3.47898e-07 -7.04393e-06 -8.36155e-19
3.85406e-05 -3.00827e-06 1.10966e-18
8.96896e-06 6.46824e-06 1.50442e-18
-1.53279e-05 -1.24602e-05 -9.66686e-19
3.23859e-05 -8.59674e-06 -4.86489e-18
-1.03309e-05 -3.88112e-06 -4.19333e-18
3.28979e-06 -1.96632e-05 -1.6138e-18
2.89139e-05 -2.94627e-05 9.39297e-19
-3.46138e-06 -2.76276e-05 1.04278e-18
-1.956e-05 2.43102e-05 5.04315e-18
-2.56563e-05 -1.08049e-05 -3.98713e-18
2.1496e-05 2.81139e-05 -1.3954e-18
-2.95276e-05 -5.80988e-06 -3.53864e-19
9.20987e-06 -6.90718e-06 6.48247e-23
2.82495e-05 3.07008e-05 4.39127e-18
1.97987e-05 -8.648e-06 2.57224e-18
2.19147e-05 -2.70619e-05 1.56666e-18
-1.24858e-05 -3.24881e-05 -7.09753e-19
-9.88598e-06 4.08012e-06 -1.6831e-18
1.85393e-05 -1.81291e-05 1.26785e-18
-1.83686e-05 6.52575e-06 -1.29156e-18
-2.53321e-06 -1.25849e-05 -8.2128e-19
4.88735e-06 1.25463e-05 -3.33504e-19
-1.02398e-05 3.75707e-06 1.49158e-18
-1.10219e-05 1.73434e-05 1.9287e-18
1.99715e-05 9.38516e-06 1.54199e-19
1.80925e-05 -6.29837e-06 4.22642e-18
-1.0366e-05 1.03435e-05 1.73054e-18
-1.43346e-05 -1.2429e-05 1.30217e-18
-1.39246e-05 -3.4389e-06 -3.43353e-18
-2.69877e-05 1.60866e-05 -6.3159e-19
-1.93654e-05 -2.50206e-05 -3.45584e-18
3.76859e-06 -1.87338e-05 1.29895e-18
-3.13596e-05 4.30271e-06 1.02979e-18
3.78425e-06 8.58998e-06 1.16832e-18
-3.54475e-06 -5.36961e-06 -2.71401e-18
-4.19199e-06 -1.17473e-05 2.36192e-18
3.48262e-05 1.51674e-05 3.47259e-18
6.15096e-06 1.174e-05 8.65912e-19
8.13141e-06 -9.38483e-06 -1.5206e-18
-1.17136e-06 -1.33516e-05 8.56755e-19
3.0978e-06 -5.69752e-06 3.04297e-18
-6.32482e-06 -3.58589e-06 -1.52097e-18
-6.65889e-06 7.37953e-06 -1.64288e-19
1.60878e-06 -2.74154e-06 -6.78698e-19
-9.93602e-06 -1.0403e-05 -2.55207e-18
-1.40454e-05 3.44877e-06 4.7933e-18
-2.35655e-06 2.09348e-05 9.65185e-19
-1.14958e-05 6.90829e-06 -4.74011e-18
-5.68964e-06 9.05123e-06 -6.6231e-19
-3.59634e-05 4.4888e-06 1.25481e-18
5.22364e-06 -1.41062e-05 1.54804e-18
-1.21837e-05 -5.58059e-06 2.18868e-18
1.16031e-06 7.38493e-06 -1.50399e-18
1.63137e-05 3.12544e-06 2.11338e-18
2.09031e-05 -1.77917e-05 1.43044e-18
1.4714e-05 1.34864e-05 -2.23384e-18
7.87822e-06 -1.97018e-06 6.70956e-19
-1.94623e-05 1.42571e-05 -1.59743e-18
2.3277e-05 2.99295e-06 2.1e-18
-3.34863e-06 2.98219e-05 -2.21936e-18
-1.07297e-06 -1.06067e-05 2.67317e-18
1.17929e-05 6.36137e-06 2.0302e-18
1.783e-05 1.86657e-05 9.4618e-19
4.25168e-05 2.64338e-05 -2.81194e-18
-3.31051e-06 1.88257e-05 1.29776e-18
4.44127e-05 -2.49588e-05 5.4341e-18
-1.78488e-05 3.38366e-06 -1.36369e-21
1.15745e-05 7.21382e-06 3.39605e-19
-1.79783e-05 6.00747e-06 3.21778e-19
1.01252e-05 1.75565e-05 2.56943e-18
6.00801e-06 -2.6946e-05 1.5931e-19
1.17823e-06 7.38274e-06 -1.84489e-18
-9.53836e-06 -1.15465e-05 -1.85867e-19
1.8592e-06 1.09842e-05 2.5128e-18
1.6369e-05 3.29936e-06 4.91005e-19
-9.44838e-06 2.01246e-05 3.25402e-19
2.48197e-05 -8.28453e-06 1.59339e-18
-2.40171e-06 4.64699e-06 -1.5947e-19
6.44146e-06 3.67815e-06 1.84244e-18
-1.36964e-06 -7.16444e-06 1.66609e-19
2.1988e-06 -1.25423e-05 -1.85338e-18
1.10343e-05 2.51246e-06 -2.50573e-18
-5.00121e-06 2.49422e-05 1.58367e-19
-6.43204e-06 7.54897e-08 1.52112e-18
5.90797e-06 7.43361e-06 -1.32826e-18
-1.63737e-06 -2.54154e-05 -6.35257e-19
2.57339e-05 8.00477e-06 1.43729e-18
2.83241e-06 -4.67152e-06 -3.34553e-18
-6.99376e-06 -2.30583e-06 -2.19327e-18
-1.77531e-05 -7.57684e-06 -8.19479e-19
1.05853e-05 2.77036e-05 -2.59794e-18
-2.59893e-05 -9.27008e-06 -1.597e-19
1.0733e-05 -2.77777e-05 2.06404e-18
-2.28347e-06 -1.9506e-05 -9.75689e-19
1.3626e-05 3.67509e-07 5.09951e-18
-4.69274e-06 1.2173e-05 -3.22618e-18
-1.06619e-06 2.51268e-06 2.6898e-18
-2.50079e-06 -1.06935e-05 -4.37468e-18
3.40467e-06 -5.57126e-06 1.67336e-18
6.20908e-06 1.03991e-05 -1.86309e-18
2.22684e-05 7.30438e-06 5.86991e-18
5.62928e-06 -4.66879e-06 -2.52355e-18
-5.13776e-06 -2.7273e-05 -7.93496e-19
1.57717e-05 -1.16016e-05 6.51254e-19
3.30256e-06 1.83158e-05 -5.04375e-19
-1.75113e-06 -1.85712e-06 -3.71384e-18
-5.68308e-06 -5.39536e-06 -5.72929e-18
-3.08673e-06 1.04288e-07 4.02887e-18
-1.39224e-05 1.71761e-05 1.60941e-19
1.29198e-05 -2.49206e-05 1.04089e-18
-1.61936e-05 2.5605e-05 -4.76331e-19
-1.0241e-05 6.01487e-06 -1.85033e-18
1.60786e-06 8.1076e-06 -2.87375e-18
-1.50937e-05 -2.36298e-05 1.63597e-19
8.43985e-06 2.04658e-05 -3.28837e-19
1.13175e-05 5.84258e-06 8.39627e-19
1.42138e-05 -5.40001e-06 2.95591e-18
-8.65641e-07 -7.16371e-06 -2.50872e-18
-2.04137e-05 -1.87716e-05 -1.58357e-19
-1.66082e-06 7.17596e-06 -1.32682e-18
1.10912e-05 6.56129e-06 -6.67305e-19
1.19655e-05 -5.7072e-06 -5.09017e-19
5.24491e-06 -8.95226e-06 -2.00449e-18
1.5129e-05 -6.69416e-06 6.05386e-18
1.19583e-05 -5.66336e-06 3.14188e-18
3.08304e-06 2.39742e-07 -4.53909e-18
1.57825e-05 1.24951e-05 -3.24571e-19
-1.62183e-06 -1.06895e-05 1.34137e-18
-6.70747e-06 -2.72794e-06 -1.51385e-18
7.81471e-07 -2.46892e-06 -1.67624e-18
-2.14502e-06 1.01117e-05 2.02862e-18
-2.09976e-05 1.66731e-06 2.106e-18
-7.41217e-06 -2.01485e-05 -1.56708e-19
-4.95671e-06 6.09561e-06 2.01682e-18
8.4814e-06 1.03168e-05 -3.6466e-18
1.62879e-05 -1.16196e-05 2.73778e-18
-2.22597e-05 -1.20783e-05 -9.49495e-19
1.05869e-05 -1.69593e-05 -9.62787e-19
1.39674e-05 -1.67022e-05 -1.13216e-18
-6.88313e-06 2.48317e-06 -6.83188e-19
-1.20683e-05 -1.7364e-05 -3.23192e-19
-2.09777e-05 -3.5013e-06 4.84167e-19
-2.53387e-06 -1.93199e-05 -2.58057e-18
9.36882e-06 -1.93937e-05 -2.42649e-18
-6.07442e-06 -1.7186e-05 3.58286e-19
2.68237e-06 1.92068e-05 3.57319e-18
-9.73467e-06 -1.72579e-05 2.25451e-18
2.03604e-06 -1.04292e-05 -6.68676e-19
-1.50784e-05 1.09598e-05 1.60677e-19
-9.7201e-06 -7.94795e-06 -1.19567e-18
-1.79671e-05 -3.27458e-06 4.77153e-18
1.00232e-05 -5.91039e-06 -6.77311e-19
-2.79047e-06 1.57926e-05 -4.62109e-18
7.97973e-06 -5.89791e-06 -3.35927e-18
-1.79293e-05 -7.85373e-06 -1.45253e-18
-5.65477e-06 -4.6464e-06 1.17573e-18
5.89199e-06 4.70994e-06 -6.72615e-19
1.31243e-05 1.7594e-05 3.25255e-19
-1.11751e-05 -6.969e-06 4.04681e-18
-1.96476e-05 -4.76758e-07 1.58232e-19
-1.06206e-05 -3.09529e-06 2.36338e-18
-3.01583e-06 -1.07058e-05 1.84175e-19
1.16902e-05 1.41958e-05 2.38784e-18
-7.03901e-06 3.62128e-06 3.53179e-18
4.78697e-07 -1.31994e-05 1.87064e-18
-2.51724e-05 6.47043e-06 -1.6195e-19
1.53457e-05 1.24496e-05 6.44226e-19
2.23272e-06 2.01044e-05 1.44557e-18
-1.50563e-06 2.49044e-06 -1.00428e-20
-5.64459e-06 1.57303e-07 -3.69186e-18
2.77974e-06 4.86071e-06 1.00685e-18
-7.63846e-06 2.30331e-06 3.0418e-18
-1.35292e-06 -2.39031e-06 -1.50285e-18
1.16979e-06 1.33133e-05 2.5473e-18
2.95473e-06 1.92438e-07 -1.68765e-18
-1.20371e-05 2.91964e-06 1.31288e-18
-1.06575e-05 1.1784e-05 4.08052e-18
-1.96031e-06 7.59822e-06 -1.65936e-19
-1.77647e-05 1.10902e-05 2.06623e-21
-6.16634e-06 5.82066e-06 1.03156e-18
1.12083e-05 -7.68992e-06 1.00745e-18
2.24897e-05 -2.2452e-06 3.71471e-18
-1.38097e-05 7.31272e-06 -3.91064e-18
1.39674e-06 2.96024e-06 -2.35095e-18
1.44231e-05 -2.71559e-06 -2.55878e-18
-1.10075e-05 6.71367e-06 -2.19343e-18
-6.21529e-06 3.57873e-06 -1.35008e-18
7.87877e-06 2.59113e-06 -1.69809e-18
1.35604e-05 -8.41729e-06 3.11174e-18
-1.11102e-05 6.29546e-06 -3.37149e-18
-1.52627e-05 -3.21038e-06 -3.31702e-19
-1.08379e-05 -2.73647e-06 1.35391e-18
6.59277e-06 1.05972e-07 -4.21599e-18
6.74788e-06 2.28056e-08 2.51243e-18
2.93484e-06 5.39511e-06 2.87444e-18
3.22064e-06 -5.69984e-06 1.73045e-19
-3.21074e-06 5.54787e-06 -1.3495e-18
-3.35802e-06 -5.67309e-06 1.15753e-18
6.33339e-06 -4.87627e-06 3.69385e-18
-1.34027e-05 2.1864e-06 3.91143e-18
-1.32511e-05 -2.2282e-06 1.53208e-18
-8.50374e-06 1.04522e-05 5.97174e-18
-8.55011e-06 -1.0491e-05 -6.44447e-18
4.93329e-06 -1.33135e-05 6.65253e-19
4.75311e-06 1.32021e-05 5.12663e-19
9.34231e-07 1.59695e-05 3.2875e-19
7.32909e-06 -1.8647e-06 -2.02122e-18
1.58128e-06 -2.44674e-06 -2.84853e-18
-1.3143e-05 9.04331e-07 8.20705e-19
5.08673e-06 -1.31e-05 1.34708e-18
4.82067e-06 1.31464e-05 -8.52714e-19
3.08089e-06 -5.69703e-08 1.67133e-18
5.48769e-06 1.50666e-05 2.60175e-18
-1.43057e-06 -2.55428e-06 2.84552e-18
1.4495e-06 -7.19765e-06 -4.69463e-18
-1.37397e-05 -7.35682e-06 2.12448e-18
-1.39541e-05 -7.45017e-06 1.61043e-19
-1.34293e-05 8.32359e-06 -1.80957e-18
2.08263e-06 -8.20574e-06 1.51195e-18
-1.01742e-06 2.13273e-06 1.84764e-19
-4.52052e-07 -1.57142e-05 4.93645e-19
-4.8172e-06 -1.49223e-05 9.83565e-19
2.00059e-05 1.86081e-05 1.91487e-18
2.18625e-05 -1.12298e-06 1.59554e-18
-8.31976e-06 -2.46776e-06 1.86344e-18
-1.39163e-05 -2.47942e-05 -1.9145e-18
5.25012e-06 8.60709e-06 -3.30592e-19
-1.53805e-05 1.81511e-06 -3.26191e-19
1.25625e-05 3.60485e-06 -1.68046e-19
-2.88159e-06 -1.21132e-08 1.99224e-18
-3.07484e-06 -5.46471e-06 -5.20346e-18
-5.42806e-06 -2.57979e-05 -8.68647e-19
-6.35175e-06 1.95583e-08 1.00586e-18
-2.8932e-05 -1.08523e-06 -1.60196e-18
1.06731e-05 -1.18512e-05 9.78832e-19
1.60947e-06 2.53486e-06 4.98485e-19
-9.86785e-08 -1.10977e-05 1.01371e-18
-6.11453e-06 1.46971e-05 -1.59852e-19
-2.89786e-06 5.60225e-06 -3.25927e-19
1.28541e-05 -8.45619e-06 1.31641e-18
-2.50527e-05 -8.17798e-06 -6.27193e-18
-9.39491e-06 -1.24125e-05 3.4307e-18
3.246e-06 5.58187e-06 -1.67789e-18
1.0926e-05 3.16929e-06 -1.01684e-18
-2.98984e-06 -4.57376e-06 2.51245e-18
1.32411e-05 2.4536e-06 1.18694e-18
1.18697e-05 -6.32464e-06 -2.3644e-18
-2.32661e-07 1.78176e-05 6.19482e-18
5.2787e-06 -8.5714e-06 -2.34116e-18
2.9895e-05 1.26187e-06 1.26953e-18
-2.54028e-05 6.61175e-06 1.26312e-18
1.5217e-05 7.57012e-06 3.08104e-18
-4.00152e-06 -1.06293e-05 1.66386e-18
-9.71069e-06 -5.39656e-06 1.50589e-18
1.77982e-05 -1.45273e-07 4.41573e-18
-4.88743e-07 -1.58542e-05 -1.00573e-18
-7.97092e-06 -7.06812e-06 1.50052e-18
6.27265e-06 -1.45214e-05 -4.07438e-18
-3.94142e-07 1.31668e-05 5.23714e-19
4.80862e-06 1.6054e-05 3.12227e-18
1.11021e-05 -6.39111e-06 1.16906e-18
-1.16504e-05 1.16995e-05 -1.15055e-18
1.01778e-05 1.23959e-05 2.44414e-18
-4.32362e-05 1.03057e-05 -3.32885e-18
-6.74247e-06 1.70718e-05 3.77736e-18
8.30212e-06 -1.00257e-05 -1.02032e-18
-4.57513e-06 -1.21287e-05 -3.57157e-19
-7.6082e-06 2.74607e-06 1.51182e-18
-1.57613e-05 -4.33262e-06 6.49887e-19
-4.46522e-06 2.59581e-05 8.86784e-19
-8.01951e-06 7.81027e-06 -8.46258e-19
1.30309e-05 -2.90446e-06 7.12743e-18
-4.20791e-06 -1.58235e-05 -8.17359e-19
-9.13154e-06 1.4535e-05 1.48039e-18
-1.42506e-05 8.22699e-06 -2.22367e-18
-1.26004e-05 -9.19625e-06 1.30615e-18
1.19304e-05 -1.38704e-05 1.1825e-18
-1.67125e-05 -8.90506e-07 1.47265e-18
7.32054e-06 -2.50382e-05 9.48767e-19
1.20378e-05 -1.16789e-05 1.69816e-19
1.49641e-05 2.62738e-05 -1.61607e-19
1.30269e-06 1.28973e-05 8.62554e-19
1.80874e-06 -1.56865e-05 -1.30863e-18
-2.81159e-05 3.30244e-05 -1.04448e-18
-7.78487e-06 -1.48724e-05 3.12498e-18
1.08253e-05 -4.11632e-06 -2.20302e-18
-1.5759e-06 1.5809e-05 -1.63865e-18
8.36526e-06 -7.90959e-06 2.69325e-18
8.53786e-06 1.49619e-05 -4.93051e-19
1.0859e-05 -9.51857e-07 3.67282e-18
1.30706e-05 -3.82573e-05 2.05271e-18
-3.64966e-06 -8.01592e-06 2.33438e-18
-1.41917e-05 6.09213e-06 6.52009e-19
-1.3166e-05 1.23568e-05 -1.87944e-18
1.33762e-05 9.05471e-06 2.61698e-18
1.17493e-05 -6.81543e-06 -1.66407e-18
9.63073e-06 8.26749e-06 8.43873e-19
-3.54812e-06 -5.78193e-08 1.35702e-18
9.49078e-06 -1.42226e-05 -3.25807e-19
-1.04354e-05 -1.23934e-05 3.28353e-18
1.40518e-05 6.13491e-06 4.97356e-19
8.35121e-06 -7.9119e-06 -8.5743e-19
5.8304e-06 -1.53178e-05 -2.78915e-18
1.06078e-05 -4.58079e-06 -1.0116e-18
-9.89678e-06 -4.74478e-06 -2.67508e-18
8.95159e-07 -1.72236e-05 2.41348e-18
-1.58983e-05 2.76125e-06 -9.93092e-19
1.39235e-06 1.51686e-05 1.485e-18
1.29163e-05 4.2297e-06 -3.31978e-18
-1.33343e-05 -6.60189e-06 -1.68799e-19
-5.5147e-06 1.56883e-05 -2.62772e-18
-9.08314e-07 -1.49637e-05 1.16111e-18
1.27983e-05 7.79561e-06 5.11111e-19
-1.00148e-06 1.1471e-05 -4.17946e-18
-1.24303e-05 8.33453e-06 1.15255e-18
1.462e-05 7.05805e-06 -2.23291e-21
-1.07879e-05 -6.44561e-06 1.60458e-19
1.93444e-07 -1.26221e-05 2.52834e-18
1.14004e-05 1.23211e-05 -6.58638e-19
-1.44576e-05 -9.37434e-06 3.2871e-19
2.9535e-05 -2.11259e-05 4.03076e-18
1.14089e-05 -6.8229e-06 -3.38946e-19
5.28207e-06 2.61896e-05 1.92134e-18
1.07782e-05 -8.52632e-06 -2.49721e-18
-1.37146e-05 5.29413e-05 -3.56801e-18
-1.37853e-05 -5.24385e-05 3.85561e-18
3.44693e-05 4.50405e-05 1.77578e-18
3.40556e-05 -4.50295e-05 2.94532e-19
5.62711e-05 -2.79964e-08 3.86074e-18
-4.84153e-05 1.96261e-05 1.48114e-18
-4.7631e-05 -1.98305e-05 2.22452e-18
7.9981e-06 7.79588e-06 -1.52774e-18
1.96527e-05 1.46601e-05 -3.26858e-18
7.26109e-06 2.16095e-06 1.00801e-18
1.18901e-05 6.10604e-06 3.31983e-18
3.07553e-06 1.25491e-05 4.12872e-18
-1.16324e-05 -9.12404e-06 -2.81102e-18
1.10574e-05 -6.45486e-06 3.01553e-18
1.24193e-05 9.01478e-06 4.96614e-19
-1.94299e-06 1.50626e-05 -2.80235e-18
1.97527e-05 -1.34576e-05 4.12378e-18
2.26638e-06 -1.4697e-05 -3.29497e-19
1.44998e-05 3.26437e-06 -1.6437e-19
1.84025e-05 6.85589e-06 1.56637e-19
9.40384e-06 9.27881e-06 -1.00573e-18
1.00537e-05 4.20258e-06 -1.50062e-18
-1.14951e-05 6.79067e-06 -8.35537e-19
-1.38571e-05 5.5865e-06 3.21643e-19
1.52778e-05 -7.42252e-06 6.72251e-19
-1.14047e-05 -6.29394e-06 -2.33775e-18
-1.1538e-05 -6.51738e-06 3.27851e-19
-1.67591e-07 -1.30558e-05 -6.64879e-19
-1.00951e-07 -1.31949e-05 3.37895e-19
-1.23678e-05 -6.26324e-07 -9.94958e-19
1.65547e-05 -2.50772e-06 6.67194e-18
1.13819e-05 7.13925e-06 4.99063e-19
-1.12233e-05 6.77481e-06 -1.00498e-18
-9.90526e-06 1.09029e-05 -2.38172e-18
1.00254e-05 -8.60893e-06 2.47595e-18
-6.8525e-06 1.07263e-05 2.31092e-18
-8.80223e-06 -9.15308e-06 1.15226e-18
-7.62569e-07 1.31801e-05 2.32882e-18
-7.41186e-07 1.31769e-05 2.51193e-18
1.70765e-08 -1.26244e-05 2.02538e-18
3.78948e-06 -1.22708e-05 -6.26979e-18
-1.08955e-05 -6.25054e-06 3.33003e-19
9.83884e-06 -3.51842e-06 1.33098e-18
4.17066e-07 1.34046e-05 5.14696e-18
1.85419e-07 1.17119e-05 2.86103e-18
-1.45916e-06 1.0534e-05 -9.95672e-19
1.36573e-05 -3.46009e-06 5.93029e-18
-1.07917e-05 3.33436e-06 -5.08581e-19
2.50757e-06 1.34173e-05 3.82613e-18
-2.16077e-05 8.4486e-06 1.68796e-19
5.74787e-06 2.55796e-05 2.53561e-18
-1.10684e-05 2.87e-06 1.75988e-22
1.29998e-05 -7.7064e-06 5.03384e-19
5.1534e-07 1.32053e-05 8.48596e-19
-1.26309e-05 4.20632e-06 3.23173e-19
1.64017e-06 -1.04016e-05 1.18831e-18
5.69453e-07 -3.53707e-05 2.48097e-18
1.22904e-06 1.10049e-05 2.67527e-18
-1.05887e-05 8.59285e-06 2.32154e-18
1.05367e-05 3.87529e-05 -7.94842e-19
3.14767e-05 2.61112e-05 -5.76616e-18
3.60935e-05 -2.4694e-05 5.23972e-18
9.44879e-06 -6.43783e-06 6.62458e-19
-9.79476e-06 8.6295e-06 9.9048e-19
-1.24891e-05 -4.97414e-06 -2.83045e-18
-1.21129e-05 -4.19267e-06 -1.82491e-18
4.44291e-05 -1.22122e-05 3.88753e-18
4.53159e-05 9.53067e-06 -3.90308e-18
6.91331e-06 2.45886e-06 1.70825e-19
3.71352e-07 1.24186e-05 1.01699e-18
6.07237e-08 1.24126e-05 1.35228e-18
-2.94536e-05 -2.15644e-05 1.23566e-18
7.11045e-06 -1.06832e-05 4.98252e-19
7.63262e-06 8.28206e-06 -2.1992e-18
-1.31506e-05 -2.13738e-06 3.2139e-19
-8.72075e-06 1.05331e-05 8.29592e-19
-1.17164e-05 5.64804e-06 1.98161e-18
2.91689e-05 2.092e-05 1.54217e-18
1.03345e-05 4.52928e-06 -6.70631e-19
-3.48685e-06 1.23547e-05 1.1547e-18
-1.06948e-05 -7.26144e-06 -1.33514e-18
1.08257e-06 -1.29305e-05 3.4381e-19
-5.50544e-06 -1.19012e-05 -1.15757e-18
-1.07035e-05 -7.28017e-06 -3.34152e-19
6.56835e-06 -1.17527e-05 -3.4753e-18
8.87114e-06 -1.05333e-05 1.32691e-18
-1.79404e-06 -3.70205e-05 6.27491e-19
1.58315e-05 -2.50961e-05 -3.1966e-19
1.08669e-06 -1.29645e-05 3.38446e-19
1.14383e-05 7.10977e-06 2.34148e-18
-9.04488e-06 -9.14398e-06 4.96584e-19
-6.07871e-06 1.2137e-05 1.8252e-18
-3.08138e-06 1.3049e-05 -3.26637e-19
1.04986e-05 8.8383e-06 -9.98239e-19
3.71308e-06 -1.23947e-05 -4.97321e-18
-8.49361e-06 -2.43304e-05 -2.69027e-18
-1.37186e-06 1.63851e-05 -1.68223e-18
9.24438e-06 9.0134e-06 -1.49003e-18
-8.22324e-06 -6.57725e-06 1.84197e-18
-8.68362e-06 6.85737e-06 -2.03174e-18
2.72229e-05 -1.16845e-05 4.42741e-18
4.74296e-06 -8.39279e-06 -1.33107e-18
-5.23021e-06 -7.81867e-06 -3.83383e-18
1.42606e-05 4.38264e-06 2.73861e-18
8.8117e-06 -3.17856e-05 5.07412e-18
-2.31267e-05 -2.35026e-05 -2.10914e-18
1.55389e-05 4.03225e-06 -1.62868e-19
-5.78578e-06 -1.1238e-05 1.64336e-19
1.1852e-05 6.07882e-06 2.83944e-18
-1.75157e-05 -1.94626e-05 -4.7654e-19
7.13724e-06 3.23125e-05 1.93538e-18
3.13403e-05 -4.04892e-05 3.49745e-19
-1.93968e-05 -4.73753e-05 -1.42539e-18
1.64907e-05 -3.22139e-05 1.84884e-18
-8.37076e-06 2.88475e-05 -4.65981e-18
-4.7851e-06 2.55309e-05 1.58558e-18
-1.17082e-05 5.6658e-06 2.49107e-18
4.02109e-06 1.58337e-05 2.75119e-18
-1.46552e-06 7.92403e-06 1.68265e-18
6.49046e-06 2.14298e-06 1.17814e-18
-2.18046e-06 1.05063e-05 1.16864e-20
-1.47735e-07 1.35702e-05 -1.5217e-19
1.06497e-05 6.22019e-06 5.36176e-18
5.2383e-07 3.52032e-05 -4.18571e-18
-9.26657e-06 6.60217e-06 6.67804e-19
1.03474e-05 -3.91725e-06 -3.42011e-19
1.1173e-05 -2.79949e-06 -2.88399e-18
-3.60831e-05 -5.20049e-06 1.64094e-19
-2.28742e-05 1.089e-05 -2.08247e-18
-2.61781e-05 -3.1045e-05 -1.66078e-19
5.69025e-06 5.4002e-06 -6.57628e-19
9.08955e-06 4.79972e-06 -5.06145e-19
1.66053e-05 -2.67805e-06 6.87849e-18
-5.06862e-06 -8.24777e-06 1.67387e-18
1.09641e-05 5.47723e-06 2.01023e-18
4.8801e-06 -1.98268e-05 2.24244e-18
-8.78957e-06 6.34694e-06 -6.71773e-19
-1.47248e-05 -1.41354e-05 -1.87534e-19
-3.59484e-06 1.01846e-05 1.00943e-18
-2.23861e-06 1.33605e-05 3.56616e-18
2.28583e-05 1.41892e-05 -2.07573e-18
2.43754e-05 -1.29238e-05 8.52992e-19
-2.52562e-05 -6.79612e-06 -1.57504e-18
4.86339e-06 5.05076e-06 -1.84877e-18
-2.93157e-06 6.14556e-05 -2.00346e-18
2.0128e-09 -6.31257e-05 5.40575e-18
3.11163e-05 5.32504e-05 -2.00526e-18
-1.23727e-05 5.31872e-06 -4.56199e-18
-1.67078e-05 3.37438e-05 -1.60129e-19
3.13085e-05 -5.13973e-05 3.38364e-18
-7.26154e-06 -1.12111e-05 1.4911e-18
4.76104e-05 4.14296e-05 2.92689e-18
1.59178e-05 -1.18014e-05 4.136e-18
-2.27878e-06 -1.96738e-05 1.53987e-19
4.98837e-05 -4.05112e-05 5.41413e-18
-4.21475e-06 9.00832e-06 -1.61688e-19
-3.20105e-05 -2.0332e-05 7.87185e-19
-2.63195e-05 -5.49604e-05 -1.65343e-19
-1.49125e-05 -3.48474e-05 -1.72613e-18
-2.70583e-05 5.58598e-05 -3.23394e-18
-6.40808e-06 3.87134e-05 -7.81089e-19
1.06915e-05 2.47258e-05 -6.7351e-19
-1.72049e-05 2.21056e-05 -3.62771e-18
-1.59889e-05 -3.28532e-05 -9.30469e-19
6.12468e-05 1.07506e-05 4.02047e-18
-1.07539e-05 6.68059e-06 4.98234e-19
-3.92174e-06 1.05703e-05 2.05404e-18
-3.03616e-05 2.18579e-05 3.28745e-18
-1.09207e-05 6.28471e-06 -1.51018e-18
6.06439e-05 -9.58637e-06 4.61947e-18
-9.79012e-06 4.87238e-06 -1.84789e-18
4.52629e-06 -9.06975e-06 6.66518e-19
-4.70828e-05 -3.58833e-05 6.18201e-19
-1.60658e-05 3.48728e-05 -4.8505e-18
-4.82035e-05 3.56273e-05 -3.09667e-19
1.4589e-05 3.2094e-05 -1.70585e-18
-9.29057e-06 6.57048e-06 9.95401e-19
-1.34706e-05 1.62509e-05 -1.20433e-18
-2.41651e-05 3.0364e-05 1.60356e-18
-3.78993e-05 -4.88084e-06 7.08098e-19
-6.62986e-07 1.04171e-05 -1.5054e-18
-2.5593e-05 -3.04916e-05 -1.6784e-19
-3.92153e-05 6.92502e-06 -3.00858e-18
-1.49421e-05 3.46471e-05 -1.39946e-18
-1.15235e-05 4.60853e-05 4.58619e-18
-1.12165e-05 2.48944e-05 -1.26553e-18
-2.23093e-05 1.79799e-05 -2.76854e-18
1.63333e-05 -3.98146e-06 -1.37679e-18
2.55822e-05 -1.32956e-06 6.19662e-18
8.66618e-06 5.3309e-06 -2.5196e-18
-8.09652e-06 -5.30334e-05 -2.81483e-18
-4.99866e-05 -1.94909e-05 -8.78854e-19
2.49085e-05 2.76988e-07 -2.23564e-18
3.5909e-05 -6.93355e-06 5.10138e-18
-6.5739e-06 -8.3446e-06 -4.98295e-19
-3.11386e-05 2.19053e-05 -7.73872e-19
-2.79073e-05 3.19771e-05 7.78539e-19
3.79595e-05 -1.36755e-05 3.6255e-18
-1.8675e-05 -3.16308e-05 -1.37771e-18
-1.90081e-05 3.13849e-05 2.11604e-18
-3.68678e-05 -1.31283e-06 -1.05044e-18
-1.67611e-05 3.29875e-05 -5.21069e-18
-3.67542e-05 3.88189e-07 -5.28832e-19
4.57531e-05 1.63791e-05 2.99779e-18
3.68991e-05 1.36769e-06 4.18748e-18
3.47088e-05 -1.77796e-05 1.57142e-18
1.01382e-05 -4.88048e-05 1.75527e-18
1.83305e-05 -3.19474e-05 1.02719e-18
1.82057e-05 3.19431e-05 1.40105e-18
9.92867e-06 4.76875e-05 1.24565e-18
4.99611e-05 -1.40897e-05 -4.57955e-18
3.20182e-05 1.58579e-05 -2.98001e-18
3.07505e-05 8.3983e-06 -4.869e-18
P_ext 3 563 float
-9.0607e-07 3.06347e-07 -1.19427e-20
8.49387e-10 3.35358e-08 3.22889e-21
-8.34477e-08 -7.84791e-08 3.36458e-20
-2.63972e-08 2.43647e-08 -2.84432e-20
2.30015e-08 4.47342e-10 7.95945e-21
2.74672e-08 -1.11464e-07 -9.76915e-23
-8.92086e-07 -3.10053e-07 1.66532e-20
-6.54127e-08 -7.42171e-08 -5.21847e-20
1.8201e-07 3.22237e-09 5.17564e-21
6.64383e-08 -6.23499e-09 -2.07003e-20
5.89786e-07 1.38246e-07 7.99413e-20
3.2404e-08 -9.48388e-08 -1.03994e-20
7.4242e-08 8.83871e-08 3.11484e-20
-7.65861e-09 6.92259e-08 -3.09895e-20
2.07792e-08 7.71348e-09 1.30421e-20
-1.1634e-07 -1.90446e-09 3.09009e-20
-1.4546e-08 4.56109e-08 -2.33592e-20
7.01298e-08 -1.05794e-08 -6.53519e-20
8.05623e-08 1.43679e-07 4.62873e-20
-1.08078e-07 1.08978e-08 3.34585e-20
-4.05804e-08 -1.53081e-07 1.55213e-19
1.3437e-09 2.42388e-10 7.47311e-20
1.19705e-07 9.74485e-09 3.12814e-20
7.62043e-08 -8.79926e-08 -2.64764e-21
-1.10404e-07 -1.77752e-08 2.0222e-20
-2.08182e-08 -6.04084e-08 -5.2187e-20
6.78014e-07 -5.54654e-08 4.96857e-21
8.30254e-08 7.00027e-08 -1.02441e-20
-2.48048e-07 -1.97032e-07 -2.51804e-20
1.45583e-08 2.74474e-09 -1.6617e-20
-1.10849e-07 -1.97329e-08 4.60005e-21
4.84761e-08 -3.1546e-07 -1.34298e-22
5.09501e-07 -5.21794e-07 1.0019e-19
1.07998e-09 -2.39012e-08 -5.21446e-21
-6.42751e-09 1.83802e-08 -7.33623e-21
-1.99534e-08 -1.3141e-08 -3.28241e-20
2.631e-09 1.32009e-08 -8.27951e-21
-2.01688e-08 3.43779e-09 7.25191e-20
8.01753e-08 -8.72105e-08 3.90093e-20
4.97177e-07 5.43785e-07 4.90733e-20
3.1754e-07 -1.43868e-07 6.02859e-20
4.89577e-09 -1.20897e-08 1.37019e-20
-7.95276e-09 -1.05773e-08 -1.65496e-20
-1.10118e-07 2.26117e-08 -2.11391e-20
3.15066e-07 -3.0941e-07 3.95135e-20
-2.93545e-07 1.05661e-07 -7.61771e-21
-3.70824e-08 -1.61805e-07 5.65228e-20
6.69035e-08 1.62518e-07 -3.36605e-20
-1.05626e-07 2.76159e-08 -7.83196e-21
-1.81822e-07 2.82793e-07 3.51679e-20
3.22285e-07 1.57835e-07 -1.99038e-20
2.79828e-07 -9.20333e-08 8.87591e-20
-8.23106e-09 1.95672e-08 8.44701e-21
-2.18984e-07 -1.96509e-07 2.02426e-20
-2.14636e-08 2.83767e-09 2.62475e-20
-4.69747e-07 2.75861e-07 -4.9833e-21
-5.96771e-09 -1.83036e-08 -4.86175e-20
6.23583e-08 -2.8918e-07 4.06465e-20
-1.8652e-08 -4.06794e-09 -9.17415e-20
4.89136e-08 9.80723e-08 -2.83109e-20
-2.60952e-08 -7.90548e-09 3.35546e-20
-2.75509e-08 -2.58627e-08 9.49823e-20
6.11313e-07 2.69136e-07 5.67667e-20
-5.38873e-10 5.33468e-08 3.47111e-20
8.23122e-09 -3.55902e-08 8.18751e-20
1.38617e-08 -7.9201e-08 -5.73594e-20
-5.51131e-09 -2.59263e-08 1.00054e-19
-6.33978e-08 -1.61038e-08 4.138e-20
-7.38054e-08 9.03075e-08 -2.8394e-20
1.97933e-08 -7.17989e-09 -1.84628e-20
-8.1183e-09 -2.01312e-08 -3.18571e-20
-2.12286e-08 -3.1147e-09 -1.03611e-20
-3.65924e-08 3.39015e-07 -5.76757e-20
-6.50988e-08 3.28795e-08 -1.16214e-19
-6.31739e-08 1.08056e-07 -2.60332e-21
-6.35721e-07 7.4723e-08 3.42935e-20
2.06253e-11 -5.02987e-08 2.15746e-20
-6.11572e-08 -5.12503e-08 -1.56438e-20
2.57631e-08 6.28529e-08 -1.30468e-20
2.43595e-07 4.87006e-08 -4.9811e-21
3.49165e-07 -3.03804e-07 8.95511e-20
9.55406e-09 2.34088e-08 -1.3487e-20
2.35926e-08 7.33381e-09 -1.84594e-20
-3.25345e-07 2.40705e-07 -7.64534e-21
3.7975e-07 4.61676e-08 1.36274e-22
-5.75649e-08 5.14756e-07 6.13199e-20
-1.99528e-08 -1.03119e-07 -2.31087e-20
7.00097e-08 4.93111e-08 1.5975e-20
3.03052e-07 3.19592e-07 -7.32226e-21
5.48612e-09 2.42733e-09 6.55569e-20
-5.84035e-08 2.90815e-07 -4.79691e-20
4.95509e-09 -2.64258e-09 -3.82763e-20
-3.50358e-08 2.39049e-08 1.58997e-20
7.56683e-08 3.07894e-08 1.32196e-20
-2.80021e-07 8.65638e-08 -2.27999e-20
1.62536e-07 2.85604e-07 8.01495e-20
1.01118e-07 -4.56551e-07 1.7476e-20
2.37636e-08 6.22886e-08 -3.40702e-20
-4.2978e-08 -2.55647e-08 2.62395e-20
3.56286e-08 1.13933e-07 -1.77859e-20
2.36916e-07 4.03133e-08 -1.28002e-20
-1.57292e-07 3.2495e-07 2.47646e-23
4.1815e-07 -1.36664e-07 7.71088e-20
-2.31956e-08 5.06428e-08 2.7294e-21
4.44469e-08 4.51534e-08 -2.07504e-20
-2.64272e-08 -6.09491e-08 -6.78795e-20
-1.06383e-08 -4.64255e-08 -2.10607e-20
1.22959e-07 1.47361e-08 7.57558e-21
-8.97203e-08 4.19671e-07 1.22547e-20
-2.07304e-08 1.28003e-08 1.07335e-20
6.13297e-08 9.08958e-08 1.54785e-20
-3.03392e-08 -4.3068e-07 -2.50543e-21
4.35677e-07 1.30813e-07 -1.22199e-20
2.9651e-08 -5.23987e-08 -2.3663e-20
-6.76932e-08 -7.73809e-09 3.61093e-20
-2.78623e-07 -1.11826e-07 -1.29216e-20
1.37652e-08 1.47177e-08 2.13886e-20
-4.42624e-07 -1.54794e-07 9.90988e-21
1.39749e-08 -1.46778e-08 3.49239e-20
-4.30389e-08 -3.02592e-07 -4.55466e-20
1.86737e-07 7.08686e-09 4.90478e-20
-1.66253e-08 1.41685e-08 7.77265e-21
4.46843e-09 2.03889e-08 -1.27978e-20
1.2499e-08 -5.46818e-08 -1.20916e-19
2.16912e-08 -1.01327e-08 1.82949e-20
3.89232e-10 2.19575e-08 -3.70487e-20
1.89485e-08 -2.36824e-09 5.41529e-20
3.53789e-08 -5.22068e-08 -4.20978e-20
-9.06292e-08 -4.62232e-07 -1.74767e-20
2.39393e-07 -1.84291e-07 -2.53739e-21
7.65265e-10 2.91402e-08 -7.85274e-21
-2.01823e-08 -3.64494e-09 -3.46253e-20
-6.55454e-09 -2.25622e-08 -8.69019e-20
-1.66376e-08 -1.17515e-08 1.33641e-20
-2.23811e-07 2.79679e-07 -2.01464e-20
-2.56991e-10 -2.21859e-08 -2.14682e-20
-2.79981e-07 4.39612e-07 -7.54506e-21
-1.05184e-07 4.83667e-08 2.83196e-20
1.47879e-08 1.5933e-08 5.24176e-20
-1.91005e-08 -1.11691e-08 1.06343e-20
1.36502e-07 3.29444e-07 1.74232e-20
7.87246e-08 7.01748e-08 1.57719e-20
1.9114e-07 -6.30326e-08 2.58702e-21
1.07609e-08 -5.87998e-08 -6.01137e-20
-3.46882e-07 -3.19646e-07 4.98038e-21
-3.34416e-08 5.77771e-08 -2.33473e-20
8.68111e-08 4.63071e-08 -3.392e-20
1.26958e-07 -4.37039e-08 -3.64575e-20
5.48268e-08 -1.09532e-07 -2.8726e-20
2.17387e-07 -1.00242e-07 4.36843e-20
1.44617e-07 -6.82614e-08 1.64405e-22
1.45262e-08 -1.205e-08 -3.0572e-21
2.52178e-07 1.99471e-07 -5.13814e-21
-3.65011e-08 -1.05531e-07 -4.14982e-20
-4.48137e-08 -3.83513e-08 -9.93992e-20
-7.33359e-09 -1.92329e-08 -4.44869e-20
1.00753e-08 7.52884e-08 3.96113e-20
-3.37286e-07 2.41809e-08 2.0231e-20
-1.23218e-07 -3.2197e-07 7.67681e-21
-5.30502e-08 6.76214e-08 4.45395e-20
1.04327e-07 1.39043e-07 2.30274e-21
2.59564e-07 -1.84099e-07 5.11957e-21
-3.79481e-07 -2.02891e-07 -3.45111e-20
1.68807e-07 -2.74806e-07 7.43049e-21
2.19803e-07 -2.70379e-07 -4.81152e-20
-6.47166e-08 6.40417e-09 -1.59319e-20
-1.92961e-07 -2.7923e-07 7.81284e-20
-3.37771e-07 -5.29368e-08 -5.03321e-21
-4.02563e-08 -3.0825e-07 -3.27699e-20
1.50258e-07 -3.10572e-07 -3.29793e-20
3.14769e-09 -4.26647e-08 -1.02855e-20
4.46507e-08 2.97358e-07 -3.01623e-20
-1.59078e-07 -2.78285e-07 9.53152e-20
-1.49282e-08 -6.825e-08 -9.42523e-20
-2.29941e-07 1.72146e-07 5.11026e-21
-4.50278e-08 -1.47497e-08 2.60492e-20
-3.5069e-08 -2.41113e-08 -5.01894e-20
9.17473e-08 -4.70483e-08 9.8863e-20
-1.26143e-08 1.78553e-08 4.51613e-20
4.87564e-08 -6.15568e-08 3.10122e-20
-2.86137e-07 -1.27253e-07 -2.02335e-20
-3.78851e-08 -5.10337e-08 -2.34061e-20
3.9593e-08 5.41401e-08 -1.07221e-22
2.06898e-07 2.85599e-07 -1.25707e-20
-7.32027e-08 -3.3754e-08 2.6497e-20
-3.18299e-07 -7.16104e-09 -2.50312e-20
-4.07695e-08 -3.78279e-08 2.81124e-21
-2.3148e-09 -5.4768e-08 -1.23521e-19
3.99387e-08 2.01341e-08 3.73228e-20
-4.60677e-08 4.54195e-08 1.34293e-20
-7.69691e-09 -8.06305e-08 8.29579e-21
-4.2491e-07 1.04664e-07 4.23003e-20
2.32903e-07 1.98693e-07 2.01956e-20
3.1119e-08 3.23615e-07 -7.42636e-21
-1.876e-08 6.44272e-09 2.43352e-21
-6.25836e-08 1.94473e-09 -1.09369e-20
2.87306e-08 5.48567e-08 1.05429e-20
-2.27292e-08 -5.59081e-09 3.70233e-20
2.69638e-09 -1.93894e-08 2.63295e-21
-1.2521e-08 8.53494e-08 -2.086e-21
1.38618e-08 1.4617e-08 -1.33369e-20
-1.58101e-07 3.49471e-08 -4.62109e-20
-1.60359e-07 1.74968e-07 7.14499e-20
-1.7306e-08 1.60444e-08 -1.31187e-20
-2.9013e-07 1.75095e-07 -2.24647e-20
-7.43347e-09 2.47056e-08 -1.54096e-20
7.82688e-08 -2.80299e-08 1.57433e-20
3.6368e-07 -3.3458e-08 5.17379e-21
-4.55596e-08 2.88274e-08 -1.37845e-19
1.84328e-08 8.48977e-09 -2.79648e-21
4.74155e-08 -2.96827e-08 -3.16216e-22
-8.13733e-08 2.7113e-08 -5.55102e-21
-5.92248e-08 1.55182e-08 4.97468e-21
2.08097e-08 -6.09076e-09 -2.65904e-20
1.92653e-07 -1.17163e-07 6.3965e-20
-7.57947e-08 4.83273e-08 -7.37009e-20
-2.26498e-07 -4.72314e-08 1.50597e-20
-4.81111e-08 -2.53389e-08 1.5891e-20
1.83965e-08 -1.22271e-08 -2.40832e-20
2.03801e-08 1.43327e-08 -1.04643e-20
-5.15881e-09 2.31766e-08 6.5911e-20
-2.10005e-09 -2.61503e-08 7.8571e-20
-2.12256e-08 1.0838e-08 -1.58919e-20
-2.37551e-08 -1.21577e-08 5.20621e-20
5.95138e-08 -2.24843e-08 -7.55374e-20
-2.17582e-08 -5.99668e-09 4.78978e-20
-2.17116e-08 5.77632e-09 2.9242e-20
-5.34063e-09 2.1578e-08 -3.36773e-20
-5.79943e-09 -2.20511e-08 -7.6891e-20
1.435e-08 -1.60604e-08 -9.88797e-20
1.37954e-08 1.53701e-08 2.13476e-20
8.33065e-09 2.29915e-07 -6.61106e-20
4.45896e-08 -3.67955e-08 2.8501e-20
1.04071e-08 -1.963e-08 -2.62966e-20
-1.73377e-07 6.40644e-09 -1.81203e-20
1.64567e-08 -1.56066e-08 -5.04695e-20
1.53651e-08 1.58491e-08 6.34774e-20
2.35767e-08 -5.13341e-10 1.30929e-20
7.95939e-08 2.25311e-07 7.6175e-20
-1.19299e-08 -1.95077e-08 -2.40795e-21
2.57992e-08 -5.90376e-08 -4.47031e-20
-1.93496e-07 -1.07057e-07 2.30408e-20
-4.24973e-08 -2.75857e-08 -1.60207e-20
-1.94205e-07 1.15179e-07 -2.92106e-22
1.72166e-08 -1.76382e-08 1.30738e-20
-8.25331e-09 1.83426e-08 -3.61454e-20
-4.54156e-09 -2.22635e-07 6.6374e-20
-7.28917e-08 -2.2051e-07 7.87738e-20
3.34228e-07 3.18107e-07 -9.84314e-21
3.57499e-07 -2.03026e-08 -5.9731e-20
-2.53354e-08 5.52724e-09 1.86153e-20
-2.39101e-07 -4.22524e-07 3.46211e-20
5.69908e-08 9.77198e-08 -1.55837e-20
-2.29166e-07 2.69911e-08 -1.02324e-20
1.64503e-07 4.59994e-08 1.53464e-20
-2.24729e-08 -9.09004e-11 5.05912e-21
4.96797e-10 -2.3353e-08 -9.18052e-20
-2.03521e-09 -1.59613e-08 -2.16862e-20
-1.99112e-08 -1.18572e-08 5.75933e-20
-4.95755e-07 -1.87865e-08 -5.2571e-21
1.55794e-07 -1.76205e-07 -4.80826e-20
1.05894e-08 2.05438e-08 -5.73728e-20
5.41688e-09 -9.83524e-08 -1.04035e-19
-9.2931e-08 2.20077e-07 2.57043e-21
1.91236e-09 2.47105e-08 -4.17235e-20
1.66228e-07 -1.18951e-07 3.06932e-20
-1.46012e-08 -6.38906e-09 -7.37204e-20
-1.41369e-07 -1.83736e-07 4.09413e-20
1.94724e-08 9.89832e-09 8.37095e-20
4.60709e-08 4.45583e-08 -1.59268e-20
-3.27921e-08 -5.10823e-08 -2.31918e-20
2.01571e-08 -6.53159e-09 1.32309e-20
6.828e-08 -4.76706e-08 2.07646e-20
-4.05238e-09 3.80598e-08 -2.03793e-20
5.61815e-08 -9.46931e-08 -1.31621e-20
5.13214e-07 2.58591e-08 7.49419e-21
-4.34791e-07 1.15036e-07 9.11607e-20
3.63811e-08 2.53505e-08 4.01991e-20
-5.38523e-08 -1.29647e-07 5.70137e-20
-8.18434e-08 -5.3396e-08 4.17475e-20
2.66466e-07 -2.67868e-09 -1.24666e-20
2.27543e-09 -5.08161e-08 -2.47547e-21
-6.65758e-08 -2.34948e-08 3.65323e-20
9.08117e-08 -2.16975e-07 -5.36163e-21
7.23875e-09 8.73728e-08 -2.22186e-21
7.45321e-08 2.31132e-07 2.57417e-20
8.9426e-08 -4.71266e-08 -3.39028e-20
-1.63167e-07 1.73678e-07 5.61066e-20
1.50044e-07 1.85409e-07 3.31268e-20
-9.42559e-09 4.21125e-09 -4.11452e-20
1.55961e-09 4.02526e-08 2.19364e-20
3.02286e-09 -1.82588e-08 -1.59706e-20
-1.44611e-08 -1.19791e-08 2.61423e-20
-4.98125e-08 3.95063e-08 -1.03638e-20
-2.28611e-07 -5.41615e-08 4.99896e-21
7.96062e-10 2.56762e-08 3.81003e-20
-5.97735e-08 1.78303e-08 -2.37294e-20
1.61963e-07 -2.3477e-08 1.06333e-19
-6.92689e-08 -2.24299e-07 3.585e-20
-1.36426e-07 2.17268e-07 2.77308e-21
-3.84968e-08 1.77945e-08 3.70666e-20
-1.8284e-07 -1.2937e-07 5.10054e-21
4.13683e-08 -1.93934e-08 -4.52382e-20
-2.47914e-07 -1.21389e-08 -1.7827e-20
1.21384e-07 -4.28328e-07 6.90276e-20
1.65815e-07 -1.7413e-07 -1.51784e-20
2.53587e-07 4.4961e-07 1.24359e-20
-2.38154e-09 5.43097e-08 -4.97441e-20
2.17623e-08 -2.25852e-07 -2.30214e-20
-8.8067e-09 5.33516e-09 -3.2667e-20
-1.17546e-07 -2.19337e-07 5.64781e-20
3.94163e-08 -3.37483e-08 5.76044e-20
-2.26778e-08 2.28459e-07 -8.92842e-20
5.50388e-08 -1.61441e-08 -4.72922e-20
1.25283e-07 2.2327e-07 5.8622e-20
1.25461e-07 -2.92714e-09 6.51754e-20
2.29069e-07 -6.7589e-07 -7.2055e-21
-4.85254e-08 -9.03325e-08 2.57033e-22
-2.02392e-07 8.81869e-08 2.29217e-20
-2.83451e-08 1.39167e-08 -8.10142e-21
1.92136e-07 1.2867e-07 3.58072e-20
1.36932e-07 -7.55976e-08 -1.05999e-19
7.23698e-08 3.17862e-08 2.71512e-21
-1.47967e-08 1.25124e-08 3.43175e-20
1.37361e-07 -2.12206e-07 -1.52732e-20
-1.4644e-07 -1.82745e-07 2.17226e-22
1.88937e-07 7.45227e-08 1.03008e-20
4.80479e-08 -2.96908e-08 -7.40704e-20
8.83324e-08 -2.19544e-07 -1.84605e-22
1.03782e-07 -1.96661e-08 -5.3985e-21
-1.00716e-07 -4.01778e-08 -6.78804e-20
-4.37604e-09 -4.08603e-08 1.90916e-20
-2.30897e-07 3.20606e-08 -2.82175e-20
2.42593e-08 2.02546e-07 7.9116e-21
1.57944e-07 3.68519e-08 -3.37909e-20
-1.79425e-07 -8.0306e-08 5.04681e-21
-8.8234e-08 2.26234e-07 -6.15052e-20
-2.01689e-08 -1.97332e-07 4.89094e-20
5.21465e-08 2.54508e-08 6.87641e-20
-3.38653e-08 9.54173e-08 -5.49168e-20
-1.61347e-07 1.15722e-07 -6.14987e-20
2.07226e-07 1.04527e-07 5.06673e-21
-9.43172e-08 -2.9621e-08 -2.71469e-21
-2.28791e-08 -9.71215e-08 -1.27361e-20
1.58356e-07 1.84081e-07 -1.39425e-22
-3.7201e-08 -1.68766e-08 -6.69258e-20
5.20852e-07 -3.74505e-07 1.01556e-19
1.10251e-07 -7.71393e-08 -8.05984e-20
9.0064e-08 4.41359e-07 2.55332e-21
1.1626e-07 -1.11777e-07 -3.90192e-20
-2.51479e-07 9.57709e-07 -5.11549e-20
-2.52935e-07 -9.48379e-07 -1.35893e-20
6.21443e-07 8.16846e-07 8.30584e-20
6.13736e-07 -8.16626e-07 9.38251e-21
1.01726e-06 -3.9851e-10 8.3481e-20
-8.76922e-07 3.52813e-07 2.56439e-20
-8.62384e-07 -3.56648e-07 -1.35947e-20
4.19063e-08 2.27245e-08 -5.45511e-21
2.68798e-08 1.30552e-08 5.16445e-21
7.81242e-08 1.05165e-08 -2.0679e-20
1.37934e-07 7.37168e-08 1.3291e-20
4.0918e-08 1.62992e-07 1.32516e-20
-1.47883e-07 -1.27055e-07 -4.13991e-20
7.4453e-08 -6.86443e-08 -4.68064e-20
1.58898e-07 1.27527e-07 1.29013e-20
-3.67525e-08 2.00614e-07 -4.88738e-20
2.60692e-08 -1.28082e-08 3.2283e-20
3.7401e-08 -1.92517e-07 -3.07452e-20
4.88397e-08 3.2942e-08 7.15229e-20
2.86634e-07 1.00409e-07 -3.80542e-20
6.40861e-09 2.06173e-08 -7.7753e-21
1.10758e-07 3.62479e-08 -3.1303e-20
-1.37087e-07 7.58294e-08 -1.75396e-22
-1.87704e-07 6.49309e-08 -2.83515e-20
3.71429e-08 -2.54467e-08 -8.1377e-21
-1.19826e-07 -5.54461e-08 -1.06265e-20
-1.31664e-07 -7.79871e-08 3.35271e-20
-1.15437e-08 -1.32164e-07 -4.93568e-20
5.20059e-10 -1.51801e-07 1.29181e-19
-1.67146e-07 -7.22472e-09 -1.55735e-20
2.48102e-07 -3.85224e-08 8.12921e-21
1.33827e-07 8.24772e-08 -1.02038e-20
-1.10735e-07 7.55418e-08 4.66082e-20
-4.99181e-08 2.44271e-08 -5.57597e-20
1.24911e-07 -1.11927e-07 2.30688e-22
-9.38568e-08 1.46136e-07 4.63997e-20
-1.15612e-07 -1.21784e-07 1.03957e-20
-1.09576e-08 1.59171e-07 5.70618e-20
-2.38181e-08 1.34331e-07 1.1186e-19
3.92393e-09 -9.75123e-08 3.28279e-22
5.03172e-08 -1.62632e-07 -6.97593e-20
-8.22265e-08 -5.27686e-08 4.17498e-20
1.13938e-07 -3.24907e-08 1.06231e-19
2.76674e-10 1.58974e-07 8.3121e-20
-3.44234e-09 1.01562e-07 3.43669e-20
-2.55316e-08 1.14252e-07 -8.03641e-20
1.87014e-07 -4.60241e-08 8.51425e-20
-3.92561e-08 3.74953e-08 -7.92721e-21
4.2388e-08 1.59101e-07 -7.26946e-21
-2.55984e-08 1.6156e-08 2.40755e-20
9.44695e-08 4.38061e-07 1.20814e-19
-4.63069e-08 2.50046e-08 -1.84493e-20
4.91321e-08 -2.55769e-08 -1.06461e-20
1.41388e-08 1.35187e-07 1.58097e-20
-1.58555e-07 3.76579e-08 1.01993e-20
-4.88166e-09 -6.87145e-08 -1.81101e-20
6.55187e-09 -6.25001e-07 2.64889e-21
1.89791e-08 1.14605e-07 -3.07439e-20
-1.18446e-07 1.12687e-07 6.46948e-20
1.83994e-07 6.84327e-07 5.87856e-20
8.82e-09 5.81178e-09 2.696e-20
7.62015e-09 -5.54263e-09 9.00643e-20
8.91651e-08 -6.95379e-08 -5.97083e-20
-1.26585e-07 1.13339e-07 2.8331e-20
-1.51933e-07 -4.48752e-08 2.54848e-20
-1.56136e-07 -5.12788e-08 1.76555e-20
-3.13367e-09 1.93215e-09 9.38673e-20
-2.17035e-09 -1.05902e-09 1.40435e-19
7.29224e-08 1.48131e-08 -1.03559e-20
2.31483e-08 1.06424e-07 -4.14143e-20
-2.6758e-09 1.05819e-07 8.1518e-21
-5.23481e-07 -3.8027e-07 4.94027e-21
9.28917e-08 -1.46108e-07 -3.06971e-20
4.69751e-08 1.69067e-08 -2.12794e-20
-1.72328e-07 -1.85352e-08 2.04709e-20
-1.08962e-07 1.43955e-07 4.38843e-20
-1.40666e-07 6.61412e-08 2.58079e-20
5.13949e-07 3.69269e-07 1.21954e-20
5.08215e-08 3.34159e-08 1.83915e-20
-5.00115e-08 1.63219e-07 -4.85718e-20
-9.85689e-08 -8.4433e-08 5.17356e-20
2.45242e-08 -1.28565e-07 -3.87934e-20
-7.9774e-08 -1.51771e-07 3.59859e-20
-1.27824e-07 -8.76146e-08 6.4495e-20
8.76096e-08 -1.55374e-07 -7.23707e-20
1.05088e-07 -1.44427e-07 -3.08185e-20
-3.33192e-08 -6.52173e-07 2.44424e-20
2.68122e-07 -4.28872e-07 -5.97533e-20
1.28049e-08 -1.56084e-07 2.76858e-21
1.10059e-07 8.37893e-08 2.8199e-22
-9.88687e-08 -1.2002e-07 5.68493e-20
-8.5756e-08 1.59872e-07 7.74642e-20
-5.26888e-08 1.56687e-07 1.29756e-20
1.14763e-07 1.18846e-07 -1.30475e-20
5.62683e-08 -1.46555e-07 -8.00481e-21
-1.45523e-07 -4.14923e-07 -1.75803e-20
3.27785e-09 5.0379e-08 -2.62162e-20
1.16194e-07 1.19567e-07 -1.75885e-22
-6.26245e-08 -3.08295e-08 -1.31338e-20
-5.20331e-08 2.83969e-08 -8.14423e-21
4.65915e-07 -2.04111e-07 8.14834e-20
5.78467e-08 -9.56028e-08 -2.08319e-20
-5.49037e-08 -9.39297e-08 -1.1699e-19
2.08147e-08 -1.80419e-09 -1.58498e-20
1.77794e-09 -7.88166e-09 -2.27855e-21
-5.83893e-09 -5.75354e-09 -5.79247e-21
2.56365e-08 1.68193e-08 5.85855e-20
-8.04466e-08 -1.51857e-07 2.56585e-20
1.23773e-07 4.96346e-08 1.06258e-20
-3.01306e-07 -3.31247e-07 4.66714e-20
1.11998e-09 9.69321e-09 6.28966e-20
1.12966e-09 1.76666e-09 -5.5595e-21
2.20083e-09 -2.74586e-10 -3.33252e-20
2.89147e-07 -5.71018e-07 2.56663e-21
-1.20081e-08 1.41367e-08 2.56161e-21
-2.74817e-09 1.71251e-08 1.67521e-20
-1.24453e-07 4.42359e-08 2.34658e-20
-4.3056e-09 5.05298e-08 3.24676e-20
-2.73474e-08 8.10676e-08 -4.88484e-21
5.63584e-08 2.39703e-09 -5.08929e-21
1.27206e-08 4.87212e-08 5.45529e-21
-3.33121e-09 6.73728e-08 -7.62745e-21
9.6594e-08 5.25497e-08 6.29979e-20
6.89263e-09 6.22085e-07 -2.67921e-20
-8.98725e-08 8.50463e-08 -2.07103e-20
6.73752e-08 -4.5311e-08 3.13253e-20
3.88859e-08 -3.55252e-08 2.85473e-20
-6.3803e-07 -8.76022e-08 -3.39252e-20
-1.81601e-08 7.20628e-09 2.67181e-20
-4.64562e-07 -5.49533e-07 4.81891e-21
8.42309e-09 2.25866e-08 5.81357e-20
8.14471e-08 1.58279e-08 -1.83382e-20
2.42549e-07 -3.14761e-08 -1.74804e-20
-5.54363e-08 -9.10933e-08 -2.32547e-20
1.05988e-07 3.0392e-08 -3.10992e-20
5.41531e-10 -2.69598e-08 1.64075e-20
-5.97685e-08 6.91625e-08 -4.70443e-20
-2.28526e-08 -1.4527e-08 -3.2322e-20
-5.3887e-08 1.09464e-07 -1.01854e-20
9.75291e-09 6.90732e-08 -7.35774e-21
1.5829e-08 1.15978e-08 -2.97506e-20
1.57077e-08 -1.1141e-08 3.75821e-20
-4.32509e-07 -1.17822e-07 -9.80618e-21
4.76254e-08 1.77615e-08 -2.88862e-20
-5.73583e-08 1.11037e-06 -3.11463e-20
-3.98173e-09 -1.14078e-06 -1.15149e-20
5.61508e-07 9.61256e-07 -6.01482e-20
-5.82349e-08 4.62079e-08 -1.16013e-19
-2.97556e-07 5.988e-07 8.17353e-20
5.64738e-07 -9.27804e-07 3.13869e-20
-9.33549e-08 -1.51096e-07 5.94003e-20
8.57591e-07 7.51426e-07 3.61555e-20
1.00653e-08 -1.78552e-08 -4.95241e-21
-1.04904e-08 -1.80919e-08 -4.04789e-20
8.98956e-07 -7.34693e-07 2.69919e-20
-5.50682e-08 1.08291e-07 5.17234e-20
-5.64672e-07 -3.59624e-07 -9.72745e-21
-4.7619e-07 -9.92485e-07 -4.32256e-20
-2.66704e-07 -6.13553e-07 9.75714e-21
-4.89535e-07 1.00901e-06 5.26888e-20
-1.15684e-07 6.83762e-07 4.38931e-20
-8.15923e-10 2.39136e-08 2.1847e-20
-2.97021e-07 3.82403e-07 -2.72769e-20
-2.84387e-07 -5.82028e-07 1.91973e-20
1.1058e-06 1.92978e-07 1.05929e-19
-8.64239e-08 7.34809e-08 -4.17146e-20
-2.02362e-09 4.85311e-08 8.3984e-21
-5.34887e-07 3.87222e-07 7.33857e-20
-9.58478e-08 5.11545e-08 -1.84327e-20
1.09491e-06 -1.7165e-07 5.31246e-20
-7.31488e-08 4.91087e-08 -9.41897e-20
5.32944e-08 -1.10222e-07 -1.54118e-20
-8.52059e-07 -6.4716e-07 -3.35229e-20
-2.87308e-07 6.15598e-07 -5.26225e-21
-8.72709e-07 6.4241e-07 2.62803e-20
2.54995e-07 5.68888e-07 -2.59401e-21
-9.38359e-08 7.45953e-08 -3.36347e-20
-2.60228e-08 1.47347e-08 4.28596e-20
-1.42074e-09 -2.30123e-09 5.84481e-21
3.93112e-10 -1.96582e-09 -2.65577e-21
7.13771e-09 7.48963e-08 -1.82664e-20
-2.08754e-09 2.30408e-09 4.41339e-20
1.13696e-09 2.82276e-09 -6.08038e-20
1.91338e-09 -8.37579e-10 8.38255e-21
-1.11457e-09 8.86506e-09 9.3605e-20
-1.96202e-07 4.28067e-07 3.41516e-20
-1.47468e-08 1.05726e-08 -5.40578e-20
2.5404e-08 -1.60177e-08 -1.62668e-20
2.49039e-08 -1.44306e-08 9.69215e-20
7.17887e-08 2.80089e-08 -2.36983e-20
-6.69405e-10 -7.58706e-09 -3.58178e-20
-6.77099e-09 -3.43964e-09 4.3672e-20
2.48882e-08 1.45197e-08 5.10369e-20
6.34107e-07 -1.22221e-07 1.97453e-20
-8.21268e-08 -1.04682e-07 2.52135e-21
-5.55162e-07 3.87059e-07 2.63441e-20
-4.97032e-07 5.66891e-07 5.38109e-20
6.69977e-07 -2.41957e-07 6.65458e-20
-3.19432e-09 -9.32447e-09 1.10633e-20
-3.51041e-09 9.57871e-09 1.95967e-20
-1.05171e-08 1.82376e-09 -2.1878e-20
-6.91325e-09 7.02294e-09 5.42063e-20
-9.53228e-09 -2.03926e-09 -5.71187e-20
1.74205e-09 2.25828e-09 1.01773e-19
1.02296e-08 -2.53298e-09 1.0618e-19
4.29916e-09 -3.0389e-09 6.82884e-20
-3.04933e-09 -2.16694e-09 7.41693e-20
6.55562e-09 -6.71856e-09 6.75936e-20
6.59215e-09 6.91889e-09 -5.2281e-21
-3.06798e-09 1.90104e-09 1.6738e-20
3.3079e-09 -6.90861e-10 1.12433e-19
5.50225e-09 3.05738e-09 1.36689e-19
1.19489e-08 4.28216e-09 4.85702e-20
SCALARS rr_necrosis float
LOOKUP_TABLE default
0
0
0
0
0
0
0
0
0
0
0
0
0
0
0
0
0
0
0
0
0
0
0
0
0
0
0
0
0
0
0
0
0
0
0
0
0
0
0
0
0
0
0
0
0
0
0
0
0
0
0
0
0
0
0
0
0
0
0
0
0
0
0
0
0
0
0
0
0
0
0
0
0
0
0
0
0
0
0
0
0
0
0
0
0
0
0
0
0
0
0
0
0
0
0
0
0
0
0
0
0
0
0
0
0
0
0
0
0
0
0
0
0
0
0
0
0
0
0
0
0
0
0
0
0
0
0
0
0
0
0
0
0
0
0
0
0
0
0
0
0
0
0
0
0
0
0
0
0
0
0
0
0
0
0
0
0
0
0
0
0
0
0
0
0
0
0
0
0
0
0
0
0
0
0
0
0
0
0
0
0
0
0
0
0
0
0
0
0
0
0
0
0
0
0
0
0
0
0
0
0
0
0
0
0
0
0
0
0
0
0
0
0
0
0
0
0
0
0
0
0
0
0
0
0
0
0
0
0
0
0
0
0
0
0
0
0
0
0
0
0
0
0
0
0
0
0
0
0
0
0
0
0
0
0
0
0
0
0
0
0
0
0
0
0
0
0
0
0
0
0
0
0
0
0
0
0
0
0
0
0
0
0
0
0
0
0
0
0
0
0
0
0
0
0
0
0
0
0
0
0
0
0
0
0
0
0
0
0
0
0
0
0
0
0
0
0
0
0
0
0
0
0
0
0
0
0
0
0
0
0
0
0
0
0
0
0
0
0
0
0
0
0
0
0
0
0
0
0
0
0
0
0
0
0
0
0
0
0
0
0
0
0
0
0
0
0
0
0
0
0
0
0
0
0
0
0
0
0
0
0
0
0
0
0
0
0
0
0
0
0
0
0
0
0
0
0
0
0
0
0
0
0
0
0
0
0
0
0
0
0
0
0
0
0
0
0
0
0
0
0
0
0
0
0
0
0
0
0
0
0
0
0
0
0
0
0
0
0
0
0
0
0
0
0
0
0
0
0
0
0
0
0
0
0
0
0
0
0
0
0
0
0
0
0
0
0
0
0
0
0
0
0
0
0
0
0
0
0
0
0
0
0
0
0
0
0
0
0
0
0
0
0
0
0
0
0
0
0
0
0
0
0
0
0
0
0
0
0
0
0
0
0
0
0
0
0
0
0
0
0
0
0
0
0
0
0
0
0
0
0
0
0
0
0
0
0
0
0
0
0
0
0
0
0
0
0
0
0
0
0
0
0
0
0
0
0
0
0
0
0
0
0
SCALARS rr_protein float
LOOKUP_TABLE default
1
1
1
1
1
1
1
1
1
1
1
1
1
1
1
1
1
1
1
1
1
1
1
1
1
1
1
1
1
1
1
1
1
1
1
1
1
1
1
1
1
1
1
1
1
1
1
1
1
1
1
1
1
1
1
1
1
1
1
1
1
1
1
1
1
1
1
1
1
1
1
1
1
1
1
1
1
1
1
1
1
1
1
1
1
1
1
1
1
1
1
1
1
1
1
1
1
1
1
1
1
1
1
1
1
1
1
1
1
1
1
1
1
1
1
1
1
1
1
1
1
1
1
1
1
1
1
1
1
1
1
1
1
1
1
1
1
1
1
1
1
1
1
1
1
1
1
1
1
1
1
1
1
1
1
1
1
1
1
1
1
1
1
1
1
1
1
1
1
1
1
1
1
1
1
1
1
1
1
1
1
1
1
1
1
1
1
1
1
1
1
1
1
1
1
1
1
1
1
1
1
1
1
1
1
1
1
1
1
1
1
1
1
1
1
1
1
1
1
1
1
1
1
1
1
1
1
1
1
1
1
1
1
1
1
1
1
1
1
1
1
1
1
1
1
1
1
1
1
1
1
1
1
1
1
1
1
1
1
1
1
1
1
1
1
1
1
1
1
1
1
1
1
1
1
1
1
1
1
1
1
1
1
1
1
1
1
1
1
1
1
1
1
1
1
1
1
1
1
1
1
1
1
1
1
1
1
1
1
1
1
1
1
1
1
1
1
1
1
1
1
1
1
1
1
1
1
1
1
1
1
1
1
1
1
1
1
1
1
1
1
1
1
1
1
1
1
1
1
1
1
1
1
1
1
1
1
1
1
1
1
1
1
1
1
1
1
1
1
1
1
1
1
1
1
1
1
1
1
1
1
1
1
1
1
1
1
1
1
1
1
1
1
1
1
1
1
1
1
1
1
1
1
1
1
1
1
1
1
1
1
1
1
1
1
1
1
1
1
1
1
1
1
1
1
1
1
1
1
1
1
1
1
1
1
1
1
1
1
1
1
1
1
1
1
1
1
1
1
1
1
1
1
1
1
1
1
1
1
1
1
1
1
1
1
1
1
1
1
1
1
1
1
1
1
1
1
1
1
1
1
1
1
1
1
1
1
1
1
1
1
1
1
1
1
1
1
1
1
1
1
1
1
1
1
1
1
1
1
1
1
1
1
1
1
1
1
1
1
1
1
1
1
1
1
1
1
1
1
1
1
1
1
1
1
1
1
1
1
1
1
1
1
1
1
1
1
1
1
1
1
1
1
1
1
1
1
1
1
1
1
1
1
SCALARS rr_(S_ext) float
LOOKUP_TABLE default
0.915836
0.916005
0.915993
0.916
0.916065
0.915993
0.915835
0.916005
0.91598
0.916007
0.915821
0.916005
0.916001
0.916011
0.91604
0.915997
0.916015
0.916
0.915968
0.915987
0.915989
0.916133
0.915985
0.915988
0.915987
0.916002
0.915861
0.915995
0.915918
0.916089
0.916001
0.915917
0.915861
0.916077
0.916086
0.916076
0.916089
0.916084
0.916001
0.915861
0.915917
0.91609
0.91609
0.916001
0.91587
0.915922
0.915973
0.915983
0.915994
0.915904
0.915912
0.915939
0.916058
0.915941
0.916057
0.915886
0.916087
0.91594
0.916086
0.915988
0.916013
0.916035
0.91588
0.916035
0.916035
0.91602
0.916014
0.916003
0.915986
0.916005
0.916058
0.916058
0.915918
0.916027
0.915995
0.915849
0.916048
0.91602
0.916002
0.91594
0.915906
0.916071
0.916024
0.915898
0.915927
0.915877
0.915995
0.916025
0.91587
0.916124
0.91594
0.916124
0.916047
0.916018
0.915943
0.915909
0.915908
0.916006
0.916048
0.916
0.915961
0.915933
0.915897
0.915999
0.916005
0.916005
0.916027
0.915999
0.915897
0.916004
0.915988
0.915878
0.915888
0.915999
0.916004
0.915942
0.916089
0.915908
0.916089
0.915942
0.915965
0.916036
0.916003
0.916021
0.916007
0.916041
0.91608
0.916006
0.915908
0.915942
0.916056
0.916002
0.916022
0.916003
0.915934
0.916086
0.915899
0.916004
0.916023
0.916086
0.915935
0.916012
0.91597
0.916007
0.915908
0.916002
0.916008
0.915996
0.915993
0.915954
0.915981
0.916003
0.915916
0.916002
0.916006
0.916002
0.916014
0.915938
0.915938
0.915998
0.915983
0.915918
0.915878
0.915911
0.915936
0.916005
0.915937
0.915938
0.915917
0.915937
0.916047
0.91594
0.915911
0.916016
0.915941
0.916026
0.916047
0.916006
0.916061
0.916007
0.915919
0.916006
0.916005
0.915935
0.916024
0.91591
0.916021
0.91603
0.91605
0.916006
0.916024
0.91591
0.91594
0.915917
0.916003
0.915998
0.915999
0.916022
0.916003
0.91602
0.916003
0.915972
0.915942
0.916022
0.91592
0.916023
0.916021
0.91593
0.916038
0.916004
0.916042
0.916014
0.916004
0.916024
0.915954
0.916016
0.915945
0.916029
0.916006
0.916005
0.916002
0.916004
0.916004
0.916004
0.916009
0.916037
0.916036
0.916037
0.916038
0.916058
0.916058
0.915953
0.916009
0.915994
0.915983
0.91604
0.916041
0.915995
0.915942
0.915993
0.916006
0.915956
0.916037
0.915955
0.916025
0.915991
0.915955
0.915945
0.915906
0.9159
0.916024
0.915905
0.915999
0.915945
0.91597
0.915993
0.916005
0.916093
0.916004
0.915907
0.915944
0.915994
0.916005
0.915941
0.916004
0.915971
0.916093
0.915945
0.916006
0.916021
0.915999
0.916039
0.916024
0.916059
0.916
0.915885
0.915877
0.916055
0.915987
0.916005
0.915957
0.916038
0.916017
0.915944
0.916018
0.915962
0.91601
0.915963
0.915942
0.91611
0.916049
0.916039
0.916038
0.916009
0.915965
0.916074
0.91602
0.915984
0.915965
0.915959
0.916054
0.915955
0.916049
0.915962
0.915871
0.915964
0.915907
0.916029
0.915955
0.916109
0.915961
0.916025
0.915953
0.916023
0.915961
0.915997
0.915881
0.91599
0.915955
0.916051
0.915953
0.915983
0.916026
0.916004
0.915961
0.915964
0.91597
0.916031
0.915963
0.916006
0.915996
0.91606
0.915965
0.915969
0.915987
0.915972
0.915962
0.915972
0.916037
0.916004
0.915971
0.915954
0.916011
0.916011
0.915962
0.91606
0.915815
0.915997
0.915906
0.915988
0.915683
0.915684
0.915683
0.915683
0.915681
0.915687
0.915689
0.91603
0.916071
0.915999
0.915982
0.915969
0.915972
0.91601
0.91597
0.915969
0.916072
0.915972
0.916041
0.915939
0.916033
0.915992
0.915982
0.915971
0.916056
0.915997
0.915983
0.915997
0.915983
0.915967
0.91594
0.915981
0.915995
0.916041
0.915972
0.915965
0.915971
0.91598
0.915994
0.916009
0.915971
0.916009
0.915991
0.915981
0.916006
0.915991
0.91597
0.916021
0.915986
0.916068
0.915871
0.916031
0.916037
0.915995
0.915987
0.916018
0.915819
0.915992
0.915986
0.915882
0.916111
0.916112
0.915995
0.91597
0.915988
0.915973
0.916147
0.916146
0.916003
0.916006
0.916005
0.915823
0.915966
0.916025
0.915983
0.915981
0.915981
0.915812
0.916022
0.915969
0.915996
0.915996
0.91598
0.915983
0.91598
0.915983
0.915862
0.915907
0.915983
0.915997
0.915986
0.91598
0.915985
0.915987
0.915986
0.915873
0.916042
0.91597
0.916018
0.916023
0.915872
0.915993
0.915991
0.91606
0.916103
0.916103
0.916048
0.915966
0.915996
0.915869
0.916099
0.916137
0.916137
0.91581
0.916083
0.916088
0.915994
0.916047
0.915999
0.916007
0.916021
0.91603
0.916006
0.915817
0.915998
0.916018
0.916025
0.915848
0.916082
0.915882
0.916022
0.916012
0.915959
0.916
0.916006
0.916058
0.916006
0.916057
0.915995
0.916027
0.916087
0.916089
0.915872
0.91601
0.915832
0.915839
0.915824
0.916023
0.91582
0.915818
0.91598
0.915827
0.916071
0.916071
0.915833
0.915983
0.915866
0.915834
0.915859
0.915833
0.915859
0.916085
0.915863
0.91582
0.91583
0.916005
0.916033
0.915856
0.916005
0.915817
0.91601
0.915985
0.915831
0.915852
0.915826
0.915809
0.915991
0.916073
0.916131
0.916128
0.916012
0.91613
0.91613
0.916129
0.916113
0.915867
0.916085
0.916052
0.916075
0.91601
0.916118
0.916118
0.91608
0.915806
0.915984
0.915818
0.91588
0.915875
0.916096
0.916095
0.916095
0.916095
0.916096
0.91613
0.916099
0.916119
0.916136
0.916099
0.916099
0.916137
0.916129
0.916119
0.916095
SCALARS rr_(P_ext) float
LOOKUP_TABLE default
0.0178047
0.0177177
0.0177254
0.0177192
0.0176958
0.0177256
0.017805
0.0177204
0.0177327
0.0177181
0.017799
0.0177203
0.0177221
0.0177169
0.0177038
0.0177241
0.0177138
0.0177213
0.0177366
0.0177276
0.0177288
0.0176659
0.0177286
0.0177274
0.0177277
0.0177199
0.0177869
0.0177244
0.0177603
0.0176835
0.0177224
0.0177601
0.0177882
0.0176887
0.0176862
0.0176888
0.0176825
0.0176873
0.0177226
0.0177879
0.0177605
0.0176822
0.0176823
0.0177224
0.0177798
0.0177591
0.0177347
0.0177313
0.0177252
0.0177657
0.0177626
0.0177515
0.017697
0.0177512
0.0176977
0.0177772
0.017686
0.0177512
0.017686
0.0177271
0.0177141
0.0177069
0.0177814
0.0177074
0.0177068
0.0177139
0.0177138
0.0177198
0.0177281
0.0177175
0.0176972
0.0176973
0.0177606
0.0177112
0.0177251
0.0177919
0.0177023
0.017714
0.0177199
0.0177495
0.0177675
0.0176931
0.0177105
0.0177699
0.0177578
0.0177789
0.0177244
0.0177125
0.0177797
0.0176702
0.0177513
0.0176703
0.0177018
0.0177148
0.0177506
0.0177634
0.0177673
0.0177182
0.0177024
0.0177229
0.0177416
0.0177557
0.0177701
0.0177205
0.017719
0.0177188
0.0177094
0.0177236
0.0177702
0.0177164
0.017727
0.017777
0.0177731
0.017721
0.0177192
0.017751
0.0176861
0.0177677
0.0176863
0.0177506
0.0177385
0.0177048
0.0177178
0.0177123
0.0177158
0.0177031
0.0176891
0.0177182
0.0177673
0.0177506
0.0176972
0.0177183
0.0177109
0.017718
0.0177556
0.0176859
0.0177721
0.0177216
0.0177104
0.017686
0.0177546
0.0177179
0.0177372
0.017718
0.0177681
0.0177196
0.0177191
0.0177252
0.0177255
0.0177441
0.0177315
0.0177178
0.0177603
0.017722
0.0177181
0.0177182
0.0177157
0.0177538
0.0177535
0.0177222
0.0177311
0.0177597
0.0177777
0.0177626
0.0177538
0.0177187
0.0177538
0.017754
0.0177603
0.0177537
0.0177015
0.0177512
0.0177627
0.0177149
0.017751
0.0177097
0.0177016
0.0177204
0.0176967
0.0177187
0.0177602
0.0177184
0.0177184
0.0177545
0.0177124
0.0177633
0.0177123
0.0177093
0.0177012
0.0177182
0.0177122
0.0177664
0.0177511
0.0177602
0.0177181
0.0177216
0.0177212
0.017711
0.0177179
0.0177142
0.0177177
0.0177355
0.0177489
0.0177111
0.0177601
0.0177105
0.017714
0.0177562
0.0177059
0.0177176
0.0177051
0.0177165
0.0177192
0.0177104
0.0177438
0.0177158
0.017748
0.0177094
0.017716
0.017716
0.017717
0.0177166
0.0177165
0.0177166
0.0177175
0.0177044
0.0177047
0.0177044
0.0177043
0.0176976
0.0176975
0.0177445
0.0177172
0.01772
0.0177317
0.0177038
0.0177035
0.0177197
0.0177486
0.0177203
0.0177182
0.0177435
0.0177057
0.0177439
0.0177102
0.0177206
0.0177433
0.0177476
0.0177677
0.017767
0.0177104
0.0177694
0.0177231
0.017748
0.017736
0.0177204
0.0177162
0.0176818
0.0177164
0.01777
0.017748
0.01772
0.0177204
0.017749
0.0177162
0.0177368
0.0176818
0.0177478
0.0177158
0.0177128
0.0177212
0.017704
0.0177127
0.0176971
0.0177222
0.0177757
0.0177789
0.0176995
0.0177286
0.0177204
0.0177439
0.0177056
0.017715
0.0177479
0.0177147
0.0177413
0.0177188
0.0177412
0.0177484
0.0176752
0.0177007
0.0177036
0.0177037
0.0177175
0.0177406
0.0176897
0.0177131
0.0177308
0.0177403
0.017743
0.0176995
0.0177436
0.0177017
0.0177421
0.0177796
0.0177407
0.0177685
0.0177091
0.0177435
0.0176752
0.0177421
0.0177111
0.0177445
0.0177119
0.0177423
0.0177244
0.0177828
0.0177262
0.0177437
0.0176999
0.0177442
0.0177308
0.0177119
0.0177175
0.0177422
0.0177407
0.017737
0.0177093
0.0177408
0.0177204
0.0177244
0.0176973
0.0177407
0.0177374
0.0177295
0.0177365
0.0177416
0.0177363
0.0177067
0.0177206
0.017737
0.0177439
0.0177181
0.017718
0.0177411
0.0176974
0.0178021
0.0177247
0.0177676
0.0177292
0.0178482
0.0178481
0.0178475
0.0178477
0.0178475
0.0178484
0.017848
0.0177088
0.017692
0.0177219
0.0177312
0.0177361
0.0177365
0.0177187
0.0177371
0.0177375
0.0176918
0.0177365
0.0177053
0.0177513
0.0177058
0.0177258
0.0177313
0.0177369
0.0176993
0.0177247
0.0177307
0.0177246
0.0177306
0.0177372
0.0177498
0.0177314
0.0177255
0.017705
0.0177353
0.017738
0.0177356
0.0177319
0.0177257
0.0177186
0.0177357
0.0177188
0.0177264
0.0177317
0.0177202
0.0177262
0.0177367
0.017712
0.0177299
0.0176928
0.0177795
0.0177089
0.0177067
0.0177256
0.0177297
0.0177141
0.017801
0.0177257
0.0177301
0.0177823
0.0176757
0.0176755
0.0177247
0.0177362
0.017729
0.0177352
0.0176625
0.0176625
0.0177201
0.0177201
0.0177205
0.0178013
0.0177375
0.0177108
0.0177317
0.0177324
0.0177317
0.0178026
0.0177124
0.0177366
0.017725
0.017725
0.0177325
0.0177309
0.0177325
0.0177318
0.0177873
0.0177683
0.0177309
0.0177248
0.0177299
0.0177329
0.0177304
0.0177294
0.0177298
0.0177795
0.0177038
0.0177357
0.0177143
0.017712
0.01778
0.0177253
0.0177261
0.0176972
0.0176762
0.0176763
0.0177008
0.0177377
0.0177252
0.0177809
0.017678
0.0176645
0.0176645
0.0178036
0.0176873
0.0176835
0.0177261
0.0177022
0.017722
0.0177175
0.0177117
0.0177096
0.0177204
0.0178012
0.017724
0.017715
0.0177109
0.0177924
0.0176863
0.0177838
0.0177113
0.0177173
0.0177426
0.0177225
0.0177207
0.0176965
0.0177196
0.0176966
0.0177248
0.0177108
0.0176849
0.0176843
0.0177807
0.0177164
0.0178064
0.0178048
0.0178083
0.0177125
0.0178023
0.0178101
0.0177328
0.0178074
0.0176928
0.0176929
0.017806
0.0177294
0.0177871
0.0178069
0.0177887
0.0178072
0.0177887
0.0176868
0.0177838
0.0178019
0.0178062
0.0177211
0.0177077
0.0177901
0.0177209
0.0178095
0.0177181
0.0177288
0.0178078
0.0177914
0.0178091
0.0178036
0.0177264
0.0176914
0.017666
0.0176671
0.0177166
0.0176662
0.0176662
0.0176667
0.0176734
0.0177822
0.0176855
0.0177002
0.0176913
0.0177177
0.0176716
0.0176717
0.0176898
0.0178045
0.0177297
0.0178034
0.0177852
0.0177846
0.017679
0.0176792
0.0176798
0.0176796
0.017679
0.0176675
0.0176796
0.0176716
0.0176658
0.0176788
0.0176787
0.0176655
0.0176672
0.0176713
0.0176803
SCALARS rr_(S) float
LOOKUP_TABLE default
0.865715
0.865779
0.865776
0.865776
0.865813
0.865776
0.865714
0.865782
0.865772
0.865782
0.865696
0.865782
0.865781
0.865784
0.865798
0.865778
0.865785
0.865778
0.865765
0.865773
0.865775
0.865848
0.865772
0.865774
0.865773
0.865779
0.865719
0.865777
0.865744
0.865825
0.865781
0.865743
0.86572
0.865818
0.865824
0.865818
0.865824
0.865823
0.865781
0.865721
0.865743
0.865824
0.865824
0.86578
0.86572
0.865746
0.865768
0.865773
0.865776
0.865737
0.865741
0.865753
0.865808
0.865755
0.865808
0.865732
0.865824
0.865754
0.865824
0.865773
0.865784
0.865796
0.865731
0.865797
0.865796
0.865789
0.865784
0.86578
0.865773
0.86578
0.865808
0.865808
0.865744
0.865793
0.865777
0.865714
0.865804
0.865789
0.865779
0.865752
0.86574
0.865816
0.86579
0.865735
0.865749
0.865726
0.865777
0.865792
0.865721
0.865844
0.865754
0.865844
0.865803
0.865789
0.865756
0.865738
0.865742
0.865781
0.865804
0.86578
0.865764
0.865752
0.865734
0.865777
0.865781
0.86578
0.865792
0.86578
0.865735
0.865778
0.865773
0.865725
0.86573
0.865778
0.86578
0.865756
0.865826
0.865742
0.865826
0.865756
0.865764
0.865796
0.865778
0.865789
0.86578
0.865799
0.865821
0.865781
0.865742
0.865755
0.865807
0.865778
0.865789
0.865778
0.865753
0.865824
0.865738
0.865782
0.86579
0.865823
0.865753
0.865786
0.865767
0.865782
0.865742
0.865779
0.865784
0.865779
0.865776
0.86576
0.865772
0.865779
0.865742
0.865781
0.865781
0.865778
0.865786
0.865755
0.865755
0.865778
0.865773
0.865743
0.865726
0.865739
0.865753
0.86578
0.865754
0.865755
0.865743
0.865754
0.865803
0.865754
0.86574
0.865787
0.865755
0.865791
0.865803
0.865783
0.86581
0.865783
0.865744
0.865781
0.865781
0.865753
0.865792
0.86574
0.865789
0.865794
0.865805
0.865781
0.865792
0.865743
0.865754
0.865743
0.865778
0.865777
0.865777
0.865788
0.865778
0.865789
0.865779
0.865767
0.865754
0.865789
0.865745
0.865789
0.86579
0.86575
0.865798
0.865779
0.865801
0.865787
0.86578
0.86579
0.865759
0.865788
0.865755
0.865794
0.865779
0.865779
0.865777
0.865778
0.865778
0.865778
0.865784
0.865797
0.865796
0.865796
0.865797
0.865809
0.865808
0.865759
0.865783
0.865773
0.865773
0.865799
0.865799
0.865773
0.865753
0.865772
0.865781
0.865761
0.865798
0.86576
0.865791
0.865771
0.86576
0.865755
0.86574
0.865735
0.86579
0.865741
0.865779
0.865755
0.865766
0.865772
0.865779
0.865826
0.865778
0.865743
0.865754
0.865772
0.865782
0.865753
0.865778
0.865768
0.865826
0.865755
0.86578
0.865789
0.865777
0.865798
0.865792
0.865809
0.865779
0.86573
0.865726
0.865808
0.865774
0.865782
0.865762
0.865798
0.865787
0.865754
0.865789
0.865764
0.865785
0.865765
0.865754
0.865836
0.865804
0.865797
0.865797
0.865783
0.865766
0.865817
0.865789
0.865773
0.865766
0.865763
0.865807
0.86576
0.865805
0.865765
0.865721
0.865765
0.865742
0.865794
0.86576
0.865835
0.865764
0.865791
0.865759
0.86579
0.865764
0.865778
0.865733
0.865774
0.86576
0.865804
0.865759
0.865773
0.865793
0.865779
0.865764
0.865765
0.865767
0.865795
0.865765
0.865783
0.865778
0.86581
0.865766
0.865767
0.865775
0.865768
0.865764
0.865768
0.865798
0.865782
0.865767
0.86576
0.865785
0.865785
0.865764
0.86581
0.865694
0.86578
0.86574
0.865775
0.865624
0.865624
0.865623
0.865623
0.865621
0.865627
0.865628
0.865794
0.865815
0.865778
0.865772
0.865765
0.865768
0.865785
0.865767
0.865767
0.865816
0.865768
0.8658
0.865754
0.865794
0.865776
0.865772
0.865768
0.865809
0.865779
0.865773
0.865779
0.865772
0.865765
0.865753
0.865771
0.865778
0.8658
0.865767
0.865764
0.865767
0.865771
0.865778
0.865784
0.865766
0.865784
0.865775
0.865771
0.865783
0.865775
0.865766
0.865789
0.865774
0.865814
0.865721
0.865794
0.865798
0.865778
0.865775
0.865788
0.865697
0.865776
0.865774
0.865733
0.865837
0.865838
0.865778
0.865766
0.865775
0.865767
0.865858
0.865856
0.86578
0.865783
0.865782
0.8657
0.865764
0.865792
0.865773
0.865772
0.865771
0.865692
0.86579
0.865765
0.865779
0.865779
0.865771
0.865772
0.865772
0.865773
0.865721
0.865742
0.865772
0.865779
0.865774
0.865771
0.865774
0.865775
0.865774
0.865723
0.8658
0.865766
0.865788
0.865791
0.865722
0.865776
0.865775
0.865811
0.865831
0.865831
0.865803
0.865764
0.865778
0.865721
0.865829
0.865851
0.86585
0.865691
0.865822
0.865824
0.865777
0.865803
0.865778
0.865782
0.865789
0.865794
0.865783
0.865695
0.865779
0.865789
0.865792
0.865713
0.865821
0.865735
0.865789
0.865785
0.865762
0.865779
0.865783
0.865808
0.865782
0.865808
0.865778
0.865793
0.865824
0.865825
0.865723
0.865783
0.865713
0.865718
0.865708
0.865791
0.865699
0.865704
0.865772
0.865709
0.865816
0.865816
0.865713
0.865771
0.865724
0.865715
0.865719
0.865715
0.86572
0.865823
0.865719
0.865698
0.865711
0.865783
0.865795
0.865718
0.865782
0.865703
0.865784
0.865773
0.865714
0.865716
0.86571
0.865691
0.865776
0.865817
0.865846
0.865845
0.865785
0.865846
0.865846
0.865846
0.865837
0.86572
0.865822
0.865806
0.865818
0.865784
0.86584
0.86584
0.865821
0.865689
0.865772
0.865698
0.865735
0.865729
0.865827
0.865826
0.865826
0.865827
0.865826
0.865847
0.86583
0.865841
0.865851
0.86583
0.86583
0.865851
0.865846
0.865841
0.865827
SCALARS rr_(P) float
LOOKUP_TABLE default
0.0204173
0.0203666
0.0203711
0.0203674
0.0203537
0.0203712
0.0204174
0.0203682
0.0203754
0.0203668
0.0204137
0.0203682
0.0203692
0.0203662
0.0203583
0.0203704
0.0203643
0.0203687
0.0203776
0.0203724
0.0203731
0.0203358
0.020373
0.0203723
0.0203725
0.0203678
0.0204068
0.0203705
0.0203915
0.0203462
0.0203694
0.0203913
0.0204076
0.0203494
0.0203479
0.0203494
0.0203456
0.0203486
0.0203695
0.0204074
0.0203916
0.0203454
0.0203455
0.0203694
0.0204027
0.0203908
0.0203766
0.0203746
0.020371
0.0203946
0.0203927
0.0203863
0.0203543
0.0203862
0.0203548
0.0204013
0.0203478
0.0203862
0.0203479
0.0203721
0.0203644
0.0203603
0.0204037
0.0203605
0.0203602
0.0203643
0.0203643
0.0203678
0.0203727
0.0203664
0.0203544
0.0203545
0.0203916
0.0203628
0.020371
0.0204097
0.0203575
0.0203644
0.0203678
0.0203851
0.0203956
0.0203521
0.0203623
0.020397
0.02039
0.0204022
0.0203706
0.0203636
0.0204026
0.0203383
0.0203863
0.0203383
0.0203572
0.0203649
0.0203858
0.0203932
0.0203956
0.0203669
0.0203576
0.0203697
0.0203806
0.0203889
0.0203971
0.0203682
0.0203673
0.0203672
0.0203617
0.0203701
0.0203972
0.0203657
0.0203721
0.0204011
0.0203988
0.0203685
0.0203675
0.0203861
0.0203479
0.0203958
0.020348
0.0203859
0.0203788
0.0203589
0.0203666
0.0203634
0.0203654
0.0203579
0.0203496
0.0203669
0.0203956
0.0203858
0.0203544
0.0203669
0.0203625
0.0203667
0.0203888
0.0203477
0.0203984
0.0203689
0.0203622
0.0203478
0.0203882
0.0203667
0.020378
0.0203668
0.020396
0.0203677
0.0203674
0.020371
0.0203712
0.0203821
0.0203747
0.0203666
0.0203914
0.0203692
0.0203668
0.0203669
0.0203654
0.0203877
0.0203876
0.0203692
0.0203745
0.0203911
0.0204015
0.0203927
0.0203878
0.0203672
0.0203878
0.0203879
0.0203914
0.0203877
0.020357
0.0203862
0.0203928
0.020365
0.0203861
0.0203619
0.0203571
0.0203682
0.0203542
0.0203672
0.0203914
0.020367
0.020367
0.0203881
0.0203635
0.0203932
0.0203634
0.0203616
0.0203569
0.0203669
0.0203634
0.0203951
0.0203861
0.0203914
0.0203668
0.0203689
0.0203686
0.0203626
0.0203666
0.0203645
0.0203665
0.020377
0.0203848
0.0203627
0.0203913
0.0203623
0.0203644
0.0203891
0.0203596
0.0203664
0.0203591
0.0203659
0.0203675
0.0203622
0.0203819
0.0203655
0.0203843
0.0203617
0.0203655
0.0203655
0.020366
0.0203658
0.0203658
0.0203659
0.0203664
0.0203587
0.0203588
0.0203587
0.0203586
0.0203547
0.0203546
0.0203823
0.0203663
0.0203678
0.0203749
0.0203583
0.0203581
0.0203677
0.0203847
0.020368
0.0203669
0.0203817
0.0203595
0.0203819
0.0203621
0.0203682
0.0203816
0.0203841
0.0203958
0.0203953
0.0203623
0.0203968
0.0203698
0.0203843
0.0203773
0.0203681
0.0203656
0.0203452
0.0203657
0.0203971
0.0203843
0.0203678
0.0203682
0.0203849
0.0203656
0.0203778
0.0203453
0.0203842
0.0203653
0.0203637
0.0203686
0.0203585
0.0203637
0.0203544
0.0203693
0.0204004
0.0204022
0.0203558
0.020373
0.0203682
0.0203819
0.0203594
0.020365
0.0203843
0.0203648
0.0203804
0.0203672
0.0203804
0.0203845
0.0203413
0.0203565
0.0203582
0.0203583
0.0203665
0.0203801
0.0203499
0.0203639
0.0203743
0.0203799
0.0203815
0.0203559
0.0203818
0.0203572
0.0203809
0.0204025
0.0203801
0.0203963
0.0203615
0.0203817
0.0203413
0.0203809
0.0203627
0.0203823
0.0203632
0.020381
0.0203706
0.0204046
0.0203716
0.0203819
0.020356
0.0203821
0.0203743
0.0203632
0.0203664
0.020381
0.0203801
0.0203779
0.0203616
0.0203801
0.0203682
0.0203705
0.0203545
0.0203801
0.0203782
0.0203736
0.0203776
0.0203806
0.0203775
0.0203601
0.0203683
0.020378
0.0203819
0.0203669
0.0203668
0.0203803
0.0203546
0.0204155
0.0203707
0.0203957
0.0203733
0.020442
0.0204419
0.0204416
0.0204417
0.0204415
0.0204421
0.0204419
0.0203613
0.0203513
0.0203691
0.0203745
0.0203774
0.0203777
0.0203672
0.020378
0.0203782
0.0203512
0.0203777
0.0203593
0.0203863
0.0203595
0.0203713
0.0203746
0.0203779
0.0203557
0.0203707
0.0203743
0.0203707
0.0203742
0.0203781
0.0203853
0.0203746
0.0203712
0.0203591
0.0203769
0.0203785
0.0203771
0.0203749
0.0203713
0.0203672
0.0203772
0.0203673
0.0203717
0.0203748
0.0203681
0.0203716
0.0203778
0.0203632
0.0203738
0.0203518
0.0204025
0.0203614
0.0203601
0.0203713
0.0203737
0.0203645
0.0204149
0.0203713
0.0203739
0.0204043
0.0203416
0.0203415
0.0203707
0.0203774
0.0203733
0.0203769
0.0203338
0.0203338
0.020368
0.020368
0.0203682
0.0204151
0.0203782
0.0203625
0.0203749
0.0203753
0.0203749
0.0204158
0.0203635
0.0203777
0.0203709
0.0203709
0.0203753
0.0203743
0.0203753
0.0203749
0.0204071
0.0203962
0.0203744
0.0203708
0.0203738
0.0203755
0.0203741
0.0203735
0.0203738
0.0204025
0.0203583
0.0203772
0.0203646
0.0203632
0.0204028
0.0203711
0.0203715
0.0203545
0.0203419
0.0203419
0.0203565
0.0203783
0.020371
0.0204033
0.0203429
0.0203349
0.020335
0.0204164
0.0203486
0.0203462
0.0203715
0.0203574
0.0203691
0.0203665
0.020363
0.0203618
0.0203682
0.020415
0.0203703
0.020365
0.0203626
0.02041
0.0203479
0.0204052
0.0203628
0.0203664
0.0203812
0.0203695
0.0203684
0.020354
0.0203677
0.020354
0.0203708
0.0203626
0.020347
0.0203467
0.0204032
0.0203658
0.0204182
0.0204173
0.0204193
0.0203636
0.0204157
0.0204203
0.0203755
0.0204188
0.0203519
0.020352
0.020418
0.0203735
0.020407
0.0204185
0.0204079
0.0204187
0.0204079
0.0203483
0.020405
0.0204154
0.0204181
0.0203686
0.0203607
0.0204087
0.0203685
0.02042
0.0203669
0.0203731
0.0204191
0.0204094
0.0204198
0.0204164
0.0203717
0.020351
0.0203358
0.0203365
0.020366
0.0203359
0.020336
0.0203362
0.0203402
0.0204041
0.0203474
0.0203562
0.0203509
0.0203666
0.0203391
0.0203392
0.0203501
0.0204169
0.0203736
0.0204164
0.020406
0.0204056
0.0203435
0.0203436
0.020344
0.0203439
0.0203435
0.0203367
0.0203439
0.0203391
0.0203357
0.0203434
0.0203433
0.0203355
0.0203366
0.0203389
0.0203443
SCALARS rr_(T) float
LOOKUP_TABLE default
0.0704989
0.0705274
0.0705248
0.0705267
0.0705385
0.0705247
0.0704988
0.0705268
0.0705222
0.0705275
0.0704996
0.0705268
0.0705261
0.0705281
0.0705343
0.0705251
0.0705295
0.0705262
0.0705207
0.0705239
0.0705237
0.0705541
0.0705236
0.070524
0.0705239
0.0705268
0.0705041
0.0705254
0.0705127
0.0705448
0.0705259
0.0705127
0.0705038
0.0705422
0.0705433
0.0705422
0.0705453
0.0705428
0.070526
0.0705039
0.0705126
0.0705454
0.0705454
0.0705259
0.0705061
0.0705131
0.0705214
0.0705227
0.070525
0.0705109
0.070512
0.0705158
0.0705378
0.0705158
0.0705375
0.0705074
0.0705435
0.0705158
0.0705434
0.0705241
0.0705293
0.0705327
0.0705062
0.0705326
0.0705328
0.0705298
0.0705294
0.0705269
0.0705237
0.0705276
0.0705377
0.0705377
0.0705126
0.0705311
0.0705248
0.0705024
0.0705352
0.0705298
0.0705269
0.0705163
0.0705105
0.0705397
0.0705311
0.0705096
0.0705137
0.0705066
0.0705253
0.0705306
0.0705062
0.0705522
0.0705158
0.0705522
0.0705355
0.0705295
0.070516
0.0705116
0.0705106
0.0705273
0.0705352
0.0705257
0.0705191
0.0705144
0.0705095
0.0705264
0.0705273
0.070527
0.0705318
0.0705255
0.0705095
0.0705279
0.0705241
0.0705071
0.0705085
0.0705263
0.0705269
0.0705159
0.0705435
0.0705105
0.0705434
0.070516
0.0705201
0.0705337
0.0705274
0.0705302
0.0705283
0.0705348
0.070542
0.0705273
0.0705106
0.0705161
0.0705379
0.0705272
0.0705308
0.0705273
0.0705144
0.0705436
0.0705091
0.0705265
0.0705311
0.0705435
0.0705147
0.0705281
0.0705207
0.0705277
0.0705104
0.0705268
0.0705277
0.0705252
0.0705247
0.0705182
0.0705227
0.0705274
0.0705127
0.0705261
0.0705276
0.0705272
0.0705287
0.070515
0.0705151
0.0705258
0.0705227
0.0705129
0.0705069
0.0705119
0.070515
0.0705271
0.070515
0.070515
0.0705127
0.0705151
0.0705356
0.0705158
0.0705119
0.070529
0.0705159
0.0705317
0.0705355
0.0705271
0.0705379
0.0705276
0.0705128
0.0705272
0.0705272
0.0705148
0.0705305
0.0705117
0.0705302
0.0705318
0.0705358
0.0705273
0.0705306
0.0705109
0.0705159
0.0705127
0.0705272
0.070526
0.0705262
0.0705307
0.0705274
0.0705297
0.0705275
0.0705211
0.0705165
0.0705307
0.0705128
0.070531
0.0705299
0.0705142
0.0705336
0.0705275
0.0705339
0.0705287
0.0705271
0.0705311
0.0705183
0.070529
0.0705168
0.0705318
0.0705282
0.0705282
0.0705277
0.0705278
0.0705279
0.0705278
0.070528
0.0705339
0.0705338
0.0705339
0.070534
0.0705377
0.0705377
0.0705181
0.070528
0.0705262
0.0705225
0.0705343
0.0705345
0.0705264
0.0705166
0.070526
0.0705273
0.0705184
0.0705337
0.0705183
0.0705312
0.0705259
0.0705185
0.0705169
0.0705105
0.0705104
0.070531
0.07051
0.0705256
0.0705168
0.070521
0.070526
0.0705281
0.0705458
0.0705279
0.0705099
0.0705168
0.0705262
0.070527
0.0705164
0.070528
0.0705209
0.0705457
0.0705168
0.0705283
0.07053
0.0705261
0.0705342
0.0705305
0.0705379
0.0705259
0.0705077
0.0705066
0.0705368
0.0705236
0.070527
0.0705183
0.0705338
0.070529
0.0705168
0.0705295
0.0705192
0.0705278
0.0705192
0.0705167
0.0705493
0.070536
0.0705344
0.0705343
0.0705279
0.0705194
0.0705417
0.0705298
0.0705229
0.0705196
0.0705186
0.0705367
0.0705184
0.0705356
0.0705189
0.0705062
0.0705194
0.0705103
0.070532
0.0705184
0.0705493
0.0705189
0.0705311
0.070518
0.0705305
0.0705189
0.0705251
0.0705059
0.0705244
0.0705183
0.0705365
0.0705182
0.070523
0.0705307
0.0705276
0.0705189
0.0705194
0.0705208
0.070532
0.0705194
0.0705269
0.0705253
0.0705378
0.0705194
0.0705206
0.0705234
0.0705209
0.0705191
0.070521
0.0705333
0.0705268
0.0705207
0.0705183
0.0705279
0.070528
0.0705193
0.0705377
0.0704986
0.0705254
0.0705105
0.0705236
0.0704821
0.0704821
0.0704823
0.0704822
0.0704822
0.0704821
0.0704823
0.0705321
0.0705406
0.0705261
0.0705229
0.0705209
0.0705209
0.0705278
0.0705207
0.0705205
0.0705407
0.0705209
0.0705338
0.0705158
0.0705332
0.0705248
0.0705228
0.0705208
0.0705369
0.0705253
0.070523
0.0705254
0.070523
0.0705205
0.0705162
0.0705228
0.070525
0.0705338
0.0705213
0.0705202
0.0705211
0.0705225
0.0705249
0.0705278
0.0705211
0.0705278
0.0705245
0.0705227
0.0705271
0.0705245
0.0705207
0.0705304
0.0705232
0.0705401
0.0705062
0.070532
0.0705333
0.070525
0.0705233
0.0705296
0.070499
0.0705248
0.0705232
0.0705061
0.0705492
0.0705493
0.0705253
0.0705209
0.0705236
0.0705213
0.0705563
0.0705562
0.0705266
0.0705271
0.070527
0.0704991
0.0705204
0.070531
0.0705225
0.0705222
0.0705226
0.0704984
0.0705305
0.0705207
0.0705252
0.0705252
0.0705222
0.0705229
0.0705222
0.0705225
0.070504
0.0705103
0.0705229
0.0705253
0.0705232
0.0705221
0.070523
0.0705235
0.0705232
0.0705063
0.0705346
0.0705211
0.0705295
0.0705306
0.0705061
0.0705247
0.0705244
0.0705378
0.0705487
0.0705487
0.0705361
0.0705203
0.0705252
0.0705058
0.0705478
0.0705549
0.0705549
0.070498
0.0705428
0.0705449
0.0705248
0.0705353
0.0705259
0.0705277
0.0705305
0.0705318
0.0705271
0.0704989
0.0705253
0.0705293
0.0705309
0.0705022
0.0705435
0.0705057
0.0705306
0.0705281
0.0705188
0.0705257
0.0705269
0.0705382
0.0705271
0.0705382
0.0705249
0.0705311
0.0705443
0.0705446
0.070506
0.0705284
0.0704985
0.0704992
0.0704977
0.0705304
0.0704987
0.070497
0.0705221
0.070498
0.0705399
0.0705399
0.0704986
0.0705232
0.0705042
0.0704984
0.0705035
0.0704983
0.0705035
0.0705431
0.0705049
0.0704988
0.0704985
0.0705267
0.0705325
0.0705031
0.0705269
0.0704971
0.0705279
0.0705235
0.070498
0.0705026
0.0704975
0.070498
0.0705245
0.0705407
0.0705541
0.0705535
0.0705285
0.070554
0.070554
0.0705537
0.0705503
0.0705054
0.0705439
0.0705364
0.0705409
0.0705281
0.0705513
0.0705513
0.0705417
0.0704977
0.0705231
0.0704984
0.0705053
0.0705053
0.0705472
0.0705471
0.0705468
0.0705469
0.0705471
0.0705534
0.070547
0.0705514
0.0705544
0.0705474
0.0705475
0.0705546
0.0705534
0.0705515
0.0705467
SCALARS rr_tsim float
LOOKUP_TABLE default
170
170
170
170
170
170
170
170
170
170
170
170
170
170
170
170
170
170
170
170
170
170
170
170
170
170
170
170
170
170
170
170
170
170
170
170
170
170
170
170
170
170
170
170
170
170
170
170
170
170
170
170
170
170
170
170
170
170
170
170
170
170
170
170
170
170
170
170
170
170
170
170
170
170
170
170
170
170
170
170
170
170
170
170
170
170
170
170
170
170
170
170
170
170
170
170
170
170
170
170
170
170
170
170
170
170
170
170
170
170
170
170
170
170
170
170
170
170
170
170
170
170
170
170
170
170
170
170
170
170
170
170
170
170
170
170
170
170
170
170
170
170
170
170
170
170
170
170
170
170
170
170
170
170
170
170
170
170
170
170
170
170
170
170
170
170
170
170
170
170
170
170
170
170
170
170
170
170
170
170
170
170
170
170
170
170
170
170
170
170
170
170
170
170
170
170
170
170
170
170
170
170
170
170
170
170
170
170
170
170
170
170
170
170
170
170
170
170
170
170
170
170
170
170
170
170
170
170
170
170
170
170
170
170
170
170
170
170
170
170
170
170
170
170
170
170
170
170
170
170
170
170
170
170
170
170
170
170
170
170
170
170
170
170
170
170
170
170
170
170
170
170
170
170
170
170
170
170
170
170
170
170
170
170
170
170
170
170
170
170
170
170
170
170
170
170
170
170
170
170
170
170
170
170
170
170
170
170
170
170
170
170
170
170
170
170
170
170
170
170
170
170
170
170
170
170
170
170
170
170
170
170
170
170
170
170
170
170
170
170
170
170
170
170
170
170
170
170
170
170
170
170
170
170
170
170
170
170
170
170
170
170
170
170
170
170
170
170
170
170
170
170
170
170
170
170
170
170
170
170
170
170
170
170
170
170
170
170
170
170
170
170
170
170
170
170
170
170
170
170
170
170
170
170
170
170
170
170
170
170
170
170
170
170
170
170
170
170
170
170
170
170
170
170
170
170
170
170
170
170
170
170
170
170
170
170
170
170
170
170
170
170
170
170
170
170
170
170
170
170
170
170
170
170
170
170
170
170
170
170
170
170
170
170
170
170
170
170
170
170
170
170
170
170
170
170
170
170
170
170
170
170
170
170
170
170
170
170
170
170
170
170
170
170
170
170
170
170
170
170
170
170
170
170
170
170
170
170
170
170
170
170
170
170
170
170
170
170
170
170
170
170
170
170
170
170
170
170
170
170
170
170
170
170
170
170
170
170
170
170
170
170
170
170
170
170
170
170
170
170
170
170
170
170
170
170
170
170
170
170
170
170
170
SCALARS rr_Vext float
LOOKUP_TABLE default
0.18136
0.449128
0.356052
0.468114
0.250494
0.377832
0.179275
0.465094
0.39511
0.50457
0.16539
0.466513
0.40983
0.435017
0.516139
0.424869
0.369047
0.414188
0.365535
0.360531
0.405113
0.0765109
0.415074
0.383018
0.347109
0.403475
0.155011
0.352838
0.267415
0.339248
0.361973
0.276487
0.171521
0.252903
0.249249
0.253453
0.330128
0.249492
0.361543
0.192837
0.224723
0.291052
0.291061
0.397276
0.216887
0.244122
0.344615
0.350187
0.330082
0.303763
0.312856
0.245238
0.401521
0.315209
0.369417
0.157755
0.26618
0.317519
0.266152
0.393189
0.470933
0.464876
0.153276
0.327644
0.445317
0.417378
0.455659
0.391909
0.357989
0.515561
0.435557
0.430794
0.277656
0.338747
0.353975
0.176427
0.372678
0.41348
0.395173
0.271135
0.240492
0.283508
0.527536
0.240252
0.327763
0.119292
0.407584
0.344612
0.229707
0.037483
0.273095
0.0407608
0.31636
0.299315
0.258661
0.232985
0.22091
0.442935
0.372913
0.351859
0.293538
0.277772
0.23048
0.41858
0.426142
0.383835
0.340629
0.340851
0.24463
0.512523
0.326029
0.16404
0.220058
0.457883
0.429722
0.304484
0.308632
0.18351
0.320037
0.303369
0.266988
0.502653
0.511815
0.442044
0.48453
0.384954
0.220816
0.478214
0.20008
0.262281
0.227505
0.456399
0.449027
0.448253
0.288939
0.187538
0.19064
0.327443
0.404472
0.18746
0.241544
0.387293
0.287972
0.472762
0.223277
0.385193
0.349734
0.33613
0.214791
0.269548
0.304301
0.44063
0.248028
0.397414
0.461994
0.469247
0.307858
0.24901
0.247659
0.401139
0.333856
0.246119
0.160077
0.239706
0.240469
0.430959
0.252351
0.255103
0.274622
0.245941
0.386346
0.258185
0.22606
0.297716
0.272814
0.340309
0.38212
0.361136
0.313979
0.360848
0.266569
0.41825
0.448856
0.241616
0.442303
0.239441
0.436798
0.40274
0.378968
0.379418
0.44623
0.200776
0.26693
0.246018
0.447413
0.439024
0.407202
0.447898
0.452956
0.381868
0.466573
0.307718
0.274112
0.512735
0.285549
0.465957
0.369964
0.226656
0.286344
0.461729
0.389037
0.350311
0.45006
0.445259
0.278861
0.284223
0.267545
0.395456
0.433423
0.498096
0.478093
0.520375
0.471562
0.515291
0.432059
0.457205
0.460654
0.434358
0.45636
0.422921
0.416638
0.282413
0.389414
0.454299
0.312123
0.470276
0.432159
0.492664
0.288248
0.468281
0.448681
0.284502
0.406916
0.282471
0.455241
0.411293
0.296257
0.27768
0.235554
0.271099
0.455776
0.197502
0.347023
0.27653
0.313906
0.468675
0.455552
0.147789
0.457108
0.236432
0.261766
0.466274
0.37903
0.264587
0.522186
0.291233
0.14778
0.267726
0.406402
0.508926
0.382693
0.457758
0.425158
0.226616
0.216733
0.17598
0.201429
0.308136
0.229077
0.371984
0.227526
0.406395
0.287625
0.268103
0.323955
0.293524
0.398524
0.281489
0.287598
0.136371
0.303573
0.437813
0.438061
0.391528
0.281118
0.192359
0.545882
0.360491
0.29832
0.274293
0.284978
0.282731
0.358845
0.278093
0.19206
0.274794
0.183497
0.35107
0.279579
0.127092
0.263724
0.32134
0.279317
0.443673
0.290712
0.381471
0.138315
0.305664
0.287016
0.261626
0.26932
0.321994
0.308725
0.321048
0.266566
0.271166
0.293861
0.403604
0.276097
0.399025
0.35879
0.290798
0.286476
0.290125
0.323375
0.289914
0.270119
0.308531
0.333031
0.387869
0.290171
0.286355
0.425146
0.419251
0.276214
0.290837
0.117369
0.342066
0.227679
0.319683
0.126305
0.131123
0.117233
0.11913
0.126412
0.133077
0.137186
0.365821
0.275204
0.269665
0.305536
0.296209
0.29241
0.314712
0.285995
0.292389
0.310824
0.291316
0.36879
0.261065
0.378835
0.289105
0.27758
0.291598
0.322767
0.328996
0.304698
0.351051
0.326033
0.300391
0.213977
0.303862
0.298864
0.328282
0.30531
0.28852
0.275037
0.304065
0.319094
0.436164
0.283308
0.424003
0.438662
0.298866
0.422866
0.322477
0.255679
0.356795
0.307319
0.229505
0.185271
0.353351
0.377141
0.313434
0.259544
0.317015
0.138204
0.309866
0.289515
0.14057
0.0597488
0.0653755
0.268653
0.283296
0.331358
0.316588
0.0311309
0.0325287
0.318182
0.321544
0.304244
0.103724
0.264728
0.315905
0.315643
0.272077
0.240283
0.107864
0.464468
0.284947
0.352162
0.357674
0.255164
0.323447
0.249477
0.275481
0.12974
0.199382
0.323807
0.327752
0.280326
0.293565
0.303659
0.320506
0.306411
0.143961
0.27578
0.301354
0.290886
0.437489
0.143858
0.233733
0.240573
0.234524
0.155625
0.155629
0.2677
0.208508
0.301875
0.153857
0.185526
0.0614168
0.0614143
0.11231
0.199634
0.134971
0.257001
0.284539
0.297808
0.337002
0.307419
0.285233
0.222217
0.127172
0.278051
0.290582
0.282439
0.14413
0.147645
0.104629
0.281949
0.285972
0.224181
0.258251
0.238713
0.223791
0.292912
0.223758
0.257205
0.251387
0.158047
0.195241
0.165309
0.310647
0.112707
0.118918
0.115939
0.294534
0.10769
0.104733
0.200917
0.0979323
0.243155
0.24351
0.10066
0.255446
0.113723
0.110989
0.127155
0.105858
0.105723
0.174206
0.126241
0.112775
0.106277
0.235811
0.272659
0.118744
0.260317
0.0960769
0.264789
0.208173
0.100551
0.0864354
0.0948698
0.126461
0.225552
0.19218
0.0824426
0.0914074
0.253857
0.077586
0.0775827
0.0878718
0.0979622
0.0995854
0.127334
0.207533
0.193795
0.253769
0.0775244
0.0775211
0.229252
0.0843468
0.178714
0.0765192
0.0783417
0.103271
0.198596
0.205596
0.218907
0.20066
0.19858
0.0438925
0.320382
0.0557538
0.0543418
0.259008
0.257239
0.0563346
0.0390572
0.0548045
0.23856
SCALARS rr_Vli float
LOOKUP_TABLE default
0.396487
0.903299
0.721405
0.942905
0.493004
0.765666
0.392035
0.937672
0.806269
1.01512
0.359836
0.940544
0.827703
0.874156
1.02412
0.85973
0.739396
0.835917
0.748798
0.732055
0.823482
0.146196
0.843739
0.777628
0.704889
0.813142
0.333349
0.714258
0.560609
0.659802
0.731226
0.579529
0.369272
0.494393
0.485905
0.495507
0.641458
0.486896
0.730483
0.415065
0.471211
0.56533
0.56539
0.802516
0.463323
0.511148
0.704663
0.713573
0.668682
0.640143
0.657315
0.50971
0.791282
0.654955
0.7285
0.336094
0.518808
0.659757
0.518792
0.798048
0.943866
0.925032
0.32784
0.652219
0.886011
0.836197
0.913001
0.789775
0.727291
1.03671
0.858508
0.849153
0.582211
0.676853
0.71697
0.381183
0.73816
0.82844
0.796423
0.562481
0.507624
0.556449
1.05351
0.508333
0.685385
0.254579
0.825077
0.689488
0.490661
0.0719435
0.567529
0.0782462
0.626351
0.60026
0.537109
0.489902
0.466217
0.891216
0.738708
0.71115
0.604218
0.579674
0.48775
0.844112
0.858083
0.772715
0.679548
0.689381
0.51776
1.02965
0.661679
0.349479
0.46706
0.923823
0.865438
0.632493
0.601613
0.387412
0.624002
0.629992
0.547961
0.998314
1.02948
0.88428
0.972858
0.763254
0.431751
0.962238
0.422253
0.544647
0.448453
0.918482
0.897112
0.901824
0.6029
0.365538
0.404182
0.660933
0.807734
0.365415
0.503539
0.778935
0.590242
0.951062
0.471532
0.776066
0.704324
0.680956
0.435247
0.556269
0.620248
0.886309
0.519983
0.802498
0.929443
0.944264
0.617855
0.518657
0.515714
0.810198
0.680207
0.51566
0.341239
0.503639
0.500929
0.867516
0.525646
0.531444
0.575697
0.512237
0.764769
0.536474
0.475015
0.597027
0.566759
0.679102
0.756453
0.72816
0.618512
0.726374
0.558761
0.841637
0.903306
0.503623
0.884784
0.503409
0.873809
0.803285
0.749917
0.763391
0.892543
0.423345
0.554571
0.515691
0.900211
0.886302
0.821713
0.894906
0.911198
0.765272
0.938418
0.629675
0.568293
1.02454
0.598472
0.930554
0.741279
0.473241
0.569199
0.928576
0.772729
0.703607
0.906437
0.889139
0.57533
0.570472
0.554201
0.788784
0.870379
1.00029
0.961018
1.04559
0.947454
1.03539
0.868714
0.907699
0.914771
0.862346
0.905934
0.833931
0.821518
0.583005
0.782796
0.915909
0.636239
0.933123
0.857211
0.993026
0.597477
0.944371
0.902757
0.586737
0.808803
0.582775
0.908857
0.829728
0.610882
0.574982
0.497306
0.572062
0.910104
0.417615
0.701483
0.572847
0.642714
0.945259
0.914969
0.286927
0.918296
0.500198
0.54226
0.940103
0.764202
0.54865
1.04888
0.596677
0.286928
0.554501
0.815979
1.01856
0.772235
0.908468
0.850825
0.446601
0.437753
0.374435
0.429884
0.608685
0.46556
0.749994
0.469386
0.80767
0.576818
0.555341
0.649549
0.603997
0.802279
0.57918
0.596021
0.26302
0.600444
0.868512
0.869132
0.78721
0.578064
0.376388
1.09285
0.734302
0.61326
0.565368
0.562959
0.583125
0.710461
0.572678
0.410197
0.565168
0.387692
0.700127
0.5766
0.245149
0.543078
0.642115
0.576621
0.887242
0.598799
0.772175
0.296223
0.619804
0.592063
0.517041
0.555818
0.655881
0.617316
0.645551
0.549011
0.557649
0.602198
0.804988
0.567872
0.804508
0.726244
0.573156
0.589129
0.594777
0.657844
0.593796
0.555996
0.631809
0.662548
0.782182
0.594653
0.590811
0.855289
0.84331
0.568301
0.573279
0.256088
0.692603
0.480628
0.650105
0.287607
0.298551
0.266803
0.271172
0.287683
0.303057
0.312311
0.729345
0.539724
0.544567
0.622605
0.606502
0.598934
0.633521
0.586132
0.599485
0.609471
0.596713
0.73266
0.542546
0.753109
0.586005
0.5657
0.597467
0.637468
0.666114
0.620593
0.710717
0.663998
0.615744
0.44404
0.619299
0.605573
0.652005
0.624638
0.59187
0.562873
0.620019
0.646722
0.877919
0.579859
0.85355
0.889741
0.609279
0.852431
0.65393
0.523842
0.713545
0.625426
0.450402
0.395666
0.70447
0.750315
0.635202
0.52805
0.635254
0.301236
0.628023
0.589266
0.300913
0.115298
0.126126
0.544005
0.580098
0.673738
0.647663
0.0592774
0.0619389
0.641398
0.648089
0.613483
0.226113
0.542805
0.631013
0.643418
0.555016
0.489879
0.23547
0.929285
0.583734
0.713234
0.724384
0.520584
0.658849
0.508991
0.561648
0.279102
0.421177
0.659633
0.66371
0.570435
0.599125
0.618258
0.651894
0.623524
0.307428
0.547098
0.616833
0.583016
0.874903
0.307368
0.473535
0.487755
0.462241
0.300515
0.300536
0.529555
0.427593
0.611537
0.329006
0.358876
0.117176
0.117176
0.245399
0.38962
0.262495
0.521052
0.56354
0.601413
0.677648
0.614658
0.569071
0.448037
0.277251
0.562548
0.582801
0.564249
0.311557
0.287925
0.224284
0.563453
0.574851
0.461943
0.521748
0.481455
0.440837
0.590096
0.440799
0.520823
0.502148
0.307812
0.380028
0.353394
0.623983
0.246786
0.25998
0.254334
0.589284
0.234981
0.230138
0.41001
0.214644
0.477122
0.477843
0.220334
0.519612
0.244574
0.243122
0.273902
0.231958
0.227739
0.33983
0.270698
0.245997
0.232678
0.47575
0.543003
0.256116
0.525109
0.211012
0.53269
0.42322
0.220455
0.186663
0.208255
0.276319
0.457468
0.376608
0.157552
0.174883
0.509987
0.148307
0.148306
0.168049
0.188629
0.213206
0.248114
0.410274
0.379762
0.510342
0.149004
0.149003
0.448512
0.184462
0.363611
0.167149
0.168151
0.221554
0.38455
0.398196
0.424214
0.388779
0.38454
0.0840103
0.620732
0.107163
0.103829
0.501445
0.497966
0.107596
0.074733
0.105301
0.462543
SCALARS rr_S_ext' float
LOOKUP_TABLE default
-0.000725832
-0.0016569
-0.00132305
-0.00172949
-0.000904747
-0.00140422
-0.000717675
-0.00171987
-0.00147845
-0.001862
-0.000658795
-0.00172514
-0.00151811
-0.00160349
-0.00187909
-0.00157678
-0.00135638
-0.00153319
-0.00137294
-0.00134251
-0.00151015
-0.00026846
-0.00154729
-0.00142609
-0.00129269
-0.00149146
-0.00061049
-0.00130997
-0.00102733
-0.00121114
-0.00134115
-0.001062
-0.000676262
-0.000907418
-0.000891899
-0.000909462
-0.00117749
-0.000893701
-0.00133978
-0.000760129
-0.0008635
-0.00103776
-0.00103786
-0.00147191
-0.000848656
-0.000936721
-0.00129207
-0.00130852
-0.00122636
-0.00117293
-0.00120448
-0.00093425
-0.00145209
-0.00120048
-0.00133686
-0.000615663
-0.000952299
-0.00120928
-0.000952267
-0.00146355
-0.00173144
-0.00169718
-0.000600487
-0.00119664
-0.00162559
-0.00153396
-0.00167484
-0.00144861
-0.00133376
-0.00190161
-0.00157545
-0.00155828
-0.00106691
-0.00124173
-0.00131493
-0.00069801
-0.00135446
-0.00151973
-0.0014608
-0.00103102
-0.000930084
-0.00102124
-0.00193273
-0.000931326
-0.00125607
-0.000466321
-0.00151321
-0.00126487
-0.000898733
-0.000132097
-0.00104023
-0.000143669
-0.00114931
-0.00110112
-0.000984495
-0.00089769
-0.000854223
-0.00163473
-0.00135547
-0.00130432
-0.00110773
-0.00106239
-0.00089361
-0.00154825
-0.00157393
-0.00141735
-0.00124671
-0.00126437
-0.000948589
-0.0018887
-0.00121346
-0.000640175
-0.00085564
-0.00169443
-0.00158741
-0.00115932
-0.00110429
-0.000709827
-0.00114538
-0.00115474
-0.00100465
-0.00183169
-0.00188834
-0.00162222
-0.00178454
-0.00140046
-0.000792445
-0.001765
-0.00077367
-0.000998309
-0.000822953
-0.00168472
-0.0016458
-0.00165418
-0.00110496
-0.000670961
-0.000740478
-0.00121225
-0.00148184
-0.000670734
-0.000922877
-0.0014288
-0.00108221
-0.00174451
-0.000863948
-0.00142347
-0.0012919
-0.00124887
-0.000798236
-0.00101976
-0.00113737
-0.00162573
-0.000952878
-0.00147189
-0.00170485
-0.00173202
-0.00113338
-0.000950608
-0.000945217
-0.001486
-0.00124734
-0.000944971
-0.000625074
-0.000922879
-0.000918108
-0.00159124
-0.000963413
-0.000974038
-0.00105498
-0.000938839
-0.0014033
-0.000983314
-0.000870428
-0.00109519
-0.00103883
-0.00124588
-0.00138804
-0.00133558
-0.00113505
-0.00133235
-0.00102395
-0.00154378
-0.0016569
-0.000923032
-0.00162315
-0.000922445
-0.00160301
-0.00147373
-0.00137606
-0.00140026
-0.00163739
-0.000775687
-0.00101649
-0.000945019
-0.00165122
-0.00162559
-0.00150714
-0.00164175
-0.00167138
-0.00140385
-0.00172131
-0.00115456
-0.00104169
-0.00187956
-0.00109672
-0.00170716
-0.00135984
-0.000867314
-0.00104435
-0.00170326
-0.0014178
-0.00129066
-0.00166261
-0.00163119
-0.00105471
-0.00104646
-0.00101588
-0.00144713
-0.00159656
-0.00183485
-0.00176278
-0.00191792
-0.00173792
-0.00189922
-0.00159348
-0.00166545
-0.00167841
-0.00158223
-0.00166221
-0.00153034
-0.00150755
-0.00106876
-0.00143589
-0.00167992
-0.0011667
-0.00171212
-0.00157284
-0.00182138
-0.00109519
-0.00173212
-0.0016559
-0.00107563
-0.00148397
-0.00106836
-0.00166737
-0.00152183
-0.0011199
-0.00105398
-0.000911174
-0.00104815
-0.00166965
-0.000765137
-0.00128658
-0.00105006
-0.00117844
-0.00173374
-0.00167834
-0.000526708
-0.00168444
-0.000916433
-0.000993985
-0.00172429
-0.00140169
-0.00100568
-0.00192397
-0.00109402
-0.000526709
-0.00101643
-0.00149678
-0.00186854
-0.00141639
-0.00166687
-0.00156084
-0.000819564
-0.000802891
-0.000685914
-0.000787431
-0.00111695
-0.000853775
-0.00137563
-0.000860493
-0.00148189
-0.00105812
-0.00101797
-0.00119154
-0.00110733
-0.00147158
-0.00106184
-0.00109252
-0.000482889
-0.00110179
-0.00159357
-0.00159471
-0.00144398
-0.00105981
-0.000690817
-0.00200481
-0.00134654
-0.00112434
-0.00103647
-0.00103304
-0.00106901
-0.00130364
-0.0010499
-0.00075135
-0.00103616
-0.000710327
-0.00128448
-0.00105705
-0.000450078
-0.000995632
-0.00117799
-0.00105706
-0.00162766
-0.00109778
-0.00141619
-0.000542561
-0.00113669
-0.00108539
-0.000948768
-0.00101893
-0.00120273
-0.00113249
-0.00118412
-0.0010065
-0.00102238
-0.00110414
-0.00147686
-0.00104111
-0.00147562
-0.00133195
-0.00105181
-0.00108009
-0.00109052
-0.00120637
-0.00108875
-0.00101932
-0.00115845
-0.0012156
-0.00143466
-0.0010903
-0.00108309
-0.00156884
-0.00154687
-0.00104189
-0.00105203
-0.000468818
-0.00127025
-0.00088062
-0.00119219
-0.000525919
-0.000545933
-0.000487885
-0.00049587
-0.000526064
-0.000554172
-0.000571101
-0.00133809
-0.000990553
-0.000998799
-0.0011417
-0.00111205
-0.00109817
-0.00116204
-0.00107468
-0.00109915
-0.00111856
-0.00109409
-0.00134428
-0.000994439
-0.00138176
-0.00107471
-0.00103735
-0.00109547
-0.00116977
-0.00122167
-0.00113803
-0.00130347
-0.00121762
-0.00112897
-0.000813911
-0.00113563
-0.00111062
-0.0011963
-0.00114532
-0.00108517
-0.00103207
-0.00113694
-0.00118608
-0.00161033
-0.00106321
-0.00156563
-0.00163173
-0.00111725
-0.00156353
-0.00119928
-0.000960474
-0.00130901
-0.00114691
-0.00082661
-0.000724736
-0.00129245
-0.00137663
-0.00116495
-0.00096835
-0.00116534
-0.000551487
-0.00115178
-0.0010806
-0.000551156
-0.000211679
-0.00023156
-0.000997712
-0.00106364
-0.00123553
-0.00118755
-0.00010886
-0.000113747
-0.00117645
-0.00118873
-0.00112524
-0.000413956
-0.000995225
-0.00115764
-0.00117986
-0.00101774
-0.000898306
-0.000431066
-0.00170477
-0.00107029
-0.00130808
-0.00132853
-0.000954597
-0.00120818
-0.000933338
-0.00102991
-0.00051114
-0.000771682
-0.00120961
-0.00121725
-0.00104607
-0.00109861
-0.00113375
-0.00119546
-0.00114343
-0.000563114
-0.00100384
-0.001131
-0.00106951
-0.00160503
-0.000562997
-0.000868457
-0.000894522
-0.000848263
-0.000551712
-0.000551749
-0.000971707
-0.000783984
-0.00112156
-0.000602618
-0.000658832
-0.000215179
-0.000215178
-0.000449232
-0.000715147
-0.000481839
-0.000955591
-0.00103405
-0.00110306
-0.001243
-0.0011276
-0.00104403
-0.000821787
-0.000507572
-0.00103174
-0.00106909
-0.00103515
-0.000570507
-0.00052849
-0.000410791
-0.00103368
-0.00105446
-0.000846871
-0.000956943
-0.000883074
-0.000808989
-0.00108237
-0.000808918
-0.000955198
-0.000921227
-0.000565007
-0.000697574
-0.000647294
-0.00114459
-0.000451762
-0.000475936
-0.000465556
-0.00108105
-0.00043018
-0.000421247
-0.000751834
-0.000392913
-0.000875658
-0.000876982
-0.000403344
-0.000952875
-0.000447912
-0.000445053
-0.0005016
-0.000424612
-0.000417062
-0.000623764
-0.000495785
-0.00045035
-0.000425936
-0.000872606
-0.000996243
-0.000469014
-0.000963141
-0.000386241
-0.000977104
-0.00077612
-0.000403548
-0.000341817
-0.000381204
-0.000505836
-0.000838971
-0.000691203
-0.000289312
-0.000321129
-0.000935488
-0.000272334
-0.000272331
-0.000308582
-0.000346322
-0.000390503
-0.000455425
-0.000752846
-0.000696989
-0.000936116
-0.000273583
-0.000273581
-0.000823202
-0.000337672
-0.000666794
-0.000305992
-0.000307969
-0.000405779
-0.000705947
-0.000730995
-0.000778751
-0.000713703
-0.000705929
-0.000154263
-0.00113952
-0.000196759
-0.000190661
-0.000920545
-0.00091416
-0.000197581
-0.000137228
-0.000193341
-0.000849103
SCALARS rr_P_ext' float
LOOKUP_TABLE default
0.00016038
0.000370559
0.000295587
0.000386712
0.000202945
0.000313714
0.000158572
0.00038451
0.000329976
0.000416409
0.000145677
0.000385687
0.000339319
0.000358654
0.000421037
0.000352338
0.000303509
0.000342725
0.000306261
0.000299846
0.000337234
6.0459e-05
0.000345529
0.000318518
0.000288713
0.000333463
0.000135228
0.000292701
0.000228412
0.000272114
0.000299756
0.000236127
0.000149772
0.000203733
0.000200322
0.00020419
0.000264588
0.000200698
0.000299443
0.000168352
0.000191981
0.0002332
0.000233222
0.000328982
0.000188169
0.000208303
0.000288296
0.000292107
0.000273992
0.000260587
0.000267714
0.000207974
0.000325664
0.00026725
0.000299793
0.000136561
0.000213894
0.000269209
0.000213885
0.000326897
0.000387417
0.000380126
0.000133118
0.000268002
0.000364098
0.000343246
0.000374765
0.000323885
0.000297868
0.0004253
0.000353322
0.00034947
0.000237204
0.000277957
0.000293785
0.000154507
0.000303558
0.000340059
0.000326606
0.000229577
0.000206586
0.000229162
0.000432672
0.00020679
0.000279369
0.00010341
0.000338115
0.000283086
0.000199275
2.97317e-05
0.000231571
3.23357e-05
0.000257595
0.000246358
0.000219187
0.000199502
0.00018974
0.000365577
0.000303778
0.000291502
0.000246932
0.000236361
0.00019841
0.000346129
0.000351943
0.000316941
0.000279134
0.000282547
0.000210613
0.000422467
0.000271042
0.000142
0.000189898
0.000378784
0.000354949
0.000258096
0.000248029
0.000157659
0.000257249
0.000257088
0.000224048
0.000410364
0.000422313
0.000363071
0.000399202
0.000313826
0.000177914
0.000394708
0.000171848
0.000222262
0.000184561
0.00037675
0.000368414
0.000369935
0.000245837
0.000150703
0.000164365
0.000270976
0.000331734
0.000150651
0.000205353
0.000319542
0.000241389
0.000390137
0.000191881
0.000318274
0.000288872
0.00027902
0.000178334
0.000227239
0.000253892
0.000363582
0.000211858
0.000328995
0.000381266
0.00038733
0.000253549
0.000211549
0.000210357
0.000332139
0.000278455
0.000210119
0.000138638
0.000205124
0.000204314
0.000355829
0.000214397
0.000216758
0.000234561
0.000208932
0.00031453
0.000218904
0.000193462
0.000245033
0.000231269
0.000278938
0.000311107
0.000298591
0.000254574
0.000297938
0.000227664
0.000345234
0.000370525
0.000205392
0.000363279
0.000205008
0.00035877
0.000329972
0.000308438
0.000313145
0.000366472
0.000172318
0.000226293
0.000210115
0.000369268
0.000363365
0.000336908
0.000367505
0.000373786
0.000314118
0.000384963
0.000257586
0.000231974
0.000420735
0.000243849
0.000382173
0.000304279
0.000192947
0.000233941
0.000380932
0.000317632
0.000288702
0.000371762
0.00036517
0.000235036
0.000234101
0.000226254
0.000324013
0.000357142
0.000410444
0.000394272
0.000428995
0.000388736
0.000424811
0.000356388
0.000373139
0.000376031
0.000354495
0.000372419
0.000343186
0.000338079
0.000238148
0.000321152
0.000375585
0.000260435
0.000383625
0.000352435
0.000407223
0.000243895
0.000387238
0.000370313
0.000239712
0.000332423
0.000238078
0.000373282
0.00034021
0.000249583
0.000234752
0.00020238
0.000232821
0.000373782
0.000169904
0.000287533
0.000233864
0.000262894
0.000387596
0.000375429
0.000118367
0.00037678
0.000203484
0.000221377
0.000385502
0.000313373
0.000223948
0.000430369
0.000244037
0.000118366
0.000226382
0.000334829
0.000418173
0.000316623
0.000373477
0.000349314
0.000183805
0.000179456
0.000152174
0.000174618
0.00025042
0.000190663
0.000307546
0.000191758
0.000331964
0.000236737
0.000226721
0.000266596
0.000246854
0.000329068
0.000236715
0.000243308
0.000108615
0.000246979
0.000357075
0.000357321
0.000322952
0.000236283
0.000155083
0.000448652
0.000300611
0.000250681
0.000231003
0.000231606
0.000238233
0.000292187
0.000234025
0.000166599
0.000231004
0.000157752
0.000287603
0.000235569
0.000101234
0.000221929
0.000263689
0.00023554
0.000364307
0.00024469
0.000316439
0.000120253
0.000253925
0.000241878
0.000212701
0.000227053
0.000268507
0.000253478
0.000264833
0.000224349
0.000227935
0.000246286
0.000330673
0.000232108
0.000329901
0.000297617
0.000235886
0.000240802
0.000243236
0.000269367
0.000242871
0.000227225
0.000258427
0.000272272
0.000320735
0.000243199
0.000241359
0.000350849
0.000345943
0.00023227
0.000235933
0.000103624
0.000283817
0.000195596
0.000266214
0.000115489
0.000119885
0.000107146
0.000108896
0.000115531
0.00012169
0.000125414
0.000299619
0.000222302
0.00022325
0.000254868
0.00024808
0.000244971
0.000259851
0.000239712
0.000245156
0.000251036
0.000244061
0.000301152
0.000221376
0.000309524
0.000240093
0.000231569
0.000244358
0.000262269
0.000272964
0.000254064
0.000291246
0.000271837
0.000251815
0.000181226
0.000253507
0.000248124
0.000268011
0.000255532
0.000242021
0.000230253
0.000253781
0.000264974
0.000360102
0.000237198
0.000350099
0.000364497
0.000249395
0.000349562
0.000267904
0.000214248
0.000292983
0.000256077
0.000185492
0.0001607
0.000289401
0.000308338
0.000260257
0.000216217
0.000260753
0.000121915
0.000257312
0.000241266
0.000122167
4.76091e-05
5.20821e-05
0.000222921
0.000237278
0.000275899
0.000264955
2.45272e-05
2.56284e-05
0.000263023
0.000265772
0.000251564
9.15093e-05
0.000221975
0.000259146
0.000263373
0.00022716
0.000200519
9.5272e-05
0.00038154
0.000238748
0.000292259
0.000296829
0.000213063
0.000269721
0.000208317
0.000229895
0.000113215
0.000171383
0.000270039
0.000271971
0.000233565
0.000245195
0.000253123
0.000266939
0.000255302
0.000124863
0.000224929
0.00025232
0.000239303
0.000359239
0.000124828
0.000194028
0.00019983
0.000190238
0.000124076
0.000124084
0.000217816
0.000174856
0.000250577
0.000133596
0.000148132
4.84693e-05
4.84688e-05
9.92736e-05
0.000160599
0.000108258
0.000213473
0.000231751
0.000246554
0.000278
0.000252389
0.000233751
0.000183724
0.000112203
0.000230552
0.000239189
0.000231721
0.000126275
0.000118696
9.10351e-05
0.000231382
0.000235841
0.000188754
0.00021388
0.000197417
0.000181446
0.000242009
0.000181428
0.000213422
0.000206223
0.00012692
0.000156711
0.000143506
0.000256028
9.97982e-05
0.000105163
0.000102817
0.000241945
9.50824e-05
9.3008e-05
0.000167801
8.67856e-05
0.000196501
0.000196796
8.91067e-05
0.000212768
9.92145e-05
9.831e-05
0.00011108
9.37903e-05
9.23592e-05
0.000140086
0.000109867
9.95453e-05
9.40952e-05
0.000195068
0.000223108
0.000103844
0.000215312
8.52858e-05
0.000218516
0.000173314
8.91299e-05
7.56676e-05
8.41793e-05
0.000111782
0.000187411
0.000155136
6.51539e-05
7.23083e-05
0.00020925
6.13286e-05
6.13277e-05
6.9487e-05
7.79149e-05
8.65566e-05
0.000102297
0.000168771
0.000156436
0.00020936
6.1565e-05
6.15642e-05
0.000184804
7.46106e-05
0.000148884
6.76219e-05
6.82357e-05
8.99141e-05
0.000158704
0.00016433
0.000175052
0.000160435
0.000158699
3.47334e-05
0.000256154
4.42771e-05
4.29387e-05
0.000206953
0.00020552
4.44992e-05
3.08992e-05
4.351e-05
0.000190853
SCALARS rr_S' float
LOOKUP_TABLE default
0.00051639
0.00117973
0.000941961
0.00123139
0.000644311
0.000999748
0.000510586
0.00122454
0.00105253
0.00132576
0.000468716
0.00122829
0.00108087
0.00114171
0.00133808
0.00112263
0.000965783
0.00109161
0.000977383
0.000955801
0.00107514
0.000191229
0.00110158
0.0010153
0.000920328
0.00106192
0.000434401
0.000932653
0.000731189
0.00086259
0.000954879
0.000755869
0.000481196
0.000646247
0.000635212
0.000647702
0.00083863
0.000636489
0.000953901
0.000540873
0.000614583
0.00073911
0.000739187
0.00104797
0.000603908
0.000666707
0.000919831
0.00093157
0.000873124
0.000834774
0.000857255
0.000664995
0.00103408
0.000854501
0.000952019
0.000438123
0.00067823
0.000860764
0.000678207
0.00104197
0.00123284
0.00120852
0.000427306
0.000852094
0.00115755
0.00109223
0.00119254
0.00103141
0.000949564
0.00135397
0.00112193
0.00110971
0.000759358
0.000884175
0.000936183
0.000496653
0.00096452
0.0010821
0.00104008
0.000733884
0.000661932
0.00072729
0.00137621
0.0006628
0.000894011
0.00033184
0.00107736
0.000900642
0.000639544
9.40914e-05
0.000740434
0.000102334
0.00081843
0.000784029
0.000700766
0.0006389
0.000607944
0.00116394
0.000965233
0.000928645
0.000788548
0.000756176
0.000635957
0.00110234
0.00112064
0.00100916
0.000887729
0.000900199
0.000675084
0.00134478
0.000863926
0.000455565
0.000608918
0.00120642
0.00113024
0.000825203
0.000786478
0.000505177
0.00081574
0.000821948
0.000715192
0.00130432
0.00134451
0.00115509
0.00127062
0.000997265
0.000564366
0.00125669
0.000550615
0.000710598
0.000586051
0.00119953
0.00117189
0.00117779
0.000786479
0.000477859
0.000526969
0.000863107
0.00105515
0.000477697
0.000656882
0.00101732
0.000770414
0.0012421
0.000614861
0.00101351
0.000919832
0.00088915
0.000568314
0.000725908
0.000809723
0.00115753
0.000678198
0.00104796
0.00121387
0.0012332
0.000806992
0.000676626
0.000672791
0.001058
0.000888014
0.000672574
0.000444816
0.000656832
0.000653492
0.00113297
0.00068574
0.000693302
0.000750868
0.000668249
0.000999299
0.000699921
0.000619501
0.000779808
0.000739439
0.000887139
0.000988432
0.000950926
0.000808314
0.000948641
0.000728783
0.00109918
0.00117972
0.000656993
0.00115576
0.00065652
0.00114141
0.00104939
0.000979905
0.000996997
0.00116589
0.000552055
0.000723533
0.000672606
0.00117568
0.0011574
0.00107307
0.00116901
0.00119003
0.000999585
0.00122559
0.000821927
0.000741486
0.00133834
0.000780582
0.00121559
0.00096825
0.000617324
0.000743662
0.00121273
0.0010096
0.000918975
0.00118378
0.00116149
0.000750787
0.000745106
0.00072312
0.00103044
0.00113677
0.00130644
0.00125511
0.00136558
0.00123742
0.00135227
0.00113457
0.00118595
0.00119518
0.00112669
0.00118364
0.0010898
0.00107358
0.000760789
0.00102237
0.00119609
0.000830603
0.00121918
0.00112001
0.0012968
0.000779567
0.00123325
0.00117901
0.000765686
0.00105671
0.000760506
0.00118726
0.00108352
0.000797197
0.000750244
0.000648473
0.000745958
0.00118888
0.000544532
0.000916016
0.000747448
0.000838928
0.0012344
0.00119501
0.000375134
0.00119934
0.000652204
0.000707536
0.00122768
0.000997997
0.000715851
0.0013699
0.000778824
0.000375134
0.000723515
0.00106573
0.00133047
0.00100846
0.00118696
0.00111138
0.000583641
0.000571645
0.00048812
0.000560347
0.000795403
0.00060784
0.000979443
0.000612538
0.00105523
0.000753413
0.000724607
0.000848415
0.000788268
0.00104777
0.000755884
0.000777673
0.000343943
0.0007846
0.00113477
0.00113558
0.00102813
0.000754443
0.000491984
0.0014275
0.00095864
0.000800385
0.000737816
0.00073565
0.00076097
0.000928334
0.000747379
0.000534666
0.000737606
0.000505529
0.000914627
0.000752455
0.000320573
0.000708749
0.000838788
0.000752458
0.00115897
0.000781461
0.00100828
0.000386082
0.000809275
0.000772631
0.000675634
0.000725318
0.000856259
0.000806382
0.000843108
0.000716488
0.000727796
0.000786024
0.00105161
0.000741134
0.00105063
0.00094831
0.000749027
0.000768883
0.000776329
0.00085886
0.000775073
0.000725617
0.000824695
0.0008656
0.00102147
0.000776177
0.000770989
0.00111703
0.00110139
0.000741686
0.000749187
0.000333543
0.000904374
0.000626729
0.000848765
0.000373999
0.000388232
0.000346953
0.000352631
0.000374104
0.000394091
0.000406131
0.000952803
0.000705435
0.000711128
0.000812807
0.000791661
0.000781779
0.000827377
0.000765052
0.000782471
0.000796601
0.000778878
0.000957243
0.000707838
0.000983925
0.000765153
0.000738517
0.000779855
0.000833021
0.000869789
0.000810195
0.000928032
0.000866862
0.000803697
0.000579346
0.000808486
0.000790717
0.000851873
0.000815355
0.000772515
0.000734726
0.000809414
0.00084444
0.00114656
0.000756894
0.00111474
0.00116172
0.000795399
0.00111322
0.000853834
0.000683752
0.000932073
0.000816527
0.000588679
0.000515728
0.000920311
0.000980264
0.000829399
0.000689405
0.000829757
0.000392362
0.000820019
0.000769316
0.0003922
0.000150771
0.000164931
0.000710337
0.000757196
0.000879627
0.000845414
7.7545e-05
8.10266e-05
0.000837623
0.000846371
0.000801166
0.000294514
0.000708486
0.000824296
0.000839975
0.000724549
0.000639525
0.000306682
0.00121387
0.000761931
0.000931307
0.000945866
0.000679595
0.000860137
0.00066446
0.00073322
0.000363706
0.000549195
0.000861157
0.000866643
0.000744735
0.00078212
0.000807157
0.000851097
0.000814046
0.000400717
0.000714829
0.000805154
0.000761521
0.00114285
0.000400631
0.00061831
0.000636862
0.000604078
0.000392959
0.000392985
0.000691963
0.000558106
0.000798508
0.000428822
0.000469249
0.000153278
0.000153277
0.000319604
0.000509323
0.000343172
0.000680342
0.000736352
0.000785364
0.000885029
0.000802906
0.000743412
0.000585107
0.000361117
0.000734572
0.000761225
0.000737078
0.000405929
0.000376389
0.000292313
0.00073603
0.000750787
0.000602848
0.000681326
0.000628742
0.00057611
0.000770645
0.00057606
0.000680069
0.000655962
0.0004024
0.000496818
0.000460615
0.000814969
0.000321399
0.000338603
0.000331206
0.000769751
0.000306054
0.000299678
0.000535244
0.000279529
0.000623611
0.000624554
0.000286954
0.000678387
0.000318717
0.000316625
0.000356913
0.000302082
0.00029676
0.000444243
0.00035279
0.000320405
0.000303026
0.000621287
0.000709396
0.000333722
0.000685749
0.000274776
0.000695706
0.000552552
0.000287095
0.000243213
0.000271195
0.000359873
0.000597311
0.000492254
0.000206081
0.000228743
0.000666083
0.000193987
0.000193986
0.000219807
0.000246675
0.000277879
0.000324354
0.000536113
0.000496374
0.000666524
0.000194868
0.000194867
0.000586268
0.000240232
0.000474715
0.000217697
0.000219144
0.000288744
0.000502802
0.000520641
0.000554652
0.000508324
0.000502789
0.000109882
0.000811603
0.000140148
0.000135811
0.000655647
0.000651101
0.000140741
9.7749e-05
0.000137714
0.000604756
SCALARS rr_P' float
LOOKUP_TABLE default
4.90611e-05
0.000106616
8.54994e-05
0.000111384
5.74913e-05
9.07541e-05
4.85175e-05
0.000110823
9.59402e-05
0.000119834
4.44021e-05
0.000111163
9.79216e-05
0.000103126
0.000119968
0.00010182
8.70836e-05
9.88541e-05
8.92945e-05
8.68664e-05
9.77756e-05
1.67722e-05
0.000100181
9.22683e-05
8.36487e-05
9.60844e-05
4.08614e-05
8.46103e-05
6.77292e-05
7.64372e-05
8.65197e-05
7.00081e-05
4.52941e-05
5.74374e-05
5.63652e-05
5.75692e-05
7.42732e-05
5.65135e-05
8.64399e-05
5.0904e-05
5.69356e-05
6.54458e-05
6.54554e-05
9.49529e-05
5.65785e-05
6.17108e-05
8.39457e-05
8.48418e-05
7.92439e-05
7.75667e-05
7.95115e-05
6.12812e-05
9.23419e-05
7.87314e-05
8.50467e-05
4.09793e-05
6.01754e-05
7.93088e-05
6.01759e-05
9.46759e-05
0.000111187
0.000108532
4.00626e-05
7.65404e-05
0.000103947
9.84828e-05
0.000107535
9.33197e-05
8.63275e-05
0.000122348
0.000100197
9.91072e-05
7.0348e-05
7.95974e-05
8.49589e-05
4.68495e-05
8.63849e-05
9.75728e-05
9.41097e-05
6.75544e-05
6.15656e-05
6.4791e-05
0.000123854
6.17356e-05
8.26857e-05
3.107e-05
9.77375e-05
8.11435e-05
5.99135e-05
8.27402e-06
6.82275e-05
8.99958e-06
7.32831e-05
7.07347e-05
6.45417e-05
5.92876e-05
5.65387e-05
0.000105214
8.64544e-05
8.41676e-05
7.22488e-05
6.98527e-05
5.92425e-05
9.9779e-05
0.000101346
9.12518e-05
7.98442e-05
8.16229e-05
6.28918e-05
0.000121452
7.84941e-05
4.26106e-05
5.68243e-05
0.000109231
0.000102224
7.60192e-05
6.97837e-05
4.69905e-05
7.23908e-05
7.57063e-05
6.5414e-05
0.000117006
0.000121515
0.000104058
0.000114717
8.93718e-05
5.01652e-05
0.000113601
5.12068e-05
6.54489e-05
5.23409e-05
0.000108445
0.000105493
0.00010646
7.26462e-05
4.23984e-05
4.91438e-05
7.81667e-05
9.49593e-05
4.23859e-05
6.0642e-05
9.19377e-05
7.04089e-05
0.000112268
5.72052e-05
9.16882e-05
8.31924e-05
8.06999e-05
5.15883e-05
6.66118e-05
7.37573e-05
0.000104617
6.28219e-05
9.49312e-05
0.000109719
0.000111484
7.28384e-05
6.24325e-05
6.20694e-05
9.58536e-05
8.08688e-05
6.22779e-05
4.162e-05
6.09229e-05
6.03026e-05
0.000102443
6.32757e-05
6.39782e-05
6.95506e-05
6.16577e-05
8.94684e-05
6.44893e-05
5.74637e-05
7.03519e-05
6.81224e-05
7.98045e-05
8.84988e-05
8.60657e-05
7.21637e-05
8.5775e-05
6.75008e-05
9.93672e-05
0.000106653
6.06475e-05
0.000104117
6.09175e-05
0.000102827
9.43718e-05
8.77149e-05
9.01221e-05
0.000105023
5.13134e-05
6.66596e-05
6.22983e-05
0.000106275
0.00010483
9.71673e-05
0.000105237
0.000107561
9.01441e-05
0.000110763
7.50433e-05
6.82279e-05
0.000120487
7.22932e-05
0.000109401
8.73088e-05
5.70433e-05
6.67451e-05
0.000109595
9.05717e-05
8.29841e-05
0.00010707
0.000104526
6.88836e-05
6.7256e-05
6.65038e-05
9.267e-05
0.000102642
0.000117964
0.000113392
0.000123343
0.000111763
0.000122141
0.000102517
0.000106363
0.000107206
0.000101049
0.000106151
9.73498e-05
9.5899e-05
6.98259e-05
9.23664e-05
0.00010825
7.56624e-05
0.000109308
0.000100397
0.000117349
7.17232e-05
0.000111632
0.000106575
7.02338e-05
9.48365e-05
6.97749e-05
0.00010683
9.80985e-05
7.31173e-05
6.89831e-05
6.03214e-05
6.93692e-05
0.000106989
5.07e-05
8.30305e-05
6.87436e-05
7.66223e-05
0.000111743
0.00010791
3.32078e-05
0.000108316
6.07445e-05
6.50727e-05
0.000111112
9.03233e-05
6.58766e-05
0.000123708
7.11599e-05
3.3209e-05
6.65348e-05
9.62176e-05
0.000119892
9.13155e-05
0.000106432
0.000100143
5.21184e-05
5.17907e-05
4.562e-05
5.24663e-05
7.11263e-05
5.5272e-05
8.86438e-05
5.61969e-05
9.46974e-05
6.79725e-05
6.66395e-05
7.65345e-05
7.22094e-05
9.47426e-05
6.92391e-05
7.15411e-05
3.03302e-05
7.02134e-05
0.000101726
0.000101807
9.28982e-05
6.9082e-05
4.37504e-05
0.000128658
8.72884e-05
7.32763e-05
6.76548e-05
6.57845e-05
6.98041e-05
8.31237e-05
6.84945e-05
5.00847e-05
6.75481e-05
4.70457e-05
8.22461e-05
6.90216e-05
2.82712e-05
6.49536e-05
7.55149e-05
6.90618e-05
0.000104387
7.16276e-05
9.14683e-05
3.62256e-05
7.34905e-05
7.0881e-05
6.04325e-05
6.65591e-05
7.79659e-05
7.26255e-05
7.6184e-05
6.56687e-05
6.66456e-05
7.18274e-05
9.45705e-05
6.78728e-05
9.50866e-05
8.60261e-05
6.68918e-05
7.04076e-05
7.09582e-05
7.81429e-05
7.08044e-05
6.64816e-05
7.53291e-05
7.77266e-05
9.24589e-05
7.09286e-05
7.07384e-05
0.000100964
9.95423e-05
6.79369e-05
6.69092e-05
3.16517e-05
8.20552e-05
5.82949e-05
7.72084e-05
3.64317e-05
3.78159e-05
3.37857e-05
3.43427e-05
3.6429e-05
3.83911e-05
3.95558e-05
8.56653e-05
6.28159e-05
6.44212e-05
7.4027e-05
7.23067e-05
7.14189e-05
7.48116e-05
6.99148e-05
7.15242e-05
7.09261e-05
7.11553e-05
8.58848e-05
6.52252e-05
8.83136e-05
6.94682e-05
6.72652e-05
7.12569e-05
7.4482e-05
7.89154e-05
7.37676e-05
8.41961e-05
7.89237e-05
7.3454e-05
5.33389e-05
7.36409e-05
7.1774e-05
7.64185e-05
7.44355e-05
7.06367e-05
6.70867e-05
7.3747e-05
7.66616e-05
0.000103666
6.91151e-05
0.000100796
0.000105514
7.24601e-05
0.000100741
7.75392e-05
6.24739e-05
8.39534e-05
7.43083e-05
5.24396e-05
4.83084e-05
8.27428e-05
8.80238e-05
7.52927e-05
6.27289e-05
7.48253e-05
3.72099e-05
7.4445e-05
7.00171e-05
3.67895e-05
1.32996e-05
1.45466e-05
6.44532e-05
6.91614e-05
8.00078e-05
7.71762e-05
6.78757e-06
7.09231e-06
7.58005e-05
7.65857e-05
7.25138e-05
2.79327e-05
6.4764e-05
7.41935e-05
7.65163e-05
6.60303e-05
5.82622e-05
2.91119e-05
0.000109364
6.9612e-05
8.45119e-05
8.58324e-05
6.19385e-05
7.83195e-05
6.05599e-05
6.67986e-05
3.42188e-05
5.11038e-05
7.84161e-05
7.8638e-05
6.77708e-05
7.12965e-05
7.34753e-05
7.74285e-05
7.40789e-05
3.7534e-05
6.40815e-05
7.35247e-05
6.86804e-05
0.000102937
3.75378e-05
5.61199e-05
5.78292e-05
5.39472e-05
3.46769e-05
3.46801e-05
6.19281e-05
5.10218e-05
7.24717e-05
4.01995e-05
4.14509e-05
1.34318e-05
1.3432e-05
3.03552e-05
4.52243e-05
3.0409e-05
6.17764e-05
6.59468e-05
7.1147e-05
7.99732e-05
7.23095e-05
6.68663e-05
5.2955e-05
3.42515e-05
6.66179e-05
6.8681e-05
6.63489e-05
3.8303e-05
3.34053e-05
2.74425e-05
6.62673e-05
6.78295e-05
5.52693e-05
6.17373e-05
5.69151e-05
5.14328e-05
6.97137e-05
5.14301e-05
6.17067e-05
5.90424e-05
3.5687e-05
4.40454e-05
4.31724e-05
7.35957e-05
3.05644e-05
3.21698e-05
3.15326e-05
6.93502e-05
2.90438e-05
2.85603e-05
4.87893e-05
2.65985e-05
5.55463e-05
5.56321e-05
2.72832e-05
6.17197e-05
2.99807e-05
3.01177e-05
3.36064e-05
2.87399e-05
2.79427e-05
3.94346e-05
3.3127e-05
3.03998e-05
2.8815e-05
5.62506e-05
6.3739e-05
3.14476e-05
6.20811e-05
2.61792e-05
6.28825e-05
5.02548e-05
2.73236e-05
2.29359e-05
2.58297e-05
3.41801e-05
5.42495e-05
4.3813e-05
1.80764e-05
2.00774e-05
6.01556e-05
1.7018e-05
1.70182e-05
1.92884e-05
2.1732e-05
2.60681e-05
2.87734e-05
4.79621e-05
4.41791e-05
6.02324e-05
1.71497e-05
1.71499e-05
5.213e-05
2.2829e-05
4.31952e-05
2.06727e-05
2.05893e-05
2.71209e-05
4.44411e-05
4.6024e-05
4.90465e-05
4.49448e-05
4.44413e-05
9.64694e-06
7.17594e-05
1.23341e-05
1.19112e-05
5.7945e-05
5.75396e-05
1.23409e-05
8.58019e-06
1.21174e-05
5.34935e-05
SCALARS rr_T' float
LOOKUP_TABLE default
0.000205358
0.000467869
0.000373655
0.000488382
0.000255357
0.000396581
0.000203052
0.000485673
0.000417611
0.000525787
0.000186374
0.000487161
0.000428714
0.000452775
0.000530454
0.000445302
0.000382975
0.000432968
0.000387842
0.000379171
0.000426527
7.57247e-05
0.000437019
0.000402776
0.000365101
0.000421171
0.000172657
0.000369954
0.000290367
0.000341753
0.000378743
0.000300167
0.000191263
0.000256077
0.000251681
0.000256654
0.000332252
0.000252195
0.000378358
0.000214981
0.000244063
0.00029282
0.000292851
0.000415668
0.000239976
0.000264749
0.000364983
0.000369599
0.000346348
0.000331561
0.000340456
0.000264005
0.000409853
0.000339235
0.000377334
0.000174079
0.000268724
0.000341722
0.000268715
0.000413353
0.000488881
0.000479128
0.000169804
0.000337823
0.000458917
0.000433114
0.000472895
0.000409069
0.000376704
0.000536969
0.000444673
0.000439828
0.000301556
0.000350582
0.000371359
0.000197431
0.000382338
0.000429097
0.000412512
0.000291338
0.000262923
0.000288219
0.000545673
0.00026329
0.000354996
0.000131858
0.000427353
0.000357126
0.000254136
3.72644e-05
0.000293953
4.05289e-05
0.000324425
0.000310909
0.000278197
0.000253744
0.000241477
0.000461611
0.000382621
0.000368344
0.000312957
0.000300243
0.000252629
0.000437212
0.000444449
0.000400233
0.000351977
0.000357069
0.000268173
0.000533312
0.00034272
0.000181011
0.000241912
0.000478499
0.000448259
0.000327601
0.000311614
0.00020066
0.000323211
0.000326306
0.000283818
0.000517085
0.000533223
0.000458019
0.000503898
0.000395334
0.000223631
0.000498397
0.000218706
0.000282101
0.000232281
0.000475732
0.000464666
0.000467105
0.000312273
0.000189335
0.000209346
0.000342334
0.000418372
0.000189271
0.000260809
0.000403455
0.000305718
0.000492608
0.00024423
0.000401968
0.000364809
0.000352705
0.000225439
0.000288121
0.00032126
0.000459069
0.000269325
0.000415659
0.000481411
0.000489086
0.000320022
0.00026864
0.000267115
0.000419647
0.000352317
0.000267086
0.000176743
0.000260859
0.000259457
0.000449335
0.000272259
0.000275262
0.000298182
0.000265314
0.00039612
0.000277868
0.000246034
0.000309234
0.000293554
0.000351746
0.000391812
0.000377155
0.000320365
0.00037623
0.00028941
0.000435931
0.000467873
0.000260852
0.000458281
0.00026074
0.000452596
0.000416068
0.000388427
0.000395403
0.0004623
0.000219271
0.000287241
0.000267102
0.000466269
0.000459065
0.000425611
0.000463523
0.00047196
0.000396379
0.000486059
0.000326143
0.000294348
0.000530667
0.000309979
0.000481987
0.000383951
0.000245116
0.000294822
0.000480961
0.000400243
0.000364438
0.000469495
0.000460536
0.000297994
0.00029548
0.000287049
0.000408557
0.000450818
0.000518103
0.000497764
0.000541567
0.000490739
0.000536286
0.000449956
0.000470151
0.000473814
0.00044666
0.000469236
0.000431944
0.000425514
0.000301969
0.000405454
0.000474399
0.000329543
0.00048332
0.000444001
0.000514342
0.000309464
0.000489141
0.000467588
0.000303902
0.000418927
0.00030185
0.00047075
0.000429761
0.000316408
0.000297813
0.000257579
0.000296299
0.000471395
0.000216303
0.000363337
0.000296707
0.000332896
0.000489601
0.000473913
0.000148618
0.000475636
0.000259077
0.000280864
0.00048693
0.000395823
0.000284174
0.000543272
0.000309051
0.000148618
0.000287205
0.000422641
0.000527571
0.000399984
0.000470549
0.000440692
0.000231322
0.000226737
0.000193937
0.000222657
0.000315275
0.000241139
0.000388464
0.00024312
0.00041834
0.000298767
0.00028764
0.000336439
0.000312842
0.000415546
0.000299988
0.00030871
0.000136235
0.000311006
0.000449854
0.000450174
0.000407741
0.00029941
0.000194955
0.000566052
0.000380335
0.00031764
0.000292834
0.000291591
0.000302031
0.000367991
0.000296621
0.00021246
0.000292731
0.000200805
0.000362637
0.000298652
0.000126979
0.000281289
0.000332589
0.000298662
0.000459554
0.00031015
0.000399953
0.000153428
0.000321031
0.000306661
0.000267807
0.000287887
0.000339716
0.000319744
0.000334367
0.000284362
0.000288836
0.000311911
0.00041695
0.000294131
0.0004167
0.000376162
0.000296872
0.000305142
0.000308067
0.000340734
0.000307559
0.00028798
0.000327248
0.000343173
0.000405136
0.000308003
0.000306012
0.000443003
0.000436798
0.000294354
0.000296936
0.000132638
0.000358738
0.000248941
0.000336725
0.000148959
0.000154627
0.000138185
0.000140447
0.000148998
0.000156961
0.000161755
0.00037777
0.000279557
0.000282061
0.000322481
0.00031414
0.00031022
0.000328136
0.00030359
0.000310506
0.000315683
0.00030907
0.000379488
0.000281013
0.000390079
0.000303524
0.000293007
0.00030946
0.000330183
0.000345018
0.000321439
0.00036812
0.000343921
0.000318926
0.000229991
0.000320769
0.00031366
0.000337712
0.000323534
0.000306561
0.000291542
0.000321142
0.000334974
0.000454724
0.00030034
0.000442102
0.000460846
0.000315579
0.000441522
0.000338707
0.000271326
0.000369586
0.000323943
0.000233291
0.000204933
0.000364886
0.000388632
0.000329007
0.000273506
0.000329034
0.000156023
0.000325288
0.000305214
0.000155857
5.97206e-05
6.53291e-05
0.000281771
0.000300464
0.000348966
0.00033546
3.07039e-05
3.20824e-05
0.000332216
0.000335682
0.000317758
0.000117113
0.000281148
0.000326838
0.000333262
0.000287473
0.000253735
0.000121959
0.00048133
0.000302347
0.000369424
0.000375199
0.000269639
0.000341254
0.000263634
0.000290909
0.00014456
0.000218149
0.00034166
0.000343772
0.00029546
0.00031032
0.00032023
0.000337652
0.000322958
0.000159231
0.000283375
0.000319491
0.000301978
0.000453163
0.0001592
0.00024527
0.000252635
0.000239423
0.000155656
0.000155667
0.000274288
0.000221473
0.000316749
0.000170407
0.000185885
6.06936e-05
6.06933e-05
0.000127102
0.000201809
0.000135963
0.000269882
0.000291891
0.000311505
0.000350992
0.000318367
0.000294755
0.000232064
0.0001436
0.000291375
0.000301866
0.000292257
0.000161369
0.000149134
0.000116168
0.000291845
0.000297748
0.000239265
0.000270243
0.000249373
0.000228336
0.000305644
0.000228316
0.000269763
0.000260092
0.000159435
0.000196841
0.000183039
0.000323196
0.000127821
0.000134655
0.000131731
0.000305224
0.000121706
0.000119199
0.000212367
0.000111174
0.000247131
0.000247505
0.000114121
0.000269135
0.000126676
0.000125924
0.000141866
0.000120142
0.000117957
0.00017602
0.000140206
0.000127412
0.000120514
0.000246418
0.000281253
0.000132654
0.000271984
0.000109292
0.000275911
0.000219209
0.000114183
9.66812e-05
0.000107864
0.000143117
0.000236948
0.000195069
8.16067e-05
9.05836e-05
0.000264151
7.68183e-05
7.68175e-05
8.70437e-05
9.77031e-05
0.000110429
0.000128514
0.000212506
0.000196702
0.000264335
7.71792e-05
7.71787e-05
0.000232313
9.554e-05
0.000188334
8.65734e-05
8.70933e-05
0.000114753
0.000199183
0.000206251
0.000219728
0.000201373
0.000199178
4.35146e-05
0.000321517
5.5507e-05
5.37799e-05
0.000259731
0.000257929
5.57314e-05
3.87092e-05
5.45424e-05
0.000239581
SCALARS rr_uec(SIM,_S_ext) float
LOOKUP_TABLE default
0.0141635
0.0322634
0.0257668
0.0336781
0.0176078
0.0273478
0.0140045
0.0334911
0.0287983
0.0362571
0.0128544
0.0335937
0.0295634
0.0312223
0.0365778
0.0307074
0.0264089
0.0298568
0.0267459
0.0261474
0.0294129
0.00522113
0.0301366
0.0277751
0.0251771
0.0290432
0.0119078
0.0255115
0.0200249
0.0235646
0.0261175
0.0207007
0.013191
0.0176572
0.017354
0.017697
0.0229094
0.0173894
0.0260909
0.0148268
0.0168316
0.0201906
0.0201927
0.0286637
0.0165506
0.0182581
0.0251693
0.0254873
0.0238837
0.0228661
0.0234794
0.0182065
0.0282611
0.0233945
0.0260188
0.0120056
0.0185291
0.023566
0.0185285
0.0285045
0.033712
0.0330387
0.0117108
0.0232948
0.0316451
0.0298663
0.0326096
0.0282086
0.0259772
0.0370284
0.0306621
0.030328
0.0207965
0.0241749
0.0256084
0.0136166
0.0263641
0.0295892
0.0284461
0.0200914
0.0181325
0.0198737
0.0376278
0.0181579
0.0244817
0.00909388
0.0294697
0.0246262
0.0175271
0.00256936
0.0202717
0.00279445
0.0223707
0.0214394
0.0191851
0.0174994
0.0166534
0.0318317
0.0263836
0.0254004
0.0215818
0.0207056
0.0174227
0.0301495
0.0306483
0.0275993
0.0242711
0.0246229
0.0184947
0.0367763
0.0236337
0.0124838
0.0166838
0.0329966
0.0309111
0.0225921
0.0214864
0.0138384
0.022286
0.0225028
0.0195723
0.035656
0.0367701
0.0315836
0.0347478
0.0272605
0.0154199
0.0343685
0.015083
0.0194544
0.0160168
0.0328057
0.0320419
0.0322107
0.0215353
0.0130551
0.0144376
0.0236067
0.0288496
0.0130507
0.0179861
0.0278212
0.0210825
0.0339692
0.0168432
0.027719
0.0251564
0.0243221
0.015546
0.0198693
0.022154
0.0316566
0.0185738
0.0286631
0.0331971
0.0337266
0.0220679
0.0185261
0.0184209
0.0289382
0.0242956
0.0184194
0.0121895
0.0179901
0.0178929
0.0309853
0.0187757
0.0189828
0.0205639
0.0182968
0.0273144
0.0191625
0.0169676
0.0213239
0.0202442
0.0242552
0.0270174
0.0260078
0.0220905
0.025944
0.0199589
0.030061
0.0322636
0.0179891
0.0316015
0.0179819
0.0312096
0.0286905
0.0267839
0.0272662
0.0318786
0.0151219
0.0198088
0.0184205
0.0321531
0.0316565
0.0293495
0.0319631
0.0325455
0.0273331
0.0335178
0.0224909
0.020299
0.0365932
0.0213773
0.0332363
0.0264761
0.016904
0.0203296
0.0331662
0.0275989
0.0251307
0.0323755
0.0317571
0.0205501
0.0203755
0.0197956
0.0281726
0.0310875
0.0357274
0.034325
0.0373455
0.0338405
0.0369813
0.0310279
0.0324196
0.0326722
0.0307998
0.0323565
0.0297844
0.029341
0.0208243
0.0279592
0.0327141
0.0227252
0.0333276
0.0306163
0.0354684
0.0213414
0.0337307
0.032244
0.0209575
0.0288874
0.020816
0.0324613
0.0296359
0.0218199
0.0205378
0.0177639
0.0204343
0.0325059
0.0149173
0.0250552
0.0204616
0.0229567
0.0337624
0.0326802
0.0102475
0.032799
0.0178672
0.019369
0.0335782
0.0272952
0.0195973
0.0374631
0.0213123
0.0102475
0.0198063
0.0291445
0.0363797
0.0275823
0.032447
0.0303886
0.0159506
0.0156354
0.0133752
0.015356
0.0217396
0.0166288
0.0267877
0.0167659
0.0288469
0.0206022
0.0198363
0.0231998
0.0215739
0.0286551
0.0206875
0.0212894
0.00939348
0.0214454
0.03102
0.0310421
0.0281169
0.0206476
0.0134427
0.0390332
0.0262277
0.0219047
0.0201942
0.0201065
0.0208285
0.0253747
0.0204552
0.0146528
0.020187
0.0138485
0.0250061
0.0205955
0.00875527
0.019398
0.0229342
0.0205962
0.0316894
0.0213883
0.0275802
0.0105814
0.022138
0.0211478
0.0184666
0.0198532
0.0234267
0.0220484
0.0230573
0.0196099
0.0199184
0.0215095
0.0287513
0.0202835
0.0287348
0.0259397
0.0204706
0.0210428
0.0212445
0.0234967
0.0212094
0.0198594
0.0225671
0.0236637
0.0279374
0.02124
0.0211031
0.0305484
0.0301205
0.0202989
0.020475
0.00914827
0.024738
0.0171682
0.0232203
0.0102754
0.0106664
0.00953214
0.00968822
0.0102781
0.0108273
0.011158
0.0260496
0.0192764
0.0194505
0.0222382
0.0216632
0.0213929
0.0226275
0.0209357
0.0214126
0.0217673
0.0213136
0.0261678
0.0193794
0.0268983
0.0209307
0.0202056
0.0213405
0.0227676
0.0237919
0.0221663
0.025385
0.0237166
0.0219934
0.0158608
0.0221201
0.0216296
0.0232871
0.022311
0.0211407
0.0201048
0.0221459
0.0230994
0.0313567
0.0207116
0.0304863
0.0317795
0.0217622
0.0304465
0.0233569
0.0187107
0.0254855
0.0223389
0.0160862
0.0141337
0.0251612
0.0267984
0.0226879
0.0188608
0.0226893
0.0107611
0.0224315
0.0210473
0.0107489
0.00411776
0.00450446
0.0194305
0.0207201
0.0240644
0.0231334
0.00211697
0.00221202
0.022909
0.0231479
0.0219119
0.00807742
0.0193882
0.0225377
0.0229816
0.019824
0.0174975
0.00841173
0.033191
0.02085
0.0254749
0.0258732
0.0185942
0.0235327
0.0181801
0.0200609
0.00996999
0.0150446
0.0235607
0.023706
0.0203747
0.0213996
0.0220828
0.0232842
0.0222709
0.0109817
0.0195402
0.0220322
0.0208235
0.0312486
0.0109796
0.0169135
0.0174215
0.0165092
0.0107327
0.0107334
0.0189135
0.015273
0.0218426
0.0117526
0.012817
0.00418473
0.00418471
0.00876644
0.0139152
0.00937491
0.0186107
0.0201274
0.0214809
0.0242037
0.0219536
0.0203252
0.0160026
0.00990425
0.0200928
0.0208158
0.0201531
0.0111295
0.0102832
0.00801168
0.0201247
0.020532
0.0165
0.0186355
0.0171962
0.0157448
0.0210766
0.0157434
0.0186025
0.017935
0.0109934
0.0135726
0.0126237
0.0222869
0.00881583
0.00928711
0.00908554
0.0210473
0.00839423
0.00822125
0.0146447
0.0076677
0.0170405
0.0170663
0.00787091
0.0185594
0.00873657
0.00868496
0.00978425
0.00828614
0.00813525
0.012137
0.00966976
0.00878774
0.00831187
0.0169925
0.0193941
0.00914895
0.0187554
0.00753799
0.0190262
0.0151165
0.00787522
0.00666798
0.00743945
0.00987103
0.0163397
0.0134506
0.0056267
0.00624567
0.0182152
0.00529655
0.0052965
0.00600159
0.00673667
0.00761603
0.00886133
0.0146533
0.0135632
0.0182279
0.0053215
0.00532147
0.0160186
0.00658961
0.0129874
0.00597107
0.00600652
0.00791419
0.013734
0.0142213
0.0151506
0.013885
0.0137336
0.00300029
0.022169
0.0038272
0.00370805
0.0179088
0.0177845
0.0038426
0.00266897
0.00376069
0.0165195
SCALARS rr_uec(PEX,_P_ext) float
LOOKUP_TABLE default
-0.0616864
-0.140583
-0.112271
-0.146746
-0.0767338
-0.119159
-0.0609936
-0.145931
-0.125475
-0.157985
-0.0559853
-0.146378
-0.128816
-0.136048
-0.159396
-0.133799
-0.115076
-0.130094
-0.116529
-0.113928
-0.128155
-0.0227573
-0.131308
-0.12102
-0.1097
-0.12655
-0.0518667
-0.111159
-0.0872353
-0.1027
-0.113801
-0.0901794
-0.0574558
-0.076952
-0.0756316
-0.0771254
-0.0998449
-0.0757857
-0.113685
-0.0645808
-0.0733242
-0.0879956
-0.0880049
-0.124896
-0.0720916
-0.0795391
-0.109662
-0.11105
-0.104066
-0.0996095
-0.102283
-0.0793176
-0.123159
-0.10192
-0.113387
-0.0522957
-0.0807532
-0.102667
-0.0807505
-0.124198
-0.146898
-0.143971
-0.0510106
-0.101511
-0.137898
-0.130141
-0.142095
-0.122914
-0.113186
-0.161346
-0.133622
-0.132166
-0.0905966
-0.105343
-0.111581
-0.0593081
-0.114889
-0.128934
-0.123949
-0.0875301
-0.0789883
-0.0866096
-0.163965
-0.0790979
-0.106652
-0.0396119
-0.128406
-0.107309
-0.0763453
-0.0111987
-0.0883151
-0.0121798
-0.0974866
-0.0934211
-0.0835815
-0.0762319
-0.0725453
-0.138702
-0.114974
-0.110676
-0.0940278
-0.0902035
-0.0758951
-0.13137
-0.133545
-0.120259
-0.105763
-0.107288
-0.0805646
-0.160248
-0.102975
-0.0543783
-0.0726748
-0.143775
-0.13469
-0.0984244
-0.0936418
-0.0602827
-0.0971266
-0.0980354
-0.085274
-0.155378
-0.16022
-0.137626
-0.15141
-0.118794
-0.0672017
-0.149756
-0.0657043
-0.0847546
-0.0697994
-0.142946
-0.139624
-0.140353
-0.0938178
-0.0568964
-0.0628912
-0.102861
-0.125713
-0.0568772
-0.0783564
-0.121228
-0.0918543
-0.148016
-0.0733721
-0.120781
-0.109615
-0.105976
-0.0677368
-0.0865652
-0.096526
-0.137939
-0.0809135
-0.124893
-0.144652
-0.146958
-0.0961592
-0.0807092
-0.0802513
-0.126091
-0.105857
-0.0802411
-0.0530961
-0.0783697
-0.0779504
-0.135013
-0.0817967
-0.0826989
-0.0895831
-0.0797102
-0.11903
-0.0834826
-0.0739156
-0.0929179
-0.0881954
-0.105694
-0.117736
-0.113324
-0.0962683
-0.113047
-0.0869477
-0.130986
-0.140584
-0.0783695
-0.137704
-0.0783337
-0.135996
-0.125021
-0.116719
-0.118808
-0.138912
-0.0658744
-0.0862987
-0.0802458
-0.140102
-0.137936
-0.127884
-0.13928
-0.141812
-0.119103
-0.146049
-0.0979916
-0.0884348
-0.159456
-0.0931272
-0.144829
-0.115369
-0.0736413
-0.08859
-0.144517
-0.120268
-0.109505
-0.141071
-0.138383
-0.0895315
-0.0887848
-0.0862421
-0.122764
-0.13546
-0.155678
-0.149566
-0.162728
-0.147455
-0.161141
-0.1352
-0.141275
-0.142375
-0.134216
-0.141
-0.129797
-0.127865
-0.0907257
-0.121829
-0.142544
-0.0990146
-0.145232
-0.133417
-0.154546
-0.0929763
-0.146974
-0.140498
-0.0913067
-0.125882
-0.0906901
-0.141452
-0.129131
-0.0950641
-0.0894761
-0.0773827
-0.0890153
-0.141646
-0.064982
-0.109172
-0.0891437
-0.10002
-0.147112
-0.1424
-0.0446613
-0.142918
-0.077832
-0.0843838
-0.14631
-0.118934
-0.085378
-0.163241
-0.0928559
-0.0446614
-0.0862889
-0.126994
-0.158524
-0.120184
-0.141395
-0.132419
-0.0695112
-0.0681277
-0.0582617
-0.0668888
-0.0947377
-0.0724536
-0.116722
-0.0730447
-0.125706
-0.0897728
-0.0864196
-0.101092
-0.0939934
-0.12486
-0.0901315
-0.0927498
-0.040941
-0.0934546
-0.135176
-0.135272
-0.122516
-0.089958
-0.0585845
-0.170087
-0.114276
-0.0954353
-0.0879815
-0.0876208
-0.0907446
-0.110578
-0.0891194
-0.0638253
-0.0879512
-0.0603262
-0.108966
-0.0897293
-0.0381593
-0.0845131
-0.0999366
-0.0897321
-0.138087
-0.0931842
-0.120173
-0.0460908
-0.0964589
-0.0921355
-0.0804739
-0.086495
-0.102072
-0.0960767
-0.100469
-0.0854364
-0.086781
-0.093715
-0.125286
-0.0883719
-0.125207
-0.113025
-0.0892086
-0.09168
-0.0925601
-0.102378
-0.0924077
-0.0865234
-0.0983234
-0.103118
-0.121732
-0.0925408
-0.0919406
-0.133111
-0.131247
-0.0884386
-0.0892278
-0.0398432
-0.107789
-0.0747876
-0.101173
-0.0447393
-0.0464417
-0.0415033
-0.0421828
-0.0447512
-0.0471426
-0.0485823
-0.113514
-0.0840068
-0.0847511
-0.0968929
-0.0943851
-0.0932073
-0.0985962
-0.0912148
-0.0932926
-0.0948628
-0.0928617
-0.114031
-0.0844274
-0.117214
-0.0911989
-0.088037
-0.0929787
-0.0992177
-0.103667
-0.09658
-0.110608
-0.103335
-0.0958229
-0.069099
-0.0963783
-0.0942443
-0.101478
-0.0972078
-0.0921073
-0.0875956
-0.0964902
-0.100648
-0.136633
-0.090239
-0.13284
-0.138468
-0.0948188
-0.132665
-0.10177
-0.0815211
-0.111053
-0.0973324
-0.0701038
-0.0615644
-0.109642
-0.116778
-0.0988554
-0.0821782
-0.0988677
-0.0468677
-0.097738
-0.091705
-0.0468206
-0.017947
-0.0196325
-0.0846628
-0.0902761
-0.104851
-0.100791
-0.00922741
-0.00964171
-0.0998216
-0.100863
-0.0954771
-0.0351797
-0.0844721
-0.0982089
-0.100132
-0.0863739
-0.0762372
-0.0366352
-0.14463
-0.0908418
-0.111
-0.112735
-0.0810154
-0.102534
-0.0792113
-0.0874063
-0.0434261
-0.0655366
-0.102656
-0.103292
-0.0887743
-0.0932383
-0.0962166
-0.101452
-0.0970364
-0.0478349
-0.0851508
-0.095993
-0.0907376
-0.136167
-0.0478255
-0.0736954
-0.0759083
-0.0719454
-0.0467773
-0.0467804
-0.0824213
-0.0665426
-0.0951726
-0.0511921
-0.0558612
-0.0182401
-0.01824
-0.0381799
-0.0606445
-0.040858
-0.0810902
-0.0877105
-0.0935981
-0.105464
-0.0956631
-0.0885687
-0.0697286
-0.0431359
-0.0875488
-0.0907039
-0.0878178
-0.048475
-0.0448158
-0.0348974
-0.0876939
-0.0894658
-0.0718868
-0.0811997
-0.0749293
-0.0686142
-0.0918376
-0.0686082
-0.081055
-0.0781527
-0.0479115
-0.0591522
-0.0549868
-0.0971127
-0.0383953
-0.0404483
-0.0395693
-0.0917137
-0.0365593
-0.0358048
-0.0638075
-0.0333946
-0.0742627
-0.074375
-0.0342799
-0.0808651
-0.0380539
-0.0378253
-0.0426168
-0.0360883
-0.0354343
-0.0528948
-0.0421191
-0.0382732
-0.0362004
-0.0740413
-0.0845123
-0.0398494
-0.0817232
-0.0328291
-0.082904
-0.0658642
-0.0342984
-0.0290429
-0.0324003
-0.0429906
-0.0711947
-0.0586184
-0.024525
-0.0272227
-0.0793711
-0.0230859
-0.0230857
-0.0261589
-0.0293617
-0.0331738
-0.0386193
-0.0638563
-0.0591092
-0.0794259
-0.023194
-0.0231938
-0.0698105
-0.028699
-0.0565872
-0.0260056
-0.0261632
-0.0344725
-0.0598572
-0.0619812
-0.066031
-0.0605154
-0.0598557
-0.0130772
-0.09662
-0.016681
-0.0161623
-0.0780526
-0.0775111
-0.0167488
-0.0116331
-0.0163911
-0.0719969
SCALARS cell_type float
LOOKUP_TABLE default
0
0
0
0
0
0
0
0
0
0
0
0
0
0
0
0
0
0
0
0
0
1
0
0
0
0
0
0
0
0
0
0
0
0
0
0
0
0
0
0
0
0
0
0
0
0
0
0
0
0
0
0
0
0
0
0
0
0
0
0
0
0
0
0
0
0
0
0
0
0
0
0
0
0
0
0
0
0
0
0
0
0
0
0
0
0
0
0
0
0
0
0
0
0
0
0
0
0
0
0
0
0
0
0
0
0
0
0
0
0
0
0
0
0
0
0
0
0
0
0
0
0
0
0
0
0
0
0
0
0
0
0
0
0
0
0
0
0
0
0
0
0
0
0
0
0
0
0
0
0
0
0
0
0
0
0
0
0
0
0
0
0
0
0
0
0
0
0
0
0
0
0
0
0
0
0
0
0
0
0
0
0
0
0
0
0
0
0
0
0
0
0
0
0
0
0
0
0
0
0
0
0
0
0
0
0
0
0
0
0
0
0
0
0
0
0
0
0
0
0
0
0
0
0
0
0
0
0
0
0
0
0
0
0
0
0
0
0
0
0
0
0
0
0
0
0
0
0
0
0
0
0
0
0
0
0
0
0
0
0
0
0
0
0
0
0
0
0
0
0
0
0
0
0
0
0
0
0
0
0
0
0
0
0
0
0
0
0
0
0
0
0
0
0
0
0
0
0
0
0
0
0
0
0
0
0
0
0
0
0
0
0
0
0
0
0
0
0
0
0
0
0
0
0
0
0
0
0
0
0
0
0
0
0
0
0
0
0
0
0
0
0
0
0
0
0
0
0
0
0
2
2
2
2
2
2
2
0
0
0
0
0
0
0
0
0
0
0
0
0
0
0
0
0
0
0
0
0
0
0
0
0
0
0
0
0
0
0
0
0
0
0
0
0
0
0
0
0
0
0
0
0
0
0
0
0
0
0
0
0
0
0
0
0
0
0
1
1
0
0
0
0
0
0
0
0
0
0
0
0
0
0
0
0
0
0
0
0
0
0
0
0
0
0
0
0
0
0
0
0
0
0
0
0
0
0
0
0
0
0
0
1
1
0
0
0
0
0
0
0
0
0
0
0
0
0
0
0
0
0
0
0
0
0
0
0
0
0
0
0
0
0
0
0
0
0
0
0
0
0
0
0
0
0
0
0
0
0
0
0
0
0
0
0
0
0
0
0
0
0
0
0
0
0
0
0
0
0
1
1
0
0
0
0
0
0
0
0
0
0
0
0
0
0
0
0
0
0
0
0
0
0
0
0
0
0
0
0
0
0
0
0
0
TENSORS Lagrange_strain float
0.0305685 -0.00319837 -1.11207e-07
-0.00319837 0.0133892 -1.2352e-07
-1.11207e-07 -1.2352e-07 0.00740194

0.0291932 -0.00280103 8.68385e-08
-0.00280103 0.0335541 3.54489e-08
8.68385e-08 3.54489e-08 0.033164

0.0300217 0.00367913 -1.03274e-07
0.00367913 0.0311701 -1.51482e-07
-1.03274e-07 -1.51482e-07 0.0304683

0.0291626 -0.00392462 8.45978e-08
-0.00392462 0.0327995 3.46926e-08
8.45978e-08 3.46926e-08 0.0330888

0.0353678 0.00266921 7.45478e-08
0.00266921 0.0380855 -3.36295e-07
7.45478e-08 -3.36295e-07 0.0352927

0.0277358 -0.00236731 -1.26413e-07
-0.00236731 0.0333846 3.97698e-08
-1.26413e-07 3.97698e-08 0.0304394

0.0302624 0.00339406 -1.12178e-07
0.00339406 0.0134948 -8.20081e-08
-1.12178e-07 -8.20081e-08 0.00746337

0.0317553 0.00393973 -4.83097e-08
0.00393973 0.0312005 -1.39457e-07
-4.83097e-08 -1.39457e-07 0.0315612

0.0332427 0.000715537 -6.48339e-08
0.000715537 0.0262218 1.39258e-09
-6.48339e-08 1.39258e-09 0.0281426

0.035468 -0.000991251 -4.71239e-08
-0.000991251 0.0275517 -7.24624e-08
-4.71239e-08 -7.24624e-08 0.0327215

0.0280618 0.00205122 2.06115e-07
0.00205122 0.0138091 -2.32729e-07
2.06115e-07 -2.32729e-07 0.0117537

0.0279537 -0.00176586 -7.78126e-08
-0.00176586 0.0350074 1.94413e-07
-7.78126e-08 1.94413e-07 0.0315497

0.0311216 0.00365737 -1.11462e-07
0.00365737 0.0313007 -6.47605e-08
-1.11462e-07 -6.47605e-08 0.03108

0.0290697 -0.00188006 -7.28084e-08
-0.00188006 0.0347992 -5.38853e-09
-7.28084e-08 -5.38853e-09 0.032547

0.0346323 0.00441836 -9.7122e-08
0.00441836 0.0343628 -6.02673e-08
-9.7122e-08 -6.02673e-08 0.0348851

0.034328 7.30978e-05 -7.44668e-08
7.30978e-05 0.0272864 -5.12359e-08
-7.44668e-08 -5.12359e-08 0.0307789

0.0286935 -0.00235361 -8.07019e-08
-0.00235361 0.0360143 -3.2436e-08
-8.07019e-08 -3.2436e-08 0.0334506

0.0345734 -0.000352907 -7.16825e-08
-0.000352907 0.0273569 -4.15884e-08
-7.16825e-08 -4.15884e-08 0.0319776

0.0269205 0.00347827 1.19058e-07
0.00347827 0.0309457 1.41826e-08
1.19058e-07 1.41826e-08 0.0275771

0.0338851 -0.000550291 4.71881e-08
-0.000550291 0.0264098 1.24474e-07
4.71881e-08 1.24474e-07 0.0301347

0.0266224 0.00113537 -1.0876e-07
0.00113537 0.0340341 1.8185e-07
-1.0876e-07 1.8185e-07 0.0291504

0.0452948 0.000852789 1.58005e-07
0.000852789 0.0452644 1.40655e-07
1.58005e-07 1.40655e-07 0.0366386

0.0336759 0.00024762 6.31555e-10
0.00024762 0.0263158 -5.52393e-09
6.31555e-10 -5.52393e-09 0.0298056

0.02931 -0.00363219 7.9329e-08
-0.00363219 0.0311364 -1.61037e-07
7.9329e-08 -1.61037e-07 0.0300472

0.0337802 0.000900074 -1.07215e-07
0.000900074 0.0264968 2.83246e-08
-1.07215e-07 2.83246e-08 0.0300817

0.0285464 0.00250763 1.11551e-07
0.00250763 0.0338942 4.3248e-08
1.11551e-07 4.3248e-08 0.0322875

0.0286301 0.000526713 8.0825e-08
0.000526713 0.0176901 2.77642e-08
8.0825e-08 2.77642e-08 0.0131716

0.0309147 0.00403459 -1.82509e-07
0.00403459 0.030647 9.36708e-08
-1.82509e-07 9.36708e-08 0.0306112

0.025925 0.00477655 -1.58353e-07
0.00477655 0.0257334 -2.11708e-07
-1.58353e-07 -2.11708e-07 0.0211284

0.0415291 0.00136989 -4.11031e-09
0.00136989 0.0383504 -3.16931e-07
-4.11031e-09 -3.16931e-07 0.0361357

0.034411 0.00187106 -1.18652e-07
0.00187106 0.0279529 8.0839e-09
-1.18652e-07 8.0839e-09 0.0310005

0.0217601 -0.0022879 -2.04358e-07
-0.0022879 0.0299928 6.29355e-08
-2.04358e-07 6.29355e-08 0.0211253

0.0228636 -0.00535252 -2.12647e-07
-0.00535252 0.0234734 1.86814e-07
-2.12647e-07 1.86814e-07 0.0125792

0.0348329 0.000800752 8.19963e-08
0.000800752 0.042256 8.28309e-08
8.19963e-08 8.28309e-08 0.0357867

0.0374538 -0.000661823 3.91578e-08
-0.000661823 0.0412034 4.30195e-08
3.91578e-08 4.30195e-08 0.0359013

0.0410752 0.00281347 1.0341e-07
0.00281347 0.0359867 1.96651e-07
1.0341e-07 1.96651e-07 0.0357669

0.0372542 0.000705152 9.66633e-08
0.000705152 0.0432152 3.43187e-08
9.66633e-08 3.43187e-08 0.036142

0.0402612 -0.00121854 9.25996e-08
-0.00121854 0.0378307 -1.97154e-07
9.25996e-08 -1.97154e-07 0.0358086

0.0312161 -0.00367789 8.14e-08
-0.00367789 0.0311239 -1.61049e-07
8.14e-08 -1.61049e-07 0.030926

0.0227478 0.00527917 7.60293e-09
0.00527917 0.0237092 8.39924e-08
7.60293e-09 8.39924e-08 0.0125813

0.0297612 -0.00231583 5.05144e-08
-0.00231583 0.0220314 1.87772e-07
5.05144e-08 1.87772e-07 0.0208752

0.0376196 -0.000523046 1.45166e-07
-0.000523046 0.0430643 6.40971e-08
1.45166e-07 6.40971e-08 0.0361448

0.0412407 0.00263442 2.28877e-07
0.00263442 0.0394155 2.5217e-08
2.28877e-07 2.5217e-08 0.0361273

0.0343015 -0.00161708 1.04213e-07
-0.00161708 0.027995 -1.15994e-07
1.04213e-07 -1.15994e-07 0.0310845

0.0231059 -0.00552583 4.28182e-08
-0.00552583 0.023563 -9.24451e-08
4.28182e-08 -9.24451e-08 0.0162162

0.0299441 -0.00233249 -1.42942e-08
-0.00233249 0.0221555 4.01063e-08
-1.42942e-08 4.01063e-08 0.0213445

0.0258941 0.00222746 1.7295e-09
0.00222746 0.0326548 -4.95358e-08
1.7295e-09 -4.95358e-08 0.0279158

0.0275512 0.00252905 1.22666e-07
0.00252905 0.0323741 8.95368e-09
1.22666e-07 8.95368e-09 0.0284913

0.0341754 -0.0021409 1.92639e-08
-0.0021409 0.0271078 -1.97184e-07
1.92639e-08 -1.97184e-07 0.0304726

0.0229029 -0.00439251 -3.63329e-08
-0.00439251 0.0272494 -4.59902e-08
-3.63329e-08 -4.59902e-08 0.0198506

0.0294945 0.00247156 8.36281e-08
0.00247156 0.0218345 -1.58102e-07
8.36281e-08 -1.58102e-07 0.0202813

0.0298726 -0.00327099 1.58956e-07
-0.00327099 0.0245139 3.46948e-08
1.58956e-07 3.46948e-08 0.0230486

0.0344781 0.00257777 3.02355e-08
0.00257777 0.0382039 5.64294e-08
3.02355e-08 5.64294e-08 0.0352714

0.02869 0.00383875 7.09967e-08
0.00383875 0.02578 -2.18041e-07
7.09967e-08 -2.18041e-07 0.0231171

0.0349287 -0.00291599 -4.18252e-08
-0.00291599 0.037433 -2.17837e-07
-4.18252e-08 -2.17837e-07 0.0351898

0.0255806 -0.0054555 -8.5559e-08
-0.0054555 0.0229027 1.20593e-07
-8.5559e-08 1.20593e-07 0.0158198

0.0373472 0.000745882 1.05107e-07
0.000745882 0.0414136 -2.53413e-08
1.05107e-07 -2.53413e-08 0.0359218

0.023168 -0.000693229 -2.55845e-07
-0.000693229 0.0313139 -2.4819e-08
-2.55845e-07 -2.4819e-08 0.0231032

0.0410301 0.00137936 -8.0911e-08
0.00137936 0.0377074 -6.25392e-08
-8.0911e-08 -6.25392e-08 0.0359

0.0276761 0.00280528 1.03947e-07
0.00280528 0.0327498 -5.88311e-08
1.03947e-07 -5.88311e-08 0.0302317

0.0361397 0.000784585 1.92477e-08
0.000784585 0.0281321 1.89987e-07
1.92477e-08 1.89987e-07 0.0336737

0.0362551 0.00153417 -2.18607e-08
0.00153417 0.0316937 -2.1578e-07
-2.18607e-08 -2.1578e-07 0.0342213

0.0286377 0.00405709 2.86573e-07
0.00405709 0.0198978 1.45616e-07
2.86573e-07 1.45616e-07 0.0137594

0.0309731 -0.000783604 -1.04835e-07
-0.000783604 0.0370858 -4.74665e-08
-1.04835e-07 -4.74665e-08 0.0338822

0.0315557 0.00124358 -1.93111e-08
0.00124358 0.0364214 2.29948e-07
-1.93111e-08 2.29948e-07 0.0342601

0.0285495 -0.000375185 -1.12469e-07
-0.000375185 0.0369567 -4.06716e-08
-1.12469e-07 -4.06716e-08 0.0326713

0.0296032 0.00307133 2.24243e-07
0.00307133 0.0347918 5.15645e-08
2.24243e-07 5.15645e-08 0.0337095

0.0347203 0.00112196 4.15369e-09
0.00112196 0.0278392 1.72787e-08
4.15369e-09 1.72787e-08 0.0322092

0.0291879 -0.00369911 1.73892e-07
-0.00369911 0.0310219 2.09393e-07
1.73892e-07 2.09393e-07 0.0299101

0.0350556 -0.00023711 -8.4592e-08
-0.00023711 0.0275805 -7.32206e-08
-8.4592e-08 -7.32206e-08 0.0333937

0.0344528 -0.0025481 6.36909e-08
-0.0025481 0.0381346 -8.90428e-08
6.36909e-08 -8.90428e-08 0.0352615

0.0350113 0.00284942 -6.8453e-08
0.00284942 0.0375705 -6.31475e-08
-6.8453e-08 -6.31475e-08 0.0352413

0.021889 -0.00213185 -8.49996e-08
-0.00213185 0.0299228 1.55624e-07
-8.49996e-08 1.55624e-07 0.0208517

0.0347017 -0.00369091 9.43733e-08
-0.00369091 0.0319586 4.90273e-08
9.43733e-08 4.90273e-08 0.0330796

0.0292927 -0.0032974 9.98636e-09
-0.0032974 0.032113 -7.98164e-08
9.98636e-09 -7.98164e-08 0.030434

0.02678 -0.00401706 -8.64194e-09
-0.00401706 0.0176056 -2.12953e-07
-8.64194e-09 -2.12953e-07 0.0127262

0.0324047 0.000418881 2.86683e-08
0.000418881 0.0381055 1.62916e-07
2.86683e-08 1.62916e-07 0.0344064

0.0345378 0.00381748 1.07292e-07
0.00381748 0.030942 -5.65344e-08
1.07292e-07 -5.65344e-08 0.0326608

0.028377 0.00258151 8.70253e-08
0.00258151 0.0341301 1.16214e-08
8.70253e-08 1.16214e-08 0.0322144

0.0315424 0.00103785 4.78662e-08
0.00103785 0.0228443 7.92553e-08
4.78662e-08 7.92553e-08 0.0240697

0.0270979 -0.00435874 1.00386e-07
-0.00435874 0.0237371 -8.75868e-08
1.00386e-07 -8.75868e-08 0.0183238

0.0362606 -0.00140292 5.64033e-08
-0.00140292 0.038743 -5.14309e-08
5.64033e-08 -5.14309e-08 0.0354017

0.0315565 0.00317088 -1.36181e-07
0.00317088 0.0344018 -5.96222e-08
-1.36181e-07 -5.96222e-08 0.0340909

0.027302 -0.00415613 1.03206e-07
-0.00415613 0.0221754 7.52911e-08
1.03206e-07 7.52911e-08 0.0184117

0.0303587 0.00139114 -4.2739e-08
0.00139114 0.0228309 8.07993e-08
-4.2739e-08 8.07993e-08 0.020955

0.0186024 -0.00269695 6.23143e-08
-0.00269695 0.028929 -8.17614e-08
6.23143e-08 -8.17614e-08 0.0158933

0.0272004 0.00188913 -1.99357e-07
0.00188913 0.0343206 -3.511e-08
-1.99357e-07 -3.511e-08 0.0306551

0.0353825 0.00305663 1.82744e-08
0.00305663 0.0308203 -1.87202e-07
1.82744e-08 -1.87202e-07 0.0327543

0.0226483 0.00538602 -1.96239e-07
0.00538602 0.024089 -1.51251e-07
-1.96239e-07 -1.51251e-07 0.0161988

0.0459505 0.00223707 -3.5867e-07
0.00223707 0.0417511 2.77255e-07
-3.5867e-07 2.77255e-07 0.0366395

0.0230818 -0.000534304 -1.05214e-07
-0.000534304 0.0313549 1.13691e-07
-1.05214e-07 1.13691e-07 0.023073

0.0463635 -0.00225609 -5.78497e-07
-0.00225609 0.0412944 -1.18555e-07
-5.78497e-07 -1.18555e-07 0.0365947

0.0370656 -0.00362439 -1.85813e-07
-0.00362439 0.0334914 3.13418e-08
-1.85813e-07 3.13418e-08 0.0346214

0.0351379 0.00361937 -2.51434e-08
0.00361937 0.0300047 -2.65706e-08
-2.51434e-08 -2.65706e-08 0.032457

0.0299626 -0.00315892 -1.17211e-07
-0.00315892 0.0246909 2.00816e-07
-1.17211e-07 2.00816e-07 0.0232864

0.0230127 0.00402981 -1.38611e-07
0.00402981 0.0277796 -1.58142e-08
-1.38611e-07 -1.58142e-08 0.0203824

0.0210943 -0.00137862 -1.38216e-07
-0.00137862 0.0298959 -1.12801e-07
-1.38216e-07 -1.12801e-07 0.0182519

0.0287463 0.00288893 -1.67362e-07
0.00288893 0.0342279 -3.36896e-08
-1.67362e-07 -3.36896e-08 0.0327002

0.0370122 0.00223609 -1.08143e-07
0.00223609 0.0334527 -4.35833e-08
-1.08143e-07 -4.35833e-08 0.0343848

0.0281488 0.0019882 7.92881e-08
0.0019882 0.0340605 -2.75986e-08
7.92881e-08 -2.75986e-08 0.030866

0.031883 0.00207313 -1.53994e-07
0.00207313 0.0252546 -2.37493e-07
-1.53994e-07 -2.37493e-07 0.025618

0.023908 -0.00277449 7.84344e-08
-0.00277449 0.0297654 1.72908e-07
7.84344e-08 1.72908e-07 0.0215619

0.0278993 -0.00376372 2.17421e-07
-0.00376372 0.0218156 2.00372e-07
2.17421e-07 2.00372e-07 0.0180763

0.0293321 -0.00323163 7.0891e-08
-0.00323163 0.03263 -7.86121e-08
7.0891e-08 -7.86121e-08 0.0324034

0.0306267 0.00361497 4.47079e-08
0.00361497 0.0322292 1.63059e-07
4.47079e-08 1.63059e-07 0.0323712

0.0287088 0.00304798 -1.2374e-08
0.00304798 0.0340273 2.76975e-08
-1.2374e-08 2.76975e-08 0.0326307

0.0292074 0.00172529 -5.83697e-08
0.00172529 0.037618 2.08858e-07
-5.83697e-08 2.08858e-07 0.0338466

0.0344774 0.0012323 4.44701e-08
0.0012323 0.0275242 5.00056e-08
4.44701e-08 5.00056e-08 0.0306753

0.019961 -0.000605209 6.64148e-08
-0.000605209 0.029661 -7.04596e-08
6.64148e-08 -7.04596e-08 0.0181042

0.0297978 -0.004863 4.38391e-08
-0.004863 0.0330494 -1.84187e-08
4.38391e-08 -1.84187e-08 0.0337421

0.0290818 0.00360008 -1.3178e-07
0.00360008 0.0313601 -6.17568e-08
-1.3178e-07 -6.17568e-08 0.0302645

0.0181058 0.000282943 -3.49775e-08
0.000282943 0.0293113 -1.35228e-07
-3.49775e-08 -1.35228e-07 0.0168787

0.0278437 0.00442377 -5.45931e-08
0.00442377 0.0209684 -1.23479e-07
-5.45931e-08 -1.23479e-07 0.017455

0.0291914 -0.00302047 8.37102e-08
-0.00302047 0.0327037 1.23282e-07
8.37102e-08 1.23282e-07 0.0321858

0.035243 0.000759907 -1.88104e-08
0.000759907 0.0273391 6.07216e-08
-1.88104e-08 6.07216e-08 0.0325532

0.029428 0.00352019 -2.08817e-07
0.00352019 0.0252016 1.78352e-07
-2.08817e-07 1.78352e-07 0.0231115

0.0396372 0.00171016 -2.17374e-07
0.00171016 0.0390394 -2.91536e-07
-2.17374e-07 -2.91536e-07 0.0359404

0.0283753 0.00312331 -1.96529e-07
0.00312331 0.0224017 2.58412e-07
-1.96529e-07 2.58412e-07 0.0182867

0.0394888 -0.00175064 1.06485e-07
-0.00175064 0.0390654 -8.72237e-08
1.06485e-07 -8.72237e-08 0.0359055

0.0232613 0.000103406 4.4112e-08
0.000103406 0.0315183 1.396e-08
4.4112e-08 1.396e-08 0.02312

0.0327593 -0.000288468 3.18352e-08
-0.000288468 0.0246603 1.01474e-07
3.18352e-08 1.01474e-07 0.0269666

0.0380546 -0.00212914 4.47943e-08
-0.00212914 0.0304641 -1.43918e-08
4.47943e-08 -1.43918e-08 0.0347936

0.0292386 0.00320597 -1.03949e-07
0.00320597 0.0332784 1.04404e-07
-1.03949e-07 1.04404e-07 0.0333432

0.0289509 -0.00177268 -2.49829e-08
-0.00177268 0.0366093 -7.2016e-08
-2.49829e-08 -7.2016e-08 0.0335

0.0365837 -0.00108469 -7.86221e-08
-0.00108469 0.0264768 -8.26806e-08
-7.86221e-08 -8.26806e-08 0.0338604

0.0311805 -0.00292557 -1.01924e-07
-0.00292557 0.0383063 -1.08697e-07
-1.01924e-07 -1.08697e-07 0.0348439

0.0381658 -0.000885197 -6.15516e-08
-0.000885197 0.0387311 1.25337e-07
-6.15516e-08 1.25337e-07 0.0358356

0.0301804 -0.00393992 7.84176e-08
-0.00393992 0.032711 1.2337e-07
7.84176e-08 1.2337e-07 0.0327637

0.021333 0.00146945 1.61053e-07
0.00146945 0.0296139 -2.34287e-08
1.61053e-07 -2.34287e-08 0.0182958

0.0293881 -0.00364572 7.21357e-08
-0.00364572 0.0253494 -1.64828e-07
7.21357e-08 -1.64828e-07 0.0231822

0.0328597 -0.00181727 2.45896e-07
-0.00181727 0.0397179 -1.32389e-07
2.45896e-07 -1.32389e-07 0.0352412

0.0350915 7.68761e-05 -4.59408e-09
7.68761e-05 0.0272225 6.19884e-08
-4.59408e-09 6.19884e-08 0.0332516

0.0308186 -0.00282902 -2.63098e-08
-0.00282902 0.0348916 -6.98506e-08
-2.63098e-08 -6.98506e-08 0.0340844

0.0295348 0.00338852 -8.42224e-08
0.00338852 0.0328718 9.39018e-08
-8.42224e-08 9.39018e-08 0.0333263

0.0264605 -0.0040633 -7.07024e-08
-0.0040633 0.027262 -4.68112e-08
-7.07024e-08 -4.68112e-08 0.0215847

0.0371726 -0.000958057 -3.54648e-07
-0.000958057 0.0416106 1.06593e-08
-3.54648e-07 1.06593e-08 0.0358867

0.0227112 -0.00423769 -9.99691e-08
-0.00423769 0.0272438 5.59427e-08
-9.99691e-08 5.59427e-08 0.0168776

0.0341829 -0.00252494 1.63572e-08
-0.00252494 0.0286067 9.38752e-08
1.63572e-08 9.38752e-08 0.0310447

0.036426 0.000289857 -1.7667e-07
0.000289857 0.0294377 1.20706e-07
-1.7667e-07 1.20706e-07 0.034194

0.0396414 0.00239628 -6.44862e-08
0.00239628 0.0391133 4.00528e-07
-6.44862e-08 4.00528e-07 0.0358677

0.0238563 0.00260927 -9.22378e-08
0.00260927 0.0301516 -1.01403e-07
-9.22378e-08 -1.01403e-07 0.021799

0.0334311 0.00358129 -4.03917e-09
0.00358129 0.0307155 4.86979e-08
-4.03917e-09 4.86979e-08 0.0317674

0.0316434 -0.00319438 -2.12459e-07
-0.00319438 0.0265522 -3.74417e-08
-2.12459e-07 -3.74417e-08 0.0269356

0.0289295 -0.00234097 2.1688e-08
-0.00234097 0.0342353 2.96553e-08
2.1688e-08 2.96553e-08 0.0326062

0.0262444 0.00450151 9.5985e-09
0.00450151 0.0245579 -3.09946e-09
9.5985e-09 -3.09946e-09 0.0180812

0.028423 -0.00286671 5.91643e-08
-0.00286671 0.0340322 5.49536e-08
5.91643e-08 5.49536e-08 0.0324493

0.0331494 0.00405868 7.64976e-08
0.00405868 0.0304646 -2.01177e-07
7.64976e-08 -2.01177e-07 0.0315425

0.0333352 -0.00331187 1.70847e-07
-0.00331187 0.0283572 2.90628e-08
1.70847e-07 2.90628e-08 0.0300461

0.029161 -0.00329566 3.04665e-07
-0.00329566 0.0319878 7.09703e-08
3.04665e-07 7.09703e-08 0.0304376

0.0314556 -0.00242936 -2.24593e-07
-0.00242936 0.0247191 -1.9145e-08
-2.24593e-07 -1.9145e-08 0.0251565

0.0329559 -0.00246677 1.83356e-07
-0.00246677 0.0267097 1.06713e-08
1.83356e-07 1.06713e-08 0.0285968

0.0294918 -0.00334184 1.45838e-07
-0.00334184 0.0329507 -5.80277e-09
1.45838e-07 -5.80277e-09 0.0334077

0.0261342 0.0046339 1.09139e-08
0.0046339 0.0255416 -7.08228e-08
1.09139e-08 -7.08228e-08 0.0210926

0.0281502 0.00201683 1.02665e-07
0.00201683 0.0343361 1.80809e-08
1.02665e-07 1.80809e-08 0.0311098

0.030887 0.0034811 6.35138e-09
0.0034811 0.0322556 -4.38259e-08
6.35138e-09 -4.38259e-08 0.0326006

0.0291578 0.00334801 -6.04128e-08
0.00334801 0.0331922 -7.73251e-08
-6.04128e-08 -7.73251e-08 0.0332608

0.0289844 0.00152305 -4.81375e-08
0.00152305 0.035471 1.24121e-07
-4.81375e-08 1.24121e-07 0.0326959

0.0310534 -0.00106188 -2.01706e-08
-0.00106188 0.0231417 2.95996e-08
-2.01706e-08 2.95996e-08 0.0220781

0.0238842 0.00240569 1.26768e-07
0.00240569 0.0304109 -9.82612e-08
1.26768e-07 -9.82612e-08 0.0221132

0.0292139 -0.00320414 -4.3472e-10
-0.00320414 0.032637 -3.79572e-08
-4.3472e-10 -3.79572e-08 0.0316188

0.0289877 0.00335692 -4.15152e-08
0.00335692 0.0309333 3.92386e-08
-4.15152e-08 3.92386e-08 0.0285684

0.026613 -0.00459126 1.53644e-07
-0.00459126 0.0252307 -1.58812e-07
1.53644e-07 -1.58812e-07 0.0212569

0.0262779 0.00489344 -2.60785e-08
0.00489344 0.0209464 1.37522e-07
-2.60785e-08 1.37522e-07 0.0167625

0.023503 -0.0042868 5.50542e-08
-0.0042868 0.0274648 -1.11629e-07
5.50542e-08 -1.11629e-07 0.0206266

0.0266721 -0.00402758 1.77253e-07
-0.00402758 0.0274828 -1.0567e-07
1.77253e-07 -1.0567e-07 0.0220503

0.0353655 -0.000906644 -9.07874e-08
-0.000906644 0.0273909 -3.3963e-08
-9.07874e-08 -3.3963e-08 0.0326555

0.0260456 0.00392164 -2.42875e-07
0.00392164 0.0280925 -8.12228e-08
-2.42875e-07 -8.12228e-08 0.0221028

0.0307885 0.00171669 2.07623e-07
0.00171669 0.0233606 -2.67713e-07
2.07623e-07 -2.67713e-07 0.0220259

0.0214312 0.00172205 1.37688e-07
0.00172205 0.0302411 -9.61088e-08
1.37688e-07 -9.61088e-08 0.0211331

0.0242631 -0.00288932 1.40836e-07
-0.00288932 0.0299523 7.3913e-08
1.40836e-07 7.3913e-08 0.0220865

0.0313464 -0.000131022 -2.32727e-08
-0.000131022 0.0392741 6.43623e-08
-2.32727e-08 6.43623e-08 0.0346716

0.0230586 0.000294623 -1.1104e-07
0.000294623 0.0314613 1.13317e-07
-1.1104e-07 1.13317e-07 0.0230626

0.0227775 0.00400154 9.27043e-08
0.00400154 0.0281277 -5.35905e-08
9.27043e-08 -5.35905e-08 0.0206384

0.028889 0.0015857 1.95441e-07
0.0015857 0.0358335 -7.68935e-08
1.95441e-07 -7.68935e-08 0.0328944

0.0293165 -0.00358013 -1.36154e-07
-0.00358013 0.0251301 1.68538e-07
-1.36154e-07 1.68538e-07 0.0232401

0.0369774 0.00273314 -1.03251e-07
0.00273314 0.029724 -1.6022e-07
-1.03251e-07 -1.6022e-07 0.0338026

0.0371769 0.00348342 -2.54545e-08
0.00348342 0.0334235 1.02285e-08
-2.54545e-08 1.02285e-08 0.034653

0.0345448 -0.00244661 -2.5215e-08
-0.00244661 0.0285306 7.82832e-09
-2.5215e-08 7.82832e-09 0.0313797

0.0390572 -0.000265637 1.30465e-07
-0.000265637 0.0339255 1.48976e-07
1.30465e-07 1.48976e-07 0.0352091

0.0314803 -0.00418762 -1.08692e-07
-0.00418762 0.0317825 -5.17854e-09
-1.08692e-07 -5.17854e-09 0.0321572

0.029463 0.00300755 -1.75458e-07
0.00300755 0.0223277 2.62889e-07
-1.75458e-07 2.62889e-07 0.021067

0.0302307 0.00397297 -7.63785e-08
0.00397297 0.0326642 1.08205e-07
-7.63785e-08 1.08205e-07 0.0327209

0.0302782 0.00384691 1.78999e-07
0.00384691 0.0326081 -9.23679e-08
1.78999e-07 -9.23679e-08 0.0326756

0.0262449 0.00396179 -1.9394e-08
0.00396179 0.0277684 -1.0883e-08
-1.9394e-08 -1.0883e-08 0.0218653

0.0344514 0.00357661 3.70569e-08
0.00357661 0.0317805 4.12983e-08
3.70569e-08 4.12983e-08 0.0328324

0.0302492 0.000452483 1.96991e-07
0.000452483 0.0204288 -2.89077e-07
1.96991e-07 -2.89077e-07 0.0205737

0.0331868 0.00420059 1.77851e-07
0.00420059 0.0323738 -2.71812e-08
1.77851e-07 -2.71812e-08 0.0334848

0.0305018 -0.00165435 -8.8637e-08
-0.00165435 0.0366169 -7.49854e-08
-8.8637e-08 -7.49854e-08 0.0336637

0.0373609 0.00323269 1.12205e-07
0.00323269 0.0334609 1.62704e-08
1.12205e-07 1.62704e-08 0.0346652

0.0307381 -0.00389614 -6.61774e-09
-0.00389614 0.0322736 -9.55276e-08
-6.61774e-09 -9.55276e-08 0.0326812

0.0293748 -0.000644987 -7.78462e-08
-0.000644987 0.036904 -3.7689e-08
-7.78462e-08 -3.7689e-08 0.0328488

0.0288133 -0.0031525 7.76234e-08
-0.0031525 0.0221405 4.08528e-08
7.76234e-08 4.08528e-08 0.0187594

0.0290035 0.00384458 2.23985e-07
0.00384458 0.0255787 -7.61911e-08
2.23985e-07 -7.61911e-08 0.0230735

0.0217019 0.00189103 6.38405e-09
0.00189103 0.0300618 -9.44575e-08
6.38405e-09 -9.44575e-08 0.0210844

0.0349911 -0.000161549 1.11659e-07
-0.000161549 0.0273905 -3.40267e-08
1.11659e-07 -3.40267e-08 0.0333026

0.0344206 2.95362e-07 -8.11212e-08
2.95362e-07 0.0272756 -5.17663e-08
-8.11212e-08 -5.17663e-08 0.0320422

0.0291667 0.0030399 -1.39184e-07
0.0030399 0.0326809 -7.84015e-08
-1.39184e-07 -7.84015e-08 0.0321336

0.0314507 0.00316626 1.75878e-07
0.00316626 0.0342514 -3.09075e-08
1.75878e-07 -3.09075e-08 0.0340591

0.0291696 -0.0032043 9.01354e-08
-0.0032043 0.0332393 -6.89265e-08
9.01354e-08 -6.89265e-08 0.0333799

0.0287747 -8.56884e-05 -5.20311e-08
-8.56884e-05 0.0367056 -5.33339e-08
-5.20311e-08 -5.33339e-08 0.0325266

0.0294654 0.00337595 1.56491e-07
0.00337595 0.0330756 -1.27124e-07
1.56491e-07 -1.27124e-07 0.0333556

0.0328604 -0.00134644 -8.32269e-08
-0.00134644 0.0253626 -1.38881e-07
-8.32269e-08 -1.38881e-07 0.0278298

0.0263558 -0.00425472 -1.48721e-08
-0.00425472 0.0281807 -1.39495e-07
-1.48721e-08 -1.39495e-07 0.0242683

0.0362985 -0.0003316 6.81959e-08
-0.0003316 0.0293842 -5.37841e-08
6.81959e-08 -5.37841e-08 0.0340289

0.0267817 -0.00444558 5.84628e-08
-0.00444558 0.0251912 1.61628e-07
5.84628e-08 1.61628e-07 0.0209498

0.0309006 0.0025073 1.68357e-08
0.0025073 0.0350643 -7.63135e-08
1.68357e-08 -7.63135e-08 0.0340687

0.035114 -0.00349691 -1.27082e-07
-0.00349691 0.0303893 1.57701e-07
-1.27082e-07 1.57701e-07 0.0326157

0.0305027 -0.0012498 -6.71293e-08
-0.0012498 0.0229791 -8.57882e-08
-6.71293e-08 -8.57882e-08 0.0214791

0.0371485 -0.00307677 9.7135e-08
-0.00307677 0.0316542 4.85814e-08
9.7135e-08 4.85814e-08 0.0339888

0.0349705 0.000322135 3.74987e-08
0.000322135 0.0275558 4.61587e-09
3.74987e-08 4.61587e-09 0.0334309

0.0358447 -0.0030883 6.99346e-08
-0.0030883 0.0332587 -3.05448e-08
6.99346e-08 -3.05448e-08 0.0341444

0.0349295 -0.00341087 1.33543e-07
-0.00341087 0.0295959 -1.12783e-08
1.33543e-07 -1.12783e-08 0.032179

0.0349107 -0.00113359 -1.22274e-07
-0.00113359 0.027851 -8.5062e-08
-1.22274e-07 -8.5062e-08 0.0323424

0.0314906 -0.00306248 -1.46156e-07
-0.00306248 0.0344498 1.20558e-07
-1.46156e-07 1.20558e-07 0.0341475

0.0292363 -0.00407122 -1.06168e-08
-0.00407122 0.0269004 -4.50982e-08
-1.06168e-08 -4.50982e-08 0.025347

0.0349937 -0.00324377 1.33622e-07
-0.00324377 0.0299162 -1.0977e-08
1.33622e-07 -1.0977e-08 0.0321962

0.0314632 0.00140925 -5.47416e-09
0.00140925 0.0233277 -2.79159e-07
-5.47416e-09 -2.79159e-07 0.0244844

0.0336656 0.00348409 1.45175e-07
0.00348409 0.0334448 2.34666e-08
1.45175e-07 2.34666e-08 0.0336509

0.0298938 -0.00496712 -2.03936e-07
-0.00496712 0.0330794 8.11445e-09
-2.03936e-07 8.11445e-09 0.0338582

0.0300441 0.00492031 -1.0428e-07
0.00492031 0.0329411 -1.15909e-07
-1.0428e-07 -1.15909e-07 0.0338251

0.027689 -0.00374176 -3.9429e-08
-0.00374176 0.0348081 -1.83324e-07
-3.9429e-08 -1.83324e-07 0.0337677

0.0279269 0.00354713 -1.45463e-07
0.00354713 0.034836 3.56093e-08
-1.45463e-07 3.56093e-08 0.0337325

0.0364306 -0.00115377 9.66718e-08
-0.00115377 0.026343 -7.18894e-09
9.66718e-08 -7.18894e-09 0.0337588

0.0361994 0.00124741 3.75853e-08
0.00124741 0.0265644 1.61745e-07
3.75853e-08 1.61745e-07 0.0337216

0.0350357 -0.00130669 -3.26748e-09
-0.00130669 0.028469 3.09854e-08
-3.26748e-09 3.09854e-08 0.0325768

0.0344371 0.00425912 -8.29188e-08
0.00425912 0.0342905 -3.56746e-08
-8.29188e-08 -3.56746e-08 0.0348134

0.0343129 -0.00435699 7.48978e-08
-0.00435699 0.034282 -1.45875e-08
7.48978e-08 -1.45875e-08 0.0348017

0.030522 0.00209358 -4.85787e-08
0.00209358 0.0381662 5.25913e-08
-4.85787e-08 5.25913e-08 0.0348506

0.030665 -0.00205943 -3.44458e-08
-0.00205943 0.0380962 -8.42642e-08
-3.44458e-08 -8.42642e-08 0.0348379

0.0395024 -0.000529024 8.45418e-08
-0.000529024 0.0328501 -3.22816e-08
8.45418e-08 -3.22816e-08 0.0352587

0.0397058 0.000513422 -1.06971e-07
0.000513422 0.0326229 -1.55115e-08
-1.06971e-07 -1.55115e-08 0.035304

0.0239658 0.0012759 -1.55819e-07
0.0012759 0.0320043 3.16671e-08
-1.55819e-07 3.16671e-08 0.0251851

0.0311634 -0.00326533 -8.51638e-08
-0.00326533 0.032242 -1.48168e-07
-8.51638e-08 -1.48168e-07 0.0328028

0.0277808 -0.00478578 1.10612e-07
-0.00478578 0.0333128 -6.94019e-08
1.10612e-07 -6.94019e-08 0.0334562

0.03336 -0.000610184 6.62336e-08
-0.000610184 0.026404 1.25606e-07
6.62336e-08 1.25606e-07 0.0284492

0.0381882 -0.00225184 1.18217e-07
-0.00225184 0.0307954 2.5188e-08
1.18217e-07 2.5188e-08 0.0348936

0.0382371 0.00218394 -1.87216e-07
0.00218394 0.0309086 1.04353e-07
-1.87216e-07 1.04353e-07 0.0349258

0.0360853 1.56177e-05 -2.38157e-09
1.56177e-05 0.0251269 7.54635e-08
-2.38157e-09 7.54635e-08 0.0334713

0.0242417 0.00302912 1.52278e-08
0.00302912 0.0303985 9.5249e-08
1.52278e-08 9.5249e-08 0.0242778

0.0276753 0.00475616 1.95352e-08
0.00475616 0.0333136 -7.39625e-08
1.95352e-08 -7.39625e-08 0.033394

0.0286755 -0.00307593 3.29677e-08
-0.00307593 0.0342621 2.94539e-08
3.29677e-08 2.94539e-08 0.0327533

0.0310864 0.0030358 1.41025e-07
0.0030358 0.0251475 1.96737e-07
1.41025e-07 1.96737e-07 0.025468

0.0372284 0.00316571 -1.61075e-07
0.00316571 0.0315416 5.56565e-09
-1.61075e-07 5.56565e-09 0.0340768

0.0292279 -0.00406741 1.0343e-07
-0.00406741 0.0269367 -2.18773e-07
1.0343e-07 -2.18773e-07 0.0253222

0.0364022 -0.000453788 4.01178e-08
-0.000453788 0.0296925 1.52804e-07
4.01178e-08 1.52804e-07 0.0341319

0.0273458 -0.00449486 8.865e-10
-0.00449486 0.0333964 6.3146e-08
8.865e-10 6.3146e-08 0.0334428

0.0240386 0.0010789 5.69991e-08
0.0010789 0.0322454 4.02645e-08
5.69991e-08 4.02645e-08 0.0255068

0.0242305 0.00282669 1.29716e-07
0.00282669 0.0307027 -9.31492e-08
1.29716e-07 -9.31492e-08 0.0245457

0.0267932 0.00459445 -4.20111e-08
0.00459445 0.0240424 -1.47309e-07
-4.20111e-08 -1.47309e-07 0.0182141

0.0298518 0.000199823 -9.10551e-08
0.000199823 0.020089 -4.93718e-08
-9.10551e-08 -4.93718e-08 0.0193631

0.0319096 -0.00302375 4.7632e-08
-0.00302375 0.0341633 -1.33136e-08
4.7632e-08 -1.33136e-08 0.0340366

0.0229193 0.0039997 2.17692e-07
0.0039997 0.0276608 1.72219e-07
2.17692e-07 1.72219e-07 0.0176536

0.029211 0.0031009 -1.30195e-07
0.0031009 0.032764 -6.49026e-08
-1.30195e-07 -6.49026e-08 0.0310133

0.0315958 -0.000694598 -2.62906e-07
-0.000694598 0.0231608 2.32404e-08
-2.62906e-07 2.32404e-08 0.0244856

0.0327626 0.00146457 4.41972e-08
0.00146457 0.0253476 -2.54062e-07
4.41972e-08 -2.54062e-07 0.0276139

0.0359796 5.62307e-05 8.47159e-08
5.62307e-05 0.02496 -8.2644e-08
8.47159e-08 -8.2644e-08 0.0333873

0.027967 -0.00380535 8.78627e-08
-0.00380535 0.0349497 -7.30954e-08
8.78627e-08 -7.30954e-08 0.033817

0.0393151 -0.000843644 2.09978e-07
-0.000843644 0.0416027 -3.183e-08
2.09978e-07 -3.183e-08 0.0361909

0.0298689 0.00493904 1.02889e-07
0.00493904 0.0329574 9.91238e-08
1.02889e-07 9.91238e-08 0.0337801

0.0302892 0.000214565 1.62482e-07
0.000214565 0.0203974 -2.90381e-07
1.62482e-07 -2.90381e-07 0.0172767

0.0266747 -0.00425059 1.01894e-09
-0.00425059 0.0281343 1.54265e-07
1.01894e-09 1.54265e-07 0.0244383

0.0277476 0.00481578 2.38056e-08
0.00481578 0.0333164 1.05914e-07
2.38056e-08 1.05914e-07 0.0334563

0.027946 -0.00145845 1.95831e-09
-0.00145845 0.0350866 2.04653e-07
1.95831e-09 2.04653e-07 0.0314513

0.0244658 -0.0033053 1.33535e-07
-0.0033053 0.0300164 8.4049e-08
1.33535e-07 8.4049e-08 0.0242179

0.0279919 0.00377973 2.15881e-09
0.00377973 0.0349114 -7.53415e-08
2.15881e-09 -7.53415e-08 0.0337879

0.0313627 -0.00340967 -2.25188e-07
-0.00340967 0.0270094 -6.61317e-08
-2.25188e-07 -6.61317e-08 0.0269923

0.0402798 0.00140889 1.03619e-08
0.00140889 0.0406177 -2.4598e-07
1.03619e-08 -2.4598e-07 0.0361713

0.0258819 0.004003 -1.44203e-07
0.004003 0.0289556 1.0241e-07
-1.44203e-07 1.0241e-07 0.0245118

0.0366789 0.00110289 -3.44802e-08
0.00110289 0.0263534 -9.70634e-08
-3.44802e-08 -9.70634e-08 0.0338988

0.033343 0.00398419 -1.18584e-10
0.00398419 0.0321168 1.68084e-07
-1.18584e-10 1.68084e-07 0.0333167

0.0292294 0.00306719 -6.24558e-08
0.00306719 0.0326065 1.08598e-07
-6.24558e-08 1.08598e-07 0.0321588

0.0343658 -0.00431097 -7.28227e-08
-0.00431097 0.0345063 1.18932e-07
-7.28227e-08 1.18932e-07 0.0348859

0.0354907 -0.00306341 -1.81492e-07
-0.00306341 0.0305909 4.68141e-08
-1.81492e-07 4.68141e-08 0.0327514

0.0333673 0.00138772 -1.90452e-07
0.00138772 0.0395779 -2.31741e-08
-1.90452e-07 -2.31741e-08 0.0350035

0.0291978 -0.00307929 2.76838e-07
-0.00307929 0.0328751 -1.84916e-07
2.76838e-07 -1.84916e-07 0.0313844

0.029266 -0.00123228 1.1355e-07
-0.00123228 0.0192877 1.16435e-08
1.1355e-07 1.16435e-08 0.0164128

0.0287794 -0.00183244 2.21659e-07
-0.00183244 0.0184146 -1.66628e-07
2.21659e-07 -1.66628e-07 0.0161976

0.0385297 0.00220236 1.26339e-07
0.00220236 0.0332399 -1.0063e-08
1.26339e-07 -1.0063e-08 0.034764

0.0280572 0.00294531 1.06221e-07
0.00294531 0.0323369 -2.01054e-07
1.06221e-07 -2.01054e-07 0.0295192

0.0320685 0.00383464 -1.00096e-07
0.00383464 0.0309618 -7.36067e-08
-1.00096e-07 -7.36067e-08 0.0314555

0.032051 8.9924e-05 3.78946e-08
8.9924e-05 0.0245778 1.0052e-07
3.78946e-08 1.0052e-07 0.0248891

0.0302387 0.000865924 -1.07428e-08
0.000865924 0.0385817 1.50814e-07
-1.07428e-08 1.50814e-07 0.0340974

0.0354034 0.0021912 1.01885e-07
0.0021912 0.029324 2.21656e-07
1.01885e-07 2.21656e-07 0.0328594

0.0248123 -0.00333895 1.55124e-07
-0.00333895 0.0300076 5.21079e-08
1.55124e-07 5.21079e-08 0.024471

0.0286516 -0.000337621 1.46718e-07
-0.000337621 0.0366584 -3.42797e-08
1.46718e-07 -3.42797e-08 0.0323969

0.0252163 0.00174017 5.12842e-08
0.00174017 0.032031 3.7898e-08
5.12842e-08 3.7898e-08 0.025685

0.0332819 -0.00390949 -1.01764e-08
-0.00390949 0.0304978 5.69714e-08
-1.01764e-08 5.69714e-08 0.0315936

0.029066 -0.00389629 1.47242e-07
-0.00389629 0.0282015 -1.34306e-07
1.47242e-07 -1.34306e-07 0.0257146

0.0261502 0.00409892 9.86756e-08
0.00409892 0.0285473 1.97544e-07
9.86756e-08 1.97544e-07 0.0243191

0.0452873 -0.00201696 2.50659e-07
-0.00201696 0.0396065 -1.046e-07
2.50659e-07 -1.046e-07 0.0363679

0.0316678 0.000256371 -2.27798e-16
0.000256371 0.0393277 -2.88225e-17
-2.27798e-16 -2.88225e-17 0.0347702

0.0306179 0.00265098 5.70997e-08
0.00265098 0.0384435 -4.50439e-08
5.70997e-08 -4.50439e-08 0.0349587

0.0387667 0.00209474 1.05102e-07
0.00209474 0.0302228 -8.63629e-08
1.05102e-07 -8.63629e-08 0.0349436

0.0313719 -0.00345065 -1.9633e-08
-0.00345065 0.0321419 -1.1557e-07
-1.9633e-08 -1.1557e-07 0.0325739

0.0318189 0.00233626 1.92719e-07
0.00233626 0.0256214 1.20913e-07
1.92719e-07 1.20913e-07 0.0258807

0.0349946 -0.000708612 -8.54939e-08
-0.000708612 0.0415767 -2.2758e-07
-8.54939e-08 -2.2758e-07 0.0357287

0.0357897 -0.00251862 -1.39342e-07
-0.00251862 0.0295514 -4.58472e-08
-1.39342e-07 -4.58472e-08 0.0332591

0.0332985 -0.00203974 1.85724e-07
-0.00203974 0.0266538 1.66924e-08
1.85724e-07 1.66924e-08 0.0286765

0.0252533 0.00151099 4.80448e-08
0.00151099 0.0322758 3.99486e-08
4.80448e-08 3.99486e-08 0.0259511

0.0268059 -0.00334482 1.03731e-07
-0.00334482 0.0300107 8.30658e-08
1.03731e-07 8.30658e-08 0.0251883

0.0364786 -0.00336026 -1.38983e-08
-0.00336026 0.0352886 2.64619e-07
-1.38983e-08 2.64619e-07 0.0347434

0.0284768 0.00415245 1.38322e-07
0.00415245 0.0277171 -9.20666e-08
1.38322e-07 -9.20666e-08 0.0254688

0.037245 -0.00334535 4.02262e-08
-0.00334535 0.033323 -2.86629e-08
4.02262e-08 -2.86629e-08 0.0346127

0.0322074 0.000337809 -2.36528e-07
0.000337809 0.0248636 7.49901e-08
-2.36528e-07 7.49901e-08 0.0254386

0.0191617 -0.00368937 -1.23034e-07
-0.00368937 0.027527 -8.80095e-08
-1.23034e-07 -8.80095e-08 0.0163114

0.0292111 -0.00380363 8.38472e-08
-0.00380363 0.0281939 1.61871e-07
8.38472e-08 1.61871e-07 0.0258088

0.0230466 0.00412756 -2.03139e-07
0.00412756 0.0280216 -1.32676e-07
-2.03139e-07 -1.32676e-07 0.0175928

0.029692 -0.00155951 -4.95326e-08
-0.00155951 0.037535 -6.07989e-08
-4.95326e-08 -6.07989e-08 0.0336496

0.024361 -0.00179374 -1.62943e-07
-0.00179374 0.0318737 -1.68853e-07
-1.62943e-07 -1.68853e-07 0.0254489

0.0424367 -0.00323434 3.65915e-07
-0.00323434 0.0423764 6.84376e-08
3.65915e-07 6.84376e-08 0.0363762

0.0263375 0.00309115 -2.10579e-08
0.00309115 0.0307029 -9.32742e-08
-2.10579e-08 -9.32742e-08 0.0254787

0.0334774 -0.00432354 7.74471e-08
-0.00432354 0.0326604 -2.76442e-08
7.74471e-08 -2.76442e-08 0.0335674

0.0240814 -0.0015508 6.11374e-08
-0.0015508 0.0318883 -1.73268e-07
6.11374e-08 -1.73268e-07 0.0251777

0.0362238 -0.00253874 -8.18739e-08
-0.00253874 0.0295122 1.47431e-07
-8.18739e-08 1.47431e-07 0.0335203

0.0266744 0.0031047 1.63081e-07
0.0031047 0.0303955 9.29788e-08
1.63081e-07 9.29788e-08 0.025314

0.0343442 -0.000653654 1.29767e-08
-0.000653654 0.0272777 -2.97787e-08
1.29767e-08 -2.97787e-08 0.0305786

0.018891 -0.0038717 -2.66462e-07
-0.0038717 0.0298024 2.4352e-07
-2.66462e-07 2.4352e-07 0.0129616

0.0280001 0.0027545 1.30895e-07
0.0027545 0.03263 -1.9789e-08
1.30895e-07 -1.9789e-08 0.0305745

0.0314383 -0.00251236 1.84895e-08
-0.00251236 0.0247229 2.04685e-07
1.84895e-08 2.04685e-07 0.0254067

0.039119 -0.00286931 -3.57187e-07
-0.00286931 0.032222 -9.96702e-09
-3.57187e-07 -9.96702e-09 0.0349376

0.028754 0.00412394 1.84633e-07
0.00412394 0.0273005 -1.45475e-07
1.84633e-07 -1.45475e-07 0.0252561

0.031362 -0.00391943 -1.81495e-07
-0.00391943 0.0285427 -1.32451e-07
-1.81495e-07 -1.32451e-07 0.0287317

0.035409 0.00276416 -8.99796e-08
0.00276416 0.0308564 8.74515e-09
-8.99796e-08 8.74515e-09 0.0330399

0.0297737 -0.0037039 -8.58188e-08
-0.0037039 0.0329381 -1.21895e-08
-8.58188e-08 -1.21895e-08 0.033343

0.0270557 -0.00341039 -5.52168e-08
-0.00341039 0.0299834 3.59955e-08
-5.52168e-08 3.59955e-08 0.025398

0.0284415 0.00377127 5.84071e-09
0.00377127 0.0289405 1.06779e-07
5.84071e-09 1.06779e-07 0.0258878

0.0313719 0.00341344 -2.38093e-07
0.00341344 0.0268999 1.03577e-07
-2.38093e-07 1.03577e-07 0.0269665

0.0365368 -0.00194429 -7.50374e-08
-0.00194429 0.0306257 1.61974e-07
-7.50374e-08 1.61974e-07 0.0336361

0.0255341 -0.00216327 5.59149e-08
-0.00216327 0.0318024 -1.50308e-07
5.59149e-08 -1.50308e-07 0.0258542

0.0347001 -0.00231407 -1.53667e-08
-0.00231407 0.0283348 3.01373e-08
-1.53667e-08 3.01373e-08 0.0314564

0.034186 0.00222299 -1.50931e-07
0.00222299 0.0274323 7.04007e-08
-1.50931e-07 7.04007e-08 0.0306042

0.0336452 -0.0012459 7.38502e-08
-0.0012459 0.0392998 6.3242e-08
7.38502e-08 6.3242e-08 0.0349277

0.0320725 -0.00174669 -1.62655e-07
-0.00174669 0.0253308 -1.41923e-07
-1.62655e-07 -1.41923e-07 0.0258715

0.0250021 7.96538e-05 -5.43543e-08
7.96538e-05 0.0331517 -1.33959e-07
-5.43543e-08 -1.33959e-07 0.0268616

0.0332478 0.00242875 1.84879e-07
0.00242875 0.0271941 -2.81444e-08
1.84879e-07 -2.81444e-08 0.0289224

0.0311179 0.00359893 -3.29172e-08
0.00359893 0.027293 -1.54537e-07
-3.29172e-08 -1.54537e-07 0.0271229

0.0252957 -0.00204123 -8.06123e-09
-0.00204123 0.031865 -1.74935e-07
-8.06123e-09 -1.74935e-07 0.0256114

0.0252014 -0.000154596 1.9346e-08
-0.000154596 0.0332919 9.82785e-08
1.9346e-08 9.82785e-08 0.0271444

0.0354138 0.00385823 1.44394e-07
0.00385823 0.0329959 -1.15011e-08
1.44394e-07 -1.15011e-08 0.0338957

0.0275861 -0.0014312 6.39672e-09
-0.0014312 0.0353422 -8.28461e-08
6.39672e-09 -8.28461e-08 0.0314424

0.0312344 -0.00348389 2.7752e-08
-0.00348389 0.026978 -2.21996e-07
2.7752e-08 -2.21996e-07 0.0270101

0.031297 0.0027726 -2.80284e-07
0.0027726 0.0249224 3.03896e-08
-2.80284e-07 3.03896e-08 0.0252465

0.034583 0.00311852 -1.32138e-07
0.00311852 0.0293868 1.05548e-07
-1.32138e-07 1.05548e-07 0.0317961

0.0279916 0.000716776 -8.70152e-08
0.000716776 0.0360399 -2.18891e-07
-8.70152e-08 -2.18891e-07 0.0318185

0.0287168 0.0037813 -2.07483e-08
0.0037813 0.0285593 2.00281e-07
-2.07483e-08 2.00281e-07 0.0257282

0.0367907 0.00305784 -1.14765e-07
0.00305784 0.0361258 1.67718e-07
-1.14765e-07 1.67718e-07 0.0349073

0.0226802 -0.00754537 -2.22425e-07
-0.00754537 0.0186879 -4.42809e-08
-2.22425e-07 -4.42809e-08 0.0108452

0.0332917 -0.00328742 1.02153e-07
-0.00328742 0.0286328 -1.09517e-07
1.02153e-07 -1.09517e-07 0.0301243

0.020727 0.000913465 1.50406e-08
0.000913465 0.0300315 -7.69497e-08
1.50406e-08 -7.69497e-08 0.0183466

0.0313005 -0.00378172 1.12556e-08
-0.00378172 0.0292317 2.12271e-07
1.12556e-08 2.12271e-07 0.0290319

0.00153958 -0.00651884 -4.44842e-08
-0.00651884 0.0275686 1.94898e-07
-4.44842e-08 1.94898e-07 0.00290837

0.00146997 0.0063684 -1.41589e-08
0.0063684 0.0275865 -6.20342e-08
-1.41589e-08 -6.20342e-08 0.00300133

0.0119847 0.014505 5.519e-08
0.014505 0.0175326 6.92061e-08
5.519e-08 6.92061e-08 0.00277125

0.0121661 -0.0144958 4.36744e-08
-0.0144958 0.0172241 -5.4766e-08
4.36744e-08 -5.4766e-08 0.00280386

0.0293409 -0.000164091 5.35497e-08
-0.000164091 0 0
5.35497e-08 0 0.00295268

0.0235925 -0.0112827 3.66289e-08
-0.0112827 0.0053955 -1.76396e-08
3.66289e-08 -1.76396e-08 0.00297837

0.0236343 0.011349 -1.34798e-07
0.011349 0.0054496 -6.49151e-08
-1.34798e-07 -6.49151e-08 0.00303954

0.0369115 0.00191158 1.47349e-07
0.00191158 0.0302426 7.69495e-08
1.47349e-07 7.69495e-08 0.0338782

0.0387053 0.00341017 1.25836e-07
0.00341017 0.0366177 -1.10173e-08
1.25836e-07 -1.10173e-08 0.0355789

0.0344157 0.000872199 6.18278e-08
0.000872199 0.0274573 5.16763e-08
6.18278e-08 5.16763e-08 0.0316884

0.0328736 0.00285036 1.09937e-07
0.00285036 0.0268898 1.06821e-07
1.09937e-07 1.06821e-07 0.0286468

0.0257012 0.00231327 3.62915e-08
0.00231327 0.0323673 7.48079e-09
3.62915e-08 7.48079e-09 0.0276361

0.0307132 0.00376911 -6.84929e-08
0.00376911 0.0276766 -1.01847e-07
-6.84929e-08 -1.01847e-07 0.0271181

0.033306 -0.0039031 -5.38728e-08
-0.0039031 0.0304663 -5.94629e-09
-5.38728e-08 -5.94629e-09 0.0316304

0.030974 0.00365456 -9.4571e-08
0.00365456 0.0272872 -1.49545e-07
-9.4571e-08 -1.49545e-07 0.0269258

0.0249876 -0.000371465 8.46962e-08
-0.000371465 0.0331228 -1.29497e-07
8.46962e-08 -1.29497e-07 0.0268437

0.0385482 -0.0034846 -1.18293e-07
-0.0034846 0.0368812 -1.19462e-07
-1.18293e-07 -1.19462e-07 0.0355845

0.025176 -0.000635729 -3.40916e-08
-0.000635729 0.0332105 9.37417e-08
-3.40916e-08 9.37417e-08 0.0271033

0.0360188 0.0030474 1.13348e-07
0.0030474 0.0330118 7.14744e-08
1.13348e-07 7.14744e-08 0.0340986

0.0296237 0.00347583 1.80349e-07
0.00347583 0.0248468 3.77472e-09
1.80349e-07 3.77472e-09 0.0230233

0.0304969 -0.00171379 8.03646e-08
-0.00171379 0.0375133 -1.75169e-07
8.03646e-08 -1.75169e-07 0.0347371

0.0339205 0.00180446 9.11813e-08
0.00180446 0.0271823 -2.9066e-08
9.11813e-08 -2.9066e-08 0.0303211

0.0312019 -0.00392041 -1.93618e-07
-0.00392041 0.0285317 1.48544e-07
-1.93618e-07 1.48544e-07 0.0286151

0.0315843 -0.00322154 1.41976e-07
-0.00322154 0.0266923 -2.24108e-09
1.41976e-07 -2.24108e-09 0.0270483

0.0384801 -0.00214153 -5.29112e-08
-0.00214153 0.0334176 -2.065e-07
-5.29112e-08 -2.065e-07 0.0347455

0.0326818 0.00366401 1.6105e-07
0.00366401 0.0292328 -8.89341e-08
1.6105e-07 -8.89341e-08 0.0301556

0.0326454 0.00313755 1.31515e-07
0.00313755 0.027253 -1.481e-07
1.31515e-07 -1.481e-07 0.0287886

0.0269558 -0.00036523 1.70274e-07
-0.00036523 0.0349884 2.16769e-08
1.70274e-07 2.16769e-08 0.0301687

0.0259003 0.000765965 6.12088e-08
0.000765965 0.0340044 1.88923e-07
6.12088e-08 1.88923e-07 0.0288237

0.0327793 0.000345284 8.26622e-08
0.000345284 0.0248624 9.45686e-08
8.26622e-08 9.45686e-08 0.0274445

0.0313881 -0.00094483 -6.49899e-08
-0.00094483 0.0230045 -8.58843e-08
-6.49899e-08 -8.58843e-08 0.0238928

0.0308814 0.00398532 -6.07831e-08
0.00398532 0.0288068 -8.77154e-08
-6.07831e-08 -8.77154e-08 0.0286248

0.033119 -0.00343153 1.41788e-08
-0.00343153 0.0285413 1.50804e-07
1.41788e-08 1.50804e-07 0.0299701

0.0364132 -0.00282357 -9.5804e-08
-0.00282357 0.0327335 -1.27983e-07
-9.5804e-08 -1.27983e-07 0.0341448

0.0292071 -0.0041276 4.96104e-08
-0.0041276 0.0291934 2.14717e-07
4.96104e-08 2.14717e-07 0.0277546

0.0269729 -0.00362048 2.43457e-08
-0.00362048 0.0304657 2.16208e-07
2.43457e-08 2.16208e-07 0.0272141

0.0283272 0.00389959 3.62744e-08
0.00389959 0.0299018 1.67421e-07
3.62744e-08 1.67421e-07 0.0277527

0.025902 -0.00124889 -9.60691e-08
-0.00124889 0.0336144 1.5585e-07
-9.60691e-08 1.5585e-07 0.0285167

0.0266552 -0.000202049 -1.64157e-07
-0.000202049 0.0349136 3.07052e-08
-1.64157e-07 3.07052e-08 0.0299206

0.0277631 0.000752834 5.9146e-08
0.000752834 0.0360393 -2.19964e-07
5.9146e-08 -2.19964e-07 0.031659

0.0262479 -0.00274954 -1.18949e-09
-0.00274954 0.0319637 -6.52766e-08
-1.18949e-09 -6.52766e-08 0.0277114

0.0345836 0.00317573 -2.30733e-08
0.00317573 0.0291692 -9.98429e-08
-2.30733e-08 -9.98429e-08 0.0316351

0.0339101 -0.00126104 1.87374e-08
-0.00126104 0.026931 -1.54933e-08
1.87374e-08 -1.54933e-08 0.0302025

0.025791 0.000974313 9.22204e-08
0.000974313 0.0338307 1.27817e-07
9.22204e-08 1.27817e-07 0.0285427

0.0278248 -0.0012701 -8.02874e-08
-0.0012701 0.035398 -1.00532e-07
-8.02874e-08 -1.00532e-07 0.0313668

0.0272937 -0.00213738 2.83689e-08
-0.00213738 0.033658 -3.56468e-08
2.83689e-08 -3.56468e-08 0.0302265

0.0327778 -0.00107724 3.11623e-08
-0.00107724 0.0253207 1.59071e-07
3.11623e-08 1.59071e-07 0.027255

0.0333161 -0.00427113 1.01544e-07
-0.00427113 0.0323815 -1.3843e-07
1.01544e-07 -1.3843e-07 0.03353

0.0264894 0.00121963 -3.63542e-08
0.00121963 0.0338367 1.26232e-07
-3.63542e-08 1.26232e-07 0.0288168

0.0398121 -0.00243154 -7.43625e-08
-0.00243154 0.0352192 2.66921e-07
-7.43625e-08 2.66921e-07 0.0354618

0.0188893 0.00316474 3.35966e-08
0.00316474 0.027877 -1.10213e-07
3.35966e-08 -1.10213e-07 0.0162733

0.0338167 -0.00352277 1.89762e-07
-0.00352277 0.0334953 2.04207e-09
1.89762e-07 2.04207e-09 0.0337269

0.0353451 -0.00399955 2.24339e-08
-0.00399955 0.0330471 -1.98062e-07
2.24339e-08 -1.98062e-07 0.0339047

0.0266865 -9.03478e-05 1.47488e-07
-9.03478e-05 0.0349187 3.78534e-08
1.47488e-07 3.78534e-08 0.0299288

0.0332439 -0.00217653 -6.24969e-08
-0.00217653 0.0271539 -1.81566e-07
-6.24969e-08 -1.81566e-07 0.0289034

0.0293483 0.00168475 1.26798e-08
0.00168475 0.0358203 -6.61843e-08
1.26798e-08 -6.61843e-08 0.0328805

0.0132078 -0.000379149 1.20306e-07
-0.000379149 0.0283628 1.4191e-07
1.20306e-07 1.4191e-07 0.0111521

0.0271144 0.00186825 -1.17304e-07
0.00186825 0.0340625 -2.60127e-08
-1.17304e-07 -2.60127e-08 0.030307

0.03111 -0.0038585 -2.55978e-07
-0.0038585 0.0291547 2.29133e-08
-2.55978e-07 2.29133e-08 0.0288071

0.0186202 0.00320462 9.00996e-08
0.00320462 0.0301403 4.61287e-08
9.00996e-08 4.61287e-08 0.0131272

0.0426003 0.00351701 -4.10922e-07
0.00351701 0.0418494 2.75297e-07
-4.10922e-07 2.75297e-07 0.036481

0.043206 -0.00374836 1.47336e-07
-0.00374836 0.0414175 -1.47261e-07
1.47336e-07 -1.47261e-07 0.0364634

0.0310659 -0.00399086 1.53239e-07
-0.00399086 0.0304719 -1.09574e-08
1.53239e-07 -1.09574e-08 0.0304617

0.0289226 -0.00406406 5.07839e-08
-0.00406406 0.0291511 2.56891e-08
5.07839e-08 2.56891e-08 0.027595

0.0330518 0.00272674 -1.28573e-08
0.00272674 0.0275291 8.23567e-08
-1.28573e-08 8.23567e-08 0.0290761

0.0327807 0.00196018 3.82457e-09
0.00196018 0.0255918 1.14025e-07
3.82457e-09 1.14025e-07 0.0278234

0.0464016 0.000418534 -5.75207e-07
0.000418534 0.046356 3.48001e-07
-5.75207e-07 3.48001e-07 0.0366952

0.0469203 -0.000951666 -3.3336e-07
-0.000951666 0.0457683 1.28451e-07
-3.3336e-07 1.28451e-07 0.0367663

0.0347999 0.000638332 -4.96869e-08
0.000638332 0.0275736 1.48649e-07
-4.96869e-08 1.48649e-07 0.0322172

0.0277524 0.000882155 -1.29245e-07
0.000882155 0.0355712 -5.92429e-09
-1.29245e-07 -5.92429e-09 0.0313493

0.0276082 0.000883033 1.2611e-07
0.000883033 0.0355714 1.3705e-09
1.2611e-07 1.3705e-09 0.0312454

0.0234596 0.00740022 8.48827e-08
0.00740022 0.0183022 3.24988e-07
8.48827e-08 3.24988e-07 0.0109018

0.0272477 -0.00367564 -7.43572e-08
-0.00367564 0.0303477 6.43681e-08
-7.43572e-08 6.43681e-08 0.02732

0.0365682 0.00239147 1.05865e-07
0.00239147 0.0295766 1.30007e-07
1.05865e-07 1.30007e-07 0.033785

0.033275 0.00124752 4.7534e-08
0.00124752 0.0265046 3.00078e-08
4.7534e-08 3.00078e-08 0.0284324

0.0291528 -0.00349242 1.61342e-07
-0.00349242 0.0304719 2.27803e-07
1.61342e-07 2.27803e-07 0.0281738

0.0328117 -0.00264787 5.17499e-08
-0.00264787 0.0267285 -5.20268e-09
5.17499e-08 -5.20268e-09 0.0285872

0.0224605 0.00761292 -1.48768e-08
0.00761292 0.0185908 4.22338e-07
-1.48768e-08 4.22338e-07 0.0109042

0.0331455 0.00410237 3.08681e-08
0.00410237 0.0326389 9.58178e-08
3.08681e-08 9.58178e-08 0.0331821

0.0258906 -0.00257836 -1.48738e-07
-0.00257836 0.0320248 5.57599e-08
-1.48738e-07 5.57599e-08 0.0275079

0.0324829 0.00378585 3.8436e-09
0.00378585 0.0292685 1.24464e-07
3.8436e-09 1.24464e-07 0.0301474

0.0268164 -0.0005436 1.23444e-07
-0.0005436 0.0349534 1.689e-08
1.23444e-07 1.689e-08 0.0301384

0.0269903 0.00256329 2.26117e-07
0.00256329 0.0324492 -9.98492e-08
2.26117e-07 -9.98492e-08 0.0282869

0.0305267 0.00399113 4.58926e-08
0.00399113 0.0293237 1.28215e-07
4.58926e-08 1.28215e-07 0.0287756

0.0276092 -0.00293732 -1.48484e-07
-0.00293732 0.0318542 -9.144e-08
-1.48484e-07 -9.144e-08 0.0282495

0.0294565 -0.00357592 -3.67744e-08
-0.00357592 0.0303514 6.68559e-08
-3.67744e-08 6.68559e-08 0.0283054

0.0181379 0.00142554 -3.27264e-08
0.00142554 0.0280368 1.75222e-08
-3.27264e-08 1.75222e-08 0.0131278

0.0234741 -0.00429398 4.28604e-08
-0.00429398 0.0275566 -9.2636e-08
4.28604e-08 -9.2636e-08 0.0177236

0.0262059 -0.0015262 8.23266e-08
-0.0015262 0.0336239 -7.53513e-08
8.23266e-08 -7.53513e-08 0.0287523

0.0330242 0.00347483 1.34772e-07
0.00347483 0.0288783 -1.04517e-07
1.34772e-07 -1.04517e-07 0.0300693

0.0303221 0.00385748 1.24848e-08
0.00385748 0.029887 1.66008e-07
1.24848e-08 1.66008e-07 0.0289907

0.0274149 -0.00280068 -5.59185e-08
-0.00280068 0.0319844 6.254e-08
-5.59185e-08 6.254e-08 0.0281395

0.0265549 -0.00154087 -9.53064e-08
-0.00154087 0.0335828 1.55924e-07
-9.53064e-08 1.55924e-07 0.0287467

0.0309569 0.00371836 -1.65966e-07
0.00371836 0.0295641 1.18749e-07
-1.65966e-07 1.18749e-07 0.0289416

0.0267598 -0.00181607 -1.37488e-08
-0.00181607 0.0334744 -9.59356e-08
-1.37488e-08 -9.59356e-08 0.0289547

0.0191663 0.00355455 -1.8394e-08
0.00355455 0.0276082 1.45413e-07
-1.8394e-08 1.45413e-07 0.0162925

0.0308738 -0.00053456 -2.80271e-08
-0.00053456 0.0388197 1.89395e-07
-2.80271e-08 1.89395e-07 0.0342948

0.0286569 0.00404787 -8.04455e-08
0.00404787 0.0295192 1.09074e-07
-8.04455e-08 1.09074e-07 0.027715

0.0355805 0.00197523 1.70917e-07
0.00197523 0.0295033 8.98469e-08
1.70917e-07 8.98469e-08 0.032843

0.0362595 -0.00211502 -1.26594e-07
-0.00211502 0.0297557 -2.78818e-08
-1.26594e-07 -2.78818e-08 0.0332182

0.0285112 -0.00309572 1.68216e-07
-0.00309572 0.0185692 2.70906e-07
1.68216e-07 2.70906e-07 0.0157301

0.0283539 -0.00279009 -2.19275e-07
-0.00279009 0.0327761 -8.609e-09
-2.19275e-07 -8.609e-09 0.030572

0.0291915 0.00350072 -1.44655e-07
0.00350072 0.0316004 -1.29288e-07
-1.44655e-07 -1.29288e-07 0.0304878

0.0349601 -0.0029078 -7.1435e-08
-0.0029078 0.0376754 1.2161e-07
-7.1435e-08 1.2161e-07 0.0352364

0.0394603 0.00188527 -4.53604e-07
0.00188527 0.0446087 -1.59907e-07
-4.53604e-07 -1.59907e-07 0.0364332

0.0449441 0.0012901 -2.27048e-07
0.0012901 0.0391164 4.00961e-07
-2.27048e-07 4.00961e-07 0.0364151

0.0355609 0.00434542 9.62496e-08
0.00434542 0.0351355 5.90642e-08
9.62496e-08 5.90642e-08 0.0350037

0.026572 0.00338792 1.23611e-07
0.00338792 0.0310067 1.69602e-07
1.23611e-07 1.69602e-07 0.0272562

0.0330398 0.00349707 7.5311e-08
0.00349707 0.0286674 4.49745e-08
7.5311e-08 4.49745e-08 0.0300504

0.0220601 0.00576435 3.70479e-07
0.00576435 0.0242378 -6.8415e-08
3.70479e-07 -6.8415e-08 0.0160726

0.0386183 -0.00151197 -2.45128e-08
-0.00151197 0.0444319 7.099e-08
-2.45128e-08 7.099e-08 0.0363623

0.046048 -0.000463949 4.00314e-07
-0.000463949 0.0454387 -4.93831e-07
4.00314e-07 -4.93831e-07 0.0366913

0.0451801 -3.22533e-05 -1.04792e-07
-3.22533e-05 0.0463016 -4.0321e-07
-1.04792e-07 -4.0321e-07 0.0366732

0.0176411 -0.00679501 -3.03033e-07
-0.00679501 0.0231086 1.68693e-07
-3.03033e-07 1.68693e-07 0.0107387

0.0392922 -0.00155579 3.12526e-07
-0.00155579 0.0387148 -2.81464e-07
3.12526e-07 -2.81464e-07 0.0358539

0.0383968 0.00117641 1.65251e-07
0.00117641 0.0415181 5.40688e-08
1.65251e-07 5.40688e-08 0.0361252

0.0331756 -0.00343579 -1.37296e-08
-0.00343579 0.0282199 8.63869e-08
-1.37296e-08 8.63869e-08 0.0299038

0.0318448 0.000140133 1.60952e-07
0.000140133 0.0386725 1.70217e-07
1.60952e-07 1.70217e-07 0.0344508

0.0285771 -0.00266014 4.02473e-08
-0.00266014 0.0333814 -1.66534e-08
4.02473e-08 -1.66534e-08 0.0315897

0.0356626 0.000831969 -1.93332e-07
0.000831969 0.0273781 4.09528e-08
-1.93332e-07 4.09528e-08 0.0330005

0.0288763 0.00204438 -2.50188e-08
0.00204438 0.036817 -1.25954e-07
-2.50188e-08 -1.25954e-07 0.03367

0.0298697 0.000946636 1.0163e-07
0.000946636 0.0373887 -1.14349e-07
1.0163e-07 -1.14349e-07 0.0333639

0.0344014 0.00268486 4.61297e-08
0.00268486 0.028852 4.87481e-08
4.61297e-08 4.87481e-08 0.0312267

0.0132793 -0.000409459 -1.19946e-07
-0.000409459 0.0281234 -3.65223e-08
-1.19946e-07 -3.65223e-08 0.0112016

0.0309651 -0.00362628 -1.88972e-07
-0.00362628 0.0309161 1.04853e-07
-1.88972e-07 1.04853e-07 0.03061

0.0329288 -0.00344351 -6.4383e-08
-0.00344351 0.0320211 3.1571e-08
-6.4383e-08 3.1571e-08 0.0325797

0.0335711 -0.00415896 3.83357e-08
-0.00415896 0.0325353 -1.78558e-07
3.83357e-08 -1.78558e-07 0.0337361

0.0265625 0.00414877 1.91224e-07
0.00414877 0.0176918 1.85199e-07
1.91224e-07 1.85199e-07 0.0126054

0.0388288 -0.00269597 1.27817e-07
-0.00269597 0.0395761 -1.07688e-07
1.27817e-07 -1.07688e-07 0.0359587

0.0230833 0.00692096 2.52476e-07
0.00692096 0.0255025 -2.24065e-07
2.52476e-07 -2.24065e-07 0.0126097

0.0308753 -0.00281754 7.23119e-08
-0.00281754 0.0348081 -1.83355e-07
7.23119e-08 -1.83355e-07 0.0339567

0.0354123 0.00193635 -5.72544e-08
0.00193635 0.0284662 -1.18066e-07
-5.72544e-08 -1.18066e-07 0.0323451

0.0318218 -0.00189342 -1.79557e-07
-0.00189342 0.0249512 1.02199e-07
-1.79557e-07 1.02199e-07 0.0253959

0.0292929 0.00315891 -1.64448e-07
0.00315891 0.0327323 -7.17793e-08
-1.64448e-07 -7.17793e-08 0.0312801

0.0344368 0.00268862 8.34323e-08
0.00268862 0.0286349 -3.97917e-08
8.34323e-08 -3.97917e-08 0.0312213

0.032519 0.00149907 7.04344e-09
0.00149907 0.0403744 -2.21689e-07
7.04344e-09 -2.21689e-07 0.0353369

0.0319407 -0.00415462 -7.21379e-08
-0.00415462 0.031202 4.32292e-08
-7.21379e-08 4.32292e-08 0.0318111

0.0396771 0.00265556 -8.4056e-08
0.00265556 0.0331987 -3.14354e-08
-8.4056e-08 -3.14354e-08 0.0353164

0.0279719 -0.0024184 5.42312e-08
-0.0024184 0.0335518 -3.15551e-08
5.42312e-08 -3.15551e-08 0.0304711

0.0293514 0.000558385 6.25352e-08
0.000558385 0.0373123 -1.18475e-07
6.25352e-08 -1.18475e-07 0.0332531

0.0419442 0.00133754 -5.54965e-07
0.00133754 0.0371004 7.71789e-08
-5.54965e-07 7.71789e-08 0.0361166

0.0420973 -0.00114787 9.72643e-08
-0.00114787 0.0373267 -9.72148e-08
9.72643e-08 -9.72148e-08 0.0360985

0.0283838 0.00236915 -2.00972e-07
0.00236915 0.0181819 2.44365e-07
-2.00972e-07 2.44365e-07 0.0159501

0.0350271 0.00106119 -1.05231e-07
0.00106119 0.0285666 -1.1543e-07
-1.05231e-07 -1.1543e-07 0.0330595

0.0128672 0.000923332 -1.38435e-07
0.000923332 0.031627 1.08478e-07
-1.38435e-07 1.08478e-07 0.00612187

0.0131628 -0.00138818 1.12927e-07
-0.00138818 0.0321328 -1.75335e-07
1.12927e-07 -1.75335e-07 0.00611219

0.015269 0.00715439 5.78264e-08
0.00715439 0.0284535 6.07281e-08
5.78264e-08 6.07281e-08 0.0059843

0.0347646 -0.00382105 1.29902e-07
-0.00382105 0.0312685 1.14273e-07
1.29902e-07 1.14273e-07 0.0329396

0.0155811 -0.00619448 3.38256e-07
-0.00619448 0.0261535 1.46997e-07
3.38256e-07 1.46997e-07 0.0104722

0.0155132 -0.00708696 -2.19366e-09
-0.00708696 0.0274241 -2.19373e-07
-2.19366e-09 -2.19373e-07 0.00591411

0.0284268 0.00342579 3.48752e-08
0.00342579 0.031007 1.69407e-07
3.48752e-08 1.69407e-07 0.0281532

0.0251939 0.00932599 -2.74195e-07
0.00932599 0.0190212 1.31875e-07
-2.74195e-07 1.31875e-07 0.00593397

0.0365383 0.00173153 2.02091e-07
0.00173153 0.038552 -7.86165e-08
2.02091e-07 -7.86165e-08 0.0354756

0.0395351 2.56544e-05 1.15152e-07
2.56544e-05 0.0355401 -1.1908e-07
1.15152e-07 -1.1908e-07 0.0354563

0.0261077 -0.00924461 -1.64205e-07
-0.00924461 0.0188129 -9.85334e-08
-1.64205e-07 -9.85334e-08 0.00588814

0.0276905 -0.00306507 2.93195e-08
-0.00306507 0.0320954 -8.06212e-08
2.93195e-08 -8.06212e-08 0.0296235

0.0262558 0.00441831 1.62425e-07
0.00441831 0.0201584 2.96397e-07
1.62425e-07 2.96397e-07 0.0130449

0.0172796 0.0079732 7.53254e-08
0.0079732 0.0271495 -3.56909e-08
7.53254e-08 -3.56909e-08 0.00598798

0.0181967 0.00275522 -9.02641e-08
0.00275522 0.0275904 2.71424e-08
-9.02641e-08 2.71424e-08 0.0128504

0.0173045 -0.00827642 3.73984e-07
-0.00827642 0.0271529 6.63403e-08
3.73984e-07 6.63403e-08 0.0058139

0.0179333 -0.00157096 8.53647e-08
-0.00157096 0.028006 -1.48642e-07
8.53647e-08 -1.48642e-07 0.0126908

0.0370505 0.000923081 1.18829e-07
0.000923081 0.041301 -2.44027e-07
1.18829e-07 -2.44027e-07 0.0358104

0.0221317 -0.00585539 -8.36083e-08
-0.00585539 0.0236652 1.21654e-07
-8.36083e-08 1.21654e-07 0.0151592

0.0157004 0.00598637 4.25939e-09
0.00598637 0.025903 -1.89343e-07
4.25939e-09 -1.89343e-07 0.0107504

0.0302092 0.00473018 -9.83472e-08
0.00473018 0.0143495 -2.63384e-07
-9.83472e-08 -2.63384e-07 0.00611597

0.0329393 -0.00384933 9.16404e-08
-0.00384933 0.0301246 -4.70966e-08
9.16404e-08 -4.70966e-08 0.0310518

0.0308892 0.00169375 5.59921e-08
0.00169375 0.0368435 -1.29483e-07
5.59921e-08 -1.29483e-07 0.0339507

0.0260905 -0.004844 3.20746e-08
-0.004844 0.0191977 -8.52988e-08
3.20746e-08 -8.52988e-08 0.0126953

0.0330014 -0.00378595 1.08171e-07
-0.00378595 0.0300757 -7.91691e-09
1.08171e-07 -7.91691e-09 0.0311282

0.0300194 -0.00451999 -6.18982e-08
-0.00451999 0.0130538 2.00246e-07
-6.18982e-08 2.00246e-07 0.00603741

0.0324741 -0.0037273 -7.14442e-09
-0.0037273 0.031308 1.38593e-07
-7.14442e-09 1.38593e-07 0.03198

0.0280915 -0.00331134 -2.16858e-07
-0.00331134 0.0320043 -1.96021e-09
-2.16858e-07 -1.96021e-09 0.0296259

0.0234439 0.0087438 -1.27965e-07
0.0087438 0.0204832 1.51824e-07
-1.27965e-07 1.51824e-07 0.00602631

0.0182001 -0.00292083 2.41384e-07
-0.00292083 0.0268669 -8.52749e-08
2.41384e-07 -8.52749e-08 0.0122703

0.0233151 -0.00901935 4.87288e-08
-0.00901935 0.0201525 -2.46788e-07
4.87288e-08 -2.46788e-07 0.0058841

0.0170827 0.0064084 7.19646e-08
0.0064084 0.0235664 7.87744e-08
7.19646e-08 7.87744e-08 0.0108313

0.0308268 -0.00396024 -2.29654e-07
-0.00396024 0.0301608 -1.85951e-08
-2.29654e-07 -1.85951e-08 0.0300861

0.0389184 -0.00195894 -3.57887e-07
-0.00195894 0.0369408 -4.25136e-09
-3.57887e-07 -4.25136e-09 0.0354999

0.045541 0.00150582 2.17188e-07
0.00150582 0.0449514 2.44579e-07
2.17188e-07 2.44579e-07 0.0366195

0.0435647 -0.000712497 2.25751e-07
-0.000712497 0.0462316 -3.32511e-08
2.25751e-07 -3.32511e-08 0.0365851

0.0286161 0.00171567 -6.37847e-08
0.00171567 0.0355665 1.20842e-07
-6.37847e-08 1.20842e-07 0.0323902

0.0453362 -0.00144692 -5.10046e-07
-0.00144692 0.0449791 2.91601e-07
-5.10046e-07 2.91601e-07 0.0366372

0.0438073 0.000568377 3.22314e-08
0.000568377 0.0465063 1.88441e-07
3.22314e-08 1.88441e-07 0.0366183

0.04668 0.00099142 -1.07371e-07
0.00099142 0.0433769 8.61886e-09
-1.07371e-07 8.61886e-09 0.0365933

0.0397505 -0.00163928 1.36011e-07
-0.00163928 0.0460747 1.43723e-07
1.36011e-07 1.43723e-07 0.0364831

0.0190543 -0.00388737 1.98211e-07
-0.00388737 0.0272312 4.7549e-09
1.98211e-07 4.7549e-09 0.0154714

0.0421403 -0.0017505 4.58637e-07
-0.0017505 0.0367256 -1.69012e-07
4.58637e-07 -1.69012e-07 0.0360052

0.0359645 -0.00457326 -5.33433e-08
-0.00457326 0.035151 5.01477e-08
-5.33433e-08 5.01477e-08 0.0349686

0.0397533 -0.00242138 -3.45326e-08
-0.00242138 0.0360645 5.54989e-08
-3.45326e-08 5.54989e-08 0.0355676

0.0351851 0.00204331 -1.10443e-07
0.00204331 0.0285495 -5.22019e-08
-1.10443e-07 -5.22019e-08 0.0322324

0.0396926 0.00133788 1.56531e-07
0.00133788 0.0472264 -5.71242e-07
1.56531e-07 -5.71242e-07 0.036549

0.0464955 0.00259367 -1.81764e-07
0.00259367 0.0404181 -3.32947e-07
-1.81764e-07 -3.32947e-07 0.0365302

0.0400871 0.00150562 1.00934e-07
0.00150562 0.0366744 5.72656e-08
1.00934e-07 5.72656e-08 0.0356157

0.0279151 -0.00191998 1.92853e-07
-0.00191998 0.0125249 1.74044e-07
1.92853e-07 1.74044e-07 0.0106247

0.0283197 0.00326785 -2.57283e-08
0.00326785 0.0315508 -8.31358e-08
-2.57283e-08 -8.31358e-08 0.0294112

0.0231886 -0.00773609 -1.17968e-07
-0.00773609 0.0181803 -1.14337e-07
-1.17968e-07 -1.14337e-07 0.0102896

0.0228312 -0.0073159 -5.86706e-08
-0.0073159 0.0257691 9.8442e-08
-5.86706e-08 9.8442e-08 0.0119547

0.029023 -0.004647 1.58089e-07
-0.004647 0.0191286 2.71876e-07
1.58089e-07 2.71876e-07 0.0126153

0.0375745 -0.000660722 8.38893e-08
-0.000660722 0.0449117 2.07798e-07
8.38893e-08 2.07798e-07 0.0362942

0.0375724 0.000358227 5.06356e-08
0.000358227 0.0447889 2.17407e-07
5.06356e-08 2.17407e-07 0.0362744

0.042606 -0.0032748 1.56832e-07
-0.0032748 0.0394511 -2.35605e-07
1.56832e-07 -2.35605e-07 0.0362282

0.0429991 -0.00294446 -1.56389e-07
-0.00294446 0.0391689 -4.32336e-08
-1.56389e-07 -4.32336e-08 0.0362352

0.0425017 0.00350425 8.59588e-08
0.00350425 0.0399734 5.52045e-08
8.59588e-08 5.52045e-08 0.036273

0.0443985 0.000418148 -6.27822e-07
0.000418148 0.0450806 -1.25454e-06
-6.27822e-07 -1.25454e-06 0.0366364

0.0426086 -0.00274439 1.45855e-07
-0.00274439 0.0395073 4.28234e-08
1.45855e-07 4.28234e-08 0.0362898

0.0426031 -0.00251159 -1.31952e-08
-0.00251159 0.0442674 6.61986e-07
-1.31952e-08 6.61986e-07 0.0365639

0.0451182 0.000331162 1.04368e-07
0.000331162 0.0454673 3.53589e-07
1.04368e-07 3.53589e-07 0.0366546

0.0436375 -0.00278331 -6.16984e-08
-0.00278331 0.0389169 7.20623e-09
-6.16984e-08 7.20623e-09 0.0363304

0.0435124 0.0028387 4.2196e-07
0.0028387 0.0390695 7.20649e-08
4.2196e-07 7.20649e-08 0.0363685

0.0451938 -0.000471138 6.57188e-07
-0.000471138 0.045582 -3.81555e-07
6.57188e-07 -3.81555e-07 0.0367033

0.045227 -0.000426384 -7.45651e-07
-0.000426384 0.0443626 7.31915e-07
-7.45651e-07 7.31915e-07 0.0367217

0.042798 0.00163935 -4.04776e-07
0.00163935 0.0442484 1.6175e-07
-4.04776e-07 1.6175e-07 0.0366077

0.0411164 0.00361828 -2.22996e-08
0.00361828 0.0405167 -1.10363e-07
-2.22996e-08 -1.10363e-07 0.0363224

SCALARS pressure float
LOOKUP_TABLE default
-60.0542
19.3088
5.80436
21.2906
15.879
5.88833
-58.6773
7.78392
-3.8041
15.1251
-24.4333
7.61808
5.59286
12.28
23.3373
5.53975
18.5213
13.2082
-0.69188
6.75766
-0.904018
33.1318
5.80186
5.79787
6.60292
14.9037
-38.3868
6.67273
-15.2422
30.6242
5.1771
-15.657
-42.0581
27.325
20.7781
27.3579
31.8824
19.8082
4.8604
-42.6014
-17.4073
31.9032
31.9913
5.99431
-21.8056
-15.9756
-1.05151
-3.40474
6.54583
-16.2177
-18.9188
-15.3455
20.7553
-15.3728
20.3085
-33.1497
21.1286
-15.4599
21.1384
7.04597
21.7651
16.1189
-45.5636
12.7901
16.3622
10.9057
21.5744
13.829
5.77452
21.8175
20.8114
20.782
-17.6909
11.6012
3.97476
-31.6111
14.3568
10.9969
14.147
-8.71939
-28.9454
14.9775
20.1635
-22.0382
-23.4296
-28.0928
7.09881
9.63299
-22.2163
37.7385
-15.5087
38.4411
18.3044
10.7622
-15.1662
-15.8726
-30.2219
14.754
14.3658
4.59949
-10.7657
-21.9396
-25.102
16.2137
14.1011
14.9621
18.6979
3.77557
-24.5588
26.5131
7.21864
-21.4094
-24.6125
14.8388
15.0785
-16.1454
20.164
-29.1138
20.6275
-16.729
-2.90385
23.8335
21.7276
16.0333
26.6797
22.6316
21.7847
15.709
-29.7816
-16.0987
24.0912
21.6179
20.9896
22.0662
-22.0139
23.5859
-33.8383
5.46416
21.7545
23.6293
-21.9369
6.67709
-5.96599
15.0843
-30.4081
15.6246
7.83409
2.40843
5.17857
-9.39391
-0.457134
22.642
-15.4544
5.29175
15.2049
21.5611
11.5088
-21.1133
-21.2638
10.7913
-2.84203
-15.1974
-21.2209
-15.1651
-20.9865
15.2802
-20.6358
-21.2016
-15.2076
-21.0638
19.0042
-15.9407
-14.8243
12.065
-14.4843
18.8032
19.0532
7.47359
18.0478
11.7739
-16.2489
15.2887
14.9614
-21.5285
10.4271
-14.2211
16.049
14.596
17.0818
14.8356
10.3444
-26.9768
-16.0819
-15.958
21.9075
14.5267
14.6255
20.9229
22.4874
9.50331
21.7343
-0.383805
-8.17024
20.7791
-17.8387
19.9459
10.3648
-21.5176
15.7215
22.5266
14.7313
9.39421
14.1908
21.0559
-7.83225
8.82822
-7.90807
14.6488
26.9276
26.5813
27.9604
26.3885
26.7243
26.2909
13.8267
23.4299
24.0291
23.9733
23.3996
21.1925
21.857
-8.26233
15.9342
28.1911
-3.18812
23.5757
23.2049
27.8344
-8.49306
28.0964
15.3451
-7.58107
17.4924
-8.2573
20.2275
29.6127
-7.48545
-8.10026
-29.5926
-18.1892
19.5276
-31.9862
5.73495
-7.79345
-1.18874
28.2492
26.6402
30.4248
26.7609
-34.8018
-8.17915
28.3374
8.07361
-8.29469
26.4459
-6.29476
30.4696
-7.95358
27.047
14.5664
14.788
23.8447
10.048
18.0209
8.11774
-29.8607
-24.5538
16.8068
1.76035
8.18025
-13.6085
17.436
11.7003
-8.10102
9.45271
-10.823
7.51758
-10.7542
-8.48426
33.2622
19.1515
25.088
25.3122
13.8298
-10.4041
26.4288
14.6853
-1.65843
-10.2734
-12.5639
17.5065
-7.48471
17.5745
-12.0409
-21.351
-10.6078
-34.6821
15.5629
-7.76246
34.4401
-11.5776
16.8719
-8.40828
15.9731
-12.7579
4.28964
-51.1201
8.52247
-7.74613
21.3337
-8.15166
-0.122246
10.7157
21.1247
-12.0603
-10.2003
-6.0678
14.3184
-10.1796
6.88847
6.38643
16.3053
-10.4191
-6.32993
-1.70182
-5.66
-11.0781
-5.84423
15.3058
7.8085
-5.55558
-8.96001
7.80587
7.69471
-10.6742
16.3092
-27.2152
2.29357
-28.4818
-0.957086
-8.88145
-8.09971
-11.7825
-10.9461
-9.88436
-7.77933
-7.9027
16.6382
24.7771
12.1167
-0.291088
-0.824589
-5.67415
7.30564
-6.32027
-6.31756
24.9229
-5.72957
14.1181
-15.9081
24.3248
5.96877
-0.390651
-5.64345
16.275
2.47756
0.199577
2.44855
0.456459
-0.740284
-9.9299
-0.095067
2.11372
15.069
-1.28774
-1.40662
-0.99829
-0.38808
1.96575
8.05119
-1.19303
8.07864
5.58382
-0.435132
7.03577
5.49086
-3.87605
16.4769
-1.903
23.0614
-21.974
15.0445
15.6827
2.04011
-1.99711
12.5434
-26.5077
5.79288
-1.65751
-50.4845
30.4966
30.6333
5.82552
-1.14382
-1.0464
-0.849142
33.4162
33.2909
13.0953
6.08232
6.66291
-28.9639
-1.27888
16.5337
-3.18233
-4.34778
-0.0164289
-25.2724
14.3038
-1.27966
2.86226
2.69366
-2.72285
-0.0488292
-3.2091
-4.03322
-37.9837
-33.684
-0.127536
1.8749
-0.533663
-3.74383
-1.93619
-1.87735
-0.923887
-21.9079
17.2496
-0.768765
12.5656
14.1841
-26.7648
6.28677
7.13741
18.4778
36.4259
36.4584
22.6385
-1.75527
2.60013
-20.9301
36.1246
32.7576
32.8246
-24.8098
21.7746
30.5221
2.59963
15.7239
10.3719
17.1648
17.7265
12.5059
5.68187
-25.3992
4.26049
10.4097
16.2442
-31.711
28.3087
-52.7116
18.6854
10.2994
-10.627
7.41778
5.45751
24.4741
9.41157
24.4071
4.10559
12.4001
30.6394
29.4652
-22.9906
17.436
-70.2323
-74.3789
-67.1763
11.6487
-31.2612
-63.6096
-3.80312
-69.9378
16.4629
16.4066
-73.754
5.21281
-39.7309
-70.7383
-37.7568
-71.8748
-39.4523
21.136
-23.9606
-29.0451
-70.6222
4.83182
15.7579
-36.1907
6.05399
-63.6173
9.8364
3.88229
-67.9008
-37.6244
-66.4103
-23.7564
5.02966
20.5256
35.3695
36.7251
11.8125
36.8489
36.9022
36.4906
36.4032
-24.4793
28.2474
20.6691
21.9801
11.5351
36.0591
36.0905
18.1197
-23.9413
3.24712
-30.5274
-56.5979
-50.4748
36.1423
35.8231
35.3798
35.45
36.1583
35.5974
33.109
37.3696
35.3987
36.0052
35.6374
34.1952
34.3317
35.8552
35.3088
