# vtk DataFile Version 3.0
vtk output at time 220
ASCII
DATASET UNSTRUCTURED_GRID
POINTS 626 float
-3.68058e-05 0.000978749 0 3.68058e-05 0.000978749 0 -0.000829194 0.00052125 0 
-0.0008235 0.0005 0 -0.000866 0.0004575 0 -0.000866 -0.0004575 0 
-0.0008235 -0.0005 0 -0.000829194 -0.00052125 0 -3.68058e-05 -0.000978749 0 
3.68058e-05 -0.000978749 0 0.000829194 -0.00052125 0 0.000866 -0.0004575 0 
0.000866 0.0004575 0 0.000829194 0.00052125 0 8.5e-05 0 0 
-3.68058e-05 0.000978749 -0.001 3.68058e-05 0.000978749 -0.001 -0.000829194 0.00052125 -0.001 
-0.0008235 0.0005 -0.001 -0.000866 0.0004575 -0.001 -0.000866 -0.0004575 -0.001 
-0.0008235 -0.0005 -0.001 -0.000829194 -0.00052125 -0.001 -3.68058e-05 -0.000978749 -0.001 
3.68058e-05 -0.000978749 -0.001 0.000829194 -0.00052125 -0.001 0.000866 -0.0004575 -0.001 
0.000866 0.0004575 -0.001 0.000829194 0.00052125 -0.001 8.5e-05 0 -0.001 
8.46223e-17 0.0009575 0 -0.000715996 0.000586607 0 -0.000602797 0.000651965 0 
-0.000489599 0.000717321 0 -0.000376401 0.000782678 0 -0.000263202 0.000848036 0 
-0.000150004 0.000913393 0 -0.000835948 0.000469948 0 -0.000866 -0.000326786 0 
-0.000866 -0.000196071 0 -0.000866 -6.53571e-05 0 -0.000866 6.53571e-05 0 
-0.000866 0.000196071 0 -0.000866 0.000326786 0 -0.000835948 -0.000469948 0 
-0.000150004 -0.000913393 0 -0.000263202 -0.000848036 0 -0.000376401 -0.000782678 0 
-0.000489599 -0.000717321 0 -0.000602797 -0.000651965 0 -0.000715996 -0.000586607 0 
8.47648e-17 -0.0009575 0 0.000715996 -0.000586607 0 0.000602797 -0.000651965 0 
0.000489599 -0.000717321 0 0.000376401 -0.000782678 0 0.000263202 -0.000848036 0 
0.000150004 -0.000913393 0 0.000829194 -0.00047875 0 0.000866 0.000326786 0 
0.000866 0.000196071 0 0.000866 6.53571e-05 0 0.000866 -6.53571e-05 0 
0.000866 -0.000196071 0 0.000866 -0.000326786 0 0.000829194 0.00047875 0 
0.000150004 0.000913393 0 0.000263202 0.000848036 0 0.000376401 0.000782678 0 
0.000489599 0.000717321 0 0.000602797 0.000651965 0 0.000715996 0.000586607 0 
5.29966e-05 6.64557e-05 0 -1.89143e-05 8.28689e-05 0 -7.65824e-05 3.68801e-05 0 
-7.65824e-05 -3.68801e-05 0 -1.89143e-05 -8.28689e-05 0 5.29966e-05 -6.64557e-05 0 
8.46223e-17 0.0009575 -0.001 -0.000715996 0.000586607 -0.001 -0.000602797 0.000651965 -0.001 
-0.000489599 0.000717321 -0.001 -0.000376401 0.000782678 -0.001 -0.000263202 0.000848036 -0.001 
-0.000150004 0.000913393 -0.001 -0.000835948 0.000469948 -0.001 -0.000866 -0.000326786 -0.001 
-0.000866 -0.000196071 -0.001 -0.000866 -6.53571e-05 -0.001 -0.000866 6.53571e-05 -0.001 
-0.000866 0.000196071 -0.001 -0.000866 0.000326786 -0.001 -0.000835948 -0.000469948 -0.001 
-0.000150004 -0.000913393 -0.001 -0.000263202 -0.000848036 -0.001 -0.000376401 -0.000782678 -0.001 
-0.000489599 -0.000717321 -0.001 -0.000602797 -0.000651965 -0.001 -0.000715996 -0.000586607 -0.001 
8.47648e-17 -0.0009575 -0.001 0.000715996 -0.000586607 -0.001 0.000602797 -0.000651965 -0.001 
0.000489599 -0.000717321 -0.001 0.000376401 -0.000782678 -0.001 0.000263202 -0.000848036 -0.001 
0.000150004 -0.000913393 -0.001 0.000829194 -0.00047875 -0.001 0.000866 0.000326786 -0.001 
0.000866 0.000196071 -0.001 0.000866 6.53571e-05 -0.001 0.000866 -6.53571e-05 -0.001 
0.000866 -0.000196071 -0.001 0.000866 -0.000326786 -0.001 0.000829194 0.00047875 -0.001 
0.000150004 0.000913393 -0.001 0.000263202 0.000848036 -0.001 0.000376401 0.000782678 -0.001 
0.000489599 0.000717321 -0.001 0.000602797 0.000651965 -0.001 0.000715996 0.000586607 -0.001 
5.29966e-05 6.64557e-05 -0.001 -1.89143e-05 8.28689e-05 -0.001 -7.65824e-05 3.68801e-05 -0.001 
-7.65824e-05 -3.68801e-05 -0.001 -1.89143e-05 -8.28689e-05 -0.001 5.29966e-05 -6.64557e-05 -0.001 
0.000131234 6.38474e-05 0 0.00012964 -6.2443e-05 0 3.13827e-05 0.0001394 0 
3.12554e-05 -0.000136939 0 -0.000140461 8.25467e-19 0 -8.90565e-05 -0.000102707 0 
-9.04142e-05 0.000102872 0 -0.000765769 -0.00025965 0 -0.000756873 0.000262774 0 
-0.00015609 0.000787505 0 -0.000155807 -0.00079355 0 0.000605069 0.000528035 0 
0.000608694 -0.00052497 0 0.000744069 0.000116929 0 -0.000494418 0.000596218 0 
-0.000483866 -0.000584648 0 0.000269496 0.000702219 0 0.000263201 -0.000717324 0 
0.000754429 -0.000127825 0 -0.000748858 5.84659e-07 0 -0.000747838 0.000373886 0 
-0.0006542 0.000324842 0 -0.000645137 0.000210123 0 -0.000550884 0.000274171 0 
-0.000538857 0.000163195 0 -0.00045062 0.000224461 0 -0.000438393 0.000123907 0 
-0.000354088 0.000181668 0 -0.000363908 0.000282171 0 -0.000270361 0.000239477 0 
-0.000279138 0.000337653 0 -0.000188888 0.000294791 0 -0.000196448 0.000393271 0 
-0.000104767 0.000348259 0 -0.000113332 0.000449012 0 -2.01066e-05 0.000403223 0 
-2.89189e-05 0.000507105 0 6.9524e-05 0.000461596 0 -0.000213644 0.000490203 0 
7.33757e-05 0.000357726 0 0.000163331 0.00041299 0 0.000163359 0.000313022 0 
0.000248077 0.000366368 0 0.000250914 0.000265758 0 0.000335709 0.000322266 0 
0.000340555 0.000218148 0 0.000427299 0.000276717 0 0.000431508 0.000173093 0 
0.000328731 0.000425633 0 0.00034586 0.000114823 0 0.000435362 7.05241e-05 0 
0.000350892 1.5455e-05 0 0.000441547 -3.11896e-05 0 0.000353547 -8.47783e-05 0 
0.000445767 -0.000132964 0 0.000356135 -0.000186358 0 0.000449094 -0.000234674 0 
0.000359978 -0.000287876 0 0.00026856 -0.000240545 0 0.000271895 -0.000341045 0 
0.000181792 -0.00029305 0 0.00018533 -0.000392851 0 9.75701e-05 -0.00034483 0 
9.98764e-05 -0.000444884 0 8.75116e-06 -0.000396343 0 1.20916e-05 -0.000500496 0 
-7.83929e-05 -0.000449843 0 -8.1471e-05 -0.000347249 0 -0.000171566 -0.000403733 0 
-0.000169889 -0.000298891 0 -0.000259867 -0.000354132 0 -0.000257696 -0.000249137 0 
-0.00034313 -0.000299896 0 -0.000344514 -0.000199127 0 -0.000434309 -0.000250039 0 
-0.000169832 -0.000505815 0 -0.000435227 -0.000146227 0 0.000280331 -0.000442424 0 
-0.000340889 8.76793e-05 0 -0.000515252 4.06198e-05 0 6.50491e-05 0.000568253 0 
0.00053278 1.74743e-05 0 0.000522071 0.000229831 0 -0.00037162 0.000391659 0 
-0.000255272 -0.000150439 0 -0.000442893 -0.000350705 0 0.000450067 -0.000332559 0 
0.000545175 -0.000276306 0 -0.000527797 -0.000197598 0 0.000105306 -0.000551033 0 
1.45836e-05 -0.000609147 0 0.00017145 0.000214453 0 0.000515525 0.000341711 0 
0.000636086 0.000290368 0 -0.000558657 0.000404468 0 -4.01232e-05 0.000616718 0 
6.60192e-05 0.000696422 0 -0.000101806 0.0002546 0 0.000271142 -3.88908e-05 0 
0.000179455 -0.00018534 0 -8.79553e-05 -0.000254307 0 -0.000749267 -0.000373451 0 
-0.000655941 -0.000323397 0 0.000709746 0.000466718 0 0.000698426 -0.000473086 0 
-5.25801e-05 -0.00084886 0 -4.93005e-05 0.000848038 0 0.000617396 -0.000413362 0 
0.000702056 -0.000369817 0 0.000131459 -0.000679171 0 2.48171e-05 -0.000715924 0 
-0.000664217 -0.00042729 0 -0.000528828 -8.80444e-05 0 -0.000611101 -0.000136672 0 
-0.000426972 -4.45841e-05 0 0.000800669 0.000378216 0 0.000821144 -0.000415062 0 
7.2799e-05 0.00088254 0 6.81831e-05 -0.00087503 0 0.000104963 -0.000788946 0 
-7.40696e-05 -0.000660054 0 0.000126061 0.000809943 0 0.000764361 0.000295682 0 
0.000166862 0.000630623 0 0.000516462 -0.00046707 0 -0.000563585 -0.000389606 0 
-0.000622598 -1.40238e-05 0 0.000629891 0.000171529 0 2.5614e-06 -0.000299794 0 
8.6901e-05 -0.00024329 0 0.000272045 -0.000136982 0 -0.00075148 0.000138321 0 
0.000209366 -0.000599589 0 0.000324913 -0.000630055 0 0.000614044 0.00041245 0 
0.00049651 -0.000573327 0 0.000394822 -0.000507321 0 -0.000173714 -0.000206698 0 
0.000264897 5.63722e-05 0 0.000247997 0.000152811 0 -4.63327e-05 -0.000920208 0 
9.18688e-05 0.000258626 0 -5.54111e-06 0.000290558 0 -0.000184219 0.000201484 0 
-0.000263559 0.000142267 0 -0.000256427 5.13624e-05 0 -0.000336894 -2.06179e-06 0 
-0.000228499 -4.2388e-05 0 -0.00017589 0.000106626 0 -0.000769947 -0.000133367 0 
0.000767591 -0.000500293 0 -5.05874e-05 0.000737978 0 0.000754456 -3.51771e-06 0 
0.00064691 -6.15298e-05 0 0.000630483 -0.00018134 0 0.000749187 -0.000265543 0 
-0.000760805 -0.000462521 0 0.000638155 6.09315e-05 0 -4.46661e-05 0.000922995 0 
-2.37945e-05 0.000207237 0 0.000776979 0.000500181 0 -0.000605691 0.000527596 0 
-0.000377914 -0.000653727 0 -0.000372325 -0.000526022 0 -0.000275829 -0.000589621 0 
-0.000254285 -0.000710579 0 -0.000379307 0.000656222 0 -0.000379818 0.00052718 0 
-0.000266817 0.000721555 0 -0.000150544 0.000668174 0 0.000381963 0.00065079 0 
0.000493113 0.000590432 0 0.000505439 0.000463708 0 -0.000269094 0.000596608 0 
0.000385815 0.000532045 0 0.000283599 0.0005899 0 -0.000176405 -0.000108505 0 
-0.000278769 -0.000475415 0 0.000185395 2.33014e-06 0 0.000186773 0.000517571 0 
0.000540032 -8.68444e-05 0 -0.000600694 -0.000514877 0 -0.00063703 8.98033e-05 0 
-0.000459677 0.000335729 0 -0.000338836 -0.000100751 0 -0.000457327 0.000432721 0 
-8.72007e-06 -0.000210238 0 0.000156073 0.000129496 0 -7.70692e-05 -0.000555049 0 
0.00036091 -0.000389728 0 0.000531628 0.000120564 0 -0.000285451 0.000435562 0 
0.000192719 -0.000494604 0 0.00041642 0.00039368 0 -0.000135943 0.000554637 0 
-0.000170665 -0.000610079 0 -0.000666304 0.000434981 0 -0.000758736 0.000479231 0 
-0.000470189 -0.000458901 0 0.000203433 -8.59809e-05 0 0.000101846 0.000170114 0 
-0.00035513 -0.00040726 0 0.000100184 -0.000165831 0 2.96286e-05 0.00081537 0 
0.000720946 0.000381836 0 -0.000539809 -0.000292001 0 0.00052211 -0.000182426 0 
-6.41339e-05 -0.000753908 0 0.000638039 -0.000299861 0 -0.000605136 -0.000230182 0 
-3.41638e-05 -0.000145561 0 -0.000104037 0.000172396 0 -0.000808575 -0.00042774 0 
-0.000807207 -0.000465052 0 -0.00080817 0.000429771 0 -0.000806589 0.000469738 0 
-9.50634e-05 -0.000178909 0 0.000247777 0.000445058 0 1.48293e-05 -0.000814201 0 
-4.11555e-05 0.000140955 0 0.000276104 -0.000536845 0 0.000765969 -0.000436638 0 
0.000780871 -0.000362769 0 0.000424176 -0.000642018 0 0.00053413 -0.000368009 0 
-0.000416333 4.17911e-05 0 -0.000133891 -6.23822e-05 0 4.2574e-05 0.000206312 0 
0.000141163 -0.000121542 0 0.000707423 0.000212137 0 0.000172327 0.000723882 0 
7.72652e-06 -0.00090254 0 -0.000134435 5.66935e-05 0 -0.000188826 3.70894e-05 0 
0.000197119 8.09714e-05 0 1.27801e-05 0.000917296 0 0.000800767 0.00044758 0 
-0.000686682 0.000507104 0 9.35831e-05 0.000110457 0 -0.000696793 -0.000509595 0 
-0.00068446 -8.52012e-05 0 -0.000691033 -0.000201242 0 5.24052e-05 -0.000189075 0 
-0.000151818 -0.000701092 0 -0.000296988 0.000518087 0 9.31023e-05 -0.000108117 0 
0.00044261 -0.000416726 0 0.000197044 -0.000784423 0 -0.000516861 0.000504567 0 
0.000298997 0.000502377 0 0.000131234 6.38474e-05 -0.001 0.00012964 -6.2443e-05 -0.001 
3.13827e-05 0.0001394 -0.001 3.12554e-05 -0.000136939 -0.001 -0.000140461 8.25467e-19 -0.001 
-8.90565e-05 -0.000102707 -0.001 -9.04142e-05 0.000102872 -0.001 -0.000765769 -0.00025965 -0.001 
-0.000756873 0.000262774 -0.001 -0.00015609 0.000787505 -0.001 -0.000155807 -0.00079355 -0.001 
0.000605069 0.000528035 -0.001 0.000608694 -0.00052497 -0.001 0.000744069 0.000116929 -0.001 
-0.000494418 0.000596218 -0.001 -0.000483866 -0.000584648 -0.001 0.000269496 0.000702219 -0.001 
0.000263201 -0.000717324 -0.001 0.000754429 -0.000127825 -0.001 -0.000748858 5.84659e-07 -0.001 
-0.000747838 0.000373886 -0.001 -0.0006542 0.000324842 -0.001 -0.000645137 0.000210123 -0.001 
-0.000550884 0.000274171 -0.001 -0.000538857 0.000163195 -0.001 -0.00045062 0.000224461 -0.001 
-0.000438393 0.000123907 -0.001 -0.000354088 0.000181668 -0.001 -0.000363908 0.000282171 -0.001 
-0.000270361 0.000239477 -0.001 -0.000279138 0.000337653 -0.001 -0.000188888 0.000294791 -0.001 
-0.000196448 0.000393271 -0.001 -0.000104767 0.000348259 -0.001 -0.000113332 0.000449012 -0.001 
-2.01066e-05 0.000403223 -0.001 -2.89189e-05 0.000507105 -0.001 6.9524e-05 0.000461596 -0.001 
-0.000213644 0.000490203 -0.001 7.33757e-05 0.000357726 -0.001 0.000163331 0.00041299 -0.001 
0.000163359 0.000313022 -0.001 0.000248077 0.000366368 -0.001 0.000250914 0.000265758 -0.001 
0.000335709 0.000322266 -0.001 0.000340555 0.000218148 -0.001 0.000427299 0.000276717 -0.001 
0.000431508 0.000173093 -0.001 0.000328731 0.000425633 -0.001 0.00034586 0.000114823 -0.001 
0.000435362 7.05241e-05 -0.001 0.000350892 1.5455e-05 -0.001 0.000441547 -3.11896e-05 -0.001 
0.000353547 -8.47783e-05 -0.001 0.000445767 -0.000132964 -0.001 0.000356135 -0.000186358 -0.001 
0.000449094 -0.000234674 -0.001 0.000359978 -0.000287876 -0.001 0.00026856 -0.000240545 -0.001 
0.000271895 -0.000341045 -0.001 0.000181792 -0.00029305 -0.001 0.00018533 -0.000392851 -0.001 
9.75701e-05 -0.00034483 -0.001 9.98764e-05 -0.000444884 -0.001 8.75116e-06 -0.000396343 -0.001 
1.20916e-05 -0.000500496 -0.001 -7.83929e-05 -0.000449843 -0.001 -8.1471e-05 -0.000347249 -0.001 
-0.000171566 -0.000403733 -0.001 -0.000169889 -0.000298891 -0.001 -0.000259867 -0.000354132 -0.001 
-0.000257696 -0.000249137 -0.001 -0.00034313 -0.000299896 -0.001 -0.000344514 -0.000199127 -0.001 
-0.000434309 -0.000250039 -0.001 -0.000169832 -0.000505815 -0.001 -0.000435227 -0.000146227 -0.001 
0.000280331 -0.000442424 -0.001 -0.000340889 8.76793e-05 -0.001 -0.000515252 4.06198e-05 -0.001 
6.50491e-05 0.000568253 -0.001 0.00053278 1.74743e-05 -0.001 0.000522071 0.000229831 -0.001 
-0.00037162 0.000391659 -0.001 -0.000255272 -0.000150439 -0.001 -0.000442893 -0.000350705 -0.001 
0.000450067 -0.000332559 -0.001 0.000545175 -0.000276306 -0.001 -0.000527797 -0.000197598 -0.001 
0.000105306 -0.000551033 -0.001 1.45836e-05 -0.000609147 -0.001 0.00017145 0.000214453 -0.001 
0.000515525 0.000341711 -0.001 0.000636086 0.000290368 -0.001 -0.000558657 0.000404468 -0.001 
-4.01232e-05 0.000616718 -0.001 6.60192e-05 0.000696422 -0.001 -0.000101806 0.0002546 -0.001 
0.000271142 -3.88908e-05 -0.001 0.000179455 -0.00018534 -0.001 -8.79553e-05 -0.000254307 -0.001 
-0.000749267 -0.000373451 -0.001 -0.000655941 -0.000323397 -0.001 0.000709746 0.000466718 -0.001 
0.000698426 -0.000473086 -0.001 -5.25801e-05 -0.00084886 -0.001 -4.93005e-05 0.000848038 -0.001 
0.000617396 -0.000413362 -0.001 0.000702056 -0.000369817 -0.001 0.000131459 -0.000679171 -0.001 
2.48171e-05 -0.000715924 -0.001 -0.000664217 -0.00042729 -0.001 -0.000528828 -8.80444e-05 -0.001 
-0.000611101 -0.000136672 -0.001 -0.000426972 -4.45841e-05 -0.001 0.000800669 0.000378216 -0.001 
0.000821144 -0.000415062 -0.001 7.2799e-05 0.00088254 -0.001 6.81831e-05 -0.00087503 -0.001 
0.000104963 -0.000788946 -0.001 -7.40696e-05 -0.000660054 -0.001 0.000126061 0.000809943 -0.001 
0.000764361 0.000295682 -0.001 0.000166862 0.000630623 -0.001 0.000516462 -0.00046707 -0.001 
-0.000563585 -0.000389606 -0.001 -0.000622598 -1.40238e-05 -0.001 0.000629891 0.000171529 -0.001 
2.5614e-06 -0.000299794 -0.001 8.6901e-05 -0.00024329 -0.001 0.000272045 -0.000136982 -0.001 
-0.00075148 0.000138321 -0.001 0.000209366 -0.000599589 -0.001 0.000324913 -0.000630055 -0.001 
0.000614044 0.00041245 -0.001 0.00049651 -0.000573327 -0.001 0.000394822 -0.000507321 -0.001 
-0.000173714 -0.000206698 -0.001 0.000264897 5.63722e-05 -0.001 0.000247997 0.000152811 -0.001 
-4.63327e-05 -0.000920208 -0.001 9.18688e-05 0.000258626 -0.001 -5.54111e-06 0.000290558 -0.001 
-0.000184219 0.000201484 -0.001 -0.000263559 0.000142267 -0.001 -0.000256427 5.13624e-05 -0.001 
-0.000336894 -2.06179e-06 -0.001 -0.000228499 -4.2388e-05 -0.001 -0.00017589 0.000106626 -0.001 
-0.000769947 -0.000133367 -0.001 0.000767591 -0.000500293 -0.001 -5.05874e-05 0.000737978 -0.001 
0.000754456 -3.51771e-06 -0.001 0.00064691 -6.15298e-05 -0.001 0.000630483 -0.00018134 -0.001 
0.000749187 -0.000265543 -0.001 -0.000760805 -0.000462521 -0.001 0.000638155 6.09315e-05 -0.001 
-4.46661e-05 0.000922995 -0.001 -2.37945e-05 0.000207237 -0.001 0.000776979 0.000500181 -0.001 
-0.000605691 0.000527596 -0.001 -0.000377914 -0.000653727 -0.001 -0.000372325 -0.000526022 -0.001 
-0.000275829 -0.000589621 -0.001 -0.000254285 -0.000710579 -0.001 -0.000379307 0.000656222 -0.001 
-0.000379818 0.00052718 -0.001 -0.000266817 0.000721555 -0.001 -0.000150544 0.000668174 -0.001 
0.000381963 0.00065079 -0.001 0.000493113 0.000590432 -0.001 0.000505439 0.000463708 -0.001 
-0.000269094 0.000596608 -0.001 0.000385815 0.000532045 -0.001 0.000283599 0.0005899 -0.001 
-0.000176405 -0.000108505 -0.001 -0.000278769 -0.000475415 -0.001 0.000185395 2.33014e-06 -0.001 
0.000186773 0.000517571 -0.001 0.000540032 -8.68444e-05 -0.001 -0.000600694 -0.000514877 -0.001 
-0.00063703 8.98033e-05 -0.001 -0.000459677 0.000335729 -0.001 -0.000338836 -0.000100751 -0.001 
-0.000457327 0.000432721 -0.001 -8.72007e-06 -0.000210238 -0.001 0.000156073 0.000129496 -0.001 
-7.70692e-05 -0.000555049 -0.001 0.00036091 -0.000389728 -0.001 0.000531628 0.000120564 -0.001 
-0.000285451 0.000435562 -0.001 0.000192719 -0.000494604 -0.001 0.00041642 0.00039368 -0.001 
-0.000135943 0.000554637 -0.001 -0.000170665 -0.000610079 -0.001 -0.000666304 0.000434981 -0.001 
-0.000758736 0.000479231 -0.001 -0.000470189 -0.000458901 -0.001 0.000203433 -8.59809e-05 -0.001 
0.000101846 0.000170114 -0.001 -0.00035513 -0.00040726 -0.001 0.000100184 -0.000165831 -0.001 
2.96286e-05 0.00081537 -0.001 0.000720946 0.000381836 -0.001 -0.000539809 -0.000292001 -0.001 
0.00052211 -0.000182426 -0.001 -6.41339e-05 -0.000753908 -0.001 0.000638039 -0.000299861 -0.001 
-0.000605136 -0.000230182 -0.001 -3.41638e-05 -0.000145561 -0.001 -0.000104037 0.000172396 -0.001 
-0.000808575 -0.00042774 -0.001 -0.000807207 -0.000465052 -0.001 -0.00080817 0.000429771 -0.001 
-0.000806589 0.000469738 -0.001 -9.50634e-05 -0.000178909 -0.001 0.000247777 0.000445058 -0.001 
1.48293e-05 -0.000814201 -0.001 -4.11555e-05 0.000140955 -0.001 0.000276104 -0.000536845 -0.001 
0.000765969 -0.000436638 -0.001 0.000780871 -0.000362769 -0.001 0.000424176 -0.000642018 -0.001 
0.00053413 -0.000368009 -0.001 -0.000416333 4.17911e-05 -0.001 -0.000133891 -6.23822e-05 -0.001 
4.2574e-05 0.000206312 -0.001 0.000141163 -0.000121542 -0.001 0.000707423 0.000212137 -0.001 
0.000172327 0.000723882 -0.001 7.72652e-06 -0.00090254 -0.001 -0.000134435 5.66935e-05 -0.001 
-0.000188826 3.70894e-05 -0.001 0.000197119 8.09714e-05 -0.001 1.27801e-05 0.000917296 -0.001 
0.000800767 0.00044758 -0.001 -0.000686682 0.000507104 -0.001 9.35831e-05 0.000110457 -0.001 
-0.000696793 -0.000509595 -0.001 -0.00068446 -8.52012e-05 -0.001 -0.000691033 -0.000201242 -0.001 
5.24052e-05 -0.000189075 -0.001 -0.000151818 -0.000701092 -0.001 -0.000296988 0.000518087 -0.001 
9.31023e-05 -0.000108117 -0.001 0.00044261 -0.000416726 -0.001 0.000197044 -0.000784423 -0.001 
-0.000516861 0.000504567 -0.001 0.000298997 0.000502377 -0.001 

CELLS 563 3941
6 14 304 127 29 554 377 
6 143 259 55 393 509 103 
6 300 319 174 550 569 424 
6 259 349 55 509 599 103 
6 50 365 307 98 615 557 
6 299 320 164 549 570 414 
6 126 304 14 376 554 29 
6 298 319 300 548 569 550 
6 205 240 238 455 490 488 
6 257 308 145 507 558 395 
6 130 352 273 380 602 523 
6 295 320 299 545 570 549 
6 324 327 289 574 577 539 
6 235 258 143 485 508 393 
6 50 307 49 98 557 97 
6 207 283 279 457 533 529 
6 143 373 235 393 623 485 
6 145 308 252 395 558 502 
6 194 303 196 444 553 446 
6 279 306 207 529 556 457 
6 206 305 163 456 555 413 
6 51 357 9 99 607 24 
6 238 252 205 488 502 455 
6 293 317 209 543 567 459 
6 207 316 283 457 566 533 
6 142 301 249 392 551 499 
6 273 359 130 523 609 380 
6 211 327 324 461 577 574 
6 169 265 217 419 515 467 
6 7 365 50 22 615 98 
6 283 316 253 533 566 503 
6 159 268 223 409 518 473 
6 274 337 132 524 587 382 
6 232 361 329 482 611 579 
6 231 266 45 481 516 93 
6 229 362 330 479 612 580 
6 9 244 57 24 494 105 
6 230 276 52 480 526 100 
6 209 311 293 459 561 543 
6 131 342 302 381 592 552 
6 270 271 204 520 521 454 
6 66 243 1 114 493 16 
6 59 241 12 107 491 27 
6 280 306 279 530 556 529 
6 269 337 274 519 587 524 
6 179 256 224 429 506 474 
6 163 305 166 413 555 416 
6 201 303 194 451 553 444 
6 280 332 306 530 582 556 
6 186 255 225 436 505 475 
6 210 310 273 460 560 523 
6 153 270 204 403 520 454 
6 136 231 45 386 481 93 
6 171 265 169 421 515 419 
6 138 230 52 388 480 100 
6 225 354 325 475 604 575 
6 36 284 232 84 534 482 
6 161 268 159 411 518 409 
6 71 286 229 119 536 479 
6 290 303 201 540 553 451 
6 139 355 60 389 605 108 
6 60 355 248 108 605 498 
6 273 352 302 523 602 552 
6 235 373 245 485 623 495 
6 67 356 247 115 606 497 
6 221 295 277 471 545 527 
6 142 356 67 392 606 115 
6 139 283 253 389 533 503 
6 203 315 262 453 565 512 
6 41 257 145 89 507 395 
6 36 232 135 84 482 385 
6 71 229 137 119 479 387 
6 254 255 188 504 505 438 
6 233 350 334 483 600 584 
6 262 346 203 512 596 453 
6 304 325 127 554 575 377 
6 222 329 247 472 579 497 
6 218 298 260 468 548 510 
6 290 321 291 540 571 541 
6 272 310 240 522 560 490 
6 269 274 270 519 524 520 
6 244 245 57 494 495 105 
6 49 307 141 97 557 391 
6 225 325 256 475 575 506 
6 273 310 272 523 560 522 
6 312 368 255 562 618 505 
6 249 305 206 499 555 456 
6 228 331 251 478 581 501 
6 302 342 263 552 592 513 
6 338 339 44 588 589 92 
6 190 254 188 440 504 438 
6 37 341 340 85 591 590 
6 138 233 230 388 483 480 
6 228 335 331 478 585 581 
6 181 256 179 431 506 429 
6 195 263 226 445 513 476 
6 268 285 223 518 535 473 
6 290 291 288 540 541 538 
6 219 330 248 469 580 498 
6 201 321 290 451 571 540 
6 240 310 202 490 560 452 
6 188 255 186 438 505 436 
6 270 274 271 520 524 521 
6 262 349 259 512 599 509 
6 141 324 289 391 574 539 
6 296 301 142 546 551 392 
6 247 356 222 497 606 472 
6 239 252 238 489 502 488 
6 254 312 255 504 562 505 
6 54 261 53 102 511 101 
6 289 327 303 539 577 553 
6 268 353 285 518 603 535 
6 273 302 210 523 552 460 
6 292 299 293 542 549 543 
6 278 283 139 528 533 389 
6 175 265 171 425 515 421 
6 227 338 38 477 588 86 
6 264 360 265 514 610 515 
6 43 340 146 91 590 396 
6 165 268 161 415 518 411 
6 205 351 240 455 601 490 
6 64 281 63 112 531 111 
6 288 291 47 538 541 95 
6 135 295 294 385 545 544 
6 42 257 41 90 507 89 
6 245 373 57 495 623 105 
6 31 363 323 79 613 573 
6 292 293 140 542 543 390 
6 267 353 268 517 603 518 
6 155 270 153 405 520 403 
6 244 344 245 494 594 495 
6 61 278 139 109 528 389 
6 135 294 35 385 544 83 
6 69 297 296 117 547 546 
6 186 225 184 436 475 434 
6 329 361 243 579 611 493 
6 255 328 225 505 578 475 
6 213 332 280 463 582 530 
6 39 275 133 87 525 383 
6 330 362 241 580 612 491 
6 195 226 193 445 476 443 
6 211 324 251 461 574 501 
6 151 153 152 401 403 402 
6 295 299 294 545 549 544 
6 265 313 217 515 563 467 
6 258 259 143 508 509 393 
6 251 331 211 501 581 461 
6 149 151 150 399 401 400 
6 293 370 317 543 620 567 
6 153 204 152 403 454 402 
6 151 152 150 401 402 400 
6 33 292 140 81 542 390 
6 210 263 197 460 513 447 
6 301 305 249 551 555 499 
6 298 300 297 548 550 547 
6 68 296 142 116 546 392 
6 321 369 291 571 619 541 
6 179 224 177 429 474 427 
6 167 267 165 417 517 415 
6 259 346 262 509 596 512 
6 303 327 196 553 577 446 
6 269 270 155 519 520 405 
6 265 360 313 515 610 563 
6 223 269 157 473 519 407 
6 157 269 155 407 519 405 
6 144 279 278 394 529 528 
6 169 217 167 419 467 417 
6 177 264 175 427 514 425 
6 267 268 165 517 518 415 
6 159 223 157 409 473 407 
6 232 277 135 482 527 385 
6 193 254 190 443 504 440 
6 217 267 167 467 517 417 
6 249 356 142 499 606 392 
6 184 256 181 434 506 431 
6 248 355 219 498 605 469 
6 229 260 137 479 510 387 
6 149 150 148 399 400 398 
6 64 348 281 112 598 531 
6 311 374 293 561 624 543 
6 264 265 175 514 515 425 
6 297 300 296 547 550 546 
6 141 289 288 391 539 538 
6 197 263 195 447 513 445 
6 218 260 219 468 510 469 
6 224 264 177 474 514 427 
6 137 298 297 387 548 547 
6 277 295 135 527 545 385 
6 133 228 227 383 478 477 
6 261 349 262 511 599 512 
6 221 277 222 471 527 472 
6 256 325 224 506 575 474 
6 199 210 197 449 460 447 
6 226 254 193 476 504 443 
6 144 278 62 394 528 110 
6 279 283 278 529 533 528 
6 289 290 288 539 540 538 
6 137 297 70 387 547 118 
6 34 294 292 82 544 542 
6 235 236 216 485 486 466 
6 141 288 48 391 538 96 
6 178 306 180 428 556 430 
6 185 186 184 435 436 434 
6 63 281 144 111 531 394 
6 225 256 184 475 506 434 
6 46 291 136 94 541 386 
6 147 149 148 397 399 398 
6 271 272 204 521 522 454 
6 233 334 234 483 584 484 
6 145 275 40 395 525 88 
6 220 322 287 470 572 537 
6 280 334 213 530 584 463 
6 144 280 279 394 530 529 
6 140 287 32 390 537 80 
6 154 155 153 404 405 403 
6 334 350 213 584 600 463 
6 176 177 175 426 427 425 
6 260 298 137 510 548 387 
6 33 140 32 81 390 80 
6 49 141 48 97 391 96 
6 56 143 55 104 393 103 
6 68 142 67 116 392 115 
6 63 144 62 111 394 110 
6 61 139 60 109 389 108 
6 148 308 257 398 558 507 
6 71 137 70 119 387 118 
6 53 138 52 101 388 100 
6 46 136 45 94 386 93 
6 36 135 35 84 385 83 
6 43 146 134 91 396 384 
6 133 227 38 383 477 86 
6 192 193 190 442 443 440 
6 293 374 140 543 624 390 
6 34 292 33 82 542 81 
6 207 306 178 457 556 428 
6 43 134 42 91 384 90 
6 39 133 38 87 383 86 
6 41 145 40 89 395 88 
6 194 195 193 444 445 443 
6 69 296 68 117 546 116 
6 294 299 292 544 549 542 
6 173 175 171 423 425 421 
6 260 330 219 510 580 469 
6 183 184 181 433 434 431 
6 134 257 42 384 507 90 
6 55 349 54 103 599 102 
6 163 165 161 413 415 411 
6 166 167 165 416 417 415 
6 210 302 263 460 552 513 
6 271 273 272 521 523 522 
6 53 261 138 101 511 388 
6 217 326 267 467 576 517 
6 289 303 290 539 553 540 
6 178 179 177 428 429 427 
6 238 240 202 488 490 452 
6 62 278 61 110 528 109 
6 35 294 34 83 544 82 
6 284 361 232 534 611 482 
6 70 297 69 118 547 117 
6 224 304 264 474 554 514 
6 156 157 155 406 407 405 
6 48 288 47 96 538 95 
6 221 320 295 471 570 545 
6 187 188 186 437 438 436 
6 47 291 46 95 541 94 
6 151 154 153 401 404 403 
6 286 362 229 536 612 479 
6 168 169 167 418 419 417 
6 40 275 39 88 525 87 
6 307 324 141 557 574 391 
6 300 301 296 550 551 546 
6 32 287 31 80 537 79 
6 147 220 149 397 470 399 
6 333 344 231 583 594 481 
6 299 370 293 549 620 543 
6 271 359 273 521 609 523 
6 224 325 304 474 575 554 
6 228 237 227 478 487 477 
6 305 375 343 555 625 593 
6 218 319 298 468 569 548 
6 240 351 272 490 601 522 
6 277 329 222 527 579 472 
6 253 355 139 503 605 389 
6 158 159 157 408 409 407 
6 236 246 216 486 496 466 
6 192 194 193 442 444 443 
6 220 309 149 470 559 399 
6 183 185 184 433 435 434 
6 196 197 195 446 447 445 
6 276 347 58 526 597 106 
6 136 333 231 386 583 481 
6 67 247 66 115 497 114 
6 60 248 59 108 498 107 
6 261 262 250 511 512 500 
6 173 176 175 423 426 425 
6 344 357 231 594 607 481 
6 144 281 280 394 531 530 
6 152 205 150 402 455 400 
6 163 166 165 413 416 415 
6 185 187 186 435 437 436 
6 233 234 230 483 484 480 
6 170 171 169 420 421 419 
6 146 147 134 396 397 384 
6 176 178 177 426 428 427 
6 285 337 223 535 587 473 
6 154 156 155 404 406 405 
6 263 342 226 513 592 476 
6 235 245 236 485 495 486 
6 160 161 159 410 411 409 
6 58 347 242 106 597 492 
6 166 168 167 416 418 417 
6 287 374 220 537 624 470 
6 189 190 188 439 440 438 
6 148 257 134 398 507 384 
6 194 196 195 444 446 445 
6 252 308 205 502 558 455 
6 285 345 337 535 595 587 
6 301 375 305 551 625 555 
6 180 181 179 430 431 429 
6 281 348 234 531 598 484 
6 198 199 197 448 449 447 
6 151 309 154 401 559 404 
6 228 367 335 478 617 585 
6 54 349 261 102 599 511 
6 156 158 157 406 408 407 
6 168 170 169 418 420 419 
6 200 202 199 450 452 449 
6 147 148 134 397 398 384 
6 158 160 159 408 410 409 
6 150 308 148 400 558 398 
6 253 316 208 503 566 458 
6 232 329 277 482 579 527 
6 178 180 179 428 430 429 
6 191 192 190 441 442 440 
6 214 238 202 464 488 452 
6 172 173 171 422 423 421 
6 187 189 188 437 439 438 
6 162 163 161 412 413 411 
6 228 251 237 478 501 487 
6 215 258 235 465 508 485 
6 182 183 181 432 433 431 
6 202 310 199 452 560 449 
6 219 253 208 469 503 458 
6 222 249 206 472 499 456 
6 196 198 197 446 448 447 
6 229 330 260 479 580 510 
6 132 358 274 382 608 524 
6 149 309 151 399 559 401 
6 226 312 254 476 562 504 
6 154 309 209 404 559 459 
6 77 129 76 125 379 124 
6 73 128 72 121 378 120 
6 76 131 75 124 381 123 
6 74 132 73 122 382 121 
6 75 130 74 123 380 122 
6 14 127 77 29 377 125 
6 72 126 14 120 376 29 
6 133 367 228 383 617 478 
6 237 282 227 487 532 477 
6 239 366 252 489 616 502 
6 200 214 202 450 464 452 
6 192 201 194 442 451 444 
6 170 172 171 420 422 421 
6 220 311 309 470 561 559 
6 198 200 199 448 450 449 
6 189 191 190 439 441 440 
6 146 323 322 396 573 572 
6 160 162 161 410 412 411 
6 251 307 237 501 557 487 
6 199 310 210 449 560 460 
6 57 373 56 105 623 104 
6 214 239 238 464 489 488 
6 182 212 183 432 462 433 
6 180 182 181 430 432 431 
6 146 322 147 396 572 397 
6 172 218 208 422 468 458 
6 172 208 173 422 458 423 
6 162 221 206 412 471 456 
6 162 206 163 412 456 413 
6 176 207 178 426 457 428 
6 272 351 204 522 601 454 
6 198 211 200 448 461 450 
6 182 213 212 432 463 462 
6 234 334 281 484 584 531 
6 154 209 156 404 459 406 
6 185 203 187 435 453 437 
6 168 174 170 418 424 420 
6 189 215 191 439 465 441 
6 215 216 191 465 466 441 
6 221 222 206 471 472 456 
6 158 164 160 408 414 410 
6 218 219 208 468 469 458 
6 205 308 150 455 558 400 
6 191 314 192 441 564 442 
6 215 235 216 465 485 466 
6 215 318 258 465 568 508 
6 152 351 205 402 601 455 
6 138 261 250 388 511 500 
6 192 314 201 442 564 451 
6 234 347 230 484 597 480 
6 226 342 312 476 592 562 
6 138 250 233 388 500 483 
6 147 322 220 397 572 470 
6 216 314 191 466 564 441 
6 306 332 180 556 582 430 
6 222 356 249 472 606 499 
6 128 345 285 378 595 535 
6 314 321 201 564 571 451 
6 212 315 183 462 565 433 
6 312 342 336 562 592 586 
6 282 339 338 532 589 588 
6 340 341 323 590 591 573 
6 309 311 209 559 561 459 
6 183 315 185 433 565 435 
6 208 316 173 458 566 423 
6 173 316 176 423 566 426 
6 3 341 37 18 591 85 
6 44 339 6 92 589 21 
6 252 366 145 502 616 395 
6 246 321 314 496 571 564 
6 246 314 216 496 564 466 
6 126 364 313 376 614 563 
6 156 317 158 406 567 408 
6 275 367 133 525 617 383 
6 176 316 207 426 566 457 
6 185 315 203 435 565 453 
6 180 332 182 430 582 432 
6 302 352 131 552 602 381 
6 251 324 307 501 574 557 
6 187 318 189 437 568 439 
6 172 319 218 422 569 468 
6 162 320 221 412 570 471 
6 305 343 166 555 593 416 
6 170 319 172 420 569 422 
6 158 317 164 408 567 414 
6 209 317 156 459 567 406 
6 285 353 128 535 603 378 
6 223 337 269 473 587 519 
6 160 320 162 410 570 412 
6 211 331 200 461 581 450 
6 174 319 170 424 569 420 
6 203 318 187 453 568 437 
6 189 318 215 439 568 465 
6 198 327 211 448 577 461 
6 164 320 160 414 570 410 
6 326 353 267 576 603 517 
6 236 344 333 486 594 583 
6 196 327 198 446 577 448 
6 219 355 253 469 605 503 
6 281 334 280 531 584 530 
6 274 359 271 524 609 521 
6 164 370 299 414 620 549 
6 174 375 300 424 625 550 
6 287 363 31 537 613 79 
6 243 361 1 493 611 16 
6 241 362 12 491 612 27 
6 307 365 237 557 615 487 
6 166 343 168 416 593 418 
6 200 331 214 450 581 464 
6 313 326 217 563 576 467 
6 9 357 244 24 607 494 
6 1 361 30 16 611 78 
6 12 362 65 27 612 113 
6 337 345 132 587 595 382 
6 242 348 64 492 598 112 
6 231 357 266 481 607 516 
6 182 332 213 432 582 463 
6 245 344 236 495 594 486 
6 258 346 259 508 596 509 
6 145 366 275 395 616 525 
6 291 369 136 541 619 386 
6 236 333 246 486 583 496 
6 331 335 214 581 585 464 
6 312 336 129 562 586 379 
6 315 372 262 565 622 512 
6 220 374 311 470 624 561 
6 140 374 287 390 624 537 
6 126 360 304 376 610 554 
6 230 347 276 480 597 526 
6 313 364 326 563 614 576 
6 56 373 143 104 623 393 
6 239 367 366 489 617 616 
6 204 351 152 454 601 402 
6 300 375 301 550 625 551 
6 214 335 239 464 585 489 
6 247 329 243 497 579 493 
6 262 372 250 512 622 500 
6 248 330 241 498 580 491 
6 318 346 258 568 596 508 
6 333 369 246 583 619 496 
6 282 338 227 532 588 477 
6 146 340 323 396 590 573 
6 304 360 264 554 610 514 
6 366 367 275 616 617 525 
6 129 336 76 379 586 124 
6 73 345 128 121 595 378 
6 76 336 131 124 586 381 
6 250 350 233 500 600 483 
6 129 371 328 379 621 578 
6 132 345 73 382 595 121 
6 168 343 174 418 593 424 
6 131 352 75 381 602 123 
6 66 247 243 114 497 493 
6 59 248 241 107 498 491 
6 74 358 132 122 608 382 
6 203 346 318 453 596 568 
6 313 360 126 563 610 376 
6 128 364 72 378 614 120 
6 128 353 326 378 603 576 
6 77 371 129 125 621 379 
6 129 368 312 379 618 562 
6 244 357 344 494 607 594 
6 328 354 225 578 604 475 
6 326 364 128 576 614 378 
6 75 352 130 123 602 380 
6 350 372 212 600 622 462 
6 136 369 333 386 619 583 
6 325 354 127 575 604 377 
6 213 350 212 463 600 462 
6 130 358 74 380 608 122 
6 250 372 350 500 622 600 
6 317 370 164 567 620 414 
6 72 364 126 120 614 376 
6 328 368 129 578 618 379 
6 127 371 77 377 621 125 
6 336 342 131 586 592 381 
6 212 372 315 462 622 565 
6 234 348 347 484 598 597 
6 8 266 51 23 516 99 
6 10 276 58 25 526 106 
6 246 369 321 496 619 571 
6 30 284 0 78 534 15 
6 65 286 13 113 536 28 
6 58 242 11 106 492 26 
6 266 357 51 516 607 99 
6 255 368 328 505 618 578 
6 347 348 242 597 598 492 
6 322 363 287 572 613 537 
6 323 363 322 573 613 572 
6 335 367 239 585 617 489 
6 30 361 284 78 611 534 
6 65 362 286 113 612 536 
6 237 365 282 487 615 532 
6 130 359 358 380 609 608 
6 343 375 174 593 625 424 
6 354 371 127 604 621 377 
6 328 371 354 578 621 604 
6 358 359 274 608 609 524 
6 0 284 36 15 534 84 
6 45 266 8 93 516 23 
6 52 276 10 100 526 25 
6 11 242 64 26 492 112 
6 13 286 71 28 536 119 
6 2 323 3 17 573 18 
6 31 323 2 79 573 17 
6 323 341 3 573 591 18 
6 37 340 4 85 590 19 
6 4 340 43 19 590 91 
6 38 338 5 86 588 20 
6 5 338 44 20 588 92 
6 6 282 7 21 532 22 
6 6 339 282 21 589 532 
6 282 365 7 532 615 22 

CELL_TYPES 563
13
13
13
13
13
13
13
13
13
13
13
13
13
13
13
13
13
13
13
13
13
13
13
13
13
13
13
13
13
13
13
13
13
13
13
13
13
13
13
13
13
13
13
13
13
13
13
13
13
13
13
13
13
13
13
13
13
13
13
13
13
13
13
13
13
13
13
13
13
13
13
13
13
13
13
13
13
13
13
13
13
13
13
13
13
13
13
13
13
13
13
13
13
13
13
13
13
13
13
13
13
13
13
13
13
13
13
13
13
13
13
13
13
13
13
13
13
13
13
13
13
13
13
13
13
13
13
13
13
13
13
13
13
13
13
13
13
13
13
13
13
13
13
13
13
13
13
13
13
13
13
13
13
13
13
13
13
13
13
13
13
13
13
13
13
13
13
13
13
13
13
13
13
13
13
13
13
13
13
13
13
13
13
13
13
13
13
13
13
13
13
13
13
13
13
13
13
13
13
13
13
13
13
13
13
13
13
13
13
13
13
13
13
13
13
13
13
13
13
13
13
13
13
13
13
13
13
13
13
13
13
13
13
13
13
13
13
13
13
13
13
13
13
13
13
13
13
13
13
13
13
13
13
13
13
13
13
13
13
13
13
13
13
13
13
13
13
13
13
13
13
13
13
13
13
13
13
13
13
13
13
13
13
13
13
13
13
13
13
13
13
13
13
13
13
13
13
13
13
13
13
13
13
13
13
13
13
13
13
13
13
13
13
13
13
13
13
13
13
13
13
13
13
13
13
13
13
13
13
13
13
13
13
13
13
13
13
13
13
13
13
13
13
13
13
13
13
13
13
13
13
13
13
13
13
13
13
13
13
13
13
13
13
13
13
13
13
13
13
13
13
13
13
13
13
13
13
13
13
13
13
13
13
13
13
13
13
13
13
13
13
13
13
13
13
13
13
13
13
13
13
13
13
13
13
13
13
13
13
13
13
13
13
13
13
13
13
13
13
13
13
13
13
13
13
13
13
13
13
13
13
13
13
13
13
13
13
13
13
13
13
13
13
13
13
13
13
13
13
13
13
13
13
13
13
13
13
13
13
13
13
13
13
13
13
13
13
13
13
13
13
13
13
13
13
13
13
13
13
13
13
13
13
13
13
13
13
13
13
13
13
13
13
13
13
13
13
13
13
13
13
13
13
13
13
13
13
13
13
13
13
13
13
13
13
13
13
13
13
13
13
13
13
13
13
13
13
13
13
13
13
13
13
13
13
13
13
13
13
13
13
13
13
13
13
13
13
13
13
13
13
13
13
13
13
13
13
13
13
13
13
13
13

POINT_DATA 626
VECTORS displacement float
-1.74395e-06 3.09547e-05 1.80551e-05
1.73565e-06 3.09737e-05 1.81002e-05
-2.59865e-05 1.6993e-05 1.80871e-05
-2.58411e-05 1.60331e-05 1.80517e-05
-2.77208e-05 1.39729e-05 1.80691e-05
-2.77138e-05 -1.40192e-05 1.80946e-05
-2.58123e-05 -1.60713e-05 1.81059e-05
-2.59827e-05 -1.7011e-05 1.81671e-05
-1.6774e-06 -3.09584e-05 1.80515e-05
1.75545e-06 -3.09599e-05 1.8102e-05
2.59438e-05 -1.69808e-05 1.80436e-05
2.77172e-05 -1.39368e-05 1.80434e-05
2.76726e-05 1.39895e-05 1.80917e-05
2.59151e-05 1.69931e-05 1.80461e-05
0 0 0
-1.74395e-06 3.09547e-05 -1.80551e-05
1.73565e-06 3.09737e-05 -1.81002e-05
-2.59865e-05 1.6993e-05 -1.80871e-05
-2.58411e-05 1.60331e-05 -1.80517e-05
-2.77208e-05 1.39729e-05 -1.80691e-05
-2.77138e-05 -1.40192e-05 -1.80946e-05
-2.58123e-05 -1.60713e-05 -1.81059e-05
-2.59827e-05 -1.7011e-05 -1.81671e-05
-1.6774e-06 -3.09584e-05 -1.80515e-05
1.75545e-06 -3.09599e-05 -1.8102e-05
2.59438e-05 -1.69808e-05 -1.80436e-05
2.77172e-05 -1.39368e-05 -1.80434e-05
2.76726e-05 1.39895e-05 -1.80917e-05
2.59151e-05 1.69931e-05 -1.80461e-05
0 0 0
2.48934e-08 3.01545e-05 1.80343e-05
-2.11408e-05 1.87125e-05 1.75498e-05
-1.72326e-05 1.9834e-05 1.69209e-05
-1.40071e-05 2.10544e-05 1.6555e-05
-1.12069e-05 2.2665e-05 1.65489e-05
-8.52413e-06 2.4833e-05 1.69014e-05
-5.56781e-06 2.76219e-05 1.75375e-05
-2.645e-05 1.46792e-05 1.80336e-05
-2.67689e-05 -9.01161e-06 1.75775e-05
-2.58064e-05 -5.03552e-06 1.6926e-05
-2.52547e-05 -1.63622e-06 1.65715e-05
-2.52576e-05 1.60786e-06 1.65744e-05
-2.57987e-05 5.02292e-06 1.69242e-05
-2.67551e-05 8.98469e-06 1.7564e-05
-2.64369e-05 -1.47256e-05 1.80623e-05
-5.54107e-06 -2.76364e-05 1.75297e-05
-8.47665e-06 -2.48421e-05 1.69007e-05
-1.11701e-05 -2.26844e-05 1.65562e-05
-1.39707e-05 -2.10874e-05 1.65596e-05
-1.72151e-05 -1.98693e-05 1.69367e-05
-2.11344e-05 -1.87493e-05 1.75623e-05
8.98387e-08 -3.01393e-05 1.80294e-05
2.11241e-05 -1.86249e-05 1.75115e-05
1.72448e-05 -1.97623e-05 1.68729e-05
1.4034e-05 -2.10113e-05 1.65117e-05
1.12251e-05 -2.25931e-05 1.65462e-05
8.58129e-06 -2.47803e-05 1.68742e-05
5.65469e-06 -2.76266e-05 1.75351e-05
2.61247e-05 -1.50598e-05 1.80284e-05
2.6717e-05 8.93848e-06 1.75016e-05
2.57222e-05 5.04964e-06 1.69085e-05
2.52068e-05 1.62334e-06 1.65233e-05
2.52039e-05 -1.59945e-06 1.65216e-05
2.57509e-05 -4.99743e-06 1.68884e-05
2.6699e-05 -8.91724e-06 1.75097e-05
2.61078e-05 1.50609e-05 1.80255e-05
5.63315e-06 2.7618e-05 1.75096e-05
8.50866e-06 2.4807e-05 1.69113e-05
1.12171e-05 2.26412e-05 1.65294e-05
1.40046e-05 2.10223e-05 1.65248e-05
1.72218e-05 1.97936e-05 1.68852e-05
2.11151e-05 1.86345e-05 1.75255e-05
0 0 0
0 0 0
0 0 0
0 0 0
0 0 0
0 0 0
2.48934e-08 3.01545e-05 -1.80343e-05
-2.11408e-05 1.87125e-05 -1.75498e-05
-1.72326e-05 1.9834e-05 -1.69209e-05
-1.40071e-05 2.10544e-05 -1.6555e-05
-1.12069e-05 2.2665e-05 -1.65489e-05
-8.52413e-06 2.4833e-05 -1.69014e-05
-5.56781e-06 2.76219e-05 -1.75375e-05
-2.645e-05 1.46792e-05 -1.80336e-05
-2.67689e-05 -9.01161e-06 -1.75775e-05
-2.58064e-05 -5.03552e-06 -1.6926e-05
-2.52547e-05 -1.63622e-06 -1.65715e-05
-2.52576e-05 1.60786e-06 -1.65744e-05
-2.57987e-05 5.02292e-06 -1.69242e-05
-2.67551e-05 8.98469e-06 -1.7564e-05
-2.64369e-05 -1.47256e-05 -1.80623e-05
-5.54107e-06 -2.76364e-05 -1.75297e-05
-8.47665e-06 -2.48421e-05 -1.69007e-05
-1.11701e-05 -2.26844e-05 -1.65562e-05
-1.39707e-05 -2.10874e-05 -1.65596e-05
-1.72151e-05 -1.98693e-05 -1.69367e-05
-2.11344e-05 -1.87493e-05 -1.75623e-05
8.98387e-08 -3.01393e-05 -1.80294e-05
2.11241e-05 -1.86249e-05 -1.75115e-05
1.72448e-05 -1.97623e-05 -1.68729e-05
1.4034e-05 -2.10113e-05 -1.65117e-05
1.12251e-05 -2.25931e-05 -1.65462e-05
8.58129e-06 -2.47803e-05 -1.68742e-05
5.65469e-06 -2.76266e-05 -1.75351e-05
2.61247e-05 -1.50598e-05 -1.80284e-05
2.6717e-05 8.93848e-06 -1.75016e-05
2.57222e-05 5.04964e-06 -1.69085e-05
2.52068e-05 1.62334e-06 -1.65233e-05
2.52039e-05 -1.59945e-06 -1.65216e-05
2.57509e-05 -4.99743e-06 -1.68884e-05
2.6699e-05 -8.91724e-06 -1.75097e-05
2.61078e-05 1.50609e-05 -1.80255e-05
5.63315e-06 2.7618e-05 -1.75096e-05
8.50866e-06 2.4807e-05 -1.69113e-05
1.12171e-05 2.26412e-05 -1.65294e-05
1.40046e-05 2.10223e-05 -1.65248e-05
1.72218e-05 1.97936e-05 -1.68852e-05
2.11151e-05 1.86345e-05 -1.75255e-05
0 0 0
0 0 0
0 0 0
0 0 0
0 0 0
0 0 0
1.79369e-06 8.5875e-07 4.55228e-06
1.73783e-06 -8.25118e-07 4.46083e-06
4.31955e-07 1.84963e-06 4.49514e-06
4.361e-07 -1.78064e-06 4.35611e-06
-1.84749e-06 2.09632e-08 4.42239e-06
-1.12309e-06 -1.30888e-06 4.15102e-06
-1.15921e-06 1.3068e-06 4.1998e-06
-2.25132e-05 -7.28772e-06 1.7e-05
-2.21965e-05 7.37161e-06 1.69687e-05
-4.86047e-06 2.28986e-05 1.69371e-05
-4.85798e-06 -2.31318e-05 1.6964e-05
1.74213e-05 1.56356e-05 1.69299e-05
1.75689e-05 -1.55365e-05 1.69392e-05
2.10736e-05 3.1639e-06 1.63244e-05
-1.39532e-05 1.71514e-05 1.64784e-05
-1.35913e-05 -1.67413e-05 1.641e-05
7.76789e-06 1.98196e-05 1.63312e-05
7.68491e-06 -2.03101e-05 1.64025e-05
2.14724e-05 -3.44376e-06 1.64002e-05
-2.11028e-05 6.5881e-09 1.62467e-05
-2.24205e-05 1.09998e-05 1.74537e-05
-1.8751e-05 9.25475e-06 1.66271e-05
-1.79829e-05 5.79548e-06 1.60363e-05
-1.4984e-05 7.44837e-06 1.54864e-05
-1.42245e-05 4.30774e-06 1.48297e-05
-1.15327e-05 5.74392e-06 1.40947e-05
-1.08581e-05 3.06875e-06 1.33735e-05
-8.40053e-06 4.30489e-06 1.24043e-05
-9.05885e-06 7.01344e-06 1.34563e-05
-6.20413e-06 5.48853e-06 1.16889e-05
-6.82834e-06 8.24948e-06 1.30799e-05
-4.28142e-06 6.67494e-06 1.14504e-05
-4.80003e-06 9.60997e-06 1.30939e-05
-2.40088e-06 7.99338e-06 1.17229e-05
-2.81287e-06 1.11673e-05 1.34749e-05
-4.75413e-07 9.59534e-06 1.25009e-05
-7.38358e-07 1.2997e-05 1.41417e-05
1.73109e-06 1.15178e-05 1.35349e-05
-5.53472e-06 1.27004e-05 1.44369e-05
1.68509e-06 8.22402e-06 1.17475e-05
4.0042e-06 1.01209e-05 1.31509e-05
3.70537e-06 7.09799e-06 1.14782e-05
6.06744e-06 8.96672e-06 1.31133e-05
5.76685e-06 6.10682e-06 1.17355e-05
8.35813e-06 8.02037e-06 1.3492e-05
8.10569e-06 5.19529e-06 1.25003e-05
1.09541e-05 7.09709e-06 1.41469e-05
1.0746e-05 4.32282e-06 1.3499e-05
8.53057e-06 1.10375e-05 1.44607e-05
7.93773e-06 2.64376e-06 1.17273e-05
1.06461e-05 1.73721e-06 1.3104e-05
7.94873e-06 3.58762e-07 1.14555e-05
1.08065e-05 -7.59117e-07 1.31241e-05
8.11169e-06 -1.93781e-06 1.17091e-05
1.10983e-05 -3.31287e-06 1.34839e-05
8.46978e-06 -4.424e-06 1.2444e-05
1.15038e-05 -6.00291e-06 1.41093e-05
8.95562e-06 -7.13815e-06 1.3428e-05
6.14756e-06 -5.49444e-06 1.16412e-05
6.64453e-06 -8.30091e-06 1.30182e-05
4.10523e-06 -6.58855e-06 1.13109e-05
4.52338e-06 -9.55092e-06 1.29882e-05
2.24231e-06 -7.85833e-06 1.15973e-05
2.48485e-06 -1.1002e-05 1.33509e-05
2.25292e-07 -9.37374e-06 1.23535e-05
3.30015e-07 -1.27699e-05 1.40338e-05
-1.91545e-06 -1.11508e-05 1.3377e-05
-1.84108e-06 -7.92166e-06 1.15821e-05
-4.16792e-06 -9.87491e-06 1.3085e-05
-3.81396e-06 -6.73054e-06 1.13171e-05
-6.34566e-06 -8.66207e-06 1.30993e-05
-5.89133e-06 -5.69804e-06 1.16284e-05
-8.49977e-06 -7.43584e-06 1.33797e-05
-8.1676e-06 -4.72809e-06 1.24086e-05
-1.10957e-05 -6.40281e-06 1.40699e-05
-4.37168e-06 -1.31233e-05 1.44337e-05
-1.08089e-05 -3.65071e-06 1.34392e-05
7.22617e-06 -1.13728e-05 1.4273e-05
-7.74175e-06 1.9827e-06 1.14929e-05
-1.32162e-05 1.03506e-06 1.42109e-05
1.72913e-06 1.50829e-05 1.49522e-05
1.37682e-05 4.62241e-07 1.43878e-05
1.38433e-05 6.10015e-06 1.49317e-05
-9.69413e-06 1.01963e-05 1.45325e-05
-5.41605e-06 -3.19768e-06 1.01822e-05
-1.17137e-05 -9.2974e-06 1.48892e-05
1.18825e-05 -8.76027e-06 1.47872e-05
1.47819e-05 -7.47366e-06 1.54034e-05
-1.39598e-05 -5.24393e-06 1.48617e-05
2.79584e-06 -1.45163e-05 1.47962e-05
4.24566e-07 -1.64995e-05 1.53978e-05
3.51846e-06 4.39697e-06 9.58115e-06
1.40107e-05 9.29913e-06 1.54917e-05
1.79309e-05 8.14502e-06 1.63006e-05
-1.56756e-05 1.13954e-05 1.62336e-05
-1.09409e-06 1.67692e-05 1.54954e-05
1.90687e-06 1.96218e-05 1.6311e-05
-2.09189e-06 5.22012e-06 9.59765e-06
5.55398e-06 -7.84609e-07 9.5942e-06
3.58598e-06 -3.68359e-06 9.08203e-06
-1.77965e-06 -5.17861e-06 9.44966e-06
-2.24689e-05 -1.10109e-05 1.74744e-05
-1.87983e-05 -9.24149e-06 1.66511e-05
2.1148e-05 1.41649e-05 1.75057e-05
2.07539e-05 -1.43177e-05 1.74357e-05
-1.76461e-06 -2.54467e-05 1.7511e-05
-1.68214e-06 2.54107e-05 1.75157e-05
1.77131e-05 -1.1907e-05 1.66873e-05
2.06459e-05 -1.07512e-05 1.71161e-05
3.77567e-06 -1.89853e-05 1.61395e-05
7.68536e-07 -2.03459e-05 1.64829e-05
-1.94052e-05 -1.26506e-05 1.71432e-05
-1.37312e-05 -2.30694e-06 1.44719e-05
-1.65928e-05 -3.70146e-06 1.54776e-05
-1.03759e-05 -1.09639e-06 1.29521e-05
2.44522e-05 1.10729e-05 1.76517e-05
2.54978e-05 -1.24033e-05 1.78482e-05
2.64926e-06 2.67262e-05 1.76606e-05
2.52101e-06 -2.64138e-05 1.76295e-05
3.33949e-06 -2.30321e-05 1.70292e-05
-2.05391e-06 -1.832e-05 1.5951e-05
4.05909e-06 2.37915e-05 1.71305e-05
2.26143e-05 8.37932e-06 1.71193e-05
4.61364e-06 1.73135e-05 1.57273e-05
1.44271e-05 -1.31195e-05 1.61375e-05
-1.57878e-05 -1.09848e-05 1.62146e-05
-1.67999e-05 -3.8143e-07 1.53774e-05
1.7306e-05 4.68751e-06 1.57257e-05
6.55222e-08 -6.38734e-06 1.02675e-05
1.74172e-06 -4.84849e-06 9.09253e-06
5.85049e-06 -2.93553e-06 1.03782e-05
-2.14443e-05 3.75053e-06 1.64589e-05
5.7294e-06 -1.62746e-05 1.55078e-05
9.08351e-06 -1.74991e-05 1.59976e-05
1.75723e-05 1.18817e-05 1.66724e-05
1.39943e-05 -1.63823e-05 1.64013e-05
1.074e-05 -1.37891e-05 1.55502e-05
-3.54799e-06 -4.22021e-06 9.50081e-06
5.39914e-06 1.1385e-06 9.49909e-06
5.21808e-06 3.22289e-06 1.00473e-05
-1.74979e-06 -2.83547e-05 1.78769e-05
1.89207e-06 5.29892e-06 9.58449e-06
-1.13824e-07 6.10503e-06 1.00388e-05
-3.78494e-06 4.12776e-06 9.57845e-06
-5.6227e-06 3.0342e-06 1.02853e-05
-5.16549e-06 1.04068e-06 9.21365e-06
-7.52728e-06 -6.17394e-08 1.11724e-05
-4.33439e-06 -8.10281e-07 8.38189e-06
-3.1086e-06 1.87234e-06 7.3741e-06
-2.20813e-05 -3.60777e-06 1.65159e-05
2.34063e-05 -1.5688e-05 1.78362e-05
-1.5072e-06 2.1168e-05 1.66821e-05
2.12617e-05 -8.45201e-08 1.62258e-05
1.76221e-05 -1.64681e-06 1.55815e-05
1.73478e-05 -4.9417e-06 1.57707e-05
2.18916e-05 -7.45115e-06 1.69137e-05
-2.31823e-05 -1.42546e-05 1.78328e-05
1.73247e-05 1.64888e-06 1.55086e-05
-1.734e-06 2.84732e-05 1.78942e-05
-4.22073e-07 3.68343e-06 7.49534e-06
2.3772e-05 1.57424e-05 1.78846e-05
-1.74974e-05 1.56423e-05 1.6975e-05
-1.06263e-05 -1.84662e-05 1.62551e-05
-1.00996e-05 -1.43424e-05 1.55717e-05
-7.50781e-06 -1.60949e-05 1.56221e-05
-7.32216e-06 -2.01206e-05 1.63953e-05
-1.07045e-05 1.85353e-05 1.62668e-05
-1.03474e-05 1.43842e-05 1.56194e-05
-7.77268e-06 2.04925e-05 1.64443e-05
-4.25301e-06 1.86098e-05 1.6053e-05
1.07597e-05 1.83455e-05 1.62262e-05
1.38917e-05 1.6935e-05 1.64311e-05
1.4042e-05 1.29729e-05 1.60513e-05
-7.36161e-06 1.62884e-05 1.56386e-05
1.05252e-05 1.45471e-05 1.56453e-05
7.74879e-06 1.60924e-05 1.5614e-05
-3.11648e-06 -1.89877e-06 7.39322e-06
-7.25768e-06 -1.24221e-05 1.46252e-05
3.00867e-06 4.03604e-08 6.60102e-06
4.8726e-06 1.35228e-05 1.46181e-05
1.40761e-05 -2.2604e-06 1.45705e-05
-1.72899e-05 -1.52168e-05 1.69456e-05
-1.73666e-05 2.42032e-06 1.55979e-05
-1.22048e-05 8.91199e-06 1.49435e-05
-7.70567e-06 -2.29253e-06 1.15547e-05
-1.24498e-05 1.18127e-05 1.554e-05
-1.42736e-07 -3.75424e-06 7.55423e-06
2.73024e-06 2.27209e-06 7.25197e-06
-2.00388e-06 -1.46506e-05 1.48081e-05
9.36515e-06 -1.00683e-05 1.43895e-05
1.38608e-05 3.15783e-06 1.45662e-05
-7.34009e-06 1.11994e-05 1.42604e-05
4.99725e-06 -1.27749e-05 1.43693e-05
1.10319e-05 1.04306e-05 1.49197e-05
-3.59647e-06 1.46854e-05 1.49081e-05
-4.6355e-06 -1.6617e-05 1.55489e-05
-1.95072e-05 1.28925e-05 1.71614e-05
-2.31271e-05 1.48583e-05 1.78435e-05
-1.2905e-05 -1.26862e-05 1.58126e-05
3.76082e-06 -1.58613e-06 7.907e-06
1.7644e-06 2.9223e-06 7.08448e-06
-9.23054e-06 -1.06095e-05 1.45319e-05
1.72775e-06 -2.82317e-06 6.93112e-06
9.94736e-07 2.4117e-05 1.73086e-05
2.13681e-05 1.11939e-05 1.72988e-05
-1.46647e-05 -7.95345e-06 1.54854e-05
1.37082e-05 -4.78636e-06 1.46907e-05
-1.9099e-06 -2.17631e-05 1.68028e-05
1.80605e-05 -8.41913e-06 1.63408e-05
-1.66791e-05 -6.32862e-06 1.57825e-05
-4.32903e-07 -1.92233e-06 4.79851e-06
-1.80538e-06 2.99546e-06 7.17723e-06
-2.50522e-05 -1.29819e-05 1.79224e-05
-2.51274e-05 -1.45074e-05 1.80022e-05
-2.50454e-05 1.30338e-05 1.79061e-05
-2.51182e-05 1.46501e-05 1.79823e-05
-1.64847e-06 -3.12487e-06 7.20997e-06
6.328e-06 1.13685e-05 1.40767e-05
5.33713e-07 -2.40863e-05 1.73023e-05
-5.22781e-07 1.80955e-06 4.64505e-06
7.40752e-06 -1.43438e-05 1.51525e-05
2.33031e-05 -1.32094e-05 1.77289e-05
2.36329e-05 -1.05376e-05 1.74909e-05
1.19885e-05 -1.82111e-05 1.62934e-05
1.47302e-05 -1.01467e-05 1.57957e-05
-1.00272e-05 1.00125e-06 1.27547e-05
-1.74002e-06 -8.15908e-07 4.72349e-06
7.6907e-07 3.70838e-06 7.57321e-06
2.34309e-06 -1.99717e-06 6.55534e-06
2.01567e-05 5.89788e-06 1.64537e-05
5.07013e-06 2.05961e-05 1.64961e-05
3.42118e-07 -2.76803e-05 1.78541e-05
-1.73124e-06 7.09116e-07 4.60636e-06
-3.21153e-06 6.23052e-07 6.8242e-06
3.57724e-06 1.47542e-06 7.63669e-06
4.99226e-07 2.8324e-05 1.79274e-05
2.47605e-05 1.37342e-05 1.79185e-05
-2.03285e-05 1.5536e-05 1.74292e-05
1.17872e-06 1.36448e-06 4.45989e-06
-2.06398e-05 -1.57285e-05 1.75277e-05
-1.89991e-05 -2.32221e-06 1.59463e-05
-1.95593e-05 -5.58504e-06 1.63324e-05
9.05689e-07 -3.24778e-06 7.00616e-06
-4.36606e-06 -1.97895e-05 1.6322e-05
-7.93735e-06 1.38345e-05 1.51012e-05
1.16576e-06 -1.30419e-06 4.33933e-06
1.19345e-05 -1.12285e-05 1.52923e-05
6.13312e-06 -2.26963e-05 1.68206e-05
-1.45223e-05 1.43555e-05 1.63238e-05
7.92915e-06 1.33214e-05 1.49481e-05
1.79369e-06 8.5875e-07 -4.55228e-06
1.73783e-06 -8.25118e-07 -4.46083e-06
4.31955e-07 1.84963e-06 -4.49514e-06
4.361e-07 -1.78064e-06 -4.35611e-06
-1.84749e-06 2.09632e-08 -4.42239e-06
-1.12309e-06 -1.30888e-06 -4.15102e-06
-1.15921e-06 1.3068e-06 -4.1998e-06
-2.25132e-05 -7.28772e-06 -1.7e-05
-2.21965e-05 7.37161e-06 -1.69687e-05
-4.86047e-06 2.28986e-05 -1.69371e-05
-4.85798e-06 -2.31318e-05 -1.6964e-05
1.74213e-05 1.56356e-05 -1.69299e-05
1.75689e-05 -1.55365e-05 -1.69392e-05
2.10736e-05 3.1639e-06 -1.63244e-05
-1.39532e-05 1.71514e-05 -1.64784e-05
-1.35913e-05 -1.67413e-05 -1.641e-05
7.76789e-06 1.98196e-05 -1.63312e-05
7.68491e-06 -2.03101e-05 -1.64025e-05
2.14724e-05 -3.44376e-06 -1.64002e-05
-2.11028e-05 6.5881e-09 -1.62467e-05
-2.24205e-05 1.09998e-05 -1.74537e-05
-1.8751e-05 9.25475e-06 -1.66271e-05
-1.79829e-05 5.79548e-06 -1.60363e-05
-1.4984e-05 7.44837e-06 -1.54864e-05
-1.42245e-05 4.30774e-06 -1.48297e-05
-1.15327e-05 5.74392e-06 -1.40947e-05
-1.08581e-05 3.06875e-06 -1.33735e-05
-8.40053e-06 4.30489e-06 -1.24043e-05
-9.05885e-06 7.01344e-06 -1.34563e-05
-6.20413e-06 5.48853e-06 -1.16889e-05
-6.82834e-06 8.24948e-06 -1.30799e-05
-4.28142e-06 6.67494e-06 -1.14504e-05
-4.80003e-06 9.60997e-06 -1.30939e-05
-2.40088e-06 7.99338e-06 -1.17229e-05
-2.81287e-06 1.11673e-05 -1.34749e-05
-4.75413e-07 9.59534e-06 -1.25009e-05
-7.38358e-07 1.2997e-05 -1.41417e-05
1.73109e-06 1.15178e-05 -1.35349e-05
-5.53472e-06 1.27004e-05 -1.44369e-05
1.68509e-06 8.22402e-06 -1.17475e-05
4.0042e-06 1.01209e-05 -1.31509e-05
3.70537e-06 7.09799e-06 -1.14782e-05
6.06744e-06 8.96672e-06 -1.31133e-05
5.76685e-06 6.10682e-06 -1.17355e-05
8.35813e-06 8.02037e-06 -1.3492e-05
8.10569e-06 5.19529e-06 -1.25003e-05
1.09541e-05 7.09709e-06 -1.41469e-05
1.0746e-05 4.32282e-06 -1.3499e-05
8.53057e-06 1.10375e-05 -1.44607e-05
7.93773e-06 2.64376e-06 -1.17273e-05
1.06461e-05 1.73721e-06 -1.3104e-05
7.94873e-06 3.58762e-07 -1.14555e-05
1.08065e-05 -7.59117e-07 -1.31241e-05
8.11169e-06 -1.93781e-06 -1.17091e-05
1.10983e-05 -3.31287e-06 -1.34839e-05
8.46978e-06 -4.424e-06 -1.2444e-05
1.15038e-05 -6.00291e-06 -1.41093e-05
8.95562e-06 -7.13815e-06 -1.3428e-05
6.14756e-06 -5.49444e-06 -1.16412e-05
6.64453e-06 -8.30091e-06 -1.30182e-05
4.10523e-06 -6.58855e-06 -1.13109e-05
4.52338e-06 -9.55092e-06 -1.29882e-05
2.24231e-06 -7.85833e-06 -1.15973e-05
2.48485e-06 -1.1002e-05 -1.33509e-05
2.25292e-07 -9.37374e-06 -1.23535e-05
3.30015e-07 -1.27699e-05 -1.40338e-05
-1.91545e-06 -1.11508e-05 -1.3377e-05
-1.84108e-06 -7.92166e-06 -1.15821e-05
-4.16792e-06 -9.87491e-06 -1.3085e-05
-3.81396e-06 -6.73054e-06 -1.13171e-05
-6.34566e-06 -8.66207e-06 -1.30993e-05
-5.89133e-06 -5.69804e-06 -1.16284e-05
-8.49977e-06 -7.43584e-06 -1.33797e-05
-8.1676e-06 -4.72809e-06 -1.24086e-05
-1.10957e-05 -6.40281e-06 -1.40699e-05
-4.37168e-06 -1.31233e-05 -1.44337e-05
-1.08089e-05 -3.65071e-06 -1.34392e-05
7.22617e-06 -1.13728e-05 -1.4273e-05
-7.74175e-06 1.9827e-06 -1.14929e-05
-1.32162e-05 1.03506e-06 -1.42109e-05
1.72913e-06 1.50829e-05 -1.49522e-05
1.37682e-05 4.62241e-07 -1.43878e-05
1.38433e-05 6.10015e-06 -1.49317e-05
-9.69413e-06 1.01963e-05 -1.45325e-05
-5.41605e-06 -3.19768e-06 -1.01822e-05
-1.17137e-05 -9.2974e-06 -1.48892e-05
1.18825e-05 -8.76027e-06 -1.47872e-05
1.47819e-05 -7.47366e-06 -1.54034e-05
-1.39598e-05 -5.24393e-06 -1.48617e-05
2.79584e-06 -1.45163e-05 -1.47962e-05
4.24566e-07 -1.64995e-05 -1.53978e-05
3.51846e-06 4.39697e-06 -9.58115e-06
1.40107e-05 9.29913e-06 -1.54917e-05
1.79309e-05 8.14502e-06 -1.63006e-05
-1.56756e-05 1.13954e-05 -1.62336e-05
-1.09409e-06 1.67692e-05 -1.54954e-05
1.90687e-06 1.96218e-05 -1.6311e-05
-2.09189e-06 5.22012e-06 -9.59765e-06
5.55398e-06 -7.84609e-07 -9.5942e-06
3.58598e-06 -3.68359e-06 -9.08203e-06
-1.77965e-06 -5.17861e-06 -9.44966e-06
-2.24689e-05 -1.10109e-05 -1.74744e-05
-1.87983e-05 -9.24149e-06 -1.66511e-05
2.1148e-05 1.41649e-05 -1.75057e-05
2.07539e-05 -1.43177e-05 -1.74357e-05
-1.76461e-06 -2.54467e-05 -1.7511e-05
-1.68214e-06 2.54107e-05 -1.75157e-05
1.77131e-05 -1.1907e-05 -1.66873e-05
2.06459e-05 -1.07512e-05 -1.71161e-05
3.77567e-06 -1.89853e-05 -1.61395e-05
7.68536e-07 -2.03459e-05 -1.64829e-05
-1.94052e-05 -1.26506e-05 -1.71432e-05
-1.37312e-05 -2.30694e-06 -1.44719e-05
-1.65928e-05 -3.70146e-06 -1.54776e-05
-1.03759e-05 -1.09639e-06 -1.29521e-05
2.44522e-05 1.10729e-05 -1.76517e-05
2.54978e-05 -1.24033e-05 -1.78482e-05
2.64926e-06 2.67262e-05 -1.76606e-05
2.52101e-06 -2.64138e-05 -1.76295e-05
3.33949e-06 -2.30321e-05 -1.70292e-05
-2.05391e-06 -1.832e-05 -1.5951e-05
4.05909e-06 2.37915e-05 -1.71305e-05
2.26143e-05 8.37932e-06 -1.71193e-05
4.61364e-06 1.73135e-05 -1.57273e-05
1.44271e-05 -1.31195e-05 -1.61375e-05
-1.57878e-05 -1.09848e-05 -1.62146e-05
-1.67999e-05 -3.8143e-07 -1.53774e-05
1.7306e-05 4.68751e-06 -1.57257e-05
6.55222e-08 -6.38734e-06 -1.02675e-05
1.74172e-06 -4.84849e-06 -9.09253e-06
5.85049e-06 -2.93553e-06 -1.03782e-05
-2.14443e-05 3.75053e-06 -1.64589e-05
5.7294e-06 -1.62746e-05 -1.55078e-05
9.08351e-06 -1.74991e-05 -1.59976e-05
1.75723e-05 1.18817e-05 -1.66724e-05
1.39943e-05 -1.63823e-05 -1.64013e-05
1.074e-05 -1.37891e-05 -1.55502e-05
-3.54799e-06 -4.22021e-06 -9.50081e-06
5.39914e-06 1.1385e-06 -9.49909e-06
5.21808e-06 3.22289e-06 -1.00473e-05
-1.74979e-06 -2.83547e-05 -1.78769e-05
1.89207e-06 5.29892e-06 -9.58449e-06
-1.13824e-07 6.10503e-06 -1.00388e-05
-3.78494e-06 4.12776e-06 -9.57845e-06
-5.6227e-06 3.0342e-06 -1.02853e-05
-5.16549e-06 1.04068e-06 -9.21365e-06
-7.52728e-06 -6.17394e-08 -1.11724e-05
-4.33439e-06 -8.10281e-07 -8.38189e-06
-3.1086e-06 1.87234e-06 -7.3741e-06
-2.20813e-05 -3.60777e-06 -1.65159e-05
2.34063e-05 -1.5688e-05 -1.78362e-05
-1.5072e-06 2.1168e-05 -1.66821e-05
2.12617e-05 -8.45201e-08 -1.62258e-05
1.76221e-05 -1.64681e-06 -1.55815e-05
1.73478e-05 -4.9417e-06 -1.57707e-05
2.18916e-05 -7.45115e-06 -1.69137e-05
-2.31823e-05 -1.42546e-05 -1.78328e-05
1.73247e-05 1.64888e-06 -1.55086e-05
-1.734e-06 2.84732e-05 -1.78942e-05
-4.22073e-07 3.68343e-06 -7.49534e-06
2.3772e-05 1.57424e-05 -1.78846e-05
-1.74974e-05 1.56423e-05 -1.6975e-05
-1.06263e-05 -1.84662e-05 -1.62551e-05
-1.00996e-05 -1.43424e-05 -1.55717e-05
-7.50781e-06 -1.60949e-05 -1.56221e-05
-7.32216e-06 -2.01206e-05 -1.63953e-05
-1.07045e-05 1.85353e-05 -1.62668e-05
-1.03474e-05 1.43842e-05 -1.56194e-05
-7.77268e-06 2.04925e-05 -1.64443e-05
-4.25301e-06 1.86098e-05 -1.6053e-05
1.07597e-05 1.83455e-05 -1.62262e-05
1.38917e-05 1.6935e-05 -1.64311e-05
1.4042e-05 1.29729e-05 -1.60513e-05
-7.36161e-06 1.62884e-05 -1.56386e-05
1.05252e-05 1.45471e-05 -1.56453e-05
7.74879e-06 1.60924e-05 -1.5614e-05
-3.11648e-06 -1.89877e-06 -7.39322e-06
-7.25768e-06 -1.24221e-05 -1.46252e-05
3.00867e-06 4.03604e-08 -6.60102e-06
4.8726e-06 1.35228e-05 -1.46181e-05
1.40761e-05 -2.2604e-06 -1.45705e-05
-1.72899e-05 -1.52168e-05 -1.69456e-05
-1.73666e-05 2.42032e-06 -1.55979e-05
-1.22048e-05 8.91199e-06 -1.49435e-05
-7.70567e-06 -2.29253e-06 -1.15547e-05
-1.24498e-05 1.18127e-05 -1.554e-05
-1.42736e-07 -3.75424e-06 -7.55423e-06
2.73024e-06 2.27209e-06 -7.25197e-06
-2.00388e-06 -1.46506e-05 -1.48081e-05
9.36515e-06 -1.00683e-05 -1.43895e-05
1.38608e-05 3.15783e-06 -1.45662e-05
-7.34009e-06 1.11994e-05 -1.42604e-05
4.99725e-06 -1.27749e-05 -1.43693e-05
1.10319e-05 1.04306e-05 -1.49197e-05
-3.59647e-06 1.46854e-05 -1.49081e-05
-4.6355e-06 -1.6617e-05 -1.55489e-05
-1.95072e-05 1.28925e-05 -1.71614e-05
-2.31271e-05 1.48583e-05 -1.78435e-05
-1.2905e-05 -1.26862e-05 -1.58126e-05
3.76082e-06 -1.58613e-06 -7.907e-06
1.7644e-06 2.9223e-06 -7.08448e-06
-9.23054e-06 -1.06095e-05 -1.45319e-05
1.72775e-06 -2.82317e-06 -6.93112e-06
9.94736e-07 2.4117e-05 -1.73086e-05
2.13681e-05 1.11939e-05 -1.72988e-05
-1.46647e-05 -7.95345e-06 -1.54854e-05
1.37082e-05 -4.78636e-06 -1.46907e-05
-1.9099e-06 -2.17631e-05 -1.68028e-05
1.80605e-05 -8.41913e-06 -1.63408e-05
-1.66791e-05 -6.32862e-06 -1.57825e-05
-4.32903e-07 -1.92233e-06 -4.79851e-06
-1.80538e-06 2.99546e-06 -7.17723e-06
-2.50522e-05 -1.29819e-05 -1.79224e-05
-2.51274e-05 -1.45074e-05 -1.80022e-05
-2.50454e-05 1.30338e-05 -1.79061e-05
-2.51182e-05 1.46501e-05 -1.79823e-05
-1.64847e-06 -3.12487e-06 -7.20997e-06
6.328e-06 1.13685e-05 -1.40767e-05
5.33713e-07 -2.40863e-05 -1.73023e-05
-5.22781e-07 1.80955e-06 -4.64505e-06
7.40752e-06 -1.43438e-05 -1.51525e-05
2.33031e-05 -1.32094e-05 -1.77289e-05
2.36329e-05 -1.05376e-05 -1.74909e-05
1.19885e-05 -1.82111e-05 -1.62934e-05
1.47302e-05 -1.01467e-05 -1.57957e-05
-1.00272e-05 1.00125e-06 -1.27547e-05
-1.74002e-06 -8.15908e-07 -4.72349e-06
7.6907e-07 3.70838e-06 -7.57321e-06
2.34309e-06 -1.99717e-06 -6.55534e-06
2.01567e-05 5.89788e-06 -1.64537e-05
5.07013e-06 2.05961e-05 -1.64961e-05
3.42118e-07 -2.76803e-05 -1.78541e-05
-1.73124e-06 7.09116e-07 -4.60636e-06
-3.21153e-06 6.23052e-07 -6.8242e-06
3.57724e-06 1.47542e-06 -7.63669e-06
4.99226e-07 2.8324e-05 -1.79274e-05
2.47605e-05 1.37342e-05 -1.79185e-05
-2.03285e-05 1.5536e-05 -1.74292e-05
1.17872e-06 1.36448e-06 -4.45989e-06
-2.06398e-05 -1.57285e-05 -1.75277e-05
-1.89991e-05 -2.32221e-06 -1.59463e-05
-1.95593e-05 -5.58504e-06 -1.63324e-05
9.05689e-07 -3.24778e-06 -7.00616e-06
-4.36606e-06 -1.97895e-05 -1.6322e-05
-7.93735e-06 1.38345e-05 -1.51012e-05
1.16576e-06 -1.30419e-06 -4.33933e-06
1.19345e-05 -1.12285e-05 -1.52923e-05
6.13312e-06 -2.26963e-05 -1.68206e-05
-1.45223e-05 1.43555e-05 -1.63238e-05
7.92915e-06 1.33214e-05 -1.49481e-05
SCALARS effective_fluid_pressure_TPM float
LOOKUP_TABLE default
665
665
665
665
665
665
665
665
665
665
665
665
665
665
133
665
665
665
665
665
665
665
665
665
665
665
665
665
665
133
665
560.32
520.666
502.807
502.578
519.792
559.941
665
561.987
520.761
503.25
503.359
520.693
561.609
665
559.608
519.663
502.752
502.969
521.161
561.625
665
558.864
519.008
501.54
502.236
518.857
559.453
665
558.504
519.947
501.872
501.804
519.38
557.944
665
558.66
519.961
502.045
501.907
519.368
559.667
133
133
133
133
133
133
665
560.32
520.666
502.807
502.578
519.792
559.941
665
561.987
520.761
503.25
503.359
520.693
561.609
665
559.608
519.663
502.752
502.969
521.161
561.625
665
558.864
519.008
501.54
502.236
518.857
559.453
665
558.504
519.947
501.872
501.804
519.38
557.944
665
558.66
519.961
502.045
501.907
519.368
559.667
133
133
133
133
133
133
228.257
226.328
227.041
224.109
225.525
219.847
220.863
529.166
528.176
526.555
527.934
526.582
527.635
498.703
503.549
501.588
498.944
501.46
501.242
494.323
562.503
518.98
495.027
480.733
461.353
443.273
425.041
402.115
427.266
385.261
417.733
379.607
417.897
385.945
427.382
404.293
444.376
429.071
450.253
386.555
419.297
380.202
418.308
386.185
427.755
404.221
444.487
428.155
450.85
386.029
418.16
379.618
418.516
385.553
427.591
402.914
443.549
426.447
384.046
416.132
376.302
415.34
383.018
424.413
400.84
441.699
425.221
382.755
417.773
376.567
418.09
383.84
425.261
402.207
442.671
450.644
426.72
446.002
380.727
444.668
465.283
448.735
464.756
453.404
350.902
463.498
461.03
478.437
462.765
460.635
478.341
337.277
480.813
505.845
503.604
480.879
506.152
337.69
337.501
326.165
334.415
563.378
519.655
567.579
562.365
567.897
567.75
521.804
542.715
498.617
513.729
542.06
451.446
477.564
414.651
579.52
611.029
579.673
576.034
534.55
494.467
538.223
537.92
485.024
498.103
503.321
473.125
485.071
352.747
326.415
355.176
503.431
477.703
488.345
520.873
502.014
477.9
335.541
335.404
347.699
613.446
337.378
347.57
337.265
353.203
329.189
373.254
310.66
288.788
504.697
608.382
521.094
493.707
478.313
486.341
526.488
600.341
476.55
615.9
291.397
615.798
528.716
494.519
478.22
479.394
501.301
494.825
479.42
502.496
495.16
493.73
502.248
495.233
479.867
480.033
479.035
289.294
454.576
271.942
454.983
453.612
526.997
479.456
465.207
382.097
480.492
292.669
286.082
461.463
449.617
453.961
445.838
448.673
463.588
463.245
479.937
543.455
601.702
487.477
300.301
282.461
452.997
279.163
552.237
551.997
480.758
458.001
526.219
508.172
488.574
233.729
284.558
614.507
636.322
615.141
636.679
285.28
441.324
553.078
230.485
467.535
590.263
566.031
495.799
490.033
410.028
232.119
293.096
271.126
507.88
509.177
607.814
229.662
276.976
294.43
618.878
618.792
558.511
226.522
562.524
488.296
503.379
280.846
504.05
466.362
224.007
473.568
519.565
502.965
462.428
228.257
226.328
227.041
224.109
225.525
219.847
220.863
529.166
528.176
526.555
527.934
526.582
527.635
498.703
503.549
501.588
498.944
501.46
501.242
494.323
562.503
518.98
495.027
480.733
461.353
443.273
425.041
402.115
427.266
385.261
417.733
379.607
417.897
385.945
427.382
404.293
444.376
429.071
450.253
386.555
419.297
380.202
418.308
386.185
427.755
404.221
444.487
428.155
450.85
386.029
418.16
379.618
418.516
385.553
427.591
402.914
443.549
426.447
384.046
416.132
376.302
415.34
383.018
424.413
400.84
441.699
425.221
382.755
417.773
376.567
418.09
383.84
425.261
402.207
442.671
450.644
426.72
446.002
380.727
444.668
465.283
448.735
464.756
453.404
350.902
463.498
461.03
478.437
462.765
460.635
478.341
337.277
480.813
505.845
503.604
480.879
506.152
337.69
337.501
326.165
334.415
563.378
519.655
567.579
562.365
567.897
567.75
521.804
542.715
498.617
513.729
542.06
451.446
477.564
414.651
579.52
611.029
579.673
576.034
534.55
494.467
538.223
537.92
485.024
498.103
503.321
473.125
485.071
352.747
326.415
355.176
503.431
477.703
488.345
520.873
502.014
477.9
335.541
335.404
347.699
613.446
337.378
347.57
337.265
353.203
329.189
373.254
310.66
288.788
504.697
608.382
521.094
493.707
478.313
486.341
526.488
600.341
476.55
615.9
291.397
615.798
528.716
494.519
478.22
479.394
501.301
494.825
479.42
502.496
495.16
493.73
502.248
495.233
479.867
480.033
479.035
289.294
454.576
271.942
454.983
453.612
526.997
479.456
465.207
382.097
480.492
292.669
286.082
461.463
449.617
453.961
445.838
448.673
463.588
463.245
479.937
543.455
601.702
487.477
300.301
282.461
452.997
279.163
552.237
551.997
480.758
458.001
526.219
508.172
488.574
233.729
284.558
614.507
636.322
615.141
636.679
285.28
441.324
553.078
230.485
467.535
590.263
566.031
495.799
490.033
410.028
232.119
293.096
271.126
507.88
509.177
607.814
229.662
276.976
294.43
618.878
618.792
558.511
226.522
562.524
488.296
503.379
280.846
504.05
466.362
224.007
473.568
519.565
502.965
462.428

CELL_DATA 563
TENSORS stress float
164.612 -24.9205 -1.44951e-12
-24.9205 28.1489 -5.29473e-12
-1.44951e-12 -5.29473e-12 -12.6039

-40.3387 -21.3203 1.02703e-12
-21.3203 -7.35473 3.97312e-13
1.02703e-12 3.97312e-13 -10.232

-9.9403 28.0436 -6.37712e-13
28.0436 -1.11051 1.1573e-12
-6.37712e-13 1.1573e-12 -6.36053

-40.4268 -29.8426 -6.54632e-12
-29.8426 -12.8459 -3.36871e-12
-6.54632e-12 -3.36871e-12 -10.5983

-22.6922 19.9309 -5.32818e-12
19.9309 -1.92312 4.4218e-12
-5.32818e-12 4.4218e-12 -23.0213

-27.1398 -18.0747 2.65284e-12
-18.0747 15.8879 4.06786e-12
2.65284e-12 4.06786e-12 -6.4113

161.263 26.4847 -2.58638e-12
26.4847 28.0256 7.63833e-12
-2.58638e-12 7.63833e-12 -13.2628

-5.96162 29.9581 -1.26003e-12
29.9581 -10.1122 1.1949e-12
-1.26003e-12 1.1949e-12 -7.2765

34.6313 5.4832 1.96939e-12
5.4832 -19.0953 -1.73269e-13
1.96939e-12 -1.73269e-13 -4.12235

11.8602 -7.47758 1.37964e-13
-7.47758 -48.2873 1.89485e-12
1.37964e-13 1.89485e-12 -8.94723

104.195 16.3088 -1.85689e-12
16.3088 -8.44355 5.31368e-12
-1.85689e-12 5.31368e-12 -22.4542

-34.6378 -13.4533 1.10519e-12
-13.4533 18.9658 5.54815e-13
1.10519e-12 5.54815e-13 -7.18077

-6.02621 27.8334 -1.60701e-12
27.8334 -4.59157 -1.75267e-12
-1.60701e-12 -1.75267e-12 -6.15939

-35.552 -14.3402 3.2722e-13
-14.3402 7.84499 5.61921e-13
3.2722e-13 5.61921e-13 -9.13155

-23.6537 33.3109 -5.81757e-13
33.3109 -24.9939 1.73001e-12
-5.81757e-13 1.73001e-12 -21.365

21.3108 0.560989 2.66927e-12
0.560989 -32.3388 -1.68078e-12
2.66927e-12 -1.68078e-12 -5.58989

-48.9596 -17.9691 4.05879e-14
-17.9691 6.34284 -1.98419e-12
4.05879e-14 -1.98419e-12 -12.9462

11.6601 -2.6652 4.77958e-12
-2.6652 -43.2491 -1.96946e-12
4.77958e-12 -1.96946e-12 -8.03379

-11.3502 26.6741 -1.79116e-13
26.6741 19.5173 9.89431e-13
-1.79116e-13 9.89431e-13 -6.08968

21.7656 -4.19564 2.88007e-12
-4.19564 -35.295 1.70367e-12
2.88007e-12 1.70367e-12 -6.74151

-24.4796 8.66875 -3.02114e-12
8.66875 32.1276 3.42304e-12
-3.02114e-12 3.42304e-12 -4.93449

-11.8087 6.28739 5.35771e-12
6.28739 -11.9733 6.6113e-12
5.35771e-12 6.6113e-12 -75.6183

22.7433 1.876 -3.50002e-12
1.876 -33.4694 -5.78056e-13
-3.50002e-12 -5.78056e-13 -6.67749

-12.3883 -27.7155 -2.19025e-12
-27.7155 1.59952 -4.45451e-12
-2.19025e-12 -4.45451e-12 -6.60297

21.3044 6.84945 -9.30811e-13
6.84945 -34.3045 -4.21737e-13
-9.30811e-13 -4.21737e-13 -6.80674

-37.9055 19.113 2.27796e-12
19.113 2.65392 -3.66522e-13
2.27796e-12 -3.66522e-13 -9.45786

106.604 4.18144 -9.07126e-13
4.18144 20.6027 4.8613e-12
-9.07126e-13 4.8613e-12 -12.0492

-5.30201 30.7461 -2.64855e-12
30.7461 -7.2725 -3.43251e-12
-2.64855e-12 -3.43251e-12 -7.4418

27.89 37.075 1.42109e-14
37.075 26.4692 1.56319e-12
1.42109e-14 1.56319e-12 -8.63236

-9.43912 10.3235 -1.202e-13
10.3235 -32.9294 4.2785e-12
-1.202e-13 4.2785e-12 -49.5076

19.8307 14.2169 -3.18501e-12
14.2169 -29.3595 -1.73491e-12
-3.18501e-12 -1.73491e-12 -6.00112

-4.21067 -17.7806 -3.34991e-12
-17.7806 59.6581 1.79294e-12
-3.34991e-12 1.79294e-12 -8.47626

66.2837 -42.1022 -2.67164e-12
-42.1022 71.1389 6.24093e-12
-2.67164e-12 6.24093e-12 -11.2519

-48.2096 5.98653 3.30861e-12
5.98653 7.2695 2.59348e-13
3.30861e-12 2.59348e-13 -41.0368

-26.291 -4.84034 2.53412e-12
-4.84034 1.7567 -1.60642e-12
2.53412e-12 -1.60642e-12 -37.8017

-1.46696 21.0278 2.18077e-12
21.0278 -39.506 3.63753e-12
2.18077e-12 3.63753e-12 -41.1026

-43.9751 5.06716 3.78704e-12
5.06716 0.514193 -2.93247e-12
3.78704e-12 -2.93247e-12 -52.1899

-2.76027 -9.1701 -3.00767e-12
-9.1701 -20.7695 -2.52526e-12
-3.00767e-12 -2.52526e-12 -35.8962

-3.97443 -27.9984 1.022e-12
-27.9984 -4.6106 -2.29861e-12
1.022e-12 -2.29861e-12 -5.99473

65.5975 41.5214 -9.9097e-12
41.5214 73.1667 -1.91136e-12
-9.9097e-12 -1.91136e-12 -10.9636

60.1555 -17.9493 -7.15753e-12
-17.9493 0.116616 -8.26006e-13
-7.15753e-12 -8.26006e-13 -8.05022

-41.8029 -3.70577 -8.93493e-12
-3.70577 -1.18565 -7.83817e-13
-8.93493e-12 -7.83817e-13 -52.7247

-14.5935 19.555 2.81715e-12
19.555 -28.5513 -2.48424e-12
2.81715e-12 -2.48424e-12 -52.8329

18.1411 -12.2733 1.79412e-12
-12.2733 -29.8993 1.36439e-12
1.79412e-12 1.36439e-12 -6.22331

38.1733 -43.2996 6.54291e-12
-43.2996 41.8013 -1.80241e-12
6.54291e-12 -1.80241e-12 -14.5591

58.1441 -18.0636 -7.81597e-13
-18.0636 -2.30313 -2.55026e-12
-7.81597e-13 -2.55026e-12 -7.91383

-21.4423 17.0859 4.44533e-13
17.0859 30.3272 -5.96974e-12
4.44533e-13 -5.96974e-12 -5.72859

-11.373 19.3392 -1.47734e-13
19.3392 25.5106 1.92439e-13
-1.47734e-13 1.92439e-13 -3.92198

20.7911 -16.3012 4.36451e-12
-16.3012 -33.1148 8.55612e-13
4.36451e-12 8.55612e-13 -7.31193

12.6151 -34.1858 -1.12503e-14
-34.1858 46.4356 -6.49081e-12
-1.12503e-14 -6.49081e-12 -10.3975

62.3603 19.182 -2.25953e-12
19.182 2.80995 -5.60145e-13
-2.25953e-12 -5.60145e-13 -8.41413

46.5136 -25.2887 -6.27646e-12
-25.2887 5.13373 -3.50594e-12
-6.27646e-12 -3.50594e-12 -5.61023

-31.8958 19.4854 1.12651e-12
19.4854 -4.28539 -9.56568e-13
1.12651e-12 -9.56568e-13 -26.0852

37.0391 29.6497 -3.87246e-12
29.6497 14.5124 1.78228e-12
-3.87246e-12 1.78228e-12 -5.43266

-27.4496 -21.8128 -3.37508e-14
-21.8128 -8.22873 5.26708e-14
-3.37508e-14 5.26708e-14 -25.2476

64.8689 -42.7116 9.88128e-12
-42.7116 44.0802 3.97667e-12
9.88128e-12 3.97667e-12 -9.50213

-27.7494 5.45934 -1.25825e-12
5.45934 2.66927 4.81304e-12
-1.25825e-12 4.81304e-12 -38.3073

-5.5582 -5.32985 3.58084e-12
-5.32985 57.3882 7.28188e-12
3.58084e-12 7.28188e-12 -5.44969

-0.200461 10.3843 -5.92711e-13
10.3843 -24.8477 4.04533e-13
-5.92711e-13 4.04533e-13 -38.3689

-26.4855 21.4132 -1.6076e-13
21.4132 12.2195 2.06057e-13
-1.6076e-13 2.06057e-13 -6.86993

4.72629 5.75402 -1.93105e-12
5.75402 -56.04 -2.09344e-12
-1.93105e-12 -2.09344e-12 -13.9809

0.539908 11.4589 3.26998e-13
11.4589 -34.0567 -1.71152e-12
3.26998e-13 -1.71152e-12 -14.8397

106.344 31.8201 -3.9293e-12
31.8201 37.833 -9.7747e-12
-3.9293e-12 -9.7747e-12 -7.48955

-35.4919 -6.0353 6.0553e-12
-6.0353 10.6012 1.05516e-12
6.0553e-12 1.05516e-12 -13.479

-35.36 9.51984 3.11395e-12
9.51984 1.23367 2.75572e-12
3.11395e-12 2.75572e-12 -14.96

-42.5879 -2.88091 -4.38538e-14
-2.88091 21.1109 3.41712e-12
-4.38538e-14 3.41712e-12 -11.2389

-44.908 23.4019 4.76397e-13
23.4019 -5.89262 9.43245e-13
4.76397e-13 9.43245e-13 -13.9219

9.97103 8.4636 2.73618e-12
8.4636 -42.3783 -3.05385e-13
2.73618e-12 -3.05385e-13 -9.07809

-12.3347 -28.2396 1.33848e-12
-28.2396 1.68715 1.56556e-12
1.33848e-12 1.56556e-12 -6.67414

1.30885 -1.71128 7.41629e-13
-1.71128 -55.4564 1.43485e-12
7.41629e-13 1.43485e-12 -11.3042

-31.8854 -19.2614 -1.4954e-12
-19.2614 -4.59474 3.33363e-12
-1.4954e-12 3.33363e-12 -25.9546

-27.9751 21.3078 -7.82189e-13
21.3078 -8.35855 -3.89105e-13
-7.82189e-13 -3.89105e-13 -26.013

-0.65213 -16.5836 -3.98082e-12
-16.5836 61.6739 8.82257e-13
-3.98082e-12 8.82257e-13 -7.94906

-0.650162 -27.9362 2.83684e-12
-27.9362 -21.3612 5.08778e-12
2.83684e-12 5.08778e-12 -12.791

-14.0934 -25.1348 2.22489e-12
-25.1348 7.40675 1.49214e-12
2.22489e-12 1.49214e-12 -5.2362

91.6786 -31.7108 1.10608e-12
-31.7108 19.4849 -6.14916e-12
1.10608e-12 -6.14916e-12 -16.3331

-33.7063 3.22269 9.52571e-13
3.22269 9.1995 -2.27018e-12
9.52571e-13 -2.27018e-12 -18.5634

2.75198 28.944 5.47236e-12
28.944 -24.4248 1.81869e-12
5.47236e-12 1.81869e-12 -11.3166

-38.4337 19.6643 -6.14768e-13
19.6643 5.22967 1.22924e-12
-6.14768e-13 1.22924e-12 -9.23534

50.1907 7.99961 1.66504e-12
7.99961 -16.9643 1.72011e-13
1.66504e-12 1.72011e-13 -7.0671

60.0317 -33.9358 2.75809e-12
-33.9358 33.7869 -7.63597e-12
2.75809e-12 -7.63597e-12 -6.98377

-18.9603 -10.5874 8.88001e-12
-10.5874 -0.541549 -1.93001e-12
8.88001e-12 -1.93001e-12 -25.4309

-33.926 23.8996 -1.7879e-12
23.8996 -12.0234 9.88723e-13
-1.7879e-12 9.88723e-13 -14.5403

58.1565 -32.3841 1.24345e-13
-32.3841 18.0912 4.47997e-12
1.24345e-13 4.47997e-12 -10.1338

66.86 10.7912 -3.3206e-12
10.7912 8.51294 -1.87376e-12
-3.3206e-12 -1.87376e-12 -5.08451

7.67393 -21.2062 -4.58892e-13
-21.2062 88.4651 -5.26986e-12
-4.58892e-13 -5.26986e-12 -11.8623

-33.9862 14.4257 -2.55973e-12
14.4257 20.2383 7.87518e-13
-2.55973e-12 7.87518e-13 -7.54663

8.47536 23.1432 -2.43953e-12
23.1432 -26.074 -2.68023e-12
-2.43953e-12 -2.68023e-12 -11.2992

34.8688 42.199 1.21266e-12
42.199 46.1995 5.40723e-12
1.21266e-12 5.40723e-12 -14.4206

-4.39441 16.5068 1.40784e-11
16.5068 -35.541 -6.2288e-12
1.40784e-11 -6.2288e-12 -73.2851

-5.98031 -4.1084 -7.73011e-13
-4.1084 57.9487 1.86991e-12
-7.73011e-13 1.86991e-12 -5.44189

-1.81889 -16.632 1.11818e-11
-16.632 -39.401 4.60017e-12
1.11818e-11 4.60017e-12 -74.1084

-3.32961 -27.3349 -4.22773e-13
-27.3349 -30.0297 -6.28386e-13
-4.22773e-13 -6.28386e-13 -21.554

8.96702 27.4246 -2.70539e-12
27.4246 -29.9951 2.78296e-14
-2.70539e-12 2.78296e-14 -11.2572

45.7114 -24.4108 1.47674e-12
-24.4108 5.02403 -3.47189e-12
1.47674e-12 -3.47189e-12 -5.23631

10.0951 31.3235 5.14729e-12
31.3235 47.1634 -6.87095e-12
5.14729e-12 -6.87095e-12 -9.64052

14.2722 -10.7052 1.97294e-12
-10.7052 82.8393 -8.07177e-12
1.97294e-12 -8.07177e-12 -6.44707

-38.6331 21.9708 -3.00397e-12
21.9708 2.94149 7.70939e-13
-3.00397e-12 7.70939e-13 -8.56925

1.19277 16.7942 -1.9312e-12
16.7942 -25.7224 -4.75768e-13
-1.9312e-12 -4.75768e-13 -18.5675

-26.5381 15.154 -3.38233e-12
15.154 18.4493 4.02049e-13
-3.38233e-12 4.02049e-13 -5.70823

43.659 15.954 -2.2086e-12
15.954 -7.28544 -1.10297e-12
-2.2086e-12 -1.10297e-12 -4.07538

12.5768 -21.4727 2.68289e-12
-21.4727 57.9559 1.50398e-13
2.68289e-12 1.50398e-13 -4.71417

65.9968 -29.3909 3.7043e-12
-29.3909 18.6435 -2.85046e-12
3.7043e-12 -2.85046e-12 -9.33532

-32.3813 -24.5731 -5.58945e-12
-24.5731 -7.28178 2.34361e-12
-5.58945e-12 2.34361e-12 -8.97655

-22.6671 27.4511 3.56456e-12
27.4511 -10.3504 2.62457e-12
3.56456e-12 2.62457e-12 -9.28413

-38.3513 23.1877 1.34085e-12
23.1877 1.99101 -2.67638e-13
1.34085e-12 -2.67638e-13 -8.52515

-51.5534 13.1691 -2.82821e-12
13.1691 11.9268 -1.79767e-12
-2.82821e-12 -1.79767e-12 -16.4663

23.4847 9.37231 -1.61885e-12
9.37231 -29.4881 3.524e-12
-1.61885e-12 3.524e-12 -5.32175

3.76839 -4.66509 -9.50055e-13
-4.66509 79.4385 4.95011e-12
-9.50055e-13 4.95011e-12 -9.53146

-44.9397 -36.833 -2.56032e-12
-36.833 -19.8288 -7.34968e-13
-2.56032e-12 -7.34968e-13 -14.7708

-16.0798 27.4655 -1.48415e-12
27.4655 1.34086 -1.74616e-12
-1.48415e-12 -1.74616e-12 -6.91494

-5.01558 2.17033 -1.13748e-11
2.17033 82.6741 -9.47627e-12
-1.13748e-11 -9.47627e-12 -13.4312

69.0458 34.6106 2.98902e-12
34.6106 15.4966 1.2926e-12
2.98902e-12 1.2926e-12 -10.7059

-31.352 -22.974 -1.16795e-12
-22.974 -4.63255 1.34796e-12
-1.16795e-12 1.34796e-12 -8.53009

11.743 5.73296 2.92625e-12
5.73296 -48.3361 -1.58251e-12
2.92625e-12 -1.58251e-12 -8.64154

43.0658 27.2043 4.47642e-13
27.2043 10.4518 -2.55973e-12
4.47642e-13 -2.55973e-12 -5.08103

-9.41441 12.7453 4.80712e-12
12.7453 -14.0393 2.6145e-12
4.80712e-12 2.6145e-12 -37.0398

70.3349 24.3307 -1.53951e-13
24.3307 23.8048 -1.6532e-12
-1.53951e-13 -1.6532e-12 -6.79956

-10.5856 -13.0549 1.20689e-12
-13.0549 -13.9211 -2.57897e-12
1.20689e-12 -2.57897e-12 -37.3776

-4.37993 0.77855 2.62797e-12
0.77855 59.3983 5.97803e-12
2.62797e-12 5.97803e-12 -4.83088

38.3571 -2.23534 -2.05465e-12
-2.23534 -23.8112 -1.05782e-12
-2.05465e-12 -1.05782e-12 -5.83262

3.59362 -15.7677 -7.60873e-13
-15.7677 -53.9708 1.98952e-12
-7.60873e-13 1.98952e-12 -21.1241

-42.2772 24.3882 -2.97702e-12
24.3882 -11.737 2.98724e-12
-2.97702e-12 2.98724e-12 -11.1678

-46.8124 -13.5351 1.09156e-12
-13.5351 11.0672 -2.404e-12
1.09156e-12 -2.404e-12 -12.354

5.81008 -7.9999 1.93268e-12
-7.9999 -70.9672 -1.44211e-12
1.93268e-12 -1.44211e-12 -14.882

-49.539 -22.2837 8.19907e-12
-22.2837 3.74829 3.22705e-14
8.19907e-12 3.22705e-14 -22.104

-17.4591 -6.59681 -9.67848e-12
-6.59681 -13.1157 3.75603e-12
-9.67848e-12 3.75603e-12 -34.7808

-28.7298 -29.9082 5.92119e-14
-29.9082 -9.3999 9.48278e-13
5.92119e-14 9.48278e-13 -8.99626

15.6933 11.4537 5.36756e-12
11.4537 80.1807 3.74219e-12
5.36756e-12 3.74219e-12 -6.53073

42.2901 -28.1467 -5.98869e-12
-28.1467 11.0507 -6.36528e-13
-5.98869e-12 -6.36528e-13 -5.04428

-47.1704 -13.7719 -7.51325e-13
-13.7719 4.19617 -1.15226e-12
-7.51325e-13 -1.15226e-12 -29.3002

2.9648 0.504517 -5.98085e-12
0.504517 -56.812 -2.30482e-13
-5.98085e-12 -2.30482e-13 -11.0055

-39.3367 -21.5244 -1.40628e-13
-21.5244 -8.8572 3.62081e-12
-1.40628e-13 3.62081e-12 -14.7743

-40.195 25.6978 -5.25358e-13
25.6978 -14.6916 -2.13377e-12
-5.25358e-13 -2.13377e-12 -11.3111

32.2605 -31.4647 -7.95808e-13
-31.4647 38.4294 -2.65151e-12
-7.95808e-13 -2.65151e-12 -4.64834

-31.4687 -7.08466 4.62978e-12
-7.08466 1.70052 2.91382e-12
4.62978e-12 2.91382e-12 -40.9917

36.63 -33.077 -5.35512e-12
-33.077 72.0276 5.39065e-12
-5.35512e-12 5.39065e-12 -7.14474

16.6127 -19.1798 3.97904e-12
-19.1798 -25.8702 -1.53655e-13
3.97904e-12 -1.53655e-13 -7.13353

1.50254 1.97045 1.8856e-12
1.97045 -51.3915 2.26634e-12
1.8856e-12 2.26634e-12 -15.3743

-12.8755 17.8749 1.77576e-12
17.8749 -16.9551 1.96228e-12
1.77576e-12 1.96228e-12 -41.0593

10.7129 20.183 -1.42523e-12
20.183 59.4543 -9.42653e-13
-1.42523e-12 -9.42653e-13 -4.35682

4.31819 27.2107 -3.0731e-13
27.2107 -16.2238 -1.86754e-12
-3.0731e-13 -1.86754e-12 -8.12445

30.9045 -24.5117 4.1247e-12
-24.5117 -8.13268 2.57453e-12
4.1247e-12 2.57453e-12 -4.87247

-37.7877 -17.8386 1.91258e-12
-17.8386 2.40084 3.30639e-12
1.91258e-12 3.30639e-12 -9.86468

55.5138 35.0684 -2.23466e-12
35.0684 42.3455 3.61074e-12
-2.23466e-12 3.61074e-12 -6.63634

-40.0152 -21.8311 -5.28318e-13
-21.8311 2.53683 7.37484e-13
-5.28318e-13 7.37484e-13 -9.3942

2.96645 30.8505 1.08002e-12
30.8505 -17.3886 -5.97448e-13
1.08002e-12 -5.97448e-13 -9.07848

18.5373 -25.2441 7.56728e-13
-25.2441 -19.4182 4.24046e-12
7.56728e-13 4.24046e-12 -6.34275

-15.6539 -25.1265 4.65317e-12
-25.1265 5.89557 8.62125e-12
4.65317e-12 8.62125e-12 -5.77583

42.7184 -18.6882 5.84303e-12
-18.6882 -9.1662 -4.1626e-12
5.84303e-12 -4.1626e-12 -5.36937

27.4319 -18.8497 1.78346e-12
-18.8497 -20.3688 -1.73639e-12
1.78346e-12 -1.73639e-12 -5.69005

-41.3938 -25.337 2.99257e-12
-25.337 -14.9641 2.48061e-12
2.99257e-12 2.48061e-12 -11.5673

29.7809 35.9696 -5.94843e-12
35.9696 25.227 1.66149e-12
-5.94843e-12 1.66149e-12 -8.64447

-28.5184 15.3768 8.18604e-13
15.3768 18.5188 -1.30858e-13
8.18604e-13 -1.30858e-13 -5.87424

-23.1081 26.4223 1.20407e-12
26.4223 -12.5469 1.24197e-12
1.20407e-12 1.24197e-12 -9.95831

-42.0967 25.4736 1.23527e-12
25.4736 -11.5925 -7.13947e-13
1.23527e-12 -7.13947e-13 -10.993

-37.2886 11.6216 3.50465e-12
11.6216 11.8441 -8.56204e-13
3.50465e-12 -8.56204e-13 -9.08068

64.3933 -8.22703 -3.76114e-12
-8.22703 3.19737 -4.28146e-12
-3.76114e-12 -4.28146e-12 -4.25095

8.73363 18.6065 -3.39284e-12
18.6065 59.2201 -1.03858e-12
-3.39284e-12 -1.03858e-12 -4.16243

-25.6148 -24.3806 3.25458e-12
-24.3806 0.458375 -3.13231e-13
3.25458e-12 -3.13231e-13 -7.21585

-1.14184 25.666 -1.32043e-13
25.666 13.7523 1.55135e-12
-1.32043e-13 1.55135e-12 -4.08294

32.3786 -35.6295 2.67046e-12
-35.6295 21.7 2.5544e-12
2.67046e-12 2.5544e-12 -8.48619

59.5364 38.3168 -1.7728e-12
38.3168 17.8477 -8.5502e-13
-1.7728e-12 -8.5502e-13 -13.7223

12.1249 -33.3112 2.31282e-12
-33.3112 42.9134 -2.13163e-14
2.31282e-12 -2.13163e-14 -9.5428

30.5513 -31.1597 -1.6307e-12
-31.1597 36.8135 4.5001e-13
-1.6307e-12 4.5001e-13 -4.40553

11.7689 -6.83865 -1.35566e-12
-6.83865 -48.8381 4.90904e-12
-1.35566e-12 4.90904e-12 -8.77037

25.2744 30.3418 7.04977e-12
30.3418 41.089 -3.5314e-12
7.04977e-12 -3.5314e-12 -4.45604

62.6823 13.2947 -6.16514e-12
13.2947 5.2279 4.57471e-12
-6.16514e-12 4.57471e-12 -4.30554

-7.02612 13.3789 3.3847e-12
13.3789 61.3444 1.02555e-12
3.3847e-12 1.02555e-12 -8.69505

11.7294 -22.3404 -6.97516e-13
-22.3404 55.7633 -3.68416e-12
-6.97516e-13 -3.68416e-12 -4.3015

-47.2605 -1.09166 1.11111e-12
-1.09166 12.4095 -3.34962e-12
1.11111e-12 -3.34962e-12 -22.1618

-5.91942 2.24662 -3.89614e-13
2.24662 59.0045 -4.9738e-14
-3.89614e-13 -4.9738e-14 -5.2626

6.26846 31.0894 -4.34201e-12
31.0894 47.8652 -1.56319e-12
-4.34201e-12 -1.56319e-12 -9.6606

-39.7255 12.1079 -6.07061e-13
12.1079 12.8447 -1.00009e-12
-6.07061e-13 -1.00009e-12 -9.31314

40.7383 -27.6477 -8.69231e-13
-27.6477 8.35735 -1.90722e-12
-8.69231e-13 -1.90722e-12 -5.64207

7.53976 20.557 -4.6206e-12
20.557 -47.4669 -2.13133e-12
-4.6206e-12 -2.13133e-12 -16.4817

-3.42127 26.2704 -3.606e-13
26.2704 -31.4865 -2.1522e-12
-3.606e-13 -2.1522e-12 -22.2522

15.7773 -18.5677 -1.51701e-12
-18.5677 -30.0134 1.59606e-12
-1.51701e-12 1.59606e-12 -8.18313

4.42853 -1.80149 1.41087e-12
-1.80149 -34.133 1.73846e-12
1.41087e-12 1.73846e-12 -24.4391

-14.3398 -31.8119 -6.57252e-14
-31.8119 -11.9305 5.43358e-12
-6.57252e-14 5.43358e-12 -9.04966

56.2184 23.3278 -1.71714e-13
23.3278 0.816514 -4.10398e-12
-1.71714e-13 -4.10398e-12 -8.28806

-27.8282 30.1621 1.79353e-12
30.1621 -9.23645 5.11887e-13
1.79353e-12 5.11887e-13 -8.80052

-27.0037 29.2059 4.51283e-12
29.2059 -9.2018 2.18492e-13
4.51283e-12 2.18492e-13 -8.6778

28.6285 30.661 -1.9611e-12
30.661 40.4059 -8.99784e-12
-1.9611e-12 -8.99784e-12 -4.44905

0.34309 27.0851 1.76925e-12
27.0851 -19.8462 2.8324e-12
1.76925e-12 2.8324e-12 -11.7771

64.5083 3.52516 -2.58164e-12
3.52516 -11.8262 6.34159e-13
-2.58164e-12 6.34159e-13 -10.0184

-14.8998 31.8172 1.62566e-12
31.8172 -20.7988 2.85727e-12
1.62566e-12 2.85727e-12 -12.4476

-37.9444 -12.5996 2.3351e-12
-12.5996 8.18007 -1.52293e-12
2.3351e-12 -1.52293e-12 -14.0228

-0.474975 24.2781 -4.11819e-13
24.2781 -29.9992 -3.69393e-12
-4.11819e-13 -3.69393e-12 -20.7712

-23.7275 -29.5788 3.54265e-12
-29.5788 -11.9349 5.92119e-13
3.54265e-12 5.92119e-13 -8.84344

-38.1486 -4.89797 1.91782e-12
-4.89797 18.8466 3.07843e-12
1.91782e-12 3.07843e-12 -11.7302

69.9449 -24.5564 -6.60331e-12
-24.5564 18.0287 9.22521e-13
-6.60331e-12 9.22521e-13 -7.04436

39.9822 29.6933 -7.4607e-14
29.6933 13.4793 7.53175e-13
-7.4607e-14 7.53175e-13 -5.21515

-4.29647 14.6966 3.43903e-12
14.6966 60.5716 3.49942e-12
3.43903e-12 3.49942e-12 -8.40097

1.6114 -1.13894 -2.61717e-13
-1.13894 -56.1235 4.29146e-12
-2.61717e-13 4.29146e-12 -11.2094

9.61414 0.00221997 3.78246e-12
0.00221997 -44.7543 -8.04495e-13
3.78246e-12 -8.04495e-13 -8.43816

-31.079 23.124 -1.61175e-12
23.124 -4.33725 -7.53175e-13
-1.61175e-12 -7.53175e-13 -8.45861

-34.7624 23.871 1.15167e-13
23.871 -13.1927 -1.70414e-12
1.15167e-13 -1.70414e-12 -14.8131

-43.3788 -24.3808 -5.50097e-13
-24.3808 -12.6139 -6.72188e-12
-5.50097e-13 -6.72188e-12 -11.4688

-39.0594 -0.672869 4.38092e-12
-0.672869 21.0463 3.60482e-12
4.38092e-12 3.60482e-12 -10.4956

-40.8067 25.5905 2.00832e-12
25.5905 -13.2226 -3.01759e-13
2.00832e-12 -3.01759e-13 -11.1725

32.3218 -10.308 1.90544e-12
-10.308 -25.1541 -3.48432e-12
1.90544e-12 -3.48432e-12 -6.01444

8.70648 -32.8337 -2.9677e-12
-32.8337 22.7976 2.71901e-12
-2.9677e-12 2.71901e-12 -6.99221

2.39678 -2.3009 2.65773e-12
-2.3009 -49.9608 -2.24887e-12
2.65773e-12 -2.24887e-12 -14.7727

36.7457 -34.5085 2.66217e-12
-34.5085 24.4796 -1.72662e-12
2.66217e-12 -1.72662e-12 -7.70923

-38.294 19.0861 -1.70412e-12
19.0861 -7.09359 -9.33179e-13
-1.70412e-12 -9.33179e-13 -14.4495

7.87071 -26.4788 -2.46144e-12
-26.4788 -27.9948 -1.40095e-12
-2.46144e-12 -1.40095e-12 -10.9692

63.9478 -9.69034 -2.4869e-13
-9.69034 5.67721 8.0617e-13
-2.4869e-13 8.0617e-13 -5.07241

6.04052 -23.1921 4.99748e-13
-23.1921 -35.4682 2.49933e-12
4.99748e-13 2.49933e-12 -17.7361

0.141379 2.35829 1.14235e-12
2.35829 -56.1742 -3.22216e-12
1.14235e-12 -3.22216e-12 -11.5463

-4.06213 -23.3216 -1.22865e-12
-23.3216 -23.4117 -3.52015e-12
-1.22865e-12 -3.52015e-12 -16.7199

11.0387 -25.8595 5.41256e-12
-25.8595 -29.4861 -3.98999e-12
5.41256e-12 -3.98999e-12 -9.73379

10.2013 -8.54624 -3.3283e-12
-8.54624 -43.4903 5.56148e-13
-3.3283e-12 5.56148e-13 -9.28164

-35.4181 -23.0682 -2.01705e-12
-23.0682 -12.646 3.33067e-13
-2.01705e-12 3.33067e-13 -15.1032

23.6643 -31.3422 0
-31.3422 5.71219 -3.57403e-12
0 -3.57403e-12 -5.87845

11.0597 -24.5875 5.01821e-12
-24.5875 -27.4948 1.73076e-12
5.01821e-12 1.73076e-12 -10.0483

46.6433 10.8646 -8.7752e-13
10.8646 -16.1178 2.75454e-12
-8.7752e-13 2.75454e-12 -6.80009

-14.1862 26.3404 3.88845e-12
26.3404 -15.6401 -2.20002e-12
3.88845e-12 -2.20002e-12 -14.119

-45.2516 -37.6126 -1.62152e-12
-37.6126 -20.6123 1.57696e-12
-1.62152e-12 1.57696e-12 -14.9192

-43.7083 37.265 5.56592e-13
37.265 -21.266 -2.2599e-12
5.56592e-13 -2.2599e-12 -14.7696

-61.1847 -28.5732 1.73062e-12
-28.5732 -7.49708 -2.02712e-12
1.73062e-12 -2.02712e-12 -15.1997

-58.4156 27.064 1.05841e-13
27.064 -6.2717 2.23406e-12
1.05841e-13 2.23406e-12 -14.4783

5.60058 -8.52753 2.71442e-12
-8.52753 -71.0637 -1.4088e-12
2.71442e-12 -1.4088e-12 -14.7098

4.39735 9.27354 -5.1239e-12
9.27354 -68.8323 5.85902e-13
-5.1239e-12 5.85902e-13 -14.4378

9.02394 -9.84629 1.76718e-12
-9.84629 -40.8903 -3.36472e-13
1.76718e-12 -3.36472e-13 -9.61208

-24.3355 32.1158 -4.73695e-13
32.1158 -24.8098 1.56764e-12
-4.73695e-13 1.56764e-12 -21.1452

-25.5228 -32.8538 1.20111e-12
-32.8538 -25.0958 2.77764e-12
1.20111e-12 2.77764e-12 -21.4693

-53.9194 16.0684 -2.05169e-13
16.0684 3.40156 1.92439e-14
-2.05169e-13 1.92439e-14 -21.4027

-52.4203 -15.8009 -3.40868e-12
-15.8009 3.29689 3.43962e-12
-3.40868e-12 3.43962e-12 -21.076

6.11199 -3.7479 3.56456e-13
-3.7479 -43.925 5.28614e-12
3.56456e-13 5.28614e-12 -25.7648

6.91812 3.61066 3.78468e-12
3.61066 -46.3485 -4.56228e-13
3.78468e-12 -4.56228e-13 -26.1411

-15.6264 9.837 4.52579e-12
9.837 46.2628 4.40536e-12
4.52579e-12 4.40536e-12 -5.84825

-22.9188 -24.7743 5.89454e-13
-24.7743 -14.5524 -8.24526e-13
5.89454e-13 -8.24526e-13 -10.3301

-56.6034 -36.3873 -8.27634e-13
-36.3873 -14.5326 -5.29991e-12
-8.27634e-13 -5.29991e-12 -13.4374

33.3586 -4.66433 7.29727e-12
-4.66433 -19.8475 -3.74774e-13
7.29727e-12 -3.74774e-13 -3.94539

3.43331 -16.6944 -2.13326e-12
-16.6944 -52.6284 3.81887e-12
-2.13326e-12 3.81887e-12 -21.5326

3.67444 16.1754 9.65302e-13
16.1754 -51.8841 -2.73559e-13
9.65302e-13 -2.73559e-13 -21.4058

6.55568 0.121879 -3.82361e-13
0.121879 -76.7546 2.58181e-13
-3.82361e-13 2.58181e-13 -13.3042

-7.57003 23.3755 2.60769e-12
23.3755 39.9359 1.04213e-12
2.60769e-12 1.04213e-12 -6.88554

-56.889 36.1713 -2.65588e-12
36.1713 -14.0113 -1.05086e-12
-2.65588e-12 -1.05086e-12 -13.389

-39.7947 -23.3958 -4.13995e-12
-23.3958 2.5615 2.6672e-12
-4.13995e-12 2.6672e-12 -8.80115

37.1169 23.3531 -3.8014e-13
23.3531 -8.61354 -4.29997e-12
-3.8014e-13 -4.29997e-12 -5.75889

4.73509 23.8583 -3.2235e-12
23.8583 -38.226 9.48278e-13
-3.2235e-12 9.48278e-13 -18.9858

24.0135 -31.314 1.72662e-12
-31.314 6.40809 2.60651e-12
1.72662e-12 2.60651e-12 -5.64843

2.43074 -3.23112 9.03722e-13
-3.23112 -48.3699 -2.93543e-12
9.03722e-13 -2.93543e-12 -14.7428

-60.4574 -34.1608 7.76712e-13
-34.1608 -14.3498 -5.39243e-12
7.76712e-13 -5.39243e-12 -14.031

-17.4532 8.32007 -6.98545e-12
8.32007 45.6921 -7.53175e-13
-6.98545e-12 -7.53175e-13 -5.7813

-9.46931 21.8119 5.18104e-14
21.8119 40.4253 5.98159e-12
5.18104e-14 5.98159e-12 -6.65402

58.6041 35.7763 -2.84336e-12
35.7763 37.0883 6.24804e-12
-2.84336e-12 6.24804e-12 -6.91595

70.4848 1.57878 -3.81917e-12
1.57878 -5.54338 -7.50363e-13
-3.81917e-12 -7.50363e-13 -10.3742

-30.7594 -22.8046 1.45188e-12
-22.8046 -13.3566 2.7072e-12
1.45188e-12 2.7072e-12 -14.4662

32.8415 31.1843 2.34953e-12
31.1843 69.795 8.15229e-12
2.34953e-12 8.15229e-12 -6.6794

-19.3767 23.6102 -1.89004e-12
23.6102 7.68688 -2.16123e-13
-1.89004e-12 -2.16123e-13 -5.51357

47.6374 -5.34962 -6.94556e-12
-5.34962 -17.4338 -2.50703e-12
-6.94556e-12 -2.50703e-12 -6.82203

33.2197 11.2162 -2.72375e-14
11.2162 -23.6375 -1.12207e-12
-2.72375e-14 -1.12207e-12 -6.0142

6.25421 0.4299 -4.53459e-12
0.4299 -77.5518 -1.49207e-12
-4.53459e-12 -1.49207e-12 -13.4499

-58.9355 -29.0309 2.93158e-12
-29.0309 -6.28813 2.57927e-12
2.93158e-12 2.57927e-12 -14.6972

-28.3319 -6.31879 -1.02895e-12
-6.31879 -11.3579 9.10975e-12
-1.02895e-12 9.10975e-12 -51.5878

-44.6979 37.4113 7.40149e-15
37.4113 -20.8113 -2.15357e-12
7.40149e-15 -2.15357e-12 -14.7736

93.7915 1.66331 1.36898e-12
1.66331 16.6553 5.41471e-12
1.36898e-12 5.41471e-12 -6.04309

10.0362 -32.7874 1.88886e-13
-32.7874 21.3109 3.38988e-12
1.88886e-13 3.38988e-12 -6.80847

-56.9358 36.6128 1.60523e-12
36.6128 -14.5711 2.27551e-12
1.60523e-12 2.27551e-12 -13.5052

-35.0796 -11.1339 -2.3571e-12
-11.1339 19.1771 1.46431e-12
-2.3571e-12 1.46431e-12 -8.31671

-5.47792 -25.5149 2.23851e-12
-25.5149 37.3505 7.22267e-12
2.23851e-12 7.22267e-12 -6.9873

-58.452 28.8299 -6.34418e-13
28.8299 -6.27151 -1.03562e-12
-6.34418e-13 -1.03562e-12 -14.6143

28.4959 -26.1422 5.83178e-12
-26.1422 -4.91283 -2.81789e-12
5.83178e-12 -2.81789e-12 -4.6975

-21.1699 10.4835 9.1512e-13
10.4835 -18.5589 1.50132e-12
9.1512e-13 1.50132e-12 -51.6834

3.43257 30.8724 2.68644e-12
30.8724 27.1626 -9.72259e-13
2.68644e-12 -9.72259e-13 -6.73326

6.14048 8.12663 4.78551e-12
8.12663 -72.2974 2.02801e-13
4.78551e-12 2.02801e-13 -14.9844

-11.5459 30.1907 1.44329e-12
30.1907 -20.6032 1.99278e-12
1.44329e-12 1.99278e-12 -11.5493

-30.7979 23.3321 -1.32442e-12
23.3321 -5.09981 -3.78068e-13
-1.32442e-12 -3.78068e-13 -8.46465

-25.8636 -32.4885 -2.30453e-12
-32.4885 -24.1125 1.41472e-12
-2.30453e-12 1.41472e-12 -21.5588

9.20529 -23.1904 3.48225e-12
-23.1904 -27.9224 -5.45638e-13
3.48225e-12 -5.45638e-13 -11.4258

-37.661 10.4704 -5.03086e-12
10.4704 8.92893 3.31705e-12
-5.03086e-12 3.31705e-12 -25.3308

-23.0408 -23.434 5.66125e-12
-23.434 4.9524 -7.22444e-12
5.66125e-12 -7.22444e-12 -6.26329

88.8043 -9.70794 9.99971e-12
-9.70794 10.8072 2.55869e-12
9.99971e-12 2.55869e-12 -10.0309

84.0444 -14.2774 -1.64372e-12
-14.2774 2.81245 -7.00536e-12
-1.64372e-12 -7.00536e-12 -13.1969

5.88776 16.5297 1.9158e-12
16.5297 -33.9324 1.06641e-12
1.9158e-12 1.06641e-12 -22.3759

-16.4217 22.5019 7.7538e-13
22.5019 16.2279 -4.93886e-12
7.7538e-13 -4.93886e-12 -5.08561

-3.91249 29.1634 -7.10543e-13
29.1634 -12.2301 -2.67164e-12
-7.10543e-13 -2.67164e-12 -8.39655

50.9931 0.688677 7.47254e-13
0.688677 -6.53224 -7.40229e-12
7.47254e-13 -7.40229e-12 -3.63465

-48.1412 6.57106 1.25446e-13
6.57106 14.7861 -4.24786e-12
1.25446e-13 -4.24786e-12 -18.9524

10.1157 16.5407 3.55863e-13
16.5407 -36.0799 -2.91441e-12
3.55863e-13 -2.91441e-12 -9.13568

-4.50409 -25.7614 -2.87237e-12
-25.7614 35.5556 7.23569e-13
-2.87237e-12 7.23569e-13 -6.74726

-39.1916 -2.57232 -1.2616e-12
-2.57232 21.5043 3.92042e-12
-1.2616e-12 3.92042e-12 -10.6696

-7.99104 13.3654 -1.63277e-12
13.3654 44.4056 5.24144e-12
-1.63277e-12 5.24144e-12 -3.94456

3.7346 -29.7135 -2.75217e-12
-29.7135 -17.3651 -1.58096e-12
-2.75217e-12 -1.58096e-12 -8.92077

21.4258 -29.9478 -7.83966e-13
-29.9478 14.756 -2.0132e-14
-7.83966e-13 -2.0132e-14 -3.91813

6.88069 31.6232 1.74853e-12
31.6232 25.4017 -1.13687e-12
1.74853e-12 -1.13687e-12 -6.82841

2.78539 -15.02 -2.11979e-13
-15.02 -39.2665 5.24617e-13
-2.11979e-13 5.24617e-13 -63.3097

-46.1596 2.04141 1.69235e-12
2.04141 11.4614 5.40486e-12
1.69235e-12 5.40486e-12 -22.7566

-55.4443 20.2998 3.36516e-12
20.2998 3.09553 -2.14229e-12
3.36516e-12 -2.14229e-12 -22.9158

5.91656 15.4388 2.93336e-12
15.4388 -58.8181 1.32013e-12
2.93336e-12 1.32013e-12 -23.0358

-18.9217 -26.1889 -2.84868e-12
-26.1889 -12.9136 -1.00749e-12
-2.84868e-12 -1.00749e-12 -9.65287

41.3463 17.9575 -7.20017e-13
17.9575 -6.27139 -1.84297e-12
-7.20017e-13 -1.84297e-12 -3.86167

-44.6825 -5.29387 9.74498e-14
-5.29387 4.53835 -3.27205e-12
9.74498e-14 -3.27205e-12 -39.1442

7.4993 -18.9881 1.20644e-12
-18.9881 -39.8945 -1.95903e-12
1.20644e-12 -1.95903e-12 -11.6601

30.2911 -15.599 1.43234e-12
-15.599 -20.5089 -3.56604e-12
1.43234e-12 -3.56604e-12 -4.8053

-9.63879 11.6034 4.3728e-13
11.6034 44.3194 -4.09983e-12
4.3728e-13 -4.09983e-12 -3.85932

8.33373 -25.7345 -1.68221e-12
-25.7345 32.992 6.21133e-12
-1.68221e-12 6.21133e-12 -3.63326

-10.2445 -25.2738 -5.79981e-13
-25.2738 -19.1005 -9.47242e-13
-5.79981e-13 -9.47242e-13 -23.1745

17.0049 31.9599 -3.30047e-12
31.9599 11.1971 1.18187e-12
-3.30047e-12 1.18187e-12 -5.74659

-1.06922 -25.1346 -1.32605e-12
-25.1346 -30.7629 5.83563e-12
-1.32605e-12 5.83563e-12 -20.8914

48.0653 2.59739 -7.41333e-13
2.59739 -8.41011 1.82802e-12
-7.41333e-13 1.82802e-12 -3.53183

6.55246 -28.9308 3.75167e-12
-28.9308 72.051 -7.18832e-12
3.75167e-12 -7.18832e-12 -14.5515

21.7915 -29.2313 -5.02709e-12
-29.2313 13.9635 1.7207e-12
-5.02709e-12 1.7207e-12 -3.93051

35.3514 32.1593 4.66234e-12
32.1593 74.1348 -4.37221e-12
4.66234e-12 -4.37221e-12 -5.44169

-45.2835 -11.8768 4.35311e-12
-11.8768 13.922 7.06398e-13
4.35311e-12 7.06398e-13 -15.3264

-14.4209 -13.8215 4.82843e-12
-13.8215 43.3825 6.28357e-12
4.82843e-12 6.28357e-12 -5.67291

-19.2429 -23.9876 -6.83305e-12
-23.9876 -19.8303 -2.34361e-12
-6.83305e-12 -2.34361e-12 -64.2515

2.438 23.7711 4.26326e-13
23.7711 36.0068 2.04044e-12
4.26326e-13 2.04044e-12 -3.71128

-15.1824 -32.7263 -3.79311e-12
-32.7263 -21.1192 -1.12591e-12
-3.79311e-12 -1.12591e-12 -14.313

-14.5656 -11.9632 -2.90286e-12
-11.9632 45.5307 2.59467e-12
-2.90286e-12 2.59467e-12 -5.73909

7.83555 -19.1168 1.21858e-12
-19.1168 -43.122 -2.32614e-12
1.21858e-12 -2.32614e-12 -12.6321

6.54545 23.8773 2.69177e-12
23.8773 35.1714 1.80952e-12
2.69177e-12 1.80952e-12 -3.44224

23.1735 -4.97551 -7.95216e-13
-4.97551 -30.6765 -4.15408e-13
-7.95216e-13 -4.15408e-13 -5.3645

36.9705 -30.3429 -8.05282e-13
-30.3429 122.628 2.27374e-13
-8.05282e-13 2.27374e-13 -6.24164

-26.8696 21.0142 1.59398e-12
21.0142 8.43421 9.17784e-14
1.59398e-12 9.17784e-14 -7.13019

40.3385 -19.3235 1.50043e-12
-19.3235 -11.3727 6.01001e-14
1.50043e-12 6.01001e-14 -5.72612

6.52822 -21.4458 1.44625e-12
-21.4458 -45.558 -1.2701e-13
1.44625e-12 -1.2701e-13 -24.9715

20.705 31.7543 -2.81257e-12
31.7543 9.55733 -3.45146e-12
-2.81257e-12 -3.45146e-12 -5.80616

13.9188 -29.972 1.94807e-13
-29.972 -7.60595 -1.67422e-12
1.94807e-13 -1.67422e-12 -5.94441

6.75493 20.8854 -7.19839e-12
20.8854 -27.7924 -7.01069e-13
-7.19839e-12 -7.01069e-13 -11.1089

-38.2742 -28.0759 3.67439e-12
-28.0759 -14.0379 -2.00699e-12
3.67439e-12 -2.00699e-12 -11.0611

8.64617 -26.2255 -1.90248e-12
-26.2255 31.1709 1.46135e-12
-1.90248e-12 1.46135e-12 -3.63529

15.3313 28.9814 -4.07378e-13
28.9814 19.1538 1.04213e-13
-4.07378e-13 1.04213e-13 -3.88308

28.6404 26.1916 -5.41197e-12
26.1916 -5.63352 -7.46958e-13
-5.41197e-12 -7.46958e-13 -4.80209

7.91465 -14.6102 3.66374e-12
-14.6102 -36.8777 -8.56204e-13
3.66374e-12 -8.56204e-13 -13.9913

-6.84167 -16.6178 1.49273e-12
-16.6178 41.341 2.74151e-12
1.49273e-12 2.74151e-12 -3.95952

17.4407 -17.5683 -4.8009e-12
-17.5683 -30.9994 8.32223e-13
-4.8009e-12 8.32223e-13 -7.1053

19.8418 16.9086 1.18661e-12
16.9086 -31.6647 -3.91539e-12
1.18661e-12 -3.91539e-12 -7.33459

-33.6798 -9.38657 -1.1231e-12
-9.38657 8.75608 -4.07141e-12
-1.1231e-12 -4.07141e-12 -23.9924

43.4317 -13.4301 -1.52767e-12
-13.4301 -8.36906 -2.87844e-12
-1.52767e-12 -2.87844e-12 -3.80425

-19.3788 0.59406 5.82808e-12
0.59406 43.1455 2.45137e-12
5.82808e-12 2.45137e-12 -4.77554

28.056 18.5551 1.44122e-12
18.5551 -18.1992 2.6675e-13
1.44122e-12 2.6675e-13 -4.74979

25.5284 27.6042 8.97652e-13
27.6042 -3.77579 3.37626e-12
8.97652e-13 3.37626e-12 -4.77124

-6.71548 -15.6863 -6.26166e-13
-15.6863 43.7986 -3.57521e-12
-6.26166e-13 -3.57521e-12 -3.84805

-19.9068 -1.20229 -2.55951e-12
-1.20229 42.128 -3.46745e-12
-2.55951e-12 -3.46745e-12 -4.68711

-5.47322 29.1344 -2.16005e-12
29.1344 -23.6468 1.56201e-12
-2.16005e-12 1.56201e-12 -16.7968

-37.2739 -10.9222 3.05681e-13
-10.9222 21.6799 9.53312e-13
3.05681e-13 9.53312e-13 -7.83007

27.1433 -26.7155 -3.24481e-13
-26.7155 -5.5309 4.34082e-12
-3.24481e-13 4.34082e-12 -4.94429

40.7192 21.3328 -1.13805e-12
21.3328 -8.37036 7.43109e-13
-1.13805e-12 7.43109e-13 -5.46762

12.378 23.6654 9.0831e-13
23.6654 -27.1273 -6.21133e-13
9.0831e-13 -6.21133e-13 -8.667

-37.7967 5.47089 -4.69447e-12
5.47089 23.3113 9.23706e-13
-4.69447e-12 9.23706e-13 -8.59745

18.5929 29.0659 -7.00595e-12
29.0659 17.3777 -7.81597e-14
-7.00595e-12 -7.81597e-14 -3.94716

-9.98889 22.9638 -4.02404e-12
22.9638 -14.9133 1.91521e-12
-4.02404e-12 1.91521e-12 -24.0257

68.3173 -59.6922 -9.4739e-15
-59.6922 36.3356 8.40809e-13
-9.4739e-15 8.40809e-13 -23.0105

17.5308 -25.048 4.41129e-13
-25.048 -17.9922 -2.59052e-12
4.41129e-13 -2.59052e-12 -6.41773

10.0583 7.06998 -9.97128e-13
7.06998 82.5512 -8.02913e-13
-9.97128e-13 -8.02913e-13 -7.16526

11.9202 -28.8895 6.39548e-12
-28.8895 -3.88161 -4.61853e-14
6.39548e-12 -4.61853e-14 -5.16587

-66.9446 -52.7016 -1.77517e-12
-52.7016 143.252 -1.18424e-13
-1.77517e-12 -1.18424e-13 -49.6686

-68.3879 51.4522 9.20153e-13
51.4522 142.539 -1.77162e-12
9.20153e-13 -1.77162e-12 -49.8577

19.5706 117.156 2.52716e-12
117.156 64.1304 3.71377e-12
2.52716e-12 3.71377e-12 -48.3592

20.5295 -117.098 3.69956e-12
-117.098 61.0272 -5.06854e-12
3.69956e-12 -5.06854e-12 -48.7239

157.745 -1.36338 -3.26376e-12
-1.36338 -79.1869 -1.41519e-14
-3.26376e-12 -1.41519e-14 -48.9108

110.327 -91.1265 4.64695e-12
-91.1265 -36.6894 9.4739e-15
4.64695e-12 9.4739e-15 -50.3055

110.381 91.6544 5.44749e-13
91.6544 -36.4996 6.15804e-14
5.44749e-13 6.15804e-14 -50.1783

7.84684 14.3305 -7.17944e-13
14.3305 -42.6816 -5.50967e-13
-7.17944e-13 -5.50967e-13 -15.0791

-11.7908 25.5364 -1.49747e-12
25.5364 -27.4047 -3.66877e-12
-1.49747e-12 -3.66877e-12 -35.1373

12.4381 6.60612 1.77576e-12
6.60612 -40.534 3.36753e-12
1.77576e-12 3.36753e-12 -8.25259

26.2548 21.7848 5.63164e-12
21.7848 -19.5288 7.363e-13
5.63164e-12 7.363e-13 -5.85097

-21.2304 17.7447 -4.12263e-12
17.7447 29.8684 1.77636e-14
-4.12263e-12 1.77636e-14 -6.16247

22.5303 28.8988 -7.99953e-13
28.8988 -0.775588 8.88178e-13
-7.99953e-13 8.88178e-13 -4.73088

4.05536 -29.6637 -2.66927e-12
-29.6637 -17.4664 -1.85837e-12
-2.66927e-12 -1.85837e-12 -8.50448

25.9952 28.0281 -1.24108e-12
28.0281 -2.30181 -4.52201e-12
-1.24108e-12 -4.52201e-12 -4.73127

-19.3474 -2.84132 2.31415e-12
-2.84132 43.0715 6.24093e-13
2.31415e-12 6.24093e-13 -4.77009

-13.4113 -26.0972 -2.53042e-12
-26.0972 -25.8385 1.83409e-13
-2.53042e-12 1.83409e-13 -35.5204

-19.8425 -4.86248 4.70883e-13
-4.86248 41.7765 -4.60905e-12
4.70883e-13 -4.60905e-12 -4.74396

-1.827 23.0164 -8.06466e-13
23.0164 -24.3771 -2.08189e-12
-8.06466e-13 -2.08189e-12 -16.1498

44.9828 26.871 -3.06481e-12
26.871 8.11126 1.61885e-12
-3.06481e-12 1.61885e-12 -5.36919

-52.5083 -13.2161 1.92113e-12
-13.2161 0.150316 1.55698e-12
1.92113e-12 1.55698e-12 -20.6172

20.2805 13.7281 4.8613e-12
13.7281 -31.1419 -4.98268e-13
4.8613e-12 -4.98268e-13 -7.04312

13.7007 -29.9879 2.8848e-12
-29.9879 -6.69167 -1.59221e-12
2.8848e-12 -1.59221e-12 -5.83535

29.6309 -24.7138 1.26713e-13
-24.7138 -7.87398 -1.9312e-12
1.26713e-13 -1.9312e-12 -4.82525

5.76461 -16.0749 1.22184e-12
-16.0749 -32.3342 -4.66886e-13
1.22184e-12 -4.66886e-13 -22.2553

12.6276 27.9292 -5.23552e-12
27.9292 -13.639 2.4869e-13
-5.23552e-12 2.4869e-13 -6.41971

23.309 23.9777 -4.13003e-12
23.9777 -17.9435 4.34941e-12
-4.13003e-12 4.34941e-12 -5.96249

-31.0773 -2.79292 3.6184e-12
-2.79292 30.1318 -1.64846e-12
3.6184e-12 -1.64846e-12 -6.39858

-28.6297 5.8734 9.56795e-13
5.8734 33.3215 7.30675e-13
9.56795e-13 7.30675e-13 -6.05945

34.5487 2.64674 5.094e-12
2.64674 -26.1839 1.75256e-12
5.094e-12 1.75256e-12 -6.14223

50.6517 -7.28977 5.45578e-12
-7.28977 -14.0822 -9.89431e-13
5.45578e-12 -9.89431e-13 -6.77879

11.041 30.4851 3.51778e-12
30.4851 -4.78782 5.0786e-12
3.51778e-12 5.0786e-12 -5.9663

17.4674 -26.1557 -5.51322e-12
-26.1557 -17.4552 -3.52844e-12
-5.51322e-12 -3.52844e-12 -6.35184

-0.0843154 -21.2544 -1.43766e-12
-21.2544 -27.9561 3.90029e-12
-1.43766e-12 3.90029e-12 -17.1664

4.93884 -31.6341 1.09187e-12
-31.6341 4.86128 2.15176e-12
1.09187e-12 2.15176e-12 -5.93516

-8.22743 -27.7859 -8.68638e-13
-27.7859 18.5788 -1.51464e-12
-8.68638e-13 -1.51464e-12 -6.12979

-1.65048 29.8876 5.65474e-13
29.8876 10.4473 -3.36146e-12
5.65474e-13 -3.36146e-12 -5.80021

-26.0169 -9.57803 4.31255e-12
-9.57803 32.9699 8.94692e-13
4.31255e-12 8.94692e-13 -5.78712

-31.3231 -1.54487 -1.37912e-12
-1.54487 31.6509 6.14027e-13
-1.37912e-12 6.14027e-13 -6.22342

-38.9157 5.7479 2.76651e-12
5.7479 23.9465 7.33043e-13
2.76651e-12 7.33043e-13 -9.18287

-17.2184 -21.0894 5.3341e-12
-21.0894 26.5711 8.14756e-13
5.3341e-12 8.14756e-13 -5.77186

13.0717 24.1114 2.84809e-12
24.1114 -28.1014 -1.45395e-12
2.84809e-12 -1.45395e-12 -9.20474

21.5551 -9.58987 -2.60888e-12
-9.58987 -31.7068 -1.35921e-12
-2.60888e-12 -1.35921e-12 -6.59796

-27.1538 7.46535 3.99714e-12
7.46535 34.3348 -5.10407e-12
3.99714e-12 -5.10407e-12 -5.87385

-35.236 -9.70114 8.18863e-13
-9.70114 22.3136 -1.06108e-12
8.18863e-13 -1.06108e-12 -8.18334

-29.1559 -16.3309 -1.00024e-12
-16.3309 19.3468 4.14128e-12
-1.00024e-12 4.14128e-12 -6.66162

36.9681 -8.23932 -3.75167e-12
-8.23932 -20.2371 1.17092e-12
-3.75167e-12 1.17092e-12 -5.10137

-14.8098 -32.3468 8.44066e-13
-32.3468 -21.6274 -2.08367e-12
8.44066e-13 -2.08367e-12 -12.9929

-22.8244 9.32105 -4.20301e-12
9.32105 33.3235 -6.30547e-12
-4.20301e-12 -6.30547e-12 -4.78868

-0.751127 -18.2127 -1.99544e-13
-18.2127 -35.1573 9.12307e-13
-1.99544e-13 9.12307e-13 -33.277

4.93203 24.8231 3.38929e-12
24.8231 75.3076 -3.8393e-12
3.38929e-12 -3.8393e-12 -14.319

-14.1418 -26.6263 9.45318e-13
-26.6263 -16.3503 -8.43621e-13
9.45318e-13 -8.43621e-13 -14.6406

-6.35707 -30.2029 -1.44299e-12
-30.2029 -23.6025 -5.70507e-13
-1.44299e-12 -5.70507e-13 -17.0877

-31.271 -0.701228 -3.46715e-12
-0.701228 31.5005 -1.24463e-12
-3.46715e-12 -1.24463e-12 -6.34829

28.4879 -16.6228 -2.46499e-12
-16.6228 -18.0572 2.74832e-12
-2.46499e-12 2.74832e-12 -4.43789

-37.8051 12.8417 -5.39711e-12
12.8417 11.1651 4.93827e-13
-5.39711e-12 4.93827e-13 -10.9889

-8.86118 -3.18064 -4.39589e-12
-3.18064 111.053 -6.63173e-14
-4.39589e-12 -6.63173e-14 -22.6714

-31.6029 14.2738 1.41864e-12
14.2738 21.3504 1.88531e-12
1.41864e-12 1.88531e-12 -7.12432

12.4218 -29.4897 1.4353e-12
-29.4897 -2.51968 -2.65092e-12
1.4353e-12 -2.65092e-12 -4.9281

33.6323 25.106 3.04704e-12
25.106 124.031 -7.09122e-12
3.04704e-12 -7.09122e-12 -6.21399

-13.5023 26.0975 -8.18146e-12
26.0975 -19.0972 -9.07437e-12
-8.18146e-12 -9.07437e-12 -58.8937

-9.55261 -27.8068 2.67608e-12
-27.8068 -22.8066 2.9341e-12
2.67608e-12 2.9341e-12 -59.5441

-2.86597 -30.4194 4.72333e-12
-30.4194 -7.32145 -1.98656e-13
4.72333e-12 -1.98656e-13 -7.28726

3.86009 -31.1607 4.57826e-12
-31.1607 5.6355 -3.44258e-12
4.57826e-12 -3.44258e-12 -6.06239

25.1522 20.8277 2.70184e-12
20.8277 -17.0347 -4.8761e-12
2.70184e-12 -4.8761e-12 -4.97678

31.8053 15.0063 4.02996e-12
15.0063 -23.3015 -8.59461e-13
4.02996e-12 -8.59461e-13 -5.95468

-9.48838 3.08319 6.21584e-12
3.08319 -9.83032 1.1174e-12
6.21584e-12 1.1174e-12 -80.9352

-5.54876 -6.9996 8.62717e-12
-6.9996 -14.0413 1.04095e-12
8.62717e-12 1.04095e-12 -80.2879

11.7486 4.82428 1.94629e-12
4.82428 -43.2058 2.77393e-12
1.94629e-12 2.77393e-12 -7.82749

-35.057 6.73115 1.75164e-12
6.73115 24.3754 3.99739e-12
1.75164e-12 3.99739e-12 -7.56393

-36.1109 6.73634 -1.73623e-12
6.73634 24.4327 5.85191e-12
-1.73623e-12 5.85191e-12 -8.30891

74.5878 58.6353 -9.00021e-13
58.6353 34.1735 -2.64322e-12
-9.00021e-13 -2.64322e-12 -21.8728

-6.92018 -28.2003 3.8618e-12
-28.2003 16.8753 -1.72721e-12
3.8618e-12 -1.72721e-12 -6.11668

8.17198 17.9744 1.22569e-13
17.9744 -44.8759 -1.71596e-12
1.22569e-13 -1.71596e-12 -12.8967

32.7034 9.53987 3.8014e-12
9.53987 -19.0806 2.56432e-12
3.8014e-12 2.56432e-12 -4.07438

3.38765 -26.7238 1.9161e-12
-26.7238 13.484 -3.54502e-12
1.9161e-12 -3.54502e-12 -3.82701

26.2376 -20.238 -4.50839e-12
-20.238 -20.3234 -2.65536e-12
-4.50839e-12 -2.65536e-12 -5.86322

65.3916 60.2331 -6.55594e-12
60.2331 34.2901 -8.93626e-12
-6.55594e-12 -8.93626e-12 -23.8676

-13.2426 31.0692 4.90274e-13
31.0692 -16.8816 -3.83604e-12
4.90274e-13 -3.83604e-12 -12.7859

-18.6047 -19.7865 -7.38964e-13
-19.7865 28.4149 -6.90766e-12
-7.38964e-13 -6.90766e-12 -5.96952

11.1743 28.8581 -3.73035e-14
28.8581 -13.3234 -3.76232e-12
-3.73035e-14 -3.76232e-12 -6.43615

-31.8695 -4.14495 2.56165e-13
-4.14495 30.148 -2.7646e-12
2.56165e-13 -2.7646e-12 -6.35786

-14.5967 19.6096 4.74198e-12
19.6096 27.1854 -3.20632e-12
4.74198e-12 -3.20632e-12 -4.41873

7.47919 30.5193 1.08654e-12
30.5193 -1.67053 -4.01871e-12
1.08654e-12 -4.01871e-12 -5.6605

-9.34515 -22.4736 7.4903e-13
-22.4736 23.1494 -1.75267e-12
7.4903e-13 -1.75267e-12 -4.17548

4.59042 -27.353 -1.83971e-12
-27.353 11.4491 -2.76164e-12
-1.83971e-12 -2.76164e-12 -3.93852

24.2722 11.2572 -7.76579e-12
11.2572 102.081 -3.65219e-12
-7.76579e-12 -3.65219e-12 -12.4048

37.4669 -33.4569 5.45934e-12
-33.4569 69.2865 -3.79904e-12
5.45934e-12 -3.79904e-12 -5.70309

-25.3357 -11.6907 -1.64631e-12
-11.6907 31.3684 1.03147e-12
-1.64631e-12 1.03147e-12 -5.6484

16.0965 26.4849 6.08521e-12
26.4849 -15.5022 8.87586e-13
6.08521e-12 8.87586e-13 -6.21744

4.95567 29.4784 -2.19795e-12
29.4784 1.63686 -2.71723e-12
-2.19795e-12 -2.71723e-12 -4.98999

-9.85493 -21.4343 7.72715e-14
-21.4343 25.1211 -6.46653e-12
7.72715e-14 -6.46653e-12 -4.03326

-21.6351 -11.7826 6.06182e-12
-11.7826 32.0824 1.58273e-12
6.06182e-12 1.58273e-12 -4.63723

10.4629 28.41 4.96788e-13
28.41 -0.156524 3.26968e-12
4.96788e-13 3.26968e-12 -4.67291

-21.8472 -13.8781 2.37025e-12
-13.8781 29.4676 3.61193e-13
2.37025e-12 3.61193e-13 -4.84718

6.95854 27.8555 4.98683e-12
27.8555 73.086 4.628e-12
4.98683e-12 4.628e-12 -14.3221

-45.8318 -4.04113 -5.87917e-12
-4.04113 14.0479 1.19312e-12
-5.87917e-12 1.19312e-12 -19.9648

0.876952 31.0281 -3.65278e-12
31.0281 7.52027 5.22427e-12
-3.65278e-12 5.22427e-12 -6.08913

9.71918 14.9014 1.22095e-12
14.9014 -36.4294 -9.05942e-13
1.22095e-12 -9.05942e-13 -10.9854

9.92857 -15.9277 3.42837e-13
-15.9277 -39.4107 -1.59043e-12
3.42837e-13 -1.59043e-12 -13.0691

85.6147 -24.205 8.78704e-12
-24.205 7.63578 -4.96314e-12
8.78704e-12 -4.96314e-12 -12.9579

-23.2072 -21.2675 -5.19614e-12
-21.2675 10.5139 -2.86408e-12
-5.19614e-12 -2.86408e-12 -6.16534

-16.6011 26.6987 -5.12864e-12
26.6987 1.77848 6.14264e-12
-5.12864e-12 6.14264e-12 -6.58781

-26.2011 -21.7278 -2.97836e-12
-21.7278 -5.36542 8.10666e-12
-2.97836e-12 8.10666e-12 -23.8669

-41.5962 14.1062 6.37209e-12
14.1062 -3.55996 -2.69562e-12
6.37209e-12 -2.69562e-12 -64.1259

-0.893521 9.44531 -5.11931e-12
9.44531 -44.2586 4.14394e-12
-5.11931e-12 4.14394e-12 -64.2273

-20.384 32.7053 -3.43636e-12
32.7053 -23.2026 -2.91707e-12
-3.43636e-12 -2.91707e-12 -24.3293

-11.4109 26.0009 -3.8541e-12
26.0009 22.6042 8.22512e-12
-3.8541e-12 8.22512e-12 -5.92576

16.0387 26.6618 5.85902e-12
26.6618 -17.2875 1.71122e-12
5.85902e-12 1.71122e-12 -6.54993

30.4287 45.1868 7.62057e-12
45.1868 47.5555 1.90662e-13
7.62057e-12 1.90662e-13 -15.1951

-44.8879 -11.3433 -6.6492e-12
-11.3433 -1.80798 4.33579e-12
-6.6492e-12 4.33579e-12 -61.6821

-8.29814 -3.43271 1.9095e-11
-3.43271 -12.7544 -5.96071e-12
1.9095e-11 -5.96071e-12 -77.2254

-14.6907 -0.209845 -2.73248e-12
-0.209845 -6.41855 -1.33675e-11
-2.73248e-12 -1.33675e-11 -77.3696

27.6656 -53.8034 2.26782e-12
-53.8034 71.1501 5.33618e-12
2.26782e-12 5.33618e-12 -24.3894

-11.6908 -11.5998 -2.16079e-12
-11.5998 -16.2047 6.73121e-12
-2.16079e-12 6.73121e-12 -37.4302

-32.6102 8.81276 -1.7264e-12
8.81276 -9.41901 -1.20023e-12
-1.7264e-12 -1.20023e-12 -49.5401

18.2562 -26.1998 -3.05297e-12
-26.1998 -19.5468 -4.29849e-12
-3.05297e-12 -4.29849e-12 -6.50669

-39.4302 1.0109 7.89369e-14
1.0109 11.9803 1.80004e-13
7.89369e-14 1.80004e-13 -19.7217

-30.2028 -20.2681 -3.30624e-12
-20.2681 6.30507 -5.31841e-12
-3.30624e-12 -5.31841e-12 -7.21621

10.5365 6.25536 -2.34538e-12
6.25536 -52.39 -2.97421e-12
-2.34538e-12 -2.97421e-12 -9.63981

-49.8128 15.5963 1.38554e-12
15.5963 10.1652 4.7556e-12
1.38554e-12 4.7556e-12 -13.5311

-40.2839 7.19152 -2.08692e-12
7.19152 16.5414 -6.20659e-12
-2.08692e-12 -6.20659e-12 -13.7742

16.4049 20.3931 -3.32652e-12
20.3931 -25.8412 8.57388e-13
-3.32652e-12 8.57388e-13 -7.60776

-9.10023 -3.1139 -8.78334e-13
-3.1139 108.396 -7.60754e-12
-8.78334e-13 -7.60754e-12 -23.1018

-3.32031 -27.6241 -2.8623e-12
-27.6241 -3.62952 -1.76451e-12
-2.8623e-12 -1.76451e-12 -5.83012

-7.33509 -26.1166 -1.30444e-12
-26.1166 -14.082 -3.36264e-12
-1.30444e-12 -3.36264e-12 -9.81079

-14.1984 -31.4837 -1.39858e-12
-31.4837 -21.7779 -1.36661e-12
-1.39858e-12 -1.36661e-12 -12.7557

90.7291 32.7501 -4.8459e-12
32.7501 20.9067 -1.75445e-12
-4.8459e-12 -1.75445e-12 -16.5058

-23.1169 -20.1163 4.02345e-13
-20.1163 -17.3851 2.87748e-12
4.02345e-13 2.87748e-12 -44.4266

72.6313 54.3231 -1.3524e-12
54.3231 91.6418 -5.17749e-12
-1.3524e-12 -5.17749e-12 -6.14214

-36.2153 -21.4394 -2.52761e-12
-21.4394 -6.79682 -9.41469e-14
-2.52761e-12 -9.41469e-14 -13.0431

15.034 14.6504 -6.88634e-13
14.6504 -37.7519 -3.70474e-12
-6.88634e-13 -3.70474e-12 -8.17888

44.5731 -14.5727 4.22654e-12
-14.5727 -8.2723 2.5661e-12
4.22654e-12 2.5661e-12 -4.41865

-21.2309 24.047 -2.71487e-13
24.047 4.95552 1.78405e-12
-2.71487e-13 1.78405e-12 -5.97651

17.3732 20.4281 1.83853e-12
20.4281 -26.7927 -1.73817e-12
1.83853e-12 -1.73817e-12 -6.95158

-51.1398 11.4003 -2.95416e-12
11.4003 7.71035 9.84042e-12
-2.95416e-12 9.84042e-12 -29.9937

-7.28718 -31.5804 4.88498e-14
-31.5804 -12.8268 -1.40599e-12
4.88498e-14 -1.40599e-12 -8.11919

2.79647 19.8123 -5.41434e-12
19.8123 -46.033 4.14128e-12
-5.41434e-12 4.14128e-12 -29.9856

-24.6713 -18.4437 -5.27667e-12
-18.4437 17.8362 3.37685e-12
-5.27667e-12 3.37685e-12 -5.48021

-42.3407 4.2833 -5.16521e-12
4.2833 17.8694 -4.99038e-12
-5.16521e-12 -4.99038e-12 -12.7282

-4.09805 9.92692 1.04411e-11
9.92692 -40.2753 -2.919e-12
1.04411e-11 -2.919e-12 -47.5477

-2.68831 -8.51356 -2.33591e-13
-8.51356 -38.3066 4.44089e-16
-2.33591e-13 4.44089e-16 -47.4034

81.7237 18.5127 2.70006e-12
18.5127 1.69996 -2.57157e-12
2.70006e-12 -2.57157e-12 -14.4532

3.89497 7.96514 -3.00589e-12
7.96514 -45.1834 -3.03505e-12
-3.00589e-12 -3.03505e-12 -11.0183

35.8725 7.74063 3.25665e-14
7.74063 184.575 4.73695e-14
3.25665e-14 4.73695e-14 -9.75678

40.146 -11.3853 -1.75038e-12
-11.3853 190.372 5.21065e-14
-1.75038e-12 5.21065e-14 -7.38858

53.7655 56.4073 6.23146e-12
56.4073 159.256 -1.4874e-12
6.23146e-12 -1.4874e-12 -11.4995

1.70876 -28.9507 1.77517e-12
-28.9507 -24.6909 -1.76363e-12
1.77517e-12 -1.76363e-12 -11.9629

16.0492 -49.191 3.28034e-12
-49.191 99.4199 -8.9481e-12
3.28034e-12 -8.9481e-12 -21.6891

54.5134 -55.9498 3.53377e-12
-55.9498 149.973 3.50061e-12
3.53377e-12 3.50061e-12 -13.6644

-2.16589 26.2205 -4.98623e-12
26.2205 17.5727 7.12201e-12
-4.98623e-12 7.12201e-12 -3.99603

134.94 73.8443 -4.26326e-14
73.8443 85.0255 3.61193e-12
-4.26326e-14 3.61193e-12 -10.1586

-18.7201 13.0471 -1.26992e-11
13.0471 -3.89998 4.73458e-12
-1.26992e-11 4.73458e-12 -26.7692

3.74104 0.0397633 4.5001e-12
0.0397633 -26.189 -8.28967e-14
4.5001e-12 -8.28967e-14 -26.7724

144.098 -73.1297 8.90547e-13
-73.1297 85.353 -1.80478e-12
8.90547e-13 -1.80478e-12 -8.1958

-21.3932 -23.4242 -6.20156e-12
-23.4242 12.248 -1.09542e-13
-6.20156e-12 -1.09542e-13 -6.49126

89.347 34.7295 2.60532e-14
34.7295 41.3902 9.8647e-13
2.60532e-14 9.8647e-13 -11.5479

72.1877 63.4912 -3.11455e-12
63.4912 149.694 7.10543e-14
-3.11455e-12 7.10543e-14 -9.67317

26.1646 21.6304 -3.48876e-12
21.6304 100.134 -6.24567e-12
-3.48876e-12 -6.24567e-12 -13.0314

73.8745 -65.9201 -7.10543e-15
-65.9201 151.145 4.60432e-12
-7.10543e-15 4.60432e-12 -9.40169

25.7691 -12.3812 -3.52607e-12
-12.3812 105.013 -1.77162e-12
-3.52607e-12 -1.77162e-12 -12.4284

-28.6639 6.84138 -6.31487e-12
6.84138 3.10695 -5.38266e-12
-6.31487e-12 -5.38266e-12 -37.8528

37.743 -45.9753 -5.16801e-12
-45.9753 49.6696 -5.26275e-12
-5.16801e-12 -5.26275e-12 -15.5324

14.4439 47.5323 -1.72307e-12
47.5323 94.8803 4.33431e-13
-1.72307e-12 4.33431e-13 -22.1923

173.34 37.9116 -2.85638e-12
37.9116 48.042 8.8581e-13
-2.85638e-12 8.8581e-13 -9.52182

7.02067 -29.286 -2.04044e-12
-29.286 -14.3585 -1.90692e-12
-2.04044e-12 -1.90692e-12 -7.15614

-38.4177 12.8966 4.46968e-12
12.8966 6.43538 6.47541e-12
4.46968e-12 6.47541e-12 -15.2905

88.5053 -38.1128 4.17562e-12
-38.1128 34.1631 8.1215e-12
4.17562e-12 8.1215e-12 -14.0996

6.04173 -28.8024 -4.15549e-12
-28.8024 -16.1721 -1.85126e-12
-4.15549e-12 -1.85126e-12 -8.02999

169.206 -36.3435 3.61903e-12
-36.3435 34.9293 -2.58401e-12
3.61903e-12 -2.58401e-12 -13.2897

-5.7252 -28.3177 9.8647e-13
-28.3177 -14.473 -4.2828e-12
9.8647e-13 -4.2828e-12 -9.30953

-17.7908 -25.2952 -1.59102e-12
-25.2952 12.0802 5.79803e-12
-1.59102e-12 5.79803e-12 -5.93441

118.876 69.4607 2.76164e-12
69.4607 96.2195 -4.41484e-12
2.76164e-12 -4.41484e-12 -11.3998

29.4131 -22.933 9.36258e-12
-22.933 97.7968 -3.51245e-12
9.36258e-12 -3.51245e-12 -14.34

117.959 -71.6927 1.94215e-12
-71.6927 93.6809 5.44986e-12
1.94215e-12 5.44986e-12 -12.4158

22.2648 50.7378 3.95772e-12
50.7378 73.7789 -4.50958e-12
3.95772e-12 -4.50958e-12 -24.7774

-1.53643 -30.2125 -2.46914e-12
-30.2125 -6.5527 5.50019e-12
-2.46914e-12 5.50019e-12 -6.99802

-7.04481 -14.6404 -1.24375e-12
-14.6404 -21.9196 2.71723e-12
-1.24375e-12 2.71723e-12 -32.6137

-11.8919 11.0922 3.60304e-12
11.0922 -16.43 9.99793e-12
3.60304e-12 9.99793e-12 -77.7918

-26.168 -5.16006 4.24268e-12
-5.16006 -6.38732 -4.9607e-12
4.24268e-12 -4.9607e-12 -77.6256

-38.9415 13.0837 -2.22498e-12
13.0837 13.7444 -5.74e-12
-2.22498e-12 -5.74e-12 -10.2389

-14.4803 -10.6666 1.80737e-12
-10.6666 -17.3175 -5.14847e-12
1.80737e-12 -5.14847e-12 -78.7546

-25.9018 4.09184 -7.12349e-12
4.09184 -5.91381 2.27803e-12
-7.12349e-12 2.27803e-12 -78.8967

-3.63356 7.43361 8.66048e-12
7.43361 -27.8598 -4.33461e-12
8.66048e-12 -4.33461e-12 -77.984

-43.9743 -12.1147 -1.67388e-12
-12.1147 2.91626 6.34929e-12
-1.67388e-12 6.34929e-12 -68.156

11.9736 -30.4705 5.3042e-12
-30.4705 76.1638 -8.31335e-13
5.3042e-12 -8.31335e-13 -14.701

0.521645 -12.9721 -1.25588e-11
-12.9721 -39.9902 4.65938e-12
-1.25588e-11 4.65938e-12 -45.2759

-16.3487 -34.4174 5.48628e-12
-34.4174 -22.0688 -3.75048e-12
5.48628e-12 -3.75048e-12 -23.5898

-2.42079 -18.177 2.4721e-13
-18.177 -29.8949 -2.01439e-12
2.4721e-13 -2.01439e-12 -33.6259

12.7381 15.4594 -4.5078e-12
15.4594 -37.7166 -1.75267e-13
-4.5078e-12 -1.75267e-13 -9.62539

-46.9075 9.86393 -4.80993e-12
9.86393 8.87737 -3.21831e-12
-4.80993e-12 -3.21831e-12 -70.1517

3.46244 19.2272 -9.14187e-12
19.2272 -41.4711 -4.99389e-12
-9.14187e-12 -4.99389e-12 -70.2675

1.47206 11.3066 -2.07182e-12
11.3066 -23.9649 -2.75587e-12
-2.07182e-12 -2.75587e-12 -31.8671

109.393 -15.3396 -1.27566e-11
-15.3396 -12.5355 -2.63493e-12
-1.27566e-11 -2.63493e-12 -25.037

-14.3208 24.9644 -7.7609e-12
24.9644 10.3861 2.23999e-12
-7.7609e-12 2.23999e-12 -5.80491

76.6079 -61.3554 6.39962e-12
-61.3554 37.3659 3.66166e-12
6.39962e-12 3.66166e-12 -22.3951

76.1149 -57.4579 5.48539e-12
-57.4579 99.2295 -1.32871e-11
5.48539e-12 -1.32871e-11 -5.555

118.198 -36.5445 -5.4167e-12
-36.5445 40.6013 -3.56337e-12
-5.4167e-12 -3.56337e-12 -7.37828

-51.1132 -5.15891 2.77881e-12
-5.15891 3.34052 -6.44255e-12
2.77881e-12 -6.44255e-12 -60.6586

-50.4771 2.89126 1.98093e-12
2.89126 3.13478 1.0331e-11
1.98093e-12 1.0331e-11 -60.1312

-11.9755 -24.4557 6.22524e-12
-24.4557 -35.0026 -6.67348e-12
6.22524e-12 -6.67348e-12 -59.1653

-8.99175 -21.7599 9.94838e-12
-21.7599 -37.8874 1.14575e-13
9.94838e-12 1.14575e-13 -59.4749

-14.7025 26.1353 -1.11315e-11
26.1353 -33.027 -6.47904e-12
-1.11315e-11 -6.47904e-12 -60.7498

-18.157 3.09904 -3.14015e-12
3.09904 -13.1642 -1.36765e-11
-3.14015e-12 -1.36765e-11 -75.4763

-9.945 -20.5084 3.93167e-13
-20.5084 -32.6501 1.7261e-12
3.93167e-13 1.7261e-12 -56.7357

-26.6476 -18.5679 -3.36028e-13
-18.5679 -14.1958 -7.11468e-12
-3.36028e-13 -7.11468e-12 -71.2704

-15.4783 2.43421 8.11351e-12
2.43421 -12.8524 5.00977e-12
8.11351e-12 5.00977e-12 -77.8708

-6.02744 -20.5257 1.76599e-12
-20.5257 -41.4864 -1.47408e-12
1.76599e-12 -1.47408e-12 -60.5059

-6.75671 20.9553 2.02379e-12
20.9553 -40.1427 -1.25056e-12
2.02379e-12 -1.25056e-12 -60.0171

-14.3156 -3.45821 -5.36933e-12
-3.45821 -11.39 -7.63833e-13
-5.36933e-12 -7.63833e-13 -76.8853

-11.2637 -3.11675 8.54857e-12
-3.11675 -17.6887 -1.05493e-11
8.54857e-12 -1.05493e-11 -74.0481

-24.2032 12.1097 -1.40214e-12
12.1097 -13.4006 9.08525e-12
-1.40214e-12 9.08525e-12 -69.9666

-22.0821 26.9291 -4.27806e-13
26.9291 -26.2667 5.12877e-14
-4.27806e-13 5.12877e-14 -57.5813

VECTORS fluid_flux_TPM float
-8.72161e-05 3.10272e-05 -8.67565e-21
3.55938e-06 6.88224e-06 -9.45207e-21
-1.27868e-05 -1.0225e-05 -1.24631e-20
-4.17039e-06 4.25383e-06 -7.62278e-21
2.27067e-05 -6.31302e-06 1.10213e-20
2.75747e-06 -1.59028e-05 6.29354e-22
-8.57921e-05 -3.1092e-05 -3.11423e-20
-1.38917e-05 -1.04663e-05 -7.41906e-21
2.21208e-05 9.45479e-07 6.43436e-21
1.13835e-05 -3.90792e-06 1.29357e-20
5.45987e-05 1.24836e-05 1.0843e-20
2.34677e-06 -1.71933e-05 -7.02252e-21
1.36109e-05 1.12533e-05 1.24449e-21
2.66197e-06 1.3784e-05 4.48061e-22
2.05801e-05 -2.94652e-06 -7.09586e-21
-1.63316e-05 -2.72886e-07 5.44241e-21
2.75341e-06 1.40982e-05 -1.77843e-20
1.01814e-05 -2.39178e-06 -6.7154e-21
9.8982e-06 1.7222e-05 9.00186e-21
-1.48479e-05 1.88538e-06 -2.73454e-21
-3.60102e-06 -2.13032e-05 -1.48811e-20
3.41101e-05 5.94161e-05 -1.90569e-21
1.56969e-05 1.63124e-06 1.00778e-20
1.12269e-05 -1.1281e-05 -9.69764e-21
-1.50778e-05 -3.33227e-06 1.09779e-20
-6.77194e-07 -1.11304e-05 -9.86771e-21
6.29021e-05 -4.90836e-06 6.35615e-21
1.40655e-05 1.02485e-05 1.17358e-20
-2.5149e-05 -2.06423e-05 -8.75297e-21
4.91193e-05 -1.28137e-05 1.96999e-20
-1.65819e-05 -6.03813e-06 -1.31343e-20
5.53699e-06 -3.20362e-05 3.40444e-22
4.76538e-05 -4.80468e-05 4.2725e-21
-4.92329e-06 -4.12474e-05 -3.40208e-20
-2.9673e-05 3.7005e-05 -2.46927e-21
-3.82471e-05 -1.63949e-05 -1.76754e-20
3.27023e-05 4.32151e-05 -1.93701e-20
-4.47404e-05 -8.7258e-06 1.49715e-20
1.43743e-05 -1.10816e-05 -3.76254e-20
4.64696e-05 5.01148e-05 2.4141e-21
3.21291e-05 -1.40219e-05 -1.82796e-20
3.36398e-05 -4.23432e-05 2.67724e-20
-1.98963e-05 -5.03781e-05 3.25569e-21
-1.58977e-05 6.35671e-06 1.14205e-20
3.05252e-05 -2.93141e-05 -1.41305e-21
-3.03323e-05 1.09902e-05 -6.09725e-21
-4.05018e-06 -2.03705e-05 -9.88022e-22
7.88608e-06 2.02117e-05 -1.36764e-20
-1.63424e-05 5.92782e-06 2.64275e-20
-1.78198e-05 2.87257e-05 -2.5521e-20
3.24086e-05 1.52909e-05 -7.32385e-21
2.93652e-05 -1.00752e-05 -1.51012e-20
-1.56664e-05 1.57605e-05 1.01878e-20
-2.35413e-05 -2.06904e-05 1.19565e-20
-2.114e-05 -5.13248e-06 1.04019e-20
-4.47918e-05 2.70763e-05 -2.2446e-20
-2.93722e-05 -3.80235e-05 -1.79055e-20
6.36352e-06 -3.06282e-05 -3.41182e-21
-4.77084e-05 6.48296e-06 -2.48016e-20
6.07419e-06 1.36972e-05 3.02589e-21
-5.57692e-06 -8.1736e-06 3.19451e-20
-6.58368e-06 -1.7944e-05 1.1593e-20
5.71453e-05 2.48602e-05 1.04631e-20
9.24307e-06 1.81447e-05 -2.03887e-20
1.22968e-05 -1.44454e-05 -5.43787e-21
-1.64063e-06 -2.07531e-05 -6.20034e-21
4.62122e-06 -8.80579e-06 1.48541e-20
-1.00908e-05 -5.56505e-06 5.48273e-21
-1.0603e-05 1.19297e-05 2.73059e-21
2.55827e-06 -4.09272e-06 9.7349e-21
-1.50439e-05 -1.58437e-05 -2.64533e-20
-2.13656e-05 5.16609e-06 -1.32016e-20
-3.55691e-06 3.44825e-05 -8.4886e-21
-1.78724e-05 1.07112e-05 2.27998e-20
-9.0711e-06 1.46152e-05 1.32719e-20
-6.0357e-05 7.69241e-06 -1.14202e-20
7.81832e-06 -2.16823e-05 -7.30335e-22
-1.88808e-05 -8.90039e-06 -1.62178e-20
1.93379e-06 1.16244e-05 1.13381e-20
2.63019e-05 5.08982e-06 -5.95719e-22
3.41703e-05 -2.89761e-05 6.03843e-21
2.21472e-05 2.05569e-05 -1.31752e-20
1.19089e-05 -2.82243e-06 5.08121e-22
-3.2155e-05 2.4068e-05 -2.43444e-20
3.79058e-05 4.84604e-06 5.60127e-21
-4.98098e-06 4.94165e-05 -1.67165e-21
-1.74117e-06 -1.68578e-05 -5.52458e-21
1.81246e-05 9.95504e-06 9.39385e-21
2.93186e-05 3.02869e-05 -2.50292e-21
5.50269e-05 3.80149e-05 5.50303e-21
-5.33154e-06 3.0774e-05 -7.37509e-21
5.9182e-05 -3.55138e-05 -2.20971e-20
-2.71259e-05 5.34139e-06 9.3315e-22
1.784e-05 1.10023e-05 1.29278e-20
-2.96423e-05 9.90372e-06 -8.47651e-22
1.66537e-05 2.85223e-05 1.40001e-21
1.01693e-05 -4.43884e-05 4.50532e-21
1.91556e-06 1.16213e-05 1.94301e-20
-1.48013e-05 -1.76208e-05 8.54166e-21
3.07002e-06 1.74754e-05 2.9862e-22
2.64079e-05 5.25769e-06 -1.26132e-20
-1.54439e-05 3.32125e-05 -1.85922e-20
4.05538e-05 -1.33337e-05 -3.72285e-22
-3.77321e-06 7.45534e-06 4.32191e-21
9.95324e-06 5.89955e-06 1.95505e-20
-2.28067e-06 -1.1325e-05 -2.24836e-20
3.2208e-06 -1.92527e-05 7.53878e-21
1.74701e-05 3.89224e-06 2.32178e-20
-7.93748e-06 4.09743e-05 -5.34509e-21
-9.80601e-06 2.47939e-07 3.41358e-22
9.31889e-06 1.18862e-05 -3.34082e-22
-2.17736e-06 -4.17156e-05 -6.48318e-21
4.20247e-05 1.28655e-05 -1.16524e-20
4.42274e-06 -7.45349e-06 -9.14073e-21
-1.11456e-05 -3.55379e-06 1.02016e-21
-2.93268e-05 -1.24865e-05 1.82502e-20
1.58044e-05 4.11489e-05 1.67444e-20
-4.34867e-05 -1.55744e-05 -6.88274e-21
1.60192e-05 -4.11254e-05 -5.10744e-21
-3.69994e-06 -3.19214e-05 -1.94589e-20
2.18397e-05 6.52193e-07 -1.48823e-20
-7.17177e-06 1.83974e-05 9.48331e-21
-1.61125e-06 3.96972e-06 4.27707e-21
-3.68611e-06 -1.65394e-05 -2.32273e-20
5.23019e-06 -8.30243e-06 -1.08851e-20
9.35987e-06 1.58642e-05 -3.14936e-20
3.31025e-05 1.06528e-05 -1.33735e-20
8.61581e-06 -7.45833e-06 3.90565e-21
-8.27122e-06 -4.51618e-05 1.25782e-21
2.55531e-05 -1.88206e-05 -1.57391e-20
4.97812e-06 2.77723e-05 -2.44514e-20
-2.81644e-06 -2.84172e-06 2.12585e-20
-8.62659e-06 -8.32617e-06 -2.32473e-20
-4.77685e-06 4.41238e-08 -2.76413e-20
-2.28735e-05 2.85952e-05 -5.2975e-21
1.87638e-05 -3.73765e-05 -2.07578e-21
-2.6581e-05 4.27161e-05 -1.38407e-20
-1.63724e-05 9.53562e-06 1.31128e-20
2.52805e-06 1.21993e-05 2.499e-21
-2.29876e-05 -3.49907e-05 -1.53331e-20
1.39366e-05 3.34673e-05 5.77043e-21
1.75084e-05 9.36955e-06 -4.24157e-21
2.28123e-05 -8.52296e-06 -2.31024e-20
-1.25323e-06 -1.12658e-05 -1.91815e-20
-3.39129e-05 -3.15591e-05 1.22169e-22
-2.75158e-06 1.13037e-05 -1.88335e-20
1.72473e-05 1.01721e-05 1.18677e-20
1.88881e-05 -8.82114e-06 -1.27975e-20
8.24347e-06 -1.43454e-05 -1.58485e-20
2.43578e-05 -1.07957e-05 -1.88217e-20
1.90102e-05 -8.99817e-06 -9.23409e-21
4.64079e-06 2.05811e-07 -1.27629e-20
2.57415e-05 2.02218e-05 1.35236e-20
-2.74171e-06 -1.70305e-05 -5.36572e-21
-1.04801e-05 -4.45715e-06 -1.11913e-20
1.12589e-06 -3.89021e-06 6.37857e-21
-3.15516e-06 1.58475e-05 1.61541e-20
-3.48846e-05 2.7682e-06 -1.46301e-20
-1.21219e-05 -3.32593e-05 -1.51128e-20
-7.87933e-06 9.77933e-06 -1.19844e-20
1.35657e-05 1.66409e-05 1.26313e-20
2.65694e-05 -1.87453e-05 -3.61464e-21
-3.67935e-05 -2.03514e-05 -1.38204e-20
1.74036e-05 -2.75084e-05 -9.23015e-21
2.28047e-05 -2.72174e-05 4.02844e-21
-1.09447e-05 3.78505e-06 -3.38785e-21
-1.98296e-05 -2.88411e-05 -9.31898e-21
-3.48809e-05 -5.7916e-06 8.95942e-21
-3.85254e-06 -3.17437e-05 5.02039e-21
1.54481e-05 -3.17001e-05 -4.29069e-21
-9.10643e-06 -2.62003e-05 -2.93821e-20
4.58136e-06 3.14064e-05 -7.21926e-21
-1.57529e-05 -2.85229e-05 -4.55778e-21
2.93891e-06 -1.62927e-05 -1.08685e-20
-2.47401e-05 1.82605e-05 -1.23518e-20
-1.50313e-05 -1.21115e-05 2.61758e-20
-2.73537e-05 -5.1726e-06 -2.52854e-20
1.56686e-05 -9.18187e-06 -1.28311e-20
-4.30706e-06 2.39533e-05 1.39156e-20
1.2233e-05 -9.32479e-06 -3.06848e-20
-2.95868e-05 -1.31647e-05 1.02467e-20
-8.83195e-06 -7.45834e-06 -1.3703e-20
9.0824e-06 7.54109e-06 2.79509e-20
2.14275e-05 2.87017e-05 8.58501e-21
-1.75094e-05 -1.08096e-05 -1.16364e-20
-3.25073e-05 -7.51094e-07 8.37645e-22
-1.63373e-05 -5.01633e-06 -1.07342e-20
-4.57827e-06 -1.65838e-05 -2.23984e-20
1.76853e-05 2.12399e-05 7.18713e-21
-1.09577e-05 5.87496e-06 7.9732e-22
6.36071e-07 -2.0556e-05 1.36406e-20
-4.19412e-05 1.08513e-05 -1.94074e-20
2.48614e-05 2.0247e-05 -6.00781e-21
3.79464e-06 3.27865e-05 -2.01947e-20
-2.43205e-06 3.79734e-06 5.25811e-21
-9.05123e-06 2.51212e-07 -6.37243e-22
4.35524e-06 7.76036e-06 9.8947e-21
-1.16944e-05 3.40158e-06 4.50896e-21
-2.07345e-06 -3.78506e-06 -3.07957e-21
1.65985e-06 2.07606e-05 -7.28173e-21
4.47256e-06 4.49713e-07 1.3918e-20
-1.95388e-05 4.75682e-06 5.19442e-21
-1.7299e-05 1.93587e-05 -2.20234e-20
-3.10755e-06 1.15786e-05 4.01981e-20
-2.92181e-05 1.8395e-05 -2.87977e-21
-9.34372e-06 8.97966e-06 2.11397e-20
1.73118e-05 -1.16142e-05 -2.54231e-20
3.66056e-05 -3.56482e-06 -4.91186e-21
-2.11415e-05 1.12978e-05 2.198e-20
2.23309e-06 4.49841e-06 -4.09262e-22
2.17761e-05 -4.34506e-06 -1.15715e-20
-1.72796e-05 1.03532e-05 6.03915e-22
-9.87216e-06 5.53925e-06 1.20784e-20
1.18319e-05 3.74284e-06 -2.29156e-20
2.18807e-05 -1.34717e-05 -2.68886e-20
-1.73807e-05 9.9565e-06 1.66686e-20
-2.50379e-05 -5.30325e-06 -1.05137e-21
-1.67624e-05 -4.36265e-06 -2.19734e-20
9.8766e-06 6.24185e-09 -3.7905e-20
1.01743e-05 1.95365e-07 1.07966e-20
4.39094e-06 8.31749e-06 -3.75245e-20
4.82975e-06 -8.79811e-06 2.05782e-20
-5.01055e-06 8.42016e-06 2.78187e-20
-5.26688e-06 -8.65793e-06 1.1938e-20
9.91139e-06 -7.40829e-06 4.70965e-21
-2.03283e-05 3.23504e-06 1.1581e-21
-2.00607e-05 -3.28386e-06 5.10802e-21
-1.28352e-05 1.58771e-05 2.44035e-20
-1.2915e-05 -1.59314e-05 -3.01661e-20
7.48655e-06 -1.98445e-05 -5.25568e-21
7.20629e-06 1.97646e-05 1.08054e-20
1.55786e-06 2.5886e-05 -1.4243e-20
1.12409e-05 -3.13695e-06 -3.67857e-20
2.35999e-06 -3.86667e-06 5.47877e-21
-2.14121e-05 1.42174e-06 8.70325e-21
7.67746e-06 -1.95138e-05 -2.63456e-20
7.2737e-06 1.96623e-05 2.65527e-20
4.76898e-06 -5.27157e-08 -1.49787e-20
8.96852e-06 2.4404e-05 1.54256e-20
-2.24237e-06 -4.01647e-06 -1.167e-20
2.31784e-06 -1.13174e-05 -1.9911e-20
-2.24312e-05 -1.2152e-05 1.8399e-20
-2.13587e-05 -1.1495e-05 -1.40791e-21
-2.18933e-05 1.3629e-05 -5.26447e-21
3.25135e-06 -1.2288e-05 -1.13414e-20
-1.56537e-06 3.38206e-06 2.5832e-20
-5.87354e-07 -2.55696e-05 -6.43862e-21
-7.7204e-06 -2.44234e-05 -1.51437e-20
3.27046e-05 3.03631e-05 -2.15459e-21
3.54538e-05 -1.81523e-06 -8.85236e-22
-1.27113e-05 -3.63224e-06 -4.94704e-21
-2.28929e-05 -4.13866e-05 8.95335e-21
8.30437e-06 1.37481e-05 1.5043e-21
-2.52361e-05 3.03334e-06 -6.34886e-21
2.00654e-05 5.78648e-06 1.14056e-20
-4.53319e-06 -3.2742e-08 2.9497e-20
-4.66525e-06 -8.41285e-06 -6.63933e-21
-7.07298e-06 -3.93332e-05 -1.69111e-20
-9.70846e-06 -8.39192e-08 -1.14536e-20
-4.86747e-05 -1.81573e-06 -1.02103e-20
1.73089e-05 -1.91055e-05 -1.76758e-22
2.42938e-06 3.99912e-06 2.81961e-20
-1.20632e-07 -1.75138e-05 2.78242e-21
-9.81851e-06 2.4084e-05 -5.26688e-21
-4.37208e-06 8.62748e-06 1.31519e-20
2.05564e-05 -1.36061e-05 -2.34122e-20
-3.76591e-05 -1.35515e-05 -1.60804e-20
-1.52658e-05 -2.03658e-05 -4.9143e-21
4.97708e-06 8.38909e-06 -2.74847e-21
1.66311e-05 5.16058e-06 2.3368e-21
-4.76387e-06 -7.33828e-06 -2.42808e-20
1.97964e-05 3.54718e-06 -1.49021e-20
1.81883e-05 -9.8257e-06 -2.24645e-20
-3.48814e-07 2.71724e-05 -9.57396e-22
8.32026e-06 -1.36666e-05 -3.06319e-21
4.8803e-05 2.20055e-06 5.71283e-21
-4.23559e-05 1.14531e-05 -1.3278e-20
2.28593e-05 1.15558e-05 1.32916e-20
-6.45272e-06 -1.71786e-05 -1.74505e-20
-1.53493e-05 -8.61783e-06 -1.93737e-20
2.87863e-05 -2.10537e-07 -7.17803e-21
-6.91946e-07 -2.42539e-05 -3.99966e-21
-1.26169e-05 -1.08736e-05 3.842e-21
1.02234e-05 -2.34986e-05 -9.08312e-21
-4.96577e-07 2.05545e-05 -1.0401e-20
7.91734e-06 2.60665e-05 -9.54301e-21
1.72671e-05 -9.88379e-06 -2.42365e-20
-1.8947e-05 1.92976e-05 -1.89845e-20
1.6527e-05 2.00284e-05 4.20155e-21
-6.22274e-05 1.60211e-05 2.91953e-20
-1.01086e-05 2.60148e-05 6.08057e-21
1.25184e-05 -1.52475e-05 5.15834e-21
-7.02872e-06 -1.83968e-05 1.31137e-20
-1.18529e-05 4.50544e-06 1.26114e-22
-2.5892e-05 -7.04542e-06 4.58657e-21
-6.38578e-06 3.88558e-05 7.16067e-22
-1.26052e-05 1.19018e-05 1.62566e-20
2.07755e-05 -4.47536e-06 -6.9834e-21
-6.87208e-06 -2.57928e-05 -1.83763e-20
-1.4868e-05 2.38897e-05 -2.79178e-20
-2.17877e-05 1.25641e-05 -8.03972e-22
-2.05684e-05 -1.50546e-05 1.48399e-20
1.80277e-05 -2.06539e-05 -1.98421e-20
-2.75292e-05 -1.45617e-06 4.83608e-21
1.23665e-05 -4.0808e-05 2.66723e-21
1.93852e-05 -1.89121e-05 -1.09412e-20
2.47312e-05 4.30795e-05 -4.10848e-21
1.97102e-06 1.98654e-05 -4.17485e-20
2.96095e-06 -2.54198e-05 -2.39809e-22
-4.16341e-05 4.69593e-05 3.30994e-21
-1.27014e-05 -2.44103e-05 -1.38258e-20
1.6366e-05 -6.42019e-06 -3.56861e-20
-2.41075e-06 2.57709e-05 -1.40192e-20
1.28823e-05 -1.18258e-05 -7.82014e-21
1.38798e-05 2.43117e-05 -2.68332e-21
1.7229e-05 -1.40042e-06 -7.84621e-21
2.21189e-05 -6.32132e-05 -2.09881e-21
-5.87579e-06 -1.28585e-05 -8.20607e-21
-2.31831e-05 1.00866e-05 1.94944e-20
-2.00189e-05 1.8718e-05 1.50806e-20
2.16111e-05 1.45669e-05 -2.21968e-20
1.86716e-05 -1.07561e-05 -3.70743e-20
1.49511e-05 1.25928e-05 7.41966e-21
-5.42783e-06 4.55148e-08 9.56241e-21
1.54028e-05 -2.3086e-05 -1.06806e-21
-1.69894e-05 -2.04081e-05 -1.22988e-20
2.25606e-05 9.77318e-06 -2.00695e-21
1.28059e-05 -1.19891e-05 -3.47732e-21
9.55343e-06 -2.48504e-05 -4.44652e-21
1.66583e-05 -6.93251e-06 -3.59281e-21
-1.58046e-05 -7.54422e-06 -6.90095e-21
1.29678e-06 -2.63015e-05 -1.85213e-20
-2.61054e-05 4.47284e-06 2.0309e-21
2.39028e-06 2.45415e-05 -1.91166e-20
2.05838e-05 6.6271e-06 9.56573e-21
-2.17193e-05 -1.07013e-05 -1.55221e-21
-8.97672e-06 2.56087e-05 -9.8868e-21
-1.49529e-06 -2.41867e-05 -1.35445e-20
1.94654e-05 1.18368e-05 2.04515e-21
-1.76887e-06 1.80838e-05 1.04196e-21
-2.01377e-05 1.37019e-05 -1.04798e-20
2.35097e-05 1.14146e-05 -7.12139e-22
-1.71144e-05 -9.98512e-06 -1.69928e-23
9.51056e-08 -1.98338e-05 -1.32909e-21
1.83815e-05 1.99833e-05 -1.14439e-20
-2.21527e-05 -1.4303e-05 -3.22564e-20
4.83489e-05 -3.39807e-05 2.46382e-21
1.78962e-05 -1.0822e-05 -1.74083e-20
9.00153e-06 4.30854e-05 3.07651e-21
1.70334e-05 -1.36781e-05 -1.32625e-20
-1.98739e-05 8.70324e-05 4.15911e-21
-1.97641e-05 -8.65467e-05 3.2569e-21
5.71825e-05 7.1715e-05 -9.06765e-21
5.692e-05 -7.13887e-05 8.33096e-22
9.06441e-05 -1.56659e-10 7.81558e-21
-7.81985e-05 3.76375e-05 -8.46041e-21
-7.74529e-05 -3.72817e-05 -8.2012e-21
1.22335e-05 1.18183e-05 1.62287e-20
2.93671e-05 2.18918e-05 -3.02854e-22
1.14478e-05 3.33273e-06 3.26236e-21
1.88552e-05 9.75125e-06 -7.28232e-21
4.98911e-06 2.01696e-05 -2.10502e-20
-1.88314e-05 -1.498e-05 -1.08685e-21
1.70376e-05 -1.0214e-05 -1.62263e-20
1.98521e-05 1.4549e-05 -1.89444e-20
-3.16686e-06 2.43634e-05 -2.29335e-20
2.94399e-05 -1.99924e-05 -4.10093e-21
3.79383e-06 -2.37393e-05 1.101e-20
2.19604e-05 5.22693e-06 1.42236e-20
2.98952e-05 1.10257e-05 -2.12633e-20
1.42084e-05 1.41435e-05 -4.9652e-20
1.58829e-05 6.59355e-06 -1.36879e-21
-1.84984e-05 1.09364e-05 -9.83375e-21
-2.25627e-05 9.03646e-06 3.3821e-21
2.2929e-05 -1.12633e-05 -3.11408e-20
-1.82675e-05 -9.99782e-06 -5.5167e-21
-1.85541e-05 -1.05823e-05 -5.43848e-21
-3.43839e-07 -2.07674e-05 -9.23926e-21
-8.61357e-08 -2.11604e-05 -1.00002e-20
-2.01267e-05 -1.00546e-06 -1.21457e-20
2.66986e-05 -4.01909e-06 4.94159e-22
1.81117e-05 1.1342e-05 -5.47879e-21
-1.78639e-05 1.09449e-05 7.76374e-21
-1.53612e-05 1.66234e-05 1.91342e-20
1.60219e-05 -1.3753e-05 -7.49333e-21
-1.10233e-05 1.74631e-05 1.10866e-21
-1.42247e-05 -1.48894e-05 -9.7816e-21
-1.15522e-06 2.12103e-05 -1.5861e-20
-1.28765e-06 2.0968e-05 -2.16284e-20
8.97298e-08 -1.98337e-05 7.58516e-21
6.11076e-06 -1.97371e-05 1.25458e-20
-1.71407e-05 -9.93537e-06 -2.86734e-21
1.55866e-05 -5.49022e-06 -1.38655e-20
6.63166e-07 2.14776e-05 -5.26899e-21
3.00847e-07 1.85073e-05 -8.48346e-21
-2.34572e-06 1.68571e-05 -1.55702e-20
2.19086e-05 -5.52736e-06 -1.51653e-23
-1.65412e-05 5.37803e-06 2.24706e-20
4.15743e-06 2.15173e-05 -2.48419e-20
-3.25581e-05 1.29192e-05 1.88098e-20
9.76331e-06 4.17312e-05 -3.71103e-21
-1.70534e-05 4.56811e-06 7.07829e-21
1.96843e-05 -1.163e-05 -1.18574e-20
9.45776e-07 2.10194e-05 -1.61462e-20
-2.04811e-05 6.6994e-06 2.25433e-20
2.44409e-06 -1.62624e-05 -1.8184e-21
1.81924e-06 -5.80124e-05 -6.05935e-21
2.00647e-06 1.74862e-05 -8.75781e-21
-1.6962e-05 1.40226e-05 -1.06923e-20
1.78541e-05 6.39716e-05 -1.83524e-20
4.57692e-05 3.77068e-05 1.01669e-20
5.20649e-05 -3.52556e-05 -4.34378e-21
1.48154e-05 -1.01671e-05 -2.82179e-20
-1.57855e-05 1.40376e-05 -2.74867e-20
-2.02169e-05 -7.92071e-06 -5.2205e-21
-1.96457e-05 -6.82243e-06 -4.26886e-21
5.92671e-05 -2.4612e-05 -2.45576e-20
5.74338e-05 2.3871e-05 2.47957e-21
1.08946e-05 3.81749e-06 -1.64573e-20
7.66644e-07 1.95794e-05 -1.24082e-20
7.83665e-08 1.95607e-05 -4.61477e-21
-4.83831e-05 -3.6919e-05 -2.129e-20
1.14252e-05 -1.7172e-05 -7.41299e-21
1.17333e-05 1.24647e-05 -5.65431e-21
-2.14183e-05 -3.39576e-06 2.00422e-21
-1.40451e-05 1.72022e-05 -1.68984e-21
-1.88887e-05 9.16782e-06 9.9541e-21
4.76437e-05 3.36945e-05 -4.02451e-21
1.58066e-05 7.06171e-06 1.71561e-20
-5.56679e-06 2.00305e-05 -1.15945e-20
-1.69782e-05 -1.17493e-05 -1.49612e-20
1.85627e-06 -2.05431e-05 1.11877e-20
-8.94981e-06 -1.92675e-05 -1.14581e-20
-1.72493e-05 -1.17737e-05 -1.36245e-20
1.05797e-05 -1.8936e-05 -3.23508e-21
1.41226e-05 -1.69895e-05 -1.15767e-20
-2.44036e-06 -6.14381e-05 -4.7706e-21
2.61805e-05 -4.11261e-05 -1.60617e-21
1.74752e-06 -2.07859e-05 7.88772e-21
1.79589e-05 1.13556e-05 8.50436e-21
-1.44765e-05 -1.49055e-05 -5.83138e-21
-9.8412e-06 1.97104e-05 2.24303e-23
-5.03948e-06 2.1007e-05 -5.86594e-21
1.66275e-05 1.42439e-05 -1.9043e-20
6.05909e-06 -1.98617e-05 3.3251e-21
-1.34066e-05 -4.03585e-05 1.26571e-21
-1.9884e-06 2.50408e-05 -4.67419e-21
1.47921e-05 1.44553e-05 -6.62113e-22
-1.29585e-05 -1.02169e-05 2.00331e-20
-1.35152e-05 1.06084e-05 2.19482e-20
4.43435e-05 -1.89135e-05 2.9028e-21
7.56317e-06 -1.34004e-05 -1.1376e-20
-8.31729e-06 -1.26272e-05 -7.70766e-21
2.13309e-05 6.36358e-06 -1.61108e-20
1.09945e-05 -5.06628e-05 -1.37049e-20
-3.84521e-05 -3.49035e-05 5.62794e-21
2.33071e-05 6.2075e-06 4.14093e-21
-9.32839e-06 -1.82814e-05 -1.51795e-21
1.8706e-05 9.48295e-06 9.32351e-21
-2.85649e-05 -3.25519e-05 -1.36939e-20
9.68836e-06 5.00477e-05 7.80012e-21
3.43348e-05 -5.98608e-05 -2.10005e-20
-3.47378e-05 -5.97776e-05 4.18973e-21
2.7809e-05 -5.20231e-05 8.70688e-21
-1.26983e-05 4.3634e-05 9.08494e-21
-6.27618e-06 3.89781e-05 -9.76553e-21
-1.87311e-05 8.94605e-06 -1.80443e-21
5.97732e-06 2.42426e-05 -8.37675e-21
-2.39161e-06 1.26543e-05 -7.26625e-21
1.01204e-05 3.2332e-06 -4.46045e-21
-3.18853e-06 1.62058e-05 1.94768e-20
-2.47453e-07 2.09921e-05 -2.52597e-21
1.66609e-05 9.75075e-06 -8.2473e-21
1.71034e-06 5.77252e-05 -1.21281e-20
-1.47175e-05 1.07328e-05 -9.58516e-21
1.59497e-05 -6.24672e-06 -2.98905e-20
1.68722e-05 -4.50905e-06 -2.26837e-20
-6.06638e-05 -8.76903e-06 -6.57563e-21
-3.46063e-05 1.67417e-05 1.52225e-20
-4.35154e-05 -5.25472e-05 -8.95851e-21
8.65667e-06 8.34583e-06 -3.12126e-20
1.42101e-05 7.29267e-06 1.00226e-20
2.68052e-05 -4.19593e-06 -4.27432e-21
-8.10451e-06 -1.3243e-05 -1.17082e-20
1.72169e-05 8.42875e-06 -6.00508e-21
7.33546e-06 -3.00351e-05 -1.1245e-20
-1.37139e-05 1.02051e-05 1.60095e-20
-2.23747e-05 -2.14227e-05 -1.43724e-20
-5.83606e-06 1.6298e-05 -1.18107e-20
-3.27104e-06 2.06789e-05 2.26283e-21
3.38503e-05 2.12968e-05 2.48868e-21
3.61138e-05 -1.92832e-05 -1.39241e-20
-4.20711e-05 -1.16232e-05 -1.33238e-20
7.6343e-06 7.68586e-06 3.96025e-21
-4.05852e-06 0.000101363 -9.82586e-21
8.61853e-07 -0.000104469 -1.41835e-20
5.24551e-05 8.76462e-05 -1.19022e-21
-1.91032e-05 8.45803e-06 2.27413e-20
-2.63768e-05 5.65504e-05 -1.46632e-20
5.30334e-05 -8.46408e-05 -1.33971e-20
-1.17207e-05 -1.82826e-05 -1.11717e-21
7.8001e-05 6.74985e-05 -7.82406e-21
2.39939e-05 -1.79771e-05 -7.8553e-21
-3.60748e-06 -2.98225e-05 -1.75214e-20
8.17798e-05 -6.58511e-05 -9.22863e-21
-6.74471e-06 1.45185e-05 8.20302e-21
-5.38328e-05 -3.48244e-05 -1.70733e-20
-4.30138e-05 -9.31311e-05 -5.80954e-21
-2.41128e-05 -5.7805e-05 -8.34854e-21
-4.39754e-05 9.41381e-05 -1.57079e-20
-1.00934e-05 6.40847e-05 -5.7098e-21
1.56329e-05 3.71087e-05 8.4877e-21
-2.79557e-05 3.7241e-05 -9.6801e-22
-2.52732e-05 -5.51841e-05 3.63811e-23
0.000100367 1.73171e-05 -7.98777e-21
-1.69277e-05 1.07672e-05 -1.42821e-21
-5.91241e-06 1.63332e-05 1.06687e-20
-5.07587e-05 3.76402e-05 -1.89238e-20
-1.72765e-05 9.94424e-06 8.56743e-21
9.92038e-05 -1.52635e-05 -3.64313e-21
-1.53604e-05 7.7988e-06 1.19362e-20
7.1927e-06 -1.44951e-05 -2.69019e-20
-7.79703e-05 -6.0949e-05 -1.19022e-20
-2.58792e-05 5.77179e-05 -6.56836e-21
-7.91233e-05 6.03762e-05 -5.86502e-21
2.45406e-05 5.19508e-05 -2.22552e-21
-1.47677e-05 1.05825e-05 6.48923e-21
-2.05301e-05 2.44769e-05 7.31568e-21
-2.8533e-05 4.98184e-05 -1.80186e-20
-5.67766e-05 2.07996e-07 1.62051e-20
-9.44112e-07 1.62962e-05 -7.96534e-21
-2.88499e-05 -5.0407e-05 -1.78795e-20
-5.8199e-05 -2.19815e-07 -1.57015e-20
-2.83498e-05 4.86968e-05 1.45488e-21
-1.51904e-05 6.62668e-05 -1.83565e-21
-1.78649e-05 4.1261e-05 9.1131e-22
-3.39006e-05 2.71377e-05 2.02844e-20
2.43832e-05 -6.05701e-06 -2.04097e-20
3.80031e-05 -2.19533e-06 -6.75149e-21
1.34825e-05 8.20039e-06 4.63297e-21
-1.04693e-05 -7.39884e-05 -1.88499e-20
-6.94497e-05 -2.79745e-05 -2.61995e-21
3.71326e-05 7.32739e-07 2.01444e-20
5.83667e-05 -1.08922e-05 -1.01439e-21
-1.05838e-05 -1.34972e-05 -6.96703e-21
-5.08293e-05 3.7626e-05 -1.66992e-20
-4.61341e-05 5.40007e-05 -1.61208e-20
6.23633e-05 -2.22326e-05 7.4918e-21
-2.81777e-05 -5.04976e-05 -2.61225e-20
-2.87774e-05 4.978e-05 -1.89269e-20
-5.7255e-05 -1.17117e-06 8.17029e-21
-2.65736e-05 5.05983e-05 5.49759e-21
-5.79538e-05 -8.17019e-07 -2.47952e-20
6.60768e-05 1.73926e-05 -2.22935e-20
5.63808e-05 1.29252e-06 -2.15705e-20
5.09007e-05 -2.92742e-05 -1.19017e-20
2.49105e-05 -5.94278e-05 3.24232e-21
2.99188e-05 -4.88573e-05 -1.61599e-20
2.91677e-05 4.86813e-05 1.71931e-20
2.43453e-05 5.809e-05 3.37847e-20
7.58032e-05 -2.00378e-05 6.70084e-21
4.62668e-05 2.90636e-05 -8.14817e-21
4.66248e-05 1.37456e-05 1.01478e-20
TENSORS solid_stress_TPM float
375.035 -24.9205 -1.44951e-12
-24.9205 238.572 -5.29473e-12
-1.44951e-12 -5.29473e-12 197.819

457.008 -21.3203 1.02703e-12
-21.3203 489.992 3.97312e-13
1.02703e-12 3.97312e-13 487.115

454.883 28.0436 -6.37712e-13
28.0436 463.713 1.1573e-12
-6.37712e-13 1.1573e-12 458.463

455.033 -29.8426 -6.54632e-12
-29.8426 482.614 -3.36871e-12
-6.54632e-12 -3.36871e-12 484.862

527.69 19.9309 -5.32818e-12
19.9309 548.459 4.4218e-12
-5.32818e-12 4.4218e-12 527.361

437.315 -18.0747 2.65284e-12
-18.0747 480.343 4.06786e-12
2.65284e-12 4.06786e-12 458.044

372.33 26.4847 -2.58638e-12
26.4847 239.092 7.63833e-12
-2.58638e-12 7.63833e-12 197.804

473.656 29.9581 -1.26003e-12
29.9581 469.506 1.1949e-12
-1.26003e-12 1.1949e-12 472.342

471.553 5.4832 1.96939e-12
5.4832 417.826 -1.73269e-13
1.96939e-12 -1.73269e-13 432.799

504.264 -7.47758 1.37964e-13
-7.47758 444.116 1.89485e-12
1.37964e-13 1.89485e-12 483.456

360.296 16.3088 -1.85689e-12
16.3088 247.658 5.31368e-12
-1.85689e-12 5.31368e-12 233.647

444.786 -13.4533 1.10519e-12
-13.4533 498.39 5.54815e-13
1.10519e-12 5.54815e-13 472.243

466.872 27.8334 -1.60701e-12
27.8334 468.306 -1.75267e-12
-1.60701e-12 -1.75267e-12 466.738

457.041 -14.3402 3.2722e-13
-14.3402 500.438 5.61921e-13
3.2722e-13 5.61921e-13 483.462

512.941 33.3109 -5.81757e-13
33.3109 511.601 1.73001e-12
-5.81757e-13 1.73001e-12 515.23

489.177 0.560989 2.66927e-12
0.560989 435.527 -1.68078e-12
2.66927e-12 -1.68078e-12 462.276

457.588 -17.9691 4.05879e-14
-17.9691 512.89 -1.98419e-12
4.05879e-14 -1.98419e-12 493.601

493.962 -2.6652 4.77958e-12
-2.6652 439.053 -1.96946e-12
4.77958e-12 -1.96946e-12 474.268

418.796 26.6741 -1.79116e-13
26.6741 449.664 9.89431e-13
-1.79116e-13 9.89431e-13 424.057

481.985 -4.19564 2.88007e-12
-4.19564 424.925 1.70367e-12
2.88007e-12 1.70367e-12 453.478

425.3 8.66875 -3.02114e-12
8.66875 481.907 3.42304e-12
-3.02114e-12 3.42304e-12 444.845

634.129 6.28739 5.35771e-12
6.28739 633.965 6.6113e-12
5.35771e-12 6.6113e-12 570.32

479.156 1.876 -3.50002e-12
1.876 422.944 -5.78056e-13
-3.50002e-12 -5.78056e-13 449.736

447.166 -27.7155 -2.19025e-12
-27.7155 461.154 -4.45451e-12
-2.19025e-12 -4.45451e-12 452.951

481.053 6.84945 -9.30811e-13
6.84945 425.444 -4.21737e-13
-9.30811e-13 -4.21737e-13 452.942

449.762 19.113 2.27796e-12
19.113 490.322 -3.66522e-13
2.27796e-12 -3.66522e-13 478.21

377.657 4.18144 -9.07126e-13
4.18144 291.656 4.8613e-12
-9.07126e-13 4.8613e-12 259.004

462.689 30.7461 -2.64855e-12
30.7461 460.718 -3.43251e-12
-2.64855e-12 -3.43251e-12 460.549

384.944 37.075 1.42109e-14
37.075 383.523 1.56319e-12
1.42109e-14 1.56319e-12 348.421

586.944 10.3235 -1.202e-13
10.3235 563.454 4.2785e-12
-1.202e-13 4.2785e-12 546.876

491.691 14.2169 -3.18501e-12
14.2169 442.501 -1.73491e-12
-3.18501e-12 -1.73491e-12 465.859

352.858 -17.7806 -3.34991e-12
-17.7806 416.727 1.79294e-12
-3.34991e-12 1.79294e-12 348.592

331.02 -42.1022 -2.67164e-12
-42.1022 335.875 6.24093e-12
-2.67164e-12 6.24093e-12 253.484

531.412 5.98653 3.30861e-12
5.98653 586.891 2.59348e-13
3.30861e-12 2.59348e-13 538.585

554.026 -4.84034 2.53412e-12
-4.84034 582.074 -1.60642e-12
2.53412e-12 -1.60642e-12 542.515

577.989 21.0278 2.18077e-12
21.0278 539.95 3.63753e-12
2.18077e-12 3.63753e-12 538.353

556.187 5.06716 3.78704e-12
5.06716 600.676 -2.93247e-12
3.78704e-12 -2.93247e-12 547.972

573.777 -9.1701 -3.00767e-12
-9.1701 555.767 -2.52526e-12
-3.00767e-12 -2.52526e-12 540.641

467.131 -27.9984 1.022e-12
-27.9984 466.495 -2.29861e-12
1.022e-12 -2.29861e-12 465.111

330.404 41.5214 -9.9097e-12
41.5214 337.973 -1.91136e-12
-9.9097e-12 -1.91136e-12 253.843

414.528 -17.9493 -7.15753e-12
-17.9493 354.49 -8.26006e-13
-7.15753e-12 -8.26006e-13 346.323

559.308 -3.70577 -8.93493e-12
-3.70577 599.925 -7.83817e-13
-8.93493e-12 -7.83817e-13 548.386

586.415 19.555 2.81715e-12
19.555 572.457 -2.48424e-12
2.81715e-12 -2.48424e-12 548.175

490.896 -12.2733 1.79412e-12
-12.2733 442.856 1.36439e-12
1.79412e-12 1.36439e-12 466.532

341.71 -43.2996 6.54291e-12
-43.2996 345.338 -1.80241e-12
6.54291e-12 -1.80241e-12 288.978

417.554 -18.0636 -7.81597e-13
-18.0636 357.107 -2.55026e-12
-7.81597e-13 -2.55026e-12 351.496

413.008 17.0859 4.44533e-13
17.0859 464.778 -5.96974e-12
4.44533e-13 -5.96974e-12 428.722

429.624 19.3392 -1.47734e-13
19.3392 466.508 1.92439e-13
-1.47734e-13 1.92439e-13 437.075

486.776 -16.3012 4.36451e-12
-16.3012 432.87 8.55612e-13
4.36451e-12 8.55612e-13 458.673

355.576 -34.1858 -1.12503e-14
-34.1858 389.396 -6.49081e-12
-1.12503e-14 -6.49081e-12 332.563

410.247 19.182 -2.25953e-12
19.182 350.696 -5.60145e-13
-2.25953e-12 -5.60145e-13 339.472

425.195 -25.2887 -6.27646e-12
-25.2887 383.815 -3.50594e-12
-6.27646e-12 -3.50594e-12 373.071

519.917 19.4854 1.12651e-12
19.4854 547.527 -9.56568e-13
1.12651e-12 -9.56568e-13 525.727

416.407 29.6497 -3.87246e-12
29.6497 393.881 1.78228e-12
-3.87246e-12 1.78228e-12 373.936

522.172 -21.8128 -3.37508e-14
-21.8128 541.393 5.26708e-14
-3.37508e-14 5.26708e-14 524.374

364.066 -42.7116 9.88128e-12
-42.7116 343.277 3.97667e-12
9.88128e-12 3.97667e-12 289.695

553.447 5.45934 -1.25825e-12
5.45934 583.866 4.81304e-12
-1.25825e-12 4.81304e-12 542.89

373.711 -5.32985 3.58084e-12
-5.32985 436.658 7.28188e-12
3.58084e-12 7.28188e-12 373.82

580.814 10.3843 -5.92711e-13
10.3843 556.167 4.04533e-13
-5.92711e-13 4.04533e-13 542.646

435.052 21.4132 -1.6076e-13
21.4132 473.757 2.06057e-13
-1.6076e-13 2.06057e-13 454.668

513.57 5.75402 -1.93105e-12
5.75402 452.803 -2.09344e-12
-1.93105e-12 -2.09344e-12 494.862

522.456 11.4589 3.26998e-13
11.4589 487.859 -1.71152e-12
3.26998e-13 -1.71152e-12 507.076

383.702 31.8201 -3.9293e-12
31.8201 315.191 -9.7747e-12
-3.9293e-12 -9.7747e-12 269.868

482.085 -6.0353 6.0553e-12
-6.0353 528.178 1.05516e-12
6.0553e-12 1.05516e-12 504.098

487.094 9.51984 3.11395e-12
9.51984 523.688 2.75572e-12
3.11395e-12 2.75572e-12 507.494

456.456 -2.88091 -4.38538e-14
-2.88091 520.155 3.41712e-12
-4.38538e-14 3.41712e-12 487.805

464.453 23.4019 4.76397e-13
23.4019 503.468 9.43245e-13
4.76397e-13 9.43245e-13 495.439

496.746 8.4636 2.73618e-12
8.4636 444.396 -3.05385e-13
2.73618e-12 -3.05385e-13 477.697

445.505 -28.2396 1.33848e-12
-28.2396 459.527 1.56556e-12
1.33848e-12 1.56556e-12 451.165

501.68 -1.71128 7.41629e-13
-1.71128 444.915 1.43485e-12
7.41629e-13 1.43485e-12 489.067

519.53 -19.2614 -1.4954e-12
-19.2614 546.82 3.33363e-12
-1.4954e-12 3.33363e-12 525.461

523.301 21.3078 -7.82189e-13
21.3078 542.917 -3.89105e-13
-7.82189e-13 -3.89105e-13 525.263

353.408 -16.5836 -3.98082e-12
-16.5836 415.734 8.82257e-13
-3.98082e-12 8.82257e-13 346.111

506.019 -27.9362 2.83684e-12
-27.9362 485.308 5.08778e-12
2.83684e-12 5.08778e-12 493.878

449.719 -25.1348 2.22489e-12
-25.1348 471.219 1.49214e-12
2.22489e-12 1.49214e-12 458.576

357.869 -31.7108 1.10608e-12
-31.7108 285.675 -6.14916e-12
1.10608e-12 -6.14916e-12 249.857

498.498 3.22269 9.52571e-13
3.22269 541.404 -2.27018e-12
9.52571e-13 -2.27018e-12 513.641

501.725 28.944 5.47236e-12
28.944 474.548 1.81869e-12
5.47236e-12 1.81869e-12 487.656

448.443 19.6643 -6.14768e-13
19.6643 492.107 1.22924e-12
-6.14768e-13 1.22924e-12 477.642

440.191 7.99961 1.66504e-12
7.99961 373.036 1.72011e-13
1.66504e-12 1.72011e-13 382.934

386.45 -33.9358 2.75809e-12
-33.9358 360.205 -7.63597e-12
2.75809e-12 -7.63597e-12 319.435

537.718 -10.5874 8.88001e-12
-10.5874 556.137 -1.93001e-12
8.88001e-12 -1.93001e-12 531.248

482.656 23.8996 -1.7879e-12
23.8996 504.559 9.88723e-13
-1.7879e-12 9.88723e-13 502.042

385.371 -32.3841 1.24345e-13
-32.3841 345.305 4.47997e-12
1.24345e-13 4.47997e-12 317.08

422.197 10.7912 -3.3206e-12
10.7912 363.85 -1.87376e-12
-3.3206e-12 -1.87376e-12 350.252

307.651 -21.2062 -4.58892e-13
-21.2062 388.442 -5.26986e-12
-4.58892e-13 -5.26986e-12 288.115

434.444 14.4257 -2.55973e-12
14.4257 488.668 7.87518e-13
-2.55973e-12 7.87518e-13 460.883

509.72 23.1432 -2.43953e-12
23.1432 475.171 -2.68023e-12
-2.43953e-12 -2.68023e-12 489.946

338.24 42.199 1.21266e-12
42.199 349.571 5.40723e-12
1.21266e-12 5.40723e-12 288.951

634.215 16.5068 1.40784e-11
16.5068 603.068 -6.2288e-12
1.40784e-11 -6.2288e-12 565.324

372.888 -4.1084 -7.73011e-13
-4.1084 436.817 1.86991e-12
-7.73011e-13 1.86991e-12 373.427

637.121 -16.632 1.11818e-11
-16.632 599.539 4.60017e-12
1.11818e-11 4.60017e-12 564.831

533.938 -27.3349 -4.22773e-13
-27.3349 507.238 -6.28386e-13
-4.22773e-13 -6.28386e-13 515.714

505.296 27.4246 -2.70539e-12
27.4246 466.334 2.78296e-14
-2.70539e-12 2.78296e-14 485.072

426.926 -24.4108 1.47674e-12
-24.4108 386.238 -3.47189e-12
1.47674e-12 -3.47189e-12 375.978

358.936 31.3235 5.14729e-12
31.3235 396.004 -6.87095e-12
5.14729e-12 -6.87095e-12 339.2

339.824 -10.7052 1.97294e-12
-10.7052 408.392 -8.07177e-12
1.97294e-12 -8.07177e-12 319.105

453.105 21.9708 -3.00397e-12
21.9708 494.679 7.70939e-13
-3.00397e-12 7.70939e-13 483.169

533.113 16.7942 -1.9312e-12
16.7942 506.198 -4.75768e-13
-1.9312e-12 -4.75768e-13 513.353

443.453 15.154 -3.38233e-12
15.154 488.441 4.02049e-13
-3.38233e-12 4.02049e-13 464.283

451.482 15.954 -2.2086e-12
15.954 400.537 -1.10297e-12
-2.2086e-12 -1.10297e-12 403.747

374.489 -21.4727 2.68289e-12
-21.4727 419.868 1.50398e-13
2.68289e-12 1.50398e-13 357.198

389.723 -29.3909 3.7043e-12
-29.3909 342.37 -2.85046e-12
3.7043e-12 -2.85046e-12 314.391

454.967 -24.5731 -5.58945e-12
-24.5731 480.066 2.34361e-12
-5.58945e-12 2.34361e-12 478.371

466.428 27.4511 3.56456e-12
27.4511 478.744 2.62457e-12
3.56456e-12 2.62457e-12 479.811

452.218 23.1877 1.34085e-12
23.1877 492.561 -2.67638e-13
1.34085e-12 -2.67638e-13 482.044

466.297 13.1691 -2.82821e-12
13.1691 529.778 -1.79767e-12
-2.82821e-12 -1.79767e-12 501.384

490.863 9.37231 -1.61885e-12
9.37231 437.89 3.524e-12
-1.61885e-12 3.524e-12 462.057

327.712 -4.66509 -9.50055e-13
-4.66509 403.382 4.95011e-12
-9.50055e-13 4.95011e-12 314.412

462.581 -36.833 -2.56032e-12
-36.833 487.692 -7.34968e-13
-2.56032e-12 -7.34968e-13 492.75

445.851 27.4655 -1.48415e-12
27.4655 463.272 -1.74616e-12
-1.48415e-12 -1.74616e-12 455.016

305.672 2.17033 -1.13748e-11
2.17033 393.362 -9.47627e-12
-1.13748e-11 -9.47627e-12 297.256

385.998 34.6106 2.98902e-12
34.6106 332.449 1.2926e-12
2.98902e-12 1.2926e-12 306.246

453.352 -22.974 -1.16795e-12
-22.974 480.072 1.34796e-12
-1.16795e-12 1.34796e-12 476.174

501.396 5.73296 2.92625e-12
5.73296 441.317 -1.58251e-12
2.92625e-12 -1.58251e-12 481.012

422.382 27.2043 4.47642e-13
27.2043 389.768 -2.55973e-12
4.47642e-13 -2.55973e-12 374.235

570.543 12.7453 4.80712e-12
12.7453 565.918 2.6145e-12
4.80712e-12 2.6145e-12 542.918

396.179 24.3307 -1.53951e-13
24.3307 349.649 -1.6532e-12
-1.53951e-13 -1.6532e-12 319.045

569.165 -13.0549 1.20689e-12
-13.0549 565.83 -2.57897e-12
1.20689e-12 -2.57897e-12 542.373

375.093 0.77855 2.62797e-12
0.77855 438.871 5.97803e-12
2.62797e-12 5.97803e-12 374.642

461.473 -2.23534 -2.05465e-12
-2.23534 399.305 -1.05782e-12
-2.05465e-12 -1.05782e-12 417.283

538.198 -15.7677 -7.60873e-13
-15.7677 480.633 1.98952e-12
-7.60873e-13 1.98952e-12 513.48

457.247 24.3882 -2.97702e-12
24.3882 487.787 2.98724e-12
-2.97702e-12 2.98724e-12 488.356

461.258 -13.5351 1.09156e-12
-13.5351 519.138 -2.404e-12
1.09156e-12 -2.404e-12 495.716

514.971 -7.9999 1.93268e-12
-7.9999 438.194 -1.44211e-12
1.93268e-12 -1.44211e-12 494.279

488.317 -22.2837 8.19907e-12
-22.2837 541.604 3.22705e-14
8.19907e-12 3.22705e-14 515.752

556.052 -6.59681 -9.67848e-12
-6.59681 560.396 3.75603e-12
-9.67848e-12 3.75603e-12 538.731

463.868 -29.9082 5.92119e-14
-29.9082 483.198 9.48278e-13
5.92119e-14 9.48278e-13 483.602

341.708 11.4537 5.36756e-12
11.4537 406.195 3.74219e-12
5.36756e-12 3.74219e-12 319.484

422.483 -28.1467 -5.98869e-12
-28.1467 391.243 -6.36528e-13
-5.98869e-12 -6.36528e-13 375.149

507.383 -13.7719 -7.51325e-13
-13.7719 558.75 -1.15226e-12
-7.51325e-13 -1.15226e-12 525.253

501.059 0.504517 -5.98085e-12
0.504517 441.282 -2.30482e-13
-5.98085e-12 -2.30482e-13 487.089

476.944 -21.5244 -1.40628e-13
-21.5244 507.424 3.62081e-12
-1.40628e-13 3.62081e-12 501.507

459.1 25.6978 -5.25358e-13
25.6978 484.603 -2.13377e-12
-5.25358e-13 -2.13377e-12 487.984

394.432 -31.4647 -7.95808e-13
-31.4647 400.6 -2.65151e-12
-7.95808e-13 -2.65151e-12 357.523

552.128 -7.08466 4.62978e-12
-7.08466 585.297 2.91382e-12
4.62978e-12 2.91382e-12 542.605

347.211 -33.077 -5.35512e-12
-33.077 382.609 5.39065e-12
-5.35512e-12 5.39065e-12 303.436

490.872 -19.1798 3.97904e-12
-19.1798 448.389 -1.53655e-13
3.97904e-12 -1.53655e-13 467.126

519.71 1.97045 1.8856e-12
1.97045 466.816 2.26634e-12
1.8856e-12 2.26634e-12 502.834

570.561 17.8749 1.77576e-12
17.8749 566.481 1.96228e-12
1.77576e-12 1.96228e-12 542.377

375.292 20.183 -1.42523e-12
20.183 424.033 -9.42653e-13
-1.42523e-12 -9.42653e-13 360.222

489.084 27.2107 -3.0731e-13
27.2107 468.542 -1.86754e-12
-3.0731e-13 -1.86754e-12 476.641

454.381 -24.5117 4.1247e-12
-24.5117 415.344 2.57453e-12
4.1247e-12 2.57453e-12 418.604

454.72 -17.8386 1.91258e-12
-17.8386 494.909 3.30639e-12
1.91258e-12 3.30639e-12 482.643

379.2 35.0684 -2.23466e-12
35.0684 366.031 3.61074e-12
-2.23466e-12 3.61074e-12 317.05

449.154 -21.8311 -5.28318e-13
-21.8311 491.706 7.37484e-13
-5.28318e-13 7.37484e-13 479.775

485.492 30.8505 1.08002e-12
30.8505 465.137 -5.97448e-13
1.08002e-12 -5.97448e-13 473.447

480.324 -25.2441 7.56728e-13
-25.2441 442.368 4.24046e-12
7.56728e-13 4.24046e-12 455.444

448.22 -25.1265 4.65317e-12
-25.1265 469.769 8.62125e-12
4.65317e-12 8.62125e-12 458.098

445.346 -18.6882 5.84303e-12
-18.6882 393.462 -4.1626e-12
5.84303e-12 -4.1626e-12 397.258

470.654 -18.8497 1.78346e-12
-18.8497 422.854 -1.73639e-12
1.78346e-12 -1.73639e-12 437.532

459 -25.337 2.99257e-12
-25.337 485.43 2.48061e-12
2.99257e-12 2.48061e-12 488.826

386.542 35.9696 -5.94843e-12
35.9696 381.988 1.66149e-12
-5.94843e-12 1.66149e-12 348.116

444.496 15.3768 8.18604e-13
15.3768 491.533 -1.30858e-13
8.18604e-13 -1.30858e-13 467.14

469.397 26.4223 1.20407e-12
26.4223 479.958 1.24197e-12
1.20407e-12 1.24197e-12 482.547

456.143 25.4736 1.23527e-12
25.4736 486.647 -7.13947e-13
1.23527e-12 -7.13947e-13 487.246

457.807 11.6216 3.50465e-12
11.6216 506.94 -8.56204e-13
3.50465e-12 -8.56204e-13 486.015

431.951 -8.22703 -3.76114e-12
-8.22703 370.755 -4.28146e-12
-3.76114e-12 -4.28146e-12 363.306

376.779 18.6065 -3.39284e-12
18.6065 427.265 -1.03858e-12
-3.39284e-12 -1.03858e-12 363.883

452.312 -24.3806 3.25458e-12
-24.3806 478.385 -3.13231e-13
3.25458e-12 -3.13231e-13 470.711

440.746 25.666 -1.32043e-13
25.666 455.64 1.55135e-12
-1.32043e-13 1.55135e-12 437.805

390.955 -35.6295 2.67046e-12
-35.6295 380.276 2.5544e-12
2.67046e-12 2.5544e-12 350.09

368.94 38.3168 -1.7728e-12
38.3168 327.251 -8.5502e-13
-1.7728e-12 -8.5502e-13 295.681

363.645 -33.3112 2.31282e-12
-33.3112 394.434 -2.13163e-14
2.31282e-12 -2.13163e-14 341.978

397.929 -31.1597 -1.6307e-12
-31.1597 404.191 4.5001e-13
-1.6307e-12 4.5001e-13 362.972

502.856 -6.83865 -1.35566e-12
-6.83865 442.249 4.90904e-12
-1.35566e-12 4.90904e-12 482.317

393.162 30.3418 7.04977e-12
30.3418 408.977 -3.5314e-12
7.04977e-12 -3.5314e-12 363.432

429.7 13.2947 -6.16514e-12
13.2947 372.245 4.57471e-12
-6.16514e-12 4.57471e-12 362.712

350.142 13.3789 3.3847e-12
13.3789 418.512 1.02555e-12
3.3847e-12 1.02555e-12 348.473

379.477 -22.3404 -6.97516e-13
-22.3404 423.511 -3.68416e-12
-6.97516e-13 -3.68416e-12 363.446

491.206 -1.09166 1.11111e-12
-1.09166 550.876 -3.34962e-12
1.11111e-12 -3.34962e-12 516.304

372.861 2.24662 -3.89614e-13
2.24662 437.785 -4.9738e-14
-3.89614e-13 -4.9738e-14 373.518

357.887 31.0894 -4.34201e-12
31.0894 399.484 -1.56319e-12
-4.34201e-12 -1.56319e-12 341.958

457.99 12.1079 -6.07061e-13
12.1079 510.56 -1.00009e-12
-6.07061e-13 -1.00009e-12 488.402

421.451 -27.6477 -8.69231e-13
-27.6477 389.07 -1.90722e-12
-8.69231e-13 -1.90722e-12 375.07

524.755 20.557 -4.6206e-12
20.557 469.748 -2.13133e-12
-4.6206e-12 -2.13133e-12 500.733

534.923 26.2704 -3.606e-13
26.2704 506.858 -2.1522e-12
-3.606e-13 -2.1522e-12 516.092

494.815 -18.5677 -1.51701e-12
-18.5677 449.024 1.59606e-12
-1.51701e-12 1.59606e-12 470.855

554.583 -1.80149 1.41087e-12
-1.80149 516.021 1.73846e-12
1.41087e-12 1.73846e-12 525.715

473.286 -31.8119 -6.57252e-14
-31.8119 475.695 5.43358e-12
-6.57252e-14 5.43358e-12 478.576

412.596 23.3278 -1.71714e-13
23.3278 357.194 -4.10398e-12
-1.71714e-13 -4.10398e-12 348.089

464.176 30.1621 1.79353e-12
30.1621 482.767 5.11887e-13
1.79353e-12 5.11887e-13 483.203

464.438 29.2059 4.51283e-12
29.2059 482.24 2.18492e-13
4.51283e-12 2.18492e-13 482.764

393.944 30.661 -1.9611e-12
30.661 405.722 -8.99784e-12
-1.9611e-12 -8.99784e-12 360.867

502.853 27.0851 1.76925e-12
27.0851 482.664 2.8324e-12
1.76925e-12 2.8324e-12 490.733

415.349 3.52516 -2.58164e-12
3.52516 339.015 6.34159e-13
-2.58164e-12 6.34159e-13 340.823

493.121 31.8172 1.62566e-12
31.8172 487.222 2.85727e-12
1.62566e-12 2.85727e-12 495.574

476.325 -12.5996 2.3351e-12
-12.5996 522.45 -1.52293e-12
2.3351e-12 -1.52293e-12 500.247

536.925 24.2781 -4.11819e-13
24.2781 507.401 -3.69393e-12
-4.11819e-13 -3.69393e-12 516.629

468.177 -29.5788 3.54265e-12
-29.5788 479.969 5.92119e-13
3.54265e-12 5.92119e-13 483.061

464.56 -4.89797 1.91782e-12
-4.89797 521.555 3.07843e-12
1.91782e-12 3.07843e-12 490.978

400.938 -24.5564 -6.60331e-12
-24.5564 349.022 9.22521e-13
-6.60331e-12 9.22521e-13 323.949

418.965 29.6933 -7.4607e-14
29.6933 392.462 7.53175e-13
-7.4607e-14 7.53175e-13 373.768

352.343 14.6966 3.43903e-12
14.6966 417.211 3.49942e-12
3.43903e-12 3.49942e-12 348.238

500.529 -1.13894 -2.61717e-13
-1.13894 442.794 4.29146e-12
-2.61717e-13 4.29146e-12 487.708

492.471 0.00221997 3.78246e-12
0.00221997 438.102 -8.04495e-13
3.78246e-12 -8.04495e-13 474.418

452.965 23.124 -1.61175e-12
23.124 479.707 -7.53175e-13
-1.61175e-12 -7.53175e-13 475.586

481.304 23.871 1.15167e-13
23.871 502.874 -1.70414e-12
1.15167e-13 -1.70414e-12 501.253

456.588 -24.3808 -5.50097e-13
-24.3808 487.353 -6.72188e-12
-5.50097e-13 -6.72188e-12 488.498

457.836 -0.672869 4.38092e-12
-0.672869 517.942 3.60482e-12
4.38092e-12 3.60482e-12 486.4

458.885 25.5905 2.00832e-12
25.5905 486.469 -3.01759e-13
2.00832e-12 -3.01759e-13 488.52

465.562 -10.308 1.90544e-12
-10.308 408.086 -3.48432e-12
1.90544e-12 -3.48432e-12 427.225

400.867 -32.8337 -2.9677e-12
-32.8337 414.958 2.71901e-12
-2.9677e-12 2.71901e-12 385.168

518.1 -2.3009 2.65773e-12
-2.3009 465.743 -2.24887e-12
2.65773e-12 -2.24887e-12 500.931

391.875 -34.5085 2.66217e-12
-34.5085 379.609 -1.72662e-12
2.66217e-12 -1.72662e-12 347.42

478.005 19.0861 -1.70412e-12
19.0861 509.206 -9.33179e-13
-1.70412e-12 -9.33179e-13 501.85

506.117 -26.4788 -2.46144e-12
-26.4788 470.252 -1.40095e-12
-2.46144e-12 -1.40095e-12 487.277

425.004 -9.69034 -2.4869e-13
-9.69034 366.734 8.0617e-13
-2.4869e-13 8.0617e-13 355.984

530.271 -23.1921 4.99748e-13
-23.1921 488.762 2.49933e-12
4.99748e-13 2.49933e-12 506.494

500.898 2.35829 1.14235e-12
2.35829 444.582 -3.22216e-12
1.14235e-12 -3.22216e-12 489.21

521.197 -23.3216 -1.22865e-12
-23.3216 501.847 -3.52015e-12
-1.22865e-12 -3.52015e-12 508.539

502.022 -25.8595 5.41256e-12
-25.8595 461.497 -3.98999e-12
5.41256e-12 -3.98999e-12 481.249

498.833 -8.54624 -3.3283e-12
-8.54624 445.141 5.56148e-13
-3.3283e-12 5.56148e-13 479.35

482.226 -23.0682 -2.01705e-12
-23.0682 504.998 3.33067e-13
-2.01705e-12 3.33067e-13 502.541

428.545 -31.3422 0
-31.3422 410.593 -3.57403e-12
0 -3.57403e-12 399.002

503.273 -24.5875 5.01821e-12
-24.5875 464.719 1.73076e-12
5.01821e-12 1.73076e-12 482.165

441.246 10.8646 -8.7752e-13
10.8646 378.485 2.75454e-12
-8.7752e-13 2.75454e-12 387.802

500.043 26.3404 3.88845e-12
26.3404 498.589 -2.20002e-12
3.88845e-12 -2.20002e-12 500.11

463.756 -37.6126 -1.62152e-12
-37.6126 488.395 1.57696e-12
-1.62152e-12 1.57696e-12 494.088

464.865 37.265 5.56592e-13
37.265 487.307 -2.2599e-12
5.56592e-13 -2.2599e-12 493.803

446.333 -28.5732 1.73062e-12
-28.5732 500.021 -2.02712e-12
1.73062e-12 -2.02712e-12 492.318

448.568 27.064 1.05841e-13
27.064 500.712 2.23406e-12
1.05841e-13 2.23406e-12 492.505

513.076 -8.52753 2.71442e-12
-8.52753 436.412 -1.4088e-12
2.71442e-12 -1.4088e-12 492.765

511.238 9.27354 -5.1239e-12
9.27354 438.009 5.85902e-13
-5.1239e-12 5.85902e-13 492.403

501.662 -9.84629 1.76718e-12
-9.84629 451.748 -3.36472e-13
1.76718e-12 -3.36472e-13 483.026

510.87 32.1158 -4.73695e-13
32.1158 510.396 1.56764e-12
-4.73695e-13 1.56764e-12 514.061

509.646 -32.8538 1.20111e-12
-32.8538 510.073 2.77764e-12
1.20111e-12 2.77764e-12 513.7

481.816 16.0684 -2.05169e-13
16.0684 539.137 1.92439e-14
-2.05169e-13 1.92439e-14 514.332

483.009 -15.8009 -3.40868e-12
-15.8009 538.726 3.43962e-12
-3.40868e-12 3.43962e-12 514.353

556.874 -3.7479 3.56456e-13
-3.7479 506.837 5.28614e-12
3.56456e-13 5.28614e-12 524.998

558.429 3.61066 3.78468e-12
3.61066 505.162 -4.56228e-13
3.78468e-12 -4.56228e-13 525.369

387.312 9.837 4.52579e-12
9.837 449.201 4.40536e-12
4.52579e-12 4.40536e-12 397.09

472.393 -24.7743 5.89454e-13
-24.7743 480.759 -8.24526e-13
5.89454e-13 -8.24526e-13 484.981

443.467 -36.3873 -8.27634e-13
-36.3873 485.537 -5.29991e-12
-8.27634e-13 -5.29991e-12 486.633

473.646 -4.66433 7.29727e-12
-4.66433 420.44 -3.74774e-13
7.29727e-12 -3.74774e-13 436.342

540.259 -16.6944 -2.13326e-12
-16.6944 484.197 3.81887e-12
-2.13326e-12 3.81887e-12 515.293

540.979 16.1754 9.65302e-13
16.1754 485.421 -2.73559e-13
9.65302e-13 -2.73559e-13 515.899

506.866 0.121879 -3.82361e-13
0.121879 423.556 2.58181e-13
-3.82361e-13 2.58181e-13 487.006

384.795 23.3755 2.60769e-12
23.3755 432.301 1.04213e-12
2.60769e-12 1.04213e-12 385.479

442.338 36.1713 -2.65588e-12
36.1713 485.216 -1.05086e-12
-2.65588e-12 -1.05086e-12 485.838

452.602 -23.3958 -4.13995e-12
-23.3958 494.958 2.6672e-12
-4.13995e-12 2.6672e-12 483.595

443.252 23.3531 -3.8014e-13
23.3531 397.522 -4.29997e-12
-3.8014e-13 -4.29997e-12 400.376

530.973 23.8583 -3.2235e-12
23.8583 488.012 9.48278e-13
-3.2235e-12 9.48278e-13 507.252

428.482 -31.314 1.72662e-12
-31.314 410.877 2.60651e-12
1.72662e-12 2.60651e-12 398.821

519.864 -3.23112 9.03722e-13
-3.23112 469.063 -2.93543e-12
9.03722e-13 -2.93543e-12 502.69

439.401 -34.1608 7.76712e-13
-34.1608 485.508 -5.39243e-12
7.76712e-13 -5.39243e-12 485.827

389.186 8.32007 -6.98545e-12
8.32007 452.332 -7.53175e-13
-6.98545e-12 -7.53175e-13 400.858

385.882 21.8119 5.18104e-14
21.8119 435.776 5.98159e-12
5.18104e-14 5.98159e-12 388.697

383.85 35.7763 -2.84336e-12
35.7763 362.334 6.24804e-12
-2.84336e-12 6.24804e-12 318.33

408.186 1.57878 -3.81917e-12
1.57878 332.157 -7.50363e-13
-3.81917e-12 -7.50363e-13 327.327

485.459 -22.8046 1.45188e-12
-22.8046 502.862 2.7072e-12
1.45188e-12 2.7072e-12 501.753

351.88 31.1843 2.34953e-12
31.1843 388.834 8.15229e-12
2.34953e-12 8.15229e-12 312.359

451.353 23.6102 -1.89004e-12
23.6102 478.417 -2.16123e-13
-1.89004e-12 -2.16123e-13 465.216

442.2 -5.34962 -6.94556e-12
-5.34962 377.128 -2.50703e-12
-6.94556e-12 -2.50703e-12 387.74

464.159 11.2162 -2.72375e-14
11.2162 407.302 -1.12207e-12
-2.72375e-14 -1.12207e-12 424.925

505.382 0.4299 -4.53459e-12
0.4299 421.576 -1.49207e-12
-4.53459e-12 -1.49207e-12 485.678

449.353 -29.0309 2.93158e-12
-29.0309 502.001 2.57927e-12
2.93158e-12 2.57927e-12 493.592

572.511 -6.31879 -1.02895e-12
-6.31879 589.485 9.10975e-12
-1.02895e-12 9.10975e-12 549.255

463.143 37.4113 7.40149e-15
37.4113 487.03 -2.15357e-12
7.40149e-15 -2.15357e-12 493.067

408.741 1.66331 1.36898e-12
1.66331 331.604 5.41471e-12
1.36898e-12 5.41471e-12 308.906

404.237 -32.7874 1.88886e-13
-32.7874 415.511 3.38988e-12
1.88886e-13 3.38988e-12 387.392

443.144 36.6128 1.60523e-12
36.6128 485.509 2.27551e-12
1.60523e-12 2.27551e-12 486.575

444.682 -11.1339 -2.3571e-12
-11.1339 498.938 1.46431e-12
-2.3571e-12 1.46431e-12 471.444

386.075 -25.5149 2.23851e-12
-25.5149 428.904 7.22267e-12
2.23851e-12 7.22267e-12 384.566

449.453 28.8299 -6.34418e-13
28.8299 501.634 -1.03562e-12
-6.34418e-13 -1.03562e-12 493.291

452.714 -26.1422 5.83178e-12
-26.1422 419.305 -2.81789e-12
5.83178e-12 -2.81789e-12 419.52

579.553 10.4835 9.1512e-13
10.4835 582.164 1.50132e-12
9.1512e-13 1.50132e-12 549.04

398.331 30.8724 2.68644e-12
30.8724 422.061 -9.72259e-13
2.68644e-12 -9.72259e-13 388.165

515.71 8.12663 4.78551e-12
8.12663 437.272 2.02801e-13
4.78551e-12 2.02801e-13 494.585

493.808 30.1907 1.44329e-12
30.1907 484.751 1.99278e-12
1.44329e-12 1.99278e-12 493.805

453.468 23.3321 -1.32442e-12
23.3321 479.166 -3.78068e-13
-1.32442e-12 -3.78068e-13 475.801

510.704 -32.4885 -2.30453e-12
-32.4885 512.455 1.41472e-12
-2.30453e-12 1.41472e-12 515.009

510.311 -23.1904 3.48225e-12
-23.1904 473.183 -5.45638e-13
3.48225e-12 -5.45638e-13 489.68

511.404 10.4704 -5.03086e-12
10.4704 557.994 3.31705e-12
-5.03086e-12 3.31705e-12 523.734

452.176 -23.434 5.66125e-12
-23.434 480.169 -7.22444e-12
5.66125e-12 -7.22444e-12 468.953

394.412 -9.70794 9.99971e-12
-9.70794 316.415 2.55869e-12
9.99971e-12 2.55869e-12 295.577

387.293 -14.2774 -1.64372e-12
-14.2774 306.061 -7.00536e-12
-1.64372e-12 -7.00536e-12 290.051

547.586 16.5297 1.9158e-12
16.5297 507.766 1.06641e-12
1.9158e-12 1.06641e-12 519.322

436.49 22.5019 7.7538e-13
22.5019 469.14 -4.93886e-12
7.7538e-13 -4.93886e-12 447.826

475.965 29.1634 -7.10543e-13
29.1634 467.648 -2.67164e-12
-7.10543e-13 -2.67164e-12 471.481

450.304 0.688677 7.47254e-13
0.688677 392.779 -7.40229e-12
7.47254e-13 -7.40229e-12 395.677

478.353 6.57106 1.25446e-13
6.57106 541.28 -4.24786e-12
1.25446e-13 -4.24786e-12 507.542

507.334 16.5407 3.55863e-13
16.5407 461.138 -2.91441e-12
3.55863e-13 -2.91441e-12 488.082

389.979 -25.7614 -2.87237e-12
-25.7614 430.039 7.23569e-13
-2.87237e-12 7.23569e-13 387.736

456.321 -2.57232 -1.2616e-12
-2.57232 517.017 3.92042e-12
-1.2616e-12 3.92042e-12 484.843

400.592 13.3654 -1.63277e-12
13.3654 452.988 5.24144e-12
-1.63277e-12 5.24144e-12 404.638

486.916 -29.7135 -2.75217e-12
-29.7135 465.816 -1.58096e-12
-2.75217e-12 -1.58096e-12 474.261

430.301 -29.9478 -7.83966e-13
-29.9478 423.631 -2.0132e-14
-7.83966e-13 -2.0132e-14 404.957

399.713 31.6232 1.74853e-12
31.6232 418.234 -1.13687e-12
1.74853e-12 -1.13687e-12 386.004

624 -15.02 -2.11979e-13
-15.02 581.948 5.24617e-13
-2.11979e-13 5.24617e-13 557.905

494.524 2.04141 1.69235e-12
2.04141 552.145 5.40486e-12
1.69235e-12 5.40486e-12 517.927

483.504 20.2998 3.36516e-12
20.2998 542.044 -2.14229e-12
3.36516e-12 -2.14229e-12 516.033

544.707 15.4388 2.93336e-12
15.4388 479.972 1.32013e-12
2.93336e-12 1.32013e-12 515.755

473.751 -26.1889 -2.84868e-12
-26.1889 479.759 -1.00749e-12
-2.84868e-12 -1.00749e-12 483.019

452.128 17.9575 -7.20017e-13
17.9575 404.51 -1.84297e-12
-7.20017e-13 -1.84297e-12 406.92

531.581 -5.29387 9.74498e-14
-5.29387 580.801 -3.27205e-12
9.74498e-14 -3.27205e-12 537.119

512.189 -18.9881 1.20644e-12
-18.9881 464.796 -1.95903e-12
1.20644e-12 -1.95903e-12 493.03

473.978 -15.599 1.43234e-12
-15.599 423.178 -3.56604e-12
1.43234e-12 -3.56604e-12 438.882

402.002 11.6034 4.3728e-13
11.6034 455.96 -4.09983e-12
4.3728e-13 -4.09983e-12 407.782

410.925 -25.7345 -1.68221e-12
-25.7345 435.583 6.21133e-12
-1.68221e-12 6.21133e-12 398.958

532.05 -25.2738 -5.79981e-13
-25.2738 523.194 -9.47242e-13
-5.79981e-13 -9.47242e-13 519.12

423.059 31.9599 -3.30047e-12
31.9599 417.251 1.18187e-12
-3.30047e-12 1.18187e-12 400.307

535.484 -25.1346 -1.32605e-12
-25.1346 505.79 5.83563e-12
-1.32605e-12 5.83563e-12 515.661

453.497 2.59739 -7.41333e-13
2.59739 397.021 1.82802e-12
-7.41333e-13 1.82802e-12 401.9

311.101 -28.9308 3.75167e-12
-28.9308 376.599 -7.18832e-12
3.75167e-12 -7.18832e-12 289.997

431.878 -29.2313 -5.02709e-12
-29.2313 424.05 1.7207e-12
-5.02709e-12 1.7207e-12 406.156

353.763 32.1593 4.66234e-12
32.1593 392.547 -4.37221e-12
4.66234e-12 -4.37221e-12 312.97

470.348 -11.8768 4.35311e-12
-11.8768 529.554 7.06398e-13
4.35311e-12 7.06398e-13 500.305

391.452 -13.8215 4.82843e-12
-13.8215 449.256 6.28357e-12
4.82843e-12 6.28357e-12 400.2

602.854 -23.9876 -6.83305e-12
-23.9876 602.267 -2.34361e-12
-6.83305e-12 -2.34361e-12 557.846

408.374 23.7711 4.26326e-13
23.7711 441.942 2.04044e-12
4.26326e-13 2.04044e-12 402.224

496.579 -32.7263 -3.79311e-12
-32.7263 490.643 -1.12591e-12
-3.79311e-12 -1.12591e-12 497.449

388.192 -11.9632 -2.90286e-12
-11.9632 448.288 2.59467e-12
-2.90286e-12 2.59467e-12 397.018

516.713 -19.1168 1.21858e-12
-19.1168 465.756 -2.32614e-12
1.21858e-12 -2.32614e-12 496.246

410.689 23.8773 2.69177e-12
23.8773 439.315 1.80952e-12
2.69177e-12 1.80952e-12 400.701

488.923 -4.97551 -7.95216e-13
-4.97551 435.073 -4.15408e-13
-7.95216e-13 -4.15408e-13 460.385

305.784 -30.3429 -8.05282e-13
-30.3429 391.441 2.27374e-13
-8.05282e-13 2.27374e-13 262.572

438.613 21.0142 1.59398e-12
21.0142 473.916 9.17784e-14
1.59398e-12 9.17784e-14 458.352

445.691 -19.3235 1.50043e-12
-19.3235 393.98 6.01001e-14
1.50043e-12 6.01001e-14 399.627

551.606 -21.4458 1.44625e-12
-21.4458 499.52 -1.2701e-13
1.44625e-12 -1.2701e-13 520.107

424.474 31.7543 -2.81257e-12
31.7543 413.327 -3.45146e-12
-2.81257e-12 -3.45146e-12 397.963

459.167 -29.972 1.94807e-13
-29.972 437.642 -1.67422e-12
1.94807e-13 -1.67422e-12 439.304

510.624 20.8854 -7.19839e-12
20.8854 476.077 -7.01069e-13
-7.19839e-12 -7.01069e-13 492.761

461.51 -28.0759 3.67439e-12
-28.0759 485.746 -2.00699e-12
3.67439e-12 -2.00699e-12 488.723

413.725 -26.2255 -1.90248e-12
-26.2255 436.25 1.46135e-12
-1.90248e-12 1.46135e-12 401.444

426.081 28.9814 -4.07378e-13
28.9814 429.903 1.04213e-13
-4.07378e-13 1.04213e-13 406.866

452.507 26.1916 -5.41197e-12
26.1916 418.233 -7.46958e-13
-5.41197e-12 -7.46958e-13 419.064

521.975 -14.6102 3.66374e-12
-14.6102 477.183 -8.56204e-13
3.66374e-12 -8.56204e-13 500.07

403.566 -16.6178 1.49273e-12
-16.6178 451.749 2.74151e-12
1.49273e-12 2.74151e-12 406.449

496.053 -17.5683 -4.8009e-12
-17.5683 447.613 8.32223e-13
-4.8009e-12 8.32223e-13 471.507

487.771 16.9086 1.18661e-12
16.9086 436.265 -3.91539e-12
1.18661e-12 -3.91539e-12 460.595

513.347 -9.38657 -1.1231e-12
-9.38657 555.783 -4.07141e-12
-1.1231e-12 -4.07141e-12 523.035

453.985 -13.4301 -1.52767e-12
-13.4301 402.184 -2.87844e-12
-1.52767e-12 -2.87844e-12 406.749

403.208 0.59406 5.82808e-12
0.59406 465.732 2.45137e-12
5.82808e-12 2.45137e-12 417.811

475.033 18.5551 1.44122e-12
18.5551 428.778 2.6675e-13
1.44122e-12 2.6675e-13 442.228

451.149 27.6042 8.97652e-13
27.6042 421.845 3.37626e-12
8.97652e-13 3.37626e-12 420.85

400.875 -15.6863 -6.26166e-13
-15.6863 451.389 -3.57521e-12
-6.26166e-13 -3.57521e-12 403.742

406.007 -1.20229 -2.55951e-12
-1.20229 468.041 -3.46745e-12
-2.55951e-12 -3.46745e-12 421.226

516.206 29.1344 -2.16005e-12
29.1344 498.032 1.56201e-12
-2.16005e-12 1.56201e-12 504.882

441.711 -10.9222 3.05681e-13
-10.9222 500.665 9.53312e-13
3.05681e-13 9.53312e-13 471.155

451.447 -26.7155 -3.24481e-13
-26.7155 418.773 4.34082e-12
-3.24481e-13 4.34082e-12 419.359

444.394 21.3328 -1.13805e-12
21.3328 395.304 7.43109e-13
-1.13805e-12 7.43109e-13 398.207

497.602 23.6654 9.0831e-13
23.6654 458.097 -6.21133e-13
9.0831e-13 -6.21133e-13 476.557

447.689 5.47089 -4.69447e-12
5.47089 508.797 9.23706e-13
-4.69447e-12 9.23706e-13 476.889

427.657 29.0659 -7.00595e-12
29.0659 426.441 -7.81597e-14
-7.00595e-12 -7.81597e-14 405.117

536.827 22.9638 -4.02404e-12
22.9638 531.903 1.91521e-12
-4.02404e-12 1.91521e-12 522.791

314.755 -59.6922 -9.4739e-15
-59.6922 282.773 8.40809e-13
-9.4739e-15 8.40809e-13 223.427

480.602 -25.048 4.41129e-13
-25.048 445.079 -2.59052e-12
4.41129e-13 -2.59052e-12 456.653

336.669 7.06998 -9.97128e-13
7.06998 409.162 -8.02913e-13
-9.97128e-13 -8.02913e-13 319.445

460.546 -28.8895 6.39548e-12
-28.8895 444.744 -4.61853e-14
6.39548e-12 -4.61853e-14 443.46

96.4252 -52.7016 -1.77517e-12
-52.7016 306.622 -1.18424e-13
-1.77517e-12 -1.18424e-13 113.701

95.9591 51.4522 9.20153e-13
51.4522 306.886 -1.77162e-12
9.20153e-13 -1.77162e-12 114.489

181.519 117.156 2.52716e-12
117.156 226.079 3.71377e-12
2.52716e-12 3.71377e-12 113.59

182.817 -117.098 3.69956e-12
-117.098 223.315 -5.06854e-12
3.69956e-12 -5.06854e-12 113.564

321.587 -1.36338 -3.26376e-12
-1.36338 84.6546 -1.41519e-14
-3.26376e-12 -1.41519e-14 114.931

274.437 -91.1265 4.64695e-12
-91.1265 127.42 9.4739e-15
4.64695e-12 9.4739e-15 113.804

275.133 91.6544 5.44749e-13
91.6544 128.253 6.15804e-14
5.44749e-13 6.15804e-14 114.574

525.247 14.3305 -7.17944e-13
14.3305 474.719 -5.50967e-13
-7.17944e-13 -5.50967e-13 502.321

556.802 25.5364 -1.49747e-12
25.5364 541.188 -3.66877e-12
-1.49747e-12 -3.66877e-12 533.456

492.1 6.60612 1.77576e-12
6.60612 439.128 3.36753e-12
1.77576e-12 3.36753e-12 471.409

470.307 21.7848 5.63164e-12
21.7848 424.523 7.363e-13
5.63164e-12 7.363e-13 438.201

409.982 17.7447 -4.12263e-12
17.7447 461.081 1.77636e-14
-4.12263e-12 1.77636e-14 425.05

448.018 28.8988 -7.99953e-13
28.8988 424.712 8.88178e-13
-7.99953e-13 8.88178e-13 420.757

487.156 -29.6637 -2.66927e-12
-29.6637 465.635 -1.85837e-12
-2.66927e-12 -1.85837e-12 474.597

449.375 28.0281 -1.24108e-12
28.0281 421.078 -4.52201e-12
-1.24108e-12 -4.52201e-12 418.649

402.97 -2.84132 2.31415e-12
-2.84132 465.389 6.24093e-13
2.31415e-12 6.24093e-13 417.547

555.809 -26.0972 -2.53042e-12
-26.0972 543.382 1.83409e-13
-2.53042e-12 1.83409e-13 533.7

405.508 -4.86248 4.70883e-13
-4.86248 467.127 -4.60905e-12
4.70883e-13 -4.60905e-12 420.606

522.299 23.0164 -8.06466e-13
23.0164 499.749 -2.08189e-12
-8.06466e-13 -2.08189e-12 507.976

423.385 26.871 -3.06481e-12
26.871 386.513 1.61885e-12
-3.06481e-12 1.61885e-12 373.033

480.117 -13.2161 1.92113e-12
-13.2161 532.775 1.55698e-12
1.92113e-12 1.55698e-12 512.008

484.206 13.7281 4.8613e-12
13.7281 432.783 -4.98268e-13
4.8613e-12 -4.98268e-13 456.882

457.376 -29.9879 2.8848e-12
-29.9879 436.984 -1.59221e-12
2.8848e-12 -1.59221e-12 437.84

454.316 -24.7138 1.26713e-13
-24.7138 416.811 -1.9312e-12
1.26713e-13 -1.9312e-12 419.86

547.411 -16.0749 1.22184e-12
-16.0749 509.312 -4.66886e-13
1.22184e-12 -4.66886e-13 519.391

475.98 27.9292 -5.23552e-12
27.9292 449.713 2.4869e-13
-5.23552e-12 2.4869e-13 456.932

469.108 23.9777 -4.13003e-12
23.9777 427.856 4.34941e-12
-4.13003e-12 4.34941e-12 439.837

432.435 -2.79292 3.6184e-12
-2.79292 493.644 -1.64846e-12
3.6184e-12 -1.64846e-12 457.114

417.614 5.8734 9.56795e-13
5.8734 479.565 7.30675e-13
9.56795e-13 7.30675e-13 440.184

463.019 2.64674 5.094e-12
2.64674 402.286 1.75256e-12
5.094e-12 1.75256e-12 422.328

438.655 -7.28977 5.45578e-12
-7.28977 373.921 -9.89431e-13
5.45578e-12 -9.89431e-13 381.225

454.851 30.4851 3.51778e-12
30.4851 439.022 5.0786e-12
3.51778e-12 5.0786e-12 437.844

478.473 -26.1557 -5.51322e-12
-26.1557 443.55 -3.52844e-12
-5.51322e-12 -3.52844e-12 454.653

525.707 -21.2544 -1.43766e-12
-21.2544 497.836 3.90029e-12
-1.43766e-12 3.90029e-12 508.625

437.74 -31.6341 1.09187e-12
-31.6341 437.662 2.15176e-12
1.09187e-12 2.15176e-12 426.866

417.597 -27.7859 -8.68638e-13
-27.7859 444.403 -1.51464e-12
-8.68638e-13 -1.51464e-12 419.695

430.654 29.8876 5.65474e-13
29.8876 442.752 -3.36146e-12
5.65474e-13 -3.36146e-12 426.504

416.232 -9.57803 4.31255e-12
-9.57803 475.219 8.94692e-13
4.31255e-12 8.94692e-13 436.462

428.902 -1.54487 -1.37912e-12
-1.54487 491.876 6.14027e-13
-1.37912e-12 6.14027e-13 454.002

445.189 5.7479 2.76651e-12
5.7479 508.051 7.33043e-13
2.76651e-12 7.33043e-13 474.921

414.626 -21.0894 5.3341e-12
-21.0894 458.415 8.14756e-13
5.3341e-12 8.14756e-13 426.072

496.876 24.1114 2.84809e-12
24.1114 455.703 -1.45395e-12
2.84809e-12 -1.45395e-12 474.6

483.381 -9.58987 -2.60888e-12
-9.58987 430.119 -1.35921e-12
-2.60888e-12 -1.35921e-12 455.228

415.64 7.46535 3.99714e-12
7.46535 477.129 -5.10407e-12
3.99714e-12 -5.10407e-12 436.92

443.962 -9.70114 8.18863e-13
-9.70114 501.511 -1.06108e-12
8.18863e-13 -1.06108e-12 471.014

433.181 -16.3309 -1.00024e-12
-16.3309 481.684 4.14128e-12
-1.00024e-12 4.14128e-12 455.675

463.547 -8.23932 -3.75167e-12
-8.23932 406.342 1.17092e-12
-3.75167e-12 1.17092e-12 421.478

494.441 -32.3468 8.44066e-13
-32.3468 487.623 -2.08367e-12
8.44066e-13 -2.08367e-12 496.258

422.951 9.32105 -4.20301e-12
9.32105 479.099 -6.30547e-12
-4.20301e-12 -6.30547e-12 440.987

564.363 -18.2127 -1.99544e-13
-18.2127 529.957 9.12307e-13
-1.99544e-13 9.12307e-13 531.837

309.053 24.8231 3.38929e-12
24.8231 379.429 -3.8393e-12
3.38929e-12 -3.8393e-12 289.802

501.706 -26.6263 9.45318e-13
-26.6263 499.497 -8.43621e-13
9.45318e-13 -8.43621e-13 501.207

515.656 -30.2029 -1.44299e-12
-30.2029 498.411 -5.70507e-13
-1.44299e-12 -5.70507e-13 504.926

429.23 -0.701228 -3.46715e-12
-0.701228 492.001 -1.24463e-12
-3.46715e-12 -1.24463e-12 454.153

474.889 -16.6228 -2.46499e-12
-16.6228 428.344 2.74832e-12
-2.46499e-12 2.74832e-12 441.964

462.312 12.8417 -5.39711e-12
12.8417 511.283 4.93827e-13
-5.39711e-12 4.93827e-13 489.129

240.78 -3.18064 -4.39589e-12
-3.18064 360.694 -6.63173e-14
-4.39589e-12 -6.63173e-14 226.969

432.411 14.2738 1.41864e-12
14.2738 485.365 1.88531e-12
1.41864e-12 1.88531e-12 456.89

458.12 -29.4897 1.4353e-12
-29.4897 443.178 -2.65092e-12
1.4353e-12 -2.65092e-12 440.77

304.192 25.106 3.04704e-12
25.106 394.591 -7.09122e-12
3.04704e-12 -7.09122e-12 264.345

603.554 26.0975 -8.18146e-12
26.0975 597.959 -9.07437e-12
-8.18146e-12 -9.07437e-12 558.163

608.288 -27.8068 2.67608e-12
-27.8068 595.034 2.9341e-12
2.67608e-12 2.9341e-12 558.296

463.502 -30.4194 4.72333e-12
-30.4194 459.046 -1.98656e-13
4.72333e-12 -1.98656e-13 459.08

434.592 -31.1607 4.57826e-12
-31.1607 436.368 -3.44258e-12
4.57826e-12 -3.44258e-12 424.67

474.11 20.8277 2.70184e-12
20.8277 431.923 -4.8761e-12
2.70184e-12 -4.8761e-12 443.981

465.231 15.0063 4.02996e-12
15.0063 410.124 -8.59461e-13
4.02996e-12 -8.59461e-13 427.471

646.071 3.08319 6.21584e-12
3.08319 645.729 1.1174e-12
6.21584e-12 1.1174e-12 574.624

649.892 -6.9996 8.62717e-12
-6.9996 641.399 1.04095e-12
8.62717e-12 1.04095e-12 575.153

496.997 4.82428 1.94629e-12
4.82428 442.043 2.77393e-12
1.94629e-12 2.77393e-12 477.421

443.565 6.73115 1.75164e-12
6.73115 502.997 3.99739e-12
1.75164e-12 3.99739e-12 471.058

441.979 6.73634 -1.73623e-12
6.73634 502.523 5.85191e-12
-1.73623e-12 5.85191e-12 469.781

321.541 58.6353 -9.00021e-13
58.6353 281.127 -2.64322e-12
-9.00021e-13 -2.64322e-12 225.081

420.236 -28.2003 3.8618e-12
-28.2003 444.031 -1.72721e-12
3.8618e-12 -1.72721e-12 421.039

520.586 17.9744 1.22569e-13
17.9744 467.538 -1.71596e-12
1.22569e-13 -1.71596e-12 499.517

472.989 9.53987 3.8014e-12
9.53987 421.205 2.56432e-12
3.8014e-12 2.56432e-12 436.211

440.638 -26.7238 1.9161e-12
-26.7238 450.734 -3.54502e-12
1.9161e-12 -3.54502e-12 433.423

469.285 -20.238 -4.50839e-12
-20.238 422.724 -2.65536e-12
-4.50839e-12 -2.65536e-12 437.184

312.478 60.2331 -6.55594e-12
60.2331 281.377 -8.93626e-12
-6.55594e-12 -8.93626e-12 223.219

492.689 31.0692 4.90274e-13
31.0692 489.05 -3.83604e-12
4.90274e-13 -3.83604e-12 493.146

410.87 -19.7865 -7.38964e-13
-19.7865 457.89 -6.90766e-12
-7.38964e-13 -6.90766e-12 423.506

474.137 28.8581 -3.73035e-14
28.8581 449.639 -3.76232e-12
-3.73035e-14 -3.76232e-12 456.526

430.964 -4.14495 2.56165e-13
-4.14495 492.981 -2.7646e-12
2.56165e-13 -2.7646e-12 456.475

423.938 19.6096 4.74198e-12
19.6096 465.72 -3.20632e-12
4.74198e-12 -3.20632e-12 434.116

452.756 30.5193 1.08654e-12
30.5193 443.606 -4.01871e-12
1.08654e-12 -4.01871e-12 439.616

428.651 -22.4736 7.4903e-13
-22.4736 461.146 -1.75267e-12
7.4903e-13 -1.75267e-12 433.821

443.582 -27.353 -1.83971e-12
-27.353 450.441 -2.76164e-12
-1.83971e-12 -2.76164e-12 435.054

294.783 11.2572 -7.76579e-12
11.2572 372.592 -3.65219e-12
-7.76579e-12 -3.65219e-12 258.106

357.304 -33.4569 5.45934e-12
-33.4569 389.124 -3.79904e-12
5.45934e-12 -3.79904e-12 314.134

419.665 -11.6907 -1.64631e-12
-11.6907 476.37 1.03147e-12
-1.64631e-12 1.03147e-12 439.353

478.406 26.4849 6.08521e-12
26.4849 446.807 8.87586e-13
6.08521e-12 8.87586e-13 456.092

452.353 29.4784 -2.19795e-12
29.4784 449.034 -2.71723e-12
-2.19795e-12 -2.71723e-12 442.408

426.816 -21.4343 7.72715e-14
-21.4343 461.792 -6.46653e-12
7.72715e-14 -6.46653e-12 432.638

422.939 -11.7826 6.06182e-12
-11.7826 476.656 1.58273e-12
6.06182e-12 1.58273e-12 439.936

457.715 28.41 4.96788e-13
28.41 447.095 3.26968e-12
4.96788e-13 3.26968e-12 442.579

425.113 -13.8781 2.37025e-12
-13.8781 476.428 3.61193e-13
2.37025e-12 3.61193e-13 442.113

311.27 27.8555 4.98683e-12
27.8555 377.398 4.628e-12
4.98683e-12 4.628e-12 289.989

485.177 -4.04113 -5.87917e-12
-4.04113 545.057 1.19312e-12
-5.87917e-12 1.19312e-12 511.044

432.993 31.0281 -3.65278e-12
31.0281 439.636 5.22427e-12
-3.65278e-12 5.22427e-12 426.027

509.318 14.9014 1.22095e-12
14.9014 463.169 -9.05942e-13
1.22095e-12 -9.05942e-13 488.613

516.929 -15.9277 3.42837e-13
-15.9277 467.589 -1.59043e-12
3.42837e-13 -1.59043e-12 493.931

383.932 -24.205 8.78704e-12
-24.205 305.953 -4.96314e-12
8.78704e-12 -4.96314e-12 285.359

442.287 -21.2675 -5.19614e-12
-21.2675 476.008 -2.86408e-12
-5.19614e-12 -2.86408e-12 459.329

447.836 26.6987 -5.12864e-12
26.6987 466.215 6.14264e-12
-5.12864e-12 6.14264e-12 457.849

522.982 -21.7278 -2.97836e-12
-21.7278 543.817 8.10666e-12
-2.97836e-12 8.10666e-12 525.316

579.588 14.1062 6.37209e-12
14.1062 617.624 -2.69562e-12
6.37209e-12 -2.69562e-12 557.058

620.21 9.44531 -5.11931e-12
9.44531 576.845 4.14394e-12
-5.11931e-12 4.14394e-12 556.877

523.477 32.7053 -3.43636e-12
32.7053 520.658 -2.91707e-12
-3.43636e-12 -2.91707e-12 519.531

414.899 26.0009 -3.8541e-12
26.0009 448.914 8.22512e-12
-3.8541e-12 8.22512e-12 420.384

478.104 26.6618 5.85902e-12
26.6618 444.777 1.71122e-12
5.85902e-12 1.71122e-12 455.515

332.368 45.1868 7.62057e-12
45.1868 349.495 1.90662e-13
7.62057e-12 1.90662e-13 286.745

571.395 -11.3433 -6.6492e-12
-11.3433 614.475 4.33579e-12
-6.6492e-12 4.33579e-12 554.601

641.328 -3.43271 1.9095e-11
-3.43271 636.872 -5.96071e-12
1.9095e-11 -5.96071e-12 572.401

634.906 -0.209845 -2.73248e-12
-0.209845 643.179 -1.33675e-11
-2.73248e-12 -1.33675e-11 572.228

272.968 -53.8034 2.26782e-12
-53.8034 316.452 5.33618e-12
2.26782e-12 5.33618e-12 220.913

566.644 -11.5998 -2.16079e-12
-11.5998 562.13 6.73121e-12
-2.16079e-12 6.73121e-12 540.904

563.776 8.81276 -1.7264e-12
8.81276 586.967 -1.20023e-12
-1.7264e-12 -1.20023e-12 546.846

478.252 -26.1998 -3.05297e-12
-26.1998 440.449 -4.29849e-12
-3.05297e-12 -4.29849e-12 453.489

494.355 1.0109 7.89369e-14
1.0109 545.766 1.80004e-13
7.89369e-14 1.80004e-13 514.064

447.658 -20.2681 -3.30624e-12
-20.2681 484.166 -5.31841e-12
-3.30624e-12 -5.31841e-12 470.645

506.309 6.25536 -2.34538e-12
6.25536 443.382 -2.97421e-12
-2.34538e-12 -2.97421e-12 486.132

461.282 15.5963 1.38554e-12
15.5963 521.26 4.7556e-12
1.38554e-12 4.7556e-12 497.564

471.188 7.19152 -2.08692e-12
7.19152 528.013 -6.20659e-12
-2.08692e-12 -6.20659e-12 497.697

493.771 20.3931 -3.32652e-12
20.3931 451.525 8.57388e-13
-3.32652e-12 8.57388e-13 469.758

241.069 -3.1139 -8.78334e-13
-3.1139 358.566 -7.60754e-12
-8.78334e-13 -7.60754e-12 227.067

463.708 -27.6241 -2.8623e-12
-27.6241 463.399 -1.76451e-12
-2.8623e-12 -1.76451e-12 461.198

488.352 -26.1166 -1.30444e-12
-26.1166 481.605 -3.36264e-12
-1.30444e-12 -3.36264e-12 485.876

497.545 -31.4837 -1.39858e-12
-31.4837 489.966 -1.36661e-12
-1.39858e-12 -1.36661e-12 498.988

355.605 32.7501 -4.8459e-12
32.7501 285.783 -1.75445e-12
-4.8459e-12 -1.75445e-12 248.371

563.886 -20.1163 4.02345e-13
-20.1163 569.618 2.87748e-12
4.02345e-13 2.87748e-12 542.577

337.653 54.3231 -1.3524e-12
54.3231 356.663 -5.17749e-12
-1.3524e-12 -5.17749e-12 258.879

477.079 -21.4394 -2.52761e-12
-21.4394 506.497 -9.41469e-14
-2.52761e-12 -9.41469e-14 500.251

504.78 14.6504 -6.88634e-13
14.6504 451.995 -3.70474e-12
-6.88634e-13 -3.70474e-12 481.568

449.839 -14.5727 4.22654e-12
-14.5727 396.993 2.5661e-12
4.22654e-12 2.5661e-12 400.847

452.601 24.047 -2.71487e-13
24.047 478.788 1.78405e-12
-2.71487e-13 1.78405e-12 467.856

493.674 20.4281 1.83853e-12
20.4281 449.508 -1.73817e-12
1.83853e-12 -1.73817e-12 469.349

505.571 11.4003 -2.95416e-12
11.4003 564.422 9.84042e-12
-2.95416e-12 9.84042e-12 526.718

475.903 -31.5804 4.88498e-14
-31.5804 470.364 -1.40599e-12
4.88498e-14 -1.40599e-12 475.071

559.275 19.8123 -5.41434e-12
19.8123 510.446 4.14128e-12
-5.41434e-12 4.14128e-12 526.493

439.965 -18.4437 -5.27667e-12
-18.4437 482.473 3.37685e-12
-5.27667e-12 3.37685e-12 459.157

465.905 4.2833 -5.16521e-12
4.2833 526.115 -4.99038e-12
-5.16521e-12 -4.99038e-12 495.517

588.644 9.92692 1.04411e-11
9.92692 552.467 -2.919e-12
1.04411e-11 -2.919e-12 545.194

590.427 -8.51356 -2.33591e-13
-8.51356 554.809 4.44089e-16
-2.33591e-13 4.44089e-16 545.712

382.316 18.5127 2.70006e-12
18.5127 302.292 -2.57157e-12
2.70006e-12 -2.57157e-12 286.139

502.686 7.96514 -3.00589e-12
7.96514 453.607 -3.03505e-12
-3.00589e-12 -3.03505e-12 487.773

232.819 7.74063 3.25665e-14
7.74063 381.521 4.73695e-14
3.25665e-14 4.73695e-14 187.189

236.988 -11.3853 -1.75038e-12
-11.3853 387.214 5.21065e-14
-1.75038e-12 5.21065e-14 189.453

249.291 56.4073 6.23146e-12
56.4073 354.782 -1.4874e-12
6.23146e-12 -1.4874e-12 184.026

505.022 -28.9507 1.77517e-12
-28.9507 478.622 -1.76363e-12
1.77517e-12 -1.76363e-12 491.35

258.475 -49.191 3.28034e-12
-49.191 341.846 -8.9481e-12
3.28034e-12 -8.9481e-12 220.737

249.296 -55.9498 3.53377e-12
-55.9498 344.756 3.50061e-12
3.53377e-12 3.50061e-12 181.118

434.661 26.2205 -4.98623e-12
26.2205 454.4 7.12201e-12
-4.98623e-12 7.12201e-12 432.831

329.928 73.8443 -4.26326e-14
73.8443 280.014 3.61193e-12
-4.26326e-14 3.61193e-12 184.83

540.132 13.0471 -1.26992e-11
13.0471 554.952 4.73458e-12
-1.26992e-11 4.73458e-12 532.083

562.389 0.0397633 4.5001e-12
0.0397633 532.459 -8.28967e-14
4.5001e-12 -8.28967e-14 531.876

338.606 -73.1297 8.90547e-13
-73.1297 279.861 -1.80478e-12
8.90547e-13 -1.80478e-12 186.313

432.677 -23.4242 -6.20156e-12
-23.4242 466.318 -1.09542e-13
-6.20156e-12 -1.09542e-13 447.578

358.936 34.7295 2.60532e-14
34.7295 310.98 9.8647e-13
2.60532e-14 9.8647e-13 258.042

267.708 63.4912 -3.11455e-12
63.4912 345.215 7.10543e-14
-3.11455e-12 7.10543e-14 185.848

293.697 21.6304 -3.48876e-12
21.6304 367.666 -6.24567e-12
-3.48876e-12 -6.24567e-12 254.501

267.58 -65.9201 -7.10543e-15
-65.9201 344.85 4.60432e-12
-7.10543e-15 4.60432e-12 184.304

291.644 -12.3812 -3.52607e-12
-12.3812 370.888 -1.77162e-12
-3.52607e-12 -1.77162e-12 253.447

550.311 6.84138 -6.31487e-12
6.84138 582.082 -5.38266e-12
-6.31487e-12 -5.38266e-12 541.122

329.894 -45.9753 -5.16801e-12
-45.9753 341.821 -5.26275e-12
-5.16801e-12 -5.26275e-12 276.619

259.785 47.5323 -1.72307e-12
47.5323 340.221 4.33431e-13
-1.72307e-12 4.33431e-13 223.149

370.221 37.9116 -2.85638e-12
37.9116 244.923 8.8581e-13
-2.85638e-12 8.8581e-13 187.359

481.898 -29.286 -2.04044e-12
-29.286 460.518 -1.90692e-12
-2.04044e-12 -1.90692e-12 467.721

480.983 12.8966 4.46968e-12
12.8966 525.836 6.47541e-12
4.46968e-12 6.47541e-12 504.11

354.423 -38.1128 4.17562e-12
-38.1128 300.081 8.1215e-12
4.17562e-12 8.1215e-12 251.819

482.541 -28.8024 -4.15549e-12
-28.8024 460.328 -1.85126e-12
-4.15549e-12 -1.85126e-12 468.47

365.268 -36.3435 3.61903e-12
-36.3435 230.992 -2.58401e-12
3.61903e-12 -2.58401e-12 182.773

481.51 -28.3177 9.8647e-13
-28.3177 472.762 -4.2828e-12
9.8647e-13 -4.2828e-12 477.925

436.36 -25.2952 -1.59102e-12
-25.2952 466.231 5.79803e-12
-1.59102e-12 5.79803e-12 448.217

314.802 69.4607 2.76164e-12
69.4607 292.146 -4.41484e-12
2.76164e-12 -4.41484e-12 184.526

290.786 -22.933 9.36258e-12
-22.933 359.17 -3.51245e-12
9.36258e-12 -3.51245e-12 247.033

312.404 -71.6927 1.94215e-12
-71.6927 288.126 5.44986e-12
1.94215e-12 5.44986e-12 182.029

268.55 50.7378 3.95772e-12
50.7378 320.064 -4.50958e-12
3.95772e-12 -4.50958e-12 221.508

459.869 -30.2125 -2.46914e-12
-30.2125 454.852 5.50019e-12
-2.46914e-12 5.50019e-12 454.407

559.292 -14.6404 -1.24375e-12
-14.6404 544.417 2.71723e-12
-1.24375e-12 2.71723e-12 533.723

635.923 11.0922 3.60304e-12
11.0922 631.385 9.99793e-12
3.60304e-12 9.99793e-12 570.024

619.959 -5.16006 4.24268e-12
-5.16006 639.74 -4.9607e-12
4.24268e-12 -4.9607e-12 568.502

453.876 13.0837 -2.22498e-12
13.0837 506.562 -5.74e-12
-2.22498e-12 -5.74e-12 482.579

634.153 -10.6666 1.80737e-12
-10.6666 631.316 -5.14847e-12
1.80737e-12 -5.14847e-12 569.879

622.698 4.09184 -7.12349e-12
4.09184 642.686 2.27803e-12
-7.12349e-12 2.27803e-12 569.703

643.376 7.43361 8.66048e-12
7.43361 619.15 -4.33461e-12
8.66048e-12 -4.33461e-12 569.026

584.779 -12.1147 -1.67388e-12
-12.1147 631.67 6.34929e-12
-1.67388e-12 6.34929e-12 560.598

307.448 -30.4705 5.3042e-12
-30.4705 371.639 -8.31335e-13
5.3042e-12 -8.31335e-13 280.774

589.629 -12.9721 -1.25588e-11
-12.9721 549.117 4.65938e-12
-1.25588e-11 4.65938e-12 543.832

527.212 -34.4174 5.48628e-12
-34.4174 521.492 -3.75048e-12
5.48628e-12 -3.75048e-12 519.971

565.469 -18.177 2.4721e-13
-18.177 537.995 -2.01439e-12
2.4721e-13 -2.01439e-12 534.264

502.577 15.4594 -4.5078e-12
15.4594 452.122 -1.75267e-13
-4.5078e-12 -1.75267e-13 480.214

586.352 9.86393 -4.80993e-12
9.86393 642.137 -3.21831e-12
-4.80993e-12 -3.21831e-12 563.108

636.659 19.2272 -9.14187e-12
19.2272 591.726 -4.99389e-12
-9.14187e-12 -4.99389e-12 562.929

569.78 11.3066 -2.07182e-12
11.3066 544.344 -2.75587e-12
-2.07182e-12 -2.75587e-12 536.441

353.447 -15.3396 -1.27566e-11
-15.3396 231.519 -2.63493e-12
-1.27566e-11 -2.63493e-12 219.017

437.213 24.9644 -7.7609e-12
24.9644 461.92 2.23999e-12
-7.7609e-12 2.23999e-12 445.729

317.095 -61.3554 6.39962e-12
-61.3554 277.853 3.66166e-12
6.39962e-12 3.66166e-12 218.092

334.213 -57.4579 5.48539e-12
-57.4579 357.328 -1.32871e-11
5.48539e-12 -1.32871e-11 252.543

383.34 -36.5445 -5.4167e-12
-36.5445 305.743 -3.56337e-12
-5.4167e-12 -3.56337e-12 257.764

562.5 -5.15891 2.77881e-12
-5.15891 616.954 -6.44255e-12
2.77881e-12 -6.44255e-12 552.955

562.208 2.89126 1.98093e-12
2.89126 615.819 1.0331e-11
1.98093e-12 1.0331e-11 552.554

598.773 -24.4557 6.22524e-12
-24.4557 575.746 -6.67348e-12
6.22524e-12 -6.67348e-12 551.583

602.332 -21.7599 9.94838e-12
-21.7599 573.437 1.14575e-13
9.94838e-12 1.14575e-13 551.849

598.786 26.1353 -1.11315e-11
26.1353 580.461 -6.47904e-12
-1.11315e-11 -6.47904e-12 552.739

625.744 3.09904 -3.14015e-12
3.09904 630.737 -1.36765e-11
-3.14015e-12 -1.36765e-11 568.424

599.063 -20.5084 3.93167e-13
-20.5084 576.357 1.7261e-12
3.93167e-13 1.7261e-12 552.272

607.813 -18.5679 -3.36028e-13
-18.5679 620.264 -7.11468e-12
-3.36028e-13 -7.11468e-12 563.19

632.902 2.43421 8.11351e-12
2.43421 635.528 5.00977e-12
8.11351e-12 5.00977e-12 570.509

607.889 -20.5257 1.76599e-12
-20.5257 572.43 -1.47408e-12
1.76599e-12 -1.47408e-12 553.411

607.075 20.9553 2.02379e-12
20.9553 573.689 -1.25056e-12
2.02379e-12 -1.25056e-12 553.814

633.853 -3.45821 -5.36933e-12
-3.45821 636.779 -7.63833e-13
-5.36933e-12 -7.63833e-13 571.284

632.183 -3.11675 8.54857e-12
-3.11675 625.758 -1.05493e-11
8.54857e-12 -1.05493e-11 569.399

609.684 12.1097 -1.40214e-12
12.1097 620.487 9.08525e-12
-1.40214e-12 9.08525e-12 563.921

587.206 26.9291 -4.27806e-13
26.9291 583.022 5.12877e-14
-4.27806e-13 5.12877e-14 551.707

FIELD solute_concentration_TPM 2
S_ext 1 563 float
0.956205
0.956022
0.956041
0.956023
0.955995
0.956041
0.956205
0.956033
0.956057
0.956026
0.956167
0.956033
0.956037
0.956025
0.956002
0.95604
0.956017
0.956031
0.956061
0.956044
0.95605
0.955945
0.956046
0.956044
0.956045
0.956028
0.956158
0.956039
0.956107
0.955971
0.956038
0.956106
0.956163
0.955979
0.955978
0.955979
0.955967
0.955981
0.956038
0.956162
0.956107
0.955967
0.955967
0.956037
0.956138
0.956106
0.956059
0.956055
0.956041
0.956115
0.95611
0.956092
0.955993
0.956093
0.955995
0.956144
0.955978
0.956092
0.955978
0.956043
0.956016
0.956009
0.956154
0.956011
0.956009
0.956022
0.956016
0.956029
0.956045
0.956021
0.955994
0.955994
0.956108
0.956018
0.956042
0.956166
0.956004
0.956022
0.956028
0.956085
0.956124
0.955991
0.956012
0.956126
0.956106
0.956142
0.956039
0.956021
0.956138
0.955953
0.956092
0.955954
0.956001
0.956024
0.956092
0.95611
0.956125
0.956025
0.956004
0.956038
0.956074
0.956103
0.956125
0.956028
0.956027
0.956026
0.956012
0.95604
0.956126
0.956017
0.956043
0.956135
0.956129
0.95603
0.956027
0.956093
0.95598
0.956127
0.955981
0.956092
0.956065
0.956003
0.956021
0.956017
0.956017
0.956001
0.955984
0.956026
0.956126
0.956091
0.955992
0.956022
0.956012
0.956021
0.956104
0.955977
0.956136
0.956036
0.956012
0.955977
0.956101
0.95603
0.956065
0.956025
0.956128
0.956027
0.956032
0.956043
0.956042
0.956078
0.956054
0.956021
0.956105
0.956037
0.956025
0.956022
0.956024
0.956101
0.9561
0.956033
0.956054
0.956104
0.956138
0.956109
0.956099
0.956026
0.9561
0.956101
0.956106
0.956099
0.956001
0.956092
0.95611
0.956023
0.956092
0.956012
0.956001
0.956034
0.955994
0.956029
0.956108
0.956026
0.956026
0.9561
0.95602
0.956111
0.956017
0.956014
0.956002
0.956026
0.95602
0.956124
0.956092
0.956106
0.956022
0.956031
0.95603
0.956012
0.956021
0.956023
0.956021
0.95606
0.956085
0.956013
0.956108
0.956012
0.956023
0.956102
0.956008
0.956021
0.956009
0.956027
0.956028
0.956012
0.956076
0.956026
0.956084
0.956014
0.956017
0.956016
0.956017
0.956017
0.956017
0.956017
0.956026
0.956002
0.956002
0.956002
0.956002
0.955996
0.955995
0.956078
0.956024
0.956021
0.956056
0.956003
0.956002
0.956021
0.956084
0.956021
0.956025
0.956077
0.956007
0.956078
0.956013
0.956021
0.956076
0.956083
0.956124
0.956117
0.956012
0.956131
0.956038
0.956084
0.956061
0.956022
0.956017
0.955968
0.956017
0.956134
0.956083
0.956021
0.956033
0.956085
0.956016
0.956065
0.955968
0.956083
0.956016
0.956019
0.95603
0.956003
0.956022
0.955995
0.956035
0.956136
0.956142
0.956
0.956048
0.956033
0.956079
0.956007
0.956023
0.956083
0.956024
0.956074
0.956032
0.956075
0.956083
0.955959
0.955999
0.956
0.956
0.956025
0.956074
0.955981
0.956019
0.956054
0.956073
0.956078
0.955999
0.956077
0.956003
0.956077
0.956138
0.956073
0.956129
0.956013
0.956076
0.955958
0.956076
0.956016
0.956078
0.956017
0.956077
0.956041
0.956161
0.956041
0.956077
0.955997
0.956077
0.956053
0.95602
0.956021
0.956076
0.956074
0.956065
0.956015
0.956073
0.956034
0.95604
0.955996
0.956074
0.956066
0.956052
0.956065
0.956075
0.956064
0.95601
0.956033
0.956066
0.956077
0.95603
0.95603
0.956074
0.955996
0.956174
0.956043
0.956124
0.956051
0.95623
0.956231
0.956228
0.956229
0.956226
0.956235
0.956235
0.956013
0.955986
0.956033
0.956053
0.956061
0.956065
0.956032
0.956065
0.956066
0.955986
0.956064
0.956009
0.956092
0.956003
0.956042
0.956054
0.956065
0.956001
0.956043
0.956053
0.956042
0.956052
0.956063
0.956086
0.956053
0.956044
0.956008
0.95606
0.956064
0.956061
0.956054
0.956044
0.95603
0.95606
0.956031
0.956043
0.956054
0.956033
0.956043
0.956063
0.956016
0.956052
0.955987
0.956138
0.956013
0.956011
0.956044
0.956052
0.956021
0.956174
0.956041
0.956053
0.956159
0.955962
0.955963
0.956041
0.956062
0.956051
0.95606
0.955945
0.955944
0.95603
0.956033
0.956034
0.956178
0.956063
0.956015
0.956056
0.956058
0.956055
0.956173
0.956019
0.956062
0.956043
0.956043
0.956057
0.956053
0.956057
0.956056
0.956161
0.956128
0.956053
0.956043
0.956052
0.956058
0.956053
0.956051
0.956052
0.95614
0.956004
0.95606
0.956022
0.956018
0.956141
0.956041
0.956042
0.955996
0.955957
0.955957
0.955999
0.956064
0.956043
0.956142
0.955959
0.955944
0.955944
0.956175
0.95598
0.95597
0.956045
0.956003
0.956034
0.956024
0.956015
0.956015
0.956034
0.956173
0.95604
0.956024
0.956016
0.956167
0.955975
0.956166
0.956014
0.956027
0.956076
0.956036
0.956035
0.955991
0.956031
0.955991
0.956041
0.956017
0.955974
0.955975
0.956144
0.956022
0.956207
0.956208
0.956207
0.95602
0.956179
0.956208
0.956058
0.956206
0.95599
0.95599
0.956207
0.956047
0.956164
0.956211
0.956163
0.956212
0.956163
0.955979
0.956148
0.956178
0.956205
0.956036
0.95601
0.956166
0.956035
0.956205
0.956029
0.956047
0.956212
0.956167
0.956212
0.956174
0.956043
0.955986
0.955944
0.955945
0.956025
0.955944
0.955944
0.955945
0.955955
0.956145
0.955974
0.955999
0.955987
0.956027
0.955953
0.955953
0.955986
0.956175
0.956049
0.956182
0.95617
0.956162
0.95596
0.95596
0.955962
0.955962
0.95596
0.955948
0.955966
0.955954
0.955948
0.955963
0.955963
0.955947
0.955947
0.955953
0.955965
P_ext 1 563 float
0.018484
0.0184795
0.0184801
0.0184795
0.0184778
0.0184801
0.018484
0.0184798
0.0184806
0.0184795
0.0184832
0.0184798
0.0184799
0.0184795
0.0184783
0.0184801
0.0184792
0.0184798
0.0184807
0.0184803
0.0184804
0.0184748
0.0184803
0.0184802
0.0184803
0.0184797
0.018483
0.01848
0.0184819
0.0184764
0.01848
0.0184819
0.0184831
0.0184769
0.0184769
0.0184769
0.0184762
0.018477
0.01848
0.0184831
0.0184819
0.0184762
0.0184762
0.01848
0.0184826
0.0184819
0.0184807
0.0184806
0.0184801
0.0184821
0.018482
0.0184816
0.0184778
0.0184816
0.0184779
0.0184828
0.0184769
0.0184816
0.0184769
0.0184802
0.0184791
0.0184787
0.018483
0.0184788
0.0184787
0.0184793
0.0184791
0.0184797
0.0184803
0.0184794
0.0184778
0.0184778
0.018482
0.0184791
0.0184802
0.0184832
0.0184784
0.0184793
0.0184796
0.0184814
0.0184823
0.0184776
0.0184789
0.0184824
0.0184819
0.0184827
0.01848
0.0184792
0.0184826
0.018475
0.0184816
0.018475
0.0184782
0.0184793
0.0184816
0.018482
0.0184823
0.0184796
0.0184784
0.01848
0.0184811
0.0184819
0.0184823
0.0184797
0.0184796
0.0184796
0.0184788
0.01848
0.0184824
0.0184792
0.0184802
0.0184826
0.0184824
0.0184797
0.0184797
0.0184816
0.0184769
0.0184824
0.0184769
0.0184816
0.0184809
0.0184784
0.0184794
0.0184791
0.0184791
0.0184782
0.0184771
0.0184795
0.0184824
0.0184815
0.0184777
0.0184795
0.0184789
0.0184794
0.0184819
0.0184768
0.0184826
0.0184799
0.0184788
0.0184768
0.0184818
0.0184796
0.0184808
0.0184795
0.0184824
0.0184796
0.0184796
0.0184801
0.0184801
0.0184812
0.0184805
0.0184794
0.0184819
0.01848
0.0184795
0.0184795
0.0184794
0.0184818
0.0184818
0.0184799
0.0184805
0.0184819
0.0184826
0.018482
0.0184817
0.0184796
0.0184818
0.0184818
0.0184819
0.0184817
0.0184782
0.0184816
0.018482
0.0184794
0.0184816
0.0184788
0.0184782
0.0184797
0.0184779
0.0184796
0.018482
0.0184796
0.0184796
0.0184818
0.0184792
0.018482
0.0184791
0.0184789
0.0184782
0.0184796
0.0184792
0.0184823
0.0184815
0.0184819
0.0184795
0.0184798
0.0184797
0.0184789
0.0184794
0.0184793
0.0184794
0.0184807
0.0184814
0.0184789
0.018482
0.0184789
0.0184793
0.0184818
0.0184786
0.0184794
0.0184785
0.0184795
0.0184796
0.0184788
0.0184811
0.0184794
0.0184814
0.0184789
0.0184791
0.0184791
0.0184792
0.0184792
0.0184792
0.0184792
0.0184795
0.0184783
0.0184783
0.0184783
0.0184783
0.0184778
0.0184778
0.0184812
0.0184794
0.0184794
0.0184806
0.0184782
0.0184782
0.0184794
0.0184814
0.0184795
0.0184796
0.0184812
0.0184785
0.0184812
0.0184788
0.0184794
0.0184812
0.0184813
0.0184823
0.0184821
0.0184789
0.0184825
0.01848
0.0184814
0.0184807
0.0184795
0.0184792
0.0184762
0.0184792
0.0184826
0.0184813
0.0184794
0.0184797
0.0184814
0.0184792
0.0184808
0.0184762
0.0184814
0.0184791
0.0184791
0.0184798
0.0184783
0.0184792
0.0184778
0.0184799
0.0184826
0.0184827
0.018478
0.0184804
0.0184798
0.0184812
0.0184785
0.0184794
0.0184813
0.0184793
0.0184811
0.0184796
0.0184811
0.0184813
0.0184756
0.0184781
0.0184782
0.0184782
0.0184795
0.0184811
0.018477
0.0184792
0.0184805
0.0184811
0.0184812
0.0184781
0.0184812
0.0184782
0.0184812
0.0184826
0.0184811
0.0184824
0.0184788
0.0184812
0.0184756
0.0184812
0.0184789
0.0184812
0.018479
0.0184812
0.0184801
0.0184831
0.0184801
0.0184812
0.018478
0.0184812
0.0184804
0.0184791
0.0184794
0.0184812
0.0184811
0.0184808
0.0184789
0.0184811
0.0184798
0.01848
0.0184779
0.0184811
0.0184809
0.0184804
0.0184808
0.0184811
0.0184808
0.0184786
0.0184798
0.0184809
0.0184812
0.0184796
0.0184796
0.0184811
0.0184779
0.0184834
0.0184801
0.0184823
0.0184804
0.0184845
0.0184845
0.0184845
0.0184845
0.0184844
0.0184846
0.0184846
0.0184788
0.0184772
0.0184798
0.0184804
0.0184807
0.0184809
0.0184796
0.0184808
0.0184809
0.0184772
0.0184808
0.0184786
0.0184816
0.0184784
0.0184801
0.0184805
0.0184809
0.018478
0.0184801
0.0184805
0.0184801
0.0184804
0.0184808
0.0184814
0.0184805
0.0184802
0.0184786
0.0184807
0.0184809
0.0184807
0.0184805
0.0184802
0.0184796
0.0184807
0.0184797
0.0184801
0.0184805
0.0184798
0.0184802
0.0184808
0.0184791
0.0184804
0.0184774
0.0184826
0.0184789
0.0184786
0.0184801
0.0184805
0.0184793
0.0184834
0.0184801
0.0184805
0.0184831
0.0184757
0.0184757
0.01848
0.0184808
0.0184804
0.0184807
0.0184745
0.0184745
0.0184797
0.0184798
0.0184798
0.0184835
0.0184808
0.018479
0.0184806
0.0184807
0.0184805
0.0184834
0.0184791
0.0184808
0.0184801
0.0184801
0.0184806
0.0184805
0.0184806
0.0184806
0.0184831
0.0184824
0.0184805
0.0184801
0.0184805
0.0184807
0.0184805
0.0184804
0.0184804
0.0184827
0.0184784
0.0184807
0.0184793
0.0184791
0.0184827
0.0184801
0.0184802
0.0184779
0.0184756
0.0184756
0.018478
0.0184809
0.0184801
0.0184827
0.0184757
0.0184747
0.0184747
0.0184834
0.018477
0.0184764
0.0184802
0.0184783
0.0184799
0.0184795
0.018479
0.0184789
0.0184798
0.0184834
0.0184801
0.0184794
0.018479
0.0184832
0.0184767
0.0184832
0.018479
0.0184795
0.0184811
0.01848
0.0184798
0.0184776
0.0184797
0.0184776
0.0184801
0.018479
0.0184765
0.0184764
0.0184828
0.0184793
0.018484
0.0184841
0.018484
0.0184792
0.0184835
0.0184841
0.0184807
0.018484
0.0184776
0.0184776
0.018484
0.0184804
0.0184832
0.0184841
0.0184832
0.0184841
0.0184832
0.0184769
0.0184828
0.0184835
0.018484
0.0184799
0.0184787
0.0184832
0.0184798
0.018484
0.0184796
0.0184803
0.0184841
0.0184832
0.0184842
0.0184834
0.0184802
0.0184773
0.0184747
0.0184748
0.0184794
0.0184747
0.0184747
0.0184748
0.0184753
0.0184828
0.0184766
0.018478
0.0184772
0.0184795
0.0184752
0.0184752
0.0184772
0.0184834
0.0184804
0.0184836
0.0184833
0.0184831
0.0184758
0.0184758
0.0184759
0.0184759
0.0184758
0.0184748
0.0184759
0.0184751
0.0184747
0.0184758
0.0184758
0.0184747
0.0184748
0.0184751
0.0184759
FIELD solute_flux_TPM 2
S_ext 3 563 float
-5.22965e-05 1.74882e-05 -2.00765e-18
2.34177e-06 4.43976e-06 -3.4216e-19
-8.19101e-06 -6.48606e-06 -1.00858e-18
-2.70075e-06 2.72779e-06 -8.36431e-21
1.51565e-05 -4.34377e-06 6.92956e-19
1.76594e-06 -1.02116e-05 1.99139e-18
-5.14979e-05 -1.7701e-05 -5.87852e-18
-8.98716e-06 -6.64786e-06 4.92474e-19
1.42015e-05 6.0932e-07 1.49101e-18
7.42436e-06 -2.63659e-06 3.35613e-18
3.48395e-05 8.11044e-06 1.39787e-18
1.46909e-06 -1.11044e-05 8.26629e-19
8.87366e-06 7.18818e-06 -3.30257e-19
1.77264e-06 8.89412e-06 2.00879e-18
1.37415e-05 -2.03334e-06 -2.21077e-18
-1.03805e-05 -1.69237e-07 8.34415e-19
1.86493e-06 9.20637e-06 -5.21729e-19
6.60337e-06 -1.59084e-06 -1.17302e-18
6.32423e-06 1.10215e-05 2.31052e-18
-9.4565e-06 1.20067e-06 -4.99879e-19
-2.26588e-06 -1.35926e-05 -8.42572e-19
2.86277e-05 4.03942e-05 -7.05913e-19
1.01381e-05 1.03904e-06 2.98622e-18
7.26363e-06 -7.24494e-06 -1.74683e-19
-9.5942e-06 -2.13368e-06 1.83347e-18
-3.92075e-07 -7.17238e-06 -8.73756e-21
3.99786e-05 -3.12592e-06 7.91505e-19
9.14548e-06 6.617e-06 2.3385e-18
-1.58543e-05 -1.28783e-05 -6.49066e-19
3.24169e-05 -8.59093e-06 3.13196e-18
-1.05665e-05 -3.92314e-06 -2.50949e-18
3.39266e-06 -2.03326e-05 1.12366e-18
2.99944e-05 -3.05693e-05 4.73793e-19
-3.45902e-06 -2.76786e-05 -3.64549e-18
-1.95738e-05 2.43494e-05 -6.92714e-19
-2.56988e-05 -1.08329e-05 -3.45722e-18
2.15018e-05 2.8142e-05 -3.65351e-18
-2.95706e-05 -5.80256e-06 7.03355e-19
9.38036e-06 -7.09251e-06 -5.69727e-18
2.93039e-05 3.18541e-05 3.14458e-19
2.04725e-05 -8.9533e-06 -3.54732e-18
2.19253e-05 -2.70876e-05 6.08552e-18
-1.25027e-05 -3.25107e-05 -8.62949e-19
-1.012e-05 4.12826e-06 1.50916e-18
1.92076e-05 -1.87854e-05 -4.59453e-21
-1.89915e-05 6.74998e-06 -6.44148e-19
-2.61196e-06 -1.29286e-05 9.85695e-19
5.02948e-06 1.28915e-05 -2.15851e-18
-1.04643e-05 3.81582e-06 4.50943e-18
-1.14076e-05 1.79434e-05 -4.33342e-18
2.06553e-05 9.72008e-06 -1.28533e-18
1.86865e-05 -6.49374e-06 -2.92897e-18
-1.03836e-05 1.03853e-05 2.73889e-18
-1.47995e-05 -1.28461e-05 2.93027e-18
-1.39705e-05 -3.43286e-06 5.22758e-19
-2.79842e-05 1.66718e-05 -3.81497e-18
-1.93781e-05 -2.50596e-05 2.22594e-18
3.90095e-06 -1.93477e-05 4.81252e-19
-3.13994e-05 4.29407e-06 -5.19983e-18
3.88817e-06 8.79839e-06 3.3377e-19
-3.60026e-06 -5.38657e-06 4.56118e-18
-4.25063e-06 -1.18025e-05 8.55917e-19
3.6123e-05 1.57384e-05 1.57803e-18
6.14995e-06 1.18536e-05 -1.87663e-18
8.14908e-06 -9.46066e-06 -5.32103e-21
-1.14193e-06 -1.35202e-05 1.33641e-18
3.08621e-06 -5.75274e-06 3.70619e-18
-6.45959e-06 -3.62021e-06 8.39193e-19
-6.81573e-06 7.57141e-06 1.65692e-18
1.65084e-06 -2.75687e-06 2.85259e-18
-9.95339e-06 -1.0446e-05 6.5749e-19
-1.40908e-05 3.44214e-06 -2.5742e-18
-2.4342e-06 2.16542e-05 -1.45404e-18
-1.16343e-05 6.97828e-06 2.7158e-18
-5.8239e-06 9.28087e-06 3.99731e-18
-3.73115e-05 4.64723e-06 -2.34345e-18
5.22376e-06 -1.42133e-05 1.35834e-18
-1.23139e-05 -5.68957e-06 -6.86852e-19
1.21503e-06 7.51859e-06 1.01257e-18
1.68308e-05 3.22882e-06 1.27305e-23
2.16439e-05 -1.84363e-05 9.61356e-19
1.47345e-05 1.35364e-05 -1.89603e-18
7.92856e-06 -1.95466e-06 -2.01919e-18
-2.01525e-05 1.47677e-05 -3.84301e-18
2.40829e-05 3.09093e-06 9.69122e-19
-3.47073e-06 3.09137e-05 -4.76334e-19
-1.11533e-06 -1.08259e-05 9.92624e-19
1.19419e-05 6.46628e-06 1.85737e-18
1.84728e-05 1.93435e-05 -6.2599e-19
4.25285e-05 2.64392e-05 2.80905e-18
-3.43446e-06 1.94431e-05 -6.55976e-19
4.44232e-05 -2.49646e-05 8.54894e-19
-1.79235e-05 3.43451e-06 -1.01972e-18
1.17355e-05 7.27938e-06 2.8627e-18
-1.85727e-05 6.19124e-06 3.25944e-19
1.04701e-05 1.81625e-05 1.62653e-19
6.22256e-06 -2.79147e-05 2.07577e-18
1.22872e-06 7.51521e-06 2.35849e-18
-9.6299e-06 -1.1601e-05 1.36558e-18
1.93488e-06 1.12264e-05 -3.33307e-19
1.68721e-05 3.38499e-06 -1.15787e-18
-9.7822e-06 2.08142e-05 -3.24028e-18
2.57068e-05 -8.57446e-06 -1.62815e-19
-2.45101e-06 4.75463e-06 1.50507e-18
6.53603e-06 3.7741e-06 2.02292e-18
-1.42577e-06 -7.29406e-06 -3.02808e-18
2.17627e-06 -1.26411e-05 2.70401e-18
1.12957e-05 2.54383e-06 4.67846e-18
-5.19156e-06 2.58326e-05 -1.27391e-18
-6.47624e-06 1.02658e-07 6.69734e-19
6.03833e-06 7.62674e-06 -6.63976e-19
-1.70174e-06 -2.63289e-05 -7.45397e-22
2.66582e-05 8.28226e-06 -2.22758e-18
2.89544e-06 -4.78288e-06 3.25651e-19
-7.13768e-06 -2.32234e-06 -1.00019e-18
-1.83445e-05 -7.81423e-06 3.41978e-18
1.06146e-05 2.7735e-05 2.94899e-18
-2.69283e-05 -9.59851e-06 -9.60949e-19
1.07629e-05 -2.7809e-05 2.75465e-18
-2.37481e-06 -2.01483e-05 -2.44977e-18
1.40226e-05 3.82559e-07 -1.98002e-18
-4.72813e-06 1.22034e-05 -1.17773e-18
-1.05675e-06 2.55604e-06 -2.00291e-18
-2.47431e-06 -1.08099e-05 -5.2751e-19
3.45081e-06 -5.59293e-06 -1.04037e-20
6.21007e-06 1.0446e-05 -5.62725e-18
2.2309e-05 7.29933e-06 -1.35492e-20
5.70458e-06 -4.77976e-06 2.67857e-18
-5.33004e-06 -2.82538e-05 1.11538e-18
1.62799e-05 -1.19928e-05 -1.96246e-18
3.30429e-06 1.83779e-05 -3.77718e-18
-1.79402e-06 -1.86492e-06 2.36023e-18
-5.69715e-06 -5.44344e-06 -1.90262e-19
-3.12215e-06 7.93504e-08 -3.53668e-18
-1.43974e-05 1.77696e-05 -6.70913e-21
1.29193e-05 -2.4968e-05 1.03334e-18
-1.67876e-05 2.65376e-05 -1.91751e-18
-1.04646e-05 6.11775e-06 2.17781e-18
1.63933e-06 8.14166e-06 -1.68116e-18
-1.51346e-05 -2.36536e-05 -3.29278e-18
8.72957e-06 2.1165e-05 1.30066e-18
1.1485e-05 5.99175e-06 -1.00873e-18
1.46198e-05 -5.53391e-06 -2.64678e-18
-8.42834e-07 -7.28876e-06 -8.54819e-19
-2.11496e-05 -1.94497e-05 7.96336e-19
-1.73184e-06 7.29883e-06 -2.1884e-18
1.12759e-05 6.65977e-06 3.35416e-18
1.22354e-05 -5.80014e-06 -1.33699e-18
5.36145e-06 -9.18502e-06 -1.17819e-18
1.55906e-05 -6.907e-06 -2.62556e-18
1.22656e-05 -5.8084e-06 -8.33625e-19
3.11399e-06 2.14179e-07 -5.13572e-19
1.63176e-05 1.29184e-05 2.73639e-18
-1.69935e-06 -1.09138e-05 4.96846e-19
-6.80283e-06 -2.80943e-06 -5.11657e-19
7.65943e-07 -2.50982e-06 2.68034e-18
-2.12369e-06 1.02718e-05 1.18884e-18
-2.17135e-05 1.71864e-06 -2.59364e-18
-7.67368e-06 -2.08319e-05 -2.11483e-18
-5.06947e-06 6.23933e-06 -1.17848e-18
8.70307e-06 1.06122e-05 3.15127e-18
1.68387e-05 -1.20103e-05 1.57864e-19
-2.30646e-05 -1.25086e-05 -2.06627e-18
1.09451e-05 -1.75424e-05 -4.88472e-19
1.44339e-05 -1.72761e-05 1.94297e-18
-7.02073e-06 2.49685e-06 -2.34254e-18
-1.24779e-05 -1.79567e-05 -8.15122e-19
-2.16947e-05 -3.61367e-06 1.62263e-18
-2.61929e-06 -1.9974e-05 1.92833e-18
9.68775e-06 -2.00529e-05 3.18377e-19
-6.0678e-06 -1.72768e-05 -1.89703e-18
2.77715e-06 1.9838e-05 -4.94928e-19
-1.00722e-05 -1.78484e-05 -6.68238e-21
2.00441e-06 -1.05744e-05 -9.67433e-21
-1.55665e-05 1.13252e-05 -1.47005e-18
-9.81592e-06 -7.97947e-06 4.40766e-18
-1.80418e-05 -3.32587e-06 -3.76184e-18
1.02182e-05 -6.01046e-06 -6.79319e-19
-2.81742e-06 1.58307e-05 -3.27566e-19
8.08348e-06 -6.02875e-06 -3.87226e-18
-1.85365e-05 -8.12378e-06 2.26116e-18
-5.73538e-06 -4.75488e-06 -1.18254e-18
5.97624e-06 4.82501e-06 2.53356e-18
1.35635e-05 1.82002e-05 2.10669e-18
-1.13309e-05 -7.04084e-06 -1.01836e-18
-2.0323e-05 -4.91956e-07 5.55171e-21
-1.07074e-05 -3.17569e-06 -8.49654e-19
-3.02083e-06 -1.08224e-05 -6.94442e-19
1.17753e-05 1.42388e-05 6.87173e-19
-7.13703e-06 3.71781e-06 5.01445e-19
4.62344e-07 -1.3371e-05 4.21332e-18
-2.60739e-05 6.6925e-06 -3.36313e-18
1.58401e-05 1.28713e-05 -1.14078e-18
2.29877e-06 2.07911e-05 -4.02783e-18
-1.5455e-06 2.50421e-06 -2.00073e-18
-5.7776e-06 1.61437e-07 -1.1671e-18
2.84082e-06 4.9773e-06 9.42963e-21
-7.68695e-06 2.29148e-06 8.45536e-19
-1.34724e-06 -2.43154e-06 2.16987e-18
1.14323e-06 1.34949e-05 1.167e-18
2.98426e-06 2.23461e-07 -8.22417e-19
-1.2373e-05 2.99388e-06 1.32143e-18
-1.0998e-05 1.21554e-05 -3.26761e-18
-1.99713e-06 7.63251e-06 4.07913e-18
-1.83804e-05 1.14617e-05 3.15804e-19
-6.18228e-06 5.8733e-06 2.04072e-18
1.13748e-05 -7.74962e-06 -2.543e-18
2.32616e-05 -2.31621e-06 -1.61597e-18
-1.39068e-05 7.37412e-06 1.71325e-18
1.43591e-06 2.97836e-06 -1.33936e-18
1.45242e-05 -2.77872e-06 8.37581e-19
-1.11806e-05 6.77142e-06 -1.33841e-18
-6.3412e-06 3.61181e-06 1.78157e-19
7.92319e-06 2.57825e-06 -1.70527e-18
1.39695e-05 -8.66607e-06 -3.6124e-18
-1.12714e-05 6.39826e-06 1.69209e-18
-1.57435e-05 -3.31066e-06 -1.6167e-19
-1.09404e-05 -2.79035e-06 -2.38107e-18
6.63202e-06 8.00295e-08 -4.72488e-18
6.79134e-06 5.32215e-08 5.12561e-19
2.92399e-06 5.44447e-06 -5.05606e-18
3.21629e-06 -5.75553e-06 4.70582e-18
-3.25589e-06 5.57104e-06 2.03473e-18
-3.40854e-06 -5.69907e-06 6.80404e-19
6.45993e-06 -4.92417e-06 2.51536e-18
-1.34491e-05 2.17373e-06 -1.18569e-18
-1.32975e-05 -2.21599e-06 5.12979e-19
-8.51526e-06 1.04982e-05 4.08903e-18
-8.5626e-06 -1.05381e-05 4.79174e-19
4.96392e-06 -1.33479e-05 1.5298e-18
4.78257e-06 1.3235e-05 1.20512e-18
9.51938e-07 1.64576e-05 -2.1305e-18
7.42399e-06 -1.94287e-06 -5.22353e-18
1.60342e-06 -2.48849e-06 3.34098e-18
-1.35113e-05 9.17958e-07 1.32754e-18
5.12176e-06 -1.31334e-05 -1.89032e-18
4.85338e-06 1.31804e-05 3.41684e-18
3.13104e-06 -5.80586e-08 -3.35201e-18
5.65667e-06 1.5545e-05 3.42275e-18
-1.45594e-06 -2.59577e-06 -3.44301e-19
1.50431e-06 -7.32321e-06 -6.88767e-19
-1.41506e-05 -7.58414e-06 3.93028e-18
-1.40446e-05 -7.50894e-06 1.35215e-18
-1.38416e-05 8.56817e-06 8.10902e-19
2.11927e-06 -8.24342e-06 6.63774e-19
-1.03497e-06 2.17173e-06 5.52598e-18
-4.61695e-07 -1.61869e-05 -3.44852e-21
-4.97194e-06 -1.53905e-05 -2.29105e-18
2.07151e-05 1.92831e-05 -3.23082e-19
2.2621e-05 -1.16605e-06 -6.30775e-19
-8.3738e-06 -2.45607e-06 -1.01542e-18
-1.44236e-05 -2.56907e-05 2.07347e-18
5.37127e-06 8.81479e-06 -5.38262e-22
-1.5867e-05 1.87242e-06 -2.11439e-18
1.2912e-05 3.70257e-06 3.29578e-18
-2.92938e-06 -1.23064e-08 3.19709e-18
-3.07387e-06 -5.51444e-06 2.33758e-18
-5.43247e-06 -2.5832e-05 -1.89871e-19
-6.3942e-06 -5.60566e-09 -1.68536e-18
-2.99838e-05 -1.12509e-06 -1.59804e-18
1.10039e-05 -1.22253e-05 1.45614e-18
1.63201e-06 2.57855e-06 1.52833e-18
-8.71954e-08 -1.13068e-05 3.00371e-18
-6.3118e-06 1.51643e-05 -6.52933e-19
-2.89389e-06 5.65486e-06 -1.54656e-19
1.32072e-05 -8.70883e-06 -2.48677e-18
-2.5084e-05 -8.19161e-06 -2.78661e-18
-9.69502e-06 -1.28026e-05 1.57259e-19
3.28742e-06 5.60305e-06 -2.68212e-18
1.10242e-05 3.26399e-06 -8.40559e-19
-3.05954e-06 -4.68233e-06 -3.35679e-18
1.32842e-05 2.4398e-06 6.62625e-19
1.2015e-05 -6.42605e-06 -2.3747e-18
-2.41333e-07 1.78988e-05 1.69722e-19
5.39813e-06 -8.77268e-06 9.97243e-19
3.09838e-05 1.31675e-06 7.89139e-19
-2.6325e-05 6.85578e-06 -2.69577e-18
1.52946e-05 7.62417e-06 1.37442e-18
-4.11592e-06 -1.09048e-05 -2.00157e-18
-9.88474e-06 -5.51006e-06 -1.5188e-18
1.8364e-05 -1.50955e-07 -9.88378e-19
-4.83876e-07 -1.59625e-05 1.01102e-18
-8.1125e-06 -7.11822e-06 5.06391e-19
6.46545e-06 -1.4982e-05 -3.31114e-19
-3.78757e-07 1.33526e-05 -3.45895e-19
4.96688e-06 1.65448e-05 -1.15381e-18
1.12922e-05 -6.49133e-06 -3.03143e-18
-1.19969e-05 1.20682e-05 -2.46826e-18
1.04964e-05 1.27895e-05 1.7866e-18
-4.32564e-05 1.03147e-05 5.08487e-18
-6.73923e-06 1.71575e-05 8.55817e-19
8.30873e-06 -1.00647e-05 1.02251e-18
-4.60592e-06 -1.21544e-05 -3.28612e-19
-7.71419e-06 2.83002e-06 3.36152e-19
-1.62468e-05 -4.44766e-06 9.89061e-19
-4.46348e-06 2.60128e-05 1.03162e-18
-8.14665e-06 7.84834e-06 1.44921e-20
1.3375e-05 -2.95437e-06 -1.70804e-19
-4.35497e-06 -1.62999e-05 -2.46977e-18
-9.42121e-06 1.49964e-05 -4.92077e-18
-1.43327e-05 8.2649e-06 -2.7242e-18
-1.29886e-05 -9.47096e-06 3.27839e-18
1.20185e-05 -1.39118e-05 -1.70264e-20
-1.72389e-05 -9.16287e-07 4.95085e-19
7.578e-06 -2.59467e-05 1.10869e-18
1.239e-05 -1.20487e-05 -3.36146e-19
1.55022e-05 2.72277e-05 -1.59593e-18
1.29771e-06 1.30129e-05 -5.94142e-18
1.85496e-06 -1.61661e-05 6.5588e-19
-2.81348e-05 3.30358e-05 1.39805e-18
-8.03445e-06 -1.53382e-05 -1.8115e-18
1.09093e-05 -4.18806e-06 -4.40944e-18
-1.62404e-06 1.62941e-05 -2.12946e-18
8.48234e-06 -7.94408e-06 6.66065e-19
8.8039e-06 1.5436e-05 8.10461e-19
1.11257e-05 -9.58102e-07 -3.41647e-19
1.35565e-05 -3.96911e-05 -1.61257e-19
-3.75275e-06 -8.2079e-06 1.5798e-19
-1.46215e-05 6.27938e-06 4.0977e-18
-1.32264e-05 1.23865e-05 1.84183e-19
1.37842e-05 9.32792e-06 -4.09559e-18
1.20402e-05 -6.97606e-06 -5.64802e-18
9.78468e-06 8.33521e-06 6.62201e-21
-3.57965e-06 -3.12651e-08 2.35067e-18
9.78247e-06 -1.46732e-05 1.30073e-18
-1.07463e-05 -1.27815e-05 -1.81252e-18
1.44531e-05 6.29322e-06 3.27264e-19
8.45347e-06 -7.97517e-06 2.01913e-18
6.01797e-06 -1.5784e-05 1.60912e-19
1.08285e-05 -4.62269e-06 -4.18531e-21
-1.01108e-05 -4.83023e-06 3.24461e-19
8.85809e-07 -1.73107e-05 -1.67898e-20
-1.63886e-05 2.82935e-06 1.68174e-19
1.44387e-06 1.55988e-05 -3.62674e-18
1.32519e-05 4.30805e-06 3.31481e-18
-1.37154e-05 -6.77248e-06 4.89254e-19
-5.70203e-06 1.61687e-05 -1.31532e-18
-9.51127e-07 -1.53828e-05 -1.1629e-18
1.29093e-05 7.8498e-06 -1.67801e-19
-1.07338e-06 1.1674e-05 1.66895e-18
-1.2773e-05 8.58032e-06 -8.31316e-19
1.506e-05 7.27999e-06 4.91621e-19
-1.09885e-05 -6.50869e-06 1.83953e-18
1.44884e-07 -1.28287e-05 1.17124e-18
1.17367e-05 1.2712e-05 -1.48557e-18
-1.4537e-05 -9.4103e-06 -5.31997e-18
3.06393e-05 -2.19201e-05 3.10014e-19
1.16432e-05 -6.98685e-06 -1.67843e-18
5.47317e-06 2.71261e-05 4.81658e-19
1.10253e-05 -8.7638e-06 -1.33766e-18
-1.42476e-05 5.49706e-05 7.38701e-19
-1.43214e-05 -5.4448e-05 5.90562e-19
3.57861e-05 4.67716e-05 -1.78742e-18
3.5356e-05 -4.67602e-05 1.42641e-19
5.84267e-05 -2.88187e-08 1.34041e-18
-5.02735e-05 2.03735e-05 -1.62586e-18
-4.94583e-05 -2.0586e-05 -1.63931e-18
8.0873e-06 7.84436e-06 1.19624e-18
1.971e-05 1.46879e-05 -8.56639e-19
7.42714e-06 2.18336e-06 -1.63688e-19
1.21832e-05 6.26267e-06 -8.30643e-19
3.16244e-06 1.28953e-05 -3.80071e-18
-1.19465e-05 -9.39389e-06 1.62194e-19
1.12158e-05 -6.60077e-06 -1.68769e-18
1.27568e-05 9.28563e-06 -3.30063e-18
-2.02101e-06 1.54887e-05 -3.95799e-18
1.98083e-05 -1.34848e-05 2.05286e-18
2.3458e-06 -1.5106e-05 3.13279e-18
1.46038e-05 3.33444e-06 1.87615e-18
1.9011e-05 7.06904e-06 -3.41919e-18
9.41764e-06 9.32277e-06 -7.32356e-18
1.02891e-05 4.27966e-06 3.29477e-19
-1.17863e-05 6.9518e-06 -9.99365e-19
-1.42558e-05 5.72445e-06 1.15461e-18
1.53569e-05 -7.47677e-06 -2.41244e-18
-1.16594e-05 -6.41182e-06 1.49062e-18
-1.18178e-05 -6.68309e-06 8.21309e-19
-1.92097e-07 -1.33367e-05 4.90506e-19
-9.98383e-08 -1.35174e-05 -1.75652e-19
-1.27228e-05 -6.41676e-07 -2.80295e-18
1.70814e-05 -2.5895e-06 9.5401e-22
1.16663e-05 7.31449e-06 -6.6201e-19
-1.14586e-05 6.93536e-06 1.1699e-18
-1.00115e-05 1.0955e-05 3.56702e-19
1.02907e-05 -8.84667e-06 1.55404e-19
-7.05183e-06 1.10366e-05 1.14776e-18
-9.0478e-06 -9.41176e-06 -1.48445e-18
-7.85829e-07 1.35182e-05 -2.4893e-18
-7.91753e-07 1.34624e-05 -3.66991e-18
2.54327e-08 -1.28318e-05 3.0177e-18
3.89635e-06 -1.26163e-05 3.79079e-18
-1.10704e-05 -6.36277e-06 1.00001e-18
1.0081e-05 -3.5875e-06 -1.34016e-18
4.17669e-07 1.37424e-05 -1.3259e-18
1.78146e-07 1.19278e-05 -1.74757e-19
-1.51336e-06 1.07769e-05 -2.00423e-18
1.40545e-05 -3.55785e-06 8.18144e-19
-1.08754e-05 3.41405e-06 3.88994e-18
2.5976e-06 1.37553e-05 -5.14804e-18
-2.16623e-05 8.48307e-06 1.90337e-18
5.94824e-06 2.65087e-05 -1.7364e-18
-1.1167e-05 2.92318e-06 6.82133e-19
1.31045e-05 -7.76085e-06 6.69037e-19
5.45378e-07 1.34927e-05 -3.3323e-18
-1.29677e-05 4.28638e-06 4.81761e-18
1.62988e-06 -1.05478e-05 1.67746e-18
5.83171e-07 -3.66959e-05 -7.8341e-19
1.26935e-06 1.12485e-05 -1.83287e-18
-1.08404e-05 8.83225e-06 -1.3304e-18
1.0927e-05 4.02046e-05 -3.78552e-18
3.14956e-05 2.61236e-05 2.9726e-18
3.61099e-05 -2.47058e-05 4.00538e-18
9.63835e-06 -6.58561e-06 -4.01301e-18
-1.00636e-05 8.87024e-06 -3.80332e-18
-1.2812e-05 -5.06954e-06 3.29953e-19
-1.24446e-05 -4.30161e-06 -4.9916e-19
4.44228e-05 -1.22084e-05 8.59646e-19
4.53116e-05 9.52876e-06 2.12201e-18
7.06833e-06 2.4904e-06 -3.02041e-18
4.20511e-07 1.26449e-05 -2.34614e-18
5.50378e-08 1.26376e-05 -6.7257e-19
-3.05637e-05 -2.23706e-05 -4.18501e-18
7.30776e-06 -1.09935e-05 6.5033e-19
7.73256e-06 8.31818e-06 -2.86717e-18
-1.35167e-05 -2.17679e-06 4.99137e-19
-8.95224e-06 1.08389e-05 1.63948e-19
-1.20152e-05 5.78858e-06 2.1542e-18
3.02585e-05 2.17031e-05 -9.29546e-19
1.04427e-05 4.60033e-06 2.36754e-18
-3.59305e-06 1.27014e-05 -1.48876e-18
-1.09043e-05 -7.44087e-06 -5.1347e-19
1.13466e-06 -1.32038e-05 3.83082e-18
-5.67488e-06 -1.22236e-05 -1.00044e-18
-1.09751e-05 -7.46632e-06 -8.40749e-19
6.75447e-06 -1.20828e-05 9.8875e-19
9.09443e-06 -1.08401e-05 -5.10126e-19
-1.86472e-06 -3.84037e-05 -1.61181e-19
1.64004e-05 -2.6006e-05 4.72364e-19
1.1139e-06 -1.32961e-05 2.97944e-18
1.16722e-05 7.28784e-06 2.66473e-18
-9.25499e-06 -9.39897e-06 -1.69466e-19
-6.26086e-06 1.24766e-05 4.93071e-19
-3.19327e-06 1.33819e-05 3.22841e-19
1.07425e-05 9.09079e-06 -3.15868e-18
3.8326e-06 -1.27062e-05 1.82042e-18
-8.80226e-06 -2.52105e-05 9.50826e-19
-1.36489e-06 1.64924e-05 -1.73166e-19
9.49122e-06 9.26737e-06 1.6403e-19
-8.35644e-06 -6.64293e-06 3.54337e-18
-8.79433e-06 6.91788e-06 1.36453e-18
2.82111e-05 -1.21174e-05 7.86851e-21
4.86589e-06 -8.59597e-06 -1.77292e-19
-5.3469e-06 -8.01828e-06 -7.36884e-21
1.43051e-05 4.37882e-06 3.25256e-19
8.81573e-06 -3.18025e-05 -1.28698e-20
-2.31392e-05 -2.35152e-05 2.0948e-18
1.55936e-05 4.06801e-06 -1.66263e-19
-5.95663e-06 -1.15605e-05 3.26094e-19
1.2115e-05 6.18435e-06 3.0006e-18
-1.81548e-05 -2.01652e-05 -2.0607e-18
7.13982e-06 3.23333e-05 1.0505e-18
3.13426e-05 -4.04858e-05 -1.07777e-18
-1.93925e-05 -4.7376e-05 1.06149e-18
1.71039e-05 -3.34245e-05 1.24619e-18
-8.39635e-06 2.88776e-05 8.69587e-19
-4.79103e-06 2.55675e-05 -2.25785e-18
-1.19728e-05 5.75987e-06 -3.33975e-19
4.01199e-06 1.59413e-05 -3.45922e-19
-1.52359e-06 8.09636e-06 -1.74375e-19
6.61031e-06 2.14815e-06 -2.00981e-18
-2.15352e-06 1.061e-05 2.20602e-18
-1.5483e-07 1.37136e-05 3.33516e-19
1.08551e-05 6.33195e-06 -1.75079e-19
5.38294e-07 3.65222e-05 -2.63006e-18
-9.45763e-06 6.78289e-06 -1.00534e-18
1.04908e-05 -4.01356e-06 -3.54898e-18
1.12558e-05 -2.87499e-06 -1.53688e-18
-3.74361e-05 -5.38624e-06 -1.56709e-18
-2.2913e-05 1.09053e-05 1.56722e-18
-2.71636e-05 -3.22107e-05 -1.42011e-18
5.70832e-06 5.44833e-06 -3.22938e-18
9.26275e-06 4.83348e-06 5.10613e-19
1.71204e-05 -2.7449e-06 -1.70397e-19
-5.18646e-06 -8.44139e-06 -5.11088e-19
1.11894e-05 5.54192e-06 -6.70962e-19
4.88136e-06 -1.98843e-05 -6.93411e-19
-8.91672e-06 6.49395e-06 3.35454e-18
-1.47735e-05 -1.41664e-05 -3.76798e-18
-3.70932e-06 1.04172e-05 -6.75121e-19
-2.21793e-06 1.35075e-05 -3.34273e-19
2.2892e-05 1.4214e-05 -3.43488e-19
2.44089e-05 -1.29476e-05 6.79089e-19
-2.61735e-05 -7.04604e-06 -2.36479e-18
4.96466e-06 5.08864e-06 -1.00128e-18
-3.05344e-06 6.38105e-05 -2.00616e-18
-6.62279e-09 -6.55452e-05 -2.46943e-18
3.23073e-05 5.52889e-05 -7.7437e-19
-1.24967e-05 5.41698e-06 3.38286e-18
-1.73386e-05 3.50135e-05 -2.6362e-18
3.25063e-05 -5.33647e-05 -2.60618e-18
-7.45986e-06 -1.1532e-05 4.9486e-19
4.94291e-05 4.30235e-05 -2.00962e-18
1.59393e-05 -1.18396e-05 -6.93133e-19
-2.30122e-06 -1.97125e-05 -5.67284e-18
5.17902e-05 -4.20696e-05 -1.69895e-18
-4.33173e-06 9.23842e-06 2.48779e-18
-3.32081e-05 -2.10947e-05 -3.30329e-18
-2.73293e-05 -5.70653e-05 -1.22618e-18
-1.54781e-05 -3.61486e-05 -1.10195e-18
-2.80963e-05 5.79997e-05 -2.62106e-18
-6.65343e-06 4.01635e-05 -1.24491e-18
1.06897e-05 2.47769e-05 1.38747e-18
-1.78348e-05 2.29166e-05 4.69528e-19
-1.65917e-05 -3.40873e-05 -1.523e-19
6.35921e-05 1.11597e-05 -2.01197e-18
-1.09376e-05 6.83678e-06 -5.01473e-19
-3.92612e-06 1.06736e-05 1.1929e-18
-3.14959e-05 2.26791e-05 -3.60864e-18
-1.11245e-05 6.39348e-06 1.50841e-18
6.29659e-05 -9.9502e-06 -7.71286e-19
-9.94572e-06 4.97678e-06 1.85101e-18
4.63953e-06 -9.30395e-06 -3.16943e-18
-4.88899e-05 -3.72556e-05 -2.61996e-18
-1.66751e-05 3.61782e-05 -9.391e-19
-5.00543e-05 3.69895e-05 -1.08146e-18
1.51297e-05 3.33001e-05 -9.20561e-19
-9.49003e-06 6.729e-06 1.50067e-18
-1.35261e-05 1.62824e-05 -8.50857e-19
-2.41682e-05 3.03595e-05 -4.59282e-18
-3.78989e-05 -4.8849e-06 2.47611e-18
-6.47862e-07 1.05765e-05 -1.68253e-18
-2.55975e-05 -3.04871e-05 6.86945e-19
-3.92133e-05 6.93085e-06 -2.47801e-18
-1.49383e-05 3.46457e-05 8.80588e-19
-1.15259e-05 4.61042e-05 -1.57382e-18
-1.16327e-05 2.58023e-05 4.70313e-19
-2.23407e-05 1.80025e-05 2.78103e-18
1.63876e-05 -4.01551e-06 -1.89629e-19
2.56353e-05 -1.36033e-06 1.36711e-18
8.81884e-06 5.39055e-06 -1.61605e-19
-8.09803e-06 -5.30496e-05 3.31794e-19
-5.00011e-05 -1.94982e-05 -2.62786e-21
2.49616e-05 3.07983e-07 3.11387e-18
3.72535e-05 -7.19252e-06 -4.64784e-19
-6.74839e-06 -8.56701e-06 1.60021e-19
-3.23158e-05 2.27258e-05 -3.40409e-18
-2.89616e-05 3.31797e-05 -2.67425e-18
3.93807e-05 -1.41887e-05 1.10437e-18
-1.8682e-05 -3.16505e-05 1.71258e-18
-1.90158e-05 3.14052e-05 -3.49103e-18
-3.68903e-05 -1.30915e-06 7.02442e-19
-1.67756e-05 3.30026e-05 5.26789e-19
-3.67746e-05 3.84077e-07 -4.01894e-18
4.57571e-05 1.63837e-05 -1.07577e-18
3.69209e-05 1.36247e-06 -2.45115e-18
3.47182e-05 -1.77861e-05 3.13856e-18
1.01321e-05 -4.88095e-05 3.17153e-18
1.83443e-05 -3.19619e-05 8.53516e-19
1.82197e-05 3.1958e-05 1.40727e-18
9.92253e-06 4.76917e-05 5.13948e-18
4.99684e-05 -1.40908e-05 1.23678e-18
3.20302e-05 1.58645e-05 1.67394e-19
3.07761e-05 8.40727e-06 8.7664e-19
P_ext 3 563 float
-9.9752e-07 3.37277e-07 -4.07971e-20
9.41217e-10 3.69347e-08 5.73304e-20
-9.18967e-08 -8.64222e-08 -5.42016e-21
-2.907e-08 2.68328e-08 4.15775e-20
2.53483e-08 4.88087e-10 3.75538e-20
3.02461e-08 -1.22748e-07 -3.52314e-23
-9.82123e-07 -3.41358e-07 -1.01904e-19
-7.20417e-08 -8.17311e-08 1.02565e-20
2.00424e-07 3.54943e-09 -2.04431e-20
7.31682e-08 -6.87057e-09 6.55459e-20
6.49311e-07 1.52193e-07 -2.87913e-20
3.56819e-08 -1.04446e-07 -1.05756e-20
8.17639e-08 9.73332e-08 -2.85845e-20
-8.42766e-09 7.62415e-08 -5.20652e-21
2.28966e-08 8.48955e-09 5.81274e-20
-1.28118e-07 -2.09727e-09 -2.06896e-20
-1.60116e-08 5.02383e-08 -4.7548e-20
7.72306e-08 -1.16521e-08 5.4552e-20
8.87124e-08 1.58212e-07 4.37505e-20
-1.19017e-07 1.20016e-08 -7.25475e-20
-4.46834e-08 -1.68574e-07 -8.82607e-20
1.47608e-09 2.88438e-10 5.45216e-21
1.3182e-07 1.07317e-08 -3.601e-20
8.39195e-08 -9.68973e-08 -6.22971e-20
-1.21579e-07 -1.95762e-08 7.98264e-21
-2.29215e-08 -6.65284e-08 -2.81401e-21
7.46459e-07 -6.10642e-08 -2.42159e-20
9.14346e-08 7.70887e-08 5.99056e-20
-2.73108e-07 -2.1694e-07 -3.52921e-20
1.60404e-08 3.02026e-09 1.38501e-20
-1.22072e-07 -2.17359e-08 1.01544e-20
5.33753e-08 -3.47332e-07 2.47917e-21
5.60934e-07 -5.74467e-07 1.71424e-20
1.1925e-09 -2.63314e-08 -1.59226e-19
-7.08398e-09 2.02498e-08 1.88439e-20
-2.1981e-08 -1.4479e-08 2.38774e-20
2.90561e-09 1.4541e-08 -3.55225e-20
-2.22219e-08 3.78567e-09 -2.1266e-20
8.82974e-08 -9.60374e-08 -8.65634e-20
5.47366e-07 5.98678e-07 -7.30106e-21
3.49621e-07 -1.58402e-07 -1.5466e-20
5.40117e-09 -1.33165e-08 5.88538e-21
-8.75548e-09 -1.16576e-08 8.17995e-21
-1.21267e-07 2.49061e-08 7.97298e-21
3.46878e-07 -3.4065e-07 -3.19819e-20
-3.23203e-07 1.16337e-07 -2.01649e-20
-4.08322e-08 -1.78175e-07 -5.91615e-20
7.36725e-08 1.78962e-07 -1.0525e-20
-1.16321e-07 3.04151e-08 2.12669e-20
-2.00187e-07 3.1136e-07 4.48678e-21
3.54844e-07 1.73778e-07 -2.0236e-20
3.08109e-07 -1.01336e-07 -2.33018e-22
-9.07139e-09 2.15614e-08 -7.80851e-21
-2.41116e-07 -2.16369e-07 1.2854e-20
-2.3652e-08 3.12475e-09 8.19217e-21
-5.17179e-07 3.03716e-07 -9.16023e-20
-6.57762e-09 -2.01653e-08 4.81968e-20
6.86601e-08 -3.18407e-07 -6.58114e-20
-2.05508e-08 -4.47892e-09 -6.78619e-20
5.38639e-08 1.07999e-07 -5.94956e-20
-2.87399e-08 -8.71544e-09 6.35418e-20
-3.03445e-08 -2.84957e-08 -1.03441e-20
6.73037e-07 2.96311e-07 3.20872e-20
-5.84653e-10 5.8761e-08 -1.35439e-20
9.07547e-09 -3.92045e-08 7.83026e-21
1.52625e-08 -8.72307e-08 -1.05738e-20
-6.06175e-09 -2.85586e-08 2.89296e-21
-6.98178e-08 -1.77398e-08 8.61488e-20
-8.12759e-08 9.94471e-08 -1.28963e-20
2.17971e-08 -7.91128e-09 9.16547e-20
-8.94731e-09 -2.21825e-08 1.81703e-20
-2.33931e-08 -3.43031e-09 -3.76233e-20
-4.02894e-08 3.73265e-07 -1.10391e-19
-7.17005e-08 3.6215e-08 7.93637e-20
-6.95689e-08 1.18994e-07 2.61646e-20
-6.99889e-07 8.22659e-08 -6.82775e-20
2.78897e-11 -5.54067e-08 -4.51638e-20
-6.73601e-08 -5.6442e-08 5.47862e-20
2.83692e-08 6.92203e-08 -3.36742e-20
2.68219e-07 5.36227e-08 3.7979e-20
3.84432e-07 -3.34487e-07 4.98809e-20
1.05309e-08 2.57936e-08 2.3842e-20
2.5993e-08 8.07201e-09 4.21347e-20
-3.58204e-07 2.65015e-07 -1.12238e-19
4.18117e-07 5.08328e-08 2.51917e-20
-6.33766e-08 5.6673e-07 -4.4397e-20
-2.19696e-08 -1.13561e-07 -5.97742e-20
7.71084e-08 5.43091e-08 3.69281e-20
3.33651e-07 3.51861e-07 -4.95596e-21
6.04349e-09 2.68282e-09 1.31525e-19
-6.43037e-08 3.20206e-07 -7.34675e-20
5.45886e-09 -2.91901e-09 1.05468e-20
-3.8597e-08 2.63278e-08 1.59449e-20
8.33379e-08 3.39139e-08 3.9542e-20
-3.08322e-07 9.53145e-08 -5.06025e-20
1.78956e-07 3.14456e-07 -1.99894e-20
1.11332e-07 -5.02663e-07 3.74111e-20
2.61682e-08 6.85996e-08 -6.49316e-20
-4.73401e-08 -2.81648e-08 -2.45554e-21
3.92331e-08 1.2547e-07 2.60336e-21
2.60872e-07 4.43913e-08 -3.34364e-20
-1.73183e-07 3.57784e-07 -6.82989e-20
4.60382e-07 -1.50466e-07 -2.49659e-20
-2.55442e-08 5.57704e-08 9.38963e-20
4.89535e-08 4.97234e-08 3.16773e-20
-2.91002e-08 -6.71245e-08 -3.95666e-20
-1.17096e-08 -5.11377e-08 6.07051e-20
1.35407e-07 1.62311e-08 3.42662e-20
-9.878e-08 4.62055e-07 -6.20892e-20
-2.28374e-08 1.4094e-08 -5.21517e-21
6.75398e-08 1.00095e-07 -2.59192e-20
-3.34023e-08 -4.74168e-07 1.71046e-20
4.79675e-07 1.44024e-07 -2.48442e-20
3.26537e-08 -5.77034e-08 1.28611e-20
-7.45494e-08 -8.52533e-09 3.39765e-20
-3.06782e-07 -1.2313e-07 2.81262e-20
1.51651e-08 1.62182e-08 5.42281e-20
-4.87328e-07 -1.70429e-07 -6.24062e-20
1.53958e-08 -1.61737e-08 6.72856e-20
-4.73863e-08 -3.33174e-07 -3.57881e-20
2.05624e-07 7.80322e-09 -3.61612e-20
-1.83118e-08 1.56175e-08 -9.24612e-20
4.91788e-09 2.24545e-08 -2.08294e-20
1.37587e-08 -6.02283e-08 -7.39372e-20
2.38896e-08 -1.11671e-08 1.1233e-19
4.38782e-10 2.41917e-08 -5.08937e-20
2.08804e-08 -2.608e-09 5.08181e-20
3.89669e-08 -5.74927e-08 -1.29823e-20
-9.97814e-08 -5.08918e-07 -1.731e-20
2.63589e-07 -2.02915e-07 -5.08722e-20
8.48927e-10 3.21028e-08 -4.84415e-20
-2.22254e-08 -4.0176e-09 8.91704e-20
-7.22635e-09 -2.48536e-08 1.53739e-20
-1.83254e-08 -1.29388e-08 -6.31909e-20
-2.46426e-07 3.07938e-07 1.99951e-20
-2.83038e-10 -2.44466e-08 -9.44081e-20
-3.08254e-07 4.84007e-07 -3.00203e-20
-1.15835e-07 5.32677e-08 2.37017e-20
1.62872e-08 1.75577e-08 6.05574e-20
-2.1047e-08 -1.23069e-08 -1.3763e-20
1.50295e-07 3.62733e-07 -2.50465e-20
8.67042e-08 7.72795e-08 1.29994e-20
2.10474e-07 -6.94101e-08 -1.06498e-20
1.18466e-08 -6.47576e-08 -3.95524e-20
-3.81917e-07 -3.5193e-07 -6.72751e-20
-3.68237e-08 6.36313e-08 2.31163e-20
9.56074e-08 5.09988e-08 5.48021e-21
1.39811e-07 -4.81316e-08 2.84182e-20
6.03782e-08 -1.20618e-07 -2.35974e-20
2.39367e-07 -1.10376e-07 -3.09187e-20
1.59251e-07 -7.51687e-08 1.27579e-20
1.60013e-08 -1.32669e-08 5.46366e-20
2.77657e-07 2.19624e-07 2.09148e-22
-4.01921e-08 -1.16219e-07 -1.83231e-20
-4.93571e-08 -4.22329e-08 2.3293e-20
-8.07229e-09 -2.11821e-08 -5.2117e-20
1.10902e-08 8.29189e-08 5.52831e-20
-3.71369e-07 2.6625e-08 -5.20791e-21
-1.35668e-07 -3.54506e-07 -3.24543e-22
-5.84213e-08 7.44678e-08 6.48653e-20
1.14884e-07 1.5311e-07 -2.81084e-20
2.85789e-07 -2.027e-07 -3.76354e-20
-4.17798e-07 -2.23378e-07 -7.67621e-21
1.85862e-07 -3.02568e-07 -5.52011e-20
2.42016e-07 -2.977e-07 -4.0285e-20
-7.12717e-08 7.05696e-09 -8.09742e-20
-2.1246e-07 -3.07447e-07 -6.82691e-20
-3.71903e-07 -5.82871e-08 -2.25991e-21
-4.43231e-08 -3.39394e-07 -4.50414e-20
1.65443e-07 -3.41956e-07 -9.84867e-20
3.46223e-09 -4.6997e-08 3.65836e-20
4.91633e-08 3.27411e-07 -1.24161e-19
-1.75148e-07 -3.06399e-07 -2.01397e-20
-1.64327e-08 -7.51693e-08 -1.5904e-20
-2.53182e-07 1.89543e-07 -3.81316e-20
-4.9594e-08 -1.62533e-08 3.73797e-20
-3.86328e-08 -2.6555e-08 7.47617e-21
1.0104e-07 -5.18157e-08 1.02479e-20
-1.38992e-08 1.96772e-08 -2.90978e-20
5.37007e-08 -6.77889e-08 -3.97394e-20
-3.15047e-07 -1.4011e-07 -3.74323e-20
-4.17258e-08 -5.62014e-08 -2.56567e-22
4.36077e-08 5.96214e-08 1.3561e-20
2.27806e-07 3.14457e-07 4.05353e-20
-8.0624e-08 -3.71776e-08 -2.91191e-20
-3.50454e-07 -7.88476e-09 -6.74214e-20
-4.49092e-08 -4.16576e-08 -3.95995e-20
-2.55359e-09 -6.03246e-08 4.9027e-21
4.39919e-08 2.21838e-08 -1.31363e-20
-5.07382e-08 5.00176e-08 -5.20841e-21
-8.47529e-09 -8.88056e-08 6.85564e-20
-4.67827e-07 1.15236e-07 -4.01755e-20
2.56444e-07 2.18773e-07 3.78251e-20
3.4265e-08 3.5631e-07 -7.81294e-20
-2.0659e-08 7.09947e-09 2.09992e-20
-6.89197e-08 2.14161e-09 -1.56254e-20
3.16404e-08 6.04102e-08 -5.71119e-20
-2.5041e-08 -6.15312e-09 1.3239e-20
2.96614e-09 -2.13538e-08 -2.61847e-20
-1.37848e-08 9.40018e-08 -7.09608e-20
1.52696e-08 1.60941e-08 1.33147e-20
-1.74095e-07 3.84833e-08 -1.53092e-20
-1.76569e-07 1.92656e-07 -2.96286e-21
-1.90603e-08 1.76803e-08 -1.88676e-21
-3.19441e-07 1.92786e-07 -2.6104e-21
-8.1946e-09 2.72144e-08 3.72322e-20
8.62014e-08 -3.08759e-08 -8.29244e-21
4.00427e-07 -3.68393e-08 3.01023e-20
-5.01844e-08 3.17541e-08 1.22022e-19
2.02986e-08 9.35434e-09 6.79297e-20
5.22314e-08 -3.26902e-08 -1.3438e-20
-8.96189e-08 2.9866e-08 8.37415e-20
-6.52228e-08 1.70952e-08 -2.84436e-20
2.29283e-08 -6.70313e-09 -2.14715e-20
2.12133e-07 -1.2901e-07 -4.8874e-20
-8.34767e-08 5.32251e-08 8.93345e-20
-2.49395e-07 -5.20063e-08 -2.03555e-20
-5.29947e-08 -2.79061e-08 -4.25706e-20
2.02684e-08 -1.34621e-08 1.92237e-21
2.24528e-08 1.57808e-08 -7.62847e-21
-5.67381e-09 2.55292e-08 -1.11551e-20
-2.30542e-09 -2.88045e-08 5.63743e-21
-2.33766e-08 1.19441e-08 -3.87339e-20
-2.61623e-08 -1.33977e-08 1.30973e-19
6.55419e-08 -2.47674e-08 6.02559e-20
-2.39746e-08 -6.59941e-09 -1.96578e-23
-2.39235e-08 6.35679e-09 1.33557e-20
-5.89164e-09 2.37719e-08 3.22132e-20
-6.39687e-09 -2.4293e-08 6.29678e-20
1.58103e-08 -1.76995e-08 2.12324e-20
1.51996e-08 1.69392e-08 1.62109e-20
9.17498e-09 2.5316e-07 -9.4446e-20
4.91121e-08 -4.05184e-08 -5.03714e-20
1.14625e-08 -2.16185e-08 1.05292e-20
-1.90918e-07 7.05582e-09 3.10898e-20
1.8126e-08 -1.72008e-08 -1.63669e-20
1.69236e-08 1.74683e-08 3.4953e-20
2.59657e-08 -5.65128e-10 3.10121e-20
8.7641e-08 2.48086e-07 1.04535e-20
-1.3138e-08 -2.14845e-08 -4.71154e-20
2.841e-08 -6.50194e-08 -9.70058e-20
-2.13061e-07 -1.17882e-07 -4.55291e-20
-4.68112e-08 -3.03866e-08 1.05796e-20
-2.1384e-07 1.26826e-07 -2.69279e-21
1.89621e-08 -1.94355e-08 5.0448e-21
-9.08893e-09 2.02008e-08 1.09012e-20
-5.00083e-09 -2.45147e-07 -5.22229e-21
-8.02595e-08 -2.42803e-07 -3.58728e-20
3.67986e-07 3.50236e-07 1.24336e-20
3.9361e-07 -2.23525e-08 -9.92882e-21
-2.79116e-08 6.0831e-09 -3.69409e-20
-2.63249e-07 -4.65197e-07 -2.72408e-20
6.27618e-08 1.07613e-07 -7.79963e-20
-2.52332e-07 2.97195e-08 -1.52807e-20
1.81145e-07 5.06529e-08 -2.55381e-20
-2.47499e-08 -1.00109e-10 9.69545e-20
5.4137e-10 -2.57232e-08 -2.10575e-20
-2.24551e-09 -1.75906e-08 -1.03164e-19
-2.19352e-08 -1.30554e-08 2.07143e-20
-5.45823e-07 -2.06839e-08 -1.06874e-19
1.71544e-07 -1.94017e-07 -1.27111e-20
1.16633e-08 2.26248e-08 1.6158e-20
5.96388e-09 -1.08315e-07 -5.72838e-20
-1.02324e-07 2.42323e-07 -5.84097e-20
2.1004e-09 2.72181e-08 5.47865e-21
1.83043e-07 -1.30981e-07 -7.74346e-20
-1.60933e-08 -7.0387e-09 -4.90338e-20
-1.55659e-07 -2.02311e-07 -1.03901e-22
2.14461e-08 1.09093e-08 2.61074e-20
5.07483e-08 4.90687e-08 -2.1005e-20
-3.61118e-08 -5.62542e-08 -4.99441e-20
2.22124e-08 -7.18787e-09 1.29786e-20
7.52036e-08 -5.25021e-08 5.2141e-20
-4.4656e-09 4.19287e-08 2.66368e-20
6.18707e-08 -1.04281e-07 6.24033e-20
5.65037e-07 2.84701e-08 -5.91839e-20
-4.78691e-07 1.26652e-07 -4.45465e-20
4.00766e-08 2.79265e-08 -2.37074e-20
-5.93006e-08 -1.42768e-07 -1.47737e-19
-9.0135e-08 -5.8803e-08 -2.94098e-21
2.93406e-07 -2.94913e-09 -2.8219e-20
2.50752e-09 -5.59749e-08 -2.75516e-21
-7.33209e-08 -2.58837e-08 7.60332e-20
9.99929e-08 -2.38908e-07 -1.24452e-19
7.9715e-09 9.62293e-08 -1.06977e-20
8.2068e-08 2.54503e-07 -6.13925e-20
9.84868e-08 -5.19012e-08 -1.34636e-20
-1.79667e-07 1.91239e-07 -2.96431e-21
1.65213e-07 2.04151e-07 -2.54004e-21
-1.03879e-08 4.64332e-09 5.98544e-21
1.71283e-09 4.43404e-08 -1.848e-20
3.34032e-09 -2.01176e-08 8.22378e-20
-1.59283e-08 -1.32063e-08 2.2246e-22
-5.4863e-08 4.35048e-08 2.09392e-20
-2.51728e-07 -5.96405e-08 -3.82293e-20
8.79048e-10 2.82869e-08 6.98522e-20
-6.58307e-08 1.96464e-08 -2.32704e-21
1.78352e-07 -2.58552e-08 -1.81903e-20
-7.62708e-08 -2.46981e-07 -3.86999e-20
-1.50219e-07 2.39234e-07 -6.17363e-20
-4.24082e-08 1.96017e-08 7.44628e-20
-2.01327e-07 -1.42452e-07 5.3741e-21
4.55664e-08 -2.13677e-08 4.96864e-21
-2.7298e-07 -1.33666e-08 5.1043e-21
1.33641e-07 -4.71576e-07 2.95421e-20
1.82584e-07 -1.91736e-07 -4.11059e-20
2.79199e-07 4.95019e-07 4.9675e-20
-2.61803e-09 5.98211e-08 -1.29868e-19
2.39645e-08 -2.48687e-07 -2.7905e-20
-9.70692e-09 5.87978e-09 1.64029e-20
-1.2943e-07 -2.41514e-07 1.76261e-20
4.34198e-08 -3.7166e-08 -6.3804e-20
-2.49702e-08 2.51558e-07 -4.85888e-20
6.06174e-08 -1.77893e-08 5.50119e-20
1.37951e-07 2.45843e-07 -2.60316e-21
1.38161e-07 -3.22504e-09 -6.50768e-20
2.52199e-07 -7.44132e-07 5.15547e-20
-5.34352e-08 -9.94769e-08 -8.30689e-20
-2.22856e-07 9.71034e-08 6.40185e-20
-3.12225e-08 1.53374e-08 1.09097e-20
2.11562e-07 1.4168e-07 7.21301e-21
1.5079e-07 -8.32484e-08 -1.01247e-19
7.97045e-08 3.5014e-08 4.74419e-20
-1.62994e-08 1.37767e-08 -6.77762e-20
1.51251e-07 -2.33661e-07 -4.84858e-20
-1.61249e-07 -2.01224e-07 9.94648e-21
2.08047e-07 8.20623e-08 -4.15242e-24
5.29205e-08 -3.27068e-08 5.78818e-20
9.72639e-08 -2.41744e-07 -4.85358e-20
1.14293e-07 -2.16631e-08 3.37917e-20
-1.10914e-07 -4.42487e-08 2.32505e-20
-4.82144e-09 -4.50134e-08 -1.36765e-20
-2.54245e-07 3.53043e-08 1.28681e-20
2.67125e-08 2.23033e-07 -5.93064e-20
1.73927e-07 4.05843e-08 -1.79054e-20
-1.97573e-07 -8.84311e-08 -1.02706e-19
-9.71531e-08 2.4911e-07 -9.71287e-20
-2.22067e-08 -2.17293e-07 -6.44196e-20
5.74391e-08 2.80339e-08 5.3155e-21
-3.72889e-08 1.05084e-07 -3.90343e-20
-1.77668e-07 1.27427e-07 -6.68686e-20
2.2818e-07 1.15095e-07 3.81719e-20
-1.03871e-07 -3.26277e-08 3.1319e-20
-2.51908e-08 -1.06963e-07 6.26683e-20
1.7437e-07 2.02693e-07 3.55381e-20
-4.09828e-08 -1.85911e-08 -1.92672e-20
5.73413e-07 -4.12306e-07 2.4967e-21
1.21415e-07 -8.49478e-08 -4.70104e-20
9.91609e-08 4.85937e-07 -4.9801e-20
1.28028e-07 -1.23086e-07 -1.01047e-19
-2.76841e-07 1.05429e-06 -4.61526e-20
-2.78445e-07 -1.04402e-06 -3.67693e-20
6.84114e-07 8.99229e-07 -3.48247e-20
6.75629e-07 -8.98988e-07 -4.3756e-20
1.11985e-06 -4.37471e-10 -1.58551e-20
-9.65358e-07 3.88386e-07 -6.24381e-20
-9.49354e-07 -3.92609e-07 -7.09969e-21
4.6157e-08 2.50358e-08 7.14399e-20
2.96131e-08 1.43803e-08 -5.09276e-20
8.60344e-08 1.15845e-08 9.63468e-20
1.51893e-07 8.11765e-08 2.82627e-20
4.50577e-08 1.79481e-07 1.24728e-20
-1.62843e-07 -1.39906e-07 -3.34321e-20
8.2e-08 -7.55946e-08 -2.89868e-20
1.74973e-07 1.40425e-07 -1.31794e-20
-4.04668e-08 2.20906e-07 -1.83471e-20
2.87209e-08 -1.41086e-08 -8.11362e-21
4.11831e-08 -2.11991e-07 -7.46674e-21
5.37999e-08 3.62802e-08 6.63793e-20
3.15602e-07 1.10558e-07 -2.06694e-20
7.06921e-09 2.27137e-08 -1.25166e-19
1.2197e-07 3.992e-08 2.57996e-21
-1.5096e-07 8.35041e-08 -4.39982e-20
-2.06689e-07 7.1501e-08 -1.53152e-20
4.09164e-08 -2.80319e-08 -2.98506e-20
-1.31957e-07 -6.10619e-08 -3.37917e-20
-1.44989e-07 -8.58796e-08 -3.87758e-20
-1.27101e-08 -1.45545e-07 -1.05879e-20
5.73138e-10 -1.67164e-07 4.97136e-21
-1.84053e-07 -7.95592e-09 -3.87339e-20
2.73181e-07 -4.24158e-08 5.09032e-21
1.4737e-07 9.08237e-08 1.02848e-20
-1.21947e-07 8.31893e-08 3.38925e-20
-5.49818e-08 2.69114e-08 7.17654e-20
1.37549e-07 -1.2325e-07 -6.44312e-20
-1.03349e-07 1.60918e-07 -4.86553e-20
-1.27308e-07 -1.34104e-07 7.57068e-21
-1.20652e-08 1.75278e-07 -3.64078e-20
-2.62254e-08 1.47931e-07 -7.82206e-20
4.32212e-09 -1.07393e-07 3.1491e-20
5.54077e-08 -1.79083e-07 7.97682e-21
-9.05579e-08 -5.81153e-08 5.12003e-21
1.25471e-07 -3.57814e-08 -3.13959e-20
3.06244e-10 1.75061e-07 -9.73728e-23
-3.78826e-09 1.11851e-07 -7.05394e-20
-2.81129e-08 1.25819e-07 -4.95375e-20
2.05931e-07 -5.06793e-08 1.53322e-20
-4.32426e-08 4.12916e-08 -1.00866e-20
4.66756e-08 1.75202e-07 -5.58857e-21
-2.82017e-08 1.77996e-08 7.79894e-20
1.04009e-07 4.82291e-07 2.21663e-20
-5.1008e-08 2.75381e-08 6.33928e-20
5.41195e-08 -2.81721e-08 9.49156e-20
1.55693e-08 1.48874e-07 -4.95565e-20
-1.74599e-07 4.14718e-08 2.10316e-20
-5.37043e-09 -7.56811e-08 -1.57552e-20
7.2078e-09 -6.88076e-07 3.60939e-20
2.08995e-08 1.26208e-07 3.09209e-20
-1.30435e-07 1.24089e-07 -5.44123e-20
2.02573e-07 7.53422e-07 -3.95395e-20
9.723e-09 6.4043e-09 8.73338e-20
8.40049e-09 -6.10785e-09 4.35089e-20
9.81955e-08 -7.65768e-08 -1.0948e-19
-1.39391e-07 1.24805e-07 -5.6971e-20
-1.67309e-07 -4.94203e-08 -8.27533e-20
-1.71931e-07 -5.64674e-08 -3.3439e-20
-3.43422e-09 2.11504e-09 5.47423e-20
-2.37449e-09 -1.14915e-09 6.35194e-20
8.03068e-08 1.6316e-08 -5.50797e-20
2.54893e-08 1.17205e-07 2.84774e-20
-2.94612e-09 1.16539e-07 -5.31908e-21
-5.76316e-07 -4.18642e-07 -2.4563e-20
1.02289e-07 -1.60886e-07 4.08677e-20
5.17368e-08 1.863e-08 7.61844e-20
-1.89763e-07 -2.04127e-08 1.81079e-20
-1.19986e-07 1.58519e-07 3.60044e-20
-1.549e-07 7.28349e-08 -1.5293e-20
5.65812e-07 4.0654e-07 -2.16462e-20
5.59789e-08 3.68005e-08 1.60681e-20
-5.50689e-08 1.7973e-07 -4.3822e-20
-1.08551e-07 -9.29798e-08 -7.81012e-20
2.70049e-08 -1.41582e-07 1.84009e-20
-8.78427e-08 -1.67127e-07 -1.21334e-19
-1.40759e-07 -9.64809e-08 -5.4436e-20
9.64734e-08 -1.71094e-07 -3.87011e-20
1.15723e-07 -1.59038e-07 -5.69687e-20
-3.66825e-08 -7.18007e-07 4.88039e-20
2.95202e-07 -4.72186e-07 1.48382e-20
1.41011e-08 -1.71879e-07 -3.59703e-20
1.21204e-07 9.22705e-08 1.59943e-22
-1.08876e-07 -1.32164e-07 -3.88428e-20
-9.44301e-08 1.76046e-07 -3.60024e-20
-5.80164e-08 1.72543e-07 -5.43518e-20
1.2638e-07 1.30871e-07 -3.64865e-20
6.19605e-08 -1.61387e-07 1.03806e-20
-1.60215e-07 -4.56817e-07 2.57655e-21
3.61021e-09 5.5494e-08 -2.65676e-20
1.2795e-07 1.31661e-07 -1.02829e-20
-6.89706e-08 -3.39597e-08 4.23226e-20
-5.73082e-08 3.12815e-08 8.70762e-20
5.12958e-07 -2.24719e-07 1.7253e-20
6.37023e-08 -1.0528e-07 -2.09626e-20
-6.04621e-08 -1.03437e-07 -4.15966e-20
2.29385e-08 -1.98541e-09 -5.60176e-21
1.97154e-09 -8.69058e-09 -1.58089e-19
-6.43285e-09 -6.35309e-09 3.27647e-20
2.82467e-08 1.85232e-08 1.8672e-20
-8.85826e-08 -1.67218e-07 -2.8223e-20
1.36304e-07 5.46625e-08 6.76653e-20
-3.31727e-07 -3.64691e-07 -4.46494e-20
1.24461e-09 1.06845e-08 4.63325e-20
1.24024e-09 1.92436e-09 -1.29844e-19
2.40332e-09 -3.09518e-10 4.41477e-20
3.18331e-07 -6.28638e-07 1.45405e-20
-1.32278e-08 1.5577e-08 -4.56038e-20
-3.0313e-09 1.88705e-08 -1.09798e-20
-1.37052e-07 4.87176e-08 2.07462e-20
-4.73811e-09 5.56611e-08 8.74279e-20
-3.01128e-08 8.92772e-08 2.07181e-20
6.20679e-08 2.64413e-09 4.95892e-20
1.40029e-08 5.36642e-08 1.35077e-20
-3.669e-09 7.42071e-08 -1.06064e-20
1.06378e-07 5.7874e-08 -2.09954e-20
7.58351e-09 6.84865e-07 -2.67155e-21
-9.89737e-08 9.36541e-08 7.65299e-21
7.4207e-08 -4.98984e-08 2.30094e-20
4.28364e-08 -3.91209e-08 -8.31669e-21
-7.0243e-07 -9.64452e-08 9.55419e-21
-2.00109e-08 7.93555e-09 8.65284e-20
-5.11467e-07 -6.05018e-07 -1.31139e-22
9.28626e-09 2.4881e-08 -6.37036e-20
8.96978e-08 1.74376e-08 1.25661e-19
2.67073e-07 -3.46604e-08 -7.83969e-21
-6.10489e-08 -1.00317e-07 -5.22025e-20
1.16722e-07 3.34749e-08 3.11541e-20
6.0334e-10 -2.97001e-08 -8.55729e-20
-6.58268e-08 7.61652e-08 2.11852e-20
-2.51722e-08 -1.60089e-08 -2.49375e-22
-5.93386e-08 1.20547e-07 -5.39598e-21
1.07369e-08 7.60786e-08 2.11048e-20
1.74402e-08 1.27813e-08 2.7617e-21
1.73074e-08 -1.22782e-08 -4.61416e-20
-4.76177e-07 -1.29719e-07 -1.20763e-19
5.24493e-08 1.95673e-08 6.02523e-20
-6.31545e-08 1.22244e-06 -2.89725e-20
-4.38946e-09 -1.25593e-06 -6.97529e-20
6.18188e-07 1.05827e-06 9.44181e-21
-6.41426e-08 5.08891e-08 5.55789e-20
-3.27579e-07 6.59235e-07 2.13151e-20
6.2174e-07 -1.02144e-06 -3.58897e-20
-1.028e-07 -1.66383e-07 -1.28963e-20
9.44144e-07 8.27278e-07 -5.75965e-20
1.10932e-08 -1.96767e-08 -2.96139e-20
-1.156e-08 -1.99379e-08 -4.04899e-20
9.89689e-07 -8.08857e-07 -1.68588e-20
-6.06396e-08 1.19251e-07 5.31359e-21
-6.21675e-07 -3.95927e-07 -4.17757e-20
-5.24246e-07 -1.09266e-06 2.38685e-20
-2.93624e-07 -6.75488e-07 -3.92919e-20
-5.38938e-07 1.11085e-06 -7.44478e-20
-1.27361e-07 7.52784e-07 -9.76275e-21
-8.97953e-10 2.63496e-08 1.21373e-19
-3.27006e-07 4.2101e-07 1.70695e-20
-3.1308e-07 -6.40769e-07 9.68303e-21
1.21741e-06 2.12449e-07 -2.91037e-20
-9.51797e-08 8.09208e-08 -2.86666e-20
-2.23334e-09 5.34567e-08 -1.29908e-20
-5.88879e-07 4.26309e-07 -4.67493e-20
-1.05557e-07 5.63369e-08 1.48673e-22
1.20542e-06 -1.88966e-07 -3.36657e-20
-8.0562e-08 5.4082e-08 -2.0686e-20
5.86888e-08 -1.21377e-07 -4.44708e-20
-9.38061e-07 -7.12472e-07 -1.93179e-20
-3.16307e-07 6.77734e-07 -1.47477e-20
-9.60792e-07 7.07241e-07 -6.45897e-20
2.80732e-07 6.26294e-07 -2.15981e-20
-1.03337e-07 8.2146e-08 2.34807e-20
-2.86696e-08 1.62359e-08 4.03409e-20
-1.56846e-09 -2.51186e-09 3.54206e-20
4.11011e-10 -2.15918e-09 1.40256e-20
7.85778e-09 8.2487e-08 -6.8191e-20
-2.30201e-09 2.51549e-09 -2.23297e-20
1.23137e-09 3.10041e-09 -1.10251e-19
2.09121e-09 -9.05175e-10 3.02572e-20
-1.2286e-09 9.76874e-09 3.54421e-20
-2.1601e-07 4.71285e-07 -4.41339e-20
-1.62439e-08 1.16544e-08 7.85814e-20
2.79907e-08 -1.76399e-08 -8.01381e-20
2.74379e-08 -1.58962e-08 5.23517e-21
7.90616e-08 3.08513e-08 8.89496e-20
-7.41663e-10 -8.36067e-09 -5.7772e-20
-7.46362e-09 -3.78651e-09 -6.01942e-20
2.74213e-08 1.59966e-08 8.44158e-21
6.98099e-07 -1.34548e-07 3.83707e-20
-9.04371e-08 -1.15275e-07 -8.53643e-20
-6.11193e-07 4.26115e-07 -2.67753e-20
-5.47214e-07 6.24127e-07 1.20367e-20
7.37622e-07 -2.66384e-07 2.4704e-20
-3.5309e-09 -1.02678e-08 4.93856e-21
-3.87862e-09 1.05474e-08 2.40644e-20
-1.15875e-08 1.99724e-09 -3.78259e-20
-7.60534e-09 7.74527e-09 -3.784e-20
-1.05035e-08 -2.23371e-09 -8.73363e-20
1.93513e-09 2.47629e-09 -4.15786e-22
1.12731e-08 -2.78048e-09 7.8246e-20
4.74729e-09 -3.34498e-09 8.18057e-20
-3.33963e-09 -2.39484e-09 4.13178e-20
7.21524e-09 -7.40991e-09 4.31114e-20
7.25534e-09 7.63067e-09 7.63413e-20
-3.36003e-09 2.10351e-09 1.21689e-19
3.65929e-09 -7.44593e-10 8.35087e-21
6.07575e-09 3.36969e-09 6.27512e-20
1.31717e-08 4.70848e-09 -1.88036e-20
SCALARS rr_necrosis float
LOOKUP_TABLE default
0
0
0
0
0
0
0
0
0
0
0
0
0
0
0
0
0
0
0
0
0
0
0
0
0
0
0
0
0
0
0
0
0
0
0
0
0
0
0
0
0
0
0
0
0
0
0
0
0
0
0
0
0
0
0
0
0
0
0
0
0
0
0
0
0
0
0
0
0
0
0
0
0
0
0
0
0
0
0
0
0
0
0
0
0
0
0
0
0
0
0
0
0
0
0
0
0
0
0
0
0
0
0
0
0
0
0
0
0
0
0
0
0
0
0
0
0
0
0
0
0
0
0
0
0
0
0
0
0
0
0
0
0
0
0
0
0
0
0
0
0
0
0
0
0
0
0
0
0
0
0
0
0
0
0
0
0
0
0
0
0
0
0
0
0
0
0
0
0
0
0
0
0
0
0
0
0
0
0
0
0
0
0
0
0
0
0
0
0
0
0
0
0
0
0
0
0
0
0
0
0
0
0
0
0
0
0
0
0
0
0
0
0
0
0
0
0
0
0
0
0
0
0
0
0
0
0
0
0
0
0
0
0
0
0
0
0
0
0
0
0
0
0
0
0
0
0
0
0
0
0
0
0
0
0
0
0
0
0
0
0
0
0
0
0
0
0
0
0
0
0
0
0
0
0
0
0
0
0
0
0
0
0
0
0
0
0
0
0
0
0
0
0
0
0
0
0
0
0
0
0
0
0
0
0
0
0
0
0
0
0
0
0
0
0
0
0
0
0
0
0
0
0
0
0
0
0
0
0
0
0
0
0
0
0
0
0
0
0
0
0
0
0
0
0
0
0
0
0
0
0
0
0
0
0
0
0
0
0
0
0
0
0
0
0
0
0
0
0
0
0
0
0
0
0
0
0
0
0
0
0
0
0
0
0
0
0
0
0
0
0
0
0
0
0
0
0
0
0
0
0
0
0
0
0
0
0
0
0
0
0
0
0
0
0
0
0
0
0
0
0
0
0
0
0
0
0
0
0
0
0
0
0
0
0
0
0
0
0
0
0
0
0
0
0
0
0
0
0
0
0
0
0
0
0
0
0
0
0
0
0
0
0
0
0
0
0
0
0
0
0
0
0
0
0
0
0
0
0
0
0
0
0
0
0
0
0
0
0
0
0
0
0
0
0
0
0
0
0
0
0
0
0
0
0
0
0
0
0
0
0
0
0
0
0
0
0
0
0
0
0
0
0
0
0
0
0
0
0
0
0
0
0
0
0
0
0
0
0
0
0
0
0
0
0
0
0
0
0
0
0
0
0
0
0
0
0
0
0
0
0
0
0
SCALARS rr_protein float
LOOKUP_TABLE default
1
1
1
1
1
1
1
1
1
1
1
1
1
1
1
1
1
1
1
1
1
1
1
1
1
1
1
1
1
1
1
1
1
1
1
1
1
1
1
1
1
1
1
1
1
1
1
1
1
1
1
1
1
1
1
1
1
1
1
1
1
1
1
1
1
1
1
1
1
1
1
1
1
1
1
1
1
1
1
1
1
1
1
1
1
1
1
1
1
1
1
1
1
1
1
1
1
1
1
1
1
1
1
1
1
1
1
1
1
1
1
1
1
1
1
1
1
1
1
1
1
1
1
1
1
1
1
1
1
1
1
1
1
1
1
1
1
1
1
1
1
1
1
1
1
1
1
1
1
1
1
1
1
1
1
1
1
1
1
1
1
1
1
1
1
1
1
1
1
1
1
1
1
1
1
1
1
1
1
1
1
1
1
1
1
1
1
1
1
1
1
1
1
1
1
1
1
1
1
1
1
1
1
1
1
1
1
1
1
1
1
1
1
1
1
1
1
1
1
1
1
1
1
1
1
1
1
1
1
1
1
1
1
1
1
1
1
1
1
1
1
1
1
1
1
1
1
1
1
1
1
1
1
1
1
1
1
1
1
1
1
1
1
1
1
1
1
1
1
1
1
1
1
1
1
1
1
1
1
1
1
1
1
1
1
1
1
1
1
1
1
1
1
1
1
1
1
1
1
1
1
1
1
1
1
1
1
1
1
1
1
1
1
1
1
1
1
1
1
1
1
1
1
1
1
1
1
1
1
1
1
1
1
1
1
1
1
1
1
1
1
1
1
1
1
1
1
1
1
1
1
1
1
1
1
1
1
1
1
1
1
1
1
1
1
1
1
1
1
1
1
1
1
1
1
1
1
1
1
1
1
1
1
1
1
1
1
1
1
1
1
1
1
1
1
1
1
1
1
1
1
1
1
1
1
1
1
1
1
1
1
1
1
1
1
1
1
1
1
1
1
1
1
1
1
1
1
1
1
1
1
1
1
1
1
1
1
1
1
1
1
1
1
1
1
1
1
1
1
1
1
1
1
1
1
1
1
1
1
1
1
1
1
1
1
1
1
1
1
1
1
1
1
1
1
1
1
1
1
1
1
1
1
1
1
1
1
1
1
1
1
1
1
1
1
1
1
1
1
1
1
1
1
1
1
1
1
1
1
1
1
1
1
1
1
1
1
1
1
1
1
1
1
1
1
1
1
1
1
1
1
1
1
1
1
1
1
1
1
1
1
1
1
1
1
1
1
1
1
1
1
1
1
1
1
1
1
1
1
1
1
1
1
SCALARS rr_(S_ext) float
LOOKUP_TABLE default
0.952863
0.95291
0.95291
0.952907
0.95294
0.952909
0.952862
0.952915
0.952907
0.952913
0.952839
0.952915
0.952914
0.952916
0.952926
0.952912
0.952916
0.95291
0.9529
0.952907
0.95291
0.952965
0.952906
0.952907
0.952907
0.952911
0.952863
0.95291
0.952883
0.952946
0.952914
0.952882
0.952865
0.952941
0.952947
0.952941
0.952945
0.952947
0.952914
0.952865
0.952882
0.952945
0.952945
0.952913
0.952862
0.952885
0.952903
0.952908
0.95291
0.952877
0.952881
0.952892
0.952934
0.952894
0.952934
0.952875
0.952948
0.952893
0.952947
0.952907
0.952914
0.952925
0.952874
0.952927
0.952925
0.95292
0.952914
0.952912
0.952907
0.95291
0.952934
0.952934
0.952883
0.952923
0.952911
0.952858
0.952932
0.95292
0.952911
0.95289
0.952881
0.952942
0.952919
0.952877
0.952889
0.952868
0.95291
0.952923
0.952862
0.952962
0.952893
0.952962
0.952931
0.95292
0.952894
0.952878
0.952883
0.952912
0.952932
0.952913
0.952901
0.952892
0.952876
0.952909
0.952912
0.952912
0.952921
0.952913
0.952876
0.952908
0.952907
0.952866
0.952871
0.95291
0.952912
0.952895
0.95295
0.952884
0.95295
0.952894
0.952899
0.952924
0.952909
0.952919
0.952909
0.952926
0.952946
0.952912
0.952883
0.952893
0.952932
0.952909
0.952918
0.952909
0.952893
0.952947
0.952881
0.952915
0.952919
0.952947
0.952892
0.952918
0.952903
0.952913
0.952884
0.95291
0.952916
0.952912
0.95291
0.952897
0.952906
0.952909
0.952881
0.952914
0.952913
0.952909
0.952917
0.952895
0.952894
0.95291
0.952908
0.952882
0.952868
0.952879
0.952893
0.952912
0.952894
0.952895
0.952882
0.952893
0.95293
0.952893
0.95288
0.952918
0.952893
0.952921
0.95293
0.952915
0.952937
0.952914
0.952884
0.952912
0.952912
0.952892
0.952923
0.95288
0.952919
0.952924
0.952933
0.952913
0.952923
0.952884
0.952893
0.952882
0.952909
0.952909
0.952909
0.952918
0.952909
0.95292
0.952909
0.952902
0.952892
0.952918
0.952885
0.952919
0.952921
0.95289
0.952927
0.952909
0.95293
0.952918
0.952912
0.952919
0.952896
0.952919
0.952893
0.952923
0.952909
0.952909
0.952906
0.952908
0.952908
0.952908
0.952915
0.952924
0.952924
0.952924
0.952924
0.952935
0.952935
0.952896
0.952914
0.952903
0.952908
0.952926
0.952926
0.952904
0.952891
0.952902
0.952913
0.952898
0.952926
0.952897
0.95292
0.952901
0.952897
0.952893
0.952881
0.952875
0.952919
0.952883
0.952912
0.952893
0.952901
0.952902
0.952908
0.952948
0.952908
0.952885
0.952892
0.952902
0.952914
0.952891
0.952908
0.952904
0.952948
0.952893
0.952909
0.95292
0.952909
0.952926
0.952923
0.952936
0.952912
0.952871
0.952869
0.952935
0.952909
0.952914
0.9529
0.952926
0.952919
0.952892
0.95292
0.952901
0.952917
0.952902
0.952891
0.952955
0.952931
0.952924
0.952924
0.952914
0.952903
0.95294
0.952919
0.952908
0.952902
0.952901
0.952934
0.952897
0.952932
0.952902
0.952863
0.952902
0.952884
0.952923
0.952897
0.952954
0.952901
0.952921
0.952896
0.95292
0.952901
0.952912
0.952878
0.952907
0.952898
0.952931
0.952896
0.952907
0.952923
0.95291
0.952901
0.952902
0.952903
0.952925
0.952901
0.952915
0.952911
0.952937
0.952903
0.952903
0.952909
0.952904
0.952901
0.952904
0.952927
0.952914
0.952904
0.952897
0.952917
0.952917
0.952901
0.952937
0.952838
0.952913
0.952881
0.95291
0.952769
0.95277
0.952769
0.952769
0.952767
0.952774
0.952775
0.952924
0.95294
0.95291
0.952906
0.952901
0.952904
0.952917
0.952903
0.952903
0.952941
0.952904
0.952929
0.952892
0.952922
0.952909
0.952907
0.952904
0.952936
0.952913
0.952907
0.952913
0.952907
0.952901
0.95289
0.952906
0.952912
0.952929
0.952902
0.9529
0.952902
0.952906
0.952911
0.952916
0.952902
0.952916
0.952909
0.952906
0.952915
0.952909
0.952902
0.952919
0.952909
0.952939
0.952863
0.952924
0.952927
0.952911
0.95291
0.952919
0.952841
0.952909
0.952909
0.952878
0.952957
0.952958
0.952911
0.952902
0.95291
0.952903
0.952974
0.952973
0.952912
0.952915
0.952915
0.952845
0.9529
0.952921
0.952908
0.952908
0.952906
0.952836
0.95292
0.952901
0.952912
0.952912
0.952907
0.952907
0.952907
0.952908
0.952865
0.952884
0.952907
0.952913
0.952909
0.952907
0.952908
0.95291
0.952909
0.952865
0.952928
0.952901
0.952919
0.952921
0.952864
0.95291
0.952908
0.952937
0.95295
0.95295
0.95293
0.9529
0.952912
0.952863
0.952948
0.952967
0.952967
0.952835
0.952946
0.952945
0.952911
0.952931
0.952911
0.952913
0.952918
0.952924
0.952916
0.952839
0.952912
0.95292
0.952921
0.952858
0.952944
0.95288
0.952918
0.952917
0.952899
0.952912
0.952916
0.952933
0.952914
0.952933
0.952911
0.952923
0.952946
0.952948
0.952866
0.952914
0.952861
0.952866
0.952856
0.952922
0.952843
0.952852
0.952907
0.952857
0.952942
0.952942
0.952861
0.952905
0.952869
0.952864
0.952864
0.952863
0.952864
0.952947
0.952861
0.952843
0.952859
0.952916
0.952924
0.952863
0.952915
0.95285
0.952916
0.952907
0.952862
0.95286
0.952859
0.952834
0.952909
0.952942
0.952963
0.952962
0.952916
0.952963
0.952962
0.952963
0.952955
0.952863
0.952945
0.952932
0.952943
0.952916
0.952958
0.952958
0.952946
0.952832
0.952906
0.952843
0.952881
0.952874
0.952947
0.952946
0.952946
0.952947
0.952946
0.952964
0.95295
0.952959
0.952968
0.95295
0.95295
0.952968
0.952963
0.952959
0.952948
SCALARS rr_(P_ext) float
LOOKUP_TABLE default
0.0195758
0.019482
0.0194903
0.0194836
0.0194584
0.0194904
0.0195761
0.0194848
0.0194981
0.0194824
0.0195696
0.0194848
0.0194867
0.0194812
0.019467
0.0194889
0.0194778
0.0194859
0.0195023
0.0194926
0.0194939
0.0194261
0.0194938
0.0194925
0.0194927
0.0194843
0.0195566
0.0194892
0.0195279
0.0194451
0.0194871
0.0195277
0.0195579
0.0194507
0.0194479
0.0194508
0.019444
0.0194491
0.0194872
0.0195577
0.0195281
0.0194437
0.0194438
0.019487
0.0195489
0.0195266
0.0195003
0.0194966
0.0194901
0.0195337
0.0195303
0.0195184
0.0194597
0.0195181
0.0194604
0.0195461
0.0194477
0.0195181
0.0194478
0.0194921
0.0194781
0.0194704
0.0195506
0.0194709
0.0194702
0.0194778
0.0194778
0.0194843
0.0194932
0.0194817
0.0194599
0.0194599
0.0195282
0.0194749
0.01949
0.0195619
0.0194653
0.0194779
0.0194843
0.0195162
0.0195356
0.0194554
0.0194742
0.0195382
0.0195252
0.0195479
0.0194892
0.0194764
0.0195488
0.0194307
0.0195182
0.0194308
0.0194648
0.0194789
0.0195174
0.0195312
0.0195355
0.0194825
0.0194655
0.0194876
0.0195077
0.019523
0.0195384
0.019485
0.0194833
0.0194831
0.019473
0.0194883
0.0195386
0.0194806
0.019492
0.0195459
0.0195417
0.0194855
0.0194836
0.0195178
0.0194478
0.0195359
0.0194481
0.0195175
0.0195044
0.0194681
0.019482
0.0194761
0.0194799
0.0194662
0.0194511
0.0194826
0.0195355
0.0195174
0.0194598
0.0194826
0.0194746
0.0194823
0.0195228
0.0194477
0.0195407
0.0194861
0.0194741
0.0194478
0.0195218
0.0194821
0.019503
0.0194823
0.0195363
0.019484
0.0194835
0.0194901
0.0194904
0.0195105
0.0194968
0.019482
0.0195279
0.0194866
0.0194824
0.0194825
0.0194798
0.0195209
0.0195206
0.0194868
0.0194964
0.0195272
0.0195466
0.0195303
0.0195209
0.0194831
0.0195209
0.0195211
0.0195278
0.0195208
0.0194645
0.0195181
0.0195305
0.0194789
0.0195179
0.0194734
0.0194646
0.0194849
0.0194593
0.019483
0.0195278
0.0194827
0.0194827
0.0195216
0.0194762
0.0195311
0.0194762
0.0194729
0.0194642
0.0194825
0.0194761
0.0195345
0.0195179
0.0195277
0.0194824
0.0194862
0.0194857
0.0194747
0.0194822
0.0194782
0.019482
0.0195011
0.0195155
0.0194748
0.0195277
0.0194742
0.0194779
0.0195235
0.0194692
0.0194818
0.0194684
0.0194807
0.0194836
0.0194741
0.0195102
0.0194799
0.0195146
0.019473
0.0194801
0.0194801
0.0194812
0.0194808
0.0194807
0.0194808
0.0194817
0.0194677
0.0194679
0.0194676
0.0194675
0.0194603
0.0194602
0.0195108
0.0194815
0.0194844
0.019497
0.019467
0.0194667
0.0194842
0.0195153
0.0194848
0.0194825
0.0195098
0.0194691
0.0195102
0.0194738
0.0194851
0.0195096
0.0195142
0.0195358
0.0195351
0.0194741
0.0195377
0.0194877
0.0195147
0.0195017
0.0194849
0.0194803
0.0194432
0.0194806
0.0195383
0.0195146
0.0194845
0.0194848
0.0195158
0.0194804
0.0195025
0.0194433
0.0195145
0.0194799
0.0194767
0.0194857
0.0194672
0.0194766
0.0194597
0.0194868
0.0195445
0.0195479
0.0194623
0.0194937
0.0194848
0.0195102
0.0194689
0.019479
0.0195145
0.0194787
0.0195074
0.0194831
0.0195073
0.0195151
0.0194361
0.0194637
0.0194667
0.0194669
0.0194818
0.0195066
0.0194517
0.019477
0.0194961
0.0195063
0.0195092
0.0194624
0.0195099
0.0194648
0.0195083
0.0195487
0.0195068
0.0195368
0.0194727
0.0195098
0.0194361
0.0195082
0.0194749
0.0195109
0.0194757
0.0195085
0.0194892
0.0195521
0.0194911
0.01951
0.0194627
0.0195105
0.0194961
0.0194757
0.0194817
0.0195084
0.0195067
0.0195027
0.0194729
0.0195068
0.0194848
0.0194892
0.0194599
0.0195067
0.0195032
0.0194947
0.0195022
0.0195077
0.019502
0.0194701
0.0194851
0.0195028
0.0195102
0.0194825
0.0194823
0.0195072
0.01946
0.0195729
0.0194895
0.0195357
0.0194943
0.0196226
0.0196225
0.0196219
0.0196221
0.0196218
0.0196228
0.0196224
0.0194724
0.0194542
0.0194865
0.0194965
0.0195018
0.0195023
0.0194831
0.0195029
0.0195033
0.019454
0.0195023
0.0194686
0.0195182
0.0194691
0.0194906
0.0194967
0.0195026
0.0194621
0.0194895
0.019496
0.0194894
0.0194959
0.019503
0.0195166
0.0194967
0.0194904
0.0194683
0.0195009
0.0195039
0.0195013
0.0194973
0.0194906
0.019483
0.0195014
0.0194831
0.0194914
0.019497
0.0194846
0.0194912
0.0195025
0.0194758
0.0194952
0.0194551
0.0195486
0.0194725
0.0194701
0.0194905
0.0194949
0.0194781
0.0195718
0.0194906
0.0194953
0.0195516
0.0194367
0.0194364
0.0194896
0.0195019
0.0194942
0.0195009
0.0194224
0.0194224
0.0194846
0.0194845
0.019485
0.019572
0.0195033
0.0194745
0.019497
0.0194978
0.0194971
0.0195735
0.0194763
0.0195024
0.0194898
0.0194898
0.0194979
0.0194962
0.0194979
0.0194972
0.019557
0.0195365
0.0194962
0.0194897
0.0194951
0.0194983
0.0194957
0.0194945
0.0194951
0.0195486
0.0194669
0.0195014
0.0194783
0.0194758
0.0195491
0.0194902
0.019491
0.0194599
0.0194372
0.0194373
0.0194637
0.0195035
0.0194901
0.0195501
0.0194391
0.0194245
0.0194246
0.0195745
0.0194492
0.019445
0.019491
0.0194652
0.0194866
0.0194818
0.0194755
0.0194733
0.0194848
0.019572
0.0194887
0.0194791
0.0194747
0.0195625
0.0194481
0.0195533
0.019475
0.0194815
0.0195088
0.0194872
0.0194852
0.0194591
0.019484
0.0194592
0.0194897
0.0194746
0.0194466
0.019446
0.0195498
0.0194806
0.0195776
0.0195758
0.0195796
0.0194764
0.0195731
0.0195815
0.0194982
0.0195786
0.0194551
0.0194552
0.0195772
0.0194946
0.0195568
0.0195781
0.0195585
0.0195784
0.0195585
0.0194486
0.0195532
0.0195727
0.0195774
0.0194856
0.0194712
0.01956
0.0194854
0.0195809
0.0194824
0.019494
0.0195791
0.0195614
0.0195805
0.0195745
0.0194914
0.0194536
0.0194262
0.0194274
0.0194808
0.0194264
0.0194265
0.0194269
0.0194342
0.0195514
0.0194472
0.0194631
0.0194535
0.019482
0.0194323
0.0194323
0.0194518
0.0195755
0.0194949
0.0195744
0.0195547
0.019554
0.0194402
0.0194404
0.0194411
0.0194409
0.0194403
0.0194278
0.0194409
0.0194322
0.019426
0.01944
0.0194399
0.0194256
0.0194275
0.0194319
0.0194416
SCALARS rr_(S) float
LOOKUP_TABLE default
0.917707
0.917682
0.917688
0.917681
0.917693
0.917687
0.917706
0.917688
0.91769
0.917685
0.91768
0.917688
0.917688
0.917686
0.917686
0.917688
0.917684
0.917685
0.917687
0.917687
0.91769
0.917696
0.917686
0.917687
0.917687
0.917684
0.917693
0.917687
0.91769
0.917691
0.917689
0.917689
0.917695
0.91769
0.917693
0.91769
0.917689
0.917694
0.917689
0.917695
0.917689
0.917689
0.917689
0.917689
0.917686
0.917691
0.917688
0.91769
0.917687
0.917689
0.917689
0.917691
0.917689
0.917693
0.91769
0.917696
0.917694
0.917692
0.917693
0.917686
0.917683
0.917688
0.917699
0.91769
0.917688
0.917689
0.917683
0.917685
0.917687
0.917682
0.91769
0.91769
0.91769
0.917689
0.917688
0.917692
0.917691
0.917689
0.917684
0.917688
0.917694
0.917694
0.917685
0.917692
0.917693
0.917691
0.917687
0.91769
0.917686
0.917696
0.917692
0.917697
0.917689
0.917689
0.917693
0.917688
0.917696
0.917685
0.917691
0.917689
0.917691
0.917694
0.917691
0.917683
0.917685
0.917684
0.917686
0.917689
0.917691
0.917679
0.917686
0.917688
0.917689
0.917684
0.917684
0.917693
0.917696
0.917697
0.917696
0.917693
0.917688
0.917685
0.917681
0.917686
0.91768
0.917686
0.917694
0.917685
0.917696
0.917692
0.917688
0.917681
0.917684
0.917681
0.917695
0.917693
0.917697
0.917689
0.917685
0.917693
0.917694
0.91769
0.91769
0.917685
0.917697
0.917684
0.917689
0.91769
0.917688
0.91769
0.917689
0.917681
0.917688
0.917689
0.917685
0.917681
0.917687
0.917695
0.917695
0.917686
0.91769
0.917689
0.917689
0.917688
0.917694
0.917685
0.917695
0.917696
0.917689
0.917694
0.917689
0.917692
0.917689
0.917687
0.917692
0.917686
0.917689
0.917689
0.917691
0.917687
0.917691
0.917684
0.917685
0.917694
0.91769
0.917689
0.917686
0.917688
0.917691
0.917685
0.91769
0.917696
0.917691
0.917689
0.917681
0.917684
0.917684
0.917684
0.917681
0.917689
0.917681
0.917688
0.917689
0.917684
0.917692
0.917685
0.91769
0.917693
0.917689
0.917682
0.917691
0.917689
0.917685
0.917685
0.917689
0.917689
0.917689
0.917688
0.91768
0.91768
0.917678
0.917679
0.917679
0.917679
0.917686
0.917686
0.917685
0.917685
0.917686
0.917691
0.91769
0.917689
0.917685
0.917677
0.917691
0.917687
0.917687
0.917678
0.917688
0.917677
0.917685
0.91769
0.917688
0.91769
0.917686
0.917676
0.91769
0.917689
0.917694
0.917688
0.917685
0.917697
0.917688
0.917689
0.917688
0.917677
0.917679
0.917691
0.917679
0.9177
0.917688
0.917677
0.917688
0.917688
0.917679
0.917691
0.917691
0.917689
0.91768
0.917687
0.917684
0.917687
0.91769
0.917691
0.917687
0.917691
0.917691
0.917692
0.917689
0.917688
0.917692
0.917688
0.917688
0.917688
0.917689
0.917692
0.917689
0.917692
0.917688
0.917693
0.917689
0.917685
0.917685
0.917686
0.917693
0.91769
0.917687
0.91769
0.917692
0.917693
0.917691
0.91769
0.917691
0.917693
0.917686
0.917692
0.917697
0.917688
0.91769
0.917693
0.917692
0.917687
0.91769
0.917687
0.917692
0.917689
0.917703
0.917686
0.91769
0.917689
0.917689
0.917689
0.91769
0.917682
0.917692
0.917692
0.91769
0.917689
0.917692
0.917689
0.917688
0.917692
0.917693
0.91769
0.91769
0.917691
0.917692
0.917691
0.91769
0.917688
0.917691
0.91769
0.917689
0.917689
0.917691
0.917692
0.917681
0.91769
0.917694
0.91769
0.917655
0.917656
0.917654
0.917654
0.917652
0.917659
0.91766
0.917688
0.917691
0.917685
0.917689
0.917688
0.917691
0.917689
0.91769
0.91769
0.917692
0.91769
0.917691
0.917691
0.917684
0.917687
0.917689
0.917691
0.917693
0.91769
0.917689
0.91769
0.917689
0.917688
0.917688
0.917689
0.91769
0.91769
0.917688
0.917688
0.917688
0.917689
0.917689
0.917689
0.917688
0.917689
0.917687
0.917689
0.917688
0.917687
0.917689
0.917686
0.91769
0.91769
0.917687
0.917688
0.91769
0.917689
0.917691
0.917688
0.917683
0.917687
0.91769
0.917702
0.917696
0.917696
0.917688
0.917688
0.917691
0.917689
0.917702
0.917701
0.917685
0.917689
0.917688
0.917687
0.917688
0.917687
0.917691
0.917691
0.917689
0.91768
0.917688
0.917688
0.91769
0.917689
0.91769
0.917689
0.91769
0.917691
0.917695
0.917697
0.917689
0.91769
0.91769
0.91769
0.91769
0.91769
0.91769
0.917688
0.917689
0.917688
0.917688
0.917688
0.917688
0.917687
0.917687
0.917692
0.917689
0.917689
0.917688
0.917688
0.917689
0.917688
0.917689
0.917697
0.917697
0.91768
0.917693
0.91769
0.917689
0.91769
0.917686
0.917684
0.917685
0.917689
0.917689
0.917682
0.917689
0.917689
0.917688
0.917692
0.91769
0.917706
0.917685
0.917688
0.917691
0.917687
0.917689
0.917688
0.917687
0.917688
0.917688
0.917689
0.917691
0.917693
0.91769
0.917685
0.917706
0.91771
0.917703
0.917689
0.917687
0.917701
0.917691
0.917703
0.917693
0.917693
0.917706
0.917686
0.917698
0.917709
0.917695
0.917709
0.917695
0.917693
0.917688
0.917686
0.917704
0.91769
0.917688
0.917695
0.917689
0.917699
0.917688
0.917687
0.917708
0.917693
0.917706
0.917679
0.917688
0.917692
0.917694
0.917694
0.917687
0.917694
0.917694
0.917694
0.917692
0.917688
0.917691
0.91769
0.917693
0.917687
0.917694
0.917693
0.917695
0.917678
0.917688
0.917687
0.917707
0.9177
0.917688
0.917688
0.917689
0.917689
0.917688
0.917696
0.917692
0.917695
0.917698
0.917691
0.917691
0.917699
0.917695
0.917694
0.91769
SCALARS rr_(P) float
LOOKUP_TABLE default
0.0223931
0.0223378
0.0223428
0.0223387
0.0223237
0.0223428
0.0223932
0.0223395
0.0223474
0.022338
0.0223892
0.0223395
0.0223407
0.0223373
0.0223288
0.022342
0.0223352
0.0223401
0.0223498
0.0223441
0.0223449
0.0223042
0.0223448
0.022344
0.0223442
0.0223392
0.0223817
0.0223421
0.0223649
0.0223155
0.0223409
0.0223648
0.0223825
0.022319
0.0223174
0.022319
0.0223149
0.0223181
0.022341
0.0223823
0.022365
0.0223147
0.0223147
0.0223409
0.0223771
0.0223641
0.0223487
0.0223465
0.0223426
0.0223683
0.0223663
0.0223593
0.0223244
0.0223592
0.0223249
0.0223756
0.0223173
0.0223592
0.0223173
0.0223438
0.0223354
0.0223309
0.0223782
0.0223312
0.0223308
0.0223353
0.0223352
0.0223392
0.0223445
0.0223376
0.0223245
0.0223246
0.0223651
0.0223336
0.0223426
0.0223848
0.0223279
0.0223354
0.0223392
0.022358
0.0223694
0.022322
0.0223331
0.022371
0.0223633
0.0223766
0.0223421
0.0223345
0.0223771
0.0223069
0.0223593
0.0223069
0.0223275
0.022336
0.0223588
0.0223668
0.0223694
0.0223381
0.022328
0.0223412
0.0223531
0.0223621
0.022371
0.0223396
0.0223386
0.0223385
0.0223324
0.0223416
0.0223712
0.0223369
0.0223438
0.0223754
0.0223729
0.0223399
0.0223388
0.022359
0.0223173
0.0223696
0.0223175
0.0223588
0.0223511
0.0223294
0.0223378
0.0223343
0.0223364
0.0223283
0.0223193
0.0223381
0.0223694
0.0223588
0.0223245
0.0223381
0.0223334
0.0223379
0.022362
0.0223172
0.0223724
0.0223403
0.022333
0.0223173
0.0223614
0.0223379
0.0223503
0.022338
0.0223699
0.022339
0.0223387
0.0223427
0.0223428
0.0223547
0.0223466
0.0223378
0.0223649
0.0223406
0.022338
0.0223381
0.0223365
0.0223609
0.0223607
0.0223407
0.0223464
0.0223645
0.0223758
0.0223663
0.0223609
0.0223384
0.0223609
0.022361
0.0223649
0.0223608
0.0223273
0.0223592
0.0223664
0.022336
0.0223591
0.0223326
0.0223274
0.0223395
0.0223243
0.0223384
0.0223649
0.0223382
0.0223382
0.0223613
0.0223344
0.0223668
0.0223343
0.0223324
0.0223272
0.0223381
0.0223343
0.0223688
0.0223591
0.0223648
0.022338
0.0223403
0.02234
0.0223334
0.0223378
0.0223356
0.0223377
0.0223492
0.0223577
0.0223335
0.0223648
0.0223331
0.0223354
0.0223623
0.0223302
0.0223376
0.0223297
0.022337
0.0223388
0.022333
0.0223545
0.0223366
0.0223571
0.0223324
0.0223366
0.0223366
0.0223372
0.022337
0.0223369
0.022337
0.0223376
0.0223292
0.0223293
0.0223291
0.0223291
0.0223248
0.0223247
0.0223549
0.0223375
0.0223391
0.0223468
0.0223288
0.0223286
0.022339
0.0223575
0.0223393
0.0223381
0.0223543
0.0223301
0.0223545
0.0223329
0.0223395
0.0223542
0.0223569
0.0223696
0.0223691
0.0223331
0.0223707
0.0223413
0.0223572
0.0223495
0.0223394
0.0223367
0.0223144
0.0223368
0.0223711
0.0223571
0.0223391
0.0223395
0.0223578
0.0223367
0.02235
0.0223145
0.022357
0.0223364
0.0223346
0.02234
0.0223289
0.0223346
0.0223245
0.0223407
0.0223746
0.0223766
0.022326
0.0223448
0.0223395
0.0223545
0.02233
0.0223361
0.0223571
0.0223359
0.0223529
0.0223385
0.0223529
0.0223574
0.0223101
0.0223268
0.0223286
0.0223287
0.0223377
0.0223525
0.0223196
0.0223349
0.0223462
0.0223523
0.022354
0.0223261
0.0223543
0.0223275
0.0223534
0.022377
0.0223525
0.0223701
0.0223323
0.0223543
0.0223102
0.0223534
0.0223335
0.0223549
0.0223341
0.0223535
0.0223422
0.0223792
0.0223432
0.0223544
0.0223262
0.0223547
0.0223462
0.0223341
0.0223376
0.0223535
0.0223525
0.0223501
0.0223324
0.0223526
0.0223395
0.0223421
0.0223246
0.0223525
0.0223504
0.0223454
0.0223499
0.0223531
0.0223497
0.0223307
0.0223397
0.0223502
0.0223545
0.0223381
0.022338
0.0223528
0.0223247
0.0223911
0.0223423
0.0223695
0.0223452
0.02242
0.0224199
0.0224195
0.0224197
0.0224195
0.0224201
0.0224199
0.0223321
0.0223211
0.0223405
0.0223464
0.0223495
0.0223499
0.0223385
0.0223502
0.0223505
0.022321
0.0223499
0.0223298
0.0223593
0.02233
0.022343
0.0223466
0.0223501
0.0223259
0.0223423
0.0223462
0.0223423
0.0223461
0.0223503
0.0223582
0.0223465
0.0223428
0.0223296
0.022349
0.0223508
0.0223493
0.0223469
0.022343
0.0223384
0.0223493
0.0223385
0.0223434
0.0223467
0.0223394
0.0223433
0.02235
0.0223341
0.0223457
0.0223216
0.0223769
0.0223321
0.0223307
0.0223429
0.0223455
0.0223355
0.0223905
0.0223429
0.0223458
0.0223789
0.0223105
0.0223104
0.0223423
0.0223496
0.0223451
0.022349
0.0223019
0.0223019
0.0223393
0.0223393
0.0223396
0.0223907
0.0223505
0.0223333
0.0223468
0.0223473
0.0223468
0.0223914
0.0223344
0.0223499
0.0223425
0.0223425
0.0223473
0.0223463
0.0223473
0.0223469
0.022382
0.02237
0.0223463
0.0223424
0.0223456
0.0223476
0.022346
0.0223453
0.0223456
0.022377
0.0223288
0.0223493
0.0223356
0.0223341
0.0223773
0.0223427
0.0223432
0.0223246
0.0223108
0.0223108
0.0223268
0.0223506
0.0223426
0.0223778
0.0223119
0.0223032
0.0223033
0.0223921
0.0223181
0.0223155
0.0223432
0.0223278
0.0223406
0.0223377
0.0223339
0.0223326
0.0223395
0.0223906
0.0223419
0.0223361
0.0223334
0.0223851
0.0223174
0.0223799
0.0223336
0.0223376
0.0223537
0.0223409
0.0223398
0.022324
0.022339
0.0223241
0.0223424
0.0223334
0.0223164
0.0223161
0.0223777
0.0223369
0.0223941
0.0223931
0.0223953
0.0223345
0.0223913
0.0223964
0.0223475
0.0223947
0.0223218
0.0223218
0.0223939
0.0223453
0.0223819
0.0223944
0.0223828
0.0223947
0.0223829
0.0223178
0.0223797
0.0223911
0.022394
0.02234
0.0223314
0.0223837
0.0223399
0.022396
0.0223381
0.0223449
0.022395
0.0223845
0.0223958
0.022392
0.0223434
0.0223208
0.0223042
0.0223049
0.0223371
0.0223043
0.0223043
0.0223046
0.0223089
0.0223786
0.0223169
0.0223264
0.0223207
0.0223378
0.0223078
0.0223078
0.0223198
0.0223926
0.0223455
0.022392
0.0223808
0.0223803
0.0223125
0.0223127
0.0223131
0.022313
0.0223126
0.0223051
0.022313
0.0223078
0.022304
0.0223124
0.0223124
0.0223038
0.022305
0.0223076
0.0223134
SCALARS rr_(T) float
LOOKUP_TABLE default
0.0966271
0.0966557
0.096653
0.0966549
0.0966669
0.096653
0.096627
0.0966551
0.0966505
0.0966557
0.0966275
0.0966551
0.0966544
0.0966564
0.0966626
0.0966534
0.0966578
0.0966545
0.096649
0.0966522
0.096652
0.0966825
0.0966518
0.0966523
0.0966521
0.0966551
0.0966322
0.0966536
0.0966409
0.0966731
0.0966542
0.0966409
0.0966319
0.0966706
0.0966717
0.0966705
0.0966736
0.0966711
0.0966542
0.096632
0.0966408
0.0966737
0.0966737
0.0966542
0.0966342
0.0966413
0.0966497
0.096651
0.0966532
0.096639
0.0966401
0.096644
0.0966661
0.0966441
0.0966658
0.0966355
0.0966718
0.0966441
0.0966718
0.0966523
0.0966575
0.096661
0.0966344
0.0966609
0.0966611
0.0966581
0.0966577
0.0966551
0.096652
0.0966559
0.0966661
0.096666
0.0966408
0.0966594
0.0966531
0.0966304
0.0966636
0.0966581
0.0966551
0.0966445
0.0966387
0.0966681
0.0966594
0.0966377
0.0966419
0.0966347
0.0966536
0.0966589
0.0966342
0.0966806
0.096644
0.0966806
0.0966638
0.0966578
0.0966443
0.0966397
0.0966388
0.0966556
0.0966635
0.096654
0.0966474
0.0966426
0.0966377
0.0966546
0.0966556
0.0966553
0.0966601
0.0966538
0.0966376
0.0966562
0.0966524
0.0966352
0.0966366
0.0966545
0.0966551
0.0966442
0.0966719
0.0966387
0.0966718
0.0966443
0.0966483
0.096662
0.0966557
0.0966585
0.0966565
0.0966631
0.0966703
0.0966556
0.0966388
0.0966443
0.0966662
0.0966554
0.0966591
0.0966555
0.0966427
0.0966719
0.0966373
0.0966548
0.0966594
0.0966719
0.096643
0.0966564
0.096649
0.0966559
0.0966386
0.0966551
0.096656
0.0966534
0.0966529
0.0966464
0.096651
0.0966557
0.0966408
0.0966544
0.0966559
0.0966554
0.096657
0.0966433
0.0966434
0.0966541
0.096651
0.0966411
0.096635
0.09664
0.0966432
0.0966553
0.0966432
0.0966432
0.0966409
0.0966433
0.0966639
0.096644
0.09664
0.0966573
0.0966441
0.0966599
0.0966639
0.0966554
0.0966663
0.0966558
0.0966409
0.0966555
0.0966555
0.096643
0.0966589
0.0966398
0.0966585
0.0966601
0.0966641
0.0966556
0.0966589
0.0966391
0.0966441
0.0966409
0.0966555
0.0966542
0.0966545
0.096659
0.0966556
0.096658
0.0966557
0.0966494
0.0966447
0.096659
0.096641
0.0966592
0.0966582
0.0966424
0.0966619
0.0966558
0.0966622
0.0966569
0.0966554
0.0966594
0.0966465
0.0966573
0.096645
0.0966601
0.0966564
0.0966564
0.0966559
0.0966561
0.0966561
0.096656
0.0966563
0.0966622
0.0966621
0.0966622
0.0966623
0.096666
0.096666
0.0966463
0.0966563
0.0966544
0.0966508
0.0966626
0.0966628
0.0966546
0.0966448
0.0966542
0.0966556
0.0966466
0.096662
0.0966465
0.0966595
0.096654
0.0966467
0.0966451
0.0966386
0.0966385
0.0966593
0.0966382
0.0966538
0.096645
0.0966492
0.0966542
0.0966563
0.0966741
0.0966562
0.0966381
0.096645
0.0966544
0.0966553
0.0966446
0.0966562
0.0966491
0.096674
0.096645
0.0966565
0.0966583
0.0966544
0.0966625
0.0966588
0.0966662
0.0966542
0.0966358
0.0966347
0.0966651
0.0966518
0.0966553
0.0966466
0.0966621
0.0966573
0.096645
0.0966578
0.0966475
0.0966561
0.0966475
0.0966448
0.0966777
0.0966643
0.0966627
0.0966626
0.0966562
0.0966477
0.09667
0.0966581
0.0966512
0.0966478
0.0966468
0.096665
0.0966466
0.0966639
0.0966472
0.0966343
0.0966477
0.0966385
0.0966603
0.0966466
0.0966776
0.0966472
0.0966593
0.0966463
0.0966588
0.0966471
0.0966534
0.0966341
0.0966526
0.0966465
0.0966648
0.0966464
0.0966513
0.096659
0.0966558
0.0966472
0.0966477
0.096649
0.0966603
0.0966476
0.0966552
0.0966536
0.0966661
0.0966477
0.0966488
0.0966517
0.0966492
0.0966473
0.0966492
0.0966616
0.0966551
0.096649
0.0966465
0.0966562
0.0966563
0.0966475
0.0966661
0.0966265
0.0966537
0.0966386
0.0966519
0.0966095
0.0966096
0.0966097
0.0966096
0.0966096
0.0966096
0.0966098
0.0966604
0.096669
0.0966543
0.0966511
0.0966492
0.0966491
0.0966561
0.096649
0.0966488
0.0966691
0.0966491
0.0966621
0.096644
0.0966615
0.0966531
0.096651
0.096649
0.0966652
0.0966536
0.0966513
0.0966537
0.0966513
0.0966487
0.0966444
0.0966511
0.0966533
0.0966622
0.0966495
0.0966484
0.0966493
0.0966508
0.0966532
0.0966561
0.0966493
0.096656
0.0966527
0.0966509
0.0966554
0.0966528
0.096649
0.0966586
0.0966515
0.0966684
0.0966343
0.0966603
0.0966616
0.0966532
0.0966516
0.0966579
0.0966269
0.0966531
0.0966515
0.0966343
0.0966775
0.0966777
0.0966535
0.0966491
0.0966519
0.0966495
0.0966847
0.0966846
0.0966549
0.0966554
0.0966553
0.0966271
0.0966486
0.0966592
0.0966508
0.0966505
0.0966508
0.0966263
0.0966588
0.0966489
0.0966535
0.0966535
0.0966505
0.0966512
0.0966505
0.0966508
0.0966321
0.0966385
0.0966512
0.0966536
0.0966515
0.0966503
0.0966513
0.0966518
0.0966515
0.0966344
0.0966629
0.0966493
0.0966578
0.0966589
0.0966342
0.096653
0.0966527
0.0966662
0.096677
0.096677
0.0966644
0.0966485
0.0966535
0.0966338
0.0966761
0.0966833
0.0966832
0.0966259
0.0966711
0.0966732
0.0966531
0.0966636
0.0966542
0.0966559
0.0966588
0.0966601
0.0966554
0.0966268
0.0966536
0.0966576
0.0966592
0.0966303
0.0966718
0.0966339
0.0966589
0.0966564
0.096647
0.096654
0.0966551
0.0966665
0.0966554
0.0966665
0.0966532
0.0966594
0.0966726
0.096673
0.096634
0.0966566
0.0966266
0.0966273
0.0966258
0.0966587
0.0966267
0.0966251
0.0966504
0.0966261
0.0966683
0.0966682
0.0966268
0.0966515
0.0966323
0.0966266
0.0966316
0.0966265
0.0966316
0.0966715
0.0966329
0.0966268
0.0966266
0.096655
0.0966608
0.0966312
0.0966552
0.0966252
0.0966562
0.0966517
0.0966262
0.0966307
0.0966257
0.0966259
0.0966528
0.0966691
0.0966824
0.0966819
0.0966568
0.0966823
0.0966823
0.0966821
0.0966786
0.0966335
0.0966722
0.0966647
0.0966693
0.0966564
0.0966797
0.0966796
0.09667
0.0966255
0.0966514
0.0966263
0.0966336
0.0966334
0.0966755
0.0966754
0.0966751
0.0966752
0.0966754
0.0966818
0.0966753
0.0966798
0.0966828
0.0966758
0.0966758
0.096683
0.0966818
0.0966798
0.0966751
SCALARS rr_tsim float
LOOKUP_TABLE default
220
220
220
220
220
220
220
220
220
220
220
220
220
220
220
220
220
220
220
220
220
220
220
220
220
220
220
220
220
220
220
220
220
220
220
220
220
220
220
220
220
220
220
220
220
220
220
220
220
220
220
220
220
220
220
220
220
220
220
220
220
220
220
220
220
220
220
220
220
220
220
220
220
220
220
220
220
220
220
220
220
220
220
220
220
220
220
220
220
220
220
220
220
220
220
220
220
220
220
220
220
220
220
220
220
220
220
220
220
220
220
220
220
220
220
220
220
220
220
220
220
220
220
220
220
220
220
220
220
220
220
220
220
220
220
220
220
220
220
220
220
220
220
220
220
220
220
220
220
220
220
220
220
220
220
220
220
220
220
220
220
220
220
220
220
220
220
220
220
220
220
220
220
220
220
220
220
220
220
220
220
220
220
220
220
220
220
220
220
220
220
220
220
220
220
220
220
220
220
220
220
220
220
220
220
220
220
220
220
220
220
220
220
220
220
220
220
220
220
220
220
220
220
220
220
220
220
220
220
220
220
220
220
220
220
220
220
220
220
220
220
220
220
220
220
220
220
220
220
220
220
220
220
220
220
220
220
220
220
220
220
220
220
220
220
220
220
220
220
220
220
220
220
220
220
220
220
220
220
220
220
220
220
220
220
220
220
220
220
220
220
220
220
220
220
220
220
220
220
220
220
220
220
220
220
220
220
220
220
220
220
220
220
220
220
220
220
220
220
220
220
220
220
220
220
220
220
220
220
220
220
220
220
220
220
220
220
220
220
220
220
220
220
220
220
220
220
220
220
220
220
220
220
220
220
220
220
220
220
220
220
220
220
220
220
220
220
220
220
220
220
220
220
220
220
220
220
220
220
220
220
220
220
220
220
220
220
220
220
220
220
220
220
220
220
220
220
220
220
220
220
220
220
220
220
220
220
220
220
220
220
220
220
220
220
220
220
220
220
220
220
220
220
220
220
220
220
220
220
220
220
220
220
220
220
220
220
220
220
220
220
220
220
220
220
220
220
220
220
220
220
220
220
220
220
220
220
220
220
220
220
220
220
220
220
220
220
220
220
220
220
220
220
220
220
220
220
220
220
220
220
220
220
220
220
220
220
220
220
220
220
220
220
220
220
220
220
220
220
220
220
220
220
220
220
220
220
220
220
220
220
220
220
220
220
220
220
220
220
220
220
220
220
220
220
220
220
220
220
220
220
220
220
220
220
220
220
220
220
220
220
220
220
220
220
220
220
220
220
220
220
220
220
220
220
220
220
220
220
220
220
220
220
SCALARS rr_Vext float
LOOKUP_TABLE default
0.181359
0.449125
0.35605
0.468111
0.250493
0.377829
0.179275
0.465091
0.395108
0.504567
0.165389
0.46651
0.409827
0.435015
0.516137
0.424866
0.369045
0.414186
0.365533
0.360528
0.40511
0.0765107
0.415071
0.383016
0.347107
0.403473
0.15501
0.352836
0.267414
0.339247
0.361971
0.276486
0.17152
0.252902
0.249248
0.253452
0.330127
0.249491
0.361541
0.192837
0.224722
0.291051
0.29106
0.397273
0.216886
0.244121
0.344613
0.350185
0.33008
0.303762
0.312855
0.245237
0.401519
0.315208
0.369415
0.157754
0.266179
0.317517
0.266151
0.393186
0.470931
0.464874
0.153276
0.327643
0.445315
0.417375
0.455656
0.391906
0.357987
0.515558
0.435556
0.430792
0.277655
0.338746
0.353973
0.176426
0.372677
0.413478
0.395171
0.271134
0.240491
0.283507
0.527533
0.240251
0.327761
0.119292
0.407581
0.34461
0.229706
0.0374829
0.273093
0.0407608
0.316358
0.299313
0.25866
0.232984
0.220909
0.442932
0.372912
0.351857
0.293536
0.27777
0.230479
0.418577
0.426139
0.383833
0.340627
0.340849
0.244629
0.51252
0.326027
0.164039
0.220057
0.45788
0.42972
0.304483
0.308631
0.183509
0.320036
0.303367
0.266987
0.50265
0.511812
0.442041
0.484527
0.384953
0.220815
0.478212
0.200079
0.26228
0.227504
0.456396
0.449025
0.44825
0.288938
0.187537
0.190639
0.327441
0.404469
0.18746
0.241542
0.387291
0.28797
0.472759
0.223276
0.385191
0.349732
0.336128
0.21479
0.269547
0.3043
0.440627
0.248027
0.397412
0.461991
0.469244
0.307857
0.249009
0.247657
0.401137
0.333854
0.246118
0.160077
0.239705
0.240467
0.430957
0.252349
0.255101
0.274621
0.245939
0.386345
0.258184
0.226059
0.297715
0.272812
0.340307
0.382119
0.361134
0.313978
0.360846
0.266568
0.418247
0.448853
0.241615
0.442301
0.23944
0.436796
0.402738
0.378966
0.379416
0.446228
0.200775
0.266929
0.246017
0.447411
0.439022
0.4072
0.447895
0.452953
0.381866
0.46657
0.307716
0.274111
0.512732
0.285548
0.465955
0.369962
0.226655
0.286342
0.461726
0.389035
0.350309
0.450057
0.445257
0.27886
0.284222
0.267543
0.395454
0.43342
0.498093
0.47809
0.520372
0.471559
0.515288
0.432056
0.457202
0.460652
0.434355
0.456358
0.422919
0.416636
0.282412
0.389411
0.454296
0.312121
0.470273
0.432157
0.492661
0.288247
0.468278
0.448678
0.284501
0.406914
0.28247
0.455239
0.41129
0.296256
0.277678
0.235553
0.271098
0.455774
0.197501
0.347021
0.276528
0.313904
0.468672
0.455549
0.147789
0.457105
0.236431
0.261765
0.466271
0.379028
0.264586
0.522183
0.291231
0.14778
0.267725
0.4064
0.508923
0.38269
0.457756
0.425156
0.226615
0.216732
0.175979
0.201428
0.308135
0.229076
0.371982
0.227525
0.406393
0.287623
0.268102
0.323954
0.293523
0.398522
0.281487
0.287597
0.13637
0.303572
0.437811
0.438059
0.391525
0.281116
0.192359
0.545879
0.360489
0.298318
0.274292
0.284976
0.28273
0.358843
0.278092
0.192059
0.274792
0.183496
0.351068
0.279577
0.127091
0.263722
0.321338
0.279315
0.44367
0.290711
0.381468
0.138315
0.305662
0.287014
0.261624
0.269318
0.321992
0.308723
0.321046
0.266564
0.271164
0.29386
0.403602
0.276096
0.399023
0.358788
0.290797
0.286474
0.290123
0.323373
0.289913
0.270118
0.308529
0.33303
0.387867
0.29017
0.286354
0.425143
0.419249
0.276212
0.290835
0.117369
0.342064
0.227678
0.319681
0.126304
0.131123
0.117233
0.119129
0.126411
0.133076
0.137186
0.365819
0.275203
0.269664
0.305534
0.296207
0.292408
0.31471
0.285994
0.292387
0.310823
0.291314
0.368788
0.261064
0.378833
0.289103
0.277579
0.291596
0.322765
0.328994
0.304696
0.351049
0.326031
0.30039
0.213975
0.30386
0.298862
0.328281
0.305309
0.288519
0.275036
0.304063
0.319092
0.436161
0.283306
0.424001
0.438659
0.298865
0.422863
0.322475
0.255678
0.356793
0.307318
0.229504
0.18527
0.353349
0.377139
0.313432
0.259543
0.317013
0.138204
0.309864
0.289513
0.140569
0.0597486
0.0653754
0.268652
0.283294
0.331357
0.316586
0.0311308
0.0325286
0.31818
0.321542
0.304242
0.103724
0.264726
0.315903
0.315641
0.272075
0.240282
0.107863
0.464466
0.284945
0.35216
0.357671
0.255163
0.323445
0.249475
0.27548
0.129739
0.199381
0.323805
0.32775
0.280325
0.293563
0.303657
0.320504
0.306409
0.143961
0.275779
0.301353
0.290884
0.437487
0.143857
0.233731
0.240572
0.234522
0.155625
0.155629
0.267699
0.208507
0.301873
0.153856
0.185526
0.0614167
0.0614142
0.11231
0.199633
0.134971
0.257
0.284537
0.297806
0.337
0.307417
0.285231
0.222216
0.127171
0.278049
0.29058
0.282438
0.144129
0.147645
0.104629
0.281947
0.28597
0.22418
0.258249
0.238712
0.22379
0.29291
0.223757
0.257203
0.251386
0.158046
0.19524
0.165308
0.310645
0.112706
0.118918
0.115939
0.294533
0.10769
0.104733
0.200916
0.097932
0.243154
0.243508
0.100659
0.255444
0.113722
0.110989
0.127155
0.105858
0.105723
0.174205
0.126241
0.112774
0.106277
0.23581
0.272658
0.118743
0.260316
0.0960767
0.264787
0.208172
0.100551
0.086435
0.0948696
0.12646
0.225551
0.192179
0.0824425
0.0914072
0.253856
0.0775859
0.0775826
0.0878716
0.097962
0.099585
0.127334
0.207532
0.193794
0.253767
0.0775242
0.0775209
0.229252
0.0843466
0.178713
0.076519
0.0783414
0.103271
0.198595
0.205596
0.218906
0.200659
0.19858
0.0438924
0.320381
0.0557537
0.0543418
0.259008
0.257238
0.0563345
0.0390572
0.0548044
0.23856
SCALARS rr_Vli float
LOOKUP_TABLE default
0.396487
0.903297
0.721403
0.942903
0.493003
0.765665
0.392034
0.93767
0.806267
1.01512
0.359835
0.940542
0.827702
0.874154
1.02412
0.859728
0.739394
0.835915
0.748796
0.732053
0.82348
0.146196
0.843738
0.777626
0.704887
0.81314
0.333349
0.714257
0.560608
0.659801
0.731225
0.579528
0.369272
0.494392
0.485904
0.495506
0.641457
0.486896
0.730482
0.415065
0.47121
0.56533
0.565389
0.802514
0.463322
0.511147
0.704661
0.713571
0.668681
0.640142
0.657314
0.509709
0.791281
0.654954
0.728499
0.336094
0.518808
0.659756
0.518791
0.798046
0.943864
0.92503
0.32784
0.652218
0.88601
0.836195
0.913
0.789773
0.727289
1.03671
0.858506
0.849152
0.58221
0.676852
0.716969
0.381182
0.738159
0.828439
0.796421
0.56248
0.507623
0.556448
1.05351
0.508332
0.685384
0.254579
0.825075
0.689487
0.490661
0.0719434
0.567528
0.0782461
0.62635
0.600259
0.537108
0.489902
0.466217
0.891214
0.738707
0.711148
0.604217
0.579673
0.487749
0.84411
0.858081
0.772714
0.679546
0.689379
0.517759
1.02965
0.661678
0.349478
0.467059
0.923821
0.865436
0.632491
0.601613
0.387411
0.624001
0.629991
0.547959
0.998312
1.02947
0.884278
0.972856
0.763253
0.43175
0.962236
0.422252
0.544646
0.448453
0.91848
0.89711
0.901823
0.602899
0.365537
0.404181
0.660931
0.807732
0.365414
0.503538
0.778934
0.590241
0.95106
0.471531
0.776065
0.704322
0.680954
0.435247
0.556268
0.620247
0.886307
0.519982
0.802497
0.929442
0.944262
0.617853
0.518656
0.515713
0.810197
0.680206
0.515659
0.341238
0.503638
0.500928
0.867514
0.525645
0.531443
0.575696
0.512236
0.764768
0.536473
0.475015
0.597025
0.566758
0.6791
0.756452
0.728158
0.618511
0.726373
0.55876
0.841636
0.903304
0.503622
0.884782
0.503408
0.873807
0.803283
0.749915
0.763389
0.892542
0.423344
0.55457
0.515691
0.90021
0.8863
0.821711
0.894904
0.911196
0.765271
0.938416
0.629674
0.568292
1.02454
0.598471
0.930552
0.741278
0.47324
0.569198
0.928574
0.772728
0.703605
0.906435
0.889137
0.575329
0.570471
0.5542
0.788782
0.870377
1.00028
0.961016
1.04558
0.947452
1.03539
0.868712
0.907697
0.914769
0.862344
0.905932
0.83393
0.821516
0.583004
0.782794
0.915907
0.636238
0.933121
0.85721
0.993024
0.597476
0.944369
0.902755
0.586736
0.808802
0.582774
0.908855
0.829726
0.61088
0.574981
0.497305
0.572062
0.910102
0.417614
0.701481
0.572846
0.642712
0.945257
0.914967
0.286927
0.918294
0.500197
0.542259
0.940101
0.764201
0.548649
1.04888
0.596676
0.286928
0.5545
0.815978
1.01856
0.772234
0.908466
0.850823
0.446601
0.437753
0.374434
0.429883
0.608684
0.46556
0.749992
0.469385
0.807669
0.576817
0.55534
0.649547
0.603995
0.802277
0.579179
0.59602
0.263019
0.600443
0.868511
0.86913
0.787209
0.578063
0.376388
1.09285
0.7343
0.613259
0.565367
0.562958
0.583124
0.71046
0.572677
0.410196
0.565167
0.387691
0.700126
0.576599
0.245149
0.543077
0.642114
0.57662
0.88724
0.598798
0.772174
0.296222
0.619803
0.592062
0.51704
0.555817
0.655879
0.617315
0.64555
0.54901
0.557648
0.602197
0.804986
0.567871
0.804506
0.726243
0.573155
0.589128
0.594776
0.657843
0.593795
0.555994
0.631808
0.662547
0.78218
0.594651
0.59081
0.855287
0.843308
0.5683
0.573278
0.256088
0.692602
0.480627
0.650104
0.287606
0.29855
0.266803
0.271172
0.287682
0.303056
0.312311
0.729344
0.539723
0.544565
0.622604
0.606501
0.598933
0.63352
0.586131
0.599484
0.60947
0.596712
0.732659
0.542545
0.753107
0.586004
0.565699
0.597465
0.637467
0.666113
0.620592
0.710716
0.663997
0.615742
0.44404
0.619297
0.605572
0.652004
0.624637
0.591868
0.562872
0.620018
0.646721
0.877917
0.579858
0.853548
0.889739
0.609277
0.852429
0.653929
0.52384
0.713543
0.625425
0.450401
0.395665
0.704468
0.750313
0.635201
0.528049
0.635253
0.301236
0.628021
0.589265
0.300912
0.115298
0.126126
0.544004
0.580097
0.673737
0.647662
0.0592774
0.0619389
0.641397
0.648087
0.613482
0.226113
0.542804
0.631012
0.643417
0.555014
0.489878
0.235469
0.929283
0.583733
0.713232
0.724383
0.520583
0.658848
0.50899
0.561647
0.279102
0.421177
0.659632
0.663708
0.570434
0.599124
0.618256
0.651893
0.623523
0.307428
0.547097
0.616832
0.583015
0.874902
0.307368
0.473534
0.487754
0.462241
0.300515
0.300535
0.529554
0.427593
0.611536
0.329006
0.358876
0.117176
0.117176
0.245398
0.389619
0.262494
0.521051
0.56354
0.601412
0.677647
0.614657
0.56907
0.448036
0.277251
0.562546
0.5828
0.564248
0.311557
0.287924
0.224284
0.563452
0.57485
0.461942
0.521747
0.481454
0.440837
0.590094
0.440798
0.520822
0.502147
0.307811
0.380027
0.353394
0.623982
0.246786
0.25998
0.254334
0.589283
0.234981
0.230138
0.410009
0.214644
0.477121
0.477843
0.220334
0.519611
0.244574
0.243122
0.273901
0.231958
0.227739
0.33983
0.270697
0.245997
0.232678
0.475749
0.543002
0.256116
0.525108
0.211012
0.532689
0.423219
0.220454
0.186663
0.208255
0.276319
0.457467
0.376608
0.157552
0.174883
0.509986
0.148307
0.148306
0.168049
0.188628
0.213206
0.248113
0.410274
0.379761
0.510341
0.149004
0.149003
0.448511
0.184462
0.36361
0.167149
0.16815
0.221554
0.384549
0.398195
0.424214
0.388779
0.38454
0.0840102
0.620731
0.107163
0.103829
0.501445
0.497965
0.107596
0.0747329
0.105301
0.462543
SCALARS rr_S_ext' float
LOOKUP_TABLE default
-0.000490002
-0.00111862
-0.000893217
-0.00116762
-0.000610826
-0.000948016
-0.000484496
-0.00116113
-0.000998128
-0.00125708
-0.000444749
-0.00116468
-0.00102491
-0.00108255
-0.00126863
-0.00106452
-0.000915725
-0.00103509
-0.000926893
-0.000906357
-0.00101953
-0.000181251
-0.0010446
-0.000962783
-0.00087272
-0.00100692
-0.000412141
-0.000884385
-0.000693558
-0.000817692
-0.000905443
-0.000716967
-0.000456543
-0.000612633
-0.000602157
-0.000614013
-0.000794974
-0.000603372
-0.000904518
-0.000513161
-0.000582955
-0.000700633
-0.000700706
-0.000993717
-0.000572928
-0.000632388
-0.0008723
-0.000883405
-0.000827941
-0.00079185
-0.000813153
-0.000630722
-0.000980355
-0.000810458
-0.000902559
-0.000415635
-0.000642935
-0.000816398
-0.000642913
-0.000988071
-0.00116894
-0.00114582
-0.000405388
-0.000807883
-0.00109748
-0.00103562
-0.00113073
-0.00097799
-0.000900447
-0.00128383
-0.00106364
-0.00105205
-0.000720279
-0.000838325
-0.000887734
-0.000471224
-0.00091444
-0.00102601
-0.000986219
-0.00069605
-0.000627904
-0.000689477
-0.00130484
-0.000628741
-0.00084798
-0.000314813
-0.0010216
-0.000853948
-0.000606735
-8.91853e-05
-0.000702272
-9.69981e-05
-0.000775934
-0.000743396
-0.000664643
-0.000606036
-0.000576689
-0.00110364
-0.000915117
-0.000880572
-0.000747843
-0.000717228
-0.000603279
-0.00104526
-0.00106259
-0.000956887
-0.000841687
-0.000853603
-0.000640396
-0.00127511
-0.000819233
-0.000432183
-0.000577645
-0.00114395
-0.0010717
-0.000782668
-0.000745551
-0.000479207
-0.000773291
-0.000779579
-0.000678258
-0.00123663
-0.00127486
-0.0010952
-0.00120479
-0.000945497
-0.00053501
-0.00119159
-0.000522308
-0.000673969
-0.000555604
-0.0011374
-0.00111112
-0.00111678
-0.000745969
-0.000452992
-0.000499898
-0.000818417
-0.00100043
-0.000452839
-0.000623042
-0.000964616
-0.000730618
-0.00117776
-0.000583254
-0.000961017
-0.00087219
-0.000843138
-0.000538906
-0.000688452
-0.000767861
-0.00109757
-0.000643295
-0.000993704
-0.00115099
-0.00116933
-0.000765173
-0.000641764
-0.000638125
-0.00100323
-0.0008421
-0.000637957
-0.000421988
-0.000623042
-0.000619824
-0.00107428
-0.000650409
-0.000657582
-0.000712224
-0.000633819
-0.000947412
-0.000663846
-0.000587631
-0.000739392
-0.000701325
-0.00084113
-0.000937109
-0.000901683
-0.000766313
-0.000899504
-0.000691275
-0.00104225
-0.00111861
-0.000623148
-0.00109583
-0.000622748
-0.00108223
-0.000994957
-0.000929021
-0.000945352
-0.00110544
-0.00052367
-0.00068624
-0.000637989
-0.00111478
-0.00109747
-0.00101751
-0.00110839
-0.00112839
-0.000947774
-0.0011621
-0.00077946
-0.000703255
-0.00126894
-0.000740406
-0.00115255
-0.000918062
-0.000585531
-0.000705071
-0.00114991
-0.000957202
-0.000871357
-0.00112247
-0.00110126
-0.000712047
-0.000706493
-0.000685831
-0.000976996
-0.00107788
-0.00123875
-0.0011901
-0.00129484
-0.00117331
-0.00128221
-0.0010758
-0.0011244
-0.00113315
-0.00106821
-0.00112221
-0.00103318
-0.0010178
-0.000721536
-0.000969402
-0.00113416
-0.00078766
-0.0011559
-0.00106188
-0.00122966
-0.000739372
-0.00116939
-0.00111794
-0.000726173
-0.00100187
-0.000721263
-0.00112569
-0.00102742
-0.000756058
-0.000711554
-0.000615138
-0.00070761
-0.00112723
-0.000516547
-0.000868598
-0.000708905
-0.000795587
-0.00117049
-0.00113309
-0.000355603
-0.00113721
-0.000618687
-0.000671051
-0.00116411
-0.000946315
-0.000678944
-0.00129892
-0.000738591
-0.000355604
-0.000686205
-0.00101051
-0.0012615
-0.00095624
-0.00112536
-0.00105376
-0.000553316
-0.00054205
-0.000463062
-0.000531595
-0.000754089
-0.0005764
-0.000928721
-0.00058093
-0.00100047
-0.000714365
-0.000687242
-0.000804442
-0.000747575
-0.000993501
-0.000716862
-0.000737574
-0.00032602
-0.000743855
-0.00107587
-0.00107664
-0.000974866
-0.000715491
-0.000466397
-0.0013535
-0.000909073
-0.000759059
-0.000699737
-0.00069744
-0.000721701
-0.000880132
-0.000708801
-0.000507237
-0.000699525
-0.000479545
-0.000867187
-0.000713626
-0.000303869
-0.000672165
-0.000795294
-0.000713635
-0.00109888
-0.000741125
-0.000956101
-0.000366282
-0.000767403
-0.000732761
-0.000640545
-0.000687893
-0.000811987
-0.000764571
-0.000799432
-0.000679505
-0.000690221
-0.000745421
-0.000997067
-0.000702871
-0.000996227
-0.00089923
-0.000710109
-0.000729186
-0.000736229
-0.000814444
-0.000735032
-0.00068816
-0.000782089
-0.000820686
-0.000968575
-0.000736082
-0.000731206
-0.00105916
-0.00104433
-0.000703397
-0.000710261
-0.000316496
-0.000857571
-0.00059451
-0.000804869
-0.000355037
-0.000368548
-0.000329361
-0.000334752
-0.000355135
-0.00037411
-0.000385539
-0.000903381
-0.000668759
-0.000674312
-0.000770784
-0.000750762
-0.000741391
-0.000784521
-0.000725533
-0.000742055
-0.000755184
-0.000738641
-0.000907563
-0.000671356
-0.00093287
-0.000725562
-0.000700335
-0.000739569
-0.000789752
-0.000824774
-0.000768303
-0.000880002
-0.00082204
-0.000762183
-0.000549481
-0.000766687
-0.000749799
-0.00080766
-0.000773227
-0.000732617
-0.000696765
-0.000767571
-0.000800744
-0.00108717
-0.000717789
-0.00105699
-0.00110162
-0.000754278
-0.00105557
-0.000809657
-0.000648431
-0.000883748
-0.000774302
-0.000558075
-0.00048927
-0.000872573
-0.000929401
-0.000786481
-0.000653752
-0.000786749
-0.000372305
-0.000777588
-0.000729533
-0.000372085
-0.000142914
-0.000156337
-0.000673576
-0.000718078
-0.000834132
-0.000801732
-7.34969e-05
-7.67968e-05
-0.000794246
-0.000802538
-0.000759678
-0.000279459
-0.000671892
-0.000781551
-0.000796547
-0.000687094
-0.000606463
-0.00029101
-0.00115094
-0.000722571
-0.00088311
-0.000896917
-0.000644465
-0.000815663
-0.000630113
-0.000695313
-0.000345069
-0.000520965
-0.000816631
-0.000821793
-0.000706222
-0.000741692
-0.000765419
-0.000807081
-0.000771948
-0.000380158
-0.000677723
-0.000763556
-0.00072205
-0.0010836
-0.000380079
-0.000586314
-0.00060391
-0.000572691
-0.000372486
-0.000372511
-0.000656031
-0.00052928
-0.000757187
-0.000406827
-0.000444807
-0.000145278
-0.000145277
-0.000303274
-0.000482823
-0.00032531
-0.000645139
-0.000698119
-0.000744703
-0.000839181
-0.000761277
-0.000704853
-0.000554807
-0.000342659
-0.000696551
-0.000721773
-0.000698857
-0.000385147
-0.000356805
-0.000277324
-0.000697865
-0.00071189
-0.000571734
-0.000646053
-0.000596184
-0.000546177
-0.000730732
-0.000546128
-0.000644874
-0.000621946
-0.000381459
-0.000470961
-0.000436988
-0.000772744
-0.00030498
-0.0003213
-0.000314292
-0.000729843
-0.000290412
-0.000284379
-0.000507576
-0.000265252
-0.000591188
-0.000592082
-0.000272293
-0.000643304
-0.000302384
-0.000300451
-0.000338628
-0.000286651
-0.000281557
-0.000421128
-0.000334704
-0.000304028
-0.000287546
-0.000589116
-0.000672592
-0.00031663
-0.000650239
-0.000260748
-0.000659667
-0.000523974
-0.000272431
-0.000230759
-0.000257347
-0.000341486
-0.000566407
-0.000466657
-0.000195329
-0.00021681
-0.000631571
-0.000183867
-0.000183865
-0.000208339
-0.000233818
-0.000263629
-0.000307476
-0.000508271
-0.000470563
-0.000631995
-0.000184709
-0.000184708
-0.000555775
-0.00022796
-0.000450166
-0.000206573
-0.000207909
-0.00027394
-0.000476617
-0.000493527
-0.000525769
-0.000481853
-0.000476604
-0.00010415
-0.000769337
-0.000132842
-0.000128725
-0.000621501
-0.00061719
-0.000133397
-9.26497e-05
-0.000130534
-0.000573267
SCALARS rr_P_ext' float
LOOKUP_TABLE default
0.000171753
0.000396752
0.000316487
0.000414048
0.000217279
0.000335895
0.000169817
0.000411692
0.000353313
0.000445844
0.000156005
0.000412952
0.000363308
0.000384005
0.000450783
0.000377249
0.000324959
0.000366954
0.000327924
0.000321048
0.000361081
6.47244e-05
0.000369963
0.000341041
0.000309128
0.000357036
0.000144811
0.000313396
0.000244583
0.000291324
0.000320948
0.000252844
0.000160386
0.000218119
0.000214466
0.000218608
0.000283266
0.000214868
0.000320613
0.000180282
0.000205573
0.000249662
0.000249685
0.00035224
0.0002015
0.000223049
0.000308687
0.000312765
0.000293364
0.000279038
0.000286668
0.000222693
0.000348666
0.000286164
0.000320968
0.000146235
0.000228995
0.000288261
0.000228985
0.000350012
0.000414798
0.000406985
0.000142549
0.000286938
0.000389824
0.000367505
0.000401252
0.00034678
0.000318931
0.000455363
0.000378277
0.000374153
0.000253998
0.0002976
0.000314557
0.000165459
0.000325002
0.000364093
0.000349694
0.000245823
0.000221213
0.000245345
0.000463247
0.000221433
0.000299145
0.000110736
0.000362021
0.000303092
0.000213393
3.18296e-05
0.00024796
3.46173e-05
0.000275792
0.00026377
0.000234699
0.000213627
0.000203174
0.000391418
0.000325238
0.000312111
0.000264401
0.000253091
0.00021246
0.000370598
0.000376821
0.000339345
0.000298858
0.000302524
0.000225527
0.000452328
0.000290207
0.000152059
0.000203348
0.000405562
0.00038004
0.000276362
0.000265541
0.000168822
0.000275412
0.000275283
0.000239897
0.000439356
0.000452165
0.00038873
0.000427418
0.000335997
0.000190477
0.000422609
0.000184015
0.000237991
0.000197596
0.000403381
0.000394449
0.000396084
0.000263238
0.000161343
0.000176005
0.000290133
0.000355176
0.000161287
0.000219888
0.000342129
0.000258464
0.000417714
0.000205467
0.000340773
0.000309292
0.000298748
0.000190943
0.000243317
0.000271848
0.000389282
0.000226857
0.000352253
0.000408216
0.000414709
0.000271469
0.000226522
0.000225246
0.00035562
0.000298147
0.000224994
0.000148459
0.000219646
0.000218775
0.000380982
0.000229572
0.0002321
0.000251167
0.00022372
0.00033675
0.000234396
0.000207159
0.000262351
0.000247637
0.000298649
0.000333084
0.000319699
0.000272555
0.000318999
0.000243782
0.000369638
0.000396716
0.00021993
0.000388953
0.000219521
0.000384125
0.000353289
0.000330227
0.00033528
0.00039237
0.000184518
0.000242308
0.00022499
0.00039537
0.000389053
0.000360726
0.000393476
0.000400207
0.000336319
0.000412174
0.000275805
0.00024839
0.000450467
0.000261113
0.00040918
0.000325784
0.000206604
0.00025047
0.000407858
0.000340073
0.000309108
0.000398042
0.000390975
0.000251666
0.000250648
0.000242264
0.000346909
0.000382385
0.000439455
0.00042214
0.000459317
0.000416212
0.000454837
0.000381579
0.000399501
0.000402598
0.00037954
0.00039873
0.000367426
0.000361958
0.000254998
0.000343852
0.000402135
0.000278853
0.000410728
0.000377333
0.00043601
0.000261154
0.000414612
0.000396489
0.000256672
0.00035591
0.000254923
0.00039966
0.00036426
0.000267241
0.000251364
0.000216709
0.000249306
0.000400196
0.000181935
0.000307861
0.000250413
0.000281489
0.000414996
0.000401964
0.000126722
0.000403412
0.000217894
0.000237042
0.000412754
0.000335526
0.000239797
0.000460788
0.000261299
0.000126721
0.000242401
0.000358495
0.000447726
0.000339007
0.000399863
0.000374001
0.000196787
0.000192143
0.000162953
0.000186989
0.000268109
0.000204146
0.000329287
0.000205325
0.000355418
0.000253469
0.000242764
0.000285438
0.000264318
0.000352329
0.000253462
0.000260526
0.00011628
0.000264425
0.000382302
0.000382565
0.00034578
0.000252998
0.000166033
0.00048036
0.00032187
0.000268415
0.000247346
0.000247966
0.000255089
0.000312828
0.000250582
0.000178402
0.000247346
0.000168922
0.000307926
0.000252236
0.000108378
0.000237631
0.000282323
0.000252205
0.000390053
0.000262002
0.000338812
0.000128774
0.000271879
0.000258992
0.000227726
0.000243118
0.000287495
0.000271391
0.000283553
0.000240221
0.00024406
0.000263708
0.000354039
0.000248528
0.000353223
0.00031866
0.000252547
0.000257838
0.000260441
0.000288416
0.000260051
0.000243301
0.000276706
0.00029151
0.000343408
0.000260402
0.000258436
0.00037565
0.000370397
0.000248703
0.000252598
0.000110971
0.000303884
0.000209445
0.000285039
0.000123691
0.0001284
0.000114756
0.000116631
0.000123737
0.000130334
0.000134322
0.000320791
0.000238
0.000239033
0.000272892
0.000265628
0.000262299
0.00027822
0.000256668
0.000262498
0.000268764
0.000261325
0.000322429
0.000237043
0.000331393
0.000257069
0.000247946
0.000261642
0.000280795
0.000292264
0.000272032
0.000311838
0.000291061
0.000269627
0.000194051
0.000271435
0.000265668
0.000286947
0.000273606
0.000259141
0.00024654
0.000271729
0.000283709
0.000385556
0.000253975
0.000374847
0.00039027
0.000267032
0.000374273
0.000286847
0.000229402
0.000313688
0.000274186
0.000198591
0.000172085
0.000309851
0.000330125
0.000278659
0.000231507
0.000279182
0.000130559
0.000275506
0.000258328
0.000130823
5.09691e-05
5.57578e-05
0.000238683
0.000254061
0.000295409
0.000283695
2.62574e-05
2.74363e-05
0.000281616
0.00028456
0.000269347
9.79976e-05
0.000237677
0.000277459
0.000281999
0.000243225
0.0002147
0.000102027
0.000408504
0.000255636
0.000312923
0.000317816
0.000228131
0.000288796
0.00022305
0.000246154
0.000121238
0.000183517
0.000289136
0.000291201
0.000250082
0.000262536
0.000271023
0.000285815
0.000273356
0.000133709
0.00024082
0.000270167
0.000256216
0.000384626
0.000133671
0.000207747
0.00021396
0.000203675
0.000132833
0.000132841
0.000233202
0.000187225
0.000268294
0.000143061
0.000158587
5.18886e-05
5.1888e-05
0.000106313
0.000171938
0.000115901
0.000228567
0.000248122
0.000263984
0.00029765
0.000270226
0.000250269
0.000196712
0.000120159
0.000246852
0.000256095
0.000248096
0.000135225
0.000127076
9.74856e-05
0.000247733
0.000252511
0.000202108
0.000229001
0.000211373
0.000194261
0.000259117
0.000194242
0.000228511
0.000220796
0.00013588
0.000167774
0.000153673
0.000274125
0.000106876
0.00011262
0.000110109
0.000259044
0.000101824
9.96047e-05
0.000179669
9.29404e-05
0.000210377
0.000210694
9.54257e-05
0.000227814
0.000106245
0.000105282
0.000118953
0.000100442
9.89047e-05
0.000149977
0.000117652
0.000106604
0.000100768
0.000208858
0.000238873
0.000111204
0.000230533
9.13346e-05
0.000233962
0.000185569
9.5451e-05
8.10307e-05
9.01496e-05
0.000119708
0.000200662
0.000166091
6.97504e-05
7.74099e-05
0.00022404
6.56553e-05
6.56543e-05
7.43894e-05
8.34133e-05
9.26894e-05
0.000109519
0.000180692
0.000167483
0.000224158
6.59093e-05
6.59084e-05
0.000197853
7.99013e-05
0.000159413
7.24169e-05
7.3071e-05
9.62853e-05
0.000169906
0.000175929
0.000187408
0.000171759
0.0001699
3.71839e-05
0.000274234
4.74015e-05
4.59679e-05
0.00022156
0.000220026
4.76386e-05
3.30792e-05
4.65802e-05
0.000204325
SCALARS rr_S' float
LOOKUP_TABLE default
0.000276125
0.000631353
0.000504073
0.000658991
0.000344886
0.000534995
0.000273021
0.000655321
0.000563205
0.000709501
0.000250644
0.000657328
0.000578424
0.000611011
0.000716192
0.000600759
0.000516876
0.000584176
0.000522972
0.000511468
0.000575322
0.000102389
0.00058947
0.00054331
0.000492485
0.000568293
0.000232323
0.000499096
0.000391151
0.000461777
0.000511
0.000404353
0.000257347
0.000345944
0.000340046
0.000346723
0.000448954
0.000340726
0.000510476
0.000289263
0.000328771
0.000395679
0.00039572
0.000560819
0.000322999
0.00035666
0.000492186
0.000498484
0.000467236
0.00044654
0.00045858
0.00035577
0.000553516
0.000457157
0.000509586
0.000234336
0.000363075
0.000460508
0.000363063
0.000557583
0.000659799
0.000646829
0.000228542
0.000456059
0.000619546
0.000584551
0.00063823
0.000551965
0.000508127
0.0007246
0.000600537
0.000593993
0.000406219
0.000473212
0.000500982
0.000265603
0.000516256
0.000579128
0.000556608
0.000392633
0.000354077
0.000389313
0.000736553
0.000354533
0.000478265
0.000177486
0.000576532
0.00048202
0.00034206
5.03769e-05
0.000396131
5.47898e-05
0.000438064
0.0004196
0.000374911
0.00034177
0.000325199
0.000622899
0.000516638
0.000496959
0.000421912
0.000404536
0.000340174
0.000589921
0.000599723
0.000540064
0.000475122
0.000481732
0.000361102
0.000719689
0.000462306
0.000243665
0.000325701
0.000645616
0.00060486
0.000441484
0.000421023
0.000270226
0.000436687
0.000439744
0.000382673
0.000698116
0.000719537
0.000618198
0.000680008
0.000533778
0.000302112
0.000672537
0.000294533
0.000380171
0.000313696
0.000641947
0.000627197
0.000630311
0.000420748
0.000255811
0.000281871
0.000461892
0.00056472
0.000255724
0.000351419
0.000544437
0.000412226
0.000664732
0.000328897
0.000542387
0.000492259
0.000475812
0.000304122
0.000388386
0.000433283
0.000619471
0.000362803
0.000560815
0.000649622
0.000659968
0.000431886
0.000361986
0.000359935
0.000566188
0.000475178
0.000359796
0.000237914
0.000351365
0.000349609
0.000606324
0.000366861
0.000370907
0.000401678
0.000357504
0.000534875
0.000374457
0.000331395
0.000417341
0.000395599
0.000474805
0.000529058
0.000508894
0.00043267
0.000507679
0.000389864
0.000588245
0.000631344
0.00035148
0.000618556
0.000351196
0.000610878
0.000561644
0.000524496
0.000533559
0.000623983
0.000295306
0.00038709
0.000359811
0.000629182
0.000619381
0.000574252
0.000625654
0.000636864
0.000534965
0.000655895
0.000439796
0.000396703
0.000716282
0.000417574
0.00065059
0.000518196
0.000330251
0.000398029
0.000649017
0.000540371
0.000491813
0.000633514
0.000621636
0.000401699
0.000398765
0.00038688
0.000551505
0.000608373
0.000699174
0.0006717
0.000730823
0.000662234
0.000723697
0.00060719
0.00063476
0.000639698
0.000603043
0.000633527
0.000583336
0.000574653
0.000407047
0.000547142
0.000640093
0.000444455
0.000652553
0.000599475
0.000693993
0.000417077
0.000659976
0.000630966
0.000409671
0.00056558
0.000406898
0.000635429
0.000579848
0.000426532
0.000401393
0.000346877
0.000399025
0.000636296
0.000291273
0.000490199
0.000399896
0.00044889
0.000660594
0.000639537
0.000200827
0.000641857
0.000348866
0.000378542
0.000656998
0.000534084
0.000382987
0.000733134
0.000416728
0.000200827
0.000387092
0.000570353
0.000712061
0.000539676
0.000635306
0.000594805
0.000312407
0.000305914
0.000261081
0.000299704
0.000425748
0.000325264
0.000524155
0.00032773
0.00056479
0.000403214
0.000387676
0.000454059
0.000421763
0.000560731
0.000404436
0.000416065
0.00018414
0.00041996
0.000607374
0.000607804
0.000550224
0.000403668
0.000263363
0.00076399
0.000512971
0.00042825
0.000394762
0.000393764
0.000407148
0.00049689
0.000399882
0.000285966
0.000394658
0.000270412
0.00048952
0.000402592
0.000171628
0.000379213
0.000448921
0.00040259
0.000620277
0.000418117
0.000539569
0.00020649
0.000433065
0.000413386
0.000361639
0.00038807
0.000458187
0.000431575
0.000451205
0.000383354
0.00038941
0.000420579
0.000562835
0.000396546
0.000562254
0.000507475
0.000400933
0.000411394
0.00041539
0.000459585
0.000414722
0.00038824
0.000441274
0.00046329
0.000546645
0.00041531
0.000412507
0.000597799
0.000589429
0.00039684
0.000401019
0.000178356
0.000483962
0.000335246
0.000454184
0.000199896
0.000207504
0.000185442
0.000188477
0.000199954
0.000210635
0.000217071
0.000509953
0.000377617
0.000380558
0.000434934
0.000423599
0.00041831
0.000442783
0.000409358
0.000418676
0.000426418
0.000416758
0.000512347
0.000378692
0.000526624
0.000409455
0.000395181
0.000417279
0.000445884
0.000465454
0.000433539
0.000496622
0.000463862
0.000430034
0.000309953
0.000432621
0.000423137
0.00045595
0.00043628
0.000413347
0.000393136
0.000433116
0.000451884
0.000613601
0.000404997
0.000596567
0.000621666
0.000425617
0.00059575
0.000456909
0.000365857
0.000498843
0.00043693
0.000315116
0.000275837
0.000492563
0.000524661
0.000443836
0.000368907
0.000444076
0.00020981
0.000438816
0.000411667
0.000209764
8.07192e-05
8.83005e-05
0.000380125
0.000405157
0.0004707
0.000452365
4.15209e-05
4.33851e-05
0.00044826
0.000452942
0.000428749
0.000157487
0.000379089
0.000441166
0.00044947
0.000387703
0.000342209
0.000163991
0.000649658
0.000407689
0.000498373
0.000506164
0.000363648
0.000460262
0.000355549
0.000392345
0.000194514
0.00029377
0.000460807
0.00046377
0.000398514
0.000418507
0.000431914
0.000455431
0.000435603
0.000214324
0.000382604
0.00043082
0.000407556
0.000611653
0.000214277
0.000330877
0.000340802
0.000323346
0.00021038
0.000210394
0.000370375
0.000298625
0.000427307
0.000229353
0.000251219
8.20699e-05
8.20694e-05
0.000170899
0.000272652
0.000183713
0.00036407
0.00039413
0.000420285
0.00047364
0.000429714
0.000397881
0.000313124
0.000193102
0.000393098
0.000407395
0.000394487
0.000217084
0.000201491
0.000156338
0.000393924
0.0004018
0.00032255
0.000364609
0.000336474
0.000308377
0.000412419
0.00030835
0.000363928
0.000351073
0.000215417
0.000265963
0.000246358
0.000436151
0.000171856
0.000181059
0.000177097
0.000411968
0.000163657
0.000160236
0.000286406
0.000149466
0.000333816
0.00033432
0.000153438
0.000363012
0.000170454
0.000169303
0.000190878
0.000161526
0.000158708
0.000237814
0.000188682
0.000171331
0.000162032
0.000332484
0.000379682
0.000178473
0.000366981
0.000146922
0.000372319
0.000295678
0.000153511
0.000130068
0.000145007
0.000192433
0.000319636
0.000263504
0.000110341
0.000122473
0.000356471
0.000103865
0.000103864
0.000117689
0.000132067
0.00014862
0.000173636
0.000286958
0.000265709
0.000356703
0.000104332
0.000104331
0.000313835
0.000128456
0.000254024
0.000116408
0.000117203
0.000154428
0.00026918
0.000278729
0.000296936
0.000272135
0.000269173
5.88329e-05
0.000434497
7.50347e-05
7.27168e-05
0.000351008
0.000348574
7.53567e-05
5.23366e-05
7.37318e-05
0.000323758
SCALARS rr_P' float
LOOKUP_TABLE default
4.21242e-05
9.05109e-05
7.26577e-05
9.45784e-05
4.86611e-05
7.7125e-05
4.16589e-05
9.41136e-05
8.16101e-05
0.000101737
3.80994e-05
9.44026e-05
8.31775e-05
8.75376e-05
0.000101656
8.65121e-05
7.38901e-05
8.39615e-05
7.59972e-05
7.38413e-05
8.31272e-05
1.41379e-05
8.51725e-05
7.8432e-05
7.11072e-05
8.15932e-05
3.50066e-05
7.18935e-05
5.7825e-05
6.45908e-05
7.34948e-05
5.97693e-05
3.881e-05
4.85701e-05
4.76451e-05
4.86821e-05
6.27539e-05
4.77775e-05
7.34288e-05
4.36154e-05
4.86112e-05
5.52929e-05
5.53015e-05
8.06581e-05
4.84284e-05
5.26778e-05
7.1427e-05
7.21552e-05
6.73403e-05
6.62729e-05
6.79056e-05
5.22588e-05
7.81733e-05
6.71372e-05
7.20041e-05
3.50635e-05
5.08644e-05
6.76296e-05
5.08653e-05
8.04754e-05
9.43468e-05
9.20019e-05
3.42973e-05
6.48864e-05
8.81141e-05
8.35618e-05
9.12443e-05
7.92447e-05
7.33887e-05
0.000103864
8.48248e-05
8.3903e-05
6.00627e-05
6.75128e-05
7.21952e-05
4.01618e-05
7.31813e-05
8.27903e-05
7.99165e-05
5.75937e-05
5.26137e-05
5.48188e-05
0.000105043
5.27758e-05
7.05702e-05
2.65907e-05
8.30475e-05
6.88368e-05
5.12823e-05
6.97883e-06
5.81813e-05
7.59097e-06
6.20786e-05
6.0026e-05
5.50323e-05
5.06398e-05
4.83167e-05
8.93262e-05
7.32413e-05
7.15017e-05
6.15305e-05
5.96011e-05
5.06457e-05
8.47379e-05
8.60511e-05
7.74777e-05
6.77076e-05
6.93466e-05
5.37664e-05
0.000103091
6.67199e-05
3.64593e-05
4.85971e-05
9.27714e-05
8.67988e-05
6.4822e-05
5.89868e-05
4.01588e-05
6.11927e-05
6.45526e-05
5.56873e-05
9.91599e-05
0.000103161
8.8274e-05
9.7366e-05
7.57225e-05
4.24217e-05
9.64474e-05
4.37602e-05
5.58061e-05
4.43114e-05
9.20711e-05
8.94758e-05
9.03828e-05
6.19835e-05
3.58382e-05
4.20228e-05
6.63919e-05
8.05364e-05
3.5828e-05
5.17348e-05
7.80499e-05
5.99286e-05
9.53128e-05
4.88908e-05
7.78568e-05
7.06385e-05
6.85779e-05
4.38407e-05
5.67496e-05
6.27306e-05
8.88153e-05
5.36356e-05
8.06356e-05
9.31494e-05
9.46503e-05
6.18175e-05
5.3256e-05
5.29445e-05
8.14215e-05
6.87751e-05
5.31666e-05
3.56146e-05
5.20307e-05
5.144e-05
8.69785e-05
5.39757e-05
5.45759e-05
5.93797e-05
5.25947e-05
7.57873e-05
5.49925e-05
4.90771e-05
5.97007e-05
5.80891e-05
6.76766e-05
7.49666e-05
7.30903e-05
6.10877e-05
7.28268e-05
5.7629e-05
8.43632e-05
9.05503e-05
5.17385e-05
8.83235e-05
5.2031e-05
8.72302e-05
8.00245e-05
7.42985e-05
7.65126e-05
8.90913e-05
4.38458e-05
5.68422e-05
5.31874e-05
9.02265e-05
8.90405e-05
8.25274e-05
8.92594e-05
9.13161e-05
7.64894e-05
9.4032e-05
6.38586e-05
5.81629e-05
0.000102195
6.17194e-05
9.27848e-05
7.40817e-05
4.8675e-05
5.65715e-05
9.30388e-05
7.6758e-05
7.04358e-05
9.09138e-05
8.86499e-05
5.86829e-05
5.70805e-05
5.66865e-05
7.85818e-05
8.71191e-05
0.000100124
9.62565e-05
0.000104698
9.48675e-05
0.000103678
8.70277e-05
9.01352e-05
9.08529e-05
8.5632e-05
8.99538e-05
8.24193e-05
8.11907e-05
5.94904e-05
7.84083e-05
9.19286e-05
6.43516e-05
9.26236e-05
8.50692e-05
9.96526e-05
6.11408e-05
9.48044e-05
9.04815e-05
5.98299e-05
8.03801e-05
5.94421e-05
9.06009e-05
8.33152e-05
6.2285e-05
5.87968e-05
5.1552e-05
5.92802e-05
9.07375e-05
4.33381e-05
7.05372e-05
5.85961e-05
6.52076e-05
9.48999e-05
9.15928e-05
2.80543e-05
9.19399e-05
5.19277e-05
5.5467e-05
9.43603e-05
7.67055e-05
5.61599e-05
0.000105003
6.05643e-05
2.80555e-05
5.67118e-05
8.16644e-05
0.000101713
7.7557e-05
9.01889e-05
8.49569e-05
4.41216e-05
4.3993e-05
3.90276e-05
4.49027e-05
6.02326e-05
4.69901e-05
7.52791e-05
4.78744e-05
8.02609e-05
5.7682e-05
5.68019e-05
6.4946e-05
6.14942e-05
8.04416e-05
5.8964e-05
6.09841e-05
2.55998e-05
5.94702e-05
8.61965e-05
8.62667e-05
7.8862e-05
5.88252e-05
3.70009e-05
0.000109154
7.42322e-05
6.23943e-05
5.76285e-05
5.57093e-05
5.94644e-05
7.04146e-05
5.83365e-05
4.28688e-05
5.75206e-05
4.02103e-05
6.97409e-05
5.87975e-05
2.38622e-05
5.53207e-05
6.40508e-05
5.88396e-05
8.85492e-05
6.10069e-05
7.772e-05
3.10178e-05
6.24594e-05
6.03832e-05
5.11799e-05
5.6705e-05
6.63041e-05
6.16056e-05
6.46738e-05
5.59308e-05
5.67513e-05
6.11343e-05
8.01927e-05
5.77974e-05
8.07504e-05
7.30955e-05
5.66292e-05
5.99547e-05
6.03978e-05
6.64428e-05
6.02592e-05
5.66186e-05
6.41084e-05
6.58866e-05
7.85212e-05
6.03695e-05
6.02633e-05
8.57162e-05
8.45071e-05
5.78547e-05
5.66445e-05
2.71692e-05
6.97245e-05
4.98192e-05
6.56451e-05
3.14497e-05
3.26442e-05
2.91634e-05
2.9645e-05
3.14449e-05
3.31415e-05
3.41455e-05
7.26375e-05
5.3142e-05
5.47205e-05
6.29578e-05
6.15352e-05
6.07825e-05
6.35186e-05
5.95072e-05
6.08805e-05
6.00017e-05
6.05585e-05
7.2788e-05
5.56213e-05
7.48532e-05
5.90377e-05
5.72079e-05
6.06474e-05
6.30728e-05
6.70561e-05
6.2733e-05
7.15425e-05
6.71171e-05
6.2521e-05
4.54762e-05
6.26309e-05
6.09943e-05
6.47627e-05
6.33399e-05
6.01295e-05
5.70889e-05
6.27253e-05
6.51501e-05
8.80165e-05
5.88159e-05
8.55809e-05
8.96794e-05
6.16289e-05
8.55505e-05
6.59008e-05
5.31717e-05
7.12162e-05
6.31858e-05
4.43677e-05
4.13479e-05
7.01592e-05
7.46155e-05
6.39861e-05
5.33375e-05
6.34904e-05
3.19358e-05
6.32664e-05
5.95379e-05
3.14987e-05
1.12261e-05
1.22783e-05
5.47682e-05
5.8859e-05
6.80237e-05
6.56714e-05
5.71869e-06
5.97544e-06
6.43706e-05
6.50361e-05
6.15819e-05
2.3974e-05
5.51268e-05
6.29267e-05
6.50779e-05
5.61651e-05
4.95537e-05
2.49908e-05
9.27769e-05
5.9246e-05
7.18145e-05
7.29365e-05
5.26855e-05
6.6605e-05
5.1513e-05
5.68142e-05
2.93171e-05
4.36777e-05
6.66878e-05
6.6822e-05
5.7626e-05
6.06483e-05
6.24814e-05
6.58338e-05
6.299e-05
3.21257e-05
5.42988e-05
6.25689e-05
5.8278e-05
8.73196e-05
3.21312e-05
4.76904e-05
4.9148e-05
4.56706e-05
2.92734e-05
2.92763e-05
5.24535e-05
4.34304e-05
6.15855e-05
3.44135e-05
3.50003e-05
1.13197e-05
1.13199e-05
2.60613e-05
3.82337e-05
2.5696e-05
5.25025e-05
5.58665e-05
6.04337e-05
6.78908e-05
6.1337e-05
5.67028e-05
4.49711e-05
2.93976e-05
5.66009e-05
5.8284e-05
5.62744e-05
3.28375e-05
2.82385e-05
2.35003e-05
5.62078e-05
5.75792e-05
4.70767e-05
5.2444e-05
4.83363e-05
4.35385e-05
5.91966e-05
4.35366e-05
5.24344e-05
5.00764e-05
3.0162e-05
3.72233e-05
3.6957e-05
6.24677e-05
2.62483e-05
2.76211e-05
2.70864e-05
5.8832e-05
2.49308e-05
2.45388e-05
4.15021e-05
2.28454e-05
4.69953e-05
4.70682e-05
2.34294e-05
5.2478e-05
2.56851e-05
2.5866e-05
2.87975e-05
2.46838e-05
2.39443e-05
3.33367e-05
2.83694e-05
2.60936e-05
2.47455e-05
4.7774e-05
5.40374e-05
2.69523e-05
5.27248e-05
2.24914e-05
5.33856e-05
4.27267e-05
2.34691e-05
1.96606e-05
2.21897e-05
2.93451e-05
4.6108e-05
3.70616e-05
1.52375e-05
1.69269e-05
5.10607e-05
1.43459e-05
1.4346e-05
1.62608e-05
1.83383e-05
2.23196e-05
2.43203e-05
4.06207e-05
3.73711e-05
5.11333e-05
1.44679e-05
1.44682e-05
4.40868e-05
1.9602e-05
3.67285e-05
1.77478e-05
1.76346e-05
2.32274e-05
3.75306e-05
3.88685e-05
4.14244e-05
3.79591e-05
3.7531e-05
8.13366e-06
6.06057e-05
1.04055e-05
1.00403e-05
4.89335e-05
4.85903e-05
1.0402e-05
7.23393e-06
1.02221e-05
4.51835e-05
SCALARS rr_T' float
LOOKUP_TABLE default
0.000208526
0.000475068
0.000379406
0.000495897
0.000259284
0.000402685
0.000206185
0.000493147
0.000424039
0.000533877
0.000189248
0.000494658
0.000435312
0.000459742
0.000538613
0.000452155
0.000388867
0.000439631
0.000393813
0.000385007
0.000433092
7.68882e-05
0.000443745
0.000408975
0.00037072
0.000427652
0.000175319
0.000375648
0.000294841
0.000347007
0.000384572
0.000304791
0.000194212
0.000260014
0.00025555
0.0002606
0.000337359
0.000256072
0.000384181
0.000218296
0.000247824
0.000297322
0.000297353
0.000422065
0.000243675
0.000268828
0.000370602
0.000375288
0.000351678
0.00033667
0.000345701
0.000268071
0.000416156
0.00034446
0.000383137
0.000176762
0.000272855
0.000346985
0.000272846
0.000419715
0.000496403
0.000486498
0.000172422
0.000343019
0.000465977
0.000439778
0.000480171
0.000415363
0.000382502
0.000545232
0.000451512
0.000446592
0.000306202
0.000355975
0.000377074
0.000200476
0.000388218
0.000435699
0.00041886
0.000295825
0.000266975
0.000292651
0.000554067
0.000267347
0.000360464
0.000133891
0.00043393
0.00036262
0.000258053
3.7837e-05
0.00029848
4.11517e-05
0.000329414
0.000315693
0.000282481
0.000257654
0.000245198
0.000468714
0.000388506
0.000374013
0.000317776
0.000304868
0.000256522
0.00044394
0.000451288
0.000406391
0.000357392
0.000362564
0.000272305
0.000541518
0.000347995
0.000183801
0.000245641
0.000485863
0.000455156
0.000332646
0.000316405
0.000203752
0.00032818
0.000331331
0.000288188
0.000525039
0.000541428
0.000465066
0.000511651
0.000401415
0.000227069
0.000506066
0.000222076
0.000286446
0.000235853
0.000483053
0.000471814
0.000474292
0.000317083
0.000192246
0.000212572
0.000347603
0.000424808
0.000192181
0.000264826
0.000409663
0.000310425
0.000500188
0.000247993
0.000408153
0.000370423
0.000358133
0.000228908
0.000292558
0.000326206
0.000466132
0.000273474
0.000422056
0.000488819
0.000496612
0.000324946
0.000272777
0.000271229
0.000426105
0.00035774
0.000271201
0.000179468
0.000264878
0.000263453
0.000456249
0.000276453
0.000279502
0.000302776
0.000269401
0.000402212
0.000282148
0.000249824
0.000313992
0.000298075
0.000357157
0.000397839
0.000382959
0.000325292
0.000382019
0.000293869
0.000442639
0.000475072
0.00026487
0.000465332
0.000264758
0.000459559
0.000422469
0.000394401
0.000401487
0.000469412
0.00022265
0.000291665
0.000271217
0.000473444
0.000466129
0.00043216
0.000470654
0.000479222
0.000402477
0.000493538
0.000331164
0.000298882
0.000538831
0.000314754
0.000489402
0.000389859
0.000248892
0.000299357
0.000488362
0.000406399
0.000370046
0.000476719
0.000467621
0.000302582
0.000300027
0.00029147
0.000414842
0.000457754
0.000526075
0.000505423
0.0005499
0.000498289
0.000544538
0.00045688
0.000477382
0.000481102
0.00045353
0.000476454
0.000438587
0.000432058
0.000306619
0.000411693
0.000481699
0.000334616
0.000490754
0.00045083
0.000522257
0.00031423
0.000496668
0.000474783
0.000308582
0.000425371
0.000306498
0.000477992
0.000436374
0.00032128
0.000302399
0.000261548
0.000300864
0.000478647
0.000219637
0.000368929
0.000301276
0.000338021
0.000497135
0.000481205
0.000150903
0.000482955
0.00026307
0.00028519
0.000494423
0.000401915
0.000288551
0.000551631
0.000313809
0.000150903
0.000291628
0.000429144
0.000535688
0.000406139
0.000477787
0.000447472
0.000234879
0.000230226
0.000196927
0.000226089
0.000320124
0.000244851
0.000394442
0.000246863
0.000424775
0.000303364
0.00029207
0.000341615
0.000317659
0.00042194
0.000304607
0.000313464
0.000138329
0.000315789
0.000456773
0.000457098
0.000414015
0.00030402
0.000197952
0.00057476
0.00038619
0.000322531
0.000297343
0.000296075
0.000306682
0.00037365
0.000301188
0.000215735
0.000297238
0.000203899
0.000368215
0.000303251
0.00012893
0.00028562
0.000337705
0.000303261
0.000466624
0.000314926
0.000406108
0.000155793
0.000325972
0.000311383
0.000271925
0.00029232
0.000344946
0.000324663
0.000339512
0.000288741
0.000293283
0.000316713
0.000423365
0.00029866
0.000423112
0.000381952
0.000301438
0.00030984
0.00031281
0.000345979
0.000312294
0.000292414
0.000332286
0.000348452
0.000411371
0.000312745
0.000310724
0.00044982
0.000443519
0.000298886
0.000301503
0.000134684
0.000364259
0.000252777
0.000341908
0.00015126
0.000157016
0.000140319
0.000142616
0.0001513
0.000159386
0.000164253
0.000383582
0.000283855
0.000286402
0.000327445
0.000318976
0.000314996
0.000333186
0.000308264
0.000315286
0.000320537
0.000313828
0.000385325
0.000285341
0.000396079
0.000308196
0.000297517
0.000314225
0.000335261
0.000350328
0.000326387
0.000373786
0.000349215
0.000323837
0.000233533
0.000325706
0.000318488
0.000342907
0.000328514
0.000311281
0.00029603
0.000326085
0.000340129
0.000461721
0.000304964
0.000448905
0.000467939
0.000320436
0.000448316
0.00034392
0.000275503
0.000375272
0.000328929
0.000236878
0.000208092
0.000370499
0.00039461
0.00033407
0.000277716
0.000334097
0.000158429
0.000330294
0.000309912
0.00015826
6.06385e-05
6.63331e-05
0.000286107
0.00030509
0.000354338
0.000340624
3.11756e-05
3.25753e-05
0.000337328
0.000340847
0.000322647
0.00011892
0.000285476
0.000331866
0.000338392
0.000291898
0.000257641
0.00012384
0.000488736
0.000307002
0.000375109
0.000380974
0.000273789
0.000346507
0.000267692
0.000295387
0.000146788
0.00022151
0.000346919
0.000349063
0.000300007
0.000315097
0.000325159
0.000342849
0.000327929
0.000161685
0.000287733
0.000324409
0.000306624
0.000460135
0.000161654
0.000249045
0.000256523
0.000243105
0.000158049
0.000158059
0.000278507
0.000224883
0.000321624
0.000173034
0.000188742
6.16261e-05
6.16258e-05
0.000129062
0.000204911
0.000138053
0.000274035
0.000296381
0.000316299
0.000356393
0.000323265
0.000299289
0.000235635
0.000145814
0.000295859
0.000306511
0.000296753
0.000163858
0.000151427
0.000117959
0.000296334
0.00030233
0.000242949
0.000274402
0.00025321
0.000231848
0.000310347
0.000231828
0.000273915
0.000264093
0.000161886
0.000199867
0.000185861
0.000328169
0.000129793
0.000136733
0.000133763
0.00030992
0.000123584
0.000121038
0.000215636
0.000112889
0.000250931
0.000251311
0.000115881
0.000273278
0.000128629
0.000127867
0.000144053
0.000121995
0.000119775
0.000178726
0.000142368
0.000129377
0.000122373
0.00025021
0.00028558
0.0001347
0.000276169
0.000110978
0.000280156
0.000222583
0.000115945
9.8172e-05
0.000109529
0.000145324
0.000240595
0.000198068
8.28606e-05
9.19754e-05
0.000268216
7.79986e-05
7.79978e-05
8.83811e-05
9.92046e-05
0.000112131
0.000130489
0.000215774
0.000199727
0.000268402
7.83653e-05
7.83647e-05
0.000235885
9.70138e-05
0.000191233
8.79088e-05
8.8436e-05
0.000116522
0.000202244
0.000209421
0.000223105
0.000204469
0.000202239
4.41832e-05
0.000326459
5.636e-05
5.46063e-05
0.000263723
0.000261893
5.65877e-05
3.9304e-05
5.53805e-05
0.000243263
SCALARS rr_uec(SIM,_S_ext) float
LOOKUP_TABLE default
0.0137311
0.0312817
0.0249826
0.0326533
0.0170725
0.0265154
0.0135769
0.0324719
0.0279216
0.0351539
0.012462
0.0325714
0.0286637
0.0302723
0.0354655
0.0297729
0.0256055
0.0289482
0.0259315
0.0253515
0.0285176
0.00506261
0.0292192
0.0269297
0.0244107
0.0281595
0.0115445
0.0247351
0.0194146
0.0228486
0.0253227
0.0200699
0.0127886
0.0171206
0.0168266
0.0171592
0.0222134
0.016861
0.0252969
0.0143745
0.0163187
0.0195771
0.0195792
0.0277914
0.0160458
0.0177017
0.024403
0.0247114
0.0231568
0.0221691
0.0227637
0.0176518
0.027402
0.0226817
0.0252278
0.0116395
0.017966
0.0228481
0.0179655
0.0276369
0.0326864
0.0320339
0.0113536
0.0225864
0.0306826
0.0289577
0.0316176
0.0273503
0.0251865
0.0359017
0.02973
0.029406
0.0201627
0.0234395
0.024829
0.0132011
0.0255624
0.0286891
0.0275805
0.0194793
0.0175797
0.0192696
0.0364833
0.0176043
0.0237357
0.00881653
0.0285728
0.0238771
0.0169925
0.00249133
0.0196541
0.00270959
0.0216905
0.0207871
0.0186006
0.016966
0.0161457
0.0308632
0.0255814
0.0246274
0.0209245
0.0200747
0.0168915
0.029232
0.0297158
0.0267595
0.0235329
0.0238735
0.0179308
0.0356573
0.0229143
0.0121031
0.0161751
0.0319925
0.0299705
0.0219038
0.0208335
0.0134166
0.0216088
0.0218172
0.0189763
0.0345717
0.0356513
0.0306228
0.0336906
0.0264315
0.0149513
0.0333227
0.0146232
0.0188617
0.0155299
0.0318075
0.0310672
0.0312307
0.0208791
0.0126584
0.0139974
0.0228883
0.027972
0.0126541
0.0174381
0.0269747
0.0204405
0.0329357
0.0163298
0.0268756
0.024391
0.0235818
0.0150728
0.0192641
0.0214796
0.0306933
0.0180077
0.0277908
0.032187
0.0327004
0.0213965
0.0179616
0.0178597
0.0280576
0.023556
0.017858
0.0118177
0.0174417
0.0173477
0.0300425
0.0182036
0.0184044
0.0199371
0.0177393
0.0264839
0.0185787
0.0164504
0.0206752
0.0196274
0.0235174
0.0261959
0.0252164
0.0214189
0.0251546
0.0193506
0.0291463
0.0312819
0.017441
0.0306402
0.0174338
0.0302602
0.0278178
0.0259695
0.0264365
0.0309089
0.014661
0.0192054
0.0178591
0.0311748
0.0306931
0.0284564
0.0309908
0.0315553
0.0265015
0.0324979
0.0218061
0.0196806
0.0354801
0.0207258
0.0322253
0.0256706
0.0163889
0.0197114
0.0321571
0.0267596
0.0243661
0.0313903
0.0307911
0.0199242
0.0197556
0.0191925
0.0273157
0.0301417
0.0346404
0.0332806
0.0362092
0.0328108
0.0358561
0.0300839
0.0314337
0.0316786
0.0298631
0.0313726
0.0288789
0.028449
0.02019
0.0271085
0.0317186
0.0220333
0.0323141
0.0296853
0.0343892
0.0206913
0.0327042
0.0312629
0.0203192
0.0280089
0.020182
0.0314739
0.0287341
0.0211554
0.0199122
0.0172224
0.0198114
0.0315171
0.0144625
0.0242927
0.0198383
0.0222577
0.032735
0.0316859
0.00993613
0.0318011
0.0173225
0.018779
0.0325564
0.0264646
0.0190003
0.0363233
0.0206633
0.00993615
0.0192029
0.0282578
0.035273
0.0267429
0.0314603
0.0294642
0.0154657
0.0151596
0.0129673
0.0148876
0.0210786
0.0161226
0.0259726
0.0162552
0.0279697
0.0199754
0.0192321
0.022494
0.0209169
0.0277832
0.0200574
0.0206409
0.00910817
0.0207933
0.0300767
0.0300981
0.0272614
0.0200188
0.0130342
0.0378458
0.0254293
0.0212376
0.0195791
0.0194952
0.0201941
0.0246032
0.0198323
0.0142059
0.0195722
0.0134263
0.0242455
0.0199682
0.00848934
0.0188072
0.0222366
0.0199689
0.0307254
0.0207369
0.0267408
0.0102586
0.0214642
0.0205037
0.0179051
0.0192485
0.0227135
0.0213777
0.0223558
0.0190127
0.0193118
0.0208545
0.0278768
0.0196658
0.0278604
0.0251502
0.0198482
0.020402
0.0205976
0.0227815
0.0205636
0.0192546
0.02188
0.022944
0.0270873
0.0205932
0.0204603
0.0296189
0.0292041
0.0196807
0.0198525
0.00886901
0.0239851
0.0166448
0.0225135
0.00996116
0.0103402
0.00924065
0.00939195
0.00996381
0.0104962
0.0108167
0.0252573
0.0186905
0.0188586
0.0215612
0.0210036
0.0207415
0.021939
0.0202982
0.0207606
0.0211057
0.0206646
0.025372
0.0187889
0.0260803
0.0202937
0.0195905
0.0206907
0.0220754
0.0230678
0.0214915
0.0246125
0.0229947
0.0213237
0.0153776
0.0214467
0.0209713
0.0225789
0.0216317
0.0204969
0.0194927
0.0214717
0.0223963
0.0304026
0.0200809
0.0295587
0.0308122
0.0210997
0.02952
0.022646
0.018141
0.0247102
0.0216589
0.0155973
0.0137027
0.0243959
0.0259834
0.0219973
0.0182866
0.021999
0.0104326
0.0217488
0.0204066
0.0104211
0.00399269
0.00436764
0.0188392
0.0200892
0.0233319
0.022429
0.0020527
0.00214487
0.0222119
0.0224435
0.0212452
0.00783085
0.0187978
0.0218521
0.0222819
0.0192205
0.0169648
0.00815495
0.0321813
0.0202152
0.0246996
0.0250858
0.0180281
0.0228163
0.0176267
0.0194502
0.00966582
0.0145859
0.0228435
0.0229846
0.0197545
0.0207481
0.0214106
0.0225754
0.021593
0.0106468
0.018946
0.0213614
0.02019
0.0302981
0.0106447
0.0163987
0.0168912
0.0160073
0.0104067
0.0104074
0.0183384
0.0148079
0.0211778
0.0113941
0.0124277
0.00405768
0.00405766
0.00849882
0.0134923
0.00909006
0.0180443
0.0195154
0.0208272
0.0234672
0.0212858
0.019707
0.0155157
0.00960192
0.0194813
0.0201825
0.01954
0.0107899
0.00997071
0.00776729
0.0195125
0.0199073
0.0159975
0.0180684
0.0166729
0.0152661
0.0204352
0.0152648
0.0180363
0.0173895
0.0106594
0.0131602
0.0122387
0.0216088
0.00854668
0.00900358
0.00880813
0.020407
0.00813798
0.00797021
0.0141989
0.00743359
0.0165225
0.0165475
0.00763061
0.0179945
0.00847004
0.00841979
0.00948573
0.00803316
0.00788704
0.0117681
0.00937479
0.00851949
0.00805811
0.0164754
0.0188043
0.0088698
0.0181847
0.00730782
0.0184472
0.0146564
0.00763477
0.00646452
0.0072123
0.00956969
0.0158424
0.0130418
0.00545586
0.00605603
0.017661
0.00513573
0.00513569
0.00581936
0.00653206
0.00738373
0.00859206
0.0142077
0.013151
0.0176733
0.00515989
0.00515986
0.0155317
0.00638843
0.0125921
0.00578879
0.00582329
0.00767277
0.0133168
0.0137893
0.0146903
0.0134632
0.0133164
0.00290919
0.0214956
0.00371097
0.00359547
0.0173647
0.0172442
0.00372593
0.00258793
0.00364648
0.0160176
SCALARS rr_uec(PEX,_P_ext) float
LOOKUP_TABLE default
-0.0612808
-0.139662
-0.111535
-0.145784
-0.0762315
-0.118378
-0.0605926
-0.144975
-0.124652
-0.15695
-0.0556173
-0.145419
-0.127971
-0.135156
-0.158352
-0.132922
-0.114322
-0.129242
-0.115765
-0.113181
-0.127315
-0.0226085
-0.130447
-0.120227
-0.108981
-0.125721
-0.0515259
-0.110431
-0.0866628
-0.102028
-0.113055
-0.0895876
-0.0570783
-0.0764485
-0.0751367
-0.0766207
-0.0991917
-0.0752897
-0.11294
-0.0641565
-0.0728429
-0.0874199
-0.0874291
-0.124077
-0.0716181
-0.0790171
-0.108943
-0.110322
-0.103384
-0.0989556
-0.101611
-0.0787972
-0.122353
-0.101251
-0.112645
-0.0519522
-0.0802248
-0.101993
-0.0802221
-0.123384
-0.145936
-0.143028
-0.0506755
-0.100846
-0.136995
-0.129289
-0.141164
-0.122108
-0.112444
-0.160289
-0.132747
-0.131301
-0.090002
-0.104653
-0.11085
-0.0589184
-0.114136
-0.12809
-0.123136
-0.0869559
-0.0784697
-0.0860427
-0.162891
-0.0785785
-0.105953
-0.0393517
-0.127564
-0.106606
-0.0758439
-0.0111255
-0.0877357
-0.0121002
-0.0968482
-0.0928091
-0.0830332
-0.0757315
-0.072069
-0.137793
-0.114221
-0.109951
-0.0934111
-0.0896116
-0.0753968
-0.130509
-0.13267
-0.119471
-0.10507
-0.106585
-0.0800356
-0.159198
-0.1023
-0.0540212
-0.0721976
-0.142833
-0.133807
-0.0977786
-0.0930291
-0.0598869
-0.096491
-0.0973922
-0.0847148
-0.15436
-0.15917
-0.136724
-0.150418
-0.118016
-0.0667619
-0.148774
-0.0652729
-0.0841985
-0.0693425
-0.142009
-0.138709
-0.139434
-0.0932021
-0.0565241
-0.0624783
-0.102187
-0.12489
-0.0565051
-0.0778422
-0.120433
-0.091252
-0.147046
-0.0728904
-0.119989
-0.108897
-0.105281
-0.0672928
-0.0859974
-0.0958931
-0.137035
-0.0803825
-0.124075
-0.143704
-0.145995
-0.0955291
-0.0801797
-0.0797247
-0.125265
-0.105163
-0.0797145
-0.0527474
-0.0778553
-0.077439
-0.134129
-0.08126
-0.0821562
-0.0889952
-0.0791871
-0.118251
-0.0829349
-0.0734304
-0.0923091
-0.0876168
-0.105001
-0.116965
-0.112582
-0.0956381
-0.112306
-0.0863771
-0.130128
-0.139662
-0.0778552
-0.136802
-0.0778195
-0.135105
-0.124202
-0.115955
-0.11803
-0.138002
-0.0654419
-0.0857325
-0.0797191
-0.139184
-0.137032
-0.127046
-0.138368
-0.140883
-0.118323
-0.145092
-0.0973491
-0.0878546
-0.158411
-0.092516
-0.14388
-0.114613
-0.073158
-0.0880098
-0.14357
-0.11948
-0.108787
-0.140146
-0.137477
-0.0889442
-0.0882031
-0.0856763
-0.12196
-0.134573
-0.154658
-0.148586
-0.161662
-0.146489
-0.160086
-0.134315
-0.14035
-0.141443
-0.133337
-0.140077
-0.128947
-0.127028
-0.0901306
-0.121031
-0.14161
-0.0983654
-0.144281
-0.132544
-0.153534
-0.0923663
-0.146011
-0.139578
-0.0907079
-0.125057
-0.0900953
-0.140525
-0.128285
-0.0944406
-0.0888891
-0.0768747
-0.0884309
-0.140718
-0.0645554
-0.108456
-0.0885589
-0.0993646
-0.146148
-0.141467
-0.0443691
-0.141981
-0.077321
-0.0838303
-0.145351
-0.118154
-0.0848178
-0.162171
-0.092247
-0.0443692
-0.0857228
-0.126162
-0.157486
-0.119396
-0.140469
-0.131551
-0.0690561
-0.0676812
-0.0578791
-0.0664495
-0.0941175
-0.0719786
-0.115958
-0.0725656
-0.124882
-0.0891846
-0.0858527
-0.10043
-0.093377
-0.124042
-0.0895404
-0.0921414
-0.0406732
-0.0928427
-0.134291
-0.134387
-0.121713
-0.089368
-0.0582011
-0.168972
-0.113527
-0.0948094
-0.0874044
-0.0870472
-0.0901494
-0.109854
-0.0885349
-0.0634061
-0.0873743
-0.0599301
-0.108253
-0.0891408
-0.0379098
-0.0839588
-0.099282
-0.0891436
-0.137182
-0.092573
-0.119385
-0.045788
-0.0958266
-0.0915312
-0.0799471
-0.0859277
-0.101402
-0.0954473
-0.0998107
-0.084876
-0.0862118
-0.0931005
-0.124466
-0.0877923
-0.124386
-0.112284
-0.0886246
-0.0910787
-0.0919531
-0.101706
-0.0918017
-0.085956
-0.0976786
-0.102443
-0.120934
-0.0919339
-0.0913375
-0.132239
-0.130387
-0.0878586
-0.0886436
-0.0395813
-0.107082
-0.0742966
-0.10051
-0.0444447
-0.0461359
-0.04123
-0.041905
-0.0444565
-0.0468321
-0.0482624
-0.11277
-0.083457
-0.0841957
-0.0962577
-0.0937662
-0.0925961
-0.0979502
-0.0906167
-0.0926809
-0.0942419
-0.0922528
-0.113284
-0.0838735
-0.116446
-0.0906011
-0.0874598
-0.092369
-0.0985681
-0.102987
-0.0959468
-0.109883
-0.102658
-0.0951946
-0.0686457
-0.0957464
-0.0936266
-0.100814
-0.0965704
-0.0915033
-0.0870213
-0.0958576
-0.0999885
-0.135737
-0.0896473
-0.131969
-0.137561
-0.0941972
-0.131796
-0.101103
-0.0809866
-0.110326
-0.0966943
-0.069645
-0.06116
-0.108924
-0.116014
-0.0982074
-0.0816395
-0.09822
-0.0465596
-0.0970974
-0.0911038
-0.0465131
-0.0178296
-0.0195041
-0.0841079
-0.0896842
-0.104164
-0.10013
-0.0091671
-0.00957869
-0.0991675
-0.100202
-0.0948515
-0.0349484
-0.0839182
-0.0975656
-0.0994753
-0.0858076
-0.0757374
-0.0363944
-0.143683
-0.0902461
-0.110272
-0.111996
-0.0804843
-0.101861
-0.0786919
-0.0868333
-0.0431408
-0.0651064
-0.101983
-0.102615
-0.0881924
-0.092627
-0.0955858
-0.100787
-0.0964003
-0.0475207
-0.0845932
-0.0953636
-0.0901432
-0.135275
-0.0475113
-0.0732124
-0.0754107
-0.0714744
-0.0464714
-0.0464745
-0.0818816
-0.0661062
-0.0945488
-0.0508558
-0.0554958
-0.0181209
-0.0181208
-0.0379289
-0.0602477
-0.0405907
-0.0805587
-0.0871361
-0.0929846
-0.104773
-0.0950364
-0.0879886
-0.0692717
-0.0428524
-0.086975
-0.0901097
-0.0872426
-0.0481565
-0.0445225
-0.0346682
-0.0871194
-0.0888796
-0.0714153
-0.0806675
-0.0744383
-0.068165
-0.0912358
-0.068159
-0.0805237
-0.0776408
-0.047598
-0.0587651
-0.0546256
-0.0964765
-0.0381428
-0.0401824
-0.0393092
-0.0911129
-0.0363189
-0.0355693
-0.0633891
-0.033175
-0.0737766
-0.0738882
-0.0340546
-0.080335
-0.0378039
-0.0375766
-0.0423368
-0.035851
-0.0352015
-0.0525487
-0.0418424
-0.0380216
-0.0359624
-0.0735561
-0.0839587
-0.0395875
-0.0811877
-0.0326133
-0.0823607
-0.0654324
-0.0340729
-0.0288521
-0.0321872
-0.042708
-0.0707281
-0.0582347
-0.0243646
-0.0270447
-0.078851
-0.022935
-0.0229348
-0.0259878
-0.0291696
-0.0329559
-0.0383666
-0.0634382
-0.0587223
-0.0789055
-0.0230423
-0.0230421
-0.0693536
-0.0285104
-0.0562162
-0.0258346
-0.0259913
-0.034246
-0.0594657
-0.0615758
-0.0655991
-0.0601195
-0.0594641
-0.0129917
-0.095988
-0.0165719
-0.0160566
-0.0775421
-0.0770041
-0.0166393
-0.011557
-0.0162839
-0.0715259
SCALARS cell_type float
LOOKUP_TABLE default
0
0
0
0
0
0
0
0
0
0
0
0
0
0
0
0
0
0
0
0
0
1
0
0
0
0
0
0
0
0
0
0
0
0
0
0
0
0
0
0
0
0
0
0
0
0
0
0
0
0
0
0
0
0
0
0
0
0
0
0
0
0
0
0
0
0
0
0
0
0
0
0
0
0
0
0
0
0
0
0
0
0
0
0
0
0
0
0
0
0
0
0
0
0
0
0
0
0
0
0
0
0
0
0
0
0
0
0
0
0
0
0
0
0
0
0
0
0
0
0
0
0
0
0
0
0
0
0
0
0
0
0
0
0
0
0
0
0
0
0
0
0
0
0
0
0
0
0
0
0
0
0
0
0
0
0
0
0
0
0
0
0
0
0
0
0
0
0
0
0
0
0
0
0
0
0
0
0
0
0
0
0
0
0
0
0
0
0
0
0
0
0
0
0
0
0
0
0
0
0
0
0
0
0
0
0
0
0
0
0
0
0
0
0
0
0
0
0
0
0
0
0
0
0
0
0
0
0
0
0
0
0
0
0
0
0
0
0
0
0
0
0
0
0
0
0
0
0
0
0
0
0
0
0
0
0
0
0
0
0
0
0
0
0
0
0
0
0
0
0
0
0
0
0
0
0
0
0
0
0
0
0
0
0
0
0
0
0
0
0
0
0
0
0
0
0
0
0
0
0
0
0
0
0
0
0
0
0
0
0
0
0
0
0
0
0
0
0
0
0
0
0
0
0
0
0
0
0
0
0
0
0
0
0
0
0
0
0
0
0
0
0
0
0
0
0
0
0
0
0
2
2
2
2
2
2
2
0
0
0
0
0
0
0
0
0
0
0
0
0
0
0
0
0
0
0
0
0
0
0
0
0
0
0
0
0
0
0
0
0
0
0
0
0
0
0
0
0
0
0
0
0
0
0
0
0
0
0
0
0
0
0
0
0
0
0
1
1
0
0
0
0
0
0
0
0
0
0
0
0
0
0
0
0
0
0
0
0
0
0
0
0
0
0
0
0
0
0
0
0
0
0
0
0
0
0
0
0
0
0
0
1
1
0
0
0
0
0
0
0
0
0
0
0
0
0
0
0
0
0
0
0
0
0
0
0
0
0
0
0
0
0
0
0
0
0
0
0
0
0
0
0
0
0
0
0
0
0
0
0
0
0
0
0
0
0
0
0
0
0
0
0
0
0
0
0
0
0
1
1
0
0
0
0
0
0
0
0
0
0
0
0
0
0
0
0
0
0
0
0
0
0
0
0
0
0
0
0
0
0
0
0
0
TENSORS Lagrange_strain float
0.030568 -0.00319818 8.65041e-08
-0.00319818 0.013389 -4.08665e-08
8.65041e-08 -4.08665e-08 0.00740173

0.0291927 -0.00280097 6.91775e-08
-0.00280097 0.0335533 2.64141e-08
6.91775e-08 2.64141e-08 0.0331633

0.030021 0.00367906 2.58274e-07
0.00367906 0.0311692 -9.01295e-08
2.58274e-07 -9.01295e-08 0.0304677

0.0291617 -0.00392473 8.42113e-08
-0.00392473 0.0327986 3.14856e-08
8.42113e-08 3.14856e-08 0.0330881

0.0353671 0.0026689 3.2955e-08
0.0026689 0.0380855 6.50994e-08
3.2955e-08 6.50994e-08 0.0352921

0.0277352 -0.00236694 -1.13225e-07
-0.00236694 0.0333838 2.0231e-08
-1.13225e-07 2.0231e-08 0.0304387

0.030262 0.00339398 8.96912e-08
0.00339398 0.0134946 -1.77961e-07
8.96912e-08 -1.77961e-07 0.00746317

0.0317545 0.00393964 -3.35777e-08
0.00393964 0.0311997 -1.54836e-07
-3.35777e-08 -1.54836e-07 0.0315605

0.0332416 0.000715339 -3.99338e-09
0.000715339 0.0262212 -1.39486e-09
-3.99338e-09 -1.39486e-09 0.0281419

0.0354671 -0.000991005 -4.54328e-08
-0.000991005 0.0275509 -5.87986e-08
-4.54328e-08 -5.87986e-08 0.0327208

0.0280611 0.00205114 1.37043e-07
0.00205114 0.0138089 -2.08659e-07
1.37043e-07 -2.08659e-07 0.0117534

0.027953 -0.00176569 -5.8305e-08
-0.00176569 0.0350058 1.94857e-07
-5.8305e-08 1.94857e-07 0.031549

0.031121 0.0036572 -1.15346e-07
0.0036572 0.0313 -4.24936e-08
-1.15346e-07 -4.24936e-08 0.0310793

0.029069 -0.00187984 -9.46697e-08
-0.00187984 0.0347989 -1.93708e-08
-9.46697e-08 -1.93708e-08 0.0325463

0.0346312 0.0044185 1.02149e-07
0.0044185 0.0343623 -4.61697e-08
1.02149e-07 -4.61697e-08 0.0348845

0.0343275 7.30918e-05 -9.9754e-08
7.30918e-05 0.0272858 -4.92178e-08
-9.9754e-08 -4.92178e-08 0.0307782

0.0286927 -0.0023537 -1.07185e-07
-0.0023537 0.0360132 -6.23267e-08
-1.07185e-07 -6.23267e-08 0.0334499

0.0345729 -0.000352939 -6.35997e-08
-0.000352939 0.0273562 -3.59471e-08
-6.35997e-08 -3.59471e-08 0.0319769

0.0269199 0.00347825 1.45914e-07
0.00347825 0.0309446 6.19924e-08
1.45914e-07 6.19924e-08 0.0275764

0.0338845 -0.000550273 2.0804e-08
-0.000550273 0.0264092 1.24884e-07
2.0804e-08 1.24884e-07 0.030134

0.0266219 0.00113514 4.77073e-09
0.00113514 0.0340332 -1.26999e-07
4.77073e-09 -1.26999e-07 0.0291498

0.0452949 0.000852745 1.4238e-07
0.000852745 0.0452644 9.14193e-08
1.4238e-07 9.14193e-08 0.0366381

0.0336749 0.00024742 3.09321e-08
0.00024742 0.0263152 -5.08307e-09
3.09321e-08 -5.08307e-09 0.0298049

0.0293096 -0.00363193 9.04283e-08
-0.00363193 0.0311357 -1.82822e-07
9.04283e-08 -1.82822e-07 0.0300465

0.0337797 0.000900073 -1.32474e-07
0.000900073 0.0264962 3.03133e-08
-1.32474e-07 3.03133e-08 0.030081

0.0285459 0.00250763 9.62611e-08
0.00250763 0.0338936 4.55056e-08
9.62611e-08 4.55056e-08 0.0322867

0.0286295 0.000526679 -7.30183e-08
0.000526679 0.0176896 2.27737e-07
-7.30183e-08 2.27737e-07 0.0131713

0.030914 0.00403454 -4.0848e-08
0.00403454 0.0306464 -2.08346e-07
-4.0848e-08 -2.08346e-07 0.0306105

0.0259244 0.00477623 -5.91624e-08
0.00477623 0.025733 -3.95765e-08
-5.91624e-08 -3.95765e-08 0.0211278

0.0415291 0.00136972 1.27942e-07
0.00136972 0.0383502 4.14721e-08
1.27942e-07 4.14721e-08 0.0361351

0.0344108 0.00187129 -1.38773e-07
0.00187129 0.0279522 1.92924e-08
-1.38773e-07 1.92924e-08 0.0309998

0.0217596 -0.0022879 -1.84101e-07
-0.0022879 0.0299922 -7.52168e-08
-1.84101e-07 -7.52168e-08 0.0211248

0.0228632 -0.00535237 5.17788e-09
-0.00535237 0.0234729 -3.54099e-08
5.17788e-09 -3.54099e-08 0.0125789

0.0348325 0.000800911 8.51152e-08
0.000800911 0.0422549 1.48005e-07
8.51152e-08 1.48005e-07 0.0357862

0.0374533 -0.000661764 -2.06845e-07
-0.000661764 0.0412026 -3.79072e-08
-2.06845e-07 -3.79072e-08 0.0359008

0.0410752 0.00281339 8.87614e-08
0.00281339 0.035986 -1.43568e-07
8.87614e-08 -1.43568e-07 0.0357664

0.0372539 0.000705018 5.22671e-08
0.000705018 0.0432152 -1.12718e-08
5.22671e-08 -1.12718e-08 0.0361415

0.0402605 -0.00121844 -1.93104e-07
-0.00121844 0.0378301 2.81677e-08
-1.93104e-07 2.81677e-08 0.035808

0.0312151 -0.00367779 8.43874e-08
-0.00367779 0.0311232 -1.83343e-07
8.43874e-08 -1.83343e-07 0.0309253

0.0227473 0.00527897 -9.43011e-08
0.00527897 0.0237088 -4.84574e-08
-9.43011e-08 -4.84574e-08 0.012581

0.0297604 -0.00231584 -1.77502e-07
-0.00231584 0.0220308 9.84017e-08
-1.77502e-07 9.84017e-08 0.0208747

0.0376191 -0.000523007 -2.4307e-07
-0.000523007 0.0430643 -1.75181e-08
-2.4307e-07 -1.75181e-08 0.0361442

0.0412407 0.00263447 5.51774e-08
0.00263447 0.0394151 -1.40495e-07
5.51774e-08 -1.40495e-07 0.0361267

0.034301 -0.00161725 8.18075e-08
-0.00161725 0.0279944 -1.32481e-07
8.18075e-08 -1.32481e-07 0.0310838

0.0231055 -0.00552575 -8.51384e-08
-0.00552575 0.0235626 6.31559e-08
-8.51384e-08 6.31559e-08 0.0162159

0.0299432 -0.00233229 4.78546e-08
-0.00233229 0.022155 -2.12584e-07
4.78546e-08 -2.12584e-07 0.021344

0.0258934 0.0022274 -8.73522e-09
0.0022274 0.0326537 -9.85722e-08
-8.73522e-09 -9.85722e-08 0.0279151

0.0275505 0.00252896 1.47572e-07
0.00252896 0.0323735 5.97555e-08
1.47572e-07 5.97555e-08 0.0284906

0.0341754 -0.00214089 8.51204e-09
-0.00214089 0.0271071 -2.02518e-07
8.51204e-09 -2.02518e-07 0.0304719

0.0229024 -0.00439227 -1.17254e-07
-0.00439227 0.0272488 7.92502e-08
-1.17254e-07 7.92502e-08 0.0198502

0.0294937 0.00247146 -8.68426e-08
0.00247146 0.0218342 -1.06806e-08
-8.68426e-08 -1.06806e-08 0.0202808

0.0298719 -0.00327101 -7.30736e-08
-0.00327101 0.0245133 -4.98507e-08
-7.30736e-08 -4.98507e-08 0.023048

0.0344776 0.0025779 -2.27133e-07
0.0025779 0.0382028 -7.07252e-09
-2.27133e-07 -7.07252e-09 0.0352708

0.028689 0.00383839 -2.08408e-07
0.00383839 0.0257796 -3.58013e-08
-2.08408e-07 -3.58013e-08 0.0231166

0.0349284 -0.00291591 -1.2223e-07
-0.00291591 0.0374324 3.91036e-08
-1.2223e-07 3.91036e-08 0.0351891

0.02558 -0.00545537 -9.63067e-08
-0.00545537 0.0229021 -9.76242e-08
-9.63067e-08 -9.76242e-08 0.0158195

0.0373467 0.000746135 -1.38297e-07
0.000746135 0.0414136 4.62362e-08
-1.38297e-07 4.62362e-08 0.0359212

0.0231675 -0.000693311 -5.99059e-08
-0.000693311 0.0313131 1.38817e-07
-5.99059e-08 1.38817e-07 0.0231026

0.0410301 0.00137949 -1.33427e-07
0.00137949 0.0377069 1.83664e-07
-1.33427e-07 1.83664e-07 0.0358994

0.0276754 0.0028052 1.19958e-07
0.0028052 0.0327493 -3.9967e-08
1.19958e-07 -3.9967e-08 0.030231

0.0361391 0.000785009 -7.32125e-09
0.000785009 0.0281314 -1.01509e-07
-7.32125e-09 -1.01509e-07 0.0336731

0.0362543 0.00153399 2.09011e-08
0.00153399 0.0316931 1.7705e-07
2.09011e-08 1.7705e-07 0.0342207

0.028637 0.00405701 1.7356e-07
0.00405701 0.0198974 -3.7549e-08
1.7356e-07 -3.7549e-08 0.0137591

0.0309725 -0.00078368 1.78045e-07
-0.00078368 0.0370847 1.15408e-07
1.78045e-07 1.15408e-07 0.0338815

0.0315548 0.00124349 2.08272e-08
0.00124349 0.0364206 -3.79619e-08
2.08272e-08 -3.79619e-08 0.0342595

0.0285489 -0.000375152 -8.85765e-08
-0.000375152 0.0369557 -7.64375e-09
-8.85765e-08 -7.64375e-09 0.0326706

0.0296027 0.00307112 1.4945e-07
0.00307112 0.034791 -1.32097e-07
1.4945e-07 -1.32097e-07 0.0337089

0.034719 0.00112213 1.94229e-09
0.00112213 0.0278385 2.98398e-08
1.94229e-09 2.98398e-08 0.0322085

0.0291873 -0.00369897 -9.19877e-09
-0.00369897 0.0310208 -7.03319e-08
-9.19877e-09 -7.03319e-08 0.0299095

0.0350548 -0.000236885 -8.5074e-08
-0.000236885 0.0275798 -5.95895e-08
-8.5074e-08 -5.95895e-08 0.033393

0.0344522 -0.00254822 -1.86601e-07
-0.00254822 0.0381336 -2.83539e-08
-1.86601e-07 -2.83539e-08 0.0352608

0.0350107 0.00284929 1.30913e-07
0.00284929 0.03757 1.69776e-07
1.30913e-07 1.69776e-07 0.0352407

0.0218885 -0.00213186 8.59492e-08
-0.00213186 0.0299219 3.18859e-08
8.59492e-08 3.18859e-08 0.0208512

0.034701 -0.00369082 -9.12396e-09
-0.00369082 0.031958 -2.13462e-07
-9.12396e-09 -2.13462e-07 0.0330789

0.029292 -0.0032973 -1.61226e-09
-0.0032973 0.0321123 -5.69745e-08
-1.61226e-09 -5.69745e-08 0.0304333

0.0267797 -0.00401688 -1.70259e-07
-0.00401688 0.0176053 1.80324e-07
-1.70259e-07 1.80324e-07 0.0127259

0.0324042 0.000418596 -1.24106e-08
0.000418596 0.0381053 -4.72738e-08
-1.24106e-08 -4.72738e-08 0.0344058

0.034537 0.00381731 -1.41946e-07
0.00381731 0.0309413 -8.09882e-08
-1.41946e-07 -8.09882e-08 0.0326602

0.0283764 0.00258147 9.85446e-08
0.00258147 0.034129 2.03686e-09
9.85446e-08 2.03686e-09 0.0322137

0.0315417 0.00103786 -4.53245e-08
0.00103786 0.0228438 -1.99601e-07
-4.53245e-08 -1.99601e-07 0.0240691

0.0270973 -0.00435855 3.53149e-08
-0.00435855 0.0237368 7.38759e-08
3.53149e-08 7.38759e-08 0.0183234

0.0362603 -0.00140313 7.34445e-09
-0.00140313 0.0387424 -1.07e-07
7.34445e-09 -1.07e-07 0.0354012

0.031556 0.003171 -1.73874e-07
0.003171 0.0344013 -4.19018e-08
-1.73874e-07 -4.19018e-08 0.0340902

0.0273011 -0.00415602 1.38215e-07
-0.00415602 0.0221748 -1.54522e-07
1.38215e-07 -1.54522e-07 0.0184113

0.0303579 0.00139113 1.3322e-08
0.00139113 0.0228304 -2.00158e-07
1.3322e-08 -2.00158e-07 0.0209544

0.018602 -0.00269692 3.89212e-08
-0.00269692 0.0289284 1.44044e-07
3.89212e-08 1.44044e-07 0.0158929

0.0271999 0.00188896 5.95062e-08
0.00188896 0.03432 4.2641e-09
5.95062e-08 4.2641e-09 0.0306545

0.035382 0.00305674 -9.69162e-08
0.00305674 0.03082 1.3422e-07
-9.69162e-08 1.3422e-07 0.0327537

0.0226479 0.00538584 -6.21644e-08
0.00538584 0.0240884 -1.1115e-08
-6.21644e-08 -1.1115e-08 0.0161984

0.0459502 0.00223847 -3.86976e-07
0.00223847 0.0417503 2.50965e-07
-3.86976e-07 2.50965e-07 0.036639

0.0230812 -0.000534366 4.25938e-08
-0.000534366 0.031354 -5.98964e-08
4.25938e-08 -5.98964e-08 0.0230724

0.0463635 -0.00225609 4.37758e-07
-0.00225609 0.0412944 6.3098e-07
4.37758e-07 6.3098e-07 0.0365941

0.0370656 -0.00362449 -1.17023e-07
-0.00362449 0.0334906 3.01911e-08
-1.17023e-07 3.01911e-08 0.0346208

0.0351375 0.00361925 -4.55477e-08
0.00361925 0.0300039 -5.57241e-08
-4.55477e-08 -5.57241e-08 0.0324564

0.0299618 -0.00315884 -5.38609e-08
-0.00315884 0.0246904 -5.40399e-08
-5.38609e-08 -5.40399e-08 0.0232858

0.0230122 0.00402971 -6.44484e-08
0.00402971 0.027779 1.08032e-07
-6.44484e-08 1.08032e-07 0.0203819

0.0210939 -0.00137856 -9.37102e-08
-0.00137856 0.0298948 -3.1564e-07
-9.37102e-08 -3.1564e-07 0.0182514

0.0287456 0.00288901 -1.56651e-07
0.00288901 0.0342269 -4.34235e-08
-1.56651e-07 -4.34235e-08 0.0326995

0.0370117 0.00223586 -7.71619e-08
0.00223586 0.0334522 4.77018e-09
-7.71619e-08 4.77018e-09 0.0343841

0.0281481 0.00198815 9.61259e-08
0.00198815 0.0340599 -9.75672e-09
9.61259e-08 -9.75672e-09 0.0308653

0.0318822 0.00207302 1.15484e-07
0.00207302 0.025254 5.2548e-08
1.15484e-07 5.2548e-08 0.0256173

0.0239075 -0.00277435 -1.55656e-07
-0.00277435 0.0297646 6.51489e-09
-1.55656e-07 6.51489e-09 0.0215614

0.0278986 -0.00376364 5.24974e-08
-0.00376364 0.0218151 1.16144e-07
5.24974e-08 1.16144e-07 0.0180759

0.0293312 -0.00323165 7.17533e-08
-0.00323165 0.0326296 -7.14566e-08
7.17533e-08 -7.14566e-08 0.0324027

0.0306261 0.00361474 3.16235e-08
0.00361474 0.0322283 1.71945e-07
3.16235e-08 1.71945e-07 0.0323705

0.0287078 0.0030482 -2.3629e-08
0.0030482 0.0340268 3.0463e-08
-2.3629e-08 3.0463e-08 0.0326299

0.0292067 0.00172544 -4.37912e-09
0.00172544 0.0376173 -5.14935e-08
-4.37912e-09 -5.14935e-08 0.033846

0.0344772 0.0012325 6.70739e-08
0.0012325 0.0275236 4.0665e-08
6.70739e-08 4.0665e-08 0.0306746

0.0199605 -0.000605283 2.92413e-08
-0.000605283 0.0296601 1.16107e-07
2.92413e-08 1.16107e-07 0.0181038

0.0297973 -0.00486313 7.87777e-08
-0.00486313 0.033049 -7.04396e-09
7.87777e-08 -7.04396e-09 0.0337414

0.029081 0.00359975 -1.25499e-07
0.00359975 0.0313594 -4.09781e-08
-1.25499e-07 -4.09781e-08 0.0302638

0.0181055 0.000282824 -4.63409e-08
0.000282824 0.0293103 -3.25572e-07
-4.63409e-08 -3.25572e-07 0.0168783

0.027843 0.00442367 1.37892e-07
0.00442367 0.0209681 -6.62777e-08
1.37892e-07 -6.62777e-08 0.0174546

0.0291909 -0.00302045 8.63185e-08
-0.00302045 0.0327028 1.12365e-07
8.63185e-08 1.12365e-07 0.0321851

0.0352421 0.000759577 -2.04832e-08
0.000759577 0.0273384 7.22668e-08
-2.04832e-08 7.22668e-08 0.0325525

0.0294267 0.00352012 -1.31975e-07
0.00352012 0.025201 -1.44077e-07
-1.31975e-07 -1.44077e-07 0.023111

0.0396366 0.00170997 -9.22919e-08
0.00170997 0.0390394 3.14465e-08
-9.22919e-08 3.14465e-08 0.0359398

0.0283748 0.00312334 7.30884e-08
0.00312334 0.0224012 2.67253e-07
7.30884e-08 2.67253e-07 0.0182863

0.0394884 -0.00175075 8.30084e-08
-0.00175075 0.039065 -2.83263e-08
8.30084e-08 -2.83263e-08 0.035905

0.0232608 0.000103545 1.61077e-07
0.000103545 0.0315175 1.67388e-07
1.61077e-07 1.67388e-07 0.0231194

0.0327587 -0.000288408 9.78772e-08
-0.000288408 0.0246598 1.04149e-07
9.78772e-08 1.04149e-07 0.026966

0.0380539 -0.00212927 -7.59062e-08
-0.00212927 0.0304635 1.54712e-07
-7.59062e-08 1.54712e-07 0.034793

0.0292378 0.00320588 -9.20385e-08
0.00320588 0.0332775 9.7259e-08
-9.20385e-08 9.7259e-08 0.0333425

0.0289501 -0.00177243 -1.07384e-10
-0.00177243 0.0366093 -3.54324e-08
-1.07384e-10 -3.54324e-08 0.0334993

0.0365834 -0.00108487 -9.1029e-08
-0.00108487 0.0264759 -5.03273e-08
-9.1029e-08 -5.03273e-08 0.0338597

0.03118 -0.00292569 1.85957e-07
-0.00292569 0.0383058 -4.22975e-08
1.85957e-07 -4.22975e-08 0.0348433

0.0381645 -0.00088454 3.67789e-07
-0.00088454 0.0387305 -8.93993e-08
3.67789e-07 -8.93993e-08 0.0358351

0.0301794 -0.00393993 6.36863e-08
-0.00393993 0.0327101 1.12516e-07
6.36863e-08 1.12516e-07 0.0327629

0.0213325 0.00146944 1.21885e-07
0.00146944 0.0296131 -2.29904e-07
1.21885e-07 -2.29904e-07 0.0182954

0.0293876 -0.00364552 -3.04425e-08
-0.00364552 0.025349 4.81147e-08
-3.04425e-08 4.81147e-08 0.0231816

0.0328592 -0.00181718 -1.56703e-07
-0.00181718 0.0397171 -3.68936e-08
-1.56703e-07 -3.68936e-08 0.0352407

0.0350908 7.65859e-05 -3.45678e-09
7.65859e-05 0.0272217 7.37836e-08
-3.45678e-09 7.37836e-08 0.0332509

0.0308179 -0.0028287 7.68e-09
-0.0028287 0.0348911 -4.85263e-08
7.68e-09 -4.85263e-08 0.0340837

0.029534 0.00338852 -7.11438e-08
0.00338852 0.0328708 8.68613e-08
-7.11438e-08 8.68613e-08 0.0333256

0.0264598 -0.00406324 1.72974e-07
-0.00406324 0.0272614 8.5683e-08
1.72974e-07 8.5683e-08 0.0215841

0.0371723 -0.000958416 1.7252e-07
-0.000958416 0.0416093 1.62465e-07
1.7252e-07 1.62465e-07 0.0358862

0.0227107 -0.00423751 4.16824e-08
-0.00423751 0.0272434 -1.74282e-07
4.16824e-08 -1.74282e-07 0.0168772

0.0341829 -0.00252494 5.54777e-09
-0.00252494 0.028606 9.37155e-08
5.54777e-09 9.37155e-08 0.031044

0.0364251 0.000289964 1.22495e-07
0.000289964 0.0294371 8.22179e-08
1.22495e-07 8.22179e-08 0.0341934

0.0396407 0.00239652 -4.07167e-08
0.00239652 0.0391129 1.36314e-08
-4.07167e-08 1.36314e-08 0.0358671

0.0238558 0.00260928 -3.03561e-08
0.00260928 0.0301509 4.53661e-08
-3.03561e-08 4.53661e-08 0.0217985

0.0334304 0.00358133 7.4682e-08
0.00358133 0.0307149 -2.3773e-07
7.4682e-08 -2.3773e-07 0.0317668

0.0316425 -0.00319426 1.8157e-07
-0.00319426 0.0265516 -1.04193e-08
1.8157e-07 -1.04193e-08 0.026935

0.0289287 -0.00234092 3.48247e-08
-0.00234092 0.0342343 4.06848e-08
3.48247e-08 4.06848e-08 0.0326054

0.0262441 0.00450135 9.7836e-08
0.00450135 0.0245574 1.55286e-07
9.7836e-08 1.55286e-07 0.0180808

0.0284223 -0.00286673 4.4115e-08
-0.00286673 0.0340316 4.40865e-08
4.4115e-08 4.40865e-08 0.0324486

0.0331486 0.00405883 -4.07539e-08
0.00405883 0.0304643 1.20414e-07
-4.07539e-08 1.20414e-07 0.0315419

0.0333343 -0.00331186 -1.24402e-07
-0.00331186 0.0283566 3.39457e-09
-1.24402e-07 3.39457e-09 0.0300455

0.0291607 -0.00329515 3.06928e-07
-0.00329515 0.0319875 4.00706e-08
3.06928e-07 4.00706e-08 0.0304369

0.0314549 -0.00242937 1.83645e-07
-0.00242937 0.0247185 -1.38775e-08
1.83645e-07 -1.38775e-08 0.0251558

0.0329548 -0.00246665 -9.15479e-08
-0.00246665 0.0267091 -4.36818e-08
-9.15479e-08 -4.36818e-08 0.0285962

0.0294907 -0.00334182 1.29133e-07
-0.00334182 0.0329497 -1.2895e-08
1.29133e-07 -1.2895e-08 0.033407

0.0261337 0.00463378 1.20313e-07
0.00463378 0.0255407 1.35071e-08
1.20313e-07 1.35071e-08 0.0210921

0.0281495 0.00201667 8.32424e-08
0.00201667 0.0343356 8.44178e-09
8.32424e-08 8.44178e-09 0.0311091

0.0308862 0.00348118 2.2316e-08
0.00348118 0.0322552 -5.70876e-08
2.2316e-08 -5.70876e-08 0.0325999

0.0291567 0.00334805 -7.15258e-08
0.00334805 0.0331912 -7.4233e-08
-7.15258e-08 -7.4233e-08 0.03326

0.028984 0.00152274 -2.3322e-08
0.00152274 0.0354702 1.03473e-07
-2.3322e-08 1.03473e-07 0.0326952

0.0310524 -0.00106171 1.95041e-07
-0.00106171 0.0231412 5.15252e-08
1.95041e-07 5.15252e-08 0.0220777

0.0238836 0.00240565 -1.28006e-07
0.00240565 0.0304103 2.30042e-08
-1.28006e-07 2.30042e-08 0.0221127

0.0292132 -0.0032041 -9.55093e-09
-0.0032041 0.0326365 -2.51236e-08
-9.55093e-09 -2.51236e-08 0.0316181

0.0289872 0.00335662 -1.1487e-08
0.00335662 0.0309323 8.66028e-08
-1.1487e-08 8.66028e-08 0.0285677

0.0266123 -0.00459097 5.06327e-08
-0.00459097 0.0252302 5.36951e-08
5.06327e-08 5.36951e-08 0.0212563

0.0262776 0.00489335 6.85708e-08
0.00489335 0.020946 2.69983e-07
6.85708e-08 2.69983e-07 0.0167621

0.0235025 -0.00428675 1.29955e-07
-0.00428675 0.027464 -2.3221e-07
1.29955e-07 -2.3221e-07 0.0206261

0.0266713 -0.00402743 -8.02284e-08
-0.00402743 0.0274821 -2.43054e-07
-8.02284e-08 -2.43054e-07 0.0220498

0.0353647 -0.000906409 -8.70042e-08
-0.000906409 0.0273902 -4.90671e-08
-8.70042e-08 -4.90671e-08 0.0326548

0.0260448 0.00392154 2.93155e-08
0.00392154 0.0280919 -1.76738e-07
2.93155e-08 -1.76738e-07 0.0221022

0.0307877 0.0017165 2.016e-07
0.0017165 0.0233601 1.48859e-08
2.016e-07 1.48859e-08 0.0220253

0.0214307 0.00172207 2.27036e-07
0.00172207 0.0302406 8.9214e-08
2.27036e-07 8.9214e-08 0.0211325

0.0242626 -0.00288926 2.08443e-07
-0.00288926 0.0299517 -6.28703e-08
2.08443e-07 -6.28703e-08 0.022086

0.0313458 -0.000131337 -1.18579e-07
-0.000131337 0.0392741 -1.48157e-07
-1.18579e-07 -1.48157e-07 0.034671

0.0230582 0.000294709 7.95343e-08
0.000294709 0.0314604 -5.75275e-08
7.95343e-08 -5.75275e-08 0.0230621

0.022777 0.00400145 2.42584e-08
0.00400145 0.0281271 -1.76902e-07
2.42584e-08 -1.76902e-07 0.0206379

0.0288885 0.00158564 1.66488e-07
0.00158564 0.0358329 -5.5061e-08
1.66488e-07 -5.5061e-08 0.0328937

0.0293158 -0.00358002 -5.1444e-08
-0.00358002 0.0251295 -4.99256e-08
-5.1444e-08 -4.99256e-08 0.0232395

0.0369769 0.00273282 -8.731e-08
0.00273282 0.0297234 2.50723e-07
-8.731e-08 2.50723e-07 0.0338019

0.0371763 0.00348323 3.79378e-08
0.00348323 0.033423 1.10826e-08
3.79378e-08 1.10826e-08 0.0346525

0.0345442 -0.00244658 -1.99602e-08
-0.00244658 0.0285299 1.47344e-08
-1.99602e-08 1.47344e-08 0.031379

0.0390566 -0.000265624 -1.61909e-07
-0.000265624 0.033925 -9.21098e-09
-1.61909e-07 -9.21098e-09 0.0352085

0.0314794 -0.00418776 -1.24697e-07
-0.00418776 0.0317822 -1.19116e-08
-1.24697e-07 -1.19116e-08 0.0321565

0.0294618 0.00300758 2.48231e-08
0.00300758 0.0223272 2.59476e-07
2.48231e-08 2.59476e-07 0.0210665

0.0302299 0.00397309 -6.35535e-08
0.00397309 0.0326637 1.00715e-07
-6.35535e-08 1.00715e-07 0.0327202

0.0302773 0.0038469 1.6643e-07
0.0038469 0.0326076 -8.44669e-08
1.6643e-07 -8.44669e-08 0.0326749

0.0262444 0.00396151 6.97485e-08
0.00396151 0.0277678 1.13757e-07
6.97485e-08 1.13757e-07 0.0218648

0.0344504 0.00357653 -5.49557e-08
0.00357653 0.0317801 -2.02187e-07
-5.49557e-08 -2.02187e-07 0.0328317

0.0302485 0.000452466 2.08873e-07
0.000452466 0.0204284 3.07405e-08
2.08873e-07 3.07405e-08 0.0205733

0.0331863 0.00420071 -6.15654e-08
0.00420071 0.0323734 -6.52959e-08
-6.15654e-08 -6.52959e-08 0.0334841

0.0305012 -0.00165465 -6.70801e-08
-0.00165465 0.0366169 -3.85506e-08
-6.70801e-08 -3.85506e-08 0.0336631

0.0373603 0.00323254 7.61028e-08
0.00323254 0.03346 -3.85507e-08
7.61028e-08 -3.85507e-08 0.0346645

0.0307372 -0.00389594 1.47803e-08
-0.00389594 0.0322733 -8.38951e-08
1.47803e-08 -8.38951e-08 0.0326805

0.0293742 -0.000644912 -8.3073e-08
-0.000644912 0.036903 -7.16882e-09
-8.3073e-08 -7.16882e-09 0.0328481

0.0288125 -0.0031523 9.58635e-08
-0.0031523 0.02214 -2.11613e-07
9.58635e-08 -2.11613e-07 0.018759

0.0290025 0.00384459 -1.96863e-08
0.00384459 0.0255778 1.69776e-08
-1.96863e-08 1.69776e-08 0.023073

0.0217014 0.00189106 1.93971e-08
0.00189106 0.0300612 4.88047e-08
1.93971e-08 4.88047e-08 0.0210839

0.0349903 -0.000161244 1.11701e-07
-0.000161244 0.0273898 -4.91391e-08
1.11701e-07 -4.91391e-08 0.0333018

0.0344201 2.6016e-07 -8.73105e-08
2.6016e-07 0.0272749 -4.83782e-08
-8.73105e-08 -4.83782e-08 0.0320415

0.029166 0.00303988 -1.39202e-07
0.00303988 0.0326804 -7.10535e-08
-1.39202e-07 -7.10535e-08 0.0321329

0.0314501 0.00316625 8.13223e-08
0.00316625 0.0342505 1.91106e-07
8.13223e-08 1.91106e-07 0.0340585

0.0291691 -0.00320443 1.06922e-07
-0.00320443 0.0332389 -6.18839e-08
1.06922e-07 -6.18839e-08 0.0333792

0.0287739 -8.5602e-05 -6.59997e-08
-8.5602e-05 0.036705 -7.66486e-08
-6.59997e-08 -7.66486e-08 0.0325259

0.0294643 0.00337583 1.4598e-07
0.00337583 0.0330752 -1.1605e-07
1.4598e-07 -1.1605e-07 0.0333549

0.0328595 -0.00134645 -1.34881e-07
-0.00134645 0.0253621 -1.29546e-07
-1.34881e-07 -1.29546e-07 0.0278291

0.0263549 -0.00425449 8.21605e-08
-0.00425449 0.0281798 2.36712e-07
8.21605e-08 2.36712e-07 0.0242678

0.0362977 -0.00033167 7.2532e-08
-0.00033167 0.0293835 -9.48997e-08
7.2532e-08 -9.48997e-08 0.0340282

0.0267809 -0.00444557 8.60859e-08
-0.00444557 0.0251907 -5.44412e-08
8.60859e-08 -5.44412e-08 0.0209492

0.0308998 0.00250686 5.02236e-08
0.00250686 0.0350634 -9.89943e-08
5.02236e-08 -9.89943e-08 0.034068

0.0351134 -0.00349691 3.01255e-08
-0.00349691 0.0303887 -5.89887e-08
3.01255e-08 -5.89887e-08 0.0326151

0.030502 -0.00124979 -1.2328e-07
-0.00124979 0.0229786 2.24801e-07
-1.2328e-07 2.24801e-07 0.0214785

0.0371485 -0.00307682 -9.82892e-08
-0.00307682 0.0316537 -1.97429e-07
-9.82892e-08 -1.97429e-07 0.0339882

0.0349697 0.000321973 3.73629e-08
0.000321973 0.027555 -9.38879e-09
3.73629e-08 -9.38879e-09 0.0334302

0.0358434 -0.00308846 1.72445e-08
-0.00308846 0.0332582 -3.15856e-08
1.72445e-08 -3.15856e-08 0.0341437

0.034929 -0.00341056 -1.11252e-07
-0.00341056 0.0295951 1.98743e-07
-1.11252e-07 1.98743e-07 0.0321783

0.0349094 -0.00113374 -1.21335e-07
-0.00113374 0.0278504 -1.04773e-07
-1.21335e-07 -1.04773e-07 0.0323417

0.03149 -0.00306223 -3.44252e-08
-0.00306223 0.0344488 -1.42811e-07
-3.44252e-08 -1.42811e-07 0.0341468

0.0292358 -0.00407103 6.26056e-08
-0.00407103 0.0268999 -8.66429e-08
6.26056e-08 -8.66429e-08 0.0253464

0.034993 -0.00324366 -1.58133e-07
-0.00324366 0.0299155 1.39291e-08
-1.58133e-07 1.39291e-08 0.0321955

0.0314627 0.00140903 5.57551e-08
0.00140903 0.0233272 7.51074e-09
5.57551e-08 7.51074e-09 0.0244838

0.033665 0.00348423 -1.03785e-07
0.00348423 0.0334443 7.0015e-11
-1.03785e-07 7.0015e-11 0.0336503

0.0298927 -0.00496734 3.43264e-08
-0.00496734 0.0330784 -9.12601e-09
3.43264e-08 -9.12601e-09 0.0338575

0.0300436 0.00492045 -1.38794e-07
0.00492045 0.0329406 -1.03793e-07
-1.38794e-07 -1.03793e-07 0.0338244

0.0276884 -0.00374174 6.84857e-08
-0.00374174 0.0348076 2.51629e-08
6.84857e-08 2.51629e-08 0.033767

0.027926 0.00354703 -2.24459e-08
0.00354703 0.0348352 -1.39519e-07
-2.24459e-08 -1.39519e-07 0.0337318

0.03643 -0.00115368 1.06362e-07
-0.00115368 0.0263422 -3.95391e-08
1.06362e-07 -3.95391e-08 0.0337581

0.0361991 0.00124762 -4.98819e-08
0.00124762 0.0265635 -3.59434e-08
-4.98819e-08 -3.59434e-08 0.033721

0.0350346 -0.00130668 -6.79906e-10
-0.00130668 0.0284682 4.67624e-08
-6.79906e-10 4.67624e-08 0.0325761

0.0344365 0.0042591 1.19125e-07
0.0042591 0.0342895 1.91933e-07
1.19125e-07 1.91933e-07 0.0348127

0.0343123 -0.00435711 -1.36738e-07
-0.00435711 0.0342815 1.37553e-08
-1.36738e-07 1.37553e-08 0.0348011

0.030521 0.00209338 -1.94333e-09
0.00209338 0.0381652 3.83044e-09
-1.94333e-09 3.83044e-09 0.0348499

0.0306644 -0.00205925 1.36419e-08
-0.00205925 0.0380952 -3.80202e-08
1.36419e-08 -3.80202e-08 0.0348372

0.0395021 -0.000529173 6.36082e-08
-0.000529173 0.0328495 2.02353e-08
6.36082e-08 2.02353e-08 0.0352582

0.0397053 0.000513214 -1.32305e-07
0.000513214 0.0326221 -6.88008e-08
-1.32305e-07 -6.88008e-08 0.0353033

0.0239653 0.00127595 2.11831e-08
0.00127595 0.0320034 -1.65175e-07
2.11831e-08 -1.65175e-07 0.0251845

0.0311625 -0.00326533 -1.0037e-07
-0.00326533 0.0322408 -1.5981e-07
-1.0037e-07 -1.5981e-07 0.0328021

0.0277798 -0.00478563 1.02059e-07
-0.00478563 0.0333123 -6.17764e-08
1.02059e-07 -6.17764e-08 0.0334555

0.033359 -0.000610218 8.25877e-09
-0.000610218 0.0264034 1.23816e-07
8.25877e-09 1.23816e-07 0.0284485

0.0381882 -0.00225173 -3.05951e-08
-0.00225173 0.0307948 -1.40333e-07
-3.05951e-08 -1.40333e-07 0.034893

0.0382362 0.00218399 -5.05823e-08
0.00218399 0.0309078 -1.90715e-07
-5.05823e-08 -1.90715e-07 0.0349252

0.0360842 1.56197e-05 -1.04013e-08
1.56197e-05 0.0251261 7.54634e-08
-1.04013e-08 7.54634e-08 0.0334705

0.0242411 0.00302899 -1.07797e-07
0.00302899 0.0303977 -9.59893e-08
-1.07797e-07 -9.59893e-08 0.0242772

0.0276745 0.00475614 2.58954e-08
0.00475614 0.0333127 -7.01329e-08
2.58954e-08 -7.01329e-08 0.0333933

0.028675 -0.00307591 4.74394e-08
-0.00307591 0.0342612 4.04606e-08
4.74394e-08 4.04606e-08 0.0327526

0.0310861 0.00303573 -7.78362e-08
0.00303573 0.0251469 -1.41607e-07
-7.78362e-08 -1.41607e-07 0.0254674

0.0372278 0.00316558 1.13408e-07
0.00316558 0.0315411 -1.72013e-07
1.13408e-07 -1.72013e-07 0.0340761

0.0292272 -0.00406729 -1.51397e-07
-0.00406729 0.026936 1.11352e-07
-1.51397e-07 1.11352e-07 0.0253215

0.0364022 -0.000453677 -8.85511e-08
-0.000453677 0.0296919 -4.53804e-08
-8.85511e-08 -4.53804e-08 0.0341313

0.0273448 -0.00449492 3.28483e-09
-0.00449492 0.0333956 5.8992e-08
3.28483e-09 5.8992e-08 0.0334421

0.0240381 0.001079 5.79018e-08
0.001079 0.0322445 -4.49803e-08
5.79018e-08 -4.49803e-08 0.0255061

0.0242298 0.00282655 -8.19017e-08
0.00282655 0.0307018 1.16459e-07
-8.19017e-08 1.16459e-07 0.0245451

0.0267925 0.00459436 1.06193e-07
0.00459436 0.0240419 -6.51876e-09
1.06193e-07 -6.51876e-09 0.0182137

0.029851 0.000199861 6.54828e-08
0.000199861 0.0200885 -5.9591e-08
6.54828e-08 -5.9591e-08 0.0193626

0.0319091 -0.0030239 8.65165e-08
-0.0030239 0.0341629 3.38456e-09
8.65165e-08 3.38456e-09 0.0340359

0.0229188 0.00399967 1.11676e-07
0.00399967 0.0276602 -1.87774e-08
1.11676e-07 -1.87774e-08 0.0176532

0.02921 0.00310071 -1.22754e-07
0.00310071 0.0327635 -4.62456e-08
-1.22754e-07 -4.62456e-08 0.0310126

0.031595 -0.000694449 -2.26387e-08
-0.000694449 0.0231602 4.58669e-08
-2.26387e-08 4.58669e-08 0.0244851

0.0327615 0.00146443 -3.21743e-08
0.00146443 0.0253471 6.46566e-08
-3.21743e-08 6.46566e-08 0.0276133

0.0359785 5.62504e-05 9.31373e-08
5.62504e-05 0.0249591 -8.26439e-08
9.31373e-08 -8.26439e-08 0.0333866

0.0279663 -0.00380559 1.12762e-07
-0.00380559 0.0349493 -5.1517e-08
1.12762e-07 -5.1517e-08 0.0338163

0.0393148 -0.000844208 2.23701e-07
-0.000844208 0.0416027 2.38641e-08
2.23701e-07 2.38641e-08 0.0361904

0.0298683 0.00493902 1.36507e-07
0.00493902 0.0329564 9.26489e-08
1.36507e-07 9.26489e-08 0.0337794

0.0302883 0.000214522 -2.63091e-07
0.000214522 0.020397 -2.53085e-10
-2.63091e-07 -2.53085e-10 0.0172763

0.026674 -0.0042505 -2.8032e-07
-0.0042505 0.0281334 5.08412e-08
-2.8032e-07 5.08412e-08 0.0244377

0.0277467 0.00481565 2.37485e-08
0.00481565 0.0333154 9.86277e-08
2.37485e-08 9.86277e-08 0.0334556

0.0279454 -0.00145859 9.96792e-09
-0.00145859 0.035085 2.03619e-07
9.96792e-09 2.03619e-07 0.0314506

0.0244653 -0.00330514 -7.1595e-08
-0.00330514 0.0300155 -1.30842e-07
-7.1595e-08 -1.30842e-07 0.0242173

0.027991 0.00377966 2.27522e-08
0.00377966 0.0349105 -9.71869e-08
2.27522e-08 -9.71869e-08 0.0337872

0.0313618 -0.0034095 1.51579e-07
-0.0034095 0.0270089 -7.80949e-08
1.51579e-07 -7.80949e-08 0.0269917

0.0402798 0.00140889 7.1172e-08
0.00140889 0.0406177 -2.27433e-07
7.1172e-08 -2.27433e-07 0.0361708

0.0258814 0.00400306 1.44708e-07
0.00400306 0.0289547 3.64849e-08
1.44708e-07 3.64849e-08 0.0245112

0.0366783 0.00110286 1.12756e-07
0.00110286 0.0263526 9.70633e-08
1.12756e-07 9.70633e-08 0.0338981

0.0333422 0.00398396 -4.12276e-08
0.00398396 0.0321158 1.80025e-07
-4.12276e-08 1.80025e-07 0.033316

0.0292285 0.00306733 -6.70117e-08
0.00306733 0.032606 1.00548e-07
-6.70117e-08 1.00548e-07 0.0321581

0.0343647 -0.00431046 8.29473e-09
-0.00431046 0.0345053 -1.43904e-07
8.29473e-09 -1.43904e-07 0.0348853

0.0354901 -0.0030634 9.36064e-08
-0.0030634 0.0305905 7.04303e-08
9.36064e-08 7.04303e-08 0.0327508

0.0333668 0.0013879 8.13326e-08
0.0013879 0.0395773 2.62551e-07
8.13326e-08 2.62551e-07 0.0350029

0.0291974 -0.00307914 2.81023e-07
-0.00307914 0.0328734 -1.98344e-07
2.81023e-07 -1.98344e-07 0.0313837

0.0292651 -0.00123224 3.39697e-07
-0.00123224 0.0192873 2.23225e-08
3.39697e-07 2.23225e-08 0.0164123

0.0287786 -0.00183234 -1.76246e-07
-0.00183234 0.0184142 1.79828e-07
-1.76246e-07 1.79828e-07 0.0161973

0.0385293 0.0022019 7.56586e-08
0.0022019 0.0332393 -3.77129e-08
7.56586e-08 -3.77129e-08 0.0347633

0.0280565 0.00294524 1.52252e-07
0.00294524 0.0323355 2.31347e-07
1.52252e-07 2.31347e-07 0.0295186

0.0320679 0.00383432 -9.47849e-08
0.00383432 0.030961 -7.70106e-08
-9.47849e-08 -7.70106e-08 0.0314548

0.0320503 8.99737e-05 -2.06406e-07
8.99737e-05 0.0245773 1.414e-07
-2.06406e-07 1.414e-07 0.0248885

0.0302381 0.000866239 -1.07863e-07
0.000866239 0.0385819 -7.64636e-08
-1.07863e-07 -7.64636e-08 0.0340968

0.0354022 0.00219158 -7.29141e-08
0.00219158 0.0293234 -1.26681e-07
-7.29141e-08 -1.26681e-07 0.0328588

0.0248118 -0.00333878 7.67187e-09
-0.00333878 0.0300067 2.53606e-07
7.67187e-09 2.53606e-07 0.0244704

0.028651 -0.000337792 1.5366e-07
-0.000337792 0.0366578 -5.55876e-08
1.5366e-07 -5.55876e-08 0.0323962

0.0252156 0.00174006 -6.30135e-08
0.00174006 0.0320301 -1.6778e-07
-6.30135e-08 -1.6778e-07 0.0256844

0.0332809 -0.00390968 -1.73171e-08
-0.00390968 0.0304974 6.37426e-08
-1.73171e-08 6.37426e-08 0.0315929

0.0290655 -0.00389605 -8.93522e-08
-0.00389605 0.0282006 2.31342e-07
-8.93522e-08 2.31342e-07 0.025714

0.0261497 0.0040987 2.73943e-10
0.0040987 0.028547 -8.87607e-09
2.73943e-10 -8.87607e-09 0.0243185

0.0452876 -0.00201735 1.37115e-07
-0.00201735 0.039606 3.51256e-07
1.37115e-07 3.51256e-07 0.0363673

0.0316672 0.000256524 -9.40237e-08
0.000256524 0.0393271 2.41159e-07
-9.40237e-08 2.41159e-07 0.0347695

0.0306169 0.00265093 1.09965e-08
0.00265093 0.038443 -2.54508e-09
1.09965e-08 -2.54508e-09 0.0349582

0.0387661 0.00209468 4.83003e-08
0.00209468 0.0302222 2.05112e-07
4.83003e-08 2.05112e-07 0.034943

0.0313714 -0.00345038 3.75494e-10
-0.00345038 0.0321408 -1.06076e-07
3.75494e-10 -1.06076e-07 0.0325732

0.0318186 0.00233619 -4.32172e-08
0.00233619 0.0256208 -1.92593e-07
-4.32172e-08 -1.92593e-07 0.02588

0.0349941 -0.000708446 2.02943e-07
-0.000708446 0.0415759 2.63106e-08
2.02943e-07 2.63106e-08 0.0357281

0.0357884 -0.00251879 -1.29083e-07
-0.00251879 0.0295508 -8.71587e-08
-1.29083e-07 -8.71587e-08 0.0332584

0.0332974 -0.00203957 -9.10231e-08
-0.00203957 0.0266532 -4.23256e-08
-9.10231e-08 -4.23256e-08 0.0286759

0.0252526 0.00151091 1.8181e-08
0.00151091 0.0322749 -4.64732e-08
1.8181e-08 -4.64732e-08 0.0259504

0.026805 -0.00334466 -1.14536e-07
-0.00334466 0.0300098 -1.32483e-07
-1.14536e-07 -1.32483e-07 0.0251877

0.0364786 -0.00336028 -1.75035e-07
-0.00336028 0.0352881 -4.84946e-08
-1.75035e-07 -4.84946e-08 0.0347427

0.0284761 0.00415228 -1.16605e-07
0.00415228 0.0277165 1.37852e-07
-1.16605e-07 1.37852e-07 0.0254682

0.0372441 -0.00334557 -1.69364e-09
-0.00334557 0.0333225 2.55297e-08
-1.69364e-09 2.55297e-08 0.0346121

0.0322066 0.000337913 9.1164e-10
0.000337913 0.024863 9.17189e-08
9.1164e-10 9.17189e-08 0.0254379

0.0191613 -0.00368916 1.47357e-07
-0.00368916 0.0275263 8.1728e-08
1.47357e-07 8.1728e-08 0.016311

0.0292105 -0.00380371 1.42702e-07
-0.00380371 0.028193 8.87572e-08
1.42702e-07 8.87572e-08 0.0258081

0.0230462 0.00412744 -8.87023e-08
0.00412744 0.0280208 6.37415e-08
-8.87023e-08 6.37415e-08 0.0175924

0.0296914 -0.0015594 -1.60431e-07
-0.0015594 0.0375338 1.97071e-07
-1.60431e-07 1.97071e-07 0.0336489

0.0243604 -0.00179374 -4.03701e-09
-0.00179374 0.0318728 5.28663e-08
-4.03701e-09 5.28663e-08 0.0254483

0.0424378 -0.00323419 -1.16504e-07
-0.00323419 0.042376 -2.95168e-08
-1.16504e-07 -2.95168e-08 0.0363756

0.0263372 0.003091 9.44078e-08
0.003091 0.030702 1.16612e-07
9.44078e-08 1.16612e-07 0.0254781

0.0334774 -0.00432361 3.01093e-08
-0.00432361 0.0326598 -2.66507e-08
3.01093e-08 -2.66507e-08 0.0335668

0.0240809 -0.00155085 5.70869e-08
-0.00155085 0.0318874 -8.4858e-08
5.70869e-08 -8.4858e-08 0.025177

0.0362227 -0.00253877 5.72779e-08
-0.00253877 0.0295116 -3.90369e-08
5.72779e-08 -3.90369e-08 0.0335197

0.0266738 0.00310473 5.54131e-08
0.00310473 0.0303946 -9.86959e-08
5.54131e-08 -9.86959e-08 0.0253134

0.0343431 -0.000653725 3.93603e-08
-0.000653725 0.027277 -2.15994e-08
3.93603e-08 -2.15994e-08 0.0305779

0.0188906 -0.00387155 3.20057e-08
-0.00387155 0.0298019 3.4602e-07
3.20057e-08 3.4602e-07 0.0129613

0.0279995 0.00275439 1.16211e-07
0.00275439 0.0326293 -3.57531e-08
1.16211e-07 -3.57531e-08 0.0305738

0.0314376 -0.00251236 1.15498e-07
-0.00251236 0.0247223 -4.9832e-08
1.15498e-07 -4.9832e-08 0.025406

0.0391182 -0.0028694 5.42063e-08
-0.0028694 0.0322214 6.12053e-08
5.42063e-08 6.12053e-08 0.034937

0.028753 0.00412406 -8.75041e-08
0.00412406 0.0273001 -1.00647e-07
-8.75041e-08 -1.00647e-07 0.0252555

0.0313613 -0.00391923 9.73489e-09
-0.00391923 0.0285418 1.35281e-07
9.73489e-09 1.35281e-07 0.028731

0.0354082 0.00276403 -1.0145e-07
0.00276403 0.0308558 -2.52997e-08
-1.0145e-07 -2.52997e-08 0.0330392

0.0297728 -0.00370367 -6.47849e-08
-0.00370367 0.0329377 -1.52241e-10
-6.47849e-08 -1.52241e-10 0.0333423

0.0270551 -0.00341022 -1.91453e-07
-0.00341022 0.0299825 2.38543e-07
-1.91453e-07 2.38543e-07 0.0253973

0.0284406 0.00377135 -4.5518e-08
0.00377135 0.0289396 3.11647e-08
-4.5518e-08 3.11647e-08 0.0258872

0.0313712 0.00341339 -1.08607e-08
0.00341339 0.0268992 -1.64239e-07
-1.08607e-08 -1.64239e-07 0.0269659

0.0365357 -0.00194432 4.85424e-08
-0.00194432 0.0306252 -5.75925e-08
4.85424e-08 -5.75925e-08 0.0336355

0.0255336 -0.0021631 -9.48177e-08
-0.0021631 0.0318015 4.517e-08
-9.48177e-08 4.517e-08 0.0258536

0.0346995 -0.00231404 -6.00031e-09
-0.00231404 0.028334 4.63547e-08
-6.00031e-09 4.63547e-08 0.0314557

0.0341858 0.00222317 -2.9539e-08
0.00222317 0.0274317 -1.91223e-07
-2.9539e-08 -1.91223e-07 0.0306036

0.0336447 -0.00124555 -3.78901e-08
-0.00124555 0.0392998 -1.49136e-07
-3.78901e-08 -1.49136e-07 0.0349271

0.0320718 -0.00174668 7.86564e-08
-0.00174668 0.0253302 -1.20462e-07
7.86564e-08 -1.20462e-07 0.0258709

0.0250016 7.96583e-05 -3.83223e-08
7.96583e-05 0.0331511 -6.84574e-08
-3.83223e-08 -6.84574e-08 0.0268609

0.0332469 0.00242863 -9.29018e-08
0.00242863 0.0271933 -3.28943e-08
-9.29018e-08 -3.28943e-08 0.0289218

0.0311174 0.00359868 5.02283e-08
0.00359868 0.0272923 1.1694e-07
5.02283e-08 1.1694e-07 0.0271223

0.0252951 -0.0020411 -4.77753e-08
-0.0020411 0.0318641 -8.73107e-08
-4.77753e-08 -8.73107e-08 0.0256108

0.0252008 -0.000154572 7.73379e-09
-0.000154572 0.0332913 3.21194e-08
7.73379e-09 3.21194e-08 0.0271437

0.0354128 0.00385793 -2.04371e-07
0.00385793 0.0329953 -1.53827e-08
-2.04371e-07 -1.53827e-08 0.0338951

0.0275854 -0.00143095 -2.19346e-08
-0.00143095 0.0353418 -9.04578e-08
-2.19346e-08 -9.04578e-08 0.0314417

0.0312338 -0.00348385 1.339e-07
-0.00348385 0.0269773 1.22341e-07
1.339e-07 1.22341e-07 0.0270095

0.0312962 0.00277248 1.15429e-07
0.00277248 0.0249219 5.25608e-08
1.15429e-07 5.25608e-08 0.0252459

0.0345822 0.00311822 1.38331e-07
0.00311822 0.0293863 1.19073e-07
1.38331e-07 1.19073e-07 0.0317954

0.027991 0.000716799 4.33338e-08
0.000716799 0.0360389 3.07749e-08
4.33338e-08 3.07749e-08 0.0318178

0.0287159 0.00378125 -1.43857e-07
0.00378125 0.028559 -5.90855e-09
-1.43857e-07 -5.90855e-09 0.0257276

0.0367901 0.0030577 1.23011e-07
0.0030577 0.036125 -1.38924e-07
1.23011e-07 -1.38924e-07 0.0349068

0.0226798 -0.00754517 -1.94167e-09
-0.00754517 0.0186876 -1.97227e-07
-1.94167e-09 -1.97227e-07 0.010845

0.0332908 -0.00328747 -6.18241e-08
-0.00328747 0.0286319 1.29633e-07
-6.18241e-08 1.29633e-07 0.0301236

0.0207265 0.000913405 5.48676e-08
0.000913405 0.0300306 1.19362e-07
5.48676e-08 1.19362e-07 0.0183462

0.0312999 -0.00378157 3.33332e-08
-0.00378157 0.0292306 1.77511e-07
3.33332e-08 1.77511e-07 0.0290312

0.00153955 -0.0065187 -2.89941e-08
-0.0065187 0.0275679 1.27032e-07
-2.89941e-08 1.27032e-07 0.0029083

0.00146994 0.00636829 -1.91336e-09
0.00636829 0.027586 -8.383e-09
-1.91336e-09 -8.383e-09 0.00300125

0.0119845 0.0145048 -4.79913e-09
0.0145048 0.0175323 -6.01792e-09
-4.79913e-09 -6.01792e-09 0.00277118

0.0121659 -0.0144955 -1.29843e-08
-0.0144955 0.0172238 1.62818e-08
-1.29843e-08 1.62818e-08 0.00280379

0.0293405 -0.000164088 -1.07099e-08
-0.000164088 0 0
-1.07099e-08 0 0.0029526

0.0235919 -0.0112825 8.54675e-08
-0.0112825 0.00539541 -4.1159e-08
8.54675e-08 -4.1159e-08 0.0029783

0.0236339 0.0113488 -9.33215e-08
0.0113488 0.00544951 -4.49412e-08
-9.33215e-08 -4.49412e-08 0.00303947

0.0369109 0.00191144 1.20778e-07
0.00191144 0.0302419 3.85424e-08
1.20778e-07 3.85424e-08 0.0338775

0.0387053 0.00341007 6.73272e-08
0.00341007 0.0366174 -5.09938e-08
6.73272e-08 -5.09938e-08 0.0355783

0.0344143 0.000872408 7.37404e-08
0.000872408 0.0274566 4.13227e-08
7.37404e-08 4.13227e-08 0.0316877

0.0328726 0.00285023 -1.97957e-08
0.00285023 0.0268891 -1.6458e-07
-1.97957e-08 -1.6458e-07 0.0286461

0.0257005 0.00231328 4.87734e-08
0.00231328 0.0323667 5.80308e-08
4.87734e-08 5.80308e-08 0.0276354

0.0307125 0.00376895 3.13083e-08
0.00376895 0.027676 1.44961e-07
3.13083e-08 1.44961e-07 0.0271175

0.0333053 -0.00390314 -7.37751e-08
-0.00390314 0.0304657 -1.75503e-08
-7.37751e-08 -1.75503e-08 0.0316298

0.0309733 0.00365443 -4.71369e-08
0.00365443 0.0272868 -1.0025e-07
-4.71369e-08 -1.0025e-07 0.0269251

0.024987 -0.000371455 6.77989e-08
-0.000371455 0.0331222 -6.50527e-08
6.77989e-08 -6.50527e-08 0.026843

0.0385482 -0.00348458 1.64462e-07
-0.00348458 0.0368807 -5.00024e-08
1.64462e-07 -5.00024e-08 0.0355839

0.0251754 -0.000635708 -1.52319e-08
-0.000635708 0.0332099 3.017e-08
-1.52319e-08 3.017e-08 0.0271026

0.0360177 0.00304736 -1.73183e-07
0.00304736 0.0330109 -9.87715e-08
-1.73183e-07 -9.87715e-08 0.0340979

0.0296229 0.00347559 -4.4052e-08
0.00347559 0.0248463 6.16395e-08
-4.4052e-08 6.16395e-08 0.0230227

0.030496 -0.00171404 -1.44974e-07
-0.00171404 0.0375129 7.84022e-08
-1.44974e-07 7.84022e-08 0.0347365

0.0339205 0.00180446 1.0942e-07
0.00180446 0.0271815 -3.10317e-08
1.0942e-07 -3.10317e-08 0.0303204

0.031201 -0.00392024 1.06807e-07
-0.00392024 0.0285311 1.68251e-07
1.06807e-07 1.68251e-07 0.0286144

0.0315837 -0.00322149 7.75987e-08
-0.00322149 0.0266916 1.40143e-08
7.75987e-08 1.40143e-08 0.0270476

0.0384797 -0.00214126 4.33378e-08
-0.00214126 0.0334171 1.1151e-07
4.33378e-08 1.1151e-07 0.0347449

0.0326814 0.00366408 -4.48679e-08
0.00366408 0.0292322 1.68975e-07
-4.48679e-08 1.68975e-07 0.030155

0.0326449 0.00313745 -7.28279e-08
0.00313745 0.0272523 1.12123e-07
-7.28279e-08 1.12123e-07 0.028788

0.0269551 -0.000365186 -1.37297e-07
-0.000365186 0.0349873 -2.2578e-08
-1.37297e-07 -2.2578e-08 0.030168

0.0258997 0.000765873 -6.72147e-08
0.000765873 0.0340035 -1.2998e-07
-6.72147e-08 -1.2998e-07 0.0288231

0.0327782 0.000345401 2.44519e-08
0.000345401 0.0248617 9.3325e-08
2.44519e-08 9.3325e-08 0.0274438

0.0313873 -0.000944839 -1.60722e-07
-0.000944839 0.023004 2.23667e-07
-1.60722e-07 2.23667e-07 0.0238922

0.0308807 0.00398511 1.25044e-07
0.00398511 0.0288059 2.14616e-07
1.25044e-07 2.14616e-07 0.0286242

0.0331182 -0.00343136 -5.58638e-10
-0.00343136 0.0285407 1.67397e-07
-5.58638e-10 1.67397e-07 0.0299694

0.0364127 -0.00282381 1.4128e-07
-0.00282381 0.0327329 2.17853e-08
1.4128e-07 2.17853e-08 0.0341442

0.0292064 -0.00412761 8.284e-08
-0.00412761 0.0291923 1.80787e-07
8.284e-08 1.80787e-07 0.0277539

0.0269721 -0.00362042 -1.70541e-07
-0.00362042 0.0304648 -3.95251e-08
-1.70541e-07 -3.95251e-08 0.0272135

0.0283262 0.0038995 -1.48233e-07
0.0038995 0.0299009 -1.72719e-07
-1.48233e-07 -1.72719e-07 0.0277521

0.0259014 -0.00124881 -9.85303e-08
-0.00124881 0.0336136 1.97566e-07
-9.85303e-08 1.97566e-07 0.028516

0.0266546 -0.000201876 -1.7894e-07
-0.000201876 0.034913 4.97557e-08
-1.7894e-07 4.97557e-08 0.0299199

0.0277624 0.000752934 -1.12348e-07
0.000752934 0.0360384 3.19485e-08
-1.12348e-07 3.19485e-08 0.0316583

0.0262473 -0.00274941 1.58924e-08
-0.00274941 0.0319631 -1.20082e-07
1.58924e-08 -1.20082e-07 0.0277107

0.0345826 0.00317568 1.06962e-07
0.00317568 0.0291685 1.78096e-07
1.06962e-07 1.78096e-07 0.0316345

0.0339093 -0.00126087 4.12456e-08
-0.00126087 0.0269304 -1.68891e-08
4.12456e-08 -1.68891e-08 0.0302018

0.0257904 0.000974234 9.27014e-08
0.000974234 0.0338298 1.65598e-07
9.27014e-08 1.65598e-07 0.028542

0.0278241 -0.00126992 -8.1536e-08
-0.00126992 0.0353976 -1.02616e-07
-8.1536e-08 -1.02616e-07 0.0313661

0.027293 -0.00213733 1.40022e-08
-0.00213733 0.0336569 -1.33917e-08
1.40022e-08 -1.33917e-08 0.0302258

0.0327772 -0.00107729 1.01743e-07
-0.00107729 0.0253201 -2.20044e-07
1.01743e-07 -2.20044e-07 0.0272544

0.0333152 -0.00427079 1.45441e-07
-0.00427079 0.0323803 -1.3341e-07
1.45441e-07 -1.3341e-07 0.0335293

0.0264888 0.00121972 -1.6165e-08
0.00121972 0.0338359 1.64271e-07
-1.6165e-08 1.64271e-07 0.0288161

0.0398103 -0.00243157 1.50815e-07
-0.00243157 0.0352186 -5.99858e-08
1.50815e-07 -5.99858e-08 0.0354611

0.0188888 0.00316461 7.69262e-08
0.00316461 0.0278762 7.92641e-08
7.69262e-08 7.92641e-08 0.0162728

0.0338155 -0.00352265 2.31132e-07
-0.00352265 0.0334945 3.02593e-09
2.31132e-07 3.02593e-09 0.0337262

0.0353441 -0.00399926 5.82399e-08
-0.00399926 0.0330465 1.13064e-07
5.82399e-08 1.13064e-07 0.0339041

0.0266859 -9.05158e-05 1.5909e-07
-9.05158e-05 0.0349181 5.75091e-08
1.5909e-07 5.75091e-08 0.0299281

0.0332428 -0.00217637 -1.10439e-07
-0.00217637 0.0271531 -1.79917e-07
-1.10439e-07 -1.79917e-07 0.0289027

0.0293476 0.00168485 -6.05312e-09
0.00168485 0.0358197 -4.49509e-08
-6.05312e-09 -4.49509e-08 0.0328798

0.0132075 -0.000379134 1.38332e-07
-0.000379134 0.0283623 3.17546e-07
1.38332e-07 3.17546e-07 0.0111518

0.0271137 0.00186842 -1.07808e-07
0.00186842 0.0340619 -8.12161e-09
-1.07808e-07 -8.12161e-09 0.0303063

0.031109 -0.00385849 5.43514e-08
-0.00385849 0.0291541 6.24834e-08
5.43514e-08 6.24834e-08 0.0288065

0.0186198 0.00320452 -2.16154e-08
0.00320452 0.0301396 -1.91913e-07
-2.16154e-08 -1.91913e-07 0.0131268

0.0426002 0.00351784 1.98323e-07
0.00351784 0.0418486 2.72383e-07
1.98323e-07 2.72383e-07 0.0364804

0.043206 -0.00374868 -6.85213e-07
-0.00374868 0.0414175 6.75341e-07
-6.85213e-07 6.75341e-07 0.0364629

0.031065 -0.00399066 1.61027e-07
-0.00399066 0.0304712 -2.32191e-08
1.61027e-07 -2.32191e-08 0.030461

0.0289222 -0.00406405 1.29359e-08
-0.00406405 0.0291505 6.20336e-08
1.29359e-08 6.20336e-08 0.0275944

0.0330509 0.00272698 1.09434e-07
0.00272698 0.0275285 -1.78796e-07
1.09434e-07 -1.78796e-07 0.0290754

0.0327795 0.00196015 1.04686e-07
0.00196015 0.0255912 -1.87388e-07
1.04686e-07 -1.87388e-07 0.0278227

0.0464016 0.000419546 4.32889e-07
0.000419546 0.046357 -5.38897e-08
4.32889e-07 -5.38897e-08 0.0366946

0.0469203 -0.000951091 -3.61492e-07
-0.000951091 0.0457678 1.0112e-07
-3.61492e-07 1.0112e-07 0.0367658

0.0347993 0.000638142 -4.29342e-08
0.000638142 0.027573 1.4278e-07
-4.29342e-08 1.4278e-07 0.0322165

0.0277517 0.000882312 -1.0696e-07
0.000882312 0.0355706 -9.75212e-09
-1.0696e-07 -9.75212e-09 0.0313486

0.0276076 0.000882852 1.23429e-07
0.000882852 0.0355708 -3.17006e-09
1.23429e-07 -3.17006e-09 0.0312447

0.0234591 0.00739997 -1.38023e-07
0.00739997 0.0183019 1.57254e-07
-1.38023e-07 1.57254e-07 0.0109015

0.0272469 -0.00367548 -4.20708e-08
-0.00367548 0.0303471 1.63667e-08
-4.20708e-08 1.63667e-08 0.0273193

0.036567 0.00239162 8.75578e-08
0.00239162 0.029576 8.10319e-08
8.75578e-08 8.10319e-08 0.0337843

0.0332737 0.00124752 -9.16313e-09
0.00124752 0.026504 3.16417e-08
-9.16313e-09 3.16417e-08 0.0284317

0.0291524 -0.00349251 -3.65329e-08
-0.00349251 0.030471 -2.83965e-08
-3.65329e-08 -2.83965e-08 0.0281732

0.0328105 -0.00264783 1.38642e-08
-0.00264783 0.0267278 1.19461e-08
1.38642e-08 1.19461e-08 0.0285866

0.02246 0.00761275 -1.12335e-07
0.00761275 0.0185905 2.25633e-07
-1.12335e-07 2.25633e-07 0.0109039

0.0331447 0.00410222 1.14895e-07
0.00410222 0.032638 -1.83981e-07
1.14895e-07 -1.83981e-07 0.0331815

0.02589 -0.0025783 -1.67773e-07
-0.0025783 0.0320242 1.09462e-07
-1.67773e-07 1.09462e-07 0.0275073

0.0324825 0.00378585 1.36291e-09
0.00378585 0.029268 1.06218e-07
1.36291e-09 1.06218e-07 0.0301467

0.0268158 -0.000543847 1.38107e-07
-0.000543847 0.0349522 5.57312e-09
1.38107e-07 5.57312e-09 0.0301377

0.0269897 0.0025634 -1.91193e-07
0.0025634 0.032448 -5.77097e-08
-1.91193e-07 -5.77097e-08 0.0282863

0.030526 0.00399096 1.24197e-08
0.00399096 0.0293231 1.07109e-07
1.24197e-08 1.07109e-07 0.0287749

0.0276084 -0.0029372 -1.18291e-07
-0.0029372 0.0318536 -1.43949e-07
-1.18291e-07 -1.43949e-07 0.0282488

0.029456 -0.00357563 -1.20463e-08
-0.00357563 0.0303508 1.83204e-08
-1.20463e-08 1.83204e-08 0.0283048

0.0181376 0.0014254 -3.92268e-08
0.0014254 0.0280362 1.7352e-07
-3.92268e-08 1.7352e-07 0.0131275

0.0234736 -0.00429396 -7.63141e-08
-0.00429396 0.0275559 8.79146e-08
-7.63141e-08 8.79146e-08 0.0177232

0.0262052 -0.00152624 8.44994e-08
-0.00152624 0.0336236 -1.14732e-07
8.44994e-08 -1.14732e-07 0.0287516

0.0330233 0.00347476 2.19738e-08
0.00347476 0.0288774 2.23712e-07
2.19738e-08 2.23712e-07 0.0300687

0.0303214 0.00385747 2.37185e-07
0.00385747 0.0298862 -1.4689e-07
2.37185e-07 -1.4689e-07 0.0289901

0.0274142 -0.00280046 -8.99413e-08
-0.00280046 0.0319839 1.15187e-07
-8.99413e-08 1.15187e-07 0.0281388

0.0265543 -0.00154095 -1.2146e-07
-0.00154095 0.033582 1.96438e-07
-1.2146e-07 1.96438e-07 0.028746

0.0309562 0.00371822 1.72106e-07
0.00371822 0.029563 1.22347e-07
1.72106e-07 1.22347e-07 0.0289409

0.0267592 -0.00181593 1.17618e-08
-0.00181593 0.0334742 -1.30329e-07
1.17618e-08 -1.30329e-07 0.028954

0.0191659 0.00355444 -7.91522e-08
0.00355444 0.0276075 -4.02466e-08
-7.91522e-08 -4.02466e-08 0.016292

0.0308732 -0.00053464 -2.23677e-08
-0.00053464 0.0388185 1.26638e-07
-2.23677e-08 1.26638e-07 0.0342941

0.0286562 0.00404774 -4.48854e-08
0.00404774 0.0295181 1.46437e-07
-4.48854e-08 1.46437e-07 0.0277143

0.0355799 0.00197493 -2.11237e-07
0.00197493 0.0295028 1.3742e-07
-2.11237e-07 1.3742e-07 0.0328424

0.0362588 -0.00211481 8.2635e-08
-0.00211481 0.0297549 2.11304e-07
8.2635e-08 2.11304e-07 0.0332176

0.0285103 -0.00309562 2.87029e-07
-0.00309562 0.0185689 -2.26079e-07
2.87029e-07 -2.26079e-07 0.0157298

0.028353 -0.00279035 -2.02749e-07
-0.00279035 0.0327747 -2.64116e-08
-2.02749e-07 -2.64116e-08 0.0305713

0.0291905 0.00350089 -2.67998e-07
0.00350089 0.0315994 1.92185e-07
-2.67998e-07 1.92185e-07 0.0304872

0.0349591 -0.00290715 -4.3599e-08
-0.00290715 0.0376747 -2.40957e-07
-4.3599e-08 -2.40957e-07 0.0352358

0.03946 0.00188537 1.5447e-07
0.00188537 0.0446087 1.31226e-07
1.5447e-07 1.31226e-07 0.0364326

0.0449431 0.00129057 -1.32062e-07
0.00129057 0.039116 1.37667e-08
-1.32062e-07 1.37667e-08 0.0364146

0.0355603 0.00434551 3.21257e-08
0.00434551 0.0351344 5.01527e-08
3.21257e-08 5.01527e-08 0.0350031

0.0265716 0.00338769 -1.13579e-07
0.00338769 0.031006 -2.61546e-07
-1.13579e-07 -2.61546e-07 0.0272555

0.0330389 0.00349699 9.50484e-08
0.00349699 0.0286666 3.99832e-08
9.50484e-08 3.99832e-08 0.0300498

0.0220596 0.00576425 -1.17815e-08
0.00576425 0.0242373 1.74791e-07
-1.17815e-08 1.74791e-07 0.0160722

0.0386179 -0.00151209 -4.75674e-08
-0.00151209 0.0444319 1.89312e-08
-4.75674e-08 1.89312e-08 0.0363618

0.046048 -0.000463898 3.89419e-08
-0.000463898 0.0454387 1.76438e-07
3.89419e-08 1.76438e-07 0.0366907

0.0451791 -3.17615e-05 -7.08725e-08
-3.17615e-05 0.0463016 -3.888e-07
-7.08725e-08 -3.888e-07 0.0366727

0.0176408 -0.00679482 -1.76135e-07
-0.00679482 0.0231081 -7.08716e-08
-1.76135e-07 -7.08716e-08 0.0107384

0.0392916 -0.0015559 -1.13676e-07
-0.0015559 0.0387144 -1.23557e-07
-1.13676e-07 -1.23557e-07 0.0358533

0.0383965 0.00117664 1.75656e-07
0.00117664 0.0415173 -4.41869e-09
1.75656e-07 -4.41869e-09 0.0361247

0.0331746 -0.0034359 -3.70587e-08
-0.0034359 0.0282193 8.31487e-08
-3.70587e-08 8.31487e-08 0.0299032

0.0318443 0.000140306 -2.07683e-07
0.000140306 0.0386713 1.45489e-07
-2.07683e-07 1.45489e-07 0.0344501

0.0285765 -0.00266024 3.15091e-08
-0.00266024 0.0333806 -3.62246e-09
3.15091e-08 -3.62246e-09 0.031589

0.0356621 0.000831688 -1.96717e-07
0.000831688 0.0273773 2.74653e-08
-1.96717e-07 2.74653e-08 0.0329998

0.0288759 0.00204421 8.31946e-10
0.00204421 0.0368164 -1.57558e-07
8.31946e-10 -1.57558e-07 0.0336694

0.0298691 0.000946452 9.77792e-08
0.000946452 0.037388 -1.54791e-07
9.77792e-08 -1.54791e-07 0.0333632

0.0344014 0.00268494 5.04369e-08
0.00268494 0.0288512 4.57174e-08
5.04369e-08 4.57174e-08 0.031226

0.0132791 -0.000409314 -5.55796e-08
-0.000409314 0.0281228 -2.0493e-07
-5.55796e-08 -2.0493e-07 0.0112013

0.0309644 -0.00362609 1.21034e-07
-0.00362609 0.0309151 -3.28192e-08
1.21034e-07 -3.28192e-08 0.0306093

0.0329281 -0.00344361 -8.46745e-08
-0.00344361 0.0320207 2.1289e-08
-8.46745e-08 2.1289e-08 0.032579

0.0335711 -0.00415912 -1.01745e-08
-0.00415912 0.0325341 -1.82058e-07
-1.01745e-08 -1.82058e-07 0.0337354

0.0265619 0.00414856 1.33848e-08
0.00414856 0.0176914 -2.46441e-07
1.33848e-08 -2.46441e-07 0.0126051

0.0388275 -0.00269656 -6.815e-08
-0.00269656 0.0395756 3.45892e-07
-6.815e-08 3.45892e-07 0.0359581

0.0230827 0.00692078 -1.05287e-07
0.00692078 0.0255019 4.93147e-08
-1.05287e-07 4.93147e-08 0.0126094

0.0308744 -0.00281787 -1.96002e-07
-0.00281787 0.0348077 2.5164e-08
-1.96002e-07 2.5164e-08 0.033956

0.0354111 0.00193664 -5.51712e-08
0.00193664 0.0284655 -1.42446e-07
-5.51712e-08 -1.42446e-07 0.0323444

0.0318211 -0.00189347 1.07859e-07
-0.00189347 0.0249506 -2.17965e-07
1.07859e-07 -2.17965e-07 0.0253953

0.029292 0.00315893 -1.72864e-07
0.00315893 0.0327317 -8.66496e-08
-1.72864e-07 -8.66496e-08 0.0312794

0.0344368 0.00268866 9.25532e-08
0.00268866 0.0286343 -5.42478e-08
9.25532e-08 -5.42478e-08 0.0312206

0.0325186 0.0014988 5.41833e-09
0.0014988 0.0403731 2.69722e-07
5.41833e-09 2.69722e-07 0.0353363

0.0319404 -0.00415464 -5.44888e-08
-0.00415464 0.0312011 5.98032e-08
-5.44888e-08 5.98032e-08 0.0318104

0.0396763 0.00265516 -4.02515e-08
0.00265516 0.0331981 2.34086e-08
-4.02515e-08 2.34086e-08 0.0353157

0.0279712 -0.0024183 3.7208e-08
-0.0024183 0.0335507 -9.71563e-09
3.7208e-08 -9.71563e-09 0.0304704

0.0293506 0.000558544 8.25464e-08
0.000558544 0.0373117 -1.56387e-07
8.25464e-08 -1.56387e-07 0.0332524

0.041943 0.00133779 -2.81398e-08
0.00133779 0.0371 -3.86479e-08
-2.81398e-08 -3.86479e-08 0.036116

0.0420973 -0.00114789 5.21583e-08
-0.00114789 0.0373261 -6.16522e-08
5.21583e-08 -6.16522e-08 0.0360979

0.028383 0.00236898 -1.0707e-07
0.00236898 0.0181815 -2.2928e-07
-1.0707e-07 -2.2928e-07 0.0159498

0.035026 0.00106137 -1.02448e-07
0.00106137 0.0285659 -1.39865e-07
-1.02448e-07 -1.39865e-07 0.0330588

0.0128669 0.000923451 -9.13564e-08
0.000923451 0.0316264 6.9659e-08
-9.13564e-08 6.9659e-08 0.00612172

0.0131625 -0.00138814 1.28214e-07
-0.00138814 0.0321323 -1.24191e-07
1.28214e-07 -1.24191e-07 0.00611204

0.0152688 0.00715425 -2.14094e-08
0.00715425 0.0284531 5.26382e-08
-2.14094e-08 5.26382e-08 0.00598416

0.0347637 -0.00382125 1.70582e-07
-0.00382125 0.0312679 1.16496e-07
1.70582e-07 1.16496e-07 0.0329389

0.0155807 -0.0061944 -7.97785e-09
-0.0061944 0.0261528 -1.34332e-07
-7.97785e-09 -1.34332e-07 0.010472

0.0155129 -0.00708682 -7.39877e-08
-0.00708682 0.0274236 -2.01581e-07
-7.39877e-08 -2.01581e-07 0.00591396

0.028426 0.00342551 -8.2989e-08
0.00342551 0.0310062 -2.61652e-07
-8.2989e-08 -2.61652e-07 0.0281526

0.0251935 0.00932586 -2.73388e-07
0.00932586 0.0190208 4.48577e-08
-2.73388e-07 4.48577e-08 0.00593383

0.0365378 0.00173172 -2.75385e-07
0.00173172 0.0385514 6.37362e-08
-2.75385e-07 6.37362e-08 0.035475

0.0395347 2.53408e-05 1.26392e-07
2.53408e-05 0.0355394 -4.99005e-08
1.26392e-07 -4.99005e-08 0.0354556

0.0261073 -0.0092444 -1.86754e-07
-0.0092444 0.0188126 -2.00821e-08
-1.86754e-07 -2.00821e-08 0.005888

0.0276898 -0.00306486 1.29266e-08
-0.00306486 0.0320947 -5.75818e-08
1.29266e-08 -5.75818e-08 0.0296228

0.0262552 0.00441814 -8.65561e-08
0.00441814 0.020158 1.38001e-07
-8.65561e-08 1.38001e-07 0.0130446

0.0172792 0.00797305 1.04537e-07
0.00797305 0.027149 2.31359e-08
1.04537e-07 2.31359e-08 0.00598784

0.0181963 0.00275513 4.31372e-08
0.00275513 0.0275897 1.59699e-07
4.31372e-08 1.59699e-07 0.01285

0.0173041 -0.00827635 -1.46507e-07
-0.00827635 0.0271523 1.6362e-07
-1.46507e-07 1.6362e-07 0.00581379

0.0179329 -0.00157099 2.09676e-07
-0.00157099 0.0280057 -3.49936e-07
2.09676e-07 -3.49936e-07 0.0126905

0.03705 0.000923223 -6.05471e-08
0.000923223 0.0413003 4.74995e-08
-6.05471e-08 4.74995e-08 0.0358098

0.0221313 -0.00585516 8.75755e-08
-0.00585516 0.0236646 1.27705e-08
8.75755e-08 1.27705e-08 0.0151589

0.0157001 0.00598619 1.03663e-07
0.00598619 0.0259024 2.0311e-08
1.03663e-07 2.0311e-08 0.0107502

0.0302087 0.00473008 -1.4782e-07
0.00473008 0.0143492 -2.37424e-07
-1.4782e-07 -2.37424e-07 0.00611582

0.0329384 -0.00384944 1.01542e-07
-0.00384944 0.0301239 -3.68374e-08
1.01542e-07 -3.68374e-08 0.0310511

0.0308886 0.00169399 7.98774e-08
0.00169399 0.0368429 -1.6101e-07
7.98774e-08 -1.6101e-07 0.03395

0.0260901 -0.00484402 -2.00472e-07
-0.00484402 0.0191972 8.55811e-08
-2.00472e-07 8.55811e-08 0.012695

0.0330008 -0.00378587 1.09375e-07
-0.00378587 0.030075 -1.82837e-08
1.09375e-07 -1.82837e-08 0.0311275

0.0300189 -0.00451988 -1.16919e-07
-0.00451988 0.0130535 1.83903e-07
-1.16919e-07 1.83903e-07 0.00603727

0.0324733 -0.00372754 4.27455e-09
-0.00372754 0.0313074 1.46026e-07
4.27455e-09 1.46026e-07 0.0319793

0.0280907 -0.00331128 -2.04241e-07
-0.00331128 0.0320039 -3.13885e-08
-2.04241e-07 -3.13885e-08 0.0296252

0.0234435 0.00874362 -8.54806e-08
0.00874362 0.0204828 1.98412e-07
-8.54806e-08 1.98412e-07 0.00602616

0.0181997 -0.00292075 -1.61265e-07
-0.00292075 0.0268667 -5.00236e-07
-1.61265e-07 -5.00236e-07 0.01227

0.0233145 -0.00901925 6.43582e-08
-0.00901925 0.0201521 3.66631e-07
6.43582e-08 3.66631e-07 0.00588399

0.0170824 0.00640815 -1.00194e-07
0.00640815 0.0235659 -4.78974e-08
-1.00194e-07 -4.78974e-08 0.010831

0.030826 -0.00396031 1.19134e-07
-0.00396031 0.0301601 -3.83707e-08
1.19134e-07 -3.83707e-08 0.0300854

0.0389176 -0.00195843 7.1832e-08
-0.00195843 0.0369404 -1.35538e-07
7.1832e-08 -1.35538e-07 0.0354993

0.045541 0.00150595 -2.38592e-07
0.00150595 0.0449514 -3.84868e-07
-2.38592e-07 -3.84868e-07 0.0366189

0.0435642 -0.000711784 2.71634e-07
-0.000711784 0.0462317 -3.32507e-08
2.71634e-07 -3.32507e-08 0.0365846

0.0286154 0.00171576 -5.15184e-08
0.00171576 0.0355659 9.76032e-08
-5.15184e-08 9.76032e-08 0.0323895

0.0453362 -0.00144738 2.58214e-07
-0.00144738 0.0449781 2.25541e-07
2.58214e-07 2.25541e-07 0.0366366

0.0438073 0.000568377 6.83213e-08
0.000568377 0.0465063 1.8844e-07
6.83213e-08 1.8844e-07 0.0366178

0.04668 0.000991547 -7.55412e-08
0.000991547 0.0433765 -2.4342e-08
-7.55412e-08 -2.4342e-08 0.0365928

0.0397503 -0.0016393 1.44494e-07
-0.0016393 0.0460747 9.11059e-08
1.44494e-07 9.11059e-08 0.0364826

0.0190538 -0.00388723 -3.54236e-07
-0.00388723 0.0272308 -1.06158e-07
-3.54236e-07 -1.06158e-07 0.015471

0.0421412 -0.00175009 -8.75508e-08
-0.00175009 0.0367252 -1.03442e-07
-8.75508e-08 -1.03442e-07 0.0360045

0.035964 -0.0045737 -1.19127e-07
-0.0045737 0.0351506 5.7649e-08
-1.19127e-07 5.7649e-08 0.0349679

0.0397529 -0.00242179 2.68443e-07
-0.00242179 0.0360642 1.67202e-07
2.68443e-07 1.67202e-07 0.035567

0.0351844 0.00204327 -1.15626e-07
0.00204327 0.0285489 -6.75847e-08
-1.15626e-07 -6.75847e-08 0.0322317

0.0396923 0.00133734 2.45423e-07
0.00133734 0.047226 2.42052e-07
2.45423e-07 2.42052e-07 0.0365484

0.0464955 0.00259367 -1.41966e-07
0.00259367 0.0404181 -3.23904e-07
-1.41966e-07 -3.23904e-07 0.0365297

0.0400871 0.00150567 3.01349e-08
0.00150567 0.0366733 5.09766e-08
3.01349e-08 5.09766e-08 0.035615

0.0279145 -0.0019199 -1.06289e-07
-0.0019199 0.0125246 1.83548e-07
-1.06289e-07 1.83548e-07 0.0106244

0.028319 0.00326775 5.59248e-08
0.00326775 0.0315495 3.17386e-07
5.59248e-08 3.17386e-07 0.0294106

0.0231881 -0.00773596 2.9706e-07
-0.00773596 0.0181798 1.82292e-07
2.9706e-07 1.82292e-07 0.0102894

0.0228308 -0.00731565 2.16662e-07
-0.00731565 0.0257685 -1.0696e-07
2.16662e-07 -1.0696e-07 0.0119545

0.0290224 -0.00464688 2.34108e-08
-0.00464688 0.0191283 -1.76517e-07
2.34108e-08 -1.76517e-07 0.012615

0.0375741 -0.000660521 -1.60057e-07
-0.000660521 0.0449105 2.84425e-07
-1.60057e-07 2.84425e-07 0.0362936

0.0375719 0.000358317 -2.29624e-07
0.000358317 0.0447889 -3.83298e-07
-2.29624e-07 -3.83298e-07 0.0362738

0.0426052 -0.00327466 2.10373e-07
-0.00327466 0.0394506 -2.1305e-07
2.10373e-07 -2.1305e-07 0.0362277

0.0429987 -0.00294458 -1.51343e-07
-0.00294458 0.0391685 -1.04481e-07
-1.51343e-07 -1.04481e-07 0.0362347

0.0425017 0.00350435 2.5043e-08
0.00350435 0.0399729 2.95579e-07
2.5043e-08 2.95579e-07 0.0362725

0.0443965 0.00041593 -1.70004e-07
0.00041593 0.0450803 3.09159e-07
-1.70004e-07 3.09159e-07 0.0366358

0.0426089 -0.00274464 -2.58821e-07
-0.00274464 0.0395071 1.60039e-07
-2.58821e-07 1.60039e-07 0.0362892

0.0426027 -0.00251107 -4.4345e-07
-0.00251107 0.0442679 -5.43575e-07
-4.4345e-07 -5.43575e-07 0.0365634

0.0451167 0.000331017 7.70778e-08
0.000331017 0.0454679 3.81626e-07
7.70778e-08 3.81626e-07 0.0366541

0.0436365 -0.00278315 -7.65047e-08
-0.00278315 0.0389165 6.1253e-08
-7.65047e-08 6.1253e-08 0.0363299

0.0435124 0.0028387 -1.22296e-07
0.0028387 0.0390695 1.4413e-08
-1.22296e-07 1.4413e-08 0.0363679

0.0451927 -0.000470056 -1.7301e-07
-0.000470056 0.045582 1.12202e-07
-1.7301e-07 1.12202e-07 0.0367027

0.045227 -0.000426384 -2.04028e-07
-0.000426384 0.0443626 5.4244e-07
-2.04028e-07 5.4244e-07 0.0367211

0.042798 0.00163935 2.22541e-07
0.00163935 0.0442484 -1.71151e-07
2.22541e-07 -1.71151e-07 0.0366072

0.0411164 0.00361853 1.16759e-07
0.00361853 0.0405161 1.68776e-07
1.16759e-07 1.68776e-07 0.0363218

SCALARS pressure float
LOOKUP_TABLE default
-60.0523
19.3085
5.80378
21.2903
15.8789
5.88774
-58.6754
7.78344
-3.80457
15.1248
-24.4324
7.61759
5.59239
12.2795
23.3375
5.53928
18.521
13.2076
-0.692478
6.757
-0.904518
33.1334
5.8012
5.79725
6.60227
14.9032
-38.3858
6.6721
-15.2423
30.6254
5.17663
-15.657
-42.0569
27.3256
20.7787
27.3585
31.8836
19.8087
4.85992
-42.6002
-17.4073
31.9044
31.9925
5.99386
-21.8052
-15.9757
-1.05208
-3.40519
6.5452
-16.2177
-18.9187
-15.3457
20.7555
-15.373
20.3087
-33.149
21.1291
-15.4601
21.139
7.04533
21.7649
16.1188
-45.5626
12.7899
16.3621
10.9053
21.5742
13.8284
5.77389
21.8172
20.8116
20.7822
-17.6909
11.6008
3.97427
-31.6101
14.3567
10.9965
14.1465
-8.71977
-28.9449
14.9776
20.1632
-22.038
-23.4295
-28.0923
7.09818
9.63262
-22.2159
37.7402
-15.5088
38.4428
18.3044
10.7618
-15.1664
-15.8727
-30.2215
14.7536
14.3657
4.59901
-10.766
-21.9395
-25.1016
16.2132
14.1005
14.9618
18.6976
3.77506
-24.5585
26.5131
7.21797
-21.4091
-24.6121
14.8382
15.0782
-16.1455
20.1645
-29.1134
20.6281
-16.7292
-2.9044
23.8337
21.7273
16.033
26.6797
22.6316
21.7852
15.7087
-29.7811
-16.0988
24.0915
21.6176
20.9894
22.0659
-22.0138
23.5866
-33.8376
5.46368
21.7544
23.63
-21.9368
6.67668
-5.96645
15.0838
-30.4077
15.6242
7.83354
2.4079
5.17807
-9.39427
-0.457685
22.6417
-15.4545
5.29129
15.2044
21.5607
11.5084
-21.1132
-21.2638
10.7908
-2.8425
-15.1975
-21.2206
-15.1652
-20.9864
15.2799
-20.6358
-21.2016
-15.2077
-21.0637
19.0043
-15.9408
-14.8244
12.0646
-14.4845
18.803
19.0533
7.47306
18.0478
11.7733
-16.2489
15.2884
14.9611
-21.5285
10.4267
-14.2212
16.0487
14.5957
17.0818
14.8353
10.344
-26.9764
-16.0821
-15.9581
21.9071
14.5261
14.625
20.9227
22.4872
9.50291
21.7339
-0.384394
-8.17064
20.7789
-17.8387
19.9457
10.3644
-21.5175
15.7213
22.5263
14.7313
9.39374
14.1902
21.0557
-7.83267
8.82779
-7.90848
14.6484
26.9277
26.5813
27.9605
26.3885
26.7243
26.2909
13.8262
23.4301
24.0293
23.9735
23.3998
21.1926
21.8572
-8.26274
15.9338
28.1911
-3.18857
23.5759
23.2052
27.8344
-8.49345
28.0964
15.3448
-7.58149
17.4922
-8.25771
20.2273
29.6128
-7.48588
-8.10067
-29.5921
-18.1891
19.5274
-31.9857
5.73448
-7.79386
-1.18932
28.2492
26.6403
30.4259
26.761
-34.8012
-8.17956
28.3374
8.07306
-8.29508
26.4459
-6.2952
30.4707
-7.95399
27.0471
14.5661
14.7875
23.845
10.0477
18.021
8.11723
-29.8602
-24.5533
16.8068
1.75979
8.17971
-13.6087
17.4359
11.7
-8.10142
9.4523
-10.8233
7.51708
-10.7546
-8.48465
33.2636
19.1516
25.0882
25.3125
13.8294
-10.4044
26.4294
14.6851
-1.65894
-10.2738
-12.5641
17.5065
-7.48514
17.5745
-12.0411
-21.3506
-10.6081
-34.6815
15.5626
-7.76288
34.4416
-11.5779
16.8716
-8.40868
15.9728
-12.7582
4.28917
-51.1189
8.52185
-7.74655
21.3338
-8.15207
-0.12281
10.7154
21.1244
-12.0606
-10.2007
-6.06825
14.3181
-10.1799
6.888
6.38581
16.3054
-10.4195
-6.33037
-1.70232
-5.66045
-11.0784
-5.84468
15.3056
7.80802
-5.55604
-8.96039
7.80542
7.69427
-10.6745
16.3093
-27.2141
2.29304
-28.4814
-0.957584
-8.87965
-8.09793
-11.7806
-10.9443
-9.88255
-7.77754
-7.90091
16.638
24.7776
12.1162
-0.291655
-0.825184
-5.67461
7.30517
-6.32072
-6.31801
24.9234
-5.73004
14.118
-15.9083
24.3251
5.96816
-0.391214
-5.6439
16.275
2.47703
0.199008
2.44802
0.455882
-0.740878
-9.93025
-0.0956427
2.11319
15.0689
-1.28832
-1.4072
-0.998867
-0.388638
1.96522
8.05068
-1.19361
8.07813
5.58322
-0.435695
7.03524
5.49025
-3.87654
16.4767
-1.90349
23.0618
-21.9736
15.0442
15.6824
2.03958
-1.99759
12.543
-26.5067
5.79226
-1.65801
-50.4833
30.4978
30.6344
5.8249
-1.1444
-1.0469
-0.84973
33.418
33.2927
13.0949
6.08184
6.66237
-28.9628
-1.27946
16.5335
-3.1828
-4.34822
-0.0169977
-25.2714
14.3034
-1.28024
2.86172
2.69312
-2.72334
-0.049387
-3.20958
-4.03367
-37.9827
-33.6835
-0.128093
1.87439
-0.534179
-3.74429
-1.93668
-1.87782
-0.924403
-21.9075
17.2496
-0.769361
12.5652
14.1837
-26.7642
6.28623
7.13682
18.4778
36.4273
36.4598
22.6386
-1.75585
2.59957
-20.9297
36.126
32.7593
32.8263
-24.8088
21.7752
30.5231
2.59907
15.7239
10.3713
17.1644
17.7262
12.5056
5.68134
-25.3982
4.25999
10.4093
16.244
-31.71
28.3095
-52.7103
18.6851
10.299
-10.6274
7.41729
5.45702
24.4744
9.41106
24.4074
4.10508
12.3998
30.6404
29.4661
-22.9902
17.4356
-70.2301
-74.3766
-67.1741
11.6483
-31.26
-63.6075
-3.80359
-69.9355
16.4631
16.4068
-73.7517
5.21214
-39.7298
-70.7361
-37.7557
-71.8725
-39.4512
21.1366
-23.9601
-29.044
-70.62
4.83133
15.7576
-36.1896
6.05346
-63.6152
9.83592
3.88165
-67.8986
-37.6233
-66.4081
-23.7554
5.02905
20.526
35.3712
36.727
11.812
36.8508
36.9041
36.4925
36.4047
-24.4788
28.2482
20.6691
21.9805
11.5346
36.0606
36.0921
18.12
-23.9402
3.24651
-30.5263
-56.5965
-50.4736
36.1438
35.8245
35.3811
35.4514
36.1597
35.5992
33.1103
37.3713
35.4005
36.0066
35.6388
34.197
34.3335
35.8568
35.31
