# vtk DataFile Version 3.0
vtk output at time 40
ASCII
DATASET UNSTRUCTURED_GRID
POINTS 626 float
-3.68058e-05 0.000978749 0 3.68058e-05 0.000978749 0 -0.000829194 0.00052125 0 
-0.0008235 0.0005 0 -0.000866 0.0004575 0 -0.000866 -0.0004575 0 
-0.0008235 -0.0005 0 -0.000829194 -0.00052125 0 -3.68058e-05 -0.000978749 0 
3.68058e-05 -0.000978749 0 0.000829194 -0.00052125 0 0.000866 -0.0004575 0 
0.000866 0.0004575 0 0.000829194 0.00052125 0 8.5e-05 0 0 
-3.68058e-05 0.000978749 -0.001 3.68058e-05 0.000978749 -0.001 -0.000829194 0.00052125 -0.001 
-0.0008235 0.0005 -0.001 -0.000866 0.0004575 -0.001 -0.000866 -0.0004575 -0.001 
-0.0008235 -0.0005 -0.001 -0.000829194 -0.00052125 -0.001 -3.68058e-05 -0.000978749 -0.001 
3.68058e-05 -0.000978749 -0.001 0.000829194 -0.00052125 -0.001 0.000866 -0.0004575 -0.001 
0.000866 0.0004575 -0.001 0.000829194 0.00052125 -0.001 8.5e-05 0 -0.001 
8.46223e-17 0.0009575 0 -0.000715996 0.000586607 0 -0.000602797 0.000651965 0 
-0.000489599 0.000717321 0 -0.000376401 0.000782678 0 -0.000263202 0.000848036 0 
-0.000150004 0.000913393 0 -0.000835948 0.000469948 0 -0.000866 -0.000326786 0 
-0.000866 -0.000196071 0 -0.000866 -6.53571e-05 0 -0.000866 6.53571e-05 0 
-0.000866 0.000196071 0 -0.000866 0.000326786 0 -0.000835948 -0.000469948 0 
-0.000150004 -0.000913393 0 -0.000263202 -0.000848036 0 -0.000376401 -0.000782678 0 
-0.000489599 -0.000717321 0 -0.000602797 -0.000651965 0 -0.000715996 -0.000586607 0 
8.47648e-17 -0.0009575 0 0.000715996 -0.000586607 0 0.000602797 -0.000651965 0 
0.000489599 -0.000717321 0 0.000376401 -0.000782678 0 0.000263202 -0.000848036 0 
0.000150004 -0.000913393 0 0.000829194 -0.00047875 0 0.000866 0.000326786 0 
0.000866 0.000196071 0 0.000866 6.53571e-05 0 0.000866 -6.53571e-05 0 
0.000866 -0.000196071 0 0.000866 -0.000326786 0 0.000829194 0.00047875 0 
0.000150004 0.000913393 0 0.000263202 0.000848036 0 0.000376401 0.000782678 0 
0.000489599 0.000717321 0 0.000602797 0.000651965 0 0.000715996 0.000586607 0 
5.29966e-05 6.64557e-05 0 -1.89143e-05 8.28689e-05 0 -7.65824e-05 3.68801e-05 0 
-7.65824e-05 -3.68801e-05 0 -1.89143e-05 -8.28689e-05 0 5.29966e-05 -6.64557e-05 0 
8.46223e-17 0.0009575 -0.001 -0.000715996 0.000586607 -0.001 -0.000602797 0.000651965 -0.001 
-0.000489599 0.000717321 -0.001 -0.000376401 0.000782678 -0.001 -0.000263202 0.000848036 -0.001 
-0.000150004 0.000913393 -0.001 -0.000835948 0.000469948 -0.001 -0.000866 -0.000326786 -0.001 
-0.000866 -0.000196071 -0.001 -0.000866 -6.53571e-05 -0.001 -0.000866 6.53571e-05 -0.001 
-0.000866 0.000196071 -0.001 -0.000866 0.000326786 -0.001 -0.000835948 -0.000469948 -0.001 
-0.000150004 -0.000913393 -0.001 -0.000263202 -0.000848036 -0.001 -0.000376401 -0.000782678 -0.001 
-0.000489599 -0.000717321 -0.001 -0.000602797 -0.000651965 -0.001 -0.000715996 -0.000586607 -0.001 
8.47648e-17 -0.0009575 -0.001 0.000715996 -0.000586607 -0.001 0.000602797 -0.000651965 -0.001 
0.000489599 -0.000717321 -0.001 0.000376401 -0.000782678 -0.001 0.000263202 -0.000848036 -0.001 
0.000150004 -0.000913393 -0.001 0.000829194 -0.00047875 -0.001 0.000866 0.000326786 -0.001 
0.000866 0.000196071 -0.001 0.000866 6.53571e-05 -0.001 0.000866 -6.53571e-05 -0.001 
0.000866 -0.000196071 -0.001 0.000866 -0.000326786 -0.001 0.000829194 0.00047875 -0.001 
0.000150004 0.000913393 -0.001 0.000263202 0.000848036 -0.001 0.000376401 0.000782678 -0.001 
0.000489599 0.000717321 -0.001 0.000602797 0.000651965 -0.001 0.000715996 0.000586607 -0.001 
5.29966e-05 6.64557e-05 -0.001 -1.89143e-05 8.28689e-05 -0.001 -7.65824e-05 3.68801e-05 -0.001 
-7.65824e-05 -3.68801e-05 -0.001 -1.89143e-05 -8.28689e-05 -0.001 5.29966e-05 -6.64557e-05 -0.001 
0.000131234 6.38474e-05 0 0.00012964 -6.2443e-05 0 3.13827e-05 0.0001394 0 
3.12554e-05 -0.000136939 0 -0.000140461 8.25467e-19 0 -8.90565e-05 -0.000102707 0 
-9.04142e-05 0.000102872 0 -0.000765769 -0.00025965 0 -0.000756873 0.000262774 0 
-0.00015609 0.000787505 0 -0.000155807 -0.00079355 0 0.000605069 0.000528035 0 
0.000608694 -0.00052497 0 0.000744069 0.000116929 0 -0.000494418 0.000596218 0 
-0.000483866 -0.000584648 0 0.000269496 0.000702219 0 0.000263201 -0.000717324 0 
0.000754429 -0.000127825 0 -0.000748858 5.84659e-07 0 -0.000747838 0.000373886 0 
-0.0006542 0.000324842 0 -0.000645137 0.000210123 0 -0.000550884 0.000274171 0 
-0.000538857 0.000163195 0 -0.00045062 0.000224461 0 -0.000438393 0.000123907 0 
-0.000354088 0.000181668 0 -0.000363908 0.000282171 0 -0.000270361 0.000239477 0 
-0.000279138 0.000337653 0 -0.000188888 0.000294791 0 -0.000196448 0.000393271 0 
-0.000104767 0.000348259 0 -0.000113332 0.000449012 0 -2.01066e-05 0.000403223 0 
-2.89189e-05 0.000507105 0 6.9524e-05 0.000461596 0 -0.000213644 0.000490203 0 
7.33757e-05 0.000357726 0 0.000163331 0.00041299 0 0.000163359 0.000313022 0 
0.000248077 0.000366368 0 0.000250914 0.000265758 0 0.000335709 0.000322266 0 
0.000340555 0.000218148 0 0.000427299 0.000276717 0 0.000431508 0.000173093 0 
0.000328731 0.000425633 0 0.00034586 0.000114823 0 0.000435362 7.05241e-05 0 
0.000350892 1.5455e-05 0 0.000441547 -3.11896e-05 0 0.000353547 -8.47783e-05 0 
0.000445767 -0.000132964 0 0.000356135 -0.000186358 0 0.000449094 -0.000234674 0 
0.000359978 -0.000287876 0 0.00026856 -0.000240545 0 0.000271895 -0.000341045 0 
0.000181792 -0.00029305 0 0.00018533 -0.000392851 0 9.75701e-05 -0.00034483 0 
9.98764e-05 -0.000444884 0 8.75116e-06 -0.000396343 0 1.20916e-05 -0.000500496 0 
-7.83929e-05 -0.000449843 0 -8.1471e-05 -0.000347249 0 -0.000171566 -0.000403733 0 
-0.000169889 -0.000298891 0 -0.000259867 -0.000354132 0 -0.000257696 -0.000249137 0 
-0.00034313 -0.000299896 0 -0.000344514 -0.000199127 0 -0.000434309 -0.000250039 0 
-0.000169832 -0.000505815 0 -0.000435227 -0.000146227 0 0.000280331 -0.000442424 0 
-0.000340889 8.76793e-05 0 -0.000515252 4.06198e-05 0 6.50491e-05 0.000568253 0 
0.00053278 1.74743e-05 0 0.000522071 0.000229831 0 -0.00037162 0.000391659 0 
-0.000255272 -0.000150439 0 -0.000442893 -0.000350705 0 0.000450067 -0.000332559 0 
0.000545175 -0.000276306 0 -0.000527797 -0.000197598 0 0.000105306 -0.000551033 0 
1.45836e-05 -0.000609147 0 0.00017145 0.000214453 0 0.000515525 0.000341711 0 
0.000636086 0.000290368 0 -0.000558657 0.000404468 0 -4.01232e-05 0.000616718 0 
6.60192e-05 0.000696422 0 -0.000101806 0.0002546 0 0.000271142 -3.88908e-05 0 
0.000179455 -0.00018534 0 -8.79553e-05 -0.000254307 0 -0.000749267 -0.000373451 0 
-0.000655941 -0.000323397 0 0.000709746 0.000466718 0 0.000698426 -0.000473086 0 
-5.25801e-05 -0.00084886 0 -4.93005e-05 0.000848038 0 0.000617396 -0.000413362 0 
0.000702056 -0.000369817 0 0.000131459 -0.000679171 0 2.48171e-05 -0.000715924 0 
-0.000664217 -0.00042729 0 -0.000528828 -8.80444e-05 0 -0.000611101 -0.000136672 0 
-0.000426972 -4.45841e-05 0 0.000800669 0.000378216 0 0.000821144 -0.000415062 0 
7.2799e-05 0.00088254 0 6.81831e-05 -0.00087503 0 0.000104963 -0.000788946 0 
-7.40696e-05 -0.000660054 0 0.000126061 0.000809943 0 0.000764361 0.000295682 0 
0.000166862 0.000630623 0 0.000516462 -0.00046707 0 -0.000563585 -0.000389606 0 
-0.000622598 -1.40238e-05 0 0.000629891 0.000171529 0 2.5614e-06 -0.000299794 0 
8.6901e-05 -0.00024329 0 0.000272045 -0.000136982 0 -0.00075148 0.000138321 0 
0.000209366 -0.000599589 0 0.000324913 -0.000630055 0 0.000614044 0.00041245 0 
0.00049651 -0.000573327 0 0.000394822 -0.000507321 0 -0.000173714 -0.000206698 0 
0.000264897 5.63722e-05 0 0.000247997 0.000152811 0 -4.63327e-05 -0.000920208 0 
9.18688e-05 0.000258626 0 -5.54111e-06 0.000290558 0 -0.000184219 0.000201484 0 
-0.000263559 0.000142267 0 -0.000256427 5.13624e-05 0 -0.000336894 -2.06179e-06 0 
-0.000228499 -4.2388e-05 0 -0.00017589 0.000106626 0 -0.000769947 -0.000133367 0 
0.000767591 -0.000500293 0 -5.05874e-05 0.000737978 0 0.000754456 -3.51771e-06 0 
0.00064691 -6.15298e-05 0 0.000630483 -0.00018134 0 0.000749187 -0.000265543 0 
-0.000760805 -0.000462521 0 0.000638155 6.09315e-05 0 -4.46661e-05 0.000922995 0 
-2.37945e-05 0.000207237 0 0.000776979 0.000500181 0 -0.000605691 0.000527596 0 
-0.000377914 -0.000653727 0 -0.000372325 -0.000526022 0 -0.000275829 -0.000589621 0 
-0.000254285 -0.000710579 0 -0.000379307 0.000656222 0 -0.000379818 0.00052718 0 
-0.000266817 0.000721555 0 -0.000150544 0.000668174 0 0.000381963 0.00065079 0 
0.000493113 0.000590432 0 0.000505439 0.000463708 0 -0.000269094 0.000596608 0 
0.000385815 0.000532045 0 0.000283599 0.0005899 0 -0.000176405 -0.000108505 0 
-0.000278769 -0.000475415 0 0.000185395 2.33014e-06 0 0.000186773 0.000517571 0 
0.000540032 -8.68444e-05 0 -0.000600694 -0.000514877 0 -0.00063703 8.98033e-05 0 
-0.000459677 0.000335729 0 -0.000338836 -0.000100751 0 -0.000457327 0.000432721 0 
-8.72007e-06 -0.000210238 0 0.000156073 0.000129496 0 -7.70692e-05 -0.000555049 0 
0.00036091 -0.000389728 0 0.000531628 0.000120564 0 -0.000285451 0.000435562 0 
0.000192719 -0.000494604 0 0.00041642 0.00039368 0 -0.000135943 0.000554637 0 
-0.000170665 -0.000610079 0 -0.000666304 0.000434981 0 -0.000758736 0.000479231 0 
-0.000470189 -0.000458901 0 0.000203433 -8.59809e-05 0 0.000101846 0.000170114 0 
-0.00035513 -0.00040726 0 0.000100184 -0.000165831 0 2.96286e-05 0.00081537 0 
0.000720946 0.000381836 0 -0.000539809 -0.000292001 0 0.00052211 -0.000182426 0 
-6.41339e-05 -0.000753908 0 0.000638039 -0.000299861 0 -0.000605136 -0.000230182 0 
-3.41638e-05 -0.000145561 0 -0.000104037 0.000172396 0 -0.000808575 -0.00042774 0 
-0.000807207 -0.000465052 0 -0.00080817 0.000429771 0 -0.000806589 0.000469738 0 
-9.50634e-05 -0.000178909 0 0.000247777 0.000445058 0 1.48293e-05 -0.000814201 0 
-4.11555e-05 0.000140955 0 0.000276104 -0.000536845 0 0.000765969 -0.000436638 0 
0.000780871 -0.000362769 0 0.000424176 -0.000642018 0 0.00053413 -0.000368009 0 
-0.000416333 4.17911e-05 0 -0.000133891 -6.23822e-05 0 4.2574e-05 0.000206312 0 
0.000141163 -0.000121542 0 0.000707423 0.000212137 0 0.000172327 0.000723882 0 
7.72652e-06 -0.00090254 0 -0.000134435 5.66935e-05 0 -0.000188826 3.70894e-05 0 
0.000197119 8.09714e-05 0 1.27801e-05 0.000917296 0 0.000800767 0.00044758 0 
-0.000686682 0.000507104 0 9.35831e-05 0.000110457 0 -0.000696793 -0.000509595 0 
-0.00068446 -8.52012e-05 0 -0.000691033 -0.000201242 0 5.24052e-05 -0.000189075 0 
-0.000151818 -0.000701092 0 -0.000296988 0.000518087 0 9.31023e-05 -0.000108117 0 
0.00044261 -0.000416726 0 0.000197044 -0.000784423 0 -0.000516861 0.000504567 0 
0.000298997 0.000502377 0 0.000131234 6.38474e-05 -0.001 0.00012964 -6.2443e-05 -0.001 
3.13827e-05 0.0001394 -0.001 3.12554e-05 -0.000136939 -0.001 -0.000140461 8.25467e-19 -0.001 
-8.90565e-05 -0.000102707 -0.001 -9.04142e-05 0.000102872 -0.001 -0.000765769 -0.00025965 -0.001 
-0.000756873 0.000262774 -0.001 -0.00015609 0.000787505 -0.001 -0.000155807 -0.00079355 -0.001 
0.000605069 0.000528035 -0.001 0.000608694 -0.00052497 -0.001 0.000744069 0.000116929 -0.001 
-0.000494418 0.000596218 -0.001 -0.000483866 -0.000584648 -0.001 0.000269496 0.000702219 -0.001 
0.000263201 -0.000717324 -0.001 0.000754429 -0.000127825 -0.001 -0.000748858 5.84659e-07 -0.001 
-0.000747838 0.000373886 -0.001 -0.0006542 0.000324842 -0.001 -0.000645137 0.000210123 -0.001 
-0.000550884 0.000274171 -0.001 -0.000538857 0.000163195 -0.001 -0.00045062 0.000224461 -0.001 
-0.000438393 0.000123907 -0.001 -0.000354088 0.000181668 -0.001 -0.000363908 0.000282171 -0.001 
-0.000270361 0.000239477 -0.001 -0.000279138 0.000337653 -0.001 -0.000188888 0.000294791 -0.001 
-0.000196448 0.000393271 -0.001 -0.000104767 0.000348259 -0.001 -0.000113332 0.000449012 -0.001 
-2.01066e-05 0.000403223 -0.001 -2.89189e-05 0.000507105 -0.001 6.9524e-05 0.000461596 -0.001 
-0.000213644 0.000490203 -0.001 7.33757e-05 0.000357726 -0.001 0.000163331 0.00041299 -0.001 
0.000163359 0.000313022 -0.001 0.000248077 0.000366368 -0.001 0.000250914 0.000265758 -0.001 
0.000335709 0.000322266 -0.001 0.000340555 0.000218148 -0.001 0.000427299 0.000276717 -0.001 
0.000431508 0.000173093 -0.001 0.000328731 0.000425633 -0.001 0.00034586 0.000114823 -0.001 
0.000435362 7.05241e-05 -0.001 0.000350892 1.5455e-05 -0.001 0.000441547 -3.11896e-05 -0.001 
0.000353547 -8.47783e-05 -0.001 0.000445767 -0.000132964 -0.001 0.000356135 -0.000186358 -0.001 
0.000449094 -0.000234674 -0.001 0.000359978 -0.000287876 -0.001 0.00026856 -0.000240545 -0.001 
0.000271895 -0.000341045 -0.001 0.000181792 -0.00029305 -0.001 0.00018533 -0.000392851 -0.001 
9.75701e-05 -0.00034483 -0.001 9.98764e-05 -0.000444884 -0.001 8.75116e-06 -0.000396343 -0.001 
1.20916e-05 -0.000500496 -0.001 -7.83929e-05 -0.000449843 -0.001 -8.1471e-05 -0.000347249 -0.001 
-0.000171566 -0.000403733 -0.001 -0.000169889 -0.000298891 -0.001 -0.000259867 -0.000354132 -0.001 
-0.000257696 -0.000249137 -0.001 -0.00034313 -0.000299896 -0.001 -0.000344514 -0.000199127 -0.001 
-0.000434309 -0.000250039 -0.001 -0.000169832 -0.000505815 -0.001 -0.000435227 -0.000146227 -0.001 
0.000280331 -0.000442424 -0.001 -0.000340889 8.76793e-05 -0.001 -0.000515252 4.06198e-05 -0.001 
6.50491e-05 0.000568253 -0.001 0.00053278 1.74743e-05 -0.001 0.000522071 0.000229831 -0.001 
-0.00037162 0.000391659 -0.001 -0.000255272 -0.000150439 -0.001 -0.000442893 -0.000350705 -0.001 
0.000450067 -0.000332559 -0.001 0.000545175 -0.000276306 -0.001 -0.000527797 -0.000197598 -0.001 
0.000105306 -0.000551033 -0.001 1.45836e-05 -0.000609147 -0.001 0.00017145 0.000214453 -0.001 
0.000515525 0.000341711 -0.001 0.000636086 0.000290368 -0.001 -0.000558657 0.000404468 -0.001 
-4.01232e-05 0.000616718 -0.001 6.60192e-05 0.000696422 -0.001 -0.000101806 0.0002546 -0.001 
0.000271142 -3.88908e-05 -0.001 0.000179455 -0.00018534 -0.001 -8.79553e-05 -0.000254307 -0.001 
-0.000749267 -0.000373451 -0.001 -0.000655941 -0.000323397 -0.001 0.000709746 0.000466718 -0.001 
0.000698426 -0.000473086 -0.001 -5.25801e-05 -0.00084886 -0.001 -4.93005e-05 0.000848038 -0.001 
0.000617396 -0.000413362 -0.001 0.000702056 -0.000369817 -0.001 0.000131459 -0.000679171 -0.001 
2.48171e-05 -0.000715924 -0.001 -0.000664217 -0.00042729 -0.001 -0.000528828 -8.80444e-05 -0.001 
-0.000611101 -0.000136672 -0.001 -0.000426972 -4.45841e-05 -0.001 0.000800669 0.000378216 -0.001 
0.000821144 -0.000415062 -0.001 7.2799e-05 0.00088254 -0.001 6.81831e-05 -0.00087503 -0.001 
0.000104963 -0.000788946 -0.001 -7.40696e-05 -0.000660054 -0.001 0.000126061 0.000809943 -0.001 
0.000764361 0.000295682 -0.001 0.000166862 0.000630623 -0.001 0.000516462 -0.00046707 -0.001 
-0.000563585 -0.000389606 -0.001 -0.000622598 -1.40238e-05 -0.001 0.000629891 0.000171529 -0.001 
2.5614e-06 -0.000299794 -0.001 8.6901e-05 -0.00024329 -0.001 0.000272045 -0.000136982 -0.001 
-0.00075148 0.000138321 -0.001 0.000209366 -0.000599589 -0.001 0.000324913 -0.000630055 -0.001 
0.000614044 0.00041245 -0.001 0.00049651 -0.000573327 -0.001 0.000394822 -0.000507321 -0.001 
-0.000173714 -0.000206698 -0.001 0.000264897 5.63722e-05 -0.001 0.000247997 0.000152811 -0.001 
-4.63327e-05 -0.000920208 -0.001 9.18688e-05 0.000258626 -0.001 -5.54111e-06 0.000290558 -0.001 
-0.000184219 0.000201484 -0.001 -0.000263559 0.000142267 -0.001 -0.000256427 5.13624e-05 -0.001 
-0.000336894 -2.06179e-06 -0.001 -0.000228499 -4.2388e-05 -0.001 -0.00017589 0.000106626 -0.001 
-0.000769947 -0.000133367 -0.001 0.000767591 -0.000500293 -0.001 -5.05874e-05 0.000737978 -0.001 
0.000754456 -3.51771e-06 -0.001 0.00064691 -6.15298e-05 -0.001 0.000630483 -0.00018134 -0.001 
0.000749187 -0.000265543 -0.001 -0.000760805 -0.000462521 -0.001 0.000638155 6.09315e-05 -0.001 
-4.46661e-05 0.000922995 -0.001 -2.37945e-05 0.000207237 -0.001 0.000776979 0.000500181 -0.001 
-0.000605691 0.000527596 -0.001 -0.000377914 -0.000653727 -0.001 -0.000372325 -0.000526022 -0.001 
-0.000275829 -0.000589621 -0.001 -0.000254285 -0.000710579 -0.001 -0.000379307 0.000656222 -0.001 
-0.000379818 0.00052718 -0.001 -0.000266817 0.000721555 -0.001 -0.000150544 0.000668174 -0.001 
0.000381963 0.00065079 -0.001 0.000493113 0.000590432 -0.001 0.000505439 0.000463708 -0.001 
-0.000269094 0.000596608 -0.001 0.000385815 0.000532045 -0.001 0.000283599 0.0005899 -0.001 
-0.000176405 -0.000108505 -0.001 -0.000278769 -0.000475415 -0.001 0.000185395 2.33014e-06 -0.001 
0.000186773 0.000517571 -0.001 0.000540032 -8.68444e-05 -0.001 -0.000600694 -0.000514877 -0.001 
-0.00063703 8.98033e-05 -0.001 -0.000459677 0.000335729 -0.001 -0.000338836 -0.000100751 -0.001 
-0.000457327 0.000432721 -0.001 -8.72007e-06 -0.000210238 -0.001 0.000156073 0.000129496 -0.001 
-7.70692e-05 -0.000555049 -0.001 0.00036091 -0.000389728 -0.001 0.000531628 0.000120564 -0.001 
-0.000285451 0.000435562 -0.001 0.000192719 -0.000494604 -0.001 0.00041642 0.00039368 -0.001 
-0.000135943 0.000554637 -0.001 -0.000170665 -0.000610079 -0.001 -0.000666304 0.000434981 -0.001 
-0.000758736 0.000479231 -0.001 -0.000470189 -0.000458901 -0.001 0.000203433 -8.59809e-05 -0.001 
0.000101846 0.000170114 -0.001 -0.00035513 -0.00040726 -0.001 0.000100184 -0.000165831 -0.001 
2.96286e-05 0.00081537 -0.001 0.000720946 0.000381836 -0.001 -0.000539809 -0.000292001 -0.001 
0.00052211 -0.000182426 -0.001 -6.41339e-05 -0.000753908 -0.001 0.000638039 -0.000299861 -0.001 
-0.000605136 -0.000230182 -0.001 -3.41638e-05 -0.000145561 -0.001 -0.000104037 0.000172396 -0.001 
-0.000808575 -0.00042774 -0.001 -0.000807207 -0.000465052 -0.001 -0.00080817 0.000429771 -0.001 
-0.000806589 0.000469738 -0.001 -9.50634e-05 -0.000178909 -0.001 0.000247777 0.000445058 -0.001 
1.48293e-05 -0.000814201 -0.001 -4.11555e-05 0.000140955 -0.001 0.000276104 -0.000536845 -0.001 
0.000765969 -0.000436638 -0.001 0.000780871 -0.000362769 -0.001 0.000424176 -0.000642018 -0.001 
0.00053413 -0.000368009 -0.001 -0.000416333 4.17911e-05 -0.001 -0.000133891 -6.23822e-05 -0.001 
4.2574e-05 0.000206312 -0.001 0.000141163 -0.000121542 -0.001 0.000707423 0.000212137 -0.001 
0.000172327 0.000723882 -0.001 7.72652e-06 -0.00090254 -0.001 -0.000134435 5.66935e-05 -0.001 
-0.000188826 3.70894e-05 -0.001 0.000197119 8.09714e-05 -0.001 1.27801e-05 0.000917296 -0.001 
0.000800767 0.00044758 -0.001 -0.000686682 0.000507104 -0.001 9.35831e-05 0.000110457 -0.001 
-0.000696793 -0.000509595 -0.001 -0.00068446 -8.52012e-05 -0.001 -0.000691033 -0.000201242 -0.001 
5.24052e-05 -0.000189075 -0.001 -0.000151818 -0.000701092 -0.001 -0.000296988 0.000518087 -0.001 
9.31023e-05 -0.000108117 -0.001 0.00044261 -0.000416726 -0.001 0.000197044 -0.000784423 -0.001 
-0.000516861 0.000504567 -0.001 0.000298997 0.000502377 -0.001 

CELLS 563 3941
6 14 304 127 29 554 377 
6 143 259 55 393 509 103 
6 300 319 174 550 569 424 
6 259 349 55 509 599 103 
6 50 365 307 98 615 557 
6 299 320 164 549 570 414 
6 126 304 14 376 554 29 
6 298 319 300 548 569 550 
6 205 240 238 455 490 488 
6 257 308 145 507 558 395 
6 130 352 273 380 602 523 
6 295 320 299 545 570 549 
6 324 327 289 574 577 539 
6 235 258 143 485 508 393 
6 50 307 49 98 557 97 
6 207 283 279 457 533 529 
6 143 373 235 393 623 485 
6 145 308 252 395 558 502 
6 194 303 196 444 553 446 
6 279 306 207 529 556 457 
6 206 305 163 456 555 413 
6 51 357 9 99 607 24 
6 238 252 205 488 502 455 
6 293 317 209 543 567 459 
6 207 316 283 457 566 533 
6 142 301 249 392 551 499 
6 273 359 130 523 609 380 
6 211 327 324 461 577 574 
6 169 265 217 419 515 467 
6 7 365 50 22 615 98 
6 283 316 253 533 566 503 
6 159 268 223 409 518 473 
6 274 337 132 524 587 382 
6 232 361 329 482 611 579 
6 231 266 45 481 516 93 
6 229 362 330 479 612 580 
6 9 244 57 24 494 105 
6 230 276 52 480 526 100 
6 209 311 293 459 561 543 
6 131 342 302 381 592 552 
6 270 271 204 520 521 454 
6 66 243 1 114 493 16 
6 59 241 12 107 491 27 
6 280 306 279 530 556 529 
6 269 337 274 519 587 524 
6 179 256 224 429 506 474 
6 163 305 166 413 555 416 
6 201 303 194 451 553 444 
6 280 332 306 530 582 556 
6 186 255 225 436 505 475 
6 210 310 273 460 560 523 
6 153 270 204 403 520 454 
6 136 231 45 386 481 93 
6 171 265 169 421 515 419 
6 138 230 52 388 480 100 
6 225 354 325 475 604 575 
6 36 284 232 84 534 482 
6 161 268 159 411 518 409 
6 71 286 229 119 536 479 
6 290 303 201 540 553 451 
6 139 355 60 389 605 108 
6 60 355 248 108 605 498 
6 273 352 302 523 602 552 
6 235 373 245 485 623 495 
6 67 356 247 115 606 497 
6 221 295 277 471 545 527 
6 142 356 67 392 606 115 
6 139 283 253 389 533 503 
6 203 315 262 453 565 512 
6 41 257 145 89 507 395 
6 36 232 135 84 482 385 
6 71 229 137 119 479 387 
6 254 255 188 504 505 438 
6 233 350 334 483 600 584 
6 262 346 203 512 596 453 
6 304 325 127 554 575 377 
6 222 329 247 472 579 497 
6 218 298 260 468 548 510 
6 290 321 291 540 571 541 
6 272 310 240 522 560 490 
6 269 274 270 519 524 520 
6 244 245 57 494 495 105 
6 49 307 141 97 557 391 
6 225 325 256 475 575 506 
6 273 310 272 523 560 522 
6 312 368 255 562 618 505 
6 249 305 206 499 555 456 
6 228 331 251 478 581 501 
6 302 342 263 552 592 513 
6 338 339 44 588 589 92 
6 190 254 188 440 504 438 
6 37 341 340 85 591 590 
6 138 233 230 388 483 480 
6 228 335 331 478 585 581 
6 181 256 179 431 506 429 
6 195 263 226 445 513 476 
6 268 285 223 518 535 473 
6 290 291 288 540 541 538 
6 219 330 248 469 580 498 
6 201 321 290 451 571 540 
6 240 310 202 490 560 452 
6 188 255 186 438 505 436 
6 270 274 271 520 524 521 
6 262 349 259 512 599 509 
6 141 324 289 391 574 539 
6 296 301 142 546 551 392 
6 247 356 222 497 606 472 
6 239 252 238 489 502 488 
6 254 312 255 504 562 505 
6 54 261 53 102 511 101 
6 289 327 303 539 577 553 
6 268 353 285 518 603 535 
6 273 302 210 523 552 460 
6 292 299 293 542 549 543 
6 278 283 139 528 533 389 
6 175 265 171 425 515 421 
6 227 338 38 477 588 86 
6 264 360 265 514 610 515 
6 43 340 146 91 590 396 
6 165 268 161 415 518 411 
6 205 351 240 455 601 490 
6 64 281 63 112 531 111 
6 288 291 47 538 541 95 
6 135 295 294 385 545 544 
6 42 257 41 90 507 89 
6 245 373 57 495 623 105 
6 31 363 323 79 613 573 
6 292 293 140 542 543 390 
6 267 353 268 517 603 518 
6 155 270 153 405 520 403 
6 244 344 245 494 594 495 
6 61 278 139 109 528 389 
6 135 294 35 385 544 83 
6 69 297 296 117 547 546 
6 186 225 184 436 475 434 
6 329 361 243 579 611 493 
6 255 328 225 505 578 475 
6 213 332 280 463 582 530 
6 39 275 133 87 525 383 
6 330 362 241 580 612 491 
6 195 226 193 445 476 443 
6 211 324 251 461 574 501 
6 151 153 152 401 403 402 
6 295 299 294 545 549 544 
6 265 313 217 515 563 467 
6 258 259 143 508 509 393 
6 251 331 211 501 581 461 
6 149 151 150 399 401 400 
6 293 370 317 543 620 567 
6 153 204 152 403 454 402 
6 151 152 150 401 402 400 
6 33 292 140 81 542 390 
6 210 263 197 460 513 447 
6 301 305 249 551 555 499 
6 298 300 297 548 550 547 
6 68 296 142 116 546 392 
6 321 369 291 571 619 541 
6 179 224 177 429 474 427 
6 167 267 165 417 517 415 
6 259 346 262 509 596 512 
6 303 327 196 553 577 446 
6 269 270 155 519 520 405 
6 265 360 313 515 610 563 
6 223 269 157 473 519 407 
6 157 269 155 407 519 405 
6 144 279 278 394 529 528 
6 169 217 167 419 467 417 
6 177 264 175 427 514 425 
6 267 268 165 517 518 415 
6 159 223 157 409 473 407 
6 232 277 135 482 527 385 
6 193 254 190 443 504 440 
6 217 267 167 467 517 417 
6 249 356 142 499 606 392 
6 184 256 181 434 506 431 
6 248 355 219 498 605 469 
6 229 260 137 479 510 387 
6 149 150 148 399 400 398 
6 64 348 281 112 598 531 
6 311 374 293 561 624 543 
6 264 265 175 514 515 425 
6 297 300 296 547 550 546 
6 141 289 288 391 539 538 
6 197 263 195 447 513 445 
6 218 260 219 468 510 469 
6 224 264 177 474 514 427 
6 137 298 297 387 548 547 
6 277 295 135 527 545 385 
6 133 228 227 383 478 477 
6 261 349 262 511 599 512 
6 221 277 222 471 527 472 
6 256 325 224 506 575 474 
6 199 210 197 449 460 447 
6 226 254 193 476 504 443 
6 144 278 62 394 528 110 
6 279 283 278 529 533 528 
6 289 290 288 539 540 538 
6 137 297 70 387 547 118 
6 34 294 292 82 544 542 
6 235 236 216 485 486 466 
6 141 288 48 391 538 96 
6 178 306 180 428 556 430 
6 185 186 184 435 436 434 
6 63 281 144 111 531 394 
6 225 256 184 475 506 434 
6 46 291 136 94 541 386 
6 147 149 148 397 399 398 
6 271 272 204 521 522 454 
6 233 334 234 483 584 484 
6 145 275 40 395 525 88 
6 220 322 287 470 572 537 
6 280 334 213 530 584 463 
6 144 280 279 394 530 529 
6 140 287 32 390 537 80 
6 154 155 153 404 405 403 
6 334 350 213 584 600 463 
6 176 177 175 426 427 425 
6 260 298 137 510 548 387 
6 33 140 32 81 390 80 
6 49 141 48 97 391 96 
6 56 143 55 104 393 103 
6 68 142 67 116 392 115 
6 63 144 62 111 394 110 
6 61 139 60 109 389 108 
6 148 308 257 398 558 507 
6 71 137 70 119 387 118 
6 53 138 52 101 388 100 
6 46 136 45 94 386 93 
6 36 135 35 84 385 83 
6 43 146 134 91 396 384 
6 133 227 38 383 477 86 
6 192 193 190 442 443 440 
6 293 374 140 543 624 390 
6 34 292 33 82 542 81 
6 207 306 178 457 556 428 
6 43 134 42 91 384 90 
6 39 133 38 87 383 86 
6 41 145 40 89 395 88 
6 194 195 193 444 445 443 
6 69 296 68 117 546 116 
6 294 299 292 544 549 542 
6 173 175 171 423 425 421 
6 260 330 219 510 580 469 
6 183 184 181 433 434 431 
6 134 257 42 384 507 90 
6 55 349 54 103 599 102 
6 163 165 161 413 415 411 
6 166 167 165 416 417 415 
6 210 302 263 460 552 513 
6 271 273 272 521 523 522 
6 53 261 138 101 511 388 
6 217 326 267 467 576 517 
6 289 303 290 539 553 540 
6 178 179 177 428 429 427 
6 238 240 202 488 490 452 
6 62 278 61 110 528 109 
6 35 294 34 83 544 82 
6 284 361 232 534 611 482 
6 70 297 69 118 547 117 
6 224 304 264 474 554 514 
6 156 157 155 406 407 405 
6 48 288 47 96 538 95 
6 221 320 295 471 570 545 
6 187 188 186 437 438 436 
6 47 291 46 95 541 94 
6 151 154 153 401 404 403 
6 286 362 229 536 612 479 
6 168 169 167 418 419 417 
6 40 275 39 88 525 87 
6 307 324 141 557 574 391 
6 300 301 296 550 551 546 
6 32 287 31 80 537 79 
6 147 220 149 397 470 399 
6 333 344 231 583 594 481 
6 299 370 293 549 620 543 
6 271 359 273 521 609 523 
6 224 325 304 474 575 554 
6 228 237 227 478 487 477 
6 305 375 343 555 625 593 
6 218 319 298 468 569 548 
6 240 351 272 490 601 522 
6 277 329 222 527 579 472 
6 253 355 139 503 605 389 
6 158 159 157 408 409 407 
6 236 246 216 486 496 466 
6 192 194 193 442 444 443 
6 220 309 149 470 559 399 
6 183 185 184 433 435 434 
6 196 197 195 446 447 445 
6 276 347 58 526 597 106 
6 136 333 231 386 583 481 
6 67 247 66 115 497 114 
6 60 248 59 108 498 107 
6 261 262 250 511 512 500 
6 173 176 175 423 426 425 
6 344 357 231 594 607 481 
6 144 281 280 394 531 530 
6 152 205 150 402 455 400 
6 163 166 165 413 416 415 
6 185 187 186 435 437 436 
6 233 234 230 483 484 480 
6 170 171 169 420 421 419 
6 146 147 134 396 397 384 
6 176 178 177 426 428 427 
6 285 337 223 535 587 473 
6 154 156 155 404 406 405 
6 263 342 226 513 592 476 
6 235 245 236 485 495 486 
6 160 161 159 410 411 409 
6 58 347 242 106 597 492 
6 166 168 167 416 418 417 
6 287 374 220 537 624 470 
6 189 190 188 439 440 438 
6 148 257 134 398 507 384 
6 194 196 195 444 446 445 
6 252 308 205 502 558 455 
6 285 345 337 535 595 587 
6 301 375 305 551 625 555 
6 180 181 179 430 431 429 
6 281 348 234 531 598 484 
6 198 199 197 448 449 447 
6 151 309 154 401 559 404 
6 228 367 335 478 617 585 
6 54 349 261 102 599 511 
6 156 158 157 406 408 407 
6 168 170 169 418 420 419 
6 200 202 199 450 452 449 
6 147 148 134 397 398 384 
6 158 160 159 408 410 409 
6 150 308 148 400 558 398 
6 253 316 208 503 566 458 
6 232 329 277 482 579 527 
6 178 180 179 428 430 429 
6 191 192 190 441 442 440 
6 214 238 202 464 488 452 
6 172 173 171 422 423 421 
6 187 189 188 437 439 438 
6 162 163 161 412 413 411 
6 228 251 237 478 501 487 
6 215 258 235 465 508 485 
6 182 183 181 432 433 431 
6 202 310 199 452 560 449 
6 219 253 208 469 503 458 
6 222 249 206 472 499 456 
6 196 198 197 446 448 447 
6 229 330 260 479 580 510 
6 132 358 274 382 608 524 
6 149 309 151 399 559 401 
6 226 312 254 476 562 504 
6 154 309 209 404 559 459 
6 77 129 76 125 379 124 
6 73 128 72 121 378 120 
6 76 131 75 124 381 123 
6 74 132 73 122 382 121 
6 75 130 74 123 380 122 
6 14 127 77 29 377 125 
6 72 126 14 120 376 29 
6 133 367 228 383 617 478 
6 237 282 227 487 532 477 
6 239 366 252 489 616 502 
6 200 214 202 450 464 452 
6 192 201 194 442 451 444 
6 170 172 171 420 422 421 
6 220 311 309 470 561 559 
6 198 200 199 448 450 449 
6 189 191 190 439 441 440 
6 146 323 322 396 573 572 
6 160 162 161 410 412 411 
6 251 307 237 501 557 487 
6 199 310 210 449 560 460 
6 57 373 56 105 623 104 
6 214 239 238 464 489 488 
6 182 212 183 432 462 433 
6 180 182 181 430 432 431 
6 146 322 147 396 572 397 
6 172 218 208 422 468 458 
6 172 208 173 422 458 423 
6 162 221 206 412 471 456 
6 162 206 163 412 456 413 
6 176 207 178 426 457 428 
6 272 351 204 522 601 454 
6 198 211 200 448 461 450 
6 182 213 212 432 463 462 
6 234 334 281 484 584 531 
6 154 209 156 404 459 406 
6 185 203 187 435 453 437 
6 168 174 170 418 424 420 
6 189 215 191 439 465 441 
6 215 216 191 465 466 441 
6 221 222 206 471 472 456 
6 158 164 160 408 414 410 
6 218 219 208 468 469 458 
6 205 308 150 455 558 400 
6 191 314 192 441 564 442 
6 215 235 216 465 485 466 
6 215 318 258 465 568 508 
6 152 351 205 402 601 455 
6 138 261 250 388 511 500 
6 192 314 201 442 564 451 
6 234 347 230 484 597 480 
6 226 342 312 476 592 562 
6 138 250 233 388 500 483 
6 147 322 220 397 572 470 
6 216 314 191 466 564 441 
6 306 332 180 556 582 430 
6 222 356 249 472 606 499 
6 128 345 285 378 595 535 
6 314 321 201 564 571 451 
6 212 315 183 462 565 433 
6 312 342 336 562 592 586 
6 282 339 338 532 589 588 
6 340 341 323 590 591 573 
6 309 311 209 559 561 459 
6 183 315 185 433 565 435 
6 208 316 173 458 566 423 
6 173 316 176 423 566 426 
6 3 341 37 18 591 85 
6 44 339 6 92 589 21 
6 252 366 145 502 616 395 
6 246 321 314 496 571 564 
6 246 314 216 496 564 466 
6 126 364 313 376 614 563 
6 156 317 158 406 567 408 
6 275 367 133 525 617 383 
6 176 316 207 426 566 457 
6 185 315 203 435 565 453 
6 180 332 182 430 582 432 
6 302 352 131 552 602 381 
6 251 324 307 501 574 557 
6 187 318 189 437 568 439 
6 172 319 218 422 569 468 
6 162 320 221 412 570 471 
6 305 343 166 555 593 416 
6 170 319 172 420 569 422 
6 158 317 164 408 567 414 
6 209 317 156 459 567 406 
6 285 353 128 535 603 378 
6 223 337 269 473 587 519 
6 160 320 162 410 570 412 
6 211 331 200 461 581 450 
6 174 319 170 424 569 420 
6 203 318 187 453 568 437 
6 189 318 215 439 568 465 
6 198 327 211 448 577 461 
6 164 320 160 414 570 410 
6 326 353 267 576 603 517 
6 236 344 333 486 594 583 
6 196 327 198 446 577 448 
6 219 355 253 469 605 503 
6 281 334 280 531 584 530 
6 274 359 271 524 609 521 
6 164 370 299 414 620 549 
6 174 375 300 424 625 550 
6 287 363 31 537 613 79 
6 243 361 1 493 611 16 
6 241 362 12 491 612 27 
6 307 365 237 557 615 487 
6 166 343 168 416 593 418 
6 200 331 214 450 581 464 
6 313 326 217 563 576 467 
6 9 357 244 24 607 494 
6 1 361 30 16 611 78 
6 12 362 65 27 612 113 
6 337 345 132 587 595 382 
6 242 348 64 492 598 112 
6 231 357 266 481 607 516 
6 182 332 213 432 582 463 
6 245 344 236 495 594 486 
6 258 346 259 508 596 509 
6 145 366 275 395 616 525 
6 291 369 136 541 619 386 
6 236 333 246 486 583 496 
6 331 335 214 581 585 464 
6 312 336 129 562 586 379 
6 315 372 262 565 622 512 
6 220 374 311 470 624 561 
6 140 374 287 390 624 537 
6 126 360 304 376 610 554 
6 230 347 276 480 597 526 
6 313 364 326 563 614 576 
6 56 373 143 104 623 393 
6 239 367 366 489 617 616 
6 204 351 152 454 601 402 
6 300 375 301 550 625 551 
6 214 335 239 464 585 489 
6 247 329 243 497 579 493 
6 262 372 250 512 622 500 
6 248 330 241 498 580 491 
6 318 346 258 568 596 508 
6 333 369 246 583 619 496 
6 282 338 227 532 588 477 
6 146 340 323 396 590 573 
6 304 360 264 554 610 514 
6 366 367 275 616 617 525 
6 129 336 76 379 586 124 
6 73 345 128 121 595 378 
6 76 336 131 124 586 381 
6 250 350 233 500 600 483 
6 129 371 328 379 621 578 
6 132 345 73 382 595 121 
6 168 343 174 418 593 424 
6 131 352 75 381 602 123 
6 66 247 243 114 497 493 
6 59 248 241 107 498 491 
6 74 358 132 122 608 382 
6 203 346 318 453 596 568 
6 313 360 126 563 610 376 
6 128 364 72 378 614 120 
6 128 353 326 378 603 576 
6 77 371 129 125 621 379 
6 129 368 312 379 618 562 
6 244 357 344 494 607 594 
6 328 354 225 578 604 475 
6 326 364 128 576 614 378 
6 75 352 130 123 602 380 
6 350 372 212 600 622 462 
6 136 369 333 386 619 583 
6 325 354 127 575 604 377 
6 213 350 212 463 600 462 
6 130 358 74 380 608 122 
6 250 372 350 500 622 600 
6 317 370 164 567 620 414 
6 72 364 126 120 614 376 
6 328 368 129 578 618 379 
6 127 371 77 377 621 125 
6 336 342 131 586 592 381 
6 212 372 315 462 622 565 
6 234 348 347 484 598 597 
6 8 266 51 23 516 99 
6 10 276 58 25 526 106 
6 246 369 321 496 619 571 
6 30 284 0 78 534 15 
6 65 286 13 113 536 28 
6 58 242 11 106 492 26 
6 266 357 51 516 607 99 
6 255 368 328 505 618 578 
6 347 348 242 597 598 492 
6 322 363 287 572 613 537 
6 323 363 322 573 613 572 
6 335 367 239 585 617 489 
6 30 361 284 78 611 534 
6 65 362 286 113 612 536 
6 237 365 282 487 615 532 
6 130 359 358 380 609 608 
6 343 375 174 593 625 424 
6 354 371 127 604 621 377 
6 328 371 354 578 621 604 
6 358 359 274 608 609 524 
6 0 284 36 15 534 84 
6 45 266 8 93 516 23 
6 52 276 10 100 526 25 
6 11 242 64 26 492 112 
6 13 286 71 28 536 119 
6 2 323 3 17 573 18 
6 31 323 2 79 573 17 
6 323 341 3 573 591 18 
6 37 340 4 85 590 19 
6 4 340 43 19 590 91 
6 38 338 5 86 588 20 
6 5 338 44 20 588 92 
6 6 282 7 21 532 22 
6 6 339 282 21 589 532 
6 282 365 7 532 615 22 

CELL_TYPES 563
13
13
13
13
13
13
13
13
13
13
13
13
13
13
13
13
13
13
13
13
13
13
13
13
13
13
13
13
13
13
13
13
13
13
13
13
13
13
13
13
13
13
13
13
13
13
13
13
13
13
13
13
13
13
13
13
13
13
13
13
13
13
13
13
13
13
13
13
13
13
13
13
13
13
13
13
13
13
13
13
13
13
13
13
13
13
13
13
13
13
13
13
13
13
13
13
13
13
13
13
13
13
13
13
13
13
13
13
13
13
13
13
13
13
13
13
13
13
13
13
13
13
13
13
13
13
13
13
13
13
13
13
13
13
13
13
13
13
13
13
13
13
13
13
13
13
13
13
13
13
13
13
13
13
13
13
13
13
13
13
13
13
13
13
13
13
13
13
13
13
13
13
13
13
13
13
13
13
13
13
13
13
13
13
13
13
13
13
13
13
13
13
13
13
13
13
13
13
13
13
13
13
13
13
13
13
13
13
13
13
13
13
13
13
13
13
13
13
13
13
13
13
13
13
13
13
13
13
13
13
13
13
13
13
13
13
13
13
13
13
13
13
13
13
13
13
13
13
13
13
13
13
13
13
13
13
13
13
13
13
13
13
13
13
13
13
13
13
13
13
13
13
13
13
13
13
13
13
13
13
13
13
13
13
13
13
13
13
13
13
13
13
13
13
13
13
13
13
13
13
13
13
13
13
13
13
13
13
13
13
13
13
13
13
13
13
13
13
13
13
13
13
13
13
13
13
13
13
13
13
13
13
13
13
13
13
13
13
13
13
13
13
13
13
13
13
13
13
13
13
13
13
13
13
13
13
13
13
13
13
13
13
13
13
13
13
13
13
13
13
13
13
13
13
13
13
13
13
13
13
13
13
13
13
13
13
13
13
13
13
13
13
13
13
13
13
13
13
13
13
13
13
13
13
13
13
13
13
13
13
13
13
13
13
13
13
13
13
13
13
13
13
13
13
13
13
13
13
13
13
13
13
13
13
13
13
13
13
13
13
13
13
13
13
13
13
13
13
13
13
13
13
13
13
13
13
13
13
13
13
13
13
13
13
13
13
13
13
13
13
13
13
13
13
13
13
13
13
13
13
13
13
13
13
13
13
13
13
13
13
13
13
13
13
13
13
13
13
13
13
13
13
13
13
13
13
13
13
13
13
13
13
13
13
13
13
13
13
13
13
13
13
13
13
13
13
13
13
13
13
13
13
13
13
13
13
13
13
13
13
13
13
13
13
13
13
13
13
13
13
13
13
13
13
13
13
13
13
13
13
13
13
13

POINT_DATA 626
VECTORS displacement float
-1.74391e-06 3.09611e-05 1.80581e-05
1.7356e-06 3.09802e-05 1.81032e-05
-2.59921e-05 1.69961e-05 1.80901e-05
-2.58467e-05 1.60363e-05 1.80547e-05
-2.77264e-05 1.39762e-05 1.80722e-05
-2.77194e-05 -1.40225e-05 1.80976e-05
-2.58178e-05 -1.60745e-05 1.81089e-05
-2.59883e-05 -1.70142e-05 1.81701e-05
-1.67738e-06 -3.09649e-05 1.80545e-05
1.7554e-06 -3.09664e-05 1.8105e-05
2.59495e-05 -1.6984e-05 1.80466e-05
2.77228e-05 -1.39401e-05 1.80465e-05
2.76782e-05 1.39928e-05 1.80947e-05
2.59208e-05 1.69963e-05 1.80491e-05
0 0 0
-1.74391e-06 3.09611e-05 -1.80581e-05
1.7356e-06 3.09802e-05 -1.81032e-05
-2.59921e-05 1.69961e-05 -1.80901e-05
-2.58467e-05 1.60363e-05 -1.80547e-05
-2.77264e-05 1.39762e-05 -1.80722e-05
-2.77194e-05 -1.40225e-05 -1.80976e-05
-2.58178e-05 -1.60745e-05 -1.81089e-05
-2.59883e-05 -1.70142e-05 -1.81701e-05
-1.67738e-06 -3.09649e-05 -1.80545e-05
1.7554e-06 -3.09664e-05 -1.8105e-05
2.59495e-05 -1.6984e-05 -1.80466e-05
2.77228e-05 -1.39401e-05 -1.80465e-05
2.76782e-05 1.39928e-05 -1.80947e-05
2.59208e-05 1.69963e-05 -1.80491e-05
0 0 0
2.48659e-08 3.01609e-05 1.80373e-05
-2.11462e-05 1.87164e-05 1.75532e-05
-1.72374e-05 1.98386e-05 1.69246e-05
-1.40109e-05 2.10599e-05 1.65589e-05
-1.12098e-05 2.26711e-05 1.65528e-05
-8.52584e-06 2.48396e-05 1.69052e-05
-5.56847e-06 2.76286e-05 1.75409e-05
-2.64555e-05 1.46824e-05 1.80366e-05
-2.6775e-05 -9.0144e-06 1.75808e-05
-2.58129e-05 -5.03732e-06 1.69297e-05
-2.52613e-05 -1.63684e-06 1.65754e-05
-2.52643e-05 1.60847e-06 1.65783e-05
-2.58051e-05 5.0247e-06 1.6928e-05
-2.67612e-05 8.98746e-06 1.75673e-05
-2.64424e-05 -1.47288e-05 1.80653e-05
-5.54172e-06 -2.7643e-05 1.75331e-05
-8.47836e-06 -2.48486e-05 1.69045e-05
-1.1173e-05 -2.26905e-05 1.65602e-05
-1.39746e-05 -2.10929e-05 1.65635e-05
-1.72199e-05 -1.9874e-05 1.69404e-05
-2.11398e-05 -1.87531e-05 1.75656e-05
8.98022e-08 -3.01457e-05 1.80325e-05
2.11296e-05 -1.86288e-05 1.75149e-05
1.72496e-05 -1.97671e-05 1.68767e-05
1.40379e-05 -2.10168e-05 1.65156e-05
1.1228e-05 -2.25993e-05 1.65502e-05
8.58296e-06 -2.47868e-05 1.6878e-05
5.65529e-06 -2.76333e-05 1.75384e-05
2.61303e-05 -1.5063e-05 1.80315e-05
2.67231e-05 8.9413e-06 1.75049e-05
2.57287e-05 5.05144e-06 1.69122e-05
2.52135e-05 1.62396e-06 1.65272e-05
2.52106e-05 -1.60006e-06 1.65255e-05
2.57574e-05 -4.99922e-06 1.68921e-05
2.67052e-05 -8.92004e-06 1.75131e-05
2.61133e-05 1.50641e-05 1.80285e-05
5.63374e-06 2.76247e-05 1.7513e-05
8.51035e-06 2.48135e-05 1.6915e-05
1.12199e-05 2.26473e-05 1.65334e-05
1.40085e-05 2.10278e-05 1.65287e-05
1.72266e-05 1.97983e-05 1.68889e-05
2.11206e-05 1.86384e-05 1.75288e-05
0 0 0
0 0 0
0 0 0
0 0 0
0 0 0
0 0 0
2.48659e-08 3.01609e-05 -1.80373e-05
-2.11462e-05 1.87164e-05 -1.75532e-05
-1.72374e-05 1.98386e-05 -1.69246e-05
-1.40109e-05 2.10599e-05 -1.65589e-05
-1.12098e-05 2.26711e-05 -1.65528e-05
-8.52584e-06 2.48396e-05 -1.69052e-05
-5.56847e-06 2.76286e-05 -1.75409e-05
-2.64555e-05 1.46824e-05 -1.80366e-05
-2.6775e-05 -9.0144e-06 -1.75808e-05
-2.58129e-05 -5.03732e-06 -1.69297e-05
-2.52613e-05 -1.63684e-06 -1.65754e-05
-2.52643e-05 1.60847e-06 -1.65783e-05
-2.58051e-05 5.0247e-06 -1.6928e-05
-2.67612e-05 8.98746e-06 -1.75673e-05
-2.64424e-05 -1.47288e-05 -1.80653e-05
-5.54172e-06 -2.7643e-05 -1.75331e-05
-8.47836e-06 -2.48486e-05 -1.69045e-05
-1.1173e-05 -2.26905e-05 -1.65602e-05
-1.39746e-05 -2.10929e-05 -1.65635e-05
-1.72199e-05 -1.9874e-05 -1.69404e-05
-2.11398e-05 -1.87531e-05 -1.75656e-05
8.98022e-08 -3.01457e-05 -1.80325e-05
2.11296e-05 -1.86288e-05 -1.75149e-05
1.72496e-05 -1.97671e-05 -1.68767e-05
1.40379e-05 -2.10168e-05 -1.65156e-05
1.1228e-05 -2.25993e-05 -1.65502e-05
8.58296e-06 -2.47868e-05 -1.6878e-05
5.65529e-06 -2.76333e-05 -1.75384e-05
2.61303e-05 -1.5063e-05 -1.80315e-05
2.67231e-05 8.9413e-06 -1.75049e-05
2.57287e-05 5.05144e-06 -1.69122e-05
2.52135e-05 1.62396e-06 -1.65272e-05
2.52106e-05 -1.60006e-06 -1.65255e-05
2.57574e-05 -4.99922e-06 -1.68921e-05
2.67052e-05 -8.92004e-06 -1.75131e-05
2.61133e-05 1.50641e-05 -1.80285e-05
5.63374e-06 2.76247e-05 -1.7513e-05
8.51035e-06 2.48135e-05 -1.6915e-05
1.12199e-05 2.26473e-05 -1.65334e-05
1.40085e-05 2.10278e-05 -1.65287e-05
1.72266e-05 1.97983e-05 -1.68889e-05
2.11206e-05 1.86384e-05 -1.75288e-05
0 0 0
0 0 0
0 0 0
0 0 0
0 0 0
0 0 0
1.79404e-06 8.5892e-07 4.55348e-06
1.73817e-06 -8.2528e-07 4.462e-06
4.3204e-07 1.85e-06 4.49632e-06
4.36185e-07 -1.78098e-06 4.35725e-06
-1.84786e-06 2.09686e-08 4.42354e-06
-1.12331e-06 -1.30913e-06 4.15211e-06
-1.15944e-06 1.30706e-06 4.2009e-06
-2.25188e-05 -7.28981e-06 1.70036e-05
-2.22021e-05 7.3737e-06 1.69723e-05
-4.86148e-06 2.29045e-05 1.69407e-05
-4.85898e-06 -2.31377e-05 1.69676e-05
1.74259e-05 1.56394e-05 1.69335e-05
1.75735e-05 -1.55403e-05 1.69428e-05
2.10793e-05 3.16487e-06 1.63283e-05
-1.3957e-05 1.71558e-05 1.64823e-05
-1.3595e-05 -1.67457e-05 1.64138e-05
7.76984e-06 1.9825e-05 1.63351e-05
7.6868e-06 -2.03155e-05 1.64064e-05
2.14781e-05 -3.44481e-06 1.64041e-05
-2.11085e-05 6.5883e-09 1.62506e-05
-2.24258e-05 1.10026e-05 1.7457e-05
-1.87558e-05 9.25715e-06 1.66307e-05
-1.79876e-05 5.79706e-06 1.60401e-05
-1.4988e-05 7.45034e-06 1.54901e-05
-1.42283e-05 4.3089e-06 1.48335e-05
-1.15357e-05 5.74543e-06 1.40984e-05
-1.08609e-05 3.06956e-06 1.33771e-05
-8.40271e-06 4.30601e-06 1.24077e-05
-9.06124e-06 7.01529e-06 1.34599e-05
-6.20573e-06 5.48994e-06 1.16921e-05
-6.83014e-06 8.25166e-06 1.30834e-05
-4.28251e-06 6.67664e-06 1.14536e-05
-4.80131e-06 9.61251e-06 1.30974e-05
-2.40151e-06 7.99544e-06 1.17261e-05
-2.81362e-06 1.11702e-05 1.34785e-05
-4.75543e-07 9.59784e-06 1.25043e-05
-7.38563e-07 1.30004e-05 1.41454e-05
1.73154e-06 1.15209e-05 1.35385e-05
-5.53621e-06 1.27039e-05 1.44407e-05
1.68552e-06 8.22613e-06 1.17507e-05
4.00525e-06 1.01236e-05 1.31544e-05
3.70631e-06 7.0998e-06 1.14813e-05
6.06904e-06 8.96909e-06 1.31168e-05
5.76833e-06 6.10839e-06 1.17387e-05
8.36034e-06 8.0225e-06 1.34956e-05
8.1078e-06 5.19665e-06 1.25037e-05
1.0957e-05 7.09898e-06 1.41506e-05
1.07489e-05 4.32397e-06 1.35026e-05
8.53286e-06 1.10405e-05 1.44645e-05
7.93977e-06 2.64444e-06 1.17306e-05
1.06489e-05 1.73767e-06 1.31075e-05
7.95076e-06 3.58854e-07 1.14587e-05
1.08093e-05 -7.59317e-07 1.31276e-05
8.11377e-06 -1.93831e-06 1.17123e-05
1.11013e-05 -3.31375e-06 1.34875e-05
8.47198e-06 -4.42516e-06 1.24474e-05
1.15068e-05 -6.00451e-06 1.4113e-05
8.95799e-06 -7.14004e-06 1.34316e-05
6.14913e-06 -5.49586e-06 1.16444e-05
6.64628e-06 -8.3031e-06 1.30217e-05
4.10627e-06 -6.59023e-06 1.1314e-05
4.52457e-06 -9.55345e-06 1.29918e-05
2.24288e-06 -7.86034e-06 1.16005e-05
2.4855e-06 -1.10049e-05 1.33545e-05
2.25344e-07 -9.37618e-06 1.23569e-05
3.30092e-07 -1.27733e-05 1.40375e-05
-1.91596e-06 -1.11537e-05 1.33806e-05
-1.84156e-06 -7.92369e-06 1.15853e-05
-4.16903e-06 -9.87751e-06 1.30885e-05
-3.81494e-06 -6.73225e-06 1.13202e-05
-6.34734e-06 -8.66436e-06 1.31028e-05
-5.89284e-06 -5.6995e-06 1.16316e-05
-8.50202e-06 -7.4378e-06 1.33832e-05
-8.16972e-06 -4.72931e-06 1.2412e-05
-1.10987e-05 -6.4045e-06 1.40736e-05
-4.37286e-06 -1.31268e-05 1.44374e-05
-1.08118e-05 -3.65167e-06 1.34428e-05
7.2281e-06 -1.13759e-05 1.42767e-05
-7.74373e-06 1.9832e-06 1.1496e-05
-1.32198e-05 1.03534e-06 1.42147e-05
1.72957e-06 1.50869e-05 1.4956e-05
1.37719e-05 4.62369e-07 1.43916e-05
1.3847e-05 6.10178e-06 1.49355e-05
-9.69673e-06 1.01991e-05 1.45363e-05
-5.41738e-06 -3.19846e-06 1.01849e-05
-1.17168e-05 -9.29986e-06 1.4893e-05
1.18856e-05 -8.76261e-06 1.47909e-05
1.47858e-05 -7.47565e-06 1.54072e-05
-1.39635e-05 -5.24533e-06 1.48655e-05
2.79657e-06 -1.45201e-05 1.48e-05
4.24657e-07 -1.65039e-05 1.54016e-05
3.51931e-06 4.39804e-06 9.58378e-06
1.40144e-05 9.30159e-06 1.54954e-05
1.79356e-05 8.14719e-06 1.63043e-05
-1.56797e-05 1.13983e-05 1.62373e-05
-1.09439e-06 1.67737e-05 1.54991e-05
1.90731e-06 1.96269e-05 1.63147e-05
-2.0924e-06 5.22138e-06 9.60028e-06
5.55533e-06 -7.84799e-07 9.59683e-06
3.58683e-06 -3.68447e-06 9.08452e-06
-1.78008e-06 -5.17986e-06 9.45225e-06
-2.24743e-05 -1.10137e-05 1.74777e-05
-1.88031e-05 -9.24389e-06 1.66547e-05
2.11532e-05 1.41682e-05 1.7509e-05
2.07591e-05 -1.4321e-05 1.7439e-05
-1.76489e-06 -2.54528e-05 1.75143e-05
-1.6824e-06 2.54169e-05 1.7519e-05
1.77177e-05 -1.191e-05 1.66909e-05
2.0651e-05 -1.07539e-05 1.71195e-05
3.77658e-06 -1.89903e-05 1.61433e-05
7.68685e-07 -2.03512e-05 1.64866e-05
-1.94101e-05 -1.26537e-05 1.71467e-05
-1.37349e-05 -2.30756e-06 1.44757e-05
-1.65973e-05 -3.70247e-06 1.54815e-05
-1.03786e-05 -1.09668e-06 1.29556e-05
2.44579e-05 1.10758e-05 1.7655e-05
2.55034e-05 -1.24064e-05 1.78514e-05
2.64955e-06 2.67325e-05 1.76638e-05
2.52129e-06 -2.64201e-05 1.76327e-05
3.34012e-06 -2.30379e-05 1.70327e-05
-2.05443e-06 -1.83248e-05 1.59547e-05
4.05983e-06 2.37975e-05 1.7134e-05
2.26199e-05 8.38166e-06 1.71229e-05
4.61481e-06 1.73181e-05 1.57312e-05
1.44309e-05 -1.31229e-05 1.61412e-05
-1.57919e-05 -1.09876e-05 1.62183e-05
-1.68044e-05 -3.81541e-07 1.53813e-05
1.73106e-05 4.68881e-06 1.57296e-05
6.55342e-08 -6.38892e-06 1.02703e-05
1.74213e-06 -4.84965e-06 9.09502e-06
5.85194e-06 -2.93626e-06 1.03811e-05
-2.145e-05 3.75166e-06 1.64627e-05
5.7309e-06 -1.6279e-05 1.55117e-05
9.08594e-06 -1.75039e-05 1.60015e-05
1.75768e-05 1.18847e-05 1.6676e-05
1.39981e-05 -1.63866e-05 1.64052e-05
1.0743e-05 -1.37928e-05 1.55541e-05
-3.54885e-06 -4.22123e-06 9.50341e-06
5.40045e-06 1.13878e-06 9.5017e-06
5.21935e-06 3.22368e-06 1.005e-05
-1.74995e-06 -2.83611e-05 1.788e-05
1.89252e-06 5.3002e-06 9.58712e-06
-1.13856e-07 6.10653e-06 1.00415e-05
-3.78586e-06 4.12876e-06 9.58107e-06
-5.62409e-06 3.03495e-06 1.02881e-05
-5.16673e-06 1.04093e-06 9.21616e-06
-7.52918e-06 -6.17557e-08 1.11755e-05
-4.33539e-06 -8.10467e-07 8.38417e-06
-3.1093e-06 1.87276e-06 7.37608e-06
-2.20871e-05 -3.6089e-06 1.65197e-05
2.34118e-05 -1.56914e-05 1.78393e-05
-1.50755e-06 2.11734e-05 1.66857e-05
2.12675e-05 -8.45463e-08 1.62298e-05
1.76269e-05 -1.64727e-06 1.55854e-05
1.73524e-05 -4.94306e-06 1.57746e-05
2.18972e-05 -7.45325e-06 1.69173e-05
-2.31877e-05 -1.42578e-05 1.78359e-05
1.73294e-05 1.64935e-06 1.55125e-05
-1.73415e-06 2.84796e-05 1.78973e-05
-4.2217e-07 3.68426e-06 7.49736e-06
2.37775e-05 1.57457e-05 1.78877e-05
-1.7502e-05 1.56461e-05 1.69786e-05
-1.06292e-05 -1.84711e-05 1.62591e-05
-1.01024e-05 -1.43462e-05 1.55756e-05
-7.50983e-06 -1.60993e-05 1.5626e-05
-7.32401e-06 -2.0126e-05 1.63992e-05
-1.07074e-05 1.85403e-05 1.62708e-05
-1.03502e-05 1.4388e-05 1.56233e-05
-7.77462e-06 2.0498e-05 1.64481e-05
-4.25408e-06 1.86147e-05 1.60568e-05
1.07626e-05 1.83505e-05 1.62302e-05
1.38955e-05 1.69394e-05 1.64349e-05
1.40458e-05 1.29763e-05 1.60551e-05
-7.36359e-06 1.62928e-05 1.56425e-05
1.0528e-05 1.4551e-05 1.56492e-05
7.75086e-06 1.60968e-05 1.56179e-05
-3.11718e-06 -1.8992e-06 7.39521e-06
-7.25965e-06 -1.24254e-05 1.4629e-05
3.00932e-06 4.03695e-08 6.60278e-06
4.8739e-06 1.35265e-05 1.4622e-05
1.40799e-05 -2.26102e-06 1.45743e-05
-1.72944e-05 -1.52205e-05 1.69492e-05
-1.73712e-05 2.42099e-06 1.56018e-05
-1.2208e-05 8.91434e-06 1.49473e-05
-7.70764e-06 -2.29311e-06 1.15579e-05
-1.24532e-05 1.18158e-05 1.55439e-05
-1.4277e-07 -3.75509e-06 7.55627e-06
2.73085e-06 2.2726e-06 7.25393e-06
-2.00442e-06 -1.46545e-05 1.48119e-05
9.36765e-06 -1.0071e-05 1.43932e-05
1.38645e-05 3.15869e-06 1.457e-05
-7.34207e-06 1.12024e-05 1.42641e-05
4.99858e-06 -1.27783e-05 1.43731e-05
1.10349e-05 1.04334e-05 1.49235e-05
-3.59743e-06 1.46893e-05 1.49119e-05
-4.63672e-06 -1.66214e-05 1.55528e-05
-1.95121e-05 1.28956e-05 1.71648e-05
-2.31325e-05 1.48615e-05 1.78466e-05
-1.29085e-05 -1.26895e-05 1.58164e-05
3.76168e-06 -1.5865e-06 7.90915e-06
1.7648e-06 2.92295e-06 7.08639e-06
-9.23303e-06 -1.06124e-05 1.45357e-05
1.72813e-06 -2.8238e-06 6.93298e-06
9.94885e-07 2.4123e-05 1.7312e-05
2.13733e-05 1.11968e-05 1.73022e-05
-1.46686e-05 -7.95554e-06 1.54892e-05
1.37118e-05 -4.78765e-06 1.46945e-05
-1.91033e-06 -2.17687e-05 1.68064e-05
1.80652e-05 -8.42136e-06 1.63445e-05
-1.66834e-05 -6.33031e-06 1.57863e-05
-4.32993e-07 -1.92273e-06 4.79978e-06
-1.80579e-06 2.99613e-06 7.17916e-06
-2.50577e-05 -1.2985e-05 1.79255e-05
-2.51329e-05 -1.45106e-05 1.80053e-05
-2.50509e-05 1.30369e-05 1.79092e-05
-2.51238e-05 1.46533e-05 1.79853e-05
-1.64884e-06 -3.12556e-06 7.21191e-06
6.32969e-06 1.13715e-05 1.40804e-05
5.33781e-07 -2.40922e-05 1.73057e-05
-5.2289e-07 1.80992e-06 4.64627e-06
7.40951e-06 -1.43477e-05 1.51564e-05
2.33085e-05 -1.32126e-05 1.77321e-05
2.36384e-05 -1.05404e-05 1.74943e-05
1.19918e-05 -1.8216e-05 1.62973e-05
1.47341e-05 -1.01494e-05 1.57995e-05
-1.00298e-05 1.00152e-06 1.27582e-05
-1.74038e-06 -8.16074e-07 4.72474e-06
7.69242e-07 3.70922e-06 7.57526e-06
2.3436e-06 -1.99761e-06 6.5571e-06
2.01619e-05 5.89955e-06 1.64575e-05
5.0713e-06 2.06015e-05 1.64999e-05
3.42129e-07 -2.76866e-05 1.78573e-05
-1.73159e-06 7.0926e-07 4.60757e-06
-3.21224e-06 6.23188e-07 6.82603e-06
3.57805e-06 1.47576e-06 7.63876e-06
4.99249e-07 2.83304e-05 1.79305e-05
2.47661e-05 1.37374e-05 1.79216e-05
-2.03337e-05 1.55394e-05 1.74325e-05
1.17896e-06 1.36476e-06 4.46107e-06
-2.0645e-05 -1.5732e-05 1.75311e-05
-1.90042e-05 -2.32288e-06 1.59502e-05
-1.95644e-05 -5.5866e-06 1.63362e-05
9.05888e-07 -3.2485e-06 7.00805e-06
-4.36713e-06 -1.97947e-05 1.63257e-05
-7.93951e-06 1.38383e-05 1.51051e-05
1.16599e-06 -1.30446e-06 4.34048e-06
1.19377e-05 -1.12315e-05 1.52961e-05
6.1344e-06 -2.27022e-05 1.68243e-05
-1.45262e-05 1.43592e-05 1.63276e-05
7.93129e-06 1.3325e-05 1.4952e-05
1.79404e-06 8.5892e-07 -4.55348e-06
1.73817e-06 -8.2528e-07 -4.462e-06
4.3204e-07 1.85e-06 -4.49632e-06
4.36185e-07 -1.78098e-06 -4.35725e-06
-1.84786e-06 2.09686e-08 -4.42354e-06
-1.12331e-06 -1.30913e-06 -4.15211e-06
-1.15944e-06 1.30706e-06 -4.2009e-06
-2.25188e-05 -7.28981e-06 -1.70036e-05
-2.22021e-05 7.3737e-06 -1.69723e-05
-4.86148e-06 2.29045e-05 -1.69407e-05
-4.85898e-06 -2.31377e-05 -1.69676e-05
1.74259e-05 1.56394e-05 -1.69335e-05
1.75735e-05 -1.55403e-05 -1.69428e-05
2.10793e-05 3.16487e-06 -1.63283e-05
-1.3957e-05 1.71558e-05 -1.64823e-05
-1.3595e-05 -1.67457e-05 -1.64138e-05
7.76984e-06 1.9825e-05 -1.63351e-05
7.6868e-06 -2.03155e-05 -1.64064e-05
2.14781e-05 -3.44481e-06 -1.64041e-05
-2.11085e-05 6.5883e-09 -1.62506e-05
-2.24258e-05 1.10026e-05 -1.7457e-05
-1.87558e-05 9.25715e-06 -1.66307e-05
-1.79876e-05 5.79706e-06 -1.60401e-05
-1.4988e-05 7.45034e-06 -1.54901e-05
-1.42283e-05 4.3089e-06 -1.48335e-05
-1.15357e-05 5.74543e-06 -1.40984e-05
-1.08609e-05 3.06956e-06 -1.33771e-05
-8.40271e-06 4.30601e-06 -1.24077e-05
-9.06124e-06 7.01529e-06 -1.34599e-05
-6.20573e-06 5.48994e-06 -1.16921e-05
-6.83014e-06 8.25166e-06 -1.30834e-05
-4.28251e-06 6.67664e-06 -1.14536e-05
-4.80131e-06 9.61251e-06 -1.30974e-05
-2.40151e-06 7.99544e-06 -1.17261e-05
-2.81362e-06 1.11702e-05 -1.34785e-05
-4.75543e-07 9.59784e-06 -1.25043e-05
-7.38563e-07 1.30004e-05 -1.41454e-05
1.73154e-06 1.15209e-05 -1.35385e-05
-5.53621e-06 1.27039e-05 -1.44407e-05
1.68552e-06 8.22613e-06 -1.17507e-05
4.00525e-06 1.01236e-05 -1.31544e-05
3.70631e-06 7.0998e-06 -1.14813e-05
6.06904e-06 8.96909e-06 -1.31168e-05
5.76833e-06 6.10839e-06 -1.17387e-05
8.36034e-06 8.0225e-06 -1.34956e-05
8.1078e-06 5.19665e-06 -1.25037e-05
1.0957e-05 7.09898e-06 -1.41506e-05
1.07489e-05 4.32397e-06 -1.35026e-05
8.53286e-06 1.10405e-05 -1.44645e-05
7.93977e-06 2.64444e-06 -1.17306e-05
1.06489e-05 1.73767e-06 -1.31075e-05
7.95076e-06 3.58854e-07 -1.14587e-05
1.08093e-05 -7.59317e-07 -1.31276e-05
8.11377e-06 -1.93831e-06 -1.17123e-05
1.11013e-05 -3.31375e-06 -1.34875e-05
8.47198e-06 -4.42516e-06 -1.24474e-05
1.15068e-05 -6.00451e-06 -1.4113e-05
8.95799e-06 -7.14004e-06 -1.34316e-05
6.14913e-06 -5.49586e-06 -1.16444e-05
6.64628e-06 -8.3031e-06 -1.30217e-05
4.10627e-06 -6.59023e-06 -1.1314e-05
4.52457e-06 -9.55345e-06 -1.29918e-05
2.24288e-06 -7.86034e-06 -1.16005e-05
2.4855e-06 -1.10049e-05 -1.33545e-05
2.25344e-07 -9.37618e-06 -1.23569e-05
3.30092e-07 -1.27733e-05 -1.40375e-05
-1.91596e-06 -1.11537e-05 -1.33806e-05
-1.84156e-06 -7.92369e-06 -1.15853e-05
-4.16903e-06 -9.87751e-06 -1.30885e-05
-3.81494e-06 -6.73225e-06 -1.13202e-05
-6.34734e-06 -8.66436e-06 -1.31028e-05
-5.89284e-06 -5.6995e-06 -1.16316e-05
-8.50202e-06 -7.4378e-06 -1.33832e-05
-8.16972e-06 -4.72931e-06 -1.2412e-05
-1.10987e-05 -6.4045e-06 -1.40736e-05
-4.37286e-06 -1.31268e-05 -1.44374e-05
-1.08118e-05 -3.65167e-06 -1.34428e-05
7.2281e-06 -1.13759e-05 -1.42767e-05
-7.74373e-06 1.9832e-06 -1.1496e-05
-1.32198e-05 1.03534e-06 -1.42147e-05
1.72957e-06 1.50869e-05 -1.4956e-05
1.37719e-05 4.62369e-07 -1.43916e-05
1.3847e-05 6.10178e-06 -1.49355e-05
-9.69673e-06 1.01991e-05 -1.45363e-05
-5.41738e-06 -3.19846e-06 -1.01849e-05
-1.17168e-05 -9.29986e-06 -1.4893e-05
1.18856e-05 -8.76261e-06 -1.47909e-05
1.47858e-05 -7.47565e-06 -1.54072e-05
-1.39635e-05 -5.24533e-06 -1.48655e-05
2.79657e-06 -1.45201e-05 -1.48e-05
4.24657e-07 -1.65039e-05 -1.54016e-05
3.51931e-06 4.39804e-06 -9.58378e-06
1.40144e-05 9.30159e-06 -1.54954e-05
1.79356e-05 8.14719e-06 -1.63043e-05
-1.56797e-05 1.13983e-05 -1.62373e-05
-1.09439e-06 1.67737e-05 -1.54991e-05
1.90731e-06 1.96269e-05 -1.63147e-05
-2.0924e-06 5.22138e-06 -9.60028e-06
5.55533e-06 -7.84799e-07 -9.59683e-06
3.58683e-06 -3.68447e-06 -9.08452e-06
-1.78008e-06 -5.17986e-06 -9.45225e-06
-2.24743e-05 -1.10137e-05 -1.74777e-05
-1.88031e-05 -9.24389e-06 -1.66547e-05
2.11532e-05 1.41682e-05 -1.7509e-05
2.07591e-05 -1.4321e-05 -1.7439e-05
-1.76489e-06 -2.54528e-05 -1.75143e-05
-1.6824e-06 2.54169e-05 -1.7519e-05
1.77177e-05 -1.191e-05 -1.66909e-05
2.0651e-05 -1.07539e-05 -1.71195e-05
3.77658e-06 -1.89903e-05 -1.61433e-05
7.68685e-07 -2.03512e-05 -1.64866e-05
-1.94101e-05 -1.26537e-05 -1.71467e-05
-1.37349e-05 -2.30756e-06 -1.44757e-05
-1.65973e-05 -3.70247e-06 -1.54815e-05
-1.03786e-05 -1.09668e-06 -1.29556e-05
2.44579e-05 1.10758e-05 -1.7655e-05
2.55034e-05 -1.24064e-05 -1.78514e-05
2.64955e-06 2.67325e-05 -1.76638e-05
2.52129e-06 -2.64201e-05 -1.76327e-05
3.34012e-06 -2.30379e-05 -1.70327e-05
-2.05443e-06 -1.83248e-05 -1.59547e-05
4.05983e-06 2.37975e-05 -1.7134e-05
2.26199e-05 8.38166e-06 -1.71229e-05
4.61481e-06 1.73181e-05 -1.57312e-05
1.44309e-05 -1.31229e-05 -1.61412e-05
-1.57919e-05 -1.09876e-05 -1.62183e-05
-1.68044e-05 -3.81541e-07 -1.53813e-05
1.73106e-05 4.68881e-06 -1.57296e-05
6.55342e-08 -6.38892e-06 -1.02703e-05
1.74213e-06 -4.84965e-06 -9.09502e-06
5.85194e-06 -2.93626e-06 -1.03811e-05
-2.145e-05 3.75166e-06 -1.64627e-05
5.7309e-06 -1.6279e-05 -1.55117e-05
9.08594e-06 -1.75039e-05 -1.60015e-05
1.75768e-05 1.18847e-05 -1.6676e-05
1.39981e-05 -1.63866e-05 -1.64052e-05
1.0743e-05 -1.37928e-05 -1.55541e-05
-3.54885e-06 -4.22123e-06 -9.50341e-06
5.40045e-06 1.13878e-06 -9.5017e-06
5.21935e-06 3.22368e-06 -1.005e-05
-1.74995e-06 -2.83611e-05 -1.788e-05
1.89252e-06 5.3002e-06 -9.58712e-06
-1.13856e-07 6.10653e-06 -1.00415e-05
-3.78586e-06 4.12876e-06 -9.58107e-06
-5.62409e-06 3.03495e-06 -1.02881e-05
-5.16673e-06 1.04093e-06 -9.21616e-06
-7.52918e-06 -6.17557e-08 -1.11755e-05
-4.33539e-06 -8.10467e-07 -8.38417e-06
-3.1093e-06 1.87276e-06 -7.37608e-06
-2.20871e-05 -3.6089e-06 -1.65197e-05
2.34118e-05 -1.56914e-05 -1.78393e-05
-1.50755e-06 2.11734e-05 -1.66857e-05
2.12675e-05 -8.45463e-08 -1.62298e-05
1.76269e-05 -1.64727e-06 -1.55854e-05
1.73524e-05 -4.94306e-06 -1.57746e-05
2.18972e-05 -7.45325e-06 -1.69173e-05
-2.31877e-05 -1.42578e-05 -1.78359e-05
1.73294e-05 1.64935e-06 -1.55125e-05
-1.73415e-06 2.84796e-05 -1.78973e-05
-4.2217e-07 3.68426e-06 -7.49736e-06
2.37775e-05 1.57457e-05 -1.78877e-05
-1.7502e-05 1.56461e-05 -1.69786e-05
-1.06292e-05 -1.84711e-05 -1.62591e-05
-1.01024e-05 -1.43462e-05 -1.55756e-05
-7.50983e-06 -1.60993e-05 -1.5626e-05
-7.32401e-06 -2.0126e-05 -1.63992e-05
-1.07074e-05 1.85403e-05 -1.62708e-05
-1.03502e-05 1.4388e-05 -1.56233e-05
-7.77462e-06 2.0498e-05 -1.64481e-05
-4.25408e-06 1.86147e-05 -1.60568e-05
1.07626e-05 1.83505e-05 -1.62302e-05
1.38955e-05 1.69394e-05 -1.64349e-05
1.40458e-05 1.29763e-05 -1.60551e-05
-7.36359e-06 1.62928e-05 -1.56425e-05
1.0528e-05 1.4551e-05 -1.56492e-05
7.75086e-06 1.60968e-05 -1.56179e-05
-3.11718e-06 -1.8992e-06 -7.39521e-06
-7.25965e-06 -1.24254e-05 -1.4629e-05
3.00932e-06 4.03695e-08 -6.60278e-06
4.8739e-06 1.35265e-05 -1.4622e-05
1.40799e-05 -2.26102e-06 -1.45743e-05
-1.72944e-05 -1.52205e-05 -1.69492e-05
-1.73712e-05 2.42099e-06 -1.56018e-05
-1.2208e-05 8.91434e-06 -1.49473e-05
-7.70764e-06 -2.29311e-06 -1.15579e-05
-1.24532e-05 1.18158e-05 -1.55439e-05
-1.4277e-07 -3.75509e-06 -7.55627e-06
2.73085e-06 2.2726e-06 -7.25393e-06
-2.00442e-06 -1.46545e-05 -1.48119e-05
9.36765e-06 -1.0071e-05 -1.43932e-05
1.38645e-05 3.15869e-06 -1.457e-05
-7.34207e-06 1.12024e-05 -1.42641e-05
4.99858e-06 -1.27783e-05 -1.43731e-05
1.10349e-05 1.04334e-05 -1.49235e-05
-3.59743e-06 1.46893e-05 -1.49119e-05
-4.63672e-06 -1.66214e-05 -1.55528e-05
-1.95121e-05 1.28956e-05 -1.71648e-05
-2.31325e-05 1.48615e-05 -1.78466e-05
-1.29085e-05 -1.26895e-05 -1.58164e-05
3.76168e-06 -1.5865e-06 -7.90915e-06
1.7648e-06 2.92295e-06 -7.08639e-06
-9.23303e-06 -1.06124e-05 -1.45357e-05
1.72813e-06 -2.8238e-06 -6.93298e-06
9.94885e-07 2.4123e-05 -1.7312e-05
2.13733e-05 1.11968e-05 -1.73022e-05
-1.46686e-05 -7.95554e-06 -1.54892e-05
1.37118e-05 -4.78765e-06 -1.46945e-05
-1.91033e-06 -2.17687e-05 -1.68064e-05
1.80652e-05 -8.42136e-06 -1.63445e-05
-1.66834e-05 -6.33031e-06 -1.57863e-05
-4.32993e-07 -1.92273e-06 -4.79978e-06
-1.80579e-06 2.99613e-06 -7.17916e-06
-2.50577e-05 -1.2985e-05 -1.79255e-05
-2.51329e-05 -1.45106e-05 -1.80053e-05
-2.50509e-05 1.30369e-05 -1.79092e-05
-2.51238e-05 1.46533e-05 -1.79853e-05
-1.64884e-06 -3.12556e-06 -7.21191e-06
6.32969e-06 1.13715e-05 -1.40804e-05
5.33781e-07 -2.40922e-05 -1.73057e-05
-5.2289e-07 1.80992e-06 -4.64627e-06
7.40951e-06 -1.43477e-05 -1.51564e-05
2.33085e-05 -1.32126e-05 -1.77321e-05
2.36384e-05 -1.05404e-05 -1.74943e-05
1.19918e-05 -1.8216e-05 -1.62973e-05
1.47341e-05 -1.01494e-05 -1.57995e-05
-1.00298e-05 1.00152e-06 -1.27582e-05
-1.74038e-06 -8.16074e-07 -4.72474e-06
7.69242e-07 3.70922e-06 -7.57526e-06
2.3436e-06 -1.99761e-06 -6.5571e-06
2.01619e-05 5.89955e-06 -1.64575e-05
5.0713e-06 2.06015e-05 -1.64999e-05
3.42129e-07 -2.76866e-05 -1.78573e-05
-1.73159e-06 7.0926e-07 -4.60757e-06
-3.21224e-06 6.23188e-07 -6.82603e-06
3.57805e-06 1.47576e-06 -7.63876e-06
4.99249e-07 2.83304e-05 -1.79305e-05
2.47661e-05 1.37374e-05 -1.79216e-05
-2.03337e-05 1.55394e-05 -1.74325e-05
1.17896e-06 1.36476e-06 -4.46107e-06
-2.0645e-05 -1.5732e-05 -1.75311e-05
-1.90042e-05 -2.32288e-06 -1.59502e-05
-1.95644e-05 -5.5866e-06 -1.63362e-05
9.05888e-07 -3.2485e-06 -7.00805e-06
-4.36713e-06 -1.97947e-05 -1.63257e-05
-7.93951e-06 1.38383e-05 -1.51051e-05
1.16599e-06 -1.30446e-06 -4.34048e-06
1.19377e-05 -1.12315e-05 -1.52961e-05
6.1344e-06 -2.27022e-05 -1.68243e-05
-1.45262e-05 1.43592e-05 -1.63276e-05
7.93129e-06 1.3325e-05 -1.4952e-05
SCALARS effective_fluid_pressure_TPM float
LOOKUP_TABLE default
665
665
665
665
665
665
665
665
665
665
665
665
665
665
133
665
665
665
665
665
665
665
665
665
665
665
665
665
665
133
665
560.398
520.772
502.925
502.696
519.899
560.019
665
562.064
520.866
503.367
503.477
520.799
561.686
665
559.686
519.77
502.87
503.087
521.267
561.702
665
558.943
519.115
501.659
502.355
518.964
559.531
665
558.583
520.054
501.991
501.923
519.487
558.023
665
558.739
520.068
502.164
502.025
519.475
559.745
133
133
133
133
133
133
665
560.398
520.772
502.925
502.696
519.899
560.019
665
562.064
520.866
503.367
503.477
520.799
561.686
665
559.686
519.77
502.87
503.087
521.267
561.702
665
558.943
519.115
501.659
502.355
518.964
559.531
665
558.583
520.054
501.991
501.923
519.487
558.023
665
558.739
520.068
502.164
502.025
519.475
559.745
133
133
133
133
133
133
228.299
226.369
227.083
224.15
225.566
219.885
220.902
529.264
528.274
526.654
528.032
526.681
527.734
498.819
503.664
501.703
499.06
501.575
501.357
494.443
562.577
519.08
495.139
480.846
461.47
443.388
425.154
402.223
427.379
385.365
417.846
379.71
418.01
386.05
427.496
404.402
444.492
429.185
450.372
386.659
419.41
380.305
418.421
386.29
427.87
404.33
444.602
428.269
450.968
386.134
418.273
379.721
418.629
385.657
427.706
403.023
443.665
426.56
384.15
416.245
376.404
415.452
383.122
424.527
400.949
441.814
425.334
382.858
417.885
376.668
418.203
383.944
425.374
402.315
442.786
450.761
426.834
446.12
380.83
444.785
465.398
448.854
464.872
453.521
350.995
463.613
461.145
478.55
462.881
460.752
478.454
337.365
480.926
505.951
503.711
480.992
506.258
337.778
337.59
326.249
334.502
563.452
519.755
567.65
562.44
567.967
567.821
521.902
542.802
498.728
513.831
542.147
451.564
477.681
414.763
579.583
611.069
579.736
576.099
534.643
494.577
538.315
538.012
485.139
498.214
503.428
473.245
485.187
352.841
326.499
355.271
503.545
477.821
488.466
520.972
502.129
478.02
335.628
335.491
347.791
613.484
337.466
347.662
337.352
353.297
329.273
373.355
310.737
288.856
504.811
608.423
521.193
493.828
478.433
486.456
526.587
600.388
476.67
615.936
291.466
615.835
528.815
494.639
478.339
479.514
501.416
494.945
479.54
502.611
495.272
493.85
502.363
495.346
479.987
480.153
479.155
289.363
454.695
272.004
455.102
453.731
527.096
479.575
465.322
382.2
480.607
292.74
286.149
461.578
449.734
454.079
445.956
448.791
463.705
463.362
480.053
543.542
601.749
487.591
300.375
282.527
453.114
279.227
552.319
552.078
480.871
458.118
526.316
508.276
488.686
233.774
284.625
614.544
636.343
615.177
636.699
285.347
441.441
553.158
230.529
467.655
590.318
566.103
495.918
490.144
410.139
232.163
293.166
271.187
507.989
509.286
607.856
229.705
277.039
294.501
618.912
618.826
558.589
226.563
562.6
488.415
503.489
280.912
504.159
466.481
224.047
473.685
519.67
503.075
462.548
228.299
226.369
227.083
224.15
225.566
219.885
220.902
529.264
528.274
526.654
528.032
526.681
527.734
498.819
503.664
501.703
499.06
501.575
501.357
494.443
562.577
519.08
495.139
480.846
461.47
443.388
425.154
402.223
427.379
385.365
417.846
379.71
418.01
386.05
427.496
404.402
444.492
429.185
450.372
386.659
419.41
380.305
418.421
386.29
427.87
404.33
444.602
428.269
450.968
386.134
418.273
379.721
418.629
385.657
427.706
403.023
443.665
426.56
384.15
416.245
376.404
415.452
383.122
424.527
400.949
441.814
425.334
382.858
417.885
376.668
418.203
383.944
425.374
402.315
442.786
450.761
426.834
446.12
380.83
444.785
465.398
448.854
464.872
453.521
350.995
463.613
461.145
478.55
462.881
460.752
478.454
337.365
480.926
505.951
503.711
480.992
506.258
337.778
337.59
326.249
334.502
563.452
519.755
567.65
562.44
567.967
567.821
521.902
542.802
498.728
513.831
542.147
451.564
477.681
414.763
579.583
611.069
579.736
576.099
534.643
494.577
538.315
538.012
485.139
498.214
503.428
473.245
485.187
352.841
326.499
355.271
503.545
477.821
488.466
520.972
502.129
478.02
335.628
335.491
347.791
613.484
337.466
347.662
337.352
353.297
329.273
373.355
310.737
288.856
504.811
608.423
521.193
493.828
478.433
486.456
526.587
600.388
476.67
615.936
291.466
615.835
528.815
494.639
478.339
479.514
501.416
494.945
479.54
502.611
495.272
493.85
502.363
495.346
479.987
480.153
479.155
289.363
454.695
272.004
455.102
453.731
527.096
479.575
465.322
382.2
480.607
292.74
286.149
461.578
449.734
454.079
445.956
448.791
463.705
463.362
480.053
543.542
601.749
487.591
300.375
282.527
453.114
279.227
552.319
552.078
480.871
458.118
526.316
508.276
488.686
233.774
284.625
614.544
636.343
615.177
636.699
285.347
441.441
553.158
230.529
467.655
590.318
566.103
495.918
490.144
410.139
232.163
293.166
271.187
507.989
509.286
607.856
229.705
277.039
294.501
618.912
618.826
558.589
226.563
562.6
488.415
503.489
280.912
504.159
466.481
224.047
473.685
519.67
503.075
462.548

CELL_DATA 563
TENSORS stress float
164.655 -24.9236 1.89478e-14
-24.9236 28.1617 -4.48471e-12
1.89478e-14 -4.48471e-12 -12.5926

-40.3425 -21.322 -2.73248e-12
-21.322 -7.35533 6.68206e-13
-2.73248e-12 6.68206e-13 -10.2396

-9.94736 28.0511 -2.9073e-13
28.0511 -1.11421 -1.61323e-12
-2.9073e-13 -1.61323e-12 -6.36996

-40.429 -29.842 -1.06152e-12
-29.842 -12.8454 -1.46209e-12
-1.06152e-12 -1.46209e-12 -10.6059

-22.6881 19.9305 -4.18835e-12
19.9305 -1.93445 -1.85785e-12
-4.18835e-12 -1.85785e-12 -23.0168

-27.1509 -18.08 -3.74767e-12
-18.08 15.8881 9.87062e-13
-3.74767e-12 9.87062e-13 -6.4208

161.306 26.4882 -7.67386e-13
26.4882 28.0381 2.65861e-12
-7.67386e-13 2.65861e-12 -13.2518

-5.96661 29.9628 -3.31468e-12
29.9628 -10.1158 -3.86121e-12
-3.31468e-12 -3.86121e-12 -7.2847

34.6365 5.48457 -1.62833e-12
5.48457 -19.1076 -3.98903e-13
-1.62833e-12 -3.98903e-13 -4.13163

11.8599 -7.47781 1.65527e-12
-7.47781 -48.291 -4.1959e-12
1.65527e-12 -4.1959e-12 -8.95484

104.226 16.3145 1.58688e-13
16.3145 -8.44478 3.38514e-12
1.58688e-13 3.38514e-12 -22.4519

-34.6458 -13.4563 -3.80229e-12
-13.4563 18.9652 4.99156e-13
-3.80229e-12 4.99156e-13 -7.18901

-6.03157 27.8391 -1.09068e-12
27.8391 -4.59383 -6.71463e-13
-1.09068e-12 -6.71463e-13 -6.16794

-35.5602 -14.3431 1.92853e-12
-14.3431 7.84526 7.44886e-13
1.92853e-12 7.44886e-13 -9.1389

-23.6539 33.3043 -2.83003e-12
33.3043 -24.9895 8.57032e-13
-2.83003e-12 8.57032e-13 -21.3626

21.313 0.561322 7.86334e-13
0.561322 -32.3483 -2.89774e-12
7.86334e-13 -2.89774e-12 -5.59897

-48.9619 -17.9681 -1.10763e-13
-17.9681 6.34103 -3.93729e-12
-1.10763e-13 -3.93729e-12 -12.9513

11.6606 -2.66519 -3.02306e-12
-2.66519 -43.2599 -5.4771e-15
-3.02306e-12 -5.4771e-15 -8.04308

-11.3606 26.6831 4.30974e-12
26.6831 19.517 -6.17166e-12
4.30974e-12 -6.17166e-12 -6.09962

21.7667 -4.19709 1.38141e-12
-4.19709 -35.3092 8.28226e-14
1.38141e-12 8.28226e-14 -6.75159

-24.4911 8.67209 -1.61574e-12
8.67209 32.1308 1.63129e-12
-1.61574e-12 1.63129e-12 -4.94349

-11.8078 6.28259 -1.89961e-12
6.28259 -11.9623 9.65006e-13
-1.89961e-12 9.65006e-13 -75.5717

22.7453 1.87639 2.46736e-12
1.87639 -33.484 -1.29874e-12
2.46736e-12 -1.29874e-12 -6.68754

-12.3963 -27.7234 2.28173e-12
-27.7234 1.59578 -9.29035e-13
2.28173e-12 -9.29035e-13 -6.61273

21.3059 6.85116 -1.78701e-12
6.85116 -34.3186 9.9402e-13
-1.78701e-12 9.9402e-13 -6.8167

-37.9143 19.1158 -2.13385e-12
19.1158 2.65319 4.75945e-12
-2.13385e-12 4.75945e-12 -9.46623

106.634 4.18295 2.73322e-12
4.18295 20.6066 3.2235e-12
2.73322e-12 3.2235e-12 -12.0465

-5.30746 30.7532 -7.86334e-13
30.7532 -7.27969 -7.57912e-14
-7.86334e-13 -7.57912e-14 -7.45096

27.8917 37.0885 7.22385e-14
37.0885 26.4708 -1.5099e-12
7.22385e-14 -1.5099e-12 -8.63893

-9.43939 10.3239 -8.64494e-14
10.3239 -32.9146 -9.01723e-13
-8.64494e-14 -9.01723e-13 -49.4818

19.8322 14.2185 -3.78127e-12
14.2185 -29.3689 1.00897e-12
-3.78127e-12 1.00897e-12 -6.00974

-4.22048 -17.7873 3.03402e-12
-17.7873 59.6715 -2.45374e-12
3.03402e-12 -2.45374e-12 -8.4828

66.3019 -42.1147 4.56405e-12
-42.1147 71.1583 -5.34091e-12
4.56405e-12 -5.34091e-12 -11.2481

-48.2033 5.98273 4.48203e-12
5.98273 7.26795 -2.56684e-12
4.48203e-12 -2.56684e-12 -41.0188

-26.2887 -4.83455 -1.32013e-12
-4.83455 1.75629 2.21156e-12
-1.32013e-12 2.21156e-12 -37.7847

-1.46982 21.0263 -2.64263e-12
21.0263 -39.4984 -5.37052e-13
-2.64263e-12 -5.37052e-13 -41.0846

-43.9606 5.06143 3.32297e-12
5.06143 0.51364 7.31563e-13
3.32297e-12 7.31563e-13 -52.1624

-2.76388 -9.17271 3.46419e-12
-9.17271 -20.7642 -8.49339e-13
3.46419e-12 -8.49339e-13 -35.8805

-3.97997 -28.0044 -3.08494e-13
-28.0044 -4.61314 -2.44545e-13
-3.08494e-13 -2.44545e-13 -6.00337

65.6155 41.5338 -2.72612e-12
41.5338 73.1867 -4.00746e-12
-2.72612e-12 -4.00746e-12 -10.9597

60.1693 -17.9558 4.37339e-12
-17.9558 0.108266 -1.59754e-12
4.37339e-12 -1.59754e-12 -8.05631

-41.7891 -3.70086 1.04065e-12
-3.70086 -1.18572 3.17968e-13
1.04065e-12 3.17968e-13 -52.6968

-14.5858 19.5465 -1.01901e-11
19.5465 -28.5452 3.91598e-12
-1.01901e-11 3.91598e-12 -52.8049

18.1434 -12.2745 2.63375e-12
-12.2745 -29.909 -1.574e-12
2.63375e-12 -1.574e-12 -6.23184

38.1806 -43.3144 -2.84928e-12
-43.3144 41.8101 -1.72662e-12
-2.84928e-12 -1.72662e-12 -14.5617

58.1572 -18.07 -7.79229e-13
-18.07 -2.31258 1.72484e-12
-7.79229e-13 1.72484e-12 -7.92043

-21.4557 17.0915 -3.54368e-12
17.0915 30.3304 7.01187e-12
-3.54368e-12 7.01187e-12 -5.73826

-11.3818 19.3457 -2.10617e-12
19.3457 25.5127 -2.6971e-12
-2.10617e-12 -2.6971e-12 -3.93117

20.7909 -16.3049 4.18036e-13
-16.3049 -33.1269 -7.90775e-13
4.18036e-13 -7.90775e-13 -7.32116

12.6118 -34.1983 -2.87651e-12
-34.1983 46.4448 9.98313e-13
-2.87651e-12 9.98313e-13 -10.4032

62.375 19.189 -3.08139e-12
19.189 2.803 1.82432e-12
-3.08139e-12 1.82432e-12 -8.41963

46.522 -25.2976 -6.51331e-14
-25.2976 5.12687 3.75226e-12
-6.51331e-14 3.75226e-12 -5.61755

-31.8992 19.4801 2.0024e-12
19.4801 -4.28321 -1.49984e-12
2.0024e-12 -1.49984e-12 -26.0788

37.0438 29.6604 3.10152e-12
29.6604 14.5096 -1.30148e-12
3.10152e-12 -1.30148e-12 -5.43989

-27.4445 -21.8125 1.87998e-12
-21.8125 -8.23562 1.72037e-12
1.87998e-12 1.72037e-12 -25.2419

64.8836 -42.7255 -2.78059e-12
-42.7255 44.0896 4.40773e-12
-2.78059e-12 4.40773e-12 -9.50279

-27.7463 5.45337 -1.78701e-12
5.45337 2.66839 1.72425e-12
-1.78701e-12 1.72425e-12 -38.2899

-5.56853 -5.332 6.99115e-12
-5.332 57.4003 5.94487e-13
6.99115e-12 5.94487e-13 -5.45695

-0.205515 10.3856 -2.3664e-12
10.3856 -24.8404 1.37775e-12
-2.3664e-12 1.37775e-12 -38.3514

-26.497 21.4191 -4.85538e-13
21.4191 12.2185 -7.10543e-13
-4.85538e-13 -7.10543e-13 -6.87986

4.72361 5.75648 -1.991e-13
5.75648 -56.041 -2.82589e-13
-1.991e-13 -2.82589e-13 -13.986

0.542062 11.4592 9.76404e-13
11.4592 -34.0603 1.11999e-12
9.76404e-13 1.11999e-12 -14.8416

106.371 31.8285 4.96906e-12
31.8285 37.8404 1.8486e-12
4.96906e-12 1.8486e-12 -7.48722

-35.4963 -6.03805 7.0699e-13
-6.03805 10.6016 -3.99621e-12
7.0699e-13 -3.99621e-12 -13.4815

-35.3623 9.52217 3.04601e-12
9.52217 1.23471 -7.92344e-12
3.04601e-12 -7.92344e-12 -14.9618

-42.595 -2.883 -8.32593e-13
-2.883 21.1099 -1.65083e-12
-8.32593e-13 -1.65083e-12 -11.2442

-44.9118 23.4001 -1.44518e-12
23.4001 -5.8927 -5.87086e-12
-1.44518e-12 -5.87086e-12 -13.927

9.9708 8.4656 2.35367e-12
8.4656 -42.3877 6.14768e-13
2.35367e-12 6.14768e-13 -9.08649

-12.3426 -28.2476 3.02069e-12
-28.2476 1.68306 -1.07706e-12
3.02069e-12 -1.07706e-12 -6.68398

1.3087 -1.7121 -1.50073e-12
-1.7121 -55.4598 -4.24246e-12
-1.50073e-12 -4.24246e-12 -11.3115

-31.8888 -19.2561 -2.12571e-13
-19.2561 -4.59227 9.16896e-13
-2.12571e-13 9.16896e-13 -25.9482

-27.9695 21.3077 9.26666e-13
21.3077 -8.36508 8.928e-13
9.26666e-13 8.928e-13 -26.0066

-0.660619 -16.5898 -1.48785e-12
-16.5898 61.6881 4.11641e-12
-1.48785e-12 4.11641e-12 -7.9551

-0.650935 -27.9392 6.16633e-12
-27.9392 -21.3688 4.28516e-12
6.16633e-12 4.28516e-12 -12.7951

-14.1 -25.1409 -3.41061e-13
-25.1409 7.40541 -1.66741e-12
-3.41061e-13 -1.66741e-12 -5.24542

91.7048 -31.7205 -5.40486e-12
-31.7205 19.4895 -2.41969e-12
-5.40486e-12 -2.41969e-12 -16.3308

-33.7123 3.224 -4.9866e-12
3.224 9.20209 -2.93573e-12
-4.9866e-12 -2.93573e-12 -18.5619

2.74769 28.9477 1.95814e-12
28.9477 -24.4286 -4.80238e-12
1.95814e-12 -4.80238e-12 -11.3218

-38.4427 19.6667 -3.33837e-12
19.6667 5.22859 -2.3516e-12
-3.33837e-12 -2.3516e-12 -9.24382

50.2008 8.00245 -6.31317e-12
8.00245 -16.979 2.48246e-12
-6.31317e-12 2.48246e-12 -7.0757

60.0453 -33.9475 2.0132e-14
-33.9475 33.7909 -3.29692e-12
2.0132e-14 -3.29692e-12 -6.98676

-18.9677 -10.5856 7.64337e-12
-10.5856 -0.538218 4.13536e-12
7.64337e-12 4.13536e-12 -25.4235

-33.9251 23.9017 1.69494e-12
23.9017 -12.0282 3.76393e-13
1.69494e-12 3.76393e-13 -14.5442

58.1699 -32.3956 1.82136e-12
-32.3956 18.0906 -1.65201e-12
1.82136e-12 -1.65201e-12 -10.1378

66.8759 10.7951 -6.43041e-13
10.7951 8.50751 5.29887e-12
-6.43041e-13 5.29887e-12 -5.08966

7.67116 -21.2134 5.65266e-12
-21.2134 88.4893 -6.99411e-12
5.65266e-12 -6.99411e-12 -11.8636

-33.999 14.4285 -1.89315e-12
14.4285 20.2384 1.34648e-12
-1.89315e-12 1.34648e-12 -7.5558

8.47278 23.1486 -3.64212e-12
23.1486 -26.0794 4.13625e-12
-3.64212e-12 4.13625e-12 -11.304

34.8751 42.2135 3.12757e-12
42.2135 46.2096 7.19661e-12
3.12757e-12 7.19661e-12 -14.4231

-4.3942 16.5018 2.9905e-12
16.5018 -35.5267 -1.23679e-12
2.9905e-12 -1.23679e-12 -73.2416

-5.99091 -4.11002 -2.76312e-12
-4.11002 57.9609 4.28694e-12
-2.76312e-12 4.28694e-12 -5.44918

-1.82024 -16.6273 -6.46054e-12
-16.6273 -39.3847 6.68088e-12
-6.46054e-12 6.68088e-12 -74.0643

-3.33291 -27.3343 3.86891e-12
-27.3343 -30.0282 1.08461e-12
3.86891e-12 1.08461e-12 -21.551

8.96486 27.4269 -3.00204e-12
27.4269 -30.0027 -5.62039e-12
-3.00204e-12 -5.62039e-12 -11.2629

45.7197 -24.4194 1.7882e-13
-24.4194 5.01727 -3.55982e-12
1.7882e-13 -3.55982e-12 -5.24364

10.0906 31.3352 8.61355e-12
31.3352 47.1726 -1.09897e-12
8.61355e-12 -1.09897e-12 -9.64668

14.2697 -10.7088 8.88178e-13
-10.7088 82.8602 3.13586e-12
8.88178e-13 3.13586e-12 -6.44992

-38.6356 21.9727 1.56912e-13
21.9727 2.94028 9.20449e-13
1.56912e-13 9.20449e-13 -8.57698

1.19427 16.7974 -2.12571e-13
16.7974 -25.7274 2.51503e-12
-2.12571e-13 2.51503e-12 -18.5661

-26.5464 15.1585 -1.91728e-12
15.1585 18.4497 2.10084e-12
-1.91728e-12 2.10084e-12 -5.717

43.6667 15.959 -4.53208e-12
15.959 -7.29611 8.15052e-13
-4.53208e-12 8.15052e-13 -4.08383

12.5727 -21.4806 -4.57767e-12
-21.4806 57.9684 2.67638e-12
-4.57767e-12 2.67638e-12 -4.71988

66.0125 -29.4012 -4.69906e-12
-29.4012 18.643 -2.61657e-12
-4.69906e-12 -2.61657e-12 -9.33867

-32.3856 -24.5769 -3.68328e-12
-24.5769 -7.28483 9.11567e-13
-3.68328e-12 9.11567e-13 -8.9852

-22.6723 27.456 2.4869e-14
27.456 -10.356 1.60938e-12
2.4869e-14 1.60938e-12 -9.29258

-38.3538 23.1896 -6.69687e-13
23.1896 1.98995 3.0876e-12
-6.69687e-13 3.0876e-12 -8.53296

-51.5556 13.1679 5.79712e-13
13.1679 11.9235 -3.67291e-12
5.79712e-13 -3.67291e-12 -16.4687

23.4869 9.37372 3.71851e-12
9.37372 -29.4989 -1.84756e-12
3.71851e-12 -1.84756e-12 -5.33082

3.76245 -4.66652 5.1692e-12
-4.66652 79.4591 -7.51281e-12
5.1692e-12 -7.51281e-12 -9.53498

-44.9358 -36.8286 -1.88294e-12
-36.8286 -19.8275 2.99886e-12
-1.88294e-12 2.99886e-12 -14.7752

-16.0885 27.4729 9.26666e-13
27.4729 1.33656 -2.93336e-12
9.26666e-13 -2.93336e-12 -6.92496

-5.02337 2.17076 1.81277e-12
2.17076 82.6967 -1.92083e-12
1.81277e-12 -1.92083e-12 -13.4342

69.0626 34.6227 5.92119e-14
34.6227 15.4957 9.78773e-13
5.92119e-14 9.78773e-13 -10.7089

-31.3592 -22.9783 2.57572e-14
-22.9783 -4.63513 1.81603e-12
2.57572e-14 1.81603e-12 -8.53926

11.7434 5.73289 1.69612e-12
5.73289 -48.34 2.3499e-12
1.69612e-12 2.3499e-12 -8.64933

43.073 27.214 1.47319e-12
27.214 10.4471 8.88178e-13
1.47319e-12 8.88178e-13 -5.08813

-9.40814 12.7431 -1.22554e-12
12.7431 -14.0435 -1.84475e-12
-1.22554e-12 -1.84475e-12 -37.0231

70.352 24.3393 -9.78181e-13
24.3393 23.8057 8.20677e-13
-9.78181e-13 8.20677e-13 -6.80243

-10.5788 -13.0525 4.24372e-12
-13.0525 -13.9254 -7.2428e-12
4.24372e-12 -7.2428e-12 -37.3607

-4.38985 0.778955 4.18332e-13
0.778955 59.4112 -1.81544e-12
4.18332e-13 -1.81544e-12 -4.83792

38.3633 -2.23612 -6.31436e-12
-2.23612 -23.8267 -2.5917e-12
-6.31436e-12 -2.5917e-12 -5.84228

3.59176 -15.7635 -1.21518e-12
-15.7635 -53.9635 5.4623e-13
-1.21518e-12 5.4623e-13 -21.1219

-42.2808 24.3887 2.2142e-12
24.3887 -11.737 3.41401e-12
2.2142e-12 3.41401e-12 -11.1752

-46.8136 -13.5361 -4.00602e-12
-13.5361 11.0651 2.00136e-13
-4.00602e-12 2.00136e-13 -12.3586

5.80853 -7.99833 -3.36412e-12
-7.99833 -70.96 6.49851e-14
-3.36412e-12 6.49851e-14 -14.8863

-49.5374 -22.2782 -3.28789e-12
-22.2782 3.74436 -9.25186e-13
-3.28789e-12 -9.25186e-13 -22.1019

-17.4566 -6.60209 -5.75421e-12
-6.60209 -13.1147 -4.05331e-12
-5.75421e-12 -4.05331e-12 -34.7663

-28.7325 -29.9093 -2.35663e-13
-29.9093 -9.40056 1.19519e-12
-2.35663e-13 1.19519e-12 -9.00386

15.6912 11.4576 -3.4938e-12
11.4576 80.2012 -8.76336e-13
-3.4938e-12 -8.76336e-13 -6.53355

42.2967 -28.1569 -6.92779e-13
-28.1569 11.0464 -6.26166e-12
-6.92779e-13 -6.26166e-12 -5.05146

-47.1696 -13.7674 -4.04077e-12
-13.7674 4.19656 3.97371e-12
-4.04077e-12 3.97371e-12 -29.2919

2.9637 0.506033 -1.28786e-12
0.506033 -56.8155 1.88198e-12
-1.28786e-12 1.88198e-12 -11.0132

-39.3405 -21.523 -1.85244e-12
-21.523 -8.85567 -6.01001e-13
-1.85244e-12 -6.01001e-13 -14.778

-40.1966 25.6994 -1.82639e-12
25.6994 -14.6932 -5.72283e-13
-1.82639e-12 -5.72283e-13 -11.3185

32.2634 -31.476 -9.43838e-13
-31.476 38.4349 3.24126e-12
-9.43838e-13 3.24126e-12 -4.65404

-31.467 -7.07839 -5.86516e-12
-7.07839 1.70422 -2.98546e-12
-5.86516e-12 -2.98546e-12 -40.9724

36.6358 -33.088 -1.84267e-12
-33.088 72.045 -6.08225e-12
-1.84267e-12 -6.08225e-12 -7.14609

16.614 -19.1842 5.38236e-13
-19.1842 -25.8802 2.00432e-13
5.38236e-13 2.00432e-13 -7.1415

1.50176 1.97347 -1.32279e-12
1.97347 -51.3919 1.20496e-13
-1.32279e-12 1.20496e-13 -15.3776

-12.8669 17.8727 4.00006e-12
17.8727 -16.9583 -4.80801e-12
4.00006e-12 -4.80801e-12 -41.0399

10.7081 20.1905 -1.06818e-12
20.1905 59.4673 5.48302e-12
-1.06818e-12 5.48302e-12 -4.36269

4.31444 27.2164 5.20176e-12
27.2164 -16.2274 -2.89398e-12
5.20176e-12 -2.89398e-12 -8.13133

30.9078 -24.519 -6.32383e-13
-24.519 -8.14279 -7.75972e-13
-6.32383e-13 -7.75972e-13 -4.88149

-37.7962 -17.841 -2.25385e-12
-17.841 2.40037 1.93534e-12
-2.25385e-12 1.93534e-12 -9.87252

55.5255 35.0803 1.61293e-12
35.0803 42.3528 1.68043e-12
1.61293e-12 1.68043e-12 -6.63894

-40.0203 -21.8324 2.27655e-12
-21.8324 2.53626 -1.0596e-12
2.27655e-12 -1.0596e-12 -9.40205

2.96372 30.8552 3.12461e-12
30.8552 -17.3975 1.61796e-12
3.12461e-12 1.61796e-12 -9.08591

18.5376 -25.2492 1.64905e-12
-25.2492 -19.4285 7.59985e-13
1.64905e-12 7.59985e-13 -6.35138

-15.6609 -25.1327 -1.70382e-12
-25.1327 5.89425 -3.65397e-12
-1.70382e-12 -3.65397e-12 -5.78511

42.7255 -18.6947 -1.89952e-12
-18.6947 -9.17739 -6.1758e-13
-1.89952e-12 -6.1758e-13 -5.37794

27.4341 -18.8555 -1.28312e-12
-18.8555 -20.3808 2.57128e-12
-1.28312e-12 2.57128e-12 -5.69937

-41.3951 -25.3388 1.12192e-12
-25.3388 -14.9656 3.45168e-13
1.12192e-12 3.45168e-13 -11.5745

29.7834 35.9827 1.74438e-12
35.9827 25.2281 2.70598e-12
1.74438e-12 2.70598e-12 -8.651

-28.5262 15.3812 -3.81991e-12
15.3812 18.5191 5.9804e-14
-3.81991e-12 5.9804e-14 -5.88283

-23.1125 26.427 -1.2319e-12
26.427 -12.5514 2.29683e-12
-1.2319e-12 2.29683e-12 -9.96607

-42.1008 25.4737 -1.66082e-12
25.4737 -11.5927 -9.48278e-13
-1.66082e-12 -9.48278e-13 -11.0007

-37.2949 11.6248 -8.13701e-13
11.6248 11.8441 1.24463e-12
-8.13701e-13 1.24463e-12 -9.08748

64.4082 -8.22992 2.43361e-12
-8.22992 3.18971 6.17106e-12
2.43361e-12 6.17106e-12 -4.25709

8.72821 18.6134 -2.05702e-12
18.6134 59.2329 4.13299e-13
-2.05702e-12 4.13299e-13 -4.16851

-25.623 -24.3851 3.8695e-13
-24.3851 0.456897 2.19084e-13
3.8695e-13 2.19084e-13 -7.22511

-1.14815 25.674 -1.65438e-12
25.674 13.7517 -3.03816e-12
-1.65438e-12 -3.03816e-12 -4.09217

32.382 -35.6425 8.37256e-13
-35.6425 21.6996 -2.45848e-12
8.37256e-13 -2.45848e-12 -8.49286

59.5507 38.3303 3.64153e-12
38.3303 17.8484 7.72123e-13
3.64153e-12 7.72123e-13 -13.7252

12.1211 -33.3235 1.25056e-12
-33.3235 42.9211 3.77417e-12
1.25056e-12 3.77417e-12 -9.54918

30.5535 -31.1711 1.7503e-12
-31.1711 36.8185 5.68553e-12
1.7503e-12 5.68553e-12 -4.41163

11.769 -6.83853 -1.19845e-12
-6.83853 -48.8415 -1.11814e-12
-1.19845e-12 -1.11814e-12 -8.77802

25.2748 30.3529 3.03875e-12
30.3529 41.0955 -2.8552e-12
3.03875e-12 -2.8552e-12 -4.4622

62.6966 13.2993 4.48826e-12
13.2993 5.22107 -2.60769e-12
4.48826e-12 -2.60769e-12 -4.31159

-7.03706 13.3838 2.88362e-13
13.3838 61.3583 -5.56592e-14
2.88362e-13 -5.56592e-14 -8.70169

11.725 -22.3487 -1.75326e-12
-22.3487 55.7749 -8.7977e-12
-1.75326e-12 -8.7977e-12 -4.30763

-47.2593 -1.09396 1.86273e-12
-1.09396 12.4076 1.40332e-13
1.86273e-12 1.40332e-13 -22.1583

-5.92997 2.24759 2.08707e-12
2.24759 59.0173 3.58942e-12
2.08707e-12 3.58942e-12 -5.26979

6.26261 31.1008 -2.55736e-12
31.1008 47.8748 -2.69533e-12
-2.55736e-12 -2.69533e-12 -9.66699

-39.7293 12.1105 5.5229e-13
12.1105 12.8431 -1.17654e-12
5.5229e-13 -1.17654e-12 -9.31962

40.7444 -27.6577 1.81662e-12
-27.6577 8.35216 1.37668e-12
1.81662e-12 1.37668e-12 -5.64949

7.53564 20.5573 -2.29061e-12
20.5573 -47.4684 -8.28967e-14
-2.29061e-12 -8.28967e-14 -16.4842

-3.42438 26.2703 1.37668e-12
26.2703 -31.4841 -5.60737e-13
1.37668e-12 -5.60737e-13 -22.2487

15.7765 -18.5725 1.1191e-13
-18.5725 -30.0232 9.02981e-14
1.1191e-13 9.02981e-14 -8.19108

4.42571 -1.80697 3.03165e-13
-1.80697 -34.1328 3.86032e-12
3.03165e-13 3.86032e-12 -24.4334

-14.3448 -31.8157 6.65838e-13
-31.8157 -11.9357 -4.68366e-13
6.65838e-13 -4.68366e-13 -9.05761

56.2307 23.3363 -8.14756e-13
23.3363 0.808244 2.10735e-12
-8.14756e-13 2.10735e-12 -8.29452

-27.8308 30.1634 4.74287e-13
30.1634 -9.23726 9.68411e-13
4.74287e-13 9.68411e-13 -8.80815

-27.0067 29.2075 1.3823e-12
29.2075 -9.20232 6.24685e-13
1.3823e-12 6.24685e-13 -8.6855

28.6301 30.6722 2.81849e-13
30.6722 40.412 -8.08834e-13
2.81849e-13 -8.08834e-13 -4.45503

0.342949 27.0886 -3.4035e-12
27.0886 -19.8542 1.42997e-12
-3.4035e-12 1.42997e-12 -11.7817

64.524 3.52643 7.18122e-12
3.52643 -11.8385 -1.79978e-12
7.18122e-12 -1.79978e-12 -10.0249

-14.9027 31.8174 -5.51855e-13
31.8174 -20.7994 1.48711e-12
-5.51855e-13 1.48711e-12 -12.4522

-37.9525 -12.5987 -8.51837e-13
-12.5987 8.18071 -9.4443e-13
-8.51837e-13 -9.4443e-13 -14.0263

-0.474044 24.2762 4.05453e-12
24.2762 -30.0022 -9.36732e-13
4.05453e-12 -9.36732e-13 -20.7685

-23.7306 -29.5805 7.21112e-12
-29.5805 -11.9354 1.52027e-12
7.21112e-12 1.52027e-12 -8.85095

-38.1577 -4.89635 3.97843e-12
-4.89635 18.8475 -1.18542e-12
3.97843e-12 -1.18542e-12 -11.7348

69.962 -24.5652 2.75691e-12
-24.5652 18.0274 2.60947e-12
2.75691e-12 2.60947e-12 -7.04787

39.9878 29.704 -2.42769e-12
29.704 13.4759 9.46206e-13
-2.42769e-12 9.46206e-13 -5.2223

-4.30629 14.7021 1.1912e-12
14.7021 60.5853 4.41247e-12
1.1912e-12 4.41247e-12 -8.40744

1.61095 -1.13987 1.14767e-12
-1.13987 -56.1266 -5.56814e-13
1.14767e-12 -5.56814e-13 -11.2168

9.61418 0.0020623 1.56319e-12
0.0020623 -44.7648 -3.10871e-12
1.56319e-12 -3.10871e-12 -8.44749

-31.0865 23.1284 9.80105e-13
23.1284 -4.33993 1.58569e-12
9.80105e-13 1.58569e-12 -8.46788

-34.7611 23.8726 -1.18157e-12
23.8726 -13.1963 -1.31003e-12
-1.18157e-12 -1.31003e-12 -14.8168

-43.3817 -24.3814 -1.18403e-12
-24.3814 -12.6138 -1.38571e-12
-1.18403e-12 -1.38571e-12 -11.4761

-39.0677 -0.674764 1.95373e-12
-0.674764 21.0462 1.41576e-12
1.95373e-12 1.41576e-12 -10.5012

-40.8083 25.5922 1.70234e-12
25.5922 -13.225 2.79095e-12
1.70234e-12 2.79095e-12 -11.18

32.3259 -10.3112 -4.82518e-12
-10.3112 -25.1689 -1.70723e-12
-4.82518e-12 -1.70723e-12 -6.02425

8.70122 -32.8457 3.37153e-12
-32.8457 22.7979 -9.22521e-13
3.37153e-12 -9.22521e-13 -7.0009

2.39572 -2.30429 -1.08905e-12
-2.30429 -49.9627 6.20245e-13
-1.08905e-12 6.20245e-13 -14.7765

36.7505 -34.5211 -2.3069e-12
-34.5211 24.4805 1.69287e-12
-2.3069e-12 1.69287e-12 -7.71529

-38.2978 19.0855 8.21121e-13
19.0855 -7.09222 5.04781e-13
8.21121e-13 5.04781e-13 -14.4532

7.87006 -26.4806 3.00027e-12
-26.4806 -28.0024 -3.53465e-12
3.00027e-12 -3.53465e-12 -10.9746

63.9625 -9.69391 4.72037e-12
-9.69391 5.67048 -3.37952e-12
4.72037e-12 -3.37952e-12 -5.07818

6.0359 -23.1945 -3.77535e-12
-23.1945 -35.4707 3.6365e-12
-3.77535e-12 3.6365e-12 -17.7366

0.141657 2.35872 1.65645e-13
2.35872 -56.1765 2.00669e-12
1.65645e-13 2.00669e-12 -11.5533

-4.06376 -23.3252 -4.90274e-13
-23.3252 -23.413 1.85318e-12
-4.90274e-13 1.85318e-12 -16.7202

11.0369 -25.8617 2.33709e-12
-25.8617 -29.4941 -3.69541e-12
2.33709e-12 -3.69541e-12 -9.74036

10.2 -8.54898 1.64017e-13
-8.54898 -43.4995 -1.06744e-12
1.64017e-13 -1.06744e-12 -9.29006

-35.416 -23.0698 1.58866e-12
-23.0698 -12.6498 -2.47158e-12
1.58866e-12 -2.47158e-12 -15.1065

23.6645 -31.3529 -2.20624e-12
-31.3529 5.70616 -5.88862e-12
-2.20624e-12 -5.88862e-12 -5.8873

11.0573 -24.5928 5.19111e-12
-24.5928 -27.5011 7.07464e-12
5.19111e-12 7.07464e-12 -10.0542

46.6521 10.8684 -5.29946e-12
10.8684 -16.1319 -7.82308e-12
-5.29946e-12 -7.82308e-12 -6.80889

-14.1869 26.3437 5.82319e-12
26.3437 -15.6468 -2.05598e-12
5.82319e-12 -2.05598e-12 -14.1224

-45.2476 -37.6078 1.55076e-12
-37.6078 -20.6101 3.04608e-13
1.55076e-12 3.04608e-13 -14.9234

-43.705 37.2606 5.63105e-13
37.2606 -21.2635 2.86911e-12
5.63105e-13 2.86911e-12 -14.7739

-61.1773 -28.5704 1.93686e-12
-28.5704 -7.49761 -3.34547e-14
1.93686e-12 -3.34547e-14 -15.2039

-58.4092 27.0618 4.51491e-15
27.0618 -6.27211 -3.82864e-12
4.51491e-15 -3.82864e-12 -14.4827

5.59945 -8.52576 -6.72795e-13
-8.52576 -71.0565 3.10862e-15
-6.72795e-13 3.10862e-15 -14.7142

4.39681 9.27163 -1.34825e-12
9.27163 -68.8259 1.49362e-13
-1.34825e-12 1.49362e-13 -14.4423

9.02336 -9.84887 1.28993e-12
-9.84887 -40.8992 5.53335e-13
1.28993e-12 5.53335e-13 -9.61983

-24.335 32.1099 -3.65041e-13
32.1099 -24.8051 -2.54576e-12
-3.65041e-13 -2.54576e-12 -21.1428

-25.5216 -32.8475 2.84661e-12
-32.8475 -25.0914 -3.31235e-13
2.84661e-12 -3.31235e-13 -21.4669

-53.91 16.067 1.81781e-12
16.067 3.39778 -1.47526e-12
1.81781e-12 -1.47526e-12 -21.4003

-52.4116 -15.7998 -1.31998e-12
-15.7998 3.29339 -6.40969e-13
-1.31998e-12 -6.40969e-13 -21.0738

6.10752 -3.75276 2.13044e-12
-3.75276 -43.9219 4.01042e-12
2.13044e-12 4.01042e-12 -25.7588

6.91319 3.61535 1.68724e-12
3.61535 -46.3446 -7.70347e-13
1.68724e-12 -7.70347e-13 -26.135

-15.6397 9.84038 2.48349e-12
9.84038 46.2708 -1.62951e-12
2.48349e-12 -1.62951e-12 -5.85702

-22.9231 -24.7788 1.05604e-12
-24.7788 -14.5552 2.33635e-12
1.05604e-12 2.33635e-12 -10.3374

-56.5983 -36.3837 -5.86864e-13
-36.3837 -14.5317 -1.40865e-12
-5.86864e-13 -1.40865e-12 -13.4433

33.3637 -4.66534 -3.37508e-12
-4.66534 -19.8591 2.51243e-13
-3.37508e-12 2.51243e-13 -3.95461

3.43156 -16.6896 -1.71019e-12
-16.6896 -52.6216 1.14338e-12
-1.71019e-12 1.14338e-12 -21.53

3.67276 16.1706 3.75107e-13
16.1706 -51.8773 1.71715e-14
3.75107e-13 1.71715e-14 -21.4032

6.5545 0.121827 1.80078e-12
0.121827 -76.7477 -8.61261e-13
1.80078e-12 -8.61261e-13 -13.3102

-7.581 23.3842 6.89819e-13
23.3842 39.9421 -1.26003e-12
6.89819e-13 -1.26003e-12 -6.89421

-56.8838 36.1677 1.84297e-14
36.1677 -14.0103 2.33147e-13
1.84297e-14 2.33147e-13 -13.395

-39.7968 -23.3973 -2.79347e-12
-23.3973 2.56046 1.49984e-12
-2.79347e-12 1.49984e-12 -8.80875

37.1217 23.3611 -2.49045e-12
23.3611 -8.62427 2.70835e-12
-2.49045e-12 2.70835e-12 -5.76779

4.73094 23.8604 -1.80774e-12
23.8604 -38.2273 2.52331e-12
-1.80774e-12 2.52331e-12 -18.9855

24.0138 -31.3247 6.75016e-12
-31.3247 6.40243 -1.8184e-12
6.75016e-12 -1.8184e-12 -5.65719

2.42977 -3.2341 -1.87613e-12
-3.2341 -48.3717 2.27314e-12
-1.87613e-12 2.27314e-12 -14.7463

-60.4504 -34.158 -1.18431e-12
-34.158 -14.3498 -3.24156e-12
-1.18431e-12 -3.24156e-12 -14.0368

-17.467 8.32284 -1.73378e-12
8.32284 45.6999 1.00779e-12
-1.73378e-12 1.00779e-12 -5.79021

-9.48091 21.8199 -4.34971e-12
21.8199 40.4317 -1.61648e-12
-4.34971e-12 -1.61648e-12 -6.6628

58.617 35.7884 3.14297e-12
35.7884 37.0932 3.7268e-12
3.14297e-12 3.7268e-12 -6.91886

70.5028 1.57939 -1.17595e-12
1.57939 -5.55327 7.81871e-12
-1.17595e-12 7.81871e-12 -10.3793

-30.7588 -22.8067 -6.33656e-12
-22.8067 -13.3599 1.08517e-12
-6.33656e-12 1.08517e-12 -14.4697

32.8455 31.1947 1.4353e-12
31.1947 69.8113 6.06093e-12
1.4353e-12 6.06093e-12 -6.68159

-19.3833 23.6151 5.05788e-12
23.6151 7.68605 1.25588e-12
5.05788e-12 1.25588e-12 -5.52265

47.6468 -5.35148 -7.53175e-13
-5.35148 -17.4485 7.07597e-12
-7.53175e-13 7.07597e-12 -6.83083

33.2239 11.2198 1.24996e-12
11.2198 -23.6521 -1.80863e-12
1.24996e-12 -1.80863e-12 -6.02395

6.25307 0.42983 9.20745e-14
0.42983 -77.5445 -1.7137e-12
9.20745e-14 -1.7137e-12 -13.4559

-58.9289 -29.028 1.80744e-12
-29.028 -6.28891 -8.33111e-13
1.80744e-12 -8.33111e-13 -14.7016

-28.3299 -6.31589 1.82387e-12
-6.31589 -11.3486 -8.13571e-13
1.82387e-12 -8.13571e-13 -51.5608

-44.6943 37.4066 -1.92409e-12
37.4066 -20.8091 -1.30022e-12
-1.92409e-12 -1.30022e-12 -14.778

93.8157 1.66376 4.76064e-13
1.66376 16.6542 -1.77606e-12
4.76064e-13 -1.77606e-12 -6.04465

10.0315 -32.7993 -2.27433e-12
-32.7993 21.3105 5.58901e-12
-2.27433e-12 5.58901e-12 -6.81723

-56.9306 36.609 2.65306e-12
36.609 -14.57 9.55976e-13
2.65306e-12 9.55976e-13 -13.5111

-35.0914 -11.1355 1.80395e-12
-11.1355 19.178 2.00847e-12
1.80395e-12 2.00847e-12 -8.3247

-5.48826 -25.5244 -4.11937e-12
-25.5244 37.3559 -3.41653e-12
-4.11937e-12 -3.41653e-12 -6.99598

-58.4457 28.827 1.10871e-12
28.827 -6.27229 2.30423e-12
1.10871e-12 2.30423e-12 -14.6187

28.4977 -26.1508 -3.68357e-12
-26.1508 -4.92089 -4.65346e-12
-3.68357e-12 -4.65346e-12 -4.70638

-21.16 10.4852 -4.79083e-12
10.4852 -18.5577 -2.7068e-12
-4.79083e-12 -2.7068e-12 -51.6563

3.42547 30.8837 8.75744e-13
30.8837 27.1645 -1.5478e-12
8.75744e-13 -1.5478e-12 -6.74205

6.13861 8.1249 -3.48684e-12
8.1249 -72.2892 1.87835e-12
-3.48684e-12 1.87835e-12 -14.9886

-11.5495 30.1923 2.07419e-12
30.1923 -20.6029 6.56956e-13
2.07419e-12 6.56956e-13 -11.5543

-30.8047 23.3363 -6.40821e-13
23.3363 -5.10224 9.92687e-13
-6.40821e-13 9.92687e-13 -8.47376

-25.8625 -32.4823 2.10942e-12
-32.4823 -24.1081 -3.83532e-12
2.10942e-12 -3.83532e-12 -21.5562

9.20214 -23.1954 5.06321e-12
-23.1954 -27.9277 2.6971e-13
5.06321e-12 2.6971e-13 -11.4307

-37.6646 10.4659 4.99193e-12
10.4659 8.92921 1.3376e-12
4.99193e-12 1.3376e-12 -25.3246

-23.0479 -23.4384 -4.74287e-13
-23.4384 4.95094 5.94428e-12
-4.74287e-13 5.94428e-12 -6.27245

88.8277 -9.71163 4.5001e-14
-9.71163 10.8044 4.52786e-12
4.5001e-14 4.52786e-12 -10.0326

84.0675 -14.2817 3.63324e-12
-14.2817 2.80756 -2.66157e-12
3.63324e-12 -2.66157e-12 -13.199

5.88363 16.5339 3.21373e-12
16.5339 -33.9322 1.96702e-12
3.21373e-12 1.96702e-12 -22.372

-16.4309 22.5089 -4.23898e-12
22.5089 16.2276 -1.45306e-12
-4.23898e-12 -1.45306e-12 -5.09525

-3.91601 29.1697 3.03816e-12
29.1697 -12.2374 -5.06143e-12
3.03816e-12 -5.06143e-12 -8.40447

51.0037 0.688845 7.21201e-13
0.688845 -6.54301 -4.88297e-12
7.21201e-13 -4.88297e-12 -3.64262

-48.145 6.56885 4.90232e-12
6.56885 14.7844 -1.36306e-12
4.90232e-12 -1.36306e-12 -18.9522

10.1158 16.5405 1.8332e-12
16.5405 -36.0858 -2.80487e-12
1.8332e-12 -2.80487e-12 -9.14224

-4.51395 -25.771 -3.95891e-12
-25.771 35.5603 -3.25073e-12
-3.95891e-12 -3.25073e-12 -6.75604

-39.201 -2.57074 2.8801e-12
-2.57074 21.5049 4.17325e-12
2.8801e-12 4.17325e-12 -10.6751

-8.00124 13.3706 2.5245e-12
13.3706 44.4131 -2.65269e-12
2.5245e-12 -2.65269e-12 -3.95297

3.73278 -29.7187 4.08621e-12
-29.7187 -17.3736 -1.82817e-12
4.08621e-12 -1.82817e-12 -8.92795

21.4249 -29.9582 1.75563e-12
-29.9582 14.7541 -8.51467e-13
1.75563e-12 -8.51467e-13 -3.92653

6.87483 31.6348 5.04071e-12
31.6348 25.4027 -1.22569e-12
5.04071e-12 -1.22569e-12 -6.83709

2.7821 -15.0174 -1.66297e-12
-15.0174 -39.2513 -9.1697e-13
-1.66297e-12 -9.1697e-13 -63.2736

-46.1585 2.04348 3.1332e-12
2.04348 11.4598 4.67182e-12
3.1332e-12 4.67182e-12 -22.7525

-55.4351 20.2956 -5.53927e-13
20.2956 3.09094 3.66433e-12
-5.53927e-13 3.66433e-12 -22.9125

5.91178 15.4349 -1.91136e-12
15.4349 -58.8087 -1.94156e-12
-1.91136e-12 -1.94156e-12 -23.0326

-18.9262 -26.1937 5.50671e-13
-26.1937 -12.9176 -4.99334e-12
5.50671e-13 -4.99334e-12 -9.66039

41.3534 17.9631 1.01489e-12
17.9631 -6.28141 3.67884e-12
1.01489e-12 3.67884e-12 -3.87012

-44.6782 -5.29023 2.35901e-12
-5.29023 4.53879 3.28004e-12
2.35901e-12 3.28004e-12 -39.1276

7.49994 -18.9871 2.98428e-12
-18.9871 -39.8984 -2.05199e-12
2.98428e-12 -2.05199e-12 -11.6649

30.2945 -15.6027 1.69583e-12
-15.6027 -20.521 -1.36025e-12
1.69583e-12 -1.36025e-12 -4.81462

-9.64937 11.6079 -4.73577e-12
11.6079 44.3269 8.72783e-13
-4.73577e-12 8.72783e-13 -3.86782

8.32856 -25.7439 6.0254e-12
-25.7439 32.9961 -3.51956e-12
6.0254e-12 -3.51956e-12 -3.64141

-10.2417 -25.2742 1.5401e-12
-25.2742 -19.1066 -4.50706e-12
1.5401e-12 -4.50706e-12 -23.1701

17.0029 31.971 2.82737e-12
31.971 11.1933 1.04035e-12
2.82737e-12 1.04035e-12 -5.75549

-1.06833 -25.1327 -3.47189e-12
-25.1327 -30.7656 5.77701e-12
-3.47189e-12 5.77701e-12 -20.8887

48.0749 2.59817 -7.72242e-12
2.59817 -8.42116 -9.96462e-12
-7.72242e-12 -9.96462e-12 -3.5401

6.54961 -28.9407 2.68171e-12
-28.9407 72.0701 7.18359e-12
2.68171e-12 7.18359e-12 -14.5541

21.7908 -29.2414 -8.52651e-13
-29.2414 13.9614 9.07245e-12
-8.52651e-13 9.07245e-12 -3.93891

35.3561 32.1702 6.91477e-12
32.1702 74.1528 9.54496e-13
6.91477e-12 9.54496e-13 -5.44342

-45.2898 -11.8748 2.41903e-12
-11.8748 13.9202 -3.04408e-12
2.41903e-12 -3.04408e-12 -15.3292

-14.4337 -13.8264 4.72689e-12
-13.8264 43.3897 2.71901e-12
4.72689e-12 2.71901e-12 -5.68178

-19.2321 -23.9793 -2.42399e-12
-23.9793 -19.8274 7.12467e-13
-2.42399e-12 7.12467e-13 -64.2147

2.43104 23.7797 -3.77772e-13
23.7797 36.0119 -2.07005e-12
-3.77772e-13 -2.07005e-12 -3.71961

-15.1845 -32.7267 -2.05998e-12
-32.7267 -21.1243 -2.17012e-12
-2.05998e-12 -2.17012e-12 -14.317

-14.5786 -11.9675 -1.90995e-12
-11.9675 45.5387 -1.97176e-12
-1.90995e-12 -1.97176e-12 -5.74784

7.83461 -19.116 2.62575e-12
-19.116 -43.1247 1.60583e-12
2.62575e-12 1.60583e-12 -12.6366

6.53981 23.8861 2.41821e-12
23.8861 35.1762 -2.29032e-12
2.41821e-12 -2.29032e-12 -3.45039

23.1761 -4.97627 2.47269e-12
-4.97627 -30.6864 1.43504e-12
2.47269e-12 1.43504e-12 -5.37356

36.9783 -30.3508 1.83675e-12
-30.3508 122.659 -1.30503e-12
1.83675e-12 -1.30503e-12 -6.2379

-26.8802 21.0196 -4.61468e-12
21.0196 8.43309 5.72994e-12
-4.61468e-12 5.72994e-12 -7.13997

40.3448 -19.3301 8.009e-12
-19.3301 -11.3846 -2.66986e-12
8.009e-12 -2.66986e-12 -5.73497

6.52254 -21.4451 2.14939e-13
-21.4451 -45.5549 5.67368e-12
2.14939e-13 5.67368e-12 -24.9666

20.7043 31.7654 -2.62309e-12
31.7654 9.55277 2.81079e-12
-2.62309e-12 2.81079e-12 -5.81495

13.9171 -29.9802 -3.76055e-12
-29.9802 -7.61462 -6.66726e-13
-3.76055e-12 -6.66726e-13 -5.95364

6.75622 20.8876 -2.91855e-12
20.8876 -27.7997 -4.88261e-12
-2.91855e-12 -4.88261e-12 -11.1136

-38.2765 -28.0771 4.67952e-12
-28.0771 -14.0402 1.96199e-12
4.67952e-12 1.96199e-12 -11.0686

8.64111 -26.235 -1.67096e-12
-26.235 31.1744 -1.44832e-12
-1.67096e-12 -1.44832e-12 -3.64356

15.3285 28.9915 2.68763e-12
28.9915 19.1534 -1.23634e-12
2.68763e-12 -1.23634e-12 -3.89161

28.6429 26.1996 -2.53308e-12
26.1996 -5.64277 1.157e-12
-2.53308e-12 1.157e-12 -4.81107

7.91218 -14.6144 -5.34683e-13
-14.6144 -36.8829 -3.17701e-12
-5.34683e-13 -3.17701e-12 -13.9947

-6.85144 -16.6241 -9.35844e-13
-16.6241 41.3475 9.23706e-14
-9.35844e-13 9.23706e-14 -3.96808

17.4412 -17.5702 -1.4874e-12
-17.5702 -31.0083 4.54155e-13
-1.4874e-12 4.54155e-13 -7.11343

19.8413 16.913 -4.83524e-12
16.913 -31.6765 5.50671e-13
-4.83524e-12 5.50671e-13 -7.34367

-33.6849 -9.38206 2.99501e-12
-9.38206 8.75736 -6.08698e-13
2.99501e-12 -6.08698e-13 -23.9869

43.4395 -13.4342 8.91376e-12
-13.4342 -8.37978 1.43752e-12
8.91376e-12 1.43752e-12 -3.81275

-19.392 0.594763 -1.48193e-12
0.594763 43.1522 7.08174e-13
-1.48193e-12 7.08174e-13 -4.78447

28.0591 18.5594 3.30521e-12
18.5594 -18.2106 3.02188e-12
3.30521e-12 3.02188e-12 -4.75888

25.5301 27.6127 -3.46982e-12
27.6127 -3.78428 2.66809e-12
-3.46982e-12 2.66809e-12 -4.78022

-6.72533 -15.6922 8.24822e-13
-15.6922 43.806 -3.64035e-12
8.24822e-13 -3.64035e-12 -3.85645

-19.92 -1.20219 -1.83927e-13
-1.20219 42.1345 -8.92915e-13
-1.83927e-13 -8.92915e-13 -4.69607

-5.4735 29.1355 -5.03301e-12
29.1355 -23.6533 5.2666e-12
-5.03301e-12 5.2666e-12 -16.7981

-37.2824 -10.9249 -9.49019e-13
-10.9249 21.6795 1.03029e-12
-9.49019e-13 1.03029e-12 -7.83799

27.1446 -26.7242 -1.97768e-12
-26.7242 -5.53906 -7.75676e-13
-1.97768e-12 -7.75676e-13 -4.95326

40.7253 21.3403 -3.6285e-12
21.3403 -8.38109 -1.86458e-12
-3.6285e-12 -1.86458e-12 -5.4763

12.3782 23.6681 -4.39175e-12
23.6681 -27.136 1.32427e-12
-4.39175e-12 1.32427e-12 -8.67396

-37.8054 5.47345 -2.19987e-12
5.47345 23.3117 1.40155e-12
-2.19987e-12 1.40155e-12 -8.60438

18.5911 29.0761 -8.1594e-13
29.0761 17.3767 -1.57918e-12
-8.1594e-13 -1.57918e-12 -3.95561

-9.98529 22.9644 -1.42819e-12
22.9644 -14.9207 4.41129e-12
-1.42819e-12 4.41129e-12 -24.0201

68.3393 -59.7085 1.84504e-12
-59.7085 36.3467 -4.38168e-14
1.84504e-12 -4.38168e-14 -23.0071

17.5292 -25.0549 1.35003e-12
-25.0549 -18.0006 7.46366e-13
1.35003e-12 7.46366e-13 -6.42621

10.0543 7.07226 -2.37084e-12
7.07226 82.5725 -7.99361e-12
-2.37084e-12 -7.99361e-12 -7.16835

11.9172 -28.8978 -4.33668e-12
-28.8978 -3.88691 1.76866e-12
-4.33668e-12 1.76866e-12 -5.1748

-66.9395 -52.7117 1.78228e-12
-52.7117 143.297 -9.9476e-14
1.78228e-12 -9.9476e-14 -49.6567

-68.3832 51.4622 2.76283e-12
51.4622 142.585 9.56864e-13
2.76283e-12 9.56864e-13 -49.8459

19.5925 117.178 -2.95823e-12
117.178 64.1607 -2.84217e-14
-2.95823e-12 -2.84217e-14 -48.3467

20.5515 -117.121 -9.02389e-13
-117.121 61.0569 2.3069e-12
-9.02389e-13 2.3069e-12 -48.7116

157.794 -1.36373 -4.55695e-12
-1.36373 -79.1843 6.45953e-14
-4.55695e-12 6.45953e-14 -48.8988

110.367 -91.1442 7.35175e-12
-91.1442 -36.6784 -3.27087e-12
7.35175e-12 -3.27087e-12 -50.2937

110.42 91.6722 5.44749e-13
91.6722 -36.4887 -8.88178e-13
5.44749e-13 -8.88178e-13 -50.1665

7.84324 14.334 -2.80368e-13
14.334 -42.6849 -4.77248e-12
-2.80368e-13 -4.77248e-12 -15.0821

-11.787 25.5332 -1.63514e-12
25.5332 -27.4059 -8.753e-13
-1.63514e-12 -8.753e-13 -35.1239

12.4385 6.60807 1.37727e-12
6.60807 -40.5452 -2.12682e-12
1.37727e-12 -2.12682e-12 -8.2617

26.2559 21.7913 3.50002e-12
21.7913 -19.5403 1.82876e-12
3.50002e-12 1.82876e-12 -5.86028

-21.2439 17.7506 2.13533e-12
17.7506 29.8711 8.87586e-13
2.13533e-12 8.87586e-13 -6.17227

22.5298 28.9081 -1.69701e-12
28.9081 -0.782017 -1.10253e-12
-1.69701e-12 -1.10253e-12 -4.7399

4.05121 -29.669 1.40451e-12
-29.669 -17.4714 -1.07262e-12
1.40451e-12 -1.07262e-12 -8.51168

25.9959 28.0373 -3.49232e-12
28.0373 -2.30897 3.60541e-12
-3.49232e-12 3.60541e-12 -4.74023

-19.3605 -2.84284 -5.93895e-13
-2.84284 43.078 1.45069e-12
-5.93895e-13 1.45069e-12 -4.77906

-13.4067 -26.0941 1.26329e-12
-26.0941 -25.8397 -1.03502e-12
1.26329e-12 -1.03502e-12 -35.5066

-19.8555 -4.86472 5.6651e-12
-4.86472 41.7826 -1.73846e-12
5.6651e-12 -1.73846e-12 -4.75302

-1.82948 23.0203 -2.23466e-12
23.0203 -24.3783 -8.55464e-13
-2.23466e-12 -8.55464e-13 -16.1505

44.9904 26.8807 1.6828e-12
26.8807 8.10559 -3.42659e-12
1.6828e-12 -3.42659e-12 -5.37641

-52.4989 -13.2169 -7.09581e-12
-13.2169 0.148582 6.21725e-15
-7.09581e-12 6.21725e-15 -20.6152

20.2814 13.7317 4.74287e-13
13.7317 -31.1547 2.69947e-12
4.74287e-13 2.69947e-12 -7.05244

13.6988 -29.9962 -2.52006e-12
-29.9962 -6.70006 8.31098e-12
-2.52006e-12 8.31098e-12 -5.8446

29.634 -24.7211 5.35749e-12
-24.7211 -7.88382 4.50425e-12
5.35749e-12 4.50425e-12 -4.83423

5.76074 -16.0794 -3.85914e-12
-16.0794 -32.3345 3.59535e-12
-3.85914e-12 3.59535e-12 -22.2514

12.627 27.9356 3.93404e-12
27.9356 -13.6482 8.90843e-13
3.93404e-12 8.90843e-13 -6.42817

23.3091 23.9847 5.63638e-12
23.9847 -17.9541 2.65565e-12
5.63638e-12 2.65565e-12 -5.97174

-31.0899 -2.79251 1.77384e-12
-2.79251 30.1345 -1.1949e-12
1.77384e-12 -1.1949e-12 -6.40706

-28.6438 5.8745 3.96118e-12
5.8745 33.3248 1.16055e-12
3.96118e-12 1.16055e-12 -6.06874

34.5538 2.64759 2.87415e-12
2.64759 -26.1996 -6.89752e-12
2.87415e-12 -6.89752e-12 -6.15216

50.662 -7.29242 2.06057e-13
-7.29242 -14.0959 -3.40158e-12
2.06057e-13 -3.40158e-12 -6.78718

11.0384 30.4937 -3.05e-12
30.4937 -4.79576 -3.23001e-12
-3.05e-12 -3.23001e-12 -5.97565

17.4659 -26.1626 -3.606e-13
-26.1626 -17.4636 8.10996e-12
-3.606e-13 8.10996e-12 -6.36037

-0.0820277 -21.2555 -1.33937e-12
-21.2555 -27.9609 7.35767e-12
-1.33937e-12 7.35767e-12 -17.1663

4.93363 -31.644 5.99935e-12
-31.644 4.85611 2.87533e-12
5.99935e-12 2.87533e-12 -5.94482

-8.23731 -27.7955 -2.2915e-13
-27.7955 18.5784 6.34159e-13
-2.2915e-13 6.34159e-13 -6.13965

-1.65782 29.8974 2.66454e-12
29.8974 10.4444 -1.59339e-12
2.66454e-12 -1.59339e-12 -5.80998

-26.0307 -9.58073 -1.12103e-12
-9.58073 32.9737 2.70598e-13
-1.12103e-12 2.70598e-13 -5.79646

-31.3353 -1.54642 -2.42969e-12
-1.54642 31.6533 -8.82849e-13
-2.42969e-12 -8.82849e-13 -6.23204

-38.9269 5.74734 1.77243e-12
5.74734 23.9471 6.26462e-13
1.77243e-12 6.26462e-13 -9.18999

-17.2306 -21.0966 -8.62717e-13
-21.0966 26.5731 9.62785e-13
-8.62717e-13 9.62785e-13 -5.78164

13.069 24.1169 -2.77881e-12
24.1169 -28.1092 5.51855e-13
-2.77881e-12 5.51855e-13 -9.21185

21.5568 -9.59242 -3.16192e-13
-9.59242 -31.72 -4.69254e-13
-3.16192e-13 -4.69254e-13 -6.60751

-27.1678 7.46713 1.56197e-12
7.46713 34.3384 -7.15872e-13
1.56197e-12 -7.15872e-13 -5.88314

-35.2478 -9.70205 -3.06917e-13
-9.70205 22.3149 -2.54611e-14
-3.06917e-13 -2.54611e-14 -8.1911

-29.1683 -16.3353 -1.16766e-12
-16.3353 19.3476 1.09897e-12
-1.16766e-12 1.09897e-12 -6.67107

36.9743 -8.24183 -1.97057e-12
-8.24183 -20.2511 4.17089e-12
-1.97057e-12 4.17089e-12 -5.11076

-14.8126 -32.3468 -3.42422e-12
-32.3468 -21.6284 -7.14836e-12
-3.42422e-12 -7.14836e-12 -12.9972

-22.8359 9.32477 1.61027e-12
9.32477 33.327 -1.30917e-12
1.61027e-12 -1.30917e-12 -4.7977

-0.753548 -18.214 -3.56308e-12
-18.214 -35.1534 -4.28946e-12
-3.56308e-12 -4.28946e-12 -33.2648

4.92842 24.8316 -9.031e-12
24.8316 75.3278 -6.91832e-12
-9.031e-12 -6.91832e-12 -14.3215

-14.1425 -26.6293 1.05308e-12
-26.6293 -16.3566 2.76756e-12
1.05308e-12 2.76756e-12 -14.6436

-6.35753 -30.2034 -3.59061e-12
-30.2034 -23.6092 3.76055e-12
-3.59061e-12 3.76055e-12 -17.0888

-31.2836 -0.700278 -6.83897e-13
-0.700278 31.5032 -2.74862e-12
-6.83897e-13 -2.74862e-12 -6.35686

28.4914 -16.6266 -5.67072e-12
-16.6266 -18.0683 -1.95577e-12
-5.67072e-12 -1.95577e-12 -4.44694

-37.8143 12.8425 -2.17419e-13
12.8425 11.1652 -7.4903e-13
-2.17419e-13 -7.4903e-13 -10.9949

-8.86201 -3.18252 -2.57668e-12
-3.18252 111.086 1.71714e-12
-2.57668e-12 1.71714e-12 -22.6684

-31.6157 14.2772 2.06331e-12
14.2772 21.351 1.2701e-12
2.06331e-12 1.2701e-12 -7.13359

12.4186 -29.4982 -6.62107e-12
-29.4982 -2.52481 6.31672e-12
-6.62107e-12 6.31672e-12 -4.93711

33.6391 25.1126 -3.15244e-12
25.1126 124.063 -8.8581e-13
-3.15244e-12 -8.8581e-13 -6.21051

-13.4974 26.0892 -9.52483e-12
26.0892 -19.0948 -1.64802e-12
-9.52483e-12 -1.64802e-12 -58.8611

-9.55017 -27.7975 5.51677e-12
-27.7975 -22.8024 9.25334e-13
5.51677e-12 9.25334e-13 -59.511

-2.87114 -30.4266 2.83625e-13
-30.4266 -7.32872 -3.46774e-12
2.83625e-13 -3.46774e-12 -7.29635

3.85441 -31.1708 -9.06534e-13
-31.1708 5.63077 4.207e-12
-9.06534e-13 4.207e-12 -6.07208

25.1546 20.8327 3.58054e-12
20.8327 -17.0454 1.525e-12
3.58054e-12 1.525e-12 -4.98574

31.8087 15.011 1.66741e-12
15.011 -23.3155 3.65101e-12
1.66741e-12 3.65101e-12 -5.9644

-9.48235 3.07785 -9.83791e-12
3.07785 -9.82632 1.72995e-12
-9.83791e-12 1.72995e-12 -80.8844

-5.54466 -6.99176 -2.3231e-12
-6.99176 -14.0344 7.07123e-12
-2.3231e-12 7.07123e-12 -80.2374

11.7496 4.82397 -4.0945e-12
4.82397 -43.2135 -1.29644e-12
-4.0945e-12 -1.29644e-12 -7.83612

-35.0666 6.73389 -1.58318e-13
6.73389 24.3762 5.4919e-12
-1.58318e-13 5.4919e-12 -7.5716

-36.1227 6.73662 2.3792e-12
6.73662 24.4336 4.97794e-12
2.3792e-12 4.97794e-12 -8.31663

74.6091 58.652 2.7119e-12
58.652 34.1862 -1.80952e-12
2.7119e-12 -1.80952e-12 -21.8691

-6.92955 -28.21 -9.05942e-13
-28.21 16.8742 6.59028e-13
-9.05942e-13 6.59028e-13 -6.12656

8.17107 17.9733 -2.88806e-12
17.9733 -44.8777 -1.20467e-12
-2.88806e-12 -1.20467e-12 -12.9008

32.7081 9.54205 3.74101e-12
9.54205 -19.0924 2.71797e-12
3.74101e-12 2.71797e-12 -4.0836

3.38215 -26.7321 -5.73704e-12
-26.7321 13.4833 8.92323e-13
-5.73704e-12 8.92323e-13 -3.83612

26.2392 -20.244 -1.83557e-14
-20.244 -20.3354 2.70865e-12
-1.83557e-14 2.70865e-12 -5.8726

65.4129 60.2499 -2.75217e-12
60.2499 34.301 3.52311e-12
-2.75217e-12 3.52311e-12 -23.8644

-13.2447 31.0717 2.00136e-12
31.0717 -16.889 -3.69482e-12
2.00136e-12 -3.69482e-12 -12.7909

-18.6176 -19.7931 -1.03029e-12
-19.7931 28.4175 -1.41812e-12
-1.03029e-12 -1.41812e-12 -5.97931

11.171 28.8651 3.18797e-12
28.8651 -13.3301 7.99361e-14
3.18797e-12 7.99361e-14 -6.44476

-31.8814 -4.14705 5.1185e-12
-4.14705 30.1499 1.42109e-14
5.1185e-12 1.42109e-14 -6.3665

-14.6068 19.616 2.03186e-12
19.616 27.1877 6.33686e-12
2.03186e-12 6.33686e-12 -4.42811

7.47568 30.5283 -2.0961e-12
30.5283 -1.67704 5.50078e-13
-2.0961e-12 5.50078e-13 -5.66982

-9.35396 -22.4811 -2.14762e-12
-22.4811 23.1508 -3.43725e-12
-2.14762e-12 -3.43725e-12 -4.18485

4.58524 -27.3614 2.62546e-12
-27.3614 11.4479 -2.61184e-12
2.62546e-12 -2.61184e-12 -3.94762

24.2774 11.2605 1.27483e-12
11.2605 102.109 1.74083e-12
1.27483e-12 1.74083e-12 -12.4022

37.4724 -33.4682 -5.68434e-14
-33.4682 69.3029 6.11304e-12
-5.68434e-14 6.11304e-12 -5.70506

-25.3491 -11.6941 6.10963e-12
-11.6941 31.3718 7.67386e-13
6.10963e-12 7.67386e-13 -5.65775

16.0947 26.492 8.64494e-13
26.492 -15.5097 -2.30986e-12
8.64494e-13 -2.30986e-12 -6.22587

4.95079 29.4865 1.99248e-12
29.4865 1.63308 -3.76055e-12
1.99248e-12 -3.76055e-12 -4.99923

-9.86378 -21.4414 -2.72197e-12
-21.4414 25.1231 -9.89431e-13
-2.72197e-12 -9.89431e-13 -4.04254

-21.6464 -11.7869 4.52734e-12
-11.7869 32.0856 1.46846e-12
4.52734e-12 1.46846e-12 -4.64639

10.4594 28.4182 -5.35098e-12
28.4182 -0.160568 -3.83456e-12
-5.35098e-12 -3.83456e-12 -4.68185

-21.8581 -13.8827 -1.17624e-12
-13.8827 29.4699 -1.53418e-12
-1.17624e-12 -1.53418e-12 -4.85646

6.95551 27.8654 -2.56624e-12
27.8654 73.1054 3.5314e-12
-2.56624e-12 3.5314e-12 -14.3246

-45.8349 -4.03895 -2.6438e-12
-4.03895 14.0472 -2.26071e-12
-2.6438e-12 -2.26071e-12 -19.9633

0.870354 31.0382 -1.37372e-13
31.0382 7.51604 -4.20168e-12
-1.37372e-13 -4.20168e-12 -6.09895

9.71784 14.905 -3.23179e-12
14.905 -36.437 2.70806e-12
-3.23179e-12 2.70806e-12 -10.9914

9.9252 -15.9315 -1.24937e-13
-15.9315 -39.4159 -2.00136e-13
-1.24937e-13 -2.00136e-13 -13.0737

85.6384 -24.2129 -1.83083e-12
-24.2129 7.63342 -8.30151e-13
-1.83083e-12 -8.30151e-13 -12.9592

-23.216 -21.2725 4.57797e-12
-21.2725 10.5134 1.78287e-12
4.57797e-12 1.78287e-12 -6.17474

-16.6088 26.7052 4.99393e-12
26.7052 1.7753 -4.38642e-12
4.99393e-12 -4.38642e-12 -6.59747

-26.1966 -21.7269 4.24668e-12
-21.7269 -5.37393 -1.37583e-12
4.24668e-12 -1.37583e-12 -23.862

-41.5844 14.0987 -5.56399e-12
14.0987 -3.55769 2.75365e-12
-5.56399e-12 2.75365e-12 -64.0897

-0.895346 9.44495 6.34115e-12
9.44495 -44.2427 -9.27732e-12
6.34115e-12 -9.27732e-12 -64.1911

-20.3811 32.7022 -7.56432e-13
32.7022 -23.2064 5.29206e-13
-7.56432e-13 5.29206e-13 -24.3251

-11.4218 26.0098 2.67282e-12
26.0098 22.6049 5.28644e-12
2.67282e-12 5.28644e-12 -5.93562

16.0384 26.6673 1.04213e-12
26.6673 -17.2977 4.79616e-14
1.04213e-12 4.79616e-14 -6.55856

30.4341 45.2019 2.79835e-12
45.2019 47.567 1.74201e-12
2.79835e-12 1.74201e-12 -15.1973

-44.8753 -11.3373 -1.87791e-12
-11.3373 -1.80667 4.44178e-12
-1.87791e-12 4.44178e-12 -61.6479

-8.29759 -3.42935 3.26175e-12
-3.42935 -12.7432 -5.44009e-13
3.26175e-12 -5.44009e-13 -77.1772

-14.6792 -0.206902 4.17577e-12
-0.206902 -6.41824 -6.90337e-12
4.17577e-12 -6.90337e-12 -77.3214

27.6749 -53.8183 4.9738e-13
-53.8183 71.1733 -7.15043e-12
4.9738e-13 -7.15043e-12 -24.386

-11.6839 -11.5971 -6.95296e-13
-11.5971 -16.2077 -2.09699e-12
-6.95296e-13 -2.09699e-12 -37.4135

-32.6071 8.80875 1.41361e-12
8.80875 -9.41171 -1.55668e-12
1.41361e-12 -1.55668e-12 -49.515

18.2562 -26.2051 2.93099e-13
-26.2051 -19.5573 -6.80345e-13
2.93099e-13 -6.80345e-13 -6.51543

-39.4345 1.00833 -1.6086e-12
1.00833 11.9813 -6.27468e-12
-1.6086e-12 -6.27468e-12 -19.7197

-30.2114 -20.2729 -3.36176e-12
-20.2729 6.30375 -1.49806e-12
-3.36176e-12 -1.49806e-12 -7.22542

10.5352 6.25594 -1.04953e-12
6.25594 -52.3928 2.17285e-12
-1.04953e-12 2.17285e-12 -9.64735

-49.8145 15.5961 -8.25034e-13
15.5961 10.1627 -1.09246e-13
-8.25034e-13 -1.09246e-13 -13.5354

-40.2921 7.19009 -9.18265e-13
7.19009 16.5414 -5.34743e-12
-9.18265e-13 -5.34743e-12 -13.7776

16.4042 20.3984 1.50635e-12
20.3984 -25.8508 -2.57513e-12
1.50635e-12 -2.57513e-12 -7.61565

-9.10129 -3.11392 -3.62606e-12
-3.11392 108.429 3.7043e-12
-3.62606e-12 3.7043e-12 -23.0989

-3.32601 -27.6312 9.12455e-13
-27.6312 -3.63234 -7.3482e-13
9.12455e-13 -7.3482e-13 -5.83897

-7.33803 -26.1222 4.59484e-13
-26.1222 -14.0867 -2.2539e-12
4.59484e-13 -2.2539e-12 -9.81699

-14.2015 -31.4836 -3.11514e-12
-31.4836 -21.778 1.87317e-12
-3.11514e-12 1.87317e-12 -12.7599

90.7553 32.7601 1.01134e-12
32.7601 20.9118 1.64106e-12
1.01134e-12 1.64106e-12 -16.5034

-23.1083 -20.1138 1.13332e-12
-20.1138 -17.3871 -9.15934e-13
1.13332e-12 -9.15934e-13 -44.4057

72.649 54.3372 -1.22213e-12
54.3372 91.6644 1.74794e-12
-1.22213e-12 1.74794e-12 -6.13791

-36.2206 -21.4375 -1.98996e-12
-21.4375 -6.79684 1.30533e-12
-1.98996e-12 1.30533e-12 -13.048

15.0342 14.6512 5.02709e-13
14.6512 -37.759 -4.73251e-13
5.02709e-13 -4.73251e-13 -8.18635

44.5812 -14.5773 -5.9804e-13
-14.5773 -8.28344 1.84623e-12
-5.9804e-13 1.84623e-12 -4.4271

-21.2373 24.0514 3.01714e-12
24.0514 4.95416 4.46813e-12
3.01714e-12 4.46813e-12 -5.98559

17.3736 20.4311 4.1922e-13
20.4311 -26.8023 2.72197e-12
4.1922e-13 2.72197e-12 -6.95969

-51.1367 11.3966 -8.13416e-12
11.3966 7.70802 -5.51115e-12
-8.13416e-12 -5.51115e-12 -29.9849

-7.29226 -31.585 -8.8433e-13
-31.585 -12.8313 -2.12393e-12
-8.8433e-13 -2.12393e-12 -8.12723

2.79224 19.8119 6.48281e-12
19.8119 -46.0281 6.17876e-12
6.48281e-12 6.17876e-12 -29.9768

-24.6801 -18.4484 -5.68819e-12
-18.4484 17.8366 3.45028e-12
-5.68819e-12 3.45028e-12 -5.48937

-42.3461 4.28541 -9.25805e-13
4.28541 17.869 -7.81182e-12
-9.25805e-13 -7.81182e-12 -12.732

-4.09797 9.9295 -4.65109e-13
9.9295 -40.2659 -3.83397e-14
-4.65109e-13 -3.83397e-14 -47.5244

-2.68881 -8.51661 4.63363e-12
-8.51661 -38.2975 -2.408e-12
4.63363e-12 -2.408e-12 -47.38

81.7464 18.5184 -1.77636e-12
18.5184 1.69502 3.6664e-12
-1.77636e-12 3.6664e-12 -14.4553

3.89528 7.96716 2.92803e-13
7.96716 -45.19 1.57518e-12
2.92803e-13 1.57518e-12 -11.0253

35.8895 7.74348 -3.21225e-14
7.74348 184.621 9.85286e-13
-3.21225e-14 9.85286e-13 -9.74303

40.1639 -11.3886 -1.72325e-12
-11.3886 190.42 -2.25479e-12
-1.72325e-12 -2.25479e-12 -7.37429

53.7853 56.4179 -6.15804e-14
56.4179 159.299 -2.7048e-12
-6.15804e-14 -2.7048e-12 -11.4858

1.70464 -28.9542 -7.46662e-13
-28.9542 -24.6942 -4.34763e-12
-7.46662e-13 -4.34763e-12 -11.9675

16.0569 -49.205 4.05246e-12
-49.205 99.4483 8.90547e-13
4.05246e-12 8.90547e-13 -21.6848

54.5334 -55.9605 -3.59535e-12
-55.9605 150.015 -8.57388e-13
-3.59535e-12 -8.57388e-13 -13.651

-2.17296 26.2289 1.65497e-12
26.2289 17.5728 1.54247e-12
1.65497e-12 1.54247e-12 -4.00534

134.978 73.8586 -8.33703e-13
73.8586 85.0511 4.43142e-12
-8.33703e-13 4.43142e-12 -10.1446

-18.7269 13.0443 6.39785e-12
13.0443 -3.89617 4.0122e-12
6.39785e-12 4.0122e-12 -26.7609

3.73979 0.0457173 -4.23587e-12
0.0457173 -26.1907 6.99825e-12
-4.23587e-12 6.99825e-12 -26.7641

144.138 -73.1437 -5.87382e-12
-73.1437 85.3788 2.75217e-12
-5.87382e-12 2.75217e-12 -8.1813

-21.4045 -23.4311 -2.99967e-12
-23.4311 12.2465 -2.78474e-12
-2.99967e-12 -2.78474e-12 -6.50142

89.3719 34.74 -1.18424e-14
34.74 41.4006 -1.85333e-12
-1.18424e-14 -1.85333e-12 -11.5448

72.2127 63.5043 -6.66726e-12
63.5043 149.733 -3.65219e-12
-6.66726e-12 -3.65219e-12 -9.65917

26.1707 21.637 -3.45324e-12
21.637 100.162 3.94825e-12
-3.45324e-12 3.94825e-12 -13.0285

73.9002 -65.9336 4.48826e-12
-65.9336 151.184 -8.81073e-13
4.48826e-12 -8.81073e-13 -9.38731

25.7753 -12.3848 -9.88839e-13
-12.3848 105.043 2.33295e-12
-9.88839e-13 2.33295e-12 -12.425

-28.6642 6.83559 -4.46561e-12
6.83559 3.1096 5.8149e-12
-4.46561e-12 5.8149e-12 -37.8358

37.7518 -45.9902 2.63611e-12
-45.9902 49.6817 1.59872e-12
2.63611e-12 1.59872e-12 -15.5336

14.4508 47.546 -4.26681e-12
47.546 94.9076 4.82695e-12
-4.26681e-12 4.82695e-12 -22.1886

173.383 37.9201 -5.34802e-12
37.9201 48.0618 2.67579e-12
-5.34802e-12 2.67579e-12 -9.50804

7.01692 -29.2923 -2.55381e-12
-29.2923 -14.3639 -2.34834e-12
-2.55381e-12 -2.34834e-12 -7.16397

-38.4247 12.8954 2.61731e-12
12.8954 6.43639 2.18877e-12
2.61731e-12 2.18877e-12 -15.2929

88.5307 -38.1242 -1.80478e-12
-38.1242 34.1719 8.07887e-12
-1.80478e-12 8.07887e-12 -14.0965

6.03953 -28.808 4.14483e-15
-28.808 -16.1807 4.37517e-12
4.14483e-15 4.37517e-12 -8.03778

169.249 -36.3518 -8.3844e-13
-36.3518 34.9463 -6.97516e-13
-8.3844e-13 -6.97516e-13 -13.2766

-5.72844 -28.3234 -2.38565e-12
-28.3234 -14.4795 -3.19152e-13
-2.38565e-12 -3.19152e-13 -9.3167

-17.801 -25.3027 1.87287e-12
-25.3027 12.0784 -8.27901e-12
1.87287e-12 -8.27901e-12 -5.94447

118.909 69.4747 3.78956e-14
69.4747 96.2493 -3.64272e-12
3.78956e-14 -3.64272e-12 -11.3862

29.4208 -22.9399 1.71004e-12
-22.9399 97.8249 2.77349e-12
1.71004e-12 2.77349e-12 -14.3365

117.992 -71.7072 8.10492e-12
-71.7072 93.7105 -1.25529e-13
8.10492e-12 -1.25529e-13 -12.4022

22.2727 50.7518 -1.84623e-12
50.7518 73.8025 -3.6664e-12
-1.84623e-12 -3.6664e-12 -24.7743

-1.5418 -30.2202 3.36146e-12
-30.2202 -6.55943 -3.89585e-12
3.36146e-12 -3.89585e-12 -7.00726

-7.03977 -14.6422 2.28706e-12
-14.6422 -21.9222 -1.82313e-12
2.28706e-12 -1.82313e-12 -32.601

-11.8904 11.0868 -3.78349e-12
11.0868 -16.4175 -3.04897e-12
-3.78349e-12 -3.04897e-12 -77.7438

-26.1528 -5.16107 -8.29115e-13
-5.16107 -6.38668 -8.47594e-12
-8.29115e-13 -8.47594e-12 -77.5779

-38.9516 13.0846 -2.24263e-12
13.0846 13.744 -3.56337e-12
-2.24263e-12 -3.56337e-12 -10.2459

-14.4772 -10.6611 2.11497e-12
-10.6611 -17.3044 4.39204e-12
2.11497e-12 4.39204e-12 -78.7058

-25.8865 4.09339 -2.89561e-12
4.09339 -5.91297 5.48014e-12
-2.89561e-12 5.48014e-12 -78.8479

-3.62953 7.42638 -3.44391e-12
7.42638 -27.8482 -4.88054e-12
-3.44391e-12 -4.88054e-12 -77.936

-43.9597 -12.1079 5.4771e-13
-12.1079 2.91541 -4.25482e-12
5.4771e-13 -4.25482e-12 -68.1165

11.9727 -30.4808 5.2515e-12
-30.4808 76.1845 -7.08648e-12
5.2515e-12 -7.08648e-12 -14.7025

0.518136 -12.9721 -9.71075e-14
-12.9721 -39.9825 2.03274e-12
-9.71075e-14 2.03274e-12 -45.2547

-16.3479 -34.4132 1.62862e-12
-34.4132 -22.0732 -3.79104e-12
1.62862e-12 -3.79104e-12 -23.586

-2.42371 -18.1789 -3.60897e-13
-18.1789 -29.8899 -3.13246e-12
-3.60897e-13 -3.13246e-12 -33.6129

12.7359 15.463 2.16005e-12
15.463 -37.7254 3.55538e-12
2.16005e-12 3.55538e-12 -9.63296

-46.8911 9.85914 3.32804e-12
9.85914 8.87295 6.85215e-12
3.32804e-12 6.85215e-12 -70.1106

3.45909 19.2205 -3.16961e-12
19.2205 -41.4557 3.41919e-12
-3.16961e-12 3.41919e-12 -70.2264

1.46795 11.3119 1.24463e-12
11.3119 -23.9617 -3.20336e-13
1.24463e-12 -3.20336e-13 -31.8548

109.426 -15.3449 4.52616e-12
-15.3449 -12.5359 1.8557e-12
4.52616e-12 1.8557e-12 -25.0336

-14.3303 24.972 -8.20973e-13
24.972 10.3846 -3.28744e-12
-8.20973e-13 -3.28744e-12 -5.8148

76.63 -61.3722 6.62226e-12
-61.3722 37.3799 5.3267e-12
6.62226e-12 5.3267e-12 -22.3906

76.1338 -57.4723 3.50771e-12
-57.4723 99.2546 3.52903e-12
3.50771e-12 3.52903e-12 -5.54969

118.227 -36.5544 3.62377e-12
-36.5544 40.6108 -1.74083e-12
3.62377e-12 -1.74083e-12 -7.3744

-51.0935 -5.15816 7.68866e-13
-5.15816 3.33688 5.69915e-13
7.68866e-13 5.69915e-13 -60.625

-50.4578 2.89166 1.2168e-13
2.89166 3.13116 -6.47689e-12
1.2168e-13 -6.47689e-12 -60.098

-11.9742 -24.4463 -1.75741e-12
-24.4463 -34.9884 -5.70655e-14
-1.75741e-12 -5.70655e-14 -59.1329

-8.9889 -21.7496 -5.53809e-12
-21.7496 -37.8748 8.34592e-13
-5.53809e-12 8.34592e-13 -59.4422

-14.6996 26.1248 -3.8541e-12
26.1248 -33.0137 -2.79695e-12
-3.8541e-12 -2.79695e-12 -60.7161

-18.1462 3.09234 -8.19108e-12
3.09234 -13.1585 -2.70568e-11
-8.19108e-12 -2.70568e-11 -75.4299

-9.94392 -20.5011 3.82479e-12
-20.5011 -32.6375 -3.17812e-12
3.82479e-12 -3.17812e-12 -56.7048

-26.6337 -18.5623 5.17394e-12
-18.5623 -14.1948 1.55949e-13
5.17394e-12 1.55949e-13 -71.2283

-15.4666 2.42925 -4.87921e-12
2.42925 -12.8489 3.56663e-12
-4.87921e-12 3.56663e-12 -77.8224

-6.02588 -20.5169 -1.49954e-12
-20.5169 -41.4721 -1.13628e-12
-1.49954e-12 -1.13628e-12 -60.4724

-6.75489 20.9462 6.47408e-13
20.9462 -40.129 2.88747e-12
6.47408e-13 2.88747e-12 -59.984

-14.3045 -3.45289 6.04243e-12
-3.45289 -11.3872 -5.01347e-12
6.04243e-12 -5.01347e-12 -76.8376

-11.257 -3.10927 8.21136e-12
-3.10927 -17.6791 -1.31083e-11
8.21136e-12 -1.31083e-11 -74.0024

-24.1896 12.1084 -5.29932e-12
12.1084 -13.3996 7.35175e-12
-5.29932e-12 7.35175e-12 -69.9251

-22.0746 26.9208 -1.97146e-12
26.9208 -26.2618 2.27767e-13
-1.97146e-12 2.27767e-13 -57.5506

VECTORS fluid_flux_TPM float
-8.73249e-05 3.10681e-05 3.52747e-21
3.56364e-06 6.89036e-06 3.11404e-20
-1.28018e-05 -1.02372e-05 -2.23579e-20
-4.17518e-06 4.25888e-06 2.47565e-20
2.27333e-05 -6.32048e-06 1.48638e-20
2.76086e-06 -1.59215e-05 3.63927e-21
-8.5899e-05 -3.11325e-05 9.69952e-21
-1.3908e-05 -1.04787e-05 -2.14682e-20
2.21468e-05 9.46588e-07 9.34861e-21
1.13968e-05 -3.91247e-06 2.03977e-20
5.46627e-05 1.2498e-05 -4.14896e-21
2.34968e-06 -1.72134e-05 -2.3878e-21
1.36269e-05 1.12664e-05 2.63125e-20
2.66519e-06 1.38002e-05 1.97288e-20
2.06042e-05 -2.95003e-06 1.26098e-20
-1.63509e-05 -2.73193e-07 -2.21282e-20
2.75673e-06 1.41147e-05 3.29442e-20
1.01933e-05 -2.39456e-06 2.05324e-20
9.91e-06 1.72421e-05 -5.228e-21
-1.48654e-05 1.88764e-06 -1.93164e-20
-3.60511e-06 -2.13283e-05 -2.76776e-20
3.41502e-05 5.94857e-05 5.03815e-21
1.57153e-05 1.63315e-06 1.43598e-20
1.12402e-05 -1.12942e-05 1.39905e-20
-1.50956e-05 -3.33621e-06 -1.14982e-20
-6.7789e-07 -1.11435e-05 -7.80119e-21
6.29756e-05 -4.91401e-06 3.56688e-21
1.40821e-05 1.02604e-05 6.29877e-21
-2.51786e-05 -2.06671e-05 -1.74682e-20
4.91768e-05 -1.28288e-05 1.70361e-20
-1.66015e-05 -6.04523e-06 -1.00139e-20
5.54401e-06 -3.20738e-05 6.2026e-21
4.77103e-05 -4.81027e-05 -3.81837e-22
-4.92898e-06 -4.12956e-05 -1.61724e-20
-2.97078e-05 3.70483e-05 2.54295e-21
-3.82919e-05 -1.64142e-05 -1.90484e-20
3.27408e-05 4.32657e-05 1.18262e-20
-4.47928e-05 -8.73608e-06 2.84589e-20
1.43912e-05 -1.10946e-05 -6.53463e-21
4.65246e-05 5.01732e-05 -1.46363e-20
3.21669e-05 -1.40382e-05 7.94973e-21
3.36794e-05 -4.23928e-05 -1.11176e-20
-1.99195e-05 -5.04372e-05 -2.04772e-20
-1.59165e-05 6.36421e-06 -1.25342e-20
3.05617e-05 -2.93482e-05 1.04726e-20
-3.03685e-05 1.10036e-05 -4.94583e-21
-4.05474e-06 -2.03946e-05 -1.94831e-20
7.89549e-06 2.02354e-05 -3.16095e-21
-1.63617e-05 5.93486e-06 -1.99354e-20
-1.78404e-05 2.87602e-05 -1.34639e-20
3.24467e-05 1.53087e-05 -8.81297e-22
2.93997e-05 -1.00869e-05 3.63979e-21
-1.56847e-05 1.57789e-05 -3.85208e-21
-2.35692e-05 -2.07153e-05 -1.95556e-20
-2.11647e-05 -5.13849e-06 3.01579e-20
-4.4845e-05 2.71092e-05 -7.58737e-21
-2.94066e-05 -3.80679e-05 -5.3802e-21
6.37141e-06 -3.06643e-05 9.219e-21
-4.77643e-05 6.49062e-06 -1.49788e-20
6.08147e-06 1.37133e-05 -1.41234e-20
-5.58345e-06 -8.18317e-06 -2.72967e-20
-6.59138e-06 -1.7965e-05 -3.1308e-20
5.72122e-05 2.48891e-05 -4.07521e-21
9.25399e-06 1.8166e-05 2.00746e-20
1.23113e-05 -1.44623e-05 -1.24076e-20
-1.6424e-06 -2.07774e-05 -1.93011e-21
4.62672e-06 -8.81612e-06 -1.30214e-20
-1.01027e-05 -5.57158e-06 -1.12058e-20
-1.06153e-05 1.19438e-05 5.13342e-21
2.56127e-06 -4.09748e-06 1.99476e-20
-1.50614e-05 -1.58622e-05 -4.23499e-21
-2.13905e-05 5.17215e-06 -1.36514e-20
-3.5606e-06 3.45235e-05 -1.33652e-20
-1.78934e-05 1.07238e-05 1.0578e-20
-9.08167e-06 1.46325e-05 1.91049e-20
-6.043e-05 7.70212e-06 -3.77122e-21
7.82758e-06 -2.17076e-05 -1.54888e-20
-1.89029e-05 -8.91093e-06 -1.9635e-20
1.93619e-06 1.1638e-05 -5.54307e-21
2.63327e-05 5.09577e-06 1.11414e-21
3.42105e-05 -2.90098e-05 1.72614e-21
2.21732e-05 2.0581e-05 1.98941e-20
1.19228e-05 -2.82578e-06 -8.73311e-21
-3.21932e-05 2.40974e-05 -5.51911e-21
3.79502e-05 4.85169e-06 1.39231e-20
-4.98599e-06 4.94755e-05 -3.5541e-20
-1.74307e-06 -1.68776e-05 -2.47987e-20
1.81458e-05 9.96664e-06 7.33902e-21
2.93535e-05 3.03222e-05 2.13586e-21
5.50913e-05 3.80594e-05 5.6676e-21
-5.33747e-06 3.08104e-05 -3.98146e-21
5.92514e-05 -3.55554e-05 5.16085e-21
-2.71576e-05 5.3477e-06 1.33937e-20
1.78609e-05 1.10151e-05 2.29276e-21
-2.96775e-05 9.91565e-06 -1.84885e-20
1.66737e-05 2.85557e-05 -9.15938e-22
1.01819e-05 -4.44408e-05 -3.39134e-21
1.9179e-06 1.16348e-05 -1.3019e-20
-1.48187e-05 -1.76415e-05 -2.4405e-20
3.07375e-06 1.74958e-05 -1.87292e-20
2.64389e-05 5.26381e-06 -4.2762e-21
-1.54618e-05 3.3252e-05 -8.85627e-21
4.06015e-05 -1.33491e-05 1.14513e-20
-3.77754e-06 7.46419e-06 2.03493e-20
9.96496e-06 5.90641e-06 -1.53576e-21
-2.28327e-06 -1.13384e-05 -1.02397e-20
3.22467e-06 -1.92752e-05 -1.03002e-20
1.74905e-05 3.89678e-06 5.1422e-21
-7.94618e-06 4.10227e-05 -2.38107e-20
-9.81738e-06 2.48295e-07 2.2382e-20
9.32993e-06 1.19001e-05 1.17487e-20
-2.17896e-06 -4.17649e-05 1.44217e-20
4.20741e-05 1.28805e-05 -1.57056e-20
4.42803e-06 -7.46217e-06 5.04043e-21
-1.11587e-05 -3.55794e-06 -1.93185e-20
-2.93617e-05 -1.25015e-05 -1.75371e-20
1.58228e-05 4.11971e-05 2.83998e-20
-4.3539e-05 -1.55933e-05 -1.38489e-20
1.60379e-05 -4.11736e-05 2.29728e-20
-3.70397e-06 -3.19591e-05 1.4185e-21
2.18653e-05 6.52975e-07 6.09119e-21
-7.18014e-06 1.84189e-05 -1.46837e-20
-1.61304e-06 3.97432e-06 -1.41025e-20
-3.6903e-06 -1.65587e-05 -6.87061e-21
5.23629e-06 -8.31209e-06 8.24246e-21
9.37092e-06 1.58827e-05 1.59028e-20
3.31412e-05 1.06654e-05 -2.6595e-21
8.62598e-06 -7.46701e-06 -2.62485e-21
-8.28049e-06 -4.52154e-05 1.64648e-21
2.55832e-05 -1.88425e-05 9.11714e-21
4.98405e-06 2.78049e-05 2.34464e-20
-2.81976e-06 -2.84503e-06 -3.19484e-20
-8.63657e-06 -8.33583e-06 -1.50421e-20
-4.78236e-06 4.41133e-08 -7.24611e-21
-2.29005e-05 2.86295e-05 -2.93577e-21
1.87859e-05 -3.74202e-05 -6.06368e-21
-2.66121e-05 4.27673e-05 -1.87862e-20
-1.63917e-05 9.54692e-06 -6.05026e-21
2.53098e-06 1.22136e-05 2.63424e-20
-2.30145e-05 -3.50317e-05 -9.84059e-21
1.39534e-05 3.35066e-05 4.9628e-21
1.75289e-05 9.38047e-06 8.46125e-21
2.28391e-05 -8.53286e-06 1.26778e-20
-1.25456e-06 -1.12789e-05 -7.03288e-21
-3.39532e-05 -3.15973e-05 -3.08532e-21
-2.75471e-06 1.1317e-05 1.29066e-20
1.72675e-05 1.01839e-05 2.57629e-21
1.89103e-05 -8.8314e-06 1.64091e-20
8.25325e-06 -1.43621e-05 4.98812e-21
2.43864e-05 -1.08083e-05 1.07175e-20
1.90325e-05 -9.00864e-06 2.01537e-21
4.6463e-06 2.06097e-07 3.70364e-21
2.5772e-05 2.02454e-05 -2.41903e-21
-2.74484e-06 -1.70506e-05 -1.77769e-20
-1.04923e-05 -4.46246e-06 -1.34736e-20
1.12729e-06 -3.89482e-06 -1.34685e-20
-3.15874e-06 1.5866e-05 -1.0268e-20
-3.49263e-05 2.77157e-06 -6.96211e-21
-1.21359e-05 -3.32989e-05 -1.07503e-20
-7.88848e-06 9.79091e-06 1.1981e-20
1.35817e-05 1.66603e-05 1.52195e-20
2.66009e-05 -1.87671e-05 1.98452e-20
-3.68373e-05 -2.03763e-05 -4.53573e-21
1.74245e-05 -2.75406e-05 -6.28671e-21
2.28317e-05 -2.72492e-05 4.32009e-21
-1.09576e-05 3.7895e-06 -3.27892e-20
-1.98529e-05 -2.88757e-05 -1.86173e-20
-3.49226e-05 -5.79855e-06 -1.90907e-20
-3.85654e-06 -3.17814e-05 -1.45595e-21
1.54667e-05 -3.17374e-05 1.29278e-21
-9.117e-06 -2.6231e-05 -9.30701e-21
4.58713e-06 3.14435e-05 -5.55822e-21
-1.57711e-05 -2.85571e-05 -1.87444e-20
2.94243e-06 -1.63119e-05 9.84356e-22
-2.47694e-05 1.82825e-05 -8.2892e-21
-1.50489e-05 -1.21257e-05 -1.5175e-20
-2.73857e-05 -5.1787e-06 -4.43426e-21
1.5687e-05 -9.19256e-06 1.28213e-20
-4.31204e-06 2.39814e-05 -5.8608e-21
1.22474e-05 -9.33565e-06 5.84359e-21
-2.96221e-05 -1.31806e-05 -2.20301e-20
-8.84223e-06 -7.46717e-06 -1.35162e-20
9.09309e-06 7.54988e-06 4.29317e-21
2.14529e-05 2.87352e-05 -3.5433e-22
-1.753e-05 -1.08224e-05 -1.4338e-20
-3.25461e-05 -7.51949e-07 -9.61616e-21
-1.63563e-05 -5.02229e-06 -1.15036e-20
-4.58352e-06 -1.66032e-05 -1.21142e-20
1.7706e-05 2.12647e-05 1.1065e-20
-1.09705e-05 5.88195e-06 1.09634e-20
6.36931e-07 -2.05801e-05 -1.54514e-20
-4.19914e-05 1.08645e-05 -4.9281e-21
2.48906e-05 2.02706e-05 -3.82291e-21
3.79957e-06 3.2825e-05 -1.20368e-20
-2.43491e-06 3.8018e-06 -3.77444e-20
-9.0619e-06 2.51526e-07 -2.54595e-20
4.36044e-06 7.76941e-06 -5.0787e-21
-1.1708e-05 3.40553e-06 -1.19786e-20
-2.07576e-06 -3.78943e-06 1.18866e-20
1.6619e-06 2.0785e-05 3.75751e-21
4.47786e-06 4.50202e-07 -1.52223e-20
-1.9562e-05 4.76253e-06 -2.04599e-20
-1.73193e-05 1.93819e-05 -1.20404e-20
-3.11118e-06 1.15922e-05 -2.41222e-20
-2.92526e-05 1.84172e-05 -1.46025e-20
-9.35456e-06 8.9901e-06 -5.8169e-21
1.73321e-05 -1.16278e-05 1.57095e-20
3.66485e-05 -3.56894e-06 9.26691e-21
-2.11662e-05 1.13111e-05 7.94662e-21
2.2357e-06 4.50366e-06 2.23513e-20
2.18017e-05 -4.35008e-06 6.60074e-21
-1.72998e-05 1.03654e-05 -4.13214e-21
-9.88378e-06 5.54578e-06 -2.83392e-20
1.18458e-05 3.74727e-06 1.60517e-20
2.19065e-05 -1.34873e-05 2.82117e-21
-1.74011e-05 9.96829e-06 1.2452e-20
-2.50677e-05 -5.30961e-06 -2.91358e-20
-1.6782e-05 -4.36781e-06 -1.67868e-20
9.8882e-06 6.30033e-09 1.70223e-20
1.01862e-05 1.95553e-07 -4.85064e-21
4.39616e-06 8.32726e-06 2.56323e-20
4.83547e-06 -8.80844e-06 -2.13133e-20
-5.01641e-06 8.43003e-06 -4.66322e-20
-5.27305e-06 -8.66806e-06 -3.08276e-20
9.92299e-06 -7.41692e-06 2.1953e-21
-2.0352e-05 3.2388e-06 -4.15564e-21
-2.00841e-05 -3.28767e-06 2.62391e-20
-1.28502e-05 1.58956e-05 -1.38545e-20
-1.29301e-05 -1.59499e-05 -1.48457e-20
7.49526e-06 -1.98677e-05 2.39457e-20
7.21467e-06 1.97877e-05 2.21078e-20
1.55998e-06 2.59164e-05 -6.86213e-21
1.12541e-05 -3.14058e-06 1.15512e-20
2.36285e-06 -3.87114e-06 1.69355e-20
-2.14375e-05 1.42344e-06 -1.28053e-20
7.68641e-06 -1.95365e-05 1.38224e-20
7.28216e-06 1.96852e-05 1.91217e-20
4.77454e-06 -5.27714e-08 1.13267e-20
8.97936e-06 2.44326e-05 2.6231e-22
-2.24491e-06 -4.02123e-06 -1.21646e-20
2.32067e-06 -1.13306e-05 -1.01649e-21
-2.24578e-05 -1.21665e-05 -2.57946e-20
-2.13837e-05 -1.15085e-05 -1.28457e-20
-2.19191e-05 1.36453e-05 -1.42657e-20
3.25513e-06 -1.23023e-05 1.20884e-20
-1.56711e-06 3.38609e-06 2.0622e-20
-5.8773e-07 -2.55998e-05 -2.15316e-21
-7.7292e-06 -2.44524e-05 -5.55201e-21
3.27431e-05 3.03984e-05 -1.17983e-20
3.54954e-05 -1.81731e-06 8.74109e-22
-1.27261e-05 -3.63645e-06 2.76528e-20
-2.29197e-05 -4.14362e-05 -1.36399e-20
8.3142e-06 1.37642e-05 -2.36871e-21
-2.52661e-05 3.03704e-06 -2.12172e-20
2.0089e-05 5.79323e-06 -1.58707e-21
-4.53851e-06 -3.27655e-08 -4.5944e-20
-4.67059e-06 -8.42262e-06 7.20258e-22
-7.08119e-06 -3.93793e-05 9.65472e-21
-9.71973e-06 -8.40759e-08 -1.1133e-20
-4.87335e-05 -1.8179e-06 -1.65477e-20
1.73295e-05 -1.91278e-05 -1.0282e-20
2.4323e-06 4.00375e-06 -1.45695e-20
-1.20619e-07 -1.75343e-05 -1.27542e-20
-9.82978e-06 2.41127e-05 -1.15578e-20
-4.3771e-06 8.63751e-06 -6.3676e-21
2.05805e-05 -1.3622e-05 7.70607e-21
-3.77032e-05 -1.35674e-05 -1.48664e-20
-1.52837e-05 -2.03901e-05 -1.32449e-20
4.98289e-06 8.39886e-06 3.31299e-20
1.66506e-05 5.16658e-06 7.63467e-21
-4.76937e-06 -7.34698e-06 -1.65329e-20
1.98196e-05 3.55139e-06 1.07138e-20
1.82096e-05 -9.83714e-06 1.52593e-20
-3.49133e-07 2.72042e-05 1.23223e-20
8.33013e-06 -1.36825e-05 6.60134e-21
4.88602e-05 2.20317e-06 -5.06147e-21
-4.24068e-05 1.14674e-05 4.38373e-22
2.28861e-05 1.15693e-05 2.02337e-20
-6.4602e-06 -1.7199e-05 -2.02074e-20
-1.53673e-05 -8.62804e-06 -1.14041e-20
2.882e-05 -2.10767e-07 7.45467e-21
-6.92638e-07 -2.42823e-05 -2.32904e-20
-1.26317e-05 -1.08863e-05 -1.00543e-20
1.02357e-05 -2.35261e-05 -7.35908e-21
-4.97021e-07 2.05786e-05 9.0462e-21
7.92688e-06 2.60971e-05 -4.17769e-21
1.72874e-05 -9.89529e-06 4.21255e-21
-1.89693e-05 1.93207e-05 -1.08098e-20
1.65466e-05 2.00518e-05 -1.54174e-21
-6.23003e-05 1.60399e-05 3.58066e-21
-1.01204e-05 2.60453e-05 -6.33409e-21
1.25331e-05 -1.52653e-05 -1.34254e-20
-7.03691e-06 -1.84184e-05 -3.62939e-20
-1.18667e-05 4.51082e-06 8.06117e-21
-2.59227e-05 -7.05382e-06 -2.19069e-20
-6.39318e-06 3.89013e-05 1.19165e-20
-1.262e-05 1.19158e-05 -1.33825e-20
2.07999e-05 -4.48055e-06 1.24827e-20
-6.87998e-06 -2.58233e-05 -5.91111e-21
-1.48854e-05 2.39181e-05 -8.35233e-23
-2.18132e-05 1.25789e-05 9.1545e-21
-2.05926e-05 -1.50726e-05 -2.11905e-20
1.80487e-05 -2.06781e-05 8.113e-21
-2.75619e-05 -1.45789e-06 -1.68788e-20
1.23819e-05 -4.08558e-05 9.46199e-21
1.94081e-05 -1.89342e-05 3.31662e-21
2.47607e-05 4.313e-05 3.62024e-21
1.97345e-06 1.98887e-05 2.50348e-20
2.96472e-06 -2.54497e-05 -5.07093e-23
-4.16829e-05 4.70145e-05 4.70769e-21
-1.27163e-05 -2.44393e-05 -1.63219e-20
1.63852e-05 -6.42764e-06 3.02681e-21
-2.41328e-06 2.58014e-05 -1.27004e-20
1.28974e-05 -1.18396e-05 1.08725e-20
1.38963e-05 2.43401e-05 2.29988e-21
1.72491e-05 -1.40203e-06 5.22717e-21
2.21459e-05 -6.32876e-05 9.71489e-22
-5.88258e-06 -1.28737e-05 -2.37671e-20
-2.32106e-05 1.00987e-05 -2.00177e-20
-2.00423e-05 1.87399e-05 8.15472e-21
2.16366e-05 1.45838e-05 -3.00565e-21
1.86936e-05 -1.07686e-05 1.29848e-20
1.49686e-05 1.26075e-05 1.38044e-20
-5.43408e-06 4.56375e-08 2.40081e-20
1.54211e-05 -2.3113e-05 -1.10158e-20
-1.70093e-05 -2.04324e-05 -2.40228e-20
2.25871e-05 9.78457e-06 -1.07824e-20
1.28209e-05 -1.2003e-05 8.92904e-21
9.56491e-06 -2.48796e-05 -7.772e-21
1.66778e-05 -6.94058e-06 8.92464e-21
-1.58232e-05 -7.55315e-06 -8.27718e-21
1.29839e-06 -2.63323e-05 -1.63097e-20
-2.61364e-05 4.4782e-06 -8.59184e-21
2.39334e-06 2.45704e-05 -1.5763e-21
2.0608e-05 6.63483e-06 -9.96024e-21
-2.1745e-05 -1.0714e-05 -1.5965e-20
-8.98708e-06 2.5639e-05 -1.22436e-20
-1.49683e-06 -2.42152e-05 -5.95067e-21
1.94882e-05 1.18506e-05 2.02697e-20
-1.77083e-06 1.81051e-05 1.6082e-20
-2.01615e-05 1.37183e-05 -9.55574e-21
2.35373e-05 1.14279e-05 2.32868e-21
-1.71345e-05 -9.99687e-06 -2.03839e-20
9.53258e-08 -1.98571e-05 -1.85613e-20
1.84032e-05 2.00067e-05 -8.00328e-23
-2.21787e-05 -1.43197e-05 -2.15082e-20
4.84062e-05 -3.40196e-05 3.81654e-21
1.79172e-05 -1.08346e-05 1.00553e-20
9.01272e-06 4.31363e-05 -1.84955e-20
1.70535e-05 -1.3694e-05 -1.39812e-21
-1.98932e-05 8.71368e-05 -5.89018e-21
-1.97829e-05 -8.6651e-05 -8.42343e-21
5.72521e-05 7.1797e-05 -6.00789e-21
5.699e-05 -7.147e-05 1.16294e-21
9.07499e-05 -1.04303e-10 -1.84824e-21
-7.829e-05 3.7691e-05 3.21324e-21
-7.75443e-05 -3.73337e-05 -2.56591e-21
1.22478e-05 1.18321e-05 1.21355e-20
2.94015e-05 2.19173e-05 2.66821e-20
1.14613e-05 3.33662e-06 1.49167e-20
1.88773e-05 9.76261e-06 3.82237e-21
4.99519e-06 2.01933e-05 -1.01889e-20
-1.88536e-05 -1.49979e-05 -1.51847e-20
1.70576e-05 -1.02259e-05 -2.26562e-21
1.98754e-05 1.45659e-05 5.01654e-21
-3.17036e-06 2.43921e-05 -8.45366e-21
2.94744e-05 -2.00157e-05 3.9031e-21
3.79855e-06 -2.37672e-05 4.71655e-21
2.19861e-05 5.233e-06 1.04521e-20
2.99303e-05 1.10386e-05 4.46857e-21
1.42251e-05 1.41601e-05 2.44773e-20
1.59015e-05 6.60124e-06 1.82157e-21
-1.85201e-05 1.09494e-05 4.95568e-21
-2.25894e-05 9.04725e-06 -1.79361e-20
2.29559e-05 -1.12764e-05 6.53981e-21
-1.8289e-05 -1.00097e-05 -1.11565e-20
-1.8576e-05 -1.05949e-05 -1.06885e-20
-3.44087e-07 -2.07918e-05 -9.39402e-21
-8.60222e-08 -2.11853e-05 -9.47269e-21
-2.01506e-05 -1.00663e-06 -1.37741e-20
2.67299e-05 -4.02374e-06 6.11113e-21
1.8133e-05 1.13552e-05 1.46572e-21
-1.78849e-05 1.09579e-05 5.9375e-22
-1.53792e-05 1.66429e-05 4.68425e-21
1.60408e-05 -1.37691e-05 -4.91915e-21
-1.10361e-05 1.74839e-05 1.34151e-20
-1.42414e-05 -1.49071e-05 -1.57207e-20
-1.15637e-06 2.12354e-05 -3.66419e-21
-1.28901e-06 2.09926e-05 8.28071e-21
8.99925e-08 -1.9857e-05 -1.84223e-20
6.11815e-06 -1.97602e-05 4.42226e-21
-1.71609e-05 -9.94713e-06 -1.79991e-20
1.56049e-05 -5.4966e-06 1.10832e-20
6.64141e-07 2.15028e-05 -7.6114e-21
3.01345e-07 1.85291e-05 1.17854e-20
-2.34832e-06 1.6877e-05 6.82356e-21
2.19343e-05 -5.53379e-06 1.69521e-20
-1.65605e-05 5.38442e-06 2.45977e-20
4.16251e-06 2.15425e-05 -2.08073e-20
-3.25963e-05 1.29344e-05 7.62177e-21
9.77559e-06 4.17801e-05 -6.2555e-21
-1.70733e-05 4.57353e-06 1.44033e-20
1.97074e-05 -1.16436e-05 1.55921e-20
9.47069e-07 2.10441e-05 -6.86077e-21
-2.05054e-05 6.70736e-06 -1.13992e-20
2.44706e-06 -1.62815e-05 -5.61114e-21
1.82322e-06 -5.8081e-05 6.268e-21
2.00898e-06 1.75067e-05 -1.9431e-20
-1.69819e-05 1.40393e-05 -4.97871e-21
1.7876e-05 6.40469e-05 -1.11054e-20
4.58228e-05 3.77509e-05 2.11954e-20
5.21259e-05 -3.52969e-05 -6.6324e-22
1.48329e-05 -1.0179e-05 -4.62591e-21
-1.5804e-05 1.40543e-05 2.78761e-22
-2.02408e-05 -7.93009e-06 -1.11027e-20
-1.96689e-05 -6.83056e-06 -2.54138e-20
5.93366e-05 -2.46408e-05 -4.37528e-21
5.75011e-05 2.38988e-05 4.65129e-21
1.09073e-05 3.82195e-06 2.67141e-20
7.67697e-07 1.96024e-05 -1.9752e-21
7.86043e-08 1.95837e-05 1.95018e-21
-4.844e-05 -3.69652e-05 -6.92436e-21
1.14388e-05 -1.71921e-05 -2.86786e-21
1.17471e-05 1.24793e-05 1.68312e-20
-2.14436e-05 -3.39977e-06 -1.63921e-20
-1.40615e-05 1.72227e-05 -2.33535e-21
-1.8911e-05 9.17877e-06 -9.13579e-21
4.77e-05 3.37332e-05 -1.27759e-20
1.58251e-05 7.06992e-06 9.75311e-21
-5.57313e-06 2.00543e-05 6.98794e-21
-1.69981e-05 -1.17633e-05 -1.3083e-20
1.85865e-06 -2.05672e-05 -3.61305e-22
-8.96021e-06 -1.92903e-05 -1.95497e-20
-1.72696e-05 -1.17877e-05 -2.12669e-20
1.05923e-05 -1.89581e-05 2.72643e-21
1.41393e-05 -1.70094e-05 4.08151e-21
-2.44227e-06 -6.15114e-05 6.91108e-21
2.62117e-05 -4.11743e-05 7.19099e-21
1.74977e-06 -2.08102e-05 -5.13349e-21
1.798e-05 1.13688e-05 1.30631e-20
-1.44935e-05 -1.49232e-05 -1.08929e-20
-9.85265e-06 1.97337e-05 9.25402e-21
-5.04525e-06 2.10318e-05 1.43102e-21
1.6647e-05 1.42606e-05 1.18775e-20
6.06641e-06 -1.9885e-05 -3.22378e-21
-1.34216e-05 -4.04069e-05 -1.1049e-20
-1.99063e-06 2.50702e-05 2.04787e-20
1.48096e-05 1.44722e-05 1.35738e-20
-1.29737e-05 -1.02289e-05 -2.88464e-21
-1.35311e-05 1.06209e-05 -2.99438e-21
4.43956e-05 -1.89353e-05 -8.53764e-21
7.57219e-06 -1.34161e-05 1.01073e-20
-8.32697e-06 -1.26422e-05 -1.36132e-20
2.13558e-05 6.3711e-06 2.1793e-21
1.10075e-05 -5.07222e-05 -4.94068e-21
-3.84972e-05 -3.49445e-05 -9.57972e-21
2.33344e-05 6.21471e-06 1.04237e-20
-9.33921e-06 -1.83032e-05 -7.37729e-21
1.87279e-05 9.494e-06 9.80594e-21
-2.85983e-05 -3.25914e-05 3.32646e-21
9.6998e-06 5.01064e-05 8.12369e-21
3.4375e-05 -5.99309e-05 -1.30232e-20
-3.47785e-05 -5.98476e-05 -4.41212e-21
2.78431e-05 -5.20835e-05 -6.90631e-21
-1.27131e-05 4.36852e-05 -3.56053e-21
-6.28346e-06 3.90238e-05 1.4652e-21
-1.87531e-05 8.95665e-06 -3.24871e-21
5.98442e-06 2.4271e-05 1.87735e-20
-2.39431e-06 1.26692e-05 1.94423e-20
1.01322e-05 3.23696e-06 8.46792e-21
-3.19214e-06 1.62247e-05 -1.09151e-20
-2.4763e-07 2.10167e-05 1.14589e-20
1.66804e-05 9.76212e-06 -4.35949e-22
1.71407e-06 5.77935e-05 -1.21661e-20
-1.47347e-05 1.07456e-05 4.66678e-21
1.59684e-05 -6.25398e-06 4.25614e-21
1.68919e-05 -4.51426e-06 5.02936e-21
-6.07373e-05 -8.77984e-06 -4.70709e-21
-3.46468e-05 1.67614e-05 5.47749e-21
-4.35668e-05 -5.26109e-05 -5.85078e-21
8.6669e-06 8.35563e-06 3.08278e-20
1.42268e-05 7.30117e-06 1.19408e-20
2.68367e-05 -4.20079e-06 8.58699e-21
-8.11396e-06 -1.32587e-05 -1.5069e-20
1.7237e-05 8.43858e-06 -3.35671e-21
7.34415e-06 -3.00703e-05 -1.03296e-20
-1.37299e-05 1.02173e-05 1.55229e-20
-2.24009e-05 -2.14478e-05 -1.36848e-20
-5.84281e-06 1.63172e-05 2.15159e-20
-3.27475e-06 2.07031e-05 1.81323e-20
3.389e-05 2.13216e-05 2.5904e-20
3.61561e-05 -1.93057e-05 4.43334e-21
-4.21217e-05 -1.16376e-05 -1.67437e-20
7.64323e-06 7.69482e-06 2.87045e-20
-4.06152e-06 0.000101482 -1.20946e-20
8.64709e-07 -0.000104592 -1.08677e-21
5.25185e-05 8.77491e-05 3.83275e-21
-1.91256e-05 8.46805e-06 5.05422e-21
-2.64065e-05 5.66188e-05 -1.53638e-20
5.30979e-05 -8.47405e-05 4.64971e-21
-1.17344e-05 -1.83043e-05 -6.32705e-21
7.80923e-05 6.75761e-05 1.36855e-21
2.40221e-05 -1.79981e-05 -6.46143e-21
-3.61162e-06 -2.98575e-05 -2.46347e-20
8.18754e-05 -6.59265e-05 -3.89142e-21
-6.7525e-06 1.45357e-05 1.34315e-20
-5.38979e-05 -3.48674e-05 -5.53829e-21
-4.30638e-05 -9.32442e-05 -8.60025e-21
-2.41404e-05 -5.7874e-05 -2.56379e-21
-4.40262e-05 9.42517e-05 -9.27706e-21
-1.01044e-05 6.41609e-05 -1.97065e-20
1.56514e-05 3.71522e-05 2.21371e-20
-2.79882e-05 3.72864e-05 -1.38678e-20
-2.53017e-05 -5.52511e-05 -6.65735e-21
0.000100484 1.73371e-05 -3.27956e-21
-1.69475e-05 1.078e-05 -1.25236e-21
-5.91923e-06 1.63523e-05 2.81777e-21
-5.08197e-05 3.76871e-05 1.66081e-21
-1.72967e-05 9.95602e-06 -4.06414e-21
9.93194e-05 -1.5281e-05 -1.35696e-20
-1.53784e-05 7.80805e-06 1.29207e-20
7.2013e-06 -1.4512e-05 1.33949e-20
-7.80621e-05 -6.10236e-05 -3.66056e-21
-2.59087e-05 5.77866e-05 -2.12474e-20
-7.92155e-05 6.045e-05 8.62122e-22
2.45706e-05 5.20113e-05 1.5165e-21
-1.4785e-05 1.05951e-05 6.53207e-21
-2.05541e-05 2.45056e-05 -1.9139e-21
-2.85663e-05 4.98768e-05 -2.21015e-21
-5.68432e-05 2.08298e-07 -1.32135e-21
-9.45084e-07 1.63153e-05 2.04939e-21
-2.88836e-05 -5.04661e-05 -7.98188e-21
-5.82672e-05 -2.20211e-07 -2.47178e-21
-2.83831e-05 4.87539e-05 2.10738e-21
-1.52082e-05 6.63445e-05 9.72499e-21
-1.7885e-05 4.13104e-05 -2.47312e-20
-3.39403e-05 2.71695e-05 -1.07782e-20
2.44117e-05 -6.06403e-06 -6.71569e-21
3.80476e-05 -2.19781e-06 4.63146e-21
1.34983e-05 8.20995e-06 1.79258e-20
-1.04815e-05 -7.40751e-05 -9.19134e-22
-6.9531e-05 -2.80073e-05 -7.6603e-21
3.71761e-05 7.33518e-07 3.27013e-20
5.84351e-05 -1.09047e-05 -1.08508e-20
-1.05962e-05 -1.35132e-05 -1.37581e-20
-5.08886e-05 3.76732e-05 1.29604e-23
-4.61882e-05 5.40659e-05 -2.66466e-21
6.24364e-05 -2.22583e-05 -1.11992e-20
-2.82107e-05 -5.05568e-05 -3.69855e-21
-2.88111e-05 4.98384e-05 -2.10252e-21
-5.73222e-05 -1.17261e-06 1.67387e-20
-2.66047e-05 5.06578e-05 1.47065e-21
-5.80218e-05 -8.17931e-07 -3.10236e-21
6.61542e-05 1.74131e-05 -1.43774e-20
5.64469e-05 1.29417e-06 -1.0794e-20
5.09603e-05 -2.93085e-05 9.87779e-21
2.49398e-05 -5.94972e-05 -3.58567e-21
2.99539e-05 -4.89146e-05 3.94927e-21
2.92019e-05 4.87384e-05 1.75899e-20
2.43739e-05 5.81579e-05 1.73286e-20
7.5892e-05 -2.00615e-05 3.20463e-20
4.6321e-05 2.90976e-05 2.83607e-20
4.66794e-05 1.37616e-05 2.07599e-20
TENSORS solid_stress_TPM float
375.113 -24.9236 1.89478e-14
-24.9236 238.619 -4.48471e-12
1.89478e-14 -4.48471e-12 197.865

457.123 -21.322 -2.73248e-12
-21.322 490.11 6.68206e-13
-2.73248e-12 6.68206e-13 487.226

454.995 28.0511 -2.9073e-13
28.0511 463.828 -1.61323e-12
-2.9073e-13 -1.61323e-12 458.572

455.151 -29.842 -1.06152e-12
-29.842 482.734 -1.46209e-12
-1.06152e-12 -1.46209e-12 484.974

527.778 19.9305 -4.18835e-12
19.9305 548.531 -1.85785e-12
-4.18835e-12 -1.85785e-12 527.449

437.423 -18.08 -3.74767e-12
-18.08 480.462 9.87062e-13
-3.74767e-12 9.87062e-13 458.153

372.407 26.4882 -7.67386e-13
26.4882 239.139 2.65861e-12
-7.67386e-13 2.65861e-12 197.849

473.768 29.9628 -3.31468e-12
29.9628 469.619 -3.86121e-12
-3.31468e-12 -3.86121e-12 472.45

471.674 5.48457 -1.62833e-12
5.48457 417.93 -3.98903e-13
-1.62833e-12 -3.98903e-13 432.906

504.381 -7.47781 1.65527e-12
-7.47781 444.23 -4.1959e-12
1.65527e-12 -4.1959e-12 483.566

360.382 16.3145 1.58688e-13
16.3145 247.711 3.38514e-12
1.58688e-13 3.38514e-12 233.703

444.895 -13.4563 -3.80229e-12
-13.4563 498.506 4.99156e-13
-3.80229e-12 4.99156e-13 472.351

466.983 27.8391 -1.09068e-12
27.8391 468.421 -6.71463e-13
-1.09068e-12 -6.71463e-13 466.847

457.148 -14.3431 1.92853e-12
-14.3431 500.553 7.44886e-13
1.92853e-12 7.44886e-13 483.569

513.034 33.3043 -2.83003e-12
33.3043 511.699 8.57032e-13
-2.83003e-12 8.57032e-13 515.326

489.298 0.561322 7.86334e-13
0.561322 435.637 -2.89774e-12
7.86334e-13 -2.89774e-12 462.386

457.696 -17.9681 -1.10763e-13
-17.9681 512.999 -3.93729e-12
-1.10763e-13 -3.93729e-12 493.706

494.082 -2.66519 -3.02306e-12
-2.66519 439.161 -5.4771e-15
-3.02306e-12 -5.4771e-15 474.378

418.9 26.6831 4.30974e-12
26.6831 449.778 -6.17166e-12
4.30974e-12 -6.17166e-12 424.161

482.106 -4.19709 1.38141e-12
-4.19709 425.03 8.28226e-14
1.38141e-12 8.28226e-14 453.587

425.404 8.67209 -1.61574e-12
8.67209 482.026 1.63129e-12
-1.61574e-12 1.63129e-12 444.952

634.144 6.28259 -1.89961e-12
6.28259 633.99 9.65006e-13
-1.89961e-12 9.65006e-13 570.38

479.277 1.87639 2.46736e-12
1.87639 423.047 -1.29874e-12
2.46736e-12 -1.29874e-12 449.844

447.276 -27.7234 2.28173e-12
-27.7234 461.268 -9.29035e-13
2.28173e-12 -9.29035e-13 453.06

481.173 6.85116 -1.78701e-12
6.85116 425.549 9.9402e-13
-1.78701e-12 9.9402e-13 453.051

449.871 19.1158 -2.13385e-12
19.1158 490.438 4.75945e-12
-2.13385e-12 4.75945e-12 478.319

377.748 4.18295 2.73322e-12
4.18295 291.721 3.2235e-12
2.73322e-12 3.2235e-12 259.068

462.799 30.7532 -7.86334e-13
30.7532 460.827 -7.57912e-14
-7.86334e-13 -7.57912e-14 460.655

385.04 37.0885 7.22385e-14
37.0885 383.619 -1.5099e-12
7.22385e-14 -1.5099e-12 348.51

586.994 10.3239 -8.64494e-14
10.3239 563.519 -9.01723e-13
-8.64494e-14 -9.01723e-13 546.952

491.811 14.2185 -3.78127e-12
14.2185 442.609 1.00897e-12
-3.78127e-12 1.00897e-12 465.969

352.943 -17.7873 3.03402e-12
-17.7873 416.835 -2.45374e-12
3.03402e-12 -2.45374e-12 348.681

331.096 -42.1147 4.56405e-12
-42.1147 335.953 -5.34091e-12
4.56405e-12 -5.34091e-12 253.546

531.481 5.98273 4.48203e-12
5.98273 586.952 -2.56684e-12
4.48203e-12 -2.56684e-12 538.665

554.09 -4.83455 -1.32013e-12
-4.83455 582.135 2.21156e-12
-1.32013e-12 2.21156e-12 542.594

578.048 21.0263 -2.64263e-12
21.0263 540.019 -5.37052e-13
-2.64263e-12 -5.37052e-13 538.433

556.249 5.06143 3.32297e-12
5.06143 600.724 7.31563e-13
3.32297e-12 7.31563e-13 548.048

573.838 -9.17271 3.46419e-12
-9.17271 555.838 -8.49339e-13
3.46419e-12 -8.49339e-13 540.721

467.243 -28.0044 -3.08494e-13
-28.0044 466.61 -2.44545e-13
-3.08494e-13 -2.44545e-13 465.22

330.48 41.5338 -2.72612e-12
41.5338 338.051 -4.00746e-12
-2.72612e-12 -4.00746e-12 253.905

414.636 -17.9558 4.37339e-12
-17.9558 354.575 -1.59754e-12
4.37339e-12 -1.59754e-12 346.41

559.369 -3.70086 1.04065e-12
-3.70086 599.973 3.17968e-13
1.04065e-12 3.17968e-13 548.461

586.469 19.5465 -1.01901e-11
19.5465 572.51 3.91598e-12
-1.01901e-11 3.91598e-12 548.25

491.016 -12.2745 2.63375e-12
-12.2745 442.964 -1.574e-12
2.63375e-12 -1.574e-12 466.641

341.792 -43.3144 -2.84928e-12
-43.3144 345.421 -1.72662e-12
-2.84928e-12 -1.72662e-12 289.049

417.663 -18.07 -7.79229e-13
-18.07 357.193 1.72484e-12
-7.79229e-13 1.72484e-12 351.586

413.11 17.0915 -3.54368e-12
17.0915 464.896 7.01187e-12
-3.54368e-12 7.01187e-12 428.827

429.732 19.3457 -2.10617e-12
19.3457 466.626 -2.6971e-12
-2.10617e-12 -2.6971e-12 437.183

486.892 -16.3049 4.18036e-13
-16.3049 432.974 -7.90775e-13
4.18036e-13 -7.90775e-13 458.78

355.662 -34.1983 -2.87651e-12
-34.1983 389.496 9.98313e-13
-2.87651e-12 9.98313e-13 332.647

410.352 19.189 -3.08139e-12
19.189 350.78 1.82432e-12
-3.08139e-12 1.82432e-12 339.558

425.305 -25.2976 -6.51331e-14
-25.2976 383.91 3.75226e-12
-6.51331e-14 3.75226e-12 373.166

519.996 19.4801 2.0024e-12
19.4801 547.612 -1.49984e-12
2.0024e-12 -1.49984e-12 525.816

416.514 29.6604 3.10152e-12
29.6604 393.98 -1.30148e-12
3.10152e-12 -1.30148e-12 374.03

522.261 -21.8125 1.87998e-12
-21.8125 541.47 1.72037e-12
1.87998e-12 1.72037e-12 524.464

364.154 -42.7255 -2.78059e-12
-42.7255 343.36 4.40773e-12
-2.78059e-12 4.40773e-12 289.767

553.512 5.45337 -1.78701e-12
5.45337 583.927 1.72425e-12
-1.78701e-12 1.72425e-12 542.969

373.803 -5.332 6.99115e-12
-5.332 436.772 5.94487e-13
6.99115e-12 5.94487e-13 373.914

580.871 10.3856 -2.3664e-12
10.3856 556.236 1.37775e-12
-2.3664e-12 1.37775e-12 542.725

435.159 21.4191 -4.85538e-13
21.4191 473.875 -7.10543e-13
-4.85538e-13 -7.10543e-13 454.777

513.678 5.75648 -1.991e-13
5.75648 452.913 -2.82589e-13
-1.991e-13 -2.82589e-13 494.968

522.56 11.4592 9.76404e-13
11.4592 487.958 1.11999e-12
9.76404e-13 1.11999e-12 507.177

383.792 31.8285 4.96906e-12
31.8285 315.261 1.8486e-12
4.96906e-12 1.8486e-12 269.934

482.184 -6.03805 7.0699e-13
-6.03805 528.282 -3.99621e-12
7.0699e-13 -3.99621e-12 504.199

487.194 9.52217 3.04601e-12
9.52217 523.791 -7.92344e-12
3.04601e-12 -7.92344e-12 507.594

456.557 -2.883 -8.32593e-13
-2.883 520.262 -1.65083e-12
-8.32593e-13 -1.65083e-12 487.908

464.559 23.4001 -1.44518e-12
23.4001 503.579 -5.87086e-12
-1.44518e-12 -5.87086e-12 495.544

496.863 8.4656 2.35367e-12
8.4656 444.504 6.14768e-13
2.35367e-12 6.14768e-13 477.805

445.615 -28.2476 3.02069e-12
-28.2476 459.641 -1.07706e-12
3.02069e-12 -1.07706e-12 451.274

501.797 -1.7121 -1.50073e-12
-1.7121 445.029 -4.24246e-12
-1.50073e-12 -4.24246e-12 489.177

519.609 -19.2561 -2.12571e-13
-19.2561 546.906 9.16896e-13
-2.12571e-13 9.16896e-13 525.55

523.389 21.3077 9.26666e-13
21.3077 542.994 8.928e-13
9.26666e-13 8.928e-13 525.352

353.493 -16.5898 -1.48785e-12
-16.5898 415.842 4.11641e-12
-1.48785e-12 4.11641e-12 346.199

506.123 -27.9392 6.16633e-12
-27.9392 485.405 4.28516e-12
6.16633e-12 4.28516e-12 493.979

449.832 -25.1409 -3.41061e-13
-25.1409 471.337 -1.66741e-12
-3.41061e-13 -1.66741e-12 458.686

357.954 -31.7205 -5.40486e-12
-31.7205 285.739 -2.41969e-12
-5.40486e-12 -2.41969e-12 249.918

498.585 3.224 -4.9866e-12
3.224 541.499 -2.93573e-12
-4.9866e-12 -2.93573e-12 513.735

501.829 28.9477 1.95814e-12
28.9477 474.653 -4.80238e-12
1.95814e-12 -4.80238e-12 487.759

448.552 19.6667 -3.33837e-12
19.6667 492.223 -2.3516e-12
-3.33837e-12 -2.3516e-12 477.75

440.307 8.00245 -6.31317e-12
8.00245 373.127 2.48246e-12
-6.31317e-12 2.48246e-12 383.03

386.547 -33.9475 2.0132e-14
-33.9475 360.293 -3.29692e-12
2.0132e-14 -3.29692e-12 319.515

537.79 -10.5856 7.64337e-12
-10.5856 556.219 4.13536e-12
7.64337e-12 4.13536e-12 531.334

482.764 23.9017 1.69494e-12
23.9017 504.66 3.76393e-13
1.69494e-12 3.76393e-13 502.144

385.468 -32.3956 1.82136e-12
-32.3956 345.389 -1.65201e-12
1.82136e-12 -1.65201e-12 317.16

422.307 10.7951 -6.43041e-13
10.7951 363.938 5.29887e-12
-6.43041e-13 5.29887e-12 350.341

307.721 -21.2134 5.65266e-12
-21.2134 388.539 -6.99411e-12
5.65266e-12 -6.99411e-12 288.187

434.547 14.4285 -1.89315e-12
14.4285 488.785 1.34648e-12
-1.89315e-12 1.34648e-12 460.991

509.824 23.1486 -3.64212e-12
23.1486 475.272 4.13625e-12
-3.64212e-12 4.13625e-12 490.047

338.321 42.2135 3.12757e-12
42.2135 349.655 7.19661e-12
3.12757e-12 7.19661e-12 289.023

634.235 16.5018 2.9905e-12
16.5018 603.102 -1.23679e-12
2.9905e-12 -1.23679e-12 565.387

372.979 -4.11002 -2.76312e-12
-4.11002 436.931 4.28694e-12
-2.76312e-12 4.28694e-12 373.521

637.139 -16.6273 -6.46054e-12
-16.6273 599.574 6.68088e-12
-6.46054e-12 6.68088e-12 564.895

534.026 -27.3343 3.86891e-12
-27.3343 507.33 1.08461e-12
3.86891e-12 1.08461e-12 515.808

505.402 27.4269 -3.00204e-12
27.4269 466.434 -5.62039e-12
-3.00204e-12 -5.62039e-12 485.174

427.037 -24.4194 1.7882e-13
-24.4194 386.334 -3.55982e-12
1.7882e-13 -3.55982e-12 376.073

359.023 31.3352 8.61355e-12
31.3352 396.105 -1.09897e-12
8.61355e-12 -1.09897e-12 339.286

339.905 -10.7088 8.88178e-13
-10.7088 408.496 3.13586e-12
8.88178e-13 3.13586e-12 319.186

453.221 21.9727 1.56912e-13
21.9727 494.797 9.20449e-13
1.56912e-13 9.20449e-13 483.279

533.208 16.7974 -2.12571e-13
16.7974 506.286 2.51503e-12
-2.12571e-13 2.51503e-12 513.448

443.563 15.1585 -1.91728e-12
15.1585 488.559 2.10084e-12
-1.91728e-12 2.10084e-12 464.392

451.599 15.959 -4.53208e-12
15.959 400.636 8.15052e-13
-4.53208e-12 8.15052e-13 403.848

374.581 -21.4806 -4.57767e-12
-21.4806 419.977 2.67638e-12
-4.57767e-12 2.67638e-12 357.288

389.821 -29.4012 -4.69906e-12
-29.4012 342.452 -2.61657e-12
-4.69906e-12 -2.61657e-12 314.47

455.082 -24.5769 -3.68328e-12
-24.5769 480.183 9.11567e-13
-3.68328e-12 9.11567e-13 478.483

466.539 27.456 2.4869e-14
27.456 478.855 1.60938e-12
2.4869e-14 1.60938e-12 479.919

452.335 23.1896 -6.69687e-13
23.1896 492.678 3.0876e-12
-6.69687e-13 3.0876e-12 482.156

466.397 13.1679 5.79712e-13
13.1679 529.876 -3.67291e-12
5.79712e-13 -3.67291e-12 501.484

490.983 9.37372 3.71851e-12
9.37372 437.998 -1.84756e-12
3.71851e-12 -1.84756e-12 462.166

327.789 -4.66652 5.1692e-12
-4.66652 403.486 -7.51281e-12
5.1692e-12 -7.51281e-12 314.491

462.698 -36.8286 -1.88294e-12
-36.8286 487.806 2.99886e-12
-1.88294e-12 2.99886e-12 492.859

445.961 27.4729 9.26666e-13
27.4729 463.386 -2.93336e-12
9.26666e-13 -2.93336e-12 455.124

305.741 2.17076 1.81277e-12
2.17076 393.461 -1.92083e-12
1.81277e-12 -1.92083e-12 297.331

386.094 34.6227 5.92119e-14
34.6227 332.527 9.78773e-13
5.92119e-14 9.78773e-13 306.323

453.465 -22.9783 2.57572e-14
-22.9783 480.189 1.81603e-12
2.57572e-14 1.81603e-12 476.285

501.516 5.73289 1.69612e-12
5.73289 441.432 2.3499e-12
1.69612e-12 2.3499e-12 481.123

422.491 27.214 1.47319e-12
27.214 389.865 8.88178e-13
1.47319e-12 8.88178e-13 374.33

570.612 12.7431 -1.22554e-12
12.7431 565.976 -1.84475e-12
-1.22554e-12 -1.84475e-12 542.997

396.28 24.3393 -9.78181e-13
24.3393 349.734 8.20677e-13
-9.78181e-13 8.20677e-13 319.125

569.235 -13.0525 4.24372e-12
-13.0525 565.888 -7.2428e-12
4.24372e-12 -7.2428e-12 542.453

375.185 0.778955 4.18332e-13
0.778955 438.986 -1.81544e-12
4.18332e-13 -1.81544e-12 374.737

461.592 -2.23612 -6.31436e-12
-2.23612 399.402 -2.5917e-12
-6.31436e-12 -2.5917e-12 417.387

538.291 -15.7635 -1.21518e-12
-15.7635 480.736 5.4623e-13
-1.21518e-12 5.4623e-13 513.577

457.361 24.3887 2.2142e-12
24.3887 487.905 3.41401e-12
2.2142e-12 3.41401e-12 488.466

461.366 -13.5361 -4.00602e-12
-13.5361 519.244 2.00136e-13
-4.00602e-12 2.00136e-13 495.821

515.082 -7.99833 -3.36412e-12
-7.99833 438.314 6.49851e-14
-3.36412e-12 6.49851e-14 494.387

488.411 -22.2782 -3.28789e-12
-22.2782 541.692 -9.25186e-13
-3.28789e-12 -9.25186e-13 515.846

556.122 -6.60209 -5.75421e-12
-6.60209 560.464 -4.05331e-12
-5.75421e-12 -4.05331e-12 538.812

463.984 -29.9093 -2.35663e-13
-29.9093 483.316 1.19519e-12
-2.35663e-13 1.19519e-12 483.712

341.789 11.4576 -3.4938e-12
11.4576 406.299 -8.76336e-13
-3.4938e-12 -8.76336e-13 319.565

422.591 -28.1569 -6.92779e-13
-28.1569 391.341 -6.26166e-12
-6.92779e-13 -6.26166e-12 375.243

507.464 -13.7674 -4.04077e-12
-13.7674 558.83 3.97371e-12
-4.04077e-12 3.97371e-12 525.341

501.176 0.506033 -1.28786e-12
0.506033 441.397 1.88198e-12
-1.28786e-12 1.88198e-12 487.199

477.048 -21.523 -1.85244e-12
-21.523 507.533 -6.01001e-13
-1.85244e-12 -6.01001e-13 501.61

459.216 25.6994 -1.82639e-12
25.6994 484.72 -5.72283e-13
-1.82639e-12 -5.72283e-13 488.094

394.531 -31.476 -9.43838e-13
-31.476 400.703 3.24126e-12
-9.43838e-13 3.24126e-12 357.614

552.189 -7.07839 -5.86516e-12
-7.07839 585.36 -2.98546e-12
-5.86516e-12 -2.98546e-12 542.683

347.294 -33.088 -1.84267e-12
-33.088 382.703 -6.08225e-12
-1.84267e-12 -6.08225e-12 303.512

490.988 -19.1842 5.38236e-13
-19.1842 448.494 2.00432e-13
5.38236e-13 2.00432e-13 467.233

519.815 1.97347 -1.32279e-12
1.97347 466.922 1.20496e-13
-1.32279e-12 1.20496e-13 502.936

570.629 17.8727 4.00006e-12
17.8727 566.537 -4.80801e-12
4.00006e-12 -4.80801e-12 542.456

375.384 20.1905 -1.06818e-12
20.1905 424.144 5.48302e-12
-1.06818e-12 5.48302e-12 360.314

489.192 27.2164 5.20176e-12
27.2164 468.65 -2.89398e-12
5.20176e-12 -2.89398e-12 476.746

454.496 -24.519 -6.32383e-13
-24.519 415.446 -7.75972e-13
-6.32383e-13 -7.75972e-13 418.707

454.827 -17.841 -2.25385e-12
-17.841 495.024 1.93534e-12
-2.25385e-12 1.93534e-12 482.751

379.294 35.0803 1.61293e-12
35.0803 366.121 1.68043e-12
1.61293e-12 1.68043e-12 317.129

449.267 -21.8324 2.27655e-12
-21.8324 491.824 -1.0596e-12
2.27655e-12 -1.0596e-12 479.885

485.601 30.8552 3.12461e-12
30.8552 465.24 1.61796e-12
3.12461e-12 1.61796e-12 473.551

480.439 -25.2492 1.64905e-12
-25.2492 442.473 7.59985e-13
1.64905e-12 7.59985e-13 455.55

448.332 -25.1327 -1.70382e-12
-25.1327 469.887 -3.65397e-12
-1.70382e-12 -3.65397e-12 458.207

445.461 -18.6947 -1.89952e-12
-18.6947 393.558 -6.1758e-13
-1.89952e-12 -6.1758e-13 397.358

470.771 -18.8555 -1.28312e-12
-18.8555 422.956 2.57128e-12
-1.28312e-12 2.57128e-12 437.638

459.116 -25.3388 1.12192e-12
-25.3388 485.546 3.45168e-13
1.12192e-12 3.45168e-13 488.937

386.639 35.9827 1.74438e-12
35.9827 382.083 2.70598e-12
1.74438e-12 2.70598e-12 348.204

444.606 15.3812 -3.81991e-12
15.3812 491.651 5.9804e-14
-3.81991e-12 5.9804e-14 467.249

469.508 26.427 -1.2319e-12
26.427 480.069 2.29683e-12
-1.2319e-12 2.29683e-12 482.655

456.257 25.4737 -1.66082e-12
25.4737 486.765 -9.48278e-13
-1.66082e-12 -9.48278e-13 487.357

457.914 11.6248 -8.13701e-13
11.6248 507.053 1.24463e-12
-8.13701e-13 1.24463e-12 486.122

432.064 -8.22992 2.43361e-12
-8.22992 370.846 6.17106e-12
2.43361e-12 6.17106e-12 363.399

376.872 18.6134 -2.05702e-12
18.6134 427.376 4.13299e-13
-2.05702e-12 4.13299e-13 363.975

452.424 -24.3851 3.8695e-13
-24.3851 478.504 2.19084e-13
3.8695e-13 2.19084e-13 470.822

440.856 25.674 -1.65438e-12
25.674 455.756 -3.03816e-12
-1.65438e-12 -3.03816e-12 437.912

391.053 -35.6425 8.37256e-13
-35.6425 380.371 -2.45848e-12
8.37256e-13 -2.45848e-12 350.178

369.031 38.3303 3.64153e-12
38.3303 327.329 7.72123e-13
3.64153e-12 7.72123e-13 295.755

363.735 -33.3235 1.25056e-12
-33.3235 394.534 3.77417e-12
1.25056e-12 3.77417e-12 342.064

398.029 -31.1711 1.7503e-12
-31.1711 404.294 5.68553e-12
1.7503e-12 5.68553e-12 363.064

502.975 -6.83853 -1.19845e-12
-6.83853 442.364 -1.11814e-12
-1.19845e-12 -1.11814e-12 482.428

393.261 30.3529 3.03875e-12
30.3529 409.082 -2.8552e-12
3.03875e-12 -2.8552e-12 363.524

429.812 13.2993 4.48826e-12
13.2993 372.337 -2.60769e-12
4.48826e-12 -2.60769e-12 362.804

350.225 13.3838 2.88362e-13
13.3838 418.621 -5.56592e-14
2.88362e-13 -5.56592e-14 348.561

379.571 -22.3487 -1.75326e-12
-22.3487 423.621 -8.7977e-12
-1.75326e-12 -8.7977e-12 363.538

491.297 -1.09396 1.86273e-12
-1.09396 550.964 1.40332e-13
1.86273e-12 1.40332e-13 516.398

372.953 2.24759 2.08707e-12
2.24759 437.9 3.58942e-12
2.08707e-12 3.58942e-12 373.613

357.975 31.1008 -2.55736e-12
31.1008 399.587 -2.69533e-12
-2.55736e-12 -2.69533e-12 342.045

458.099 12.1105 5.5229e-13
12.1105 510.671 -1.17654e-12
5.5229e-13 -1.17654e-12 488.509

421.559 -27.6577 1.81662e-12
-27.6577 389.167 1.37668e-12
1.81662e-12 1.37668e-12 375.165

524.853 20.5573 -2.29061e-12
20.5573 469.849 -8.28967e-14
-2.29061e-12 -8.28967e-14 500.833

535.01 26.2703 1.37668e-12
26.2703 506.95 -5.60737e-13
1.37668e-12 -5.60737e-13 516.186

494.928 -18.5725 1.1191e-13
-18.5725 449.128 9.02981e-14
1.1191e-13 9.02981e-14 470.96

554.664 -1.80697 3.03165e-13
-1.80697 516.105 3.86032e-12
3.03165e-13 3.86032e-12 525.804

473.396 -31.8157 6.65838e-13
-31.8157 475.805 -4.68366e-13
6.65838e-13 -4.68366e-13 478.683

412.703 23.3363 -8.14756e-13
23.3363 357.28 2.10735e-12
-8.14756e-13 2.10735e-12 348.178

464.291 30.1634 4.74287e-13
30.1634 482.885 9.68411e-13
4.74287e-13 9.68411e-13 483.314

464.553 29.2075 1.3823e-12
29.2075 482.358 6.24685e-13
1.3823e-12 6.24685e-13 482.875

394.043 30.6722 2.81849e-13
30.6722 405.825 -8.08834e-13
2.81849e-13 -8.08834e-13 360.958

502.959 27.0886 -3.4035e-12
27.0886 482.762 1.42997e-12
-3.4035e-12 1.42997e-12 490.835

415.458 3.52643 7.18122e-12
3.52643 339.096 -1.79978e-12
7.18122e-12 -1.79978e-12 340.909

493.227 31.8174 -5.51855e-13
31.8174 487.331 1.48711e-12
-5.51855e-13 1.48711e-12 495.678

476.421 -12.5987 -8.51837e-13
-12.5987 522.554 -9.4443e-13
-8.51837e-13 -9.4443e-13 500.347

537.016 24.2762 4.05453e-12
24.2762 507.488 -9.36732e-13
4.05453e-12 -9.36732e-13 516.722

468.292 -29.5805 7.21112e-12
-29.5805 480.087 1.52027e-12
7.21112e-12 1.52027e-12 483.171

464.656 -4.89635 3.97843e-12
-4.89635 521.662 -1.18542e-12
3.97843e-12 -1.18542e-12 491.079

401.04 -24.5652 2.75691e-12
-24.5652 349.106 2.60947e-12
2.75691e-12 2.60947e-12 324.031

419.072 29.704 -2.42769e-12
29.704 392.561 9.46206e-13
-2.42769e-12 9.46206e-13 373.862

352.427 14.7021 1.1912e-12
14.7021 417.319 4.41247e-12
1.1912e-12 4.41247e-12 348.326

500.647 -1.13987 1.14767e-12
-1.13987 442.909 -5.56814e-13
1.14767e-12 -5.56814e-13 487.819

492.591 0.0020623 1.56319e-12
0.0020623 438.212 -3.10871e-12
1.56319e-12 -3.10871e-12 474.529

453.077 23.1284 9.80105e-13
23.1284 479.824 1.58569e-12
9.80105e-13 1.58569e-12 475.696

481.412 23.8726 -1.18157e-12
23.8726 502.977 -1.31003e-12
-1.18157e-12 -1.31003e-12 501.357

456.702 -24.3814 -1.18403e-12
-24.3814 487.47 -1.38571e-12
-1.18403e-12 -1.38571e-12 488.608

457.937 -0.674764 1.95373e-12
-0.674764 518.051 1.41576e-12
1.95373e-12 1.41576e-12 486.503

459.001 25.5922 1.70234e-12
25.5922 486.585 2.79095e-12
1.70234e-12 2.79095e-12 488.63

465.681 -10.3112 -4.82518e-12
-10.3112 408.186 -1.70723e-12
-4.82518e-12 -1.70723e-12 427.331

400.968 -32.8457 3.37153e-12
-32.8457 415.064 -9.22521e-13
3.37153e-12 -9.22521e-13 385.266

518.206 -2.30429 -1.08905e-12
-2.30429 465.848 6.20245e-13
-1.08905e-12 6.20245e-13 501.034

391.974 -34.5211 -2.3069e-12
-34.5211 379.704 1.69287e-12
-2.3069e-12 1.69287e-12 347.508

478.108 19.0855 8.21121e-13
19.0855 509.314 5.04781e-13
8.21121e-13 5.04781e-13 501.953

506.225 -26.4806 3.00027e-12
-26.4806 470.352 -3.53465e-12
3.00027e-12 -3.53465e-12 487.38

425.115 -9.69391 4.72037e-12
-9.69391 366.823 -3.37952e-12
4.72037e-12 -3.37952e-12 356.074

530.363 -23.1945 -3.77535e-12
-23.1945 488.856 3.6365e-12
-3.77535e-12 3.6365e-12 506.59

501.015 2.35872 1.65645e-13
2.35872 444.697 2.00669e-12
1.65645e-13 2.00669e-12 489.32

521.292 -23.3252 -4.90274e-13
-23.3252 501.943 1.85318e-12
-4.90274e-13 1.85318e-12 508.636

502.131 -25.8617 2.33709e-12
-25.8617 461.6 -3.69541e-12
2.33709e-12 -3.69541e-12 481.354

498.949 -8.54898 1.64017e-13
-8.54898 445.249 -1.06744e-12
1.64017e-13 -1.06744e-12 479.459

482.334 -23.0698 1.58866e-12
-23.0698 505.1 -2.47158e-12
1.58866e-12 -2.47158e-12 502.644

428.653 -31.3529 -2.20624e-12
-31.3529 410.695 -5.88862e-12
-2.20624e-12 -5.88862e-12 399.102

503.381 -24.5928 5.19111e-12
-24.5928 464.822 7.07464e-12
5.19111e-12 7.07464e-12 482.269

441.362 10.8684 -5.29946e-12
10.8684 378.578 -7.82308e-12
-5.29946e-12 -7.82308e-12 387.901

500.146 26.3437 5.82319e-12
26.3437 498.686 -2.05598e-12
5.82319e-12 -2.05598e-12 500.211

463.873 -37.6078 1.55076e-12
-37.6078 488.51 3.04608e-13
1.55076e-12 3.04608e-13 494.197

464.981 37.2606 5.63105e-13
37.2606 487.422 2.86911e-12
5.63105e-13 2.86911e-12 493.912

446.454 -28.5704 1.93686e-12
-28.5704 500.134 -3.34547e-14
1.93686e-12 -3.34547e-14 492.428

448.688 27.0618 4.51491e-15
27.0618 500.825 -3.82864e-12
4.51491e-15 -3.82864e-12 492.615

513.189 -8.52576 -6.72795e-13
-8.52576 436.533 3.10862e-15
-6.72795e-13 3.10862e-15 492.875

511.352 9.27163 -1.34825e-12
9.27163 438.129 1.49362e-13
-1.34825e-12 1.49362e-13 492.513

501.776 -9.84887 1.28993e-12
-9.84887 451.854 5.53335e-13
1.28993e-12 5.53335e-13 483.133

510.965 32.1099 -3.65041e-13
32.1099 510.495 -2.54576e-12
-3.65041e-13 -2.54576e-12 514.158

509.742 -32.8475 2.84661e-12
-32.8475 510.172 -3.31235e-13
2.84661e-12 -3.31235e-13 513.797

481.919 16.067 1.81781e-12
16.067 539.227 -1.47526e-12
1.81781e-12 -1.47526e-12 514.429

483.112 -15.7998 -1.31998e-12
-15.7998 538.817 -6.40969e-13
-1.31998e-12 -6.40969e-13 514.45

556.953 -3.75276 2.13044e-12
-3.75276 506.924 4.01042e-12
2.13044e-12 4.01042e-12 525.087

558.506 3.61535 1.68724e-12
3.61535 505.249 -7.70347e-13
1.68724e-12 -7.70347e-13 525.458

387.407 9.84038 2.48349e-12
9.84038 449.318 -1.62951e-12
2.48349e-12 -1.62951e-12 397.19

472.503 -24.7788 1.05604e-12
-24.7788 480.871 2.33635e-12
1.05604e-12 2.33635e-12 485.089

443.59 -36.3837 -5.86864e-13
-36.3837 485.657 -1.40865e-12
-5.86864e-13 -1.40865e-12 486.745

473.768 -4.66534 -3.37508e-12
-4.66534 420.545 2.51243e-13
-3.37508e-12 2.51243e-13 436.45

540.351 -16.6896 -1.71019e-12
-16.6896 484.298 1.14338e-12
-1.71019e-12 1.14338e-12 515.389

541.071 16.1706 3.75107e-13
16.1706 485.521 1.71715e-14
3.75107e-13 1.71715e-14 515.995

506.984 0.121827 1.80078e-12
0.121827 423.681 -8.61261e-13
1.80078e-12 -8.61261e-13 487.119

384.89 23.3842 6.89819e-13
23.3842 432.413 -1.26003e-12
6.89819e-13 -1.26003e-12 385.576

442.462 36.1677 1.84297e-14
36.1677 485.336 2.33147e-13
1.84297e-14 2.33147e-13 485.951

452.718 -23.3973 -2.79347e-12
-23.3973 495.075 1.49984e-12
-2.79347e-12 1.49984e-12 483.706

443.366 23.3611 -2.49045e-12
23.3611 397.62 2.70835e-12
-2.49045e-12 2.70835e-12 400.477

531.065 23.8604 -1.80774e-12
23.8604 488.106 2.52331e-12
-1.80774e-12 2.52331e-12 507.348

428.592 -31.3247 6.75016e-12
-31.3247 410.98 -1.8184e-12
6.75016e-12 -1.8184e-12 398.921

519.969 -3.2341 -1.87613e-12
-3.2341 469.168 2.27314e-12
-1.87613e-12 2.27314e-12 502.793

439.527 -34.158 -1.18431e-12
-34.158 485.628 -3.24156e-12
-1.18431e-12 -3.24156e-12 485.941

389.282 8.32284 -1.73378e-12
8.32284 452.449 1.00779e-12
-1.73378e-12 1.00779e-12 400.959

385.977 21.8199 -4.34971e-12
21.8199 435.89 -1.61648e-12
-4.34971e-12 -1.61648e-12 388.795

383.945 35.7884 3.14297e-12
35.7884 362.422 3.7268e-12
3.14297e-12 3.7268e-12 318.41

408.291 1.57939 -1.17595e-12
1.57939 332.235 7.81871e-12
-1.17595e-12 7.81871e-12 327.409

485.567 -22.8067 -6.33656e-12
-22.8067 502.966 1.08517e-12
-6.33656e-12 1.08517e-12 501.856

351.965 31.1947 1.4353e-12
31.1947 388.931 6.06093e-12
1.4353e-12 6.06093e-12 312.438

451.466 23.6151 5.05788e-12
23.6151 478.535 1.25588e-12
5.05788e-12 1.25588e-12 465.327

442.316 -5.35148 -7.53175e-13
-5.35148 377.221 7.07597e-12
-7.53175e-13 7.07597e-12 387.839

464.277 11.2198 1.24996e-12
11.2198 407.401 -1.80863e-12
1.24996e-12 -1.80863e-12 425.029

505.5 0.42983 9.20745e-14
0.42983 421.703 -1.7137e-12
9.20745e-14 -1.7137e-12 485.791

449.473 -29.028 1.80744e-12
-29.028 502.113 -8.33111e-13
1.80744e-12 -8.33111e-13 493.701

572.56 -6.31589 1.82387e-12
-6.31589 589.541 -8.13571e-13
1.82387e-12 -8.13571e-13 549.329

463.26 37.4066 -1.92409e-12
37.4066 487.145 -1.30022e-12
-1.92409e-12 -1.30022e-12 493.177

408.844 1.66376 4.76064e-13
1.66376 331.682 -1.77606e-12
4.76064e-13 -1.77606e-12 308.984

404.338 -32.7993 -2.27433e-12
-32.7993 415.617 5.58901e-12
-2.27433e-12 5.58901e-12 387.49

443.268 36.609 2.65306e-12
36.609 485.629 9.55976e-13
2.65306e-12 9.55976e-13 486.688

444.784 -11.1355 1.80395e-12
-11.1355 499.053 2.00847e-12
1.80395e-12 2.00847e-12 471.551

386.171 -25.5244 -4.11937e-12
-25.5244 429.015 -3.41653e-12
-4.11937e-12 -3.41653e-12 384.663

449.573 28.827 1.10871e-12
28.827 501.746 2.30423e-12
1.10871e-12 2.30423e-12 493.4

452.828 -26.1508 -3.68357e-12
-26.1508 419.409 -4.65346e-12
-3.68357e-12 -4.65346e-12 419.624

579.61 10.4852 -4.79083e-12
10.4852 582.212 -2.7068e-12
-4.79083e-12 -2.7068e-12 549.114

398.431 30.8837 8.75744e-13
30.8837 422.17 -1.5478e-12
8.75744e-13 -1.5478e-12 388.263

515.82 8.1249 -3.48684e-12
8.1249 437.392 1.87835e-12
-3.48684e-12 1.87835e-12 494.693

493.914 30.1923 2.07419e-12
30.1923 484.861 6.56956e-13
2.07419e-12 6.56956e-13 493.909

453.581 23.3363 -6.40821e-13
23.3363 479.284 9.92687e-13
-6.40821e-13 9.92687e-13 475.912

510.799 -32.4823 2.10942e-12
-32.4823 512.553 -3.83532e-12
2.10942e-12 -3.83532e-12 515.105

510.414 -23.1954 5.06321e-12
-23.1954 473.285 2.6971e-13
5.06321e-12 2.6971e-13 489.782

511.482 10.4659 4.99193e-12
10.4659 558.076 1.3376e-12
4.99193e-12 1.3376e-12 523.822

452.288 -23.4384 -4.74287e-13
-23.4384 480.287 5.94428e-12
-4.74287e-13 5.94428e-12 469.064

394.511 -9.71163 4.5001e-14
-9.71163 316.488 4.52786e-12
4.5001e-14 4.52786e-12 295.651

387.39 -14.2817 3.63324e-12
-14.2817 306.13 -2.66157e-12
3.63324e-12 -2.66157e-12 290.124

547.668 16.5339 3.21373e-12
16.5339 507.852 1.96702e-12
3.21373e-12 1.96702e-12 519.413

436.599 22.5089 -4.23898e-12
22.5089 469.258 -1.45306e-12
-4.23898e-12 -1.45306e-12 447.935

476.076 29.1697 3.03816e-12
29.1697 467.755 -5.06143e-12
3.03816e-12 -5.06143e-12 471.588

450.423 0.688845 7.21201e-13
0.688845 392.876 -4.88297e-12
7.21201e-13 -4.88297e-12 395.776

478.445 6.56885 4.90232e-12
6.56885 541.374 -1.36306e-12
4.90232e-12 -1.36306e-12 507.638

507.447 16.5405 1.8332e-12
16.5405 461.246 -2.80487e-12
1.8332e-12 -2.80487e-12 488.189

390.076 -25.771 -3.95891e-12
-25.771 430.15 -3.25073e-12
-3.95891e-12 -3.25073e-12 387.834

456.42 -2.57074 2.8801e-12
-2.57074 517.126 4.17325e-12
2.8801e-12 4.17325e-12 484.946

400.691 13.3706 2.5245e-12
13.3706 453.106 -2.65269e-12
2.5245e-12 -2.65269e-12 404.74

487.026 -29.7187 4.08621e-12
-29.7187 465.919 -1.82817e-12
4.08621e-12 -1.82817e-12 474.365

430.41 -29.9582 1.75563e-12
-29.9582 423.739 -8.51467e-13
1.75563e-12 -8.51467e-13 405.059

399.813 31.6348 5.04071e-12
31.6348 418.341 -1.22569e-12
5.04071e-12 -1.22569e-12 386.101

624.029 -15.0174 -1.66297e-12
-15.0174 581.996 -9.1697e-13
-1.66297e-12 -9.1697e-13 557.973

494.613 2.04348 3.1332e-12
2.04348 552.232 4.67182e-12
3.1332e-12 4.67182e-12 518.019

483.606 20.2956 -5.53927e-13
20.2956 542.132 3.66433e-12
-5.53927e-13 3.66433e-12 516.128

544.795 15.4349 -1.91136e-12
15.4349 480.074 -1.94156e-12
-1.91136e-12 -1.94156e-12 515.85

473.861 -26.1937 5.50671e-13
-26.1937 479.87 -4.99334e-12
5.50671e-13 -4.99334e-12 483.127

452.245 17.9631 1.01489e-12
17.9631 404.611 3.67884e-12
1.01489e-12 3.67884e-12 407.022

531.649 -5.29023 2.35901e-12
-5.29023 580.866 3.28004e-12
2.35901e-12 3.28004e-12 537.2

512.3 -18.9871 2.98428e-12
-18.9871 464.902 -2.05199e-12
2.98428e-12 -2.05199e-12 493.135

474.098 -15.6027 1.69583e-12
-15.6027 423.282 -1.36025e-12
1.69583e-12 -1.36025e-12 438.988

402.102 11.6079 -4.73577e-12
11.6079 456.078 8.72783e-13
-4.73577e-12 8.72783e-13 407.884

411.029 -25.7439 6.0254e-12
-25.7439 435.697 -3.51956e-12
6.0254e-12 -3.51956e-12 399.059

532.14 -25.2742 1.5401e-12
-25.2742 523.275 -4.50706e-12
1.5401e-12 -4.50706e-12 519.211

423.166 31.971 2.82737e-12
31.971 417.356 1.04035e-12
2.82737e-12 1.04035e-12 400.408

535.575 -25.1327 -3.47189e-12
-25.1327 505.878 5.77701e-12
-3.47189e-12 5.77701e-12 515.755

453.616 2.59817 -7.72242e-12
2.59817 397.12 -9.96462e-12
-7.72242e-12 -9.96462e-12 402.001

311.173 -28.9407 2.68171e-12
-28.9407 376.693 7.18359e-12
2.68171e-12 7.18359e-12 290.069

431.987 -29.2414 -8.52651e-13
-29.2414 424.158 9.07245e-12
-8.52651e-13 9.07245e-12 406.258

353.848 32.1702 6.91477e-12
32.1702 392.645 9.54496e-13
6.91477e-12 9.54496e-13 313.049

470.444 -11.8748 2.41903e-12
-11.8748 529.654 -3.04408e-12
2.41903e-12 -3.04408e-12 500.405

391.549 -13.8264 4.72689e-12
-13.8264 449.372 2.71901e-12
4.72689e-12 2.71901e-12 400.301

602.897 -23.9793 -2.42399e-12
-23.9793 602.302 7.12467e-13
-2.42399e-12 7.12467e-13 557.914

408.477 23.7797 -3.77772e-13
23.7797 442.057 -2.07005e-12
-3.77772e-13 -2.07005e-12 402.326

496.683 -32.7267 -2.05998e-12
-32.7267 490.743 -2.17012e-12
-2.05998e-12 -2.17012e-12 497.55

388.287 -11.9675 -1.90995e-12
-11.9675 448.404 -1.97176e-12
-1.90995e-12 -1.97176e-12 397.118

516.821 -19.116 2.62575e-12
-19.116 465.861 1.60583e-12
2.62575e-12 1.60583e-12 496.349

410.792 23.8861 2.41821e-12
23.8861 439.429 -2.29032e-12
2.41821e-12 -2.29032e-12 400.802

489.045 -4.97627 2.47269e-12
-4.97627 435.182 1.43504e-12
2.47269e-12 1.43504e-12 460.495

305.852 -30.3508 1.83675e-12
-30.3508 391.532 -1.30503e-12
1.83675e-12 -1.30503e-12 262.635

438.721 21.0196 -4.61468e-12
21.0196 474.035 5.72994e-12
-4.61468e-12 5.72994e-12 458.462

445.807 -19.3301 8.009e-12
-19.3301 394.078 -2.66986e-12
8.009e-12 -2.66986e-12 399.727

551.687 -21.4451 2.14939e-13
-21.4451 499.609 5.67368e-12
2.14939e-13 5.67368e-12 520.198

424.582 31.7654 -2.62309e-12
31.7654 413.43 2.81079e-12
-2.62309e-12 2.81079e-12 398.063

459.28 -29.9802 -3.76055e-12
-29.9802 437.748 -6.66726e-13
-3.76055e-12 -6.66726e-13 439.409

510.733 20.8876 -2.91855e-12
20.8876 476.177 -4.88261e-12
-2.91855e-12 -4.88261e-12 492.863

461.625 -28.0771 4.67952e-12
-28.0771 485.862 1.96199e-12
4.67952e-12 1.96199e-12 488.833

413.83 -26.235 -1.67096e-12
-26.235 436.363 -1.44832e-12
-1.67096e-12 -1.44832e-12 401.545

426.189 28.9915 2.68763e-12
28.9915 430.014 -1.23634e-12
2.68763e-12 -1.23634e-12 406.969

452.621 26.1996 -2.53308e-12
26.1996 418.336 1.157e-12
-2.53308e-12 1.157e-12 419.167

522.076 -14.6144 -5.34683e-13
-14.6144 477.281 -3.17701e-12
-5.34683e-13 -3.17701e-12 500.169

403.667 -16.6241 -9.35844e-13
-16.6241 451.866 9.23706e-14
-9.35844e-13 9.23706e-14 406.551

496.169 -17.5702 -1.4874e-12
-17.5702 447.719 4.54155e-13
-1.4874e-12 4.54155e-13 471.614

487.887 16.913 -4.83524e-12
16.913 436.369 5.50671e-13
-4.83524e-12 5.50671e-13 460.702

513.426 -9.38206 2.99501e-12
-9.38206 555.868 -6.08698e-13
2.99501e-12 -6.08698e-13 523.124

454.104 -13.4342 8.91376e-12
-13.4342 402.284 1.43752e-12
8.91376e-12 1.43752e-12 406.851

403.307 0.594763 -1.48193e-12
0.594763 465.851 7.08174e-13
-1.48193e-12 7.08174e-13 417.914

475.152 18.5594 3.30521e-12
18.5594 428.882 3.02188e-12
3.30521e-12 3.02188e-12 442.334

451.264 27.6127 -3.46982e-12
27.6127 421.95 2.66809e-12
-3.46982e-12 2.66809e-12 420.954

400.975 -15.6922 8.24822e-13
-15.6922 451.506 -3.64035e-12
8.24822e-13 -3.64035e-12 403.844

406.106 -1.20219 -1.83927e-13
-1.20219 468.161 -8.92915e-13
-1.83927e-13 -8.92915e-13 421.33

516.303 29.1355 -5.03301e-12
29.1355 498.123 5.2666e-12
-5.03301e-12 5.2666e-12 504.978

441.818 -10.9249 -9.49019e-13
-10.9249 500.78 1.03029e-12
-9.49019e-13 1.03029e-12 471.262

451.561 -26.7242 -1.97768e-12
-26.7242 418.877 -7.75676e-13
-1.97768e-12 -7.75676e-13 419.463

444.508 21.3403 -3.6285e-12
21.3403 395.402 -1.86458e-12
-3.6285e-12 -1.86458e-12 398.307

497.715 23.6681 -4.39175e-12
23.6681 458.201 1.32427e-12
-4.39175e-12 1.32427e-12 476.663

447.793 5.47345 -2.19987e-12
5.47345 508.91 1.40155e-12
-2.19987e-12 1.40155e-12 476.994

427.765 29.0761 -8.1594e-13
29.0761 426.55 -1.57918e-12
-8.1594e-13 -1.57918e-12 405.218

536.915 22.9644 -1.42819e-12
22.9644 531.979 4.41129e-12
-1.42819e-12 4.41129e-12 522.88

314.827 -59.7085 1.84504e-12
-59.7085 282.834 -4.38168e-14
1.84504e-12 -4.38168e-14 223.481

480.714 -25.0549 1.35003e-12
-25.0549 445.184 7.46366e-13
1.35003e-12 7.46366e-13 456.759

336.748 7.07226 -2.37084e-12
7.07226 409.267 -7.99361e-12
-2.37084e-12 -7.99361e-12 319.526

460.658 -28.8978 -4.33668e-12
-28.8978 444.854 1.76866e-12
-4.33668e-12 1.76866e-12 443.566

96.4437 -52.7117 1.78228e-12
-52.7117 306.681 -9.9476e-14
1.78228e-12 -9.9476e-14 113.727

95.9776 51.4622 2.76283e-12
51.4622 306.945 9.56864e-13
2.76283e-12 9.56864e-13 114.515

181.554 117.178 -2.95823e-12
117.178 226.122 -2.84217e-14
-2.95823e-12 -2.84217e-14 113.615

182.852 -117.121 -9.02389e-13
-117.121 223.357 2.3069e-12
-9.02389e-13 2.3069e-12 113.589

321.649 -1.36373 -4.55695e-12
-1.36373 84.6709 6.45953e-14
-4.55695e-12 6.45953e-14 114.956

274.49 -91.1442 7.35175e-12
-91.1442 127.445 -3.27087e-12
7.35175e-12 -3.27087e-12 113.829

275.187 91.6722 5.44749e-13
91.6722 128.278 -8.88178e-13
5.44749e-13 -8.88178e-13 114.6

525.346 14.334 -2.80368e-13
14.334 474.818 -4.77248e-12
-2.80368e-13 -4.77248e-12 502.421

556.875 25.5332 -1.63514e-12
25.5332 541.257 -8.753e-13
-1.63514e-12 -8.753e-13 533.539

492.219 6.60807 1.37727e-12
6.60807 439.235 -2.12682e-12
1.37727e-12 -2.12682e-12 471.518

470.423 21.7913 3.50002e-12
21.7913 424.626 1.82876e-12
3.50002e-12 1.82876e-12 438.307

410.083 17.7506 2.13533e-12
17.7506 461.198 8.87586e-13
2.13533e-12 8.87586e-13 425.155

448.13 28.9081 -1.69701e-12
28.9081 424.819 -1.10253e-12
-1.69701e-12 -1.10253e-12 420.861

487.265 -29.669 1.40451e-12
-29.669 465.742 -1.07262e-12
1.40451e-12 -1.07262e-12 474.702

449.488 28.0373 -3.49232e-12
28.0373 421.183 3.60541e-12
-3.49232e-12 3.60541e-12 418.752

403.069 -2.84284 -5.93895e-13
-2.84284 465.508 1.45069e-12
-5.93895e-13 1.45069e-12 417.651

555.882 -26.0941 1.26329e-12
-26.0941 543.449 -1.03502e-12
1.26329e-12 -1.03502e-12 533.782

405.608 -4.86472 5.6651e-12
-4.86472 467.246 -1.73846e-12
5.6651e-12 -1.73846e-12 420.71

522.394 23.0203 -2.23466e-12
23.0203 499.845 -8.55464e-13
-2.23466e-12 -8.55464e-13 508.073

423.494 26.8807 1.6828e-12
26.8807 386.609 -3.42659e-12
1.6828e-12 -3.42659e-12 373.127

480.223 -13.2169 -7.09581e-12
-13.2169 532.87 6.21725e-15
-7.09581e-12 6.21725e-15 512.107

484.323 13.7317 4.74287e-13
13.7317 432.887 2.69947e-12
4.74287e-13 2.69947e-12 456.989

457.489 -29.9962 -2.52006e-12
-29.9962 437.09 8.31098e-12
-2.52006e-12 8.31098e-12 437.946

454.432 -24.7211 5.35749e-12
-24.7211 416.914 4.50425e-12
5.35749e-12 4.50425e-12 419.964

547.493 -16.0794 -3.85914e-12
-16.0794 509.398 3.59535e-12
-3.85914e-12 3.59535e-12 519.481

476.094 27.9356 3.93404e-12
27.9356 449.818 8.90843e-13
3.93404e-12 8.90843e-13 457.038

469.224 23.9847 5.63638e-12
23.9847 427.96 2.65565e-12
5.63638e-12 2.65565e-12 439.943

432.537 -2.79251 1.77384e-12
-2.79251 493.762 -1.1949e-12
1.77384e-12 -1.1949e-12 457.22

417.715 5.8745 3.96118e-12
5.8745 479.683 1.16055e-12
3.96118e-12 1.16055e-12 440.29

463.139 2.64759 2.87415e-12
2.64759 402.386 -6.89752e-12
2.87415e-12 -6.89752e-12 422.433

438.77 -7.29242 2.06057e-13
-7.29242 374.012 -3.40158e-12
2.06057e-13 -3.40158e-12 381.321

454.963 30.4937 -3.05e-12
30.4937 439.129 -3.23001e-12
-3.05e-12 -3.23001e-12 437.949

478.586 -26.1626 -3.606e-13
-26.1626 443.656 8.10996e-12
-3.606e-13 8.10996e-12 454.76

525.807 -21.2555 -1.33937e-12
-21.2555 497.928 7.35767e-12
-1.33937e-12 7.35767e-12 508.722

437.849 -31.644 5.99935e-12
-31.644 437.772 2.87533e-12
5.99935e-12 2.87533e-12 426.971

417.702 -27.7955 -2.2915e-13
-27.7955 444.518 6.34159e-13
-2.2915e-13 6.34159e-13 419.8

430.762 29.8974 2.66454e-12
29.8974 442.864 -1.59339e-12
2.66454e-12 -1.59339e-12 426.61

416.333 -9.58073 -1.12103e-12
-9.58073 475.338 2.70598e-13
-1.12103e-12 2.70598e-13 436.568

429.005 -1.54642 -2.42969e-12
-1.54642 491.993 -8.82849e-13
-2.42969e-12 -8.82849e-13 454.108

445.289 5.74734 1.77243e-12
5.74734 508.163 6.26462e-13
1.77243e-12 6.26462e-13 475.026

414.729 -21.0966 -8.62717e-13
-21.0966 458.532 9.62785e-13
-8.62717e-13 9.62785e-13 426.177

496.985 24.1169 -2.77881e-12
24.1169 455.807 5.51855e-13
-2.77881e-12 5.51855e-13 474.704

483.5 -9.59242 -3.16192e-13
-9.59242 430.223 -4.69254e-13
-3.16192e-13 -4.69254e-13 455.336

415.741 7.46713 1.56197e-12
7.46713 477.247 -7.15872e-13
1.56197e-12 -7.15872e-13 437.026

444.064 -9.70205 -3.06917e-13
-9.70205 501.626 -2.54611e-14
-3.06917e-13 -2.54611e-14 471.12

433.286 -16.3353 -1.16766e-12
-16.3353 481.802 1.09897e-12
-1.16766e-12 1.09897e-12 455.783

463.667 -8.24183 -1.97057e-12
-8.24183 406.442 4.17089e-12
-1.97057e-12 4.17089e-12 421.582

494.546 -32.3468 -3.42422e-12
-32.3468 487.731 -7.14836e-12
-3.42422e-12 -7.14836e-12 496.362

423.055 9.32477 1.61027e-12
9.32477 479.218 -1.30917e-12
1.61027e-12 -1.30917e-12 441.093

564.433 -18.214 -3.56308e-12
-18.214 530.033 -4.28946e-12
-3.56308e-12 -4.28946e-12 531.922

309.125 24.8316 -9.031e-12
24.8316 379.524 -6.91832e-12
-9.031e-12 -6.91832e-12 289.875

501.808 -26.6293 1.05308e-12
-26.6293 499.594 2.76756e-12
1.05308e-12 2.76756e-12 501.307

515.753 -30.2034 -3.59061e-12
-30.2034 498.502 3.76055e-12
-3.59061e-12 3.76055e-12 505.022

429.332 -0.700278 -6.83897e-13
-0.700278 492.119 -2.74862e-12
-6.83897e-13 -2.74862e-12 454.259

475.009 -16.6266 -5.67072e-12
-16.6266 428.45 -1.95577e-12
-5.67072e-12 -1.95577e-12 442.071

462.413 12.8425 -2.17419e-13
12.8425 511.393 -7.4903e-13
-2.17419e-13 -7.4903e-13 489.233

240.83 -3.18252 -2.57668e-12
-3.18252 360.778 1.71714e-12
-2.57668e-12 1.71714e-12 227.024

432.515 14.2772 2.06331e-12
14.2772 485.482 1.2701e-12
2.06331e-12 1.2701e-12 456.997

458.232 -29.4982 -6.62107e-12
-29.4982 443.289 6.31672e-12
-6.62107e-12 6.31672e-12 440.876

304.259 25.1126 -3.15244e-12
25.1126 394.683 -8.8581e-13
-3.15244e-12 -8.8581e-13 264.41

603.594 26.0892 -9.52483e-12
26.0892 597.997 -1.64802e-12
-9.52483e-12 -1.64802e-12 558.231

608.325 -27.7975 5.51677e-12
-27.7975 595.073 9.25334e-13
5.51677e-12 9.25334e-13 558.364

463.612 -30.4266 2.83625e-13
-30.4266 459.155 -3.46774e-12
2.83625e-13 -3.46774e-12 459.187

434.701 -31.1708 -9.06534e-13
-31.1708 436.477 4.207e-12
-9.06534e-13 4.207e-12 424.775

474.228 20.8327 3.58054e-12
20.8327 432.028 1.525e-12
3.58054e-12 1.525e-12 444.087

465.349 15.011 1.66741e-12
15.011 410.225 3.65101e-12
1.66741e-12 3.65101e-12 427.576

646.084 3.07785 -9.83791e-12
3.07785 645.74 1.72995e-12
-9.83791e-12 1.72995e-12 574.682

649.903 -6.99176 -2.3231e-12
-6.99176 641.413 7.07123e-12
-2.3231e-12 7.07123e-12 575.21

497.117 4.82397 -4.0945e-12
4.82397 442.154 -1.29644e-12
-4.0945e-12 -1.29644e-12 477.531

443.669 6.73389 -1.58318e-13
6.73389 503.112 5.4919e-12
-1.58318e-13 5.4919e-12 471.164

442.08 6.73662 2.3792e-12
6.73662 502.637 4.97794e-12
2.3792e-12 4.97794e-12 469.886

321.613 58.652 2.7119e-12
58.652 281.19 -1.80952e-12
2.7119e-12 -1.80952e-12 225.135

420.341 -28.21 -9.05942e-13
-28.21 444.145 6.59028e-13
-9.05942e-13 6.59028e-13 421.144

520.693 17.9733 -2.88806e-12
17.9733 467.644 -1.20467e-12
-2.88806e-12 -1.20467e-12 499.621

473.11 9.54205 3.74101e-12
9.54205 421.309 2.71797e-12
3.74101e-12 2.71797e-12 436.318

440.749 -26.7321 -5.73704e-12
-26.7321 450.85 8.92323e-13
-5.73704e-12 8.92323e-13 433.53

469.402 -20.244 -1.83557e-14
-20.244 422.827 2.70865e-12
-1.83557e-14 2.70865e-12 437.29

312.55 60.2499 -2.75217e-12
60.2499 281.438 3.52311e-12
-2.75217e-12 3.52311e-12 223.272

492.794 31.0717 2.00136e-12
31.0717 489.149 -3.69482e-12
2.00136e-12 -3.69482e-12 493.247

410.972 -19.7931 -1.03029e-12
-19.7931 458.007 -1.41812e-12
-1.03029e-12 -1.41812e-12 423.611

474.249 28.8651 3.18797e-12
28.8651 449.747 7.99361e-14
3.18797e-12 7.99361e-14 456.633

431.067 -4.14705 5.1185e-12
-4.14705 493.098 1.42109e-14
5.1185e-12 1.42109e-14 456.582

424.044 19.616 2.03186e-12
19.616 465.839 6.33686e-12
2.03186e-12 6.33686e-12 434.223

452.868 30.5283 -2.0961e-12
30.5283 443.715 5.50078e-13
-2.0961e-12 5.50078e-13 439.722

428.758 -22.4811 -2.14762e-12
-22.4811 461.263 -3.43725e-12
-2.14762e-12 -3.43725e-12 433.928

443.693 -27.3614 2.62546e-12
-27.3614 450.556 -2.61184e-12
2.62546e-12 -2.61184e-12 435.16

294.849 11.2605 1.27483e-12
11.2605 372.681 1.74083e-12
1.27483e-12 1.74083e-12 258.169

357.391 -33.4682 -5.68434e-14
-33.4682 389.221 6.11304e-12
-5.68434e-14 6.11304e-12 314.213

419.767 -11.6941 6.10963e-12
-11.6941 476.488 7.67386e-13
6.10963e-12 7.67386e-13 439.459

478.518 26.492 8.64494e-13
26.492 446.914 -2.30986e-12
8.64494e-13 -2.30986e-12 456.197

452.465 29.4865 1.99248e-12
29.4865 449.147 -3.76055e-12
1.99248e-12 -3.76055e-12 442.515

426.924 -21.4414 -2.72197e-12
-21.4414 461.911 -9.89431e-13
-2.72197e-12 -9.89431e-13 432.745

423.043 -11.7869 4.52734e-12
-11.7869 476.775 1.46846e-12
4.52734e-12 1.46846e-12 440.043

457.827 28.4182 -5.35098e-12
28.4182 447.207 -3.83456e-12
-5.35098e-12 -3.83456e-12 442.685

425.218 -13.8827 -1.17624e-12
-13.8827 476.546 -1.53418e-12
-1.17624e-12 -1.53418e-12 442.22

311.342 27.8654 -2.56624e-12
27.8654 377.492 3.5314e-12
-2.56624e-12 3.5314e-12 290.062

485.267 -4.03895 -2.6438e-12
-4.03895 545.149 -2.26071e-12
-2.6438e-12 -2.26071e-12 511.138

433.101 31.0382 -1.37372e-13
31.0382 439.747 -4.20168e-12
-1.37372e-13 -4.20168e-12 426.132

509.427 14.905 -3.23179e-12
14.905 463.272 2.70806e-12
-3.23179e-12 2.70806e-12 488.718

517.032 -15.9315 -1.24937e-13
-15.9315 467.691 -2.00136e-13
-1.24937e-13 -2.00136e-13 494.033

384.028 -24.2129 -1.83083e-12
-24.2129 306.023 -8.30151e-13
-1.83083e-12 -8.30151e-13 285.43

442.397 -21.2725 4.57797e-12
-21.2725 476.127 1.78287e-12
4.57797e-12 1.78287e-12 459.439

447.947 26.7052 4.99393e-12
26.7052 466.332 -4.38642e-12
4.99393e-12 -4.38642e-12 457.959

523.071 -21.7269 4.24668e-12
-21.7269 543.893 -1.37583e-12
4.24668e-12 -1.37583e-12 525.405

579.632 14.0987 -5.56399e-12
14.0987 617.658 2.75365e-12
-5.56399e-12 2.75365e-12 557.126

620.241 9.44495 6.34115e-12
9.44495 576.893 -9.27732e-12
6.34115e-12 -9.27732e-12 556.945

523.567 32.7022 -7.56432e-13
32.7022 520.741 5.29206e-13
-7.56432e-13 5.29206e-13 519.622

415.002 26.0098 2.67282e-12
26.0098 449.029 5.28644e-12
2.67282e-12 5.28644e-12 420.488

478.217 26.6673 1.04213e-12
26.6673 444.881 4.79616e-14
1.04213e-12 4.79616e-14 455.621

332.448 45.2019 2.79835e-12
45.2019 349.581 1.74201e-12
2.79835e-12 1.74201e-12 286.816

571.443 -11.3373 -1.87791e-12
-11.3373 614.512 4.44178e-12
-1.87791e-12 4.44178e-12 554.671

641.34 -3.42935 3.26175e-12
-3.42935 636.894 -5.44009e-13
3.26175e-12 -5.44009e-13 572.46

634.929 -0.206902 4.17577e-12
-0.206902 643.19 -6.90337e-12
4.17577e-12 -6.90337e-12 572.287

273.027 -53.8183 4.9738e-13
-53.8183 316.525 -7.15043e-12
4.9738e-13 -7.15043e-12 220.966

566.714 -11.5971 -6.95296e-13
-11.5971 562.191 -2.09699e-12
-6.95296e-13 -2.09699e-12 540.985

563.829 8.80875 1.41361e-12
8.80875 587.024 -1.55668e-12
1.41361e-12 -1.55668e-12 546.921

478.367 -26.2051 2.93099e-13
-26.2051 440.553 -6.80345e-13
2.93099e-13 -6.80345e-13 453.595

494.443 1.00833 -1.6086e-12
1.00833 545.859 -6.27468e-12
-1.6086e-12 -6.27468e-12 514.158

447.769 -20.2729 -3.36176e-12
-20.2729 484.284 -1.49806e-12
-3.36176e-12 -1.49806e-12 470.755

506.425 6.25594 -1.04953e-12
6.25594 443.497 2.17285e-12
-1.04953e-12 2.17285e-12 486.242

461.388 15.5961 -8.25034e-13
15.5961 521.365 -1.09246e-13
-8.25034e-13 -1.09246e-13 497.667

471.283 7.19009 -9.18265e-13
7.19009 528.116 -5.34743e-12
-9.18265e-13 -5.34743e-12 497.797

493.883 20.3984 1.50635e-12
20.3984 451.628 -2.57513e-12
1.50635e-12 -2.57513e-12 469.863

241.12 -3.11392 -3.62606e-12
-3.11392 358.65 3.7043e-12
-3.62606e-12 3.7043e-12 227.122

463.82 -27.6312 9.12455e-13
-27.6312 463.514 -7.3482e-13
9.12455e-13 -7.3482e-13 461.307

488.46 -26.1222 4.59484e-13
-26.1222 481.711 -2.2539e-12
4.59484e-13 -2.2539e-12 485.981

497.65 -31.4836 -3.11514e-12
-31.4836 490.073 1.87317e-12
-3.11514e-12 1.87317e-12 499.091

355.69 32.7601 1.01134e-12
32.7601 285.846 1.64106e-12
1.01134e-12 1.64106e-12 248.431

563.952 -20.1138 1.13332e-12
-20.1138 569.673 -9.15934e-13
1.13332e-12 -9.15934e-13 542.655

337.729 54.3372 -1.22213e-12
54.3372 356.744 1.74794e-12
-1.22213e-12 1.74794e-12 258.942

477.182 -21.4375 -1.98996e-12
-21.4375 506.606 1.30533e-12
-1.98996e-12 1.30533e-12 500.355

504.896 14.6512 5.02709e-13
14.6512 452.102 -4.73251e-13
5.02709e-13 -4.73251e-13 481.675

449.956 -14.5773 -5.9804e-13
-14.5773 397.091 1.84623e-12
-5.9804e-13 1.84623e-12 400.947

452.715 24.0514 3.01714e-12
24.0514 478.906 4.46813e-12
3.01714e-12 4.46813e-12 467.966

493.789 20.4311 4.1922e-13
20.4311 449.613 2.72197e-12
4.1922e-13 2.72197e-12 469.456

505.653 11.3966 -8.13416e-12
11.3966 564.498 -5.51115e-12
-8.13416e-12 -5.51115e-12 526.805

476.014 -31.585 -8.8433e-13
-31.585 470.475 -2.12393e-12
-8.8433e-13 -2.12393e-12 475.179

559.35 19.8119 6.48281e-12
19.8119 510.529 6.17876e-12
6.48281e-12 6.17876e-12 526.581

440.075 -18.4484 -5.68819e-12
-18.4484 482.592 3.45028e-12
-5.68819e-12 3.45028e-12 459.266

466.004 4.28541 -9.25805e-13
4.28541 526.22 -7.81182e-12
-9.25805e-13 -7.81182e-12 495.619

588.697 9.9295 -4.65109e-13
9.9295 552.529 -3.83397e-14
-4.65109e-13 -3.83397e-14 545.27

590.479 -8.51661 4.63363e-12
-8.51661 554.87 -2.408e-12
4.63363e-12 -2.408e-12 545.788

382.412 18.5184 -1.77636e-12
18.5184 302.36 3.6664e-12
-1.77636e-12 3.6664e-12 286.21

502.8 7.96716 2.92803e-13
7.96716 453.715 1.57518e-12
2.92803e-13 1.57518e-12 487.88

232.864 7.74348 -3.21225e-14
7.74348 381.596 9.85286e-13
-3.21225e-14 9.85286e-13 187.232

237.034 -11.3886 -1.72325e-12
-11.3886 387.29 -2.25479e-12
-1.72325e-12 -2.25479e-12 189.496

249.338 56.4179 -6.15804e-14
56.4179 354.852 -2.7048e-12
-6.15804e-14 -2.7048e-12 184.067

505.125 -28.9542 -7.46662e-13
-28.9542 478.726 -4.34763e-12
-7.46662e-13 -4.34763e-12 491.453

258.532 -49.205 4.05246e-12
-49.205 341.923 8.90547e-13
4.05246e-12 8.90547e-13 220.79

249.344 -55.9605 -3.59535e-12
-55.9605 344.825 -8.57388e-13
-3.59535e-12 -8.57388e-13 181.159

434.771 26.2289 1.65497e-12
26.2289 454.516 1.54247e-12
1.65497e-12 1.54247e-12 432.938

329.994 73.8586 -8.33703e-13
73.8586 280.067 4.43142e-12
-8.33703e-13 4.43142e-12 184.871

540.203 13.0443 6.39785e-12
13.0443 555.034 4.0122e-12
6.39785e-12 4.0122e-12 532.169

562.466 0.0457173 -4.23587e-12
0.0457173 532.535 6.99825e-12
-4.23587e-12 6.99825e-12 531.962

338.673 -73.1437 -5.87382e-12
-73.1437 279.914 2.75217e-12
-5.87382e-12 2.75217e-12 186.354

432.784 -23.4311 -2.99967e-12
-23.4311 466.435 -2.78474e-12
-2.99967e-12 -2.78474e-12 447.687

359.022 34.74 -1.18424e-14
34.74 311.05 -1.85333e-12
-1.18424e-14 -1.85333e-12 258.105

267.761 63.5043 -6.66726e-12
63.5043 345.281 -3.65219e-12
-6.66726e-12 -3.65219e-12 185.889

293.763 21.637 -3.45324e-12
21.637 367.754 3.94825e-12
-3.45324e-12 3.94825e-12 254.563

267.633 -65.9336 4.48826e-12
-65.9336 344.916 -8.81073e-13
4.48826e-12 -8.81073e-13 184.345

291.709 -12.3848 -9.88839e-13
-12.3848 370.976 2.33295e-12
-9.88839e-13 2.33295e-12 253.509

550.374 6.83559 -4.46561e-12
6.83559 582.147 5.8149e-12
-4.46561e-12 5.8149e-12 541.202

329.973 -45.9902 2.63611e-12
-45.9902 341.903 1.59872e-12
2.63611e-12 1.59872e-12 276.687

259.842 47.546 -4.26681e-12
47.546 340.299 4.82695e-12
-4.26681e-12 4.82695e-12 223.202

370.293 37.9201 -5.34802e-12
37.9201 244.971 2.67579e-12
-5.34802e-12 2.67579e-12 187.401

482.008 -29.2923 -2.55381e-12
-29.2923 460.627 -2.34834e-12
-2.55381e-12 -2.34834e-12 467.827

481.078 12.8954 2.61731e-12
12.8954 525.939 2.18877e-12
2.61731e-12 2.18877e-12 504.21

354.508 -38.1242 -1.80478e-12
-38.1242 300.149 8.07887e-12
-1.80478e-12 8.07887e-12 251.88

482.653 -28.808 4.14483e-15
-28.808 460.432 4.37517e-12
4.14483e-15 4.37517e-12 468.575

365.34 -36.3518 -8.3844e-13
-36.3518 231.037 -6.97516e-13
-8.3844e-13 -6.97516e-13 182.814

481.619 -28.3234 -2.38565e-12
-28.3234 472.868 -3.19152e-13
-2.38565e-12 -3.19152e-13 478.031

436.469 -25.3027 1.87287e-12
-25.3027 466.348 -8.27901e-12
1.87287e-12 -8.27901e-12 448.325

314.863 69.4747 3.78956e-14
69.4747 292.204 -3.64272e-12
3.78956e-14 -3.64272e-12 184.568

290.85 -22.9399 1.71004e-12
-22.9399 359.254 2.77349e-12
1.71004e-12 2.77349e-12 247.093

312.464 -71.7072 8.10492e-12
-71.7072 288.183 -1.25529e-13
8.10492e-12 -1.25529e-13 182.07

268.608 50.7518 -1.84623e-12
50.7518 320.138 -3.6664e-12
-1.84623e-12 -3.6664e-12 221.561

459.98 -30.2202 3.36146e-12
-30.2202 454.962 -3.89585e-12
3.36146e-12 -3.89585e-12 454.514

559.368 -14.6422 2.28706e-12
-14.6422 544.485 -1.82313e-12
2.28706e-12 -1.82313e-12 533.807

635.938 11.0868 -3.78349e-12
11.0868 631.411 -3.04897e-12
-3.78349e-12 -3.04897e-12 570.084

619.988 -5.16107 -8.29115e-13
-5.16107 639.754 -8.47594e-12
-8.29115e-13 -8.47594e-12 568.563

453.978 13.0846 -2.24263e-12
13.0846 506.674 -3.56337e-12
-2.24263e-12 -3.56337e-12 482.684

634.168 -10.6611 2.11497e-12
-10.6611 631.341 4.39204e-12
2.11497e-12 4.39204e-12 569.939

622.725 4.09339 -2.89561e-12
4.09339 642.699 5.48014e-12
-2.89561e-12 5.48014e-12 569.764

643.393 7.42638 -3.44391e-12
7.42638 619.175 -4.88054e-12
-3.44391e-12 -4.88054e-12 569.087

584.82 -12.1079 5.4771e-13
-12.1079 631.696 -4.25482e-12
5.4771e-13 -4.25482e-12 560.664

307.519 -30.4808 5.2515e-12
-30.4808 371.73 -7.08648e-12
5.2515e-12 -7.08648e-12 280.843

589.681 -12.9721 -9.71075e-14
-12.9721 549.181 2.03274e-12
-9.71075e-14 2.03274e-12 543.909

527.301 -34.4132 1.62862e-12
-34.4132 521.575 -3.79104e-12
1.62862e-12 -3.79104e-12 520.062

565.536 -18.1789 -3.60897e-13
-18.1789 538.07 -3.13246e-12
-3.60897e-13 -3.13246e-12 534.347

502.688 15.463 2.16005e-12
15.463 452.227 3.55538e-12
2.16005e-12 3.55538e-12 480.319

586.392 9.85914 3.32804e-12
9.85914 642.156 6.85215e-12
3.32804e-12 6.85215e-12 563.172

636.679 19.2205 -3.16961e-12
19.2205 591.764 3.41919e-12
-3.16961e-12 3.41919e-12 562.994

569.846 11.3119 1.24463e-12
11.3119 544.417 -3.20336e-13
1.24463e-12 -3.20336e-13 536.523

353.529 -15.3449 4.52616e-12
-15.3449 231.567 1.8557e-12
4.52616e-12 1.8557e-12 219.07

437.322 24.972 -8.20973e-13
24.972 462.037 -3.28744e-12
-8.20973e-13 -3.28744e-12 445.837

317.164 -61.3722 6.62226e-12
-61.3722 277.914 5.3267e-12
6.62226e-12 5.3267e-12 218.144

334.288 -57.4723 3.50771e-12
-57.4723 357.408 3.52903e-12
3.50771e-12 3.52903e-12 252.604

383.427 -36.5544 3.62377e-12
-36.5544 305.811 -1.74083e-12
3.62377e-12 -1.74083e-12 257.826

562.558 -5.15816 7.68866e-13
-5.15816 616.989 5.69915e-13
7.68866e-13 5.69915e-13 553.027

562.266 2.89166 1.2168e-13
2.89166 615.855 -6.47689e-12
1.2168e-13 -6.47689e-12 552.625

598.815 -24.4463 -1.75741e-12
-24.4463 575.8 -5.70655e-14
-1.75741e-12 -5.70655e-14 551.656

602.375 -21.7496 -5.53809e-12
-21.7496 573.489 8.34592e-13
-5.53809e-12 8.34592e-13 551.922

598.827 26.1248 -3.8541e-12
26.1248 580.513 -2.79695e-12
-3.8541e-12 -2.79695e-12 552.81

625.77 3.09234 -8.19108e-12
3.09234 630.758 -2.70568e-11
-8.19108e-12 -2.70568e-11 568.486

599.105 -20.5011 3.82479e-12
-20.5011 576.411 -3.17812e-12
3.82479e-12 -3.17812e-12 552.344

607.849 -18.5623 5.17394e-12
-18.5623 620.288 1.55949e-13
5.17394e-12 1.55949e-13 563.254

632.926 2.42925 -4.87921e-12
2.42925 635.544 3.56663e-12
-4.87921e-12 3.56663e-12 570.57

607.929 -20.5169 -1.49954e-12
-20.5169 572.482 -1.13628e-12
-1.49954e-12 -1.13628e-12 553.482

607.114 20.9462 6.47408e-13
20.9462 573.74 2.88747e-12
6.47408e-13 2.88747e-12 553.885

633.877 -3.45289 6.04243e-12
-3.45289 636.794 -5.01347e-12
6.04243e-12 -5.01347e-12 571.344

632.206 -3.10927 8.21136e-12
-3.10927 625.784 -1.31083e-11
8.21136e-12 -1.31083e-11 569.46

609.721 12.1084 -5.29932e-12
12.1084 620.511 7.35175e-12
-5.29932e-12 7.35175e-12 563.985

587.255 26.9208 -1.97146e-12
26.9208 583.067 2.27767e-13
-1.97146e-12 2.27767e-13 551.779

FIELD solute_concentration_TPM 2
S_ext 1 563 float
0.547213
0.547128
0.547133
0.547128
0.547138
0.547134
0.547213
0.547132
0.547139
0.547131
0.547192
0.547132
0.547133
0.547131
0.547135
0.547132
0.547131
0.547131
0.54714
0.547133
0.547136
0.547155
0.547135
0.547135
0.547134
0.54713
0.547187
0.547134
0.54716
0.547146
0.547132
0.547159
0.54719
0.547142
0.547141
0.547142
0.547145
0.547141
0.547133
0.547189
0.54716
0.547144
0.547144
0.547132
0.547176
0.547159
0.547139
0.547137
0.547134
0.547164
0.547162
0.547153
0.547137
0.547153
0.547136
0.547179
0.547142
0.547153
0.547141
0.547134
0.54713
0.547132
0.547185
0.547132
0.547132
0.547133
0.54713
0.54713
0.547134
0.54713
0.547137
0.547136
0.54716
0.547133
0.547133
0.547191
0.547135
0.547132
0.547131
0.54715
0.547169
0.547137
0.547132
0.547169
0.54716
0.547178
0.547133
0.547134
0.547176
0.547158
0.547153
0.547159
0.547135
0.547134
0.547152
0.547161
0.547169
0.54713
0.547134
0.547133
0.547145
0.547158
0.54717
0.547129
0.547131
0.547129
0.547133
0.547134
0.54717
0.547129
0.547134
0.547174
0.547172
0.54713
0.547129
0.547153
0.547144
0.54717
0.547144
0.547153
0.547142
0.547133
0.547129
0.547131
0.547131
0.547134
0.547143
0.54713
0.547169
0.547153
0.547137
0.547128
0.547131
0.547128
0.547158
0.547143
0.547174
0.547133
0.547132
0.547142
0.547157
0.547134
0.547142
0.547131
0.547171
0.54713
0.547134
0.547136
0.547134
0.547147
0.547138
0.547129
0.547159
0.547132
0.54713
0.547128
0.547131
0.547156
0.547156
0.54713
0.547137
0.547159
0.547176
0.547161
0.547156
0.547129
0.547156
0.547157
0.547159
0.547156
0.547135
0.547153
0.547161
0.547131
0.547153
0.547132
0.547135
0.547134
0.547136
0.547132
0.54716
0.547129
0.54713
0.547157
0.547133
0.547162
0.547131
0.547133
0.547137
0.547129
0.547133
0.547168
0.547153
0.547159
0.547128
0.54713
0.54713
0.547131
0.547129
0.547133
0.547129
0.547139
0.547149
0.547131
0.54716
0.547131
0.547134
0.547158
0.547134
0.54713
0.547136
0.547132
0.54713
0.547132
0.547146
0.547133
0.547149
0.547132
0.54713
0.54713
0.547129
0.547129
0.547129
0.547129
0.547132
0.547133
0.547133
0.547134
0.547134
0.547139
0.547138
0.547146
0.547131
0.547129
0.547137
0.547136
0.547136
0.547129
0.547149
0.547128
0.54713
0.547146
0.547134
0.547146
0.547133
0.547128
0.547145
0.547148
0.547169
0.547165
0.547131
0.547172
0.547132
0.547148
0.54714
0.547128
0.54713
0.547146
0.547129
0.547174
0.547149
0.547128
0.547133
0.547149
0.547129
0.547142
0.547145
0.547148
0.547131
0.547132
0.54713
0.547135
0.547135
0.547137
0.547132
0.547175
0.547178
0.547138
0.547135
0.547133
0.547147
0.547134
0.54713
0.547148
0.547133
0.547145
0.547135
0.547145
0.547149
0.547151
0.547135
0.547134
0.547134
0.54713
0.547144
0.547141
0.547131
0.547138
0.547144
0.547146
0.547136
0.547146
0.547137
0.547146
0.547176
0.547145
0.547171
0.547133
0.547146
0.547151
0.547145
0.547134
0.547146
0.547133
0.547146
0.547134
0.547189
0.547132
0.547146
0.547136
0.547146
0.547138
0.547134
0.547128
0.547146
0.547144
0.547142
0.547134
0.547144
0.547133
0.547133
0.547137
0.547144
0.547142
0.547137
0.547141
0.547145
0.547141
0.547135
0.547132
0.547141
0.547146
0.547133
0.547133
0.547145
0.547136
0.547196
0.547136
0.547169
0.547137
0.547228
0.547228
0.547227
0.547227
0.547226
0.547231
0.547231
0.547134
0.547142
0.547132
0.547138
0.547139
0.547141
0.547134
0.547142
0.547142
0.547143
0.547141
0.547135
0.547153
0.547133
0.547135
0.547138
0.547141
0.547138
0.547135
0.547137
0.547135
0.547137
0.54714
0.54715
0.547138
0.547135
0.547134
0.54714
0.54714
0.547139
0.547138
0.547135
0.547133
0.547139
0.547133
0.547135
0.547138
0.547133
0.547134
0.547141
0.547131
0.547137
0.547139
0.547176
0.547132
0.547136
0.547135
0.547137
0.547132
0.547196
0.547134
0.547137
0.547188
0.547152
0.547153
0.547135
0.54714
0.547136
0.547139
0.547162
0.547161
0.547131
0.547133
0.547133
0.547198
0.54714
0.547132
0.547137
0.547138
0.547137
0.547196
0.547133
0.54714
0.547135
0.547135
0.547138
0.547137
0.547138
0.547138
0.547188
0.547171
0.547137
0.547136
0.547136
0.547138
0.547137
0.547137
0.547137
0.547177
0.547135
0.54714
0.547132
0.547132
0.547178
0.547133
0.547133
0.547138
0.547149
0.547148
0.547137
0.54714
0.547136
0.547178
0.547148
0.547156
0.547155
0.547197
0.547141
0.547145
0.547135
0.547135
0.547131
0.54713
0.547131
0.547133
0.547134
0.547195
0.547133
0.547133
0.547132
0.547192
0.547143
0.547191
0.54713
0.547132
0.547146
0.547131
0.547134
0.547138
0.547131
0.547137
0.547133
0.547133
0.547147
0.547147
0.547179
0.547131
0.547215
0.547215
0.547215
0.547132
0.547199
0.547216
0.547138
0.547215
0.547138
0.547137
0.547215
0.547134
0.54719
0.547217
0.54719
0.547217
0.54719
0.547142
0.547181
0.547198
0.547214
0.547133
0.547133
0.547191
0.547134
0.547214
0.547132
0.547135
0.547218
0.547192
0.547218
0.547196
0.547134
0.547139
0.547155
0.547154
0.547132
0.547155
0.547155
0.547155
0.547152
0.54718
0.547143
0.547138
0.547142
0.547133
0.547154
0.547153
0.547142
0.547197
0.547135
0.5472
0.547193
0.547189
0.547147
0.547146
0.547146
0.547147
0.547146
0.547157
0.547149
0.547156
0.547159
0.54715
0.54715
0.547159
0.547155
0.547155
0.547149
P_ext 1 563 float
0.00413472
0.00413365
0.0041338
0.00413366
0.00413328
0.0041338
0.00413471
0.00413373
0.00413391
0.00413366
0.00413453
0.00413372
0.00413375
0.00413366
0.00413338
0.0041338
0.00413358
0.00413372
0.00413395
0.00413383
0.00413386
0.0041326
0.00413383
0.00413382
0.00413383
0.00413369
0.00413449
0.00413377
0.00413423
0.00413295
0.00413377
0.00413422
0.00413451
0.00413307
0.00413307
0.00413308
0.00413293
0.0041331
0.00413376
0.00413451
0.00413422
0.00413292
0.00413293
0.00413377
0.00413439
0.00413422
0.00413393
0.0041339
0.00413379
0.00413427
0.00413424
0.00413413
0.00413327
0.00413415
0.00413329
0.00413442
0.00413306
0.00413414
0.00413307
0.00413381
0.00413357
0.00413348
0.00413447
0.0041335
0.00413348
0.00413361
0.00413357
0.0041337
0.00413384
0.00413363
0.00413327
0.00413328
0.00413423
0.00413356
0.00413381
0.00413453
0.0041334
0.00413361
0.00413369
0.00413409
0.00413431
0.00413324
0.00413351
0.00413433
0.00413421
0.00413441
0.00413378
0.00413358
0.00413439
0.00413265
0.00413414
0.00413264
0.00413337
0.00413361
0.00413414
0.00413424
0.00413432
0.00413367
0.00413341
0.00413377
0.00413403
0.0041342
0.00413432
0.0041337
0.00413368
0.00413369
0.0041335
0.00413378
0.00413433
0.00413359
0.00413381
0.00413437
0.00413434
0.00413371
0.00413369
0.00413415
0.00413307
0.00413433
0.00413307
0.00413414
0.00413397
0.0041334
0.00413363
0.00413357
0.00413357
0.00413337
0.00413311
0.00413367
0.00413433
0.00413413
0.00413325
0.00413365
0.00413352
0.00413364
0.00413421
0.00413304
0.00413438
0.00413375
0.0041335
0.00413305
0.00413419
0.00413368
0.00413396
0.00413366
0.00413434
0.00413369
0.00413369
0.0041338
0.0041338
0.00413405
0.00413388
0.00413363
0.00413421
0.00413376
0.00413367
0.00413365
0.00413364
0.00413419
0.00413418
0.00413375
0.0041339
0.00413421
0.00413439
0.00413423
0.00413418
0.00413369
0.00413419
0.00413419
0.00413422
0.00413418
0.00413336
0.00413414
0.00413424
0.00413363
0.00413414
0.00413351
0.00413336
0.00413371
0.00413329
0.00413368
0.00413423
0.00413368
0.00413367
0.00413418
0.00413359
0.00413425
0.00413357
0.00413352
0.00413336
0.00413368
0.00413358
0.00413432
0.00413413
0.00413422
0.00413365
0.00413373
0.00413371
0.00413353
0.00413363
0.00413362
0.00413363
0.00413394
0.0041341
0.00413353
0.00413423
0.00413352
0.0041336
0.0041342
0.00413345
0.00413362
0.00413344
0.00413366
0.00413369
0.00413351
0.00413404
0.00413365
0.00413409
0.00413352
0.00413357
0.00413357
0.00413359
0.00413359
0.00413359
0.00413359
0.00413365
0.00413339
0.00413339
0.00413339
0.00413339
0.00413327
0.00413327
0.00413405
0.00413364
0.00413364
0.00413392
0.00413338
0.00413337
0.00413363
0.00413409
0.00413365
0.00413367
0.00413405
0.00413344
0.00413405
0.00413351
0.00413364
0.00413404
0.00413409
0.00413432
0.00413427
0.00413352
0.00413435
0.00413377
0.00413409
0.00413394
0.00413365
0.00413358
0.00413292
0.00413359
0.00413437
0.00413408
0.00413363
0.00413372
0.0041341
0.00413358
0.00413396
0.00413293
0.00413409
0.00413357
0.00413358
0.00413372
0.00413338
0.00413359
0.00413328
0.00413375
0.00413438
0.00413441
0.00413333
0.00413386
0.00413372
0.00413406
0.00413343
0.00413364
0.00413408
0.00413362
0.00413403
0.00413369
0.00413404
0.00413409
0.00413278
0.00413334
0.00413337
0.00413337
0.00413366
0.00413403
0.00413309
0.00413359
0.00413388
0.00413402
0.00413406
0.00413333
0.00413405
0.00413337
0.00413405
0.00413439
0.00413402
0.00413434
0.00413351
0.00413404
0.00413277
0.00413405
0.00413353
0.00413405
0.00413356
0.00413405
0.00413379
0.0041345
0.0041338
0.00413405
0.00413332
0.00413404
0.00413387
0.00413357
0.00413364
0.00413404
0.00413403
0.00413396
0.00413351
0.00413402
0.00413372
0.00413378
0.0041333
0.00413403
0.00413397
0.00413387
0.00413397
0.00413404
0.00413396
0.00413346
0.00413372
0.00413397
0.00413404
0.00413369
0.00413368
0.00413402
0.0041333
0.00413457
0.00413379
0.00413432
0.00413386
0.00413484
0.00413484
0.00413483
0.00413483
0.00413481
0.00413486
0.00413486
0.0041335
0.00413314
0.00413373
0.00413388
0.00413394
0.00413397
0.00413369
0.00413397
0.00413398
0.00413314
0.00413396
0.00413345
0.00413414
0.00413341
0.00413379
0.00413389
0.00413397
0.00413333
0.0041338
0.00413388
0.00413379
0.00413388
0.00413396
0.0041341
0.00413388
0.00413381
0.00413345
0.00413393
0.00413397
0.00413395
0.00413389
0.00413381
0.00413369
0.00413394
0.00413369
0.00413381
0.00413389
0.00413372
0.00413381
0.00413396
0.00413356
0.00413388
0.00413318
0.00413439
0.00413351
0.00413346
0.00413381
0.00413388
0.00413361
0.00413457
0.0041338
0.00413388
0.0041345
0.0041328
0.0041328
0.00413378
0.00413395
0.00413387
0.00413394
0.00413252
0.00413252
0.0041337
0.00413372
0.00413372
0.00413459
0.00413396
0.00413354
0.00413391
0.00413392
0.0041339
0.00413456
0.00413356
0.00413395
0.0041338
0.0041338
0.00413392
0.00413389
0.00413392
0.00413391
0.0041345
0.00413434
0.00413388
0.00413379
0.00413388
0.00413393
0.00413389
0.00413387
0.00413388
0.0041344
0.0041334
0.00413393
0.00413362
0.00413357
0.0041344
0.0041338
0.00413381
0.00413329
0.00413278
0.00413278
0.00413332
0.00413397
0.00413379
0.00413441
0.00413281
0.00413257
0.00413258
0.00413457
0.00413309
0.00413295
0.00413382
0.00413339
0.00413375
0.00413365
0.00413355
0.00413353
0.00413372
0.00413456
0.00413379
0.00413363
0.00413354
0.00413453
0.00413302
0.00413453
0.00413354
0.00413367
0.00413404
0.00413377
0.00413373
0.00413324
0.00413371
0.00413324
0.0041338
0.00413355
0.00413297
0.00413297
0.00413442
0.00413362
0.00413473
0.00413473
0.00413473
0.00413359
0.00413459
0.00413473
0.00413393
0.00413472
0.00413322
0.00413323
0.00413472
0.00413385
0.00413452
0.00413475
0.00413452
0.00413475
0.00413452
0.00413308
0.00413444
0.00413459
0.00413472
0.00413374
0.00413349
0.00413453
0.00413373
0.00413472
0.00413368
0.00413385
0.00413475
0.00413453
0.00413475
0.00413457
0.00413381
0.00413317
0.00413258
0.0041326
0.00413365
0.00413258
0.00413258
0.00413259
0.00413272
0.00413443
0.00413301
0.00413332
0.00413315
0.00413366
0.00413269
0.00413269
0.00413315
0.00413457
0.00413387
0.00413461
0.00413455
0.00413451
0.00413283
0.00413284
0.00413285
0.00413285
0.00413284
0.00413261
0.00413286
0.00413268
0.00413258
0.00413282
0.00413282
0.00413258
0.00413261
0.00413268
0.00413286
FIELD solute_flux_TPM 2
S_ext 3 563 float
-2.98586e-05 9.89814e-06 6.94934e-19
2.31906e-06 3.6054e-06 1.52176e-18
-6.11721e-06 -4.5366e-06 -2.08684e-18
-2.04473e-06 2.12199e-06 4.30656e-19
1.45797e-05 -4.35366e-06 6.04686e-19
1.08398e-06 -7.44207e-06 1.6661e-19
-2.94067e-05 -1.00192e-05 2.00178e-18
-7.35991e-06 -4.80361e-06 -1.84711e-18
9.68235e-06 5.29034e-07 1.40584e-18
5.77242e-06 -2.48045e-06 2.35188e-18
2.02354e-05 4.68901e-06 -1.56457e-19
6.64648e-07 -8.74622e-06 -1.68456e-19
7.02728e-06 4.99247e-06 4.50836e-18
1.96119e-06 7.17196e-06 5.96705e-19
1.32214e-05 -2.22368e-06 2.6043e-19
-7.4898e-06 -1.21911e-07 -4.26812e-19
2.22445e-06 8.0703e-06 2.62024e-18
4.86055e-06 -1.3275e-06 2.34381e-18
4.32407e-06 7.45489e-06 -7.41943e-19
-6.77177e-06 9.29718e-07 6.50849e-19
-1.25896e-06 -9.78985e-06 -3.4911e-18
2.85955e-05 4.03815e-05 -2.61172e-19
7.16486e-06 7.96801e-07 2.48994e-18
5.37e-06 -5.05952e-06 1.82867e-18
-6.85174e-06 -1.69159e-06 1.15299e-18
1.24015e-07 -5.67015e-06 3.29517e-19
2.31848e-05 -1.75208e-06 6.32817e-19
7.08138e-06 4.87786e-06 1.33235e-18
-9.70508e-06 -7.99349e-06 -1.29146e-18
3.20529e-05 -8.65858e-06 7.86863e-19
-7.8118e-06 -3.43136e-06 1.49302e-18
2.19054e-06 -1.2512e-05 4.03173e-19
1.7375e-05 -1.76456e-05 7.79239e-20
-3.48683e-06 -2.70818e-05 -1.81514e-18
-1.94125e-05 2.38902e-05 -8.61169e-19
-2.5201e-05 -1.05042e-05 -2.68264e-19
2.14341e-05 2.7813e-05 7.8509e-19
-2.90663e-05 -5.88805e-06 4.84133e-18
7.38668e-06 -4.92607e-06 -1.75217e-18
1.69898e-05 1.83856e-05 -2.51246e-18
1.26004e-05 -5.38708e-06 1.12705e-18
2.18009e-05 -2.67864e-05 6.00138e-19
-1.23058e-05 -3.22452e-05 -1.17641e-20
-7.3836e-06 3.56494e-06 1.15962e-18
1.14022e-05 -1.11203e-05 2.05457e-18
-1.17139e-05 4.1304e-06 7.64153e-20
-1.69176e-06 -8.91109e-06 -2.06813e-18
3.36821e-06 8.85592e-06 2.4606e-19
-7.83951e-06 3.12867e-06 -1.25508e-18
-6.90133e-06 1.09342e-05 -2.16265e-18
1.26663e-05 5.80799e-06 -4.05123e-19
1.17465e-05 -4.21098e-06 8.10472e-19
-1.01772e-05 9.89525e-06 -9.40845e-19
-9.36833e-06 -7.97272e-06 -7.40485e-19
-1.34328e-05 -3.5034e-06 3.42796e-18
-1.63459e-05 9.83723e-06 -1.42807e-18
-1.92283e-05 -2.46024e-05 4.28539e-19
2.35453e-06 -1.21756e-05 2.19065e-18
-3.09331e-05 4.39499e-06 -6.12628e-19
2.67324e-06 6.362e-06 -1.49872e-18
-2.95105e-06 -5.18746e-06 8.24696e-19
-3.56476e-06 -1.11558e-05 -5.23887e-19
2.09776e-05 9.07022e-06 -3.96468e-19
6.16094e-06 1.05242e-05 8.56213e-19
7.94154e-06 -8.57315e-06 -4.29327e-19
-1.48568e-06 -1.1549e-05 1.42589e-18
3.22108e-06 -5.10642e-06 -1.18235e-18
-4.88381e-06 -3.21848e-06 2.16384e-18
-4.98219e-06 5.3283e-06 -1.61268e-19
1.15905e-06 -2.57722e-06 1.68311e-18
-9.74969e-06 -9.94197e-06 -1.73382e-19
-1.35589e-05 3.5197e-06 -1.03124e-18
-1.5271e-06 1.32499e-05 -1.8491e-18
-1.00136e-05 6.1594e-06 1.85844e-18
-4.2543e-06 6.59628e-06 2.16978e-18
-2.15678e-05 2.79676e-06 -3.14514e-19
5.22185e-06 -1.2959e-05 -2.62436e-19
-1.0791e-05 -4.41519e-06 -1.27089e-18
5.75471e-07 5.95565e-06 7.47135e-19
1.07884e-05 2.02097e-06 -5.66795e-19
1.29903e-05 -1.09073e-05 4.00803e-19
1.44945e-05 1.29504e-05 1.12509e-18
7.33898e-06 -2.13574e-06 -1.60556e-18
-1.20901e-05 8.80287e-06 -7.18471e-19
1.46681e-05 1.94619e-06 1.29825e-18
-2.04483e-06 1.81611e-05 -5.45718e-18
-6.20431e-07 -8.26289e-06 -2.0887e-18
1.01992e-05 5.23932e-06 -1.63901e-19
1.0965e-05 1.14261e-05 1.0258e-18
4.23916e-05 2.63759e-05 -1.04838e-18
-1.98661e-06 1.22306e-05 -4.06942e-19
4.42995e-05 -2.48962e-05 5.28471e-19
-1.7049e-05 2.8397e-06 6.0291e-19
9.85277e-06 6.51228e-06 -1.67606e-19
-1.16279e-05 4.04389e-06 -2.11712e-18
6.44102e-06 1.10831e-05 1.57563e-19
3.71637e-06 -1.65999e-05 -1.20135e-18
6.38592e-07 5.96607e-06 -1.74634e-19
-8.55879e-06 -1.09624e-05 -8.62135e-19
1.05028e-06 8.39475e-06 -1.67327e-18
1.09932e-05 2.38422e-06 -1.71652e-18
-5.88265e-06 1.27572e-05 -1.05331e-18
1.53445e-05 -5.18783e-06 1.83625e-18
-1.87457e-06 3.49609e-06 5.94684e-19
5.42971e-06 2.65248e-06 5.83163e-19
-7.69753e-07 -5.77821e-06 7.86622e-20
2.43903e-06 -1.14842e-05 5.84185e-19
8.24027e-06 2.17681e-06 5.0191e-19
-2.96852e-06 1.54328e-05 -3.50639e-18
-5.95883e-06 -2.14795e-07 -8.24681e-19
4.5141e-06 5.36911e-06 3.15547e-18
-9.50126e-07 -1.56586e-05 2.76982e-18
1.58624e-05 5.04099e-06 -2.38314e-18
2.15844e-06 -3.48092e-06 -1.83082e-18
-5.45481e-06 -2.129e-06 2.07745e-18
-1.14346e-05 -5.04041e-06 -1.30705e-18
1.02707e-05 2.73664e-05 2.17248e-18
-1.59592e-05 -5.76214e-06 -1.4423e-18
1.04138e-05 -2.74416e-05 1.39275e-18
-1.30798e-06 -1.26436e-05 9.7528e-19
9.38752e-06 2.06742e-07 4.95681e-19
-4.31406e-06 1.18473e-05 1.00783e-18
-1.16696e-06 2.049e-06 -4.25956e-19
-2.78333e-06 -9.44817e-06 -1.34895e-18
2.91115e-06 -5.3388e-06 -1.58651e-18
6.19757e-06 9.89723e-06 6.86475e-19
2.18342e-05 7.35831e-06 -1.20532e-18
4.82375e-06 -3.48236e-06 -3.09258e-18
-3.0843e-06 -1.67983e-05 8.74891e-19
1.03423e-05 -7.42246e-06 1.94923e-18
3.28353e-06 1.76504e-05 2.57174e-18
-1.29256e-06 -1.77334e-06 9.85007e-19
-5.532e-06 -4.88076e-06 -3.12281e-18
-2.70779e-06 3.70703e-07 1.9184e-18
-8.84809e-06 1.08352e-05 -2.43339e-19
1.29258e-05 -2.44125e-05 8.31169e-20
-9.85014e-06 1.56444e-05 -2.8651e-18
-7.85029e-06 4.91468e-06 1.64847e-19
1.27121e-06 7.74249e-06 1.95157e-18
-1.46562e-05 -2.33742e-05 1.11615e-18
5.34482e-06 1.29962e-05 7.29918e-19
9.52613e-06 4.24788e-06 8.3901e-19
9.87509e-06 -3.96877e-06 1.97599e-18
-1.10917e-06 -5.82631e-06 -1.84238e-18
-1.25531e-05 -1.15281e-05 7.93262e-19
-9.01834e-07 5.86183e-06 -4.94185e-19
9.11663e-06 5.50813e-06 2.49833e-19
9.08065e-06 -4.71331e-06 2.41762e-18
3.99889e-06 -6.4641e-06 1.69283e-19
1.01967e-05 -4.42011e-06 9.83827e-19
8.674e-06 -4.1131e-06 -4.92394e-19
2.75181e-06 5.12764e-07 -2.6731e-18
1.00657e-05 7.97327e-06 -7.50673e-22
-7.93542e-07 -8.29048e-06 -6.73893e-19
-5.68748e-06 -1.85677e-06 -4.25271e-19
9.47136e-07 -2.03136e-06 -4.24941e-19
-2.37262e-06 8.3987e-06 -7.59724e-19
-1.33499e-05 1.11889e-06 3.99205e-19
-4.61866e-06 -1.28479e-05 -8.82102e-20
-3.75116e-06 4.55896e-06 1.72468e-19
6.1119e-06 7.15985e-06 2.8162e-18
1.04036e-05 -7.44607e-06 3.21838e-18
-1.36631e-05 -7.48212e-06 2.3523e-19
6.76037e-06 -1.07304e-05 -2.08771e-18
8.98323e-06 -1.05719e-05 5.65608e-19
-5.41172e-06 2.3365e-06 -8.53727e-19
-7.6931e-06 -1.10326e-05 -9.7982e-19
-1.33192e-05 -2.30078e-06 -2.35096e-18
-1.62142e-06 -1.2332e-05 4.81327e-19
5.96172e-06 -1.23517e-05 -1.12798e-18
-6.14491e-06 -1.62131e-05 -3.44576e-19
1.66979e-06 1.24632e-05 -4.08716e-19
-6.12909e-06 -1.095e-05 -1.37263e-18
2.37348e-06 -8.87584e-06 2.43131e-18
-9.86354e-06 7.05591e-06 -8.97083e-19
-8.69496e-06 -7.61009e-06 1.25579e-18
-1.71667e-05 -2.72597e-06 1.69656e-18
7.93729e-06 -4.84016e-06 1.34147e-18
-2.50164e-06 1.53831e-05 1.704e-18
6.86971e-06 -4.49914e-06 -8.31849e-19
-1.14428e-05 -4.969e-06 -2.58147e-18
-4.79256e-06 -3.48648e-06 -2.58138e-19
4.99068e-06 3.47966e-06 2.5927e-18
8.43289e-06 1.11187e-05 6.44149e-19
-9.50903e-06 -6.20034e-06 7.45514e-20
-1.2433e-05 -3.14381e-07 -4.02339e-19
-9.69095e-06 -2.2357e-06 7.73179e-20
-2.96206e-06 -9.45812e-06 -6.81957e-19
1.07801e-05 1.37354e-05 4.31574e-19
-5.99047e-06 2.58927e-06 -7.46608e-19
6.53406e-07 -1.1364e-05 -3.45549e-19
-1.55432e-05 4.09828e-06 -8.18562e-20
1.00635e-05 7.94394e-06 1.61867e-19
1.52684e-06 1.27684e-05 -1.61029e-18
-1.07943e-06 2.34287e-06 -6.89286e-19
-4.2225e-06 1.1311e-07 3.1913e-19
2.12661e-06 3.61428e-06 4.13714e-19
-7.11917e-06 2.42941e-06 -5.11325e-19
-1.41335e-06 -1.94935e-06 -9.96685e-19
1.45334e-06 1.13708e-05 -1.33899e-18
2.63859e-06 -1.3898e-07 -5.09929e-19
-8.44786e-06 2.12602e-06 -9.14424e-19
-7.02039e-06 7.81507e-06 -1.62967e-18
-1.56644e-06 7.23061e-06 4.92227e-19
-1.11881e-05 7.12076e-06 -2.09418e-18
-5.9952e-06 5.25724e-06 -1.71416e-19
9.42751e-06 -7.05085e-06 1.43534e-18
1.42445e-05 -1.48652e-06 5.68049e-19
-1.27712e-05 6.6555e-06 1.86452e-18
9.77971e-07 2.76601e-06 1.34972e-18
1.33416e-05 -2.04041e-06 -6.75132e-19
-9.15654e-06 6.09546e-06 8.35877e-19
-4.86898e-06 3.22457e-06 -1.35176e-18
7.40279e-06 2.72845e-06 1.104e-18
9.18908e-06 -5.75883e-06 4.08534e-19
-9.38564e-06 5.19593e-06 2.01862e-18
-1.01248e-05 -2.13893e-06 -3.42368e-18
-9.74129e-06 -2.16019e-06 -1.61051e-18
6.17231e-06 3.83061e-07 -7.41417e-20
6.28235e-06 -3.02106e-07 2.48466e-19
3.05019e-06 4.86685e-06 -6.97007e-20
3.26649e-06 -5.10388e-06 -2.60735e-18
-2.72787e-06 5.29928e-06 -1.86683e-18
-2.81764e-06 -5.39446e-06 1.15396e-18
4.98027e-06 -4.36357e-06 -1.41965e-18
-1.29047e-05 2.32153e-06 4.21092e-19
-1.27541e-05 -2.35834e-06 1.70861e-18
-8.37969e-06 9.95944e-06 -2.21018e-18
-8.41564e-06 -9.98748e-06 -2.54961e-18
4.60515e-06 -1.29451e-05 1.29193e-18
4.43755e-06 1.28494e-05 1.46308e-18
7.44738e-07 1.07531e-05 -8.99576e-19
6.31372e-06 -1.02917e-06 7.65359e-21
1.34435e-06 -2.00037e-06 -4.07788e-19
-9.20621e-06 7.58557e-07 7.35105e-19
4.71192e-06 -1.27417e-05 -5.01371e-19
4.47075e-06 1.27825e-05 6.0404e-19
2.54463e-06 -4.53524e-08 -4.11339e-19
3.68198e-06 9.95602e-06 4.04479e-19
-1.1594e-06 -2.11052e-06 1.41103e-18
8.63563e-07 -5.85486e-06 -2.4254e-18
-9.3492e-06 -4.92775e-06 -1.64535e-18
-1.29855e-05 -6.82117e-06 7.53971e-19
-9.02312e-06 5.70999e-06 -2.28927e-18
1.69073e-06 -7.80189e-06 -7.51466e-19
-8.29865e-07 1.71563e-06 -1.07202e-18
-3.49013e-07 -1.06624e-05 4.87946e-19
-3.16395e-06 -9.92009e-06 2.42598e-19
1.24316e-05 1.13995e-05 -1.19749e-18
1.37606e-05 -6.63052e-07 -9.57057e-19
-7.74108e-06 -2.59241e-06 8.57439e-19
-8.49847e-06 -1.52198e-05 -1.04305e-18
3.95479e-06 6.38662e-06 5.81366e-19
-1.01822e-05 1.20288e-06 -1.55422e-18
8.82799e-06 2.56051e-06 -8.26732e-20
-2.37047e-06 -1.00484e-08 -1.02611e-18
-3.08464e-06 -4.93253e-06 -1.67409e-18
-5.38064e-06 -2.54315e-05 2.17117e-18
-5.89718e-06 2.88407e-07 4.1264e-19
-1.76985e-05 -6.59505e-07 -2.5542e-18
7.1389e-06 -7.85433e-06 -2.11612e-18
1.36839e-06 2.06774e-06 -6.75182e-19
-2.21373e-07 -8.86136e-06 -1.009e-18
-4.00685e-06 9.70524e-06 -2.0335e-18
-2.93987e-06 5.03921e-06 5.82922e-19
9.08046e-06 -5.75646e-06 7.43618e-19
-2.47171e-05 -8.03203e-06 7.91937e-20
-6.18831e-06 -8.24456e-06 -1.68112e-19
2.80293e-06 5.35465e-06 2.27973e-18
9.87575e-06 2.15694e-06 6.76368e-19
-2.24475e-06 -3.41296e-06 -3.42613e-19
1.27793e-05 2.60073e-06 3.4431e-19
1.03153e-05 -5.24e-06 9.32912e-19
-1.39745e-07 1.69486e-05 9.46328e-19
4.00172e-06 -6.4195e-06 -7.98139e-20
1.82679e-05 6.75945e-07 -1.66069e-18
-1.55537e-05 4.00566e-06 4.69705e-19
1.43871e-05 6.99152e-06 1.45859e-18
-2.7788e-06 -7.68442e-06 -1.83169e-18
-7.84943e-06 -4.18293e-06 -5.05492e-21
1.1753e-05 -8.4594e-08 3.29554e-19
-5.40923e-07 -1.46958e-05 -6.89691e-19
-6.4568e-06 -6.53155e-06 2.84521e-18
4.21244e-06 -9.59969e-06 -1.95176e-18
-5.58615e-07 1.11785e-05 1.34786e-18
3.11753e-06 1.08094e-05 1.60199e-19
9.06807e-06 -5.31935e-06 -3.32949e-19
-7.94777e-06 7.75866e-06 -1.47744e-18
6.77416e-06 8.1903e-06 -4.08292e-19
-4.30199e-05 1.02084e-05 2.35597e-18
-6.77673e-06 1.61538e-05 -1.19404e-18
8.23045e-06 -9.60813e-06 -1.19369e-18
-4.24567e-06 -1.18527e-05 -8.67125e-19
-6.47433e-06 1.84865e-06 -1.58448e-18
-1.05738e-05 -3.10305e-06 -1.23606e-18
-4.48402e-06 2.53717e-05 5.21599e-19
-6.65976e-06 7.40225e-06 1.00165e-18
9.35278e-06 -2.37064e-06 1.08086e-18
-2.6367e-06 -1.07334e-05 4.0549e-19
-6.03647e-06 9.60567e-06 1.62262e-19
-1.33721e-05 7.82116e-06 1.96346e-18
-8.45203e-06 -6.26066e-06 -1.23357e-18
1.09878e-05 -1.34269e-05 -3.36545e-19
-1.10875e-05 -6.14996e-07 -5.82488e-19
4.57069e-06 -1.53356e-05 1.42211e-18
8.27468e-06 -7.72805e-06 7.38739e-19
9.21758e-06 1.60855e-05 6.38963e-19
1.35559e-06 1.16597e-05 2.28933e-18
1.31456e-06 -1.05621e-05 5.7101e-19
-2.79134e-05 3.2902e-05 1.13595e-18
-5.11809e-06 -9.89572e-06 -5.81143e-19
9.92622e-06 -3.34919e-06 -9.23081e-19
-1.06153e-06 1.06256e-05 -2.20605e-18
7.1129e-06 -7.53994e-06 1.73753e-19
5.69515e-06 9.89636e-06 6.54059e-19
8.00848e-06 -8.84941e-07 5.00951e-19
7.88105e-06 -2.29463e-05 3.13694e-19
-2.54778e-06 -5.96354e-06 -1.75408e-18
-9.59953e-06 4.09122e-06 -1.96811e-18
-1.252e-05 1.20375e-05 4.77015e-18
9.01677e-06 6.13526e-06 -3.27515e-19
8.63905e-06 -5.09835e-06 1.49324e-18
7.98412e-06 7.54264e-06 1.4373e-18
-3.21065e-06 -3.41519e-07 -3.21402e-19
6.37391e-06 -9.40806e-06 -3.02724e-18
-7.11216e-06 -8.24673e-06 -1.40261e-18
9.76302e-06 4.44286e-06 -1.48168e-18
7.25722e-06 -7.23454e-06 8.90118e-20
3.82613e-06 -1.03359e-05 -1.88535e-18
8.24865e-06 -4.13235e-06 4.21897e-19
-7.608e-06 -3.83094e-06 2.24215e-18
9.95278e-07 -1.62907e-05 -1.11858e-18
-1.06589e-05 2.03329e-06 -8.67468e-20
8.41824e-07 1.0571e-05 -5.74487e-19
9.32911e-06 3.39192e-06 -2.23612e-18
-9.26141e-06 -4.77843e-06 7.30071e-19
-3.51325e-06 1.05547e-05 -2.13008e-18
-4.51048e-07 -1.0484e-05 -9.11814e-22
1.16098e-05 7.21561e-06 1.70157e-18
-2.33232e-07 9.30115e-06 7.5877e-19
-8.76758e-06 5.70787e-06 -1.48022e-18
9.91803e-06 4.68662e-06 2.43277e-19
-8.64328e-06 -5.77049e-06 -9.44946e-20
7.12144e-07 -1.04129e-05 -4.28345e-19
7.80662e-06 8.14452e-06 -3.26505e-19
-1.36081e-05 -8.98932e-06 -1.12134e-18
1.77441e-05 -1.26455e-05 6.17355e-19
8.90296e-06 -5.0703e-06 1.25278e-18
3.24095e-06 1.61879e-05 -2.9577e-18
8.13682e-06 -5.98815e-06 -5.80048e-19
-8.02572e-06 3.12778e-05 -7.42906e-19
-8.06335e-06 -3.09863e-05 -1.0374e-18
2.04124e-05 2.65615e-05 -8.88634e-19
2.01734e-05 -2.65553e-05 2.1954e-19
3.32593e-05 -1.93324e-08 -2.20539e-19
-2.85793e-05 1.16477e-05 7.36329e-19
-2.81239e-05 -1.1765e-05 -2.23747e-19
7.04371e-06 7.27672e-06 -7.80277e-20
1.90387e-05 1.43627e-05 2.15805e-18
5.48565e-06 1.92114e-06 1.84033e-18
8.75724e-06 4.43181e-06 4.98509e-19
2.14651e-06 8.84881e-06 -1.23825e-18
-8.27502e-06 -6.24006e-06 4.04473e-19
9.36316e-06 -4.89483e-06 -1.42028e-18
8.81192e-06 6.12041e-06 9.0672e-19
-1.10953e-06 1.05088e-05 -1.89069e-18
1.9157e-05 -1.31656e-05 -7.69292e-19
1.41762e-06 -1.03267e-05 1.64165e-18
1.33859e-05 2.51493e-06 -1.62984e-19
1.19023e-05 4.57847e-06 8.09784e-19
9.25517e-06 8.80794e-06 1.11275e-18
7.53718e-06 3.3783e-06 -4.14745e-19
-8.38168e-06 5.0682e-06 5.79212e-19
-9.59647e-06 4.11201e-06 -2.38877e-18
1.44303e-05 -6.84187e-06 -9.32803e-19
-8.68174e-06 -5.03341e-06 1.32328e-18
-8.54742e-06 -4.74602e-06 1.72823e-18
9.41324e-08 -1.00521e-05 -3.38342e-19
-1.12894e-07 -9.74685e-06 -4.20428e-19
-8.57369e-06 -4.62218e-07 8.95743e-19
1.09274e-05 -1.63409e-06 -4.85238e-19
8.34233e-06 5.26605e-06 2.4986e-19
-8.70672e-06 5.05834e-06 -1.65874e-19
-8.7683e-06 1.03449e-05 3.30422e-18
7.1891e-06 -6.068e-06 -9.05633e-19
-4.7223e-06 7.40917e-06 2.38548e-18
-6.17761e-06 -6.38833e-06 -4.19461e-19
-5.1407e-07 9.56519e-06 -1.40352e-18
-2.0099e-07 1.01242e-05 1.16709e-18
-7.23462e-08 -1.04064e-05 -7.62379e-19
2.6471e-06 -8.57882e-06 4.13063e-19
-9.02529e-06 -5.0503e-06 -9.72773e-21
7.2504e-06 -2.77977e-06 1.00004e-18
4.10409e-07 9.79415e-06 -1.2429e-18
2.62951e-07 9.4024e-06 1.25727e-18
-8.79948e-07 7.93793e-06 5.84612e-19
9.41224e-06 -2.41536e-06 2.14473e-18
-9.89652e-06 2.48229e-06 7.70619e-19
1.54535e-06 9.80361e-06 -3.07e-18
-2.1023e-05 8.07931e-06 2.66001e-18
3.60771e-06 1.56565e-05 -9.47738e-19
-1.00127e-05 2.30128e-06 -7.522e-20
1.18799e-05 -7.1237e-06 5.16052e-19
1.9428e-07 1.01332e-05 -6.68115e-19
-9.03e-06 3.35024e-06 3.24059e-19
1.74966e-06 -8.83753e-06 1.67475e-18
4.22787e-07 -2.12207e-05 1.47194e-18
7.98089e-07 8.40064e-06 -2.49963e-18
-7.89808e-06 6.03392e-06 -1.57288e-18
6.36826e-06 2.32508e-05 -1.65666e-18
3.12735e-05 2.5978e-05 1.05716e-18
3.59179e-05 -2.45669e-05 -1.13343e-18
7.42183e-06 -4.85804e-06 -9.99895e-19
-6.92105e-06 6.05647e-06 -8.45269e-20
-9.03835e-06 -3.95395e-06 1.48317e-18
-8.5681e-06 -3.02818e-06 -1.16245e-18
4.44954e-05 -1.22524e-05 4.39122e-19
4.53607e-05 9.54976e-06 1.76887e-18
5.25584e-06 2.12142e-06 3.60102e-18
-1.53991e-07 9.99865e-06 8.35863e-19
1.21407e-07 1.00064e-05 7.5311e-19
-1.76006e-05 -1.29569e-05 -1.57755e-19
5.0016e-06 -7.36689e-06 -9.83822e-19
6.56362e-06 7.89482e-06 5.14125e-19
-9.23767e-06 -1.71595e-06 -2.55495e-19
-6.24653e-06 7.26475e-06 -9.89444e-19
-8.52181e-06 4.14572e-06 -6.6613e-19
1.75346e-05 1.25585e-05 -1.62839e-18
9.17648e-06 3.76956e-06 8.47055e-19
-2.35197e-06 8.64939e-06 9.89512e-19
-8.45421e-06 -5.34316e-06 8.21201e-19
5.25851e-07 -1.00086e-05 9.95071e-19
-3.69469e-06 -8.45482e-06 -1.66182e-18
-7.80042e-06 -5.29031e-06 -9.22413e-19
4.57909e-06 -8.22492e-06 3.32377e-19
6.4843e-06 -7.25439e-06 3.32353e-19
-1.03946e-06 -2.22507e-05 1.80157e-18
9.75551e-06 -1.53777e-05 3.21341e-19
7.95801e-07 -9.41961e-06 2.44992e-19
8.93671e-06 5.2062e-06 2.08251e-18
-6.79881e-06 -6.41852e-06 8.19556e-19
-4.13208e-06 8.50705e-06 1.8186e-18
-1.88581e-06 9.49025e-06 -4.09951e-19
7.89124e-06 6.13971e-06 2.6541e-18
2.43562e-06 -9.06596e-06 -2.50184e-19
-5.19753e-06 -1.49313e-05 -9.49319e-19
-1.4465e-06 1.52364e-05 2.13099e-18
6.60607e-06 6.29915e-06 2.14554e-18
-6.79865e-06 -5.87431e-06 3.27046e-18
-7.49934e-06 6.20953e-06 1.84921e-18
1.66687e-05 -7.06094e-06 -1.74032e-18
3.42872e-06 -6.22072e-06 1.00035e-18
-3.98267e-06 -5.68485e-06 -8.36555e-19
1.37832e-05 4.42334e-06 5.12886e-19
8.7675e-06 -3.16034e-05 8.42259e-20
-2.29933e-05 -2.33671e-05 1.38797e-18
1.49524e-05 3.64977e-06 -8.44574e-19
-3.95999e-06 -7.7909e-06 7.73195e-20
9.03932e-06 4.95023e-06 8.35828e-19
-1.06907e-05 -1.19595e-05 1.96627e-18
7.10867e-06 3.20895e-05 -7.78508e-19
3.13158e-05 -4.05231e-05 1.22684e-18
-1.94408e-05 -4.7367e-05 1.23164e-18
9.94367e-06 -1.92881e-05 -1.31321e-18
-8.09678e-06 2.85239e-05 1.20392e-18
-4.7213e-06 2.51386e-05 -4.31532e-19
-8.88047e-06 4.6598e-06 -1.68006e-19
4.11809e-06 1.46813e-05 2.13315e-18
-8.44956e-07 6.08132e-06 1.34294e-18
5.20884e-06 2.08736e-06 2.55668e-19
-2.46807e-06 9.39648e-06 -1.26753e-18
-7.18714e-08 1.20357e-05 1.43834e-18
8.4536e-06 5.025e-06 -2.50732e-19
3.69242e-07 2.11197e-05 -1.70503e-18
-7.2237e-06 4.67026e-06 -9.11357e-19
8.81356e-06 -2.8876e-06 -4.16688e-19
1.02858e-05 -1.99246e-06 -9.22791e-19
-2.16355e-05 -3.21675e-06 -4.75492e-19
-2.24582e-05 1.07264e-05 2.41783e-18
-1.56544e-05 -1.85961e-05 7.49656e-20
5.49614e-06 4.8849e-06 1.11109e-18
7.23751e-06 4.43816e-06 1.17834e-18
1.11021e-05 -1.96345e-06 3.29755e-19
-3.80887e-06 -6.17757e-06 -4.24497e-19
8.55477e-06 4.78505e-06 -1.16943e-18
4.86595e-06 -1.92114e-05 -2.61504e-19
-7.42951e-06 4.7752e-06 3.4233e-19
-1.4204e-05 -1.38023e-05 2.04144e-18
-2.37137e-06 7.69704e-06 3.16802e-18
-2.45937e-06 1.17877e-05 3.37695e-18
2.24963e-05 1.39231e-05 2.3446e-18
2.40159e-05 -1.26681e-05 -5.15448e-19
-1.54594e-05 -4.12702e-06 -2.29416e-18
3.78058e-06 4.64516e-06 3.1971e-18
-1.63052e-06 3.63121e-05 -1.77247e-18
9.40276e-08 -3.7292e-05 -1.33432e-21
1.83998e-05 3.14858e-05 1.07555e-18
-1.10463e-05 4.26788e-06 -9.2183e-19
-9.97304e-06 2.01859e-05 -2.86147e-18
1.85197e-05 -3.03914e-05 6.13982e-19
-5.14188e-06 -7.7805e-06 4.09907e-19
2.81925e-05 2.44116e-05 9.21459e-19
1.56868e-05 -1.13919e-05 -3.34655e-21
-2.03827e-06 -1.9259e-05 7.21747e-20
2.95277e-05 -2.38713e-05 -9.24301e-19
-2.9644e-06 6.54859e-06 1.32979e-18
-1.9222e-05 -1.21874e-05 -7.76577e-20
-1.55385e-05 -3.24853e-05 -8.51805e-19
-8.87295e-06 -2.09527e-05 3.12278e-19
-1.59751e-05 3.30106e-05 -1.38856e-18
-3.78838e-06 2.32287e-05 -2.9755e-18
1.071e-05 2.41784e-05 2.42555e-18
-1.04778e-05 1.34442e-05 -2.28467e-18
-9.55235e-06 -1.96752e-05 -4.629e-19
3.62056e-05 6.38281e-06 2.34515e-19
-8.7884e-06 5.01067e-06 -1.50107e-18
-3.87449e-06 9.46421e-06 1.70884e-19
-1.82487e-05 1.3089e-05 4.7043e-19
-8.74135e-06 5.12139e-06 -1.33572e-18
3.58511e-05 -5.70216e-06 -2.30597e-18
-8.12593e-06 3.75607e-06 7.94834e-21
3.31559e-06 -6.56629e-06 1.6605e-18
-2.77881e-05 -2.12311e-05 -7.68618e-20
-9.5599e-06 2.09329e-05 -3.20179e-18
-2.84418e-05 2.1083e-05 3.84648e-19
8.81534e-06 1.92163e-05 8.46021e-19
-7.15813e-06 4.87581e-06 -2.44451e-19
-1.28759e-05 1.59136e-05 1.97236e-18
-2.41318e-05 3.04097e-05 5.2687e-19
-3.79019e-05 -4.83789e-06 6.14701e-19
-8.24491e-07 8.71308e-06 1.0891e-18
-2.55448e-05 -3.05375e-05 8.75195e-19
-3.92351e-05 6.86333e-06 -8.93662e-20
-1.49809e-05 3.46612e-05 -2.62399e-19
-1.14979e-05 4.58822e-05 1.05342e-18
-6.77253e-06 1.51985e-05 -3.46747e-18
-2.19732e-05 1.77366e-05 -1.78932e-19
1.57522e-05 -3.61735e-06 -2.13031e-18
2.50129e-05 -1.00033e-06 -8.5598e-19
7.03359e-06 4.69267e-06 2.35142e-18
-8.08005e-06 -5.28595e-05 1.66191e-18
-4.98308e-05 -1.94132e-05 3.45842e-19
2.43394e-05 -5.49207e-08 3.37125e-18
2.15536e-05 -4.16876e-06 -1.92868e-18
-4.70882e-06 -5.96715e-06 -9.17315e-19
-1.85686e-05 1.31443e-05 -2.09611e-21
-1.6648e-05 1.91353e-05 -4.70108e-19
2.27823e-05 -8.1949e-06 -2.19746e-18
-1.85988e-05 -3.14191e-05 1.4752e-18
-1.89248e-05 3.11676e-05 -6.95228e-19
-3.66273e-05 -1.3512e-06 2.26573e-18
-1.66062e-05 3.28249e-05 6.0881e-19
-3.6536e-05 4.31217e-07 -5.22877e-19
4.57087e-05 1.6331e-05 -1.41373e-18
3.66645e-05 1.42281e-06 -1.22155e-18
3.46075e-05 -1.7711e-05 3.55301e-19
1.02021e-05 -4.87531e-05 -1.2344e-18
1.81826e-05 -3.17917e-05 -1.56141e-18
1.80571e-05 3.17828e-05 9.67526e-20
9.9929e-06 4.76414e-05 1.77054e-18
4.98812e-05 -1.40788e-05 3.79646e-18
3.18885e-05 1.57876e-05 4.56675e-18
3.04754e-05 8.30302e-06 1.57332e-18
P_ext 3 563 float
-2.15189e-07 7.26906e-08 -2.52388e-20
1.68611e-10 7.88801e-09 9.93091e-21
-1.96744e-08 -1.8519e-08 -1.17726e-20
-6.22356e-09 5.73805e-09 -1.48972e-20
5.32481e-09 1.30069e-10 7.39888e-21
6.48763e-09 -2.62901e-08 5.84808e-21
-2.11874e-07 -7.35726e-08 -2.57659e-20
-1.539e-08 -1.75007e-08 -9.8715e-21
4.29911e-08 7.55576e-10 1.7423e-20
1.56474e-08 -1.44692e-09 6.61188e-21
1.40094e-07 3.28708e-08 -1.32863e-20
7.65602e-09 -2.23344e-08 -5.87889e-21
1.74773e-08 2.08553e-08 -3.14419e-21
-1.84047e-09 1.6286e-08 1.05485e-20
4.82659e-09 1.84528e-09 -6.14069e-22
-2.74395e-08 -4.49066e-10 8.3521e-21
-3.46808e-09 1.07032e-08 2.57086e-20
1.65341e-08 -2.48598e-09 2.03431e-21
1.90307e-08 3.39521e-08 -1.73219e-20
-2.55029e-08 2.56687e-09 5.73807e-21
-9.59858e-09 -3.6122e-08 -4.63338e-21
3.382e-10 -6.43519e-11 2.88984e-20
2.82527e-08 2.29633e-09 1.68614e-20
1.79692e-08 -2.07714e-08 1.623e-20
-2.60533e-08 -4.18394e-09 -3.28086e-21
-4.93316e-09 -1.42225e-08 -1.32647e-21
1.6096e-07 -1.31693e-08 -1.17057e-21
1.95589e-08 1.65142e-08 -1.36045e-20
-5.87779e-08 -4.66813e-08 1.62331e-20
3.3895e-09 6.59617e-10 7.35987e-22
-2.61345e-08 -4.62512e-09 7.12106e-21
1.14774e-08 -7.47476e-08 1.37981e-20
1.20962e-07 -1.23886e-07 1.58647e-20
2.36449e-10 -5.58058e-09 3.4208e-20
-1.48546e-09 4.28794e-09 -1.07734e-20
-4.66554e-09 -3.05678e-09 -4.78179e-21
5.75924e-10 3.09436e-09 2.43881e-20
-4.69602e-09 8.1093e-10 1.82982e-20
1.88791e-08 -2.05785e-08 -1.23824e-20
1.18037e-07 1.29106e-07 -6.14896e-21
7.52421e-08 -3.41003e-08 -8.76011e-21
1.10147e-09 -2.83753e-09 3.8512e-20
-1.88988e-09 -2.44326e-09 3.29514e-21
-2.59652e-08 5.30398e-09 9.06081e-21
7.4761e-08 -7.34254e-08 1.05107e-20
-6.9548e-08 2.50337e-08 -5.03412e-21
-8.76924e-09 -3.82179e-08 5.5608e-22
1.58002e-08 3.83797e-08 -2.70904e-20
-2.49068e-08 6.49422e-09 -9.80491e-21
-4.31077e-08 6.70347e-08 -1.31584e-20
7.63804e-08 3.74172e-08 2.45753e-21
6.62516e-08 -2.17844e-08 -5.04324e-21
-1.90347e-09 4.54185e-09 -2.20103e-20
-5.1843e-08 -4.65286e-08 2.7727e-20
-4.9778e-09 6.69654e-10 2.78881e-21
-1.11454e-07 6.54508e-08 -2.28434e-20
-1.37702e-09 -4.2705e-09 3.03108e-20
1.47663e-08 -6.84643e-08 -6.91876e-21
-4.34291e-09 -9.63621e-10 -3.24179e-20
1.15442e-08 2.31385e-08 -1.68759e-20
-6.13875e-09 -1.81225e-09 2.51053e-21
-6.47318e-09 -6.01977e-09 3.83621e-21
1.45054e-07 6.38596e-08 -1.0428e-20
-1.74402e-10 1.25074e-08 -3.21905e-21
1.88215e-09 -8.33228e-09 1.31579e-20
3.28249e-09 -1.86157e-08 1.44343e-20
-1.34051e-09 -6.0734e-09 1.17437e-20
-1.49418e-08 -3.76694e-09 8.42695e-21
-1.74131e-08 2.13134e-08 -3.2106e-21
4.66864e-09 -1.66891e-09 -1.10255e-20
-1.8763e-09 -4.67491e-09 3.39797e-20
-4.92303e-09 -7.32298e-10 -2.53874e-20
-8.67209e-09 8.03345e-08 -1.44696e-20
-1.52914e-08 7.7171e-09 -1.04688e-20
-1.49015e-08 2.54906e-08 7.28272e-22
-1.50962e-07 1.77415e-08 -1.34137e-20
-2.28974e-11 -1.17759e-08 2.05051e-20
-1.43609e-08 -1.20687e-08 -1.25485e-20
6.08723e-09 1.47999e-08 -1.04518e-20
5.7652e-08 1.153e-08 -2.52517e-21
8.27879e-08 -7.20425e-08 -5.55756e-21
2.20128e-09 5.43839e-09 4.10443e-21
5.49902e-09 1.7525e-09 -1.7139e-20
-7.71551e-08 5.70833e-08 -1.24293e-20
8.99782e-08 1.09355e-08 -5.58318e-21
-1.36648e-08 1.22146e-07 -2.35286e-20
-4.72296e-09 -2.43038e-08 1.19543e-21
1.64505e-08 1.15971e-08 2.76402e-23
7.19113e-08 7.58395e-08 3.10054e-21
1.28356e-09 5.17779e-10 -8.87519e-21
-1.38413e-08 6.88521e-08 -7.60815e-21
1.15741e-09 -5.73403e-10 2.53427e-20
-8.18631e-09 5.62201e-09 -5.9186e-21
1.77958e-08 7.22121e-09 -8.51291e-21
-6.62974e-08 2.04838e-08 -2.61805e-21
3.85178e-08 6.76934e-08 1.86902e-21
2.39727e-08 -1.08255e-07 -1.24494e-21
5.61097e-09 1.46626e-08 -4.6296e-21
-1.00745e-08 -5.96384e-09 1.38317e-20
8.4158e-09 2.68575e-08 -2.86757e-20
5.60297e-08 9.52546e-09 1.90878e-21
-3.72701e-08 7.6976e-08 -1.94824e-21
9.91639e-08 -3.24103e-08 -8.63515e-21
-5.46896e-09 1.19395e-08 -2.33669e-20
1.04447e-08 1.06554e-08 -2.02287e-20
-6.24513e-09 -1.43465e-08 -3.3273e-23
-2.54005e-09 -1.0883e-08 1.18157e-20
2.89957e-08 3.45862e-09 2.01473e-20
-2.12867e-08 9.9527e-08 -2.61291e-20
-4.84418e-09 3.03053e-09 -1.62587e-20
1.4457e-08 2.14546e-08 -1.67879e-20
-7.20194e-09 -1.02181e-07 6.26198e-21
1.03337e-07 3.1029e-08 -3.78932e-21
6.98772e-09 -1.2358e-08 5.22537e-21
-1.59481e-08 -1.80408e-09 -2.03765e-21
-6.59708e-08 -2.64662e-08 1.8257e-20
3.21177e-09 3.41479e-09 -5.52251e-22
-1.04961e-07 -3.6701e-08 7.3994e-21
3.26232e-09 -3.40843e-09 3.98517e-20
-1.02029e-08 -7.16387e-08 1.76897e-20
4.41365e-08 1.67708e-09 -1.02239e-20
-3.90244e-09 3.26191e-09 -1.2627e-20
1.06956e-09 4.80046e-09 -1.44287e-20
2.97804e-09 -1.28383e-08 -7.9175e-21
5.10256e-09 -2.34372e-09 3.62304e-23
3.65948e-11 5.11729e-09 1.06752e-20
4.39479e-09 -5.57614e-10 2.01478e-20
8.30951e-09 -1.23091e-08 9.78477e-21
-2.14979e-08 -1.09604e-07 1.74422e-20
5.66684e-08 -4.36387e-08 8.27124e-21
1.46498e-10 6.80525e-09 -1.32331e-20
-4.7601e-09 -8.39849e-10 8.35832e-21
-1.50138e-09 -5.28151e-09 -2.6911e-21
-3.9054e-09 -2.78396e-09 6.50245e-21
-5.30188e-08 6.62524e-08 -4.43076e-21
-5.92321e-11 -5.15197e-09 2.35659e-20
-6.64161e-08 1.04272e-07 -1.74217e-20
-2.47919e-08 1.13821e-08 7.79742e-21
3.47521e-09 3.69404e-09 3.03766e-20
-4.43377e-09 -2.5966e-09 1.30555e-21
3.23305e-08 7.80353e-08 -5.02125e-21
1.85134e-08 1.6547e-08 -1.10649e-20
4.51707e-08 -1.48865e-08 6.86383e-22
2.55792e-09 -1.38399e-08 -6.84459e-22
-8.2256e-08 -7.57961e-08 4.22525e-20
-7.90547e-09 1.35989e-08 -7.76752e-21
2.04309e-08 1.09009e-08 -5.20411e-21
2.99397e-08 -1.02898e-08 5.26217e-21
1.29253e-08 -2.58458e-08 -6.4476e-21
5.14189e-08 -2.37187e-08 3.86376e-23
3.41418e-08 -1.61158e-08 4.52376e-21
3.40151e-09 -2.85823e-09 1.31896e-21
5.97509e-08 4.7264e-08 1.69192e-20
-8.63135e-09 -2.48664e-08 -9.82932e-21
-1.05333e-08 -9.0499e-09 -1.37683e-20
-1.74987e-09 -4.52466e-09 2.0187e-20
2.40357e-09 1.77095e-08 -2.49187e-20
-7.98842e-08 5.72392e-09 -6.97143e-21
-2.91918e-08 -7.6252e-08 -5.7344e-21
-1.25088e-08 1.59446e-08 -1.62163e-20
2.46262e-08 3.28427e-08 -5.09283e-21
6.14977e-08 -4.36188e-08 2.07524e-20
-9.00388e-08 -4.81391e-08 1.17051e-20
4.00004e-08 -6.51298e-08 -2.54211e-21
5.20531e-08 -6.40441e-08 1.01171e-20
-1.52441e-08 1.48631e-09 -6.01113e-21
-4.57025e-08 -6.61331e-08 -8.08871e-23
-8.00014e-08 -1.25328e-08 6.20885e-21
-9.54182e-09 -7.30352e-08 1.38003e-20
3.55856e-08 -7.35575e-08 -4.41948e-21
7.6404e-10 -9.9919e-09 2.25283e-20
1.05717e-08 7.04016e-08 -1.01446e-20
-3.77054e-08 -6.5949e-08 -3.19991e-21
-3.55751e-09 -1.60422e-08 1.83493e-20
-5.4436e-08 4.07582e-08 -6.84234e-22
-1.05778e-08 -3.42224e-09 2.82489e-20
-8.19824e-09 -5.67145e-09 -6.6575e-21
2.16137e-08 -1.10718e-08 9.18255e-21
-2.93125e-09 4.1336e-09 -1.06986e-20
1.14539e-08 -1.45163e-08 -7.15835e-21
-6.77977e-08 -3.01516e-08 1.68219e-20
-8.90624e-09 -1.20291e-08 -2.5511e-20
9.30295e-09 1.27666e-08 -1.23918e-20
4.8999e-08 6.76526e-08 2.83436e-20
-1.7207e-08 -7.92518e-09 -6.63026e-21
-7.54382e-08 -1.69577e-09 -8.16296e-21
-9.54832e-09 -8.9201e-09 -2.67611e-21
-5.21816e-10 -1.28504e-08 -3.34447e-21
9.36539e-09 4.68717e-09 7.0744e-22
-1.08278e-08 1.07121e-08 -3.39076e-20
-1.81952e-09 -1.89484e-08 1.30809e-20
-1.0075e-07 2.48089e-08 1.23437e-21
5.51343e-08 4.70513e-08 1.51601e-20
7.36275e-09 7.66824e-08 -3.45358e-20
-4.42585e-09 1.49503e-09 1.80181e-21
-1.47585e-08 4.58582e-10 2.49011e-21
6.7693e-09 1.29382e-08 -5.88785e-21
-5.30224e-09 -1.33826e-09 -1.05673e-20
6.53191e-10 -4.56495e-09 1.6376e-20
-2.97318e-09 2.00642e-08 -9.81728e-21
3.24491e-09 3.46222e-09 -3.46834e-20
-3.73509e-08 8.2514e-09 5.69772e-21
-3.79559e-08 4.14044e-08 -1.97159e-20
-4.06873e-09 3.72095e-09 -1.52173e-20
-6.87539e-08 4.14831e-08 -7.57351e-21
-1.70684e-09 5.78468e-09 -3.31889e-21
1.84104e-08 -6.56584e-09 6.62606e-21
8.61562e-08 -7.92319e-09 -1.83109e-21
-1.06771e-08 6.75347e-09 -4.59224e-21
4.34874e-09 1.97474e-09 6.62416e-21
1.10977e-08 -6.9863e-09 1.78943e-20
-1.91496e-08 6.34987e-09 5.21949e-21
-1.39551e-08 3.62777e-09 -1.57722e-20
4.8433e-09 -1.45916e-09 1.84873e-20
4.55643e-08 -2.77097e-08 -5.71752e-21
-1.78277e-08 1.13681e-08 1.90382e-20
-5.35974e-08 -1.11753e-08 1.14716e-21
-1.12758e-08 -5.96521e-09 -6.79561e-23
4.28782e-09 -2.89913e-09 1.18462e-20
4.75555e-09 3.39621e-09 -2.09538e-20
-1.25589e-09 5.43186e-09 1.31785e-20
-5.34349e-10 -6.13057e-09 1.88709e-20
-4.99402e-09 2.50786e-09 -5.42609e-21
-5.58984e-09 -2.81795e-09 1.09862e-20
1.40187e-08 -5.2657e-09 8.50369e-21
-5.05757e-09 -1.43783e-09 -9.28366e-21
-5.04524e-09 1.38557e-09 -3.85635e-21
-1.20372e-09 5.03823e-09 -1.52839e-20
-1.31207e-09 -5.14908e-09 1.25189e-20
3.3427e-09 -3.71625e-09 3.14145e-20
3.21148e-09 3.55346e-09 3.42516e-21
1.95938e-09 5.43854e-08 -1.27514e-20
1.04706e-08 -8.68932e-09 -5.17757e-21
2.44491e-09 -4.62265e-09 3.20004e-20
-4.09466e-08 1.50657e-09 8.3316e-21
3.86353e-09 -3.60385e-09 2.0582e-20
3.60789e-09 3.65888e-09 1.46504e-20
5.549e-09 -1.22078e-10 3.95918e-21
1.88295e-08 5.33232e-08 -1.71127e-20
-2.8115e-09 -4.5901e-09 3.31782e-20
6.09024e-09 -1.38961e-08 7.83253e-21
-4.57607e-08 -2.53215e-08 -1.38609e-21
-9.95981e-09 -6.4607e-09 -6.22822e-23
-4.59385e-08 2.72358e-08 -4.41647e-23
4.04637e-09 -4.0966e-09 5.31338e-21
-1.94617e-09 4.31912e-09 -3.82117e-21
-1.07447e-09 -5.2652e-08 -6.57086e-22
-1.72536e-08 -5.21762e-08 -3.82386e-21
7.92456e-08 7.54332e-08 6.80857e-21
8.47561e-08 -4.81776e-09 3.11139e-21
-5.91348e-09 1.32327e-09 -2.15924e-20
-5.67064e-08 -1.00198e-07 -4.40675e-21
1.34328e-08 2.30453e-08 1.94109e-21
-5.42298e-08 6.38751e-09 5.63362e-21
3.88657e-08 1.08668e-08 1.28345e-20
-5.29e-09 -2.14261e-11 2.6519e-20
1.47911e-10 -5.47569e-09 1.50488e-20
-4.56265e-10 -3.69052e-09 3.92882e-20
-4.65152e-09 -2.80828e-09 3.87576e-21
-1.17572e-07 -4.45473e-09 -1.31017e-20
3.68615e-08 -4.16991e-08 -3.84372e-21
2.48756e-09 4.83845e-09 -2.61242e-20
1.28507e-09 -2.3164e-08 -7.1501e-22
-2.19986e-08 5.20834e-08 -1.01735e-20
4.80899e-10 5.79549e-09 1.63277e-20
3.92737e-08 -2.81187e-08 1.22249e-20
-3.36688e-09 -1.49154e-09 -1.96831e-20
-3.34575e-08 -4.34755e-08 1.32611e-20
4.57985e-09 2.28653e-09 3.74378e-20
1.07938e-08 1.05114e-08 -1.76868e-20
-7.73431e-09 -1.2045e-08 -1.69959e-20
4.67471e-09 -1.56725e-09 1.06327e-20
1.60423e-08 -1.1213e-08 1.91006e-20
-9.39067e-10 8.88944e-09 -6.60548e-21
1.32413e-08 -2.23273e-08 -8.42838e-21
1.21755e-07 6.1351e-09 1.22419e-21
-1.03173e-07 2.72929e-08 -2.95574e-20
8.51279e-09 5.92613e-09 4.07003e-21
-1.27197e-08 -3.05968e-08 -7.84257e-21
-1.92692e-08 -1.25853e-08 3.20843e-21
6.30416e-08 -6.35715e-10 -1.65203e-20
5.26819e-10 -1.1907e-08 1.51086e-20
-1.5673e-08 -5.48462e-09 9.1297e-21
2.14833e-08 -5.13474e-08 -6.43438e-22
1.70724e-09 2.05452e-08 -2.81402e-20
1.76285e-08 5.466e-08 -4.15137e-20
2.10486e-08 -1.1095e-08 3.28345e-21
-3.85827e-08 4.10758e-08 -2.68693e-20
3.55037e-08 4.38793e-08 1.1403e-20
-2.17909e-09 9.61176e-10 8.19095e-21
3.92513e-10 9.42495e-09 -2.99174e-20
6.50987e-10 -4.25051e-09 2.57757e-20
-3.39293e-09 -2.74657e-09 1.37598e-20
-1.17063e-08 9.32212e-09 -5.1969e-21
-5.40613e-08 -1.27961e-08 3.10877e-21
1.73816e-10 5.99473e-09 -2.63629e-21
-1.40648e-08 4.14542e-09 -2.01665e-21
3.82397e-08 -5.52926e-09 -8.33146e-21
-1.63939e-08 -5.30332e-08 -3.95208e-23
-3.22764e-08 5.13953e-08 -3.8293e-21
-9.00165e-09 4.16561e-09 1.36755e-21
-4.32493e-08 -3.05926e-08 5.63733e-21
9.70126e-09 -4.51507e-09 3.45341e-20
-5.86391e-08 -2.8694e-09 -3.26323e-21
2.87973e-08 -1.01643e-07 6.78442e-21
3.92006e-08 -4.11869e-08 1.02356e-20
6.01314e-08 1.06624e-07 -6.21205e-21
-5.86944e-10 1.27359e-08 -2.03338e-20
5.13779e-09 -5.34195e-08 1.21027e-20
-2.02918e-09 1.23419e-09 1.38222e-21
-2.78085e-08 -5.18766e-08 -1.34496e-21
9.22462e-09 -7.9535e-09 1.05382e-20
-5.36783e-09 5.40397e-08 -1.72295e-20
1.29443e-08 -3.74903e-09 1.38417e-20
2.96299e-08 5.28154e-08 -4.46026e-21
2.95928e-08 -6.81972e-10 5.2198e-21
5.43485e-08 -1.60389e-07 1.21801e-21
-1.14594e-08 -2.13072e-08 -1.75949e-20
-4.78689e-08 2.0858e-08 1.82246e-21
-6.64332e-09 3.21851e-09 -8.61093e-21
4.54454e-08 3.04334e-08 1.46083e-20
3.23189e-08 -1.78427e-08 7.80459e-21
1.70226e-08 7.44276e-09 7.20756e-22
-3.46383e-09 2.96347e-09 -1.16621e-20
3.24847e-08 -5.01975e-08 5.06291e-21
-3.46253e-08 -4.3217e-08 5.01046e-21
4.46492e-08 1.76019e-08 -5.17139e-21
1.12857e-08 -6.94667e-09 1.78246e-20
2.08913e-08 -5.19153e-08 9.5372e-21
2.44556e-08 -4.60531e-09 1.11151e-20
-2.37468e-08 -9.4566e-09 1.42647e-20
-1.01854e-09 -9.54631e-09 2.65926e-20
-5.46024e-08 7.57186e-09 3.80688e-21
5.73558e-09 4.78654e-08 -8.98351e-21
3.72837e-08 8.68243e-09 -6.82869e-22
-4.23997e-08 -1.89654e-08 1.86031e-21
-2.08813e-08 5.35008e-08 -5.14573e-21
-4.7785e-09 -4.66252e-08 -1.2975e-21
1.22246e-08 5.96724e-09 -9.15733e-21
-8.01322e-09 2.24658e-08 -2.54339e-21
-3.81242e-08 2.735e-08 -1.02897e-20
4.90113e-08 2.47286e-08 8.27959e-21
-2.22122e-08 -6.94293e-09 7.75425e-21
-5.42044e-09 -2.28555e-08 1.87735e-21
3.74388e-08 4.35419e-08 5.08969e-21
-8.68776e-09 -3.94836e-09 -1.47499e-20
1.23754e-07 -8.89389e-08 1.68433e-20
2.59866e-08 -1.81967e-08 4.58514e-21
2.13522e-08 1.04654e-07 -2.06207e-20
2.74245e-08 -2.63965e-08 -4.53335e-21
-5.9848e-08 2.27896e-07 -1.38216e-20
-6.0191e-08 -2.2568e-07 -4.62291e-23
1.47878e-07 1.9435e-07 -2.60127e-20
1.46052e-07 -1.94295e-07 1.6121e-20
2.42048e-07 -1.02322e-10 -1.27118e-20
-2.08674e-07 8.39904e-08 -1.83985e-20
-2.05216e-07 -8.48986e-08 -2.25692e-20
9.83849e-09 5.30141e-09 3.99725e-21
6.27423e-09 3.06136e-09 1.10281e-22
1.8419e-08 2.46255e-09 1.37232e-20
3.25576e-08 1.74021e-08 5.83013e-21
9.66456e-09 3.85081e-08 -3.21253e-20
-3.49366e-08 -3.0027e-08 6.98194e-21
1.75074e-08 -1.61838e-08 -8.50506e-21
3.75407e-08 3.01461e-08 3.23604e-21
-8.70277e-09 4.74088e-08 -1.9593e-21
6.08013e-09 -3.00122e-09 2.81605e-20
8.84291e-09 -4.54871e-08 9.64475e-21
1.14324e-08 7.75072e-09 -3.26103e-21
6.78661e-08 2.37652e-08 4.42152e-21
1.44778e-09 4.81306e-09 1.39793e-20
2.61239e-08 8.53561e-09 1.16726e-20
-3.23632e-08 1.78945e-08 -3.84833e-21
-4.43602e-08 1.53312e-08 2.49284e-21
8.68765e-09 -5.95164e-09 2.59635e-20
-2.82546e-08 -1.30623e-08 -4.92572e-23
-3.10742e-08 -1.84066e-08 8.99382e-21
-2.73493e-09 -3.11581e-08 3.85485e-21
1.19881e-10 -3.58263e-08 5.11912e-21
-3.94986e-08 -1.70499e-09 -6.97376e-22
5.87222e-08 -9.12029e-09 -5.67907e-21
3.15878e-08 1.94692e-08 -8.37265e-21
-2.61073e-08 1.7816e-08 -3.89088e-21
-1.17173e-08 5.69962e-09 -7.25848e-21
2.95004e-08 -2.64448e-08 -1.54278e-20
-2.2186e-08 3.45355e-08 7.0887e-22
-2.73152e-08 -2.87719e-08 7.00193e-21
-2.59441e-09 3.75772e-08 -6.46011e-21
-5.63873e-09 3.16737e-08 1.10589e-20
9.19969e-10 -2.29503e-08 3.82819e-21
1.18857e-08 -3.84246e-08 1.7986e-20
-1.9354e-08 -1.24198e-08 -2.03955e-21
2.68814e-08 -7.65494e-09 1.10583e-20
5.68092e-11 3.75296e-08 -1.67842e-20
-8.26128e-10 2.39163e-08 6.55986e-21
-6.04073e-09 2.69439e-08 -5.80713e-21
4.41958e-08 -1.08765e-08 8.40702e-21
-9.19128e-09 8.84105e-09 1.19206e-20
1.00157e-08 3.75534e-08 -3.04424e-20
-5.97375e-09 3.76589e-09 -3.32029e-21
2.24104e-08 1.03953e-07 -1.47921e-20
-1.08493e-08 5.88573e-09 2.04907e-20
1.15143e-08 -6.00039e-09 1.3938e-20
3.33858e-09 3.1876e-08 -1.68854e-20
-3.74321e-08 8.87273e-09 -1.34463e-21
-1.18098e-09 -1.61502e-08 9.1565e-21
1.58366e-09 -1.48474e-07 7.86157e-21
4.48167e-09 2.70245e-08 -3.05492e-20
-2.79509e-08 2.66086e-08 -1.6807e-20
4.36524e-08 1.62391e-07 -1.84381e-20
2.02458e-09 1.34834e-09 -5.93821e-22
1.74838e-09 -1.28501e-09 2.7918e-20
2.10096e-08 -1.64054e-08 -1.96814e-21
-2.99079e-08 2.67768e-08 -2.18228e-20
-3.58626e-08 -1.05725e-08 8.35149e-21
-3.68838e-08 -1.21077e-08 4.38985e-21
-8.33859e-10 5.28041e-10 1.10215e-20
-6.00144e-10 -3.46903e-10 -4.12077e-21
1.71874e-08 3.47579e-09 1.44514e-20
5.4724e-09 2.50623e-08 -3.45519e-20
-6.34095e-10 2.49208e-08 -1.36805e-20
-1.2433e-07 -9.03663e-08 -5.42914e-21
2.19454e-08 -3.45323e-08 5.76882e-21
1.10454e-08 3.92361e-09 1.12508e-20
-4.06983e-08 -4.36573e-09 -5.21877e-21
-2.5732e-08 3.40048e-08 -1.35212e-20
-3.32094e-08 1.56101e-08 -1.97192e-21
1.22122e-07 8.76993e-08 -2.35086e-20
1.19183e-08 7.8717e-09 -2.57919e-21
-1.18259e-08 3.85632e-08 5.15253e-21
-2.32288e-08 -1.99175e-08 -2.00847e-21
5.79458e-09 -3.03083e-08 5.82859e-21
-1.88536e-08 -3.58396e-08 -3.94498e-21
-3.01736e-08 -2.06821e-08 5.38973e-22
2.06914e-08 -3.66998e-08 8.39675e-21
2.4805e-08 -3.41195e-08 -2.56346e-21
-7.91263e-09 -1.54834e-07 6.13419e-21
6.35765e-08 -1.01704e-07 9.35874e-21
3.02057e-09 -3.68461e-08 1.80222e-20
2.59409e-08 1.97678e-08 -1.88775e-21
-2.33267e-08 -2.83395e-08 -1.97425e-21
-2.02655e-08 3.77599e-08 7.11898e-21
-1.24606e-08 3.69846e-08 -4.51072e-21
2.70724e-08 2.8068e-08 -1.41647e-20
1.32927e-08 -3.45903e-08 6.32497e-22
-3.45406e-08 -9.84568e-08 -3.70901e-21
7.69757e-10 1.18012e-08 -2.1767e-20
2.74418e-08 2.82518e-08 -1.08563e-20
-1.4736e-08 -7.22074e-09 1.30977e-20
-1.2231e-08 6.64366e-09 -2.63297e-21
1.10561e-07 -4.84399e-08 -4.36814e-21
1.3646e-08 -2.25518e-08 3.27481e-21
-1.29484e-08 -2.21617e-08 -1.9501e-20
4.81877e-09 -4.32651e-10 2.26685e-20
3.43028e-10 -1.79796e-09 2.99181e-20
-1.36209e-09 -1.26158e-09 2.67976e-21
5.96551e-09 3.96047e-09 2.0327e-21
-1.90171e-08 -3.58851e-08 9.57378e-21
2.91859e-08 1.16897e-08 8.46701e-21
-7.15063e-08 -7.86086e-08 6.13651e-21
2.01192e-10 2.23148e-09 2.78842e-20
2.88318e-10 5.36342e-10 3.98849e-20
6.34252e-10 -2.47956e-11 6.86698e-21
6.8671e-08 -1.35693e-07 1.74167e-20
-2.81033e-09 3.2862e-09 -1.21307e-20
-6.20788e-10 3.97521e-09 2.70897e-21
-2.93529e-08 1.04145e-08 1.03586e-20
-1.03332e-09 1.18309e-08 -1.84937e-20
-6.46703e-09 1.9105e-08 -1.29293e-20
1.32703e-08 5.41384e-10 -1.6301e-20
3.02963e-09 1.14332e-08 -2.10724e-20
-7.82566e-10 1.58148e-08 -3.22175e-20
2.27539e-08 1.23701e-08 -5.20931e-21
1.66121e-09 1.4779e-07 -2.53727e-20
-2.11801e-08 2.00682e-08 -6.47281e-21
1.58299e-08 -1.06849e-08 -2.60131e-21
9.09611e-09 -8.38231e-09 3.97113e-21
-1.51515e-07 -2.07992e-08 -2.556e-20
-4.21616e-09 1.70198e-09 -6.04082e-21
-1.1024e-07 -1.30397e-07 1.71612e-20
1.92981e-09 5.28403e-09 3.3658e-20
1.918e-08 3.69308e-09 2.42379e-20
5.737e-08 -7.43587e-09 -8.88536e-21
-1.30719e-08 -2.1476e-08 -2.02288e-20
2.49748e-08 7.13456e-09 4.54183e-21
8.95325e-11 -6.29945e-09 1.99628e-20
-1.40548e-08 1.63066e-08 2.0248e-21
-5.35731e-09 -3.36537e-09 1.66123e-20
-1.27292e-08 2.58101e-08 -2.49968e-21
2.31775e-09 1.62218e-08 -2.624e-20
3.68605e-09 2.68394e-09 -1.91675e-21
3.65297e-09 -2.57655e-09 2.02692e-20
-1.02643e-07 -2.79558e-08 -9.29445e-21
1.12184e-08 4.1471e-09 2.88991e-20
-1.35851e-08 2.63702e-07 -2.526e-20
-9.15171e-10 -2.70897e-07 3.18093e-20
1.33319e-07 2.28334e-07 -1.79793e-20
-1.36679e-08 1.08793e-08 9.21523e-21
-7.07268e-08 1.42226e-07 -1.93479e-20
1.34101e-07 -2.20413e-07 3.40941e-20
-2.20497e-08 -3.56901e-08 -5.17186e-21
2.03702e-07 1.78412e-07 -3.05721e-20
2.32597e-09 -4.13493e-09 2.34057e-20
-2.4318e-09 -4.18898e-09 -7.71859e-22
2.13498e-07 -1.74424e-07 1.92277e-20
-1.30068e-08 2.55575e-08 5.8693e-21
-1.34053e-07 -8.5375e-08 4.30343e-21
-1.13129e-07 -2.35677e-07 -7.7898e-21
-6.33331e-08 -1.45676e-07 -1.81314e-21
-1.16298e-07 2.39601e-07 -1.62756e-20
-2.74722e-08 1.62346e-07 -2.63009e-20
-1.94563e-10 5.55762e-09 1.08664e-20
-7.05072e-08 9.0761e-08 -2.82456e-20
-6.75997e-08 -1.38245e-07 6.00086e-21
2.62594e-07 4.587e-08 -3.30136e-20
-2.03471e-08 1.73242e-08 -7.81791e-21
-4.51081e-10 1.13772e-08 -3.56099e-20
-1.27003e-07 9.19426e-08 -4.2694e-21
-2.25753e-08 1.2044e-08 -9.78383e-21
2.60049e-07 -4.08175e-08 -2.15904e-20
-1.72085e-08 1.15724e-08 1.96531e-20
1.25742e-08 -2.6016e-08 2.52522e-20
-2.02343e-07 -1.53731e-07 -1.08131e-20
-6.82299e-08 1.46184e-07 -1.77358e-20
-2.0726e-07 1.5261e-07 8.98756e-21
6.05608e-08 1.35184e-07 -2.34076e-20
-2.21246e-08 1.75982e-08 -2.00558e-20
-6.06945e-09 3.42367e-09 -2.41462e-20
-3.13353e-10 -6.69172e-10 2.13025e-20
2.16296e-10 -4.9592e-10 2.60895e-20
1.697e-09 1.76172e-08 -3.13858e-20
-4.75087e-10 6.67081e-10 5.35752e-20
3.8501e-10 7.12036e-10 -8.94377e-21
5.41148e-10 -2.94465e-10 3.44399e-21
-2.56426e-10 2.05713e-09 2.25569e-20
-4.65709e-08 1.01595e-07 -6.83588e-21
-3.45606e-09 2.4309e-09 -2.76915e-20
5.91086e-09 -3.77478e-09 2.12414e-20
5.80423e-09 -3.37718e-09 3.48787e-20
1.69018e-08 6.56825e-09 1.31363e-20
-1.32678e-10 -1.75947e-09 2.80205e-20
-1.55769e-09 -8.19335e-10 -4.81543e-21
5.79649e-09 3.38503e-09 -3.89153e-21
1.50654e-07 -2.90804e-08 -9.05488e-21
-1.93901e-08 -2.47114e-08 5.87597e-22
-1.31865e-07 9.19842e-08 -1.26407e-20
-1.17948e-07 1.34521e-07 -8.5892e-21
1.58986e-07 -5.74276e-08 -1.22805e-20
-6.80154e-10 -2.20484e-09 3.86626e-20
-7.56875e-10 2.26674e-09 -3.3944e-21
-2.45053e-09 4.92707e-10 3.05836e-20
-1.6752e-09 1.59446e-09 -1.35554e-20
-2.21559e-09 -5.48412e-10 -1.9684e-20
3.16968e-10 5.93184e-10 2.67111e-20
2.37008e-09 -6.47414e-10 2.02976e-20
9.41847e-10 -7.25825e-10 3.35334e-20
-8.23618e-10 -4.6347e-10 2.33628e-20
1.56987e-09 -1.52336e-09 3.46258e-20
1.57921e-09 1.5698e-09 -3.31984e-21
-8.28832e-10 3.92312e-10 -2.67854e-21
6.87597e-10 -2.55089e-10 -1.63486e-20
1.20549e-09 7.05456e-10 2.85137e-21
2.74584e-09 1.0508e-09 -1.95068e-21
SCALARS rr_necrosis float
LOOKUP_TABLE default
0
0
0
0
0
0
0
0
0
0
0
0
0
0
0
0
0
0
0
0
0
0
0
0
0
0
0
0
0
0
0
0
0
0
0
0
0
0
0
0
0
0
0
0
0
0
0
0
0
0
0
0
0
0
0
0
0
0
0
0
0
0
0
0
0
0
0
0
0
0
0
0
0
0
0
0
0
0
0
0
0
0
0
0
0
0
0
0
0
0
0
0
0
0
0
0
0
0
0
0
0
0
0
0
0
0
0
0
0
0
0
0
0
0
0
0
0
0
0
0
0
0
0
0
0
0
0
0
0
0
0
0
0
0
0
0
0
0
0
0
0
0
0
0
0
0
0
0
0
0
0
0
0
0
0
0
0
0
0
0
0
0
0
0
0
0
0
0
0
0
0
0
0
0
0
0
0
0
0
0
0
0
0
0
0
0
0
0
0
0
0
0
0
0
0
0
0
0
0
0
0
0
0
0
0
0
0
0
0
0
0
0
0
0
0
0
0
0
0
0
0
0
0
0
0
0
0
0
0
0
0
0
0
0
0
0
0
0
0
0
0
0
0
0
0
0
0
0
0
0
0
0
0
0
0
0
0
0
0
0
0
0
0
0
0
0
0
0
0
0
0
0
0
0
0
0
0
0
0
0
0
0
0
0
0
0
0
0
0
0
0
0
0
0
0
0
0
0
0
0
0
0
0
0
0
0
0
0
0
0
0
0
0
0
0
0
0
0
0
0
0
0
0
0
0
0
0
0
0
0
0
0
0
0
0
0
0
0
0
0
0
0
0
0
0
0
0
0
0
0
0
0
0
0
0
0
0
0
0
0
0
0
0
0
0
0
0
0
0
0
0
0
0
0
0
0
0
0
0
0
0
0
0
0
0
0
0
0
0
0
0
0
0
0
0
0
0
0
0
0
0
0
0
0
0
0
0
0
0
0
0
0
0
0
0
0
0
0
0
0
0
0
0
0
0
0
0
0
0
0
0
0
0
0
0
0
0
0
0
0
0
0
0
0
0
0
0
0
0
0
0
0
0
0
0
0
0
0
0
0
0
0
0
0
0
0
0
0
0
0
0
0
0
0
0
0
0
0
0
0
0
0
0
0
0
0
0
0
0
0
0
0
0
0
0
0
0
0
0
0
0
0
0
0
0
0
0
0
0
0
0
0
0
0
0
0
0
0
0
0
0
0
0
0
0
0
0
0
0
0
0
0
0
0
0
0
0
0
0
0
0
0
0
0
0
0
0
0
0
0
0
0
0
0
0
0
0
0
0
0
0
0
0
SCALARS rr_protein float
LOOKUP_TABLE default
1
1
1
1
1
1
1
1
1
1
1
1
1
1
1
1
1
1
1
1
1
1
1
1
1
1
1
1
1
1
1
1
1
1
1
1
1
1
1
1
1
1
1
1
1
1
1
1
1
1
1
1
1
1
1
1
1
1
1
1
1
1
1
1
1
1
1
1
1
1
1
1
1
1
1
1
1
1
1
1
1
1
1
1
1
1
1
1
1
1
1
1
1
1
1
1
1
1
1
1
1
1
1
1
1
1
1
1
1
1
1
1
1
1
1
1
1
1
1
1
1
1
1
1
1
1
1
1
1
1
1
1
1
1
1
1
1
1
1
1
1
1
1
1
1
1
1
1
1
1
1
1
1
1
1
1
1
1
1
1
1
1
1
1
1
1
1
1
1
1
1
1
1
1
1
1
1
1
1
1
1
1
1
1
1
1
1
1
1
1
1
1
1
1
1
1
1
1
1
1
1
1
1
1
1
1
1
1
1
1
1
1
1
1
1
1
1
1
1
1
1
1
1
1
1
1
1
1
1
1
1
1
1
1
1
1
1
1
1
1
1
1
1
1
1
1
1
1
1
1
1
1
1
1
1
1
1
1
1
1
1
1
1
1
1
1
1
1
1
1
1
1
1
1
1
1
1
1
1
1
1
1
1
1
1
1
1
1
1
1
1
1
1
1
1
1
1
1
1
1
1
1
1
1
1
1
1
1
1
1
1
1
1
1
1
1
1
1
1
1
1
1
1
1
1
1
1
1
1
1
1
1
1
1
1
1
1
1
1
1
1
1
1
1
1
1
1
1
1
1
1
1
1
1
1
1
1
1
1
1
1
1
1
1
1
1
1
1
1
1
1
1
1
1
1
1
1
1
1
1
1
1
1
1
1
1
1
1
1
1
1
1
1
1
1
1
1
1
1
1
1
1
1
1
1
1
1
1
1
1
1
1
1
1
1
1
1
1
1
1
1
1
1
1
1
1
1
1
1
1
1
1
1
1
1
1
1
1
1
1
1
1
1
1
1
1
1
1
1
1
1
1
1
1
1
1
1
1
1
1
1
1
1
1
1
1
1
1
1
1
1
1
1
1
1
1
1
1
1
1
1
1
1
1
1
1
1
1
1
1
1
1
1
1
1
1
1
1
1
1
1
1
1
1
1
1
1
1
1
1
1
1
1
1
1
1
1
1
1
1
1
1
1
1
1
1
1
1
1
1
1
1
1
1
1
1
1
1
1
1
1
1
1
1
1
1
1
1
1
1
1
1
1
1
1
1
1
1
1
1
1
1
1
SCALARS rr_(S_ext) float
LOOKUP_TABLE default
0.522078
0.52344
0.523321
0.523415
0.523807
0.523319
0.522073
0.523403
0.523207
0.523438
0.522144
0.523403
0.523375
0.523457
0.523671
0.523342
0.523506
0.523385
0.523143
0.523286
0.52327
0.524301
0.523269
0.523289
0.523284
0.523408
0.522347
0.523338
0.522767
0.524008
0.52337
0.522769
0.522329
0.523922
0.523965
0.52392
0.524022
0.523947
0.523369
0.522333
0.522763
0.524028
0.524026
0.523371
0.522454
0.522787
0.523173
0.52323
0.523325
0.52268
0.522731
0.522909
0.523784
0.522913
0.523773
0.522504
0.523969
0.522913
0.523967
0.523292
0.5235
0.523621
0.522441
0.523615
0.523623
0.523509
0.523505
0.523409
0.523277
0.523445
0.523782
0.523781
0.522763
0.523553
0.523326
0.522268
0.5237
0.523508
0.523408
0.522938
0.522657
0.523851
0.523561
0.522616
0.522811
0.522473
0.523337
0.523533
0.522456
0.524233
0.522911
0.524231
0.523707
0.523494
0.522924
0.522716
0.52266
0.523434
0.523697
0.523362
0.523067
0.522843
0.522613
0.523396
0.523423
0.523425
0.523579
0.523352
0.522611
0.52346
0.523294
0.5225
0.522564
0.523389
0.523418
0.522918
0.52397
0.522655
0.523966
0.522923
0.523113
0.523654
0.523439
0.523533
0.523471
0.523683
0.523919
0.523434
0.52266
0.522924
0.523782
0.52343
0.523553
0.523435
0.522846
0.52397
0.522585
0.523385
0.523562
0.523968
0.522861
0.523445
0.523136
0.523439
0.52265
0.523412
0.523424
0.523327
0.52332
0.523024
0.523226
0.523439
0.522766
0.523377
0.523437
0.523431
0.523478
0.522875
0.522879
0.523372
0.523232
0.522776
0.522491
0.522729
0.522873
0.523426
0.522874
0.522872
0.522767
0.522876
0.52371
0.522913
0.522728
0.523491
0.522916
0.523574
0.523709
0.523404
0.523791
0.52343
0.522769
0.523432
0.523431
0.522863
0.523534
0.522719
0.523532
0.523583
0.523717
0.523435
0.523536
0.522675
0.522915
0.522768
0.523433
0.523379
0.523386
0.523552
0.523437
0.523504
0.52344
0.52316
0.522948
0.523551
0.522772
0.52356
0.523509
0.522835
0.52364
0.523443
0.523654
0.523467
0.523419
0.523563
0.523028
0.523479
0.522962
0.523582
0.523468
0.523467
0.52345
0.523457
0.523458
0.523457
0.523449
0.52366
0.523656
0.52366
0.523662
0.523777
0.523777
0.523018
0.523452
0.5234
0.523224
0.523672
0.523677
0.523405
0.522951
0.523395
0.523435
0.523034
0.523642
0.523028
0.523567
0.523389
0.523037
0.522968
0.522654
0.522658
0.523562
0.522629
0.523359
0.522961
0.523152
0.523393
0.523464
0.524037
0.52346
0.522622
0.522961
0.523399
0.523404
0.522945
0.523463
0.523143
0.524035
0.522964
0.523471
0.523525
0.523386
0.523668
0.52353
0.523785
0.523373
0.522524
0.522473
0.523747
0.523272
0.523403
0.523031
0.523644
0.52349
0.522963
0.523496
0.523071
0.523431
0.523073
0.522954
0.524147
0.523723
0.523674
0.523671
0.523447
0.523083
0.523906
0.523519
0.523237
0.523088
0.523044
0.523744
0.523033
0.523709
0.523059
0.522458
0.52308
0.522643
0.523585
0.523034
0.524146
0.523059
0.523553
0.523018
0.52354
0.523056
0.523338
0.522421
0.523308
0.52303
0.523738
0.523023
0.523237
0.523542
0.523444
0.523057
0.523081
0.523139
0.523585
0.523079
0.523404
0.523338
0.523782
0.523081
0.523132
0.523258
0.523147
0.523067
0.52315
0.523628
0.523399
0.523138
0.523028
0.52344
0.523443
0.523074
0.523781
0.522097
0.523336
0.522655
0.523264
0.521342
0.521344
0.521352
0.521348
0.521351
0.521343
0.521349
0.523591
0.523869
0.523376
0.52323
0.523151
0.523146
0.523431
0.523137
0.52313
0.523873
0.523146
0.523651
0.52291
0.523638
0.523316
0.523228
0.523141
0.52375
0.523335
0.523238
0.523337
0.523239
0.523132
0.522933
0.523227
0.523323
0.523654
0.523164
0.523119
0.523158
0.523218
0.523318
0.523432
0.523157
0.52343
0.523305
0.523222
0.523407
0.523308
0.523141
0.523537
0.523251
0.523856
0.522459
0.52359
0.523628
0.52332
0.523255
0.523505
0.522115
0.523317
0.523249
0.522429
0.52414
0.524145
0.523333
0.523149
0.523266
0.523165
0.524363
0.524362
0.523405
0.523409
0.523402
0.522115
0.523128
0.523558
0.523224
0.523212
0.523221
0.522087
0.523532
0.523142
0.52333
0.52333
0.523209
0.523236
0.52321
0.523222
0.522342
0.522646
0.523235
0.523333
0.523252
0.523204
0.523243
0.523261
0.523252
0.522461
0.523674
0.523156
0.523501
0.523539
0.522453
0.523323
0.52331
0.523784
0.524126
0.524125
0.523723
0.523125
0.523327
0.522438
0.524098
0.524325
0.524324
0.522072
0.523947
0.524008
0.523313
0.523701
0.523374
0.523446
0.523541
0.523579
0.523405
0.52211
0.523346
0.523491
0.523556
0.52226
0.523962
0.522408
0.523548
0.523453
0.523049
0.523367
0.523399
0.523793
0.523415
0.523791
0.523331
0.523558
0.523987
0.523997
0.522444
0.523465
0.522051
0.52208
0.522018
0.523531
0.522098
0.521988
0.523206
0.522033
0.523856
0.523855
0.522057
0.523256
0.522349
0.522046
0.52232
0.52204
0.52232
0.523955
0.522392
0.522103
0.522052
0.523393
0.523608
0.522298
0.523396
0.521995
0.52344
0.523266
0.52203
0.522276
0.522008
0.522071
0.523306
0.523879
0.524298
0.52428
0.523463
0.524295
0.524294
0.524287
0.524176
0.522419
0.523975
0.523734
0.523882
0.523446
0.524206
0.524205
0.523908
0.522056
0.523253
0.52208
0.522387
0.522391
0.52408
0.524076
0.524067
0.524071
0.524079
0.524276
0.524073
0.524208
0.524306
0.524086
0.524088
0.524311
0.524279
0.524212
0.524061
SCALARS rr_(P_ext) float
LOOKUP_TABLE default
0.00437662
0.00434571
0.0043484
0.00434624
0.00433802
0.00434845
0.00437672
0.00434661
0.004351
0.00434583
0.00437465
0.00434661
0.00434724
0.00434542
0.00434085
0.00434794
0.00434433
0.00434696
0.00435237
0.00434918
0.0043496
0.0043276
0.00434958
0.00434913
0.00434922
0.00434645
0.00437031
0.00434807
0.00436083
0.00433376
0.00434734
0.00436076
0.00437075
0.00433557
0.00433464
0.0043356
0.00433342
0.00433502
0.00434739
0.00437066
0.0043609
0.0043333
0.00433333
0.00434732
0.00436779
0.00436038
0.00435172
0.00435048
0.00434834
0.00436275
0.00436164
0.00435767
0.00433845
0.00435758
0.00433869
0.00436684
0.00433457
0.00435758
0.0043346
0.00434903
0.00434445
0.00434191
0.00436832
0.00434206
0.00434186
0.00434435
0.00434435
0.00434643
0.00434937
0.00434562
0.00433851
0.00433853
0.00436092
0.0043434
0.00434829
0.00437207
0.00434027
0.00434437
0.00434646
0.00435697
0.00436337
0.00433705
0.00434317
0.00436425
0.00435992
0.00436744
0.00434807
0.00434387
0.00436775
0.00432912
0.00435763
0.00432917
0.00434011
0.0043447
0.00435735
0.00436193
0.00436332
0.00434587
0.00434031
0.00434751
0.00435415
0.00435918
0.00436431
0.00434668
0.00434614
0.00434607
0.0043428
0.00434776
0.00436436
0.00434527
0.00434899
0.00436679
0.00436539
0.00434685
0.00434621
0.00435748
0.00433461
0.00436345
0.0043347
0.00435737
0.00435306
0.00434119
0.00434573
0.00434379
0.00434506
0.00434059
0.00433567
0.00434588
0.00436332
0.00435735
0.00433852
0.00434592
0.00434332
0.00434581
0.00435914
0.00433456
0.00436503
0.00434704
0.00434315
0.00433459
0.00435879
0.00434574
0.00435259
0.00434581
0.00436358
0.00434634
0.00434621
0.00434835
0.00434844
0.00435507
0.00435057
0.00434573
0.00436083
0.00434719
0.00434583
0.00434589
0.00434497
0.00435849
0.00435839
0.00434725
0.00435043
0.0043606
0.00436702
0.00436164
0.00435852
0.00434604
0.0043585
0.00435855
0.00436081
0.00435846
0.00434003
0.00435758
0.00436168
0.00434469
0.00435751
0.00434291
0.00434006
0.00434664
0.00433833
0.00434604
0.00436079
0.00434591
0.00434594
0.00435874
0.00434381
0.00436188
0.0043438
0.00434275
0.00433992
0.00434586
0.00434377
0.00436299
0.00435753
0.00436078
0.00434584
0.00434707
0.00434691
0.00434334
0.00434577
0.00434445
0.00434571
0.00435199
0.00435675
0.00434338
0.00436074
0.00434318
0.00434438
0.00435936
0.00434154
0.00434566
0.00434126
0.00434526
0.00434623
0.00434314
0.00435497
0.00434501
0.00435644
0.00434276
0.00434512
0.00434513
0.00434546
0.00434533
0.00434531
0.00434533
0.00434562
0.00434106
0.00434114
0.00434105
0.00434102
0.00433865
0.00433864
0.00435519
0.00434553
0.00434653
0.00435062
0.00434085
0.00434074
0.00434644
0.00435667
0.00434663
0.00434586
0.00435484
0.0043415
0.00435498
0.00434306
0.00434675
0.00435477
0.0043563
0.00436345
0.00436323
0.00434314
0.00436404
0.00434756
0.00435646
0.00435219
0.00434667
0.00434518
0.00433314
0.00434526
0.00436425
0.00435645
0.00434654
0.00434663
0.00435682
0.0043452
0.00435244
0.00433317
0.00435639
0.00434505
0.00434397
0.00434691
0.00434092
0.00434395
0.00433847
0.00434727
0.00436633
0.00436745
0.0043393
0.00434953
0.00434663
0.00435496
0.00434145
0.00434471
0.00435642
0.00434464
0.00435403
0.00434608
0.00435401
0.0043566
0.00433084
0.00433975
0.00434077
0.00434082
0.00434562
0.00435379
0.0043359
0.00434408
0.00435034
0.00435368
0.00435465
0.00433932
0.00435486
0.0043401
0.00435432
0.00436771
0.00435385
0.00436374
0.00434269
0.00435484
0.00433087
0.00435431
0.00434339
0.0043552
0.00434367
0.0043544
0.00434806
0.00436882
0.00434867
0.00435492
0.00433945
0.00435508
0.00435033
0.00434365
0.00434562
0.00435436
0.00435382
0.00435252
0.00434274
0.00435386
0.00434663
0.00434804
0.00433852
0.00435382
0.00435267
0.00434987
0.00435234
0.00435414
0.00435227
0.00434183
0.0043467
0.00435254
0.00435498
0.00434584
0.00434579
0.00435398
0.00433855
0.00437574
0.00434816
0.00436341
0.00434975
0.00439214
0.0043921
0.00439191
0.00439199
0.00439189
0.00439219
0.00439207
0.00434259
0.00433672
0.00434718
0.00435047
0.00435221
0.00435236
0.00434606
0.00435256
0.00435271
0.00433665
0.00435236
0.00434134
0.00435764
0.00434152
0.00434853
0.00435052
0.00435248
0.00433924
0.00434815
0.00435031
0.00434812
0.00435027
0.00435261
0.00435709
0.00435053
0.00434843
0.00434124
0.00435192
0.00435289
0.00435204
0.00435072
0.00434851
0.00434602
0.00435207
0.00434607
0.00434878
0.00435063
0.00434656
0.0043487
0.00435244
0.00434369
0.00435002
0.00433697
0.00436768
0.00434259
0.00434183
0.00434848
0.00434992
0.00434442
0.00437535
0.0043485
0.00435007
0.00436865
0.00433103
0.00433095
0.00434818
0.00435224
0.0043497
0.0043519
0.0043264
0.0043264
0.00434654
0.00434652
0.00434667
0.00437543
0.00435272
0.00434326
0.00435062
0.00435088
0.00435066
0.00437592
0.00434385
0.00435239
0.00434826
0.00434825
0.00435092
0.00435034
0.00435093
0.00435068
0.00437046
0.00436368
0.00435037
0.00434821
0.00434998
0.00435105
0.00435018
0.00434981
0.00434999
0.00436767
0.00434081
0.00435209
0.0043445
0.00434369
0.00436786
0.00434836
0.00434863
0.00433851
0.00433123
0.00433125
0.00433977
0.00435278
0.00434834
0.00436817
0.00433183
0.00432708
0.00432709
0.00437627
0.00433503
0.00433374
0.00434863
0.00434024
0.0043472
0.00434564
0.0043436
0.00434285
0.00434663
0.00437543
0.00434788
0.00434474
0.00434332
0.00437226
0.00433471
0.00436918
0.00434343
0.00434555
0.00435453
0.00434737
0.00434675
0.00433828
0.00434634
0.0043383
0.00434819
0.00434328
0.00433424
0.00433405
0.00436808
0.00434525
0.00437721
0.00437664
0.0043779
0.00434386
0.00437578
0.00437854
0.00435102
0.00437757
0.00433695
0.00433698
0.00437709
0.00434983
0.00437036
0.00437738
0.00437095
0.0043775
0.00437096
0.00433486
0.00436921
0.00437566
0.00437716
0.00434687
0.0043422
0.00437144
0.00434681
0.00437834
0.00434583
0.00434963
0.00437772
0.0043719
0.00437818
0.00437627
0.00434876
0.00433647
0.00432763
0.00432802
0.00434532
0.00432771
0.00432772
0.00432788
0.00433024
0.00436862
0.00433443
0.00433956
0.00433645
0.0043457
0.00432961
0.00432963
0.0043359
0.0043766
0.00434992
0.0043762
0.00436967
0.00436946
0.00433219
0.00433227
0.00433247
0.0043324
0.00433221
0.00432816
0.00433241
0.00432961
0.00432756
0.00433213
0.00433209
0.00432744
0.00432807
0.0043295
0.00433265
SCALARS rr_(S) float
LOOKUP_TABLE default
0.394647
0.395282
0.395225
0.39527
0.395474
0.395224
0.394644
0.395265
0.395171
0.395282
0.394674
0.395265
0.395251
0.395292
0.395403
0.395234
0.395317
0.395256
0.39514
0.395208
0.395201
0.395738
0.395201
0.39521
0.395207
0.395267
0.39477
0.395234
0.394964
0.395583
0.395248
0.394965
0.394762
0.395537
0.395558
0.395536
0.39559
0.395548
0.395248
0.394763
0.394962
0.395593
0.395592
0.395248
0.394818
0.394973
0.395154
0.395182
0.395227
0.394923
0.394947
0.39503
0.395463
0.395032
0.395456
0.394842
0.39556
0.395032
0.395559
0.395212
0.395314
0.395375
0.394814
0.395372
0.395377
0.39532
0.395316
0.395268
0.395204
0.395286
0.395461
0.39546
0.394962
0.395342
0.395227
0.394732
0.395417
0.395319
0.395268
0.395044
0.394913
0.395496
0.395346
0.394893
0.394985
0.394828
0.395233
0.395332
0.394819
0.395705
0.395031
0.395704
0.395422
0.395313
0.395037
0.39494
0.394915
0.395279
0.395416
0.395245
0.395104
0.395
0.394892
0.395261
0.395275
0.395274
0.395356
0.39524
0.394891
0.395293
0.395213
0.39484
0.394869
0.395258
0.395271
0.395034
0.39556
0.394912
0.395559
0.395037
0.395126
0.395394
0.395282
0.39533
0.3953
0.39541
0.395534
0.39528
0.394915
0.395037
0.395462
0.395277
0.395341
0.39528
0.395001
0.395561
0.39488
0.395257
0.395347
0.39556
0.395008
0.395287
0.395138
0.395283
0.39491
0.395269
0.395278
0.395229
0.395224
0.395085
0.395181
0.395283
0.394963
0.395252
0.395282
0.395278
0.395302
0.395014
0.395016
0.395249
0.395183
0.394968
0.394835
0.394946
0.395013
0.395275
0.395014
0.395013
0.394964
0.395015
0.395424
0.395032
0.394945
0.395308
0.395033
0.395353
0.395423
0.395267
0.395465
0.395279
0.394965
0.395278
0.395278
0.395009
0.395332
0.394941
0.39533
0.395357
0.395427
0.395279
0.395333
0.394921
0.395033
0.394964
0.395279
0.395252
0.395256
0.39534
0.395281
0.395317
0.395283
0.395148
0.395048
0.39534
0.394966
0.395345
0.39532
0.394996
0.395387
0.395285
0.395394
0.395298
0.395273
0.395347
0.395087
0.395304
0.395055
0.395356
0.395298
0.395297
0.395288
0.395292
0.395292
0.395291
0.395288
0.395397
0.395395
0.395397
0.395398
0.39546
0.39546
0.395081
0.39529
0.395263
0.395178
0.395404
0.395406
0.395265
0.39505
0.39526
0.39528
0.395089
0.395388
0.395086
0.395349
0.395257
0.39509
0.395058
0.394912
0.394913
0.395346
0.3949
0.395243
0.395054
0.395145
0.395259
0.395296
0.395598
0.395293
0.394897
0.395055
0.395262
0.395266
0.395047
0.395295
0.395141
0.395597
0.395056
0.395299
0.395327
0.395256
0.395402
0.39533
0.395463
0.395249
0.394851
0.394827
0.395443
0.395201
0.395266
0.395087
0.39539
0.395308
0.395055
0.395313
0.395106
0.395281
0.395107
0.395051
0.395657
0.395431
0.395405
0.395403
0.395287
0.395112
0.395528
0.395323
0.395185
0.395114
0.395093
0.395442
0.395088
0.395423
0.3951
0.39482
0.395111
0.394907
0.395359
0.395089
0.395657
0.3951
0.395343
0.395081
0.395335
0.395099
0.395233
0.394805
0.395218
0.395087
0.395439
0.395084
0.395186
0.395336
0.395285
0.3951
0.395111
0.395139
0.395359
0.39511
0.395266
0.395234
0.395461
0.395111
0.395135
0.395196
0.395142
0.395104
0.395144
0.395381
0.395264
0.395138
0.395086
0.395284
0.395286
0.395108
0.39546
0.394652
0.395234
0.394912
0.395199
0.3943
0.394301
0.394304
0.394302
0.394304
0.3943
0.394303
0.395362
0.395509
0.395252
0.395183
0.395144
0.395142
0.395281
0.395138
0.395134
0.395511
0.395142
0.395392
0.395031
0.395385
0.395224
0.395181
0.395139
0.395445
0.395233
0.395186
0.395233
0.395187
0.395135
0.395041
0.395182
0.395227
0.395393
0.395151
0.395129
0.395148
0.395177
0.395225
0.395281
0.395147
0.39528
0.395218
0.395179
0.395268
0.395219
0.39514
0.395333
0.395192
0.395501
0.394821
0.39536
0.395382
0.395225
0.395194
0.395317
0.394661
0.395224
0.395191
0.394808
0.395654
0.395656
0.395232
0.395143
0.395199
0.395151
0.395773
0.395772
0.395265
0.395269
0.395266
0.394661
0.395133
0.395344
0.395178
0.395173
0.395178
0.394648
0.395332
0.39514
0.39523
0.39523
0.395172
0.395185
0.395172
0.395178
0.394767
0.394908
0.395185
0.395232
0.395192
0.395169
0.395188
0.395197
0.395193
0.394821
0.395405
0.395147
0.395315
0.395334
0.394818
0.395225
0.395219
0.395462
0.395647
0.395646
0.395432
0.395131
0.395229
0.394811
0.395631
0.395752
0.395751
0.394641
0.395548
0.395583
0.395222
0.395419
0.39525
0.395286
0.395335
0.395355
0.395267
0.394659
0.395237
0.39531
0.395343
0.394729
0.395558
0.394799
0.395338
0.39529
0.395096
0.395246
0.395264
0.395468
0.395271
0.395467
0.395229
0.395344
0.395572
0.395577
0.394814
0.395296
0.394635
0.394649
0.394619
0.39533
0.394654
0.394605
0.39517
0.394626
0.395499
0.395498
0.394638
0.395194
0.39477
0.394633
0.394757
0.39463
0.394757
0.395553
0.39479
0.394656
0.394635
0.395261
0.39537
0.394747
0.395263
0.394608
0.395284
0.395199
0.394625
0.394737
0.394615
0.39464
0.395218
0.395512
0.395737
0.395728
0.395296
0.395736
0.395735
0.395732
0.395673
0.394802
0.395565
0.395437
0.395515
0.395288
0.395689
0.395689
0.395528
0.394633
0.395192
0.394645
0.39479
0.394791
0.395622
0.39562
0.395615
0.395616
0.395621
0.395726
0.395618
0.395691
0.395743
0.395626
0.395626
0.395745
0.395727
0.395693
0.395613
SCALARS rr_(P) float
LOOKUP_TABLE default
0.00538583
0.00537324
0.00537433
0.00537344
0.00537025
0.00537436
0.00538586
0.00537363
0.00537534
0.0053733
0.00538493
0.00537363
0.00537388
0.00537315
0.00537134
0.00537415
0.00537271
0.00537376
0.00537589
0.00537461
0.00537478
0.00536618
0.00537476
0.00537459
0.00537463
0.00537355
0.00538321
0.00537421
0.00537933
0.00536857
0.00537392
0.0053793
0.00538339
0.00536929
0.00536892
0.0053693
0.00536844
0.00536907
0.00537394
0.00538336
0.00537936
0.00536839
0.0053684
0.00537391
0.00538216
0.00537915
0.00537563
0.00537513
0.00537431
0.00538011
0.00537966
0.00537805
0.00537041
0.00537802
0.00537051
0.0053818
0.0053689
0.00537802
0.00536891
0.00537455
0.00537275
0.00537176
0.00538242
0.00537183
0.00537174
0.00537274
0.00537271
0.00537355
0.00537469
0.00537321
0.00537043
0.00537044
0.00537937
0.00537236
0.00537429
0.00538392
0.00537113
0.00537275
0.00537355
0.00537776
0.00538038
0.00536987
0.00537225
0.00538073
0.00537897
0.00538203
0.00537421
0.00537255
0.00538214
0.00536678
0.00537804
0.0053668
0.00537106
0.00537288
0.00537792
0.00537977
0.00538037
0.00537331
0.00537115
0.00537399
0.00537662
0.00537867
0.00538075
0.00537363
0.00537343
0.00537339
0.00537212
0.00537409
0.00538078
0.00537306
0.00537454
0.00538175
0.00538119
0.00537371
0.00537345
0.00537798
0.00536892
0.00538042
0.00536895
0.00537794
0.00537617
0.00537147
0.00537325
0.0053725
0.00537298
0.00537124
0.00536933
0.00537332
0.00538036
0.00537792
0.00537043
0.00537332
0.00537231
0.00537328
0.00537866
0.00536889
0.00538107
0.00537381
0.00537224
0.00536891
0.00537851
0.00537329
0.00537599
0.0053733
0.00538047
0.0053735
0.00537348
0.00537433
0.00537435
0.00537699
0.00537517
0.00537325
0.00537933
0.00537386
0.0053733
0.00537331
0.00537297
0.00537839
0.00537835
0.00537387
0.00537511
0.00537924
0.00538185
0.00537965
0.0053784
0.00537338
0.0053784
0.00537842
0.00537932
0.00537838
0.00537103
0.00537802
0.00537967
0.00537286
0.00537799
0.00537216
0.00537104
0.00537365
0.00537037
0.0053734
0.00537932
0.00537333
0.00537334
0.00537849
0.00537253
0.00537976
0.00537251
0.0053721
0.00537099
0.00537331
0.00537251
0.00538023
0.00537799
0.00537931
0.00537329
0.00537379
0.00537373
0.00537232
0.00537326
0.00537278
0.00537324
0.00537574
0.00537767
0.00537233
0.0053793
0.00537225
0.00537275
0.00537874
0.00537163
0.00537322
0.00537152
0.0053731
0.00537346
0.00537224
0.00537695
0.005373
0.00537754
0.0053721
0.005373
0.005373
0.00537313
0.00537308
0.00537307
0.00537308
0.00537323
0.00537142
0.00537145
0.00537142
0.0053714
0.00537049
0.00537049
0.00537704
0.00537319
0.00537354
0.00537519
0.00537134
0.0053713
0.00537351
0.00537763
0.00537358
0.00537331
0.0053769
0.00537161
0.00537695
0.00537221
0.00537363
0.00537687
0.00537749
0.00538041
0.0053803
0.00537224
0.00538066
0.005374
0.00537755
0.00537582
0.0053736
0.00537302
0.00536834
0.00537305
0.00538076
0.00537754
0.00537355
0.00537364
0.00537769
0.00537303
0.00537593
0.00536834
0.00537752
0.00537297
0.00537257
0.00537373
0.00537137
0.00537258
0.00537042
0.00537388
0.00538158
0.00538203
0.00537075
0.00537474
0.00537364
0.00537695
0.00537159
0.00537287
0.00537753
0.00537285
0.00537657
0.00537343
0.00537657
0.00537761
0.00536744
0.00537092
0.0053713
0.00537133
0.00537322
0.00537648
0.00536941
0.00537262
0.00537507
0.00537643
0.00537683
0.00537076
0.00537691
0.00537106
0.00537669
0.00538212
0.0053765
0.00538054
0.00537208
0.0053769
0.00536745
0.00537669
0.00537235
0.00537704
0.00537246
0.00537672
0.0053742
0.00538263
0.00537443
0.00537693
0.0053708
0.00537699
0.00537507
0.00537246
0.0053732
0.00537671
0.00537649
0.00537596
0.0053721
0.00537651
0.00537364
0.0053742
0.00537045
0.00537649
0.00537602
0.00537489
0.00537589
0.00537662
0.00537586
0.00537174
0.00537366
0.00537597
0.00537696
0.00537333
0.00537331
0.00537655
0.00537046
0.00538538
0.00537426
0.0053804
0.00537484
0.00539199
0.00539197
0.00539189
0.00539192
0.00539188
0.00539202
0.00539197
0.00537204
0.00536974
0.00537385
0.00537513
0.00537582
0.00537589
0.00537342
0.00537597
0.00537604
0.00536971
0.0053759
0.00537155
0.00537804
0.0053716
0.00537439
0.00537515
0.00537594
0.00537073
0.00537425
0.00537506
0.00537424
0.00537505
0.00537599
0.00537781
0.00537515
0.00537436
0.00537151
0.00537571
0.0053761
0.00537575
0.00537523
0.00537439
0.0053734
0.00537577
0.00537342
0.00537447
0.00537519
0.00537362
0.00537445
0.00537592
0.00537246
0.00537495
0.00536983
0.00538211
0.00537204
0.00537175
0.00537438
0.00537491
0.00537276
0.00538523
0.00537438
0.00537497
0.00538256
0.00536752
0.00536749
0.00537426
0.00537584
0.00537482
0.0053757
0.00536573
0.00536573
0.00537359
0.0053736
0.00537366
0.00538527
0.00537603
0.00537229
0.00537519
0.00537529
0.0053752
0.00538545
0.00537254
0.0053759
0.00537429
0.00537429
0.00537531
0.00537508
0.00537531
0.00537521
0.00538327
0.00538051
0.00537508
0.00537427
0.00537493
0.00537536
0.00537501
0.00537486
0.00537493
0.00538211
0.00537134
0.00537577
0.00537279
0.00537247
0.00538219
0.00537432
0.00537442
0.00537044
0.00536759
0.00536759
0.00537093
0.00537605
0.00537433
0.00538232
0.00536782
0.00536598
0.00536598
0.0053856
0.00536908
0.00536857
0.00537444
0.00537111
0.00537385
0.00537322
0.00537242
0.00537215
0.00537365
0.00538526
0.00537413
0.00537289
0.00537231
0.00538399
0.00536895
0.00538279
0.00537235
0.0053732
0.00537677
0.00537392
0.00537369
0.00537034
0.00537352
0.00537035
0.00537425
0.00537231
0.00536877
0.0053687
0.00538228
0.00537307
0.00538607
0.00538585
0.00538634
0.00537254
0.00538542
0.00538659
0.00537535
0.00538621
0.00536983
0.00536984
0.00538602
0.00537485
0.00538324
0.00538615
0.00538347
0.0053862
0.00538347
0.00536901
0.00538274
0.00538536
0.00538604
0.00537374
0.00537188
0.00538367
0.00537372
0.00538651
0.00537332
0.00537478
0.00538628
0.00538386
0.00538646
0.00538559
0.00537448
0.00536964
0.00536619
0.00536634
0.00537312
0.00536622
0.00536622
0.00536629
0.00536721
0.0053825
0.00536884
0.00537085
0.00536964
0.00537327
0.00536697
0.00536697
0.00536942
0.00538572
0.00537489
0.00538559
0.00538299
0.00538289
0.00536795
0.00536799
0.00536807
0.00536804
0.00536796
0.0053664
0.00536805
0.00536697
0.00536617
0.00536794
0.00536793
0.00536613
0.00536636
0.00536692
0.00536814
SCALARS rr_(T) float
LOOKUP_TABLE default
0.00886642
0.00888156
0.00888002
0.00888107
0.00888877
0.00888001
0.00886636
0.00888121
0.00887854
0.00888154
0.00886688
0.00888122
0.00888076
0.00888204
0.00888602
0.00888014
0.00888292
0.00888086
0.0088778
0.00887953
0.00887939
0.00889938
0.00887937
0.00887962
0.00887952
0.00888126
0.00886912
0.00888046
0.00887353
0.00889305
0.00888065
0.00887357
0.00886894
0.00889139
0.008892
0.00889135
0.00889339
0.00889159
0.00888068
0.00886898
0.00887353
0.00889352
0.00889349
0.00888063
0.00887022
0.00887374
0.00887816
0.00887878
0.0088802
0.00887259
0.00887318
0.00887512
0.00888837
0.00887513
0.00888813
0.00887076
0.00889208
0.00887514
0.00889205
0.00887966
0.00888281
0.00888489
0.00887021
0.00888483
0.00888493
0.00888316
0.0088829
0.00888128
0.00887944
0.00888169
0.00888831
0.00888828
0.00887349
0.00888397
0.00887995
0.00886822
0.0088866
0.00888313
0.0088813
0.00887545
0.00887238
0.00888954
0.00888393
0.0088719
0.00887403
0.0088704
0.0088804
0.00888362
0.00887024
0.0088981
0.00887511
0.00889808
0.0088868
0.00888302
0.00887523
0.008873
0.00887241
0.00888144
0.00888656
0.00888055
0.00887689
0.00887434
0.00887191
0.00888091
0.00888157
0.00888126
0.00888446
0.00888042
0.00887187
0.00888191
0.0088797
0.00887069
0.00887139
0.00888088
0.00888116
0.00887517
0.00889207
0.00887232
0.008892
0.00887524
0.00887745
0.00888564
0.00888157
0.00888333
0.00888212
0.00888641
0.00889105
0.00888145
0.00887239
0.00887527
0.00888846
0.0088814
0.00888374
0.00888148
0.00887436
0.00889218
0.0088716
0.00888104
0.00888392
0.00889214
0.00887454
0.00888203
0.00887777
0.00888177
0.00887228
0.0088812
0.00888189
0.00888031
0.00887991
0.00887643
0.00887891
0.00888157
0.00887355
0.00888072
0.00888174
0.00888143
0.00888237
0.00887467
0.00887472
0.00888059
0.00887882
0.00887367
0.00887057
0.00887315
0.00887468
0.00888128
0.00887467
0.00887464
0.00887355
0.0088747
0.00888689
0.00887513
0.00887311
0.00888253
0.00887515
0.00888437
0.00888686
0.00888146
0.00888839
0.00888172
0.00887355
0.00888138
0.0088814
0.00887457
0.00888362
0.008873
0.00888332
0.00888444
0.00888699
0.00888144
0.00888366
0.00887253
0.00887519
0.00887356
0.00888145
0.00888071
0.00888085
0.0088837
0.00888153
0.00888306
0.00888161
0.00887799
0.00887552
0.00888369
0.00887358
0.00888384
0.00888318
0.00887429
0.00888563
0.00888163
0.00888572
0.00888242
0.00888145
0.00888392
0.0088765
0.00888265
0.00887567
0.00888442
0.00888204
0.00888204
0.00888172
0.00888182
0.00888184
0.00888181
0.00888198
0.00888575
0.00888569
0.00888577
0.0088858
0.00888825
0.00888828
0.00887635
0.00888196
0.00888078
0.00887865
0.00888601
0.0088861
0.00888087
0.00887558
0.00888066
0.00888144
0.00887652
0.0088857
0.00887645
0.008884
0.00888057
0.00887657
0.00887575
0.00887236
0.0088724
0.00888387
0.00887208
0.0088804
0.00887565
0.00887796
0.00888063
0.00888197
0.00889373
0.00888189
0.00887199
0.00887571
0.00888076
0.00888141
0.00887548
0.00888196
0.00887785
0.0088937
0.0088757
0.00888211
0.00888321
0.00888079
0.00888593
0.00888356
0.00888842
0.00888061
0.00887099
0.00887039
0.00888767
0.00887929
0.0088814
0.00887644
0.00888574
0.0088825
0.0088757
0.00888297
0.00887692
0.00888194
0.00887691
0.00887562
0.00889614
0.00888713
0.00888612
0.00888607
0.0088819
0.00887702
0.00889102
0.00888307
0.00887897
0.00887709
0.00887655
0.0088876
0.0088765
0.00888684
0.00887671
0.00887023
0.00887704
0.00887223
0.00888459
0.00887652
0.00889612
0.00887673
0.00888395
0.00887633
0.00888351
0.00887671
0.00888016
0.00887002
0.0088798
0.00887646
0.00888753
0.00887643
0.00887911
0.00888364
0.00888165
0.00887673
0.008877
0.00887781
0.00888451
0.008877
0.00888128
0.00888041
0.00888832
0.00887699
0.00887769
0.00887928
0.00887786
0.00887683
0.00887791
0.00888542
0.00888124
0.00887775
0.00887649
0.00888195
0.00888199
0.00887696
0.00888828
0.00886639
0.00888046
0.00887234
0.00887937
0.00885793
0.00885794
0.00885806
0.00885802
0.00885805
0.00885791
0.00885797
0.00888463
0.00889027
0.00888081
0.00887901
0.00887792
0.00887784
0.00888187
0.00887779
0.00887766
0.00889032
0.00887786
0.00888567
0.00887514
0.00888527
0.00888011
0.00887893
0.00887778
0.00888771
0.0088804
0.00887906
0.00888043
0.0088791
0.00887762
0.00887539
0.00887898
0.00888022
0.00888569
0.00887812
0.00887748
0.00887796
0.00887879
0.00888016
0.00888195
0.00887796
0.0088819
0.00887988
0.00887888
0.00888148
0.0088799
0.00887777
0.00888344
0.00887916
0.00888992
0.00887025
0.00888456
0.00888543
0.0088802
0.00887913
0.00888301
0.00886657
0.00888012
0.00887912
0.00887009
0.008896
0.00889611
0.0088804
0.00887789
0.00887933
0.00887807
0.00890074
0.0089007
0.00888105
0.00888144
0.00888147
0.00886657
0.00887761
0.00888379
0.00887868
0.00887853
0.00887881
0.00886627
0.00888363
0.00887777
0.00888031
0.00888033
0.00887853
0.00887899
0.00887853
0.00887871
0.00886904
0.00887226
0.00887899
0.00888041
0.00887912
0.00887843
0.00887901
0.00887929
0.00887913
0.00887026
0.00888626
0.00887801
0.00888294
0.00888368
0.0088702
0.00887997
0.00887981
0.00888831
0.00889581
0.00889579
0.00888727
0.00887754
0.00888036
0.00886999
0.00889521
0.00889988
0.00889986
0.00886609
0.0088916
0.00889316
0.00888009
0.00888669
0.00888066
0.00888168
0.00888356
0.00888444
0.00888148
0.00886651
0.00888033
0.00888275
0.00888373
0.00886813
0.00889219
0.00886988
0.0088836
0.00888195
0.0088767
0.00888049
0.00888128
0.00888869
0.00888144
0.00888866
0.00888007
0.00888396
0.00889276
0.00889292
0.00887007
0.00888219
0.00886624
0.00886658
0.00886585
0.00888351
0.00886641
0.0088655
0.00887845
0.00886605
0.00888967
0.00888964
0.00886634
0.00887915
0.0088691
0.00886618
0.0088688
0.00886613
0.00886881
0.00889185
0.00886951
0.00886646
0.00886627
0.0088812
0.00888489
0.00886855
0.00888134
0.00886561
0.00888195
0.00887929
0.00886598
0.00886833
0.00886573
0.00886608
0.00887995
0.00889025
0.00889937
0.00889899
0.00888236
0.00889931
0.00889928
0.00889913
0.00889685
0.00886982
0.00889252
0.00888745
0.0088904
0.0088821
0.00889751
0.00889749
0.00889084
0.00886592
0.00887908
0.00886621
0.00886968
0.00886972
0.00889476
0.00889467
0.00889446
0.00889453
0.00889472
0.00889885
0.00889453
0.00889754
0.0088995
0.00889488
0.00889491
0.00889961
0.00889888
0.00889758
0.00889446
SCALARS rr_tsim float
LOOKUP_TABLE default
40
40
40
40
40
40
40
40
40
40
40
40
40
40
40
40
40
40
40
40
40
40
40
40
40
40
40
40
40
40
40
40
40
40
40
40
40
40
40
40
40
40
40
40
40
40
40
40
40
40
40
40
40
40
40
40
40
40
40
40
40
40
40
40
40
40
40
40
40
40
40
40
40
40
40
40
40
40
40
40
40
40
40
40
40
40
40
40
40
40
40
40
40
40
40
40
40
40
40
40
40
40
40
40
40
40
40
40
40
40
40
40
40
40
40
40
40
40
40
40
40
40
40
40
40
40
40
40
40
40
40
40
40
40
40
40
40
40
40
40
40
40
40
40
40
40
40
40
40
40
40
40
40
40
40
40
40
40
40
40
40
40
40
40
40
40
40
40
40
40
40
40
40
40
40
40
40
40
40
40
40
40
40
40
40
40
40
40
40
40
40
40
40
40
40
40
40
40
40
40
40
40
40
40
40
40
40
40
40
40
40
40
40
40
40
40
40
40
40
40
40
40
40
40
40
40
40
40
40
40
40
40
40
40
40
40
40
40
40
40
40
40
40
40
40
40
40
40
40
40
40
40
40
40
40
40
40
40
40
40
40
40
40
40
40
40
40
40
40
40
40
40
40
40
40
40
40
40
40
40
40
40
40
40
40
40
40
40
40
40
40
40
40
40
40
40
40
40
40
40
40
40
40
40
40
40
40
40
40
40
40
40
40
40
40
40
40
40
40
40
40
40
40
40
40
40
40
40
40
40
40
40
40
40
40
40
40
40
40
40
40
40
40
40
40
40
40
40
40
40
40
40
40
40
40
40
40
40
40
40
40
40
40
40
40
40
40
40
40
40
40
40
40
40
40
40
40
40
40
40
40
40
40
40
40
40
40
40
40
40
40
40
40
40
40
40
40
40
40
40
40
40
40
40
40
40
40
40
40
40
40
40
40
40
40
40
40
40
40
40
40
40
40
40
40
40
40
40
40
40
40
40
40
40
40
40
40
40
40
40
40
40
40
40
40
40
40
40
40
40
40
40
40
40
40
40
40
40
40
40
40
40
40
40
40
40
40
40
40
40
40
40
40
40
40
40
40
40
40
40
40
40
40
40
40
40
40
40
40
40
40
40
40
40
40
40
40
40
40
40
40
40
40
40
40
40
40
40
40
40
40
40
40
40
40
40
40
40
40
40
40
40
40
40
40
40
40
40
40
40
40
40
40
40
40
40
40
40
40
40
40
40
40
40
40
40
40
40
40
40
40
40
40
40
40
40
40
40
40
40
40
40
40
SCALARS rr_Vext float
LOOKUP_TABLE default
0.181365
0.449156
0.356074
0.468144
0.250505
0.377855
0.179281
0.465122
0.395134
0.504602
0.165396
0.466542
0.409855
0.435044
0.516167
0.424895
0.369069
0.414214
0.365557
0.360553
0.405138
0.0765123
0.415099
0.383042
0.34713
0.4035
0.155017
0.352859
0.267429
0.33926
0.361995
0.276502
0.171528
0.252912
0.249258
0.253463
0.330139
0.249502
0.361566
0.192845
0.224734
0.291061
0.291071
0.3973
0.216896
0.244135
0.344636
0.350209
0.330102
0.303778
0.312872
0.245252
0.401539
0.315227
0.369434
0.157762
0.26619
0.317537
0.266162
0.393213
0.470962
0.464902
0.153283
0.327663
0.445342
0.417402
0.455686
0.391933
0.358011
0.515594
0.435578
0.430814
0.277671
0.338766
0.353998
0.176434
0.372697
0.413504
0.395197
0.27115
0.240504
0.283521
0.527567
0.240264
0.32778
0.119298
0.407608
0.344632
0.229717
0.0374838
0.27311
0.0407617
0.316376
0.299332
0.258676
0.232997
0.220921
0.442963
0.372932
0.351881
0.293555
0.277787
0.230491
0.418606
0.426168
0.38386
0.340648
0.340872
0.244642
0.512556
0.326049
0.164047
0.220068
0.457912
0.42975
0.304501
0.308644
0.183519
0.320049
0.303385
0.267004
0.50268
0.511847
0.44207
0.48456
0.384974
0.220825
0.478245
0.20009
0.262296
0.227515
0.456428
0.449053
0.448281
0.288955
0.187545
0.190649
0.327463
0.404495
0.187467
0.241557
0.387316
0.287989
0.472791
0.223288
0.385217
0.349755
0.336151
0.214805
0.269564
0.30432
0.440658
0.248041
0.397439
0.462022
0.469277
0.307877
0.249024
0.247672
0.401165
0.333876
0.246132
0.160085
0.239718
0.240482
0.430987
0.252364
0.255117
0.274636
0.245954
0.386366
0.2582
0.226072
0.297734
0.272829
0.340328
0.38214
0.361157
0.313994
0.36087
0.266583
0.418276
0.448884
0.241629
0.442328
0.239454
0.436824
0.402762
0.378987
0.379442
0.446256
0.200786
0.266945
0.246031
0.447442
0.439052
0.407228
0.447924
0.452985
0.38189
0.466603
0.307737
0.274128
0.512765
0.285564
0.465984
0.369985
0.226668
0.286358
0.461758
0.389058
0.350331
0.450087
0.445285
0.278877
0.28424
0.26756
0.395478
0.43345
0.498127
0.478123
0.520408
0.471592
0.515324
0.432085
0.457229
0.460679
0.434381
0.456385
0.422941
0.416657
0.28243
0.389437
0.454329
0.312142
0.470301
0.432182
0.492696
0.288265
0.468311
0.44871
0.284519
0.406937
0.282488
0.455268
0.41132
0.296274
0.277696
0.235566
0.271112
0.455803
0.197512
0.347045
0.276545
0.313924
0.468706
0.455581
0.147794
0.457137
0.236444
0.261781
0.466305
0.379053
0.264602
0.522219
0.29125
0.147785
0.267741
0.406428
0.508956
0.382717
0.457782
0.425182
0.226627
0.216747
0.175988
0.201438
0.308151
0.229091
0.372006
0.227539
0.406416
0.287642
0.268119
0.323974
0.293542
0.398548
0.281505
0.287615
0.136374
0.303588
0.437836
0.438084
0.391551
0.281135
0.192367
0.545914
0.360513
0.298337
0.274309
0.284991
0.282748
0.358863
0.27811
0.192069
0.27481
0.183506
0.351089
0.279595
0.127095
0.263739
0.321358
0.279333
0.443699
0.290729
0.381495
0.138321
0.305683
0.287032
0.261638
0.269335
0.322013
0.308742
0.321069
0.266581
0.271182
0.293879
0.403626
0.276114
0.39905
0.358812
0.290812
0.286493
0.290142
0.323395
0.289932
0.270135
0.30855
0.333049
0.387893
0.290188
0.286372
0.425171
0.419276
0.27623
0.29085
0.117373
0.342086
0.227691
0.319702
0.126307
0.131126
0.117236
0.119132
0.126414
0.133079
0.137189
0.365841
0.275215
0.269682
0.305554
0.296227
0.292427
0.31473
0.286012
0.292406
0.310837
0.291333
0.36881
0.26108
0.378856
0.289123
0.277597
0.291615
0.322782
0.329015
0.304716
0.351072
0.326052
0.300409
0.213989
0.30388
0.298882
0.3283
0.305329
0.288538
0.275054
0.304083
0.319113
0.436189
0.283325
0.424028
0.438689
0.298884
0.422891
0.322497
0.255695
0.356816
0.307338
0.229515
0.185279
0.35337
0.377161
0.313453
0.25956
0.317033
0.138209
0.309884
0.289532
0.140575
0.0597504
0.0653773
0.268669
0.283313
0.331379
0.316607
0.0311314
0.0325292
0.318202
0.321563
0.304262
0.103728
0.264744
0.315923
0.315663
0.272094
0.240297
0.107867
0.464495
0.284964
0.352184
0.357695
0.25518
0.323466
0.249492
0.275498
0.129745
0.199392
0.323827
0.327771
0.280344
0.293583
0.303678
0.320526
0.306429
0.143967
0.275794
0.301372
0.290902
0.437514
0.143864
0.233747
0.240588
0.234535
0.155629
0.155633
0.267713
0.208521
0.301893
0.153863
0.185531
0.0614179
0.0614154
0.112314
0.199641
0.134976
0.257017
0.284553
0.297827
0.337023
0.307437
0.285248
0.22223
0.127176
0.278068
0.290599
0.282456
0.144135
0.147651
0.104633
0.281965
0.285989
0.224195
0.258267
0.238728
0.223801
0.29293
0.223768
0.257221
0.251401
0.158052
0.195248
0.165316
0.310666
0.11271
0.118922
0.115943
0.294551
0.107694
0.104736
0.20093
0.0979351
0.243166
0.24352
0.100663
0.255462
0.113727
0.110992
0.12716
0.105861
0.105728
0.174212
0.126246
0.112779
0.10628
0.235825
0.272674
0.118749
0.260333
0.0960797
0.264805
0.208186
0.100554
0.0864387
0.0948725
0.126465
0.225566
0.192188
0.0824441
0.0914092
0.253872
0.0775875
0.0775842
0.0878735
0.0979646
0.0995896
0.127339
0.207543
0.193803
0.253784
0.0775262
0.0775229
0.229262
0.0843497
0.178726
0.0765218
0.0783448
0.103275
0.198602
0.205602
0.218914
0.200666
0.198586
0.0438933
0.320392
0.0557551
0.0543429
0.259016
0.257247
0.0563356
0.039058
0.0548058
0.238568
SCALARS rr_Vli float
LOOKUP_TABLE default
0.396491
0.90332
0.72142
0.942926
0.493012
0.765683
0.392038
0.937692
0.806286
1.01514
0.35984
0.940565
0.827721
0.874174
1.02414
0.859749
0.739411
0.835935
0.748814
0.732071
0.823499
0.146197
0.843757
0.777644
0.704904
0.813159
0.333354
0.714273
0.560619
0.65981
0.731242
0.579539
0.369277
0.4944
0.485912
0.495514
0.641466
0.486903
0.730499
0.41507
0.471219
0.565337
0.565397
0.802533
0.46333
0.511157
0.704677
0.713588
0.668696
0.640154
0.657327
0.509719
0.791296
0.654967
0.728512
0.336099
0.518816
0.659769
0.518799
0.798065
0.943886
0.92505
0.327845
0.652232
0.886029
0.836214
0.913021
0.789792
0.727306
1.03673
0.858522
0.849168
0.582221
0.676866
0.716986
0.381188
0.738174
0.828457
0.79644
0.562492
0.507632
0.556458
1.05353
0.508341
0.685397
0.254583
0.825094
0.689502
0.490668
0.0719441
0.56754
0.0782468
0.626362
0.600272
0.537119
0.489911
0.466225
0.891236
0.738722
0.711165
0.60423
0.579684
0.487758
0.844131
0.858101
0.772733
0.679561
0.689396
0.517768
1.02967
0.661693
0.349484
0.467067
0.923843
0.865457
0.632505
0.601622
0.387418
0.624011
0.630004
0.547972
0.998333
1.0295
0.884298
0.97288
0.763268
0.431757
0.96226
0.42226
0.544657
0.448461
0.918502
0.89713
0.901845
0.602911
0.365543
0.404188
0.660947
0.80775
0.36542
0.503548
0.778952
0.590254
0.951082
0.47154
0.776083
0.704338
0.68097
0.435257
0.55628
0.620261
0.886329
0.519992
0.802516
0.929464
0.944285
0.617868
0.518667
0.515724
0.810216
0.680222
0.515669
0.341244
0.503648
0.500938
0.867536
0.525655
0.531454
0.575707
0.512246
0.764783
0.536485
0.475024
0.597039
0.56677
0.679115
0.756467
0.728175
0.618523
0.72639
0.558771
0.841656
0.903326
0.503632
0.884802
0.503418
0.873827
0.803301
0.74993
0.763408
0.892561
0.423352
0.554581
0.515701
0.900232
0.886322
0.821731
0.894924
0.911218
0.765288
0.938439
0.629689
0.568304
1.02456
0.598483
0.930573
0.741294
0.47325
0.56921
0.928596
0.772744
0.703621
0.906457
0.889157
0.575341
0.570484
0.554212
0.788799
0.870398
1.00031
0.961039
1.04561
0.947475
1.03541
0.868732
0.907716
0.914789
0.862363
0.905951
0.833946
0.821531
0.583017
0.782813
0.915931
0.636253
0.933141
0.857228
0.993049
0.597488
0.944393
0.902777
0.586749
0.808818
0.582787
0.908876
0.829747
0.610894
0.574993
0.497314
0.572072
0.910122
0.417621
0.701498
0.572858
0.642727
0.945281
0.91499
0.286931
0.918317
0.500206
0.54227
0.940125
0.764218
0.548661
1.0489
0.596689
0.286931
0.554512
0.815997
1.01858
0.772253
0.908485
0.850842
0.446609
0.437763
0.37444
0.42989
0.608695
0.465571
0.75001
0.469395
0.807685
0.576831
0.555352
0.649562
0.604009
0.802295
0.579192
0.596033
0.263022
0.600454
0.868529
0.869148
0.787227
0.578076
0.376394
1.09288
0.734317
0.613272
0.565379
0.562969
0.583136
0.710474
0.57269
0.410203
0.56518
0.387698
0.700141
0.576612
0.245152
0.543089
0.642128
0.576632
0.887261
0.598811
0.772192
0.296227
0.619818
0.592075
0.51705
0.555829
0.655894
0.617328
0.645565
0.549023
0.55766
0.60221
0.805003
0.567883
0.804525
0.72626
0.573165
0.589141
0.59479
0.657858
0.593808
0.556007
0.631822
0.66256
0.782199
0.594665
0.590823
0.855307
0.843327
0.568313
0.573288
0.256091
0.692617
0.480636
0.650119
0.287608
0.298552
0.266805
0.271173
0.287684
0.303058
0.312313
0.729359
0.539732
0.544578
0.622618
0.606514
0.598947
0.633534
0.586144
0.599497
0.60948
0.596726
0.732674
0.542557
0.753124
0.586017
0.565712
0.597479
0.637479
0.666128
0.620606
0.710732
0.664012
0.615756
0.444049
0.619312
0.605586
0.652018
0.624651
0.591882
0.562885
0.620032
0.646736
0.877937
0.579871
0.853568
0.88976
0.609291
0.852448
0.653944
0.523852
0.713559
0.62544
0.450409
0.395672
0.704484
0.750329
0.635216
0.528061
0.635267
0.30124
0.628036
0.589279
0.300917
0.1153
0.126127
0.544017
0.58011
0.673752
0.647677
0.0592778
0.0619393
0.641412
0.648102
0.613496
0.226116
0.542817
0.631026
0.643432
0.555027
0.489889
0.235472
0.929304
0.583746
0.713249
0.7244
0.520595
0.658863
0.509001
0.56166
0.279106
0.421184
0.659647
0.663724
0.570447
0.599138
0.618271
0.651908
0.623538
0.307432
0.547108
0.616846
0.583028
0.874921
0.307373
0.473545
0.487765
0.462249
0.300518
0.300539
0.529564
0.427602
0.61155
0.329011
0.35888
0.117177
0.117176
0.245401
0.389626
0.262498
0.521063
0.563551
0.601426
0.677663
0.614671
0.569082
0.448047
0.277254
0.56256
0.582814
0.56426
0.311561
0.287929
0.224287
0.563465
0.574863
0.461952
0.52176
0.481465
0.440845
0.590108
0.440806
0.520835
0.502158
0.307816
0.380033
0.353399
0.623997
0.246788
0.259982
0.254336
0.589296
0.234984
0.23014
0.410019
0.214647
0.477129
0.477851
0.220336
0.519623
0.244578
0.243125
0.273905
0.23196
0.227742
0.339835
0.270701
0.246
0.23268
0.47576
0.543014
0.25612
0.52512
0.211014
0.532701
0.423229
0.220457
0.186666
0.208257
0.276322
0.457478
0.376614
0.157553
0.174884
0.509998
0.148308
0.148307
0.16805
0.18863
0.213209
0.248117
0.410281
0.379767
0.510352
0.149006
0.149005
0.448519
0.184464
0.363618
0.167151
0.168153
0.221557
0.384554
0.3982
0.424219
0.388783
0.384544
0.0840109
0.620739
0.107164
0.103829
0.501451
0.497971
0.107597
0.0747335
0.105302
0.462548
SCALARS rr_S_ext' float
LOOKUP_TABLE default
-0.00297195
-0.00679998
-0.00542876
-0.00709763
-0.0037149
-0.00576179
-0.00293853
-0.00705792
-0.00606524
-0.00764165
-0.00269787
-0.00707953
-0.00622967
-0.00658084
-0.00771421
-0.00647015
-0.00556708
-0.00629169
-0.00563181
-0.0055083
-0.0061959
-0.00110298
-0.00634829
-0.00585123
-0.00530386
-0.00612066
-0.00250088
-0.00537518
-0.00421148
-0.00497423
-0.00550349
-0.00435364
-0.00277022
-0.00372639
-0.0036629
-0.00373478
-0.00483612
-0.00367022
-0.00549784
-0.00311379
-0.00353984
-0.00426224
-0.00426267
-0.00604005
-0.00347719
-0.00384016
-0.00530035
-0.00536831
-0.00503203
-0.00480765
-0.00493739
-0.0038308
-0.00596211
-0.0049225
-0.00548891
-0.00252273
-0.00391097
-0.00495858
-0.00391083
-0.00600496
-0.00710645
-0.00696698
-0.00246026
-0.00491218
-0.00667313
-0.00629591
-0.00687416
-0.0059448
-0.0054723
-0.00780433
-0.00646859
-0.0063981
-0.00437371
-0.0050968
-0.00539551
-0.00285903
-0.00556065
-0.0062375
-0.0059948
-0.0042278
-0.00381209
-0.00419349
-0.00793327
-0.00381694
-0.00514952
-0.0019107
-0.00620916
-0.00519163
-0.00368238
-0.000542677
-0.00426539
-0.000590215
-0.00471845
-0.00451927
-0.00403693
-0.00367972
-0.00350118
-0.00670891
-0.00556476
-0.00535225
-0.00454333
-0.00435575
-0.00366234
-0.00635362
-0.00645919
-0.00581672
-0.00511743
-0.00518824
-0.00388765
-0.0077515
-0.00497887
-0.00262318
-0.00350644
-0.00695343
-0.00651457
-0.00475375
-0.00453517
-0.00290932
-0.0047039
-0.00473502
-0.0041209
-0.00751949
-0.00774978
-0.00665844
-0.00732415
-0.00574937
-0.00325426
-0.00724354
-0.00317102
-0.00409357
-0.00337892
-0.00691407
-0.00675543
-0.00678877
-0.0045303
-0.00275554
-0.00303459
-0.0049746
-0.00608251
-0.00275461
-0.00378386
-0.00586375
-0.00443917
-0.00715942
-0.00354097
-0.00584169
-0.00530171
-0.00512438
-0.00327534
-0.00418223
-0.00466612
-0.00667203
-0.00390626
-0.00604003
-0.00699667
-0.00710817
-0.00465163
-0.00389765
-0.00387558
-0.00609791
-0.00511733
-0.00387391
-0.00256126
-0.00378305
-0.00376438
-0.00653037
-0.00395015
-0.0039937
-0.00432483
-0.0038494
-0.00576122
-0.00403202
-0.00356804
-0.004495
-0.00425968
-0.00511401
-0.00569856
-0.00548084
-0.00466045
-0.00546785
-0.00419763
-0.00633566
-0.00679985
-0.00378451
-0.00666221
-0.00378121
-0.00657959
-0.00604934
-0.00564943
-0.00574667
-0.00672066
-0.00317937
-0.00416805
-0.00387406
-0.0067766
-0.00667083
-0.00618481
-0.0067388
-0.00685936
-0.00576184
-0.00706432
-0.00473614
-0.00427164
-0.00771493
-0.00449598
-0.00700739
-0.00558123
-0.00355589
-0.00428714
-0.00699027
-0.00582034
-0.005297
-0.00682312
-0.00669554
-0.00432559
-0.00429485
-0.0041659
-0.00594013
-0.00655259
-0.00753057
-0.00723463
-0.00787143
-0.00713268
-0.00779467
-0.00653968
-0.00683708
-0.00689027
-0.00649546
-0.00682381
-0.0062833
-0.00618977
-0.00438317
-0.00589295
-0.00689411
-0.00478645
-0.00702875
-0.00645704
-0.00747465
-0.00449104
-0.00710825
-0.0067958
-0.00441145
-0.00609181
-0.00438158
-0.0068441
-0.00624523
-0.00459302
-0.00432218
-0.00373457
-0.00429604
-0.00685344
-0.00313588
-0.00527947
-0.00430604
-0.00483405
-0.00711491
-0.00688823
-0.0021633
-0.00691321
-0.0037559
-0.00407611
-0.0070762
-0.00575215
-0.00412395
-0.00789633
-0.00448766
-0.0021633
-0.00416818
-0.00614309
-0.00766938
-0.00581243
-0.00684298
-0.00640638
-0.00336503
-0.00329473
-0.0028107
-0.00322642
-0.00458582
-0.00350293
-0.00564521
-0.00352908
-0.00608331
-0.00434284
-0.00417447
-0.00489041
-0.00454174
-0.00603917
-0.00435516
-0.00448014
-0.00198359
-0.00452347
-0.00654211
-0.00654674
-0.00592613
-0.0043469
-0.00283685
-0.00822868
-0.00552434
-0.00461163
-0.00425093
-0.00424131
-0.00438428
-0.00535207
-0.00430609
-0.00307852
-0.00424988
-0.00291131
-0.0052725
-0.00433523
-0.00184881
-0.00408352
-0.00483519
-0.00433517
-0.00668084
-0.00450244
-0.00581112
-0.00222285
-0.00466401
-0.00445145
-0.00389528
-0.00417883
-0.00493433
-0.00464834
-0.00485971
-0.0041281
-0.00419336
-0.00452913
-0.00606217
-0.0042702
-0.00605556
-0.00546542
-0.00431857
-0.0044301
-0.00447324
-0.00494944
-0.00446607
-0.00418074
-0.00475201
-0.00499004
-0.00588745
-0.00447239
-0.00444198
-0.00643845
-0.00634831
-0.00427336
-0.00431949
-0.00191973
-0.00521216
-0.00360935
-0.00489129
-0.00215088
-0.00223273
-0.00199536
-0.00202801
-0.00215151
-0.00226642
-0.00233568
-0.00549261
-0.00406752
-0.00409866
-0.0046839
-0.00456168
-0.00450471
-0.00476887
-0.00440828
-0.00450862
-0.00459319
-0.00448799
-0.00551848
-0.00407761
-0.00567232
-0.00440973
-0.00425579
-0.00449359
-0.00480271
-0.00501284
-0.00466889
-0.00534852
-0.00499545
-0.00463096
-0.00333751
-0.00465899
-0.00455707
-0.00491104
-0.00469828
-0.00445122
-0.00423365
-0.00466431
-0.00486667
-0.0066086
-0.00436139
-0.00642513
-0.00669515
-0.00458355
-0.0064163
-0.00492078
-0.00393986
-0.0053729
-0.00470545
-0.00339427
-0.00296948
-0.00530529
-0.00565106
-0.00477999
-0.0039729
-0.00478293
-0.00225831
-0.00472594
-0.00443337
-0.0022581
-0.000869518
-0.000951186
-0.00409388
-0.00436309
-0.00506916
-0.00487149
-0.000447288
-0.00046737
-0.00482789
-0.00487825
-0.00461766
-0.00169512
-0.00408232
-0.00475172
-0.00484045
-0.00417525
-0.00368532
-0.00176511
-0.00699721
-0.00439034
-0.00536736
-0.00545128
-0.00391619
-0.00495668
-0.00382898
-0.00422525
-0.00209387
-0.00316279
-0.00496256
-0.0049947
-0.00429174
-0.00450697
-0.00465142
-0.00490472
-0.00469116
-0.00230726
-0.00412104
-0.00463946
-0.00438959
-0.00658789
-0.00230675
-0.0035635
-0.00367037
-0.00348286
-0.00226624
-0.00226639
-0.00398938
-0.00321582
-0.00460199
-0.00246903
-0.00270615
-0.000884101
-0.000884096
-0.00183946
-0.00293693
-0.00197894
-0.00392092
-0.00424522
-0.00452652
-0.00510134
-0.00462834
-0.00428547
-0.00337237
-0.00207847
-0.00423363
-0.00438784
-0.00424893
-0.00233675
-0.00217041
-0.00168295
-0.00424287
-0.00432755
-0.00347333
-0.00392687
-0.00362386
-0.00332164
-0.00444184
-0.00332134
-0.00391946
-0.00378131
-0.00232044
-0.00286492
-0.0026521
-0.00469756
-0.00184967
-0.00194873
-0.00190605
-0.00443714
-0.00176151
-0.00172456
-0.00308435
-0.00160868
-0.0035957
-0.00360113
-0.00165144
-0.00390943
-0.00183487
-0.00182218
-0.00205471
-0.00173847
-0.00170842
-0.00256167
-0.00203116
-0.00184412
-0.00174394
-0.00358087
-0.00408951
-0.00192116
-0.0039524
-0.00158127
-0.00400998
-0.00318429
-0.0016522
-0.00140009
-0.00156067
-0.00207123
-0.00344238
-0.00283835
-0.00118865
-0.00131934
-0.00383932
-0.00111889
-0.00111888
-0.0012678
-0.00142266
-0.00159991
-0.00187037
-0.00309088
-0.00286211
-0.0038418
-0.00112389
-0.00112388
-0.00338051
-0.00138262
-0.00273569
-0.00125294
-0.00126165
-0.00166238
-0.00289963
-0.00300249
-0.00319861
-0.00293145
-0.00289955
-0.000633776
-0.00468043
-0.000808297
-0.000783344
-0.00378109
-0.00375487
-0.000811782
-0.000563795
-0.000794263
-0.00348752
SCALARS rr_P_ext' float
LOOKUP_TABLE default
6.54131e-05
0.000151749
0.000121002
0.000158352
8.32018e-05
0.000128422
6.46746e-05
0.000157443
0.000135026
0.000170523
5.94302e-05
0.000157925
0.000138927
0.00014688
0.000172543
0.000144242
0.000124316
0.000140327
0.000125299
0.000122728
0.000138021
2.48249e-05
0.000141417
0.000130372
0.000118171
0.000136545
5.51985e-05
0.000119828
9.33468e-05
0.000111631
0.000122727
9.65008e-05
6.11316e-05
8.35562e-05
8.21671e-05
8.3743e-05
0.000108548
8.23163e-05
0.000122598
6.87161e-05
7.84577e-05
9.56729e-05
9.56814e-05
0.000134693
7.68328e-05
8.51335e-05
0.000117959
0.000119538
0.000112164
0.00010647
0.000109398
8.50289e-05
0.000133505
0.000109264
0.000122895
5.57673e-05
8.77349e-05
0.000110066
8.77305e-05
0.000133803
0.000158682
0.000155752
5.43511e-05
0.000109808
0.000149185
0.000140593
0.000153503
0.000132622
0.000121915
0.00017417
0.000144842
0.000143262
9.6939e-05
0.000113866
0.000120266
6.30537e-05
0.000124409
0.000139287
0.000133737
9.38697e-05
8.43997e-05
9.39623e-05
0.000177251
8.44734e-05
0.000114186
4.22262e-05
0.000138419
0.00011596
8.13681e-05
1.22056e-05
9.46767e-05
1.32745e-05
0.000105575
0.000100904
8.96169e-05
8.15206e-05
7.75178e-05
0.000149705
0.000124498
0.000119345
0.000101003
9.66157e-05
8.10499e-05
0.000141725
0.000144118
0.000129785
0.000114358
0.000115675
8.60342e-05
0.000173018
0.000110942
5.79884e-05
7.75624e-05
0.000155093
0.000145346
0.000105523
0.000101736
6.44101e-05
0.000105517
0.000105113
9.16556e-05
0.00016816
0.000172943
0.000148724
0.000163496
0.000128612
7.29653e-05
0.000161635
7.0208e-05
9.08743e-05
7.56599e-05
0.00015428
0.000150923
0.000151491
0.00010049
6.18157e-05
6.71363e-05
0.000110949
0.000135901
6.17938e-05
8.39452e-05
0.000130858
9.87559e-05
0.000159766
7.83898e-05
0.000130326
0.000118292
0.000114222
7.30029e-05
9.29366e-05
0.000103899
0.000148892
8.65818e-05
0.0001347
0.000156132
0.000158613
0.000103843
8.64813e-05
8.59952e-05
0.000135986
0.000113952
8.58735e-05
5.66138e-05
8.38207e-05
8.35233e-05
0.00014571
8.76455e-05
8.86099e-05
9.58599e-05
8.5412e-05
0.000128911
8.94986e-05
7.9055e-05
0.000100359
9.45548e-05
0.000114276
0.000127507
0.000122263
0.000104363
0.000122006
9.30416e-05
0.000141374
0.00015173
8.39616e-05
0.00014881
8.37705e-05
0.000146962
0.000135186
0.000126416
0.000128234
0.000150119
7.0403e-05
9.25204e-05
8.58699e-05
0.000151218
0.000148775
0.000137946
0.00015055
0.00015307
0.00012866
0.000157648
0.00010539
9.48522e-05
0.000172355
9.96568e-05
0.000156563
0.000124632
7.8868e-05
9.58606e-05
0.000155999
0.000130159
0.000118237
0.000152232
0.000149598
9.61269e-05
9.58783e-05
9.2517e-05
0.000132745
0.000146268
0.000168098
0.000161466
0.00017569
0.000159202
0.000173976
0.000145949
0.000152909
0.000154093
0.000145269
0.000152615
0.000140685
0.000138592
9.73967e-05
0.000131521
0.00015379
0.000106574
0.000157212
0.000144432
0.000166747
9.97278e-05
0.000158559
0.000151645
9.80405e-05
0.000136216
9.73705e-05
0.000152924
0.0001393
0.000102079
9.59938e-05
8.26804e-05
9.51196e-05
0.000153126
6.94078e-05
0.000117719
9.56285e-05
0.000107559
0.000158704
0.000153756
4.85625e-05
0.000154307
8.31235e-05
9.05229e-05
0.00015785
0.000128316
9.15699e-05
0.000176256
9.98413e-05
4.85618e-05
9.25699e-05
0.000137131
0.000171291
0.00012964
0.000153051
0.000143087
7.53501e-05
7.34739e-05
6.21469e-05
7.13026e-05
0.000102646
7.80343e-05
0.00012593
7.84264e-05
0.000136029
9.69608e-05
9.27083e-05
0.000109193
0.000100972
0.000134754
9.68251e-05
9.94888e-05
4.4577e-05
0.000101229
0.000146333
0.000146433
0.000132256
9.6651e-05
6.36001e-05
0.000183772
0.00012302
0.000102542
9.44807e-05
9.49341e-05
9.74355e-05
0.000119753
9.57207e-05
6.80261e-05
9.44915e-05
6.44459e-05
0.00011783
9.63463e-05
4.15475e-05
9.07737e-05
0.000108022
9.63297e-05
0.000149234
0.000100082
0.000129544
4.90955e-05
0.000103943
9.89254e-05
8.71838e-05
9.28606e-05
0.000109883
0.000103834
0.000108454
9.17628e-05
9.32359e-05
0.00010076
0.000135474
9.49425e-05
0.000135083
0.00012184
9.66995e-05
9.84994e-05
9.951e-05
0.000110242
9.93651e-05
9.29418e-05
0.00010573
0.000111563
0.000131328
9.94968e-05
9.87127e-05
0.000143677
0.000141669
9.50077e-05
9.67184e-05
4.22683e-05
0.00011619
7.99094e-05
0.000108953
4.70076e-05
4.87974e-05
4.36132e-05
4.43252e-05
4.70265e-05
4.95317e-05
5.10483e-05
0.000122755
9.11563e-05
9.14061e-05
0.000104299
0.000101498
0.000100224
0.000106409
9.80703e-05
0.000100295
0.00010294
9.98519e-05
0.000123404
9.05087e-05
0.000126832
9.8284e-05
9.4764e-05
9.99715e-05
0.000107504
0.000111746
0.000103973
0.000119231
0.000111247
0.00010302
7.40988e-05
0.000103742
0.000101573
0.000109825
0.000104551
9.90097e-05
9.42064e-05
0.000103851
0.00010847
0.000147463
9.70474e-05
0.000143365
0.000149202
0.000102057
0.000143135
0.000109664
8.76534e-05
0.000120016
0.0001048
7.60588e-05
6.56175e-05
0.000118567
0.000126341
0.000106539
8.84879e-05
0.000106803
4.97317e-05
0.000105333
9.87381e-05
4.98778e-05
1.95389e-05
2.13749e-05
9.12595e-05
9.70781e-05
0.000112917
0.000108406
1.00729e-05
1.05252e-05
0.000107699
0.000108826
0.000103007
3.73283e-05
9.08115e-05
0.000106161
0.000107777
9.29545e-05
8.20559e-05
3.88607e-05
0.00015629
9.76774e-05
0.000119643
0.000121514
8.71855e-05
0.000110379
8.52437e-05
9.40769e-05
4.62121e-05
7.00149e-05
0.000110509
0.000111339
9.5587e-05
0.000100332
0.000103589
0.000109248
0.000104483
5.09846e-05
9.21778e-05
0.000103235
9.80158e-05
0.000147157
5.09689e-05
7.94282e-05
8.18003e-05
7.79869e-05
5.09196e-05
5.09225e-05
8.92765e-05
7.1534e-05
0.000102579
5.45468e-05
6.07867e-05
1.99034e-05
1.99031e-05
4.04911e-05
6.58698e-05
4.44114e-05
8.73856e-05
9.49806e-05
0.000100946
0.000113846
0.000103389
9.57646e-05
7.52292e-05
4.57696e-05
9.43861e-05
9.79659e-05
9.4926e-05
5.15308e-05
4.86861e-05
3.7165e-05
9.47852e-05
9.65829e-05
7.72023e-05
8.75665e-05
8.08343e-05
7.43856e-05
9.90979e-05
7.43779e-05
8.73692e-05
8.4481e-05
5.20635e-05
6.42859e-05
5.85939e-05
0.000104855
4.07009e-05
4.28921e-05
4.19284e-05
9.91069e-05
3.87841e-05
3.79251e-05
6.86634e-05
3.53923e-05
8.05717e-05
8.06925e-05
3.63412e-05
8.70776e-05
4.04979e-05
4.00932e-05
4.53379e-05
3.82493e-05
3.76968e-05
5.74582e-05
4.48526e-05
4.06052e-05
3.83754e-05
7.9871e-05
9.14126e-05
4.23818e-05
8.81609e-05
3.47772e-05
8.94847e-05
7.09326e-05
3.63477e-05
3.08803e-05
3.43267e-05
4.55929e-05
7.67155e-05
6.3616e-05
2.67526e-05
2.96886e-05
8.56964e-05
2.51817e-05
2.51812e-05
2.85308e-05
3.19803e-05
3.53388e-05
4.19615e-05
6.91763e-05
6.41498e-05
8.57373e-05
2.52718e-05
2.52714e-05
7.57881e-05
3.04304e-05
6.09316e-05
2.75815e-05
2.78555e-05
3.6706e-05
6.51213e-05
6.74289e-05
7.18263e-05
6.58292e-05
6.51188e-05
1.42607e-05
0.000105105
1.81754e-05
1.76312e-05
8.49205e-05
8.4333e-05
1.82723e-05
1.26866e-05
1.78607e-05
7.83083e-05
SCALARS rr_S' float
LOOKUP_TABLE default
0.0028262
0.00646762
0.00516335
0.00675071
0.00353345
0.00548009
0.00279442
0.00671293
0.00576863
0.00726814
0.00256559
0.00673348
0.00592514
0.0062592
0.00733733
0.00615384
0.00529501
0.00598413
0.00535635
0.00523898
0.00589294
0.00104916
0.00603788
0.00556514
0.00504453
0.00582148
0.00237831
0.00511239
0.0040053
0.00473137
0.00523445
0.00414051
0.00263445
0.00354442
0.00348405
0.0035524
0.0046
0.003491
0.00522908
0.00296119
0.00336655
0.00405414
0.00405456
0.00574479
0.00330683
0.00365217
0.00504112
0.0051058
0.00478602
0.00457224
0.00469566
0.00364333
0.0056709
0.0046816
0.0052208
0.00239915
0.00372001
0.00471592
0.00371987
0.00571136
0.00675915
0.00662658
0.00233972
0.00467217
0.00634709
0.00598823
0.00653821
0.00565422
0.00520473
0.00742288
0.00615264
0.00608559
0.00415959
0.00484774
0.00513173
0.00271889
0.005289
0.00593267
0.00570178
0.00402091
0.00362542
0.00398869
0.00754561
0.00363
0.00489745
0.00181709
0.0059056
0.00493792
0.00350196
0.000516191
0.00405665
0.000561409
0.00448794
0.0042984
0.00383938
0.00349955
0.00332973
0.006381
0.00529291
0.0050906
0.00432107
0.00414255
0.00348298
0.00604305
0.00614347
0.00553241
0.00486737
0.0049346
0.00369725
0.00737265
0.00473543
0.00249468
0.00333469
0.00661353
0.00619615
0.00452111
0.00431373
0.00276686
0.00447421
0.00450331
0.00391932
0.00715211
0.007371
0.00633305
0.00696619
0.00546849
0.00309534
0.00688949
0.00301574
0.00389324
0.00321388
0.00657612
0.00642532
0.00645695
0.00430856
0.002621
0.00288596
0.00473142
0.00578528
0.00262011
0.00359866
0.00557714
0.00422204
0.00680948
0.00336757
0.00555615
0.00504256
0.00487385
0.00311521
0.00397761
0.00443794
0.00634592
0.00371503
0.00574477
0.00665469
0.00676074
0.00442429
0.00370689
0.0036859
0.00579982
0.00486709
0.00368427
0.00243578
0.00359783
0.00358014
0.00621118
0.00375682
0.00379824
0.0041131
0.003661
0.00547978
0.0038347
0.00339334
0.00427532
0.00405122
0.00486411
0.00542018
0.00521293
0.00443281
0.00520059
0.00399213
0.00602599
0.00646749
0.00359928
0.00633664
0.00359608
0.00625806
0.00575375
0.00537345
0.00546579
0.00639224
0.00302368
0.00396407
0.0036844
0.00644538
0.00634474
0.00588248
0.0064095
0.00652409
0.00548025
0.00671904
0.0045045
0.00406261
0.00733793
0.00427588
0.00666497
0.00530847
0.00338184
0.00407768
0.00664861
0.00553598
0.00503811
0.00648962
0.00636836
0.00411396
0.00408495
0.00396205
0.00564988
0.00623234
0.00716252
0.00688103
0.00748671
0.00678407
0.00741371
0.00622004
0.00650305
0.00655363
0.00617811
0.00649043
0.00597639
0.00588743
0.00416872
0.00560493
0.00655712
0.00455239
0.00668536
0.00614159
0.00710929
0.00427128
0.0067608
0.00646364
0.00419563
0.00579418
0.00416722
0.00650967
0.00593995
0.00436831
0.00411069
0.00355169
0.00408567
0.00651855
0.0029823
0.00502138
0.00409534
0.00459762
0.00676712
0.00655158
0.00205768
0.00657533
0.00357196
0.00387666
0.00673031
0.00547098
0.00392214
0.0075104
0.00426816
0.00205768
0.00396423
0.00584285
0.00729459
0.0055283
0.00650866
0.00609331
0.00320067
0.00313367
0.00267301
0.00306835
0.00436181
0.00333165
0.00536926
0.00335643
0.00578609
0.0041306
0.0039702
0.00465141
0.00431956
0.00574399
0.00414211
0.00426091
0.00188677
0.0043025
0.0062225
0.00622689
0.00563649
0.00413426
0.00269831
0.00782655
0.0052542
0.00438604
0.00404296
0.00403413
0.00416978
0.00509062
0.00409544
0.00292769
0.00404198
0.00276874
0.00501487
0.00412313
0.00175857
0.00388376
0.00459891
0.00412307
0.00635436
0.00428218
0.00552702
0.00211393
0.00443598
0.00423367
0.003705
0.00397438
0.00469304
0.00442119
0.00462219
0.00392615
0.00398823
0.0043076
0.00576595
0.00406131
0.00575956
0.00519822
0.00410764
0.00421339
0.00425444
0.00470742
0.00424763
0.00397622
0.00451959
0.00474623
0.00559966
0.00425364
0.00422466
0.00612375
0.00603802
0.00406431
0.0041085
0.00182559
0.00495735
0.0034326
0.00465212
0.0020452
0.00212304
0.00189733
0.00192837
0.00204581
0.00215507
0.00222093
0.00522422
0.00386887
0.0038983
0.00445486
0.00433857
0.00428438
0.00453577
0.00419267
0.00428809
0.00436887
0.00426848
0.00524886
0.00387806
0.00539519
0.00419413
0.00404768
0.00427381
0.00456811
0.00476777
0.00444058
0.00508704
0.00475117
0.00440445
0.00317419
0.00443116
0.00433427
0.00467111
0.00446849
0.0042335
0.00402659
0.00443621
0.00462873
0.00628558
0.00414807
0.00611108
0.00636781
0.00435941
0.00610266
0.0046802
0.00374716
0.00511034
0.00447536
0.0032285
0.00282399
0.00504606
0.00537495
0.00454629
0.00377863
0.00454919
0.00214757
0.00449488
0.00421659
0.00214745
0.000827074
0.000904755
0.00389373
0.00414969
0.00482129
0.00463324
0.000425463
0.000444565
0.0045919
0.0046398
0.00439194
0.001612
0.00388265
0.00451952
0.00460375
0.00397107
0.0035051
0.00167855
0.00665526
0.00417561
0.00510496
0.00518477
0.00372468
0.0047143
0.00364173
0.00401863
0.00199125
0.0030079
0.00471989
0.00475051
0.00408189
0.00428656
0.00442397
0.00466489
0.00446177
0.00219422
0.0039197
0.00441255
0.00417506
0.00626595
0.00219373
0.00338928
0.00349092
0.00331274
0.00215561
0.00215576
0.0037945
0.00305853
0.004377
0.00234806
0.00257405
0.000840959
0.000840954
0.00174925
0.00279353
0.00188232
0.00372922
0.00403784
0.00430525
0.00485201
0.00440216
0.00407607
0.00320753
0.00197655
0.00402666
0.0041734
0.00404131
0.0022222
0.00206443
0.00160048
0.00403554
0.00411603
0.0033034
0.00373491
0.00344672
0.0031594
0.00422472
0.00315911
0.00372784
0.00359653
0.00220714
0.00272503
0.00252215
0.00446797
0.00175895
0.00185316
0.00181255
0.0042203
0.00167513
0.00163996
0.00293351
0.00152978
0.0034201
0.00342526
0.00157045
0.00371827
0.00174495
0.00173281
0.00195401
0.0016532
0.00162468
0.00243658
0.00193163
0.00175369
0.0016584
0.00340583
0.00388969
0.001827
0.0037592
0.00150371
0.00381399
0.00302859
0.00157117
0.00133146
0.00148411
0.00196965
0.00327408
0.00269974
0.00113064
0.00125495
0.00365167
0.00106429
0.00106428
0.00120593
0.00135321
0.00152151
0.00177904
0.00293989
0.00272234
0.00365402
0.00106904
0.00106903
0.00321543
0.00131481
0.00260192
0.0011915
0.00119983
0.00158092
0.00275807
0.00285591
0.00304245
0.00278834
0.002758
0.000602846
0.00445193
0.000768845
0.000745117
0.0035965
0.00357156
0.000772168
0.000536281
0.000755497
0.00331725
SCALARS rr_P' float
LOOKUP_TABLE default
8.03371e-05
0.00018061
0.000144409
0.000188574
9.82415e-05
0.000153273
7.94383e-05
0.000187555
0.000161585
0.000202978
7.28522e-05
0.000188129
0.000165604
0.00017476
0.000204335
0.000172064
0.000147749
0.000167228
0.000150157
0.000146595
0.000164935
2.90001e-05
0.000168991
0.000155718
0.000141158
0.000162635
6.73636e-05
0.000142957
0.000112829
0.000131237
0.000146307
0.000116634
7.46367e-05
9.8414e-05
9.66842e-05
9.8637e-05
0.000127569
9.68976e-05
0.000146162
8.38891e-05
9.48399e-05
0.000112423
0.000112437
0.00016057
9.35287e-05
0.000102855
0.000141267
0.000142976
0.000133851
0.000128943
0.000132338
0.000102446
0.000157711
0.000131633
0.000145213
6.78169e-05
0.000103228
0.000132598
0.000103226
0.0001598
0.000188618
0.000184648
6.61931e-05
0.000130199
0.000176855
0.000167092
0.000182442
0.00015796
0.000145653
0.000207278
0.000171115
0.000169251
0.000117181
0.000135195
0.000143514
7.70879e-05
0.00014724
0.000165544
0.000159292
0.000113019
0.000102276
0.000110837
0.00021041
0.000102458
0.000137887
5.13825e-05
0.000165138
0.000137747
9.90457e-05
1.42807e-05
0.000114065
1.55321e-05
0.000124929
0.000119964
0.000107937
9.86455e-05
9.39316e-05
0.000178206
0.000147352
0.000142301
0.000121256
0.000116583
9.83123e-05
0.000168847
0.000171601
0.000154524
0.000135699
0.00013796
0.000104363
0.000205836
0.000132492
7.0517e-05
9.41857e-05
0.000184805
0.000173077
0.000127113
0.000119706
7.80582e-05
0.000124166
0.000126605
0.000109916
0.000199215
0.000205841
0.000176659
0.000194466
0.000152268
8.59478e-05
0.000192409
8.50737e-05
0.000109453
8.93845e-05
0.000183663
0.000179186
0.000180324
0.000121252
7.27316e-05
8.14925e-05
0.000132225
0.000161323
7.2708e-05
0.000101254
0.000155744
0.000118372
0.000190167
9.50127e-05
0.000155213
0.000140854
0.000136309
8.71284e-05
0.000111679
0.000124282
0.000177216
0.000104653
0.000160557
0.000185846
0.000188816
0.000123496
0.00010428
0.000103684
0.000162103
0.000136288
0.000103773
6.88611e-05
0.000101399
0.000100717
0.00017348
0.000105686
0.000106854
0.000115865
0.000102988
0.000152532
0.000107821
9.56376e-05
0.000119318
0.000113904
0.000135616
0.000150875
0.000145649
0.000123269
0.000145254
0.000112455
0.000168296
0.000180629
0.000101268
0.000176759
0.000101363
0.000174568
0.000160404
0.000149563
0.000152646
0.000178306
8.52817e-05
0.000111455
0.000103787
0.000180004
0.000177316
0.000164383
0.000178747
0.000182195
0.000152926
0.000187633
0.000126248
0.000114175
0.000204643
0.000120445
0.000185854
0.000148127
9.51846e-05
0.0001136
0.000185661
0.000154202
0.000140653
0.000181277
0.00017758
0.0001155
0.000114027
0.000111329
0.000157509
0.000173985
0.000199954
0.000192133
0.000209027
0.000189408
0.00020699
0.000173687
0.000181122
0.00018254
0.000172072
0.000180767
0.000166226
0.000163751
0.000117052
0.000156503
0.0001832
0.000127488
0.000186179
0.000171024
0.000198618
0.000120034
0.000188902
0.000180513
0.000117783
0.000161418
0.000116995
0.000181511
0.000165978
0.000122627
0.000115497
0.000100201
0.000115254
0.000181766
8.4165e-05
0.00014037
0.000115076
0.000128874
0.000189082
0.000182903
5.70553e-05
0.000183575
0.000100817
0.000108931
0.000188041
0.000152857
0.000110232
0.000209674
0.000119655
5.70559e-05
0.000111387
0.000163107
0.0002035
0.000154485
0.000181265
0.000169985
8.90128e-05
8.75851e-05
7.55372e-05
8.67655e-05
0.000121362
9.32438e-05
0.000150015
9.42309e-05
0.000161188
0.000115281
0.000111557
0.000129811
0.000121206
0.000160435
0.000116225
0.000119738
5.22481e-05
0.000119743
0.000173281
0.000173408
0.000157391
0.000115989
7.49349e-05
0.000218354
0.00014712
0.000123046
0.000113484
0.000112246
0.000117059
0.000141705
0.000114935
8.28015e-05
0.000113405
7.81245e-05
0.000139801
0.000115749
4.8699e-05
0.000108994
0.000128257
0.000115771
0.000177241
0.000120182
0.000154549
5.9822e-05
0.000124086
0.000118857
0.000103097
0.000111589
0.000131408
0.000123317
0.00012907
0.000110187
0.000111895
0.000120767
0.000160743
0.000113948
0.00016092
0.000145355
0.000114239
0.000118211
0.000119286
0.000131775
0.000119072
0.000111579
0.000126691
0.000132247
0.000156459
0.000119254
0.000118609
0.000171018
0.000168619
0.000114041
0.000114265
5.18715e-05
0.000138628
9.68389e-05
0.000130218
5.86652e-05
6.08966e-05
5.44168e-05
5.53095e-05
5.86749e-05
6.18179e-05
6.37022e-05
0.000145629
0.000107491
0.000108952
0.000124749
0.000121614
0.000120103
0.000126687
0.000117546
0.000120232
0.000121379
0.000119658
0.000146211
0.000109044
0.000150306
0.000117312
0.000113349
0.000119815
0.000127098
0.000133326
0.000124336
0.000142252
0.000133031
0.000123488
8.92248e-05
0.00012409
0.000121223
0.00013011
0.000125234
0.000118715
0.000112857
0.000124244
0.000129465
0.000175557
0.000116264
0.000170687
0.000178139
0.000122087
0.0001705
0.000130921
0.000105049
0.000142543
0.000125289
8.97116e-05
7.98673e-05
0.000140662
0.000149766
0.000127157
0.000105778
0.000126943
6.10063e-05
0.000125722
0.000118048
6.07646e-05
2.29056e-05
2.50558e-05
0.000108887
0.000116321
0.000134948
0.00012985
1.17523e-05
1.228e-05
0.00012829
0.000129626
0.000122712
4.57936e-05
0.000108865
0.000126033
0.000128927
0.000111226
9.81628e-05
4.76991e-05
0.000185653
0.000117058
0.000142764
0.000144995
0.000104327
0.000132003
0.000102004
0.000112545
5.64046e-05
8.48698e-05
0.000132162
0.000132848
0.000114271
0.000120074
0.000123862
0.00013058
0.000124907
6.20556e-05
0.000109155
0.000123679
0.000116508
0.000174777
6.20487e-05
9.47896e-05
9.76475e-05
9.2132e-05
5.97072e-05
5.97117e-05
0.000105607
8.57605e-05
0.000122412
6.64257e-05
7.13215e-05
2.32383e-05
2.32383e-05
4.97177e-05
7.75392e-05
5.22106e-05
0.000104313
0.000112407
0.000120327
0.000135488
0.000122784
0.00011364
8.96175e-05
5.61508e-05
0.000112584
0.000116478
0.0001127
6.30123e-05
5.72929e-05
4.53008e-05
0.000112547
0.000114929
9.27195e-05
0.000104395
9.63068e-05
8.78573e-05
0.000118018
8.78506e-05
0.000104247
0.000100295
6.12377e-05
7.55981e-05
7.13464e-05
0.000124737
5.00169e-05
5.26777e-05
5.15621e-05
0.000117728
4.75968e-05
4.66695e-05
8.21712e-05
4.35095e-05
9.50325e-05
9.51772e-05
4.46534e-05
0.000104084
4.94246e-05
4.92778e-05
5.53654e-05
4.70173e-05
4.60344e-05
6.76253e-05
5.46774e-05
4.98255e-05
4.71565e-05
9.51704e-05
0.000108404
5.17812e-05
0.000105042
4.27873e-05
0.000106513
8.47682e-05
4.46897e-05
3.77468e-05
4.22251e-05
5.59822e-05
9.15893e-05
7.49969e-05
3.12532e-05
3.46972e-05
0.000101951
2.94205e-05
2.94204e-05
3.33391e-05
3.74609e-05
4.3054e-05
4.93648e-05
8.18119e-05
7.56243e-05
0.000102039
2.95835e-05
2.95835e-05
8.92929e-05
3.73772e-05
7.28378e-05
3.38631e-05
3.397e-05
4.4755e-05
7.64357e-05
7.91509e-05
8.43302e-05
7.72837e-05
7.64345e-05
1.66689e-05
0.000123393
2.12764e-05
2.05957e-05
9.96681e-05
9.89749e-05
2.13418e-05
1.48275e-05
2.09055e-05
9.19568e-05
SCALARS rr_T' float
LOOKUP_TABLE default
0.000145174
0.000331045
0.000264362
0.000345554
0.000180726
0.000280582
0.000143544
0.000343634
0.000295438
0.000372025
0.00013176
0.000344687
0.000303327
0.000320369
0.000375388
0.000315056
0.00027099
0.000306339
0.000274368
0.000268258
0.000301759
5.36119e-05
0.000309182
0.000284959
0.000258303
0.000297997
0.000122078
0.000261746
0.000205361
0.000241907
0.00026797
0.000212292
0.000135232
0.00018125
0.000178144
0.000181659
0.000235183
0.000178505
0.000267698
0.000152002
0.000172613
0.000207273
0.000207294
0.000294096
0.000169688
0.000187245
0.000258201
0.000261476
0.000245042
0.000234483
0.000240781
0.000186734
0.000290064
0.000239945
0.000267048
0.000123096
0.000190208
0.000241705
0.000190201
0.000292443
0.000345927
0.000339053
0.000120068
0.000239058
0.000324752
0.000306469
0.000334617
0.000289434
0.000266511
0.000379939
0.000314707
0.000311277
0.000213274
0.000248076
0.000262738
0.000139588
0.000270574
0.000303625
0.00029187
0.000206071
0.000185939
0.00020399
0.000386128
0.000186193
0.000251077
9.32389e-05
0.000302357
0.000252704
0.000179701
2.63814e-05
0.000207916
2.86926e-05
0.000229592
0.000219995
0.000196774
0.000179454
0.000170772
0.000326616
0.000270775
0.000260612
0.000221381
0.000212356
0.000178654
0.000309345
0.000314471
0.000283185
0.000249069
0.000252632
0.000189645
0.000377356
0.000242471
0.000127998
0.000171069
0.000338555
0.000317165
0.000231717
0.000220566
0.000141905
0.000228774
0.000230802
0.000200775
0.000365923
0.000377287
0.000324096
0.000356546
0.00027977
0.000158285
0.000352644
0.000154668
0.000199535
0.000164392
0.000336607
0.000328804
0.000330504
0.000220865
0.000134015
0.000148042
0.000242213
0.000296048
0.00013397
0.000184467
0.000285469
0.00021627
0.000348549
0.000172717
0.000284411
0.000258122
0.000249541
0.000159498
0.000203807
0.000227279
0.000324819
0.000190479
0.00029409
0.000340626
0.000346056
0.00022644
0.000190007
0.00018893
0.000296911
0.00024925
0.000188897
0.000124979
0.000184488
0.000183512
0.000317928
0.000192567
0.000194691
0.000210888
0.000187655
0.00028033
0.00019654
0.000174002
0.000218809
0.000207635
0.000248904
0.000277282
0.000266853
0.000226732
0.000266203
0.000204685
0.000308445
0.000331046
0.000184498
0.000324282
0.000184402
0.000320258
0.000294422
0.000274888
0.00027977
0.000327126
0.00015507
0.00020317
0.000188907
0.000329912
0.000324802
0.000301134
0.000327995
0.00033394
0.000280473
0.000343916
0.000230722
0.000208201
0.000375507
0.000219232
0.000341063
0.000271681
0.000173365
0.000208633
0.00034031
0.000283237
0.000257866
0.00033219
0.000325885
0.000210791
0.000209075
0.00020304
0.000289106
0.000318987
0.000366597
0.000352201
0.000383196
0.000347232
0.000379459
0.000318373
0.00033271
0.000335301
0.000316086
0.000332064
0.000305697
0.000301147
0.000213601
0.000286885
0.000335658
0.000233138
0.000342032
0.000314208
0.00036392
0.000218894
0.000346087
0.000330845
0.000214971
0.000296457
0.000213519
0.000333113
0.000304072
0.000223818
0.000210655
0.000182159
0.000209542
0.000333568
0.000152966
0.000257068
0.000209871
0.000235499
0.000346412
0.000335328
0.0001052
0.000336547
0.000183214
0.000198665
0.000344524
0.000280062
0.000201004
0.000384405
0.000218629
0.0001052
0.000203151
0.000299051
0.00037331
0.000283002
0.000332994
0.000311834
0.000163713
0.000160422
0.00013714
0.000157444
0.000223123
0.000170601
0.000274854
0.000171975
0.000296042
0.000211402
0.000203458
0.000238059
0.0002213
0.000294022
0.000212208
0.000218361
9.6442e-05
0.000220098
0.00031835
0.000318576
0.000288502
0.0002118
0.000137987
0.000400536
0.000269073
0.000224697
0.000207143
0.000206361
0.000213647
0.000260423
0.000209823
0.000150232
0.000207075
0.000142007
0.000256613
0.000211257
8.98894e-05
0.000198978
0.000235345
0.000211262
0.000325184
0.000219393
0.000282971
0.000108487
0.000227128
0.000216922
0.000189528
0.000203641
0.000240337
0.000226253
0.000236585
0.000201152
0.00020432
0.000220651
0.000295046
0.000208065
0.000294833
0.000266139
0.000210104
0.000215854
0.000217931
0.00024106
0.000217574
0.000203712
0.000231503
0.000242846
0.00028665
0.000217886
0.000216463
0.000313451
0.000309061
0.000208222
0.000210149
9.3768e-05
0.000253811
0.00017605
0.000238225
0.000105256
0.000109261
9.76429e-05
9.92414e-05
0.000105284
0.00011091
0.000114297
0.000267323
0.000197862
0.000199567
0.000228143
0.00022223
0.000219456
0.000232175
0.000214765
0.000219656
0.000223432
0.000218643
0.000268549
0.000198764
0.000276042
0.000214744
0.000207291
0.000218918
0.000233674
0.000244103
0.000227407
0.000260449
0.000243312
0.000225613
0.000162678
0.000226931
0.000221915
0.000238986
0.000228877
0.000216864
0.000206245
0.000227193
0.000236994
0.000321743
0.000212468
0.000312811
0.000326047
0.000223258
0.000312396
0.000239634
0.000191941
0.000261521
0.00022918
0.000165115
0.00014491
0.000258205
0.000275016
0.000232773
0.000193498
0.000232822
0.000110301
0.000230141
0.000215929
0.000110205
4.22765e-05
4.6247e-05
0.000199355
0.000212555
0.000246885
0.000237314
2.17388e-05
2.27148e-05
0.000235057
0.00023751
0.000224827
8.27936e-05
0.000198888
0.000231276
0.000235768
0.000203373
0.000179506
8.62179e-05
0.000340591
0.000213886
0.00026137
0.000265456
0.000190756
0.000241425
0.000186508
0.000205805
0.000102211
0.000154273
0.000241712
0.000243222
0.000209029
0.000219535
0.000226552
0.00023888
0.000228483
0.000112594
0.000200537
0.000226016
0.000213676
0.000320661
0.000112571
0.000173529
0.000178739
0.000169446
0.000110189
0.000110196
0.000194113
0.000156673
0.000224102
0.000120495
0.000131585
4.29708e-05
4.29706e-05
8.98525e-05
0.000142842
9.62398e-05
0.000190941
0.000206567
0.000220398
0.000248349
0.000225279
0.000208576
0.000164195
0.000101518
0.000206152
0.000213596
0.000206806
0.000114091
0.00010556
8.21401e-05
0.000206513
0.000210676
0.00016925
0.000191203
0.000176441
0.000161601
0.000216257
0.000161587
0.000190859
0.000184045
0.000112853
0.000139331
0.000129427
0.000228685
9.03595e-05
9.51923e-05
9.31211e-05
0.000215978
8.60397e-05
8.42605e-05
0.000150238
7.85902e-05
0.00017491
0.000175174
8.06747e-05
0.000190406
8.95673e-05
8.90179e-05
0.000100306
8.49298e-05
8.34004e-05
0.000124589
9.91368e-05
9.00735e-05
8.5194e-05
0.000174349
0.000199026
9.3791e-05
0.000192439
7.72581e-05
0.000195223
0.000155085
8.07173e-05
6.8356e-05
7.62495e-05
0.000101174
0.00016764
0.000138065
5.77762e-05
6.41309e-05
0.000186906
5.4386e-05
5.43854e-05
6.16251e-05
6.91664e-05
7.80831e-05
9.0965e-05
0.000150391
0.000139221
0.000187034
5.46382e-05
5.46377e-05
0.000164428
6.75398e-05
0.000133241
6.12019e-05
6.15812e-05
8.11392e-05
0.000140997
0.000146
0.000155539
0.000142547
0.000140993
3.08072e-05
0.000227593
3.92957e-05
3.80756e-05
0.000183858
0.000182583
3.94573e-05
2.74051e-05
3.86128e-05
0.000169591
SCALARS rr_uec(SIM,_S_ext) float
LOOKUP_TABLE default
0.0212243
0.0482664
0.0385533
0.0503844
0.0263298
0.0409188
0.0209861
0.0501055
0.0430952
0.0542414
0.0192606
0.050259
0.0442309
0.0467081
0.0547054
0.0459444
0.0395049
0.0446692
0.0400268
0.0391243
0.0440115
0.00780267
0.0450943
0.0415598
0.0376725
0.0434508
0.017838
0.0381705
0.0299823
0.0352284
0.0390756
0.030994
0.0197608
0.0263999
0.0259451
0.0264595
0.0342483
0.0259987
0.039036
0.0222112
0.0252012
0.0301836
0.0301868
0.0428852
0.0247896
0.0273363
0.037666
0.0381394
0.0357355
0.0342398
0.035156
0.0272549
0.0422613
0.0350212
0.0389087
0.0179812
0.0277019
0.0352779
0.0277011
0.0426509
0.0504299
0.0494156
0.017541
0.0348421
0.047331
0.0446767
0.0487806
0.0422021
0.0388701
0.0553946
0.0458519
0.0453523
0.0311377
0.036161
0.038316
0.0203999
0.0394286
0.0442624
0.0425574
0.0300755
0.0271525
0.0297165
0.0562834
0.0271919
0.0366533
0.0136206
0.0440928
0.0368371
0.0262522
0.00384007
0.0303465
0.00417649
0.033456
0.0320716
0.0287194
0.0262025
0.0249376
0.0476211
0.039458
0.0380031
0.0323016
0.0309987
0.026091
0.0451065
0.0458513
0.0412897
0.0363037
0.0368403
0.0276964
0.0550163
0.0353627
0.0186973
0.0249859
0.0493664
0.0462447
0.0338199
0.0321233
0.0207225
0.0333189
0.033686
0.0292923
0.053328
0.0550086
0.0472442
0.0519811
0.0407699
0.023055
0.0514161
0.022586
0.0291225
0.0239513
0.0490783
0.0479284
0.0481879
0.0322407
0.019518
0.0216215
0.0353185
0.0431529
0.0195114
0.0269267
0.0416209
0.0315515
0.0508186
0.0252222
0.0414694
0.0376352
0.0363913
0.0232605
0.0297399
0.0331515
0.0473586
0.0278095
0.0428839
0.0496636
0.0504559
0.0330124
0.0277346
0.0275771
0.0432957
0.036356
0.027578
0.0182567
0.0269368
0.0267867
0.0463553
0.0281083
0.0284185
0.0307892
0.0273913
0.0408493
0.0286859
0.0254059
0.031899
0.0303052
0.0362802
0.0404052
0.0389099
0.0330336
0.0388132
0.0298833
0.0449721
0.0482673
0.0269311
0.047271
0.0269248
0.0466848
0.042914
0.0400556
0.0407909
0.0476854
0.0226439
0.0296534
0.0275799
0.0481018
0.0473621
0.0439101
0.0478107
0.0486887
0.0408876
0.0501429
0.0336583
0.0303859
0.0547365
0.032007
0.0497147
0.0396054
0.0253074
0.0304061
0.0496168
0.0412776
0.0375948
0.0484354
0.0475019
0.0307588
0.0304807
0.0296318
0.0421394
0.0465056
0.0534468
0.0513498
0.055868
0.0506245
0.0553233
0.0464178
0.0484871
0.0488651
0.0460644
0.0483927
0.0445395
0.0438765
0.0311696
0.0418268
0.0489429
0.0340063
0.0498444
0.0457891
0.0530634
0.0319461
0.0504641
0.0482378
0.0313684
0.0432054
0.0311569
0.048555
0.0443383
0.0326591
0.0307427
0.0266007
0.0305992
0.048622
0.0223388
0.0374867
0.0306288
0.0343557
0.0505117
0.0488884
0.0153192
0.0490664
0.0267565
0.0289934
0.0502357
0.0408359
0.0293357
0.0560435
0.0318952
0.0153192
0.0296478
0.0435988
0.054419
0.0412662
0.0485276
0.045457
0.0238523
0.0233928
0.0200319
0.0229999
0.0325106
0.0248821
0.0400767
0.0250946
0.0431447
0.0308193
0.0296928
0.034705
0.0322896
0.042869
0.0309628
0.0318682
0.0140406
0.0320715
0.046393
0.0464262
0.0420629
0.0309027
0.0200991
0.0583887
0.039247
0.0327841
0.0302256
0.0300685
0.0311753
0.0379486
0.0306158
0.021947
0.0302134
0.0207378
0.0374029
0.0308265
0.0130867
0.0290333
0.0343052
0.0308283
0.047402
0.0320124
0.0412656
0.0158498
0.0331242
0.0316533
0.0276162
0.0297159
0.0350555
0.0329808
0.0344938
0.0293506
0.0298114
0.0321905
0.0430048
0.030358
0.0429897
0.038811
0.0306115
0.0314943
0.0317941
0.0351595
0.031741
0.0297236
0.0337728
0.0353932
0.0417969
0.0317872
0.0315865
0.045701
0.0450608
0.0303812
0.0306182
0.0137083
0.0370133
0.0257086
0.0347455
0.015411
0.0159974
0.0142961
0.0145303
0.0154149
0.0162389
0.0167346
0.0389635
0.0288226
0.0291006
0.0332773
0.03242
0.0320157
0.0338516
0.0313318
0.0320459
0.0325471
0.031897
0.0391374
0.0290107
0.0402305
0.0313174
0.0302359
0.0319375
0.0340478
0.0355978
0.0331694
0.0379813
0.0354893
0.0329149
0.0237427
0.0331007
0.0323629
0.0348288
0.0333889
0.0316392
0.0300876
0.0331396
0.0345622
0.0469107
0.0309956
0.0456087
0.0475505
0.0325653
0.0455503
0.0349479
0.0280019
0.0381222
0.0334272
0.024053
0.0211695
0.0376346
0.0400817
0.0339465
0.0282225
0.0339408
0.0161246
0.0335629
0.0314946
0.0161006
0.00615496
0.00673294
0.0290722
0.0310087
0.0360086
0.0346196
0.00316345
0.00330549
0.0342737
0.034631
0.0327822
0.0121034
0.0290161
0.0337118
0.03439
0.0296655
0.0261836
0.0126047
0.0496487
0.0312034
0.0381161
0.038712
0.0278252
0.0352142
0.0272055
0.0300196
0.0149353
0.0225289
0.0352562
0.0354694
0.030488
0.0320235
0.0330444
0.0348413
0.0333255
0.0164485
0.0292241
0.032972
0.03115
0.0467429
0.0164454
0.0253066
0.026067
0.0246877
0.0160427
0.0160438
0.0282851
0.0228574
0.0326815
0.0176035
0.019159
0.00625364
0.00625362
0.0131365
0.0208045
0.0140152
0.0278463
0.0301013
0.0321384
0.0362088
0.0328388
0.0304017
0.0239413
0.0148408
0.0300627
0.0311389
0.0301451
0.0166739
0.015374
0.0120008
0.0301028
0.0307158
0.0246961
0.0278815
0.0257272
0.0235442
0.0315319
0.0235422
0.0278334
0.0268272
0.0164353
0.0202909
0.0189082
0.0333405
0.0132111
0.0139169
0.0136158
0.0314836
0.0125784
0.012321
0.0219151
0.0114908
0.0254799
0.0255185
0.011795
0.0277715
0.0130875
0.0130151
0.0146574
0.0124175
0.0121871
0.0181457
0.0144846
0.013168
0.0124559
0.0254225
0.029008
0.0137061
0.02806
0.0112969
0.0284635
0.0226194
0.0118019
0.00998959
0.0111491
0.0147917
0.0244485
0.0201116
0.00840878
0.00933399
0.0272495
0.00791541
0.00791535
0.00896915
0.0100691
0.0114079
0.013248
0.0219137
0.0202798
0.0272691
0.00795358
0.00795353
0.0239504
0.0098747
0.0194338
0.00894761
0.00899752
0.011855
0.02053
0.0212587
0.022648
0.0207561
0.0205296
0.00448389
0.0331395
0.00572016
0.00554143
0.0267705
0.0265847
0.00574247
0.00398871
0.00562072
0.0246945
SCALARS rr_uec(PEX,_P_ext) float
LOOKUP_TABLE default
-0.0649446
-0.14798
-0.118181
-0.154468
-0.0807668
-0.125432
-0.0642153
-0.153611
-0.132082
-0.166299
-0.0589417
-0.154081
-0.135595
-0.143206
-0.167777
-0.140841
-0.12113
-0.136941
-0.122666
-0.119925
-0.134902
-0.0239514
-0.138221
-0.127391
-0.115475
-0.13321
-0.0546042
-0.11701
-0.0918342
-0.108094
-0.11979
-0.0949335
-0.0604884
-0.080995
-0.0796047
-0.0811775
-0.105089
-0.0797671
-0.119668
-0.0679895
-0.0771898
-0.0926171
-0.0926269
-0.131469
-0.0758953
-0.0837321
-0.115436
-0.116897
-0.109544
-0.104862
-0.107675
-0.0834975
-0.129632
-0.107291
-0.119347
-0.0550546
-0.0849952
-0.108077
-0.0849925
-0.130736
-0.154627
-0.151542
-0.0537022
-0.106849
-0.14515
-0.136988
-0.14957
-0.129382
-0.119144
-0.169836
-0.140646
-0.139113
-0.0953728
-0.110884
-0.117454
-0.0624391
-0.120929
-0.135717
-0.130471
-0.0921424
-0.0831537
-0.0911611
-0.172589
-0.0832695
-0.112274
-0.0417018
-0.135164
-0.112954
-0.0803735
-0.0117865
-0.0929691
-0.0128191
-0.102612
-0.098336
-0.087986
-0.0802513
-0.0763709
-0.146001
-0.121019
-0.116501
-0.0989807
-0.0949579
-0.0798979
-0.138284
-0.140572
-0.126588
-0.111326
-0.112935
-0.0848137
-0.16868
-0.108396
-0.0572472
-0.0765082
-0.151342
-0.141777
-0.103611
-0.098561
-0.0634617
-0.102229
-0.103202
-0.0897653
-0.163548
-0.168651
-0.144865
-0.159376
-0.12504
-0.0707325
-0.157636
-0.0691691
-0.0892208
-0.0734682
-0.150467
-0.146968
-0.147739
-0.0987627
-0.0598852
-0.0662085
-0.108275
-0.132326
-0.0598651
-0.0824862
-0.127607
-0.0966918
-0.155805
-0.0772414
-0.127136
-0.115383
-0.111554
-0.0713023
-0.0911255
-0.101608
-0.145197
-0.0851791
-0.131466
-0.152263
-0.154691
-0.101218
-0.0849629
-0.0844808
-0.132728
-0.111431
-0.0844712
-0.0558974
-0.0825016
-0.0820587
-0.142118
-0.0861077
-0.0870575
-0.0943058
-0.0839112
-0.125288
-0.0878819
-0.0778127
-0.0978064
-0.0928431
-0.111253
-0.123926
-0.119288
-0.101328
-0.118996
-0.0915315
-0.137879
-0.147981
-0.0824999
-0.144948
-0.0824638
-0.14315
-0.131597
-0.122855
-0.12506
-0.146219
-0.0693481
-0.0908464
-0.0844762
-0.147474
-0.145195
-0.134614
-0.146606
-0.149274
-0.125369
-0.153734
-0.103152
-0.0930946
-0.167843
-0.0980367
-0.152446
-0.121438
-0.0775228
-0.0932486
-0.152121
-0.126592
-0.115266
-0.148494
-0.145662
-0.0942481
-0.093456
-0.0907862
-0.129221
-0.142588
-0.163869
-0.157436
-0.17129
-0.155214
-0.16962
-0.142314
-0.148703
-0.149862
-0.141273
-0.148414
-0.136619
-0.134586
-0.0955053
-0.128239
-0.150046
-0.104228
-0.152868
-0.140432
-0.162679
-0.0978753
-0.154708
-0.147891
-0.0961168
-0.132501
-0.0954677
-0.148892
-0.135927
-0.100072
-0.0941905
-0.0814635
-0.0937094
-0.149096
-0.0684091
-0.114917
-0.0938407
-0.105288
-0.154854
-0.149892
-0.0470069
-0.150437
-0.0819369
-0.08883
-0.154009
-0.125193
-0.0898767
-0.17183
-0.0977461
-0.0470069
-0.0908355
-0.133676
-0.166864
-0.126509
-0.148829
-0.139384
-0.0731648
-0.0717132
-0.0613352
-0.0704179
-0.0997179
-0.0762679
-0.122865
-0.0768927
-0.132316
-0.0944958
-0.0909731
-0.106411
-0.0989445
-0.131431
-0.0948791
-0.0976369
-0.0430904
-0.0983678
-0.142284
-0.142385
-0.128962
-0.0946964
-0.0616626
-0.179034
-0.120292
-0.100462
-0.0926162
-0.092227
-0.095525
-0.116391
-0.0938139
-0.0671929
-0.0925838
-0.0635076
-0.114697
-0.0944562
-0.0401627
-0.088965
-0.105193
-0.0944594
-0.145351
-0.0980929
-0.126498
-0.048523
-0.101536
-0.0969893
-0.0847044
-0.0910517
-0.107446
-0.101131
-0.105756
-0.0899369
-0.091352
-0.0986505
-0.131876
-0.0930267
-0.131796
-0.118974
-0.0938977
-0.0965091
-0.0974348
-0.107767
-0.0972742
-0.0910811
-0.103501
-0.108541
-0.128138
-0.0974144
-0.0967841
-0.140115
-0.138152
-0.0930971
-0.0939178
-0.0419475
-0.113462
-0.0787316
-0.1065
-0.0471069
-0.0488994
-0.0436996
-0.0444151
-0.0471194
-0.0496375
-0.0511533
-0.119484
-0.0884212
-0.0892114
-0.101994
-0.0993557
-0.0981159
-0.103784
-0.0960186
-0.098206
-0.0998475
-0.0977521
-0.120027
-0.0888766
-0.123377
-0.0959993
-0.0926723
-0.0978754
-0.104433
-0.109123
-0.101665
-0.11643
-0.108775
-0.100869
-0.0727401
-0.101453
-0.099205
-0.106814
-0.102327
-0.0969584
-0.0922085
-0.101571
-0.105946
-0.143822
-0.0949911
-0.13983
-0.145757
-0.0998112
-0.139646
-0.107127
-0.0858144
-0.116895
-0.102457
-0.0737878
-0.0648127
-0.115409
-0.122919
-0.104059
-0.0865047
-0.104069
-0.0493429
-0.102883
-0.0965331
-0.0492913
-0.0188893
-0.0206632
-0.0891191
-0.0950303
-0.110371
-0.106099
-0.00971152
-0.0101476
-0.105075
-0.106171
-0.100502
-0.0370376
-0.0889209
-0.103375
-0.105404
-0.0909218
-0.0802513
-0.0385701
-0.152238
-0.0956259
-0.116842
-0.118669
-0.0852812
-0.107932
-0.0833821
-0.0920085
-0.0457182
-0.0689928
-0.10806
-0.108729
-0.0934481
-0.0981478
-0.101282
-0.106793
-0.102145
-0.0503587
-0.089628
-0.101048
-0.0955112
-0.143329
-0.0503489
-0.0775745
-0.079904
-0.075727
-0.0492332
-0.0492366
-0.0867543
-0.0700472
-0.100182
-0.0538933
-0.0587944
-0.0191972
-0.0191971
-0.0401964
-0.0638305
-0.043004
-0.0853587
-0.0923219
-0.098524
-0.111014
-0.100695
-0.0932271
-0.073398
-0.045414
-0.0921568
-0.0954759
-0.0924371
-0.0510341
-0.04717
-0.036739
-0.0923067
-0.0941733
-0.0756737
-0.0854733
-0.0788725
-0.0722205
-0.0966703
-0.0722142
-0.0853214
-0.0822635
-0.0504281
-0.0622592
-0.0578882
-0.102222
-0.0404234
-0.0425847
-0.0416597
-0.0965382
-0.0384901
-0.0376964
-0.0671672
-0.0351586
-0.0781652
-0.0782835
-0.0360907
-0.0851224
-0.0400624
-0.0398233
-0.0448663
-0.0379946
-0.0373047
-0.0556736
-0.0443418
-0.0402945
-0.0381126
-0.0779378
-0.0889569
-0.0419529
-0.0860239
-0.0345635
-0.0872662
-0.0693316
-0.0361103
-0.0305761
-0.034112
-0.0452612
-0.0749424
-0.0616985
-0.0258119
-0.0286512
-0.0835472
-0.0242973
-0.0242971
-0.0275316
-0.030903
-0.0349244
-0.0406479
-0.0672132
-0.0622151
-0.0836051
-0.0244114
-0.0244112
-0.0734784
-0.0302149
-0.0595664
-0.0273791
-0.0275439
-0.0362917
-0.0630004
-0.0652359
-0.0694985
-0.0636932
-0.0629987
-0.0137635
-0.101694
-0.0175566
-0.0170104
-0.0821512
-0.0815812
-0.0176276
-0.0122436
-0.0172515
-0.0757778
SCALARS cell_type float
LOOKUP_TABLE default
0
0
0
0
0
0
0
0
0
0
0
0
0
0
0
0
0
0
0
0
0
1
0
0
0
0
0
0
0
0
0
0
0
0
0
0
0
0
0
0
0
0
0
0
0
0
0
0
0
0
0
0
0
0
0
0
0
0
0
0
0
0
0
0
0
0
0
0
0
0
0
0
0
0
0
0
0
0
0
0
0
0
0
0
0
0
0
0
0
0
0
0
0
0
0
0
0
0
0
0
0
0
0
0
0
0
0
0
0
0
0
0
0
0
0
0
0
0
0
0
0
0
0
0
0
0
0
0
0
0
0
0
0
0
0
0
0
0
0
0
0
0
0
0
0
0
0
0
0
0
0
0
0
0
0
0
0
0
0
0
0
0
0
0
0
0
0
0
0
0
0
0
0
0
0
0
0
0
0
0
0
0
0
0
0
0
0
0
0
0
0
0
0
0
0
0
0
0
0
0
0
0
0
0
0
0
0
0
0
0
0
0
0
0
0
0
0
0
0
0
0
0
0
0
0
0
0
0
0
0
0
0
0
0
0
0
0
0
0
0
0
0
0
0
0
0
0
0
0
0
0
0
0
0
0
0
0
0
0
0
0
0
0
0
0
0
0
0
0
0
0
0
0
0
0
0
0
0
0
0
0
0
0
0
0
0
0
0
0
0
0
0
0
0
0
0
0
0
0
0
0
0
0
0
0
0
0
0
0
0
0
0
0
0
0
0
0
0
0
0
0
0
0
0
0
0
0
0
0
0
0
0
0
0
0
0
0
0
0
0
0
0
0
0
0
0
0
0
0
0
2
2
2
2
2
2
2
0
0
0
0
0
0
0
0
0
0
0
0
0
0
0
0
0
0
0
0
0
0
0
0
0
0
0
0
0
0
0
0
0
0
0
0
0
0
0
0
0
0
0
0
0
0
0
0
0
0
0
0
0
0
0
0
0
0
0
1
1
0
0
0
0
0
0
0
0
0
0
0
0
0
0
0
0
0
0
0
0
0
0
0
0
0
0
0
0
0
0
0
0
0
0
0
0
0
0
0
0
0
0
0
1
1
0
0
0
0
0
0
0
0
0
0
0
0
0
0
0
0
0
0
0
0
0
0
0
0
0
0
0
0
0
0
0
0
0
0
0
0
0
0
0
0
0
0
0
0
0
0
0
0
0
0
0
0
0
0
0
0
0
0
0
0
0
0
0
0
0
1
1
0
0
0
0
0
0
0
0
0
0
0
0
0
0
0
0
0
0
0
0
0
0
0
0
0
0
0
0
0
0
0
0
0
TENSORS Lagrange_strain float
0.0305746 -0.00319871 1.43532e-07
-0.00319871 0.0133917 -4.04475e-08
1.43532e-07 -4.04475e-08 0.0074037

0.0292011 -0.00280109 -6.47792e-08
-0.00280109 0.0335626 2.76082e-09
-6.47792e-08 2.76082e-09 0.0331714

0.0300293 0.00368014 9.11081e-10
0.00368014 0.0311783 6.11362e-08
9.11081e-10 6.11362e-08 0.0304755

0.0291705 -0.0039249 8.69174e-08
-0.0039249 0.0328079 5.39346e-08
8.69174e-08 5.39346e-08 0.0330963

0.0353741 0.00266888 1.56219e-07
0.00266888 0.0380907 -8.4045e-09
1.56219e-07 -8.4045e-09 0.0352992

0.0277427 -0.00236794 7.21043e-08
-0.00236794 0.0333928 -1.45106e-07
7.21043e-08 -1.45106e-07 0.0304466

0.0302685 0.00339459 1.44446e-07
0.00339459 0.0134973 -7.94847e-08
1.44446e-07 -7.94847e-08 0.00746514

0.031763 0.00394032 -1.93415e-07
0.00394032 0.0312086 1.82156e-08
-1.93415e-07 1.82156e-08 0.0315684

0.0332511 0.000715483 -8.14271e-08
0.000715483 0.0262283 -3.49978e-08
-8.14271e-08 -3.49978e-08 0.0281494

0.0354763 -0.000991005 6.71421e-08
-0.000991005 0.0275594 -1.57619e-08
6.71421e-08 -1.57619e-08 0.0327288

0.0280683 0.00205181 -1.03536e-07
0.00205181 0.0138117 -1.15995e-07
-1.03536e-07 -1.15995e-07 0.0117566

0.0279609 -0.00176615 9.9208e-08
-0.00176615 0.0350152 -5.95118e-08
9.9208e-08 -5.95118e-08 0.0315569

0.0311292 0.00365795 -3.73234e-08
0.00365795 0.0313085 1.82988e-07
-3.73234e-08 1.82988e-07 0.0310872

0.0290767 -0.00188031 1.28279e-07
-0.00188031 0.0348082 9.85177e-08
1.28279e-07 9.85177e-08 0.0325542

0.0346385 0.00441754 1.67473e-07
0.00441754 0.0343698 -2.65863e-08
1.67473e-07 -2.65863e-08 0.0348918

0.0343371 7.32279e-05 7.7598e-08
7.32279e-05 0.0272936 1.89197e-07
7.7598e-08 1.89197e-07 0.0307862

0.0287007 -0.00235361 8.5543e-08
-0.00235361 0.0360216 -4.93405e-08
8.5543e-08 -4.93405e-08 0.0334578

0.0345825 -0.000352864 8.80197e-08
-0.000352864 0.0273639 -4.1978e-08
8.80197e-08 -4.1978e-08 0.0319849

0.0269272 0.00347942 -2.20548e-07
0.00347942 0.0309537 1.70403e-08
-2.20548e-07 1.70403e-08 0.0275839

0.0338937 -0.00055067 1.41491e-08
-0.00055067 0.0264165 9.74905e-08
1.41491e-08 9.74905e-08 0.030142

0.0266292 0.00113573 -1.29722e-07
0.00113573 0.0340426 -2.07944e-08
-1.29722e-07 -2.07944e-08 0.0291575

0.045295 0.000851951 6.03005e-07
0.000851951 0.0452659 -4.19133e-08
6.03005e-07 -4.19133e-08 0.0366443

0.0336845 0.000247422 -1.79889e-08
0.000247422 0.0263223 -4.17604e-08
-1.79889e-08 -4.17604e-08 0.0298127

0.0293176 -0.00363316 -5.68703e-08
-0.00363316 0.0311441 7.42957e-08
-5.68703e-08 7.42957e-08 0.0300544

0.0337893 0.00090028 1.49214e-07
0.00090028 0.0265034 1.52933e-08
1.49214e-07 1.52933e-08 0.0300889

0.0285538 0.0025082 -1.47473e-09
0.0025082 0.0339029 -5.03142e-08
-1.47473e-09 -5.03142e-08 0.0322948

0.0286368 0.000526965 -1.39378e-07
0.000526965 0.0176936 -4.20111e-08
-1.39378e-07 -4.20111e-08 0.0131748

0.030922 0.00403554 8.44732e-08
0.00403554 0.0306543 -8.84223e-08
8.44732e-08 -8.84223e-08 0.0306183

0.0259316 0.00477814 -1.40679e-08
0.00477814 0.02574 -5.51276e-08
-1.40679e-08 -5.51276e-08 0.0211337

0.0415321 0.00136996 -6.82068e-08
0.00136996 0.0383556 4.75803e-08
-6.82068e-08 4.75803e-08 0.0361417

0.0344202 0.00187142 6.02768e-08
0.00187142 0.02796 -1.43802e-07
6.02768e-08 -1.43802e-07 0.0310077

0.0217651 -0.00228863 1.50099e-07
-0.00228863 0.0300008 -5.96944e-08
1.50099e-07 -5.96944e-08 0.0211306

0.0228688 -0.00535407 1.22672e-07
-0.00535407 0.0234786 -3.65045e-07
1.22672e-07 -3.65045e-07 0.0125823

0.0348377 0.00080052 -1.08098e-07
0.00080052 0.0422596 -5.9435e-08
-1.08098e-07 -5.9435e-08 0.0357929

0.0374581 -0.000661089 7.95689e-08
-0.000661089 0.0412079 -1.71192e-07
7.95689e-08 -1.71192e-07 0.0359075

0.0410792 0.00281324 -1.87531e-07
0.00281324 0.0359916 -8.01996e-08
-1.87531e-07 -8.01996e-08 0.0357731

0.0372587 0.000704692 -8.96909e-08
0.000704692 0.0432178 -1.54471e-07
-8.96909e-08 -1.54471e-07 0.0361481

0.0402648 -0.00121907 -9.48158e-08
-0.00121907 0.0378356 1.84996e-08
-9.48158e-08 1.84996e-08 0.0358149

0.0312236 -0.00367872 9.1878e-08
-0.00367872 0.0311316 8.33579e-08
9.1878e-08 8.33579e-08 0.0309332

0.0227528 0.00528059 -3.67469e-08
0.00528059 0.0237146 1.9625e-07
-3.67469e-08 1.9625e-07 0.0125843

0.029769 -0.00231649 -1.93267e-08
-0.00231649 0.0220364 -1.93867e-08
-1.93267e-08 -1.93867e-08 0.0208804

0.037624 -0.000522253 1.02718e-07
-0.000522253 0.0430675 4.8217e-08
1.02718e-07 4.8217e-08 0.0361508

0.0412452 0.00263339 5.19468e-09
0.00263339 0.0394187 -1.7652e-07
5.19468e-09 -1.7652e-07 0.0361333

0.03431 -0.0016173 8.44909e-08
-0.0016173 0.028002 -1.99351e-07
8.44909e-08 -1.99351e-07 0.0310918

0.0231113 -0.00552774 -1.09759e-07
-0.00552774 0.0235686 -1.11931e-07
-1.09759e-07 -1.11931e-07 0.0162204

0.0299518 -0.00233306 -1.22362e-07
-0.00233306 0.0221606 1.24322e-07
-1.22362e-07 1.24322e-07 0.02135

0.0259005 0.00222817 -1.25148e-07
0.00222817 0.0326633 -3.00327e-08
-1.25148e-07 -3.00327e-08 0.0279226

0.0275583 0.00252969 -2.47861e-07
0.00252969 0.0323829 5.76182e-08
-2.47861e-07 5.76182e-08 0.0284982

0.0341843 -0.00214111 1.52617e-07
-0.00214111 0.0271144 -1.33979e-07
1.52617e-07 -1.33979e-07 0.0304798

0.0229083 -0.00439396 2.59293e-07
-0.00439396 0.0272562 -1.8052e-08
2.59293e-07 -1.8052e-08 0.0198556

0.0295019 0.00247243 -6.29684e-08
0.00247243 0.0218397 1.50837e-07
-6.29684e-08 1.50837e-07 0.0202863

0.0298807 -0.00327216 1.59869e-08
-0.00327216 0.0245199 -6.95093e-08
1.59869e-08 -6.95093e-08 0.0230543

0.0344833 0.00257729 -6.55136e-08
0.00257729 0.03821 4.78671e-08
-6.55136e-08 4.78671e-08 0.0352779

0.0286973 0.00383985 -3.68063e-08
0.00383985 0.0257866 -5.46463e-08
-3.68063e-08 -5.46463e-08 0.023123

0.034935 -0.00291595 -1.86033e-07
-0.00291595 0.037438 4.36245e-09
-1.86033e-07 4.36245e-09 0.0351963

0.0255866 -0.00545717 5.45198e-08
-0.00545717 0.0229081 -1.08454e-07
5.45198e-08 -1.08454e-07 0.0158237

0.0373516 0.000745399 1.28861e-07
0.000745399 0.0414178 1.55338e-07
1.28861e-07 1.55338e-07 0.035928

0.0231735 -0.000693479 2.11895e-07
-0.000693479 0.0313221 4.59725e-08
2.11895e-07 4.59725e-08 0.023109

0.0410335 0.00138001 9.26186e-08
0.00138001 0.0377122 1.08796e-08
9.26186e-08 1.08796e-08 0.0359061

0.0276832 0.00280583 -2.62253e-07
0.00280583 0.032758 7.60186e-09
-2.62253e-07 7.60186e-09 0.0302388

0.0361472 0.000784848 -5.31214e-08
0.000784848 0.0281397 -1.73419e-07
-5.31214e-08 -1.73419e-07 0.0336809

0.0362625 0.00153412 -1.46114e-08
0.00153412 0.0317005 2.0688e-07
-1.46114e-08 2.0688e-07 0.0342283

0.0286444 0.00405812 -9.14585e-08
0.00405812 0.019902 -5.8117e-08
-9.14585e-08 -5.8117e-08 0.0137628

0.0309798 -0.000784051 -1.9864e-08
-0.000784051 0.0370928 -1.15063e-07
-1.9864e-08 -1.15063e-07 0.0338891

0.0315624 0.00124398 -2.48854e-08
0.00124398 0.0364287 -4.61506e-08
-2.48854e-08 -4.61506e-08 0.0342671

0.0285561 -0.000375462 -8.17159e-08
-0.000375462 0.0369646 1.43909e-07
-8.17159e-08 1.43909e-07 0.0326783

0.0296106 0.00307106 -7.4683e-08
0.00307106 0.0347997 -9.66735e-09
-7.4683e-08 -9.66735e-09 0.0337167

0.0347283 0.00112229 3.71634e-08
0.00112229 0.0278464 -1.45698e-07
3.71634e-08 -1.45698e-07 0.0322164

0.0291952 -0.00370006 -9.20965e-09
-0.00370006 0.0310295 -1.28062e-07
-9.20965e-09 -1.28062e-07 0.0299173

0.0350634 -0.000236897 6.68087e-09
-0.000236897 0.0275882 -1.69232e-08
6.68087e-09 -1.69232e-08 0.0334011

0.034458 -0.00254744 -4.10216e-08
-0.00254744 0.0381404 -1.06406e-07
-4.10216e-08 -1.06406e-07 0.0352679

0.0350177 0.0028495 1.44133e-07
0.0028495 0.0375754 8.18466e-09
1.44133e-07 8.18466e-09 0.0352478

0.0218941 -0.00213258 -1.93399e-07
-0.00213258 0.0299304 9.39017e-09
-1.93399e-07 9.39017e-09 0.020857

0.0347092 -0.00369142 -1.3321e-08
-0.00369142 0.0319649 -3.48101e-08
-1.3321e-08 -3.48101e-08 0.0330865

0.0293 -0.00329817 4.1275e-08
-0.00329817 0.0321213 -3.90524e-08
4.1275e-08 -3.90524e-08 0.0304412

0.0267864 -0.00401816 -5.00888e-08
-0.00401816 0.0176092 1.26651e-07
-5.00888e-08 1.26651e-07 0.0127293

0.0324103 0.000418847 1.30896e-08
0.000418847 0.0381127 5.93392e-08
1.30896e-08 5.93392e-08 0.0344131

0.0345447 0.00381797 -3.06109e-09
0.00381797 0.0309492 -1.56426e-08
-3.06109e-09 -1.56426e-08 0.0326679

0.0283843 0.00258169 -6.44266e-08
0.00258169 0.0341386 8.1616e-08
-6.44266e-08 8.1616e-08 0.0322217

0.031551 0.00103807 3.74951e-09
0.00103807 0.0228497 -1.55751e-07
3.74951e-09 -1.55751e-07 0.0240757

0.0271044 -0.00436021 -8.15518e-08
-0.00436021 0.0237429 -1.09663e-07
-8.15518e-08 -1.09663e-07 0.0183285

0.0362652 -0.00140243 5.72471e-10
-0.00140243 0.038749 3.80205e-08
5.72471e-10 3.80205e-08 0.0354082

0.0315642 0.00317124 -1.09878e-07
0.00317124 0.0344088 -2.23133e-08
-1.09878e-07 -2.23133e-08 0.0340979

0.0273088 -0.00415752 -1.88965e-07
-0.00415752 0.0221805 -4.99361e-08
-1.88965e-07 -4.99361e-08 0.0184163

0.0303666 0.00139149 9.9969e-08
0.00139149 0.0228362 -1.57181e-07
9.9969e-08 -1.57181e-07 0.0209602

0.0186063 -0.00269788 -6.54039e-08
-0.00269788 0.0289366 -7.5343e-09
-6.54039e-08 -7.5343e-09 0.0158973

0.0272071 0.00188933 -1.06624e-07
0.00188933 0.0343287 3.50933e-08
-1.06624e-07 3.50933e-08 0.0306623

0.0353896 0.00305747 2.41156e-08
0.00305747 0.0308275 -4.43484e-08
2.41156e-08 -4.43484e-08 0.0327612

0.0226536 0.00538775 -7.95508e-09
0.00538775 0.0240947 2.30356e-07
-7.95508e-09 2.30356e-07 0.0162029

0.0459484 0.00223741 2.00452e-08
0.00223741 0.0417527 -2.13913e-07
2.00452e-08 -2.13913e-07 0.0366453

0.0230873 -0.000534465 -1.86822e-07
-0.000534465 0.031363 2.4154e-08
-1.86822e-07 2.4154e-08 0.0230788

0.0463635 -0.00225532 -3.07656e-07
-0.00225532 0.0412967 -3.88597e-07
-3.07656e-07 -3.88597e-07 0.0366004

0.0370716 -0.00362441 -1.97176e-07
-0.00362441 0.0334978 2.38014e-08
-1.97176e-07 2.38014e-08 0.0346281

0.0351452 0.00361986 -1.48632e-10
0.00361986 0.0300114 4.53902e-08
-1.48632e-10 4.53902e-08 0.032464

0.0299705 -0.00316003 7.91054e-08
-0.00316003 0.0246971 -1.90338e-07
7.91054e-08 -1.90338e-07 0.0232923

0.0230182 0.00403128 1.88174e-07
0.00403128 0.0277865 2.77399e-09
1.88174e-07 2.77399e-09 0.0203876

0.0210991 -0.00137894 9.13362e-08
-0.00137894 0.0299033 9.66782e-08
9.13362e-08 9.66782e-08 0.0182565

0.0287542 0.00288919 -2.36533e-08
0.00288919 0.0342364 8.89206e-08
-2.36533e-08 8.89206e-08 0.0327076

0.0370188 0.00223659 2.42444e-08
0.00223659 0.0334585 3.4045e-08
2.42444e-08 3.4045e-08 0.0343914

0.0281562 0.00198862 -1.14994e-07
0.00198862 0.0340686 -1.78847e-07
-1.14994e-07 -1.78847e-07 0.0308732

0.0318919 0.0020738 1.87024e-07
0.0020738 0.0252608 1.31601e-07
1.87024e-07 1.31601e-07 0.0256243

0.0239138 -0.00277531 3.014e-07
-0.00277531 0.029773 6.14011e-08
3.014e-07 6.14011e-08 0.0215674

0.0279061 -0.00376489 -4.56623e-08
-0.00376489 0.0218206 -2.14047e-08
-4.56623e-08 -2.14047e-08 0.0180808

0.0293398 -0.00323244 9.11567e-08
-0.00323244 0.0326383 8.95405e-08
9.11567e-08 8.95405e-08 0.0324108

0.0306343 0.00361557 -9.21651e-08
0.00361557 0.0322368 1.03315e-07
-9.21651e-08 1.03315e-07 0.0323785

0.0287166 0.00304847 1.04069e-07
0.00304847 0.034036 -3.70783e-08
1.04069e-07 -3.70783e-08 0.0326381

0.0292141 0.00172529 9.28157e-08
0.00172529 0.0376248 1.71367e-08
9.28157e-08 1.71367e-08 0.0338535

0.0344867 0.0012327 1.46436e-07
0.0012327 0.0275312 1.66518e-07
1.46436e-07 1.66518e-07 0.0306824

0.0199653 -0.000605476 -1.05028e-07
-0.000605476 0.0296688 -1.21778e-07
-1.05028e-07 -1.21778e-07 0.0181088

0.0298057 -0.00486278 1.13385e-07
-0.00486278 0.0330572 6.96054e-08
1.13385e-07 6.96054e-08 0.0337493

0.0290891 0.00360077 1.86417e-07
0.00360077 0.0313678 1.50457e-07
1.86417e-07 1.50457e-07 0.0302717

0.0181096 0.00028294 5.02381e-08
0.00028294 0.0293186 1.05527e-07
5.02381e-08 1.05527e-07 0.0168829

0.0278507 0.00442531 1.16707e-07
0.00442531 0.0209733 1.05949e-07
1.16707e-07 1.05949e-07 0.0174593

0.0291992 -0.00302104 -7.64832e-08
-0.00302104 0.0327121 -4.69616e-08
-7.64832e-08 -4.69616e-08 0.0321932

0.0352513 0.000759666 -1.28773e-07
0.000759666 0.0273469 1.68135e-07
-1.28773e-07 1.68135e-07 0.0325606

0.0294352 0.00352149 -9.11445e-08
0.00352149 0.0252077 2.23313e-08
-9.11445e-08 2.23313e-08 0.0231174

0.0396421 0.00170994 -9.99258e-08
0.00170994 0.0390433 2.24411e-08
-9.99258e-08 2.24411e-08 0.0359466

0.0283827 0.00312451 -1.88369e-07
0.00312451 0.0224069 1.73998e-08
-1.88369e-07 1.73998e-08 0.0182913

0.0394943 -0.00175043 7.83135e-08
-0.00175043 0.0390689 -1.65469e-08
7.83135e-08 -1.65469e-08 0.0359117

0.0232668 0.000103606 -8.85831e-08
0.000103606 0.0315266 7.12644e-09
-8.85831e-08 7.12644e-09 0.0231258

0.0327681 -0.000288582 -6.11878e-08
-0.000288582 0.0246663 -1.4083e-08
-6.11878e-08 -1.4083e-08 0.0269733

0.0380613 -0.00212867 -1.11269e-07
-0.00212867 0.0304714 1.87095e-07
-1.11269e-07 1.87095e-07 0.0348003

0.0292465 0.00320593 5.79418e-09
0.00320593 0.0332863 1.5304e-07
5.79418e-09 1.5304e-07 0.0333506

0.0289584 -0.00177287 1.76851e-07
-0.00177287 0.0366168 9.48207e-08
1.76851e-07 9.48207e-08 0.0335071

0.0365915 -0.00108477 -1.78454e-08
-0.00108477 0.0264852 2.1569e-08
-1.78454e-08 2.1569e-08 0.0338676

0.0311872 -0.0029251 -2.69168e-08
-0.0029251 0.038312 2.80516e-08
-2.69168e-08 2.80516e-08 0.0348507

0.0381697 -0.000885166 2.5241e-07
-0.000885166 0.0387355 1.58201e-07
2.5241e-07 1.58201e-07 0.0358418

0.0301881 -0.00394015 9.00835e-08
-0.00394015 0.0327194 -4.76467e-08
9.00835e-08 -4.76467e-08 0.032771

0.0213378 0.00147005 -1.35634e-07
0.00147005 0.0296216 -5.23563e-10
-1.35634e-07 -5.23563e-10 0.0183004

0.029396 -0.00364709 -3.17819e-08
-0.00364709 0.0253556 -1.79278e-07
-3.17819e-08 -1.79278e-07 0.0231881

0.0328651 -0.00181665 -8.92676e-08
-0.00181665 0.0397236 7.63998e-08
-8.92676e-08 7.63998e-08 0.0352477

0.0350996 7.6799e-05 1.26701e-07
7.6799e-05 0.0272302 1.90283e-07
1.26701e-07 1.90283e-07 0.0332589

0.0308257 -0.00282896 1.49686e-07
-0.00282896 0.0348992 1.40644e-07
1.49686e-07 1.40644e-07 0.0340914

0.0295427 0.00338915 -7.00547e-08
0.00338915 0.0328798 -2.78491e-08
-7.00547e-08 -2.78491e-08 0.0333337

0.0264671 -0.00406482 -1.99819e-07
-0.00406482 0.0272688 -2.80519e-08
-1.99819e-07 -2.80519e-08 0.0215901

0.0371766 -0.000957744 2.42283e-07
-0.000957744 0.0416144 -1.52045e-09
2.42283e-07 -1.52045e-09 0.0358929

0.0227163 -0.00423899 2.16315e-07
-0.00423899 0.0272508 4.9456e-08
2.16315e-07 4.9456e-08 0.0168818

0.0341918 -0.00252546 1.49987e-07
-0.00252546 0.0286134 1.3669e-07
1.49987e-07 1.3669e-07 0.0310519

0.0364331 0.000290191 -1.50375e-07
0.000290191 0.0294451 1.10411e-07
-1.50375e-07 1.10411e-07 0.034201

0.0396459 0.00239631 -1.47569e-07
0.00239631 0.0391168 -1.28748e-07
-1.47569e-07 -1.28748e-07 0.0358739

0.0238622 0.00261008 1.67272e-07
0.00261008 0.0301597 4.16602e-08
1.67272e-07 4.16602e-08 0.0218045

0.0334387 0.00358219 -8.00548e-08
0.00358219 0.0307229 -4.69878e-08
-8.00548e-08 -4.69878e-08 0.0317745

0.0316514 -0.00319529 -6.6944e-08
-0.00319529 0.0265587 -8.01015e-08
-6.6944e-08 -8.01015e-08 0.0269422

0.0289366 -0.00234138 1.03028e-07
-0.00234138 0.0342435 -6.57352e-08
1.03028e-07 -6.57352e-08 0.0326135

0.0262512 0.00450296 8.67048e-08
0.00450296 0.0245638 7.01232e-08
8.67048e-08 7.01232e-08 0.0180858

0.0284306 -0.00286691 -7.11759e-08
-0.00286691 0.034041 7.31308e-09
-7.11759e-08 7.31308e-09 0.0324567

0.0331572 0.00405932 -8.98473e-08
0.00405932 0.0304718 -1.65441e-08
-8.98473e-08 -1.65441e-08 0.0315496

0.0333435 -0.00331243 -4.92477e-08
-0.00331243 0.0283641 -4.75281e-08
-4.92477e-08 -4.75281e-08 0.0300531

0.0291685 -0.00329613 -1.84382e-07
-0.00329613 0.0319965 -5.69928e-08
-1.84382e-07 -5.69928e-08 0.0304449

0.0314638 -0.00243021 -6.60069e-08
-0.00243021 0.0247251 -8.11688e-08
-6.60069e-08 -8.11688e-08 0.0251627

0.0329646 -0.0024675 -2.95932e-08
-0.0024675 0.0267163 -7.56729e-08
-2.95932e-08 -7.56729e-08 0.0286037

0.0294995 -0.00334198 4.73262e-09
-0.00334198 0.0329586 1.16166e-07
4.73262e-09 1.16166e-07 0.033415

0.0261409 0.00463555 -1.76148e-07
0.00463555 0.0255477 -9.44498e-08
-1.76148e-07 -9.44498e-08 0.0210979

0.0281575 0.00201728 3.71428e-08
0.00201728 0.0343442 6.0436e-08
3.71428e-08 6.0436e-08 0.031117

0.0308945 0.00348153 -1.68978e-07
0.00348153 0.0322637 6.13407e-08
-1.68978e-07 6.13407e-08 0.0326078

0.0291652 0.00334802 6.37064e-08
0.00334802 0.0332004 -1.25503e-07
6.37064e-08 -1.25503e-07 0.0332682

0.0289916 0.00152348 1.20785e-08
0.00152348 0.0354791 1.79731e-08
1.20785e-08 1.79731e-08 0.0327031

0.0310613 -0.00106213 -9.24074e-08
-0.00106213 0.0231471 1.78357e-07
-9.24074e-08 1.78357e-07 0.0220838

0.0238899 0.00240637 4.86143e-08
0.00240637 0.0304188 7.70645e-08
4.86143e-08 7.70645e-08 0.0221188

0.0292211 -0.00320462 -4.14355e-09
-0.00320462 0.0326452 1.43719e-07
-4.14355e-09 1.43719e-07 0.0316262

0.0289953 0.00335791 3.2097e-08
0.00335791 0.0309413 -2.23504e-08
3.2097e-08 -2.23504e-08 0.0285753

0.0266196 -0.00459294 -3.03724e-08
-0.00459294 0.0252369 -1.78853e-07
-3.03724e-08 -1.78853e-07 0.0212622

0.0262846 0.00489515 1.63018e-07
0.00489515 0.0209512 -2.31287e-07
1.63018e-07 -2.31287e-07 0.0167667

0.0235086 -0.0042885 -1.38935e-07
-0.0042885 0.027472 2.24302e-07
-1.38935e-07 2.24302e-07 0.0206318

0.0266788 -0.00402891 1.54083e-07
-0.00402891 0.02749 2.39281e-07
1.54083e-07 2.39281e-07 0.0220559

0.0353739 -0.000906386 3.46297e-08
-0.000906386 0.0273987 -1.20834e-07
3.46297e-08 -1.20834e-07 0.0326629

0.026052 0.00392315 -3.41976e-08
0.00392315 0.0280998 -2.40217e-08
-3.41976e-08 -2.40217e-08 0.0221084

0.0307966 0.00171709 2.97993e-08
0.00171709 0.0233662 -1.24746e-07
2.97993e-08 -1.24746e-07 0.0220314

0.0214361 0.00172272 -1.20964e-07
0.00172272 0.0302491 4.53558e-08
-1.20964e-07 4.53558e-08 0.0211384

0.024269 -0.00289055 -2.76601e-07
-0.00289055 0.0299603 -7.32441e-08
-2.76601e-07 -7.32441e-08 0.0220921

0.0313526 -0.000131251 -8.97665e-08
-0.000131251 0.0392801 -2.03139e-08
-8.97665e-08 -2.03139e-08 0.0346782

0.0230641 0.00029482 7.01706e-09
0.00029482 0.0314694 3.65807e-08
7.01706e-09 3.65807e-08 0.0230684

0.0227828 0.00400282 1.15977e-07
0.00400282 0.0281349 -1.16648e-08
1.15977e-07 -1.16648e-08 0.0206436

0.0288967 0.0015861 -6.37828e-08
0.0015861 0.0358418 3.89755e-08
-6.37828e-08 3.89755e-08 0.0329016

0.0293242 -0.00358147 1.66469e-07
-0.00358147 0.0251362 -4.15384e-08
1.66469e-07 -4.15384e-08 0.023246

0.036984 0.00273326 1.79936e-08
0.00273326 0.0297309 1.84582e-07
1.79936e-08 1.84582e-07 0.0338095

0.0371827 0.00348336 1.65871e-07
0.00348336 0.0334299 4.54272e-08
1.65871e-07 4.54272e-08 0.0346597

0.0345527 -0.00244712 -4.27536e-08
-0.00244712 0.0285375 -4.68773e-08
-4.27536e-08 -4.68773e-08 0.0313868

0.039063 -0.000266359 -1.33264e-07
-0.000266359 0.0339311 1.45297e-07
-1.33264e-07 1.45297e-07 0.0352156

0.0314877 -0.00418833 1.08248e-07
-0.00418833 0.0317901 7.01091e-08
1.08248e-07 7.01091e-08 0.0321644

0.0294702 0.00300869 -8.58366e-08
0.00300869 0.0223329 3.55024e-08
-8.58366e-08 3.55024e-08 0.0210723

0.0302383 0.00397328 -9.52164e-08
0.00397328 0.0326723 -7.42412e-08
-9.52164e-08 -7.42412e-08 0.0327282

0.0302858 0.00384729 4.62604e-08
0.00384729 0.0326166 -1.60069e-07
4.62604e-08 -1.60069e-07 0.032683

0.0262516 0.00396318 -2.16948e-07
0.00396318 0.0277753 -1.4039e-08
-2.16948e-07 -1.4039e-08 0.0218709

0.0344586 0.0035771 8.02232e-08
0.0035771 0.0317873 -1.31638e-07
8.02232e-08 -1.31638e-07 0.0328394

0.0302572 0.000452527 6.43863e-08
0.000452527 0.0204334 -5.17939e-08
6.43863e-08 -5.17939e-08 0.0205789

0.0331942 0.00420052 -7.36361e-09
0.00420052 0.0323818 7.71253e-08
-7.36361e-09 7.71253e-08 0.0334919

0.030508 -0.00165419 -4.0376e-08
-0.00165419 0.0366245 8.47375e-08
-4.0376e-08 8.47375e-08 0.0336707

0.0373674 0.00323238 1.60645e-07
0.00323238 0.0334665 4.80879e-08
1.60645e-07 4.80879e-08 0.0346718

0.0307462 -0.0038964 -2.79534e-08
-0.0038964 0.0322822 6.36017e-08
-2.79534e-08 6.36017e-08 0.0326885

0.0293812 -0.000644805 -8.15558e-08
-0.000644805 0.0369119 1.43948e-07
-8.15558e-08 1.43948e-07 0.0328558

0.0288208 -0.00315342 -5.92855e-08
-0.00315342 0.0221456 1.24591e-07
-5.92855e-08 1.24591e-07 0.0187642

0.0290107 0.00384604 6.00084e-08
0.00384604 0.0255847 -1.00439e-07
6.00084e-08 -1.00439e-07 0.0230793

0.0217069 0.00189167 1.02927e-08
0.00189167 0.0300699 3.06876e-08
1.02927e-08 3.06876e-08 0.0210897

0.0349992 -0.000161324 4.55066e-09
-0.000161324 0.0273984 -1.20901e-07
4.55066e-09 -1.20901e-07 0.0333099

0.0344295 3.43322e-07 -1.24897e-07
3.43322e-07 0.0272827 1.74937e-07
-1.24897e-07 1.74937e-07 0.0320496

0.0291741 0.00304064 1.35078e-07
0.00304064 0.0326893 -1.63875e-07
1.35078e-07 -1.63875e-07 0.032141

0.0314585 0.00316628 4.51983e-08
0.00316628 0.0342582 1.71484e-07
4.51983e-08 1.71484e-07 0.0340662

0.0291776 -0.00320442 -1.92686e-07
-0.00320442 0.0332479 1.23283e-07
-1.92686e-07 1.23283e-07 0.0333873

0.0287813 -8.58488e-05 -4.19061e-08
-8.58488e-05 0.0367134 -6.99447e-08
-4.19061e-08 -6.99447e-08 0.0325337

0.0294731 0.00337631 1.53322e-07
0.00337631 0.0330838 3.9951e-09
1.53322e-07 3.9951e-09 0.033363

0.0328694 -0.00134681 -1.671e-07
-0.00134681 0.0253688 -2.66314e-07
-1.671e-07 -2.66314e-07 0.0278367

0.0263623 -0.0042563 -1.93833e-07
-0.0042563 0.0281878 -3.88663e-08
-1.93833e-07 -3.88663e-08 0.0242744

0.0363061 -0.000331931 3.53012e-08
-0.000331931 0.0293913 -5.93574e-08
3.53012e-08 -5.93574e-08 0.034036

0.0267884 -0.00444716 -2.00366e-07
-0.00444716 0.0251974 -2.91131e-08
-2.00366e-07 -2.91131e-08 0.0209551

0.0309075 0.0025072 3.32246e-08
0.0025072 0.0350716 -5.68621e-08
3.32246e-08 -5.68621e-08 0.0340757

0.0351216 -0.00349716 4.25666e-08
-0.00349716 0.0303959 -1.72562e-07
4.25666e-08 -1.72562e-07 0.0326227

0.0305107 -0.00125019 4.77719e-08
-0.00125019 0.0229844 1.36678e-07
4.77719e-08 1.36678e-07 0.0214844

0.0371545 -0.0030773 -2.78929e-07
-0.0030773 0.0316607 1.34654e-08
-2.78929e-07 1.34654e-08 0.0339956

0.0349781 0.000322045 1.38216e-07
0.000322045 0.0275635 -6.03321e-08
1.38216e-07 -6.03321e-08 0.0334383

0.035851 -0.00308893 7.71727e-08
-0.00308893 0.0332656 1.03929e-08
7.71727e-08 1.03929e-08 0.0341512

0.0349374 -0.00341106 2.53627e-07
-0.00341106 0.0296028 4.3878e-08
2.53627e-07 4.3878e-08 0.0321861

0.0349185 -0.00113408 -6.27844e-09
-0.00113408 0.0278581 -1.87128e-07
-6.27844e-09 -1.87128e-07 0.0323497

0.0314983 -0.00306257 -1.25319e-07
-0.00306257 0.034456 9.36185e-08
-1.25319e-07 9.36185e-08 0.0341545

0.0292439 -0.00407248 -6.80356e-08
-0.00407248 0.0269071 -1.27236e-07
-6.80356e-08 -1.27236e-07 0.0253533

0.0350012 -0.00324462 1.64795e-07
-0.00324462 0.0299235 -3.06348e-07
1.64795e-07 -3.06348e-07 0.0322032

0.031472 0.00140955 -5.35725e-08
0.00140955 0.0233333 -1.29265e-07
-5.35725e-08 -1.29265e-07 0.0244906

0.0336727 0.00348466 2.04211e-08
0.00348466 0.0334513 3.41023e-08
2.04211e-08 3.41023e-08 0.0336579

0.0299017 -0.00496665 -1.11275e-07
-0.00496665 0.0330873 1.20831e-07
-1.11275e-07 1.20831e-07 0.0338653

0.0300521 0.00492004 -1.31712e-07
0.00492004 0.0329493 1.63163e-08
-1.31712e-07 1.63163e-08 0.0338323

0.0276976 -0.00374139 -3.1131e-08
-0.00374139 0.0348159 6.1108e-08
-3.1131e-08 6.1108e-08 0.0337749

0.0279352 0.00354673 -2.50991e-08
0.00354673 0.0348439 -7.5275e-09
-2.50991e-08 -7.5275e-09 0.0337398

0.0364385 -0.00115351 1.2329e-09
-0.00115351 0.0263514 -1.15024e-07
1.2329e-09 -1.15024e-07 0.0337661

0.0362072 0.00124718 -3.7375e-08
0.00124718 0.0265727 -1.9769e-07
-3.7375e-08 -1.9769e-07 0.0337289

0.0350436 -0.00130708 1.08327e-07
-0.00130708 0.028476 8.1412e-08
1.08327e-07 8.1412e-08 0.032584

0.0344438 0.00425843 5.76626e-08
0.00425843 0.0342972 1.71833e-07
5.76626e-08 1.71833e-07 0.0348201

0.0343194 -0.00435608 -1.81503e-07
-0.00435608 0.0342894 1.21303e-08
-1.81503e-07 1.21303e-08 0.0348085

0.0305293 0.00209337 -2.0989e-08
0.00209337 0.0381724 5.00031e-08
-2.0989e-08 5.00031e-08 0.0348573

0.0306726 -0.00205948 8.78759e-09
-0.00205948 0.0381021 -1.08771e-07
8.78759e-09 -1.08771e-07 0.0348446

0.0395081 -0.000529589 -2.01261e-08
-0.000529589 0.0328565 2.30304e-07
-2.01261e-08 2.30304e-07 0.0352652

0.039711 0.000513909 -1.05002e-07
0.000513909 0.0326288 9.58211e-09
-1.05002e-07 9.58211e-09 0.0353104

0.0239716 0.00127649 -2.56934e-08
0.00127649 0.0320128 -2.34848e-08
-2.56934e-08 -2.34848e-08 0.0251914

0.0311708 -0.0032661 1.19653e-07
-0.0032661 0.0322493 1.43089e-09
1.19653e-07 1.43089e-09 0.0328101

0.0277893 -0.0047851 6.14541e-09
-0.0047851 0.0333213 1.18721e-07
6.14541e-09 1.18721e-07 0.0334636

0.0333689 -0.000610549 3.93826e-08
-0.000610549 0.0264107 9.90913e-08
3.93826e-08 9.90913e-08 0.0284562

0.0381948 -0.0022514 -1.29836e-07
-0.0022514 0.0308025 4.31797e-08
-1.29836e-07 4.31797e-08 0.0349003

0.0382432 0.00218336 -1.61215e-07
0.00218336 0.0309156 9.35589e-08
-1.61215e-07 9.35589e-08 0.0349325

0.0360925 1.5613e-05 5.97538e-08
1.5613e-05 0.0251357 7.90575e-08
5.97538e-08 7.90575e-08 0.0334787

0.0242477 0.00303006 1.33942e-07
0.00303006 0.0304068 -1.99082e-08
1.33942e-07 -1.99082e-08 0.024284

0.0276842 0.00475591 -7.82419e-09
0.00475591 0.0333218 -1.28536e-07
-7.82419e-09 -1.28536e-07 0.0334015

0.0286837 -0.00307614 -8.48183e-08
-0.00307614 0.0342703 -6.23209e-08
-8.48183e-08 -6.23209e-08 0.0327607

0.0310947 0.00303691 -5.98709e-08
0.00303691 0.0251536 2.39976e-08
-5.98709e-08 2.39976e-08 0.0254744

0.0372347 0.00316591 1.82995e-07
0.00316591 0.0315483 -1.13253e-07
1.82995e-07 -1.13253e-07 0.0340835

0.0292354 -0.00406879 3.09439e-08
-0.00406879 0.0269433 1.77946e-07
3.09439e-08 1.77946e-07 0.0253285

0.03641 -0.000454292 -6.24708e-08
-0.000454292 0.0296996 -6.69104e-08
-6.24708e-08 -6.69104e-08 0.034139

0.0273548 -0.00449455 -2.38269e-08
-0.00449455 0.0334043 9.15763e-08
-2.38269e-08 9.15763e-08 0.0334502

0.0240444 0.00107944 -6.17008e-08
0.00107944 0.0322538 6.27932e-08
-6.17008e-08 6.27932e-08 0.0255131

0.0242364 0.00282757 -1.16392e-08
0.00282757 0.0307108 -4.42666e-08
-1.16392e-08 -4.42666e-08 0.0245519

0.0267998 0.00459603 4.96074e-08
0.00459603 0.0240482 2.32383e-07
4.96074e-08 2.32383e-07 0.0182187

0.0298596 0.000199892 1.51032e-07
0.000199892 0.0200933 -1.92754e-08
1.51032e-07 -1.92754e-08 0.0193679

0.0319171 -0.0030239 6.24956e-08
-0.0030239 0.0341709 7.99142e-10
6.24956e-08 7.99142e-10 0.0340436

0.0229246 0.00400094 1.44952e-07
0.00400094 0.0276679 4.11706e-08
1.44952e-07 4.11706e-08 0.0176581

0.0292183 0.00310148 2.56649e-07
0.00310148 0.0327722 2.09677e-08
2.56649e-07 2.09677e-08 0.0310205

0.0316044 -0.000694756 -1.13814e-07
-0.000694756 0.0231662 1.78206e-07
-1.13814e-07 1.78206e-07 0.0244919

0.0327707 0.00146504 -1.64773e-07
0.00146504 0.0253539 1.60449e-07
-1.64773e-07 1.60449e-07 0.0276207

0.0359872 5.62357e-05 1.53258e-07
5.62357e-05 0.0249688 1.47323e-07
1.53258e-07 1.47323e-07 0.0333947

0.0279754 -0.00380529 -1.77908e-07
-0.00380529 0.0349574 1.49969e-07
-1.77908e-07 1.49969e-07 0.0338242

0.039318 -0.000843355 -3.83125e-07
-0.000843355 0.0416067 1.87034e-07
-3.83125e-07 1.87034e-07 0.0361969

0.0298769 0.00493852 1.5352e-07
0.00493852 0.0329654 -2.16694e-08
1.5352e-07 -2.16694e-08 0.0337873

0.030297 0.000214514 -1.51644e-07
0.000214514 0.020402 -6.5778e-08
-1.51644e-07 -6.5778e-08 0.017281

0.0266814 -0.00425199 2.70259e-07
-0.00425199 0.0281415 6.92269e-08
2.70259e-07 6.92269e-08 0.0244444

0.0277561 0.00481553 6.80439e-08
0.00481553 0.0333243 1.53787e-07
6.80439e-08 1.53787e-07 0.0334638

0.0279526 -0.00145877 -1.93901e-07
-0.00145877 0.0350944 -9.72002e-08
-1.93901e-07 -9.72002e-08 0.0314584

0.0244718 -0.00330641 3.32759e-07
-0.00330641 0.0300245 1.17963e-08
3.32759e-07 1.17963e-08 0.024224

0.0280004 0.00377922 1.33601e-07
0.00377922 0.0349188 -6.33595e-08
1.33601e-07 -6.33595e-08 0.0337951

0.0313706 -0.00341064 -8.88247e-08
-0.00341064 0.0270161 -1.29456e-07
-8.88247e-08 -1.29456e-07 0.0269989

0.0402839 0.00140899 -9.09019e-08
0.00140899 0.0406214 3.79655e-07
-9.09019e-08 3.79655e-07 0.0361773

0.0258883 0.00400453 -2.6683e-08
0.00400453 0.0289631 -1.0011e-08
-2.6683e-08 -1.0011e-08 0.024518

0.0366861 0.00110277 4.61061e-08
0.00110277 0.0263619 -1.90533e-07
4.61061e-08 -1.90533e-07 0.033906

0.0333502 0.00398439 -3.82339e-08
0.00398439 0.0321245 9.75321e-08
-3.82339e-08 9.75321e-08 0.0333237

0.029237 0.003068 1.22641e-07
0.003068 0.0326146 -6.71382e-08
1.22641e-07 -6.71382e-08 0.0321662

0.0343717 -0.00430989 -8.26001e-08
-0.00430989 0.0345125 9.26873e-08
-8.26001e-08 9.26873e-08 0.0348926

0.0354978 -0.00306411 1.12848e-07
-0.00306411 0.0305978 -2.92939e-08
1.12848e-07 -2.92939e-08 0.0327584

0.0333725 0.00138715 6.20282e-08
0.00138715 0.0395836 4.22259e-08
6.20282e-08 4.22259e-08 0.0350099

0.0292054 -0.00307946 -1.67492e-07
-0.00307946 0.0328827 9.83085e-08
-1.67492e-07 9.83085e-08 0.0313918

0.0292735 -0.00123273 -6.00343e-08
-0.00123273 0.0192918 -8.19691e-08
-6.00343e-08 -8.19691e-08 0.0164168

0.0287869 -0.00183296 -5.9737e-08
-0.00183296 0.0184184 1.25143e-07
-5.9737e-08 1.25143e-07 0.0162016

0.0385354 0.00220258 1.6434e-07
0.00220258 0.0332459 4.12306e-08
1.6434e-07 4.12306e-08 0.0347705

0.0280642 0.00294609 -2.26119e-08
0.00294609 0.0323448 -9.00144e-08
-2.26119e-08 -9.00144e-08 0.0295264

0.0320764 0.00383537 -1.56778e-07
0.00383537 0.030969 -2.83342e-08
-1.56778e-07 -2.83342e-08 0.0314627

0.0320597 8.99102e-05 -6.33254e-08
8.99102e-05 0.0245838 -1.3777e-08
-6.33254e-08 -1.3777e-08 0.0248953

0.0302448 0.000865742 -1.27161e-07
0.000865742 0.0385888 1.64151e-08
-1.27161e-07 1.64151e-08 0.0341042

0.0354109 0.00219108 4.14317e-08
0.00219108 0.0293313 -1.36908e-07
4.14317e-08 -1.36908e-07 0.0328666

0.0248185 -0.00334025 -1.78414e-07
-0.00334025 0.0300151 -2.28881e-07
-1.78414e-07 -2.28881e-07 0.0244772

0.0286581 -0.000337785 -1.19649e-07
-0.000337785 0.0366663 -7.73876e-08
-1.19649e-07 -7.73876e-08 0.0324039

0.0252226 0.00174079 1.33363e-07
0.00174079 0.0320395 -1.87236e-08
1.33363e-07 -1.87236e-08 0.0256914

0.0332897 -0.00391047 6.53561e-08
-0.00391047 0.0305047 -3.20879e-08
6.53561e-08 -3.20879e-08 0.0316006

0.0290734 -0.0038977 -7.93873e-08
-0.0038977 0.0282086 -3.51131e-08
-7.93873e-08 -3.51131e-08 0.0257211

0.0261567 0.0041004 -2.26931e-07
0.0041004 0.028555 -3.07908e-08
-2.26931e-07 -3.07908e-08 0.0243252

0.0452886 -0.00201663 2.26882e-07
-0.00201663 0.0396103 9.45727e-08
2.26882e-07 9.45727e-08 0.0363738

0.0316739 0.000256674 -7.7601e-08
0.000256674 0.0393336 2.52284e-08
-7.7601e-08 2.52284e-08 0.0347768

0.030625 0.00265068 -9.431e-08
0.00265068 0.0384494 2.03706e-07
-9.431e-08 2.03706e-07 0.0349655

0.0387729 0.00209442 -5.17565e-08
0.00209442 0.0302303 1.69128e-07
-5.17565e-08 1.69128e-07 0.0349503

0.0313799 -0.0034513 -5.65982e-08
-0.0034513 0.0321496 1.94611e-08
-5.65982e-08 1.94611e-08 0.0325811

0.0318278 0.00233683 -1.23125e-08
0.00233683 0.0256277 -4.59317e-08
-1.23125e-08 -4.59317e-08 0.0258872

0.0349992 -0.000708191 1.88214e-08
-0.000708191 0.0415807 1.26372e-07
1.88214e-08 1.26372e-07 0.0357349

0.035797 -0.00251857 -6.31552e-08
-0.00251857 0.0295585 -5.55678e-08
-6.31552e-08 -5.55678e-08 0.0332662

0.0333074 -0.00204024 1.77471e-08
-0.00204024 0.0266603 4.53812e-08
1.77471e-08 4.53812e-08 0.0286834

0.0252596 0.00151151 -7.71283e-08
0.00151151 0.0322842 6.22486e-08
-7.71283e-08 6.22486e-08 0.0259576

0.0268126 -0.00334591 -1.76617e-07
-0.00334591 0.0300188 -6.26105e-09
-1.76617e-07 -6.26105e-09 0.0251946

0.0364847 -0.0033606 -2.48581e-07
-0.0033606 0.0352939 -4.59096e-08
-2.48581e-07 -4.59096e-08 0.0347499

0.0284841 0.00415372 4.68633e-08
0.00415372 0.0277242 1.02925e-07
4.68633e-08 1.02925e-07 0.0254751

0.0372514 -0.00334526 -9.23085e-08
-0.00334526 0.0333293 2.36035e-07
-9.23085e-08 2.36035e-07 0.0346193

0.0322162 0.000337984 -1.75821e-07
0.000337984 0.0248697 5.80575e-08
-1.75821e-07 5.80575e-08 0.025445

0.0191658 -0.00369038 7.57002e-08
-0.00369038 0.0275338 7.10246e-08
7.57002e-08 7.10246e-08 0.0163155

0.0292185 -0.00380499 1.10767e-08
-0.00380499 0.0282011 4.61156e-08
1.10767e-08 4.61156e-08 0.0258152

0.023052 0.00412892 1.17327e-07
0.00412892 0.0280285 -1.23943e-07
1.17327e-07 -1.23943e-07 0.0175972

0.0296984 -0.00155911 -2.70314e-08
-0.00155911 0.0375416 -1.13307e-07
-2.70314e-08 -1.13307e-07 0.0336565

0.0243669 -0.00179434 1.22856e-07
-0.00179434 0.031882 1.83954e-07
1.22856e-07 1.83954e-07 0.0254553

0.0424402 -0.00323301 1.52065e-07
-0.00323301 0.0423784 -1.77559e-08
1.52065e-07 -1.77559e-08 0.0363821

0.026344 0.00309233 -5.11965e-09
0.00309233 0.030711 -4.43042e-08
-5.11965e-09 -4.43042e-08 0.0254852

0.0334853 -0.00432379 -1.34622e-07
-0.00432379 0.0326674 -7.05011e-08
-1.34622e-07 -7.05011e-08 0.0335744

0.0240873 -0.00155132 -4.29105e-08
-0.00155132 0.0318967 -2.24577e-07
-4.29105e-08 -2.24577e-07 0.025184

0.0362312 -0.00253877 2.00886e-07
-0.00253877 0.0295192 -5.54608e-08
2.00886e-07 -5.54608e-08 0.0335274

0.026681 0.00310587 -2.37482e-07
0.00310587 0.0304038 -1.39858e-08
-2.37482e-07 -1.39858e-08 0.0253204

0.0343526 -0.000653756 -1.09407e-08
-0.000653756 0.0272847 -5.56627e-08
-1.09407e-08 -5.56627e-08 0.0305858

0.018895 -0.00387255 1.9472e-07
-0.00387255 0.0298094 -2.03882e-07
1.9472e-07 -2.03882e-07 0.0129649

0.0280071 0.00275509 3.78491e-09
0.00275509 0.0326384 1.05036e-07
3.78491e-09 1.05036e-07 0.0305818

0.0314466 -0.0025132 1.82263e-07
-0.0025132 0.0247291 -1.88099e-07
1.82263e-07 -1.88099e-07 0.025413

0.0391242 -0.00286924 -4.79708e-09
-0.00286924 0.0322282 1.87114e-07
-4.79708e-09 1.87114e-07 0.0349442

0.028761 0.00412551 9.08535e-08
0.00412551 0.0273075 -4.73185e-08
9.08535e-08 -4.73185e-08 0.0252624

0.0313699 -0.00392039 -2.0341e-07
-0.00392039 0.0285495 4.22815e-08
-2.0341e-07 4.22815e-08 0.0287385

0.0354166 0.00276441 2.34579e-07
0.00276441 0.0308632 -8.25189e-08
2.34579e-07 -8.25189e-08 0.0330468

0.0297819 -0.00370392 -4.06276e-08
-0.00370392 0.032946 7.69694e-08
-4.06276e-08 7.69694e-08 0.0333504

0.0270625 -0.0034116 1.40431e-07
-0.0034116 0.0299909 -2.04594e-07
1.40431e-07 -2.04594e-07 0.0254043

0.0284487 0.0037725 1.19434e-07
0.0037725 0.028948 -5.90393e-09
1.19434e-07 -5.90393e-09 0.0258943

0.0313802 0.00341436 6.62603e-08
0.00341436 0.0269064 -8.93564e-08
6.62603e-08 -8.93564e-08 0.0269732

0.0365438 -0.00194481 1.49637e-07
-0.00194481 0.0306323 -1.64272e-07
1.49637e-07 -1.64272e-07 0.033643

0.0255406 -0.00216406 1.99246e-08
-0.00216406 0.0318106 1.75271e-07
1.99246e-08 1.75271e-07 0.0258607

0.034708 -0.00231441 1.09592e-08
-0.00231441 0.0283418 7.47739e-08
1.09592e-08 7.47739e-08 0.0314635

0.0341948 0.00222377 -3.81438e-08
0.00222377 0.027439 4.59677e-08
-3.81438e-08 4.59677e-08 0.0306114

0.0336504 -0.00124506 -9.18308e-08
-0.00124506 0.0393059 -2.02949e-08
-9.18308e-08 -2.02949e-08 0.0349342

0.0320811 -0.00174715 1.48611e-07
-0.00174715 0.0253369 -2.52742e-07
1.48611e-07 -2.52742e-07 0.025878

0.0250083 7.99101e-05 -4.61457e-08
7.99101e-05 0.0331604 9.72482e-09
-4.61457e-08 9.72482e-09 0.0268682

0.0332559 0.00242936 -2.71734e-07
0.00242936 0.0272007 -1.1097e-08
-2.71734e-07 -1.1097e-08 0.0289294

0.0311259 0.0036 -4.71511e-08
0.0036 0.0272997 4.99029e-08
-4.71511e-08 4.99029e-08 0.0271297

0.025302 -0.00204195 2.06953e-07
-0.00204195 0.0318734 -2.1891e-07
2.06953e-07 -2.1891e-07 0.0256178

0.0252076 -0.000154662 3.7121e-08
-0.000154662 0.0333012 -8.89943e-08
3.7121e-08 -8.89943e-08 0.0271511

0.0354203 0.00385834 8.97529e-08
0.00385834 0.0330019 4.71274e-08
8.97529e-08 4.71274e-08 0.0339025

0.027593 -0.0014312 4.23231e-08
-0.0014312 0.0353506 1.82431e-07
4.23231e-08 1.82431e-07 0.0314495

0.0312425 -0.00348495 5.28893e-08
-0.00348495 0.0269846 1.79061e-07
5.28893e-08 1.79061e-07 0.0270168

0.0313055 0.00277359 1.90507e-07
0.00277359 0.0249285 1.24034e-07
1.90507e-07 1.24034e-07 0.0252528

0.0345912 0.0031187 -1.36063e-08
0.0031187 0.0293936 9.14768e-08
-1.36063e-08 9.14768e-08 0.0318032

0.0279984 0.000716942 -1.01723e-08
0.000716942 0.0360479 -1.22506e-07
-1.01723e-08 -1.22506e-07 0.0318256

0.0287238 0.00378267 8.49205e-08
0.00378267 0.028567 -3.72849e-08
8.49205e-08 -3.72849e-08 0.0257346

0.0367969 0.00305778 2.07569e-07
0.00305778 0.0361307 -2.80261e-08
2.07569e-07 -2.80261e-08 0.0349139

0.0226854 -0.00754739 1.51687e-07
-0.00754739 0.0186916 3.00838e-07
1.51687e-07 3.00838e-07 0.0108479

0.0332997 -0.00328842 3.672e-09
-0.00328842 0.0286396 5.92153e-08
3.672e-09 5.92153e-08 0.0301313

0.0207316 0.000913687 -6.37095e-08
0.000913687 0.0300394 -1.16599e-07
-6.37095e-08 -1.16599e-07 0.0183512

0.0313082 -0.00378273 -2.02857e-07
-0.00378273 0.0292391 4.33864e-08
-2.02857e-07 4.33864e-08 0.0290388

0.00153986 -0.00652001 -4.88532e-08
-0.00652001 0.0275734 2.1404e-07
-4.88532e-08 2.1404e-07 0.00290907

0.00147023 0.00636955 1.07148e-08
0.00636955 0.0275915 4.69448e-08
1.07148e-08 4.69448e-08 0.00300204

0.0119869 0.0145077 -1.00782e-07
0.0145077 0.0175358 -1.26376e-07
-1.00782e-07 -1.26376e-07 0.00277189

0.0121683 -0.0144983 -1.40466e-07
-0.0144983 0.0172271 1.76139e-07
-1.40466e-07 1.76139e-07 0.0028045

0.0293463 -0.00016413 2.14199e-08
-0.00016413 0 0
2.14199e-08 0 0.00295338

0.0235967 -0.0112848 1.19044e-07
-0.0112848 0.00539652 -5.73286e-08
1.19044e-07 -5.73286e-08 0.00297908

0.0236388 0.011351 2.07381e-08
0.011351 0.00545059 9.98695e-09
2.07381e-08 9.98695e-09 0.00304026

0.0369184 0.00191201 5.46731e-08
0.00191201 0.0302496 -1.34318e-07
5.46731e-08 -1.34318e-07 0.0338851

0.0387105 0.0034095 1.65679e-08
0.0034095 0.0366222 -1.92372e-07
1.65679e-08 -1.92372e-07 0.0355851

0.0344241 0.000872622 -3.56726e-08
0.000872622 0.0274643 1.49594e-07
-3.56726e-08 1.49594e-07 0.0316956

0.0328817 0.002851 -2.26716e-07
0.002851 0.0268963 -9.20894e-08
-2.26716e-07 -9.20894e-08 0.0286537

0.0257075 0.00231405 1.74937e-07
0.00231405 0.0323761 6.47507e-08
1.74937e-07 6.47507e-08 0.0276429

0.030721 0.00377021 -7.90996e-08
0.00377021 0.0276837 9.72204e-08
-7.90996e-08 9.72204e-08 0.0271248

0.0333137 -0.00390398 -5.41387e-08
-0.00390398 0.0304737 -2.04157e-07
-5.41387e-08 -2.04157e-07 0.0316375

0.0309819 0.00365567 4.28428e-08
0.00365567 0.0272942 -4.80551e-08
4.28428e-08 -4.80551e-08 0.0269324

0.0249937 -0.000371653 8.42467e-08
-0.000371653 0.0331314 1.39066e-08
8.42467e-08 1.39066e-08 0.0268503

0.0385534 -0.00348431 -4.48017e-08
-0.00348431 0.0368853 -2.63764e-07
-4.48017e-08 -2.63764e-07 0.0355908

0.0251822 -0.000635785 -1.32533e-08
-0.000635785 0.0332197 -9.32639e-08
-1.32533e-08 -9.32639e-08 0.0271099

0.036025 0.00304792 1.05022e-07
0.00304792 0.0330183 6.40768e-09
1.05022e-07 6.40768e-09 0.0341053

0.0296312 0.003477 -7.05201e-08
0.003477 0.0248529 1.38812e-07
-7.05201e-08 1.38812e-07 0.0230291

0.0305043 -0.0017142 -5.01742e-08
-0.0017142 0.0375195 3.65326e-08
-5.01742e-08 3.65326e-08 0.034744

0.0339296 0.00180513 2.48447e-07
0.00180513 0.0271888 -6.21079e-09
2.48447e-07 -6.21079e-09 0.0303282

0.0312098 -0.00392144 1.70426e-07
-0.00392144 0.0285388 -1.74125e-08
1.70426e-07 -1.74125e-08 0.028622

0.0315926 -0.00322247 1.13084e-08
-0.00322247 0.0266989 9.9063e-08
1.13084e-08 9.9063e-08 0.027055

0.0384857 -0.00214226 -2.26779e-07
-0.00214226 0.0334238 -2.06539e-08
-2.26779e-07 -2.06539e-08 0.0347521

0.0326902 0.00366507 2.49048e-08
0.00366507 0.0292397 -1.09456e-07
2.49048e-08 -1.09456e-07 0.0301627

0.0326538 0.0031385 1.06775e-07
0.0031385 0.0272597 5.6237e-08
1.06775e-07 5.6237e-08 0.0287956

0.0269623 -0.000365227 1.29816e-07
-0.000365227 0.0349961 -9.99392e-08
1.29816e-07 -9.99392e-08 0.0301757

0.0259066 0.000765846 7.27022e-08
0.000765846 0.0340128 -1.22967e-08
7.27022e-08 -1.22967e-08 0.0288306

0.0327878 0.000345457 5.36694e-08
0.000345457 0.0248685 7.21425e-08
5.36694e-08 7.21425e-08 0.0274513

0.0313966 -0.000945138 1.92543e-08
-0.000945138 0.0230098 1.35719e-07
1.92543e-08 1.35719e-07 0.0238988

0.0308892 0.00398636 6.00798e-08
0.00398636 0.0288139 -1.67352e-08
6.00798e-08 -1.67352e-08 0.0286317

0.0331268 -0.00343233 -1.89399e-07
-0.00343233 0.0285483 -2.10155e-08
-1.89399e-07 -2.10155e-08 0.0299771

0.0364201 -0.00282383 -6.1403e-08
-0.00282383 0.0327396 2.12562e-07
-6.1403e-08 2.12562e-07 0.0341516

0.0292143 -0.00412895 3.47215e-09
-0.00412895 0.0292007 5.78511e-08
3.47215e-09 5.78511e-08 0.0277614

0.0269797 -0.00362165 -1.35377e-07
-0.00362165 0.0304739 -7.57508e-08
-1.35377e-07 -7.57508e-08 0.0272209

0.0283344 0.00390084 1.23402e-07
0.00390084 0.0299094 1.5513e-09
1.23402e-07 1.5513e-09 0.0277596

0.0259083 -0.00124933 9.02787e-08
-0.00124933 0.0336232 4.61804e-09
9.02787e-08 4.61804e-09 0.0285236

0.0266618 -0.000202221 1.59963e-07
-0.000202221 0.0349225 1.32933e-07
1.59963e-07 1.32933e-07 0.0299276

0.0277696 0.000752907 1.19221e-07
0.000752907 0.0360473 -1.23467e-07
1.19221e-07 -1.23467e-07 0.031666

0.0262545 -0.00275057 -5.47431e-09
-0.00275057 0.0319725 2.13506e-07
-5.47431e-09 2.13506e-07 0.0277182

0.034591 0.00317658 9.11001e-08
0.00317658 0.029176 -1.05738e-07
9.11001e-08 -1.05738e-07 0.0316422

0.0339184 -0.00126142 3.0913e-08
-0.00126142 0.0269376 4.79772e-08
3.0913e-08 4.79772e-08 0.0302096

0.0257973 0.000974627 -5.32911e-08
0.000974627 0.033839 -2.89256e-09
-5.32911e-08 -2.89256e-09 0.0285496

0.0278314 -0.00127013 1.18623e-07
-0.00127013 0.0354065 1.97991e-07
1.18623e-07 1.97991e-07 0.0313739

0.0273005 -0.00213773 -2.93107e-08
-0.00213773 0.033666 2.88068e-08
-2.93107e-08 2.88068e-08 0.0302336

0.0327867 -0.00107743 -6.27877e-08
-0.00107743 0.0253268 1.19617e-07
-6.27877e-08 1.19617e-07 0.0272618

0.0333234 -0.00427102 6.41947e-08
-0.00427102 0.0323889 -3.21176e-09
6.41947e-08 -3.21176e-09 0.033537

0.026496 0.00122037 2.14521e-07
0.00122037 0.033845 4.76441e-10
2.14521e-07 4.76441e-10 0.0288238

0.0398161 -0.00243199 8.77309e-09
-0.00243199 0.0352245 -5.4993e-08
8.77309e-09 -5.4993e-08 0.0354681

0.0188933 0.0031658 -5.06554e-08
0.0031658 0.0278839 -1.39607e-07
-5.06554e-08 -1.39607e-07 0.0162773

0.0338238 -0.00352311 6.81715e-08
-0.00352311 0.0335017 3.10376e-09
6.81715e-08 3.10376e-09 0.0337338

0.0353517 -0.0039997 7.78446e-08
-0.0039997 0.0330534 1.2822e-08
7.78446e-08 1.2822e-08 0.0339115

0.026693 -9.03495e-05 -1.32367e-07
-9.03495e-05 0.0349276 1.2623e-07
-1.32367e-07 1.2623e-07 0.0299358

0.0332527 -0.0021768 -2.71094e-07
-0.0021768 0.0271606 -5.43747e-08
-2.71094e-07 -5.43747e-08 0.0289105

0.0293549 0.00168491 8.94051e-08
0.00168491 0.0358287 2.99994e-08
8.94051e-08 2.99994e-08 0.0328876

0.0132102 -0.00037931 -3.1617e-08
-0.00037931 0.0283695 -1.44329e-07
-3.1617e-08 -1.44329e-07 0.0111548

0.027121 0.00186897 1.18705e-07
0.00186897 0.0340706 -1.8062e-07
1.18705e-07 -1.8062e-07 0.0303141

0.0311177 -0.00385967 1.41019e-07
-0.00385967 0.0291623 -7.67682e-08
1.41019e-07 -7.67682e-08 0.0288141

0.0186241 0.00320547 -9.04427e-09
0.00320547 0.0301472 -2.49261e-08
-9.04427e-09 -2.49261e-08 0.0131304

0.0426042 0.00351672 1.02864e-07
0.00351672 0.041851 -2.10845e-07
1.02864e-07 -2.10845e-07 0.0364868

0.0432082 -0.00374725 -3.89307e-08
-0.00374725 0.0414197 -3.99182e-07
-3.89307e-08 -3.99182e-07 0.0364693

0.0310734 -0.00399176 -4.58795e-08
-0.00399176 0.0304793 -2.04132e-07
-4.58795e-08 -2.04132e-07 0.0304689

0.0289299 -0.00406556 -5.34042e-08
-0.00406556 0.0291587 -7.84563e-08
-5.34042e-08 -7.84563e-08 0.0276018

0.0330603 0.00272757 1.05425e-07
0.00272757 0.0275358 5.84538e-08
1.05425e-07 5.84538e-08 0.0290831

0.032789 0.00196066 5.17887e-08
0.00196066 0.025598 -4.3607e-08
5.17887e-08 -4.3607e-08 0.0278303

0.0464016 0.000418534 -3.03661e-07
0.000418534 0.046356 1.72813e-07
-3.03661e-07 1.72813e-07 0.0367009

0.046918 -0.000950634 -8.76571e-08
-0.000950634 0.0457687 4.18369e-07
-8.76571e-08 4.18369e-07 0.036772

0.0348089 0.000638237 9.68828e-08
0.000638237 0.027581 3.44454e-08
9.68828e-08 3.44454e-08 0.0322245

0.0277592 0.000882714 -1.22097e-08
0.000882714 0.0355793 4.20636e-08
-1.22097e-08 4.20636e-08 0.0313563

0.0276147 0.000882798 -1.85223e-07
0.000882798 0.0355794 3.71171e-08
-1.85223e-07 3.71171e-08 0.0312525

0.0234647 0.00740211 -2.22723e-07
0.00740211 0.0183063 -2.95133e-08
-2.22723e-07 -2.95133e-08 0.0109045

0.0272544 -0.00367687 -4.98078e-09
-0.00367687 0.0303556 1.16035e-08
-4.98078e-09 1.16035e-08 0.0273268

0.0365756 0.00239141 -1.36899e-07
0.00239141 0.029584 1.10813e-07
-1.36899e-07 1.10813e-07 0.0337921

0.0332833 0.00124779 2.19389e-08
0.00124779 0.0265113 1.38499e-08
2.19389e-08 1.38499e-08 0.0284394

0.0291602 -0.00349365 -4.7985e-08
-0.00349365 0.0304801 -6.8537e-08
-4.7985e-08 -6.8537e-08 0.0281807

0.0328197 -0.00264876 -1.75479e-07
-0.00264876 0.0267351 9.30966e-08
-1.75479e-07 9.30966e-08 0.0285942

0.0224655 0.00761499 -1.51838e-08
0.00761499 0.0185946 -1.28027e-07
-1.51838e-08 -1.28027e-07 0.0109068

0.0331528 0.00410275 -1.42967e-08
0.00410275 0.0326454 4.17219e-08
-1.42967e-08 4.17219e-08 0.0331891

0.0258971 -0.00257928 2.9177e-08
-0.00257928 0.0320332 7.32703e-08
2.9177e-08 7.32703e-08 0.0275147

0.0324911 0.00378691 -1.05978e-07
0.00378691 0.0292758 6.82103e-08
-1.05978e-07 6.82103e-08 0.0301545

0.0268231 -0.000543919 -1.71834e-07
-0.000543919 0.034961 -1.3077e-07
-1.71834e-07 -1.3077e-07 0.0301455

0.0269971 0.00256423 1.20173e-08
0.00256423 0.0324576 -6.07986e-08
1.20173e-08 -6.07986e-08 0.0282939

0.0305345 0.00399227 -9.31856e-08
0.00399227 0.0293309 6.92991e-08
-9.31856e-08 6.92991e-08 0.0287825

0.027616 -0.00293816 9.9879e-08
-0.00293816 0.0318631 2.32305e-07
9.9879e-08 2.32305e-07 0.0282564

0.029464 -0.00357692 -2.42703e-08
-0.00357692 0.0303593 1.03709e-08
-2.42703e-08 1.03709e-08 0.0283124

0.0181417 0.00142591 4.74695e-08
0.00142591 0.0280435 -8.02312e-08
4.74695e-08 -8.02312e-08 0.0131311

0.0234796 -0.00429549 -4.22892e-08
-0.00429549 0.0275634 7.43262e-08
-4.22892e-08 7.43262e-08 0.0177281

0.0262124 -0.00152641 -9.94687e-08
-0.00152641 0.033633 3.18358e-08
-9.94687e-08 3.18358e-08 0.0287592

0.0330323 0.0034757 -8.2498e-08
0.0034757 0.0288854 -4.59377e-09
-8.2498e-08 -4.59377e-09 0.0300763

0.0303298 0.00385856 -2.44106e-08
0.00385856 0.0298946 -8.43564e-09
-2.44106e-08 -8.43564e-09 0.0289977

0.0274219 -0.00280158 -6.10977e-08
-0.00280158 0.0319929 6.67575e-08
-6.10977e-08 6.67575e-08 0.0281464

0.0265617 -0.00154151 -1.03576e-08
-0.00154151 0.0335916 -5.29823e-10
-1.03576e-08 -5.29823e-10 0.0287536

0.0309644 0.00371958 9.11513e-08
0.00371958 0.0295715 -7.77136e-08
9.11513e-08 -7.77136e-08 0.0289485

0.0267665 -0.00181689 -7.83194e-08
-0.00181689 0.0334833 3.63734e-08
-7.83194e-08 3.63734e-08 0.0289617

0.0191705 0.00355582 -1.44909e-07
0.00355582 0.0276152 8.46428e-09
-1.44909e-07 8.46428e-09 0.0162965

0.0308798 -0.000534432 -6.05001e-08
-0.000534432 0.0388258 -1.18217e-07
-6.05001e-08 -1.18217e-07 0.0343014

0.0286641 0.00404936 6.10355e-08
0.00404936 0.0295266 -7.42691e-08
6.10355e-08 -7.42691e-08 0.0277217

0.0355877 0.00197551 -8.0047e-08
0.00197551 0.02951 9.50297e-08
-8.0047e-08 9.50297e-08 0.0328501

0.0362664 -0.00211534 -4.25497e-09
-0.00211534 0.0297626 2.74646e-08
-4.25497e-09 2.74646e-08 0.0332252

0.0285184 -0.0030968 -4.68204e-08
-0.0030968 0.0185731 -1.95177e-08
-4.68204e-08 -1.95177e-08 0.015734

0.0283613 -0.00279075 2.52729e-07
-0.00279075 0.0327841 -5.10019e-08
2.52729e-07 -5.10019e-08 0.0305793

0.0291991 0.00350195 3.34262e-07
0.00350195 0.0316084 -1.17685e-07
3.34262e-07 -1.17685e-07 0.0304951

0.0349662 -0.00290693 -1.21338e-07
-0.00290693 0.0376802 2.03591e-08
-1.21338e-07 2.03591e-08 0.0352429

0.0394632 0.00188413 3.17808e-07
0.00188413 0.0446106 1.28687e-07
3.17808e-07 1.28687e-07 0.0364391

0.0449452 0.00129032 -5.25955e-08
0.00129032 0.0391199 -1.28947e-07
-5.25955e-08 -1.28947e-07 0.0364211

0.0355673 0.0043449 1.59145e-07
0.0043449 0.0351404 4.56015e-08
1.59145e-07 4.56015e-08 0.0350102

0.0265787 0.00338913 1.33289e-09
0.00338913 0.0310147 -3.26343e-08
1.33289e-09 -3.26343e-08 0.027263

0.033048 0.00349789 -1.22065e-07
0.00349789 0.0286741 9.4888e-08
-1.22065e-07 9.4888e-08 0.0300574

0.0220651 0.00576618 1.3152e-07
0.00576618 0.0242436 6.18452e-08
1.3152e-07 6.18452e-08 0.0160766

0.0386216 -0.00151145 1.31986e-07
-0.00151145 0.0444339 -2.21571e-07
1.31986e-07 -2.21571e-07 0.0363683

0.0460479 -0.000463173 -3.37435e-07
-0.000463173 0.0454395 3.84918e-07
-3.37435e-07 3.84918e-07 0.036697

0.0451812 -3.17471e-05 -7.85148e-08
-3.17471e-05 0.0463008 4.13746e-08
-7.85148e-08 4.13746e-08 0.036679

0.0176447 -0.00679676 1.12886e-07
-0.00679676 0.0231138 -3.66263e-07
1.12886e-07 -3.66263e-07 0.0107413

0.0392977 -0.00155578 1.46639e-08
-0.00155578 0.0387185 -2.04771e-07
1.46639e-08 -2.04771e-07 0.0358601

0.0384001 0.00117621 -2.73644e-07
0.00117621 0.0415224 -2.02158e-07
-2.73644e-07 -2.02158e-07 0.0361313

0.0331835 -0.00343656 -1.53397e-07
-0.00343656 0.0282266 6.20475e-08
-1.53397e-07 6.20475e-08 0.0299109

0.0318506 0.000140033 -3.39246e-08
0.000140033 0.0386787 -1.20936e-07
-3.39246e-08 -1.20936e-07 0.0344574

0.0285846 -0.00266082 -4.01182e-08
-0.00266082 0.0333892 1.24877e-07
-4.01182e-08 1.24877e-07 0.031597

0.0356709 0.000831775 -2.69116e-10
0.000831775 0.0273858 -3.8514e-08
-2.69116e-10 -3.8514e-08 0.0330078

0.0288836 0.00204439 2.04228e-08
0.00204439 0.0368241 -7.20206e-08
2.04228e-08 -7.20206e-08 0.0336771

0.029876 0.000946216 -9.58655e-08
0.000946216 0.0373963 -3.51705e-08
-9.58655e-08 -3.51705e-08 0.0333708

0.0344096 0.00268585 2.86738e-08
0.00268585 0.0288587 7.57959e-08
2.86738e-08 7.57959e-08 0.0312337

0.0132818 -0.000409335 -1.09256e-07
-0.000409335 0.0281299 -6.43087e-08
-1.09256e-07 -6.43087e-08 0.0112043

0.0309729 -0.00362709 -1.18721e-07
-0.00362709 0.0309238 -1.59727e-07
-1.18721e-07 -1.59727e-07 0.0306172

0.0329364 -0.00344422 -8.58599e-08
-0.00344422 0.0320286 -9.0744e-08
-8.58599e-08 -9.0744e-08 0.0325868

0.0335789 -0.00415937 -1.01919e-07
-0.00415937 0.0325424 5.57162e-08
-1.01919e-07 5.57162e-08 0.0337432

0.0265686 0.00414999 1.71893e-07
0.00414999 0.0176954 -5.63649e-08
1.71893e-07 -5.63649e-08 0.0126085

0.0388328 -0.00269609 -6.78735e-08
-0.00269609 0.0395799 8.70271e-08
-6.78735e-08 8.70271e-08 0.0359648

0.0230882 0.00692271 -1.40437e-07
0.00692271 0.0255081 -3.00855e-07
-1.40437e-07 -3.00855e-07 0.0126128

0.030882 -0.00281754 -2.64719e-08
-0.00281754 0.0348159 6.11188e-08
-2.64719e-08 6.11188e-08 0.0339638

0.0354202 0.00193644 -3.98352e-08
0.00193644 0.0284733 1.43785e-07
-3.98352e-08 1.43785e-07 0.0323523

0.0318303 -0.00189388 1.64018e-08
-0.00189388 0.0249571 1.40649e-07
1.64018e-08 1.40649e-07 0.0254022

0.0293006 0.0031599 2.43911e-07
0.0031599 0.0327408 1.47353e-07
2.43911e-07 1.47353e-07 0.0312874

0.0344454 0.00268906 1.31003e-07
0.00268906 0.0286418 -1.67087e-07
1.31003e-07 -1.67087e-07 0.0312284

0.0325246 0.00149841 1.77879e-08
0.00149841 0.0403788 1.42684e-07
1.77879e-08 1.42684e-07 0.0353433

0.0319486 -0.00415521 2.85129e-08
-0.00415521 0.0312094 -2.37643e-07
2.85129e-08 -2.37643e-07 0.0318183

0.0396816 0.00265546 -1.43952e-07
0.00265546 0.0332044 -5.06956e-08
-1.43952e-07 -5.06956e-08 0.0353227

0.0279793 -0.00241908 3.98095e-08
-0.00241908 0.0335597 3.97747e-08
3.98095e-08 3.97747e-08 0.0304782

0.0293581 0.000558908 -1.03756e-08
0.000558908 0.0373201 -2.61176e-08
-1.03756e-08 -2.61176e-08 0.03326

0.0419477 0.00133791 1.07574e-07
0.00133791 0.0371046 -2.04256e-07
1.07574e-07 -2.04256e-07 0.0361226

0.0421011 -0.0011484 -1.62013e-07
-0.0011484 0.0373306 -2.76013e-07
-1.62013e-07 -2.76013e-07 0.0361045

0.0283909 0.00236986 -1.94892e-07
0.00236986 0.0181857 -1.784e-09
-1.94892e-07 -1.784e-09 0.0159541

0.0350351 0.00106138 -1.05119e-07
0.00106138 0.0285737 1.47578e-07
-1.05119e-07 1.47578e-07 0.0330667

0.0128695 0.000923754 -1.34936e-07
0.000923754 0.0316329 1.34995e-07
-1.34936e-07 1.34995e-07 0.00612335

0.0131652 -0.00138851 -2.66603e-08
-0.00138851 0.0321388 8.03726e-08
-2.66603e-08 8.03726e-08 0.00611363

0.0152718 0.00715566 -1.78106e-07
0.00715566 0.028459 1.45482e-07
-1.78106e-07 1.45482e-07 0.00598573

0.0347719 -0.00382163 3.80792e-08
-0.00382163 0.0312755 5.95601e-08
3.80792e-08 5.95601e-08 0.0329466

0.0155842 -0.00619623 2.74226e-07
-0.00619623 0.0261591 3.16281e-07
2.74226e-07 3.16281e-07 0.0104748

0.0155159 -0.00708822 -1.84788e-07
-0.00708822 0.0274293 1.98076e-08
-1.84788e-07 1.98076e-08 0.00591548

0.0284341 0.00342681 1.48179e-07
0.00342681 0.031015 -3.21023e-08
1.48179e-07 -3.21023e-08 0.0281602

0.0251986 0.00932778 -2.71479e-08
0.00932778 0.0190246 -1.40787e-07
-2.71479e-08 -1.40787e-07 0.00593539

0.0365429 0.00173152 5.42065e-08
0.00173152 0.0385579 1.6942e-07
5.42065e-08 1.6942e-07 0.0354819

0.039541 2.61908e-05 4.03266e-08
2.61908e-05 0.035545 -1.31778e-07
4.03266e-08 -1.31778e-07 0.0354626

0.0261127 -0.00924631 2.03857e-07
-0.00924631 0.0188162 2.48939e-07
2.03857e-07 2.48939e-07 0.00588955

0.0276976 -0.00306598 7.94466e-10
-0.00306598 0.0321037 -3.72117e-08
7.94466e-10 -3.72117e-08 0.0296306

0.0262618 0.0044195 2.07335e-07
0.0044195 0.0201628 -1.9247e-07
2.07335e-07 -1.9247e-07 0.0130481

0.0172828 0.00797475 1.23932e-07
0.00797475 0.0271545 8.06217e-08
1.23932e-07 8.06217e-08 0.00598941

0.0182004 0.00275604 -1.75761e-07
0.00275604 0.0275969 -4.28753e-08
-1.75761e-07 -4.28753e-08 0.0128536

0.0173077 -0.00827811 3.81546e-07
-0.00827811 0.0271577 8.18535e-08
3.81546e-07 8.18535e-08 0.0058153

0.017937 -0.0015714 -3.06256e-08
-0.0015714 0.0280128 -1.07372e-07
-3.06256e-08 -1.07372e-07 0.012694

0.0370546 0.000922258 -2.80781e-08
0.000922258 0.0413053 1.30152e-07
-2.80781e-08 1.30152e-07 0.0358166

0.0221367 -0.00585719 1.98386e-07
-0.00585719 0.0236708 -2.20128e-08
1.98386e-07 -2.20128e-08 0.015163

0.0157036 0.00598802 -5.8201e-08
0.00598802 0.0259087 -3.11664e-07
-5.8201e-08 -3.11664e-07 0.0107531

0.0302148 0.00473111 -4.13678e-08
0.00473111 0.0143522 -1.08868e-07
-4.13678e-08 -1.08868e-07 0.00611745

0.0329469 -0.00385042 1.4626e-07
-0.00385042 0.0301322 1.48521e-07
1.4626e-07 1.48521e-07 0.0310589

0.0308954 0.00169365 -3.65517e-08
0.00169365 0.0368506 -6.95811e-08
-3.65517e-08 -6.95811e-08 0.0339576

0.0260967 -0.0048454 -6.07076e-08
-0.0048454 0.0192016 9.33521e-08
-6.07076e-08 9.33521e-08 0.0126984

0.0330093 -0.00378687 -3.5275e-08
-0.00378687 0.030083 -2.81964e-07
-3.5275e-08 -2.81964e-07 0.0311352

0.030025 -0.0045209 8.24521e-08
-0.0045209 0.0130562 -1.05597e-07
8.24521e-08 -1.05597e-07 0.00603888

0.0324817 -0.00372825 2.10182e-07
-0.00372825 0.031315 2.88047e-08
2.10182e-07 2.88047e-08 0.0319871

0.0280987 -0.00331231 2.7183e-07
-0.00331231 0.0320129 6.80954e-09
2.7183e-07 6.80954e-09 0.0296331

0.0234483 0.0087454 2.61603e-08
0.0087454 0.0204871 1.70813e-07
2.61603e-08 1.70813e-07 0.00602774

0.0182039 -0.00292169 1.23043e-07
-0.00292169 0.0268733 -4.49947e-08
1.23043e-07 -4.49947e-08 0.0122733

0.0233193 -0.00902118 1.25022e-07
-0.00902118 0.0201562 -1.6511e-07
1.25022e-07 -1.6511e-07 0.00588551

0.0170862 0.00641003 -1.34132e-07
0.00641003 0.0235718 2.03596e-07
-1.34132e-07 2.03596e-07 0.0108339

0.0308344 -0.00396136 -1.22375e-08
-0.00396136 0.0301684 1.62416e-07
-1.22375e-08 1.62416e-07 0.0300932

0.0389237 -0.00195907 1.62231e-08
-0.00195907 0.0369455 -4.78695e-08
1.62231e-08 -4.78695e-08 0.0355062

0.0455411 0.00150557 -4.03021e-07
0.00150557 0.0449528 5.51251e-08
-4.03021e-07 5.51251e-08 0.0366252

0.0435661 -0.000711727 2.5613e-07
-0.000711727 0.0462316 1.10869e-08
2.5613e-07 1.10869e-08 0.036591

0.0286228 0.00171611 -2.91229e-08
0.00171611 0.0355747 9.43674e-09
-2.91229e-08 9.43674e-09 0.0323973

0.0453365 -0.00144663 8.56271e-08
-0.00144663 0.0449805 -2.06418e-07
8.56271e-08 -2.06418e-07 0.0366429

0.0438096 0.000568052 -3.92057e-07
0.000568052 0.0465063 1.21937e-07
-3.92057e-07 1.21937e-07 0.0366241

0.0466805 0.000990361 -1.23245e-07
0.000990361 0.0433783 -5.25625e-08
-1.23245e-07 -5.25625e-08 0.0365992

0.0397534 -0.00163809 -3.70876e-07
-0.00163809 0.0460755 9.49935e-08
-3.70876e-07 9.49935e-08 0.036489

0.0190584 -0.0038887 6.48309e-08
-0.0038887 0.0272382 7.53161e-08
6.48309e-08 7.53161e-08 0.0154753

0.0421444 -0.00175045 1.76439e-07
-0.00175045 0.0367302 -8.02122e-08
1.76439e-07 -8.02122e-08 0.0360113

0.0359709 -0.00457292 -1.57691e-07
-0.00457292 0.0351567 1.64149e-07
-1.57691e-07 1.64149e-07 0.0349751

0.0397575 -0.00242184 2.09818e-07
-0.00242184 0.0360699 2.681e-07
2.09818e-07 2.681e-07 0.0355739

0.0351928 0.00204363 2.07475e-07
0.00204363 0.0285565 -1.62376e-07
2.07475e-07 -1.62376e-07 0.0322395

0.0396954 0.00133718 -3.64485e-07
0.00133718 0.047226 3.76254e-07
-3.64485e-07 3.76254e-07 0.0365548

0.0464963 0.00259217 -3.30692e-07
0.00259217 0.0404211 2.71359e-07
-3.30692e-07 2.71359e-07 0.036536

0.0400914 0.0015063 -1.08964e-07
0.0015063 0.0366787 1.51781e-07
-1.08964e-07 1.51781e-07 0.0356219

0.0279213 -0.00192054 -1.6781e-07
-0.00192054 0.0125272 -7.94349e-08
-1.6781e-07 -7.94349e-08 0.0106273

0.0283269 0.00326867 1.06737e-07
0.00326867 0.0315585 -2.05587e-07
1.06737e-07 -2.05587e-07 0.0294184

0.0231934 -0.00773814 -1.71185e-07
-0.00773814 0.018184 7.15652e-08
-1.71185e-07 7.15652e-08 0.0102921

0.022836 -0.00731765 -1.16414e-07
-0.00731765 0.0257747 2.68755e-07
-1.16414e-07 2.68755e-07 0.0119577

0.0290295 -0.00464827 -2.00096e-07
-0.00464827 0.0191326 9.08056e-09
-2.00096e-07 9.08056e-09 0.0126184

0.0375789 -0.00066044 1.62876e-07
-0.00066044 0.0449131 -2.17247e-07
1.62876e-07 -2.17247e-07 0.0363001

0.0375766 0.000358314 9.98578e-08
0.000358314 0.0447903 1.36924e-07
9.98578e-08 1.36924e-07 0.0362804

0.0426076 -0.00327329 1.98845e-07
-0.00327329 0.0394543 -1.57055e-07
1.98845e-07 -1.57055e-07 0.0362343

0.0430013 -0.00294356 -1.7575e-07
-0.00294356 0.0391726 -1.08085e-07
-1.7575e-07 -1.08085e-07 0.0362413

0.0425044 0.00350298 -2.4967e-07
0.00350298 0.0399759 -2.30662e-07
-2.4967e-07 -2.30662e-07 0.036279

0.0443986 0.000416305 -2.31689e-07
0.000416305 0.045084 4.87656e-08
-2.31689e-07 4.87656e-08 0.0366422

0.0426114 -0.00274373 -8.59536e-08
-0.00274373 0.0395114 2.92992e-07
-8.59536e-08 2.92992e-07 0.0362958

0.0426054 -0.00251039 -1.67504e-07
-0.00251039 0.044268 2.48859e-07
-1.67504e-07 2.48859e-07 0.0365698

0.0451193 0.000331141 3.73495e-07
0.000331141 0.045468 8.23373e-08
3.73495e-07 8.23373e-08 0.0366604

0.0436393 -0.00278193 2.73447e-07
-0.00278193 0.0389204 -1.2611e-07
2.73447e-07 -1.2611e-07 0.0363364

0.0435143 0.00283747 -1.71106e-07
0.00283747 0.0390732 -1.80163e-08
-1.71106e-07 -1.80163e-08 0.0363744

0.045195 -0.000470672 -1.15035e-07
-0.000470672 0.0455822 -1.26321e-07
-1.15035e-07 -1.26321e-07 0.0367091

0.0452284 -0.000425148 7.25643e-07
-0.000425148 0.0443626 -7.48728e-07
7.25643e-07 -7.48728e-07 0.0367274

0.042802 0.00163806 7.26337e-08
0.00163806 0.0442496 3.43584e-07
7.26337e-08 3.43584e-07 0.0366135

0.0411196 0.00361749 -8.07814e-08
0.00361749 0.0405191 1.90302e-07
-8.07814e-08 1.90302e-07 0.0363283

SCALARS pressure float
LOOKUP_TABLE default
-60.0747
19.3125
5.81051
21.2934
15.8798
5.89454
-58.6975
7.78905
-3.79912
15.1286
-24.4432
7.62321
5.59778
12.2846
23.3353
5.54477
18.5241
13.2141
-0.685568
6.7647
-0.898744
33.1139
5.80875
5.80441
6.60981
14.9091
-38.398
6.67937
-15.2412
30.6119
5.18215
-15.6561
-42.0707
27.318
20.7724
27.3509
31.8698
19.8029
4.86549
-42.6142
-17.4071
31.8905
31.9786
5.99915
-21.8097
-15.9747
-1.0455
-3.39991
6.5524
-16.2178
-18.9194
-15.3438
20.7537
-15.3712
20.3073
-33.1568
21.1226
-15.4583
21.1324
7.05279
21.7678
16.1199
-45.5748
12.7921
16.3631
10.9098
21.5771
13.8345
5.78119
21.8209
20.8098
20.7804
-17.6908
11.6049
3.98
-31.6212
14.3574
11.0009
14.1527
-8.71538
-28.9498
14.9765
20.1658
-22.0409
-23.4313
-28.099
7.10547
9.63687
-22.2205
37.7208
-15.507
38.4231
18.304
10.7669
-15.1644
-15.8722
-30.2267
14.7574
14.3664
4.60456
-10.7623
-21.9404
-25.1056
16.2185
14.107
14.9656
18.7003
3.78094
-24.5622
26.5128
7.22564
-21.413
-24.6165
14.8445
15.082
-16.144
20.1582
-29.1184
20.6216
-16.7278
-2.8981
23.8312
21.731
16.0357
26.6792
22.6316
21.7792
15.7123
-29.7863
-16.0972
24.0883
21.6217
20.9914
22.0694
-22.0148
23.5784
-33.8449
5.46924
21.7559
23.6217
-21.9376
6.68142
-5.96116
15.0895
-30.4131
15.6287
7.8399
2.41409
5.18392
-9.39007
-0.45132
22.6451
-15.4535
5.29664
15.21
21.5647
11.5127
-21.1136
-21.2642
10.7971
-2.83712
-15.1963
-21.2246
-15.1643
-20.9868
15.2835
-20.636
-21.202
-15.2065
-21.0641
19.0033
-15.9392
-14.8235
12.0686
-14.4824
18.8056
19.0524
7.47928
18.0468
11.7794
-16.2481
15.2921
14.9648
-21.529
10.431
-14.2202
16.0514
14.5994
17.0816
14.839
10.3483
-26.9805
-16.0805
-15.9572
21.9108
14.5327
14.6315
20.9247
22.4905
9.50755
21.7377
-0.377594
-8.16606
20.7812
-17.8386
19.9477
10.369
-21.5183
15.7238
22.5294
14.7323
9.39918
14.1965
21.0574
-7.8278
8.83268
-7.90375
14.652
26.927
26.5808
27.9596
26.388
26.7237
26.2904
13.8319
23.4276
24.0266
23.9708
23.3973
21.1911
21.8555
-8.25805
15.9386
28.1911
-3.18333
23.5733
23.2026
27.8345
-8.48895
28.0964
15.3484
-7.57655
17.494
-8.25303
20.2294
29.6123
-7.48091
-8.09599
-29.5971
-18.1901
19.5295
-31.9917
5.73997
-7.78917
-1.18261
28.2491
26.6398
30.4131
26.7605
-34.8084
-8.1749
28.3372
8.07935
-8.29055
26.4456
-6.29015
30.458
-7.94929
27.0464
14.5689
14.7936
23.8423
10.0521
18.02
8.12315
-29.8665
-24.5587
16.8068
1.7662
8.18595
-13.606
17.4376
11.7041
-8.09677
9.45706
-10.8196
7.52292
-10.7509
-8.48016
33.2476
19.1504
25.0856
25.3098
13.8347
-10.4006
26.4223
14.6878
-1.65296
-10.2699
-12.5611
17.5061
-7.48023
17.5742
-12.0379
-21.3552
-10.6044
-34.6885
15.5663
-7.75806
34.4248
-11.5744
16.8753
-8.40409
15.9755
-12.7552
4.29464
-51.1331
8.52902
-7.74174
21.333
-8.14736
-0.116291
10.719
21.1284
-12.0573
-10.1968
-6.06302
14.3218
-10.176
6.89351
6.39297
16.3048
-10.4157
-6.32527
-1.69652
-5.65519
-11.0747
-5.83948
15.3083
7.8136
-5.55075
-8.95597
7.81059
7.69934
-10.6707
16.3087
-27.2263
2.2992
-28.4861
-0.951827
-8.90043
-8.1185
-11.8022
-10.9656
-9.90352
-7.79828
-7.92168
16.6413
24.7722
12.1228
-0.285108
-0.81831
-5.6693
7.31061
-6.31557
-6.31284
24.9177
-5.72469
14.1195
-15.9065
24.3218
5.97524
-0.384706
-5.63864
16.275
2.48315
0.205596
2.45415
0.46255
-0.734015
-9.92631
-0.0889862
2.11933
15.0697
-1.28164
-1.40047
-0.99221
-0.382192
1.97136
8.05659
-1.18698
8.08402
5.59021
-0.429183
7.04131
5.49725
-3.87082
16.4794
-1.89781
23.0572
-21.9782
15.0476
15.6852
2.04575
-1.99207
12.548
-26.5184
5.79942
-1.65224
-50.4972
30.4844
30.6212
5.83207
-1.1377
-1.04116
-0.842937
33.3977
33.2722
13.1
6.08735
6.66859
-28.9754
-1.2727
16.5358
-3.17739
-4.3431
-0.0104173
-25.2832
14.3082
-1.27354
2.86796
2.69935
-2.71761
-0.0429393
-3.20401
-4.02849
-37.9949
-33.6901
-0.12165
1.8803
-0.52821
-3.73892
-1.93095
-1.87233
-0.918439
-21.9121
17.2504
-0.762481
12.5702
14.1881
-26.7709
6.29244
7.14366
18.4775
36.4106
36.4431
22.6375
-1.74918
2.60596
-20.9346
36.11
32.7393
32.8063
-24.8207
21.7684
30.5113
2.60552
15.7243
10.3777
17.1683
17.7291
12.5094
5.68743
-25.4096
4.26578
10.4139
16.2465
-31.7212
28.3004
-52.7252
18.6885
10.3037
-10.6235
7.42291
5.46278
24.4712
9.41694
24.4042
4.11095
12.403
30.6294
29.4554
-22.9954
17.44
-70.2558
-74.403
-67.1996
11.6523
-31.2735
-63.6324
-3.79815
-69.9614
16.4613
16.405
-73.7784
5.21981
-39.7426
-70.762
-37.7682
-71.8989
-39.4643
21.1301
-23.9667
-29.0566
-70.6457
4.83699
15.7604
-36.202
6.05967
-63.6396
9.84155
3.88903
-67.9241
-37.6364
-66.4335
-23.767
5.03616
20.521
35.3506
36.7058
11.8178
36.8292
36.8825
36.4712
36.3869
-24.4849
28.2397
20.669
21.9755
11.5408
36.0429
36.0743
18.1162
-23.9521
3.25349
-30.5398
-56.6129
-50.4879
36.1272
35.8082
35.3652
35.4353
36.1432
35.5782
33.0954
37.3523
35.3793
35.9902
35.6226
34.1764
34.3128
35.8381
35.2957
