# vtk DataFile Version 3.0
vtk output at time 80
ASCII
DATASET UNSTRUCTURED_GRID
POINTS 626 float
-3.68058e-05 0.000978749 0 3.68058e-05 0.000978749 0 -0.000829194 0.00052125 0 
-0.0008235 0.0005 0 -0.000866 0.0004575 0 -0.000866 -0.0004575 0 
-0.0008235 -0.0005 0 -0.000829194 -0.00052125 0 -3.68058e-05 -0.000978749 0 
3.68058e-05 -0.000978749 0 0.000829194 -0.00052125 0 0.000866 -0.0004575 0 
0.000866 0.0004575 0 0.000829194 0.00052125 0 8.5e-05 0 0 
-3.68058e-05 0.000978749 -0.001 3.68058e-05 0.000978749 -0.001 -0.000829194 0.00052125 -0.001 
-0.0008235 0.0005 -0.001 -0.000866 0.0004575 -0.001 -0.000866 -0.0004575 -0.001 
-0.0008235 -0.0005 -0.001 -0.000829194 -0.00052125 -0.001 -3.68058e-05 -0.000978749 -0.001 
3.68058e-05 -0.000978749 -0.001 0.000829194 -0.00052125 -0.001 0.000866 -0.0004575 -0.001 
0.000866 0.0004575 -0.001 0.000829194 0.00052125 -0.001 8.5e-05 0 -0.001 
8.46223e-17 0.0009575 0 -0.000715996 0.000586607 0 -0.000602797 0.000651965 0 
-0.000489599 0.000717321 0 -0.000376401 0.000782678 0 -0.000263202 0.000848036 0 
-0.000150004 0.000913393 0 -0.000835948 0.000469948 0 -0.000866 -0.000326786 0 
-0.000866 -0.000196071 0 -0.000866 -6.53571e-05 0 -0.000866 6.53571e-05 0 
-0.000866 0.000196071 0 -0.000866 0.000326786 0 -0.000835948 -0.000469948 0 
-0.000150004 -0.000913393 0 -0.000263202 -0.000848036 0 -0.000376401 -0.000782678 0 
-0.000489599 -0.000717321 0 -0.000602797 -0.000651965 0 -0.000715996 -0.000586607 0 
8.47648e-17 -0.0009575 0 0.000715996 -0.000586607 0 0.000602797 -0.000651965 0 
0.000489599 -0.000717321 0 0.000376401 -0.000782678 0 0.000263202 -0.000848036 0 
0.000150004 -0.000913393 0 0.000829194 -0.00047875 0 0.000866 0.000326786 0 
0.000866 0.000196071 0 0.000866 6.53571e-05 0 0.000866 -6.53571e-05 0 
0.000866 -0.000196071 0 0.000866 -0.000326786 0 0.000829194 0.00047875 0 
0.000150004 0.000913393 0 0.000263202 0.000848036 0 0.000376401 0.000782678 0 
0.000489599 0.000717321 0 0.000602797 0.000651965 0 0.000715996 0.000586607 0 
5.29966e-05 6.64557e-05 0 -1.89143e-05 8.28689e-05 0 -7.65824e-05 3.68801e-05 0 
-7.65824e-05 -3.68801e-05 0 -1.89143e-05 -8.28689e-05 0 5.29966e-05 -6.64557e-05 0 
8.46223e-17 0.0009575 -0.001 -0.000715996 0.000586607 -0.001 -0.000602797 0.000651965 -0.001 
-0.000489599 0.000717321 -0.001 -0.000376401 0.000782678 -0.001 -0.000263202 0.000848036 -0.001 
-0.000150004 0.000913393 -0.001 -0.000835948 0.000469948 -0.001 -0.000866 -0.000326786 -0.001 
-0.000866 -0.000196071 -0.001 -0.000866 -6.53571e-05 -0.001 -0.000866 6.53571e-05 -0.001 
-0.000866 0.000196071 -0.001 -0.000866 0.000326786 -0.001 -0.000835948 -0.000469948 -0.001 
-0.000150004 -0.000913393 -0.001 -0.000263202 -0.000848036 -0.001 -0.000376401 -0.000782678 -0.001 
-0.000489599 -0.000717321 -0.001 -0.000602797 -0.000651965 -0.001 -0.000715996 -0.000586607 -0.001 
8.47648e-17 -0.0009575 -0.001 0.000715996 -0.000586607 -0.001 0.000602797 -0.000651965 -0.001 
0.000489599 -0.000717321 -0.001 0.000376401 -0.000782678 -0.001 0.000263202 -0.000848036 -0.001 
0.000150004 -0.000913393 -0.001 0.000829194 -0.00047875 -0.001 0.000866 0.000326786 -0.001 
0.000866 0.000196071 -0.001 0.000866 6.53571e-05 -0.001 0.000866 -6.53571e-05 -0.001 
0.000866 -0.000196071 -0.001 0.000866 -0.000326786 -0.001 0.000829194 0.00047875 -0.001 
0.000150004 0.000913393 -0.001 0.000263202 0.000848036 -0.001 0.000376401 0.000782678 -0.001 
0.000489599 0.000717321 -0.001 0.000602797 0.000651965 -0.001 0.000715996 0.000586607 -0.001 
5.29966e-05 6.64557e-05 -0.001 -1.89143e-05 8.28689e-05 -0.001 -7.65824e-05 3.68801e-05 -0.001 
-7.65824e-05 -3.68801e-05 -0.001 -1.89143e-05 -8.28689e-05 -0.001 5.29966e-05 -6.64557e-05 -0.001 
0.000131234 6.38474e-05 0 0.00012964 -6.2443e-05 0 3.13827e-05 0.0001394 0 
3.12554e-05 -0.000136939 0 -0.000140461 8.25467e-19 0 -8.90565e-05 -0.000102707 0 
-9.04142e-05 0.000102872 0 -0.000765769 -0.00025965 0 -0.000756873 0.000262774 0 
-0.00015609 0.000787505 0 -0.000155807 -0.00079355 0 0.000605069 0.000528035 0 
0.000608694 -0.00052497 0 0.000744069 0.000116929 0 -0.000494418 0.000596218 0 
-0.000483866 -0.000584648 0 0.000269496 0.000702219 0 0.000263201 -0.000717324 0 
0.000754429 -0.000127825 0 -0.000748858 5.84659e-07 0 -0.000747838 0.000373886 0 
-0.0006542 0.000324842 0 -0.000645137 0.000210123 0 -0.000550884 0.000274171 0 
-0.000538857 0.000163195 0 -0.00045062 0.000224461 0 -0.000438393 0.000123907 0 
-0.000354088 0.000181668 0 -0.000363908 0.000282171 0 -0.000270361 0.000239477 0 
-0.000279138 0.000337653 0 -0.000188888 0.000294791 0 -0.000196448 0.000393271 0 
-0.000104767 0.000348259 0 -0.000113332 0.000449012 0 -2.01066e-05 0.000403223 0 
-2.89189e-05 0.000507105 0 6.9524e-05 0.000461596 0 -0.000213644 0.000490203 0 
7.33757e-05 0.000357726 0 0.000163331 0.00041299 0 0.000163359 0.000313022 0 
0.000248077 0.000366368 0 0.000250914 0.000265758 0 0.000335709 0.000322266 0 
0.000340555 0.000218148 0 0.000427299 0.000276717 0 0.000431508 0.000173093 0 
0.000328731 0.000425633 0 0.00034586 0.000114823 0 0.000435362 7.05241e-05 0 
0.000350892 1.5455e-05 0 0.000441547 -3.11896e-05 0 0.000353547 -8.47783e-05 0 
0.000445767 -0.000132964 0 0.000356135 -0.000186358 0 0.000449094 -0.000234674 0 
0.000359978 -0.000287876 0 0.00026856 -0.000240545 0 0.000271895 -0.000341045 0 
0.000181792 -0.00029305 0 0.00018533 -0.000392851 0 9.75701e-05 -0.00034483 0 
9.98764e-05 -0.000444884 0 8.75116e-06 -0.000396343 0 1.20916e-05 -0.000500496 0 
-7.83929e-05 -0.000449843 0 -8.1471e-05 -0.000347249 0 -0.000171566 -0.000403733 0 
-0.000169889 -0.000298891 0 -0.000259867 -0.000354132 0 -0.000257696 -0.000249137 0 
-0.00034313 -0.000299896 0 -0.000344514 -0.000199127 0 -0.000434309 -0.000250039 0 
-0.000169832 -0.000505815 0 -0.000435227 -0.000146227 0 0.000280331 -0.000442424 0 
-0.000340889 8.76793e-05 0 -0.000515252 4.06198e-05 0 6.50491e-05 0.000568253 0 
0.00053278 1.74743e-05 0 0.000522071 0.000229831 0 -0.00037162 0.000391659 0 
-0.000255272 -0.000150439 0 -0.000442893 -0.000350705 0 0.000450067 -0.000332559 0 
0.000545175 -0.000276306 0 -0.000527797 -0.000197598 0 0.000105306 -0.000551033 0 
1.45836e-05 -0.000609147 0 0.00017145 0.000214453 0 0.000515525 0.000341711 0 
0.000636086 0.000290368 0 -0.000558657 0.000404468 0 -4.01232e-05 0.000616718 0 
6.60192e-05 0.000696422 0 -0.000101806 0.0002546 0 0.000271142 -3.88908e-05 0 
0.000179455 -0.00018534 0 -8.79553e-05 -0.000254307 0 -0.000749267 -0.000373451 0 
-0.000655941 -0.000323397 0 0.000709746 0.000466718 0 0.000698426 -0.000473086 0 
-5.25801e-05 -0.00084886 0 -4.93005e-05 0.000848038 0 0.000617396 -0.000413362 0 
0.000702056 -0.000369817 0 0.000131459 -0.000679171 0 2.48171e-05 -0.000715924 0 
-0.000664217 -0.00042729 0 -0.000528828 -8.80444e-05 0 -0.000611101 -0.000136672 0 
-0.000426972 -4.45841e-05 0 0.000800669 0.000378216 0 0.000821144 -0.000415062 0 
7.2799e-05 0.00088254 0 6.81831e-05 -0.00087503 0 0.000104963 -0.000788946 0 
-7.40696e-05 -0.000660054 0 0.000126061 0.000809943 0 0.000764361 0.000295682 0 
0.000166862 0.000630623 0 0.000516462 -0.00046707 0 -0.000563585 -0.000389606 0 
-0.000622598 -1.40238e-05 0 0.000629891 0.000171529 0 2.5614e-06 -0.000299794 0 
8.6901e-05 -0.00024329 0 0.000272045 -0.000136982 0 -0.00075148 0.000138321 0 
0.000209366 -0.000599589 0 0.000324913 -0.000630055 0 0.000614044 0.00041245 0 
0.00049651 -0.000573327 0 0.000394822 -0.000507321 0 -0.000173714 -0.000206698 0 
0.000264897 5.63722e-05 0 0.000247997 0.000152811 0 -4.63327e-05 -0.000920208 0 
9.18688e-05 0.000258626 0 -5.54111e-06 0.000290558 0 -0.000184219 0.000201484 0 
-0.000263559 0.000142267 0 -0.000256427 5.13624e-05 0 -0.000336894 -2.06179e-06 0 
-0.000228499 -4.2388e-05 0 -0.00017589 0.000106626 0 -0.000769947 -0.000133367 0 
0.000767591 -0.000500293 0 -5.05874e-05 0.000737978 0 0.000754456 -3.51771e-06 0 
0.00064691 -6.15298e-05 0 0.000630483 -0.00018134 0 0.000749187 -0.000265543 0 
-0.000760805 -0.000462521 0 0.000638155 6.09315e-05 0 -4.46661e-05 0.000922995 0 
-2.37945e-05 0.000207237 0 0.000776979 0.000500181 0 -0.000605691 0.000527596 0 
-0.000377914 -0.000653727 0 -0.000372325 -0.000526022 0 -0.000275829 -0.000589621 0 
-0.000254285 -0.000710579 0 -0.000379307 0.000656222 0 -0.000379818 0.00052718 0 
-0.000266817 0.000721555 0 -0.000150544 0.000668174 0 0.000381963 0.00065079 0 
0.000493113 0.000590432 0 0.000505439 0.000463708 0 -0.000269094 0.000596608 0 
0.000385815 0.000532045 0 0.000283599 0.0005899 0 -0.000176405 -0.000108505 0 
-0.000278769 -0.000475415 0 0.000185395 2.33014e-06 0 0.000186773 0.000517571 0 
0.000540032 -8.68444e-05 0 -0.000600694 -0.000514877 0 -0.00063703 8.98033e-05 0 
-0.000459677 0.000335729 0 -0.000338836 -0.000100751 0 -0.000457327 0.000432721 0 
-8.72007e-06 -0.000210238 0 0.000156073 0.000129496 0 -7.70692e-05 -0.000555049 0 
0.00036091 -0.000389728 0 0.000531628 0.000120564 0 -0.000285451 0.000435562 0 
0.000192719 -0.000494604 0 0.00041642 0.00039368 0 -0.000135943 0.000554637 0 
-0.000170665 -0.000610079 0 -0.000666304 0.000434981 0 -0.000758736 0.000479231 0 
-0.000470189 -0.000458901 0 0.000203433 -8.59809e-05 0 0.000101846 0.000170114 0 
-0.00035513 -0.00040726 0 0.000100184 -0.000165831 0 2.96286e-05 0.00081537 0 
0.000720946 0.000381836 0 -0.000539809 -0.000292001 0 0.00052211 -0.000182426 0 
-6.41339e-05 -0.000753908 0 0.000638039 -0.000299861 0 -0.000605136 -0.000230182 0 
-3.41638e-05 -0.000145561 0 -0.000104037 0.000172396 0 -0.000808575 -0.00042774 0 
-0.000807207 -0.000465052 0 -0.00080817 0.000429771 0 -0.000806589 0.000469738 0 
-9.50634e-05 -0.000178909 0 0.000247777 0.000445058 0 1.48293e-05 -0.000814201 0 
-4.11555e-05 0.000140955 0 0.000276104 -0.000536845 0 0.000765969 -0.000436638 0 
0.000780871 -0.000362769 0 0.000424176 -0.000642018 0 0.00053413 -0.000368009 0 
-0.000416333 4.17911e-05 0 -0.000133891 -6.23822e-05 0 4.2574e-05 0.000206312 0 
0.000141163 -0.000121542 0 0.000707423 0.000212137 0 0.000172327 0.000723882 0 
7.72652e-06 -0.00090254 0 -0.000134435 5.66935e-05 0 -0.000188826 3.70894e-05 0 
0.000197119 8.09714e-05 0 1.27801e-05 0.000917296 0 0.000800767 0.00044758 0 
-0.000686682 0.000507104 0 9.35831e-05 0.000110457 0 -0.000696793 -0.000509595 0 
-0.00068446 -8.52012e-05 0 -0.000691033 -0.000201242 0 5.24052e-05 -0.000189075 0 
-0.000151818 -0.000701092 0 -0.000296988 0.000518087 0 9.31023e-05 -0.000108117 0 
0.00044261 -0.000416726 0 0.000197044 -0.000784423 0 -0.000516861 0.000504567 0 
0.000298997 0.000502377 0 0.000131234 6.38474e-05 -0.001 0.00012964 -6.2443e-05 -0.001 
3.13827e-05 0.0001394 -0.001 3.12554e-05 -0.000136939 -0.001 -0.000140461 8.25467e-19 -0.001 
-8.90565e-05 -0.000102707 -0.001 -9.04142e-05 0.000102872 -0.001 -0.000765769 -0.00025965 -0.001 
-0.000756873 0.000262774 -0.001 -0.00015609 0.000787505 -0.001 -0.000155807 -0.00079355 -0.001 
0.000605069 0.000528035 -0.001 0.000608694 -0.00052497 -0.001 0.000744069 0.000116929 -0.001 
-0.000494418 0.000596218 -0.001 -0.000483866 -0.000584648 -0.001 0.000269496 0.000702219 -0.001 
0.000263201 -0.000717324 -0.001 0.000754429 -0.000127825 -0.001 -0.000748858 5.84659e-07 -0.001 
-0.000747838 0.000373886 -0.001 -0.0006542 0.000324842 -0.001 -0.000645137 0.000210123 -0.001 
-0.000550884 0.000274171 -0.001 -0.000538857 0.000163195 -0.001 -0.00045062 0.000224461 -0.001 
-0.000438393 0.000123907 -0.001 -0.000354088 0.000181668 -0.001 -0.000363908 0.000282171 -0.001 
-0.000270361 0.000239477 -0.001 -0.000279138 0.000337653 -0.001 -0.000188888 0.000294791 -0.001 
-0.000196448 0.000393271 -0.001 -0.000104767 0.000348259 -0.001 -0.000113332 0.000449012 -0.001 
-2.01066e-05 0.000403223 -0.001 -2.89189e-05 0.000507105 -0.001 6.9524e-05 0.000461596 -0.001 
-0.000213644 0.000490203 -0.001 7.33757e-05 0.000357726 -0.001 0.000163331 0.00041299 -0.001 
0.000163359 0.000313022 -0.001 0.000248077 0.000366368 -0.001 0.000250914 0.000265758 -0.001 
0.000335709 0.000322266 -0.001 0.000340555 0.000218148 -0.001 0.000427299 0.000276717 -0.001 
0.000431508 0.000173093 -0.001 0.000328731 0.000425633 -0.001 0.00034586 0.000114823 -0.001 
0.000435362 7.05241e-05 -0.001 0.000350892 1.5455e-05 -0.001 0.000441547 -3.11896e-05 -0.001 
0.000353547 -8.47783e-05 -0.001 0.000445767 -0.000132964 -0.001 0.000356135 -0.000186358 -0.001 
0.000449094 -0.000234674 -0.001 0.000359978 -0.000287876 -0.001 0.00026856 -0.000240545 -0.001 
0.000271895 -0.000341045 -0.001 0.000181792 -0.00029305 -0.001 0.00018533 -0.000392851 -0.001 
9.75701e-05 -0.00034483 -0.001 9.98764e-05 -0.000444884 -0.001 8.75116e-06 -0.000396343 -0.001 
1.20916e-05 -0.000500496 -0.001 -7.83929e-05 -0.000449843 -0.001 -8.1471e-05 -0.000347249 -0.001 
-0.000171566 -0.000403733 -0.001 -0.000169889 -0.000298891 -0.001 -0.000259867 -0.000354132 -0.001 
-0.000257696 -0.000249137 -0.001 -0.00034313 -0.000299896 -0.001 -0.000344514 -0.000199127 -0.001 
-0.000434309 -0.000250039 -0.001 -0.000169832 -0.000505815 -0.001 -0.000435227 -0.000146227 -0.001 
0.000280331 -0.000442424 -0.001 -0.000340889 8.76793e-05 -0.001 -0.000515252 4.06198e-05 -0.001 
6.50491e-05 0.000568253 -0.001 0.00053278 1.74743e-05 -0.001 0.000522071 0.000229831 -0.001 
-0.00037162 0.000391659 -0.001 -0.000255272 -0.000150439 -0.001 -0.000442893 -0.000350705 -0.001 
0.000450067 -0.000332559 -0.001 0.000545175 -0.000276306 -0.001 -0.000527797 -0.000197598 -0.001 
0.000105306 -0.000551033 -0.001 1.45836e-05 -0.000609147 -0.001 0.00017145 0.000214453 -0.001 
0.000515525 0.000341711 -0.001 0.000636086 0.000290368 -0.001 -0.000558657 0.000404468 -0.001 
-4.01232e-05 0.000616718 -0.001 6.60192e-05 0.000696422 -0.001 -0.000101806 0.0002546 -0.001 
0.000271142 -3.88908e-05 -0.001 0.000179455 -0.00018534 -0.001 -8.79553e-05 -0.000254307 -0.001 
-0.000749267 -0.000373451 -0.001 -0.000655941 -0.000323397 -0.001 0.000709746 0.000466718 -0.001 
0.000698426 -0.000473086 -0.001 -5.25801e-05 -0.00084886 -0.001 -4.93005e-05 0.000848038 -0.001 
0.000617396 -0.000413362 -0.001 0.000702056 -0.000369817 -0.001 0.000131459 -0.000679171 -0.001 
2.48171e-05 -0.000715924 -0.001 -0.000664217 -0.00042729 -0.001 -0.000528828 -8.80444e-05 -0.001 
-0.000611101 -0.000136672 -0.001 -0.000426972 -4.45841e-05 -0.001 0.000800669 0.000378216 -0.001 
0.000821144 -0.000415062 -0.001 7.2799e-05 0.00088254 -0.001 6.81831e-05 -0.00087503 -0.001 
0.000104963 -0.000788946 -0.001 -7.40696e-05 -0.000660054 -0.001 0.000126061 0.000809943 -0.001 
0.000764361 0.000295682 -0.001 0.000166862 0.000630623 -0.001 0.000516462 -0.00046707 -0.001 
-0.000563585 -0.000389606 -0.001 -0.000622598 -1.40238e-05 -0.001 0.000629891 0.000171529 -0.001 
2.5614e-06 -0.000299794 -0.001 8.6901e-05 -0.00024329 -0.001 0.000272045 -0.000136982 -0.001 
-0.00075148 0.000138321 -0.001 0.000209366 -0.000599589 -0.001 0.000324913 -0.000630055 -0.001 
0.000614044 0.00041245 -0.001 0.00049651 -0.000573327 -0.001 0.000394822 -0.000507321 -0.001 
-0.000173714 -0.000206698 -0.001 0.000264897 5.63722e-05 -0.001 0.000247997 0.000152811 -0.001 
-4.63327e-05 -0.000920208 -0.001 9.18688e-05 0.000258626 -0.001 -5.54111e-06 0.000290558 -0.001 
-0.000184219 0.000201484 -0.001 -0.000263559 0.000142267 -0.001 -0.000256427 5.13624e-05 -0.001 
-0.000336894 -2.06179e-06 -0.001 -0.000228499 -4.2388e-05 -0.001 -0.00017589 0.000106626 -0.001 
-0.000769947 -0.000133367 -0.001 0.000767591 -0.000500293 -0.001 -5.05874e-05 0.000737978 -0.001 
0.000754456 -3.51771e-06 -0.001 0.00064691 -6.15298e-05 -0.001 0.000630483 -0.00018134 -0.001 
0.000749187 -0.000265543 -0.001 -0.000760805 -0.000462521 -0.001 0.000638155 6.09315e-05 -0.001 
-4.46661e-05 0.000922995 -0.001 -2.37945e-05 0.000207237 -0.001 0.000776979 0.000500181 -0.001 
-0.000605691 0.000527596 -0.001 -0.000377914 -0.000653727 -0.001 -0.000372325 -0.000526022 -0.001 
-0.000275829 -0.000589621 -0.001 -0.000254285 -0.000710579 -0.001 -0.000379307 0.000656222 -0.001 
-0.000379818 0.00052718 -0.001 -0.000266817 0.000721555 -0.001 -0.000150544 0.000668174 -0.001 
0.000381963 0.00065079 -0.001 0.000493113 0.000590432 -0.001 0.000505439 0.000463708 -0.001 
-0.000269094 0.000596608 -0.001 0.000385815 0.000532045 -0.001 0.000283599 0.0005899 -0.001 
-0.000176405 -0.000108505 -0.001 -0.000278769 -0.000475415 -0.001 0.000185395 2.33014e-06 -0.001 
0.000186773 0.000517571 -0.001 0.000540032 -8.68444e-05 -0.001 -0.000600694 -0.000514877 -0.001 
-0.00063703 8.98033e-05 -0.001 -0.000459677 0.000335729 -0.001 -0.000338836 -0.000100751 -0.001 
-0.000457327 0.000432721 -0.001 -8.72007e-06 -0.000210238 -0.001 0.000156073 0.000129496 -0.001 
-7.70692e-05 -0.000555049 -0.001 0.00036091 -0.000389728 -0.001 0.000531628 0.000120564 -0.001 
-0.000285451 0.000435562 -0.001 0.000192719 -0.000494604 -0.001 0.00041642 0.00039368 -0.001 
-0.000135943 0.000554637 -0.001 -0.000170665 -0.000610079 -0.001 -0.000666304 0.000434981 -0.001 
-0.000758736 0.000479231 -0.001 -0.000470189 -0.000458901 -0.001 0.000203433 -8.59809e-05 -0.001 
0.000101846 0.000170114 -0.001 -0.00035513 -0.00040726 -0.001 0.000100184 -0.000165831 -0.001 
2.96286e-05 0.00081537 -0.001 0.000720946 0.000381836 -0.001 -0.000539809 -0.000292001 -0.001 
0.00052211 -0.000182426 -0.001 -6.41339e-05 -0.000753908 -0.001 0.000638039 -0.000299861 -0.001 
-0.000605136 -0.000230182 -0.001 -3.41638e-05 -0.000145561 -0.001 -0.000104037 0.000172396 -0.001 
-0.000808575 -0.00042774 -0.001 -0.000807207 -0.000465052 -0.001 -0.00080817 0.000429771 -0.001 
-0.000806589 0.000469738 -0.001 -9.50634e-05 -0.000178909 -0.001 0.000247777 0.000445058 -0.001 
1.48293e-05 -0.000814201 -0.001 -4.11555e-05 0.000140955 -0.001 0.000276104 -0.000536845 -0.001 
0.000765969 -0.000436638 -0.001 0.000780871 -0.000362769 -0.001 0.000424176 -0.000642018 -0.001 
0.00053413 -0.000368009 -0.001 -0.000416333 4.17911e-05 -0.001 -0.000133891 -6.23822e-05 -0.001 
4.2574e-05 0.000206312 -0.001 0.000141163 -0.000121542 -0.001 0.000707423 0.000212137 -0.001 
0.000172327 0.000723882 -0.001 7.72652e-06 -0.00090254 -0.001 -0.000134435 5.66935e-05 -0.001 
-0.000188826 3.70894e-05 -0.001 0.000197119 8.09714e-05 -0.001 1.27801e-05 0.000917296 -0.001 
0.000800767 0.00044758 -0.001 -0.000686682 0.000507104 -0.001 9.35831e-05 0.000110457 -0.001 
-0.000696793 -0.000509595 -0.001 -0.00068446 -8.52012e-05 -0.001 -0.000691033 -0.000201242 -0.001 
5.24052e-05 -0.000189075 -0.001 -0.000151818 -0.000701092 -0.001 -0.000296988 0.000518087 -0.001 
9.31023e-05 -0.000108117 -0.001 0.00044261 -0.000416726 -0.001 0.000197044 -0.000784423 -0.001 
-0.000516861 0.000504567 -0.001 0.000298997 0.000502377 -0.001 

CELLS 563 3941
6 14 304 127 29 554 377 
6 143 259 55 393 509 103 
6 300 319 174 550 569 424 
6 259 349 55 509 599 103 
6 50 365 307 98 615 557 
6 299 320 164 549 570 414 
6 126 304 14 376 554 29 
6 298 319 300 548 569 550 
6 205 240 238 455 490 488 
6 257 308 145 507 558 395 
6 130 352 273 380 602 523 
6 295 320 299 545 570 549 
6 324 327 289 574 577 539 
6 235 258 143 485 508 393 
6 50 307 49 98 557 97 
6 207 283 279 457 533 529 
6 143 373 235 393 623 485 
6 145 308 252 395 558 502 
6 194 303 196 444 553 446 
6 279 306 207 529 556 457 
6 206 305 163 456 555 413 
6 51 357 9 99 607 24 
6 238 252 205 488 502 455 
6 293 317 209 543 567 459 
6 207 316 283 457 566 533 
6 142 301 249 392 551 499 
6 273 359 130 523 609 380 
6 211 327 324 461 577 574 
6 169 265 217 419 515 467 
6 7 365 50 22 615 98 
6 283 316 253 533 566 503 
6 159 268 223 409 518 473 
6 274 337 132 524 587 382 
6 232 361 329 482 611 579 
6 231 266 45 481 516 93 
6 229 362 330 479 612 580 
6 9 244 57 24 494 105 
6 230 276 52 480 526 100 
6 209 311 293 459 561 543 
6 131 342 302 381 592 552 
6 270 271 204 520 521 454 
6 66 243 1 114 493 16 
6 59 241 12 107 491 27 
6 280 306 279 530 556 529 
6 269 337 274 519 587 524 
6 179 256 224 429 506 474 
6 163 305 166 413 555 416 
6 201 303 194 451 553 444 
6 280 332 306 530 582 556 
6 186 255 225 436 505 475 
6 210 310 273 460 560 523 
6 153 270 204 403 520 454 
6 136 231 45 386 481 93 
6 171 265 169 421 515 419 
6 138 230 52 388 480 100 
6 225 354 325 475 604 575 
6 36 284 232 84 534 482 
6 161 268 159 411 518 409 
6 71 286 229 119 536 479 
6 290 303 201 540 553 451 
6 139 355 60 389 605 108 
6 60 355 248 108 605 498 
6 273 352 302 523 602 552 
6 235 373 245 485 623 495 
6 67 356 247 115 606 497 
6 221 295 277 471 545 527 
6 142 356 67 392 606 115 
6 139 283 253 389 533 503 
6 203 315 262 453 565 512 
6 41 257 145 89 507 395 
6 36 232 135 84 482 385 
6 71 229 137 119 479 387 
6 254 255 188 504 505 438 
6 233 350 334 483 600 584 
6 262 346 203 512 596 453 
6 304 325 127 554 575 377 
6 222 329 247 472 579 497 
6 218 298 260 468 548 510 
6 290 321 291 540 571 541 
6 272 310 240 522 560 490 
6 269 274 270 519 524 520 
6 244 245 57 494 495 105 
6 49 307 141 97 557 391 
6 225 325 256 475 575 506 
6 273 310 272 523 560 522 
6 312 368 255 562 618 505 
6 249 305 206 499 555 456 
6 228 331 251 478 581 501 
6 302 342 263 552 592 513 
6 338 339 44 588 589 92 
6 190 254 188 440 504 438 
6 37 341 340 85 591 590 
6 138 233 230 388 483 480 
6 228 335 331 478 585 581 
6 181 256 179 431 506 429 
6 195 263 226 445 513 476 
6 268 285 223 518 535 473 
6 290 291 288 540 541 538 
6 219 330 248 469 580 498 
6 201 321 290 451 571 540 
6 240 310 202 490 560 452 
6 188 255 186 438 505 436 
6 270 274 271 520 524 521 
6 262 349 259 512 599 509 
6 141 324 289 391 574 539 
6 296 301 142 546 551 392 
6 247 356 222 497 606 472 
6 239 252 238 489 502 488 
6 254 312 255 504 562 505 
6 54 261 53 102 511 101 
6 289 327 303 539 577 553 
6 268 353 285 518 603 535 
6 273 302 210 523 552 460 
6 292 299 293 542 549 543 
6 278 283 139 528 533 389 
6 175 265 171 425 515 421 
6 227 338 38 477 588 86 
6 264 360 265 514 610 515 
6 43 340 146 91 590 396 
6 165 268 161 415 518 411 
6 205 351 240 455 601 490 
6 64 281 63 112 531 111 
6 288 291 47 538 541 95 
6 135 295 294 385 545 544 
6 42 257 41 90 507 89 
6 245 373 57 495 623 105 
6 31 363 323 79 613 573 
6 292 293 140 542 543 390 
6 267 353 268 517 603 518 
6 155 270 153 405 520 403 
6 244 344 245 494 594 495 
6 61 278 139 109 528 389 
6 135 294 35 385 544 83 
6 69 297 296 117 547 546 
6 186 225 184 436 475 434 
6 329 361 243 579 611 493 
6 255 328 225 505 578 475 
6 213 332 280 463 582 530 
6 39 275 133 87 525 383 
6 330 362 241 580 612 491 
6 195 226 193 445 476 443 
6 211 324 251 461 574 501 
6 151 153 152 401 403 402 
6 295 299 294 545 549 544 
6 265 313 217 515 563 467 
6 258 259 143 508 509 393 
6 251 331 211 501 581 461 
6 149 151 150 399 401 400 
6 293 370 317 543 620 567 
6 153 204 152 403 454 402 
6 151 152 150 401 402 400 
6 33 292 140 81 542 390 
6 210 263 197 460 513 447 
6 301 305 249 551 555 499 
6 298 300 297 548 550 547 
6 68 296 142 116 546 392 
6 321 369 291 571 619 541 
6 179 224 177 429 474 427 
6 167 267 165 417 517 415 
6 259 346 262 509 596 512 
6 303 327 196 553 577 446 
6 269 270 155 519 520 405 
6 265 360 313 515 610 563 
6 223 269 157 473 519 407 
6 157 269 155 407 519 405 
6 144 279 278 394 529 528 
6 169 217 167 419 467 417 
6 177 264 175 427 514 425 
6 267 268 165 517 518 415 
6 159 223 157 409 473 407 
6 232 277 135 482 527 385 
6 193 254 190 443 504 440 
6 217 267 167 467 517 417 
6 249 356 142 499 606 392 
6 184 256 181 434 506 431 
6 248 355 219 498 605 469 
6 229 260 137 479 510 387 
6 149 150 148 399 400 398 
6 64 348 281 112 598 531 
6 311 374 293 561 624 543 
6 264 265 175 514 515 425 
6 297 300 296 547 550 546 
6 141 289 288 391 539 538 
6 197 263 195 447 513 445 
6 218 260 219 468 510 469 
6 224 264 177 474 514 427 
6 137 298 297 387 548 547 
6 277 295 135 527 545 385 
6 133 228 227 383 478 477 
6 261 349 262 511 599 512 
6 221 277 222 471 527 472 
6 256 325 224 506 575 474 
6 199 210 197 449 460 447 
6 226 254 193 476 504 443 
6 144 278 62 394 528 110 
6 279 283 278 529 533 528 
6 289 290 288 539 540 538 
6 137 297 70 387 547 118 
6 34 294 292 82 544 542 
6 235 236 216 485 486 466 
6 141 288 48 391 538 96 
6 178 306 180 428 556 430 
6 185 186 184 435 436 434 
6 63 281 144 111 531 394 
6 225 256 184 475 506 434 
6 46 291 136 94 541 386 
6 147 149 148 397 399 398 
6 271 272 204 521 522 454 
6 233 334 234 483 584 484 
6 145 275 40 395 525 88 
6 220 322 287 470 572 537 
6 280 334 213 530 584 463 
6 144 280 279 394 530 529 
6 140 287 32 390 537 80 
6 154 155 153 404 405 403 
6 334 350 213 584 600 463 
6 176 177 175 426 427 425 
6 260 298 137 510 548 387 
6 33 140 32 81 390 80 
6 49 141 48 97 391 96 
6 56 143 55 104 393 103 
6 68 142 67 116 392 115 
6 63 144 62 111 394 110 
6 61 139 60 109 389 108 
6 148 308 257 398 558 507 
6 71 137 70 119 387 118 
6 53 138 52 101 388 100 
6 46 136 45 94 386 93 
6 36 135 35 84 385 83 
6 43 146 134 91 396 384 
6 133 227 38 383 477 86 
6 192 193 190 442 443 440 
6 293 374 140 543 624 390 
6 34 292 33 82 542 81 
6 207 306 178 457 556 428 
6 43 134 42 91 384 90 
6 39 133 38 87 383 86 
6 41 145 40 89 395 88 
6 194 195 193 444 445 443 
6 69 296 68 117 546 116 
6 294 299 292 544 549 542 
6 173 175 171 423 425 421 
6 260 330 219 510 580 469 
6 183 184 181 433 434 431 
6 134 257 42 384 507 90 
6 55 349 54 103 599 102 
6 163 165 161 413 415 411 
6 166 167 165 416 417 415 
6 210 302 263 460 552 513 
6 271 273 272 521 523 522 
6 53 261 138 101 511 388 
6 217 326 267 467 576 517 
6 289 303 290 539 553 540 
6 178 179 177 428 429 427 
6 238 240 202 488 490 452 
6 62 278 61 110 528 109 
6 35 294 34 83 544 82 
6 284 361 232 534 611 482 
6 70 297 69 118 547 117 
6 224 304 264 474 554 514 
6 156 157 155 406 407 405 
6 48 288 47 96 538 95 
6 221 320 295 471 570 545 
6 187 188 186 437 438 436 
6 47 291 46 95 541 94 
6 151 154 153 401 404 403 
6 286 362 229 536 612 479 
6 168 169 167 418 419 417 
6 40 275 39 88 525 87 
6 307 324 141 557 574 391 
6 300 301 296 550 551 546 
6 32 287 31 80 537 79 
6 147 220 149 397 470 399 
6 333 344 231 583 594 481 
6 299 370 293 549 620 543 
6 271 359 273 521 609 523 
6 224 325 304 474 575 554 
6 228 237 227 478 487 477 
6 305 375 343 555 625 593 
6 218 319 298 468 569 548 
6 240 351 272 490 601 522 
6 277 329 222 527 579 472 
6 253 355 139 503 605 389 
6 158 159 157 408 409 407 
6 236 246 216 486 496 466 
6 192 194 193 442 444 443 
6 220 309 149 470 559 399 
6 183 185 184 433 435 434 
6 196 197 195 446 447 445 
6 276 347 58 526 597 106 
6 136 333 231 386 583 481 
6 67 247 66 115 497 114 
6 60 248 59 108 498 107 
6 261 262 250 511 512 500 
6 173 176 175 423 426 425 
6 344 357 231 594 607 481 
6 144 281 280 394 531 530 
6 152 205 150 402 455 400 
6 163 166 165 413 416 415 
6 185 187 186 435 437 436 
6 233 234 230 483 484 480 
6 170 171 169 420 421 419 
6 146 147 134 396 397 384 
6 176 178 177 426 428 427 
6 285 337 223 535 587 473 
6 154 156 155 404 406 405 
6 263 342 226 513 592 476 
6 235 245 236 485 495 486 
6 160 161 159 410 411 409 
6 58 347 242 106 597 492 
6 166 168 167 416 418 417 
6 287 374 220 537 624 470 
6 189 190 188 439 440 438 
6 148 257 134 398 507 384 
6 194 196 195 444 446 445 
6 252 308 205 502 558 455 
6 285 345 337 535 595 587 
6 301 375 305 551 625 555 
6 180 181 179 430 431 429 
6 281 348 234 531 598 484 
6 198 199 197 448 449 447 
6 151 309 154 401 559 404 
6 228 367 335 478 617 585 
6 54 349 261 102 599 511 
6 156 158 157 406 408 407 
6 168 170 169 418 420 419 
6 200 202 199 450 452 449 
6 147 148 134 397 398 384 
6 158 160 159 408 410 409 
6 150 308 148 400 558 398 
6 253 316 208 503 566 458 
6 232 329 277 482 579 527 
6 178 180 179 428 430 429 
6 191 192 190 441 442 440 
6 214 238 202 464 488 452 
6 172 173 171 422 423 421 
6 187 189 188 437 439 438 
6 162 163 161 412 413 411 
6 228 251 237 478 501 487 
6 215 258 235 465 508 485 
6 182 183 181 432 433 431 
6 202 310 199 452 560 449 
6 219 253 208 469 503 458 
6 222 249 206 472 499 456 
6 196 198 197 446 448 447 
6 229 330 260 479 580 510 
6 132 358 274 382 608 524 
6 149 309 151 399 559 401 
6 226 312 254 476 562 504 
6 154 309 209 404 559 459 
6 77 129 76 125 379 124 
6 73 128 72 121 378 120 
6 76 131 75 124 381 123 
6 74 132 73 122 382 121 
6 75 130 74 123 380 122 
6 14 127 77 29 377 125 
6 72 126 14 120 376 29 
6 133 367 228 383 617 478 
6 237 282 227 487 532 477 
6 239 366 252 489 616 502 
6 200 214 202 450 464 452 
6 192 201 194 442 451 444 
6 170 172 171 420 422 421 
6 220 311 309 470 561 559 
6 198 200 199 448 450 449 
6 189 191 190 439 441 440 
6 146 323 322 396 573 572 
6 160 162 161 410 412 411 
6 251 307 237 501 557 487 
6 199 310 210 449 560 460 
6 57 373 56 105 623 104 
6 214 239 238 464 489 488 
6 182 212 183 432 462 433 
6 180 182 181 430 432 431 
6 146 322 147 396 572 397 
6 172 218 208 422 468 458 
6 172 208 173 422 458 423 
6 162 221 206 412 471 456 
6 162 206 163 412 456 413 
6 176 207 178 426 457 428 
6 272 351 204 522 601 454 
6 198 211 200 448 461 450 
6 182 213 212 432 463 462 
6 234 334 281 484 584 531 
6 154 209 156 404 459 406 
6 185 203 187 435 453 437 
6 168 174 170 418 424 420 
6 189 215 191 439 465 441 
6 215 216 191 465 466 441 
6 221 222 206 471 472 456 
6 158 164 160 408 414 410 
6 218 219 208 468 469 458 
6 205 308 150 455 558 400 
6 191 314 192 441 564 442 
6 215 235 216 465 485 466 
6 215 318 258 465 568 508 
6 152 351 205 402 601 455 
6 138 261 250 388 511 500 
6 192 314 201 442 564 451 
6 234 347 230 484 597 480 
6 226 342 312 476 592 562 
6 138 250 233 388 500 483 
6 147 322 220 397 572 470 
6 216 314 191 466 564 441 
6 306 332 180 556 582 430 
6 222 356 249 472 606 499 
6 128 345 285 378 595 535 
6 314 321 201 564 571 451 
6 212 315 183 462 565 433 
6 312 342 336 562 592 586 
6 282 339 338 532 589 588 
6 340 341 323 590 591 573 
6 309 311 209 559 561 459 
6 183 315 185 433 565 435 
6 208 316 173 458 566 423 
6 173 316 176 423 566 426 
6 3 341 37 18 591 85 
6 44 339 6 92 589 21 
6 252 366 145 502 616 395 
6 246 321 314 496 571 564 
6 246 314 216 496 564 466 
6 126 364 313 376 614 563 
6 156 317 158 406 567 408 
6 275 367 133 525 617 383 
6 176 316 207 426 566 457 
6 185 315 203 435 565 453 
6 180 332 182 430 582 432 
6 302 352 131 552 602 381 
6 251 324 307 501 574 557 
6 187 318 189 437 568 439 
6 172 319 218 422 569 468 
6 162 320 221 412 570 471 
6 305 343 166 555 593 416 
6 170 319 172 420 569 422 
6 158 317 164 408 567 414 
6 209 317 156 459 567 406 
6 285 353 128 535 603 378 
6 223 337 269 473 587 519 
6 160 320 162 410 570 412 
6 211 331 200 461 581 450 
6 174 319 170 424 569 420 
6 203 318 187 453 568 437 
6 189 318 215 439 568 465 
6 198 327 211 448 577 461 
6 164 320 160 414 570 410 
6 326 353 267 576 603 517 
6 236 344 333 486 594 583 
6 196 327 198 446 577 448 
6 219 355 253 469 605 503 
6 281 334 280 531 584 530 
6 274 359 271 524 609 521 
6 164 370 299 414 620 549 
6 174 375 300 424 625 550 
6 287 363 31 537 613 79 
6 243 361 1 493 611 16 
6 241 362 12 491 612 27 
6 307 365 237 557 615 487 
6 166 343 168 416 593 418 
6 200 331 214 450 581 464 
6 313 326 217 563 576 467 
6 9 357 244 24 607 494 
6 1 361 30 16 611 78 
6 12 362 65 27 612 113 
6 337 345 132 587 595 382 
6 242 348 64 492 598 112 
6 231 357 266 481 607 516 
6 182 332 213 432 582 463 
6 245 344 236 495 594 486 
6 258 346 259 508 596 509 
6 145 366 275 395 616 525 
6 291 369 136 541 619 386 
6 236 333 246 486 583 496 
6 331 335 214 581 585 464 
6 312 336 129 562 586 379 
6 315 372 262 565 622 512 
6 220 374 311 470 624 561 
6 140 374 287 390 624 537 
6 126 360 304 376 610 554 
6 230 347 276 480 597 526 
6 313 364 326 563 614 576 
6 56 373 143 104 623 393 
6 239 367 366 489 617 616 
6 204 351 152 454 601 402 
6 300 375 301 550 625 551 
6 214 335 239 464 585 489 
6 247 329 243 497 579 493 
6 262 372 250 512 622 500 
6 248 330 241 498 580 491 
6 318 346 258 568 596 508 
6 333 369 246 583 619 496 
6 282 338 227 532 588 477 
6 146 340 323 396 590 573 
6 304 360 264 554 610 514 
6 366 367 275 616 617 525 
6 129 336 76 379 586 124 
6 73 345 128 121 595 378 
6 76 336 131 124 586 381 
6 250 350 233 500 600 483 
6 129 371 328 379 621 578 
6 132 345 73 382 595 121 
6 168 343 174 418 593 424 
6 131 352 75 381 602 123 
6 66 247 243 114 497 493 
6 59 248 241 107 498 491 
6 74 358 132 122 608 382 
6 203 346 318 453 596 568 
6 313 360 126 563 610 376 
6 128 364 72 378 614 120 
6 128 353 326 378 603 576 
6 77 371 129 125 621 379 
6 129 368 312 379 618 562 
6 244 357 344 494 607 594 
6 328 354 225 578 604 475 
6 326 364 128 576 614 378 
6 75 352 130 123 602 380 
6 350 372 212 600 622 462 
6 136 369 333 386 619 583 
6 325 354 127 575 604 377 
6 213 350 212 463 600 462 
6 130 358 74 380 608 122 
6 250 372 350 500 622 600 
6 317 370 164 567 620 414 
6 72 364 126 120 614 376 
6 328 368 129 578 618 379 
6 127 371 77 377 621 125 
6 336 342 131 586 592 381 
6 212 372 315 462 622 565 
6 234 348 347 484 598 597 
6 8 266 51 23 516 99 
6 10 276 58 25 526 106 
6 246 369 321 496 619 571 
6 30 284 0 78 534 15 
6 65 286 13 113 536 28 
6 58 242 11 106 492 26 
6 266 357 51 516 607 99 
6 255 368 328 505 618 578 
6 347 348 242 597 598 492 
6 322 363 287 572 613 537 
6 323 363 322 573 613 572 
6 335 367 239 585 617 489 
6 30 361 284 78 611 534 
6 65 362 286 113 612 536 
6 237 365 282 487 615 532 
6 130 359 358 380 609 608 
6 343 375 174 593 625 424 
6 354 371 127 604 621 377 
6 328 371 354 578 621 604 
6 358 359 274 608 609 524 
6 0 284 36 15 534 84 
6 45 266 8 93 516 23 
6 52 276 10 100 526 25 
6 11 242 64 26 492 112 
6 13 286 71 28 536 119 
6 2 323 3 17 573 18 
6 31 323 2 79 573 17 
6 323 341 3 573 591 18 
6 37 340 4 85 590 19 
6 4 340 43 19 590 91 
6 38 338 5 86 588 20 
6 5 338 44 20 588 92 
6 6 282 7 21 532 22 
6 6 339 282 21 589 532 
6 282 365 7 532 615 22 

CELL_TYPES 563
13
13
13
13
13
13
13
13
13
13
13
13
13
13
13
13
13
13
13
13
13
13
13
13
13
13
13
13
13
13
13
13
13
13
13
13
13
13
13
13
13
13
13
13
13
13
13
13
13
13
13
13
13
13
13
13
13
13
13
13
13
13
13
13
13
13
13
13
13
13
13
13
13
13
13
13
13
13
13
13
13
13
13
13
13
13
13
13
13
13
13
13
13
13
13
13
13
13
13
13
13
13
13
13
13
13
13
13
13
13
13
13
13
13
13
13
13
13
13
13
13
13
13
13
13
13
13
13
13
13
13
13
13
13
13
13
13
13
13
13
13
13
13
13
13
13
13
13
13
13
13
13
13
13
13
13
13
13
13
13
13
13
13
13
13
13
13
13
13
13
13
13
13
13
13
13
13
13
13
13
13
13
13
13
13
13
13
13
13
13
13
13
13
13
13
13
13
13
13
13
13
13
13
13
13
13
13
13
13
13
13
13
13
13
13
13
13
13
13
13
13
13
13
13
13
13
13
13
13
13
13
13
13
13
13
13
13
13
13
13
13
13
13
13
13
13
13
13
13
13
13
13
13
13
13
13
13
13
13
13
13
13
13
13
13
13
13
13
13
13
13
13
13
13
13
13
13
13
13
13
13
13
13
13
13
13
13
13
13
13
13
13
13
13
13
13
13
13
13
13
13
13
13
13
13
13
13
13
13
13
13
13
13
13
13
13
13
13
13
13
13
13
13
13
13
13
13
13
13
13
13
13
13
13
13
13
13
13
13
13
13
13
13
13
13
13
13
13
13
13
13
13
13
13
13
13
13
13
13
13
13
13
13
13
13
13
13
13
13
13
13
13
13
13
13
13
13
13
13
13
13
13
13
13
13
13
13
13
13
13
13
13
13
13
13
13
13
13
13
13
13
13
13
13
13
13
13
13
13
13
13
13
13
13
13
13
13
13
13
13
13
13
13
13
13
13
13
13
13
13
13
13
13
13
13
13
13
13
13
13
13
13
13
13
13
13
13
13
13
13
13
13
13
13
13
13
13
13
13
13
13
13
13
13
13
13
13
13
13
13
13
13
13
13
13
13
13
13
13
13
13
13
13
13
13
13
13
13
13
13
13
13
13
13
13
13
13
13
13
13
13
13
13
13
13
13
13
13
13
13
13
13
13
13
13
13
13
13
13
13
13
13
13
13
13
13
13
13
13
13
13
13
13
13
13
13
13
13
13
13
13
13
13
13
13
13
13
13
13
13
13
13
13
13
13
13
13
13
13
13
13
13
13

POINT_DATA 626
VECTORS displacement float
-1.74393e-06 3.0958e-05 1.80566e-05
1.73562e-06 3.0977e-05 1.81017e-05
-2.59893e-05 1.69946e-05 1.80887e-05
-2.58439e-05 1.60347e-05 1.80533e-05
-2.77237e-05 1.39746e-05 1.80707e-05
-2.77166e-05 -1.40209e-05 1.80961e-05
-2.58151e-05 -1.60729e-05 1.81075e-05
-2.59855e-05 -1.70126e-05 1.81686e-05
-1.67739e-06 -3.09617e-05 1.8053e-05
1.75543e-06 -3.09632e-05 1.81035e-05
2.59467e-05 -1.69824e-05 1.80451e-05
2.772e-05 -1.39385e-05 1.8045e-05
2.76755e-05 1.39912e-05 1.80933e-05
2.5918e-05 1.69947e-05 1.80477e-05
0 0 0
-1.74393e-06 3.0958e-05 -1.80566e-05
1.73562e-06 3.0977e-05 -1.81017e-05
-2.59893e-05 1.69946e-05 -1.80887e-05
-2.58439e-05 1.60347e-05 -1.80533e-05
-2.77237e-05 1.39746e-05 -1.80707e-05
-2.77166e-05 -1.40209e-05 -1.80961e-05
-2.58151e-05 -1.60729e-05 -1.81075e-05
-2.59855e-05 -1.70126e-05 -1.81686e-05
-1.67739e-06 -3.09617e-05 -1.8053e-05
1.75543e-06 -3.09632e-05 -1.81035e-05
2.59467e-05 -1.69824e-05 -1.80451e-05
2.772e-05 -1.39385e-05 -1.8045e-05
2.76755e-05 1.39912e-05 -1.80933e-05
2.5918e-05 1.69947e-05 -1.80477e-05
0 0 0
2.48794e-08 3.01578e-05 1.80358e-05
-2.11435e-05 1.87145e-05 1.75515e-05
-1.72351e-05 1.98363e-05 1.69228e-05
-1.4009e-05 2.10572e-05 1.6557e-05
-1.12084e-05 2.26681e-05 1.65509e-05
-8.525e-06 2.48364e-05 1.69033e-05
-5.56815e-06 2.76253e-05 1.75392e-05
-2.64528e-05 1.46808e-05 1.80351e-05
-2.6772e-05 -9.01303e-06 1.75792e-05
-2.58097e-05 -5.03644e-06 1.69279e-05
-2.52581e-05 -1.63654e-06 1.65735e-05
-2.5261e-05 1.60817e-06 1.65764e-05
-2.5802e-05 5.02382e-06 1.69261e-05
-2.67582e-05 8.9861e-06 1.75657e-05
-2.64397e-05 -1.47272e-05 1.80639e-05
-5.5414e-06 -2.76398e-05 1.75314e-05
-8.47752e-06 -2.48454e-05 1.69026e-05
-1.11716e-05 -2.26875e-05 1.65582e-05
-1.39727e-05 -2.10902e-05 1.65616e-05
-1.72175e-05 -1.98717e-05 1.69386e-05
-2.11371e-05 -1.87512e-05 1.7564e-05
8.98201e-08 -3.01425e-05 1.8031e-05
2.11269e-05 -1.86269e-05 1.75132e-05
1.72473e-05 -1.97647e-05 1.68748e-05
1.4036e-05 -2.10141e-05 1.65137e-05
1.12266e-05 -2.25963e-05 1.65482e-05
8.58214e-06 -2.47836e-05 1.68761e-05
5.655e-06 -2.763e-05 1.75368e-05
2.61275e-05 -1.50614e-05 1.803e-05
2.67201e-05 8.93992e-06 1.75033e-05
2.57255e-05 5.05056e-06 1.69104e-05
2.52102e-05 1.62365e-06 1.65253e-05
2.52073e-05 -1.59976e-06 1.65236e-05
2.57542e-05 -4.99834e-06 1.68903e-05
2.67022e-05 -8.91866e-06 1.75115e-05
2.61106e-05 1.50625e-05 1.8027e-05
5.63345e-06 2.76214e-05 1.75113e-05
8.50952e-06 2.48103e-05 1.69132e-05
1.12186e-05 2.26443e-05 1.65314e-05
1.40066e-05 2.10251e-05 1.65268e-05
1.72243e-05 1.9796e-05 1.68871e-05
2.11179e-05 1.86365e-05 1.75272e-05
0 0 0
0 0 0
0 0 0
0 0 0
0 0 0
0 0 0
2.48794e-08 3.01578e-05 -1.80358e-05
-2.11435e-05 1.87145e-05 -1.75515e-05
-1.72351e-05 1.98363e-05 -1.69228e-05
-1.4009e-05 2.10572e-05 -1.6557e-05
-1.12084e-05 2.26681e-05 -1.65509e-05
-8.525e-06 2.48364e-05 -1.69033e-05
-5.56815e-06 2.76253e-05 -1.75392e-05
-2.64528e-05 1.46808e-05 -1.80351e-05
-2.6772e-05 -9.01303e-06 -1.75792e-05
-2.58097e-05 -5.03644e-06 -1.69279e-05
-2.52581e-05 -1.63654e-06 -1.65735e-05
-2.5261e-05 1.60817e-06 -1.65764e-05
-2.5802e-05 5.02382e-06 -1.69261e-05
-2.67582e-05 8.9861e-06 -1.75657e-05
-2.64397e-05 -1.47272e-05 -1.80639e-05
-5.5414e-06 -2.76398e-05 -1.75314e-05
-8.47752e-06 -2.48454e-05 -1.69026e-05
-1.11716e-05 -2.26875e-05 -1.65582e-05
-1.39727e-05 -2.10902e-05 -1.65616e-05
-1.72175e-05 -1.98717e-05 -1.69386e-05
-2.11371e-05 -1.87512e-05 -1.7564e-05
8.98201e-08 -3.01425e-05 -1.8031e-05
2.11269e-05 -1.86269e-05 -1.75132e-05
1.72473e-05 -1.97647e-05 -1.68748e-05
1.4036e-05 -2.10141e-05 -1.65137e-05
1.12266e-05 -2.25963e-05 -1.65482e-05
8.58214e-06 -2.47836e-05 -1.68761e-05
5.655e-06 -2.763e-05 -1.75368e-05
2.61275e-05 -1.50614e-05 -1.803e-05
2.67201e-05 8.93992e-06 -1.75033e-05
2.57255e-05 5.05056e-06 -1.69104e-05
2.52102e-05 1.62365e-06 -1.65253e-05
2.52073e-05 -1.59976e-06 -1.65236e-05
2.57542e-05 -4.99834e-06 -1.68903e-05
2.67022e-05 -8.91866e-06 -1.75115e-05
2.61106e-05 1.50625e-05 -1.8027e-05
5.63345e-06 2.76214e-05 -1.75113e-05
8.50952e-06 2.48103e-05 -1.69132e-05
1.12186e-05 2.26443e-05 -1.65314e-05
1.40066e-05 2.10251e-05 -1.65268e-05
1.72243e-05 1.9796e-05 -1.68871e-05
2.11179e-05 1.86365e-05 -1.75272e-05
0 0 0
0 0 0
0 0 0
0 0 0
0 0 0
0 0 0
1.79387e-06 8.58836e-07 4.55289e-06
1.738e-06 -8.25201e-07 4.46143e-06
4.31999e-07 1.84982e-06 4.49574e-06
4.36143e-07 -1.78081e-06 4.35669e-06
-1.84768e-06 2.0966e-08 4.42298e-06
-1.1232e-06 -1.30901e-06 4.15158e-06
-1.15933e-06 1.30693e-06 4.20036e-06
-2.2516e-05 -7.28879e-06 1.70018e-05
-2.21993e-05 7.37267e-06 1.69705e-05
-4.86098e-06 2.29016e-05 1.69389e-05
-4.85849e-06 -2.31348e-05 1.69658e-05
1.74237e-05 1.56375e-05 1.69317e-05
1.75712e-05 -1.55384e-05 1.6941e-05
2.10765e-05 3.16439e-06 1.63264e-05
-1.39552e-05 1.71536e-05 1.64804e-05
-1.35931e-05 -1.67436e-05 1.64119e-05
7.76888e-06 1.98224e-05 1.63332e-05
7.68587e-06 -2.03129e-05 1.64045e-05
2.14753e-05 -3.44429e-06 1.64022e-05
-2.11057e-05 6.5882e-09 1.62487e-05
-2.24232e-05 1.10012e-05 1.74554e-05
-1.87534e-05 9.25597e-06 1.66289e-05
-1.79853e-05 5.79628e-06 1.60383e-05
-1.4986e-05 7.44937e-06 1.54883e-05
-1.42265e-05 4.30833e-06 1.48316e-05
-1.15342e-05 5.74469e-06 1.40966e-05
-1.08595e-05 3.06916e-06 1.33753e-05
-8.40164e-06 4.30546e-06 1.2406e-05
-9.06007e-06 7.01438e-06 1.34581e-05
-6.20494e-06 5.48925e-06 1.16906e-05
-6.82926e-06 8.25059e-06 1.30817e-05
-4.28198e-06 6.67581e-06 1.1452e-05
-4.80068e-06 9.61126e-06 1.30957e-05
-2.4012e-06 7.99443e-06 1.17245e-05
-2.81325e-06 1.11688e-05 1.34767e-05
-4.75479e-07 9.59661e-06 1.25026e-05
-7.38463e-07 1.29987e-05 1.41436e-05
1.73132e-06 1.15194e-05 1.35368e-05
-5.53548e-06 1.27022e-05 1.44388e-05
1.68531e-06 8.22509e-06 1.17491e-05
4.00474e-06 1.01223e-05 1.31527e-05
3.70585e-06 7.09891e-06 1.14798e-05
6.06825e-06 8.96793e-06 1.31151e-05
5.7676e-06 6.10762e-06 1.17371e-05
8.35925e-06 8.02145e-06 1.34938e-05
8.10677e-06 5.19598e-06 1.2502e-05
1.09555e-05 7.09805e-06 1.41488e-05
1.07475e-05 4.3234e-06 1.35009e-05
8.53174e-06 1.10391e-05 1.44626e-05
7.93877e-06 2.6441e-06 1.1729e-05
1.06475e-05 1.73744e-06 1.31058e-05
7.94976e-06 3.58809e-07 1.14571e-05
1.08079e-05 -7.59219e-07 1.31259e-05
8.11275e-06 -1.93807e-06 1.17107e-05
1.10998e-05 -3.31332e-06 1.34857e-05
8.4709e-06 -4.42459e-06 1.24457e-05
1.15053e-05 -6.00373e-06 1.41112e-05
8.95683e-06 -7.13911e-06 1.34298e-05
6.14836e-06 -5.49516e-06 1.16429e-05
6.64542e-06 -8.30203e-06 1.302e-05
4.10576e-06 -6.5894e-06 1.13125e-05
4.52399e-06 -9.55221e-06 1.299e-05
2.2426e-06 -7.85935e-06 1.15989e-05
2.48518e-06 -1.10034e-05 1.33527e-05
2.25318e-07 -9.37498e-06 1.23553e-05
3.30054e-07 -1.27716e-05 1.40357e-05
-1.91571e-06 -1.11523e-05 1.33788e-05
-1.84132e-06 -7.92269e-06 1.15838e-05
-4.16849e-06 -9.87623e-06 1.30868e-05
-3.81446e-06 -6.73141e-06 1.13187e-05
-6.34652e-06 -8.66324e-06 1.31011e-05
-5.8921e-06 -5.69879e-06 1.163e-05
-8.50092e-06 -7.43684e-06 1.33815e-05
-8.16867e-06 -4.72871e-06 1.24103e-05
-1.10972e-05 -6.40367e-06 1.40717e-05
-4.37228e-06 -1.31251e-05 1.44356e-05
-1.08104e-05 -3.65119e-06 1.3441e-05
7.22715e-06 -1.13744e-05 1.42749e-05
-7.74275e-06 1.98295e-06 1.14945e-05
-1.3218e-05 1.0352e-06 1.42128e-05
1.72936e-06 1.5085e-05 1.49542e-05
1.377e-05 4.62306e-07 1.43897e-05
1.38451e-05 6.10098e-06 1.49337e-05
-9.69545e-06 1.01977e-05 1.45344e-05
-5.41673e-06 -3.19808e-06 1.01836e-05
-1.17153e-05 -9.29866e-06 1.48912e-05
1.18841e-05 -8.76146e-06 1.47891e-05
1.47839e-05 -7.47467e-06 1.54053e-05
-1.39617e-05 -5.24464e-06 1.48636e-05
2.79621e-06 -1.45182e-05 1.47982e-05
4.24612e-07 -1.65018e-05 1.53997e-05
3.51889e-06 4.39751e-06 9.58249e-06
1.40126e-05 9.30038e-06 1.54936e-05
1.79333e-05 8.14613e-06 1.63025e-05
-1.56777e-05 1.13969e-05 1.62354e-05
-1.09424e-06 1.67715e-05 1.54973e-05
1.9071e-06 1.96244e-05 1.63129e-05
-2.09215e-06 5.22076e-06 9.59899e-06
5.55467e-06 -7.84706e-07 9.59554e-06
3.58642e-06 -3.68404e-06 9.0833e-06
-1.77987e-06 -5.17925e-06 9.45098e-06
-2.24717e-05 -1.10123e-05 1.74761e-05
-1.88008e-05 -9.24271e-06 1.6653e-05
2.11506e-05 1.41666e-05 1.75074e-05
2.07565e-05 -1.43194e-05 1.74374e-05
-1.76475e-06 -2.54498e-05 1.75127e-05
-1.68228e-06 2.54139e-05 1.75174e-05
1.77155e-05 -1.19085e-05 1.66891e-05
2.06485e-05 -1.07526e-05 1.71178e-05
3.77614e-06 -1.89878e-05 1.61414e-05
7.68611e-07 -2.03486e-05 1.64848e-05
-1.94077e-05 -1.26522e-05 1.7145e-05
-1.37331e-05 -2.30726e-06 1.44739e-05
-1.65951e-05 -3.70197e-06 1.54796e-05
-1.03773e-05 -1.09654e-06 1.29539e-05
2.44551e-05 1.10744e-05 1.76534e-05
2.55006e-05 -1.24049e-05 1.78498e-05
2.64941e-06 2.67294e-05 1.76622e-05
2.52116e-06 -2.6417e-05 1.76311e-05
3.33981e-06 -2.3035e-05 1.7031e-05
-2.05418e-06 -1.83225e-05 1.59529e-05
4.05947e-06 2.37946e-05 1.71323e-05
2.26171e-05 8.38051e-06 1.71211e-05
4.61423e-06 1.73158e-05 1.57293e-05
1.44291e-05 -1.31213e-05 1.61394e-05
-1.57899e-05 -1.09862e-05 1.62165e-05
-1.68022e-05 -3.81487e-07 1.53794e-05
1.73084e-05 4.68817e-06 1.57277e-05
6.55283e-08 -6.38815e-06 1.02689e-05
1.74193e-06 -4.84908e-06 9.0938e-06
5.85123e-06 -2.9359e-06 1.03797e-05
-2.14472e-05 3.75111e-06 1.64609e-05
5.73016e-06 -1.62768e-05 1.55098e-05
9.08475e-06 -1.75015e-05 1.59996e-05
1.75746e-05 1.18833e-05 1.66742e-05
1.39962e-05 -1.63845e-05 1.64033e-05
1.07415e-05 -1.37909e-05 1.55521e-05
-3.54842e-06 -4.22073e-06 9.50213e-06
5.39981e-06 1.13864e-06 9.50042e-06
5.21873e-06 3.22329e-06 1.00487e-05
-1.74987e-06 -2.83579e-05 1.78785e-05
1.8923e-06 5.29957e-06 9.58583e-06
-1.1384e-07 6.1058e-06 1.00402e-05
-3.78541e-06 4.12827e-06 9.57978e-06
-5.62341e-06 3.03458e-06 1.02867e-05
-5.16612e-06 1.0408e-06 9.21493e-06
-7.52825e-06 -6.17477e-08 1.1174e-05
-4.3349e-06 -8.10376e-07 8.38305e-06
-3.10895e-06 1.87256e-06 7.37511e-06
-2.20842e-05 -3.60834e-06 1.65178e-05
2.34091e-05 -1.56897e-05 1.78378e-05
-1.50738e-06 2.11708e-05 1.66839e-05
2.12647e-05 -8.45334e-08 1.62278e-05
1.76246e-05 -1.64704e-06 1.55835e-05
1.73501e-05 -4.94239e-06 1.57727e-05
2.18945e-05 -7.45222e-06 1.69155e-05
-2.3185e-05 -1.42563e-05 1.78343e-05
1.73271e-05 1.64912e-06 1.55106e-05
-1.73408e-06 2.84765e-05 1.78957e-05
-4.22122e-07 3.68386e-06 7.49637e-06
2.37748e-05 1.57441e-05 1.78862e-05
-1.74998e-05 1.56442e-05 1.69768e-05
-1.06277e-05 -1.84687e-05 1.62571e-05
-1.0101e-05 -1.43443e-05 1.55737e-05
-7.50884e-06 -1.60971e-05 1.56241e-05
-7.3231e-06 -2.01233e-05 1.63973e-05
-1.0706e-05 1.85378e-05 1.62689e-05
-1.03488e-05 1.43861e-05 1.56214e-05
-7.77367e-06 2.04953e-05 1.64463e-05
-4.25356e-06 1.86123e-05 1.6055e-05
1.07612e-05 1.8348e-05 1.62282e-05
1.38937e-05 1.69372e-05 1.6433e-05
1.40439e-05 1.29747e-05 1.60533e-05
-7.36262e-06 1.62906e-05 1.56406e-05
1.05266e-05 1.45491e-05 1.56473e-05
7.74984e-06 1.60946e-05 1.5616e-05
-3.11684e-06 -1.89899e-06 7.39424e-06
-7.25868e-06 -1.24238e-05 1.46272e-05
3.00901e-06 4.0365e-08 6.60192e-06
4.87326e-06 1.35247e-05 1.46201e-05
1.4078e-05 -2.26071e-06 1.45725e-05
-1.72922e-05 -1.52187e-05 1.69474e-05
-1.73689e-05 2.42066e-06 1.55999e-05
-1.22064e-05 8.91318e-06 1.49455e-05
-7.70667e-06 -2.29283e-06 1.15563e-05
-1.24515e-05 1.18143e-05 1.5542e-05
-1.42753e-07 -3.75468e-06 7.55526e-06
2.73056e-06 2.27235e-06 7.25297e-06
-2.00415e-06 -1.46526e-05 1.481e-05
9.36642e-06 -1.00697e-05 1.43914e-05
1.38627e-05 3.15827e-06 1.45681e-05
-7.34109e-06 1.1201e-05 1.42623e-05
4.99793e-06 -1.27766e-05 1.43713e-05
1.10334e-05 1.0432e-05 1.49217e-05
-3.59696e-06 1.46874e-05 1.491e-05
-4.63612e-06 -1.66192e-05 1.55509e-05
-1.95097e-05 1.28941e-05 1.71631e-05
-2.31298e-05 1.48599e-05 1.78451e-05
-1.29068e-05 -1.26879e-05 1.58146e-05
3.76126e-06 -1.58632e-06 7.9081e-06
1.7646e-06 2.92263e-06 7.08546e-06
-9.23181e-06 -1.0611e-05 1.45338e-05
1.72795e-06 -2.82349e-06 6.93206e-06
9.94812e-07 2.41201e-05 1.73103e-05
2.13708e-05 1.11954e-05 1.73005e-05
-1.46667e-05 -7.95451e-06 1.54874e-05
1.371e-05 -4.78701e-06 1.46927e-05
-1.91012e-06 -2.17659e-05 1.68047e-05
1.80629e-05 -8.42026e-06 1.63427e-05
-1.66813e-05 -6.32948e-06 1.57845e-05
-4.32949e-07 -1.92253e-06 4.79916e-06
-1.80559e-06 2.9958e-06 7.17822e-06
-2.5055e-05 -1.29835e-05 1.7924e-05
-2.51302e-05 -1.4509e-05 1.80038e-05
-2.50482e-05 1.30354e-05 1.79077e-05
-2.5121e-05 1.46517e-05 1.79838e-05
-1.64865e-06 -3.12522e-06 7.21096e-06
6.32886e-06 1.137e-05 1.40786e-05
5.33748e-07 -2.40893e-05 1.73041e-05
-5.22837e-07 1.80974e-06 4.64567e-06
7.40853e-06 -1.43458e-05 1.51545e-05
2.33058e-05 -1.3211e-05 1.77306e-05
2.36357e-05 -1.05391e-05 1.74926e-05
1.19902e-05 -1.82136e-05 1.62954e-05
1.47322e-05 -1.01481e-05 1.57976e-05
-1.00285e-05 1.00139e-06 1.27565e-05
-1.74021e-06 -8.15992e-07 4.72413e-06
7.69158e-07 3.70881e-06 7.57425e-06
2.34335e-06 -1.9974e-06 6.55624e-06
2.01594e-05 5.89873e-06 1.64557e-05
5.07073e-06 2.05989e-05 1.6498e-05
3.42123e-07 -2.76835e-05 1.78557e-05
-1.73142e-06 7.09189e-07 4.60698e-06
-3.21189e-06 6.23121e-07 6.82513e-06
3.57765e-06 1.47559e-06 7.63774e-06
4.99238e-07 2.83273e-05 1.7929e-05
2.47634e-05 1.37358e-05 1.79201e-05
-2.03311e-05 1.55377e-05 1.74309e-05
1.17884e-06 1.36462e-06 4.46049e-06
-2.06424e-05 -1.57303e-05 1.75294e-05
-1.90017e-05 -2.32255e-06 1.59483e-05
-1.95619e-05 -5.58584e-06 1.63343e-05
9.05791e-07 -3.24815e-06 7.00712e-06
-4.36661e-06 -1.97921e-05 1.63239e-05
-7.93845e-06 1.38364e-05 1.51032e-05
1.16588e-06 -1.30433e-06 4.33991e-06
1.19362e-05 -1.123e-05 1.52943e-05
6.13377e-06 -2.26993e-05 1.68225e-05
-1.45243e-05 1.43574e-05 1.63257e-05
7.93024e-06 1.33232e-05 1.49501e-05
1.79387e-06 8.58836e-07 -4.55289e-06
1.738e-06 -8.25201e-07 -4.46143e-06
4.31999e-07 1.84982e-06 -4.49574e-06
4.36143e-07 -1.78081e-06 -4.35669e-06
-1.84768e-06 2.0966e-08 -4.42298e-06
-1.1232e-06 -1.30901e-06 -4.15158e-06
-1.15933e-06 1.30693e-06 -4.20036e-06
-2.2516e-05 -7.28879e-06 -1.70018e-05
-2.21993e-05 7.37267e-06 -1.69705e-05
-4.86098e-06 2.29016e-05 -1.69389e-05
-4.85849e-06 -2.31348e-05 -1.69658e-05
1.74237e-05 1.56375e-05 -1.69317e-05
1.75712e-05 -1.55384e-05 -1.6941e-05
2.10765e-05 3.16439e-06 -1.63264e-05
-1.39552e-05 1.71536e-05 -1.64804e-05
-1.35931e-05 -1.67436e-05 -1.64119e-05
7.76888e-06 1.98224e-05 -1.63332e-05
7.68587e-06 -2.03129e-05 -1.64045e-05
2.14753e-05 -3.44429e-06 -1.64022e-05
-2.11057e-05 6.5882e-09 -1.62487e-05
-2.24232e-05 1.10012e-05 -1.74554e-05
-1.87534e-05 9.25597e-06 -1.66289e-05
-1.79853e-05 5.79628e-06 -1.60383e-05
-1.4986e-05 7.44937e-06 -1.54883e-05
-1.42265e-05 4.30833e-06 -1.48316e-05
-1.15342e-05 5.74469e-06 -1.40966e-05
-1.08595e-05 3.06916e-06 -1.33753e-05
-8.40164e-06 4.30546e-06 -1.2406e-05
-9.06007e-06 7.01438e-06 -1.34581e-05
-6.20494e-06 5.48925e-06 -1.16906e-05
-6.82926e-06 8.25059e-06 -1.30817e-05
-4.28198e-06 6.67581e-06 -1.1452e-05
-4.80068e-06 9.61126e-06 -1.30957e-05
-2.4012e-06 7.99443e-06 -1.17245e-05
-2.81325e-06 1.11688e-05 -1.34767e-05
-4.75479e-07 9.59661e-06 -1.25026e-05
-7.38463e-07 1.29987e-05 -1.41436e-05
1.73132e-06 1.15194e-05 -1.35368e-05
-5.53548e-06 1.27022e-05 -1.44388e-05
1.68531e-06 8.22509e-06 -1.17491e-05
4.00474e-06 1.01223e-05 -1.31527e-05
3.70585e-06 7.09891e-06 -1.14798e-05
6.06825e-06 8.96793e-06 -1.31151e-05
5.7676e-06 6.10762e-06 -1.17371e-05
8.35925e-06 8.02145e-06 -1.34938e-05
8.10677e-06 5.19598e-06 -1.2502e-05
1.09555e-05 7.09805e-06 -1.41488e-05
1.07475e-05 4.3234e-06 -1.35009e-05
8.53174e-06 1.10391e-05 -1.44626e-05
7.93877e-06 2.6441e-06 -1.1729e-05
1.06475e-05 1.73744e-06 -1.31058e-05
7.94976e-06 3.58809e-07 -1.14571e-05
1.08079e-05 -7.59219e-07 -1.31259e-05
8.11275e-06 -1.93807e-06 -1.17107e-05
1.10998e-05 -3.31332e-06 -1.34857e-05
8.4709e-06 -4.42459e-06 -1.24457e-05
1.15053e-05 -6.00373e-06 -1.41112e-05
8.95683e-06 -7.13911e-06 -1.34298e-05
6.14836e-06 -5.49516e-06 -1.16429e-05
6.64542e-06 -8.30203e-06 -1.302e-05
4.10576e-06 -6.5894e-06 -1.13125e-05
4.52399e-06 -9.55221e-06 -1.299e-05
2.2426e-06 -7.85935e-06 -1.15989e-05
2.48518e-06 -1.10034e-05 -1.33527e-05
2.25318e-07 -9.37498e-06 -1.23553e-05
3.30054e-07 -1.27716e-05 -1.40357e-05
-1.91571e-06 -1.11523e-05 -1.33788e-05
-1.84132e-06 -7.92269e-06 -1.15838e-05
-4.16849e-06 -9.87623e-06 -1.30868e-05
-3.81446e-06 -6.73141e-06 -1.13187e-05
-6.34652e-06 -8.66324e-06 -1.31011e-05
-5.8921e-06 -5.69879e-06 -1.163e-05
-8.50092e-06 -7.43684e-06 -1.33815e-05
-8.16867e-06 -4.72871e-06 -1.24103e-05
-1.10972e-05 -6.40367e-06 -1.40717e-05
-4.37228e-06 -1.31251e-05 -1.44356e-05
-1.08104e-05 -3.65119e-06 -1.3441e-05
7.22715e-06 -1.13744e-05 -1.42749e-05
-7.74275e-06 1.98295e-06 -1.14945e-05
-1.3218e-05 1.0352e-06 -1.42128e-05
1.72936e-06 1.5085e-05 -1.49542e-05
1.377e-05 4.62306e-07 -1.43897e-05
1.38451e-05 6.10098e-06 -1.49337e-05
-9.69545e-06 1.01977e-05 -1.45344e-05
-5.41673e-06 -3.19808e-06 -1.01836e-05
-1.17153e-05 -9.29866e-06 -1.48912e-05
1.18841e-05 -8.76146e-06 -1.47891e-05
1.47839e-05 -7.47467e-06 -1.54053e-05
-1.39617e-05 -5.24464e-06 -1.48636e-05
2.79621e-06 -1.45182e-05 -1.47982e-05
4.24612e-07 -1.65018e-05 -1.53997e-05
3.51889e-06 4.39751e-06 -9.58249e-06
1.40126e-05 9.30038e-06 -1.54936e-05
1.79333e-05 8.14613e-06 -1.63025e-05
-1.56777e-05 1.13969e-05 -1.62354e-05
-1.09424e-06 1.67715e-05 -1.54973e-05
1.9071e-06 1.96244e-05 -1.63129e-05
-2.09215e-06 5.22076e-06 -9.59899e-06
5.55467e-06 -7.84706e-07 -9.59554e-06
3.58642e-06 -3.68404e-06 -9.0833e-06
-1.77987e-06 -5.17925e-06 -9.45098e-06
-2.24717e-05 -1.10123e-05 -1.74761e-05
-1.88008e-05 -9.24271e-06 -1.6653e-05
2.11506e-05 1.41666e-05 -1.75074e-05
2.07565e-05 -1.43194e-05 -1.74374e-05
-1.76475e-06 -2.54498e-05 -1.75127e-05
-1.68228e-06 2.54139e-05 -1.75174e-05
1.77155e-05 -1.19085e-05 -1.66891e-05
2.06485e-05 -1.07526e-05 -1.71178e-05
3.77614e-06 -1.89878e-05 -1.61414e-05
7.68611e-07 -2.03486e-05 -1.64848e-05
-1.94077e-05 -1.26522e-05 -1.7145e-05
-1.37331e-05 -2.30726e-06 -1.44739e-05
-1.65951e-05 -3.70197e-06 -1.54796e-05
-1.03773e-05 -1.09654e-06 -1.29539e-05
2.44551e-05 1.10744e-05 -1.76534e-05
2.55006e-05 -1.24049e-05 -1.78498e-05
2.64941e-06 2.67294e-05 -1.76622e-05
2.52116e-06 -2.6417e-05 -1.76311e-05
3.33981e-06 -2.3035e-05 -1.7031e-05
-2.05418e-06 -1.83225e-05 -1.59529e-05
4.05947e-06 2.37946e-05 -1.71323e-05
2.26171e-05 8.38051e-06 -1.71211e-05
4.61423e-06 1.73158e-05 -1.57293e-05
1.44291e-05 -1.31213e-05 -1.61394e-05
-1.57899e-05 -1.09862e-05 -1.62165e-05
-1.68022e-05 -3.81487e-07 -1.53794e-05
1.73084e-05 4.68817e-06 -1.57277e-05
6.55283e-08 -6.38815e-06 -1.02689e-05
1.74193e-06 -4.84908e-06 -9.0938e-06
5.85123e-06 -2.9359e-06 -1.03797e-05
-2.14472e-05 3.75111e-06 -1.64609e-05
5.73016e-06 -1.62768e-05 -1.55098e-05
9.08475e-06 -1.75015e-05 -1.59996e-05
1.75746e-05 1.18833e-05 -1.66742e-05
1.39962e-05 -1.63845e-05 -1.64033e-05
1.07415e-05 -1.37909e-05 -1.55521e-05
-3.54842e-06 -4.22073e-06 -9.50213e-06
5.39981e-06 1.13864e-06 -9.50042e-06
5.21873e-06 3.22329e-06 -1.00487e-05
-1.74987e-06 -2.83579e-05 -1.78785e-05
1.8923e-06 5.29957e-06 -9.58583e-06
-1.1384e-07 6.1058e-06 -1.00402e-05
-3.78541e-06 4.12827e-06 -9.57978e-06
-5.62341e-06 3.03458e-06 -1.02867e-05
-5.16612e-06 1.0408e-06 -9.21493e-06
-7.52825e-06 -6.17477e-08 -1.1174e-05
-4.3349e-06 -8.10376e-07 -8.38305e-06
-3.10895e-06 1.87256e-06 -7.37511e-06
-2.20842e-05 -3.60834e-06 -1.65178e-05
2.34091e-05 -1.56897e-05 -1.78378e-05
-1.50738e-06 2.11708e-05 -1.66839e-05
2.12647e-05 -8.45334e-08 -1.62278e-05
1.76246e-05 -1.64704e-06 -1.55835e-05
1.73501e-05 -4.94239e-06 -1.57727e-05
2.18945e-05 -7.45222e-06 -1.69155e-05
-2.3185e-05 -1.42563e-05 -1.78343e-05
1.73271e-05 1.64912e-06 -1.55106e-05
-1.73408e-06 2.84765e-05 -1.78957e-05
-4.22122e-07 3.68386e-06 -7.49637e-06
2.37748e-05 1.57441e-05 -1.78862e-05
-1.74998e-05 1.56442e-05 -1.69768e-05
-1.06277e-05 -1.84687e-05 -1.62571e-05
-1.0101e-05 -1.43443e-05 -1.55737e-05
-7.50884e-06 -1.60971e-05 -1.56241e-05
-7.3231e-06 -2.01233e-05 -1.63973e-05
-1.0706e-05 1.85378e-05 -1.62689e-05
-1.03488e-05 1.43861e-05 -1.56214e-05
-7.77367e-06 2.04953e-05 -1.64463e-05
-4.25356e-06 1.86123e-05 -1.6055e-05
1.07612e-05 1.8348e-05 -1.62282e-05
1.38937e-05 1.69372e-05 -1.6433e-05
1.40439e-05 1.29747e-05 -1.60533e-05
-7.36262e-06 1.62906e-05 -1.56406e-05
1.05266e-05 1.45491e-05 -1.56473e-05
7.74984e-06 1.60946e-05 -1.5616e-05
-3.11684e-06 -1.89899e-06 -7.39424e-06
-7.25868e-06 -1.24238e-05 -1.46272e-05
3.00901e-06 4.0365e-08 -6.60192e-06
4.87326e-06 1.35247e-05 -1.46201e-05
1.4078e-05 -2.26071e-06 -1.45725e-05
-1.72922e-05 -1.52187e-05 -1.69474e-05
-1.73689e-05 2.42066e-06 -1.55999e-05
-1.22064e-05 8.91318e-06 -1.49455e-05
-7.70667e-06 -2.29283e-06 -1.15563e-05
-1.24515e-05 1.18143e-05 -1.5542e-05
-1.42753e-07 -3.75468e-06 -7.55526e-06
2.73056e-06 2.27235e-06 -7.25297e-06
-2.00415e-06 -1.46526e-05 -1.481e-05
9.36642e-06 -1.00697e-05 -1.43914e-05
1.38627e-05 3.15827e-06 -1.45681e-05
-7.34109e-06 1.1201e-05 -1.42623e-05
4.99793e-06 -1.27766e-05 -1.43713e-05
1.10334e-05 1.0432e-05 -1.49217e-05
-3.59696e-06 1.46874e-05 -1.491e-05
-4.63612e-06 -1.66192e-05 -1.55509e-05
-1.95097e-05 1.28941e-05 -1.71631e-05
-2.31298e-05 1.48599e-05 -1.78451e-05
-1.29068e-05 -1.26879e-05 -1.58146e-05
3.76126e-06 -1.58632e-06 -7.9081e-06
1.7646e-06 2.92263e-06 -7.08546e-06
-9.23181e-06 -1.0611e-05 -1.45338e-05
1.72795e-06 -2.82349e-06 -6.93206e-06
9.94812e-07 2.41201e-05 -1.73103e-05
2.13708e-05 1.11954e-05 -1.73005e-05
-1.46667e-05 -7.95451e-06 -1.54874e-05
1.371e-05 -4.78701e-06 -1.46927e-05
-1.91012e-06 -2.17659e-05 -1.68047e-05
1.80629e-05 -8.42026e-06 -1.63427e-05
-1.66813e-05 -6.32948e-06 -1.57845e-05
-4.32949e-07 -1.92253e-06 -4.79916e-06
-1.80559e-06 2.9958e-06 -7.17822e-06
-2.5055e-05 -1.29835e-05 -1.7924e-05
-2.51302e-05 -1.4509e-05 -1.80038e-05
-2.50482e-05 1.30354e-05 -1.79077e-05
-2.5121e-05 1.46517e-05 -1.79838e-05
-1.64865e-06 -3.12522e-06 -7.21096e-06
6.32886e-06 1.137e-05 -1.40786e-05
5.33748e-07 -2.40893e-05 -1.73041e-05
-5.22837e-07 1.80974e-06 -4.64567e-06
7.40853e-06 -1.43458e-05 -1.51545e-05
2.33058e-05 -1.3211e-05 -1.77306e-05
2.36357e-05 -1.05391e-05 -1.74926e-05
1.19902e-05 -1.82136e-05 -1.62954e-05
1.47322e-05 -1.01481e-05 -1.57976e-05
-1.00285e-05 1.00139e-06 -1.27565e-05
-1.74021e-06 -8.15992e-07 -4.72413e-06
7.69158e-07 3.70881e-06 -7.57425e-06
2.34335e-06 -1.9974e-06 -6.55624e-06
2.01594e-05 5.89873e-06 -1.64557e-05
5.07073e-06 2.05989e-05 -1.6498e-05
3.42123e-07 -2.76835e-05 -1.78557e-05
-1.73142e-06 7.09189e-07 -4.60698e-06
-3.21189e-06 6.23121e-07 -6.82513e-06
3.57765e-06 1.47559e-06 -7.63774e-06
4.99238e-07 2.83273e-05 -1.7929e-05
2.47634e-05 1.37358e-05 -1.79201e-05
-2.03311e-05 1.55377e-05 -1.74309e-05
1.17884e-06 1.36462e-06 -4.46049e-06
-2.06424e-05 -1.57303e-05 -1.75294e-05
-1.90017e-05 -2.32255e-06 -1.59483e-05
-1.95619e-05 -5.58584e-06 -1.63343e-05
9.05791e-07 -3.24815e-06 -7.00712e-06
-4.36661e-06 -1.97921e-05 -1.63239e-05
-7.93845e-06 1.38364e-05 -1.51032e-05
1.16588e-06 -1.30433e-06 -4.33991e-06
1.19362e-05 -1.123e-05 -1.52943e-05
6.13377e-06 -2.26993e-05 -1.68225e-05
-1.45243e-05 1.43574e-05 -1.63257e-05
7.93024e-06 1.33232e-05 -1.49501e-05
SCALARS effective_fluid_pressure_TPM float
LOOKUP_TABLE default
665
665
665
665
665
665
665
665
665
665
665
665
665
665
133
665
665
665
665
665
665
665
665
665
665
665
665
665
665
133
665
560.36
520.72
502.867
502.638
519.847
559.981
665
562.026
520.815
503.309
503.419
520.747
561.648
665
559.648
519.718
502.812
503.029
521.215
561.664
665
558.904
519.062
501.601
502.297
518.911
559.493
665
558.544
520.002
501.933
501.864
519.435
557.984
665
558.7
520.016
502.105
501.967
519.423
559.707
133
133
133
133
133
133
665
560.36
520.72
502.867
502.638
519.847
559.981
665
562.026
520.815
503.309
503.419
520.747
561.648
665
559.648
519.718
502.812
503.029
521.215
561.664
665
558.904
519.062
501.601
502.297
518.911
559.493
665
558.544
520.002
501.933
501.864
519.435
557.984
665
558.7
520.016
502.105
501.967
519.423
559.707
133
133
133
133
133
133
228.279
226.349
227.062
224.13
225.546
219.866
220.883
529.216
528.226
526.605
527.984
526.632
527.685
498.762
503.608
501.646
499.003
501.519
501.301
494.384
562.54
519.031
495.084
480.791
461.413
443.331
425.099
402.17
427.323
385.314
417.791
379.66
417.954
385.999
427.44
404.348
444.435
429.129
450.314
386.608
419.354
380.255
418.366
386.238
427.814
404.276
444.546
428.213
450.91
386.083
418.217
379.671
418.574
385.606
427.65
402.97
443.608
426.505
384.099
416.19
376.354
415.397
383.071
424.471
400.895
441.757
425.278
382.807
417.83
376.619
418.148
383.893
425.318
402.262
442.73
450.703
426.778
446.062
380.78
444.728
465.342
448.795
464.815
453.464
350.95
463.557
461.089
478.494
462.824
460.695
478.399
337.322
480.87
505.899
503.659
480.936
506.206
337.735
337.546
326.208
334.46
563.416
519.706
567.615
562.403
567.933
567.786
521.854
542.759
498.673
513.781
542.104
451.506
477.623
414.708
579.552
611.049
579.705
576.067
534.597
494.523
538.27
537.967
485.083
498.16
503.375
473.186
485.13
352.795
326.458
355.225
503.489
477.763
488.407
520.923
502.072
477.961
335.585
335.448
347.746
613.466
337.423
347.617
337.309
353.251
329.232
373.305
310.699
288.823
504.755
608.403
521.144
493.769
478.374
486.399
526.539
600.365
476.611
615.918
291.432
615.817
528.766
494.58
478.28
479.455
501.36
494.886
479.481
502.555
495.217
493.791
502.307
495.291
479.928
480.094
479.096
289.329
454.636
271.973
455.044
453.672
527.047
479.517
465.265
382.149
480.551
292.705
286.116
461.521
449.677
454.021
445.898
448.733
463.647
463.304
479.996
543.499
601.726
487.535
300.339
282.495
453.057
279.196
552.279
552.038
480.816
458.06
526.268
508.225
488.631
233.752
284.592
614.526
636.333
615.159
636.689
285.314
441.383
553.119
230.507
467.596
590.291
566.068
495.86
490.089
410.085
232.141
293.131
271.157
507.935
509.233
607.836
229.684
277.008
294.466
618.896
618.809
558.551
226.543
562.563
488.357
503.435
280.88
504.105
466.422
224.028
473.628
519.618
503.021
462.489
228.279
226.349
227.062
224.13
225.546
219.866
220.883
529.216
528.226
526.605
527.984
526.632
527.685
498.762
503.608
501.646
499.003
501.519
501.301
494.384
562.54
519.031
495.084
480.791
461.413
443.331
425.099
402.17
427.323
385.314
417.791
379.66
417.954
385.999
427.44
404.348
444.435
429.129
450.314
386.608
419.354
380.255
418.366
386.238
427.814
404.276
444.546
428.213
450.91
386.083
418.217
379.671
418.574
385.606
427.65
402.97
443.608
426.505
384.099
416.19
376.354
415.397
383.071
424.471
400.895
441.757
425.278
382.807
417.83
376.619
418.148
383.893
425.318
402.262
442.73
450.703
426.778
446.062
380.78
444.728
465.342
448.795
464.815
453.464
350.95
463.557
461.089
478.494
462.824
460.695
478.399
337.322
480.87
505.899
503.659
480.936
506.206
337.735
337.546
326.208
334.46
563.416
519.706
567.615
562.403
567.933
567.786
521.854
542.759
498.673
513.781
542.104
451.506
477.623
414.708
579.552
611.049
579.705
576.067
534.597
494.523
538.27
537.967
485.083
498.16
503.375
473.186
485.13
352.795
326.458
355.225
503.489
477.763
488.407
520.923
502.072
477.961
335.585
335.448
347.746
613.466
337.423
347.617
337.309
353.251
329.232
373.305
310.699
288.823
504.755
608.403
521.144
493.769
478.374
486.399
526.539
600.365
476.611
615.918
291.432
615.817
528.766
494.58
478.28
479.455
501.36
494.886
479.481
502.555
495.217
493.791
502.307
495.291
479.928
480.094
479.096
289.329
454.636
271.973
455.044
453.672
527.047
479.517
465.265
382.149
480.551
292.705
286.116
461.521
449.677
454.021
445.898
448.733
463.647
463.304
479.996
543.499
601.726
487.535
300.339
282.495
453.057
279.196
552.279
552.038
480.816
458.06
526.268
508.225
488.631
233.752
284.592
614.526
636.333
615.159
636.689
285.314
441.383
553.119
230.507
467.596
590.291
566.068
495.86
490.089
410.085
232.141
293.131
271.157
507.935
509.233
607.836
229.684
277.008
294.466
618.896
618.809
558.551
226.543
562.563
488.357
503.435
280.88
504.105
466.422
224.028
473.628
519.618
503.021
462.489

CELL_DATA 563
TENSORS stress float
164.634 -24.9221 -1.8711e-12
-24.9221 28.1554 2.69059e-12
-1.8711e-12 2.69059e-12 -12.5981

-40.3406 -21.3212 -2.86201e-12
-21.3212 -7.35503 1.12355e-12
-2.86201e-12 1.12355e-12 -10.2359

-9.94389 28.0474 2.09432e-12
28.0474 -1.11239 -1.18157e-12
2.09432e-12 -1.18157e-12 -6.36533

-40.4279 -29.8423 1.3302e-12
-29.8423 -12.8456 -6.73387e-13
1.3302e-12 -6.73387e-13 -10.6022

-22.6901 19.9307 1.53152e-12
19.9307 -1.92888 -4.32395e-13
1.53152e-12 -4.32395e-13 -23.019

-27.1455 -18.0774 -1.96051e-12
-18.0774 15.888 -5.99876e-12
-1.96051e-12 -5.99876e-12 -6.41614

161.285 26.4865 -7.10543e-13
26.4865 28.032 3.5989e-12
-7.10543e-13 3.5989e-12 -13.2572

-5.96416 29.9605 -8.40809e-13
29.9605 -10.114 -1.11792e-12
-8.40809e-13 -1.11792e-12 -7.28067

34.634 5.4839 -9.87654e-13
5.4839 -19.1015 2.22637e-13
-9.87654e-13 2.22637e-13 -4.12708

11.8601 -7.47769 1.97472e-13
-7.47769 -48.2892 4.69994e-14
1.97472e-13 4.69994e-14 -8.9511

104.211 16.3117 1.84741e-12
16.3117 -8.44418 4.207e-12
1.84741e-12 4.207e-12 -22.453

-34.6419 -13.4548 7.87814e-13
-13.4548 18.9655 -3.13941e-12
7.87814e-13 -3.13941e-12 -7.18496

-6.02893 27.8363 -1.1493e-12
27.8363 -4.59272 9.32587e-13
-1.1493e-12 9.32587e-13 -6.16374

-35.5562 -14.3417 -2.07391e-12
-14.3417 7.84513 -1.9534e-12
-2.07391e-12 -1.9534e-12 -9.13529

-23.6538 33.3076 -1.49392e-12
33.3076 -24.9917 -7.37512e-14
-1.49392e-12 -7.37512e-14 -21.3638

21.3119 0.561159 -1.48622e-12
0.561159 -32.3436 2.13139e-12
-1.48622e-12 2.13139e-12 -5.59451

-48.9608 -17.9686 -1.21766e-12
-17.9686 6.34192 -5.15884e-12
-1.21766e-12 -5.15884e-12 -12.9488

11.6604 -2.66519 1.29496e-12
-2.66519 -43.2546 -2.09499e-12
1.29496e-12 -2.09499e-12 -8.03852

-11.3555 26.6787 -4.11523e-13
26.6787 19.5171 1.12088e-12
-4.11523e-13 1.12088e-12 -6.09474

21.7661 -4.19638 -3.3437e-12
-4.19638 -35.3022 2.48512e-12
-3.3437e-12 2.48512e-12 -6.74664

-24.4854 8.67045 -1.07914e-13
8.67045 32.1292 -3.72739e-12
-1.07914e-13 -3.72739e-12 -4.93907

-11.8082 6.28495 1.3571e-11
6.28495 -11.9677 3.5197e-12
1.3571e-11 3.5197e-12 -75.5946

22.7443 1.8762 -2.43302e-12
1.8762 -33.4768 -1.48762e-12
-2.43302e-12 -1.48762e-12 -6.68261

-12.3924 -27.7195 -4.03855e-12
-27.7195 1.59762 -2.3294e-12
-4.03855e-12 -2.3294e-12 -6.60794

21.3052 6.85032 -1.71833e-12
6.85032 -34.3117 -1.53714e-12
-1.71833e-12 -1.53714e-12 -6.81181

-37.91 19.1144 1.18009e-12
19.1144 2.65355 3.67647e-12
1.18009e-12 3.67647e-12 -9.46212

106.619 4.1822 4.49774e-12
4.1822 20.6047 -1.56912e-13
4.49774e-12 -1.56912e-13 -12.0478

-5.30478 30.7497 -1.17358e-12
30.7497 -7.27616 1.87998e-13
-1.17358e-12 1.87998e-13 -7.44646

27.8909 37.0819 9.11863e-14
37.0819 26.47 1.2695e-12
9.11863e-14 1.2695e-12 -8.63571

-9.43925 10.3237 -8.93211e-13
10.3237 -32.9218 -4.33531e-12
-8.93211e-13 -4.33531e-12 -49.4945

19.8315 14.2177 -3.55271e-14
14.2177 -29.3643 -2.70894e-12
-3.55271e-14 -2.70894e-12 -6.00551

-4.21567 -17.784 -1.34677e-12
-17.784 59.6649 -2.89665e-12
-1.34677e-12 -2.89665e-12 -8.47959

66.2929 -42.1085 -2.65032e-12
-42.1085 71.1488 6.16277e-12
-2.65032e-12 6.16277e-12 -11.25

-48.2064 5.9846 4.62147e-12
5.9846 7.26871 -6.12991e-12
4.62147e-12 -6.12991e-12 -41.0276

-26.2899 -4.83739 -1.15138e-12
-4.83739 1.75649 2.46173e-12
-1.15138e-12 2.46173e-12 -37.793

-1.46842 21.027 -3.06422e-13
21.027 -39.5021 7.10839e-13
-3.06422e-13 7.10839e-13 -41.0934

-43.9677 5.06425 4.23854e-12
5.06425 0.513911 2.16123e-14
4.23854e-12 2.16123e-14 -52.1759

-2.76211 -9.17143 -3.92516e-12
-9.17143 -20.7668 2.47603e-12
-3.92516e-12 2.47603e-12 -35.8882

-3.97725 -28.0015 -2.60118e-12
-28.0015 -4.61189 -1.00542e-12
-2.60118e-12 -1.00542e-12 -5.99913

65.6067 41.5277 -1.81425e-12
41.5277 73.1769 2.71664e-12
-1.81425e-12 2.71664e-12 -10.9616

60.1625 -17.9526 -3.22586e-12
-17.9526 0.112362 2.46381e-12
-3.22586e-12 2.46381e-12 -8.05332

-41.7959 -3.70327 3.37671e-12
-3.70327 -1.18569 -1.16425e-12
3.37671e-12 -1.16425e-12 -52.7105

-14.5896 19.5507 -2.66305e-12
19.5507 -28.5482 5.03597e-13
-2.66305e-12 5.03597e-13 -52.8186

18.1422 -12.2739 -4.20404e-13
-12.2739 -29.9042 1.18453e-12
-4.20404e-13 1.18453e-12 -6.22765

38.177 -43.3071 5.74592e-12
-43.3071 41.8058 -1.90781e-12
5.74592e-12 -1.90781e-12 -14.5604

58.1508 -18.0669 -2.97362e-12
-18.0669 -2.30795 4.44089e-14
-2.97362e-12 4.44089e-14 -7.91719

-21.4491 17.0888 -2.35782e-12
17.0888 30.3288 4.42727e-12
-2.35782e-12 4.42727e-12 -5.73351

-11.3775 19.3425 -2.86615e-12
19.3425 25.5116 -1.56912e-13
-2.86615e-12 -1.56912e-13 -3.92666

20.791 -16.3031 8.36664e-13
-16.3031 -33.1209 2.35204e-12
8.36664e-13 2.35204e-12 -7.31663

12.6134 -34.1922 2.61184e-12
-34.1922 46.4403 -1.47082e-12
2.61184e-12 -1.47082e-12 -10.4004

62.3678 19.1856 -2.25597e-12
19.1856 2.80641 -3.37389e-12
-2.25597e-12 -3.37389e-12 -8.41693

46.5179 -25.2932 -3.82746e-12
-25.2932 5.13024 1.55846e-12
-3.82746e-12 1.55846e-12 -5.61396

-31.8975 19.4827 -3.41075e-12
19.4827 -4.28428 7.31859e-13
-3.41075e-12 7.31859e-13 -26.082

37.0415 29.6551 -4.6505e-12
29.6551 14.511 7.74492e-13
-4.6505e-12 7.74492e-13 -5.43634

-27.447 -21.8126 -4.16585e-12
-21.8126 -8.23223 6.41006e-12
-4.16585e-12 6.41006e-12 -25.2447

64.8764 -42.7187 3.61193e-12
-42.7187 44.085 1.32753e-12
3.61193e-12 1.32753e-12 -9.50247

-27.7478 5.4563 -3.1853e-12
5.4563 2.66882 -1.18838e-12
-3.1853e-12 -1.18838e-12 -38.2984

-5.56346 -5.33095 1.82906e-12
-5.33095 57.3944 7.49623e-13
1.82906e-12 7.49623e-13 -5.45339

-0.203032 10.3849 3.88252e-12
10.3849 -24.8439 2.35408e-12
3.88252e-12 2.35408e-12 -38.36

-26.4914 21.4162 -1.74557e-12
21.4162 12.219 7.13503e-13
-1.74557e-12 7.13503e-13 -6.87499

4.72493 5.75527 -1.9531e-12
5.75527 -56.0405 -2.61968e-12
-1.9531e-12 -2.61968e-12 -13.9835

0.541004 11.4591 4.17592e-13
11.4591 -34.0585 5.63401e-13
4.17592e-13 5.63401e-13 -14.8407

106.358 31.8244 8.19493e-13
31.8244 37.8368 -7.24043e-12
8.19493e-13 -7.24043e-12 -7.48837

-35.4941 -6.0367 4.12825e-12
-6.0367 10.6014 9.89431e-13
4.12825e-12 9.89431e-13 -13.4803

-35.3612 9.52103 -1.46549e-14
9.52103 1.2342 -1.06345e-12
-1.46549e-14 -1.06345e-12 -14.9609

-42.5915 -2.88197 3.63802e-12
-2.88197 21.1104 -1.97176e-13
3.63802e-12 -1.97176e-13 -11.2416

-44.9099 23.401 -2.17755e-12
23.401 -5.89266 6.90411e-13
-2.17755e-12 6.90411e-13 -13.9245

9.97091 8.46462 -3.85055e-12
8.46462 -42.3831 -5.59552e-13
-3.85055e-12 -5.59552e-13 -9.08237

-12.3387 -28.2437 3.1483e-12
-28.2437 1.68507 -3.39935e-12
3.1483e-12 -3.39935e-12 -6.67915

1.30877 -1.7117 -5.05818e-13
-1.7117 -55.4581 -1.2775e-12
-5.05818e-13 -1.2775e-12 -11.3079

-31.8871 -19.2587 1.31746e-13
-19.2587 -4.59348 -1.60464e-13
1.31746e-13 -1.60464e-13 -25.9513

-27.9722 21.3078 -4.21204e-12
21.3078 -8.36187 3.16441e-13
-4.21204e-12 3.16441e-13 -26.0097

-0.656456 -16.5868 -2.60843e-12
-16.5868 61.6811 -2.54611e-13
-2.60843e-12 -2.54611e-13 -7.95214

-0.650555 -27.9377 2.82796e-12
-27.9377 -21.3651 1.46549e-12
2.82796e-12 1.46549e-12 -12.7931

-14.0967 -25.1379 2.74269e-12
-25.1379 7.40606 1.76392e-12
2.74269e-12 1.76392e-12 -5.24089

91.6919 -31.7158 3.72561e-12
-31.7158 19.4873 1.78139e-12
3.72561e-12 1.78139e-12 -16.3319

-33.7094 3.22336 2.55448e-12
3.22336 9.20082 -6.91003e-13
2.55448e-12 -6.91003e-13 -18.5626

2.74979 28.9459 1.15641e-12
28.9459 -24.4267 2.47979e-12
1.15641e-12 2.47979e-12 -11.3193

-38.4383 19.6655 -1.74305e-12
19.6655 5.22912 -1.53981e-12
-1.74305e-12 -1.53981e-12 -9.23966

50.1959 8.00106 1.60227e-12
8.00106 -16.9718 -1.80892e-12
1.60227e-12 -1.80892e-12 -7.07148

60.0386 -33.9418 1.64609e-13
-33.9418 33.7889 -1.07766e-12
1.64609e-13 -1.07766e-12 -6.9853

-18.9641 -10.5865 1.56231e-12
-10.5865 -0.539854 -3.19951e-12
1.56231e-12 -3.19951e-12 -25.4271

-33.9255 23.9007 3.46686e-13
23.9007 -12.0258 -1.82377e-13
3.46686e-13 -1.82377e-13 -14.5423

58.1633 -32.3899 2.88836e-12
-32.3899 18.0909 -4.65405e-13
2.88836e-12 -4.65405e-13 -10.1359

66.8681 10.7931 -5.1988e-13
10.7931 8.51017 -2.88229e-12
-5.1988e-13 -2.88229e-12 -5.08714

7.67252 -21.2098 -2.18077e-12
-21.2098 88.4774 7.25701e-12
-2.18077e-12 7.25701e-12 -11.8629

-33.9927 14.4271 -5.62513e-15
14.4271 20.2383 -7.02253e-13
-5.62513e-15 -7.02253e-13 -7.5513

8.47405 23.1459 1.39089e-12
23.1459 -26.0768 -2.83921e-13
1.39089e-12 -2.83921e-13 -11.3016

34.872 42.2064 -9.04758e-13
42.2064 46.2046 7.69755e-13
-9.04758e-13 7.69755e-13 -14.4219

-4.3943 16.5042 -4.88654e-12
16.5042 -35.5337 -3.94929e-12
-4.88654e-12 -3.94929e-12 -73.263

-5.98571 -4.10922 -3.41801e-12
-4.10922 57.9549 -3.49705e-12
-3.41801e-12 -3.49705e-12 -5.4456

-1.81958 -16.6296 1.43563e-11
-16.6296 -39.3927 9.05646e-13
1.43563e-11 9.05646e-13 -74.086

-3.33129 -27.3346 2.62013e-12
-27.3346 -30.0289 -1.60449e-12
2.62013e-12 -1.60449e-12 -21.5525

8.96592 27.4258 1.79945e-12
27.4258 -29.9989 1.75741e-12
1.79945e-12 1.75741e-12 -11.2601

45.7156 -24.4152 3.37153e-12
-24.4152 5.02059 -3.54561e-12
3.37153e-12 -3.54561e-12 -5.24005

10.0928 31.3295 -1.80892e-12
31.3295 47.1681 4.01457e-13
-1.80892e-12 4.01457e-13 -9.64366

14.2709 -10.707 3.55271e-14
-10.707 82.85 -6.86858e-13
3.55271e-14 -6.86858e-13 -6.44852

-38.6344 21.9718 -1.61278e-12
21.9718 2.94088 3.86654e-13
-1.61278e-12 3.86654e-13 -8.57318

1.19353 16.7958 -3.2081e-12
16.7958 -25.7249 8.76632e-13
-3.2081e-12 8.76632e-13 -18.5668

-26.5423 15.1563 -1.71818e-12
15.1563 18.4495 -7.14688e-13
-1.71818e-12 -7.14688e-13 -5.7127

43.6629 15.9565 5.11235e-12
15.9565 -7.29088 -3.25665e-13
5.11235e-12 -3.25665e-13 -4.07968

12.5747 -21.4767 6.17047e-12
-21.4767 57.9622 -9.13047e-13
6.17047e-12 -9.13047e-13 -4.71708

66.0048 -29.3961 -9.6397e-13
-29.3961 18.6432 2.37736e-12
-9.6397e-13 2.37736e-12 -9.33703

-32.3835 -24.575 -3.4713e-13
-24.575 -7.28333 2.1861e-12
-3.4713e-13 2.1861e-12 -8.98095

-22.6698 27.4536 -4.45954e-12
27.4536 -10.3532 -1.86814e-12
-4.45954e-12 -1.86814e-12 -9.28843

-38.3525 23.1887 8.47914e-13
23.1887 1.99047 3.3058e-12
8.47914e-13 3.3058e-12 -8.52912

-51.5545 13.1685 1.76301e-12
13.1685 11.9251 1.12562e-12
1.76301e-12 1.12562e-12 -16.4675

23.4858 9.37302 -1.55313e-12
9.37302 -29.4936 -2.77408e-13
-1.55313e-12 -2.77408e-13 -5.32637

3.76536 -4.66582 -2.61953e-12
-4.66582 79.449 9.23706e-13
-2.61953e-12 9.23706e-13 -9.53325

-44.9377 -36.8308 -4.66146e-12
-36.8308 -19.8281 -2.91545e-13
-4.66146e-12 -2.91545e-13 -14.773

-16.0843 27.4693 -1.52559e-12
27.4693 1.33867 9.31995e-13
-1.52559e-12 9.31995e-13 -6.92004

-5.01955 2.17055 -6.99152e-12
2.17055 82.6856 -5.61329e-13
-6.99152e-12 -5.61329e-13 -13.4327

69.0544 34.6168 -4.54747e-13
34.6168 15.4961 -1.13272e-12
-4.54747e-13 -1.13272e-12 -10.7075

-31.3557 -22.9762 -4.18214e-12
-22.9762 -4.63387 -7.964e-13
-4.18214e-12 -7.964e-13 -8.53476

11.7432 5.73292 -3.21846e-12
5.73292 -48.338 1.16514e-12
-3.21846e-12 1.16514e-12 -8.64551

43.0695 27.2092 -1.06345e-12
27.2092 10.4494 -9.6397e-13
-1.06345e-12 -9.6397e-13 -5.08465

-9.41122 12.7442 3.22379e-12
12.7442 -14.0414 4.2449e-12
3.22379e-12 4.2449e-12 -37.0313

70.3436 24.3351 5.17512e-12
24.3351 23.8053 -7.14688e-13
5.17512e-12 -7.14688e-13 -6.80102

-10.5821 -13.0537 2.43553e-12
-13.0537 -13.9233 1.60316e-12
2.43553e-12 1.60316e-12 -37.369

-4.38498 0.778756 3.98274e-12
0.778756 59.4049 1.70057e-12
3.98274e-12 1.70057e-12 -4.83447

38.3602 -2.23574 3.05652e-12
-2.23574 -23.8191 2.31874e-12
3.05652e-12 2.31874e-12 -5.83754

3.59267 -15.7656 5.11754e-12
-15.7656 -53.9671 2.7874e-12
5.11754e-12 2.7874e-12 -21.123

-42.279 24.3884 -1.27817e-12
24.3884 -11.737 1.55861e-12
-1.27817e-12 1.55861e-12 -11.1715

-46.813 -13.5356 7.30574e-13
-13.5356 11.0662 2.7421e-12
7.30574e-13 2.7421e-12 -12.3563

5.80929 -7.9991 -2.18314e-12
-7.9991 -70.9635 6.31199e-13
-2.18314e-12 6.31199e-13 -14.8842

-49.5382 -22.2809 3.80851e-12
-22.2809 3.74629 -3.44021e-12
3.80851e-12 -3.44021e-12 -22.103

-17.4579 -6.5995 -2.33324e-12
-6.5995 -13.1152 2.15272e-13
-2.33324e-12 2.15272e-13 -34.7734

-28.7312 -29.9087 -6.13139e-13
-29.9087 -9.40024 -3.12964e-12
-6.13139e-13 -3.12964e-12 -9.00013

15.6923 11.4557 1.3749e-12
11.4557 80.1911 4.91222e-12
1.3749e-12 4.91222e-12 -6.53217

42.2935 -28.1519 2.0961e-13
-28.1519 11.0485 -2.50762e-12
2.0961e-13 -2.50762e-12 -5.04794

-47.17 -13.7696 1.44766e-12
-13.7696 4.19637 -6.02599e-12
1.44766e-12 -6.02599e-12 -29.296

2.96424 0.505288 -1.12577e-12
0.505288 -56.8138 6.3897e-13
-1.12577e-12 6.3897e-13 -11.0094

-39.3386 -21.5237 1.23131e-12
-21.5237 -8.85642 3.00441e-12
1.23131e-12 3.00441e-12 -14.7762

-40.1958 25.6986 -1.49791e-12
25.6986 -14.6924 -2.69107e-12
-1.49791e-12 -2.69107e-12 -11.3149

32.262 -31.4705 -2.66572e-12
-31.4705 38.4322 2.40992e-12
-2.66572e-12 2.40992e-12 -4.65125

-31.4678 -7.08147 4.90659e-12
-7.08147 1.7024 -4.12559e-12
4.90659e-12 -4.12559e-12 -40.9819

36.633 -33.0826 3.67114e-14
-33.0826 72.0365 2.60295e-12
3.67114e-14 2.60295e-12 -7.14543

16.6133 -19.182 1.31983e-12
-19.182 -25.8753 3.24392e-12
1.31983e-12 3.24392e-12 -7.13759

1.50214 1.97199 1.94067e-12
1.97199 -51.3917 2.01913e-13
1.94067e-12 2.01913e-13 -15.376

-12.8711 17.8738 4.5981e-12
17.8738 -16.9567 -3.05267e-12
4.5981e-12 -3.05267e-12 -41.0494

10.7105 20.1868 -9.27258e-13
20.1868 59.4609 6.1379e-12
-9.27258e-13 6.1379e-12 -4.35981

4.31628 27.2136 -1.79708e-12
27.2136 -16.2256 2.88066e-13
-1.79708e-12 2.88066e-13 -8.12795

30.9062 -24.5154 -6.80937e-13
-24.5154 -8.13783 2.50289e-12
-6.80937e-13 2.50289e-12 -4.87706

-37.792 -17.8398 -6.43504e-13
-17.8398 2.4006 -1.97886e-12
-6.43504e-13 -1.97886e-12 -9.86867

55.5198 35.0745 6.48962e-13
35.0745 42.3492 7.98768e-12
6.48962e-13 7.98768e-12 -6.63767

-40.0178 -21.8317 6.03369e-13
-21.8317 2.53654 -8.92619e-13
6.03369e-13 -8.92619e-13 -9.3982

2.96506 30.8529 8.49099e-13
30.8529 -17.3931 -1.54454e-12
8.49099e-13 -1.54454e-12 -9.08226

18.5375 -25.2467 2.22281e-12
-25.2467 -19.4235 -2.89398e-12
2.22281e-12 -2.89398e-12 -6.34714

-15.6575 -25.1296 -2.23081e-12
-25.1296 5.8949 5.10999e-12
-2.23081e-12 5.10999e-12 -5.78055

42.722 -18.6915 6.15804e-14
-18.6915 -9.1719 -2.69414e-12
6.15804e-14 -2.69414e-12 -5.37374

27.433 -18.8527 -8.98837e-13
-18.8527 -20.3749 7.06694e-13
-8.98837e-13 7.06694e-13 -5.6948

-41.3945 -25.3379 3.51719e-13
-25.3379 -14.9648 -3.67587e-12
3.51719e-13 -3.67587e-12 -11.571

29.7822 35.9762 -1.31924e-12
35.9762 25.2275 6.8141e-12
-1.31924e-12 6.8141e-12 -8.6478

-28.5224 15.3791 -3.04468e-12
15.3791 18.519 -2.1488e-12
-3.04468e-12 -2.1488e-12 -5.87861

-23.1104 26.4247 8.49987e-13
26.4247 -12.5492 -6.65838e-13
8.49987e-13 -6.65838e-13 -9.96226

-42.0988 25.4736 -1.64758e-12
25.4736 -11.5926 -2.61672e-12
-1.64758e-12 -2.61672e-12 -10.9969

-37.2918 11.6232 -7.49447e-14
11.6232 11.8441 5.00933e-13
-7.49447e-14 5.00933e-13 -9.08414

64.4009 -8.2285 -4.09746e-13
-8.2285 3.19347 2.66661e-12
-4.09746e-13 2.66661e-12 -4.25408

8.73087 18.61 -5.19466e-12
18.61 59.2266 1.76215e-12
-5.19466e-12 1.76215e-12 -4.16552

-25.619 -24.3829 1.32694e-12
-24.3829 0.457622 1.10933e-12
1.32694e-12 1.10933e-12 -7.22056

-1.14505 25.6701 -2.43361e-12
25.6701 13.752 3.34784e-12
-2.43361e-12 3.34784e-12 -4.08764

32.3803 -35.6361 -3.42126e-12
-35.6361 21.6998 -1.57504e-13
-3.42126e-12 -1.57504e-13 -8.48959

59.5437 38.3237 7.32451e-12
38.3237 17.848 9.37916e-13
7.32451e-12 9.37916e-13 -13.7237

12.123 -33.3174 -5.61329e-13
-33.3174 42.9173 2.44427e-12
-5.61329e-13 2.44427e-12 -9.54605

30.5524 -31.1655 -7.95808e-13
-31.1655 36.816 3.11455e-13
-7.95808e-13 3.11455e-13 -4.40864

11.7689 -6.83859 2.48631e-12
-6.83859 -48.8398 -1.93815e-12
2.48631e-12 -1.93815e-12 -8.77426

25.2746 30.3475 5.77908e-12
30.3475 41.0923 -5.41197e-12
5.77908e-12 -5.41197e-12 -4.45918

62.6896 13.2971 -5.695e-12
13.2971 5.22442 -2.64115e-12
-5.695e-12 -2.64115e-12 -4.30862

-7.03169 13.3814 2.4533e-12
13.3814 61.3515 7.94624e-12
2.4533e-12 7.94624e-12 -8.69843

11.7271 -22.3447 2.59407e-12
-22.3447 55.7692 -1.50517e-12
2.59407e-12 -1.50517e-12 -4.30462

-47.2599 -1.09283 -1.56164e-12
-1.09283 12.4085 -6.91595e-13
-1.56164e-12 -6.91595e-13 -22.16

-5.92479 2.24711 1.3783e-12
2.24711 59.011 -1.92083e-12
1.3783e-12 -1.92083e-12 -5.26627

6.26548 31.0952 5.25802e-13
31.0952 47.8701 -9.27258e-13
5.25802e-13 -9.27258e-13 -9.66385

-39.7274 12.1092 -9.54672e-13
12.1092 12.8439 4.46398e-12
-9.54672e-13 4.46398e-12 -9.31644

40.7414 -27.6528 4.29286e-12
-27.6528 8.35471 -2.01439e-12
4.29286e-12 -2.01439e-12 -5.64585

7.53766 20.5571 -3.14297e-12
20.5571 -47.4676 1.07795e-12
-3.14297e-12 1.07795e-12 -16.483

-3.42285 26.2704 -3.7795e-12
26.2704 -31.4853 -1.3034e-12
-3.7795e-12 -1.3034e-12 -22.2504

15.7769 -18.5701 8.24822e-13
-18.5701 -30.0184 -1.50694e-13
8.24822e-13 -1.50694e-13 -8.18718

4.4271 -1.80428 1.20304e-12
-1.80428 -34.1329 -4.97913e-12
1.20304e-12 -4.97913e-12 -24.4362

-14.3424 -31.8138 5.56592e-12
-31.8138 -11.9332 -3.44791e-12
5.56592e-12 -3.44791e-12 -9.05371

56.2246 23.3321 -1.82254e-12
23.3321 0.812301 -1.12562e-12
-1.82254e-12 -1.12562e-12 -8.29135

-27.8295 30.1628 2.36167e-12
30.1628 -9.23686 1.19401e-12
2.36167e-12 1.19401e-12 -8.8044

-27.0052 29.2067 -1.31628e-12
29.2067 -9.20207 -1.62862e-12
-1.31628e-12 -1.62862e-12 -8.68172

28.6293 30.6667 1.85096e-12
30.6667 40.409 2.4194e-12
1.85096e-12 2.4194e-12 -4.4521

0.343019 27.0869 2.74447e-12
27.0869 -19.8502 1.07174e-12
2.74447e-12 1.07174e-12 -11.7795

64.5163 3.52581 7.57912e-13
3.52581 -11.8325 -3.39799e-12
7.57912e-13 -3.39799e-12 -10.0217

-14.9013 31.8173 1.76155e-13
31.8173 -20.7991 -8.13867e-13
1.76155e-13 -8.13867e-13 -12.4499

-37.9485 -12.5992 8.53169e-13
-12.5992 8.1804 3.14948e-12
8.53169e-13 3.14948e-12 -14.0246

-0.474501 24.2771 -1.82758e-12
24.2771 -30.0007 -1.88649e-12
-1.82758e-12 -1.88649e-12 -20.7698

-23.7291 -29.5796 -3.30402e-13
-29.5796 -11.9352 4.4705e-14
-3.30402e-13 4.4705e-14 -8.84726

-38.1532 -4.89714 4.48012e-13
-4.89714 18.8471 5.76724e-13
4.48012e-13 5.76724e-13 -11.7325

69.9536 -24.5609 5.43328e-12
-24.5609 18.028 1.73491e-12
5.43328e-12 1.73491e-12 -7.04615

39.985 29.6987 -9.01205e-13
29.6987 13.4775 4.15549e-12
-9.01205e-13 4.15549e-12 -5.21879

-4.30147 14.6994 1.29052e-12
14.6994 60.5786 4.16496e-12
1.29052e-12 4.16496e-12 -8.40427

1.61117 -1.13941 1.72973e-12
-1.13941 -56.1251 -2.84484e-12
1.72973e-12 -2.84484e-12 -11.2132

9.61416 0.0021397 -4.19812e-13
0.0021397 -44.7597 2.14844e-12
-4.19812e-13 2.14844e-12 -8.44291

-31.0829 23.1263 6.96776e-13
23.1263 -4.33862 -2.18344e-12
6.96776e-13 -2.18344e-12 -8.46332

-34.7617 23.8718 9.35252e-13
23.8718 -13.1945 3.66836e-13
9.35252e-13 3.66836e-13 -14.815

-43.3803 -24.3811 -3.31914e-12
-24.3811 -12.6138 1.02081e-12
-3.31914e-12 1.02081e-12 -11.4725

-39.0636 -0.673834 1.11949e-12
-0.673834 21.0463 -1.62241e-13
1.11949e-12 -1.62241e-13 -10.4984

-40.8075 25.5914 1.55431e-12
25.5914 -13.2238 5.77575e-12
1.55431e-12 5.77575e-12 -11.1763

32.3239 -10.3096 1.47734e-12
-10.3096 -25.1616 -1.00468e-12
1.47734e-12 -1.00468e-12 -6.01944

8.7038 -32.8398 -1.16647e-13
-32.8398 22.7978 1.49096e-12
-1.16647e-13 1.49096e-12 -6.99664

2.39624 -2.30262 3.07946e-12
-2.30262 -49.9617 3.25695e-12
3.07946e-12 3.25695e-12 -14.7746

36.7481 -34.5149 -7.22385e-14
-34.5149 24.48 -1.03621e-13
-7.22385e-14 -1.03621e-13 -7.71232

-38.2959 19.0858 -1.90263e-12
19.0858 -7.09289 -2.25834e-12
-1.90263e-12 -2.25834e-12 -14.4514

7.87038 -26.4797 -1.32457e-12
-26.4797 -27.9987 -1.31391e-12
-1.32457e-12 -1.31391e-12 -10.9719

63.9553 -9.69216 -7.0699e-13
-9.69216 5.67378 -1.10489e-12
-7.0699e-13 -1.10489e-12 -5.07535

6.03817 -23.1933 -1.92675e-12
-23.1933 -35.4695 7.54656e-13
-1.92675e-12 7.54656e-13 -17.7363

0.14152 2.35851 -3.83397e-14
2.35851 -56.1753 -6.64431e-13
-3.83397e-14 -6.64431e-13 -11.5499

-4.06296 -23.3234 2.40163e-12
-23.3234 -23.4124 -2.33857e-12
2.40163e-12 -2.33857e-12 -16.72

11.0378 -25.8606 3.56515e-12
-25.8606 -29.4902 -2.38624e-12
3.56515e-12 -2.38624e-12 -9.73713

10.2006 -8.54763 3.08376e-12
-8.54763 -43.495 7.57912e-13
3.08376e-12 7.57912e-13 -9.28592

-35.417 -23.069 1.99248e-12
-23.069 -12.6479 -8.30077e-14
1.99248e-12 -8.30077e-14 -15.1049

23.6644 -31.3476 -1.15818e-12
-31.3476 5.70912 -4.91459e-14
-1.15818e-12 -4.91459e-14 -5.88296

11.0585 -24.5902 3.73213e-12
-24.5902 -27.498 8.29263e-13
3.73213e-12 8.29263e-13 -10.0513

46.6478 10.8665 -1.66385e-12
10.8665 -16.125 -3.56367e-12
-1.66385e-12 -3.56367e-12 -6.80457

-14.1865 26.3421 6.00113e-13
26.3421 -15.6435 -1.09009e-12
6.00113e-13 -1.09009e-12 -14.1208

-45.2496 -37.6102 2.86882e-13
-37.6102 -20.6112 -5.30979e-12
2.86882e-13 -5.30979e-12 -14.9213

-43.7067 37.2627 -2.69414e-14
37.2627 -21.2647 5.60811e-12
-2.69414e-14 5.60811e-12 -14.7718

-61.1809 -28.5718 5.97559e-13
-28.5718 -7.49735 -3.97637e-12
5.97559e-13 -3.97637e-12 -15.2018

-58.4124 27.0629 -6.16248e-13
27.0629 -6.27191 -5.42085e-13
-6.16248e-13 -5.42085e-13 -14.4805

5.60001 -8.52663 1.29437e-12
-8.52663 -71.06 -2.01646e-12
1.29437e-12 -2.01646e-12 -14.712

4.39708 9.27257 -1.55668e-12
9.27257 -68.829 1.45676e-12
-1.55668e-12 1.45676e-12 -14.4401

9.02364 -9.8476 2.02801e-13
-9.8476 -40.8948 -1.93046e-12
2.02801e-13 -1.93046e-12 -9.61603

-24.3352 32.1128 -3.46745e-12
32.1128 -24.8074 -5.34434e-13
-3.46745e-12 -5.34434e-13 -21.144

-25.5222 -32.8506 -3.15185e-12
-32.8506 -25.0936 3.8532e-12
-3.15185e-12 3.8532e-12 -21.4681

-53.9146 16.0677 1.10208e-12
16.0677 3.39963 1.07055e-12
1.10208e-12 1.07055e-12 -21.4015

-52.4159 -15.8004 -4.13003e-14
-15.8004 3.29511 6.32087e-13
-4.13003e-14 6.32087e-13 -21.0749

6.10972 -3.75037 4.67197e-12
-3.75037 -43.9235 3.02869e-13
4.67197e-12 3.02869e-13 -25.7618

6.91562 3.61305 -2.23732e-12
3.61305 -46.3465 4.2751e-13
-2.23732e-12 4.2751e-13 -26.138

-15.6331 9.83872 3.4975e-12
9.83872 46.2669 -2.49756e-12
3.4975e-12 -2.49756e-12 -5.85272

-22.921 -24.7766 1.04391e-12
-24.7766 -14.5538 2.47506e-12
1.04391e-12 2.47506e-12 -10.3338

-56.6008 -36.3855 3.02521e-12
-36.3855 -14.5322 -1.67866e-12
3.02521e-12 -1.67866e-12 -13.4404

33.3612 -4.66484 6.95858e-12
-4.66484 -19.8534 3.68812e-12
6.95858e-12 3.68812e-12 -3.95009

3.43242 -16.692 1.49836e-12
-16.692 -52.6249 -2.91737e-12
1.49836e-12 -2.91737e-12 -21.5313

3.67359 16.173 4.4705e-13
16.173 -51.8806 -1.86517e-12
4.4705e-13 -1.86517e-12 -21.4045

6.55508 0.121852 -3.11899e-13
0.121852 -76.7511 1.33997e-13
-3.11899e-13 1.33997e-13 -13.3073

-7.57561 23.3799 -1.79294e-12
23.3799 39.939 -1.43293e-13
-1.79294e-12 -1.43293e-13 -6.88996

-56.8863 36.1695 -5.19066e-13
36.1695 -14.0108 -9.10383e-13
-5.19066e-13 -9.10383e-13 -13.3921

-39.7958 -23.3966 -4.29686e-12
-23.3966 2.56097 2.29742e-12
-4.29686e-12 2.29742e-12 -8.80502

37.1194 23.3571 5.93185e-12
23.3571 -8.619 7.8515e-13
5.93185e-12 7.8515e-13 -5.76342

4.73298 23.8593 -6.00409e-13
23.8593 -38.2266 -1.5404e-12
-6.00409e-13 -1.5404e-12 -18.9856

24.0137 -31.3194 1.68635e-12
-31.3194 6.4052 4.97321e-12
1.68635e-12 4.97321e-12 -5.65289

2.43025 -3.23264 6.71019e-13
-3.23264 -48.3708 6.24389e-13
6.71019e-13 6.24389e-13 -14.7446

-60.4538 -34.1594 3.80037e-12
-34.1594 -14.3498 -2.52243e-13
3.80037e-12 -2.52243e-13 -14.034

-17.4602 8.32148 1.82223e-12
8.32148 45.6961 -1.30977e-12
1.82223e-12 -1.30977e-12 -5.78584

-9.47522 21.816 -6.01001e-12
21.816 40.4286 3.30402e-13
-6.01001e-12 3.30402e-13 -6.6585

58.6107 35.7825 -1.72899e-12
35.7825 37.0908 4.24312e-12
-1.72899e-12 4.24312e-12 -6.91744

70.4939 1.57909 -3.606e-12
1.57909 -5.54842 -3.97948e-12
-3.606e-12 -3.97948e-12 -10.3768

-30.7591 -22.8057 -2.47979e-12
-22.8057 -13.3583 3.25127e-12
-2.47979e-12 3.25127e-12 -14.468

32.8435 31.1896 5.49486e-13
31.1896 69.8033 9.30811e-13
5.49486e-13 9.30811e-13 -6.68052

-19.3801 23.6127 -3.83723e-12
23.6127 7.68646 -2.16064e-12
-3.83723e-12 -2.16064e-12 -5.51819

47.6422 -5.35057 -4.83406e-12
-5.35057 -17.4413 8.76336e-13
-4.83406e-12 8.76336e-13 -6.82652

33.2218 11.218 -3.14652e-12
11.218 -23.6449 1.47438e-12
-3.14652e-12 1.47438e-12 -6.01916

6.25363 0.429865 1.76673e-12
0.429865 -77.5481 -5.05889e-12
1.76673e-12 -5.05889e-12 -13.453

-58.9321 -29.0294 -7.9788e-13
-29.0294 -6.28853 1.39799e-12
-7.9788e-13 1.39799e-12 -14.6995

-28.3309 -6.31731 -2.06013e-12
-6.31731 -11.3532 -1.82373e-12
-2.06013e-12 -1.82373e-12 -51.5741

-44.6961 37.4089 6.92483e-13
37.4089 -20.8102 -1.39577e-12
6.92483e-13 -1.39577e-12 -14.7758

93.8038 1.66354 2.69769e-12
1.66354 16.6547 9.81437e-14
2.69769e-12 9.81437e-14 -6.04389

10.0338 -32.7935 3.13823e-14
-32.7935 21.3107 1.69997e-12
3.13823e-14 1.69997e-12 -6.81293

-56.9332 36.6109 3.87046e-12
36.6109 -14.5706 -1.26995e-12
3.87046e-12 -1.26995e-12 -13.5082

-35.0856 -11.1347 7.66202e-13
-11.1347 19.1776 -2.61835e-12
7.66202e-13 -2.61835e-12 -8.32078

-5.48319 -25.5197 3.96305e-12
-25.5197 37.3532 7.02253e-13
3.96305e-12 7.02253e-13 -6.99172

-58.4488 28.8284 -2.97395e-12
28.8284 -6.27191 -1.23664e-12
-2.97395e-12 -1.23664e-12 -14.6166

28.4968 -26.1466 1.08891e-12
-26.1466 -4.91694 -1.46253e-13
1.08891e-12 -1.46253e-13 -4.70202

-21.1649 10.4844 2.27226e-12
10.4844 -18.5583 2.81197e-12
2.27226e-12 2.81197e-12 -51.6696

3.42895 30.8781 7.21379e-12
30.8781 27.1636 1.13687e-13
7.21379e-12 1.13687e-13 -6.73774

6.13953 8.12574 4.95011e-13
8.12574 -72.2932 1.14738e-12
4.95011e-13 1.14738e-12 -14.9865

-11.5477 30.1915 5.03301e-15
30.1915 -20.603 -1.01726e-12
5.03301e-15 -1.01726e-12 -11.5518

-30.8014 23.3342 2.9677e-12
23.3342 -5.10105 -1.45454e-12
2.9677e-12 -1.45454e-12 -8.46929

-25.8631 -32.4853 7.50807e-13
-32.4853 -24.1103 -8.62791e-13
7.50807e-13 -8.62791e-13 -21.5574

9.20369 -23.1929 1.82373e-13
-23.1929 -27.9251 3.82035e-12
1.82373e-13 3.82035e-12 -11.4283

-37.6629 10.4681 7.12023e-13
10.4681 8.92907 4.05542e-12
7.12023e-13 4.05542e-12 -25.3276

-23.0444 -23.4362 2.51651e-13
-23.4362 4.95165 -3.24659e-12
2.51651e-13 -3.24659e-12 -6.26796

88.8162 -9.70982 4.30589e-12
-9.70982 10.8058 -2.02334e-12
4.30589e-12 -2.02334e-12 -10.0317

84.0561 -14.2796 6.79989e-12
-14.2796 2.80995 1.82491e-12
6.79989e-12 1.82491e-12 -13.198

5.88566 16.5318 -2.31459e-12
16.5318 -33.9323 -2.73589e-12
-2.31459e-12 -2.73589e-12 -22.3739

-16.4264 22.5055 3.16784e-14
22.5055 16.2278 -3.58824e-12
3.16784e-14 -3.58824e-12 -5.09052

-3.91428 29.1666 -4.18569e-12
29.1666 -12.2338 4.2597e-12
-4.18569e-12 4.2597e-12 -8.40058

50.9985 0.688762 -1.78938e-12
0.688762 -6.53773 4.84118e-12
-1.78938e-12 4.84118e-12 -3.63871

-48.1432 6.56993 1.31914e-12
6.56993 14.7852 -7.60281e-13
1.31914e-12 -7.60281e-13 -18.9523

10.1158 16.5406 -7.04622e-14
16.5406 -36.0829 -1.8406e-12
-7.04622e-14 -1.8406e-12 -9.13902

-4.50911 -25.7663 8.43769e-13
-25.7663 35.558 7.41333e-13
8.43769e-13 7.41333e-13 -6.75174

-39.1964 -2.57152 1.2107e-12
-2.57152 21.5046 5.59552e-13
1.2107e-12 5.59552e-13 -10.6724

-7.99624 13.368 -9.26666e-13
13.368 44.4094 -1.13095e-12
-9.26666e-13 -1.13095e-12 -3.94884

3.73367 -29.7161 -2.77704e-12
-29.7161 -17.3694 1.94896e-12
-2.77704e-12 1.94896e-12 -8.92443

21.4254 -29.9531 1.31332e-12
-29.9531 14.755 -3.8843e-13
1.31332e-12 -3.8843e-13 -3.92241

6.8777 31.6291 -8.81073e-13
31.6291 25.4022 1.8332e-12
-8.81073e-13 1.8332e-12 -6.83284

2.78372 -15.0187 5.20413e-12
-15.0187 -39.2588 4.85989e-12
5.20413e-12 4.85989e-12 -63.2913

-46.159 2.04246 -5.02583e-12
2.04246 11.4605 2.21156e-12
-5.02583e-12 2.21156e-12 -22.7545

-55.4396 20.2977 -1.60997e-12
20.2977 3.0932 6.95148e-13
-1.60997e-12 6.95148e-13 -22.9141

5.91413 15.4368 1.99307e-12
15.4368 -58.8133 2.36848e-12
1.99307e-12 2.36848e-12 -23.0342

-18.9239 -26.1913 -3.24185e-13
-26.1913 -12.9156 8.31927e-14
-3.24185e-13 8.31927e-14 -9.6567

41.3499 17.9603 6.34515e-12
17.9603 -6.27649 3.01862e-12
6.34515e-12 3.01862e-12 -3.86597

-44.6803 -5.29202 2.35247e-12
-5.29202 4.53858 4.37487e-12
2.35247e-12 4.37487e-12 -39.1357

7.49963 -18.9876 3.17405e-12
-18.9876 -39.8965 2.79628e-12
3.17405e-12 2.79628e-12 -11.6625

30.2928 -15.6009 3.24481e-12
-15.6009 -20.5151 2.77852e-12
3.24481e-12 2.77852e-12 -4.81005

-9.64418 11.6057 -7.80679e-12
11.6057 44.3232 9.00021e-14
-7.80679e-12 9.00021e-14 -3.86365

8.33109 -25.7393 3.06244e-12
-25.7393 32.9941 -1.05397e-13
3.06244e-12 -1.05397e-13 -3.63741

-10.2431 -25.274 4.27717e-12
-25.274 -19.1036 -2.33502e-12
4.27717e-12 -2.33502e-12 -23.1723

17.0039 31.9655 -3.11455e-12
31.9655 11.1951 4.90807e-12
-3.11455e-12 4.90807e-12 -5.75113

-1.06877 -25.1336 -2.21275e-12
-25.1336 -30.7643 5.79092e-13
-2.21275e-12 5.79092e-13 -20.89

48.0702 2.59779 -7.09358e-12
2.59779 -8.41574 -3.71333e-13
-7.09358e-12 -3.71333e-13 -3.53605

6.55101 -28.9358 1.65793e-14
-28.9358 72.0607 1.54898e-12
1.65793e-14 1.54898e-12 -14.5528

21.7911 -29.2364 -4.96373e-12
-29.2364 13.9624 1.86991e-12
-4.96373e-12 1.86991e-12 -3.93479

35.3538 32.1648 1.52293e-12
32.1648 74.144 -1.12976e-12
1.52293e-12 -1.12976e-12 -5.44257

-45.2867 -11.8758 -2.69429e-12
-11.8758 13.9211 -1.48622e-13
-2.69429e-12 -1.48622e-13 -15.3278

-14.4274 -13.824 4.90867e-13
-13.824 43.3861 -1.15582e-12
4.90867e-13 -1.15582e-12 -5.67743

-19.2374 -23.9834 2.63597e-12
-23.9834 -19.8288 4.09302e-13
2.63597e-12 4.09302e-13 -64.2328

2.43446 23.7755 7.26056e-12
23.7755 36.0094 2.44782e-12
7.26056e-12 2.44782e-12 -3.71553

-15.1835 -32.7265 -1.66504e-12
-32.7265 -21.1218 -3.83604e-12
-1.66504e-12 -3.83604e-12 -14.315

-14.5722 -11.9654 -8.18242e-12
-11.9654 45.5348 1.25292e-12
-8.18242e-12 1.25292e-12 -5.74355

7.83507 -19.1164 -2.24976e-12
-19.1164 -43.1233 1.39326e-12
-2.24976e-12 1.39326e-12 -12.6344

6.54258 23.8818 -2.6894e-12
23.8818 35.1738 8.28967e-14
-2.6894e-12 8.28967e-14 -3.44639

23.1748 -4.9759 -9.11863e-13
-4.9759 -30.6815 -2.41551e-12
-9.11863e-13 -2.41551e-12 -5.36912

36.9745 -30.3469 -4.38168e-12
-30.3469 122.644 4.05957e-12
-4.38168e-12 4.05957e-12 -6.23974

-26.875 21.0169 -2.99316e-12
21.0169 8.43364 -1.54247e-12
-2.99316e-12 -1.54247e-12 -7.13516

40.3417 -19.3268 2.18255e-12
-19.3268 -11.3788 -2.66187e-12
2.18255e-12 -2.66187e-12 -5.73063

6.52533 -21.4455 1.95962e-12
-21.4455 -45.5564 -2.25124e-12
1.95962e-12 -2.25124e-12 -24.969

20.7046 31.76 -5.33854e-12
31.76 9.55501 8.7456e-13
-5.33854e-12 8.7456e-13 -5.81063

13.9179 -29.9762 2.43361e-13
-29.9762 -7.61036 5.70211e-13
2.43361e-13 5.70211e-13 -5.94911

6.75559 20.8865 -5.54815e-13
20.8865 -27.7961 1.80655e-12
-5.54815e-13 1.80655e-12 -11.1113

-38.2754 -28.0765 3.77831e-12
-28.0765 -14.0391 8.24822e-13
3.77831e-12 8.24822e-13 -11.0649

8.64359 -26.2304 -3.63561e-13
-26.2304 31.1727 1.74675e-12
-3.63561e-13 1.74675e-12 -3.6395

15.3298 28.9865 -9.78773e-13
28.9865 19.1536 5.48302e-13
-9.78773e-13 5.48302e-13 -3.88742

28.6416 26.1957 1.89596e-12
26.1957 -5.63823 -4.52408e-12
1.89596e-12 -4.52408e-12 -4.80667

7.91339 -14.6123 -1.6908e-12
-14.6123 -36.8803 -1.82521e-12
-1.6908e-12 -1.82521e-12 -13.993

-6.84664 -16.621 2.2462e-12
-16.621 41.3443 3.74219e-13
2.2462e-12 3.74219e-13 -3.96388

17.4409 -17.5693 5.3942e-13
-17.5693 -31.0039 -3.80881e-13
5.3942e-13 -3.80881e-13 -7.10943

19.8415 16.9109 -4.76656e-13
16.9109 -31.6707 -4.46665e-12
-4.76656e-13 -4.46665e-12 -7.33921

-33.6824 -9.38428 3.28441e-12
-9.38428 8.75673 -2.26841e-12
3.28441e-12 -2.26841e-12 -23.9896

43.4357 -13.4322 9.35548e-13
-13.4322 -8.37452 -4.82681e-12
9.35548e-13 -4.82681e-12 -3.80858

-19.3855 0.594418 2.60799e-12
0.594418 43.1489 3.13941e-12
2.60799e-12 3.13941e-12 -4.78009

28.0576 18.5573 1.04805e-13
18.5573 -18.205 1.78109e-12
1.04805e-13 1.78109e-12 -4.75442

25.5292 27.6085 3.69482e-12
27.6085 -3.78011 -1.92261e-12
3.69482e-12 -1.92261e-12 -4.77581

-6.72049 -15.6893 5.0114e-12
-15.6893 43.8024 -1.22924e-12
5.0114e-12 -1.22924e-12 -3.85232

-19.9135 -1.20224 5.5469e-12
-1.20224 42.1313 -4.56405e-12
5.5469e-12 -4.56405e-12 -4.69167

-5.47336 29.1349 5.08334e-12
29.1349 -23.6501 -8.32223e-13
5.08334e-12 -8.32223e-13 -16.7975

-37.2782 -10.9236 -2.03659e-12
-10.9236 21.6797 4.77248e-13
-2.03659e-12 4.77248e-13 -7.8341

27.144 -26.72 -7.6857e-13
-26.72 -5.53505 5.02887e-12
-7.6857e-13 5.02887e-12 -4.94886

40.7223 21.3366 5.69855e-12
21.3366 -8.37582 -1.19371e-12
5.69855e-12 -1.19371e-12 -5.47204

12.3781 23.6668 1.85511e-12
23.6668 -27.1317 -8.18012e-13
1.85511e-12 -8.18012e-13 -8.67054

-37.8011 5.47219 3.46464e-13
5.47219 23.3115 1.32694e-12
3.46464e-13 1.32694e-12 -8.60097

18.592 29.0711 -2.66572e-12
29.0711 17.3772 7.29491e-13
-2.66572e-12 7.29491e-13 -3.95147

-9.98705 22.9641 -1.53744e-12
22.9641 -14.917 -2.16331e-12
-1.53744e-12 -2.16331e-12 -24.0229

68.3285 -59.7005 -1.68635e-12
-59.7005 36.3412 -4.63392e-12
-1.68635e-12 -4.63392e-12 -23.0088

17.53 -25.0515 6.01238e-12
-25.0515 -17.9965 3.45797e-13
6.01238e-12 3.45797e-13 -6.42205

10.0562 7.07114 -3.09945e-12
7.07114 82.562 7.03437e-13
-3.09945e-12 7.03437e-13 -7.16683

11.9187 -28.8937 -1.21384e-13
-28.8937 -3.88431 4.42017e-12
-1.21384e-13 4.42017e-12 -5.17041

-66.942 -52.7067 -8.84626e-13
-52.7067 143.275 8.2423e-13
-8.84626e-13 8.2423e-13 -49.6625

-68.3855 51.4573 1.80715e-12
51.4573 142.562 -1.80478e-12
1.80715e-12 -1.80478e-12 -49.8517

19.5817 117.167 -7.51044e-12
117.167 64.1458 -1.89952e-12
-7.51044e-12 -1.89952e-12 -48.3529

20.5407 -117.11 1.89478e-12
-117.11 61.0423 -4.13062e-12
1.89478e-12 -4.13062e-12 -48.7176

157.77 -1.36356 -5.06854e-12
-1.36356 -79.1856 -3.26417e-14
-5.06854e-12 -3.26417e-14 -48.9047

110.348 -91.1355 -8.8581e-13
-91.1355 -36.6838 2.26189e-12
-8.8581e-13 2.26189e-12 -50.2995

110.401 91.6635 2.34005e-12
91.6635 -36.4941 -2.64796e-12
2.34005e-12 -2.64796e-12 -50.1723

7.845 14.3323 -2.16538e-12
14.3323 -42.6833 2.54374e-12
-2.16538e-12 2.54374e-12 -15.0806

-11.7888 25.5348 2.16745e-12
25.5348 -27.4053 -4.6246e-12
2.16745e-12 -4.6246e-12 -35.1305

12.4383 6.60711 2.03867e-12
6.60711 -40.5397 -1.92661e-13
2.03867e-12 -1.92661e-13 -8.25723

26.2553 21.7881 2.90375e-12
21.7881 -19.5347 -1.09838e-12
2.90375e-12 -1.09838e-12 -5.85571

-21.2373 17.7477 2.60695e-12
17.7477 29.8698 8.27782e-13
2.60695e-12 8.27782e-13 -6.16746

22.5301 28.9036 -1.73965e-12
28.9036 -0.778862 4.06608e-12
-1.73965e-12 4.06608e-12 -4.73547

4.05325 -29.6664 -3.29218e-13
-29.6664 -17.4689 5.73378e-12
-3.29218e-13 5.73378e-12 -8.50814

25.9956 28.0328 8.08834e-13
28.0328 -2.30546 2.37617e-12
8.08834e-13 2.37617e-12 -4.73583

-19.354 -2.84209 -2.51843e-12
-2.84209 43.0748 3.19981e-12
-2.51843e-12 3.19981e-12 -4.77466

-13.409 -26.0956 3.32771e-12
-26.0956 -25.8391 -4.84649e-13
3.32771e-12 -4.84649e-13 -35.5133

-19.8491 -4.86362 7.75676e-14
-4.86362 41.7796 -2.76164e-12
7.75676e-14 -2.76164e-12 -4.74857

-1.82826 23.0184 2.53486e-12
23.0184 -24.3777 -1.08565e-12
2.53486e-12 -1.08565e-12 -16.1502

44.9866 26.8759 5.48302e-13
26.8759 8.10837 -1.49806e-13
5.48302e-13 -1.49806e-13 -5.37287

-52.5035 -13.2165 -1.79412e-13
-13.2165 0.149433 1.05249e-12
-1.79412e-13 1.05249e-12 -20.6162

20.281 13.7299 -4.03292e-12
13.7299 -31.1484 -1.28786e-13
-4.03292e-12 -1.28786e-13 -7.04786

13.6997 -29.9922 1.10016e-12
-29.9922 -6.69594 1.40184e-12
1.10016e-12 1.40184e-12 -5.84006

29.6325 -24.7175 -2.56388e-12
-24.7175 -7.87899 -1.49214e-13
-2.56388e-12 -1.49214e-13 -4.82982

5.76264 -16.0772 -3.61341e-12
-16.0772 -32.3343 6.0929e-13
-3.61341e-12 6.0929e-13 -22.2533

12.6273 27.9324 -1.53122e-12
27.9324 -13.6437 -3.87956e-12
-1.53122e-12 -3.87956e-12 -6.42402

23.309 23.9813 -3.36324e-13
23.9813 -17.9489 6.94259e-13
-3.36324e-13 6.94259e-13 -5.9672

-31.0837 -2.79271 -9.29923e-13
-2.79271 30.1332 -3.34547e-13
-9.29923e-13 -3.34547e-13 -6.4029

-28.6369 5.87396 2.20918e-12
5.87396 33.3232 -3.74397e-12
2.20918e-12 -3.74397e-12 -6.06418

34.5513 2.64717 6.17521e-12
2.64717 -26.1919 3.44998e-12
6.17521e-12 3.44998e-12 -6.14729

50.6569 -7.29112 5.21065e-14
-7.29112 -14.0892 -2.86438e-12
5.21065e-14 -2.86438e-12 -6.78307

11.0397 30.4894 -2.42769e-14
30.4894 -4.79186 1.59813e-12
-2.42769e-14 1.59813e-12 -5.97106

17.4667 -26.1592 -1.30681e-12
-26.1592 -17.4594 3.4482e-12
-1.30681e-12 3.4482e-12 -6.35619

-0.0831505 -21.255 -3.89999e-12
-21.255 -27.9585 -1.21266e-12
-3.89999e-12 -1.21266e-12 -17.1663

4.93619 -31.6391 -4.87906e-13
-31.6391 4.85865 4.87847e-12
-4.87906e-13 4.87847e-12 -5.94008

-8.23246 -27.7908 9.11271e-13
-27.7908 18.5786 -2.91145e-12
9.11271e-13 -2.91145e-12 -6.13481

-1.65422 29.8926 -9.31995e-13
29.8926 10.4458 -2.08426e-12
-9.31995e-13 -2.08426e-12 -5.80519

-26.0239 -9.57941 -1.82524e-12
-9.57941 32.9719 -3.38574e-12
-1.82524e-12 -3.38574e-12 -5.79188

-31.3293 -1.54566 3.18856e-13
-1.54566 31.6521 -2.07242e-13
3.18856e-13 -2.07242e-13 -6.22781

-38.9214 5.74762 3.91983e-13
5.74762 23.9468 2.14465e-12
3.91983e-13 2.14465e-12 -9.18649

-17.2246 -21.0931 -1.79975e-12
-21.0931 26.5721 5.9952e-12
-1.79975e-12 5.9952e-12 -5.77684

13.0703 24.1142 2.70539e-12
24.1142 -28.1053 -1.63514e-12
2.70539e-12 -1.63514e-12 -9.20836

21.556 -9.59117 -1.00246e-12
-9.59117 -31.7135 1.91758e-12
-1.00246e-12 1.91758e-12 -6.60282

-27.1609 7.46626 -4.30248e-13
7.46626 34.3366 6.88042e-13
-4.30248e-13 6.88042e-13 -5.87858

-35.242 -9.7016 -7.27011e-14
-9.7016 22.3143 1.96287e-12
-7.27011e-14 1.96287e-12 -8.18728

-29.1622 -16.3331 -2.32096e-12
-16.3331 19.3472 -2.72967e-13
-2.32096e-12 -2.72967e-13 -6.66643

36.9712 -8.2406 3.02691e-12
-8.2406 -20.2442 -1.78968e-12
3.02691e-12 -1.78968e-12 -5.10615

-14.8112 -32.3468 -4.65702e-13
-32.3468 -21.6279 -1.76392e-12
-4.65702e-13 -1.76392e-12 -12.9951

-22.8302 9.32294 2.6222e-12
9.32294 33.3253 -1.07766e-12
2.6222e-12 -1.07766e-12 -4.79327

-0.752358 -18.2134 -1.9155e-13
-18.2134 -35.1553 -2.05954e-12
-1.9155e-13 -2.05954e-12 -33.2708

4.93019 24.8274 -8.17124e-14
24.8274 75.3179 -7.41333e-13
-8.17124e-14 -7.41333e-13 -14.3203

-14.1421 -26.6278 -4.09213e-12
-26.6278 -16.3535 6.21725e-13
-4.09213e-12 6.21725e-13 -14.6421

-6.3573 -30.2031 2.24768e-12
-30.2031 -23.6059 -4.54155e-13
2.24768e-12 -4.54155e-13 -17.0882

-31.2774 -0.700744 4.3047e-13
-0.700744 31.5019 9.8351e-13
4.3047e-13 9.8351e-13 -6.35265

28.4897 -16.6247 -3.30106e-12
-16.6247 -18.0629 1.94304e-12
-3.30106e-12 1.94304e-12 -4.44249

-37.8098 12.8421 1.30472e-12
12.8421 11.1652 3.39462e-12
1.30472e-12 3.39462e-12 -10.9919

-8.86161 -3.1816 5.81853e-12
-3.1816 111.069 4.47405e-12
5.81853e-12 4.47405e-12 -22.6699

-31.6094 14.2756 5.75362e-12
14.2756 21.3507 -1.76451e-12
5.75362e-12 -1.76451e-12 -7.12904

12.4202 -29.494 -2.93454e-12
-29.494 -2.52229 6.38896e-13
-2.93454e-12 6.38896e-13 -4.93269

33.6357 25.1094 -8.24822e-13
25.1094 124.047 1.87583e-12
-8.24822e-13 1.87583e-12 -6.21222

-13.4999 26.0932 2.44782e-12
26.0932 -19.096 -5.24514e-12
2.44782e-12 -5.24514e-12 -58.8771

-9.55136 -27.8021 4.33283e-13
-27.8021 -22.8044 5.05418e-12
4.33283e-13 5.05418e-12 -59.5273

-2.86861 -30.4231 2.98546e-12
-30.4231 -7.32515 7.25346e-14
2.98546e-12 7.25346e-14 -7.29189

3.8572 -31.1658 -7.64426e-13
-31.1658 5.63309 1.37016e-12
-7.64426e-13 1.37016e-12 -6.06732

25.1534 20.8303 -4.20286e-12
20.8303 -17.0401 -2.6894e-12
-4.20286e-12 -2.6894e-12 -4.98134

31.807 15.0087 3.53317e-12
15.0087 -23.3086 8.44362e-13
3.53317e-12 8.44362e-13 -5.95963

-9.48531 3.08047 1.23234e-11
3.08047 -9.82829 -8.11129e-13
1.23234e-11 -8.11129e-13 -80.9093

-5.54667 -6.99561 -1.21128e-11
-6.99561 -14.0378 -3.5872e-12
-1.21128e-11 -3.5872e-12 -80.2622

11.7491 4.82412 3.12165e-12
4.82412 -43.2097 -7.09062e-13
3.12165e-12 -7.09062e-13 -7.83188

-35.0619 6.73254 1.28016e-12
6.73254 24.3758 8.5502e-13
1.28016e-12 8.5502e-13 -7.56783

-36.1169 6.73648 -9.39332e-13
6.73648 24.4331 1.92202e-12
-9.39332e-13 1.92202e-12 -8.31284

74.5986 58.6438 1.83557e-12
58.6438 34.1799 -6.26699e-12
1.83557e-12 -6.26699e-12 -21.8709

-6.92495 -28.2052 1.01963e-12
-28.2052 16.8747 5.22249e-13
1.01963e-12 5.22249e-13 -6.12171

8.17152 17.9739 -2.20594e-12
17.9739 -44.8768 8.11795e-13
-2.20594e-12 8.11795e-13 -12.8988

32.7058 9.54098 1.08358e-12
9.54098 -19.0866 -6.42449e-14
1.08358e-12 -6.42449e-14 -4.07907

3.38485 -26.728 -3.24244e-12
-26.728 13.4836 -1.9836e-13
-3.24244e-12 -1.9836e-13 -3.83165

26.2385 -20.241 -9.90023e-13
-20.241 -20.3295 1.4501e-12
-9.90023e-13 1.4501e-12 -5.868

65.4025 60.2417 -2.77822e-12
60.2417 34.2956 -5.51618e-12
-2.77822e-12 -5.51618e-12 -23.866

-13.2436 31.0705 -7.15576e-13
31.0705 -16.8854 -2.42473e-13
-7.15576e-13 -2.42473e-13 -12.7884

-18.6113 -19.7899 2.66187e-12
-19.7899 28.4162 1.98834e-12
2.66187e-12 1.98834e-12 -5.97451

11.1726 28.8616 -4.19457e-12
28.8616 -13.3268 2.26663e-12
-4.19457e-12 2.26663e-12 -6.44053

-31.8756 -4.14602 -4.73843e-13
-4.14602 30.149 -1.11318e-12
-4.73843e-13 -1.11318e-12 -6.36226

-14.6018 19.6128 1.43559e-12
19.6128 27.1866 1.14871e-12
1.43559e-12 1.14871e-12 -4.4235

7.47741 30.5239 8.50875e-13
30.5239 -1.67385 6.21725e-14
8.50875e-13 6.21725e-14 -5.66525

-9.34964 -22.4774 3.15599e-12
-22.4774 23.1501 2.37795e-12
3.15599e-12 2.37795e-12 -4.18025

4.58778 -27.3573 -4.96018e-12
-27.3573 11.4485 -4.33609e-12
-4.96018e-12 -4.33609e-12 -3.94315

24.2748 11.2588 -4.91074e-12
11.2588 102.095 -2.70717e-12
-4.91074e-12 -2.70717e-12 -12.4035

37.4697 -33.4626 2.66927e-12
-33.4626 69.2949 -9.87654e-13
2.66927e-12 -9.87654e-13 -5.7041

-25.3425 -11.6924 -2.63352e-12
-11.6924 31.3701 -1.92675e-12
-2.63352e-12 -1.92675e-12 -5.65316

16.0956 26.4885 2.15117e-12
26.4885 -15.506 -8.87586e-13
2.15117e-12 -8.87586e-13 -6.22173

4.95318 29.4825 2.47565e-12
29.4825 1.63493 -2.02031e-12
2.47565e-12 -2.02031e-12 -4.99469

-9.85944 -21.4379 3.13379e-12
-21.4379 25.1221 7.94624e-13
3.13379e-12 7.94624e-13 -4.03799

-21.6408 -11.7848 2.11357e-12
-11.7848 32.084 -1.76511e-12
2.11357e-12 -1.76511e-12 -4.64189

10.4611 28.4142 -1.46845e-13
28.4142 -0.158583 -5.63105e-13
-1.46845e-13 -5.63105e-13 -4.67746

-21.8528 -13.8804 -2.59615e-12
-13.8804 29.4688 -1.65971e-12
-2.59615e-12 -1.65971e-12 -4.8519

6.95699 27.8606 4.53918e-12
27.8606 73.0959 1.93504e-12
4.53918e-12 1.93504e-12 -14.3234

-45.8334 -4.04002 8.27729e-13
-4.04002 14.0475 2.9304e-12
8.27729e-13 2.9304e-12 -19.964

0.873592 31.0332 -4.52379e-13
31.0332 7.51811 -1.04568e-12
-4.52379e-13 -1.04568e-12 -6.09413

9.7185 14.9032 -5.47414e-12
14.9032 -36.4333 -1.97383e-12
-5.47414e-12 -1.97383e-12 -10.9884

9.92686 -15.9296 -3.77446e-12
-15.9296 -39.4133 -3.05089e-12
-3.77446e-12 -3.05089e-12 -13.0714

85.6267 -24.209 3.68772e-12
-24.209 7.63457 -8.91731e-12
3.68772e-12 -8.91731e-12 -12.9586

-23.2117 -21.2701 -5.68434e-13
-21.2701 10.5136 -7.4003e-12
-5.68434e-13 -7.4003e-12 -6.17013

-16.605 26.702 1.89271e-12
26.702 1.77686 -6.70871e-13
1.89271e-12 -6.70871e-13 -6.59273

-26.1988 -21.7274 -3.80436e-13
-21.7274 -5.36975 5.73449e-12
-3.80436e-13 5.73449e-12 -23.8644

-41.5902 14.1024 8.9558e-12
14.1024 -3.5588 8.31039e-13
8.9558e-12 8.31039e-13 -64.1075

-0.89445 9.44513 3.82805e-13
9.44513 -44.2505 -6.06626e-12
3.82805e-13 -6.06626e-12 -64.2089

-20.3825 32.7037 1.33345e-12
32.7037 -23.2045 -2.70213e-12
1.33345e-12 -2.70213e-12 -24.3271

-11.4164 26.0054 1.10282e-12
26.0054 22.6046 7.73899e-13
1.10282e-12 7.73899e-13 -5.93078

16.0386 26.6646 3.24955e-12
26.6646 -17.2927 -3.64568e-12
3.24955e-12 -3.64568e-12 -6.55432

30.4314 45.1945 -2.28558e-13
45.1945 47.5613 8.05163e-12
-2.28558e-13 8.05163e-12 -15.1962

-44.8815 -11.3402 3.29337e-12
-11.3402 -1.80732 -1.61056e-13
3.29337e-12 -1.61056e-13 -61.6647

-8.29786 -3.431 9.72323e-12
-3.431 -12.7487 1.7996e-12
9.72323e-12 1.7996e-12 -77.2009

-14.6849 -0.208347 -1.29126e-12
-0.208347 -6.41839 2.91278e-12
-1.29126e-12 2.91278e-12 -77.3451

27.6703 -53.811 -2.63256e-12
-53.811 71.1619 4.45037e-12
-2.63256e-12 4.45037e-12 -24.3877

-11.6873 -11.5984 -2.44812e-12
-11.5984 -16.2062 6.68798e-13
-2.44812e-12 6.68798e-13 -37.4217

-32.6086 8.81072 -2.88451e-12
8.81072 -9.41529 -2.74299e-12
-2.88451e-12 -2.74299e-12 -49.5273

18.2562 -26.2025 3.15007e-13
-26.2025 -19.5521 1.12591e-12
3.15007e-13 1.12591e-12 -6.51114

-39.4324 1.00959 -6.32642e-13
1.00959 11.9808 1.6757e-12
-6.32642e-13 1.6757e-12 -19.7207

-30.2071 -20.2706 6.4689e-13
-20.2706 6.3044 -2.59348e-13
6.4689e-13 -2.59348e-13 -7.2209

10.5358 6.25566 -1.76777e-12
6.25566 -52.3914 -2.47335e-12
-1.76777e-12 -2.47335e-12 -9.64365

-49.8137 15.5962 -8.05208e-13
15.5962 10.1639 -1.08239e-12
-8.05208e-13 -1.08239e-12 -13.5333

-40.2881 7.19079 -2.63585e-13
7.19079 16.5414 -4.12411e-12
-2.63585e-13 -4.12411e-12 -13.7759

16.4045 20.3958 -2.3744e-12
20.3958 -25.8461 -2.72079e-12
-2.3744e-12 -2.72079e-12 -7.61177

-9.10077 -3.11391 -5.27608e-12
-3.11391 108.413 2.83743e-12
-5.27608e-12 2.83743e-12 -23.1003

-3.32321 -27.6277 4.56997e-12
-27.6277 -3.63096 -9.34956e-13
4.56997e-12 -9.34956e-13 -5.83462

-7.33658 -26.1195 1.35181e-12
-26.1195 -14.0844 -9.00998e-12
1.35181e-12 -9.00998e-12 -9.81394

-14.2 -31.4836 -2.39394e-12
-31.4836 -21.778 6.5626e-12
-2.39394e-12 6.5626e-12 -12.7578

90.7425 32.7552 -1.02318e-11
32.7552 20.9093 -1.80359e-12
-1.02318e-11 -1.80359e-12 -16.5046

-23.1125 -20.1151 -6.12221e-12
-20.1151 -17.3861 -1.35136e-12
-6.12221e-12 -1.35136e-12 -44.4159

72.6403 54.3302 -6.52278e-12
54.3302 91.6533 1.80952e-12
-6.52278e-12 1.80952e-12 -6.13999

-36.218 -21.4384 -4.44637e-12
-21.4384 -6.79683 -4.34911e-12
-4.44637e-12 -4.34911e-12 -13.0456

15.0341 14.6508 1.05397e-12
14.6508 -37.7556 -1.47068e-12
1.05397e-12 -1.47068e-12 -8.18268

44.5772 -14.5751 2.36848e-13
-14.5751 -8.27797 -2.09314e-13
2.36848e-13 -2.09314e-13 -4.42296

-21.2342 24.0492 2.10676e-12
24.0492 4.95483 7.20017e-13
2.10676e-12 7.20017e-13 -5.98114

17.3734 20.4297 -4.39352e-13
20.4297 -26.7976 -2.16716e-13
-4.39352e-13 -2.16716e-13 -6.95571

-51.1382 11.3984 3.86136e-13
11.3984 7.70916 -1.48415e-12
3.86136e-13 -1.48415e-12 -29.9892

-7.28977 -31.5827 1.43559e-12
-31.5827 -12.8291 -1.39681e-12
1.43559e-12 -1.39681e-12 -8.12328

2.79432 19.8121 1.24404e-12
19.8121 -46.0305 5.2817e-12
1.24404e-12 5.2817e-12 -29.9811

-24.6757 -18.4461 6.41857e-13
-18.4461 17.8364 -4.99156e-13
6.41857e-13 -4.99156e-13 -5.48487

-42.3435 4.28438 -4.91382e-13
4.28438 17.8692 -9.37324e-13
-4.91382e-13 -9.37324e-13 -12.7301

-4.09801 9.92823 6.01297e-12
9.92823 -40.2705 -6.18098e-12
6.01297e-12 -6.18098e-12 -47.5358

-2.68856 -8.51511 1.17891e-12
-8.51511 -38.3019 -2.89206e-12
1.17891e-12 -2.89206e-12 -47.3915

81.7353 18.5156 2.60295e-12
18.5156 1.69744 7.36004e-13
2.60295e-12 7.36004e-13 -14.4543

3.89513 7.96617 -5.24943e-12
7.96617 -45.1867 -1.53951e-13
-5.24943e-12 -1.53951e-13 -11.0219

35.8811 7.74208 -4.44356e-12
7.74208 184.598 -7.57912e-13
-4.44356e-12 -7.57912e-13 -9.74978

40.1551 -11.387 4.51221e-12
-11.387 190.396 -4.0122e-12
4.51221e-12 -4.0122e-12 -7.38131

53.7756 56.4127 -1.80952e-12
56.4127 159.278 -1.07055e-12
-1.80952e-12 -1.07055e-12 -11.4925

1.70667 -28.9525 -2.52835e-13
-28.9525 -24.6926 -5.4167e-12
-2.52835e-13 -5.4167e-12 -11.9652

16.0531 -49.1981 1.0895e-13
-49.1981 99.4344 -1.75978e-12
1.0895e-13 -1.75978e-12 -21.6869

54.5236 -55.9553 2.69769e-12
-55.9553 149.994 -1.82846e-12
2.69769e-12 -1.82846e-12 -13.6576

-2.16949 26.2247 -2.25716e-12
26.2247 17.5727 -3.14415e-12
-2.25716e-12 -3.14415e-12 -4.00077

134.959 73.8516 9.00021e-13
73.8516 85.0385 -9.71075e-14
9.00021e-13 -9.71075e-14 -10.1514

-18.7236 13.0457 6.54884e-13
13.0457 -3.89804 8.16236e-13
6.54884e-13 8.16236e-13 -26.7649

3.74041 0.0427928 1.45173e-12
0.0427928 -26.1899 3.00708e-12
1.45173e-12 3.00708e-12 -26.7682

144.118 -73.1368 -4.87432e-12
-73.1368 85.3661 -5.38591e-12
-4.87432e-12 -5.38591e-12 -8.18842

-21.3989 -23.4278 -1.96495e-12
-23.4278 12.2472 3.27442e-12
-1.96495e-12 3.27442e-12 -6.49643

89.3597 34.7349 -7.06043e-12
34.7349 41.3955 -2.66335e-12
-7.06043e-12 -2.66335e-12 -11.5463

72.2004 63.4979 -1.24819e-12
63.4979 149.714 -8.62125e-13
-1.24819e-12 -8.62125e-13 -9.66605

26.1677 21.6338 -7.88702e-13
21.6338 100.148 -2.1861e-12
-7.88702e-13 -2.1861e-12 -13.0299

73.8876 -65.927 -1.77873e-12
-65.927 151.165 2.77585e-12
-1.77873e-12 2.77585e-12 -9.39437

25.7723 -12.383 -3.44613e-12
-12.383 105.028 1.8782e-12
-3.44613e-12 1.8782e-12 -12.4266

-28.6641 6.83843 1.08469e-12
6.83843 3.1083 1.60375e-12
1.08469e-12 1.60375e-12 -37.8441

37.7475 -45.9829 -1.65793e-12
-45.9829 49.6758 -2.67993e-12
-1.65793e-12 -2.67993e-12 -15.533

14.4474 47.5393 -7.21201e-13
47.5393 94.8942 4.37694e-12
-7.21201e-13 4.37694e-12 -22.1904

173.362 37.916 -2.7048e-12
37.916 48.0521 3.48403e-12
-2.7048e-12 3.48403e-12 -9.51481

7.01876 -29.2892 -3.76292e-12
-29.2892 -14.3613 -9.29923e-13
-3.76292e-12 -9.29923e-13 -7.16013

-38.4213 12.896 -2.5846e-12
12.896 6.43589 -1.01015e-12
-2.5846e-12 -1.01015e-12 -15.2917

88.5182 -38.1186 -2.16479e-12
-38.1186 34.1676 -1.75504e-12
-2.16479e-12 -1.75504e-12 -14.098

6.04061 -28.8052 -1.94215e-13
-28.8052 -16.1765 5.07594e-12
-1.94215e-13 5.07594e-12 -8.03395

169.228 -36.3477 -2.72848e-12
-36.3477 34.938 -3.47633e-12
-2.72848e-12 -3.47633e-12 -13.283

-5.72685 -28.3206 -8.53243e-13
-28.3206 -14.4763 -5.28111e-12
-8.53243e-13 -5.28111e-12 -9.31318

-17.796 -25.299 1.79856e-12
-25.299 12.0793 1.32279e-12
1.79856e-12 1.32279e-12 -5.93953

118.893 69.4679 3.68535e-12
69.4679 96.2347 -1.77399e-12
3.68535e-12 -1.77399e-12 -11.3929

29.417 -22.9365 6.35107e-12
-22.9365 97.8111 1.89952e-12
6.35107e-12 1.89952e-12 -14.3382

117.976 -71.7001 2.74269e-12
-71.7001 93.696 3.59061e-12
2.74269e-12 3.59061e-12 -12.4089

22.2688 50.7449 -4.04417e-12
50.7449 73.7909 -6.15804e-14
-4.04417e-12 -6.15804e-14 -24.7758

-1.53916 -30.2164 4.33609e-12
-30.2164 -6.55612 1.72188e-12
4.33609e-12 1.72188e-12 -7.00272

-7.04225 -14.6413 4.718e-12
-14.6413 -21.9209 1.46875e-12
4.718e-12 1.46875e-12 -32.6073

-11.8912 11.0895 -5.42921e-12
11.0895 -16.4237 1.08935e-12
-5.42921e-12 1.08935e-12 -77.7674

-26.1603 -5.16058 4.17577e-12
-5.16058 -6.387 1.09538e-11
4.17577e-12 1.09538e-11 -77.6013

-38.9466 13.0841 2.06681e-12
13.0841 13.7442 -1.44477e-13
2.06681e-12 -1.44477e-13 -10.2425

-14.4788 -10.6638 -1.53795e-12
-10.6638 -17.3108 -3.15155e-13
-1.53795e-12 -3.15155e-13 -78.7298

-25.894 4.09263 -6.32339e-12
4.09263 -5.91338 -9.56642e-14
-6.32339e-12 -9.56642e-14 -78.8719

-3.63151 7.42993 -3.62954e-12
7.42993 -27.8539 -3.77979e-12
-3.62954e-12 -3.77979e-12 -77.9596

-43.9669 -12.1112 -2.71709e-13
-12.1112 2.91583 3.13823e-12
-2.71709e-13 3.13823e-12 -68.1359

11.9731 -30.4757 -8.36072e-13
-30.4757 76.1743 3.65456e-12
-8.36072e-13 3.65456e-12 -14.7018

0.519861 -12.9721 -1.93297e-12
-12.9721 -39.9863 3.36708e-12
-1.93297e-12 3.36708e-12 -45.2651

-16.3483 -34.4153 2.7572e-12
-34.4153 -22.0711 -1.20496e-12
2.7572e-12 -1.20496e-12 -23.5879

-2.42227 -18.1779 1.40924e-12
-18.1779 -29.8924 -5.81846e-12
1.40924e-12 -5.81846e-12 -33.6193

12.737 15.4612 1.86932e-12
15.4612 -37.721 6.59917e-13
1.86932e-12 6.59917e-13 -9.62924

-46.8992 9.86149 -4.64051e-12
9.86149 8.87512 -2.3325e-12
-4.64051e-12 -2.3325e-12 -70.1308

3.46073 19.2238 -7.13711e-12
19.2238 -41.4633 1.20485e-12
-7.13711e-12 1.20485e-12 -70.2466

1.46997 11.3093 -3.53199e-12
11.3093 -23.9633 2.05465e-12
-3.53199e-12 2.05465e-12 -31.8609

109.41 -15.3423 -8.3844e-13
-15.3423 -12.5357 -6.35048e-12
-8.3844e-13 -6.35048e-12 -25.0353

-14.3256 24.9683 2.01676e-12
24.9683 10.3854 -5.6423e-12
2.01676e-12 -5.6423e-12 -5.80995

76.6191 -61.364 -4.87906e-12
-61.364 37.373 -8.14756e-13
-4.87906e-12 -8.14756e-13 -22.3928

76.1245 -57.4652 7.34227e-14
-57.4652 99.2422 -4.42905e-12
7.34227e-14 -4.42905e-12 -5.5523

118.213 -36.5495 1.93741e-12
-36.5495 40.6062 -5.52447e-12
1.93741e-12 -5.52447e-12 -7.3763

-51.1032 -5.15853 -3.76336e-12
-5.15853 3.33867 -6.10386e-12
-3.76336e-12 -6.10386e-12 -60.6415

-50.4673 2.89147 -1.57193e-12
2.89147 3.13294 3.1702e-12
-1.57193e-12 3.1702e-12 -60.1143

-11.9748 -24.4509 1.28194e-12
-24.4509 -34.9954 2.59444e-12
1.28194e-12 2.59444e-12 -59.1488

-8.9903 -21.7547 4.74365e-12
-21.7547 -37.881 -1.32427e-12
4.74365e-12 -1.32427e-12 -59.4583

-14.701 26.13 -5.06795e-12
26.13 -33.0202 -7.35434e-12
-5.06795e-12 -7.35434e-12 -60.7327

-18.1515 3.09563 1.33819e-13
3.09563 -13.1613 1.30047e-11
1.33819e-13 1.30047e-11 -75.4527

-9.94445 -20.5047 1.9007e-13
-20.5047 -32.6437 1.80293e-12
1.9007e-13 1.80293e-12 -56.72

-26.6405 -18.5651 -2.59555e-12
-18.5651 -14.1953 6.1221e-12
-2.59555e-12 6.1221e-12 -71.249

-15.4723 2.43169 2.47091e-12
2.43169 -12.8506 -8.04364e-12
2.47091e-12 -8.04364e-12 -77.8462

-6.02665 -20.5213 3.96172e-12
-20.5213 -41.4791 2.05021e-12
3.96172e-12 2.05021e-12 -60.4889

-6.75578 20.9507 6.54958e-13
20.9507 -40.1357 5.72253e-12
6.54958e-13 5.72253e-12 -60.0002

-14.31 -3.4555 1.43496e-11
-3.4555 -11.3886 -2.09672e-11
1.43496e-11 -2.09672e-11 -76.861

-11.2603 -3.11295 1.23794e-11
-3.11295 -17.6838 1.37118e-11
1.23794e-11 1.37118e-11 -74.0249

-24.1963 12.1091 2.00891e-12
12.1091 -13.4001 -1.28815e-11
2.00891e-12 -1.28815e-11 -69.9455

-22.0782 26.9249 -3.41327e-12
26.9249 -26.2642 1.54934e-12
-3.41327e-12 1.54934e-12 -57.5657

VECTORS fluid_flux_TPM float
-8.72717e-05 3.10481e-05 2.67119e-21
3.56156e-06 6.88639e-06 -4.24461e-21
-1.27944e-05 -1.02312e-05 2.01711e-21
-4.17284e-06 4.25641e-06 -1.4229e-20
2.27203e-05 -6.31684e-06 -3.25038e-20
2.7592e-06 -1.59124e-05 -9.71932e-21
-8.58467e-05 -3.11127e-05 2.92782e-21
-1.39e-05 -1.04726e-05 9.86937e-21
2.21341e-05 9.46046e-07 -7.63855e-21
1.13903e-05 -3.91025e-06 -6.15864e-21
5.46314e-05 1.24909e-05 -1.44168e-20
2.34825e-06 -1.72036e-05 -9.04873e-21
1.36191e-05 1.126e-05 -1.02285e-20
2.66362e-06 1.37923e-05 -7.61474e-21
2.05924e-05 -2.94832e-06 -2.42333e-20
-1.63415e-05 -2.73043e-07 9.67489e-21
2.75511e-06 1.41067e-05 5.12848e-21
1.01875e-05 -2.39321e-06 -1.56237e-20
9.90424e-06 1.72323e-05 -3.28176e-21
-1.48568e-05 1.88654e-06 1.40588e-20
-3.60311e-06 -2.1316e-05 -7.07284e-21
3.41306e-05 5.94518e-05 -8.39842e-21
1.57063e-05 1.63222e-06 -6.56063e-22
1.12337e-05 -1.12878e-05 -9.12254e-21
-1.50869e-05 -3.33429e-06 1.43279e-20
-6.77549e-07 -1.11371e-05 1.68978e-20
6.29397e-05 -4.91125e-06 -5.13304e-21
1.4074e-05 1.02546e-05 -4.91325e-21
-2.51641e-05 -2.0655e-05 1.41255e-20
4.91487e-05 -1.28214e-05 -3.89847e-20
-1.65919e-05 -6.04177e-06 4.77834e-21
5.54058e-06 -3.20555e-05 -1.18991e-20
4.76827e-05 -4.80754e-05 -3.91386e-21
-4.9262e-06 -4.12721e-05 -1.66747e-20
-2.96909e-05 3.70272e-05 -3.50898e-21
-3.827e-05 -1.64048e-05 -8.50574e-21
3.2722e-05 4.3241e-05 -2.48462e-20
-4.47672e-05 -8.73106e-06 -9.72372e-21
1.43829e-05 -1.10882e-05 1.93128e-21
4.64977e-05 5.01446e-05 1.35064e-22
3.21484e-05 -1.40302e-05 -3.92902e-21
3.366e-05 -4.23686e-05 -2.50631e-20
-1.99082e-05 -5.04084e-05 -1.54061e-20
-1.59073e-05 6.36055e-06 -2.80518e-21
3.05438e-05 -2.93315e-05 -1.86304e-22
-3.03508e-05 1.0997e-05 -6.12362e-21
-4.05251e-06 -2.03829e-05 -8.40493e-21
7.89089e-06 2.02238e-05 -2.36862e-21
-1.63523e-05 5.93142e-06 2.90825e-21
-1.78303e-05 2.87434e-05 3.94493e-21
3.24281e-05 1.53e-05 -2.50384e-21
2.93828e-05 -1.00812e-05 -7.80741e-21
-1.56758e-05 1.57699e-05 -8.257e-21
-2.35556e-05 -2.07031e-05 2.52083e-20
-2.11526e-05 -5.13556e-06 -8.61944e-21
-4.4819e-05 2.70931e-05 -2.25448e-21
-2.93898e-05 -3.80462e-05 -3.33239e-20
6.36755e-06 -3.06467e-05 -1.98567e-20
-4.7737e-05 6.48688e-06 -1.62718e-20
6.07791e-06 1.37054e-05 -1.17067e-20
-5.58026e-06 -8.1785e-06 -8.75267e-21
-6.58762e-06 -1.79548e-05 4.77953e-21
5.71795e-05 2.4875e-05 -5.20867e-21
9.24866e-06 1.81556e-05 -6.83482e-22
1.23042e-05 -1.4454e-05 -1.34328e-20
-1.64153e-06 -2.07655e-05 -2.83718e-20
4.62404e-06 -8.81108e-06 -1.14893e-20
-1.00969e-05 -5.56839e-06 7.62489e-21
-1.06093e-05 1.19369e-05 -1.95023e-20
2.5598e-06 -4.09516e-06 -8.62155e-21
-1.50529e-05 -1.58532e-05 -1.97177e-20
-2.13783e-05 5.16919e-06 -1.99528e-20
-3.5588e-06 3.45035e-05 -3.41803e-21
-1.78831e-05 1.07177e-05 -1.25086e-20
-9.07651e-06 1.4624e-05 -1.4703e-20
-6.03943e-05 7.69737e-06 -1.98163e-21
7.82306e-06 -2.16953e-05 -4.13805e-21
-1.88921e-05 -8.90578e-06 9.30851e-21
1.93502e-06 1.16314e-05 -4.93233e-21
2.63177e-05 5.09286e-06 3.80364e-21
3.41909e-05 -2.89934e-05 -1.08261e-21
2.21605e-05 2.05692e-05 -2.14566e-21
1.1916e-05 -2.82414e-06 -2.96162e-20
-3.21745e-05 2.40831e-05 5.57382e-21
3.79285e-05 4.84893e-06 -8.27867e-21
-4.98354e-06 4.94467e-05 -1.52874e-20
-1.74214e-06 -1.68679e-05 -9.35763e-21
1.81354e-05 9.96097e-06 -2.16757e-20
2.93364e-05 3.0305e-05 -5.24065e-21
5.50599e-05 3.80377e-05 -2.73274e-20
-5.33457e-06 3.07926e-05 -7.48821e-22
5.92175e-05 -3.55351e-05 -1.99936e-20
-2.71421e-05 5.34462e-06 -9.56865e-21
1.78507e-05 1.10088e-05 -2.76529e-20
-2.96603e-05 9.90982e-06 1.03035e-20
1.66639e-05 2.85394e-05 5.04223e-21
1.01757e-05 -4.44152e-05 -9.26335e-21
1.91675e-06 1.16282e-05 -7.90016e-21
-1.48102e-05 -1.76314e-05 6.47499e-21
3.07193e-06 1.74859e-05 -1.05413e-20
2.64238e-05 5.26082e-06 9.23832e-21
-1.54531e-05 3.32327e-05 4.62841e-21
4.05782e-05 -1.33416e-05 4.68054e-21
-3.77543e-06 7.45987e-06 -1.47414e-20
9.95924e-06 5.90306e-06 2.36709e-21
-2.282e-06 -1.13318e-05 5.77331e-21
3.22278e-06 -1.92642e-05 -1.01927e-20
1.74805e-05 3.89456e-06 -1.96563e-20
-7.94193e-06 4.0999e-05 6.84391e-22
-9.81183e-06 2.4812e-07 -3.78378e-20
9.32454e-06 1.18933e-05 6.80679e-21
-2.17818e-06 -4.17408e-05 -1.03029e-20
4.20499e-05 1.28732e-05 -7.33915e-21
4.42545e-06 -7.45793e-06 -9.52075e-21
-1.11523e-05 -3.55591e-06 -2.23432e-21
-2.93446e-05 -1.24942e-05 1.02849e-20
1.58138e-05 4.11736e-05 -1.25935e-20
-4.35134e-05 -1.55841e-05 1.30629e-20
1.60288e-05 -4.11501e-05 -2.13401e-20
-3.702e-06 -3.19407e-05 -5.28144e-21
2.18528e-05 6.52593e-07 -2.46171e-21
-7.17606e-06 1.84084e-05 5.34116e-21
-1.61217e-06 3.97207e-06 -5.41724e-21
-3.68826e-06 -1.65493e-05 -2.31597e-20
5.23331e-06 -8.30738e-06 -2.25103e-20
9.36552e-06 1.58737e-05 4.08408e-21
3.31223e-05 1.06593e-05 -2.89268e-20
8.62102e-06 -7.46277e-06 -2.64061e-20
-8.27596e-06 -4.51892e-05 -2.33164e-21
2.55685e-05 -1.88318e-05 -1.80209e-20
4.98116e-06 2.7789e-05 3.14153e-21
-2.81814e-06 -2.84342e-06 3.07408e-21
-8.6317e-06 -8.33111e-06 -2.07906e-20
-4.77967e-06 4.41196e-08 -2.21098e-21
-2.28873e-05 2.86128e-05 1.23849e-20
1.87751e-05 -3.73989e-05 -3.09334e-20
-2.65969e-05 4.27423e-05 -2.54173e-21
-1.63823e-05 9.5414e-06 -6.10074e-21
2.52955e-06 1.22066e-05 -4.07153e-21
-2.30014e-05 -3.50117e-05 -3.92432e-21
1.39452e-05 3.34874e-05 -3.10107e-21
1.75189e-05 9.37514e-06 -1.27843e-20
2.2826e-05 -8.52803e-06 1.57932e-21
-1.25392e-06 -1.12725e-05 -2.45259e-20
-3.39335e-05 -3.15787e-05 1.05692e-20
-2.75318e-06 1.13105e-05 -2.5146e-21
1.72577e-05 1.01782e-05 -7.98764e-21
1.88994e-05 -8.82639e-06 -2.33181e-20
8.24847e-06 -1.43539e-05 -1.86484e-20
2.43724e-05 -1.08021e-05 -1.1583e-20
1.90216e-05 -9.00352e-06 -1.81033e-20
4.64361e-06 2.05958e-07 -2.41828e-20
2.57571e-05 2.02339e-05 -1.91055e-21
-2.74331e-06 -1.70408e-05 7.76631e-21
-1.04864e-05 -4.45986e-06 -8.02083e-21
1.12661e-06 -3.89256e-06 -9.47441e-23
-3.15699e-06 1.5857e-05 -6.13908e-21
-3.49059e-05 2.76993e-06 -5.29659e-21
-1.21291e-05 -3.32795e-05 -6.35918e-21
-7.88401e-06 9.78525e-06 -1.31951e-20
1.35739e-05 1.66508e-05 -5.17684e-21
2.65855e-05 -1.87564e-05 -1.71065e-20
-3.68159e-05 -2.03641e-05 8.72538e-21
1.74143e-05 -2.75249e-05 -2.48687e-21
2.28185e-05 -2.72336e-05 -1.65469e-20
-1.09513e-05 3.78733e-06 6.03434e-21
-1.98415e-05 -2.88588e-05 -1.34763e-22
-3.49022e-05 -5.79515e-06 5.70783e-21
-3.85459e-06 -3.17629e-05 5.16283e-22
1.54576e-05 -3.17192e-05 -2.90494e-21
-9.11184e-06 -2.6216e-05 -2.15617e-20
4.58431e-06 3.14254e-05 1.39546e-21
-1.57622e-05 -2.85404e-05 5.70645e-21
2.94071e-06 -1.63025e-05 -1.02421e-20
-2.47551e-05 1.82717e-05 -1.46826e-20
-1.50403e-05 -1.21188e-05 4.50729e-21
-2.73701e-05 -5.17572e-06 -1.20165e-20
1.5678e-05 -9.18734e-06 -2.85991e-21
-4.30961e-06 2.39677e-05 2.70377e-21
1.22404e-05 -9.33035e-06 -1.80658e-20
-2.96049e-05 -1.31728e-05 1.82015e-20
-8.83721e-06 -7.46286e-06 1.35298e-20
9.08787e-06 7.54559e-06 1.24569e-20
2.14405e-05 2.87188e-05 -2.96904e-21
-1.75199e-05 -1.08161e-05 9.84602e-21
-3.25271e-05 -7.51531e-07 5.35676e-21
-1.6347e-05 -5.01938e-06 7.68431e-23
-4.58096e-06 -1.65937e-05 -2.62907e-20
1.76959e-05 2.12526e-05 -1.87468e-20
-1.09642e-05 5.87853e-06 -1.00707e-20
6.36511e-07 -2.05683e-05 -1.36668e-20
-4.19668e-05 1.0858e-05 1.21083e-21
2.48764e-05 2.02591e-05 -4.47001e-21
3.79716e-06 3.28062e-05 -5.13924e-21
-2.43352e-06 3.79962e-06 2.01711e-21
-9.05669e-06 2.51373e-07 6.24125e-21
4.3579e-06 7.76499e-06 -5.33631e-21
-1.17013e-05 3.4036e-06 -3.18596e-21
-2.07463e-06 -3.7873e-06 -2.85865e-20
1.6609e-06 2.07731e-05 -1.40643e-20
4.47527e-06 4.49962e-07 -1.62757e-20
-1.95506e-05 4.75974e-06 7.9476e-21
-1.73094e-05 1.93706e-05 4.41573e-21
-3.10941e-06 1.15856e-05 8.97428e-21
-2.92357e-05 1.84063e-05 -3.37771e-21
-9.34927e-06 8.985e-06 -6.72327e-21
1.73222e-05 -1.16212e-05 1.59387e-21
3.66275e-05 -3.56693e-06 -4.52368e-21
-2.11542e-05 1.13046e-05 -2.15961e-20
2.23443e-06 4.5011e-06 -4.81367e-21
2.17892e-05 -4.34763e-06 -4.17033e-20
-1.72899e-05 1.03595e-05 -1.61658e-20
-9.8781e-06 5.54259e-06 -9.59667e-21
1.1839e-05 3.74511e-06 -1.64998e-20
2.18939e-05 -1.34797e-05 -5.33829e-21
-1.73911e-05 9.96253e-06 -3.23811e-21
-2.50531e-05 -5.3065e-06 1.36774e-20
-1.67724e-05 -4.36529e-06 -2.98678e-21
9.88254e-06 6.27266e-09 -1.07304e-20
1.01804e-05 1.9546e-07 -1.39147e-20
4.39361e-06 8.32249e-06 -3.5393e-21
4.83268e-06 -8.80339e-06 -4.65964e-21
-5.01355e-06 8.42521e-06 1.51849e-20
-5.27004e-06 -8.66312e-06 -6.65901e-21
9.91732e-06 -7.41271e-06 -8.12071e-21
-2.03404e-05 3.23697e-06 -3.66148e-21
-2.00726e-05 -3.28581e-06 -1.67908e-20
-1.28429e-05 1.58865e-05 -6.55867e-21
-1.29227e-05 -1.59409e-05 -2.69559e-20
7.49101e-06 -1.98563e-05 -1.15485e-20
7.21058e-06 1.97764e-05 -1.88555e-20
1.55894e-06 2.59016e-05 -1.72093e-20
1.12476e-05 -3.13881e-06 -2.51727e-20
2.36145e-06 -3.86895e-06 -2.57046e-20
-2.14251e-05 1.42261e-06 9.92515e-21
7.68204e-06 -1.95254e-05 -1.84853e-20
7.27803e-06 1.9674e-05 -4.16354e-21
4.77183e-06 -5.27442e-08 -1.3146e-20
8.97406e-06 2.44186e-05 2.72999e-21
-2.24367e-06 -4.01891e-06 -6.86532e-21
2.31928e-06 -1.13241e-05 -2.26147e-20
-2.24448e-05 -1.21594e-05 -4.91611e-21
-2.13715e-05 -1.15019e-05 5.27049e-22
-2.19065e-05 1.36373e-05 4.96883e-22
3.25328e-06 -1.22953e-05 -2.60115e-21
-1.56626e-06 3.38412e-06 -2.64761e-20
-5.87547e-07 -2.55851e-05 -9.6652e-21
-7.7249e-06 -2.44382e-05 2.61843e-21
3.27243e-05 3.03811e-05 -8.94032e-21
3.54751e-05 -1.81629e-06 -2.09851e-21
-1.27189e-05 -3.6344e-06 -2.44225e-20
-2.29066e-05 -4.1412e-05 9.43901e-21
8.3094e-06 1.37563e-05 -2.39121e-21
-2.52514e-05 3.03523e-06 -8.52332e-21
2.00775e-05 5.78993e-06 1.17458e-22
-4.53591e-06 -3.27541e-08 -4.82774e-21
-4.66799e-06 -8.41785e-06 -1.51802e-20
-7.07718e-06 -3.93568e-05 -1.41367e-20
-9.71423e-06 -8.39982e-08 -4.54368e-21
-4.87048e-05 -1.81684e-06 -1.02758e-21
1.73194e-05 -1.91169e-05 -1.05557e-20
2.43087e-06 4.00149e-06 -1.04971e-20
-1.20626e-07 -1.75243e-05 -1.35907e-20
-9.82427e-06 2.40987e-05 6.70139e-22
-4.37465e-06 8.63261e-06 -9.60516e-21
2.05687e-05 -1.36142e-05 -9.67369e-21
-3.76817e-05 -1.35596e-05 -2.32116e-20
-1.52749e-05 -2.03783e-05 9.98214e-21
4.98005e-06 8.39409e-06 -1.10936e-20
1.66411e-05 5.16365e-06 -1.7248e-20
-4.76669e-06 -7.34273e-06 6.2514e-21
1.98083e-05 3.54934e-06 -2.7841e-20
1.81992e-05 -9.83156e-06 -6.49456e-21
-3.48977e-07 2.71887e-05 1.65285e-21
8.32531e-06 -1.36747e-05 -2.20736e-20
4.88322e-05 2.20189e-06 -9.89075e-21
-4.23819e-05 1.14604e-05 -9.16193e-21
2.2873e-05 1.15627e-05 -1.21886e-20
-6.45654e-06 -1.71891e-05 8.95199e-21
-1.53585e-05 -8.62305e-06 1.921e-21
2.88035e-05 -2.10654e-07 8.42887e-21
-6.92301e-07 -2.42685e-05 -1.61914e-20
-1.26245e-05 -1.08801e-05 -5.62492e-21
1.02297e-05 -2.35127e-05 6.24806e-21
-4.96805e-07 2.05668e-05 -4.11864e-21
7.92222e-06 2.60822e-05 -3.42909e-21
1.72775e-05 -9.88968e-06 -6.47865e-21
-1.89584e-05 1.93094e-05 2.71933e-22
1.6537e-05 2.00404e-05 -1.40064e-20
-6.22647e-05 1.60307e-05 3.45653e-21
-1.01146e-05 2.60304e-05 -1.66695e-21
1.25259e-05 -1.52566e-05 -5.2778e-21
-7.03291e-06 -1.84079e-05 -8.38712e-22
-1.186e-05 4.50819e-06 -1.96269e-20
-2.59077e-05 -7.04972e-06 -8.96246e-21
-6.38957e-06 3.88791e-05 -1.38136e-20
-1.26128e-05 1.1909e-05 -1.0591e-20
2.0788e-05 -4.47802e-06 -4.53748e-21
-6.87612e-06 -2.58084e-05 -1.16949e-20
-1.48769e-05 2.39042e-05 6.04206e-21
-2.18008e-05 1.25717e-05 -5.34358e-21
-2.05808e-05 -1.50638e-05 1.19057e-20
1.80384e-05 -2.06663e-05 -9.41312e-21
-2.75459e-05 -1.45705e-06 9.59848e-21
1.23744e-05 -4.08325e-05 -1.35448e-20
1.93969e-05 -1.89234e-05 -2.43317e-20
2.47463e-05 4.31053e-05 1.39336e-20
1.97226e-06 1.98773e-05 -7.37494e-21
2.96288e-06 -2.54351e-05 -2.73642e-20
-4.16591e-05 4.69876e-05 -6.26944e-21
-1.2709e-05 -2.44251e-05 1.27937e-20
1.63758e-05 -6.424e-06 -2.88229e-20
-2.41205e-06 2.57865e-05 -3.26145e-21
1.289e-05 -1.18329e-05 -1.59311e-22
1.38882e-05 2.43262e-05 7.40888e-21
1.72393e-05 -1.40124e-06 -4.83139e-21
2.21327e-05 -6.32512e-05 -8.57683e-21
-5.87927e-06 -1.28663e-05 7.69219e-21
-2.31971e-05 1.00928e-05 8.66838e-21
-2.00308e-05 1.87292e-05 -8.33065e-21
2.16242e-05 1.45755e-05 -1.63421e-20
1.86829e-05 -1.07625e-05 -1.61631e-20
1.49601e-05 1.26003e-05 -2.41507e-20
-5.43103e-06 4.55764e-08 -2.13252e-20
1.54121e-05 -2.30998e-05 -9.69567e-21
-1.69996e-05 -2.04205e-05 1.19758e-20
2.25742e-05 9.77901e-06 -1.70955e-20
1.28136e-05 -1.19962e-05 -1.40047e-20
9.5593e-06 -2.48653e-05 -4.41166e-21
1.66683e-05 -6.93664e-06 -1.29533e-20
-1.58141e-05 -7.54879e-06 1.40549e-20
1.29761e-06 -2.63173e-05 -3.01823e-20
-2.61212e-05 4.47558e-06 -7.06116e-21
2.39185e-06 2.45562e-05 -1.40461e-20
2.05962e-05 6.63106e-06 -7.07451e-21
-2.17324e-05 -1.07078e-05 -1.39168e-20
-8.98202e-06 2.56242e-05 -8.23274e-21
-1.49608e-06 -2.42013e-05 2.62009e-21
1.94771e-05 1.18438e-05 -3.26608e-20
-1.76987e-06 1.80947e-05 -7.23321e-21
-2.01499e-05 1.37103e-05 -1.37394e-20
2.35238e-05 1.14214e-05 3.01253e-21
-1.71247e-05 -9.99113e-06 1.28599e-20
9.52199e-08 -1.98457e-05 -1.14358e-20
1.83926e-05 1.99952e-05 -1.10232e-20
-2.2166e-05 -1.43116e-05 -1.26177e-20
4.83782e-05 -3.40006e-05 2.14063e-21
1.7907e-05 -1.08285e-05 -1.41099e-20
9.00725e-06 4.31114e-05 -7.25579e-21
1.70437e-05 -1.36862e-05 -9.02978e-21
-1.98838e-05 8.70858e-05 -2.44855e-20
-1.97737e-05 -8.66e-05 1.3104e-20
5.72181e-05 7.17569e-05 3.33344e-21
5.69558e-05 -7.14303e-05 7.40342e-21
9.06982e-05 -1.29829e-10 8.94699e-21
-7.82453e-05 3.76648e-05 -1.18495e-20
-7.74996e-05 -3.73083e-05 1.08215e-21
1.22408e-05 1.18254e-05 -1.8204e-20
2.93847e-05 2.19049e-05 -2.82639e-20
1.14547e-05 3.33472e-06 -1.79287e-20
1.88665e-05 9.75706e-06 -1.2463e-20
4.99222e-06 2.01817e-05 3.47806e-21
-1.88427e-05 -1.49891e-05 -1.1737e-21
1.70478e-05 -1.022e-05 -1.72877e-20
1.9864e-05 1.45577e-05 -2.01933e-20
-3.16865e-06 2.43781e-05 -6.72273e-22
2.94576e-05 -2.00043e-05 -3.11714e-20
3.79624e-06 -2.37536e-05 -1.31104e-20
2.19735e-05 5.23003e-06 -1.08726e-20
2.99132e-05 1.10323e-05 -1.29855e-20
1.4217e-05 1.4152e-05 -1.66383e-20
1.58924e-05 6.59749e-06 -1.7371e-20
-1.85095e-05 1.0943e-05 -1.36582e-20
-2.25763e-05 9.04198e-06 1.04771e-20
2.29428e-05 -1.127e-05 -1.71675e-20
-1.82785e-05 -1.00039e-05 1.51278e-21
-1.85653e-05 -1.05887e-05 7.35018e-22
-3.43966e-07 -2.07798e-05 2.22688e-21
-8.60783e-08 -2.11731e-05 -1.0374e-20
-2.01389e-05 -1.00606e-06 7.53333e-21
2.67146e-05 -4.02147e-06 -1.04972e-21
1.81226e-05 1.13487e-05 -6.70358e-21
-1.78747e-05 1.09516e-05 3.44561e-21
-1.53704e-05 1.66334e-05 -9.6482e-21
1.60315e-05 -1.37612e-05 -1.6822e-20
-1.10299e-05 1.74737e-05 -1.12665e-20
-1.42332e-05 -1.48985e-05 4.7653e-21
-1.15581e-06 2.12231e-05 -2.23396e-20
-1.28835e-06 2.09806e-05 -6.14606e-21
8.98635e-08 -1.98457e-05 -1.23437e-20
6.11454e-06 -1.97489e-05 -1.80488e-20
-1.7151e-05 -9.94139e-06 1.99029e-20
1.5596e-05 -5.49349e-06 -2.2042e-20
6.63665e-07 2.14905e-05 -2.03175e-20
3.01102e-07 1.85184e-05 -2.63466e-21
-2.34705e-06 1.68673e-05 -4.40499e-21
2.19217e-05 -5.53065e-06 -2.78701e-21
-1.6551e-05 5.3813e-06 -2.32837e-20
4.16003e-06 2.15302e-05 -1.02715e-20
-3.25777e-05 1.29269e-05 1.54847e-20
9.76959e-06 4.17562e-05 6.84998e-22
-1.70636e-05 4.57088e-06 -2.42835e-20
1.96961e-05 -1.1637e-05 -1.14275e-20
9.46436e-07 2.1032e-05 -2.52936e-20
-2.04935e-05 6.70347e-06 7.33158e-21
2.44561e-06 -1.62722e-05 -5.17003e-21
1.82127e-06 -5.80475e-05 -9.04386e-21
2.00775e-06 1.74967e-05 -5.41846e-21
-1.69722e-05 1.40311e-05 -8.32521e-21
1.78653e-05 6.40101e-05 3.12047e-21
4.57966e-05 3.77293e-05 -2.51546e-20
5.20961e-05 -3.52767e-05 -2.57322e-20
1.48244e-05 -1.01732e-05 -1.64456e-20
-1.57949e-05 1.40462e-05 -7.20441e-21
-2.02291e-05 -7.92551e-06 1.31163e-20
-1.96576e-05 -6.82659e-06 -3.65934e-21
5.93027e-05 -2.46267e-05 -6.37631e-21
5.74682e-05 2.38852e-05 -5.53457e-20
1.09011e-05 3.81977e-06 -9.63579e-21
7.67181e-07 1.95912e-05 -2.14674e-20
7.84881e-08 1.95725e-05 -1.06015e-20
-4.84122e-05 -3.69426e-05 9.17269e-21
1.14322e-05 -1.71823e-05 -4.0024e-21
1.17404e-05 1.24722e-05 -5.75879e-21
-2.14312e-05 -3.39781e-06 9.77433e-21
-1.40535e-05 1.72127e-05 -7.46407e-21
-1.89001e-05 9.17342e-06 1.45933e-20
4.76725e-05 3.37143e-05 -2.05915e-20
1.58161e-05 7.06591e-06 -3.17329e-20
-5.57004e-06 2.00427e-05 2.04696e-21
-1.69884e-05 -1.17565e-05 1.09338e-20
1.85748e-06 -2.05554e-05 -6.48622e-21
-8.95513e-06 -1.92791e-05 7.36856e-21
-1.72597e-05 -1.17808e-05 5.67645e-21
1.05861e-05 -1.89473e-05 -1.38812e-20
1.41311e-05 -1.69997e-05 -2.68258e-20
-2.44133e-06 -6.14755e-05 -1.39401e-20
2.61965e-05 -4.11507e-05 -7.8306e-21
1.74867e-06 -2.07983e-05 -1.56277e-20
1.79697e-05 1.13623e-05 -1.12911e-20
-1.44852e-05 -1.49146e-05 2.72591e-21
-9.84705e-06 1.97223e-05 -8.51651e-21
-5.04243e-06 2.10197e-05 -4.86201e-21
1.66375e-05 1.42524e-05 -1.5557e-20
6.06283e-06 -1.98736e-05 -1.07325e-20
-1.34143e-05 -4.03833e-05 -3.328e-21
-1.98954e-06 2.50558e-05 8.364e-21
1.4801e-05 1.4464e-05 -1.85583e-21
-1.29663e-05 -1.0223e-05 5.92049e-21
-1.35233e-05 1.06148e-05 -7.87819e-21
4.43701e-05 -1.89247e-05 -1.12538e-20
7.56779e-06 -1.34084e-05 -1.91973e-20
-8.32225e-06 -1.26349e-05 2.9939e-21
2.13436e-05 6.36743e-06 -3.61036e-20
1.10011e-05 -5.06932e-05 -2.12544e-20
-3.84752e-05 -3.49245e-05 -1.50549e-20
2.33211e-05 6.21119e-06 -3.74208e-20
-9.33393e-06 -1.82926e-05 7.77738e-21
1.87172e-05 9.4886e-06 -1.48414e-20
-2.8582e-05 -3.25721e-05 1.59501e-20
9.69421e-06 5.00778e-05 -1.93768e-20
3.43553e-05 -5.98967e-05 -2.04211e-21
-3.47586e-05 -5.98135e-05 -2.58915e-20
2.78264e-05 -5.2054e-05 -6.60353e-21
-1.27059e-05 4.36602e-05 1.41789e-20
-6.27991e-06 3.90015e-05 1.02802e-21
-1.87423e-05 8.95148e-06 1.25282e-21
5.98096e-06 2.42572e-05 -7.63981e-22
-2.39299e-06 1.26619e-05 -1.41161e-20
1.01264e-05 3.23512e-06 -2.55433e-21
-3.19038e-06 1.62155e-05 4.15866e-21
-2.47544e-07 2.10047e-05 -1.39081e-20
1.66709e-05 9.75657e-06 -1.54071e-20
1.71225e-06 5.77601e-05 -1.29203e-20
-1.47263e-05 1.07394e-05 -1.82263e-20
1.59593e-05 -6.25043e-06 -1.10314e-20
1.68823e-05 -4.51172e-06 -2.81331e-20
-6.07013e-05 -8.77456e-06 1.33917e-20
-3.4627e-05 1.67518e-05 1.19427e-20
-4.35417e-05 -5.25797e-05 9.94349e-21
8.66191e-06 8.35084e-06 -6.12574e-21
1.42187e-05 7.29702e-06 -1.70471e-20
2.68213e-05 -4.19841e-06 6.63944e-21
-8.10934e-06 -1.32511e-05 1.44876e-20
1.72272e-05 8.43378e-06 -1.65284e-20
7.33991e-06 -3.00531e-05 -1.55998e-20
-1.37221e-05 1.02113e-05 -1.77888e-20
-2.23881e-05 -2.14355e-05 1.33388e-20
-5.83951e-06 1.63078e-05 -1.51973e-20
-3.27294e-06 2.06913e-05 -1.28213e-20
3.38706e-05 2.13095e-05 -2.84611e-20
3.61355e-05 -1.92947e-05 -1.56436e-20
-4.2097e-05 -1.16305e-05 1.16271e-20
7.63887e-06 7.69045e-06 -8.10604e-21
-4.06006e-06 0.000101423 -9.01505e-21
8.63311e-07 -0.000104532 1.41873e-20
5.24875e-05 8.76988e-05 2.52945e-21
-1.91147e-05 8.46315e-06 -3.42344e-20
-2.6392e-05 5.65854e-05 -1.71726e-20
5.30664e-05 -8.46917e-05 8.26198e-21
-1.17277e-05 -1.82937e-05 1.01742e-20
7.80477e-05 6.75382e-05 -2.7638e-21
2.40083e-05 -1.79878e-05 -8.58881e-21
-3.6096e-06 -2.98404e-05 -1.29892e-21
8.18287e-05 -6.58897e-05 -4.23678e-22
-6.7487e-06 1.45273e-05 -1.5155e-20
-5.38661e-05 -3.48464e-05 2.45043e-20
-4.30394e-05 -9.31889e-05 5.32447e-21
-2.41269e-05 -5.78402e-05 4.40407e-21
-4.40014e-05 9.41962e-05 -3.082e-20
-1.0099e-05 6.41236e-05 -1.22481e-20
1.56424e-05 3.7131e-05 -2.12121e-20
-2.79723e-05 3.72642e-05 1.46789e-20
-2.52878e-05 -5.52183e-05 1.27675e-20
0.000100427 1.73274e-05 -2.27073e-22
-1.69378e-05 1.07737e-05 -9.82588e-21
-5.91591e-06 1.6343e-05 -6.67295e-21
-5.07899e-05 3.76642e-05 1.8825e-21
-1.72868e-05 9.95027e-06 -1.72248e-20
9.92629e-05 -1.52724e-05 -5.50249e-22
-1.53696e-05 7.80353e-06 -2.15988e-20
7.1971e-06 -1.45037e-05 -1.81343e-20
-7.80172e-05 -6.09871e-05 1.72557e-20
-2.58942e-05 5.7753e-05 -7.43815e-22
-7.91704e-05 6.04139e-05 -2.29705e-20
2.45559e-05 5.19818e-05 -5.71147e-21
-1.47766e-05 1.0589e-05 -1.13409e-20
-2.05424e-05 2.44916e-05 -3.42681e-21
-2.85501e-05 4.98483e-05 6.98839e-21
-5.68107e-05 2.08151e-07 -7.80861e-21
-9.44611e-07 1.6306e-05 -1.33589e-21
-2.88671e-05 -5.04372e-05 -2.4588e-20
-5.82339e-05 -2.20018e-07 1.33724e-20
-2.83668e-05 4.8726e-05 2.70209e-20
-1.51995e-05 6.63066e-05 -1.5037e-20
-1.78752e-05 4.12862e-05 -1.04184e-20
-3.39209e-05 2.7154e-05 6.274e-21
2.43978e-05 -6.0606e-06 -3.19857e-20
3.80259e-05 -2.1966e-06 -2.97959e-20
1.34906e-05 8.20529e-06 -2.99258e-20
-1.04755e-05 -7.40328e-05 -1.0746e-20
-6.94913e-05 -2.79913e-05 -6.9311e-21
3.71549e-05 7.33137e-07 -3.89835e-20
5.84017e-05 -1.08986e-05 -8.03371e-21
-1.05901e-05 -1.35054e-05 6.19972e-21
-5.08596e-05 3.76501e-05 -3.14033e-21
-4.61617e-05 5.4034e-05 -3.07412e-22
6.24006e-05 -2.22458e-05 -9.61411e-21
-2.81946e-05 -5.05279e-05 -4.47649e-20
-2.87947e-05 4.98099e-05 1.55493e-20
-5.72894e-05 -1.17191e-06 -7.77755e-21
-2.65895e-05 5.06288e-05 2.80136e-20
-5.79886e-05 -8.17486e-07 3.03149e-21
6.61164e-05 1.74031e-05 5.97172e-21
5.64147e-05 1.29336e-06 -1.89375e-20
5.09312e-05 -2.92917e-05 -2.26203e-20
2.49255e-05 -5.94633e-05 -1.30399e-20
2.99368e-05 -4.88866e-05 -6.09756e-21
2.91852e-05 4.87105e-05 -1.53621e-20
2.436e-05 5.81248e-05 -9.40097e-21
7.58486e-05 -2.00499e-05 -3.88625e-20
4.62946e-05 2.9081e-05 -4.48171e-20
4.66527e-05 1.37538e-05 -2.91264e-20
TENSORS solid_stress_TPM float
375.075 -24.9221 -1.8711e-12
-24.9221 238.596 2.69059e-12
-1.8711e-12 2.69059e-12 197.843

457.067 -21.3212 -2.86201e-12
-21.3212 490.052 1.12355e-12
-2.86201e-12 1.12355e-12 487.171

454.94 28.0474 2.09432e-12
28.0474 463.771 -1.18157e-12
2.09432e-12 -1.18157e-12 458.518

455.093 -29.8423 1.3302e-12
-29.8423 482.675 -6.73387e-13
1.3302e-12 -6.73387e-13 484.919

527.735 19.9307 1.53152e-12
19.9307 548.496 -4.32395e-13
1.53152e-12 -4.32395e-13 527.406

437.37 -18.0774 -1.96051e-12
-18.0774 480.403 -5.99876e-12
-1.96051e-12 -5.99876e-12 458.099

372.369 26.4865 -7.10543e-13
26.4865 239.116 3.5989e-12
-7.10543e-13 3.5989e-12 197.827

473.713 29.9605 -8.40809e-13
29.9605 469.563 -1.11792e-12
-8.40809e-13 -1.11792e-12 472.397

471.614 5.4839 -9.87654e-13
5.4839 417.879 2.22637e-13
-9.87654e-13 2.22637e-13 432.853

504.323 -7.47769 1.97472e-13
-7.47769 444.174 4.69994e-14
1.97472e-13 4.69994e-14 483.512

360.34 16.3117 1.84741e-12
16.3117 247.685 4.207e-12
1.84741e-12 4.207e-12 233.676

444.841 -13.4548 7.87814e-13
-13.4548 498.449 -3.13941e-12
7.87814e-13 -3.13941e-12 472.298

466.929 27.8363 -1.1493e-12
27.8363 468.365 9.32587e-13
-1.1493e-12 9.32587e-13 466.794

457.095 -14.3417 -2.07391e-12
-14.3417 500.497 -1.9534e-12
-2.07391e-12 -1.9534e-12 483.516

512.988 33.3076 -1.49392e-12
33.3076 511.651 -7.37512e-14
-1.49392e-12 -7.37512e-14 515.279

489.239 0.561159 -1.48622e-12
0.561159 435.583 2.13139e-12
-1.48622e-12 2.13139e-12 462.332

457.643 -17.9686 -1.21766e-12
-17.9686 512.945 -5.15884e-12
-1.21766e-12 -5.15884e-12 493.655

494.023 -2.66519 1.29496e-12
-2.66519 439.108 -2.09499e-12
1.29496e-12 -2.09499e-12 474.324

418.849 26.6787 -4.11523e-13
26.6787 449.722 1.12088e-12
-4.11523e-13 1.12088e-12 424.11

482.047 -4.19638 -3.3437e-12
-4.19638 424.978 2.48512e-12
-3.3437e-12 2.48512e-12 453.534

425.353 8.67045 -1.07914e-13
8.67045 481.967 -3.72739e-12
-1.07914e-13 -3.72739e-12 444.899

634.137 6.28495 1.3571e-11
6.28495 633.978 3.5197e-12
1.3571e-11 3.5197e-12 570.351

479.218 1.8762 -2.43302e-12
1.8762 422.996 -1.48762e-12
-2.43302e-12 -1.48762e-12 449.791

447.222 -27.7195 -4.03855e-12
-27.7195 461.212 -2.3294e-12
-4.03855e-12 -2.3294e-12 453.007

481.114 6.85032 -1.71833e-12
6.85032 425.497 -1.53714e-12
-1.71833e-12 -1.53714e-12 452.997

449.817 19.1144 1.18009e-12
19.1144 490.381 3.67647e-12
1.18009e-12 3.67647e-12 478.265

377.703 4.1822 4.49774e-12
4.1822 291.689 -1.56912e-13
4.49774e-12 -1.56912e-13 259.036

462.745 30.7497 -1.17358e-12
30.7497 460.773 1.87998e-13
-1.17358e-12 1.87998e-13 460.603

384.993 37.0819 9.11863e-14
37.0819 383.572 1.2695e-12
9.11863e-14 1.2695e-12 348.466

586.97 10.3237 -8.93211e-13
10.3237 563.487 -4.33531e-12
-8.93211e-13 -4.33531e-12 546.914

491.752 14.2177 -3.55271e-14
14.2177 442.556 -2.70894e-12
-3.55271e-14 -2.70894e-12 465.915

352.901 -17.784 -1.34677e-12
-17.784 416.782 -2.89665e-12
-1.34677e-12 -2.89665e-12 348.637

331.059 -42.1085 -2.65032e-12
-42.1085 335.914 6.16277e-12
-2.65032e-12 6.16277e-12 253.516

531.447 5.9846 4.62147e-12
5.9846 586.922 -6.12991e-12
4.62147e-12 -6.12991e-12 538.626

554.059 -4.83739 -1.15138e-12
-4.83739 582.105 2.46173e-12
-1.15138e-12 2.46173e-12 542.555

578.019 21.027 -3.06422e-13
21.027 539.985 7.10839e-13
-3.06422e-13 7.10839e-13 538.394

556.219 5.06425 4.23854e-12
5.06425 600.7 2.16123e-14
4.23854e-12 2.16123e-14 548.011

573.808 -9.17143 -3.92516e-12
-9.17143 555.803 2.47603e-12
-3.92516e-12 2.47603e-12 540.682

467.188 -28.0015 -2.60118e-12
-28.0015 466.553 -1.00542e-12
-2.60118e-12 -1.00542e-12 465.166

330.443 41.5277 -1.81425e-12
41.5277 338.013 2.71664e-12
-1.81425e-12 2.71664e-12 253.875

414.583 -17.9526 -3.22586e-12
-17.9526 354.533 2.46381e-12
-3.22586e-12 2.46381e-12 346.367

559.339 -3.70327 3.37671e-12
-3.70327 599.949 -1.16425e-12
3.37671e-12 -1.16425e-12 548.425

586.443 19.5507 -2.66305e-12
19.5507 572.484 5.03597e-13
-2.66305e-12 5.03597e-13 548.214

490.957 -12.2739 -4.20404e-13
-12.2739 442.911 1.18453e-12
-4.20404e-13 1.18453e-12 466.588

341.752 -43.3071 5.74592e-12
-43.3071 345.38 -1.90781e-12
5.74592e-12 -1.90781e-12 289.014

417.61 -18.0669 -2.97362e-12
-18.0669 357.151 4.44089e-14
-2.97362e-12 4.44089e-14 351.542

413.06 17.0888 -2.35782e-12
17.0888 464.838 4.42727e-12
-2.35782e-12 4.42727e-12 428.776

429.679 19.3425 -2.86615e-12
19.3425 466.568 -1.56912e-13
-2.86615e-12 -1.56912e-13 437.13

486.835 -16.3031 8.36664e-13
-16.3031 432.923 2.35204e-12
8.36664e-13 2.35204e-12 458.727

355.62 -34.1922 2.61184e-12
-34.1922 389.447 -1.47082e-12
2.61184e-12 -1.47082e-12 332.606

410.3 19.1856 -2.25597e-12
19.1856 350.739 -3.37389e-12
-2.25597e-12 -3.37389e-12 339.516

425.251 -25.2932 -3.82746e-12
-25.2932 383.864 1.55846e-12
-3.82746e-12 1.55846e-12 373.119

519.957 19.4827 -3.41075e-12
19.4827 547.57 7.31859e-13
-3.41075e-12 7.31859e-13 525.773

416.462 29.6551 -4.6505e-12
29.6551 393.931 7.74492e-13
-4.6505e-12 7.74492e-13 373.984

522.217 -21.8126 -4.16585e-12
-21.8126 541.432 6.41006e-12
-4.16585e-12 6.41006e-12 524.419

364.111 -42.7187 3.61193e-12
-42.7187 343.319 1.32753e-12
3.61193e-12 1.32753e-12 289.732

553.48 5.4563 -3.1853e-12
5.4563 583.897 -1.18838e-12
-3.1853e-12 -1.18838e-12 542.93

373.758 -5.33095 1.82906e-12
-5.33095 436.716 7.49623e-13
1.82906e-12 7.49623e-13 373.868

580.843 10.3849 3.88252e-12
10.3849 556.202 2.35408e-12
3.88252e-12 2.35408e-12 542.686

435.107 21.4162 -1.74557e-12
21.4162 473.817 7.13503e-13
-1.74557e-12 7.13503e-13 454.723

513.625 5.75527 -1.9531e-12
5.75527 452.859 -2.61968e-12
-1.9531e-12 -2.61968e-12 494.916

522.509 11.4591 4.17592e-13
11.4591 487.909 5.63401e-13
4.17592e-13 5.63401e-13 507.127

383.748 31.8244 8.19493e-13
31.8244 315.227 -7.24043e-12
8.19493e-13 -7.24043e-12 269.901

482.135 -6.0367 4.12825e-12
-6.0367 528.231 9.89431e-13
4.12825e-12 9.89431e-13 504.149

487.145 9.52103 -1.46549e-14
9.52103 523.74 -1.06345e-12
-1.46549e-14 -1.06345e-12 507.545

456.508 -2.88197 3.63802e-12
-2.88197 520.21 -1.97176e-13
3.63802e-12 -1.97176e-13 487.858

464.507 23.401 -2.17755e-12
23.401 503.524 6.90411e-13
-2.17755e-12 6.90411e-13 495.493

496.805 8.46462 -3.85055e-12
8.46462 444.451 -5.59552e-13
-3.85055e-12 -5.59552e-13 477.752

445.561 -28.2437 3.1483e-12
-28.2437 459.585 -3.39935e-12
3.1483e-12 -3.39935e-12 451.221

501.74 -1.7117 -5.05818e-13
-1.7117 444.973 -1.2775e-12
-5.05818e-13 -1.2775e-12 489.123

519.57 -19.2587 1.31746e-13
-19.2587 546.864 -1.60464e-13
1.31746e-13 -1.60464e-13 525.506

523.346 21.3078 -4.21204e-12
21.3078 542.956 3.16441e-13
-4.21204e-12 3.16441e-13 525.308

353.451 -16.5868 -2.60843e-12
-16.5868 415.789 -2.54611e-13
-2.60843e-12 -2.54611e-13 346.156

506.072 -27.9377 2.82796e-12
-27.9377 485.358 1.46549e-12
2.82796e-12 1.46549e-12 493.93

449.776 -25.1379 2.74269e-12
-25.1379 471.279 1.76392e-12
2.74269e-12 1.76392e-12 458.632

357.912 -31.7158 3.72561e-12
-31.7158 285.707 1.78139e-12
3.72561e-12 1.78139e-12 249.888

498.542 3.22336 2.55448e-12
3.22336 541.452 -6.91003e-13
2.55448e-12 -6.91003e-13 513.689

501.778 28.9459 1.15641e-12
28.9459 474.601 2.47979e-12
1.15641e-12 2.47979e-12 487.709

448.498 19.6655 -1.74305e-12
19.6655 492.166 -1.53981e-12
-1.74305e-12 -1.53981e-12 477.697

440.25 8.00106 1.60227e-12
8.00106 373.082 -1.80892e-12
1.60227e-12 -1.80892e-12 382.983

386.499 -33.9418 1.64609e-13
-33.9418 360.25 -1.07766e-12
1.64609e-13 -1.07766e-12 319.476

537.755 -10.5865 1.56231e-12
-10.5865 556.179 -3.19951e-12
1.56231e-12 -3.19951e-12 531.292

482.711 23.9007 3.46686e-13
23.9007 504.611 -1.82377e-13
3.46686e-13 -1.82377e-13 502.094

385.42 -32.3899 2.88836e-12
-32.3899 345.348 -4.65405e-13
2.88836e-12 -4.65405e-13 317.121

422.253 10.7931 -5.1988e-13
10.7931 363.895 -2.88229e-12
-5.1988e-13 -2.88229e-12 350.297

307.687 -21.2098 -2.18077e-12
-21.2098 388.492 7.25701e-12
-2.18077e-12 7.25701e-12 288.151

434.497 14.4271 -5.62513e-15
14.4271 488.728 -7.02253e-13
-5.62513e-15 -7.02253e-13 460.938

509.773 23.1459 1.39089e-12
23.1459 475.222 -2.83921e-13
1.39089e-12 -2.83921e-13 489.997

338.281 42.2064 -9.04758e-13
42.2064 349.614 7.69755e-13
-9.04758e-13 7.69755e-13 288.987

634.225 16.5042 -4.88654e-12
16.5042 603.086 -3.94929e-12
-4.88654e-12 -3.94929e-12 565.356

372.935 -4.10922 -3.41801e-12
-4.10922 436.875 -3.49705e-12
-3.41801e-12 -3.49705e-12 373.475

637.13 -16.6296 1.43563e-11
-16.6296 599.557 9.05646e-13
1.43563e-11 9.05646e-13 564.864

533.983 -27.3346 2.62013e-12
-27.3346 507.285 -1.60449e-12
2.62013e-12 -1.60449e-12 515.762

505.35 27.4258 1.79945e-12
27.4258 466.385 1.75741e-12
1.79945e-12 1.75741e-12 485.124

426.982 -24.4152 3.37153e-12
-24.4152 386.287 -3.54561e-12
3.37153e-12 -3.54561e-12 376.027

358.98 31.3295 -1.80892e-12
31.3295 396.056 4.01457e-13
-1.80892e-12 4.01457e-13 339.244

339.866 -10.707 3.55271e-14
-10.707 408.445 -6.86858e-13
3.55271e-14 -6.86858e-13 319.146

453.164 21.9718 -1.61278e-12
21.9718 494.739 3.86654e-13
-1.61278e-12 3.86654e-13 483.225

533.162 16.7958 -3.2081e-12
16.7958 506.243 8.76632e-13
-3.2081e-12 8.76632e-13 513.401

443.509 15.1563 -1.71818e-12
15.1563 488.501 -7.14688e-13
-1.71818e-12 -7.14688e-13 464.339

451.541 15.9565 5.11235e-12
15.9565 400.588 -3.25665e-13
5.11235e-12 -3.25665e-13 403.799

374.536 -21.4767 6.17047e-12
-21.4767 419.923 -9.13047e-13
6.17047e-12 -9.13047e-13 357.244

389.773 -29.3961 -9.6397e-13
-29.3961 342.411 2.37736e-12
-9.6397e-13 2.37736e-12 314.431

455.026 -24.575 -3.4713e-13
-24.575 480.126 2.1861e-12
-3.4713e-13 2.1861e-12 478.428

466.484 27.4536 -4.45954e-12
27.4536 478.801 -1.86814e-12
-4.45954e-12 -1.86814e-12 479.866

452.278 23.1887 8.47914e-13
23.1887 492.621 3.3058e-12
8.47914e-13 3.3058e-12 482.101

466.348 13.1685 1.76301e-12
13.1685 529.828 1.12562e-12
1.76301e-12 1.12562e-12 501.435

490.924 9.37302 -1.55313e-12
9.37302 437.945 -2.77408e-13
-1.55313e-12 -2.77408e-13 462.112

327.751 -4.66582 -2.61953e-12
-4.66582 403.435 9.23706e-13
-2.61953e-12 9.23706e-13 314.453

462.641 -36.8308 -4.66146e-12
-36.8308 487.75 -2.91545e-13
-4.66146e-12 -2.91545e-13 492.805

445.907 27.4693 -1.52559e-12
27.4693 463.33 9.31995e-13
-1.52559e-12 9.31995e-13 455.071

305.707 2.17055 -6.99152e-12
2.17055 393.412 -5.61329e-13
-6.99152e-12 -5.61329e-13 297.294

386.047 34.6168 -4.54747e-13
34.6168 332.489 -1.13272e-12
-4.54747e-13 -1.13272e-12 306.285

453.41 -22.9762 -4.18214e-12
-22.9762 480.131 -7.964e-13
-4.18214e-12 -7.964e-13 476.23

501.457 5.73292 -3.21846e-12
5.73292 441.376 1.16514e-12
-3.21846e-12 1.16514e-12 481.068

422.438 27.2092 -1.06345e-12
27.2092 389.818 -9.6397e-13
-1.06345e-12 -9.6397e-13 374.284

570.578 12.7442 3.22379e-12
12.7442 565.948 4.2449e-12
3.22379e-12 4.2449e-12 542.958

396.23 24.3351 5.17512e-12
24.3351 349.692 -7.14688e-13
5.17512e-12 -7.14688e-13 319.086

569.201 -13.0537 2.43553e-12
-13.0537 565.859 1.60316e-12
2.43553e-12 1.60316e-12 542.414

375.139 0.778756 3.98274e-12
0.778756 438.929 1.70057e-12
3.98274e-12 1.70057e-12 374.69

461.534 -2.23574 3.05652e-12
-2.23574 399.354 2.31874e-12
3.05652e-12 2.31874e-12 417.336

538.245 -15.7656 5.11754e-12
-15.7656 480.685 2.7874e-12
5.11754e-12 2.7874e-12 513.529

457.305 24.3884 -1.27817e-12
24.3884 487.847 1.55861e-12
-1.27817e-12 1.55861e-12 488.412

461.313 -13.5356 7.30574e-13
-13.5356 519.192 2.7421e-12
7.30574e-13 2.7421e-12 495.769

515.028 -7.9991 -2.18314e-12
-7.9991 438.255 6.31199e-13
-2.18314e-12 6.31199e-13 494.334

488.365 -22.2809 3.80851e-12
-22.2809 541.649 -3.44021e-12
3.80851e-12 -3.44021e-12 515.8

556.088 -6.5995 -2.33324e-12
-6.5995 560.43 2.15272e-13
-2.33324e-12 2.15272e-13 538.772

463.927 -29.9087 -6.13139e-13
-29.9087 483.258 -3.12964e-12
-6.13139e-13 -3.12964e-12 483.658

341.749 11.4557 1.3749e-12
11.4557 406.248 4.91222e-12
1.3749e-12 4.91222e-12 319.525

422.538 -28.1519 2.0961e-13
-28.1519 391.293 -2.50762e-12
2.0961e-13 -2.50762e-12 375.197

507.424 -13.7696 1.44766e-12
-13.7696 558.791 -6.02599e-12
1.44766e-12 -6.02599e-12 525.298

501.119 0.505288 -1.12577e-12
0.505288 441.341 6.3897e-13
-1.12577e-12 6.3897e-13 487.145

476.997 -21.5237 1.23131e-12
-21.5237 507.479 3.00441e-12
1.23131e-12 3.00441e-12 501.559

459.159 25.6986 -1.49791e-12
25.6986 484.662 -2.69107e-12
-1.49791e-12 -2.69107e-12 488.04

394.482 -31.4705 -2.66572e-12
-31.4705 400.652 2.40992e-12
-2.66572e-12 2.40992e-12 357.569

552.159 -7.08147 4.90659e-12
-7.08147 585.329 -4.12559e-12
4.90659e-12 -4.12559e-12 542.645

347.253 -33.0826 3.67114e-14
-33.0826 382.657 2.60295e-12
3.67114e-14 2.60295e-12 303.475

490.931 -19.182 1.31983e-12
-19.182 448.443 3.24392e-12
1.31983e-12 3.24392e-12 467.18

519.764 1.97199 1.94067e-12
1.97199 466.87 2.01913e-13
1.94067e-12 2.01913e-13 502.886

570.595 17.8738 4.5981e-12
17.8738 566.51 -3.05267e-12
4.5981e-12 -3.05267e-12 542.417

375.339 20.1868 -9.27258e-13
20.1868 424.089 6.1379e-12
-9.27258e-13 6.1379e-12 360.269

489.139 27.2136 -1.79708e-12
27.2136 468.597 2.88066e-13
-1.79708e-12 2.88066e-13 476.694

454.44 -24.5154 -6.80937e-13
-24.5154 415.396 2.50289e-12
-6.80937e-13 2.50289e-12 418.656

454.775 -17.8398 -6.43504e-13
-17.8398 494.967 -1.97886e-12
-6.43504e-13 -1.97886e-12 482.698

379.248 35.0745 6.48962e-13
35.0745 366.077 7.98768e-12
6.48962e-13 7.98768e-12 317.09

449.212 -21.8317 6.03369e-13
-21.8317 491.766 -8.92619e-13
6.03369e-13 -8.92619e-13 479.831

485.548 30.8529 8.49099e-13
30.8529 465.189 -1.54454e-12
8.49099e-13 -1.54454e-12 473.5

480.382 -25.2467 2.22281e-12
-25.2467 442.421 -2.89398e-12
2.22281e-12 -2.89398e-12 455.498

448.277 -25.1296 -2.23081e-12
-25.1296 469.829 5.10999e-12
-2.23081e-12 5.10999e-12 458.153

445.405 -18.6915 6.15804e-14
-18.6915 393.511 -2.69414e-12
6.15804e-14 -2.69414e-12 397.309

470.714 -18.8527 -8.98837e-13
-18.8527 422.906 7.06694e-13
-8.98837e-13 7.06694e-13 437.586

459.059 -25.3379 3.51719e-13
-25.3379 485.489 -3.67587e-12
3.51719e-13 -3.67587e-12 488.883

386.591 35.9762 -1.31924e-12
35.9762 382.037 6.8141e-12
-1.31924e-12 6.8141e-12 348.161

444.552 15.3791 -3.04468e-12
15.3791 491.593 -2.1488e-12
-3.04468e-12 -2.1488e-12 467.196

469.454 26.4247 8.49987e-13
26.4247 480.015 -6.65838e-13
8.49987e-13 -6.65838e-13 482.602

456.201 25.4736 -1.64758e-12
25.4736 486.707 -2.61672e-12
-1.64758e-12 -2.61672e-12 487.303

457.862 11.6232 -7.49447e-14
11.6232 506.998 5.00933e-13
-7.49447e-14 5.00933e-13 486.069

432.009 -8.2285 -4.09746e-13
-8.2285 370.801 2.66661e-12
-4.09746e-13 2.66661e-12 363.354

376.826 18.61 -5.19466e-12
18.61 427.322 1.76215e-12
-5.19466e-12 1.76215e-12 363.93

452.369 -24.3829 1.32694e-12
-24.3829 478.446 1.10933e-12
1.32694e-12 1.10933e-12 470.767

440.802 25.6701 -2.43361e-12
25.6701 455.699 3.34784e-12
-2.43361e-12 3.34784e-12 437.859

391.005 -35.6361 -3.42126e-12
-35.6361 380.324 -1.57504e-13
-3.42126e-12 -1.57504e-13 350.135

368.986 38.3237 7.32451e-12
38.3237 327.291 9.37916e-13
7.32451e-12 9.37916e-13 295.719

363.691 -33.3174 -5.61329e-13
-33.3174 394.485 2.44427e-12
-5.61329e-13 2.44427e-12 342.022

397.98 -31.1655 -7.95808e-13
-31.1655 404.244 3.11455e-13
-7.95808e-13 3.11455e-13 363.019

502.917 -6.83859 2.48631e-12
-6.83859 442.308 -1.93815e-12
2.48631e-12 -1.93815e-12 482.373

393.213 30.3475 5.77908e-12
30.3475 409.03 -5.41197e-12
5.77908e-12 -5.41197e-12 363.479

429.757 13.2971 -5.695e-12
13.2971 372.292 -2.64115e-12
-5.695e-12 -2.64115e-12 362.759

350.184 13.3814 2.4533e-12
13.3814 418.567 7.94624e-12
2.4533e-12 7.94624e-12 348.518

379.525 -22.3447 2.59407e-12
-22.3447 423.567 -1.50517e-12
2.59407e-12 -1.50517e-12 363.493

491.252 -1.09283 -1.56164e-12
-1.09283 550.92 -6.91595e-13
-1.56164e-12 -6.91595e-13 516.352

372.908 2.24711 1.3783e-12
2.24711 437.844 -1.92083e-12
1.3783e-12 -1.92083e-12 373.566

357.932 31.0952 5.25802e-13
31.0952 399.536 -9.27258e-13
5.25802e-13 -9.27258e-13 342.003

458.045 12.1092 -9.54672e-13
12.1092 510.617 4.46398e-12
-9.54672e-13 4.46398e-12 488.456

421.506 -27.6528 4.29286e-12
-27.6528 389.119 -2.01439e-12
4.29286e-12 -2.01439e-12 375.119

524.805 20.5571 -3.14297e-12
20.5571 469.799 1.07795e-12
-3.14297e-12 1.07795e-12 500.784

534.967 26.2704 -3.7795e-12
26.2704 506.905 -1.3034e-12
-3.7795e-12 -1.3034e-12 516.14

494.872 -18.5701 8.24822e-13
-18.5701 449.077 -1.50694e-13
8.24822e-13 -1.50694e-13 470.908

554.624 -1.80428 1.20304e-12
-1.80428 516.064 -4.97913e-12
1.20304e-12 -4.97913e-12 525.761

473.342 -31.8138 5.56592e-12
-31.8138 475.751 -3.44791e-12
5.56592e-12 -3.44791e-12 478.631

412.65 23.3321 -1.82254e-12
23.3321 357.238 -1.12562e-12
-1.82254e-12 -1.12562e-12 348.134

464.234 30.1628 2.36167e-12
30.1628 482.827 1.19401e-12
2.36167e-12 1.19401e-12 483.26

464.497 29.2067 -1.31628e-12
29.2067 482.3 -1.62862e-12
-1.31628e-12 -1.62862e-12 482.82

393.995 30.6667 1.85096e-12
30.6667 405.774 2.4194e-12
1.85096e-12 2.4194e-12 360.913

502.907 27.0869 2.74447e-12
27.0869 482.714 1.07174e-12
2.74447e-12 1.07174e-12 490.785

415.405 3.52581 7.57912e-13
3.52581 339.056 -3.39799e-12
7.57912e-13 -3.39799e-12 340.867

493.175 31.8173 1.76155e-13
31.8173 487.278 -8.13867e-13
1.76155e-13 -8.13867e-13 495.627

476.374 -12.5992 8.53169e-13
-12.5992 522.503 3.14948e-12
8.53169e-13 3.14948e-12 500.298

536.971 24.2771 -1.82758e-12
24.2771 507.445 -1.88649e-12
-1.82758e-12 -1.88649e-12 516.676

468.235 -29.5796 -3.30402e-13
-29.5796 480.029 4.4705e-14
-3.30402e-13 4.4705e-14 483.117

464.609 -4.89714 4.48012e-13
-4.89714 521.609 5.76724e-13
4.48012e-13 5.76724e-13 491.03

400.99 -24.5609 5.43328e-12
-24.5609 349.065 1.73491e-12
5.43328e-12 1.73491e-12 323.99

419.02 29.6987 -9.01205e-13
29.6987 392.512 4.15549e-12
-9.01205e-13 4.15549e-12 373.816

352.386 14.6994 1.29052e-12
14.6994 417.266 4.16496e-12
1.29052e-12 4.16496e-12 348.283

500.589 -1.13941 1.72973e-12
-1.13941 442.853 -2.84484e-12
1.72973e-12 -2.84484e-12 487.765

492.532 0.0021397 -4.19812e-13
0.0021397 438.158 2.14844e-12
-4.19812e-13 2.14844e-12 474.475

453.022 23.1263 6.96776e-13
23.1263 479.766 -2.18344e-12
6.96776e-13 -2.18344e-12 475.642

481.359 23.8718 9.35252e-13
23.8718 502.926 3.66836e-13
9.35252e-13 3.66836e-13 501.306

456.646 -24.3811 -3.31914e-12
-24.3811 487.412 1.02081e-12
-3.31914e-12 1.02081e-12 488.554

457.887 -0.673834 1.11949e-12
-0.673834 517.997 -1.62241e-13
1.11949e-12 -1.62241e-13 486.453

458.944 25.5914 1.55431e-12
25.5914 486.528 5.77575e-12
1.55431e-12 5.77575e-12 488.576

465.622 -10.3096 1.47734e-12
-10.3096 408.137 -1.00468e-12
1.47734e-12 -1.00468e-12 427.279

400.918 -32.8398 -1.16647e-13
-32.8398 415.012 1.49096e-12
-1.16647e-13 1.49096e-12 385.218

518.154 -2.30262 3.07946e-12
-2.30262 465.796 3.25695e-12
3.07946e-12 3.25695e-12 500.983

391.925 -34.5149 -7.22385e-14
-34.5149 379.657 -1.03621e-13
-7.22385e-14 -1.03621e-13 347.465

478.058 19.0858 -1.90263e-12
19.0858 509.261 -2.25834e-12
-1.90263e-12 -2.25834e-12 501.902

506.172 -26.4797 -1.32457e-12
-26.4797 470.303 -1.31391e-12
-1.32457e-12 -1.31391e-12 487.33

425.061 -9.69216 -7.0699e-13
-9.69216 366.779 -1.10489e-12
-7.0699e-13 -1.10489e-12 356.03

530.318 -23.1933 -1.92675e-12
-23.1933 488.81 7.54656e-13
-1.92675e-12 7.54656e-13 506.543

500.958 2.35851 -3.83397e-14
2.35851 444.641 -6.64431e-13
-3.83397e-14 -6.64431e-13 489.266

521.245 -23.3234 2.40163e-12
-23.3234 501.896 -2.33857e-12
2.40163e-12 -2.33857e-12 508.588

502.077 -25.8606 3.56515e-12
-25.8606 461.549 -2.38624e-12
3.56515e-12 -2.38624e-12 481.302

498.892 -8.54763 3.08376e-12
-8.54763 445.196 7.57912e-13
3.08376e-12 7.57912e-13 479.405

482.281 -23.069 1.99248e-12
-23.069 505.05 -8.30077e-14
1.99248e-12 -8.30077e-14 502.593

428.6 -31.3476 -1.15818e-12
-31.3476 410.645 -4.91459e-14
-1.15818e-12 -4.91459e-14 399.053

503.328 -24.5902 3.73213e-12
-24.5902 464.772 8.29263e-13
3.73213e-12 8.29263e-13 482.218

441.305 10.8665 -1.66385e-12
10.8665 378.532 -3.56367e-12
-1.66385e-12 -3.56367e-12 387.852

500.096 26.3421 6.00113e-13
26.3421 498.639 -1.09009e-12
6.00113e-13 -1.09009e-12 500.161

463.815 -37.6102 2.86882e-13
-37.6102 488.454 -5.30979e-12
2.86882e-13 -5.30979e-12 494.144

464.924 37.2627 -2.69414e-14
37.2627 487.366 5.60811e-12
-2.69414e-14 5.60811e-12 493.859

446.395 -28.5718 5.97559e-13
-28.5718 500.078 -3.97637e-12
5.97559e-13 -3.97637e-12 492.374

448.629 27.0629 -6.16248e-13
27.0629 500.769 -5.42085e-13
-6.16248e-13 -5.42085e-13 492.561

513.133 -8.52663 1.29437e-12
-8.52663 436.473 -2.01646e-12
1.29437e-12 -2.01646e-12 492.821

511.296 9.27257 -1.55668e-12
9.27257 438.07 1.45676e-12
-1.55668e-12 1.45676e-12 492.459

501.72 -9.8476 2.02801e-13
-9.8476 451.802 -1.93046e-12
2.02801e-13 -1.93046e-12 483.081

510.919 32.1128 -3.46745e-12
32.1128 510.447 -5.34434e-13
-3.46745e-12 -5.34434e-13 514.11

509.695 -32.8506 -3.15185e-12
-32.8506 510.124 3.8532e-12
-3.15185e-12 3.8532e-12 513.749

481.868 16.0677 1.10208e-12
16.0677 539.183 1.07055e-12
1.10208e-12 1.07055e-12 514.382

483.062 -15.8004 -4.13003e-14
-15.8004 538.773 6.32087e-13
-4.13003e-14 6.32087e-13 514.403

556.914 -3.75037 4.67197e-12
-3.75037 506.881 3.02869e-13
4.67197e-12 3.02869e-13 525.043

558.468 3.61305 -2.23732e-12
3.61305 505.206 4.2751e-13
-2.23732e-12 4.2751e-13 525.415

387.361 9.83872 3.4975e-12
9.83872 449.261 -2.49756e-12
3.4975e-12 -2.49756e-12 397.141

472.449 -24.7766 1.04391e-12
-24.7766 480.816 2.47506e-12
1.04391e-12 2.47506e-12 485.036

443.53 -36.3855 3.02521e-12
-36.3855 485.598 -1.67866e-12
3.02521e-12 -1.67866e-12 486.69

473.708 -4.66484 6.95858e-12
-4.66484 420.494 3.68812e-12
6.95858e-12 3.68812e-12 436.397

540.306 -16.692 1.49836e-12
-16.692 484.249 -2.91737e-12
1.49836e-12 -2.91737e-12 515.342

541.026 16.173 4.4705e-13
16.173 485.471 -1.86517e-12
4.4705e-13 -1.86517e-12 515.948

506.926 0.121852 -3.11899e-13
0.121852 423.62 1.33997e-13
-3.11899e-13 1.33997e-13 487.064

384.843 23.3799 -1.79294e-12
23.3799 432.358 -1.43293e-13
-1.79294e-12 -1.43293e-13 385.529

442.401 36.1695 -5.19066e-13
36.1695 485.277 -9.10383e-13
-5.19066e-13 -9.10383e-13 485.896

452.661 -23.3966 -4.29686e-12
-23.3966 495.017 2.29742e-12
-4.29686e-12 2.29742e-12 483.651

443.31 23.3571 5.93185e-12
23.3571 397.572 7.8515e-13
5.93185e-12 7.8515e-13 400.427

531.02 23.8593 -6.00409e-13
23.8593 488.06 -1.5404e-12
-6.00409e-13 -1.5404e-12 507.301

428.538 -31.3194 1.68635e-12
-31.3194 410.93 4.97321e-12
1.68635e-12 4.97321e-12 398.872

519.917 -3.23264 6.71019e-13
-3.23264 469.116 6.24389e-13
6.71019e-13 6.24389e-13 502.743

439.465 -34.1594 3.80037e-12
-34.1594 485.569 -2.52243e-13
3.80037e-12 -2.52243e-13 485.885

389.235 8.32148 1.82223e-12
8.32148 452.391 -1.30977e-12
1.82223e-12 -1.30977e-12 400.909

385.93 21.816 -6.01001e-12
21.816 435.834 3.30402e-13
-6.01001e-12 3.30402e-13 388.747

383.898 35.7825 -1.72899e-12
35.7825 362.379 4.24312e-12
-1.72899e-12 4.24312e-12 318.37

408.239 1.57909 -3.606e-12
1.57909 332.197 -3.97948e-12
-3.606e-12 -3.97948e-12 327.369

485.514 -22.8057 -2.47979e-12
-22.8057 502.915 3.25127e-12
-2.47979e-12 3.25127e-12 501.805

351.923 31.1896 5.49486e-13
31.1896 388.883 9.30811e-13
5.49486e-13 9.30811e-13 312.399

451.41 23.6127 -3.83723e-12
23.6127 478.477 -2.16064e-12
-3.83723e-12 -2.16064e-12 465.272

442.259 -5.35057 -4.83406e-12
-5.35057 377.176 8.76336e-13
-4.83406e-12 8.76336e-13 387.79

464.219 11.218 -3.14652e-12
11.218 407.352 1.47438e-12
-3.14652e-12 1.47438e-12 424.978

505.442 0.429865 1.76673e-12
0.429865 421.64 -5.05889e-12
1.76673e-12 -5.05889e-12 485.736

449.414 -29.0294 -7.9788e-13
-29.0294 502.058 1.39799e-12
-7.9788e-13 1.39799e-12 493.647

572.536 -6.31731 -2.06013e-12
-6.31731 589.513 -1.82373e-12
-2.06013e-12 -1.82373e-12 549.292

463.203 37.4089 6.92483e-13
37.4089 487.089 -1.39577e-12
6.92483e-13 -1.39577e-12 493.123

408.793 1.66354 2.69769e-12
1.66354 331.644 9.81437e-14
2.69769e-12 9.81437e-14 308.945

404.288 -32.7935 3.13823e-14
-32.7935 415.565 1.69997e-12
3.13823e-14 1.69997e-12 387.442

443.207 36.6109 3.87046e-12
36.6109 485.57 -1.26995e-12
3.87046e-12 -1.26995e-12 486.632

444.734 -11.1347 7.66202e-13
-11.1347 498.997 -2.61835e-12
7.66202e-13 -2.61835e-12 471.498

386.124 -25.5197 3.96305e-12
-25.5197 428.961 7.02253e-13
3.96305e-12 7.02253e-13 384.616

449.514 28.8284 -2.97395e-12
28.8284 501.691 -1.23664e-12
-2.97395e-12 -1.23664e-12 493.347

452.772 -26.1466 1.08891e-12
-26.1466 419.358 -1.46253e-13
1.08891e-12 -1.46253e-13 419.573

579.582 10.4844 2.27226e-12
10.4844 582.189 2.81197e-12
2.27226e-12 2.81197e-12 549.077

398.382 30.8781 7.21379e-12
30.8781 422.116 1.13687e-13
7.21379e-12 1.13687e-13 388.215

515.766 8.12574 4.95011e-13
8.12574 437.333 1.14738e-12
4.95011e-13 1.14738e-12 494.64

493.862 30.1915 5.03301e-15
30.1915 484.807 -1.01726e-12
5.03301e-15 -1.01726e-12 493.858

453.526 23.3342 2.9677e-12
23.3342 479.226 -1.45454e-12
2.9677e-12 -1.45454e-12 475.858

510.752 -32.4853 7.50807e-13
-32.4853 512.505 -8.62791e-13
7.50807e-13 -8.62791e-13 515.058

510.364 -23.1929 1.82373e-13
-23.1929 473.235 3.82035e-12
1.82373e-13 3.82035e-12 489.732

511.444 10.4681 7.12023e-13
10.4681 558.036 4.05542e-12
7.12023e-13 4.05542e-12 523.779

452.233 -23.4362 2.51651e-13
-23.4362 480.229 -3.24659e-12
2.51651e-13 -3.24659e-12 469.009

394.462 -9.70982 4.30589e-12
-9.70982 316.452 -2.02334e-12
4.30589e-12 -2.02334e-12 295.615

387.342 -14.2796 6.79989e-12
-14.2796 306.096 1.82491e-12
6.79989e-12 1.82491e-12 290.088

547.628 16.5318 -2.31459e-12
16.5318 507.81 -2.73589e-12
-2.31459e-12 -2.73589e-12 519.368

436.546 22.5055 3.16784e-14
22.5055 469.2 -3.58824e-12
3.16784e-14 -3.58824e-12 447.881

476.022 29.1666 -4.18569e-12
29.1666 467.702 4.2597e-12
-4.18569e-12 4.2597e-12 471.535

450.365 0.688762 -1.78938e-12
0.688762 392.828 4.84118e-12
-1.78938e-12 4.84118e-12 395.727

478.4 6.56993 1.31914e-12
6.56993 541.328 -7.60281e-13
1.31914e-12 -7.60281e-13 507.591

507.392 16.5406 -7.04622e-14
16.5406 461.193 -1.8406e-12
-7.04622e-14 -1.8406e-12 488.137

390.028 -25.7663 8.43769e-13
-25.7663 430.095 7.41333e-13
8.43769e-13 7.41333e-13 387.786

456.371 -2.57152 1.2107e-12
-2.57152 517.072 5.59552e-13
1.2107e-12 5.59552e-13 484.895

400.642 13.368 -9.26666e-13
13.368 453.048 -1.13095e-12
-9.26666e-13 -1.13095e-12 404.69

486.972 -29.7161 -2.77704e-12
-29.7161 465.869 1.94896e-12
-2.77704e-12 1.94896e-12 474.314

430.357 -29.9531 1.31332e-12
-29.9531 423.686 -3.8843e-13
1.31332e-12 -3.8843e-13 405.009

399.764 31.6291 -8.81073e-13
31.6291 418.289 1.8332e-12
-8.81073e-13 1.8332e-12 386.054

624.015 -15.0187 5.20413e-12
-15.0187 581.973 4.85989e-12
5.20413e-12 4.85989e-12 557.94

494.569 2.04246 -5.02583e-12
2.04246 552.189 2.21156e-12
-5.02583e-12 2.21156e-12 517.974

483.556 20.2977 -1.60997e-12
20.2977 542.089 6.95148e-13
-1.60997e-12 6.95148e-13 516.081

544.752 15.4368 1.99307e-12
15.4368 480.024 2.36848e-12
1.99307e-12 2.36848e-12 515.803

473.807 -26.1913 -3.24185e-13
-26.1913 479.815 8.31927e-14
-3.24185e-13 8.31927e-14 483.074

452.188 17.9603 6.34515e-12
17.9603 404.561 3.01862e-12
6.34515e-12 3.01862e-12 406.972

531.615 -5.29202 2.35247e-12
-5.29202 580.834 4.37487e-12
2.35247e-12 4.37487e-12 537.16

512.246 -18.9876 3.17405e-12
-18.9876 464.85 2.79628e-12
3.17405e-12 2.79628e-12 493.084

474.039 -15.6009 3.24481e-12
-15.6009 423.231 2.77852e-12
3.24481e-12 2.77852e-12 438.936

402.053 11.6057 -7.80679e-12
11.6057 456.02 9.00021e-14
-7.80679e-12 9.00021e-14 407.834

410.978 -25.7393 3.06244e-12
-25.7393 435.641 -1.05397e-13
3.06244e-12 -1.05397e-13 399.01

532.096 -25.274 4.27717e-12
-25.274 523.235 -2.33502e-12
4.27717e-12 -2.33502e-12 519.166

423.113 31.9655 -3.11455e-12
31.9655 417.304 4.90807e-12
-3.11455e-12 4.90807e-12 400.358

535.53 -25.1336 -2.21275e-12
-25.1336 505.835 5.79092e-13
-2.21275e-12 5.79092e-13 515.709

453.558 2.59779 -7.09358e-12
2.59779 397.072 -3.71333e-13
-7.09358e-12 -3.71333e-13 401.951

311.137 -28.9358 1.65793e-14
-28.9358 376.647 1.54898e-12
1.65793e-14 1.54898e-12 290.033

431.934 -29.2364 -4.96373e-12
-29.2364 424.105 1.86991e-12
-4.96373e-12 1.86991e-12 406.208

353.806 32.1648 1.52293e-12
32.1648 392.597 -1.12976e-12
1.52293e-12 -1.12976e-12 313.01

470.397 -11.8758 -2.69429e-12
-11.8758 529.605 -1.48622e-13
-2.69429e-12 -1.48622e-13 500.356

391.502 -13.824 4.90867e-13
-13.824 449.315 -1.15582e-12
4.90867e-13 -1.15582e-12 400.252

602.876 -23.9834 2.63597e-12
-23.9834 602.285 4.09302e-13
2.63597e-12 4.09302e-13 557.881

408.426 23.7755 7.26056e-12
23.7755 442.001 2.44782e-12
7.26056e-12 2.44782e-12 402.276

496.632 -32.7265 -1.66504e-12
-32.7265 490.694 -3.83604e-12
-1.66504e-12 -3.83604e-12 497.5

388.24 -11.9654 -8.18242e-12
-11.9654 448.347 1.25292e-12
-8.18242e-12 1.25292e-12 397.069

516.768 -19.1164 -2.24976e-12
-19.1164 465.81 1.39326e-12
-2.24976e-12 1.39326e-12 496.298

410.741 23.8818 -2.6894e-12
23.8818 439.373 8.28967e-14
-2.6894e-12 8.28967e-14 400.752

488.985 -4.9759 -9.11863e-13
-4.9759 435.129 -2.41551e-12
-9.11863e-13 -2.41551e-12 460.441

305.818 -30.3469 -4.38168e-12
-30.3469 391.487 4.05957e-12
-4.38168e-12 4.05957e-12 262.604

438.668 21.0169 -2.99316e-12
21.0169 473.977 -1.54247e-12
-2.99316e-12 -1.54247e-12 458.408

445.75 -19.3268 2.18255e-12
-19.3268 394.03 -2.66187e-12
2.18255e-12 -2.66187e-12 399.678

551.647 -21.4455 1.95962e-12
-21.4455 499.565 -2.25124e-12
1.95962e-12 -2.25124e-12 520.153

424.529 31.76 -5.33854e-12
31.76 413.38 8.7456e-13
-5.33854e-12 8.7456e-13 398.014

459.225 -29.9762 2.43361e-13
-29.9762 437.696 5.70211e-13
2.43361e-13 5.70211e-13 439.358

510.68 20.8865 -5.54815e-13
20.8865 476.128 1.80655e-12
-5.54815e-13 1.80655e-12 492.813

461.569 -28.0765 3.77831e-12
-28.0765 485.805 8.24822e-13
3.77831e-12 8.24822e-13 488.779

413.778 -26.2304 -3.63561e-13
-26.2304 436.308 1.74675e-12
-3.63561e-13 1.74675e-12 401.495

426.136 28.9865 -9.78773e-13
28.9865 429.959 5.48302e-13
-9.78773e-13 5.48302e-13 406.918

452.565 26.1957 1.89596e-12
26.1957 418.285 -4.52408e-12
1.89596e-12 -4.52408e-12 419.117

522.027 -14.6123 -1.6908e-12
-14.6123 477.233 -1.82521e-12
-1.6908e-12 -1.82521e-12 500.12

403.618 -16.621 2.2462e-12
-16.621 451.809 3.74219e-13
2.2462e-12 3.74219e-13 406.5

496.112 -17.5693 5.3942e-13
-17.5693 447.667 -3.80881e-13
5.3942e-13 -3.80881e-13 471.562

487.83 16.9109 -4.76656e-13
16.9109 436.318 -4.46665e-12
-4.76656e-13 -4.46665e-12 460.649

513.387 -9.38428 3.28441e-12
-9.38428 555.826 -2.26841e-12
3.28441e-12 -2.26841e-12 523.08

454.045 -13.4322 9.35548e-13
-13.4322 402.235 -4.82681e-12
9.35548e-13 -4.82681e-12 406.801

403.258 0.594418 2.60799e-12
0.594418 465.793 3.13941e-12
2.60799e-12 3.13941e-12 417.864

475.094 18.5573 1.04805e-13
18.5573 428.831 1.78109e-12
1.04805e-13 1.78109e-12 442.282

451.208 27.6085 3.69482e-12
27.6085 421.898 -1.92261e-12
3.69482e-12 -1.92261e-12 420.903

400.926 -15.6893 5.0114e-12
-15.6893 451.449 -1.22924e-12
5.0114e-12 -1.22924e-12 403.794

406.057 -1.20224 5.5469e-12
-1.20224 468.102 -4.56405e-12
5.5469e-12 -4.56405e-12 421.279

516.255 29.1349 5.08334e-12
29.1349 498.078 -8.32223e-13
5.08334e-12 -8.32223e-13 504.931

441.765 -10.9236 -2.03659e-12
-10.9236 500.723 4.77248e-13
-2.03659e-12 4.77248e-13 471.21

451.505 -26.72 -7.6857e-13
-26.72 418.826 5.02887e-12
-7.6857e-13 5.02887e-12 419.412

444.452 21.3366 5.69855e-12
21.3366 395.354 -1.19371e-12
5.69855e-12 -1.19371e-12 398.258

497.66 23.6668 1.85511e-12
23.6668 458.15 -8.18012e-13
1.85511e-12 -8.18012e-13 476.611

447.742 5.47219 3.46464e-13
5.47219 508.855 1.32694e-12
3.46464e-13 1.32694e-12 476.942

427.712 29.0711 -2.66572e-12
29.0711 426.497 7.29491e-13
-2.66572e-12 7.29491e-13 405.168

536.872 22.9641 -1.53744e-12
22.9641 531.942 -2.16331e-12
-1.53744e-12 -2.16331e-12 522.836

314.792 -59.7005 -1.68635e-12
-59.7005 282.804 -4.63392e-12
-1.68635e-12 -4.63392e-12 223.454

480.659 -25.0515 6.01238e-12
-25.0515 445.133 3.45797e-13
6.01238e-12 3.45797e-13 456.707

336.709 7.07114 -3.09945e-12
7.07114 409.215 7.03437e-13
-3.09945e-12 7.03437e-13 319.486

460.603 -28.8937 -1.21384e-13
-28.8937 444.8 4.42017e-12
-1.21384e-13 4.42017e-12 443.514

96.4346 -52.7067 -8.84626e-13
-52.7067 306.652 8.2423e-13
-8.84626e-13 8.2423e-13 113.714

95.9685 51.4573 1.80715e-12
51.4573 306.916 -1.80478e-12
1.80715e-12 -1.80478e-12 114.502

181.537 117.167 -7.51044e-12
117.167 226.101 -1.89952e-12
-7.51044e-12 -1.89952e-12 113.603

182.835 -117.11 1.89478e-12
-117.11 223.337 -4.13062e-12
1.89478e-12 -4.13062e-12 113.577

321.618 -1.36356 -5.06854e-12
-1.36356 84.6629 -3.26417e-14
-5.06854e-12 -3.26417e-14 114.944

274.464 -91.1355 -8.8581e-13
-91.1355 127.432 2.26189e-12
-8.8581e-13 2.26189e-12 113.817

275.16 91.6635 2.34005e-12
91.6635 128.265 -2.64796e-12
2.34005e-12 -2.64796e-12 114.587

525.297 14.3323 -2.16538e-12
14.3323 474.769 2.54374e-12
-2.16538e-12 2.54374e-12 502.372

556.84 25.5348 2.16745e-12
25.5348 541.223 -4.6246e-12
2.16745e-12 -4.6246e-12 533.498

492.16 6.60711 2.03867e-12
6.60711 439.182 -1.92661e-13
2.03867e-12 -1.92661e-13 471.465

470.366 21.7881 2.90375e-12
21.7881 424.576 -1.09838e-12
2.90375e-12 -1.09838e-12 438.255

410.033 17.7477 2.60695e-12
17.7477 461.14 8.27782e-13
2.60695e-12 8.27782e-13 425.103

448.075 28.9036 -1.73965e-12
28.9036 424.766 4.06608e-12
-1.73965e-12 4.06608e-12 420.81

487.211 -29.6664 -3.29218e-13
-29.6664 465.689 5.73378e-12
-3.29218e-13 5.73378e-12 474.65

449.432 28.0328 8.08834e-13
28.0328 421.131 2.37617e-12
8.08834e-13 2.37617e-12 418.701

403.021 -2.84209 -2.51843e-12
-2.84209 465.449 3.19981e-12
-2.51843e-12 3.19981e-12 417.6

555.846 -26.0956 3.32771e-12
-26.0956 543.416 -4.84649e-13
3.32771e-12 -4.84649e-13 533.742

405.559 -4.86362 7.75676e-14
-4.86362 467.187 -2.76164e-12
7.75676e-14 -2.76164e-12 420.659

522.348 23.0184 2.53486e-12
23.0184 499.798 -1.08565e-12
2.53486e-12 -1.08565e-12 508.026

423.44 26.8759 5.48302e-13
26.8759 386.562 -1.49806e-13
5.48302e-13 -1.49806e-13 373.081

480.171 -13.2165 -1.79412e-13
-13.2165 532.824 1.05249e-12
-1.79412e-13 1.05249e-12 512.058

484.265 13.7299 -4.03292e-12
13.7299 432.836 -1.28786e-13
-4.03292e-12 -1.28786e-13 456.937

457.433 -29.9922 1.10016e-12
-29.9922 437.038 1.40184e-12
1.10016e-12 1.40184e-12 437.894

454.375 -24.7175 -2.56388e-12
-24.7175 416.864 -1.49214e-13
-2.56388e-12 -1.49214e-13 419.913

547.453 -16.0772 -3.61341e-12
-16.0772 509.356 6.0929e-13
-3.61341e-12 6.0929e-13 519.437

476.038 27.9324 -1.53122e-12
27.9324 449.767 -3.87956e-12
-1.53122e-12 -3.87956e-12 456.986

469.167 23.9813 -3.36324e-13
23.9813 427.909 6.94259e-13
-3.36324e-13 6.94259e-13 439.891

432.487 -2.79271 -9.29923e-13
-2.79271 493.704 -3.34547e-13
-9.29923e-13 -3.34547e-13 457.168

417.665 5.87396 2.20918e-12
5.87396 479.625 -3.74397e-12
2.20918e-12 -3.74397e-12 440.238

463.08 2.64717 6.17521e-12
2.64717 402.337 3.44998e-12
6.17521e-12 3.44998e-12 422.382

438.713 -7.29112 5.21065e-14
-7.29112 373.967 -2.86438e-12
5.21065e-14 -2.86438e-12 381.273

454.908 30.4894 -2.42769e-14
30.4894 439.076 1.59813e-12
-2.42769e-14 1.59813e-12 437.897

478.53 -26.1592 -1.30681e-12
-26.1592 443.604 3.4482e-12
-1.30681e-12 3.4482e-12 454.707

525.758 -21.255 -3.89999e-12
-21.255 497.882 -1.21266e-12
-3.89999e-12 -1.21266e-12 508.675

437.796 -31.6391 -4.87906e-13
-31.6391 437.718 4.87847e-12
-4.87906e-13 4.87847e-12 426.919

417.65 -27.7908 9.11271e-13
-27.7908 444.462 -2.91145e-12
9.11271e-13 -2.91145e-12 419.748

430.709 29.8926 -9.31995e-13
29.8926 442.809 -2.08426e-12
-9.31995e-13 -2.08426e-12 426.558

416.284 -9.57941 -1.82524e-12
-9.57941 475.28 -3.38574e-12
-1.82524e-12 -3.38574e-12 436.516

428.954 -1.54566 3.18856e-13
-1.54566 491.936 -2.07242e-13
3.18856e-13 -2.07242e-13 454.056

445.24 5.74762 3.91983e-13
5.74762 508.108 2.14465e-12
3.91983e-13 2.14465e-12 474.975

414.678 -21.0931 -1.79975e-12
-21.0931 458.475 5.9952e-12
-1.79975e-12 5.9952e-12 426.126

496.932 24.1142 2.70539e-12
24.1142 455.756 -1.63514e-12
2.70539e-12 -1.63514e-12 474.653

483.442 -9.59117 -1.00246e-12
-9.59117 430.172 1.91758e-12
-1.00246e-12 1.91758e-12 455.283

415.691 7.46626 -4.30248e-13
7.46626 477.189 6.88042e-13
-4.30248e-13 6.88042e-13 436.974

444.014 -9.7016 -7.27011e-14
-9.7016 501.57 1.96287e-12
-7.27011e-14 1.96287e-12 471.068

433.234 -16.3331 -2.32096e-12
-16.3331 481.744 -2.72967e-13
-2.32096e-12 -2.72967e-13 455.73

463.608 -8.2406 3.02691e-12
-8.2406 406.393 -1.78968e-12
3.02691e-12 -1.78968e-12 421.531

494.495 -32.3468 -4.65702e-13
-32.3468 487.678 -1.76392e-12
-4.65702e-13 -1.76392e-12 496.311

423.004 9.32294 2.6222e-12
9.32294 479.16 -1.07766e-12
2.6222e-12 -1.07766e-12 441.041

564.399 -18.2134 -1.9155e-13
-18.2134 529.996 -2.05954e-12
-1.9155e-13 -2.05954e-12 531.88

309.09 24.8274 -8.17124e-14
24.8274 379.477 -7.41333e-13
-8.17124e-14 -7.41333e-13 289.839

501.758 -26.6278 -4.09213e-12
-26.6278 499.546 6.21725e-13
-4.09213e-12 6.21725e-13 501.258

515.706 -30.2031 2.24768e-12
-30.2031 498.457 -4.54155e-13
2.24768e-12 -4.54155e-13 504.975

429.282 -0.700744 4.3047e-13
-0.700744 492.061 9.8351e-13
4.3047e-13 9.8351e-13 454.207

474.95 -16.6247 -3.30106e-12
-16.6247 428.398 1.94304e-12
-3.30106e-12 1.94304e-12 442.018

462.364 12.8421 1.30472e-12
12.8421 511.339 3.39462e-12
1.30472e-12 3.39462e-12 489.182

240.805 -3.1816 5.81853e-12
-3.1816 360.737 4.47405e-12
5.81853e-12 4.47405e-12 226.997

432.464 14.2756 5.75362e-12
14.2756 485.424 -1.76451e-12
5.75362e-12 -1.76451e-12 456.944

458.177 -29.494 -2.93454e-12
-29.494 443.234 6.38896e-13
-2.93454e-12 6.38896e-13 440.824

304.226 25.1094 -8.24822e-13
25.1094 394.638 1.87583e-12
-8.24822e-13 1.87583e-12 264.378

603.574 26.0932 2.44782e-12
26.0932 597.978 -5.24514e-12
2.44782e-12 -5.24514e-12 558.197

608.307 -27.8021 4.33283e-13
-27.8021 595.054 5.05418e-12
4.33283e-13 5.05418e-12 558.331

463.558 -30.4231 2.98546e-12
-30.4231 459.101 7.25346e-14
2.98546e-12 7.25346e-14 459.135

434.648 -31.1658 -7.64426e-13
-31.1658 436.423 1.37016e-12
-7.64426e-13 1.37016e-12 424.723

474.17 20.8303 -4.20286e-12
20.8303 431.976 -2.6894e-12
-4.20286e-12 -2.6894e-12 444.035

465.291 15.0087 3.53317e-12
15.0087 410.175 8.44362e-13
3.53317e-12 8.44362e-13 427.524

646.078 3.08047 1.23234e-11
3.08047 645.735 -8.11129e-13
1.23234e-11 -8.11129e-13 574.654

649.898 -6.99561 -1.21128e-11
-6.99561 641.406 -3.5872e-12
-1.21128e-11 -3.5872e-12 575.182

497.058 4.82412 3.12165e-12
4.82412 442.099 -7.09062e-13
3.12165e-12 -7.09062e-13 477.477

443.618 6.73254 1.28016e-12
6.73254 503.056 8.5502e-13
1.28016e-12 8.5502e-13 471.112

442.031 6.73648 -9.39332e-13
6.73648 502.581 1.92202e-12
-9.39332e-13 1.92202e-12 469.835

321.578 58.6438 1.83557e-12
58.6438 281.159 -6.26699e-12
1.83557e-12 -6.26699e-12 225.108

420.289 -28.2052 1.01963e-12
-28.2052 444.089 5.22249e-13
1.01963e-12 5.22249e-13 421.093

520.64 17.9739 -2.20594e-12
17.9739 467.592 8.11795e-13
-2.20594e-12 8.11795e-13 499.57

473.05 9.54098 1.08358e-12
9.54098 421.258 -6.42449e-14
1.08358e-12 -6.42449e-14 436.265

440.694 -26.728 -3.24244e-12
-26.728 450.793 -1.9836e-13
-3.24244e-12 -1.9836e-13 433.478

469.345 -20.241 -9.90023e-13
-20.241 422.777 1.4501e-12
-9.90023e-13 1.4501e-12 437.238

312.515 60.2417 -2.77822e-12
60.2417 281.408 -5.51618e-12
-2.77822e-12 -5.51618e-12 223.246

492.742 31.0705 -7.15576e-13
31.0705 489.101 -2.42473e-13
-7.15576e-13 -2.42473e-13 493.198

410.922 -19.7899 2.66187e-12
-19.7899 457.95 1.98834e-12
2.66187e-12 1.98834e-12 423.559

474.194 28.8616 -4.19457e-12
28.8616 449.694 2.26663e-12
-4.19457e-12 2.26663e-12 456.581

431.016 -4.14602 -4.73843e-13
-4.14602 493.041 -1.11318e-12
-4.73843e-13 -1.11318e-12 456.53

423.992 19.6128 1.43559e-12
19.6128 465.78 1.14871e-12
1.43559e-12 1.14871e-12 434.17

452.813 30.5239 8.50875e-13
30.5239 443.662 6.21725e-14
8.50875e-13 6.21725e-14 439.67

428.706 -22.4774 3.15599e-12
-22.4774 461.205 2.37795e-12
3.15599e-12 2.37795e-12 433.875

443.639 -27.3573 -4.96018e-12
-27.3573 450.499 -4.33609e-12
-4.96018e-12 -4.33609e-12 435.108

294.817 11.2588 -4.91074e-12
11.2588 372.637 -2.70717e-12
-4.91074e-12 -2.70717e-12 258.138

357.348 -33.4626 2.66927e-12
-33.4626 389.173 -9.87654e-13
2.66927e-12 -9.87654e-13 314.175

419.717 -11.6924 -2.63352e-12
-11.6924 476.43 -1.92675e-12
-2.63352e-12 -1.92675e-12 439.407

478.463 26.4885 2.15117e-12
26.4885 446.861 -8.87586e-13
2.15117e-12 -8.87586e-13 456.146

452.41 29.4825 2.47565e-12
29.4825 449.092 -2.02031e-12
2.47565e-12 -2.02031e-12 442.462

426.871 -21.4379 3.13379e-12
-21.4379 461.853 7.94624e-13
3.13379e-12 7.94624e-13 432.693

422.992 -11.7848 2.11357e-12
-11.7848 476.717 -1.76511e-12
2.11357e-12 -1.76511e-12 439.991

457.772 28.4142 -1.46845e-13
28.4142 447.152 -5.63105e-13
-1.46845e-13 -5.63105e-13 442.633

425.167 -13.8804 -2.59615e-12
-13.8804 476.488 -1.65971e-12
-2.59615e-12 -1.65971e-12 442.167

311.307 27.8606 4.53918e-12
27.8606 377.445 1.93504e-12
4.53918e-12 1.93504e-12 290.026

485.223 -4.04002 8.27729e-13
-4.04002 545.104 2.9304e-12
8.27729e-13 2.9304e-12 511.092

433.048 31.0332 -4.52379e-13
31.0332 439.692 -1.04568e-12
-4.52379e-13 -1.04568e-12 426.08

509.373 14.9032 -5.47414e-12
14.9032 463.222 -1.97383e-12
-5.47414e-12 -1.97383e-12 488.666

516.981 -15.9296 -3.77446e-12
-15.9296 467.641 -3.05089e-12
-3.77446e-12 -3.05089e-12 493.983

383.981 -24.209 3.68772e-12
-24.209 305.989 -8.91731e-12
3.68772e-12 -8.91731e-12 285.395

442.343 -21.2701 -5.68434e-13
-21.2701 476.068 -7.4003e-12
-5.68434e-13 -7.4003e-12 459.385

447.893 26.702 1.89271e-12
26.702 466.275 -6.70871e-13
1.89271e-12 -6.70871e-13 457.905

523.027 -21.7274 -3.80436e-13
-21.7274 543.856 5.73449e-12
-3.80436e-13 5.73449e-12 525.361

579.61 14.1024 8.9558e-12
14.1024 617.641 8.31039e-13
8.9558e-12 8.31039e-13 557.093

620.226 9.44513 3.82805e-13
9.44513 576.87 -6.06626e-12
3.82805e-13 -6.06626e-12 556.911

523.522 32.7037 1.33345e-12
32.7037 520.7 -2.70213e-12
1.33345e-12 -2.70213e-12 519.578

414.951 26.0054 1.10282e-12
26.0054 448.972 7.73899e-13
1.10282e-12 7.73899e-13 420.437

478.162 26.6646 3.24955e-12
26.6646 444.83 -3.64568e-12
3.24955e-12 -3.64568e-12 455.569

332.409 45.1945 -2.28558e-13
45.1945 349.539 8.05163e-12
-2.28558e-13 8.05163e-12 286.781

571.419 -11.3402 3.29337e-12
-11.3402 614.494 -1.61056e-13
3.29337e-12 -1.61056e-13 554.636

641.334 -3.431 9.72323e-12
-3.431 636.883 1.7996e-12
9.72323e-12 1.7996e-12 572.431

634.918 -0.208347 -1.29126e-12
-0.208347 643.185 2.91278e-12
-1.29126e-12 2.91278e-12 572.258

272.998 -53.811 -2.63256e-12
-53.811 316.489 4.45037e-12
-2.63256e-12 4.45037e-12 220.94

566.68 -11.5984 -2.44812e-12
-11.5984 562.161 6.68798e-13
-2.44812e-12 6.68798e-13 540.945

563.803 8.81072 -2.88451e-12
8.81072 586.996 -2.74299e-12
-2.88451e-12 -2.74299e-12 546.884

478.31 -26.2025 3.15007e-13
-26.2025 440.502 1.12591e-12
3.15007e-13 1.12591e-12 453.543

494.4 1.00959 -6.32642e-13
1.00959 545.813 1.6757e-12
-6.32642e-13 1.6757e-12 514.111

447.715 -20.2706 6.4689e-13
-20.2706 484.226 -2.59348e-13
6.4689e-13 -2.59348e-13 470.701

506.368 6.25566 -1.76777e-12
6.25566 443.44 -2.47335e-12
-1.76777e-12 -2.47335e-12 486.188

461.336 15.5962 -8.05208e-13
15.5962 521.314 -1.08239e-12
-8.05208e-13 -1.08239e-12 497.616

471.236 7.19079 -2.63585e-13
7.19079 528.065 -4.12411e-12
-2.63585e-13 -4.12411e-12 497.748

493.828 20.3958 -2.3744e-12
20.3958 451.577 -2.72079e-12
-2.3744e-12 -2.72079e-12 469.812

241.095 -3.11391 -5.27608e-12
-3.11391 358.609 2.83743e-12
-5.27608e-12 2.83743e-12 227.095

463.765 -27.6277 4.56997e-12
-27.6277 463.457 -9.34956e-13
4.56997e-12 -9.34956e-13 461.254

488.407 -26.1195 1.35181e-12
-26.1195 481.659 -9.00998e-12
1.35181e-12 -9.00998e-12 485.93

497.598 -31.4836 -2.39394e-12
-31.4836 490.02 6.5626e-12
-2.39394e-12 6.5626e-12 499.041

355.648 32.7552 -1.02318e-11
32.7552 285.815 -1.80359e-12
-1.02318e-11 -1.80359e-12 248.401

563.92 -20.1151 -6.12221e-12
-20.1151 569.646 -1.35136e-12
-6.12221e-12 -1.35136e-12 542.616

337.691 54.3302 -6.52278e-12
54.3302 356.704 1.80952e-12
-6.52278e-12 1.80952e-12 258.911

477.132 -21.4384 -4.44637e-12
-21.4384 506.553 -4.34911e-12
-4.44637e-12 -4.34911e-12 500.304

504.839 14.6508 1.05397e-12
14.6508 452.049 -1.47068e-12
1.05397e-12 -1.47068e-12 481.622

449.898 -14.5751 2.36848e-13
-14.5751 397.043 -2.09314e-13
2.36848e-13 -2.09314e-13 400.898

452.659 24.0492 2.10676e-12
24.0492 478.848 7.20017e-13
2.10676e-12 7.20017e-13 467.912

493.733 20.4297 -4.39352e-13
20.4297 449.562 -2.16716e-13
-4.39352e-13 -2.16716e-13 469.404

505.613 11.3984 3.86136e-13
11.3984 564.46 -1.48415e-12
3.86136e-13 -1.48415e-12 526.762

475.96 -31.5827 1.43559e-12
-31.5827 470.42 -1.39681e-12
1.43559e-12 -1.39681e-12 475.126

559.313 19.8121 1.24404e-12
19.8121 510.488 5.2817e-12
1.24404e-12 5.2817e-12 526.538

440.021 -18.4461 6.41857e-13
-18.4461 482.534 -4.99156e-13
6.41857e-13 -4.99156e-13 459.212

465.955 4.28438 -4.91382e-13
4.28438 526.168 -9.37324e-13
-4.91382e-13 -9.37324e-13 495.569

588.671 9.92823 6.01297e-12
9.92823 552.498 -6.18098e-12
6.01297e-12 -6.18098e-12 545.233

590.453 -8.51511 1.17891e-12
-8.51511 554.84 -2.89206e-12
1.17891e-12 -2.89206e-12 545.75

382.365 18.5156 2.60295e-12
18.5156 302.327 7.36004e-13
2.60295e-12 7.36004e-13 286.175

502.744 7.96617 -5.24943e-12
7.96617 453.662 -1.53951e-13
-5.24943e-12 -1.53951e-13 487.827

232.842 7.74208 -4.44356e-12
7.74208 381.559 -7.57912e-13
-4.44356e-12 -7.57912e-13 187.211

237.012 -11.387 4.51221e-12
-11.387 387.253 -4.0122e-12
4.51221e-12 -4.0122e-12 189.475

249.315 56.4127 -1.80952e-12
56.4127 354.817 -1.07055e-12
-1.80952e-12 -1.07055e-12 184.047

505.074 -28.9525 -2.52835e-13
-28.9525 478.675 -5.4167e-12
-2.52835e-13 -5.4167e-12 491.402

258.504 -49.1981 1.0895e-13
-49.1981 341.885 -1.75978e-12
1.0895e-13 -1.75978e-12 220.764

249.32 -55.9553 2.69769e-12
-55.9553 344.791 -1.82846e-12
2.69769e-12 -1.82846e-12 181.139

434.717 26.2247 -2.25716e-12
26.2247 454.459 -3.14415e-12
-2.25716e-12 -3.14415e-12 432.886

329.962 73.8516 9.00021e-13
73.8516 280.041 -9.71075e-14
9.00021e-13 -9.71075e-14 184.851

540.168 13.0457 6.54884e-13
13.0457 554.994 8.16236e-13
6.54884e-13 8.16236e-13 532.127

562.428 0.0427928 1.45173e-12
0.0427928 532.498 3.00708e-12
1.45173e-12 3.00708e-12 531.92

338.641 -73.1368 -4.87432e-12
-73.1368 279.888 -5.38591e-12
-4.87432e-12 -5.38591e-12 186.334

432.731 -23.4278 -1.96495e-12
-23.4278 466.377 3.27442e-12
-1.96495e-12 3.27442e-12 447.634

358.98 34.7349 -7.06043e-12
34.7349 311.016 -2.66335e-12
-7.06043e-12 -2.66335e-12 258.074

267.735 63.4979 -1.24819e-12
63.4979 345.249 -8.62125e-13
-1.24819e-12 -8.62125e-13 185.869

293.73 21.6338 -7.88702e-13
21.6338 367.711 -2.1861e-12
-7.88702e-13 -2.1861e-12 254.533

267.607 -65.927 -1.77873e-12
-65.927 344.884 2.77585e-12
-1.77873e-12 2.77585e-12 184.325

291.677 -12.383 -3.44613e-12
-12.383 370.933 1.8782e-12
-3.44613e-12 1.8782e-12 253.478

550.343 6.83843 1.08469e-12
6.83843 582.115 1.60375e-12
1.08469e-12 1.60375e-12 541.163

329.934 -45.9829 -1.65793e-12
-45.9829 341.862 -2.67993e-12
-1.65793e-12 -2.67993e-12 276.654

259.814 47.5393 -7.21201e-13
47.5393 340.261 4.37694e-12
-7.21201e-13 4.37694e-12 223.176

370.258 37.916 -2.7048e-12
37.916 244.948 3.48403e-12
-2.7048e-12 3.48403e-12 187.381

481.954 -29.2892 -3.76292e-12
-29.2892 460.574 -9.29923e-13
-3.76292e-12 -9.29923e-13 467.775

481.031 12.896 -2.5846e-12
12.896 525.888 -1.01015e-12
-2.5846e-12 -1.01015e-12 504.161

354.466 -38.1186 -2.16479e-12
-38.1186 300.116 -1.75504e-12
-2.16479e-12 -1.75504e-12 251.85

482.598 -28.8052 -1.94215e-13
-28.8052 460.381 5.07594e-12
-1.94215e-13 5.07594e-12 468.523

365.305 -36.3477 -2.72848e-12
-36.3477 231.015 -3.47633e-12
-2.72848e-12 -3.47633e-12 182.794

481.565 -28.3206 -8.53243e-13
-28.3206 472.816 -5.28111e-12
-8.53243e-13 -5.28111e-12 477.979

436.415 -25.299 1.79856e-12
-25.299 466.291 1.32279e-12
1.79856e-12 1.32279e-12 448.272

314.833 69.4679 3.68535e-12
69.4679 292.175 -1.77399e-12
3.68535e-12 -1.77399e-12 184.548

290.819 -22.9365 6.35107e-12
-22.9365 359.213 1.89952e-12
6.35107e-12 1.89952e-12 247.063

312.435 -71.7001 2.74269e-12
-71.7001 288.155 3.59061e-12
2.74269e-12 3.59061e-12 182.05

268.579 50.7449 -4.04417e-12
50.7449 320.101 -6.15804e-14
-4.04417e-12 -6.15804e-14 221.535

459.925 -30.2164 4.33609e-12
-30.2164 454.908 1.72188e-12
4.33609e-12 1.72188e-12 454.462

559.33 -14.6413 4.718e-12
-14.6413 544.452 1.46875e-12
4.718e-12 1.46875e-12 533.765

635.931 11.0895 -5.42921e-12
11.0895 631.398 1.08935e-12
-5.42921e-12 1.08935e-12 570.054

619.974 -5.16058 4.17577e-12
-5.16058 639.747 1.09538e-11
4.17577e-12 1.09538e-11 568.533

453.928 13.0841 2.06681e-12
13.0841 506.619 -1.44477e-13
2.06681e-12 -1.44477e-13 482.632

634.161 -10.6638 -1.53795e-12
-10.6638 631.329 -3.15155e-13
-1.53795e-12 -3.15155e-13 569.91

622.712 4.09263 -6.32339e-12
4.09263 642.692 -9.56642e-14
-6.32339e-12 -9.56642e-14 569.734

643.385 7.42993 -3.62954e-12
7.42993 619.163 -3.77979e-12
-3.62954e-12 -3.77979e-12 569.057

584.8 -12.1112 -2.71709e-13
-12.1112 631.683 3.13823e-12
-2.71709e-13 3.13823e-12 560.631

307.484 -30.4757 -8.36072e-13
-30.4757 371.685 3.65456e-12
-8.36072e-13 3.65456e-12 280.809

589.656 -12.9721 -1.93297e-12
-12.9721 549.15 3.36708e-12
-1.93297e-12 3.36708e-12 543.871

527.257 -34.4153 2.7572e-12
-34.4153 521.534 -1.20496e-12
2.7572e-12 -1.20496e-12 520.018

565.503 -18.1779 1.40924e-12
-18.1779 538.033 -5.81846e-12
1.40924e-12 -5.81846e-12 534.306

502.633 15.4612 1.86932e-12
15.4612 452.175 6.59917e-13
1.86932e-12 6.59917e-13 480.267

586.372 9.86149 -4.64051e-12
9.86149 642.146 -2.3325e-12
-4.64051e-12 -2.3325e-12 563.141

636.669 19.2238 -7.13711e-12
19.2238 591.745 1.20485e-12
-7.13711e-12 1.20485e-12 562.962

569.814 11.3093 -3.53199e-12
11.3093 544.381 2.05465e-12
-3.53199e-12 2.05465e-12 536.483

353.489 -15.3423 -8.3844e-13
-15.3423 231.544 -6.35048e-12
-8.3844e-13 -6.35048e-12 219.044

437.268 24.9683 2.01676e-12
24.9683 461.979 -5.6423e-12
2.01676e-12 -5.6423e-12 445.784

317.13 -61.364 -4.87906e-12
-61.364 277.884 -8.14756e-13
-4.87906e-12 -8.14756e-13 218.118

334.251 -57.4652 7.34227e-14
-57.4652 357.369 -4.42905e-12
7.34227e-14 -4.42905e-12 252.574

383.384 -36.5495 1.93741e-12
-36.5495 305.778 -5.52447e-12
1.93741e-12 -5.52447e-12 257.795

562.53 -5.15853 -3.76336e-12
-5.15853 616.972 -6.10386e-12
-3.76336e-12 -6.10386e-12 552.991

562.237 2.89147 -1.57193e-12
2.89147 615.837 3.1702e-12
-1.57193e-12 3.1702e-12 552.59

598.794 -24.4509 1.28194e-12
-24.4509 575.774 2.59444e-12
1.28194e-12 2.59444e-12 551.62

602.354 -21.7547 4.74365e-12
-21.7547 573.463 -1.32427e-12
4.74365e-12 -1.32427e-12 551.886

598.807 26.13 -5.06795e-12
26.13 580.488 -7.35434e-12
-5.06795e-12 -7.35434e-12 552.775

625.757 3.09563 1.33819e-13
3.09563 630.747 1.30047e-11
1.33819e-13 1.30047e-11 568.456

599.084 -20.5047 1.9007e-13
-20.5047 576.385 1.80293e-12
1.9007e-13 1.80293e-12 552.309

607.831 -18.5651 -2.59555e-12
-18.5651 620.276 6.1221e-12
-2.59555e-12 6.1221e-12 563.223

632.914 2.43169 2.47091e-12
2.43169 635.536 -8.04364e-12
2.47091e-12 -8.04364e-12 570.54

607.909 -20.5213 3.96172e-12
-20.5213 572.457 2.05021e-12
3.96172e-12 2.05021e-12 553.447

607.095 20.9507 6.54958e-13
20.9507 573.715 5.72253e-12
6.54958e-13 5.72253e-12 553.85

633.865 -3.4555 1.43496e-11
-3.4555 636.787 -2.09672e-11
1.43496e-11 -2.09672e-11 571.314

632.195 -3.11295 1.23794e-11
-3.11295 625.771 1.37118e-11
1.23794e-11 1.37118e-11 569.43

609.703 12.1091 2.00891e-12
12.1091 620.499 -1.28815e-11
2.00891e-12 -1.28815e-11 563.954

587.231 26.9249 -3.41327e-12
26.9249 583.045 1.54934e-12
-3.41327e-12 1.54934e-12 551.743

FIELD solute_concentration_TPM 2
S_ext 1 563 float
0.748588
0.748455
0.748467
0.748455
0.748446
0.748467
0.748588
0.748462
0.748477
0.748458
0.748559
0.748462
0.748464
0.748457
0.748448
0.748465
0.748454
0.748461
0.74848
0.748468
0.748473
0.748431
0.74847
0.748469
0.748469
0.748459
0.748551
0.748466
0.748512
0.748439
0.748464
0.748512
0.748555
0.748441
0.74844
0.748441
0.748436
0.748441
0.748465
0.748555
0.748512
0.748436
0.748435
0.748464
0.748536
0.748511
0.748478
0.748475
0.748467
0.748519
0.748515
0.748502
0.748445
0.748502
0.748445
0.74854
0.74844
0.748502
0.74844
0.748468
0.748453
0.74845
0.748548
0.748452
0.74845
0.748457
0.748453
0.748459
0.748469
0.748455
0.748445
0.748445
0.748513
0.748455
0.748467
0.748558
0.748449
0.748457
0.748459
0.748497
0.748525
0.748444
0.748452
0.748527
0.748512
0.748539
0.748466
0.748457
0.748536
0.748436
0.748502
0.748437
0.748448
0.748459
0.748501
0.748515
0.748526
0.748457
0.748449
0.748465
0.748489
0.74851
0.748527
0.748458
0.748459
0.748457
0.748452
0.748466
0.748527
0.748453
0.748468
0.748534
0.74853
0.74846
0.748458
0.748502
0.748442
0.748528
0.748443
0.748502
0.748483
0.748448
0.748455
0.748454
0.748454
0.748447
0.748443
0.748457
0.748527
0.748501
0.748444
0.748455
0.748451
0.748454
0.74851
0.74844
0.748534
0.748464
0.748452
0.74844
0.748508
0.748461
0.748483
0.748458
0.748528
0.748458
0.748462
0.748469
0.748467
0.748492
0.748476
0.748455
0.748511
0.748464
0.748457
0.748455
0.748457
0.748508
0.748507
0.748461
0.748475
0.748511
0.748536
0.748514
0.748507
0.748457
0.748507
0.748508
0.748512
0.748507
0.748448
0.748502
0.748515
0.748456
0.748502
0.748452
0.748448
0.748464
0.748445
0.74846
0.748513
0.748457
0.748457
0.748507
0.748456
0.748516
0.748454
0.748453
0.748449
0.748457
0.748456
0.748525
0.748501
0.748512
0.748455
0.74846
0.74846
0.748451
0.748455
0.748457
0.748455
0.748479
0.748496
0.748451
0.748513
0.748451
0.748458
0.748509
0.748451
0.748455
0.748452
0.748459
0.748459
0.748452
0.748491
0.748459
0.748495
0.748453
0.748453
0.748453
0.748452
0.748453
0.748453
0.748453
0.748459
0.748447
0.748448
0.748447
0.748448
0.748447
0.748447
0.748491
0.748457
0.748455
0.748476
0.748449
0.748449
0.748455
0.748496
0.748454
0.748457
0.748491
0.74845
0.748491
0.748452
0.748454
0.74849
0.748495
0.748526
0.74852
0.748451
0.74853
0.748464
0.748495
0.74848
0.748454
0.748453
0.748437
0.748453
0.748533
0.748495
0.748454
0.748462
0.748496
0.748453
0.748483
0.748437
0.748495
0.748453
0.748455
0.748459
0.748449
0.748458
0.748446
0.748463
0.748535
0.748539
0.748449
0.748471
0.748462
0.748493
0.748451
0.748456
0.748495
0.748458
0.748489
0.748463
0.748489
0.748495
0.748435
0.748447
0.748447
0.748447
0.748457
0.748488
0.748441
0.748455
0.748475
0.748488
0.748492
0.748447
0.74849
0.74845
0.748491
0.748536
0.748488
0.748529
0.748452
0.74849
0.748435
0.74849
0.748454
0.748491
0.748455
0.748491
0.748467
0.748554
0.748466
0.748491
0.748446
0.748491
0.748475
0.748456
0.748454
0.74849
0.748488
0.748483
0.748454
0.748488
0.748463
0.748466
0.748446
0.748489
0.748483
0.748474
0.748482
0.748489
0.748482
0.748453
0.748462
0.748483
0.748491
0.748461
0.748461
0.748489
0.748446
0.748564
0.748469
0.748526
0.748474
0.748608
0.748608
0.748607
0.748607
0.748605
0.748612
0.748612
0.748453
0.748444
0.748462
0.748475
0.748479
0.748482
0.748462
0.748483
0.748483
0.748445
0.748482
0.748452
0.748502
0.748448
0.748468
0.748475
0.748483
0.748449
0.748468
0.748474
0.748468
0.748474
0.748481
0.748498
0.748475
0.748469
0.74845
0.748479
0.748482
0.748479
0.748475
0.748469
0.748461
0.748479
0.748462
0.748468
0.748475
0.748462
0.748468
0.748482
0.748453
0.748474
0.748443
0.748536
0.748452
0.748453
0.748469
0.748474
0.748456
0.748564
0.748467
0.748474
0.748553
0.748437
0.748438
0.748467
0.74848
0.748473
0.748479
0.748434
0.748433
0.74846
0.748463
0.748463
0.748567
0.748481
0.748453
0.748476
0.748477
0.748475
0.748563
0.748456
0.74848
0.748468
0.748468
0.748477
0.748474
0.748477
0.748477
0.748554
0.748529
0.748474
0.748469
0.748473
0.748477
0.748474
0.748474
0.748474
0.748537
0.748449
0.748479
0.748456
0.748455
0.748538
0.748466
0.748467
0.748447
0.748433
0.748433
0.748448
0.748482
0.748469
0.748539
0.748434
0.74843
0.74843
0.748565
0.74844
0.748438
0.748469
0.748449
0.748462
0.748457
0.748453
0.748454
0.748464
0.748563
0.748466
0.748458
0.748454
0.748558
0.748439
0.748557
0.748452
0.748459
0.74849
0.748463
0.748464
0.748444
0.748461
0.748444
0.748466
0.748454
0.74844
0.748441
0.74854
0.748456
0.74859
0.74859
0.74859
0.748456
0.748568
0.748591
0.748477
0.748589
0.748444
0.748443
0.74859
0.74847
0.748556
0.748593
0.748555
0.748593
0.748555
0.748441
0.748544
0.748567
0.748588
0.748464
0.748451
0.748557
0.748464
0.748589
0.74846
0.748471
0.748594
0.748558
0.748594
0.748564
0.748468
0.748443
0.748429
0.74843
0.748458
0.74843
0.74843
0.74843
0.748434
0.748541
0.748439
0.748448
0.748445
0.74846
0.748434
0.748433
0.748444
0.748565
0.748471
0.74857
0.748561
0.748554
0.748434
0.748434
0.748434
0.748435
0.748433
0.748433
0.748438
0.748436
0.748434
0.748437
0.748436
0.748434
0.748432
0.748434
0.748437
P_ext 1 563 float
0.00976459
0.00976216
0.00976252
0.00976219
0.00976128
0.00976251
0.00976459
0.00976234
0.00976277
0.00976219
0.00976418
0.00976233
0.0097624
0.00976218
0.00976152
0.0097625
0.00976199
0.00976232
0.00976284
0.00976258
0.00976265
0.00975968
0.00976258
0.00976256
0.00976258
0.00976226
0.00976407
0.00976244
0.00976348
0.00976051
0.00976244
0.00976346
0.00976413
0.0097608
0.00976079
0.00976081
0.00976046
0.00976086
0.00976242
0.00976413
0.00976347
0.00976044
0.00976045
0.00976243
0.00976385
0.00976347
0.00976281
0.00976274
0.00976249
0.00976359
0.00976351
0.00976327
0.00976127
0.0097633
0.00976131
0.00976392
0.00976078
0.00976329
0.00976079
0.00976254
0.00976198
0.00976177
0.00976403
0.00976181
0.00976175
0.00976205
0.00976197
0.00976228
0.00976259
0.0097621
0.00976127
0.00976129
0.00976349
0.00976195
0.00976253
0.00976417
0.00976157
0.00976207
0.00976225
0.00976318
0.00976368
0.00976119
0.00976184
0.00976372
0.00976346
0.0097639
0.00976246
0.009762
0.00976385
0.00975979
0.00976329
0.00975979
0.0097615
0.00976207
0.00976329
0.00976352
0.0097637
0.00976221
0.00976158
0.00976244
0.00976303
0.00976343
0.0097637
0.00976228
0.00976222
0.00976224
0.0097618
0.00976246
0.00976372
0.00976201
0.00976253
0.00976382
0.00976375
0.0097623
0.00976226
0.00976331
0.00976079
0.00976373
0.00976079
0.00976329
0.0097629
0.00976157
0.00976212
0.00976196
0.00976197
0.0097615
0.0097609
0.0097622
0.00976371
0.00976326
0.00976121
0.00976216
0.00976186
0.00976214
0.00976344
0.00976073
0.00976383
0.00976239
0.00976182
0.00976074
0.0097634
0.00976223
0.00976289
0.00976219
0.00976374
0.00976225
0.00976225
0.0097625
0.00976252
0.00976307
0.0097627
0.00976211
0.00976345
0.00976242
0.0097622
0.00976215
0.00976214
0.00976341
0.00976339
0.00976239
0.00976273
0.00976344
0.00976385
0.0097635
0.00976337
0.00976224
0.0097634
0.00976341
0.00976347
0.00976338
0.00976147
0.00976329
0.00976352
0.00976212
0.00976329
0.00976182
0.00976149
0.0097623
0.00976131
0.00976223
0.0097635
0.00976222
0.00976221
0.00976339
0.00976201
0.00976354
0.00976197
0.00976185
0.00976148
0.00976222
0.009762
0.00976369
0.00976327
0.00976346
0.00976215
0.00976234
0.00976231
0.00976187
0.00976212
0.00976208
0.00976212
0.00976284
0.0097632
0.00976188
0.0097635
0.00976185
0.00976205
0.00976341
0.0097617
0.0097621
0.00976167
0.00976218
0.00976225
0.00976183
0.00976306
0.00976215
0.00976318
0.00976186
0.00976198
0.00976198
0.00976201
0.00976202
0.00976202
0.00976203
0.00976217
0.00976156
0.00976156
0.00976154
0.00976155
0.00976127
0.00976126
0.00976308
0.00976214
0.00976213
0.00976277
0.00976151
0.00976151
0.00976211
0.00976317
0.00976215
0.00976221
0.00976308
0.00976167
0.00976309
0.00976183
0.00976214
0.00976306
0.00976317
0.00976369
0.00976359
0.00976187
0.00976377
0.00976245
0.00976319
0.00976282
0.00976216
0.00976199
0.00976044
0.00976201
0.00976382
0.00976316
0.00976212
0.00976231
0.0097632
0.009762
0.00976288
0.00976045
0.00976317
0.00976197
0.00976199
0.00976232
0.00976152
0.00976201
0.0097613
0.0097624
0.00976383
0.0097639
0.0097614
0.00976264
0.00976232
0.0097631
0.00976165
0.00976213
0.00976316
0.00976209
0.00976303
0.00976224
0.00976305
0.00976317
0.00976011
0.00976144
0.00976149
0.0097615
0.00976219
0.00976304
0.00976085
0.00976202
0.0097627
0.00976302
0.00976311
0.00976142
0.00976308
0.00976149
0.00976309
0.00976385
0.00976301
0.00976375
0.00976182
0.00976306
0.00976009
0.00976308
0.00976188
0.00976309
0.00976194
0.00976307
0.00976249
0.00976411
0.00976252
0.00976309
0.00976138
0.00976307
0.00976267
0.00976198
0.00976213
0.00976307
0.00976304
0.00976288
0.00976184
0.00976302
0.00976232
0.00976247
0.00976133
0.00976304
0.00976291
0.00976266
0.0097629
0.00976306
0.00976288
0.00976171
0.00976233
0.00976291
0.00976306
0.00976225
0.00976224
0.00976302
0.00976134
0.00976425
0.00976248
0.00976369
0.00976264
0.00976486
0.00976487
0.00976484
0.00976484
0.00976481
0.00976492
0.00976492
0.0097618
0.00976097
0.00976233
0.00976268
0.00976283
0.0097629
0.00976225
0.00976289
0.00976291
0.00976096
0.00976288
0.00976168
0.00976328
0.0097616
0.00976249
0.00976272
0.00976291
0.0097614
0.00976251
0.0097627
0.00976249
0.00976268
0.00976289
0.0097632
0.00976269
0.00976253
0.00976168
0.00976281
0.0097629
0.00976284
0.00976272
0.00976253
0.00976224
0.00976283
0.00976226
0.00976252
0.00976271
0.00976231
0.00976253
0.00976287
0.00976195
0.00976268
0.00976105
0.00976386
0.00976184
0.00976171
0.00976252
0.0097627
0.00976206
0.00976426
0.0097625
0.0097627
0.0097641
0.00976016
0.00976015
0.00976246
0.00976285
0.00976267
0.00976283
0.00975951
0.00975951
0.00976228
0.00976232
0.00976232
0.00976431
0.00976287
0.00976189
0.00976277
0.00976279
0.00976273
0.00976425
0.00976196
0.00976286
0.00976251
0.0097625
0.00976278
0.00976271
0.00976277
0.00976276
0.00976411
0.00976374
0.00976269
0.00976249
0.00976269
0.0097628
0.00976271
0.00976266
0.00976268
0.00976388
0.00976158
0.00976282
0.00976208
0.00976196
0.00976388
0.0097625
0.00976253
0.0097613
0.0097601
0.00976011
0.00976138
0.0097629
0.00976249
0.0097639
0.00976018
0.00975962
0.00975963
0.00976427
0.00976084
0.00976051
0.00976254
0.00976154
0.00976238
0.00976215
0.00976192
0.00976187
0.00976232
0.00976425
0.00976249
0.0097621
0.00976191
0.00976419
0.00976068
0.00976417
0.00976191
0.0097622
0.00976305
0.00976243
0.00976234
0.00976118
0.0097623
0.0097612
0.00976252
0.00976193
0.00976057
0.00976056
0.00976392
0.0097621
0.00976462
0.00976462
0.00976462
0.00976201
0.00976432
0.00976463
0.0097628
0.0097646
0.00976115
0.00976117
0.00976461
0.00976263
0.00976415
0.00976466
0.00976414
0.00976467
0.00976414
0.00976081
0.00976397
0.00976431
0.00976459
0.00976237
0.00976177
0.00976417
0.00976235
0.00976459
0.00976223
0.00976262
0.00976467
0.00976418
0.00976467
0.00976426
0.00976254
0.00976103
0.00975965
0.00975969
0.00976215
0.00975963
0.00975964
0.00975967
0.00975997
0.00976394
0.00976065
0.00976139
0.00976098
0.00976218
0.0097599
0.00975991
0.00976097
0.00976426
0.00976266
0.00976435
0.00976422
0.00976412
0.00976023
0.00976024
0.00976029
0.00976028
0.00976024
0.0097597
0.0097603
0.00975986
0.00975963
0.00976021
0.00976021
0.00975963
0.00975971
0.00975987
0.00976029
FIELD solute_flux_TPM 2
S_ext 3 563 float
-4.09351e-05 1.36451e-05 -5.3623e-19
2.33043e-06 4.01766e-06 2.4752e-19
-7.14165e-06 -5.49956e-06 -8.09266e-20
-2.3688e-06 2.42129e-06 -1.7739e-19
1.4865e-05 -4.34889e-06 -1.47698e-18
1.42082e-06 -8.81014e-06 9.89859e-19
-4.03121e-05 -1.38114e-05 -1.38333e-19
-8.16391e-06 -5.71465e-06 1.84219e-18
1.19144e-05 5.68719e-07 3.21376e-19
6.58855e-06 -2.55769e-06 -3.39803e-19
2.74448e-05 6.37793e-06 -2.32874e-18
1.06197e-06 -9.91126e-06 1.9121e-18
7.9395e-06 6.07705e-06 3.26327e-19
1.86821e-06 8.02286e-06 -1.00868e-18
1.34787e-05 -2.12977e-06 -4.4155e-19
-8.91772e-06 -1.45289e-07 1.50048e-18
2.04703e-06 8.63175e-06 8.43694e-19
5.7215e-06 -1.45762e-06 -1.1787e-18
5.31198e-06 9.21644e-06 -2.49202e-19
-8.09793e-06 1.06358e-06 1.91332e-18
-1.75621e-06 -1.16682e-05 2.41556e-19
2.86113e-05 4.03882e-05 -3.58097e-19
8.63351e-06 9.16467e-07 1.6534e-18
6.30543e-06 -6.13899e-06 9.02789e-19
-8.2064e-06 -1.91001e-06 2.32862e-18
-1.30815e-07 -6.41235e-06 4.09957e-18
3.14754e-05 -2.43026e-06 3.1307e-19
8.10111e-06 5.73695e-06 8.2733e-19
-1.27413e-05 -1.04055e-05 3.29807e-18
3.22329e-05 -8.62523e-06 -4.52549e-18
-9.17262e-06 -3.67442e-06 -4.96792e-19
2.78419e-06 -1.63735e-05 -8.91495e-19
2.36048e-05 -2.40256e-05 5.48994e-19
-3.47302e-06 -2.73768e-05 7.62414e-19
-1.94923e-05 2.41173e-05 1.69572e-19
-2.54471e-05 -1.06668e-05 -9.52074e-19
2.14677e-05 2.79756e-05 -2.44275e-18
-2.93157e-05 -5.84583e-06 1.37166e-18
8.37166e-06 -5.99619e-06 3.66408e-18
2.30689e-05 2.50345e-05 -4.69435e-19
1.64874e-05 -7.14787e-06 7.16066e-19
2.18626e-05 -2.69353e-05 -3.30852e-18
-1.2403e-05 -3.23766e-05 -1.39753e-18
-8.73537e-06 3.84335e-06 -3.35235e-19
1.52558e-05 -1.49046e-05 1.02445e-18
-1.53074e-05 5.42388e-06 -7.26071e-19
-2.14621e-06 -1.08954e-05 -1.32452e-18
4.18875e-06 1.08492e-05 -8.27043e-19
-9.13612e-06 3.4682e-06 9.97023e-19
-9.12627e-06 1.4395e-05 7.23188e-19
1.66109e-05 7.73952e-06 4.7823e-19
1.51735e-05 -5.33825e-06 3.16381e-19
-1.02793e-05 1.01376e-05 3.34929e-19
-1.20503e-05 -1.03792e-05 4.14738e-18
-1.36988e-05 -3.46856e-06 1.4435e-18
-2.20917e-05 1.32115e-05 -3.96241e-19
-1.93025e-05 -2.48285e-05 -7.14905e-19
3.11813e-06 -1.57172e-05 -2.52491e-18
-3.11637e-05 4.34516e-06 -1.91029e-18
3.27336e-06 7.56549e-06 -2.49411e-18
-3.27182e-06 -5.28606e-06 -4.26991e-19
-3.90367e-06 -1.14757e-05 1.948e-18
2.84547e-05 1.23621e-05 -9.47939e-19
6.15573e-06 1.11812e-05 -3.38941e-19
8.04434e-06 -9.01184e-06 -1.02369e-18
-1.31594e-06 -1.2523e-05 -2.12004e-18
3.15465e-06 -5.42588e-06 -9.31444e-19
-5.66227e-06 -3.41707e-06 1.25812e-18
-5.88789e-06 6.4363e-06 -1.42307e-18
1.40198e-06 -2.66608e-06 -1.17728e-18
-9.85049e-06 -1.01913e-05 1.17867e-18
-1.3822e-05 3.48138e-06 -3.00081e-18
-1.975e-06 1.73996e-05 -2.42312e-19
-1.08145e-05 6.56409e-06 -1.104e-18
-5.02964e-06 7.92238e-06 -8.41314e-19
-2.934e-05 3.71037e-06 -8.59037e-19
5.22293e-06 -1.3579e-05 4.21994e-19
-1.15436e-05 -5.04479e-06 2.35742e-18
8.91355e-07 6.72782e-06 -1.25424e-18
1.37723e-05 2.6174e-06 1.86804e-18
1.72629e-05 -1.46245e-05 6.3531e-19
1.46133e-05 1.32402e-05 1.54043e-18
7.63052e-06 -2.0464e-06 -1.9589e-18
-1.60708e-05 1.17479e-05 1.59181e-18
1.93168e-05 2.51145e-06 -1.13072e-18
-2.74876e-06 2.44571e-05 -2.60721e-18
-8.6482e-07 -9.52907e-06 -5.06035e-19
1.10604e-05 5.84555e-06 -1.52882e-18
1.46716e-05 1.53349e-05 -1.10608e-18
4.24593e-05 2.64074e-05 -3.78789e-18
-2.70146e-06 1.57921e-05 4.04765e-19
4.43607e-05 -2.49302e-05 -1.15378e-18
-1.74813e-05 3.1336e-06 4.18047e-19
1.0783e-05 6.8914e-06 -2.03272e-18
-1.50573e-05 5.10433e-06 2.35428e-18
8.43047e-06 1.45786e-05 1.12386e-18
4.95378e-06 -2.21863e-05 -1.11717e-18
9.30077e-07 6.73144e-06 -1.59134e-18
-9.08816e-06 -1.12782e-05 1.19331e-18
1.4872e-06 9.79357e-06 -2.33847e-18
1.38965e-05 2.8785e-06 3.27362e-18
-7.80806e-06 1.67356e-05 1.05313e-18
2.04606e-05 -6.85991e-06 2.54685e-18
-2.15933e-06 4.11782e-06 5.72815e-19
5.97639e-06 3.20651e-06 2.84179e-18
-1.09375e-06 -6.52714e-06 1.5903e-18
2.30938e-06 -1.2056e-05 -4.29269e-19
9.74957e-06 2.35818e-06 -1.8445e-18
-4.06599e-06 2.05674e-05 4.75422e-19
-6.21462e-06 -5.80284e-08 -3.04195e-18
5.26708e-06 6.48426e-06 2.16109e-18
-1.32114e-06 -2.09267e-05 -1.19656e-18
2.11924e-05 6.64131e-06 -1.58872e-18
2.52254e-06 -4.12407e-06 1.40984e-18
-6.2862e-06 -2.22461e-06 -3.35098e-19
-1.48467e-05 -6.4102e-06 1.70557e-18
1.04408e-05 2.75488e-05 -1.30346e-18
-2.13749e-05 -7.65631e-06 2.24259e-18
1.05864e-05 -2.76233e-05 -1.48237e-18
-1.83468e-06 -1.63494e-05 -5.91324e-21
1.16767e-05 2.93555e-07 1.55197e-18
-4.51869e-06 1.20236e-05 4.27929e-19
-1.11258e-06 2.29951e-06 -1.17462e-18
-2.63081e-06 -1.01211e-05 -9.4181e-19
3.1778e-06 -5.46455e-06 -3.36745e-18
6.204e-06 1.01686e-05 1.01979e-18
2.20691e-05 7.32919e-06 1.5028e-19
5.25902e-06 -4.12326e-06 -1.35753e-18
-4.19301e-06 -2.24542e-05 1.58963e-19
1.32743e-05 -9.67924e-06 -1.30546e-18
3.29394e-06 1.80101e-05 2.13506e-18
-1.54027e-06 -1.81867e-06 9.21886e-19
-5.61378e-06 -5.15889e-06 6.57752e-19
-2.91256e-06 2.26834e-07 2.49094e-19
-1.15882e-05 1.42592e-05 2.26312e-18
1.29226e-05 -2.46872e-05 -2.69733e-18
-1.32752e-05 2.10225e-05 -8.43294e-20
-9.14178e-06 5.50908e-06 -1.7327e-19
1.45311e-06 7.93996e-06 2.85965e-18
-1.48928e-05 -2.35124e-05 -2.73175e-21
7.01614e-06 1.70298e-05 -1.6541e-19
1.0494e-05 5.10932e-06 -9.30173e-19
1.22184e-05 -4.74182e-06 1.96981e-18
-9.77687e-07 -6.54886e-06 -1.27094e-18
-1.67974e-05 -1.54392e-05 2.31955e-18
-1.31175e-06 6.57182e-06 3.32338e-19
1.01834e-05 6.07711e-06 3.26478e-19
1.0639e-05 -5.25026e-06 -2.4242e-18
4.672e-06 -7.8081e-06 -3.48334e-19
1.28604e-05 -5.64819e-06 -3.32705e-19
1.0448e-05 -4.95045e-06 -1.91157e-18
2.93083e-06 3.65346e-07 -1.43975e-18
1.31527e-05 1.0415e-05 2.38101e-19
-1.24088e-06 -9.58645e-06 1.83691e-18
-6.2386e-06 -2.32735e-06 -1.00958e-18
8.57727e-07 -2.26777e-06 5.84949e-19
-2.24978e-06 9.3242e-06 -1.51417e-18
-1.74797e-05 1.41506e-06 -4.86508e-19
-6.12711e-06 -1.67903e-05 -2.45542e-19
-4.40238e-06 5.38905e-06 -2.59739e-19
7.39177e-06 8.86498e-06 7.6953e-20
1.35811e-05 -9.69975e-06 -1.37924e-18
-1.83047e-05 -9.9638e-06 1.42923e-18
8.82669e-06 -1.40939e-05 6.43426e-19
1.16747e-05 -1.38822e-05 -1.70683e-18
-6.20663e-06 2.41582e-06 3.38021e-19
-1.00557e-05 -1.44516e-05 7.23468e-19
-1.74548e-05 -2.9491e-06 1.13409e-18
-2.11412e-06 -1.61054e-05 8.02841e-19
7.80157e-06 -1.61544e-05 1.37086e-18
-6.10692e-06 -1.67389e-05 -2.7077e-19
2.2166e-06 1.61049e-05 6.46574e-19
-8.07602e-06 -1.43562e-05 2.16362e-18
2.19134e-06 -9.71517e-06 -8.46803e-19
-1.26797e-05 9.16409e-06 -1.79285e-18
-9.24889e-06 -7.79282e-06 1.68896e-18
-1.75994e-05 -3.02238e-06 -1.11277e-18
9.06414e-06 -5.41837e-06 7.49834e-19
-2.65781e-06 1.56046e-05 1.72145e-19
7.46951e-06 -5.25474e-06 4.04621e-19
-1.49455e-05 -6.52673e-06 3.30033e-18
-5.25842e-06 -4.11308e-06 2.85068e-18
5.47769e-06 4.14424e-06 3.68469e-18
1.09663e-05 1.46153e-05 -8.40009e-20
-1.04093e-05 -6.6157e-06 2.61292e-18
-1.63288e-05 -4.0207e-07 1.60294e-18
-1.01934e-05 -2.70004e-06 1.09215e-18
-2.99119e-06 -1.01323e-05 -1.87478e-18
1.12719e-05 1.39843e-05 -4.37911e-19
-6.55702e-06 3.14675e-06 1.24578e-18
5.5906e-07 -1.23557e-05 1.57371e-19
-2.07426e-05 5.3792e-06 8.83266e-19
1.29161e-05 1.0377e-05 -3.2759e-19
1.90809e-06 1.67298e-05 -9.63808e-19
-1.30966e-06 2.42268e-06 -8.17934e-20
-4.99071e-06 1.36983e-07 6.71332e-19
2.47946e-06 4.28759e-06 -4.01651e-21
-7.3999e-06 2.36137e-06 4.18484e-19
-1.38077e-06 -2.18758e-06 -1.86024e-18
1.30026e-06 1.24204e-05 -1.60478e-18
2.80946e-06 3.99891e-08 -2.10246e-18
-1.03865e-05 2.55468e-06 1.89795e-18
-8.98458e-06 9.95847e-06 2.1123e-18
-1.77925e-06 7.42943e-06 5.11791e-19
-1.47394e-05 9.26425e-06 -1.6577e-19
-6.08783e-06 5.56175e-06 -1.60587e-18
1.03897e-05 -7.39624e-06 2.01588e-18
1.86968e-05 -1.89623e-06 7.9444e-20
-1.33325e-05 7.01069e-06 -3.99072e-18
1.20418e-06 2.87103e-06 2.00334e-18
1.39262e-05 -2.40518e-06 -4.18064e-18
-1.01566e-05 6.42959e-06 -2.18861e-18
-5.59629e-06 3.41601e-06 -2.17716e-18
7.66015e-06 2.65437e-06 9.13387e-19
1.15499e-05 -7.19459e-06 1.13742e-18
-1.03174e-05 5.78999e-06 9.19134e-19
-1.28995e-05 -2.71757e-06 2.68823e-18
-1.03339e-05 -2.47153e-06 -2.14375e-21
6.39964e-06 2.33442e-07 2.25329e-18
6.53403e-06 -1.26656e-07 -8.48021e-19
2.98803e-06 5.15235e-06 4.99126e-19
3.24188e-06 -5.42596e-06 -2.54591e-19
-2.98876e-06 5.43375e-06 1.93638e-18
-3.1096e-06 -5.54516e-06 -3.40091e-19
5.71128e-06 -4.64066e-06 -1.76336e-18
-1.3174e-05 2.24862e-06 4.21082e-19
-1.30229e-05 -2.28813e-06 8.34284e-19
-8.44691e-06 1.02258e-05 -8.95502e-20
-8.48849e-06 -1.02597e-05 9.10215e-19
4.78255e-06 -1.31444e-05 -8.61055e-19
4.60816e-06 1.30402e-05 -5.25916e-19
8.47144e-07 1.35702e-05 -2.45736e-18
6.86239e-06 -1.48047e-06 -7.7237e-19
1.47238e-06 -2.24152e-06 -1.60421e-18
-1.13325e-05 8.37322e-07 2.07076e-18
4.91446e-06 -1.29355e-05 -2.30103e-18
4.65984e-06 1.29794e-05 2.62451e-18
2.83436e-06 -5.16243e-08 -7.6028e-19
4.65718e-06 1.2716e-05 1.05625e-18
-1.30589e-06 -2.35028e-06 -1.72086e-19
1.18006e-06 -6.58032e-06 -9.36511e-19
-1.17204e-05 -6.2396e-06 -8.1975e-19
-1.3509e-05 -7.16112e-06 3.36689e-19
-1.14027e-05 7.12155e-06 4.88481e-19
1.90248e-06 -8.02028e-06 -2.53824e-19
-9.3118e-07 1.94097e-06 -1.85319e-18
-4.04661e-07 -1.33907e-05 -6.58726e-19
-4.05676e-06 -1.26216e-05 6.50531e-19
1.65214e-05 1.52918e-05 -1.52182e-18
1.81354e-05 -9.1137e-07 1.60627e-19
-8.0539e-06 -2.52515e-06 -9.43863e-19
-1.14238e-05 -2.03895e-05 2.86974e-18
4.65454e-06 7.58608e-06 2.48392e-19
-1.29895e-05 1.53351e-06 -9.01793e-19
1.08451e-05 3.12457e-06 2.13472e-18
-2.64661e-06 -1.11635e-08 -1.25474e-18
-3.07946e-06 -5.22013e-06 1.32843e-18
-5.40633e-06 -2.56297e-05 1.02881e-18
-6.1429e-06 1.43221e-07 -1.7101e-19
-2.3764e-05 -8.89374e-07 -1.58672e-19
9.04758e-06 -1.00128e-05 1.52243e-19
1.49866e-06 2.3201e-06 -2.00994e-18
-1.55112e-07 -1.00695e-05 9.08312e-19
-5.14506e-06 1.24011e-05 8.09972e-19
-2.91729e-06 5.34348e-06 -1.8494e-18
1.11187e-05 -7.21453e-06 2.37561e-19
-2.48986e-05 -8.11094e-06 -3.48118e-18
-7.92e-06 -1.04955e-05 1.95659e-18
3.04232e-06 5.47758e-06 1.75106e-18
1.04434e-05 2.70378e-06 -9.58234e-20
-2.64724e-06 -4.04002e-06 9.2139e-19
1.30291e-05 2.52136e-06 6.41697e-20
1.11552e-05 -5.82601e-06 1.33857e-18
-1.89986e-07 1.74183e-05 7.69925e-19
4.69156e-06 -7.58194e-06 -1.43198e-18
2.45458e-05 9.92259e-07 -3.23242e-19
-2.08716e-05 5.41278e-06 -1.58283e-18
1.48357e-05 7.30426e-06 3.30536e-19
-3.43922e-06 -9.27511e-06 1.16497e-18
-8.85498e-06 -4.83855e-06 9.19849e-19
1.50177e-05 -1.17355e-07 3.10551e-18
-5.127e-07 -1.53219e-05 -1.2811e-18
-7.27481e-06 -6.82162e-06 -5.90911e-19
5.32509e-06 -1.22576e-05 2.52186e-18
-4.69769e-07 1.22528e-05 -5.05497e-19
4.03082e-06 1.36418e-05 -6.5524e-19
1.0167e-05 -5.89837e-06 2.16776e-18
-9.94747e-06 9.88694e-06 6.54097e-19
8.61232e-06 1.04615e-05 -2.03878e-18
-4.31369e-05 1.0261e-05 7.87446e-19
-6.75832e-06 1.665e-05 8.25781e-20
8.2694e-06 -9.83392e-06 6.73322e-19
-4.42371e-06 -1.20021e-05 7.62409e-19
-7.08698e-06 2.33341e-06 -1.01858e-18
-1.33754e-05 -3.76716e-06 -1.06895e-18
-4.47382e-06 2.56887e-05 -2.68219e-19
-7.3944e-06 7.62289e-06 -2.44301e-18
1.13395e-05 -2.65903e-06 1.15068e-18
-3.48519e-06 -1.34825e-05 -1.72765e-18
-7.70796e-06 1.22678e-05 1.63485e-18
-1.3847e-05 8.04051e-06 -3.49869e-21
-1.06924e-05 -7.84612e-06 1.6374e-18
1.14972e-05 -1.36667e-05 2.48404e-19
-1.41254e-05 -7.63794e-07 2.4545e-18
6.05549e-06 -2.05743e-05 -1.4271e-18
1.03071e-05 -9.86175e-06 -1.8176e-18
1.23204e-05 2.15866e-05 2.31682e-18
1.32711e-06 1.23285e-05 -2.57378e-19
1.58151e-06 -1.33296e-05 -3.44676e-18
-2.8023e-05 3.29682e-05 -1.74811e-18
-6.55828e-06 -1.25835e-05 2.78693e-18
1.04122e-05 -3.76361e-06 -1.53689e-18
-1.33931e-06 1.3425e-05 2.42354e-19
7.78954e-06 -7.73985e-06 -2.51843e-19
7.2304e-06 1.2632e-05 1.88107e-18
9.54829e-06 -9.21123e-07 7.44435e-19
1.0683e-05 -3.12129e-05 -7.16673e-19
-3.14294e-06 -7.07221e-06 1.24989e-18
-1.20796e-05 5.17184e-06 2.20952e-18
-1.28691e-05 1.22102e-05 -2.30359e-18
1.13711e-05 7.71196e-06 -2.61916e-18
1.0319e-05 -6.02584e-06 -4.25984e-19
8.87376e-06 7.9344e-06 -1.4477e-18
-3.39304e-06 -1.88313e-07 -5.18048e-19
8.05723e-06 -1.20082e-05 -8.69803e-20
-8.90694e-06 -1.04862e-05 2.13297e-18
1.20794e-05 5.35678e-06 -1.73387e-18
7.84835e-06 -7.60064e-06 -2.28703e-18
4.90856e-06 -1.30265e-05 5.6797e-19
9.52312e-06 -4.37472e-06 -2.09588e-18
-8.84439e-06 -4.32466e-06 1.67172e-18
9.41159e-07 -1.67949e-05 -2.66772e-18
-1.34885e-05 2.42649e-06 -7.39959e-19
1.13915e-06 1.30542e-05 -2.3082e-18
1.12667e-05 3.84451e-06 1.06654e-18
-1.14612e-05 -5.76334e-06 -2.06225e-18
-4.59409e-06 1.33272e-05 -9.04858e-19
-6.9795e-07 -1.29035e-05 1.15275e-18
1.22521e-05 7.52906e-06 -3.40569e-18
-6.48114e-07 1.04734e-05 -6.80134e-21
-1.07458e-05 7.12652e-06 -1.65167e-18
1.24574e-05 5.96731e-06 2.04126e-18
-9.8019e-06 -6.13535e-06 2.26532e-18
4.32056e-07 -1.16065e-05 -5.11389e-19
9.74755e-06 1.04001e-05 -1.48012e-18
-1.40673e-05 -9.19743e-06 -2.05699e-18
2.41098e-05 -1.7224e-05 1.46516e-18
1.02567e-05 -6.017e-06 -2.57841e-19
4.34308e-06 2.15884e-05 -8.83995e-19
9.56365e-06 -7.35908e-06 1.47888e-18
-1.10965e-05 4.29725e-05 -4.30563e-18
-1.1152e-05 -4.25669e-05 2.52143e-18
2.80008e-05 3.6537e-05 6.60774e-19
2.76675e-05 -3.65282e-05 1.70561e-18
4.56818e-05 -2.39834e-08 1.77654e-18
-3.92874e-05 1.59548e-05 -2.43989e-18
-3.86544e-05 -1.61191e-05 2.2389e-19
7.55943e-06 7.55738e-06 -3.51105e-19
1.93706e-05 1.45234e-05 -2.42195e-18
6.44475e-06 2.05075e-06 -1.26247e-18
1.04495e-05 5.33613e-06 1.53856e-19
2.64831e-06 1.08474e-05 -3.26081e-19
-1.00884e-05 -7.79769e-06 -7.98205e-20
1.02786e-05 -5.73754e-06 3.21551e-19
1.07603e-05 7.6836e-06 -2.63925e-18
-1.55959e-06 1.29683e-05 5.72834e-19
1.94791e-05 -1.33234e-05 -1.65243e-18
1.87602e-06 -1.26871e-05 -1.24073e-18
1.39879e-05 2.91982e-06 1.26186e-18
1.54125e-05 5.80837e-06 -1.38799e-18
9.33573e-06 9.06249e-06 -2.12748e-18
8.89657e-06 3.82361e-06 -1.67293e-18
-1.00633e-05 5.99862e-06 -1.57741e-18
-1.18976e-05 4.90845e-06 2.39098e-18
1.48884e-05 -7.15571e-06 3.27469e-19
-1.01527e-05 -5.71439e-06 9.97013e-19
-1.01628e-05 -5.70282e-06 6.61606e-19
-4.71843e-08 -1.16747e-05 1.91182e-18
-1.06432e-07 -1.16093e-05 -4.18869e-19
-1.06229e-05 -5.50861e-07 1.72963e-18
1.39664e-05 -2.10587e-06 9.70638e-19
9.98417e-06 6.27786e-06 -3.33145e-19
-1.00662e-05 5.98555e-06 1.41262e-18
-9.38267e-06 1.06466e-05 -2.54693e-18
8.72105e-06 -7.44039e-06 -3.40131e-19
-5.8728e-06 9.20075e-06 -1.07478e-18
-7.59519e-06 -7.88163e-06 2.50909e-19
-6.48267e-07 1.15177e-05 -2.98712e-18
-4.92697e-07 1.17732e-05 -5.02754e-19
-2.40211e-08 -1.16047e-05 -9.32973e-20
3.26414e-06 -1.05729e-05 -1.41026e-18
-1.00357e-05 -5.69875e-06 4.44274e-18
8.6486e-06 -3.1788e-06 -3.33121e-18
4.14055e-07 1.17443e-05 -4.1396e-18
2.21124e-07 1.06501e-05 2.47479e-19
-1.19275e-06 9.34032e-06 -3.25484e-21
1.1705e-05 -2.9796e-06 1.55705e-18
-1.03804e-05 2.94258e-06 -1.36215e-18
2.06505e-06 1.17555e-05 -2.8976e-18
-2.13391e-05 8.27896e-06 2.83903e-18
4.76333e-06 2.10143e-05 3.94469e-19
-1.05832e-05 2.60854e-06 -2.54726e-18
1.24851e-05 -7.43859e-06 8.36496e-19
3.67695e-07 1.17927e-05 -5.07851e-18
-1.0975e-05 3.81272e-06 1.40901e-18
1.69063e-06 -9.68261e-06 5.8371e-19
5.02013e-07 -2.88601e-05 -9.42039e-19
1.03087e-06 9.80745e-06 -9.15107e-19
-9.35142e-06 7.41608e-06 7.53836e-20
8.6189e-06 3.16206e-05 5.55141e-19
3.13834e-05 2.605e-05 -2.80743e-18
3.6013e-05 -2.46356e-05 -2.11108e-18
8.51684e-06 -5.7114e-06 5.70113e-19
-8.47317e-06 7.44622e-06 2.40115e-19
-1.09023e-05 -4.50509e-06 1.66634e-18
-1.04827e-05 -3.65716e-06 -9.87558e-19
4.44599e-05 -1.22309e-05 -1.81399e-19
4.53367e-05 9.53975e-06 -7.72482e-18
6.15122e-06 2.30376e-06 1.58559e-19
1.29743e-07 1.1306e-05 -4.27109e-18
8.86514e-08 1.13064e-05 -2.25906e-18
-2.39999e-05 -1.7604e-05 1.70437e-18
6.14063e-06 -9.15803e-06 1.80198e-18
7.14121e-06 8.10424e-06 2.35288e-18
-1.13512e-05 -1.94362e-06 1.49408e-18
-7.58292e-06 9.03005e-06 -2.53191e-19
-1.02473e-05 4.9572e-06 3.3939e-18
2.38158e-05 1.70728e-05 -3.86385e-18
9.8023e-06 4.17999e-06 -3.04877e-18
-2.96489e-06 1.06507e-05 1.47945e-18
-9.6646e-06 -6.37937e-06 2.58386e-18
8.2654e-07 -1.1587e-05 1.24021e-18
-4.67266e-06 -1.03163e-05 1.73608e-18
-9.36852e-06 -6.36514e-06 9.10583e-19
5.65354e-06 -1.01303e-05 7.21535e-20
7.77355e-06 -9.02539e-06 -2.4935e-18
-1.44682e-06 -3.0225e-05 -1.9649e-18
1.30363e-05 -2.06251e-05 1.52108e-19
9.5295e-07 -1.13344e-05 -1.41425e-18
1.02881e-05 6.23444e-06 -8.99462e-20
-8.01207e-06 -7.89063e-06 -3.2818e-19
-5.18345e-06 1.04677e-05 -4.17821e-19
-2.53149e-06 1.14125e-05 2.4541e-19
9.29968e-06 7.59727e-06 -1.66325e-18
3.12559e-06 -1.0864e-05 9.86298e-19
-6.97715e-06 -2.00062e-05 4.68757e-19
-1.40617e-06 1.58572e-05 2.03997e-18
8.0311e-06 7.76514e-06 4.90128e-19
-7.56832e-06 -6.25422e-06 1.51462e-18
-8.13923e-06 6.55969e-06 -5.9376e-19
2.23672e-05 -9.55724e-06 -8.64629e-20
4.13864e-06 -7.39402e-06 -5.95691e-19
-4.65658e-06 -6.83748e-06 8.46844e-20
1.40414e-05 4.4014e-06 -1.81795e-18
8.79163e-06 -3.1702e-05 -1.06081e-18
-2.30654e-05 -2.34406e-05 -1.40474e-18
1.52695e-05 3.85641e-06 -2.4945e-18
-4.94608e-06 -9.65269e-06 9.06732e-19
1.05587e-05 5.55994e-06 -7.88507e-21
-1.43757e-05 -1.60107e-05 3.55505e-18
7.12432e-06 3.22102e-05 -3.05782e-18
3.1329e-05 -4.05052e-05 -1.14758e-18
-1.94174e-05 -4.73716e-05 -2.48704e-18
1.34784e-05 -2.62664e-05 -3.83439e-19
-8.24486e-06 2.86989e-05 2.16487e-18
-4.75585e-06 2.53508e-05 9.52544e-19
-1.0408e-05 5.20331e-06 9.13851e-19
4.06578e-06 1.53041e-05 5.92636e-19
-1.18011e-06 7.07678e-06 -1.59123e-18
5.90124e-06 2.1175e-06 2.17286e-18
-2.31282e-06 9.99621e-06 1.09601e-18
-1.12853e-07 1.28649e-05 -2.53708e-18
9.64003e-06 5.6707e-06 7.15812e-20
4.52736e-07 2.87232e-05 -1.78277e-18
-8.32728e-06 5.71381e-06 -1.01149e-18
9.64234e-06 -3.4438e-06 1.75148e-18
1.07653e-05 -2.42839e-06 -1.36896e-18
-2.94357e-05 -4.28784e-06 2.34564e-18
-2.26831e-05 1.08148e-05 2.85393e-18
-2.13363e-05 -2.53175e-05 1.65561e-18
5.60122e-06 5.16342e-06 -1.35192e-18
8.23806e-06 4.63362e-06 -1.26714e-18
1.40742e-05 -2.34942e-06 2.78042e-18
-4.48937e-06 -7.29589e-06 2.00822e-18
9.85634e-06 5.15908e-06 -8.46087e-19
4.87374e-06 -1.9544e-05 -1.37738e-18
-8.16435e-06 5.62425e-06 -1.31569e-20
-1.44855e-05 -1.39825e-05 1.97251e-18
-3.03218e-06 9.04079e-06 -2.00478e-18
-2.34018e-06 1.26376e-05 -2.70368e-18
2.2692e-05 1.40671e-05 -3.30222e-18
2.42103e-05 -1.28064e-05 4.20521e-19
-2.0749e-05 -5.56815e-06 2.13328e-18
4.36555e-06 4.86442e-06 2.00435e-18
-2.33288e-06 4.98865e-05 -1.00799e-18
4.43954e-08 -5.12391e-05 2.93464e-18
2.52652e-05 4.32359e-05 1.0741e-18
-1.17631e-05 4.8356e-06 -4.8177e-18
-1.36089e-05 2.75057e-05 -2.8577e-18
2.54242e-05 -4.17318e-05 2.06798e-18
-6.28675e-06 -9.63341e-06 1.49072e-18
3.86757e-05 3.35992e-05 -5.49421e-19
1.58118e-05 -1.16134e-05 -6.91375e-19
-2.16833e-06 -1.94834e-05 1.11329e-18
4.05174e-05 -3.28548e-05 5.34662e-19
-3.63974e-06 7.87725e-06 -1.74886e-18
-2.61266e-05 -1.65847e-05 4.62957e-18
-2.13589e-05 -4.46193e-05 1.15337e-18
-1.21336e-05 -2.84545e-05 1.09601e-18
-2.19586e-05 4.53465e-05 -5.38569e-18
-5.2027e-06 3.15889e-05 -2.10898e-18
1.07e-05 2.44744e-05 -2.17106e-18
-1.41099e-05 1.81207e-05 2.99202e-18
-1.30272e-05 -2.67899e-05 3.01493e-18
4.97247e-05 8.7408e-06 2.22974e-19
-9.85024e-06 5.91276e-06 8.26851e-19
-3.90011e-06 1.0062e-05 -1.01828e-18
-2.47885e-05 1.78234e-05 4.69395e-19
-9.91869e-06 5.74988e-06 -1.93167e-18
4.92361e-05 -7.79906e-06 4.57785e-19
-9.02506e-06 4.35913e-06 -1.77195e-18
3.96958e-06 -7.91854e-06 -7.57818e-19
-3.82049e-05 -2.91415e-05 3.23296e-18
-1.30724e-05 2.8459e-05 7.61088e-21
-3.91107e-05 2.89351e-05 -4.6873e-18
1.19326e-05 2.61687e-05 -1.08393e-18
-8.31006e-06 5.79124e-06 7.57254e-20
-1.31974e-05 1.6096e-05 -1.63244e-18
-2.41498e-05 3.03854e-05 1.8532e-18
-3.79009e-05 -4.86099e-06 -7.96934e-19
-7.37291e-07 9.63376e-06 -6.71591e-19
-2.55709e-05 -3.05131e-05 -2.74587e-18
-3.92247e-05 6.89651e-06 1.41774e-18
-1.49602e-05 3.46539e-05 3.62534e-18
-1.15118e-05 4.5992e-05 -1.75767e-18
-9.17187e-06 2.04336e-05 -1.81523e-18
-2.21549e-05 1.78682e-05 -8.19246e-20
1.60664e-05 -3.81405e-06 -1.63933e-18
2.53207e-05 -1.17826e-06 -1.22351e-18
7.91561e-06 5.03757e-06 -3.36601e-18
-8.08902e-06 -5.29535e-05 -3.57851e-19
-4.99151e-05 -1.94552e-05 -8.79892e-19
2.46471e-05 1.24497e-07 -3.38198e-18
2.93039e-05 -5.66133e-06 -3.88663e-19
-5.71622e-06 -7.25133e-06 7.48736e-19
-2.53549e-05 1.78742e-05 -3.09869e-19
-2.27269e-05 2.60688e-05 3.10531e-19
3.09766e-05 -1.11539e-05 -3.95403e-19
-1.86402e-05 -3.15335e-05 -2.63834e-18
-1.89701e-05 3.1285e-05 3.83245e-18
-3.67574e-05 -1.33068e-06 6.01376e-19
-1.66897e-05 3.2913e-05 4.62051e-18
-3.6654e-05 4.08193e-07 1.13179e-18
4.5733e-05 1.63568e-05 2.37659e-18
3.67914e-05 1.3932e-06 2.50313e-18
3.46625e-05 -1.77481e-05 -1.76654e-18
1.01679e-05 -4.87812e-05 -9.50116e-21
1.82624e-05 -3.18761e-05 1.12537e-18
1.81373e-05 3.18696e-05 -2.01064e-18
9.95853e-06 4.76665e-05 -2.12032e-18
4.99247e-05 -1.40844e-05 -4.51119e-18
3.19589e-05 1.58256e-05 -4.75987e-18
3.06243e-05 8.35436e-06 -3.05738e-18
P_ext 3 563 float
-5.21224e-07 1.76185e-07 2.6479e-20
4.65335e-10 1.92377e-08 7.79379e-21
-4.79023e-08 -4.50614e-08 1.42929e-20
-1.5153e-08 1.39818e-08 -2.88277e-20
1.31352e-08 2.74078e-10 -1.90088e-20
1.57754e-08 -6.3992e-08 1.1591e-20
-5.13184e-07 -1.78319e-07 -5.95957e-21
-3.75268e-08 -4.26055e-08 3.78992e-20
1.04537e-07 1.84677e-09 -6.56999e-23
3.81265e-08 -3.56285e-09 -6.60047e-21
3.3929e-07 7.95518e-08 3.54757e-21
1.86127e-08 -5.44232e-08 2.20765e-20
4.25992e-08 5.07493e-08 -1.83023e-20
-4.42076e-09 3.97137e-08 2.73789e-20
1.18769e-08 4.44658e-09 -6.86545e-21
-6.6791e-08 -1.09328e-09 2.68595e-21
-8.37711e-09 2.61469e-08 1.18663e-20
4.0257e-08 -6.06714e-09 -9.26363e-21
4.62717e-08 8.25315e-08 -4.36461e-20
-6.20559e-08 6.25405e-09 4.54123e-20
-2.33167e-08 -8.7896e-08 5.09448e-21
7.8567e-10 5.63825e-11 -1.79515e-20
6.87364e-08 5.59313e-09 3.1012e-20
4.37462e-08 -5.0529e-08 2.32066e-20
-6.33928e-08 -1.01989e-08 1.30914e-20
-1.19679e-08 -3.46628e-08 4.70783e-20
3.89984e-07 -3.19046e-08 1.583e-20
4.76487e-08 4.0191e-08 -2.72901e-20
-1.42598e-07 -1.13264e-07 4.90327e-20
8.32651e-09 1.58455e-09 -3.41586e-20
-6.36316e-08 -1.13083e-08 -6.47692e-21
2.78611e-08 -1.81348e-07 -1.89047e-20
2.93063e-07 -3.00137e-07 -9.8196e-21
6.07637e-10 -1.36817e-08 -1.62958e-20
-3.66829e-09 1.05188e-08 -1.75559e-20
-1.14263e-08 -7.51459e-09 2.00803e-20
1.4791e-09 7.56462e-09 -2.18808e-20
-1.15358e-08 1.97402e-09 5.28692e-21
4.60072e-08 -5.00743e-08 4.81126e-20
2.85975e-07 3.12786e-07 3.69493e-21
1.82545e-07 -8.27134e-08 -6.02257e-23
2.77343e-09 -6.93033e-09 -2.05279e-20
-4.57501e-09 -6.03609e-09 6.59475e-21
-6.32143e-08 1.29609e-08 7.76888e-21
1.81196e-07 -1.77947e-07 2.33726e-20
-1.68745e-07 6.07399e-08 7.49691e-21
-2.13051e-08 -9.29314e-08 3.07307e-20
3.8424e-08 9.33366e-08 -2.32384e-20
-6.06361e-08 1.58408e-08 2.60729e-21
-1.04541e-07 1.62588e-07 2.61849e-20
1.85283e-07 9.07477e-08 7.51426e-21
1.60828e-07 -5.28909e-08 -2.63471e-21
-4.6987e-09 1.11826e-08 -3.20862e-20
-1.25856e-07 -1.12944e-07 4.69924e-20
-1.22633e-08 1.62968e-09 2.25633e-20
-2.70148e-07 1.58645e-07 -6.15621e-21
-3.40435e-09 -1.04752e-08 1.04605e-20
3.58418e-08 -1.66202e-07 -3.55943e-20
-1.06683e-08 -2.33848e-09 -2.85331e-21
2.80867e-08 5.63085e-08 -1.82358e-20
-1.49701e-08 -4.50175e-09 -7.95567e-21
-1.57997e-08 -1.47915e-08 3.57043e-20
3.5157e-07 1.54781e-07 2.21173e-20
-3.42734e-10 3.05741e-08 -6.60519e-21
4.68383e-09 -2.0389e-08 -1.20261e-20
7.96743e-09 -4.54242e-08 6.29459e-21
-3.19263e-09 -1.48552e-08 -1.58458e-20
-3.6389e-08 -9.22325e-09 -1.29581e-20
-4.23757e-08 5.18553e-08 1.79097e-20
1.13636e-08 -4.10472e-09 -1.70724e-20
-4.63359e-09 -1.15064e-08 1.18094e-20
-1.21288e-08 -1.78686e-09 -1.88685e-20
-2.10365e-08 1.94893e-07 8.68514e-21
-3.73296e-08 1.88497e-08 -6.32438e-20
-3.62693e-08 6.20387e-08 1.40939e-20
-3.65688e-07 4.29807e-08 -6.07606e-21
-7.82126e-12 -2.88156e-08 2.78032e-20
-3.50658e-08 -2.94097e-08 4.33461e-20
1.47983e-08 3.60667e-08 -4.56732e-20
1.39988e-07 2.79899e-08 2.66226e-20
2.00762e-07 -1.74688e-07 7.43611e-21
5.44824e-09 1.33814e-08 1.74001e-20
1.34986e-08 4.22641e-09 4.97071e-21
-1.87077e-07 1.38408e-07 8.7553e-21
2.18305e-07 2.65376e-08 2.13403e-20
-3.3109e-08 2.96041e-07 -9.87774e-21
-1.14668e-08 -5.91884e-08 1.4206e-20
4.01494e-08 2.82865e-08 -2.6471e-20
1.74288e-07 1.83802e-07 1.83946e-20
3.14213e-09 1.3561e-09 -1.25886e-20
-3.35764e-08 1.67141e-07 1.75419e-23
2.83667e-09 -1.483e-09 -2.62012e-20
-2.00597e-08 1.37127e-08 3.89548e-21
4.34054e-08 1.76476e-08 -5.79072e-20
-1.60939e-07 4.97437e-08 5.19532e-20
9.34404e-08 1.64199e-07 2.00154e-20
5.81394e-08 -2.62511e-07 -3.87336e-21
1.36471e-08 3.57399e-08 -3.92517e-20
-2.46305e-08 -1.46306e-08 2.65843e-20
2.04633e-08 6.53993e-08 -3.91225e-20
1.36121e-07 2.3156e-08 4.34605e-20
-9.04226e-08 1.8679e-07 3.27594e-20
2.40441e-07 -7.85829e-08 1.74667e-20
-1.33153e-08 2.90706e-08 -3.40209e-20
2.549e-08 2.59266e-08 -1.04045e-20
-1.51804e-08 -3.49708e-08 1.96296e-20
-6.12923e-09 -2.66059e-08 1.83389e-20
7.05873e-08 8.44807e-09 -2.35724e-20
-5.15969e-08 2.41317e-07 3.72968e-21
-1.18694e-08 7.35676e-09 -7.75348e-20
3.52037e-08 5.21946e-08 -1.93706e-20
-1.74499e-08 -2.47677e-07 8.50282e-21
2.5053e-07 7.52229e-08 1.35151e-20
1.70187e-08 -3.00817e-08 2.98522e-20
-3.88503e-08 -4.42766e-09 -3.65643e-20
-1.60139e-07 -6.42638e-08 4.3067e-20
7.87833e-09 8.40959e-09 2.14446e-20
-2.5451e-07 -8.90028e-08 4.11738e-20
7.99946e-09 -8.38879e-09 -4.06372e-20
-2.47454e-08 -1.73909e-07 7.58351e-21
1.07272e-07 4.07267e-09 3.06816e-20
-9.53139e-09 8.07798e-09 4.76824e-20
2.57634e-09 1.16994e-08 -3.4024e-20
7.19691e-09 -3.13516e-08 -2.8527e-21
1.24434e-08 -5.78462e-09 -3.94789e-20
1.84765e-10 1.25626e-08 1.9921e-20
1.08263e-08 -1.35936e-09 -2.85849e-22
2.02866e-08 -2.99691e-08 -4.19127e-21
-5.21165e-08 -2.65779e-07 4.7186e-20
1.37581e-07 -1.05923e-07 -1.65855e-20
4.15659e-10 1.66817e-08 1.73477e-20
-1.15866e-08 -2.0786e-09 -1.04126e-20
-3.73158e-09 -1.2925e-08 2.47867e-20
-9.53851e-09 -6.7552e-09 7.81116e-21
-1.28654e-07 1.60768e-07 1.52236e-20
-1.47151e-10 -1.26807e-08 2.40537e-21
-1.61006e-07 2.52796e-07 2.47446e-20
-6.03748e-08 2.77496e-08 -3.00016e-20
8.48102e-09 9.10221e-09 -1.58373e-20
-1.09163e-08 -6.38544e-09 3.09678e-20
7.84618e-08 1.8937e-07 -7.59856e-21
4.51578e-08 4.02847e-08 -2.49481e-20
1.09797e-07 -3.62009e-08 3.4654e-20
6.19181e-09 -3.37371e-08 1.15447e-20
-1.99457e-07 -1.83795e-07 5.73825e-20
-1.92116e-08 3.315e-08 2.47381e-20
4.98075e-08 2.65701e-08 -4.05234e-20
7.28841e-08 -2.50776e-08 2.18006e-20
3.14719e-08 -6.28908e-08 -1.50075e-21
1.24905e-07 -5.76029e-08 -2.81015e-20
8.30481e-08 -3.92003e-08 2.43352e-20
8.3222e-09 -6.92927e-09 2.06647e-20
1.44968e-07 1.14669e-07 5.0265e-21
-2.0971e-08 -6.0569e-08 5.60346e-20
-2.57021e-08 -2.20207e-08 7.75569e-21
-4.22442e-09 -1.10335e-08 1.95851e-20
5.80346e-09 4.31897e-08 -1.57683e-20
-1.93872e-07 1.38968e-08 1.25546e-20
-7.08313e-08 -1.85065e-07 1.5041e-20
-3.04538e-08 3.88185e-08 8.97824e-21
5.99085e-08 7.98594e-08 -2.06907e-20
1.49211e-07 -1.0583e-07 -5.16164e-20
-2.18237e-07 -1.16681e-07 4.68997e-20
9.70433e-08 -1.57988e-07 -7.50074e-21
1.26338e-07 -1.55418e-07 3.61299e-21
-3.714e-08 3.65964e-09 -1.95233e-20
-1.10914e-07 -1.60501e-07 2.39329e-20
-1.94152e-07 -3.04244e-08 4.41759e-20
-2.31439e-08 -1.77201e-07 2.7544e-20
8.6367e-08 -1.78517e-07 -2.52473e-20
1.82256e-09 -2.4444e-08 2.63199e-20
2.5663e-08 1.70903e-07 2.553e-21
-9.14573e-08 -1.59984e-07 5.75437e-20
-8.5961e-09 -3.91438e-08 3.13399e-20
-1.32153e-07 9.89397e-08 2.38559e-21
-2.58207e-08 -8.42799e-09 -1.26477e-21
-2.00816e-08 -1.38317e-08 7.86112e-21
5.26543e-08 -2.69931e-08 2.73459e-20
-7.21161e-09 1.01962e-08 6.68727e-21
2.7959e-08 -3.53382e-08 -6.69784e-21
-1.6449e-07 -7.31537e-08 6.65963e-20
-2.17293e-08 -2.92933e-08 1.43854e-21
2.27055e-08 3.108e-08 2.4934e-20
1.18922e-07 1.64169e-07 -1.38915e-20
-4.19851e-08 -1.93529e-08 4.01913e-21
-1.82993e-07 -4.11588e-09 4.38327e-20
-2.33584e-08 -2.17158e-08 1.44423e-20
-1.31199e-09 -3.13955e-08 2.87261e-20
2.28907e-08 1.15155e-08 2.90287e-20
-2.64211e-08 2.60752e-08 -1.70863e-20
-4.42189e-09 -4.6242e-08 5.11141e-20
-2.44316e-07 6.01742e-08 3.98873e-20
1.33853e-07 1.14203e-07 1.89131e-20
1.78817e-08 1.86038e-07 4.9741e-21
-1.0771e-08 3.68152e-09 1.43864e-20
-3.59277e-08 1.11642e-09 1.8288e-20
1.64893e-08 3.14931e-08 -3.64961e-20
-1.30077e-08 -3.22361e-09 -2.6682e-21
1.56014e-09 -1.11257e-08 6.25016e-21
-7.20251e-09 4.8953e-08 -1.98054e-20
7.94084e-09 8.40199e-09 -1.58323e-20
-9.08095e-08 2.00696e-08 -2.1731e-20
-9.2157e-08 1.00546e-07 3.8738e-21
-9.92639e-09 9.16668e-09 3.69129e-20
-1.66793e-07 1.00653e-07 3.12973e-20
-4.23486e-09 1.41539e-08 -5.53332e-20
4.48994e-08 -1.60601e-08 -2.75223e-20
2.09057e-07 -1.92306e-08 1.26861e-21
-2.61078e-08 1.6518e-08 -5.17479e-20
1.05832e-08 4.85453e-09 -2.6182e-20
2.71613e-08 -1.70309e-08 -3.93022e-22
-4.66866e-08 1.5534e-08 -4.07118e-20
-3.39915e-08 8.88637e-09 -7.91298e-21
1.19014e-08 -3.51273e-09 1.8259e-20
1.10691e-07 -6.73168e-08 8.8508e-21
-4.34795e-08 2.77237e-08 -5.50139e-20
-1.30157e-07 -2.71407e-08 6.48019e-20
-2.75706e-08 -1.45394e-08 6.31873e-20
1.05254e-08 -7.03033e-09 2.47458e-20
1.1664e-08 8.23952e-09 1.55543e-20
-2.98928e-09 1.32813e-08 3.88994e-21
-1.23316e-09 -1.49867e-08 -5.27838e-21
-1.2177e-08 6.18798e-09 5.24679e-20
-1.36287e-08 -6.94482e-09 -1.31404e-20
3.41543e-08 -1.2882e-08 -1.70921e-20
-1.24391e-08 -3.4592e-09 -4.00401e-21
-1.24114e-08 3.3325e-09 7.7895e-21
-3.0267e-09 1.23519e-08 -7.94739e-20
-3.2902e-09 -1.2623e-08 2.35607e-20
8.20931e-09 -9.17008e-09 -1.34342e-20
7.89064e-09 8.77377e-09 -9.52253e-21
4.77873e-09 1.32106e-07 -3.96368e-20
2.55665e-08 -2.1132e-08 -3.42396e-20
5.96791e-09 -1.12645e-08 3.23351e-20
-9.95747e-08 3.67477e-09 -3.72439e-21
9.43516e-09 -8.90548e-09 -1.73983e-20
8.80974e-09 9.04321e-09 -1.46053e-20
1.35271e-08 -2.95405e-10 -3.79386e-20
4.57349e-08 1.29479e-07 1.27081e-20
-6.84734e-09 -1.11917e-08 6.44865e-21
1.48151e-08 -3.38736e-08 -1.98182e-20
-1.11173e-07 -6.15123e-08 -4.69344e-23
-2.4353e-08 -1.58051e-08 6.62168e-21
-1.11588e-07 6.61736e-08 -2.5543e-21
9.87415e-09 -1.00815e-08 -1.28666e-23
-4.7379e-09 1.05255e-08 -4.32352e-20
-2.60936e-09 -1.27915e-07 1.77556e-20
-4.18903e-08 -1.26713e-07 1.27301e-20
1.92173e-07 1.82912e-07 4.86834e-21
2.05548e-07 -1.16764e-08 1.92332e-23
-1.45015e-08 3.18713e-09 -3.83939e-20
-1.37489e-07 -2.42954e-07 7.2168e-20
3.27123e-08 5.60993e-08 -2.99407e-20
-1.31691e-07 1.55108e-08 -1.66402e-20
9.44883e-08 2.64208e-08 -1.15346e-20
-1.28944e-08 -5.217e-11 9.07268e-21
3.06913e-10 -1.33842e-08 9.01067e-21
-1.15209e-09 -9.11194e-09 3.91893e-21
-1.13995e-08 -6.81546e-09 1.26143e-21
-2.85069e-07 -1.08022e-08 1.61384e-20
8.95235e-08 -1.01258e-07 1.3851e-20
6.0723e-09 1.17893e-08 -2.71362e-21
3.11502e-09 -5.64411e-08 3.76635e-20
-5.34081e-08 1.26471e-07 1.14195e-20
1.11896e-09 1.41633e-08 -8.1204e-20
9.54794e-08 -6.83349e-08 3.32586e-20
-8.32923e-09 -3.65715e-09 -2.32193e-20
-8.12408e-08 -1.05582e-07 5.71886e-20
1.117e-08 5.64872e-09 -4.32924e-20
2.63985e-08 2.55825e-08 -2.38054e-20
-1.8826e-08 -2.93242e-08 3.26248e-20
1.15163e-08 -3.76857e-09 -1.75002e-20
3.91562e-08 -2.73466e-08 -6.62431e-21
-2.31503e-09 2.17892e-08 -1.06352e-20
3.22473e-08 -5.43588e-08 3.68124e-21
2.95136e-07 1.48717e-08 -1.73327e-20
-2.50053e-07 6.61561e-08 -2.22617e-20
2.08387e-08 1.45169e-08 3.04768e-20
-3.09294e-08 -7.4444e-08 5.30962e-20
-4.69626e-08 -3.06487e-08 4.30321e-20
1.53116e-07 -1.54059e-09 -7.53301e-21
1.29959e-09 -2.91185e-08 2.09935e-20
-3.82007e-08 -1.34485e-08 -5.28949e-21
5.21807e-08 -1.24687e-07 3.86787e-21
4.15589e-09 5.01173e-08 -3.5413e-20
4.28243e-08 1.32796e-07 -2.57639e-21
5.13094e-08 -2.70413e-08 1.55934e-20
-9.37441e-08 9.97887e-08 1.27826e-20
8.62215e-08 1.06549e-07 -4.70376e-20
-5.38049e-09 2.39564e-09 -6.1271e-20
9.12957e-10 2.30605e-08 -6.64944e-21
1.69186e-09 -1.0443e-08 -2.70985e-21
-8.28957e-09 -6.82177e-09 2.51525e-20
-2.85677e-08 2.26837e-08 -3.15526e-20
-1.31347e-07 -3.11096e-08 -7.7302e-21
4.47665e-10 1.46976e-08 -2.29668e-20
-3.42928e-08 1.01942e-08 3.4006e-20
9.30113e-08 -1.34724e-08 1.28666e-20
-3.98072e-08 -1.28863e-07 2.03499e-20
-7.83928e-08 1.24841e-07 4.08461e-20
-2.20465e-08 1.01938e-08 -5.3553e-21
-1.05057e-07 -7.43278e-08 2.43207e-20
2.37105e-08 -1.10921e-08 6.54064e-21
-1.42446e-07 -6.97349e-09 2.61655e-21
6.9805e-08 -2.46338e-07 -1.0021e-20
9.52596e-08 -1.00051e-07 1.25312e-20
1.45811e-07 2.58531e-07 2.62585e-20
-1.38488e-09 3.11278e-08 -1.71921e-20
1.24972e-08 -1.29768e-07 -2.06752e-20
-5.02279e-09 3.04583e-09 -7.63445e-20
-6.75431e-08 -1.26024e-07 2.69162e-20
2.25784e-08 -1.93705e-08 1.68101e-20
-1.30326e-08 1.31269e-07 -1.53243e-20
3.15719e-08 -9.227e-09 -4.59877e-20
7.19825e-08 1.2829e-07 -3.82619e-21
7.20286e-08 -1.67449e-09 4.01885e-20
1.31736e-07 -3.88718e-07 1.70382e-20
-2.78686e-08 -5.18611e-08 3.37706e-20
-1.16288e-07 5.06697e-08 -7.57175e-21
-1.62432e-08 7.94472e-09 1.32139e-20
1.10396e-07 7.393e-08 1.258e-20
7.86289e-08 -4.34093e-08 4.50031e-20
4.15153e-08 1.82104e-08 -5.50299e-21
-8.47642e-09 7.19207e-09 -6.81611e-20
7.89211e-08 -1.21932e-07 -1.40961e-20
-8.41327e-08 -1.04996e-07 6.27066e-20
1.08531e-07 4.28012e-08 3.57294e-20
2.75517e-08 -1.70063e-08 -2.91148e-20
5.07526e-08 -1.26135e-07 -6.14358e-23
5.95661e-08 -1.1267e-08 -7.93086e-21
-5.78158e-08 -2.30524e-08 3.25876e-20
-2.50308e-09 -2.33945e-08 -4.29828e-21
-1.3266e-07 1.84132e-08 -2.43421e-20
1.39374e-08 1.16348e-07 -1.93681e-20
9.06983e-08 2.11501e-08 -9.13884e-21
-1.03066e-07 -4.61211e-08 -1.29563e-20
-5.07053e-08 1.29982e-07 -5.18181e-21
-1.15943e-08 -1.13347e-07 3.72588e-20
2.98852e-08 1.45863e-08 -2.95672e-21
-1.94604e-08 5.47519e-08 -7.8948e-21
-9.26788e-08 6.64763e-08 -1.55061e-20
1.19064e-07 6.00622e-08 3.82323e-20
-5.41246e-08 -1.69749e-08 1.84107e-20
-1.31521e-08 -5.57217e-08 3.7801e-20
9.09756e-08 1.0577e-07 -6.48451e-21
-2.1297e-08 -9.66625e-09 -2.1448e-20
2.99658e-07 -2.15431e-07 2.64616e-20
6.32835e-08 -4.4288e-08 4.65788e-20
5.17839e-08 2.53777e-07 -2.86459e-20
6.67477e-08 -6.41949e-08 4.89962e-20
-1.44745e-07 5.5123e-07 5.45678e-21
-1.45581e-07 -5.45863e-07 9.2271e-21
3.57685e-07 4.70133e-07 1.95896e-20
3.53254e-07 -4.70004e-07 1.72379e-20
5.85489e-07 -2.34268e-10 -2.30401e-21
-5.04732e-07 2.03094e-07 4.4165e-21
-4.96365e-07 -2.05298e-07 1.08011e-21
2.40267e-08 1.30053e-08 -6.77388e-21
1.53857e-08 7.48201e-09 1.71387e-20
4.48461e-08 6.02499e-09 -4.83134e-20
7.92056e-08 4.23319e-08 -2.46445e-20
2.35008e-08 9.362e-08 -1.92485e-20
-8.49402e-08 -7.29855e-08 1.29958e-21
4.27064e-08 -3.94044e-08 1.02594e-20
9.12686e-08 7.32618e-08 8.77962e-21
-2.11241e-08 1.15238e-07 -1.92178e-20
1.49184e-08 -7.33902e-09 -3.24641e-20
2.14875e-08 -1.10581e-07 -5.40003e-20
2.79781e-08 1.88991e-08 1.17842e-20
1.64741e-07 5.7703e-08 2.26177e-20
3.63421e-09 1.18014e-08 -2.65968e-20
6.35869e-08 2.08004e-08 -3.90579e-20
-7.87236e-08 4.35405e-08 -1.39737e-22
-1.07824e-07 3.72887e-08 7.81585e-21
2.12728e-08 -1.45741e-08 -3.07605e-20
-6.87874e-08 -3.1821e-08 5.20862e-21
-7.56028e-08 -4.47817e-08 1.16322e-20
-6.63602e-09 -7.5866e-08 2.46776e-20
2.96798e-10 -8.71655e-08 1.28122e-20
-9.60123e-08 -4.14842e-09 -7.59659e-21
1.4258e-07 -2.21401e-08 8.85685e-21
7.68471e-08 4.73617e-08 1.02688e-20
-6.35659e-08 4.33682e-08 -6.44194e-21
-2.86189e-08 1.39803e-08 -1.33029e-20
7.17395e-08 -6.42898e-08 2.04174e-20
-5.39179e-08 8.39452e-08 3.31816e-20
-6.64066e-08 -6.99505e-08 2.70136e-20
-6.29761e-09 9.14055e-08 -4.14636e-20
-1.3689e-08 7.71132e-08 -3.37934e-20
2.249e-09 -5.59479e-08 2.0766e-20
2.88998e-08 -9.34141e-08 -3.74063e-20
-4.71785e-08 -3.02764e-08 4.84862e-20
6.5418e-08 -1.86473e-08 -6.67747e-21
1.52796e-10 9.12915e-08 -5.69128e-20
-1.98613e-09 5.82806e-08 -4.82291e-20
-1.46709e-08 6.559e-08 -5.2145e-21
1.07427e-07 -2.64378e-08 2.8195e-20
-2.24894e-08 2.15245e-08 -5.48194e-21
2.43481e-08 9.13603e-08 -5.43292e-20
-1.46511e-08 9.24415e-09 2.81809e-21
5.43259e-08 2.51936e-07 -2.57936e-20
-2.65341e-08 1.4347e-08 -3.18636e-20
2.8155e-08 -1.46611e-08 -1.59822e-20
8.12003e-09 7.7605e-08 -5.21236e-20
-9.10521e-08 2.1613e-08 -1.15284e-20
-2.8233e-09 -3.94095e-08 3.79623e-20
3.78817e-09 -3.59559e-07 5.89702e-21
1.08996e-08 6.57907e-08 -5.44879e-20
-6.80106e-08 6.47157e-08 7.65656e-21
1.05813e-07 3.9357e-07 -4.16775e-20
5.02502e-09 3.32083e-09 -1.52251e-20
4.3408e-09 -3.16647e-09 -5.06439e-20
5.11753e-08 -3.99248e-08 3.48609e-20
-7.27095e-08 6.50999e-08 1.01931e-20
-8.72452e-08 -2.57548e-08 3.24646e-20
-8.96787e-08 -2.94487e-08 3.82965e-21
-1.86335e-09 1.15828e-09 -2.35212e-20
-1.30595e-09 -6.73901e-10 -5.57374e-20
4.18565e-08 8.49161e-09 1.03182e-20
1.32986e-08 6.10714e-08 -1.84487e-20
-1.53836e-09 6.07248e-08 -4.01156e-21
-3.01138e-07 -2.18788e-07 6.18586e-21
5.33548e-08 -8.39313e-08 1.53357e-20
2.69445e-08 9.66114e-09 3.28248e-20
-9.89719e-08 -1.06369e-08 2.33089e-20
-6.25783e-08 8.2682e-08 2.95678e-20
-8.07794e-08 3.79792e-08 1.43855e-21
2.95691e-07 2.12421e-07 -7.77328e-23
2.91288e-08 1.91773e-08 -1.08113e-20
-2.87329e-08 9.37514e-08 1.0254e-20
-5.6575e-08 -4.84757e-08 3.51418e-20
1.40869e-08 -7.37991e-08 1.29194e-20
-4.58256e-08 -8.71627e-08 5.54589e-20
-7.34019e-08 -5.0312e-08 1.03653e-20
5.03169e-08 -8.92387e-08 -9.13966e-21
6.03451e-08 -8.29551e-08 2.55254e-20
-1.91661e-08 -3.75127e-07 2.9269e-20
1.54168e-07 -2.46604e-07 1.1083e-20
7.35153e-09 -8.96311e-08 -2.20603e-20
6.31729e-08 4.81077e-08 -2.08918e-20
-5.67662e-08 -6.89263e-08 1.93978e-20
-4.92606e-08 9.18203e-08 4.11253e-20
-3.02725e-08 8.99748e-08 -5.55416e-20
6.58892e-08 6.82564e-08 -1.95268e-20
3.2319e-08 -8.41548e-08 -3.94485e-21
-8.36974e-08 -2.38625e-07 4.54944e-20
1.87965e-09 2.88658e-08 -1.8459e-20
6.6733e-08 6.86793e-08 -3.84835e-21
-3.59287e-08 -1.76638e-08 2.68821e-21
-2.98433e-08 1.6265e-08 1.43668e-20
2.67954e-07 -1.17391e-07 -1.24178e-20
3.32117e-08 -5.48879e-08 2.41754e-21
-3.15195e-08 -5.39306e-08 1.94712e-20
1.18865e-08 -1.04108e-09 -1.36833e-20
9.68424e-10 -4.48267e-09 -1.24514e-20
-3.34146e-09 -3.23754e-09 -1.91985e-20
1.46609e-08 9.65134e-09 -1.63029e-20
-4.62149e-08 -8.72298e-08 5.64533e-20
7.10536e-08 2.84833e-08 -2.86835e-20
-1.7329e-07 -1.90508e-07 7.87849e-20
5.9977e-10 5.52684e-09 -3.00743e-20
6.63247e-10 1.09565e-09 -2.53342e-23
1.34177e-09 -1.30319e-10 -1.12688e-20
1.66333e-07 -3.28532e-07 -1.0773e-23
-6.87854e-09 8.08161e-09 3.64895e-20
-1.5589e-09 9.78697e-09 -1.35047e-20
-7.14489e-08 2.53826e-08 1.31887e-21
-2.4846e-09 2.89484e-08 1.05958e-20
-1.57121e-08 4.65302e-08 3.49935e-20
3.23398e-08 1.35927e-09 -1.43922e-20
7.32364e-09 2.79301e-08 -4.85902e-20
-1.91037e-09 3.8626e-08 -5.41318e-20
5.54348e-08 3.01521e-08 -3.40131e-20
3.98211e-09 3.57887e-07 -3.39149e-20
-5.15842e-08 4.8832e-08 -1.64999e-22
3.86375e-08 -2.60118e-08 -3.02269e-20
2.22714e-08 -2.03975e-08 -5.54275e-21
-3.67019e-07 -5.03887e-08 5.60287e-20
-1.03789e-08 4.13827e-09 1.4928e-20
-2.67179e-07 -3.16044e-07 5.16244e-20
4.79579e-09 1.29367e-08 -1.58459e-20
4.6738e-08 9.05862e-09 -2.76029e-20
1.39363e-07 -1.80788e-08 3.19534e-20
-3.18239e-08 -5.22906e-08 5.21551e-20
6.08318e-08 1.74244e-08 -4.05368e-20
2.8421e-10 -1.54357e-08 -1.47914e-21
-3.42836e-08 3.97023e-08 -2.36401e-20
-1.30964e-08 -8.29711e-09 6.01427e-20
-3.09505e-08 6.2838e-08 2.84178e-20
5.61158e-09 3.96062e-08 -1.98675e-20
9.05419e-09 6.62257e-09 -1.10706e-20
8.9815e-09 -6.36065e-09 -2.44546e-20
-2.48748e-07 -6.77593e-08 2.10458e-20
2.73317e-08 1.01673e-08 5.1522e-21
-3.29702e-08 6.38743e-07 2.0237e-20
-2.26947e-09 -6.5622e-07 3.26097e-20
3.22988e-07 5.52995e-07 3.24731e-20
-3.33855e-08 2.65147e-08 -3.05372e-20
-1.71208e-07 3.44472e-07 -6.22893e-21
3.24856e-07 -5.33768e-07 2.74047e-20
-5.36173e-08 -8.67824e-08 4.12909e-20
4.93353e-07 4.32229e-07 -3.58534e-21
5.74451e-09 -1.01976e-08 1.46502e-20
-5.99335e-09 -1.03317e-08 -1.20646e-20
5.17129e-07 -4.22594e-07 3.0014e-20
-3.16277e-08 6.21816e-08 1.66313e-20
-3.24792e-07 -2.06852e-07 5.03394e-20
-2.73955e-07 -5.70913e-07 1.20839e-20
-1.53416e-07 -3.5292e-07 1.71214e-20
-2.81632e-07 5.80417e-07 -3.14746e-20
-6.65459e-08 3.93306e-07 -6.5913e-20
-4.70371e-10 1.36713e-08 -3.52315e-20
-1.70837e-07 2.19938e-07 2.21887e-20
-1.63633e-07 -3.34824e-07 2.90799e-20
6.36097e-07 1.11037e-07 -2.39331e-21
-4.95905e-08 4.2181e-08 -7.92668e-21
-1.14331e-09 2.78134e-08 -7.13084e-20
-3.07675e-07 2.22737e-07 8.57668e-21
-5.50047e-08 2.93531e-08 -5.35977e-20
6.29863e-07 -9.87767e-08 1.44006e-20
-4.1964e-08 2.81863e-08 -2.24154e-20
3.05994e-08 -6.32921e-08 -1.47294e-21
-4.90142e-07 -3.72307e-07 1.56742e-20
-1.65271e-07 3.54112e-07 -2.3114e-20
-5.02029e-07 3.69579e-07 -7.42927e-21
1.46687e-07 3.27305e-07 -2.77338e-20
-5.38663e-08 4.28283e-08 -1.39535e-21
-1.48923e-08 8.42291e-09 -2.015e-20
-8.00758e-10 -1.40715e-09 9.69271e-21
3.09917e-10 -1.15043e-09 -3.57814e-20
4.10724e-09 4.29647e-08 -6.56716e-21
-1.18655e-09 1.4069e-09 -1.26153e-20
7.32326e-10 1.65188e-09 -6.74036e-21
1.15961e-09 -5.46979e-10 -1.75954e-20
-6.35354e-10 5.06578e-09 -4.38095e-20
-1.12847e-07 2.46198e-07 -3.77437e-21
-8.45018e-09 6.02609e-09 -4.57957e-20
1.45276e-08 -9.1935e-09 -5.62616e-21
1.42483e-08 -8.2666e-09 -2.9787e-20
4.11929e-08 1.60534e-08 -1.98885e-20
-3.67084e-10 -4.33472e-09 1.62987e-20
-3.85992e-09 -1.97997e-09 4.03451e-21
1.42367e-08 8.30872e-09 -1.72202e-21
3.64809e-07 -7.03437e-08 1.0727e-20
-4.71632e-08 -6.0113e-08 5.68873e-20
-3.1937e-07 2.22698e-07 1.79944e-20
-2.85855e-07 3.2603e-07 -1.96133e-20
3.85317e-07 -1.39161e-07 2.3186e-20
-1.78334e-09 -5.35621e-09 3.63333e-21
-1.96626e-09 5.50348e-09 -1.61163e-20
-6.01635e-09 1.08985e-09 -1.77055e-20
-3.99901e-09 3.98859e-09 1.11169e-20
-5.44922e-09 -1.21684e-09 -2.30333e-20
9.35965e-10 1.3375e-09 -1.64177e-20
5.84267e-09 -1.48845e-09 -2.73123e-20
2.41867e-09 -1.75067e-09 -6.03721e-20
-1.82154e-09 -1.21146e-09 -1.25024e-20
3.77935e-09 -3.8145e-09 -3.53369e-20
3.80081e-09 3.92895e-09 9.34299e-21
-1.83281e-09 1.05308e-09 -3.72391e-20
1.83576e-09 -4.5922e-10 -2.64637e-20
3.09565e-09 1.74447e-09 -4.14633e-20
6.80959e-09 2.48612e-09 -7.05732e-21
SCALARS rr_necrosis float
LOOKUP_TABLE default
0
0
0
0
0
0
0
0
0
0
0
0
0
0
0
0
0
0
0
0
0
0
0
0
0
0
0
0
0
0
0
0
0
0
0
0
0
0
0
0
0
0
0
0
0
0
0
0
0
0
0
0
0
0
0
0
0
0
0
0
0
0
0
0
0
0
0
0
0
0
0
0
0
0
0
0
0
0
0
0
0
0
0
0
0
0
0
0
0
0
0
0
0
0
0
0
0
0
0
0
0
0
0
0
0
0
0
0
0
0
0
0
0
0
0
0
0
0
0
0
0
0
0
0
0
0
0
0
0
0
0
0
0
0
0
0
0
0
0
0
0
0
0
0
0
0
0
0
0
0
0
0
0
0
0
0
0
0
0
0
0
0
0
0
0
0
0
0
0
0
0
0
0
0
0
0
0
0
0
0
0
0
0
0
0
0
0
0
0
0
0
0
0
0
0
0
0
0
0
0
0
0
0
0
0
0
0
0
0
0
0
0
0
0
0
0
0
0
0
0
0
0
0
0
0
0
0
0
0
0
0
0
0
0
0
0
0
0
0
0
0
0
0
0
0
0
0
0
0
0
0
0
0
0
0
0
0
0
0
0
0
0
0
0
0
0
0
0
0
0
0
0
0
0
0
0
0
0
0
0
0
0
0
0
0
0
0
0
0
0
0
0
0
0
0
0
0
0
0
0
0
0
0
0
0
0
0
0
0
0
0
0
0
0
0
0
0
0
0
0
0
0
0
0
0
0
0
0
0
0
0
0
0
0
0
0
0
0
0
0
0
0
0
0
0
0
0
0
0
0
0
0
0
0
0
0
0
0
0
0
0
0
0
0
0
0
0
0
0
0
0
0
0
0
0
0
0
0
0
0
0
0
0
0
0
0
0
0
0
0
0
0
0
0
0
0
0
0
0
0
0
0
0
0
0
0
0
0
0
0
0
0
0
0
0
0
0
0
0
0
0
0
0
0
0
0
0
0
0
0
0
0
0
0
0
0
0
0
0
0
0
0
0
0
0
0
0
0
0
0
0
0
0
0
0
0
0
0
0
0
0
0
0
0
0
0
0
0
0
0
0
0
0
0
0
0
0
0
0
0
0
0
0
0
0
0
0
0
0
0
0
0
0
0
0
0
0
0
0
0
0
0
0
0
0
0
0
0
0
0
0
0
0
0
0
0
0
0
0
0
0
0
0
0
0
0
0
0
0
0
0
0
0
0
0
0
0
0
0
0
0
0
0
0
0
0
0
0
0
0
0
0
0
0
0
0
0
0
0
0
0
0
0
SCALARS rr_protein float
LOOKUP_TABLE default
1
1
1
1
1
1
1
1
1
1
1
1
1
1
1
1
1
1
1
1
1
1
1
1
1
1
1
1
1
1
1
1
1
1
1
1
1
1
1
1
1
1
1
1
1
1
1
1
1
1
1
1
1
1
1
1
1
1
1
1
1
1
1
1
1
1
1
1
1
1
1
1
1
1
1
1
1
1
1
1
1
1
1
1
1
1
1
1
1
1
1
1
1
1
1
1
1
1
1
1
1
1
1
1
1
1
1
1
1
1
1
1
1
1
1
1
1
1
1
1
1
1
1
1
1
1
1
1
1
1
1
1
1
1
1
1
1
1
1
1
1
1
1
1
1
1
1
1
1
1
1
1
1
1
1
1
1
1
1
1
1
1
1
1
1
1
1
1
1
1
1
1
1
1
1
1
1
1
1
1
1
1
1
1
1
1
1
1
1
1
1
1
1
1
1
1
1
1
1
1
1
1
1
1
1
1
1
1
1
1
1
1
1
1
1
1
1
1
1
1
1
1
1
1
1
1
1
1
1
1
1
1
1
1
1
1
1
1
1
1
1
1
1
1
1
1
1
1
1
1
1
1
1
1
1
1
1
1
1
1
1
1
1
1
1
1
1
1
1
1
1
1
1
1
1
1
1
1
1
1
1
1
1
1
1
1
1
1
1
1
1
1
1
1
1
1
1
1
1
1
1
1
1
1
1
1
1
1
1
1
1
1
1
1
1
1
1
1
1
1
1
1
1
1
1
1
1
1
1
1
1
1
1
1
1
1
1
1
1
1
1
1
1
1
1
1
1
1
1
1
1
1
1
1
1
1
1
1
1
1
1
1
1
1
1
1
1
1
1
1
1
1
1
1
1
1
1
1
1
1
1
1
1
1
1
1
1
1
1
1
1
1
1
1
1
1
1
1
1
1
1
1
1
1
1
1
1
1
1
1
1
1
1
1
1
1
1
1
1
1
1
1
1
1
1
1
1
1
1
1
1
1
1
1
1
1
1
1
1
1
1
1
1
1
1
1
1
1
1
1
1
1
1
1
1
1
1
1
1
1
1
1
1
1
1
1
1
1
1
1
1
1
1
1
1
1
1
1
1
1
1
1
1
1
1
1
1
1
1
1
1
1
1
1
1
1
1
1
1
1
1
1
1
1
1
1
1
1
1
1
1
1
1
1
1
1
1
1
1
1
1
1
1
1
1
1
1
1
1
1
1
1
1
1
1
1
1
1
1
1
1
1
1
1
1
1
1
1
1
1
1
1
1
1
1
1
1
1
1
1
1
1
1
SCALARS rr_(S_ext) float
LOOKUP_TABLE default
0.73431
0.73505
0.734987
0.735035
0.735256
0.734986
0.734307
0.735033
0.734926
0.73505
0.734334
0.735033
0.735017
0.735061
0.735178
0.734999
0.735087
0.735021
0.734889
0.734967
0.73496
0.735527
0.734958
0.734969
0.734966
0.735033
0.734452
0.734996
0.734683
0.735365
0.735015
0.734684
0.734443
0.735317
0.735343
0.735316
0.735371
0.735333
0.735014
0.734446
0.734681
0.735374
0.735373
0.735015
0.734508
0.734695
0.734906
0.734939
0.734989
0.734634
0.734663
0.734762
0.735242
0.734765
0.735236
0.734541
0.735345
0.734765
0.735344
0.734971
0.735083
0.735152
0.734507
0.735149
0.735153
0.735091
0.735085
0.735034
0.734963
0.735052
0.735241
0.73524
0.734681
0.735116
0.734991
0.734408
0.735196
0.73509
0.735033
0.734776
0.734624
0.735281
0.735118
0.7346
0.734709
0.734521
0.734996
0.735105
0.734509
0.73549
0.734763
0.735489
0.735199
0.735083
0.734771
0.734654
0.734627
0.735048
0.735195
0.735011
0.734849
0.734727
0.734598
0.735026
0.735042
0.735043
0.735128
0.735005
0.734597
0.735059
0.734972
0.734534
0.73457
0.735023
0.735039
0.734768
0.735346
0.734624
0.735344
0.73477
0.734873
0.735168
0.735049
0.735103
0.735066
0.735184
0.735318
0.735048
0.734627
0.73477
0.735239
0.735044
0.735113
0.735046
0.734729
0.735345
0.734586
0.735023
0.735118
0.735344
0.734737
0.735056
0.734887
0.73505
0.734622
0.735035
0.735044
0.734991
0.734987
0.734825
0.734936
0.735049
0.734681
0.735019
0.73505
0.735045
0.735073
0.734745
0.734747
0.735014
0.73494
0.734687
0.73453
0.734661
0.734743
0.735044
0.734744
0.734744
0.734683
0.734745
0.735201
0.734764
0.734661
0.73508
0.734766
0.735125
0.7352
0.735033
0.735246
0.735047
0.734685
0.735047
0.735046
0.734738
0.735105
0.734656
0.735102
0.735131
0.735206
0.735048
0.735106
0.734635
0.734766
0.734683
0.735046
0.735017
0.735021
0.735112
0.735048
0.735088
0.73505
0.734899
0.734782
0.735112
0.734686
0.735117
0.735091
0.734722
0.735163
0.735051
0.735172
0.735068
0.73504
0.735119
0.734827
0.735075
0.73479
0.735131
0.735064
0.735063
0.735053
0.735058
0.735058
0.735057
0.735057
0.735172
0.73517
0.735172
0.735173
0.735239
0.735238
0.734821
0.735058
0.735026
0.734935
0.735179
0.735182
0.735028
0.734784
0.735022
0.735048
0.734831
0.735163
0.734827
0.735121
0.735019
0.734832
0.734793
0.734622
0.734622
0.735118
0.73461
0.735008
0.73479
0.734894
0.735021
0.735062
0.73538
0.735059
0.734608
0.734789
0.735025
0.735033
0.73478
0.735061
0.734891
0.735379
0.734791
0.735066
0.735099
0.735021
0.735177
0.735103
0.735243
0.735015
0.734549
0.734521
0.735223
0.734961
0.735033
0.73483
0.735164
0.73508
0.73479
0.735084
0.734852
0.735048
0.734853
0.734785
0.735442
0.735208
0.735179
0.735178
0.735056
0.734859
0.735308
0.735096
0.734942
0.734861
0.734837
0.735221
0.73483
0.735201
0.734846
0.73451
0.734857
0.734618
0.735132
0.73483
0.73544
0.734846
0.735114
0.734821
0.735107
0.734843
0.734997
0.734498
0.734979
0.734829
0.735216
0.734824
0.734942
0.73511
0.735052
0.734844
0.734858
0.734888
0.735133
0.734856
0.735033
0.734997
0.735242
0.734858
0.734884
0.734954
0.734893
0.734849
0.734895
0.735156
0.73503
0.734888
0.734827
0.735053
0.735055
0.734853
0.735241
0.734308
0.734996
0.734623
0.734957
0.733877
0.733878
0.733882
0.73388
0.733881
0.73388
0.733884
0.735135
0.735289
0.735016
0.734938
0.734893
0.734893
0.735048
0.734887
0.734883
0.735291
0.734892
0.735169
0.734763
0.735159
0.734984
0.734937
0.73489
0.735225
0.734996
0.734942
0.734997
0.734943
0.734884
0.734774
0.734936
0.734989
0.735171
0.734901
0.734876
0.734898
0.734931
0.734987
0.735049
0.734897
0.735047
0.734978
0.734934
0.735035
0.73498
0.734889
0.735105
0.73495
0.735281
0.734511
0.735135
0.735156
0.734987
0.734953
0.735088
0.734319
0.734985
0.734949
0.734502
0.735439
0.735442
0.734994
0.734893
0.734958
0.734902
0.735564
0.735562
0.735032
0.735036
0.735032
0.734321
0.734881
0.735117
0.734935
0.734929
0.734933
0.734302
0.735103
0.734889
0.734993
0.734993
0.734927
0.734941
0.734927
0.734934
0.73445
0.734619
0.73494
0.734995
0.73495
0.734924
0.734946
0.734955
0.73495
0.734513
0.735181
0.734897
0.735086
0.735107
0.734508
0.734988
0.734981
0.735243
0.735428
0.735427
0.735208
0.73488
0.734991
0.7345
0.735413
0.735541
0.73554
0.734294
0.735332
0.735364
0.734984
0.735197
0.735016
0.735054
0.735107
0.735129
0.735034
0.734316
0.735001
0.735081
0.735116
0.734403
0.735339
0.734492
0.735111
0.73506
0.734839
0.735013
0.735031
0.735246
0.735039
0.735245
0.734993
0.735118
0.735353
0.735359
0.734504
0.735064
0.734295
0.734312
0.734275
0.735103
0.734311
0.734257
0.734925
0.734284
0.735283
0.735282
0.734298
0.734951
0.734456
0.734293
0.734438
0.73429
0.734438
0.735337
0.734475
0.734314
0.734294
0.735028
0.735145
0.734426
0.735029
0.73426
0.735052
0.734957
0.734284
0.734413
0.734271
0.734293
0.734979
0.735295
0.735524
0.735514
0.735065
0.735522
0.735522
0.735518
0.735456
0.73449
0.735347
0.735215
0.735297
0.735056
0.735474
0.735473
0.735312
0.734284
0.73495
0.734302
0.734481
0.734481
0.735402
0.7354
0.735395
0.735398
0.735402
0.735513
0.735401
0.735475
0.735531
0.735407
0.735408
0.735534
0.735515
0.735477
0.735393
SCALARS rr_(P_ext) float
LOOKUP_TABLE default
0.0103423
0.0102849
0.0102899
0.0102859
0.0102705
0.01029
0.0103425
0.0102866
0.0102948
0.0102851
0.0103386
0.0102866
0.0102878
0.0102844
0.0102758
0.0102891
0.0102823
0.0102873
0.0102973
0.0102914
0.0102922
0.0102509
0.0102921
0.0102913
0.0102915
0.0102863
0.0103306
0.0102893
0.010313
0.0102624
0.010288
0.0103129
0.0103314
0.0102659
0.0102641
0.0102659
0.0102618
0.0102649
0.0102881
0.0103312
0.0103131
0.0102616
0.0102616
0.010288
0.0103259
0.0103122
0.0102961
0.0102938
0.0102898
0.0103166
0.0103145
0.0103071
0.0102713
0.010307
0.0102718
0.0103242
0.010264
0.010307
0.0102641
0.0102911
0.0102825
0.0102778
0.0103269
0.0102781
0.0102777
0.0102824
0.0102824
0.0102863
0.0102917
0.0102847
0.0102714
0.0102714
0.0103132
0.0102806
0.0102898
0.0103339
0.0102747
0.0102824
0.0102863
0.0103058
0.0103177
0.0102687
0.0102801
0.0103193
0.0103113
0.0103253
0.0102893
0.0102815
0.0103258
0.0102537
0.0103071
0.0102538
0.0102744
0.010283
0.0103066
0.010315
0.0103176
0.0102852
0.0102748
0.0102883
0.0103006
0.01031
0.0103195
0.0102867
0.0102857
0.0102856
0.0102794
0.0102888
0.0103196
0.0102841
0.010291
0.010324
0.0103215
0.0102871
0.0102859
0.0103068
0.0102641
0.0103179
0.0102642
0.0103066
0.0102986
0.0102764
0.0102849
0.0102813
0.0102837
0.0102753
0.0102661
0.0102852
0.0103176
0.0103066
0.0102714
0.0102853
0.0102804
0.0102851
0.0103099
0.010264
0.0103208
0.0102874
0.0102801
0.010264
0.0103092
0.010285
0.0102977
0.0102851
0.0103181
0.0102861
0.0102858
0.0102898
0.01029
0.0103023
0.0102939
0.0102849
0.010313
0.0102877
0.0102851
0.0102852
0.0102835
0.0103087
0.0103085
0.0102878
0.0102937
0.0103126
0.0103245
0.0103145
0.0103087
0.0102855
0.0103087
0.0103088
0.010313
0.0103086
0.0102743
0.010307
0.0103146
0.010283
0.0103069
0.0102796
0.0102743
0.0102866
0.0102711
0.0102855
0.0103129
0.0102853
0.0102853
0.0103091
0.0102814
0.010315
0.0102813
0.0102794
0.0102741
0.0102852
0.0102813
0.010317
0.0103069
0.0103129
0.0102852
0.0102875
0.0102872
0.0102805
0.010285
0.0102826
0.0102849
0.0102966
0.0103054
0.0102805
0.0103129
0.0102802
0.0102824
0.0103103
0.0102771
0.0102848
0.0102766
0.0102841
0.0102859
0.0102801
0.0103021
0.0102836
0.0103049
0.0102794
0.0102838
0.0102838
0.0102844
0.0102842
0.0102841
0.0102842
0.0102847
0.0102762
0.0102763
0.0102762
0.0102761
0.0102717
0.0102716
0.0103025
0.0102846
0.0102864
0.0102941
0.0102758
0.0102756
0.0102863
0.0103053
0.0102866
0.0102852
0.0103019
0.010277
0.0103022
0.0102799
0.0102868
0.0103018
0.0103046
0.0103179
0.0103174
0.0102801
0.010319
0.0102884
0.0103049
0.010297
0.0102867
0.0102839
0.0102613
0.010284
0.0103194
0.0103049
0.0102864
0.0102866
0.0103056
0.0102839
0.0102974
0.0102613
0.0103048
0.0102836
0.0102816
0.0102872
0.0102759
0.0102816
0.0102713
0.0102878
0.0103232
0.0103253
0.0102729
0.010292
0.0102866
0.0103021
0.0102769
0.0102831
0.0103048
0.0102829
0.0103004
0.0102856
0.0103004
0.0103051
0.010257
0.0102737
0.0102756
0.0102757
0.0102847
0.0103
0.0102665
0.0102819
0.0102935
0.0102998
0.0103016
0.0102729
0.0103019
0.0102744
0.010301
0.0103257
0.0103001
0.0103184
0.0102792
0.0103019
0.010257
0.0103009
0.0102806
0.0103026
0.0102811
0.0103011
0.0102893
0.0103279
0.0102905
0.0103021
0.0102732
0.0103023
0.0102935
0.0102811
0.0102847
0.010301
0.0103
0.0102976
0.0102793
0.0103001
0.0102866
0.0102893
0.0102714
0.0103
0.0102979
0.0102927
0.0102973
0.0103006
0.0102971
0.0102776
0.0102868
0.0102976
0.0103022
0.0102852
0.0102851
0.0103003
0.0102715
0.0103406
0.0102895
0.0103178
0.0102924
0.0103711
0.010371
0.0103707
0.0103708
0.0103706
0.0103712
0.010371
0.010279
0.010268
0.0102877
0.0102938
0.010297
0.0102973
0.0102856
0.0102976
0.0102979
0.0102679
0.0102973
0.0102767
0.0103071
0.010277
0.0102902
0.0102939
0.0102975
0.0102728
0.0102895
0.0102935
0.0102894
0.0102934
0.0102978
0.0103061
0.0102939
0.01029
0.0102765
0.0102965
0.0102983
0.0102967
0.0102942
0.0102902
0.0102855
0.0102967
0.0102856
0.0102906
0.0102941
0.0102865
0.0102905
0.0102974
0.0102811
0.0102929
0.0102685
0.0103257
0.0102791
0.0102776
0.0102901
0.0102928
0.0102825
0.0103399
0.0102901
0.010293
0.0103275
0.0102573
0.0102572
0.0102895
0.0102971
0.0102923
0.0102964
0.0102486
0.0102486
0.0102865
0.0102864
0.0102867
0.0103401
0.0102979
0.0102803
0.0102941
0.0102946
0.0102941
0.010341
0.0102814
0.0102973
0.0102897
0.0102897
0.0102946
0.0102935
0.0102946
0.0102942
0.0103309
0.0103183
0.0102936
0.0102896
0.0102929
0.0102949
0.0102933
0.0102926
0.0102929
0.0103257
0.0102757
0.0102968
0.0102826
0.0102811
0.010326
0.0102899
0.0102904
0.0102714
0.0102577
0.0102577
0.0102738
0.0102981
0.0102898
0.0103266
0.0102588
0.0102499
0.01025
0.0103416
0.0102649
0.0102624
0.0102904
0.0102747
0.0102877
0.0102848
0.010281
0.0102796
0.0102866
0.0103401
0.010289
0.0102831
0.0102804
0.0103342
0.0102642
0.0103285
0.0102806
0.0102846
0.0103013
0.010288
0.0102869
0.0102709
0.0102861
0.010271
0.0102896
0.0102804
0.0102633
0.010263
0.0103265
0.010284
0.0103434
0.0103424
0.0103447
0.0102815
0.0103407
0.0103459
0.0102948
0.0103441
0.0102685
0.0102686
0.0103432
0.0102926
0.0103307
0.0103438
0.0103318
0.010344
0.0103318
0.0102646
0.0103285
0.0103405
0.0103433
0.0102871
0.0102783
0.0103327
0.010287
0.0103455
0.0102851
0.0102922
0.0103444
0.0103336
0.0103452
0.0103416
0.0102906
0.0102676
0.010251
0.0102517
0.0102842
0.0102511
0.0102511
0.0102514
0.0102558
0.0103275
0.0102637
0.0102734
0.0102675
0.0102849
0.0102547
0.0102547
0.0102665
0.0103422
0.0102928
0.0103415
0.0103294
0.010329
0.0102595
0.0102596
0.01026
0.0102599
0.0102595
0.0102519
0.0102599
0.0102546
0.0102508
0.0102594
0.0102593
0.0102506
0.0102518
0.0102544
0.0102603
SCALARS rr_(S) float
LOOKUP_TABLE default
0.631385
0.631785
0.63175
0.631777
0.631906
0.63175
0.631383
0.631776
0.631717
0.631786
0.631393
0.631776
0.631768
0.631792
0.631861
0.631757
0.631807
0.631769
0.631696
0.631739
0.631736
0.632066
0.631734
0.631741
0.631739
0.631776
0.631459
0.631756
0.631584
0.631971
0.631766
0.631584
0.631455
0.631942
0.631957
0.631942
0.631974
0.631951
0.631766
0.631456
0.631582
0.631976
0.631975
0.631766
0.631488
0.63159
0.631706
0.631724
0.631752
0.631557
0.631573
0.631627
0.631898
0.631629
0.631894
0.631507
0.631958
0.631628
0.631957
0.631741
0.631804
0.631844
0.63149
0.631843
0.631845
0.63181
0.631806
0.631777
0.631737
0.631787
0.631897
0.631896
0.631583
0.631824
0.631752
0.631435
0.631871
0.631809
0.631776
0.631634
0.631552
0.63192
0.631825
0.631539
0.631598
0.631496
0.631755
0.631818
0.631489
0.632046
0.631628
0.632046
0.631873
0.631805
0.631632
0.631568
0.631554
0.631784
0.63187
0.631764
0.631675
0.631608
0.631538
0.631772
0.631781
0.631781
0.631831
0.631761
0.631537
0.631791
0.631742
0.631503
0.631522
0.63177
0.631779
0.63163
0.631959
0.631553
0.631959
0.631632
0.631687
0.631854
0.631785
0.631816
0.631795
0.631864
0.631943
0.631784
0.631554
0.631632
0.631896
0.631782
0.631822
0.631783
0.631609
0.631958
0.631532
0.631771
0.631825
0.631958
0.631613
0.63179
0.631695
0.631786
0.631551
0.631777
0.631783
0.631754
0.63175
0.631661
0.631723
0.631785
0.631583
0.631768
0.631785
0.631782
0.631799
0.631618
0.631619
0.631765
0.631724
0.631586
0.631501
0.631572
0.631617
0.631782
0.631618
0.631618
0.631583
0.631618
0.631874
0.631628
0.631571
0.631803
0.631629
0.63183
0.631873
0.631777
0.6319
0.631784
0.631585
0.631783
0.631783
0.631614
0.631818
0.631569
0.631816
0.631833
0.631877
0.631784
0.631819
0.631558
0.631629
0.631584
0.631783
0.631767
0.631769
0.631821
0.631784
0.631808
0.631785
0.631702
0.631637
0.631821
0.631586
0.631824
0.63181
0.631605
0.631851
0.631786
0.631857
0.631796
0.63178
0.631826
0.631662
0.6318
0.631642
0.631832
0.631794
0.631793
0.631787
0.63179
0.63179
0.63179
0.63179
0.631856
0.631855
0.631857
0.631857
0.631896
0.631896
0.631659
0.63179
0.631771
0.631722
0.631861
0.631863
0.631773
0.631638
0.631769
0.631784
0.631664
0.631852
0.631662
0.631827
0.631767
0.631665
0.631644
0.631551
0.63155
0.631825
0.631545
0.631762
0.631642
0.631699
0.631769
0.631792
0.63198
0.631791
0.631544
0.631642
0.631771
0.631776
0.631636
0.631792
0.631698
0.631979
0.631643
0.631795
0.631814
0.631769
0.63186
0.631817
0.631898
0.631766
0.631511
0.631496
0.631887
0.631736
0.631776
0.631664
0.631852
0.631803
0.631642
0.631806
0.631676
0.631786
0.631677
0.631639
0.632016
0.631878
0.631861
0.63186
0.631789
0.63168
0.631937
0.631812
0.631726
0.631681
0.631668
0.631885
0.631664
0.631874
0.631673
0.63149
0.631679
0.631549
0.631833
0.631664
0.632016
0.631673
0.631823
0.631659
0.631819
0.631672
0.631756
0.631486
0.631746
0.631663
0.631882
0.631661
0.631726
0.631821
0.631786
0.631672
0.631679
0.631696
0.631834
0.631678
0.631777
0.631756
0.631898
0.631679
0.631694
0.631733
0.631699
0.631675
0.6317
0.631848
0.631775
0.631696
0.631662
0.631788
0.631789
0.631677
0.631897
0.631379
0.631756
0.631552
0.631734
0.631142
0.631143
0.631145
0.631144
0.631144
0.631144
0.631147
0.631836
0.631926
0.631767
0.631724
0.631699
0.631698
0.631786
0.631696
0.631693
0.631928
0.631698
0.631855
0.631627
0.631849
0.631749
0.631723
0.631697
0.631888
0.631756
0.631726
0.631756
0.631726
0.631693
0.631633
0.631723
0.631752
0.631856
0.631703
0.631689
0.631701
0.63172
0.631751
0.631786
0.631701
0.631785
0.631746
0.631721
0.631777
0.631746
0.631697
0.631817
0.63173
0.631921
0.63149
0.631835
0.631848
0.631751
0.631732
0.631808
0.631386
0.631749
0.63173
0.631488
0.632015
0.632017
0.631755
0.631698
0.631735
0.631703
0.632089
0.632088
0.631775
0.631778
0.631776
0.631387
0.631692
0.631825
0.631722
0.631718
0.631721
0.631376
0.631817
0.631696
0.631754
0.631754
0.631717
0.631725
0.631717
0.631722
0.631458
0.63155
0.631725
0.631756
0.63173
0.631716
0.631728
0.631733
0.63173
0.631491
0.631862
0.6317
0.631807
0.631819
0.631489
0.631751
0.631747
0.631899
0.632008
0.632008
0.631878
0.631691
0.631754
0.631484
0.631999
0.632075
0.632074
0.631371
0.631951
0.63197
0.631749
0.631871
0.631766
0.631788
0.631818
0.631832
0.631778
0.631384
0.631758
0.631804
0.631824
0.631433
0.631955
0.631483
0.63182
0.631792
0.631669
0.631764
0.631776
0.6319
0.63178
0.6319
0.631754
0.631825
0.631964
0.631968
0.631487
0.631794
0.631377
0.631387
0.631365
0.631817
0.631382
0.631356
0.631716
0.63137
0.631921
0.631921
0.631379
0.63173
0.631462
0.631377
0.631452
0.631375
0.631452
0.631954
0.631471
0.631383
0.631376
0.631774
0.631841
0.631445
0.631774
0.631357
0.631787
0.631734
0.631372
0.631438
0.631364
0.631371
0.631746
0.631929
0.632065
0.632059
0.631794
0.632064
0.632064
0.632061
0.632025
0.631479
0.63196
0.631882
0.631931
0.63179
0.632036
0.632035
0.631939
0.631366
0.63173
0.631377
0.631478
0.631476
0.631993
0.631992
0.631989
0.63199
0.631992
0.632059
0.631993
0.632037
0.63207
0.631997
0.631997
0.632072
0.63206
0.632038
0.631988
SCALARS rr_(P) float
LOOKUP_TABLE default
0.0120929
0.0120622
0.0120649
0.0120627
0.0120545
0.012065
0.012093
0.0120631
0.0120675
0.0120623
0.0120908
0.0120631
0.0120638
0.0120619
0.0120573
0.0120645
0.0120608
0.0120635
0.0120689
0.0120657
0.0120661
0.0120439
0.0120661
0.0120656
0.0120657
0.0120629
0.0120866
0.0120646
0.0120772
0.01205
0.0120639
0.0120772
0.012087
0.0120519
0.012051
0.0120519
0.0120497
0.0120514
0.0120639
0.0120869
0.0120773
0.0120496
0.0120496
0.0120639
0.0120841
0.0120768
0.0120682
0.012067
0.0120649
0.0120791
0.012078
0.0120741
0.0120549
0.0120741
0.0120551
0.0120832
0.012051
0.012074
0.012051
0.0120655
0.0120609
0.0120584
0.0120847
0.0120586
0.0120583
0.0120608
0.0120608
0.0120629
0.0120659
0.0120621
0.0120549
0.0120549
0.0120773
0.0120599
0.0120648
0.0120883
0.0120567
0.0120609
0.012063
0.0120734
0.0120798
0.0120535
0.0120596
0.0120806
0.0120763
0.0120837
0.0120646
0.0120604
0.012084
0.0120454
0.0120741
0.0120454
0.0120565
0.0120612
0.0120738
0.0120783
0.0120797
0.0120624
0.0120568
0.0120641
0.0120706
0.0120756
0.0120807
0.0120632
0.0120626
0.0120626
0.0120592
0.0120643
0.0120807
0.0120617
0.0120655
0.0120831
0.0120817
0.0120633
0.0120627
0.012074
0.012051
0.0120799
0.0120511
0.0120738
0.0120695
0.0120576
0.0120622
0.0120603
0.0120615
0.012057
0.0120521
0.0120624
0.0120797
0.0120738
0.0120549
0.0120624
0.0120598
0.0120623
0.0120756
0.0120509
0.0120814
0.0120636
0.0120596
0.012051
0.0120753
0.0120623
0.0120691
0.0120623
0.01208
0.0120628
0.0120627
0.0120649
0.012065
0.0120715
0.0120671
0.0120622
0.0120772
0.0120637
0.0120623
0.0120624
0.0120615
0.012075
0.0120749
0.0120638
0.012067
0.012077
0.0120833
0.012078
0.012075
0.0120625
0.012075
0.012075
0.0120772
0.0120749
0.0120565
0.012074
0.0120781
0.0120612
0.012074
0.0120594
0.0120565
0.0120632
0.0120548
0.0120625
0.0120772
0.0120624
0.0120624
0.0120752
0.0120603
0.0120783
0.0120603
0.0120592
0.0120564
0.0120624
0.0120603
0.0120794
0.012074
0.0120772
0.0120623
0.0120636
0.0120634
0.0120598
0.0120622
0.012061
0.0120622
0.0120685
0.0120732
0.0120598
0.0120772
0.0120596
0.0120609
0.0120758
0.012058
0.0120621
0.0120577
0.0120618
0.0120627
0.0120596
0.0120714
0.0120615
0.0120729
0.0120592
0.0120615
0.0120615
0.0120619
0.0120618
0.0120617
0.0120618
0.0120621
0.0120575
0.0120576
0.0120575
0.0120574
0.0120551
0.012055
0.0120717
0.012062
0.0120629
0.0120672
0.0120573
0.0120571
0.0120629
0.0120731
0.0120631
0.0120624
0.0120713
0.0120579
0.0120715
0.0120595
0.0120632
0.0120712
0.0120728
0.0120798
0.0120796
0.0120596
0.0120804
0.0120641
0.0120729
0.0120687
0.0120631
0.0120616
0.0120494
0.0120617
0.0120807
0.0120729
0.012063
0.0120631
0.0120733
0.0120616
0.0120689
0.0120495
0.0120728
0.0120615
0.0120605
0.0120634
0.0120573
0.0120604
0.0120549
0.0120638
0.0120826
0.0120838
0.0120557
0.0120661
0.0120631
0.0120715
0.0120579
0.0120612
0.0120729
0.0120611
0.0120705
0.0120626
0.0120705
0.012073
0.0120471
0.0120562
0.0120572
0.0120572
0.0120621
0.0120703
0.0120522
0.0120606
0.0120669
0.0120702
0.0120712
0.0120558
0.0120713
0.0120565
0.0120708
0.012084
0.0120704
0.0120801
0.0120592
0.0120713
0.0120471
0.0120708
0.0120599
0.0120717
0.0120601
0.0120709
0.0120646
0.0120852
0.0120652
0.0120714
0.0120559
0.0120715
0.0120668
0.0120602
0.0120621
0.0120709
0.0120703
0.012069
0.0120592
0.0120704
0.0120632
0.0120646
0.012055
0.0120703
0.0120692
0.0120664
0.0120689
0.0120707
0.0120688
0.0120583
0.0120632
0.0120691
0.0120715
0.0120624
0.0120623
0.0120705
0.012055
0.0120919
0.0120647
0.0120798
0.0120663
0.0121079
0.0121079
0.0121077
0.0121077
0.0121076
0.012108
0.0121079
0.012059
0.0120531
0.0120637
0.012067
0.0120687
0.0120689
0.0120626
0.0120691
0.0120692
0.012053
0.0120689
0.0120578
0.0120741
0.0120579
0.012065
0.012067
0.012069
0.0120557
0.0120647
0.0120668
0.0120647
0.0120668
0.0120691
0.0120735
0.012067
0.012065
0.0120577
0.0120684
0.0120694
0.0120685
0.0120672
0.012065
0.0120625
0.0120686
0.0120626
0.0120653
0.0120671
0.0120631
0.0120652
0.0120689
0.0120602
0.0120665
0.0120533
0.012084
0.0120591
0.0120583
0.012065
0.0120665
0.0120609
0.0120915
0.012065
0.0120666
0.012085
0.0120473
0.0120472
0.0120647
0.0120687
0.0120662
0.0120684
0.0120428
0.0120428
0.012063
0.012063
0.0120632
0.0120916
0.0120692
0.0120597
0.0120672
0.0120674
0.0120672
0.012092
0.0120603
0.0120689
0.0120648
0.0120648
0.0120675
0.0120669
0.0120675
0.0120672
0.0120867
0.0120801
0.0120669
0.0120647
0.0120665
0.0120676
0.0120667
0.0120663
0.0120665
0.012084
0.0120573
0.0120686
0.012061
0.0120602
0.0120841
0.0120649
0.0120652
0.0120549
0.0120475
0.0120475
0.0120562
0.0120693
0.0120649
0.0120844
0.0120481
0.0120434
0.0120434
0.0120924
0.0120514
0.01205
0.0120652
0.0120567
0.0120637
0.0120621
0.0120601
0.0120593
0.0120632
0.0120916
0.0120644
0.0120612
0.0120598
0.0120885
0.012051
0.0120856
0.0120599
0.0120621
0.012071
0.0120639
0.0120633
0.0120546
0.0120629
0.0120547
0.0120647
0.0120598
0.0120505
0.0120503
0.0120844
0.0120617
0.0120935
0.0120929
0.0120941
0.0120604
0.0120919
0.0120948
0.0120676
0.0120938
0.0120534
0.0120534
0.0120934
0.0120663
0.0120867
0.0120937
0.0120872
0.0120938
0.0120872
0.0120512
0.0120855
0.0120918
0.0120934
0.0120634
0.0120587
0.0120877
0.0120633
0.0120945
0.0120623
0.0120661
0.012094
0.0120882
0.0120944
0.0120924
0.0120653
0.0120529
0.0120439
0.0120443
0.0120618
0.012044
0.012044
0.0120442
0.0120465
0.0120849
0.0120507
0.012056
0.0120528
0.0120622
0.0120459
0.0120459
0.0120523
0.0120927
0.0120664
0.0120924
0.0120861
0.0120858
0.0120484
0.0120485
0.0120487
0.0120486
0.0120484
0.0120444
0.0120487
0.0120459
0.0120439
0.0120484
0.0120483
0.0120437
0.0120444
0.0120458
0.0120489
SCALARS rr_(T) float
LOOKUP_TABLE default
0.0257435
0.025767
0.0257647
0.0257664
0.0257766
0.0257647
0.0257434
0.0257665
0.0257626
0.025767
0.0257443
0.0257665
0.0257658
0.0257676
0.025773
0.025765
0.0257688
0.025766
0.0257614
0.025764
0.0257638
0.0257905
0.0257638
0.0257642
0.025764
0.0257665
0.0257478
0.0257653
0.0257548
0.0257823
0.0257657
0.0257549
0.0257475
0.02578
0.0257809
0.02578
0.0257827
0.0257804
0.0257657
0.0257476
0.0257548
0.0257828
0.0257828
0.0257657
0.0257495
0.0257551
0.025762
0.025763
0.025765
0.0257533
0.0257542
0.0257573
0.0257761
0.0257573
0.0257758
0.0257504
0.025781
0.0257573
0.025781
0.0257642
0.0257687
0.0257715
0.0257495
0.0257714
0.0257716
0.0257691
0.0257688
0.0257666
0.0257639
0.0257672
0.025776
0.025776
0.0257548
0.0257702
0.0257647
0.0257464
0.0257738
0.0257691
0.0257666
0.0257578
0.025753
0.0257777
0.0257702
0.0257522
0.0257556
0.0257499
0.0257652
0.0257697
0.0257496
0.0257888
0.0257573
0.0257888
0.025774
0.0257689
0.0257575
0.025754
0.025753
0.0257669
0.0257737
0.0257655
0.02576
0.0257561
0.0257522
0.0257661
0.0257669
0.0257666
0.0257708
0.0257653
0.0257522
0.0257675
0.0257643
0.0257503
0.0257514
0.025766
0.0257665
0.0257574
0.025781
0.0257529
0.0257809
0.0257575
0.0257609
0.0257725
0.025767
0.0257694
0.0257678
0.0257735
0.0257797
0.0257669
0.025753
0.0257575
0.0257762
0.0257668
0.0257699
0.0257669
0.0257562
0.0257811
0.0257518
0.0257662
0.0257702
0.0257811
0.0257564
0.0257676
0.0257614
0.0257672
0.0257529
0.0257665
0.0257673
0.0257651
0.0257646
0.0257593
0.0257631
0.025767
0.0257548
0.0257658
0.0257672
0.0257668
0.0257681
0.0257566
0.0257567
0.0257656
0.025763
0.025755
0.0257501
0.0257542
0.0257566
0.0257667
0.0257566
0.0257566
0.0257548
0.0257567
0.0257741
0.0257573
0.0257541
0.0257683
0.0257574
0.0257707
0.0257741
0.0257667
0.0257762
0.0257671
0.0257549
0.0257668
0.0257668
0.0257565
0.0257697
0.025754
0.0257694
0.0257709
0.0257743
0.0257669
0.0257698
0.0257533
0.0257574
0.0257548
0.0257669
0.0257658
0.025766
0.0257699
0.025767
0.025769
0.0257671
0.0257617
0.0257579
0.0257699
0.0257549
0.0257701
0.0257691
0.025756
0.0257724
0.0257671
0.0257726
0.0257681
0.0257668
0.0257702
0.0257594
0.0257684
0.0257582
0.0257708
0.0257677
0.0257677
0.0257673
0.0257674
0.0257674
0.0257674
0.0257675
0.0257727
0.0257726
0.0257727
0.0257727
0.0257759
0.025776
0.0257592
0.0257675
0.025766
0.0257628
0.025773
0.0257731
0.0257661
0.025758
0.0257658
0.0257669
0.0257595
0.0257725
0.0257594
0.0257703
0.0257657
0.0257595
0.0257583
0.025753
0.025753
0.0257701
0.0257525
0.0257654
0.0257581
0.0257616
0.0257658
0.0257676
0.0257831
0.0257675
0.0257524
0.0257582
0.025766
0.0257667
0.0257579
0.0257676
0.0257615
0.0257831
0.0257582
0.0257678
0.0257693
0.0257659
0.0257729
0.0257696
0.0257761
0.0257657
0.0257508
0.0257498
0.0257752
0.0257637
0.0257667
0.0257594
0.0257726
0.0257683
0.0257582
0.0257688
0.0257601
0.0257674
0.0257601
0.0257581
0.0257863
0.0257745
0.0257731
0.0257731
0.0257674
0.0257603
0.0257795
0.0257691
0.0257632
0.0257604
0.0257596
0.0257751
0.0257594
0.0257741
0.0257598
0.0257496
0.0257603
0.0257528
0.025771
0.0257595
0.0257862
0.0257598
0.0257702
0.0257592
0.0257696
0.0257598
0.025765
0.0257492
0.0257644
0.0257594
0.0257749
0.0257593
0.0257633
0.0257698
0.0257671
0.0257598
0.0257602
0.0257614
0.0257709
0.0257602
0.0257665
0.0257653
0.025776
0.0257602
0.0257612
0.0257636
0.0257615
0.02576
0.0257616
0.0257721
0.0257665
0.0257613
0.0257594
0.0257674
0.0257675
0.0257602
0.025776
0.0257435
0.0257653
0.0257529
0.0257638
0.0257303
0.0257303
0.0257305
0.0257304
0.0257304
0.0257303
0.0257304
0.0257711
0.0257786
0.0257659
0.0257632
0.0257616
0.0257615
0.0257673
0.0257614
0.0257612
0.0257786
0.0257615
0.0257725
0.0257573
0.025772
0.0257648
0.0257631
0.0257614
0.0257752
0.0257652
0.0257633
0.0257653
0.0257633
0.0257612
0.0257577
0.0257631
0.025765
0.0257726
0.0257619
0.0257609
0.0257617
0.0257629
0.0257649
0.0257674
0.0257617
0.0257673
0.0257645
0.025763
0.0257668
0.0257645
0.0257614
0.0257695
0.0257635
0.0257781
0.0257496
0.025771
0.0257721
0.0257649
0.0257635
0.0257689
0.0257438
0.0257648
0.0257634
0.0257493
0.0257861
0.0257862
0.0257652
0.0257615
0.0257637
0.0257618
0.0257923
0.0257923
0.0257663
0.0257667
0.0257667
0.0257438
0.0257611
0.02577
0.0257628
0.0257626
0.0257629
0.0257433
0.0257697
0.0257614
0.0257651
0.0257651
0.0257626
0.0257632
0.0257626
0.0257628
0.0257477
0.0257528
0.0257632
0.0257652
0.0257634
0.0257624
0.0257633
0.0257637
0.0257634
0.0257496
0.0257733
0.0257617
0.0257688
0.0257698
0.0257495
0.0257647
0.0257645
0.025776
0.0257858
0.0257858
0.0257746
0.025761
0.0257651
0.0257492
0.025785
0.0257912
0.0257911
0.025743
0.0257804
0.0257824
0.0257648
0.0257739
0.0257657
0.0257672
0.0257697
0.0257708
0.0257668
0.0257437
0.0257652
0.0257686
0.02577
0.0257463
0.0257811
0.025749
0.0257698
0.0257675
0.0257597
0.0257655
0.0257665
0.0257765
0.0257668
0.0257764
0.0257649
0.0257702
0.0257818
0.0257821
0.0257493
0.0257678
0.0257432
0.0257437
0.0257426
0.0257696
0.0257435
0.025742
0.0257625
0.0257428
0.0257779
0.0257778
0.0257433
0.0257635
0.0257478
0.0257431
0.0257473
0.025743
0.0257473
0.0257807
0.0257485
0.0257436
0.0257432
0.0257664
0.0257715
0.0257469
0.0257666
0.0257422
0.0257674
0.0257637
0.0257428
0.0257466
0.0257424
0.025743
0.0257646
0.0257786
0.0257905
0.02579
0.025768
0.0257904
0.0257904
0.0257902
0.0257872
0.0257489
0.0257815
0.0257749
0.0257788
0.0257676
0.025788
0.025788
0.0257794
0.0257428
0.0257634
0.0257432
0.0257487
0.0257487
0.0257844
0.0257843
0.025784
0.0257841
0.0257844
0.0257898
0.0257842
0.0257881
0.0257907
0.0257846
0.0257847
0.0257908
0.0257899
0.0257881
0.025784
SCALARS rr_tsim float
LOOKUP_TABLE default
80
80
80
80
80
80
80
80
80
80
80
80
80
80
80
80
80
80
80
80
80
80
80
80
80
80
80
80
80
80
80
80
80
80
80
80
80
80
80
80
80
80
80
80
80
80
80
80
80
80
80
80
80
80
80
80
80
80
80
80
80
80
80
80
80
80
80
80
80
80
80
80
80
80
80
80
80
80
80
80
80
80
80
80
80
80
80
80
80
80
80
80
80
80
80
80
80
80
80
80
80
80
80
80
80
80
80
80
80
80
80
80
80
80
80
80
80
80
80
80
80
80
80
80
80
80
80
80
80
80
80
80
80
80
80
80
80
80
80
80
80
80
80
80
80
80
80
80
80
80
80
80
80
80
80
80
80
80
80
80
80
80
80
80
80
80
80
80
80
80
80
80
80
80
80
80
80
80
80
80
80
80
80
80
80
80
80
80
80
80
80
80
80
80
80
80
80
80
80
80
80
80
80
80
80
80
80
80
80
80
80
80
80
80
80
80
80
80
80
80
80
80
80
80
80
80
80
80
80
80
80
80
80
80
80
80
80
80
80
80
80
80
80
80
80
80
80
80
80
80
80
80
80
80
80
80
80
80
80
80
80
80
80
80
80
80
80
80
80
80
80
80
80
80
80
80
80
80
80
80
80
80
80
80
80
80
80
80
80
80
80
80
80
80
80
80
80
80
80
80
80
80
80
80
80
80
80
80
80
80
80
80
80
80
80
80
80
80
80
80
80
80
80
80
80
80
80
80
80
80
80
80
80
80
80
80
80
80
80
80
80
80
80
80
80
80
80
80
80
80
80
80
80
80
80
80
80
80
80
80
80
80
80
80
80
80
80
80
80
80
80
80
80
80
80
80
80
80
80
80
80
80
80
80
80
80
80
80
80
80
80
80
80
80
80
80
80
80
80
80
80
80
80
80
80
80
80
80
80
80
80
80
80
80
80
80
80
80
80
80
80
80
80
80
80
80
80
80
80
80
80
80
80
80
80
80
80
80
80
80
80
80
80
80
80
80
80
80
80
80
80
80
80
80
80
80
80
80
80
80
80
80
80
80
80
80
80
80
80
80
80
80
80
80
80
80
80
80
80
80
80
80
80
80
80
80
80
80
80
80
80
80
80
80
80
80
80
80
80
80
80
80
80
80
80
80
80
80
80
80
80
80
80
80
80
80
80
80
80
80
80
80
80
80
80
80
80
80
80
80
80
80
80
80
80
80
80
80
80
80
80
80
80
80
80
80
80
80
80
80
80
80
80
80
80
80
80
80
80
80
80
80
80
SCALARS rr_Vext float
LOOKUP_TABLE default
0.181362
0.449141
0.356062
0.468128
0.250499
0.377842
0.179278
0.465107
0.395121
0.504585
0.165393
0.466526
0.409841
0.43503
0.516152
0.424881
0.369057
0.4142
0.365545
0.360541
0.405124
0.0765115
0.415085
0.383029
0.347119
0.403487
0.155014
0.352847
0.267422
0.339254
0.361983
0.276494
0.171524
0.252907
0.249253
0.253458
0.330133
0.249496
0.361554
0.192841
0.224728
0.291056
0.291066
0.397287
0.216891
0.244128
0.344625
0.350197
0.330092
0.30377
0.312864
0.245245
0.401529
0.315217
0.369425
0.157758
0.266184
0.317527
0.266156
0.3932
0.470946
0.464888
0.153279
0.327653
0.445329
0.417389
0.455671
0.39192
0.357999
0.515576
0.435567
0.430803
0.277663
0.338756
0.353986
0.17643
0.372687
0.413491
0.395184
0.271142
0.240498
0.283514
0.52755
0.240257
0.327771
0.119295
0.407595
0.344621
0.229712
0.0374833
0.273102
0.0407613
0.316367
0.299323
0.258668
0.23299
0.220915
0.442948
0.372922
0.351869
0.293546
0.277779
0.230485
0.418592
0.426154
0.383847
0.340638
0.340861
0.244636
0.512538
0.326038
0.164043
0.220063
0.457896
0.429735
0.304492
0.308638
0.183514
0.320042
0.303376
0.266995
0.502665
0.51183
0.442056
0.484544
0.384964
0.22082
0.478228
0.200085
0.262288
0.227509
0.456412
0.449039
0.448266
0.288947
0.187541
0.190644
0.327452
0.404482
0.187464
0.24155
0.387304
0.28798
0.472775
0.223282
0.385204
0.349744
0.33614
0.214797
0.269555
0.30431
0.440643
0.248034
0.397426
0.462007
0.469261
0.307867
0.249016
0.247665
0.401151
0.333865
0.246125
0.160081
0.239712
0.240475
0.430972
0.252357
0.255109
0.274629
0.245947
0.386355
0.258192
0.226066
0.297725
0.272821
0.340317
0.382129
0.361146
0.313986
0.360858
0.266575
0.418262
0.448869
0.241622
0.442315
0.239447
0.43681
0.40275
0.378977
0.379429
0.446242
0.20078
0.266937
0.246024
0.447427
0.439037
0.407214
0.44791
0.452969
0.381878
0.466587
0.307727
0.274119
0.512749
0.285556
0.46597
0.369974
0.226662
0.28635
0.461742
0.389047
0.35032
0.450072
0.445271
0.278869
0.284231
0.267552
0.395466
0.433435
0.498111
0.478107
0.52039
0.471576
0.515306
0.432071
0.457216
0.460665
0.434368
0.456371
0.42293
0.416647
0.282421
0.389425
0.454313
0.312132
0.470287
0.432169
0.492679
0.288256
0.468295
0.448694
0.28451
0.406926
0.282479
0.455254
0.411305
0.296265
0.277687
0.235559
0.271105
0.455789
0.197507
0.347033
0.276537
0.313914
0.46869
0.455565
0.147791
0.457121
0.236438
0.261773
0.466288
0.37904
0.264594
0.522201
0.291241
0.147782
0.267733
0.406414
0.50894
0.382704
0.457769
0.42517
0.226621
0.216739
0.175983
0.201433
0.308143
0.229084
0.371994
0.227532
0.406404
0.287633
0.26811
0.323964
0.293532
0.398535
0.281496
0.287606
0.136372
0.30358
0.437824
0.438071
0.391539
0.281126
0.192363
0.545897
0.360501
0.298328
0.274301
0.284984
0.282739
0.358853
0.278101
0.192064
0.274801
0.183501
0.351078
0.279586
0.127093
0.263731
0.321348
0.279324
0.443685
0.29072
0.381482
0.138318
0.305673
0.287024
0.261631
0.269327
0.322003
0.308733
0.321058
0.266573
0.271173
0.293869
0.403614
0.276105
0.399037
0.3588
0.290804
0.286484
0.290133
0.323384
0.289922
0.270126
0.30854
0.333039
0.38788
0.290179
0.286363
0.425157
0.419263
0.276221
0.290843
0.117371
0.342075
0.227685
0.319692
0.126306
0.131124
0.117234
0.119131
0.126413
0.133078
0.137188
0.36583
0.275209
0.269673
0.305545
0.296217
0.292418
0.31472
0.286003
0.292397
0.31083
0.291324
0.368799
0.261072
0.378845
0.289113
0.277588
0.291606
0.322774
0.329005
0.304706
0.351061
0.326042
0.3004
0.213982
0.30387
0.298872
0.32829
0.305319
0.288528
0.275045
0.304074
0.319102
0.436175
0.283316
0.424015
0.438674
0.298875
0.422877
0.322486
0.255686
0.356805
0.307328
0.22951
0.185275
0.35336
0.37715
0.313443
0.259552
0.317023
0.138207
0.309874
0.289523
0.140572
0.0597495
0.0653763
0.268661
0.283303
0.331368
0.316597
0.0311311
0.0325289
0.318191
0.321553
0.304252
0.103726
0.264735
0.315913
0.315652
0.272085
0.24029
0.107865
0.464481
0.284955
0.352172
0.357683
0.255171
0.323456
0.249484
0.275489
0.129742
0.199386
0.323816
0.327761
0.280334
0.293573
0.303668
0.320515
0.306419
0.143964
0.275786
0.301363
0.290893
0.437501
0.143861
0.233739
0.24058
0.234529
0.155627
0.155631
0.267706
0.208514
0.301883
0.15386
0.185529
0.0614173
0.0614148
0.112312
0.199637
0.134974
0.257009
0.284545
0.297817
0.337011
0.307427
0.28524
0.222223
0.127174
0.278059
0.290589
0.282447
0.144132
0.147648
0.104631
0.281956
0.28598
0.224187
0.258258
0.23872
0.223796
0.29292
0.223762
0.257212
0.251394
0.158049
0.195244
0.165312
0.310656
0.112708
0.11892
0.115941
0.294542
0.107692
0.104734
0.200923
0.0979336
0.24316
0.243514
0.100661
0.255453
0.113725
0.11099
0.127157
0.10586
0.105725
0.174209
0.126244
0.112777
0.106279
0.235818
0.272666
0.118746
0.260324
0.0960782
0.264796
0.208179
0.100553
0.0864369
0.0948711
0.126463
0.225559
0.192184
0.0824433
0.0914082
0.253864
0.0775867
0.0775834
0.0878725
0.0979633
0.0995873
0.127336
0.207538
0.193798
0.253776
0.0775252
0.0775219
0.229257
0.0843482
0.17872
0.0765204
0.0783431
0.103273
0.198599
0.205599
0.21891
0.200663
0.198583
0.0438929
0.320386
0.0557544
0.0543423
0.259012
0.257242
0.056335
0.0390576
0.0548051
0.238564
SCALARS rr_Vli float
LOOKUP_TABLE default
0.396489
0.903309
0.721412
0.942914
0.493007
0.765674
0.392036
0.937682
0.806277
1.01513
0.359838
0.940554
0.827712
0.874164
1.02413
0.859739
0.739403
0.835925
0.748805
0.732062
0.82349
0.146196
0.843748
0.777635
0.704896
0.81315
0.333351
0.714265
0.560614
0.659806
0.731234
0.579534
0.369274
0.494396
0.485908
0.49551
0.641461
0.4869
0.730491
0.415068
0.471215
0.565334
0.565393
0.802524
0.463326
0.511152
0.704669
0.71358
0.668689
0.640148
0.657321
0.509714
0.791289
0.654961
0.728506
0.336096
0.518812
0.659763
0.518795
0.798056
0.943875
0.92504
0.327842
0.652225
0.88602
0.836205
0.91301
0.789783
0.727298
1.03672
0.858514
0.84916
0.582216
0.676859
0.716977
0.381185
0.738166
0.828448
0.796431
0.562486
0.507628
0.556453
1.05352
0.508337
0.685391
0.254581
0.825085
0.689494
0.490665
0.0719437
0.567534
0.0782465
0.626356
0.600266
0.537114
0.489906
0.466221
0.891225
0.738714
0.711157
0.604224
0.579679
0.487754
0.844121
0.858091
0.772723
0.679554
0.689388
0.517763
1.02966
0.661685
0.349481
0.467063
0.923832
0.865447
0.632498
0.601617
0.387414
0.624006
0.629998
0.547966
0.998323
1.02949
0.884288
0.972868
0.76326
0.431754
0.962248
0.422256
0.544652
0.448457
0.918491
0.89712
0.901834
0.602905
0.36554
0.404185
0.660939
0.807741
0.365417
0.503543
0.778943
0.590247
0.951071
0.471535
0.776074
0.70433
0.680962
0.435252
0.556274
0.620254
0.886318
0.519987
0.802507
0.929453
0.944273
0.617861
0.518662
0.515718
0.810207
0.680214
0.515664
0.341241
0.503643
0.500933
0.867525
0.52565
0.531448
0.575702
0.512241
0.764775
0.536479
0.475019
0.597032
0.566764
0.679108
0.756459
0.728167
0.618517
0.726381
0.558765
0.841646
0.903315
0.503627
0.884792
0.503413
0.873817
0.803292
0.749923
0.763398
0.892551
0.423348
0.554576
0.515696
0.900221
0.886311
0.821721
0.894914
0.911207
0.765279
0.938428
0.629681
0.568298
1.02455
0.598477
0.930563
0.741286
0.473245
0.569204
0.928585
0.772736
0.703613
0.906446
0.889148
0.575335
0.570478
0.554206
0.788791
0.870388
1.0003
0.961028
1.0456
0.947463
1.0354
0.868722
0.907707
0.914779
0.862354
0.905942
0.833938
0.821524
0.58301
0.782804
0.915919
0.636246
0.933131
0.857219
0.993037
0.597482
0.944381
0.902766
0.586742
0.80881
0.582781
0.908866
0.829737
0.610887
0.574987
0.49731
0.572067
0.910112
0.417618
0.70149
0.572852
0.64272
0.945269
0.914979
0.286929
0.918306
0.500201
0.542264
0.940113
0.76421
0.548655
1.04889
0.596683
0.286929
0.554506
0.815988
1.01857
0.772243
0.908476
0.850833
0.446605
0.437758
0.374437
0.429887
0.608689
0.465565
0.750001
0.46939
0.807677
0.576824
0.555346
0.649555
0.604002
0.802286
0.579185
0.596026
0.263021
0.600449
0.86852
0.869139
0.787218
0.578069
0.376391
1.09286
0.734309
0.613266
0.565373
0.562964
0.58313
0.710467
0.572683
0.4102
0.565173
0.387695
0.700134
0.576606
0.24515
0.543083
0.642121
0.576626
0.887251
0.598804
0.772183
0.296225
0.619811
0.592069
0.517045
0.555823
0.655887
0.617322
0.645558
0.549017
0.557654
0.602204
0.804995
0.567877
0.804516
0.726251
0.57316
0.589135
0.594783
0.657851
0.593802
0.556001
0.631815
0.662554
0.78219
0.594658
0.590816
0.855297
0.843318
0.568307
0.573283
0.256089
0.69261
0.480632
0.650111
0.287607
0.298551
0.266804
0.271173
0.287683
0.303057
0.312312
0.729352
0.539728
0.544572
0.622611
0.606508
0.59894
0.633527
0.586138
0.599491
0.609475
0.596719
0.732666
0.542551
0.753116
0.586011
0.565706
0.597472
0.637473
0.666121
0.620599
0.710724
0.664005
0.61575
0.444044
0.619305
0.605579
0.652011
0.624644
0.591875
0.562878
0.620025
0.646729
0.877927
0.579864
0.853558
0.88975
0.609284
0.852439
0.653937
0.523847
0.713551
0.625432
0.450405
0.395668
0.704476
0.750321
0.635208
0.528055
0.63526
0.301238
0.628029
0.589272
0.300915
0.115299
0.126127
0.544011
0.580104
0.673745
0.647669
0.0592776
0.0619391
0.641404
0.648095
0.613489
0.226114
0.542811
0.631019
0.643425
0.555021
0.489884
0.235471
0.929294
0.58374
0.713241
0.724391
0.520589
0.658856
0.508996
0.561654
0.279104
0.42118
0.65964
0.663716
0.57044
0.599131
0.618264
0.651901
0.62353
0.30743
0.547102
0.616839
0.583022
0.874911
0.30737
0.473539
0.48776
0.462245
0.300517
0.300537
0.529559
0.427597
0.611543
0.329008
0.358878
0.117177
0.117176
0.2454
0.389623
0.262496
0.521057
0.563545
0.601419
0.677655
0.614664
0.569076
0.448041
0.277252
0.562553
0.582807
0.564254
0.311559
0.287927
0.224286
0.563458
0.574857
0.461947
0.521754
0.481459
0.440841
0.590101
0.440802
0.520828
0.502153
0.307814
0.38003
0.353396
0.62399
0.246787
0.259981
0.254335
0.58929
0.234982
0.230139
0.410014
0.214645
0.477125
0.477847
0.220335
0.519617
0.244576
0.243124
0.273903
0.231959
0.227741
0.339832
0.270699
0.245998
0.232679
0.475754
0.543008
0.256118
0.525114
0.211013
0.532695
0.423224
0.220456
0.186664
0.208256
0.276321
0.457472
0.376611
0.157552
0.174883
0.509992
0.148308
0.148306
0.168049
0.188629
0.213207
0.248115
0.410278
0.379764
0.510347
0.149005
0.149004
0.448515
0.184463
0.363614
0.16715
0.168152
0.221555
0.384552
0.398198
0.424217
0.388781
0.384542
0.0840106
0.620735
0.107164
0.103829
0.501448
0.497968
0.107597
0.0747332
0.105301
0.462545
SCALARS rr_S_ext' float
LOOKUP_TABLE default
-0.00182276
-0.00416391
-0.00332471
-0.00434627
-0.00227406
-0.00352867
-0.00180227
-0.00432208
-0.003715
-0.00467933
-0.00165449
-0.00433531
-0.00381498
-0.0040297
-0.00472276
-0.00396237
-0.00340876
-0.00385291
-0.00344977
-0.00337356
-0.00379477
-0.000674912
-0.0038881
-0.00358359
-0.00324836
-0.00374809
-0.00153333
-0.00329185
-0.00258086
-0.00304444
-0.00337029
-0.00266797
-0.00169851
-0.00228088
-0.00224192
-0.00228602
-0.00295987
-0.00224643
-0.00336684
-0.00190916
-0.00216928
-0.00260862
-0.00260889
-0.00369887
-0.00213165
-0.00235326
-0.00324662
-0.00328804
-0.00308174
-0.0029465
-0.00302584
-0.00234719
-0.00364975
-0.00301608
-0.00336011
-0.00154645
-0.00239375
-0.00303819
-0.00239367
-0.00367772
-0.00435136
-0.00426548
-0.00150828
-0.00300746
-0.00408556
-0.00385506
-0.0042091
-0.0036404
-0.00335155
-0.0047789
-0.00395981
-0.00391666
-0.00268029
-0.0031207
-0.00330431
-0.00175308
-0.00340425
-0.0038193
-0.00367102
-0.00259035
-0.00233642
-0.00256692
-0.00485735
-0.00233949
-0.00315556
-0.00117131
-0.0038026
-0.00317883
-0.00225743
-0.000332082
-0.00261347
-0.000361173
-0.00288863
-0.00276725
-0.00247345
-0.00225512
-0.00214585
-0.00410817
-0.00340676
-0.0032777
-0.00278326
-0.00266904
-0.00224474
-0.00389077
-0.00395534
-0.00356188
-0.00313325
-0.0031773
-0.00238285
-0.00474647
-0.00304928
-0.00160802
-0.00214931
-0.00425812
-0.00398924
-0.00291267
-0.0027758
-0.00178312
-0.00287908
-0.00290118
-0.00252434
-0.00460361
-0.00474552
-0.00407691
-0.00448475
-0.00351984
-0.00199189
-0.00443555
-0.0019435
-0.00250815
-0.00206845
-0.00423381
-0.00413621
-0.00415706
-0.00277599
-0.00168656
-0.00186005
-0.00304637
-0.00372417
-0.00168599
-0.00231856
-0.00359066
-0.00271925
-0.00438406
-0.00217027
-0.00357723
-0.00324658
-0.00313831
-0.0020059
-0.00256218
-0.00285798
-0.00408556
-0.00239382
-0.00369884
-0.0042844
-0.00435267
-0.00284831
-0.00238825
-0.00237471
-0.00373429
-0.00313431
-0.00237397
-0.00157008
-0.00231841
-0.0023066
-0.00399887
-0.00242042
-0.00244711
-0.00265032
-0.00235868
-0.00352701
-0.00247047
-0.00218664
-0.00275236
-0.00260995
-0.00313117
-0.00348865
-0.00335634
-0.00285291
-0.00334827
-0.00257236
-0.00387963
-0.00416388
-0.00231896
-0.00407925
-0.00231731
-0.00402863
-0.00370382
-0.00345855
-0.00351895
-0.00411504
-0.00194858
-0.00255381
-0.00237408
-0.00414962
-0.00408511
-0.00378745
-0.00412604
-0.00420028
-0.00352806
-0.00432578
-0.00290107
-0.00261717
-0.00472371
-0.0027552
-0.00429045
-0.00341746
-0.00217894
-0.00262475
-0.00428042
-0.00356337
-0.00324355
-0.00417821
-0.00409951
-0.00264999
-0.00262987
-0.00255235
-0.00363695
-0.00401231
-0.00461116
-0.00443001
-0.00481991
-0.00436755
-0.00477291
-0.00400453
-0.0041858
-0.00421838
-0.00397665
-0.00417767
-0.0038464
-0.00378915
-0.0026853
-0.00360849
-0.00422169
-0.00293167
-0.00430311
-0.00395308
-0.00457718
-0.00275159
-0.00435284
-0.00416138
-0.00270257
-0.00372963
-0.00268429
-0.00419046
-0.00382438
-0.0028138
-0.00264808
-0.00228891
-0.00263301
-0.00419619
-0.00192203
-0.00323313
-0.00263822
-0.00296107
-0.00435692
-0.00421785
-0.001324
-0.00423316
-0.00230208
-0.00249734
-0.0043332
-0.00352247
-0.00252669
-0.00483513
-0.00274893
-0.001324
-0.00255374
-0.00376156
-0.00469594
-0.0035594
-0.00418939
-0.00392263
-0.00205993
-0.00201765
-0.00172293
-0.00197788
-0.00280734
-0.00214541
-0.00345698
-0.00216202
-0.00372442
-0.00265919
-0.0025576
-0.0029945
-0.00278228
-0.00369815
-0.00266797
-0.0027449
-0.0012139
-0.00276922
-0.00400518
-0.00400802
-0.00362883
-0.00266288
-0.00173642
-0.00503842
-0.00338359
-0.00282504
-0.0026042
-0.00259645
-0.00268593
-0.00327653
-0.00263795
-0.00188724
-0.00260346
-0.00178436
-0.00322818
-0.00265588
-0.00113142
-0.0025016
-0.00296052
-0.00265589
-0.00409061
-0.00275825
-0.0035588
-0.00136277
-0.00285639
-0.00272709
-0.00238463
-0.00256009
-0.00302223
-0.00284614
-0.00297579
-0.00252892
-0.00256883
-0.00277435
-0.00371167
-0.00261591
-0.00370826
-0.00334711
-0.00264366
-0.00271385
-0.00274013
-0.0030314
-0.00273569
-0.00256114
-0.00291083
-0.00305513
-0.00360533
-0.00273959
-0.0027213
-0.0039426
-0.00388739
-0.00261786
-0.00264422
-0.00117735
-0.00319204
-0.00221216
-0.00299577
-0.00132024
-0.00137048
-0.00122477
-0.00124481
-0.00132061
-0.00139116
-0.00143367
-0.00336293
-0.00248979
-0.00250997
-0.00286886
-0.00279424
-0.00275936
-0.00292026
-0.00270032
-0.00276181
-0.00281155
-0.00274912
-0.00337858
-0.00249841
-0.00347277
-0.00270066
-0.00260665
-0.00275257
-0.00294012
-0.00306997
-0.00285964
-0.00327554
-0.00305965
-0.00283672
-0.00204488
-0.00285361
-0.00279088
-0.00300667
-0.00287787
-0.00272667
-0.00259328
-0.00285689
-0.0029805
-0.00404684
-0.00267153
-0.0039345
-0.00410037
-0.00280742
-0.00392917
-0.00301366
-0.00241337
-0.00328977
-0.00288199
-0.00207771
-0.00182039
-0.00324824
-0.00345983
-0.00292741
-0.0024333
-0.00292865
-0.00138497
-0.00289431
-0.00271535
-0.00138436
-0.000532126
-0.000582103
-0.00250718
-0.00267259
-0.0031047
-0.00298396
-0.000273681
-0.000285969
-0.00295644
-0.0029873
-0.00282775
-0.00103959
-0.00250067
-0.00290937
-0.00296475
-0.00255735
-0.00225725
-0.00108254
-0.00428438
-0.00268931
-0.0032871
-0.00333849
-0.00239868
-0.00303591
-0.00234527
-0.00258795
-0.0012838
-0.00193849
-0.00303952
-0.00305886
-0.00262859
-0.00276055
-0.00284892
-0.003004
-0.00287323
-0.00141443
-0.00252298
-0.00284187
-0.00268781
-0.00403372
-0.00141413
-0.00218236
-0.00224785
-0.00213207
-0.0013869
-0.001387
-0.00244227
-0.00196989
-0.00281838
-0.00151364
-0.00165616
-0.000540967
-0.000540964
-0.00112815
-0.00179761
-0.0012112
-0.00240131
-0.00259894
-0.00277199
-0.00312376
-0.00283388
-0.00262387
-0.00206516
-0.00127469
-0.00259271
-0.00268676
-0.00260153
-0.00143284
-0.00132843
-0.00103179
-0.00259783
-0.00264993
-0.00212782
-0.00240478
-0.00221917
-0.00203336
-0.00272003
-0.00203318
-0.00240035
-0.00231523
-0.00142024
-0.00175347
-0.00162586
-0.00287647
-0.00113448
-0.0011952
-0.0011691
-0.00271685
-0.00108032
-0.00105782
-0.00188919
-0.000986689
-0.00220099
-0.00220432
-0.00101289
-0.00239442
-0.00112499
-0.00111763
-0.00125982
-0.00106629
-0.0010475
-0.00156792
-0.00124527
-0.00113098
-0.00106963
-0.00219286
-0.00250381
-0.00117797
-0.00242038
-0.000969917
-0.00245552
-0.00195027
-0.00101339
-0.000858489
-0.000957271
-0.0012703
-0.00210825
-0.00173738
-0.000727331
-0.000807312
-0.00235096
-0.000684648
-0.000684641
-0.000775773
-0.000870608
-0.000980844
-0.00114478
-0.0018922
-0.00175192
-0.00235252
-0.00068776
-0.000687754
-0.00206919
-0.000847985
-0.00167554
-0.000768436
-0.000773519
-0.00101919
-0.00177459
-0.00183755
-0.00195759
-0.00179408
-0.00177454
-0.000387813
-0.00286447
-0.000494633
-0.000479324
-0.00231404
-0.00229799
-0.000496722
-0.00034499
-0.000486043
-0.00213443
SCALARS rr_P_ext' float
LOOKUP_TABLE default
0.000110713
0.000256125
0.000204282
0.000267284
0.00014032
0.00021681
0.000109464
0.000265757
0.000228024
0.000287815
0.000100571
0.000266571
0.000234517
0.000247899
0.000291077
0.000243508
0.000209793
0.000236874
0.000211624
0.000207219
0.000233053
4.18236e-05
0.000238786
0.000220124
0.000199525
0.000230478
9.33739e-05
0.000202291
0.000157776
0.000188181
0.000207173
0.000163106
0.000103414
0.00014088
0.000138527
0.000141196
0.000182979
0.000138784
0.000206956
0.000116244
0.000132611
0.000161273
0.000161288
0.000227372
0.000129943
0.000143888
0.000199216
0.00020186
0.000189358
0.000179987
0.000184918
0.000143677
0.000225165
0.000184628
0.000207276
9.43078e-05
0.000147913
0.000185981
0.000147906
0.000225915
0.000267792
0.000262781
9.19241e-05
0.000185268
0.000251701
0.000237261
0.000259048
0.000223858
0.00020585
0.000293963
0.000244287
0.000241624
0.000163849
0.000192139
0.000203038
0.000106678
0.000209864
0.000235057
0.000225739
0.000158606
0.000142685
0.000158453
0.00029909
0.000142821
0.000192982
7.14123e-05
0.000233677
0.00019568
0.000137612
2.05659e-05
0.000159979
2.2367e-05
0.000178089
0.000170287
0.000151426
0.0001378
0.00013105
0.00025268
0.000210015
0.000201467
0.000170616
0.000163278
0.000137033
0.000239229
0.000243253
0.000219062
0.000192957
0.000195276
0.000145461
0.000292009
0.000187314
9.80637e-05
0.000131149
0.000261798
0.000245331
0.000178305
0.000171518
0.000108892
0.000177893
0.00017761
0.000154812
0.000283693
0.000291897
0.00025097
0.000275932
0.00021696
0.000123026
0.000272815
0.000118692
0.00015355
0.000127606
0.000260402
0.000254669
0.000255692
0.000169824
0.000104215
0.000113516
0.000187284
0.000229315
0.000104178
0.00014186
0.000220862
0.000166797
0.000269656
0.000132527
0.000219981
0.00019966
0.000192833
0.000123248
0.000157003
0.000175451
0.000251303
0.000146342
0.000227382
0.000263524
0.000267715
0.000175255
0.000146142
0.000145319
0.000229555
0.000192426
0.000145142
9.5741e-05
0.000141685
0.000141144
0.00024594
0.00014811
0.00014974
0.000162023
0.000144334
0.000217452
0.000151229
0.00013363
0.00016937
0.000159771
0.000192821
0.000215085
0.000206374
0.000176014
0.000205928
0.00015726
0.000238619
0.000256099
0.000141887
0.000251114
0.000141603
0.000247997
0.000228101
0.000213242
0.00021644
0.000253321
0.000119018
0.000156334
0.000145138
0.000255231
0.000251138
0.000232854
0.00025404
0.000258355
0.000217126
0.000266081
0.000177993
0.000160263
0.000290835
0.00016844
0.000264182
0.000210326
0.000133286
0.000161726
0.000263296
0.000219585
0.000199551
0.000256951
0.000252428
0.000162391
0.000161812
0.000156314
0.000223982
0.000246858
0.000283701
0.000272518
0.000296521
0.000268694
0.000293628
0.000246331
0.00025796
0.000259959
0.000245071
0.000257463
0.000237278
0.000233748
0.00016454
0.000221977
0.00025959
0.000179972
0.000265213
0.000243651
0.000281459
0.0001685
0.000267643
0.000255953
0.000165622
0.000229808
0.000164492
0.000258037
0.000235138
0.000172443
0.000162186
0.000139779
0.000160806
0.000258382
0.000117347
0.000198723
0.000161571
0.000181659
0.00026789
0.000259497
8.1859e-05
0.000260431
0.000140538
0.000152944
0.000266445
0.00021659
0.000154718
0.000297472
0.000168628
8.18582e-05
0.000156402
0.000231437
0.000289057
0.000218834
0.000258196
0.000241459
0.000127083
0.000124029
0.000105092
0.000120586
0.000173135
0.000131762
0.000212563
0.000132489
0.000229491
0.000163636
0.000156636
0.000184276
0.000170563
0.000227444
0.000163557
0.000168095
7.51234e-05
0.000170752
0.000246858
0.000247028
0.00022322
0.00016326
0.000107237
0.000310123
0.000207738
0.000173209
0.000159606
0.000160127
0.000164601
0.000202004
0.000161697
0.000115048
0.000159613
0.000108955
0.000198813
0.00016276
7.00181e-05
0.000153339
0.000182276
0.000162737
0.000251826
0.000169065
0.000218696
8.30388e-05
0.000175487
0.000167119
0.000147056
0.000156875
0.000185552
0.000175216
0.00018305
0.000155011
0.000157492
0.000170181
0.000228586
0.000160375
0.000228014
0.000205689
0.000163092
0.000166383
0.000168072
0.000186151
0.000167823
0.000157
0.000178572
0.000188222
0.000221678
0.000168048
0.00016676
0.000242501
0.00023911
0.000160487
0.000163124
7.15354e-05
0.00019615
0.000135094
0.000183972
7.96707e-05
8.27039e-05
7.39161e-05
7.51235e-05
7.9701e-05
8.3949e-05
8.65184e-05
0.00020712
0.000153712
0.000154298
0.000176126
0.000171423
0.000169273
0.000179603
0.000165638
0.000169399
0.000173582
0.000168645
0.000208191
0.000152936
0.000213978
0.000165929
0.000160025
0.000168849
0.000181328
0.000188649
0.000175572
0.000201284
0.000187854
0.000174001
0.000125202
0.000175185
0.00017148
0.000185281
0.000176575
0.000167231
0.000159106
0.000175373
0.000183125
0.000248894
0.000163904
0.00024198
0.000251903
0.000172343
0.000241604
0.000185148
0.000148043
0.000202523
0.000176965
0.000128258
0.000110974
0.000200056
0.000213155
0.000179865
0.000149419
0.000180239
8.41637e-05
0.000177829
0.000166729
8.43608e-05
3.29285e-05
3.60223e-05
0.000154064
0.000163958
0.000190665
0.000183086
1.69693e-05
1.77311e-05
0.000181791
0.000183692
0.00017387
6.31731e-05
0.000153381
0.000179137
0.000182002
0.000156976
0.000138567
6.57694e-05
0.000263736
0.000164973
0.000201983
0.000205142
0.000147234
0.000186391
0.000143954
0.000158867
7.81736e-05
0.000118369
0.000186611
0.000187963
0.000161408
0.000169437
0.000174922
0.000184473
0.000176429
8.62262e-05
0.000155501
0.000174354
0.000165412
0.000248322
8.62011e-05
0.000134094
0.000138103
0.000131531
8.58152e-05
8.58203e-05
0.00015059
0.000120822
0.000173176
9.22549e-05
0.00010245
3.35306e-05
3.35302e-05
6.85308e-05
0.000111056
7.48662e-05
0.000147531
0.000160221
0.000170403
0.00019215
0.000174464
0.000161585
0.000126983
7.7459e-05
0.000159339
0.000165331
0.000160179
8.71846e-05
8.20806e-05
6.28619e-05
0.000159944
0.000163011
0.000130416
0.00014782
0.000136446
0.000125453
0.000167269
0.000125441
0.000147498
0.000142553
8.77697e-05
0.000108372
9.90987e-05
0.000176967
6.88904e-05
7.25954e-05
7.09721e-05
0.000167242
6.56389e-05
6.41995e-05
0.000115956
5.9907e-05
0.00013587
0.000136074
6.15104e-05
0.000147037
6.85066e-05
6.78626e-05
7.66981e-05
6.47423e-05
6.37715e-05
9.68718e-05
7.58658e-05
6.87201e-05
6.49538e-05
0.000134822
0.000154233
7.17003e-05
0.000148813
5.88696e-05
0.000151034
0.000119772
6.15247e-05
5.22444e-05
5.81062e-05
7.71657e-05
0.000129519
0.000107271
4.50712e-05
5.00193e-05
0.000144633
4.24246e-05
4.2424e-05
4.8068e-05
5.38913e-05
5.97707e-05
7.07413e-05
0.000116683
0.00010817
0.000144707
4.25839e-05
4.25833e-05
0.000127789
5.15047e-05
0.000102888
4.66811e-05
4.71174e-05
6.20871e-05
0.00010976
0.000113651
0.000121065
0.000110956
0.000109756
2.40267e-05
0.000177155
3.06262e-05
2.97037e-05
0.00014313
0.000142139
3.07834e-05
2.13746e-05
3.00958e-05
0.000131992
SCALARS rr_S' float
LOOKUP_TABLE default
0.00163837
0.00374371
0.00298913
0.00390765
0.0020447
0.0031725
0.00161996
0.00388588
0.00333995
0.00420711
0.00148714
0.00389778
0.00342995
0.00362305
0.00424633
0.00356244
0.0030648
0.00346405
0.00310146
0.00303303
0.00341171
0.00060689
0.00349562
0.00322185
0.00292046
0.00336983
0.0013783
0.0029596
0.00232011
0.00273747
0.00303014
0.00239842
0.00152677
0.00205087
0.00201586
0.00205549
0.00266143
0.00201991
0.00302704
0.00171612
0.00195011
0.0023456
0.00234585
0.00332556
0.00191616
0.00211551
0.00291884
0.00295611
0.00277069
0.00264876
0.00272011
0.00211011
0.00328163
0.00271143
0.0030212
0.00139014
0.00215238
0.00273131
0.0021523
0.00330649
0.00391228
0.00383515
0.0013558
0.00270405
0.00367338
0.00346606
0.00378438
0.00327301
0.00301323
0.00429663
0.00356041
0.00352161
0.00240949
0.00280583
0.00297079
0.0015758
0.00306084
0.00343391
0.00330054
0.00232872
0.00210032
0.00230804
0.00436726
0.00210306
0.00283677
0.00105291
0.00341879
0.00285808
0.00202923
0.000298609
0.00234949
0.000324768
0.00259724
0.00248801
0.00222362
0.00202726
0.00192901
0.00369359
0.00306311
0.00294689
0.00250221
0.00239941
0.00201789
0.0034981
0.00355617
0.00320242
0.00281712
0.00285662
0.00214204
0.00426749
0.00274149
0.00144548
0.00193208
0.00382837
0.00358665
0.00261847
0.00249591
0.00160293
0.00258877
0.00260814
0.00226946
0.00413919
0.00426662
0.00366554
0.00403218
0.00316476
0.00179102
0.00398793
0.00174711
0.00225482
0.00185981
0.00380655
0.00371887
0.00373755
0.00249557
0.0015165
0.00167206
0.00273892
0.00334841
0.00151598
0.00208435
0.00322831
0.00244469
0.00394163
0.00195096
0.00321621
0.00291894
0.00282154
0.00180343
0.00230343
0.00256946
0.00367326
0.00215196
0.00332553
0.00385203
0.00391341
0.00256088
0.002147
0.00213483
0.0033574
0.0028179
0.00213412
0.00141137
0.00208416
0.0020736
0.00359532
0.00217592
0.00219992
0.00238255
0.00212042
0.00317122
0.00222093
0.00196571
0.00247462
0.00234633
0.00281525
0.00313673
0.00301761
0.00256516
0.00301037
0.00231247
0.00348811
0.00374367
0.0020847
0.00366765
0.00208316
0.00362214
0.00333013
0.00310968
0.00316383
0.00369983
0.00175168
0.00229586
0.00213422
0.00373085
0.00367281
0.0034052
0.00370973
0.0037764
0.00317206
0.00388924
0.00260817
0.00235284
0.00424709
0.00247683
0.00385756
0.00307262
0.00195882
0.00235995
0.00384846
0.00320389
0.00291624
0.00375655
0.00368588
0.00238238
0.00236449
0.00229457
0.00327001
0.00360742
0.00414583
0.00398295
0.00433352
0.00392681
0.00429126
0.00360041
0.00376353
0.00379282
0.00357548
0.00375622
0.00345844
0.00340696
0.00241411
0.00324434
0.00379562
0.00263572
0.00386901
0.0035543
0.00411524
0.00247368
0.00391354
0.00374142
0.00242966
0.00335337
0.00241322
0.00376766
0.0034384
0.00252965
0.00238064
0.00205761
0.00236694
0.00377281
0.0017278
0.00290682
0.00237176
0.00266211
0.00391721
0.00379221
0.00119051
0.00380598
0.00206943
0.00224511
0.00389588
0.00316698
0.0022715
0.00434721
0.00247138
0.00119051
0.00229582
0.00338197
0.00422211
0.00320017
0.00376676
0.00352683
0.00185216
0.00181402
0.00154878
0.00177794
0.00252417
0.00192884
0.0031081
0.00194369
0.00334869
0.00239086
0.00229929
0.00269233
0.00250133
0.00332494
0.00239856
0.00246767
0.00109153
0.00248989
0.00360113
0.00360369
0.00326263
0.00239399
0.00156131
0.00453002
0.00304202
0.00253978
0.00234122
0.00233455
0.00241469
0.00294601
0.00237157
0.00169646
0.00234057
0.00160404
0.00290248
0.00238767
0.00101737
0.00224899
0.0026618
0.00238768
0.00367786
0.00247972
0.0031996
0.001225
0.00256807
0.00245169
0.00214409
0.00230156
0.00271713
0.00255896
0.00267549
0.00227355
0.00230944
0.00249423
0.00333719
0.00235176
0.00333402
0.00300928
0.00237701
0.00243981
0.00246346
0.00272539
0.00245948
0.00230252
0.00261694
0.00274691
0.00324147
0.00246298
0.00244648
0.00354473
0.00349509
0.00235351
0.00237752
0.00105826
0.00286985
0.00198861
0.00269336
0.00118651
0.00123166
0.00110071
0.00111872
0.00118685
0.00125025
0.00128845
0.00302363
0.00223869
0.00225665
0.00257925
0.00251212
0.00248076
0.00262555
0.00242768
0.00248295
0.00252801
0.00247155
0.00303774
0.00224606
0.00312242
0.00242806
0.0023435
0.00247465
0.00264355
0.0027601
0.00257096
0.00294493
0.00275078
0.00255031
0.00183834
0.00256553
0.00250918
0.00270335
0.00258731
0.00245136
0.00233145
0.00256848
0.00267966
0.00363844
0.0024018
0.00353744
0.00368648
0.002524
0.00353263
0.00270947
0.0021697
0.00295783
0.00259106
0.00186817
0.00163637
0.00292052
0.00311078
0.00263193
0.00218767
0.00263313
0.00124488
0.00260217
0.00244124
0.00124441
0.000478482
0.000523421
0.00225412
0.00240276
0.0027913
0.0026827
0.000246101
0.00025715
0.00265807
0.00268582
0.00254237
0.00093443
0.00224818
0.00261582
0.00266545
0.00229918
0.00202938
0.000973034
0.00385208
0.00241778
0.00295532
0.00300152
0.00215653
0.00272944
0.0021085
0.00232669
0.00115399
0.0017426
0.00273267
0.00275012
0.00236324
0.00248186
0.00256132
0.00270076
0.00258318
0.00127145
0.00226846
0.00255494
0.00241659
0.00362672
0.00127117
0.00196209
0.00202096
0.00191702
0.00124709
0.00124717
0.00219591
0.00177099
0.00253391
0.00136062
0.00148919
0.000486447
0.000486444
0.00101403
0.00161635
0.00108907
0.00215892
0.00233677
0.00249222
0.00280852
0.00254794
0.00235914
0.00185674
0.00114575
0.00233103
0.00241565
0.00233904
0.00128795
0.00119448
0.000927475
0.00233572
0.00238252
0.00191295
0.00216207
0.00199521
0.00182827
0.00244552
0.00182811
0.00215807
0.00208163
0.00127703
0.00157667
0.0014615
0.0025862
0.00101971
0.0010743
0.00105082
0.00244272
0.000971042
0.000950791
0.00169846
0.000886869
0.00197902
0.00198201
0.000910426
0.00215271
0.00101125
0.00100456
0.00113244
0.000958421
0.000941579
0.00140981
0.00111937
0.00101657
0.00096142
0.00197155
0.0022512
0.00105885
0.00217611
0.000871786
0.00220772
0.0017534
0.00091087
0.000771677
0.000860422
0.0011418
0.00189544
0.00156217
0.000654026
0.000725944
0.00211372
0.000615644
0.000615638
0.000697584
0.000782846
0.000881684
0.00102935
0.00170133
0.00157524
0.00211512
0.000618433
0.000618428
0.00186052
0.000762201
0.0015064
0.000690703
0.000695315
0.00091615
0.00159568
0.00165229
0.00176022
0.0016132
0.00159563
0.000348725
0.00257567
0.000444773
0.000431015
0.00208074
0.00206631
0.00044666
0.000310218
0.000437049
0.00191923
SCALARS rr_P' float
LOOKUP_TABLE default
7.36757e-05
0.000164079
0.000131298
0.000171342
8.90386e-05
0.00013936
7.28537e-05
0.000170434
0.000147024
0.000184406
6.67738e-05
0.000170956
0.000150516
0.000158749
0.000185358
0.000156421
0.00013417
0.00015198
0.000136686
0.000133313
0.000150007
2.61979e-05
0.000153697
0.000141608
0.00012837
0.000147783
6.16601e-05
0.000129966
0.000102975
0.000118789
0.000132981
0.000106445
6.83264e-05
8.91296e-05
8.75363e-05
8.93323e-05
0.000115458
8.77396e-05
0.000132851
7.67944e-05
8.65592e-05
0.000101746
0.000101759
0.000145944
8.55443e-05
9.38588e-05
0.000128566
0.000130071
0.000121697
0.000117752
0.000120811
9.34073e-05
0.000142958
0.000120016
0.000131639
6.20083e-05
9.3459e-05
0.000120895
9.34577e-05
0.000145315
0.000171289
0.000167551
6.05511e-05
0.000118149
0.000160478
0.000151734
0.000165676
0.000143534
0.000132465
0.000188302
0.00015511
0.000153422
0.00010695
0.000122733
0.00013048
7.05991e-05
0.000133539
0.00015033
0.000144746
0.000103026
9.34168e-05
0.000100424
0.000191003
9.36083e-05
0.000125809
4.69906e-05
0.000150131
0.000125068
9.05893e-05
1.29073e-05
0.000103999
1.40386e-05
0.000113299
0.000108951
9.84039e-05
9.00612e-05
8.57933e-05
0.000161903
0.000133643
0.000129347
0.000110437
0.000106346
8.98227e-05
0.000153438
0.000155915
0.000140396
0.00012317
0.00012541
9.53525e-05
0.000186973
0.000120481
6.44771e-05
8.60812e-05
0.000167949
0.000157259
0.000115891
0.000108379
7.12979e-05
0.000112419
0.000115424
0.000100076
0.000180732
0.000187003
0.000160395
0.000176634
0.000138115
7.78408e-05
0.000174807
7.77028e-05
9.97859e-05
8.10251e-05
0.000166864
0.000162667
0.000163825
0.000110603
6.58488e-05
7.4471e-05
0.000120171
0.000146443
6.5828e-05
9.23519e-05
0.00014149
0.000107759
0.000172767
8.67875e-05
0.000141034
0.000127982
0.000123932
7.92192e-05
0.000101744
0.000113068
0.000160998
9.55134e-05
0.000145926
0.000168842
0.000171544
0.000112167
9.51027e-05
9.45565e-05
0.000147335
0.000123985
9.47035e-05
6.29672e-05
9.25666e-05
9.18547e-05
0.000157617
9.63855e-05
9.7452e-05
0.000105746
9.39238e-05
0.00013833
9.83051e-05
8.73082e-05
0.000108363
0.000103849
0.000123098
0.000136829
0.000132356
0.000111733
0.000131973
0.000102632
0.000152901
0.000164108
9.23638e-05
0.000160486
9.25408e-05
0.000158497
0.00014559
0.000135632
0.00013868
0.000161889
7.78848e-05
0.000101617
9.47214e-05
0.000163536
0.000161154
0.000149393
0.00016227
0.000165523
0.000138875
0.00017046
0.000114908
0.000104072
0.00018578
0.000109923
0.000168713
0.000134514
8.68317e-05
0.000103071
0.000168667
0.000139897
0.000127761
0.000164711
0.0001612
0.000105222
0.000103567
0.000101468
0.000142963
0.000158034
0.000181623
0.000174536
0.000189875
0.000172052
0.000188025
0.000157785
0.000164311
0.000165602
0.000156101
0.000163987
0.000150686
0.000148441
0.000106643
0.000142171
0.000166476
0.000115986
0.000168888
0.000155135
0.000180481
0.00010941
0.000171662
0.000163998
0.000107297
0.000146455
0.000106584
0.000164764
0.000150837
0.000111708
0.000105262
9.15234e-05
0.000105266
0.000164999
7.68898e-05
0.000127593
0.000104884
0.000117305
0.000171828
0.000166138
5.16338e-05
0.000166752
9.21083e-05
9.92829e-05
0.000170876
0.000138905
0.00010048
0.000190456
0.000108922
5.16347e-05
0.000101519
0.00014815
0.000184775
0.000140397
0.000164434
0.000154343
8.06862e-05
7.9606e-05
6.90571e-05
7.93496e-05
0.000110038
8.48032e-05
0.000136323
8.58448e-05
0.000146245
0.000104696
0.000101676
0.000117891
0.000110388
0.000145767
0.00010585
0.000109139
4.72493e-05
0.000108585
0.000157184
0.000157302
0.000142981
0.000105628
6.78723e-05
0.000198268
0.000133836
0.000112051
0.000103374
0.000101772
0.000106639
0.000128514
0.000104685
7.5731e-05
0.000103277
7.13649e-05
0.000126888
0.000105444
4.40402e-05
9.9274e-05
0.000116436
0.000105476
0.000160918
0.000109467
0.000140503
5.47311e-05
0.00011283
0.000108278
9.34813e-05
0.000101662
0.000119543
0.000111959
0.000117253
0.000100362
0.0001019
0.000109936
0.000145897
0.000103772
0.000146231
0.000132145
0.000103554
0.000107653
0.000108593
0.000119859
0.000108387
0.000101623
0.00011532
0.00012
0.000142181
0.00010856
0.000108055
0.00015537
0.000153188
0.00010386
0.000103578
4.75593e-05
0.000126034
8.84514e-05
0.000118438
5.40593e-05
5.61148e-05
5.01411e-05
5.09649e-05
5.40645e-05
5.69651e-05
5.86992e-05
0.000132174
9.73847e-05
9.9025e-05
0.00011349
0.000110697
0.000109327
0.000115103
0.000107006
0.000109456
0.000109964
0.000108922
0.00013265
9.9422e-05
0.000136375
0.000106667
0.00010312
0.000109068
0.000115235
0.000121212
0.000113109
0.000129326
0.000121017
0.000112417
8.13385e-05
0.000112892
0.000110218
0.000118039
0.000113983
0.000108081
0.00010272
0.000113039
0.000117716
0.000159504
0.000105823
0.000155081
0.000161982
0.000111074
0.000154935
0.000119044
9.56262e-05
0.000129416
0.000113965
8.12825e-05
7.30467e-05
0.000127666
0.000135897
0.000115616
9.62138e-05
0.000115278
5.5928e-05
0.000114312
0.00010738
5.55906e-05
2.07153e-05
2.26593e-05
9.89952e-05
0.00010588
0.000122738
0.000118182
1.06116e-05
1.1088e-05
0.000116578
0.00011779
0.000111513
4.19823e-05
9.91088e-05
0.000114411
0.000117295
0.000101199
8.93083e-05
4.37364e-05
0.000168565
0.000106556
0.000129797
0.000131826
9.4924e-05
0.000120084
9.28106e-05
0.000102393
5.16311e-05
7.75249e-05
0.00012023
0.00012078
0.000103941
0.000109255
0.000112672
0.00011877
0.000113616
5.67557e-05
9.90156e-05
0.000112573
0.000105805
0.000158682
5.67528e-05
8.61832e-05
8.87888e-05
8.35145e-05
5.4002e-05
5.40063e-05
9.57678e-05
7.80758e-05
0.000111297
6.0762e-05
6.45188e-05
2.09891e-05
2.09892e-05
4.55921e-05
7.02113e-05
4.72584e-05
9.48497e-05
0.000101947
0.000109363
0.000123084
0.000111474
0.000103148
8.14376e-05
5.1478e-05
0.000102346
0.000105785
0.00010231
5.77116e-05
5.1874e-05
4.14501e-05
0.000102174
0.000104404
8.44569e-05
9.48874e-05
8.75194e-05
7.96349e-05
0.000107236
7.96294e-05
9.4777e-05
9.10468e-05
5.5438e-05
6.84338e-05
6.52611e-05
0.000113304
4.5878e-05
4.83098e-05
4.73056e-05
0.000106892
4.36402e-05
4.28254e-05
7.47669e-05
3.99136e-05
8.61018e-05
8.62334e-05
4.09567e-05
9.4671e-05
4.52403e-05
4.52021e-05
5.06874e-05
4.31302e-05
4.21449e-05
6.12312e-05
5.00314e-05
4.56819e-05
4.32536e-05
8.64897e-05
9.83756e-05
4.74132e-05
9.5459e-05
3.92606e-05
9.67674e-05
7.70976e-05
4.09979e-05
3.45676e-05
3.87424e-05
5.13368e-05
8.32837e-05
6.79396e-05
2.82339e-05
3.13491e-05
9.26087e-05
2.65791e-05
2.65791e-05
3.01208e-05
3.38707e-05
3.93885e-05
4.46919e-05
7.41841e-05
6.85077e-05
9.26988e-05
2.67428e-05
2.67429e-05
8.08756e-05
3.42792e-05
6.62523e-05
3.10521e-05
3.1087e-05
4.09544e-05
6.91529e-05
7.16112e-05
7.63017e-05
6.99246e-05
6.91521e-05
1.50611e-05
0.000111643
1.92334e-05
1.86054e-05
9.017e-05
8.95418e-05
1.92787e-05
1.33967e-05
1.88973e-05
8.32071e-05
SCALARS rr_T' float
LOOKUP_TABLE default
0.000182771
0.000416515
0.000332635
0.000434775
0.000227344
0.000353043
0.000180718
0.000432362
0.000371756
0.000468075
0.000165876
0.000433686
0.000381653
0.000403079
0.000472251
0.000396417
0.000340943
0.00038544
0.000345252
0.000337543
0.000379698
6.74239e-05
0.000389038
0.000358556
0.000325017
0.00037494
0.000153674
0.000329341
0.000258463
0.000304274
0.000337167
0.000267186
0.000170234
0.00022799
0.000224078
0.000228504
0.000295815
0.000224534
0.000336824
0.000191344
0.000217247
0.000260709
0.000260736
0.000370038
0.000213596
0.00023566
0.000324905
0.000329017
0.000308325
0.000295126
0.000303046
0.000235003
0.00036489
0.000301969
0.000335938
0.000154944
0.000239252
0.000304183
0.000239244
0.000367972
0.000435226
0.000426553
0.000151137
0.000300752
0.00040856
0.00038558
0.000420994
0.000364166
0.000335345
0.000478031
0.00039589
0.000391577
0.000268422
0.000312108
0.00033059
0.000175722
0.000340388
0.000382003
0.000367231
0.000259335
0.000234029
0.000256603
0.00048579
0.000234354
0.000315993
0.000117364
0.000380438
0.000317933
0.000226199
3.31791e-05
0.000261661
3.60858e-05
0.00028883
0.000276786
0.000247637
0.000225862
0.00021494
0.000410943
0.00034064
0.000327909
0.000278586
0.000267257
0.000224865
0.00038922
0.000395664
0.000356301
0.000313352
0.000317871
0.0002387
0.000474777
0.000305094
0.000161114
0.000215324
0.000425974
0.000399055
0.000291614
0.000277438
0.000178608
0.000287763
0.000290461
0.00025265
0.000460348
0.000474696
0.000407753
0.000448592
0.000351958
0.000199103
0.000443692
0.000194671
0.000251112
0.000206799
0.000423515
0.000413672
0.000415834
0.000277966
0.00016857
0.000186337
0.000304756
0.000372459
0.000168513
0.000232156
0.000359171
0.000272146
0.000438538
0.00021739
0.000357845
0.000324766
0.000313985
0.00020069
0.000256476
0.000285986
0.000408681
0.000239732
0.000370031
0.00042857
0.000435403
0.000284898
0.000239127
0.00023777
0.000373581
0.000313633
0.00023774
0.000157315
0.000232195
0.000230953
0.000400014
0.000242349
0.000245022
0.000265419
0.000236167
0.000352659
0.000247344
0.000218999
0.000275295
0.000261307
0.000313146
0.000348824
0.000335755
0.00028522
0.000334934
0.000257611
0.000388082
0.000416518
0.000232195
0.000407986
0.000232089
0.000402925
0.000370409
0.000345811
0.000352002
0.000411564
0.000195175
0.000255687
0.000237754
0.00041509
0.000408672
0.000378891
0.000412655
0.000420157
0.000352875
0.000432709
0.000290329
0.000262015
0.00047243
0.00027592
0.000429093
0.000341812
0.000218186
0.000262471
0.00042817
0.000356325
0.000324438
0.00041796
0.000409997
0.000265264
0.00026305
0.000255519
0.000363723
0.000401338
0.000461238
0.00044313
0.000482126
0.000436876
0.000477424
0.000400569
0.000418563
0.000421824
0.00039765
0.00041775
0.000384557
0.000378833
0.000268802
0.000360952
0.000422326
0.00029336
0.000430288
0.000395284
0.000457885
0.000275471
0.000435449
0.000416265
0.000270524
0.000372959
0.000268697
0.000419089
0.000382586
0.000281657
0.0002651
0.000229272
0.000263737
0.000419663
0.000192532
0.000323451
0.000264116
0.00029634
0.000435858
0.000421898
0.00013232
0.000423432
0.000230604
0.000250013
0.000433481
0.000352374
0.000252959
0.000483644
0.000275113
0.00013232
0.000255658
0.000376254
0.000469672
0.000356077
0.000418919
0.000392327
0.000205945
0.000201847
0.00017262
0.000198181
0.000280686
0.000214665
0.000345823
0.000216417
0.000372437
0.000265976
0.000256045
0.000299513
0.000278484
0.000369934
0.000267042
0.0002748
0.000121298
0.000276884
0.000400494
0.00040078
0.000362987
0.000266528
0.000173571
0.000503928
0.000338576
0.000282756
0.000260672
0.0002596
0.000268859
0.000327616
0.000264044
0.000189104
0.000260582
0.000178737
0.000322842
0.00026585
0.000113056
0.000250396
0.000296089
0.000265859
0.00040912
0.000276087
0.000356046
0.000136561
0.000285787
0.00027298
0.000238425
0.000256268
0.000302417
0.000284653
0.000297666
0.000253132
0.000257115
0.000277659
0.000371195
0.000261829
0.00037096
0.000334867
0.000264304
0.00027163
0.000274237
0.000303324
0.000273785
0.000256352
0.000291312
0.000305516
0.000360665
0.00027418
0.000272402
0.000394378
0.000388854
0.000262026
0.000264361
0.00011805
0.000319356
0.000221584
0.000299755
0.000132557
0.000137601
0.000122969
0.000124982
0.000132592
0.000139678
0.000143944
0.000336315
0.000248892
0.000251099
0.000287074
0.000279644
0.000276154
0.000292119
0.000270251
0.000276407
0.000281056
0.00027513
0.000337848
0.000250143
0.000347276
0.000270202
0.000260835
0.000275477
0.000293959
0.000307142
0.000286146
0.000327708
0.00030616
0.000283904
0.000204727
0.000285549
0.000279226
0.000300656
0.000288007
0.000272895
0.000259528
0.00028588
0.000298199
0.000404812
0.00026736
0.000393575
0.000410252
0.000280928
0.000393057
0.000301522
0.000241531
0.000329025
0.000288376
0.000207701
0.000182406
0.000324844
0.000345987
0.000292887
0.000243477
0.000292922
0.000138862
0.000289577
0.000271703
0.000138723
5.31725e-05
5.81661e-05
0.000250838
0.00026747
0.000310652
0.000298623
2.73385e-05
2.85659e-05
0.000295749
0.000298835
0.000282878
0.000104233
0.000250274
0.00029097
0.00029667
0.000255908
0.000225875
0.000108545
0.000428506
0.000269146
0.000328868
0.000334009
0.000240032
0.000303785
0.000234687
0.000258967
0.000128666
0.000194175
0.000304147
0.000306033
0.00026302
0.000276246
0.00028507
0.00030058
0.000287499
0.000141727
0.000252282
0.000284407
0.000268835
0.00040343
0.000141699
0.000218344
0.0002249
0.000213157
0.000138589
0.000138598
0.000244195
0.000197152
0.000281976
0.000151674
0.000165502
5.40407e-05
5.40404e-05
0.000113122
0.000179675
0.000121052
0.000240253
0.000259865
0.00027731
0.000312467
0.000283428
0.000262409
0.000206591
0.000127806
0.000259388
0.000268735
0.000260184
0.000143625
0.000132778
0.000103397
0.000259816
0.000265067
0.000212987
0.000240577
0.000221999
0.000203287
0.000272094
0.000203269
0.000240148
0.000231549
0.00014195
0.000175253
0.000162917
0.000287723
0.000113761
0.000119844
0.00011724
0.000271727
0.00010832
0.000106086
0.000189048
9.89447e-05
0.000220022
0.000220355
0.000101568
0.000239586
0.000112749
0.000112073
0.000126268
0.000106926
0.000104987
0.000156714
0.000124792
0.000113398
0.000107258
0.000219368
0.00025039
0.000118068
0.000242128
9.72692e-05
0.000245626
0.000195142
0.000101623
8.60503e-05
9.59989e-05
0.000127375
0.000210935
0.000173672
7.26611e-05
8.06536e-05
0.000235159
6.83975e-05
6.83968e-05
7.75019e-05
8.69911e-05
9.8289e-05
0.000114419
0.000189191
0.000175126
0.000235321
6.87178e-05
6.87172e-05
0.000206832
8.50312e-05
0.000167656
7.70511e-05
7.75182e-05
0.000102137
0.000177342
0.000183634
0.000195633
0.000179292
0.000177337
3.87444e-05
0.000286261
4.94216e-05
4.78847e-05
0.00023125
0.000229646
4.96223e-05
3.44658e-05
4.85627e-05
0.000213309
SCALARS rr_uec(SIM,_S_ext) float
LOOKUP_TABLE default
0.0167326
0.0380922
0.0304236
0.0397629
0.0207855
0.0322903
0.0165448
0.0395424
0.0340047
0.0428076
0.0151855
0.0396635
0.0349055
0.0368627
0.0431816
0.0362568
0.0311791
0.0352517
0.0315821
0.0308734
0.0347295
0.00616201
0.0355839
0.0327953
0.0297278
0.0342908
0.014066
0.030122
0.0236499
0.0278147
0.030837
0.024448
0.015582
0.0208427
0.0204843
0.0208897
0.0270412
0.0205264
0.0308056
0.0175142
0.0198786
0.0238319
0.0238344
0.0338433
0.0195493
0.021563
0.0297201
0.0300949
0.0282001
0.0270064
0.0277301
0.0215009
0.0333617
0.0276276
0.0307149
0.0141805
0.0218714
0.0278302
0.0218707
0.0336565
0.0398015
0.0390045
0.0138328
0.0275012
0.0373591
0.0352609
0.0384999
0.0333054
0.0306726
0.0437179
0.0361961
0.0358017
0.0245612
0.028541
0.0302365
0.0160851
0.0311235
0.0349339
0.0335857
0.0237266
0.0214159
0.0234598
0.0444233
0.0214464
0.0289129
0.0107415
0.0347955
0.0290741
0.0207027
0.00303246
0.0239398
0.00329813
0.0264091
0.0253121
0.0226564
0.0206676
0.019669
0.0375827
0.0311466
0.0299904
0.0254852
0.024453
0.020578
0.0355971
0.0361857
0.0325857
0.0286542
0.0290726
0.0218441
0.04342
0.0279053
0.0147454
0.0197057
0.0389587
0.036496
0.02668
0.0253622
0.0163443
0.0263061
0.0265745
0.0231117
0.0420937
0.0434131
0.0372881
0.0410248
0.0321819
0.0182018
0.0405777
0.0178142
0.0229744
0.0189075
0.0387327
0.0378287
0.0380301
0.0254327
0.01541
0.0170525
0.0278723
0.0340597
0.0154048
0.0212411
0.0328475
0.0248947
0.0401063
0.0198933
0.0327272
0.0297015
0.0287177
0.0183556
0.0234633
0.026159
0.0373757
0.021936
0.0338425
0.0391947
0.0398199
0.0260543
0.0218787
0.0217545
0.0341674
0.0286876
0.0217535
0.0143978
0.021247
0.0211309
0.0365834
0.0221735
0.0224181
0.0242864
0.0216079
0.0322452
0.0226298
0.0200395
0.0251758
0.0239073
0.0286355
0.0318946
0.0307071
0.0260773
0.0306313
0.0235718
0.035492
0.0380926
0.0212446
0.0373092
0.0212374
0.0368465
0.0338717
0.0316189
0.0321923
0.0376364
0.0178601
0.0233931
0.021755
0.0379621
0.0373767
0.0346527
0.0377358
0.0384253
0.0322703
0.0395732
0.0265576
0.0239716
0.0432021
0.0252471
0.0392388
0.0312584
0.0199634
0.0240003
0.039158
0.0325819
0.0296706
0.0382249
0.0374923
0.0242673
0.0240562
0.0233769
0.0332602
0.0367034
0.0421815
0.040526
0.0440921
0.0399538
0.0436621
0.0366334
0.0382728
0.0385711
0.0363605
0.0381983
0.03516
0.0346366
0.0245912
0.0330103
0.0386249
0.0268334
0.0393445
0.0361437
0.0418769
0.0252025
0.0398253
0.0380694
0.0247483
0.0341032
0.0245813
0.0383237
0.0349908
0.0257667
0.0242534
0.0209807
0.0241346
0.0383764
0.0176188
0.0295828
0.0241635
0.0271076
0.0398628
0.0385838
0.0120956
0.0387242
0.021103
0.0228733
0.0396452
0.032227
0.023143
0.0442308
0.025166
0.0120956
0.0233896
0.0344093
0.0429506
0.0325662
0.038305
0.0358773
0.0188294
0.0184607
0.0157981
0.0181381
0.0256636
0.0196345
0.0316278
0.0197985
0.0340554
0.0243237
0.0234251
0.0273905
0.0254758
0.0338322
0.024429
0.0251411
0.011087
0.0253165
0.0366202
0.0366464
0.0331965
0.0243818
0.015868
0.0460835
0.030969
0.0258662
0.0238468
0.0237358
0.024596
0.0299554
0.0241549
0.0173076
0.0238379
0.0163563
0.0295218
0.0243208
0.0103337
0.0229065
0.0270762
0.0243219
0.0374128
0.0252568
0.0325645
0.0124988
0.0261391
0.024973
0.0217999
0.0234443
0.0276616
0.0260306
0.0272229
0.0231568
0.0235207
0.025399
0.0339434
0.023952
0.0339267
0.0306274
0.0241651
0.0248485
0.0250861
0.0277441
0.0250445
0.0234512
0.0266477
0.0279366
0.0329853
0.0250807
0.0249203
0.0360674
0.0355622
0.0239702
0.0241704
0.0108075
0.0292087
0.020277
0.0274176
0.0121431
0.0126051
0.0112647
0.0114491
0.0121462
0.0127953
0.013186
0.0307538
0.0227545
0.0229652
0.0262583
0.0255803
0.0252612
0.0267156
0.0247214
0.0252847
0.0256949
0.0251675
0.0308924
0.022886
0.031755
0.0247135
0.0238584
0.0251994
0.0268771
0.0280916
0.0261734
0.0299726
0.0280039
0.0259704
0.0187305
0.0261189
0.0255386
0.0274916
0.026345
0.0249636
0.0237401
0.0261494
0.0272741
0.0370219
0.0244565
0.0359943
0.0375232
0.0256964
0.0359476
0.0275783
0.0220941
0.0300885
0.026377
0.0189889
0.0166945
0.0297049
0.0316373
0.0267882
0.0222701
0.0267876
0.0127127
0.0264855
0.024852
0.0126967
0.00486015
0.00531656
0.022942
0.0244667
0.0284142
0.0273162
0.00249839
0.00261056
0.0270483
0.0273303
0.0258711
0.00954237
0.0228941
0.026608
0.0271362
0.023408
0.0206607
0.00993743
0.0391858
0.0246202
0.0300789
0.0305491
0.0219558
0.0277868
0.0214669
0.0236876
0.011777
0.017769
0.0278199
0.0279903
0.0240577
0.0252684
0.0260748
0.0274931
0.0262968
0.0129714
0.023068
0.026016
0.0245849
0.0368925
0.012969
0.0199703
0.0205701
0.0194888
0.0126677
0.0126686
0.0223277
0.0180348
0.0257901
0.0138821
0.0151281
0.00493879
0.00493877
0.0103565
0.0164254
0.0110658
0.0219743
0.0237609
0.0253625
0.0285763
0.0259186
0.0239957
0.018894
0.0117005
0.0237238
0.0245759
0.0237928
0.0131471
0.0121381
0.00946352
0.0237593
0.0242412
0.0194844
0.022003
0.0203034
0.0185863
0.0248846
0.0185847
0.0219644
0.0211741
0.0129763
0.0160206
0.014911
0.026313
0.0104151
0.0109717
0.0107338
0.0248488
0.00991671
0.00971287
0.0172924
0.00905872
0.0201153
0.0201458
0.0092987
0.0219143
0.01032
0.0102605
0.0115577
0.00978934
0.00960984
0.0143263
0.0114221
0.0103816
0.00981967
0.0200628
0.0228962
0.0108074
0.0221443
0.00890562
0.0224635
0.0178489
0.00930391
0.00787676
0.00878917
0.0116615
0.0192929
0.0158775
0.00664066
0.00737123
0.0215059
0.00625102
0.00625097
0.00708314
0.00795109
0.00899609
0.0104597
0.0172983
0.0160104
0.021521
0.00628073
0.00628069
0.0189086
0.00778491
0.0153351
0.00705412
0.00709507
0.00934842
0.0162105
0.0167858
0.0178827
0.0163889
0.0162101
0.003541
0.0261667
0.00451707
0.00437625
0.021138
0.0209914
0.00453503
0.00314996
0.00443856
0.0194984
SCALARS rr_uec(PEX,_P_ext) float
LOOKUP_TABLE default
-0.0634556
-0.144601
-0.115481
-0.15094
-0.0789246
-0.122566
-0.062743
-0.150102
-0.129063
-0.162501
-0.0575906
-0.150562
-0.132498
-0.139936
-0.163948
-0.137624
-0.118364
-0.133813
-0.119862
-0.117185
-0.13182
-0.023406
-0.135063
-0.12448
-0.112836
-0.130168
-0.0533532
-0.114337
-0.0897329
-0.10563
-0.117054
-0.0927613
-0.0591026
-0.0791483
-0.0777899
-0.0793266
-0.102694
-0.0779485
-0.116935
-0.0664318
-0.0754235
-0.0905062
-0.0905157
-0.128466
-0.0741572
-0.0818163
-0.112798
-0.114225
-0.107041
-0.102462
-0.105211
-0.0815876
-0.126675
-0.104837
-0.116624
-0.0537939
-0.0830576
-0.105605
-0.0830549
-0.127749
-0.151096
-0.148084
-0.0524722
-0.10441
-0.141837
-0.13386
-0.146155
-0.126427
-0.116422
-0.165957
-0.137437
-0.13594
-0.0931905
-0.108353
-0.114771
-0.0610083
-0.11817
-0.132619
-0.127491
-0.090035
-0.0812504
-0.089082
-0.168649
-0.0813633
-0.109706
-0.0407468
-0.132077
-0.110375
-0.0785328
-0.0115181
-0.0908427
-0.0125271
-0.100271
-0.0960907
-0.0859736
-0.0784147
-0.0746229
-0.142666
-0.118257
-0.11384
-0.0967178
-0.0927856
-0.0780688
-0.135125
-0.137362
-0.123697
-0.108785
-0.110355
-0.0828721
-0.164828
-0.10592
-0.0559362
-0.0747566
-0.147885
-0.138539
-0.101241
-0.0963141
-0.0620091
-0.0998983
-0.100841
-0.0877133
-0.159816
-0.164799
-0.141558
-0.155737
-0.122187
-0.0691197
-0.154036
-0.0675859
-0.0871802
-0.0717923
-0.147031
-0.143613
-0.144365
-0.0965033
-0.05852
-0.0646927
-0.105802
-0.129305
-0.0585003
-0.0805992
-0.124692
-0.0944817
-0.152247
-0.0754734
-0.124233
-0.112748
-0.109006
-0.0696734
-0.0890419
-0.0992863
-0.141881
-0.0832301
-0.128463
-0.148786
-0.151158
-0.0989071
-0.0830194
-0.0825483
-0.129696
-0.108884
-0.0825383
-0.0546173
-0.0806136
-0.0801816
-0.138872
-0.0841379
-0.085066
-0.0921479
-0.0819917
-0.12243
-0.0858718
-0.076032
-0.0955731
-0.0907195
-0.108713
-0.121098
-0.116564
-0.099017
-0.116278
-0.089437
-0.13473
-0.144602
-0.0806127
-0.141639
-0.0805767
-0.139882
-0.128593
-0.120052
-0.122204
-0.142881
-0.0677608
-0.0887685
-0.0825432
-0.144106
-0.141879
-0.131539
-0.14326
-0.145865
-0.122506
-0.150223
-0.100794
-0.0909655
-0.164012
-0.0957934
-0.148966
-0.118666
-0.0757493
-0.0911205
-0.148647
-0.123703
-0.112634
-0.145103
-0.142337
-0.0920931
-0.091322
-0.08871
-0.126272
-0.139332
-0.160127
-0.153841
-0.167379
-0.15167
-0.165747
-0.139064
-0.14531
-0.146442
-0.138049
-0.145027
-0.133503
-0.131516
-0.0933215
-0.125311
-0.146619
-0.101846
-0.14938
-0.137228
-0.158964
-0.0956369
-0.151175
-0.144514
-0.0939191
-0.129478
-0.0932849
-0.145493
-0.132823
-0.097784
-0.0920365
-0.0795989
-0.0915645
-0.145693
-0.0668432
-0.112292
-0.0916946
-0.102881
-0.151317
-0.14647
-0.0459355
-0.147002
-0.0800612
-0.0867986
-0.150492
-0.122333
-0.0878212
-0.167906
-0.0955118
-0.0459356
-0.0887581
-0.130623
-0.163054
-0.123619
-0.145433
-0.136202
-0.0714958
-0.0700751
-0.0599308
-0.0688053
-0.097443
-0.0745252
-0.120059
-0.0751346
-0.129296
-0.0923382
-0.0888926
-0.103981
-0.0966824
-0.128429
-0.09271
-0.095404
-0.0421087
-0.0961234
-0.139037
-0.139136
-0.126017
-0.0925315
-0.0602566
-0.174947
-0.117544
-0.0981654
-0.0904986
-0.0901229
-0.0933409
-0.113736
-0.091669
-0.0656541
-0.0904672
-0.0620539
-0.112079
-0.0922965
-0.0392477
-0.0869309
-0.102792
-0.0922996
-0.142032
-0.0958502
-0.123608
-0.0474116
-0.0992167
-0.0947716
-0.0827719
-0.0889698
-0.10499
-0.0988218
-0.10334
-0.0878807
-0.0892636
-0.0963956
-0.128866
-0.0909
-0.128785
-0.116256
-0.0917557
-0.0943027
-0.0952076
-0.105305
-0.0950508
-0.0889988
-0.101136
-0.106064
-0.125211
-0.0951877
-0.0945711
-0.136915
-0.134998
-0.0909687
-0.0917754
-0.0409858
-0.11087
-0.0769294
-0.104066
-0.0460247
-0.0477761
-0.0426957
-0.0433948
-0.046037
-0.0484971
-0.0499782
-0.116757
-0.0864048
-0.0871737
-0.0996637
-0.0970847
-0.0958732
-0.101414
-0.0938239
-0.0959612
-0.0975706
-0.0955178
-0.117288
-0.0868437
-0.120562
-0.0938062
-0.0905545
-0.0956382
-0.102051
-0.10663
-0.0993418
-0.11377
-0.10629
-0.0985638
-0.0710765
-0.0991343
-0.0969387
-0.104377
-0.099988
-0.094742
-0.090101
-0.0992495
-0.103526
-0.140538
-0.09282
-0.136637
-0.142427
-0.0975303
-0.136457
-0.104679
-0.0838529
-0.114226
-0.100116
-0.072105
-0.0633284
-0.112774
-0.120114
-0.101682
-0.0845281
-0.101693
-0.0482117
-0.100532
-0.0943273
-0.0481623
-0.0184589
-0.0201924
-0.0870832
-0.0928582
-0.107849
-0.103674
-0.00949043
-0.00991653
-0.102675
-0.103746
-0.0982061
-0.0361885
-0.0868883
-0.101015
-0.102995
-0.088844
-0.0784174
-0.0376859
-0.148763
-0.0934401
-0.114173
-0.115958
-0.0833323
-0.105466
-0.0814765
-0.0899059
-0.0446708
-0.0674136
-0.105591
-0.106245
-0.0913128
-0.0959048
-0.098968
-0.104353
-0.0998112
-0.0492054
-0.0875828
-0.0987386
-0.0933305
-0.140057
-0.0491958
-0.0758023
-0.0780785
-0.0739996
-0.0481115
-0.0481147
-0.084775
-0.068446
-0.0978935
-0.0526589
-0.0574547
-0.01876
-0.01876
-0.0392749
-0.0623752
-0.0420238
-0.0834086
-0.0902154
-0.0962736
-0.108478
-0.0983964
-0.091099
-0.0717216
-0.0443729
-0.0900516
-0.0932959
-0.0903269
-0.0498646
-0.0460947
-0.0358975
-0.0901994
-0.0920227
-0.0739435
-0.0835209
-0.077071
-0.0705732
-0.0944625
-0.070567
-0.0833723
-0.0803856
-0.0492786
-0.06084
-0.0565624
-0.099888
-0.0394966
-0.0416084
-0.0407044
-0.0943343
-0.0376077
-0.0368319
-0.0656322
-0.0343525
-0.0763826
-0.0764981
-0.0352632
-0.0831774
-0.0391446
-0.0389102
-0.0438383
-0.0371234
-0.03645
-0.0544043
-0.0433261
-0.0393708
-0.0372387
-0.0761577
-0.0869265
-0.0409916
-0.0840591
-0.0337709
-0.0852734
-0.0677475
-0.0352823
-0.0298755
-0.0333297
-0.0442235
-0.0732302
-0.0602916
-0.0252241
-0.0279988
-0.0816393
-0.023744
-0.0237438
-0.0269046
-0.030199
-0.0341245
-0.0397213
-0.0656798
-0.0607964
-0.0816959
-0.0238554
-0.0238552
-0.071803
-0.0295222
-0.0582053
-0.0267514
-0.026913
-0.0354604
-0.0615647
-0.0637493
-0.0679147
-0.0622417
-0.0615631
-0.01345
-0.0993763
-0.0171567
-0.016623
-0.0802792
-0.0797222
-0.0172262
-0.0119647
-0.0168585
-0.0740509
SCALARS cell_type float
LOOKUP_TABLE default
0
0
0
0
0
0
0
0
0
0
0
0
0
0
0
0
0
0
0
0
0
1
0
0
0
0
0
0
0
0
0
0
0
0
0
0
0
0
0
0
0
0
0
0
0
0
0
0
0
0
0
0
0
0
0
0
0
0
0
0
0
0
0
0
0
0
0
0
0
0
0
0
0
0
0
0
0
0
0
0
0
0
0
0
0
0
0
0
0
0
0
0
0
0
0
0
0
0
0
0
0
0
0
0
0
0
0
0
0
0
0
0
0
0
0
0
0
0
0
0
0
0
0
0
0
0
0
0
0
0
0
0
0
0
0
0
0
0
0
0
0
0
0
0
0
0
0
0
0
0
0
0
0
0
0
0
0
0
0
0
0
0
0
0
0
0
0
0
0
0
0
0
0
0
0
0
0
0
0
0
0
0
0
0
0
0
0
0
0
0
0
0
0
0
0
0
0
0
0
0
0
0
0
0
0
0
0
0
0
0
0
0
0
0
0
0
0
0
0
0
0
0
0
0
0
0
0
0
0
0
0
0
0
0
0
0
0
0
0
0
0
0
0
0
0
0
0
0
0
0
0
0
0
0
0
0
0
0
0
0
0
0
0
0
0
0
0
0
0
0
0
0
0
0
0
0
0
0
0
0
0
0
0
0
0
0
0
0
0
0
0
0
0
0
0
0
0
0
0
0
0
0
0
0
0
0
0
0
0
0
0
0
0
0
0
0
0
0
0
0
0
0
0
0
0
0
0
0
0
0
0
0
0
0
0
0
0
0
0
0
0
0
0
0
0
0
0
0
0
0
2
2
2
2
2
2
2
0
0
0
0
0
0
0
0
0
0
0
0
0
0
0
0
0
0
0
0
0
0
0
0
0
0
0
0
0
0
0
0
0
0
0
0
0
0
0
0
0
0
0
0
0
0
0
0
0
0
0
0
0
0
0
0
0
0
0
1
1
0
0
0
0
0
0
0
0
0
0
0
0
0
0
0
0
0
0
0
0
0
0
0
0
0
0
0
0
0
0
0
0
0
0
0
0
0
0
0
0
0
0
0
1
1
0
0
0
0
0
0
0
0
0
0
0
0
0
0
0
0
0
0
0
0
0
0
0
0
0
0
0
0
0
0
0
0
0
0
0
0
0
0
0
0
0
0
0
0
0
0
0
0
0
0
0
0
0
0
0
0
0
0
0
0
0
0
0
0
0
1
1
0
0
0
0
0
0
0
0
0
0
0
0
0
0
0
0
0
0
0
0
0
0
0
0
0
0
0
0
0
0
0
0
0
TENSORS Lagrange_strain float
0.0305713 -0.00319844 1.16654e-08
-0.00319844 0.0133904 -1.58561e-07
1.16654e-08 -1.58561e-07 0.00740275

0.029197 -0.00280109 1.73677e-07
-0.00280109 0.0335583 7.0898e-08
1.73677e-07 7.0898e-08 0.0331674

0.0300253 0.00367954 -5.38648e-08
0.00367954 0.0311741 -5.25374e-08
-5.38648e-08 -5.25374e-08 0.0304717

0.0291662 -0.00392497 8.53711e-08
-0.00392497 0.0328036 4.11066e-08
8.53711e-08 4.11066e-08 0.0330922

0.0353703 0.00266912 9.92514e-08
0.00266912 0.0380881 2.41296e-08
9.92514e-08 2.41296e-08 0.0352957

0.027739 -0.0023676 -2.24721e-08
-0.0023676 0.0333885 -6.01318e-08
-2.24721e-08 -6.01318e-08 0.0304427

0.0302652 0.00339434 8.16454e-09
0.00339434 0.013496 -7.70606e-09
8.16454e-09 -7.70606e-09 0.00746418

0.0317588 0.0039399 -1.16321e-07
0.0039399 0.0312044 -6.6394e-08
-1.16321e-07 -6.6394e-08 0.0315645

0.0332464 0.000715398 -4.79207e-08
0.000715398 0.0262248 -1.67383e-08
-4.79207e-08 -1.67383e-08 0.0281457

0.0354719 -0.000991122 -3.36845e-08
-0.000991122 0.0275553 -1.47181e-07
-3.36845e-08 -1.47181e-07 0.0327249

0.0280648 0.00205142 4.08562e-08
0.00205142 0.0138104 7.25201e-08
4.08562e-08 7.25201e-08 0.0117551

0.0279571 -0.00176603 -2.53781e-08
-0.00176603 0.0350105 -6.93393e-08
-2.53781e-08 -6.93393e-08 0.031553

0.0311252 0.00365757 6.74264e-08
0.00365757 0.0313045 4.9432e-08
6.74264e-08 4.9432e-08 0.0310833

0.0290729 -0.00187998 2.01879e-08
-0.00187998 0.0348038 4.51066e-08
2.01879e-08 4.51066e-08 0.0325503

0.0346348 0.00441809 7.00643e-08
0.00441809 0.0343658 7.09755e-08
7.00643e-08 7.09755e-08 0.0348883

0.0343321 7.30406e-05 4.15199e-08
7.30406e-05 0.0272898 -4.67695e-08
4.15199e-08 -4.67695e-08 0.0307823

0.0286968 -0.00235368 -5.91114e-08
-0.00235368 0.0360174 -2.28733e-07
-5.91114e-08 -2.28733e-07 0.0334539

0.0345777 -0.0003529 -1.06727e-07
-0.0003529 0.0273601 -5.54954e-08
-1.06727e-07 -5.54954e-08 0.031981

0.0269236 0.00347858 -1.96675e-07
0.00347858 0.0309493 5.9538e-08
-1.96675e-07 5.9538e-08 0.0275802

0.0338891 -0.000550493 -5.13549e-08
-0.000550493 0.0264128 -1.80873e-07
-5.13549e-08 -1.80873e-07 0.0301381

0.0266256 0.00113545 -1.26821e-07
0.00113545 0.0340381 6.92444e-08
-1.26821e-07 6.92444e-08 0.0291537

0.045295 0.00085174 -1.4806e-07
0.00085174 0.0452659 -1.67769e-07
-1.4806e-07 -1.67769e-07 0.0366413

0.03368 0.000247413 1.4999e-07
0.000247413 0.0263188 -3.76563e-08
1.4999e-07 -3.76563e-08 0.0298089

0.0293135 -0.00363262 1.50717e-08
-0.00363262 0.0311401 -5.0912e-08
1.50717e-08 -5.0912e-08 0.0300505

0.0337842 0.000900195 1.18604e-08
0.000900195 0.0264999 2.51133e-08
1.18604e-08 2.51133e-08 0.030085

0.02855 0.00250784 1.79225e-07
0.00250784 0.0338985 1.8326e-08
1.79225e-07 1.8326e-08 0.0322908

0.0286332 0.000526767 -3.42132e-08
0.000526767 0.0176917 2.28654e-07
-3.42132e-08 2.28654e-07 0.0131731

0.0309181 0.00403498 1.02107e-07
0.00403498 0.0306505 -2.79246e-08
1.02107e-07 -2.79246e-08 0.0306145

0.0259281 0.00477722 1.65263e-07
0.00477722 0.0257364 -4.33161e-08
1.65263e-07 -4.33161e-08 0.0211308

0.0415308 0.0013699 -1.93495e-07
0.0013699 0.038353 9.71645e-08
-1.93495e-07 9.71645e-08 0.0361385

0.0344152 0.00187136 -3.94284e-08
0.00187136 0.0279562 -6.65053e-08
-3.94284e-08 -6.65053e-08 0.0310039

0.0217623 -0.00228818 -7.74748e-08
-0.00228818 0.0299964 1.04124e-07
-7.74748e-08 1.04124e-07 0.0211278

0.0228661 -0.0053532 5.94649e-08
-0.0053532 0.0234758 2.50067e-07
5.94649e-08 2.50067e-07 0.0125806

0.0348352 0.000800506 5.99992e-08
0.000800506 0.0422571 -2.44097e-07
5.99992e-08 -2.44097e-07 0.0357896

0.0374557 -0.000661173 7.6106e-08
-0.000661173 0.0412044 -8.57148e-08
7.6106e-08 -8.57148e-08 0.0359042

0.0410771 0.0028133 -1.91861e-07
0.0028133 0.0359888 4.678e-08
-1.91861e-07 4.678e-08 0.0357698

0.0372564 0.000704884 -1.15029e-07
0.000704884 0.0432174 9.83602e-08
-1.15029e-07 9.83602e-08 0.0361449

0.0402626 -0.00121899 3.14514e-07
-0.00121899 0.0378328 9.01461e-08
3.14514e-07 9.01461e-08 0.0358115

0.0312196 -0.00367839 8.70234e-08
-0.00367839 0.0311276 -4.66026e-08
8.70234e-08 -4.66026e-08 0.0309293

0.0227501 0.00527978 -8.63816e-08
0.00527978 0.0237118 5.06158e-08
-8.63816e-08 5.06158e-08 0.0125827

0.0297649 -0.00231614 -3.99303e-08
-0.00231614 0.0220337 2.13864e-07
-3.99303e-08 2.13864e-07 0.0208776

0.0376216 -0.000522447 4.56299e-08
-0.000522447 0.0430651 -2.6681e-07
4.56299e-08 -2.6681e-07 0.0361476

0.0412426 0.00263358 -1.08945e-07
0.00263358 0.0394169 -4.68318e-08
-1.08945e-07 -4.68318e-08 0.0361301

0.0343054 -0.00161717 -9.0741e-08
-0.00161717 0.0279982 -1.49414e-08
-9.0741e-08 -1.49414e-08 0.0310878

0.0231085 -0.00552666 2.68884e-07
-0.00552666 0.0235656 2.23906e-08
2.68884e-07 2.23906e-08 0.0162182

0.0299476 -0.0023328 5.97998e-08
-0.0023328 0.0221578 1.02329e-07
5.97998e-08 1.02329e-07 0.021347

0.0258969 0.00222786 -6.54644e-08
0.00222786 0.0326585 -5.90486e-08
-6.54644e-08 -5.90486e-08 0.0279189

0.0275543 0.00252926 -1.91573e-07
0.00252926 0.0323782 5.17044e-08
-1.91573e-07 5.17044e-08 0.0284945

0.0341798 -0.00214084 7.63459e-08
-0.00214084 0.0271108 1.44953e-07
7.63459e-08 1.44953e-07 0.0304759

0.0229054 -0.00439311 6.59195e-09
-0.00439311 0.0272526 -1.22548e-07
6.59195e-09 -1.22548e-07 0.0198529

0.0294979 0.00247193 -4.09711e-09
0.00247193 0.0218369 -9.55805e-08
-4.09711e-09 -9.55805e-08 0.0202836

0.0298764 -0.00327144 1.33017e-07
-0.00327144 0.0245166 -3.0805e-08
1.33017e-07 -3.0805e-08 0.0230512

0.0344805 0.00257737 -1.4404e-09
0.00257737 0.0382069 3.13391e-08
-1.4404e-09 3.13391e-08 0.0352744

0.0286932 0.00383921 -2.76432e-07
0.00383921 0.025783 -3.19859e-08
-2.76432e-07 -3.19859e-08 0.0231198

0.0349317 -0.00291562 -1.61557e-07
-0.00291562 0.0374353 1.64394e-08
-1.61557e-07 1.64394e-08 0.0351928

0.0255833 -0.00545622 1.7847e-07
-0.00545622 0.0229051 -1.05276e-08
1.7847e-07 -1.05276e-08 0.0158217

0.0373492 0.000745783 1.35195e-07
0.000745783 0.0414153 8.58555e-08
1.35195e-07 8.58555e-08 0.0359247

0.0231705 -0.000693228 -8.85225e-08
-0.000693228 0.0313176 8.55754e-08
-8.85225e-08 8.55754e-08 0.0231059

0.0410321 0.00138018 3.043e-08
0.00138018 0.0377097 -3.30013e-08
3.043e-08 -3.30013e-08 0.0359028

0.0276793 0.00280563 -1.75561e-07
0.00280563 0.0327541 1.10294e-07
-1.75561e-07 1.10294e-07 0.030235

0.0361432 0.000784975 -1.53761e-08
0.000784975 0.0281355 2.36891e-08
-1.53761e-08 2.36891e-08 0.033677

0.0362585 0.00153444 9.58756e-10
0.00153444 0.0316968 1.85015e-07
9.58756e-10 1.85015e-07 0.0342245

0.0286408 0.00405752 1.34542e-08
0.00405752 0.0198996 -5.73757e-08
1.34542e-08 -5.73757e-08 0.013761

0.0309762 -0.000783876 8.83758e-08
-0.000783876 0.0370887 -1.36908e-07
8.83758e-08 -1.36908e-07 0.0338854

0.0315588 0.00124371 2.93331e-09
0.00124371 0.0364246 -4.75816e-08
2.93331e-09 -4.75816e-08 0.0342633

0.0285525 -0.00037517 -9.01797e-08
-0.00037517 0.0369602 6.18918e-08
-9.01797e-08 6.18918e-08 0.0326745

0.0296067 0.00307127 4.11779e-08
0.00307127 0.0347951 -7.55519e-08
4.11779e-08 -7.55519e-08 0.0337128

0.0347236 0.00112221 1.95797e-08
0.00112221 0.0278425 -6.21687e-08
1.95797e-08 -6.21687e-08 0.0322126

0.0291914 -0.00369952 -7.75287e-08
-0.00369952 0.0310255 7.50021e-09
-7.75287e-08 7.50021e-09 0.0299134

0.035059 -0.000237019 -9.81501e-08
-0.000237019 0.0275841 -1.485e-07
-9.81501e-08 -1.485e-07 0.0333971

0.0344552 -0.00254769 2.76239e-08
-0.00254769 0.038137 -7.98242e-08
2.76239e-08 -7.98242e-08 0.0352645

0.0350144 0.00284948 2.00234e-07
0.00284948 0.0375728 -4.18335e-08
2.00234e-07 -4.18335e-08 0.0352443

0.0218914 -0.00213218 -5.08529e-08
-0.00213218 0.0299263 6.08411e-09
-5.08529e-08 6.08411e-09 0.0208541

0.034705 -0.00369116 1.48859e-07
-0.00369116 0.0319615 -1.51183e-07
1.48859e-07 -1.51183e-07 0.0330828

0.0292961 -0.00329787 -1.94666e-08
-0.00329787 0.0321168 1.10005e-07
-1.94666e-08 1.10005e-07 0.0304373

0.0267832 -0.00401754 -1.38959e-07
-0.00401754 0.0176073 -2.96854e-08
-1.38959e-07 -2.96854e-08 0.0127276

0.0324072 0.000418551 -1.46765e-07
0.000418551 0.0381089 7.76253e-08
-1.46765e-07 7.76253e-08 0.0344095

0.0345413 0.0038177 2.13072e-07
0.0038177 0.0309453 -2.47046e-08
2.13072e-07 -2.47046e-08 0.0326641

0.0283804 0.0025815 1.24379e-08
0.0025815 0.0341336 4.10031e-08
1.24379e-08 4.10031e-08 0.0322178

0.0315464 0.00103789 -1.03894e-07
0.00103789 0.0228468 -2.62607e-08
-1.03894e-07 -2.62607e-08 0.0240725

0.0271009 -0.00435941 -2.12741e-07
-0.00435941 0.0237398 -1.98992e-08
-2.12741e-07 -1.98992e-08 0.018326

0.0362628 -0.001403 -1.44836e-07
-0.001403 0.0387456 3.45501e-08
-1.44836e-07 3.45501e-08 0.0354047

0.0315601 0.00317118 -7.29996e-08
0.00317118 0.0344048 7.31169e-08
-7.29996e-08 7.31169e-08 0.0340942

0.0273052 -0.0041568 -9.96064e-08
-0.0041568 0.0221777 5.66592e-08
-9.96064e-08 5.66592e-08 0.0184139

0.0303624 0.00139124 -4.01808e-08
0.00139124 0.0228334 -2.74301e-08
-4.01808e-08 -2.74301e-08 0.0209574

0.0186042 -0.00269743 -1.30671e-07
-0.00269743 0.0289323 -3.04662e-07
-1.30671e-07 -3.04662e-07 0.0158951

0.0272036 0.00188919 -1.56106e-07
0.00188919 0.0343243 -5.57073e-10
-1.56106e-07 -5.57073e-10 0.0306585

0.0353855 0.00305709 6.11539e-08
0.00305709 0.0308236 1.77473e-07
6.11539e-08 1.77473e-07 0.0327575

0.0226508 0.00538674 -4.93455e-08
0.00538674 0.0240916 9.39354e-08
-4.93455e-08 9.39354e-08 0.0162007

0.0459505 0.002237 -1.1507e-07
0.002237 0.0417519 -3.83007e-07
-1.1507e-07 -3.83007e-07 0.0366422

0.0230843 -0.000534378 6.87187e-09
-0.000534378 0.0313586 1.28104e-07
6.87187e-09 1.28104e-07 0.0230757

0.0463635 -0.0022548 -4.51013e-07
-0.0022548 0.0412959 -2.41474e-07
-4.51013e-07 -2.41474e-07 0.0365973

0.0370688 -0.00362445 -1.66799e-07
-0.00362445 0.0334949 2.5646e-08
-1.66799e-07 2.5646e-08 0.0346245

0.0351411 0.00361939 8.16669e-08
0.00361939 0.0300076 1.01485e-07
8.16669e-08 1.01485e-07 0.0324602

0.0299662 -0.0031595 1.12016e-07
-0.0031595 0.0246938 2.11729e-08
1.12016e-07 2.11729e-08 0.0232891

0.0230153 0.00403045 2.3052e-07
0.00403045 0.0277827 4.98194e-08
2.3052e-07 4.98194e-08 0.0203848

0.0210965 -0.00137872 6.71659e-08
-0.00137872 0.0298993 -2.82817e-07
6.71659e-08 -2.82817e-07 0.018254

0.0287498 0.00288897 4.42501e-08
0.00288897 0.0342314 4.6687e-08
4.42501e-08 4.6687e-08 0.0327037

0.0370155 0.00223606 2.03209e-07
0.00223606 0.0334553 -3.94741e-08
2.03209e-07 -3.94741e-08 0.0343879

0.0281523 0.00198845 -1.38824e-08
0.00198845 0.0340646 -9.42658e-08
-1.38824e-08 -9.42658e-08 0.0308693

0.0318871 0.0020733 -1.09397e-07
0.0020733 0.0252574 -3.4694e-08
-1.09397e-07 -3.4694e-08 0.0256209

0.0239106 -0.00277488 8.14558e-08
-0.00277488 0.0297689 1.99942e-08
8.14558e-08 1.99942e-08 0.0215644

0.0279024 -0.0037643 -1.20463e-07
-0.0037643 0.021818 2.06962e-07
-1.20463e-07 2.06962e-07 0.0180784

0.0293357 -0.00323218 6.74418e-08
-0.00323218 0.0326339 -1.07234e-07
6.74418e-08 -1.07234e-07 0.0324068

0.0306303 0.00361507 1.14592e-07
0.00361507 0.0322326 1.18142e-07
1.14592e-07 1.18142e-07 0.0323746

0.0287122 0.00304812 4.22471e-08
0.00304812 0.0340316 1.12577e-09
4.22471e-08 1.12577e-09 0.032634

0.0292106 0.00172519 4.60757e-08
0.00172519 0.037621 -2.43698e-08
4.60757e-08 -2.43698e-08 0.0338498

0.0344819 0.00123238 2.75641e-07
0.00123238 0.0275275 1.21332e-07
2.75641e-07 1.21332e-07 0.0306786

0.019963 -0.00060535 -3.26438e-08
-0.00060535 0.0296646 -2.09112e-08
-3.26438e-08 -2.09112e-08 0.0181063

0.0298016 -0.00486286 -1.1726e-07
-0.00486286 0.0330531 -6.28933e-08
-1.1726e-07 -6.28933e-08 0.0337454

0.0290855 0.00360048 3.0458e-08
0.00360048 0.0313638 5.4739e-08
3.0458e-08 5.4739e-08 0.0302678

0.0181075 0.00028283 1.48538e-09
0.00028283 0.0293147 -2.68073e-07
1.48538e-09 -2.68073e-07 0.0168807

0.0278469 0.00442445 -2.71437e-08
0.00442445 0.0209707 -8.96072e-08
-2.71437e-08 -8.96072e-08 0.017457

0.0291951 -0.00302069 6.77129e-08
-0.00302069 0.0327075 1.48796e-07
6.77129e-08 1.48796e-07 0.0321892

0.0352467 0.000759614 -1.27137e-08
0.000759614 0.0273427 -1.09636e-09
-1.27137e-08 -1.09636e-09 0.0325566

0.0294312 0.00352074 -1.55154e-07
0.00352074 0.0252044 -2.0379e-07
-1.55154e-07 -2.0379e-07 0.0231142

0.039639 0.00171015 -9.50994e-08
0.00171015 0.0390414 3.45134e-08
-9.50994e-08 3.45134e-08 0.0359433

0.0283786 0.00312386 1.95432e-07
0.00312386 0.0224041 1.90275e-07
1.95432e-07 1.90275e-07 0.0182888

0.0394915 -0.00175045 8.02231e-08
-0.00175045 0.0390671 -3.13336e-08
8.02231e-08 -3.13336e-08 0.0359084

0.0232639 0.000103497 2.09684e-07
0.000103497 0.0315221 1.2413e-07
2.09684e-07 1.2413e-07 0.0231226

0.0327635 -0.000288436 1.12713e-08
-0.000288436 0.0246631 4.45535e-08
1.12713e-08 4.45535e-08 0.0269696

0.0380577 -0.0021292 -2.0214e-08
-0.0021292 0.0304675 -1.69104e-07
-2.0214e-08 -1.69104e-07 0.0347967

0.0292422 0.00320602 -2.59181e-08
0.00320602 0.0332821 -1.05927e-07
-2.59181e-08 -1.05927e-07 0.0333467

0.0289543 -0.00177259 -4.44314e-08
-0.00177259 0.0366133 1.76168e-08
-4.44314e-08 1.76168e-08 0.0335032

0.0365871 -0.00108472 -1.83686e-07
-0.00108472 0.0264807 -1.43793e-08
-1.83686e-07 -1.43793e-08 0.0338637

0.0311837 -0.00292538 7.61016e-08
-0.00292538 0.0383089 1.14469e-07
7.61016e-08 1.14469e-07 0.0348471

0.0381678 -0.000885613 -1.10416e-07
-0.000885613 0.0387334 6.5871e-08
-1.10416e-07 6.5871e-08 0.0358385

0.030184 -0.00393998 -1.10596e-07
-0.00393998 0.0327147 1.49583e-07
-1.10596e-07 1.49583e-07 0.032767

0.0213352 0.00146973 -7.35238e-08
0.00146973 0.0296177 -3.11281e-07
-7.35238e-08 -3.11281e-07 0.0182979

0.0293918 -0.00364623 1.27414e-07
-0.00364623 0.0253525 -4.37222e-08
1.27414e-07 -4.37222e-08 0.0231849

0.0328622 -0.00181686 6.79981e-08
-0.00181686 0.03972 -5.63808e-08
6.79981e-08 -5.63808e-08 0.0352442

0.0350952 7.66816e-05 3.99738e-09
7.66816e-05 0.027226 3.44711e-10
3.99738e-09 3.44711e-10 0.033255

0.0308219 -0.00282877 -6.38158e-08
-0.00282877 0.0348954 5.01306e-08
-6.38158e-08 5.01306e-08 0.0340876

0.0295383 0.00338876 -1.43703e-07
0.00338876 0.0328756 1.47775e-07
-1.43703e-07 1.47775e-07 0.0333297

0.0264637 -0.00406389 7.60451e-08
-0.00406389 0.0272652 -1.21246e-07
7.60451e-08 -1.21246e-07 0.0215872

0.0371744 -0.00095781 3.05729e-07
-0.00095781 0.0416119 -2.03502e-07
3.05729e-07 -2.03502e-07 0.0358896

0.0227137 -0.00423828 -3.6481e-08
-0.00423828 0.027247 -5.34347e-08
-3.6481e-08 -5.34347e-08 0.0168795

0.0341874 -0.0025252 7.6701e-08
-0.0025252 0.0286099 1.13693e-07
7.6701e-08 1.13693e-07 0.031048

0.0364294 0.000290026 -1.15276e-08
0.000290026 0.0294412 1.00116e-07
-1.15276e-08 1.00116e-07 0.0341973

0.0396436 0.00239608 7.59375e-08
0.00239608 0.0391151 -2.78377e-07
7.59375e-08 -2.78377e-07 0.0358706

0.0238591 0.00260953 1.529e-07
0.00260953 0.0301555 1.93106e-07
1.529e-07 1.93106e-07 0.0218016

0.0334344 0.00358176 8.32381e-08
0.00358176 0.0307191 -2.31668e-08
8.32381e-08 -2.31668e-08 0.0317708

0.0316472 -0.00319486 -1.83342e-08
-0.00319486 0.0265552 -1.99541e-07
-1.83342e-08 -1.99541e-07 0.0269387

0.0289328 -0.00234115 -5.88809e-08
-0.00234115 0.0342386 -1.39523e-08
-5.88809e-08 -1.39523e-08 0.0326095

0.0262476 0.00450215 2.77569e-07
0.00450215 0.0245606 9.68745e-08
2.77569e-07 9.68745e-08 0.0180834

0.0284264 -0.00286676 1.35444e-07
-0.00286676 0.0340366 9.78045e-08
1.35444e-07 9.78045e-08 0.0324527

0.0331528 0.00405912 1.4999e-08
0.00405912 0.0304679 1.88497e-07
1.4999e-08 1.88497e-07 0.0315458

0.0333387 -0.00331182 -2.47083e-07
-0.00331182 0.0283603 -4.15437e-08
-2.47083e-07 -4.15437e-08 0.0300494

0.029165 -0.00329592 2.62741e-07
-0.00329592 0.0319914 2.04163e-07
2.62741e-07 2.04163e-07 0.030441

0.0314594 -0.00242972 -1.1021e-07
-0.00242972 0.0247218 -6.5063e-08
-1.1021e-07 -6.5063e-08 0.0251593

0.03296 -0.00246712 -1.27564e-07
-0.00246712 0.0267128 -2.13134e-07
-1.27564e-07 -2.13134e-07 0.0286

0.0294952 -0.00334177 6.78281e-08
-0.00334177 0.0329542 -1.92744e-07
6.78281e-08 -1.92744e-07 0.0334111

0.0261372 0.00463477 -1.16115e-07
0.00463477 0.0255445 1.03981e-07
-1.16115e-07 1.03981e-07 0.0210951

0.0281538 0.00201703 1.93957e-07
0.00201703 0.0343399 6.11061e-08
1.93957e-07 6.11061e-08 0.0311131

0.0308905 0.00348116 -7.63649e-08
0.00348116 0.0322592 3.68301e-09
-7.63649e-08 3.68301e-09 0.0326039

0.0291611 0.0033479 -3.90997e-09
0.0033479 0.0331958 -9.9868e-08
-3.90997e-09 -9.9868e-08 0.0332641

0.0289878 0.00152313 1.48703e-07
0.00152313 0.0354743 -7.23524e-08
1.48703e-07 -7.23524e-08 0.0326992

0.0310571 -0.00106194 -1.67898e-08
-0.00106194 0.0231442 -3.52146e-08
-1.67898e-08 -3.52146e-08 0.0220808

0.0238868 0.00240612 -1.34176e-07
0.00240612 0.0304146 1.97695e-07
-1.34176e-07 1.97695e-07 0.0221158

0.0292173 -0.00320444 2.91279e-08
-0.00320444 0.0326407 -8.53599e-08
2.91279e-08 -8.53599e-08 0.0316222

0.0289914 0.00335726 6.5291e-09
0.00335726 0.0309369 2.78959e-08
6.5291e-09 2.78959e-08 0.0285716

0.026616 -0.0045921 -1.7964e-07
-0.0045921 0.0252337 -6.51103e-08
-1.7964e-07 -6.51103e-08 0.0212593

0.0262812 0.00489411 2.66358e-07
0.00489411 0.0209487 1.39561e-07
2.66358e-07 1.39561e-07 0.0167645

0.0235056 -0.00428758 -1.12204e-07
-0.00428758 0.0274682 1.60988e-07
-1.12204e-07 1.60988e-07 0.020629

0.0266752 -0.00402831 -7.9205e-08
-0.00402831 0.0274862 1.62867e-07
-7.9205e-08 1.62867e-07 0.0220529

0.0353691 -0.000906501 -9.02069e-08
-0.000906501 0.0273945 3.77774e-08
-9.02069e-08 3.77774e-08 0.0326589

0.0260485 0.00392227 1.83984e-07
0.00392227 0.0280961 -7.21128e-08
1.83984e-07 -7.21128e-08 0.0221054

0.0307923 0.00171682 2.78472e-08
0.00171682 0.0233632 9.25943e-08
2.78472e-08 9.25943e-08 0.0220284

0.0214335 0.00172234 1.08159e-07
0.00172234 0.0302448 2.42708e-07
1.08159e-07 2.42708e-07 0.0211355

0.0242658 -0.00288996 -1.39571e-07
-0.00288996 0.0299558 1.02259e-07
-1.39571e-07 1.02259e-07 0.0220891

0.0313493 -0.000131222 -4.45507e-08
-0.000131222 0.0392774 4.75205e-08
-4.45507e-08 4.75205e-08 0.0346747

0.0230612 0.000294808 1.25394e-07
0.000294808 0.031465 1.35701e-07
1.25394e-07 1.35701e-07 0.0230653

0.0227799 0.00400219 7.76464e-08
0.00400219 0.0281312 -8.07192e-08
7.76464e-08 -8.07192e-08 0.0206408

0.0288926 0.00158603 9.04655e-08
0.00158603 0.0358373 1.4572e-07
9.04655e-08 1.4572e-07 0.0328977

0.02932 -0.00358084 -1.35692e-08
-0.00358084 0.0251329 -1.92696e-07
-1.35692e-08 -1.92696e-07 0.0232428

0.0369807 0.00273327 1.99405e-07
0.00273327 0.0297273 4.96964e-08
1.99405e-07 4.96964e-08 0.0338058

0.0371794 0.00348312 8.80149e-08
0.00348312 0.0334266 -2.33199e-07
8.80149e-08 -2.33199e-07 0.0346561

0.0345484 -0.00244667 2.64157e-07
-0.00244667 0.0285336 1.3842e-08
2.64157e-07 1.3842e-08 0.031383

0.0390603 -0.000265861 1.62136e-07
-0.000265861 0.0339282 1.78653e-07
1.62136e-07 1.78653e-07 0.0352121

0.0314834 -0.00418788 -4.73934e-09
-0.00418788 0.0317861 2.87219e-08
-4.73934e-09 2.87219e-08 0.0321606

0.0294663 0.00300809 -1.62781e-08
0.00300809 0.0223301 1.53593e-07
-1.62781e-08 1.53593e-07 0.0210694

0.0302342 0.00397304 -1.49173e-07
0.00397304 0.0326677 1.37468e-07
-1.49173e-07 1.37468e-07 0.0327243

0.0302818 0.0038469 1.17626e-07
0.0038469 0.0326119 1.12467e-07
1.17626e-07 1.12467e-07 0.0326791

0.0262479 0.00396256 -8.22643e-08
0.00396256 0.0277715 3.69014e-08
-8.22643e-08 3.69014e-08 0.0218679

0.034455 0.00357683 4.82936e-08
0.00357683 0.0317835 2.0483e-07
4.82936e-08 2.0483e-07 0.0328356

0.030253 0.000452502 -2.62772e-08
0.000452502 0.0204309 -2.12059e-08
-2.62772e-08 -2.12059e-08 0.0205762

0.0331902 0.00420069 -3.78086e-08
0.00420069 0.0323774 7.44257e-09
-3.78086e-08 7.44257e-09 0.0334881

0.0305046 -0.00165436 -5.88384e-08
-0.00165436 0.0366209 1.69502e-08
-5.88384e-08 1.69502e-08 0.0336669

0.0373644 0.00323258 1.23612e-07
0.00323258 0.0334633 1.37923e-08
1.23612e-07 1.37923e-08 0.0346683

0.030742 -0.00389613 -9.22103e-08
-0.00389613 0.0322777 -1.42058e-07
-9.22103e-08 -1.42058e-07 0.0326846

0.0293778 -0.000644864 5.46982e-08
-0.000644864 0.0369075 7.44057e-08
5.46982e-08 7.44057e-08 0.032852

0.0288168 -0.00315291 -6.67605e-08
-0.00315291 0.0221428 1.00911e-07
-6.67605e-08 1.00911e-07 0.0187617

0.0290071 0.00384523 9.71708e-08
0.00384523 0.0255816 9.89336e-08
9.71708e-08 9.89336e-08 0.0230762

0.0217042 0.00189139 9.4947e-08
0.00189139 0.0300657 1.88938e-07
9.4947e-08 1.88938e-07 0.0210868

0.0349951 -0.000161421 1.26191e-07
-0.000161421 0.0273942 3.77544e-08
1.26191e-07 3.77544e-08 0.0333059

0.0344246 1.74013e-07 -4.13334e-08
1.74013e-07 0.0272789 -5.27523e-08
-4.13334e-08 -5.27523e-08 0.0320456

0.02917 0.00304007 -2.99951e-10
0.00304007 0.0326846 1.17568e-07
-2.99951e-10 1.17568e-07 0.0321371

0.0314545 0.00316652 -8.24596e-09
0.00316652 0.0342543 6.05261e-08
-8.24596e-09 6.05261e-08 0.0340624

0.0291734 -0.00320443 2.28494e-08
-0.00320443 0.0332431 -8.96654e-08
2.28494e-08 -8.96654e-08 0.0333833

0.0287777 -8.57743e-05 -1.44086e-07
-8.57743e-05 0.0367095 -2.20384e-07
-1.44086e-07 -2.20384e-07 0.0325299

0.029469 0.00337603 -6.01465e-08
0.00337603 0.0330797 -1.60244e-07
-6.01465e-08 -1.60244e-07 0.0333591

0.0328648 -0.00134679 1.62901e-07
-0.00134679 0.0253654 -1.86062e-07
1.62901e-07 -1.86062e-07 0.0278329

0.0263588 -0.00425528 -5.09666e-08
-0.00425528 0.028184 8.86596e-08
-5.09666e-08 8.86596e-08 0.0242711

0.0363019 -0.000331882 -7.98862e-08
-0.000331882 0.0293874 -6.86228e-08
-7.98862e-08 -6.86228e-08 0.0340322

0.0267848 -0.00444633 3.10182e-08
-0.00444633 0.025194 -1.93774e-07
3.10182e-08 -1.93774e-07 0.0209522

0.0309037 0.00250712 1.25075e-07
0.00250712 0.0350677 2.94968e-08
1.25075e-07 2.94968e-08 0.034072

0.035118 -0.00349728 2.5465e-07
-0.00349728 0.0303923 2.83008e-08
2.5465e-07 2.83008e-08 0.032619

0.0305065 -0.00124999 -1.266e-07
-0.00124999 0.0229815 1.2478e-08
-1.266e-07 1.2478e-08 0.0214815

0.0371517 -0.0030773 3.12067e-09
-0.0030773 0.0316572 -1.24783e-07
3.12067e-09 -1.24783e-07 0.033992

0.0349739 0.000321992 1.84817e-08
0.000321992 0.0275594 8.82599e-08
1.84817e-08 8.82599e-08 0.0334343

0.0358472 -0.00308862 1.14344e-08
-0.00308862 0.033262 -1.44507e-07
1.14344e-08 -1.44507e-07 0.0341475

0.0349329 -0.0034106 6.65625e-08
-0.0034106 0.029599 1.22995e-07
6.65625e-08 1.22995e-07 0.0321823

0.0349141 -0.00113379 -1.20208e-07
-0.00113379 0.0278542 -1.09336e-08
-1.20208e-07 -1.09336e-08 0.0323457

0.0314942 -0.00306258 1.96544e-07
-0.00306258 0.0344527 -3.10276e-08
1.96544e-07 -3.10276e-08 0.0341507

0.0292399 -0.00407172 1.57268e-07
-0.00407172 0.0269036 -8.66702e-08
1.57268e-07 -8.66702e-08 0.0253499

0.0349968 -0.00324404 3.93533e-08
-0.00324404 0.0299195 1.57246e-08
3.93533e-08 1.57246e-08 0.0321995

0.0314671 0.00140926 -8.70385e-08
0.00140926 0.0233303 8.69905e-08
-8.70385e-08 8.69905e-08 0.0244873

0.033669 0.00348428 1.16009e-07
0.00348428 0.0334479 -2.308e-07
1.16009e-07 -2.308e-07 0.0336542

0.0298976 -0.00496688 1.12353e-07
-0.00496688 0.0330829 -1.94596e-07
1.12353e-07 -1.94596e-07 0.0338615

0.030048 0.00492007 6.21241e-08
0.00492007 0.0329452 -1.65599e-07
6.21241e-08 -1.65599e-07 0.0338284

0.0276931 -0.00374169 9.13159e-08
-0.00374169 0.0348118 -7.18908e-08
9.13159e-08 -7.18908e-08 0.033771

0.0279307 0.00354687 -2.02494e-08
0.00354687 0.0348393 -7.82047e-08
-2.02494e-08 -7.82047e-08 0.0337358

0.0364344 -0.00115351 5.88412e-08
-0.00115351 0.0263469 1.58157e-07
5.88412e-08 1.58157e-07 0.0337622

0.0362032 0.0012474 2.33302e-09
0.0012474 0.0265682 -3.59435e-09
2.33302e-09 -3.59435e-09 0.033725

0.0350395 -0.00130675 6.11427e-10
-0.00130675 0.0284723 -6.62707e-08
6.11427e-10 -6.62707e-08 0.0325801

0.0344403 0.00425889 1.44612e-07
0.00425889 0.0342934 6.33704e-08
1.44612e-07 6.33704e-08 0.0348165

0.0343159 -0.00435639 -9.81193e-08
-0.00435639 0.0342852 1.26767e-07
-9.81193e-08 1.26767e-07 0.0348049

0.0305252 0.00209333 1.21235e-07
0.00209333 0.0381693 3.72671e-08
1.21235e-07 3.72671e-08 0.0348537

0.0306685 -0.00205937 -1.32916e-07
-0.00205937 0.0380986 -7.20315e-08
-1.32916e-07 -7.20315e-08 0.034841

0.0395054 -0.000529354 7.69378e-08
-0.000529354 0.0328532 -2.31942e-08
7.69378e-08 -2.31942e-08 0.0352617

0.0397076 0.00051352 -1.17283e-07
0.00051352 0.0326254 -2.11415e-08
-1.17283e-07 -2.11415e-08 0.035307

0.0239685 0.00127622 -4.02705e-09
0.00127622 0.0320081 -1.02333e-07
-4.02705e-09 -1.02333e-07 0.025188

0.0311666 -0.00326578 -4.31564e-08
-0.00326578 0.0322453 2.61542e-07
-4.31564e-08 2.61542e-07 0.0328062

0.0277846 -0.00478537 1.23653e-07
-0.00478537 0.0333165 -9.19885e-08
1.23653e-07 -9.19885e-08 0.0334596

0.0333644 -0.000610376 1.75045e-07
-0.000610376 0.0264071 -1.64851e-07
1.75045e-07 -1.64851e-07 0.0284524

0.0381915 -0.00225181 5.88519e-08
-0.00225181 0.0307986 -5.39745e-08
5.88519e-08 -5.39745e-08 0.0348967

0.0382395 0.00218329 -1.02475e-07
0.00218329 0.0309118 -4.31809e-08
-1.02475e-07 -4.31809e-08 0.0349289

0.0360883 1.5608e-05 2.56876e-08
1.5608e-05 0.025131 7.54637e-08
2.56876e-08 7.54637e-08 0.0334746

0.0242445 0.0030294 1.08666e-08
0.0030294 0.0304025 -6.67966e-08
1.08666e-08 -6.67966e-08 0.0242807

0.0276793 0.00475602 9.03568e-09
0.00475602 0.0333172 -9.93345e-08
9.03568e-09 -9.93345e-08 0.0333974

0.0286794 -0.00307603 -2.07014e-08
-0.00307603 0.0342655 -1.46501e-08
-2.07014e-08 -1.46501e-08 0.0327567

0.0310903 0.00303625 2.00022e-07
0.00303625 0.0251503 -1.85997e-07
2.00022e-07 -1.85997e-07 0.0254709

0.0372312 0.00316573 -4.27035e-08
0.00316573 0.0315446 1.88629e-07
-4.27035e-08 1.88629e-07 0.0340799

0.0292312 -0.00406805 -3.84105e-08
-0.00406805 0.0269396 -1.52975e-07
-3.84105e-08 -1.52975e-07 0.0253251

0.0364057 -0.000453905 -8.5019e-08
-0.000453905 0.0296958 1.81371e-07
-8.5019e-08 1.81371e-07 0.0341352

0.0273498 -0.00449465 -1.42335e-08
-0.00449465 0.0334001 7.49603e-08
-1.42335e-08 7.49603e-08 0.0334462

0.0240413 0.00107914 8.89623e-08
0.00107914 0.0322492 -1.24619e-07
8.89623e-08 -1.24619e-07 0.0255097

0.0242331 0.00282715 -2.10971e-07
0.00282715 0.0307063 4.42042e-08
-2.10971e-07 4.42042e-08 0.0245486

0.0267961 0.00459523 -1.23804e-07
0.00459523 0.0240451 9.20803e-08
-1.23804e-07 9.20803e-08 0.0182163

0.0298555 0.000199865 -6.15844e-08
0.000199865 0.020091 -8.50854e-08
-6.15844e-08 -8.50854e-08 0.0193653

0.0319131 -0.00302398 1.89556e-08
-0.00302398 0.0341666 1.21244e-07
1.89556e-08 1.21244e-07 0.0340398

0.0229217 0.0040003 1.38761e-07
0.0040003 0.0276641 3.00174e-08
1.38761e-07 3.00174e-08 0.0176557

0.0292145 0.00310137 -2.01238e-09
0.00310137 0.0327683 1.14845e-07
-2.01238e-09 1.14845e-07 0.0310166

0.0315995 -0.000694585 -1.35373e-07
-0.000694585 0.0231633 -3.84352e-08
-1.35373e-07 -3.84352e-08 0.0244885

0.0327662 0.00146467 -3.77126e-08
0.00146467 0.0253504 -4.0598e-08
-3.77126e-08 -4.0598e-08 0.027617

0.0359831 5.60044e-05 5.74595e-08
5.60044e-05 0.024964 -8.62375e-08
5.74595e-08 -8.62375e-08 0.0333907

0.0279709 -0.00380537 9.82644e-08
-0.00380537 0.0349535 4.54871e-08
9.82644e-08 4.54871e-08 0.0338203

0.0393164 -0.000843803 -3.41053e-07
-0.000843803 0.0416043 1.15324e-07
-3.41053e-07 1.15324e-07 0.0361937

0.0298729 0.00493885 -5.85578e-08
0.00493885 0.0329612 1.50197e-07
-5.85578e-08 1.50197e-07 0.0337834

0.0302929 0.000214524 -5.46299e-09
0.000214524 0.0203995 -1.97796e-08
-5.46299e-09 -1.97796e-08 0.0172787

0.0266777 -0.00425121 8.42959e-08
-0.00425121 0.0281373 -7.78531e-08
8.42959e-08 -7.78531e-08 0.0244411

0.0277515 0.00481572 -9.06505e-08
0.00481572 0.0333201 -1.06698e-07
-9.06505e-08 -1.06698e-07 0.0334598

0.027949 -0.00145853 -1.59214e-07
-0.00145853 0.0350897 -8.6545e-08
-1.59214e-07 -8.6545e-08 0.0314546

0.0244686 -0.00330585 -4.41691e-08
-0.00330585 0.03002 2.24716e-07
-4.41691e-08 2.24716e-07 0.0242207

0.0279958 0.00377949 -1.15106e-07
0.00377949 0.0349149 4.50681e-08
-1.15106e-07 4.50681e-08 0.0337912

0.0313665 -0.00341016 2.59471e-08
-0.00341016 0.0270126 -9.96606e-08
2.59471e-08 -9.96606e-08 0.0269954

0.040282 0.00140948 -1.37687e-07
0.00140948 0.04062 3.04783e-07
-1.37687e-07 3.04783e-07 0.0361741

0.0258848 0.00400363 1.55823e-07
0.00400363 0.0289592 -1.25229e-07
1.55823e-07 -1.25229e-07 0.0245147

0.0366824 0.00110287 6.87805e-09
0.00110287 0.0263573 7.1899e-08
6.87805e-09 7.1899e-08 0.0339021

0.0333463 0.00398435 -3.6163e-08
0.00398435 0.0321201 1.34656e-07
-3.6163e-08 1.34656e-07 0.03332

0.0292326 0.0030678 -4.42319e-08
0.0030678 0.0326101 1.40796e-07
-4.42319e-08 1.40796e-07 0.0321622

0.0343682 -0.00431049 -1.65607e-07
-0.00431049 0.0345092 -2.26202e-08
-1.65607e-07 -2.26202e-08 0.034889

0.0354944 -0.00306395 2.53518e-07
-0.00306395 0.0305943 2.59315e-08
2.53518e-07 2.59315e-08 0.0327547

0.0333697 0.00138759 -6.08791e-08
0.00138759 0.0395811 -1.73158e-08
-6.08791e-08 -1.73158e-08 0.0350065

0.0292017 -0.00307976 2.28674e-07
-0.00307976 0.032879 -1.08102e-07
2.28674e-07 -1.08102e-07 0.0313878

0.0292693 -0.00123254 3.4977e-07
-0.00123254 0.0192896 3.7647e-08
3.4977e-07 3.7647e-08 0.0164146

0.0287829 -0.00183266 3.78421e-09
-0.00183266 0.0184164 -5.35126e-10
3.78421e-09 -5.35126e-10 0.0161995

0.0385327 0.00220256 2.07881e-07
0.00220256 0.0332428 -1.43305e-07
2.07881e-07 -1.43305e-07 0.0347669

0.0280604 0.00294569 1.8553e-07
0.00294569 0.0323406 -3.10737e-08
1.8553e-07 -3.10737e-08 0.0295225

0.0320719 0.00383504 -1.27018e-07
0.00383504 0.030965 -5.27747e-08
-1.27018e-07 -5.27747e-08 0.0314589

0.0320549 9.00454e-05 -1.46547e-07
9.00454e-05 0.0245806 6.39019e-08
-1.46547e-07 6.39019e-08 0.0248919

0.0302415 0.000865992 8.06624e-08
0.000865992 0.0385854 1.47169e-07
8.06624e-08 1.47169e-07 0.0341005

0.0354065 0.0021913 7.78085e-08
0.0021913 0.0293273 5.95338e-08
7.78085e-08 5.95338e-08 0.0328628

0.0248151 -0.00333966 3.25274e-09
-0.00333966 0.0300111 -1.22712e-07
3.25274e-09 -1.22712e-07 0.0244739

0.0286547 -0.000337704 -6.81931e-08
-0.000337704 0.0366623 -2.13086e-07
-6.81931e-08 -2.13086e-07 0.0324001

0.0252191 0.00174043 3.24488e-08
0.00174043 0.0320348 -1.01287e-07
3.24488e-08 -1.01287e-07 0.025688

0.0332853 -0.00391003 -2.88701e-07
-0.00391003 0.0305013 -6.42659e-09
-2.88701e-07 -6.42659e-09 0.0315968

0.0290694 -0.00389685 8.91798e-08
-0.00389685 0.0282048 9.34351e-08
8.91798e-08 9.34351e-08 0.0257176

0.0261532 0.00409978 -1.99095e-07
0.00409978 0.0285507 -1.68858e-07
-1.99095e-07 -1.68858e-07 0.024322

0.0452886 -0.00201678 1.27076e-08
-0.00201678 0.0396084 -1.44745e-08
1.27076e-08 -1.44745e-08 0.0363706

0.0316707 0.000256475 -2.51725e-08
0.000256475 0.039331 -1.29689e-08
-2.51725e-08 -1.29689e-08 0.0347732

0.0306212 0.00265073 -3.7991e-08
0.00265073 0.0384468 9.97316e-08
-3.7991e-08 9.97316e-08 0.0349619

0.0387693 0.00209479 -1.17007e-07
0.00209479 0.0302262 6.47724e-08
-1.17007e-07 6.47724e-08 0.0349467

0.0313756 -0.00345099 5.11114e-08
-0.00345099 0.0321456 7.87415e-08
5.11114e-08 7.87415e-08 0.0325772

0.031823 0.00233649 -4.44504e-08
0.00233649 0.0256243 1.73385e-07
-4.44504e-08 1.73385e-07 0.0258836

0.0349967 -0.000707997 -1.21423e-07
-0.000707997 0.0415779 1.00348e-07
-1.21423e-07 1.00348e-07 0.0357316

0.035793 -0.00251867 -9.56903e-08
-0.00251867 0.0295546 -6.79696e-08
-9.56903e-08 -6.79696e-08 0.0332624

0.0333026 -0.00204 -4.37852e-08
-0.00204 0.0266568 1.105e-09
-4.37852e-08 1.105e-09 0.0286797

0.0252561 0.00151129 -1.03093e-07
0.00151129 0.0322796 -1.31795e-07
-1.03093e-07 -1.31795e-07 0.0259541

0.0268089 -0.00334536 2.27963e-08
-0.00334536 0.0300143 2.273e-07
2.27963e-08 2.273e-07 0.0251912

0.0364818 -0.00336068 -1.12325e-07
-0.00336068 0.035291 9.95821e-08
-1.12325e-07 9.95821e-08 0.0347464

0.0284802 0.00415313 -1.98345e-07
0.00415313 0.0277205 1.16138e-07
-1.98345e-07 1.16138e-07 0.0254717

0.0372478 -0.00334538 -2.63783e-07
-0.00334538 0.033326 4.52056e-09
-2.63783e-07 4.52056e-09 0.0346158

0.0322112 0.000337943 -7.80547e-08
0.000337943 0.0248663 7.31682e-08
-7.80547e-08 7.31682e-08 0.0254415

0.0191635 -0.00368979 7.75917e-08
-0.00368979 0.0275301 -2.64907e-07
7.75917e-08 -2.64907e-07 0.0163133

0.0292147 -0.00380422 1.64605e-07
-0.00380422 0.0281969 -7.07852e-08
1.64605e-07 -7.07852e-08 0.0258117

0.0230492 0.00412811 6.88003e-08
0.00412811 0.0280246 -2.40509e-07
6.88003e-08 -2.40509e-07 0.0175948

0.0296949 -0.00155926 -1.96819e-07
-0.00155926 0.0375377 -6.80457e-08
-1.96819e-07 -6.80457e-08 0.0336528

0.0243637 -0.00179403 -1.56531e-08
-0.00179403 0.0318778 -2.67787e-08
-1.56531e-08 -2.67787e-08 0.0254518

0.0424388 -0.00323386 -1.58469e-07
-0.00323386 0.0423775 -2.71472e-07
-1.58469e-07 -2.71472e-07 0.0363789

0.0263405 0.00309167 4.91346e-08
0.00309167 0.0307065 4.43163e-08
4.91346e-08 4.43163e-08 0.0254817

0.0334813 -0.0043237 -8.3903e-08
-0.0043237 0.0326636 -1.80845e-07
-8.3903e-08 -1.80845e-07 0.0335707

0.0240841 -0.00155104 8.82576e-08
-0.00155104 0.0318922 -1.19398e-08
8.82576e-08 -1.19398e-08 0.0251806

0.0362274 -0.00253861 -1.64242e-07
-0.00253861 0.0295154 1.77832e-07
-1.64242e-07 1.77832e-07 0.0335236

0.0266776 0.00310517 -2.64707e-07
0.00310517 0.0303995 -6.24554e-08
-2.64707e-07 -6.24554e-08 0.025317

0.0343481 -0.000653721 1.4157e-07
-0.000653721 0.0272809 -2.09273e-08
1.4157e-07 -2.09273e-08 0.0305819

0.0188928 -0.00387206 -1.05083e-07
-0.00387206 0.0298057 1.56082e-07
-1.05083e-07 1.56082e-07 0.0129631

0.0280034 0.00275503 1.9753e-07
0.00275503 0.0326336 5.61621e-08
1.9753e-07 5.61621e-08 0.0305778

0.0314423 -0.00251272 7.11975e-08
-0.00251272 0.0247258 2.01701e-08
7.11975e-08 2.01701e-08 0.0254096

0.0391212 -0.00286908 -1.67503e-07
-0.00286908 0.032225 7.11989e-08
-1.67503e-07 7.11989e-08 0.0349406

0.0287573 0.00412451 -6.41265e-09
0.00412451 0.027304 -8.1032e-08
-6.41265e-09 -8.1032e-08 0.0252591

0.0313656 -0.00391976 -1.58149e-08
-0.00391976 0.0285459 -3.70109e-08
-1.58149e-08 -3.70109e-08 0.0287349

0.0354123 0.00276407 2.58636e-07
0.00276407 0.0308594 5.11085e-09
2.58636e-07 5.11085e-09 0.0330431

0.0297776 -0.0037037 -1.69955e-07
-0.0037037 0.0329419 -6.03385e-08
-1.69955e-07 -6.03385e-08 0.0333464

0.0270587 -0.0034108 6.53129e-08
-0.0034108 0.029987 -1.18057e-07
6.53129e-08 -1.18057e-07 0.0254009

0.028445 0.00377184 -3.38683e-08
0.00377184 0.0289441 -1.30747e-07
-3.38683e-08 -1.30747e-07 0.0258908

0.0313754 0.00341387 -2.26151e-07
0.00341387 0.0269028 1.37407e-08
-2.26151e-07 1.37407e-08 0.0269695

0.0365399 -0.00194464 -2.53649e-07
-0.00194464 0.0306288 -1.18488e-08
-2.53649e-07 -1.18488e-08 0.0336393

0.025537 -0.00216374 5.33102e-08
-0.00216374 0.0318065 -2.09263e-08
5.33102e-08 -2.09263e-08 0.0258572

0.0347036 -0.00231415 2.3583e-07
-0.00231415 0.028338 -5.03531e-08
2.3583e-07 -5.03531e-08 0.0314597

0.0341901 0.00222335 -1.03658e-07
0.00222335 0.0274354 5.73865e-08
-1.03658e-07 5.73865e-08 0.0306076

0.0336476 -0.00124543 1.79491e-07
-0.00124543 0.0393031 4.49121e-08
1.79491e-07 4.49121e-08 0.0349307

0.0320765 -0.00174702 -4.0759e-08
-0.00174702 0.0253336 -1.94149e-07
-4.0759e-08 -1.94149e-07 0.0258745

0.025005 7.98696e-05 4.22713e-08
7.98696e-05 0.0331554 -1.7792e-07
4.22713e-08 -1.7792e-07 0.0268646

0.0332517 0.00242919 1.46265e-07
0.00242919 0.0271971 2.554e-07
1.46265e-07 2.554e-07 0.0289256

0.0311217 0.00359943 2.69014e-07
0.00359943 0.0272961 -4.76497e-08
2.69014e-07 -4.76497e-08 0.027126

0.0252987 -0.00204148 -1.77238e-07
-0.00204148 0.0318689 -1.80653e-08
-1.77238e-07 -1.80653e-08 0.0256144

0.0252043 -0.000154791 -6.6107e-08
-0.000154791 0.0332965 1.13504e-07
-6.6107e-08 1.13504e-07 0.0271475

0.0354166 0.00385847 -1.48456e-07
0.00385847 0.0329988 -1.1482e-07
-1.48456e-07 -1.1482e-07 0.0338989

0.0275894 -0.00143102 -8.28488e-08
-0.00143102 0.0353465 1.45906e-07
-8.28488e-08 1.45906e-07 0.0314457

0.0312381 -0.00348433 -2.2135e-07
-0.00348433 0.0269809 -1.60145e-07
-2.2135e-07 -1.60145e-07 0.0270132

0.0313007 0.00277317 -1.74047e-07
0.00277317 0.0249251 1.02432e-07
-1.74047e-07 1.02432e-07 0.0252494

0.0345868 0.00311862 -1.39445e-07
0.00311862 0.0293901 -8.51634e-09
-1.39445e-07 -8.51634e-09 0.0317994

0.0279948 0.000716798 -1.28071e-07
0.000716798 0.0360436 -4.65999e-08
-1.28071e-07 -4.65999e-08 0.0318217

0.0287199 0.0037821 4.89272e-08
0.0037821 0.0285627 -1.74217e-07
4.89272e-08 -1.74217e-07 0.0257311

0.0367934 0.00305755 -7.91591e-08
0.00305755 0.0361279 6.15919e-08
-7.91591e-08 6.15919e-08 0.0349103

0.0226827 -0.0075464 5.1384e-08
-0.0075464 0.0186897 6.79754e-08
5.1384e-08 6.79754e-08 0.0108465

0.0332949 -0.00328767 -2.54508e-07
-0.00328767 0.0286361 -5.64874e-08
-2.54508e-07 -5.64874e-08 0.0301276

0.0207292 0.000913593 -9.01463e-09
0.000913593 0.0300352 -1.79385e-08
-9.01463e-09 -1.79385e-08 0.0183487

0.031304 -0.00378221 7.47262e-08
-0.00378221 0.029235 1.24888e-07
7.47262e-08 1.24888e-07 0.0290351

0.00153971 -0.00651939 -2.97885e-08
-0.00651939 0.0275709 1.30512e-07
-2.97885e-08 1.30512e-07 0.00290869

0.0014701 0.00636892 1.33936e-08
0.00636892 0.0275887 5.8681e-08
1.33936e-08 5.8681e-08 0.00300165

0.0119857 0.0145063 7.43866e-08
0.0145063 0.0175341 9.32778e-08
7.43866e-08 9.32778e-08 0.00277156

0.0121671 -0.014497 4.8396e-08
-0.014497 0.0172255 -6.06867e-08
4.8396e-08 -6.06867e-08 0.00280417

0.0293435 -0.000164109 -3.56998e-08
-0.000164109 0 0
-3.56998e-08 0 0.002953

0.0235943 -0.0112837 1.38885e-07
-0.0112837 0.00539599 -6.68833e-08
1.38885e-07 -6.68833e-08 0.00297869

0.0236365 0.01135 -1.48129e-09
0.01135 0.00545007 -7.13353e-10
-1.48129e-09 -7.13353e-10 0.00303986

0.0369151 0.00191173 9.04051e-08
0.00191173 0.0302457 -4.3271e-08
9.04051e-08 -4.3271e-08 0.0338814

0.0387079 0.00340979 2.08165e-07
0.00340979 0.0366198 -1.43215e-07
2.08165e-07 -1.43215e-07 0.0355818

0.0344197 0.000872228 1.70486e-08
0.000872228 0.0274605 9.71837e-08
1.70486e-08 9.71837e-08 0.0316917

0.0328776 0.0028507 2.7781e-07
0.0028507 0.0268927 1.82206e-08
2.7781e-07 1.82206e-08 0.02865

0.025704 0.00231366 1.10835e-07
0.00231366 0.0323714 5.67972e-08
1.10835e-07 5.67972e-08 0.0276392

0.0307168 0.00376967 1.47426e-07
0.00376967 0.0276799 1.32428e-07
1.47426e-07 1.32428e-07 0.0271212

0.0333094 -0.00390364 -2.49826e-07
-0.00390364 0.0304697 4.95652e-08
-2.49826e-07 4.95652e-08 0.0316337

0.0309775 0.00365486 -1.71053e-07
0.00365486 0.0272906 -8.34221e-08
-1.71053e-07 -8.34221e-08 0.0269288

0.0249904 -0.000371634 -7.40308e-10
-0.000371634 0.0331265 -1.79297e-07
-7.40308e-10 -1.79297e-07 0.0268468

0.0385509 -0.00348448 -3.26804e-08
-0.00348448 0.0368832 -2.57193e-08
-3.26804e-08 -2.57193e-08 0.0355873

0.0251789 -0.000635762 5.84317e-08
-0.000635762 0.0332151 1.24064e-07
5.84317e-08 1.24064e-07 0.0271063

0.0360216 0.00304773 -1.93259e-07
0.00304773 0.0330149 4.7238e-09
-1.93259e-07 4.7238e-09 0.0341017

0.0296274 0.00347646 1.0412e-07
0.00347646 0.0248495 8.61826e-08
1.0412e-07 8.61826e-08 0.023026

0.0305002 -0.0017141 -9.28227e-09
-0.0017141 0.0375162 1.45597e-07
-9.28227e-09 1.45597e-07 0.0347403

0.0339246 0.00180497 1.95809e-07
0.00180497 0.0271853 2.56202e-07
1.95809e-07 2.56202e-07 0.0303244

0.0312056 -0.00392104 -1.78071e-07
-0.00392104 0.0285351 -2.33447e-07
-1.78071e-07 -2.33447e-07 0.0286183

0.0315881 -0.0032218 -3.49274e-08
-0.0032218 0.0266954 1.98538e-07
-3.49274e-08 1.98538e-07 0.0270514

0.0384829 -0.00214165 -1.7803e-07
-0.00214165 0.0334203 1.6831e-07
-1.7803e-07 1.6831e-07 0.0347486

0.0326857 0.00366447 -7.6205e-08
0.00366447 0.0292361 -1.09092e-07
-7.6205e-08 -1.09092e-07 0.0301589

0.0326495 0.00313807 -5.22813e-08
0.00313807 0.0272561 -6.07929e-08
-5.22813e-08 -6.07929e-08 0.0287918

0.0269588 -0.000365354 8.25205e-08
-0.000365354 0.0349916 -1.88077e-07
8.25205e-08 -1.88077e-07 0.0301719

0.0259032 0.000765643 -8.59748e-08
0.000765643 0.0340083 7.09352e-08
-8.59748e-08 7.09352e-08 0.0288269

0.0327835 0.000345443 4.39658e-08
0.000345443 0.0248651 8.07361e-08
4.39658e-08 8.07361e-08 0.0274477

0.0313918 -0.000944981 -1.75951e-07
-0.000944981 0.0230069 1.03233e-08
-1.75951e-07 1.03233e-08 0.0238955

0.0308851 0.00398584 -6.54428e-08
0.00398584 0.0288101 1.10091e-07
-6.54428e-08 1.10091e-07 0.028628

0.0331225 -0.00343204 -6.91382e-08
-0.00343204 0.0285446 -2.32661e-07
-6.91382e-08 -2.32661e-07 0.0299733

0.0364169 -0.00282377 9.00814e-08
-0.00282377 0.0327365 -4.52234e-08
9.00814e-08 -4.52234e-08 0.034148

0.0292106 -0.00412825 3.85197e-08
-0.00412825 0.0291966 1.22193e-07
3.85197e-08 1.22193e-07 0.0277578

0.0269759 -0.00362108 1.79155e-07
-0.00362108 0.0304695 -3.34551e-08
1.79155e-07 -3.34551e-08 0.0272173

0.0283306 0.00390005 6.60781e-08
0.00390005 0.0299053 6.7738e-08
6.60781e-08 6.7738e-08 0.0277559

0.0259049 -0.00124922 -8.38864e-08
-0.00124922 0.0336184 -4.83361e-08
-8.38864e-08 -4.83361e-08 0.0285198

0.0266582 -0.000202136 6.68857e-08
-0.000202136 0.034918 2.29901e-07
6.68857e-08 2.29901e-07 0.0299238

0.027766 0.000752832 1.46998e-07
0.000752832 0.0360431 -4.86747e-08
1.46998e-07 -4.86747e-08 0.0316622

0.0262509 -0.00274999 -8.90471e-08
-0.00274999 0.0319677 1.9145e-07
-8.90471e-08 1.9145e-07 0.0277145

0.0345872 0.00317604 -8.56516e-08
0.00317604 0.0291724 -1.09791e-07
-8.56516e-08 -1.09791e-07 0.0316384

0.033914 -0.00126126 1.668e-07
-0.00126126 0.0269341 4.1673e-08
1.668e-07 4.1673e-08 0.0302058

0.0257939 0.00097458 1.06776e-07
0.00097458 0.0338344 -6.30961e-08
1.06776e-07 -6.30961e-08 0.0285458

0.0278278 -0.00127012 9.74209e-08
-0.00127012 0.0354022 1.82688e-07
9.74209e-08 1.82688e-07 0.0313701

0.027297 -0.00213755 -8.86303e-08
-0.00213755 0.0336614 1.33145e-07
-8.86303e-08 1.33145e-07 0.0302297

0.0327821 -0.00107745 1.24024e-08
-0.00107745 0.0253235 -5.0693e-08
1.24024e-08 -5.0693e-08 0.0272581

0.0333196 -0.00427146 3.59841e-08
-0.00427146 0.0323851 8.16611e-08
3.59841e-08 8.16611e-08 0.0335332

0.0264925 0.00122003 1.83805e-07
0.00122003 0.0338405 -6.21437e-08
1.83805e-07 -6.21437e-08 0.02882

0.0398133 -0.00243205 2.24343e-07
-0.00243205 0.0352216 8.78115e-08
2.24343e-07 8.78115e-08 0.0354647

0.0188911 0.00316532 1.12353e-07
0.00316532 0.0278801 -2.36088e-07
1.12353e-07 -2.36088e-07 0.0162751

0.0338201 -0.00352322 -7.01095e-09
-0.00352322 0.0334988 1.31758e-08
-7.01095e-09 1.31758e-08 0.0337301

0.035348 -0.00399929 1.08991e-07
-0.00399929 0.0330498 1.99707e-07
1.08991e-07 1.99707e-07 0.0339078

0.0266895 -9.03496e-05 -7.0479e-08
-9.03496e-05 0.0349231 2.26752e-07
-7.0479e-08 2.26752e-07 0.029932

0.0332478 -0.00217646 -6.45573e-09
-0.00217646 0.0271569 1.60243e-07
-6.45573e-09 1.60243e-07 0.0289067

0.0293513 0.00168473 7.46712e-10
0.00168473 0.0358242 1.50975e-07
7.46712e-10 1.50975e-07 0.0328838

0.0132089 -0.000379335 5.31608e-08
-0.000379335 0.028366 1.14407e-07
5.31608e-08 1.14407e-07 0.0111534

0.0271175 0.0018688 1.66323e-07
0.0018688 0.0340665 -9.56568e-08
1.66323e-07 -9.56568e-08 0.0303103

0.0311136 -0.00385923 4.91192e-09
-0.00385923 0.0291582 1.35497e-07
4.91192e-09 1.35497e-07 0.0288103

0.018622 0.00320508 2.71734e-07
0.00320508 0.0301433 2.04836e-07
2.71734e-07 2.04836e-07 0.0131286

0.0426016 0.00351702 -1.41483e-07
0.00351702 0.0418502 -3.8392e-07
-1.41483e-07 -3.8392e-07 0.0364837

0.0432069 -0.00374746 3.5941e-07
-0.00374746 0.041419 -2.73514e-07
3.5941e-07 -2.73514e-07 0.0364661

0.0310694 -0.00399145 1.28632e-07
-0.00399145 0.0304753 4.0346e-08
1.28632e-07 4.0346e-08 0.0304651

0.0289261 -0.00406488 6.38191e-08
-0.00406488 0.0291546 1.35881e-07
6.38191e-08 1.35881e-07 0.0275981

0.0330559 0.00272717 -1.2511e-07
0.00272717 0.0275322 5.54145e-08
-1.2511e-07 5.54145e-08 0.0290793

0.0327847 0.00196043 -6.32336e-08
0.00196043 0.0255947 1.73002e-07
-6.32336e-08 1.73002e-07 0.0278266

0.0464016 0.00041905 -4.47434e-07
0.00041905 0.0463556 2.63721e-07
-4.47434e-07 2.63721e-07 0.0366978

0.0469203 -0.000951666 -2.25822e-07
-0.000951666 0.0457683 2.67067e-07
-2.25822e-07 2.67067e-07 0.0367689

0.0348041 0.000638185 -7.93813e-08
0.000638185 0.027577 1.81049e-07
-7.93813e-08 1.81049e-07 0.0322206

0.0277556 0.000882626 9.80439e-08
0.000882626 0.0355752 2.06586e-08
9.80439e-08 2.06586e-08 0.0313525

0.0276112 0.000882948 -1.97361e-07
0.000882948 0.0355754 1.22181e-08
-1.97361e-07 1.22181e-08 0.0312486

0.0234619 0.00740098 -3.46399e-07
0.00740098 0.0183041 -7.02444e-08
-3.46399e-07 -7.02444e-08 0.010903

0.0272508 -0.00367625 -2.73695e-08
-0.00367625 0.0303517 1.96996e-08
-2.73695e-08 1.96996e-08 0.0273232

0.0365717 0.00239155 -2.13762e-08
0.00239155 0.0295801 9.97519e-08
-2.13762e-08 9.97519e-08 0.0337883

0.033279 0.00124768 1.36656e-08
0.00124768 0.0265077 2.50946e-08
1.36656e-08 2.50946e-08 0.0284356

0.0291565 -0.00349303 -3.87391e-08
-0.00349303 0.0304757 -5.16315e-08
-3.87391e-08 -5.16315e-08 0.028177

0.0328151 -0.00264815 1.97353e-08
-0.00264815 0.0267316 2.00618e-07
1.97353e-08 2.00618e-07 0.0285905

0.0224628 0.00761385 -8.51166e-08
0.00761385 0.0185925 3.36071e-08
-8.51166e-08 3.36071e-08 0.0109055

0.0331488 0.00410265 5.05183e-08
0.00410265 0.032642 -6.74465e-08
5.05183e-08 -6.74465e-08 0.0331854

0.0258937 -0.00257875 -6.28151e-08
-0.00257875 0.0320289 -2.0654e-07
-6.28151e-08 -2.0654e-07 0.0275111

0.0324865 0.00378644 -1.23068e-07
0.00378644 0.0292719 -4.54765e-08
-1.23068e-07 -4.54765e-08 0.0301507

0.0268195 -0.000543733 -8.2256e-08
-0.000543733 0.0349566 -2.04915e-07
-8.2256e-08 -2.04915e-07 0.0301416

0.0269937 0.00256369 1.0624e-07
0.00256369 0.0324528 -9.75618e-08
1.0624e-07 -9.75618e-08 0.0282902

0.0305302 0.00399162 6.79362e-08
0.00399162 0.029327 -2.76663e-08
6.79362e-08 -2.76663e-08 0.0287788

0.0276125 -0.00293773 6.74493e-08
-0.00293773 0.0318582 2.19318e-07
6.74493e-08 2.19318e-07 0.0282527

0.02946 -0.00357642 -2.11021e-08
-0.00357642 0.0303554 2.01237e-08
-2.11021e-08 2.01237e-08 0.0283087

0.0181397 0.00142558 6.27177e-09
0.00142558 0.02804 7.64062e-08
6.27177e-09 7.64062e-08 0.0131293

0.0234767 -0.00429466 1.64057e-07
-0.00429466 0.0275597 -2.67613e-07
1.64057e-07 -2.67613e-07 0.0177257

0.0262089 -0.0015262 6.18057e-08
-0.0015262 0.0336282 1.19488e-07
6.18057e-08 1.19488e-07 0.0287555

0.0330278 0.0034755 -3.38984e-08
0.0034755 0.0288815 1.07544e-07
-3.38984e-08 1.07544e-07 0.0300725

0.0303257 0.00385789 -1.18796e-08
0.00385789 0.0298905 6.25492e-08
-1.18796e-08 6.25492e-08 0.028994

0.027418 -0.00280106 9.4923e-08
-0.00280106 0.0319885 -1.95206e-07
9.4923e-08 -1.95206e-07 0.0281427

0.0265581 -0.00154121 2.49409e-08
-0.00154121 0.0335868 -4.27789e-08
2.49409e-08 -4.27789e-08 0.0287499

0.0309606 0.00371892 4.76971e-08
0.00371892 0.0295674 -1.12064e-07
4.76971e-08 -1.12064e-07 0.0289448

0.0267629 -0.00181636 -1.3619e-07
-0.00181636 0.0334786 7.71238e-08
-1.3619e-07 7.71238e-08 0.0289579

0.0191682 0.00355525 -3.7363e-07
0.00355525 0.0276115 -2.77592e-08
-3.7363e-07 -2.77592e-08 0.0162943

0.0308766 -0.000534707 6.76517e-08
-0.000534707 0.0388222 1.50972e-07
6.76517e-08 1.50972e-07 0.0342978

0.0286601 0.00404875 8.69429e-08
0.00404875 0.0295224 -1.16327e-07
8.69429e-08 -1.16327e-07 0.0277181

0.0355837 0.00197526 1.20556e-07
0.00197526 0.0295066 -2.20857e-08
1.20556e-07 -2.20857e-08 0.0328463

0.0362631 -0.00211488 3.85903e-08
-0.00211488 0.0297588 1.21328e-07
3.85903e-08 1.21328e-07 0.0332215

0.0285144 -0.00309622 2.6628e-07
-0.00309622 0.018571 -3.56714e-07
2.6628e-07 -3.56714e-07 0.015732

0.0283572 -0.00279038 2.46254e-08
-0.00279038 0.03278 -3.55945e-08
2.46254e-08 -3.55945e-08 0.0305753

0.0291948 0.00350136 -1.17872e-07
0.00350136 0.0316042 -1.8203e-08
-1.17872e-07 -1.8203e-08 0.0304912

0.0349625 -0.00290737 -1.20297e-07
-0.00290737 0.0376783 6.21682e-08
-1.20297e-07 6.21682e-08 0.0352394

0.0394616 0.00188472 3.31081e-07
0.00188472 0.0446087 -1.60096e-07
3.31081e-07 -1.60096e-07 0.0364359

0.0449442 0.00128976 1.72346e-07
0.00128976 0.0391182 -2.78655e-07
1.72346e-07 -2.78655e-07 0.0364179

0.0355635 0.0043451 1.10262e-07
0.0043451 0.0351378 2.24977e-07
1.10262e-07 2.24977e-07 0.0350067

0.0265753 0.00338855 5.10213e-08
0.00338855 0.0310102 4.76698e-08
5.10213e-08 4.76698e-08 0.0272593

0.0330438 0.00349738 1.16359e-07
0.00349738 0.0286705 -2.70233e-07
1.16359e-07 -2.70233e-07 0.0300537

0.0220624 0.00576522 7.24648e-08
0.00576522 0.0242405 1.33712e-07
7.24648e-08 1.33712e-07 0.0160745

0.0386198 -0.00151199 2.55549e-07
-0.00151199 0.0444339 -1.37345e-08
2.55549e-07 -1.37345e-08 0.0363651

0.0460479 -0.00046424 2.28659e-08
-0.00046424 0.0454387 -3.96057e-08
2.28659e-08 -3.96057e-08 0.036694

0.0451798 -3.08504e-05 1.08234e-07
-3.08504e-05 0.0463011 1.43125e-07
1.08234e-07 1.43125e-07 0.0366759

0.0176428 -0.00679573 -7.0655e-08
-0.00679573 0.0231111 2.24143e-07
-7.0655e-08 2.24143e-07 0.0107399

0.0392952 -0.0015557 2.19586e-07
-0.0015557 0.0387163 4.30751e-08
2.19586e-07 4.30751e-08 0.0358567

0.0383984 0.00117655 -3.17841e-07
0.00117655 0.041519 -1.20229e-07
-3.17841e-07 -1.20229e-07 0.036128

0.0331792 -0.00343623 8.13887e-08
-0.00343623 0.0282231 1.14742e-07
8.13887e-08 1.14742e-07 0.0299072

0.0318476 0.000140175 8.15907e-09
0.000140175 0.038675 1.57042e-07
8.15907e-09 1.57042e-07 0.0344538

0.0285805 -0.00266055 9.63409e-08
-0.00266055 0.0333849 -5.01618e-08
9.63409e-08 -5.01618e-08 0.0315931

0.0356665 0.000831824 -1.64827e-07
0.000831824 0.0273817 1.17083e-07
-1.64827e-07 1.17083e-07 0.0330039

0.0288797 0.0020443 1.37981e-07
0.0020443 0.0368203 4.48603e-08
1.37981e-07 4.48603e-08 0.0336733

0.0298726 0.000946221 9.76717e-08
0.000946221 0.0373918 8.04007e-08
9.76717e-08 8.04007e-08 0.0333671

0.0344053 0.00268526 -2.2878e-07
0.00268526 0.0288551 -2.26601e-07
-2.2878e-07 -2.26601e-07 0.0312299

0.0132804 -0.000409368 -3.24644e-07
-0.000409368 0.0281262 -2.996e-08
-3.24644e-07 -2.996e-08 0.0112028

0.0309687 -0.00362652 -1.5704e-07
-0.00362652 0.0309198 -1.541e-08
-1.5704e-07 -1.541e-08 0.0306133

0.0329321 -0.00344379 -1.99281e-07
-0.00344379 0.0320246 -1.3247e-07
-1.99281e-07 -1.3247e-07 0.032583

0.0335749 -0.00415936 2.64205e-08
-0.00415936 0.0325385 2.44723e-07
2.64205e-08 2.44723e-07 0.0337394

0.0265653 0.00414934 -1.09156e-07
0.00414934 0.0176934 -1.11073e-07
-1.09156e-07 -1.11073e-07 0.0126069

0.0388302 -0.0026965 2.76041e-07
-0.0026965 0.0395779 -7.75787e-09
2.76041e-07 -7.75787e-09 0.0359615

0.0230854 0.00692172 -2.69867e-07
0.00692172 0.025505 -3.23449e-07
-2.69867e-07 -3.23449e-07 0.0126112

0.0308782 -0.0028177 -2.18307e-07
-0.0028177 0.0348118 -7.19074e-08
-2.18307e-07 -7.19074e-08 0.03396

0.0354162 0.00193636 -4.92148e-08
0.00193636 0.0284696 2.78784e-09
-4.92148e-08 2.78784e-09 0.0323484

0.0318256 -0.00189378 -1.17857e-07
-0.00189378 0.024954 -8.55898e-08
-1.17857e-07 -8.55898e-08 0.0253988

0.0292962 0.00315963 -1.24048e-07
0.00315963 0.0327359 -4.01193e-10
-1.24048e-07 -4.01193e-10 0.0312835

0.0344406 0.00268904 -2.02647e-07
0.00268904 0.0286381 -2.88623e-07
-2.02647e-07 -2.88623e-07 0.0312246

0.0325216 0.00149846 -1.46365e-07
0.00149846 0.0403766 8.7064e-08
-1.46365e-07 8.7064e-08 0.0353398

0.0319442 -0.00415472 1.32846e-07
-0.00415472 0.0312056 -1.68435e-07
1.32846e-07 -1.68435e-07 0.0318145

0.0396793 0.00265533 8.40058e-08
0.00265533 0.0332014 -9.96683e-08
8.40058e-08 -9.96683e-08 0.0353193

0.0279752 -0.00241873 -7.77076e-08
-0.00241873 0.0335552 1.34911e-07
-7.77076e-08 1.34911e-07 0.0304744

0.0293545 0.000558609 -4.64612e-08
0.000558609 0.0373156 6.51349e-08
-4.64612e-08 6.51349e-08 0.0332563

0.0419454 0.00133785 4.87247e-08
0.00133785 0.0371023 -1.22619e-07
4.87247e-08 -1.22619e-07 0.0361194

0.0420995 -0.00114784 9.79509e-08
-0.00114784 0.0373287 -1.22166e-08
9.79509e-08 -1.22166e-08 0.0361012

0.028387 0.00236951 7.56268e-08
0.00236951 0.0181836 -1.39036e-07
7.56268e-08 -1.39036e-07 0.015952

0.0350307 0.00106132 -1.02125e-07
0.00106132 0.02857 5.78498e-09
-1.02125e-07 5.78498e-09 0.0330628

0.0128682 0.000923535 -3.09962e-07
0.000923535 0.0316298 -1.28946e-07
-3.09962e-07 -1.28946e-07 0.00612252

0.0131639 -0.00138843 5.10034e-08
-0.00138843 0.0321356 2.54367e-08
5.10034e-08 2.54367e-08 0.00611284

0.0152703 0.00715497 1.70613e-07
0.00715497 0.0284561 -2.45817e-07
1.70613e-07 -2.45817e-07 0.00598495

0.0347679 -0.00382126 1.14238e-07
-0.00382126 0.0312715 -2.1469e-07
1.14238e-07 -2.1469e-07 0.0329428

0.0155825 -0.00619522 3.32692e-08
-0.00619522 0.0261561 -2.02914e-07
3.32692e-08 -2.02914e-07 0.0104734

0.0155144 -0.00708749 7.52934e-08
-0.00708749 0.0274266 3.47363e-08
7.52934e-08 3.47363e-08 0.00591475

0.0284299 0.00342642 8.07555e-08
0.00342642 0.0310104 4.78235e-08
8.07555e-08 4.78235e-08 0.0281565

0.025196 0.00932684 -1.52973e-08
0.00932684 0.0190227 1.1061e-07
-1.52973e-08 1.1061e-07 0.00593465

0.0365404 0.00173152 -1.07232e-07
0.00173152 0.0385553 1.15801e-07
-1.07232e-07 1.15801e-07 0.0354785

0.0395378 2.5733e-05 -9.01781e-08
2.5733e-05 0.0355424 -2.30494e-08
-9.01781e-08 -2.30494e-08 0.0354592

0.02611 -0.00924539 1.61184e-07
-0.00924539 0.0188144 -3.72632e-08
1.61184e-07 -3.72632e-08 0.00588882

0.0276937 -0.00306542 -8.86806e-08
-0.00306542 0.0320992 1.1302e-07
-8.86806e-08 1.1302e-07 0.0296267

0.0262587 0.00441869 -9.49937e-08
0.00441869 0.0201605 -1.65789e-07
-9.49937e-08 -1.65789e-07 0.0130464

0.0172811 0.00797403 1.34121e-07
0.00797403 0.0271517 9.46156e-08
1.34121e-07 9.46156e-08 0.00598863

0.0181983 0.00275566 -2.79634e-07
0.00275566 0.0275934 1.24205e-07
-2.79634e-07 1.24205e-07 0.0128518

0.017306 -0.00827716 -1.37476e-07
-0.00827716 0.0271552 1.64079e-07
-1.37476e-07 1.64079e-07 0.00581457

0.017935 -0.00157123 -2.01734e-07
-0.00157123 0.0280091 -9.72936e-08
-2.01734e-07 -9.72936e-08 0.0126923

0.0370524 0.000922816 2.15846e-07
0.000922816 0.0413024 7.32369e-08
2.15846e-07 7.32369e-08 0.0358133

0.0221341 -0.00585621 -6.12782e-08
-0.00585621 0.0236676 -1.54353e-07
-6.12782e-08 -1.54353e-07 0.015161

0.0157019 0.00598719 -7.24114e-08
0.00598719 0.0259055 -3.50142e-07
-7.24114e-08 -3.50142e-07 0.0107516

0.0302118 0.00473056 3.57329e-09
0.00473056 0.0143508 6.82172e-08
3.57329e-09 6.82172e-08 0.00611666

0.0329426 -0.00384987 -1.47619e-07
-0.00384987 0.0301279 2.5808e-07
-1.47619e-07 2.5808e-07 0.0310551

0.0308921 0.00169382 -5.37387e-08
0.00169382 0.0368468 5.31457e-08
-5.37387e-08 5.31457e-08 0.0339539

0.0260934 -0.00484474 -2.14655e-08
-0.00484474 0.0191996 3.3865e-07
-2.14655e-08 3.3865e-07 0.0126968

0.0330048 -0.00378636 -2.35872e-07
-0.00378636 0.030079 4.88514e-08
-2.35872e-07 4.88514e-08 0.0311314

0.030022 -0.00452033 9.58638e-08
-0.00452033 0.0130549 -2.28064e-07
9.58638e-08 -2.28064e-07 0.0060381

0.0324773 -0.00372777 1.02856e-07
-0.00372777 0.0313111 -2.12485e-07
1.02856e-07 -2.12485e-07 0.0319833

0.0280948 -0.0033116 9.70143e-08
-0.0033116 0.0320079 1.80866e-07
9.70143e-08 1.80866e-07 0.0296292

0.023446 0.00874453 5.64365e-09
0.00874453 0.0204851 2.13131e-07
5.64365e-09 2.13131e-07 0.00602696

0.0182018 -0.0029212 1.35012e-07
-0.0029212 0.0268699 3.93197e-08
1.35012e-07 3.93197e-08 0.0122717

0.0233169 -0.00902028 1.14484e-07
-0.00902028 0.0201541 4.06651e-07
1.14484e-07 4.06651e-07 0.00588478

0.0170843 0.00640913 3.75295e-07
0.00640913 0.023569 1.41478e-08
3.75295e-07 1.41478e-08 0.0108325

0.0308303 -0.00396078 -6.89674e-08
-0.00396078 0.0301641 2.50889e-07
-6.89674e-08 2.50889e-07 0.0300894

0.0389207 -0.00195888 -1.38073e-07
-0.00195888 0.0369433 -2.58837e-07
-1.38073e-07 -2.58837e-07 0.0355028

0.045541 0.00150607 -3.19203e-07
0.00150607 0.0449538 -1.56564e-07
-3.19203e-07 -1.56564e-07 0.0366221

0.0435657 -0.000711508 1.15236e-08
-0.000711508 0.0462316 -1.10843e-08
1.15236e-08 -1.10843e-08 0.0365878

0.0286192 0.00171585 3.81838e-08
0.00171585 0.0355699 -9.52091e-08
3.81838e-08 -9.52091e-08 0.0323934

0.0453363 -0.00144744 -5.85621e-07
-0.00144744 0.0449806 1.1636e-07
-5.85621e-07 1.1636e-07 0.0366398

0.0438085 0.000567209 -1.61867e-07
0.000567209 0.0465063 1.55189e-07
-1.61867e-07 1.55189e-07 0.036621

0.04668 0.000990397 2.79656e-08
0.000990397 0.0433776 -2.47958e-07
2.79656e-08 -2.47958e-07 0.036596

0.0397519 -0.00163879 -3.09866e-07
-0.00163879 0.0460757 -1.44994e-07
-3.09866e-07 -1.44994e-07 0.0364859

0.0190561 -0.00388794 2.00333e-07
-0.00388794 0.0272344 -9.39646e-08
2.00333e-07 -9.39646e-08 0.0154732

0.0421424 -0.00175022 -1.65424e-07
-0.00175022 0.036728 -2.53454e-07
-1.65424e-07 -2.53454e-07 0.036008

0.035967 -0.00457297 -8.37054e-08
-0.00457297 0.0351536 -8.23471e-08
-8.37054e-08 -8.23471e-08 0.0349716

0.0397554 -0.00242191 -5.6067e-08
-0.00242191 0.0360666 -7.45711e-08
-5.6067e-08 -7.45711e-08 0.0355705

0.0351887 0.00204363 1.6734e-07
0.00204363 0.0285528 -2.65284e-07
1.6734e-07 -2.65284e-07 0.0322357

0.0396939 0.00133726 -3.68897e-07
0.00133726 0.047226 -1.64133e-07
-3.68897e-07 -1.64133e-07 0.0365517

0.0464969 0.00259315 -9.19004e-08
0.00259315 0.0404196 3.25611e-07
-9.19004e-08 3.25611e-07 0.0365329

0.0400894 0.00150569 6.76661e-08
0.00150569 0.0366764 2.4199e-07
6.76661e-08 2.4199e-07 0.0356186

0.0279181 -0.00192017 -3.4847e-07
-0.00192017 0.0125259 -1.81822e-07
-3.4847e-07 -1.81822e-07 0.0106259

0.0283227 0.00326832 8.37306e-08
0.00326832 0.0315545 5.98789e-08
8.37306e-08 5.98789e-08 0.0294145

0.0231908 -0.00773724 1.59175e-07
-0.00773724 0.018182 3.73064e-07
1.59175e-07 3.73064e-07 0.0102908

0.0228334 -0.00731679 -2.95492e-09
-0.00731679 0.0257717 -2.0766e-07
-2.95492e-09 -2.0766e-07 0.0119561

0.0290262 -0.00464761 -3.26307e-07
-0.00464761 0.0191305 -2.4555e-07
-3.26307e-07 -2.4555e-07 0.0126168

0.0375766 -0.000660499 1.41814e-07
-0.000660499 0.0449129 1.37956e-08
1.41814e-07 1.37956e-08 0.0362969

0.0375742 0.000358626 7.57039e-08
0.000358626 0.0447913 -9.22635e-08
7.57039e-08 -9.22635e-08 0.0362771

0.0426068 -0.00327394 9.1371e-08
-0.00327394 0.0394519 2.23641e-07
9.1371e-08 2.23641e-07 0.036231

0.0430009 -0.00294412 2.76104e-07
-0.00294412 0.0391706 1.44112e-08
2.76104e-07 1.44112e-08 0.036238

0.0425026 0.00350333 -6.01118e-08
0.00350333 0.0399738 -9.69078e-08
-6.01118e-08 -9.69078e-08 0.0362758

0.0443985 0.000417731 -4.28148e-07
0.000417731 0.045084 -1.28972e-06
-4.28148e-07 -1.28972e-06 0.036639

0.04261 -0.00274413 2.86069e-07
-0.00274413 0.0395091 -9.1936e-08
2.86069e-07 -9.1936e-08 0.0362926

0.0426042 -0.0025109 1.82982e-07
-0.0025109 0.0442668 6.15951e-07
1.82982e-07 6.15951e-07 0.0365666

0.0451177 0.000331237 2.2108e-07
0.000331237 0.0454674 2.23211e-07
2.2108e-07 2.23211e-07 0.0366573

0.0436376 -0.00278228 9.50151e-08
-0.00278228 0.0389185 -3.96344e-08
9.50151e-08 -3.96344e-08 0.0363332

0.0435131 0.00283831 -3.45875e-07
0.00283831 0.0390713 -1.08098e-07
-3.45875e-07 -1.08098e-07 0.0363712

0.0451938 -0.000470222 -2.48292e-07
-0.000470222 0.0455816 -2.96636e-07
-2.48292e-07 -2.96636e-07 0.036706

0.0452261 -0.000424834 4.85012e-07
-0.000424834 0.0443626 -8.61618e-07
4.85012e-07 -8.61618e-07 0.0367243

0.0427993 0.00163904 -1.75735e-07
0.00163904 0.0442484 2.43691e-07
-1.75735e-07 2.43691e-07 0.0366104

0.0411183 0.00361773 -1.76998e-07
0.00361773 0.0405179 -9.06104e-08
-1.76998e-07 -9.06104e-08 0.0363251

SCALARS pressure float
LOOKUP_TABLE default
-60.0637
19.3105
5.8072
21.2919
15.8793
5.8912
-58.6867
7.78629
-3.80179
15.1267
-24.4379
7.62045
5.59513
12.2821
23.3364
5.54207
18.5226
13.2109
-0.688959
6.76092
-0.901578
33.1235
5.80505
5.8009
6.60611
14.9062
-38.392
6.6758
-15.2417
30.6185
5.17944
-15.6566
-42.0639
27.3218
20.7755
27.3547
31.8766
19.8057
4.86276
-42.6073
-17.4072
31.8974
31.9855
5.99655
-21.8075
-15.9752
-1.04873
-3.4025
6.54887
-16.2178
-18.9191
-15.3447
20.7546
-15.372
20.308
-33.153
21.1258
-15.4592
21.1357
7.04913
21.7664
16.1194
-45.5688
12.791
16.3626
10.9076
21.5757
13.8315
5.77761
21.8191
20.8106
20.7813
-17.6909
11.6029
3.97719
-31.6158
14.3571
10.9987
14.1496
-8.71753
-28.9474
14.977
20.1645
-22.0394
-23.4304
-28.0957
7.10189
9.63478
-22.2183
37.7303
-15.5079
38.4328
18.3042
10.7644
-15.1654
-15.8724
-30.2241
14.7556
14.3661
4.60183
-10.7641
-21.94
-25.1037
16.2159
14.1038
14.9637
18.699
3.77805
-24.5604
26.513
7.22188
-21.4111
-24.6143
14.8414
15.0801
-16.1447
20.1613
-29.116
20.6248
-16.7285
-2.90119
23.8325
21.7292
16.0344
26.6795
22.6316
21.7822
15.7105
-29.7837
-16.098
24.0899
21.6196
20.9904
22.0677
-22.0143
23.5824
-33.8413
5.46651
21.7552
23.6258
-21.9372
6.6791
-5.96376
15.0867
-30.4104
15.6265
7.83678
2.41105
5.18105
-9.39213
-0.454444
22.6434
-15.454
5.29401
15.2073
21.5628
11.5106
-21.1134
-21.264
10.794
-2.83976
-15.1968
-21.2227
-15.1647
-20.9866
15.2817
-20.6359
-21.2018
-15.2071
-21.0639
19.0038
-15.94
-14.8239
12.0667
-14.4834
18.8043
19.0528
7.47622
18.0473
11.7764
-16.2485
15.2903
14.963
-21.5287
10.4289
-14.2207
16.0501
14.5976
17.0817
14.8372
10.3462
-26.9785
-16.0813
-15.9576
21.909
14.5295
14.6283
20.9237
22.4889
9.50527
21.7359
-0.380931
-8.16831
20.78
-17.8386
19.9467
10.3667
-21.5179
15.7225
22.5279
14.7318
9.39651
14.1934
21.0566
-7.83019
8.83028
-7.90607
14.6503
26.9273
26.5811
27.96
26.3883
26.724
26.2907
13.8291
23.4289
24.0279
23.9722
23.3986
21.1918
21.8563
-8.26035
15.9362
28.1911
-3.1859
23.5746
23.2038
27.8344
-8.49116
28.0964
15.3466
-7.57897
17.4931
-8.25532
20.2284
29.6125
-7.48335
-8.09828
-29.5947
-18.1896
19.5284
-31.9888
5.73728
-7.79147
-1.1859
28.2492
26.64
30.4194
26.7607
-34.8049
-8.17718
28.3373
8.07626
-8.29277
26.4458
-6.29263
30.4643
-7.95159
27.0467
14.5675
14.7906
23.8436
10.0499
18.0205
8.12024
-29.8634
-24.556
16.8068
1.76305
8.18288
-13.6074
17.4368
11.7021
-8.09905
9.45472
-10.8214
7.52005
-10.7527
-8.48236
33.2555
19.151
25.0868
25.3111
13.8321
-10.4025
26.4258
14.6865
-1.6559
-10.2718
-12.5626
17.5063
-7.48264
17.5744
-12.0395
-21.353
-10.6062
-34.6851
15.5645
-7.76042
34.433
-11.5761
16.8734
-8.40634
15.9742
-12.7567
4.29196
-51.1261
8.5255
-7.7441
21.3334
-8.14967
-0.11949
10.7173
21.1264
-12.0589
-10.1987
-6.06558
14.32
-10.1779
6.8908
6.38946
16.3051
-10.4175
-6.32777
-1.69937
-5.65777
-11.0765
-5.84203
15.307
7.81086
-5.55335
-8.95813
7.80805
7.69685
-10.6726
16.309
-27.2203
2.29617
-28.4838
-0.954653
-8.89023
-8.1084
-11.7916
-10.9551
-9.89322
-7.7881
-7.91148
16.6396
24.7749
12.1195
-0.288321
-0.821683
-5.67191
7.30794
-6.31809
-6.31537
24.9205
-5.72731
14.1187
-15.9074
24.3234
5.97176
-0.3879
-5.64122
16.275
2.48015
0.202362
2.45114
0.459277
-0.737382
-9.92824
-0.0922532
2.11632
15.0693
-1.28492
-1.40377
-0.995476
-0.385356
1.96835
8.05369
-1.19023
8.08113
5.58678
-0.43238
7.03833
5.49381
-3.87363
16.478
-1.9006
23.0595
-21.9759
15.0459
15.6838
2.04272
-1.99478
12.5455
-26.5126
5.7959
-1.65507
-50.4903
30.491
30.6277
5.82855
-1.14099
-1.04398
-0.84627
33.4076
33.2822
13.0975
6.08465
6.66553
-28.9692
-1.27602
16.5347
-3.18005
-4.34561
-0.0136466
-25.2774
14.3058
-1.27683
2.8649
2.69629
-2.72043
-0.046104
-3.20674
-4.03103
-37.9889
-33.6868
-0.124813
1.8774
-0.53114
-3.74155
-1.93376
-1.87503
-0.921366
-21.9098
17.25
-0.765857
12.5677
14.186
-26.7676
6.28939
7.1403
18.4776
36.4188
36.4513
22.6381
-1.75245
2.60282
-20.9322
36.1178
32.7491
32.8161
-24.8149
21.7717
30.5171
2.60235
15.7241
10.3745
17.1664
17.7277
12.5075
5.68444
-25.404
4.26293
10.4116
16.2453
-31.7157
28.3049
-52.7179
18.6868
10.3014
-10.6254
7.42015
5.45995
24.4727
9.41405
24.4058
4.10807
12.4015
30.6348
29.4607
-22.9928
17.4378
-70.2432
-74.39
-67.1871
11.6504
-31.2669
-63.6202
-3.80082
-69.9487
16.4622
16.4059
-73.7653
5.21605
-39.7363
-70.7493
-37.7621
-71.8859
-39.4579
21.1333
-23.9634
-29.0504
-70.6331
4.83421
15.759
-36.1959
6.05662
-63.6276
9.83878
3.88541
-67.9116
-37.63
-66.421
-23.7613
5.03267
20.5235
35.3607
36.7162
11.815
36.8398
36.8931
36.4817
36.3957
-24.4819
28.2439
20.6691
21.978
11.5378
36.0516
36.083
18.1181
-23.9463
3.25006
-30.5331
-56.6048
-50.4809
36.1353
35.8162
35.373
35.4432
36.1513
35.5885
33.1027
37.3616
35.3897
35.9982
35.6306
34.1865
34.323
35.8473
35.3027
