# vtk DataFile Version 3.0
vtk output at time 280
ASCII
DATASET UNSTRUCTURED_GRID
POINTS 626 float
-3.68058e-05 0.000978749 0 3.68058e-05 0.000978749 0 -0.000829194 0.00052125 0 
-0.0008235 0.0005 0 -0.000866 0.0004575 0 -0.000866 -0.0004575 0 
-0.0008235 -0.0005 0 -0.000829194 -0.00052125 0 -3.68058e-05 -0.000978749 0 
3.68058e-05 -0.000978749 0 0.000829194 -0.00052125 0 0.000866 -0.0004575 0 
0.000866 0.0004575 0 0.000829194 0.00052125 0 8.5e-05 0 0 
-3.68058e-05 0.000978749 -0.001 3.68058e-05 0.000978749 -0.001 -0.000829194 0.00052125 -0.001 
-0.0008235 0.0005 -0.001 -0.000866 0.0004575 -0.001 -0.000866 -0.0004575 -0.001 
-0.0008235 -0.0005 -0.001 -0.000829194 -0.00052125 -0.001 -3.68058e-05 -0.000978749 -0.001 
3.68058e-05 -0.000978749 -0.001 0.000829194 -0.00052125 -0.001 0.000866 -0.0004575 -0.001 
0.000866 0.0004575 -0.001 0.000829194 0.00052125 -0.001 8.5e-05 0 -0.001 
8.46223e-17 0.0009575 0 -0.000715996 0.000586607 0 -0.000602797 0.000651965 0 
-0.000489599 0.000717321 0 -0.000376401 0.000782678 0 -0.000263202 0.000848036 0 
-0.000150004 0.000913393 0 -0.000835948 0.000469948 0 -0.000866 -0.000326786 0 
-0.000866 -0.000196071 0 -0.000866 -6.53571e-05 0 -0.000866 6.53571e-05 0 
-0.000866 0.000196071 0 -0.000866 0.000326786 0 -0.000835948 -0.000469948 0 
-0.000150004 -0.000913393 0 -0.000263202 -0.000848036 0 -0.000376401 -0.000782678 0 
-0.000489599 -0.000717321 0 -0.000602797 -0.000651965 0 -0.000715996 -0.000586607 0 
8.47648e-17 -0.0009575 0 0.000715996 -0.000586607 0 0.000602797 -0.000651965 0 
0.000489599 -0.000717321 0 0.000376401 -0.000782678 0 0.000263202 -0.000848036 0 
0.000150004 -0.000913393 0 0.000829194 -0.00047875 0 0.000866 0.000326786 0 
0.000866 0.000196071 0 0.000866 6.53571e-05 0 0.000866 -6.53571e-05 0 
0.000866 -0.000196071 0 0.000866 -0.000326786 0 0.000829194 0.00047875 0 
0.000150004 0.000913393 0 0.000263202 0.000848036 0 0.000376401 0.000782678 0 
0.000489599 0.000717321 0 0.000602797 0.000651965 0 0.000715996 0.000586607 0 
5.29966e-05 6.64557e-05 0 -1.89143e-05 8.28689e-05 0 -7.65824e-05 3.68801e-05 0 
-7.65824e-05 -3.68801e-05 0 -1.89143e-05 -8.28689e-05 0 5.29966e-05 -6.64557e-05 0 
8.46223e-17 0.0009575 -0.001 -0.000715996 0.000586607 -0.001 -0.000602797 0.000651965 -0.001 
-0.000489599 0.000717321 -0.001 -0.000376401 0.000782678 -0.001 -0.000263202 0.000848036 -0.001 
-0.000150004 0.000913393 -0.001 -0.000835948 0.000469948 -0.001 -0.000866 -0.000326786 -0.001 
-0.000866 -0.000196071 -0.001 -0.000866 -6.53571e-05 -0.001 -0.000866 6.53571e-05 -0.001 
-0.000866 0.000196071 -0.001 -0.000866 0.000326786 -0.001 -0.000835948 -0.000469948 -0.001 
-0.000150004 -0.000913393 -0.001 -0.000263202 -0.000848036 -0.001 -0.000376401 -0.000782678 -0.001 
-0.000489599 -0.000717321 -0.001 -0.000602797 -0.000651965 -0.001 -0.000715996 -0.000586607 -0.001 
8.47648e-17 -0.0009575 -0.001 0.000715996 -0.000586607 -0.001 0.000602797 -0.000651965 -0.001 
0.000489599 -0.000717321 -0.001 0.000376401 -0.000782678 -0.001 0.000263202 -0.000848036 -0.001 
0.000150004 -0.000913393 -0.001 0.000829194 -0.00047875 -0.001 0.000866 0.000326786 -0.001 
0.000866 0.000196071 -0.001 0.000866 6.53571e-05 -0.001 0.000866 -6.53571e-05 -0.001 
0.000866 -0.000196071 -0.001 0.000866 -0.000326786 -0.001 0.000829194 0.00047875 -0.001 
0.000150004 0.000913393 -0.001 0.000263202 0.000848036 -0.001 0.000376401 0.000782678 -0.001 
0.000489599 0.000717321 -0.001 0.000602797 0.000651965 -0.001 0.000715996 0.000586607 -0.001 
5.29966e-05 6.64557e-05 -0.001 -1.89143e-05 8.28689e-05 -0.001 -7.65824e-05 3.68801e-05 -0.001 
-7.65824e-05 -3.68801e-05 -0.001 -1.89143e-05 -8.28689e-05 -0.001 5.29966e-05 -6.64557e-05 -0.001 
0.000131234 6.38474e-05 0 0.00012964 -6.2443e-05 0 3.13827e-05 0.0001394 0 
3.12554e-05 -0.000136939 0 -0.000140461 8.25467e-19 0 -8.90565e-05 -0.000102707 0 
-9.04142e-05 0.000102872 0 -0.000765769 -0.00025965 0 -0.000756873 0.000262774 0 
-0.00015609 0.000787505 0 -0.000155807 -0.00079355 0 0.000605069 0.000528035 0 
0.000608694 -0.00052497 0 0.000744069 0.000116929 0 -0.000494418 0.000596218 0 
-0.000483866 -0.000584648 0 0.000269496 0.000702219 0 0.000263201 -0.000717324 0 
0.000754429 -0.000127825 0 -0.000748858 5.84659e-07 0 -0.000747838 0.000373886 0 
-0.0006542 0.000324842 0 -0.000645137 0.000210123 0 -0.000550884 0.000274171 0 
-0.000538857 0.000163195 0 -0.00045062 0.000224461 0 -0.000438393 0.000123907 0 
-0.000354088 0.000181668 0 -0.000363908 0.000282171 0 -0.000270361 0.000239477 0 
-0.000279138 0.000337653 0 -0.000188888 0.000294791 0 -0.000196448 0.000393271 0 
-0.000104767 0.000348259 0 -0.000113332 0.000449012 0 -2.01066e-05 0.000403223 0 
-2.89189e-05 0.000507105 0 6.9524e-05 0.000461596 0 -0.000213644 0.000490203 0 
7.33757e-05 0.000357726 0 0.000163331 0.00041299 0 0.000163359 0.000313022 0 
0.000248077 0.000366368 0 0.000250914 0.000265758 0 0.000335709 0.000322266 0 
0.000340555 0.000218148 0 0.000427299 0.000276717 0 0.000431508 0.000173093 0 
0.000328731 0.000425633 0 0.00034586 0.000114823 0 0.000435362 7.05241e-05 0 
0.000350892 1.5455e-05 0 0.000441547 -3.11896e-05 0 0.000353547 -8.47783e-05 0 
0.000445767 -0.000132964 0 0.000356135 -0.000186358 0 0.000449094 -0.000234674 0 
0.000359978 -0.000287876 0 0.00026856 -0.000240545 0 0.000271895 -0.000341045 0 
0.000181792 -0.00029305 0 0.00018533 -0.000392851 0 9.75701e-05 -0.00034483 0 
9.98764e-05 -0.000444884 0 8.75116e-06 -0.000396343 0 1.20916e-05 -0.000500496 0 
-7.83929e-05 -0.000449843 0 -8.1471e-05 -0.000347249 0 -0.000171566 -0.000403733 0 
-0.000169889 -0.000298891 0 -0.000259867 -0.000354132 0 -0.000257696 -0.000249137 0 
-0.00034313 -0.000299896 0 -0.000344514 -0.000199127 0 -0.000434309 -0.000250039 0 
-0.000169832 -0.000505815 0 -0.000435227 -0.000146227 0 0.000280331 -0.000442424 0 
-0.000340889 8.76793e-05 0 -0.000515252 4.06198e-05 0 6.50491e-05 0.000568253 0 
0.00053278 1.74743e-05 0 0.000522071 0.000229831 0 -0.00037162 0.000391659 0 
-0.000255272 -0.000150439 0 -0.000442893 -0.000350705 0 0.000450067 -0.000332559 0 
0.000545175 -0.000276306 0 -0.000527797 -0.000197598 0 0.000105306 -0.000551033 0 
1.45836e-05 -0.000609147 0 0.00017145 0.000214453 0 0.000515525 0.000341711 0 
0.000636086 0.000290368 0 -0.000558657 0.000404468 0 -4.01232e-05 0.000616718 0 
6.60192e-05 0.000696422 0 -0.000101806 0.0002546 0 0.000271142 -3.88908e-05 0 
0.000179455 -0.00018534 0 -8.79553e-05 -0.000254307 0 -0.000749267 -0.000373451 0 
-0.000655941 -0.000323397 0 0.000709746 0.000466718 0 0.000698426 -0.000473086 0 
-5.25801e-05 -0.00084886 0 -4.93005e-05 0.000848038 0 0.000617396 -0.000413362 0 
0.000702056 -0.000369817 0 0.000131459 -0.000679171 0 2.48171e-05 -0.000715924 0 
-0.000664217 -0.00042729 0 -0.000528828 -8.80444e-05 0 -0.000611101 -0.000136672 0 
-0.000426972 -4.45841e-05 0 0.000800669 0.000378216 0 0.000821144 -0.000415062 0 
7.2799e-05 0.00088254 0 6.81831e-05 -0.00087503 0 0.000104963 -0.000788946 0 
-7.40696e-05 -0.000660054 0 0.000126061 0.000809943 0 0.000764361 0.000295682 0 
0.000166862 0.000630623 0 0.000516462 -0.00046707 0 -0.000563585 -0.000389606 0 
-0.000622598 -1.40238e-05 0 0.000629891 0.000171529 0 2.5614e-06 -0.000299794 0 
8.6901e-05 -0.00024329 0 0.000272045 -0.000136982 0 -0.00075148 0.000138321 0 
0.000209366 -0.000599589 0 0.000324913 -0.000630055 0 0.000614044 0.00041245 0 
0.00049651 -0.000573327 0 0.000394822 -0.000507321 0 -0.000173714 -0.000206698 0 
0.000264897 5.63722e-05 0 0.000247997 0.000152811 0 -4.63327e-05 -0.000920208 0 
9.18688e-05 0.000258626 0 -5.54111e-06 0.000290558 0 -0.000184219 0.000201484 0 
-0.000263559 0.000142267 0 -0.000256427 5.13624e-05 0 -0.000336894 -2.06179e-06 0 
-0.000228499 -4.2388e-05 0 -0.00017589 0.000106626 0 -0.000769947 -0.000133367 0 
0.000767591 -0.000500293 0 -5.05874e-05 0.000737978 0 0.000754456 -3.51771e-06 0 
0.00064691 -6.15298e-05 0 0.000630483 -0.00018134 0 0.000749187 -0.000265543 0 
-0.000760805 -0.000462521 0 0.000638155 6.09315e-05 0 -4.46661e-05 0.000922995 0 
-2.37945e-05 0.000207237 0 0.000776979 0.000500181 0 -0.000605691 0.000527596 0 
-0.000377914 -0.000653727 0 -0.000372325 -0.000526022 0 -0.000275829 -0.000589621 0 
-0.000254285 -0.000710579 0 -0.000379307 0.000656222 0 -0.000379818 0.00052718 0 
-0.000266817 0.000721555 0 -0.000150544 0.000668174 0 0.000381963 0.00065079 0 
0.000493113 0.000590432 0 0.000505439 0.000463708 0 -0.000269094 0.000596608 0 
0.000385815 0.000532045 0 0.000283599 0.0005899 0 -0.000176405 -0.000108505 0 
-0.000278769 -0.000475415 0 0.000185395 2.33014e-06 0 0.000186773 0.000517571 0 
0.000540032 -8.68444e-05 0 -0.000600694 -0.000514877 0 -0.00063703 8.98033e-05 0 
-0.000459677 0.000335729 0 -0.000338836 -0.000100751 0 -0.000457327 0.000432721 0 
-8.72007e-06 -0.000210238 0 0.000156073 0.000129496 0 -7.70692e-05 -0.000555049 0 
0.00036091 -0.000389728 0 0.000531628 0.000120564 0 -0.000285451 0.000435562 0 
0.000192719 -0.000494604 0 0.00041642 0.00039368 0 -0.000135943 0.000554637 0 
-0.000170665 -0.000610079 0 -0.000666304 0.000434981 0 -0.000758736 0.000479231 0 
-0.000470189 -0.000458901 0 0.000203433 -8.59809e-05 0 0.000101846 0.000170114 0 
-0.00035513 -0.00040726 0 0.000100184 -0.000165831 0 2.96286e-05 0.00081537 0 
0.000720946 0.000381836 0 -0.000539809 -0.000292001 0 0.00052211 -0.000182426 0 
-6.41339e-05 -0.000753908 0 0.000638039 -0.000299861 0 -0.000605136 -0.000230182 0 
-3.41638e-05 -0.000145561 0 -0.000104037 0.000172396 0 -0.000808575 -0.00042774 0 
-0.000807207 -0.000465052 0 -0.00080817 0.000429771 0 -0.000806589 0.000469738 0 
-9.50634e-05 -0.000178909 0 0.000247777 0.000445058 0 1.48293e-05 -0.000814201 0 
-4.11555e-05 0.000140955 0 0.000276104 -0.000536845 0 0.000765969 -0.000436638 0 
0.000780871 -0.000362769 0 0.000424176 -0.000642018 0 0.00053413 -0.000368009 0 
-0.000416333 4.17911e-05 0 -0.000133891 -6.23822e-05 0 4.2574e-05 0.000206312 0 
0.000141163 -0.000121542 0 0.000707423 0.000212137 0 0.000172327 0.000723882 0 
7.72652e-06 -0.00090254 0 -0.000134435 5.66935e-05 0 -0.000188826 3.70894e-05 0 
0.000197119 8.09714e-05 0 1.27801e-05 0.000917296 0 0.000800767 0.00044758 0 
-0.000686682 0.000507104 0 9.35831e-05 0.000110457 0 -0.000696793 -0.000509595 0 
-0.00068446 -8.52012e-05 0 -0.000691033 -0.000201242 0 5.24052e-05 -0.000189075 0 
-0.000151818 -0.000701092 0 -0.000296988 0.000518087 0 9.31023e-05 -0.000108117 0 
0.00044261 -0.000416726 0 0.000197044 -0.000784423 0 -0.000516861 0.000504567 0 
0.000298997 0.000502377 0 0.000131234 6.38474e-05 -0.001 0.00012964 -6.2443e-05 -0.001 
3.13827e-05 0.0001394 -0.001 3.12554e-05 -0.000136939 -0.001 -0.000140461 8.25467e-19 -0.001 
-8.90565e-05 -0.000102707 -0.001 -9.04142e-05 0.000102872 -0.001 -0.000765769 -0.00025965 -0.001 
-0.000756873 0.000262774 -0.001 -0.00015609 0.000787505 -0.001 -0.000155807 -0.00079355 -0.001 
0.000605069 0.000528035 -0.001 0.000608694 -0.00052497 -0.001 0.000744069 0.000116929 -0.001 
-0.000494418 0.000596218 -0.001 -0.000483866 -0.000584648 -0.001 0.000269496 0.000702219 -0.001 
0.000263201 -0.000717324 -0.001 0.000754429 -0.000127825 -0.001 -0.000748858 5.84659e-07 -0.001 
-0.000747838 0.000373886 -0.001 -0.0006542 0.000324842 -0.001 -0.000645137 0.000210123 -0.001 
-0.000550884 0.000274171 -0.001 -0.000538857 0.000163195 -0.001 -0.00045062 0.000224461 -0.001 
-0.000438393 0.000123907 -0.001 -0.000354088 0.000181668 -0.001 -0.000363908 0.000282171 -0.001 
-0.000270361 0.000239477 -0.001 -0.000279138 0.000337653 -0.001 -0.000188888 0.000294791 -0.001 
-0.000196448 0.000393271 -0.001 -0.000104767 0.000348259 -0.001 -0.000113332 0.000449012 -0.001 
-2.01066e-05 0.000403223 -0.001 -2.89189e-05 0.000507105 -0.001 6.9524e-05 0.000461596 -0.001 
-0.000213644 0.000490203 -0.001 7.33757e-05 0.000357726 -0.001 0.000163331 0.00041299 -0.001 
0.000163359 0.000313022 -0.001 0.000248077 0.000366368 -0.001 0.000250914 0.000265758 -0.001 
0.000335709 0.000322266 -0.001 0.000340555 0.000218148 -0.001 0.000427299 0.000276717 -0.001 
0.000431508 0.000173093 -0.001 0.000328731 0.000425633 -0.001 0.00034586 0.000114823 -0.001 
0.000435362 7.05241e-05 -0.001 0.000350892 1.5455e-05 -0.001 0.000441547 -3.11896e-05 -0.001 
0.000353547 -8.47783e-05 -0.001 0.000445767 -0.000132964 -0.001 0.000356135 -0.000186358 -0.001 
0.000449094 -0.000234674 -0.001 0.000359978 -0.000287876 -0.001 0.00026856 -0.000240545 -0.001 
0.000271895 -0.000341045 -0.001 0.000181792 -0.00029305 -0.001 0.00018533 -0.000392851 -0.001 
9.75701e-05 -0.00034483 -0.001 9.98764e-05 -0.000444884 -0.001 8.75116e-06 -0.000396343 -0.001 
1.20916e-05 -0.000500496 -0.001 -7.83929e-05 -0.000449843 -0.001 -8.1471e-05 -0.000347249 -0.001 
-0.000171566 -0.000403733 -0.001 -0.000169889 -0.000298891 -0.001 -0.000259867 -0.000354132 -0.001 
-0.000257696 -0.000249137 -0.001 -0.00034313 -0.000299896 -0.001 -0.000344514 -0.000199127 -0.001 
-0.000434309 -0.000250039 -0.001 -0.000169832 -0.000505815 -0.001 -0.000435227 -0.000146227 -0.001 
0.000280331 -0.000442424 -0.001 -0.000340889 8.76793e-05 -0.001 -0.000515252 4.06198e-05 -0.001 
6.50491e-05 0.000568253 -0.001 0.00053278 1.74743e-05 -0.001 0.000522071 0.000229831 -0.001 
-0.00037162 0.000391659 -0.001 -0.000255272 -0.000150439 -0.001 -0.000442893 -0.000350705 -0.001 
0.000450067 -0.000332559 -0.001 0.000545175 -0.000276306 -0.001 -0.000527797 -0.000197598 -0.001 
0.000105306 -0.000551033 -0.001 1.45836e-05 -0.000609147 -0.001 0.00017145 0.000214453 -0.001 
0.000515525 0.000341711 -0.001 0.000636086 0.000290368 -0.001 -0.000558657 0.000404468 -0.001 
-4.01232e-05 0.000616718 -0.001 6.60192e-05 0.000696422 -0.001 -0.000101806 0.0002546 -0.001 
0.000271142 -3.88908e-05 -0.001 0.000179455 -0.00018534 -0.001 -8.79553e-05 -0.000254307 -0.001 
-0.000749267 -0.000373451 -0.001 -0.000655941 -0.000323397 -0.001 0.000709746 0.000466718 -0.001 
0.000698426 -0.000473086 -0.001 -5.25801e-05 -0.00084886 -0.001 -4.93005e-05 0.000848038 -0.001 
0.000617396 -0.000413362 -0.001 0.000702056 -0.000369817 -0.001 0.000131459 -0.000679171 -0.001 
2.48171e-05 -0.000715924 -0.001 -0.000664217 -0.00042729 -0.001 -0.000528828 -8.80444e-05 -0.001 
-0.000611101 -0.000136672 -0.001 -0.000426972 -4.45841e-05 -0.001 0.000800669 0.000378216 -0.001 
0.000821144 -0.000415062 -0.001 7.2799e-05 0.00088254 -0.001 6.81831e-05 -0.00087503 -0.001 
0.000104963 -0.000788946 -0.001 -7.40696e-05 -0.000660054 -0.001 0.000126061 0.000809943 -0.001 
0.000764361 0.000295682 -0.001 0.000166862 0.000630623 -0.001 0.000516462 -0.00046707 -0.001 
-0.000563585 -0.000389606 -0.001 -0.000622598 -1.40238e-05 -0.001 0.000629891 0.000171529 -0.001 
2.5614e-06 -0.000299794 -0.001 8.6901e-05 -0.00024329 -0.001 0.000272045 -0.000136982 -0.001 
-0.00075148 0.000138321 -0.001 0.000209366 -0.000599589 -0.001 0.000324913 -0.000630055 -0.001 
0.000614044 0.00041245 -0.001 0.00049651 -0.000573327 -0.001 0.000394822 -0.000507321 -0.001 
-0.000173714 -0.000206698 -0.001 0.000264897 5.63722e-05 -0.001 0.000247997 0.000152811 -0.001 
-4.63327e-05 -0.000920208 -0.001 9.18688e-05 0.000258626 -0.001 -5.54111e-06 0.000290558 -0.001 
-0.000184219 0.000201484 -0.001 -0.000263559 0.000142267 -0.001 -0.000256427 5.13624e-05 -0.001 
-0.000336894 -2.06179e-06 -0.001 -0.000228499 -4.2388e-05 -0.001 -0.00017589 0.000106626 -0.001 
-0.000769947 -0.000133367 -0.001 0.000767591 -0.000500293 -0.001 -5.05874e-05 0.000737978 -0.001 
0.000754456 -3.51771e-06 -0.001 0.00064691 -6.15298e-05 -0.001 0.000630483 -0.00018134 -0.001 
0.000749187 -0.000265543 -0.001 -0.000760805 -0.000462521 -0.001 0.000638155 6.09315e-05 -0.001 
-4.46661e-05 0.000922995 -0.001 -2.37945e-05 0.000207237 -0.001 0.000776979 0.000500181 -0.001 
-0.000605691 0.000527596 -0.001 -0.000377914 -0.000653727 -0.001 -0.000372325 -0.000526022 -0.001 
-0.000275829 -0.000589621 -0.001 -0.000254285 -0.000710579 -0.001 -0.000379307 0.000656222 -0.001 
-0.000379818 0.00052718 -0.001 -0.000266817 0.000721555 -0.001 -0.000150544 0.000668174 -0.001 
0.000381963 0.00065079 -0.001 0.000493113 0.000590432 -0.001 0.000505439 0.000463708 -0.001 
-0.000269094 0.000596608 -0.001 0.000385815 0.000532045 -0.001 0.000283599 0.0005899 -0.001 
-0.000176405 -0.000108505 -0.001 -0.000278769 -0.000475415 -0.001 0.000185395 2.33014e-06 -0.001 
0.000186773 0.000517571 -0.001 0.000540032 -8.68444e-05 -0.001 -0.000600694 -0.000514877 -0.001 
-0.00063703 8.98033e-05 -0.001 -0.000459677 0.000335729 -0.001 -0.000338836 -0.000100751 -0.001 
-0.000457327 0.000432721 -0.001 -8.72007e-06 -0.000210238 -0.001 0.000156073 0.000129496 -0.001 
-7.70692e-05 -0.000555049 -0.001 0.00036091 -0.000389728 -0.001 0.000531628 0.000120564 -0.001 
-0.000285451 0.000435562 -0.001 0.000192719 -0.000494604 -0.001 0.00041642 0.00039368 -0.001 
-0.000135943 0.000554637 -0.001 -0.000170665 -0.000610079 -0.001 -0.000666304 0.000434981 -0.001 
-0.000758736 0.000479231 -0.001 -0.000470189 -0.000458901 -0.001 0.000203433 -8.59809e-05 -0.001 
0.000101846 0.000170114 -0.001 -0.00035513 -0.00040726 -0.001 0.000100184 -0.000165831 -0.001 
2.96286e-05 0.00081537 -0.001 0.000720946 0.000381836 -0.001 -0.000539809 -0.000292001 -0.001 
0.00052211 -0.000182426 -0.001 -6.41339e-05 -0.000753908 -0.001 0.000638039 -0.000299861 -0.001 
-0.000605136 -0.000230182 -0.001 -3.41638e-05 -0.000145561 -0.001 -0.000104037 0.000172396 -0.001 
-0.000808575 -0.00042774 -0.001 -0.000807207 -0.000465052 -0.001 -0.00080817 0.000429771 -0.001 
-0.000806589 0.000469738 -0.001 -9.50634e-05 -0.000178909 -0.001 0.000247777 0.000445058 -0.001 
1.48293e-05 -0.000814201 -0.001 -4.11555e-05 0.000140955 -0.001 0.000276104 -0.000536845 -0.001 
0.000765969 -0.000436638 -0.001 0.000780871 -0.000362769 -0.001 0.000424176 -0.000642018 -0.001 
0.00053413 -0.000368009 -0.001 -0.000416333 4.17911e-05 -0.001 -0.000133891 -6.23822e-05 -0.001 
4.2574e-05 0.000206312 -0.001 0.000141163 -0.000121542 -0.001 0.000707423 0.000212137 -0.001 
0.000172327 0.000723882 -0.001 7.72652e-06 -0.00090254 -0.001 -0.000134435 5.66935e-05 -0.001 
-0.000188826 3.70894e-05 -0.001 0.000197119 8.09714e-05 -0.001 1.27801e-05 0.000917296 -0.001 
0.000800767 0.00044758 -0.001 -0.000686682 0.000507104 -0.001 9.35831e-05 0.000110457 -0.001 
-0.000696793 -0.000509595 -0.001 -0.00068446 -8.52012e-05 -0.001 -0.000691033 -0.000201242 -0.001 
5.24052e-05 -0.000189075 -0.001 -0.000151818 -0.000701092 -0.001 -0.000296988 0.000518087 -0.001 
9.31023e-05 -0.000108117 -0.001 0.00044261 -0.000416726 -0.001 0.000197044 -0.000784423 -0.001 
-0.000516861 0.000504567 -0.001 0.000298997 0.000502377 -0.001 

CELLS 563 3941
6 14 304 127 29 554 377 
6 143 259 55 393 509 103 
6 300 319 174 550 569 424 
6 259 349 55 509 599 103 
6 50 365 307 98 615 557 
6 299 320 164 549 570 414 
6 126 304 14 376 554 29 
6 298 319 300 548 569 550 
6 205 240 238 455 490 488 
6 257 308 145 507 558 395 
6 130 352 273 380 602 523 
6 295 320 299 545 570 549 
6 324 327 289 574 577 539 
6 235 258 143 485 508 393 
6 50 307 49 98 557 97 
6 207 283 279 457 533 529 
6 143 373 235 393 623 485 
6 145 308 252 395 558 502 
6 194 303 196 444 553 446 
6 279 306 207 529 556 457 
6 206 305 163 456 555 413 
6 51 357 9 99 607 24 
6 238 252 205 488 502 455 
6 293 317 209 543 567 459 
6 207 316 283 457 566 533 
6 142 301 249 392 551 499 
6 273 359 130 523 609 380 
6 211 327 324 461 577 574 
6 169 265 217 419 515 467 
6 7 365 50 22 615 98 
6 283 316 253 533 566 503 
6 159 268 223 409 518 473 
6 274 337 132 524 587 382 
6 232 361 329 482 611 579 
6 231 266 45 481 516 93 
6 229 362 330 479 612 580 
6 9 244 57 24 494 105 
6 230 276 52 480 526 100 
6 209 311 293 459 561 543 
6 131 342 302 381 592 552 
6 270 271 204 520 521 454 
6 66 243 1 114 493 16 
6 59 241 12 107 491 27 
6 280 306 279 530 556 529 
6 269 337 274 519 587 524 
6 179 256 224 429 506 474 
6 163 305 166 413 555 416 
6 201 303 194 451 553 444 
6 280 332 306 530 582 556 
6 186 255 225 436 505 475 
6 210 310 273 460 560 523 
6 153 270 204 403 520 454 
6 136 231 45 386 481 93 
6 171 265 169 421 515 419 
6 138 230 52 388 480 100 
6 225 354 325 475 604 575 
6 36 284 232 84 534 482 
6 161 268 159 411 518 409 
6 71 286 229 119 536 479 
6 290 303 201 540 553 451 
6 139 355 60 389 605 108 
6 60 355 248 108 605 498 
6 273 352 302 523 602 552 
6 235 373 245 485 623 495 
6 67 356 247 115 606 497 
6 221 295 277 471 545 527 
6 142 356 67 392 606 115 
6 139 283 253 389 533 503 
6 203 315 262 453 565 512 
6 41 257 145 89 507 395 
6 36 232 135 84 482 385 
6 71 229 137 119 479 387 
6 254 255 188 504 505 438 
6 233 350 334 483 600 584 
6 262 346 203 512 596 453 
6 304 325 127 554 575 377 
6 222 329 247 472 579 497 
6 218 298 260 468 548 510 
6 290 321 291 540 571 541 
6 272 310 240 522 560 490 
6 269 274 270 519 524 520 
6 244 245 57 494 495 105 
6 49 307 141 97 557 391 
6 225 325 256 475 575 506 
6 273 310 272 523 560 522 
6 312 368 255 562 618 505 
6 249 305 206 499 555 456 
6 228 331 251 478 581 501 
6 302 342 263 552 592 513 
6 338 339 44 588 589 92 
6 190 254 188 440 504 438 
6 37 341 340 85 591 590 
6 138 233 230 388 483 480 
6 228 335 331 478 585 581 
6 181 256 179 431 506 429 
6 195 263 226 445 513 476 
6 268 285 223 518 535 473 
6 290 291 288 540 541 538 
6 219 330 248 469 580 498 
6 201 321 290 451 571 540 
6 240 310 202 490 560 452 
6 188 255 186 438 505 436 
6 270 274 271 520 524 521 
6 262 349 259 512 599 509 
6 141 324 289 391 574 539 
6 296 301 142 546 551 392 
6 247 356 222 497 606 472 
6 239 252 238 489 502 488 
6 254 312 255 504 562 505 
6 54 261 53 102 511 101 
6 289 327 303 539 577 553 
6 268 353 285 518 603 535 
6 273 302 210 523 552 460 
6 292 299 293 542 549 543 
6 278 283 139 528 533 389 
6 175 265 171 425 515 421 
6 227 338 38 477 588 86 
6 264 360 265 514 610 515 
6 43 340 146 91 590 396 
6 165 268 161 415 518 411 
6 205 351 240 455 601 490 
6 64 281 63 112 531 111 
6 288 291 47 538 541 95 
6 135 295 294 385 545 544 
6 42 257 41 90 507 89 
6 245 373 57 495 623 105 
6 31 363 323 79 613 573 
6 292 293 140 542 543 390 
6 267 353 268 517 603 518 
6 155 270 153 405 520 403 
6 244 344 245 494 594 495 
6 61 278 139 109 528 389 
6 135 294 35 385 544 83 
6 69 297 296 117 547 546 
6 186 225 184 436 475 434 
6 329 361 243 579 611 493 
6 255 328 225 505 578 475 
6 213 332 280 463 582 530 
6 39 275 133 87 525 383 
6 330 362 241 580 612 491 
6 195 226 193 445 476 443 
6 211 324 251 461 574 501 
6 151 153 152 401 403 402 
6 295 299 294 545 549 544 
6 265 313 217 515 563 467 
6 258 259 143 508 509 393 
6 251 331 211 501 581 461 
6 149 151 150 399 401 400 
6 293 370 317 543 620 567 
6 153 204 152 403 454 402 
6 151 152 150 401 402 400 
6 33 292 140 81 542 390 
6 210 263 197 460 513 447 
6 301 305 249 551 555 499 
6 298 300 297 548 550 547 
6 68 296 142 116 546 392 
6 321 369 291 571 619 541 
6 179 224 177 429 474 427 
6 167 267 165 417 517 415 
6 259 346 262 509 596 512 
6 303 327 196 553 577 446 
6 269 270 155 519 520 405 
6 265 360 313 515 610 563 
6 223 269 157 473 519 407 
6 157 269 155 407 519 405 
6 144 279 278 394 529 528 
6 169 217 167 419 467 417 
6 177 264 175 427 514 425 
6 267 268 165 517 518 415 
6 159 223 157 409 473 407 
6 232 277 135 482 527 385 
6 193 254 190 443 504 440 
6 217 267 167 467 517 417 
6 249 356 142 499 606 392 
6 184 256 181 434 506 431 
6 248 355 219 498 605 469 
6 229 260 137 479 510 387 
6 149 150 148 399 400 398 
6 64 348 281 112 598 531 
6 311 374 293 561 624 543 
6 264 265 175 514 515 425 
6 297 300 296 547 550 546 
6 141 289 288 391 539 538 
6 197 263 195 447 513 445 
6 218 260 219 468 510 469 
6 224 264 177 474 514 427 
6 137 298 297 387 548 547 
6 277 295 135 527 545 385 
6 133 228 227 383 478 477 
6 261 349 262 511 599 512 
6 221 277 222 471 527 472 
6 256 325 224 506 575 474 
6 199 210 197 449 460 447 
6 226 254 193 476 504 443 
6 144 278 62 394 528 110 
6 279 283 278 529 533 528 
6 289 290 288 539 540 538 
6 137 297 70 387 547 118 
6 34 294 292 82 544 542 
6 235 236 216 485 486 466 
6 141 288 48 391 538 96 
6 178 306 180 428 556 430 
6 185 186 184 435 436 434 
6 63 281 144 111 531 394 
6 225 256 184 475 506 434 
6 46 291 136 94 541 386 
6 147 149 148 397 399 398 
6 271 272 204 521 522 454 
6 233 334 234 483 584 484 
6 145 275 40 395 525 88 
6 220 322 287 470 572 537 
6 280 334 213 530 584 463 
6 144 280 279 394 530 529 
6 140 287 32 390 537 80 
6 154 155 153 404 405 403 
6 334 350 213 584 600 463 
6 176 177 175 426 427 425 
6 260 298 137 510 548 387 
6 33 140 32 81 390 80 
6 49 141 48 97 391 96 
6 56 143 55 104 393 103 
6 68 142 67 116 392 115 
6 63 144 62 111 394 110 
6 61 139 60 109 389 108 
6 148 308 257 398 558 507 
6 71 137 70 119 387 118 
6 53 138 52 101 388 100 
6 46 136 45 94 386 93 
6 36 135 35 84 385 83 
6 43 146 134 91 396 384 
6 133 227 38 383 477 86 
6 192 193 190 442 443 440 
6 293 374 140 543 624 390 
6 34 292 33 82 542 81 
6 207 306 178 457 556 428 
6 43 134 42 91 384 90 
6 39 133 38 87 383 86 
6 41 145 40 89 395 88 
6 194 195 193 444 445 443 
6 69 296 68 117 546 116 
6 294 299 292 544 549 542 
6 173 175 171 423 425 421 
6 260 330 219 510 580 469 
6 183 184 181 433 434 431 
6 134 257 42 384 507 90 
6 55 349 54 103 599 102 
6 163 165 161 413 415 411 
6 166 167 165 416 417 415 
6 210 302 263 460 552 513 
6 271 273 272 521 523 522 
6 53 261 138 101 511 388 
6 217 326 267 467 576 517 
6 289 303 290 539 553 540 
6 178 179 177 428 429 427 
6 238 240 202 488 490 452 
6 62 278 61 110 528 109 
6 35 294 34 83 544 82 
6 284 361 232 534 611 482 
6 70 297 69 118 547 117 
6 224 304 264 474 554 514 
6 156 157 155 406 407 405 
6 48 288 47 96 538 95 
6 221 320 295 471 570 545 
6 187 188 186 437 438 436 
6 47 291 46 95 541 94 
6 151 154 153 401 404 403 
6 286 362 229 536 612 479 
6 168 169 167 418 419 417 
6 40 275 39 88 525 87 
6 307 324 141 557 574 391 
6 300 301 296 550 551 546 
6 32 287 31 80 537 79 
6 147 220 149 397 470 399 
6 333 344 231 583 594 481 
6 299 370 293 549 620 543 
6 271 359 273 521 609 523 
6 224 325 304 474 575 554 
6 228 237 227 478 487 477 
6 305 375 343 555 625 593 
6 218 319 298 468 569 548 
6 240 351 272 490 601 522 
6 277 329 222 527 579 472 
6 253 355 139 503 605 389 
6 158 159 157 408 409 407 
6 236 246 216 486 496 466 
6 192 194 193 442 444 443 
6 220 309 149 470 559 399 
6 183 185 184 433 435 434 
6 196 197 195 446 447 445 
6 276 347 58 526 597 106 
6 136 333 231 386 583 481 
6 67 247 66 115 497 114 
6 60 248 59 108 498 107 
6 261 262 250 511 512 500 
6 173 176 175 423 426 425 
6 344 357 231 594 607 481 
6 144 281 280 394 531 530 
6 152 205 150 402 455 400 
6 163 166 165 413 416 415 
6 185 187 186 435 437 436 
6 233 234 230 483 484 480 
6 170 171 169 420 421 419 
6 146 147 134 396 397 384 
6 176 178 177 426 428 427 
6 285 337 223 535 587 473 
6 154 156 155 404 406 405 
6 263 342 226 513 592 476 
6 235 245 236 485 495 486 
6 160 161 159 410 411 409 
6 58 347 242 106 597 492 
6 166 168 167 416 418 417 
6 287 374 220 537 624 470 
6 189 190 188 439 440 438 
6 148 257 134 398 507 384 
6 194 196 195 444 446 445 
6 252 308 205 502 558 455 
6 285 345 337 535 595 587 
6 301 375 305 551 625 555 
6 180 181 179 430 431 429 
6 281 348 234 531 598 484 
6 198 199 197 448 449 447 
6 151 309 154 401 559 404 
6 228 367 335 478 617 585 
6 54 349 261 102 599 511 
6 156 158 157 406 408 407 
6 168 170 169 418 420 419 
6 200 202 199 450 452 449 
6 147 148 134 397 398 384 
6 158 160 159 408 410 409 
6 150 308 148 400 558 398 
6 253 316 208 503 566 458 
6 232 329 277 482 579 527 
6 178 180 179 428 430 429 
6 191 192 190 441 442 440 
6 214 238 202 464 488 452 
6 172 173 171 422 423 421 
6 187 189 188 437 439 438 
6 162 163 161 412 413 411 
6 228 251 237 478 501 487 
6 215 258 235 465 508 485 
6 182 183 181 432 433 431 
6 202 310 199 452 560 449 
6 219 253 208 469 503 458 
6 222 249 206 472 499 456 
6 196 198 197 446 448 447 
6 229 330 260 479 580 510 
6 132 358 274 382 608 524 
6 149 309 151 399 559 401 
6 226 312 254 476 562 504 
6 154 309 209 404 559 459 
6 77 129 76 125 379 124 
6 73 128 72 121 378 120 
6 76 131 75 124 381 123 
6 74 132 73 122 382 121 
6 75 130 74 123 380 122 
6 14 127 77 29 377 125 
6 72 126 14 120 376 29 
6 133 367 228 383 617 478 
6 237 282 227 487 532 477 
6 239 366 252 489 616 502 
6 200 214 202 450 464 452 
6 192 201 194 442 451 444 
6 170 172 171 420 422 421 
6 220 311 309 470 561 559 
6 198 200 199 448 450 449 
6 189 191 190 439 441 440 
6 146 323 322 396 573 572 
6 160 162 161 410 412 411 
6 251 307 237 501 557 487 
6 199 310 210 449 560 460 
6 57 373 56 105 623 104 
6 214 239 238 464 489 488 
6 182 212 183 432 462 433 
6 180 182 181 430 432 431 
6 146 322 147 396 572 397 
6 172 218 208 422 468 458 
6 172 208 173 422 458 423 
6 162 221 206 412 471 456 
6 162 206 163 412 456 413 
6 176 207 178 426 457 428 
6 272 351 204 522 601 454 
6 198 211 200 448 461 450 
6 182 213 212 432 463 462 
6 234 334 281 484 584 531 
6 154 209 156 404 459 406 
6 185 203 187 435 453 437 
6 168 174 170 418 424 420 
6 189 215 191 439 465 441 
6 215 216 191 465 466 441 
6 221 222 206 471 472 456 
6 158 164 160 408 414 410 
6 218 219 208 468 469 458 
6 205 308 150 455 558 400 
6 191 314 192 441 564 442 
6 215 235 216 465 485 466 
6 215 318 258 465 568 508 
6 152 351 205 402 601 455 
6 138 261 250 388 511 500 
6 192 314 201 442 564 451 
6 234 347 230 484 597 480 
6 226 342 312 476 592 562 
6 138 250 233 388 500 483 
6 147 322 220 397 572 470 
6 216 314 191 466 564 441 
6 306 332 180 556 582 430 
6 222 356 249 472 606 499 
6 128 345 285 378 595 535 
6 314 321 201 564 571 451 
6 212 315 183 462 565 433 
6 312 342 336 562 592 586 
6 282 339 338 532 589 588 
6 340 341 323 590 591 573 
6 309 311 209 559 561 459 
6 183 315 185 433 565 435 
6 208 316 173 458 566 423 
6 173 316 176 423 566 426 
6 3 341 37 18 591 85 
6 44 339 6 92 589 21 
6 252 366 145 502 616 395 
6 246 321 314 496 571 564 
6 246 314 216 496 564 466 
6 126 364 313 376 614 563 
6 156 317 158 406 567 408 
6 275 367 133 525 617 383 
6 176 316 207 426 566 457 
6 185 315 203 435 565 453 
6 180 332 182 430 582 432 
6 302 352 131 552 602 381 
6 251 324 307 501 574 557 
6 187 318 189 437 568 439 
6 172 319 218 422 569 468 
6 162 320 221 412 570 471 
6 305 343 166 555 593 416 
6 170 319 172 420 569 422 
6 158 317 164 408 567 414 
6 209 317 156 459 567 406 
6 285 353 128 535 603 378 
6 223 337 269 473 587 519 
6 160 320 162 410 570 412 
6 211 331 200 461 581 450 
6 174 319 170 424 569 420 
6 203 318 187 453 568 437 
6 189 318 215 439 568 465 
6 198 327 211 448 577 461 
6 164 320 160 414 570 410 
6 326 353 267 576 603 517 
6 236 344 333 486 594 583 
6 196 327 198 446 577 448 
6 219 355 253 469 605 503 
6 281 334 280 531 584 530 
6 274 359 271 524 609 521 
6 164 370 299 414 620 549 
6 174 375 300 424 625 550 
6 287 363 31 537 613 79 
6 243 361 1 493 611 16 
6 241 362 12 491 612 27 
6 307 365 237 557 615 487 
6 166 343 168 416 593 418 
6 200 331 214 450 581 464 
6 313 326 217 563 576 467 
6 9 357 244 24 607 494 
6 1 361 30 16 611 78 
6 12 362 65 27 612 113 
6 337 345 132 587 595 382 
6 242 348 64 492 598 112 
6 231 357 266 481 607 516 
6 182 332 213 432 582 463 
6 245 344 236 495 594 486 
6 258 346 259 508 596 509 
6 145 366 275 395 616 525 
6 291 369 136 541 619 386 
6 236 333 246 486 583 496 
6 331 335 214 581 585 464 
6 312 336 129 562 586 379 
6 315 372 262 565 622 512 
6 220 374 311 470 624 561 
6 140 374 287 390 624 537 
6 126 360 304 376 610 554 
6 230 347 276 480 597 526 
6 313 364 326 563 614 576 
6 56 373 143 104 623 393 
6 239 367 366 489 617 616 
6 204 351 152 454 601 402 
6 300 375 301 550 625 551 
6 214 335 239 464 585 489 
6 247 329 243 497 579 493 
6 262 372 250 512 622 500 
6 248 330 241 498 580 491 
6 318 346 258 568 596 508 
6 333 369 246 583 619 496 
6 282 338 227 532 588 477 
6 146 340 323 396 590 573 
6 304 360 264 554 610 514 
6 366 367 275 616 617 525 
6 129 336 76 379 586 124 
6 73 345 128 121 595 378 
6 76 336 131 124 586 381 
6 250 350 233 500 600 483 
6 129 371 328 379 621 578 
6 132 345 73 382 595 121 
6 168 343 174 418 593 424 
6 131 352 75 381 602 123 
6 66 247 243 114 497 493 
6 59 248 241 107 498 491 
6 74 358 132 122 608 382 
6 203 346 318 453 596 568 
6 313 360 126 563 610 376 
6 128 364 72 378 614 120 
6 128 353 326 378 603 576 
6 77 371 129 125 621 379 
6 129 368 312 379 618 562 
6 244 357 344 494 607 594 
6 328 354 225 578 604 475 
6 326 364 128 576 614 378 
6 75 352 130 123 602 380 
6 350 372 212 600 622 462 
6 136 369 333 386 619 583 
6 325 354 127 575 604 377 
6 213 350 212 463 600 462 
6 130 358 74 380 608 122 
6 250 372 350 500 622 600 
6 317 370 164 567 620 414 
6 72 364 126 120 614 376 
6 328 368 129 578 618 379 
6 127 371 77 377 621 125 
6 336 342 131 586 592 381 
6 212 372 315 462 622 565 
6 234 348 347 484 598 597 
6 8 266 51 23 516 99 
6 10 276 58 25 526 106 
6 246 369 321 496 619 571 
6 30 284 0 78 534 15 
6 65 286 13 113 536 28 
6 58 242 11 106 492 26 
6 266 357 51 516 607 99 
6 255 368 328 505 618 578 
6 347 348 242 597 598 492 
6 322 363 287 572 613 537 
6 323 363 322 573 613 572 
6 335 367 239 585 617 489 
6 30 361 284 78 611 534 
6 65 362 286 113 612 536 
6 237 365 282 487 615 532 
6 130 359 358 380 609 608 
6 343 375 174 593 625 424 
6 354 371 127 604 621 377 
6 328 371 354 578 621 604 
6 358 359 274 608 609 524 
6 0 284 36 15 534 84 
6 45 266 8 93 516 23 
6 52 276 10 100 526 25 
6 11 242 64 26 492 112 
6 13 286 71 28 536 119 
6 2 323 3 17 573 18 
6 31 323 2 79 573 17 
6 323 341 3 573 591 18 
6 37 340 4 85 590 19 
6 4 340 43 19 590 91 
6 38 338 5 86 588 20 
6 5 338 44 20 588 92 
6 6 282 7 21 532 22 
6 6 339 282 21 589 532 
6 282 365 7 532 615 22 

CELL_TYPES 563
13
13
13
13
13
13
13
13
13
13
13
13
13
13
13
13
13
13
13
13
13
13
13
13
13
13
13
13
13
13
13
13
13
13
13
13
13
13
13
13
13
13
13
13
13
13
13
13
13
13
13
13
13
13
13
13
13
13
13
13
13
13
13
13
13
13
13
13
13
13
13
13
13
13
13
13
13
13
13
13
13
13
13
13
13
13
13
13
13
13
13
13
13
13
13
13
13
13
13
13
13
13
13
13
13
13
13
13
13
13
13
13
13
13
13
13
13
13
13
13
13
13
13
13
13
13
13
13
13
13
13
13
13
13
13
13
13
13
13
13
13
13
13
13
13
13
13
13
13
13
13
13
13
13
13
13
13
13
13
13
13
13
13
13
13
13
13
13
13
13
13
13
13
13
13
13
13
13
13
13
13
13
13
13
13
13
13
13
13
13
13
13
13
13
13
13
13
13
13
13
13
13
13
13
13
13
13
13
13
13
13
13
13
13
13
13
13
13
13
13
13
13
13
13
13
13
13
13
13
13
13
13
13
13
13
13
13
13
13
13
13
13
13
13
13
13
13
13
13
13
13
13
13
13
13
13
13
13
13
13
13
13
13
13
13
13
13
13
13
13
13
13
13
13
13
13
13
13
13
13
13
13
13
13
13
13
13
13
13
13
13
13
13
13
13
13
13
13
13
13
13
13
13
13
13
13
13
13
13
13
13
13
13
13
13
13
13
13
13
13
13
13
13
13
13
13
13
13
13
13
13
13
13
13
13
13
13
13
13
13
13
13
13
13
13
13
13
13
13
13
13
13
13
13
13
13
13
13
13
13
13
13
13
13
13
13
13
13
13
13
13
13
13
13
13
13
13
13
13
13
13
13
13
13
13
13
13
13
13
13
13
13
13
13
13
13
13
13
13
13
13
13
13
13
13
13
13
13
13
13
13
13
13
13
13
13
13
13
13
13
13
13
13
13
13
13
13
13
13
13
13
13
13
13
13
13
13
13
13
13
13
13
13
13
13
13
13
13
13
13
13
13
13
13
13
13
13
13
13
13
13
13
13
13
13
13
13
13
13
13
13
13
13
13
13
13
13
13
13
13
13
13
13
13
13
13
13
13
13
13
13
13
13
13
13
13
13
13
13
13
13
13
13
13
13
13
13
13
13
13
13
13
13
13
13
13
13
13
13
13
13
13
13
13
13
13
13
13
13
13
13
13
13
13
13
13
13
13
13
13
13
13
13
13
13
13
13
13
13
13
13
13
13
13
13
13
13
13
13
13
13
13
13

POINT_DATA 626
VECTORS displacement float
-1.74395e-06 3.09543e-05 1.80549e-05
1.73566e-06 3.09733e-05 1.81e-05
-2.59862e-05 1.69928e-05 1.8087e-05
-2.58408e-05 1.60329e-05 1.80516e-05
-2.77206e-05 1.39727e-05 1.8069e-05
-2.77135e-05 -1.4019e-05 1.80944e-05
-2.5812e-05 -1.60711e-05 1.81058e-05
-2.59824e-05 -1.70108e-05 1.8167e-05
-1.6774e-06 -3.0958e-05 1.80514e-05
1.75545e-06 -3.09595e-05 1.81018e-05
2.59435e-05 -1.69806e-05 1.80434e-05
2.77169e-05 -1.39366e-05 1.80433e-05
2.76723e-05 1.39893e-05 1.80916e-05
2.59148e-05 1.69929e-05 1.8046e-05
0 0 0
-1.74395e-06 3.09543e-05 -1.80549e-05
1.73566e-06 3.09733e-05 -1.81e-05
-2.59862e-05 1.69928e-05 -1.8087e-05
-2.58408e-05 1.60329e-05 -1.80516e-05
-2.77206e-05 1.39727e-05 -1.8069e-05
-2.77135e-05 -1.4019e-05 -1.80944e-05
-2.5812e-05 -1.60711e-05 -1.81058e-05
-2.59824e-05 -1.70108e-05 -1.8167e-05
-1.6774e-06 -3.0958e-05 -1.80514e-05
1.75545e-06 -3.09595e-05 -1.81018e-05
2.59435e-05 -1.69806e-05 -1.80434e-05
2.77169e-05 -1.39366e-05 -1.80433e-05
2.76723e-05 1.39893e-05 -1.80916e-05
2.59148e-05 1.69929e-05 -1.8046e-05
0 0 0
2.48949e-08 3.01542e-05 1.80341e-05
-2.11405e-05 1.87123e-05 1.75496e-05
-1.72324e-05 1.98337e-05 1.69207e-05
-1.40069e-05 2.10541e-05 1.65548e-05
-1.12068e-05 2.26647e-05 1.65487e-05
-8.52404e-06 2.48327e-05 1.69012e-05
-5.56778e-06 2.76216e-05 1.75373e-05
-2.64497e-05 1.4679e-05 1.80334e-05
-2.67686e-05 -9.01146e-06 1.75773e-05
-2.58061e-05 -5.03543e-06 1.69259e-05
-2.52543e-05 -1.63619e-06 1.65713e-05
-2.52573e-05 1.60783e-06 1.65742e-05
-2.57983e-05 5.02283e-06 1.69241e-05
-2.67548e-05 8.98455e-06 1.75638e-05
-2.64366e-05 -1.47254e-05 1.80622e-05
-5.54104e-06 -2.7636e-05 1.75296e-05
-8.47656e-06 -2.48417e-05 1.69006e-05
-1.117e-05 -2.26841e-05 1.6556e-05
-1.39705e-05 -2.10871e-05 1.65594e-05
-1.72148e-05 -1.98691e-05 1.69365e-05
-2.11341e-05 -1.87491e-05 1.75621e-05
8.98406e-08 -3.0139e-05 1.80293e-05
2.11239e-05 -1.86247e-05 1.75114e-05
1.72446e-05 -1.97621e-05 1.68727e-05
1.40338e-05 -2.10111e-05 1.65115e-05
1.1225e-05 -2.25928e-05 1.6546e-05
8.5812e-06 -2.47799e-05 1.6874e-05
5.65466e-06 -2.76263e-05 1.75349e-05
2.61244e-05 -1.50596e-05 1.80283e-05
2.67167e-05 8.93834e-06 1.75014e-05
2.57219e-05 5.04955e-06 1.69083e-05
2.52064e-05 1.6233e-06 1.65231e-05
2.52035e-05 -1.59942e-06 1.65214e-05
2.57505e-05 -4.99734e-06 1.68882e-05
2.66987e-05 -8.91709e-06 1.75096e-05
2.61075e-05 1.50607e-05 1.80253e-05
5.63312e-06 2.76176e-05 1.75095e-05
8.50858e-06 2.48066e-05 1.69111e-05
1.1217e-05 2.26409e-05 1.65292e-05
1.40044e-05 2.1022e-05 1.65246e-05
1.72216e-05 1.97933e-05 1.6885e-05
2.11149e-05 1.86343e-05 1.75253e-05
0 0 0
0 0 0
0 0 0
0 0 0
0 0 0
0 0 0
2.48949e-08 3.01542e-05 -1.80341e-05
-2.11405e-05 1.87123e-05 -1.75496e-05
-1.72324e-05 1.98337e-05 -1.69207e-05
-1.40069e-05 2.10541e-05 -1.65548e-05
-1.12068e-05 2.26647e-05 -1.65487e-05
-8.52404e-06 2.48327e-05 -1.69012e-05
-5.56778e-06 2.76216e-05 -1.75373e-05
-2.64497e-05 1.4679e-05 -1.80334e-05
-2.67686e-05 -9.01146e-06 -1.75773e-05
-2.58061e-05 -5.03543e-06 -1.69259e-05
-2.52543e-05 -1.63619e-06 -1.65713e-05
-2.52573e-05 1.60783e-06 -1.65742e-05
-2.57983e-05 5.02283e-06 -1.69241e-05
-2.67548e-05 8.98455e-06 -1.75638e-05
-2.64366e-05 -1.47254e-05 -1.80622e-05
-5.54104e-06 -2.7636e-05 -1.75296e-05
-8.47656e-06 -2.48417e-05 -1.69006e-05
-1.117e-05 -2.26841e-05 -1.6556e-05
-1.39705e-05 -2.10871e-05 -1.65594e-05
-1.72148e-05 -1.98691e-05 -1.69365e-05
-2.11341e-05 -1.87491e-05 -1.75621e-05
8.98406e-08 -3.0139e-05 -1.80293e-05
2.11239e-05 -1.86247e-05 -1.75114e-05
1.72446e-05 -1.97621e-05 -1.68727e-05
1.40338e-05 -2.10111e-05 -1.65115e-05
1.1225e-05 -2.25928e-05 -1.6546e-05
8.5812e-06 -2.47799e-05 -1.6874e-05
5.65466e-06 -2.76263e-05 -1.75349e-05
2.61244e-05 -1.50596e-05 -1.80283e-05
2.67167e-05 8.93834e-06 -1.75014e-05
2.57219e-05 5.04955e-06 -1.69083e-05
2.52064e-05 1.6233e-06 -1.65231e-05
2.52035e-05 -1.59942e-06 -1.65214e-05
2.57505e-05 -4.99734e-06 -1.68882e-05
2.66987e-05 -8.91709e-06 -1.75096e-05
2.61075e-05 1.50607e-05 -1.80253e-05
5.63312e-06 2.76176e-05 -1.75095e-05
8.50858e-06 2.48066e-05 -1.69111e-05
1.1217e-05 2.26409e-05 -1.65292e-05
1.40044e-05 2.1022e-05 -1.65246e-05
1.72216e-05 1.97933e-05 -1.6885e-05
2.11149e-05 1.86343e-05 -1.75253e-05
0 0 0
0 0 0
0 0 0
0 0 0
0 0 0
0 0 0
1.79367e-06 8.58741e-07 4.55221e-06
1.73781e-06 -8.25109e-07 4.46077e-06
4.31951e-07 1.84961e-06 4.49508e-06
4.36095e-07 -1.78062e-06 4.35605e-06
-1.84748e-06 2.0963e-08 4.42233e-06
-1.12308e-06 -1.30887e-06 4.15097e-06
-1.1592e-06 1.30679e-06 4.19975e-06
-2.25129e-05 -7.28761e-06 1.69998e-05
-2.21962e-05 7.3715e-06 1.69685e-05
-4.86041e-06 2.28983e-05 1.69369e-05
-4.85793e-06 -2.31315e-05 1.69638e-05
1.74211e-05 1.56354e-05 1.69297e-05
1.75686e-05 -1.55363e-05 1.6939e-05
2.10733e-05 3.16385e-06 1.63242e-05
-1.3953e-05 1.71511e-05 1.64782e-05
-1.35911e-05 -1.67411e-05 1.64098e-05
7.76779e-06 1.98194e-05 1.6331e-05
7.68481e-06 -2.03098e-05 1.64023e-05
2.14721e-05 -3.4437e-06 1.64e-05
-2.11025e-05 6.58809e-09 1.62465e-05
-2.24202e-05 1.09997e-05 1.74535e-05
-1.87508e-05 9.25462e-06 1.66269e-05
-1.79826e-05 5.7954e-06 1.60361e-05
-1.49838e-05 7.44827e-06 1.54862e-05
-1.42243e-05 4.30768e-06 1.48295e-05
-1.15325e-05 5.74384e-06 1.40945e-05
-1.08579e-05 3.06871e-06 1.33733e-05
-8.40041e-06 4.30484e-06 1.24041e-05
-9.05872e-06 7.01334e-06 1.34561e-05
-6.20405e-06 5.48846e-06 1.16888e-05
-6.82824e-06 8.24937e-06 1.30797e-05
-4.28136e-06 6.67485e-06 1.14503e-05
-4.79997e-06 9.60984e-06 1.30937e-05
-2.40085e-06 7.99328e-06 1.17227e-05
-2.81283e-06 1.11671e-05 1.34747e-05
-4.75406e-07 9.59521e-06 1.25007e-05
-7.38347e-07 1.29968e-05 1.41415e-05
1.73107e-06 1.15177e-05 1.35347e-05
-5.53464e-06 1.27003e-05 1.44367e-05
1.68507e-06 8.22391e-06 1.17473e-05
4.00414e-06 1.01208e-05 1.31507e-05
3.70532e-06 7.09789e-06 1.1478e-05
6.06735e-06 8.96659e-06 1.31131e-05
5.76677e-06 6.10674e-06 1.17353e-05
8.35801e-06 8.02025e-06 1.34918e-05
8.10558e-06 5.19522e-06 1.25001e-05
1.09539e-05 7.09699e-06 1.41467e-05
1.07459e-05 4.32276e-06 1.34988e-05
8.53045e-06 1.10374e-05 1.44605e-05
7.93763e-06 2.64372e-06 1.17272e-05
1.06459e-05 1.73719e-06 1.31038e-05
7.94862e-06 3.58757e-07 1.14554e-05
1.08063e-05 -7.59106e-07 1.31239e-05
8.11158e-06 -1.93779e-06 1.17089e-05
1.10982e-05 -3.31282e-06 1.34837e-05
8.46966e-06 -4.42394e-06 1.24438e-05
1.15036e-05 -6.00283e-06 1.41092e-05
8.9555e-06 -7.13805e-06 1.34278e-05
6.14747e-06 -5.49437e-06 1.16411e-05
6.64444e-06 -8.30079e-06 1.3018e-05
4.10517e-06 -6.58846e-06 1.13107e-05
4.52332e-06 -9.55079e-06 1.29881e-05
2.24228e-06 -7.85822e-06 1.15972e-05
2.48481e-06 -1.10018e-05 1.33507e-05
2.25289e-07 -9.37361e-06 1.23534e-05
3.30011e-07 -1.27697e-05 1.40336e-05
-1.91542e-06 -1.11506e-05 1.33768e-05
-1.84105e-06 -7.92156e-06 1.1582e-05
-4.16787e-06 -9.87477e-06 1.30848e-05
-3.81391e-06 -6.73045e-06 1.13169e-05
-6.34557e-06 -8.66195e-06 1.30991e-05
-5.89125e-06 -5.69797e-06 1.16282e-05
-8.49966e-06 -7.43574e-06 1.33795e-05
-8.16748e-06 -4.72802e-06 1.24084e-05
-1.10956e-05 -6.40272e-06 1.40697e-05
-4.37162e-06 -1.31231e-05 1.44335e-05
-1.08088e-05 -3.65066e-06 1.3439e-05
7.22607e-06 -1.13727e-05 1.42728e-05
-7.74165e-06 1.98267e-06 1.14927e-05
-1.3216e-05 1.03505e-06 1.42107e-05
1.72911e-06 1.50827e-05 1.4952e-05
1.3768e-05 4.62234e-07 1.43876e-05
1.38431e-05 6.10006e-06 1.49315e-05
-9.69399e-06 1.01962e-05 1.45323e-05
-5.41598e-06 -3.19764e-06 1.0182e-05
-1.17135e-05 -9.29728e-06 1.4889e-05
1.18823e-05 -8.76015e-06 1.4787e-05
1.47817e-05 -7.47356e-06 1.54032e-05
-1.39596e-05 -5.24386e-06 1.48615e-05
2.7958e-06 -1.45161e-05 1.4796e-05
4.24561e-07 -1.64993e-05 1.53976e-05
3.51842e-06 4.39691e-06 9.58102e-06
1.40105e-05 9.299e-06 1.54915e-05
1.79307e-05 8.14491e-06 1.63004e-05
-1.56754e-05 1.13953e-05 1.62334e-05
-1.09408e-06 1.6769e-05 1.54952e-05
1.90685e-06 1.96215e-05 1.63109e-05
-2.09186e-06 5.22005e-06 9.59751e-06
5.55391e-06 -7.846e-07 9.59406e-06
3.58594e-06 -3.68354e-06 9.0819e-06
-1.77963e-06 -5.17855e-06 9.44953e-06
-2.24687e-05 -1.10107e-05 1.74742e-05
-1.87981e-05 -9.24137e-06 1.6651e-05
2.11477e-05 1.41647e-05 1.75055e-05
2.07537e-05 -1.43175e-05 1.74355e-05
-1.7646e-06 -2.54464e-05 1.75109e-05
-1.68213e-06 2.54104e-05 1.75155e-05
1.77129e-05 -1.19068e-05 1.66871e-05
2.06456e-05 -1.0751e-05 1.71159e-05
3.77563e-06 -1.8985e-05 1.61393e-05
7.68528e-07 -2.03457e-05 1.64828e-05
-1.9405e-05 -1.26505e-05 1.71431e-05
-1.3731e-05 -2.30691e-06 1.44717e-05
-1.65926e-05 -3.7014e-06 1.54774e-05
-1.03758e-05 -1.09638e-06 1.2952e-05
2.44519e-05 1.10727e-05 1.76515e-05
2.54975e-05 -1.24032e-05 1.78481e-05
2.64924e-06 2.67258e-05 1.76604e-05
2.521e-06 -2.64135e-05 1.76293e-05
3.33945e-06 -2.30318e-05 1.7029e-05
-2.05388e-06 -1.83198e-05 1.59508e-05
4.05905e-06 2.37912e-05 1.71303e-05
2.2614e-05 8.37919e-06 1.71192e-05
4.61357e-06 1.73132e-05 1.57271e-05
1.44269e-05 -1.31194e-05 1.61373e-05
-1.57876e-05 -1.09847e-05 1.62144e-05
-1.67997e-05 -3.81425e-07 1.53772e-05
1.73058e-05 4.68744e-06 1.57255e-05
6.55216e-08 -6.38726e-06 1.02673e-05
1.7417e-06 -4.84843e-06 9.0924e-06
5.85042e-06 -2.93549e-06 1.03781e-05
-2.1444e-05 3.75047e-06 1.64587e-05
5.72932e-06 -1.62743e-05 1.55076e-05
9.08339e-06 -1.74989e-05 1.59973e-05
1.7572e-05 1.18816e-05 1.66722e-05
1.39941e-05 -1.63821e-05 1.64011e-05
1.07399e-05 -1.37889e-05 1.555e-05
-3.54794e-06 -4.22016e-06 9.50067e-06
5.39907e-06 1.13849e-06 9.49896e-06
5.21801e-06 3.22285e-06 1.00471e-05
-1.74978e-06 -2.83543e-05 1.78768e-05
1.89204e-06 5.29885e-06 9.58435e-06
-1.13822e-07 6.10496e-06 1.00386e-05
-3.78489e-06 4.12771e-06 9.57831e-06
-5.62263e-06 3.03416e-06 1.02851e-05
-5.16543e-06 1.04066e-06 9.21352e-06
-7.52718e-06 -6.17386e-08 1.11723e-05
-4.33434e-06 -8.10271e-07 8.38177e-06
-3.10856e-06 1.87232e-06 7.37399e-06
-2.20809e-05 -3.60771e-06 1.65157e-05
2.3406e-05 -1.56879e-05 1.7836e-05
-1.50719e-06 2.11677e-05 1.66819e-05
2.12614e-05 -8.45187e-08 1.62256e-05
1.76219e-05 -1.64678e-06 1.55813e-05
1.73475e-05 -4.94162e-06 1.57705e-05
2.18914e-05 -7.45104e-06 1.69135e-05
-2.3182e-05 -1.42545e-05 1.78326e-05
1.73245e-05 1.64885e-06 1.55084e-05
-1.73399e-06 2.84728e-05 1.7894e-05
-4.22068e-07 3.68339e-06 7.49523e-06
2.37718e-05 1.57422e-05 1.78845e-05
-1.74972e-05 1.56421e-05 1.69748e-05
-1.06261e-05 -1.84659e-05 1.62549e-05
-1.00995e-05 -1.43422e-05 1.55715e-05
-7.5077e-06 -1.60947e-05 1.56219e-05
-7.32206e-06 -2.01203e-05 1.63951e-05
-1.07043e-05 1.8535e-05 1.62666e-05
-1.03472e-05 1.4384e-05 1.56192e-05
-7.77258e-06 2.04922e-05 1.64441e-05
-4.25296e-06 1.86095e-05 1.60528e-05
1.07596e-05 1.83453e-05 1.6226e-05
1.38915e-05 1.69348e-05 1.64309e-05
1.40418e-05 1.29728e-05 1.60511e-05
-7.36151e-06 1.62882e-05 1.56384e-05
1.0525e-05 1.45469e-05 1.56451e-05
7.74868e-06 1.60922e-05 1.56138e-05
-3.11644e-06 -1.89875e-06 7.39312e-06
-7.25758e-06 -1.24219e-05 1.4625e-05
3.00864e-06 4.03599e-08 6.60092e-06
4.87253e-06 1.35226e-05 1.46179e-05
1.40759e-05 -2.26037e-06 1.45703e-05
-1.72896e-05 -1.52166e-05 1.69454e-05
-1.73663e-05 2.42028e-06 1.55977e-05
-1.22046e-05 8.91186e-06 1.49433e-05
-7.70557e-06 -2.2925e-06 1.15546e-05
-1.24497e-05 1.18125e-05 1.55399e-05
-1.42734e-07 -3.7542e-06 7.55412e-06
2.73021e-06 2.27206e-06 7.25187e-06
-2.00385e-06 -1.46504e-05 1.48079e-05
9.36502e-06 -1.00682e-05 1.43893e-05
1.38606e-05 3.15779e-06 1.4566e-05
-7.33998e-06 1.11993e-05 1.42602e-05
4.99718e-06 -1.27747e-05 1.43692e-05
1.10318e-05 1.04304e-05 1.49195e-05
-3.59642e-06 1.46852e-05 1.49079e-05
-4.63543e-06 -1.66168e-05 1.55487e-05
-1.9507e-05 1.28924e-05 1.71612e-05
-2.31268e-05 1.48581e-05 1.78433e-05
-1.29048e-05 -1.2686e-05 1.58124e-05
3.76078e-06 -1.58611e-06 7.90689e-06
1.76438e-06 2.92227e-06 7.08438e-06
-9.23041e-06 -1.06094e-05 1.45317e-05
1.72773e-06 -2.82314e-06 6.93102e-06
9.94728e-07 2.41167e-05 1.73084e-05
2.13678e-05 1.11938e-05 1.72986e-05
-1.46645e-05 -7.95334e-06 1.54853e-05
1.3708e-05 -4.78629e-06 1.46905e-05
-1.90987e-06 -2.17628e-05 1.68027e-05
1.80603e-05 -8.41901e-06 1.63406e-05
-1.66788e-05 -6.32853e-06 1.57823e-05
-4.32899e-07 -1.92231e-06 4.79845e-06
-1.80536e-06 2.99543e-06 7.17713e-06
-2.50519e-05 -1.29817e-05 1.79222e-05
-2.51271e-05 -1.45072e-05 1.80021e-05
-2.50451e-05 1.30336e-05 1.7906e-05
-2.51179e-05 1.46499e-05 1.79821e-05
-1.64845e-06 -3.12483e-06 7.20987e-06
6.32791e-06 1.13683e-05 1.40765e-05
5.3371e-07 -2.4086e-05 1.73022e-05
-5.22776e-07 1.80954e-06 4.64498e-06
7.40742e-06 -1.43436e-05 1.51523e-05
2.33028e-05 -1.32093e-05 1.77288e-05
2.36326e-05 -1.05375e-05 1.74908e-05
1.19883e-05 -1.82108e-05 1.62932e-05
1.473e-05 -1.01466e-05 1.57955e-05
-1.0027e-05 1.00124e-06 1.27546e-05
-1.74001e-06 -8.15899e-07 4.72343e-06
7.69061e-07 3.70834e-06 7.5731e-06
2.34306e-06 -1.99715e-06 6.55525e-06
2.01564e-05 5.89779e-06 1.64535e-05
5.07007e-06 2.05958e-05 1.64959e-05
3.42118e-07 -2.76799e-05 1.7854e-05
-1.73122e-06 7.09109e-07 4.6063e-06
-3.21149e-06 6.23045e-07 6.8241e-06
3.5772e-06 1.47541e-06 7.63658e-06
4.99225e-07 2.83237e-05 1.79272e-05
2.47603e-05 1.3734e-05 1.79184e-05
-2.03283e-05 1.55358e-05 1.7429e-05
1.1787e-06 1.36447e-06 4.45983e-06
-2.06395e-05 -1.57284e-05 1.75276e-05
-1.89988e-05 -2.32217e-06 1.59461e-05
-1.95591e-05 -5.58496e-06 1.63322e-05
9.05679e-07 -3.24774e-06 7.00607e-06
-4.36601e-06 -1.97892e-05 1.63218e-05
-7.93724e-06 1.38343e-05 1.5101e-05
1.16574e-06 -1.30418e-06 4.33927e-06
1.19344e-05 -1.12283e-05 1.52921e-05
6.13305e-06 -2.2696e-05 1.68204e-05
-1.45221e-05 1.43553e-05 1.63236e-05
7.92904e-06 1.33212e-05 1.49479e-05
1.79367e-06 8.58741e-07 -4.55221e-06
1.73781e-06 -8.25109e-07 -4.46077e-06
4.31951e-07 1.84961e-06 -4.49508e-06
4.36095e-07 -1.78062e-06 -4.35605e-06
-1.84748e-06 2.0963e-08 -4.42233e-06
-1.12308e-06 -1.30887e-06 -4.15097e-06
-1.1592e-06 1.30679e-06 -4.19975e-06
-2.25129e-05 -7.28761e-06 -1.69998e-05
-2.21962e-05 7.3715e-06 -1.69685e-05
-4.86041e-06 2.28983e-05 -1.69369e-05
-4.85793e-06 -2.31315e-05 -1.69638e-05
1.74211e-05 1.56354e-05 -1.69297e-05
1.75686e-05 -1.55363e-05 -1.6939e-05
2.10733e-05 3.16385e-06 -1.63242e-05
-1.3953e-05 1.71511e-05 -1.64782e-05
-1.35911e-05 -1.67411e-05 -1.64098e-05
7.76779e-06 1.98194e-05 -1.6331e-05
7.68481e-06 -2.03098e-05 -1.64023e-05
2.14721e-05 -3.4437e-06 -1.64e-05
-2.11025e-05 6.58809e-09 -1.62465e-05
-2.24202e-05 1.09997e-05 -1.74535e-05
-1.87508e-05 9.25462e-06 -1.66269e-05
-1.79826e-05 5.7954e-06 -1.60361e-05
-1.49838e-05 7.44827e-06 -1.54862e-05
-1.42243e-05 4.30768e-06 -1.48295e-05
-1.15325e-05 5.74384e-06 -1.40945e-05
-1.08579e-05 3.06871e-06 -1.33733e-05
-8.40041e-06 4.30484e-06 -1.24041e-05
-9.05872e-06 7.01334e-06 -1.34561e-05
-6.20405e-06 5.48846e-06 -1.16888e-05
-6.82824e-06 8.24937e-06 -1.30797e-05
-4.28136e-06 6.67485e-06 -1.14503e-05
-4.79997e-06 9.60984e-06 -1.30937e-05
-2.40085e-06 7.99328e-06 -1.17227e-05
-2.81283e-06 1.11671e-05 -1.34747e-05
-4.75406e-07 9.59521e-06 -1.25007e-05
-7.38347e-07 1.29968e-05 -1.41415e-05
1.73107e-06 1.15177e-05 -1.35347e-05
-5.53464e-06 1.27003e-05 -1.44367e-05
1.68507e-06 8.22391e-06 -1.17473e-05
4.00414e-06 1.01208e-05 -1.31507e-05
3.70532e-06 7.09789e-06 -1.1478e-05
6.06735e-06 8.96659e-06 -1.31131e-05
5.76677e-06 6.10674e-06 -1.17353e-05
8.35801e-06 8.02025e-06 -1.34918e-05
8.10558e-06 5.19522e-06 -1.25001e-05
1.09539e-05 7.09699e-06 -1.41467e-05
1.07459e-05 4.32276e-06 -1.34988e-05
8.53045e-06 1.10374e-05 -1.44605e-05
7.93763e-06 2.64372e-06 -1.17272e-05
1.06459e-05 1.73719e-06 -1.31038e-05
7.94862e-06 3.58757e-07 -1.14554e-05
1.08063e-05 -7.59106e-07 -1.31239e-05
8.11158e-06 -1.93779e-06 -1.17089e-05
1.10982e-05 -3.31282e-06 -1.34837e-05
8.46966e-06 -4.42394e-06 -1.24438e-05
1.15036e-05 -6.00283e-06 -1.41092e-05
8.9555e-06 -7.13805e-06 -1.34278e-05
6.14747e-06 -5.49437e-06 -1.16411e-05
6.64444e-06 -8.30079e-06 -1.3018e-05
4.10517e-06 -6.58846e-06 -1.13107e-05
4.52332e-06 -9.55079e-06 -1.29881e-05
2.24228e-06 -7.85822e-06 -1.15972e-05
2.48481e-06 -1.10018e-05 -1.33507e-05
2.25289e-07 -9.37361e-06 -1.23534e-05
3.30011e-07 -1.27697e-05 -1.40336e-05
-1.91542e-06 -1.11506e-05 -1.33768e-05
-1.84105e-06 -7.92156e-06 -1.1582e-05
-4.16787e-06 -9.87477e-06 -1.30848e-05
-3.81391e-06 -6.73045e-06 -1.13169e-05
-6.34557e-06 -8.66195e-06 -1.30991e-05
-5.89125e-06 -5.69797e-06 -1.16282e-05
-8.49966e-06 -7.43574e-06 -1.33795e-05
-8.16748e-06 -4.72802e-06 -1.24084e-05
-1.10956e-05 -6.40272e-06 -1.40697e-05
-4.37162e-06 -1.31231e-05 -1.44335e-05
-1.08088e-05 -3.65066e-06 -1.3439e-05
7.22607e-06 -1.13727e-05 -1.42728e-05
-7.74165e-06 1.98267e-06 -1.14927e-05
-1.3216e-05 1.03505e-06 -1.42107e-05
1.72911e-06 1.50827e-05 -1.4952e-05
1.3768e-05 4.62234e-07 -1.43876e-05
1.38431e-05 6.10006e-06 -1.49315e-05
-9.69399e-06 1.01962e-05 -1.45323e-05
-5.41598e-06 -3.19764e-06 -1.0182e-05
-1.17135e-05 -9.29728e-06 -1.4889e-05
1.18823e-05 -8.76015e-06 -1.4787e-05
1.47817e-05 -7.47356e-06 -1.54032e-05
-1.39596e-05 -5.24386e-06 -1.48615e-05
2.7958e-06 -1.45161e-05 -1.4796e-05
4.24561e-07 -1.64993e-05 -1.53976e-05
3.51842e-06 4.39691e-06 -9.58102e-06
1.40105e-05 9.299e-06 -1.54915e-05
1.79307e-05 8.14491e-06 -1.63004e-05
-1.56754e-05 1.13953e-05 -1.62334e-05
-1.09408e-06 1.6769e-05 -1.54952e-05
1.90685e-06 1.96215e-05 -1.63109e-05
-2.09186e-06 5.22005e-06 -9.59751e-06
5.55391e-06 -7.846e-07 -9.59406e-06
3.58594e-06 -3.68354e-06 -9.0819e-06
-1.77963e-06 -5.17855e-06 -9.44953e-06
-2.24687e-05 -1.10107e-05 -1.74742e-05
-1.87981e-05 -9.24137e-06 -1.6651e-05
2.11477e-05 1.41647e-05 -1.75055e-05
2.07537e-05 -1.43175e-05 -1.74355e-05
-1.7646e-06 -2.54464e-05 -1.75109e-05
-1.68213e-06 2.54104e-05 -1.75155e-05
1.77129e-05 -1.19068e-05 -1.66871e-05
2.06456e-05 -1.0751e-05 -1.71159e-05
3.77563e-06 -1.8985e-05 -1.61393e-05
7.68528e-07 -2.03457e-05 -1.64828e-05
-1.9405e-05 -1.26505e-05 -1.71431e-05
-1.3731e-05 -2.30691e-06 -1.44717e-05
-1.65926e-05 -3.7014e-06 -1.54774e-05
-1.03758e-05 -1.09638e-06 -1.2952e-05
2.44519e-05 1.10727e-05 -1.76515e-05
2.54975e-05 -1.24032e-05 -1.78481e-05
2.64924e-06 2.67258e-05 -1.76604e-05
2.521e-06 -2.64135e-05 -1.76293e-05
3.33945e-06 -2.30318e-05 -1.7029e-05
-2.05388e-06 -1.83198e-05 -1.59508e-05
4.05905e-06 2.37912e-05 -1.71303e-05
2.2614e-05 8.37919e-06 -1.71192e-05
4.61357e-06 1.73132e-05 -1.57271e-05
1.44269e-05 -1.31194e-05 -1.61373e-05
-1.57876e-05 -1.09847e-05 -1.62144e-05
-1.67997e-05 -3.81425e-07 -1.53772e-05
1.73058e-05 4.68744e-06 -1.57255e-05
6.55216e-08 -6.38726e-06 -1.02673e-05
1.7417e-06 -4.84843e-06 -9.0924e-06
5.85042e-06 -2.93549e-06 -1.03781e-05
-2.1444e-05 3.75047e-06 -1.64587e-05
5.72932e-06 -1.62743e-05 -1.55076e-05
9.08339e-06 -1.74989e-05 -1.59973e-05
1.7572e-05 1.18816e-05 -1.66722e-05
1.39941e-05 -1.63821e-05 -1.64011e-05
1.07399e-05 -1.37889e-05 -1.555e-05
-3.54794e-06 -4.22016e-06 -9.50067e-06
5.39907e-06 1.13849e-06 -9.49896e-06
5.21801e-06 3.22285e-06 -1.00471e-05
-1.74978e-06 -2.83543e-05 -1.78768e-05
1.89204e-06 5.29885e-06 -9.58435e-06
-1.13822e-07 6.10496e-06 -1.00386e-05
-3.78489e-06 4.12771e-06 -9.57831e-06
-5.62263e-06 3.03416e-06 -1.02851e-05
-5.16543e-06 1.04066e-06 -9.21352e-06
-7.52718e-06 -6.17386e-08 -1.11723e-05
-4.33434e-06 -8.10271e-07 -8.38177e-06
-3.10856e-06 1.87232e-06 -7.37399e-06
-2.20809e-05 -3.60771e-06 -1.65157e-05
2.3406e-05 -1.56879e-05 -1.7836e-05
-1.50719e-06 2.11677e-05 -1.66819e-05
2.12614e-05 -8.45187e-08 -1.62256e-05
1.76219e-05 -1.64678e-06 -1.55813e-05
1.73475e-05 -4.94162e-06 -1.57705e-05
2.18914e-05 -7.45104e-06 -1.69135e-05
-2.3182e-05 -1.42545e-05 -1.78326e-05
1.73245e-05 1.64885e-06 -1.55084e-05
-1.73399e-06 2.84728e-05 -1.7894e-05
-4.22068e-07 3.68339e-06 -7.49523e-06
2.37718e-05 1.57422e-05 -1.78845e-05
-1.74972e-05 1.56421e-05 -1.69748e-05
-1.06261e-05 -1.84659e-05 -1.62549e-05
-1.00995e-05 -1.43422e-05 -1.55715e-05
-7.5077e-06 -1.60947e-05 -1.56219e-05
-7.32206e-06 -2.01203e-05 -1.63951e-05
-1.07043e-05 1.8535e-05 -1.62666e-05
-1.03472e-05 1.4384e-05 -1.56192e-05
-7.77258e-06 2.04922e-05 -1.64441e-05
-4.25296e-06 1.86095e-05 -1.60528e-05
1.07596e-05 1.83453e-05 -1.6226e-05
1.38915e-05 1.69348e-05 -1.64309e-05
1.40418e-05 1.29728e-05 -1.60511e-05
-7.36151e-06 1.62882e-05 -1.56384e-05
1.0525e-05 1.45469e-05 -1.56451e-05
7.74868e-06 1.60922e-05 -1.56138e-05
-3.11644e-06 -1.89875e-06 -7.39312e-06
-7.25758e-06 -1.24219e-05 -1.4625e-05
3.00864e-06 4.03599e-08 -6.60092e-06
4.87253e-06 1.35226e-05 -1.46179e-05
1.40759e-05 -2.26037e-06 -1.45703e-05
-1.72896e-05 -1.52166e-05 -1.69454e-05
-1.73663e-05 2.42028e-06 -1.55977e-05
-1.22046e-05 8.91186e-06 -1.49433e-05
-7.70557e-06 -2.2925e-06 -1.15546e-05
-1.24497e-05 1.18125e-05 -1.55399e-05
-1.42734e-07 -3.7542e-06 -7.55412e-06
2.73021e-06 2.27206e-06 -7.25187e-06
-2.00385e-06 -1.46504e-05 -1.48079e-05
9.36502e-06 -1.00682e-05 -1.43893e-05
1.38606e-05 3.15779e-06 -1.4566e-05
-7.33998e-06 1.11993e-05 -1.42602e-05
4.99718e-06 -1.27747e-05 -1.43692e-05
1.10318e-05 1.04304e-05 -1.49195e-05
-3.59642e-06 1.46852e-05 -1.49079e-05
-4.63543e-06 -1.66168e-05 -1.55487e-05
-1.9507e-05 1.28924e-05 -1.71612e-05
-2.31268e-05 1.48581e-05 -1.78433e-05
-1.29048e-05 -1.2686e-05 -1.58124e-05
3.76078e-06 -1.58611e-06 -7.90689e-06
1.76438e-06 2.92227e-06 -7.08438e-06
-9.23041e-06 -1.06094e-05 -1.45317e-05
1.72773e-06 -2.82314e-06 -6.93102e-06
9.94728e-07 2.41167e-05 -1.73084e-05
2.13678e-05 1.11938e-05 -1.72986e-05
-1.46645e-05 -7.95334e-06 -1.54853e-05
1.3708e-05 -4.78629e-06 -1.46905e-05
-1.90987e-06 -2.17628e-05 -1.68027e-05
1.80603e-05 -8.41901e-06 -1.63406e-05
-1.66788e-05 -6.32853e-06 -1.57823e-05
-4.32899e-07 -1.92231e-06 -4.79845e-06
-1.80536e-06 2.99543e-06 -7.17713e-06
-2.50519e-05 -1.29817e-05 -1.79222e-05
-2.51271e-05 -1.45072e-05 -1.80021e-05
-2.50451e-05 1.30336e-05 -1.7906e-05
-2.51179e-05 1.46499e-05 -1.79821e-05
-1.64845e-06 -3.12483e-06 -7.20987e-06
6.32791e-06 1.13683e-05 -1.40765e-05
5.3371e-07 -2.4086e-05 -1.73022e-05
-5.22776e-07 1.80954e-06 -4.64498e-06
7.40742e-06 -1.43436e-05 -1.51523e-05
2.33028e-05 -1.32093e-05 -1.77288e-05
2.36326e-05 -1.05375e-05 -1.74908e-05
1.19883e-05 -1.82108e-05 -1.62932e-05
1.473e-05 -1.01466e-05 -1.57955e-05
-1.0027e-05 1.00124e-06 -1.27546e-05
-1.74001e-06 -8.15899e-07 -4.72343e-06
7.69061e-07 3.70834e-06 -7.5731e-06
2.34306e-06 -1.99715e-06 -6.55525e-06
2.01564e-05 5.89779e-06 -1.64535e-05
5.07007e-06 2.05958e-05 -1.64959e-05
3.42118e-07 -2.76799e-05 -1.7854e-05
-1.73122e-06 7.09109e-07 -4.6063e-06
-3.21149e-06 6.23045e-07 -6.8241e-06
3.5772e-06 1.47541e-06 -7.63658e-06
4.99225e-07 2.83237e-05 -1.79272e-05
2.47603e-05 1.3734e-05 -1.79184e-05
-2.03283e-05 1.55358e-05 -1.7429e-05
1.1787e-06 1.36447e-06 -4.45983e-06
-2.06395e-05 -1.57284e-05 -1.75276e-05
-1.89988e-05 -2.32217e-06 -1.59461e-05
-1.95591e-05 -5.58496e-06 -1.63322e-05
9.05679e-07 -3.24774e-06 -7.00607e-06
-4.36601e-06 -1.97892e-05 -1.63218e-05
-7.93724e-06 1.38343e-05 -1.5101e-05
1.16574e-06 -1.30418e-06 -4.33927e-06
1.19344e-05 -1.12283e-05 -1.52921e-05
6.13305e-06 -2.2696e-05 -1.68204e-05
-1.45221e-05 1.43553e-05 -1.63236e-05
7.92904e-06 1.33212e-05 -1.49479e-05
SCALARS effective_fluid_pressure_TPM float
LOOKUP_TABLE default
665
665
665
665
665
665
665
665
665
665
665
665
665
665
133
665
665
665
665
665
665
665
665
665
665
665
665
665
665
133
665
560.316
520.661
502.801
502.572
519.787
559.937
665
561.983
520.755
503.243
503.353
520.687
561.605
665
559.604
519.658
502.746
502.963
521.156
561.621
665
558.86
519.002
501.534
502.23
518.851
559.449
665
558.5
519.942
501.866
501.798
519.375
557.939
665
558.656
519.956
502.039
501.9
519.363
559.663
133
133
133
133
133
133
665
560.316
520.661
502.801
502.572
519.787
559.937
665
561.983
520.755
503.243
503.353
520.687
561.605
665
559.604
519.658
502.746
502.963
521.156
561.621
665
558.86
519.002
501.534
502.23
518.851
559.449
665
558.5
519.942
501.866
501.798
519.375
557.939
665
558.656
519.956
502.039
501.9
519.363
559.663
133
133
133
133
133
133
228.255
226.326
227.039
224.107
225.523
219.845
220.861
529.161
528.17
526.549
527.929
526.577
527.63
498.697
503.543
501.582
498.938
501.454
501.236
494.317
562.499
518.975
495.021
480.727
461.347
443.267
425.035
402.109
427.26
385.255
417.728
379.602
417.891
385.94
427.376
404.287
444.37
429.065
450.247
386.549
419.291
380.197
418.302
386.179
427.749
404.215
444.481
428.149
450.844
386.024
418.154
379.613
418.51
385.547
427.586
402.909
443.543
426.441
384.041
416.127
376.297
415.334
383.013
424.407
400.835
441.693
425.215
382.749
417.767
376.561
418.085
383.835
425.255
402.202
442.665
450.637
426.714
445.995
380.722
444.662
465.277
448.729
464.75
453.398
350.898
463.492
461.024
478.431
462.759
460.629
478.335
337.272
480.807
505.84
503.599
480.873
506.146
337.685
337.497
326.161
334.411
563.375
519.65
567.576
562.361
567.893
567.746
521.799
542.711
498.611
513.724
542.056
451.44
477.558
414.645
579.517
611.027
579.67
576.03
534.545
494.461
538.219
537.915
485.018
498.097
503.316
473.119
485.065
352.742
326.411
355.171
503.425
477.696
488.339
520.868
502.008
477.894
335.536
335.399
347.694
613.444
337.373
347.566
337.26
353.198
329.184
373.249
310.656
288.784
504.691
608.379
521.089
493.701
478.306
486.335
526.483
600.338
476.543
615.898
291.393
615.797
528.711
494.513
478.213
479.388
501.295
494.819
479.414
502.49
495.154
493.723
502.242
495.228
479.861
480.027
479.029
289.29
454.57
271.939
454.977
453.606
526.992
479.45
465.201
382.091
480.486
292.666
286.078
461.457
449.611
453.955
445.832
448.666
463.581
463.239
479.931
543.451
601.7
487.471
300.297
282.458
452.991
279.159
552.233
551.993
480.752
457.995
526.214
508.166
488.568
233.727
284.555
614.505
636.321
615.139
636.677
285.276
441.318
553.074
230.483
467.529
590.26
566.027
495.792
490.027
410.023
232.117
293.092
271.122
507.874
509.172
607.812
229.66
276.972
294.426
618.877
618.79
558.507
226.52
562.521
488.29
503.374
280.843
504.044
466.355
224.005
473.562
519.56
502.959
462.422
228.255
226.326
227.039
224.107
225.523
219.845
220.861
529.161
528.17
526.549
527.929
526.577
527.63
498.697
503.543
501.582
498.938
501.454
501.236
494.317
562.499
518.975
495.021
480.727
461.347
443.267
425.035
402.109
427.26
385.255
417.728
379.602
417.891
385.94
427.376
404.287
444.37
429.065
450.247
386.549
419.291
380.197
418.302
386.179
427.749
404.215
444.481
428.149
450.844
386.024
418.154
379.613
418.51
385.547
427.586
402.909
443.543
426.441
384.041
416.127
376.297
415.334
383.013
424.407
400.835
441.693
425.215
382.749
417.767
376.561
418.085
383.835
425.255
402.202
442.665
450.637
426.714
445.995
380.722
444.662
465.277
448.729
464.75
453.398
350.898
463.492
461.024
478.431
462.759
460.629
478.335
337.272
480.807
505.84
503.599
480.873
506.146
337.685
337.497
326.161
334.411
563.375
519.65
567.576
562.361
567.893
567.746
521.799
542.711
498.611
513.724
542.056
451.44
477.558
414.645
579.517
611.027
579.67
576.03
534.545
494.461
538.219
537.915
485.018
498.097
503.316
473.119
485.065
352.742
326.411
355.171
503.425
477.696
488.339
520.868
502.008
477.894
335.536
335.399
347.694
613.444
337.373
347.566
337.26
353.198
329.184
373.249
310.656
288.784
504.691
608.379
521.089
493.701
478.306
486.335
526.483
600.338
476.543
615.898
291.393
615.797
528.711
494.513
478.213
479.388
501.295
494.819
479.414
502.49
495.154
493.723
502.242
495.228
479.861
480.027
479.029
289.29
454.57
271.939
454.977
453.606
526.992
479.45
465.201
382.091
480.486
292.666
286.078
461.457
449.611
453.955
445.832
448.666
463.581
463.239
479.931
543.451
601.7
487.471
300.297
282.458
452.991
279.159
552.233
551.993
480.752
457.995
526.214
508.166
488.568
233.727
284.555
614.505
636.321
615.139
636.677
285.276
441.318
553.074
230.483
467.529
590.26
566.027
495.792
490.027
410.023
232.117
293.092
271.122
507.874
509.172
607.812
229.66
276.972
294.426
618.877
618.79
558.507
226.52
562.521
488.29
503.374
280.843
504.044
466.355
224.005
473.562
519.56
502.959
462.422

CELL_DATA 563
TENSORS stress float
164.61 -24.9204 7.86334e-13
-24.9204 28.1483 3.55627e-12
7.86334e-13 3.55627e-12 -12.6044

-40.3385 -21.3202 -1.28142e-12
-21.3202 -7.3547 2.33561e-12
-1.28142e-12 2.33561e-12 -10.2316

-9.93993 28.0432 -4.2751e-12
28.0432 -1.11032 -2.0736e-12
-4.2751e-12 -2.0736e-12 -6.36003

-40.4267 -29.8427 4.49566e-13
-29.8427 -12.8459 6.19356e-13
4.49566e-13 6.19356e-13 -10.5979

-22.6924 19.9309 -1.6529e-12
19.9309 -1.92253 -2.13052e-12
-1.6529e-12 -2.13052e-12 -23.0215

-27.1393 -18.0744 4.46902e-13
-18.0744 15.8879 2.98783e-12
4.46902e-13 2.98783e-12 -6.41081

161.261 26.4845 -7.38964e-13
26.4845 28.0249 8.02676e-12
-7.38964e-13 8.02676e-12 -13.2633

-5.96136 29.9578 -1.2926e-12
29.9578 -10.112 -5.35276e-13
-1.2926e-12 -5.35276e-13 -7.27608

34.6311 5.48312 1.82728e-12
5.48312 -19.0946 -2.31496e-12
1.82728e-12 -2.31496e-12 -4.12187

11.8603 -7.47757 3.08464e-12
-7.47757 -48.2871 1.84319e-12
3.08464e-12 1.84319e-12 -8.94683

104.193 16.3085 2.79243e-12
16.3085 -8.44348 8.87705e-12
2.79243e-12 8.87705e-12 -22.4543

-34.6374 -13.4532 -2.81256e-14
-13.4532 18.9658 2.5248e-12
-2.81256e-14 2.5248e-12 -7.18034

-6.02593 27.8331 2.70954e-12
27.8331 -4.59146 4.27332e-12
2.70954e-12 4.27332e-12 -6.15895

-35.5516 -14.34 -3.63682e-12
-14.34 7.84498 -5.14729e-12
-3.63682e-12 -5.14729e-12 -9.13116

-23.6537 33.3113 7.51103e-13
33.3113 -24.9941 -3.25552e-12
7.51103e-13 -3.25552e-12 -21.3651

21.3107 0.560972 -1.95399e-13
0.560972 -32.3383 -2.69746e-12
-1.95399e-13 -2.69746e-12 -5.58942

-48.9595 -17.9691 1.25026e-12
-17.9691 6.34294 4.95781e-12
1.25026e-12 4.95781e-12 -12.946

11.6601 -2.6652 1.95399e-12
-2.6652 -43.2486 3.63591e-12
1.95399e-12 3.63591e-12 -8.03331

-11.3496 26.6736 -1.58244e-12
26.6736 19.5173 2.92507e-13
-1.58244e-12 2.92507e-13 -6.08916

21.7655 -4.19556 2.69769e-12
-4.19556 -35.2943 -6.4837e-14
2.69769e-12 -6.4837e-14 -6.74099

-24.479 8.66857 5.64141e-13
8.66857 32.1274 9.65154e-14
5.64141e-13 9.65154e-14 -4.93402

-11.8087 6.28764 -4.51444e-12
6.28764 -11.9739 1.53803e-13
-4.51444e-12 1.53803e-13 -75.6208

22.7432 1.87598 6.59621e-13
1.87598 -33.4686 -1.18794e-13
6.59621e-13 -1.18794e-13 -6.67696

-12.3879 -27.7151 9.68114e-13
-27.7151 1.59972 -1.69405e-12
9.68114e-13 -1.69405e-12 -6.60246

21.3043 6.84937 -1.84563e-12
6.84937 -34.3037 -7.38076e-13
-1.84563e-12 -7.38076e-13 -6.80622

-37.9051 19.1128 2.79554e-13
19.1128 2.65396 1.54069e-12
2.79554e-13 1.54069e-12 -9.45743

106.602 4.18136 2.64085e-12
4.18136 20.6025 -3.64538e-12
2.64085e-12 -3.64538e-12 -12.0493

-5.30172 30.7458 4.77426e-12
30.7458 -7.27213 2.06946e-13
4.77426e-12 2.06946e-13 -7.44132

27.8899 37.0742 5.73526e-12
37.0742 26.4691 -9.21337e-13
5.73526e-12 -9.21337e-13 -8.63202

-9.4391 10.3235 -9.90911e-13
10.3235 -32.9301 -2.59089e-13
-9.90911e-13 -2.59089e-13 -49.5089

19.8306 14.2169 1.16055e-12
14.2169 -29.359 4.21722e-12
1.16055e-12 4.21722e-12 -6.00067

-4.21015 -17.7803 -7.15576e-13
-17.7803 59.6574 5.36223e-12
-7.15576e-13 5.36223e-12 -8.47592

66.2827 -42.1015 9.85286e-13
-42.1015 71.1379 -3.66403e-12
9.85286e-13 -3.66403e-12 -11.2521

-48.21 5.98673 2.94735e-12
5.98673 7.26958 4.73399e-13
2.94735e-12 4.73399e-13 -41.0377

-26.2912 -4.84064 2.96563e-12
-4.84064 1.75672 3.23475e-12
2.96563e-12 3.23475e-12 -37.8026

-1.46681 21.0279 1.86754e-12
21.0279 -39.5064 4.40551e-12
1.86754e-12 4.40551e-12 -41.1035

-43.9759 5.06746 1.61856e-12
5.06746 0.514222 -4.13773e-12
1.61856e-12 -4.13773e-12 -52.1913

-2.76008 -9.16997 -1.38467e-12
-9.16997 -20.7698 1.57823e-12
-1.38467e-12 1.57823e-12 -35.897

-3.97414 -27.9981 2.51947e-12
-27.9981 -4.61047 -2.14288e-12
2.51947e-12 -2.14288e-12 -5.99428

65.5965 41.5208 1.65793e-14
41.5208 73.1656 3.40113e-12
1.65793e-14 3.40113e-12 -10.9638

60.1548 -17.949 -3.55863e-12
-17.949 0.117052 1.38141e-12
-3.55863e-12 1.38141e-12 -8.0499

-41.8037 -3.70602 -6.71463e-12
-3.70602 -1.18565 -3.57373e-12
-6.71463e-12 -3.57373e-12 -52.7261

-14.5939 19.5555 -1.62048e-12
19.5555 -28.5516 1.4877e-12
-1.62048e-12 1.4877e-12 -52.8343

18.1409 -12.2733 -5.21065e-14
-12.2733 -29.8988 -2.19706e-12
-5.21065e-14 -2.19706e-12 -6.22286

38.1729 -43.2988 -6.49554e-12
-43.2988 41.8009 -1.79294e-12
-6.49554e-12 -1.79294e-12 -14.559

58.1434 -18.0633 -3.37981e-12
-18.0633 -2.30264 9.29627e-13
-3.37981e-12 9.29627e-13 -7.91349

-21.4417 17.0856 8.61681e-13
17.0856 30.327 -1.43115e-12
8.61681e-13 -1.43115e-12 -5.72809

-11.3725 19.3389 -4.79024e-13
19.3389 25.5104 9.0535e-13
-4.79024e-13 9.0535e-13 -3.9215

20.7911 -16.301 1.77517e-12
-16.301 -33.1141 3.41046e-12
1.77517e-12 3.41046e-12 -7.31145

12.6152 -34.1851 3.57936e-12
-34.1851 46.4352 -3.52903e-13
3.57936e-12 -3.52903e-13 -10.3972

62.3596 19.1817 -4.48826e-13
19.1817 2.81032 -5.19288e-13
-4.48826e-13 -5.19288e-13 -8.41384

46.5132 -25.2882 -5.23907e-12
-25.2882 5.13409 4.35e-12
-5.23907e-12 4.35e-12 -5.60985

-31.8957 19.4857 1.62093e-12
19.4857 -4.28551 6.80641e-13
1.62093e-12 6.80641e-13 -26.0856

37.0388 29.6491 2.69651e-12
29.6491 14.5126 6.15804e-14
2.69651e-12 6.15804e-14 -5.43228

-27.4499 -21.8128 -9.87358e-13
-21.8128 -8.22837 3.25735e-12
-9.87358e-13 3.25735e-12 -25.2479

64.8681 -42.7109 3.07902e-14
-42.7109 44.0797 2.37203e-12
3.07902e-14 2.37203e-12 -9.50209

-27.7496 5.45965 1.4014e-12
5.45965 2.66931 -3.4713e-12
1.4014e-12 -3.4713e-12 -38.3082

-5.55766 -5.32974 -2.29594e-12
-5.32974 57.3876 -5.32907e-13
-2.29594e-12 -5.32907e-13 -5.44931

-0.200197 10.3842 8.10907e-13
10.3842 -24.848 3.06653e-14
8.10907e-13 3.06653e-14 -38.3698

-26.4849 21.4129 -1.79649e-12
21.4129 12.2195 -2.98783e-12
-1.79649e-12 -2.98783e-12 -6.86941

4.72643 5.7539 3.18634e-12
5.7539 -56.04 1.90144e-12
3.18634e-12 1.90144e-12 -13.9807

0.539795 11.4589 3.75611e-12
11.4589 -34.0565 3.54442e-12
3.75611e-12 3.54442e-12 -14.8396

106.343 31.8196 -2.93454e-12
31.8196 37.8326 -1.16576e-11
-2.93454e-12 -1.16576e-11 -7.48967

-35.4917 -6.03516 1.36779e-12
-6.03516 10.6012 2.29801e-12
1.36779e-12 2.29801e-12 -13.4788

-35.3599 9.51972 1.22983e-12
9.51972 1.23362 -8.85218e-14
1.22983e-12 -8.85218e-14 -14.9599

-42.5876 -2.8808 -2.43128e-12
-2.8808 21.1109 4.68958e-13
-2.43128e-12 4.68958e-13 -11.2387

-44.9078 23.402 -1.32176e-12
23.402 -5.89261 2.68023e-12
-1.32176e-12 2.68023e-12 -13.9216

9.97104 8.4635 -4.88587e-12
8.4635 -42.3778 2.01513e-12
-4.88587e-12 2.01513e-12 -9.07766

-12.3343 -28.2392 -1.44447e-12
-28.2392 1.68736 1.06877e-12
-1.44447e-12 1.06877e-12 -6.67363

1.30886 -1.71124 1.95695e-13
-1.71124 -55.4562 1.30451e-12
1.95695e-13 1.30451e-12 -11.3038

-31.8852 -19.2617 2.19528e-12
-19.2617 -4.59487 2.3294e-12
2.19528e-12 2.3294e-12 -25.9549

-27.9753 21.3078 -1.71596e-12
21.3078 -8.35821 7.2826e-14
-1.71596e-12 7.2826e-14 -26.0133

-0.651687 -16.5833 4.19413e-12
-16.5833 61.6732 -1.15345e-12
4.19413e-12 -1.15345e-12 -7.94875

-0.650122 -27.936 -5.21065e-14
-27.936 -21.3608 -4.93886e-12
-5.21065e-14 -4.93886e-12 -12.7908

-14.093 -25.1345 -2.55943e-12
-25.1345 7.40682 7.04622e-13
-2.55943e-12 7.04622e-13 -5.23571

91.6772 -31.7103 1.06581e-13
-31.7103 19.4847 2.8854e-12
1.06581e-13 2.8854e-12 -16.3332

-33.706 3.22262 6.59702e-12
3.22262 9.19936 4.84945e-13
6.59702e-12 4.84945e-13 -18.5634

2.7522 28.9438 3.98082e-12
28.9438 -24.4246 5.68138e-13
3.98082e-12 5.68138e-13 -11.3163

-38.4333 19.6641 -2.82174e-12
19.6641 5.22973 4.53089e-12
-2.82174e-12 4.53089e-12 -9.2349

50.1902 7.99947 -1.74438e-12
7.99947 -16.9636 5.65029e-12
-1.74438e-12 5.65029e-12 -7.06665

60.031 -33.9352 3.72443e-12
-33.9352 33.7867 4.26326e-14
3.72443e-12 4.26326e-14 -6.98362

-18.96 -10.5875 1.54129e-12
-10.5875 -0.541723 -1.18098e-12
1.54129e-12 -1.18098e-12 -25.4313

-33.9261 23.8995 5.10703e-13
23.8995 -12.0231 -2.06895e-12
5.10703e-13 -2.06895e-12 -14.5401

58.1558 -32.3835 -1.58806e-12
-32.3835 18.0913 -1.51464e-12
-1.58806e-12 -1.51464e-12 -10.1336

66.8591 10.791 -1.79057e-12
10.791 8.51323 3.39921e-12
-1.79057e-12 3.39921e-12 -5.08424

7.67407 -21.2058 6.77532e-12
-21.2058 88.4639 -4.3201e-12
6.77532e-12 -4.3201e-12 -11.8622

-33.9855 14.4256 -4.69032e-13
14.4256 20.2383 -3.07369e-12
-4.69032e-13 -3.07369e-12 -7.54615

8.47549 23.1429 4.43201e-12
23.1429 -26.0737 3.97874e-12
4.43201e-12 3.97874e-12 -11.2989

34.8685 42.1983 -3.24481e-13
42.1983 46.199 9.61601e-13
-3.24481e-13 9.61601e-13 -14.4204

-4.39442 16.507 8.42844e-12
16.507 -35.5418 5.90061e-12
8.42844e-12 5.90061e-12 -73.2874

-5.97976 -4.10831 2.1334e-12
-4.10831 57.948 -2.7948e-12
2.1334e-12 -2.7948e-12 -5.44151

-1.81882 -16.6322 -1.37934e-12
-16.6322 -39.4019 1.6234e-11
-1.37934e-12 1.6234e-11 -74.1107

-3.32944 -27.3349 -2.00965e-12
-27.3349 -30.0298 5.61995e-12
-2.00965e-12 5.61995e-12 -21.5542

8.96713 27.4245 3.47515e-12
27.4245 -29.9947 4.22654e-12
3.47515e-12 4.22654e-12 -11.257

45.711 -24.4104 1.89833e-12
-24.4104 5.02439 -2.53308e-12
1.89833e-12 -2.53308e-12 -5.23593

10.0953 31.3229 -2.5396e-12
31.3229 47.1629 -4.20404e-13
-2.5396e-12 -4.20404e-13 -9.64019

14.2724 -10.705 -7.43701e-13
-10.705 82.8382 1.37135e-12
-7.43701e-13 1.37135e-12 -6.44692

-38.633 21.9707 3.64212e-12
21.9707 2.94155 7.6034e-12
3.64212e-12 7.6034e-12 -8.56885

1.19269 16.7941 2.74418e-12
16.7941 -25.7221 -3.94381e-12
2.74418e-12 -3.94381e-12 -18.5676

-26.5377 15.1538 -4.82207e-12
15.1538 18.4493 1.66563e-12
-4.82207e-12 1.66563e-12 -5.70777

43.6585 15.9537 3.62377e-13
15.9537 -7.28489 6.02496e-12
3.62377e-13 6.02496e-12 -4.07494

12.577 -21.4723 1.10312e-12
-21.4723 57.9552 -6.03606e-12
1.10312e-12 -6.03606e-12 -4.71387

65.9959 -29.3903 4.69432e-12
-29.3903 18.6435 7.6561e-13
4.69432e-12 7.6561e-13 -9.33515

-32.381 -24.5729 -1.7808e-12
-24.5729 -7.28162 -4.8909e-13
-1.7808e-12 -4.8909e-13 -8.9761

-22.6668 27.4509 -2.32999e-12
27.4509 -10.3501 -5.12242e-12
-2.32999e-12 -5.12242e-12 -9.28369

-38.3511 23.1876 -2.74551e-12
23.1876 1.99107 4.88498e-14
-2.74551e-12 4.88498e-14 -8.52474

-51.5533 13.1691 6.02018e-13
13.1691 11.927 3.8168e-12
6.02018e-13 3.8168e-12 -16.4662

23.4846 9.37223 2.07419e-12
9.37223 -29.4876 -9.59233e-14
2.07419e-12 -9.59233e-14 -5.32127

3.7687 -4.66502 5.48687e-12
-4.66502 79.4375 7.50807e-13
5.48687e-12 7.50807e-13 -9.53127

-44.9399 -36.8332 -8.43769e-14
-36.8332 -19.8288 -2.59341e-12
-8.43769e-14 -2.59341e-12 -14.7705

-16.0794 27.4651 1.26447e-12
27.4651 1.34108 1.57504e-12
1.26447e-12 1.57504e-12 -6.91442

-5.01517 2.17031 6.32561e-12
2.17031 82.6729 1.67925e-12
6.32561e-12 1.67925e-12 -13.431

69.0449 34.61 4.84353e-12
34.61 15.4966 -3.16132e-12
4.84353e-12 -3.16132e-12 -10.7058

-31.3517 -22.9738 -1.20259e-12
-22.9738 -4.63242 2.52657e-12
-1.20259e-12 2.52657e-12 -8.52961

11.7429 5.73296 8.55316e-13
5.73296 -48.3359 -6.54439e-13
8.55316e-13 -6.54439e-13 -8.64114

43.0654 27.2038 -1.05397e-12
27.2038 10.452 -5.2367e-12
-1.05397e-12 -5.2367e-12 -5.08066

-9.41474 12.7455 4.46014e-13
12.7455 -14.0391 -1.18365e-12
4.46014e-13 -1.18365e-12 -37.0407

70.334 24.3303 -1.9611e-12
24.3303 23.8048 9.00021e-14
-1.9611e-12 9.00021e-14 -6.79941

-10.5859 -13.055 7.13592e-12
-13.055 -13.9209 -4.45037e-12
7.13592e-12 -4.45037e-12 -37.3785

-4.37942 0.778529 2.88954e-13
0.778529 59.3976 -1.48385e-12
2.88954e-13 -1.48385e-12 -4.83051

38.3567 -2.2353 -2.20505e-12
-2.2353 -23.8104 2.46144e-12
-2.20505e-12 2.46144e-12 -5.83212

3.59371 -15.768 -2.33132e-12
-15.768 -53.9711 2.38446e-12
-2.33132e-12 2.38446e-12 -21.1242

-42.277 24.3881 6.29991e-13
24.3881 -11.7369 -1.14249e-12
6.29991e-13 -1.14249e-12 -11.1674

-46.8124 -13.535 2.50236e-12
-13.535 11.0674 1.36187e-13
2.50236e-12 1.36187e-13 -12.3537

5.81016 -7.99998 -7.05214e-13
-7.99998 -70.9676 -1.60864e-12
-7.05214e-13 -1.60864e-12 -14.8818

-49.5391 -22.284 2.69666e-12
-22.284 3.7485 -4.13625e-12
2.69666e-12 -4.13625e-12 -22.1041

-17.4592 -6.59654 -1.64047e-12
-6.59654 -13.1158 -2.01613e-12
-1.64047e-12 -2.01613e-12 -34.7815

-28.7297 -29.9081 -7.54952e-13
-29.9081 -9.39986 2.78918e-12
-7.54952e-13 2.78918e-12 -8.99587

15.6934 11.4535 -4.73843e-12
11.4535 80.1797 -3.15244e-12
-4.73843e-12 -3.15244e-12 -6.53058

42.2897 -28.1462 -4.23128e-12
-28.1462 11.0509 3.83279e-12
-4.23128e-12 3.83279e-12 -5.0439

-47.1705 -13.7722 -6.28423e-12
-13.7722 4.19614 2.31518e-13
-6.28423e-12 2.31518e-13 -29.3007

2.96486 0.504438 3.68653e-12
0.504438 -56.8118 -5.15514e-13
3.68653e-12 -5.15514e-13 -11.0051

-39.3365 -21.5245 2.38313e-12
-21.5245 -8.85728 1.63099e-12
2.38313e-12 1.63099e-12 -14.7741

-40.1949 25.6977 6.00409e-13
25.6977 -14.6915 6.41228e-13
6.00409e-13 6.41228e-13 -11.3108

32.2603 -31.4641 -6.12014e-12
-31.4641 38.4291 -6.41857e-13
-6.12014e-12 -6.41857e-13 -4.64804

-31.4688 -7.08499 9.72444e-12
-7.08499 1.70033 5.05995e-12
9.72444e-12 5.05995e-12 -40.9928

36.6297 -33.0764 -8.20677e-13
-33.0764 72.0267 -3.93167e-13
-8.20677e-13 -3.93167e-13 -7.14467

16.6126 -19.1795 2.66039e-12
-19.1795 -25.8697 1.58599e-12
2.66039e-12 1.58599e-12 -7.13312

1.50258 1.97029 1.13243e-12
1.97029 -51.3914 -2.41614e-12
1.13243e-12 -2.41614e-12 -15.3741

-12.876 17.875 4.04358e-12
17.875 -16.9549 2.61243e-12
4.04358e-12 2.61243e-12 -41.0603

10.7131 20.1826 -1.24404e-12
20.1826 59.4536 -1.5028e-12
-1.24404e-12 -1.5028e-12 -4.35651

4.31839 27.2104 8.24822e-13
27.2104 -16.2236 1.33671e-12
8.24822e-13 1.33671e-12 -8.12409

30.9043 -24.5113 3.87246e-12
-24.5113 -8.13216 -1.9158e-12
3.87246e-12 -1.9158e-12 -4.872

-37.7872 -17.8385 1.60209e-12
-17.8385 2.40087 -1.48207e-12
1.60209e-12 -1.48207e-12 -9.86427

55.5132 35.0678 8.26598e-13
35.0678 42.3451 2.59467e-12
8.26598e-13 2.59467e-12 -6.6362

-40.0149 -21.831 3.45649e-13
-21.831 2.53686 7.36596e-13
3.45649e-13 7.36596e-13 -9.39379

2.96659 30.8503 -1.16647e-12
30.8503 -17.3881 5.35453e-12
-1.16647e-12 5.35453e-12 -9.07809

18.5373 -25.2439 -5.10525e-12
-25.2439 -19.4177 -1.067e-12
-5.10525e-12 -1.067e-12 -6.3423

-15.6536 -25.1262 3.52281e-12
-25.1262 5.89564 2.62605e-12
3.52281e-12 2.62605e-12 -5.77534

42.718 -18.6879 7.93439e-13
-18.6879 -9.16562 1.42523e-12
7.93439e-13 1.42523e-12 -5.36893

27.4318 -18.8494 -2.60828e-12
-18.8494 -20.3682 -3.7795e-12
-2.60828e-12 -3.7795e-12 -5.68957

-41.3938 -25.3369 4.59055e-12
-25.3369 -14.964 -2.02912e-13
4.59055e-12 -2.02912e-13 -11.5669

29.7808 35.9689 -1.2399e-12
35.9689 25.227 7.82781e-13
-1.2399e-12 7.82781e-13 -8.64413

-28.518 15.3766 2.19676e-13
15.3766 18.5188 -3.79667e-12
2.19676e-13 -3.79667e-12 -5.87379

-23.1079 26.4221 2.19883e-12
26.4221 -12.5467 1.49244e-12
2.19883e-12 1.49244e-12 -9.95791

-42.0965 25.4736 -2.55209e-12
25.4736 -11.5925 2.75246e-12
-2.55209e-12 2.75246e-12 -10.9926

-37.2883 11.6214 2.92798e-12
11.6214 11.8441 1.62063e-12
2.92798e-12 1.62063e-12 -9.08033

64.3925 -8.22688 -5.51973e-12
-8.22688 3.19777 1.00956e-13
-5.51973e-12 1.00956e-13 -4.25063

8.73391 18.6061 4.69195e-12
18.6061 59.2195 -4.09746e-13
4.69195e-12 -4.09746e-13 -4.16211

-25.6144 -24.3803 -7.53471e-13
-24.3803 0.458453 1.14605e-12
-7.53471e-13 1.14605e-12 -7.21536

-1.14151 25.6656 -1.80004e-13
25.6656 13.7523 -9.11863e-14
-1.80004e-13 -9.11863e-14 -4.08246

32.3784 -35.6288 2.20387e-12
-35.6288 21.7 4.50247e-12
2.20387e-12 4.50247e-12 -8.48585

59.5357 38.3161 1.14871e-13
38.3161 17.8476 -1.84741e-12
1.14871e-13 -1.84741e-12 -13.7221

12.1251 -33.3105 -1.71892e-12
-33.3105 42.913 3.59535e-12
-1.71892e-12 3.59535e-12 -9.54247

30.5511 -31.1591 -1.73136e-12
-31.1591 36.8133 -3.41534e-12
-1.73136e-12 -3.41534e-12 -4.40521

11.7688 -6.83865 -2.89813e-12
-6.83865 -48.8379 1.03695e-12
-2.89813e-12 1.03695e-12 -8.76997

25.2743 30.3413 3.46745e-12
30.3413 41.0887 -1.80004e-12
3.46745e-12 -1.80004e-12 -4.45571

62.6815 13.2944 5.31249e-12
13.2944 5.22826 3.63324e-12
5.31249e-12 3.63324e-12 -4.30522

-7.02555 13.3786 -6.87598e-13
13.3786 61.3436 -1.04213e-13
-6.87598e-13 -1.04213e-13 -8.6947

11.7297 -22.34 -2.40045e-12
-22.34 55.7627 3.2081e-12
-2.40045e-12 3.2081e-12 -4.30118

-47.2605 -1.09154 3.08242e-12
-1.09154 12.4096 1.60346e-12
3.08242e-12 1.60346e-12 -22.162

-5.91886 2.24657 -1.86902e-12
2.24657 59.0039 -3.381e-12
-1.86902e-12 -3.381e-12 -5.26222

6.26876 31.0888 3.3212e-12
31.0888 47.8648 -8.68046e-13
3.3212e-12 -8.68046e-13 -9.66026

-39.7253 12.1078 4.6622e-13
12.1078 12.8448 5.77316e-12
4.6622e-13 5.77316e-12 -9.3128

40.738 -27.6472 4.40181e-12
-27.6472 8.35763 2.45729e-13
4.40181e-12 2.45729e-13 -5.64168

7.53998 20.5569 5.39687e-12
20.5569 -47.4668 3.86358e-12
5.39687e-12 3.86358e-12 -16.4816

-3.42111 26.2704 -1.47497e-12
26.2704 -31.4866 7.59985e-13
-1.47497e-12 7.59985e-13 -22.2524

15.7774 -18.5675 3.62673e-12
-18.5675 -30.0128 6.54884e-13
3.62673e-12 6.54884e-13 -8.18271

4.42868 -1.80121 -1.82728e-12
-1.80121 -34.133 2.6296e-12
-1.82728e-12 2.6296e-12 -24.4394

-14.3396 -31.8117 2.314e-12
-31.8117 -11.9303 2.33028e-12
2.314e-12 2.33028e-12 -9.04925

56.2178 23.3274 5.28052e-12
23.3274 0.816946 4.66412e-12
5.28052e-12 4.66412e-12 -8.28772

-27.828 30.1621 1.19608e-12
30.1621 -9.23641 -7.25346e-14
1.19608e-12 -7.25346e-14 -8.80012

-27.0036 29.2058 -3.49676e-12
29.2058 -9.20177 1.80241e-12
-3.49676e-12 1.80241e-12 -8.6774

28.6285 30.6604 -5.1467e-12
30.6604 40.4055 -9.74628e-13
-5.1467e-12 -9.74628e-13 -4.44873

0.343097 27.0849 3.32652e-12
27.0849 -19.8458 3.83723e-12
3.32652e-12 3.83723e-12 -11.7769

64.5075 3.5251 -2.63138e-12
3.5251 -11.8255 -4.02352e-12
-2.63138e-12 -4.02352e-12 -10.0181

-14.8997 31.8172 2.20742e-12
31.8172 -20.7987 6.30015e-13
2.20742e-12 6.30015e-13 -12.4474

-37.944 -12.5997 -4.89164e-13
-12.5997 8.18004 -1.19726e-12
-4.89164e-13 -1.19726e-12 -14.0227

-0.475024 24.2782 -2.45048e-12
24.2782 -29.9991 -3.42245e-13
-2.45048e-12 -3.42245e-13 -20.7713

-23.7274 -29.5787 3.17376e-13
-29.5787 -11.9349 -1.55224e-12
3.17376e-13 -1.55224e-12 -8.84305

-38.1481 -4.89806 -3.17635e-13
-4.89806 18.8466 -5.24617e-13
-3.17635e-13 -5.24617e-13 -11.7299

69.944 -24.556 -2.29742e-13
-24.556 18.0288 2.66098e-12
-2.29742e-13 2.66098e-12 -7.04418

39.9819 29.6927 -2.53072e-12
29.6927 13.4794 -9.07126e-13
-2.53072e-12 -9.07126e-13 -5.21477

-4.29596 14.6963 -2.0511e-12
14.6963 60.5709 -3.38218e-12
-2.0511e-12 -3.38218e-12 -8.40064

1.61142 -1.13889 1.39829e-12
-1.13889 -56.1233 8.43177e-13
1.39829e-12 8.43177e-13 -11.209

9.61413 0.00222819 -3.3659e-12
0.00222819 -44.7538 -2.09136e-12
-3.3659e-12 -2.09136e-12 -8.43768

-31.0787 23.1238 8.4827e-12
23.1238 -4.33711 4.85538e-14
8.4827e-12 4.85538e-14 -8.45812

-34.7625 23.8709 2.92655e-12
23.8709 -13.1925 1.27076e-12
2.92655e-12 1.27076e-12 -14.8129

-43.3786 -24.3807 -1.25535e-12
-24.3807 -12.6139 -6.42997e-12
-1.25535e-12 -6.42997e-12 -11.4685

-39.059 -0.67277 3.07604e-12
-0.67277 21.0464 -4.2147e-12
3.07604e-12 -4.2147e-12 -10.4953

-40.8066 25.5904 -2.42961e-12
25.5904 -13.2225 5.87308e-12
-2.42961e-12 5.87308e-12 -11.1721

32.3215 -10.3078 2.50466e-13
-10.3078 -25.1534 2.60651e-12
2.50466e-13 2.60651e-12 -6.01393

8.70675 -32.8331 -3.53791e-12
-32.8331 22.7976 8.56796e-13
-3.53791e-12 8.56796e-13 -6.99176

2.39684 -2.30072 -2.60828e-13
-2.30072 -49.9606 1.10223e-12
-2.60828e-13 1.10223e-12 -14.7725

36.7454 -34.5079 8.91731e-13
-34.5079 24.4796 -7.4607e-14
8.91731e-13 -7.4607e-14 -7.70892

-38.2938 19.0861 -3.49054e-13
19.0861 -7.09366 -2.17041e-12
-3.49054e-13 -2.17041e-12 -14.4493

7.87074 -26.4787 1.88886e-12
-26.4787 -27.9944 1.7734e-13
1.88886e-12 1.7734e-13 -10.9689

63.947 -9.69016 1.58096e-12
-9.69016 5.67756 -3.57669e-12
1.58096e-12 -3.57669e-12 -5.07211

6.04076 -23.1919 -3.35199e-12
-23.1919 -35.4681 -2.93513e-12
-3.35199e-12 -2.93513e-12 -17.736

0.141364 2.35827 -1.12828e-12
2.35827 -56.174 -1.30222e-12
-1.12828e-12 -1.30222e-12 -11.5459

-4.06205 -23.3214 -2.26782e-12
-23.3214 -23.4117 -5.79981e-12
-2.26782e-12 -5.79981e-12 -16.7199

11.0388 -25.8594 -4.73932e-12
-25.8594 -29.4857 2.28114e-12
-4.73932e-12 2.28114e-12 -9.73344

10.2014 -8.5461 -2.55855e-12
-8.5461 -43.4898 3.0879e-13
-2.55855e-12 3.0879e-13 -9.2812

-35.4182 -23.0681 2.52983e-12
-23.0681 -12.6458 -9.12862e-13
2.52983e-12 -9.12862e-13 -15.103

23.6643 -31.3416 1.19845e-12
-31.3416 5.71251 -1.66326e-12
1.19845e-12 -1.66326e-12 -5.87799

11.0598 -24.5872 -3.81265e-12
-24.5872 -27.4945 8.55908e-13
-3.81265e-12 8.55908e-13 -10.0479

46.6429 10.8644 -1.57148e-12
10.8644 -16.117 6.18764e-12
-1.57148e-12 6.18764e-12 -6.79963

-14.1861 26.3402 3.95299e-12
26.3402 -15.6397 -1.87554e-13
3.95299e-12 -1.87554e-13 -14.1189

-45.2518 -37.6129 -8.06762e-13
-37.6129 -20.6124 -4.05206e-12
-8.06762e-13 -4.05206e-12 -14.919

-43.7085 37.2652 2.4721e-13
37.2652 -21.2662 6.78346e-12
2.4721e-13 6.78346e-12 -14.7694

-61.1851 -28.5734 5.02191e-13
-28.5734 -7.49705 1.07558e-12
5.02191e-13 1.07558e-12 -15.1995

-58.416 27.0641 -2.90434e-13
27.0641 -6.27168 2.10706e-12
-2.90434e-13 2.10706e-12 -14.478

5.60064 -8.52763 2.37736e-13
-8.52763 -71.064 -1.47556e-12
2.37736e-13 -1.47556e-12 -14.7096

4.39738 9.27363 1.77961e-12
9.27363 -68.8327 5.60737e-13
1.77961e-12 5.60737e-13 -14.4376

9.02397 -9.84616 2.43657e-13
-9.84616 -40.8899 -2.85298e-12
2.43657e-13 -2.85298e-12 -9.61168

-24.3355 32.1161 -1.01696e-12
32.1161 -24.81 1.22918e-12
-1.01696e-12 1.22918e-12 -21.1453

-25.5229 -32.8542 2.34479e-13
-32.8542 -25.0961 1.64632e-12
2.34479e-13 1.64632e-12 -21.4694

-53.9199 16.0685 -1.28564e-12
16.0685 3.40175 1.12621e-12
-1.28564e-12 1.12621e-12 -21.4029

-52.4208 -15.801 8.43769e-14
-15.801 3.29707 1.41901e-12
8.43769e-14 1.41901e-12 -21.0762

6.11222 -3.74765 2.10247e-12
-3.74765 -43.9252 2.91648e-12
2.10247e-12 2.91648e-12 -25.7651

6.91838 3.61041 -3.35361e-12
3.61041 -46.3487 -2.3815e-12
-3.35361e-12 -2.3815e-12 -26.1415

-15.6257 9.83682 -1.35469e-12
9.83682 46.2624 -2.34716e-12
-1.35469e-12 -2.34716e-12 -5.84779

-22.9186 -24.7741 -6.19949e-13
-24.7741 -14.5522 2.54063e-12
-6.19949e-13 2.54063e-12 -10.3297

-56.6036 -36.3875 1.46298e-12
-36.3875 -14.5327 -3.93226e-12
1.46298e-12 -3.93226e-12 -13.437

33.3583 -4.66427 -1.54306e-12
-4.66427 -19.8469 2.03541e-14
-1.54306e-12 2.03541e-14 -3.94491

3.4334 -16.6947 3.18708e-13
-16.6947 -52.6288 -7.65906e-13
3.18708e-13 -7.65906e-13 -21.5327

3.67453 16.1757 5.66954e-13
16.1757 -51.8845 -4.01634e-12
5.66954e-13 -4.01634e-12 -21.406

6.55575 0.121882 -3.40468e-12
0.121882 -76.7549 -9.07618e-13
-3.40468e-12 -9.07618e-13 -13.3039

-7.56945 23.3751 2.80724e-12
23.3751 39.9356 -2.54256e-12
2.80724e-12 -2.54256e-12 -6.88508

-56.8893 36.1715 3.32623e-12
36.1715 -14.0113 3.22734e-12
3.32623e-12 3.22734e-12 -13.3887

-39.7946 -23.3958 -2.37736e-12
-23.3958 2.56156 -6.78864e-13
-2.37736e-12 -6.78864e-13 -8.80075

37.1167 23.3527 1.98952e-13
23.3527 -8.61298 -3.45501e-12
1.98952e-13 -3.45501e-12 -5.75843

4.7353 23.8582 -5.17512e-13
23.8582 -38.2259 4.31744e-12
-5.17512e-13 4.31744e-12 -18.9858

24.0134 -31.3134 2.18729e-12
-31.3134 6.40838 -1.00779e-12
2.18729e-12 -1.00779e-12 -5.64797

2.43079 -3.23097 9.10975e-13
-3.23097 -48.3698 -1.525e-12
9.10975e-13 -1.525e-12 -14.7426

-60.4578 -34.161 4.78765e-12
-34.161 -14.3498 1.22361e-12
4.78765e-12 1.22361e-12 -14.0307

-17.4525 8.31993 3.00883e-12
8.31993 45.6917 6.91121e-12
3.00883e-12 6.91121e-12 -5.78084

-9.4687 21.8115 6.48933e-12
21.8115 40.425 5.29354e-12
6.48933e-12 5.29354e-12 -6.65357

58.6034 35.7757 4.06549e-12
35.7757 37.088 -3.19744e-14
4.06549e-12 -3.19744e-14 -6.9158

70.4838 1.57875 -3.65337e-12
1.57875 -5.54286 2.97029e-12
-3.65337e-12 2.97029e-12 -10.3739

-30.7595 -22.8045 1.65231e-12
-22.8045 -13.3564 -8.53762e-13
1.65231e-12 -8.53762e-13 -14.466

32.8413 31.1837 -2.68822e-13
31.1837 69.7941 -9.80312e-12
-2.68822e-13 -9.80312e-12 -6.67929

-19.3764 23.6099 3.42807e-12
23.6099 7.68692 -1.03029e-12
3.42807e-12 -1.03029e-12 -5.5131

47.637 -5.34952 1.95873e-12
-5.34952 -17.4331 9.71667e-13
1.95873e-12 9.71667e-13 -6.82157

33.2194 11.216 1.73372e-12
11.216 -23.6367 3.30314e-12
1.73372e-12 3.30314e-12 -6.01369

6.25427 0.429904 1.21873e-12
0.429904 -77.5522 1.71524e-12
1.21873e-12 1.71524e-12 -13.4496

-58.9358 -29.0311 2.81508e-12
-29.0311 -6.28809 2.58756e-12
2.81508e-12 2.58756e-12 -14.697

-28.332 -6.31894 -2.49208e-13
-6.31894 -11.3583 -4.93235e-13
-2.49208e-13 -4.93235e-13 -51.5893

-44.6981 37.4116 5.0863e-13
37.4116 -20.8115 8.09834e-13
5.0863e-13 8.09834e-13 -14.7734

93.7902 1.66328 -4.82932e-12
1.66328 16.6553 -6.1291e-12
-4.82932e-12 -6.1291e-12 -6.04301

10.0365 -32.7868 8.65086e-13
-32.7868 21.3109 -5.29591e-12
8.65086e-13 -5.29591e-12 -6.80801

-56.9361 36.613 2.31844e-12
36.613 -14.5712 -1.87983e-12
2.31844e-12 -1.87983e-12 -13.5049

-35.079 -11.1338 -5.77927e-13
-11.1338 19.1771 1.48089e-12
-5.77927e-13 1.48089e-12 -8.31629

-5.47738 -25.5144 6.41857e-13
-25.5144 37.3502 9.59233e-14
6.41857e-13 9.59233e-14 -6.98685

-58.4523 28.8301 -8.96394e-13
28.8301 -6.27147 -1.61589e-12
-8.96394e-13 -1.61589e-12 -14.6141

28.4958 -26.1417 5.89514e-12
-26.1417 -4.91241 -6.21133e-13
5.89514e-12 -6.21133e-13 -4.69703

-21.1705 10.4834 -9.81141e-13
10.4834 -18.559 -3.33267e-12
-9.81141e-13 -3.33267e-12 -51.6848

3.43294 30.8718 -1.33049e-12
30.8718 27.1626 -1.96702e-12
-1.33049e-12 -1.96702e-12 -6.7328

6.14057 8.12672 -2.83921e-13
8.12672 -72.2978 5.93155e-13
-2.83921e-13 5.93155e-13 -14.9842

-11.5457 30.1906 3.0657e-12
30.1906 -20.6032 -4.57501e-12
3.0657e-12 -4.57501e-12 -11.5491

-30.7975 23.3319 -4.98431e-12
23.3319 -5.09968 1.41516e-13
-4.98431e-12 1.41516e-13 -8.46418

-25.8637 -32.4888 2.57305e-12
-32.4888 -24.1128 -1.92126e-12
2.57305e-12 -1.92126e-12 -21.5589

9.20545 -23.1902 5.35157e-12
-23.1902 -27.9222 8.02321e-13
5.35157e-12 8.02321e-13 -11.4256

-37.6608 10.4707 1.04646e-12
10.4707 8.92891 4.54866e-12
1.04646e-12 4.54866e-12 -25.3311

-23.0404 -23.4337 2.36226e-12
-23.4337 4.95247 2.0061e-12
2.36226e-12 2.0061e-12 -6.26281

88.8031 -9.70775 7.10543e-15
-9.70775 10.8073 7.53323e-13
7.10543e-15 7.53323e-13 -10.0308

84.0432 -14.2771 4.16378e-12
-14.2771 2.81271 2.64973e-12
4.16378e-12 2.64973e-12 -13.1967

5.88798 16.5294 -4.03677e-12
16.5294 -33.9324 -5.70743e-12
-4.03677e-12 -5.70743e-12 -22.3761

-16.4212 22.5016 -3.24274e-12
22.5016 16.228 1.76392e-12
-3.24274e-12 1.76392e-12 -5.08511

-3.91231 29.1631 -1.28667e-12
29.1631 -12.2297 1.05101e-13
-1.28667e-12 1.05101e-13 -8.39613

50.9925 0.688668 2.66335e-12
0.688668 -6.53168 6.30505e-13
2.66335e-12 6.30505e-13 -3.63424

-48.141 6.57118 -7.11089e-13
6.57118 14.7861 6.41265e-13
-7.11089e-13 6.41265e-13 -18.9524

10.1157 16.5408 -5.73467e-12
16.5408 -36.0796 -4.0418e-12
-5.73467e-12 -4.0418e-12 -9.13534

-4.50357 -25.7609 2.41229e-12
-25.7609 35.5554 3.5835e-12
2.41229e-12 3.5835e-12 -6.74681

-39.1911 -2.5724 -1.36267e-12
-2.5724 21.5042 -5.68316e-12
-1.36267e-12 -5.68316e-12 -10.6693

-7.99051 13.3651 -5.71691e-13
13.3651 44.4052 -8.25414e-13
-5.71691e-13 -8.25414e-13 -3.94412

3.73469 -29.7132 4.6659e-13
-29.7132 -17.3646 1.03562e-12
4.6659e-13 1.03562e-12 -8.9204

21.4259 -29.9473 7.50748e-12
-29.9473 14.7561 -1.93327e-12
7.50748e-12 -1.93327e-12 -3.91769

6.88099 31.6226 -2.43894e-12
31.6226 25.4016 1.01726e-12
-2.43894e-12 1.01726e-12 -6.82796

2.78556 -15.0201 -9.47982e-13
-15.0201 -39.2673 5.88714e-13
-9.47982e-13 5.88714e-13 -63.3116

-46.1597 2.0413 3.4015e-12
2.0413 11.4614 4.22358e-12
3.4015e-12 4.22358e-12 -22.7568

-55.4448 20.3001 1.24656e-12
20.3001 3.09577 -1.15611e-12
1.24656e-12 -1.15611e-12 -22.9159

5.9168 15.439 -2.93765e-12
15.439 -58.8186 -8.89067e-13
-2.93765e-12 -8.89067e-13 -23.036

-18.9214 -26.1886 -4.06638e-12
-26.1886 -12.9134 3.07043e-12
-4.06638e-12 3.07043e-12 -9.65248

41.3459 17.9572 -1.44951e-12
17.9572 -6.27087 -3.64568e-12
-1.44951e-12 -3.64568e-12 -3.86123

-44.6827 -5.29406 1.39733e-12
-5.29406 4.53833 4.79735e-12
1.39733e-12 4.79735e-12 -39.1451

7.49927 -18.9881 -3.6738e-12
-18.9881 -39.8943 -5.56592e-13
-3.6738e-12 -5.56592e-13 -11.6598

30.2909 -15.5988 1.27602e-12
-15.5988 -20.5083 -1.47082e-12
1.27602e-12 -1.47082e-12 -4.80482

-9.63823 11.6031 3.39136e-12
11.6031 44.319 8.06111e-12
3.39136e-12 8.06111e-12 -3.85888

8.334 -25.734 6.43041e-13
-25.734 32.9917 -1.69938e-12
6.43041e-13 -1.69938e-12 -3.63284

-10.2447 -25.2738 -9.15416e-13
-25.2738 -19.1002 -1.32117e-12
-9.15416e-13 -1.32117e-12 -23.1748

17.005 31.9593 1.32635e-12
31.9593 11.1973 4.92051e-13
1.32635e-12 4.92051e-13 -5.74613

-1.06927 -25.1347 -4.21085e-12
-25.1347 -30.7628 2.62634e-12
-4.21085e-12 2.62634e-12 -20.8916

48.0648 2.59735 1.75267e-13
2.59735 -8.40954 2.59052e-15
1.75267e-13 2.59052e-15 -3.5314

6.55261 -28.9303 5.54815e-13
-28.9303 72.05 1.63662e-12
5.54815e-13 1.63662e-12 -14.5514

21.7915 -29.2307 -5.75184e-12
-29.2307 13.9636 -3.46449e-12
-5.75184e-12 -3.46449e-12 -3.93007

35.3511 32.1587 9.59233e-14
32.1587 74.1339 2.76638e-12
9.59233e-14 2.76638e-12 -5.4416

-45.2832 -11.8769 -1.40863e-12
-11.8769 13.9221 3.03106e-12
-1.40863e-12 3.03106e-12 -15.3262

-14.4203 -13.8212 -7.03955e-12
-13.8212 43.3821 6.59621e-13
-7.03955e-12 6.59621e-13 -5.67244

-19.2435 -23.988 -7.11179e-12
-23.988 -19.8304 -2.27522e-13
-7.11179e-12 -2.27522e-13 -64.2534

2.43837 23.7706 -2.34657e-12
23.7706 36.0066 5.95198e-12
-2.34657e-12 5.95198e-12 -3.71085

-15.1823 -32.7263 -4.67922e-12
-32.7263 -21.1189 -2.29624e-12
-4.67922e-12 -2.29624e-12 -14.3128

-14.5649 -11.963 1.22347e-12
-11.963 45.5303 2.29505e-12
1.22347e-12 2.29505e-12 -5.73864

7.8356 -19.1169 -1.08654e-13
-19.1169 -43.1218 -7.53767e-13
-1.08654e-13 -7.53767e-13 -12.6319

6.54575 23.8769 -3.81147e-12
23.8769 35.1712 -1.58096e-12
-3.81147e-12 -1.58096e-12 -3.44182

23.1733 -4.97547 1.1422e-12
-4.97547 -30.676 2.12349e-13
1.1422e-12 2.12349e-13 -5.36403

36.9701 -30.3425 2.76164e-12
-30.3425 122.626 -5.23433e-12
2.76164e-12 -5.23433e-12 -6.24183

-26.869 21.0139 -4.56257e-12
21.0139 8.43427 2.99731e-12
-4.56257e-12 2.99731e-12 -7.12968

40.3382 -19.3231 1.48503e-12
-19.3231 -11.3721 -1.71655e-12
1.48503e-12 -1.71655e-12 -5.72566

6.52851 -21.4459 -6.03665e-13
-21.4459 -45.5582 1.91402e-12
-6.03665e-13 1.91402e-12 -24.9718

20.7051 31.7538 3.61429e-12
31.7538 9.55757 1.7284e-12
3.61429e-12 1.7284e-12 -5.8057

13.9189 -29.9716 7.81597e-13
-29.9716 -7.6055 4.11345e-12
7.81597e-13 4.11345e-12 -5.94393

6.75486 20.8852 2.28558e-12
20.8852 -27.792 3.93433e-12
2.28558e-12 3.93433e-12 -11.1086

-38.2741 -28.0758 -2.38535e-12
-28.0758 -14.0378 -1.36313e-12
-2.38535e-12 -1.36313e-12 -11.0607

8.64643 -26.225 4.10812e-12
-26.225 31.1707 -1.68517e-12
4.10812e-12 -1.68517e-12 -3.63486

15.3314 28.9809 2.2311e-12
28.9809 19.1538 -2.45137e-13
2.2311e-12 -2.45137e-13 -3.88263

28.6402 26.1911 1.04189e-11
26.1911 -5.63303 7.41925e-13
1.04189e-11 7.41925e-13 -4.80162

7.91478 -14.61 1.04095e-12
-14.61 -36.8775 3.94055e-13
1.04095e-12 3.94055e-13 -13.9911

-6.84116 -16.6174 3.34547e-12
-16.6174 41.3407 1.75267e-12
3.34547e-12 1.75267e-12 -3.95907

17.4406 -17.5682 9.81141e-13
-17.5682 -30.9989 -4.48175e-12
9.81141e-13 -4.48175e-12 -7.10487

19.8419 16.9084 3.89733e-12
16.9084 -31.6641 -2.59496e-12
3.89733e-12 -2.59496e-12 -7.33411

-33.6795 -9.38681 -1.19952e-12
-9.38681 8.75601 -2.49874e-13
-1.19952e-12 -2.49874e-13 -23.9927

43.4313 -13.4299 -6.4541e-13
-13.4299 -8.3685 -7.10395e-13
-6.4541e-13 -7.10395e-13 -3.80381

-19.3781 0.594023 -3.94026e-12
0.594023 43.1451 -2.00136e-12
-3.94026e-12 -2.00136e-12 -4.77508

28.0558 18.5549 -7.13444e-12
18.5549 -18.1986 9.56272e-14
-7.13444e-12 9.56272e-14 -4.74932

25.5283 27.6038 1.14042e-12
27.6038 -3.77535 6.83305e-13
1.14042e-12 6.83305e-13 -4.77077

-6.71496 -15.686 1.27187e-12
-15.686 43.7983 3.29218e-12
1.27187e-12 3.29218e-12 -3.84761

-19.9062 -1.20229 6.35847e-12
-1.20229 42.1276 1.73846e-12
6.35847e-12 1.73846e-12 -4.68664

-5.47321 29.1343 -2.30334e-12
29.1343 -23.6465 -3.91864e-12
-2.30334e-12 -3.91864e-12 -16.7968

-37.2735 -10.922 -4.14291e-12
-10.922 21.6799 -1.01134e-12
-4.14291e-12 -1.01134e-12 -7.82966

27.1432 -26.7151 -7.2274e-12
-26.7151 -5.53047 -1.81188e-12
-7.2274e-12 -1.81188e-12 -4.94382

40.7188 21.3324 4.79498e-12
21.3324 -8.3698 -3.57166e-12
4.79498e-12 -3.57166e-12 -5.46717

12.378 23.6653 -5.86198e-14
23.6653 -27.1268 -5.34447e-12
-5.86198e-14 -5.34447e-12 -8.66664

-37.7963 5.47075 -1.65497e-12
5.47075 23.3113 -4.22181e-13
-1.65497e-12 -4.22181e-13 -8.59708

18.593 29.0653 1.06345e-12
29.0653 17.3778 1.30858e-13
1.06345e-12 1.30858e-13 -3.94672

-9.98907 22.9638 -3.58528e-12
22.9638 -14.9129 -7.53175e-13
-3.58528e-12 -7.53175e-13 -24.026

68.3162 -59.6914 -2.75217e-12
-59.6914 36.335 3.47692e-12
-2.75217e-12 3.47692e-12 -23.0107

17.5309 -25.0476 3.27442e-13
-25.0476 -17.9918 6.46594e-12
3.27442e-13 6.46594e-12 -6.41729

10.0585 7.06986 -2.9227e-12
7.06986 82.5501 -1.58925e-12
-2.9227e-12 -1.58925e-12 -7.16509

11.9204 -28.8891 -2.58105e-12
-28.8891 -3.88134 -1.77932e-12
-2.58105e-12 -1.77932e-12 -5.1654

-66.9448 -52.7011 -2.69059e-12
-52.7011 143.25 -1.00897e-12
-2.69059e-12 -1.00897e-12 -49.6692

-68.3881 51.4517 9.35548e-13
51.4517 142.537 -6.44699e-12
9.35548e-13 -6.44699e-12 -49.8583

19.5695 117.154 -4.7559e-12
117.154 64.1289 -2.79006e-12
-4.7559e-12 -2.79006e-12 -48.3598

20.5283 -117.097 8.69231e-13
-117.097 61.0257 4.358e-13
8.69231e-13 4.358e-13 -48.7246

157.743 -1.36336 5.68434e-13
-1.36336 -79.1871 -1.24634e-14
5.68434e-13 -1.24634e-14 -48.9115

110.325 -91.1256 -4.55695e-12
-91.1256 -36.69 1.84978e-12
-4.55695e-12 1.84978e-12 -50.3061

110.379 91.6535 4.23957e-12
91.6535 -36.5002 1.8782e-12
4.23957e-12 1.8782e-12 -50.1789

7.84702 14.3303 7.56728e-13
14.3303 -42.6815 1.40717e-12
7.56728e-13 1.40717e-12 -15.0789

-11.791 25.5365 3.23948e-12
25.5365 -27.4047 3.87246e-13
3.23948e-12 3.87246e-13 -35.138

12.4381 6.60602 -4.64813e-12
6.60602 -40.5334 -1.063e-12
-4.64813e-12 -1.063e-12 -8.25212

26.2547 21.7845 -1.48444e-12
21.7845 -19.5283 -1.96406e-12
-1.48444e-12 -1.96406e-12 -5.85048

-21.2297 17.7443 -3.43177e-12
17.7443 29.8683 4.36273e-12
-3.43177e-12 4.36273e-12 -6.16196

22.5303 28.8984 1.1949e-12
28.8984 -0.775253 1.45898e-12
1.1949e-12 1.45898e-12 -4.7304

4.05558 -29.6634 -4.95367e-12
-29.6634 -17.4661 -4.0048e-12
-4.95367e-12 -4.0048e-12 -8.50411

25.9952 28.0277 6.3635e-12
28.0277 -2.30144 8.17716e-13
6.3635e-12 8.17716e-13 -4.73081

-19.3467 -2.84124 -2.70524e-12
-2.84124 43.0711 -1.36069e-12
-2.70524e-12 -1.36069e-12 -4.76962

-13.4116 -26.0974 -4.97084e-13
-26.0974 -25.8384 -3.11262e-12
-4.97084e-13 -3.11262e-12 -35.5211

-19.8418 -4.86237 -4.78935e-12
-4.86237 41.7762 -7.67386e-13
-4.78935e-12 -7.67386e-13 -4.74349

-1.82687 23.0162 -4.3426e-12
23.0162 -24.3771 2.19247e-12
-4.3426e-12 2.19247e-12 -16.1498

44.9824 26.8706 5.7554e-13
26.8706 8.11155 -3.86002e-12
5.7554e-13 -3.86002e-12 -5.36882

-52.5088 -13.2161 1.59206e-12
-13.2161 0.150406 -1.16914e-12
1.59206e-12 -1.16914e-12 -20.6173

20.2805 13.7279 2.12571e-13
13.7279 -31.1412 -1.25233e-13
2.12571e-13 -1.25233e-13 -7.04263

13.7008 -29.9875 -3.0879e-12
-29.9875 -6.69123 -6.48962e-12
-3.0879e-12 -6.48962e-12 -5.83486

29.6308 -24.7134 -1.47911e-12
-24.7134 -7.87347 3.72798e-12
-1.47911e-12 3.72798e-12 -4.82478

5.76481 -16.0747 -1.99041e-12
-16.0747 -32.3342 2.60147e-12
-1.99041e-12 2.60147e-12 -22.2555

12.6277 27.9288 -5.74296e-12
27.9288 -13.6385 -3.93167e-13
-5.74296e-12 -3.93167e-13 -6.41927

23.309 23.9774 -1.43293e-12
23.9774 -17.943 7.66794e-14
-1.43293e-12 7.66794e-14 -5.96201

-31.0766 -2.79294 2.98817e-12
-2.79294 30.1317 1.40155e-12
2.98817e-12 1.40155e-12 -6.39814

-28.629 5.87334 6.95406e-12
5.87334 33.3214 -2.51295e-12
6.95406e-12 -2.51295e-12 -6.05896

34.5485 2.6467 -1.04035e-12
2.6467 -26.1831 3.48606e-12
-1.04035e-12 3.48606e-12 -6.14171

50.6512 -7.28963 2.92507e-13
-7.28963 -14.0815 -7.09151e-12
2.92507e-13 -7.09151e-12 -6.77836

11.0412 30.4846 1.32043e-12
30.4846 -4.7874 -4.47464e-12
1.32043e-12 -4.47464e-12 -5.96581

17.4675 -26.1553 1.91965e-12
-26.1553 -17.4547 -1.84652e-12
1.91965e-12 -1.84652e-12 -6.3514

-0.0844347 -21.2543 1.47822e-12
-21.2543 -27.9558 -1.16381e-12
1.47822e-12 -1.16381e-12 -17.1664

4.93912 -31.6335 -6.03073e-12
-31.6335 4.86155 -2.74743e-12
-6.03073e-12 -2.74743e-12 -5.93466

-8.22692 -27.7854 -5.01702e-12
-27.7854 18.5788 -2.4715e-12
-5.01702e-12 -2.4715e-12 -6.12927

-1.6501 29.8871 2.65092e-12
29.8871 10.4474 2.72967e-12
2.65092e-12 2.72967e-12 -5.7997

-26.0162 -9.57789 -6.73831e-13
-9.57789 32.9697 -6.50147e-13
-6.73831e-13 -6.50147e-13 -5.78663

-31.3225 -1.54479 3.75611e-12
-1.54479 31.6508 1.49806e-12
3.75611e-12 1.49806e-12 -6.22297

-38.9151 5.74793 1.30893e-12
5.74793 23.9465 -1.51286e-12
1.30893e-12 -1.51286e-12 -9.18249

-17.2178 -21.089 1.98982e-12
-21.089 26.571 2.17841e-12
1.98982e-12 2.17841e-12 -5.77135

13.0719 24.1111 -1.51168e-12
24.1111 -28.1009 -1.48918e-13
-1.51168e-12 -1.48918e-13 -9.20437

21.555 -9.58974 -2.63197e-12
-9.58974 -31.7061 -1.44877e-12
-2.63197e-12 -1.44877e-12 -6.59746

-27.1531 7.46526 7.7229e-13
7.46526 34.3346 3.2833e-12
7.7229e-13 3.2833e-12 -5.87336

-35.2354 -9.70109 3.67868e-12
-9.70109 22.3136 -1.22746e-12
3.67868e-12 -1.22746e-12 -8.18293

-29.1553 -16.3306 -4.06504e-12
-16.3306 19.3468 2.94934e-12
-4.06504e-12 2.94934e-12 -6.66113

36.9678 -8.23919 -7.08174e-13
-8.23919 -20.2364 -2.11386e-12
-7.08174e-13 -2.11386e-12 -5.10088

-14.8096 -32.3468 1.10489e-12
-32.3468 -21.6274 -1.68014e-12
1.10489e-12 -1.68014e-12 -12.9927

-22.8238 9.32086 4.34023e-13
9.32086 33.3233 2.65447e-12
4.34023e-13 2.65447e-12 -4.78821

-0.751001 -18.2126 2.72316e-12
-18.2126 -35.1575 -1.03088e-12
2.72316e-12 -1.03088e-12 -33.2777

4.93222 24.8227 -3.47219e-12
24.8227 75.3066 4.01457e-12
-3.47219e-12 4.01457e-12 -14.3188

-14.1418 -26.6262 1.00897e-12
-26.6262 -16.35 3.28596e-12
1.00897e-12 3.28596e-12 -14.6404

-6.35704 -30.2028 -1.57563e-12
-30.2028 -23.6022 -1.56912e-13
-1.57563e-12 -1.56912e-13 -17.0876

-31.2703 -0.701278 2.94209e-12
-0.701278 31.5004 3.37981e-12
2.94209e-12 3.37981e-12 -6.34784

28.4877 -16.6226 -2.46795e-12
-16.6226 -18.0566 1.83527e-12
-2.46795e-12 1.83527e-12 -4.43741

-37.8047 12.8416 1.9324e-12
12.8416 11.1651 2.4715e-12
1.9324e-12 2.4715e-12 -10.9886

-8.86114 -3.18055 -4.82577e-12
-3.18055 111.051 -6.44225e-12
-4.82577e-12 -6.44225e-12 -22.6716

-31.6022 14.2737 1.28024e-12
14.2737 21.3504 2.6071e-12
1.28024e-12 2.6071e-12 -7.12384

12.422 -29.4892 1.87998e-12
-29.4892 -2.51941 1.71714e-12
1.87998e-12 1.71714e-12 -4.92763

33.632 25.1057 -3.83871e-12
25.1057 124.03 4.63748e-12
-3.83871e-12 4.63748e-12 -6.21418

-13.5026 26.0979 -7.30764e-12
26.0979 -19.0973 7.99464e-12
-7.30764e-12 7.99464e-12 -58.8954

-9.55273 -27.8072 4.17325e-12
-27.8072 -22.8068 1.54287e-11
4.17325e-12 1.54287e-11 -59.5458

-2.86571 -30.4191 1.05871e-12
-30.4191 -7.32107 -5.53602e-12
1.05871e-12 -5.53602e-12 -7.28679

3.86039 -31.1602 5.44098e-12
-31.1602 5.63575 3.40468e-13
5.44098e-12 3.40468e-13 -6.06188

25.152 20.8275 3.12816e-12
20.8275 -17.0341 -3.78157e-12
3.12816e-12 -3.78157e-12 -4.97631

31.8051 15.0061 -5.3646e-13
15.0061 -23.3007 -3.45945e-12
-5.3646e-13 -3.45945e-12 -5.95417

-9.48869 3.08347 -4.41447e-12
3.08347 -9.83053 9.5628e-12
-4.41447e-12 9.5628e-12 -80.9378

-5.54897 -7 8.03846e-12
-7 -14.0417 -2.04992e-12
8.03846e-12 -2.04992e-12 -80.2905

11.7485 4.8243 1.79471e-12
4.8243 -43.2054 -6.394e-12
1.79471e-12 -6.394e-12 -7.82704

-35.0565 6.73101 2.44693e-12
6.73101 24.3753 -9.97128e-13
2.44693e-12 -9.97128e-13 -7.56353

-36.1102 6.73633 3.5724e-13
6.73633 24.4326 -2.3815e-12
3.5724e-13 -2.3815e-12 -8.3085

74.5867 58.6344 6.33094e-12
58.6344 34.1728 -7.21438e-12
6.33094e-12 -7.21438e-12 -21.8729

-6.91969 -28.1998 1.03739e-12
-28.1998 16.8753 5.41789e-12
1.03739e-12 5.41789e-12 -6.11617

8.17203 17.9745 2.0961e-13
17.9745 -44.8758 -2.13044e-12
2.0961e-13 -2.13044e-12 -12.8965

32.7031 9.53975 -2.59111e-12
9.53975 -19.08 7.87962e-13
-2.59111e-12 7.87962e-13 -4.0739

3.38794 -26.7233 4.12707e-13
-26.7233 13.4841 -1.09187e-12
4.12707e-13 -1.09187e-12 -3.82653

26.2376 -20.2377 1.2926e-12
-20.2377 -20.3228 3.3505e-12
1.2926e-12 3.3505e-12 -5.86273

65.3905 60.2323 1.66504e-12
60.2323 34.2895 -1.26015e-11
1.66504e-12 -1.26015e-11 -23.8677

-13.2424 31.0691 -8.8433e-13
31.0691 -16.8813 -4.63629e-13
-8.8433e-13 -4.63629e-13 -12.7856

-18.604 -19.7861 2.95053e-12
-19.7861 28.4148 -8.31927e-13
2.95053e-12 -8.31927e-13 -5.96901

11.1745 28.8577 1.84386e-12
28.8577 -13.323 -3.28922e-12
1.84386e-12 -3.28922e-12 -6.4357

-31.8689 -4.14484 2.10942e-13
-4.14484 30.1479 7.4607e-14
2.10942e-13 7.4607e-14 -6.35741

-14.5961 19.6092 -3.11751e-12
19.6092 27.1853 1.3145e-13
-3.11751e-12 1.3145e-13 -4.41824

7.47938 30.5188 6.22909e-13
30.5188 -1.67019 -3.27915e-12
6.22909e-13 -3.27915e-12 -5.66001

-9.34469 -22.4732 5.77316e-13
-22.4732 23.1493 -9.43245e-13
5.77316e-13 -9.43245e-13 -4.17499

4.59069 -27.3526 -2.40104e-12
-27.3526 11.4492 4.36865e-12
-2.40104e-12 4.36865e-12 -3.93804

24.2719 11.257 8.95861e-12
11.257 102.079 6.22199e-12
8.95861e-12 6.22199e-12 -12.405

37.4667 -33.4563 -5.1917e-12
-33.4563 69.2857 3.12165e-12
-5.1917e-12 3.12165e-12 -5.70299

-25.335 -11.6905 -1.35899e-12
-11.6905 31.3682 -1.50576e-12
-1.35899e-12 -1.50576e-12 -5.64792

16.0966 26.4846 -3.65574e-12
26.4846 -15.5018 -2.82855e-12
-3.65574e-12 -2.82855e-12 -6.21701

4.95592 29.478 -4.73399e-12
29.478 1.63706 2.30334e-12
-4.73399e-12 2.30334e-12 -4.9895

-9.85447 -21.4339 -5.13367e-13
-21.4339 25.121 -1.30029e-12
-5.13367e-13 -1.30029e-12 -4.03278

-21.6345 -11.7824 1.10519e-12
-11.7824 32.0822 -1.23753e-12
1.10519e-12 -1.23753e-12 -4.63675

10.4631 28.4096 2.84039e-12
28.4096 -0.156313 -1.52589e-12
2.84039e-12 -1.52589e-12 -4.67244

-21.8466 -13.8778 3.41978e-12
-13.8778 29.4674 -2.01794e-12
3.41978e-12 -2.01794e-12 -4.84669

6.9587 27.855 -1.18246e-12
27.855 73.085 -6.20304e-12
-1.18246e-12 -6.20304e-12 -14.322

-45.8316 -4.04125 -1.19289e-12
-4.04125 14.0479 -2.31637e-12
-1.19289e-12 -2.31637e-12 -19.9649

0.877296 31.0276 4.51787e-13
31.0276 7.52049 3.90799e-14
4.51787e-13 3.90799e-14 -6.08862

9.71925 14.9012 -5.004e-12
14.9012 -36.429 -4.07141e-12
-5.004e-12 -4.07141e-12 -10.9851

9.92875 -15.9275 4.65702e-13
-15.9275 -39.4104 2.07064e-12
4.65702e-13 2.07064e-12 -13.0689

85.6134 -24.2046 -2.75217e-12
-24.2046 7.6359 5.65237e-12
-2.75217e-12 5.65237e-12 -12.9578

-23.2068 -21.2673 -6.0485e-13
-21.2673 10.5139 -2.0061e-12
-6.0485e-13 -2.0061e-12 -6.16485

-16.6007 26.6983 -4.91222e-12
26.6983 1.77864 -2.62901e-12
-4.91222e-12 -2.62901e-12 -6.5873

-26.2013 -21.7278 -3.30402e-12
-21.7278 -5.36498 -3.80903e-12
-3.30402e-12 -3.80903e-12 -23.8671

-41.5968 14.1066 4.76078e-12
14.1066 -3.56008 -1.10933e-12
4.76078e-12 -1.10933e-12 -64.1278

-0.893426 9.44533 -5.57125e-12
9.44533 -44.2594 6.7768e-13
-5.57125e-12 6.7768e-13 -64.2292

-20.3841 32.7055 -2.95319e-12
32.7055 -23.2025 1.20851e-12
-2.95319e-12 1.20851e-12 -24.3295

-11.4103 26.0004 -3.90887e-12
26.0004 22.6042 5.17216e-12
-3.90887e-12 5.17216e-12 -5.92525

16.0388 26.6615 -6.67792e-12
26.6615 -17.287 -4.71564e-12
-6.67792e-12 -4.71564e-12 -6.54948

30.4284 45.1861 -4.67063e-12
45.1861 47.5549 1.70412e-12
-4.67063e-12 1.70412e-12 -15.1949

-44.8886 -11.3436 -6.26195e-12
-11.3436 -1.80805 -1.91965e-12
-6.26195e-12 -1.91965e-12 -61.6839

-8.29817 -3.43289 6.83655e-12
-3.43289 -12.755 -2.39808e-14
6.83655e-12 -2.39808e-14 -77.2279

-14.6913 -0.209998 -1.22865e-14
-0.209998 -6.41857 3.5203e-12
-1.22865e-14 3.5203e-12 -77.3721

27.6651 -53.8026 4.09746e-12
-53.8026 71.1489 -7.28543e-12
4.09746e-12 -7.28543e-12 -24.3895

-11.6911 -11.6 2.89102e-13
-11.6 -16.2046 -3.18501e-12
2.89102e-13 -3.18501e-12 -37.4311

-32.6103 8.81297 4.66841e-12
8.81297 -9.41939 4.10783e-12
4.66841e-12 4.10783e-12 -49.5414

18.2563 -26.1995 6.2587e-12
-26.1995 -19.5462 -2.29091e-12
6.2587e-12 -2.29091e-12 -6.50623

-39.43 1.01103 -5.49446e-12
1.01103 11.9802 -1.46905e-12
-5.49446e-12 -1.46905e-12 -19.7219

-30.2023 -20.2679 1.96258e-12
-20.2679 6.30514 2.95645e-12
1.96258e-12 2.95645e-12 -7.21573

10.5366 6.25533 5.14107e-12
6.25533 -52.3899 -2.60332e-12
5.14107e-12 -2.60332e-12 -9.63942

-49.8127 15.5963 2.47396e-12
15.5963 10.1653 2.32466e-12
2.47396e-12 2.32466e-12 -13.5309

-40.2835 7.19159 1.48515e-12
7.19159 16.5414 -4.718e-12
1.48515e-12 -4.718e-12 -13.7741

16.4049 20.3928 4.83761e-13
20.3928 -25.8407 -1.3974e-13
4.83761e-13 -1.3974e-13 -7.60735

-9.10017 -3.1139 -1.65764e-12
-3.1139 108.395 1.89241e-12
-1.65764e-12 1.89241e-12 -23.1019

-3.32001 -27.6238 -4.54925e-12
-27.6238 -3.62938 1.69405e-12
-4.54925e-12 1.69405e-12 -5.82966

-7.33494 -26.1163 -5.57776e-12
-26.1163 -14.0818 -5.27696e-12
-5.57776e-12 -5.27696e-12 -9.81047

-14.1983 -31.4837 -1.5404e-12
-31.4837 -21.7779 1.26802e-12
-1.5404e-12 1.26802e-12 -12.7555

90.7278 32.7496 -6.95148e-12
32.7496 20.9064 -1.83409e-12
-6.95148e-12 -1.83409e-12 -16.5059

-23.1173 -20.1165 6.00705e-13
-20.1165 -17.385 1.73232e-12
6.00705e-13 1.73232e-12 -44.4277

72.6304 54.3223 -1.30266e-13
54.3223 91.6406 1.42582e-11
-1.30266e-13 1.42582e-11 -6.14236

-36.215 -21.4395 1.6905e-13
-21.4395 -6.79682 1.47467e-12
1.6905e-13 1.47467e-12 -13.0428

15.034 14.6504 -4.11582e-12
14.6504 -37.7516 -1.68606e-12
-4.11582e-12 -1.68606e-12 -8.17849

44.5726 -14.5725 -1.01371e-12
-14.5725 -8.27172 8.20529e-13
-1.01371e-12 8.20529e-13 -4.41821

-21.2306 24.0467 -3.24777e-13
24.0467 4.95559 1.40865e-12
-3.24777e-13 1.40865e-12 -5.97604

17.3732 20.428 2.69177e-12
20.428 -26.7922 -1.88383e-12
2.69177e-12 -1.88383e-12 -6.95116

-51.1399 11.4005 4.61919e-12
11.4005 7.71047 1.92883e-12
4.61919e-12 1.92883e-12 -29.9941

-7.28692 -31.5802 -1.79205e-12
-31.5802 -12.8266 2.92655e-12
-1.79205e-12 2.92655e-12 -8.11877

2.79669 19.8124 3.77446e-12
19.8124 -46.0333 -2.80901e-12
3.77446e-12 -2.80901e-12 -29.986

-24.6708 -18.4435 3.33215e-12
-18.4435 17.8362 6.24212e-12
3.33215e-12 6.24212e-12 -5.47973

-42.3404 4.28319 8.7817e-13
4.28319 17.8694 -4.55932e-14
8.7817e-13 -4.55932e-14 -12.728

-4.09805 9.92678 -4.66086e-12
9.92678 -40.2758 2.12985e-12
-4.66086e-12 2.12985e-12 -47.5489

-2.68828 -8.5134 9.70809e-12
-8.5134 -38.3071 1.87213e-12
9.70809e-12 1.87213e-12 -47.4046

81.7225 18.5124 -2.77349e-12
18.5124 1.70022 2.01439e-12
-2.77349e-12 2.01439e-12 -14.4531

3.89496 7.96503 -1.30562e-13
7.96503 -45.183 -1.68754e-14
-1.30562e-13 -1.68754e-14 -11.018

35.8716 7.74048 9.74036e-13
7.74048 184.572 3.74693e-12
9.74036e-13 3.74693e-12 -9.7575

40.1451 -11.3851 -4.39822e-12
-11.3851 190.37 -2.20742e-12
-4.39822e-12 -2.20742e-12 -7.38933

53.7645 56.4067 -2.60532e-12
56.4067 159.254 3.43903e-12
-2.60532e-12 3.43903e-12 -11.5002

1.70898 -28.9505 1.66385e-12
-28.9505 -24.6907 3.52577e-12
1.66385e-12 3.52577e-12 -11.9626

16.0488 -49.1903 3.60956e-12
-49.1903 99.4184 9.37916e-13
3.60956e-12 9.37916e-13 -21.6893

54.5123 -55.9493 -8.06703e-12
-55.9493 149.971 -2.65743e-12
-8.06703e-12 -2.65743e-12 -13.6651

-2.16552 26.22 -3.13823e-13
26.22 17.5727 2.43953e-13
-3.13823e-13 2.43953e-13 -3.99555

134.938 73.8435 6.36173e-12
73.8435 85.0241 -1.7953e-12
6.36173e-12 -1.7953e-12 -10.1593

-18.7198 13.0473 -8.21239e-12
13.0473 -3.90018 5.15736e-13
-8.21239e-12 5.15736e-13 -26.7696

3.7411 0.0394533 -3.07591e-12
0.0394533 -26.1889 -5.00696e-12
-3.07591e-12 -5.00696e-12 -26.7728

144.096 -73.129 -3.30639e-12
-73.129 85.3516 3.50061e-12
-3.30639e-12 3.50061e-12 -8.19656

-21.3926 -23.4239 -1.33049e-12
-23.4239 12.2481 -1.21207e-12
-1.33049e-12 -1.21207e-12 -6.49073

89.3457 34.729 -7.04385e-12
34.729 41.3897 8.40809e-13
-7.04385e-12 8.40809e-13 -11.5481

72.1863 63.4905 -3.90562e-12
63.4905 149.692 -2.77585e-12
-3.90562e-12 -2.77585e-12 -9.67389

26.1643 21.6301 9.04758e-12
21.6301 100.132 1.0895e-12
9.04758e-12 1.0895e-12 -13.0315

73.8732 -65.9194 7.57912e-14
-65.9194 151.143 -8.47914e-13
7.57912e-14 -8.47914e-13 -9.40244

25.7688 -12.381 4.5528e-12
-12.381 105.011 4.99748e-12
4.5528e-12 4.99748e-12 -12.4285

-28.6639 6.84168 -3.3995e-13
6.84168 3.10681 2.42532e-12
-3.3995e-13 2.42532e-12 -37.8537

37.7426 -45.9745 -2.58401e-12
-45.9745 49.669 1.0291e-12
-2.58401e-12 1.0291e-12 -15.5324

14.4436 47.5316 3.01033e-12
47.5316 94.8789 1.15037e-11
3.01033e-12 1.15037e-11 -22.1925

173.337 37.9112 4.13062e-12
37.9112 48.041 5.36874e-12
4.13062e-12 5.36874e-12 -9.52254

7.02087 -29.2856 -3.48166e-13
-29.2856 -14.3582 3.31439e-12
-3.48166e-13 3.31439e-12 -7.15573

-38.4174 12.8967 3.99399e-12
12.8967 6.43532 4.32543e-13
3.99399e-12 4.32543e-13 -15.2904

88.504 -38.1122 2.8398e-12
-38.1122 34.1626 -8.26598e-13
2.8398e-12 -8.26598e-13 -14.0997

6.04184 -28.8021 4.43852e-12
-28.8021 -16.1717 1.89034e-12
4.43852e-12 1.89034e-12 -8.02958

169.204 -36.3431 -9.23706e-13
-36.3431 34.9284 2.7723e-12
-9.23706e-13 2.7723e-12 -13.2904

-5.72504 -28.3174 8.12979e-13
-28.3174 -14.4727 6.86088e-12
8.12979e-13 6.86088e-12 -9.30915

-17.7902 -25.2948 -3.2084e-12
-25.2948 12.0803 4.51195e-13
-3.2084e-12 4.51195e-13 -5.93389

118.874 69.46 7.29491e-12
69.46 96.2179 -1.25316e-11
7.29491e-12 -1.25316e-11 -11.4005

29.4127 -22.9326 9.33179e-13
-22.9326 97.7953 1.92794e-12
9.33179e-13 1.92794e-12 -14.3401

117.958 -71.692 -8.00545e-13
-71.692 93.6794 1.89478e-14
-8.00545e-13 1.89478e-14 -12.4165

22.2644 50.737 -4.88972e-12
50.737 73.7776 -8.83441e-13
-4.88972e-12 -8.83441e-13 -24.7775

-1.53615 -30.2121 1.76629e-12
-30.2121 -6.55235 6.65186e-12
1.76629e-12 6.65186e-12 -6.99753

-7.04508 -14.6403 -3.1406e-12
-14.6403 -21.9194 -6.23205e-12
-3.1406e-12 -6.23205e-12 -32.6144

-11.892 11.0925 2.27618e-12
11.0925 -16.4307 -3.95077e-12
2.27618e-12 -3.95077e-12 -77.7943

-26.1688 -5.16001 -5.30094e-13
-5.16001 -6.38736 -9.06812e-12
-5.30094e-13 -9.06812e-12 -77.6281

-38.941 13.0836 7.34875e-13
13.0836 13.7444 -1.95991e-12
7.34875e-13 -1.95991e-12 -10.2386

-14.4805 -10.6669 -2.60629e-12
-10.6669 -17.3181 -1.41072e-13
-2.60629e-12 -1.41072e-13 -78.7571

-25.9026 4.09176 1.19608e-13
4.09176 -5.91385 4.27436e-13
1.19608e-13 4.27436e-13 -78.8993

-3.63376 7.43399 5.14389e-12
7.43399 -27.8604 -1.91462e-12
5.14389e-12 -1.91462e-12 -77.9865

-43.9751 -12.1151 5.08045e-12
-12.1151 2.91631 2.04488e-12
5.08045e-12 2.04488e-12 -68.158

11.9737 -30.4699 3.63739e-12
-30.4699 76.1627 9.80549e-13
3.63739e-12 9.80549e-13 -14.7009

0.521828 -12.9721 -3.64597e-12
-12.9721 -39.9906 -3.06244e-12
-3.64597e-12 -3.06244e-12 -45.2771

-16.3488 -34.4177 -1.54839e-12
-34.4177 -22.0686 -3.21669e-12
-1.54839e-12 -3.21669e-12 -23.59

-2.42063 -18.1768 2.87089e-12
-18.1768 -29.8952 -2.13326e-12
2.87089e-12 -2.13326e-12 -33.6266

12.7383 15.4592 5.08689e-12
15.4592 -37.7161 -1.20615e-12
5.08689e-12 -1.20615e-12 -9.625

-46.9084 9.86418 9.35733e-13
9.86418 8.8776 -3.79119e-12
9.35733e-13 -3.79119e-12 -70.1538

3.46261 19.2275 5.70699e-12
19.2275 -41.4719 4.18743e-12
5.70699e-12 4.18743e-12 -70.2697

1.47227 11.3064 2.76697e-12
11.3064 -23.965 8.13571e-13
2.76697e-12 8.13571e-13 -31.8678

109.391 -15.3393 7.13385e-12
-15.3393 -12.5355 4.36806e-12
7.13385e-12 4.36806e-12 -25.0372

-14.3203 24.964 -1.88916e-12
24.964 10.3862 -4.04832e-12
-1.88916e-12 -4.04832e-12 -5.80439

76.6067 -61.3545 -3.50534e-13
-61.3545 37.3652 -5.24617e-12
-3.50534e-13 -5.24617e-12 -22.3953

76.114 -57.4571 -1.18424e-14
-57.4571 99.2281 4.37221e-12
-1.18424e-14 4.37221e-12 -5.55528

118.196 -36.544 5.73171e-12
-36.544 40.6008 7.87281e-12
5.73171e-12 7.87281e-12 -7.37848

-51.1142 -5.15895 1.9534e-12
-5.15895 3.34071 1.1308e-12
1.9534e-12 1.1308e-12 -60.6603

-50.4782 2.89124 1.72647e-12
2.89124 3.13497 -1.75534e-12
1.72647e-12 -1.75534e-12 -60.1329

-11.9755 -24.4562 5.76724e-12
-24.4562 -35.0033 -1.83128e-12
5.76724e-12 -1.83128e-12 -59.167

-8.9919 -21.7604 -5.50722e-12
-21.7604 -37.8881 -1.90396e-12
-5.50722e-12 -1.90396e-12 -59.4766

-14.7026 26.1359 -6.82417e-13
26.1359 -33.0277 -3.03246e-12
-6.82417e-13 -3.03246e-12 -60.7515

-18.1575 3.09939 -4.34334e-12
3.09939 -13.1645 -7.37125e-12
-4.34334e-12 -7.37125e-12 -75.4787

-9.94505 -20.5088 1.05397e-13
-20.5088 -32.6507 -1.251e-12
1.05397e-13 -1.251e-12 -56.7373

-26.6483 -18.5682 -4.69402e-13
-18.5682 -14.1959 -7.75158e-13
-4.69402e-13 -7.75158e-13 -71.2726

-15.4789 2.43447 8.67262e-12
2.43447 -12.8526 1.13924e-11
8.67262e-12 1.13924e-11 -77.8733

-6.02752 -20.5262 -7.64211e-12
-20.5262 -41.4871 1.05989e-13
-7.64211e-12 1.05989e-13 -60.5076

-6.7568 20.9557 5.18733e-12
20.9557 -40.1434 3.26406e-12
5.18733e-12 3.26406e-12 -60.0188

-14.3162 -3.45848 9.5568e-13
-3.45848 -11.3902 4.60358e-12
9.5568e-13 4.60358e-12 -76.8877

-11.2641 -3.11714 1.31766e-11
-3.11714 -17.6892 -7.11934e-12
1.31766e-11 -7.11934e-12 -74.0505

-24.204 12.1098 1.34855e-12
12.1098 -13.4006 1.43906e-11
1.34855e-12 1.43906e-11 -69.9687

-22.0825 26.9296 -1.6381e-12
26.9296 -26.2669 -5.9321e-12
-1.6381e-12 -5.9321e-12 -57.5829

VECTORS fluid_flux_TPM float
-8.72104e-05 3.10251e-05 -2.24202e-20
3.55915e-06 6.88181e-06 1.8805e-20
-1.2786e-05 -1.02244e-05 -3.01885e-20
-4.17013e-06 4.25356e-06 5.65191e-21
2.27053e-05 -6.31262e-06 -1.46256e-20
2.75729e-06 -1.59019e-05 -1.60753e-20
-8.57864e-05 -3.10898e-05 -1.58546e-20
-1.38909e-05 -1.04656e-05 -1.71482e-20
2.21195e-05 9.45421e-07 -1.46359e-20
1.13828e-05 -3.90768e-06 -4.9604e-21
5.45953e-05 1.24828e-05 9.47692e-21
2.34662e-06 -1.71923e-05 1.98906e-21
1.36101e-05 1.12526e-05 5.43695e-21
2.6618e-06 1.37831e-05 1.75253e-22
2.05788e-05 -2.94634e-06 4.04997e-21
-1.63306e-05 -2.7287e-07 7.7116e-21
2.75323e-06 1.40973e-05 1.68029e-20
1.01807e-05 -2.39164e-06 5.88561e-21
9.89758e-06 1.72209e-05 8.47649e-21
-1.48469e-05 1.88526e-06 1.85052e-21
-3.60081e-06 -2.13018e-05 8.93821e-21
3.4108e-05 5.94125e-05 6.66569e-21
1.56959e-05 1.63114e-06 -1.37015e-20
1.12262e-05 -1.12803e-05 -2.6139e-21
-1.50769e-05 -3.33207e-06 9.60911e-21
-6.77157e-07 -1.11297e-05 9.06858e-21
6.28982e-05 -4.90807e-06 3.39332e-21
1.40646e-05 1.02479e-05 5.94688e-21
-2.51474e-05 -2.0641e-05 4.65934e-21
4.91163e-05 -1.28129e-05 -1.08706e-20
-1.65809e-05 -6.03776e-06 6.50683e-21
5.53662e-06 -3.20342e-05 -6.07845e-21
4.76508e-05 -4.80438e-05 -2.70181e-21
-4.92299e-06 -4.12448e-05 -8.48222e-21
-2.96712e-05 3.70027e-05 1.40429e-20
-3.82447e-05 -1.63939e-05 -2.03902e-20
3.27003e-05 4.32125e-05 2.65757e-20
-4.47376e-05 -8.72525e-06 -2.03363e-21
1.43734e-05 -1.1081e-05 3.30569e-21
4.64667e-05 5.01117e-05 2.68331e-21
3.21272e-05 -1.4021e-05 -8.76994e-21
3.36377e-05 -4.23406e-05 -3.02345e-21
-1.98951e-05 -5.0375e-05 1.93789e-20
-1.58968e-05 6.35631e-06 -1.76593e-21
3.05233e-05 -2.93123e-05 -3.39605e-21
-3.03304e-05 1.09895e-05 -1.90366e-20
-4.04994e-06 -2.03693e-05 1.28372e-20
7.88559e-06 2.02105e-05 3.09654e-21
-1.63414e-05 5.92745e-06 2.06485e-21
-1.78187e-05 2.87239e-05 7.83801e-21
3.24066e-05 1.52899e-05 8.35279e-21
2.93633e-05 -1.00746e-05 -8.51105e-21
-1.56654e-05 1.57595e-05 5.9375e-21
-2.35399e-05 -2.06891e-05 1.10464e-20
-2.11387e-05 -5.13216e-06 5.15441e-21
-4.47891e-05 2.70746e-05 -2.50262e-20
-2.93704e-05 -3.80211e-05 -7.02342e-21
6.3631e-06 -3.06263e-05 1.45552e-20
-4.77054e-05 6.48256e-06 -1.22682e-20
6.07381e-06 1.36964e-05 -3.81861e-23
-5.57657e-06 -8.1731e-06 1.38543e-20
-6.58328e-06 -1.79429e-05 5.48243e-21
5.71418e-05 2.48587e-05 1.13899e-20
9.2425e-06 1.81436e-05 2.12215e-20
1.22961e-05 -1.44445e-05 1.59619e-21
-1.64053e-06 -2.07518e-05 -1.39395e-21
4.62093e-06 -8.80524e-06 -4.78935e-21
-1.00902e-05 -5.56471e-06 -5.51143e-22
-1.06023e-05 1.19289e-05 1.15384e-20
2.55812e-06 -4.09247e-06 -2.02344e-20
-1.5043e-05 -1.58427e-05 -8.81329e-21
-2.13643e-05 5.16577e-06 -1.51152e-20
-3.55672e-06 3.44803e-05 9.43539e-21
-1.78713e-05 1.07106e-05 2.10715e-20
-9.07055e-06 1.46142e-05 4.55657e-21
-6.03531e-05 7.6919e-06 -8.75175e-21
7.81784e-06 -2.16809e-05 1.44003e-20
-1.88796e-05 -8.89983e-06 -6.41375e-21
1.93367e-06 1.16237e-05 2.35422e-20
2.63003e-05 5.08951e-06 -4.15973e-21
3.41682e-05 -2.89744e-05 -4.67935e-21
2.21458e-05 2.05557e-05 -4.29252e-22
1.19081e-05 -2.82225e-06 8.49163e-21
-3.21529e-05 2.40665e-05 -2.61191e-20
3.79034e-05 4.84574e-06 1.41132e-20
-4.98072e-06 4.94134e-05 -4.29887e-21
-1.74107e-06 -1.68567e-05 2.6e-20
1.81235e-05 9.95442e-06 1.23312e-20
2.93167e-05 3.02851e-05 5.35146e-21
5.50235e-05 3.80125e-05 1.7711e-21
-5.33122e-06 3.07721e-05 9.2432e-21
5.91784e-05 -3.55116e-05 -1.96314e-20
-2.71242e-05 5.34106e-06 1.93683e-20
1.78389e-05 1.10016e-05 4.97523e-21
-2.96404e-05 9.90309e-06 -6.78181e-22
1.66526e-05 2.85206e-05 1.30612e-20
1.01686e-05 -4.43857e-05 -7.43935e-21
1.91543e-06 1.16206e-05 -7.19833e-21
-1.48004e-05 -1.76197e-05 -3.94023e-21
3.06983e-06 1.74743e-05 1.24097e-20
2.64063e-05 5.25736e-06 -7.68674e-21
-1.5443e-05 3.32104e-05 -6.27307e-21
4.05513e-05 -1.33329e-05 4.96007e-21
-3.77298e-06 7.45488e-06 4.19974e-21
9.95263e-06 5.89919e-06 1.22584e-20
-2.28053e-06 -1.13243e-05 -5.49726e-21
3.22059e-06 -1.92515e-05 8.59655e-21
1.7469e-05 3.892e-06 -1.67019e-20
-7.93703e-06 4.09717e-05 2.32288e-20
-9.80541e-06 2.4792e-07 -6.76935e-21
9.31831e-06 1.18855e-05 -4.73845e-21
-2.17728e-06 -4.1713e-05 1.88456e-20
4.20221e-05 1.28647e-05 1.59774e-20
4.42246e-06 -7.45303e-06 6.05387e-21
-1.11449e-05 -3.55357e-06 8.70053e-21
-2.9325e-05 -1.24857e-05 -8.28911e-21
1.58034e-05 4.11464e-05 -2.04615e-20
-4.3484e-05 -1.55735e-05 -7.67552e-21
1.60182e-05 -4.11229e-05 -2.15835e-20
-3.69972e-06 -3.19195e-05 5.45302e-21
2.18384e-05 6.52152e-07 -1.02622e-21
-7.17133e-06 1.83962e-05 -1.92449e-20
-1.61116e-06 3.96948e-06 -1.85566e-21
-3.68589e-06 -1.65384e-05 7.82923e-21
5.22987e-06 -8.30192e-06 -1.89936e-20
9.35928e-06 1.58632e-05 2.46728e-20
3.31004e-05 1.06522e-05 -2.20489e-20
8.61528e-06 -7.45787e-06 -2.73073e-20
-8.27074e-06 -4.51589e-05 3.80532e-21
2.55515e-05 -1.88194e-05 -6.63634e-22
4.97781e-06 2.77706e-05 2.22678e-20
-2.81627e-06 -2.84155e-06 2.40473e-20
-8.62606e-06 -8.32566e-06 1.58831e-20
-4.77656e-06 4.41242e-08 4.27735e-21
-2.28721e-05 2.85934e-05 7.72918e-21
1.87627e-05 -3.73742e-05 7.91382e-21
-2.65794e-05 4.27134e-05 -2.25949e-21
-1.63714e-05 9.53503e-06 2.43714e-21
2.5279e-06 1.21986e-05 -3.26527e-20
-2.29862e-05 -3.49885e-05 -9.9638e-21
1.39358e-05 3.34652e-05 6.22518e-21
1.75073e-05 9.36897e-06 9.56272e-21
2.28109e-05 -8.52244e-06 -1.74291e-21
-1.25316e-06 -1.12651e-05 7.90562e-21
-3.39108e-05 -3.15571e-05 -3.00224e-21
-2.75141e-06 1.1303e-05 3.05834e-21
1.72462e-05 1.01715e-05 6.82605e-21
1.88869e-05 -8.8206e-06 -5.9099e-21
8.24295e-06 -1.43445e-05 -4.49927e-21
2.43563e-05 -1.0795e-05 -2.0397e-21
1.9009e-05 -8.99762e-06 -8.2379e-21
4.6405e-06 2.05796e-07 -3.42106e-20
2.57399e-05 2.02206e-05 -6.14211e-22
-2.74155e-06 -1.70294e-05 1.16828e-20
-1.04795e-05 -4.45687e-06 -1.92867e-20
1.12582e-06 -3.88996e-06 1.04974e-20
-3.15497e-06 1.58465e-05 1.88335e-20
-3.48824e-05 2.76802e-06 2.40804e-21
-1.21211e-05 -3.32572e-05 4.22279e-21
-7.87884e-06 9.77872e-06 3.70285e-20
1.35648e-05 1.66398e-05 1.53926e-20
2.65677e-05 -1.87441e-05 -4.20762e-21
-3.67912e-05 -2.03501e-05 2.11306e-20
1.74025e-05 -2.75068e-05 -2.16066e-21
2.28032e-05 -2.72157e-05 1.76157e-20
-1.0944e-05 3.78481e-06 2.22583e-20
-1.98283e-05 -2.88393e-05 -5.38571e-21
-3.48787e-05 -5.79123e-06 5.35813e-21
-3.85233e-06 -3.17417e-05 5.28052e-21
1.54472e-05 -3.16982e-05 2.68452e-21
-9.10588e-06 -2.61987e-05 1.28057e-21
4.58106e-06 3.14045e-05 2.27325e-20
-1.57519e-05 -2.85211e-05 -2.67148e-21
2.93872e-06 -1.62917e-05 7.20652e-22
-2.47386e-05 1.82593e-05 -2.57393e-20
-1.50303e-05 -1.21108e-05 6.37101e-21
-2.7352e-05 -5.17228e-06 -8.05872e-21
1.56676e-05 -9.18131e-06 -1.62906e-20
-4.3068e-06 2.39518e-05 -2.37244e-20
1.22322e-05 -9.32422e-06 -1.25189e-20
-2.9585e-05 -1.31638e-05 1.16588e-20
-8.83141e-06 -7.45787e-06 -4.59287e-22
9.08183e-06 7.54063e-06 1.0759e-20
2.14262e-05 2.86999e-05 -3.90294e-21
-1.75084e-05 -1.0809e-05 -1.06223e-20
-3.25052e-05 -7.51049e-07 -4.37011e-21
-1.63363e-05 -5.01601e-06 4.52928e-21
-4.578e-06 -1.65828e-05 -1.80898e-21
1.76842e-05 2.12386e-05 -4.93036e-21
-1.0957e-05 5.87459e-06 1.92655e-20
6.36025e-07 -2.05548e-05 -1.07748e-20
-4.19385e-05 1.08506e-05 -1.59231e-20
2.48599e-05 2.02458e-05 -1.53158e-21
3.79438e-06 3.27845e-05 1.41617e-20
-2.4319e-06 3.7971e-06 1.3168e-20
-9.05066e-06 2.51195e-07 2.48125e-20
4.35497e-06 7.75989e-06 -1.19362e-20
-1.16936e-05 3.40137e-06 -1.1017e-20
-2.07333e-06 -3.78483e-06 -5.86231e-21
1.65974e-06 2.07594e-05 1.86092e-20
4.47228e-06 4.49688e-07 -2.1227e-23
-1.95376e-05 4.75652e-06 -2.62934e-21
-1.7298e-05 1.93575e-05 4.41287e-21
-3.10736e-06 1.15779e-05 -2.72605e-21
-2.92162e-05 1.83938e-05 -5.69373e-21
-9.34315e-06 8.97911e-06 2.38348e-20
1.73108e-05 -1.16135e-05 -1.86616e-20
3.66033e-05 -3.56461e-06 8.28184e-21
-2.11402e-05 1.12971e-05 2.12161e-20
2.23295e-06 4.49814e-06 -5.30965e-21
2.17748e-05 -4.34479e-06 -2.32439e-20
-1.72785e-05 1.03526e-05 -6.57715e-21
-9.87155e-06 5.5389e-06 4.72035e-22
1.18311e-05 3.74261e-06 -3.26554e-20
2.18794e-05 -1.34708e-05 -1.08584e-20
-1.73796e-05 9.95588e-06 9.67913e-21
-2.50363e-05 -5.30291e-06 1.32155e-20
-1.67613e-05 -4.36237e-06 -1.60798e-21
9.87599e-06 6.23858e-09 -2.3414e-20
1.01736e-05 1.95355e-07 -1.0411e-20
4.39067e-06 8.31698e-06 3.61839e-20
4.82944e-06 -8.79756e-06 -1.32486e-20
-5.01024e-06 8.41964e-06 1.7093e-20
-5.26655e-06 -8.6574e-06 7.03161e-21
9.91078e-06 -7.40784e-06 -2.604e-20
-2.0327e-05 3.23484e-06 -4.49563e-21
-2.00594e-05 -3.28366e-06 1.75026e-20
-1.28345e-05 1.58761e-05 1.02197e-20
-1.29143e-05 -1.59304e-05 -5.88443e-22
7.48609e-06 -1.98433e-05 -2.60643e-20
7.20584e-06 1.97634e-05 -1.86358e-20
1.55775e-06 2.58844e-05 2.49423e-20
1.12402e-05 -3.13676e-06 -3.42009e-20
2.35984e-06 -3.86643e-06 -8.44224e-21
-2.14108e-05 1.42165e-06 -4.7527e-21
7.67699e-06 -1.95126e-05 -2.53218e-20
7.27325e-06 1.96611e-05 -3.49421e-20
4.76868e-06 -5.27128e-08 -1.29482e-20
8.96795e-06 2.44025e-05 2.41264e-20
-2.24223e-06 -4.01622e-06 -1.92267e-20
2.31769e-06 -1.13167e-05 -2.93191e-21
-2.24298e-05 -1.21512e-05 -2.18581e-21
-2.13574e-05 -1.14942e-05 -1.23333e-20
-2.18919e-05 1.36281e-05 -5.89411e-21
3.25115e-06 -1.22872e-05 -1.81784e-20
-1.56528e-06 3.38185e-06 6.15213e-21
-5.87334e-07 -2.5568e-05 -2.18733e-21
-7.71993e-06 -2.44218e-05 2.27564e-20
3.27026e-05 3.03612e-05 1.09958e-21
3.54516e-05 -1.81512e-06 1.42772e-20
-1.27105e-05 -3.63202e-06 3.11771e-20
-2.28915e-05 -4.1384e-05 5.3072e-21
8.30385e-06 1.37473e-05 -7.77222e-21
-2.52345e-05 3.03315e-06 -7.81252e-22
2.00642e-05 5.78612e-06 -1.15233e-20
-4.53291e-06 -3.27407e-08 1.44243e-20
-4.66497e-06 -8.41234e-06 5.51455e-21
-7.07255e-06 -3.93308e-05 -1.80731e-20
-9.70786e-06 -8.39112e-08 2.35893e-21
-4.86716e-05 -1.81562e-06 -1.77879e-20
1.73078e-05 -1.91043e-05 5.40845e-21
2.42923e-06 3.99887e-06 -1.73207e-20
-1.20633e-07 -1.75127e-05 8.80633e-21
-9.81791e-06 2.40825e-05 9.665e-22
-4.37182e-06 8.62695e-06 1.07912e-20
2.05551e-05 -1.36053e-05 -9.83103e-21
-3.76568e-05 -1.35506e-05 -1.30609e-20
-1.52649e-05 -2.03646e-05 4.12335e-21
4.97678e-06 8.38857e-06 -2.56062e-20
1.66301e-05 5.16026e-06 1.37518e-20
-4.76358e-06 -7.33782e-06 7.54789e-21
1.97952e-05 3.54695e-06 -2.83065e-20
1.81872e-05 -9.8251e-06 -8.46315e-21
-3.48797e-07 2.71707e-05 2.94994e-20
8.31974e-06 -1.36657e-05 -9.66156e-21
4.88e-05 2.20041e-06 2.09165e-20
-4.23532e-05 1.14524e-05 -2.71205e-20
2.28579e-05 1.15551e-05 -8.05718e-21
-6.45233e-06 -1.71776e-05 7.62702e-21
-1.53484e-05 -8.61729e-06 -2.56599e-21
2.87845e-05 -2.10524e-07 -8.85786e-21
-6.91909e-07 -2.42524e-05 1.40802e-20
-1.26161e-05 -1.08729e-05 -1.17414e-21
1.02228e-05 -2.34971e-05 2.22946e-21
-4.96553e-07 2.05532e-05 8.83606e-21
7.91683e-06 2.60649e-05 1.68117e-20
1.7266e-05 -9.88318e-06 -1.62778e-20
-1.89458e-05 1.92964e-05 1.76072e-20
1.65259e-05 2.00272e-05 1.06077e-20
-6.22235e-05 1.60201e-05 -3.37895e-20
-1.0108e-05 2.60132e-05 1.50276e-20
1.25176e-05 -1.52465e-05 3.58404e-21
-7.02829e-06 -1.83957e-05 7.46301e-21
-1.18522e-05 4.50516e-06 2.13525e-20
-2.58904e-05 -7.04498e-06 1.05472e-21
-6.38538e-06 3.88534e-05 4.06717e-20
-1.26044e-05 1.19011e-05 -2.35195e-21
2.07742e-05 -4.47509e-06 -1.84628e-21
-6.87167e-06 -2.57912e-05 -2.09785e-22
-1.48671e-05 2.38882e-05 9.79647e-21
-2.17864e-05 1.25633e-05 -3.04255e-21
-2.05671e-05 -1.50536e-05 5.14441e-21
1.80265e-05 -2.06527e-05 -7.71434e-21
-2.75274e-05 -1.45608e-06 -2.00785e-21
1.23657e-05 -4.08055e-05 -6.21456e-21
1.9384e-05 -1.89109e-05 -3.13479e-22
2.47297e-05 4.30769e-05 2.32285e-20
1.9709e-06 1.98642e-05 1.25037e-20
2.96075e-06 -2.54183e-05 1.23509e-20
-4.16315e-05 4.69564e-05 -1.09379e-20
-1.27006e-05 -2.44087e-05 -1.95176e-21
1.6365e-05 -6.41979e-06 -3.62466e-21
-2.41062e-06 2.57692e-05 1.54084e-20
1.28815e-05 -1.18251e-05 -2.71954e-20
1.38789e-05 2.43102e-05 1.37888e-20
1.72279e-05 -1.40033e-06 -2.14308e-21
2.21175e-05 -6.32092e-05 2.77668e-21
-5.87544e-06 -1.28577e-05 2.58699e-20
-2.31816e-05 1.00859e-05 8.57076e-21
-2.00176e-05 1.87168e-05 -1.46034e-21
2.16098e-05 1.4566e-05 2.26616e-21
1.86705e-05 -1.07554e-05 -4.13942e-21
1.49502e-05 1.2592e-05 2.73879e-21
-5.4275e-06 4.55086e-08 -4.48834e-21
1.54018e-05 -2.30846e-05 -3.00224e-21
-1.69883e-05 -2.04068e-05 1.51758e-20
2.25592e-05 9.77258e-06 7.67673e-21
1.28051e-05 -1.19883e-05 -2.23256e-20
9.55282e-06 -2.48489e-05 -3.91991e-21
1.66573e-05 -6.93209e-06 -1.10598e-20
-1.58036e-05 -7.54375e-06 9.57454e-21
1.2967e-06 -2.62999e-05 -1.33389e-20
-2.61037e-05 4.47256e-06 -6.29642e-21
2.39012e-06 2.45399e-05 3.05799e-20
2.05826e-05 6.6267e-06 -2.69209e-22
-2.17179e-05 -1.07006e-05 -9.89164e-21
-8.97617e-06 2.56071e-05 1.6504e-20
-1.49521e-06 -2.41852e-05 1.25886e-20
1.94642e-05 1.18361e-05 4.80638e-21
-1.76876e-06 1.80827e-05 3.24701e-20
-2.01365e-05 1.3701e-05 -1.16718e-21
2.35082e-05 1.14139e-05 1.47641e-20
-1.71133e-05 -9.9845e-06 8.2385e-21
9.50937e-08 -1.98326e-05 1.38173e-20
1.83803e-05 1.99821e-05 1.14766e-20
-2.21514e-05 -1.43021e-05 5.41937e-21
4.83459e-05 -3.39786e-05 1.24237e-21
1.78951e-05 -1.08214e-05 -2.15211e-20
9.00094e-06 4.30827e-05 1.90942e-20
1.70324e-05 -1.36772e-05 -6.85547e-21
-1.98729e-05 8.70269e-05 -9.82101e-21
-1.97631e-05 -8.65412e-05 1.30436e-20
5.71788e-05 7.17106e-05 -5.97567e-21
5.69164e-05 -7.13845e-05 1.60071e-22
9.06385e-05 -1.59426e-10 -3.1587e-20
-7.81937e-05 3.76347e-05 -1.84518e-20
-7.74481e-05 -3.72789e-05 1.62999e-20
1.22327e-05 1.18176e-05 -1.70406e-20
2.93653e-05 2.18904e-05 -1.15093e-20
1.14471e-05 3.33252e-06 -2.34937e-20
1.8854e-05 9.75065e-06 6.75481e-21
4.98879e-06 2.01684e-05 2.39712e-20
-1.88302e-05 -1.4979e-05 -6.05358e-21
1.70365e-05 -1.02133e-05 -1.08603e-20
1.98509e-05 1.45481e-05 1.56205e-20
-3.16667e-06 2.43619e-05 1.3704e-20
2.94381e-05 -1.99911e-05 -1.7023e-20
3.79358e-06 -2.37378e-05 1.41099e-20
2.1959e-05 5.22661e-06 1.28755e-21
2.98933e-05 1.1025e-05 -1.96269e-21
1.42075e-05 1.41426e-05 3.54524e-20
1.58819e-05 6.59315e-06 -1.14851e-20
-1.84972e-05 1.09357e-05 1.96166e-20
-2.25613e-05 9.0359e-06 -6.12392e-21
2.29276e-05 -1.12626e-05 -8.23002e-21
-1.82664e-05 -9.9972e-06 4.35193e-21
-1.85529e-05 -1.05816e-05 1.20741e-20
-3.43826e-07 -2.07661e-05 2.34801e-20
-8.61416e-08 -2.11591e-05 1.00626e-20
-2.01254e-05 -1.0054e-06 -4.74724e-21
2.66969e-05 -4.01885e-06 4.02723e-21
1.81106e-05 1.13413e-05 7.36083e-21
-1.78628e-05 1.09442e-05 4.37739e-21
-1.53602e-05 1.66224e-05 4.39862e-21
1.60209e-05 -1.37522e-05 -7.34174e-21
-1.10226e-05 1.7462e-05 1.31201e-20
-1.42238e-05 -1.48885e-05 2.9316e-21
-1.15516e-06 2.1209e-05 1.20639e-20
-1.28758e-06 2.09667e-05 2.92505e-20
8.97162e-08 -1.98325e-05 -8.66905e-23
6.11037e-06 -1.97359e-05 -8.4307e-21
-1.71397e-05 -9.93475e-06 -1.2842e-21
1.55857e-05 -5.48988e-06 7.11769e-21
6.63115e-07 2.14762e-05 2.23617e-20
3.00821e-07 1.85062e-05 2.64287e-20
-2.34558e-06 1.68561e-05 1.66395e-20
2.19072e-05 -5.52702e-06 1.93683e-20
-1.65401e-05 5.37769e-06 1.80537e-20
4.15717e-06 2.1516e-05 4.17732e-21
-3.25561e-05 1.29184e-05 -9.66306e-21
9.76267e-06 4.17286e-05 2.1732e-20
-1.70523e-05 4.56783e-06 1.53053e-20
1.96831e-05 -1.16293e-05 -3.18567e-21
9.45708e-07 2.10181e-05 1.61178e-20
-2.04799e-05 6.69898e-06 3.62281e-21
2.44394e-06 -1.62614e-05 6.74088e-21
1.81903e-06 -5.80088e-05 -1.30852e-20
2.00633e-06 1.74851e-05 1.32471e-20
-1.6961e-05 1.40217e-05 3.26751e-21
1.7853e-05 6.39677e-05 4.52624e-21
4.57664e-05 3.77044e-05 -7.10403e-21
5.20617e-05 -3.52534e-05 -2.70165e-20
1.48145e-05 -1.01665e-05 -1.24097e-20
-1.57845e-05 1.40367e-05 3.28965e-21
-2.02157e-05 -7.92022e-06 3.75985e-21
-1.96445e-05 -6.822e-06 1.97621e-20
5.92635e-05 -2.46105e-05 -1.17564e-20
5.74302e-05 2.38695e-05 1.29864e-20
1.08939e-05 3.81725e-06 -6.00691e-21
7.66589e-07 1.95782e-05 2.03524e-20
7.8354e-08 1.95595e-05 1.05059e-20
-4.83801e-05 -3.69166e-05 5.85106e-22
1.14245e-05 -1.7171e-05 -1.47553e-20
1.17326e-05 1.2464e-05 -1.44203e-20
-2.14169e-05 -3.39555e-06 4.19611e-21
-1.40442e-05 1.72012e-05 1.30091e-20
-1.88875e-05 9.16725e-06 -2.2707e-21
4.76407e-05 3.36925e-05 -6.67719e-21
1.58056e-05 7.06128e-06 -9.50086e-21
-5.56646e-06 2.00293e-05 2.14774e-20
-1.69772e-05 -1.17486e-05 5.64856e-21
1.85615e-06 -2.05418e-05 1.78185e-20
-8.94926e-06 -1.92663e-05 1.89642e-20
-1.72483e-05 -1.17729e-05 4.42624e-22
1.0579e-05 -1.89348e-05 1.34908e-21
1.41217e-05 -1.69884e-05 5.53759e-21
-2.44025e-06 -6.14342e-05 1.56591e-20
2.61789e-05 -4.11236e-05 -9.6285e-21
1.7474e-06 -2.07846e-05 7.61367e-21
1.79578e-05 1.13549e-05 1.10913e-20
-1.44756e-05 -1.49046e-05 -1.46228e-20
-9.84059e-06 1.97091e-05 1.37137e-20
-5.03918e-06 2.10057e-05 1.80962e-20
1.66264e-05 1.42431e-05 3.58735e-21
6.05871e-06 -1.98605e-05 -1.36615e-20
-1.34058e-05 -4.0356e-05 -5.67129e-21
-1.98829e-06 2.50393e-05 3.09201e-20
1.47911e-05 1.44544e-05 9.4072e-21
-1.29577e-05 -1.02162e-05 -4.93824e-21
-1.35144e-05 1.06077e-05 -9.15132e-21
4.43408e-05 -1.89123e-05 1.5251e-20
7.5627e-06 -1.33996e-05 -3.66648e-21
-8.31679e-06 -1.26264e-05 -1.46468e-20
2.13295e-05 6.36318e-06 -2.07871e-20
1.09938e-05 -5.06597e-05 8.38252e-22
-3.84497e-05 -3.49014e-05 -4.01874e-21
2.33057e-05 6.20712e-06 -1.53498e-20
-9.32782e-06 -1.82803e-05 2.72e-21
1.87048e-05 9.48237e-06 1.06714e-21
-2.85632e-05 -3.25498e-05 -4.82638e-21
9.68775e-06 5.00446e-05 -9.0887e-22
3.43326e-05 -5.98571e-05 -9.88861e-21
-3.47356e-05 -5.97739e-05 -1.48105e-20
2.78072e-05 -5.20199e-05 -2.11306e-22
-1.26976e-05 4.36313e-05 -1.42072e-20
-6.2758e-06 3.89757e-05 2.47155e-20
-1.87299e-05 8.94549e-06 1.12429e-20
5.97695e-06 2.42411e-05 1.89184e-20
-2.39147e-06 1.26535e-05 1.89135e-20
1.01197e-05 3.233e-06 -2.95055e-20
-3.18834e-06 1.62048e-05 1.93125e-20
-2.47444e-07 2.09908e-05 1.93183e-20
1.66599e-05 9.75015e-06 -1.37346e-20
1.71014e-06 5.77217e-05 -9.94834e-21
-1.47166e-05 1.07322e-05 1.95186e-20
1.59487e-05 -6.24633e-06 -1.567e-20
1.68711e-05 -4.50877e-06 -5.24902e-21
-6.06599e-05 -8.76846e-06 -8.35248e-21
-3.46042e-05 1.67407e-05 -2.07886e-20
-4.35127e-05 -5.25438e-05 5.53305e-21
8.65613e-06 8.34531e-06 3.53566e-20
1.42093e-05 7.29222e-06 -2.33628e-20
2.68036e-05 -4.19567e-06 -3.02225e-21
-8.10402e-06 -1.32422e-05 -9.01276e-21
1.72158e-05 8.42823e-06 -6.26429e-21
7.335e-06 -3.00333e-05 6.41511e-22
-1.37131e-05 1.02045e-05 2.04136e-20
-2.23733e-05 -2.14213e-05 -2.09063e-21
-5.83571e-06 1.6297e-05 1.53814e-20
-3.27085e-06 2.06776e-05 1.59349e-20
3.38482e-05 2.12954e-05 4.0212e-21
3.61116e-05 -1.9282e-05 -1.8855e-20
-4.20684e-05 -1.16224e-05 -2.15047e-20
7.63383e-06 7.68539e-06 -1.61226e-20
-4.05837e-06 0.000101356 -1.85291e-20
8.61704e-07 -0.000104463 -1.89902e-21
5.24518e-05 8.76408e-05 -4.26492e-21
-1.9102e-05 8.4575e-06 1.18246e-20
-2.63753e-05 5.65468e-05 -2.56377e-20
5.30301e-05 -8.46355e-05 1.03761e-20
-1.17199e-05 -1.82815e-05 1.36952e-20
7.79962e-05 6.74944e-05 -1.46641e-20
2.39924e-05 -1.7976e-05 1.77306e-20
-3.60726e-06 -2.98207e-05 1.21105e-20
8.17747e-05 -6.58471e-05 -7.65247e-21
-6.7443e-06 1.45176e-05 8.5347e-21
-5.38294e-05 -3.48221e-05 4.63817e-23
-4.30112e-05 -9.31251e-05 -1.27429e-20
-2.41114e-05 -5.78014e-05 -1.17782e-20
-4.39727e-05 9.41321e-05 -3.71125e-20
-1.00928e-05 6.40807e-05 5.31357e-21
1.5632e-05 3.71064e-05 3.58753e-20
-2.79539e-05 3.72386e-05 -6.49802e-21
-2.52717e-05 -5.51805e-05 1.98057e-21
0.000100361 1.73161e-05 -6.13484e-21
-1.69266e-05 1.07665e-05 3.18172e-21
-5.91205e-06 1.63322e-05 2.4768e-20
-5.07555e-05 3.76377e-05 -2.09932e-20
-1.72754e-05 9.94362e-06 7.19865e-21
9.91977e-05 -1.52626e-05 -5.71768e-21
-1.53594e-05 7.79831e-06 1.72989e-20
7.19225e-06 -1.44942e-05 -1.12571e-20
-7.79654e-05 -6.09451e-05 8.92364e-21
-2.58776e-05 5.77143e-05 -8.74508e-21
-7.91184e-05 6.03724e-05 -1.64585e-20
2.4539e-05 5.19476e-05 -3.22658e-21
-1.47668e-05 1.05819e-05 1.14112e-21
-2.05288e-05 2.44753e-05 -9.17255e-21
-2.85312e-05 4.98153e-05 6.09453e-21
-5.67731e-05 2.07979e-07 -3.28451e-20
-9.4406e-07 1.62952e-05 1.23919e-20
-2.88482e-05 -5.04039e-05 -2.6687e-20
-5.81954e-05 -2.19794e-07 -3.60311e-21
-2.83481e-05 4.86938e-05 -4.07454e-21
-1.51895e-05 6.62627e-05 3.66332e-20
-1.78639e-05 4.12584e-05 -1.94116e-21
-3.38985e-05 2.7136e-05 -2.75289e-20
2.43817e-05 -6.05663e-06 -1.90057e-21
3.80008e-05 -2.1952e-06 -1.59271e-20
1.34817e-05 8.19989e-06 -1.91227e-20
-1.04686e-05 -7.39838e-05 -4.39618e-21
-6.94454e-05 -2.79728e-05 -2.1656e-20
3.71303e-05 7.32699e-07 -2.88688e-20
5.83631e-05 -1.08916e-05 -1.38664e-20
-1.05832e-05 -1.34964e-05 3.79896e-21
-5.08262e-05 3.76235e-05 -3.68536e-20
-4.61312e-05 5.39972e-05 -2.99147e-20
6.23595e-05 -2.22313e-05 1.08381e-21
-2.8176e-05 -5.04945e-05 -2.35629e-20
-2.87756e-05 4.9777e-05 3.23983e-20
-5.72515e-05 -1.1711e-06 -1.75796e-20
-2.6572e-05 5.05952e-05 -3.32572e-22
-5.79502e-05 -8.16971e-07 -8.49165e-21
6.60728e-05 1.73916e-05 -9.41785e-25
5.63773e-05 1.29244e-06 5.13102e-21
5.08975e-05 -2.92724e-05 -1.53163e-21
2.49089e-05 -5.94241e-05 -3.94193e-20
2.9917e-05 -4.88543e-05 -3.05605e-20
2.91659e-05 4.86783e-05 -6.77389e-21
2.43438e-05 5.80864e-05 -2.35541e-22
7.57985e-05 -2.00365e-05 1.01494e-20
4.6264e-05 2.90618e-05 1.16054e-20
4.66219e-05 1.37448e-05 -4.77209e-21
TENSORS solid_stress_TPM float
375.031 -24.9204 7.86334e-13
-24.9204 238.57 3.55627e-12
7.86334e-13 3.55627e-12 197.817

457.003 -21.3202 -1.28142e-12
-21.3202 489.986 2.33561e-12
-1.28142e-12 2.33561e-12 487.109

454.877 28.0432 -4.2751e-12
28.0432 463.707 -2.0736e-12
-4.2751e-12 -2.0736e-12 458.457

455.027 -29.8427 4.49566e-13
-29.8427 482.608 6.19356e-13
4.49566e-13 6.19356e-13 484.856

527.685 19.9309 -1.6529e-12
19.9309 548.455 -2.13052e-12
-1.6529e-12 -2.13052e-12 527.356

437.31 -18.0744 4.46902e-13
-18.0744 480.337 2.98783e-12
4.46902e-13 2.98783e-12 458.038

372.326 26.4845 -7.38964e-13
26.4845 239.089 8.02676e-12
-7.38964e-13 8.02676e-12 197.801

473.651 29.9578 -1.2926e-12
29.9578 469.5 -5.35276e-13
-1.2926e-12 -5.35276e-13 472.336

471.547 5.48312 1.82728e-12
5.48312 417.821 -2.31496e-12
1.82728e-12 -2.31496e-12 432.794

504.258 -7.47757 3.08464e-12
-7.47757 444.11 1.84319e-12
3.08464e-12 1.84319e-12 483.451

360.292 16.3085 2.79243e-12
16.3085 247.655 8.87705e-12
2.79243e-12 8.87705e-12 233.644

444.781 -13.4532 -2.81256e-14
-13.4532 498.384 2.5248e-12
-2.81256e-14 2.5248e-12 472.238

466.866 27.8331 2.70954e-12
27.8331 468.3 4.27332e-12
2.70954e-12 4.27332e-12 466.733

457.036 -14.34 -3.63682e-12
-14.34 500.432 -5.14729e-12
-3.63682e-12 -5.14729e-12 483.456

512.936 33.3113 7.51103e-13
33.3113 511.596 -3.25552e-12
7.51103e-13 -3.25552e-12 515.225

489.17 0.560972 -1.95399e-13
0.560972 435.521 -2.69746e-12
-1.95399e-13 -2.69746e-12 462.27

457.582 -17.9691 1.25026e-12
-17.9691 512.884 4.95781e-12
1.25026e-12 4.95781e-12 493.596

493.956 -2.6652 1.95399e-12
-2.6652 439.047 3.63591e-12
1.95399e-12 3.63591e-12 474.262

418.791 26.6736 -1.58244e-12
26.6736 449.658 2.92507e-13
-1.58244e-12 2.92507e-13 424.051

481.979 -4.19556 2.69769e-12
-4.19556 424.919 -6.4837e-14
2.69769e-12 -6.4837e-14 453.473

425.294 8.66857 5.64141e-13
8.66857 481.901 9.65154e-14
5.64141e-13 9.65154e-14 444.839

634.129 6.28764 -4.51444e-12
6.28764 633.964 1.53803e-13
-4.51444e-12 1.53803e-13 570.317

479.15 1.87598 6.59621e-13
1.87598 422.938 -1.18794e-13
6.59621e-13 -1.18794e-13 449.73

447.16 -27.7151 9.68114e-13
-27.7151 461.148 -1.69405e-12
9.68114e-13 -1.69405e-12 452.946

481.047 6.84937 -1.84563e-12
6.84937 425.439 -7.38076e-13
-1.84563e-12 -7.38076e-13 452.936

449.756 19.1128 2.79554e-13
19.1128 490.315 1.54069e-12
2.79554e-13 1.54069e-12 478.204

377.652 4.18136 2.64085e-12
4.18136 291.653 -3.64538e-12
2.64085e-12 -3.64538e-12 259.001

462.683 30.7458 4.77426e-12
30.7458 460.712 2.06946e-13
4.77426e-12 2.06946e-13 460.543

384.939 37.0742 5.73526e-12
37.0742 383.518 -9.21337e-13
5.73526e-12 -9.21337e-13 348.417

586.941 10.3235 -9.90911e-13
10.3235 563.45 -2.59089e-13
-9.90911e-13 -2.59089e-13 546.872

491.685 14.2169 1.16055e-12
14.2169 442.496 4.21722e-12
1.16055e-12 4.21722e-12 465.854

352.853 -17.7803 -7.15576e-13
-17.7803 416.721 5.36223e-12
-7.15576e-13 5.36223e-12 348.588

331.016 -42.1015 9.85286e-13
-42.1015 335.871 -3.66403e-12
9.85286e-13 -3.66403e-12 253.481

531.409 5.98673 2.94735e-12
5.98673 586.888 4.73399e-13
2.94735e-12 4.73399e-13 538.581

554.022 -4.84064 2.96563e-12
-4.84064 582.07 3.23475e-12
2.96563e-12 3.23475e-12 542.511

577.986 21.0279 1.86754e-12
21.0279 539.946 4.40551e-12
1.86754e-12 4.40551e-12 538.349

556.184 5.06746 1.61856e-12
5.06746 600.674 -4.13773e-12
1.61856e-12 -4.13773e-12 547.968

573.773 -9.16997 -1.38467e-12
-9.16997 555.764 1.57823e-12
-1.38467e-12 1.57823e-12 540.637

467.125 -27.9981 2.51947e-12
-27.9981 466.489 -2.14288e-12
2.51947e-12 -2.14288e-12 465.105

330.4 41.5208 1.65793e-14
41.5208 337.969 3.40113e-12
1.65793e-14 3.40113e-12 253.84

414.523 -17.949 -3.55863e-12
-17.949 354.485 1.38141e-12
-3.55863e-12 1.38141e-12 346.318

559.305 -3.70602 -6.71463e-12
-3.70602 599.923 -3.57373e-12
-6.71463e-12 -3.57373e-12 548.383

586.412 19.5555 -1.62048e-12
19.5555 572.454 1.4877e-12
-1.62048e-12 1.4877e-12 548.171

490.89 -12.2733 -5.21065e-14
-12.2733 442.85 -2.19706e-12
-5.21065e-14 -2.19706e-12 466.526

341.706 -43.2988 -6.49554e-12
-43.2988 345.334 -1.79294e-12
-6.49554e-12 -1.79294e-12 288.974

417.549 -18.0633 -3.37981e-12
-18.0633 357.102 9.29627e-13
-3.37981e-12 9.29627e-13 351.492

413.003 17.0856 8.61681e-13
17.0856 464.771 -1.43115e-12
8.61681e-13 -1.43115e-12 428.716

429.619 19.3389 -4.79024e-13
19.3389 466.502 9.0535e-13
-4.79024e-13 9.0535e-13 437.07

486.77 -16.301 1.77517e-12
-16.301 432.864 3.41046e-12
1.77517e-12 3.41046e-12 458.667

355.571 -34.1851 3.57936e-12
-34.1851 389.391 -3.52903e-13
3.57936e-12 -3.52903e-13 332.559

410.241 19.1817 -4.48826e-13
19.1817 350.692 -5.19288e-13
-4.48826e-13 -5.19288e-13 339.468

425.19 -25.2882 -5.23907e-12
-25.2882 383.811 4.35e-12
-5.23907e-12 4.35e-12 373.067

519.913 19.4857 1.62093e-12
19.4857 547.523 6.80641e-13
1.62093e-12 6.80641e-13 525.723

416.402 29.6491 2.69651e-12
29.6491 393.875 6.15804e-14
2.69651e-12 6.15804e-14 373.931

522.167 -21.8128 -9.87358e-13
-21.8128 541.389 3.25735e-12
-9.87358e-13 3.25735e-12 524.369

364.062 -42.7109 3.07902e-14
-42.7109 343.273 2.37203e-12
3.07902e-14 2.37203e-12 289.691

553.444 5.45965 1.4014e-12
5.45965 583.863 -3.4713e-12
1.4014e-12 -3.4713e-12 542.885

373.707 -5.32974 -2.29594e-12
-5.32974 436.652 -5.32907e-13
-2.29594e-12 -5.32907e-13 373.815

580.811 10.3842 8.10907e-13
10.3842 556.164 3.06653e-14
8.10907e-13 3.06653e-14 542.642

435.047 21.4129 -1.79649e-12
21.4129 473.751 -2.98783e-12
-1.79649e-12 -2.98783e-12 454.662

513.564 5.7539 3.18634e-12
5.7539 452.798 1.90144e-12
3.18634e-12 1.90144e-12 494.857

522.45 11.4589 3.75611e-12
11.4589 487.854 3.54442e-12
3.75611e-12 3.54442e-12 507.071

383.697 31.8196 -2.93454e-12
31.8196 315.187 -1.16576e-11
-2.93454e-12 -1.16576e-11 269.865

482.08 -6.03516 1.36779e-12
-6.03516 528.173 2.29801e-12
1.36779e-12 2.29801e-12 504.093

487.089 9.51972 1.22983e-12
9.51972 523.682 -8.85218e-14
1.22983e-12 -8.85218e-14 507.489

456.451 -2.8808 -2.43128e-12
-2.8808 520.15 4.68958e-13
-2.43128e-12 4.68958e-13 487.8

464.447 23.402 -1.32176e-12
23.402 503.462 2.68023e-12
-1.32176e-12 2.68023e-12 495.433

496.74 8.4635 -4.88587e-12
8.4635 444.391 2.01513e-12
-4.88587e-12 2.01513e-12 477.691

445.499 -28.2392 -1.44447e-12
-28.2392 459.521 1.06877e-12
-1.44447e-12 1.06877e-12 451.16

501.674 -1.71124 1.95695e-13
-1.71124 444.909 1.30451e-12
1.95695e-13 1.30451e-12 489.061

519.526 -19.2617 2.19528e-12
-19.2617 546.816 2.3294e-12
2.19528e-12 2.3294e-12 525.456

523.296 21.3078 -1.71596e-12
21.3078 542.913 7.2826e-14
-1.71596e-12 7.2826e-14 525.258

353.404 -16.5833 4.19413e-12
-16.5833 415.728 -1.15345e-12
4.19413e-12 -1.15345e-12 346.107

506.014 -27.936 -5.21065e-14
-27.936 485.303 -4.93886e-12
-5.21065e-14 -4.93886e-12 493.873

449.713 -25.1345 -2.55943e-12
-25.1345 471.213 7.04622e-13
-2.55943e-12 7.04622e-13 458.57

357.864 -31.7103 1.06581e-13
-31.7103 285.672 2.8854e-12
1.06581e-13 2.8854e-12 249.854

498.493 3.22262 6.59702e-12
3.22262 541.399 4.84945e-13
6.59702e-12 4.84945e-13 513.636

501.72 28.9438 3.98082e-12
28.9438 474.543 5.68138e-13
3.98082e-12 5.68138e-13 487.651

448.438 19.6641 -2.82174e-12
19.6641 492.101 4.53089e-12
-2.82174e-12 4.53089e-12 477.636

440.185 7.99947 -1.74438e-12
7.99947 373.032 5.65029e-12
-1.74438e-12 5.65029e-12 382.929

386.445 -33.9352 3.72443e-12
-33.9352 360.201 4.26326e-14
3.72443e-12 4.26326e-14 319.43

537.715 -10.5875 1.54129e-12
-10.5875 556.133 -1.18098e-12
1.54129e-12 -1.18098e-12 531.243

482.65 23.8995 5.10703e-13
23.8995 504.553 -2.06895e-12
5.10703e-13 -2.06895e-12 502.036

385.366 -32.3835 -1.58806e-12
-32.3835 345.301 -1.51464e-12
-1.58806e-12 -1.51464e-12 317.076

422.191 10.791 -1.79057e-12
10.791 363.845 3.39921e-12
-1.79057e-12 3.39921e-12 350.248

307.647 -21.2058 6.77532e-12
-21.2058 388.437 -4.3201e-12
6.77532e-12 -4.3201e-12 288.111

434.438 14.4256 -4.69032e-13
14.4256 488.662 -3.07369e-12
-4.69032e-13 -3.07369e-12 460.878

509.715 23.1429 4.43201e-12
23.1429 475.166 3.97874e-12
4.43201e-12 3.97874e-12 489.94

338.236 42.1983 -3.24481e-13
42.1983 349.566 9.61601e-13
-3.24481e-13 9.61601e-13 288.947

634.214 16.507 8.42844e-12
16.507 603.067 5.90061e-12
8.42844e-12 5.90061e-12 565.321

372.883 -4.10831 2.1334e-12
-4.10831 436.811 -2.7948e-12
2.1334e-12 -2.7948e-12 373.422

637.12 -16.6322 -1.37934e-12
-16.6322 599.537 1.6234e-11
-1.37934e-12 1.6234e-11 564.828

533.934 -27.3349 -2.00965e-12
-27.3349 507.233 5.61995e-12
-2.00965e-12 5.61995e-12 515.709

505.291 27.4245 3.47515e-12
27.4245 466.329 4.22654e-12
3.47515e-12 4.22654e-12 485.067

426.92 -24.4104 1.89833e-12
-24.4104 386.233 -2.53308e-12
1.89833e-12 -2.53308e-12 375.973

358.931 31.3229 -2.5396e-12
31.3229 395.999 -4.20404e-13
-2.5396e-12 -4.20404e-13 339.196

339.82 -10.705 -7.43701e-13
-10.705 408.386 1.37135e-12
-7.43701e-13 1.37135e-12 319.101

453.099 21.9707 3.64212e-12
21.9707 494.673 7.6034e-12
3.64212e-12 7.6034e-12 483.163

533.109 16.7941 2.74418e-12
16.7941 506.194 -3.94381e-12
2.74418e-12 -3.94381e-12 513.348

443.448 15.1538 -4.82207e-12
15.1538 488.435 1.66563e-12
-4.82207e-12 1.66563e-12 464.277

451.476 15.9537 3.62377e-13
15.9537 400.532 6.02496e-12
3.62377e-13 6.02496e-12 403.742

374.484 -21.4723 1.10312e-12
-21.4723 419.862 -6.03606e-12
1.10312e-12 -6.03606e-12 357.193

389.718 -29.3903 4.69432e-12
-29.3903 342.366 7.6561e-13
4.69432e-12 7.6561e-13 314.387

454.961 -24.5729 -1.7808e-12
-24.5729 480.06 -4.8909e-13
-1.7808e-12 -4.8909e-13 478.366

466.422 27.4509 -2.32999e-12
27.4509 478.739 -5.12242e-12
-2.32999e-12 -5.12242e-12 479.805

452.212 23.1876 -2.74551e-12
23.1876 492.554 4.88498e-14
-2.74551e-12 4.88498e-14 482.039

466.292 13.1691 6.02018e-13
13.1691 529.772 3.8168e-12
6.02018e-13 3.8168e-12 501.379

490.857 9.37223 2.07419e-12
9.37223 437.885 -9.59233e-14
2.07419e-12 -9.59233e-14 462.051

327.708 -4.66502 5.48687e-12
-4.66502 403.377 7.50807e-13
5.48687e-12 7.50807e-13 314.408

462.575 -36.8332 -8.43769e-14
-36.8332 487.686 -2.59341e-12
-8.43769e-14 -2.59341e-12 492.744

445.845 27.4651 1.26447e-12
27.4651 463.266 1.57504e-12
1.26447e-12 1.57504e-12 455.01

305.668 2.17031 6.32561e-12
2.17031 393.356 1.67925e-12
6.32561e-12 1.67925e-12 297.253

385.993 34.61 4.84353e-12
34.61 332.445 -3.16132e-12
4.84353e-12 -3.16132e-12 306.242

453.346 -22.9738 -1.20259e-12
-22.9738 480.066 2.52657e-12
-1.20259e-12 2.52657e-12 476.168

501.39 5.73296 8.55316e-13
5.73296 441.311 -6.54439e-13
8.55316e-13 -6.54439e-13 481.006

422.376 27.2038 -1.05397e-12
27.2038 389.763 -5.2367e-12
-1.05397e-12 -5.2367e-12 374.23

570.539 12.7455 4.46014e-13
12.7455 565.915 -1.18365e-12
4.46014e-13 -1.18365e-12 542.913

396.174 24.3303 -1.9611e-12
24.3303 349.645 9.00021e-14
-1.9611e-12 9.00021e-14 319.041

569.162 -13.055 7.13592e-12
-13.055 565.827 -4.45037e-12
7.13592e-12 -4.45037e-12 542.369

375.088 0.778529 2.88954e-13
0.778529 438.865 -1.48385e-12
2.88954e-13 -1.48385e-12 374.637

461.467 -2.2353 -2.20505e-12
-2.2353 399.299 2.46144e-12
-2.20505e-12 2.46144e-12 417.278

538.193 -15.768 -2.33132e-12
-15.768 480.628 2.38446e-12
-2.33132e-12 2.38446e-12 513.475

457.241 24.3881 6.29991e-13
24.3881 487.781 -1.14249e-12
6.29991e-13 -1.14249e-12 488.35

461.252 -13.535 2.50236e-12
-13.535 519.132 1.36187e-13
2.50236e-12 1.36187e-13 495.711

514.965 -7.99998 -7.05214e-13
-7.99998 438.188 -1.60864e-12
-7.05214e-13 -1.60864e-12 494.273

488.312 -22.284 2.69666e-12
-22.284 541.599 -4.13625e-12
2.69666e-12 -4.13625e-12 515.747

556.049 -6.59654 -1.64047e-12
-6.59654 560.392 -2.01613e-12
-1.64047e-12 -2.01613e-12 538.726

463.862 -29.9081 -7.54952e-13
-29.9081 483.192 2.78918e-12
-7.54952e-13 2.78918e-12 483.596

341.704 11.4535 -4.73843e-12
11.4535 406.19 -3.15244e-12
-4.73843e-12 -3.15244e-12 319.48

422.477 -28.1462 -4.23128e-12
-28.1462 391.238 3.83279e-12
-4.23128e-12 3.83279e-12 375.144

507.379 -13.7722 -6.28423e-12
-13.7722 558.746 2.31518e-13
-6.28423e-12 2.31518e-13 525.249

501.053 0.504438 3.68653e-12
0.504438 441.276 -5.15514e-13
3.68653e-12 -5.15514e-13 487.083

476.939 -21.5245 2.38313e-12
-21.5245 507.418 1.63099e-12
2.38313e-12 1.63099e-12 501.501

459.094 25.6977 6.00409e-13
25.6977 484.597 6.41228e-13
6.00409e-13 6.41228e-13 487.978

394.426 -31.4641 -6.12014e-12
-31.4641 400.595 -6.41857e-13
-6.12014e-12 -6.41857e-13 357.518

552.124 -7.08499 9.72444e-12
-7.08499 585.294 5.05995e-12
9.72444e-12 5.05995e-12 542.6

347.207 -33.0764 -8.20677e-13
-33.0764 382.604 -3.93167e-13
-8.20677e-13 -3.93167e-13 303.432

490.866 -19.1795 2.66039e-12
-19.1795 448.384 1.58599e-12
2.66039e-12 1.58599e-12 467.12

519.705 1.97029 1.13243e-12
1.97029 466.811 -2.41614e-12
1.13243e-12 -2.41614e-12 502.828

570.557 17.875 4.04358e-12
17.875 566.478 2.61243e-12
4.04358e-12 2.61243e-12 542.373

375.287 20.1826 -1.24404e-12
20.1826 424.028 -1.5028e-12
-1.24404e-12 -1.5028e-12 360.217

489.078 27.2104 8.24822e-13
27.2104 468.536 1.33671e-12
8.24822e-13 1.33671e-12 476.635

454.375 -24.5113 3.87246e-12
-24.5113 415.338 -1.9158e-12
3.87246e-12 -1.9158e-12 418.598

454.715 -17.8385 1.60209e-12
-17.8385 494.903 -1.48207e-12
1.60209e-12 -1.48207e-12 482.638

379.195 35.0678 8.26598e-13
35.0678 366.027 2.59467e-12
8.26598e-13 2.59467e-12 317.045

449.148 -21.831 3.45649e-13
-21.831 491.7 7.36596e-13
3.45649e-13 7.36596e-13 479.769

485.487 30.8503 -1.16647e-12
30.8503 465.132 5.35453e-12
-1.16647e-12 5.35453e-12 473.442

480.318 -25.2439 -5.10525e-12
-25.2439 442.363 -1.067e-12
-5.10525e-12 -1.067e-12 455.438

448.214 -25.1262 3.52281e-12
-25.1262 469.763 2.62605e-12
3.52281e-12 2.62605e-12 458.092

445.34 -18.6879 7.93439e-13
-18.6879 393.456 1.42523e-12
7.93439e-13 1.42523e-12 397.253

470.648 -18.8494 -2.60828e-12
-18.8494 422.848 -3.7795e-12
-2.60828e-12 -3.7795e-12 437.527

458.994 -25.3369 4.59055e-12
-25.3369 485.424 -2.02912e-13
4.59055e-12 -2.02912e-13 488.821

386.537 35.9689 -1.2399e-12
35.9689 381.983 7.82781e-13
-1.2399e-12 7.82781e-13 348.112

444.49 15.3766 2.19676e-13
15.3766 491.527 -3.79667e-12
2.19676e-13 -3.79667e-12 467.134

469.391 26.4221 2.19883e-12
26.4221 479.952 1.49244e-12
2.19883e-12 1.49244e-12 482.541

456.137 25.4736 -2.55209e-12
25.4736 486.641 2.75246e-12
-2.55209e-12 2.75246e-12 487.241

457.802 11.6214 2.92798e-12
11.6214 506.934 1.62063e-12
2.92798e-12 1.62063e-12 486.009

431.945 -8.22688 -5.51973e-12
-8.22688 370.75 1.00956e-13
-5.51973e-12 1.00956e-13 363.302

376.774 18.6061 4.69195e-12
18.6061 427.259 -4.09746e-13
4.69195e-12 -4.09746e-13 363.878

452.306 -24.3803 -7.53471e-13
-24.3803 478.379 1.14605e-12
-7.53471e-13 1.14605e-12 470.705

440.74 25.6656 -1.80004e-13
25.6656 455.634 -9.11863e-14
-1.80004e-13 -9.11863e-14 437.799

390.95 -35.6288 2.20387e-12
-35.6288 380.271 4.50247e-12
2.20387e-12 4.50247e-12 350.085

368.935 38.3161 1.14871e-13
38.3161 327.247 -1.84741e-12
1.14871e-13 -1.84741e-12 295.677

363.641 -33.3105 -1.71892e-12
-33.3105 394.429 3.59535e-12
-1.71892e-12 3.59535e-12 341.973

397.924 -31.1591 -1.73136e-12
-31.1591 404.186 -3.41534e-12
-1.73136e-12 -3.41534e-12 362.967

502.85 -6.83865 -2.89813e-12
-6.83865 442.243 1.03695e-12
-2.89813e-12 1.03695e-12 482.311

393.157 30.3413 3.46745e-12
30.3413 408.972 -1.80004e-12
3.46745e-12 -1.80004e-12 363.427

429.694 13.2944 5.31249e-12
13.2944 372.24 3.63324e-12
5.31249e-12 3.63324e-12 362.707

350.137 13.3786 -6.87598e-13
13.3786 418.506 -1.04213e-13
-6.87598e-13 -1.04213e-13 348.468

379.472 -22.34 -2.40045e-12
-22.34 423.505 3.2081e-12
-2.40045e-12 3.2081e-12 363.441

491.201 -1.09154 3.08242e-12
-1.09154 550.871 1.60346e-12
3.08242e-12 1.60346e-12 516.299

372.857 2.24657 -1.86902e-12
2.24657 437.779 -3.381e-12
-1.86902e-12 -3.381e-12 373.513

357.883 31.0888 3.3212e-12
31.0888 399.479 -8.68046e-13
3.3212e-12 -8.68046e-13 341.954

457.984 12.1078 4.6622e-13
12.1078 510.554 5.77316e-12
4.6622e-13 5.77316e-12 488.396

421.445 -27.6472 4.40181e-12
-27.6472 389.065 2.45729e-13
4.40181e-12 2.45729e-13 375.065

524.75 20.5569 5.39687e-12
20.5569 469.743 3.86358e-12
5.39687e-12 3.86358e-12 500.728

534.919 26.2704 -1.47497e-12
26.2704 506.853 7.59985e-13
-1.47497e-12 7.59985e-13 516.088

494.809 -18.5675 3.62673e-12
-18.5675 449.019 6.54884e-13
3.62673e-12 6.54884e-13 470.849

554.578 -1.80121 -1.82728e-12
-1.80121 516.017 2.6296e-12
-1.82728e-12 2.6296e-12 525.71

473.28 -31.8117 2.314e-12
-31.8117 475.69 2.33028e-12
2.314e-12 2.33028e-12 478.571

412.59 23.3274 5.28052e-12
23.3274 357.189 4.66412e-12
5.28052e-12 4.66412e-12 348.085

464.169 30.1621 1.19608e-12
30.1621 482.761 -7.25346e-14
1.19608e-12 -7.25346e-14 483.197

464.432 29.2058 -3.49676e-12
29.2058 482.234 1.80241e-12
-3.49676e-12 1.80241e-12 482.758

393.939 30.6604 -5.1467e-12
30.6604 405.716 -9.74628e-13
-5.1467e-12 -9.74628e-13 360.862

502.848 27.0849 3.32652e-12
27.0849 482.659 3.83723e-12
3.32652e-12 3.83723e-12 490.728

415.344 3.5251 -2.63138e-12
3.5251 339.011 -4.02352e-12
-2.63138e-12 -4.02352e-12 340.818

493.116 31.8172 2.20742e-12
31.8172 487.217 6.30015e-13
2.20742e-12 6.30015e-13 495.568

476.32 -12.5997 -4.89164e-13
-12.5997 522.444 -1.19726e-12
-4.89164e-13 -1.19726e-12 500.241

536.92 24.2782 -2.45048e-12
24.2782 507.396 -3.42245e-13
-2.45048e-12 -3.42245e-13 516.624

468.171 -29.5787 3.17376e-13
-29.5787 479.963 -1.55224e-12
3.17376e-13 -1.55224e-12 483.055

464.554 -4.89806 -3.17635e-13
-4.89806 521.549 -5.24617e-13
-3.17635e-13 -5.24617e-13 490.973

400.933 -24.556 -2.29742e-13
-24.556 349.017 2.66098e-12
-2.29742e-13 2.66098e-12 323.944

418.96 29.6927 -2.53072e-12
29.6927 392.457 -9.07126e-13
-2.53072e-12 -9.07126e-13 373.763

352.338 14.6963 -2.0511e-12
14.6963 417.205 -3.38218e-12
-2.0511e-12 -3.38218e-12 348.233

500.523 -1.13889 1.39829e-12
-1.13889 442.788 8.43177e-13
1.39829e-12 8.43177e-13 487.702

492.464 0.00222819 -3.3659e-12
0.00222819 438.096 -2.09136e-12
-3.3659e-12 -2.09136e-12 474.413

452.959 23.1238 8.4827e-12
23.1238 479.701 4.85538e-14
8.4827e-12 4.85538e-14 475.58

481.298 23.8709 2.92655e-12
23.8709 502.868 1.27076e-12
2.92655e-12 1.27076e-12 501.248

456.582 -24.3807 -1.25535e-12
-24.3807 487.346 -6.42997e-12
-1.25535e-12 -6.42997e-12 488.492

457.831 -0.67277 3.07604e-12
-0.67277 517.936 -4.2147e-12
3.07604e-12 -4.2147e-12 486.395

458.879 25.5904 -2.42961e-12
25.5904 486.463 5.87308e-12
-2.42961e-12 5.87308e-12 488.514

465.555 -10.3078 2.50466e-13
-10.3078 408.08 2.60651e-12
2.50466e-13 2.60651e-12 427.22

400.861 -32.8331 -3.53791e-12
-32.8331 414.952 8.56796e-13
-3.53791e-12 8.56796e-13 385.163

518.095 -2.30072 -2.60828e-13
-2.30072 465.737 1.10223e-12
-2.60828e-13 1.10223e-12 500.925

391.87 -34.5079 8.91731e-13
-34.5079 379.604 -7.4607e-14
8.91731e-13 -7.4607e-14 347.415

478 19.0861 -3.49054e-13
19.0861 509.2 -2.17041e-12
-3.49054e-13 -2.17041e-12 501.844

506.112 -26.4787 1.88886e-12
-26.4787 470.247 1.7734e-13
1.88886e-12 1.7734e-13 487.272

424.999 -9.69016 1.58096e-12
-9.69016 366.729 -3.57669e-12
1.58096e-12 -3.57669e-12 355.98

530.266 -23.1919 -3.35199e-12
-23.1919 488.757 -2.93513e-12
-3.35199e-12 -2.93513e-12 506.489

500.892 2.35827 -1.12828e-12
2.35827 444.576 -1.30222e-12
-1.12828e-12 -1.30222e-12 489.205

521.192 -23.3214 -2.26782e-12
-23.3214 501.842 -5.79981e-12
-2.26782e-12 -5.79981e-12 508.534

502.016 -25.8594 -4.73932e-12
-25.8594 461.491 2.28114e-12
-4.73932e-12 2.28114e-12 481.244

498.827 -8.5461 -2.55855e-12
-8.5461 445.136 3.0879e-13
-2.55855e-12 3.0879e-13 479.344

482.22 -23.0681 2.52983e-12
-23.0681 504.993 -9.12862e-13
2.52983e-12 -9.12862e-13 502.535

428.539 -31.3416 1.19845e-12
-31.3416 410.587 -1.66326e-12
1.19845e-12 -1.66326e-12 398.997

503.268 -24.5872 -3.81265e-12
-24.5872 464.713 8.55908e-13
-3.81265e-12 8.55908e-13 482.16

441.24 10.8644 -1.57148e-12
10.8644 378.48 6.18764e-12
-1.57148e-12 6.18764e-12 387.797

500.038 26.3402 3.95299e-12
26.3402 498.584 -1.87554e-13
3.95299e-12 -1.87554e-13 500.105

463.75 -37.6129 -8.06762e-13
-37.6129 488.389 -4.05206e-12
-8.06762e-13 -4.05206e-12 494.083

464.858 37.2652 2.4721e-13
37.2652 487.301 6.78346e-12
2.4721e-13 6.78346e-12 493.798

446.327 -28.5734 5.02191e-13
-28.5734 500.015 1.07558e-12
5.02191e-13 1.07558e-12 492.312

448.561 27.0641 -2.90434e-13
27.0641 500.706 2.10706e-12
-2.90434e-13 2.10706e-12 492.499

513.07 -8.52763 2.37736e-13
-8.52763 436.405 -1.47556e-12
2.37736e-13 -1.47556e-12 492.76

511.232 9.27363 1.77961e-12
9.27363 438.002 5.60737e-13
1.77961e-12 5.60737e-13 492.397

501.656 -9.84616 2.43657e-13
-9.84616 451.742 -2.85298e-12
2.43657e-13 -2.85298e-12 483.02

510.865 32.1161 -1.01696e-12
32.1161 510.391 1.22918e-12
-1.01696e-12 1.22918e-12 514.055

509.641 -32.8542 2.34479e-13
-32.8542 510.068 1.64632e-12
2.34479e-13 1.64632e-12 513.695

481.81 16.0685 -1.28564e-12
16.0685 539.132 1.12621e-12
-1.28564e-12 1.12621e-12 514.327

483.004 -15.801 8.43769e-14
-15.801 538.721 1.41901e-12
8.43769e-14 1.41901e-12 514.348

556.87 -3.74765 2.10247e-12
-3.74765 506.833 2.91648e-12
2.10247e-12 2.91648e-12 524.993

558.425 3.61041 -3.35361e-12
3.61041 505.158 -2.3815e-12
-3.35361e-12 -2.3815e-12 525.365

387.307 9.83682 -1.35469e-12
9.83682 449.195 -2.34716e-12
-1.35469e-12 -2.34716e-12 397.085

472.387 -24.7741 -6.19949e-13
-24.7741 480.753 2.54063e-12
-6.19949e-13 2.54063e-12 484.976

443.46 -36.3875 1.46298e-12
-36.3875 485.531 -3.93226e-12
1.46298e-12 -3.93226e-12 486.627

473.64 -4.66427 -1.54306e-12
-4.66427 420.435 2.03541e-14
-1.54306e-12 2.03541e-14 436.337

540.254 -16.6947 3.18708e-13
-16.6947 484.192 -7.65906e-13
3.18708e-13 -7.65906e-13 515.288

540.974 16.1757 5.66954e-13
16.1757 485.415 -4.01634e-12
5.66954e-13 -4.01634e-12 515.894

506.86 0.121882 -3.40468e-12
0.121882 423.55 -9.07618e-13
-3.40468e-12 -9.07618e-13 487.001

384.79 23.3751 2.80724e-12
23.3751 432.295 -2.54256e-12
2.80724e-12 -2.54256e-12 385.474

442.332 36.1715 3.32623e-12
36.1715 485.21 3.22734e-12
3.32623e-12 3.22734e-12 485.832

452.595 -23.3958 -2.37736e-12
-23.3958 494.952 -6.78864e-13
-2.37736e-12 -6.78864e-13 483.589

443.246 23.3527 1.98952e-13
23.3527 397.516 -3.45501e-12
1.98952e-13 -3.45501e-12 400.371

530.969 23.8582 -5.17512e-13
23.8582 488.007 4.31744e-12
-5.17512e-13 4.31744e-12 507.247

428.477 -31.3134 2.18729e-12
-31.3134 410.872 -1.00779e-12
2.18729e-12 -1.00779e-12 398.815

519.858 -3.23097 9.10975e-13
-3.23097 469.058 -1.525e-12
9.10975e-13 -1.525e-12 502.685

439.394 -34.161 4.78765e-12
-34.161 485.502 1.22361e-12
4.78765e-12 1.22361e-12 485.821

389.181 8.31993 3.00883e-12
8.31993 452.326 6.91121e-12
3.00883e-12 6.91121e-12 400.853

385.877 21.8115 6.48933e-12
21.8115 435.771 5.29354e-12
6.48933e-12 5.29354e-12 388.692

383.845 35.7757 4.06549e-12
35.7757 362.329 -3.19744e-14
4.06549e-12 -3.19744e-14 318.326

408.18 1.57875 -3.65337e-12
1.57875 332.153 2.97029e-12
-3.65337e-12 2.97029e-12 327.322

485.454 -22.8045 1.65231e-12
-22.8045 502.857 -8.53762e-13
1.65231e-12 -8.53762e-13 501.747

351.876 31.1837 -2.68822e-13
31.1837 388.829 -9.80312e-12
-2.68822e-13 -9.80312e-12 312.355

451.347 23.6099 3.42807e-12
23.6099 478.41 -1.03029e-12
3.42807e-12 -1.03029e-12 465.21

442.194 -5.34952 1.95873e-12
-5.34952 377.124 9.71667e-13
1.95873e-12 9.71667e-13 387.735

464.153 11.216 1.73372e-12
11.216 407.297 3.30314e-12
1.73372e-12 3.30314e-12 424.92

505.376 0.429904 1.21873e-12
0.429904 421.569 1.71524e-12
1.21873e-12 1.71524e-12 485.672

449.347 -29.0311 2.81508e-12
-29.0311 501.995 2.58756e-12
2.81508e-12 2.58756e-12 493.586

572.508 -6.31894 -2.49208e-13
-6.31894 589.482 -4.93235e-13
-2.49208e-13 -4.93235e-13 549.251

463.137 37.4116 5.0863e-13
37.4116 487.024 8.09834e-13
5.0863e-13 8.09834e-13 493.062

408.735 1.66328 -4.82932e-12
1.66328 331.6 -6.1291e-12
-4.82932e-12 -6.1291e-12 308.902

404.231 -32.7868 8.65086e-13
-32.7868 415.506 -5.29591e-12
8.65086e-13 -5.29591e-12 387.387

443.138 36.613 2.31844e-12
36.613 485.503 -1.87983e-12
2.31844e-12 -1.87983e-12 486.569

444.676 -11.1338 -5.77927e-13
-11.1338 498.932 1.48089e-12
-5.77927e-13 1.48089e-12 471.439

386.07 -25.5144 6.41857e-13
-25.5144 428.898 9.59233e-14
6.41857e-13 9.59233e-14 384.561

449.447 28.8301 -8.96394e-13
28.8301 501.628 -1.61589e-12
-8.96394e-13 -1.61589e-12 493.285

452.708 -26.1417 5.89514e-12
-26.1417 419.3 -6.21133e-13
5.89514e-12 -6.21133e-13 419.515

579.55 10.4834 -9.81141e-13
10.4834 582.162 -3.33267e-12
-9.81141e-13 -3.33267e-12 549.036

398.326 30.8718 -1.33049e-12
30.8718 422.055 -1.96702e-12
-1.33049e-12 -1.96702e-12 388.16

515.704 8.12672 -2.83921e-13
8.12672 437.265 5.93155e-13
-2.83921e-13 5.93155e-13 494.579

493.803 30.1906 3.0657e-12
30.1906 484.745 -4.57501e-12
3.0657e-12 -4.57501e-12 493.799

453.462 23.3319 -4.98431e-12
23.3319 479.16 1.41516e-13
-4.98431e-12 1.41516e-13 475.796

510.699 -32.4888 2.57305e-12
-32.4888 512.45 -1.92126e-12
2.57305e-12 -1.92126e-12 515.004

510.306 -23.1902 5.35157e-12
-23.1902 473.178 8.02321e-13
5.35157e-12 8.02321e-13 489.675

511.399 10.4707 1.04646e-12
10.4707 557.989 4.54866e-12
1.04646e-12 4.54866e-12 523.729

452.17 -23.4337 2.36226e-12
-23.4337 480.163 2.0061e-12
2.36226e-12 2.0061e-12 468.947

394.407 -9.70775 7.10543e-15
-9.70775 316.411 7.53323e-13
7.10543e-15 7.53323e-13 295.573

387.287 -14.2771 4.16378e-12
-14.2771 306.057 2.64973e-12
4.16378e-12 2.64973e-12 290.048

547.581 16.5294 -4.03677e-12
16.5294 507.761 -5.70743e-12
-4.03677e-12 -5.70743e-12 519.317

436.484 22.5016 -3.24274e-12
22.5016 469.133 1.76392e-12
-3.24274e-12 1.76392e-12 447.82

475.96 29.1631 -1.28667e-12
29.1631 467.642 1.05101e-13
-1.28667e-12 1.05101e-13 471.476

450.298 0.688668 2.66335e-12
0.688668 392.774 6.30505e-13
2.66335e-12 6.30505e-13 395.671

478.348 6.57118 -7.11089e-13
6.57118 541.276 6.41265e-13
-7.11089e-13 6.41265e-13 507.537

507.328 16.5408 -5.73467e-12
16.5408 461.132 -4.0418e-12
-5.73467e-12 -4.0418e-12 488.077

389.974 -25.7609 2.41229e-12
-25.7609 430.033 3.5835e-12
2.41229e-12 3.5835e-12 387.731

456.316 -2.5724 -1.36267e-12
-2.5724 517.011 -5.68316e-12
-1.36267e-12 -5.68316e-12 484.837

400.586 13.3651 -5.71691e-13
13.3651 452.982 -8.25414e-13
-5.71691e-13 -8.25414e-13 404.633

486.91 -29.7132 4.6659e-13
-29.7132 465.811 1.03562e-12
4.6659e-13 1.03562e-12 474.255

430.295 -29.9473 7.50748e-12
-29.9473 423.625 -1.93327e-12
7.50748e-12 -1.93327e-12 404.952

399.708 31.6226 -2.43894e-12
31.6226 418.229 1.01726e-12
-2.43894e-12 1.01726e-12 385.999

623.999 -15.0201 -9.47982e-13
-15.0201 581.946 5.88714e-13
-9.47982e-13 5.88714e-13 557.902

494.519 2.0413 3.4015e-12
2.0413 552.14 4.22358e-12
3.4015e-12 4.22358e-12 517.922

483.499 20.3001 1.24656e-12
20.3001 542.039 -1.15611e-12
1.24656e-12 -1.15611e-12 516.028

544.703 15.439 -2.93765e-12
15.439 479.967 -8.89067e-13
-2.93765e-12 -8.89067e-13 515.75

473.745 -26.1886 -4.06638e-12
-26.1886 479.753 3.07043e-12
-4.06638e-12 3.07043e-12 483.014

452.122 17.9572 -1.44951e-12
17.9572 404.505 -3.64568e-12
-1.44951e-12 -3.64568e-12 406.914

531.577 -5.29406 1.39733e-12
-5.29406 580.798 4.79735e-12
1.39733e-12 4.79735e-12 537.115

512.184 -18.9881 -3.6738e-12
-18.9881 464.79 -5.56592e-13
-3.6738e-12 -5.56592e-13 493.025

473.972 -15.5988 1.27602e-12
-15.5988 423.173 -1.47082e-12
1.27602e-12 -1.47082e-12 438.876

401.997 11.6031 3.39136e-12
11.6031 455.954 8.06111e-12
3.39136e-12 8.06111e-12 407.776

410.92 -25.734 6.43041e-13
-25.734 435.577 -1.69938e-12
6.43041e-13 -1.69938e-12 398.953

532.045 -25.2738 -9.15416e-13
-25.2738 523.19 -1.32117e-12
-9.15416e-13 -1.32117e-12 519.115

423.053 31.9593 1.32635e-12
31.9593 417.245 4.92051e-13
1.32635e-12 4.92051e-13 400.302

535.479 -25.1347 -4.21085e-12
-25.1347 505.785 2.62634e-12
-4.21085e-12 2.62634e-12 515.656

453.49 2.59735 1.75267e-13
2.59735 397.016 2.59052e-15
1.75267e-13 2.59052e-15 401.894

311.097 -28.9303 5.54815e-13
-28.9303 376.594 1.63662e-12
5.54815e-13 1.63662e-12 289.993

431.872 -29.2307 -5.75184e-12
-29.2307 424.044 -3.46449e-12
-5.75184e-12 -3.46449e-12 406.151

353.759 32.1587 9.59233e-14
32.1587 392.542 2.76638e-12
9.59233e-14 2.76638e-12 312.966

470.343 -11.8769 -1.40863e-12
-11.8769 529.549 3.03106e-12
-1.40863e-12 3.03106e-12 500.3

391.447 -13.8212 -7.03955e-12
-13.8212 449.25 6.59621e-13
-7.03955e-12 6.59621e-13 400.195

602.852 -23.988 -7.11179e-12
-23.988 602.265 -2.27522e-13
-7.11179e-12 -2.27522e-13 557.842

408.368 23.7706 -2.34657e-12
23.7706 441.936 5.95198e-12
-2.34657e-12 5.95198e-12 402.219

496.574 -32.7263 -4.67922e-12
-32.7263 490.637 -2.29624e-12
-4.67922e-12 -2.29624e-12 497.444

388.187 -11.963 1.22347e-12
-11.963 448.282 2.29505e-12
1.22347e-12 2.29505e-12 397.013

516.708 -19.1169 -1.08654e-13
-19.1169 465.75 -7.53767e-13
-1.08654e-13 -7.53767e-13 496.24

410.683 23.8769 -3.81147e-12
23.8769 439.309 -1.58096e-12
-3.81147e-12 -1.58096e-12 400.696

488.917 -4.97547 1.1422e-12
-4.97547 435.068 2.12349e-13
1.1422e-12 2.12349e-13 460.38

305.78 -30.3425 2.76164e-12
-30.3425 391.436 -5.23433e-12
2.76164e-12 -5.23433e-12 262.568

438.607 21.0139 -4.56257e-12
21.0139 473.91 2.99731e-12
-4.56257e-12 2.99731e-12 458.346

445.685 -19.3231 1.48503e-12
-19.3231 393.975 -1.71655e-12
1.48503e-12 -1.71655e-12 399.621

551.602 -21.4459 -6.03665e-13
-21.4459 499.515 1.91402e-12
-6.03665e-13 1.91402e-12 520.102

424.469 31.7538 3.61429e-12
31.7538 413.321 1.7284e-12
3.61429e-12 1.7284e-12 397.958

459.161 -29.9716 7.81597e-13
-29.9716 437.637 4.11345e-12
7.81597e-13 4.11345e-12 439.299

510.619 20.8852 2.28558e-12
20.8852 476.072 3.93433e-12
2.28558e-12 3.93433e-12 492.755

461.504 -28.0758 -2.38535e-12
-28.0758 485.74 -1.36313e-12
-2.38535e-12 -1.36313e-12 488.717

413.72 -26.225 4.10812e-12
-26.225 436.244 -1.68517e-12
4.10812e-12 -1.68517e-12 401.439

426.075 28.9809 2.2311e-12
28.9809 429.897 -2.45137e-13
2.2311e-12 -2.45137e-13 406.861

452.501 26.1911 1.04189e-11
26.1911 418.228 7.41925e-13
1.04189e-11 7.41925e-13 419.059

521.97 -14.61 1.04095e-12
-14.61 477.178 3.94055e-13
1.04095e-12 3.94055e-13 500.064

403.561 -16.6174 3.34547e-12
-16.6174 451.743 1.75267e-12
3.34547e-12 1.75267e-12 406.443

496.047 -17.5682 9.81141e-13
-17.5682 447.607 -4.48175e-12
9.81141e-13 -4.48175e-12 471.501

487.765 16.9084 3.89733e-12
16.9084 436.259 -2.59496e-12
3.89733e-12 -2.59496e-12 460.589

513.343 -9.38681 -1.19952e-12
-9.38681 555.779 -2.49874e-13
-1.19952e-12 -2.49874e-13 523.03

453.979 -13.4299 -6.4541e-13
-13.4299 402.179 -7.10395e-13
-6.4541e-13 -7.10395e-13 406.744

403.203 0.594023 -3.94026e-12
0.594023 465.726 -2.00136e-12
-3.94026e-12 -2.00136e-12 417.806

475.027 18.5549 -7.13444e-12
18.5549 428.773 9.56272e-14
-7.13444e-12 9.56272e-14 442.222

451.143 27.6038 1.14042e-12
27.6038 421.84 6.83305e-13
1.14042e-12 6.83305e-13 420.844

400.87 -15.686 1.27187e-12
-15.686 451.383 3.29218e-12
1.27187e-12 3.29218e-12 403.737

406.001 -1.20229 6.35847e-12
-1.20229 468.035 1.73846e-12
6.35847e-12 1.73846e-12 421.221

516.201 29.1343 -2.30334e-12
29.1343 498.027 -3.91864e-12
-2.30334e-12 -3.91864e-12 504.877

441.706 -10.922 -4.14291e-12
-10.922 500.659 -1.01134e-12
-4.14291e-12 -1.01134e-12 471.149

451.441 -26.7151 -7.2274e-12
-26.7151 418.767 -1.81188e-12
-7.2274e-12 -1.81188e-12 419.354

444.388 21.3324 4.79498e-12
21.3324 395.299 -3.57166e-12
4.79498e-12 -3.57166e-12 398.202

497.596 23.6653 -5.86198e-14
23.6653 458.092 -5.34447e-12
-5.86198e-14 -5.34447e-12 476.552

447.684 5.47075 -1.65497e-12
5.47075 508.792 -4.22181e-13
-1.65497e-12 -4.22181e-13 476.883

427.651 29.0653 1.06345e-12
29.0653 426.436 1.30858e-13
1.06345e-12 1.30858e-13 405.111

536.823 22.9638 -3.58528e-12
22.9638 531.899 -7.53175e-13
-3.58528e-12 -7.53175e-13 522.786

314.751 -59.6914 -2.75217e-12
-59.6914 282.77 3.47692e-12
-2.75217e-12 3.47692e-12 223.424

480.596 -25.0476 3.27442e-13
-25.0476 445.073 6.46594e-12
3.27442e-13 6.46594e-12 456.648

336.665 7.06986 -2.9227e-12
7.06986 409.156 -1.58925e-12
-2.9227e-12 -1.58925e-12 319.441

460.54 -28.8891 -2.58105e-12
-28.8891 444.738 -1.77932e-12
-2.58105e-12 -1.77932e-12 443.454

96.4242 -52.7011 -2.69059e-12
-52.7011 306.619 -1.00897e-12
-2.69059e-12 -1.00897e-12 113.7

95.9581 51.4517 9.35548e-13
51.4517 306.883 -6.44699e-12
9.35548e-13 -6.44699e-12 114.488

181.518 117.154 -4.7559e-12
117.154 226.077 -2.79006e-12
-4.7559e-12 -2.79006e-12 113.588

182.815 -117.097 8.69231e-13
-117.097 223.313 4.358e-13
8.69231e-13 4.358e-13 113.562

321.584 -1.36336 5.68434e-13
-1.36336 84.6537 -1.24634e-14
5.68434e-13 -1.24634e-14 114.929

274.434 -91.1256 -4.55695e-12
-91.1256 127.419 1.84978e-12
-4.55695e-12 1.84978e-12 113.802

275.13 91.6535 4.23957e-12
91.6535 128.251 1.8782e-12
4.23957e-12 1.8782e-12 114.573

525.242 14.3303 7.56728e-13
14.3303 474.713 1.40717e-12
7.56728e-13 1.40717e-12 502.316

556.799 25.5365 3.23948e-12
25.5365 541.185 3.87246e-13
3.23948e-12 3.87246e-13 533.451

492.094 6.60602 -4.64813e-12
6.60602 439.122 -1.063e-12
-4.64813e-12 -1.063e-12 471.404

470.301 21.7845 -1.48444e-12
21.7845 424.518 -1.96406e-12
-1.48444e-12 -1.96406e-12 438.196

409.977 17.7443 -3.43177e-12
17.7443 461.075 4.36273e-12
-3.43177e-12 4.36273e-12 425.044

448.012 28.8984 1.1949e-12
28.8984 424.707 1.45898e-12
1.1949e-12 1.45898e-12 420.751

487.151 -29.6634 -4.95367e-12
-29.6634 465.629 -4.0048e-12
-4.95367e-12 -4.0048e-12 474.591

449.369 28.0277 6.3635e-12
28.0277 421.073 8.17716e-13
6.3635e-12 8.17716e-13 418.643

402.965 -2.84124 -2.70524e-12
-2.84124 465.383 -1.36069e-12
-2.70524e-12 -1.36069e-12 417.542

555.805 -26.0974 -4.97084e-13
-26.0974 543.378 -3.11262e-12
-4.97084e-13 -3.11262e-12 533.695

405.503 -4.86237 -4.78935e-12
-4.86237 467.121 -7.67386e-13
-4.78935e-12 -7.67386e-13 420.601

522.294 23.0162 -4.3426e-12
23.0162 499.744 2.19247e-12
-4.3426e-12 2.19247e-12 507.971

423.379 26.8706 5.7554e-13
26.8706 386.508 -3.86002e-12
5.7554e-13 -3.86002e-12 373.028

480.111 -13.2161 1.59206e-12
-13.2161 532.77 -1.16914e-12
1.59206e-12 -1.16914e-12 512.003

484.199 13.7279 2.12571e-13
13.7279 432.778 -1.25233e-13
2.12571e-13 -1.25233e-13 456.876

457.37 -29.9875 -3.0879e-12
-29.9875 436.978 -6.48962e-12
-3.0879e-12 -6.48962e-12 437.834

454.31 -24.7134 -1.47911e-12
-24.7134 416.806 3.72798e-12
-1.47911e-12 3.72798e-12 419.854

547.406 -16.0747 -1.99041e-12
-16.0747 509.307 2.60147e-12
-1.99041e-12 2.60147e-12 519.386

475.974 27.9288 -5.74296e-12
27.9288 449.707 -3.93167e-13
-5.74296e-12 -3.93167e-13 456.927

469.102 23.9774 -1.43293e-12
23.9774 427.851 7.66794e-14
-1.43293e-12 7.66794e-14 439.831

432.43 -2.79294 2.98817e-12
-2.79294 493.638 1.40155e-12
2.98817e-12 1.40155e-12 457.109

417.609 5.87334 6.95406e-12
5.87334 479.559 -2.51295e-12
6.95406e-12 -2.51295e-12 440.179

463.013 2.6467 -1.04035e-12
2.6467 402.281 3.48606e-12
-1.04035e-12 3.48606e-12 422.323

438.649 -7.28963 2.92507e-13
-7.28963 373.916 -7.09151e-12
2.92507e-13 -7.09151e-12 381.22

454.845 30.4846 1.32043e-12
30.4846 439.017 -4.47464e-12
1.32043e-12 -4.47464e-12 437.838

478.467 -26.1553 1.91965e-12
-26.1553 443.545 -1.84652e-12
1.91965e-12 -1.84652e-12 454.648

525.702 -21.2543 1.47822e-12
-21.2543 497.831 -1.16381e-12
1.47822e-12 -1.16381e-12 508.62

437.734 -31.6335 -6.03073e-12
-31.6335 437.657 -2.74743e-12
-6.03073e-12 -2.74743e-12 426.861

417.592 -27.7854 -5.01702e-12
-27.7854 444.397 -2.4715e-12
-5.01702e-12 -2.4715e-12 419.689

430.648 29.8871 2.65092e-12
29.8871 442.746 2.72967e-12
2.65092e-12 2.72967e-12 426.499

416.227 -9.57789 -6.73831e-13
-9.57789 475.213 -6.50147e-13
-6.73831e-13 -6.50147e-13 436.456

428.897 -1.54479 3.75611e-12
-1.54479 491.87 1.49806e-12
3.75611e-12 1.49806e-12 453.996

445.183 5.74793 1.30893e-12
5.74793 508.045 -1.51286e-12
1.30893e-12 -1.51286e-12 474.916

414.62 -21.089 1.98982e-12
-21.089 458.409 2.17841e-12
1.98982e-12 2.17841e-12 426.067

496.871 24.1111 -1.51168e-12
24.1111 455.698 -1.48918e-13
-1.51168e-12 -1.48918e-13 474.595

483.375 -9.58974 -2.63197e-12
-9.58974 430.114 -1.44877e-12
-2.63197e-12 -1.44877e-12 455.222

415.635 7.46526 7.7229e-13
7.46526 477.123 3.2833e-12
7.7229e-13 3.2833e-12 436.915

443.956 -9.70109 3.67868e-12
-9.70109 501.505 -1.22746e-12
3.67868e-12 -1.22746e-12 471.009

433.175 -16.3306 -4.06504e-12
-16.3306 481.677 2.94934e-12
-4.06504e-12 2.94934e-12 455.67

463.541 -8.23919 -7.08174e-13
-8.23919 406.337 -2.11386e-12
-7.08174e-13 -2.11386e-12 421.472

494.435 -32.3468 1.10489e-12
-32.3468 487.618 -1.68014e-12
1.10489e-12 -1.68014e-12 496.252

422.946 9.32086 4.34023e-13
9.32086 479.093 2.65447e-12
4.34023e-13 2.65447e-12 440.981

564.36 -18.2126 2.72316e-12
-18.2126 529.953 -1.03088e-12
2.72316e-12 -1.03088e-12 531.833

309.05 24.8227 -3.47219e-12
24.8227 379.424 4.01457e-12
-3.47219e-12 4.01457e-12 289.799

501.7 -26.6262 1.00897e-12
-26.6262 499.492 3.28596e-12
1.00897e-12 3.28596e-12 501.202

515.651 -30.2028 -1.57563e-12
-30.2028 498.406 -1.56912e-13
-1.57563e-12 -1.56912e-13 504.921

429.225 -0.701278 2.94209e-12
-0.701278 491.995 3.37981e-12
2.94209e-12 3.37981e-12 454.147

474.883 -16.6226 -2.46795e-12
-16.6226 428.339 1.83527e-12
-2.46795e-12 1.83527e-12 441.958

462.307 12.8416 1.9324e-12
12.8416 511.277 2.4715e-12
1.9324e-12 2.4715e-12 489.123

240.777 -3.18055 -4.82577e-12
-3.18055 360.689 -6.44225e-12
-4.82577e-12 -6.44225e-12 226.967

432.406 14.2737 1.28024e-12
14.2737 485.359 2.6071e-12
1.28024e-12 2.6071e-12 456.884

458.114 -29.4892 1.87998e-12
-29.4892 443.172 1.71714e-12
1.87998e-12 1.71714e-12 440.764

304.188 25.1057 -3.83871e-12
25.1057 394.586 4.63748e-12
-3.83871e-12 4.63748e-12 264.342

603.552 26.0979 -7.30764e-12
26.0979 597.957 7.99464e-12
-7.30764e-12 7.99464e-12 558.159

608.286 -27.8072 4.17325e-12
-27.8072 595.032 1.54287e-11
4.17325e-12 1.54287e-11 558.293

463.496 -30.4191 1.05871e-12
-30.4191 459.041 -5.53602e-12
1.05871e-12 -5.53602e-12 459.075

434.586 -31.1602 5.44098e-12
-31.1602 436.362 3.40468e-13
5.44098e-12 3.40468e-13 424.664

474.103 20.8275 3.12816e-12
20.8275 431.917 -3.78157e-12
3.12816e-12 -3.78157e-12 443.975

465.224 15.0061 -5.3646e-13
15.0061 410.119 -3.45945e-12
-5.3646e-13 -3.45945e-12 427.465

646.07 3.08347 -4.41447e-12
3.08347 645.729 9.5628e-12
-4.41447e-12 9.5628e-12 574.621

649.891 -7 8.03846e-12
-7 641.399 -2.04992e-12
8.03846e-12 -2.04992e-12 575.15

496.991 4.8243 1.79471e-12
4.8243 442.037 -6.394e-12
1.79471e-12 -6.394e-12 477.415

443.56 6.73101 2.44693e-12
6.73101 502.991 -9.97128e-13
2.44693e-12 -9.97128e-13 471.053

441.974 6.73633 3.5724e-13
6.73633 502.517 -2.3815e-12
3.5724e-13 -2.3815e-12 469.776

321.537 58.6344 6.33094e-12
58.6344 281.124 -7.21438e-12
6.33094e-12 -7.21438e-12 225.078

420.23 -28.1998 1.03739e-12
-28.1998 444.026 5.41789e-12
1.03739e-12 5.41789e-12 421.034

520.581 17.9745 2.0961e-13
17.9745 467.533 -2.13044e-12
2.0961e-13 -2.13044e-12 499.512

472.982 9.53975 -2.59111e-12
9.53975 421.199 7.87962e-13
-2.59111e-12 7.87962e-13 436.205

440.632 -26.7233 4.12707e-13
-26.7233 450.728 -1.09187e-12
4.12707e-13 -1.09187e-12 433.418

469.279 -20.2377 1.2926e-12
-20.2377 422.719 3.3505e-12
1.2926e-12 3.3505e-12 437.179

312.474 60.2323 1.66504e-12
60.2323 281.373 -1.26015e-11
1.66504e-12 -1.26015e-11 223.216

492.684 31.0691 -8.8433e-13
31.0691 489.045 -4.63629e-13
-8.8433e-13 -4.63629e-13 493.141

410.865 -19.7861 2.95053e-12
-19.7861 457.884 -8.31927e-13
2.95053e-12 -8.31927e-13 423.5

474.131 28.8577 1.84386e-12
28.8577 449.633 -3.28922e-12
1.84386e-12 -3.28922e-12 456.521

430.958 -4.14484 2.10942e-13
-4.14484 492.975 7.4607e-14
2.10942e-13 7.4607e-14 456.47

423.932 19.6092 -3.11751e-12
19.6092 465.714 1.3145e-13
-3.11751e-12 1.3145e-13 434.11

452.75 30.5188 6.22909e-13
30.5188 443.6 -3.27915e-12
6.22909e-13 -3.27915e-12 439.611

428.645 -22.4732 5.77316e-13
-22.4732 461.139 -9.43245e-13
5.77316e-13 -9.43245e-13 433.815

443.577 -27.3526 -2.40104e-12
-27.3526 450.435 4.36865e-12
-2.40104e-12 4.36865e-12 435.048

294.78 11.257 8.95861e-12
11.257 372.587 6.22199e-12
8.95861e-12 6.22199e-12 258.103

357.3 -33.4563 -5.1917e-12
-33.4563 389.119 3.12165e-12
-5.1917e-12 3.12165e-12 314.13

419.66 -11.6905 -1.35899e-12
-11.6905 476.363 -1.50576e-12
-1.35899e-12 -1.50576e-12 439.347

478.4 26.4846 -3.65574e-12
26.4846 446.801 -2.82855e-12
-3.65574e-12 -2.82855e-12 456.086

452.347 29.478 -4.73399e-12
29.478 449.029 2.30334e-12
-4.73399e-12 2.30334e-12 442.402

426.811 -21.4339 -5.13367e-13
-21.4339 461.786 -1.30029e-12
-5.13367e-13 -1.30029e-12 432.632

422.933 -11.7824 1.10519e-12
-11.7824 476.65 -1.23753e-12
1.10519e-12 -1.23753e-12 439.931

457.709 28.4096 2.84039e-12
28.4096 447.09 -1.52589e-12
2.84039e-12 -1.52589e-12 442.573

425.107 -13.8778 3.41978e-12
-13.8778 476.421 -2.01794e-12
3.41978e-12 -2.01794e-12 442.107

311.266 27.855 -1.18246e-12
27.855 377.393 -6.20304e-12
-1.18246e-12 -6.20304e-12 289.986

485.172 -4.04125 -1.19289e-12
-4.04125 545.052 -2.31637e-12
-1.19289e-12 -2.31637e-12 511.039

432.987 31.0276 4.51787e-13
31.0276 439.631 3.90799e-14
4.51787e-13 3.90799e-14 426.021

509.312 14.9012 -5.004e-12
14.9012 463.164 -4.07141e-12
-5.004e-12 -4.07141e-12 488.608

516.923 -15.9275 4.65702e-13
-15.9275 467.584 2.07064e-12
4.65702e-13 2.07064e-12 493.926

383.927 -24.2046 -2.75217e-12
-24.2046 305.949 5.65237e-12
-2.75217e-12 5.65237e-12 285.356

442.281 -21.2673 -6.0485e-13
-21.2673 476.002 -2.0061e-12
-6.0485e-13 -2.0061e-12 459.323

447.83 26.6983 -4.91222e-12
26.6983 466.209 -2.62901e-12
-4.91222e-12 -2.62901e-12 457.843

522.977 -21.7278 -3.30402e-12
-21.7278 543.813 -3.80903e-12
-3.30402e-12 -3.80903e-12 525.311

579.585 14.1066 4.76078e-12
14.1066 617.622 -1.10933e-12
4.76078e-12 -1.10933e-12 557.054

620.209 9.44533 -5.57125e-12
9.44533 576.843 6.7768e-13
-5.57125e-12 6.7768e-13 556.873

523.472 32.7055 -2.95319e-12
32.7055 520.654 1.20851e-12
-2.95319e-12 1.20851e-12 519.527

414.893 26.0004 -3.90887e-12
26.0004 448.908 5.17216e-12
-3.90887e-12 5.17216e-12 420.378

478.098 26.6615 -6.67792e-12
26.6615 444.772 -4.71564e-12
-6.67792e-12 -4.71564e-12 455.51

332.364 45.1861 -4.67063e-12
45.1861 349.491 1.70412e-12
-4.67063e-12 1.70412e-12 286.741

571.392 -11.3436 -6.26195e-12
-11.3436 614.473 -1.91965e-12
-6.26195e-12 -1.91965e-12 554.597

641.327 -3.43289 6.83655e-12
-3.43289 636.871 -2.39808e-14
6.83655e-12 -2.39808e-14 572.398

634.905 -0.209998 -1.22865e-14
-0.209998 643.178 3.5203e-12
-1.22865e-14 3.5203e-12 572.224

272.965 -53.8026 4.09746e-12
-53.8026 316.448 -7.28543e-12
4.09746e-12 -7.28543e-12 220.91

566.64 -11.6 2.89102e-13
-11.6 562.127 -3.18501e-12
2.89102e-13 -3.18501e-12 540.9

563.773 8.81297 4.66841e-12
8.81297 586.964 4.10783e-12
4.66841e-12 4.10783e-12 546.842

478.246 -26.1995 6.2587e-12
-26.1995 440.444 -2.29091e-12
6.2587e-12 -2.29091e-12 453.483

494.351 1.01103 -5.49446e-12
1.01103 545.761 -1.46905e-12
-5.49446e-12 -1.46905e-12 514.059

447.652 -20.2679 1.96258e-12
-20.2679 484.16 2.95645e-12
1.96258e-12 2.95645e-12 470.639

506.303 6.25533 5.14107e-12
6.25533 443.376 -2.60332e-12
5.14107e-12 -2.60332e-12 486.127

461.276 15.5963 2.47396e-12
15.5963 521.255 2.32466e-12
2.47396e-12 2.32466e-12 497.558

471.183 7.19159 1.48515e-12
7.19159 528.008 -4.718e-12
1.48515e-12 -4.718e-12 497.692

493.765 20.3928 4.83761e-13
20.3928 451.519 -1.3974e-13
4.83761e-13 -1.3974e-13 469.753

241.066 -3.1139 -1.65764e-12
-3.1139 358.561 1.89241e-12
-1.65764e-12 1.89241e-12 227.065

463.702 -27.6238 -4.54925e-12
-27.6238 463.393 1.69405e-12
-4.54925e-12 1.69405e-12 461.193

488.346 -26.1163 -5.57776e-12
-26.1163 481.6 -5.27696e-12
-5.57776e-12 -5.27696e-12 485.871

497.54 -31.4837 -1.5404e-12
-31.4837 489.96 1.26802e-12
-1.5404e-12 1.26802e-12 498.982

355.601 32.7496 -6.95148e-12
32.7496 285.78 -1.83409e-12
-6.95148e-12 -1.83409e-12 248.367

563.883 -20.1165 6.00705e-13
-20.1165 569.615 1.73232e-12
6.00705e-13 1.73232e-12 542.573

337.649 54.3223 -1.30266e-13
54.3223 356.659 1.42582e-11
-1.30266e-13 1.42582e-11 258.876

477.073 -21.4395 1.6905e-13
-21.4395 506.491 1.47467e-12
1.6905e-13 1.47467e-12 500.245

504.774 14.6504 -4.11582e-12
14.6504 451.989 -1.68606e-12
-4.11582e-12 -1.68606e-12 481.562

449.833 -14.5725 -1.01371e-12
-14.5725 396.988 8.20529e-13
-1.01371e-12 8.20529e-13 400.842

452.595 24.0467 -3.24777e-13
24.0467 478.781 1.40865e-12
-3.24777e-13 1.40865e-12 467.85

493.668 20.428 2.69177e-12
20.428 449.503 -1.88383e-12
2.69177e-12 -1.88383e-12 469.344

505.567 11.4005 4.61919e-12
11.4005 564.418 1.92883e-12
4.61919e-12 1.92883e-12 526.713

475.898 -31.5802 -1.79205e-12
-31.5802 470.358 2.92655e-12
-1.79205e-12 2.92655e-12 475.066

559.272 19.8124 3.77446e-12
19.8124 510.442 -2.80901e-12
3.77446e-12 -2.80901e-12 526.489

439.96 -18.4435 3.33215e-12
-18.4435 482.467 6.24212e-12
3.33215e-12 6.24212e-12 459.151

465.899 4.28319 8.7817e-13
4.28319 526.109 -4.55932e-14
8.7817e-13 -4.55932e-14 495.512

588.641 9.92678 -4.66086e-12
9.92678 552.463 2.12985e-12
-4.66086e-12 2.12985e-12 545.19

590.424 -8.5134 9.70809e-12
-8.5134 554.805 1.87213e-12
9.70809e-12 1.87213e-12 545.708

382.311 18.5124 -2.77349e-12
18.5124 302.288 2.01439e-12
-2.77349e-12 2.01439e-12 286.135

502.68 7.96503 -1.30562e-13
7.96503 453.602 -1.68754e-14
-1.30562e-13 -1.68754e-14 487.767

232.816 7.74048 9.74036e-13
7.74048 381.517 3.74693e-12
9.74036e-13 3.74693e-12 187.187

236.986 -11.3851 -4.39822e-12
-11.3851 387.21 -2.20742e-12
-4.39822e-12 -2.20742e-12 189.451

249.288 56.4067 -2.60532e-12
56.4067 354.778 3.43903e-12
-2.60532e-12 3.43903e-12 184.024

505.017 -28.9505 1.66385e-12
-28.9505 478.617 3.52577e-12
1.66385e-12 3.52577e-12 491.345

258.473 -49.1903 3.60956e-12
-49.1903 341.842 9.37916e-13
3.60956e-12 9.37916e-13 220.734

249.294 -55.9493 -8.06703e-12
-55.9493 344.753 -2.65743e-12
-8.06703e-12 -2.65743e-12 181.116

434.656 26.22 -3.13823e-13
26.22 454.394 2.43953e-13
-3.13823e-13 2.43953e-13 432.826

329.925 73.8435 6.36173e-12
73.8435 280.011 -1.7953e-12
6.36173e-12 -1.7953e-12 184.828

540.128 13.0473 -8.21239e-12
13.0473 554.948 5.15736e-13
-8.21239e-12 5.15736e-13 532.079

562.385 0.0394533 -3.07591e-12
0.0394533 532.455 -5.00696e-12
-3.07591e-12 -5.00696e-12 531.871

338.603 -73.129 -3.30639e-12
-73.129 279.859 3.50061e-12
-3.30639e-12 3.50061e-12 186.31

432.671 -23.4239 -1.33049e-12
-23.4239 466.312 -1.21207e-12
-1.33049e-12 -1.21207e-12 447.573

358.932 34.729 -7.04385e-12
34.729 310.976 8.40809e-13
-7.04385e-12 8.40809e-13 258.038

267.706 63.4905 -3.90562e-12
63.4905 345.211 -2.77585e-12
-3.90562e-12 -2.77585e-12 185.845

293.694 21.6301 9.04758e-12
21.6301 367.662 1.0895e-12
9.04758e-12 1.0895e-12 254.498

267.577 -65.9194 7.57912e-14
-65.9194 344.847 -8.47914e-13
7.57912e-14 -8.47914e-13 184.302

291.641 -12.381 4.5528e-12
-12.381 370.883 4.99748e-12
4.5528e-12 4.99748e-12 253.443

550.308 6.84168 -3.3995e-13
6.84168 582.079 2.42532e-12
-3.3995e-13 2.42532e-12 541.118

329.89 -45.9745 -2.58401e-12
-45.9745 341.816 1.0291e-12
-2.58401e-12 1.0291e-12 276.615

259.782 47.5316 3.01033e-12
47.5316 340.217 1.15037e-11
3.01033e-12 1.15037e-11 223.146

370.217 37.9112 4.13062e-12
37.9112 244.921 5.36874e-12
4.13062e-12 5.36874e-12 187.357

481.892 -29.2856 -3.48166e-13
-29.2856 460.513 3.31439e-12
-3.48166e-13 3.31439e-12 467.715

480.978 12.8967 3.99399e-12
12.8967 525.831 4.32543e-13
3.99399e-12 4.32543e-13 504.105

354.419 -38.1122 2.8398e-12
-38.1122 300.078 -8.26598e-13
2.8398e-12 -8.26598e-13 251.815

482.536 -28.8021 4.43852e-12
-28.8021 460.322 1.89034e-12
4.43852e-12 1.89034e-12 468.464

365.265 -36.3431 -9.23706e-13
-36.3431 230.989 2.7723e-12
-9.23706e-13 2.7723e-12 182.771

481.504 -28.3174 8.12979e-13
-28.3174 472.756 6.86088e-12
8.12979e-13 6.86088e-12 477.92

436.355 -25.2948 -3.2084e-12
-25.2948 466.225 4.51195e-13
-3.2084e-12 4.51195e-13 448.211

314.799 69.46 7.29491e-12
69.46 292.143 -1.25316e-11
7.29491e-12 -1.25316e-11 184.524

290.783 -22.9326 9.33179e-13
-22.9326 359.165 1.92794e-12
9.33179e-13 1.92794e-12 247.03

312.401 -71.692 -8.00545e-13
-71.692 288.123 1.89478e-14
-8.00545e-13 1.89478e-14 182.027

268.547 50.737 -4.88972e-12
50.737 320.06 -8.83441e-13
-4.88972e-12 -8.83441e-13 221.505

459.863 -30.2121 1.76629e-12
-30.2121 454.847 6.65186e-12
1.76629e-12 6.65186e-12 454.401

559.288 -14.6403 -3.1406e-12
-14.6403 544.413 -6.23205e-12
-3.1406e-12 -6.23205e-12 533.718

635.923 11.0925 2.27618e-12
11.0925 631.384 -3.95077e-12
2.27618e-12 -3.95077e-12 570.02

619.958 -5.16001 -5.30094e-13
-5.16001 639.739 -9.06812e-12
-5.30094e-13 -9.06812e-12 568.498

453.871 13.0836 7.34875e-13
13.0836 506.556 -1.95991e-12
7.34875e-13 -1.95991e-12 482.573

634.152 -10.6669 -2.60629e-12
-10.6669 631.314 -1.41072e-13
-2.60629e-12 -1.41072e-13 569.875

622.696 4.09176 1.19608e-13
4.09176 642.685 4.27436e-13
1.19608e-13 4.27436e-13 569.7

643.375 7.43399 5.14389e-12
7.43399 619.148 -1.91462e-12
5.14389e-12 -1.91462e-12 569.022

584.777 -12.1151 5.08045e-12
-12.1151 631.668 2.04488e-12
5.08045e-12 2.04488e-12 560.594

307.445 -30.4699 3.63739e-12
-30.4699 371.634 9.80549e-13
3.63739e-12 9.80549e-13 280.77

589.627 -12.9721 -3.64597e-12
-12.9721 549.114 -3.06244e-12
-3.64597e-12 -3.06244e-12 543.828

527.208 -34.4177 -1.54839e-12
-34.4177 521.488 -3.21669e-12
-1.54839e-12 -3.21669e-12 519.966

565.465 -18.1768 2.87089e-12
-18.1768 537.991 -2.13326e-12
2.87089e-12 -2.13326e-12 534.259

502.571 15.4592 5.08689e-12
15.4592 452.117 -1.20615e-12
5.08689e-12 -1.20615e-12 480.208

586.35 9.86418 9.35733e-13
9.86418 642.136 -3.79119e-12
9.35733e-13 -3.79119e-12 563.104

636.658 19.2275 5.70699e-12
19.2275 591.724 4.18743e-12
5.70699e-12 4.18743e-12 562.926

569.777 11.3064 2.76697e-12
11.3064 544.34 8.13571e-13
2.76697e-12 8.13571e-13 536.437

353.443 -15.3393 7.13385e-12
-15.3393 231.516 4.36806e-12
7.13385e-12 4.36806e-12 219.015

437.207 24.964 -1.88916e-12
24.964 461.914 -4.04832e-12
-1.88916e-12 -4.04832e-12 445.723

317.091 -61.3545 -3.50534e-13
-61.3545 277.849 -5.24617e-12
-3.50534e-13 -5.24617e-12 218.089

334.209 -57.4571 -1.18424e-14
-57.4571 357.324 4.37221e-12
-1.18424e-14 4.37221e-12 252.54

383.335 -36.544 5.73171e-12
-36.544 305.74 7.87281e-12
5.73171e-12 7.87281e-12 257.76

562.497 -5.15895 1.9534e-12
-5.15895 616.952 1.1308e-12
1.9534e-12 1.1308e-12 552.951

562.204 2.89124 1.72647e-12
2.89124 615.818 -1.75534e-12
1.72647e-12 -1.75534e-12 552.55

598.771 -24.4562 5.76724e-12
-24.4562 575.743 -1.83128e-12
5.76724e-12 -1.83128e-12 551.579

602.33 -21.7604 -5.50722e-12
-21.7604 573.434 -1.90396e-12
-5.50722e-12 -1.90396e-12 551.846

598.784 26.1359 -6.82417e-13
26.1359 580.459 -3.03246e-12
-6.82417e-13 -3.03246e-12 552.735

625.742 3.09939 -4.34334e-12
3.09939 630.735 -7.37125e-12
-4.34334e-12 -7.37125e-12 568.421

599.06 -20.5088 1.05397e-13
-20.5088 576.355 -1.251e-12
1.05397e-13 -1.251e-12 552.268

607.811 -18.5682 -4.69402e-13
-18.5682 620.263 -7.75158e-13
-4.69402e-13 -7.75158e-13 563.187

632.901 2.43447 8.67262e-12
2.43447 635.527 1.13924e-11
8.67262e-12 1.13924e-11 570.506

607.887 -20.5262 -7.64211e-12
-20.5262 572.427 1.05989e-13
-7.64211e-12 1.05989e-13 553.407

607.072 20.9557 5.18733e-12
20.9557 573.686 3.26406e-12
5.18733e-12 3.26406e-12 553.81

633.852 -3.45848 9.5568e-13
-3.45848 636.778 4.60358e-12
9.5568e-13 4.60358e-12 571.28

632.182 -3.11714 1.31766e-11
-3.11714 625.757 -7.11934e-12
1.31766e-11 -7.11934e-12 569.396

609.682 12.1098 1.34855e-12
12.1098 620.486 1.43906e-11
1.34855e-12 1.43906e-11 563.918

587.204 26.9296 -1.6381e-12
26.9296 583.019 -5.9321e-12
-1.6381e-12 -5.9321e-12 551.703

FIELD solute_concentration_TPM 2
S_ext 1 563 float
0.977419
0.977231
0.977251
0.977232
0.977202
0.977251
0.977419
0.977242
0.977268
0.977235
0.97738
0.977242
0.977246
0.977234
0.977209
0.977249
0.977226
0.977241
0.977271
0.977254
0.97726
0.977149
0.977256
0.977254
0.977254
0.977237
0.977371
0.977249
0.977319
0.977176
0.977247
0.977317
0.977376
0.977185
0.977184
0.977185
0.977173
0.977187
0.977247
0.977375
0.977318
0.977172
0.977172
0.977246
0.977351
0.977317
0.977269
0.977265
0.977251
0.977327
0.977322
0.977303
0.9772
0.977304
0.977202
0.977356
0.977184
0.977303
0.977184
0.977252
0.977225
0.977217
0.977367
0.97722
0.977217
0.977231
0.977224
0.977238
0.977255
0.97723
0.977201
0.977201
0.977319
0.977226
0.977251
0.977379
0.977211
0.977231
0.977237
0.977296
0.977336
0.977197
0.977221
0.977338
0.977318
0.977354
0.977249
0.97723
0.977351
0.977157
0.977304
0.977158
0.977209
0.977233
0.977303
0.977322
0.977337
0.977234
0.977212
0.977247
0.977285
0.977315
0.977337
0.977237
0.977236
0.977235
0.97722
0.977249
0.977338
0.977225
0.977252
0.977347
0.977342
0.977239
0.977236
0.977305
0.977186
0.977339
0.977187
0.977304
0.977276
0.97721
0.97723
0.977225
0.977225
0.977208
0.97719
0.977235
0.977338
0.977302
0.977199
0.977231
0.97722
0.97723
0.977315
0.977183
0.977348
0.977246
0.97722
0.977183
0.977312
0.977239
0.977276
0.977234
0.97734
0.977236
0.977241
0.977253
0.977251
0.977288
0.977264
0.97723
0.977317
0.977246
0.977234
0.977231
0.977233
0.977312
0.977311
0.977243
0.977264
0.977316
0.97735
0.97732
0.97731
0.977235
0.977311
0.977313
0.977318
0.97731
0.977208
0.977303
0.977322
0.977231
0.977304
0.97722
0.977208
0.977243
0.977202
0.977238
0.977319
0.977235
0.977235
0.977311
0.977229
0.977323
0.977225
0.977222
0.97721
0.977235
0.977229
0.977336
0.977303
0.977317
0.977231
0.97724
0.977239
0.977221
0.97723
0.977232
0.97723
0.977271
0.977296
0.977221
0.97732
0.97722
0.977232
0.977314
0.977216
0.97723
0.977217
0.977236
0.977237
0.977221
0.977287
0.977235
0.977295
0.977222
0.977225
0.977225
0.977225
0.977226
0.977226
0.977226
0.977235
0.97721
0.97721
0.977209
0.97721
0.977203
0.977202
0.977288
0.977233
0.97723
0.977266
0.97721
0.97721
0.97723
0.977295
0.97723
0.977234
0.977288
0.977215
0.977288
0.977221
0.97723
0.977287
0.977294
0.977336
0.977328
0.97722
0.977343
0.977247
0.977295
0.977271
0.97723
0.977225
0.977173
0.977225
0.977347
0.977294
0.97723
0.977242
0.977296
0.977225
0.977275
0.977173
0.977294
0.977225
0.977227
0.977239
0.97721
0.97723
0.977202
0.977245
0.977349
0.977354
0.977207
0.977258
0.977242
0.97729
0.977215
0.977232
0.977294
0.977232
0.977285
0.977241
0.977286
0.977294
0.977163
0.977206
0.977207
0.977208
0.977234
0.977285
0.977187
0.977228
0.977264
0.977283
0.977289
0.977206
0.977287
0.97721
0.977288
0.977351
0.977284
0.977341
0.977221
0.977287
0.977163
0.977287
0.977224
0.977289
0.977226
0.977287
0.97725
0.977374
0.97725
0.977288
0.977204
0.977288
0.977263
0.977228
0.97723
0.977287
0.977284
0.977275
0.977223
0.977284
0.977243
0.977249
0.977203
0.977285
0.977276
0.977261
0.977275
0.977286
0.977275
0.977218
0.977242
0.977276
0.977288
0.977239
0.977239
0.977284
0.977203
0.977387
0.977252
0.977336
0.977261
0.977445
0.977445
0.977443
0.977443
0.97744
0.97745
0.97745
0.977221
0.977192
0.977242
0.977263
0.977271
0.977275
0.977241
0.977276
0.977277
0.977193
0.977275
0.977217
0.977303
0.977211
0.977251
0.977264
0.977276
0.977208
0.977252
0.977263
0.977252
0.977262
0.977274
0.977297
0.977263
0.977254
0.977215
0.97727
0.977275
0.977271
0.977264
0.977253
0.977239
0.977271
0.97724
0.977253
0.977264
0.977242
0.977252
0.977274
0.977225
0.977262
0.977193
0.977351
0.977221
0.977219
0.977253
0.977262
0.97723
0.977387
0.977251
0.977263
0.977372
0.977167
0.977167
0.97725
0.977272
0.977261
0.977271
0.977149
0.977147
0.977239
0.977242
0.977243
0.977392
0.977274
0.977223
0.977266
0.977268
0.977265
0.977386
0.977227
0.977272
0.977252
0.977252
0.977267
0.977263
0.977267
0.977266
0.977374
0.977341
0.977263
0.977252
0.977262
0.977268
0.977263
0.977261
0.977262
0.977352
0.977212
0.97727
0.97723
0.977226
0.977353
0.97725
0.977251
0.977203
0.977161
0.977161
0.977206
0.977275
0.977253
0.977354
0.977164
0.977147
0.977147
0.977389
0.977186
0.977175
0.977254
0.97721
0.977243
0.977233
0.977223
0.977223
0.977244
0.977386
0.97725
0.977233
0.977224
0.97738
0.977181
0.977379
0.977222
0.977236
0.977287
0.977245
0.977244
0.977198
0.97724
0.977198
0.977251
0.977225
0.977179
0.97718
0.977356
0.977231
0.977421
0.977422
0.977421
0.977228
0.977393
0.977422
0.977268
0.97742
0.977196
0.977196
0.977421
0.977257
0.977377
0.977425
0.977376
0.977426
0.977376
0.977185
0.977361
0.977391
0.977419
0.977245
0.977218
0.977379
0.977244
0.977419
0.977238
0.977257
0.977426
0.97738
0.977427
0.977388
0.977253
0.977192
0.977147
0.977149
0.977234
0.977147
0.977147
0.977148
0.977159
0.977358
0.97718
0.977206
0.977193
0.977236
0.977157
0.977157
0.977192
0.977388
0.977259
0.977396
0.977383
0.977375
0.977165
0.977165
0.977167
0.977167
0.977165
0.977152
0.97717
0.977158
0.977151
0.977168
0.977167
0.977151
0.977151
0.977157
0.97717
P_ext 1 563 float
0.0195109
0.0195061
0.0195068
0.0195062
0.0195044
0.0195068
0.0195109
0.0195065
0.0195073
0.0195062
0.0195101
0.0195065
0.0195066
0.0195062
0.0195048
0.0195068
0.0195058
0.0195064
0.0195075
0.019507
0.0195071
0.0195012
0.019507
0.0195069
0.019507
0.0195063
0.0195099
0.0195067
0.0195087
0.0195028
0.0195067
0.0195087
0.01951
0.0195034
0.0195034
0.0195034
0.0195027
0.0195035
0.0195066
0.01951
0.0195087
0.0195027
0.0195027
0.0195067
0.0195095
0.0195087
0.0195074
0.0195073
0.0195068
0.0195089
0.0195088
0.0195083
0.0195043
0.0195084
0.0195044
0.0195096
0.0195034
0.0195083
0.0195034
0.0195069
0.0195058
0.0195053
0.0195098
0.0195054
0.0195053
0.0195059
0.0195057
0.0195064
0.019507
0.019506
0.0195044
0.0195044
0.0195087
0.0195057
0.0195069
0.0195101
0.0195049
0.0195059
0.0195063
0.0195081
0.0195091
0.0195042
0.0195055
0.0195092
0.0195087
0.0195095
0.0195067
0.0195058
0.0195095
0.0195014
0.0195084
0.0195014
0.0195048
0.0195059
0.0195084
0.0195088
0.0195092
0.0195062
0.019505
0.0195067
0.0195078
0.0195086
0.0195092
0.0195064
0.0195062
0.0195063
0.0195054
0.0195067
0.0195092
0.0195058
0.0195069
0.0195094
0.0195092
0.0195064
0.0195063
0.0195084
0.0195034
0.0195092
0.0195034
0.0195083
0.0195076
0.019505
0.0195061
0.0195057
0.0195057
0.0195048
0.0195036
0.0195062
0.0195092
0.0195083
0.0195042
0.0195061
0.0195055
0.0195061
0.0195086
0.0195033
0.0195094
0.0195066
0.0195054
0.0195033
0.0195086
0.0195063
0.0195076
0.0195062
0.0195092
0.0195063
0.0195063
0.0195068
0.0195068
0.0195079
0.0195072
0.019506
0.0195087
0.0195066
0.0195062
0.0195061
0.0195061
0.0195086
0.0195085
0.0195066
0.0195072
0.0195086
0.0195095
0.0195088
0.0195085
0.0195063
0.0195086
0.0195086
0.0195087
0.0195085
0.0195048
0.0195084
0.0195088
0.019506
0.0195084
0.0195054
0.0195048
0.0195064
0.0195044
0.0195063
0.0195088
0.0195063
0.0195062
0.0195085
0.0195058
0.0195088
0.0195058
0.0195055
0.0195048
0.0195062
0.0195058
0.0195091
0.0195083
0.0195087
0.0195061
0.0195065
0.0195064
0.0195056
0.019506
0.019506
0.019506
0.0195075
0.0195082
0.0195056
0.0195088
0.0195055
0.0195059
0.0195086
0.0195052
0.019506
0.0195051
0.0195062
0.0195063
0.0195055
0.0195079
0.0195061
0.0195081
0.0195055
0.0195058
0.0195058
0.0195058
0.0195059
0.0195059
0.0195059
0.0195061
0.0195049
0.0195049
0.0195049
0.0195049
0.0195044
0.0195043
0.019508
0.0195061
0.0195061
0.0195073
0.0195048
0.0195048
0.019506
0.0195081
0.0195061
0.0195062
0.0195079
0.0195051
0.019508
0.0195055
0.0195061
0.0195079
0.0195081
0.0195091
0.0195089
0.0195055
0.0195093
0.0195067
0.0195081
0.0195074
0.0195061
0.0195058
0.0195027
0.0195058
0.0195094
0.0195081
0.0195061
0.0195064
0.0195082
0.0195058
0.0195075
0.0195027
0.0195081
0.0195057
0.0195058
0.0195064
0.0195049
0.0195058
0.0195044
0.0195066
0.0195094
0.0195096
0.0195046
0.0195071
0.0195064
0.019508
0.0195051
0.0195061
0.0195081
0.019506
0.0195079
0.0195063
0.0195079
0.0195081
0.019502
0.0195047
0.0195048
0.0195048
0.0195062
0.0195079
0.0195035
0.0195058
0.0195072
0.0195078
0.019508
0.0195046
0.0195079
0.0195048
0.019508
0.0195095
0.0195078
0.0195092
0.0195055
0.0195079
0.019502
0.0195079
0.0195056
0.019508
0.0195057
0.0195079
0.0195068
0.01951
0.0195068
0.019508
0.0195046
0.0195079
0.0195071
0.0195058
0.0195061
0.0195079
0.0195079
0.0195075
0.0195055
0.0195078
0.0195064
0.0195067
0.0195045
0.0195079
0.0195076
0.0195071
0.0195076
0.0195079
0.0195075
0.0195052
0.0195065
0.0195076
0.0195079
0.0195063
0.0195063
0.0195078
0.0195045
0.0195102
0.0195068
0.0195091
0.0195071
0.0195114
0.0195114
0.0195114
0.0195114
0.0195113
0.0195115
0.0195115
0.0195054
0.0195037
0.0195065
0.0195072
0.0195074
0.0195076
0.0195063
0.0195076
0.0195076
0.0195037
0.0195076
0.0195052
0.0195083
0.019505
0.0195068
0.0195072
0.0195076
0.0195046
0.0195068
0.0195072
0.0195068
0.0195072
0.0195076
0.0195082
0.0195072
0.0195069
0.0195052
0.0195074
0.0195076
0.0195075
0.0195072
0.0195068
0.0195063
0.0195074
0.0195063
0.0195068
0.0195072
0.0195064
0.0195069
0.0195075
0.0195057
0.0195072
0.0195039
0.0195095
0.0195055
0.0195052
0.0195068
0.0195072
0.0195059
0.0195102
0.0195068
0.0195072
0.0195099
0.0195021
0.0195021
0.0195067
0.0195075
0.0195071
0.0195075
0.0195008
0.0195008
0.0195064
0.0195064
0.0195064
0.0195103
0.0195075
0.0195056
0.0195073
0.0195074
0.0195073
0.0195102
0.0195057
0.0195075
0.0195068
0.0195068
0.0195074
0.0195072
0.0195073
0.0195073
0.01951
0.0195092
0.0195072
0.0195068
0.0195072
0.0195074
0.0195072
0.0195071
0.0195072
0.0195095
0.019505
0.0195074
0.019506
0.0195057
0.0195095
0.0195068
0.0195069
0.0195044
0.019502
0.019502
0.0195046
0.0195076
0.0195068
0.0195096
0.0195022
0.0195011
0.0195011
0.0195103
0.0195035
0.0195028
0.0195069
0.0195049
0.0195066
0.0195061
0.0195056
0.0195056
0.0195064
0.0195102
0.0195068
0.019506
0.0195056
0.0195101
0.0195032
0.0195101
0.0195056
0.0195062
0.0195079
0.0195067
0.0195065
0.0195042
0.0195064
0.0195042
0.0195068
0.0195057
0.0195029
0.0195029
0.0195096
0.019506
0.0195109
0.019511
0.0195109
0.0195058
0.0195104
0.019511
0.0195074
0.0195109
0.0195041
0.0195041
0.0195109
0.0195071
0.01951
0.019511
0.01951
0.019511
0.01951
0.0195034
0.0195097
0.0195103
0.0195109
0.0195065
0.0195054
0.0195101
0.0195065
0.0195109
0.0195063
0.019507
0.0195111
0.0195101
0.0195111
0.0195103
0.0195069
0.0195039
0.0195011
0.0195012
0.0195061
0.0195011
0.0195011
0.0195012
0.0195018
0.0195096
0.0195031
0.0195046
0.0195038
0.0195062
0.0195016
0.0195016
0.0195038
0.0195103
0.0195071
0.0195104
0.0195102
0.01951
0.0195023
0.0195023
0.0195024
0.0195024
0.0195023
0.0195012
0.0195024
0.0195015
0.0195011
0.0195022
0.0195022
0.0195011
0.0195012
0.0195016
0.0195024
FIELD solute_flux_TPM 2
S_ext 3 563 float
-5.34542e-05 1.78798e-05 -4.18613e-18
2.34291e-06 4.48273e-06 1.52293e-18
-8.29786e-06 -6.58652e-06 -5.17759e-18
-2.73455e-06 2.759e-06 -8.30615e-19
1.51861e-05 -4.34324e-06 -3.26152e-18
1.80109e-06 -1.03543e-05 -2.6709e-18
-5.26377e-05 -1.80973e-05 -2.79775e-18
-9.07097e-06 -6.74289e-06 -3.18636e-18
1.44345e-05 6.13452e-07 -1.83125e-18
7.50945e-06 -2.64461e-06 1.4986e-18
3.5593e-05 8.28698e-06 1.40712e-18
1.51056e-06 -1.12259e-05 1.07376e-21
8.96877e-06 7.30134e-06 1.16862e-18
1.76289e-06 8.98282e-06 -2.84464e-18
1.37683e-05 -2.0235e-06 8.50605e-19
-1.05294e-05 -1.71676e-07 3.41582e-19
1.84636e-06 9.26485e-06 -4.86262e-19
6.69317e-06 -1.6044e-06 3.67238e-18
6.42732e-06 1.12054e-05 -1.59433e-19
-9.59485e-06 1.21463e-06 -3.28693e-19
-2.31779e-06 -1.37885e-05 3.40691e-19
2.86294e-05 4.03947e-05 -3.45532e-19
1.02914e-05 1.05152e-06 -1.83374e-18
7.3612e-06 -7.35756e-06 1.48736e-18
-9.73553e-06 -2.15646e-06 8.35476e-19
-4.18691e-07 -7.24977e-06 -8.2633e-19
4.0845e-05 -3.19681e-06 6.44131e-19
9.25182e-06 6.70662e-06 8.36444e-19
-1.61714e-05 -1.31302e-05 6.10636e-21
3.24356e-05 -8.58743e-06 -2.77717e-18
-1.07085e-05 -3.94845e-06 1.74019e-19
3.45464e-06 -2.07359e-05 -8.11199e-19
3.06455e-05 -3.12361e-05 -6.31749e-21
-3.4576e-06 -2.77093e-05 -3.27612e-18
-1.9582e-05 2.4373e-05 -1.58568e-19
-2.57244e-05 -1.08498e-05 -2.60224e-18
2.15052e-05 2.81589e-05 1.75666e-18
-2.95965e-05 -5.79815e-06 -2.22038e-21
9.48307e-06 -7.20416e-06 2.83047e-18
2.99392e-05 3.2549e-05 4.76127e-19
2.08785e-05 -9.13723e-06 -1.45462e-18
2.19317e-05 -2.71031e-05 -2.0799e-18
-1.25129e-05 -3.25243e-05 2.96389e-18
-1.0261e-05 4.15726e-06 -5.02331e-19
1.96102e-05 -1.91808e-05 -4.67597e-19
-1.93668e-05 6.88508e-06 -3.22741e-18
-2.6594e-06 -1.31356e-05 8.36215e-19
5.1151e-06 1.30995e-05 -1.31512e-18
-1.05995e-05 3.8512e-06 1.16205e-18
-1.16401e-05 1.83049e-05 1.60268e-18
2.10674e-05 9.92186e-06 1.60535e-18
1.90444e-05 -6.61144e-06 -6.54045e-19
-1.03942e-05 1.04105e-05 -1.70101e-18
-1.50795e-05 -1.30974e-05 9.82428e-19
-1.39982e-05 -3.42922e-06 -5.06726e-19
-2.85846e-05 1.70243e-05 -4.91861e-18
-1.93858e-05 -2.50832e-05 -6.9718e-19
3.98069e-06 -1.97175e-05 2.93135e-18
-3.14234e-05 4.28887e-06 -1.22059e-18
3.95078e-06 8.92394e-06 -1.49182e-18
-3.6337e-06 -5.39678e-06 1.18722e-18
-4.28595e-06 -1.18358e-05 5.37713e-21
3.69044e-05 1.60824e-05 1.426e-18
6.14933e-06 1.1922e-05 6.95975e-19
8.15971e-06 -9.50634e-06 -3.71624e-18
-1.12421e-06 -1.36217e-05 -6.74805e-19
3.07922e-06 -5.78601e-06 -5.37634e-18
-6.54077e-06 -3.64088e-06 -1.33871e-18
-6.91022e-06 7.687e-06 1.83081e-18
1.67618e-06 -2.76611e-06 -1.86006e-18
-9.96385e-06 -1.04719e-05 -2.39619e-18
-1.41181e-05 3.43814e-06 -2.40293e-18
-2.48098e-06 2.20876e-05 1.13493e-18
-1.17178e-05 7.02044e-06 3.21939e-18
-5.90479e-06 9.4192e-06 -3.27022e-19
-3.81238e-05 4.74268e-06 -2.02671e-18
5.22383e-06 -1.42779e-05 -3.23999e-19
-1.23923e-05 -5.75522e-06 -1.34778e-18
1.24799e-06 7.5991e-06 3.19405e-18
1.71423e-05 3.29111e-06 3.20432e-19
2.20903e-05 -1.88247e-05 -1.68532e-19
1.47468e-05 1.35665e-05 -3.59856e-18
7.95888e-06 -1.94531e-06 1.69166e-18
-2.05684e-05 1.50754e-05 -4.32608e-18
2.45684e-05 3.14996e-06 3.06831e-18
-3.54429e-06 3.15716e-05 -4.74256e-19
-1.14085e-06 -1.0958e-05 2.68098e-18
1.20317e-05 6.52947e-06 1.35809e-18
1.886e-05 1.9752e-05 1.10828e-18
4.25356e-05 2.64424e-05 -6.99435e-19
-3.50914e-06 1.9815e-05 -1.48859e-19
4.44296e-05 -2.4968e-05 -5.44779e-19
-1.79685e-05 3.46515e-06 3.24666e-18
1.18325e-05 7.31887e-06 6.751e-19
-1.89308e-05 6.30195e-06 1.66359e-19
1.06779e-05 1.85277e-05 2.41476e-18
6.35183e-06 -2.84983e-05 -1.28274e-18
1.25913e-06 7.59501e-06 -2.17937e-18
-9.68503e-06 -1.16338e-05 -8.51867e-19
1.98048e-06 1.13723e-05 3.45648e-19
1.71752e-05 3.43657e-06 -3.36335e-19
-9.98332e-06 2.12297e-05 -1.6102e-18
2.62413e-05 -8.74914e-06 1.59279e-18
-2.48072e-06 4.81948e-06 1.7032e-19
6.593e-06 3.8319e-06 3.01998e-18
-1.45959e-06 -7.37214e-06 -3.51403e-18
2.1627e-06 -1.27007e-05 -1.34123e-18
1.14531e-05 2.56272e-06 -1.51384e-18
-5.30625e-06 2.6369e-05 4.47616e-18
-6.50285e-06 1.19026e-07 -2.35039e-18
6.11686e-06 7.74309e-06 -1.49715e-18
-1.74053e-06 -2.68793e-05 3.01697e-18
2.72151e-05 8.44944e-06 2.54719e-18
2.93341e-06 -4.84997e-06 3.17287e-18
-7.22438e-06 -2.33228e-06 -4.9397e-19
-1.87008e-05 -7.95725e-06 -2.27891e-18
1.06323e-05 2.7754e-05 -5.71423e-18
-2.74941e-05 -9.79638e-06 -1.28499e-18
1.07808e-05 -2.78279e-05 -1.57309e-18
-2.42984e-06 -2.05353e-05 4.9292e-19
1.42615e-05 3.91626e-07 8.1819e-19
-4.74945e-06 1.22217e-05 -2.0509e-18
-1.05105e-06 2.58216e-06 -1.00494e-18
-2.45836e-06 -1.088e-05 8.48047e-19
3.4786e-06 -5.60598e-06 -1.52586e-18
6.21066e-06 1.04742e-05 1.93114e-19
2.23333e-05 7.29629e-06 -2.14756e-20
5.74993e-06 -4.8466e-06 -2.86729e-18
-5.44589e-06 -2.88446e-05 4.82288e-19
1.65861e-05 -1.22285e-05 8.12098e-19
3.30533e-06 1.84153e-05 8.74893e-19
-1.81986e-06 -1.86962e-06 2.53077e-18
-5.70561e-06 -5.4724e-06 3.38221e-18
-3.14348e-06 6.43264e-08 3.38158e-19
-1.46835e-05 1.81273e-05 9.75809e-19
1.29189e-05 -2.49966e-05 7.37324e-21
-1.71454e-05 2.70995e-05 1.55965e-19
-1.05993e-05 6.17972e-06 6.70308e-19
1.65828e-06 8.16217e-06 -3.23158e-18
-1.51591e-05 -2.3668e-05 -1.73541e-18
8.90412e-06 2.15862e-05 6.51242e-19
1.15859e-05 6.08161e-06 1.84826e-18
1.48644e-05 -5.61458e-06 1.80541e-18
-8.29093e-07 -7.36409e-06 1.17835e-18
-2.1593e-05 -1.98583e-05 2.24965e-21
-1.77463e-06 7.37285e-06 -1.49954e-18
1.13871e-05 6.71909e-06 1.34045e-18
1.23979e-05 -5.85612e-06 8.22448e-19
5.43165e-06 -9.32524e-06 -4.39692e-21
1.58687e-05 -7.03523e-06 1.14027e-18
1.24507e-05 -5.89577e-06 -3.39138e-19
3.13263e-06 1.98778e-07 -3.37675e-18
1.664e-05 1.31734e-05 -1.64603e-19
-1.74605e-06 -1.1049e-05 7.44925e-21
-6.86026e-06 -2.85852e-06 -4.19668e-18
7.56587e-07 -2.53447e-06 -9.92783e-19
-2.11084e-06 1.03683e-05 2.19577e-18
-2.21448e-05 1.74956e-06 1.64711e-19
-7.83124e-06 -2.12436e-05 -1.58128e-19
-5.1374e-06 6.32591e-06 6.03124e-18
8.83661e-06 1.07901e-05 1.33674e-18
1.71706e-05 -1.22457e-05 -6.47205e-19
-2.35496e-05 -1.27679e-05 4.27561e-18
1.11609e-05 -1.78938e-05 1.60019e-19
1.4715e-05 -1.76218e-05 4.0499e-18
-7.10362e-06 2.50509e-06 2.35986e-18
-1.27246e-05 -1.83137e-05 -1.61938e-18
-2.21266e-05 -3.68136e-06 6.53747e-19
-2.67075e-06 -2.03681e-05 4.86218e-19
9.87989e-06 -2.045e-05 9.71978e-19
-6.0638e-06 -1.73316e-05 -1.67431e-19
2.83425e-06 2.02183e-05 2.61433e-18
-1.02756e-05 -1.82042e-05 -9.6644e-19
1.98536e-06 -1.06619e-05 -3.5237e-18
-1.58605e-05 1.15453e-05 -4.71676e-18
-9.87363e-06 -7.99844e-06 3.43001e-19
-1.80869e-05 -3.35677e-06 -1.53686e-18
1.03357e-05 -6.07075e-06 -1.68398e-18
-2.83366e-06 1.58537e-05 -3.43752e-18
8.14598e-06 -6.10757e-06 1.53594e-19
-1.89024e-05 -8.28647e-06 2.09813e-18
-5.78393e-06 -4.82023e-06 -8.3521e-19
6.02699e-06 4.89433e-06 2.18204e-18
1.3828e-05 1.85654e-05 -8.05963e-19
-1.14247e-05 -7.08412e-06 -2.1961e-18
-2.07299e-05 -5.01112e-07 -7.9869e-19
-1.07597e-05 -3.22412e-06 4.9459e-21
-3.02383e-06 -1.08926e-05 -1.18114e-18
1.18265e-05 1.42647e-05 -1.19525e-18
-7.19608e-06 3.77596e-06 3.5291e-18
4.52492e-07 -1.34743e-05 -3.37317e-18
-2.66171e-05 6.82629e-06 -3.05001e-18
1.6138e-05 1.31254e-05 -8.06998e-19
2.33856e-06 2.12049e-05 2.09473e-18
-1.56952e-06 2.5125e-06 5.144e-19
-5.85773e-06 1.63927e-07 3.02426e-18
2.87761e-06 5.04753e-06 -3.17945e-18
-7.71615e-06 2.28436e-06 -2.1984e-18
-1.34382e-06 -2.45638e-06 8.29991e-19
1.12723e-06 1.36043e-05 1.86252e-19
3.00205e-06 2.42151e-07 6.69253e-19
-1.25753e-05 3.03861e-06 -1.31903e-18
-1.12031e-05 1.23792e-05 -1.58858e-19
-2.01931e-06 7.65316e-06 -8.44468e-19
-1.87513e-05 1.16856e-05 -1.28661e-18
-6.19188e-06 5.905e-06 1.37127e-18
1.14751e-05 -7.78559e-06 -2.03145e-18
2.37266e-05 -2.35899e-06 1.61516e-18
-1.39652e-05 7.41111e-06 3.74225e-18
1.45951e-06 2.98928e-06 3.00484e-18
1.4585e-05 -2.81676e-06 -1.88522e-18
-1.12849e-05 6.80621e-06 -1.67983e-18
-6.41705e-06 3.63173e-06 -8.36134e-19
7.94994e-06 2.57049e-06 -2.39036e-18
1.42159e-05 -8.81595e-06 -8.24965e-19
-1.13685e-05 6.46019e-06 1.34987e-18
-1.60332e-05 -3.37107e-06 1.96176e-18
-1.10021e-05 -2.82281e-06 -1.18188e-18
6.65565e-06 6.43997e-08 -1.89738e-19
6.81752e-06 7.15465e-08 -8.47784e-19
2.91745e-06 5.4742e-06 3.71711e-18
3.21367e-06 -5.78907e-06 -6.03958e-18
-3.28308e-06 5.585e-06 2.19289e-18
-3.43898e-06 -5.71472e-06 -4.93769e-19
6.53615e-06 -4.95302e-06 -3.20309e-18
-1.34771e-05 2.16609e-06 -6.82319e-19
-1.33254e-05 -2.20864e-06 1.71071e-18
-8.52219e-06 1.0526e-05 -2.36089e-18
-8.57012e-06 -1.05664e-05 -3.98426e-22
4.98237e-06 -1.33685e-05 -2.75481e-18
4.80031e-06 1.32548e-05 -3.25854e-18
9.62604e-07 1.67517e-05 2.63274e-18
7.48116e-06 -1.98997e-06 -3.88161e-18
1.61676e-06 -2.51363e-06 1.3266e-18
-1.37332e-05 9.26167e-07 -1.81792e-18
5.14286e-06 -1.31535e-05 -2.22876e-18
4.87308e-06 1.32008e-05 -4.61345e-18
3.16124e-06 -5.87143e-08 6.54029e-19
5.75848e-06 1.58331e-05 3.11091e-18
-1.47121e-06 -2.62076e-06 -5.35647e-18
1.53733e-06 -7.39884e-06 -3.82239e-21
-1.43981e-05 -7.72109e-06 -1.4678e-18
-1.40992e-05 -7.54433e-06 -2.71831e-18
-1.40901e-05 8.71551e-06 -2.12643e-18
2.14134e-06 -8.26611e-06 -1.36584e-18
-1.04554e-06 2.19523e-06 -6.61098e-19
-4.67504e-07 -1.64717e-05 -8.2071e-19
-5.06516e-06 -1.56725e-05 3.75814e-18
2.11423e-05 1.96897e-05 1.65925e-19
2.3078e-05 -1.192e-06 2.72082e-18
-8.40634e-06 -2.44902e-06 4.91446e-18
-1.47292e-05 -2.62308e-05 7.99433e-19
5.44425e-06 8.93991e-06 -2.33537e-18
-1.61601e-05 1.90694e-06 -4.88206e-19
1.31225e-05 3.76144e-06 -1.15648e-18
-2.95817e-06 -1.24228e-08 1.01453e-18
-3.07329e-06 -5.54439e-06 2.51695e-18
-5.43512e-06 -2.58526e-05 -3.48212e-18
-6.41977e-06 -2.07661e-08 2.17061e-21
-3.06175e-05 -1.14911e-06 -3.0344e-18
1.12032e-05 -1.24507e-05 1.79305e-18
1.64558e-06 2.60486e-06 -3.85306e-18
-8.02773e-08 -1.14328e-05 6.77043e-19
-6.43065e-06 1.54458e-05 -1.13685e-18
-2.89149e-06 5.68655e-06 -4.91476e-19
1.342e-05 -8.86103e-06 1.56244e-19
-2.51028e-05 -8.19982e-06 -8.78103e-19
-9.87583e-06 -1.30376e-05 -1.54893e-19
3.31237e-06 5.6158e-06 -1.53267e-18
1.10833e-05 3.32103e-06 2.36671e-18
-3.10152e-06 -4.74773e-06 3.42025e-19
1.33102e-05 2.43148e-06 -8.74042e-19
1.21026e-05 -6.48714e-06 3.27455e-19
-2.46555e-07 1.79476e-05 2.93059e-18
5.47008e-06 -8.89393e-06 -8.64104e-21
3.16397e-05 1.34982e-06 3.65582e-18
-2.68806e-05 7.0028e-06 -4.91202e-18
1.53413e-05 7.65672e-06 -3.58327e-18
-4.18484e-06 -1.10707e-05 -1.56657e-19
-9.98958e-06 -5.57844e-06 -1.68993e-19
1.87048e-05 -1.54379e-07 -9.89632e-19
-4.80946e-07 -1.60277e-05 1.02909e-18
-8.19779e-06 -7.1484e-06 -2.18138e-18
6.5816e-06 -1.52595e-05 1.30081e-18
-3.69489e-07 1.34646e-05 -1.66939e-18
5.06223e-06 1.68405e-05 1.4866e-18
1.14068e-05 -6.5517e-06 -6.84206e-19
-1.22057e-05 1.22904e-05 2.30246e-18
1.06883e-05 1.30266e-05 8.19934e-19
-4.32686e-05 1.03202e-05 -5.61295e-18
-6.73727e-06 1.72092e-05 -8.35128e-19
8.3127e-06 -1.00882e-05 -3.38771e-18
-4.62447e-06 -1.21699e-05 3.45713e-19
-7.77804e-06 2.88059e-06 4.20413e-18
-1.65392e-05 -4.51697e-06 -8.15819e-19
-4.46244e-06 2.60458e-05 3.9928e-18
-8.22323e-06 7.87127e-06 -1.01229e-18
1.35823e-05 -2.98444e-06 1.62825e-19
-4.44357e-06 -1.65868e-05 -6.55262e-19
-9.59572e-06 1.52743e-05 3.36246e-19
-1.43821e-05 8.28774e-06 -1.5357e-18
-1.32225e-05 -9.63645e-06 -3.18032e-19
1.20716e-05 -1.39367e-05 5.02304e-19
-1.75561e-05 -9.31819e-07 -1.80035e-18
7.73311e-06 -2.64941e-05 -1.58407e-18
1.26021e-05 -1.22714e-05 8.16601e-19
1.58263e-05 2.78025e-05 4.79321e-18
1.2947e-06 1.30826e-05 -6.61633e-19
1.88281e-06 -1.6455e-05 1.96783e-18
-2.81462e-05 3.30427e-05 -1.40627e-18
-8.18481e-06 -1.56188e-05 -1.3098e-18
1.09599e-05 -4.23128e-06 2.35267e-18
-1.65304e-06 1.65863e-05 5.06765e-19
8.55287e-06 -7.96484e-06 -2.8851e-18
8.96417e-06 1.57216e-05 1.32544e-18
1.12863e-05 -9.61864e-07 8.27535e-19
1.38493e-05 -4.0555e-05 3.16163e-19
-3.81486e-06 -8.32354e-06 3.34204e-18
-1.48804e-05 6.39219e-06 1.14823e-18
-1.32628e-05 1.24044e-05 -5.11434e-19
1.40299e-05 9.49252e-06 4.33823e-21
1.22155e-05 -7.07283e-06 8.20645e-19
9.87742e-06 8.376e-06 5.06591e-19
-3.59864e-06 -1.52672e-08 -2.01158e-18
9.95819e-06 -1.49447e-05 -4.93402e-21
-1.09337e-05 -1.30153e-05 1.64804e-18
1.46948e-05 6.38859e-06 1.15871e-18
8.51507e-06 -8.01328e-06 -2.38279e-18
6.13097e-06 -1.60649e-05 -9.86577e-19
1.09614e-05 -4.64792e-06 -5.12319e-19
-1.02398e-05 -4.88171e-06 1.3398e-18
8.80177e-07 -1.73632e-05 -3.25402e-18
-1.6684e-05 2.87038e-06 -1.64276e-18
1.47491e-06 1.5858e-05 2.81858e-18
1.34541e-05 4.35525e-06 -1.63362e-19
-1.3945e-05 -6.87525e-06 -2.46888e-18
-5.81489e-06 1.64581e-05 9.96862e-19
-9.76921e-07 -1.56353e-05 2.14994e-18
1.29762e-05 7.88245e-06 -6.71364e-19
-1.1167e-06 1.17962e-05 3.36561e-18
-1.29794e-05 8.72839e-06 -4.90334e-19
1.53251e-05 7.4137e-06 3.43855e-18
-1.11093e-05 -6.54668e-06 8.42936e-19
1.15628e-07 -1.29531e-05 6.81694e-19
1.19393e-05 1.29475e-05 1.31811e-18
-1.45847e-05 -9.43196e-06 1.20202e-18
3.13046e-05 -2.23986e-05 4.70272e-19
1.17844e-05 -7.08561e-06 -1.84782e-18
5.5883e-06 2.76903e-05 3.84351e-18
1.11742e-05 -8.90686e-06 4.8868e-19
-1.45687e-05 5.61933e-05 -1.77916e-18
-1.46445e-05 -5.56588e-05 2.2124e-18
3.65795e-05 4.78146e-05 -1.03312e-18
3.61395e-05 -4.78029e-05 -2.56982e-21
5.97256e-05 -2.93149e-08 -5.3583e-18
-5.13931e-05 2.08237e-05 -3.57549e-18
-5.05593e-05 -2.10412e-05 2.81795e-18
8.14103e-06 7.87355e-06 -3.0525e-18
1.97446e-05 1.47047e-05 -6.0145e-18
7.52718e-06 2.19685e-06 -3.02162e-18
1.23597e-05 6.35703e-06 9.9626e-19
3.2148e-06 1.31039e-05 2.97795e-18
-1.21357e-05 -9.55647e-06 -2.13873e-18
1.13112e-05 -6.68867e-06 1.57687e-19
1.29601e-05 9.4488e-06 2.48133e-18
-2.06802e-06 1.57454e-05 -6.41054e-19
1.98418e-05 -1.35013e-05 -3.59544e-19
2.39365e-06 -1.53523e-05 2.80642e-18
1.46665e-05 3.37665e-06 -1.18461e-18
1.93775e-05 7.19745e-06 -1.91815e-21
9.42595e-06 9.34925e-06 2.57211e-18
1.04309e-05 4.32609e-06 -1.00635e-18
-1.19618e-05 7.04886e-06 3.65203e-18
-1.44959e-05 5.80755e-06 -1.64276e-18
1.54046e-05 -7.50944e-06 1.61016e-19
-1.18128e-05 -6.48283e-06 3.37524e-19
-1.19863e-05 -6.78291e-06 1.66333e-18
-2.06861e-07 -1.35059e-05 3.17873e-18
-9.91685e-08 -1.37117e-05 1.16785e-18
-1.29366e-05 -6.50924e-07 -2.13407e-18
1.73987e-05 -2.63876e-06 1.46226e-18
1.18376e-05 7.42006e-06 9.99227e-19
-1.16004e-05 7.03208e-06 8.3282e-19
-1.00755e-05 1.09864e-05 1.73056e-19
1.04506e-05 -8.98989e-06 -3.3678e-19
-7.17191e-06 1.12236e-05 8.34629e-19
-9.19575e-06 -9.5676e-06 3.34387e-19
-7.99842e-07 1.3722e-05 -1.1447e-18
-8.22219e-07 1.36344e-05 1.68761e-18
3.04659e-08 -1.29567e-05 -1.8381e-18
3.96074e-06 -1.28244e-05 -1.48799e-18
-1.11757e-05 -6.43038e-06 -4.99907e-19
1.02268e-05 -3.62912e-06 1.99737e-18
4.18031e-07 1.39459e-05 1.17557e-18
1.73762e-07 1.20579e-05 1.52716e-18
-1.54602e-06 1.09232e-05 5.1335e-19
1.42938e-05 -3.61674e-06 4.44963e-18
-1.09258e-05 3.46206e-06 3.04426e-18
2.65184e-06 1.3959e-05 -1.64814e-18
-2.16952e-05 8.50384e-06 -2.06554e-18
6.06896e-06 2.70686e-05 4.74788e-18
-1.12265e-05 2.95521e-06 1.70175e-18
1.31675e-05 -7.79365e-06 1.34965e-18
5.63473e-07 1.36657e-05 1.41201e-20
-1.31707e-05 4.33461e-06 1.32706e-18
1.62368e-06 -1.06358e-05 -1.00111e-18
5.91435e-07 -3.74943e-05 -2.79183e-18
1.29364e-06 1.13952e-05 1.4052e-20
-1.0992e-05 8.97648e-06 4.70492e-21
1.11622e-05 4.10792e-05 1.88965e-18
3.1507e-05 2.61311e-05 -3.66692e-18
3.61197e-05 -2.47129e-05 -1.24645e-18
9.75254e-06 -6.67463e-06 -3.45652e-19
-1.02256e-05 9.01527e-06 -4.8704e-19
-1.30064e-05 -5.12702e-06 -3.28675e-19
-1.26444e-05 -4.36724e-06 2.98163e-18
4.4419e-05 -1.2206e-05 1.5783e-18
4.5309e-05 9.52761e-06 1.07231e-18
7.16171e-06 2.50939e-06 3.28053e-19
4.50126e-07 1.27813e-05 2.02273e-18
5.16118e-08 1.27732e-05 -1.32369e-18
-3.12325e-05 -2.28563e-05 3.15489e-19
7.42663e-06 -1.11805e-05 -1.48748e-18
7.79276e-06 8.33993e-06 -6.88635e-19
-1.37373e-05 -2.20053e-06 -4.93344e-19
-9.09169e-06 1.10231e-05 1.00297e-18
-1.21953e-05 5.87325e-06 -1.66691e-19
3.0915e-05 2.21749e-05 -1.54518e-18
1.05079e-05 4.64313e-06 -2.86595e-18
-3.65703e-06 1.29102e-05 1.99355e-18
-1.10306e-05 -7.54897e-06 8.34315e-19
1.16604e-06 -1.33684e-05 3.17229e-18
-5.77696e-06 -1.24178e-05 1.99655e-18
-1.11387e-05 -7.57846e-06 -3.28014e-19
6.86659e-06 -1.22816e-05 9.93159e-19
9.22895e-06 -1.1025e-05 2.31805e-18
-1.90731e-06 -3.9237e-05 2.20834e-18
1.67431e-05 -2.65542e-05 -1.76204e-18
1.13028e-06 -1.34959e-05 9.98421e-19
1.18132e-05 7.39511e-06 2.50026e-18
-9.38156e-06 -9.55258e-06 -2.65708e-18
-6.3706e-06 1.26812e-05 8.36334e-19
-3.26068e-06 1.35825e-05 3.45522e-19
1.08894e-05 9.24289e-06 3.37565e-19
3.90461e-06 -1.28938e-05 -2.6605e-18
-8.98822e-06 -2.57407e-05 -1.42094e-18
-1.36068e-06 1.6557e-05 2.40476e-18
9.63992e-06 9.42036e-06 6.64266e-19
-8.43667e-06 -6.68249e-06 -1.68199e-18
-8.86101e-06 6.95433e-06 -2.0262e-18
2.88066e-05 -1.23783e-05 3.47538e-18
4.93995e-06 -8.71836e-06 1.61794e-19
-5.41719e-06 -8.13852e-06 -2.50191e-18
1.43319e-05 4.37652e-06 1.50215e-19
8.81815e-06 -3.18127e-05 -1.74529e-19
-2.31467e-05 -2.35227e-05 -1.22327e-18
1.56266e-05 4.08956e-06 -4.43576e-18
-6.05955e-06 -1.17548e-05 -6.54339e-19
1.22735e-05 6.24793e-06 -1.66025e-19
-1.85398e-05 -2.05885e-05 -9.40718e-19
7.14138e-06 3.23458e-05 -2.26184e-18
3.1344e-05 -4.04838e-05 -2.47798e-18
-1.93899e-05 -4.73764e-05 -2.65833e-18
1.74733e-05 -3.41539e-05 -1.807e-21
-8.41177e-06 2.88958e-05 -1.73758e-18
-4.79461e-06 2.55896e-05 2.61796e-18
-1.21321e-05 5.81653e-06 2.16937e-18
4.0065e-06 1.60062e-05 8.6841e-19
-1.55858e-06 8.20018e-06 1.85203e-18
6.6825e-06 2.15126e-06 -3.03907e-18
-2.13728e-06 1.06725e-05 1.70116e-18
-1.59105e-07 1.38e-05 8.61659e-19
1.09788e-05 6.39927e-06 -2.01355e-18
5.47007e-07 3.73169e-05 -1.39829e-18
-9.57273e-06 6.89176e-06 3.01171e-18
1.05771e-05 -4.07157e-06 -3.50702e-19
1.13057e-05 -2.92047e-06 2.35195e-18
-3.82513e-05 -5.49815e-06 -1.24886e-18
-2.29363e-05 1.09146e-05 -3.29783e-18
-2.77574e-05 -3.29131e-05 1.415e-18
5.7192e-06 5.47732e-06 3.2329e-18
9.36707e-06 4.85381e-06 -3.53735e-18
1.74306e-05 -2.78518e-06 3.26639e-19
-5.25744e-06 -8.55804e-06 -3.00524e-18
1.13252e-05 5.58089e-06 -3.40147e-19
4.88212e-06 -1.99189e-05 -1.70747e-18
-8.99331e-06 6.58251e-06 3.19173e-18
-1.48028e-05 -1.41851e-05 -1.99042e-21
-3.77828e-06 1.05574e-05 1.17811e-18
-2.20548e-06 1.35961e-05 6.89166e-19
2.29124e-05 1.4229e-05 -2.06819e-18
2.44291e-05 -1.2962e-05 -1.22763e-18
-2.67262e-05 -7.19662e-06 -3.32441e-18
5.02565e-06 5.11145e-06 -1.85674e-18
-3.12687e-06 6.52293e-05 -3.25296e-18
-1.18274e-08 -6.7003e-05 -4.59172e-19
3.30248e-05 5.65171e-05 -3.13484e-19
-1.25714e-05 5.47617e-06 1.35608e-18
-1.77187e-05 3.57786e-05 -5.11234e-18
3.32279e-05 -5.45501e-05 2.14314e-18
-7.57933e-06 -1.17254e-05 1.98743e-18
5.05248e-05 4.39839e-05 -2.78471e-18
1.59523e-05 -1.18626e-05 3.60744e-19
-2.31474e-06 -1.97358e-05 1.55439e-18
5.29389e-05 -4.30086e-05 -1.55413e-18
-4.4022e-06 9.37704e-06 -3.21994e-19
-3.39297e-05 -2.15542e-05 3.13538e-19
-2.79376e-05 -5.83335e-05 -2.63066e-18
-1.58189e-05 -3.69325e-05 -2.97582e-18
-2.87218e-05 5.92891e-05 -7.25106e-18
-6.80126e-06 4.10372e-05 6.33634e-19
1.06887e-05 2.48076e-05 3.65539e-18
-1.82143e-05 2.34053e-05 -1.41454e-18
-1.6955e-05 -3.48309e-05 3.05598e-19
6.50052e-05 1.14062e-05 -9.21493e-19
-1.10484e-05 6.93087e-06 -3.30142e-19
-3.92876e-06 1.07359e-05 1.71302e-18
-3.21794e-05 2.31738e-05 -4.0757e-18
-1.12472e-05 6.45901e-06 5.06201e-19
6.4365e-05 -1.01694e-05 -1.08079e-18
-1.00394e-05 5.03967e-06 2.52594e-18
4.70775e-06 -9.44504e-06 -1.16951e-18
-4.99787e-05 -3.80824e-05 1.54179e-18
-1.70422e-05 3.69648e-05 -2.02683e-18
-5.11695e-05 3.78102e-05 -3.07854e-18
1.54555e-05 3.40268e-05 2.23887e-21
-9.61018e-06 6.8245e-06 -6.61351e-19
-1.35596e-05 1.63013e-05 -1.38177e-18
-2.41701e-05 3.03568e-05 -1.2264e-18
-3.78987e-05 -4.88734e-06 -5.13007e-18
-6.3875e-07 1.06724e-05 6.81988e-19
-2.56002e-05 -3.04844e-05 -4.07315e-18
-3.9212e-05 6.93436e-06 -3.56128e-21
-1.49361e-05 3.46448e-05 -3.98145e-21
-1.15274e-05 4.61156e-05 2.8302e-18
-1.18834e-05 2.63494e-05 -3.16962e-19
-2.23597e-05 1.80162e-05 -4.51427e-18
1.64202e-05 -4.03602e-06 3.40174e-18
2.56673e-05 -1.37886e-06 1.18549e-18
8.9108e-06 5.42647e-06 -3.19569e-18
-8.09893e-06 -5.30593e-05 -2.10398e-18
-5.00099e-05 -1.95026e-05 -2.99589e-18
2.49936e-05 3.26651e-07 -7.93606e-18
3.80636e-05 -7.34856e-06 -2.62323e-18
-6.85351e-06 -8.701e-06 4.35835e-21
-3.30251e-05 2.32202e-05 -7.1161e-18
-2.95969e-05 3.39042e-05 -5.82279e-18
4.0237e-05 -1.44979e-05 4.73969e-19
-1.86862e-05 -3.16625e-05 -3.49633e-18
-1.90204e-05 3.14175e-05 4.02549e-18
-3.69038e-05 -1.30694e-06 -2.79439e-18
-1.67844e-05 3.30117e-05 5.72901e-22
-3.67868e-05 3.81593e-07 -3.55603e-19
4.57595e-05 1.63865e-05 4.04212e-18
3.69341e-05 1.35932e-06 5.73447e-18
3.47238e-05 -1.77899e-05 4.72314e-18
1.01285e-05 -4.88124e-05 -5.31917e-18
1.83527e-05 -3.19706e-05 -2.63535e-18
1.82281e-05 3.19669e-05 -3.13439e-18
9.91883e-06 4.76942e-05 -2.11325e-18
4.99729e-05 -1.40915e-05 -1.04428e-18
3.20375e-05 1.58684e-05 1.06151e-18
3.07916e-05 8.41267e-06 -3.64661e-18
P_ext 3 563 float
-1.05366e-06 3.56264e-07 -9.21922e-20
9.97624e-10 3.90213e-08 -1.79176e-20
-9.70835e-08 -9.12983e-08 -1.09519e-19
-3.07108e-08 2.83479e-08 1.83838e-20
2.67891e-08 5.13073e-10 -2.96663e-20
3.1952e-08 -1.29675e-07 -1.32306e-20
-1.03739e-06 -3.60575e-07 -6.29801e-20
-7.61112e-08 -8.63438e-08 -3.4205e-22
2.11728e-07 3.7502e-09 -8.52855e-20
7.72997e-08 -7.26077e-09 -1.58031e-20
6.85852e-07 1.60755e-07 1.16053e-19
3.76942e-08 -1.10344e-07 2.34795e-20
8.63816e-08 1.02825e-07 5.3207e-21
-8.89972e-09 8.05483e-08 -4.7082e-20
2.41965e-08 8.96595e-09 8.21847e-20
-1.35348e-07 -2.21564e-09 -2.83557e-20
-1.69113e-08 5.30791e-08 5.54198e-20
8.15896e-08 -1.23106e-08 5.74191e-20
9.37156e-08 1.67134e-07 4.11929e-20
-1.25732e-07 1.26793e-08 5.15735e-23
-4.72022e-08 -1.78086e-07 -3.3433e-20
1.55733e-09 3.16822e-10 9.63793e-20
1.39257e-07 1.13376e-08 4.36697e-20
8.86557e-08 -1.02364e-07 -1.55569e-20
-1.28438e-07 -2.06819e-08 1.8828e-22
-2.42126e-08 -7.02855e-08 1.32313e-20
7.88476e-07 -6.45012e-08 4.17535e-20
9.6597e-08 8.14387e-08 5.205e-20
-2.88492e-07 -2.29161e-07 -2.2459e-20
1.69504e-08 3.18938e-09 2.95048e-20
-1.28962e-07 -2.29656e-08 4.95685e-20
5.63828e-08 -3.66897e-07 -4.53075e-20
5.92507e-07 -6.06801e-07 -3.90685e-20
1.26159e-09 -2.78234e-08 1.32795e-20
-7.48702e-09 2.13975e-08 -7.25185e-20
-2.32258e-08 -1.53005e-08 -7.03011e-20
3.07423e-09 1.53638e-08 3.56615e-20
-2.34824e-08 3.99922e-09 -3.28141e-23
9.32835e-08 -1.01456e-07 -1.0359e-20
5.78175e-07 6.32375e-07 1.22903e-20
3.69316e-07 -1.67323e-07 -2.52639e-20
5.71149e-09 -1.40696e-08 -7.85181e-20
-9.24825e-09 -1.23209e-08 4.9079e-20
-1.28111e-07 2.63147e-08 -3.38294e-20
3.66406e-07 -3.59828e-07 -2.95115e-20
-3.4141e-07 1.2289e-07 -6.30749e-20
-4.31341e-08 -1.88224e-07 2.08472e-20
7.78279e-08 1.89056e-07 1.55221e-20
-1.22885e-07 3.21335e-08 -1.29298e-20
-2.11461e-07 3.28896e-07 -5.46395e-20
3.74831e-07 1.83565e-07 8.02293e-20
3.25471e-07 -1.07047e-07 -6.59738e-20
-9.58731e-09 2.27857e-08 -3.98847e-20
-2.54703e-07 -2.2856e-07 -1.24321e-20
-2.49955e-08 3.30098e-09 -2.65433e-20
-5.46296e-07 3.20815e-07 -1.04172e-19
-6.95208e-09 -2.13082e-08 -1.90024e-20
7.25286e-08 -3.36349e-07 4.83309e-20
-2.17165e-08 -4.73121e-09 -6.22503e-20
5.69028e-08 1.14093e-07 -1.54808e-20
-3.03634e-08 -9.21273e-09 -3.38308e-20
-3.20595e-08 -3.01121e-08 -3.16006e-20
7.10928e-07 3.12993e-07 7.87829e-20
-6.12703e-10 6.20848e-08 1.09732e-20
9.59381e-09 -4.14234e-08 2.6922e-21
1.61224e-08 -9.21601e-08 4.71807e-20
-6.39961e-09 -3.01745e-08 3.66462e-20
-7.3759e-08 -1.87441e-08 5.19814e-21
-8.5862e-08 1.05058e-07 -1.03302e-19
2.30271e-08 -8.3603e-09 5.18647e-20
-9.45627e-09 -2.34419e-08 -7.21481e-20
-2.47219e-08 -3.62405e-09 -4.8287e-20
-4.25589e-08 3.9429e-07 -8.73439e-20
-7.57533e-08 3.82626e-08 3.07449e-21
-7.34948e-08 1.25709e-07 -8.80918e-20
-7.3928e-07 8.68962e-08 -1.02323e-19
3.23799e-11 -5.85424e-08 7.45653e-20
-7.11681e-08 -5.96291e-08 -1.06005e-20
2.9969e-08 7.31292e-08 2.91872e-20
2.83335e-07 5.66443e-08 7.47477e-21
4.06082e-07 -3.53323e-07 -5.72195e-20
1.11307e-08 2.72577e-08 -3.21312e-20
2.74667e-08 8.52516e-09 4.7536e-20
-3.78374e-07 2.79938e-07 -1.62062e-19
4.4167e-07 5.36966e-08 9.82556e-20
-6.69442e-08 5.98636e-07 -6.90769e-20
-2.32077e-08 -1.19972e-07 -4.67812e-21
8.14662e-08 5.73774e-08 7.11529e-20
3.52435e-07 3.7167e-07 3.4539e-20
6.38566e-09 2.83972e-09 -1.14959e-19
-6.79256e-08 3.38249e-07 -5.8e-20
5.76812e-09 -3.08875e-09 -8.59574e-21
-4.07832e-08 2.78152e-08 4.01843e-20
8.80463e-08 3.5832e-08 8.12723e-20
-3.25696e-07 1.00686e-07 2.5851e-21
1.89036e-07 3.32168e-07 2.2809e-20
1.17602e-07 -5.3097e-07 -2.75787e-20
2.76443e-08 7.24739e-08 -6.28152e-20
-5.0018e-08 -2.97611e-08 7.8733e-21
4.14458e-08 1.32552e-07 5.47933e-21
2.75578e-07 4.68946e-08 3.29806e-20
-1.82938e-07 3.7794e-07 -5.53731e-20
4.86306e-07 -1.58939e-07 -6.6828e-20
-2.69859e-08 5.89183e-08 -7.74397e-21
5.17201e-08 5.25289e-08 6.02734e-20
-3.07412e-08 -7.09155e-08 -4.44863e-20
-1.23671e-08 -5.40305e-08 2.12318e-20
1.43049e-07 1.71488e-08 -3.25332e-22
-1.04341e-07 4.88074e-07 -1.19437e-20
-2.41309e-08 1.48881e-08 -2.74538e-21
7.13521e-08 1.05742e-07 1.5454e-20
-3.52826e-08 -5.00865e-07 4.23304e-20
5.06684e-07 1.52134e-07 3.98531e-20
3.4497e-08 -6.09599e-08 2.69546e-21
-7.87583e-08 -9.00864e-09 2.88409e-20
-3.24068e-07 -1.30069e-07 -2.54968e-20
1.60245e-08 1.71394e-08 -6.78114e-20
-5.14771e-07 -1.80027e-07 -7.47879e-20
1.62681e-08 -1.70921e-08 2.65292e-20
-5.00551e-08 -3.51948e-07 -1.25845e-20
2.17218e-07 8.24297e-09 -6.40806e-20
-1.93472e-08 1.65072e-08 -3.94553e-22
5.19378e-09 2.37226e-08 -4.44547e-20
1.4532e-08 -6.36333e-08 8.68172e-20
2.52392e-08 -1.18021e-08 4.41183e-20
4.69259e-10 2.55633e-08 2.16695e-20
2.20665e-08 -2.75518e-09 1.36644e-19
4.11695e-08 -6.07377e-08 -3.70871e-20
-1.054e-07 -5.37577e-07 -4.47033e-20
2.78443e-07 -2.14348e-07 -5.32064e-20
9.0032e-10 3.39215e-08 -2.22653e-21
-2.34797e-08 -4.24639e-09 -1.78054e-20
-7.63883e-09 -2.62603e-08 6.07832e-20
-1.93615e-08 -1.36677e-08 -6.00005e-20
-2.60308e-07 3.25286e-07 1.27583e-20
-2.99025e-10 -2.58345e-08 5.40473e-20
-3.2561e-07 5.11259e-07 -1.41316e-19
-1.22373e-07 5.62763e-08 7.88651e-21
1.72077e-08 1.85552e-08 -3.74899e-20
-2.2242e-08 -1.30054e-08 5.19526e-21
1.58763e-07 3.83168e-07 3.0385e-20
9.16029e-08 8.16411e-08 3.94234e-20
2.22342e-07 -7.33251e-08 -2.56273e-21
1.2513e-08 -6.8415e-08 9.68187e-20
-4.03423e-07 -3.71748e-07 -3.72688e-20
-3.88999e-08 6.72252e-08 1.05099e-20
1.01007e-07 5.3879e-08 3.14774e-20
1.47702e-07 -5.08497e-08 2.57652e-20
6.37861e-08 -1.27423e-07 7.69973e-21
2.5286e-07 -1.16597e-07 -2.03476e-20
1.68235e-07 -7.94091e-08 4.88217e-20
1.69068e-08 -1.40139e-08 -6.59736e-20
2.93298e-07 2.31995e-07 4.989e-21
-4.24579e-08 -1.2278e-07 -1.02332e-20
-5.21462e-08 -4.46158e-08 -5.59858e-21
-8.52574e-09 -2.23787e-08 -7.81524e-20
1.17132e-08 8.76032e-08 -2.32445e-20
-3.92292e-07 2.81254e-08 -3.77187e-20
-1.4331e-07 -3.74479e-07 2.54915e-21
-6.17186e-08 7.86707e-08 2.15678e-20
1.21366e-07 1.61746e-07 2.34785e-20
3.01888e-07 -2.14119e-07 -1.7638e-20
-4.4132e-07 -2.35954e-07 -6.85217e-20
1.96331e-07 -3.1961e-07 -1.25336e-20
2.55651e-07 -3.14471e-07 1.53877e-20
-7.52958e-08 7.45772e-09 -6.22426e-20
-2.2443e-07 -3.24768e-07 -1.13579e-19
-3.92855e-07 -6.15715e-08 -5.02778e-20
-4.68197e-08 -3.58512e-07 1.57565e-22
1.74764e-07 -3.61221e-07 -4.28136e-20
3.65529e-09 -4.96566e-08 4.25115e-20
5.19334e-08 3.4586e-07 3.0815e-20
-1.85013e-07 -3.23657e-07 -6.51415e-20
-1.73563e-08 -7.94171e-08 1.30698e-20
-2.67448e-07 2.00224e-07 -6.61754e-20
-5.23971e-08 -1.71765e-08 1.85493e-20
-4.08206e-08 -2.80551e-08 -5.85697e-20
1.06745e-07 -5.47424e-08 2.31697e-20
-1.46881e-08 2.07957e-08 -3.24849e-20
5.67359e-08 -7.16147e-08 -3.67694e-20
-3.32794e-07 -1.48002e-07 -2.27251e-21
-4.40835e-08 -5.93738e-08 -4.96158e-20
4.60723e-08 6.29863e-08 5.50413e-20
2.40641e-07 3.32172e-07 1.50926e-20
-8.51798e-08 -3.92794e-08 -2.64682e-20
-3.70193e-07 -8.32903e-09 -4.76293e-20
-4.74506e-08 -4.40087e-08 3.16109e-20
-2.70022e-09 -6.37359e-08 3.42221e-20
4.64801e-08 2.34422e-08 2.52743e-21
-5.36055e-08 5.28402e-08 -2.04808e-20
-8.95312e-09 -9.38243e-08 6.01831e-20
-4.94173e-07 1.21727e-07 -5.26474e-20
2.70894e-07 2.31099e-07 2.02137e-20
3.61962e-08 3.76381e-07 -2.22436e-21
-2.18247e-08 7.50267e-09 -2.35727e-21
-7.28093e-08 2.26247e-09 3.0865e-21
3.34267e-08 6.38193e-08 1.01764e-20
-2.64603e-08 -6.49829e-09 -1.07264e-20
3.13171e-09 -2.25597e-08 1.01767e-19
-1.45606e-08 9.93135e-08 2.92075e-20
1.61339e-08 1.70008e-08 -1.56762e-20
-1.83913e-07 4.0654e-08 2.81394e-20
-1.86519e-07 2.03514e-07 2.5428e-20
-2.01373e-08 1.86846e-08 -6.24235e-23
-3.37434e-07 2.03646e-07 -2.25788e-20
-8.66191e-09 2.87546e-08 -1.00387e-20
9.10711e-08 -3.2623e-08 -4.23224e-20
4.22985e-07 -3.89149e-08 5.05011e-20
-5.30236e-08 3.35508e-08 5.85658e-20
2.1444e-08 9.88512e-09 -1.5777e-20
5.51878e-08 -3.45364e-08 4.45524e-20
-9.46808e-08 3.15561e-08 -3.93766e-20
-6.89049e-08 1.80632e-08 -1.82767e-20
2.4229e-08 -7.07903e-09 -1.9065e-20
2.24091e-07 -1.36283e-07 -6.39376e-20
-8.81926e-08 5.62319e-08 3.94264e-20
-2.63451e-07 -5.49374e-08 -8.09145e-20
-5.59928e-08 -2.94821e-08 1.04968e-20
2.14176e-08 -1.42202e-08 -5.27968e-20
2.37252e-08 1.66697e-08 2.85854e-20
-5.98992e-09 2.69735e-08 4.77728e-20
-2.43145e-09 -3.04339e-08 -8.65562e-20
-2.46971e-08 1.26232e-08 5.56931e-21
-2.76401e-08 -1.4159e-08 -2.59986e-20
6.92426e-08 -2.6169e-08 4.71963e-21
-2.53354e-08 -6.96939e-09 -1.33483e-20
-2.52815e-08 6.7131e-09 3.47306e-20
-6.22998e-09 2.51188e-08 -1.56891e-20
-6.7637e-09 -2.56694e-08 7.92962e-21
1.67068e-08 -1.87057e-08 5.81144e-20
1.60617e-08 1.79026e-08 -5.10088e-20
9.6933e-09 2.67431e-07 3.03423e-21
5.18884e-08 -4.28038e-08 -5.55691e-20
1.21103e-08 -2.28393e-08 4.41538e-20
-2.01687e-07 7.45447e-09 1.79167e-20
1.91508e-08 -1.81796e-08 7.44421e-21
1.78803e-08 1.84623e-08 -6.95822e-20
2.74323e-08 -5.96918e-10 -3.67534e-20
9.25809e-08 2.62067e-07 1.47564e-19
-1.38797e-08 -2.26981e-08 -1.04611e-19
3.00127e-08 -6.86917e-08 1.07027e-19
-2.25072e-07 -1.24527e-07 2.54234e-20
-4.94595e-08 -3.21061e-08 -1.61118e-20
-2.25894e-07 1.33976e-07 4.56831e-20
2.00336e-08 -2.0539e-08 1.5436e-20
-9.60191e-09 2.13415e-08 5.48197e-20
-5.28278e-09 -2.58966e-07 -1.78854e-20
-8.47825e-08 -2.56487e-07 4.86625e-20
3.88709e-07 3.69958e-07 -1.7307e-20
4.15777e-07 -2.36109e-08 1.01629e-20
-2.94933e-08 6.42431e-09 6.11474e-20
-2.78072e-07 -4.91393e-07 -1.73167e-23
6.63046e-08 1.13686e-07 4.9257e-20
-2.66554e-07 3.13944e-08 -7.57866e-21
1.9136e-07 5.35095e-08 -6.6955e-20
-2.61477e-08 -1.05762e-10 -7.52923e-20
5.68692e-10 -2.71782e-08 1.30924e-19
-2.37464e-09 -1.85909e-08 -6.25993e-20
-2.31778e-08 -1.37909e-08 2.66521e-21
-5.76558e-07 -2.18487e-08 -4.99371e-20
1.81212e-07 -2.04951e-07 2.04457e-20
1.23225e-08 2.39024e-08 7.48128e-21
6.29966e-09 -1.14431e-07 3.14704e-20
-1.0809e-07 2.5598e-07 -7.09746e-20
2.2158e-09 2.87576e-08 8.06692e-21
1.93366e-07 -1.38366e-07 -4.63368e-20
-1.70094e-08 -7.43752e-09 -7.06189e-20
-1.64431e-07 -2.13713e-07 -1.76679e-20
2.26578e-08 1.153e-08 2.1032e-21
5.36197e-08 5.18375e-08 2.39074e-20
-3.81497e-08 -5.94291e-08 2.76066e-21
2.34743e-08 -7.59073e-09 1.53403e-20
7.9454e-08 -5.54681e-08 -4.21511e-20
-4.7193e-09 4.43039e-08 -2.87507e-20
6.53632e-08 -1.10166e-07 7.62947e-21
5.9685e-07 3.00729e-08 5.48099e-20
-5.0564e-07 1.33782e-07 -6.94737e-20
4.23454e-08 2.95079e-08 -2.40822e-20
-6.26453e-08 -1.50823e-07 -4.98363e-21
-9.52251e-08 -6.21223e-08 -1.04651e-20
3.09943e-07 -3.11516e-09 -3.59112e-20
2.65e-09 -5.91419e-08 1.16638e-19
-7.74617e-08 -2.73504e-08 -1.31092e-20
1.05629e-07 -2.52372e-07 -4.56065e-20
8.42132e-09 1.01666e-07 1.10227e-19
8.66941e-08 2.6885e-07 8.71675e-20
1.04049e-07 -5.48322e-08 -2.38075e-20
-1.89795e-07 2.02019e-07 9.21478e-20
1.74524e-07 2.15657e-07 7.62285e-20
-1.09787e-08 4.90859e-09 -4.42557e-20
1.80685e-09 4.68498e-08 -5.02029e-20
3.53528e-09 -2.12587e-08 -7.93896e-20
-1.68291e-08 -1.39598e-08 -8.19509e-20
-5.79635e-08 4.59595e-08 -2.04433e-20
-2.65919e-07 -6.30039e-08 5.36829e-20
9.30001e-10 2.98896e-08 3.5702e-20
-6.95492e-08 2.07614e-08 1.56741e-20
1.88413e-07 -2.73152e-08 3.60319e-20
-8.05691e-08 -2.60906e-07 -3.60668e-23
-1.58686e-07 2.52719e-07 3.07545e-20
-4.48095e-08 2.07112e-08 1.05839e-20
-2.12675e-07 -1.50483e-07 1.79334e-20
4.81436e-08 -2.25797e-08 4.76608e-20
-2.88368e-07 -1.41202e-08 -1.27479e-20
1.41166e-07 -4.98124e-07 -2.72303e-20
1.92878e-07 -2.02544e-07 -4.60124e-20
2.94921e-07 5.22894e-07 4.51796e-20
-2.76319e-09 6.32047e-08 4.23914e-20
2.53163e-08 -2.62706e-07 4.60888e-20
-1.02596e-08 6.21415e-09 -8.38906e-21
-1.36725e-07 -2.55128e-07 -2.55832e-20
4.58776e-08 -3.92641e-08 2.09593e-20
-2.63774e-08 2.65737e-07 -1.04022e-19
6.40421e-08 -1.87993e-08 -1.36627e-20
1.45727e-07 2.59701e-07 7.93781e-20
1.45958e-07 -3.40793e-09 2.85334e-20
2.66398e-07 -7.86024e-07 2.50686e-21
-5.64493e-08 -1.05091e-07 5.49511e-20
-2.35419e-07 1.02577e-07 3.82822e-20
-3.29889e-08 1.62096e-08 -2.67155e-21
2.23488e-07 1.49667e-07 6.37577e-20
1.59297e-07 -8.79451e-08 3.60368e-20
8.42073e-08 3.69956e-08 -5.77738e-20
-1.7222e-08 1.45529e-08 -5.49725e-20
1.59777e-07 -2.46832e-07 -3.83084e-20
-1.7034e-07 -2.12567e-07 5.41167e-21
2.19779e-07 8.66907e-08 1.55918e-20
5.59118e-08 -3.45584e-08 1.53926e-20
1.02747e-07 -2.55372e-07 3.06261e-20
1.20745e-07 -2.28891e-08 1.80185e-20
-1.17174e-07 -4.67478e-08 -1.53814e-20
-5.09488e-09 -4.7563e-08 4.50963e-20
-2.68578e-07 3.72956e-08 -1.28846e-20
2.82184e-08 2.35609e-07 3.3864e-20
1.83739e-07 4.28756e-08 -2.07001e-20
-2.08715e-07 -9.3419e-08 -3.09443e-20
-1.02628e-07 2.63153e-07 -4.8211e-20
-2.34577e-08 -2.29547e-07 -2.0267e-20
6.06883e-08 2.96196e-08 6.87744e-20
-3.93905e-08 1.11018e-07 9.4418e-20
-1.87687e-07 1.34612e-07 2.56658e-20
2.41043e-07 1.21582e-07 5.12489e-20
-1.09737e-07 -3.44735e-08 8.07449e-21
-2.66098e-08 -1.13004e-07 6.55796e-20
1.84201e-07 2.14119e-07 -9.96963e-21
-4.33044e-08 -1.96436e-08 -3.18728e-20
6.05678e-07 -4.3551e-07 -1.15697e-19
1.28269e-07 -8.97413e-08 -2.11891e-20
1.04745e-07 5.13302e-07 -6.18177e-20
1.35253e-07 -1.30029e-07 -2.76114e-21
-2.9241e-07 1.11358e-06 -9.47743e-20
-2.94104e-07 -1.10273e-06 -1.13843e-20
7.22585e-07 9.49802e-07 1.14989e-20
7.13622e-07 -9.49547e-07 -1.36782e-20
1.18283e-06 -4.61392e-10 -3.99688e-20
-1.01965e-06 4.10223e-07 -5.58095e-20
-1.00274e-06 -4.14684e-07 5.32329e-20
4.87665e-08 2.64547e-08 -1.34948e-20
3.1291e-08 1.51938e-08 -5.38188e-20
9.08903e-08 1.22401e-08 4.37883e-20
1.60462e-07 8.5756e-08 5.42801e-20
4.7599e-08 1.89603e-07 8.76702e-20
-1.72026e-07 -1.47795e-07 -5.14029e-20
8.6633e-08 -7.98613e-08 -4.98425e-20
1.8484e-07 1.48342e-07 1.1575e-19
-4.27469e-08 2.33363e-07 -1.76646e-20
3.03489e-08 -1.4907e-08 4.52525e-20
4.35049e-08 -2.23946e-07 5.67181e-20
5.6845e-08 3.83296e-08 6.08257e-20
3.33386e-07 1.16789e-07 3.0374e-20
7.47482e-09 2.40007e-08 4.56318e-20
1.28854e-07 4.21742e-08 -6.24484e-20
-1.59476e-07 8.82155e-08 -1.50218e-20
-2.18344e-07 7.55343e-08 -2.57166e-20
4.3233e-08 -2.9619e-08 7.69852e-20
-1.39405e-07 -6.45094e-08 -4.39902e-20
-1.53169e-07 -9.07246e-08 -5.39973e-20
-1.3426e-08 -1.5376e-07 1.60863e-20
6.05719e-10 -1.76595e-07 -4.10492e-20
-1.94431e-07 -8.4048e-09 -7.7416e-21
2.88576e-07 -4.48058e-08 1.52981e-20
1.55684e-07 9.59475e-08 8.26402e-20
-1.2883e-07 8.7884e-08 1.82001e-20
-5.80904e-08 2.84365e-08 3.44626e-20
1.45308e-07 -1.302e-07 7.5642e-21
-1.09176e-07 1.69992e-07 -1.76252e-20
-1.34487e-07 -1.41667e-07 -4.619e-20
-1.2745e-08 1.85165e-07 2.34674e-20
-2.77032e-08 1.5628e-07 1.35419e-19
4.56656e-09 -1.13458e-07 7.83809e-20
5.85327e-08 -1.89182e-07 2.80572e-20
-9.56725e-08 -6.13976e-08 -3.13183e-20
1.32551e-07 -3.78015e-08 1.57221e-20
3.24399e-10 1.84937e-07 4.42406e-20
-4.0006e-09 1.18167e-07 1.04758e-19
-2.96974e-08 1.32919e-07 3.66039e-20
2.17543e-07 -5.35371e-08 4.91418e-20
-4.569e-08 4.3622e-08 2.92497e-20
4.93077e-08 1.85086e-07 1.81433e-20
-2.97999e-08 1.88087e-08 -5.90924e-20
1.09865e-07 5.09443e-07 -1.9248e-20
-5.38941e-08 2.90933e-08 6.61961e-20
5.71813e-08 -2.97654e-08 3.16615e-20
1.64475e-08 1.57276e-07 3.40042e-20
-1.84448e-07 4.38131e-08 1.55773e-20
-5.67045e-09 -7.99579e-08 -1.29622e-20
7.61034e-09 -7.26796e-07 -3.4062e-20
2.20783e-08 1.33331e-07 -1.01348e-20
-1.37794e-07 1.31088e-07 -3.60928e-20
2.13978e-07 7.95837e-07 -4.90038e-20
1.02774e-08 6.76806e-09 -9.00065e-20
8.87958e-09 -6.45486e-09 1.32938e-19
1.03739e-07 -8.08978e-08 -5.46452e-21
-1.47251e-07 1.31843e-07 -2.30445e-20
-1.76747e-07 -5.22104e-08 -2.57429e-20
-1.81628e-07 -5.96526e-08 2.61252e-20
-3.61863e-09 2.22725e-09 2.53407e-21
-2.49973e-09 -1.20439e-09 -1.21179e-19
8.484e-08 1.72387e-08 4.67961e-20
2.69264e-08 1.23823e-07 3.01037e-21
-3.11207e-09 1.23119e-07 -4.94737e-21
-6.08749e-07 -4.42197e-07 -4.33008e-20
1.08057e-07 -1.69958e-07 -1.82314e-20
5.466e-08 1.96881e-08 4.99479e-21
-2.00466e-07 -2.15653e-08 2.59728e-21
-1.26754e-07 1.67459e-07 -4.35492e-20
-1.63638e-07 7.69441e-08 -4.63901e-20
5.97649e-07 4.2942e-07 5.04054e-20
5.9145e-08 3.88783e-08 2.34377e-20
-5.81735e-08 1.89865e-07 4.14839e-20
-1.14679e-07 -9.82265e-08 -1.02698e-20
2.85277e-08 -1.49574e-07 -2.29751e-20
-9.2796e-08 -1.76554e-07 -2.53885e-20
-1.487e-07 -1.01924e-07 2.87147e-23
1.01915e-07 -1.80743e-07 3.60727e-20
1.22252e-07 -1.68007e-07 -2.56592e-20
-3.87472e-08 -7.58421e-07 5.89926e-20
3.11826e-07 -4.98776e-07 -3.51981e-20
1.48969e-08 -1.81575e-07 5.30215e-21
1.28045e-07 9.74771e-08 8.58581e-20
-1.1502e-07 -1.39619e-07 -3.64283e-20
-9.9755e-08 1.85975e-07 7.94725e-21
-6.12869e-08 1.82278e-07 4.94101e-20
1.33512e-07 1.38252e-07 -7.71711e-21
6.54548e-08 -1.70492e-07 3.32364e-20
-1.69234e-07 -4.82535e-07 -6.16545e-20
3.81425e-09 5.86341e-08 8.2706e-20
1.35167e-07 1.39086e-07 2.5819e-20
-7.28663e-08 -3.58814e-08 -2.37121e-20
-6.05466e-08 3.30524e-08 -1.59423e-20
5.41836e-07 -2.37369e-07 -7.34675e-20
6.72969e-08 -1.11221e-07 1.55228e-20
-6.38743e-08 -1.09274e-07 -4.43261e-20
2.42423e-08 -2.09664e-09 3.42682e-20
2.09046e-09 -9.18723e-09 -1.9049e-20
-6.79747e-09 -6.72124e-09 6.52461e-20
2.98492e-08 1.95692e-08 -6.40453e-20
-9.35772e-08 -1.76647e-07 -4.09228e-20
1.43997e-07 5.7749e-08 6.22997e-20
-3.50402e-07 -3.85222e-07 4.81703e-21
1.32118e-09 1.1293e-08 -9.23974e-20
1.3081e-09 2.02106e-09 -1.04862e-19
2.52752e-09 -3.31003e-10 -1.40515e-20
3.36246e-07 -6.6401e-07 -4.08513e-20
-1.39765e-08 1.64612e-08 3.47168e-20
-3.20514e-09 1.9942e-08 2.47942e-20
-1.44787e-07 5.14688e-08 -7.58016e-21
-5.0036e-09 5.88112e-08 5.08116e-20
-3.18104e-08 9.43169e-08 -3.34651e-20
6.55729e-08 2.79585e-09 -3.17561e-21
1.47901e-08 5.66987e-08 -1.27585e-20
-3.87636e-09 7.84027e-08 6.88642e-20
1.12384e-07 6.11425e-08 7.27059e-20
8.0075e-09 7.23403e-07 -5.57734e-20
-1.04561e-07 9.89382e-08 8.16155e-21
7.84011e-08 -5.27146e-08 -2.77859e-22
4.52617e-08 -4.13282e-08 -5.79479e-20
-7.41963e-07 -1.01874e-07 -1.29188e-19
-2.11471e-08 8.38325e-09 -4.35277e-20
-5.40261e-07 -6.39079e-07 -1.19687e-20
9.81622e-09 2.62896e-08 1.38471e-20
9.47628e-08 1.84258e-08 -1.87853e-20
2.82128e-07 -3.66152e-08 4.84563e-20
-6.44944e-08 -1.05979e-07 -2.77154e-21
1.23312e-07 3.53675e-08 -2.88068e-20
6.41323e-10 -3.13825e-08 3.20122e-20
-6.9546e-08 8.0464e-08 2.90875e-20
-2.65963e-08 -1.69187e-08 2.13316e-20
-6.26852e-08 1.2735e-07 -4.12537e-20
1.1341e-08 8.03792e-08 -1.54725e-20
1.84293e-08 1.35078e-08 -4.31186e-20
1.82896e-08 -1.29763e-08 6.98174e-20
-5.02983e-07 -1.37022e-07 -9.86483e-20
5.54107e-08 2.0676e-08 2.8465e-20
-6.67128e-08 1.29124e-06 -5.81276e-20
-4.63988e-09 -1.32662e-06 -7.22196e-20
6.52981e-07 1.11782e-06 5.72662e-20
-6.77694e-08 5.37629e-08 6.32796e-20
-3.46009e-07 6.96334e-07 -1.08838e-19
6.56732e-07 -1.07891e-06 1.9305e-20
-1.08598e-07 -1.75766e-07 -1.52287e-20
9.97276e-07 8.73841e-07 2.34958e-20
1.17243e-08 -2.0795e-08 -6.1261e-20
-1.22167e-08 -2.10712e-08 -4.52911e-20
1.04539e-06 -8.54385e-07 -6.27853e-20
-6.40598e-08 1.25979e-07 -4.11722e-20
-6.56668e-07 -4.18213e-07 -2.68851e-20
-5.53746e-07 -1.15416e-06 -4.61469e-20
-3.1015e-07 -7.13507e-07 5.58445e-20
-5.69265e-07 1.17337e-06 -1.13325e-19
-1.34529e-07 7.95154e-07 -2.68595e-20
-9.48305e-10 2.78451e-08 8.69048e-20
-3.45413e-07 4.44709e-07 -3.92388e-20
-3.30695e-07 -6.76829e-07 -4.58717e-20
1.28593e-06 2.24401e-07 2.4025e-20
-1.00555e-07 8.54881e-08 4.95493e-20
-2.36213e-09 5.64806e-08 1.63465e-20
-6.22023e-07 4.50302e-07 -1.68533e-19
-1.11517e-07 5.95184e-08 -7.72685e-21
1.27326e-06 -1.99596e-07 -2.8914e-20
-8.5113e-08 5.71351e-08 7.60884e-20
6.20004e-08 -1.28224e-07 2.04379e-20
-9.90855e-07 -7.52565e-07 3.59508e-20
-3.34109e-07 7.15878e-07 -2.43418e-20
-1.01486e-06 7.47038e-07 -1.51332e-19
2.96531e-07 6.61534e-07 2.63934e-20
-1.09169e-07 8.67813e-08 2.07726e-20
-3.02945e-08 1.71575e-08 -3.23683e-20
-1.65917e-09 -2.64105e-09 1.93654e-20
4.21882e-10 -2.27785e-09 5.15393e-20
8.29981e-09 8.7147e-08 2.90189e-20
-2.43369e-09 2.64515e-09 -2.25096e-20
1.28922e-09 3.27083e-09 -3.58066e-20
2.20029e-09 -9.46581e-10 3.28876e-20
-1.29862e-09 1.03235e-08 1.31715e-19
-2.2817e-07 4.97816e-07 -7.41927e-21
-1.7163e-08 1.23185e-08 7.56202e-21
2.95788e-08 -1.86357e-08 7.17476e-20
2.89936e-08 -1.67959e-08 5.33268e-20
8.35265e-08 3.25962e-08 -8.65745e-20
-7.86049e-10 -8.83561e-09 -2.81925e-21
-7.88886e-09 -3.99944e-09 -6.87679e-20
2.89764e-08 1.69034e-08 -8.92205e-20
7.37382e-07 -1.42115e-07 -3.63526e-20
-9.55386e-08 -1.21778e-07 -2.31673e-20
-6.45588e-07 4.5009e-07 -1.56977e-19
-5.7802e-07 6.59263e-07 -1.1067e-19
7.79148e-07 -2.8138e-07 -5.6336e-20
-3.7376e-09 -1.08468e-08 2.26612e-21
-4.10472e-09 1.1142e-08 7.38818e-20
-1.22446e-08 2.10367e-09 6.74644e-20
-8.03017e-09 8.18877e-09 2.98502e-20
-1.10997e-08 -2.35301e-09 -3.81558e-20
2.05374e-09 2.61007e-09 3.56942e-20
1.19138e-08 -2.93238e-09 6.7914e-20
5.02246e-09 -3.53288e-09 6.55839e-20
-3.51775e-09 -2.53479e-09 -5.02794e-20
7.62015e-09 -7.83439e-09 -3.31063e-21
7.66244e-09 8.06768e-09 -1.63033e-19
-3.53921e-09 2.22786e-09 -1.8985e-19
3.87509e-09 -7.77493e-10 -1.59096e-19
6.4279e-09 3.56143e-09 -1.83022e-19
1.39225e-08 4.97015e-09 -2.44843e-20
SCALARS rr_necrosis float
LOOKUP_TABLE default
0
0
0
0
0
0
0
0
0
0
0
0
0
0
0
0
0
0
0
0
0
0
0
0
0
0
0
0
0
0
0
0
0
0
0
0
0
0
0
0
0
0
0
0
0
0
0
0
0
0
0
0
0
0
0
0
0
0
0
0
0
0
0
0
0
0
0
0
0
0
0
0
0
0
0
0
0
0
0
0
0
0
0
0
0
0
0
0
0
0
0
0
0
0
0
0
0
0
0
0
0
0
0
0
0
0
0
0
0
0
0
0
0
0
0
0
0
0
0
0
0
0
0
0
0
0
0
0
0
0
0
0
0
0
0
0
0
0
0
0
0
0
0
0
0
0
0
0
0
0
0
0
0
0
0
0
0
0
0
0
0
0
0
0
0
0
0
0
0
0
0
0
0
0
0
0
0
0
0
0
0
0
0
0
0
0
0
0
0
0
0
0
0
0
0
0
0
0
0
0
0
0
0
0
0
0
0
0
0
0
0
0
0
0
0
0
0
0
0
0
0
0
0
0
0
0
0
0
0
0
0
0
0
0
0
0
0
0
0
0
0
0
0
0
0
0
0
0
0
0
0
0
0
0
0
0
0
0
0
0
0
0
0
0
0
0
0
0
0
0
0
0
0
0
0
0
0
0
0
0
0
0
0
0
0
0
0
0
0
0
0
0
0
0
0
0
0
0
0
0
0
0
0
0
0
0
0
0
0
0
0
0
0
0
0
0
0
0
0
0
0
0
0
0
0
0
0
0
0
0
0
0
0
0
0
0
0
0
0
0
0
0
0
0
0
0
0
0
0
0
0
0
0
0
0
0
0
0
0
0
0
0
0
0
0
0
0
0
0
0
0
0
0
0
0
0
0
0
0
0
0
0
0
0
0
0
0
0
0
0
0
0
0
0
0
0
0
0
0
0
0
0
0
0
0
0
0
0
0
0
0
0
0
0
0
0
0
0
0
0
0
0
0
0
0
0
0
0
0
0
0
0
0
0
0
0
0
0
0
0
0
0
0
0
0
0
0
0
0
0
0
0
0
0
0
0
0
0
0
0
0
0
0
0
0
0
0
0
0
0
0
0
0
0
0
0
0
0
0
0
0
0
0
0
0
0
0
0
0
0
0
0
0
0
0
0
0
0
0
0
0
0
0
0
0
0
0
0
0
0
0
0
0
0
0
0
0
0
0
0
0
0
0
0
0
0
0
0
0
0
0
0
0
0
0
0
0
0
0
0
0
0
0
0
0
0
0
0
0
0
0
0
0
0
0
0
0
0
0
0
0
0
0
SCALARS rr_protein float
LOOKUP_TABLE default
1
1
1
1
1
1
1
1
1
1
1
1
1
1
1
1
1
1
1
1
1
1
1
1
1
1
1
1
1
1
1
1
1
1
1
1
1
1
1
1
1
1
1
1
1
1
1
1
1
1
1
1
1
1
1
1
1
1
1
1
1
1
1
1
1
1
1
1
1
1
1
1
1
1
1
1
1
1
1
1
1
1
1
1
1
1
1
1
1
1
1
1
1
1
1
1
1
1
1
1
1
1
1
1
1
1
1
1
1
1
1
1
1
1
1
1
1
1
1
1
1
1
1
1
1
1
1
1
1
1
1
1
1
1
1
1
1
1
1
1
1
1
1
1
1
1
1
1
1
1
1
1
1
1
1
1
1
1
1
1
1
1
1
1
1
1
1
1
1
1
1
1
1
1
1
1
1
1
1
1
1
1
1
1
1
1
1
1
1
1
1
1
1
1
1
1
1
1
1
1
1
1
1
1
1
1
1
1
1
1
1
1
1
1
1
1
1
1
1
1
1
1
1
1
1
1
1
1
1
1
1
1
1
1
1
1
1
1
1
1
1
1
1
1
1
1
1
1
1
1
1
1
1
1
1
1
1
1
1
1
1
1
1
1
1
1
1
1
1
1
1
1
1
1
1
1
1
1
1
1
1
1
1
1
1
1
1
1
1
1
1
1
1
1
1
1
1
1
1
1
1
1
1
1
1
1
1
1
1
1
1
1
1
1
1
1
1
1
1
1
1
1
1
1
1
1
1
1
1
1
1
1
1
1
1
1
1
1
1
1
1
1
1
1
1
1
1
1
1
1
1
1
1
1
1
1
1
1
1
1
1
1
1
1
1
1
1
1
1
1
1
1
1
1
1
1
1
1
1
1
1
1
1
1
1
1
1
1
1
1
1
1
1
1
1
1
1
1
1
1
1
1
1
1
1
1
1
1
1
1
1
1
1
1
1
1
1
1
1
1
1
1
1
1
1
1
1
1
1
1
1
1
1
1
1
1
1
1
1
1
1
1
1
1
1
1
1
1
1
1
1
1
1
1
1
1
1
1
1
1
1
1
1
1
1
1
1
1
1
1
1
1
1
1
1
1
1
1
1
1
1
1
1
1
1
1
1
1
1
1
1
1
1
1
1
1
1
1
1
1
1
1
1
1
1
1
1
1
1
1
1
1
1
1
1
1
1
1
1
1
1
1
1
1
1
1
1
1
1
1
1
1
1
1
1
1
1
1
1
1
1
1
1
1
1
1
1
1
1
1
1
1
1
1
1
1
1
1
1
1
1
1
1
SCALARS rr_(S_ext) float
LOOKUP_TABLE default
0.975185
0.975159
0.975165
0.975157
0.975169
0.975164
0.975185
0.975165
0.975168
0.975162
0.975156
0.975165
0.975166
0.975163
0.975162
0.975165
0.97516
0.975162
0.975165
0.975164
0.975168
0.975169
0.975163
0.975164
0.975164
0.975161
0.97517
0.975164
0.975168
0.975165
0.975166
0.975167
0.975173
0.975164
0.975168
0.975164
0.975163
0.975169
0.975166
0.975173
0.975167
0.975163
0.975162
0.975166
0.975163
0.975169
0.975166
0.975168
0.975165
0.975166
0.975167
0.975169
0.975165
0.975171
0.975165
0.975174
0.975168
0.97517
0.975168
0.975163
0.975159
0.975164
0.975177
0.975166
0.975164
0.975165
0.975159
0.975162
0.975164
0.975158
0.975165
0.975165
0.975168
0.975166
0.975166
0.975169
0.975167
0.975165
0.975161
0.975165
0.975172
0.975169
0.975161
0.975169
0.975171
0.975169
0.975164
0.975167
0.975163
0.975169
0.975169
0.975169
0.975165
0.975165
0.975171
0.975165
0.975174
0.975161
0.975167
0.975166
0.975169
0.975173
0.975168
0.97516
0.975162
0.975161
0.975162
0.975166
0.975169
0.975155
0.975163
0.975165
0.975167
0.975161
0.975161
0.975171
0.975171
0.975175
0.975171
0.975171
0.975165
0.975161
0.975157
0.975163
0.975156
0.975162
0.975169
0.975161
0.975174
0.97517
0.975163
0.975157
0.97516
0.975157
0.975173
0.975167
0.975175
0.975166
0.975161
0.975167
0.975172
0.975167
0.975168
0.975161
0.975175
0.97516
0.975165
0.975167
0.975165
0.975168
0.975166
0.975157
0.975166
0.975166
0.975161
0.975157
0.975164
0.975174
0.975173
0.975162
0.975168
0.975166
0.975167
0.975165
0.975172
0.975161
0.975173
0.975174
0.975167
0.975172
0.975165
0.97517
0.975166
0.975164
0.97517
0.975162
0.975165
0.975166
0.975167
0.975164
0.975169
0.975161
0.975161
0.975172
0.975166
0.975167
0.975163
0.975164
0.975167
0.975161
0.975166
0.975174
0.975169
0.975167
0.975157
0.975161
0.97516
0.97516
0.975157
0.975166
0.975157
0.975166
0.975166
0.97516
0.975169
0.975161
0.975166
0.975171
0.975165
0.975157
0.975167
0.975165
0.975162
0.975161
0.975167
0.975166
0.975167
0.975165
0.975155
0.975155
0.975154
0.975155
0.975155
0.975155
0.975163
0.975161
0.975161
0.97516
0.975161
0.975166
0.975165
0.975167
0.975162
0.975153
0.975169
0.975162
0.975162
0.975154
0.975165
0.975153
0.975161
0.975168
0.975164
0.975168
0.975162
0.975151
0.975167
0.975166
0.975172
0.975165
0.975161
0.975175
0.975165
0.975167
0.975165
0.975153
0.975155
0.975165
0.975155
0.975178
0.975166
0.975152
0.975165
0.975166
0.975155
0.975168
0.975165
0.975167
0.975155
0.975164
0.97516
0.975162
0.975167
0.975166
0.975164
0.975169
0.975169
0.975168
0.975166
0.975165
0.97517
0.975164
0.975164
0.975166
0.975166
0.975169
0.975166
0.97517
0.975165
0.975166
0.975164
0.97516
0.97516
0.975162
0.975171
0.975164
0.975163
0.975167
0.97517
0.975171
0.975166
0.975168
0.975167
0.975171
0.975163
0.97517
0.975175
0.975164
0.975167
0.975166
0.97517
0.975163
0.975167
0.975164
0.97517
0.975166
0.975181
0.975163
0.975168
0.975164
0.975167
0.975166
0.975166
0.975158
0.97517
0.97517
0.975168
0.975166
0.975169
0.975166
0.975165
0.975168
0.975171
0.975168
0.975168
0.975169
0.97517
0.975168
0.975166
0.975165
0.975168
0.975167
0.975166
0.975166
0.975169
0.975168
0.975157
0.975167
0.975172
0.975168
0.975128
0.975128
0.975127
0.975127
0.975124
0.975132
0.975133
0.975164
0.975166
0.975162
0.975166
0.975165
0.975169
0.975166
0.975168
0.975168
0.975166
0.975168
0.975167
0.975169
0.97516
0.975164
0.975167
0.975169
0.975168
0.975167
0.975167
0.975167
0.975166
0.975165
0.975166
0.975166
0.975167
0.975166
0.975166
0.975165
0.975166
0.975166
0.975167
0.975165
0.975165
0.975166
0.975164
0.975166
0.975165
0.975164
0.975167
0.975163
0.975167
0.975165
0.975164
0.975164
0.975166
0.975166
0.975168
0.975164
0.975159
0.975164
0.975168
0.975181
0.975169
0.97517
0.975165
0.975166
0.975168
0.975166
0.975175
0.975173
0.975162
0.975166
0.975165
0.975164
0.975165
0.975163
0.975169
0.975169
0.975167
0.975156
0.975164
0.975165
0.975167
0.975167
0.975168
0.975167
0.975168
0.975168
0.975172
0.975175
0.975166
0.975167
0.975167
0.975168
0.975168
0.975168
0.975167
0.975165
0.975165
0.975165
0.975164
0.975164
0.975166
0.975164
0.975164
0.975168
0.975162
0.975162
0.975164
0.975166
0.975167
0.975165
0.975162
0.97517
0.975169
0.975156
0.975168
0.975164
0.975167
0.975166
0.975163
0.975161
0.975161
0.975165
0.975166
0.975158
0.975166
0.975166
0.975164
0.975169
0.975164
0.975185
0.975161
0.975165
0.975169
0.975164
0.975166
0.975163
0.975164
0.975163
0.975166
0.975165
0.975165
0.975167
0.975167
0.975161
0.975184
0.975188
0.975181
0.975165
0.975163
0.975178
0.975168
0.975181
0.975169
0.975169
0.975185
0.975164
0.975176
0.975188
0.975172
0.975187
0.975172
0.975168
0.975166
0.975162
0.975182
0.975167
0.975164
0.975172
0.975166
0.975176
0.975165
0.975165
0.975187
0.975171
0.975185
0.975155
0.975165
0.975167
0.975167
0.975166
0.975163
0.975166
0.975166
0.975167
0.975165
0.975166
0.975165
0.975165
0.975168
0.975164
0.975166
0.975166
0.97517
0.975154
0.975165
0.975164
0.975186
0.975179
0.975161
0.975161
0.975162
0.975162
0.975161
0.975169
0.975166
0.975168
0.975171
0.975164
0.975164
0.975171
0.975168
0.975167
0.975163
SCALARS rr_(P_ext) float
LOOKUP_TABLE default
0.0206628
0.0205649
0.0205735
0.0205666
0.0205402
0.0205737
0.0206631
0.0205679
0.0205818
0.0205653
0.0206564
0.0205679
0.0205699
0.020564
0.0205493
0.0205721
0.0205605
0.0205689
0.0205861
0.020576
0.0205773
0.0205065
0.0205772
0.0205758
0.0205761
0.0205673
0.0206428
0.0205724
0.0206128
0.0205263
0.0205702
0.0206126
0.0206442
0.0205322
0.0205293
0.0205323
0.0205253
0.0205306
0.0205703
0.0206439
0.020613
0.0205249
0.020525
0.0205701
0.0206348
0.0206114
0.0205841
0.0205801
0.0205733
0.0206189
0.0206154
0.0206029
0.0205416
0.0206026
0.0205424
0.0206318
0.0205291
0.0206026
0.0205292
0.0205755
0.0205608
0.0205528
0.0206365
0.0205533
0.0205526
0.0205606
0.0205605
0.0205673
0.0205766
0.0205646
0.0205418
0.0205419
0.0206131
0.0205575
0.0205732
0.0206483
0.0205475
0.0205607
0.0205673
0.0206006
0.0206209
0.0205372
0.0205567
0.0206236
0.02061
0.0206337
0.0205725
0.020559
0.0206346
0.0205113
0.0206027
0.0205115
0.0205469
0.0205617
0.0206019
0.0206163
0.0206207
0.0205655
0.0205476
0.0205707
0.0205917
0.0206077
0.0206238
0.020568
0.0205663
0.0205661
0.0205556
0.0205715
0.020624
0.0205634
0.0205754
0.0206316
0.0206272
0.0205686
0.0205666
0.0206023
0.0205292
0.0206212
0.0205295
0.020602
0.0205883
0.0205504
0.0205649
0.0205588
0.0205627
0.0205484
0.0205326
0.0205655
0.0206207
0.0206019
0.0205417
0.0205656
0.0205572
0.0205652
0.0206075
0.020529
0.0206261
0.0205692
0.0205567
0.0205291
0.0206064
0.0205651
0.0205868
0.0205652
0.0206216
0.020567
0.0205665
0.0205734
0.0205737
0.0205946
0.0205804
0.0205649
0.0206128
0.0205697
0.0205653
0.0205655
0.0205626
0.0206055
0.0206052
0.0205699
0.02058
0.0206121
0.0206323
0.0206154
0.0206056
0.020566
0.0206055
0.0206057
0.0206128
0.0206054
0.0205467
0.0206026
0.0206155
0.0205617
0.0206024
0.0205559
0.0205468
0.0205679
0.0205412
0.020566
0.0206127
0.0205656
0.0205657
0.0206063
0.0205589
0.0206162
0.0205588
0.0205554
0.0205463
0.0205655
0.0205587
0.0206197
0.0206024
0.0206127
0.0205653
0.0205693
0.0205688
0.0205573
0.0205651
0.0205609
0.0205649
0.0205849
0.0205999
0.0205574
0.0206126
0.0205568
0.0205607
0.0206082
0.0205515
0.0205647
0.0205507
0.0205635
0.0205666
0.0205566
0.0205943
0.0205627
0.020599
0.0205555
0.0205629
0.020563
0.020564
0.0205636
0.0205636
0.0205636
0.0205646
0.0205499
0.0205502
0.0205499
0.0205498
0.0205422
0.0205421
0.020595
0.0205643
0.0205674
0.0205806
0.0205493
0.0205489
0.0205672
0.0205997
0.0205678
0.0205654
0.0205939
0.0205514
0.0205944
0.0205564
0.0205681
0.0205937
0.0205985
0.0206211
0.0206204
0.0205567
0.020623
0.0205709
0.020599
0.0205855
0.0205679
0.0205631
0.0205244
0.0205634
0.0206237
0.020599
0.0205675
0.0205679
0.0206001
0.0205632
0.0205863
0.0205245
0.0205988
0.0205627
0.0205593
0.0205688
0.0205495
0.0205593
0.0205417
0.0205699
0.0206302
0.0206338
0.0205443
0.0205771
0.0205679
0.0205943
0.0205512
0.0205618
0.0205989
0.0205615
0.0205914
0.0205661
0.0205913
0.0205994
0.0205169
0.0205458
0.020549
0.0205491
0.0205646
0.0205906
0.0205333
0.0205597
0.0205797
0.0205903
0.0205934
0.0205444
0.020594
0.0205469
0.0205923
0.0206345
0.0205908
0.0206221
0.0205552
0.0205939
0.020517
0.0205923
0.0205575
0.020595
0.0205584
0.0205925
0.0205725
0.0206381
0.0205744
0.0205942
0.0205448
0.0205947
0.0205796
0.0205584
0.0205646
0.0205924
0.0205907
0.0205866
0.0205554
0.0205909
0.0205679
0.0205724
0.0205419
0.0205907
0.0205871
0.0205782
0.020586
0.0205917
0.0205858
0.0205524
0.0205681
0.0205867
0.0205944
0.0205654
0.0205652
0.0205912
0.020542
0.0206598
0.0205727
0.020621
0.0205778
0.0207117
0.0207115
0.0207109
0.0207112
0.0207108
0.0207119
0.0207115
0.0205549
0.0205359
0.0205696
0.0205801
0.0205856
0.0205861
0.020566
0.0205867
0.0205872
0.0205357
0.0205861
0.0205509
0.0206027
0.0205514
0.0205739
0.0205802
0.0205865
0.0205441
0.0205728
0.0205796
0.0205727
0.0205794
0.0205869
0.020601
0.0205803
0.0205736
0.0205506
0.0205846
0.0205877
0.020585
0.0205809
0.0205739
0.0205659
0.0205851
0.0205661
0.0205747
0.0205806
0.0205677
0.0205745
0.0205863
0.0205585
0.0205787
0.0205368
0.0206344
0.0205549
0.0205524
0.0205738
0.0205784
0.0205608
0.0206586
0.0205738
0.0205788
0.0206376
0.0205176
0.0205173
0.0205728
0.0205857
0.0205776
0.0205846
0.0205027
0.0205027
0.0205676
0.0205675
0.020568
0.0206589
0.0205872
0.0205571
0.0205806
0.0205814
0.0205807
0.0206604
0.0205589
0.0205862
0.0205731
0.0205731
0.0205816
0.0205797
0.0205816
0.0205808
0.0206432
0.0206219
0.0205797
0.0205729
0.0205786
0.0205819
0.0205792
0.020578
0.0205786
0.0206344
0.0205492
0.0205852
0.0205611
0.0205585
0.020635
0.0205734
0.0205743
0.0205418
0.0205181
0.0205182
0.0205458
0.0205874
0.0205733
0.020636
0.0205201
0.0205049
0.0205049
0.0206615
0.0205306
0.0205263
0.0205743
0.0205474
0.0205697
0.0205647
0.0205581
0.0205558
0.0205679
0.0206589
0.0205719
0.0205618
0.0205573
0.0206489
0.0205295
0.0206393
0.0205576
0.0205644
0.0205929
0.0205703
0.0205683
0.020541
0.020567
0.0205411
0.0205729
0.0205572
0.0205279
0.0205273
0.0206357
0.0205634
0.0206647
0.0206629
0.0206668
0.020559
0.02066
0.0206688
0.0205819
0.0206658
0.0205368
0.0205369
0.0206643
0.020578
0.020643
0.0206652
0.0206448
0.0206656
0.0206448
0.02053
0.0206393
0.0206596
0.0206645
0.0205687
0.0205537
0.0206464
0.0205685
0.0206682
0.0205653
0.0205774
0.0206663
0.0206478
0.0206677
0.0206615
0.0205747
0.0205352
0.0205066
0.0205078
0.0205637
0.0205068
0.0205069
0.0205074
0.020515
0.0206374
0.0205286
0.0205451
0.0205351
0.0205649
0.020513
0.020513
0.0205334
0.0206625
0.0205783
0.0206613
0.0206409
0.0206401
0.0205212
0.0205215
0.0205222
0.0205219
0.0205213
0.0205083
0.020522
0.0205129
0.0205064
0.020521
0.0205209
0.020506
0.020508
0.0205126
0.0205227
SCALARS rr_(S) float
LOOKUP_TABLE default
0.949797
0.949714
0.949725
0.949714
0.949711
0.949725
0.949796
0.949722
0.949733
0.949718
0.949766
0.949722
0.949724
0.949718
0.949709
0.949725
0.949714
0.94972
0.949732
0.949725
0.94973
0.949692
0.949726
0.949726
0.949726
0.949718
0.949771
0.949724
0.949751
0.949699
0.949724
0.94975
0.949774
0.949702
0.949704
0.949702
0.949697
0.949705
0.949725
0.949774
0.94975
0.949696
0.949696
0.949724
0.949759
0.949751
0.949732
0.949732
0.949725
0.949753
0.949751
0.949746
0.949707
0.949747
0.949708
0.949768
0.949704
0.949746
0.949704
0.949724
0.949712
0.949713
0.949773
0.949715
0.949713
0.949718
0.949712
0.949719
0.949726
0.949714
0.949708
0.949708
0.949751
0.949717
0.949726
0.949773
0.949713
0.949718
0.949718
0.949741
0.949759
0.949709
0.949712
0.949759
0.949753
0.949764
0.949724
0.949719
0.949759
0.949695
0.949746
0.949696
0.949711
0.949719
0.949747
0.94975
0.949761
0.949717
0.949713
0.949724
0.94974
0.949752
0.949758
0.949717
0.949718
0.949717
0.949713
0.949726
0.949759
0.94971
0.949724
0.949759
0.949758
0.949718
0.949718
0.949748
0.949706
0.949762
0.949707
0.949747
0.949734
0.949709
0.949713
0.949715
0.949711
0.949708
0.949707
0.949717
0.949761
0.949746
0.949706
0.949714
0.949712
0.949713
0.949753
0.949703
0.949766
0.949724
0.949712
0.949703
0.949751
0.949722
0.949736
0.949717
0.949763
0.949717
0.949722
0.949727
0.949725
0.94974
0.949731
0.949713
0.949749
0.949724
0.949717
0.949713
0.949718
0.949752
0.949751
0.949721
0.949732
0.949749
0.949761
0.94975
0.94975
0.949717
0.949751
0.949752
0.94975
0.94975
0.94971
0.949746
0.949751
0.949718
0.949747
0.949713
0.94971
0.949723
0.949709
0.94972
0.949752
0.949717
0.949717
0.94975
0.949718
0.949752
0.949715
0.949715
0.949712
0.949717
0.949718
0.94976
0.949746
0.94975
0.949713
0.949719
0.949718
0.949712
0.949713
0.949719
0.949713
0.949733
0.949742
0.949712
0.949752
0.949712
0.949719
0.949751
0.949713
0.949713
0.949715
0.94972
0.949718
0.949712
0.949739
0.94972
0.949742
0.949715
0.949711
0.94971
0.949709
0.94971
0.94971
0.949711
0.949718
0.949708
0.949708
0.949708
0.949708
0.949709
0.949708
0.94974
0.949717
0.949711
0.949733
0.94971
0.949709
0.949711
0.949741
0.94971
0.949717
0.94974
0.949712
0.94974
0.949713
0.94971
0.949739
0.949741
0.94976
0.949753
0.949712
0.949764
0.949724
0.949742
0.949732
0.949711
0.94971
0.949698
0.94971
0.949767
0.949741
0.94971
0.949722
0.949742
0.94971
0.949736
0.949698
0.949741
0.94971
0.949716
0.949718
0.949709
0.949719
0.949709
0.949723
0.949762
0.949764
0.949712
0.949728
0.949722
0.949742
0.949712
0.949718
0.949741
0.949719
0.94974
0.949722
0.949741
0.949741
0.949696
0.949709
0.949707
0.949707
0.949718
0.94974
0.949703
0.949716
0.949731
0.94974
0.949742
0.94971
0.94974
0.949712
0.949742
0.94976
0.94974
0.949763
0.949714
0.949739
0.949695
0.949741
0.949715
0.94974
0.949716
0.949741
0.949726
0.949778
0.949724
0.94974
0.949708
0.949739
0.94973
0.949718
0.949713
0.949741
0.94974
0.949735
0.949716
0.949739
0.949723
0.949725
0.94971
0.949741
0.949736
0.949731
0.949736
0.94974
0.949736
0.949714
0.949722
0.949736
0.949739
0.949722
0.949721
0.94974
0.94971
0.949769
0.949727
0.94976
0.94973
0.949772
0.949772
0.94977
0.94977
0.949768
0.949776
0.949777
0.949714
0.949705
0.94972
0.94973
0.949732
0.949736
0.949722
0.949736
0.949736
0.949706
0.949735
0.949714
0.949746
0.949708
0.949725
0.949731
0.949736
0.949712
0.949727
0.949731
0.949727
0.94973
0.949733
0.949742
0.94973
0.949727
0.949713
0.949732
0.949734
0.949733
0.949731
0.949727
0.949721
0.949732
0.949722
0.949726
0.94973
0.949722
0.949725
0.949734
0.949715
0.949731
0.949705
0.94976
0.949714
0.949715
0.949727
0.949731
0.949717
0.94977
0.949725
0.949731
0.949778
0.949699
0.949699
0.949725
0.949733
0.949731
0.949733
0.949696
0.949695
0.949719
0.949723
0.949723
0.949774
0.949733
0.949715
0.949733
0.949733
0.949731
0.949768
0.949716
0.949733
0.949727
0.949727
0.949732
0.949731
0.949732
0.949733
0.949773
0.949763
0.94973
0.949727
0.94973
0.949733
0.949731
0.94973
0.94973
0.949761
0.949711
0.949732
0.949718
0.949716
0.949762
0.949725
0.949724
0.94971
0.949692
0.949692
0.949709
0.949734
0.949727
0.949762
0.949693
0.949692
0.949692
0.949769
0.949704
0.949698
0.949727
0.949712
0.949721
0.949716
0.949713
0.949716
0.949723
0.949769
0.949725
0.949719
0.949715
0.949774
0.949701
0.949782
0.949713
0.94972
0.94974
0.949723
0.949724
0.949706
0.949721
0.949706
0.949726
0.949716
0.949701
0.949702
0.949764
0.949716
0.949797
0.9498
0.949795
0.949718
0.949774
0.949794
0.949733
0.949795
0.949709
0.949709
0.949797
0.949727
0.949776
0.949801
0.949774
0.949801
0.949774
0.949704
0.949764
0.949773
0.949795
0.949724
0.949713
0.949775
0.949724
0.949792
0.94972
0.949727
0.9498
0.949774
0.949799
0.949768
0.949726
0.949706
0.94969
0.949691
0.949718
0.94969
0.94969
0.949691
0.949693
0.949763
0.9497
0.94971
0.949707
0.949719
0.949694
0.949694
0.949708
0.949767
0.949728
0.949776
0.949785
0.949777
0.949693
0.949693
0.949694
0.949694
0.949693
0.949693
0.949698
0.949695
0.949694
0.949696
0.949696
0.949695
0.949692
0.949694
0.949696
SCALARS rr_(P) float
LOOKUP_TABLE default
0.0236065
0.0235484
0.0235536
0.0235494
0.0235336
0.0235537
0.0236066
0.0235502
0.0235585
0.0235487
0.0236024
0.0235502
0.0235514
0.0235479
0.0235389
0.0235528
0.0235457
0.0235508
0.0235611
0.0235551
0.0235559
0.023513
0.0235558
0.023555
0.0235552
0.0235498
0.0235945
0.0235529
0.0235769
0.023525
0.0235517
0.0235767
0.0235954
0.0235286
0.023527
0.0235287
0.0235243
0.0235277
0.0235517
0.0235952
0.023577
0.0235241
0.0235242
0.0235516
0.0235897
0.0235761
0.0235599
0.0235576
0.0235535
0.0235804
0.0235783
0.023571
0.0235343
0.0235709
0.0235348
0.0235881
0.0235268
0.0235709
0.0235269
0.0235548
0.0235459
0.0235411
0.0235909
0.0235415
0.023541
0.0235458
0.0235457
0.0235498
0.0235554
0.0235482
0.0235345
0.0235345
0.023577
0.023544
0.0235535
0.0235978
0.023538
0.0235459
0.0235498
0.0235697
0.0235816
0.0235318
0.0235435
0.0235832
0.0235752
0.0235892
0.023553
0.0235449
0.0235897
0.0235159
0.023571
0.0235159
0.0235376
0.0235465
0.0235705
0.0235789
0.0235816
0.0235488
0.0235381
0.023552
0.0235645
0.0235739
0.0235833
0.0235503
0.0235492
0.0235491
0.0235428
0.0235524
0.0235835
0.0235474
0.0235547
0.0235879
0.0235853
0.0235506
0.0235494
0.0235707
0.0235269
0.0235819
0.0235271
0.0235705
0.0235624
0.0235396
0.0235484
0.0235447
0.023547
0.0235384
0.0235289
0.0235488
0.0235816
0.0235704
0.0235344
0.0235488
0.0235438
0.0235486
0.0235738
0.0235267
0.0235848
0.0235511
0.0235434
0.0235268
0.0235732
0.0235485
0.0235615
0.0235486
0.0235821
0.0235496
0.0235494
0.0235535
0.0235537
0.0235661
0.0235577
0.0235484
0.0235768
0.0235514
0.0235487
0.0235487
0.0235471
0.0235726
0.0235725
0.0235514
0.0235575
0.0235764
0.0235884
0.0235783
0.0235727
0.0235491
0.0235727
0.0235728
0.0235768
0.0235725
0.0235374
0.0235709
0.0235784
0.0235465
0.0235708
0.023543
0.0235375
0.0235502
0.0235342
0.0235491
0.0235768
0.0235488
0.0235489
0.0235731
0.0235448
0.0235788
0.0235448
0.0235427
0.0235372
0.0235488
0.0235447
0.023581
0.0235708
0.0235768
0.0235486
0.0235511
0.0235507
0.0235438
0.0235484
0.0235461
0.0235483
0.0235604
0.0235693
0.0235439
0.0235768
0.0235435
0.0235459
0.0235742
0.0235404
0.0235482
0.0235399
0.0235476
0.0235494
0.0235434
0.0235659
0.0235471
0.0235687
0.0235428
0.0235471
0.0235471
0.0235478
0.0235475
0.0235475
0.0235476
0.0235482
0.0235393
0.0235395
0.0235393
0.0235393
0.0235347
0.0235347
0.0235664
0.0235481
0.0235498
0.0235579
0.0235389
0.0235387
0.0235496
0.0235691
0.02355
0.0235487
0.0235657
0.0235403
0.023566
0.0235432
0.0235502
0.0235656
0.0235684
0.0235818
0.0235813
0.0235434
0.023583
0.0235521
0.0235688
0.0235607
0.0235501
0.0235472
0.0235238
0.0235474
0.0235834
0.0235687
0.0235498
0.0235502
0.0235694
0.0235473
0.0235612
0.0235239
0.0235686
0.023547
0.0235451
0.0235507
0.0235391
0.0235451
0.0235344
0.0235515
0.0235871
0.0235892
0.023536
0.0235558
0.0235502
0.023566
0.0235402
0.0235466
0.0235686
0.0235464
0.0235643
0.0235491
0.0235642
0.023569
0.0235193
0.0235369
0.0235387
0.0235388
0.0235483
0.0235638
0.0235293
0.0235453
0.0235573
0.0235636
0.0235654
0.0235361
0.0235658
0.0235376
0.0235649
0.0235896
0.0235639
0.0235824
0.0235426
0.0235657
0.0235193
0.0235648
0.0235439
0.0235664
0.0235445
0.023565
0.023553
0.0235919
0.0235541
0.0235659
0.0235362
0.0235662
0.0235572
0.0235445
0.0235482
0.0235649
0.0235639
0.0235614
0.0235427
0.0235639
0.0235502
0.0235529
0.0235345
0.0235639
0.0235617
0.0235564
0.0235611
0.0235645
0.0235609
0.0235409
0.0235504
0.0235615
0.023566
0.0235487
0.0235486
0.0235642
0.0235346
0.0236044
0.0235531
0.0235817
0.0235562
0.0236347
0.0236347
0.0236343
0.0236344
0.0236342
0.0236349
0.0236347
0.0235424
0.0235309
0.0235512
0.0235575
0.0235608
0.0235611
0.0235491
0.0235614
0.0235618
0.0235307
0.0235611
0.02354
0.023571
0.0235402
0.0235538
0.0235576
0.0235613
0.0235359
0.0235532
0.0235572
0.0235531
0.0235571
0.0235616
0.0235699
0.0235576
0.0235537
0.0235398
0.0235602
0.0235621
0.0235605
0.023558
0.0235538
0.0235491
0.0235605
0.0235492
0.0235543
0.0235578
0.0235501
0.0235542
0.0235612
0.0235445
0.0235567
0.0235314
0.0235895
0.0235424
0.0235409
0.0235538
0.0235566
0.023546
0.0236038
0.0235538
0.0235568
0.0235916
0.0235197
0.0235196
0.0235532
0.0235608
0.0235561
0.0235602
0.0235107
0.0235107
0.02355
0.02355
0.0235503
0.023604
0.0235617
0.0235437
0.0235579
0.0235584
0.0235579
0.0236048
0.0235448
0.0235611
0.0235534
0.0235533
0.0235584
0.0235573
0.0235584
0.023558
0.0235948
0.0235823
0.0235573
0.0235532
0.0235566
0.0235587
0.023557
0.0235563
0.0235566
0.0235895
0.0235389
0.0235605
0.0235461
0.0235446
0.0235899
0.0235536
0.0235541
0.0235345
0.02352
0.02352
0.0235368
0.0235619
0.0235535
0.0235905
0.0235212
0.023512
0.0235121
0.0236054
0.0235277
0.023525
0.0235541
0.0235379
0.0235513
0.0235483
0.0235443
0.0235429
0.0235502
0.0236039
0.0235527
0.0235466
0.0235438
0.0235981
0.0235269
0.0235926
0.023544
0.0235482
0.0235652
0.0235517
0.0235505
0.0235339
0.0235497
0.023534
0.0235533
0.0235438
0.0235259
0.0235256
0.0235903
0.0235475
0.0236076
0.0236065
0.0236088
0.0235449
0.0236046
0.0236099
0.0235586
0.0236082
0.0235315
0.0235316
0.0236073
0.0235563
0.0235947
0.0236079
0.0235957
0.0236081
0.0235958
0.0235274
0.0235924
0.0236044
0.0236074
0.0235507
0.0235417
0.0235967
0.0235506
0.0236095
0.0235487
0.0235559
0.0236085
0.0235975
0.0236094
0.0236054
0.0235543
0.0235305
0.023513
0.0235138
0.0235477
0.0235132
0.0235132
0.0235135
0.0235181
0.0235913
0.0235264
0.0235365
0.0235304
0.0235484
0.0235169
0.0235169
0.0235294
0.023606
0.0235565
0.0236054
0.0235936
0.023593
0.0235219
0.023522
0.0235224
0.0235223
0.0235219
0.0235141
0.0235223
0.0235168
0.0235129
0.0235217
0.0235217
0.0235127
0.0235139
0.0235166
0.0235227
SCALARS rr_(T) float
LOOKUP_TABLE default
0.128296
0.128324
0.128321
0.128323
0.128335
0.128321
0.128296
0.128323
0.128319
0.128324
0.128296
0.128323
0.128323
0.128325
0.128331
0.128322
0.128326
0.128323
0.128317
0.12832
0.12832
0.12835
0.12832
0.128321
0.12832
0.128323
0.128301
0.128322
0.128309
0.128341
0.128323
0.128309
0.128301
0.128339
0.12834
0.128339
0.128341
0.128339
0.128323
0.128301
0.128309
0.128342
0.128342
0.128322
0.128303
0.12831
0.128318
0.128319
0.128322
0.128308
0.128309
0.128312
0.128334
0.128313
0.128334
0.128304
0.12834
0.128313
0.12834
0.128321
0.128326
0.128329
0.128303
0.128329
0.128329
0.128326
0.128326
0.128323
0.12832
0.128324
0.128334
0.128334
0.128309
0.128328
0.128321
0.128299
0.128332
0.128326
0.128323
0.128313
0.128307
0.128336
0.128328
0.128306
0.12831
0.128303
0.128322
0.128327
0.128303
0.128348
0.128312
0.128348
0.128332
0.128326
0.128313
0.128308
0.128307
0.128324
0.128332
0.128322
0.128316
0.128311
0.128306
0.128323
0.128324
0.128324
0.128328
0.128322
0.128306
0.128324
0.128321
0.128304
0.128305
0.128323
0.128323
0.128313
0.12834
0.128307
0.12834
0.128313
0.128317
0.12833
0.128324
0.128327
0.128325
0.128331
0.128338
0.128324
0.128307
0.128313
0.128334
0.128324
0.128327
0.128324
0.128311
0.12834
0.128306
0.128323
0.128328
0.12834
0.128312
0.128325
0.128317
0.128324
0.128307
0.128323
0.128324
0.128322
0.128321
0.128315
0.128319
0.128324
0.128309
0.128323
0.128324
0.128324
0.128325
0.128312
0.128312
0.128322
0.128319
0.12831
0.128304
0.128309
0.128312
0.128324
0.128312
0.128312
0.128309
0.128312
0.128332
0.128313
0.128309
0.128326
0.128313
0.128328
0.128332
0.128324
0.128334
0.128324
0.12831
0.128324
0.128324
0.128312
0.128327
0.128308
0.128327
0.128328
0.128332
0.128324
0.128327
0.128308
0.128313
0.128309
0.128324
0.128322
0.128323
0.128327
0.128324
0.128326
0.128324
0.128318
0.128313
0.128327
0.12831
0.128327
0.128326
0.128311
0.12833
0.128324
0.12833
0.128325
0.128324
0.128328
0.128315
0.128326
0.128313
0.128328
0.128325
0.128325
0.128324
0.128324
0.128324
0.128324
0.128325
0.12833
0.12833
0.12833
0.12833
0.128334
0.128334
0.128315
0.128324
0.128323
0.128319
0.128331
0.128331
0.128323
0.128313
0.128322
0.128324
0.128315
0.12833
0.128315
0.128328
0.128322
0.128315
0.128314
0.128307
0.128307
0.128327
0.128307
0.128322
0.128313
0.128318
0.128322
0.128324
0.128342
0.128324
0.128307
0.128313
0.128322
0.128324
0.128313
0.128324
0.128318
0.128342
0.128314
0.128325
0.128327
0.128323
0.128331
0.128327
0.128334
0.128322
0.128304
0.128303
0.128333
0.12832
0.128324
0.128315
0.12833
0.128325
0.128313
0.128326
0.128316
0.128324
0.128316
0.128313
0.128346
0.128332
0.128331
0.128331
0.128324
0.128316
0.128338
0.128326
0.12832
0.128316
0.128315
0.128333
0.128315
0.128332
0.128316
0.128303
0.128316
0.128307
0.128328
0.128315
0.128346
0.128316
0.128328
0.128315
0.128327
0.128316
0.128322
0.128303
0.128321
0.128315
0.128333
0.128315
0.12832
0.128327
0.128324
0.128316
0.128316
0.128317
0.128328
0.128316
0.128323
0.128322
0.128334
0.128316
0.128317
0.12832
0.128318
0.128316
0.128318
0.12833
0.128323
0.128317
0.128315
0.128324
0.128325
0.128316
0.128334
0.128295
0.128322
0.128307
0.12832
0.128278
0.128278
0.128278
0.128278
0.128278
0.128278
0.128278
0.128329
0.128337
0.128323
0.128319
0.128318
0.128318
0.128324
0.128317
0.128317
0.128337
0.128318
0.12833
0.128313
0.12833
0.128321
0.128319
0.128317
0.128333
0.128322
0.12832
0.128322
0.12832
0.128317
0.128313
0.128319
0.128322
0.12833
0.128318
0.128317
0.128318
0.128319
0.128322
0.128324
0.128318
0.128324
0.128321
0.128319
0.128324
0.128321
0.128317
0.128327
0.12832
0.128336
0.128303
0.128329
0.12833
0.128322
0.12832
0.128326
0.128296
0.128321
0.12832
0.128303
0.128345
0.128346
0.128322
0.128318
0.12832
0.128318
0.128353
0.128352
0.128323
0.128324
0.128324
0.128296
0.128317
0.128327
0.128319
0.128319
0.128319
0.128295
0.128327
0.128317
0.128322
0.128322
0.128319
0.12832
0.128319
0.128319
0.128301
0.128307
0.12832
0.128322
0.12832
0.128319
0.12832
0.12832
0.12832
0.128303
0.128331
0.128318
0.128326
0.128327
0.128303
0.128321
0.128321
0.128334
0.128345
0.128345
0.128332
0.128317
0.128322
0.128302
0.128344
0.128351
0.128351
0.128295
0.128339
0.128341
0.128321
0.128332
0.128322
0.128324
0.128327
0.128328
0.128324
0.128295
0.128322
0.128326
0.128327
0.128299
0.12834
0.128303
0.128327
0.128325
0.128315
0.128322
0.128323
0.128335
0.128324
0.128335
0.128322
0.128328
0.128341
0.128341
0.128303
0.128325
0.128296
0.128296
0.128295
0.128327
0.128295
0.128294
0.128319
0.128295
0.128336
0.128336
0.128296
0.12832
0.128301
0.128296
0.1283
0.128295
0.1283
0.128339
0.128302
0.128296
0.128296
0.128323
0.128329
0.1283
0.128323
0.128294
0.128324
0.12832
0.128295
0.128299
0.128295
0.128295
0.128321
0.128337
0.12835
0.12835
0.128325
0.12835
0.12835
0.12835
0.128347
0.128302
0.12834
0.128333
0.128337
0.128325
0.128348
0.128347
0.128338
0.128294
0.12832
0.128295
0.128302
0.128302
0.128343
0.128343
0.128343
0.128343
0.128343
0.12835
0.128343
0.128348
0.128351
0.128344
0.128344
0.128351
0.12835
0.128348
0.128343
SCALARS rr_tsim float
LOOKUP_TABLE default
280
280
280
280
280
280
280
280
280
280
280
280
280
280
280
280
280
280
280
280
280
280
280
280
280
280
280
280
280
280
280
280
280
280
280
280
280
280
280
280
280
280
280
280
280
280
280
280
280
280
280
280
280
280
280
280
280
280
280
280
280
280
280
280
280
280
280
280
280
280
280
280
280
280
280
280
280
280
280
280
280
280
280
280
280
280
280
280
280
280
280
280
280
280
280
280
280
280
280
280
280
280
280
280
280
280
280
280
280
280
280
280
280
280
280
280
280
280
280
280
280
280
280
280
280
280
280
280
280
280
280
280
280
280
280
280
280
280
280
280
280
280
280
280
280
280
280
280
280
280
280
280
280
280
280
280
280
280
280
280
280
280
280
280
280
280
280
280
280
280
280
280
280
280
280
280
280
280
280
280
280
280
280
280
280
280
280
280
280
280
280
280
280
280
280
280
280
280
280
280
280
280
280
280
280
280
280
280
280
280
280
280
280
280
280
280
280
280
280
280
280
280
280
280
280
280
280
280
280
280
280
280
280
280
280
280
280
280
280
280
280
280
280
280
280
280
280
280
280
280
280
280
280
280
280
280
280
280
280
280
280
280
280
280
280
280
280
280
280
280
280
280
280
280
280
280
280
280
280
280
280
280
280
280
280
280
280
280
280
280
280
280
280
280
280
280
280
280
280
280
280
280
280
280
280
280
280
280
280
280
280
280
280
280
280
280
280
280
280
280
280
280
280
280
280
280
280
280
280
280
280
280
280
280
280
280
280
280
280
280
280
280
280
280
280
280
280
280
280
280
280
280
280
280
280
280
280
280
280
280
280
280
280
280
280
280
280
280
280
280
280
280
280
280
280
280
280
280
280
280
280
280
280
280
280
280
280
280
280
280
280
280
280
280
280
280
280
280
280
280
280
280
280
280
280
280
280
280
280
280
280
280
280
280
280
280
280
280
280
280
280
280
280
280
280
280
280
280
280
280
280
280
280
280
280
280
280
280
280
280
280
280
280
280
280
280
280
280
280
280
280
280
280
280
280
280
280
280
280
280
280
280
280
280
280
280
280
280
280
280
280
280
280
280
280
280
280
280
280
280
280
280
280
280
280
280
280
280
280
280
280
280
280
280
280
280
280
280
280
280
280
280
280
280
280
280
280
280
280
280
280
280
280
280
280
280
280
280
280
280
280
280
280
280
280
280
280
280
280
280
280
280
280
280
280
280
280
280
280
280
280
280
280
280
280
280
280
280
280
280
280
280
280
280
280
280
280
280
280
280
280
280
280
SCALARS rr_Vext float
LOOKUP_TABLE default
0.181359
0.449123
0.356049
0.468109
0.250492
0.377828
0.179275
0.465089
0.395107
0.504566
0.165389
0.466509
0.409826
0.435013
0.516135
0.424865
0.369044
0.414184
0.365531
0.360527
0.405109
0.0765107
0.41507
0.383014
0.347105
0.403472
0.15501
0.352834
0.267413
0.339246
0.361969
0.276485
0.17152
0.252901
0.249247
0.253452
0.330126
0.24949
0.36154
0.192836
0.224721
0.29105
0.29106
0.397272
0.216885
0.24412
0.344612
0.350184
0.330079
0.303761
0.312854
0.245236
0.401518
0.315207
0.369414
0.157754
0.266178
0.317516
0.26615
0.393185
0.470929
0.464872
0.153275
0.327642
0.445313
0.417374
0.455655
0.391905
0.357986
0.515557
0.435554
0.430791
0.277654
0.338745
0.353972
0.176426
0.372676
0.413477
0.395169
0.271133
0.24049
0.283506
0.527532
0.24025
0.32776
0.119292
0.40758
0.344609
0.229706
0.0374828
0.273093
0.0407607
0.316357
0.299312
0.258659
0.232983
0.220908
0.44293
0.372911
0.351856
0.293535
0.27777
0.230478
0.418576
0.426138
0.383832
0.340626
0.340848
0.244629
0.512518
0.326026
0.164039
0.220056
0.457878
0.429718
0.304482
0.308631
0.183508
0.320035
0.303366
0.266986
0.502649
0.51181
0.44204
0.484525
0.384952
0.220815
0.47821
0.200079
0.262279
0.227503
0.456395
0.449023
0.448249
0.288937
0.187537
0.190638
0.32744
0.404468
0.187459
0.241542
0.387289
0.287969
0.472757
0.223275
0.385189
0.349731
0.336127
0.214789
0.269546
0.304298
0.440626
0.248026
0.39741
0.461989
0.469243
0.307855
0.249008
0.247657
0.401136
0.333852
0.246117
0.160076
0.239704
0.240467
0.430955
0.252348
0.2551
0.27462
0.245939
0.386343
0.258183
0.226059
0.297714
0.272811
0.340306
0.382118
0.361133
0.313977
0.360845
0.266567
0.418246
0.448852
0.241614
0.4423
0.239439
0.436794
0.402737
0.378965
0.379414
0.446227
0.200774
0.266928
0.246016
0.447409
0.43902
0.407199
0.447894
0.452951
0.381865
0.466569
0.307715
0.27411
0.512731
0.285547
0.465953
0.369961
0.226654
0.286341
0.461724
0.389034
0.350307
0.450055
0.445255
0.278859
0.284221
0.267543
0.395452
0.433419
0.498091
0.478088
0.52037
0.471557
0.515286
0.432055
0.457201
0.46065
0.434354
0.456356
0.422918
0.416635
0.282411
0.38941
0.454294
0.31212
0.470272
0.432155
0.492659
0.288246
0.468276
0.448677
0.2845
0.406913
0.282469
0.455238
0.411289
0.296255
0.277677
0.235552
0.271097
0.455772
0.197501
0.34702
0.276527
0.313903
0.468671
0.455548
0.147788
0.457104
0.236431
0.261764
0.466269
0.379027
0.264585
0.522181
0.29123
0.147779
0.267724
0.406398
0.508921
0.382689
0.457754
0.425155
0.226615
0.216731
0.175979
0.201428
0.308134
0.229075
0.371981
0.227524
0.406392
0.287622
0.268101
0.323953
0.293522
0.398521
0.281486
0.287596
0.13637
0.303571
0.437809
0.438057
0.391524
0.281116
0.192358
0.545877
0.360488
0.298317
0.274291
0.284975
0.282729
0.358842
0.278091
0.192059
0.274791
0.183496
0.351067
0.279576
0.127091
0.263721
0.321337
0.279314
0.443669
0.29071
0.381467
0.138314
0.305661
0.287013
0.261624
0.269317
0.321991
0.308722
0.321045
0.266563
0.271163
0.293859
0.403601
0.276095
0.399022
0.358787
0.290796
0.286473
0.290122
0.323372
0.289912
0.270117
0.308528
0.333029
0.387865
0.290169
0.286353
0.425142
0.419247
0.276211
0.290835
0.117368
0.342063
0.227678
0.31968
0.126304
0.131123
0.117233
0.119129
0.126411
0.133076
0.137186
0.365818
0.275202
0.269663
0.305533
0.296206
0.292407
0.314709
0.285993
0.292386
0.310822
0.291313
0.368787
0.261063
0.378832
0.289102
0.277578
0.291595
0.322764
0.328993
0.304695
0.351048
0.32603
0.300389
0.213975
0.303859
0.298861
0.32828
0.305308
0.288518
0.275035
0.304062
0.319091
0.43616
0.283305
0.424
0.438658
0.298864
0.422862
0.322474
0.255677
0.356792
0.307317
0.229504
0.18527
0.353348
0.377138
0.313431
0.259542
0.317012
0.138204
0.309863
0.289512
0.140569
0.0597485
0.0653753
0.268651
0.283293
0.331355
0.316585
0.0311308
0.0325286
0.318179
0.321541
0.304241
0.103723
0.264725
0.315902
0.31564
0.272074
0.240281
0.107863
0.464465
0.284944
0.352159
0.35767
0.255162
0.323444
0.249474
0.275479
0.129739
0.199381
0.323804
0.327749
0.280324
0.293562
0.303656
0.320503
0.306408
0.14396
0.275778
0.301352
0.290883
0.437486
0.143857
0.23373
0.240571
0.234522
0.155624
0.155628
0.267698
0.208506
0.301872
0.153855
0.185525
0.0614166
0.0614141
0.11231
0.199632
0.134971
0.256999
0.284537
0.297805
0.336998
0.307416
0.28523
0.222215
0.127171
0.278048
0.290579
0.282437
0.144129
0.147644
0.104628
0.281946
0.285969
0.224179
0.258248
0.238711
0.22379
0.292909
0.223756
0.257202
0.251385
0.158046
0.19524
0.165307
0.310644
0.112706
0.118918
0.115939
0.294532
0.10769
0.104732
0.200915
0.0979319
0.243154
0.243508
0.100659
0.255444
0.113722
0.110988
0.127154
0.105858
0.105723
0.174205
0.12624
0.112774
0.106277
0.235809
0.272657
0.118743
0.260315
0.0960765
0.264787
0.208171
0.100551
0.0864349
0.0948694
0.12646
0.22555
0.192179
0.0824424
0.0914071
0.253855
0.0775858
0.0775825
0.0878715
0.0979618
0.0995847
0.127333
0.207532
0.193794
0.253767
0.0775241
0.0775208
0.229251
0.0843464
0.178713
0.0765188
0.0783412
0.103271
0.198595
0.205595
0.218906
0.200659
0.198579
0.0438923
0.32038
0.0557536
0.0543417
0.259007
0.257238
0.0563344
0.0390571
0.0548044
0.238559
SCALARS rr_Vli float
LOOKUP_TABLE default
0.396486
0.903296
0.721402
0.942901
0.493002
0.765664
0.392034
0.937669
0.806266
1.01511
0.359835
0.940541
0.827701
0.874153
1.02412
0.859727
0.739394
0.835914
0.748796
0.732052
0.823479
0.146196
0.843737
0.777625
0.704887
0.813139
0.333348
0.714256
0.560608
0.659801
0.731224
0.579527
0.369271
0.494392
0.485904
0.495506
0.641456
0.486895
0.730481
0.415064
0.47121
0.565329
0.565389
0.802513
0.463322
0.511147
0.70466
0.713571
0.66868
0.640142
0.657314
0.509708
0.79128
0.654953
0.728498
0.336093
0.518807
0.659755
0.51879
0.798045
0.943863
0.925029
0.327839
0.652217
0.886009
0.836194
0.912998
0.789773
0.727288
1.03671
0.858505
0.849151
0.582209
0.676851
0.716968
0.381182
0.738158
0.828438
0.79642
0.562479
0.507623
0.556447
1.05351
0.508332
0.685383
0.254579
0.825074
0.689486
0.49066
0.0719434
0.567528
0.0782461
0.626349
0.600258
0.537107
0.489901
0.466216
0.891213
0.738706
0.711147
0.604216
0.579672
0.487749
0.844109
0.85808
0.772713
0.679546
0.689378
0.517758
1.02965
0.661677
0.349478
0.467059
0.92382
0.865435
0.632491
0.601612
0.387411
0.624001
0.62999
0.547959
0.998311
1.02947
0.884277
0.972855
0.763252
0.43175
0.962235
0.422252
0.544646
0.448452
0.918478
0.897109
0.901821
0.602898
0.365537
0.404181
0.660931
0.807731
0.365414
0.503537
0.778933
0.59024
0.951059
0.471531
0.776064
0.704322
0.680954
0.435246
0.556267
0.620246
0.886306
0.519981
0.802496
0.92944
0.944261
0.617853
0.518656
0.515712
0.810196
0.680205
0.515659
0.341238
0.503638
0.500927
0.867513
0.525644
0.531442
0.575695
0.512235
0.764767
0.536473
0.475014
0.597025
0.566758
0.6791
0.756451
0.728158
0.618511
0.726372
0.558759
0.841635
0.903303
0.503621
0.884781
0.503408
0.873806
0.803282
0.749915
0.763388
0.892541
0.423344
0.554569
0.51569
0.900208
0.886299
0.82171
0.894903
0.911195
0.76527
0.938415
0.629673
0.568292
1.02454
0.598471
0.930551
0.741277
0.47324
0.569198
0.928572
0.772727
0.703605
0.906434
0.889136
0.575328
0.570471
0.554199
0.788781
0.870376
1.00028
0.961014
1.04558
0.94745
1.03539
0.868711
0.907696
0.914768
0.862343
0.905931
0.833929
0.821516
0.583003
0.782793
0.915906
0.636237
0.93312
0.857209
0.993023
0.597475
0.944368
0.902754
0.586735
0.808801
0.582774
0.908854
0.829725
0.61088
0.57498
0.497305
0.572061
0.910101
0.417614
0.70148
0.572845
0.642712
0.945256
0.914966
0.286927
0.918293
0.500196
0.542258
0.940099
0.7642
0.548648
1.04888
0.596675
0.286927
0.5545
0.815976
1.01856
0.772233
0.908465
0.850822
0.4466
0.437752
0.374434
0.429883
0.608683
0.465559
0.749991
0.469384
0.807668
0.576816
0.55534
0.649547
0.603995
0.802276
0.579178
0.596019
0.263019
0.600442
0.86851
0.869129
0.787208
0.578062
0.376388
1.09285
0.734299
0.613258
0.565366
0.562958
0.583123
0.710459
0.572676
0.410196
0.565166
0.387691
0.700125
0.576599
0.245149
0.543076
0.642113
0.576619
0.887239
0.598797
0.772173
0.296222
0.619802
0.592062
0.51704
0.555816
0.655878
0.617314
0.645549
0.54901
0.557647
0.602196
0.804985
0.56787
0.804505
0.726242
0.573154
0.589127
0.594775
0.657842
0.593794
0.555994
0.631807
0.662546
0.782179
0.594651
0.590809
0.855286
0.843307
0.5683
0.573277
0.256088
0.692601
0.480627
0.650103
0.287606
0.29855
0.266803
0.271172
0.287682
0.303056
0.312311
0.729343
0.539723
0.544565
0.622603
0.6065
0.598932
0.633519
0.58613
0.599483
0.609469
0.596712
0.732658
0.542545
0.753106
0.586003
0.565698
0.597465
0.637466
0.666112
0.620591
0.710715
0.663996
0.615742
0.444039
0.619297
0.605571
0.652004
0.624636
0.591868
0.562871
0.620017
0.64672
0.877916
0.579857
0.853547
0.889738
0.609277
0.852428
0.653928
0.52384
0.713542
0.625424
0.450401
0.395665
0.704468
0.750313
0.6352
0.528048
0.635252
0.301236
0.628021
0.589265
0.300912
0.115298
0.126126
0.544004
0.580096
0.673736
0.647661
0.0592774
0.0619389
0.641396
0.648087
0.613481
0.226113
0.542804
0.631011
0.643416
0.555014
0.489877
0.235469
0.929282
0.583732
0.713231
0.724382
0.520582
0.658847
0.508989
0.561647
0.279101
0.421176
0.659631
0.663708
0.570433
0.599123
0.618256
0.651892
0.623522
0.307427
0.547096
0.616831
0.583015
0.874901
0.307367
0.473533
0.487753
0.46224
0.300515
0.300535
0.529553
0.427592
0.611535
0.329005
0.358876
0.117176
0.117176
0.245398
0.389619
0.262494
0.52105
0.563539
0.601411
0.677646
0.614656
0.569069
0.448036
0.27725
0.562546
0.5828
0.564247
0.311556
0.287924
0.224284
0.563451
0.574849
0.461942
0.521747
0.481453
0.440836
0.590094
0.440798
0.520821
0.502147
0.307811
0.380027
0.353393
0.623981
0.246785
0.25998
0.254334
0.589283
0.234981
0.230138
0.410009
0.214644
0.47712
0.477842
0.220334
0.51961
0.244574
0.243122
0.273901
0.231958
0.227739
0.339829
0.270697
0.245996
0.232677
0.475748
0.543002
0.256116
0.525107
0.211012
0.532689
0.423219
0.220454
0.186663
0.208255
0.276319
0.457467
0.376607
0.157552
0.174883
0.509986
0.148307
0.148306
0.168049
0.188628
0.213205
0.248113
0.410273
0.379761
0.51034
0.149004
0.149003
0.448511
0.184462
0.363609
0.167149
0.16815
0.221554
0.384549
0.398195
0.424214
0.388778
0.384539
0.0840102
0.620731
0.107163
0.103829
0.501444
0.497965
0.107596
0.0747329
0.105301
0.462542
SCALARS rr_S_ext' float
LOOKUP_TABLE default
-0.000345918
-0.000789856
-0.000630689
-0.000824454
-0.000431328
-0.000669381
-0.00034203
-0.000819867
-0.000704752
-0.000887626
-0.000313976
-0.000822377
-0.000723681
-0.000764393
-0.000895814
-0.000751646
-0.000646601
-0.000730873
-0.000654449
-0.000639964
-0.000719871
-0.000127999
-0.000737576
-0.000679805
-0.000616213
-0.000710985
-0.000290964
-0.000624455
-0.000489671
-0.000577424
-0.000639326
-0.000506198
-0.00032231
-0.000432613
-0.000425217
-0.000433587
-0.000561383
-0.000426074
-0.000638673
-0.000362282
-0.000411582
-0.000494763
-0.000494815
-0.000701656
-0.000404484
-0.000446484
-0.000615905
-0.000623751
-0.000584599
-0.00055906
-0.000574105
-0.000445316
-0.000692266
-0.000572217
-0.00063733
-0.000293437
-0.000454014
-0.000576412
-0.000453998
-0.000697661
-0.000825401
-0.000809083
-0.0002862
-0.000570462
-0.000774956
-0.000731257
-0.000798416
-0.000690556
-0.00063579
-0.000906513
-0.000751076
-0.000742892
-0.000508536
-0.000591952
-0.000626818
-0.000332672
-0.000645712
-0.000724474
-0.000696366
-0.000491443
-0.000443309
-0.00048687
-0.000921368
-0.000443898
-0.0005987
-0.000222257
-0.000721341
-0.000602981
-0.000428352
-6.29816e-05
-0.000495833
-6.84989e-05
-0.00054791
-0.000524916
-0.000469266
-0.000427875
-0.000407151
-0.000779283
-0.00064619
-0.000621764
-0.000528021
-0.000506388
-0.000425922
-0.000738052
-0.000750297
-0.000675657
-0.000594329
-0.00060272
-0.000452126
-0.000900359
-0.000578447
-0.000305121
-0.000407821
-0.000807738
-0.000756725
-0.000552597
-0.000526476
-0.000338327
-0.000546065
-0.000550416
-0.000478894
-0.000873217
-0.000900182
-0.000773334
-0.000850711
-0.000667641
-0.000377799
-0.000841384
-0.000368757
-0.000475851
-0.000392333
-0.000803118
-0.000784579
-0.000788558
-0.00052668
-0.000319884
-0.000352931
-0.000577879
-0.00070642
-0.000319776
-0.00043989
-0.000681115
-0.000515865
-0.000831617
-0.000411785
-0.000678572
-0.000615852
-0.000595329
-0.000380514
-0.000486085
-0.000542169
-0.000774995
-0.000454184
-0.000701647
-0.000812713
-0.000825663
-0.000540292
-0.000453109
-0.00045054
-0.000708373
-0.000594587
-0.000450416
-0.000297923
-0.000439882
-0.000437619
-0.000758552
-0.000459213
-0.000464277
-0.00050285
-0.0004475
-0.000668996
-0.000468703
-0.000414881
-0.000522089
-0.000495165
-0.000593935
-0.000661721
-0.000636674
-0.000541123
-0.000635139
-0.000488058
-0.00073593
-0.000789851
-0.000439965
-0.000773778
-0.000439674
-0.000764176
-0.000702555
-0.00065601
-0.000667513
-0.000780566
-0.000369719
-0.000484515
-0.000450438
-0.000787147
-0.00077492
-0.000718455
-0.000782649
-0.000796756
-0.000669229
-0.000820562
-0.000550353
-0.000496531
-0.000896019
-0.000522747
-0.000813835
-0.00064825
-0.000413404
-0.000497866
-0.000811957
-0.000675903
-0.000615268
-0.000792574
-0.000777616
-0.000502744
-0.000498858
-0.00048423
-0.000689872
-0.000761095
-0.00087469
-0.000840331
-0.000914291
-0.000828482
-0.000905375
-0.000759622
-0.000793965
-0.000800145
-0.000754294
-0.000792422
-0.000729568
-0.000718708
-0.000509443
-0.000684497
-0.000800826
-0.000556148
-0.000816214
-0.00074982
-0.000868259
-0.000522032
-0.000825706
-0.000789375
-0.000512718
-0.000707443
-0.000509251
-0.000794866
-0.000725461
-0.000533819
-0.000502392
-0.000434296
-0.000499584
-0.000795953
-0.000364687
-0.000613309
-0.00050052
-0.000561739
-0.00082648
-0.000800083
-0.000251115
-0.000802988
-0.000436799
-0.000473794
-0.000821978
-0.000668189
-0.000479366
-0.000917177
-0.000521495
-0.000251115
-0.000484494
-0.000713529
-0.000890757
-0.000675196
-0.000794644
-0.000744072
-0.000390717
-0.000382737
-0.000326922
-0.000375304
-0.000532487
-0.000406985
-0.000655766
-0.000410168
-0.000706454
-0.000504417
-0.000485226
-0.000568022
-0.000527832
-0.00070151
-0.000506147
-0.000520762
-0.000230229
-0.00052526
-0.000759702
-0.000760241
-0.000688354
-0.00050518
-0.000329347
-0.000955721
-0.000641876
-0.000535942
-0.000494053
-0.000492485
-0.000509561
-0.000621487
-0.000500454
-0.000358107
-0.000493907
-0.000338564
-0.000612335
-0.00050386
-0.000214586
-0.000474587
-0.000561568
-0.000503865
-0.000775931
-0.000523277
-0.000675092
-0.000258591
-0.000541853
-0.00051737
-0.00045231
-0.00048569
-0.000573325
-0.000539872
-0.00056448
-0.00047977
-0.000487337
-0.000526317
-0.000704045
-0.000496269
-0.000703432
-0.000634936
-0.000501435
-0.000514849
-0.000519826
-0.000575062
-0.000518982
-0.000485881
-0.000552208
-0.000579504
-0.000683907
-0.000519723
-0.000516272
-0.000747876
-0.000737403
-0.00049664
-0.000501541
-0.000223433
-0.00060552
-0.000419733
-0.000568302
-0.000250615
-0.000260152
-0.000232491
-0.000236297
-0.000250685
-0.000264078
-0.000272146
-0.000637893
-0.000472243
-0.000476127
-0.000544233
-0.000530089
-0.000523472
-0.000553949
-0.000512275
-0.000523939
-0.000533271
-0.00052153
-0.000640851
-0.000474006
-0.000658721
-0.00051231
-0.00049449
-0.000522185
-0.00055767
-0.000582363
-0.000542482
-0.000621359
-0.000580424
-0.000538152
-0.000387958
-0.00054134
-0.000529423
-0.000570307
-0.000545952
-0.000517275
-0.000491964
-0.000541963
-0.000565394
-0.000767653
-0.000506808
-0.000746342
-0.000777835
-0.000532578
-0.000745337
-0.000571687
-0.000457836
-0.000624024
-0.000546718
-0.000394082
-0.000345422
-0.000616138
-0.000656269
-0.000555324
-0.0004616
-0.000555529
-0.000262832
-0.000549045
-0.000515108
-0.000262688
-0.000100923
-0.000110401
-0.000475604
-0.000507012
-0.000588964
-0.000566079
-5.19036e-05
-5.4234e-05
-0.000560815
-0.000566669
-0.000536405
-0.000197287
-0.0004744
-0.000551864
-0.000562423
-0.000485139
-0.000428209
-0.00020544
-0.00081269
-0.000510184
-0.000623553
-0.000633302
-0.00045504
-0.000575921
-0.000444906
-0.000490944
-0.000243612
-0.000367808
-0.000576605
-0.000580258
-0.000498649
-0.000523689
-0.000540445
-0.000569863
-0.000545057
-0.00026839
-0.000478558
-0.000539123
-0.000509845
-0.000765141
-0.000268334
-0.000413989
-0.000426412
-0.000404399
-0.000263041
-0.000263059
-0.000463244
-0.000373706
-0.00053464
-0.000287217
-0.000314111
-0.000102595
-0.000102595
-0.000214098
-0.000340948
-0.000229722
-0.000455524
-0.000492962
-0.00052583
-0.000592547
-0.000537547
-0.000497708
-0.000391747
-0.000241903
-0.000491827
-0.000509648
-0.000493472
-0.000271903
-0.000251961
-0.000195787
-0.000492772
-0.000502666
-0.000403677
-0.000456173
-0.000420962
-0.000385677
-0.000515968
-0.000385643
-0.000455338
-0.000439164
-0.000269372
-0.000332575
-0.00030851
-0.000545637
-0.0002153
-0.000226822
-0.000221873
-0.00051535
-0.000205018
-0.000200755
-0.000358386
-0.000187254
-0.000417465
-0.000418096
-0.000192225
-0.000454224
-0.000213478
-0.000212102
-0.000239065
-0.000202361
-0.000198773
-0.000297382
-0.000236297
-0.000214631
-0.000202993
-0.000415972
-0.00047493
-0.000223533
-0.00045913
-0.000184073
-0.000465791
-0.000369968
-0.000192322
-0.00016291
-0.000181672
-0.000241074
-0.000399931
-0.000329529
-0.00013794
-0.00015311
-0.000445954
-0.000129846
-0.000129844
-0.000147128
-0.000165118
-0.000186119
-0.000217127
-0.000358907
-0.000332288
-0.000446252
-0.000130439
-0.000130438
-0.000392461
-0.000160929
-0.000317853
-0.000145831
-0.00014678
-0.000193398
-0.000336573
-0.000348515
-0.000371283
-0.00034027
-0.000336564
-7.35503e-05
-0.000543284
-9.38108e-05
-9.09051e-05
-0.000438887
-0.000435843
-9.42046e-05
-6.54286e-05
-9.21814e-05
-0.000404824
SCALARS rr_P_ext' float
LOOKUP_TABLE default
0.000178699
0.000412746
0.000329249
0.00043074
0.000226031
0.00034944
0.000176684
0.00042829
0.000367564
0.000463817
0.000162313
0.000429601
0.000377956
0.000399485
0.000468946
0.000392461
0.000338057
0.000381749
0.000341153
0.000333995
0.000375643
6.73287e-05
0.000384883
0.000354794
0.000321595
0.000371431
0.000150663
0.000326033
0.000254456
0.000303054
0.000333889
0.000263051
0.000166868
0.000226903
0.000223102
0.000227411
0.000294671
0.000223521
0.000333541
0.000187568
0.000213871
0.000259713
0.000259738
0.000366442
0.000209641
0.000232053
0.000321138
0.00032538
0.000305194
0.000290305
0.000298241
0.000231681
0.000362711
0.000297713
0.000333898
0.000152143
0.000238216
0.000299896
0.000238206
0.000364127
0.000431518
0.000423385
0.000148309
0.000298501
0.000405533
0.000382318
0.000417425
0.000360761
0.000331793
0.000473719
0.000393516
0.000389225
0.000264251
0.000309594
0.000327242
0.000172147
0.000338097
0.000378768
0.000363793
0.000255745
0.000230146
0.000255227
0.000481917
0.000230376
0.000311221
0.00011521
0.000376618
0.000315308
0.000222015
3.31105e-05
0.000257968
3.60104e-05
0.000286904
0.000274403
0.000244172
0.000222252
0.000211379
0.000407198
0.000338342
0.000324696
0.000275069
0.000263307
0.000221041
0.000385539
0.000392012
0.000353025
0.000310902
0.000314722
0.000234636
0.000470561
0.00030191
0.000158202
0.000211561
0.000421914
0.000395362
0.000287516
0.000276233
0.00017564
0.000286502
0.000286393
0.000249575
0.00045706
0.000470393
0.000404397
0.000444647
0.000349535
0.000198147
0.000439646
0.000191446
0.000247597
0.000205556
0.000419643
0.000410347
0.000412051
0.000273863
0.00016784
0.000183114
0.000301831
0.00036949
0.000167781
0.000228764
0.000355921
0.000268891
0.000434554
0.000213765
0.000354512
0.000321762
0.000310795
0.000198643
0.000253135
0.000282812
0.000404975
0.000236015
0.000366456
0.000424673
0.000431428
0.000282412
0.000235666
0.000234338
0.000369959
0.000310172
0.000234076
0.000154457
0.000228513
0.000227606
0.000396341
0.000238839
0.000241469
0.000261306
0.000232751
0.000350317
0.000243857
0.000215522
0.000272926
0.000257631
0.000310685
0.000346504
0.000332588
0.000283534
0.000331859
0.000253623
0.000384539
0.000412709
0.000228807
0.00040463
0.000228384
0.000399607
0.000367527
0.000343532
0.000348796
0.000408185
0.00019197
0.000252088
0.000234073
0.000411309
0.00040474
0.000375269
0.000409334
0.00041634
0.000349875
0.00042879
0.000286931
0.000258414
0.000468623
0.000271653
0.000425671
0.000338916
0.000214944
0.000260563
0.0004243
0.000353776
0.000321569
0.000414089
0.000406732
0.00026182
0.000260751
0.000252041
0.00036089
0.000397799
0.000457169
0.000439157
0.000477833
0.00043299
0.000473172
0.000396962
0.000415599
0.000418821
0.000394833
0.000414797
0.000382227
0.000376539
0.000265288
0.000357714
0.000418348
0.0002901
0.000427277
0.000392537
0.000453588
0.000271694
0.000431328
0.000412473
0.000267029
0.000370251
0.000265209
0.000415767
0.000378946
0.000278024
0.000261508
0.000225461
0.000259373
0.000416325
0.000189283
0.000320274
0.000260519
0.000292844
0.000431727
0.000418168
0.000131824
0.000419674
0.000226694
0.000246608
0.000429394
0.000349053
0.000249474
0.000479363
0.00027184
0.000131823
0.000252183
0.000372946
0.000465772
0.000352675
0.000415974
0.000389075
0.000204715
0.00019989
0.000169536
0.000194543
0.00027891
0.000212379
0.000342563
0.00021361
0.00036974
0.000263686
0.000252561
0.000296943
0.000274983
0.000366533
0.000263688
0.00027104
0.000120961
0.000275079
0.000397705
0.00039798
0.000359719
0.000263206
0.00017272
0.000499721
0.000334851
0.000279244
0.000257327
0.000257956
0.000265382
0.000325431
0.000260692
0.00018561
0.000257326
0.000175744
0.000320336
0.000262414
0.000112741
0.000247218
0.000293702
0.000262382
0.000405774
0.000272573
0.000352474
0.000133977
0.000282843
0.000269442
0.0002369
0.000252928
0.000299091
0.000282329
0.000294983
0.000249914
0.000253907
0.000274346
0.000368307
0.000258555
0.000367463
0.000331509
0.00026272
0.000268241
0.000270948
0.000300048
0.000270541
0.000253117
0.000287869
0.000303257
0.000357254
0.000270907
0.000268864
0.000390793
0.000385329
0.000258737
0.000262773
0.000115458
0.000316138
0.000217903
0.000296535
0.000128701
0.000133601
0.000119404
0.000121354
0.000128748
0.000135613
0.000139762
0.000333718
0.000247586
0.00024867
0.000283899
0.000276343
0.00027288
0.000289436
0.000267023
0.000273088
0.000279588
0.000271867
0.000335421
0.00024661
0.000344747
0.000267435
0.000257946
0.000272197
0.000292107
0.000304049
0.000283003
0.000324412
0.0003028
0.000280505
0.000201883
0.000282383
0.000276381
0.000298509
0.000284643
0.000269595
0.000256485
0.000282689
0.00029515
0.0004011
0.00026422
0.000389959
0.000406008
0.000277802
0.000389363
0.000298414
0.000238657
0.000326332
0.000285244
0.00020659
0.000179037
0.000322338
0.000343428
0.000289896
0.000240844
0.000290436
0.000135838
0.000286615
0.000268747
0.000136109
5.30207e-05
5.80021e-05
0.000248307
0.00026431
0.000307322
0.000295139
2.73138e-05
2.85401e-05
0.00029297
0.000296033
0.000280207
0.00010196
0.000247265
0.000288641
0.000293373
0.000253036
0.00022336
0.000106153
0.000424969
0.000265948
0.000325541
0.000330631
0.000237333
0.000300444
0.000232047
0.000256082
0.000126138
0.000190929
0.000300798
0.000302943
0.000260168
0.000273126
0.000281954
0.000297342
0.00028438
0.000139111
0.000250524
0.000281065
0.000266544
0.000400129
0.000139072
0.000216124
0.000222588
0.00021188
0.00013818
0.000138188
0.000242598
0.000194778
0.000279113
0.000148842
0.000164971
5.39764e-05
5.39758e-05
0.000110612
0.000178862
0.000120567
0.000237784
0.000258119
0.000274628
0.000309649
0.000281117
0.000260355
0.000204643
0.000125017
0.000256806
0.000266418
0.000258095
0.000140691
0.000132193
0.000101425
0.000257718
0.00026269
0.000210263
0.000238234
0.000219895
0.000202086
0.000269563
0.000202067
0.000237726
0.000229694
0.000141351
0.00017453
0.000159882
0.000285175
0.000111198
0.000117175
0.000114562
0.000269485
0.000105942
0.000103633
0.000186915
9.66992e-05
0.000218851
0.00021918
9.92848e-05
0.000237002
0.000110539
0.00010954
0.00012376
0.000104504
0.000102902
0.000156016
0.000122406
0.000110914
0.000104843
0.000217279
0.000248499
0.000115699
0.000239828
9.50287e-05
0.000243394
0.000193053
9.93114e-05
8.4306e-05
9.37957e-05
0.000124549
0.000208754
0.000172781
7.2557e-05
8.05248e-05
0.000233071
6.82971e-05
6.82961e-05
7.73828e-05
8.67705e-05
9.64346e-05
0.000113929
0.000187972
0.000174228
0.000233195
6.85618e-05
6.8561e-05
0.000205821
8.31324e-05
0.000165842
7.53453e-05
7.60239e-05
0.000100176
0.000176746
0.000183011
0.000194953
0.000178673
0.00017674
3.86802e-05
0.000285274
4.93092e-05
4.78176e-05
0.000230479
0.000228884
4.95554e-05
3.44103e-05
4.84549e-05
0.000212551
SCALARS rr_S' float
LOOKUP_TABLE default
0.000129461
0.000296728
0.000236859
0.000309705
0.000162189
0.000251388
0.000128005
0.000307973
0.000264592
0.000333454
0.000117531
0.000308915
0.000271821
0.000287175
0.000336727
0.000282302
0.000242951
0.000274529
0.000245664
0.00024032
0.000270315
4.81882e-05
0.000276961
0.000255282
0.0002314
0.000267076
0.000108979
0.000234527
0.00018362
0.000217228
0.000240134
0.000189818
0.000120713
0.000162716
0.000159954
0.000163082
0.000211201
0.000160269
0.000239887
0.000135685
0.000154336
0.000186141
0.000186159
0.000263546
0.000151543
0.000167435
0.000231214
0.000234196
0.000219551
0.000209589
0.000215259
0.000167053
0.000260291
0.000214661
0.000239629
0.000109954
0.000170787
0.000216234
0.000170781
0.00026199
0.000310127
0.000304092
0.000107222
0.000214403
0.000291266
0.000274761
0.000299991
0.000259403
0.000238747
0.000340555
0.000282402
0.000279324
0.000190692
0.000222444
0.000235409
0.000124572
0.000242736
0.000272212
0.000261584
0.000184371
0.000166183
0.000183095
0.000346238
0.000166385
0.000224531
8.32746e-05
0.000270914
0.000226576
0.000160486
2.37065e-05
0.000186005
2.5783e-05
0.000205974
0.000197222
0.000176045
0.000160425
0.00015263
0.000292752
0.000242915
0.000233533
0.000198164
0.000189928
0.000159645
0.000277235
0.000281853
0.000253817
0.000223351
0.000226373
0.000169467
0.000338255
0.000217223
0.000114331
0.00015284
0.000303405
0.000284266
0.000207303
0.000198045
0.000126828
0.000205411
0.000206488
0.00017975
0.00032822
0.000338172
0.000290589
0.00031961
0.000250968
0.000142099
0.00031608
0.000138237
0.000178515
0.000147515
0.000301702
0.000294829
0.000296236
0.000197541
0.000120331
0.000132277
0.000217062
0.000265463
0.00012029
0.000164995
0.000255879
0.000193638
0.000312414
0.000154362
0.000254903
0.000231348
0.000223581
0.000142904
0.000182404
0.000203562
0.000291143
0.000170312
0.000263547
0.000305312
0.000310172
0.000202993
0.000169961
0.000168999
0.00026607
0.000223247
0.000168904
0.00011163
0.000164932
0.000164149
0.000284958
0.00017225
0.000174148
0.000188562
0.000167857
0.000251495
0.000175828
0.000155558
0.000196161
0.000185757
0.000223201
0.000248759
0.000239157
0.000203466
0.000238597
0.000183016
0.000276464
0.000296719
0.000165024
0.000290758
0.00016485
0.000287148
0.000264027
0.000246617
0.000250764
0.000293309
0.000138603
0.000181761
0.000168909
0.000295705
0.000291071
0.000269866
0.000294103
0.000299316
0.000251452
0.000308262
0.000206599
0.000186286
0.000336704
0.000196025
0.000305829
0.000243571
0.00015505
0.000187129
0.000305031
0.000254055
0.000231155
0.000297732
0.000292219
0.000188658
0.000187426
0.000181678
0.00025926
0.00028594
0.000328616
0.000315695
0.000343487
0.00031125
0.000340137
0.000285374
0.000298436
0.000300756
0.000283524
0.000297857
0.00027431
0.000270227
0.000191167
0.000257153
0.000300815
0.00020881
0.000306806
0.000281853
0.000326148
0.000195855
0.000310157
0.000296543
0.000192405
0.000265902
0.0001911
0.000298705
0.000272498
0.000200324
0.000188495
0.000162803
0.00018728
0.000299111
0.0001367
0.000230355
0.00018779
0.000210867
0.000310446
0.000300585
9.44769e-05
0.000301674
0.000163726
0.000177762
0.000308759
0.000250996
0.000179844
0.000344576
0.000195756
9.44768e-05
0.000181778
0.000268071
0.000334705
0.000253618
0.000298695
0.00027959
0.000146909
0.000143759
0.000122507
0.000140618
0.000200195
0.000152826
0.00024633
0.000153919
0.000265532
0.000189521
0.000182052
0.00021342
0.000198096
0.00026353
0.000189959
0.00019538
8.66421e-05
0.000197467
0.000285566
0.000285767
0.000258601
0.000189601
0.00012387
0.000359111
0.000241005
0.000201149
0.000185406
0.000185156
0.000191219
0.000233633
0.000187815
0.000134169
0.000185368
0.000126912
0.000230122
0.00018908
8.07546e-05
0.000178108
0.000211025
0.000189074
0.000291569
0.000196378
0.000253546
9.6873e-05
0.000203489
0.000194148
0.000170048
0.000182256
0.000215266
0.000202867
0.000212062
0.000180051
0.000182904
0.000197564
0.000264587
0.000186254
0.000264234
0.000238465
0.000188539
0.000193229
0.000195124
0.000215931
0.000194815
0.00018235
0.000207289
0.000217806
0.000256898
0.000195088
0.000193734
0.000280956
0.000277024
0.000186391
0.000188578
8.36268e-05
0.000227414
0.000157344
0.000213395
9.36019e-05
9.71644e-05
8.68351e-05
8.82555e-05
9.36304e-05
9.86301e-05
0.000101645
0.00023973
0.000177598
0.000178838
0.000204339
0.000198986
0.0001965
0.000208098
0.000192292
0.000196667
0.000200551
0.000195771
0.000240878
0.000177816
0.000247586
0.000192397
0.000185662
0.000196014
0.000209665
0.000218717
0.000203686
0.000233364
0.000217933
0.000202003
0.000145546
0.000203251
0.000198828
0.000214365
0.000204948
0.00019416
0.000184679
0.000203481
0.000212335
0.000288379
0.000190251
0.000280372
0.000292107
0.000199959
0.000279978
0.000214693
0.000171859
0.000234487
0.000205284
0.0001482
0.000129417
0.000231555
0.000246658
0.000208554
0.000173326
0.000208732
9.83783e-05
0.000206194
0.000193414
9.841e-05
3.79797e-05
4.15471e-05
0.000178621
0.000190323
0.000221156
0.000212505
1.95431e-05
2.04206e-05
0.000210663
0.000212865
0.000201492
7.38442e-05
0.000178071
0.000207382
0.000211166
0.000182144
0.000160773
7.68905e-05
0.000305376
0.00019151
0.000234184
0.000237845
0.000170842
0.000216241
0.000167037
0.000184327
9.1242e-05
0.000137875
0.000216497
0.000217925
0.000187236
0.000196613
0.000202925
0.00021398
0.000204661
0.000100556
0.000179887
0.000202381
0.000191565
0.000287515
0.000100533
0.000155476
0.000160137
0.000152053
9.89852e-05
9.89916e-05
0.000174151
0.000140274
0.000200789
0.000107603
0.000118195
3.86268e-05
3.86265e-05
8.01272e-05
0.000128248
8.6422e-05
0.00017107
0.000185315
0.000197507
0.000222606
0.000201993
0.000187041
0.000147154
9.05434e-05
0.000184721
0.000191485
0.000185438
0.000101815
9.47778e-05
7.33426e-05
0.000185172
0.000188844
0.000151491
0.00017134
0.000158127
0.000145016
0.000193823
0.000145003
0.00017101
0.000165031
0.000101332
0.000125111
0.000115582
0.000204993
8.05709e-05
8.48893e-05
8.3023e-05
0.000193648
7.67347e-05
7.51147e-05
0.000134553
7.00718e-05
0.000156995
0.000157233
7.19368e-05
0.000170557
7.99568e-05
7.93729e-05
8.95331e-05
7.57262e-05
7.44435e-05
0.000111863
8.85151e-05
8.03338e-05
7.59654e-05
0.00015625
0.000178495
8.37113e-05
0.000172462
6.88744e-05
0.000174984
0.000138923
7.19675e-05
6.10047e-05
6.79782e-05
9.02232e-05
0.00015019
0.000123932
5.19305e-05
5.76387e-05
0.000167542
4.88825e-05
4.8882e-05
5.53877e-05
6.2143e-05
6.97241e-05
8.16775e-05
0.000134931
0.000124969
0.000167646
4.90949e-05
4.90945e-05
0.00014761
6.02259e-05
0.00011935
5.45792e-05
5.49813e-05
7.24445e-05
0.000126642
0.000131134
0.000139697
0.00012803
0.000126638
2.76878e-05
0.000204416
3.53087e-05
3.42234e-05
0.00016514
0.000163996
3.54661e-05
2.46307e-05
3.46959e-05
0.000152314
SCALARS rr_P' float
LOOKUP_TABLE default
3.77578e-05
8.03821e-05
6.45807e-05
8.40088e-05
4.31087e-05
6.85527e-05
3.73418e-05
8.36044e-05
7.25962e-05
9.03549e-05
3.41324e-05
8.38613e-05
7.39042e-05
7.77337e-05
9.01412e-05
7.68837e-05
6.55926e-05
7.45949e-05
6.76327e-05
6.56487e-05
7.39134e-05
1.24818e-05
7.57322e-05
6.97292e-05
6.32188e-05
7.24791e-05
3.13219e-05
6.3895e-05
5.15953e-05
5.71425e-05
6.53027e-05
5.33291e-05
3.47293e-05
4.29946e-05
4.21623e-05
4.30941e-05
5.55114e-05
4.22846e-05
6.52454e-05
3.90284e-05
4.33755e-05
4.89094e-05
4.89174e-05
7.16673e-05
4.32996e-05
4.69962e-05
6.35525e-05
6.41752e-05
5.98534e-05
5.91665e-05
6.06048e-05
4.65826e-05
6.92639e-05
5.98431e-05
6.38027e-05
3.13408e-05
4.50101e-05
6.0282e-05
4.50113e-05
7.15435e-05
8.37556e-05
8.16068e-05
3.06691e-05
5.75575e-05
7.81572e-05
7.41779e-05
8.09988e-05
7.03923e-05
6.52503e-05
9.2239e-05
7.51589e-05
7.43424e-05
5.35933e-05
5.99129e-05
6.41673e-05
3.59529e-05
6.48784e-05
7.34936e-05
7.09898e-05
5.13274e-05
4.69797e-05
4.85484e-05
9.32127e-05
4.71368e-05
6.29487e-05
2.3772e-05
7.38081e-05
6.10971e-05
4.58507e-05
6.16459e-06
5.1861e-05
6.70543e-06
5.50328e-05
5.32912e-05
4.90497e-05
4.51989e-05
4.31421e-05
7.93337e-05
6.49324e-05
6.35354e-05
5.47879e-05
5.31521e-05
4.52353e-05
7.52779e-05
7.64316e-05
6.88148e-05
6.00751e-05
6.16253e-05
4.80232e-05
9.15424e-05
5.93142e-05
3.25884e-05
4.34195e-05
8.24191e-05
7.70972e-05
5.77775e-05
5.21983e-05
3.58591e-05
5.41519e-05
5.75356e-05
4.95686e-05
8.79371e-05
9.16172e-05
7.83475e-05
8.64536e-05
6.71392e-05
3.75528e-05
8.56586e-05
3.90735e-05
4.97397e-05
3.92623e-05
8.17733e-05
7.94028e-05
8.02712e-05
5.52759e-05
3.17135e-05
3.75411e-05
5.89861e-05
7.14661e-05
3.17047e-05
4.61309e-05
6.93155e-05
5.33359e-05
8.46489e-05
4.36579e-05
6.91578e-05
6.27429e-05
6.09536e-05
3.89677e-05
5.05455e-05
5.57948e-05
7.88773e-05
4.78574e-05
7.16443e-05
8.27279e-05
8.40633e-05
5.48863e-05
4.74828e-05
4.72038e-05
7.23445e-05
6.11681e-05
4.74357e-05
3.18354e-05
4.64366e-05
4.58643e-05
7.72525e-05
4.81248e-05
4.86605e-05
5.29823e-05
4.68929e-05
6.71841e-05
4.90179e-05
4.3801e-05
5.30021e-05
5.17769e-05
6.00495e-05
6.64571e-05
6.49295e-05
5.4123e-05
6.46832e-05
5.14196e-05
7.49268e-05
8.04226e-05
4.61335e-05
7.83912e-05
4.64399e-05
7.74213e-05
7.10018e-05
6.58619e-05
6.79532e-05
7.90717e-05
3.91462e-05
5.06659e-05
4.74567e-05
8.01332e-05
7.91099e-05
7.33197e-05
7.92112e-05
8.10992e-05
6.79019e-05
8.35094e-05
5.68232e-05
5.18309e-05
9.06916e-05
5.50686e-05
8.23353e-05
6.57632e-05
4.34107e-05
5.01737e-05
8.26264e-05
6.80712e-05
6.25439e-05
8.07526e-05
7.86653e-05
5.22658e-05
5.0681e-05
5.05104e-05
6.97221e-05
7.73564e-05
8.89044e-05
8.54793e-05
9.2971e-05
8.42415e-05
9.20658e-05
7.72861e-05
7.99302e-05
8.0569e-05
7.59369e-05
7.97685e-05
7.30308e-05
7.19419e-05
5.29886e-05
6.96297e-05
8.16636e-05
5.7237e-05
8.21316e-05
7.54301e-05
8.85228e-05
5.44834e-05
8.4221e-05
8.03595e-05
5.32851e-05
7.12891e-05
5.2942e-05
8.03944e-05
7.40172e-05
5.54706e-05
5.23886e-05
4.60327e-05
5.29308e-05
8.05174e-05
3.87047e-05
6.26794e-05
5.22123e-05
5.80273e-05
8.43068e-05
8.13303e-05
2.48141e-05
8.16406e-05
4.63787e-05
4.94241e-05
8.38243e-05
6.81406e-05
5.0047e-05
9.32388e-05
5.38992e-05
2.48154e-05
5.05322e-05
7.25116e-05
9.02799e-05
6.89036e-05
7.99745e-05
7.54066e-05
3.90931e-05
3.90886e-05
3.4879e-05
4.01429e-05
5.33824e-05
4.17808e-05
6.68735e-05
4.2639e-05
7.11823e-05
5.12102e-05
5.06131e-05
5.76579e-05
5.47536e-05
7.14471e-05
5.25002e-05
5.43426e-05
2.26258e-05
5.27144e-05
7.64305e-05
7.64941e-05
7.00343e-05
5.2373e-05
3.2757e-05
9.68884e-05
6.60199e-05
5.55489e-05
5.13213e-05
4.93737e-05
5.296e-05
6.24226e-05
5.19465e-05
3.83278e-05
5.12127e-05
3.59082e-05
6.18767e-05
5.23658e-05
2.10904e-05
4.92609e-05
5.68411e-05
5.2409e-05
7.85887e-05
5.43257e-05
6.90728e-05
2.77405e-05
5.5521e-05
5.37793e-05
4.53616e-05
5.05061e-05
5.89688e-05
5.46753e-05
5.74348e-05
4.9805e-05
5.05271e-05
5.44079e-05
7.11508e-05
5.14593e-05
7.17338e-05
6.49627e-05
5.01759e-05
5.33791e-05
5.37548e-05
5.90836e-05
5.36258e-05
5.0414e-05
5.70501e-05
5.84409e-05
6.97552e-05
5.37274e-05
5.36737e-05
7.61261e-05
7.50511e-05
5.15122e-05
5.019e-05
2.43478e-05
6.19688e-05
4.4485e-05
5.83719e-05
2.83124e-05
2.93875e-05
2.62527e-05
2.66867e-05
2.83064e-05
2.98358e-05
3.07386e-05
6.44446e-05
4.70592e-05
4.86192e-05
5.59952e-05
5.47595e-05
5.40919e-05
5.6416e-05
5.29603e-05
5.41851e-05
5.31326e-05
5.38927e-05
6.45519e-05
4.95793e-05
6.63885e-05
5.24772e-05
5.08818e-05
5.39736e-05
5.58984e-05
5.9597e-05
5.57922e-05
6.35838e-05
5.96908e-05
5.56437e-05
4.05296e-05
5.57056e-05
5.42142e-05
5.7433e-05
5.63605e-05
5.35199e-05
5.08e-05
5.57927e-05
5.79097e-05
7.81738e-05
5.23374e-05
7.60116e-05
7.97199e-05
5.4816e-05
7.59965e-05
5.85805e-05
4.73203e-05
6.32058e-05
5.61898e-05
3.92923e-05
3.69677e-05
6.22457e-05
6.61834e-05
5.68745e-05
4.74304e-05
5.63618e-05
2.86162e-05
5.62354e-05
5.29466e-05
2.81692e-05
9.92253e-06
1.08523e-05
4.86767e-05
5.23784e-05
6.04858e-05
5.84345e-05
5.04676e-06
5.27334e-06
5.71818e-05
5.77721e-05
5.47064e-05
2.14823e-05
4.90645e-05
5.58411e-05
5.7883e-05
4.99597e-05
4.40759e-05
2.23969e-05
8.23455e-05
5.27253e-05
6.38283e-05
6.48254e-05
4.68653e-05
5.92365e-05
4.58224e-05
5.0534e-05
2.62323e-05
3.90039e-05
5.93106e-05
5.93901e-05
5.1245e-05
5.39504e-05
5.55662e-05
5.85409e-05
5.60151e-05
2.87223e-05
4.8147e-05
5.56774e-05
5.17359e-05
7.74977e-05
2.87289e-05
4.23885e-05
4.36877e-05
4.04662e-05
2.58763e-05
2.58789e-05
4.64955e-05
3.8655e-05
5.47383e-05
3.07723e-05
3.09448e-05
9.99198e-06
9.99222e-06
2.33585e-05
3.38383e-05
2.27327e-05
4.66694e-05
4.95277e-05
5.36955e-05
6.02919e-05
5.44364e-05
5.03112e-05
3.99497e-05
2.63425e-05
5.03005e-05
5.17452e-05
4.99387e-05
2.93977e-05
2.49899e-05
2.10193e-05
4.98814e-05
5.11326e-05
4.19229e-05
4.65989e-05
4.29407e-05
3.85745e-05
5.25819e-05
3.85731e-05
4.66024e-05
4.44378e-05
2.66881e-05
3.29339e-05
3.30457e-05
5.5469e-05
2.35315e-05
2.4758e-05
2.42877e-05
5.22171e-05
2.2342e-05
2.20073e-05
3.69183e-05
2.04829e-05
4.16185e-05
4.16834e-05
2.10036e-05
4.66651e-05
2.29817e-05
2.31898e-05
2.57711e-05
2.21306e-05
2.14279e-05
2.95027e-05
2.53754e-05
2.33832e-05
2.21839e-05
4.24427e-05
4.79364e-05
2.41232e-05
4.68402e-05
2.017e-05
4.74127e-05
3.79915e-05
2.10428e-05
1.75993e-05
1.98983e-05
2.63018e-05
4.09872e-05
3.28165e-05
1.34529e-05
1.49464e-05
4.53408e-05
1.2666e-05
1.26662e-05
1.43575e-05
1.62048e-05
1.99606e-05
2.15204e-05
3.60041e-05
3.30904e-05
4.54106e-05
1.2782e-05
1.27823e-05
3.90295e-05
1.75708e-05
3.26609e-05
1.59067e-05
1.57751e-05
2.07771e-05
3.31858e-05
3.43697e-05
3.66322e-05
3.3567e-05
3.31863e-05
7.18233e-06
5.35932e-05
9.19295e-06
8.86416e-06
4.32678e-05
4.29638e-05
9.18306e-06
6.38761e-06
9.03056e-06
3.99589e-05
SCALARS rr_T' float
LOOKUP_TABLE default
0.00020971
0.000477754
0.000381552
0.000498701
0.000260749
0.000404962
0.000207355
0.000495936
0.000426438
0.000536896
0.000190322
0.000497455
0.000437773
0.000462341
0.000541657
0.000454713
0.000391066
0.000442117
0.000396042
0.000387185
0.000435542
7.7322e-05
0.000446255
0.000411289
0.000372817
0.000430071
0.000176313
0.000377772
0.000296511
0.000348966
0.000386747
0.000306517
0.000195313
0.000261482
0.000256993
0.000262072
0.000339264
0.000257518
0.000386354
0.000219534
0.000249227
0.000299
0.000299032
0.000424452
0.000245057
0.000270351
0.000372699
0.000377411
0.000353667
0.000338577
0.00034766
0.000269589
0.000418507
0.00034641
0.000385302
0.000177764
0.000274396
0.00034895
0.000274387
0.000422089
0.00049921
0.000489248
0.000173399
0.000344958
0.00046861
0.000442264
0.000482885
0.000417712
0.000384665
0.000548314
0.000454062
0.000449115
0.000307936
0.000357987
0.000379207
0.000201613
0.000390412
0.000438162
0.000421228
0.0002975
0.000268488
0.000294304
0.000557199
0.000268862
0.000362506
0.00013465
0.000436384
0.00036467
0.000259516
3.80505e-05
0.00030017
4.13839e-05
0.000331276
0.000317478
0.000284081
0.000259114
0.000246587
0.000471364
0.000390702
0.000376128
0.000319574
0.000306594
0.000257976
0.000446451
0.00045384
0.000408689
0.000359412
0.000364615
0.000273848
0.00054458
0.000349963
0.000184843
0.000247033
0.00048861
0.00045773
0.00033453
0.000318191
0.000204906
0.000330033
0.000333207
0.000289819
0.000528006
0.000544489
0.000467695
0.000514543
0.000403683
0.000228352
0.000508928
0.000223334
0.000288068
0.000237186
0.000485784
0.000474481
0.000476974
0.000318879
0.000193331
0.000213777
0.000349568
0.000427209
0.000193266
0.000266326
0.000411979
0.000312181
0.000503016
0.000249398
0.000410461
0.000372517
0.000360159
0.000230203
0.000294214
0.000328051
0.000468768
0.000275023
0.000424442
0.000491582
0.00049942
0.000326783
0.000274322
0.000272765
0.000428514
0.000359764
0.000272737
0.000180485
0.000266379
0.000264945
0.000458829
0.000278018
0.000281085
0.000304491
0.000270926
0.000404485
0.000283745
0.00025124
0.000315767
0.000299763
0.000359176
0.000400086
0.000385125
0.00032713
0.00038418
0.000295533
0.000445142
0.000477758
0.00026637
0.000467962
0.000266257
0.000462157
0.000424857
0.00039663
0.000403757
0.000472066
0.000223911
0.000293316
0.000272753
0.000476121
0.000468765
0.000434604
0.000473314
0.000481932
0.000404753
0.000496329
0.000333038
0.000300574
0.000541877
0.000316537
0.000492169
0.000392063
0.000250301
0.000301049
0.000491123
0.000408696
0.000372138
0.000479415
0.000470264
0.000304295
0.000301723
0.00029312
0.000417187
0.000460342
0.000529049
0.000508281
0.000553009
0.000501107
0.000547616
0.000459463
0.00048008
0.00048382
0.000456093
0.000479146
0.000441064
0.000434499
0.000308355
0.000414021
0.000484423
0.000336509
0.000493527
0.000453377
0.00052521
0.000316009
0.000499477
0.000477468
0.000310328
0.000427775
0.000308233
0.000480693
0.000438842
0.000323099
0.000304111
0.00026303
0.000302569
0.000481353
0.000220881
0.000371015
0.000302982
0.000339934
0.000499946
0.000483926
0.000151754
0.000485685
0.000264561
0.000286804
0.000497219
0.000404187
0.000290184
0.00055475
0.000315585
0.000151755
0.000293279
0.00043157
0.000538716
0.000408435
0.000480487
0.000450001
0.000236206
0.000231528
0.000198043
0.000227371
0.000321932
0.000246236
0.000396672
0.000248261
0.000427176
0.000305079
0.000293723
0.000343546
0.000319457
0.000424326
0.000306331
0.000315239
0.00013911
0.000317573
0.000459354
0.000459681
0.000416355
0.000305741
0.00019907
0.00057801
0.000388374
0.000324356
0.000299026
0.000297748
0.000308418
0.000375762
0.000302893
0.000216958
0.00029892
0.000205055
0.000370297
0.000304967
0.000129658
0.000287237
0.000339614
0.000304978
0.000469262
0.000316708
0.000408405
0.000156677
0.000327815
0.000313146
0.000273462
0.000293975
0.000346897
0.000326498
0.000341431
0.000290375
0.000294943
0.000318505
0.000425757
0.00030035
0.000425505
0.000384112
0.000303141
0.000311594
0.00031458
0.000347936
0.000314061
0.000294069
0.000334166
0.000350421
0.000413697
0.000314514
0.000312483
0.000452363
0.000446027
0.000300578
0.000303206
0.000135449
0.000366319
0.000254209
0.000343842
0.00015212
0.000157908
0.000141117
0.000143427
0.00015216
0.000160292
0.000165187
0.00038575
0.000285458
0.000288022
0.000329298
0.000320781
0.000316779
0.00033507
0.000310008
0.00031707
0.000322347
0.000315604
0.000387503
0.000286957
0.000398317
0.000309939
0.000299201
0.000316003
0.000337156
0.000352309
0.000328234
0.0003759
0.000351191
0.000325669
0.000234856
0.000327549
0.000320289
0.000344845
0.000330373
0.000313042
0.000297705
0.00032793
0.000342053
0.000464332
0.000306689
0.000451443
0.000470586
0.000322249
0.000450851
0.000345865
0.000277062
0.000377393
0.00033079
0.000238216
0.000209272
0.000372593
0.000396841
0.00033596
0.000279287
0.000335986
0.000159328
0.000332162
0.000311665
0.000159157
6.09807e-05
6.67075e-05
0.000287725
0.000306816
0.000356342
0.000342551
3.13515e-05
3.27591e-05
0.000339236
0.000342775
0.000324472
0.000119595
0.000287092
0.000333742
0.000340306
0.00029355
0.000259098
0.000124543
0.000491498
0.000308739
0.000377231
0.000383128
0.000275338
0.000348467
0.000269207
0.000297058
0.000147621
0.000222765
0.000348882
0.000351037
0.000301705
0.00031688
0.000326998
0.000344789
0.000329784
0.000162602
0.000289359
0.000326245
0.000308357
0.000462736
0.000162571
0.000250453
0.000257974
0.000244478
0.000158941
0.000158951
0.00028008
0.000226156
0.000323443
0.000174015
0.000189808
6.19737e-05
6.19734e-05
0.000129795
0.000206069
0.000138832
0.000275585
0.000298056
0.000318088
0.000358408
0.000325092
0.000300981
0.000236967
0.000146642
0.000297532
0.000308244
0.000298431
0.000164787
0.000152282
0.000118628
0.00029801
0.000304039
0.000244324
0.000275953
0.000254642
0.000233157
0.000312102
0.000233137
0.000275464
0.000265586
0.0001628
0.000200995
0.000186914
0.000330024
0.00013053
0.000137509
0.000134522
0.000311672
0.000124285
0.000121725
0.000216856
0.00011353
0.000252348
0.00025273
0.000116539
0.000274824
0.000129359
0.000128592
0.000144871
0.000122687
0.000120455
0.000179735
0.000143175
0.000130111
0.000123068
0.000251625
0.000287194
0.000135464
0.000277731
0.000111608
0.00028174
0.000223842
0.000116603
9.87289e-05
0.00011015
0.000146149
0.000241956
0.000199187
8.33281e-05
9.24943e-05
0.000269732
7.84386e-05
7.84379e-05
8.88798e-05
9.97645e-05
0.000112767
0.000131226
0.000216993
0.000200855
0.00026992
7.88075e-05
7.88069e-05
0.000237217
9.75644e-05
0.000192315
8.84077e-05
8.89375e-05
0.000117183
0.000203386
0.000210603
0.000224365
0.000205623
0.000203381
4.44325e-05
0.000328302
5.6678e-05
5.49143e-05
0.000265212
0.000263371
5.69069e-05
3.95258e-05
5.5693e-05
0.000244636
SCALARS rr_uec(SIM,_S_ext) float
LOOKUP_TABLE default
0.0134824
0.030717
0.0245315
0.0320638
0.0167646
0.0260366
0.013331
0.0318857
0.0274172
0.0345193
0.0122364
0.0319834
0.0281462
0.0297259
0.0348256
0.0292353
0.0251434
0.0284256
0.025463
0.0248937
0.0280026
0.00497141
0.0286915
0.0264434
0.0239699
0.0276511
0.0113356
0.0242885
0.0190636
0.0224367
0.0248655
0.019707
0.0125571
0.0168119
0.0165232
0.0168498
0.0218129
0.016557
0.0248402
0.0141143
0.0160236
0.0192242
0.0192262
0.0272897
0.0157554
0.0173816
0.0239622
0.0242651
0.0227387
0.0217682
0.0223521
0.0173327
0.0269077
0.0222718
0.0247728
0.0114289
0.0176421
0.0224351
0.0176416
0.0271378
0.0320965
0.0314559
0.0111482
0.0221788
0.030129
0.028435
0.0310469
0.0268565
0.0247317
0.0352537
0.0291937
0.0288756
0.0197981
0.0230165
0.0243807
0.0129622
0.0251012
0.0281713
0.0270826
0.0191273
0.0172618
0.0189221
0.0358249
0.0172859
0.0233065
0.008657
0.0280569
0.0234461
0.0166851
0.00244645
0.0192989
0.00266077
0.0212992
0.0204119
0.0182644
0.0166592
0.0158537
0.030306
0.0251199
0.0241828
0.0205465
0.0197118
0.016586
0.0287043
0.0291793
0.0262764
0.0231082
0.0234425
0.0176065
0.0350137
0.0225005
0.0118841
0.0158824
0.0314149
0.0294294
0.0215079
0.0204579
0.0131739
0.0212192
0.0214229
0.0186335
0.0339479
0.0350077
0.0300701
0.0330825
0.0259547
0.0146817
0.0327212
0.0143587
0.0185208
0.0152498
0.0312333
0.0305066
0.0306669
0.0205016
0.0124302
0.0137442
0.0224751
0.0274672
0.012426
0.0171228
0.0264878
0.0200712
0.0323411
0.0160344
0.0263904
0.0239506
0.023156
0.0148007
0.018916
0.0210916
0.0301393
0.0176821
0.0272891
0.031606
0.03211
0.0210103
0.0176369
0.0175368
0.027551
0.0231305
0.0175351
0.0116039
0.0171263
0.0170341
0.0295001
0.0178746
0.0180717
0.0195767
0.0174186
0.0260061
0.0182428
0.016153
0.020302
0.0192727
0.023093
0.0257233
0.0247612
0.0210326
0.0247005
0.0190007
0.0286201
0.0307172
0.0171257
0.0300872
0.0171185
0.0297141
0.0273159
0.025501
0.0259593
0.0303511
0.0143958
0.0188582
0.0175362
0.030612
0.030139
0.0279426
0.0304315
0.0309856
0.0260232
0.0319113
0.0214122
0.0193249
0.0348397
0.0203511
0.0316438
0.0252073
0.0160926
0.0193557
0.0315766
0.0262767
0.0239263
0.0308236
0.0302354
0.0195642
0.019399
0.0188457
0.0268227
0.0295976
0.0340152
0.0326799
0.0355556
0.0322186
0.0352089
0.0295408
0.0308666
0.0311071
0.0293243
0.0308065
0.028358
0.0279359
0.0198252
0.0266192
0.031146
0.0216354
0.0317311
0.0291497
0.0337683
0.0203173
0.0321138
0.0306985
0.019952
0.0275035
0.0198173
0.0309059
0.0282153
0.0207731
0.0195523
0.0169109
0.0194531
0.0309483
0.014201
0.023854
0.0194797
0.0218556
0.032144
0.0311139
0.00975703
0.0312271
0.0170091
0.0184396
0.0319687
0.0259868
0.0186569
0.0356676
0.0202901
0.00975705
0.0188559
0.0277477
0.0346364
0.0262601
0.0308927
0.0289324
0.0151867
0.0148859
0.0127327
0.0146183
0.0206984
0.0158315
0.0255037
0.0159615
0.027465
0.0196148
0.0188845
0.022088
0.0205389
0.0272816
0.019695
0.0202678
0.00894403
0.0204182
0.029534
0.0295551
0.0267693
0.0196571
0.0127992
0.0371627
0.02497
0.0208539
0.0192253
0.0191435
0.0198292
0.0241593
0.0194739
0.0139488
0.0192186
0.0131834
0.023808
0.0196074
0.00833635
0.0184674
0.0218353
0.0196081
0.0301709
0.0203622
0.0262579
0.010073
0.0210766
0.0201332
0.0175821
0.0189007
0.0223033
0.0209919
0.0219522
0.0186692
0.0189629
0.0204778
0.0273737
0.0193105
0.0273574
0.0246961
0.0194902
0.0200334
0.0202255
0.0223701
0.0201921
0.0189067
0.0214847
0.02253
0.0265982
0.0202212
0.0200906
0.0290842
0.0286769
0.0193251
0.0194944
0.00870839
0.023552
0.0163438
0.0221069
0.00978044
0.0101526
0.00907301
0.00922156
0.00978305
0.0103058
0.0106205
0.0248015
0.0183534
0.0185181
0.0211718
0.0206242
0.0203668
0.021543
0.0199315
0.0203855
0.0207251
0.0202913
0.0249142
0.0184493
0.0256097
0.0199272
0.0192367
0.0203169
0.0216771
0.0226513
0.0211034
0.024168
0.0225794
0.0209385
0.0150997
0.0210593
0.0205926
0.0221715
0.0212409
0.0201266
0.0191406
0.0210838
0.0219919
0.0298538
0.0197182
0.0290251
0.0302558
0.0207186
0.028987
0.022237
0.0178133
0.0242643
0.0212677
0.015316
0.0134547
0.0239556
0.0255146
0.0216001
0.0179564
0.0216019
0.0102437
0.021356
0.0200381
0.0102325
0.00392073
0.00428893
0.018499
0.0197263
0.0229105
0.0220239
0.00201573
0.00210623
0.0218109
0.0220383
0.0208616
0.00768904
0.0184582
0.0214577
0.0218795
0.0188733
0.0166584
0.00800726
0.0316005
0.01985
0.0242536
0.0246328
0.0177025
0.0224043
0.0173083
0.0190989
0.00949087
0.0143221
0.0224309
0.0225695
0.0193977
0.0203733
0.0210239
0.0221677
0.021203
0.0104542
0.0186042
0.0209755
0.0198256
0.0297513
0.0104521
0.0161026
0.0165862
0.0157186
0.0102191
0.0102198
0.0180076
0.0145404
0.0207954
0.0111879
0.0122037
0.00398459
0.00398457
0.0083449
0.0132491
0.00892619
0.0177184
0.0191633
0.0204512
0.0230436
0.0209016
0.0193513
0.0152356
0.00942804
0.0191295
0.0198183
0.0191874
0.0105945
0.00979094
0.00762672
0.0191604
0.0195479
0.0157084
0.0177421
0.0163719
0.0149908
0.0200663
0.0149895
0.0177107
0.0170756
0.0104672
0.0129229
0.0120172
0.0212187
0.00839188
0.00884051
0.00864858
0.0200387
0.0079906
0.00782583
0.0139424
0.00729894
0.0162246
0.0162491
0.0074924
0.0176695
0.00831673
0.00826729
0.00931403
0.00788765
0.00774428
0.011556
0.00920513
0.0083652
0.00791216
0.0161779
0.0184649
0.00870924
0.0178564
0.00717544
0.0181142
0.0143917
0.00749648
0.0063475
0.00708165
0.00939638
0.0155563
0.0128066
0.00535758
0.00594693
0.0173422
0.00504322
0.00504317
0.00571453
0.00641436
0.00725011
0.00843716
0.0139514
0.0129138
0.0173543
0.00506692
0.00506689
0.0152517
0.00627273
0.0123646
0.00568395
0.0057179
0.00753391
0.0130767
0.0135408
0.0144255
0.0132205
0.0130764
0.00285678
0.0211081
0.00364411
0.0035307
0.0170518
0.0169334
0.00365881
0.00254131
0.00358078
0.0157289
SCALARS rr_uec(PEX,_P_ext) float
LOOKUP_TABLE default
-0.0610345
-0.139102
-0.111088
-0.1452
-0.0759264
-0.117904
-0.0603491
-0.144394
-0.124153
-0.156321
-0.0553938
-0.144836
-0.127459
-0.134615
-0.157718
-0.132389
-0.113864
-0.128724
-0.115301
-0.112727
-0.126805
-0.0225181
-0.129925
-0.119745
-0.108544
-0.125218
-0.051319
-0.109988
-0.086315
-0.10162
-0.112602
-0.0892281
-0.056849
-0.0761426
-0.0748362
-0.0763142
-0.098795
-0.0749885
-0.112488
-0.0638988
-0.0725507
-0.0870703
-0.0870794
-0.12358
-0.0713305
-0.0787001
-0.108506
-0.10988
-0.10297
-0.0985584
-0.101204
-0.0784811
-0.121863
-0.100845
-0.112194
-0.0517436
-0.0799039
-0.101584
-0.0799012
-0.122889
-0.145352
-0.142455
-0.050472
-0.100442
-0.136446
-0.128771
-0.140599
-0.121619
-0.111993
-0.159647
-0.132216
-0.130775
-0.0896409
-0.104234
-0.110405
-0.0586817
-0.113679
-0.127577
-0.122643
-0.0866071
-0.0781548
-0.0856984
-0.162239
-0.0782631
-0.105527
-0.0391937
-0.127053
-0.106179
-0.0755394
-0.0110811
-0.0873838
-0.0120518
-0.0964605
-0.0924374
-0.0827001
-0.0754276
-0.0717798
-0.137241
-0.113764
-0.10951
-0.0930366
-0.0892521
-0.0750942
-0.129986
-0.132139
-0.118993
-0.10465
-0.106158
-0.0797144
-0.15856
-0.10189
-0.0538043
-0.0719078
-0.142261
-0.133271
-0.0973864
-0.0926569
-0.0596466
-0.096105
-0.0970016
-0.0843752
-0.153742
-0.158533
-0.136177
-0.149815
-0.117543
-0.0664948
-0.148178
-0.0650109
-0.0838608
-0.0690649
-0.14144
-0.138153
-0.138875
-0.0928282
-0.056298
-0.0622275
-0.101778
-0.12439
-0.056279
-0.07753
-0.119951
-0.0908862
-0.146457
-0.0725978
-0.119508
-0.108461
-0.10486
-0.0670232
-0.0856525
-0.0955088
-0.136486
-0.0800599
-0.123577
-0.143128
-0.14541
-0.0951465
-0.079858
-0.0794049
-0.124763
-0.104742
-0.0793946
-0.0525356
-0.0775428
-0.0771283
-0.133591
-0.080934
-0.0818267
-0.0886381
-0.0788695
-0.117778
-0.0826022
-0.0731358
-0.0919394
-0.0872653
-0.104581
-0.116497
-0.112131
-0.0952554
-0.111857
-0.0860305
-0.129606
-0.139103
-0.0775429
-0.136254
-0.0775072
-0.134564
-0.123705
-0.11549
-0.117557
-0.137449
-0.0651793
-0.0853886
-0.0793993
-0.138627
-0.136483
-0.126537
-0.137814
-0.140319
-0.117849
-0.14451
-0.0969589
-0.0875023
-0.157777
-0.0921448
-0.143304
-0.114154
-0.0728645
-0.0876574
-0.142995
-0.119002
-0.108352
-0.139585
-0.136926
-0.0885876
-0.0878498
-0.0853327
-0.121472
-0.134034
-0.154039
-0.147991
-0.161014
-0.145903
-0.159444
-0.133777
-0.139788
-0.140877
-0.132803
-0.139516
-0.128431
-0.126519
-0.0897691
-0.120546
-0.141043
-0.0979712
-0.143703
-0.132013
-0.152918
-0.0919959
-0.145426
-0.139019
-0.0903441
-0.124557
-0.089734
-0.139963
-0.127771
-0.0940619
-0.0885326
-0.0765662
-0.088076
-0.140154
-0.0642963
-0.108021
-0.0882037
-0.0989663
-0.145562
-0.1409
-0.0441917
-0.141413
-0.0770106
-0.0834941
-0.144768
-0.117681
-0.0844777
-0.161522
-0.0918772
-0.0441917
-0.085379
-0.125657
-0.156855
-0.118918
-0.139906
-0.131024
-0.0687797
-0.06741
-0.0576468
-0.0661827
-0.0937407
-0.0716901
-0.115493
-0.0722746
-0.124382
-0.0888274
-0.0855084
-0.100028
-0.0930026
-0.123545
-0.0891813
-0.0917718
-0.0405106
-0.0924711
-0.133753
-0.133849
-0.121225
-0.0890097
-0.0579682
-0.168296
-0.113072
-0.0944293
-0.0870539
-0.0866987
-0.0897879
-0.109414
-0.0881799
-0.0631516
-0.087024
-0.0596896
-0.107819
-0.0887833
-0.0377582
-0.0836221
-0.0988844
-0.0887861
-0.136633
-0.0922018
-0.118907
-0.0456042
-0.0954426
-0.0911642
-0.079627
-0.0855831
-0.100996
-0.095065
-0.0994109
-0.0845357
-0.0858662
-0.0927273
-0.123967
-0.0874403
-0.123888
-0.111834
-0.0882699
-0.0907135
-0.0915845
-0.101299
-0.0914337
-0.0856113
-0.0972871
-0.102033
-0.12045
-0.0915654
-0.0909713
-0.131709
-0.129864
-0.0875063
-0.0882888
-0.0394222
-0.106653
-0.0739984
-0.100107
-0.0442658
-0.0459501
-0.041064
-0.0417363
-0.0442776
-0.0466436
-0.0480681
-0.112319
-0.0831231
-0.0838583
-0.0958719
-0.0933903
-0.0922249
-0.0975578
-0.0902534
-0.0923093
-0.0938648
-0.0918829
-0.112831
-0.0835371
-0.11598
-0.090238
-0.0871093
-0.0919988
-0.0981736
-0.102574
-0.0955623
-0.109443
-0.102246
-0.0948129
-0.0683703
-0.0953627
-0.0932514
-0.10041
-0.0961833
-0.0911365
-0.0866724
-0.0954734
-0.0995879
-0.135193
-0.0892879
-0.131441
-0.137009
-0.0938196
-0.131268
-0.100698
-0.0806619
-0.109884
-0.0963068
-0.0693663
-0.0609145
-0.108488
-0.115549
-0.0978139
-0.0813123
-0.0978266
-0.0463725
-0.0967083
-0.0907386
-0.0463263
-0.0177583
-0.0194261
-0.0837709
-0.0893246
-0.103746
-0.0997288
-0.00913047
-0.00954041
-0.0987702
-0.0998006
-0.0944715
-0.034808
-0.0835817
-0.0971749
-0.0990766
-0.0854637
-0.0754338
-0.0362481
-0.143107
-0.0898843
-0.10983
-0.111547
-0.0801617
-0.101453
-0.0783765
-0.0864852
-0.0429676
-0.0648451
-0.101574
-0.102204
-0.0878389
-0.0922557
-0.0952027
-0.100383
-0.096014
-0.0473299
-0.0842545
-0.0949813
-0.0897821
-0.134733
-0.0473206
-0.072919
-0.0751085
-0.0711883
-0.0462855
-0.0462886
-0.0815538
-0.0658412
-0.09417
-0.0506516
-0.0552739
-0.0180484
-0.0180483
-0.0377764
-0.0600067
-0.0404283
-0.0802359
-0.0867873
-0.0926121
-0.104354
-0.0946558
-0.0876363
-0.0689941
-0.0426802
-0.0866265
-0.0897487
-0.0868932
-0.047963
-0.0443444
-0.0345289
-0.0867705
-0.0885236
-0.071129
-0.0803443
-0.07414
-0.0678922
-0.0908703
-0.0678863
-0.0802011
-0.0773299
-0.0474076
-0.0585301
-0.0544063
-0.09609
-0.0379895
-0.0400209
-0.0391512
-0.090748
-0.036173
-0.0354263
-0.063135
-0.0330417
-0.0734814
-0.0735925
-0.0339177
-0.080013
-0.0376521
-0.0374255
-0.0421667
-0.0357069
-0.0350601
-0.0523385
-0.0416743
-0.0378688
-0.0358178
-0.0732614
-0.0836225
-0.0394285
-0.0808624
-0.0324822
-0.0820308
-0.0651702
-0.033936
-0.0287362
-0.0320579
-0.0425363
-0.0704446
-0.0580017
-0.0242673
-0.0269366
-0.0785352
-0.0228433
-0.0228431
-0.025884
-0.029053
-0.0328236
-0.0382131
-0.0631843
-0.0584874
-0.0785894
-0.0229502
-0.02295
-0.0690761
-0.0283958
-0.0559909
-0.0257308
-0.0258869
-0.0341085
-0.0592279
-0.0613295
-0.0653367
-0.0598791
-0.0592263
-0.0129398
-0.0956041
-0.0165057
-0.0159924
-0.077232
-0.0766961
-0.0165728
-0.0115108
-0.0162188
-0.0712399
SCALARS cell_type float
LOOKUP_TABLE default
0
0
0
0
0
0
0
0
0
0
0
0
0
0
0
0
0
0
0
0
0
1
0
0
0
0
0
0
0
0
0
0
0
0
0
0
0
0
0
0
0
0
0
0
0
0
0
0
0
0
0
0
0
0
0
0
0
0
0
0
0
0
0
0
0
0
0
0
0
0
0
0
0
0
0
0
0
0
0
0
0
0
0
0
0
0
0
0
0
0
0
0
0
0
0
0
0
0
0
0
0
0
0
0
0
0
0
0
0
0
0
0
0
0
0
0
0
0
0
0
0
0
0
0
0
0
0
0
0
0
0
0
0
0
0
0
0
0
0
0
0
0
0
0
0
0
0
0
0
0
0
0
0
0
0
0
0
0
0
0
0
0
0
0
0
0
0
0
0
0
0
0
0
0
0
0
0
0
0
0
0
0
0
0
0
0
0
0
0
0
0
0
0
0
0
0
0
0
0
0
0
0
0
0
0
0
0
0
0
0
0
0
0
0
0
0
0
0
0
0
0
0
0
0
0
0
0
0
0
0
0
0
0
0
0
0
0
0
0
0
0
0
0
0
0
0
0
0
0
0
0
0
0
0
0
0
0
0
0
0
0
0
0
0
0
0
0
0
0
0
0
0
0
0
0
0
0
0
0
0
0
0
0
0
0
0
0
0
0
0
0
0
0
0
0
0
0
0
0
0
0
0
0
0
0
0
0
0
0
0
0
0
0
0
0
0
0
0
0
0
0
0
0
0
0
0
0
0
0
0
0
0
0
0
0
0
0
0
0
0
0
0
0
0
0
0
0
0
0
0
2
2
2
2
2
2
2
0
0
0
0
0
0
0
0
0
0
0
0
0
0
0
0
0
0
0
0
0
0
0
0
0
0
0
0
0
0
0
0
0
0
0
0
0
0
0
0
0
0
0
0
0
0
0
0
0
0
0
0
0
0
0
0
0
0
0
1
1
0
0
0
0
0
0
0
0
0
0
0
0
0
0
0
0
0
0
0
0
0
0
0
0
0
0
0
0
0
0
0
0
0
0
0
0
0
0
0
0
0
0
0
1
1
0
0
0
0
0
0
0
0
0
0
0
0
0
0
0
0
0
0
0
0
0
0
0
0
0
0
0
0
0
0
0
0
0
0
0
0
0
0
0
0
0
0
0
0
0
0
0
0
0
0
0
0
0
0
0
0
0
0
0
0
0
0
0
0
0
1
1
0
0
0
0
0
0
0
0
0
0
0
0
0
0
0
0
0
0
0
0
0
0
0
0
0
0
0
0
0
0
0
0
0
TENSORS Lagrange_strain float
0.0305676 -0.00319822 -1.45776e-07
-0.00319822 0.0133889 3.8843e-08
-1.45776e-07 3.8843e-08 0.00740168

0.0291922 -0.00280095 5.88741e-08
-0.00280095 0.0335533 2.29382e-08
5.88741e-08 2.29382e-08 0.0331628

0.0300206 0.00367898 -3.30558e-08
0.00367898 0.031169 4.85447e-08
-3.30558e-08 4.85447e-08 0.0304672

0.0291611 -0.00392504 8.42112e-08
-0.00392504 0.0327984 3.14856e-08
8.42112e-08 3.14856e-08 0.0330877

0.0353666 0.00266936 -2.68835e-08
0.00266936 0.0380855 -3.11003e-07
-2.68835e-08 -3.11003e-07 0.0352917

0.0277348 -0.00236715 -1.06408e-07
-0.00236715 0.0333831 8.37648e-09
-1.06408e-07 8.37648e-09 0.0304383

0.0302615 0.00339403 -1.49689e-07
0.00339403 0.0134944 2.07056e-07
-1.49689e-07 2.07056e-07 0.00746308

0.0317542 0.00393954 1.17318e-07
0.00393954 0.0311994 8.18637e-08
1.17318e-07 8.18637e-08 0.03156

0.0332413 0.00071535 3.04202e-08
0.00071535 0.0262208 -1.39372e-09
3.04202e-08 -1.39372e-09 0.0281415

0.0354666 -0.000991003 -4.51981e-08
-0.000991003 0.0275505 -4.85705e-08
-4.51981e-08 -4.85705e-08 0.0327204

0.0280607 0.00205099 -3.09568e-08
0.00205099 0.0138087 -2.09756e-07
-3.09568e-08 -2.09756e-07 0.0117533

0.0279527 -0.00176565 -1.32769e-07
-0.00176565 0.0350058 -7.48906e-08
-1.32769e-07 -7.48906e-08 0.0315486

0.0311205 0.00365716 1.66492e-07
0.00365716 0.0312997 -7.1461e-08
1.66492e-07 -7.1461e-08 0.0310789

0.0290687 -0.00187994 -1.06988e-07
-0.00187994 0.0347983 -2.50034e-08
-1.06988e-07 -2.50034e-08 0.0325458

0.0346315 0.00441842 -2.00852e-07
0.00441842 0.0343619 -3.12281e-08
-2.00852e-07 -3.12281e-08 0.0348841

0.0343269 7.30542e-05 1.63706e-07
7.30542e-05 0.0272854 -3.03815e-08
1.63706e-07 -3.03815e-08 0.0307778

0.0286924 -0.00235366 -1.23391e-07
-0.00235366 0.0360132 -8.13502e-08
-1.23391e-07 -8.13502e-08 0.0334495

0.0345724 -0.000352974 -5.60481e-08
-0.000352974 0.0273558 -3.48974e-08
-5.60481e-08 -3.48974e-08 0.0319764

0.0269194 0.00347806 -1.51914e-07
0.00347806 0.0309445 1.39221e-07
-1.51914e-07 1.39221e-07 0.027576

0.033884 -0.000550285 7.48134e-08
-0.000550285 0.0264088 -1.58635e-07
7.48134e-08 -1.58635e-07 0.0301336

0.0266215 0.00113513 1.10524e-07
0.00113513 0.0340332 1.36223e-07
1.10524e-07 1.36223e-07 0.0291494

0.0452948 0.000852724 -1.47891e-07
0.000852724 0.0452644 -4.33524e-07
-1.47891e-07 -4.33524e-07 0.0366377

0.0336743 0.000247459 4.74079e-08
0.000247459 0.0263148 -3.18341e-09
4.74079e-08 -3.18341e-09 0.0298045

0.0293089 -0.003632 -1.20273e-08
-0.003632 0.0311353 1.82744e-08
-1.20273e-08 1.82744e-08 0.0300461

0.0337791 0.000900038 1.37332e-07
0.000900038 0.0264958 3.33281e-08
1.37332e-07 3.33281e-08 0.0300806

0.0285456 0.00250739 -1.08397e-08
0.00250739 0.033893 -2.2694e-07
-1.08397e-08 -2.2694e-07 0.0322863

0.0286289 0.000526724 -1.05968e-07
0.000526724 0.0176895 -5.43405e-08
-1.05968e-07 -5.43405e-08 0.0131711

0.0309134 0.0040346 1.17548e-07
0.0040346 0.0306459 3.74552e-08
1.17548e-07 3.74552e-08 0.0306101

0.0259241 0.00477631 -1.25082e-07
0.00477631 0.0257326 -9.13097e-08
-1.25082e-07 -9.13097e-08 0.0211276

0.0415291 0.00137013 -1.09565e-07
0.00137013 0.0383502 -2.90636e-07
-1.09565e-07 -2.90636e-07 0.0361347

0.0344099 0.00187097 1.46243e-07
0.00187097 0.0279519 4.90621e-08
1.46243e-07 4.90621e-08 0.0309994

0.0217593 -0.00228774 1.36841e-07
-0.00228774 0.0299916 -1.46859e-07
1.36841e-07 -1.46859e-07 0.0211245

0.022863 -0.0053523 -1.92199e-07
-0.0053523 0.0234725 1.92477e-07
-1.92199e-07 1.92477e-07 0.0125787

0.0348323 0.00080064 -4.48969e-08
0.00080064 0.0422554 -1.22883e-07
-4.48969e-08 -1.22883e-07 0.0357858

0.037453 -0.000662073 1.10696e-07
-0.000662073 0.0412025 -4.30949e-08
1.10696e-07 -4.30949e-08 0.0359004

0.0410751 0.0028132 -1.4352e-07
0.0028132 0.035986 2.02891e-07
-1.4352e-07 2.02891e-07 0.035766

0.0372535 0.000705206 2.40965e-08
0.000705206 0.0432145 -3.45303e-08
2.40965e-08 -3.45303e-08 0.0361411

0.0402605 -0.00121844 2.03047e-07
-0.00121844 0.0378301 -1.75913e-07
2.03047e-07 -1.75913e-07 0.0358077

0.0312151 -0.00367772 -1.67983e-07
-0.00367772 0.0311228 8.85641e-09
-1.67983e-07 8.85641e-09 0.0309249

0.022747 0.0052789 -2.78512e-07
0.0052789 0.0237086 -2.71095e-07
-2.78512e-07 -2.71095e-07 0.0125808

0.0297602 -0.00231562 -9.55814e-08
-0.00231562 0.0220306 5.88766e-08
-9.55814e-08 5.88766e-08 0.0208744

0.0376189 -0.000522904 6.86864e-08
-0.000522904 0.0430643 1.33375e-07
6.86864e-08 1.33375e-07 0.0361439

0.0412407 0.00263438 6.19134e-08
0.00263438 0.0394148 -1.04471e-07
6.19134e-08 -1.04471e-07 0.0361264

0.0343005 -0.0016172 8.83808e-09
-0.0016172 0.0279939 1.20053e-07
8.83808e-09 1.20053e-07 0.0310834

0.0231052 -0.00552565 -4.3622e-10
-0.00552565 0.0235622 -1.70872e-08
-4.3622e-10 -1.70872e-08 0.0162157

0.0299428 -0.00233227 -2.213e-07
-0.00233227 0.0221547 1.18676e-07
-2.213e-07 1.18676e-07 0.0213437

0.0258931 0.00222737 1.13957e-07
0.00222737 0.0326534 1.28603e-07
1.13957e-07 1.28603e-07 0.0279147

0.0275503 0.00252873 7.80443e-08
0.00252873 0.0323729 -2.04769e-07
7.80443e-08 -2.04769e-07 0.0284902

0.0341748 -0.00214084 -3.24724e-09
-0.00214084 0.0271066 1.08421e-07
-3.24724e-09 1.08421e-07 0.0304716

0.022902 -0.00439216 5.07434e-09
-0.00439216 0.0272484 -1.16124e-07
5.07434e-09 -1.16124e-07 0.0198499

0.0294931 0.00247152 -1.35954e-09
0.00247152 0.0218338 3.03888e-08
-1.35954e-09 3.03888e-08 0.0202805

0.0298717 -0.00327076 -3.16576e-09
-0.00327076 0.024513 -7.21986e-08
-3.16576e-09 -7.21986e-08 0.0230477

0.0344772 0.00257765 9.46692e-08
0.00257765 0.0382028 -1.89723e-08
9.46692e-08 -1.89723e-08 0.0352705

0.0286889 0.00383851 6.29854e-08
0.00383851 0.0257792 -9.63458e-08
6.29854e-08 -9.63458e-08 0.0231162

0.0349278 -0.00291596 5.22246e-08
-0.00291596 0.0374324 -1.99136e-07
5.22246e-08 -1.99136e-07 0.0351888

0.0255797 -0.00545519 -2.22344e-07
-0.00545519 0.0229018 -2.30467e-08
-2.22344e-07 -2.30467e-08 0.0158192

0.0373465 0.000746126 1.77375e-07
0.000746126 0.0414128 6.44045e-08
1.77375e-07 6.44045e-08 0.0359209

0.0231671 -0.000693149 1.18755e-07
-0.000693149 0.0313126 -1.78686e-07
1.18755e-07 -1.78686e-07 0.0231023

0.0410301 0.00137949 3.49481e-08
0.00137949 0.0377069 -8.42861e-08
3.49481e-08 -8.42861e-08 0.035899

0.0276753 0.00280512 1.27746e-07
0.00280512 0.0327488 -2.74653e-08
1.27746e-07 -2.74653e-08 0.0302305

0.0361387 0.000784862 -2.67775e-09
0.000784862 0.028131 -8.49182e-08
-2.67775e-09 -8.49182e-08 0.0336726

0.0362539 0.00153405 -6.71783e-09
0.00153405 0.0316928 -1.24826e-07
-6.71783e-09 -1.24826e-07 0.0342203

0.0286367 0.00405695 -4.18197e-08
0.00405695 0.019897 -2.61281e-07
-4.18197e-08 -2.61281e-07 0.0137589

0.0309721 -0.000783664 1.53712e-07
-0.000783664 0.0370847 9.13168e-08
1.53712e-07 9.13168e-08 0.0338811

0.0315545 0.00124338 -1.06092e-08
0.00124338 0.0364204 -1.11654e-08
-1.06092e-08 -1.11654e-08 0.0342591

0.0285485 -0.000375154 8.21089e-08
-0.000375154 0.0369557 -2.2516e-07
8.21089e-08 -2.2516e-07 0.0326702

0.0296022 0.00307117 -1.2833e-07
0.00307117 0.0347905 7.50122e-08
-1.2833e-07 7.50122e-08 0.0337085

0.0347187 0.00112182 1.88847e-09
0.00112182 0.0278382 3.83199e-08
1.88847e-09 3.83199e-08 0.032208

0.0291867 -0.00369899 -1.79605e-08
-0.00369899 0.0310206 -5.69341e-08
-1.79605e-08 -5.69341e-08 0.029909

0.0350543 -0.000236882 1.75932e-07
-0.000236882 0.0275793 -4.43926e-08
1.75932e-07 -4.43926e-08 0.0333926

0.034452 -0.00254804 1.24317e-07
-0.00254804 0.0381336 -1.7223e-08
1.24317e-07 -1.7223e-08 0.0352605

0.0350102 0.00284958 2.29405e-08
0.00284958 0.03757 -8.36094e-08
2.29405e-08 -8.36094e-08 0.0352403

0.0218883 -0.00213171 8.01426e-08
-0.00213171 0.0299216 1.22695e-07
8.01426e-08 1.22695e-07 0.0208509

0.0347007 -0.00369103 -1.86782e-07
-0.00369103 0.0319575 7.12035e-08
-1.86782e-07 7.12035e-08 0.0330785

0.0292914 -0.00329725 -7.97355e-09
-0.00329725 0.032112 -3.93277e-08
-7.97355e-09 -3.93277e-08 0.0304328

0.0267793 -0.00401686 -2.42434e-08
-0.00401686 0.017605 -6.6222e-08
-2.42434e-08 -6.6222e-08 0.0127257

0.0324038 0.000418889 -2.05214e-08
0.000418889 0.0381044 -1.81356e-08
-2.05214e-08 -1.81356e-08 0.0344054

0.0345367 0.00381748 -4.16621e-10
0.00381748 0.0309411 1.73096e-07
-4.16621e-10 1.73096e-07 0.0326598

0.028376 0.00258126 1.06224e-07
0.00258126 0.0341285 -4.35285e-09
1.06224e-07 -4.35285e-09 0.0322132

0.0315412 0.00103769 -1.28108e-07
0.00103769 0.0228435 1.18099e-07
-1.28108e-07 1.18099e-07 0.0240687

0.0270966 -0.00435853 1.29717e-07
-0.00435853 0.0237364 -5.69431e-09
1.29717e-07 -5.69431e-09 0.0183232

0.0362599 -0.00140287 -2.41116e-08
-0.00140287 0.0387422 -1.37291e-07
-2.41116e-08 -1.37291e-07 0.0354008

0.0315553 0.00317091 5.5453e-08
0.00317091 0.0344009 -3.51349e-08
5.5453e-08 -3.51349e-08 0.0340899

0.0273009 -0.00415593 4.88134e-08
-0.00415593 0.0221745 -8.86748e-08
4.88134e-08 -8.86748e-08 0.018411

0.0303575 0.00139095 -4.67153e-08
0.00139095 0.0228301 1.16153e-07
-4.67153e-08 1.16153e-07 0.0209541

0.0186018 -0.00269691 -2.15928e-07
-0.00269691 0.0289282 -4.18549e-07
-2.15928e-07 -4.18549e-07 0.0158927

0.0271995 0.0018888 5.3491e-08
0.0018888 0.0343195 -9.39194e-10
5.3491e-08 -9.39194e-10 0.030654

0.035381 0.00305649 1.64091e-07
0.00305649 0.0308194 6.58312e-08
1.64091e-07 6.58312e-08 0.0327533

0.0226475 0.0053857 1.85271e-08
0.0053857 0.0240881 7.22677e-08
1.85271e-08 7.22677e-08 0.0161982

0.0459502 0.00223788 7.78225e-07
0.00223788 0.0417511 -5.27025e-07
7.78225e-07 -5.27025e-07 0.0366386

0.0230809 -0.000534354 2.74307e-08
-0.000534354 0.0313533 1.13935e-08
2.74307e-08 1.13935e-08 0.0230721

0.0463635 -0.00225609 4.32436e-07
-0.00225609 0.0412937 -1.11412e-07
4.32436e-07 -1.11412e-07 0.0365938

0.0370649 -0.00362447 -7.86089e-08
-0.00362447 0.0334906 2.71957e-08
-7.86089e-08 2.71957e-08 0.0346204

0.0351365 0.0036191 1.44624e-07
0.0036191 0.0300037 1.37651e-07
1.44624e-07 1.37651e-07 0.032456

0.0299613 -0.00315869 -1.24457e-07
-0.00315869 0.0246901 -3.29393e-08
-1.24457e-07 -3.29393e-08 0.0232855

0.023012 0.00402952 -2.02185e-08
0.00402952 0.0277783 1.82832e-07
-2.02185e-08 1.82832e-07 0.0203817

0.0210936 -0.00137852 -1.71983e-08
-0.00137852 0.0298946 2.64924e-07
-1.71983e-08 2.64924e-07 0.0182512

0.0287452 0.00288873 1.16536e-07
0.00288873 0.0342263 -2.52673e-09
1.16536e-07 -2.52673e-09 0.0326991

0.0370112 0.0022361 -5.98762e-08
0.0022361 0.0334515 2.98515e-08
-5.98762e-08 2.98515e-08 0.0343838

0.0281479 0.00198817 1.06769e-07
0.00198817 0.0340594 -8.53578e-10
1.06769e-07 -8.53578e-10 0.0308648

0.0318819 0.00207297 -1.50567e-07
0.00207297 0.0252537 8.33278e-08
-1.50567e-07 8.33278e-08 0.025617

0.0239071 -0.00277422 1.33391e-07
-0.00277422 0.0297643 1.28368e-07
1.33391e-07 1.28368e-07 0.0215611

0.027898 -0.0037635 1.64148e-07
-0.0037635 0.0218149 7.90751e-08
1.64148e-07 7.90751e-08 0.0180756

0.0293306 -0.00323194 7.21844e-08
-0.00323194 0.032629 -6.78789e-08
7.21844e-08 -6.78789e-08 0.0324022

0.0306256 0.00361462 1.62681e-07
0.00361462 0.0322278 -7.74003e-08
1.62681e-07 -7.74003e-08 0.0323701

0.0287074 0.00304791 1.25183e-07
0.00304791 0.0340262 -2.09934e-07
1.25183e-07 -2.09934e-07 0.0326295

0.0292062 0.00172523 -2.20484e-08
0.00172523 0.0376171 -1.73128e-08
-2.20484e-08 -1.73128e-08 0.0338455

0.0344765 0.00123251 8.00038e-08
0.00123251 0.0275233 3.80572e-08
8.00038e-08 3.80572e-08 0.0306741

0.0199604 -0.000605228 8.00369e-09
-0.000605228 0.02966 2.29732e-07
8.00369e-09 2.29732e-07 0.0181035

0.0297967 -0.00486327 -1.72693e-07
-0.00486327 0.0330485 1.15516e-08
-1.72693e-07 1.15516e-08 0.033741

0.0290807 0.00359985 -1.2158e-07
0.00359985 0.0313591 -2.97158e-08
-1.2158e-07 -2.97158e-08 0.0302634

0.0181053 0.000282822 4.02983e-07
0.000282822 0.0293101 1.72527e-07
4.02983e-07 1.72527e-07 0.0168781

0.0278428 0.00442369 2.50192e-07
0.00442369 0.0209677 -3.20223e-08
2.50192e-07 -3.20223e-08 0.0174543

0.0291903 -0.00302057 8.63185e-08
-0.00302057 0.0327023 1.12365e-07
8.63185e-08 1.12365e-07 0.0321847

0.0352416 0.000759565 -2.21561e-08
0.000759565 0.0273379 8.38119e-08
-2.21561e-08 8.38119e-08 0.0325521

0.0294267 0.00352009 -9.07154e-08
0.00352009 0.0252007 1.21391e-07
-9.07154e-08 1.21391e-07 0.0231107

0.0396355 0.0017099 -1.09183e-07
0.0017099 0.0390391 -1.08064e-08
-1.09183e-07 -1.08064e-08 0.0359395

0.0283744 0.00312316 2.99431e-07
0.00312316 0.0224008 -2.19415e-08
2.99431e-07 -2.19415e-08 0.018286

0.0394884 -0.00175075 6.42269e-08
-0.00175075 0.039065 1.87916e-08
6.42269e-08 1.87916e-08 0.0359046

0.0232605 0.000103411 1.0728e-08
0.000103411 0.031517 -1.92655e-07
1.0728e-08 -1.92655e-07 0.0231191

0.032758 -0.000288542 -1.62797e-07
-0.000288542 0.0246594 -2.01548e-07
-1.62797e-07 -2.01548e-07 0.0269656

0.0380539 -0.00212923 7.24991e-08
-0.00212923 0.0304632 -1.15134e-07
7.24991e-08 -1.15134e-07 0.0347926

0.0292376 0.00320577 5.61004e-08
0.00320577 0.033277 -1.34102e-07
5.61004e-08 -1.34102e-07 0.0333421

0.0289499 -0.00177267 2.15097e-08
-0.00177267 0.0366082 -1.47457e-08
2.15097e-08 -1.47457e-08 0.0334989

0.0365829 -0.00108486 1.66036e-07
-0.00108486 0.0264755 -2.87585e-08
1.66036e-07 -2.87585e-08 0.0338593

0.0311796 -0.00292572 1.61776e-07
-0.00292572 0.0383053 -6.99459e-08
1.61776e-07 -6.99459e-08 0.0348429

0.0381648 -0.000884871 -1.68483e-07
-0.000884871 0.0387305 9.7752e-08
-1.68483e-07 9.7752e-08 0.0358347

0.0301791 -0.00393981 5.55136e-08
-0.00393981 0.0327096 1.12548e-07
5.55136e-08 1.12548e-07 0.0327625

0.0213323 0.00146939 -1.37308e-07
0.00146939 0.0296128 -1.36124e-07
-1.37308e-07 -1.36124e-07 0.0182951

0.0293871 -0.00364559 2.91486e-08
-0.00364559 0.0253487 2.03957e-09
2.91486e-08 2.03957e-09 0.0231814

0.0328588 -0.00181724 2.1301e-07
-0.00181724 0.0397171 -2.38581e-07
2.1301e-07 -2.38581e-07 0.0352403

0.0350903 7.65295e-05 -6.31685e-09
7.65295e-05 0.0272212 8.5234e-08
-6.31685e-09 8.5234e-08 0.0332504

0.0308177 -0.00282911 3.32186e-08
-0.00282911 0.0348906 -3.43924e-08
3.32186e-08 -3.43924e-08 0.0340834

0.0295337 0.00338865 -6.23551e-08
0.00338865 0.0328704 7.9702e-08
-6.23551e-08 7.9702e-08 0.0333251

0.0264597 -0.00406304 -5.99071e-08
-0.00406304 0.027261 -1.17727e-07
-5.99071e-08 -1.17727e-07 0.0215838

0.0371719 -0.000958782 -3.0575e-08
-0.000958782 0.0416098 -1.20526e-07
-3.0575e-08 -1.20526e-07 0.0358858

0.0227104 -0.00423743 -3.15892e-08
-0.00423743 0.027243 -5.72579e-08
-3.15892e-08 -5.72579e-08 0.0168769

0.0341824 -0.00252468 1.13044e-10
-0.00252468 0.0286056 -2.27109e-07
1.13044e-10 -2.27109e-07 0.0310436

0.0364245 0.000289953 1.22396e-07
0.000289953 0.0294366 5.98818e-08
1.22396e-07 5.98818e-08 0.0341929

0.0396399 0.00239671 -9.96063e-09
0.00239671 0.0391129 4.07364e-08
-9.96063e-09 4.07364e-08 0.0358668

0.0238555 0.00260896 1.76049e-07
0.00260896 0.0301506 -1.77653e-07
1.76049e-07 -1.77653e-07 0.0217982

0.0334298 0.00358136 -3.41453e-08
0.00358136 0.0307144 7.5798e-08
-3.41453e-08 7.5798e-08 0.0317664

0.0316422 -0.00319422 -1.07563e-07
-0.00319422 0.0265511 -5.71846e-08
-1.07563e-07 -5.71846e-08 0.0269346

0.0289285 -0.00234092 -6.09104e-08
-0.00234092 0.0342343 -1.94218e-07
-6.09104e-08 -1.94218e-07 0.0326051

0.0262435 0.00450128 3.96371e-09
0.00450128 0.0245571 6.87528e-08
3.96371e-09 6.87528e-08 0.0180806

0.0284219 -0.00286654 3.48788e-08
-0.00286654 0.0340313 3.98632e-08
3.48788e-08 3.98632e-08 0.0324482

0.0331483 0.00405854 -4.75054e-08
0.00405854 0.0304637 1.17254e-07
-4.75054e-08 1.17254e-07 0.0315415

0.0333336 -0.00331169 -1.09597e-07
-0.00331169 0.0283563 4.99901e-09
-1.09597e-07 4.99901e-09 0.030045

0.0291599 -0.00329563 -5.35843e-08
-0.00329563 0.0319863 -2.4518e-08
-5.35843e-08 -2.4518e-08 0.0304365

0.0314544 -0.00242922 -8.86995e-08
-0.00242922 0.0247182 -8.43552e-08
-8.86995e-08 -8.43552e-08 0.0251555

0.0329545 -0.00246668 -6.94454e-08
-0.00246668 0.0267087 -5.26189e-08
-6.94454e-08 -5.26189e-08 0.0285958

0.0294905 -0.00334181 1.24928e-07
-0.00334181 0.0329497 -2.04846e-08
1.24928e-07 -2.04846e-08 0.0334066

0.0261333 0.00463367 1.8499e-07
0.00463367 0.0255406 6.60102e-08
1.8499e-07 6.60102e-08 0.0210918

0.0281494 0.00201655 6.88684e-08
0.00201655 0.034335 1.76459e-09
6.88684e-08 1.76459e-09 0.0311086

0.030886 0.00348103 3.66929e-08
0.00348103 0.0322547 -5.93928e-08
3.66929e-08 -5.93928e-08 0.0325994

0.0291564 0.00334793 1.94118e-07
0.00334793 0.0331908 -5.94681e-08
1.94118e-07 -5.94681e-08 0.0332596

0.0289832 0.00152278 -1.33958e-08
0.00152278 0.0354695 9.5214e-08
-1.33958e-08 9.5214e-08 0.0326947

0.0310521 -0.0010617 -2.61759e-07
-0.0010617 0.0231408 4.63812e-08
-2.61759e-07 4.63812e-08 0.0220773

0.0238833 0.00240564 2.02449e-07
0.00240564 0.0304097 7.29953e-09
2.02449e-07 7.29953e-09 0.0221123

0.0292127 -0.00320393 -1.29586e-08
-0.00320393 0.0326353 -1.93621e-08
-1.29586e-08 -1.93621e-08 0.0316177

0.0289868 0.00335673 7.30293e-09
0.00335673 0.0309321 1.14515e-07
7.30293e-09 1.14515e-07 0.0285673

0.0266119 -0.0045912 1.19577e-07
-0.0045912 0.0252299 8.36699e-09
1.19577e-07 8.36699e-09 0.0212561

0.026277 0.0048932 -3.26375e-08
0.0048932 0.0209457 2.12955e-07
-3.26375e-08 2.12955e-07 0.0167619

0.0235022 -0.00428657 -2.49238e-08
-0.00428657 0.0274637 3.72601e-09
-2.49238e-08 3.72601e-09 0.0206258

0.0266712 -0.00402742 1.20838e-07
-0.00402742 0.0274817 1.10267e-08
1.20838e-07 1.10267e-08 0.0220494

0.0353641 -0.000906379 -8.96229e-08
-0.000906379 0.0273897 -6.03939e-08
-8.96229e-08 -6.03939e-08 0.0326543

0.0260446 0.00392144 -2.05287e-07
0.00392144 0.0280916 3.26493e-08
-2.05287e-07 3.26493e-08 0.0221019

0.0307873 0.00171646 -2.44754e-07
0.00171646 0.0233597 -1.47333e-08
-2.44754e-07 -1.47333e-08 0.022025

0.0214305 0.00172194 -1.09626e-07
0.00172194 0.0302399 -5.09078e-08
-1.09626e-07 -5.09078e-08 0.0211322

0.0242623 -0.0028892 -9.79505e-08
-0.0028892 0.029951 -1.54421e-07
-9.79505e-08 -1.54421e-07 0.0220857

0.0313454 -0.00013091 2.26076e-08
-0.00013091 0.0392735 1.62097e-07
2.26076e-08 1.62097e-07 0.0346706

0.0230578 0.000294705 -2.50964e-07
0.000294705 0.0314597 -6.45448e-09
-2.50964e-07 -6.45448e-09 0.0230618

0.0227767 0.00400135 1.60098e-07
0.00400135 0.0281267 6.25727e-08
1.60098e-07 6.25727e-08 0.0206376

0.028888 0.00158558 -1.50829e-07
0.00158558 0.0358322 -2.64006e-08
-1.50829e-07 -2.64006e-08 0.0328933

0.0293151 -0.00358005 -1.08247e-07
-0.00358005 0.0251291 -5.3406e-09
-1.08247e-07 -5.3406e-09 0.0232393

0.0369764 0.00273299 -5.47955e-08
0.00273299 0.029723 -9.20097e-08
-5.47955e-08 -9.20097e-08 0.0338015

0.0371757 0.00348335 8.27917e-08
0.00348335 0.0334225 1.86339e-08
8.27917e-08 1.86339e-08 0.034652

0.0345439 -0.00244631 -1.99602e-08
-0.00244631 0.0285296 1.47343e-08
-1.99602e-08 1.47343e-08 0.0313786

0.0390566 -0.000265567 1.60302e-07
-0.000265567 0.0339247 5.22389e-08
1.60302e-07 5.22389e-08 0.0352081

0.0314787 -0.00418716 1.15711e-07
-0.00418716 0.0317814 -2.24078e-07
1.15711e-07 -2.24078e-07 0.0321561

0.0294617 0.00300739 -1.78684e-07
0.00300739 0.0223269 -1.05924e-07
-1.78684e-07 -1.05924e-07 0.0210662

0.0302297 0.00397307 -5.06572e-08
0.00397307 0.0326627 1.01133e-07
-5.06572e-08 1.01133e-07 0.0327197

0.0302769 0.00384677 3.59278e-08
0.00384677 0.0326067 1.63822e-07
3.59278e-08 1.63822e-07 0.0326745

0.0262439 0.00396166 1.22985e-07
0.00396166 0.0277671 1.89034e-07
1.22985e-07 1.89034e-07 0.0218645

0.0344504 0.00357655 7.05658e-08
0.00357655 0.0317796 7.42654e-08
7.05658e-08 7.42654e-08 0.0328314

0.0302482 0.000452443 -2.34291e-07
0.000452443 0.0204281 6.55973e-09
-2.34291e-07 6.55973e-09 0.0205729

0.0331857 0.00420054 -3.26967e-08
0.00420054 0.0323729 -6.61945e-08
-3.26967e-08 -6.61945e-08 0.0334837

0.0305008 -0.00165432 -6.21856e-08
-0.00165432 0.0366159 -1.86382e-08
-6.21856e-08 -1.86382e-08 0.0336627

0.0373606 0.00323275 -7.64522e-08
0.00323275 0.0334597 1.7073e-07
-7.64522e-08 1.7073e-07 0.0346642

0.030737 -0.00389567 2.27912e-08
-0.00389567 0.0322729 -7.86647e-08
2.27912e-08 -7.86647e-08 0.03268

0.0293739 -0.000644912 8.90452e-08
-0.000644912 0.036903 -2.246e-07
8.90452e-08 -2.246e-07 0.0328477

0.0288122 -0.00315226 2.0568e-07
-0.00315226 0.0221397 1.22308e-07
2.0568e-07 1.22308e-07 0.0187587

0.0290023 0.00384431 4.01512e-08
0.00384431 0.0255776 6.97023e-08
4.01512e-08 6.97023e-08 0.0230727

0.0217011 0.00189092 -1.41369e-07
0.00189092 0.0300609 -1.99669e-07
-1.41369e-07 -1.99669e-07 0.0210836

0.0349898 -0.000161246 1.09628e-07
-0.000161246 0.0273894 -6.04729e-08
1.09628e-07 -6.04729e-08 0.0333014

0.0344195 2.57742e-07 -9.57101e-08
2.57742e-07 0.0272745 -4.89787e-08
-9.57101e-08 -4.89787e-08 0.032041

0.0291655 0.00303978 1.13917e-08
0.00303978 0.0326795 1.64812e-07
1.13917e-08 1.64812e-07 0.0321325

0.0314493 0.003166 -3.41958e-08
0.003166 0.0342505 -6.88883e-08
-3.41958e-08 -6.88883e-08 0.0340581

0.0291684 -0.00320416 -1.59681e-07
-0.00320416 0.0332384 -5.57569e-08
-1.59681e-07 -5.57569e-08 0.0333788

0.0287736 -8.55114e-05 1.95468e-07
-8.55114e-05 0.0367045 -6.91701e-08
1.95468e-07 -6.91701e-08 0.0325255

0.0294637 0.00337575 -1.36325e-07
0.00337575 0.0330747 -1.00311e-07
-1.36325e-07 -1.00311e-07 0.0333545

0.0328592 -0.00134648 5.11809e-09
-0.00134648 0.0253616 1.7696e-07
5.11809e-09 1.7696e-07 0.0278287

0.0263548 -0.00425425 -1.17901e-07
-0.00425425 0.0281795 -2.24461e-08
-1.17901e-07 -2.24461e-08 0.0242674

0.0362977 -0.000331604 -5.81794e-08
-0.000331604 0.0293831 1.04591e-07
-5.81794e-08 1.04591e-07 0.0340279

0.0267807 -0.00444545 7.31703e-09
-0.00444545 0.0251902 -9.21042e-09
7.31703e-09 -9.21042e-09 0.020949

0.0308994 0.0025071 -4.38229e-08
0.0025071 0.035063 1.12256e-07
-4.38229e-08 1.12256e-07 0.0340677

0.0351134 -0.00349678 1.69331e-08
-0.00349678 0.0303881 -3.95747e-08
1.69331e-08 -3.95747e-08 0.0326146

0.0305016 -0.00124976 -1.73236e-07
-0.00124976 0.0229782 -1.21561e-07
-1.73236e-07 -1.21561e-07 0.0214782

0.037148 -0.00307708 1.7482e-07
-0.00307708 0.0316532 5.46901e-09
1.7482e-07 5.46901e-09 0.0339878

0.0349691 0.000322015 4.16266e-08
0.000322015 0.0275546 -2.40861e-08
4.16266e-08 -2.40861e-08 0.0334298

0.0358431 -0.00308811 -1.33902e-08
-0.00308811 0.0332577 -3.1836e-08
-1.33902e-08 -3.1836e-08 0.0341434

0.0349284 -0.00341037 -1.7038e-07
-0.00341037 0.0295948 -7.4196e-08
-1.7038e-07 -7.4196e-08 0.0321779

0.0349088 -0.00113366 2.07373e-08
-0.00113366 0.0278499 1.18565e-07
2.07373e-08 1.18565e-07 0.0323413

0.0314892 -0.00306231 6.56084e-08
-0.00306231 0.0344483 8.53965e-08
6.56084e-08 8.53965e-08 0.0341464

0.0292349 -0.00407083 -8.3811e-08
-0.00407083 0.0268997 1.65736e-07
-8.3811e-08 1.65736e-07 0.025346

0.0349924 -0.00324366 -1.48329e-07
-0.00324366 0.0299152 1.27483e-08
-1.48329e-07 1.27483e-08 0.0321951

0.031462 0.00140902 -1.18976e-09
0.00140902 0.0233269 -2.4038e-09
-1.18976e-09 -2.4038e-09 0.0244835

0.0336644 0.00348407 -7.93424e-08
0.00348407 0.0334438 6.03258e-09
-7.93424e-08 6.03258e-09 0.0336499

0.0298922 -0.00496706 1.34203e-08
-0.00496706 0.0330784 -1.60544e-08
1.34203e-08 -1.60544e-08 0.0338571

0.0300428 0.00492037 9.80943e-08
0.00492037 0.0329402 -1.10487e-07
9.80943e-08 -1.10487e-07 0.033824

0.0276878 -0.00374187 4.98079e-08
-0.00374187 0.0348072 7.18979e-09
4.98079e-08 7.18979e-09 0.0337665

0.0279256 0.003547 8.60066e-08
0.003547 0.0348347 8.42645e-08
8.60066e-08 8.42645e-08 0.0337314

0.0364298 -0.00115389 -1.87873e-08
-0.00115389 0.0263416 1.6894e-07
-1.87873e-08 1.6894e-07 0.0337577

0.0361986 0.00124757 -4.84669e-08
0.00124757 0.026563 -1.43774e-08
-4.84669e-08 -1.43774e-08 0.0337205

0.035034 -0.00130667 2.05445e-10
-0.00130667 0.0284679 5.85241e-08
2.05445e-10 5.85241e-08 0.0325756

0.0344362 0.00425912 1.47278e-08
0.00425912 0.0342895 -6.80399e-08
1.47278e-08 -6.80399e-08 0.0348124

0.0343118 -0.00435723 1.7466e-07
-0.00435723 0.034281 1.41109e-08
1.7466e-07 1.41109e-08 0.0348007

0.0305207 0.00209344 2.44832e-08
0.00209344 0.0381652 -2.23617e-08
2.44832e-08 -2.23617e-08 0.0348496

0.0306639 -0.00205963 4.51245e-08
-0.00205963 0.0380952 -1.33898e-08
4.51245e-08 -1.33898e-08 0.0348369

0.0395021 -0.000529118 5.13969e-08
-0.000529118 0.0328493 5.087e-08
5.13969e-08 5.087e-08 0.0352577

0.0397044 0.000513359 -3.40482e-08
0.000513359 0.0326218 1.76987e-07
-3.40482e-08 1.76987e-07 0.035303

0.0239649 0.00127595 -1.52807e-07
0.00127595 0.0320028 1.74854e-07
-1.52807e-07 1.74854e-07 0.0251841

0.0311619 -0.00326536 5.92022e-08
-0.00326536 0.0322407 1.18672e-07
5.92022e-08 1.18672e-07 0.0328017

0.0277796 -0.00478563 1.02059e-07
-0.00478563 0.0333118 -6.17764e-08
1.02059e-07 -6.17764e-08 0.0334551

0.0333587 -0.000610215 -1.95039e-07
-0.000610215 0.026403 -1.77135e-07
-1.95039e-07 -1.77135e-07 0.0284481

0.038188 -0.00225196 9.54238e-08
-0.00225196 0.0307944 1.2594e-07
9.54238e-08 1.2594e-07 0.0348926

0.0382356 0.00218399 8.44697e-08
0.00218399 0.0309074 -2.90086e-17
8.44697e-08 -2.90086e-17 0.0349248

0.0360837 1.56208e-05 1.15052e-07
1.56208e-05 0.0251257 -1.5452e-07
1.15052e-07 -1.5452e-07 0.0334701

0.0242409 0.00302882 2.48608e-07
0.00302882 0.0303977 -4.61702e-08
2.48608e-07 -4.61702e-08 0.0242769

0.0276742 0.00475627 2.80029e-08
0.00475627 0.0333122 -6.64828e-08
2.80029e-08 -6.64828e-08 0.0333929

0.0286744 -0.0030759 -7.93307e-08
-0.0030759 0.0342612 -1.93909e-07
-7.93307e-08 -1.93909e-07 0.0327522

0.0310851 0.00303569 2.47689e-08
0.00303569 0.0251465 1.27603e-07
2.47689e-08 1.27603e-07 0.025467

0.0372278 0.00316551 -7.8758e-08
0.00316551 0.0315406 4.73765e-08
-7.8758e-08 4.73765e-08 0.0340758

0.0292265 -0.00406737 -1.89956e-08
-0.00406737 0.0269357 -1.49944e-07
-1.89956e-08 -1.49944e-07 0.0253212

0.0364017 -0.000453678 1.7683e-07
-0.000453678 0.0296915 -7.4434e-09
1.7683e-07 -7.4434e-09 0.0341309

0.0273446 -0.00449484 3.28483e-09
-0.00449484 0.033395 5.8992e-08
3.28483e-09 5.8992e-08 0.0334416

0.0240378 0.00107885 5.88253e-08
0.00107885 0.032244 -9.43177e-08
5.88253e-08 -9.43177e-08 0.0255058

0.0242296 0.00282657 8.24029e-08
0.00282657 0.0307012 -2.3527e-07
8.24029e-08 -2.3527e-07 0.0245448

0.0267923 0.00459434 1.92303e-07
0.00459434 0.0240416 7.71708e-08
1.92303e-07 7.71708e-08 0.0182134

0.0298507 0.000199807 -1.48555e-07
0.000199807 0.0200883 -1.57959e-07
-1.48555e-07 -1.57959e-07 0.0193623

0.0319085 -0.00302406 -1.59387e-07
-0.00302406 0.0341624 2.96043e-08
-1.59387e-07 2.96043e-08 0.0340355

0.0229185 0.00399955 5.05491e-08
0.00399955 0.0276598 -1.34141e-07
5.05491e-08 -1.34141e-07 0.0176529

0.0292097 0.00310085 -1.19441e-07
0.00310085 0.032763 -3.38499e-08
-1.19441e-07 -3.38499e-08 0.0310121

0.0315943 -0.000694477 2.54449e-07
-0.000694477 0.0231599 6.01753e-08
2.54449e-07 6.01753e-08 0.0244847

0.0327612 0.00146443 -6.05502e-10
0.00146443 0.0253467 7.12846e-08
-6.05502e-10 7.12846e-08 0.0276128

0.035978 5.62355e-05 9.7348e-08
5.62355e-05 0.0249586 -8.26439e-08
9.7348e-08 -8.26439e-08 0.0333861

0.0279655 -0.00380543 -1.44972e-07
-0.00380543 0.0349488 -2.92923e-08
-1.44972e-07 -2.92923e-08 0.0338159

0.0393146 -0.00084377 -2.85878e-07
-0.00084377 0.0416019 9.30652e-08
-2.85878e-07 9.30652e-08 0.03619

0.0298673 0.00493914 -1.16711e-07
0.00493914 0.032956 7.82316e-08
-1.16711e-07 7.82316e-08 0.033779

0.0302882 0.000214518 3.13005e-07
0.000214518 0.0203967 4.23681e-08
3.13005e-07 4.23681e-08 0.017276

0.0266738 -0.00425033 1.01522e-07
-0.00425033 0.0281328 3.99105e-08
1.01522e-07 3.99105e-08 0.0244374

0.0277459 0.00481578 -1.15945e-07
0.00481578 0.033315 -1.36135e-07
-1.15945e-07 -1.36135e-07 0.0334552

0.027945 -0.00145855 1.70071e-07
-0.00145855 0.035085 -3.59386e-08
1.70071e-07 -3.59386e-08 0.0314502

0.0244649 -0.00330505 7.07571e-08
-0.00330505 0.0300152 2.31122e-07
7.07571e-08 2.31122e-07 0.024217

0.0279906 0.00377966 -9.11603e-08
0.00377966 0.0349101 1.15298e-07
-9.11603e-08 1.15298e-07 0.0337867

0.0313616 -0.00340927 -5.22171e-09
-0.00340927 0.0270086 1.73686e-07
-5.22171e-09 1.73686e-07 0.0269913

0.0402798 0.00140901 -1.33016e-07
0.00140901 0.0406172 2.5318e-07
-1.33016e-07 2.5318e-07 0.0361704

0.025881 0.00400283 -2.34491e-07
0.00400283 0.0289544 -2.04986e-08
-2.34491e-07 -2.04986e-08 0.0245109

0.0366777 0.00110285 1.1216e-07
0.00110285 0.0263521 7.54937e-08
1.1216e-07 7.54937e-08 0.0338977

0.0333417 0.00398409 3.82099e-08
0.00398409 0.0321153 -6.39146e-08
3.82099e-08 -6.39146e-08 0.0333156

0.0292279 0.00306733 -6.70117e-08
0.00306733 0.032605 1.00548e-07
-6.70117e-08 1.00548e-07 0.0321576

0.034365 -0.0043111 -1.6883e-07
-0.0043111 0.0345049 9.09109e-08
-1.6883e-07 9.09109e-08 0.0348849

0.0354899 -0.00306351 -4.2643e-08
-0.00306351 0.0305898 -1.61057e-07
-4.2643e-08 -1.61057e-07 0.0327504

0.0333665 0.00138794 -1.81913e-07
0.00138794 0.0395773 -1.21215e-07
-1.81913e-07 -1.21215e-07 0.0350025

0.0291967 -0.00307937 -2.0007e-08
-0.00307937 0.0328736 2.81747e-07
-2.0007e-08 2.81747e-07 0.0313833

0.0292649 -0.00123227 7.28333e-09
-0.00123227 0.0192871 -1.11211e-07
7.28333e-09 -1.11211e-07 0.0164122

0.0287784 -0.00183235 2.91388e-07
-0.00183235 0.018414 -1.96271e-09
2.91388e-07 -1.96271e-09 0.016197

0.0385297 0.00220209 4.36901e-08
0.00220209 0.0332391 -5.32733e-08
4.36901e-08 -5.32733e-08 0.034763

0.0280561 0.00294517 -1.60319e-07
0.00294517 0.0323355 -4.45226e-08
-1.60319e-07 -4.45226e-08 0.0295182

0.0320672 0.00383447 4.28699e-08
0.00383447 0.0309608 1.76479e-07
4.28699e-08 1.76479e-07 0.0314545

0.0320498 8.98257e-05 3.39625e-08
8.98257e-05 0.0245769 -2.25347e-07
3.39625e-08 -2.25347e-07 0.0248881

0.0302377 0.000866045 1.85261e-07
0.000866045 0.0385808 4.48244e-08
1.85261e-07 4.48244e-08 0.0340964

0.0354022 0.0021915 -6.92836e-08
0.0021915 0.0293229 -1.10491e-07
-6.92836e-08 -1.10491e-07 0.0328583

0.0248115 -0.0033388 -1.2435e-07
-0.0033388 0.0300063 -1.13591e-07
-1.2435e-07 -1.13591e-07 0.0244701

0.0286507 -0.000337966 -1.62875e-07
-0.000337966 0.0366572 -1.03503e-07
-1.62875e-07 -1.03503e-07 0.0323959

0.0252154 0.00174008 1.05422e-07
0.00174008 0.0320295 1.82687e-07
1.05422e-07 1.82687e-07 0.025684

0.0332806 -0.00390985 1.29914e-07
-0.00390985 0.0304967 -1.5059e-07
1.29914e-07 -1.5059e-07 0.0315925

0.029065 -0.00389599 4.99061e-08
-0.00389599 0.0282003 -1.69028e-08
4.99061e-08 -1.69028e-08 0.0257136

0.0261492 0.0040988 -1.23379e-07
0.0040988 0.0285462 -2.45821e-07
-1.23379e-07 -2.45821e-07 0.0243182

0.0452873 -0.00201728 -1.5588e-07
-0.00201728 0.0396055 -1.44557e-07
-1.5588e-07 -1.44557e-07 0.036367

0.0316668 0.000256243 5.53154e-08
0.000256243 0.039327 -9.2328e-08
5.53154e-08 -9.2328e-08 0.0347692

0.0306165 0.0026509 -2.00609e-08
0.0026509 0.0384425 2.28307e-08
-2.00609e-08 2.28307e-08 0.0349578

0.0387659 0.00209482 1.29803e-07
0.00209482 0.0302218 1.43938e-08
1.29803e-07 1.43938e-08 0.0349426

0.0313709 -0.00345051 9.60054e-09
-0.00345051 0.0321402 -9.89746e-08
9.60054e-09 -9.89746e-08 0.0325727

0.0318178 0.00233602 4.70092e-08
0.00233602 0.0256204 9.49773e-08
4.70092e-08 9.49773e-08 0.0258797

0.0349939 -0.000708269 -2.54941e-07
-0.000708269 0.0415752 2.04983e-08
-2.54941e-07 2.04983e-08 0.0357278

0.0357879 -0.00251875 2.82856e-08
-0.00251875 0.0295504 1.01226e-07
2.82856e-08 1.01226e-07 0.0332581

0.0332971 -0.0020396 -6.49521e-08
-0.0020396 0.0266528 -4.11197e-08
-6.49521e-08 -4.11197e-08 0.0286754

0.0252524 0.00151091 -2.8438e-09
0.00151091 0.0322743 -9.66453e-08
-2.8438e-09 -9.66453e-08 0.0259501

0.0268046 -0.00334458 1.61558e-08
-0.00334458 0.0300095 2.29398e-07
1.61558e-08 2.29398e-07 0.0251873

0.0364779 -0.00336037 6.41435e-08
-0.00336037 0.0352878 2.20889e-07
6.41435e-08 2.20889e-07 0.0347424

0.0284756 0.00415209 2.46565e-08
0.00415209 0.0277161 -1.68997e-07
2.46565e-08 -1.68997e-07 0.0254678

0.0372435 -0.00334561 -2.05275e-08
-0.00334561 0.0333222 5.66851e-08
-2.05275e-08 5.66851e-08 0.0346117

0.0322059 0.000337889 1.23803e-07
0.000337889 0.0248627 -1.94132e-07
1.23803e-07 -1.94132e-07 0.0254376

0.019161 -0.00368907 -1.91614e-07
-0.00368907 0.0275261 -2.29075e-08
-1.91614e-07 -2.29075e-08 0.0163108

0.0292096 -0.00380357 -1.51617e-07
-0.00380357 0.0281924 1.73209e-08
-1.51617e-07 1.73209e-08 0.0258078

0.0230459 0.00412726 -2.02504e-08
0.00412726 0.0280204 1.82186e-07
-2.02504e-08 1.82186e-07 0.0175921

0.029691 -0.00155939 1.39136e-07
-0.00155939 0.0375338 9.48072e-08
1.39136e-07 9.48072e-08 0.0336485

0.0243601 -0.00179367 1.1858e-09
-0.00179367 0.0318725 2.41426e-09
1.1858e-09 2.41426e-09 0.025448

0.0424367 -0.00323417 -9.19681e-08
-0.00323417 0.0423769 -4.86014e-08
-9.19681e-08 -4.86014e-08 0.0363753

0.0263367 0.00309101 -9.9318e-08
0.00309101 0.0307014 -2.3553e-07
-9.9318e-08 -2.3553e-07 0.0254778

0.0334769 -0.00432328 4.05452e-09
-0.00432328 0.0326593 -2.51578e-08
4.05452e-09 -2.51578e-08 0.0335664

0.0240805 -0.00155081 5.09858e-08
-0.00155081 0.0318868 -2.91021e-08
5.09858e-08 -2.91021e-08 0.0251767

0.0362222 -0.00253869 4.85291e-08
-0.00253869 0.0295111 -1.29948e-08
4.85291e-08 -1.29948e-08 0.0335192

0.0266733 0.00310457 -2.51093e-07
0.00310457 0.0303946 -3.82204e-08
-2.51093e-07 -3.82204e-08 0.0253131

0.0343426 -0.000653752 5.56623e-08
-0.000653752 0.0272766 -1.93334e-08
5.56623e-08 -1.93334e-08 0.0305774

0.0188904 -0.00387148 -1.04123e-07
-0.00387148 0.0298017 -2.22895e-07
-1.04123e-07 -2.22895e-07 0.0129612

0.0279991 0.00275448 -1.19985e-07
0.00275448 0.0326286 2.54533e-07
-1.19985e-07 2.54533e-07 0.0305734

0.0314371 -0.00251213 6.87342e-08
-0.00251213 0.024722 -2.8078e-08
6.87342e-08 -2.8078e-08 0.0254057

0.0391182 -0.00286939 -2.89949e-07
-0.00286939 0.0322211 -9.44882e-08
-2.89949e-07 -9.44882e-08 0.0349366

0.0287528 0.0041237 -4.29701e-08
0.0041237 0.0272996 -7.45958e-08
-4.29701e-08 -7.45958e-08 0.0252552

0.0313612 -0.00391902 2.65997e-08
-0.00391902 0.0285416 1.26146e-07
2.65997e-08 1.26146e-07 0.0287306

0.0354074 0.00276395 2.7409e-07
0.00276395 0.0308554 6.72063e-08
2.7409e-07 6.72063e-08 0.0330388

0.0297728 -0.00370346 -5.76695e-08
-0.00370346 0.0329373 6.02962e-09
-5.76695e-08 6.02962e-09 0.0333418

0.0270548 -0.00341006 3.44407e-08
-0.00341006 0.0299822 -1.01492e-07
3.44407e-08 -1.01492e-07 0.025397

0.0284401 0.00377111 -7.72797e-08
0.00377111 0.0289393 -1.60848e-08
-7.72797e-08 -1.60848e-08 0.0258869

0.0313706 0.00341338 -1.35602e-07
0.00341338 0.0268989 1.33713e-07
-1.35602e-07 1.33713e-07 0.0269655

0.0365351 -0.00194429 3.67287e-08
-0.00194429 0.0306245 -3.805e-08
3.67287e-08 -3.805e-08 0.0336351

0.0255332 -0.00216319 -7.04758e-08
-0.00216319 0.0318012 -3.67649e-09
-7.04758e-08 -3.67649e-09 0.0258533

0.0346989 -0.00231406 -6.80521e-10
-0.00231406 0.0283337 5.84028e-08
-6.80521e-10 5.84028e-08 0.0314552

0.0341849 0.00222289 1.19507e-07
0.00222289 0.0274313 1.00485e-07
1.19507e-07 1.00485e-07 0.0306032

0.0336444 -0.00124606 7.28242e-08
-0.00124606 0.0392993 1.61549e-07
7.28242e-08 1.61549e-07 0.0349268

0.0320711 -0.00174667 1.79512e-07
-0.00174667 0.0253297 1.83863e-07
1.79512e-07 1.83863e-07 0.0258706

0.0250012 7.96657e-05 -2.98112e-08
7.96657e-05 0.0331505 -2.56065e-08
-2.98112e-08 -2.56065e-08 0.0268606

0.0332465 0.00242864 -6.52572e-08
0.00242864 0.027193 -3.2634e-08
-6.52572e-08 -3.2634e-08 0.0289214

0.0311165 0.00359881 1.30992e-08
0.00359881 0.027292 1.04168e-07
1.30992e-08 1.04168e-07 0.0271219

0.0252948 -0.00204106 -7.32826e-08
-0.00204106 0.0318635 -3.1979e-08
-7.32826e-08 -3.1979e-08 0.0256105

0.0252005 -0.000154708 1.69268e-09
-0.000154708 0.0332907 -6.59855e-09
1.69268e-09 -6.59855e-09 0.0271434

0.0354125 0.00385829 7.69619e-08
0.00385829 0.032995 -5.5883e-08
7.69619e-08 -5.5883e-08 0.0338947

0.0275851 -0.0014309 -3.5327e-08
-0.0014309 0.0353409 -9.50206e-08
-3.5327e-08 -9.50206e-08 0.0314412

0.0312331 -0.00348377 -5.36286e-08
-0.00348377 0.026977 -1.51494e-07
-5.36286e-08 -1.51494e-07 0.0270091

0.0312957 0.00277259 -1.56837e-07
0.00277259 0.0249214 9.6701e-08
-1.56837e-07 9.6701e-08 0.0252455

0.0345819 0.00311848 5.34423e-09
0.00311848 0.0293858 -1.10777e-07
5.34423e-09 -1.10777e-07 0.031795

0.0279905 0.000716648 2.9574e-08
0.000716648 0.0360385 3.81973e-08
2.9574e-08 3.81973e-08 0.0318174

0.0287156 0.00378116 6.1186e-08
0.00378116 0.0285582 -2.4997e-07
6.1186e-08 -2.4997e-07 0.0257272

0.0367899 0.00305733 -3.00582e-08
0.00305733 0.036125 2.17683e-07
-3.00582e-08 2.17683e-07 0.0349064

0.0226796 -0.00754505 -1.99292e-07
-0.00754505 0.0186874 2.32527e-08
-1.99292e-07 2.32527e-08 0.0108449

0.03329 -0.00328743 -5.26598e-08
-0.00328743 0.0286316 1.19858e-07
-5.26598e-08 1.19858e-07 0.0301232

0.0207263 0.000913358 7.90498e-08
0.000913358 0.0300304 2.38736e-07
7.90498e-08 2.38736e-07 0.0183459

0.0312996 -0.0037815 -1.15402e-07
-0.0037815 0.0292304 -1.27753e-07
-1.15402e-07 -1.27753e-07 0.0290308

0.00153954 -0.00651865 2.06534e-08
-0.00651865 0.0275677 -9.04883e-08
2.06534e-08 -9.04883e-08 0.00290824

0.00146993 0.00636821 4.439e-08
0.00636821 0.0275856 1.94486e-07
4.439e-08 1.94486e-07 0.00300119

0.0119843 0.0145047 1.43974e-07
0.0145047 0.0175321 1.80538e-07
1.43974e-07 1.80538e-07 0.00277116

0.0121657 -0.0144953 1.35745e-07
-0.0144953 0.0172236 -1.70219e-07
1.35745e-07 -1.70219e-07 0.00280377

0.0293402 -0.000164085 2.26694e-07
-0.000164085 0 0
2.26694e-07 0 0.00295258

0.0235917 -0.0112824 -1.19044e-07
-0.0112824 0.00539536 5.73286e-08
-1.19044e-07 5.73286e-08 0.00297828

0.0236337 0.0113486 8.14711e-08
0.0113486 0.00544942 3.92344e-08
8.14711e-08 3.92344e-08 0.00303941

0.0369109 0.00191131 -2.18561e-07
0.00191131 0.0302415 -7.43261e-08
-2.18561e-07 -7.43261e-08 0.0338772

0.0387049 0.00340966 3.14126e-08
0.00340966 0.0366171 -7.27613e-08
3.14126e-08 -7.27613e-08 0.035578

0.0344143 0.000872342 7.77112e-08
0.000872342 0.0274563 3.78715e-08
7.77112e-08 3.78715e-08 0.0316872

0.0328723 0.00285023 -1.57559e-07
0.00285023 0.0268888 1.33734e-07
-1.57559e-07 1.33734e-07 0.0286457

0.0257002 0.00231314 -8.76054e-08
0.00231314 0.0323661 -2.07416e-07
-8.76054e-08 -2.07416e-07 0.027635

0.030712 0.00376885 1.92445e-07
0.00376885 0.0276756 -1.61454e-07
1.92445e-07 -1.61454e-07 0.0271171

0.0333051 -0.0039031 2.12462e-07
-0.0039031 0.0304654 -3.17387e-08
2.12462e-07 -3.17387e-08 0.0316294

0.0309728 0.00365432 -1.76232e-08
0.00365432 0.0272863 -7.43652e-08
-1.76232e-08 -7.43652e-08 0.0269248

0.0249866 -0.00037144 5.43919e-08
-0.00037144 0.0331216 -2.29055e-08
5.43919e-08 -2.29055e-08 0.0268427

0.0385475 -0.00348468 -2.13112e-07
-0.00348468 0.0368804 -6.22553e-08
-2.13112e-07 -6.22553e-08 0.0355835

0.0251751 -0.000635683 -3.45535e-09
-0.000635683 0.0332093 -7.03499e-09
-3.45535e-09 -7.03499e-09 0.0271023

0.0360177 0.00304741 2.98524e-08
0.00304741 0.0330106 6.99457e-08
2.98524e-08 6.99457e-08 0.0340976

0.0296223 0.00347572 3.14475e-08
0.00347572 0.0248458 8.56487e-08
3.14475e-08 8.56487e-08 0.0230224

0.0304957 -0.00171392 -1.70932e-07
-0.00171392 0.0375123 5.14056e-08
-1.70932e-07 5.14056e-08 0.0347361

0.0339198 0.00180451 1.20742e-07
0.00180451 0.0271812 -3.09251e-08
1.20742e-07 -3.09251e-08 0.03032

0.0312005 -0.00392031 -6.68952e-08
-0.00392031 0.0285308 -1.29639e-07
-6.68952e-08 -1.29639e-07 0.028614

0.0315832 -0.00322127 3.76823e-08
-0.00322127 0.0266913 2.41844e-08
3.76823e-08 2.41844e-08 0.0270473

0.0384791 -0.00214137 -1.36346e-07
-0.00214137 0.0334168 -1.64431e-07
-1.36346e-07 -1.64431e-07 0.0347446

0.0326805 0.00366391 -1.91512e-07
0.00366391 0.0292316 -1.07467e-07
-1.91512e-07 -1.07467e-07 0.0301546

0.0326441 0.00313751 -8.85956e-08
0.00313751 0.027252 1.002e-07
-8.85956e-08 1.002e-07 0.0287876

0.0269548 -0.00036502 -1.02417e-08
-0.00036502 0.0349868 2.53136e-07
-1.02417e-08 2.53136e-07 0.0301676

0.0258993 0.000765866 6.68595e-08
0.000765866 0.0340035 1.3435e-07
6.68595e-08 1.3435e-07 0.0288227

0.0327779 0.000345387 -1.75776e-07
0.000345387 0.0248615 -2.12732e-07
-1.75776e-07 -2.12732e-07 0.0274434

0.0313869 -0.000944842 9.76148e-08
-0.000944842 0.0230036 -1.09769e-07
9.76148e-08 -1.09769e-07 0.0238918

0.0308803 0.00398506 -8.28488e-09
0.00398506 0.0288056 -5.73549e-08
-8.28488e-09 -5.73549e-08 0.0286238

0.0331174 -0.00343142 1.73813e-07
-0.00343142 0.0285404 -1.27411e-07
1.73813e-07 -1.27411e-07 0.029969

0.0364127 -0.00282376 -5.18208e-08
-0.00282376 0.0327326 -2.01953e-07
-5.18208e-08 -2.01953e-07 0.0341438

0.0292057 -0.00412772 -5.95934e-08
-0.00412772 0.029192 -1.23677e-07
-5.95934e-08 -1.23677e-07 0.0277536

0.0269718 -0.00362035 1.42506e-07
-0.00362035 0.0304645 1.87679e-08
1.42506e-07 1.87679e-08 0.0272131

0.0283258 0.00389941 -1.87658e-08
0.00389941 0.0299006 1.00428e-07
-1.87658e-08 1.00428e-07 0.0277517

0.025901 -0.00124886 7.24743e-08
-0.00124886 0.0336133 -5.13488e-08
7.24743e-08 -5.13488e-08 0.0285156

0.0266542 -0.000202033 1.37193e-07
-0.000202033 0.0349125 6.77785e-08
1.37193e-07 6.77785e-08 0.0299195

0.0277621 0.000753113 -1.08988e-07
0.000753113 0.0360379 3.92403e-08
-1.08988e-07 3.92403e-08 0.0316579

0.0262468 -0.00274936 -1.56291e-07
-0.00274936 0.0319625 1.24093e-07
-1.56291e-07 1.24093e-07 0.0277104

0.0345826 0.00317569 -2.214e-09
0.00317569 0.029168 -9.65269e-08
-2.214e-09 -9.65269e-08 0.0316341

0.0339087 -0.0012609 5.62511e-08
-0.0012609 0.02693 -1.78197e-08
5.62511e-08 -1.78197e-08 0.0302014

0.0257901 0.000974157 -6.94784e-08
0.000974157 0.033829 -9.64221e-08
-6.94784e-08 -9.64221e-08 0.0285417

0.0278237 -0.00126999 2.09686e-07
-0.00126999 0.0353967 -4.50069e-08
2.09686e-07 -4.50069e-08 0.0313657

0.0272928 -0.00213711 7.4719e-09
-0.00213711 0.0336563 -3.27577e-09
7.4719e-09 -3.27577e-09 0.0302253

0.0327766 -0.00107719 -1.65846e-07
-0.00107719 0.0253198 5.21234e-08
-1.65846e-07 5.21234e-08 0.027254

0.0333149 -0.0042712 -1.13846e-07
-0.0042712 0.0323798 -7.58826e-08
-1.13846e-07 -7.58826e-08 0.0335289

0.0264883 0.00121981 -1.55114e-07
0.00121981 0.033835 -9.75243e-08
-1.55114e-07 -9.75243e-08 0.0288157

0.0398112 -0.00243174 2.632e-08
-0.00243174 0.0352184 2.22369e-07
2.632e-08 2.22369e-07 0.0354608

0.0188886 0.00316457 1.03708e-07
0.00316457 0.0278758 1.93637e-07
1.03708e-07 1.93637e-07 0.0162726

0.0338155 -0.00352265 -5.05355e-08
-0.00352265 0.0334945 2.4989e-08
-5.05355e-08 2.4989e-08 0.0337259

0.0353435 -0.00399933 -4.81942e-08
-0.00399933 0.0330462 -1.54625e-07
-4.81942e-08 -1.54625e-07 0.0339037

0.0266856 -9.0686e-05 -1.65861e-07
-9.0686e-05 0.0349176 6.08281e-08
-1.65861e-07 6.08281e-08 0.0299277

0.0332425 -0.00217638 4.30716e-08
-0.00217638 0.0271527 9.95761e-08
4.30716e-08 9.95761e-08 0.0289024

0.0293471 0.00168466 -1.76616e-08
0.00168466 0.035819 -3.42028e-08
-1.76616e-08 -3.42028e-08 0.0328794

0.0132073 -0.000379131 1.33349e-07
-0.000379131 0.0283621 -2.84652e-07
1.33349e-07 -2.84652e-07 0.0111517

0.0271133 0.00186866 -1.0306e-07
0.00186866 0.0340613 8.23928e-10
-1.0306e-07 8.23928e-10 0.0303058

0.0311089 -0.00385832 3.97163e-08
-0.00385832 0.0291535 8.53075e-08
3.97163e-08 8.53075e-08 0.0288061

0.0186196 0.00320459 2.83472e-08
0.00320459 0.0301394 -1.37778e-08
2.83472e-08 -1.37778e-08 0.0131266

0.0426002 0.00351815 -4.35797e-07
0.00351815 0.0418495 -5.71449e-07
-4.35797e-07 -5.71449e-07 0.0364801

0.043206 -0.00374861 6.84601e-08
-0.00374861 0.0414168 -9.69964e-08
6.84601e-08 -9.69964e-08 0.0364625

0.0310649 -0.00399071 -1.82754e-07
-0.00399071 0.0304709 -2.21319e-08
-1.82754e-07 -2.21319e-08 0.0304606

0.0289217 -0.00406389 -1.13783e-08
-0.00406389 0.0291499 8.47429e-08
-1.13783e-08 8.47429e-08 0.027594

0.0330506 0.00272666 -7.78833e-08
0.00272666 0.0275281 8.30908e-08
-7.78833e-08 8.30908e-08 0.0290751

0.0327793 0.00195998 -7.37944e-08
0.00195998 0.0255908 9.06101e-08
-7.37944e-08 9.06101e-08 0.0278224

0.0464016 0.000418537 4.32889e-07
0.000418537 0.046357 -5.38897e-08
4.32889e-07 -5.38897e-08 0.0366943

0.0469203 -0.000951746 6.05738e-07
-0.000951746 0.0457693 4.86082e-07
6.05738e-07 4.86082e-07 0.0367654

0.0347989 0.000638326 -3.61814e-08
0.000638326 0.0275725 1.36911e-07
-3.61814e-08 1.36911e-07 0.032216

0.0277514 0.000882473 -9.45269e-08
0.000882473 0.0355701 -1.38614e-08
-9.45269e-08 -1.38614e-08 0.0313481

0.0276072 0.000882674 -2.1218e-07
0.000882674 0.0355702 -1.72212e-08
-2.1218e-07 -1.72212e-08 0.0312443

0.0234588 0.00739982 2.60952e-07
0.00739982 0.0183017 -1.44248e-07
2.60952e-07 -1.44248e-07 0.0109014

0.0272468 -0.00367539 -2.32531e-08
-0.00367539 0.0303468 -1.58087e-08
-2.32531e-08 -1.58087e-08 0.027319

0.036567 0.00239151 -3.1217e-07
0.00239151 0.0295756 4.5481e-08
-3.1217e-07 4.5481e-08 0.0337839

0.0332734 0.0012475 -4.29611e-08
0.0012475 0.0265036 3.1264e-08
-4.29611e-08 3.1264e-08 0.0284313

0.0291517 -0.00349244 -5.65484e-08
-0.00349244 0.0304707 2.20962e-09
-5.65484e-08 2.20962e-09 0.0281728

0.0328103 -0.00264769 -6.68574e-09
-0.00264769 0.0267275 2.27665e-08
-6.68574e-09 2.27665e-08 0.0285862

0.0224597 0.00761267 -2.94173e-07
0.00761267 0.0185901 -2.78402e-08
-2.94173e-07 -2.78402e-08 0.0109038

0.0331442 0.00410236 -2.6313e-08
0.00410236 0.0326377 8.65163e-08
-2.6313e-08 8.65163e-08 0.0331811

0.0258897 -0.00257831 -7.34647e-09
-0.00257831 0.0320236 -1.4054e-07
-7.34647e-09 -1.4054e-07 0.0275069

0.0324816 0.00378566 -1.41536e-07
0.00378566 0.0292675 -1.75304e-07
-1.41536e-07 -1.75304e-07 0.0301463

0.0268155 -0.000543679 -1.69541e-08
-0.000543679 0.0349517 2.52443e-07
-1.69541e-08 2.52443e-07 0.0301373

0.0269893 0.00256317 6.00257e-08
0.00256317 0.0324478 1.40746e-07
6.00257e-08 1.40746e-07 0.0282859

0.0305256 0.00399098 2.0198e-07
0.00399098 0.0293226 -1.43143e-07
2.0198e-07 -1.43143e-07 0.0287745

0.0276083 -0.00293711 6.16143e-08
-0.00293711 0.031853 1.62827e-07
6.16143e-08 1.62827e-07 0.0282484

0.0294553 -0.00357575 4.43911e-09
-0.00357575 0.0303505 -1.40366e-08
4.43911e-09 -1.40366e-08 0.0283044

0.0181374 0.00142538 3.98143e-07
0.00142538 0.028036 -7.00338e-08
3.98143e-07 -7.00338e-08 0.0131273

0.0234734 -0.00429385 -4.39626e-09
-0.00429385 0.0275557 -2.80262e-08
-4.39626e-09 -2.80262e-08 0.017723

0.0262049 -0.00152613 -8.16022e-08
-0.00152613 0.0336228 1.06498e-07
-8.16022e-08 1.06498e-07 0.0287513

0.0330231 0.00347468 -1.46039e-07
0.00347468 0.0288771 -4.56882e-08
-1.46039e-07 -4.56882e-08 0.0300683

0.030321 0.0038574 -1.39164e-08
0.0038574 0.0298859 1.00875e-07
-1.39164e-08 1.00875e-07 0.0289897

0.0274139 -0.00280047 6.20798e-08
-0.00280047 0.0319833 -1.35583e-07
6.20798e-08 -1.35583e-07 0.0281384

0.0265541 -0.00154084 3.95914e-08
-0.00154084 0.0335817 -5.30429e-08
3.95914e-08 -5.30429e-08 0.0287456

0.0309556 0.00371833 2.02215e-08
0.00371833 0.0295627 -1.13349e-07
2.02215e-08 -1.13349e-07 0.0289405

0.0267586 -0.00181598 -1.71668e-07
-0.00181598 0.0334733 8.72416e-08
-1.71668e-07 8.72416e-08 0.0289536

0.0191657 0.00355445 -1.18804e-07
0.00355445 0.0276071 -1.53047e-07
-1.18804e-07 -1.53047e-07 0.0162918

0.0308729 -0.000534642 -1.84704e-08
-0.000534642 0.0388185 9.27588e-08
-1.84704e-08 9.27588e-08 0.0342938

0.0286559 0.00404784 1.41832e-07
0.00404784 0.0295178 -1.26813e-07
1.41832e-07 -1.26813e-07 0.0277139

0.0355797 0.00197512 -7.11638e-08
0.00197512 0.0295023 -1.06898e-07
-7.11638e-08 -1.06898e-07 0.032842

0.0362586 -0.0021145 -9.26788e-08
-0.0021145 0.0297546 -6.93042e-08
-9.26788e-08 -6.93042e-08 0.0332172

0.0285101 -0.0030957 7.47833e-08
-0.0030957 0.0185686 2.08586e-07
7.47833e-08 2.08586e-07 0.0157296

0.028353 -0.00279002 2.40305e-07
-0.00279002 0.0327745 1.89063e-07
2.40305e-07 1.89063e-07 0.0305709

0.0291902 0.00350089 1.48962e-07
0.00350089 0.031599 -4.90964e-08
1.48962e-07 -4.90964e-08 0.0304868

0.0349593 -0.00290783 -1.64505e-07
-0.00290783 0.0376745 9.91294e-08
-1.64505e-07 9.91294e-08 0.0352355

0.0394598 0.00188481 1.29712e-07
0.00188481 0.0446082 1.56234e-07
1.29712e-07 1.56234e-07 0.0364323

0.0449431 0.00129034 -1.14528e-07
0.00129034 0.039116 4.09042e-08
-1.14528e-07 4.09042e-08 0.0364143

0.0355597 0.00434526 -7.42969e-09
0.00434526 0.035134 4.29475e-08
-7.42969e-09 4.29475e-08 0.0350027

0.0265711 0.00338766 7.94441e-08
0.00338766 0.0310052 8.93187e-08
7.94441e-08 8.93187e-08 0.0272552

0.0330386 0.00349704 -1.92701e-07
0.00349704 0.0286664 7.1637e-08
-1.92701e-07 7.1637e-08 0.0300494

0.0220594 0.00576407 -8.93118e-08
0.00576407 0.024237 8.55006e-08
-8.93118e-08 8.55006e-08 0.0160719

0.0386177 -0.00151257 5.1126e-07
-0.00151257 0.0444315 -1.81913e-07
5.1126e-07 -1.81913e-07 0.0363615

0.046048 -0.000463493 4.40411e-08
-0.000463493 0.0454374 1.89778e-07
4.40411e-08 1.89778e-07 0.0366904

0.0451791 -3.19451e-05 -2.2185e-07
-3.19451e-05 0.046301 7.46443e-07
-2.2185e-07 7.46443e-07 0.0366724

0.0176406 -0.00679477 1.35441e-07
-0.00679477 0.0231077 2.56262e-07
1.35441e-07 2.56262e-07 0.0107383

0.0392916 -0.00155581 1.63512e-07
-0.00155581 0.038714 4.49035e-08
1.63512e-07 4.49035e-08 0.035853

0.0383963 0.00117718 -3.47359e-07
0.00117718 0.0415174 -8.32142e-08
-3.47359e-07 -8.32142e-08 0.0361243

0.0331742 -0.00343556 1.46263e-07
-0.00343556 0.0282188 -1.90959e-07
1.46263e-07 -1.90959e-07 0.0299028

0.0318439 0.000140306 1.24118e-07
0.000140306 0.0386713 7.82809e-08
1.24118e-07 7.82809e-08 0.0344498

0.0285761 -0.00266007 2.44013e-08
-0.00266007 0.0333794 2.01298e-10
2.44013e-08 2.01298e-10 0.0315885

0.0356614 0.000831742 -2.00102e-07
0.000831742 0.0273769 1.39779e-08
-2.00102e-07 1.39779e-08 0.0329994

0.0288752 0.00204417 -1.78284e-08
0.00204417 0.0368157 1.43047e-07
-1.78284e-08 1.43047e-07 0.033669

0.0298688 0.000946472 -3.29499e-08
0.000946472 0.037388 1.26624e-07
-3.29499e-08 1.26624e-07 0.0333629

0.0344006 0.00268492 5.26473e-08
0.00268492 0.0288511 4.04709e-08
5.26473e-08 4.04709e-08 0.0312256

0.0132789 -0.000409399 -5.2011e-08
-0.000409399 0.0281225 -4.53435e-08
-5.2011e-08 -4.53435e-08 0.0112011

0.030964 -0.0036262 1.14178e-07
-0.0036262 0.0309148 -1.88612e-08
1.14178e-07 -1.88612e-08 0.0306088

0.0329276 -0.00344293 2.38043e-07
-0.00344293 0.0320199 -1.22835e-07
2.38043e-07 -1.22835e-07 0.0325786

0.0335703 -0.00415935 4.24387e-08
-0.00415935 0.0325341 1.22893e-07
4.24387e-08 1.22893e-07 0.0337351

0.0265614 0.00414857 -2.52598e-07
0.00414857 0.0176911 1.18164e-07
-2.52598e-07 1.18164e-07 0.012605

0.0388279 -0.00269617 2.19201e-07
-0.00269617 0.0395751 -1.34944e-07
2.19201e-07 -1.34944e-07 0.0359577

0.0230824 0.00692059 1.1032e-07
0.00692059 0.0255017 3.51335e-07
1.1032e-07 3.51335e-07 0.0126092

0.0308742 -0.00281763 -2.13287e-07
-0.00281763 0.0348072 7.18773e-09
-2.13287e-07 7.18773e-09 0.0339556

0.0354107 0.00193633 1.14704e-07
0.00193633 0.0284652 9.05496e-08
1.14704e-07 9.05496e-08 0.032344

0.0318206 -0.00189335 -2.38992e-08
-0.00189335 0.0249503 9.00848e-08
-2.38992e-08 9.00848e-08 0.0253949

0.0292915 0.00315917 3.58703e-08
0.00315917 0.032731 2.82137e-07
3.58703e-08 2.82137e-07 0.031279

0.034436 0.00268863 9.66664e-08
0.00268863 0.0286338 -6.40106e-08
9.66664e-08 -6.40106e-08 0.0312202

0.0325182 0.00149911 -2.64452e-08
0.00149911 0.0403727 -1.23108e-07
-2.64452e-08 -1.23108e-07 0.0353359

0.0319396 -0.00415454 -4.46267e-08
-0.00415454 0.0312007 6.49545e-08
-4.46267e-08 6.49545e-08 0.03181

0.0396756 0.0026555 -9.28895e-09
0.0026555 0.0331976 5.53964e-08
-9.28895e-09 5.53964e-08 0.0353154

0.0279709 -0.00241841 2.50281e-08
-0.00241841 0.0335501 -4.9297e-10
2.50281e-08 -4.9297e-10 0.0304699

0.0293504 0.000558572 -5.93159e-08
0.000558572 0.0373117 1.23819e-07
-5.93159e-08 1.23819e-07 0.033252

0.0419426 0.00133736 -6.37426e-08
0.00133736 0.0370997 -6.04691e-08
-6.37426e-08 -6.04691e-08 0.0361157

0.0420973 -0.00114803 1.05784e-08
-0.00114803 0.0373258 -3.91344e-08
1.05784e-08 -3.91344e-08 0.0360975

0.0283828 0.002369 3.18767e-07
0.002369 0.0181813 3.32458e-08
3.18767e-07 3.32458e-08 0.0159495

0.0350256 0.00106108 -2.55094e-07
0.00106108 0.0285656 1.11562e-07
-2.55094e-07 1.11562e-07 0.0330584

0.0128668 0.000923326 -3.84937e-08
0.000923326 0.031626 -1.45719e-07
-3.84937e-08 -1.45719e-07 0.0061216

0.0131624 -0.00138811 1.411e-07
-0.00138811 0.0321318 1.09163e-07
1.411e-07 1.09163e-07 0.00611192

0.0152686 0.00715417 2.57207e-07
0.00715417 0.0284526 -2.17626e-07
2.57207e-07 -2.17626e-07 0.00598408

0.0347637 -0.00382116 -1.30274e-07
-0.00382116 0.0312676 1.74895e-07
-1.30274e-07 1.74895e-07 0.0329385

0.0155806 -0.00619428 -8.07993e-08
-0.00619428 0.0261526 2.19305e-08
-8.07993e-08 2.19305e-08 0.0104718

0.0155127 -0.00708675 2.2327e-07
-0.00708675 0.0274231 1.40616e-07
2.2327e-07 1.40616e-07 0.00591388

0.0284256 0.0034256 -1.03857e-08
0.0034256 0.0310055 8.9052e-08
-1.03857e-08 8.9052e-08 0.0281522

0.025193 0.00932577 -6.86233e-08
0.00932577 0.0190206 2.21477e-07
-6.86233e-08 2.21477e-07 0.00593378

0.0365376 0.00173194 1.26321e-07
0.00173194 0.0385507 -1.10398e-08
1.26321e-07 -1.10398e-08 0.0354746

0.0395347 2.52348e-05 1.37013e-07
2.52348e-05 0.0355391 -8.95818e-09
1.37013e-07 -8.95818e-09 0.0354553

0.0261071 -0.00924428 2.86895e-08
-0.00924428 0.0188124 -1.93266e-07
2.86895e-08 -1.93266e-07 0.00588795

0.0276894 -0.00306493 5.05515e-09
-0.00306493 0.0320944 -3.98806e-08
5.05515e-09 -3.98806e-08 0.0296223

0.0262547 0.00441807 -2.33045e-07
0.00441807 0.0201578 4.25674e-08
-2.33045e-07 4.25674e-08 0.0130444

0.0172791 0.00797304 -3.39045e-07
0.00797304 0.0271486 8.14089e-08
-3.39045e-07 8.14089e-08 0.00598776

0.018196 0.00275517 -2.48197e-08
0.00275517 0.0275895 7.09696e-10
-2.48197e-08 7.09696e-10 0.0128498

0.017304 -0.00827625 -3.61377e-08
-0.00827625 0.027152 -7.32132e-08
-3.61377e-08 -7.32132e-08 0.00581367

0.0179327 -0.00157088 -4.1195e-07
-0.00157088 0.0280052 1.50851e-07
-4.1195e-07 1.50851e-07 0.0126903

0.0370498 0.000922858 4.44526e-07
0.000922858 0.0412996 -3.57417e-08
4.44526e-07 -3.57417e-08 0.0358095

0.0221309 -0.00585511 1.13639e-08
-0.00585511 0.0236642 1.17158e-07
1.13639e-08 1.17158e-07 0.0151586

0.0156999 0.00598613 -1.95792e-07
0.00598613 0.0259021 3.93068e-07
-1.95792e-07 3.93068e-07 0.01075

0.0302083 0.0047299 1.15889e-07
0.0047299 0.0143491 -1.93152e-07
1.15889e-07 -1.93152e-07 0.00611578

0.0329376 -0.00384912 1.06069e-07
-0.00384912 0.0301235 -2.61021e-08
1.06069e-07 -2.61021e-08 0.0310507

0.0308882 0.00169372 -4.70402e-08
0.00169372 0.0368422 1.44345e-07
-4.70402e-08 1.44345e-07 0.0339497

0.0260897 -0.00484384 -8.61448e-08
-0.00484384 0.0191971 -2.60286e-07
-8.61448e-08 -2.60286e-07 0.0126949

0.0329997 -0.0037857 1.09374e-07
-0.0037857 0.0300747 -1.82837e-08
1.09374e-07 -1.82837e-08 0.031127

0.0300187 -0.00451983 1.44225e-07
-0.00451983 0.0130534 1.44042e-07
1.44225e-07 1.44042e-07 0.00603723

0.0324726 -0.00372739 1.28155e-08
-0.00372739 0.031307 1.49238e-07
1.28155e-08 1.49238e-07 0.0319788

0.0280907 -0.00331109 1.796e-07
-0.00331109 0.0320029 8.09424e-09
1.796e-07 8.09424e-09 0.0296249

0.0234433 0.00874352 7.05198e-08
0.00874352 0.0204827 -2.9638e-07
7.05198e-08 -2.9638e-07 0.00602608

0.0181995 -0.00292072 5.18985e-08
-0.00292072 0.0268661 3.38889e-07
5.18985e-08 3.38889e-07 0.0122698

0.0233143 -0.0090192 -1.08878e-07
-0.0090192 0.0201519 -1.4324e-07
-1.08878e-07 -1.4324e-07 0.00588391

0.0170823 0.00640821 1.89119e-07
0.00640821 0.0235657 -3.07457e-07
1.89119e-07 -3.07457e-07 0.0108309

0.0308258 -0.00396018 1.1157e-07
-0.00396018 0.0301598 -2.65742e-08
1.1157e-07 -2.65742e-08 0.030085

0.0389176 -0.00195885 -2.91276e-07
-0.00195885 0.0369404 -8.13982e-08
-2.91276e-07 -8.13982e-08 0.035499

0.045541 0.00150728 2.51165e-07
0.00150728 0.0449528 1.85728e-07
2.51165e-07 1.85728e-07 0.0366186

0.0435642 -0.000712024 -1.90969e-07
-0.000712024 0.0462302 -4.43395e-08
-1.90969e-07 -4.43395e-08 0.0365843

0.0286151 0.00171597 -4.11711e-08
0.00171597 0.0355653 8.94342e-08
-4.11711e-08 8.94342e-08 0.032389

0.0453362 -0.00144839 -2.88078e-08
-0.00144839 0.0449806 -2.49433e-07
-2.88078e-08 -2.49433e-07 0.0366363

0.0438073 0.000568377 -2.00261e-07
0.000568377 0.0465063 -5.09897e-07
-2.00261e-07 -5.09897e-07 0.0366174

0.04668 0.000992062 -6.36007e-08
0.000992062 0.0433775 -4.50232e-08
-6.36007e-08 -4.50232e-08 0.0365925

0.0397501 -0.00163872 -2.37113e-07
-0.00163872 0.0460745 -4.20915e-07
-2.37113e-07 -4.20915e-07 0.0364823

0.0190537 -0.00388729 2.70446e-07
-0.00388729 0.0272304 -1.08969e-07
2.70446e-07 -1.08969e-07 0.0154709

0.0421403 -0.00175011 -6.09036e-08
-0.00175011 0.0367251 -1.27939e-07
-6.09036e-08 -1.27939e-07 0.0360042

0.0359638 -0.00457366 -1.54729e-07
-0.00457366 0.0351504 6.06339e-08
-1.54729e-07 6.06339e-08 0.0349676

0.0397526 -0.00242141 -1.54175e-07
-0.00242141 0.0360642 6.0849e-08
-1.54175e-07 6.0849e-08 0.0355667

0.0351837 0.00204325 2.32588e-07
0.00204325 0.0285484 -5.5407e-08
2.32588e-07 -5.5407e-08 0.0322313

0.0396922 0.00133782 -2.86818e-07
0.00133782 0.0472248 8.45813e-08
-2.86818e-07 8.45813e-08 0.0365481

0.0464955 0.00259352 1.69046e-07
0.00259352 0.0404174 3.89882e-07
1.69046e-07 3.89882e-07 0.0365293

0.0400867 0.00150528 -1.13695e-08
0.00150528 0.036673 4.45298e-08
-1.13695e-08 4.45298e-08 0.0356148

0.027914 -0.00191985 5.42126e-08
-0.00191985 0.0125245 1.5433e-07
5.42126e-08 1.5433e-07 0.0106244

0.0283186 0.00326782 -6.32766e-08
0.00326782 0.0315493 -1.31219e-07
-6.32766e-08 -1.31219e-07 0.0294102

0.0231877 -0.00773589 1.16369e-08
-0.00773589 0.0181797 -2.4065e-07
1.16369e-08 -2.4065e-07 0.0102893

0.0228303 -0.00731564 9.10172e-08
-0.00731564 0.0257682 4.30606e-08
9.10172e-08 4.30606e-08 0.0119543

0.0290219 -0.0046469 3.22626e-08
-0.0046469 0.019128 2.15823e-07
3.22626e-08 2.15823e-07 0.0126149

0.0375739 -0.00066067 2.09098e-07
-0.00066067 0.0449127 -2.82892e-07
2.09098e-07 -2.82892e-07 0.0362933

0.0375716 0.000358124 1.24421e-07
0.000358124 0.0447899 1.65055e-07
1.24421e-07 1.65055e-07 0.0362735

0.0426052 -0.00327466 -1.61538e-07
-0.00327466 0.0394506 4.20008e-08
-1.61538e-07 4.20008e-08 0.0362273

0.0429987 -0.00294469 6.76257e-08
-0.00294469 0.0391683 9.36727e-08
6.76257e-08 9.36727e-08 0.0362343

0.0425017 0.00350435 -2.81697e-07
0.00350435 0.0399729 -3.07753e-07
-2.81697e-07 -3.07753e-07 0.0362721

0.0443985 0.000417636 3.2322e-07
0.000417636 0.0450803 4.63492e-07
3.2322e-07 4.63492e-07 0.0366355

0.0426086 -0.00274487 5.26111e-08
-0.00274487 0.0395071 9.76121e-09
5.26111e-08 9.76121e-09 0.0362889

0.0426031 -0.00251197 9.71291e-08
-0.00251197 0.0442679 -2.41485e-07
9.71291e-08 -2.41485e-07 0.0365631

0.0451167 0.000331137 -4.77183e-07
0.000331137 0.0454673 -7.4034e-07
-4.77183e-07 -7.4034e-07 0.0366538

0.0436365 -0.00278295 -7.55167e-08
-0.00278295 0.0389162 9.72841e-08
-7.55167e-08 9.72841e-08 0.0363295

0.0435121 0.00283899 -1.21894e-07
0.00283899 0.0390693 -1.80162e-08
-1.21894e-07 -1.80162e-08 0.0363676

0.0451927 -0.000470056 -1.80299e-07
-0.000470056 0.045582 9.46044e-08
-1.80299e-07 9.46044e-08 0.0367025

0.045227 -0.000424796 7.77056e-07
-0.000424796 0.0443589 -1.16158e-06
7.77056e-07 -1.16158e-06 0.0367208

0.042798 0.00163966 -5.22211e-07
0.00163966 0.044249 1.01183e-06
-5.22211e-07 1.01183e-06 0.0366069

0.0411164 0.00361853 -1.25441e-07
0.00361853 0.0405161 -1.10548e-07
-1.25441e-07 -1.10548e-07 0.0363215

SCALARS pressure float
LOOKUP_TABLE default
-60.0511
19.3083
5.80343
21.2902
15.8788
5.88738
-58.6743
7.78315
-3.80486
15.1246
-24.4318
7.6173
5.59211
12.2793
23.3376
5.53899
18.5209
13.2073
-0.692838
6.75659
-0.904819
33.1345
5.80081
5.79687
6.60188
14.9028
-38.3851
6.67172
-15.2423
30.6261
5.17634
-15.6571
-42.0562
27.326
20.779
27.3589
31.8843
19.809
4.85963
-42.5994
-17.4073
31.9052
31.9933
5.99358
-21.8049
-15.9758
-1.05243
-3.40547
6.54483
-16.2177
-18.9187
-15.3458
20.7556
-15.373
20.3087
-33.1486
21.1295
-15.4602
21.1393
7.04494
21.7647
16.1188
-45.562
12.7898
16.3621
10.9051
21.574
13.8281
5.77351
21.817
20.8116
20.7823
-17.6909
11.6006
3.97397
-31.6096
14.3567
10.9962
14.1462
-8.72
-28.9447
14.9777
20.1631
-22.0378
-23.4294
-28.0919
7.0978
9.6324
-22.2157
37.7412
-15.5089
38.4438
18.3045
10.7615
-15.1665
-15.8727
-30.2212
14.7534
14.3657
4.59872
-10.7662
-21.9395
-25.1014
16.2129
14.1002
14.9616
18.6975
3.77475
-24.5583
26.5131
7.21757
-21.4089
-24.6119
14.8379
15.078
-16.1456
20.1648
-29.1131
20.6284
-16.7292
-2.90472
23.8339
21.7271
16.0329
26.6797
22.6316
21.7855
15.7085
-29.7808
-16.0989
24.0917
21.6173
20.9893
22.0657
-22.0138
23.5871
-33.8373
5.46339
21.7543
23.6304
-21.9368
6.67644
-5.96673
15.0835
-30.4074
15.6239
7.83321
2.40757
5.17776
-9.39449
-0.458017
22.6416
-15.4545
5.29101
15.2042
21.5605
11.5082
-21.1132
-21.2638
10.7904
-2.84278
-15.1975
-21.2204
-15.1652
-20.9864
15.2797
-20.6358
-21.2015
-15.2078
-21.0637
19.0043
-15.9409
-14.8244
12.0644
-14.4846
18.8028
19.0534
7.47273
18.0479
11.773
-16.249
15.2882
14.9609
-21.5284
10.4265
-14.2213
16.0486
14.5955
17.0818
14.8351
10.3438
-26.9762
-16.0822
-15.9581
21.907
14.5258
14.6246
20.9226
22.487
9.50266
21.7337
-0.384748
-8.17088
20.7788
-17.8387
19.9456
10.3642
-21.5175
15.7211
22.5262
14.7312
9.39346
14.1899
21.0557
-7.83292
8.82754
-7.90873
14.6483
26.9277
26.5814
27.9605
26.3886
26.7243
26.291
13.8259
23.4303
24.0295
23.9737
23.3999
21.1927
21.8573
-8.26299
15.9335
28.1911
-3.18884
23.576
23.2053
27.8344
-8.49369
28.0965
15.3446
-7.58175
17.4921
-8.25795
20.2272
29.6128
-7.48614
-8.10091
-29.5919
-18.189
19.5273
-31.9854
5.73419
-7.7941
-1.18967
28.2492
26.6403
30.4265
26.761
-34.8009
-8.1798
28.3374
8.07274
-8.29531
26.4459
-6.29546
30.4714
-7.95423
27.0471
14.566
14.7871
23.8451
10.0474
18.021
8.11692
-29.8599
-24.5531
16.8068
1.75946
8.17939
-13.6089
17.4358
11.6998
-8.10166
9.45205
-10.8235
7.51677
-10.7548
-8.48489
33.2644
19.1517
25.0883
25.3126
13.8291
-10.4046
26.4298
14.6849
-1.65925
-10.274
-12.5643
17.5066
-7.48539
17.5745
-12.0413
-21.3504
-10.6083
-34.6811
15.5624
-7.76313
34.4424
-11.578
16.8714
-8.40892
15.9727
-12.7584
4.28889
-51.1181
8.52147
-7.7468
21.3338
-8.15232
-0.12315
10.7152
21.1242
-12.0608
-10.2009
-6.06852
14.3179
-10.1801
6.88771
6.38543
16.3054
-10.4196
-6.33063
-1.70263
-5.66073
-11.0786
-5.84495
15.3055
7.80773
-5.55632
-8.96062
7.80515
7.69401
-10.6747
16.3093
-27.2135
2.29272
-28.4812
-0.957884
-8.87857
-8.09686
-11.7795
-10.9432
-9.88146
-7.77646
-7.89982
16.6378
24.7779
12.1158
-0.291996
-0.825542
-5.67489
7.30488
-6.32099
-6.31828
24.9237
-5.73032
14.1179
-15.9084
24.3252
5.96779
-0.391553
-5.64418
16.2749
2.47671
0.198664
2.4477
0.455535
-0.741236
-9.93045
-0.0959897
2.11287
15.0689
-1.28867
-1.40755
-0.999214
-0.388975
1.9649
8.05037
-1.19395
8.07782
5.58285
-0.436035
7.03492
5.48989
-3.87684
16.4766
-1.90379
23.0621
-21.9733
15.0441
15.6823
2.03926
-1.99787
12.5427
-26.5061
5.79188
-1.65831
-50.4825
30.4985
30.6351
5.82452
-1.14475
-1.0472
-0.850084
33.419
33.2937
13.0946
6.08156
6.66205
-28.9622
-1.27982
16.5334
-3.18308
-4.34849
-0.0173407
-25.2708
14.3031
-1.28059
2.8614
2.69279
-2.72364
-0.0497231
-3.20987
-4.03394
-37.9821
-33.6831
-0.12843
1.87408
-0.534491
-3.74457
-1.93698
-1.87811
-0.924714
-21.9073
17.2495
-0.76972
12.5649
14.1835
-26.7638
6.28591
7.13647
18.4778
36.4282
36.4607
22.6387
-1.7562
2.59924
-20.9294
36.1268
32.7604
32.8273
-24.8082
21.7756
30.5237
2.59873
15.7239
10.371
17.1642
17.7261
12.5054
5.68102
-25.3976
4.25968
10.4091
16.2439
-31.7094
28.31
-52.7095
18.6849
10.2987
-10.6276
7.417
5.45671
24.4745
9.41075
24.4075
4.10478
12.3996
30.6409
29.4667
-22.9899
17.4354
-70.2288
-74.3752
-67.1728
11.6481
-31.2593
-63.6062
-3.80388
-69.9342
16.4632
16.4069
-73.7503
5.21175
-39.7291
-70.7347
-37.7551
-71.8711
-39.4505
21.1369
-23.9597
-29.0433
-70.6186
4.83104
15.7575
-36.1889
6.05313
-63.6139
9.83562
3.88127
-67.8973
-37.6226
-66.4068
-23.7548
5.02868
20.5263
35.3723
36.7281
11.8117
36.8519
36.9052
36.4936
36.4056
-24.4785
28.2486
20.6691
21.9808
11.5343
36.0615
36.093
18.1202
-23.9396
3.24615
-30.5256
-56.5956
-50.4728
36.1446
35.8254
35.382
35.4522
36.1606
35.6003
33.111
37.3723
35.4016
36.0074
35.6397
34.198
34.3346
35.8578
35.3108
