# vtk DataFile Version 3.0
vtk output at time 60
ASCII
DATASET UNSTRUCTURED_GRID
POINTS 626 float
-3.68058e-05 0.000978749 0 3.68058e-05 0.000978749 0 -0.000829194 0.00052125 0 
-0.0008235 0.0005 0 -0.000866 0.0004575 0 -0.000866 -0.0004575 0 
-0.0008235 -0.0005 0 -0.000829194 -0.00052125 0 -3.68058e-05 -0.000978749 0 
3.68058e-05 -0.000978749 0 0.000829194 -0.00052125 0 0.000866 -0.0004575 0 
0.000866 0.0004575 0 0.000829194 0.00052125 0 8.5e-05 0 0 
-3.68058e-05 0.000978749 -0.001 3.68058e-05 0.000978749 -0.001 -0.000829194 0.00052125 -0.001 
-0.0008235 0.0005 -0.001 -0.000866 0.0004575 -0.001 -0.000866 -0.0004575 -0.001 
-0.0008235 -0.0005 -0.001 -0.000829194 -0.00052125 -0.001 -3.68058e-05 -0.000978749 -0.001 
3.68058e-05 -0.000978749 -0.001 0.000829194 -0.00052125 -0.001 0.000866 -0.0004575 -0.001 
0.000866 0.0004575 -0.001 0.000829194 0.00052125 -0.001 8.5e-05 0 -0.001 
8.46223e-17 0.0009575 0 -0.000715996 0.000586607 0 -0.000602797 0.000651965 0 
-0.000489599 0.000717321 0 -0.000376401 0.000782678 0 -0.000263202 0.000848036 0 
-0.000150004 0.000913393 0 -0.000835948 0.000469948 0 -0.000866 -0.000326786 0 
-0.000866 -0.000196071 0 -0.000866 -6.53571e-05 0 -0.000866 6.53571e-05 0 
-0.000866 0.000196071 0 -0.000866 0.000326786 0 -0.000835948 -0.000469948 0 
-0.000150004 -0.000913393 0 -0.000263202 -0.000848036 0 -0.000376401 -0.000782678 0 
-0.000489599 -0.000717321 0 -0.000602797 -0.000651965 0 -0.000715996 -0.000586607 0 
8.47648e-17 -0.0009575 0 0.000715996 -0.000586607 0 0.000602797 -0.000651965 0 
0.000489599 -0.000717321 0 0.000376401 -0.000782678 0 0.000263202 -0.000848036 0 
0.000150004 -0.000913393 0 0.000829194 -0.00047875 0 0.000866 0.000326786 0 
0.000866 0.000196071 0 0.000866 6.53571e-05 0 0.000866 -6.53571e-05 0 
0.000866 -0.000196071 0 0.000866 -0.000326786 0 0.000829194 0.00047875 0 
0.000150004 0.000913393 0 0.000263202 0.000848036 0 0.000376401 0.000782678 0 
0.000489599 0.000717321 0 0.000602797 0.000651965 0 0.000715996 0.000586607 0 
5.29966e-05 6.64557e-05 0 -1.89143e-05 8.28689e-05 0 -7.65824e-05 3.68801e-05 0 
-7.65824e-05 -3.68801e-05 0 -1.89143e-05 -8.28689e-05 0 5.29966e-05 -6.64557e-05 0 
8.46223e-17 0.0009575 -0.001 -0.000715996 0.000586607 -0.001 -0.000602797 0.000651965 -0.001 
-0.000489599 0.000717321 -0.001 -0.000376401 0.000782678 -0.001 -0.000263202 0.000848036 -0.001 
-0.000150004 0.000913393 -0.001 -0.000835948 0.000469948 -0.001 -0.000866 -0.000326786 -0.001 
-0.000866 -0.000196071 -0.001 -0.000866 -6.53571e-05 -0.001 -0.000866 6.53571e-05 -0.001 
-0.000866 0.000196071 -0.001 -0.000866 0.000326786 -0.001 -0.000835948 -0.000469948 -0.001 
-0.000150004 -0.000913393 -0.001 -0.000263202 -0.000848036 -0.001 -0.000376401 -0.000782678 -0.001 
-0.000489599 -0.000717321 -0.001 -0.000602797 -0.000651965 -0.001 -0.000715996 -0.000586607 -0.001 
8.47648e-17 -0.0009575 -0.001 0.000715996 -0.000586607 -0.001 0.000602797 -0.000651965 -0.001 
0.000489599 -0.000717321 -0.001 0.000376401 -0.000782678 -0.001 0.000263202 -0.000848036 -0.001 
0.000150004 -0.000913393 -0.001 0.000829194 -0.00047875 -0.001 0.000866 0.000326786 -0.001 
0.000866 0.000196071 -0.001 0.000866 6.53571e-05 -0.001 0.000866 -6.53571e-05 -0.001 
0.000866 -0.000196071 -0.001 0.000866 -0.000326786 -0.001 0.000829194 0.00047875 -0.001 
0.000150004 0.000913393 -0.001 0.000263202 0.000848036 -0.001 0.000376401 0.000782678 -0.001 
0.000489599 0.000717321 -0.001 0.000602797 0.000651965 -0.001 0.000715996 0.000586607 -0.001 
5.29966e-05 6.64557e-05 -0.001 -1.89143e-05 8.28689e-05 -0.001 -7.65824e-05 3.68801e-05 -0.001 
-7.65824e-05 -3.68801e-05 -0.001 -1.89143e-05 -8.28689e-05 -0.001 5.29966e-05 -6.64557e-05 -0.001 
0.000131234 6.38474e-05 0 0.00012964 -6.2443e-05 0 3.13827e-05 0.0001394 0 
3.12554e-05 -0.000136939 0 -0.000140461 8.25467e-19 0 -8.90565e-05 -0.000102707 0 
-9.04142e-05 0.000102872 0 -0.000765769 -0.00025965 0 -0.000756873 0.000262774 0 
-0.00015609 0.000787505 0 -0.000155807 -0.00079355 0 0.000605069 0.000528035 0 
0.000608694 -0.00052497 0 0.000744069 0.000116929 0 -0.000494418 0.000596218 0 
-0.000483866 -0.000584648 0 0.000269496 0.000702219 0 0.000263201 -0.000717324 0 
0.000754429 -0.000127825 0 -0.000748858 5.84659e-07 0 -0.000747838 0.000373886 0 
-0.0006542 0.000324842 0 -0.000645137 0.000210123 0 -0.000550884 0.000274171 0 
-0.000538857 0.000163195 0 -0.00045062 0.000224461 0 -0.000438393 0.000123907 0 
-0.000354088 0.000181668 0 -0.000363908 0.000282171 0 -0.000270361 0.000239477 0 
-0.000279138 0.000337653 0 -0.000188888 0.000294791 0 -0.000196448 0.000393271 0 
-0.000104767 0.000348259 0 -0.000113332 0.000449012 0 -2.01066e-05 0.000403223 0 
-2.89189e-05 0.000507105 0 6.9524e-05 0.000461596 0 -0.000213644 0.000490203 0 
7.33757e-05 0.000357726 0 0.000163331 0.00041299 0 0.000163359 0.000313022 0 
0.000248077 0.000366368 0 0.000250914 0.000265758 0 0.000335709 0.000322266 0 
0.000340555 0.000218148 0 0.000427299 0.000276717 0 0.000431508 0.000173093 0 
0.000328731 0.000425633 0 0.00034586 0.000114823 0 0.000435362 7.05241e-05 0 
0.000350892 1.5455e-05 0 0.000441547 -3.11896e-05 0 0.000353547 -8.47783e-05 0 
0.000445767 -0.000132964 0 0.000356135 -0.000186358 0 0.000449094 -0.000234674 0 
0.000359978 -0.000287876 0 0.00026856 -0.000240545 0 0.000271895 -0.000341045 0 
0.000181792 -0.00029305 0 0.00018533 -0.000392851 0 9.75701e-05 -0.00034483 0 
9.98764e-05 -0.000444884 0 8.75116e-06 -0.000396343 0 1.20916e-05 -0.000500496 0 
-7.83929e-05 -0.000449843 0 -8.1471e-05 -0.000347249 0 -0.000171566 -0.000403733 0 
-0.000169889 -0.000298891 0 -0.000259867 -0.000354132 0 -0.000257696 -0.000249137 0 
-0.00034313 -0.000299896 0 -0.000344514 -0.000199127 0 -0.000434309 -0.000250039 0 
-0.000169832 -0.000505815 0 -0.000435227 -0.000146227 0 0.000280331 -0.000442424 0 
-0.000340889 8.76793e-05 0 -0.000515252 4.06198e-05 0 6.50491e-05 0.000568253 0 
0.00053278 1.74743e-05 0 0.000522071 0.000229831 0 -0.00037162 0.000391659 0 
-0.000255272 -0.000150439 0 -0.000442893 -0.000350705 0 0.000450067 -0.000332559 0 
0.000545175 -0.000276306 0 -0.000527797 -0.000197598 0 0.000105306 -0.000551033 0 
1.45836e-05 -0.000609147 0 0.00017145 0.000214453 0 0.000515525 0.000341711 0 
0.000636086 0.000290368 0 -0.000558657 0.000404468 0 -4.01232e-05 0.000616718 0 
6.60192e-05 0.000696422 0 -0.000101806 0.0002546 0 0.000271142 -3.88908e-05 0 
0.000179455 -0.00018534 0 -8.79553e-05 -0.000254307 0 -0.000749267 -0.000373451 0 
-0.000655941 -0.000323397 0 0.000709746 0.000466718 0 0.000698426 -0.000473086 0 
-5.25801e-05 -0.00084886 0 -4.93005e-05 0.000848038 0 0.000617396 -0.000413362 0 
0.000702056 -0.000369817 0 0.000131459 -0.000679171 0 2.48171e-05 -0.000715924 0 
-0.000664217 -0.00042729 0 -0.000528828 -8.80444e-05 0 -0.000611101 -0.000136672 0 
-0.000426972 -4.45841e-05 0 0.000800669 0.000378216 0 0.000821144 -0.000415062 0 
7.2799e-05 0.00088254 0 6.81831e-05 -0.00087503 0 0.000104963 -0.000788946 0 
-7.40696e-05 -0.000660054 0 0.000126061 0.000809943 0 0.000764361 0.000295682 0 
0.000166862 0.000630623 0 0.000516462 -0.00046707 0 -0.000563585 -0.000389606 0 
-0.000622598 -1.40238e-05 0 0.000629891 0.000171529 0 2.5614e-06 -0.000299794 0 
8.6901e-05 -0.00024329 0 0.000272045 -0.000136982 0 -0.00075148 0.000138321 0 
0.000209366 -0.000599589 0 0.000324913 -0.000630055 0 0.000614044 0.00041245 0 
0.00049651 -0.000573327 0 0.000394822 -0.000507321 0 -0.000173714 -0.000206698 0 
0.000264897 5.63722e-05 0 0.000247997 0.000152811 0 -4.63327e-05 -0.000920208 0 
9.18688e-05 0.000258626 0 -5.54111e-06 0.000290558 0 -0.000184219 0.000201484 0 
-0.000263559 0.000142267 0 -0.000256427 5.13624e-05 0 -0.000336894 -2.06179e-06 0 
-0.000228499 -4.2388e-05 0 -0.00017589 0.000106626 0 -0.000769947 -0.000133367 0 
0.000767591 -0.000500293 0 -5.05874e-05 0.000737978 0 0.000754456 -3.51771e-06 0 
0.00064691 -6.15298e-05 0 0.000630483 -0.00018134 0 0.000749187 -0.000265543 0 
-0.000760805 -0.000462521 0 0.000638155 6.09315e-05 0 -4.46661e-05 0.000922995 0 
-2.37945e-05 0.000207237 0 0.000776979 0.000500181 0 -0.000605691 0.000527596 0 
-0.000377914 -0.000653727 0 -0.000372325 -0.000526022 0 -0.000275829 -0.000589621 0 
-0.000254285 -0.000710579 0 -0.000379307 0.000656222 0 -0.000379818 0.00052718 0 
-0.000266817 0.000721555 0 -0.000150544 0.000668174 0 0.000381963 0.00065079 0 
0.000493113 0.000590432 0 0.000505439 0.000463708 0 -0.000269094 0.000596608 0 
0.000385815 0.000532045 0 0.000283599 0.0005899 0 -0.000176405 -0.000108505 0 
-0.000278769 -0.000475415 0 0.000185395 2.33014e-06 0 0.000186773 0.000517571 0 
0.000540032 -8.68444e-05 0 -0.000600694 -0.000514877 0 -0.00063703 8.98033e-05 0 
-0.000459677 0.000335729 0 -0.000338836 -0.000100751 0 -0.000457327 0.000432721 0 
-8.72007e-06 -0.000210238 0 0.000156073 0.000129496 0 -7.70692e-05 -0.000555049 0 
0.00036091 -0.000389728 0 0.000531628 0.000120564 0 -0.000285451 0.000435562 0 
0.000192719 -0.000494604 0 0.00041642 0.00039368 0 -0.000135943 0.000554637 0 
-0.000170665 -0.000610079 0 -0.000666304 0.000434981 0 -0.000758736 0.000479231 0 
-0.000470189 -0.000458901 0 0.000203433 -8.59809e-05 0 0.000101846 0.000170114 0 
-0.00035513 -0.00040726 0 0.000100184 -0.000165831 0 2.96286e-05 0.00081537 0 
0.000720946 0.000381836 0 -0.000539809 -0.000292001 0 0.00052211 -0.000182426 0 
-6.41339e-05 -0.000753908 0 0.000638039 -0.000299861 0 -0.000605136 -0.000230182 0 
-3.41638e-05 -0.000145561 0 -0.000104037 0.000172396 0 -0.000808575 -0.00042774 0 
-0.000807207 -0.000465052 0 -0.00080817 0.000429771 0 -0.000806589 0.000469738 0 
-9.50634e-05 -0.000178909 0 0.000247777 0.000445058 0 1.48293e-05 -0.000814201 0 
-4.11555e-05 0.000140955 0 0.000276104 -0.000536845 0 0.000765969 -0.000436638 0 
0.000780871 -0.000362769 0 0.000424176 -0.000642018 0 0.00053413 -0.000368009 0 
-0.000416333 4.17911e-05 0 -0.000133891 -6.23822e-05 0 4.2574e-05 0.000206312 0 
0.000141163 -0.000121542 0 0.000707423 0.000212137 0 0.000172327 0.000723882 0 
7.72652e-06 -0.00090254 0 -0.000134435 5.66935e-05 0 -0.000188826 3.70894e-05 0 
0.000197119 8.09714e-05 0 1.27801e-05 0.000917296 0 0.000800767 0.00044758 0 
-0.000686682 0.000507104 0 9.35831e-05 0.000110457 0 -0.000696793 -0.000509595 0 
-0.00068446 -8.52012e-05 0 -0.000691033 -0.000201242 0 5.24052e-05 -0.000189075 0 
-0.000151818 -0.000701092 0 -0.000296988 0.000518087 0 9.31023e-05 -0.000108117 0 
0.00044261 -0.000416726 0 0.000197044 -0.000784423 0 -0.000516861 0.000504567 0 
0.000298997 0.000502377 0 0.000131234 6.38474e-05 -0.001 0.00012964 -6.2443e-05 -0.001 
3.13827e-05 0.0001394 -0.001 3.12554e-05 -0.000136939 -0.001 -0.000140461 8.25467e-19 -0.001 
-8.90565e-05 -0.000102707 -0.001 -9.04142e-05 0.000102872 -0.001 -0.000765769 -0.00025965 -0.001 
-0.000756873 0.000262774 -0.001 -0.00015609 0.000787505 -0.001 -0.000155807 -0.00079355 -0.001 
0.000605069 0.000528035 -0.001 0.000608694 -0.00052497 -0.001 0.000744069 0.000116929 -0.001 
-0.000494418 0.000596218 -0.001 -0.000483866 -0.000584648 -0.001 0.000269496 0.000702219 -0.001 
0.000263201 -0.000717324 -0.001 0.000754429 -0.000127825 -0.001 -0.000748858 5.84659e-07 -0.001 
-0.000747838 0.000373886 -0.001 -0.0006542 0.000324842 -0.001 -0.000645137 0.000210123 -0.001 
-0.000550884 0.000274171 -0.001 -0.000538857 0.000163195 -0.001 -0.00045062 0.000224461 -0.001 
-0.000438393 0.000123907 -0.001 -0.000354088 0.000181668 -0.001 -0.000363908 0.000282171 -0.001 
-0.000270361 0.000239477 -0.001 -0.000279138 0.000337653 -0.001 -0.000188888 0.000294791 -0.001 
-0.000196448 0.000393271 -0.001 -0.000104767 0.000348259 -0.001 -0.000113332 0.000449012 -0.001 
-2.01066e-05 0.000403223 -0.001 -2.89189e-05 0.000507105 -0.001 6.9524e-05 0.000461596 -0.001 
-0.000213644 0.000490203 -0.001 7.33757e-05 0.000357726 -0.001 0.000163331 0.00041299 -0.001 
0.000163359 0.000313022 -0.001 0.000248077 0.000366368 -0.001 0.000250914 0.000265758 -0.001 
0.000335709 0.000322266 -0.001 0.000340555 0.000218148 -0.001 0.000427299 0.000276717 -0.001 
0.000431508 0.000173093 -0.001 0.000328731 0.000425633 -0.001 0.00034586 0.000114823 -0.001 
0.000435362 7.05241e-05 -0.001 0.000350892 1.5455e-05 -0.001 0.000441547 -3.11896e-05 -0.001 
0.000353547 -8.47783e-05 -0.001 0.000445767 -0.000132964 -0.001 0.000356135 -0.000186358 -0.001 
0.000449094 -0.000234674 -0.001 0.000359978 -0.000287876 -0.001 0.00026856 -0.000240545 -0.001 
0.000271895 -0.000341045 -0.001 0.000181792 -0.00029305 -0.001 0.00018533 -0.000392851 -0.001 
9.75701e-05 -0.00034483 -0.001 9.98764e-05 -0.000444884 -0.001 8.75116e-06 -0.000396343 -0.001 
1.20916e-05 -0.000500496 -0.001 -7.83929e-05 -0.000449843 -0.001 -8.1471e-05 -0.000347249 -0.001 
-0.000171566 -0.000403733 -0.001 -0.000169889 -0.000298891 -0.001 -0.000259867 -0.000354132 -0.001 
-0.000257696 -0.000249137 -0.001 -0.00034313 -0.000299896 -0.001 -0.000344514 -0.000199127 -0.001 
-0.000434309 -0.000250039 -0.001 -0.000169832 -0.000505815 -0.001 -0.000435227 -0.000146227 -0.001 
0.000280331 -0.000442424 -0.001 -0.000340889 8.76793e-05 -0.001 -0.000515252 4.06198e-05 -0.001 
6.50491e-05 0.000568253 -0.001 0.00053278 1.74743e-05 -0.001 0.000522071 0.000229831 -0.001 
-0.00037162 0.000391659 -0.001 -0.000255272 -0.000150439 -0.001 -0.000442893 -0.000350705 -0.001 
0.000450067 -0.000332559 -0.001 0.000545175 -0.000276306 -0.001 -0.000527797 -0.000197598 -0.001 
0.000105306 -0.000551033 -0.001 1.45836e-05 -0.000609147 -0.001 0.00017145 0.000214453 -0.001 
0.000515525 0.000341711 -0.001 0.000636086 0.000290368 -0.001 -0.000558657 0.000404468 -0.001 
-4.01232e-05 0.000616718 -0.001 6.60192e-05 0.000696422 -0.001 -0.000101806 0.0002546 -0.001 
0.000271142 -3.88908e-05 -0.001 0.000179455 -0.00018534 -0.001 -8.79553e-05 -0.000254307 -0.001 
-0.000749267 -0.000373451 -0.001 -0.000655941 -0.000323397 -0.001 0.000709746 0.000466718 -0.001 
0.000698426 -0.000473086 -0.001 -5.25801e-05 -0.00084886 -0.001 -4.93005e-05 0.000848038 -0.001 
0.000617396 -0.000413362 -0.001 0.000702056 -0.000369817 -0.001 0.000131459 -0.000679171 -0.001 
2.48171e-05 -0.000715924 -0.001 -0.000664217 -0.00042729 -0.001 -0.000528828 -8.80444e-05 -0.001 
-0.000611101 -0.000136672 -0.001 -0.000426972 -4.45841e-05 -0.001 0.000800669 0.000378216 -0.001 
0.000821144 -0.000415062 -0.001 7.2799e-05 0.00088254 -0.001 6.81831e-05 -0.00087503 -0.001 
0.000104963 -0.000788946 -0.001 -7.40696e-05 -0.000660054 -0.001 0.000126061 0.000809943 -0.001 
0.000764361 0.000295682 -0.001 0.000166862 0.000630623 -0.001 0.000516462 -0.00046707 -0.001 
-0.000563585 -0.000389606 -0.001 -0.000622598 -1.40238e-05 -0.001 0.000629891 0.000171529 -0.001 
2.5614e-06 -0.000299794 -0.001 8.6901e-05 -0.00024329 -0.001 0.000272045 -0.000136982 -0.001 
-0.00075148 0.000138321 -0.001 0.000209366 -0.000599589 -0.001 0.000324913 -0.000630055 -0.001 
0.000614044 0.00041245 -0.001 0.00049651 -0.000573327 -0.001 0.000394822 -0.000507321 -0.001 
-0.000173714 -0.000206698 -0.001 0.000264897 5.63722e-05 -0.001 0.000247997 0.000152811 -0.001 
-4.63327e-05 -0.000920208 -0.001 9.18688e-05 0.000258626 -0.001 -5.54111e-06 0.000290558 -0.001 
-0.000184219 0.000201484 -0.001 -0.000263559 0.000142267 -0.001 -0.000256427 5.13624e-05 -0.001 
-0.000336894 -2.06179e-06 -0.001 -0.000228499 -4.2388e-05 -0.001 -0.00017589 0.000106626 -0.001 
-0.000769947 -0.000133367 -0.001 0.000767591 -0.000500293 -0.001 -5.05874e-05 0.000737978 -0.001 
0.000754456 -3.51771e-06 -0.001 0.00064691 -6.15298e-05 -0.001 0.000630483 -0.00018134 -0.001 
0.000749187 -0.000265543 -0.001 -0.000760805 -0.000462521 -0.001 0.000638155 6.09315e-05 -0.001 
-4.46661e-05 0.000922995 -0.001 -2.37945e-05 0.000207237 -0.001 0.000776979 0.000500181 -0.001 
-0.000605691 0.000527596 -0.001 -0.000377914 -0.000653727 -0.001 -0.000372325 -0.000526022 -0.001 
-0.000275829 -0.000589621 -0.001 -0.000254285 -0.000710579 -0.001 -0.000379307 0.000656222 -0.001 
-0.000379818 0.00052718 -0.001 -0.000266817 0.000721555 -0.001 -0.000150544 0.000668174 -0.001 
0.000381963 0.00065079 -0.001 0.000493113 0.000590432 -0.001 0.000505439 0.000463708 -0.001 
-0.000269094 0.000596608 -0.001 0.000385815 0.000532045 -0.001 0.000283599 0.0005899 -0.001 
-0.000176405 -0.000108505 -0.001 -0.000278769 -0.000475415 -0.001 0.000185395 2.33014e-06 -0.001 
0.000186773 0.000517571 -0.001 0.000540032 -8.68444e-05 -0.001 -0.000600694 -0.000514877 -0.001 
-0.00063703 8.98033e-05 -0.001 -0.000459677 0.000335729 -0.001 -0.000338836 -0.000100751 -0.001 
-0.000457327 0.000432721 -0.001 -8.72007e-06 -0.000210238 -0.001 0.000156073 0.000129496 -0.001 
-7.70692e-05 -0.000555049 -0.001 0.00036091 -0.000389728 -0.001 0.000531628 0.000120564 -0.001 
-0.000285451 0.000435562 -0.001 0.000192719 -0.000494604 -0.001 0.00041642 0.00039368 -0.001 
-0.000135943 0.000554637 -0.001 -0.000170665 -0.000610079 -0.001 -0.000666304 0.000434981 -0.001 
-0.000758736 0.000479231 -0.001 -0.000470189 -0.000458901 -0.001 0.000203433 -8.59809e-05 -0.001 
0.000101846 0.000170114 -0.001 -0.00035513 -0.00040726 -0.001 0.000100184 -0.000165831 -0.001 
2.96286e-05 0.00081537 -0.001 0.000720946 0.000381836 -0.001 -0.000539809 -0.000292001 -0.001 
0.00052211 -0.000182426 -0.001 -6.41339e-05 -0.000753908 -0.001 0.000638039 -0.000299861 -0.001 
-0.000605136 -0.000230182 -0.001 -3.41638e-05 -0.000145561 -0.001 -0.000104037 0.000172396 -0.001 
-0.000808575 -0.00042774 -0.001 -0.000807207 -0.000465052 -0.001 -0.00080817 0.000429771 -0.001 
-0.000806589 0.000469738 -0.001 -9.50634e-05 -0.000178909 -0.001 0.000247777 0.000445058 -0.001 
1.48293e-05 -0.000814201 -0.001 -4.11555e-05 0.000140955 -0.001 0.000276104 -0.000536845 -0.001 
0.000765969 -0.000436638 -0.001 0.000780871 -0.000362769 -0.001 0.000424176 -0.000642018 -0.001 
0.00053413 -0.000368009 -0.001 -0.000416333 4.17911e-05 -0.001 -0.000133891 -6.23822e-05 -0.001 
4.2574e-05 0.000206312 -0.001 0.000141163 -0.000121542 -0.001 0.000707423 0.000212137 -0.001 
0.000172327 0.000723882 -0.001 7.72652e-06 -0.00090254 -0.001 -0.000134435 5.66935e-05 -0.001 
-0.000188826 3.70894e-05 -0.001 0.000197119 8.09714e-05 -0.001 1.27801e-05 0.000917296 -0.001 
0.000800767 0.00044758 -0.001 -0.000686682 0.000507104 -0.001 9.35831e-05 0.000110457 -0.001 
-0.000696793 -0.000509595 -0.001 -0.00068446 -8.52012e-05 -0.001 -0.000691033 -0.000201242 -0.001 
5.24052e-05 -0.000189075 -0.001 -0.000151818 -0.000701092 -0.001 -0.000296988 0.000518087 -0.001 
9.31023e-05 -0.000108117 -0.001 0.00044261 -0.000416726 -0.001 0.000197044 -0.000784423 -0.001 
-0.000516861 0.000504567 -0.001 0.000298997 0.000502377 -0.001 

CELLS 563 3941
6 14 304 127 29 554 377 
6 143 259 55 393 509 103 
6 300 319 174 550 569 424 
6 259 349 55 509 599 103 
6 50 365 307 98 615 557 
6 299 320 164 549 570 414 
6 126 304 14 376 554 29 
6 298 319 300 548 569 550 
6 205 240 238 455 490 488 
6 257 308 145 507 558 395 
6 130 352 273 380 602 523 
6 295 320 299 545 570 549 
6 324 327 289 574 577 539 
6 235 258 143 485 508 393 
6 50 307 49 98 557 97 
6 207 283 279 457 533 529 
6 143 373 235 393 623 485 
6 145 308 252 395 558 502 
6 194 303 196 444 553 446 
6 279 306 207 529 556 457 
6 206 305 163 456 555 413 
6 51 357 9 99 607 24 
6 238 252 205 488 502 455 
6 293 317 209 543 567 459 
6 207 316 283 457 566 533 
6 142 301 249 392 551 499 
6 273 359 130 523 609 380 
6 211 327 324 461 577 574 
6 169 265 217 419 515 467 
6 7 365 50 22 615 98 
6 283 316 253 533 566 503 
6 159 268 223 409 518 473 
6 274 337 132 524 587 382 
6 232 361 329 482 611 579 
6 231 266 45 481 516 93 
6 229 362 330 479 612 580 
6 9 244 57 24 494 105 
6 230 276 52 480 526 100 
6 209 311 293 459 561 543 
6 131 342 302 381 592 552 
6 270 271 204 520 521 454 
6 66 243 1 114 493 16 
6 59 241 12 107 491 27 
6 280 306 279 530 556 529 
6 269 337 274 519 587 524 
6 179 256 224 429 506 474 
6 163 305 166 413 555 416 
6 201 303 194 451 553 444 
6 280 332 306 530 582 556 
6 186 255 225 436 505 475 
6 210 310 273 460 560 523 
6 153 270 204 403 520 454 
6 136 231 45 386 481 93 
6 171 265 169 421 515 419 
6 138 230 52 388 480 100 
6 225 354 325 475 604 575 
6 36 284 232 84 534 482 
6 161 268 159 411 518 409 
6 71 286 229 119 536 479 
6 290 303 201 540 553 451 
6 139 355 60 389 605 108 
6 60 355 248 108 605 498 
6 273 352 302 523 602 552 
6 235 373 245 485 623 495 
6 67 356 247 115 606 497 
6 221 295 277 471 545 527 
6 142 356 67 392 606 115 
6 139 283 253 389 533 503 
6 203 315 262 453 565 512 
6 41 257 145 89 507 395 
6 36 232 135 84 482 385 
6 71 229 137 119 479 387 
6 254 255 188 504 505 438 
6 233 350 334 483 600 584 
6 262 346 203 512 596 453 
6 304 325 127 554 575 377 
6 222 329 247 472 579 497 
6 218 298 260 468 548 510 
6 290 321 291 540 571 541 
6 272 310 240 522 560 490 
6 269 274 270 519 524 520 
6 244 245 57 494 495 105 
6 49 307 141 97 557 391 
6 225 325 256 475 575 506 
6 273 310 272 523 560 522 
6 312 368 255 562 618 505 
6 249 305 206 499 555 456 
6 228 331 251 478 581 501 
6 302 342 263 552 592 513 
6 338 339 44 588 589 92 
6 190 254 188 440 504 438 
6 37 341 340 85 591 590 
6 138 233 230 388 483 480 
6 228 335 331 478 585 581 
6 181 256 179 431 506 429 
6 195 263 226 445 513 476 
6 268 285 223 518 535 473 
6 290 291 288 540 541 538 
6 219 330 248 469 580 498 
6 201 321 290 451 571 540 
6 240 310 202 490 560 452 
6 188 255 186 438 505 436 
6 270 274 271 520 524 521 
6 262 349 259 512 599 509 
6 141 324 289 391 574 539 
6 296 301 142 546 551 392 
6 247 356 222 497 606 472 
6 239 252 238 489 502 488 
6 254 312 255 504 562 505 
6 54 261 53 102 511 101 
6 289 327 303 539 577 553 
6 268 353 285 518 603 535 
6 273 302 210 523 552 460 
6 292 299 293 542 549 543 
6 278 283 139 528 533 389 
6 175 265 171 425 515 421 
6 227 338 38 477 588 86 
6 264 360 265 514 610 515 
6 43 340 146 91 590 396 
6 165 268 161 415 518 411 
6 205 351 240 455 601 490 
6 64 281 63 112 531 111 
6 288 291 47 538 541 95 
6 135 295 294 385 545 544 
6 42 257 41 90 507 89 
6 245 373 57 495 623 105 
6 31 363 323 79 613 573 
6 292 293 140 542 543 390 
6 267 353 268 517 603 518 
6 155 270 153 405 520 403 
6 244 344 245 494 594 495 
6 61 278 139 109 528 389 
6 135 294 35 385 544 83 
6 69 297 296 117 547 546 
6 186 225 184 436 475 434 
6 329 361 243 579 611 493 
6 255 328 225 505 578 475 
6 213 332 280 463 582 530 
6 39 275 133 87 525 383 
6 330 362 241 580 612 491 
6 195 226 193 445 476 443 
6 211 324 251 461 574 501 
6 151 153 152 401 403 402 
6 295 299 294 545 549 544 
6 265 313 217 515 563 467 
6 258 259 143 508 509 393 
6 251 331 211 501 581 461 
6 149 151 150 399 401 400 
6 293 370 317 543 620 567 
6 153 204 152 403 454 402 
6 151 152 150 401 402 400 
6 33 292 140 81 542 390 
6 210 263 197 460 513 447 
6 301 305 249 551 555 499 
6 298 300 297 548 550 547 
6 68 296 142 116 546 392 
6 321 369 291 571 619 541 
6 179 224 177 429 474 427 
6 167 267 165 417 517 415 
6 259 346 262 509 596 512 
6 303 327 196 553 577 446 
6 269 270 155 519 520 405 
6 265 360 313 515 610 563 
6 223 269 157 473 519 407 
6 157 269 155 407 519 405 
6 144 279 278 394 529 528 
6 169 217 167 419 467 417 
6 177 264 175 427 514 425 
6 267 268 165 517 518 415 
6 159 223 157 409 473 407 
6 232 277 135 482 527 385 
6 193 254 190 443 504 440 
6 217 267 167 467 517 417 
6 249 356 142 499 606 392 
6 184 256 181 434 506 431 
6 248 355 219 498 605 469 
6 229 260 137 479 510 387 
6 149 150 148 399 400 398 
6 64 348 281 112 598 531 
6 311 374 293 561 624 543 
6 264 265 175 514 515 425 
6 297 300 296 547 550 546 
6 141 289 288 391 539 538 
6 197 263 195 447 513 445 
6 218 260 219 468 510 469 
6 224 264 177 474 514 427 
6 137 298 297 387 548 547 
6 277 295 135 527 545 385 
6 133 228 227 383 478 477 
6 261 349 262 511 599 512 
6 221 277 222 471 527 472 
6 256 325 224 506 575 474 
6 199 210 197 449 460 447 
6 226 254 193 476 504 443 
6 144 278 62 394 528 110 
6 279 283 278 529 533 528 
6 289 290 288 539 540 538 
6 137 297 70 387 547 118 
6 34 294 292 82 544 542 
6 235 236 216 485 486 466 
6 141 288 48 391 538 96 
6 178 306 180 428 556 430 
6 185 186 184 435 436 434 
6 63 281 144 111 531 394 
6 225 256 184 475 506 434 
6 46 291 136 94 541 386 
6 147 149 148 397 399 398 
6 271 272 204 521 522 454 
6 233 334 234 483 584 484 
6 145 275 40 395 525 88 
6 220 322 287 470 572 537 
6 280 334 213 530 584 463 
6 144 280 279 394 530 529 
6 140 287 32 390 537 80 
6 154 155 153 404 405 403 
6 334 350 213 584 600 463 
6 176 177 175 426 427 425 
6 260 298 137 510 548 387 
6 33 140 32 81 390 80 
6 49 141 48 97 391 96 
6 56 143 55 104 393 103 
6 68 142 67 116 392 115 
6 63 144 62 111 394 110 
6 61 139 60 109 389 108 
6 148 308 257 398 558 507 
6 71 137 70 119 387 118 
6 53 138 52 101 388 100 
6 46 136 45 94 386 93 
6 36 135 35 84 385 83 
6 43 146 134 91 396 384 
6 133 227 38 383 477 86 
6 192 193 190 442 443 440 
6 293 374 140 543 624 390 
6 34 292 33 82 542 81 
6 207 306 178 457 556 428 
6 43 134 42 91 384 90 
6 39 133 38 87 383 86 
6 41 145 40 89 395 88 
6 194 195 193 444 445 443 
6 69 296 68 117 546 116 
6 294 299 292 544 549 542 
6 173 175 171 423 425 421 
6 260 330 219 510 580 469 
6 183 184 181 433 434 431 
6 134 257 42 384 507 90 
6 55 349 54 103 599 102 
6 163 165 161 413 415 411 
6 166 167 165 416 417 415 
6 210 302 263 460 552 513 
6 271 273 272 521 523 522 
6 53 261 138 101 511 388 
6 217 326 267 467 576 517 
6 289 303 290 539 553 540 
6 178 179 177 428 429 427 
6 238 240 202 488 490 452 
6 62 278 61 110 528 109 
6 35 294 34 83 544 82 
6 284 361 232 534 611 482 
6 70 297 69 118 547 117 
6 224 304 264 474 554 514 
6 156 157 155 406 407 405 
6 48 288 47 96 538 95 
6 221 320 295 471 570 545 
6 187 188 186 437 438 436 
6 47 291 46 95 541 94 
6 151 154 153 401 404 403 
6 286 362 229 536 612 479 
6 168 169 167 418 419 417 
6 40 275 39 88 525 87 
6 307 324 141 557 574 391 
6 300 301 296 550 551 546 
6 32 287 31 80 537 79 
6 147 220 149 397 470 399 
6 333 344 231 583 594 481 
6 299 370 293 549 620 543 
6 271 359 273 521 609 523 
6 224 325 304 474 575 554 
6 228 237 227 478 487 477 
6 305 375 343 555 625 593 
6 218 319 298 468 569 548 
6 240 351 272 490 601 522 
6 277 329 222 527 579 472 
6 253 355 139 503 605 389 
6 158 159 157 408 409 407 
6 236 246 216 486 496 466 
6 192 194 193 442 444 443 
6 220 309 149 470 559 399 
6 183 185 184 433 435 434 
6 196 197 195 446 447 445 
6 276 347 58 526 597 106 
6 136 333 231 386 583 481 
6 67 247 66 115 497 114 
6 60 248 59 108 498 107 
6 261 262 250 511 512 500 
6 173 176 175 423 426 425 
6 344 357 231 594 607 481 
6 144 281 280 394 531 530 
6 152 205 150 402 455 400 
6 163 166 165 413 416 415 
6 185 187 186 435 437 436 
6 233 234 230 483 484 480 
6 170 171 169 420 421 419 
6 146 147 134 396 397 384 
6 176 178 177 426 428 427 
6 285 337 223 535 587 473 
6 154 156 155 404 406 405 
6 263 342 226 513 592 476 
6 235 245 236 485 495 486 
6 160 161 159 410 411 409 
6 58 347 242 106 597 492 
6 166 168 167 416 418 417 
6 287 374 220 537 624 470 
6 189 190 188 439 440 438 
6 148 257 134 398 507 384 
6 194 196 195 444 446 445 
6 252 308 205 502 558 455 
6 285 345 337 535 595 587 
6 301 375 305 551 625 555 
6 180 181 179 430 431 429 
6 281 348 234 531 598 484 
6 198 199 197 448 449 447 
6 151 309 154 401 559 404 
6 228 367 335 478 617 585 
6 54 349 261 102 599 511 
6 156 158 157 406 408 407 
6 168 170 169 418 420 419 
6 200 202 199 450 452 449 
6 147 148 134 397 398 384 
6 158 160 159 408 410 409 
6 150 308 148 400 558 398 
6 253 316 208 503 566 458 
6 232 329 277 482 579 527 
6 178 180 179 428 430 429 
6 191 192 190 441 442 440 
6 214 238 202 464 488 452 
6 172 173 171 422 423 421 
6 187 189 188 437 439 438 
6 162 163 161 412 413 411 
6 228 251 237 478 501 487 
6 215 258 235 465 508 485 
6 182 183 181 432 433 431 
6 202 310 199 452 560 449 
6 219 253 208 469 503 458 
6 222 249 206 472 499 456 
6 196 198 197 446 448 447 
6 229 330 260 479 580 510 
6 132 358 274 382 608 524 
6 149 309 151 399 559 401 
6 226 312 254 476 562 504 
6 154 309 209 404 559 459 
6 77 129 76 125 379 124 
6 73 128 72 121 378 120 
6 76 131 75 124 381 123 
6 74 132 73 122 382 121 
6 75 130 74 123 380 122 
6 14 127 77 29 377 125 
6 72 126 14 120 376 29 
6 133 367 228 383 617 478 
6 237 282 227 487 532 477 
6 239 366 252 489 616 502 
6 200 214 202 450 464 452 
6 192 201 194 442 451 444 
6 170 172 171 420 422 421 
6 220 311 309 470 561 559 
6 198 200 199 448 450 449 
6 189 191 190 439 441 440 
6 146 323 322 396 573 572 
6 160 162 161 410 412 411 
6 251 307 237 501 557 487 
6 199 310 210 449 560 460 
6 57 373 56 105 623 104 
6 214 239 238 464 489 488 
6 182 212 183 432 462 433 
6 180 182 181 430 432 431 
6 146 322 147 396 572 397 
6 172 218 208 422 468 458 
6 172 208 173 422 458 423 
6 162 221 206 412 471 456 
6 162 206 163 412 456 413 
6 176 207 178 426 457 428 
6 272 351 204 522 601 454 
6 198 211 200 448 461 450 
6 182 213 212 432 463 462 
6 234 334 281 484 584 531 
6 154 209 156 404 459 406 
6 185 203 187 435 453 437 
6 168 174 170 418 424 420 
6 189 215 191 439 465 441 
6 215 216 191 465 466 441 
6 221 222 206 471 472 456 
6 158 164 160 408 414 410 
6 218 219 208 468 469 458 
6 205 308 150 455 558 400 
6 191 314 192 441 564 442 
6 215 235 216 465 485 466 
6 215 318 258 465 568 508 
6 152 351 205 402 601 455 
6 138 261 250 388 511 500 
6 192 314 201 442 564 451 
6 234 347 230 484 597 480 
6 226 342 312 476 592 562 
6 138 250 233 388 500 483 
6 147 322 220 397 572 470 
6 216 314 191 466 564 441 
6 306 332 180 556 582 430 
6 222 356 249 472 606 499 
6 128 345 285 378 595 535 
6 314 321 201 564 571 451 
6 212 315 183 462 565 433 
6 312 342 336 562 592 586 
6 282 339 338 532 589 588 
6 340 341 323 590 591 573 
6 309 311 209 559 561 459 
6 183 315 185 433 565 435 
6 208 316 173 458 566 423 
6 173 316 176 423 566 426 
6 3 341 37 18 591 85 
6 44 339 6 92 589 21 
6 252 366 145 502 616 395 
6 246 321 314 496 571 564 
6 246 314 216 496 564 466 
6 126 364 313 376 614 563 
6 156 317 158 406 567 408 
6 275 367 133 525 617 383 
6 176 316 207 426 566 457 
6 185 315 203 435 565 453 
6 180 332 182 430 582 432 
6 302 352 131 552 602 381 
6 251 324 307 501 574 557 
6 187 318 189 437 568 439 
6 172 319 218 422 569 468 
6 162 320 221 412 570 471 
6 305 343 166 555 593 416 
6 170 319 172 420 569 422 
6 158 317 164 408 567 414 
6 209 317 156 459 567 406 
6 285 353 128 535 603 378 
6 223 337 269 473 587 519 
6 160 320 162 410 570 412 
6 211 331 200 461 581 450 
6 174 319 170 424 569 420 
6 203 318 187 453 568 437 
6 189 318 215 439 568 465 
6 198 327 211 448 577 461 
6 164 320 160 414 570 410 
6 326 353 267 576 603 517 
6 236 344 333 486 594 583 
6 196 327 198 446 577 448 
6 219 355 253 469 605 503 
6 281 334 280 531 584 530 
6 274 359 271 524 609 521 
6 164 370 299 414 620 549 
6 174 375 300 424 625 550 
6 287 363 31 537 613 79 
6 243 361 1 493 611 16 
6 241 362 12 491 612 27 
6 307 365 237 557 615 487 
6 166 343 168 416 593 418 
6 200 331 214 450 581 464 
6 313 326 217 563 576 467 
6 9 357 244 24 607 494 
6 1 361 30 16 611 78 
6 12 362 65 27 612 113 
6 337 345 132 587 595 382 
6 242 348 64 492 598 112 
6 231 357 266 481 607 516 
6 182 332 213 432 582 463 
6 245 344 236 495 594 486 
6 258 346 259 508 596 509 
6 145 366 275 395 616 525 
6 291 369 136 541 619 386 
6 236 333 246 486 583 496 
6 331 335 214 581 585 464 
6 312 336 129 562 586 379 
6 315 372 262 565 622 512 
6 220 374 311 470 624 561 
6 140 374 287 390 624 537 
6 126 360 304 376 610 554 
6 230 347 276 480 597 526 
6 313 364 326 563 614 576 
6 56 373 143 104 623 393 
6 239 367 366 489 617 616 
6 204 351 152 454 601 402 
6 300 375 301 550 625 551 
6 214 335 239 464 585 489 
6 247 329 243 497 579 493 
6 262 372 250 512 622 500 
6 248 330 241 498 580 491 
6 318 346 258 568 596 508 
6 333 369 246 583 619 496 
6 282 338 227 532 588 477 
6 146 340 323 396 590 573 
6 304 360 264 554 610 514 
6 366 367 275 616 617 525 
6 129 336 76 379 586 124 
6 73 345 128 121 595 378 
6 76 336 131 124 586 381 
6 250 350 233 500 600 483 
6 129 371 328 379 621 578 
6 132 345 73 382 595 121 
6 168 343 174 418 593 424 
6 131 352 75 381 602 123 
6 66 247 243 114 497 493 
6 59 248 241 107 498 491 
6 74 358 132 122 608 382 
6 203 346 318 453 596 568 
6 313 360 126 563 610 376 
6 128 364 72 378 614 120 
6 128 353 326 378 603 576 
6 77 371 129 125 621 379 
6 129 368 312 379 618 562 
6 244 357 344 494 607 594 
6 328 354 225 578 604 475 
6 326 364 128 576 614 378 
6 75 352 130 123 602 380 
6 350 372 212 600 622 462 
6 136 369 333 386 619 583 
6 325 354 127 575 604 377 
6 213 350 212 463 600 462 
6 130 358 74 380 608 122 
6 250 372 350 500 622 600 
6 317 370 164 567 620 414 
6 72 364 126 120 614 376 
6 328 368 129 578 618 379 
6 127 371 77 377 621 125 
6 336 342 131 586 592 381 
6 212 372 315 462 622 565 
6 234 348 347 484 598 597 
6 8 266 51 23 516 99 
6 10 276 58 25 526 106 
6 246 369 321 496 619 571 
6 30 284 0 78 534 15 
6 65 286 13 113 536 28 
6 58 242 11 106 492 26 
6 266 357 51 516 607 99 
6 255 368 328 505 618 578 
6 347 348 242 597 598 492 
6 322 363 287 572 613 537 
6 323 363 322 573 613 572 
6 335 367 239 585 617 489 
6 30 361 284 78 611 534 
6 65 362 286 113 612 536 
6 237 365 282 487 615 532 
6 130 359 358 380 609 608 
6 343 375 174 593 625 424 
6 354 371 127 604 621 377 
6 328 371 354 578 621 604 
6 358 359 274 608 609 524 
6 0 284 36 15 534 84 
6 45 266 8 93 516 23 
6 52 276 10 100 526 25 
6 11 242 64 26 492 112 
6 13 286 71 28 536 119 
6 2 323 3 17 573 18 
6 31 323 2 79 573 17 
6 323 341 3 573 591 18 
6 37 340 4 85 590 19 
6 4 340 43 19 590 91 
6 38 338 5 86 588 20 
6 5 338 44 20 588 92 
6 6 282 7 21 532 22 
6 6 339 282 21 589 532 
6 282 365 7 532 615 22 

CELL_TYPES 563
13
13
13
13
13
13
13
13
13
13
13
13
13
13
13
13
13
13
13
13
13
13
13
13
13
13
13
13
13
13
13
13
13
13
13
13
13
13
13
13
13
13
13
13
13
13
13
13
13
13
13
13
13
13
13
13
13
13
13
13
13
13
13
13
13
13
13
13
13
13
13
13
13
13
13
13
13
13
13
13
13
13
13
13
13
13
13
13
13
13
13
13
13
13
13
13
13
13
13
13
13
13
13
13
13
13
13
13
13
13
13
13
13
13
13
13
13
13
13
13
13
13
13
13
13
13
13
13
13
13
13
13
13
13
13
13
13
13
13
13
13
13
13
13
13
13
13
13
13
13
13
13
13
13
13
13
13
13
13
13
13
13
13
13
13
13
13
13
13
13
13
13
13
13
13
13
13
13
13
13
13
13
13
13
13
13
13
13
13
13
13
13
13
13
13
13
13
13
13
13
13
13
13
13
13
13
13
13
13
13
13
13
13
13
13
13
13
13
13
13
13
13
13
13
13
13
13
13
13
13
13
13
13
13
13
13
13
13
13
13
13
13
13
13
13
13
13
13
13
13
13
13
13
13
13
13
13
13
13
13
13
13
13
13
13
13
13
13
13
13
13
13
13
13
13
13
13
13
13
13
13
13
13
13
13
13
13
13
13
13
13
13
13
13
13
13
13
13
13
13
13
13
13
13
13
13
13
13
13
13
13
13
13
13
13
13
13
13
13
13
13
13
13
13
13
13
13
13
13
13
13
13
13
13
13
13
13
13
13
13
13
13
13
13
13
13
13
13
13
13
13
13
13
13
13
13
13
13
13
13
13
13
13
13
13
13
13
13
13
13
13
13
13
13
13
13
13
13
13
13
13
13
13
13
13
13
13
13
13
13
13
13
13
13
13
13
13
13
13
13
13
13
13
13
13
13
13
13
13
13
13
13
13
13
13
13
13
13
13
13
13
13
13
13
13
13
13
13
13
13
13
13
13
13
13
13
13
13
13
13
13
13
13
13
13
13
13
13
13
13
13
13
13
13
13
13
13
13
13
13
13
13
13
13
13
13
13
13
13
13
13
13
13
13
13
13
13
13
13
13
13
13
13
13
13
13
13
13
13
13
13
13
13
13
13
13
13
13
13
13
13
13
13
13
13
13
13
13
13
13
13
13
13
13
13
13
13
13
13
13
13
13
13
13
13
13
13
13
13
13
13
13
13
13
13
13
13
13
13
13
13
13
13
13
13
13
13
13
13
13
13
13
13
13
13
13
13
13
13
13
13
13
13

POINT_DATA 626
VECTORS displacement float
-1.74392e-06 3.09593e-05 1.80572e-05
1.73561e-06 3.09783e-05 1.81023e-05
-2.59905e-05 1.69952e-05 1.80893e-05
-2.5845e-05 1.60354e-05 1.80539e-05
-2.77248e-05 1.39752e-05 1.80713e-05
-2.77178e-05 -1.40215e-05 1.80967e-05
-2.58162e-05 -1.60735e-05 1.81081e-05
-2.59867e-05 -1.70133e-05 1.81692e-05
-1.67738e-06 -3.0963e-05 1.80537e-05
1.75542e-06 -3.09645e-05 1.81041e-05
2.59478e-05 -1.69831e-05 1.80457e-05
2.77212e-05 -1.39391e-05 1.80456e-05
2.76766e-05 1.39919e-05 1.80939e-05
2.59192e-05 1.69954e-05 1.80483e-05
0 0 0
-1.74392e-06 3.09593e-05 -1.80572e-05
1.73561e-06 3.09783e-05 -1.81023e-05
-2.59905e-05 1.69952e-05 -1.80893e-05
-2.5845e-05 1.60354e-05 -1.80539e-05
-2.77248e-05 1.39752e-05 -1.80713e-05
-2.77178e-05 -1.40215e-05 -1.80967e-05
-2.58162e-05 -1.60735e-05 -1.81081e-05
-2.59867e-05 -1.70133e-05 -1.81692e-05
-1.67738e-06 -3.0963e-05 -1.80537e-05
1.75542e-06 -3.09645e-05 -1.81041e-05
2.59478e-05 -1.69831e-05 -1.80457e-05
2.77212e-05 -1.39391e-05 -1.80456e-05
2.76766e-05 1.39919e-05 -1.80939e-05
2.59192e-05 1.69954e-05 -1.80483e-05
0 0 0
2.48738e-08 3.01591e-05 1.80364e-05
-2.11447e-05 1.87152e-05 1.75522e-05
-1.72361e-05 1.98373e-05 1.69235e-05
-1.40098e-05 2.10583e-05 1.65578e-05
-1.1209e-05 2.26693e-05 1.65517e-05
-8.52535e-06 2.48377e-05 1.69041e-05
-5.56828e-06 2.76267e-05 1.75399e-05
-2.64539e-05 1.46815e-05 1.80357e-05
-2.67732e-05 -9.01359e-06 1.75798e-05
-2.5811e-05 -5.0368e-06 1.69287e-05
-2.52594e-05 -1.63666e-06 1.65743e-05
-2.52624e-05 1.60829e-06 1.65772e-05
-2.58033e-05 5.02419e-06 1.69269e-05
-2.67594e-05 8.98667e-06 1.75664e-05
-2.64408e-05 -1.47278e-05 1.80645e-05
-5.54153e-06 -2.76411e-05 1.75321e-05
-8.47787e-06 -2.48467e-05 1.69034e-05
-1.11722e-05 -2.26888e-05 1.6559e-05
-1.39735e-05 -2.10913e-05 1.65624e-05
-1.72185e-05 -1.98727e-05 1.69394e-05
-2.11382e-05 -1.8752e-05 1.75647e-05
8.98127e-08 -3.01438e-05 1.80316e-05
2.1128e-05 -1.86277e-05 1.75139e-05
1.72482e-05 -1.97657e-05 1.68756e-05
1.40367e-05 -2.10152e-05 1.65145e-05
1.12271e-05 -2.25975e-05 1.6549e-05
8.58248e-06 -2.47849e-05 1.68769e-05
5.65512e-06 -2.76314e-05 1.75374e-05
2.61287e-05 -1.5062e-05 1.80306e-05
2.67213e-05 8.94049e-06 1.7504e-05
2.57269e-05 5.05092e-06 1.69111e-05
2.52115e-05 1.62378e-06 1.65261e-05
2.52086e-05 -1.59988e-06 1.65244e-05
2.57555e-05 -4.99871e-06 1.68911e-05
2.67034e-05 -8.91923e-06 1.75121e-05
2.61117e-05 1.50632e-05 1.80276e-05
5.63357e-06 2.76227e-05 1.7512e-05
8.50986e-06 2.48116e-05 1.69139e-05
1.12191e-05 2.26455e-05 1.65322e-05
1.40074e-05 2.10262e-05 1.65276e-05
1.72252e-05 1.97969e-05 1.68878e-05
2.1119e-05 1.86373e-05 1.75278e-05
0 0 0
0 0 0
0 0 0
0 0 0
0 0 0
0 0 0
2.48738e-08 3.01591e-05 -1.80364e-05
-2.11447e-05 1.87152e-05 -1.75522e-05
-1.72361e-05 1.98373e-05 -1.69235e-05
-1.40098e-05 2.10583e-05 -1.65578e-05
-1.1209e-05 2.26693e-05 -1.65517e-05
-8.52535e-06 2.48377e-05 -1.69041e-05
-5.56828e-06 2.76267e-05 -1.75399e-05
-2.64539e-05 1.46815e-05 -1.80357e-05
-2.67732e-05 -9.01359e-06 -1.75798e-05
-2.5811e-05 -5.0368e-06 -1.69287e-05
-2.52594e-05 -1.63666e-06 -1.65743e-05
-2.52624e-05 1.60829e-06 -1.65772e-05
-2.58033e-05 5.02419e-06 -1.69269e-05
-2.67594e-05 8.98667e-06 -1.75664e-05
-2.64408e-05 -1.47278e-05 -1.80645e-05
-5.54153e-06 -2.76411e-05 -1.75321e-05
-8.47787e-06 -2.48467e-05 -1.69034e-05
-1.11722e-05 -2.26888e-05 -1.6559e-05
-1.39735e-05 -2.10913e-05 -1.65624e-05
-1.72185e-05 -1.98727e-05 -1.69394e-05
-2.11382e-05 -1.8752e-05 -1.75647e-05
8.98127e-08 -3.01438e-05 -1.80316e-05
2.1128e-05 -1.86277e-05 -1.75139e-05
1.72482e-05 -1.97657e-05 -1.68756e-05
1.40367e-05 -2.10152e-05 -1.65145e-05
1.12271e-05 -2.25975e-05 -1.6549e-05
8.58248e-06 -2.47849e-05 -1.68769e-05
5.65512e-06 -2.76314e-05 -1.75374e-05
2.61287e-05 -1.5062e-05 -1.80306e-05
2.67213e-05 8.94049e-06 -1.7504e-05
2.57269e-05 5.05092e-06 -1.69111e-05
2.52115e-05 1.62378e-06 -1.65261e-05
2.52086e-05 -1.59988e-06 -1.65244e-05
2.57555e-05 -4.99871e-06 -1.68911e-05
2.67034e-05 -8.91923e-06 -1.75121e-05
2.61117e-05 1.50632e-05 -1.80276e-05
5.63357e-06 2.76227e-05 -1.7512e-05
8.50986e-06 2.48116e-05 -1.69139e-05
1.12191e-05 2.26455e-05 -1.65322e-05
1.40074e-05 2.10262e-05 -1.65276e-05
1.72252e-05 1.97969e-05 -1.68878e-05
2.1119e-05 1.86373e-05 -1.75278e-05
0 0 0
0 0 0
0 0 0
0 0 0
0 0 0
0 0 0
1.79394e-06 8.58871e-07 4.55313e-06
1.73807e-06 -8.25234e-07 4.46166e-06
4.32016e-07 1.84989e-06 4.49598e-06
4.3616e-07 -1.78088e-06 4.35692e-06
-1.84775e-06 2.09671e-08 4.42321e-06
-1.12325e-06 -1.30906e-06 4.15179e-06
-1.15937e-06 1.30698e-06 4.20058e-06
-2.25172e-05 -7.28921e-06 1.70025e-05
-2.22005e-05 7.3731e-06 1.69712e-05
-4.86119e-06 2.29028e-05 1.69396e-05
-4.85869e-06 -2.3136e-05 1.69665e-05
1.74246e-05 1.56383e-05 1.69325e-05
1.75722e-05 -1.55392e-05 1.69417e-05
2.10776e-05 3.16459e-06 1.63272e-05
-1.39559e-05 1.71545e-05 1.64812e-05
-1.35939e-05 -1.67444e-05 1.64127e-05
7.76928e-06 1.98234e-05 1.6334e-05
7.68625e-06 -2.0314e-05 1.64053e-05
2.14765e-05 -3.44451e-06 1.6403e-05
-2.11069e-05 6.58824e-09 1.62495e-05
-2.24243e-05 1.10018e-05 1.7456e-05
-1.87544e-05 9.25645e-06 1.66297e-05
-1.79862e-05 5.7966e-06 1.6039e-05
-1.49868e-05 7.44977e-06 1.5489e-05
-1.42272e-05 4.30856e-06 1.48324e-05
-1.15348e-05 5.745e-06 1.40973e-05
-1.08601e-05 3.06932e-06 1.33761e-05
-8.40208e-06 4.30569e-06 1.24067e-05
-9.06055e-06 7.01475e-06 1.34589e-05
-6.20527e-06 5.48953e-06 1.16912e-05
-6.82962e-06 8.25103e-06 1.30824e-05
-4.2822e-06 6.67615e-06 1.14527e-05
-4.80094e-06 9.61178e-06 1.30964e-05
-2.40133e-06 7.99484e-06 1.17252e-05
-2.8134e-06 1.11694e-05 1.34774e-05
-4.75506e-07 9.59712e-06 1.25033e-05
-7.38504e-07 1.29994e-05 1.41443e-05
1.73141e-06 1.152e-05 1.35375e-05
-5.53578e-06 1.27029e-05 1.44396e-05
1.68539e-06 8.22552e-06 1.17498e-05
4.00495e-06 1.01228e-05 1.31534e-05
3.70604e-06 7.09928e-06 1.14804e-05
6.06857e-06 8.96841e-06 1.31158e-05
5.7679e-06 6.10794e-06 1.17378e-05
8.3597e-06 8.02188e-06 1.34945e-05
8.10719e-06 5.19626e-06 1.25027e-05
1.09561e-05 7.09843e-06 1.41495e-05
1.0748e-05 4.32364e-06 1.35016e-05
8.5322e-06 1.10397e-05 1.44634e-05
7.93918e-06 2.64424e-06 1.17296e-05
1.06481e-05 1.73754e-06 1.31065e-05
7.95017e-06 3.58828e-07 1.14578e-05
1.08085e-05 -7.59259e-07 1.31266e-05
8.11317e-06 -1.93817e-06 1.17113e-05
1.11004e-05 -3.3135e-06 1.34864e-05
8.47135e-06 -4.42482e-06 1.24464e-05
1.15059e-05 -6.00405e-06 1.4112e-05
8.9573e-06 -7.13949e-06 1.34306e-05
6.14867e-06 -5.49545e-06 1.16435e-05
6.64578e-06 -8.30247e-06 1.30207e-05
4.10597e-06 -6.58974e-06 1.13131e-05
4.52423e-06 -9.55272e-06 1.29908e-05
2.24271e-06 -7.85976e-06 1.15996e-05
2.48531e-06 -1.1004e-05 1.33535e-05
2.25329e-07 -9.37547e-06 1.23559e-05
3.3007e-07 -1.27723e-05 1.40364e-05
-1.91581e-06 -1.11529e-05 1.33795e-05
-1.84142e-06 -7.9231e-06 1.15844e-05
-4.16871e-06 -9.87676e-06 1.30875e-05
-3.81466e-06 -6.73176e-06 1.13193e-05
-6.34686e-06 -8.6637e-06 1.31018e-05
-5.89241e-06 -5.69908e-06 1.16306e-05
-8.50137e-06 -7.43724e-06 1.33822e-05
-8.16911e-06 -4.72896e-06 1.2411e-05
-1.10978e-05 -6.40401e-06 1.40725e-05
-4.37252e-06 -1.31258e-05 1.44363e-05
-1.08109e-05 -3.65139e-06 1.34417e-05
7.22754e-06 -1.1375e-05 1.42756e-05
-7.74316e-06 1.98306e-06 1.14951e-05
-1.32187e-05 1.03526e-06 1.42136e-05
1.72945e-06 1.50858e-05 1.49549e-05
1.37708e-05 4.62332e-07 1.43905e-05
1.38459e-05 6.10131e-06 1.49344e-05
-9.69598e-06 1.01983e-05 1.45352e-05
-5.417e-06 -3.19823e-06 1.01841e-05
-1.17159e-05 -9.29915e-06 1.48919e-05
1.18847e-05 -8.76193e-06 1.47899e-05
1.47847e-05 -7.47508e-06 1.54061e-05
-1.39625e-05 -5.24493e-06 1.48644e-05
2.79636e-06 -1.4519e-05 1.47989e-05
4.24631e-07 -1.65026e-05 1.54005e-05
3.51906e-06 4.39773e-06 9.58302e-06
1.40133e-05 9.30088e-06 1.54943e-05
1.79342e-05 8.14657e-06 1.63033e-05
-1.56785e-05 1.13975e-05 1.62362e-05
-1.0943e-06 1.67724e-05 1.5498e-05
1.90718e-06 1.96254e-05 1.63137e-05
-2.09225e-06 5.22102e-06 9.59952e-06
5.55494e-06 -7.84745e-07 9.59607e-06
3.58659e-06 -3.68422e-06 9.0838e-06
-1.77996e-06 -5.1795e-06 9.4515e-06
-2.24728e-05 -1.10129e-05 1.74768e-05
-1.88017e-05 -9.2432e-06 1.66537e-05
2.11517e-05 1.41672e-05 1.75081e-05
2.07576e-05 -1.43201e-05 1.7438e-05
-1.76481e-06 -2.54511e-05 1.75134e-05
-1.68233e-06 2.54151e-05 1.7518e-05
1.77164e-05 -1.19091e-05 1.66898e-05
2.06495e-05 -1.07531e-05 1.71185e-05
3.77632e-06 -1.89889e-05 1.61422e-05
7.68642e-07 -2.03497e-05 1.64855e-05
-1.94087e-05 -1.26528e-05 1.71457e-05
-1.37338e-05 -2.30738e-06 1.44746e-05
-1.6596e-05 -3.70218e-06 1.54804e-05
-1.03778e-05 -1.0966e-06 1.29546e-05
2.44563e-05 1.10749e-05 1.7654e-05
2.55018e-05 -1.24055e-05 1.78505e-05
2.64947e-06 2.67307e-05 1.76629e-05
2.52121e-06 -2.64183e-05 1.76318e-05
3.33994e-06 -2.30362e-05 1.70317e-05
-2.05428e-06 -1.83234e-05 1.59536e-05
4.05962e-06 2.37958e-05 1.7133e-05
2.26183e-05 8.38099e-06 1.71219e-05
4.61447e-06 1.73168e-05 1.57301e-05
1.44298e-05 -1.3122e-05 1.61401e-05
-1.57907e-05 -1.09868e-05 1.62173e-05
-1.68031e-05 -3.81509e-07 1.53802e-05
1.73093e-05 4.68843e-06 1.57285e-05
6.55308e-08 -6.38847e-06 1.02695e-05
1.74202e-06 -4.84931e-06 9.0943e-06
5.85153e-06 -2.93605e-06 1.03802e-05
-2.14483e-05 3.75133e-06 1.64616e-05
5.73046e-06 -1.62777e-05 1.55105e-05
9.08524e-06 -1.75025e-05 1.60004e-05
1.75755e-05 1.18839e-05 1.66749e-05
1.3997e-05 -1.63854e-05 1.6404e-05
1.07421e-05 -1.37917e-05 1.55529e-05
-3.5486e-06 -4.22094e-06 9.50266e-06
5.40007e-06 1.1387e-06 9.50095e-06
5.21899e-06 3.22345e-06 1.00492e-05
-1.7499e-06 -2.83592e-05 1.78791e-05
1.89239e-06 5.29983e-06 9.58636e-06
-1.13847e-07 6.1061e-06 1.00407e-05
-3.78559e-06 4.12847e-06 9.58031e-06
-5.62369e-06 3.03473e-06 1.02873e-05
-5.16637e-06 1.04086e-06 9.21544e-06
-7.52863e-06 -6.1751e-08 1.11746e-05
-4.3351e-06 -8.10413e-07 8.38351e-06
-3.1091e-06 1.87264e-06 7.37551e-06
-2.20854e-05 -3.60857e-06 1.65186e-05
2.34102e-05 -1.56904e-05 1.78384e-05
-1.50745e-06 2.11719e-05 1.66847e-05
2.12658e-05 -8.45387e-08 1.62286e-05
1.76255e-05 -1.64714e-06 1.55843e-05
1.73511e-05 -4.94266e-06 1.57735e-05
2.18956e-05 -7.45264e-06 1.69162e-05
-2.31861e-05 -1.42569e-05 1.7835e-05
1.7328e-05 1.64921e-06 1.55114e-05
-1.73411e-06 2.84778e-05 1.78964e-05
-4.22142e-07 3.68402e-06 7.49678e-06
2.3776e-05 1.57448e-05 1.78868e-05
-1.75007e-05 1.5645e-05 1.69776e-05
-1.06283e-05 -1.84697e-05 1.62579e-05
-1.01016e-05 -1.43451e-05 1.55745e-05
-7.50925e-06 -1.6098e-05 1.56249e-05
-7.32348e-06 -2.01244e-05 1.63981e-05
-1.07066e-05 1.85389e-05 1.62696e-05
-1.03494e-05 1.43869e-05 1.56222e-05
-7.77406e-06 2.04964e-05 1.6447e-05
-4.25377e-06 1.86133e-05 1.60557e-05
1.07618e-05 1.8349e-05 1.6229e-05
1.38944e-05 1.69381e-05 1.64338e-05
1.40447e-05 1.29754e-05 1.6054e-05
-7.36302e-06 1.62915e-05 1.56413e-05
1.05272e-05 1.45499e-05 1.56481e-05
7.75026e-06 1.60955e-05 1.56168e-05
-3.11698e-06 -1.89908e-06 7.39464e-06
-7.25908e-06 -1.24244e-05 1.46279e-05
3.00914e-06 4.03668e-08 6.60227e-06
4.87352e-06 1.35254e-05 1.46209e-05
1.40788e-05 -2.26084e-06 1.45732e-05
-1.72931e-05 -1.52194e-05 1.69481e-05
-1.73699e-05 2.4208e-06 1.56006e-05
-1.22071e-05 8.91366e-06 1.49462e-05
-7.70707e-06 -2.29295e-06 1.1557e-05
-1.24522e-05 1.18149e-05 1.55428e-05
-1.4276e-07 -3.75485e-06 7.55568e-06
2.73068e-06 2.27245e-06 7.25337e-06
-2.00426e-06 -1.46533e-05 1.48108e-05
9.36693e-06 -1.00702e-05 1.43921e-05
1.38635e-05 3.15844e-06 1.45689e-05
-7.34149e-06 1.12016e-05 1.4263e-05
4.9982e-06 -1.27773e-05 1.4372e-05
1.1034e-05 1.04326e-05 1.49224e-05
-3.59715e-06 1.46882e-05 1.49108e-05
-4.63637e-06 -1.66201e-05 1.55516e-05
-1.95107e-05 1.28947e-05 1.71638e-05
-2.31309e-05 1.48606e-05 1.78457e-05
-1.29075e-05 -1.26885e-05 1.58153e-05
3.76143e-06 -1.58639e-06 7.90853e-06
1.76468e-06 2.92276e-06 7.08584e-06
-9.23231e-06 -1.06116e-05 1.45346e-05
1.72802e-06 -2.82362e-06 6.93244e-06
9.94842e-07 2.41213e-05 1.7311e-05
2.13718e-05 1.11959e-05 1.73012e-05
-1.46675e-05 -7.95493e-06 1.54881e-05
1.37108e-05 -4.78727e-06 1.46934e-05
-1.9102e-06 -2.17671e-05 1.68054e-05
1.80639e-05 -8.42072e-06 1.63435e-05
-1.66822e-05 -6.32982e-06 1.57852e-05
-4.32967e-07 -1.92261e-06 4.79941e-06
-1.80567e-06 2.99594e-06 7.17861e-06
-2.50561e-05 -1.29841e-05 1.79246e-05
-2.51313e-05 -1.45096e-05 1.80044e-05
-2.50493e-05 1.3036e-05 1.79084e-05
-2.51222e-05 1.46523e-05 1.79844e-05
-1.64873e-06 -3.12536e-06 7.21135e-06
6.3292e-06 1.13707e-05 1.40793e-05
5.33761e-07 -2.40905e-05 1.73048e-05
-5.22858e-07 1.80982e-06 4.64592e-06
7.40894e-06 -1.43466e-05 1.51553e-05
2.33069e-05 -1.32117e-05 1.77312e-05
2.36368e-05 -1.05396e-05 1.74933e-05
1.19908e-05 -1.82146e-05 1.62962e-05
1.4733e-05 -1.01486e-05 1.57984e-05
-1.0029e-05 1.00144e-06 1.27572e-05
-1.74028e-06 -8.16026e-07 4.72438e-06
7.69192e-07 3.70898e-06 7.57466e-06
2.34346e-06 -1.99748e-06 6.5566e-06
2.01604e-05 5.89907e-06 1.64564e-05
5.07097e-06 2.06e-05 1.64988e-05
3.42126e-07 -2.76848e-05 1.78564e-05
-1.73149e-06 7.09219e-07 4.60723e-06
-3.21204e-06 6.23149e-07 6.8255e-06
3.57782e-06 1.47566e-06 7.63816e-06
4.99242e-07 2.83286e-05 1.79296e-05
2.47645e-05 1.37364e-05 1.79207e-05
-2.03322e-05 1.55384e-05 1.74316e-05
1.17889e-06 1.36468e-06 4.46073e-06
-2.06435e-05 -1.5731e-05 1.75301e-05
-1.90027e-05 -2.32268e-06 1.59491e-05
-1.9563e-05 -5.58615e-06 1.63351e-05
9.05831e-07 -3.24829e-06 7.00751e-06
-4.36682e-06 -1.97932e-05 1.63247e-05
-7.93889e-06 1.38372e-05 1.5104e-05
1.16593e-06 -1.30438e-06 4.34015e-06
1.19368e-05 -1.12306e-05 1.5295e-05
6.13403e-06 -2.27005e-05 1.68233e-05
-1.45251e-05 1.43581e-05 1.63265e-05
7.93067e-06 1.33239e-05 1.49509e-05
1.79394e-06 8.58871e-07 -4.55313e-06
1.73807e-06 -8.25234e-07 -4.46166e-06
4.32016e-07 1.84989e-06 -4.49598e-06
4.3616e-07 -1.78088e-06 -4.35692e-06
-1.84775e-06 2.09671e-08 -4.42321e-06
-1.12325e-06 -1.30906e-06 -4.15179e-06
-1.15937e-06 1.30698e-06 -4.20058e-06
-2.25172e-05 -7.28921e-06 -1.70025e-05
-2.22005e-05 7.3731e-06 -1.69712e-05
-4.86119e-06 2.29028e-05 -1.69396e-05
-4.85869e-06 -2.3136e-05 -1.69665e-05
1.74246e-05 1.56383e-05 -1.69325e-05
1.75722e-05 -1.55392e-05 -1.69417e-05
2.10776e-05 3.16459e-06 -1.63272e-05
-1.39559e-05 1.71545e-05 -1.64812e-05
-1.35939e-05 -1.67444e-05 -1.64127e-05
7.76928e-06 1.98234e-05 -1.6334e-05
7.68625e-06 -2.0314e-05 -1.64053e-05
2.14765e-05 -3.44451e-06 -1.6403e-05
-2.11069e-05 6.58824e-09 -1.62495e-05
-2.24243e-05 1.10018e-05 -1.7456e-05
-1.87544e-05 9.25645e-06 -1.66297e-05
-1.79862e-05 5.7966e-06 -1.6039e-05
-1.49868e-05 7.44977e-06 -1.5489e-05
-1.42272e-05 4.30856e-06 -1.48324e-05
-1.15348e-05 5.745e-06 -1.40973e-05
-1.08601e-05 3.06932e-06 -1.33761e-05
-8.40208e-06 4.30569e-06 -1.24067e-05
-9.06055e-06 7.01475e-06 -1.34589e-05
-6.20527e-06 5.48953e-06 -1.16912e-05
-6.82962e-06 8.25103e-06 -1.30824e-05
-4.2822e-06 6.67615e-06 -1.14527e-05
-4.80094e-06 9.61178e-06 -1.30964e-05
-2.40133e-06 7.99484e-06 -1.17252e-05
-2.8134e-06 1.11694e-05 -1.34774e-05
-4.75506e-07 9.59712e-06 -1.25033e-05
-7.38504e-07 1.29994e-05 -1.41443e-05
1.73141e-06 1.152e-05 -1.35375e-05
-5.53578e-06 1.27029e-05 -1.44396e-05
1.68539e-06 8.22552e-06 -1.17498e-05
4.00495e-06 1.01228e-05 -1.31534e-05
3.70604e-06 7.09928e-06 -1.14804e-05
6.06857e-06 8.96841e-06 -1.31158e-05
5.7679e-06 6.10794e-06 -1.17378e-05
8.3597e-06 8.02188e-06 -1.34945e-05
8.10719e-06 5.19626e-06 -1.25027e-05
1.09561e-05 7.09843e-06 -1.41495e-05
1.0748e-05 4.32364e-06 -1.35016e-05
8.5322e-06 1.10397e-05 -1.44634e-05
7.93918e-06 2.64424e-06 -1.17296e-05
1.06481e-05 1.73754e-06 -1.31065e-05
7.95017e-06 3.58828e-07 -1.14578e-05
1.08085e-05 -7.59259e-07 -1.31266e-05
8.11317e-06 -1.93817e-06 -1.17113e-05
1.11004e-05 -3.3135e-06 -1.34864e-05
8.47135e-06 -4.42482e-06 -1.24464e-05
1.15059e-05 -6.00405e-06 -1.4112e-05
8.9573e-06 -7.13949e-06 -1.34306e-05
6.14867e-06 -5.49545e-06 -1.16435e-05
6.64578e-06 -8.30247e-06 -1.30207e-05
4.10597e-06 -6.58974e-06 -1.13131e-05
4.52423e-06 -9.55272e-06 -1.29908e-05
2.24271e-06 -7.85976e-06 -1.15996e-05
2.48531e-06 -1.1004e-05 -1.33535e-05
2.25329e-07 -9.37547e-06 -1.23559e-05
3.3007e-07 -1.27723e-05 -1.40364e-05
-1.91581e-06 -1.11529e-05 -1.33795e-05
-1.84142e-06 -7.9231e-06 -1.15844e-05
-4.16871e-06 -9.87676e-06 -1.30875e-05
-3.81466e-06 -6.73176e-06 -1.13193e-05
-6.34686e-06 -8.6637e-06 -1.31018e-05
-5.89241e-06 -5.69908e-06 -1.16306e-05
-8.50137e-06 -7.43724e-06 -1.33822e-05
-8.16911e-06 -4.72896e-06 -1.2411e-05
-1.10978e-05 -6.40401e-06 -1.40725e-05
-4.37252e-06 -1.31258e-05 -1.44363e-05
-1.08109e-05 -3.65139e-06 -1.34417e-05
7.22754e-06 -1.1375e-05 -1.42756e-05
-7.74316e-06 1.98306e-06 -1.14951e-05
-1.32187e-05 1.03526e-06 -1.42136e-05
1.72945e-06 1.50858e-05 -1.49549e-05
1.37708e-05 4.62332e-07 -1.43905e-05
1.38459e-05 6.10131e-06 -1.49344e-05
-9.69598e-06 1.01983e-05 -1.45352e-05
-5.417e-06 -3.19823e-06 -1.01841e-05
-1.17159e-05 -9.29915e-06 -1.48919e-05
1.18847e-05 -8.76193e-06 -1.47899e-05
1.47847e-05 -7.47508e-06 -1.54061e-05
-1.39625e-05 -5.24493e-06 -1.48644e-05
2.79636e-06 -1.4519e-05 -1.47989e-05
4.24631e-07 -1.65026e-05 -1.54005e-05
3.51906e-06 4.39773e-06 -9.58302e-06
1.40133e-05 9.30088e-06 -1.54943e-05
1.79342e-05 8.14657e-06 -1.63033e-05
-1.56785e-05 1.13975e-05 -1.62362e-05
-1.0943e-06 1.67724e-05 -1.5498e-05
1.90718e-06 1.96254e-05 -1.63137e-05
-2.09225e-06 5.22102e-06 -9.59952e-06
5.55494e-06 -7.84745e-07 -9.59607e-06
3.58659e-06 -3.68422e-06 -9.0838e-06
-1.77996e-06 -5.1795e-06 -9.4515e-06
-2.24728e-05 -1.10129e-05 -1.74768e-05
-1.88017e-05 -9.2432e-06 -1.66537e-05
2.11517e-05 1.41672e-05 -1.75081e-05
2.07576e-05 -1.43201e-05 -1.7438e-05
-1.76481e-06 -2.54511e-05 -1.75134e-05
-1.68233e-06 2.54151e-05 -1.7518e-05
1.77164e-05 -1.19091e-05 -1.66898e-05
2.06495e-05 -1.07531e-05 -1.71185e-05
3.77632e-06 -1.89889e-05 -1.61422e-05
7.68642e-07 -2.03497e-05 -1.64855e-05
-1.94087e-05 -1.26528e-05 -1.71457e-05
-1.37338e-05 -2.30738e-06 -1.44746e-05
-1.6596e-05 -3.70218e-06 -1.54804e-05
-1.03778e-05 -1.0966e-06 -1.29546e-05
2.44563e-05 1.10749e-05 -1.7654e-05
2.55018e-05 -1.24055e-05 -1.78505e-05
2.64947e-06 2.67307e-05 -1.76629e-05
2.52121e-06 -2.64183e-05 -1.76318e-05
3.33994e-06 -2.30362e-05 -1.70317e-05
-2.05428e-06 -1.83234e-05 -1.59536e-05
4.05962e-06 2.37958e-05 -1.7133e-05
2.26183e-05 8.38099e-06 -1.71219e-05
4.61447e-06 1.73168e-05 -1.57301e-05
1.44298e-05 -1.3122e-05 -1.61401e-05
-1.57907e-05 -1.09868e-05 -1.62173e-05
-1.68031e-05 -3.81509e-07 -1.53802e-05
1.73093e-05 4.68843e-06 -1.57285e-05
6.55308e-08 -6.38847e-06 -1.02695e-05
1.74202e-06 -4.84931e-06 -9.0943e-06
5.85153e-06 -2.93605e-06 -1.03802e-05
-2.14483e-05 3.75133e-06 -1.64616e-05
5.73046e-06 -1.62777e-05 -1.55105e-05
9.08524e-06 -1.75025e-05 -1.60004e-05
1.75755e-05 1.18839e-05 -1.66749e-05
1.3997e-05 -1.63854e-05 -1.6404e-05
1.07421e-05 -1.37917e-05 -1.55529e-05
-3.5486e-06 -4.22094e-06 -9.50266e-06
5.40007e-06 1.1387e-06 -9.50095e-06
5.21899e-06 3.22345e-06 -1.00492e-05
-1.7499e-06 -2.83592e-05 -1.78791e-05
1.89239e-06 5.29983e-06 -9.58636e-06
-1.13847e-07 6.1061e-06 -1.00407e-05
-3.78559e-06 4.12847e-06 -9.58031e-06
-5.62369e-06 3.03473e-06 -1.02873e-05
-5.16637e-06 1.04086e-06 -9.21544e-06
-7.52863e-06 -6.1751e-08 -1.11746e-05
-4.3351e-06 -8.10413e-07 -8.38351e-06
-3.1091e-06 1.87264e-06 -7.37551e-06
-2.20854e-05 -3.60857e-06 -1.65186e-05
2.34102e-05 -1.56904e-05 -1.78384e-05
-1.50745e-06 2.11719e-05 -1.66847e-05
2.12658e-05 -8.45387e-08 -1.62286e-05
1.76255e-05 -1.64714e-06 -1.55843e-05
1.73511e-05 -4.94266e-06 -1.57735e-05
2.18956e-05 -7.45264e-06 -1.69162e-05
-2.31861e-05 -1.42569e-05 -1.7835e-05
1.7328e-05 1.64921e-06 -1.55114e-05
-1.73411e-06 2.84778e-05 -1.78964e-05
-4.22142e-07 3.68402e-06 -7.49678e-06
2.3776e-05 1.57448e-05 -1.78868e-05
-1.75007e-05 1.5645e-05 -1.69776e-05
-1.06283e-05 -1.84697e-05 -1.62579e-05
-1.01016e-05 -1.43451e-05 -1.55745e-05
-7.50925e-06 -1.6098e-05 -1.56249e-05
-7.32348e-06 -2.01244e-05 -1.63981e-05
-1.07066e-05 1.85389e-05 -1.62696e-05
-1.03494e-05 1.43869e-05 -1.56222e-05
-7.77406e-06 2.04964e-05 -1.6447e-05
-4.25377e-06 1.86133e-05 -1.60557e-05
1.07618e-05 1.8349e-05 -1.6229e-05
1.38944e-05 1.69381e-05 -1.64338e-05
1.40447e-05 1.29754e-05 -1.6054e-05
-7.36302e-06 1.62915e-05 -1.56413e-05
1.05272e-05 1.45499e-05 -1.56481e-05
7.75026e-06 1.60955e-05 -1.56168e-05
-3.11698e-06 -1.89908e-06 -7.39464e-06
-7.25908e-06 -1.24244e-05 -1.46279e-05
3.00914e-06 4.03668e-08 -6.60227e-06
4.87352e-06 1.35254e-05 -1.46209e-05
1.40788e-05 -2.26084e-06 -1.45732e-05
-1.72931e-05 -1.52194e-05 -1.69481e-05
-1.73699e-05 2.4208e-06 -1.56006e-05
-1.22071e-05 8.91366e-06 -1.49462e-05
-7.70707e-06 -2.29295e-06 -1.1557e-05
-1.24522e-05 1.18149e-05 -1.55428e-05
-1.4276e-07 -3.75485e-06 -7.55568e-06
2.73068e-06 2.27245e-06 -7.25337e-06
-2.00426e-06 -1.46533e-05 -1.48108e-05
9.36693e-06 -1.00702e-05 -1.43921e-05
1.38635e-05 3.15844e-06 -1.45689e-05
-7.34149e-06 1.12016e-05 -1.4263e-05
4.9982e-06 -1.27773e-05 -1.4372e-05
1.1034e-05 1.04326e-05 -1.49224e-05
-3.59715e-06 1.46882e-05 -1.49108e-05
-4.63637e-06 -1.66201e-05 -1.55516e-05
-1.95107e-05 1.28947e-05 -1.71638e-05
-2.31309e-05 1.48606e-05 -1.78457e-05
-1.29075e-05 -1.26885e-05 -1.58153e-05
3.76143e-06 -1.58639e-06 -7.90853e-06
1.76468e-06 2.92276e-06 -7.08584e-06
-9.23231e-06 -1.06116e-05 -1.45346e-05
1.72802e-06 -2.82362e-06 -6.93244e-06
9.94842e-07 2.41213e-05 -1.7311e-05
2.13718e-05 1.11959e-05 -1.73012e-05
-1.46675e-05 -7.95493e-06 -1.54881e-05
1.37108e-05 -4.78727e-06 -1.46934e-05
-1.9102e-06 -2.17671e-05 -1.68054e-05
1.80639e-05 -8.42072e-06 -1.63435e-05
-1.66822e-05 -6.32982e-06 -1.57852e-05
-4.32967e-07 -1.92261e-06 -4.79941e-06
-1.80567e-06 2.99594e-06 -7.17861e-06
-2.50561e-05 -1.29841e-05 -1.79246e-05
-2.51313e-05 -1.45096e-05 -1.80044e-05
-2.50493e-05 1.3036e-05 -1.79084e-05
-2.51222e-05 1.46523e-05 -1.79844e-05
-1.64873e-06 -3.12536e-06 -7.21135e-06
6.3292e-06 1.13707e-05 -1.40793e-05
5.33761e-07 -2.40905e-05 -1.73048e-05
-5.22858e-07 1.80982e-06 -4.64592e-06
7.40894e-06 -1.43466e-05 -1.51553e-05
2.33069e-05 -1.32117e-05 -1.77312e-05
2.36368e-05 -1.05396e-05 -1.74933e-05
1.19908e-05 -1.82146e-05 -1.62962e-05
1.4733e-05 -1.01486e-05 -1.57984e-05
-1.0029e-05 1.00144e-06 -1.27572e-05
-1.74028e-06 -8.16026e-07 -4.72438e-06
7.69192e-07 3.70898e-06 -7.57466e-06
2.34346e-06 -1.99748e-06 -6.5566e-06
2.01604e-05 5.89907e-06 -1.64564e-05
5.07097e-06 2.06e-05 -1.64988e-05
3.42126e-07 -2.76848e-05 -1.78564e-05
-1.73149e-06 7.09219e-07 -4.60723e-06
-3.21204e-06 6.23149e-07 -6.8255e-06
3.57782e-06 1.47566e-06 -7.63816e-06
4.99242e-07 2.83286e-05 -1.79296e-05
2.47645e-05 1.37364e-05 -1.79207e-05
-2.03322e-05 1.55384e-05 -1.74316e-05
1.17889e-06 1.36468e-06 -4.46073e-06
-2.06435e-05 -1.5731e-05 -1.75301e-05
-1.90027e-05 -2.32268e-06 -1.59491e-05
-1.9563e-05 -5.58615e-06 -1.63351e-05
9.05831e-07 -3.24829e-06 -7.00751e-06
-4.36682e-06 -1.97932e-05 -1.63247e-05
-7.93889e-06 1.38372e-05 -1.5104e-05
1.16593e-06 -1.30438e-06 -4.34015e-06
1.19368e-05 -1.12306e-05 -1.5295e-05
6.13403e-06 -2.27005e-05 -1.68233e-05
-1.45251e-05 1.43581e-05 -1.63265e-05
7.93067e-06 1.33239e-05 -1.49509e-05
SCALARS effective_fluid_pressure_TPM float
LOOKUP_TABLE default
665
665
665
665
665
665
665
665
665
665
665
665
665
665
133
665
665
665
665
665
665
665
665
665
665
665
665
665
665
133
665
560.376
520.741
502.891
502.662
519.868
559.996
665
562.042
520.836
503.333
503.443
520.768
561.664
665
559.663
519.739
502.836
503.053
521.237
561.68
665
558.92
519.084
501.625
502.321
518.933
559.509
665
558.56
520.023
501.957
501.888
519.456
558
665
558.716
520.037
502.129
501.991
519.444
559.722
133
133
133
133
133
133
665
560.376
520.741
502.891
502.662
519.868
559.996
665
562.042
520.836
503.333
503.443
520.768
561.664
665
559.663
519.739
502.836
503.053
521.237
561.68
665
558.92
519.084
501.625
502.321
518.933
559.509
665
558.56
520.023
501.957
501.888
519.456
558
665
558.716
520.037
502.129
501.991
519.444
559.722
133
133
133
133
133
133
228.287
226.357
227.071
224.138
225.554
219.874
220.891
529.236
528.246
526.625
528.004
526.653
527.705
498.786
503.631
501.67
499.026
501.542
501.324
494.408
562.555
519.051
495.106
480.813
461.436
443.355
425.122
402.192
427.346
385.335
417.814
379.68
417.977
386.02
427.463
404.37
444.458
429.153
450.337
386.629
419.377
380.275
418.389
386.259
427.837
404.298
444.569
428.236
450.934
386.104
418.24
379.692
418.597
385.627
427.673
402.992
443.631
426.528
384.12
416.213
376.375
415.42
383.092
424.494
400.917
441.781
425.301
382.828
417.853
376.639
418.171
383.914
425.341
402.284
442.753
450.727
426.801
446.086
380.8
444.751
465.365
448.819
464.838
453.488
350.968
463.58
461.112
478.517
462.847
460.718
478.422
337.34
480.893
505.921
503.68
480.959
506.227
337.752
337.564
326.225
334.477
563.431
519.726
567.63
562.418
567.947
567.8
521.874
542.777
498.696
513.802
542.122
451.53
477.647
414.731
579.565
611.057
579.718
576.08
534.616
494.545
538.288
537.985
485.106
498.182
503.397
473.211
485.154
352.814
326.475
355.244
503.512
477.787
488.431
520.943
502.095
477.985
335.603
335.466
347.765
613.473
337.441
347.636
337.327
353.27
329.249
373.326
310.715
288.836
504.778
608.411
521.164
493.793
478.398
486.423
526.559
600.374
476.635
615.925
291.446
615.824
528.786
494.604
478.305
479.479
501.383
494.91
479.505
502.578
495.24
493.815
502.33
495.313
479.953
480.119
479.121
289.343
454.66
271.986
455.068
453.696
527.067
479.541
465.288
382.17
480.574
292.719
286.13
461.545
449.7
454.045
445.922
448.757
463.671
463.328
480.019
543.517
601.735
487.558
300.353
282.508
453.081
279.209
552.295
552.055
480.838
458.084
526.288
508.246
488.654
233.761
284.606
614.533
636.337
615.167
636.693
285.327
441.407
553.135
230.516
467.62
590.302
566.082
495.884
490.112
410.107
232.15
293.146
271.169
507.957
509.254
607.844
229.693
277.021
294.48
618.903
618.816
558.567
226.551
562.578
488.38
503.458
280.893
504.127
466.447
224.036
473.651
519.64
503.043
462.513
228.287
226.357
227.071
224.138
225.554
219.874
220.891
529.236
528.246
526.625
528.004
526.653
527.705
498.786
503.631
501.67
499.026
501.542
501.324
494.408
562.555
519.051
495.106
480.813
461.436
443.355
425.122
402.192
427.346
385.335
417.814
379.68
417.977
386.02
427.463
404.37
444.458
429.153
450.337
386.629
419.377
380.275
418.389
386.259
427.837
404.298
444.569
428.236
450.934
386.104
418.24
379.692
418.597
385.627
427.673
402.992
443.631
426.528
384.12
416.213
376.375
415.42
383.092
424.494
400.917
441.781
425.301
382.828
417.853
376.639
418.171
383.914
425.341
402.284
442.753
450.727
426.801
446.086
380.8
444.751
465.365
448.819
464.838
453.488
350.968
463.58
461.112
478.517
462.847
460.718
478.422
337.34
480.893
505.921
503.68
480.959
506.227
337.752
337.564
326.225
334.477
563.431
519.726
567.63
562.418
567.947
567.8
521.874
542.777
498.696
513.802
542.122
451.53
477.647
414.731
579.565
611.057
579.718
576.08
534.616
494.545
538.288
537.985
485.106
498.182
503.397
473.211
485.154
352.814
326.475
355.244
503.512
477.787
488.431
520.943
502.095
477.985
335.603
335.466
347.765
613.473
337.441
347.636
337.327
353.27
329.249
373.326
310.715
288.836
504.778
608.411
521.164
493.793
478.398
486.423
526.559
600.374
476.635
615.925
291.446
615.824
528.786
494.604
478.305
479.479
501.383
494.91
479.505
502.578
495.24
493.815
502.33
495.313
479.953
480.119
479.121
289.343
454.66
271.986
455.068
453.696
527.067
479.541
465.288
382.17
480.574
292.719
286.13
461.545
449.7
454.045
445.922
448.757
463.671
463.328
480.019
543.517
601.735
487.558
300.353
282.508
453.081
279.209
552.295
552.055
480.838
458.084
526.288
508.246
488.654
233.761
284.606
614.533
636.337
615.167
636.693
285.327
441.407
553.135
230.516
467.62
590.302
566.082
495.884
490.112
410.107
232.15
293.146
271.169
507.957
509.254
607.844
229.693
277.021
294.48
618.903
618.816
558.567
226.551
562.578
488.38
503.458
280.893
504.127
466.447
224.036
473.651
519.64
503.043
462.513

CELL_DATA 563
TENSORS stress float
164.643 -24.9227 -1.33582e-12
-24.9227 28.158 2.77822e-12
-1.33582e-12 2.77822e-12 -12.5958

-40.3414 -21.3215 3.50756e-13
-21.3215 -7.35515 2.53782e-12
3.50756e-13 2.53782e-12 -10.2374

-9.94532 28.0489 3.58765e-12
28.0489 -1.11314 3.93463e-13
3.58765e-12 3.93463e-13 -6.36724

-40.4284 -29.8422 -2.10469e-12
-29.8422 -12.8456 -1.36824e-12
-2.10469e-12 -1.36824e-12 -10.6037

-22.6893 19.9307 1.10667e-12
19.9307 -1.93118 -2.26463e-12
1.10667e-12 -2.26463e-12 -23.0181

-27.1477 -18.0784 -2.9153e-12
-18.0784 15.888 -2.64973e-12
-2.9153e-12 -2.64973e-12 -6.41806

161.294 26.4872 -1.59162e-12
26.4872 28.0345 2.76046e-12
-1.59162e-12 2.76046e-12 -13.2549

-5.96517 29.9614 -1.70353e-12
29.9614 -10.1148 1.31154e-13
-1.70353e-12 1.31154e-13 -7.28233

34.635 5.48418 -1.95044e-12
5.48418 -19.104 -2.63963e-12
-1.95044e-12 -2.63963e-12 -4.12895

11.86 -7.47774 -1.26417e-12
-7.47774 -48.2899 2.81752e-12
-1.26417e-12 2.81752e-12 -8.95264

104.217 16.3129 -3.45324e-12
16.3129 -8.44443 3.49054e-12
-3.45324e-12 3.49054e-12 -22.4525

-34.6435 -13.4555 1.21177e-12
-13.4555 18.9654 1.12147e-12
1.21177e-12 1.12147e-12 -7.18663

-6.03002 27.8374 -3.30402e-12
27.8374 -4.59318 1.97235e-12
-3.30402e-12 1.97235e-12 -6.16548

-35.5578 -14.3423 -3.32523e-12
-14.3423 7.84518 1.92439e-12
-3.32523e-12 1.92439e-12 -9.13678

-23.6538 33.3062 3.48462e-13
33.3062 -24.9908 1.95001e-12
3.48462e-13 1.95001e-12 -21.3633

21.3124 0.561226 -2.31992e-12
0.561226 -32.3456 -5.69914e-14
-2.31992e-12 -5.69914e-14 -5.59635

-48.9612 -17.9684 -2.1384e-12
-17.9684 6.34155 -1.05308e-12
-2.1384e-12 -1.05308e-12 -12.9499

11.6605 -2.66519 2.9304e-12
-2.66519 -43.2568 -7.61761e-13
2.9304e-12 -7.61761e-13 -8.0404

-11.3576 26.6805 5.68434e-14
26.6805 19.517 5.57184e-13
5.68434e-14 5.57184e-13 -6.09675

21.7664 -4.19667 8.37256e-13
-4.19667 -35.3051 6.05286e-12
8.37256e-13 6.05286e-12 -6.74868

-24.4878 8.67112 1.82669e-13
8.67112 32.1299 -1.20023e-12
1.82669e-13 -1.20023e-12 -4.94089

-11.8081 6.28398 -1.70801e-11
6.28398 -11.9655 4.34334e-12
-1.70801e-11 4.34334e-12 -75.5852

22.7447 1.87628 -5.96264e-13
1.87628 -33.4798 -2.59822e-12
-5.96264e-13 -2.59822e-12 -6.68464

-12.394 -27.7211 3.39284e-13
-27.7211 1.59686 -9.29035e-13
3.39284e-13 -9.29035e-13 -6.60992

21.3055 6.85067 -2.02149e-12
6.85067 -34.3145 -3.40468e-13
-2.02149e-12 -3.40468e-13 -6.81382

-37.9118 19.115 -1.2581e-12
19.115 2.6534 -3.84907e-12
-1.2581e-12 -3.84907e-12 -9.46382

106.625 4.18251 -4.43142e-12
4.18251 20.6055 -5.32226e-12
-4.43142e-12 -5.32226e-12 -12.0473

-5.30589 30.7511 -1.68221e-12
30.7511 -7.27762 -1.57918e-12
-1.68221e-12 -1.57918e-12 -7.44832

27.8912 37.0846 -2.50466e-12
37.0846 26.4703 -2.7273e-12
-2.50466e-12 -2.7273e-12 -8.63704

-9.43931 10.3238 2.2838e-12
10.3238 -32.9188 -1.35018e-12
2.2838e-12 -1.35018e-12 -49.4893

19.8318 14.218 -1.77636e-13
14.218 -29.3662 -2.08278e-13
-1.77636e-13 -2.08278e-13 -6.00725

-4.21765 -17.7854 3.59416e-13
-17.7854 59.6676 -5.24262e-12
3.59416e-13 -5.24262e-12 -8.48092

66.2966 -42.1111 -4.36984e-12
-42.1111 71.1527 7.2428e-12
-4.36984e-12 7.2428e-12 -11.2492

-48.2051 5.98383 5.26235e-12
5.98383 7.2684 -8.20736e-12
5.26235e-12 -8.20736e-12 -41.024

-26.2894 -4.83622 6.28238e-13
-4.83622 1.75641 3.81798e-12
6.28238e-13 3.81798e-12 -37.7896

-1.469 21.0267 2.38209e-12
21.0267 -39.5006 7.86023e-12
2.38209e-12 7.86023e-12 -41.0898

-43.9648 5.06309 2.69666e-12
5.06309 0.513799 3.33955e-13
2.69666e-12 3.33955e-13 -52.1703

-2.76284 -9.17196 1.42493e-12
-9.17196 -20.7658 1.49942e-12
1.42493e-12 1.49942e-12 -35.885

-3.97837 -28.0027 -3.42482e-12
-28.0027 -4.61241 -2.224e-12
-3.42482e-12 -2.224e-12 -6.00087

65.6103 41.5302 -7.57912e-13
41.5302 73.1809 2.33058e-12
-7.57912e-13 2.33058e-12 -10.9608

60.1653 -17.954 -1.14101e-11
-17.954 0.110672 -2.39275e-12
-1.14101e-11 -2.39275e-12 -8.05455

-41.7931 -3.70228 5.99017e-12
-3.70228 -1.1857 1.73372e-12
5.99017e-12 1.73372e-12 -52.7048

-14.588 19.549 -1.25633e-12
19.549 -28.5469 1.04716e-12
-1.25633e-12 1.04716e-12 -52.813

18.1427 -12.2742 1.91965e-12
-12.2742 -29.9062 1.36409e-12
1.91965e-12 1.36409e-12 -6.22937

38.1785 -43.3101 -1.15582e-12
-43.3101 41.8076 3.61548e-12
-1.15582e-12 3.61548e-12 -14.5609

58.1534 -18.0682 4.54747e-13
-18.0682 -2.30986 4.49122e-12
4.54747e-13 4.49122e-12 -7.91853

-21.4518 17.0899 1.5028e-12
17.0899 30.3295 -2.65032e-12
1.5028e-12 -2.65032e-12 -5.73547

-11.3792 19.3438 -1.90544e-12
19.3438 25.512 -3.73035e-12
-1.90544e-12 -3.73035e-12 -3.92852

20.7909 -16.3038 -5.01821e-12
-16.3038 -33.1234 -6.09246e-12
-5.01821e-12 -6.09246e-12 -7.3185

12.6127 -34.1947 5.35749e-12
-34.1947 46.4422 4.61971e-12
5.35749e-12 4.61971e-12 -10.4016

62.3707 19.187 2.89072e-12
19.187 2.805 2.55677e-12
2.89072e-12 2.55677e-12 -8.41805

46.5196 -25.295 -5.59789e-12
-25.295 5.12885 -5.97981e-12
-5.59789e-12 -5.97981e-12 -5.61544

-31.8982 19.4817 2.17929e-12
19.4817 -4.28384 -1.24493e-12
2.17929e-12 -1.24493e-12 -26.0807

37.0424 29.6573 1.13095e-12
29.6573 14.5104 -7.23569e-13
1.13095e-12 -7.23569e-13 -5.43781

-27.4459 -21.8126 -3.40972e-12
-21.8126 -8.23363 -9.02426e-13
-3.40972e-12 -9.02426e-13 -25.2435

64.8794 -42.7215 -4.40063e-12
-42.7215 44.0869 -2.53427e-13
-4.40063e-12 -2.53427e-13 -9.5026

-27.7472 5.45509 1.32191e-12
5.45509 2.66864 4.45718e-12
1.32191e-12 4.45718e-12 -38.2949

-5.56555 -5.33138 -4.95011e-13
-5.33138 57.3968 -3.42955e-12
-4.95011e-13 -3.42955e-12 -5.45486

-0.204056 10.3852 3.19271e-12
10.3852 -24.8425 -3.91826e-12
3.19271e-12 -3.91826e-12 -38.3564

-26.4937 21.4174 -1.9087e-12
21.4174 12.2187 8.42585e-13
-1.9087e-12 8.42585e-13 -6.877

4.72438 5.75577 4.23809e-12
5.75577 -56.0407 -2.57498e-12
4.23809e-12 -2.57498e-12 -13.9845

0.54144 11.4591 4.87107e-12
11.4591 -34.0592 2.51976e-12
4.87107e-12 2.51976e-12 -14.8411

106.363 31.8261 -2.31637e-12
31.8261 37.8383 -2.69651e-12
-2.31637e-12 -2.69651e-12 -7.48789

-35.495 -6.03725 8.90991e-13
-6.03725 10.6015 9.91207e-13
8.90991e-13 9.91207e-13 -13.4808

-35.3616 9.5215 1.41102e-12
9.5215 1.23441 3.20573e-12
1.41102e-12 3.20573e-12 -14.9613

-42.593 -2.8824 -4.46991e-12
-2.8824 21.1102 1.2701e-12
-4.46991e-12 1.2701e-12 -11.2427

-44.9107 23.4006 3.54235e-13
23.4006 -5.89267 2.57601e-12
3.54235e-13 2.57601e-12 -13.9255

9.97086 8.46502 -8.25118e-13
8.46502 -42.385 1.23013e-12
-8.25118e-13 1.23013e-12 -9.08407

-12.3403 -28.2453 1.97087e-12
-28.2453 1.68424 3.3585e-12
1.97087e-12 3.3585e-12 -6.68114

1.30874 -1.71186 1.31672e-12
-1.71186 -55.4588 5.79092e-12
1.31672e-12 5.79092e-12 -11.3094

-31.8878 -19.2577 -1.21503e-12
-19.2577 -4.59298 2.21423e-12
-1.21503e-12 2.21423e-12 -25.95

-27.9711 21.3078 -8.11499e-13
21.3078 -8.36319 -7.67543e-13
-8.11499e-13 -7.67543e-13 -26.0084

-0.658173 -16.588 -3.24333e-13
-16.588 61.684 -6.25159e-12
-3.24333e-13 -6.25159e-12 -7.95336

-0.650711 -27.9383 1.34056e-12
-27.9383 -21.3666 3.66492e-12
1.34056e-12 3.66492e-12 -12.7939

-14.0981 -25.1391 -4.02374e-12
-25.1391 7.40579 1.07174e-13
-4.02374e-12 1.07174e-13 -5.24276

91.6972 -31.7177 1.02318e-12
-31.7177 19.4882 3.52814e-12
1.02318e-12 3.52814e-12 -16.3315

-33.7106 3.22362 -3.80866e-12
3.22362 9.20134 1.77517e-12
-3.80866e-12 1.77517e-12 -18.5623

2.74892 28.9466 2.52243e-12
28.9466 -24.4275 5.74059e-13
2.52243e-12 5.74059e-13 -11.3203

-38.4401 19.666 -1.9158e-12
19.666 5.2289 2.20712e-12
-1.9158e-12 2.20712e-12 -9.24137

50.1979 8.00163 -5.13841e-12
8.00163 -16.9748 -4.05898e-13
-5.13841e-12 -4.05898e-13 -7.07322

60.0414 -33.9442 -1.51582e-12
-33.9442 33.7898 2.81612e-12
-1.51582e-12 2.81612e-12 -6.9859

-18.9656 -10.5861 4.3654e-12
-10.5861 -0.53918 -8.27782e-13
4.3654e-12 -8.27782e-13 -25.4256

-33.9253 23.9011 -1.05397e-13
23.9011 -12.0268 -4.64388e-13
-1.05397e-13 -4.64388e-13 -14.5431

58.166 -32.3923 -4.35563e-12
-32.3923 18.0908 -1.90544e-12
-4.35563e-12 -1.90544e-12 -10.1367

66.8713 10.7939 5.59789e-12
10.7939 8.50907 -1.81218e-12
5.59789e-12 -1.81218e-12 -5.08818

7.67196 -21.2113 4.66294e-13
-21.2113 88.4824 7.25938e-12
4.66294e-13 7.25938e-12 -11.8632

-33.9953 14.4277 6.10919e-13
14.4277 20.2383 -3.39284e-13
6.10919e-13 -3.39284e-13 -7.55315

8.47353 23.147 -8.5798e-13
23.147 -26.0779 2.36196e-12
-8.5798e-13 2.36196e-12 -11.3026

34.8733 42.2093 6.08698e-13
42.2093 46.2067 1.68872e-12
6.08698e-13 1.68872e-12 -14.4224

-4.39426 16.5032 -3.05163e-12
16.5032 -35.5308 3.02662e-12
-3.05163e-12 3.02662e-12 -73.2542

-5.98785 -4.10955 6.38956e-12
-4.10955 57.9574 3.81206e-12
6.38956e-12 3.81206e-12 -5.44708

-1.81985 -16.6286 1.21536e-11
-16.6286 -39.3894 2.52554e-12
1.21536e-11 2.52554e-12 -74.0771

-3.33195 -27.3345 1.2399e-12
-27.3345 -30.0286 -1.4461e-12
1.2399e-12 -1.4461e-12 -21.5519

8.96548 27.4263 9.82325e-13
27.4263 -30.0005 -6.64032e-12
9.82325e-13 -6.64032e-12 -11.2613

45.7173 -24.4169 1.4199e-12
-24.4169 5.01922 9.60417e-13
1.4199e-12 9.60417e-13 -5.24153

10.0919 31.3318 -6.02185e-12
31.3318 47.1699 -1.83202e-12
-6.02185e-12 -1.83202e-12 -9.64491

14.2704 -10.7078 -2.31578e-12
-10.7078 82.8542 -1.65556e-12
-2.31578e-12 -1.65556e-12 -6.4491

-38.6349 21.9722 -7.42961e-13
21.9722 2.94063 3.88282e-12
-7.42961e-13 3.88282e-12 -8.57475

1.19384 16.7965 4.13181e-12
16.7965 -25.726 -4.70646e-12
4.13181e-12 -4.70646e-12 -18.5665

-26.544 15.1572 -4.09524e-12
15.1572 18.4496 2.44723e-12
-4.09524e-12 2.44723e-12 -5.71447

43.6645 15.9576 -4.34142e-12
15.9576 -7.29303 -2.77126e-12
-4.34142e-12 -2.77126e-12 -4.08139

12.5739 -21.4783 -2.4946e-12
-21.4783 57.9648 -7.11253e-12
-2.4946e-12 -7.11253e-12 -4.71823

66.008 -29.3982 -3.83693e-13
-29.3982 18.6431 -1.74497e-12
-3.83693e-13 -1.74497e-12 -9.33771

-32.3843 -24.5758 -3.24585e-12
-24.5758 -7.28395 -1.93682e-12
-3.24585e-12 -1.93682e-12 -8.9827

-22.6708 27.4546 -1.57918e-12
27.4546 -10.3544 2.5698e-13
-1.57918e-12 2.5698e-13 -9.29014

-38.353 23.1891 1.7278e-12
23.1891 1.99026 -2.11979e-12
1.7278e-12 -2.11979e-12 -8.5307

-51.555 13.1683 -2.54231e-12
13.1683 11.9244 1.51997e-12
-2.54231e-12 1.51997e-12 -16.468

23.4863 9.37331 2.83033e-12
9.37331 -29.4958 1.18217e-12
2.83033e-12 1.18217e-12 -5.3282

3.76416 -4.66611 -3.46538e-12
-4.66611 79.4532 2.87059e-12
-3.46538e-12 2.87059e-12 -9.53397

-44.9369 -36.8299 1.60849e-12
-36.8299 -19.8279 7.776e-13
1.60849e-12 7.776e-13 -14.7739

-16.086 27.4708 3.6667e-12
27.4708 1.3378 -1.82906e-12
3.6667e-12 -1.82906e-12 -6.92207

-5.02113 2.17064 4.69965e-12
2.17064 82.6901 -2.78059e-12
4.69965e-12 -2.78059e-12 -13.4333

69.0578 34.6192 1.46609e-12
34.6192 15.496 4.39293e-12
1.46609e-12 4.39293e-12 -10.7081

-31.3572 -22.9771 8.59905e-13
-22.9771 -4.63439 2.2767e-13
8.59905e-13 2.2767e-13 -8.53661

11.7432 5.73291 1.46786e-12
5.73291 -48.3388 -2.11039e-12
1.46786e-12 -2.11039e-12 -8.64708

43.0709 27.2112 -2.9452e-12
27.2112 10.4485 2.82796e-12
-2.9452e-12 2.82796e-12 -5.08608

-9.40995 12.7437 -5.76724e-13
12.7437 -14.0423 5.184e-13
-5.76724e-13 5.184e-13 -37.0279

70.3471 24.3368 -6.00645e-12
24.3368 23.8055 1.07174e-13
-6.00645e-12 1.07174e-13 -6.8016

-10.5808 -13.0532 1.41472e-12
-13.0532 -13.9242 1.72307e-13
1.41472e-12 1.72307e-13 -37.3656

-4.38699 0.778838 -1.38822e-12
0.778838 59.4075 -3.13823e-12
-1.38822e-12 -3.13823e-12 -4.83589

38.3615 -2.2359 -4.26562e-12
-2.2359 -23.8223 -9.2019e-13
-4.26562e-12 -9.2019e-13 -5.8395

3.5923 -15.7647 -8.19937e-13
-15.7647 -53.9656 5.3794e-12
-8.19937e-13 5.3794e-12 -21.1225

-42.2797 24.3886 -3.03616e-12
24.3886 -11.737 -2.47224e-12
-3.03616e-12 -2.47224e-12 -11.1731

-46.8133 -13.5358 5.19373e-13
-13.5358 11.0657 -1.40095e-12
5.19373e-13 -1.40095e-12 -12.3573

5.80898 -7.99878 3.34222e-12
-7.99878 -70.962 1.45365e-13
3.34222e-12 1.45365e-13 -14.885

-49.5378 -22.2798 3.60793e-12
-22.2798 3.74549 1.32043e-13
3.60793e-12 1.32043e-13 -22.1025

-17.4574 -6.60057 2.2536e-12
-6.60057 -13.115 -1.07558e-12
2.2536e-12 -1.07558e-12 -34.7705

-28.7317 -29.909 2.12393e-12
-29.909 -9.40037 7.50807e-13
2.12393e-12 7.50807e-13 -9.00167

15.6918 11.4565 2.96e-12
11.4565 80.1953 4.83169e-13
2.96e-12 4.83169e-13 -6.53274

42.2948 -28.154 -6.8449e-13
-28.154 11.0476 8.44362e-13
-6.8449e-13 8.44362e-13 -5.04939

-47.1698 -13.7687 4.30715e-12
-13.7687 4.19645 -1.63514e-12
4.30715e-12 -1.63514e-12 -29.2943

2.96402 0.505595 3.18856e-13
0.505595 -56.8145 -5.11458e-12
3.18856e-13 -5.11458e-12 -11.0109

-39.3394 -21.5234 1.24123e-12
-21.5234 -8.85611 -5.25209e-13
1.24123e-12 -5.25209e-13 -14.777

-40.1962 25.6989 3.07843e-12
25.6989 -14.6927 -1.07991e-12
3.07843e-12 -1.07991e-12 -11.3164

32.2626 -31.4728 -1.62359e-12
-31.4728 38.4333 4.63392e-12
-1.62359e-12 4.63392e-12 -4.6524

-31.4674 -7.0802 -3.0916e-13
-7.0802 1.70315 -2.49223e-12
-3.0916e-13 -2.49223e-12 -40.978

36.6341 -33.0848 4.45984e-12
-33.0848 72.04 9.37916e-13
4.45984e-12 9.37916e-13 -7.1457

16.6136 -19.1829 -2.69296e-12
-19.1829 -25.8773 1.91166e-12
-2.69296e-12 1.91166e-12 -7.1392

1.50198 1.9726 -1.83098e-12
1.9726 -51.3918 6.4541e-13
-1.83098e-12 6.4541e-13 -15.3766

-12.8694 17.8733 3.46538e-12
17.8733 -16.9574 6.96954e-12
3.46538e-12 6.96954e-12 -41.0455

10.7095 20.1883 -5.6577e-12
20.1883 59.4635 -5.49486e-12
-5.6577e-12 -5.49486e-12 -4.361

4.31552 27.2148 -6.43041e-13
27.2148 -16.2263 -4.54274e-12
-6.43041e-13 -4.54274e-12 -8.12934

30.9068 -24.5169 -1.08002e-12
-24.5169 -8.13987 -6.06803e-12
-1.08002e-12 -6.06803e-12 -4.87889

-37.7937 -17.8403 7.42499e-13
-17.8403 2.40051 -1.57948e-12
7.42499e-13 -1.57948e-12 -9.87025

55.5221 35.0769 -3.20336e-12
35.0769 42.3507 3.67114e-14
-3.20336e-12 3.67114e-14 -6.63819

-40.0188 -21.832 8.81369e-13
-21.832 2.53642 5.52447e-13
8.81369e-13 5.52447e-13 -9.39979

2.96451 30.8539 -1.39148e-12
30.8539 -17.3949 6.02422e-12
-1.39148e-12 6.02422e-12 -9.08377

18.5375 -25.2477 -3.29692e-12
-25.2477 -19.4255 -2.63078e-12
-3.29692e-12 -2.63078e-12 -6.34889

-15.6589 -25.1309 -2.21304e-12
-25.1309 5.89463 -3.50298e-12
-2.21304e-12 -3.50298e-12 -5.78243

42.7235 -18.6929 -3.54324e-12
-18.6929 -9.17416 -6.65009e-12
-3.54324e-12 -6.65009e-12 -5.37547

27.4335 -18.8538 -1.71596e-12
-18.8538 -20.3773 -7.0172e-12
-1.71596e-12 -7.0172e-12 -5.69668

-41.3947 -25.3383 1.84608e-12
-25.3383 -14.9651 1.44714e-12
1.84608e-12 1.44714e-12 -11.5724

29.7827 35.9789 2.27611e-12
35.9789 25.2277 -9.36732e-13
2.27611e-12 -9.36732e-13 -8.64912

-28.524 15.3799 -3.34399e-13
15.3799 18.519 -7.10543e-13
-3.34399e-13 -7.10543e-13 -5.88035

-23.1112 26.4257 -3.82805e-13
26.4257 -12.5501 1.75149e-12
-3.82805e-13 1.75149e-12 -9.96383

-42.0996 25.4737 2.20908e-12
25.4737 -11.5927 1.00275e-12
2.20908e-12 1.00275e-12 -10.9984

-37.2931 11.6239 2.7626e-12
11.6239 11.8441 -1.20259e-12
2.7626e-12 -1.20259e-12 -9.08552

64.4039 -8.22909 7.56728e-13
-8.22909 3.19192 -2.51665e-12
7.56728e-13 -2.51665e-12 -4.25533

8.72977 18.6114 5.18104e-13
18.6114 59.2292 -2.79717e-12
5.18104e-13 -2.79717e-12 -4.16676

-25.6206 -24.3838 -3.03076e-12
-24.3838 0.457323 -2.56121e-12
-3.03076e-12 -2.56121e-12 -7.22244

-1.14633 25.6717 3.59002e-12
25.6717 13.7519 -1.80063e-12
3.59002e-12 -1.80063e-12 -4.08951

32.381 -35.6387 3.64627e-12
-35.6387 21.6997 5.37526e-12
3.64627e-12 5.37526e-12 -8.49094

59.5466 38.3264 3.76824e-12
38.3264 17.8482 -2.13163e-12
3.76824e-12 -2.13163e-12 -13.7243

12.1222 -33.3199 -2.10084e-12
-33.3199 42.9189 1.76807e-12
-2.10084e-12 1.76807e-12 -9.54735

30.5529 -31.1678 1.03029e-13
-31.1678 36.817 2.97125e-12
1.03029e-13 2.97125e-12 -4.40988

11.769 -6.83856 2.10113e-12
-6.83856 -48.8405 1.81137e-12
2.10113e-12 1.81137e-12 -8.77581

25.2747 30.3497 3.79785e-12
30.3497 41.0936 -5.1988e-12
3.79785e-12 -5.1988e-12 -4.46043

62.6925 13.298 -4.07496e-12
13.298 5.22304 1.00956e-12
-4.07496e-12 1.00956e-12 -4.30984

-7.0339 13.3824 2.36004e-12
13.3824 61.3543 -1.71833e-12
2.36004e-12 -1.71833e-12 -8.69978

11.7262 -22.3463 3.46982e-13
-22.3463 55.7716 -4.4551e-12
3.46982e-13 -4.4551e-12 -4.30586

-47.2597 -1.0933 -1.16492e-12
-1.0933 12.4082 -1.44773e-12
-1.16492e-12 -1.44773e-12 -22.1593

-5.92692 2.24731 -1.08521e-12
2.24731 59.0136 1.76451e-12
-1.08521e-12 1.76451e-12 -5.26772

6.26429 31.0975 -3.15363e-12
31.0975 47.872 -3.37389e-12
-3.15363e-12 -3.37389e-12 -9.66515

-39.7282 12.1097 1.05154e-12
12.1097 12.8435 3.25073e-13
1.05154e-12 3.25073e-13 -9.31775

40.7426 -27.6548 2.68704e-12
-27.6548 8.35365 -1.17062e-12
2.68704e-12 -1.17062e-12 -5.64735

7.53683 20.5572 1.62181e-12
20.5572 -47.4679 6.12133e-12
1.62181e-12 6.12133e-12 -16.4835

-3.42348 26.2704 1.32871e-12
26.2704 -31.4848 -7.61317e-13
1.32871e-12 -7.61317e-13 -22.2497

15.7767 -18.5711 1.08891e-12
-18.5711 -30.0204 1.62241e-13
1.08891e-12 1.62241e-13 -8.18879

4.42652 -1.80539 -1.64106e-12
-1.80539 -34.1328 -4.15579e-12
-1.64106e-12 -4.15579e-12 -24.435

-14.3434 -31.8146 8.73968e-13
-31.8146 -11.9342 -2.82766e-12
8.73968e-13 -2.82766e-12 -9.05532

56.2271 23.3339 -2.49282e-12
23.3339 0.810627 1.13213e-12
-2.49282e-12 1.13213e-12 -8.29266

-27.83 30.1631 2.36107e-12
30.1631 -9.23702 -7.56432e-13
2.36107e-12 -7.56432e-13 -8.80595

-27.0059 29.207 4.03529e-13
29.207 -9.20217 7.98472e-13
4.03529e-13 7.98472e-13 -8.68328

28.6296 30.669 3.19744e-12
30.669 40.4102 -1.88175e-12
3.19744e-12 -1.88175e-12 -4.45331

0.34299 27.0876 3.04941e-13
27.0876 -19.8519 3.73627e-13
3.04941e-13 3.73627e-13 -11.7804

64.5194 3.52606 -3.22586e-12
3.52606 -11.835 3.14415e-13
-3.22586e-12 3.14415e-13 -10.023

-14.9019 31.8173 -2.47032e-12
31.8173 -20.7992 1.38082e-12
-2.47032e-12 1.38082e-12 -12.4509

-37.9501 -12.599 -1.65482e-12
-12.599 8.18053 -2.9375e-12
-1.65482e-12 -2.9375e-12 -14.0253

-0.474312 24.2767 5.86168e-12
24.2767 -30.0013 3.13497e-12
5.86168e-12 3.13497e-12 -20.7693

-23.7297 -29.58 8.96024e-12
-29.58 -11.9353 -2.16567e-12
8.96024e-12 -2.16567e-12 -8.84878

-38.1551 -4.89682 4.82281e-13
-4.89682 18.8473 2.72789e-12
4.82281e-13 2.72789e-12 -11.7334

69.9571 -24.5627 -2.17426e-12
-24.5627 18.0278 1.05634e-12
-2.17426e-12 1.05634e-12 -7.04686

39.9862 29.7009 -2.93099e-12
29.7009 13.4769 3.50179e-12
-2.93099e-12 3.50179e-12 -5.22024

-4.30346 14.7005 1.83261e-12
14.7005 60.5814 -2.9452e-12
1.83261e-12 -2.9452e-12 -8.40558

1.61108 -1.1396 8.8433e-13
-1.1396 -56.1257 2.91137e-12
8.8433e-13 2.91137e-12 -11.2147

9.61417 0.00210779 3.34695e-12
0.00210779 -44.7618 6.99922e-13
3.34695e-12 6.99922e-13 -8.4448

-31.0844 23.1272 2.28203e-12
23.1272 -4.33916 -6.07514e-13
2.28203e-12 -6.07514e-13 -8.4652

-34.7615 23.8722 -1.02407e-12
23.8722 -13.1952 1.90187e-12
-1.02407e-12 1.90187e-12 -14.8157

-43.3809 -24.3812 -6.84434e-13
-24.3812 -12.6138 -2.32821e-12
-6.84434e-13 -2.32821e-12 -11.474

-39.0653 -0.674217 2.54113e-12
-0.674217 21.0462 -2.55203e-13
2.54113e-12 -2.55203e-13 -10.4996

-40.8078 25.5917 -1.18809e-12
25.5917 -13.2243 1.97109e-12
-1.18809e-12 1.97109e-12 -11.1778

32.3247 -10.3103 -6.69687e-12
-10.3103 -25.1646 8.63457e-13
-6.69687e-12 8.63457e-13 -6.02142

8.70274 -32.8422 -1.81781e-13
-32.8422 22.7978 -2.63848e-12
-1.81781e-13 -2.63848e-12 -6.9984

2.39602 -2.30331 1.96006e-12
-2.30331 -49.9621 -8.82553e-13
1.96006e-12 -8.82553e-13 -14.7754

36.7491 -34.5175 -6.25514e-12
-34.5175 24.4802 9.06534e-13
-6.25514e-12 9.06534e-13 -7.71354

-38.2967 19.0857 -2.57838e-12
19.0857 -7.09262 -4.06875e-12
-2.57838e-12 -4.06875e-12 -14.4521

7.87024 -26.4801 -2.54019e-12
-26.4801 -28.0002 4.31063e-12
-2.54019e-12 4.31063e-12 -10.973

63.9583 -9.69288 -3.36324e-12
-9.69288 5.67242 1.23609e-11
-3.36324e-12 1.23609e-11 -5.07652

6.03724 -23.1938 1.93682e-12
-23.1938 -35.47 3.40528e-12
1.93682e-12 3.40528e-12 -17.7364

0.141576 2.3586 1.90366e-13
2.3586 -56.1758 -4.94738e-12
1.90366e-13 -4.94738e-12 -11.5513

-4.06329 -23.3242 -9.50943e-13
-23.3242 -23.4126 1.52633e-12
-9.50943e-13 1.52633e-12 -16.7201

11.0374 -25.8611 2.22281e-12
-25.8611 -29.4918 -4.01723e-12
2.22281e-12 -4.01723e-12 -9.73847

10.2003 -8.54819 -4.56524e-13
-8.54819 -43.4969 3.13172e-12
-4.56524e-13 3.13172e-12 -9.28763

-35.4166 -23.0694 -1.06966e-12
-23.0694 -12.6487 1.00788e-12
-1.06966e-12 1.00788e-12 -15.1055

23.6645 -31.3498 -2.5769e-12
-31.3498 5.7079 1.93801e-12
-2.5769e-12 1.93801e-12 -5.88475

11.058 -24.5913 4.37576e-13
-24.5913 -27.4993 3.21669e-12
4.37576e-13 3.21669e-12 -10.0525

46.6495 10.8673 2.45137e-12
10.8673 -16.1278 1.83586e-12
2.45137e-12 1.83586e-12 -6.80635

-14.1867 26.3427 -6.29126e-13
26.3427 -15.6449 -1.97901e-12
-6.29126e-13 -1.97901e-12 -14.1214

-45.2488 -37.6092 -3.57936e-12
-37.6092 -20.6107 -4.9379e-13
-3.57936e-12 -4.9379e-13 -14.9222

-43.706 37.2618 -3.12343e-13
37.2618 -21.2642 3.9162e-12
-3.12343e-13 3.9162e-12 -14.7726

-61.1794 -28.5712 -9.39175e-13
-28.5712 -7.49745 -1.2769e-12
-9.39175e-13 -1.2769e-12 -15.2027

-58.4111 27.0624 1.39725e-12
27.0624 -6.27199 2.05761e-12
1.39725e-12 2.05761e-12 -14.4814

5.59978 -8.52627 3.10404e-12
-8.52627 -71.0586 3.09678e-13
3.10404e-12 3.09678e-13 -14.7129

4.39697 9.27218 5.48154e-13
9.27218 -68.8277 9.42949e-13
5.48154e-13 9.42949e-13 -14.441

9.02353 -9.84812 -8.03209e-13
-9.84812 -40.8966 -3.87838e-14
-8.03209e-13 -3.87838e-14 -9.6176

-24.3351 32.1116 -1.52944e-12
32.1116 -24.8064 -3.39284e-13
-1.52944e-12 -3.39284e-13 -21.1435

-25.522 -32.8493 -4.57738e-12
-32.8493 -25.0927 -4.29342e-13
-4.57738e-12 -4.29342e-13 -21.4676

-53.9127 16.0674 -2.76564e-12
16.0674 3.39887 -3.55923e-12
-2.76564e-12 -3.55923e-12 -21.401

-52.4141 -15.8001 -6.80789e-13
-15.8001 3.2944 5.99816e-13
-6.80789e-13 5.99816e-13 -21.0744

6.10881 -3.75136 2.35204e-12
-3.75136 -43.9228 3.89022e-13
2.35204e-12 3.89022e-13 -25.7606

6.91462 3.614 -2.64988e-12
3.614 -46.3457 1.72662e-12
-2.64988e-12 1.72662e-12 -26.1368

-15.6358 9.83941 -1.48363e-12
9.83941 46.2685 2.58874e-12
-1.48363e-12 2.58874e-12 -5.85449

-22.9219 -24.7775 -4.92347e-13
-24.7775 -14.5544 5.13234e-12
-4.92347e-13 5.13234e-12 -10.3353

-56.5997 -36.3848 1.18394e-12
-36.3848 -14.532 -1.12784e-12
1.18394e-12 -1.12784e-12 -13.4416

33.3622 -4.66505 -4.57353e-12
-4.66505 -19.8558 4.214e-12
-4.57353e-12 4.214e-12 -3.95195

3.43207 -16.691 2.30334e-12
-16.691 -52.6236 6.39488e-14
2.30334e-12 6.39488e-14 -21.5307

3.67325 16.172 -1.30755e-12
16.172 -51.8792 2.00373e-12
-1.30755e-12 2.00373e-12 -21.404

6.55484 0.121842 -7.29194e-13
0.121842 -76.7497 9.47971e-13
-7.29194e-13 9.47971e-13 -13.3085

-7.57783 23.3817 -2.47654e-12
23.3817 39.9403 3.95772e-12
-2.47654e-12 3.95772e-12 -6.89171

-56.8853 36.1688 2.11956e-12
36.1688 -14.0106 2.47979e-12
2.11956e-12 2.47979e-12 -13.3933

-39.7962 -23.3969 -3.02928e-12
-23.3969 2.56076 -1.14397e-12
-3.02928e-12 -1.14397e-12 -8.80656

37.1203 23.3588 -1.10963e-12
23.3588 -8.62117 3.64568e-12
-1.10963e-12 3.64568e-12 -5.76522

4.73214 23.8598 -1.67392e-12
23.8598 -38.2269 1.88916e-12
-1.67392e-12 1.88916e-12 -18.9856

24.0137 -31.3216 3.57877e-12
-31.3216 6.40406 8.24822e-13
3.57877e-12 8.24822e-13 -5.65466

2.43005 -3.23324 1.251e-12
-3.23324 -48.3712 2.10202e-14
1.251e-12 2.10202e-14 -14.7453

-60.4524 -34.1588 1.01711e-12
-34.1588 -14.3498 -1.95843e-12
1.01711e-12 -1.95843e-12 -14.0351

-17.463 8.32204 -5.25524e-13
8.32204 45.6977 2.0132e-13
-5.25524e-13 2.0132e-13 -5.78764

-9.47757 21.8176 -4.959e-13
21.8176 40.4299 3.25429e-12
-4.959e-13 3.25429e-12 -6.66027

58.6133 35.7849 5.08512e-12
35.7849 37.0918 -3.78956e-14
5.08512e-12 -3.78956e-14 -6.91803

70.4976 1.57921 5.53631e-12
1.57921 -5.55042 -1.5478e-12
5.53631e-12 -1.5478e-12 -10.3779

-30.7589 -22.8061 -1.014e-12
-22.8061 -13.3589 -2.50006e-12
-1.014e-12 -2.50006e-12 -14.4687

32.8443 31.1917 -1.12266e-12
31.1917 69.8066 1.81662e-12
-1.12266e-12 1.81662e-12 -6.68096

-19.3814 23.6137 1.84682e-12
23.6137 7.68629 5.59552e-13
1.84682e-12 5.59552e-13 -5.52003

47.6441 -5.35094 -2.80664e-13
-5.35094 -17.4443 5.50671e-14
-2.80664e-13 5.50671e-14 -6.8283

33.2226 11.2188 -2.38091e-12
11.2188 -23.6479 -3.61962e-12
-2.38091e-12 -3.61962e-12 -6.02114

6.2534 0.429851 -2.36107e-13
0.429851 -77.5466 -3.43947e-12
-2.36107e-13 -3.43947e-12 -13.4542

-58.9308 -29.0289 9.8351e-13
-29.0289 -6.28869 -1.43234e-12
9.8351e-13 -1.43234e-12 -14.7003

-28.3305 -6.31673 -7.12467e-12
-6.31673 -11.3513 5.15528e-12
-7.12467e-12 5.15528e-12 -51.5686

-44.6953 37.408 -1.8708e-12
37.408 -20.8098 5.12405e-13
-1.8708e-12 5.12405e-13 -14.7767

93.8087 1.66363 -3.36324e-13
1.66363 16.6545 3.7114e-12
-3.36324e-13 3.7114e-12 -6.0442

10.0328 -32.7959 1.82728e-12
-32.7959 21.3106 -8.04512e-12
1.82728e-12 -8.04512e-12 -6.8147

-56.9321 36.6101 3.49987e-12
36.6101 -14.5703 -3.12506e-12
3.49987e-12 -3.12506e-12 -13.5094

-35.088 -11.135 -6.5273e-12
-11.135 19.1778 1.85807e-12
-6.5273e-12 1.85807e-12 -8.32239

-5.48528 -25.5216 -2.80102e-12
-25.5216 37.3543 -2.45966e-12
-2.80102e-12 -2.45966e-12 -6.99348

-58.4475 28.8279 -3.90406e-12
28.8279 -6.27207 -3.59801e-12
-3.90406e-12 -3.59801e-12 -14.6175

28.4972 -26.1483 3.06422e-12
-26.1483 -4.91857 2.63019e-12
3.06422e-12 2.63019e-12 -4.70382

-21.1629 10.4847 -1.07499e-12
10.4847 -18.558 2.55026e-12
-1.07499e-12 2.55026e-12 -51.6641

3.42752 30.8804 -3.05652e-12
30.8804 27.1639 -4.96906e-12
-3.05652e-12 -4.96906e-12 -6.73952

6.13915 8.12539 7.13651e-13
8.12539 -72.2915 -2.76149e-12
7.13651e-13 -2.76149e-12 -14.9874

-11.5485 30.1918 2.19054e-12
30.1918 -20.6029 2.0508e-12
2.19054e-12 2.0508e-12 -11.5528

-30.8027 23.3351 1.37668e-14
23.3351 -5.10154 -6.59917e-13
1.37668e-14 -6.59917e-13 -8.47114

-25.8629 -32.4841 3.12135e-12
-32.4841 -24.1094 5.80739e-13
3.12135e-12 5.80739e-13 -21.5569

9.20305 -23.1939 -2.31519e-12
-23.1939 -27.9262 4.87018e-13
-2.31519e-12 4.87018e-13 -11.4293

-37.6636 10.4672 -9.89623e-12
10.4672 8.92913 -8.14756e-13
-9.89623e-12 -8.14756e-13 -25.3264

-23.0459 -23.4371 -1.97857e-12
-23.4371 4.95136 8.1067e-12
-1.97857e-12 8.1067e-12 -6.26981

88.821 -9.71057 5.77908e-13
-9.71057 10.8052 -4.44474e-12
5.77908e-13 -4.44474e-12 -10.0321

84.0608 -14.2805 9.92391e-13
-14.2805 2.80896 2.24413e-13
9.92391e-13 2.24413e-13 -13.1984

5.88482 16.5327 1.83705e-12
16.5327 -33.9322 1.67866e-12
1.83705e-12 1.67866e-12 -22.3731

-16.4283 22.5069 3.67972e-12
22.5069 16.2277 -1.17536e-12
3.67972e-12 -1.17536e-12 -5.09247

-3.91499 29.1679 4.45866e-13
29.1679 -12.2353 -9.31699e-13
4.45866e-13 -9.31699e-13 -8.40219

51.0006 0.688797 -2.36848e-12
0.688797 -6.53991 -9.13334e-13
-2.36848e-12 -9.13334e-13 -3.64032

-48.1439 6.56949 -3.37747e-12
6.56949 14.7849 3.45975e-12
-3.37747e-12 3.45975e-12 -18.9523

10.1158 16.5406 -1.77813e-12
16.5406 -36.0841 -3.01625e-12
-1.77813e-12 -3.01625e-12 -9.14035

-4.5111 -25.7682 -2.19084e-13
-25.7682 35.5589 -3.48048e-12
-2.19084e-13 -3.48048e-12 -6.75351

-39.1983 -2.5712 9.76071e-13
-2.5712 21.5047 1.34411e-13
9.76071e-13 1.34411e-13 -10.6735

-7.9983 13.3691 1.9383e-12
13.3691 44.4109 3.41179e-12
1.9383e-12 3.41179e-12 -3.95054

3.7333 -29.7172 -3.54087e-13
-29.7172 -17.3711 2.34598e-12
-3.54087e-13 2.34598e-12 -8.92588

21.4252 -29.9552 6.46772e-12
-29.9552 14.7547 8.25414e-13
6.46772e-12 8.25414e-13 -3.9241

6.87651 31.6315 8.86994e-13
31.6315 25.4024 -3.99621e-12
8.86994e-13 -3.99621e-12 -6.83459

2.78305 -15.0181 -5.44779e-12
-15.0181 -39.2557 3.0594e-12
-5.44779e-12 3.0594e-12 -63.284

-46.1588 2.04288 2.16419e-12
2.04288 11.4602 -4.14306e-12
2.16419e-12 -4.14306e-12 -22.7537

-55.4378 20.2968 1.2923e-13
20.2968 3.09227 -1.69228e-12
1.2923e-13 -1.69228e-12 -22.9135

5.91316 15.436 -1.66948e-12
15.436 -58.8114 -3.21698e-12
-1.66948e-12 -3.21698e-12 -23.0335

-18.9249 -26.1923 5.00814e-12
-26.1923 -12.9164 -2.72996e-12
5.00814e-12 -2.72996e-12 -9.65822

41.3513 17.9615 1.95399e-12
17.9615 -6.27852 3.37241e-12
1.95399e-12 3.37241e-12 -3.86768

-44.6794 -5.29128 -5.13895e-12
-5.29128 4.53867 -6.92128e-12
-5.13895e-12 -6.92128e-12 -39.1324

7.49975 -18.9874 1.16292e-12
-18.9874 -39.8973 1.72307e-13
1.16292e-12 1.72307e-13 -11.6635

30.2935 -15.6017 4.60136e-12
-15.6017 -20.5175 4.1996e-13
4.60136e-12 4.1996e-13 -4.81193

-9.64632 11.6066 2.79776e-13
11.6066 44.3247 6.51331e-14
2.79776e-13 6.51331e-14 -3.86537

8.33005 -25.7412 1.15996e-12
-25.7412 32.9949 -8.4673e-13
1.15996e-12 -8.4673e-13 -3.63906

-10.2425 -25.2741 4.29049e-12
-25.2741 -19.1049 8.88623e-13
4.29049e-12 8.88623e-13 -23.1714

17.0035 31.9678 1.96998e-12
31.9678 11.1944 6.14619e-13
1.96998e-12 6.14619e-13 -5.75293

-1.06859 -25.1332 3.30491e-12
-25.1332 -30.7648 4.89682e-13
3.30491e-12 4.89682e-13 -20.8895

48.0721 2.59795 3.71495e-12
2.59795 -8.41797 -1.86281e-12
3.71495e-12 -1.86281e-12 -3.53772

6.55043 -28.9378 -5.49901e-12
-28.9378 72.0646 -9.49759e-13
-5.49901e-12 -9.49759e-13 -14.5533

21.791 -29.2385 -8.19907e-12
-29.2385 13.962 -3.31172e-12
-8.19907e-12 -3.31172e-12 -3.93649

35.3547 32.167 -3.3431e-12
32.167 74.1476 6.87569e-12
-3.3431e-12 6.87569e-12 -5.44292

-45.288 -11.8754 9.75275e-13
-11.8754 13.9208 7.79821e-13
9.75275e-13 7.79821e-13 -15.3284

-14.43 -13.825 -2.24754e-12
-13.825 43.3876 1.51701e-12
-2.24754e-12 1.51701e-12 -5.67922

-19.2352 -23.9817 -2.81878e-12
-23.9817 -19.8282 -1.25174e-12
-2.81878e-12 -1.25174e-12 -64.2253

2.43305 23.7772 -2.15591e-12
23.7772 36.0104 2.78533e-12
-2.15591e-12 2.78533e-12 -3.71721

-15.1839 -32.7266 -2.24798e-12
-32.7266 -21.1228 -2.26101e-12
-2.24798e-12 -2.26101e-12 -14.3158

-14.5748 -11.9663 3.31897e-12
-11.9663 45.5364 2.44308e-12
3.31897e-12 2.44308e-12 -5.74532

7.83488 -19.1162 -6.53403e-13
-19.1162 -43.1239 9.26666e-14
-6.53403e-13 9.26666e-14 -12.6353

6.54144 23.8836 -3.34192e-12
23.8836 35.1748 4.27391e-12
-3.34192e-12 4.27391e-12 -3.44804

23.1753 -4.97605 -8.72191e-13
-4.97605 -30.6835 1.28401e-12
-8.72191e-13 1.28401e-12 -5.37095

36.976 -30.3485 -1.58451e-12
-30.3485 122.65 1.37608e-12
-1.58451e-12 1.37608e-12 -6.23898

-26.8771 21.018 1.32279e-12
21.018 8.43341 -1.31983e-12
1.32279e-12 -1.31983e-12 -7.13714

40.343 -19.3282 4.8234e-12
-19.3282 -11.3812 -1.7133e-12
4.8234e-12 -1.7133e-12 -5.73242

6.52418 -21.4453 5.06232e-12
-21.4453 -45.5558 9.79957e-14
5.06232e-12 9.79957e-14 -24.968

20.7045 31.7622 -5.3267e-12
31.7622 9.55409 -2.87711e-12
-5.3267e-12 -2.87711e-12 -5.81241

13.9176 -29.9778 -4.91459e-14
-29.9778 -7.61212 4.82666e-12
-4.91459e-14 4.82666e-12 -5.95097

6.75585 20.8869 -6.85911e-12
20.8869 -27.7976 -7.54656e-13
-6.85911e-12 -7.54656e-13 -11.1122

-38.2758 -28.0768 3.37034e-12
-28.0768 -14.0396 7.05584e-13
3.37034e-12 7.05584e-13 -11.0664

8.64257 -26.2323 7.15457e-12
-26.2323 31.1734 -3.56811e-12
7.15457e-12 -3.56811e-12 -3.64118

15.3293 28.9886 1.25825e-12
28.9886 19.1535 1.78701e-12
1.25825e-12 1.78701e-12 -3.88915

28.6422 26.1973 -7.70939e-13
26.1973 -5.6401 2.4496e-12
-7.70939e-13 2.4496e-12 -4.80848

7.91289 -14.6132 5.17216e-13
-14.6132 -36.8814 2.73825e-12
5.17216e-13 2.73825e-12 -13.9937

-6.84862 -16.6222 7.85742e-13
-16.6222 41.3456 -1.16411e-12
7.85742e-13 -1.16411e-12 -3.96561

17.441 -17.5696 -3.48166e-13
-17.5696 -31.0057 2.17189e-12
-3.48166e-13 2.17189e-12 -7.11108

19.8414 16.9118 -1.87228e-12
16.9118 -31.6731 3.27442e-13
-1.87228e-12 3.27442e-13 -7.34105

-33.6834 -9.38336 4.82333e-12
-9.38336 8.75699 -2.66454e-12
4.82333e-12 -2.66454e-12 -23.9885

43.4372 -13.433 4.38997e-12
-13.433 -8.37669 6.50739e-13
4.38997e-12 6.50739e-13 -3.8103

-19.3882 0.59456 3.287e-12
0.59456 43.1503 -1.6153e-12
3.287e-12 -1.6153e-12 -4.78189

28.0582 18.5582 -3.55804e-12
18.5582 -18.2073 -4.2899e-13
-3.55804e-12 -4.2899e-13 -4.75626

25.5296 27.6102 -3.37271e-12
27.6102 -3.78183 -7.04622e-14
-3.37271e-12 -7.04622e-14 -4.77763

-6.72249 -15.6905 4.24668e-12
-15.6905 43.8039 1.51701e-12
4.24668e-12 1.51701e-12 -3.85403

-19.9162 -1.20222 2.27825e-12
-1.20222 42.1326 1.75859e-12
2.27825e-12 1.75859e-12 -4.69349

-5.47342 29.1351 -1.99366e-12
29.1351 -23.6514 2.75158e-12
-1.99366e-12 2.75158e-12 -16.7977

-37.2799 -10.9241 -1.53788e-12
-10.9241 21.6796 -2.02505e-12
-1.53788e-12 -2.02505e-12 -7.8357

27.1442 -26.7217 6.85674e-13
-26.7217 -5.53671 -8.92915e-13
6.85674e-13 -8.92915e-13 -4.95068

40.7235 21.3381 -2.61006e-12
21.3381 -8.37799 -3.63028e-12
-2.61006e-12 -3.63028e-12 -5.4738

12.3781 23.6673 -2.6444e-12
23.6673 -27.1335 -1.92675e-12
-2.6444e-12 -1.92675e-12 -8.67195

-37.8029 5.47271 -1.92305e-12
5.47271 23.3116 -2.04873e-12
-1.92305e-12 -2.04873e-12 -8.60238

18.5917 29.0731 -4.05542e-12
29.0731 17.377 -2.6219e-12
-4.05542e-12 -2.6219e-12 -3.95318

-9.98633 22.9642 5.66066e-13
22.9642 -14.9185 6.93431e-12
5.66066e-13 6.93431e-12 -24.0217

68.3329 -59.7038 1.03739e-12
-59.7038 36.3435 -1.77636e-12
1.03739e-12 -1.77636e-12 -23.0081

17.5297 -25.0529 -6.74423e-13
-25.0529 -17.9982 1.73935e-12
-6.74423e-13 1.73935e-12 -6.42376

10.0554 7.0716 3.14741e-12
7.0716 82.5663 4.27984e-12
3.14741e-12 4.27984e-12 -7.16746

11.9181 -28.8954 1.64905e-12
-28.8954 -3.88538 -3.44317e-12
1.64905e-12 -3.44317e-12 -5.17222

-66.941 -52.7088 3.07902e-14
-52.7088 143.284 -6.57015e-12
3.07902e-14 -6.57015e-12 -49.6601

-68.3846 51.4593 3.74219e-12
51.4593 142.572 6.47541e-12
3.74219e-12 6.47541e-12 -49.8493

19.5862 117.172 -2.04636e-12
117.172 64.152 -2.70006e-12
-2.04636e-12 -2.70006e-12 -48.3503

20.5451 -117.114 2.8777e-12
-117.114 61.0483 -4.1401e-12
2.8777e-12 -4.1401e-12 -48.7151

157.78 -1.36363 2.34479e-12
-1.36363 -79.1851 1.73819e-14
2.34479e-12 1.73819e-14 -48.9023

110.356 -91.1391 -8.71599e-13
-91.1391 -36.6816 1.86873e-12
-8.71599e-13 1.86873e-12 -50.2971

110.409 91.6671 -1.23161e-12
91.6671 -36.4918 -8.81073e-13
-1.23161e-12 -8.81073e-13 -50.1699

7.84428 14.333 3.08109e-12
14.333 -42.684 -6.06626e-13
3.08109e-12 -6.06626e-13 -15.0812

-11.7881 25.5341 3.9065e-12
25.5341 -27.4055 -3.43784e-12
3.9065e-12 -3.43784e-12 -35.1277

12.4384 6.60751 4.14365e-12
6.60751 -40.5419 -3.5912e-13
4.14365e-12 -3.5912e-13 -8.25907

26.2556 21.7895 -3.33659e-12
21.7895 -19.537 2.69533e-12
-3.33659e-12 2.69533e-12 -5.85759

-21.24 17.7489 -5.36445e-12
17.7489 29.8703 -1.89123e-12
-5.36445e-12 -1.89123e-12 -6.16945

22.53 28.9055 -1.74083e-13
28.9055 -0.780163 -1.77636e-15
-1.74083e-13 -1.77636e-15 -4.7373

4.05241 -29.6674 -1.97531e-12
-29.6674 -17.4699 1.76984e-12
-1.97531e-12 1.76984e-12 -8.5096

25.9957 28.0347 2.65861e-13
28.0347 -2.3069 -3.49291e-12
2.65861e-13 -3.49291e-12 -4.73765

-19.3567 -2.8424 -3.24896e-12
-2.8424 43.0762 -3.59298e-12
-3.24896e-12 -3.59298e-12 -4.77648

-13.4081 -26.095 -3.43222e-12
-26.095 -25.8394 -1.14545e-12
-3.43222e-12 -1.14545e-12 -35.5105

-19.8517 -4.86407 -2.71294e-12
-4.86407 41.7808 -2.34124e-12
-2.71294e-12 -2.34124e-12 -4.75041

-1.82876 23.0192 -4.45392e-12
23.0192 -24.378 -2.52642e-12
-4.45392e-12 -2.52642e-12 -16.1503

44.9882 26.8779 -9.41469e-13
26.8779 8.10723 -3.52074e-12
-9.41469e-13 -3.52074e-12 -5.37433

-52.5016 -13.2166 -3.47796e-12
-13.2166 0.149083 2.21038e-12
-3.47796e-12 2.21038e-12 -20.6158

20.2811 13.7306 5.84303e-12
13.7306 -31.151 -1.22332e-12
5.84303e-12 -1.22332e-12 -7.04975

13.6993 -29.9938 -4.1472e-12
-29.9938 -6.69764 3.65989e-12
-4.1472e-12 3.65989e-12 -5.84193

29.6331 -24.719 1.93268e-12
-24.719 -7.88098 -3.23001e-13
1.93268e-12 -3.23001e-13 -4.83164

5.76186 -16.0781 3.50446e-12
-16.0781 -32.3344 -2.76223e-12
3.50446e-12 -2.76223e-12 -22.2525

12.6271 27.9337 -3.28093e-12
27.9337 -13.6456 -5.47532e-12
-3.28093e-12 -5.47532e-12 -6.42573

23.309 23.9827 2.86467e-12
23.9827 -17.9511 -5.38828e-14
2.86467e-12 -5.38828e-14 -5.96907

-31.0862 -2.79263 1.15619e-12
-2.79263 30.1337 -6.69094e-13
1.15619e-12 -6.69094e-13 -6.40462

-28.6397 5.87418 5.46279e-12
5.87418 33.3239 -9.72851e-13
5.46279e-12 -9.72851e-13 -6.06606

34.5523 2.64735 -9.0535e-13
2.64735 -26.1951 -1.75138e-12
-9.0535e-13 -1.75138e-12 -6.1493

50.659 -7.29165 4.12588e-12
-7.29165 -14.0919 1.05529e-11
4.12588e-12 1.05529e-11 -6.78476

11.0391 30.4912 5.90402e-12
30.4912 -4.79347 1.00305e-12
5.90402e-12 1.00305e-12 -5.97296

17.4664 -26.1606 1.3749e-12
-26.1606 -17.4611 -1.62537e-13
1.3749e-12 -1.62537e-13 -6.35791

-0.0826876 -21.2552 -2.89369e-12
-21.2552 -27.9595 -2.19706e-12
-2.89369e-12 -2.19706e-12 -17.1663

4.93513 -31.6411 -4.06075e-12
-31.6411 4.8576 -2.5248e-12
-4.06075e-12 -2.5248e-12 -5.94203

-8.23446 -27.7927 -3.1554e-12
-27.7927 18.5785 3.91391e-13
-3.1554e-12 3.91391e-13 -6.13681

-1.6557 29.8946 3.91154e-12
29.8946 10.4453 -1.34944e-12
3.91154e-12 -1.34944e-12 -5.80716

-26.0267 -9.57995 -3.424e-12
-9.57995 32.9726 -3.08198e-12
-3.424e-12 -3.08198e-12 -5.79377

-31.3318 -1.54597 -1.23057e-12
-1.54597 31.6526 -2.63019e-12
-1.23057e-12 -2.63019e-12 -6.22955

-38.9237 5.7475 -2.27535e-12
5.7475 23.947 -1.01608e-12
-2.27535e-12 -1.01608e-12 -9.18793

-17.2271 -21.0945 2.43657e-13
-21.0945 26.5726 8.51053e-12
2.43657e-13 8.51053e-12 -5.77882

13.0697 24.1153 -1.67451e-12
24.1153 -28.1069 -4.06578e-12
-1.67451e-12 -4.06578e-12 -9.2098

21.5563 -9.59169 1.6005e-12
-9.59169 -31.7162 3.08005e-12
1.6005e-12 3.08005e-12 -6.60475

-27.1637 7.46662 2.80842e-12
7.46662 34.3374 2.54019e-13
2.80842e-12 2.54019e-13 -5.88046

-35.2444 -9.70179 -3.39749e-12
-9.70179 22.3145 -9.02389e-13
-3.39749e-12 -9.02389e-13 -8.18886

-29.1647 -16.334 -1.16411e-12
-16.334 19.3474 8.17124e-13
-1.16411e-12 8.17124e-13 -6.66834

36.9725 -8.2411 -1.50753e-12
-8.2411 -20.247 4.36925e-12
-1.50753e-12 4.36925e-12 -5.10805

-14.8117 -32.3468 1.07381e-12
-32.3468 -21.6281 -1.42701e-13
1.07381e-12 -1.42701e-13 -12.9959

-22.8326 9.3237 1.08891e-12
9.3237 33.326 -1.65853e-12
1.08891e-12 -1.65853e-12 -4.79509

-0.752848 -18.2136 1.71063e-12
-18.2136 -35.1545 3.43148e-12
1.71063e-12 3.43148e-12 -33.2683

4.92946 24.8292 3.59239e-12
24.8292 75.322 -3.45797e-13
3.59239e-12 -3.45797e-13 -14.3208

-14.1423 -26.6284 -2.35693e-12
-26.6284 -16.3548 -4.07407e-12
-2.35693e-12 -4.07407e-12 -14.6427

-6.3574 -30.2032 -1.1422e-12
-30.2032 -23.6072 -4.56613e-12
-1.1422e-12 -4.56613e-12 -17.0885

-31.28 -0.700552 3.60053e-12
-0.700552 31.5024 -1.91669e-12
3.60053e-12 -1.91669e-12 -6.35439

28.4904 -16.6255 -1.46845e-13
-16.6255 -18.0651 -6.95829e-12
-1.46845e-13 -6.95829e-12 -4.44432

-37.8116 12.8423 -1.39e-12
12.8423 11.1652 5.40012e-13
-1.39e-12 5.40012e-13 -10.9932

-8.86178 -3.18198 8.87364e-13
-3.18198 111.076 -2.90849e-12
8.87364e-13 -2.90849e-12 -22.6693

-31.612 14.2763 1.53921e-12
14.2763 21.3509 4.4853e-12
1.53921e-12 4.4853e-12 -7.13092

12.4196 -29.4958 -5.59138e-12
-29.4958 -2.52333 2.48927e-12
-5.59138e-12 2.48927e-12 -4.93451

33.6371 25.1107 1.202e-13
25.1107 124.054 -1.70057e-12
1.202e-13 -1.70057e-12 -6.21152

-13.4989 26.0916 -3.17361e-12
26.0916 -19.0955 -1.37342e-12
-3.17361e-12 -1.37342e-12 -58.8705

-9.55087 -27.8002 -9.52112e-12
-27.8002 -22.8036 9.0612e-12
-9.52112e-12 9.0612e-12 -59.5206

-2.86965 -30.4246 2.20505e-12
-30.4246 -7.32662 -3.93049e-12
2.20505e-12 -3.93049e-12 -7.29373

3.85605 -31.1679 6.39607e-12
-31.1679 5.63213 4.93235e-13
6.39607e-12 4.93235e-13 -6.06928

25.1539 20.8313 2.08959e-12
20.8313 -17.0423 1.58688e-12
2.08959e-12 1.58688e-12 -4.98315

31.8077 15.0097 2.0961e-13
15.0097 -23.3114 1.67718e-12
2.0961e-13 1.67718e-12 -5.9616

-9.48409 3.07939 1.11578e-11
3.07939 -9.82747 8.84552e-13
1.11578e-11 8.84552e-13 -80.8991

-5.54584 -6.99402 -1.33724e-11
-6.99402 -14.0364 -4.75116e-12
-1.33724e-11 -4.75116e-12 -80.252

11.7493 4.82406 4.36865e-12
4.82406 -43.2112 3.54886e-12
4.36865e-12 3.54886e-12 -7.83363

-35.0638 6.7331 3.53525e-12
6.7331 24.3759 -4.58478e-12
3.53525e-12 -4.58478e-12 -7.56938

-36.1193 6.73654 2.67979e-12
6.73654 24.4333 -2.96948e-12
2.67979e-12 -2.96948e-12 -8.3144

74.6029 58.6471 8.27782e-12
58.6471 34.1825 -8.62125e-13
8.27782e-12 -8.62125e-13 -21.8701

-6.92684 -28.2072 -1.42878e-12
-28.2072 16.8745 5.79033e-12
-1.42878e-12 5.79033e-12 -6.12371

8.17134 17.9736 3.59387e-12
17.9736 -44.8771 1.37342e-12
3.59387e-12 1.37342e-12 -12.8996

32.7068 9.54142 -2.10084e-12
9.54142 -19.089 -1.12947e-13
-2.10084e-12 -1.12947e-13 -4.08094

3.38373 -26.7297 4.82873e-12
-26.7297 13.4835 -1.76629e-12
4.82873e-12 -1.76629e-12 -3.83349

26.2388 -20.2423 -1.85333e-13
-20.2423 -20.3319 -1.39148e-14
-1.85333e-13 -1.39148e-14 -5.8699

65.4068 60.2451 -6.63173e-14
60.2451 34.2978 -9.0381e-12
-6.63173e-14 -9.0381e-12 -23.8653

-13.2441 31.071 1.23013e-12
31.071 -16.8869 -4.64754e-12
1.23013e-12 -4.64754e-12 -12.7895

-18.6139 -19.7912 1.94896e-12
-19.7912 28.4168 1.73076e-12
1.94896e-12 1.73076e-12 -5.97649

11.172 28.8631 -8.70415e-13
28.8631 -13.3282 -2.6296e-12
-8.70415e-13 -2.6296e-12 -6.44227

-31.878 -4.14644 -3.52348e-12
-4.14644 30.1494 -9.00021e-14
-3.52348e-12 -9.00021e-14 -6.364

-14.6039 19.6142 1.01223e-12
19.6142 27.1871 -1.03088e-12
1.01223e-12 -1.03088e-12 -4.4254

7.47669 30.5257 9.48575e-13
30.5257 -1.67516 -1.0895e-12
9.48575e-13 -1.0895e-12 -5.66713

-9.35142 -22.4789 -4.74287e-13
-22.4789 23.1504 2.86112e-12
-4.74287e-13 2.86112e-12 -4.18215

4.58673 -27.359 -2.224e-12
-27.359 11.4482 2.52776e-12
-2.224e-12 2.52776e-12 -3.94499

24.2759 11.2595 1.98908e-12
11.2595 102.101 -3.7114e-12
1.98908e-12 -3.7114e-12 -12.4029

37.4708 -33.4649 -2.38506e-12
-33.4649 69.2982 2.15058e-12
-2.38506e-12 2.15058e-12 -5.70449

-25.3453 -11.6931 -2.29853e-12
-11.6931 31.3708 -9.23706e-13
-2.29853e-12 -9.23706e-13 -5.65506

16.0952 26.49 -2.82678e-12
26.49 -15.5076 2.49874e-13
-2.82678e-12 2.49874e-13 -6.22344

4.95219 29.4842 2.52361e-12
29.4842 1.63417 -2.82618e-12
2.52361e-12 -2.82618e-12 -4.99656

-9.86123 -21.4394 -2.25568e-12
-21.4394 25.1225 2.5248e-12
-2.25568e-12 2.5248e-12 -4.03987

-21.6431 -11.7857 2.27255e-12
-11.7857 32.0847 -9.57456e-13
2.27255e-12 -9.57456e-13 -4.64375

10.4604 28.4158 3.31468e-12
28.4158 -0.159401 2.98487e-12
3.31468e-12 2.98487e-12 -4.67927

-21.855 -13.8814 -4.31714e-12
-13.8814 29.4692 -2.5698e-13
-4.31714e-12 -2.5698e-13 -4.85378

6.95638 27.8626 4.68662e-12
27.8626 73.0998 -7.81597e-13
4.68662e-12 -7.81597e-13 -14.3239

-45.834 -4.03958 -1.60954e-12
-4.03958 14.0474 4.25497e-12
-1.60954e-12 4.25497e-12 -19.9637

0.872257 31.0353 3.39462e-12
31.0353 7.51726 1.00601e-12
3.39462e-12 1.00601e-12 -6.09612

9.71822 14.9039 -4.67952e-12
14.9039 -36.4348 -2.60236e-12
-4.67952e-12 -2.60236e-12 -10.9896

9.92617 -15.9304 -2.25953e-12
-15.9304 -39.4144 -4.1626e-12
-2.25953e-12 -4.1626e-12 -13.0724

85.6315 -24.2106 3.65456e-12
-24.2106 7.6341 1.11792e-12
3.65456e-12 1.11792e-12 -12.9588

-23.2134 -21.2711 8.88534e-12
-21.2711 10.5135 1.05634e-12
8.88534e-12 1.05634e-12 -6.17203

-16.6066 26.7033 -2.45552e-12
26.7033 1.77621 3.99503e-12
-2.45552e-12 3.99503e-12 -6.59468

-26.1979 -21.7272 -7.32451e-13
-21.7272 -5.37147 -1.31576e-12
-7.32451e-13 -1.31576e-12 -23.8634

-41.5878 14.1009 1.98123e-12
14.1009 -3.55834 1.29141e-12
1.98123e-12 1.29141e-12 -64.1001

-0.894819 9.44506 -7.18418e-12
9.44506 -44.2473 1.75297e-12
-7.18418e-12 1.75297e-12 -64.2016

-20.3819 32.7031 9.49759e-13
32.7031 -23.2053 1.14338e-12
9.49759e-13 1.14338e-12 -24.3263

-11.4186 26.0073 -3.16014e-12
26.0073 22.6047 7.09299e-12
-3.16014e-12 7.09299e-12 -5.93277

16.0385 26.6657 -1.60523e-12
26.6657 -17.2948 1.86221e-12
-1.60523e-12 1.86221e-12 -6.55607

30.4325 45.1975 -1.56675e-12
45.1975 47.5637 -1.74083e-12
-1.56675e-12 -1.74083e-12 -15.1967

-44.879 -11.339 -5.10007e-12
-11.339 -1.80705 4.29967e-12
-5.10007e-12 4.29967e-12 -61.6578

-8.29775 -3.43032 -9.13131e-13
-3.43032 -12.7464 7.06072e-12
-9.13131e-13 7.06072e-12 -77.1911

-14.6826 -0.207752 -4.63511e-12
-0.207752 -6.41833 3.13453e-13
-4.63511e-12 3.13453e-13 -77.3353

27.6722 -53.814 -2.13281e-12
-53.814 71.1666 3.6285e-12
-2.13281e-12 3.6285e-12 -24.387

-11.6859 -11.5979 -5.60959e-12
-11.5979 -16.2068 2.69385e-12
-5.60959e-12 2.69385e-12 -37.4183

-32.608 8.80991 7.77156e-13
8.80991 -9.41382 8.09427e-13
7.77156e-13 8.09427e-13 -49.5222

18.2562 -26.2036 8.31335e-13
-26.2036 -19.5543 3.37774e-12
8.31335e-13 3.37774e-12 -6.51291

-39.4333 1.00907 2.02146e-12
1.00907 11.981 3.30758e-12
2.02146e-12 3.30758e-12 -19.7203

-30.2089 -20.2715 1.85925e-12
-20.2715 6.30413 -1.73905e-12
1.85925e-12 -1.73905e-12 -7.22276

10.5356 6.25578 -2.69177e-12
6.25578 -52.392 -1.18342e-12
-2.69177e-12 -1.18342e-12 -9.64517

-49.814 15.5961 8.46832e-13
15.5961 10.1634 1.41161e-12
8.46832e-13 1.41161e-12 -13.5342

-40.2897 7.1905 -3.59559e-12
7.1905 16.5414 -1.10134e-12
-3.59559e-12 -1.10134e-12 -13.7766

16.4044 20.3968 7.2878e-12
20.3968 -25.848 5.39302e-12
7.2878e-12 5.39302e-12 -7.61337

-9.10098 -3.11392 1.8443e-12
-3.11392 108.42 1.43766e-12
1.8443e-12 1.43766e-12 -23.0997

-3.32437 -27.6291 7.87518e-14
-27.6291 -3.63153 6.17166e-12
7.87518e-14 6.17166e-12 -5.83641

-7.33718 -26.1206 -1.11733e-12
-26.1206 -14.0853 -4.80445e-12
-1.11733e-12 -4.80445e-12 -9.8152

-14.2006 -31.4836 -4.2603e-12
-31.4836 -21.778 3.28004e-12
-4.2603e-12 3.28004e-12 -12.7587

90.7478 32.7572 6.53699e-13
32.7572 20.9103 -8.15644e-13
6.53699e-13 -8.15644e-13 -16.5041

-23.1108 -20.1145 1.01252e-13
-20.1145 -17.3865 1.69605e-12
1.01252e-13 1.69605e-12 -44.4117

72.6439 54.3331 3.84404e-12
54.3331 91.6578 9.0381e-12
3.84404e-12 9.0381e-12 -6.13914

-36.2191 -21.438 -6.11733e-12
-21.438 -6.79683 4.00272e-13
-6.11733e-12 4.00272e-13 -13.0465

15.0341 14.651 -3.39284e-13
14.651 -37.757 -6.59443e-12
-3.39284e-13 -6.59443e-12 -8.1842

44.5788 -14.576 3.64982e-12
-14.576 -8.28023 1.05949e-11
3.64982e-12 1.05949e-11 -4.42467

-21.2355 24.0501 -3.18442e-12
24.0501 4.95455 -4.02463e-12
-3.18442e-12 -4.02463e-12 -5.98297

17.3735 20.4303 5.62868e-12
20.4303 -26.7995 1.87287e-12
5.62868e-12 1.87287e-12 -6.95735

-51.1376 11.3977 -9.3799e-13
11.3977 7.70869 -3.68298e-12
-9.3799e-13 -3.68298e-12 -29.9874

-7.29079 -31.5837 -3.43429e-14
-31.5837 -12.83 1.29644e-12
-3.43429e-14 1.29644e-12 -8.12491

2.79346 19.812 2.62309e-12
19.812 -46.0295 -1.56912e-13
2.62309e-12 -1.56912e-13 -29.9793

-24.6775 -18.447 -7.29787e-13
-18.447 17.8365 -5.88566e-13
-7.29787e-13 -5.88566e-13 -5.48672

-42.3446 4.2848 -4.30871e-13
4.2848 17.8691 -8.3548e-13
-4.30871e-13 -8.3548e-13 -12.7309

-4.09799 9.92875 -6.52515e-13
9.92875 -40.2686 -5.08719e-12
-6.52515e-13 -5.08719e-12 -47.5311

-2.68867 -8.51573 -3.67114e-13
-8.51573 -38.3001 -4.40892e-12
-3.67114e-13 -4.40892e-12 -47.3868

81.7399 18.5168 -2.52716e-12
18.5168 1.69644 3.73627e-12
-2.52716e-12 3.73627e-12 -14.4547

3.89519 7.96658 -2.94254e-12
7.96658 -45.1881 -5.2367e-12
-2.94254e-12 -5.2367e-12 -11.0233

35.8846 7.74266 7.19158e-12
7.74266 184.608 9.66338e-13
7.19158e-12 9.66338e-13 -9.747

40.1587 -11.3876 3.68272e-12
-11.3876 190.406 -3.08849e-12
3.68272e-12 -3.08849e-12 -7.37842

53.7796 56.4148 -8.31335e-13
56.4148 159.287 1.1795e-12
-8.31335e-13 1.1795e-12 -11.4897

1.70583 -28.9532 -1.50813e-12
-28.9532 -24.6932 7.25642e-13
-1.50813e-12 7.25642e-13 -11.9661

16.0547 -49.2009 -3.53969e-12
-49.2009 99.4401 8.22098e-12
-3.53969e-12 8.22098e-12 -21.6861

54.5276 -55.9574 9.56864e-13
-55.9574 150.003 -8.8581e-13
9.56864e-13 -8.8581e-13 -13.6549

-2.17092 26.2264 -2.21808e-12
26.2264 17.5727 4.59011e-12
-2.21808e-12 4.59011e-12 -4.00266

134.967 73.8544 4.61853e-12
73.8544 85.0437 -4.73695e-14
4.61853e-12 -4.73695e-14 -10.1486

-18.7249 13.0451 1.42523e-12
13.0451 -3.89727 1.32043e-12
1.42523e-12 1.32043e-12 -26.7632

3.74015 0.043998 -3.89896e-12
0.043998 -26.1902 -6.32975e-13
-3.89896e-12 -6.32975e-13 -26.7665

144.126 -73.1396 -4.35326e-12
-73.1396 85.3713 -3.50771e-12
-4.35326e-12 -3.50771e-12 -8.18548

-21.4012 -23.4292 3.65426e-12
-23.4292 12.2469 -1.112e-12
3.65426e-12 -1.112e-12 -6.49849

89.3647 34.737 6.44936e-12
34.737 41.3976 4.5605e-12
6.44936e-12 4.5605e-12 -11.5457

72.2055 63.5005 -8.25888e-12
63.5005 149.721 3.51008e-12
-8.25888e-12 3.51008e-12 -9.66321

26.1689 21.6351 2.86822e-12
21.6351 100.154 -2.44427e-12
2.86822e-12 -2.44427e-12 -13.0293

73.8928 -65.9297 2.8398e-12
-65.9297 151.173 -9.84812e-12
2.8398e-12 -9.84812e-12 -9.39146

25.7735 -12.3837 -1.76333e-12
-12.3837 105.034 4.538e-12
-1.76333e-12 4.538e-12 -12.426

-28.6641 6.83726 -2.5564e-12
6.83726 3.10883 -7.96222e-12
-2.5564e-12 -7.96222e-12 -37.8407

37.7493 -45.9859 5.37644e-12
-45.9859 49.6782 1.88649e-12
5.37644e-12 1.88649e-12 -15.5332

14.4488 47.5421 -3.25665e-12
47.5421 94.8997 1.05231e-11
-3.25665e-12 1.05231e-11 -22.1897

173.371 37.9177 9.99497e-13
37.9177 48.0561 -1.77162e-12
9.99497e-13 -1.77162e-12 -9.51202

7.018 -29.2904 -2.42413e-12
-29.2904 -14.3624 -9.26666e-14
-2.42413e-12 -9.26666e-14 -7.16171

-38.4227 12.8958 2.62694e-12
12.8958 6.43609 1.9913e-12
2.62694e-12 1.9913e-12 -15.2922

88.5234 -38.1209 -2.54374e-12
-38.1209 34.1694 -1.57267e-12
-2.54374e-12 -1.57267e-12 -14.0974

6.04016 -28.8064 3.66285e-12
-28.8064 -16.1783 4.13062e-12
3.66285e-12 4.13062e-12 -8.03553

169.237 -36.3494 1.13687e-13
-36.3494 34.9414 1.98478e-12
1.13687e-13 1.98478e-12 -13.2804

-5.7275 -28.3217 -1.23279e-12
-28.3217 -14.4776 1.22776e-12
-1.23279e-12 1.22776e-12 -9.31463

-17.7981 -25.3005 7.52583e-12
-25.3005 12.0789 -5.41907e-12
7.52583e-12 -5.41907e-12 -5.94157

118.9 69.4707 -1.64372e-12
69.4707 96.2407 -2.79954e-12
-1.64372e-12 -2.79954e-12 -11.3902

29.4186 -22.9379 -4.43497e-12
-22.9379 97.8167 1.08476e-12
-4.43497e-12 1.08476e-12 -14.3375

117.983 -71.703 -7.7686e-13
-71.703 93.702 -6.2433e-12
-7.7686e-13 -6.2433e-12 -12.4061

22.2705 50.7478 -3.45679e-12
50.7478 73.7957 3.57877e-12
-3.45679e-12 3.57877e-12 -24.7752

-1.54025 -30.2179 -1.06581e-12
-30.2179 -6.55748 2.92507e-13
-1.06581e-12 2.92507e-13 -7.00459

-7.04122 -14.6417 6.63765e-13
-14.6417 -21.9215 -9.69003e-13
6.63765e-13 -9.69003e-13 -32.6047

-11.8909 11.0884 3.36264e-12
11.0884 -16.4211 7.2616e-12
3.36264e-12 7.2616e-12 -77.7577

-26.1572 -5.16078 -9.86322e-13
-5.16078 -6.38686 1.15465e-12
-9.86322e-13 1.15465e-12 -77.5916

-38.9487 13.0843 1.29075e-12
13.0843 13.7441 -7.90479e-13
1.29075e-12 -7.90479e-13 -10.2439

-14.4781 -10.6627 -5.2914e-12
-10.6627 -17.3082 9.83954e-13
-5.2914e-12 9.83954e-13 -78.7199

-25.8909 4.09294 -2.18521e-12
4.09294 -5.91321 4.34149e-12
-2.18521e-12 4.34149e-12 -78.862

-3.6307 7.42847 1.52366e-11
7.42847 -27.8515 8.6849e-13
1.52366e-11 8.6849e-13 -77.9498

-43.9639 -12.1098 4.14998e-12
-12.1098 2.91565 7.05939e-12
4.14998e-12 7.05939e-12 -68.1279

11.9729 -30.4778 -8.80777e-12
-30.4778 76.1785 1.91373e-12
-8.80777e-12 1.91373e-12 -14.7021

0.51915 -12.9721 -3.83249e-12
-12.9721 -39.9847 1.38674e-12
-3.83249e-12 1.38674e-12 -45.2608

-16.3481 -34.4144 -1.21562e-12
-34.4144 -22.072 6.0559e-13
-1.21562e-12 6.0559e-13 -23.5871

-2.42286 -18.1783 9.2033e-12
-18.1783 -29.8913 5.00518e-12
9.2033e-12 5.00518e-12 -33.6166

12.7365 15.462 -3.33245e-12
15.462 -37.7228 7.96992e-13
-3.33245e-12 7.96992e-13 -9.63078

-46.8959 9.86052 -1.03952e-11
9.86052 8.87423 6.8893e-13
-1.03952e-11 6.8893e-13 -70.1225

3.46005 19.2225 -1.15096e-11
19.2225 -41.4602 -4.7663e-12
-1.15096e-11 -4.7663e-12 -70.2383

1.46914 11.3104 -6.66134e-14
11.3104 -23.9626 6.71019e-13
-6.66134e-14 6.71019e-13 -31.8584

109.416 -15.3434 2.82322e-12
-15.3434 -12.5358 1.81484e-12
2.82322e-12 1.81484e-12 -25.0346

-14.3275 24.9698 -4.88853e-12
24.9698 10.3851 6.45232e-12
-4.88853e-12 6.45232e-12 -5.81195

76.6236 -61.3674 -5.76724e-12
-61.3674 37.3759 -4.29642e-12
-5.76724e-12 -4.29642e-12 -22.3919

76.1283 -57.4681 -9.4739e-15
-57.4681 99.2473 8.62125e-12
-9.4739e-15 8.62125e-12 -5.55122

118.219 -36.5515 8.59757e-12
-36.5515 40.6081 8.941e-13
8.59757e-12 8.941e-13 -7.37552

-51.0992 -5.15838 1.58866e-12
-5.15838 3.33793 4.66294e-14
1.58866e-12 4.66294e-14 -60.6347

-50.4634 2.89155 8.91435e-13
2.89155 3.1322 6.39163e-12
8.91435e-13 6.39163e-12 -60.1076

-11.9746 -24.449 -2.11268e-12
-24.449 -34.9925 3.52555e-12
-2.11268e-12 3.52555e-12 -59.1423

-8.98973 -21.7526 5.99321e-12
-21.7526 -37.8785 -4.9436e-12
5.99321e-12 -4.9436e-12 -59.4517

-14.7004 26.1279 -5.43624e-12
26.1279 -33.0176 -3.70311e-12
-5.43624e-12 -3.70311e-12 -60.7258

-18.1493 3.09427 -7.34228e-13
3.09427 -13.1601 -1.41326e-11
-7.34228e-13 -1.41326e-11 -75.4433

-9.94423 -20.5032 -3.42511e-12
-20.5032 -32.6411 2.36418e-12
-3.42511e-12 2.36418e-12 -56.7137

-26.6377 -18.5639 -7.83729e-12
-18.5639 -14.1951 -9.14739e-12
-7.83729e-12 -9.14739e-12 -71.2405

-15.47 2.43068 3.8507e-12
2.43068 -12.8499 -1.40232e-11
3.8507e-12 -1.40232e-11 -77.8364

-6.02633 -20.5195 2.33724e-12
-20.5195 -41.4762 -1.12207e-12
2.33724e-12 -1.12207e-12 -60.4821

-6.75541 20.9488 -5.86316e-12
20.9488 -40.133 5.55704e-13
-5.86316e-12 5.55704e-13 -59.9935

-14.3077 -3.45442 -8.96661e-12
-3.45442 -11.388 -6.44359e-12
-8.96661e-12 -6.44359e-12 -76.8513

-11.2589 -3.11143 5.45771e-12
-3.11143 -17.6819 1.05523e-11
5.45771e-12 1.05523e-11 -74.0156

-24.1935 12.1088 -2.86734e-12
12.1088 -13.3999 -4.81023e-13
-2.86734e-12 -4.81023e-13 -69.9371

-22.0767 26.9232 -9.22225e-13
26.9232 -26.2632 1.5137e-13
-9.22225e-13 1.5137e-13 -57.5595

VECTORS fluid_flux_TPM float
-8.72937e-05 3.10563e-05 1.52097e-21
3.56242e-06 6.88804e-06 -4.79545e-21
-1.27975e-05 -1.02337e-05 -4.2011e-21
-4.17381e-06 4.25743e-06 -5.25278e-21
2.27257e-05 -6.31834e-06 -8.74783e-21
2.75989e-06 -1.59161e-05 -2.27708e-20
-8.58683e-05 -3.11208e-05 -1.22781e-21
-1.39033e-05 -1.04752e-05 -1.45627e-20
2.21393e-05 9.4627e-07 -1.89539e-21
1.1393e-05 -3.91117e-06 -3.7024e-21
5.46444e-05 1.24938e-05 -1.11148e-20
2.34884e-06 -1.72077e-05 -6.56807e-21
1.36223e-05 1.12627e-05 -8.51272e-21
2.66427e-06 1.37956e-05 1.05062e-20
2.05973e-05 -2.94903e-06 -4.47493e-22
-1.63454e-05 -2.73105e-07 6.75816e-21
2.75578e-06 1.411e-05 7.82983e-21
1.01899e-05 -2.39377e-06 -1.26639e-20
9.90662e-06 1.72364e-05 -4.07969e-21
-1.48604e-05 1.88699e-06 7.93474e-21
-3.60394e-06 -2.13211e-05 -1.70339e-20
3.41387e-05 5.94658e-05 2.09488e-20
1.571e-05 1.6326e-06 -1.06488e-21
1.12364e-05 -1.12904e-05 -2.97712e-20
-1.50905e-05 -3.33508e-06 1.00099e-20
-6.77689e-07 -1.11398e-05 -2.67316e-21
6.29546e-05 -4.91239e-06 3.17004e-21
1.40773e-05 1.0257e-05 -1.94609e-20
-2.51701e-05 -2.066e-05 -1.26818e-20
4.91603e-05 -1.28245e-05 1.549e-21
-1.65959e-05 -6.0432e-06 1.2376e-20
5.542e-06 -3.20631e-05 -1.5171e-20
4.76941e-05 -4.80867e-05 -1.24995e-21
-4.92735e-06 -4.12818e-05 -9.69704e-21
-2.96979e-05 3.70359e-05 -2.79411e-21
-3.82791e-05 -1.64087e-05 1.5484e-20
3.27298e-05 4.32513e-05 -4.73815e-21
-4.47778e-05 -8.73314e-06 1.09516e-20
1.43863e-05 -1.10909e-05 -1.80401e-20
4.65088e-05 5.01564e-05 -3.53521e-21
3.21561e-05 -1.40335e-05 -8.8518e-21
3.3668e-05 -4.23786e-05 -2.7894e-20
-1.99129e-05 -5.04203e-05 3.36046e-20
-1.59111e-05 6.36206e-06 1.56635e-20
3.05512e-05 -2.93384e-05 5.21896e-21
-3.03581e-05 1.09998e-05 9.94078e-22
-4.05343e-06 -2.03877e-05 -9.91576e-21
7.89279e-06 2.02286e-05 -1.08695e-20
-1.63562e-05 5.93284e-06 2.34923e-21
-1.78345e-05 2.87503e-05 -1.19169e-20
3.24358e-05 1.53036e-05 9.02778e-21
2.93898e-05 -1.00835e-05 -1.19417e-21
-1.56795e-05 1.57736e-05 3.92751e-22
-2.35612e-05 -2.07081e-05 -1.648e-21
-2.11576e-05 -5.13677e-06 7.60471e-21
-4.48298e-05 2.70998e-05 -1.31464e-20
-2.93967e-05 -3.80552e-05 -2.07533e-21
6.36915e-06 -3.0654e-05 -2.89681e-20
-4.77483e-05 6.48843e-06 1.40818e-20
6.07938e-06 1.37087e-05 9.54376e-21
-5.58158e-06 -8.18043e-06 2.02108e-21
-6.58918e-06 -1.7959e-05 1.24054e-20
5.7193e-05 2.48808e-05 -6.56852e-21
9.25086e-06 1.81599e-05 1.47867e-20
1.23072e-05 -1.44574e-05 -3.61866e-20
-1.64189e-06 -2.07704e-05 -2.23269e-20
4.62515e-06 -8.81316e-06 -7.77011e-21
-1.00993e-05 -5.56971e-06 1.34416e-20
-1.06118e-05 1.19398e-05 -2.40379e-21
2.56041e-06 -4.09612e-06 -1.89326e-21
-1.50564e-05 -1.58569e-05 6.20136e-21
-2.13834e-05 5.17041e-06 -4.05513e-21
-3.55954e-06 3.45117e-05 8.17241e-21
-1.78874e-05 1.07202e-05 -2.29934e-21
-9.07864e-06 1.46275e-05 5.40058e-21
-6.0409e-05 7.69933e-06 -8.34007e-22
7.82493e-06 -2.17004e-05 -2.05035e-20
-1.88966e-05 -8.90791e-06 1.55069e-21
1.9355e-06 1.16341e-05 -3.00921e-21
2.63239e-05 5.09406e-06 -1.01882e-20
3.4199e-05 -2.90002e-05 8.14844e-21
2.21658e-05 2.05741e-05 -6.39041e-21
1.19188e-05 -2.82482e-06 -1.26302e-20
-3.21822e-05 2.4089e-05 7.7269e-21
3.79375e-05 4.85007e-06 -5.01662e-21
-4.98455e-06 4.94586e-05 -8.26078e-21
-1.74252e-06 -1.68719e-05 -1.07313e-20
1.81397e-05 9.96332e-06 -6.75043e-21
2.93435e-05 3.03121e-05 1.89324e-22
5.50729e-05 3.80466e-05 -5.06604e-21
-5.33577e-06 3.07999e-05 1.56309e-20
5.92315e-05 -3.55435e-05 -2.18802e-20
-2.71485e-05 5.34589e-06 6.88925e-21
1.78549e-05 1.10114e-05 3.32175e-21
-2.96674e-05 9.91223e-06 -1.06395e-21
1.66679e-05 2.85461e-05 -7.22441e-21
1.01782e-05 -4.44258e-05 -1.02744e-20
1.91723e-06 1.16309e-05 -3.12729e-21
-1.48137e-05 -1.76356e-05 2.33513e-20
3.07268e-06 1.749e-05 3.64601e-21
2.643e-05 5.26206e-06 -4.30904e-21
-1.54567e-05 3.32407e-05 -7.63504e-21
4.05879e-05 -1.33447e-05 -3.43758e-21
-3.7763e-06 7.46165e-06 -1.1689e-20
9.96161e-06 5.90444e-06 -1.11312e-20
-2.28252e-06 -1.13345e-05 -1.01969e-20
3.22356e-06 -1.92688e-05 -3.12582e-20
1.74847e-05 3.89548e-06 -6.82031e-21
-7.94369e-06 4.10088e-05 1.76548e-20
-9.81413e-06 2.48192e-07 -2.26144e-20
9.32677e-06 1.18961e-05 -2.54598e-21
-2.1785e-06 -4.17508e-05 -7.90654e-21
4.20599e-05 1.28762e-05 1.59419e-21
4.42652e-06 -7.45968e-06 -1.9386e-21
-1.1155e-05 -3.55675e-06 7.89307e-21
-2.93517e-05 -1.24972e-05 -7.75282e-21
1.58176e-05 4.11833e-05 -9.98671e-21
-4.3524e-05 -1.55879e-05 -5.20261e-21
1.60325e-05 -4.11598e-05 -1.84523e-21
-3.70281e-06 -3.19483e-05 -1.55701e-20
2.1858e-05 6.52751e-07 -1.5558e-20
-7.17774e-06 1.84127e-05 6.73027e-21
-1.61253e-06 3.973e-06 4.75963e-22
-3.6891e-06 -1.65532e-05 -9.334e-21
5.23455e-06 -8.30933e-06 4.7321e-21
9.36775e-06 1.58774e-05 6.89972e-21
3.31301e-05 1.06618e-05 -1.33426e-20
8.62307e-06 -7.46452e-06 -1.68395e-21
-8.27784e-06 -4.52001e-05 -1.26089e-20
2.55746e-05 -1.88362e-05 -4.35178e-21
4.98236e-06 2.77956e-05 -1.41381e-21
-2.81881e-06 -2.84409e-06 1.96542e-20
-8.63371e-06 -8.33306e-06 -8.47089e-21
-4.78078e-06 4.41173e-08 1.44792e-21
-2.28928e-05 2.86197e-05 5.9925e-21
1.87796e-05 -3.74077e-05 -3.09933e-20
-2.66032e-05 4.27526e-05 -1.51616e-20
-1.63862e-05 9.54369e-06 7.45408e-21
2.53014e-06 1.22095e-05 -6.98387e-21
-2.30068e-05 -3.502e-05 2.07738e-20
1.39486e-05 3.34953e-05 -5.10014e-21
1.7523e-05 9.37734e-06 -1.70611e-20
2.28314e-05 -8.53003e-06 -3.30602e-21
-1.25418e-06 -1.12752e-05 -9.79314e-21
-3.39417e-05 -3.15864e-05 -1.79943e-20
-2.75381e-06 1.13132e-05 -2.69209e-21
1.72617e-05 1.01805e-05 -9.5682e-21
1.89039e-05 -8.82847e-06 -1.32718e-20
8.25045e-06 -1.43573e-05 -7.57321e-21
2.43782e-05 -1.08047e-05 -2.18749e-21
1.90261e-05 -9.00564e-06 -1.1905e-20
4.64472e-06 2.06016e-07 -2.97845e-21
2.57632e-05 2.02386e-05 -8.7721e-22
-2.74394e-06 -1.70448e-05 2.47138e-21
-1.04888e-05 -4.46094e-06 -5.64447e-21
1.12689e-06 -3.8935e-06 2.27592e-24
-3.15771e-06 1.58607e-05 -4.7233e-22
-3.49143e-05 2.77061e-06 -7.2958e-21
-1.21319e-05 -3.32875e-05 -4.42029e-21
-7.88586e-06 9.78759e-06 -1.36377e-20
1.35771e-05 1.66547e-05 -1.38457e-20
2.65918e-05 -1.87608e-05 -7.16303e-21
-3.68247e-05 -2.03692e-05 -5.11636e-21
1.74185e-05 -2.75314e-05 -4.02361e-21
2.28239e-05 -2.72401e-05 -9.20287e-21
-1.09539e-05 3.78823e-06 9.14301e-21
-1.98462e-05 -2.88658e-05 -5.76376e-21
-3.49107e-05 -5.79656e-06 5.45333e-21
-3.85539e-06 -3.17706e-05 -1.91362e-20
1.54613e-05 -3.17267e-05 -1.5434e-20
-9.11397e-06 -2.62222e-05 8.2626e-22
4.58547e-06 3.14328e-05 1.1089e-20
-1.57659e-05 -2.85473e-05 -6.67735e-21
2.94142e-06 -1.63064e-05 5.82217e-22
-2.4761e-05 1.82762e-05 3.61873e-21
-1.50438e-05 -1.21216e-05 2.04617e-20
-2.73765e-05 -5.17696e-06 2.4755e-21
1.56817e-05 -9.1895e-06 -1.40549e-20
-4.31062e-06 2.39733e-05 2.98929e-20
1.22433e-05 -9.33254e-06 -2.21069e-20
-2.9612e-05 -1.3176e-05 -6.94489e-21
-8.83929e-06 -7.46464e-06 3.80593e-21
9.09003e-06 7.54736e-06 -1.27573e-20
2.14456e-05 2.87256e-05 -3.38726e-21
-1.75241e-05 -1.08187e-05 2.05455e-21
-3.2535e-05 -7.51704e-07 6.81332e-21
-1.63509e-05 -5.02058e-06 -8.64685e-21
-4.58202e-06 -1.65976e-05 -8.44739e-21
1.77001e-05 2.12576e-05 -1.75714e-20
-1.09668e-05 5.87994e-06 -1.72973e-20
6.36685e-07 -2.05732e-05 -1.292e-20
-4.1977e-05 1.08607e-05 -3.48988e-21
2.48823e-05 2.02639e-05 -2.08335e-21
3.79816e-06 3.2814e-05 1.87098e-21
-2.43409e-06 3.80052e-06 9.61747e-21
-9.05884e-06 2.51436e-07 3.82536e-21
4.35895e-06 7.76682e-06 -1.51785e-20
-1.17041e-05 3.4044e-06 2.85505e-21
-2.0751e-06 -3.78818e-06 -2.3853e-20
1.66132e-06 2.0778e-05 9.17679e-21
4.47634e-06 4.50061e-07 -8.0951e-21
-1.95553e-05 4.76089e-06 -4.62597e-21
-1.73135e-05 1.93752e-05 5.52927e-21
-3.11014e-06 1.15883e-05 1.54857e-20
-2.92427e-05 1.84108e-05 1.87507e-22
-9.35146e-06 8.98711e-06 -8.75221e-21
1.73263e-05 -1.16239e-05 -1.13391e-20
3.66362e-05 -3.56776e-06 1.39273e-21
-2.11592e-05 1.13073e-05 5.9249e-21
2.23495e-06 4.50216e-06 -1.55925e-20
2.17943e-05 -4.34864e-06 -9.22775e-21
-1.7294e-05 1.0362e-05 4.69482e-21
-9.88045e-06 5.54391e-06 1.19579e-20
1.18418e-05 3.746e-06 9.97121e-21
2.18991e-05 -1.34828e-05 -2.46882e-21
-1.73952e-05 9.96491e-06 -7.48875e-21
-2.50591e-05 -5.30779e-06 -3.75317e-21
-1.67764e-05 -4.36633e-06 -3.53126e-21
9.88488e-06 6.28432e-09 -5.73573e-21
1.01828e-05 1.95498e-07 -3.41228e-21
4.39467e-06 8.32446e-06 -1.23079e-20
4.83383e-06 -8.80548e-06 -1.87134e-20
-5.01473e-06 8.42721e-06 1.52692e-20
-5.27128e-06 -8.66516e-06 1.56535e-20
9.91967e-06 -7.41445e-06 -5.17654e-21
-2.03452e-05 3.23772e-06 -4.04273e-22
-2.00774e-05 -3.28658e-06 -7.17561e-21
-1.28459e-05 1.58903e-05 4.05088e-21
-1.29258e-05 -1.59446e-05 -6.95766e-21
7.49277e-06 -1.9861e-05 -3.46957e-21
7.21227e-06 1.97811e-05 -8.14195e-21
1.55937e-06 2.59077e-05 4.80546e-21
1.12503e-05 -3.13954e-06 -3.18067e-21
2.36203e-06 -3.86986e-06 -1.82904e-20
-2.14302e-05 1.42295e-06 -1.34695e-21
7.68385e-06 -1.953e-05 -1.37705e-20
7.27974e-06 1.96787e-05 -8.49742e-21
4.77295e-06 -5.27554e-08 -9.56924e-21
8.97625e-06 2.44244e-05 -4.55854e-21
-2.24418e-06 -4.01987e-06 -4.70677e-21
2.31986e-06 -1.13268e-05 -5.93704e-21
-2.24501e-05 -1.21624e-05 1.4602e-21
-2.13766e-05 -1.15046e-05 7.05238e-21
-2.19117e-05 1.36406e-05 1.68711e-20
3.25405e-06 -1.22982e-05 3.77227e-21
-1.56661e-06 3.38493e-06 -9.44055e-21
-5.87623e-07 -2.55912e-05 -1.39876e-20
-7.72668e-06 -2.44441e-05 3.75074e-21
3.27321e-05 3.03883e-05 9.7437e-21
3.54835e-05 -1.81671e-06 -2.16657e-21
-1.27219e-05 -3.63525e-06 -6.73996e-21
-2.2912e-05 -4.1422e-05 -1.20917e-20
8.31138e-06 1.37596e-05 -9.15315e-21
-2.52575e-05 3.03598e-06 -2.34831e-21
2.00822e-05 5.7913e-06 -1.45172e-20
-4.53699e-06 -3.27588e-08 1.65237e-20
-4.66907e-06 -8.41982e-06 -1.81476e-20
-7.07884e-06 -3.93661e-05 -1.43868e-21
-9.7165e-06 -8.40301e-08 -5.22261e-21
-4.87167e-05 -1.81728e-06 2.17974e-22
1.73236e-05 -1.91214e-05 -1.27845e-20
2.43146e-06 4.00242e-06 -1.33214e-20
-1.20624e-07 -1.75285e-05 3.90582e-21
-9.82655e-06 2.41045e-05 4.70496e-21
-4.37567e-06 8.63464e-06 -8.67763e-21
2.05736e-05 -1.36174e-05 1.17534e-20
-3.76906e-05 -1.35628e-05 1.3601e-20
-1.52786e-05 -2.03832e-05 -4.17852e-21
4.98122e-06 8.39606e-06 -2.05093e-21
1.66451e-05 5.16486e-06 -1.03916e-20
-4.7678e-06 -7.34448e-06 -7.06874e-21
1.9813e-05 3.55019e-06 8.49889e-21
1.82035e-05 -9.83387e-06 -1.45487e-20
-3.49042e-07 2.71951e-05 6.31568e-21
8.3273e-06 -1.3678e-05 -1.2126e-20
4.88438e-05 2.20242e-06 -8.89803e-21
-4.23922e-05 1.14633e-05 -6.12999e-21
2.28784e-05 1.15655e-05 -1.4698e-20
-6.45805e-06 -1.71932e-05 -1.30809e-20
-1.53622e-05 -8.62512e-06 -2.8981e-21
2.88104e-05 -2.10701e-07 -1.45924e-20
-6.92441e-07 -2.42742e-05 -3.28012e-20
-1.26274e-05 -1.08827e-05 2.23108e-20
1.02322e-05 -2.35182e-05 -2.34668e-20
-4.96895e-07 2.05717e-05 8.79634e-22
7.92415e-06 2.60884e-05 -8.37447e-21
1.72816e-05 -9.892e-06 -2.36075e-21
-1.89629e-05 1.9314e-05 1.43113e-20
1.6541e-05 2.00451e-05 -1.40532e-20
-6.22794e-05 1.60345e-05 2.18036e-21
-1.0117e-05 2.60366e-05 3.03927e-22
1.25289e-05 -1.52602e-05 -2.79953e-20
-7.03457e-06 -1.84122e-05 2.06342e-20
-1.18628e-05 4.50928e-06 -1.43017e-21
-2.59139e-05 -7.05141e-06 -3.90066e-21
-6.39106e-06 3.88883e-05 -1.70668e-22
-1.26158e-05 1.19118e-05 1.03877e-20
2.07929e-05 -4.47906e-06 -1.52842e-20
-6.87772e-06 -2.58145e-05 1.64738e-21
-1.48804e-05 2.39099e-05 5.06407e-21
-2.18059e-05 1.25746e-05 4.44196e-21
-2.05857e-05 -1.50674e-05 -8.40447e-21
1.80427e-05 -2.06711e-05 -1.63247e-20
-2.75525e-05 -1.45739e-06 -2.88825e-21
1.23775e-05 -4.08421e-05 3.4893e-22
1.94015e-05 -1.89279e-05 -5.15395e-21
2.47523e-05 4.31155e-05 -4.52807e-21
1.97275e-06 1.9882e-05 1.25687e-20
2.96364e-06 -2.54411e-05 -1.44696e-20
-4.16689e-05 4.69987e-05 -1.25427e-20
-1.2712e-05 -2.4431e-05 1.8211e-21
1.63797e-05 -6.42551e-06 -7.25596e-21
-2.41256e-06 2.57926e-05 4.5981e-21
1.2893e-05 -1.18357e-05 3.8273e-21
1.38916e-05 2.4332e-05 -2.54295e-21
1.72434e-05 -1.40157e-06 -3.57659e-21
2.21382e-05 -6.32662e-05 -2.05847e-20
-5.88064e-06 -1.28694e-05 -5.6369e-21
-2.32027e-05 1.00952e-05 -3.47926e-21
-2.00356e-05 1.87337e-05 1.95062e-20
2.16293e-05 1.4579e-05 3.33147e-21
1.86873e-05 -1.0765e-05 -1.37999e-20
1.49636e-05 1.26033e-05 -1.33741e-20
-5.43229e-06 4.56014e-08 -1.23532e-20
1.54158e-05 -2.31053e-05 -3.89568e-21
-1.70036e-05 -2.04254e-05 -7.77056e-21
2.25795e-05 9.78131e-06 -1.20021e-20
1.28166e-05 -1.19991e-05 -7.35508e-21
9.56162e-06 -2.48712e-05 -1.6609e-20
1.66722e-05 -6.93827e-06 -9.12116e-21
-1.58179e-05 -7.55059e-06 1.63833e-20
1.29793e-06 -2.63235e-05 -1.86484e-20
-2.61275e-05 4.47666e-06 -9.82555e-21
2.39246e-06 2.45621e-05 -1.83188e-21
2.06011e-05 6.63262e-06 -2.30796e-20
-2.17376e-05 -1.07104e-05 -1.10823e-20
-8.98411e-06 2.56303e-05 2.112e-21
-1.49639e-06 -2.4207e-05 -2.22344e-20
1.94817e-05 1.18466e-05 -4.85914e-21
-1.77027e-06 1.8099e-05 1.35405e-20
-2.01547e-05 1.37136e-05 2.11534e-21
2.35294e-05 1.14241e-05 4.66257e-22
-1.71287e-05 -9.9935e-06 7.93277e-21
9.52641e-08 -1.98504e-05 -2.98538e-20
1.8397e-05 2e-05 -6.34076e-22
-2.21713e-05 -1.43149e-05 2.47299e-20
4.83898e-05 -3.40084e-05 -4.30221e-21
1.79112e-05 -1.0831e-05 -1.32824e-20
9.00951e-06 4.31217e-05 5.38268e-21
1.70477e-05 -1.36894e-05 -1.42604e-20
-1.98877e-05 8.71069e-05 -8.49679e-21
-1.97775e-05 -8.66211e-05 -5.17077e-21
5.72321e-05 7.17735e-05 1.57741e-20
5.69699e-05 -7.14467e-05 -4.852e-21
9.07196e-05 -1.19263e-10 4.54231e-21
-7.82638e-05 3.76757e-05 -4.03557e-21
-7.75181e-05 -3.73188e-05 6.40892e-22
1.22437e-05 1.18282e-05 -2.16508e-20
2.93916e-05 2.191e-05 -1.08213e-20
1.14574e-05 3.3355e-06 -1.04374e-20
1.8871e-05 9.75936e-06 -1.36412e-20
4.99345e-06 2.01865e-05 -5.45121e-21
-1.88472e-05 -1.49927e-05 -2.53724e-20
1.70518e-05 -1.02225e-05 -3.06485e-21
1.98688e-05 1.45611e-05 -6.71146e-21
-3.16935e-06 2.43839e-05 -1.87133e-20
2.94645e-05 -2.0009e-05 -1.45027e-20
3.79719e-06 -2.37592e-05 -1.68619e-20
2.19787e-05 5.23126e-06 -1.94213e-20
2.99203e-05 1.10349e-05 -1.56024e-21
1.42204e-05 1.41553e-05 -1.66857e-20
1.58961e-05 6.59904e-06 -3.00009e-20
-1.85139e-05 1.09457e-05 1.39089e-20
-2.25817e-05 9.04416e-06 -1.43593e-21
2.29482e-05 -1.12726e-05 -6.7089e-21
-1.82829e-05 -1.00063e-05 7.59109e-21
-1.85697e-05 -1.05912e-05 9.19544e-21
-3.44016e-07 -2.07848e-05 -1.29501e-20
-8.60553e-08 -2.11782e-05 6.5973e-21
-2.01437e-05 -1.0063e-06 -8.47041e-21
2.67209e-05 -4.02241e-06 -1.29689e-20
1.81269e-05 1.13514e-05 -6.27824e-21
-1.78789e-05 1.09542e-05 1.01615e-20
-1.5374e-05 1.66373e-05 1.02815e-20
1.60354e-05 -1.37645e-05 -9.5744e-21
-1.10325e-05 1.74779e-05 8.2617e-21
-1.42366e-05 -1.4902e-05 -1.38875e-20
-1.15604e-06 2.12282e-05 -4.24157e-21
-1.28862e-06 2.09856e-05 -6.78755e-21
8.99167e-08 -1.98504e-05 -2.79221e-20
6.11603e-06 -1.97536e-05 -1.69319e-21
-1.71551e-05 -9.94376e-06 6.624e-21
1.55997e-05 -5.49477e-06 1.48883e-21
6.63862e-07 2.14956e-05 -4.08863e-21
3.01202e-07 1.85228e-05 2.67195e-21
-2.34758e-06 1.68713e-05 6.48137e-21
2.19269e-05 -5.53195e-06 -2.62121e-20
-1.65549e-05 5.38259e-06 4.71116e-22
4.16105e-06 2.15353e-05 -5.64951e-22
-3.25854e-05 1.293e-05 4.79651e-21
9.77207e-06 4.17661e-05 -2.07547e-21
-1.70676e-05 4.57198e-06 -1.01375e-20
1.97008e-05 -1.16397e-05 -1.00087e-20
9.46698e-07 2.1037e-05 6.52667e-21
-2.04984e-05 6.70508e-06 5.93112e-21
2.44621e-06 -1.6276e-05 -3.45224e-20
1.82208e-06 -5.80613e-05 -1.12054e-20
2.00826e-06 1.75008e-05 -1.94965e-21
-1.69762e-05 1.40345e-05 1.41211e-20
1.78697e-05 6.40253e-05 -1.43549e-22
4.58075e-05 3.77382e-05 -1.37134e-20
5.21084e-05 -3.52851e-05 -3.66996e-20
1.48279e-05 -1.01756e-05 -2.04533e-20
-1.57987e-05 1.40496e-05 9.61881e-21
-2.0234e-05 -7.9274e-06 5.86276e-21
-1.96623e-05 -6.82823e-06 5.46939e-21
5.93167e-05 -2.46326e-05 -1.24671e-20
5.74818e-05 2.38909e-05 -1.19783e-20
1.09037e-05 3.82067e-06 -7.35857e-21
7.67394e-07 1.95958e-05 1.70484e-21
7.85361e-08 1.95771e-05 7.35341e-21
-4.84237e-05 -3.6952e-05 -1.65734e-20
1.14349e-05 -1.71863e-05 -1.88969e-20
1.17431e-05 1.24751e-05 -3.09968e-20
-2.14364e-05 -3.39862e-06 -2.673e-21
-1.40568e-05 1.72168e-05 8.97004e-21
-1.89046e-05 9.17563e-06 -2.09243e-21
4.76839e-05 3.37221e-05 -7.93093e-21
1.58198e-05 7.06757e-06 -1.85679e-20
-5.57132e-06 2.00475e-05 6.81332e-21
-1.69924e-05 -1.17593e-05 -1.88386e-21
1.85796e-06 -2.05603e-05 -1.94773e-20
-8.95723e-06 -1.92837e-05 -8.66383e-21
-1.72638e-05 -1.17836e-05 -1.1449e-20
1.05887e-05 -1.89518e-05 -1.84467e-20
1.41345e-05 -1.70037e-05 -2.6096e-20
-2.44172e-06 -6.14904e-05 -7.103e-21
2.62028e-05 -4.11605e-05 -8.0651e-21
1.74913e-06 -2.08032e-05 -2.37894e-21
1.79739e-05 1.1365e-05 6.05297e-21
-1.44886e-05 -1.49182e-05 -2.19709e-20
-9.84936e-06 1.9727e-05 -2.55036e-21
-5.0436e-06 2.10247e-05 -5.62612e-21
1.66414e-05 1.42558e-05 -4.68193e-21
6.06431e-06 -1.98783e-05 -3.01956e-20
-1.34173e-05 -4.03931e-05 -7.67188e-21
-1.98999e-06 2.50618e-05 5.65402e-21
1.48045e-05 1.44674e-05 -6.73147e-21
-1.29694e-05 -1.02255e-05 2.15891e-20
-1.35265e-05 1.06173e-05 1.75902e-20
4.43806e-05 -1.89291e-05 -1.29897e-20
7.56961e-06 -1.34116e-05 -1.14863e-20
-8.3242e-06 -1.26379e-05 -4.47517e-21
2.13487e-05 6.36895e-06 -1.48337e-20
1.10038e-05 -5.07052e-05 -2.58325e-20
-3.84843e-05 -3.49328e-05 2.21789e-20
2.33266e-05 6.21264e-06 -4.81564e-21
-9.33611e-06 -1.82969e-05 -8.53954e-21
1.87216e-05 9.49083e-06 -1.0908e-20
-2.85887e-05 -3.25801e-05 -1.96733e-20
9.69653e-06 5.00896e-05 7.19063e-21
3.43635e-05 -5.99108e-05 -1.51981e-20
-3.47668e-05 -5.98276e-05 -2.03499e-21
2.78333e-05 -5.20662e-05 -1.01454e-20
-1.27089e-05 4.36705e-05 4.94857e-21
-6.28138e-06 3.90107e-05 5.79151e-21
-1.87468e-05 8.95362e-06 1.72381e-21
5.98239e-06 2.42629e-05 6.82726e-21
-2.39354e-06 1.26649e-05 -7.35915e-22
1.01288e-05 3.23589e-06 -1.38092e-20
-3.19111e-06 1.62193e-05 2.58129e-21
-2.47579e-07 2.10096e-05 5.60203e-21
1.66748e-05 9.75886e-06 -9.87257e-21
1.713e-06 5.77739e-05 7.59429e-22
-1.47298e-05 1.07419e-05 -5.71919e-21
1.59631e-05 -6.2519e-06 8.34444e-22
1.68863e-05 -4.51277e-06 1.00117e-20
-6.07162e-05 -8.77674e-06 -3.87247e-21
-3.46352e-05 1.67558e-05 2.90067e-21
-4.35521e-05 -5.25926e-05 -1.19382e-20
8.66397e-06 8.35282e-06 -3.23704e-21
1.4222e-05 7.29874e-06 -1.7192e-20
2.68276e-05 -4.19939e-06 -1.75904e-20
-8.11125e-06 -1.32542e-05 -6.49818e-21
1.72313e-05 8.43576e-06 -2.30596e-20
7.34166e-06 -3.00602e-05 -2.93113e-20
-1.37253e-05 1.02138e-05 1.60329e-21
-2.23934e-05 -2.14406e-05 2.59188e-20
-5.84088e-06 1.63117e-05 3.5243e-21
-3.27369e-06 2.06961e-05 2.0992e-20
3.38786e-05 2.13145e-05 -1.25847e-20
3.6144e-05 -1.92993e-05 -3.76148e-20
-4.21072e-05 -1.16334e-05 -6.34827e-21
7.64067e-06 7.69226e-06 -2.22179e-20
-4.06067e-06 0.000101448 -1.9542e-21
8.63888e-07 -0.000104557 -4.37649e-21
5.25003e-05 8.77196e-05 -7.49817e-21
-1.91192e-05 8.46518e-06 -7.0275e-21
-2.6398e-05 5.65992e-05 -6.79844e-22
5.30794e-05 -8.47119e-05 2.37862e-21
-1.17304e-05 -1.82981e-05 -5.76058e-21
7.80662e-05 6.75539e-05 7.72478e-21
2.4014e-05 -1.79921e-05 -1.91151e-20
-3.61044e-06 -2.98475e-05 2.78034e-20
8.1848e-05 -6.59049e-05 9.06749e-21
-6.75027e-06 1.45308e-05 4.97434e-21
-5.38792e-05 -3.48551e-05 -5.56489e-21
-4.30495e-05 -9.32118e-05 1.83141e-21
-2.41325e-05 -5.78542e-05 -8.96018e-21
-4.40116e-05 9.42191e-05 -1.17576e-20
-1.01012e-05 6.4139e-05 9.98154e-21
1.56461e-05 3.71397e-05 -2.0033e-21
-2.79789e-05 3.72734e-05 -6.59368e-21
-2.52935e-05 -5.52319e-05 -1.80459e-20
0.00010045 1.73314e-05 7.48088e-21
-1.69418e-05 1.07763e-05 -5.33432e-21
-5.91728e-06 1.63468e-05 -1.09366e-21
-5.08022e-05 3.76736e-05 4.69632e-21
-1.72909e-05 9.95265e-06 1.26821e-20
9.92863e-05 -1.5276e-05 -6.58443e-21
-1.53732e-05 7.8054e-06 4.35573e-21
7.19884e-06 -1.45072e-05 -2.67855e-20
-7.80358e-05 -6.10022e-05 -7.75146e-21
-2.59002e-05 5.77669e-05 -3.53334e-22
-7.9189e-05 6.04289e-05 -1.67301e-21
2.4562e-05 5.1994e-05 -4.33207e-21
-1.47801e-05 1.05915e-05 -5.21488e-21
-2.05472e-05 2.44974e-05 1.9887e-20
-2.85568e-05 4.98601e-05 2.19083e-21
-5.68241e-05 2.08212e-07 4.42771e-21
-9.44807e-07 1.63099e-05 1.46541e-20
-2.88739e-05 -5.04492e-05 -6.2135e-21
-5.82477e-05 -2.20098e-07 8.90938e-21
-2.83735e-05 4.87376e-05 1.64164e-21
-1.52031e-05 6.63223e-05 1.11298e-20
-1.78793e-05 4.12962e-05 -8.70158e-21
-3.3929e-05 2.71604e-05 9.048e-22
2.44036e-05 -6.06202e-06 -6.85867e-21
3.80349e-05 -2.1971e-06 -2.89935e-20
1.34938e-05 8.20722e-06 -2.35397e-20
-1.0478e-05 -7.40503e-05 -1.04549e-20
-6.95078e-05 -2.79979e-05 9.46388e-21
3.71636e-05 7.33294e-07 -1.849e-20
5.84155e-05 -1.09011e-05 -4.61173e-21
-1.05926e-05 -1.35086e-05 -1.91555e-21
-5.08716e-05 3.76597e-05 7.23487e-21
-4.61727e-05 5.40472e-05 -1.24126e-20
6.24154e-05 -2.2251e-05 -2.5246e-21
-2.82013e-05 -5.05398e-05 -3.00741e-21
-2.88015e-05 4.98217e-05 8.30641e-21
-5.7303e-05 -1.1722e-06 -8.30489e-21
-2.65958e-05 5.06408e-05 -1.0541e-21
-5.80023e-05 -8.1767e-07 2.27069e-21
6.61321e-05 1.74072e-05 -1.69343e-20
5.6428e-05 1.2937e-06 -3.1144e-20
5.09433e-05 -2.92986e-05 -2.58275e-20
2.49314e-05 -5.94773e-05 -2.05942e-21
2.99439e-05 -4.88982e-05 -9.63003e-21
2.91921e-05 4.8722e-05 -1.24291e-20
2.43657e-05 5.81385e-05 6.34365e-22
7.58666e-05 -2.00547e-05 -1.31499e-20
4.63055e-05 2.90878e-05 -9.27367e-21
4.66637e-05 1.3757e-05 -2.00886e-20
TENSORS solid_stress_TPM float
375.09 -24.9227 -1.33582e-12
-24.9227 238.606 2.77822e-12
-1.33582e-12 2.77822e-12 197.852

457.09 -21.3215 3.50756e-13
-21.3215 490.076 2.53782e-12
3.50756e-13 2.53782e-12 487.194

454.962 28.0489 3.58765e-12
28.0489 463.795 3.93463e-13
3.58765e-12 3.93463e-13 458.54

455.117 -29.8422 -2.10469e-12
-29.8422 482.7 -1.36824e-12
-2.10469e-12 -1.36824e-12 484.941

527.752 19.9307 1.10667e-12
19.9307 548.51 -2.26463e-12
1.10667e-12 -2.26463e-12 527.424

437.392 -18.0784 -2.9153e-12
-18.0784 480.427 -2.64973e-12
-2.9153e-12 -2.64973e-12 458.121

372.385 26.4872 -1.59162e-12
26.4872 239.125 2.76046e-12
-1.59162e-12 2.76046e-12 197.836

473.736 29.9614 -1.70353e-12
29.9614 469.586 1.31154e-13
-1.70353e-12 1.31154e-13 472.419

471.639 5.48418 -1.95044e-12
5.48418 417.9 -2.63963e-12
-1.95044e-12 -2.63963e-12 432.875

504.347 -7.47774 -1.26417e-12
-7.47774 444.197 2.81752e-12
-1.26417e-12 2.81752e-12 483.535

360.357 16.3129 -3.45324e-12
16.3129 247.695 3.49054e-12
-3.45324e-12 3.49054e-12 233.687

444.863 -13.4555 1.21177e-12
-13.4555 498.472 1.12147e-12
1.21177e-12 1.12147e-12 472.32

466.951 27.8374 -3.30402e-12
27.8374 468.388 1.97235e-12
-3.30402e-12 1.97235e-12 466.816

457.117 -14.3423 -3.32523e-12
-14.3423 500.52 1.92439e-12
-3.32523e-12 1.92439e-12 483.538

513.007 33.3062 3.48462e-13
33.3062 511.67 1.95001e-12
3.48462e-13 1.95001e-12 515.298

489.263 0.561226 -2.31992e-12
0.561226 435.605 -5.69914e-14
-2.31992e-12 -5.69914e-14 462.354

457.665 -17.9684 -2.1384e-12
-17.9684 512.967 -1.05308e-12
-2.1384e-12 -1.05308e-12 493.676

494.047 -2.66519 2.9304e-12
-2.66519 439.13 -7.61761e-13
2.9304e-12 -7.61761e-13 474.346

418.87 26.6805 5.68434e-14
26.6805 449.745 5.57184e-13
5.68434e-14 5.57184e-13 424.131

482.071 -4.19667 8.37256e-13
-4.19667 425 6.05286e-12
8.37256e-13 6.05286e-12 453.556

425.374 8.67112 1.82669e-13
8.67112 481.992 -1.20023e-12
1.82669e-13 -1.20023e-12 444.921

634.14 6.28398 -1.70801e-11
6.28398 633.983 4.34334e-12
-1.70801e-11 4.34334e-12 570.363

479.242 1.87628 -5.96264e-13
1.87628 423.017 -2.59822e-12
-5.96264e-13 -2.59822e-12 449.813

447.244 -27.7211 3.39284e-13
-27.7211 461.235 -9.29035e-13
3.39284e-13 -9.29035e-13 453.029

481.138 6.85067 -2.02149e-12
6.85067 425.518 -3.40468e-13
-2.02149e-12 -3.40468e-13 453.019

449.839 19.115 -1.2581e-12
19.115 490.404 -3.84907e-12
-1.2581e-12 -3.84907e-12 478.287

377.722 4.18251 -4.43142e-12
4.18251 291.702 -5.32226e-12
-4.43142e-12 -5.32226e-12 259.049

462.767 30.7511 -1.68221e-12
30.7511 460.795 -1.57918e-12
-1.68221e-12 -1.57918e-12 460.625

385.012 37.0846 -2.50466e-12
37.0846 383.591 -2.7273e-12
-2.50466e-12 -2.7273e-12 348.484

586.98 10.3238 2.2838e-12
10.3238 563.5 -1.35018e-12
2.2838e-12 -1.35018e-12 546.93

491.776 14.218 -1.77636e-13
14.218 442.578 -2.08278e-13
-1.77636e-13 -2.08278e-13 465.937

352.918 -17.7854 3.59416e-13
-17.7854 416.804 -5.24262e-12
3.59416e-13 -5.24262e-12 348.655

331.074 -42.1111 -4.36984e-12
-42.1111 335.93 7.2428e-12
-4.36984e-12 7.2428e-12 253.528

531.461 5.98383 5.26235e-12
5.98383 586.934 -8.20736e-12
5.26235e-12 -8.20736e-12 538.642

554.072 -4.83622 6.28238e-13
-4.83622 582.118 3.81798e-12
6.28238e-13 3.81798e-12 542.572

578.031 21.0267 2.38209e-12
21.0267 539.999 7.86023e-12
2.38209e-12 7.86023e-12 538.41

556.231 5.06309 2.69666e-12
5.06309 600.71 3.33955e-13
2.69666e-12 3.33955e-13 548.026

573.82 -9.17196 1.42493e-12
-9.17196 555.817 1.49942e-12
1.42493e-12 1.49942e-12 540.698

467.211 -28.0027 -3.42482e-12
-28.0027 466.577 -2.224e-12
-3.42482e-12 -2.224e-12 465.188

330.458 41.5302 -7.57912e-13
41.5302 338.029 2.33058e-12
-7.57912e-13 2.33058e-12 253.887

414.605 -17.954 -1.14101e-11
-17.954 354.55 -2.39275e-12
-1.14101e-11 -2.39275e-12 346.385

559.352 -3.70228 5.99017e-12
-3.70228 599.959 1.73372e-12
5.99017e-12 1.73372e-12 548.44

586.454 19.549 -1.25633e-12
19.549 572.495 1.04716e-12
-1.25633e-12 1.04716e-12 548.229

490.982 -12.2742 1.91965e-12
-12.2742 442.933 1.36409e-12
1.91965e-12 1.36409e-12 466.61

341.768 -43.3101 -1.15582e-12
-43.3101 345.397 3.61548e-12
-1.15582e-12 3.61548e-12 289.029

417.632 -18.0682 4.54747e-13
-18.0682 357.168 4.49122e-12
4.54747e-13 4.49122e-12 351.56

413.081 17.0899 1.5028e-12
17.0899 464.862 -2.65032e-12
1.5028e-12 -2.65032e-12 428.797

429.701 19.3438 -1.90544e-12
19.3438 466.592 -3.73035e-12
-1.90544e-12 -3.73035e-12 437.152

486.859 -16.3038 -5.01821e-12
-16.3038 432.944 -6.09246e-12
-5.01821e-12 -6.09246e-12 458.749

355.637 -34.1947 5.35749e-12
-34.1947 389.467 4.61971e-12
5.35749e-12 4.61971e-12 332.623

410.322 19.187 2.89072e-12
19.187 350.756 2.55677e-12
2.89072e-12 2.55677e-12 339.533

425.273 -25.295 -5.59789e-12
-25.295 383.883 -5.97981e-12
-5.59789e-12 -5.97981e-12 373.138

519.973 19.4817 2.17929e-12
19.4817 547.588 -1.24493e-12
2.17929e-12 -1.24493e-12 525.791

416.483 29.6573 1.13095e-12
29.6573 393.951 -7.23569e-13
1.13095e-12 -7.23569e-13 374.003

522.235 -21.8126 -3.40972e-12
-21.8126 541.448 -9.02426e-13
-3.40972e-12 -9.02426e-13 524.438

364.128 -42.7215 -4.40063e-12
-42.7215 343.336 -2.53427e-13
-4.40063e-12 -2.53427e-13 289.747

553.494 5.45509 1.32191e-12
5.45509 583.909 4.45718e-12
1.32191e-12 4.45718e-12 542.946

373.776 -5.33138 -4.95011e-13
-5.33138 436.739 -3.42955e-12
-4.95011e-13 -3.42955e-12 373.887

580.855 10.3852 3.19271e-12
10.3852 556.216 -3.91826e-12
3.19271e-12 -3.91826e-12 542.702

435.129 21.4174 -1.9087e-12
21.4174 473.841 8.42585e-13
-1.9087e-12 8.42585e-13 454.745

513.646 5.75577 4.23809e-12
5.75577 452.881 -2.57498e-12
4.23809e-12 -2.57498e-12 494.938

522.53 11.4591 4.87107e-12
11.4591 487.929 2.51976e-12
4.87107e-12 2.51976e-12 507.148

383.766 31.8261 -2.31637e-12
31.8261 315.241 -2.69651e-12
-2.31637e-12 -2.69651e-12 269.915

482.155 -6.03725 8.90991e-13
-6.03725 528.252 9.91207e-13
8.90991e-13 9.91207e-13 504.17

487.165 9.5215 1.41102e-12
9.5215 523.761 3.20573e-12
1.41102e-12 3.20573e-12 507.565

456.528 -2.8824 -4.46991e-12
-2.8824 520.231 1.2701e-12
-4.46991e-12 1.2701e-12 487.878

464.529 23.4006 3.54235e-13
23.4006 503.547 2.57601e-12
3.54235e-13 2.57601e-12 495.514

496.829 8.46502 -8.25118e-13
8.46502 444.473 1.23013e-12
-8.25118e-13 1.23013e-12 477.774

445.583 -28.2453 1.97087e-12
-28.2453 459.608 3.3585e-12
1.97087e-12 3.3585e-12 451.243

501.763 -1.71186 1.31672e-12
-1.71186 444.996 5.79092e-12
1.31672e-12 5.79092e-12 489.145

519.586 -19.2577 -1.21503e-12
-19.2577 546.881 2.21423e-12
-1.21503e-12 2.21423e-12 525.524

523.364 21.3078 -8.11499e-13
21.3078 542.972 -7.67543e-13
-8.11499e-13 -7.67543e-13 525.326

353.469 -16.588 -3.24333e-13
-16.588 415.811 -6.25159e-12
-3.24333e-13 -6.25159e-12 346.173

506.093 -27.9383 1.34056e-12
-27.9383 485.377 3.66492e-12
1.34056e-12 3.66492e-12 493.95

449.799 -25.1391 -4.02374e-12
-25.1391 471.303 1.07174e-13
-4.02374e-12 1.07174e-13 458.654

357.929 -31.7177 1.02318e-12
-31.7177 285.72 3.52814e-12
1.02318e-12 3.52814e-12 249.901

498.56 3.22362 -3.80866e-12
3.22362 541.472 1.77517e-12
-3.80866e-12 1.77517e-12 513.708

501.799 28.9466 2.52243e-12
28.9466 474.622 5.74059e-13
2.52243e-12 5.74059e-13 487.73

448.52 19.666 -1.9158e-12
19.666 492.189 2.20712e-12
-1.9158e-12 2.20712e-12 477.719

440.273 8.00163 -5.13841e-12
8.00163 373.101 -4.05898e-13
-5.13841e-12 -4.05898e-13 383.002

386.519 -33.9442 -1.51582e-12
-33.9442 360.267 2.81612e-12
-1.51582e-12 2.81612e-12 319.492

537.769 -10.5861 4.3654e-12
-10.5861 556.196 -8.27782e-13
4.3654e-12 -8.27782e-13 531.309

482.733 23.9011 -1.05397e-13
23.9011 504.631 -4.64388e-13
-1.05397e-13 -4.64388e-13 502.115

385.44 -32.3923 -4.35563e-12
-32.3923 345.365 -1.90544e-12
-4.35563e-12 -1.90544e-12 317.137

422.275 10.7939 5.59789e-12
10.7939 363.913 -1.81218e-12
5.59789e-12 -1.81218e-12 350.315

307.701 -21.2113 4.66294e-13
-21.2113 388.511 7.25938e-12
4.66294e-13 7.25938e-12 288.166

434.518 14.4277 6.10919e-13
14.4277 488.751 -3.39284e-13
6.10919e-13 -3.39284e-13 460.96

509.794 23.147 -8.5798e-13
23.147 475.243 2.36196e-12
-8.5798e-13 2.36196e-12 490.018

338.298 42.2093 6.08698e-13
42.2093 349.631 1.68872e-12
6.08698e-13 1.68872e-12 289.002

634.229 16.5032 -3.05163e-12
16.5032 603.092 3.02662e-12
-3.05163e-12 3.02662e-12 565.369

372.953 -4.10955 6.38956e-12
-4.10955 436.898 3.81206e-12
6.38956e-12 3.81206e-12 373.494

637.134 -16.6286 1.21536e-11
-16.6286 599.564 2.52554e-12
1.21536e-11 2.52554e-12 564.876

534 -27.3345 1.2399e-12
-27.3345 507.304 -1.4461e-12
1.2399e-12 -1.4461e-12 515.781

505.371 27.4263 9.82325e-13
27.4263 466.405 -6.64032e-12
9.82325e-13 -6.64032e-12 485.145

427.005 -24.4169 1.4199e-12
-24.4169 386.307 9.60417e-13
1.4199e-12 9.60417e-13 376.046

358.998 31.3318 -6.02185e-12
31.3318 396.076 -1.83202e-12
-6.02185e-12 -1.83202e-12 339.261

339.882 -10.7078 -2.31578e-12
-10.7078 408.466 -1.65556e-12
-2.31578e-12 -1.65556e-12 319.162

453.187 21.9722 -7.42961e-13
21.9722 494.763 3.88282e-12
-7.42961e-13 3.88282e-12 483.247

533.181 16.7965 4.13181e-12
16.7965 506.261 -4.70646e-12
4.13181e-12 -4.70646e-12 513.42

443.531 15.1572 -4.09524e-12
15.1572 488.525 2.44723e-12
-4.09524e-12 2.44723e-12 464.361

451.565 15.9576 -4.34142e-12
15.9576 400.608 -2.77126e-12
-4.34142e-12 -2.77126e-12 403.819

374.554 -21.4783 -2.4946e-12
-21.4783 419.945 -7.11253e-12
-2.4946e-12 -7.11253e-12 357.262

389.793 -29.3982 -3.83693e-13
-29.3982 342.428 -1.74497e-12
-3.83693e-13 -1.74497e-12 314.447

455.049 -24.5758 -3.24585e-12
-24.5758 480.149 -1.93682e-12
-3.24585e-12 -1.93682e-12 478.451

466.507 27.4546 -1.57918e-12
27.4546 478.823 2.5698e-13
-1.57918e-12 2.5698e-13 479.887

452.301 23.1891 1.7278e-12
23.1891 492.644 -2.11979e-12
1.7278e-12 -2.11979e-12 482.123

466.368 13.1683 -2.54231e-12
13.1683 529.848 1.51997e-12
-2.54231e-12 1.51997e-12 501.455

490.949 9.37331 2.83033e-12
9.37331 437.967 1.18217e-12
2.83033e-12 1.18217e-12 462.134

327.767 -4.66611 -3.46538e-12
-4.66611 403.456 2.87059e-12
-3.46538e-12 2.87059e-12 314.469

462.664 -36.8299 1.60849e-12
-36.8299 487.773 7.776e-13
1.60849e-12 7.776e-13 492.827

445.929 27.4708 3.6667e-12
27.4708 463.353 -1.82906e-12
3.6667e-12 -1.82906e-12 455.093

305.721 2.17064 4.69965e-12
2.17064 393.433 -2.78059e-12
4.69965e-12 -2.78059e-12 297.309

386.066 34.6192 1.46609e-12
34.6192 332.505 4.39293e-12
1.46609e-12 4.39293e-12 306.301

453.432 -22.9771 8.59905e-13
-22.9771 480.155 2.2767e-13
8.59905e-13 2.2767e-13 476.253

501.481 5.73291 1.46786e-12
5.73291 441.399 -2.11039e-12
1.46786e-12 -2.11039e-12 481.091

422.46 27.2112 -2.9452e-12
27.2112 389.837 2.82796e-12
-2.9452e-12 2.82796e-12 374.303

570.592 12.7437 -5.76724e-13
12.7437 565.96 5.184e-13
-5.76724e-13 5.184e-13 542.974

396.251 24.3368 -6.00645e-12
24.3368 349.709 1.07174e-13
-6.00645e-12 1.07174e-13 319.102

569.215 -13.0532 1.41472e-12
-13.0532 565.871 1.72307e-13
1.41472e-12 1.72307e-13 542.43

375.158 0.778838 -1.38822e-12
0.778838 438.953 -3.13823e-12
-1.38822e-12 -3.13823e-12 374.709

461.558 -2.2359 -4.26562e-12
-2.2359 399.374 -9.2019e-13
-4.26562e-12 -9.2019e-13 417.357

538.264 -15.7647 -8.19937e-13
-15.7647 480.706 5.3794e-12
-8.19937e-13 5.3794e-12 513.549

457.328 24.3886 -3.03616e-12
24.3886 487.871 -2.47224e-12
-3.03616e-12 -2.47224e-12 488.435

461.335 -13.5358 5.19373e-13
-13.5358 519.214 -1.40095e-12
5.19373e-13 -1.40095e-12 495.791

515.05 -7.99878 3.34222e-12
-7.99878 438.279 1.45365e-13
3.34222e-12 1.45365e-13 494.356

488.384 -22.2798 3.60793e-12
-22.2798 541.667 1.32043e-13
3.60793e-12 1.32043e-13 515.819

556.102 -6.60057 2.2536e-12
-6.60057 560.444 -1.07558e-12
2.2536e-12 -1.07558e-12 538.789

463.951 -29.909 2.12393e-12
-29.909 483.282 7.50807e-13
2.12393e-12 7.50807e-13 483.681

341.766 11.4565 2.96e-12
11.4565 406.269 4.83169e-13
2.96e-12 4.83169e-13 319.541

422.56 -28.154 -6.8449e-13
-28.154 391.313 8.44362e-13
-6.8449e-13 8.44362e-13 375.216

507.44 -13.7687 4.30715e-12
-13.7687 558.807 -1.63514e-12
4.30715e-12 -1.63514e-12 525.316

501.142 0.505595 3.18856e-13
0.505595 441.364 -5.11458e-12
3.18856e-13 -5.11458e-12 487.168

477.018 -21.5234 1.24123e-12
-21.5234 507.501 -5.25209e-13
1.24123e-12 -5.25209e-13 501.58

459.183 25.6989 3.07843e-12
25.6989 484.686 -1.07991e-12
3.07843e-12 -1.07991e-12 488.062

394.502 -31.4728 -1.62359e-12
-31.4728 400.673 4.63392e-12
-1.62359e-12 4.63392e-12 357.587

552.171 -7.0802 -3.0916e-13
-7.0802 585.342 -2.49223e-12
-3.0916e-13 -2.49223e-12 542.66

347.27 -33.0848 4.45984e-12
-33.0848 382.676 9.37916e-13
4.45984e-12 9.37916e-13 303.49

490.955 -19.1829 -2.69296e-12
-19.1829 448.464 1.91166e-12
-2.69296e-12 1.91166e-12 467.202

519.785 1.9726 -1.83098e-12
1.9726 466.891 6.4541e-13
-1.83098e-12 6.4541e-13 502.907

570.609 17.8733 3.46538e-12
17.8733 566.521 6.96954e-12
3.46538e-12 6.96954e-12 542.433

375.358 20.1883 -5.6577e-12
20.1883 424.112 -5.49486e-12
-5.6577e-12 -5.49486e-12 360.287

489.161 27.2148 -6.43041e-13
27.2148 468.619 -4.54274e-12
-6.43041e-13 -4.54274e-12 476.716

454.463 -24.5169 -1.08002e-12
-24.5169 415.416 -6.06803e-12
-1.08002e-12 -6.06803e-12 418.677

454.796 -17.8403 7.42499e-13
-17.8403 494.991 -1.57948e-12
7.42499e-13 -1.57948e-12 482.72

379.267 35.0769 -3.20336e-12
35.0769 366.095 3.67114e-14
-3.20336e-12 3.67114e-14 317.106

449.234 -21.832 8.81369e-13
-21.832 491.79 5.52447e-13
8.81369e-13 5.52447e-13 479.853

485.57 30.8539 -1.39148e-12
30.8539 465.21 6.02422e-12
-1.39148e-12 6.02422e-12 473.521

480.406 -25.2477 -3.29692e-12
-25.2477 442.442 -2.63078e-12
-3.29692e-12 -2.63078e-12 455.519

448.299 -25.1309 -2.21304e-12
-25.1309 469.853 -3.50298e-12
-2.21304e-12 -3.50298e-12 458.176

445.428 -18.6929 -3.54324e-12
-18.6929 393.53 -6.65009e-12
-3.54324e-12 -6.65009e-12 397.329

470.738 -18.8538 -1.71596e-12
-18.8538 422.927 -7.0172e-12
-1.71596e-12 -7.0172e-12 437.607

459.083 -25.3383 1.84608e-12
-25.3383 485.512 1.44714e-12
1.84608e-12 1.44714e-12 488.905

386.611 35.9789 2.27611e-12
35.9789 382.056 -9.36732e-13
2.27611e-12 -9.36732e-13 348.179

444.574 15.3799 -3.34399e-13
15.3799 491.617 -7.10543e-13
-3.34399e-13 -7.10543e-13 467.218

469.476 26.4257 -3.82805e-13
26.4257 480.037 1.75149e-12
-3.82805e-13 1.75149e-12 482.624

456.224 25.4737 2.20908e-12
25.4737 486.731 1.00275e-12
2.20908e-12 1.00275e-12 487.325

457.883 11.6239 2.7626e-12
11.6239 507.021 -1.20259e-12
2.7626e-12 -1.20259e-12 486.091

432.031 -8.22909 7.56728e-13
-8.22909 370.82 -2.51665e-12
7.56728e-13 -2.51665e-12 363.372

376.845 18.6114 5.18104e-13
18.6114 427.344 -2.79717e-12
5.18104e-13 -2.79717e-12 363.948

452.392 -24.3838 -3.03076e-12
-24.3838 478.47 -2.56121e-12
-3.03076e-12 -2.56121e-12 470.79

440.824 25.6717 3.59002e-12
25.6717 455.722 -1.80063e-12
3.59002e-12 -1.80063e-12 437.881

391.025 -35.6387 3.64627e-12
-35.6387 380.344 5.37526e-12
3.64627e-12 5.37526e-12 350.153

369.005 38.3264 3.76824e-12
38.3264 327.306 -2.13163e-12
3.76824e-12 -2.13163e-12 295.734

363.709 -33.3199 -2.10084e-12
-33.3199 394.505 1.76807e-12
-2.10084e-12 1.76807e-12 342.039

398 -31.1678 1.03029e-13
-31.1678 404.264 2.97125e-12
1.03029e-13 2.97125e-12 363.037

502.941 -6.83856 2.10113e-12
-6.83856 442.331 1.81137e-12
2.10113e-12 1.81137e-12 482.396

393.233 30.3497 3.79785e-12
30.3497 409.052 -5.1988e-12
3.79785e-12 -5.1988e-12 363.498

429.78 13.298 -4.07496e-12
13.298 372.31 1.00956e-12
-4.07496e-12 1.00956e-12 362.777

350.201 13.3824 2.36004e-12
13.3824 418.589 -1.71833e-12
2.36004e-12 -1.71833e-12 348.535

379.544 -22.3463 3.46982e-13
-22.3463 423.589 -4.4551e-12
3.46982e-13 -4.4551e-12 363.512

491.27 -1.0933 -1.16492e-12
-1.0933 550.938 -1.44773e-12
-1.16492e-12 -1.44773e-12 516.371

372.926 2.24731 -1.08521e-12
2.24731 437.867 1.76451e-12
-1.08521e-12 1.76451e-12 373.585

357.95 31.0975 -3.15363e-12
31.0975 399.557 -3.37389e-12
-3.15363e-12 -3.37389e-12 342.02

458.067 12.1097 1.05154e-12
12.1097 510.639 3.25073e-13
1.05154e-12 3.25073e-13 488.478

421.528 -27.6548 2.68704e-12
-27.6548 389.139 -1.17062e-12
2.68704e-12 -1.17062e-12 375.138

524.825 20.5572 1.62181e-12
20.5572 469.82 6.12133e-12
1.62181e-12 6.12133e-12 500.804

534.985 26.2704 1.32871e-12
26.2704 506.924 -7.61317e-13
1.32871e-12 -7.61317e-13 516.159

494.895 -18.5711 1.08891e-12
-18.5711 449.098 1.62241e-13
1.08891e-12 1.62241e-13 470.93

554.64 -1.80539 -1.64106e-12
-1.80539 516.081 -4.15579e-12
-1.64106e-12 -4.15579e-12 525.779

473.364 -31.8146 8.73968e-13
-31.8146 475.773 -2.82766e-12
8.73968e-13 -2.82766e-12 478.652

412.672 23.3339 -2.49282e-12
23.3339 357.255 1.13213e-12
-2.49282e-12 1.13213e-12 348.152

464.258 30.1631 2.36107e-12
30.1631 482.851 -7.56432e-13
2.36107e-12 -7.56432e-13 483.282

464.52 29.207 4.03529e-13
29.207 482.324 7.98472e-13
4.03529e-13 7.98472e-13 482.843

394.015 30.669 3.19744e-12
30.669 405.795 -1.88175e-12
3.19744e-12 -1.88175e-12 360.932

502.929 27.0876 3.04941e-13
27.0876 482.734 3.73627e-13
3.04941e-13 3.73627e-13 490.805

415.427 3.52606 -3.22586e-12
3.52606 339.072 3.14415e-13
-3.22586e-12 3.14415e-13 340.884

493.197 31.8173 -2.47032e-12
31.8173 487.299 1.38082e-12
-2.47032e-12 1.38082e-12 495.648

476.393 -12.599 -1.65482e-12
-12.599 522.524 -2.9375e-12
-1.65482e-12 -2.9375e-12 500.318

536.99 24.2767 5.86168e-12
24.2767 507.463 3.13497e-12
5.86168e-12 3.13497e-12 516.695

468.258 -29.58 8.96024e-12
-29.58 480.053 -2.16567e-12
8.96024e-12 -2.16567e-12 483.139

464.629 -4.89682 4.82281e-13
-4.89682 521.631 2.72789e-12
4.82281e-13 2.72789e-12 491.05

401.011 -24.5627 -2.17426e-12
-24.5627 349.082 1.05634e-12
-2.17426e-12 1.05634e-12 324.007

419.042 29.7009 -2.93099e-12
29.7009 392.532 3.50179e-12
-2.93099e-12 3.50179e-12 373.835

352.403 14.7005 1.83261e-12
14.7005 417.288 -2.9452e-12
1.83261e-12 -2.9452e-12 348.301

500.613 -1.1396 8.8433e-13
-1.1396 442.876 2.91137e-12
8.8433e-13 2.91137e-12 487.787

492.556 0.00210779 3.34695e-12
0.00210779 438.18 6.99922e-13
3.34695e-12 6.99922e-13 474.497

453.045 23.1272 2.28203e-12
23.1272 479.79 -6.07514e-13
2.28203e-12 -6.07514e-13 475.664

481.381 23.8722 -1.02407e-12
23.8722 502.947 1.90187e-12
-1.02407e-12 1.90187e-12 501.327

456.669 -24.3812 -6.84434e-13
-24.3812 487.436 -2.32821e-12
-6.84434e-13 -2.32821e-12 488.576

457.908 -0.674217 2.54113e-12
-0.674217 518.019 -2.55203e-13
2.54113e-12 -2.55203e-13 486.473

458.968 25.5917 -1.18809e-12
25.5917 486.551 1.97109e-12
-1.18809e-12 1.97109e-12 488.598

465.647 -10.3103 -6.69687e-12
-10.3103 408.157 8.63457e-13
-6.69687e-12 8.63457e-13 427.301

400.939 -32.8422 -1.81781e-13
-32.8422 415.034 -2.63848e-12
-1.81781e-13 -2.63848e-12 385.237

518.176 -2.30331 1.96006e-12
-2.30331 465.818 -8.82553e-13
1.96006e-12 -8.82553e-13 501.004

391.945 -34.5175 -6.25514e-12
-34.5175 379.676 9.06534e-13
-6.25514e-12 9.06534e-13 347.483

478.079 19.0857 -2.57838e-12
19.0857 509.283 -4.06875e-12
-2.57838e-12 -4.06875e-12 501.923

506.194 -26.4801 -2.54019e-12
-26.4801 470.323 4.31063e-12
-2.54019e-12 4.31063e-12 487.35

425.083 -9.69288 -3.36324e-12
-9.69288 366.797 1.23609e-11
-3.36324e-12 1.23609e-11 356.048

530.336 -23.1938 1.93682e-12
-23.1938 488.829 3.40528e-12
1.93682e-12 3.40528e-12 506.563

500.982 2.3586 1.90366e-13
2.3586 444.664 -4.94738e-12
1.90366e-13 -4.94738e-12 489.289

521.265 -23.3242 -9.50943e-13
-23.3242 501.915 1.52633e-12
-9.50943e-13 1.52633e-12 508.608

502.099 -25.8611 2.22281e-12
-25.8611 461.57 -4.01723e-12
2.22281e-12 -4.01723e-12 481.324

498.915 -8.54819 -4.56524e-13
-8.54819 445.218 3.13172e-12
-4.56524e-13 3.13172e-12 479.427

482.303 -23.0694 -1.06966e-12
-23.0694 505.071 1.00788e-12
-1.06966e-12 1.00788e-12 502.614

428.622 -31.3498 -2.5769e-12
-31.3498 410.665 1.93801e-12
-2.5769e-12 1.93801e-12 399.073

503.35 -24.5913 4.37576e-13
-24.5913 464.792 3.21669e-12
4.37576e-13 3.21669e-12 482.239

441.328 10.8673 2.45137e-12
10.8673 378.551 1.83586e-12
2.45137e-12 1.83586e-12 387.872

500.116 26.3427 -6.29126e-13
26.3427 498.658 -1.97901e-12
-6.29126e-13 -1.97901e-12 500.182

463.839 -37.6092 -3.57936e-12
-37.6092 488.477 -4.9379e-13
-3.57936e-12 -4.9379e-13 494.166

464.947 37.2618 -3.12343e-13
37.2618 487.389 3.9162e-12
-3.12343e-13 3.9162e-12 493.881

446.419 -28.5712 -9.39175e-13
-28.5712 500.101 -1.2769e-12
-9.39175e-13 -1.2769e-12 492.396

448.653 27.0624 1.39725e-12
27.0624 500.792 2.05761e-12
1.39725e-12 2.05761e-12 492.583

513.156 -8.52627 3.10404e-12
-8.52627 436.498 3.09678e-13
3.10404e-12 3.09678e-13 492.843

511.319 9.27218 5.48154e-13
9.27218 438.094 9.42949e-13
5.48154e-13 9.42949e-13 492.481

501.743 -9.84812 -8.03209e-13
-9.84812 451.823 -3.87838e-14
-8.03209e-13 -3.87838e-14 483.102

510.938 32.1116 -1.52944e-12
32.1116 510.467 -3.39284e-13
-1.52944e-12 -3.39284e-13 514.13

509.714 -32.8493 -4.57738e-12
-32.8493 510.144 -4.29342e-13
-4.57738e-12 -4.29342e-13 513.769

481.889 16.0674 -2.76564e-12
16.0674 539.201 -3.55923e-12
-2.76564e-12 -3.55923e-12 514.401

483.083 -15.8001 -6.80789e-13
-15.8001 538.791 5.99816e-13
-6.80789e-13 5.99816e-13 514.422

556.93 -3.75136 2.35204e-12
-3.75136 506.899 3.89022e-13
2.35204e-12 3.89022e-13 525.061

558.484 3.614 -2.64988e-12
3.614 505.224 1.72662e-12
-2.64988e-12 1.72662e-12 525.433

387.38 9.83941 -1.48363e-12
9.83941 449.284 2.58874e-12
-1.48363e-12 2.58874e-12 397.161

472.471 -24.7775 -4.92347e-13
-24.7775 480.839 5.13234e-12
-4.92347e-13 5.13234e-12 485.058

443.555 -36.3848 1.18394e-12
-36.3848 485.622 -1.12784e-12
1.18394e-12 -1.12784e-12 486.713

473.733 -4.66505 -4.57353e-12
-4.66505 420.515 4.214e-12
-4.57353e-12 4.214e-12 436.419

540.325 -16.691 2.30334e-12
-16.691 484.269 6.39488e-14
2.30334e-12 6.39488e-14 515.362

541.044 16.172 -1.30755e-12
16.172 485.492 2.00373e-12
-1.30755e-12 2.00373e-12 515.967

506.95 0.121842 -7.29194e-13
0.121842 423.645 9.47971e-13
-7.29194e-13 9.47971e-13 487.086

384.862 23.3817 -2.47654e-12
23.3817 432.38 3.95772e-12
-2.47654e-12 3.95772e-12 385.548

442.427 36.1688 2.11956e-12
36.1688 485.301 2.47979e-12
2.11956e-12 2.47979e-12 485.919

452.684 -23.3969 -3.02928e-12
-23.3969 495.041 -1.14397e-12
-3.02928e-12 -1.14397e-12 483.674

443.333 23.3588 -1.10963e-12
23.3588 397.592 3.64568e-12
-1.10963e-12 3.64568e-12 400.448

531.038 23.8598 -1.67392e-12
23.8598 488.079 1.88916e-12
-1.67392e-12 1.88916e-12 507.321

428.56 -31.3216 3.57877e-12
-31.3216 410.951 8.24822e-13
3.57877e-12 8.24822e-13 398.892

519.939 -3.23324 1.251e-12
-3.23324 469.138 2.10202e-14
1.251e-12 2.10202e-14 502.763

439.491 -34.1588 1.01711e-12
-34.1588 485.593 -1.95843e-12
1.01711e-12 -1.95843e-12 485.908

389.254 8.32204 -5.25524e-13
8.32204 452.415 2.0132e-13
-5.25524e-13 2.0132e-13 400.93

385.95 21.8176 -4.959e-13
21.8176 435.857 3.25429e-12
-4.959e-13 3.25429e-12 388.767

383.918 35.7849 5.08512e-12
35.7849 362.396 -3.78956e-14
5.08512e-12 -3.78956e-14 318.387

408.261 1.57921 5.53631e-12
1.57921 332.213 -1.5478e-12
5.53631e-12 -1.5478e-12 327.385

485.536 -22.8061 -1.014e-12
-22.8061 502.936 -2.50006e-12
-1.014e-12 -2.50006e-12 501.826

351.94 31.1917 -1.12266e-12
31.1917 388.903 1.81662e-12
-1.12266e-12 1.81662e-12 312.415

451.433 23.6137 1.84682e-12
23.6137 478.501 5.59552e-13
1.84682e-12 5.59552e-13 465.295

442.283 -5.35094 -2.80664e-13
-5.35094 377.194 5.50671e-14
-2.80664e-13 5.50671e-14 387.81

464.243 11.2188 -2.38091e-12
11.2188 407.373 -3.61962e-12
-2.38091e-12 -3.61962e-12 424.999

505.466 0.429851 -2.36107e-13
0.429851 421.666 -3.43947e-12
-2.36107e-13 -3.43947e-12 485.759

449.439 -29.0289 9.8351e-13
-29.0289 502.081 -1.43234e-12
9.8351e-13 -1.43234e-12 493.669

572.546 -6.31673 -7.12467e-12
-6.31673 589.525 5.15528e-12
-7.12467e-12 5.15528e-12 549.307

463.226 37.408 -1.8708e-12
37.408 487.112 5.12405e-13
-1.8708e-12 5.12405e-13 493.145

408.814 1.66363 -3.36324e-13
1.66363 331.66 3.7114e-12
-3.36324e-13 3.7114e-12 308.961

404.309 -32.7959 1.82728e-12
-32.7959 415.587 -8.04512e-12
1.82728e-12 -8.04512e-12 387.461

443.232 36.6101 3.49987e-12
36.6101 485.594 -3.12506e-12
3.49987e-12 -3.12506e-12 486.655

444.754 -11.135 -6.5273e-12
-11.135 499.02 1.85807e-12
-6.5273e-12 1.85807e-12 471.52

386.144 -25.5216 -2.80102e-12
-25.5216 428.983 -2.45966e-12
-2.80102e-12 -2.45966e-12 384.635

449.539 28.8279 -3.90406e-12
28.8279 501.714 -3.59801e-12
-3.90406e-12 -3.59801e-12 493.369

452.795 -26.1483 3.06422e-12
-26.1483 419.379 2.63019e-12
3.06422e-12 2.63019e-12 419.594

579.594 10.4847 -1.07499e-12
10.4847 582.198 2.55026e-12
-1.07499e-12 2.55026e-12 549.092

398.402 30.8804 -3.05652e-12
30.8804 422.138 -4.96906e-12
-3.05652e-12 -4.96906e-12 388.235

515.788 8.12539 7.13651e-13
8.12539 437.358 -2.76149e-12
7.13651e-13 -2.76149e-12 494.662

493.883 30.1918 2.19054e-12
30.1918 484.829 2.0508e-12
2.19054e-12 2.0508e-12 493.879

453.549 23.3351 1.37668e-14
23.3351 479.25 -6.59917e-13
1.37668e-14 -6.59917e-13 475.88

510.772 -32.4841 3.12135e-12
-32.4841 512.525 5.80739e-13
3.12135e-12 5.80739e-13 515.078

510.385 -23.1939 -2.31519e-12
-23.1939 473.255 4.87018e-13
-2.31519e-12 4.87018e-13 489.752

511.46 10.4672 -9.89623e-12
10.4672 558.052 -8.14756e-13
-9.89623e-12 -8.14756e-13 523.797

452.256 -23.4371 -1.97857e-12
-23.4371 480.253 8.1067e-12
-1.97857e-12 8.1067e-12 469.032

394.482 -9.71057 5.77908e-13
-9.71057 316.467 -4.44474e-12
5.77908e-13 -4.44474e-12 295.629

387.362 -14.2805 9.92391e-13
-14.2805 306.11 2.24413e-13
9.92391e-13 2.24413e-13 290.103

547.644 16.5327 1.83705e-12
16.5327 507.827 1.67866e-12
1.83705e-12 1.67866e-12 519.387

436.568 22.5069 3.67972e-12
22.5069 469.224 -1.17536e-12
3.67972e-12 -1.17536e-12 447.903

476.044 29.1679 4.45866e-13
29.1679 467.724 -9.31699e-13
4.45866e-13 -9.31699e-13 471.557

450.388 0.688797 -2.36848e-12
0.688797 392.848 -9.13334e-13
-2.36848e-12 -9.13334e-13 395.747

478.418 6.56949 -3.37747e-12
6.56949 541.347 3.45975e-12
-3.37747e-12 3.45975e-12 507.61

507.415 16.5406 -1.77813e-12
16.5406 461.215 -3.01625e-12
-1.77813e-12 -3.01625e-12 488.158

390.048 -25.7682 -2.19084e-13
-25.7682 430.118 -3.48048e-12
-2.19084e-13 -3.48048e-12 387.806

456.391 -2.5712 9.76071e-13
-2.5712 517.094 1.34411e-13
9.76071e-13 1.34411e-13 484.916

400.663 13.3691 1.9383e-12
13.3691 453.072 3.41179e-12
1.9383e-12 3.41179e-12 404.71

486.994 -29.7172 -3.54087e-13
-29.7172 465.89 2.34598e-12
-3.54087e-13 2.34598e-12 474.335

430.379 -29.9552 6.46772e-12
-29.9552 423.708 8.25414e-13
6.46772e-12 8.25414e-13 405.029

399.784 31.6315 8.86994e-13
31.6315 418.31 -3.99621e-12
8.86994e-13 -3.99621e-12 386.073

624.021 -15.0181 -5.44779e-12
-15.0181 581.982 3.0594e-12
-5.44779e-12 3.0594e-12 557.954

494.587 2.04288 2.16419e-12
2.04288 552.206 -4.14306e-12
2.16419e-12 -4.14306e-12 517.993

483.576 20.2968 1.2923e-13
20.2968 542.106 -1.69228e-12
1.2923e-13 -1.69228e-12 516.101

544.769 15.436 -1.66948e-12
15.436 480.045 -3.21698e-12
-1.66948e-12 -3.21698e-12 515.823

473.829 -26.1923 5.00814e-12
-26.1923 479.838 -2.72996e-12
5.00814e-12 -2.72996e-12 483.096

452.212 17.9615 1.95399e-12
17.9615 404.582 3.37241e-12
1.95399e-12 3.37241e-12 406.993

531.629 -5.29128 -5.13895e-12
-5.29128 580.847 -6.92128e-12
-5.13895e-12 -6.92128e-12 537.176

512.268 -18.9874 1.16292e-12
-18.9874 464.871 1.72307e-13
1.16292e-12 1.72307e-13 493.105

474.063 -15.6017 4.60136e-12
-15.6017 423.252 4.1996e-13
4.60136e-12 4.1996e-13 438.958

402.073 11.6066 2.79776e-13
11.6066 456.044 6.51331e-14
2.79776e-13 6.51331e-14 407.854

410.999 -25.7412 1.15996e-12
-25.7412 435.664 -8.4673e-13
1.15996e-12 -8.4673e-13 399.03

532.114 -25.2741 4.29049e-12
-25.2741 523.251 8.88623e-13
4.29049e-12 8.88623e-13 519.185

423.135 31.9678 1.96998e-12
31.9678 417.326 6.14619e-13
1.96998e-12 6.14619e-13 400.379

535.549 -25.1332 3.30491e-12
-25.1332 505.852 4.89682e-13
3.30491e-12 4.89682e-13 515.728

453.582 2.59795 3.71495e-12
2.59795 397.092 -1.86281e-12
3.71495e-12 -1.86281e-12 401.972

311.152 -28.9378 -5.49901e-12
-28.9378 376.666 -9.49759e-13
-5.49901e-12 -9.49759e-13 290.048

431.956 -29.2385 -8.19907e-12
-29.2385 424.127 -3.31172e-12
-8.19907e-12 -3.31172e-12 406.228

353.824 32.167 -3.3431e-12
32.167 392.617 6.87569e-12
-3.3431e-12 6.87569e-12 313.026

470.416 -11.8754 9.75275e-13
-11.8754 529.625 7.79821e-13
9.75275e-13 7.79821e-13 500.376

391.521 -13.825 -2.24754e-12
-13.825 449.339 1.51701e-12
-2.24754e-12 1.51701e-12 400.272

602.885 -23.9817 -2.81878e-12
-23.9817 602.292 -1.25174e-12
-2.81878e-12 -1.25174e-12 557.894

408.447 23.7772 -2.15591e-12
23.7772 442.024 2.78533e-12
-2.15591e-12 2.78533e-12 402.297

496.653 -32.7266 -2.24798e-12
-32.7266 490.714 -2.26101e-12
-2.24798e-12 -2.26101e-12 497.521

388.26 -11.9663 3.31897e-12
-11.9663 448.371 2.44308e-12
3.31897e-12 2.44308e-12 397.089

516.79 -19.1162 -6.53403e-13
-19.1162 465.831 9.26666e-14
-6.53403e-13 9.26666e-14 496.319

410.762 23.8836 -3.34192e-12
23.8836 439.396 4.27391e-12
-3.34192e-12 4.27391e-12 400.773

489.01 -4.97605 -8.72191e-13
-4.97605 435.151 1.28401e-12
-8.72191e-13 1.28401e-12 460.463

305.832 -30.3485 -1.58451e-12
-30.3485 391.506 1.37608e-12
-1.58451e-12 1.37608e-12 262.617

438.69 21.018 1.32279e-12
21.018 474.001 -1.31983e-12
1.32279e-12 -1.31983e-12 458.43

445.773 -19.3282 4.8234e-12
-19.3282 394.049 -1.7133e-12
4.8234e-12 -1.7133e-12 399.698

551.663 -21.4453 5.06232e-12
-21.4453 499.583 9.79957e-14
5.06232e-12 9.79957e-14 520.171

424.551 31.7622 -5.3267e-12
31.7622 413.401 -2.87711e-12
-5.3267e-12 -2.87711e-12 398.034

459.247 -29.9778 -4.91459e-14
-29.9778 437.718 4.82666e-12
-4.91459e-14 4.82666e-12 439.379

510.702 20.8869 -6.85911e-12
20.8869 476.148 -7.54656e-13
-6.85911e-12 -7.54656e-13 492.834

461.592 -28.0768 3.37034e-12
-28.0768 485.828 7.05584e-13
3.37034e-12 7.05584e-13 488.802

413.8 -26.2323 7.15457e-12
-26.2323 436.33 -3.56811e-12
7.15457e-12 -3.56811e-12 401.516

426.158 28.9886 1.25825e-12
28.9886 429.982 1.78701e-12
1.25825e-12 1.78701e-12 406.939

452.588 26.1973 -7.70939e-13
26.1973 418.306 2.4496e-12
-7.70939e-13 2.4496e-12 419.138

522.047 -14.6132 5.17216e-13
-14.6132 477.253 2.73825e-12
5.17216e-13 2.73825e-12 500.141

403.638 -16.6222 7.85742e-13
-16.6222 451.832 -1.16411e-12
7.85742e-13 -1.16411e-12 406.521

496.135 -17.5696 -3.48166e-13
-17.5696 447.689 2.17189e-12
-3.48166e-13 2.17189e-12 471.583

487.854 16.9118 -1.87228e-12
16.9118 436.339 3.27442e-13
-1.87228e-12 3.27442e-13 460.671

513.403 -9.38336 4.82333e-12
-9.38336 555.844 -2.66454e-12
4.82333e-12 -2.66454e-12 523.098

454.069 -13.433 4.38997e-12
-13.433 402.255 6.50739e-13
4.38997e-12 6.50739e-13 406.822

403.278 0.59456 3.287e-12
0.59456 465.817 -1.6153e-12
3.287e-12 -1.6153e-12 417.885

475.118 18.5582 -3.55804e-12
18.5582 428.852 -4.2899e-13
-3.55804e-12 -4.2899e-13 442.303

451.231 27.6102 -3.37271e-12
27.6102 421.919 -7.04622e-14
-3.37271e-12 -7.04622e-14 420.924

400.946 -15.6905 4.24668e-12
-15.6905 451.473 1.51701e-12
4.24668e-12 1.51701e-12 403.815

406.078 -1.20222 2.27825e-12
-1.20222 468.126 1.75859e-12
2.27825e-12 1.75859e-12 421.3

516.275 29.1351 -1.99366e-12
29.1351 498.097 2.75158e-12
-1.99366e-12 2.75158e-12 504.951

441.787 -10.9241 -1.53788e-12
-10.9241 500.747 -2.02505e-12
-1.53788e-12 -2.02505e-12 471.231

451.528 -26.7217 6.85674e-13
-26.7217 418.847 -8.92915e-13
6.85674e-13 -8.92915e-13 419.433

444.475 21.3381 -2.61006e-12
21.3381 395.374 -3.63028e-12
-2.61006e-12 -3.63028e-12 398.278

497.682 23.6673 -2.6444e-12
23.6673 458.171 -1.92675e-12
-2.6444e-12 -1.92675e-12 476.632

447.763 5.47271 -1.92305e-12
5.47271 508.878 -2.04873e-12
-1.92305e-12 -2.04873e-12 476.964

427.734 29.0731 -4.05542e-12
29.0731 426.519 -2.6219e-12
-4.05542e-12 -2.6219e-12 405.189

536.89 22.9642 5.66066e-13
22.9642 531.957 6.93431e-12
5.66066e-13 6.93431e-12 522.854

314.806 -59.7038 1.03739e-12
-59.7038 282.817 -1.77636e-12
1.03739e-12 -1.77636e-12 223.465

480.682 -25.0529 -6.74423e-13
-25.0529 445.154 1.73935e-12
-6.74423e-13 1.73935e-12 456.728

336.725 7.0716 3.14741e-12
7.0716 409.236 4.27984e-12
3.14741e-12 4.27984e-12 319.503

460.626 -28.8954 1.64905e-12
-28.8954 444.822 -3.44317e-12
1.64905e-12 -3.44317e-12 443.535

96.4384 -52.7088 3.07902e-14
-52.7088 306.664 -6.57015e-12
3.07902e-14 -6.57015e-12 113.719

95.9723 51.4593 3.74219e-12
51.4593 306.928 6.47541e-12
3.74219e-12 6.47541e-12 114.508

181.544 117.172 -2.04636e-12
117.172 226.11 -2.70006e-12
-2.04636e-12 -2.70006e-12 113.608

182.842 -117.114 2.8777e-12
-117.114 223.345 -4.1401e-12
2.8777e-12 -4.1401e-12 113.582

321.631 -1.36363 2.34479e-12
-1.36363 84.6662 1.73819e-14
2.34479e-12 1.73819e-14 114.949

274.475 -91.1391 -8.71599e-13
-91.1391 127.437 1.86873e-12
-8.71599e-13 1.86873e-12 113.822

275.171 91.6671 -1.23161e-12
91.6671 128.271 -8.81073e-13
-1.23161e-12 -8.81073e-13 114.592

525.317 14.333 3.08109e-12
14.333 474.789 -6.06626e-13
3.08109e-12 -6.06626e-13 502.392

556.854 25.5341 3.9065e-12
25.5341 541.237 -3.43784e-12
3.9065e-12 -3.43784e-12 533.515

492.184 6.60751 4.14365e-12
6.60751 439.204 -3.5912e-13
4.14365e-12 -3.5912e-13 471.487

470.389 21.7895 -3.33659e-12
21.7895 424.597 2.69533e-12
-3.33659e-12 2.69533e-12 438.276

410.054 17.7489 -5.36445e-12
17.7489 461.164 -1.89123e-12
-5.36445e-12 -1.89123e-12 425.124

448.098 28.9055 -1.74083e-13
28.9055 424.788 -1.77636e-15
-1.74083e-13 -1.77636e-15 420.831

487.233 -29.6674 -1.97531e-12
-29.6674 465.711 1.76984e-12
-1.97531e-12 1.76984e-12 474.671

449.455 28.0347 2.65861e-13
28.0347 421.153 -3.49291e-12
2.65861e-13 -3.49291e-12 418.722

403.041 -2.8424 -3.24896e-12
-2.8424 465.473 -3.59298e-12
-3.24896e-12 -3.59298e-12 417.621

555.861 -26.095 -3.43222e-12
-26.095 543.43 -1.14545e-12
-3.43222e-12 -1.14545e-12 533.759

405.579 -4.86407 -2.71294e-12
-4.86407 467.211 -2.34124e-12
-2.71294e-12 -2.34124e-12 420.68

522.367 23.0192 -4.45392e-12
23.0192 499.818 -2.52642e-12
-4.45392e-12 -2.52642e-12 508.045

423.462 26.8779 -9.41469e-13
26.8779 386.581 -3.52074e-12
-9.41469e-13 -3.52074e-12 373.1

480.192 -13.2166 -3.47796e-12
-13.2166 532.843 2.21038e-12
-3.47796e-12 2.21038e-12 512.078

484.289 13.7306 5.84303e-12
13.7306 432.857 -1.22332e-12
5.84303e-12 -1.22332e-12 456.958

457.456 -29.9938 -4.1472e-12
-29.9938 437.059 3.65989e-12
-4.1472e-12 3.65989e-12 437.915

454.398 -24.719 1.93268e-12
-24.719 416.884 -3.23001e-13
1.93268e-12 -3.23001e-13 419.934

547.47 -16.0781 3.50446e-12
-16.0781 509.373 -2.76223e-12
3.50446e-12 -2.76223e-12 519.455

476.061 27.9337 -3.28093e-12
27.9337 449.788 -5.47532e-12
-3.28093e-12 -5.47532e-12 457.008

469.19 23.9827 2.86467e-12
23.9827 427.93 -5.38828e-14
2.86467e-12 -5.38828e-14 439.912

432.508 -2.79263 1.15619e-12
-2.79263 493.728 -6.69094e-13
1.15619e-12 -6.69094e-13 457.19

417.686 5.87418 5.46279e-12
5.87418 479.649 -9.72851e-13
5.46279e-12 -9.72851e-13 440.259

463.104 2.64735 -9.0535e-13
2.64735 402.357 -1.75138e-12
-9.0535e-13 -1.75138e-12 422.403

438.737 -7.29165 4.12588e-12
-7.29165 373.986 1.05529e-11
4.12588e-12 1.05529e-11 381.293

454.931 30.4912 5.90402e-12
30.4912 439.098 1.00305e-12
5.90402e-12 1.00305e-12 437.918

478.553 -26.1606 1.3749e-12
-26.1606 443.626 -1.62537e-13
1.3749e-12 -1.62537e-13 454.729

525.778 -21.2552 -2.89369e-12
-21.2552 497.901 -2.19706e-12
-2.89369e-12 -2.19706e-12 508.694

437.818 -31.6411 -4.06075e-12
-31.6411 437.74 -2.5248e-12
-4.06075e-12 -2.5248e-12 426.94

417.672 -27.7927 -3.1554e-12
-27.7927 444.485 3.91391e-13
-3.1554e-12 3.91391e-13 419.769

430.731 29.8946 3.91154e-12
29.8946 442.832 -1.34944e-12
3.91154e-12 -1.34944e-12 426.579

416.304 -9.57995 -3.424e-12
-9.57995 475.304 -3.08198e-12
-3.424e-12 -3.08198e-12 436.537

428.975 -1.54597 -1.23057e-12
-1.54597 491.959 -2.63019e-12
-1.23057e-12 -2.63019e-12 454.077

445.26 5.7475 -2.27535e-12
5.7475 508.131 -1.01608e-12
-2.27535e-12 -1.01608e-12 474.996

414.699 -21.0945 2.43657e-13
-21.0945 458.498 8.51053e-12
2.43657e-13 8.51053e-12 426.147

496.954 24.1153 -1.67451e-12
24.1153 455.777 -4.06578e-12
-1.67451e-12 -4.06578e-12 474.674

483.466 -9.59169 1.6005e-12
-9.59169 430.193 3.08005e-12
1.6005e-12 3.08005e-12 455.305

415.712 7.46662 2.80842e-12
7.46662 477.213 2.54019e-13
2.80842e-12 2.54019e-13 436.995

444.034 -9.70179 -3.39749e-12
-9.70179 501.593 -9.02389e-13
-3.39749e-12 -9.02389e-13 471.09

433.256 -16.334 -1.16411e-12
-16.334 481.768 8.17124e-13
-1.16411e-12 8.17124e-13 455.752

463.633 -8.2411 -1.50753e-12
-8.2411 406.413 4.36925e-12
-1.50753e-12 4.36925e-12 421.552

494.516 -32.3468 1.07381e-12
-32.3468 487.7 -1.42701e-13
1.07381e-12 -1.42701e-13 496.332

423.025 9.3237 1.08891e-12
9.3237 479.184 -1.65853e-12
1.08891e-12 -1.65853e-12 441.063

564.413 -18.2136 1.71063e-12
-18.2136 530.011 3.43148e-12
1.71063e-12 3.43148e-12 531.897

309.104 24.8292 3.59239e-12
24.8292 379.497 -3.45797e-13
3.59239e-12 -3.45797e-13 289.854

501.778 -26.6284 -2.35693e-12
-26.6284 499.566 -4.07407e-12
-2.35693e-12 -4.07407e-12 501.278

515.725 -30.2032 -1.1422e-12
-30.2032 498.475 -4.56613e-12
-1.1422e-12 -4.56613e-12 504.994

429.302 -0.700552 3.60053e-12
-0.700552 492.085 -1.91669e-12
3.60053e-12 -1.91669e-12 454.228

474.975 -16.6255 -1.46845e-13
-16.6255 428.419 -6.95829e-12
-1.46845e-13 -6.95829e-12 442.04

462.384 12.8423 -1.39e-12
12.8423 511.361 5.40012e-13
-1.39e-12 5.40012e-13 489.203

240.816 -3.18198 8.87364e-13
-3.18198 360.754 -2.90849e-12
8.87364e-13 -2.90849e-12 227.008

432.485 14.2763 1.53921e-12
14.2763 485.448 4.4853e-12
1.53921e-12 4.4853e-12 456.966

458.2 -29.4958 -5.59138e-12
-29.4958 443.257 2.48927e-12
-5.59138e-12 2.48927e-12 440.845

304.24 25.1107 1.202e-13
25.1107 394.656 -1.70057e-12
1.202e-13 -1.70057e-12 264.391

603.583 26.0916 -3.17361e-12
26.0916 597.986 -1.37342e-12
-3.17361e-12 -1.37342e-12 558.211

608.314 -27.8002 -9.52112e-12
-27.8002 595.062 9.0612e-12
-9.52112e-12 9.0612e-12 558.345

463.58 -30.4246 2.20505e-12
-30.4246 459.123 -3.93049e-12
2.20505e-12 -3.93049e-12 459.156

434.67 -31.1679 6.39607e-12
-31.1679 436.446 4.93235e-13
6.39607e-12 4.93235e-13 424.744

474.194 20.8313 2.08959e-12
20.8313 431.997 1.58688e-12
2.08959e-12 1.58688e-12 444.057

465.315 15.0097 2.0961e-13
15.0097 410.196 1.67718e-12
2.0961e-13 1.67718e-12 427.546

646.08 3.07939 1.11578e-11
3.07939 645.737 8.84552e-13
1.11578e-11 8.84552e-13 574.665

649.9 -6.99402 -1.33724e-11
-6.99402 641.409 -4.75116e-12
-1.33724e-11 -4.75116e-12 575.194

497.083 4.82406 4.36865e-12
4.82406 442.122 3.54886e-12
4.36865e-12 3.54886e-12 477.5

443.639 6.7331 3.53525e-12
6.7331 503.079 -4.58478e-12
3.53525e-12 -4.58478e-12 471.134

442.051 6.73654 2.67979e-12
6.73654 502.604 -2.96948e-12
2.67979e-12 -2.96948e-12 469.856

321.592 58.6471 8.27782e-12
58.6471 281.172 -8.62125e-13
8.27782e-12 -8.62125e-13 225.119

420.311 -28.2072 -1.42878e-12
-28.2072 444.112 5.79033e-12
-1.42878e-12 5.79033e-12 421.114

520.662 17.9736 3.59387e-12
17.9736 467.613 1.37342e-12
3.59387e-12 1.37342e-12 499.591

473.075 9.54142 -2.10084e-12
9.54142 421.279 -1.12947e-13
-2.10084e-12 -1.12947e-13 436.287

440.717 -26.7297 4.82873e-12
-26.7297 450.816 -1.76629e-12
4.82873e-12 -1.76629e-12 433.499

469.368 -20.2423 -1.85333e-13
-20.2423 422.797 -1.39148e-14
-1.85333e-13 -1.39148e-14 437.26

312.529 60.2451 -6.63173e-14
60.2451 281.42 -9.0381e-12
-6.63173e-14 -9.0381e-12 223.257

492.764 31.071 1.23013e-12
31.071 489.121 -4.64754e-12
1.23013e-12 -4.64754e-12 493.218

410.943 -19.7912 1.94896e-12
-19.7912 457.974 1.73076e-12
1.94896e-12 1.73076e-12 423.58

474.216 28.8631 -8.70415e-13
28.8631 449.716 -2.6296e-12
-8.70415e-13 -2.6296e-12 456.602

431.037 -4.14644 -3.52348e-12
-4.14644 493.065 -9.00021e-14
-3.52348e-12 -9.00021e-14 456.551

424.013 19.6142 1.01223e-12
19.6142 465.804 -1.03088e-12
1.01223e-12 -1.03088e-12 434.192

452.836 30.5257 9.48575e-13
30.5257 443.684 -1.0895e-12
9.48575e-13 -1.0895e-12 439.692

428.727 -22.4789 -4.74287e-13
-22.4789 461.229 2.86112e-12
-4.74287e-13 2.86112e-12 433.897

443.661 -27.359 -2.224e-12
-27.359 450.523 2.52776e-12
-2.224e-12 2.52776e-12 435.129

294.83 11.2595 1.98908e-12
11.2595 372.655 -3.7114e-12
1.98908e-12 -3.7114e-12 258.151

357.366 -33.4649 -2.38506e-12
-33.4649 389.193 2.15058e-12
-2.38506e-12 2.15058e-12 314.191

419.738 -11.6931 -2.29853e-12
-11.6931 476.454 -9.23706e-13
-2.29853e-12 -9.23706e-13 439.428

478.486 26.49 -2.82678e-12
26.49 446.883 2.49874e-13
-2.82678e-12 2.49874e-13 456.167

452.433 29.4842 2.52361e-12
29.4842 449.115 -2.82618e-12
2.52361e-12 -2.82618e-12 442.484

426.893 -21.4394 -2.25568e-12
-21.4394 461.877 2.5248e-12
-2.25568e-12 2.5248e-12 432.714

423.013 -11.7857 2.27255e-12
-11.7857 476.741 -9.57456e-13
2.27255e-12 -9.57456e-13 440.012

457.794 28.4158 3.31468e-12
28.4158 447.175 2.98487e-12
3.31468e-12 2.98487e-12 442.655

425.188 -13.8814 -4.31714e-12
-13.8814 476.512 -2.5698e-13
-4.31714e-12 -2.5698e-13 442.189

311.321 27.8626 4.68662e-12
27.8626 377.465 -7.81597e-13
4.68662e-12 -7.81597e-13 290.041

485.241 -4.03958 -1.60954e-12
-4.03958 545.122 4.25497e-12
-1.60954e-12 4.25497e-12 511.111

433.07 31.0353 3.39462e-12
31.0353 439.715 1.00601e-12
3.39462e-12 1.00601e-12 426.101

509.395 14.9039 -4.67952e-12
14.9039 463.242 -2.60236e-12
-4.67952e-12 -2.60236e-12 488.688

517.002 -15.9304 -2.25953e-12
-15.9304 467.662 -4.1626e-12
-2.25953e-12 -4.1626e-12 494.004

384 -24.2106 3.65456e-12
-24.2106 306.003 1.11792e-12
3.65456e-12 1.11792e-12 285.41

442.365 -21.2711 8.88534e-12
-21.2711 476.092 1.05634e-12
8.88534e-12 1.05634e-12 459.407

447.915 26.7033 -2.45552e-12
26.7033 466.298 3.99503e-12
-2.45552e-12 3.99503e-12 457.927

523.045 -21.7272 -7.32451e-13
-21.7272 543.871 -1.31576e-12
-7.32451e-13 -1.31576e-12 525.38

579.619 14.1009 1.98123e-12
14.1009 617.648 1.29141e-12
1.98123e-12 1.29141e-12 557.107

620.232 9.44506 -7.18418e-12
9.44506 576.88 1.75297e-12
-7.18418e-12 1.75297e-12 556.925

523.541 32.7031 9.49759e-13
32.7031 520.717 1.14338e-12
9.49759e-13 1.14338e-12 519.596

414.972 26.0073 -3.16014e-12
26.0073 448.996 7.09299e-12
-3.16014e-12 7.09299e-12 420.458

478.185 26.6657 -1.60523e-12
26.6657 444.851 1.86221e-12
-1.60523e-12 1.86221e-12 455.59

332.425 45.1975 -1.56675e-12
45.1975 349.556 -1.74083e-12
-1.56675e-12 -1.74083e-12 286.796

571.429 -11.339 -5.10007e-12
-11.339 614.501 4.29967e-12
-5.10007e-12 4.29967e-12 554.65

641.336 -3.43032 -9.13131e-13
-3.43032 636.888 7.06072e-12
-9.13131e-13 7.06072e-12 572.443

634.923 -0.207752 -4.63511e-12
-0.207752 643.187 3.13453e-13
-4.63511e-12 3.13453e-13 572.27

273.01 -53.814 -2.13281e-12
-53.814 316.504 3.6285e-12
-2.13281e-12 3.6285e-12 220.95

566.694 -11.5979 -5.60959e-12
-11.5979 562.173 2.69385e-12
-5.60959e-12 2.69385e-12 540.962

563.814 8.80991 7.77156e-13
8.80991 587.008 8.09427e-13
7.77156e-13 8.09427e-13 546.899

478.334 -26.2036 8.31335e-13
-26.2036 440.523 3.37774e-12
8.31335e-13 3.37774e-12 453.565

494.417 1.00907 2.02146e-12
1.00907 545.832 3.30758e-12
2.02146e-12 3.30758e-12 514.13

447.737 -20.2715 1.85925e-12
-20.2715 484.25 -1.73905e-12
1.85925e-12 -1.73905e-12 470.723

506.391 6.25578 -2.69177e-12
6.25578 443.464 -1.18342e-12
-2.69177e-12 -1.18342e-12 486.21

461.357 15.5961 8.46832e-13
15.5961 521.335 1.41161e-12
8.46832e-13 1.41161e-12 497.637

471.255 7.1905 -3.59559e-12
7.1905 528.086 -1.10134e-12
-3.59559e-12 -1.10134e-12 497.768

493.851 20.3968 7.2878e-12
20.3968 451.598 5.39302e-12
7.2878e-12 5.39302e-12 469.833

241.105 -3.11392 1.8443e-12
-3.11392 358.626 1.43766e-12
1.8443e-12 1.43766e-12 227.106

463.788 -27.6291 7.87518e-14
-27.6291 463.481 6.17166e-12
7.87518e-14 6.17166e-12 461.276

488.429 -26.1206 -1.11733e-12
-26.1206 481.681 -4.80445e-12
-1.11733e-12 -4.80445e-12 485.951

497.62 -31.4836 -4.2603e-12
-31.4836 490.042 3.28004e-12
-4.2603e-12 3.28004e-12 499.061

355.666 32.7572 6.53699e-13
32.7572 285.828 -8.15644e-13
6.53699e-13 -8.15644e-13 248.414

563.933 -20.1145 1.01252e-13
-20.1145 569.657 1.69605e-12
1.01252e-13 1.69605e-12 542.632

337.707 54.3331 3.84404e-12
54.3331 356.721 9.0381e-12
3.84404e-12 9.0381e-12 258.924

477.152 -21.438 -6.11733e-12
-21.438 506.575 4.00272e-13
-6.11733e-12 4.00272e-13 500.325

504.862 14.651 -3.39284e-13
14.651 452.071 -6.59443e-12
-3.39284e-13 -6.59443e-12 481.644

449.922 -14.576 3.64982e-12
-14.576 397.063 1.05949e-11
3.64982e-12 1.05949e-11 400.918

452.682 24.0501 -3.18442e-12
24.0501 478.872 -4.02463e-12
-3.18442e-12 -4.02463e-12 467.934

493.756 20.4303 5.62868e-12
20.4303 449.583 1.87287e-12
5.62868e-12 1.87287e-12 469.425

505.629 11.3977 -9.3799e-13
11.3977 564.476 -3.68298e-12
-9.3799e-13 -3.68298e-12 526.78

475.982 -31.5837 -3.43429e-14
-31.5837 470.443 1.29644e-12
-3.43429e-14 1.29644e-12 475.148

559.328 19.812 2.62309e-12
19.812 510.505 -1.56912e-13
2.62309e-12 -1.56912e-13 526.556

440.044 -18.447 -7.29787e-13
-18.447 482.558 -5.88566e-13
-7.29787e-13 -5.88566e-13 459.235

465.976 4.2848 -4.30871e-13
4.2848 526.189 -8.3548e-13
-4.30871e-13 -8.3548e-13 495.589

588.681 9.92875 -6.52515e-13
9.92875 552.511 -5.08719e-12
-6.52515e-13 -5.08719e-12 545.248

590.464 -8.51573 -3.67114e-13
-8.51573 554.852 -4.40892e-12
-3.67114e-13 -4.40892e-12 545.766

382.384 18.5168 -2.52716e-12
18.5168 302.341 3.73627e-12
-2.52716e-12 3.73627e-12 286.189

502.767 7.96658 -2.94254e-12
7.96658 453.684 -5.2367e-12
-2.94254e-12 -5.2367e-12 487.849

232.851 7.74266 7.19158e-12
7.74266 381.574 9.66338e-13
7.19158e-12 9.66338e-13 187.219

237.021 -11.3876 3.68272e-12
-11.3876 387.268 -3.08849e-12
3.68272e-12 -3.08849e-12 189.484

249.325 56.4148 -8.31335e-13
56.4148 354.832 1.1795e-12
-8.31335e-13 1.1795e-12 184.055

505.095 -28.9532 -1.50813e-12
-28.9532 478.696 7.25642e-13
-1.50813e-12 7.25642e-13 491.423

258.515 -49.2009 -3.53969e-12
-49.2009 341.901 8.22098e-12
-3.53969e-12 8.22098e-12 220.775

249.33 -55.9574 9.56864e-13
-55.9574 344.805 -8.8581e-13
9.56864e-13 -8.8581e-13 181.147

434.739 26.2264 -2.21808e-12
26.2264 454.483 4.59011e-12
-2.21808e-12 4.59011e-12 432.907

329.975 73.8544 4.61853e-12
73.8544 280.052 -4.73695e-14
4.61853e-12 -4.73695e-14 184.859

540.183 13.0451 1.42523e-12
13.0451 555.01 1.32043e-12
1.42523e-12 1.32043e-12 532.144

562.444 0.043998 -3.89896e-12
0.043998 532.513 -6.32975e-13
-3.89896e-12 -6.32975e-13 531.937

338.654 -73.1396 -4.35326e-12
-73.1396 279.899 -3.50771e-12
-4.35326e-12 -3.50771e-12 186.342

432.753 -23.4292 3.65426e-12
-23.4292 466.401 -1.112e-12
3.65426e-12 -1.112e-12 447.656

358.997 34.737 6.44936e-12
34.737 311.03 4.5605e-12
6.44936e-12 4.5605e-12 258.087

267.746 63.5005 -8.25888e-12
63.5005 345.262 3.51008e-12
-8.25888e-12 3.51008e-12 185.877

293.744 21.6351 2.86822e-12
21.6351 367.729 -2.44427e-12
2.86822e-12 -2.44427e-12 254.545

267.617 -65.9297 2.8398e-12
-65.9297 344.897 -9.84812e-12
2.8398e-12 -9.84812e-12 184.333

291.69 -12.3837 -1.76333e-12
-12.3837 370.951 4.538e-12
-1.76333e-12 4.538e-12 253.491

550.356 6.83726 -2.5564e-12
6.83726 582.129 -7.96222e-12
-2.5564e-12 -7.96222e-12 541.179

329.95 -45.9859 5.37644e-12
-45.9859 341.879 1.88649e-12
5.37644e-12 1.88649e-12 276.668

259.825 47.5421 -3.25665e-12
47.5421 340.276 1.05231e-11
-3.25665e-12 1.05231e-11 223.187

370.272 37.9177 9.99497e-13
37.9177 244.957 -1.77162e-12
9.99497e-13 -1.77162e-12 187.389

481.976 -29.2904 -2.42413e-12
-29.2904 460.596 -9.26666e-14
-2.42413e-12 -9.26666e-14 467.797

481.05 12.8958 2.62694e-12
12.8958 525.909 1.9913e-12
2.62694e-12 1.9913e-12 504.181

354.483 -38.1209 -2.54374e-12
-38.1209 300.129 -1.57267e-12
-2.54374e-12 -1.57267e-12 251.862

482.621 -28.8064 3.66285e-12
-28.8064 460.402 4.13062e-12
3.66285e-12 4.13062e-12 468.545

365.319 -36.3494 1.13687e-13
-36.3494 231.024 1.98478e-12
1.13687e-13 1.98478e-12 182.802

481.588 -28.3217 -1.23279e-12
-28.3217 472.837 1.22776e-12
-1.23279e-12 1.22776e-12 478

436.437 -25.3005 7.52583e-12
-25.3005 466.314 -5.41907e-12
7.52583e-12 -5.41907e-12 448.294

314.846 69.4707 -1.64372e-12
69.4707 292.187 -2.79954e-12
-1.64372e-12 -2.79954e-12 184.556

290.832 -22.9379 -4.43497e-12
-22.9379 359.23 1.08476e-12
-4.43497e-12 1.08476e-12 247.076

312.447 -71.703 -7.7686e-13
-71.703 288.166 -6.2433e-12
-7.7686e-13 -6.2433e-12 182.058

268.591 50.7478 -3.45679e-12
50.7478 320.116 3.57877e-12
-3.45679e-12 3.57877e-12 221.546

459.948 -30.2179 -1.06581e-12
-30.2179 454.93 2.92507e-13
-1.06581e-12 2.92507e-13 454.483

559.346 -14.6417 6.63765e-13
-14.6417 544.466 -9.69003e-13
6.63765e-13 -9.69003e-13 533.782

635.934 11.0884 3.36264e-12
11.0884 631.403 7.2616e-12
3.36264e-12 7.2616e-12 570.067

619.98 -5.16078 -9.86322e-13
-5.16078 639.75 1.15465e-12
-9.86322e-13 1.15465e-12 568.545

453.949 13.0843 1.29075e-12
13.0843 506.641 -7.90479e-13
1.29075e-12 -7.90479e-13 482.653

634.164 -10.6627 -5.2914e-12
-10.6627 631.334 9.83954e-13
-5.2914e-12 9.83954e-13 569.922

622.717 4.09294 -2.18521e-12
4.09294 642.695 4.34149e-12
-2.18521e-12 4.34149e-12 569.746

643.388 7.42847 1.52366e-11
7.42847 619.168 8.6849e-13
1.52366e-11 8.6849e-13 569.069

584.809 -12.1098 4.14998e-12
-12.1098 631.688 7.05939e-12
4.14998e-12 7.05939e-12 560.645

307.498 -30.4778 -8.80777e-12
-30.4778 371.704 1.91373e-12
-8.80777e-12 1.91373e-12 280.823

589.666 -12.9721 -3.83249e-12
-12.9721 549.162 1.38674e-12
-3.83249e-12 1.38674e-12 543.886

527.275 -34.4144 -1.21562e-12
-34.4144 521.551 6.0559e-13
-1.21562e-12 6.0559e-13 520.036

565.517 -18.1783 9.2033e-12
-18.1783 538.048 5.00518e-12
9.2033e-12 5.00518e-12 534.323

502.656 15.462 -3.33245e-12
15.462 452.197 7.96992e-13
-3.33245e-12 7.96992e-13 480.289

586.38 9.86052 -1.03952e-11
9.86052 642.15 6.8893e-13
-1.03952e-11 6.8893e-13 563.154

636.673 19.2225 -1.15096e-11
19.2225 591.753 -4.7663e-12
-1.15096e-11 -4.7663e-12 562.975

569.827 11.3104 -6.66134e-14
11.3104 544.396 6.71019e-13
-6.66134e-14 6.71019e-13 536.5

353.506 -15.3434 2.82322e-12
-15.3434 231.553 1.81484e-12
2.82322e-12 1.81484e-12 219.055

437.29 24.9698 -4.88853e-12
24.9698 462.003 6.45232e-12
-4.88853e-12 6.45232e-12 445.806

317.144 -61.3674 -5.76724e-12
-61.3674 277.897 -4.29642e-12
-5.76724e-12 -4.29642e-12 218.129

334.266 -57.4681 -9.4739e-15
-57.4681 357.385 8.62125e-12
-9.4739e-15 8.62125e-12 252.587

383.402 -36.5515 8.59757e-12
-36.5515 305.791 8.941e-13
8.59757e-12 8.941e-13 257.808

562.542 -5.15838 1.58866e-12
-5.15838 616.979 4.66294e-14
1.58866e-12 4.66294e-14 553.006

562.249 2.89155 8.91435e-13
2.89155 615.844 6.39163e-12
8.91435e-13 6.39163e-12 552.605

598.803 -24.449 -2.11268e-12
-24.449 575.785 3.52555e-12
-2.11268e-12 3.52555e-12 551.635

602.363 -21.7526 5.99321e-12
-21.7526 573.474 -4.9436e-12
5.99321e-12 -4.9436e-12 551.901

598.815 26.1279 -5.43624e-12
26.1279 580.498 -3.70311e-12
-5.43624e-12 -3.70311e-12 552.79

625.762 3.09427 -7.34228e-13
3.09427 630.752 -1.41326e-11
-7.34228e-13 -1.41326e-11 568.469

599.093 -20.5032 -3.42511e-12
-20.5032 576.396 2.36418e-12
-3.42511e-12 2.36418e-12 552.323

607.839 -18.5639 -7.83729e-12
-18.5639 620.281 -9.14739e-12
-7.83729e-12 -9.14739e-12 563.236

632.919 2.43068 3.8507e-12
2.43068 635.539 -1.40232e-11
3.8507e-12 -1.40232e-11 570.553

607.917 -20.5195 2.33724e-12
-20.5195 572.467 -1.12207e-12
2.33724e-12 -1.12207e-12 553.461

607.103 20.9488 -5.86316e-12
20.9488 573.725 5.55704e-13
-5.86316e-12 5.55704e-13 553.865

633.87 -3.45442 -8.96661e-12
-3.45442 636.79 -6.44359e-12
-8.96661e-12 -6.44359e-12 571.326

632.199 -3.11143 5.45771e-12
-3.11143 625.776 1.05523e-11
5.45771e-12 1.05523e-11 569.443

609.71 12.1088 -2.86734e-12
12.1088 620.504 -4.81023e-13
-2.86734e-12 -4.81023e-13 563.967

587.241 26.9232 -9.22225e-13
26.9232 583.054 1.5137e-13
-9.22225e-13 1.5137e-13 551.758

FIELD solute_concentration_TPM 2
S_ext 1 563 float
0.665691
0.665577
0.665586
0.665577
0.665576
0.665587
0.66569
0.665583
0.665595
0.66558
0.665665
0.665583
0.665585
0.66558
0.665576
0.665585
0.665577
0.665582
0.665597
0.665587
0.665591
0.665574
0.665589
0.665588
0.665587
0.66558
0.665658
0.665586
0.665624
0.665575
0.665585
0.665623
0.665661
0.665575
0.665574
0.665574
0.665573
0.665574
0.665585
0.665661
0.665624
0.665573
0.665572
0.665584
0.665645
0.665623
0.665595
0.665593
0.665586
0.665629
0.665627
0.665615
0.665575
0.665615
0.665575
0.665648
0.665574
0.665615
0.665574
0.665587
0.665577
0.665576
0.665656
0.665577
0.665576
0.66558
0.665577
0.665581
0.665588
0.665578
0.665575
0.665575
0.665625
0.665579
0.665586
0.665664
0.665577
0.66558
0.665581
0.665611
0.665635
0.665574
0.665577
0.665636
0.665624
0.665647
0.665586
0.665581
0.665645
0.665579
0.665615
0.665579
0.665576
0.665582
0.665615
0.665626
0.665636
0.665579
0.665576
0.665585
0.665604
0.665622
0.665636
0.66558
0.665581
0.665579
0.665577
0.665586
0.665637
0.665576
0.665587
0.665643
0.665639
0.665581
0.665579
0.665615
0.665576
0.665637
0.665577
0.665615
0.665599
0.665575
0.665577
0.665578
0.665578
0.665575
0.665577
0.66558
0.665636
0.665614
0.665575
0.665577
0.665576
0.665577
0.665622
0.665575
0.665643
0.665585
0.665577
0.665574
0.66562
0.665583
0.6656
0.66558
0.665638
0.66558
0.665584
0.665589
0.665587
0.665606
0.665594
0.665578
0.665623
0.665584
0.665579
0.665577
0.66558
0.66562
0.665619
0.665582
0.665593
0.665623
0.665644
0.665625
0.665619
0.665579
0.66562
0.66562
0.665624
0.665619
0.665576
0.665615
0.665626
0.665579
0.665615
0.665577
0.665576
0.665585
0.665575
0.665582
0.665624
0.665579
0.665579
0.66562
0.66558
0.665627
0.665578
0.665578
0.665577
0.665579
0.66558
0.665635
0.665615
0.665623
0.665577
0.665581
0.665581
0.665576
0.665577
0.665581
0.665578
0.665596
0.66561
0.665576
0.665625
0.665576
0.665582
0.665622
0.665577
0.665578
0.665579
0.665581
0.66558
0.665577
0.665606
0.665582
0.665609
0.665578
0.665577
0.665577
0.665576
0.665576
0.665576
0.665576
0.665581
0.665575
0.665575
0.665575
0.665575
0.665577
0.665576
0.665606
0.66558
0.665577
0.665593
0.665577
0.665577
0.665578
0.66561
0.665577
0.665579
0.665605
0.665577
0.665606
0.665578
0.665577
0.665605
0.665609
0.665636
0.665631
0.665576
0.66564
0.665584
0.665609
0.665597
0.665577
0.665577
0.665574
0.665576
0.665642
0.665609
0.665577
0.665584
0.66561
0.665576
0.665599
0.665574
0.665609
0.665577
0.665579
0.66558
0.665577
0.665582
0.665575
0.665583
0.665644
0.665647
0.665577
0.665589
0.665583
0.665607
0.665577
0.665579
0.665609
0.665581
0.665604
0.665584
0.665604
0.665609
0.665575
0.665576
0.665575
0.665575
0.66558
0.665604
0.665575
0.665578
0.665593
0.665603
0.665606
0.665576
0.665605
0.665578
0.665605
0.665645
0.665604
0.665639
0.665578
0.665605
0.665575
0.665605
0.665579
0.665606
0.665579
0.665605
0.665587
0.66566
0.665586
0.665606
0.665575
0.665606
0.665593
0.66558
0.665577
0.665605
0.665604
0.665599
0.665579
0.665603
0.665584
0.665586
0.665576
0.665604
0.665599
0.665592
0.665599
0.665604
0.665598
0.665579
0.665583
0.665599
0.665606
0.665583
0.665583
0.665604
0.665575
0.665669
0.665589
0.665635
0.665592
0.665708
0.665709
0.665707
0.665707
0.665706
0.665712
0.665712
0.665578
0.665577
0.665583
0.665593
0.665596
0.665599
0.665584
0.665599
0.665599
0.665577
0.665599
0.665578
0.665615
0.665575
0.665587
0.665593
0.665599
0.665578
0.665588
0.665592
0.665588
0.665592
0.665597
0.665611
0.665593
0.665588
0.665577
0.665596
0.665598
0.665596
0.665593
0.665588
0.665583
0.665596
0.665583
0.665588
0.665593
0.665584
0.665587
0.665598
0.665577
0.665592
0.665575
0.665645
0.665577
0.665579
0.665588
0.665592
0.665579
0.665669
0.665587
0.665592
0.665659
0.665577
0.665577
0.665587
0.665597
0.665591
0.665596
0.665579
0.665578
0.665581
0.665584
0.665584
0.665672
0.665598
0.665578
0.665594
0.665594
0.665593
0.665669
0.66558
0.665597
0.665588
0.665588
0.665594
0.665592
0.665594
0.665594
0.66566
0.665638
0.665592
0.665589
0.665591
0.665594
0.665592
0.665592
0.665592
0.665646
0.665577
0.665596
0.665579
0.665579
0.665647
0.665586
0.665586
0.665577
0.665573
0.665572
0.665577
0.665598
0.665589
0.665647
0.665573
0.665574
0.665574
0.66567
0.665574
0.665574
0.665589
0.665576
0.665582
0.665579
0.665577
0.665579
0.665585
0.665668
0.665586
0.665581
0.665578
0.665664
0.665574
0.665663
0.665576
0.665581
0.665605
0.665583
0.665585
0.665575
0.665582
0.665575
0.665586
0.665579
0.665576
0.665577
0.665648
0.665579
0.665692
0.665693
0.665692
0.665579
0.665673
0.665693
0.665594
0.665692
0.665574
0.665574
0.665692
0.665589
0.665662
0.665695
0.665662
0.665695
0.665662
0.665574
0.665651
0.665672
0.665691
0.665585
0.665577
0.665663
0.665585
0.665691
0.665582
0.665589
0.665696
0.665664
0.665696
0.66567
0.665588
0.665575
0.665573
0.665573
0.665581
0.665574
0.665573
0.665574
0.665575
0.665649
0.665574
0.665577
0.665577
0.665582
0.665575
0.665575
0.665576
0.66567
0.66559
0.665675
0.665666
0.665661
0.665572
0.665572
0.665573
0.665573
0.665572
0.665576
0.665576
0.665577
0.665578
0.665576
0.665575
0.665577
0.665575
0.665576
0.665575
P_ext 1 563 float
0.00712161
0.00711981
0.00712007
0.00711984
0.00711917
0.00712007
0.0071216
0.00711995
0.00712026
0.00711984
0.0071213
0.00711994
0.00711999
0.00711983
0.00711934
0.00712006
0.00711969
0.00711993
0.00712031
0.00712012
0.00712017
0.007118
0.00712012
0.0071201
0.00712012
0.00711989
0.00712122
0.00712002
0.00712079
0.00711861
0.00712002
0.00712077
0.00712126
0.00711882
0.00711881
0.00711883
0.00711857
0.00711887
0.00712
0.00712126
0.00712077
0.00711856
0.00711857
0.00712001
0.00712106
0.00712078
0.00712029
0.00712024
0.00712006
0.00712086
0.00712081
0.00712063
0.00711916
0.00712065
0.00711919
0.00712111
0.0071188
0.00712064
0.00711881
0.00712009
0.00711968
0.00711953
0.00712119
0.00711956
0.00711952
0.00711973
0.00711967
0.0071199
0.00712013
0.00711977
0.00711917
0.00711918
0.00712079
0.00711966
0.00712009
0.0071213
0.00711938
0.00711974
0.00711988
0.00712056
0.00712093
0.0071191
0.00711958
0.00712096
0.00712077
0.00712109
0.00712003
0.0071197
0.00712106
0.00711808
0.00712064
0.00711808
0.00711933
0.00711975
0.00712064
0.00712081
0.00712095
0.00711985
0.00711939
0.00712002
0.00712045
0.00712075
0.00712095
0.0071199
0.00711986
0.00711987
0.00711955
0.00712004
0.00712096
0.00711971
0.00712009
0.00712103
0.00712098
0.00711992
0.00711989
0.00712066
0.00711881
0.00712097
0.00711881
0.00712064
0.00712036
0.00711938
0.00711979
0.00711967
0.00711967
0.00711933
0.00711889
0.00711984
0.00712095
0.00712062
0.00711912
0.00711982
0.00711959
0.0071198
0.00712075
0.00711877
0.00712104
0.00711998
0.00711956
0.00711878
0.00712072
0.00711986
0.00712035
0.00711983
0.00712098
0.00711988
0.00711988
0.00712006
0.00712007
0.00712048
0.00712021
0.00711978
0.00712076
0.00712
0.00711984
0.00711981
0.0071198
0.00712073
0.00712072
0.00711998
0.00712023
0.00712075
0.00712106
0.0071208
0.0071207
0.00711987
0.00712072
0.00712073
0.00712078
0.00712071
0.00711931
0.00712064
0.00712081
0.00711978
0.00712065
0.00711956
0.00711932
0.00711992
0.00711919
0.00711986
0.00712079
0.00711986
0.00711985
0.00712072
0.0071197
0.00712083
0.00711968
0.00711959
0.00711931
0.00711986
0.00711969
0.00712094
0.00712063
0.00712077
0.00711981
0.00711995
0.00711992
0.0071196
0.00711978
0.00711975
0.00711978
0.00712031
0.00712057
0.00711961
0.0071208
0.00711959
0.00711973
0.00712074
0.00711947
0.00711977
0.00711945
0.00711983
0.00711988
0.00711957
0.00712047
0.00711981
0.00712057
0.0071196
0.00711968
0.00711968
0.0071197
0.00711971
0.00711971
0.00711972
0.00711982
0.00711937
0.00711937
0.00711936
0.00711936
0.00711917
0.00711916
0.00712049
0.0071198
0.00711979
0.00712026
0.00711934
0.00711933
0.00711978
0.00712056
0.00711981
0.00711985
0.00712049
0.00711945
0.0071205
0.00711957
0.0071198
0.00712047
0.00712055
0.00712094
0.00712087
0.0071196
0.007121
0.00712002
0.00712057
0.0071203
0.00711981
0.00711969
0.00711856
0.0071197
0.00712103
0.00712054
0.00711979
0.00711992
0.00712057
0.00711969
0.00712034
0.00711857
0.00712056
0.00711967
0.00711969
0.00711993
0.00711935
0.0071197
0.00711918
0.00711999
0.00712104
0.00712109
0.00711926
0.00712017
0.00711993
0.00712051
0.00711944
0.00711979
0.00712055
0.00711976
0.00712046
0.00711987
0.00712047
0.00712055
0.00711831
0.00711928
0.00711933
0.00711933
0.00711983
0.00712046
0.00711886
0.00711971
0.00712021
0.00712044
0.00712051
0.00711927
0.00712049
0.00711932
0.0071205
0.00712106
0.00712044
0.00712098
0.00711957
0.00712048
0.0071183
0.00712049
0.00711961
0.0071205
0.00711965
0.00712048
0.00712005
0.00712125
0.00712007
0.00712049
0.00711924
0.00712048
0.00712019
0.00711968
0.00711979
0.00712048
0.00712046
0.00712034
0.00711958
0.00712045
0.00711993
0.00712004
0.00711921
0.00712046
0.00712036
0.00712018
0.00712035
0.00712047
0.00712034
0.00711948
0.00711994
0.00712036
0.00712048
0.00711988
0.00711987
0.00712045
0.00711922
0.00712135
0.00712005
0.00712094
0.00712017
0.00712181
0.00712181
0.00712179
0.00712179
0.00712177
0.00712184
0.00712184
0.00711955
0.00711894
0.00711994
0.0071202
0.00712031
0.00712036
0.00711988
0.00712035
0.00712037
0.00711894
0.00712034
0.00711946
0.00712063
0.0071194
0.00712005
0.00712022
0.00712036
0.00711926
0.00712007
0.00712021
0.00712006
0.00712019
0.00712035
0.00712058
0.0071202
0.00712008
0.00711946
0.00712029
0.00712036
0.00712031
0.00712023
0.00712008
0.00711987
0.0071203
0.00711989
0.00712008
0.00712022
0.00711992
0.00712008
0.00712033
0.00711966
0.0071202
0.007119
0.00712106
0.00711958
0.00711948
0.00712008
0.00712021
0.00711974
0.00712136
0.00712006
0.00712021
0.00712124
0.00711835
0.00711834
0.00712003
0.00712032
0.00712019
0.00712031
0.00711788
0.00711788
0.0071199
0.00711993
0.00711993
0.0071214
0.00712034
0.00711962
0.00712026
0.00712028
0.00712023
0.00712135
0.00711966
0.00712033
0.00712007
0.00712006
0.00712027
0.00712021
0.00712026
0.00712025
0.00712125
0.00712097
0.00712021
0.00712005
0.0071202
0.00712028
0.00712022
0.00712018
0.00712019
0.00712108
0.00711939
0.00712029
0.00711975
0.00711967
0.00712108
0.00712006
0.00712008
0.00711919
0.00711831
0.00711832
0.00711924
0.00712036
0.00712005
0.00712109
0.00711837
0.00711796
0.00711796
0.00712137
0.00711885
0.00711861
0.00712009
0.00711936
0.00711998
0.00711981
0.00711963
0.0071196
0.00711993
0.00712135
0.00712005
0.00711977
0.00711963
0.0071213
0.00711873
0.00712129
0.00711963
0.00711984
0.00712047
0.00712001
0.00711995
0.0071191
0.00711991
0.00711911
0.00712007
0.00711964
0.00711865
0.00711865
0.00712111
0.00711977
0.00712162
0.00712163
0.00712162
0.0071197
0.0071214
0.00712163
0.00712028
0.00712161
0.00711908
0.00711909
0.00712162
0.00712016
0.00712128
0.00712166
0.00712127
0.00712166
0.00712127
0.00711882
0.00712115
0.00712139
0.0071216
0.00711997
0.00711953
0.00712129
0.00711995
0.00712161
0.00711986
0.00712015
0.00712166
0.0071213
0.00712167
0.00712136
0.00712009
0.00711899
0.00711798
0.00711801
0.0071198
0.00711797
0.00711798
0.007118
0.00711821
0.00712112
0.00711871
0.00711925
0.00711895
0.00711983
0.00711816
0.00711817
0.00711895
0.00712136
0.00712018
0.00712143
0.00712133
0.00712126
0.0071184
0.00711841
0.00711844
0.00711844
0.00711841
0.00711802
0.00711845
0.00711814
0.00711796
0.00711839
0.00711839
0.00711797
0.00711803
0.00711814
0.00711845
FIELD solute_flux_TPM 2
S_ext 3 563 float
-3.63824e-05 1.2105e-05 4.58277e-19
2.3258e-06 3.8483e-06 -1.42424e-18
-6.72076e-06 -5.10391e-06 -1.08107e-18
-2.23565e-06 2.29833e-06 -8.38246e-19
1.47479e-05 -4.35088e-06 1.36177e-18
1.28242e-06 -8.24806e-06 -2.67176e-18
-3.58297e-05 -1.22527e-05 -3.87916e-19
-7.83363e-06 -5.34035e-06 -2.84352e-18
1.09973e-05 5.5242e-07 7.36873e-19
6.25327e-06 -2.52598e-06 -2.53134e-19
2.44816e-05 5.68373e-06 -1.5518e-18
8.98713e-07 -9.43264e-06 -8.64968e-20
7.56475e-06 5.63143e-06 7.72939e-20
1.90645e-06 7.67331e-06 1.0108e-18
1.33731e-05 -2.16838e-06 2.62671e-18
-8.33105e-06 -1.35684e-07 -5.76604e-19
2.11997e-06 8.40114e-06 1.51649e-18
5.36778e-06 -1.40417e-06 -1.17444e-18
4.90606e-06 8.49262e-06 -1.81154e-22
-7.55306e-06 1.00858e-06 -1.60235e-19
-1.55188e-06 -1.08965e-05 -2.24655e-18
2.86048e-05 4.03856e-05 1.06998e-18
8.03009e-06 8.67303e-07 1.15731e-18
5.92111e-06 -5.69546e-06 -3.6625e-18
-7.64982e-06 -1.82028e-06 -3.26358e-19
-2.60901e-08 -6.10745e-06 4.14843e-19
2.80679e-05 -2.1515e-06 7.13938e-19
7.68218e-06 5.38398e-06 -1.3419e-18
-1.14935e-05 -9.41429e-06 -2.09268e-18
3.2159e-05 -8.63895e-06 2.50764e-18
-8.61353e-06 -3.57459e-06 -1.58338e-19
2.54024e-06 -1.47866e-05 -1.21802e-18
2.10443e-05 -2.14033e-05 7.03621e-19
-3.47868e-06 -2.72557e-05 3.37839e-19
-1.94596e-05 2.4024e-05 -1.29643e-18
-2.5346e-05 -1.06e-05 1.12731e-18
2.1454e-05 2.79088e-05 -1.90711e-18
-2.92133e-05 -5.86318e-06 3.71284e-18
7.96701e-06 -5.55651e-06 -1.92659e-18
2.05703e-05 2.23017e-05 -8.60286e-20
1.489e-05 -6.42422e-06 -8.08966e-19
2.18373e-05 -2.68742e-05 -2.44291e-18
-1.23631e-05 -3.23227e-05 2.10066e-18
-8.18e-06 3.729e-06 7.59569e-19
1.3672e-05 -1.33492e-05 2.28692e-18
-1.38306e-05 4.8923e-06 -7.92179e-20
-1.95947e-06 -1.00801e-05 -8.29387e-19
3.8516e-06 1.00302e-05 -1.32461e-18
-8.60341e-06 3.32873e-06 -8.2962e-19
-8.21187e-06 1.29727e-05 -1.84238e-18
1.49898e-05 6.9457e-06 2.24807e-18
1.37652e-05 -4.87501e-06 8.93961e-19
-1.02374e-05 1.00381e-05 -1.70203e-19
-1.09481e-05 -9.39026e-06 -3.25384e-19
-1.35896e-05 -3.48288e-06 3.24542e-18
-1.97302e-05 1.18247e-05 -2.06268e-18
-1.9272e-05 -2.47357e-05 1.72458e-18
2.80433e-06 -1.42618e-05 -3.17688e-18
-3.1069e-05 4.36564e-06 3.11511e-18
3.02679e-06 7.07103e-06 2.24242e-18
-3.14005e-06 -5.24561e-06 -3.8588e-18
-3.76446e-06 -1.13443e-05 -2.02024e-18
2.53815e-05 1.10091e-05 -7.91742e-19
6.15793e-06 1.09114e-05 2.54301e-18
8.00217e-06 -8.83167e-06 -5.60288e-18
-1.38569e-06 -1.21229e-05 -3.45668e-18
3.18199e-06 -5.29468e-06 -1.01297e-18
-5.34245e-06 -3.33551e-06 -9.91356e-19
-5.51577e-06 5.98106e-06 -9.13014e-19
1.30217e-06 -2.6296e-06 -6.70265e-19
-9.80912e-06 -1.00889e-05 4.098e-18
-1.3714e-05 3.49713e-06 -9.41112e-19
-1.79093e-06 1.56942e-05 1.20793e-18
-1.04855e-05 6.39787e-06 -2.02189e-18
-4.71108e-06 7.37754e-06 3.71325e-21
-2.61455e-05 3.33488e-06 7.79366e-20
5.22252e-06 -1.33244e-05 -2.22018e-18
-1.12345e-05 -4.78614e-06 2.54304e-19
7.61562e-07 6.4106e-06 -4.19913e-19
1.25461e-05 2.3723e-06 -8.9857e-19
1.55069e-05 -1.30967e-05 2.63552e-18
1.45645e-05 1.31212e-05 -6.89991e-19
7.51082e-06 -2.08313e-06 6.65788e-19
-1.44348e-05 1.05375e-05 1.83391e-18
1.74063e-05 2.27915e-06 -1.61622e-19
-2.45944e-06 2.18695e-05 -1.42654e-18
-7.64392e-07 -9.00887e-06 -5.8898e-19
1.07066e-05 5.59651e-06 1.33986e-18
1.31482e-05 1.37284e-05 3.1042e-19
4.24315e-05 2.63945e-05 1.71881e-19
-2.40767e-06 1.43285e-05 2.60041e-18
4.43356e-05 -2.49163e-05 3.35899e-19
-1.73038e-05 3.01287e-06 2.72322e-18
1.04009e-05 6.73569e-06 3.52276e-18
-1.3648e-05 4.66857e-06 -6.51535e-19
7.61287e-06 1.31421e-05 -6.4218e-19
4.44522e-06 -1.98904e-05 -5.71436e-19
8.10314e-07 6.41702e-06 -4.19231e-19
-8.87073e-06 -1.11485e-05 1.03388e-18
1.30768e-06 9.21888e-06 8.3533e-19
1.27034e-05 2.6754e-06 4.8971e-19
-7.01677e-06 1.51006e-05 -1.45182e-18
1.83579e-05 -6.17271e-06 -3.97484e-19
-2.04234e-06 3.86239e-06 -2.67689e-18
5.75183e-06 2.97888e-06 7.44189e-19
-9.60621e-07 -6.21947e-06 -1.5932e-18
2.36269e-06 -1.18212e-05 -4.57275e-18
9.12947e-06 2.28368e-06 5.76626e-19
-3.61491e-06 1.84572e-05 3.03181e-18
-6.10958e-06 -1.22448e-07 -2.69367e-18
4.95773e-06 6.02608e-06 7.44432e-19
-1.16864e-06 -1.87615e-05 -8.28284e-20
1.90018e-05 5.98361e-06 8.74844e-19
2.37296e-06 -3.85983e-06 1.6662e-18
-5.94464e-06 -2.18535e-06 -2.58402e-18
-1.34445e-05 -5.84731e-06 -1.86765e-18
1.0371e-05 2.74739e-05 -1.79344e-19
-1.91491e-05 -6.87784e-06 -7.1902e-19
1.05155e-05 -2.75487e-05 1.55104e-18
-1.61821e-06 -1.48265e-05 -8.97561e-19
1.07361e-05 2.57878e-07 -1.81028e-18
-4.43464e-06 1.19512e-05 -6.73284e-19
-1.13494e-06 2.1966e-06 7.53116e-19
-2.69351e-06 -9.84468e-06 1.08633e-18
3.06826e-06 -5.41294e-06 3.38537e-19
6.20142e-06 1.00572e-05 1.27805e-18
2.19727e-05 7.34116e-06 2.48579e-19
5.08023e-06 -3.85995e-06 1.92154e-18
-3.73732e-06 -2.01297e-05 -1.28247e-18
1.20694e-05 -8.7518e-06 1.6088e-19
3.2897e-06 1.78624e-05 -3.43088e-19
-1.4385e-06 -1.80007e-06 -7.38617e-19
-5.58023e-06 -5.04466e-06 9.19453e-19
-2.82845e-06 2.85956e-07 -8.35351e-19
-1.04621e-05 1.28521e-05 1.45232e-18
1.29239e-05 -2.45745e-05 -2.9536e-18
-1.18675e-05 1.88122e-05 -2.54717e-18
-8.61118e-06 5.2649e-06 -1.57855e-18
1.37839e-06 7.8589e-06 1.76416e-18
-1.47956e-05 -2.34556e-05 1.04847e-18
6.3293e-06 1.53721e-05 -6.48248e-19
1.00964e-05 4.75539e-06 -6.80536e-19
1.12555e-05 -4.42419e-06 2.40432e-19
-1.03173e-06 -6.25203e-06 -6.47045e-21
-1.5053e-05 -1.38318e-05 -2.71499e-18
-1.14331e-06 6.28015e-06 -1.83774e-18
9.74519e-06 5.84337e-06 1.16166e-18
9.99877e-06 -5.02967e-06 -1.50318e-18
4.39546e-06 -7.2559e-06 2.44399e-19
1.17658e-05 -5.14353e-06 6.4883e-19
9.71911e-06 -4.6064e-06 -1.98717e-18
2.85731e-06 4.25932e-07 1.33605e-18
1.18841e-05 9.41155e-06 3.18601e-19
-1.05706e-06 -9.05402e-06 1.9188e-18
-6.01221e-06 -2.134e-06 -7.56284e-19
8.94485e-07 -2.17065e-06 -2.51034e-19
-2.30028e-06 8.944e-06 -8.41135e-20
-1.57825e-05 1.29336e-06 -1.3759e-18
-5.50718e-06 -1.51701e-05 -3.28205e-19
-4.13483e-06 5.04801e-06 -3.92283e-18
6.8659e-06 8.16435e-06 -1.57885e-18
1.22752e-05 -8.77358e-06 -3.30308e-19
-1.6397e-05 -8.94386e-06 -3.9633e-19
7.97751e-06 -1.27116e-05 1.11879e-18
1.05686e-05 -1.25218e-05 -3.31804e-19
-5.88006e-06 2.38326e-06 -1.91422e-18
-9.08479e-06 -1.30466e-05 -1.21388e-18
-1.57552e-05 -2.68267e-06 8.33748e-20
-1.91164e-06 -1.45547e-05 -2.49678e-18
7.04547e-06 -1.45916e-05 -7.38538e-19
-6.12255e-06 -1.6523e-05 1.95478e-18
1.99189e-06 1.46083e-05 2.11214e-18
-7.27588e-06 -1.29564e-05 -7.26165e-19
2.26622e-06 -9.37039e-06 1.34259e-18
-1.15224e-05 8.29774e-06 -7.84735e-20
-9.02135e-06 -7.71781e-06 1.38075e-20
-1.74217e-05 -2.90062e-06 -6.78211e-19
8.6012e-06 -5.18083e-06 -1.6773e-18
-2.59369e-06 1.55136e-05 3.09345e-18
7.22313e-06 -4.9443e-06 -2.52227e-18
-1.3506e-05 -5.88656e-06 -1.68948e-18
-5.06705e-06 -3.85565e-06 3.35725e-19
5.27764e-06 3.8712e-06 -1.01137e-18
9.92518e-06 1.31784e-05 1.60734e-19
-1.00395e-05 -6.44509e-06 -2.51061e-19
-1.47277e-05 -3.66035e-07 1.04541e-18
-9.98702e-06 -2.50927e-06 -1.93903e-18
-2.97924e-06 -9.85541e-06 -6.45843e-21
1.10699e-05 1.38821e-05 -1.1163e-18
-6.32429e-06 2.91771e-06 -3.18772e-18
5.97831e-07 -1.19484e-05 -1.0186e-18
-1.86057e-05 4.85278e-06 -4.04498e-19
1.17438e-05 9.37713e-06 5.14592e-22
1.75143e-06 1.51018e-05 1.24537e-21
-1.21507e-06 2.38992e-06 -1.91548e-18
-4.67509e-06 1.27175e-07 -3.32924e-18
2.3345e-06 4.01096e-06 -2.17676e-18
-7.28463e-06 2.38934e-06 1.7004e-19
-1.39417e-06 -2.08971e-06 -1.93855e-18
1.36318e-06 1.19893e-05 1.26452e-18
2.73929e-06 -3.35583e-08 -1.42657e-18
-9.58993e-06 2.37855e-06 -2.22215e-18
-8.17742e-06 9.07768e-06 3.30318e-19
-1.69183e-06 7.34781e-06 2.63479e-19
-1.32799e-05 8.38337e-06 -4.95011e-22
-6.04982e-06 5.43668e-06 -1.01704e-18
9.99441e-06 -7.25439e-06 -9.29686e-19
1.68671e-05 -1.72786e-06 8.06989e-19
-1.3102e-05 6.86481e-06 -1.64586e-19
1.11124e-06 2.82791e-06 -1.34806e-18
1.36861e-05 -2.25533e-06 1.68748e-18
-9.74576e-06 6.29236e-06 -1.00151e-18
-5.29749e-06 3.33739e-06 -7.43261e-19
7.55449e-06 2.68483e-06 4.13319e-18
1.05798e-05 -6.60461e-06 8.03413e-20
-9.93464e-06 5.54596e-06 -3.10436e-18
-1.17593e-05 -2.47979e-06 -8.94772e-19
-1.00905e-05 -2.34363e-06 -5.08284e-19
6.3063e-06 2.94932e-07 6.66493e-19
6.43069e-06 -1.98759e-07 1.00263e-18
3.01362e-06 5.03509e-06 -2.09985e-18
3.25204e-06 -5.29368e-06 -3.36096e-18
-2.88159e-06 5.37856e-06 1.77718e-19
-2.98966e-06 -5.4833e-06 -1.07818e-18
5.41096e-06 -4.52686e-06 -3.37806e-19
-1.30634e-05 2.2786e-06 3.38467e-19
-1.29126e-05 -2.317e-06 5.03236e-19
-8.41936e-06 1.01164e-05 1.1045e-18
-8.45862e-06 -1.01479e-05 2.70651e-18
4.70971e-06 -1.30626e-05 8.27407e-20
4.53811e-06 1.29619e-05 2.50919e-19
8.05084e-07 1.24126e-05 1.22364e-18
6.63702e-06 -1.29504e-06 1.58797e-18
1.41979e-06 -2.14245e-06 -1.18022e-18
-1.04589e-05 8.04967e-07 -1.07348e-18
4.83127e-06 -1.2856e-05 -2.38267e-18
4.58217e-06 1.28986e-05 1.77447e-18
2.71534e-06 -4.90463e-08 -1.50814e-18
4.25645e-06 1.15818e-05 -4.07365e-19
-1.2457e-06 -2.25179e-06 -2.25487e-18
1.05002e-06 -6.28229e-06 1.08384e-18
-1.0746e-05 -5.70054e-06 -6.51136e-19
-1.3294e-05 -7.02151e-06 -5.88726e-19
-1.04249e-05 6.54152e-06 2.37556e-18
1.81549e-06 -7.93063e-06 1.01266e-18
-8.89554e-07 1.8484e-06 -4.2334e-19
-3.81795e-07 -1.22696e-05 -3.37555e-19
-3.68987e-06 -1.15114e-05 1.95086e-18
1.48406e-05 1.36921e-05 2.15854e-18
1.63375e-05 -8.09308e-07 -2.42455e-19
-7.92545e-06 -2.55281e-06 -1.72054e-19
-1.02215e-05 -1.82648e-05 -2.23425e-18
4.36705e-06 7.09328e-06 -1.00352e-18
-1.18359e-05 1.39764e-06 -9.75861e-19
1.00163e-05 2.8928e-06 -1.32529e-18
-2.53317e-06 -1.07053e-08 -1.07304e-18
-3.08162e-06 -5.10201e-06 -9.32397e-19
-5.3958e-06 -2.55483e-05 9.51346e-19
-6.042e-06 2.02884e-07 -1.00792e-18
-2.12712e-05 -7.949e-07 1.56717e-19
8.26325e-06 -9.12583e-06 -7.39158e-19
1.44515e-06 2.21643e-06 -1.76007e-18
-1.8234e-07 -9.57317e-06 1.08718e-18
-4.67733e-06 1.12933e-05 5.72405e-19
-2.9266e-06 5.21851e-06 -1.01069e-18
1.02812e-05 -6.61539e-06 3.04501e-18
-2.48241e-05 -8.07854e-06 1.91421e-18
-7.20838e-06 -9.57052e-06 -1.67515e-19
2.94398e-06 5.42713e-06 2.26041e-18
1.02102e-05 2.47911e-06 9.17121e-19
-2.48187e-06 -3.7824e-06 -1.00439e-18
1.29265e-05 2.554e-06 4.41109e-18
1.08102e-05 -5.58527e-06 -7.64982e-19
-1.69359e-07 1.72254e-05 9.42415e-19
4.40815e-06 -7.10435e-06 -2.57532e-19
2.19656e-05 8.62239e-07 -1.27033e-18
-1.8686e-05 4.83446e-06 -4.7488e-19
1.46515e-05 7.17583e-06 -6.05948e-19
-3.16786e-06 -8.62155e-06 -1.82907e-18
-8.44188e-06 -4.5692e-06 -7.51255e-19
1.36761e-05 -1.0389e-07 -1.88423e-18
-5.24284e-07 -1.50648e-05 -4.08474e-18
-6.93876e-06 -6.70251e-06 9.91779e-20
4.86788e-06 -1.11654e-05 -2.28935e-18
-5.06272e-07 1.18115e-05 -8.3523e-20
3.65553e-06 1.24779e-05 -1.14887e-18
9.71552e-06 -5.6605e-06 1.00097e-18
-9.12576e-06 9.01238e-06 1.56359e-18
7.85697e-06 9.52818e-06 -1.79355e-18
-4.30889e-05 1.02394e-05 5.24534e-19
-6.76591e-06 1.64462e-05 -5.09491e-19
8.25347e-06 -9.74122e-06 -4.08696e-18
-4.35058e-06 -1.19408e-05 -6.63652e-19
-6.83532e-06 2.13424e-06 -6.70255e-19
-1.22242e-05 -3.49428e-06 -1.06336e-18
-4.478e-06 2.55585e-05 -1.71977e-18
-7.09261e-06 7.5323e-06 -1.16803e-18
1.05232e-05 -2.54055e-06 -2.1577e-18
-3.13651e-06 -1.23528e-05 1.71854e-18
-7.02109e-06 1.11739e-05 -2.39589e-19
-1.36519e-05 7.95042e-06 1.79168e-18
-9.77178e-06 -7.19463e-06 -1.88094e-18
1.1288e-05 -1.35683e-05 -1.79482e-18
-1.28771e-05 -7.02651e-07 -8.16473e-20
5.44526e-06 -1.84212e-05 1.4968e-18
9.47194e-06 -8.98496e-06 -8.40065e-20
1.10452e-05 1.93257e-05 -2.40354e-19
1.33884e-06 1.20538e-05 2.45418e-18
1.47183e-06 -1.21924e-05 -5.78627e-19
-2.7978e-05 3.2941e-05 -2.7108e-18
-5.96646e-06 -1.1479e-05 8.18694e-19
1.02126e-05 -3.59335e-06 1.25745e-18
-1.22516e-06 1.22747e-05 8.16471e-19
7.51158e-06 -7.65778e-06 8.4233e-19
6.59953e-06 1.15079e-05 1.58552e-19
8.91565e-06 -9.06268e-07 4.96697e-19
9.53138e-06 -2.78152e-05 -2.7597e-18
-2.8984e-06 -6.61671e-06 1.62181e-19
-1.10605e-05 4.72779e-06 -1.39108e-18
-1.27257e-05 1.21393e-05 1.71549e-18
1.04037e-05 7.06406e-06 1.63318e-18
9.62878e-06 -5.64476e-06 -1.82384e-18
8.5083e-06 7.7735e-06 -5.12922e-19
-3.31814e-06 -2.51272e-07 -1.0954e-18
7.36552e-06 -1.09397e-05 1.78958e-18
-8.16944e-06 -9.56597e-06 -1.0704e-18
1.11276e-05 4.98126e-06 -9.10935e-19
7.60553e-06 -7.45029e-06 -5.12248e-19
4.46376e-06 -1.19208e-05 -1.07553e-18
8.99952e-06 -4.27518e-06 -8.38945e-19
-8.33642e-06 -4.12183e-06 9.22655e-19
9.63384e-07 -1.65879e-05 -1.71856e-18
-1.23258e-05 2.26493e-06 -2.8696e-18
1.01697e-06 1.20338e-05 3.25538e-19
1.04706e-05 3.65857e-06 -2.58049e-18
-1.05573e-05 -5.35866e-06 -2.05814e-18
-4.14993e-06 1.21879e-05 -1.61585e-19
-5.96477e-07 -1.19093e-05 -2.39541e-18
1.19883e-05 7.40032e-06 1.85557e-18
-4.77625e-07 9.99184e-06 1.01066e-18
-9.93297e-06 6.54359e-06 -4.89956e-19
1.14139e-05 5.44103e-06 1.22393e-18
-9.32591e-06 -5.98549e-06 -3.29728e-19
5.47163e-07 -1.11161e-05 -4.03219e-18
8.95e-06 9.47323e-06 7.37382e-19
-1.38787e-05 -9.11196e-06 2.74664e-18
2.14933e-05 -1.53421e-05 -2.3196e-19
9.70051e-06 -5.62803e-06 -1.17255e-18
3.89012e-06 1.93689e-05 9.62294e-19
8.97742e-06 -6.79578e-06 -1.16737e-18
-9.83417e-06 3.81653e-05 -1.84177e-18
-9.88234e-06 -3.78067e-05 -9.60425e-19
2.48816e-05 3.24365e-05 2.96726e-18
2.4587e-05 -3.24288e-05 -2.97145e-19
4.05754e-05 -2.2064e-08 8.11064e-19
-3.48858e-05 1.41844e-05 -6.78857e-19
-3.43258e-05 -1.43293e-05 -1.48294e-19
7.3476e-06 7.44213e-06 -1.53239e-18
1.92344e-05 1.44574e-05 6.78088e-19
6.05071e-06 1.99752e-06 -1.73609e-19
9.75417e-06 4.96456e-06 -7.52427e-19
2.44213e-06 1.00262e-05 -1.67285e-19
-9.34327e-06 -7.15766e-06 -4.9407e-18
9.90253e-06 -5.39131e-06 5.00037e-19
9.95971e-06 7.04127e-06 -1.66534e-19
-1.37464e-06 1.19577e-05 -3.45783e-18
1.93468e-05 -1.32586e-05 -9.59223e-20
1.68766e-06 -1.17172e-05 -9.94029e-19
1.37406e-05 2.75349e-06 -2.66732e-19
1.397e-05 5.30296e-06 8.06148e-20
9.30271e-06 8.95796e-06 -2.37855e-18
8.33806e-06 3.64067e-06 -2.75853e-18
-9.37238e-06 5.61635e-06 1.57605e-18
-1.09521e-05 4.58121e-06 -1.23139e-18
1.47002e-05 -7.02682e-06 1.18725e-18
-9.54833e-06 -5.43463e-06 7.53024e-19
-9.49909e-06 -5.3097e-06 1.24663e-18
1.08951e-08 -1.10081e-05 -8.39432e-19
-1.09084e-07 -1.08441e-05 2.39869e-18
-9.78089e-06 -5.14441e-07 -2.3033e-18
1.27175e-05 -1.91199e-06 -1.30339e-18
9.30958e-06 5.86213e-06 2.42799e-19
-9.50763e-06 5.6046e-06 5.87438e-19
-9.13032e-06 1.05227e-05 7.68166e-19
8.09159e-06 -6.87648e-06 -1.74679e-19
-5.40005e-06 8.46459e-06 3.33537e-19
-7.01271e-06 -7.26805e-06 -2.39218e-18
-5.93121e-07 1.07155e-05 -9.91775e-19
-3.72818e-07 1.10958e-05 -1.57943e-18
-4.38695e-08 -1.11125e-05 -3.60974e-18
3.01061e-06 -9.75354e-06 1.8061e-18
-9.62061e-06 -5.43236e-06 8.63328e-20
8.07413e-06 -3.01486e-06 1.16107e-18
4.12573e-07 1.0943e-05 -4.94581e-19
2.38325e-07 1.01375e-05 -1.6539e-19
-1.06421e-06 8.76415e-06 -3.26665e-19
1.07629e-05 -2.74775e-06 -4.367e-18
-1.01817e-05 2.75347e-06 3.35898e-19
1.8515e-06 1.09535e-05 4.1241e-19
-2.12093e-05 8.19698e-06 1.45936e-18
4.28839e-06 1.88122e-05 -1.56859e-19
-1.03489e-05 2.48232e-06 -2.1155e-18
1.22366e-05 -7.30925e-06 1.43035e-18
2.96441e-07 1.11109e-05 1.33177e-18
-1.01758e-05 3.62272e-06 -1.59469e-19
1.71492e-06 -9.33547e-06 -4.80847e-18
4.69462e-07 -2.57201e-05 -9.37028e-19
9.35229e-07 9.22946e-06 -8.4803e-20
-8.75429e-06 6.84817e-06 1.74281e-18
7.69388e-06 2.81805e-05 7.70068e-20
3.13383e-05 2.60205e-05 1.6534e-19
3.5974e-05 -2.46074e-05 -2.8137e-18
8.06697e-06 -5.36079e-06 -2.75225e-18
-7.83541e-06 6.87519e-06 3.35329e-19
-1.01364e-05 -4.27867e-06 -1.6288e-19
-9.69602e-06 -3.39872e-06 7.45002e-19
4.44746e-05 -1.22398e-05 2.90605e-18
4.53466e-05 9.54395e-06 -8.91169e-19
5.78337e-06 2.22887e-06 -3.94807e-21
1.31552e-08 1.07689e-05 5.02701e-19
1.02117e-07 1.07723e-05 1.3401e-18
-2.13697e-05 -1.56939e-05 -2.71285e-18
5.67261e-06 -8.42205e-06 -1.89988e-18
6.90395e-06 8.01828e-06 -3.7247e-18
-1.04827e-05 -1.85009e-06 -1.07443e-18
-7.03381e-06 8.3047e-06 6.66064e-19
-9.53836e-06 4.62379e-06 -1.64945e-18
2.1234e-05 1.52173e-05 -1.23579e-18
9.54526e-06 4.01137e-06 7.09469e-20
-2.71304e-06 9.82836e-06 4.13077e-19
-9.16732e-06 -5.95363e-06 -7.48414e-19
7.02988e-07 -1.09385e-05 -2.9188e-18
-4.2708e-06 -9.55145e-06 -1.40808e-18
-8.72422e-06 -5.92352e-06 -2.15458e-18
5.21206e-06 -9.34742e-06 -1.33029e-18
7.24383e-06 -8.29769e-06 -3.15333e-18
-1.27938e-06 -2.69475e-05 -2.41496e-19
1.16879e-05 -1.84684e-05 -9.1122e-21
8.88389e-07 -1.05476e-05 4.09756e-19
9.73287e-06 5.81197e-06 2.99524e-18
-7.51358e-06 -7.28577e-06 -4.14448e-18
-4.75144e-06 9.66207e-06 -1.5669e-18
-2.26617e-06 1.06227e-05 -1.65615e-18
8.72101e-06 6.99838e-06 4.09444e-19
2.84209e-06 -1.01252e-05 -4.07032e-18
-6.24572e-06 -1.79205e-05 -7.08841e-19
-1.42274e-06 1.56023e-05 5.1295e-19
7.44558e-06 7.16277e-06 -4.15918e-19
-7.25213e-06 -6.09819e-06 9.37218e-19
-7.87638e-06 6.41588e-06 9.37207e-19
2.00251e-05 -8.53124e-06 -2.44539e-18
3.84697e-06 -6.91196e-06 4.9216e-19
-4.3797e-06 -6.36391e-06 -3.35109e-19
1.39354e-05 4.41042e-06 -6.9317e-19
8.7818e-06 -3.16616e-05 -2.36851e-18
-2.30358e-05 -2.34105e-05 1.9309e-18
1.51394e-05 3.77152e-06 1.86793e-18
-4.54089e-06 -8.88769e-06 -1.39928e-18
9.93445e-06 5.30946e-06 2.4209e-19
-1.28612e-05 -1.43457e-05 -3.15807e-18
7.11795e-06 3.21607e-05 -1.21226e-18
3.13236e-05 -4.05127e-05 1.75257e-18
-1.94271e-05 -4.73698e-05 -9.70945e-19
1.20256e-05 -2.33981e-05 -1.16207e-18
-8.18405e-06 2.86271e-05 -9.44605e-19
-4.74168e-06 2.52637e-05 -5.14648e-19
-9.78039e-06 4.98003e-06 -1.24483e-18
4.0873e-06 1.50483e-05 1.19414e-18
-1.04239e-06 6.66781e-06 -2.1652e-18
5.61679e-06 2.10514e-06 -5.94351e-19
-2.37663e-06 9.74988e-06 5.06174e-19
-9.60159e-08 1.25243e-05 7.63132e-19
9.15261e-06 5.40544e-06 9.11807e-19
4.18428e-07 2.5598e-05 -8.07014e-20
-7.87388e-06 5.28505e-06 -1.91547e-18
9.3019e-06 -3.21529e-06 2.01342e-18
1.05684e-05 -2.24928e-06 4.04833e-18
-2.62297e-05 -3.84763e-06 -6.22465e-19
-2.25908e-05 1.07785e-05 1.46777e-18
-1.90009e-05 -2.25549e-05 -1.81235e-18
5.55811e-06 5.04904e-06 -5.07453e-19
7.82701e-06 4.55336e-06 -1.43355e-18
1.28529e-05 -2.19083e-06 -2.05545e-18
-4.20979e-06 -6.83643e-06 -6.69741e-19
9.32161e-06 5.00545e-06 -1.68333e-18
4.87058e-06 -1.94074e-05 -3.68957e-18
-7.86249e-06 5.27542e-06 -8.33983e-19
-1.43699e-05 -1.39085e-05 6.14607e-19
-2.76066e-06 8.48871e-06 -1.16107e-18
-2.38917e-06 1.22885e-05 4.1396e-18
2.26116e-05 1.4008e-05 -5.25974e-19
2.41305e-05 -1.27496e-05 -4.95046e-18
-1.8575e-05 -4.97585e-06 -8.68405e-19
4.12523e-06 4.77438e-06 -2.35918e-18
-2.04417e-06 4.4307e-05 -5.37862e-19
6.48099e-08 -4.55064e-05 4.04247e-22
2.24434e-05 3.84062e-05 -9.25656e-19
-1.14687e-05 4.60237e-06 -2.10366e-18
-1.21144e-05 2.44971e-05 -3.14728e-19
2.25862e-05 -3.70705e-05 9.17322e-19
-5.81633e-06 -8.87206e-06 -6.62246e-19
3.43668e-05 2.98228e-05 1.84938e-18
1.57605e-05 -1.15225e-05 -2.41243e-18
-2.11494e-06 -1.93913e-05 3.62048e-19
3.60003e-05 -2.91623e-05 2.38384e-18
-3.36225e-06 7.33135e-06 -7.39946e-19
-2.32887e-05 -1.47773e-05 -1.0969e-18
-1.89665e-05 -3.96319e-05 5.40283e-19
-1.07934e-05 -2.53711e-05 -1.25936e-18
-1.94991e-05 4.02761e-05 -2.07925e-18
-4.62137e-06 2.81527e-05 1.41562e-18
1.07041e-05 2.43528e-05 -1.72641e-18
-1.26171e-05 1.61986e-05 -1.01932e-18
-1.15989e-05 -2.38656e-05 -2.9446e-18
4.41679e-05 7.77157e-06 1.76684e-18
-9.41402e-06 5.54214e-06 -2.58886e-18
-3.88961e-06 9.81644e-06 -4.23795e-19
-2.21005e-05 1.58775e-05 1.01177e-18
-9.435e-06 5.49169e-06 4.24846e-19
4.37344e-05 -6.93714e-06 -1.23601e-18
-8.65569e-06 4.11137e-06 -5.82858e-19
3.70088e-06 -7.36294e-06 -2.33409e-18
-3.39233e-05 -2.58901e-05 -1.54471e-18
-1.16287e-05 2.53656e-05 -5.47847e-19
-3.47255e-05 2.57077e-05 -7.52713e-20
1.06513e-05 2.33111e-05 -4.61727e-19
-7.83679e-06 5.41512e-06 -1.66215e-18
-1.30654e-05 1.60211e-05 2.33043e-18
-2.41424e-05 3.03955e-05 -1.05447e-18
-3.79014e-05 -4.85147e-06 1.49687e-18
-7.7313e-07 9.25555e-06 2.52198e-18
-2.55602e-05 -3.05232e-05 -1.85183e-18
-3.92291e-05 6.88284e-06 4.31672e-18
-1.49688e-05 3.4657e-05 -8.78087e-19
-1.15061e-05 4.59469e-05 -1.73911e-18
-8.18571e-06 1.8282e-05 -1.42297e-18
-2.20803e-05 1.78142e-05 -5.18119e-19
1.59374e-05 -3.73324e-06 1.95165e-18
2.51943e-05 -1.10518e-06 -2.07911e-18
7.55326e-06 4.89591e-06 -2.52463e-18
-8.08536e-06 -5.29149e-05 -2.69483e-19
-4.98805e-05 -1.94379e-05 2.54354e-18
2.45207e-05 5.08203e-08 -1.84291e-19
2.61183e-05 -5.04782e-06 -1.15725e-18
-5.30229e-06 -6.7237e-06 -2.99076e-22
-2.25656e-05 1.59301e-05 1.16061e-18
-2.02284e-05 2.32191e-05 -2.43947e-18
2.76087e-05 -9.93769e-06 -7.91219e-20
-1.86233e-05 -3.14865e-05 1.30072e-18
-1.89516e-05 3.12368e-05 9.23627e-20
-3.6704e-05 -1.33917e-06 -7.86962e-19
-1.66554e-05 3.28768e-05 -6.95502e-19
-3.66055e-05 4.17717e-07 1.65152e-18
4.57231e-05 1.63462e-05 2.52496e-19
3.67393e-05 1.40542e-06 -2.36468e-18
3.46399e-05 -1.77328e-05 -7.17079e-19
1.0182e-05 -4.87697e-05 2.63926e-18
1.82296e-05 -3.18415e-05 -6.14717e-19
1.81044e-05 3.1834e-05 -7.03449e-19
9.97274e-06 4.76562e-05 9.69065e-19
4.99069e-05 -1.4082e-05 -2.46964e-18
3.19301e-05 1.581e-05 8.69279e-19
3.05632e-05 8.33323e-06 -1.48852e-18
P_ext 3 563 float
-3.77241e-07 1.27491e-07 -3.12269e-20
3.24145e-10 1.38939e-08 -4.70623e-20
-3.4614e-08 -3.25672e-08 6.46352e-21
-1.09494e-08 1.01007e-08 -3.78754e-20
9.45412e-09 2.07394e-10 1.32984e-20
1.14037e-08 -4.62442e-08 -6.66404e-21
-3.71425e-07 -1.29036e-07 -1.93028e-20
-2.71043e-08 -3.07875e-08 1.16211e-20
7.55681e-08 1.33286e-09 -4.50123e-23
2.75436e-08 -2.56567e-09 -1.33531e-21
2.45572e-07 5.75907e-08 -6.13916e-21
1.34555e-08 -3.93161e-08 1.81991e-20
3.07717e-08 3.66775e-08 1.23638e-21
-3.20774e-09 2.86834e-08 -4.43788e-20
8.55473e-09 3.22323e-09 1.05826e-20
-4.82667e-08 -7.90021e-10 4.93738e-23
-6.06799e-09 1.88744e-08 -2.35556e-20
2.90893e-08 -4.38089e-09 -1.17996e-20
3.34498e-08 5.96665e-08 -2.58488e-21
-4.48495e-08 4.51818e-09 -3.87688e-20
-1.68605e-08 -6.35249e-08 -7.89709e-21
5.75807e-10 -5.92138e-12 -2.04722e-20
4.968e-08 4.04112e-09 1.93826e-20
3.16117e-08 -3.65217e-08 -1.44433e-20
-4.58162e-08 -7.36699e-09 5.25417e-21
-8.65747e-09 -2.50395e-08 6.49507e-21
2.82229e-07 -2.30899e-08 -3.59108e-21
3.44246e-08 2.90456e-08 8.94194e-21
-1.03155e-07 -8.1932e-08 1.17828e-21
6.00033e-09 1.14975e-09 -2.83668e-20
-4.59798e-08 -8.16085e-09 6.58811e-21
2.0151e-08 -1.31185e-07 4.87011e-21
2.1209e-07 -2.17212e-07 -2.68556e-20
4.32077e-10 -9.86555e-09 -5.43548e-21
-2.63935e-09 7.58348e-09 9.41057e-21
-8.24187e-09 -5.41418e-09 -3.61823e-20
1.05184e-09 5.4593e-09 -4.60053e-20
-8.31324e-09 1.4265e-09 2.29684e-20
3.32354e-08 -3.61899e-08 5.07407e-21
2.06961e-07 2.26366e-07 -1.71898e-20
1.32052e-07 -5.98383e-08 -5.07247e-21
1.9839e-09 -5.00293e-09 -4.24982e-21
-3.31158e-09 -4.34236e-09 2.73037e-20
-4.56793e-08 9.35508e-09 -2.45965e-20
1.31117e-07 -1.28768e-07 -2.70446e-20
-1.22066e-07 4.39376e-08 1.25647e-20
-1.54051e-08 -6.71785e-08 1.23169e-21
2.77752e-08 6.74688e-08 6.39087e-21
-4.38166e-08 1.144e-08 -1.81421e-20
-7.56338e-08 1.17625e-07 -6.33161e-21
1.34037e-07 6.56532e-08 1.635e-20
1.1632e-07 -3.82519e-08 1.26303e-20
-3.38122e-09 8.05328e-09 2.00101e-20
-9.10255e-08 -8.16893e-08 2.02391e-20
-8.82995e-09 1.17775e-09 3.33565e-20
-1.9548e-07 1.14795e-07 -4.44872e-20
-2.44861e-09 -7.55223e-09 -4.05711e-21
2.5924e-08 -1.20207e-07 -1.66526e-20
-7.68805e-09 -1.69145e-09 -1.74227e-20
2.02999e-08 4.06944e-08 1.17071e-20
-1.08121e-08 -3.23325e-09 -3.9188e-21
-1.14082e-08 -1.06587e-08 -2.23631e-20
2.54402e-07 1.12001e-07 1.3436e-20
-2.65646e-10 2.2066e-08 -2.49741e-20
3.36227e-09 -1.47106e-08 -5.04485e-20
5.76263e-09 -3.28014e-08 -1.58935e-20
-2.32268e-09 -1.07193e-08 -5.30081e-21
-2.62924e-08 -6.65324e-09 1.44432e-20
-3.06251e-08 3.74787e-08 -1.29418e-20
8.21199e-09 -2.95692e-09 7.83007e-21
-3.33395e-09 -8.2873e-09 2.00311e-20
-8.73305e-09 -1.29031e-09 -3.20214e-20
-1.52181e-08 1.40986e-07 -1.25083e-20
-2.69525e-08 1.36074e-08 -2.23654e-20
-2.62107e-08 4.48343e-08 -1.55343e-20
-2.64662e-07 3.11056e-08 -2.67068e-20
-1.62066e-11 -2.07904e-08 1.17695e-21
-2.53163e-08 -2.12457e-08 -2.36005e-20
1.06982e-08 2.60544e-08 1.56244e-20
1.0124e-07 2.02439e-08 -5.12149e-21
1.4525e-07 -1.26389e-07 -9.92254e-21
3.91739e-09 9.63865e-09 -5.09195e-20
9.72986e-09 3.06289e-09 -2.72209e-21
-1.35354e-07 1.00142e-07 2.86772e-20
1.57919e-07 1.91956e-08 1.6306e-20
-2.39603e-08 2.14221e-07 -1.30956e-21
-8.29302e-09 -4.2766e-08 6.4112e-21
2.89905e-08 2.04287e-08 -2.76302e-20
1.26118e-07 1.33004e-07 1.21121e-21
2.26663e-09 9.59009e-10 -5.06879e-20
-2.42899e-08 1.20887e-07 1.77947e-20
2.04555e-09 -1.05255e-09 -1.52476e-21
-1.4467e-08 9.90336e-09 2.26131e-20
3.13476e-08 1.27376e-08 -1.83435e-20
-1.16401e-07 3.59734e-08 1.21784e-21
6.75959e-08 1.18787e-07 4.9467e-21
4.20625e-08 -1.89928e-07 3.64272e-21
9.86442e-09 2.58166e-08 -9.15428e-21
-1.77757e-08 -1.05478e-08 -7.79853e-21
1.47927e-08 4.72554e-08 -3.8604e-21
9.8427e-08 1.67405e-08 6.35553e-21
-6.54109e-08 1.35114e-07 -1.32169e-21
1.73965e-07 -5.68569e-08 7.48015e-21
-9.6216e-09 2.10061e-08 -1.18163e-20
1.84057e-08 1.87381e-08 -1.38582e-21
-1.09748e-08 -2.52607e-08 -2.87881e-20
-4.44111e-09 -1.92015e-08 -1.73457e-20
5.10083e-08 6.09851e-09 -1.30387e-20
-3.73355e-08 1.746e-07 7.58681e-21
-8.56023e-09 5.32077e-09 -6.69403e-21
2.5437e-08 3.77248e-08 -5.18523e-21
-1.26282e-08 -1.79218e-07 -5.55456e-23
1.81272e-07 5.44281e-08 -8.68731e-21
1.22964e-08 -2.17383e-08 2.47316e-20
-2.80684e-08 -3.19164e-09 9.1893e-21
-1.15824e-07 -4.64758e-08 -2.58652e-21
5.67997e-09 6.05576e-09 -2.56867e-20
-1.84142e-07 -6.43925e-08 -2.7426e-20
5.76792e-09 -6.04188e-09 1.48034e-20
-1.79026e-08 -1.25781e-07 1.38076e-20
7.75563e-08 2.94533e-09 -1.67617e-20
-6.88079e-09 5.80726e-09 -2.11224e-20
1.86777e-09 8.45137e-09 5.22654e-21
5.21229e-09 -2.26339e-08 9.12989e-21
8.98716e-09 -4.16269e-09 2.65122e-21
1.12516e-10 9.05507e-09 -3.44059e-20
7.79532e-09 -9.81934e-10 2.59082e-21
1.46468e-08 -2.16556e-08 2.48013e-20
-3.77097e-08 -1.92293e-07 2.41206e-21
9.95032e-08 -7.66128e-08 1.89476e-20
2.87388e-10 1.20295e-08 -6.26686e-20
-8.37312e-09 -1.49453e-09 -1.55279e-20
-2.6797e-09 -9.32505e-09 -4.01095e-21
-6.8859e-09 -4.88635e-09 -1.04399e-20
-9.30618e-08 1.16291e-07 1.29812e-21
-1.05848e-10 -9.13298e-09 -2.31387e-20
-1.16499e-07 1.82911e-07 -1.74467e-20
-4.36238e-08 2.00436e-08 -1.25405e-21
6.12399e-09 6.55344e-09 -1.36737e-21
-7.86156e-09 -4.60005e-09 -2.41189e-20
5.67534e-08 1.36978e-07 7.52056e-21
3.26127e-08 2.91103e-08 9.01586e-21
7.93796e-08 -2.61684e-08 7.65974e-21
4.48211e-09 -2.43693e-08 1.29794e-20
-1.44309e-07 -1.32978e-07 -2.62854e-21
-1.38902e-08 2.39451e-08 -4.17626e-20
3.59767e-08 1.91931e-08 7.74692e-21
5.26683e-08 -1.81155e-08 -3.51185e-20
2.27409e-08 -4.54528e-08 -1.34483e-21
9.03202e-08 -4.16564e-08 2.16249e-20
6.00277e-08 -2.83344e-08 -2.6647e-21
6.00466e-09 -5.01363e-09 9.12494e-21
1.04867e-07 8.29502e-08 -8.77047e-21
-1.51633e-08 -4.37611e-08 1.04387e-20
-1.85598e-08 -1.5915e-08 -6.56953e-21
-3.06052e-09 -7.96898e-09 -1.17543e-20
4.20425e-09 3.11929e-08 -1.57198e-20
-1.40231e-07 1.00506e-08 -2.90171e-20
-5.12369e-08 -1.33859e-07 2.89668e-20
-2.20062e-08 2.80506e-08 -2.22167e-20
4.33008e-08 5.77294e-08 -6.57969e-21
1.07936e-07 -7.65554e-08 -3.80988e-21
-1.57917e-07 -8.44305e-08 -3.08385e-20
7.02008e-08 -1.14292e-07 -1.00396e-20
9.13806e-08 -1.12419e-07 -5.07366e-21
-2.68318e-08 2.63541e-09 -3.51749e-20
-8.02268e-08 -1.16093e-07 2.51697e-20
-1.40435e-07 -2.20046e-08 1.01144e-20
-1.67432e-08 -1.28183e-07 3.12224e-20
6.24701e-08 -1.29125e-07 -8.93915e-21
1.3252e-09 -1.76376e-08 -6.63654e-21
1.85613e-08 1.23607e-07 8.94862e-21
-6.61639e-08 -1.15735e-07 6.19724e-21
-6.22596e-09 -2.82664e-08 1.31185e-21
-9.55791e-08 7.15598e-08 2.1493e-20
-1.86434e-08 -6.06899e-09 -6.44048e-21
-1.44844e-08 -9.98964e-09 -2.78528e-20
3.8041e-08 -1.94972e-08 -3.26749e-20
-5.19472e-09 7.33885e-09 1.88875e-20
2.01872e-08 -2.55364e-08 -1.46099e-21
-1.1899e-07 -5.29183e-08 -4.5505e-23
-1.56916e-08 -2.11659e-08 5.24416e-21
1.63947e-08 2.2459e-08 -1.39286e-21
8.60174e-08 1.18751e-07 -7.57906e-21
-3.03184e-08 -1.39718e-08 -7.87102e-21
-1.32382e-07 -2.97698e-09 1.13929e-23
-1.68543e-08 -1.56923e-08 -2.63361e-20
-9.38944e-10 -2.26625e-08 -5.10835e-23
1.65214e-08 8.29843e-09 -4.26232e-20
-1.90789e-08 1.88431e-08 -3.1467e-20
-3.19708e-09 -3.33907e-08 -2.72585e-21
-1.76762e-07 4.35329e-08 -1.86893e-20
9.68077e-08 8.26021e-08 -1.01221e-20
1.29312e-08 1.34579e-07 -1.2174e-21
-7.78413e-09 2.65108e-09 -1.23783e-21
-2.59623e-08 8.06743e-10 5.24304e-21
1.19133e-08 2.27585e-08 2.49538e-21
-9.37775e-09 -2.33699e-09 -2.7596e-20
1.13401e-09 -8.03692e-09 -1.70556e-22
-5.21256e-09 3.53508e-08 -1.56678e-20
5.7291e-09 6.07734e-09 1.56222e-20
-6.56476e-08 1.45068e-08 2.5358e-21
-6.66495e-08 7.2713e-08 2.15965e-20
-7.16835e-09 6.60023e-09 -2.09309e-20
-1.20659e-07 7.28091e-08 6.2693e-21
-3.04271e-09 1.02122e-08 -1.45366e-20
3.24277e-08 -1.15887e-08 -1.7112e-20
1.51223e-07 -1.39094e-08 1.51022e-20
-1.88409e-08 1.19193e-08 -1.28275e-21
7.64841e-09 3.49759e-09 -3.27733e-20
1.95957e-08 -1.23019e-08 5.22711e-21
-3.37219e-08 1.12085e-08 -1.56579e-20
-2.45589e-08 6.40938e-09 -2.20853e-20
8.57587e-09 -2.54707e-09 3.82289e-20
8.00401e-08 -4.86762e-08 2.1622e-20
-3.14019e-08 2.0023e-08 -2.62339e-20
-9.41268e-08 -1.9627e-08 1.51821e-20
-1.98967e-08 -1.05026e-08 -1.05713e-20
7.58671e-09 -5.08633e-09 3.26749e-20
8.40953e-09 5.96032e-09 2.22192e-20
-2.17515e-09 9.58464e-09 -3.66915e-20
-9.06047e-10 -1.0816e-08 2.48285e-21
-8.79512e-09 4.45332e-09 -1.5586e-20
-9.84387e-09 -4.99982e-09 4.03458e-21
2.46748e-08 -9.29495e-09 2.57977e-21
-8.961e-09 -2.50872e-09 -2.51457e-20
-8.94048e-09 2.41705e-09 2.90599e-20
-2.16605e-09 8.90681e-09 -5.25827e-21
-2.35652e-09 -9.10242e-09 5.24157e-21
5.91651e-09 -6.59959e-09 9.30074e-21
5.68606e-09 6.31321e-09 -2.27124e-20
3.45121e-09 9.55283e-08 2.57345e-21
1.8458e-08 -1.52752e-08 1.17471e-20
4.30902e-09 -8.13755e-09 2.20226e-20
-7.19791e-08 2.65386e-09 -1.80718e-20
6.81157e-09 -6.40632e-09 -2.79086e-20
6.36029e-09 6.50503e-09 -2.39029e-20
9.77092e-09 -2.13856e-10 1.94884e-20
3.30724e-08 9.36392e-08 3.41938e-20
-4.9474e-09 -8.0835e-09 -1.4367e-20
1.07082e-08 -2.4468e-08 3.25997e-20
-8.03875e-08 -4.44797e-08 2.16798e-20
-1.75748e-08 -1.14042e-08 -3.94265e-21
-8.06913e-08 4.78478e-08 3.57701e-20
7.13011e-09 -7.26124e-09 -1.31365e-20
-3.42371e-09 7.60353e-09 -2.0906e-20
-1.88692e-09 -9.24935e-08 2.40895e-20
-3.0296e-08 -9.16346e-08 3.04367e-20
1.39036e-07 1.32339e-07 2.00006e-20
1.48709e-07 -8.44934e-09 8.6658e-21
-1.04559e-08 2.31063e-09 -4.25444e-23
-9.94782e-08 -1.75782e-07 1.23848e-20
2.36362e-08 4.05393e-08 -6.7846e-23
-9.52364e-08 1.12173e-08 1.4973e-23
6.8308e-08 1.90999e-08 -3.97112e-21
-9.31418e-09 -3.77017e-11 -1.03046e-20
2.33499e-10 -9.65983e-09 -1.43596e-21
-8.23533e-10 -6.55648e-09 2.84172e-20
-8.22087e-09 -4.92966e-09 -2.88186e-20
-2.06256e-07 -7.81548e-09 -3.73096e-20
6.47396e-08 -7.32285e-08 4.98676e-21
4.38433e-09 8.5169e-09 7.72887e-21
2.25392e-09 -4.07747e-08 2.99878e-20
-3.86266e-08 9.14631e-08 8.90254e-21
8.19989e-10 1.02227e-08 1.25128e-21
6.90248e-08 -4.9407e-08 1.8025e-20
-5.98978e-09 -2.63695e-09 -3.37365e-20
-5.87534e-08 -7.63533e-08 2.78532e-20
8.06716e-09 4.06376e-09 7.83942e-21
1.90494e-08 1.84881e-08 -1.32133e-20
-1.36047e-08 -2.119e-08 -2.21904e-20
8.29211e-09 -2.73354e-09 3.71191e-20
2.82727e-08 -1.97505e-08 -4.03106e-21
-1.66664e-09 1.57129e-08 -1.99544e-20
2.32999e-08 -3.928e-08 3.63463e-20
2.13557e-07 1.07612e-08 -6.21624e-21
-1.80944e-07 4.78703e-08 -4.43876e-20
1.50334e-08 1.04706e-08 -5.42433e-21
-2.23583e-08 -5.38043e-08 1.02436e-20
-3.39246e-08 -2.21451e-08 1.17032e-20
1.10725e-07 -1.11483e-09 6.24135e-21
9.35308e-10 -2.10128e-08 -2.13789e-20
-2.75946e-08 -9.69691e-09 2.77774e-21
3.77336e-08 -9.01721e-08 -1.02993e-20
3.00318e-09 3.61937e-08 -2.75266e-20
3.09663e-08 9.60224e-08 -1.41015e-20
3.70624e-08 -1.95338e-08 1.30363e-20
-6.77827e-08 7.21563e-08 2.18063e-20
6.23527e-08 7.70555e-08 -1.28013e-20
-3.87135e-09 1.71887e-09 -1.08817e-20
6.69031e-10 1.66387e-08 6.65338e-21
1.19908e-09 -7.52547e-09 -3.06602e-20
-5.98376e-09 -4.89988e-09 -2.50096e-20
-2.06283e-08 1.6394e-08 6.53192e-21
-9.49731e-08 -2.24898e-08 3.78848e-21
3.18116e-10 1.0598e-08 -8.05806e-21
-2.47692e-08 7.34399e-09 7.51425e-23
6.72302e-08 -9.73283e-09 -1.94589e-20
-2.87887e-08 -9.3174e-08 2.04829e-20
-5.66893e-08 9.02753e-08 2.03776e-23
-1.59023e-08 7.35465e-09 3.35684e-23
-7.59685e-08 -5.37441e-08 2.41188e-20
1.71133e-08 -7.99342e-09 1.21005e-21
-1.03004e-07 -5.04189e-09 2.56529e-21
5.05099e-08 -1.78257e-07 -2.42777e-21
6.88754e-08 -7.23476e-08 1.91285e-20
1.05496e-07 1.87053e-07 -9.96837e-21
-1.01048e-09 2.24667e-08 -4.60317e-20
9.03304e-09 -9.38358e-08 -6.46469e-21
-3.61132e-09 2.19182e-09 -1.23479e-20
-4.8843e-08 -9.11277e-08 2.29567e-20
1.62889e-08 -1.39958e-08 1.57249e-20
-9.42539e-09 9.49223e-08 -3.30623e-20
2.28014e-08 -6.6456e-09 1.33643e-21
5.20498e-08 9.27693e-08 5.05658e-21
5.20525e-08 -1.20684e-09 -3.92245e-21
9.53243e-08 -2.81287e-07 -1.85686e-20
-2.01448e-08 -3.74782e-08 -3.91908e-21
-8.40872e-08 3.66394e-08 -1.65673e-20
-1.17223e-08 5.71706e-09 -5.1736e-21
7.98282e-08 5.34589e-08 -1.77882e-20
5.68302e-08 -3.13747e-08 -9.12695e-21
2.99834e-08 1.31392e-08 -7.98225e-21
-6.11556e-09 5.20207e-09 -3.01404e-20
5.70664e-08 -8.81715e-08 5.06525e-21
-6.08322e-08 -7.59204e-08 -3.91369e-21
7.84638e-08 3.09402e-08 -2.44543e-20
1.98925e-08 -1.22682e-08 7.83788e-21
3.66989e-08 -9.12043e-08 -3.94652e-21
4.30371e-08 -8.12951e-09 3.85145e-21
-4.17778e-08 -1.66514e-08 -7.67721e-21
-1.8037e-09 -1.68716e-08 -1.21377e-20
-9.59231e-08 1.33102e-08 -1.02759e-20
1.00773e-08 8.41155e-08 3.81865e-21
6.55557e-08 1.52806e-08 -2.34321e-20
-7.45122e-08 -3.33391e-08 -9.06721e-21
-3.66698e-08 9.39868e-08 -2.93703e-20
-8.38706e-09 -8.1943e-08 -1.29973e-20
2.15683e-08 1.05274e-08 -3.55995e-23
-1.4073e-08 3.95517e-08 -3.11842e-20
-6.70015e-08 4.80611e-08 8.97952e-21
8.60948e-08 4.34334e-08 -5.06883e-21
-3.91006e-08 -1.22504e-08 -3.86568e-21
-9.51369e-09 -4.02479e-08 -2.63512e-20
6.57786e-08 7.64834e-08 -1.4051e-20
-1.53575e-08 -6.97314e-09 -9.15833e-21
2.169e-07 -1.55918e-07 -2.64705e-20
4.57256e-08 -3.2006e-08 -4.2911e-20
3.74645e-08 1.83609e-07 1.25021e-20
4.8237e-08 -4.64035e-08 1.41205e-20
-1.04808e-07 3.99128e-07 -5.27275e-24
-1.05412e-07 -3.95244e-07 -1.40281e-23
2.58988e-07 3.40398e-07 -3.30919e-21
2.55783e-07 -3.40304e-07 -1.74239e-20
4.23927e-07 -1.72489e-10 9.23909e-21
-3.65461e-07 1.47068e-07 -2.67056e-20
-3.59404e-07 -1.48662e-07 -9.22119e-21
1.73456e-08 9.37613e-09 -2.12426e-20
1.10936e-08 5.40024e-09 -1.74982e-20
3.24054e-08 4.34714e-09 -2.0894e-20
5.72479e-08 3.05973e-08 -1.03888e-20
1.69882e-08 6.76801e-08 7.6623e-21
-6.14046e-08 -5.27665e-08 -2.07148e-20
3.08417e-08 -2.84732e-08 3.78435e-20
6.59801e-08 5.29692e-08 -1.02583e-20
-1.52788e-08 8.33133e-08 -2.70438e-20
1.07548e-08 -5.29616e-09 2.80307e-20
1.55364e-08 -7.99432e-08 -9.07825e-21
2.01855e-08 1.36503e-08 1.57382e-20
1.19152e-07 4.17314e-08 -1.64522e-20
2.60209e-09 8.50947e-09 -4.90148e-20
4.59515e-08 1.50262e-08 -2.87331e-20
-5.69016e-08 3.14684e-08 -1.27942e-20
-7.79539e-08 2.69533e-08 -1.31847e-21
1.53452e-08 -1.0513e-08 1.72478e-20
-4.97068e-08 -2.29898e-08 -1.16016e-20
-5.46425e-08 -3.23666e-08 -1.15536e-20
-4.80028e-09 -5.48196e-08 -1.17509e-20
2.13406e-10 -6.29993e-08 1.42449e-20
-6.9413e-08 -2.99825e-09 -3.08433e-20
1.03116e-07 -1.6013e-08 8.78987e-21
5.55431e-08 3.42324e-08 7.70521e-21
-4.59322e-08 3.13397e-08 5.27174e-21
-2.06601e-08 1.00795e-08 -5.21467e-21
5.18579e-08 -4.6477e-08 -3.92555e-21
-3.8983e-08 6.06896e-08 -1.1469e-20
-4.80072e-08 -5.05686e-08 -1.37234e-21
-4.55482e-09 6.60683e-08 1.28558e-20
-9.90052e-09 5.57227e-08 -2.63297e-21
1.62307e-09 -4.04123e-08 -5.4121e-21
2.08915e-08 -6.75318e-08 7.68029e-21
-3.40785e-08 -2.18694e-08 -6.48528e-21
4.72776e-08 -1.34724e-08 -2.5934e-21
1.07132e-10 6.59855e-08 3.86418e-21
-1.44078e-09 4.21022e-08 -2.73691e-20
-1.06093e-08 4.73975e-08 -1.28897e-20
7.7666e-08 -1.91137e-08 6.22555e-21
-1.62264e-08 1.55538e-08 -5.24521e-21
1.76023e-08 6.60328e-08 2.1939e-20
-1.05635e-08 6.66331e-09 1.47587e-20
3.93088e-08 1.82308e-07 9.79634e-21
-1.91473e-08 1.03634e-08 -7.97923e-21
2.03182e-08 -1.05828e-08 2.63623e-20
5.86943e-09 5.60782e-08 1.3473e-21
-6.5813e-08 1.56152e-08 4.1105e-23
-2.05161e-09 -2.84577e-08 -2.51704e-20
2.75221e-09 -2.60249e-07 -3.69002e-21
7.87868e-09 4.75416e-08 2.57323e-21
-4.91537e-08 4.67788e-08 2.84955e-20
7.65653e-08 2.84798e-07 1.15822e-21
3.60992e-09 2.39124e-09 -6.00087e-20
3.11805e-09 -2.27973e-09 -8.43181e-21
3.69741e-08 -2.88535e-08 5.06135e-21
-5.25638e-08 4.7062e-08 1.03307e-20
-6.30589e-08 -1.86073e-08 -1.41908e-20
-6.48291e-08 -2.12864e-08 2.60048e-21
-1.38301e-09 8.64756e-10 1.371e-20
-9.77726e-10 -5.24164e-10 -7.4601e-20
3.02432e-08 6.1296e-09 -1.36006e-21
9.61507e-09 4.41187e-08 -1.172e-20
-1.11285e-09 4.38687e-08 -2.21046e-20
-2.17953e-07 -1.5837e-07 -2.90727e-20
3.85711e-08 -6.06809e-08 -1.03874e-20
1.94586e-08 6.95732e-09 -4.23126e-20
-7.15431e-08 -7.68452e-09 -3.35226e-20
-4.5235e-08 5.97705e-08 6.38691e-23
-5.8388e-08 2.74498e-08 1.54566e-20
2.14033e-07 1.53742e-07 -1.57029e-20
2.1024e-08 1.38549e-08 -8.01819e-21
-2.07756e-08 6.77756e-08 -5.08669e-21
-4.08768e-08 -3.50324e-08 -5.23412e-21
1.01839e-08 -5.33256e-08 -1.69943e-20
-3.31309e-08 -6.30052e-08 -5.22326e-21
-5.3054e-08 -3.63649e-08 -2.66207e-21
3.63725e-08 -6.45094e-08 -7.85786e-21
4.3616e-08 -5.99692e-08 -6.60993e-21
-1.38715e-08 -2.7148e-07 -8.61723e-21
1.11541e-07 -1.78424e-07 -1.74696e-20
5.31274e-09 -6.47848e-08 2.5624e-21
4.56455e-08 3.47674e-08 5.23818e-21
-4.10253e-08 -4.98222e-08 -1.04807e-20
-3.56136e-08 6.63748e-08 -3.21941e-20
-2.18896e-08 6.50318e-08 -3.61607e-20
4.76169e-08 4.93401e-08 1.1597e-20
2.33637e-08 -6.08242e-08 -1.44362e-20
-6.05687e-08 -1.72674e-07 -4.94356e-21
1.35697e-09 2.08292e-08 -3.70484e-20
4.8239e-08 4.96511e-08 -1.03035e-20
-2.59509e-08 -1.27455e-08 1.4707e-21
-2.15506e-08 1.17333e-08 1.58882e-20
1.93898e-07 -8.49486e-08 -2.21773e-20
2.40015e-08 -3.96662e-08 1.029e-20
-2.27773e-08 -3.89761e-08 -1.43025e-20
8.55542e-09 -7.54978e-10 1.72139e-20
6.7057e-10 -3.21607e-09 1.7506e-20
-2.40897e-09 -2.30304e-09 -5.28224e-21
1.05641e-08 6.97217e-09 9.2636e-21
-3.3414e-08 -6.30634e-08 2.04641e-20
5.13445e-08 2.05771e-08 -1.17564e-20
-1.254e-07 -1.37858e-07 -1.72899e-20
4.09266e-10 3.97305e-09 -1.48859e-20
4.87575e-10 8.37742e-10 3.43196e-20
1.01381e-09 -7.8711e-11 -1.39026e-21
1.20385e-07 -2.37808e-07 -2.17471e-20
-4.96244e-09 5.82195e-09 -1.34279e-20
-1.11614e-09 7.04821e-09 9.49688e-21
-5.16327e-08 1.83356e-08 5.17844e-21
-1.80228e-09 2.08867e-08 -3.1791e-20
-1.13609e-08 3.36193e-08 -1.95145e-20
2.33619e-08 9.7313e-10 -1.57683e-20
5.30363e-09 2.01617e-08 -2.49533e-20
-1.37936e-09 2.78844e-08 -3.55144e-20
4.00492e-08 2.17803e-08 -2.66151e-21
2.89132e-09 2.59042e-07 1.20004e-20
-3.7271e-08 3.52922e-08 -2.63079e-21
2.78982e-08 -1.87967e-08 4.32519e-20
1.60658e-08 -1.47417e-08 3.16365e-20
-2.65627e-07 -3.64668e-08 -2.79893e-20
-7.47484e-09 2.9914e-09 1.07989e-20
-1.93338e-07 -2.28695e-07 -2.58173e-20
3.44402e-09 9.3323e-09 -1.44899e-20
3.37639e-08 6.53097e-09 -2.23492e-20
1.00774e-07 -1.30693e-08 3.68088e-21
-2.29965e-08 -3.77845e-08 -6.5445e-21
4.39514e-08 1.2579e-08 -1.84197e-20
1.90823e-10 -1.11322e-08 -1.53677e-21
-2.47591e-08 2.86888e-08 2.21734e-20
-9.45184e-09 -5.97279e-09 -3.71579e-20
-2.2374e-08 4.54071e-08 -2.85329e-20
4.06182e-09 2.8595e-08 -1.30005e-20
6.52494e-09 4.76625e-09 -4.05654e-20
6.4707e-09 -4.57707e-09 1.59252e-20
-1.80004e-07 -4.90312e-08 -3.44371e-20
1.97458e-08 7.33139e-09 -2.7633e-20
-2.38483e-08 4.62295e-07 1.68393e-20
-1.63098e-09 -4.74932e-07 -1.44004e-20
2.33751e-07 4.00251e-07 2.30339e-21
-2.41005e-08 1.91536e-08 -1.18629e-20
-1.23936e-07 2.4932e-07 -2.0491e-20
2.35109e-07 -3.86344e-07 -1.67334e-20
-3.87588e-08 -6.27341e-08 1.66924e-20
3.5708e-07 3.12812e-07 1.08399e-20
4.13305e-09 -7.34027e-09 -1.24676e-22
-4.31494e-09 -7.43657e-09 -1.4521e-20
3.74277e-07 -3.05833e-07 -1.07576e-20
-2.2863e-08 4.49419e-08 -1.02881e-20
-2.3505e-07 -1.49698e-07 -1.47633e-20
-1.98291e-07 -4.13191e-07 4.82608e-21
-1.11033e-07 -2.55413e-07 -1.83849e-20
-2.03848e-07 4.20069e-07 -4.56581e-20
-4.81623e-08 2.84641e-07 1.34348e-21
-3.40779e-10 9.84812e-09 -3.23423e-20
-1.23632e-07 1.59159e-07 -1.8355e-20
-1.18453e-07 -2.42338e-07 -7.37527e-21
4.6037e-07 8.03789e-08 -4.67295e-21
-3.58227e-08 3.04796e-08 -9.16769e-21
-8.16281e-10 2.00731e-08 -9.2523e-21
-2.2267e-07 1.612e-07 -3.17027e-20
-3.97375e-08 2.1204e-08 1.18199e-20
4.55874e-07 -7.15102e-08 -4.84464e-21
-3.03085e-08 2.0365e-08 -1.17213e-20
2.21144e-08 -4.57457e-08 -3.3795e-20
-3.54738e-07 -2.69473e-07 -6.05542e-21
-1.19615e-07 2.56284e-07 1.19167e-21
-3.63347e-07 2.67502e-07 -3.47436e-20
1.06166e-07 2.36918e-07 -1.32964e-20
-3.89239e-08 3.09517e-08 1.6813e-20
-1.0736e-08 6.06723e-09 1.62311e-20
-5.70341e-10 -1.06538e-09 1.78888e-20
2.7139e-10 -8.43717e-10 2.77811e-21
2.97326e-09 3.10304e-08 1.3188e-20
-8.50848e-10 1.06414e-09 2.33207e-20
5.74045e-10 1.21149e-09 -2.1929e-20
8.72448e-10 -4.32504e-10 -2.73481e-21
-4.56726e-10 3.64785e-09 7.78998e-23
-8.16637e-08 1.78161e-07 -1.11119e-20
-6.09814e-09 4.33085e-09 1.34799e-21
1.04678e-08 -6.64256e-09 2.25497e-20
1.02702e-08 -5.96383e-09 -1.09381e-20
2.97567e-08 1.15866e-08 -6.7021e-21
-2.55668e-10 -3.12097e-09 2.72668e-20
-2.77432e-09 -1.43386e-09 -8.13499e-21
1.02602e-08 5.98928e-09 -3.77401e-20
2.64055e-07 -5.09322e-08 4.72664e-21
-3.40903e-08 -4.34491e-08 2.45239e-20
-2.31153e-07 1.61202e-07 -4.20267e-20
-2.06854e-07 2.35924e-07 -6.25194e-20
2.78827e-07 -1.00705e-07 -1.8372e-20
-1.26077e-09 -3.87288e-09 2.16868e-20
-1.3938e-09 3.98004e-09 1.90542e-20
-4.33633e-09 8.11472e-10 2.70573e-20
-2.90699e-09 2.85872e-09 -1.3571e-20
-3.92548e-09 -9.05131e-10 -2.71248e-20
6.40225e-10 9.89688e-10 3.99654e-21
4.20591e-09 -1.09472e-09 -1.51403e-20
1.72009e-09 -1.26869e-09 8.01618e-21
-1.35641e-09 -8.57123e-10 1.92401e-20
2.7402e-09 -2.73319e-09 8.06816e-21
2.75599e-09 2.8156e-09 -3.80853e-20
-1.36487e-09 7.39451e-10 -3.1636e-20
1.29096e-09 -3.67057e-10 -6.46445e-20
2.2016e-09 1.25477e-09 -5.88698e-20
4.89328e-09 1.81226e-09 -4.08059e-20
SCALARS rr_necrosis float
LOOKUP_TABLE default
0
0
0
0
0
0
0
0
0
0
0
0
0
0
0
0
0
0
0
0
0
0
0
0
0
0
0
0
0
0
0
0
0
0
0
0
0
0
0
0
0
0
0
0
0
0
0
0
0
0
0
0
0
0
0
0
0
0
0
0
0
0
0
0
0
0
0
0
0
0
0
0
0
0
0
0
0
0
0
0
0
0
0
0
0
0
0
0
0
0
0
0
0
0
0
0
0
0
0
0
0
0
0
0
0
0
0
0
0
0
0
0
0
0
0
0
0
0
0
0
0
0
0
0
0
0
0
0
0
0
0
0
0
0
0
0
0
0
0
0
0
0
0
0
0
0
0
0
0
0
0
0
0
0
0
0
0
0
0
0
0
0
0
0
0
0
0
0
0
0
0
0
0
0
0
0
0
0
0
0
0
0
0
0
0
0
0
0
0
0
0
0
0
0
0
0
0
0
0
0
0
0
0
0
0
0
0
0
0
0
0
0
0
0
0
0
0
0
0
0
0
0
0
0
0
0
0
0
0
0
0
0
0
0
0
0
0
0
0
0
0
0
0
0
0
0
0
0
0
0
0
0
0
0
0
0
0
0
0
0
0
0
0
0
0
0
0
0
0
0
0
0
0
0
0
0
0
0
0
0
0
0
0
0
0
0
0
0
0
0
0
0
0
0
0
0
0
0
0
0
0
0
0
0
0
0
0
0
0
0
0
0
0
0
0
0
0
0
0
0
0
0
0
0
0
0
0
0
0
0
0
0
0
0
0
0
0
0
0
0
0
0
0
0
0
0
0
0
0
0
0
0
0
0
0
0
0
0
0
0
0
0
0
0
0
0
0
0
0
0
0
0
0
0
0
0
0
0
0
0
0
0
0
0
0
0
0
0
0
0
0
0
0
0
0
0
0
0
0
0
0
0
0
0
0
0
0
0
0
0
0
0
0
0
0
0
0
0
0
0
0
0
0
0
0
0
0
0
0
0
0
0
0
0
0
0
0
0
0
0
0
0
0
0
0
0
0
0
0
0
0
0
0
0
0
0
0
0
0
0
0
0
0
0
0
0
0
0
0
0
0
0
0
0
0
0
0
0
0
0
0
0
0
0
0
0
0
0
0
0
0
0
0
0
0
0
0
0
0
0
0
0
0
0
0
0
0
0
0
0
0
0
0
0
0
0
0
0
0
0
0
0
0
0
0
0
0
0
0
0
0
0
0
0
0
0
0
0
0
0
0
0
0
0
0
0
0
0
0
0
0
0
0
0
0
0
0
0
0
0
0
0
0
SCALARS rr_protein float
LOOKUP_TABLE default
1
1
1
1
1
1
1
1
1
1
1
1
1
1
1
1
1
1
1
1
1
1
1
1
1
1
1
1
1
1
1
1
1
1
1
1
1
1
1
1
1
1
1
1
1
1
1
1
1
1
1
1
1
1
1
1
1
1
1
1
1
1
1
1
1
1
1
1
1
1
1
1
1
1
1
1
1
1
1
1
1
1
1
1
1
1
1
1
1
1
1
1
1
1
1
1
1
1
1
1
1
1
1
1
1
1
1
1
1
1
1
1
1
1
1
1
1
1
1
1
1
1
1
1
1
1
1
1
1
1
1
1
1
1
1
1
1
1
1
1
1
1
1
1
1
1
1
1
1
1
1
1
1
1
1
1
1
1
1
1
1
1
1
1
1
1
1
1
1
1
1
1
1
1
1
1
1
1
1
1
1
1
1
1
1
1
1
1
1
1
1
1
1
1
1
1
1
1
1
1
1
1
1
1
1
1
1
1
1
1
1
1
1
1
1
1
1
1
1
1
1
1
1
1
1
1
1
1
1
1
1
1
1
1
1
1
1
1
1
1
1
1
1
1
1
1
1
1
1
1
1
1
1
1
1
1
1
1
1
1
1
1
1
1
1
1
1
1
1
1
1
1
1
1
1
1
1
1
1
1
1
1
1
1
1
1
1
1
1
1
1
1
1
1
1
1
1
1
1
1
1
1
1
1
1
1
1
1
1
1
1
1
1
1
1
1
1
1
1
1
1
1
1
1
1
1
1
1
1
1
1
1
1
1
1
1
1
1
1
1
1
1
1
1
1
1
1
1
1
1
1
1
1
1
1
1
1
1
1
1
1
1
1
1
1
1
1
1
1
1
1
1
1
1
1
1
1
1
1
1
1
1
1
1
1
1
1
1
1
1
1
1
1
1
1
1
1
1
1
1
1
1
1
1
1
1
1
1
1
1
1
1
1
1
1
1
1
1
1
1
1
1
1
1
1
1
1
1
1
1
1
1
1
1
1
1
1
1
1
1
1
1
1
1
1
1
1
1
1
1
1
1
1
1
1
1
1
1
1
1
1
1
1
1
1
1
1
1
1
1
1
1
1
1
1
1
1
1
1
1
1
1
1
1
1
1
1
1
1
1
1
1
1
1
1
1
1
1
1
1
1
1
1
1
1
1
1
1
1
1
1
1
1
1
1
1
1
1
1
1
1
1
1
1
1
1
1
1
1
1
1
1
1
1
1
1
1
1
1
1
1
1
1
1
1
1
1
1
1
1
1
1
1
1
1
1
1
1
1
1
1
1
1
SCALARS rr_(S_ext) float
LOOKUP_TABLE default
0.646983
0.647985
0.647899
0.647966
0.648258
0.647897
0.646979
0.647959
0.647815
0.647984
0.647025
0.647959
0.647939
0.647998
0.648156
0.647914
0.648034
0.647945
0.647767
0.647872
0.647862
0.648622
0.64786
0.647874
0.647871
0.647962
0.647179
0.647911
0.647489
0.648406
0.647935
0.647491
0.647166
0.648342
0.648375
0.648341
0.648416
0.648362
0.647934
0.647169
0.647486
0.64842
0.648418
0.647935
0.647256
0.647505
0.647789
0.647832
0.647901
0.647424
0.647462
0.647594
0.648241
0.647598
0.648232
0.647296
0.648378
0.647598
0.648377
0.647877
0.648029
0.64812
0.64725
0.648116
0.648121
0.648037
0.648032
0.647963
0.647866
0.647988
0.648239
0.648238
0.647487
0.64807
0.647903
0.64712
0.648179
0.648036
0.647962
0.647615
0.647409
0.648291
0.648075
0.647377
0.647522
0.647272
0.64791
0.648055
0.647257
0.648572
0.647596
0.648571
0.648183
0.648026
0.647606
0.647451
0.647412
0.647981
0.648177
0.647929
0.647711
0.647547
0.647375
0.647953
0.647973
0.647974
0.648089
0.647922
0.647374
0.647998
0.647878
0.647291
0.647338
0.647948
0.64797
0.647602
0.648379
0.647408
0.648376
0.647606
0.647745
0.648143
0.647984
0.648054
0.648007
0.648165
0.648341
0.647981
0.647412
0.647606
0.648238
0.647977
0.648069
0.647981
0.647549
0.648378
0.647356
0.647946
0.648076
0.648377
0.64756
0.647991
0.647762
0.647984
0.647404
0.647965
0.647975
0.647903
0.647898
0.64768
0.647829
0.647984
0.647488
0.64794
0.647983
0.647978
0.648014
0.647571
0.647574
0.647935
0.647834
0.647495
0.647284
0.647461
0.647569
0.647975
0.64757
0.647569
0.647489
0.647571
0.648186
0.647598
0.64746
0.648024
0.6476
0.648085
0.648185
0.64796
0.648246
0.647978
0.647491
0.64798
0.647979
0.647561
0.648056
0.647453
0.648054
0.648092
0.648192
0.647982
0.648058
0.647422
0.6476
0.64749
0.64798
0.64794
0.647946
0.648068
0.647982
0.648034
0.647985
0.64778
0.647623
0.648067
0.647493
0.648074
0.648038
0.64754
0.648134
0.647987
0.648145
0.648006
0.64797
0.648076
0.647682
0.648015
0.647633
0.648091
0.648005
0.648004
0.647991
0.647996
0.647997
0.647996
0.647992
0.648148
0.648145
0.648148
0.648149
0.648236
0.648236
0.647675
0.647994
0.647954
0.647828
0.648157
0.648161
0.647958
0.647625
0.64795
0.647982
0.647687
0.648135
0.647683
0.64808
0.647945
0.647689
0.647638
0.647406
0.647408
0.648076
0.647389
0.647927
0.647633
0.647774
0.647949
0.648002
0.648427
0.647999
0.647384
0.647633
0.647953
0.647959
0.64762
0.648001
0.647768
0.648426
0.647635
0.648007
0.648049
0.647945
0.648154
0.648053
0.648241
0.647936
0.647309
0.647271
0.648214
0.647862
0.647959
0.647685
0.648137
0.648023
0.647633
0.648028
0.647715
0.64798
0.647716
0.647627
0.648509
0.648196
0.648158
0.648156
0.647991
0.647724
0.64833
0.648045
0.647837
0.647727
0.647695
0.648211
0.647686
0.648186
0.647707
0.647259
0.647722
0.647399
0.648093
0.647687
0.648507
0.647706
0.64807
0.647675
0.64806
0.647704
0.647911
0.647237
0.647888
0.647684
0.648206
0.647679
0.647837
0.648062
0.647988
0.647705
0.647723
0.647765
0.648094
0.647721
0.64796
0.647911
0.64824
0.647723
0.647759
0.647853
0.647771
0.647712
0.647773
0.648125
0.647956
0.647764
0.647682
0.647987
0.647988
0.647717
0.648239
0.64699
0.64791
0.647407
0.647857
0.646422
0.646424
0.646429
0.646426
0.646428
0.646424
0.646429
0.648098
0.648304
0.647938
0.647832
0.647772
0.64777
0.64798
0.647763
0.647758
0.648306
0.64777
0.648142
0.647596
0.648131
0.647895
0.64783
0.647766
0.648216
0.647909
0.647837
0.64791
0.647838
0.647759
0.647612
0.64783
0.6479
0.648144
0.647783
0.64775
0.647779
0.647823
0.647897
0.647981
0.647777
0.647979
0.647887
0.647826
0.647962
0.647889
0.647766
0.648057
0.647847
0.648293
0.64726
0.648097
0.648125
0.647898
0.647851
0.648034
0.647004
0.647896
0.647846
0.647242
0.648504
0.648508
0.647907
0.647772
0.647858
0.647783
0.64867
0.648669
0.64796
0.647964
0.647959
0.647005
0.647756
0.648073
0.647828
0.647819
0.647825
0.646982
0.648054
0.647766
0.647906
0.647906
0.647817
0.647836
0.647817
0.647826
0.647175
0.647401
0.647835
0.647908
0.647848
0.647813
0.647842
0.647855
0.647848
0.647262
0.648159
0.647777
0.648031
0.648059
0.647256
0.6479
0.64789
0.648241
0.648492
0.648491
0.648195
0.647754
0.647903
0.647245
0.648471
0.648641
0.64864
0.646971
0.648361
0.648405
0.647893
0.648179
0.647937
0.64799
0.64806
0.648089
0.647961
0.647
0.647917
0.648025
0.648072
0.647114
0.648372
0.647227
0.648065
0.647996
0.647699
0.647933
0.647956
0.648246
0.647968
0.648245
0.647906
0.648074
0.64839
0.648398
0.64725
0.648004
0.646963
0.646985
0.646937
0.648054
0.646992
0.646914
0.647814
0.646949
0.648295
0.648294
0.646967
0.64785
0.647181
0.64696
0.647159
0.646956
0.647159
0.648368
0.647211
0.646996
0.646963
0.647952
0.64811
0.647143
0.647954
0.646919
0.647986
0.647858
0.646948
0.647126
0.646931
0.64697
0.647887
0.648311
0.64862
0.648606
0.648003
0.648618
0.648617
0.648612
0.648529
0.64723
0.648382
0.648204
0.648314
0.647991
0.648552
0.648551
0.648334
0.646958
0.647848
0.646979
0.647212
0.647214
0.648458
0.648455
0.648448
0.648451
0.648457
0.648604
0.648454
0.648554
0.648627
0.648463
0.648464
0.648631
0.648606
0.648557
0.648445
SCALARS rr_(P_ext) float
LOOKUP_TABLE default
0.00754216
0.00749662
0.0075006
0.00749741
0.00748522
0.00750069
0.0075423
0.00749797
0.00750442
0.0074968
0.00753922
0.00749797
0.0074989
0.0074962
0.00748942
0.00749994
0.00749458
0.00749848
0.00750644
0.00750174
0.00750235
0.00746971
0.00750231
0.00750167
0.00750181
0.00749772
0.00753285
0.00750011
0.0075189
0.00747884
0.00749905
0.00751879
0.0075335
0.00748155
0.00748018
0.00748159
0.00747835
0.00748075
0.00749912
0.00753337
0.007519
0.00747816
0.00747821
0.00749902
0.00752913
0.00751824
0.00750549
0.00750366
0.00750051
0.00752172
0.00752008
0.00751425
0.00748588
0.00751412
0.00748624
0.00752774
0.00748008
0.00751411
0.00748012
0.00750151
0.00749475
0.007491
0.00752992
0.00749123
0.00749094
0.00749461
0.00749461
0.0074977
0.00750203
0.00749649
0.00748597
0.007486
0.00751902
0.0074932
0.00750045
0.00753544
0.00748858
0.00749465
0.00749773
0.00751321
0.00752264
0.00748378
0.00749285
0.00752393
0.00751755
0.00752862
0.00750011
0.0074939
0.00752908
0.00747195
0.00751419
0.00747201
0.00748833
0.00749512
0.00751378
0.0075205
0.00752257
0.00749687
0.00748864
0.0074993
0.00750906
0.00751648
0.00752402
0.00749806
0.00749726
0.00749716
0.00749231
0.00749967
0.0075241
0.00749596
0.00750146
0.00752766
0.0075256
0.00749832
0.00749737
0.00751398
0.00748013
0.00752276
0.00748026
0.00751381
0.00750746
0.00748993
0.00749665
0.00749379
0.00749565
0.00748904
0.00748171
0.00749688
0.00752257
0.00751378
0.00748597
0.00749693
0.00749308
0.00749677
0.00751641
0.00748006
0.00752509
0.0074986
0.00749283
0.00748011
0.0075159
0.00749668
0.00750676
0.00749676
0.00752295
0.00749757
0.00749735
0.00750053
0.00750067
0.00751042
0.00750378
0.00749665
0.00751889
0.00749883
0.0074968
0.00749689
0.00749554
0.00751546
0.00751531
0.00749891
0.00750359
0.00751856
0.007528
0.00752008
0.0075155
0.00749712
0.00751548
0.00751555
0.00751887
0.00751541
0.00748822
0.00751412
0.00752014
0.00749512
0.00751402
0.00749247
0.00748826
0.007498
0.00748571
0.00749711
0.00751883
0.00749693
0.00749697
0.00751582
0.00749381
0.00752045
0.00749381
0.00749224
0.00748806
0.00749686
0.00749375
0.00752209
0.00751404
0.00751882
0.00749682
0.00749865
0.00749841
0.00749312
0.00749671
0.00749477
0.00749661
0.00750588
0.00751288
0.00749316
0.00751877
0.00749287
0.00749466
0.00751673
0.00749045
0.00749655
0.00749004
0.00749596
0.00749739
0.00749281
0.00751026
0.00749559
0.00751243
0.00749226
0.00749573
0.00749575
0.00749624
0.00749604
0.00749602
0.00749606
0.00749648
0.00748973
0.00748985
0.00748972
0.00748967
0.00748617
0.00748614
0.00751059
0.00749636
0.00749782
0.00750387
0.00748942
0.00748925
0.00749769
0.00751276
0.00749798
0.00749685
0.00751007
0.00749038
0.00751028
0.00749269
0.00749815
0.00750998
0.00751222
0.00752275
0.00752242
0.00749281
0.00752363
0.00749938
0.00751246
0.00750617
0.00749803
0.00749582
0.00747794
0.00749595
0.00752394
0.00751244
0.00749784
0.00749798
0.00751298
0.00749586
0.00750654
0.00747797
0.00751235
0.00749564
0.00749405
0.00749841
0.00748953
0.00749401
0.00748591
0.00749893
0.00752698
0.00752865
0.00748714
0.00750225
0.00749798
0.00751026
0.00749032
0.00749516
0.0075124
0.00749504
0.00750889
0.00749716
0.00750886
0.00751266
0.0074745
0.0074878
0.00748929
0.00748937
0.00749649
0.00750854
0.00748204
0.00749422
0.00750345
0.00750838
0.00750981
0.00748717
0.00751011
0.00748832
0.00750933
0.00752901
0.00750862
0.00752319
0.00749215
0.00751008
0.00747455
0.00750931
0.00749319
0.0075106
0.0074936
0.00750943
0.0075001
0.00753067
0.00750101
0.0075102
0.00748735
0.00751043
0.00750343
0.00749359
0.00749649
0.00750938
0.00750858
0.00750666
0.00749222
0.00750865
0.00749798
0.00750008
0.00748599
0.00750858
0.00750688
0.00750276
0.0075064
0.00750906
0.00750629
0.00749087
0.00749809
0.00750669
0.00751029
0.00749682
0.00749674
0.00750882
0.00748604
0.00754083
0.00750024
0.0075227
0.00750257
0.00756501
0.00756496
0.00756468
0.00756479
0.00756464
0.0075651
0.00756491
0.007492
0.00748324
0.0074988
0.00750364
0.0075062
0.00750643
0.00749714
0.00750671
0.00750694
0.00748315
0.00750643
0.00749015
0.00751419
0.00749042
0.0075008
0.00750371
0.0075066
0.00748705
0.00750024
0.0075034
0.00750019
0.00750335
0.0075068
0.00751338
0.00750373
0.00750065
0.00749001
0.00750577
0.00750721
0.00750595
0.007504
0.00750077
0.00749709
0.00750599
0.00749716
0.00750116
0.00750388
0.00749789
0.00750104
0.00750654
0.00749364
0.00750297
0.00748363
0.00752897
0.00749201
0.00749087
0.00750073
0.00750284
0.00749471
0.00754027
0.00750075
0.00750305
0.00753041
0.00747479
0.00747467
0.00750027
0.00750624
0.0075025
0.00750575
0.00746792
0.00746792
0.00749786
0.00749782
0.00749804
0.00754038
0.00750695
0.007493
0.00750387
0.00750426
0.00750392
0.00754111
0.00749386
0.00750647
0.0075004
0.00750038
0.00750432
0.00750346
0.00750432
0.00750395
0.00753307
0.00752309
0.00750349
0.00750032
0.00750293
0.0075045
0.00750322
0.00750267
0.00750293
0.00752896
0.00748937
0.00750602
0.00749483
0.00749364
0.00752924
0.00750056
0.00750095
0.00748598
0.00747508
0.00747511
0.00748782
0.00750704
0.00750051
0.0075297
0.00747598
0.00746894
0.00746896
0.00754162
0.00748077
0.00747883
0.00750095
0.00748852
0.00749884
0.00749652
0.0074935
0.00749239
0.00749799
0.00754038
0.00749985
0.00749519
0.00749308
0.00753572
0.00748027
0.00753121
0.00749325
0.00749639
0.00750962
0.00749909
0.00749817
0.00748561
0.00749756
0.00748565
0.00750031
0.00749303
0.00747956
0.00747927
0.00752957
0.00749594
0.00754303
0.00754218
0.00754404
0.00749389
0.0075409
0.00754497
0.00750446
0.00754355
0.00748363
0.00748366
0.00754284
0.00750269
0.00753294
0.00754328
0.0075338
0.00754346
0.00753381
0.00748051
0.00753123
0.00754072
0.00754294
0.00749835
0.00749143
0.00753452
0.00749825
0.00754467
0.00749681
0.0075024
0.00754377
0.0075352
0.00754445
0.00754161
0.00750114
0.0074829
0.00746975
0.00747032
0.00749605
0.00746986
0.00746988
0.00747012
0.00747361
0.00753036
0.00747985
0.00748751
0.00748286
0.0074966
0.00747268
0.00747271
0.00748205
0.00754209
0.00750283
0.00754152
0.00753193
0.0075316
0.0074765
0.00747662
0.00747693
0.00747683
0.00747654
0.00747054
0.00747684
0.00747268
0.00746964
0.00747641
0.00747636
0.00746947
0.00747039
0.00747251
0.00747719
SCALARS rr_(S) float
LOOKUP_TABLE default
0.529575
0.530091
0.530045
0.53008
0.530243
0.530045
0.529572
0.530078
0.530002
0.530091
0.529592
0.530078
0.530067
0.530099
0.530187
0.530053
0.530119
0.53007
0.529976
0.530031
0.530026
0.530452
0.530025
0.530033
0.530031
0.530079
0.529673
0.530052
0.529832
0.530329
0.530065
0.529833
0.529667
0.530292
0.53031
0.530291
0.530334
0.530302
0.530065
0.529668
0.529831
0.530336
0.530335
0.530065
0.529712
0.52984
0.529988
0.53001
0.530047
0.529798
0.529818
0.529887
0.530234
0.529889
0.530229
0.529733
0.530311
0.529889
0.53031
0.530034
0.530116
0.530165
0.52971
0.530163
0.530166
0.530121
0.530118
0.530079
0.530028
0.530094
0.530233
0.530232
0.529831
0.530139
0.530047
0.529642
0.530199
0.53012
0.530079
0.529897
0.529791
0.530261
0.530142
0.529775
0.52985
0.52972
0.530052
0.530131
0.529712
0.530425
0.529887
0.530425
0.530202
0.530115
0.529893
0.529812
0.529793
0.530089
0.530198
0.530062
0.529948
0.529862
0.529773
0.530074
0.530085
0.530085
0.530149
0.530058
0.529773
0.530099
0.530035
0.52973
0.529754
0.530071
0.530083
0.529891
0.530312
0.529791
0.530311
0.529893
0.529965
0.530179
0.530091
0.53013
0.530104
0.530192
0.530291
0.530089
0.529793
0.529893
0.530233
0.530087
0.530138
0.530089
0.529863
0.530312
0.529764
0.530071
0.530142
0.530311
0.529869
0.530096
0.529974
0.530091
0.529789
0.53008
0.530087
0.530049
0.530045
0.529931
0.530009
0.530091
0.529831
0.530067
0.530091
0.530087
0.530108
0.529875
0.529876
0.530064
0.530011
0.529835
0.529726
0.529817
0.529873
0.530086
0.529874
0.529874
0.529832
0.529875
0.530203
0.529888
0.529817
0.530113
0.52989
0.530147
0.530203
0.530079
0.530236
0.530089
0.529833
0.530088
0.530088
0.52987
0.530131
0.529813
0.530129
0.530151
0.530207
0.530089
0.530132
0.529798
0.529889
0.529832
0.530088
0.530067
0.53007
0.530137
0.53009
0.530119
0.530091
0.529983
0.529901
0.530137
0.529834
0.530141
0.530121
0.529859
0.530174
0.530093
0.530181
0.530104
0.530083
0.530142
0.529932
0.530109
0.529907
0.53015
0.530103
0.530102
0.530095
0.530098
0.530098
0.530098
0.530096
0.530182
0.53018
0.530182
0.530183
0.530232
0.530232
0.529928
0.530097
0.530075
0.530008
0.530188
0.53019
0.530077
0.529902
0.530072
0.530089
0.529935
0.530175
0.529932
0.530144
0.53007
0.529936
0.529909
0.52979
0.52979
0.530141
0.529781
0.53006
0.529906
0.52998
0.530071
0.530101
0.53034
0.530099
0.529779
0.529906
0.530074
0.530078
0.5299
0.5301
0.529977
0.530339
0.529907
0.530104
0.530127
0.53007
0.530186
0.53013
0.530234
0.530065
0.52974
0.52972
0.530219
0.530026
0.530078
0.529934
0.530176
0.530112
0.529907
0.530116
0.529949
0.53009
0.52995
0.529903
0.530387
0.530209
0.530188
0.530187
0.530095
0.529954
0.530285
0.530124
0.530013
0.529956
0.529939
0.530217
0.529934
0.530204
0.529945
0.529713
0.529953
0.529786
0.530152
0.529934
0.530387
0.529945
0.530139
0.529928
0.530133
0.529943
0.530052
0.529704
0.53004
0.529933
0.530215
0.52993
0.530014
0.530135
0.530092
0.529944
0.529953
0.529975
0.530152
0.529952
0.530079
0.530052
0.530233
0.529953
0.529973
0.530022
0.529978
0.529947
0.52998
0.53017
0.530077
0.529975
0.529932
0.530093
0.530094
0.52995
0.530232
0.529574
0.530052
0.52979
0.530024
0.52928
0.529281
0.529283
0.529282
0.529282
0.529281
0.529284
0.530154
0.53027
0.530067
0.530011
0.529979
0.529978
0.53009
0.529975
0.529972
0.530272
0.529978
0.530179
0.529887
0.530173
0.530044
0.53001
0.529976
0.530221
0.530052
0.530014
0.530052
0.530014
0.529972
0.529895
0.53001
0.530047
0.53018
0.529985
0.529967
0.529982
0.530006
0.530045
0.53009
0.529982
0.530089
0.53004
0.530008
0.53008
0.53004
0.529976
0.530131
0.530019
0.530264
0.529714
0.530153
0.53017
0.530046
0.53002
0.530119
0.529582
0.530044
0.530018
0.529707
0.530385
0.530387
0.530051
0.529979
0.530025
0.529985
0.53048
0.530479
0.530078
0.530081
0.530078
0.529583
0.52997
0.530141
0.530008
0.530003
0.530007
0.52957
0.53013
0.529976
0.53005
0.53005
0.530002
0.530013
0.530003
0.530008
0.529671
0.529787
0.530012
0.530051
0.530019
0.53
0.530016
0.530023
0.530019
0.529715
0.530188
0.529982
0.530117
0.530133
0.529712
0.530046
0.530041
0.530234
0.530378
0.530377
0.530209
0.529969
0.530049
0.529706
0.530366
0.530462
0.530461
0.529564
0.530302
0.530328
0.530043
0.530199
0.530065
0.530094
0.530133
0.530149
0.53008
0.52958
0.530055
0.530114
0.530139
0.529639
0.530309
0.529699
0.530135
0.530098
0.529941
0.530063
0.530077
0.530238
0.530083
0.530237
0.530049
0.530141
0.53032
0.530325
0.529709
0.530102
0.529564
0.529576
0.529551
0.53013
0.529576
0.529539
0.530001
0.529557
0.530263
0.530263
0.529567
0.53002
0.529675
0.529563
0.529663
0.529561
0.529663
0.530306
0.529689
0.529578
0.529564
0.530074
0.530161
0.529655
0.530076
0.529541
0.530093
0.530024
0.529557
0.529646
0.529548
0.529564
0.53004
0.530273
0.53045
0.530443
0.530102
0.530449
0.530449
0.530446
0.530399
0.529699
0.530314
0.530214
0.530276
0.530096
0.530413
0.530412
0.530286
0.529558
0.530019
0.52957
0.529692
0.529692
0.530358
0.530357
0.530353
0.530354
0.530357
0.530442
0.530357
0.530414
0.530456
0.530362
0.530363
0.530458
0.530443
0.530415
0.530352
SCALARS rr_(P) float
LOOKUP_TABLE default
0.00895833
0.00893571
0.00893771
0.00893609
0.0089302
0.00893775
0.00895839
0.00893641
0.00893961
0.00893581
0.00895675
0.00893641
0.00893687
0.00893552
0.00893217
0.00893739
0.00893471
0.00893664
0.00894059
0.00893827
0.00893859
0.00892245
0.00893854
0.00893823
0.0089383
0.00893627
0.00895366
0.00893745
0.00894676
0.00892699
0.00893695
0.0089467
0.00895399
0.00892834
0.00892769
0.00892837
0.00892674
0.00892798
0.00893698
0.00895393
0.00894681
0.00892664
0.00892667
0.00893693
0.00895179
0.00894644
0.00894013
0.00893923
0.00893766
0.00894815
0.00894734
0.00894447
0.00893047
0.00894442
0.00893064
0.00895116
0.00892764
0.00894441
0.00892766
0.00893815
0.00893478
0.00893297
0.00895224
0.00893309
0.00893293
0.00893474
0.00893471
0.00893626
0.00893841
0.00893563
0.00893052
0.00893053
0.00894682
0.00893405
0.00893764
0.00895494
0.00893179
0.00893476
0.00893627
0.00894394
0.00894862
0.0089295
0.00893385
0.00894925
0.00894611
0.00895157
0.00893746
0.0089344
0.00895177
0.00892355
0.00894444
0.00892358
0.00893166
0.00893499
0.00894425
0.00894754
0.0089486
0.00893585
0.00893182
0.00893707
0.00894191
0.00894559
0.00894929
0.00893643
0.00893604
0.00893599
0.00893359
0.00893725
0.00894933
0.00893536
0.00893812
0.00895108
0.00895007
0.00893656
0.0089361
0.00894435
0.00892767
0.0089487
0.00892774
0.00894426
0.0089411
0.00893242
0.00893571
0.00893433
0.0089352
0.00893198
0.00892845
0.00893585
0.0089486
0.00894424
0.0089305
0.00893586
0.00893396
0.00893578
0.00894556
0.00892762
0.00894985
0.00893672
0.00893384
0.00892765
0.0089453
0.00893577
0.00894076
0.00893579
0.0089488
0.00893618
0.0089361
0.00893768
0.00893774
0.00894257
0.00893928
0.00893571
0.00894675
0.00893684
0.00893581
0.00893584
0.0089352
0.00894509
0.00894502
0.00893686
0.0089392
0.00894658
0.00895125
0.00894733
0.0089451
0.00893597
0.0089451
0.00894514
0.00894674
0.00894506
0.0089316
0.00894441
0.00894737
0.008935
0.00894436
0.00893367
0.00893162
0.00893642
0.00893041
0.00893597
0.00894673
0.00893588
0.00893589
0.00894526
0.00893436
0.00894752
0.00893434
0.00893357
0.00893153
0.00893584
0.00893433
0.00894836
0.00894437
0.00894672
0.0089358
0.00893672
0.0089366
0.00893398
0.00893574
0.00893483
0.0089357
0.00894032
0.00894379
0.00893401
0.00894671
0.00893386
0.00893477
0.0089457
0.0089327
0.00893566
0.0089325
0.00893542
0.00893611
0.00893383
0.00894249
0.00893524
0.00894357
0.00893359
0.00893524
0.00893525
0.00893549
0.0089354
0.00893539
0.00893541
0.00893566
0.00893232
0.00893237
0.00893231
0.00893229
0.0089306
0.00893059
0.00894265
0.00893559
0.00893627
0.00893934
0.00893217
0.00893209
0.00893621
0.00894372
0.00893635
0.00893584
0.00894241
0.00893266
0.00894251
0.00893378
0.00893642
0.00894235
0.00894346
0.00894868
0.00894849
0.00893384
0.00894913
0.00893711
0.00894358
0.00894046
0.00893638
0.00893529
0.00892654
0.00893535
0.0089493
0.00894356
0.00893628
0.00893641
0.00894383
0.00893531
0.00894066
0.00892656
0.00894353
0.00893519
0.00893446
0.0089366
0.00893222
0.00893445
0.00893049
0.00893688
0.00895076
0.00895158
0.00893109
0.00893853
0.00893641
0.00894251
0.00893262
0.00893502
0.00894354
0.00893496
0.00894183
0.008936
0.00894182
0.00894367
0.00892483
0.0089314
0.0089321
0.00893214
0.00893566
0.00894166
0.00892859
0.00893454
0.00893912
0.00894157
0.00894229
0.0089311
0.00894242
0.00893165
0.00894205
0.00895174
0.00894169
0.00894891
0.00893353
0.0089424
0.00892485
0.00894204
0.00893403
0.00894266
0.00893424
0.0089421
0.00893747
0.00895263
0.0089379
0.00894247
0.00893117
0.00894257
0.00893911
0.00893424
0.00893564
0.00894207
0.00894168
0.00894071
0.00893356
0.00894171
0.00893641
0.00893745
0.00893054
0.00894168
0.00894083
0.00893878
0.00894059
0.00894191
0.00894054
0.0089329
0.00893647
0.00894074
0.0089425
0.00893584
0.0089358
0.00894179
0.00893057
0.00895755
0.00893753
0.00894866
0.00893869
0.00896938
0.00896936
0.00896922
0.00896927
0.00896919
0.00896945
0.00896936
0.00893345
0.0089292
0.0089368
0.00893921
0.00894047
0.0089406
0.008936
0.00894074
0.00894086
0.00892915
0.0089406
0.00893256
0.00894444
0.00893265
0.0089378
0.00893926
0.00894069
0.00893105
0.00893754
0.0089391
0.00893751
0.00893907
0.00894078
0.00894403
0.00893925
0.00893774
0.00893249
0.00894026
0.00894098
0.00894036
0.00893939
0.0089378
0.00893597
0.00894038
0.00893601
0.00893798
0.00893933
0.00893637
0.00893792
0.00894065
0.00893425
0.00893889
0.00892939
0.00895172
0.00893346
0.0089329
0.00893777
0.00893883
0.00893479
0.00895728
0.00893778
0.00893893
0.0089525
0.00892499
0.00892493
0.00893754
0.0089405
0.00893866
0.00894026
0.00892157
0.00892157
0.00893634
0.00893634
0.00893644
0.00895736
0.00894084
0.00893394
0.00893934
0.00893953
0.00893936
0.00895768
0.00893437
0.00894061
0.00893761
0.0089376
0.00893956
0.00893913
0.00893956
0.00893938
0.00895378
0.00894886
0.00893914
0.00893757
0.00893887
0.00893965
0.00893901
0.00893874
0.00893887
0.00895172
0.00893216
0.00894038
0.00893485
0.00893426
0.00895186
0.00893768
0.00893788
0.00893053
0.0089251
0.00892511
0.0089314
0.0089409
0.00893766
0.00895208
0.00892554
0.00892207
0.00892208
0.00895793
0.00892798
0.00892698
0.00893789
0.00893176
0.00893683
0.00893566
0.00893418
0.00893365
0.00893642
0.00895733
0.00893734
0.00893503
0.00893398
0.00895507
0.00892771
0.00895291
0.00893406
0.00893562
0.00894218
0.00893696
0.00893651
0.00893033
0.0089362
0.00893035
0.00893757
0.00893397
0.00892735
0.00892721
0.00895203
0.00893538
0.00895875
0.00895835
0.00895924
0.00893439
0.00895761
0.00895969
0.00893963
0.008959
0.00892942
0.00892944
0.00895866
0.00893874
0.00895373
0.00895889
0.00895414
0.00895898
0.00895414
0.00892786
0.00895284
0.00895752
0.0089587
0.0089366
0.00893317
0.0089545
0.00893655
0.00895953
0.00893583
0.0089386
0.00895913
0.00895482
0.00895946
0.00895793
0.00893797
0.00892905
0.00892246
0.00892274
0.00893545
0.00892251
0.00892252
0.00892264
0.00892437
0.00895241
0.0089275
0.00893126
0.00892902
0.00893572
0.00892392
0.00892393
0.00892863
0.00895816
0.00893881
0.00895792
0.00895327
0.00895308
0.0089258
0.00892586
0.00892602
0.00892597
0.00892582
0.00892285
0.00892599
0.00892391
0.00892241
0.00892576
0.00892574
0.00892233
0.00892278
0.00892383
0.00892615
SCALARS rr_(T) float
LOOKUP_TABLE default
0.0168459
0.0168662
0.0168642
0.0168656
0.0168749
0.0168642
0.0168459
0.0168657
0.0168623
0.0168662
0.0168466
0.0168658
0.0168652
0.0168668
0.0168716
0.0168644
0.0168679
0.0168653
0.0168613
0.0168636
0.0168634
0.0168876
0.0168634
0.0168637
0.0168636
0.0168658
0.0168496
0.0168647
0.0168556
0.01688
0.0168651
0.0168557
0.0168494
0.016878
0.0168788
0.016878
0.0168804
0.0168783
0.0168651
0.0168494
0.0168556
0.0168806
0.0168806
0.016865
0.0168511
0.0168559
0.0168618
0.0168626
0.0168644
0.0168544
0.0168551
0.0168578
0.0168744
0.0168578
0.0168742
0.0168519
0.0168789
0.0168578
0.0168789
0.0168638
0.0168677
0.0168703
0.0168511
0.0168702
0.0168703
0.0168681
0.0168678
0.0168658
0.0168635
0.0168664
0.0168744
0.0168743
0.0168556
0.0168691
0.0168642
0.0168484
0.0168723
0.0168681
0.0168658
0.0168582
0.0168541
0.0168759
0.0168691
0.0168534
0.0168563
0.0168514
0.0168647
0.0168687
0.0168511
0.016886
0.0168577
0.016886
0.0168726
0.0168679
0.0168579
0.0168549
0.0168541
0.0168661
0.0168723
0.0168649
0.0168601
0.0168567
0.0168534
0.0168654
0.0168662
0.0168659
0.0168697
0.0168647
0.0168534
0.0168667
0.0168638
0.0168518
0.0168527
0.0168654
0.0168657
0.0168578
0.0168789
0.016854
0.0168788
0.0168579
0.0168609
0.0168712
0.0168662
0.0168684
0.0168669
0.0168721
0.0168777
0.0168661
0.0168541
0.016858
0.0168745
0.016866
0.0168689
0.0168661
0.0168568
0.016879
0.016853
0.0168655
0.0168691
0.016879
0.016857
0.0168667
0.0168613
0.0168664
0.0168539
0.0168658
0.0168665
0.0168645
0.0168641
0.0168595
0.0168628
0.0168662
0.0168556
0.0168651
0.0168664
0.0168661
0.0168672
0.0168572
0.0168572
0.016865
0.0168627
0.0168558
0.0168516
0.0168551
0.0168572
0.0168659
0.0168572
0.0168571
0.0168556
0.0168572
0.0168727
0.0168578
0.0168551
0.0168674
0.0168578
0.0168696
0.0168726
0.016866
0.0168745
0.0168664
0.0168557
0.016866
0.016866
0.016857
0.0168687
0.0168549
0.0168684
0.0168697
0.0168728
0.0168661
0.0168687
0.0168543
0.0168579
0.0168557
0.0168661
0.0168651
0.0168653
0.0168688
0.0168662
0.016868
0.0168663
0.0168616
0.0168583
0.0168688
0.0168557
0.016869
0.0168681
0.0168566
0.0168711
0.0168663
0.0168713
0.0168672
0.016866
0.0168691
0.0168596
0.0168675
0.0168585
0.0168697
0.0168668
0.0168668
0.0168664
0.0168666
0.0168666
0.0168665
0.0168667
0.0168713
0.0168712
0.0168713
0.0168714
0.0168743
0.0168743
0.0168594
0.0168667
0.0168653
0.0168625
0.0168716
0.0168717
0.0168654
0.0168584
0.0168652
0.0168661
0.0168596
0.0168712
0.0168595
0.0168692
0.016865
0.0168597
0.0168586
0.016854
0.0168541
0.016869
0.0168537
0.0168648
0.0168585
0.0168615
0.0168651
0.0168667
0.0168808
0.0168666
0.0168535
0.0168585
0.0168653
0.016866
0.0168582
0.0168667
0.0168614
0.0168808
0.0168585
0.0168669
0.0168682
0.0168652
0.0168715
0.0168686
0.0168745
0.016865
0.0168522
0.0168514
0.0168736
0.0168633
0.0168659
0.0168595
0.0168712
0.0168674
0.0168585
0.0168679
0.0168602
0.0168666
0.0168602
0.0168584
0.0168837
0.016873
0.0168717
0.0168717
0.0168666
0.0168603
0.0168776
0.0168681
0.0168629
0.0168604
0.0168597
0.0168735
0.0168596
0.0168726
0.0168599
0.0168512
0.0168603
0.0168539
0.0168699
0.0168596
0.0168837
0.0168599
0.0168691
0.0168594
0.0168686
0.0168599
0.0168644
0.0168508
0.016864
0.0168596
0.0168734
0.0168595
0.016863
0.0168687
0.0168663
0.0168599
0.0168603
0.0168613
0.0168698
0.0168603
0.0168658
0.0168647
0.0168744
0.0168603
0.0168612
0.0168633
0.0168614
0.0168601
0.0168615
0.0168709
0.0168658
0.0168613
0.0168596
0.0168666
0.0168667
0.0168602
0.0168743
0.0168459
0.0168647
0.016854
0.0168634
0.0168346
0.0168346
0.0168348
0.0168347
0.0168347
0.0168346
0.0168347
0.0168699
0.0168767
0.0168652
0.0168629
0.0168615
0.0168614
0.0168665
0.0168613
0.0168611
0.0168768
0.0168614
0.0168712
0.0168578
0.0168707
0.0168643
0.0168628
0.0168613
0.0168736
0.0168647
0.016863
0.0168647
0.016863
0.0168611
0.0168581
0.0168628
0.0168644
0.0168712
0.0168617
0.0168609
0.0168615
0.0168626
0.0168644
0.0168666
0.0168615
0.0168665
0.016864
0.0168627
0.016866
0.0168641
0.0168613
0.0168685
0.0168631
0.0168763
0.0168512
0.0168698
0.0168709
0.0168644
0.0168631
0.0168679
0.0168462
0.0168643
0.0168631
0.0168509
0.0168835
0.0168837
0.0168647
0.0168614
0.0168633
0.0168617
0.0168892
0.0168892
0.0168656
0.016866
0.016866
0.0168462
0.0168611
0.0168689
0.0168625
0.0168623
0.0168626
0.0168458
0.0168687
0.0168613
0.0168646
0.0168646
0.0168623
0.0168629
0.0168623
0.0168625
0.0168495
0.0168539
0.0168629
0.0168647
0.0168631
0.0168622
0.0168629
0.0168633
0.0168631
0.0168512
0.0168719
0.0168616
0.0168679
0.0168688
0.0168511
0.0168642
0.016864
0.0168744
0.0168833
0.0168833
0.0168731
0.016861
0.0168646
0.0168508
0.0168826
0.0168882
0.0168882
0.0168455
0.0168783
0.0168802
0.0168643
0.0168724
0.0168651
0.0168664
0.0168686
0.0168697
0.016866
0.0168461
0.0168646
0.0168676
0.0168689
0.0168483
0.016879
0.0168506
0.0168687
0.0168667
0.0168599
0.0168649
0.0168658
0.0168748
0.016866
0.0168748
0.0168643
0.0168691
0.0168797
0.0168799
0.0168509
0.016867
0.0168457
0.0168461
0.0168451
0.0168686
0.016846
0.0168447
0.0168622
0.0168454
0.016876
0.016876
0.0168458
0.0168631
0.0168496
0.0168456
0.0168492
0.0168455
0.0168492
0.0168786
0.0168502
0.016846
0.0168457
0.0168657
0.0168702
0.0168489
0.0168659
0.0168448
0.0168666
0.0168633
0.0168453
0.0168486
0.016845
0.0168455
0.0168641
0.0168767
0.0168876
0.0168871
0.0168671
0.0168875
0.0168875
0.0168873
0.0168845
0.0168506
0.0168794
0.0168733
0.0168769
0.0168668
0.0168853
0.0168853
0.0168774
0.0168453
0.016863
0.0168457
0.0168504
0.0168504
0.016882
0.0168819
0.0168817
0.0168818
0.016882
0.016887
0.0168818
0.0168854
0.0168877
0.0168822
0.0168822
0.0168879
0.016887
0.0168854
0.0168817
SCALARS rr_tsim float
LOOKUP_TABLE default
60
60
60
60
60
60
60
60
60
60
60
60
60
60
60
60
60
60
60
60
60
60
60
60
60
60
60
60
60
60
60
60
60
60
60
60
60
60
60
60
60
60
60
60
60
60
60
60
60
60
60
60
60
60
60
60
60
60
60
60
60
60
60
60
60
60
60
60
60
60
60
60
60
60
60
60
60
60
60
60
60
60
60
60
60
60
60
60
60
60
60
60
60
60
60
60
60
60
60
60
60
60
60
60
60
60
60
60
60
60
60
60
60
60
60
60
60
60
60
60
60
60
60
60
60
60
60
60
60
60
60
60
60
60
60
60
60
60
60
60
60
60
60
60
60
60
60
60
60
60
60
60
60
60
60
60
60
60
60
60
60
60
60
60
60
60
60
60
60
60
60
60
60
60
60
60
60
60
60
60
60
60
60
60
60
60
60
60
60
60
60
60
60
60
60
60
60
60
60
60
60
60
60
60
60
60
60
60
60
60
60
60
60
60
60
60
60
60
60
60
60
60
60
60
60
60
60
60
60
60
60
60
60
60
60
60
60
60
60
60
60
60
60
60
60
60
60
60
60
60
60
60
60
60
60
60
60
60
60
60
60
60
60
60
60
60
60
60
60
60
60
60
60
60
60
60
60
60
60
60
60
60
60
60
60
60
60
60
60
60
60
60
60
60
60
60
60
60
60
60
60
60
60
60
60
60
60
60
60
60
60
60
60
60
60
60
60
60
60
60
60
60
60
60
60
60
60
60
60
60
60
60
60
60
60
60
60
60
60
60
60
60
60
60
60
60
60
60
60
60
60
60
60
60
60
60
60
60
60
60
60
60
60
60
60
60
60
60
60
60
60
60
60
60
60
60
60
60
60
60
60
60
60
60
60
60
60
60
60
60
60
60
60
60
60
60
60
60
60
60
60
60
60
60
60
60
60
60
60
60
60
60
60
60
60
60
60
60
60
60
60
60
60
60
60
60
60
60
60
60
60
60
60
60
60
60
60
60
60
60
60
60
60
60
60
60
60
60
60
60
60
60
60
60
60
60
60
60
60
60
60
60
60
60
60
60
60
60
60
60
60
60
60
60
60
60
60
60
60
60
60
60
60
60
60
60
60
60
60
60
60
60
60
60
60
60
60
60
60
60
60
60
60
60
60
60
60
60
60
60
60
60
60
60
60
60
60
60
60
60
60
60
60
60
60
60
60
60
60
60
60
60
60
60
60
60
60
60
60
60
60
60
60
60
60
60
60
60
60
60
60
60
60
60
60
60
60
60
60
60
60
60
60
SCALARS rr_Vext float
LOOKUP_TABLE default
0.181363
0.449147
0.356067
0.468135
0.250502
0.377847
0.179279
0.465113
0.395127
0.504592
0.165394
0.466533
0.409847
0.435035
0.516158
0.424887
0.369062
0.414206
0.36555
0.360546
0.40513
0.0765118
0.415091
0.383034
0.347123
0.403492
0.155015
0.352852
0.267425
0.339256
0.361988
0.276497
0.171526
0.252909
0.249255
0.25346
0.330136
0.249498
0.361559
0.192843
0.224731
0.291058
0.291068
0.397293
0.216893
0.244131
0.34463
0.350202
0.330096
0.303774
0.312867
0.245248
0.401533
0.315221
0.369429
0.15776
0.266187
0.317531
0.266159
0.393205
0.470953
0.464894
0.153281
0.327657
0.445334
0.417394
0.455677
0.391925
0.358004
0.515584
0.435571
0.430807
0.277666
0.33876
0.353991
0.176432
0.372691
0.413497
0.39519
0.271145
0.2405
0.283517
0.527557
0.24026
0.327775
0.119296
0.4076
0.344625
0.229714
0.0374835
0.273105
0.0407615
0.316371
0.299326
0.258671
0.232993
0.220917
0.442954
0.372926
0.351874
0.29355
0.277782
0.230487
0.418598
0.426159
0.383852
0.340642
0.340865
0.244638
0.512545
0.326043
0.164045
0.220065
0.457902
0.429741
0.304496
0.30864
0.183516
0.320045
0.30338
0.266999
0.502671
0.511837
0.442061
0.484551
0.384968
0.220822
0.478235
0.200087
0.262291
0.227512
0.456419
0.449045
0.448272
0.28895
0.187543
0.190646
0.327456
0.404488
0.187465
0.241553
0.387309
0.287984
0.472782
0.223285
0.385209
0.349748
0.336144
0.2148
0.269559
0.304314
0.440649
0.248037
0.397431
0.462013
0.469267
0.307871
0.249019
0.247668
0.401157
0.33387
0.246128
0.160082
0.239714
0.240478
0.430978
0.25236
0.255112
0.274632
0.24595
0.38636
0.258195
0.226068
0.297729
0.272824
0.340322
0.382134
0.36115
0.313989
0.360863
0.266578
0.418268
0.448875
0.241625
0.44232
0.23945
0.436816
0.402755
0.378981
0.379434
0.446248
0.200782
0.26694
0.246027
0.447433
0.439043
0.40722
0.447915
0.452975
0.381883
0.466593
0.307731
0.274123
0.512756
0.28556
0.465976
0.369978
0.226665
0.286354
0.461749
0.389051
0.350325
0.450078
0.445277
0.278872
0.284235
0.267555
0.395471
0.433441
0.498117
0.478113
0.520397
0.471582
0.515314
0.432077
0.457222
0.460671
0.434374
0.456377
0.422935
0.416651
0.282424
0.38943
0.454319
0.312136
0.470293
0.432174
0.492686
0.288259
0.468302
0.448701
0.284514
0.40693
0.282482
0.455259
0.411312
0.296269
0.277691
0.235562
0.271108
0.455795
0.197509
0.347038
0.27654
0.313918
0.468697
0.455572
0.147792
0.457128
0.23644
0.261776
0.466295
0.379045
0.264597
0.522209
0.291245
0.147783
0.267736
0.406419
0.508946
0.382709
0.457775
0.425175
0.226623
0.216742
0.175985
0.201435
0.308146
0.229087
0.371999
0.227535
0.406409
0.287637
0.268114
0.323968
0.293536
0.39854
0.2815
0.287609
0.136373
0.303584
0.437829
0.438077
0.391544
0.281129
0.192365
0.545904
0.360506
0.298332
0.274304
0.284987
0.282742
0.358857
0.278105
0.192066
0.274805
0.183503
0.351083
0.27959
0.127094
0.263734
0.321352
0.279328
0.44369
0.290724
0.381487
0.138319
0.305677
0.287027
0.261634
0.26933
0.322007
0.308737
0.321062
0.266576
0.271177
0.293873
0.403619
0.276109
0.399042
0.358805
0.290807
0.286488
0.290137
0.323388
0.289926
0.27013
0.308544
0.333043
0.387885
0.290183
0.286367
0.425163
0.419268
0.276225
0.290846
0.117372
0.34208
0.227687
0.319696
0.126306
0.131125
0.117235
0.119131
0.126413
0.133078
0.137188
0.365834
0.275212
0.269676
0.305549
0.296221
0.292422
0.314724
0.286007
0.292401
0.310833
0.291328
0.368803
0.261075
0.378849
0.289117
0.277592
0.29161
0.322777
0.329009
0.30471
0.351066
0.326046
0.300404
0.213985
0.303874
0.298876
0.328294
0.305323
0.288532
0.275049
0.304078
0.319107
0.436181
0.283319
0.42402
0.43868
0.298879
0.422883
0.322491
0.25569
0.35681
0.307332
0.229512
0.185277
0.353364
0.377154
0.313447
0.259555
0.317027
0.138208
0.309878
0.289527
0.140574
0.0597498
0.0653767
0.268664
0.283307
0.331372
0.316601
0.0311312
0.032529
0.318195
0.321557
0.304256
0.103727
0.264739
0.315917
0.315657
0.272088
0.240293
0.107866
0.464486
0.284959
0.352177
0.357688
0.255175
0.32346
0.249487
0.275493
0.129743
0.199389
0.32382
0.327765
0.280338
0.293577
0.303672
0.32052
0.306423
0.143965
0.27579
0.301367
0.290897
0.437506
0.143862
0.233743
0.240583
0.234531
0.155628
0.155632
0.267709
0.208517
0.301887
0.153861
0.18553
0.0614175
0.061415
0.112313
0.199639
0.134975
0.257012
0.284549
0.297821
0.337016
0.307431
0.285243
0.222226
0.127175
0.278063
0.290593
0.28245
0.144134
0.147649
0.104632
0.28196
0.285984
0.22419
0.258262
0.238723
0.223798
0.292924
0.223765
0.257216
0.251397
0.158051
0.195246
0.165313
0.31066
0.112709
0.118921
0.115942
0.294546
0.107693
0.104735
0.200926
0.0979342
0.243163
0.243517
0.100662
0.255457
0.113726
0.110991
0.127158
0.10586
0.105726
0.17421
0.126245
0.112777
0.106279
0.235821
0.27267
0.118747
0.260328
0.0960788
0.2648
0.208182
0.100553
0.0864376
0.0948717
0.126464
0.225562
0.192185
0.0824436
0.0914086
0.253867
0.077587
0.0775837
0.0878729
0.0979639
0.0995883
0.127337
0.20754
0.1938
0.253779
0.0775256
0.0775223
0.229259
0.0843488
0.178722
0.076521
0.0783438
0.103274
0.1986
0.2056
0.218911
0.200664
0.198584
0.0438931
0.320388
0.0557547
0.0543425
0.259014
0.257244
0.0563353
0.0390578
0.0548054
0.238565
SCALARS rr_Vli float
LOOKUP_TABLE default
0.39649
0.903313
0.721415
0.942919
0.493009
0.765678
0.392037
0.937686
0.80628
1.01513
0.359839
0.940558
0.827716
0.874169
1.02414
0.859743
0.739407
0.835929
0.748809
0.732065
0.823494
0.146197
0.843752
0.777639
0.704899
0.813154
0.333352
0.714268
0.560616
0.659808
0.731237
0.579536
0.369275
0.494397
0.485909
0.495512
0.641463
0.486901
0.730494
0.415069
0.471217
0.565335
0.565395
0.802528
0.463328
0.511154
0.704673
0.713583
0.668692
0.64015
0.657323
0.509716
0.791291
0.654963
0.728508
0.336098
0.518813
0.659765
0.518796
0.798059
0.943879
0.925044
0.327843
0.652228
0.886024
0.836208
0.913015
0.789787
0.727301
1.03672
0.858518
0.849163
0.582218
0.676862
0.716981
0.381186
0.738169
0.828452
0.796435
0.562488
0.50763
0.556455
1.05352
0.508338
0.685393
0.254582
0.825089
0.689497
0.490666
0.0719439
0.567537
0.0782466
0.626359
0.600268
0.537116
0.489908
0.466223
0.891229
0.738717
0.71116
0.604226
0.579681
0.487755
0.844125
0.858095
0.772727
0.679557
0.689391
0.517765
1.02967
0.661689
0.349482
0.467065
0.923837
0.865451
0.632501
0.601619
0.387416
0.624008
0.63
0.547968
0.998327
1.02949
0.884292
0.972873
0.763264
0.431755
0.962253
0.422258
0.544654
0.448458
0.918496
0.897124
0.901838
0.602908
0.365541
0.404186
0.660942
0.807745
0.365418
0.503545
0.778946
0.59025
0.951076
0.471537
0.776078
0.704334
0.680966
0.435254
0.556276
0.620257
0.886322
0.519989
0.80251
0.929457
0.944278
0.617864
0.518664
0.51572
0.810211
0.680217
0.515666
0.341242
0.503645
0.500935
0.867529
0.525652
0.53145
0.575704
0.512243
0.764778
0.536481
0.475021
0.597035
0.566767
0.679111
0.756462
0.72817
0.61852
0.726385
0.558767
0.84165
0.90332
0.503629
0.884796
0.503415
0.873821
0.803296
0.749926
0.763402
0.892555
0.42335
0.554578
0.515698
0.900225
0.886315
0.821725
0.894919
0.911212
0.765283
0.938433
0.629684
0.568301
1.02455
0.598479
0.930567
0.741289
0.473247
0.569207
0.92859
0.772739
0.703617
0.906451
0.889152
0.575338
0.57048
0.554208
0.788794
0.870392
1.0003
0.961032
1.0456
0.947468
1.03541
0.868726
0.907711
0.914783
0.862357
0.905946
0.833941
0.821527
0.583013
0.782808
0.915924
0.636249
0.933135
0.857223
0.993042
0.597485
0.944386
0.902771
0.586745
0.808813
0.582783
0.90887
0.829741
0.61089
0.57499
0.497312
0.572069
0.910116
0.417619
0.701493
0.572854
0.642723
0.945274
0.914983
0.28693
0.91831
0.500203
0.542267
0.940118
0.764213
0.548657
1.04889
0.596685
0.28693
0.554509
0.815992
1.01858
0.772247
0.90848
0.850836
0.446606
0.43776
0.374439
0.429888
0.608692
0.465567
0.750005
0.469392
0.807681
0.576827
0.555349
0.649558
0.604005
0.80229
0.579188
0.596029
0.263021
0.600451
0.868523
0.869143
0.787222
0.578072
0.376392
1.09287
0.734312
0.613268
0.565376
0.562966
0.583133
0.71047
0.572686
0.410201
0.565176
0.387696
0.700137
0.576608
0.245151
0.543086
0.642124
0.576629
0.887255
0.598807
0.772187
0.296226
0.619814
0.592071
0.517047
0.555826
0.65589
0.617324
0.645561
0.549019
0.557656
0.602206
0.804998
0.56788
0.80452
0.726255
0.573162
0.589137
0.594786
0.657854
0.593804
0.556003
0.631818
0.662556
0.782193
0.594661
0.590819
0.855301
0.843322
0.568309
0.573285
0.25609
0.692613
0.480634
0.650114
0.287608
0.298552
0.266804
0.271173
0.287684
0.303058
0.312313
0.729355
0.53973
0.544575
0.622614
0.60651
0.598943
0.63353
0.586141
0.599493
0.609477
0.596722
0.732669
0.542553
0.753119
0.586013
0.565708
0.597475
0.637475
0.666124
0.620602
0.710728
0.664008
0.615752
0.444046
0.619307
0.605582
0.652014
0.624647
0.591878
0.562881
0.620028
0.646732
0.877931
0.579867
0.853562
0.889754
0.609287
0.852443
0.65394
0.523849
0.713555
0.625435
0.450407
0.39567
0.704479
0.750324
0.635211
0.528058
0.635263
0.301239
0.628032
0.589275
0.300916
0.115299
0.126127
0.544013
0.580107
0.673748
0.647672
0.0592777
0.0619392
0.641408
0.648098
0.613492
0.226115
0.542813
0.631022
0.643428
0.555024
0.489886
0.235471
0.929298
0.583743
0.713244
0.724395
0.520591
0.658859
0.508998
0.561657
0.279104
0.421182
0.659643
0.663719
0.570443
0.599134
0.618267
0.651904
0.623533
0.307431
0.547105
0.616842
0.583025
0.874915
0.307371
0.473542
0.487762
0.462247
0.300518
0.300538
0.529561
0.427599
0.611546
0.329009
0.358879
0.117177
0.117176
0.245401
0.389624
0.262497
0.521059
0.563547
0.601422
0.677658
0.614667
0.569078
0.448044
0.277253
0.562556
0.58281
0.564257
0.31156
0.287927
0.224286
0.563461
0.57486
0.46195
0.521756
0.481462
0.440842
0.590104
0.440804
0.520831
0.502155
0.307814
0.380031
0.353398
0.623993
0.246787
0.259982
0.254336
0.589292
0.234983
0.23014
0.410016
0.214646
0.477127
0.477849
0.220336
0.519619
0.244577
0.243124
0.273904
0.23196
0.227741
0.339833
0.2707
0.245999
0.232679
0.475757
0.54301
0.256119
0.525116
0.211013
0.532698
0.423226
0.220456
0.186665
0.208256
0.276321
0.457475
0.376612
0.157553
0.174884
0.509995
0.148308
0.148307
0.168049
0.18863
0.213208
0.248116
0.410279
0.379765
0.510349
0.149005
0.149004
0.448517
0.184463
0.363616
0.16715
0.168152
0.221556
0.384553
0.398199
0.424218
0.388782
0.384543
0.0840107
0.620737
0.107164
0.103829
0.501449
0.49797
0.107597
0.0747333
0.105302
0.462547
SCALARS rr_S_ext' float
LOOKUP_TABLE default
-0.00231383
-0.00528856
-0.00422249
-0.00552013
-0.00288861
-0.00448153
-0.00228782
-0.00548935
-0.00471796
-0.00594317
-0.0021003
-0.00550615
-0.00484525
-0.00511811
-0.0059988
-0.00503239
-0.00432954
-0.00489344
-0.00438102
-0.00428447
-0.00481938
-0.000857425
-0.00493791
-0.00455121
-0.00412546
-0.00476035
-0.00194664
-0.00418078
-0.00327707
-0.00386741
-0.00428046
-0.00338769
-0.00215633
-0.00289738
-0.00284793
-0.0029039
-0.00376
-0.00285364
-0.00427608
-0.00242376
-0.00275446
-0.00331381
-0.00331415
-0.00469778
-0.00270635
-0.00298809
-0.00412308
-0.00417577
-0.00391391
-0.00374122
-0.00384204
-0.00298054
-0.00463604
-0.00382991
-0.00426811
-0.00196342
-0.0030408
-0.00385799
-0.00304069
-0.00467077
-0.00552673
-0.00541788
-0.0019149
-0.00381998
-0.00518935
-0.00489638
-0.00534606
-0.00462358
-0.0042565
-0.00606965
-0.00502988
-0.00497507
-0.00340332
-0.00396372
-0.0041966
-0.00222556
-0.00432407
-0.00485095
-0.00466247
-0.00328934
-0.00296656
-0.00326066
-0.00616953
-0.00297042
-0.00400687
-0.00148711
-0.00482944
-0.00403752
-0.00286605
-0.000421877
-0.00331866
-0.000458834
-0.00366914
-0.00351471
-0.00314088
-0.00286341
-0.0027246
-0.00521775
-0.00432727
-0.00416286
-0.00353449
-0.00338914
-0.00285011
-0.00494156
-0.00502361
-0.00452389
-0.00397969
-0.00403532
-0.00302546
-0.0060285
-0.00387265
-0.00204159
-0.00272889
-0.0054081
-0.00506666
-0.00369861
-0.00352612
-0.00226403
-0.00365731
-0.00368402
-0.00320574
-0.00584743
-0.00602725
-0.00517821
-0.00569611
-0.00447087
-0.00253027
-0.00563355
-0.00246767
-0.00318495
-0.00262741
-0.00537732
-0.00525357
-0.00527985
-0.00352495
-0.00214245
-0.00236164
-0.00386908
-0.00473023
-0.00214172
-0.00294412
-0.00456046
-0.00345328
-0.00556814
-0.00275559
-0.00454336
-0.00412341
-0.00398575
-0.00254756
-0.00325367
-0.00362959
-0.00518904
-0.00303958
-0.00469774
-0.00544157
-0.00552828
-0.00361765
-0.00303263
-0.00301544
-0.00474277
-0.00398054
-0.00301438
-0.00199341
-0.00294379
-0.00292894
-0.00507892
-0.00307348
-0.00310737
-0.00336527
-0.00299508
-0.00448002
-0.00313708
-0.00277647
-0.0034958
-0.0033142
-0.00397704
-0.00443129
-0.00426278
-0.00362387
-0.00425258
-0.00326629
-0.00492747
-0.00528849
-0.00294463
-0.00518117
-0.00294237
-0.00511689
-0.0047044
-0.00439307
-0.00446939
-0.00522663
-0.00247414
-0.00324291
-0.00301451
-0.00527039
-0.00518834
-0.00481031
-0.00524064
-0.00533474
-0.00448104
-0.00549414
-0.00368422
-0.00332342
-0.00599976
-0.00349845
-0.00544949
-0.00434057
-0.0027668
-0.00333388
-0.00543654
-0.00452613
-0.00411963
-0.00530666
-0.00520697
-0.0033652
-0.00334021
-0.00324112
-0.00461947
-0.00509606
-0.00585666
-0.00562655
-0.00612178
-0.00554724
-0.00606208
-0.00508612
-0.00531674
-0.00535811
-0.00505108
-0.00530642
-0.00488582
-0.00481309
-0.00341001
-0.00458313
-0.00536187
-0.00372318
-0.00546576
-0.00502117
-0.00581338
-0.00349411
-0.00552844
-0.00528532
-0.00343198
-0.00473728
-0.00340876
-0.00532249
-0.00485724
-0.00357322
-0.0033627
-0.00290624
-0.00334315
-0.00532976
-0.00244039
-0.00410625
-0.00335016
-0.00376041
-0.00553362
-0.00535711
-0.00168192
-0.00537655
-0.00292292
-0.00317127
-0.00550349
-0.00447379
-0.00320852
-0.00614112
-0.00349099
-0.00168192
-0.00324289
-0.00477758
-0.00596444
-0.00452068
-0.00532131
-0.00498224
-0.00261659
-0.00256254
-0.0021875
-0.00251114
-0.00356594
-0.00272469
-0.00439061
-0.00274553
-0.00473067
-0.00337747
-0.00324779
-0.00380334
-0.00353324
-0.00469695
-0.00338808
-0.00348562
-0.00154211
-0.00351749
-0.00508734
-0.00509094
-0.00460895
-0.00338164
-0.00220575
-0.00639942
-0.00429712
-0.00358757
-0.00330707
-0.00329805
-0.00341084
-0.00416186
-0.00334995
-0.00239605
-0.00330617
-0.0022656
-0.00410028
-0.00337268
-0.00143733
-0.0031768
-0.00376026
-0.00337267
-0.00519561
-0.00350271
-0.00451982
-0.00173014
-0.00362769
-0.0034631
-0.00302899
-0.00325103
-0.00383819
-0.00361497
-0.00377954
-0.00321148
-0.0032622
-0.00352326
-0.00471438
-0.00332198
-0.00470976
-0.00425096
-0.00335806
-0.00344636
-0.00347979
-0.00384988
-0.00347418
-0.00325241
-0.00369661
-0.00388052
-0.00457902
-0.00347912
-0.00345575
-0.00500744
-0.00493733
-0.00332445
-0.00335877
-0.00149457
-0.004054
-0.00280879
-0.00380464
-0.00167547
-0.00173923
-0.00155432
-0.00157975
-0.00167595
-0.00176548
-0.00181942
-0.00427143
-0.0031627
-0.00318781
-0.00364341
-0.00354854
-0.00350424
-0.00370897
-0.00342925
-0.00350732
-0.00357143
-0.00349123
-0.0042914
-0.00317256
-0.00441104
-0.00342991
-0.0033104
-0.0034956
-0.00373459
-0.00389897
-0.00363171
-0.00416005
-0.00388573
-0.00360247
-0.00259668
-0.00362404
-0.0035445
-0.00381902
-0.00365476
-0.00346269
-0.00329334
-0.0036282
-0.00378532
-0.00513982
-0.00339271
-0.00499713
-0.00520756
-0.00356537
-0.00499033
-0.00382743
-0.00306484
-0.00417845
-0.00366011
-0.00263923
-0.00231118
-0.00412576
-0.00439457
-0.0037179
-0.00309029
-0.00371972
-0.00175814
-0.00367585
-0.00344848
-0.00175757
-0.000675995
-0.000739485
-0.0031842
-0.00339406
-0.00394298
-0.0037895
-0.000347697
-0.000363307
-0.0037549
-0.00379409
-0.00359143
-0.00131969
-0.0031757
-0.00369531
-0.00376519
-0.00324778
-0.00286667
-0.0013742
-0.00544171
-0.00341527
-0.00417473
-0.00423999
-0.00304628
-0.00385558
-0.00297843
-0.00328666
-0.00162984
-0.0024613
-0.00386015
-0.00388486
-0.00333831
-0.00350583
-0.0036181
-0.00381509
-0.00364899
-0.00179577
-0.00320465
-0.00360903
-0.00341382
-0.00512335
-0.00179538
-0.00277168
-0.00285483
-0.00270822
-0.00176187
-0.00176199
-0.00310219
-0.00250164
-0.00357943
-0.00192171
-0.00210391
-0.000687262
-0.000687258
-0.0014321
-0.00228351
-0.00153861
-0.00304972
-0.00330117
-0.00352059
-0.00396747
-0.0035994
-0.00333271
-0.0026229
-0.00161813
-0.00329286
-0.00341248
-0.00330431
-0.00181901
-0.00168751
-0.00130993
-0.00329961
-0.00336566
-0.00270211
-0.00305421
-0.0028185
-0.00258285
-0.00345464
-0.00258262
-0.00304853
-0.00294066
-0.00180414
-0.00222746
-0.00206419
-0.0036534
-0.0014401
-0.0015172
-0.00148403
-0.00345075
-0.00137139
-0.00134276
-0.00239922
-0.00125249
-0.00279585
-0.00280007
-0.00128576
-0.00304091
-0.00142824
-0.00141871
-0.00159939
-0.00135354
-0.00132983
-0.00199173
-0.00158096
-0.0014357
-0.00135778
-0.00278508
-0.00318024
-0.00149546
-0.00307404
-0.00123118
-0.00311873
-0.00247685
-0.00128638
-0.00108987
-0.00121513
-0.00161254
-0.00267752
-0.00220694
-0.000924019
-0.00102562
-0.00298595
-0.000869792
-0.000869784
-0.000985558
-0.001106
-0.00124527
-0.00145422
-0.00240349
-0.00222542
-0.00298791
-0.000873723
-0.000873716
-0.00262846
-0.00107644
-0.00212794
-0.000975468
-0.000982032
-0.00129393
-0.00225434
-0.00233432
-0.00248681
-0.00227909
-0.00225428
-0.000492684
-0.00363886
-0.000628377
-0.000608945
-0.00293964
-0.00291925
-0.00063105
-0.000438281
-0.000617465
-0.00271144
SCALARS rr_P_ext' float
LOOKUP_TABLE default
9.05928e-05
0.000209764
0.000167292
0.000218899
0.000114957
0.00017755
8.95706e-05
0.000217647
0.00018672
0.000235717
8.22984e-05
0.000218313
0.000192058
0.00020303
0.000238431
0.000199417
0.000171827
0.00019399
0.000173284
0.000169692
0.000190846
3.4274e-05
0.000195541
0.00018026
0.000163391
0.000188755
7.64185e-05
0.000165663
0.00012916
0.00015419
0.000169664
0.000133524
8.46346e-05
0.000115427
0.000113502
0.000115686
0.000149929
0.000113711
0.000169487
9.51345e-05
0.000108559
0.000132144
0.000132156
0.000186206
0.000106354
0.000117793
0.000163127
0.000165298
0.00015507
0.000147335
0.000151377
0.000117629
0.000184459
0.000151156
0.000169801
7.71903e-05
0.000121192
0.000152264
0.000121187
0.000185004
0.000219329
0.000215243
7.52362e-05
0.000151752
0.000206168
0.000194324
0.000212168
0.000183333
0.000168571
0.000240754
0.000200124
0.000197941
0.000134131
0.000157373
0.000166273
8.73026e-05
0.00017191
0.000192519
0.000184874
0.000129854
0.000116798
0.000129818
0.000244973
0.000116906
0.000157985
5.84495e-05
0.000191366
0.000160271
0.000112632
1.6853e-05
0.000130976
1.8329e-05
0.000145883
0.000139469
0.000123974
0.000112804
0.000107274
0.000206942
0.000172034
0.00016499
0.000139698
0.00013367
0.000112169
0.000195921
0.00019922
0.000179408
0.000158047
0.000159919
0.000119067
0.000239157
0.000153393
8.02645e-05
0.000107349
0.000214403
0.000200921
0.00014598
0.000140533
8.91356e-05
0.000145756
0.000145411
0.000126762
0.000232379
0.000239061
0.000205556
0.000225991
0.000177721
0.000100798
0.000223432
9.71582e-05
0.000125713
0.000104537
0.000213266
0.000208589
0.000209409
0.00013903
8.53885e-05
9.29167e-05
0.000153378
0.000187824
8.53585e-05
0.000116138
0.000180885
0.000136577
0.000220846
0.000108482
0.000180159
0.000163518
0.000157916
0.00010093
0.000128549
0.000143672
0.000205815
0.0001198
0.000186215
0.000215824
0.000219255
0.000143536
0.000119644
0.000118971
0.000187994
0.000157572
0.000118818
7.8363e-05
0.000115985
0.000115552
0.000201421
0.000121255
0.00012259
0.000132638
0.000118165
0.000178128
0.000123812
0.000109391
0.000138718
0.000130806
0.000157934
0.000176189
0.000169014
0.000144194
0.000168652
0.000128738
0.000195425
0.000209741
0.00011616
0.000205674
0.000115917
0.000203121
0.000186832
0.00017468
0.000177261
0.000207482
9.74263e-05
0.000127992
0.000118815
0.000209032
0.000205671
0.000190698
0.000208074
0.00021159
0.000177832
0.000217919
0.000145747
0.000131212
0.000238211
0.000137891
0.000216381
0.000172263
0.000109117
0.000132472
0.000215638
0.000179867
0.000163433
0.000210437
0.000206755
0.000132961
0.000132526
0.000127979
0.000183458
0.000202179
0.000232354
0.000223193
0.000242851
0.000220061
0.000240482
0.000201744
0.000211302
0.000212939
0.000200744
0.000210895
0.00019438
0.000191488
0.000134719
0.000181799
0.000212597
0.000147373
0.000217245
0.000199583
0.000230508
0.000137955
0.000219191
0.000209623
0.000135607
0.000188239
0.000134681
0.00021135
0.00019257
0.000141191
0.000132787
0.000114419
0.000131632
0.000211631
9.60549e-05
0.000162743
0.000132283
0.000148749
0.000219393
0.00021253
6.7074e-05
0.000213294
0.000115038
0.00012522
0.000218211
0.000177381
0.000126672
0.000243632
0.000138077
6.70733e-05
0.000128052
0.000189549
0.000236749
0.000179216
0.000211497
0.000197765
0.000104109
0.000101574
8.6018e-05
9.86972e-05
0.000141829
0.0001079
0.000174083
0.000108478
0.00018798
0.000134021
0.000128243
0.000150926
0.000139655
0.000186273
0.000133919
0.000137624
6.15587e-05
0.000139875
0.000202211
0.000202349
0.000182816
0.000133677
8.78614e-05
0.000254002
0.000170112
0.000141823
0.000130682
0.000131174
0.00013477
0.000165473
0.000132394
9.41633e-05
0.00013069
8.91864e-05
0.000162844
0.000133263
5.73753e-05
0.000125552
0.000149295
0.000133243
0.000206258
0.000138427
0.000179097
6.7963e-05
0.000143709
0.000136831
0.000120465
0.000128444
0.000151945
0.00014351
0.000149916
0.00012692
0.000128953
0.000139349
0.000187229
0.000131314
0.000186737
0.000168445
0.000133607
0.000136233
0.000137621
0.000152436
0.000137418
0.000128549
0.00014622
0.000154173
0.000181547
0.000137602
0.000136537
0.000198606
0.000195829
0.000131405
0.000133633
5.85365e-05
0.000160634
0.000110584
0.000150653
6.51633e-05
6.76443e-05
6.0457e-05
6.14444e-05
6.51886e-05
6.86624e-05
7.07643e-05
0.000169648
0.000125937
0.000126363
0.000144225
0.000140367
0.000138606
0.000147092
0.000135629
0.000138707
0.000142216
0.000138091
0.000170533
0.00012521
0.000175272
0.000135883
0.00013104
0.000138258
0.000148542
0.000154491
0.000143772
0.000164838
0.00015383
0.000142476
0.000102505
0.000143454
0.000140429
0.000151768
0.000144586
0.000136931
0.000130282
0.000143608
0.000149965
0.000203841
0.000134211
0.000198177
0.000206287
0.000141126
0.000197866
0.00015162
0.000121222
0.000165876
0.000144914
0.000105081
9.08291e-05
0.000163862
0.000174596
0.000147296
0.000122357
0.000147621
6.88709e-05
0.000145628
0.000136532
6.90453e-05
2.69826e-05
2.95179e-05
0.000126168
0.000134254
0.000156134
0.000149918
1.39057e-05
1.453e-05
0.000148882
0.000150438
0.000142394
5.16942e-05
0.000125592
0.000146724
0.000149036
0.000128541
0.000113468
5.3818e-05
0.000216012
0.000135085
0.00016541
0.000167996
0.000120564
0.000152631
0.000117879
0.000130092
6.39781e-05
9.68929e-05
0.000152811
0.000153929
0.000132174
0.000138745
0.00014324
0.000151063
0.000144475
7.05739e-05
0.000127376
0.000142767
0.000135476
0.000203388
7.0553e-05
0.000109813
0.000113095
0.000107752
7.03194e-05
7.03236e-05
0.000123359
9.89316e-05
0.000141819
7.55071e-05
8.39494e-05
2.74781e-05
2.74778e-05
5.6077e-05
9.09922e-05
6.13432e-05
0.000120816
0.000131245
0.000139552
0.00015737
0.000142895
0.00013235
0.000103995
6.33843e-05
0.000130489
0.000135409
0.000131196
7.13491e-05
6.72525e-05
5.14487e-05
0.000131003
0.000133505
0.000106782
0.000121057
0.000111745
0.000102774
0.000136989
0.000102764
0.000120791
0.000116759
7.19151e-05
8.87966e-05
8.11088e-05
0.000144937
5.637e-05
5.94026e-05
5.80723e-05
0.000136979
5.37114e-05
5.25297e-05
9.49515e-05
4.90187e-05
0.000111317
0.000111484
5.03314e-05
0.000120407
5.60666e-05
5.55287e-05
6.27696e-05
5.29754e-05
5.21905e-05
7.93712e-05
6.20915e-05
5.6233e-05
5.31489e-05
0.000110414
0.000126331
5.86786e-05
0.000121873
4.8169e-05
0.000123695
9.80806e-05
5.03423e-05
4.27556e-05
4.75446e-05
6.31427e-05
0.000106065
8.78877e-05
3.69354e-05
4.09901e-05
0.000118455
3.47667e-05
3.47661e-05
3.93912e-05
4.41612e-05
4.89194e-05
5.79622e-05
9.55841e-05
8.86246e-05
0.000118514
3.48959e-05
3.48953e-05
0.0001047
4.21446e-05
8.42538e-05
3.81981e-05
3.85623e-05
5.08142e-05
8.99383e-05
9.31259e-05
9.92007e-05
9.09175e-05
8.9935e-05
1.96895e-05
0.000145161
2.5097e-05
2.43419e-05
0.000117282
0.00011647
2.52268e-05
1.7516e-05
2.46623e-05
0.000108154
SCALARS rr_S' float
LOOKUP_TABLE default
0.00214388
0.00490118
0.00391313
0.00511577
0.00267716
0.00415319
0.00211978
0.00508723
0.00437223
0.00550784
0.00194606
0.00510281
0.0044903
0.00474323
0.00555957
0.00466371
0.00401244
0.00453497
0.00405993
0.00397055
0.00446626
0.000794709
0.0045761
0.00421775
0.00382319
0.00441165
0.00180374
0.00387449
0.00303672
0.0035844
0.00396689
0.00313922
0.00199803
0.00268532
0.00263951
0.00269137
0.00348485
0.0026448
0.00396282
0.00224583
0.00255244
0.00307131
0.00307163
0.00435363
0.00250773
0.00276894
0.00382092
0.00386978
0.00362716
0.00346677
0.00356022
0.00276199
0.00429666
0.00354909
0.00395566
0.00181934
0.00281826
0.00357511
0.00281817
0.00432855
0.00512195
0.00502116
0.00177436
0.00354026
0.00480937
0.00453777
0.00495451
0.00428489
0.00394463
0.00562507
0.00466167
0.00461087
0.0031537
0.00367344
0.00388914
0.00206216
0.00400749
0.00449567
0.00432093
0.00304817
0.00274893
0.003022
0.00571772
0.00275248
0.00371301
0.00137797
0.00447563
0.00374182
0.00265571
0.000391015
0.00307532
0.000425268
0.00340051
0.00325729
0.00291058
0.00265337
0.00252472
0.00483556
0.00401045
0.00385789
0.00327541
0.0031406
0.00264101
0.00457957
0.00465563
0.00419251
0.00368826
0.00373969
0.00280349
0.00558694
0.00358891
0.00189177
0.00252866
0.00501193
0.00469552
0.00342741
0.00326807
0.00209794
0.00338966
0.0034139
0.00297078
0.00541927
0.00558576
0.00479898
0.0052789
0.00414352
0.00234508
0.0052209
0.00228664
0.00295142
0.00243507
0.00498343
0.00486883
0.00489311
0.00326646
0.00198566
0.00218836
0.00358565
0.00438382
0.00198499
0.00272823
0.00422641
0.00320019
0.00516028
0.00255344
0.00421055
0.00382137
0.00369373
0.00236091
0.00301516
0.00336362
0.00480896
0.00281664
0.0043536
0.00504298
0.00512333
0.00335268
0.00281025
0.00279433
0.00439532
0.00368885
0.0027933
0.00184713
0.00272786
0.00271417
0.00470689
0.0028481
0.00287951
0.00311845
0.00277546
0.00415201
0.00290706
0.00257282
0.00323977
0.0030712
0.0036858
0.00410686
0.00395052
0.00335859
0.00394108
0.00302673
0.00456654
0.00490111
0.00272869
0.00480172
0.00272655
0.00474215
0.0043599
0.00407144
0.00414201
0.00484385
0.00229264
0.00300513
0.00279342
0.00488434
0.00480826
0.00445793
0.00485685
0.00494398
0.00415285
0.00509171
0.00341421
0.00307975
0.00556038
0.00324185
0.00505041
0.00402267
0.0025639
0.00308977
0.00503832
0.00419472
0.00381788
0.00491795
0.00482565
0.00311851
0.00309556
0.00300349
0.00428119
0.0047228
0.00542768
0.00521442
0.00567338
0.00514092
0.00561806
0.00471358
0.00492745
0.00496579
0.00468124
0.00491788
0.00452815
0.00446074
0.00316003
0.00424743
0.0049691
0.00345035
0.00506556
0.00465353
0.00538753
0.00323793
0.00512346
0.00489818
0.0031804
0.00439041
0.00315887
0.00493271
0.00450142
0.00331129
0.00311616
0.00269303
0.0030979
0.00493945
0.00226135
0.00380543
0.00310454
0.00348482
0.00512826
0.00496472
0.00155884
0.00498274
0.00270847
0.00293876
0.00510034
0.00414607
0.00297328
0.00569131
0.00323513
0.00155884
0.00300514
0.00442764
0.00552762
0.00418952
0.00493168
0.00461735
0.00242505
0.00237481
0.00202698
0.00232685
0.00330488
0.00252505
0.00406899
0.00254427
0.00438428
0.0031301
0.00300967
0.00352478
0.00327425
0.0043529
0.00313974
0.00323007
0.00142928
0.00325997
0.00471485
0.00471818
0.00427135
0.00313377
0.00204431
0.00593074
0.00398224
0.00332461
0.00306465
0.0030566
0.00316081
0.00385715
0.00310439
0.00222021
0.00306383
0.00209939
0.00380001
0.00312544
0.00133217
0.00294393
0.00348488
0.00312543
0.00481511
0.00324595
0.00418869
0.00160316
0.00336191
0.00320924
0.00280724
0.00301271
0.00355694
0.00335023
0.0035027
0.00297608
0.00302308
0.00326504
0.00436914
0.00307848
0.00436475
0.00393953
0.00311223
0.00319375
0.00322475
0.00356779
0.00321956
0.00301401
0.00342569
0.00359637
0.00424359
0.00322413
0.00320242
0.00464065
0.00457568
0.00308077
0.00311289
0.0013848
0.00375699
0.00260273
0.00352586
0.00155223
0.0016113
0.00143998
0.00146355
0.00155267
0.00163561
0.00168559
0.00395864
0.00293121
0.00295428
0.00337643
0.00328847
0.00324741
0.00343729
0.00317792
0.00325026
0.00331002
0.00323536
0.00397717
0.00293994
0.00408805
0.00317862
0.00306783
0.00323941
0.00346118
0.00361332
0.00336559
0.00385528
0.00360099
0.00333844
0.00240629
0.00335848
0.00328482
0.00353939
0.00338692
0.0032089
0.00305198
0.00336232
0.00350799
0.00476333
0.00314407
0.00463109
0.00482602
0.00330411
0.00462477
0.003547
0.00284022
0.00387244
0.00339192
0.00244605
0.00214156
0.00382364
0.00407278
0.00344551
0.00286385
0.00344729
0.00162902
0.00340654
0.0031958
0.00162857
0.000626537
0.000685382
0.00295092
0.00314531
0.00365407
0.00351178
0.000322267
0.000336736
0.00347984
0.00351616
0.00332835
0.00122277
0.00294294
0.00342469
0.00348928
0.00300978
0.0026566
0.00127327
0.00504317
0.00316497
0.00386887
0.00392936
0.00282304
0.00357305
0.00276017
0.00304582
0.0015102
0.00228073
0.00357729
0.00360025
0.0030937
0.00324892
0.00335298
0.00353554
0.00338162
0.00166398
0.00297001
0.00334453
0.00316379
0.00474814
0.00166362
0.00256861
0.00264567
0.00250997
0.00163296
0.00163307
0.00287507
0.00231829
0.00331719
0.00178067
0.00194997
0.000636995
0.000636992
0.00132691
0.00211639
0.00142601
0.00282628
0.00305947
0.00326268
0.00367686
0.0033358
0.00308865
0.00243076
0.00149929
0.00305162
0.00316255
0.00306233
0.00168545
0.00156402
0.00121378
0.00305797
0.00311914
0.00250404
0.00283046
0.00261203
0.00239377
0.00320159
0.00239356
0.00282519
0.00272531
0.00167211
0.00206446
0.00191269
0.00338581
0.00133432
0.00140576
0.00137502
0.00319803
0.00127067
0.00124411
0.0022234
0.00116049
0.0025912
0.00259512
0.00119132
0.00281809
0.00132339
0.0013145
0.00148197
0.00125412
0.00123221
0.00184596
0.00146492
0.00133025
0.00125805
0.00258106
0.00294737
0.00138567
0.00284885
0.00114074
0.00289028
0.00229537
0.00119189
0.00100985
0.00112587
0.0014941
0.00248135
0.00204541
0.000856432
0.000950603
0.00276724
0.000806171
0.000806163
0.000913468
0.00102509
0.00115387
0.0013478
0.00222753
0.00206253
0.00276905
0.000809806
0.000809799
0.00243608
0.000997375
0.00197201
0.000903822
0.000909949
0.00119896
0.00208939
0.00216352
0.00230484
0.00211233
0.00208934
0.000456645
0.0033726
0.000582407
0.000564405
0.00272454
0.00270565
0.000584893
0.000406222
0.000572294
0.00251304
SCALARS rr_P' float
LOOKUP_TABLE default
7.93568e-05
0.000177611
0.000142066
0.000185457
9.64935e-05
0.000150788
7.84701e-05
0.000184464
0.000159016
0.000199611
7.19437e-05
0.000185029
0.00016289
0.00017185
0.000200797
0.000169261
0.000145267
0.000164481
0.0001478
0.000144228
0.000162279
2.84414e-05
0.000166271
0.000153203
0.00013888
0.000159952
6.64809e-05
0.000140632
0.000111196
0.000128822
0.000143911
0.000114944
7.36633e-05
9.66283e-05
9.49164e-05
9.68476e-05
0.000125216
9.5131e-05
0.00014377
8.27939e-05
9.34682e-05
0.000110348
0.000110361
0.00015794
9.22694e-05
0.000101359
0.000139036
0.000140692
0.000131679
0.000127112
0.000130438
0.000100916
0.000154922
0.000129665
0.000142651
6.6894e-05
0.00010134
0.000130616
0.000101338
0.000157217
0.000185452
0.000181478
6.53064e-05
0.000127967
0.000173819
0.000164284
0.000179377
0.000155354
0.000143306
0.000203834
0.000168089
0.000166259
0.000115486
0.000132904
0.000141184
7.60973e-05
0.000144677
0.000162763
0.000156664
0.00011132
0.000100833
0.000108848
0.000206839
0.000101026
0.000135873
5.06879e-05
0.000162451
0.000135423
9.77116e-05
1.40087e-05
0.00011236
1.52364e-05
0.000122751
0.000117955
0.00010632
9.72334e-05
9.26055e-05
0.000175251
0.000144787
0.000139974
0.000119384
0.000114867
9.69388e-05
0.000166066
0.000168762
0.000151966
0.000133389
0.000135709
0.000102906
0.000202406
0.00013035
6.95573e-05
9.28847e-05
0.000181767
0.000170215
0.000125211
0.000117517
7.69576e-05
0.000121896
0.000124708
0.000108201
0.000195776
0.000202424
0.000173676
0.000191219
0.000149626
8.43889e-05
0.000189218
8.38726e-05
0.000107813
8.78046e-05
0.000180619
0.000176149
0.000177332
0.000119466
7.14012e-05
8.0362e-05
0.000130054
0.000158584
7.13783e-05
9.97578e-05
0.000153159
0.000116518
0.000187012
9.36748e-05
0.00015265
0.000138526
0.000134097
8.57154e-05
0.000109969
0.000122298
0.000174274
0.000103138
0.000157925
0.000182763
0.000185686
0.000121432
0.000102735
0.000102146
0.000159447
0.00013411
0.000102267
6.7926e-05
9.99431e-05
9.92252e-05
0.000170607
0.00010412
0.000105271
0.000114188
0.000101461
0.000149871
0.000106209
9.42651e-05
0.000117319
0.0001122
0.000133309
0.000148244
0.00014325
0.000121086
0.000142849
0.000110826
0.000165506
0.000177636
9.97715e-05
0.000173775
9.99114e-05
0.00017162
0.000157671
0.000146951
0.000150114
0.000175295
8.40735e-05
0.000109789
0.000102284
0.000177019
0.000174407
0.000161682
0.000175718
0.000179172
0.000150359
0.000184517
0.000124259
0.000112455
0.000201175
0.0001187
0.0001827
0.000145639
9.37863e-05
0.000111645
0.000182578
0.000151541
0.000138308
0.000178281
0.000174565
0.00011373
0.000112122
0.000109646
0.000154826
0.000171082
0.000196618
0.000188936
0.000205546
0.000186252
0.000203542
0.0001708
0.000177992
0.000179387
0.000169098
0.000177642
0.000163292
0.00016086
0.000115262
0.000153901
0.00018018
0.000125454
0.000182955
0.00016806
0.000195341
0.000118224
0.000185791
0.00017752
0.000115976
0.000158638
0.000115202
0.000178427
0.000163248
0.000120744
0.000113749
9.87883e-05
0.000113626
0.00017868
8.29854e-05
0.000138076
0.000113337
0.000126847
0.000185969
0.000179853
5.60006e-05
0.000180515
9.94073e-05
0.000107285
0.000184942
0.000150339
0.000108572
0.000206178
0.000117778
5.60014e-05
0.000109703
0.000160384
0.00020007
0.000151946
0.000178128
0.000167119
8.74385e-05
8.61501e-05
7.45039e-05
8.55927e-05
0.000119232
9.17417e-05
0.000147544
9.27865e-05
0.000158412
0.000113349
0.000109871
0.000127636
0.000119332
0.00015778
0.000114427
0.000117932
5.12655e-05
0.000117649
0.000170279
0.000170405
0.000154776
0.000114192
7.35786e-05
0.000214676
0.000144767
0.000121137
0.000111739
0.000110276
0.000115264
0.000139235
0.000113163
8.16856e-05
0.000111649
7.70263e-05
0.000137418
0.000113973
4.77834e-05
0.000107313
0.000126085
0.000114
0.000174245
0.00011833
0.000152034
5.90248e-05
0.000122078
0.000117035
0.00010129
0.000109881
0.000129306
0.000121232
0.000126925
0.000108489
0.000110161
0.000118873
0.000158004
0.000112184
0.000158268
0.00014299
0.000112219
0.00011638
0.000117418
0.000129659
0.000117202
0.000109855
0.0001247
0.000129977
0.000153883
0.000117385
0.000116792
0.000168181
0.000165821
0.000112276
0.000112245
5.12327e-05
0.000136375
9.54731e-05
0.000128124
5.80822e-05
6.02911e-05
5.38743e-05
5.47587e-05
5.80898e-05
6.12039e-05
6.30683e-05
0.000143145
0.000105558
0.000107167
0.000122756
0.000119701
0.000118217
0.00012459
0.000115704
0.00011835
0.000119194
0.000117779
0.000143689
0.000107415
0.000147719
0.000115411
0.000111539
0.000117935
0.000124865
0.000131158
0.000122347
0.000139939
0.000130902
0.000121554
8.7885e-05
0.000122109
0.000119257
0.000127864
0.00012326
0.00011686
0.000111079
0.000122263
0.000127367
0.00017265
0.000114434
0.000167862
0.000175256
0.00012014
0.00016769
0.000128801
0.000103401
0.000140135
0.000123279
8.8101e-05
7.87907e-05
0.000138263
0.000147195
0.000125096
0.000104079
0.000124811
6.02516e-05
0.000123684
0.000116155
5.99534e-05
2.24754e-05
2.45849e-05
0.000107117
0.000114492
0.000132777
0.000127802
1.15239e-05
1.20413e-05
0.000126175
0.000127488
0.000120692
4.52274e-05
0.000107162
0.000123895
0.00012687
0.000109455
9.65974e-05
4.71131e-05
0.000182521
0.00011522
0.000140445
0.00014264
0.000102667
0.000129892
0.000100381
0.00011075
5.56666e-05
8.36758e-05
0.000130049
0.000130689
0.000112437
0.000118165
0.000121878
0.000128481
0.000122902
6.12189e-05
0.000107264
0.000121732
0.000114553
0.000171823
6.12138e-05
9.32514e-05
9.60667e-05
9.05029e-05
5.85878e-05
5.85923e-05
0.000103762
8.4419e-05
0.000120426
6.55349e-05
6.99904e-05
2.27889e-05
2.27889e-05
4.91094e-05
7.61257e-05
5.12499e-05
0.000102624
0.00011045
0.000118354
0.000133237
0.000120708
0.000111705
8.81412e-05
5.54568e-05
0.000110749
0.000114527
0.00011079
6.22043e-05
5.62464e-05
4.46994e-05
0.000110641
0.000113018
9.12926e-05
0.000102686
9.47219e-05
8.63012e-05
0.000116068
8.62948e-05
0.000102553
9.85937e-05
6.01152e-05
7.42102e-05
7.03886e-05
0.000122658
4.94108e-05
5.20349e-05
5.09425e-05
0.000115742
4.70108e-05
4.61131e-05
8.08647e-05
4.29846e-05
9.33255e-05
9.34678e-05
4.41116e-05
0.000102412
4.87772e-05
4.86818e-05
5.46449e-05
4.64495e-05
4.54354e-05
6.6391e-05
5.39524e-05
4.92112e-05
4.65848e-05
9.36058e-05
0.000106548
5.1111e-05
0.000103314
4.2276e-05
0.000104746
8.34039e-05
4.41514e-05
3.72608e-05
4.17193e-05
5.52972e-05
9.01084e-05
7.36451e-05
3.06514e-05
3.40309e-05
0.000100253
2.88543e-05
2.88542e-05
3.26983e-05
3.67534e-05
4.24794e-05
4.84612e-05
8.03791e-05
7.4261e-05
0.000100344
2.90221e-05
2.90221e-05
8.7676e-05
3.69217e-05
7.16683e-05
3.34482e-05
3.35214e-05
4.41628e-05
7.5013e-05
7.76785e-05
8.27637e-05
7.58473e-05
7.50119e-05
1.63491e-05
0.000121099
2.08726e-05
2.01988e-05
9.7812e-05
9.71313e-05
2.09302e-05
1.45428e-05
2.05084e-05
9.02511e-05
SCALARS rr_T' float
LOOKUP_TABLE default
0.000168873
0.000384919
0.000307396
0.000401792
0.000210109
0.000326256
0.000166976
0.000399561
0.000343544
0.000432567
0.000153265
0.000400785
0.000352698
0.000372502
0.000436442
0.00036634
0.000315083
0.000356199
0.000319048
0.00031193
0.000350886
6.23174e-05
0.000359517
0.000331349
0.000300355
0.000346496
0.000141994
0.000304353
0.000238833
0.000281217
0.000311587
0.000246893
0.000157295
0.00021071
0.000207096
0.000211185
0.000273399
0.000207517
0.00031127
0.000176801
0.000200747
0.000240953
0.000240978
0.000341964
0.000197365
0.000217763
0.000300246
0.000304049
0.000284931
0.000272708
0.000280029
0.00021716
0.000337228
0.000279041
0.00031047
0.000143171
0.00022112
0.000281087
0.000221113
0.000340051
0.000402214
0.000394205
0.000139652
0.000277945
0.000377577
0.000356334
0.000389062
0.00033654
0.000309899
0.000441769
0.000365877
0.00036189
0.000248036
0.000288436
0.000305507
0.000162364
0.000314579
0.000353028
0.000339372
0.000239645
0.000216252
0.000237152
0.000448947
0.00021655
0.000291995
0.000108446
0.000351573
0.000293819
0.00020901
3.06659e-05
0.000241794
3.33524e-05
0.00026693
0.000255791
0.000228834
0.000208706
0.000198613
0.000379769
0.000314812
0.000303031
0.000257439
0.000246962
0.000207782
0.000359692
0.000365649
0.000329272
0.000289587
0.000293754
0.000220566
0.000438763
0.000281944
0.000148872
0.000198964
0.000393657
0.000368782
0.000269472
0.000256412
0.00016504
0.000265954
0.000268407
0.000233473
0.00042544
0.000438686
0.000376827
0.000414565
0.000325271
0.000184012
0.000410034
0.000179883
0.000232046
0.000191121
0.000391387
0.000382298
0.00038429
0.000256857
0.000155795
0.00017218
0.000281635
0.000344211
0.000155742
0.000214527
0.000331925
0.00025149
0.000405272
0.000200876
0.000330698
0.000300129
0.000290161
0.000185462
0.000237006
0.000264284
0.000377679
0.000221525
0.000341958
0.000396059
0.000402374
0.000263287
0.000220969
0.000219715
0.000345238
0.000289833
0.000219684
0.000145362
0.000214559
0.000213416
0.000369669
0.000223946
0.000226417
0.000245261
0.000218234
0.00032592
0.000228563
0.000202365
0.000254413
0.000241466
0.000289397
0.000322375
0.000310284
0.000263597
0.000309526
0.000238046
0.000358642
0.000384921
0.000214563
0.000377042
0.000214461
0.000372365
0.000342318
0.000319591
0.0003253
0.000380349
0.000180349
0.000236273
0.000219697
0.000383602
0.000377668
0.000350146
0.000381358
0.000388284
0.00032611
0.000399884
0.000268294
0.000242122
0.000436599
0.000254964
0.00039655
0.000315886
0.000201617
0.000242568
0.00039569
0.000329305
0.000299828
0.000386253
0.000378902
0.000245127
0.000243096
0.000236119
0.000336138
0.000370895
0.000426252
0.000409516
0.000445554
0.000403737
0.000441209
0.000370183
0.000386824
0.000389838
0.000367497
0.000386073
0.000355403
0.000350113
0.000248396
0.000333571
0.000390287
0.000271097
0.000397661
0.000365311
0.000423149
0.000254556
0.000402414
0.000384687
0.000249988
0.000344677
0.000248299
0.000387305
0.000353562
0.000260275
0.000244974
0.000211856
0.000243703
0.000387835
0.000177906
0.000298911
0.000244063
0.000273849
0.000402792
0.000389895
0.000122294
0.000391312
0.000213086
0.000231031
0.000400596
0.000325642
0.000233753
0.000446958
0.000254233
0.000122294
0.000236247
0.000347714
0.000434049
0.000329063
0.000387154
0.00036257
0.000190332
0.000186534
0.000159505
0.000183122
0.000259405
0.000198375
0.000319587
0.000199988
0.000344194
0.000245802
0.000236605
0.000276795
0.000257345
0.000341871
0.000246771
0.000253936
0.000112108
0.000255891
0.000370127
0.00037039
0.000335451
0.000246297
0.000160416
0.000465706
0.000312882
0.000261293
0.000240884
0.000239918
0.000248449
0.000302775
0.000244
0.000174734
0.000240802
0.000165159
0.000298358
0.000245669
0.000104491
0.000231388
0.000273633
0.000245676
0.000378091
0.000255129
0.000329032
0.000126183
0.000264102
0.000252257
0.000220348
0.000236813
0.000279468
0.000263064
0.000275086
0.000233916
0.000237598
0.000256585
0.000343044
0.000241954
0.000342817
0.00030946
0.000244267
0.000251011
0.000253422
0.000280306
0.000253006
0.000236893
0.000269202
0.000282348
0.000333303
0.00025337
0.000251723
0.000364461
0.000359356
0.000242137
0.000244319
0.000109074
0.000295125
0.000204751
0.000277009
0.000122465
0.000127125
0.000113607
0.000115467
0.000122498
0.000129044
0.000132985
0.00031081
0.000230026
0.000232049
0.000265288
0.000258419
0.000255195
0.000269959
0.000249739
0.000255428
0.000259752
0.000254249
0.000312229
0.00023115
0.000320942
0.000249701
0.000241041
0.000254569
0.000271672
0.000283838
0.000264432
0.000302844
0.000282927
0.000262355
0.000189183
0.000263879
0.00025804
0.000277858
0.000266148
0.000252182
0.000239831
0.000264185
0.000275573
0.000374103
0.000247068
0.000363718
0.000379123
0.000259609
0.000363238
0.000278643
0.000223199
0.00030407
0.000266493
0.000191957
0.000168545
0.000300209
0.00031975
0.000270665
0.000225001
0.000270704
0.000128304
0.000267605
0.000251085
0.000128181
4.91442e-05
5.37595e-05
0.000231806
0.000247169
0.000287079
0.000275959
2.52682e-05
2.64027e-05
0.000273313
0.000276164
0.000261418
9.63075e-05
0.000231278
0.000268903
0.000274156
0.000236487
0.000208734
0.000100291
0.000396005
0.000248718
0.000303915
0.000308667
0.000221816
0.000280732
0.000216876
0.000239314
0.000118886
0.000179424
0.000281066
0.000282813
0.000243061
0.000255281
0.000263437
0.000277771
0.000265682
0.000130957
0.000233152
0.000262822
0.000248444
0.000372832
0.000130932
0.000201777
0.000207835
0.000196997
0.000128089
0.000128098
0.00022568
0.000182188
0.000260581
0.000140148
0.000152963
4.99479e-05
4.99477e-05
0.00010452
0.000166058
0.000111879
0.000222024
0.000240162
0.000256271
0.000288764
0.000261931
0.000242508
0.000190918
0.000118088
0.000239708
0.000248351
0.000240451
0.000132707
0.000122715
9.55388e-05
0.000240111
0.00024496
0.000196819
0.000222325
0.000205157
0.000187876
0.000251453
0.00018786
0.000221928
0.000213987
0.000131193
0.000161973
0.000150537
0.000265898
0.000105111
0.000110731
0.000108324
0.000251117
0.000100084
9.80178e-05
0.000174701
9.14203e-05
0.000203344
0.000203652
9.38445e-05
0.000221405
0.000104179
0.00010355
0.00011667
9.87948e-05
9.70072e-05
0.000144837
0.000115308
0.000104776
9.91017e-05
0.000202726
0.000231402
0.000109094
0.000223759
8.98718e-05
0.000226993
0.000180334
9.3895e-05
7.95093e-05
8.86983e-05
0.000117689
0.00019493
0.000160508
6.71579e-05
7.45449e-05
0.00021732
6.32172e-05
6.32166e-05
7.16319e-05
8.0401e-05
9.08196e-05
0.000105748
0.000174847
0.000161852
0.00021747
6.35123e-05
6.35118e-05
0.000191155
7.85653e-05
0.000154934
7.11922e-05
7.16268e-05
9.4375e-05
0.000163905
0.000169721
0.00018081
0.000165707
0.0001639
3.58099e-05
0.000264571
4.56779e-05
4.42581e-05
0.000213729
0.000212246
4.58641e-05
3.18554e-05
4.48841e-05
0.000197146
SCALARS rr_uec(SIM,_S_ext) float
LOOKUP_TABLE default
0.0183274
0.041707
0.0333119
0.0435366
0.0227557
0.0353558
0.0181217
0.0432953
0.0372341
0.0468699
0.0166325
0.0434279
0.0382186
0.0403608
0.0472764
0.0396986
0.0341373
0.0385976
0.034582
0.0338047
0.038027
0.00674516
0.0389626
0.035909
0.0325503
0.0375452
0.0154055
0.0329814
0.025899
0.0304495
0.033764
0.026773
0.0170659
0.0228176
0.022425
0.0228691
0.0296025
0.0224711
0.0337297
0.0191821
0.021769
0.0260892
0.026092
0.0370557
0.0214102
0.0236136
0.0325428
0.0329527
0.0308772
0.0295755
0.0303675
0.0235447
0.0365242
0.0302538
0.0336266
0.0155303
0.0239435
0.0304756
0.0239427
0.0368519
0.0435778
0.0427038
0.0151497
0.0301096
0.0409024
0.0386064
0.0421527
0.0364663
0.0335849
0.0478666
0.0396273
0.0391955
0.026897
0.0312485
0.033107
0.0176173
0.0340746
0.0382483
0.0367733
0.0259817
0.0234533
0.0256832
0.0486374
0.0234869
0.0316622
0.0117639
0.0380986
0.0318323
0.0226735
0.00331951
0.0262155
0.00361032
0.0289132
0.0277138
0.02481
0.0226335
0.0215402
0.0411493
0.0341
0.0328372
0.0279066
0.026778
0.022536
0.0389757
0.0396198
0.0356781
0.0313722
0.0318323
0.0239226
0.0475401
0.0305547
0.0161488
0.0215809
0.0426564
0.0399596
0.0292161
0.027765
0.0178993
0.0287983
0.0291005
0.0253073
0.0460856
0.0475329
0.0408256
0.0449176
0.0352335
0.0199265
0.0444285
0.0195089
0.0251582
0.0206999
0.0424084
0.0414173
0.0416391
0.0278508
0.0168699
0.0186752
0.0305178
0.0372907
0.0168642
0.0232606
0.0359646
0.0272595
0.0439123
0.0217859
0.0358332
0.0325203
0.0314439
0.0200982
0.0256929
0.0286431
0.0409226
0.0240222
0.0370547
0.0429142
0.0435988
0.0285265
0.0239587
0.0238226
0.0374105
0.0314119
0.0238223
0.0157682
0.0232678
0.0231398
0.0400553
0.0242815
0.0245494
0.026596
0.0236621
0.0353026
0.0247809
0.0219455
0.0275646
0.0261798
0.0313518
0.0349188
0.0336214
0.0285493
0.0335383
0.0258135
0.0388602
0.0417076
0.0232644
0.0408487
0.0232574
0.0403422
0.0370846
0.0346168
0.0352473
0.0412069
0.0195591
0.0256168
0.0238239
0.0415647
0.0409243
0.0379417
0.0413155
0.0420718
0.035332
0.0433285
0.0290801
0.02625
0.0473004
0.0276481
0.042961
0.0342241
0.0218615
0.0262765
0.042874
0.0356717
0.032486
0.0418526
0.0410489
0.0265732
0.0263388
0.0255987
0.0364151
0.0401861
0.0461841
0.0443717
0.048276
0.0437451
0.0478053
0.0401098
0.0419023
0.0422289
0.0398086
0.0418207
0.038493
0.03792
0.0269279
0.0361428
0.0422908
0.0293816
0.0430755
0.039571
0.0458513
0.0275979
0.0436052
0.0416821
0.0270999
0.0373374
0.0269171
0.041959
0.0383118
0.0282151
0.0265585
0.0229767
0.0264305
0.0420168
0.0192951
0.0323909
0.02646
0.0296824
0.0436462
0.042245
0.0132412
0.0423988
0.0231109
0.0250472
0.0434079
0.0352856
0.0253427
0.0484278
0.0275565
0.0132412
0.0256126
0.0376743
0.0470254
0.0356572
0.0419375
0.0392811
0.0206143
0.020213
0.0173017
0.0198647
0.0280967
0.0214988
0.0346296
0.0216798
0.0372851
0.0266316
0.0256514
0.0299894
0.0278962
0.0370429
0.02675
0.0275306
0.0121367
0.0277169
0.0400928
0.0401215
0.0363467
0.0266982
0.0173716
0.0504556
0.0339098
0.0283237
0.0261127
0.0259861
0.0269331
0.0327957
0.02645
0.0189552
0.0261027
0.0179124
0.0323221
0.0266318
0.0113122
0.0250829
0.0296447
0.0266331
0.0409621
0.0276565
0.0356558
0.0136888
0.0286207
0.027346
0.0238667
0.0256721
0.0302883
0.0285001
0.0298062
0.025357
0.0257554
0.0278116
0.0371631
0.0262276
0.0371467
0.0335349
0.0264559
0.0272093
0.027469
0.0303785
0.0274234
0.0256793
0.0291788
0.0305861
0.036116
0.0274631
0.0272883
0.0394902
0.038937
0.0262476
0.0264616
0.0118375
0.0319815
0.0222061
0.0300209
0.013303
0.0138092
0.0123407
0.0125428
0.0133064
0.0140176
0.0144456
0.0336708
0.0249109
0.025145
0.0287519
0.0280101
0.0276607
0.029251
0.0270697
0.0276865
0.0281299
0.0275581
0.0338221
0.0250615
0.0347666
0.0270597
0.026124
0.027593
0.0294252
0.0307584
0.0286588
0.0328179
0.0306632
0.0284374
0.0205109
0.0285992
0.0279631
0.0300988
0.0288473
0.0273351
0.025995
0.0286327
0.0298634
0.0405353
0.0267795
0.0394102
0.0410856
0.0281366
0.0393593
0.0301965
0.0241928
0.0329429
0.0288816
0.0207885
0.0182837
0.0325225
0.0346378
0.0293314
0.0243848
0.0293292
0.0139242
0.0289999
0.0272118
0.0139055
0.00532034
0.00581996
0.0251199
0.0267907
0.0311122
0.0299107
0.00273478
0.00285757
0.0296154
0.0299242
0.0283265
0.0104517
0.0250689
0.0291321
0.0297132
0.025631
0.0226227
0.0108845
0.0429034
0.0269588
0.0329343
0.0334492
0.0240409
0.0304255
0.0235056
0.0259371
0.0128985
0.0194595
0.0304617
0.0306474
0.0263421
0.0276682
0.0285508
0.0301036
0.0287938
0.0142062
0.0252554
0.0284871
0.0269175
0.0403924
0.0142035
0.0218661
0.022523
0.0213362
0.0138672
0.0138682
0.0244446
0.019748
0.0282384
0.0152036
0.0165607
0.00540614
0.00540612
0.0113436
0.0179817
0.012114
0.0240605
0.0260139
0.0277699
0.0312881
0.0283774
0.0262719
0.0206873
0.0128155
0.0259759
0.0269078
0.0260498
0.0143994
0.0132881
0.0103646
0.0260133
0.0265416
0.0213357
0.0240915
0.0222304
0.0203481
0.0272463
0.0203464
0.0240495
0.0231827
0.0142056
0.0175382
0.0163305
0.0288099
0.0114078
0.0120174
0.0117571
0.0272062
0.0108618
0.0106389
0.0189346
0.00992223
0.0220217
0.0220551
0.010185
0.0239951
0.0113028
0.0112385
0.0126584
0.0107225
0.010525
0.0156836
0.0125096
0.0113709
0.0107557
0.0219671
0.0250678
0.0118367
0.0242461
0.00975463
0.0245953
0.0195437
0.0101908
0.00862702
0.00962706
0.0127729
0.0211245
0.0173822
0.00726912
0.00806887
0.0235466
0.00684261
0.00684255
0.0077535
0.00870385
0.00985257
0.0114506
0.0189383
0.0175276
0.0235633
0.0068753
0.00687525
0.0207003
0.00852691
0.0167912
0.00772643
0.00777065
0.0102385
0.0177457
0.0183754
0.0195763
0.017941
0.0177452
0.00387613
0.0286448
0.00494467
0.0047904
0.0231398
0.0229793
0.0049642
0.00344808
0.00485873
0.0213451
SCALARS rr_uec(PEX,_P_ext) float
LOOKUP_TABLE default
-0.0641459
-0.146168
-0.116733
-0.152576
-0.0797789
-0.123895
-0.0634255
-0.151729
-0.130463
-0.164262
-0.058217
-0.152194
-0.133934
-0.141452
-0.165724
-0.139116
-0.119647
-0.135263
-0.121162
-0.118455
-0.133249
-0.023659
-0.136527
-0.12583
-0.11406
-0.131578
-0.0539332
-0.115576
-0.0907072
-0.106773
-0.118323
-0.0937685
-0.0597451
-0.0800047
-0.0786316
-0.080185
-0.103805
-0.0787919
-0.118202
-0.067154
-0.0762424
-0.0914852
-0.0914949
-0.129858
-0.0749631
-0.0827046
-0.114021
-0.115464
-0.108202
-0.103575
-0.106354
-0.0824732
-0.128047
-0.105974
-0.117887
-0.0543784
-0.0839562
-0.106751
-0.0839535
-0.129134
-0.152733
-0.149688
-0.0530425
-0.105541
-0.143373
-0.135311
-0.147739
-0.127797
-0.117684
-0.167756
-0.138925
-0.137411
-0.0942023
-0.109527
-0.116015
-0.0616716
-0.119449
-0.134055
-0.128873
-0.0910122
-0.0821329
-0.0900462
-0.170476
-0.0822471
-0.110897
-0.0411896
-0.133508
-0.111571
-0.0793862
-0.0116426
-0.0918287
-0.0126625
-0.101356
-0.0971319
-0.0869067
-0.0792662
-0.0754334
-0.144213
-0.119538
-0.115074
-0.0977671
-0.0937928
-0.0789169
-0.13659
-0.138851
-0.125037
-0.109963
-0.111551
-0.0837723
-0.166614
-0.107068
-0.056544
-0.0755687
-0.149488
-0.140041
-0.10234
-0.0973561
-0.0626826
-0.100979
-0.101936
-0.0886647
-0.161547
-0.166585
-0.143092
-0.157424
-0.12351
-0.0698677
-0.155705
-0.06832
-0.0881264
-0.0725695
-0.148624
-0.145169
-0.145929
-0.0975509
-0.0591532
-0.0653955
-0.106948
-0.130706
-0.0591332
-0.0814742
-0.126044
-0.0955065
-0.153896
-0.0762931
-0.125579
-0.11397
-0.110188
-0.0704287
-0.090008
-0.100363
-0.143419
-0.0841338
-0.129856
-0.150398
-0.152796
-0.0999789
-0.0839205
-0.0834443
-0.131102
-0.110065
-0.0834345
-0.0552108
-0.081489
-0.081052
-0.140377
-0.0850512
-0.0859894
-0.0931484
-0.0828817
-0.123755
-0.0868039
-0.0768576
-0.0966087
-0.0917041
-0.109891
-0.12241
-0.117827
-0.100089
-0.117538
-0.0904081
-0.13619
-0.146169
-0.0814877
-0.143173
-0.0814517
-0.141397
-0.129986
-0.121352
-0.123528
-0.144429
-0.0684968
-0.0897319
-0.0834395
-0.145668
-0.143416
-0.132965
-0.144812
-0.147446
-0.123834
-0.151851
-0.101888
-0.0919527
-0.165788
-0.0968335
-0.15058
-0.119951
-0.0765716
-0.0921073
-0.150258
-0.125043
-0.113855
-0.146675
-0.143879
-0.0930923
-0.0923116
-0.0896727
-0.127639
-0.140841
-0.161862
-0.155508
-0.169193
-0.153313
-0.167543
-0.140571
-0.146883
-0.148028
-0.139545
-0.146598
-0.134948
-0.132939
-0.0943341
-0.126669
-0.148208
-0.102951
-0.150998
-0.138714
-0.160687
-0.0966748
-0.152813
-0.14608
-0.0949381
-0.13088
-0.094297
-0.147069
-0.134262
-0.0988449
-0.0930353
-0.0804634
-0.092559
-0.147271
-0.0675692
-0.11351
-0.0926897
-0.103997
-0.152957
-0.148057
-0.0464324
-0.148595
-0.0809309
-0.0877405
-0.152123
-0.123659
-0.0887743
-0.169725
-0.0965478
-0.0464325
-0.0897213
-0.132039
-0.164821
-0.124959
-0.147008
-0.137678
-0.0722698
-0.0708347
-0.060582
-0.0695529
-0.098498
-0.0753333
-0.12136
-0.0759498
-0.130697
-0.0933387
-0.0898573
-0.105108
-0.0977313
-0.129821
-0.0937158
-0.0964393
-0.042564
-0.0971642
-0.140543
-0.140643
-0.127383
-0.0935353
-0.0609086
-0.176842
-0.118818
-0.0992304
-0.0914805
-0.0910986
-0.0943536
-0.114967
-0.0926636
-0.0663676
-0.0914487
-0.0627279
-0.113293
-0.093298
-0.0396721
-0.0878741
-0.103905
-0.093301
-0.143571
-0.0968901
-0.124948
-0.0479269
-0.100292
-0.0957999
-0.0836681
-0.0899351
-0.106129
-0.0998924
-0.10446
-0.0888341
-0.090232
-0.0974411
-0.130262
-0.0918861
-0.130181
-0.117516
-0.092749
-0.0953258
-0.0962403
-0.106447
-0.0960817
-0.0899643
-0.102233
-0.107213
-0.126568
-0.0962202
-0.0955972
-0.138399
-0.136461
-0.0919556
-0.0927689
-0.0414316
-0.112072
-0.077765
-0.105195
-0.0465264
-0.0482968
-0.0431611
-0.0438677
-0.0465387
-0.0490257
-0.0505229
-0.118021
-0.0873399
-0.0881186
-0.100744
-0.0981377
-0.0969131
-0.102513
-0.0948415
-0.097002
-0.0986265
-0.0965538
-0.118559
-0.0877863
-0.121867
-0.0948232
-0.0915365
-0.0966756
-0.103156
-0.107786
-0.100419
-0.115003
-0.107442
-0.0996329
-0.0718479
-0.100209
-0.0979896
-0.105507
-0.101072
-0.0957697
-0.0910782
-0.100326
-0.104648
-0.142061
-0.0938267
-0.138117
-0.143971
-0.0985879
-0.137936
-0.105814
-0.0847624
-0.115464
-0.101201
-0.0728854
-0.0640165
-0.113996
-0.121415
-0.102784
-0.0854446
-0.102795
-0.0487361
-0.101622
-0.0953501
-0.0486857
-0.0186585
-0.0204108
-0.0880272
-0.0938654
-0.109019
-0.104798
-0.00959297
-0.0100237
-0.103788
-0.10487
-0.0992705
-0.0365822
-0.0878308
-0.102109
-0.104112
-0.0898075
-0.0792677
-0.0380958
-0.150374
-0.0944536
-0.115411
-0.117215
-0.084236
-0.106609
-0.0823601
-0.0908809
-0.0451564
-0.0681458
-0.106736
-0.107397
-0.0923029
-0.0969448
-0.100041
-0.105484
-0.100893
-0.0497401
-0.0885312
-0.0998095
-0.0943417
-0.141574
-0.0497304
-0.0766241
-0.078925
-0.0748007
-0.0486318
-0.048635
-0.0856929
-0.0691884
-0.0989547
-0.0532312
-0.058076
-0.0189628
-0.0189627
-0.0397021
-0.0630501
-0.0424784
-0.0843128
-0.0911923
-0.0973171
-0.109654
-0.0994624
-0.0920859
-0.072499
-0.0448556
-0.0910278
-0.0943068
-0.0913054
-0.0504068
-0.0465934
-0.0362876
-0.0911766
-0.0930199
-0.0747458
-0.0844262
-0.0779064
-0.0713371
-0.0954863
-0.0713309
-0.0842761
-0.0812564
-0.0498117
-0.0614982
-0.0571771
-0.10097
-0.0399263
-0.042061
-0.0411473
-0.0953563
-0.0380168
-0.0372327
-0.066344
-0.0347262
-0.0772093
-0.0773261
-0.0356468
-0.0840793
-0.0395701
-0.0393336
-0.0443149
-0.0375273
-0.0368462
-0.0549929
-0.043797
-0.039799
-0.0376438
-0.0769832
-0.087868
-0.0414373
-0.0849702
-0.0341383
-0.0861975
-0.068482
-0.0356662
-0.0302003
-0.0336924
-0.0447046
-0.0740241
-0.0609441
-0.0254967
-0.0283014
-0.082524
-0.0240007
-0.0240004
-0.0271954
-0.0305255
-0.0344953
-0.040151
-0.0663909
-0.0614543
-0.0825812
-0.0241133
-0.0241131
-0.07258
-0.0298433
-0.0588364
-0.0270424
-0.0272055
-0.0358458
-0.0622305
-0.0644388
-0.0686493
-0.0629149
-0.0622289
-0.0135954
-0.100451
-0.0173421
-0.0168027
-0.0811474
-0.0805844
-0.0174124
-0.0120941
-0.0170408
-0.0748518
SCALARS cell_type float
LOOKUP_TABLE default
0
0
0
0
0
0
0
0
0
0
0
0
0
0
0
0
0
0
0
0
0
1
0
0
0
0
0
0
0
0
0
0
0
0
0
0
0
0
0
0
0
0
0
0
0
0
0
0
0
0
0
0
0
0
0
0
0
0
0
0
0
0
0
0
0
0
0
0
0
0
0
0
0
0
0
0
0
0
0
0
0
0
0
0
0
0
0
0
0
0
0
0
0
0
0
0
0
0
0
0
0
0
0
0
0
0
0
0
0
0
0
0
0
0
0
0
0
0
0
0
0
0
0
0
0
0
0
0
0
0
0
0
0
0
0
0
0
0
0
0
0
0
0
0
0
0
0
0
0
0
0
0
0
0
0
0
0
0
0
0
0
0
0
0
0
0
0
0
0
0
0
0
0
0
0
0
0
0
0
0
0
0
0
0
0
0
0
0
0
0
0
0
0
0
0
0
0
0
0
0
0
0
0
0
0
0
0
0
0
0
0
0
0
0
0
0
0
0
0
0
0
0
0
0
0
0
0
0
0
0
0
0
0
0
0
0
0
0
0
0
0
0
0
0
0
0
0
0
0
0
0
0
0
0
0
0
0
0
0
0
0
0
0
0
0
0
0
0
0
0
0
0
0
0
0
0
0
0
0
0
0
0
0
0
0
0
0
0
0
0
0
0
0
0
0
0
0
0
0
0
0
0
0
0
0
0
0
0
0
0
0
0
0
0
0
0
0
0
0
0
0
0
0
0
0
0
0
0
0
0
0
0
0
0
0
0
0
0
0
0
0
0
0
0
0
0
0
0
0
0
2
2
2
2
2
2
2
0
0
0
0
0
0
0
0
0
0
0
0
0
0
0
0
0
0
0
0
0
0
0
0
0
0
0
0
0
0
0
0
0
0
0
0
0
0
0
0
0
0
0
0
0
0
0
0
0
0
0
0
0
0
0
0
0
0
0
1
1
0
0
0
0
0
0
0
0
0
0
0
0
0
0
0
0
0
0
0
0
0
0
0
0
0
0
0
0
0
0
0
0
0
0
0
0
0
0
0
0
0
0
0
1
1
0
0
0
0
0
0
0
0
0
0
0
0
0
0
0
0
0
0
0
0
0
0
0
0
0
0
0
0
0
0
0
0
0
0
0
0
0
0
0
0
0
0
0
0
0
0
0
0
0
0
0
0
0
0
0
0
0
0
0
0
0
0
0
0
0
1
1
0
0
0
0
0
0
0
0
0
0
0
0
0
0
0
0
0
0
0
0
0
0
0
0
0
0
0
0
0
0
0
0
0
TENSORS Lagrange_strain float
0.0305727 -0.00319856 3.45266e-08
-0.00319856 0.0133909 -1.60559e-07
3.45266e-08 -1.60559e-07 0.00740314

0.0291985 -0.00280122 -1.20708e-07
-0.00280122 0.0335599 -2.22606e-08
-1.20708e-07 -2.22606e-08 0.033169

0.0300271 0.0036797 -3.12836e-08
0.0036797 0.0311754 -5.22706e-09
-3.12836e-08 -5.22706e-09 0.0304733

0.029168 -0.00392487 8.61442e-08
-0.00392487 0.0328052 4.75205e-08
8.61442e-08 4.75205e-08 0.0330939

0.0353716 0.00266906 -6.04726e-08
0.00266906 0.038089 5.78472e-08
-6.04726e-08 5.78472e-08 0.0352971

0.0277405 -0.00236752 -4.97378e-08
-0.00236752 0.0333902 -1.27134e-08
-4.97378e-08 -1.27134e-08 0.0304443

0.0302666 0.00339445 3.04392e-08
0.00339445 0.0134964 1.56287e-08
3.04392e-08 1.56287e-08 0.00746458

0.0317604 0.00394011 1.35704e-07
0.00394011 0.0312058 3.1711e-08
1.35704e-07 3.1711e-08 0.0315661

0.0332483 0.000715583 1.19503e-07
0.000715583 0.0262263 -4.34863e-08
1.19503e-07 -4.34863e-08 0.0281472

0.0354735 -0.000991166 -2.04573e-07
-0.000991166 0.027557 3.01861e-08
-2.04573e-07 3.01861e-08 0.0327265

0.0280662 0.00205158 9.37002e-08
0.00205158 0.013811 6.17958e-09
9.37002e-08 6.17958e-09 0.0117557

0.0279586 -0.00176596 -7.0777e-08
-0.00176596 0.0350127 -7.93076e-08
-7.0777e-08 -7.93076e-08 0.0315547

0.0311269 0.00365776 7.21647e-08
0.00365776 0.031306 -6.50212e-09
7.21647e-08 -6.50212e-09 0.031085

0.0290746 -0.00188039 -1.98045e-08
-0.00188039 0.0348051 -2.28296e-07
-1.98045e-08 -2.28296e-07 0.0325519

0.0346364 0.00441753 -4.41068e-08
0.00441753 0.0343676 3.15555e-08
-4.41068e-08 3.15555e-08 0.0348897

0.0343343 7.31209e-05 -1.80005e-07
7.31209e-05 0.0272914 -7.02596e-08
-1.80005e-07 -7.02596e-08 0.0307839

0.0286986 -0.00235354 1.02291e-07
-0.00235354 0.0360195 1.9316e-07
1.02291e-07 1.9316e-07 0.0334555

0.0345796 -0.000353061 -1.26669e-07
-0.000353061 0.0273617 -6.73029e-08
-1.26669e-07 -6.73029e-08 0.0319826

0.026925 0.00347899 5.29679e-08
0.00347899 0.030951 -9.87657e-08
5.29679e-08 -9.87657e-08 0.0275818

0.0338909 -0.000550755 -6.12166e-08
-0.000550755 0.0264143 1.01228e-07
-6.12166e-08 1.01228e-07 0.0301397

0.0266271 0.00113565 5.17101e-08
0.00113565 0.03404 -1.2503e-07
5.17101e-08 -1.2503e-07 0.0291552

0.045295 0.000851827 -1.40487e-07
0.000851827 0.0452659 -6.59698e-08
-1.40487e-07 -6.59698e-08 0.0366425

0.0336815 0.000247559 7.88471e-08
0.000247559 0.0263203 -3.92448e-08
7.88471e-08 -3.92448e-08 0.0298105

0.029315 -0.00363291 3.2247e-07
-0.00363291 0.0311417 2.2961e-08
3.2247e-07 2.2961e-08 0.0300521

0.0337863 0.000900525 -9.69445e-08
0.000900525 0.0265013 -2.7133e-07
-9.69445e-08 -2.7133e-07 0.0300866

0.0285515 0.00250756 -5.11789e-08
0.00250756 0.0339001 -3.14905e-08
-5.11789e-08 -3.14905e-08 0.0322924

0.0286346 0.000526917 1.74279e-07
0.000526917 0.0176925 -1.60903e-07
1.74279e-07 -1.60903e-07 0.0131738

0.0309198 0.00403522 9.33942e-08
0.00403522 0.0306522 -5.387e-08
9.33942e-08 -5.387e-08 0.0306161

0.0259297 0.00477767 2.0926e-07
0.00477767 0.0257379 -9.78877e-08
2.0926e-07 -9.78877e-08 0.0211321

0.0415317 0.00136992 1.8524e-07
0.00136992 0.0383539 -3.38776e-09
1.8524e-07 -3.38776e-09 0.0361398

0.0344169 0.00187148 1.58887e-07
0.00187148 0.0279577 1.85601e-07
1.58887e-07 1.85601e-07 0.0310055

0.0217635 -0.00228848 1.05456e-07
-0.00228848 0.0299983 -2.04856e-07
1.05456e-07 -2.04856e-07 0.0211289

0.0228672 -0.00535357 -1.39691e-07
-0.00535357 0.0234769 -2.24046e-08
-1.39691e-07 -2.24046e-08 0.0125813

0.0348362 0.000800322 1.8558e-07
0.000800322 0.0422583 -8.47851e-08
1.8558e-07 -8.47851e-08 0.035791

0.0374567 -0.000661261 -3.34856e-08
-0.000661261 0.0412061 4.32574e-08
-3.34856e-08 4.32574e-08 0.0359056

0.0410785 0.00281334 8.91738e-09
0.00281334 0.0359899 1.78136e-08
8.91738e-09 1.78136e-08 0.0357712

0.0372573 0.000704763 1.99609e-07
0.000704763 0.0432176 -1.51188e-07
1.99609e-07 -1.51188e-07 0.0361462

0.0402641 -0.0012189 3.492e-08
-0.0012189 0.0378343 -2.22669e-07
3.492e-08 -2.22669e-07 0.0358129

0.0312213 -0.00367844 -2.68568e-07
-0.00367844 0.0311292 -1.27878e-08
-2.68568e-07 -1.27878e-08 0.0309309

0.0227512 0.00528016 -2.69844e-07
0.00528016 0.0237129 -1.23743e-07
-2.69844e-07 -1.23743e-07 0.0125834

0.0297668 -0.00231648 -1.45059e-07
-0.00231648 0.0220348 5.24422e-08
-1.45059e-07 5.24422e-08 0.0208787

0.0376226 -0.00052254 4.80464e-08
-0.00052254 0.0430665 -8.97043e-08
4.80464e-08 -8.97043e-08 0.0361489

0.0412441 0.00263363 4.7147e-08
0.00263363 0.0394176 3.2422e-08
4.7147e-08 3.2422e-08 0.0361314

0.0343072 -0.00161733 -4.13975e-08
-0.00161733 0.0279998 1.74112e-08
-4.13975e-08 1.74112e-08 0.0310895

0.0231097 -0.00552717 -1.73569e-07
-0.00552717 0.0235668 1.39872e-08
-1.73569e-07 1.39872e-08 0.016219

0.0299492 -0.00233298 5.47089e-10
-0.00233298 0.0221591 -1.41966e-08
5.47089e-10 -1.41966e-08 0.0213483

0.0258984 0.00222801 -3.5201e-08
0.00222801 0.0326607 5.70386e-08
-3.5201e-08 5.70386e-08 0.0279204

0.027556 0.00252939 2.94552e-08
0.00252939 0.03238 -6.36183e-08
2.94552e-08 -6.36183e-08 0.028496

0.0341815 -0.00214108 1.06461e-07
-0.00214108 0.0271123 1.58909e-07
1.06461e-07 1.58909e-07 0.0304776

0.0229065 -0.00439358 -1.48978e-07
-0.00439358 0.0272542 1.25917e-07
-1.48978e-07 1.25917e-07 0.0198541

0.0294996 0.0024722 1.17921e-07
0.0024722 0.021838 -9.57621e-08
1.17921e-07 -9.57621e-08 0.0202848

0.029878 -0.00327169 5.88217e-08
-0.00327169 0.024518 -2.36694e-07
5.88217e-08 -2.36694e-07 0.0230525

0.0344817 0.00257737 -9.53917e-08
0.00257737 0.0382079 1.36721e-07
-9.53917e-08 1.36721e-07 0.0352759

0.0286948 0.00383959 1.25489e-07
0.00383959 0.0257845 -9.5901e-08
1.25489e-07 -9.5901e-08 0.0231211

0.0349329 -0.00291596 -1.58152e-07
-0.00291596 0.0374367 -2.5242e-07
-1.58152e-07 -2.5242e-07 0.0351942

0.0255846 -0.00545652 1.1051e-07
-0.00545652 0.0229063 -1.70777e-07
1.1051e-07 -1.70777e-07 0.0158225

0.0373502 0.000745603 3.04235e-08
0.000745603 0.0414161 -3.95668e-08
3.04235e-08 -3.95668e-08 0.0359261

0.0231718 -0.000693473 1.56334e-07
-0.000693473 0.0313194 -1.18094e-07
1.56334e-07 -1.18094e-07 0.0231072

0.0410328 0.00137986 -1.30569e-07
0.00137986 0.037711 -4.97441e-09
-1.30569e-07 -4.97441e-09 0.0359042

0.027681 0.00280578 6.77984e-08
0.00280578 0.0327559 7.35028e-08
6.77984e-08 7.35028e-08 0.0302366

0.036145 0.000784835 8.65448e-10
0.000784835 0.0281373 2.71735e-07
8.65448e-10 2.71735e-07 0.0336786

0.0362603 0.00153429 -5.53466e-08
0.00153429 0.0316981 -2.82981e-07
-5.53466e-08 -2.82981e-07 0.034226

0.0286422 0.00405777 3.54962e-08
0.00405777 0.0199005 -2.70083e-07
3.54962e-08 -2.70083e-07 0.0137617

0.0309776 -0.000784107 -1.5472e-07
-0.000784107 0.0370905 3.30639e-08
-1.5472e-07 3.30639e-08 0.0338869

0.0315603 0.00124388 2.00455e-08
0.00124388 0.0364263 1.74638e-07
2.00455e-08 1.74638e-07 0.0342649

0.028554 -0.000375508 1.46152e-07
-0.000375508 0.0369621 1.26123e-08
1.46152e-07 1.26123e-08 0.0326761

0.0296082 0.00307113 1.485e-07
0.00307113 0.0347972 8.05163e-08
1.485e-07 8.05163e-08 0.0337144

0.0347258 0.00112238 -1.09768e-07
0.00112238 0.0278441 1.65725e-07
-1.09768e-07 1.65725e-07 0.0322142

0.0291928 -0.00369989 -4.98138e-08
-0.00369989 0.0310272 -4.82054e-08
-4.98138e-08 -4.82054e-08 0.0299151

0.035061 -0.000237031 1.50039e-08
-0.000237031 0.0275858 3.43861e-08
1.50039e-08 3.43861e-08 0.0333987

0.0344563 -0.00254755 -6.55805e-08
-0.00254755 0.0381385 -1.87445e-07
-6.55805e-08 -1.87445e-07 0.0352659

0.0350158 0.00284964 5.87318e-08
0.00284964 0.0375741 -1.4835e-08
5.87318e-08 -1.4835e-08 0.0352457

0.0218925 -0.00213232 -5.65175e-08
-0.00213232 0.029928 2.36324e-07
-5.65175e-08 2.36324e-07 0.0208553

0.0347072 -0.00369127 -1.17076e-07
-0.00369127 0.0319628 1.99183e-07
-1.17076e-07 1.99183e-07 0.0330843

0.0292977 -0.00329793 4.10737e-09
-0.00329793 0.0321191 4.69419e-08
4.10737e-09 4.69419e-08 0.0304389

0.0267845 -0.00401784 -2.32435e-07
-0.00401784 0.0176081 6.85492e-08
-2.32435e-07 6.85492e-08 0.0127283

0.0324086 0.00041886 -8.47838e-08
0.00041886 0.0381101 -3.38435e-08
-8.47838e-08 -3.38435e-08 0.0344109

0.034543 0.00381777 -1.63527e-07
0.00381777 0.030947 -4.4299e-08
-1.63527e-07 -4.4299e-08 0.0326656

0.028382 0.00258172 -6.9869e-08
0.00258172 0.0341356 -1.98626e-07
-6.9869e-08 -1.98626e-07 0.0322194

0.0315483 0.00103806 -1.4365e-07
0.00103806 0.022848 2.2219e-07
-1.4365e-07 2.2219e-07 0.0240738

0.0271025 -0.00435975 -4.08356e-09
-0.00435975 0.023741 2.89279e-08
-4.08356e-09 2.89279e-08 0.018327

0.0362637 -0.00140283 2.82848e-07
-0.00140283 0.038747 2.67446e-08
2.82848e-07 2.67446e-08 0.0354061

0.0315616 0.00317119 1.42739e-08
0.00317119 0.0344066 3.06369e-08
1.42739e-08 3.06369e-08 0.0340957

0.0273067 -0.00415714 -1.25388e-07
-0.00415714 0.0221788 -1.14212e-07
-1.25388e-07 -1.14212e-07 0.0184149

0.0303641 0.00139142 -4.88853e-08
0.00139142 0.0228345 2.19672e-07
-4.88853e-08 2.19672e-07 0.0209586

0.0186051 -0.00269763 1.65486e-07
-0.00269763 0.0289339 -1.39657e-07
1.65486e-07 -1.39657e-07 0.015896

0.0272051 0.0018894 1.28896e-07
0.0018894 0.0343265 5.99962e-08
1.28896e-07 5.99962e-08 0.03066

0.0353874 0.00305763 -6.58128e-08
0.00305763 0.0308254 -7.05348e-08
-6.58128e-08 -7.05348e-08 0.0327591

0.0226519 0.00538724 -9.53173e-08
0.00538724 0.0240929 7.85586e-08
-9.53173e-08 7.85586e-08 0.0162016

0.0459505 0.00223745 9.79833e-07
0.00223745 0.0417527 -2.6711e-07
9.79833e-07 -2.6711e-07 0.0366435

0.0230855 -0.000534419 -1.03537e-07
-0.000534419 0.0313605 1.37887e-07
-1.03537e-07 1.37887e-07 0.023077

0.0463635 -0.00225532 6.4486e-07
-0.00225532 0.0412967 4.22401e-07
6.4486e-07 4.22401e-07 0.0365986

0.0370695 -0.00362436 -1.60121e-07
-0.00362436 0.0334962 -2.48736e-07
-1.60121e-07 -2.48736e-07 0.034626

0.0351433 0.00361928 -7.23868e-08
0.00361928 0.0300092 -4.61307e-08
-7.23868e-08 -4.61307e-08 0.0324618

0.0299678 -0.00315969 3.48712e-08
-0.00315969 0.0246951 -6.7809e-08
3.48712e-08 -6.7809e-08 0.0232904

0.0230164 0.00403089 -1.09382e-07
0.00403089 0.0277842 7.09439e-08
-1.09382e-07 7.09439e-08 0.020386

0.0210976 -0.00137892 -4.31691e-08
-0.00137892 0.029901 1.92823e-07
-4.31691e-08 1.92823e-07 0.018255

0.0287516 0.00288897 1.54829e-07
0.00288897 0.0342333 -1.5869e-07
1.54829e-07 -1.5869e-07 0.0327053

0.0370169 0.00223615 -1.09426e-07
0.00223615 0.0334568 7.58212e-08
-1.09426e-07 7.58212e-08 0.0343894

0.0281539 0.00198868 -1.52765e-10
0.00198868 0.0340663 1.59543e-07
-1.52765e-10 1.59543e-07 0.0308709

0.0318889 0.0020735 -1.46537e-07
0.0020735 0.0252588 2.18322e-07
-1.46537e-07 2.18322e-07 0.0256223

0.0239119 -0.00277514 -9.33807e-08
-0.00277514 0.0297707 2.32615e-07
-9.33807e-08 2.32615e-07 0.0215656

0.027904 -0.0037647 1.03673e-08
-0.0037647 0.021819 6.44644e-08
1.03673e-08 6.44644e-08 0.0180794

0.0293374 -0.00323222 6.57172e-08
-0.00323222 0.0326357 -1.21545e-07
6.57172e-08 -1.21545e-07 0.0324085

0.030632 0.00361532 -4.82235e-09
0.00361532 0.0322342 -1.18887e-07
-4.82235e-09 -1.18887e-07 0.0323762

0.028714 0.00304822 6.75305e-08
0.00304822 0.0340333 -1.65934e-08
6.75305e-08 -1.65934e-08 0.0326357

0.029212 0.00172524 -2.27328e-07
0.00172524 0.0376225 4.15903e-08
-2.27328e-07 4.15903e-08 0.0338513

0.0344837 0.00123272 1.12437e-08
0.00123272 0.027529 -1.24999e-07
1.12437e-08 -1.24999e-07 0.0306802

0.019964 -0.000605367 1.75868e-07
-0.000605367 0.0296663 -1.10946e-07
1.75868e-07 -1.10946e-07 0.0181073

0.0298033 -0.00486258 7.7535e-08
-0.00486258 0.0330547 -9.83463e-08
7.7535e-08 -9.83463e-08 0.033747

0.0290869 0.00360071 1.12632e-08
0.00360071 0.0313653 2.31252e-09
1.12632e-08 2.31252e-09 0.0302694

0.0181084 0.000282943 2.51191e-08
0.000282943 0.0293163 1.7762e-07
2.51191e-08 1.7762e-07 0.0168816

0.0278486 0.00442486 2.24738e-07
0.00442486 0.0209717 -1.22048e-07
2.24738e-07 -1.22048e-07 0.017458

0.0291969 -0.00302085 5.85716e-08
-0.00302085 0.0327093 1.63375e-07
5.85716e-08 1.63375e-07 0.0321909

0.0352489 0.000759747 -7.39768e-09
0.000759747 0.0273444 -2.79134e-08
-7.39768e-09 -2.79134e-08 0.0325583

0.0294329 0.00352109 -6.99618e-08
0.00352109 0.0252058 1.80979e-07
-6.99618e-08 1.80979e-07 0.0231155

0.0396401 0.00170964 1.50109e-07
0.00170964 0.0390418 -7.88623e-09
1.50109e-07 -7.88623e-09 0.0359446

0.0283803 0.00312416 -2.7171e-07
0.00312416 0.0224053 1.92429e-07
-2.7171e-07 1.92429e-07 0.0182898

0.0394929 -0.0017504 1.41263e-07
-0.0017504 0.0390678 -1.84468e-07
1.41263e-07 -1.84468e-07 0.0359098

0.0232651 0.000103624 -1.60782e-08
0.000103624 0.031524 -1.40386e-07
-1.60782e-08 -1.40386e-07 0.0231239

0.032765 -0.000288538 1.60475e-07
-0.000288538 0.0246644 -8.49144e-10
1.60475e-07 -8.49144e-10 0.0269711

0.0380592 -0.00212883 -5.7492e-08
-0.00212883 0.0304691 -2.51858e-08
-5.7492e-08 -2.51858e-08 0.0347982

0.0292438 0.00320586 1.85394e-07
0.00320586 0.033284 -9.25223e-08
1.85394e-07 -9.25223e-08 0.0333483

0.0289561 -0.00177278 5.64197e-09
-0.00177278 0.0366143 1.97082e-07
5.64197e-09 1.97082e-07 0.0335048

0.0365892 -0.00108478 9.87683e-08
-0.00108478 0.0264825 -9.70603e-08
9.87683e-08 -9.70603e-08 0.0338653

0.031185 -0.00292547 -1.46909e-07
-0.00292547 0.0383101 -1.28758e-07
-1.46909e-07 -1.28758e-07 0.0348485

0.0381688 -0.000885572 3.65408e-08
-0.000885572 0.0387343 1.08214e-07
3.65408e-08 1.08214e-07 0.0358399

0.0301856 -0.00394007 -7.73331e-08
-0.00394007 0.0327166 1.64002e-07
-7.73331e-08 1.64002e-07 0.0327687

0.0213363 0.00146989 1.62354e-08
0.00146989 0.0296192 1.7277e-07
1.62354e-08 1.7277e-07 0.0182989

0.0293934 -0.00364657 9.60555e-08
-0.00364657 0.0253537 -1.51192e-07
9.60555e-08 -1.51192e-07 0.0231862

0.0328634 -0.00181656 1.13136e-07
-0.00181656 0.0397213 9.92333e-08
1.13136e-07 9.92333e-08 0.0352457

0.0350972 7.68616e-05 8.00599e-09
7.68616e-05 0.0272278 -2.6603e-08
8.00599e-09 -2.6603e-08 0.0332566

0.0308235 -0.00282899 1.31981e-07
-0.00282899 0.0348968 -1.49191e-08
1.31981e-07 -1.49191e-08 0.0340892

0.02954 0.0033889 -3.04012e-08
0.0033889 0.032877 -6.37643e-08
-3.04012e-08 -6.37643e-08 0.0333313

0.0264652 -0.00406432 -2.44311e-08
-0.00406432 0.0272668 1.28834e-07
-2.44311e-08 1.28834e-07 0.0215884

0.0371753 -0.000957484 -1.32265e-08
-0.000957484 0.0416132 -1.17659e-07
-1.32265e-08 -1.17659e-07 0.0358909

0.0227146 -0.00423852 -1.55462e-08
-0.00423852 0.0272484 -8.68703e-08
-1.55462e-08 -8.68703e-08 0.0168804

0.034189 -0.0025254 1.10041e-07
-0.0025254 0.0286115 -1.92616e-07
1.10041e-07 -1.92616e-07 0.0310496

0.0364309 0.00029016 -1.62997e-07
0.00029016 0.0294427 -3.51706e-08
-1.62997e-07 -3.51706e-08 0.0341988

0.0396444 0.00239654 -4.36407e-09
0.00239654 0.039116 3.39416e-08
-4.36407e-09 3.39416e-08 0.0358719

0.0238603 0.00260982 7.70975e-09
0.00260982 0.0301574 -1.44414e-07
7.70975e-09 -1.44414e-07 0.0218028

0.0334366 0.00358202 -1.41622e-07
0.00358202 0.0307207 5.3875e-09
-1.41622e-07 5.3875e-09 0.0317723

0.0316491 -0.00319496 -3.40893e-08
-0.00319496 0.0265567 1.4674e-07
-3.40893e-08 1.4674e-07 0.0269402

0.0289343 -0.00234125 -9.94568e-08
-0.00234125 0.034241 -3.19945e-08
-9.94568e-08 -3.19945e-08 0.0326112

0.026249 0.00450245 1.50178e-07
0.00450245 0.0245619 -1.70209e-07
1.50178e-07 -1.70209e-07 0.0180844

0.0284282 -0.00286694 9.59068e-08
-0.00286694 0.034038 -1.75367e-07
9.59068e-08 -1.75367e-07 0.0324543

0.0331548 0.00405958 -1.21527e-07
0.00405958 0.0304697 -5.68647e-08
-1.21527e-07 -5.68647e-08 0.0315474

0.0333407 -0.00331212 1.99194e-08
-0.00331212 0.0283619 -2.10463e-08
1.99194e-08 -2.10463e-08 0.0300509

0.0291664 -0.00329589 2.03992e-07
-0.00329589 0.0319936 -9.91842e-08
2.03992e-07 -9.91842e-08 0.0304426

0.0314613 -0.0024298 2.13923e-07
-0.0024298 0.0247233 -2.15405e-07
2.13923e-07 -2.15405e-07 0.0251608

0.0329617 -0.00246725 -9.18739e-08
-0.00246725 0.0267143 1.39951e-07
-9.18739e-08 1.39951e-07 0.0286016

0.0294971 -0.00334206 9.7109e-08
-0.00334206 0.0329562 -1.70639e-07
9.7109e-08 -1.70639e-07 0.0334127

0.0261388 0.00463501 -1.58135e-08
0.00463501 0.0255459 -1.05444e-07
-1.58135e-08 -1.05444e-07 0.0210962

0.0281554 0.00201688 -2.89089e-08
0.00201688 0.034342 3.22202e-08
-2.89089e-08 3.22202e-08 0.0311147

0.0308921 0.00348155 1.49271e-07
0.00348155 0.0322611 5.52598e-08
1.49271e-07 5.52598e-08 0.0326055

0.029163 0.0033482 2.35114e-08
0.0033482 0.0331981 -1.12955e-07
2.35114e-08 -1.12955e-07 0.0332658

0.0289894 0.00152333 -1.97574e-07
0.00152333 0.0354764 -9.24863e-08
-1.97574e-07 -9.24863e-08 0.0327008

0.0310589 -0.00106196 1.36975e-07
-0.00106196 0.0231455 2.30791e-07
1.36975e-07 2.30791e-07 0.022082

0.023888 0.00240615 3.1073e-08
0.00240615 0.0304164 -6.2194e-08
3.1073e-08 -6.2194e-08 0.022117

0.0292188 -0.00320451 4.27589e-08
-0.00320451 0.0326426 -1.08406e-07
4.27589e-08 -1.08406e-07 0.0316239

0.028993 0.00335768 -6.29226e-08
0.00335768 0.0309386 -8.07893e-08
-6.29226e-08 -8.07893e-08 0.0285732

0.0266175 -0.00459228 1.2849e-07
-0.00459228 0.0252349 -1.48631e-07
1.2849e-07 -1.48631e-07 0.0212605

0.0262825 0.00489456 1.30271e-07
0.00489456 0.0209498 -9.22601e-08
1.30271e-07 -9.22601e-08 0.0167654

0.0235068 -0.00428787 1.11785e-07
-0.00428787 0.0274697 -1.73442e-07
1.11785e-07 -1.73442e-07 0.0206302

0.0266766 -0.00402843 1.17718e-07
-0.00402843 0.0274878 -1.7339e-07
1.17718e-07 -1.7339e-07 0.0220541

0.0353714 -0.000906551 3.49215e-08
-0.000906551 0.0273962 -1.6992e-07
3.49215e-08 -1.6992e-07 0.0326605

0.0260502 0.00392263 2.32154e-08
0.00392263 0.0280975 1.90479e-07
2.32154e-08 1.90479e-07 0.0221066

0.0307941 0.00171693 2.35634e-07
0.00171693 0.0233644 -1.63421e-07
2.35634e-07 -1.63421e-07 0.0220297

0.0214346 0.00172256 -6.68699e-08
0.00172256 0.0302467 -8.04071e-08
-6.68699e-08 -8.04071e-08 0.0211367

0.024267 -0.00289014 9.7349e-08
-0.00289014 0.0299577 -2.05304e-07
9.7349e-08 -2.05304e-07 0.0220903

0.0313506 -0.00013119 -1.19245e-07
-0.00013119 0.0392785 -9.2605e-08
-1.19245e-07 -9.2605e-08 0.0346761

0.0230624 0.000294809 -9.47887e-08
0.000294809 0.0314669 1.38446e-07
-9.47887e-08 1.38446e-07 0.0230666

0.022781 0.00400242 -1.50134e-07
0.00400242 0.0281326 1.75985e-07
-1.50134e-07 1.75985e-07 0.020642

0.0288941 0.00158582 8.11301e-08
0.00158582 0.0358386 -2.21217e-07
8.11301e-08 -2.21217e-07 0.0328993

0.0293216 -0.00358107 2.92668e-08
-0.00358107 0.0251342 -7.73479e-08
2.92668e-08 -7.73479e-08 0.0232442

0.0369821 0.00273324 -9.56457e-08
0.00273324 0.0297286 -2.5539e-07
-9.56457e-08 -2.5539e-07 0.0338073

0.0371806 0.00348312 8.80724e-08
0.00348312 0.0334279 3.53175e-08
8.80724e-08 3.53175e-08 0.0346576

0.0345505 -0.00244689 -3.62544e-08
-0.00244689 0.0285352 -2.71631e-08
-3.62544e-08 -2.71631e-08 0.0313846

0.0390611 -0.000266163 -7.4853e-08
-0.000266163 0.0339296 -5.82667e-08
-7.4853e-08 -5.82667e-08 0.0352135

0.0314855 -0.00418824 -1.49462e-07
-0.00418824 0.031788 -1.1079e-07
-1.49462e-07 -1.1079e-07 0.0321621

0.0294679 0.00300834 -4.99055e-08
0.00300834 0.0223313 2.31941e-07
-4.99055e-08 2.31941e-07 0.0210707

0.0302358 0.00397336 9.17028e-08
0.00397336 0.0326698 1.61092e-07
9.17028e-08 1.61092e-07 0.0327259

0.0302836 0.00384703 -1.22302e-07
0.00384703 0.0326138 1.04589e-07
-1.22302e-07 1.04589e-07 0.0326807

0.0262495 0.00396276 -1.05142e-07
0.00396276 0.027773 7.12272e-08
-1.05142e-07 7.12272e-08 0.0218691

0.0344566 0.00357706 -1.14286e-07
0.00357706 0.031785 -1.12922e-07
-1.14286e-07 -1.12922e-07 0.0328372

0.0302548 0.000452586 3.05089e-07
0.000452586 0.0204319 -1.65312e-08
3.05089e-07 -1.65312e-08 0.0205773

0.0331919 0.00420048 -1.4011e-07
0.00420048 0.0323792 2.71456e-08
-1.4011e-07 2.71456e-08 0.0334896

0.030506 -0.00165431 1.70793e-08
-0.00165431 0.0366219 1.97644e-07
1.70793e-08 1.97644e-07 0.0336685

0.0373656 0.00323272 3.86823e-08
0.00323272 0.0334649 -1.47282e-07
3.86823e-08 -1.47282e-07 0.0346697

0.0307436 -0.00389632 -1.35007e-07
-0.00389632 0.0322795 -1.65323e-07
-1.35007e-07 -1.65323e-07 0.0326862

0.0293792 -0.000644736 7.06124e-08
-0.000644736 0.0369095 6.09353e-09
7.06124e-08 6.09353e-09 0.0328535

0.0288184 -0.00315324 -5.13877e-08
-0.00315324 0.0221441 -1.46396e-08
-5.13877e-08 -1.46396e-08 0.0187627

0.0290083 0.0038455 2.09193e-07
0.0038455 0.0255829 -1.11172e-07
2.09193e-07 -1.11172e-07 0.0230775

0.0217053 0.00189146 6.27553e-08
0.00189146 0.0300677 -1.40474e-07
6.27553e-08 -1.40474e-07 0.021088

0.0349968 -0.000161479 -1.62583e-09
-0.000161479 0.0273959 -1.70015e-07
-1.62583e-09 -1.70015e-07 0.0333076

0.0344268 2.49867e-07 -2.47548e-08
2.49867e-07 0.0272805 -5.92282e-08
-2.47548e-08 -5.92282e-08 0.0320472

0.0291717 0.00304015 -7.34121e-09
0.00304015 0.0326865 9.9508e-08
-7.34121e-09 9.9508e-08 0.0321387

0.0314561 0.00316628 -9.92701e-08
0.00316628 0.0342563 1.00574e-07
-9.92701e-08 1.00574e-07 0.0340639

0.029175 -0.0032042 -6.49147e-09
-0.0032042 0.033245 -1.03848e-07
-6.49147e-09 -1.03848e-07 0.033385

0.0287792 -8.57626e-05 7.5292e-08
-8.57626e-05 0.0367112 1.39073e-07
7.5292e-08 1.39073e-07 0.0325314

0.0294706 0.00337587 -1.60697e-07
0.00337587 0.0330811 4.58846e-08
-1.60697e-07 4.58846e-08 0.0333607

0.0328666 -0.00134675 1.42095e-07
-0.00134675 0.0253669 7.9346e-08
1.42095e-07 7.9346e-08 0.0278345

0.0263602 -0.0042556 1.02085e-07
-0.0042556 0.0281857 -8.00132e-08
1.02085e-07 -8.00132e-08 0.0242725

0.0363038 -0.000331802 -8.86319e-08
-0.000331802 0.029389 2.72617e-08
-8.86319e-08 2.72617e-08 0.0340337

0.0267864 -0.00444677 -1.48303e-07
-0.00444677 0.0251953 -7.12042e-08
-1.48303e-07 -7.12042e-08 0.0209534

0.0309052 0.00250708 3.93419e-08
0.00250708 0.0350695 8.63461e-08
3.93419e-08 8.63461e-08 0.0340735

0.0351194 -0.00349693 -7.13081e-09
-0.00349693 0.0303937 -7.0115e-08
-7.13081e-09 -7.0115e-08 0.0326205

0.0305086 -0.00125017 -1.41486e-07
-0.00125017 0.0229827 6.09783e-08
-1.41486e-07 6.09783e-08 0.0214827

0.0371529 -0.00307714 1.31683e-07
-0.00307714 0.0316586 1.54092e-07
1.31683e-07 1.54092e-07 0.0339935

0.0349759 0.00032214 1.22559e-08
0.00032214 0.0275611 1.27812e-07
1.22559e-08 1.27812e-07 0.033436

0.0358483 -0.00308874 -1.0174e-07
-0.00308874 0.0332634 1.07608e-08
-1.0174e-07 1.07608e-08 0.034149

0.0349348 -0.00341092 -2.76198e-08
-0.00341092 0.0296007 -6.90535e-08
-2.76198e-08 -6.90535e-08 0.0321838

0.0349161 -0.00113404 1.35446e-07
-0.00113404 0.0278558 -6.82116e-09
1.35446e-07 -6.82116e-09 0.0323474

0.0314958 -0.00306251 1.58111e-08
-0.00306251 0.0344541 2.23078e-08
1.58111e-08 2.23078e-08 0.0341522

0.0292415 -0.00407212 -1.5323e-08
-0.00407212 0.026905 1.00979e-08
-1.5323e-08 1.00979e-08 0.0253513

0.0349988 -0.00324399 -3.50844e-09
-0.00324399 0.0299208 2.60029e-08
-3.50844e-09 2.60029e-08 0.032201

0.0314692 0.00140937 -1.98441e-08
0.00140937 0.0233315 -1.76771e-07
-1.98441e-08 -1.76771e-07 0.0244886

0.0336708 0.00348424 -1.34242e-07
0.00348424 0.0334492 1.80278e-08
-1.34242e-07 1.80278e-08 0.0336557

0.029899 -0.00496693 -7.98486e-08
-0.00496693 0.0330848 -1.63668e-07
-7.98486e-08 -1.63668e-07 0.0338631

0.0300495 0.00492016 9.79581e-09
0.00492016 0.0329466 3.85347e-08
9.79581e-09 3.85347e-08 0.03383

0.027695 -0.00374161 -1.16219e-07
-0.00374161 0.0348131 -1.43799e-08
-1.16219e-07 -1.43799e-08 0.0337726

0.0279327 0.00354716 -1.13615e-07
0.00354716 0.0348414 6.92052e-08
-1.13615e-07 6.92052e-08 0.0337374

0.036436 -0.00115358 -1.00884e-07
-0.00115358 0.0263487 7.18897e-09
-1.00884e-07 7.18897e-09 0.0337638

0.036205 0.00124728 8.15971e-08
0.00124728 0.0265701 1.47369e-07
8.15971e-08 1.47369e-07 0.0337266

0.0350409 -0.00130706 -1.6245e-07
-0.00130706 0.0284738 1.2948e-07
-1.6245e-07 1.2948e-07 0.0325817

0.0344419 0.00425867 -3.19542e-09
0.00425867 0.0342953 1.02407e-07
-3.19542e-09 1.02407e-07 0.034818

0.0343175 -0.00435631 2.86339e-08
-0.00435631 0.0342866 7.2738e-08
2.86339e-08 7.2738e-08 0.0348063

0.0305269 0.00209336 1.12539e-08
0.00209336 0.0381703 1.41829e-07
1.12539e-08 1.41829e-07 0.0348552

0.0306702 -0.00205954 3.19612e-08
-0.00205954 0.0381001 -1.92085e-07
3.19612e-08 -1.92085e-07 0.0348425

0.0395067 -0.000529362 1.58814e-08
-0.000529362 0.0328543 1.2998e-07
1.58814e-08 1.2998e-07 0.0352632

0.0397092 0.000513977 9.76767e-08
0.000513977 0.0326271 -1.38819e-07
9.76767e-08 -1.38819e-07 0.0353084

0.0239698 0.0012763 -1.83349e-07
0.0012763 0.0320098 -2.3672e-08
-1.83349e-07 -2.3672e-08 0.0251894

0.0311686 -0.00326581 -1.69628e-07
-0.00326581 0.0322467 1.0807e-08
-1.69628e-07 1.0807e-08 0.0328078

0.0277867 -0.00478542 1.32347e-07
-0.00478542 0.0333184 -1.07046e-07
1.32347e-07 -1.07046e-07 0.0334613

0.033366 -0.000610608 1.63241e-07
-0.000610608 0.0264085 1.16665e-07
1.63241e-07 1.16665e-07 0.0284539

0.0381932 -0.00225143 -4.3456e-08
-0.00225143 0.0308002 2.87864e-08
-4.3456e-08 2.87864e-08 0.0348982

0.0382413 0.00218366 -7.0025e-08
0.00218366 0.0309134 1.11551e-07
-7.0025e-08 1.11551e-07 0.0349304

0.0360904 1.56195e-05 3.97042e-08
1.56195e-05 0.0251329 7.90574e-08
3.97042e-08 7.90574e-08 0.0334763

0.0242458 0.00302974 8.85528e-08
0.00302974 0.0304042 3.02536e-09
8.85528e-08 3.02536e-09 0.024282

0.027681 0.00475592 6.05759e-10
0.00475592 0.0333195 -1.13935e-07
6.05759e-10 -1.13935e-07 0.0333991

0.0286811 -0.00307607 -4.76327e-08
-0.00307607 0.0342679 -3.29436e-08
-4.76327e-08 -3.29436e-08 0.0327583

0.0310921 0.00303654 -1.55791e-07
0.00303654 0.0251516 1.76988e-07
-1.55791e-07 1.76988e-07 0.0254724

0.0372324 0.00316592 6.01852e-08
0.00316592 0.0315461 -8.15286e-08
6.01852e-08 -8.15286e-08 0.0340814

0.0292329 -0.00406843 -4.04102e-08
-0.00406843 0.0269411 3.52024e-08
-4.04102e-08 3.52024e-08 0.0253265

0.0364078 -0.00045396 6.92771e-08
-0.00045396 0.0296974 -1.55617e-07
6.92771e-08 -1.55617e-07 0.0341367

0.0273513 -0.00449454 -1.90302e-08
-0.00449454 0.0334018 8.32683e-08
-1.90302e-08 8.32683e-08 0.0334479

0.0240426 0.00107927 8.78074e-08
0.00107927 0.0322509 7.28256e-08
8.78074e-08 7.28256e-08 0.0255111

0.0242344 0.00282725 4.01308e-08
0.00282725 0.0307081 -4.42521e-08
4.01308e-08 -4.42521e-08 0.0245499

0.0267978 0.00459552 1.1504e-07
0.00459552 0.0240464 8.44828e-08
1.1504e-07 8.44828e-08 0.0182172

0.0298572 0.000199977 -1.19775e-07
0.000199977 0.020092 2.85866e-08
-1.19775e-07 2.85866e-08 0.0193664

0.0319147 -0.00302379 1.98288e-07
-0.00302379 0.034168 6.48082e-08
1.98288e-07 6.48082e-08 0.0340414

0.0229229 0.00400061 -2.06335e-07
0.00400061 0.0276657 7.34529e-08
-2.06335e-07 7.34529e-08 0.0176567

0.0292161 0.00310138 -2.59597e-08
0.00310138 0.0327701 7.11425e-08
-2.59597e-08 7.11425e-08 0.0310183

0.0316015 -0.0006946 -9.47834e-08
-0.0006946 0.0231645 2.25177e-07
-9.47834e-08 2.25177e-07 0.0244899

0.0327682 0.00146479 1.31078e-08
0.00146479 0.0253519 2.05749e-07
1.31078e-08 2.05749e-07 0.0276185

0.035985 5.62443e-05 4.48273e-08
5.62443e-05 0.024966 -8.62376e-08
4.48273e-08 -8.62376e-08 0.0333923

0.0279727 -0.00380505 4.45276e-08
-0.00380505 0.034955 -1.24174e-08
4.45276e-08 -1.24174e-08 0.0338219

0.0393171 -0.000843607 1.4294e-07
-0.000843607 0.0416051 -4.65328e-08
1.4294e-07 -4.65328e-08 0.036195

0.0298745 0.00493875 -7.40786e-09
0.00493875 0.0329626 -6.31543e-08
-7.40786e-09 -6.31543e-08 0.033785

0.0302945 0.000214582 -1.92131e-07
0.000214582 0.0204005 -4.90105e-08
-1.92131e-07 -4.90105e-08 0.0172797

0.0266793 -0.00425151 -6.07278e-08
-0.00425151 0.0281391 8.94478e-08
-6.07278e-08 8.94478e-08 0.0244425

0.0277532 0.00481536 -8.01204e-08
0.00481536 0.033322 -9.56469e-08
-8.01204e-08 -9.56469e-08 0.0334614

0.0279504 -0.00145892 1.14249e-07
-0.00145892 0.0350918 -5.55059e-08
1.14249e-07 -5.55059e-08 0.0314562

0.02447 -0.00330617 4.30819e-08
-0.00330617 0.0300218 1.08585e-08
4.30819e-08 1.08585e-08 0.0242221

0.0279975 0.00377931 8.14684e-08
0.00377931 0.0349166 8.35898e-08
8.14684e-08 8.35898e-08 0.0337928

0.0313683 -0.00341028 -9.82528e-08
-0.00341028 0.0270141 2.01344e-09
-9.82528e-08 2.01344e-09 0.0269968

0.0402832 0.00140899 -3.58869e-08
0.00140899 0.0406199 -1.95276e-07
-3.58869e-08 -1.95276e-07 0.0361754

0.0258865 0.00400404 -5.69201e-08
0.00400404 0.0289607 4.23744e-08
-5.69201e-08 4.23744e-08 0.0245161

0.0366839 0.00110284 -1.34275e-07
0.00110284 0.0263593 -7.9089e-08
-1.34275e-07 -7.9089e-08 0.0339037

0.033348 0.00398449 -7.0799e-08
0.00398449 0.0321218 -1.11817e-07
-7.0799e-08 -1.11817e-07 0.0333215

0.0292343 0.00306782 -3.97954e-08
0.00306782 0.0326121 1.56744e-07
-3.97954e-08 1.56744e-07 0.0321638

0.0343698 -0.00431013 -2.17029e-08
-0.00431013 0.0345106 2.31963e-08
-2.17029e-08 2.31963e-08 0.0348905

0.0354954 -0.00306411 2.26216e-08
-0.00306411 0.0305957 -9.45825e-09
2.26216e-08 -9.45825e-09 0.0327562

0.0333709 0.00138717 -7.36877e-08
0.00138717 0.0395823 1.29747e-07
-7.36877e-08 1.29747e-07 0.0350079

0.0292032 -0.00307957 2.07e-07
-0.00307957 0.0328805 -7.35354e-08
2.07e-07 -7.35354e-08 0.0313894

0.0292709 -0.00123253 -1.73415e-07
-0.00123253 0.0192905 1.24245e-08
-1.73415e-07 1.24245e-08 0.0164156

0.0287843 -0.00183282 -1.24671e-07
-0.00183282 0.0184172 9.09516e-08
-1.24671e-07 9.09516e-08 0.0162004

0.0385341 0.00220269 -1.16792e-08
0.00220269 0.0332439 -5.339e-08
-1.16792e-08 -5.339e-08 0.0347684

0.028062 0.00294558 -1.45654e-08
0.00294558 0.032342 2.6203e-07
-1.45654e-08 2.6203e-07 0.0295241

0.0320735 0.00383511 1.73532e-07
0.00383511 0.0309667 -1.63968e-08
1.73532e-07 -1.63968e-08 0.0314604

0.0320571 8.99104e-05 -5.06514e-08
8.99104e-05 0.0245819 2.51188e-08
-5.06514e-08 2.51188e-08 0.0248933

0.0302429 0.00086586 7.3745e-08
0.00086586 0.0385863 1.46588e-08
7.3745e-08 1.46588e-08 0.034102

0.0354084 0.00219114 -7.28575e-08
0.00219114 0.029329 2.43152e-07
-7.28575e-08 2.43152e-07 0.0328643

0.0248164 -0.00333979 -8.46978e-08
-0.00333979 0.0300127 8.09901e-08
-8.46978e-08 8.09901e-08 0.0244753

0.028656 -0.00033783 7.87533e-08
-0.00033783 0.036664 1.39388e-07
7.87533e-08 1.39388e-07 0.0324017

0.0252206 0.00174064 1.00086e-07
0.00174064 0.0320366 -1.51769e-08
1.00086e-07 -1.51769e-08 0.0256894

0.0332872 -0.00391034 4.15989e-08
-0.00391034 0.0305026 -8.3144e-09
4.15989e-08 -8.3144e-09 0.0315984

0.0290712 -0.003897 -1.03678e-07
-0.003897 0.0282066 -8.69567e-08
-1.03678e-07 -8.69567e-08 0.025719

0.0261547 0.00409991 -2.24376e-08
0.00409991 0.0285524 2.1779e-07
-2.24376e-08 2.1779e-07 0.0243233

0.0452886 -0.00201735 -1.01197e-07
-0.00201735 0.0396088 2.70178e-08
-1.01197e-07 2.70178e-08 0.0363719

0.0316721 0.000256747 -1.00836e-07
0.000256747 0.0393323 1.26413e-07
-1.00836e-07 1.26413e-07 0.0347747

0.0306228 0.00265063 7.19608e-08
0.00265063 0.0384479 -1.21079e-08
7.19608e-08 -1.21079e-08 0.0349633

0.0387708 0.00209466 1.44551e-07
0.00209466 0.0302279 -7.91664e-08
1.44551e-07 -7.91664e-08 0.0349482

0.0313775 -0.00345093 8.53875e-09
-0.00345093 0.0321473 5.58168e-08
8.53875e-09 5.58168e-08 0.0325789

0.0318251 0.00233662 2.43067e-08
0.00233662 0.0256257 -8.77512e-08
2.43067e-08 -8.77512e-08 0.0258851

0.0349978 -0.000708148 4.41565e-08
-0.000708148 0.0415787 -9.94639e-08
4.41565e-08 -9.94639e-08 0.0357329

0.0357947 -0.00251861 1.24352e-07
-0.00251861 0.0295563 1.91372e-08
1.24352e-07 1.91372e-08 0.033264

0.0333043 -0.00204017 -1.48876e-07
-0.00204017 0.0266582 -5.78138e-09
-1.48876e-07 -5.78138e-09 0.0286813

0.0252576 0.00151129 -2.91321e-08
0.00151129 0.0322813 6.85186e-08
-2.91321e-08 6.85186e-08 0.0259555

0.0268103 -0.00334568 1.5269e-07
-0.00334568 0.0300161 1.47527e-08
1.5269e-07 1.47527e-08 0.0251926

0.036483 -0.00336035 1.3387e-07
-0.00336035 0.0352921 1.5013e-07
1.3387e-07 1.5013e-07 0.0347479

0.0284816 0.00415335 1.5326e-07
0.00415335 0.0277221 -4.4358e-08
1.5326e-07 -4.4358e-08 0.0254731

0.0372493 -0.00334536 -4.4875e-08
-0.00334536 0.0333271 1.34841e-07
-4.4875e-08 1.34841e-07 0.0346173

0.0322132 0.000338005 -1.77477e-07
0.000338005 0.0248677 6.48314e-08
-1.77477e-07 6.48314e-08 0.0254429

0.0191645 -0.00369015 -5.32587e-08
-0.00369015 0.0275317 1.7571e-07
-5.32587e-08 1.7571e-07 0.0163142

0.0292161 -0.0038047 2.44135e-08
-0.0038047 0.0281987 9.7183e-08
2.44135e-08 9.7183e-08 0.0258132

0.0230503 0.00412854 -9.90437e-08
0.00412854 0.0280261 8.88471e-08
-9.90437e-08 8.88471e-08 0.0175958

0.0296964 -0.00155913 1.36152e-07
-0.00155913 0.0375393 -3.71425e-08
1.36152e-07 -3.71425e-08 0.0336543

0.024365 -0.00179421 -3.53586e-08
-0.00179421 0.0318793 1.77445e-07
-3.53586e-08 1.77445e-07 0.0254533

0.0424395 -0.00323379 9.57506e-08
-0.00323379 0.0423783 3.22708e-07
9.57506e-08 3.22708e-07 0.0363802

0.0263423 0.00309196 -2.3687e-09
0.00309196 0.0307083 -4.43033e-08
-2.3687e-09 -4.43033e-08 0.0254831

0.0334827 -0.00432348 9.05776e-08
-0.00432348 0.0326652 8.41982e-08
9.05776e-08 8.41982e-08 0.0335722

0.0240854 -0.00155112 1.04664e-07
-0.00155112 0.031894 -2.21175e-07
1.04664e-07 -2.21175e-07 0.025182

0.0362285 -0.00253873 3.10343e-08
-0.00253873 0.0295171 -1.57183e-07
3.10343e-08 -1.57183e-07 0.0335251

0.0266789 0.00310552 1.09726e-07
0.00310552 0.0304012 2.69114e-09
1.09726e-07 2.69114e-09 0.0253184

0.03435 -0.000653917 7.86138e-08
-0.000653917 0.0272825 -3.87022e-08
7.86138e-08 -3.87022e-08 0.0305835

0.0188936 -0.00387228 9.57e-08
-0.00387228 0.0298071 -1.67523e-07
9.57e-08 -1.67523e-07 0.0129638

0.028005 0.00275488 -4.31473e-08
0.00275488 0.0326356 5.12842e-08
-4.31473e-08 5.12842e-08 0.0305794

0.0314441 -0.00251299 -7.74374e-08
-0.00251299 0.0247271 -7.08092e-08
-7.74374e-08 -7.08092e-08 0.0254111

0.0391228 -0.0028694 1.3632e-07
-0.0028694 0.0322264 1.05586e-08
1.3632e-07 1.05586e-08 0.0349421

0.0287587 0.00412504 1.65874e-07
0.00412504 0.0273056 -1.87362e-07
1.65874e-07 -1.87362e-07 0.0252604

0.0313676 -0.00392001 -9.34107e-08
-0.00392001 0.0285474 -5.50219e-09
-9.34107e-08 -5.50219e-09 0.0287364

0.0354137 0.00276413 -1.02884e-07
0.00276413 0.0308611 -2.95555e-08
-1.02884e-07 -2.95555e-08 0.0330446

0.0297789 -0.00370369 -2.12023e-07
-0.00370369 0.0329435 -8.44131e-08
-2.12023e-07 -8.44131e-08 0.033348

0.0270604 -0.00341111 -6.40494e-08
-0.00341111 0.0299885 8.26526e-08
-6.40494e-08 8.26526e-08 0.0254023

0.0284461 0.00377222 9.26618e-08
0.00377222 0.0289456 4.66489e-08
9.26618e-08 4.66489e-08 0.0258922

0.0313776 0.00341421 -4.68554e-08
0.00341421 0.0269042 -2.73967e-08
-4.68554e-08 -2.73967e-08 0.0269711

0.0365413 -0.00194456 7.51037e-08
-0.00194456 0.0306301 -6.36847e-08
7.51037e-08 -6.36847e-08 0.0336409

0.0255385 -0.00216376 -3.75635e-08
-0.00216376 0.031808 1.77327e-07
-3.75635e-08 1.77327e-07 0.0258586

0.0347057 -0.00231442 3.88315e-08
-0.00231442 0.0283396 1.42894e-07
3.88315e-08 1.42894e-07 0.0314613

0.0341919 0.00222349 2.14207e-07
0.00222349 0.0274369 7.87574e-08
2.14207e-07 7.87574e-08 0.0306091

0.0336487 -0.00124553 1.80705e-07
-0.00124553 0.0393042 -9.61348e-08
1.80705e-07 -9.61348e-08 0.0349322

0.0320785 -0.00174709 -2.19541e-09
-0.00174709 0.0253351 7.32267e-08
-2.19541e-09 7.32267e-08 0.025876

0.0250064 7.97693e-05 -1.63339e-07
7.97693e-05 0.0331575 -5.67806e-08
-1.63339e-07 -5.67806e-08 0.0268661

0.0332537 0.00242927 -1.24948e-07
0.00242927 0.0271986 -1.61189e-08
-1.24948e-07 -1.61189e-08 0.0289272

0.0311234 0.00359958 -2.54551e-07
0.00359958 0.0272975 -2.16044e-08
-2.54551e-07 -2.16044e-08 0.0271275

0.0253001 -0.00204174 -8.62934e-08
-0.00204174 0.0318707 -2.25669e-07
-8.62934e-08 -2.25669e-07 0.0256158

0.0252056 -0.000154796 1.39452e-07
-0.000154796 0.0332986 -6.1495e-09
1.39452e-07 -6.1495e-09 0.027149

0.0354179 0.00385836 -5.12474e-08
0.00385836 0.0329999 -5.01943e-08
-5.12474e-08 -5.01943e-08 0.0339003

0.0275908 -0.00143131 -1.5193e-07
-0.00143131 0.0353478 -9.86965e-08
-1.5193e-07 -9.86965e-08 0.0314473

0.0312397 -0.0034847 5.28067e-08
-0.0034847 0.0269824 3.87907e-08
5.28067e-08 3.87907e-08 0.0270147

0.0313026 0.00277326 -3.78434e-08
0.00277326 0.0249265 -1.20294e-08
-3.78434e-08 -1.20294e-08 0.0252508

0.0345884 0.00311864 1.27669e-07
0.00311864 0.0293916 -8.16371e-08
1.27669e-07 -8.16371e-08 0.0318009

0.0279963 0.000717107 7.20179e-08
0.000717107 0.0360455 1.5314e-07
7.20179e-08 1.5314e-07 0.0318233

0.0287216 0.00378228 -7.56419e-08
0.00378228 0.0285644 2.19181e-07
-7.56419e-08 2.19181e-07 0.0257326

0.0367946 0.00305765 9.18283e-08
0.00305765 0.0361289 2.87394e-08
9.18283e-08 2.87394e-08 0.0349118

0.0226837 -0.00754677 -1.33327e-07
-0.00754677 0.0186905 1.17143e-07
-1.33327e-07 1.17143e-07 0.0108471

0.0332968 -0.00328803 3.27197e-08
-0.00328803 0.0286375 4.76752e-09
3.27197e-08 4.76752e-09 0.0301291

0.0207302 0.000913523 7.05614e-08
0.000913523 0.0300368 -1.24242e-07
7.05614e-08 -1.24242e-07 0.0183498

0.0313059 -0.00378243 -1.32617e-07
-0.00378243 0.0292366 -7.55625e-08
-1.32617e-07 -7.55625e-08 0.0290366

0.00153977 -0.00651963 -3.13772e-08
-0.00651963 0.0275718 1.37473e-07
-3.13772e-08 1.37473e-07 0.00290885

0.00147016 0.00636921 1.83683e-08
0.00636921 0.02759 8.04768e-08
1.83683e-08 8.04768e-08 0.00300181

0.0119861 0.0145069 1.1038e-07
0.0145069 0.0175348 1.38412e-07
1.1038e-07 1.38412e-07 0.00277171

0.0121676 -0.0144975 7.67254e-08
-0.0144975 0.0172262 -9.62106e-08
7.67254e-08 -9.62106e-08 0.00280432

0.0293447 -0.000164118 -3.92698e-08
-0.000164118 0 0
-3.92698e-08 0 0.00295315

0.0235953 -0.0112841 1.54147e-07
-0.0112841 0.00539618 -7.42332e-08
1.54147e-07 -7.42332e-08 0.00297885

0.0236374 0.0113504 3.11072e-08
0.0113504 0.00545026 1.49804e-08
3.11072e-08 1.49804e-08 0.00304002

0.0369161 0.00191169 1.48907e-07
0.00191169 0.0302473 4.27764e-08
1.48907e-07 4.27764e-08 0.0338829

0.0387092 0.00340974 1.73661e-08
0.00340974 0.0366205 -7.5337e-09
1.73661e-08 -7.5337e-09 0.0355831

0.0344218 0.000872653 -1.83712e-07
0.000872653 0.0274621 -1.43393e-07
-1.83712e-07 -1.43393e-07 0.0316933

0.0328794 0.00285094 -1.18281e-07
0.00285094 0.0268942 -2.80711e-08
-1.18281e-07 -2.80711e-08 0.0286515

0.0257054 0.00231379 7.67358e-08
0.00231379 0.0323732 -6.27632e-08
7.67358e-08 -6.27632e-08 0.0276407

0.0307185 0.00376978 -2.27177e-07
0.00376978 0.0276815 -6.21456e-08
-2.27177e-07 -6.21456e-08 0.0271227

0.0333115 -0.00390374 9.28174e-08
-0.00390374 0.0304712 6.54346e-08
9.28174e-08 6.54346e-08 0.0316353

0.0309794 0.00365529 4.49562e-08
0.00365529 0.0272923 -1.89324e-07
4.49562e-08 -1.89324e-07 0.0269303

0.0249917 -0.000371591 1.98773e-07
-0.000371591 0.0331285 -4.51661e-08
1.98773e-07 -4.51661e-08 0.0268483

0.038552 -0.0034845 1.05316e-07
-0.0034845 0.0368841 -1.09734e-07
1.05316e-07 -1.09734e-07 0.0355888

0.0251803 -0.000635763 -1.37256e-07
-0.000635763 0.0332171 -2.96217e-08
-1.37256e-07 -2.96217e-08 0.0271078

0.0360227 0.00304767 -7.24775e-08
0.00304767 0.0330165 6.46288e-09
-7.24775e-08 6.46288e-09 0.0341032

0.0296288 0.00347656 1.61352e-07
0.00347656 0.0248509 -2.34955e-08
1.61352e-07 -2.34955e-08 0.0230273

0.0305021 -0.00171393 1.12297e-07
-0.00171393 0.0375172 -2.23281e-07
1.12297e-07 -2.23281e-07 0.0347418

0.0339267 0.00180499 -5.34759e-08
0.00180499 0.0271868 -1.54658e-08
-5.34759e-08 -1.54658e-08 0.030326

0.0312071 -0.00392131 5.57867e-08
-0.00392131 0.0285366 3.39927e-08
5.57867e-08 3.39927e-08 0.0286198

0.0315899 -0.00322206 -3.83895e-08
-0.00322206 0.0266967 -1.36672e-07
-3.83895e-08 -1.36672e-07 0.0270529

0.0384839 -0.00214192 -5.84981e-08
-0.00214192 0.0334219 1.08859e-07
-5.84981e-08 1.08859e-07 0.03475

0.0326876 0.00366466 1.00315e-07
0.00366466 0.0292376 1.6282e-07
1.00315e-07 1.6282e-07 0.0301605

0.0326514 0.00313824 1.44468e-08
0.00313824 0.0272575 -1.06958e-08
1.44468e-08 -1.06958e-08 0.0287934

0.0269602 -0.000365277 -6.30973e-08
-0.000365277 0.0349933 1.04623e-07
-6.30973e-08 1.04623e-07 0.0301735

0.0259046 0.000765671 8.53922e-08
0.000765671 0.0340103 -1.23578e-07
8.53922e-08 -1.23578e-07 0.0288285

0.0327847 0.000345509 1.79035e-07
0.000345509 0.0248665 8.6653e-08
1.79035e-07 8.6653e-08 0.0274491

0.0313939 -0.000945145 -2.79184e-08
-0.000945145 0.0230081 6.61885e-08
-2.79184e-08 6.61885e-08 0.0238968

0.0308867 0.00398585 1.71213e-07
0.00398585 0.0288115 4.11402e-08
1.71213e-07 4.11402e-08 0.0286296

0.0331246 -0.00343233 8.5531e-08
-0.00343233 0.0285462 3.43313e-08
8.5531e-08 3.43313e-08 0.0299749

0.036418 -0.00282377 2.81814e-08
-0.00282377 0.0327377 5.93827e-08
2.81814e-08 5.93827e-08 0.0341494

0.029212 -0.00412866 1.25677e-07
-0.00412866 0.0291982 -5.72877e-08
1.25677e-07 -5.72877e-08 0.0277593

0.0269774 -0.00362141 8.58825e-08
-0.00362141 0.0304709 1.26905e-07
8.58825e-08 1.26905e-07 0.0272188

0.0283318 0.00390052 1.10611e-09
0.00390052 0.0299071 -1.35519e-07
1.10611e-09 -1.35519e-07 0.0277574

0.0259063 -0.00124932 7.8594e-08
-0.00124932 0.0336206 1.44965e-07
7.8594e-08 1.44965e-07 0.0285214

0.0266597 -0.000202329 -4.84923e-08
-0.000202329 0.0349197 -8.94428e-08
-4.84923e-08 -8.94428e-08 0.0299254

0.0277675 0.000752974 -4.05138e-08
0.000752974 0.036045 1.53969e-07
-4.05138e-08 1.53969e-07 0.0316638

0.0262524 -0.00275026 5.55047e-08
-0.00275026 0.0319698 3.87648e-08
5.55047e-08 3.87648e-08 0.027716

0.0345887 0.00317616 8.34963e-10
0.00317616 0.0291739 1.57219e-07
8.34963e-10 1.57219e-07 0.03164

0.0339159 -0.00126138 1.12195e-07
-0.00126138 0.0269355 4.45286e-08
1.12195e-07 4.45286e-08 0.0302074

0.0257953 0.000974405 -6.00394e-08
0.000974405 0.0338361 1.28124e-07
-6.00394e-08 1.28124e-07 0.0285474

0.0278293 -0.00127022 -5.53402e-08
-0.00127022 0.0354036 -7.89777e-08
-5.53402e-08 -7.89777e-08 0.0313716

0.0272983 -0.00213764 -6.36329e-08
-0.00213764 0.0336637 9.02732e-08
-6.36329e-08 9.02732e-08 0.0302314

0.0327836 -0.00107744 1.63994e-07
-0.00107744 0.0253248 -2.94312e-07
1.63994e-07 -2.94312e-07 0.0272597

0.0333211 -0.00427114 2.19074e-07
-0.00427114 0.0323868 1.6337e-08
2.19074e-07 1.6337e-08 0.0335348

0.0264939 0.00122017 -4.02422e-08
0.00122017 0.0338422 1.28406e-07
-4.02422e-08 1.28406e-07 0.0288216

0.0398148 -0.00243165 7.10216e-08
-0.00243165 0.0352227 1.52443e-07
7.10216e-08 1.52443e-07 0.0354661

0.018892 0.00316541 -5.04356e-08
0.00316541 0.0278815 9.33043e-08
-5.04356e-08 9.33043e-08 0.016276

0.0338214 -0.00352318 4.29097e-08
-0.00352318 0.0335001 -2.64349e-07
4.29097e-08 -2.64349e-07 0.0337316

0.035349 -0.00399956 -7.4433e-08
-0.00399956 0.0330514 1.07017e-07
-7.4433e-08 1.07017e-07 0.0339094

0.0266909 -9.05148e-05 7.14211e-08
-9.05148e-05 0.0349248 -8.66932e-08
7.14211e-08 -8.66932e-08 0.0299336

0.0332499 -0.00217667 1.03181e-07
-0.00217667 0.0271584 1.59259e-07
1.03181e-07 1.59259e-07 0.0289083

0.0293528 0.00168481 -1.62941e-07
0.00168481 0.0358255 -2.06914e-07
-1.62941e-07 -2.06914e-07 0.0328853

0.0132094 -0.000379277 1.5879e-08
-0.000379277 0.0283672 -1.46364e-07
1.5879e-08 -1.46364e-07 0.011154

0.0271189 0.00186901 -2.38131e-08
0.00186901 0.0340683 1.59648e-07
-2.38131e-08 1.59648e-07 0.0303119

0.0311153 -0.00385929 6.31327e-08
-0.00385929 0.02916 4.87892e-08
6.31327e-08 4.87892e-08 0.0288119

0.0186229 0.00320522 -1.22897e-07
0.00320522 0.030145 -1.07109e-07
-1.22897e-07 -1.07109e-07 0.0131294

0.0426016 0.003517 -3.41629e-08
0.003517 0.0418511 -3.04239e-07
-3.41629e-08 -3.04239e-07 0.0364849

0.0432069 -0.00374754 -3.37589e-07
-0.00374754 0.0414198 4.61226e-07
-3.37589e-07 4.61226e-07 0.0364674

0.0310711 -0.00399146 -2.27296e-07
-0.00399146 0.0304768 7.31177e-08
-2.27296e-07 7.31177e-08 0.0304666

0.0289278 -0.0040649 -1.84496e-07
-0.0040649 0.0291564 4.64697e-08
-1.84496e-07 4.64697e-08 0.0275997

0.0330578 0.00272736 -2.82538e-08
0.00272736 0.0275338 5.74644e-08
-2.82538e-08 5.74644e-08 0.0290809

0.0327865 0.00196054 -1.07049e-07
0.00196054 0.0255961 -9.28505e-08
-1.07049e-07 -9.28505e-08 0.0278281

0.0464016 0.000417527 6.4044e-07
0.000417527 0.046357 -2.0257e-07
6.4044e-07 -2.0257e-07 0.0366991

0.0469203 -0.000951091 9.7015e-07
-0.000951091 0.0457678 -2.09612e-07
9.7015e-07 -2.09612e-07 0.0367702

0.0348061 0.000638589 -1.3992e-07
0.000638589 0.0275787 -1.81605e-07
-1.3992e-07 -1.81605e-07 0.0322222

0.0277571 0.000882749 5.34737e-08
0.000882749 0.035577 2.83143e-08
5.34737e-08 2.83143e-08 0.0313541

0.0276126 0.000882781 1.4093e-07
0.000882781 0.0355771 3.081e-08
1.4093e-07 3.081e-08 0.0312502

0.023463 0.00740149 -2.06074e-07
0.00740149 0.0183051 1.84535e-08
-2.06074e-07 1.84535e-08 0.0109036

0.0272524 -0.0036765 -1.00367e-07
-0.0036765 0.0303532 1.36624e-07
-1.00367e-07 1.36624e-07 0.0273246

0.0365728 0.00239143 2.00402e-07
0.00239143 0.0295816 -2.31346e-08
2.00402e-07 -2.31346e-08 0.0337899

0.0332806 0.00124802 -1.5058e-08
0.00124802 0.0265092 -2.69994e-07
-1.5058e-08 -2.69994e-07 0.0284371

0.0291579 -0.00349337 -1.51358e-07
-0.00349337 0.0304771 1.07272e-07
-1.51358e-07 1.07272e-07 0.0281786

0.0328173 -0.00264833 -8.97642e-08
-0.00264833 0.0267329 -1.3855e-07
-8.97642e-08 -1.3855e-07 0.0285921

0.0224639 0.00761432 -2.78958e-07
0.00761432 0.0185933 2.04254e-08
-2.78958e-07 2.04254e-08 0.010906

0.0331507 0.00410266 -1.28659e-07
0.00410266 0.0326435 2.31188e-08
-1.28659e-07 2.31188e-08 0.0331869

0.0258951 -0.00257895 -1.93203e-07
-0.00257895 0.0320306 -5.07531e-08
-1.93203e-07 -5.07531e-08 0.0275126

0.0324883 0.00378668 1.97854e-07
0.00378668 0.0292737 3.04137e-08
1.97854e-07 3.04137e-08 0.0301523

0.0268209 -0.000543962 5.84066e-09
-0.000543962 0.0349582 1.11666e-07
5.84066e-09 1.11666e-07 0.0301432

0.0269953 0.00256403 -2.10992e-07
0.00256403 0.032455 9.64593e-08
-2.10992e-07 9.64593e-08 0.0282917

0.0305321 0.00399196 -1.99859e-07
0.00399196 0.0293288 -6.59489e-09
-1.99859e-07 -6.59489e-09 0.0287803

0.0276141 -0.00293782 -1.65646e-07
-0.00293782 0.0318604 -4.52919e-10
-1.65646e-07 -4.52919e-10 0.0282542

0.0294615 -0.00357674 2.52355e-07
-0.00357674 0.0303569 1.595e-07
2.52355e-07 1.595e-07 0.0283102

0.0181405 0.00142577 2.05662e-08
0.00142577 0.0280413 -1.42859e-07
2.05662e-08 -1.42859e-07 0.01313

0.023478 -0.00429504 -1.14471e-07
-0.00429504 0.0275614 1.77609e-07
-1.14471e-07 1.77609e-07 0.0177267

0.0262103 -0.00152629 -8.84836e-08
-0.00152629 0.0336304 -1.00848e-07
-8.84836e-08 -1.00848e-07 0.028757

0.0330293 0.00347543 -5.05431e-08
0.00347543 0.028883 6.0125e-08
-5.05431e-08 6.0125e-08 0.0300742

0.0303276 0.00385825 -8.0793e-08
0.00385825 0.0298923 -1.41207e-07
-8.0793e-08 -1.41207e-07 0.0289955

0.0274198 -0.00280109 5.24013e-10
-0.00280109 0.0319903 -3.67073e-08
5.24013e-10 -3.67073e-08 0.0281443

0.0265595 -0.00154133 -9.32757e-08
-0.00154133 0.033589 1.36204e-07
-9.32757e-08 1.36204e-07 0.0287515

0.030962 0.00371901 1.63831e-07
0.00371901 0.0295691 5.57475e-08
1.63831e-07 5.57475e-08 0.0289464

0.0267644 -0.00181652 6.57151e-09
-0.00181652 0.0334808 -8.05156e-08
6.57151e-09 -8.05156e-08 0.0289595

0.0191691 0.00355548 8.63695e-08
0.00355548 0.027613 1.0632e-07
8.63695e-08 1.0632e-07 0.0162952

0.0308779 -0.000534756 -1.6699e-07
-0.000534756 0.0388241 7.40447e-09
-1.6699e-07 7.40447e-09 0.0342993

0.0286619 0.00404897 -1.5906e-07
0.00404897 0.0295241 9.17527e-08
-1.5906e-07 9.17527e-08 0.0277196

0.0355853 0.00197541 9.6438e-08
0.00197541 0.029508 -8.00828e-08
9.6438e-08 -8.00828e-08 0.0328479

0.0362643 -0.00211521 6.59755e-08
-0.00211521 0.0297605 -6.31523e-08
6.59755e-08 -6.31523e-08 0.033223

0.0285159 -0.00309643 -1.2171e-07
-0.00309643 0.0185719 2.56762e-07
-1.2171e-07 2.56762e-07 0.0157328

0.0283589 -0.00279039 -1.50708e-08
-0.00279039 0.0327816 5.3538e-09
-1.50708e-08 5.3538e-09 0.030577

0.0291964 0.00350162 -1.03099e-07
0.00350162 0.0316055 3.32971e-08
-1.03099e-07 3.32971e-08 0.0304928

0.034964 -0.00290721 2.05949e-08
-0.00290721 0.0376792 1.02281e-07
2.05949e-08 1.02281e-07 0.0352409

0.0394622 0.00188491 -9.49266e-09
0.00188491 0.0446103 -1.11259e-07
-9.49266e-09 -1.11259e-07 0.0364372

0.0449441 0.00129036 4.53899e-08
0.00129036 0.0391191 3.3889e-08
4.53899e-08 3.3889e-08 0.0364192

0.0355647 0.00434494 -6.28945e-08
0.00434494 0.0351391 1.3463e-08
-6.28945e-08 1.3463e-08 0.0350081

0.0265769 0.00338883 -9.40541e-08
0.00338883 0.0310124 -2.11031e-07
-9.40541e-08 -2.11031e-07 0.0272608

0.0330453 0.00349733 -5.81769e-08
0.00349733 0.0286717 7.93191e-08
-5.81769e-08 7.93191e-08 0.0300552

0.0220636 0.0057656 -7.72772e-08
0.0057656 0.0242418 -1.28763e-07
-7.72772e-08 -1.28763e-07 0.0160753

0.0386206 -0.00151176 -1.14693e-07
-0.00151176 0.0444339 -5.6124e-08
-1.14693e-07 -5.6124e-08 0.0363664

0.0460478 -0.000462991 1.96185e-08
-0.000462991 0.0454395 -1.22668e-07
1.96185e-08 -1.22668e-07 0.0366952

0.0451801 -3.17104e-05 3.46782e-08
-3.17104e-05 0.0463006 1.04405e-07
3.46782e-08 1.04405e-07 0.0366772

0.0176435 -0.00679613 2.0127e-07
-0.00679613 0.0231122 4.43956e-08
2.0127e-07 4.43956e-08 0.0107405

0.0392957 -0.00155555 -1.00933e-07
-0.00155555 0.0387174 3.29146e-09
-1.00933e-07 3.29146e-09 0.0358581

0.038399 0.00117667 1.8856e-07
0.00117667 0.0415208 6.27098e-08
1.8856e-07 6.27098e-08 0.0361294

0.0331814 -0.00343643 -2.733e-08
-0.00343643 0.0282247 -2.26129e-07
-2.733e-08 -2.26129e-07 0.0299087

0.0318488 0.000140268 1.47724e-07
0.000140268 0.0386768 -2.4581e-08
1.47724e-07 -2.4581e-08 0.0344553

0.0285823 -0.00266057 1.24773e-07
-0.00266057 0.0333868 -6.5457e-08
1.24773e-07 -6.5457e-08 0.0315947

0.0356678 0.00083196 2.27185e-07
0.00083196 0.0273834 9.39221e-08
2.27185e-07 9.39221e-08 0.0330055

0.0288814 0.00204439 -1.89204e-07
0.00204439 0.0368222 -1.84929e-07
-1.89204e-07 -1.84929e-07 0.0336748

0.029874 0.000946145 -9.3226e-08
0.000946145 0.0373937 -1.65004e-07
-9.3226e-08 -1.65004e-07 0.0333686

0.0344077 0.00268514 3.51914e-08
0.00268514 0.0288564 6.75186e-08
3.51914e-08 6.75186e-08 0.0312315

0.013281 -0.000409338 2.90662e-08
-0.000409338 0.0281278 -4.72176e-08
2.90662e-08 -4.72176e-08 0.0112034

0.0309704 -0.00362674 2.63328e-07
-0.00362674 0.0309216 4.20785e-08
2.63328e-07 4.20785e-08 0.0306149

0.0329343 -0.00344407 8.73393e-08
-0.00344407 0.0320265 8.54374e-08
8.73393e-08 8.54374e-08 0.0325845

0.0335764 -0.00415905 5.71571e-08
-0.00415905 0.0325398 -4.4755e-08
5.71571e-08 -4.4755e-08 0.0337409

0.0265666 0.00414961 7.48862e-08
0.00414961 0.0176942 5.47046e-08
7.48862e-08 5.47046e-08 0.0126075

0.0388319 -0.00269616 1.35525e-07
-0.00269616 0.0395784 3.30394e-08
1.35525e-07 3.30394e-08 0.0359629

0.0230867 0.00692211 -1.37204e-07
0.00692211 0.0255063 -2.08684e-07
-1.37204e-07 -2.08684e-07 0.0126118

0.0308802 -0.00281727 3.12923e-07
-0.00281727 0.0348132 -1.4377e-08
3.12923e-07 -1.4377e-08 0.0339615

0.0354178 0.00193638 -4.17719e-08
0.00193638 0.0284711 5.89774e-08
-4.17719e-08 5.89774e-08 0.0323499

0.0318275 -0.00189378 1.87212e-07
-0.00189378 0.0249552 -2.87477e-07
1.87212e-07 -2.87477e-07 0.0254002

0.0292979 0.00315961 -1.05574e-07
0.00315961 0.032738 4.03401e-08
-1.05574e-07 4.03401e-08 0.0312851

0.0344429 0.0026891 2.49527e-08
0.0026891 0.0286396 9.18198e-08
2.49527e-08 9.18198e-08 0.0312262

0.032523 0.00149859 -8.69041e-08
0.00149859 0.0403779 -7.02414e-08
-8.69041e-08 -7.02414e-08 0.0353412

0.0319464 -0.00415499 -3.99364e-08
-0.00415499 0.0312073 2.02254e-07
-3.99364e-08 2.02254e-07 0.0318161

0.0396801 0.0026552 5.04001e-11
0.0026552 0.0332028 1.31104e-07
5.04001e-11 1.31104e-07 0.0353207

0.027977 -0.00241889 -2.71626e-08
-0.00241889 0.0335574 9.60794e-08
-2.71626e-08 9.60794e-08 0.030476

0.029356 0.000558864 6.61027e-08
0.000558864 0.0373175 -1.48121e-07
6.61027e-08 -1.48121e-07 0.0332579

0.0419454 0.00133779 1.67631e-07
0.00133779 0.037103 -2.70022e-08
1.67631e-07 -2.70022e-08 0.0361207

0.0421 -0.00114821 2.21638e-07
-0.00114821 0.0373295 -9.77587e-08
2.21638e-07 -9.77587e-08 0.0361026

0.0283886 0.00236967 -3.00534e-07
0.00236967 0.0181844 1.10888e-07
-3.00534e-07 1.10888e-07 0.0159528

0.0350321 0.00106134 2.56383e-07
0.00106134 0.0285714 4.2126e-08
2.56383e-07 4.2126e-08 0.0330644

0.0128688 0.000923653 6.28217e-10
0.000923653 0.031631 1.67701e-07
6.28217e-10 1.67701e-07 0.00612288

0.0131644 -0.00138839 2.06103e-08
-0.00138839 0.032137 7.87811e-08
2.06103e-08 7.87811e-08 0.00611316

0.0152709 0.00715527 1.10112e-07
0.00715527 0.0284572 1.41046e-07
1.10112e-07 1.41046e-07 0.0059853

0.0347696 -0.00382176 -1.60862e-07
-0.00382176 0.0312734 1.1874e-07
-1.60862e-07 1.1874e-07 0.0329444

0.0155833 -0.00619572 9.20551e-08
-0.00619572 0.0261574 -3.25073e-07
9.20551e-08 -3.25073e-07 0.010474

0.015515 -0.00708779 1.38641e-07
-0.00708779 0.0274277 1.23961e-07
1.38641e-07 1.23961e-07 0.00591506

0.0284314 0.00342651 5.6266e-08
0.00342651 0.0310127 -2.10637e-07
5.6266e-08 -2.10637e-07 0.0281581

0.0251971 0.00932724 -1.29975e-07
0.00932724 0.0190235 1.8446e-07
-1.29975e-07 1.8446e-07 0.00593497

0.0365414 0.00173135 1.14303e-08
0.00173135 0.0385563 1.90367e-09
1.14303e-08 1.90367e-09 0.0354799

0.0395392 2.58581e-05 9.27341e-08
2.58581e-05 0.0355435 9.03476e-08
9.27341e-08 9.03476e-08 0.0354606

0.0261111 -0.00924575 8.8342e-08
-0.00924575 0.0188151 -9.41197e-08
8.8342e-08 -9.41197e-08 0.00588913

0.0276954 -0.00306562 -5.07675e-08
-0.00306562 0.0321015 4.93625e-08
-5.07675e-08 4.93625e-08 0.0296284

0.0262599 0.00441907 1.16057e-07
0.00441907 0.0201615 -1.03554e-07
1.16057e-07 -1.03554e-07 0.0130471

0.0172818 0.00797426 1.4299e-07
0.00797426 0.0271529 1.17625e-07
1.4299e-07 1.17625e-07 0.00598895

0.0181992 0.00275576 -5.78445e-08
0.00275576 0.0275947 -1.29707e-07
-5.78445e-08 -1.29707e-07 0.0128525

0.0173068 -0.00827765 -1.38849e-07
-0.00827765 0.0271562 1.70992e-07
-1.38849e-07 1.70992e-07 0.00581488

0.0179358 -0.00157133 1.57357e-07
-0.00157133 0.0280107 -1.1723e-07
1.57357e-07 -1.1723e-07 0.012693

0.0370533 0.000922692 -1.00176e-07
0.000922692 0.0413031 -8.78662e-08
-1.00176e-07 -8.78662e-08 0.0358146

0.0221351 -0.00585653 -6.15894e-08
-0.00585653 0.0236688 -2.73922e-07
-6.15894e-08 -2.73922e-07 0.0151618

0.0157026 0.00598741 -1.60509e-08
0.00598741 0.0259069 -2.25051e-07
-1.60509e-08 -2.25051e-07 0.0107522

0.030213 0.00473081 -4.41974e-08
0.00473081 0.0143514 -8.32125e-09
-4.41974e-08 -8.32125e-09 0.00611698

0.032944 -0.00384992 3.09538e-08
-0.00384992 0.0301296 -1.44732e-07
3.09538e-08 -1.44732e-07 0.0310567

0.0308935 0.00169395 3.80956e-08
0.00169395 0.0368487 -1.94787e-07
3.80956e-08 -1.94787e-07 0.0339554

0.0260948 -0.00484501 -1.58523e-07
-0.00484501 0.0192005 3.0024e-07
-1.58523e-07 3.0024e-07 0.0126975

0.0330065 -0.00378621 9.7805e-08
-0.00378621 0.0300803 1.37753e-08
9.7805e-08 1.37753e-08 0.031133

0.0300233 -0.00452056 6.1027e-08
-0.00452056 0.0130554 -1.73927e-07
6.1027e-08 -1.73927e-07 0.00603842

0.0324791 -0.00372823 -1.0388e-07
-0.00372823 0.0313129 1.08495e-07
-1.0388e-07 1.08495e-07 0.0319848

0.0280964 -0.00331167 -6.24613e-08
-0.00331167 0.0320101 -1.36337e-07
-6.24613e-08 -1.36337e-07 0.0296308

0.023447 0.00874489 3.78533e-08
0.00874489 0.0204859 2.14612e-07
3.78533e-08 2.14612e-07 0.00602728

0.0182027 -0.00292145 1.84167e-07
-0.00292145 0.0268714 -1.06279e-07
1.84167e-07 -1.06279e-07 0.0122723

0.0233179 -0.00902066 1.28278e-07
-0.00902066 0.0201551 4.28164e-07
1.28278e-07 4.28164e-07 0.00588509

0.0170851 0.00640955 -1.06465e-07
0.00640955 0.02357 -1.36374e-07
-1.06465e-07 -1.36374e-07 0.0108331

0.0308321 -0.00396094 1.96666e-07
-0.00396094 0.0301659 -1.59285e-07
1.96666e-07 -1.59285e-07 0.030091

0.0389222 -0.00195884 1.19552e-07
-0.00195884 0.0369438 1.98864e-07
1.19552e-07 1.98864e-07 0.0355042

0.0455411 0.00150605 3.8291e-07
0.00150605 0.0449528 4.62194e-08
3.8291e-07 4.62194e-08 0.0366234

0.0435657 -0.000711747 -9.17669e-08
-0.000711747 0.0462302 -8.80538e-13
-9.17669e-08 -8.80538e-13 0.0365892

0.0286207 0.00171607 1.36512e-08
0.00171607 0.035572 -4.87313e-08
1.36512e-08 -4.87313e-08 0.032395

0.0453363 -0.0014471 1.41459e-07
-0.0014471 0.0449806 -8.75417e-08
1.41459e-07 -8.75417e-08 0.0366412

0.043809 0.000567921 3.20798e-07
0.000567921 0.0465063 1.44099e-07
3.20798e-07 1.44099e-07 0.0366222

0.0466795 0.000990974 -2.86454e-07
0.000990974 0.0433786 2.7446e-07
-2.86454e-07 2.7446e-07 0.0365974

0.0397525 -0.00163815 2.48558e-07
-0.00163815 0.0460755 -1.20651e-07
2.48558e-07 -1.20651e-07 0.0364872

0.0190571 -0.00388826 1.92429e-07
-0.00388826 0.0272358 -1.22414e-07
1.92429e-07 -1.22414e-07 0.015474

0.0421432 -0.00175028 1.46163e-07
-0.00175028 0.0367286 1.93601e-07
1.46163e-07 1.93601e-07 0.0360093

0.0359686 -0.00457291 7.26248e-08
-0.00457291 0.0351545 -1.03398e-07
7.26248e-08 -1.03398e-07 0.034973

0.0397565 -0.00242195 1.13896e-07
-0.00242195 0.0360676 -9.18065e-08
1.13896e-07 -9.18065e-08 0.0355719

0.0351901 0.00204375 -6.37987e-08
0.00204375 0.0285542 8.62442e-08
-6.37987e-08 8.62442e-08 0.0322373

0.0396945 0.00133723 1.39208e-07
0.00133723 0.047226 -8.46359e-08
1.39208e-07 -8.46359e-08 0.036553

0.0464963 0.00259244 2.30994e-07
0.00259244 0.0404196 -7.46482e-08
2.30994e-07 -7.46482e-08 0.0365342

0.0400905 0.00150578 2.19609e-08
0.00150578 0.0366775 -2.01292e-08
2.19609e-08 -2.01292e-08 0.0356199

0.0279193 -0.00192032 1.55288e-07
-0.00192032 0.0125264 -1.84704e-07
1.55288e-07 -1.84704e-07 0.0106265

0.0283243 0.00326838 1.37251e-07
0.00326838 0.0315557 1.26345e-07
1.37251e-07 1.26345e-07 0.0294161

0.0231918 -0.00773758 2.0375e-07
-0.00773758 0.018183 3.70095e-07
2.0375e-07 3.70095e-07 0.0102914

0.0228344 -0.00731713 6.66159e-09
-0.00731713 0.025773 -3.3604e-07
6.66159e-09 -3.3604e-07 0.0119568

0.0290274 -0.00464789 5.10118e-09
-0.00464789 0.0191314 2.32464e-07
5.10118e-09 2.32464e-07 0.0126175

0.0375775 -0.000660522 3.34157e-08
-0.000660522 0.044913 -7.22881e-08
3.34157e-08 -7.22881e-08 0.0362983

0.0375752 0.000358387 -3.78045e-08
0.000358387 0.0447903 -2.2242e-08
-3.78045e-08 -2.2242e-08 0.0362785

0.0426068 -0.00327365 -1.33305e-07
-0.00327365 0.0394537 -1.2219e-07
-1.33305e-07 -1.2219e-07 0.0362323

0.0430004 -0.00294355 -3.99368e-07
-0.00294355 0.0391715 1.54921e-07
-3.99368e-07 1.54921e-07 0.0362393

0.0425035 0.00350333 2.67483e-07
0.00350333 0.0399754 2.75927e-07
2.67483e-07 2.75927e-07 0.0362771

0.0443996 0.000416862 1.57542e-07
0.000416862 0.0450806 2.41741e-07
1.57542e-07 2.41741e-07 0.0366404

0.0426107 -0.002744 6.99944e-08
-0.002744 0.03951 9.49498e-08
6.99944e-08 9.49498e-08 0.0362939

0.0426046 -0.00251198 -1.2147e-07
-0.00251198 0.0442686 -6.28277e-07
-1.2147e-07 -6.28277e-07 0.0365679

0.0451193 0.000331536 -4.92107e-07
0.000331536 0.0454685 -3.63692e-07
-4.92107e-07 -3.63692e-07 0.0366586

0.0436389 -0.00278235 -2.89983e-07
-0.00278235 0.0389195 5.76501e-08
-2.89983e-07 5.76501e-08 0.0363345

0.0435138 0.00283797 2.02047e-07
0.00283797 0.039072 2.16196e-08
2.02047e-07 2.16196e-08 0.0363726

0.0451938 -0.000469989 3.37665e-08
-0.000469989 0.0455827 3.46463e-07
3.37665e-08 3.46463e-07 0.0367073

0.045224 -0.000423128 -4.20259e-07
-0.000423128 0.0443626 8.66439e-07
-4.20259e-07 8.66439e-07 0.0367256

0.0427993 0.00163904 -6.56682e-08
0.00163904 0.0442484 2.73259e-07
-6.56682e-08 2.73259e-07 0.0366117

0.0411192 0.00361746 1.69132e-07
0.00361746 0.0405185 1.79965e-07
1.69132e-07 1.79965e-07 0.0363264

SCALARS pressure float
LOOKUP_TABLE default
-60.0683
19.3113
5.80857
21.2925
15.8795
5.89257
-58.6911
7.78743
-3.80069
15.1275
-24.4401
7.62159
5.59622
12.2831
23.336
5.54319
18.5232
13.2122
-0.68756
6.76247
-0.90041
33.1196
5.80658
5.80235
6.60764
14.9074
-38.3944
6.67727
-15.2415
30.6158
5.18055
-15.6564
-42.0667
27.3202
20.7742
27.3531
31.8738
19.8045
4.86388
-42.6101
-17.4071
31.8945
31.9826
5.99762
-21.8084
-15.975
-1.0474
-3.40143
6.55032
-16.2178
-18.9192
-15.3443
20.7542
-15.3717
20.3077
-33.1545
21.1245
-15.4588
21.1343
7.05064
21.767
16.1196
-45.5712
12.7914
16.3628
10.9085
21.5763
13.8327
5.77908
21.8198
20.8103
20.7809
-17.6908
11.6037
3.97835
-31.618
14.3572
10.9996
14.1509
-8.71664
-28.9484
14.9768
20.1651
-22.04
-23.4307
-28.097
7.10337
9.63564
-22.2192
37.7264
-15.5075
38.4288
18.3041
10.7654
-15.165
-15.8723
-30.2252
14.7563
14.3662
4.60296
-10.7634
-21.9401
-25.1045
16.217
14.1051
14.9645
18.6995
3.77924
-24.5611
26.5129
7.22343
-21.4119
-24.6152
14.8427
15.0809
-16.1444
20.16
-29.117
20.6235
-16.7282
-2.89992
23.8319
21.7299
16.0349
26.6794
22.6316
21.781
15.7112
-29.7848
-16.0977
24.0892
21.6205
20.9908
22.0684
-22.0145
23.5807
-33.8428
5.46764
21.7555
23.6241
-21.9373
6.68006
-5.96269
15.0878
-30.4115
15.6274
7.83806
2.4123
5.18223
-9.39128
-0.453156
22.6441
-15.4538
5.2951
15.2084
21.5636
11.5115
-21.1135
-21.2641
10.7952
-2.83867
-15.1966
-21.2235
-15.1646
-20.9867
15.2824
-20.6359
-21.2019
-15.2069
-21.064
19.0036
-15.9396
-14.8237
12.0675
-14.483
18.8049
19.0527
7.47748
18.0471
11.7776
-16.2484
15.291
14.9638
-21.5288
10.4298
-14.2205
16.0506
14.5983
17.0816
14.8379
10.3471
-26.9793
-16.0809
-15.9574
21.9098
14.5308
14.6296
20.9241
22.4896
9.50621
21.7366
-0.379555
-8.16738
20.7805
-17.8386
19.9471
10.3677
-21.5181
15.7231
22.5285
14.732
9.39761
14.1947
21.0569
-7.8292
8.83127
-7.90511
14.651
26.9272
26.5809
27.9598
26.3882
26.7239
26.2906
13.8302
23.4283
24.0274
23.9716
23.398
21.1915
21.856
-8.2594
15.9372
28.1911
-3.18484
23.5741
23.2033
27.8344
-8.49025
28.0964
15.3473
-7.57797
17.4935
-8.25438
20.2288
29.6125
-7.48234
-8.09734
-29.5957
-18.1898
19.5289
-31.99
5.73839
-7.79052
-1.18455
28.2491
26.6399
30.4168
26.7606
-34.8063
-8.17624
28.3373
8.07753
-8.29185
26.4457
-6.2916
30.4617
-7.95064
27.0466
14.5681
14.7918
23.8431
10.0508
18.0203
8.12144
-29.8647
-24.5571
16.8068
1.76435
8.18415
-13.6068
17.4371
11.7029
-8.09811
9.45568
-10.8207
7.52123
-10.7519
-8.48145
33.2522
19.1508
25.0863
25.3106
13.8332
-10.4017
26.4244
14.687
-1.65469
-10.271
-12.562
17.5062
-7.48165
17.5743
-12.0388
-21.3539
-10.6055
-34.6865
15.5652
-7.75945
34.4296
-11.5754
16.8742
-8.40541
15.9748
-12.7561
4.29306
-51.129
8.52695
-7.74312
21.3332
-8.14872
-0.118171
10.718
21.1273
-12.0583
-10.1979
-6.06453
14.3207
-10.1771
6.89192
6.39091
16.305
-10.4168
-6.32674
-1.6982
-5.65671
-11.0758
-5.84098
15.3075
7.81199
-5.55228
-8.95724
7.8091
7.69788
-10.6718
16.3089
-27.2228
2.29742
-28.4848
-0.953488
-8.89443
-8.11256
-11.7959
-10.9594
-9.89747
-7.79229
-7.91569
16.6403
24.7738
12.1209
-0.286996
-0.820291
-5.67084
7.30904
-6.31705
-6.31433
24.9193
-5.72623
14.119
-15.907
24.3228
5.9732
-0.386583
-5.64016
16.275
2.48139
0.203696
2.45238
0.460627
-0.735994
-9.92744
-0.0909063
2.11756
15.0695
-1.28357
-1.40241
-0.99413
-0.384051
1.96959
8.05488
-1.18889
8.08232
5.58819
-0.431061
7.03956
5.49523
-3.87247
16.4786
-1.89945
23.0586
-21.9769
15.0466
15.6844
2.04397
-1.99366
12.5465
-26.515
5.79736
-1.6539
-50.4931
30.4883
30.625
5.83
-1.13963
-1.04282
-0.844896
33.4035
33.2781
13.0985
6.08576
6.66679
-28.9718
-1.27465
16.5351
-3.17895
-4.34458
-0.012315
-25.2798
14.3068
-1.27547
2.86616
2.69755
-2.71927
-0.044799
-3.20562
-4.02999
-37.9914
-33.6882
-0.123509
1.87859
-0.529932
-3.74047
-1.93261
-1.87391
-0.92016
-21.9108
17.2501
-0.764465
12.5687
14.1869
-26.7689
6.29065
7.14168
18.4776
36.4154
36.4479
22.6378
-1.7511
2.60411
-20.9332
36.1146
32.7451
32.8121
-24.8173
21.7703
30.5147
2.60366
15.7242
10.3758
17.1672
17.7283
12.5083
5.68567
-25.4063
4.2641
10.4126
16.2458
-31.718
28.303
-52.7209
18.6875
10.3024
-10.6246
7.42129
5.46112
24.4721
9.41524
24.4051
4.10926
12.4021
30.6326
29.4585
-22.9939
17.4387
-70.2484
-74.3954
-67.1922
11.6512
-31.2696
-63.6252
-3.79972
-69.954
16.4618
16.4055
-73.7707
5.2176
-39.7389
-70.7546
-37.7646
-71.8913
-39.4605
21.132
-23.9648
-29.0529
-70.6383
4.83535
15.7596
-36.1984
6.05787
-63.6326
9.83992
3.8869
-67.9167
-37.6326
-66.4262
-23.7636
5.03411
20.5225
35.3566
36.7119
11.8161
36.8354
36.8887
36.4774
36.3921
-24.4831
28.2421
20.6691
21.9769
11.539
36.048
36.0795
18.1173
-23.9487
3.25148
-30.5359
-56.6081
-50.4838
36.132
35.8129
35.3698
35.44
36.148
35.5842
33.0997
37.3577
35.3854
35.9949
35.6273
34.1824
34.3188
35.8435
35.2998
