# vtk DataFile Version 3.0
vtk output at time 290
ASCII
DATASET UNSTRUCTURED_GRID
POINTS 626 float
-3.68058e-05 0.000978749 0 3.68058e-05 0.000978749 0 -0.000829194 0.00052125 0 
-0.0008235 0.0005 0 -0.000866 0.0004575 0 -0.000866 -0.0004575 0 
-0.0008235 -0.0005 0 -0.000829194 -0.00052125 0 -3.68058e-05 -0.000978749 0 
3.68058e-05 -0.000978749 0 0.000829194 -0.00052125 0 0.000866 -0.0004575 0 
0.000866 0.0004575 0 0.000829194 0.00052125 0 8.5e-05 0 0 
-3.68058e-05 0.000978749 -0.001 3.68058e-05 0.000978749 -0.001 -0.000829194 0.00052125 -0.001 
-0.0008235 0.0005 -0.001 -0.000866 0.0004575 -0.001 -0.000866 -0.0004575 -0.001 
-0.0008235 -0.0005 -0.001 -0.000829194 -0.00052125 -0.001 -3.68058e-05 -0.000978749 -0.001 
3.68058e-05 -0.000978749 -0.001 0.000829194 -0.00052125 -0.001 0.000866 -0.0004575 -0.001 
0.000866 0.0004575 -0.001 0.000829194 0.00052125 -0.001 8.5e-05 0 -0.001 
8.46223e-17 0.0009575 0 -0.000715996 0.000586607 0 -0.000602797 0.000651965 0 
-0.000489599 0.000717321 0 -0.000376401 0.000782678 0 -0.000263202 0.000848036 0 
-0.000150004 0.000913393 0 -0.000835948 0.000469948 0 -0.000866 -0.000326786 0 
-0.000866 -0.000196071 0 -0.000866 -6.53571e-05 0 -0.000866 6.53571e-05 0 
-0.000866 0.000196071 0 -0.000866 0.000326786 0 -0.000835948 -0.000469948 0 
-0.000150004 -0.000913393 0 -0.000263202 -0.000848036 0 -0.000376401 -0.000782678 0 
-0.000489599 -0.000717321 0 -0.000602797 -0.000651965 0 -0.000715996 -0.000586607 0 
8.47648e-17 -0.0009575 0 0.000715996 -0.000586607 0 0.000602797 -0.000651965 0 
0.000489599 -0.000717321 0 0.000376401 -0.000782678 0 0.000263202 -0.000848036 0 
0.000150004 -0.000913393 0 0.000829194 -0.00047875 0 0.000866 0.000326786 0 
0.000866 0.000196071 0 0.000866 6.53571e-05 0 0.000866 -6.53571e-05 0 
0.000866 -0.000196071 0 0.000866 -0.000326786 0 0.000829194 0.00047875 0 
0.000150004 0.000913393 0 0.000263202 0.000848036 0 0.000376401 0.000782678 0 
0.000489599 0.000717321 0 0.000602797 0.000651965 0 0.000715996 0.000586607 0 
5.29966e-05 6.64557e-05 0 -1.89143e-05 8.28689e-05 0 -7.65824e-05 3.68801e-05 0 
-7.65824e-05 -3.68801e-05 0 -1.89143e-05 -8.28689e-05 0 5.29966e-05 -6.64557e-05 0 
8.46223e-17 0.0009575 -0.001 -0.000715996 0.000586607 -0.001 -0.000602797 0.000651965 -0.001 
-0.000489599 0.000717321 -0.001 -0.000376401 0.000782678 -0.001 -0.000263202 0.000848036 -0.001 
-0.000150004 0.000913393 -0.001 -0.000835948 0.000469948 -0.001 -0.000866 -0.000326786 -0.001 
-0.000866 -0.000196071 -0.001 -0.000866 -6.53571e-05 -0.001 -0.000866 6.53571e-05 -0.001 
-0.000866 0.000196071 -0.001 -0.000866 0.000326786 -0.001 -0.000835948 -0.000469948 -0.001 
-0.000150004 -0.000913393 -0.001 -0.000263202 -0.000848036 -0.001 -0.000376401 -0.000782678 -0.001 
-0.000489599 -0.000717321 -0.001 -0.000602797 -0.000651965 -0.001 -0.000715996 -0.000586607 -0.001 
8.47648e-17 -0.0009575 -0.001 0.000715996 -0.000586607 -0.001 0.000602797 -0.000651965 -0.001 
0.000489599 -0.000717321 -0.001 0.000376401 -0.000782678 -0.001 0.000263202 -0.000848036 -0.001 
0.000150004 -0.000913393 -0.001 0.000829194 -0.00047875 -0.001 0.000866 0.000326786 -0.001 
0.000866 0.000196071 -0.001 0.000866 6.53571e-05 -0.001 0.000866 -6.53571e-05 -0.001 
0.000866 -0.000196071 -0.001 0.000866 -0.000326786 -0.001 0.000829194 0.00047875 -0.001 
0.000150004 0.000913393 -0.001 0.000263202 0.000848036 -0.001 0.000376401 0.000782678 -0.001 
0.000489599 0.000717321 -0.001 0.000602797 0.000651965 -0.001 0.000715996 0.000586607 -0.001 
5.29966e-05 6.64557e-05 -0.001 -1.89143e-05 8.28689e-05 -0.001 -7.65824e-05 3.68801e-05 -0.001 
-7.65824e-05 -3.68801e-05 -0.001 -1.89143e-05 -8.28689e-05 -0.001 5.29966e-05 -6.64557e-05 -0.001 
0.000131234 6.38474e-05 0 0.00012964 -6.2443e-05 0 3.13827e-05 0.0001394 0 
3.12554e-05 -0.000136939 0 -0.000140461 8.25467e-19 0 -8.90565e-05 -0.000102707 0 
-9.04142e-05 0.000102872 0 -0.000765769 -0.00025965 0 -0.000756873 0.000262774 0 
-0.00015609 0.000787505 0 -0.000155807 -0.00079355 0 0.000605069 0.000528035 0 
0.000608694 -0.00052497 0 0.000744069 0.000116929 0 -0.000494418 0.000596218 0 
-0.000483866 -0.000584648 0 0.000269496 0.000702219 0 0.000263201 -0.000717324 0 
0.000754429 -0.000127825 0 -0.000748858 5.84659e-07 0 -0.000747838 0.000373886 0 
-0.0006542 0.000324842 0 -0.000645137 0.000210123 0 -0.000550884 0.000274171 0 
-0.000538857 0.000163195 0 -0.00045062 0.000224461 0 -0.000438393 0.000123907 0 
-0.000354088 0.000181668 0 -0.000363908 0.000282171 0 -0.000270361 0.000239477 0 
-0.000279138 0.000337653 0 -0.000188888 0.000294791 0 -0.000196448 0.000393271 0 
-0.000104767 0.000348259 0 -0.000113332 0.000449012 0 -2.01066e-05 0.000403223 0 
-2.89189e-05 0.000507105 0 6.9524e-05 0.000461596 0 -0.000213644 0.000490203 0 
7.33757e-05 0.000357726 0 0.000163331 0.00041299 0 0.000163359 0.000313022 0 
0.000248077 0.000366368 0 0.000250914 0.000265758 0 0.000335709 0.000322266 0 
0.000340555 0.000218148 0 0.000427299 0.000276717 0 0.000431508 0.000173093 0 
0.000328731 0.000425633 0 0.00034586 0.000114823 0 0.000435362 7.05241e-05 0 
0.000350892 1.5455e-05 0 0.000441547 -3.11896e-05 0 0.000353547 -8.47783e-05 0 
0.000445767 -0.000132964 0 0.000356135 -0.000186358 0 0.000449094 -0.000234674 0 
0.000359978 -0.000287876 0 0.00026856 -0.000240545 0 0.000271895 -0.000341045 0 
0.000181792 -0.00029305 0 0.00018533 -0.000392851 0 9.75701e-05 -0.00034483 0 
9.98764e-05 -0.000444884 0 8.75116e-06 -0.000396343 0 1.20916e-05 -0.000500496 0 
-7.83929e-05 -0.000449843 0 -8.1471e-05 -0.000347249 0 -0.000171566 -0.000403733 0 
-0.000169889 -0.000298891 0 -0.000259867 -0.000354132 0 -0.000257696 -0.000249137 0 
-0.00034313 -0.000299896 0 -0.000344514 -0.000199127 0 -0.000434309 -0.000250039 0 
-0.000169832 -0.000505815 0 -0.000435227 -0.000146227 0 0.000280331 -0.000442424 0 
-0.000340889 8.76793e-05 0 -0.000515252 4.06198e-05 0 6.50491e-05 0.000568253 0 
0.00053278 1.74743e-05 0 0.000522071 0.000229831 0 -0.00037162 0.000391659 0 
-0.000255272 -0.000150439 0 -0.000442893 -0.000350705 0 0.000450067 -0.000332559 0 
0.000545175 -0.000276306 0 -0.000527797 -0.000197598 0 0.000105306 -0.000551033 0 
1.45836e-05 -0.000609147 0 0.00017145 0.000214453 0 0.000515525 0.000341711 0 
0.000636086 0.000290368 0 -0.000558657 0.000404468 0 -4.01232e-05 0.000616718 0 
6.60192e-05 0.000696422 0 -0.000101806 0.0002546 0 0.000271142 -3.88908e-05 0 
0.000179455 -0.00018534 0 -8.79553e-05 -0.000254307 0 -0.000749267 -0.000373451 0 
-0.000655941 -0.000323397 0 0.000709746 0.000466718 0 0.000698426 -0.000473086 0 
-5.25801e-05 -0.00084886 0 -4.93005e-05 0.000848038 0 0.000617396 -0.000413362 0 
0.000702056 -0.000369817 0 0.000131459 -0.000679171 0 2.48171e-05 -0.000715924 0 
-0.000664217 -0.00042729 0 -0.000528828 -8.80444e-05 0 -0.000611101 -0.000136672 0 
-0.000426972 -4.45841e-05 0 0.000800669 0.000378216 0 0.000821144 -0.000415062 0 
7.2799e-05 0.00088254 0 6.81831e-05 -0.00087503 0 0.000104963 -0.000788946 0 
-7.40696e-05 -0.000660054 0 0.000126061 0.000809943 0 0.000764361 0.000295682 0 
0.000166862 0.000630623 0 0.000516462 -0.00046707 0 -0.000563585 -0.000389606 0 
-0.000622598 -1.40238e-05 0 0.000629891 0.000171529 0 2.5614e-06 -0.000299794 0 
8.6901e-05 -0.00024329 0 0.000272045 -0.000136982 0 -0.00075148 0.000138321 0 
0.000209366 -0.000599589 0 0.000324913 -0.000630055 0 0.000614044 0.00041245 0 
0.00049651 -0.000573327 0 0.000394822 -0.000507321 0 -0.000173714 -0.000206698 0 
0.000264897 5.63722e-05 0 0.000247997 0.000152811 0 -4.63327e-05 -0.000920208 0 
9.18688e-05 0.000258626 0 -5.54111e-06 0.000290558 0 -0.000184219 0.000201484 0 
-0.000263559 0.000142267 0 -0.000256427 5.13624e-05 0 -0.000336894 -2.06179e-06 0 
-0.000228499 -4.2388e-05 0 -0.00017589 0.000106626 0 -0.000769947 -0.000133367 0 
0.000767591 -0.000500293 0 -5.05874e-05 0.000737978 0 0.000754456 -3.51771e-06 0 
0.00064691 -6.15298e-05 0 0.000630483 -0.00018134 0 0.000749187 -0.000265543 0 
-0.000760805 -0.000462521 0 0.000638155 6.09315e-05 0 -4.46661e-05 0.000922995 0 
-2.37945e-05 0.000207237 0 0.000776979 0.000500181 0 -0.000605691 0.000527596 0 
-0.000377914 -0.000653727 0 -0.000372325 -0.000526022 0 -0.000275829 -0.000589621 0 
-0.000254285 -0.000710579 0 -0.000379307 0.000656222 0 -0.000379818 0.00052718 0 
-0.000266817 0.000721555 0 -0.000150544 0.000668174 0 0.000381963 0.00065079 0 
0.000493113 0.000590432 0 0.000505439 0.000463708 0 -0.000269094 0.000596608 0 
0.000385815 0.000532045 0 0.000283599 0.0005899 0 -0.000176405 -0.000108505 0 
-0.000278769 -0.000475415 0 0.000185395 2.33014e-06 0 0.000186773 0.000517571 0 
0.000540032 -8.68444e-05 0 -0.000600694 -0.000514877 0 -0.00063703 8.98033e-05 0 
-0.000459677 0.000335729 0 -0.000338836 -0.000100751 0 -0.000457327 0.000432721 0 
-8.72007e-06 -0.000210238 0 0.000156073 0.000129496 0 -7.70692e-05 -0.000555049 0 
0.00036091 -0.000389728 0 0.000531628 0.000120564 0 -0.000285451 0.000435562 0 
0.000192719 -0.000494604 0 0.00041642 0.00039368 0 -0.000135943 0.000554637 0 
-0.000170665 -0.000610079 0 -0.000666304 0.000434981 0 -0.000758736 0.000479231 0 
-0.000470189 -0.000458901 0 0.000203433 -8.59809e-05 0 0.000101846 0.000170114 0 
-0.00035513 -0.00040726 0 0.000100184 -0.000165831 0 2.96286e-05 0.00081537 0 
0.000720946 0.000381836 0 -0.000539809 -0.000292001 0 0.00052211 -0.000182426 0 
-6.41339e-05 -0.000753908 0 0.000638039 -0.000299861 0 -0.000605136 -0.000230182 0 
-3.41638e-05 -0.000145561 0 -0.000104037 0.000172396 0 -0.000808575 -0.00042774 0 
-0.000807207 -0.000465052 0 -0.00080817 0.000429771 0 -0.000806589 0.000469738 0 
-9.50634e-05 -0.000178909 0 0.000247777 0.000445058 0 1.48293e-05 -0.000814201 0 
-4.11555e-05 0.000140955 0 0.000276104 -0.000536845 0 0.000765969 -0.000436638 0 
0.000780871 -0.000362769 0 0.000424176 -0.000642018 0 0.00053413 -0.000368009 0 
-0.000416333 4.17911e-05 0 -0.000133891 -6.23822e-05 0 4.2574e-05 0.000206312 0 
0.000141163 -0.000121542 0 0.000707423 0.000212137 0 0.000172327 0.000723882 0 
7.72652e-06 -0.00090254 0 -0.000134435 5.66935e-05 0 -0.000188826 3.70894e-05 0 
0.000197119 8.09714e-05 0 1.27801e-05 0.000917296 0 0.000800767 0.00044758 0 
-0.000686682 0.000507104 0 9.35831e-05 0.000110457 0 -0.000696793 -0.000509595 0 
-0.00068446 -8.52012e-05 0 -0.000691033 -0.000201242 0 5.24052e-05 -0.000189075 0 
-0.000151818 -0.000701092 0 -0.000296988 0.000518087 0 9.31023e-05 -0.000108117 0 
0.00044261 -0.000416726 0 0.000197044 -0.000784423 0 -0.000516861 0.000504567 0 
0.000298997 0.000502377 0 0.000131234 6.38474e-05 -0.001 0.00012964 -6.2443e-05 -0.001 
3.13827e-05 0.0001394 -0.001 3.12554e-05 -0.000136939 -0.001 -0.000140461 8.25467e-19 -0.001 
-8.90565e-05 -0.000102707 -0.001 -9.04142e-05 0.000102872 -0.001 -0.000765769 -0.00025965 -0.001 
-0.000756873 0.000262774 -0.001 -0.00015609 0.000787505 -0.001 -0.000155807 -0.00079355 -0.001 
0.000605069 0.000528035 -0.001 0.000608694 -0.00052497 -0.001 0.000744069 0.000116929 -0.001 
-0.000494418 0.000596218 -0.001 -0.000483866 -0.000584648 -0.001 0.000269496 0.000702219 -0.001 
0.000263201 -0.000717324 -0.001 0.000754429 -0.000127825 -0.001 -0.000748858 5.84659e-07 -0.001 
-0.000747838 0.000373886 -0.001 -0.0006542 0.000324842 -0.001 -0.000645137 0.000210123 -0.001 
-0.000550884 0.000274171 -0.001 -0.000538857 0.000163195 -0.001 -0.00045062 0.000224461 -0.001 
-0.000438393 0.000123907 -0.001 -0.000354088 0.000181668 -0.001 -0.000363908 0.000282171 -0.001 
-0.000270361 0.000239477 -0.001 -0.000279138 0.000337653 -0.001 -0.000188888 0.000294791 -0.001 
-0.000196448 0.000393271 -0.001 -0.000104767 0.000348259 -0.001 -0.000113332 0.000449012 -0.001 
-2.01066e-05 0.000403223 -0.001 -2.89189e-05 0.000507105 -0.001 6.9524e-05 0.000461596 -0.001 
-0.000213644 0.000490203 -0.001 7.33757e-05 0.000357726 -0.001 0.000163331 0.00041299 -0.001 
0.000163359 0.000313022 -0.001 0.000248077 0.000366368 -0.001 0.000250914 0.000265758 -0.001 
0.000335709 0.000322266 -0.001 0.000340555 0.000218148 -0.001 0.000427299 0.000276717 -0.001 
0.000431508 0.000173093 -0.001 0.000328731 0.000425633 -0.001 0.00034586 0.000114823 -0.001 
0.000435362 7.05241e-05 -0.001 0.000350892 1.5455e-05 -0.001 0.000441547 -3.11896e-05 -0.001 
0.000353547 -8.47783e-05 -0.001 0.000445767 -0.000132964 -0.001 0.000356135 -0.000186358 -0.001 
0.000449094 -0.000234674 -0.001 0.000359978 -0.000287876 -0.001 0.00026856 -0.000240545 -0.001 
0.000271895 -0.000341045 -0.001 0.000181792 -0.00029305 -0.001 0.00018533 -0.000392851 -0.001 
9.75701e-05 -0.00034483 -0.001 9.98764e-05 -0.000444884 -0.001 8.75116e-06 -0.000396343 -0.001 
1.20916e-05 -0.000500496 -0.001 -7.83929e-05 -0.000449843 -0.001 -8.1471e-05 -0.000347249 -0.001 
-0.000171566 -0.000403733 -0.001 -0.000169889 -0.000298891 -0.001 -0.000259867 -0.000354132 -0.001 
-0.000257696 -0.000249137 -0.001 -0.00034313 -0.000299896 -0.001 -0.000344514 -0.000199127 -0.001 
-0.000434309 -0.000250039 -0.001 -0.000169832 -0.000505815 -0.001 -0.000435227 -0.000146227 -0.001 
0.000280331 -0.000442424 -0.001 -0.000340889 8.76793e-05 -0.001 -0.000515252 4.06198e-05 -0.001 
6.50491e-05 0.000568253 -0.001 0.00053278 1.74743e-05 -0.001 0.000522071 0.000229831 -0.001 
-0.00037162 0.000391659 -0.001 -0.000255272 -0.000150439 -0.001 -0.000442893 -0.000350705 -0.001 
0.000450067 -0.000332559 -0.001 0.000545175 -0.000276306 -0.001 -0.000527797 -0.000197598 -0.001 
0.000105306 -0.000551033 -0.001 1.45836e-05 -0.000609147 -0.001 0.00017145 0.000214453 -0.001 
0.000515525 0.000341711 -0.001 0.000636086 0.000290368 -0.001 -0.000558657 0.000404468 -0.001 
-4.01232e-05 0.000616718 -0.001 6.60192e-05 0.000696422 -0.001 -0.000101806 0.0002546 -0.001 
0.000271142 -3.88908e-05 -0.001 0.000179455 -0.00018534 -0.001 -8.79553e-05 -0.000254307 -0.001 
-0.000749267 -0.000373451 -0.001 -0.000655941 -0.000323397 -0.001 0.000709746 0.000466718 -0.001 
0.000698426 -0.000473086 -0.001 -5.25801e-05 -0.00084886 -0.001 -4.93005e-05 0.000848038 -0.001 
0.000617396 -0.000413362 -0.001 0.000702056 -0.000369817 -0.001 0.000131459 -0.000679171 -0.001 
2.48171e-05 -0.000715924 -0.001 -0.000664217 -0.00042729 -0.001 -0.000528828 -8.80444e-05 -0.001 
-0.000611101 -0.000136672 -0.001 -0.000426972 -4.45841e-05 -0.001 0.000800669 0.000378216 -0.001 
0.000821144 -0.000415062 -0.001 7.2799e-05 0.00088254 -0.001 6.81831e-05 -0.00087503 -0.001 
0.000104963 -0.000788946 -0.001 -7.40696e-05 -0.000660054 -0.001 0.000126061 0.000809943 -0.001 
0.000764361 0.000295682 -0.001 0.000166862 0.000630623 -0.001 0.000516462 -0.00046707 -0.001 
-0.000563585 -0.000389606 -0.001 -0.000622598 -1.40238e-05 -0.001 0.000629891 0.000171529 -0.001 
2.5614e-06 -0.000299794 -0.001 8.6901e-05 -0.00024329 -0.001 0.000272045 -0.000136982 -0.001 
-0.00075148 0.000138321 -0.001 0.000209366 -0.000599589 -0.001 0.000324913 -0.000630055 -0.001 
0.000614044 0.00041245 -0.001 0.00049651 -0.000573327 -0.001 0.000394822 -0.000507321 -0.001 
-0.000173714 -0.000206698 -0.001 0.000264897 5.63722e-05 -0.001 0.000247997 0.000152811 -0.001 
-4.63327e-05 -0.000920208 -0.001 9.18688e-05 0.000258626 -0.001 -5.54111e-06 0.000290558 -0.001 
-0.000184219 0.000201484 -0.001 -0.000263559 0.000142267 -0.001 -0.000256427 5.13624e-05 -0.001 
-0.000336894 -2.06179e-06 -0.001 -0.000228499 -4.2388e-05 -0.001 -0.00017589 0.000106626 -0.001 
-0.000769947 -0.000133367 -0.001 0.000767591 -0.000500293 -0.001 -5.05874e-05 0.000737978 -0.001 
0.000754456 -3.51771e-06 -0.001 0.00064691 -6.15298e-05 -0.001 0.000630483 -0.00018134 -0.001 
0.000749187 -0.000265543 -0.001 -0.000760805 -0.000462521 -0.001 0.000638155 6.09315e-05 -0.001 
-4.46661e-05 0.000922995 -0.001 -2.37945e-05 0.000207237 -0.001 0.000776979 0.000500181 -0.001 
-0.000605691 0.000527596 -0.001 -0.000377914 -0.000653727 -0.001 -0.000372325 -0.000526022 -0.001 
-0.000275829 -0.000589621 -0.001 -0.000254285 -0.000710579 -0.001 -0.000379307 0.000656222 -0.001 
-0.000379818 0.00052718 -0.001 -0.000266817 0.000721555 -0.001 -0.000150544 0.000668174 -0.001 
0.000381963 0.00065079 -0.001 0.000493113 0.000590432 -0.001 0.000505439 0.000463708 -0.001 
-0.000269094 0.000596608 -0.001 0.000385815 0.000532045 -0.001 0.000283599 0.0005899 -0.001 
-0.000176405 -0.000108505 -0.001 -0.000278769 -0.000475415 -0.001 0.000185395 2.33014e-06 -0.001 
0.000186773 0.000517571 -0.001 0.000540032 -8.68444e-05 -0.001 -0.000600694 -0.000514877 -0.001 
-0.00063703 8.98033e-05 -0.001 -0.000459677 0.000335729 -0.001 -0.000338836 -0.000100751 -0.001 
-0.000457327 0.000432721 -0.001 -8.72007e-06 -0.000210238 -0.001 0.000156073 0.000129496 -0.001 
-7.70692e-05 -0.000555049 -0.001 0.00036091 -0.000389728 -0.001 0.000531628 0.000120564 -0.001 
-0.000285451 0.000435562 -0.001 0.000192719 -0.000494604 -0.001 0.00041642 0.00039368 -0.001 
-0.000135943 0.000554637 -0.001 -0.000170665 -0.000610079 -0.001 -0.000666304 0.000434981 -0.001 
-0.000758736 0.000479231 -0.001 -0.000470189 -0.000458901 -0.001 0.000203433 -8.59809e-05 -0.001 
0.000101846 0.000170114 -0.001 -0.00035513 -0.00040726 -0.001 0.000100184 -0.000165831 -0.001 
2.96286e-05 0.00081537 -0.001 0.000720946 0.000381836 -0.001 -0.000539809 -0.000292001 -0.001 
0.00052211 -0.000182426 -0.001 -6.41339e-05 -0.000753908 -0.001 0.000638039 -0.000299861 -0.001 
-0.000605136 -0.000230182 -0.001 -3.41638e-05 -0.000145561 -0.001 -0.000104037 0.000172396 -0.001 
-0.000808575 -0.00042774 -0.001 -0.000807207 -0.000465052 -0.001 -0.00080817 0.000429771 -0.001 
-0.000806589 0.000469738 -0.001 -9.50634e-05 -0.000178909 -0.001 0.000247777 0.000445058 -0.001 
1.48293e-05 -0.000814201 -0.001 -4.11555e-05 0.000140955 -0.001 0.000276104 -0.000536845 -0.001 
0.000765969 -0.000436638 -0.001 0.000780871 -0.000362769 -0.001 0.000424176 -0.000642018 -0.001 
0.00053413 -0.000368009 -0.001 -0.000416333 4.17911e-05 -0.001 -0.000133891 -6.23822e-05 -0.001 
4.2574e-05 0.000206312 -0.001 0.000141163 -0.000121542 -0.001 0.000707423 0.000212137 -0.001 
0.000172327 0.000723882 -0.001 7.72652e-06 -0.00090254 -0.001 -0.000134435 5.66935e-05 -0.001 
-0.000188826 3.70894e-05 -0.001 0.000197119 8.09714e-05 -0.001 1.27801e-05 0.000917296 -0.001 
0.000800767 0.00044758 -0.001 -0.000686682 0.000507104 -0.001 9.35831e-05 0.000110457 -0.001 
-0.000696793 -0.000509595 -0.001 -0.00068446 -8.52012e-05 -0.001 -0.000691033 -0.000201242 -0.001 
5.24052e-05 -0.000189075 -0.001 -0.000151818 -0.000701092 -0.001 -0.000296988 0.000518087 -0.001 
9.31023e-05 -0.000108117 -0.001 0.00044261 -0.000416726 -0.001 0.000197044 -0.000784423 -0.001 
-0.000516861 0.000504567 -0.001 0.000298997 0.000502377 -0.001 

CELLS 563 3941
6 14 304 127 29 554 377 
6 143 259 55 393 509 103 
6 300 319 174 550 569 424 
6 259 349 55 509 599 103 
6 50 365 307 98 615 557 
6 299 320 164 549 570 414 
6 126 304 14 376 554 29 
6 298 319 300 548 569 550 
6 205 240 238 455 490 488 
6 257 308 145 507 558 395 
6 130 352 273 380 602 523 
6 295 320 299 545 570 549 
6 324 327 289 574 577 539 
6 235 258 143 485 508 393 
6 50 307 49 98 557 97 
6 207 283 279 457 533 529 
6 143 373 235 393 623 485 
6 145 308 252 395 558 502 
6 194 303 196 444 553 446 
6 279 306 207 529 556 457 
6 206 305 163 456 555 413 
6 51 357 9 99 607 24 
6 238 252 205 488 502 455 
6 293 317 209 543 567 459 
6 207 316 283 457 566 533 
6 142 301 249 392 551 499 
6 273 359 130 523 609 380 
6 211 327 324 461 577 574 
6 169 265 217 419 515 467 
6 7 365 50 22 615 98 
6 283 316 253 533 566 503 
6 159 268 223 409 518 473 
6 274 337 132 524 587 382 
6 232 361 329 482 611 579 
6 231 266 45 481 516 93 
6 229 362 330 479 612 580 
6 9 244 57 24 494 105 
6 230 276 52 480 526 100 
6 209 311 293 459 561 543 
6 131 342 302 381 592 552 
6 270 271 204 520 521 454 
6 66 243 1 114 493 16 
6 59 241 12 107 491 27 
6 280 306 279 530 556 529 
6 269 337 274 519 587 524 
6 179 256 224 429 506 474 
6 163 305 166 413 555 416 
6 201 303 194 451 553 444 
6 280 332 306 530 582 556 
6 186 255 225 436 505 475 
6 210 310 273 460 560 523 
6 153 270 204 403 520 454 
6 136 231 45 386 481 93 
6 171 265 169 421 515 419 
6 138 230 52 388 480 100 
6 225 354 325 475 604 575 
6 36 284 232 84 534 482 
6 161 268 159 411 518 409 
6 71 286 229 119 536 479 
6 290 303 201 540 553 451 
6 139 355 60 389 605 108 
6 60 355 248 108 605 498 
6 273 352 302 523 602 552 
6 235 373 245 485 623 495 
6 67 356 247 115 606 497 
6 221 295 277 471 545 527 
6 142 356 67 392 606 115 
6 139 283 253 389 533 503 
6 203 315 262 453 565 512 
6 41 257 145 89 507 395 
6 36 232 135 84 482 385 
6 71 229 137 119 479 387 
6 254 255 188 504 505 438 
6 233 350 334 483 600 584 
6 262 346 203 512 596 453 
6 304 325 127 554 575 377 
6 222 329 247 472 579 497 
6 218 298 260 468 548 510 
6 290 321 291 540 571 541 
6 272 310 240 522 560 490 
6 269 274 270 519 524 520 
6 244 245 57 494 495 105 
6 49 307 141 97 557 391 
6 225 325 256 475 575 506 
6 273 310 272 523 560 522 
6 312 368 255 562 618 505 
6 249 305 206 499 555 456 
6 228 331 251 478 581 501 
6 302 342 263 552 592 513 
6 338 339 44 588 589 92 
6 190 254 188 440 504 438 
6 37 341 340 85 591 590 
6 138 233 230 388 483 480 
6 228 335 331 478 585 581 
6 181 256 179 431 506 429 
6 195 263 226 445 513 476 
6 268 285 223 518 535 473 
6 290 291 288 540 541 538 
6 219 330 248 469 580 498 
6 201 321 290 451 571 540 
6 240 310 202 490 560 452 
6 188 255 186 438 505 436 
6 270 274 271 520 524 521 
6 262 349 259 512 599 509 
6 141 324 289 391 574 539 
6 296 301 142 546 551 392 
6 247 356 222 497 606 472 
6 239 252 238 489 502 488 
6 254 312 255 504 562 505 
6 54 261 53 102 511 101 
6 289 327 303 539 577 553 
6 268 353 285 518 603 535 
6 273 302 210 523 552 460 
6 292 299 293 542 549 543 
6 278 283 139 528 533 389 
6 175 265 171 425 515 421 
6 227 338 38 477 588 86 
6 264 360 265 514 610 515 
6 43 340 146 91 590 396 
6 165 268 161 415 518 411 
6 205 351 240 455 601 490 
6 64 281 63 112 531 111 
6 288 291 47 538 541 95 
6 135 295 294 385 545 544 
6 42 257 41 90 507 89 
6 245 373 57 495 623 105 
6 31 363 323 79 613 573 
6 292 293 140 542 543 390 
6 267 353 268 517 603 518 
6 155 270 153 405 520 403 
6 244 344 245 494 594 495 
6 61 278 139 109 528 389 
6 135 294 35 385 544 83 
6 69 297 296 117 547 546 
6 186 225 184 436 475 434 
6 329 361 243 579 611 493 
6 255 328 225 505 578 475 
6 213 332 280 463 582 530 
6 39 275 133 87 525 383 
6 330 362 241 580 612 491 
6 195 226 193 445 476 443 
6 211 324 251 461 574 501 
6 151 153 152 401 403 402 
6 295 299 294 545 549 544 
6 265 313 217 515 563 467 
6 258 259 143 508 509 393 
6 251 331 211 501 581 461 
6 149 151 150 399 401 400 
6 293 370 317 543 620 567 
6 153 204 152 403 454 402 
6 151 152 150 401 402 400 
6 33 292 140 81 542 390 
6 210 263 197 460 513 447 
6 301 305 249 551 555 499 
6 298 300 297 548 550 547 
6 68 296 142 116 546 392 
6 321 369 291 571 619 541 
6 179 224 177 429 474 427 
6 167 267 165 417 517 415 
6 259 346 262 509 596 512 
6 303 327 196 553 577 446 
6 269 270 155 519 520 405 
6 265 360 313 515 610 563 
6 223 269 157 473 519 407 
6 157 269 155 407 519 405 
6 144 279 278 394 529 528 
6 169 217 167 419 467 417 
6 177 264 175 427 514 425 
6 267 268 165 517 518 415 
6 159 223 157 409 473 407 
6 232 277 135 482 527 385 
6 193 254 190 443 504 440 
6 217 267 167 467 517 417 
6 249 356 142 499 606 392 
6 184 256 181 434 506 431 
6 248 355 219 498 605 469 
6 229 260 137 479 510 387 
6 149 150 148 399 400 398 
6 64 348 281 112 598 531 
6 311 374 293 561 624 543 
6 264 265 175 514 515 425 
6 297 300 296 547 550 546 
6 141 289 288 391 539 538 
6 197 263 195 447 513 445 
6 218 260 219 468 510 469 
6 224 264 177 474 514 427 
6 137 298 297 387 548 547 
6 277 295 135 527 545 385 
6 133 228 227 383 478 477 
6 261 349 262 511 599 512 
6 221 277 222 471 527 472 
6 256 325 224 506 575 474 
6 199 210 197 449 460 447 
6 226 254 193 476 504 443 
6 144 278 62 394 528 110 
6 279 283 278 529 533 528 
6 289 290 288 539 540 538 
6 137 297 70 387 547 118 
6 34 294 292 82 544 542 
6 235 236 216 485 486 466 
6 141 288 48 391 538 96 
6 178 306 180 428 556 430 
6 185 186 184 435 436 434 
6 63 281 144 111 531 394 
6 225 256 184 475 506 434 
6 46 291 136 94 541 386 
6 147 149 148 397 399 398 
6 271 272 204 521 522 454 
6 233 334 234 483 584 484 
6 145 275 40 395 525 88 
6 220 322 287 470 572 537 
6 280 334 213 530 584 463 
6 144 280 279 394 530 529 
6 140 287 32 390 537 80 
6 154 155 153 404 405 403 
6 334 350 213 584 600 463 
6 176 177 175 426 427 425 
6 260 298 137 510 548 387 
6 33 140 32 81 390 80 
6 49 141 48 97 391 96 
6 56 143 55 104 393 103 
6 68 142 67 116 392 115 
6 63 144 62 111 394 110 
6 61 139 60 109 389 108 
6 148 308 257 398 558 507 
6 71 137 70 119 387 118 
6 53 138 52 101 388 100 
6 46 136 45 94 386 93 
6 36 135 35 84 385 83 
6 43 146 134 91 396 384 
6 133 227 38 383 477 86 
6 192 193 190 442 443 440 
6 293 374 140 543 624 390 
6 34 292 33 82 542 81 
6 207 306 178 457 556 428 
6 43 134 42 91 384 90 
6 39 133 38 87 383 86 
6 41 145 40 89 395 88 
6 194 195 193 444 445 443 
6 69 296 68 117 546 116 
6 294 299 292 544 549 542 
6 173 175 171 423 425 421 
6 260 330 219 510 580 469 
6 183 184 181 433 434 431 
6 134 257 42 384 507 90 
6 55 349 54 103 599 102 
6 163 165 161 413 415 411 
6 166 167 165 416 417 415 
6 210 302 263 460 552 513 
6 271 273 272 521 523 522 
6 53 261 138 101 511 388 
6 217 326 267 467 576 517 
6 289 303 290 539 553 540 
6 178 179 177 428 429 427 
6 238 240 202 488 490 452 
6 62 278 61 110 528 109 
6 35 294 34 83 544 82 
6 284 361 232 534 611 482 
6 70 297 69 118 547 117 
6 224 304 264 474 554 514 
6 156 157 155 406 407 405 
6 48 288 47 96 538 95 
6 221 320 295 471 570 545 
6 187 188 186 437 438 436 
6 47 291 46 95 541 94 
6 151 154 153 401 404 403 
6 286 362 229 536 612 479 
6 168 169 167 418 419 417 
6 40 275 39 88 525 87 
6 307 324 141 557 574 391 
6 300 301 296 550 551 546 
6 32 287 31 80 537 79 
6 147 220 149 397 470 399 
6 333 344 231 583 594 481 
6 299 370 293 549 620 543 
6 271 359 273 521 609 523 
6 224 325 304 474 575 554 
6 228 237 227 478 487 477 
6 305 375 343 555 625 593 
6 218 319 298 468 569 548 
6 240 351 272 490 601 522 
6 277 329 222 527 579 472 
6 253 355 139 503 605 389 
6 158 159 157 408 409 407 
6 236 246 216 486 496 466 
6 192 194 193 442 444 443 
6 220 309 149 470 559 399 
6 183 185 184 433 435 434 
6 196 197 195 446 447 445 
6 276 347 58 526 597 106 
6 136 333 231 386 583 481 
6 67 247 66 115 497 114 
6 60 248 59 108 498 107 
6 261 262 250 511 512 500 
6 173 176 175 423 426 425 
6 344 357 231 594 607 481 
6 144 281 280 394 531 530 
6 152 205 150 402 455 400 
6 163 166 165 413 416 415 
6 185 187 186 435 437 436 
6 233 234 230 483 484 480 
6 170 171 169 420 421 419 
6 146 147 134 396 397 384 
6 176 178 177 426 428 427 
6 285 337 223 535 587 473 
6 154 156 155 404 406 405 
6 263 342 226 513 592 476 
6 235 245 236 485 495 486 
6 160 161 159 410 411 409 
6 58 347 242 106 597 492 
6 166 168 167 416 418 417 
6 287 374 220 537 624 470 
6 189 190 188 439 440 438 
6 148 257 134 398 507 384 
6 194 196 195 444 446 445 
6 252 308 205 502 558 455 
6 285 345 337 535 595 587 
6 301 375 305 551 625 555 
6 180 181 179 430 431 429 
6 281 348 234 531 598 484 
6 198 199 197 448 449 447 
6 151 309 154 401 559 404 
6 228 367 335 478 617 585 
6 54 349 261 102 599 511 
6 156 158 157 406 408 407 
6 168 170 169 418 420 419 
6 200 202 199 450 452 449 
6 147 148 134 397 398 384 
6 158 160 159 408 410 409 
6 150 308 148 400 558 398 
6 253 316 208 503 566 458 
6 232 329 277 482 579 527 
6 178 180 179 428 430 429 
6 191 192 190 441 442 440 
6 214 238 202 464 488 452 
6 172 173 171 422 423 421 
6 187 189 188 437 439 438 
6 162 163 161 412 413 411 
6 228 251 237 478 501 487 
6 215 258 235 465 508 485 
6 182 183 181 432 433 431 
6 202 310 199 452 560 449 
6 219 253 208 469 503 458 
6 222 249 206 472 499 456 
6 196 198 197 446 448 447 
6 229 330 260 479 580 510 
6 132 358 274 382 608 524 
6 149 309 151 399 559 401 
6 226 312 254 476 562 504 
6 154 309 209 404 559 459 
6 77 129 76 125 379 124 
6 73 128 72 121 378 120 
6 76 131 75 124 381 123 
6 74 132 73 122 382 121 
6 75 130 74 123 380 122 
6 14 127 77 29 377 125 
6 72 126 14 120 376 29 
6 133 367 228 383 617 478 
6 237 282 227 487 532 477 
6 239 366 252 489 616 502 
6 200 214 202 450 464 452 
6 192 201 194 442 451 444 
6 170 172 171 420 422 421 
6 220 311 309 470 561 559 
6 198 200 199 448 450 449 
6 189 191 190 439 441 440 
6 146 323 322 396 573 572 
6 160 162 161 410 412 411 
6 251 307 237 501 557 487 
6 199 310 210 449 560 460 
6 57 373 56 105 623 104 
6 214 239 238 464 489 488 
6 182 212 183 432 462 433 
6 180 182 181 430 432 431 
6 146 322 147 396 572 397 
6 172 218 208 422 468 458 
6 172 208 173 422 458 423 
6 162 221 206 412 471 456 
6 162 206 163 412 456 413 
6 176 207 178 426 457 428 
6 272 351 204 522 601 454 
6 198 211 200 448 461 450 
6 182 213 212 432 463 462 
6 234 334 281 484 584 531 
6 154 209 156 404 459 406 
6 185 203 187 435 453 437 
6 168 174 170 418 424 420 
6 189 215 191 439 465 441 
6 215 216 191 465 466 441 
6 221 222 206 471 472 456 
6 158 164 160 408 414 410 
6 218 219 208 468 469 458 
6 205 308 150 455 558 400 
6 191 314 192 441 564 442 
6 215 235 216 465 485 466 
6 215 318 258 465 568 508 
6 152 351 205 402 601 455 
6 138 261 250 388 511 500 
6 192 314 201 442 564 451 
6 234 347 230 484 597 480 
6 226 342 312 476 592 562 
6 138 250 233 388 500 483 
6 147 322 220 397 572 470 
6 216 314 191 466 564 441 
6 306 332 180 556 582 430 
6 222 356 249 472 606 499 
6 128 345 285 378 595 535 
6 314 321 201 564 571 451 
6 212 315 183 462 565 433 
6 312 342 336 562 592 586 
6 282 339 338 532 589 588 
6 340 341 323 590 591 573 
6 309 311 209 559 561 459 
6 183 315 185 433 565 435 
6 208 316 173 458 566 423 
6 173 316 176 423 566 426 
6 3 341 37 18 591 85 
6 44 339 6 92 589 21 
6 252 366 145 502 616 395 
6 246 321 314 496 571 564 
6 246 314 216 496 564 466 
6 126 364 313 376 614 563 
6 156 317 158 406 567 408 
6 275 367 133 525 617 383 
6 176 316 207 426 566 457 
6 185 315 203 435 565 453 
6 180 332 182 430 582 432 
6 302 352 131 552 602 381 
6 251 324 307 501 574 557 
6 187 318 189 437 568 439 
6 172 319 218 422 569 468 
6 162 320 221 412 570 471 
6 305 343 166 555 593 416 
6 170 319 172 420 569 422 
6 158 317 164 408 567 414 
6 209 317 156 459 567 406 
6 285 353 128 535 603 378 
6 223 337 269 473 587 519 
6 160 320 162 410 570 412 
6 211 331 200 461 581 450 
6 174 319 170 424 569 420 
6 203 318 187 453 568 437 
6 189 318 215 439 568 465 
6 198 327 211 448 577 461 
6 164 320 160 414 570 410 
6 326 353 267 576 603 517 
6 236 344 333 486 594 583 
6 196 327 198 446 577 448 
6 219 355 253 469 605 503 
6 281 334 280 531 584 530 
6 274 359 271 524 609 521 
6 164 370 299 414 620 549 
6 174 375 300 424 625 550 
6 287 363 31 537 613 79 
6 243 361 1 493 611 16 
6 241 362 12 491 612 27 
6 307 365 237 557 615 487 
6 166 343 168 416 593 418 
6 200 331 214 450 581 464 
6 313 326 217 563 576 467 
6 9 357 244 24 607 494 
6 1 361 30 16 611 78 
6 12 362 65 27 612 113 
6 337 345 132 587 595 382 
6 242 348 64 492 598 112 
6 231 357 266 481 607 516 
6 182 332 213 432 582 463 
6 245 344 236 495 594 486 
6 258 346 259 508 596 509 
6 145 366 275 395 616 525 
6 291 369 136 541 619 386 
6 236 333 246 486 583 496 
6 331 335 214 581 585 464 
6 312 336 129 562 586 379 
6 315 372 262 565 622 512 
6 220 374 311 470 624 561 
6 140 374 287 390 624 537 
6 126 360 304 376 610 554 
6 230 347 276 480 597 526 
6 313 364 326 563 614 576 
6 56 373 143 104 623 393 
6 239 367 366 489 617 616 
6 204 351 152 454 601 402 
6 300 375 301 550 625 551 
6 214 335 239 464 585 489 
6 247 329 243 497 579 493 
6 262 372 250 512 622 500 
6 248 330 241 498 580 491 
6 318 346 258 568 596 508 
6 333 369 246 583 619 496 
6 282 338 227 532 588 477 
6 146 340 323 396 590 573 
6 304 360 264 554 610 514 
6 366 367 275 616 617 525 
6 129 336 76 379 586 124 
6 73 345 128 121 595 378 
6 76 336 131 124 586 381 
6 250 350 233 500 600 483 
6 129 371 328 379 621 578 
6 132 345 73 382 595 121 
6 168 343 174 418 593 424 
6 131 352 75 381 602 123 
6 66 247 243 114 497 493 
6 59 248 241 107 498 491 
6 74 358 132 122 608 382 
6 203 346 318 453 596 568 
6 313 360 126 563 610 376 
6 128 364 72 378 614 120 
6 128 353 326 378 603 576 
6 77 371 129 125 621 379 
6 129 368 312 379 618 562 
6 244 357 344 494 607 594 
6 328 354 225 578 604 475 
6 326 364 128 576 614 378 
6 75 352 130 123 602 380 
6 350 372 212 600 622 462 
6 136 369 333 386 619 583 
6 325 354 127 575 604 377 
6 213 350 212 463 600 462 
6 130 358 74 380 608 122 
6 250 372 350 500 622 600 
6 317 370 164 567 620 414 
6 72 364 126 120 614 376 
6 328 368 129 578 618 379 
6 127 371 77 377 621 125 
6 336 342 131 586 592 381 
6 212 372 315 462 622 565 
6 234 348 347 484 598 597 
6 8 266 51 23 516 99 
6 10 276 58 25 526 106 
6 246 369 321 496 619 571 
6 30 284 0 78 534 15 
6 65 286 13 113 536 28 
6 58 242 11 106 492 26 
6 266 357 51 516 607 99 
6 255 368 328 505 618 578 
6 347 348 242 597 598 492 
6 322 363 287 572 613 537 
6 323 363 322 573 613 572 
6 335 367 239 585 617 489 
6 30 361 284 78 611 534 
6 65 362 286 113 612 536 
6 237 365 282 487 615 532 
6 130 359 358 380 609 608 
6 343 375 174 593 625 424 
6 354 371 127 604 621 377 
6 328 371 354 578 621 604 
6 358 359 274 608 609 524 
6 0 284 36 15 534 84 
6 45 266 8 93 516 23 
6 52 276 10 100 526 25 
6 11 242 64 26 492 112 
6 13 286 71 28 536 119 
6 2 323 3 17 573 18 
6 31 323 2 79 573 17 
6 323 341 3 573 591 18 
6 37 340 4 85 590 19 
6 4 340 43 19 590 91 
6 38 338 5 86 588 20 
6 5 338 44 20 588 92 
6 6 282 7 21 532 22 
6 6 339 282 21 589 532 
6 282 365 7 532 615 22 

CELL_TYPES 563
13
13
13
13
13
13
13
13
13
13
13
13
13
13
13
13
13
13
13
13
13
13
13
13
13
13
13
13
13
13
13
13
13
13
13
13
13
13
13
13
13
13
13
13
13
13
13
13
13
13
13
13
13
13
13
13
13
13
13
13
13
13
13
13
13
13
13
13
13
13
13
13
13
13
13
13
13
13
13
13
13
13
13
13
13
13
13
13
13
13
13
13
13
13
13
13
13
13
13
13
13
13
13
13
13
13
13
13
13
13
13
13
13
13
13
13
13
13
13
13
13
13
13
13
13
13
13
13
13
13
13
13
13
13
13
13
13
13
13
13
13
13
13
13
13
13
13
13
13
13
13
13
13
13
13
13
13
13
13
13
13
13
13
13
13
13
13
13
13
13
13
13
13
13
13
13
13
13
13
13
13
13
13
13
13
13
13
13
13
13
13
13
13
13
13
13
13
13
13
13
13
13
13
13
13
13
13
13
13
13
13
13
13
13
13
13
13
13
13
13
13
13
13
13
13
13
13
13
13
13
13
13
13
13
13
13
13
13
13
13
13
13
13
13
13
13
13
13
13
13
13
13
13
13
13
13
13
13
13
13
13
13
13
13
13
13
13
13
13
13
13
13
13
13
13
13
13
13
13
13
13
13
13
13
13
13
13
13
13
13
13
13
13
13
13
13
13
13
13
13
13
13
13
13
13
13
13
13
13
13
13
13
13
13
13
13
13
13
13
13
13
13
13
13
13
13
13
13
13
13
13
13
13
13
13
13
13
13
13
13
13
13
13
13
13
13
13
13
13
13
13
13
13
13
13
13
13
13
13
13
13
13
13
13
13
13
13
13
13
13
13
13
13
13
13
13
13
13
13
13
13
13
13
13
13
13
13
13
13
13
13
13
13
13
13
13
13
13
13
13
13
13
13
13
13
13
13
13
13
13
13
13
13
13
13
13
13
13
13
13
13
13
13
13
13
13
13
13
13
13
13
13
13
13
13
13
13
13
13
13
13
13
13
13
13
13
13
13
13
13
13
13
13
13
13
13
13
13
13
13
13
13
13
13
13
13
13
13
13
13
13
13
13
13
13
13
13
13
13
13
13
13
13
13
13
13
13
13
13
13
13
13
13
13
13
13
13
13
13
13
13
13
13
13
13
13
13
13
13
13
13
13
13
13
13
13
13
13
13
13
13
13
13
13
13
13
13
13
13
13
13
13
13
13
13
13
13
13
13
13
13
13
13
13
13
13
13
13
13
13
13
13
13
13
13
13
13
13
13
13
13
13
13

POINT_DATA 626
VECTORS displacement float
-1.74395e-06 3.09543e-05 1.80549e-05
1.73566e-06 3.09733e-05 1.81e-05
-2.59861e-05 1.69928e-05 1.8087e-05
-2.58408e-05 1.60329e-05 1.80516e-05
-2.77205e-05 1.39727e-05 1.8069e-05
-2.77135e-05 -1.4019e-05 1.80944e-05
-2.5812e-05 -1.60711e-05 1.81058e-05
-2.59823e-05 -1.70108e-05 1.8167e-05
-1.6774e-06 -3.0958e-05 1.80513e-05
1.75545e-06 -3.09595e-05 1.81018e-05
2.59435e-05 -1.69806e-05 1.80434e-05
2.77169e-05 -1.39366e-05 1.80433e-05
2.76723e-05 1.39893e-05 1.80916e-05
2.59148e-05 1.69929e-05 1.80459e-05
0 0 0
-1.74395e-06 3.09543e-05 -1.80549e-05
1.73566e-06 3.09733e-05 -1.81e-05
-2.59861e-05 1.69928e-05 -1.8087e-05
-2.58408e-05 1.60329e-05 -1.80516e-05
-2.77205e-05 1.39727e-05 -1.8069e-05
-2.77135e-05 -1.4019e-05 -1.80944e-05
-2.5812e-05 -1.60711e-05 -1.81058e-05
-2.59823e-05 -1.70108e-05 -1.8167e-05
-1.6774e-06 -3.0958e-05 -1.80513e-05
1.75545e-06 -3.09595e-05 -1.81018e-05
2.59435e-05 -1.69806e-05 -1.80434e-05
2.77169e-05 -1.39366e-05 -1.80433e-05
2.76723e-05 1.39893e-05 -1.80916e-05
2.59148e-05 1.69929e-05 -1.80459e-05
0 0 0
2.4895e-08 3.01542e-05 1.80341e-05
-2.11404e-05 1.87123e-05 1.75496e-05
-1.72324e-05 1.98337e-05 1.69207e-05
-1.40068e-05 2.10541e-05 1.65548e-05
-1.12068e-05 2.26647e-05 1.65487e-05
-8.52403e-06 2.48327e-05 1.69012e-05
-5.56778e-06 2.76215e-05 1.75373e-05
-2.64497e-05 1.4679e-05 1.80334e-05
-2.67686e-05 -9.01145e-06 1.75773e-05
-2.5806e-05 -5.03542e-06 1.69258e-05
-2.52543e-05 -1.63619e-06 1.65713e-05
-2.52572e-05 1.60783e-06 1.65742e-05
-2.57983e-05 5.02282e-06 1.6924e-05
-2.67548e-05 8.98453e-06 1.75638e-05
-2.64366e-05 -1.47254e-05 1.80622e-05
-5.54104e-06 -2.7636e-05 1.75295e-05
-8.47655e-06 -2.48417e-05 1.69005e-05
-1.117e-05 -2.26841e-05 1.6556e-05
-1.39705e-05 -2.10871e-05 1.65594e-05
-1.72148e-05 -1.98691e-05 1.69365e-05
-2.1134e-05 -1.87491e-05 1.75621e-05
8.98408e-08 -3.01389e-05 1.80293e-05
2.11238e-05 -1.86247e-05 1.75113e-05
1.72445e-05 -1.97621e-05 1.68727e-05
1.40338e-05 -2.1011e-05 1.65114e-05
1.1225e-05 -2.25928e-05 1.6546e-05
8.58119e-06 -2.47799e-05 1.6874e-05
5.65466e-06 -2.76262e-05 1.75349e-05
2.61244e-05 -1.50596e-05 1.80283e-05
2.67166e-05 8.93832e-06 1.75014e-05
2.57219e-05 5.04954e-06 1.69082e-05
2.52064e-05 1.6233e-06 1.6523e-05
2.52035e-05 -1.59941e-06 1.65213e-05
2.57505e-05 -4.99733e-06 1.68882e-05
2.66987e-05 -8.91707e-06 1.75096e-05
2.61075e-05 1.50607e-05 1.80253e-05
5.63312e-06 2.76176e-05 1.75094e-05
8.50857e-06 2.48066e-05 1.69111e-05
1.1217e-05 2.26408e-05 1.65292e-05
1.40044e-05 2.1022e-05 1.65246e-05
1.72215e-05 1.97933e-05 1.68849e-05
2.11148e-05 1.86343e-05 1.75253e-05
0 0 0
0 0 0
0 0 0
0 0 0
0 0 0
0 0 0
2.4895e-08 3.01542e-05 -1.80341e-05
-2.11404e-05 1.87123e-05 -1.75496e-05
-1.72324e-05 1.98337e-05 -1.69207e-05
-1.40068e-05 2.10541e-05 -1.65548e-05
-1.12068e-05 2.26647e-05 -1.65487e-05
-8.52403e-06 2.48327e-05 -1.69012e-05
-5.56778e-06 2.76215e-05 -1.75373e-05
-2.64497e-05 1.4679e-05 -1.80334e-05
-2.67686e-05 -9.01145e-06 -1.75773e-05
-2.5806e-05 -5.03542e-06 -1.69258e-05
-2.52543e-05 -1.63619e-06 -1.65713e-05
-2.52572e-05 1.60783e-06 -1.65742e-05
-2.57983e-05 5.02282e-06 -1.6924e-05
-2.67548e-05 8.98453e-06 -1.75638e-05
-2.64366e-05 -1.47254e-05 -1.80622e-05
-5.54104e-06 -2.7636e-05 -1.75295e-05
-8.47655e-06 -2.48417e-05 -1.69005e-05
-1.117e-05 -2.26841e-05 -1.6556e-05
-1.39705e-05 -2.10871e-05 -1.65594e-05
-1.72148e-05 -1.98691e-05 -1.69365e-05
-2.1134e-05 -1.87491e-05 -1.75621e-05
8.98408e-08 -3.01389e-05 -1.80293e-05
2.11238e-05 -1.86247e-05 -1.75113e-05
1.72445e-05 -1.97621e-05 -1.68727e-05
1.40338e-05 -2.1011e-05 -1.65114e-05
1.1225e-05 -2.25928e-05 -1.6546e-05
8.58119e-06 -2.47799e-05 -1.6874e-05
5.65466e-06 -2.76262e-05 -1.75349e-05
2.61244e-05 -1.50596e-05 -1.80283e-05
2.67166e-05 8.93832e-06 -1.75014e-05
2.57219e-05 5.04954e-06 -1.69082e-05
2.52064e-05 1.6233e-06 -1.6523e-05
2.52035e-05 -1.59941e-06 -1.65213e-05
2.57505e-05 -4.99733e-06 -1.68882e-05
2.66987e-05 -8.91707e-06 -1.75096e-05
2.61075e-05 1.50607e-05 -1.80253e-05
5.63312e-06 2.76176e-05 -1.75094e-05
8.50857e-06 2.48066e-05 -1.69111e-05
1.1217e-05 2.26408e-05 -1.65292e-05
1.40044e-05 2.1022e-05 -1.65246e-05
1.72215e-05 1.97933e-05 -1.68849e-05
2.11148e-05 1.86343e-05 -1.75253e-05
0 0 0
0 0 0
0 0 0
0 0 0
0 0 0
0 0 0
1.79367e-06 8.5874e-07 4.55221e-06
1.73781e-06 -8.25108e-07 4.46076e-06
4.31951e-07 1.84961e-06 4.49507e-06
4.36095e-07 -1.78062e-06 4.35605e-06
-1.84747e-06 2.09629e-08 4.42232e-06
-1.12308e-06 -1.30886e-06 4.15096e-06
-1.1592e-06 1.30679e-06 4.19974e-06
-2.25129e-05 -7.2876e-06 1.69998e-05
-2.21962e-05 7.37149e-06 1.69685e-05
-4.86041e-06 2.28983e-05 1.69369e-05
-4.85792e-06 -2.31314e-05 1.69638e-05
1.74211e-05 1.56353e-05 1.69297e-05
1.75686e-05 -1.55363e-05 1.6939e-05
2.10733e-05 3.16385e-06 1.63242e-05
-1.3953e-05 1.71511e-05 1.64782e-05
-1.3591e-05 -1.67411e-05 1.64098e-05
7.76778e-06 1.98193e-05 1.6331e-05
7.6848e-06 -2.03098e-05 1.64023e-05
2.14721e-05 -3.44369e-06 1.64e-05
-2.11025e-05 6.58808e-09 1.62465e-05
-2.24202e-05 1.09996e-05 1.74535e-05
-1.87507e-05 9.25461e-06 1.66269e-05
-1.79826e-05 5.79539e-06 1.60361e-05
-1.49838e-05 7.44826e-06 1.54862e-05
-1.42243e-05 4.30768e-06 1.48295e-05
-1.15325e-05 5.74383e-06 1.40945e-05
-1.08579e-05 3.0687e-06 1.33733e-05
-8.4004e-06 4.30483e-06 1.24041e-05
-9.05871e-06 7.01333e-06 1.34561e-05
-6.20404e-06 5.48845e-06 1.16887e-05
-6.82823e-06 8.24936e-06 1.30797e-05
-4.28135e-06 6.67484e-06 1.14503e-05
-4.79996e-06 9.60983e-06 1.30936e-05
-2.40085e-06 7.99327e-06 1.17227e-05
-2.81282e-06 1.11671e-05 1.34747e-05
-4.75405e-07 9.5952e-06 1.25007e-05
-7.38346e-07 1.29968e-05 1.41415e-05
1.73106e-06 1.15177e-05 1.35347e-05
-5.53463e-06 1.27003e-05 1.44367e-05
1.68506e-06 8.22389e-06 1.17473e-05
4.00414e-06 1.01208e-05 1.31507e-05
3.70532e-06 7.09788e-06 1.1478e-05
6.06734e-06 8.96658e-06 1.31131e-05
5.76676e-06 6.10673e-06 1.17353e-05
8.358e-06 8.02024e-06 1.34918e-05
8.10557e-06 5.19522e-06 1.25001e-05
1.09539e-05 7.09698e-06 1.41467e-05
1.07459e-05 4.32275e-06 1.34988e-05
8.53044e-06 1.10374e-05 1.44605e-05
7.93762e-06 2.64372e-06 1.17272e-05
1.06459e-05 1.73718e-06 1.31038e-05
7.94861e-06 3.58757e-07 1.14553e-05
1.08063e-05 -7.59105e-07 1.31239e-05
8.11156e-06 -1.93778e-06 1.17089e-05
1.10981e-05 -3.31282e-06 1.34836e-05
8.46965e-06 -4.42394e-06 1.24438e-05
1.15036e-05 -6.00282e-06 1.41091e-05
8.95549e-06 -7.13804e-06 1.34278e-05
6.14746e-06 -5.49436e-06 1.1641e-05
6.64443e-06 -8.30078e-06 1.3018e-05
4.10517e-06 -6.58845e-06 1.13107e-05
4.52331e-06 -9.55078e-06 1.2988e-05
2.24227e-06 -7.85821e-06 1.15971e-05
2.48481e-06 -1.10018e-05 1.33507e-05
2.25289e-07 -9.3736e-06 1.23534e-05
3.30011e-07 -1.27697e-05 1.40336e-05
-1.91542e-06 -1.11506e-05 1.33768e-05
-1.84105e-06 -7.92155e-06 1.1582e-05
-4.16786e-06 -9.87476e-06 1.30848e-05
-3.81391e-06 -6.73044e-06 1.13169e-05
-6.34556e-06 -8.66194e-06 1.30991e-05
-5.89125e-06 -5.69796e-06 1.16282e-05
-8.49964e-06 -7.43573e-06 1.33795e-05
-8.16747e-06 -4.72802e-06 1.24084e-05
-1.10955e-05 -6.40271e-06 1.40697e-05
-4.37161e-06 -1.31231e-05 1.44334e-05
-1.08088e-05 -3.65065e-06 1.3439e-05
7.22605e-06 -1.13727e-05 1.42727e-05
-7.74164e-06 1.98267e-06 1.14927e-05
-1.3216e-05 1.03505e-06 1.42107e-05
1.72911e-06 1.50827e-05 1.4952e-05
1.37679e-05 4.62233e-07 1.43876e-05
1.38431e-05 6.10005e-06 1.49315e-05
-9.69398e-06 1.01962e-05 1.45323e-05
-5.41597e-06 -3.19763e-06 1.0182e-05
-1.17135e-05 -9.29726e-06 1.4889e-05
1.18823e-05 -8.76014e-06 1.4787e-05
1.47817e-05 -7.47354e-06 1.54032e-05
-1.39596e-05 -5.24385e-06 1.48615e-05
2.7958e-06 -1.4516e-05 1.4796e-05
4.2456e-07 -1.64993e-05 1.53976e-05
3.51841e-06 4.39691e-06 9.581e-06
1.40105e-05 9.29899e-06 1.54914e-05
1.79307e-05 8.1449e-06 1.63004e-05
-1.56753e-05 1.13953e-05 1.62334e-05
-1.09408e-06 1.6769e-05 1.54951e-05
1.90685e-06 1.96215e-05 1.63108e-05
-2.09186e-06 5.22004e-06 9.5975e-06
5.55391e-06 -7.84599e-07 9.59405e-06
3.58593e-06 -3.68354e-06 9.08189e-06
-1.77963e-06 -5.17854e-06 9.44951e-06
-2.24686e-05 -1.10107e-05 1.74742e-05
-1.8798e-05 -9.24135e-06 1.66509e-05
2.11477e-05 1.41647e-05 1.75055e-05
2.07536e-05 -1.43175e-05 1.74355e-05
-1.7646e-06 -2.54464e-05 1.75108e-05
-1.68213e-06 2.54104e-05 1.75155e-05
1.77129e-05 -1.19068e-05 1.66871e-05
2.06456e-05 -1.0751e-05 1.71159e-05
3.77562e-06 -1.8985e-05 1.61393e-05
7.68527e-07 -2.03456e-05 1.64827e-05
-1.9405e-05 -1.26504e-05 1.7143e-05
-1.3731e-05 -2.30691e-06 1.44717e-05
-1.65926e-05 -3.7014e-06 1.54774e-05
-1.03757e-05 -1.09638e-06 1.29519e-05
2.44519e-05 1.10727e-05 1.76515e-05
2.54974e-05 -1.24032e-05 1.7848e-05
2.64924e-06 2.67258e-05 1.76604e-05
2.521e-06 -2.64134e-05 1.76293e-05
3.33945e-06 -2.30317e-05 1.7029e-05
-2.05388e-06 -1.83197e-05 1.59508e-05
4.05905e-06 2.37912e-05 1.71303e-05
2.2614e-05 8.37918e-06 1.71191e-05
4.61357e-06 1.73132e-05 1.57271e-05
1.44269e-05 -1.31193e-05 1.61372e-05
-1.57875e-05 -1.09846e-05 1.62144e-05
-1.67996e-05 -3.81424e-07 1.53772e-05
1.73058e-05 4.68743e-06 1.57255e-05
6.55216e-08 -6.38725e-06 1.02673e-05
1.7417e-06 -4.84842e-06 9.09239e-06
5.85041e-06 -2.93548e-06 1.03781e-05
-2.1444e-05 3.75047e-06 1.64587e-05
5.72931e-06 -1.62743e-05 1.55076e-05
9.08337e-06 -1.74989e-05 1.59973e-05
1.7572e-05 1.18816e-05 1.66722e-05
1.39941e-05 -1.63821e-05 1.64011e-05
1.07399e-05 -1.37888e-05 1.55499e-05
-3.54794e-06 -4.22015e-06 9.50066e-06
5.39907e-06 1.13849e-06 9.49894e-06
5.218e-06 3.22284e-06 1.00471e-05
-1.74978e-06 -2.83543e-05 1.78767e-05
1.89204e-06 5.29884e-06 9.58434e-06
-1.13822e-07 6.10495e-06 1.00386e-05
-3.78488e-06 4.1277e-06 9.5783e-06
-5.62262e-06 3.03415e-06 1.02851e-05
-5.16542e-06 1.04066e-06 9.21351e-06
-7.52717e-06 -6.17385e-08 1.11723e-05
-4.33433e-06 -8.1027e-07 8.38176e-06
-3.10856e-06 1.87232e-06 7.37398e-06
-2.20809e-05 -3.60771e-06 1.65156e-05
2.3406e-05 -1.56878e-05 1.7836e-05
-1.50718e-06 2.11677e-05 1.66819e-05
2.12614e-05 -8.45186e-08 1.62256e-05
1.76219e-05 -1.64678e-06 1.55813e-05
1.73475e-05 -4.94162e-06 1.57705e-05
2.18913e-05 -7.45103e-06 1.69134e-05
-2.3182e-05 -1.42544e-05 1.78326e-05
1.73244e-05 1.64885e-06 1.55084e-05
-1.73399e-06 2.84728e-05 1.7894e-05
-4.22068e-07 3.68338e-06 7.49522e-06
2.37717e-05 1.57422e-05 1.78844e-05
-1.74972e-05 1.56421e-05 1.69748e-05
-1.06261e-05 -1.84659e-05 1.62549e-05
-1.00994e-05 -1.43422e-05 1.55715e-05
-7.50769e-06 -1.60947e-05 1.56219e-05
-7.32205e-06 -2.01203e-05 1.63951e-05
-1.07043e-05 1.8535e-05 1.62666e-05
-1.03472e-05 1.43839e-05 1.56192e-05
-7.77256e-06 2.04922e-05 1.64441e-05
-4.25295e-06 1.86095e-05 1.60528e-05
1.07596e-05 1.83452e-05 1.6226e-05
1.38915e-05 1.69347e-05 1.64308e-05
1.40418e-05 1.29728e-05 1.60511e-05
-7.3615e-06 1.62881e-05 1.56383e-05
1.0525e-05 1.45469e-05 1.5645e-05
7.74867e-06 1.60921e-05 1.56138e-05
-3.11644e-06 -1.89875e-06 7.39311e-06
-7.25757e-06 -1.24219e-05 1.4625e-05
3.00864e-06 4.03598e-08 6.60091e-06
4.87253e-06 1.35226e-05 1.46179e-05
1.40759e-05 -2.26036e-06 1.45703e-05
-1.72896e-05 -1.52166e-05 1.69454e-05
-1.73663e-05 2.42028e-06 1.55977e-05
-1.22046e-05 8.91185e-06 1.49433e-05
-7.70556e-06 -2.2925e-06 1.15545e-05
-1.24497e-05 1.18125e-05 1.55398e-05
-1.42734e-07 -3.7542e-06 7.55411e-06
2.73021e-06 2.27206e-06 7.25186e-06
-2.00384e-06 -1.46503e-05 1.48079e-05
9.365e-06 -1.00681e-05 1.43892e-05
1.38606e-05 3.15778e-06 1.45659e-05
-7.33997e-06 1.11993e-05 1.42601e-05
4.99717e-06 -1.27747e-05 1.43691e-05
1.10318e-05 1.04304e-05 1.49195e-05
-3.59641e-06 1.46851e-05 1.49079e-05
-4.63543e-06 -1.66167e-05 1.55487e-05
-1.95069e-05 1.28924e-05 1.71612e-05
-2.31268e-05 1.48581e-05 1.78433e-05
-1.29048e-05 -1.2686e-05 1.58124e-05
3.76077e-06 -1.58611e-06 7.90688e-06
1.76438e-06 2.92226e-06 7.08437e-06
-9.2304e-06 -1.06094e-05 1.45317e-05
1.72773e-06 -2.82314e-06 6.93101e-06
9.94727e-07 2.41167e-05 1.73084e-05
2.13678e-05 1.11938e-05 1.72986e-05
-1.46645e-05 -7.95333e-06 1.54852e-05
1.3708e-05 -4.78628e-06 1.46905e-05
-1.90987e-06 -2.17628e-05 1.68026e-05
1.80603e-05 -8.419e-06 1.63406e-05
-1.66788e-05 -6.32852e-06 1.57823e-05
-4.32898e-07 -1.92231e-06 4.79844e-06
-1.80536e-06 2.99542e-06 7.17712e-06
-2.50519e-05 -1.29817e-05 1.79222e-05
-2.51271e-05 -1.45072e-05 1.8002e-05
-2.5045e-05 1.30336e-05 1.7906e-05
-2.51179e-05 1.46499e-05 1.79821e-05
-1.64844e-06 -3.12483e-06 7.20986e-06
6.3279e-06 1.13683e-05 1.40765e-05
5.33709e-07 -2.4086e-05 1.73022e-05
-5.22775e-07 1.80953e-06 4.64498e-06
7.40741e-06 -1.43436e-05 1.51523e-05
2.33027e-05 -1.32093e-05 1.77287e-05
2.36326e-05 -1.05375e-05 1.74908e-05
1.19883e-05 -1.82108e-05 1.62932e-05
1.473e-05 -1.01466e-05 1.57955e-05
-1.0027e-05 1.00124e-06 1.27545e-05
-1.74e-06 -8.15898e-07 4.72342e-06
7.6906e-07 3.70833e-06 7.57309e-06
2.34306e-06 -1.99715e-06 6.55524e-06
2.01564e-05 5.89778e-06 1.64535e-05
5.07006e-06 2.05958e-05 1.64959e-05
3.42118e-07 -2.76799e-05 1.7854e-05
-1.73122e-06 7.09108e-07 4.60629e-06
-3.21149e-06 6.23045e-07 6.82409e-06
3.5772e-06 1.4754e-06 7.63657e-06
4.99225e-07 2.83237e-05 1.79272e-05
2.47602e-05 1.3734e-05 1.79184e-05
-2.03282e-05 1.55358e-05 1.7429e-05
1.1787e-06 1.36447e-06 4.45982e-06
-2.06395e-05 -1.57283e-05 1.75276e-05
-1.89988e-05 -2.32217e-06 1.59461e-05
-1.9559e-05 -5.58495e-06 1.63322e-05
9.05678e-07 -3.24774e-06 7.00605e-06
-4.366e-06 -1.97892e-05 1.63218e-05
-7.93723e-06 1.38343e-05 1.5101e-05
1.16574e-06 -1.30418e-06 4.33926e-06
1.19344e-05 -1.12283e-05 1.52921e-05
6.13304e-06 -2.2696e-05 1.68204e-05
-1.45221e-05 1.43553e-05 1.63236e-05
7.92903e-06 1.33212e-05 1.49479e-05
1.79367e-06 8.5874e-07 -4.55221e-06
1.73781e-06 -8.25108e-07 -4.46076e-06
4.31951e-07 1.84961e-06 -4.49507e-06
4.36095e-07 -1.78062e-06 -4.35605e-06
-1.84747e-06 2.09629e-08 -4.42232e-06
-1.12308e-06 -1.30886e-06 -4.15096e-06
-1.1592e-06 1.30679e-06 -4.19974e-06
-2.25129e-05 -7.2876e-06 -1.69998e-05
-2.21962e-05 7.37149e-06 -1.69685e-05
-4.86041e-06 2.28983e-05 -1.69369e-05
-4.85792e-06 -2.31314e-05 -1.69638e-05
1.74211e-05 1.56353e-05 -1.69297e-05
1.75686e-05 -1.55363e-05 -1.6939e-05
2.10733e-05 3.16385e-06 -1.63242e-05
-1.3953e-05 1.71511e-05 -1.64782e-05
-1.3591e-05 -1.67411e-05 -1.64098e-05
7.76778e-06 1.98193e-05 -1.6331e-05
7.6848e-06 -2.03098e-05 -1.64023e-05
2.14721e-05 -3.44369e-06 -1.64e-05
-2.11025e-05 6.58808e-09 -1.62465e-05
-2.24202e-05 1.09996e-05 -1.74535e-05
-1.87507e-05 9.25461e-06 -1.66269e-05
-1.79826e-05 5.79539e-06 -1.60361e-05
-1.49838e-05 7.44826e-06 -1.54862e-05
-1.42243e-05 4.30768e-06 -1.48295e-05
-1.15325e-05 5.74383e-06 -1.40945e-05
-1.08579e-05 3.0687e-06 -1.33733e-05
-8.4004e-06 4.30483e-06 -1.24041e-05
-9.05871e-06 7.01333e-06 -1.34561e-05
-6.20404e-06 5.48845e-06 -1.16887e-05
-6.82823e-06 8.24936e-06 -1.30797e-05
-4.28135e-06 6.67484e-06 -1.14503e-05
-4.79996e-06 9.60983e-06 -1.30936e-05
-2.40085e-06 7.99327e-06 -1.17227e-05
-2.81282e-06 1.11671e-05 -1.34747e-05
-4.75405e-07 9.5952e-06 -1.25007e-05
-7.38346e-07 1.29968e-05 -1.41415e-05
1.73106e-06 1.15177e-05 -1.35347e-05
-5.53463e-06 1.27003e-05 -1.44367e-05
1.68506e-06 8.22389e-06 -1.17473e-05
4.00414e-06 1.01208e-05 -1.31507e-05
3.70532e-06 7.09788e-06 -1.1478e-05
6.06734e-06 8.96658e-06 -1.31131e-05
5.76676e-06 6.10673e-06 -1.17353e-05
8.358e-06 8.02024e-06 -1.34918e-05
8.10557e-06 5.19522e-06 -1.25001e-05
1.09539e-05 7.09698e-06 -1.41467e-05
1.07459e-05 4.32275e-06 -1.34988e-05
8.53044e-06 1.10374e-05 -1.44605e-05
7.93762e-06 2.64372e-06 -1.17272e-05
1.06459e-05 1.73718e-06 -1.31038e-05
7.94861e-06 3.58757e-07 -1.14553e-05
1.08063e-05 -7.59105e-07 -1.31239e-05
8.11156e-06 -1.93778e-06 -1.17089e-05
1.10981e-05 -3.31282e-06 -1.34836e-05
8.46965e-06 -4.42394e-06 -1.24438e-05
1.15036e-05 -6.00282e-06 -1.41091e-05
8.95549e-06 -7.13804e-06 -1.34278e-05
6.14746e-06 -5.49436e-06 -1.1641e-05
6.64443e-06 -8.30078e-06 -1.3018e-05
4.10517e-06 -6.58845e-06 -1.13107e-05
4.52331e-06 -9.55078e-06 -1.2988e-05
2.24227e-06 -7.85821e-06 -1.15971e-05
2.48481e-06 -1.10018e-05 -1.33507e-05
2.25289e-07 -9.3736e-06 -1.23534e-05
3.30011e-07 -1.27697e-05 -1.40336e-05
-1.91542e-06 -1.11506e-05 -1.33768e-05
-1.84105e-06 -7.92155e-06 -1.1582e-05
-4.16786e-06 -9.87476e-06 -1.30848e-05
-3.81391e-06 -6.73044e-06 -1.13169e-05
-6.34556e-06 -8.66194e-06 -1.30991e-05
-5.89125e-06 -5.69796e-06 -1.16282e-05
-8.49964e-06 -7.43573e-06 -1.33795e-05
-8.16747e-06 -4.72802e-06 -1.24084e-05
-1.10955e-05 -6.40271e-06 -1.40697e-05
-4.37161e-06 -1.31231e-05 -1.44334e-05
-1.08088e-05 -3.65065e-06 -1.3439e-05
7.22605e-06 -1.13727e-05 -1.42727e-05
-7.74164e-06 1.98267e-06 -1.14927e-05
-1.3216e-05 1.03505e-06 -1.42107e-05
1.72911e-06 1.50827e-05 -1.4952e-05
1.37679e-05 4.62233e-07 -1.43876e-05
1.38431e-05 6.10005e-06 -1.49315e-05
-9.69398e-06 1.01962e-05 -1.45323e-05
-5.41597e-06 -3.19763e-06 -1.0182e-05
-1.17135e-05 -9.29726e-06 -1.4889e-05
1.18823e-05 -8.76014e-06 -1.4787e-05
1.47817e-05 -7.47354e-06 -1.54032e-05
-1.39596e-05 -5.24385e-06 -1.48615e-05
2.7958e-06 -1.4516e-05 -1.4796e-05
4.2456e-07 -1.64993e-05 -1.53976e-05
3.51841e-06 4.39691e-06 -9.581e-06
1.40105e-05 9.29899e-06 -1.54914e-05
1.79307e-05 8.1449e-06 -1.63004e-05
-1.56753e-05 1.13953e-05 -1.62334e-05
-1.09408e-06 1.6769e-05 -1.54951e-05
1.90685e-06 1.96215e-05 -1.63108e-05
-2.09186e-06 5.22004e-06 -9.5975e-06
5.55391e-06 -7.84599e-07 -9.59405e-06
3.58593e-06 -3.68354e-06 -9.08189e-06
-1.77963e-06 -5.17854e-06 -9.44951e-06
-2.24686e-05 -1.10107e-05 -1.74742e-05
-1.8798e-05 -9.24135e-06 -1.66509e-05
2.11477e-05 1.41647e-05 -1.75055e-05
2.07536e-05 -1.43175e-05 -1.74355e-05
-1.7646e-06 -2.54464e-05 -1.75108e-05
-1.68213e-06 2.54104e-05 -1.75155e-05
1.77129e-05 -1.19068e-05 -1.66871e-05
2.06456e-05 -1.0751e-05 -1.71159e-05
3.77562e-06 -1.8985e-05 -1.61393e-05
7.68527e-07 -2.03456e-05 -1.64827e-05
-1.9405e-05 -1.26504e-05 -1.7143e-05
-1.3731e-05 -2.30691e-06 -1.44717e-05
-1.65926e-05 -3.7014e-06 -1.54774e-05
-1.03757e-05 -1.09638e-06 -1.29519e-05
2.44519e-05 1.10727e-05 -1.76515e-05
2.54974e-05 -1.24032e-05 -1.7848e-05
2.64924e-06 2.67258e-05 -1.76604e-05
2.521e-06 -2.64134e-05 -1.76293e-05
3.33945e-06 -2.30317e-05 -1.7029e-05
-2.05388e-06 -1.83197e-05 -1.59508e-05
4.05905e-06 2.37912e-05 -1.71303e-05
2.2614e-05 8.37918e-06 -1.71191e-05
4.61357e-06 1.73132e-05 -1.57271e-05
1.44269e-05 -1.31193e-05 -1.61372e-05
-1.57875e-05 -1.09846e-05 -1.62144e-05
-1.67996e-05 -3.81424e-07 -1.53772e-05
1.73058e-05 4.68743e-06 -1.57255e-05
6.55216e-08 -6.38725e-06 -1.02673e-05
1.7417e-06 -4.84842e-06 -9.09239e-06
5.85041e-06 -2.93548e-06 -1.03781e-05
-2.1444e-05 3.75047e-06 -1.64587e-05
5.72931e-06 -1.62743e-05 -1.55076e-05
9.08337e-06 -1.74989e-05 -1.59973e-05
1.7572e-05 1.18816e-05 -1.66722e-05
1.39941e-05 -1.63821e-05 -1.64011e-05
1.07399e-05 -1.37888e-05 -1.55499e-05
-3.54794e-06 -4.22015e-06 -9.50066e-06
5.39907e-06 1.13849e-06 -9.49894e-06
5.218e-06 3.22284e-06 -1.00471e-05
-1.74978e-06 -2.83543e-05 -1.78767e-05
1.89204e-06 5.29884e-06 -9.58434e-06
-1.13822e-07 6.10495e-06 -1.00386e-05
-3.78488e-06 4.1277e-06 -9.5783e-06
-5.62262e-06 3.03415e-06 -1.02851e-05
-5.16542e-06 1.04066e-06 -9.21351e-06
-7.52717e-06 -6.17385e-08 -1.11723e-05
-4.33433e-06 -8.1027e-07 -8.38176e-06
-3.10856e-06 1.87232e-06 -7.37398e-06
-2.20809e-05 -3.60771e-06 -1.65156e-05
2.3406e-05 -1.56878e-05 -1.7836e-05
-1.50718e-06 2.11677e-05 -1.66819e-05
2.12614e-05 -8.45186e-08 -1.62256e-05
1.76219e-05 -1.64678e-06 -1.55813e-05
1.73475e-05 -4.94162e-06 -1.57705e-05
2.18913e-05 -7.45103e-06 -1.69134e-05
-2.3182e-05 -1.42544e-05 -1.78326e-05
1.73244e-05 1.64885e-06 -1.55084e-05
-1.73399e-06 2.84728e-05 -1.7894e-05
-4.22068e-07 3.68338e-06 -7.49522e-06
2.37717e-05 1.57422e-05 -1.78844e-05
-1.74972e-05 1.56421e-05 -1.69748e-05
-1.06261e-05 -1.84659e-05 -1.62549e-05
-1.00994e-05 -1.43422e-05 -1.55715e-05
-7.50769e-06 -1.60947e-05 -1.56219e-05
-7.32205e-06 -2.01203e-05 -1.63951e-05
-1.07043e-05 1.8535e-05 -1.62666e-05
-1.03472e-05 1.43839e-05 -1.56192e-05
-7.77256e-06 2.04922e-05 -1.64441e-05
-4.25295e-06 1.86095e-05 -1.60528e-05
1.07596e-05 1.83452e-05 -1.6226e-05
1.38915e-05 1.69347e-05 -1.64308e-05
1.40418e-05 1.29728e-05 -1.60511e-05
-7.3615e-06 1.62881e-05 -1.56383e-05
1.0525e-05 1.45469e-05 -1.5645e-05
7.74867e-06 1.60921e-05 -1.56138e-05
-3.11644e-06 -1.89875e-06 -7.39311e-06
-7.25757e-06 -1.24219e-05 -1.4625e-05
3.00864e-06 4.03598e-08 -6.60091e-06
4.87253e-06 1.35226e-05 -1.46179e-05
1.40759e-05 -2.26036e-06 -1.45703e-05
-1.72896e-05 -1.52166e-05 -1.69454e-05
-1.73663e-05 2.42028e-06 -1.55977e-05
-1.22046e-05 8.91185e-06 -1.49433e-05
-7.70556e-06 -2.2925e-06 -1.15545e-05
-1.24497e-05 1.18125e-05 -1.55398e-05
-1.42734e-07 -3.7542e-06 -7.55411e-06
2.73021e-06 2.27206e-06 -7.25186e-06
-2.00384e-06 -1.46503e-05 -1.48079e-05
9.365e-06 -1.00681e-05 -1.43892e-05
1.38606e-05 3.15778e-06 -1.45659e-05
-7.33997e-06 1.11993e-05 -1.42601e-05
4.99717e-06 -1.27747e-05 -1.43691e-05
1.10318e-05 1.04304e-05 -1.49195e-05
-3.59641e-06 1.46851e-05 -1.49079e-05
-4.63543e-06 -1.66167e-05 -1.55487e-05
-1.95069e-05 1.28924e-05 -1.71612e-05
-2.31268e-05 1.48581e-05 -1.78433e-05
-1.29048e-05 -1.2686e-05 -1.58124e-05
3.76077e-06 -1.58611e-06 -7.90688e-06
1.76438e-06 2.92226e-06 -7.08437e-06
-9.2304e-06 -1.06094e-05 -1.45317e-05
1.72773e-06 -2.82314e-06 -6.93101e-06
9.94727e-07 2.41167e-05 -1.73084e-05
2.13678e-05 1.11938e-05 -1.72986e-05
-1.46645e-05 -7.95333e-06 -1.54852e-05
1.3708e-05 -4.78628e-06 -1.46905e-05
-1.90987e-06 -2.17628e-05 -1.68026e-05
1.80603e-05 -8.419e-06 -1.63406e-05
-1.66788e-05 -6.32852e-06 -1.57823e-05
-4.32898e-07 -1.92231e-06 -4.79844e-06
-1.80536e-06 2.99542e-06 -7.17712e-06
-2.50519e-05 -1.29817e-05 -1.79222e-05
-2.51271e-05 -1.45072e-05 -1.8002e-05
-2.5045e-05 1.30336e-05 -1.7906e-05
-2.51179e-05 1.46499e-05 -1.79821e-05
-1.64844e-06 -3.12483e-06 -7.20986e-06
6.3279e-06 1.13683e-05 -1.40765e-05
5.33709e-07 -2.4086e-05 -1.73022e-05
-5.22775e-07 1.80953e-06 -4.64498e-06
7.40741e-06 -1.43436e-05 -1.51523e-05
2.33027e-05 -1.32093e-05 -1.77287e-05
2.36326e-05 -1.05375e-05 -1.74908e-05
1.19883e-05 -1.82108e-05 -1.62932e-05
1.473e-05 -1.01466e-05 -1.57955e-05
-1.0027e-05 1.00124e-06 -1.27545e-05
-1.74e-06 -8.15898e-07 -4.72342e-06
7.6906e-07 3.70833e-06 -7.57309e-06
2.34306e-06 -1.99715e-06 -6.55524e-06
2.01564e-05 5.89778e-06 -1.64535e-05
5.07006e-06 2.05958e-05 -1.64959e-05
3.42118e-07 -2.76799e-05 -1.7854e-05
-1.73122e-06 7.09108e-07 -4.60629e-06
-3.21149e-06 6.23045e-07 -6.82409e-06
3.5772e-06 1.4754e-06 -7.63657e-06
4.99225e-07 2.83237e-05 -1.79272e-05
2.47602e-05 1.3734e-05 -1.79184e-05
-2.03282e-05 1.55358e-05 -1.7429e-05
1.1787e-06 1.36447e-06 -4.45982e-06
-2.06395e-05 -1.57283e-05 -1.75276e-05
-1.89988e-05 -2.32217e-06 -1.59461e-05
-1.9559e-05 -5.58495e-06 -1.63322e-05
9.05678e-07 -3.24774e-06 -7.00605e-06
-4.366e-06 -1.97892e-05 -1.63218e-05
-7.93723e-06 1.38343e-05 -1.5101e-05
1.16574e-06 -1.30418e-06 -4.33926e-06
1.19344e-05 -1.12283e-05 -1.52921e-05
6.13304e-06 -2.2696e-05 -1.68204e-05
-1.45221e-05 1.43553e-05 -1.63236e-05
7.92903e-06 1.33212e-05 -1.49479e-05
SCALARS effective_fluid_pressure_TPM float
LOOKUP_TABLE default
665
665
665
665
665
665
665
665
665
665
665
665
665
665
133
665
665
665
665
665
665
665
665
665
665
665
665
665
665
133
665
560.316
520.66
502.8
502.571
519.786
559.937
665
561.983
520.755
503.243
503.352
520.687
561.605
665
559.603
519.657
502.745
502.963
521.155
561.621
665
558.86
519.001
501.533
502.229
518.851
559.448
665
558.5
519.941
501.866
501.797
519.374
557.939
665
558.656
519.955
502.038
501.9
519.362
559.662
133
133
133
133
133
133
665
560.316
520.66
502.8
502.571
519.786
559.937
665
561.983
520.755
503.243
503.352
520.687
561.605
665
559.603
519.657
502.745
502.963
521.155
561.621
665
558.86
519.001
501.533
502.229
518.851
559.448
665
558.5
519.941
501.866
501.797
519.374
557.939
665
558.656
519.955
502.038
501.9
519.362
559.662
133
133
133
133
133
133
228.255
226.325
227.038
224.107
225.522
219.844
220.861
529.16
528.17
526.549
527.928
526.576
527.63
498.696
503.543
501.581
498.937
501.453
501.235
494.316
562.498
518.974
495.02
480.727
461.347
443.266
425.035
402.109
427.259
385.255
417.727
379.601
417.89
385.939
427.376
404.286
444.37
429.065
450.247
386.549
419.29
380.196
418.302
386.179
427.749
404.214
444.48
428.149
450.843
386.023
418.153
379.612
418.509
385.547
427.585
402.908
443.543
426.44
384.04
416.126
376.296
415.333
383.012
424.406
400.834
441.692
425.214
382.749
417.766
376.561
418.084
383.834
425.254
402.201
442.665
450.637
426.714
445.995
380.721
444.661
465.276
448.728
464.75
453.398
350.897
463.491
461.023
478.43
462.759
460.629
478.335
337.272
480.806
505.839
503.598
480.872
506.145
337.685
337.496
326.16
334.41
563.374
519.65
567.575
562.361
567.893
567.746
521.798
542.71
498.611
513.723
542.055
451.439
477.557
414.645
579.516
611.027
579.669
576.03
534.544
494.461
538.218
537.915
485.017
498.097
503.315
473.119
485.065
352.742
326.41
355.171
503.424
477.696
488.339
520.867
502.007
477.893
335.535
335.399
347.694
613.444
337.373
347.565
337.259
353.198
329.184
373.248
310.655
288.784
504.69
608.379
521.088
493.7
478.306
486.334
526.482
600.338
476.543
615.898
291.392
615.796
528.711
494.512
478.213
479.387
501.294
494.818
479.413
502.49
495.153
493.723
502.242
495.227
479.861
480.026
479.028
289.29
454.569
271.938
454.977
453.605
526.991
479.45
465.2
382.091
480.486
292.665
286.078
461.456
449.61
453.954
445.832
448.666
463.581
463.238
479.93
543.45
601.699
487.47
300.297
282.457
452.99
279.159
552.233
551.992
480.752
457.994
526.214
508.165
488.567
233.727
284.554
614.504
636.321
615.139
636.677
285.276
441.317
553.073
230.483
467.528
590.26
566.027
495.792
490.027
410.022
232.116
293.092
271.122
507.874
509.171
607.812
229.66
276.972
294.426
618.876
618.79
558.507
226.519
562.52
488.29
503.373
280.843
504.043
466.355
224.005
473.562
519.559
502.958
462.421
228.255
226.325
227.038
224.107
225.522
219.844
220.861
529.16
528.17
526.549
527.928
526.576
527.63
498.696
503.543
501.581
498.937
501.453
501.235
494.316
562.498
518.974
495.02
480.727
461.347
443.266
425.035
402.109
427.259
385.255
417.727
379.601
417.89
385.939
427.376
404.286
444.37
429.065
450.247
386.549
419.29
380.196
418.302
386.179
427.749
404.214
444.48
428.149
450.843
386.023
418.153
379.612
418.509
385.547
427.585
402.908
443.543
426.44
384.04
416.126
376.296
415.333
383.012
424.406
400.834
441.692
425.214
382.749
417.766
376.561
418.084
383.834
425.254
402.201
442.665
450.637
426.714
445.995
380.721
444.661
465.276
448.728
464.75
453.398
350.897
463.491
461.023
478.43
462.759
460.629
478.335
337.272
480.806
505.839
503.598
480.872
506.145
337.685
337.496
326.16
334.41
563.374
519.65
567.575
562.361
567.893
567.746
521.798
542.71
498.611
513.723
542.055
451.439
477.557
414.645
579.516
611.027
579.669
576.03
534.544
494.461
538.218
537.915
485.017
498.097
503.315
473.119
485.065
352.742
326.41
355.171
503.424
477.696
488.339
520.867
502.007
477.893
335.535
335.399
347.694
613.444
337.373
347.565
337.259
353.198
329.184
373.248
310.655
288.784
504.69
608.379
521.088
493.7
478.306
486.334
526.482
600.338
476.543
615.898
291.392
615.796
528.711
494.512
478.213
479.387
501.294
494.818
479.413
502.49
495.153
493.723
502.242
495.227
479.861
480.026
479.028
289.29
454.569
271.938
454.977
453.605
526.991
479.45
465.2
382.091
480.486
292.665
286.078
461.456
449.61
453.954
445.832
448.666
463.581
463.238
479.93
543.45
601.699
487.47
300.297
282.457
452.99
279.159
552.233
551.992
480.752
457.994
526.214
508.165
488.567
233.727
284.554
614.504
636.321
615.139
636.677
285.276
441.317
553.073
230.483
467.528
590.26
566.027
495.792
490.027
410.022
232.116
293.092
271.122
507.874
509.171
607.812
229.66
276.972
294.426
618.876
618.79
558.507
226.519
562.52
488.29
503.373
280.843
504.043
466.355
224.005
473.562
519.559
502.958
462.421

CELL_DATA 563
TENSORS stress float
164.609 -24.9203 -4.59484e-12
-24.9203 28.1482 -1.84741e-12
-4.59484e-12 -1.84741e-12 -12.6045

-40.3384 -21.3202 5.26971e-12
-21.3202 -7.35469 2.91589e-12
5.26971e-12 2.91589e-12 -10.2316

-9.93989 28.0431 4.35148e-12
28.0431 -1.1103 -2.56388e-12
4.35148e-12 -2.56388e-12 -6.35998

-40.4267 -29.8427 -1.41132e-12
-29.8427 -12.8459 -3.93611e-13
-1.41132e-12 -3.93611e-13 -10.5979

-22.6925 19.9309 2.85401e-13
19.9309 -1.92246 -1.18394e-12
2.85401e-13 -1.18394e-12 -23.0216

-27.1392 -18.0743 -3.16192e-13
-18.0743 15.8879 9.58048e-13
-3.16192e-13 9.58048e-13 -6.41076

161.261 26.4845 -4.42905e-12
26.4845 28.0249 3.90799e-13
-4.42905e-12 3.90799e-13 -13.2634

-5.96133 29.9578 2.49223e-12
29.9578 -10.112 -3.62939e-12
2.49223e-12 -3.62939e-12 -7.27603

34.631 5.48312 -5.07564e-12
5.48312 -19.0946 2.48342e-12
-5.07564e-12 2.48342e-12 -4.12182

11.8603 -7.47757 -8.02913e-13
-7.47757 -48.2871 -1.22539e-12
-8.02913e-13 -1.22539e-12 -8.94679

104.193 16.3084 2.88954e-12
16.3084 -8.44347 -2.15531e-13
2.88954e-12 -2.15531e-13 -22.4544

-34.6373 -13.4531 1.62833e-15
-13.4531 18.9658 -3.9897e-12
1.62833e-15 -3.9897e-12 -7.18029

-6.0259 27.833 5.88566e-13
27.833 -4.59144 1.22036e-12
5.88566e-13 1.22036e-12 -6.1589

-35.5515 -14.34 -1.90663e-12
-14.34 7.84497 1.55076e-12
-1.90663e-12 1.55076e-12 -9.13112

-23.6537 33.3113 2.56091e-12
33.3113 -24.9942 1.54452e-12
2.56091e-12 1.54452e-12 -21.3651

21.3107 0.56097 2.49815e-12
0.56097 -32.3382 -4.05143e-12
2.49815e-12 -4.05143e-12 -5.58937

-48.9595 -17.9691 -8.34823e-13
-17.9691 6.34295 -7.12171e-12
-8.34823e-13 -7.12171e-12 -12.946

11.6601 -2.6652 -3.13053e-12
-2.6652 -43.2485 3.17317e-12
-3.13053e-12 3.17317e-12 -8.03326

-11.3496 26.6736 5.35305e-12
26.6736 19.5173 -2.87947e-12
5.35305e-12 -2.87947e-12 -6.0891

21.7655 -4.19556 2.7723e-12
-4.19556 -35.2942 -2.78673e-12
2.7723e-12 -2.78673e-12 -6.74093

-24.4789 8.66855 -1.86369e-13
8.66855 32.1274 -7.02253e-13
-1.86369e-13 -7.02253e-13 -4.93397

-11.8087 6.28767 3.60508e-13
6.28767 -11.9739 2.2878e-12
3.60508e-13 2.2878e-12 -75.621

22.7432 1.87597 6.39015e-12
1.87597 -33.4686 -1.65275e-13
6.39015e-12 -1.65275e-13 -6.67691

-12.3878 -27.715 -1.022e-12
-27.715 1.59974 -1.28253e-12
-1.022e-12 -1.28253e-12 -6.60241

21.3043 6.84936 3.73035e-14
6.84936 -34.3036 -2.38565e-12
3.73035e-14 -2.38565e-12 -6.80616

-37.905 19.1128 -5.88714e-13
19.1128 2.65396 2.03008e-12
-5.88714e-13 2.03008e-12 -9.45738

106.602 4.18135 4.61853e-12
4.18135 20.6025 1.32013e-12
4.61853e-12 1.32013e-12 -12.0493

-5.30169 30.7457 3.57403e-12
30.7457 -7.27209 6.14619e-13
3.57403e-12 6.14619e-13 -7.44127

27.8899 37.0742 -7.00714e-12
37.0742 26.4691 1.29674e-12
-7.00714e-12 1.29674e-12 -8.63198

-9.4391 10.3235 2.44012e-12
10.3235 -32.9302 4.63011e-12
2.44012e-12 4.63011e-12 -49.5091

19.8306 14.2168 4.69254e-12
14.2168 -29.3589 4.28235e-12
4.69254e-12 4.28235e-12 -6.00063

-4.2101 -17.7803 1.34589e-12
-17.7803 59.6573 -1.85452e-12
1.34589e-12 -1.85452e-12 -8.47588

66.2826 -42.1015 -2.60059e-12
-42.1015 71.1378 -8.40809e-13
-2.60059e-12 -8.40809e-13 -11.2521

-48.21 5.98675 -1.80716e-12
5.98675 7.26959 -2.27492e-12
-1.80716e-12 -2.27492e-12 -41.0378

-26.2912 -4.84068 2.60444e-12
-4.84068 1.75672 -2.49341e-12
2.60444e-12 -2.49341e-12 -37.8027

-1.4668 21.0279 2.95586e-12
21.0279 -39.5065 1.56615e-13
2.95586e-12 1.56615e-13 -41.1036

-43.976 5.06749 -2.11535e-12
5.06749 0.514225 1.79797e-12
-2.11535e-12 1.79797e-12 -52.1915

-2.76006 -9.16995 -4.27243e-12
-9.16995 -20.7698 1.9116e-12
-4.27243e-12 1.9116e-12 -35.8971

-3.97411 -27.998 3.62969e-12
-27.998 -4.61045 -1.59931e-12
3.62969e-12 -1.59931e-12 -5.99423

65.5964 41.5207 -8.88178e-13
41.5207 73.1655 -2.22637e-13
-8.88178e-13 -2.22637e-13 -10.9639

60.1547 -17.949 -4.32247e-12
-17.949 0.117098 4.58122e-12
-4.32247e-12 4.58122e-12 -8.04987

-41.8037 -3.70605 -1.00172e-12
-3.70605 -1.18565 -4.22773e-13
-1.00172e-12 -4.22773e-13 -52.7263

-14.5939 19.5555 -4.45718e-13
19.5555 -28.5516 -1.18009e-12
-4.45718e-13 -1.18009e-12 -52.8345

18.1409 -12.2733 6.35936e-13
-12.2733 -29.8988 3.36768e-12
6.35936e-13 3.36768e-12 -6.22281

38.1728 -43.2987 -7.72123e-13
-43.2987 41.8008 -3.55035e-12
-7.72123e-13 -3.55035e-12 -14.559

58.1434 -18.0633 -6.34752e-13
-18.0633 -2.30259 2.66157e-12
-6.34752e-13 2.66157e-12 -7.91345

-21.4416 17.0856 -3.53051e-13
17.0856 30.327 4.5232e-12
-3.53051e-13 4.5232e-12 -5.72803

-11.3725 19.3389 1.09009e-12
19.3389 25.5104 6.53107e-13
1.09009e-12 6.53107e-13 -3.92145

20.7911 -16.301 -1.49036e-12
-16.301 -33.1141 -1.06152e-12
-1.49036e-12 -1.06152e-12 -7.3114

12.6153 -34.1851 7.02668e-12
-34.1851 46.4351 -8.28967e-14
7.02668e-12 -8.28967e-14 -10.3971

62.3595 19.1816 3.67114e-12
19.1816 2.81036 -2.75691e-12
3.67114e-12 -2.75691e-12 -8.41381

46.5131 -25.2881 1.72425e-12
-25.2881 5.13413 -2.71575e-12
1.72425e-12 -2.71575e-12 -5.60981

-31.8957 19.4857 6.51331e-13
19.4857 -4.28552 7.03141e-13
6.51331e-13 7.03141e-13 -26.0856

37.0388 29.649 1.20792e-13
29.649 14.5126 -7.57912e-13
1.20792e-13 -7.57912e-13 -5.43224

-27.4499 -21.8128 -2.72079e-12
-21.8128 -8.22834 9.54246e-13
-2.72079e-12 9.54246e-13 -25.248

64.8681 -42.7108 5.36223e-12
-42.7108 44.0797 3.37745e-12
5.36223e-12 3.37745e-12 -9.50209

-27.7496 5.45969 -2.53915e-12
5.45969 2.66932 -6.83216e-12
-2.53915e-12 -6.83216e-12 -38.3083

-5.55761 -5.32973 3.58794e-12
-5.32973 57.3875 -5.00933e-13
3.58794e-12 -5.00933e-13 -5.44927

-0.20017 10.3842 -2.51828e-12
10.3842 -24.8481 4.18302e-12
-2.51828e-12 4.18302e-12 -38.3699

-26.4849 21.4129 1.4273e-12
21.4129 12.2195 -4.25734e-13
1.4273e-12 -4.25734e-13 -6.86936

4.72644 5.75388 -4.88498e-13
5.75388 -56.04 1.14827e-12
-4.88498e-13 1.14827e-12 -13.9806

0.539783 11.4589 -3.33807e-13
11.4589 -34.0565 -1.9762e-12
-3.33807e-13 -1.9762e-12 -14.8396

106.343 31.8196 -1.39503e-12
31.8196 37.8326 -6.28949e-12
-1.39503e-12 -6.28949e-12 -7.48968

-35.4917 -6.03514 8.91583e-13
-6.03514 10.6012 -5.48598e-12
8.91583e-13 -5.48598e-12 -13.4788

-35.3599 9.51971 -3.1819e-12
9.51971 1.23361 7.1901e-12
-3.1819e-12 7.1901e-12 -14.9599

-42.5875 -2.88079 4.60879e-12
-2.88079 21.1109 -3.48225e-12
4.60879e-12 -3.48225e-12 -11.2386

-44.9078 23.402 9.97387e-13
23.402 -5.89261 9.23706e-14
9.97387e-13 9.23706e-14 -13.9216

9.97104 8.46349 -1.66533e-12
8.46349 -42.3777 3.94351e-13
-1.66533e-12 3.94351e-13 -9.07761

-12.3342 -28.2391 2.56091e-12
-28.2391 1.68738 -1.56142e-12
2.56091e-12 -1.56142e-12 -6.67357

1.30886 -1.71123 2.81982e-12
-1.71123 -55.4562 -7.48734e-13
2.81982e-12 -7.48734e-13 -11.3038

-31.8852 -19.2617 1.9688e-12
-19.2617 -4.59489 4.86722e-13
1.9688e-12 4.86722e-13 -25.9549

-27.9754 21.3078 3.29692e-12
21.3078 -8.35817 5.71094e-13
3.29692e-12 5.71094e-13 -26.0133

-0.65164 -16.5832 4.85967e-12
-16.5832 61.6731 -5.48894e-12
4.85967e-12 -5.48894e-12 -7.94871

-0.650117 -27.936 1.42109e-12
-27.936 -21.3607 2.22933e-13
1.42109e-12 2.22933e-13 -12.7908

-14.093 -25.1345 2.36936e-12
-25.1345 7.40682 6.79279e-12
2.36936e-12 6.79279e-12 -5.23566

91.677 -31.7103 -3.48403e-12
-31.7103 19.4847 -1.18246e-12
-3.48403e-12 -1.18246e-12 -16.3332

-33.7059 3.22262 -2.38846e-12
3.22262 9.19935 4.63037e-12
-2.38846e-12 4.63037e-12 -18.5634

2.75222 28.9438 -3.33837e-12
28.9438 -24.4246 3.95683e-12
-3.33837e-12 3.95683e-12 -11.3163

-38.4332 19.6641 1.04909e-12
19.6641 5.22974 1.75504e-12
1.04909e-12 1.75504e-12 -9.23486

50.1901 7.99945 -8.53836e-13
7.99945 -16.9635 2.5171e-12
-8.53836e-13 2.5171e-12 -7.06661

60.0309 -33.9352 1.94215e-13
-33.9352 33.7866 -9.91681e-12
1.94215e-13 -9.91681e-12 -6.9836

-18.9599 -10.5875 3.41653e-13
-10.5875 -0.541741 1.6156e-12
3.41653e-13 1.6156e-12 -25.4313

-33.9261 23.8995 -2.68467e-12
23.8995 -12.0231 -2.7571e-13
-2.68467e-12 -2.7571e-13 -14.5401

58.1557 -32.3834 -8.21861e-13
-32.3834 18.0913 1.21977e-12
-8.21861e-13 1.21977e-12 -10.1336

66.8591 10.791 1.96939e-12
10.791 8.51326 -1.86458e-12
1.96939e-12 -1.86458e-12 -5.08422

7.67409 -21.2057 1.72958e-12
-21.2057 88.4637 5.50671e-12
1.72958e-12 5.50671e-12 -11.8622

-33.9855 14.4256 2.1263e-12
14.4256 20.2383 -8.23045e-13
2.1263e-12 -8.23045e-13 -7.5461

8.47551 23.1429 2.93987e-12
23.1429 -26.0737 1.35447e-12
2.93987e-12 1.35447e-12 -11.2989

34.8685 42.1982 1.46017e-12
42.1982 46.1989 5.32789e-12
1.46017e-12 5.32789e-12 -14.4204

-4.39442 16.5071 -8.44954e-12
16.5071 -35.5419 8.78941e-12
-8.44954e-12 8.78941e-12 -73.2877

-5.9797 -4.10831 -1.68487e-12
-4.10831 57.948 -3.85114e-12
-1.68487e-12 -3.85114e-12 -5.44147

-1.81882 -16.6322 6.85844e-12
-16.6322 -39.402 -9.47923e-12
6.85844e-12 -9.47923e-12 -74.111

-3.32942 -27.3349 -1.37727e-12
-27.3349 -30.0298 -2.51206e-12
-1.37727e-12 -2.51206e-12 -21.5542

8.96715 27.4245 -2.00728e-13
27.4245 -29.9947 3.28419e-12
-2.00728e-13 3.28419e-12 -11.2569

45.7109 -24.4103 4.38168e-14
-24.4103 5.02443 -6.11629e-12
4.38168e-14 -6.11629e-12 -5.23588

10.0954 31.3229 -1.65616e-12
31.3229 47.1629 -7.95808e-13
-1.65616e-12 -7.95808e-13 -9.64016

14.2724 -10.705 9.42653e-13
-10.705 82.8381 3.32297e-12
9.42653e-13 3.32297e-12 -6.44691

-38.633 21.9707 2.8327e-12
21.9707 2.94156 2.31992e-12
2.8327e-12 2.31992e-12 -8.5688

1.19268 16.7941 1.05012e-12
16.7941 -25.7221 1.6005e-12
1.05012e-12 1.6005e-12 -18.5676

-26.5377 15.1538 3.10862e-15
15.1538 18.4493 -8.68638e-13
3.10862e-15 -8.68638e-13 -5.70773

43.6585 15.9537 -9.37916e-13
15.9537 -7.28483 -8.20085e-14
-9.37916e-13 -8.20085e-14 -4.07489

12.577 -21.4723 2.6971e-12
-21.4723 57.9552 -3.68061e-12
2.6971e-12 -3.68061e-12 -4.71384

65.9959 -29.3903 1.41635e-12
-29.3903 18.6435 3.42718e-12
1.41635e-12 3.42718e-12 -9.33513

-32.381 -24.5729 -1.0445e-12
-24.5729 -7.2816 1.18276e-12
-1.0445e-12 1.18276e-12 -8.97605

-22.6668 27.4509 1.03473e-12
27.4509 -10.3501 9.20745e-14
1.03473e-12 9.20745e-14 -9.28364

-38.3511 23.1875 3.33837e-12
23.1875 1.99107 -3.4787e-13
3.33837e-12 -3.4787e-13 -8.5247

-51.5533 13.1691 -5.30435e-12
13.1691 11.927 1.06623e-11
-5.30435e-12 1.06623e-11 -16.4662

23.4846 9.37223 5.2367e-12
9.37223 -29.4875 1.69909e-12
5.2367e-12 1.69909e-12 -5.32122

3.76873 -4.66501 -3.52429e-12
-4.66501 79.4374 3.13586e-12
-3.52429e-12 3.13586e-12 -9.53125

-44.9399 -36.8333 -2.25834e-12
-36.8333 -19.8289 1.617e-12
-2.25834e-12 1.617e-12 -14.7705

-16.0793 27.4651 -2.35012e-12
27.4651 1.3411 2.12452e-12
-2.35012e-12 2.12452e-12 -6.91436

-5.01513 2.17031 7.99124e-12
2.17031 82.6728 3.12402e-12
7.99124e-12 3.12402e-12 -13.431

69.0448 34.6099 -3.43429e-13
34.6099 15.4966 -3.25547e-12
-3.43429e-13 -3.25547e-12 -10.7058

-31.3516 -22.9737 1.3262e-12
-22.9737 -4.6324 -1.03236e-12
1.3262e-12 -1.03236e-12 -8.52956

11.7429 5.73296 8.49987e-13
5.73296 -48.3358 -3.56108e-12
8.49987e-13 -3.56108e-12 -8.6411

43.0654 27.2037 2.32584e-12
27.2037 10.4521 9.29035e-13
2.32584e-12 9.29035e-13 -5.08062

-9.41477 12.7455 -2.50022e-13
12.7455 -14.0391 1.47586e-12
-2.50022e-13 1.47586e-12 -37.0408

70.3339 24.3302 4.38168e-13
24.3302 23.8048 -3.44554e-12
4.38168e-13 -3.44554e-12 -6.79939

-10.586 -13.055 -8.89659e-14
-13.055 -13.9209 4.65702e-13
-8.89659e-14 4.65702e-13 -37.3785

-4.37936 0.778526 1.36158e-12
0.778526 59.3975 -7.16464e-13
1.36158e-12 -7.16464e-13 -4.83047

38.3567 -2.23529 -4.59484e-12
-2.23529 -23.8104 5.9606e-12
-4.59484e-12 5.9606e-12 -5.83206

3.59372 -15.768 2.1146e-12
-15.768 -53.9712 -8.46434e-13
2.1146e-12 -8.46434e-13 -21.1242

-42.2769 24.3881 -1.8905e-13
24.3881 -11.7369 1.41457e-12
-1.8905e-13 1.41457e-12 -11.1673

-46.8123 -13.535 -1.38647e-12
-13.535 11.0674 3.43311e-12
-1.38647e-12 3.43311e-12 -12.3537

5.81016 -7.99999 1.77784e-12
-7.99999 -70.9676 1.24463e-12
1.77784e-12 1.24463e-12 -14.8818

-49.5391 -22.2841 2.99953e-12
-22.2841 3.74852 5.12183e-13
2.99953e-12 5.12183e-13 -22.1042

-17.4593 -6.59651 -2.56654e-12
-6.59651 -13.1158 3.43651e-13
-2.56654e-12 3.43651e-13 -34.7816

-28.7296 -29.9081 2.72937e-12
-29.9081 -9.39986 -8.78112e-13
2.72937e-12 -8.78112e-13 -8.99583

15.6934 11.4535 3.1628e-12
11.4535 80.1796 1.81662e-12
3.1628e-12 1.81662e-12 -6.53057

42.2897 -28.1461 5.29473e-12
-28.1461 11.0509 1.39562e-12
5.29473e-12 1.39562e-12 -5.04386

-47.1705 -13.7722 1.63055e-13
-13.7722 4.19614 -2.23791e-12
1.63055e-13 -2.23791e-12 -29.3007

2.96486 0.504429 -2.00403e-12
0.504429 -56.8118 -3.20877e-12
-2.00403e-12 -3.20877e-12 -11.005

-39.3365 -21.5245 -3.73331e-13
-21.5245 -8.85728 3.60245e-12
-3.73331e-13 3.60245e-12 -14.7741

-40.1949 25.6977 -2.33724e-12
25.6977 -14.6915 -4.31954e-12
-2.33724e-12 -4.31954e-12 -11.3107

32.2603 -31.464 -8.53836e-13
-31.464 38.4291 -1.02318e-12
-8.53836e-13 -1.02318e-12 -4.64801

-31.4688 -7.08503 -5.59708e-12
-7.08503 1.70031 5.48302e-13
-5.59708e-12 5.48302e-13 -40.9929

36.6297 -33.0763 -3.64272e-12
-33.0763 72.0266 6.12725e-12
-3.64272e-12 6.12725e-12 -7.14466

16.6126 -19.1795 8.13571e-13
-19.1795 -25.8696 6.54291e-13
8.13571e-13 6.54291e-13 -7.13307

1.50259 1.97028 1.91136e-12
1.97028 -51.3914 -2.84928e-12
1.91136e-12 -2.84928e-12 -15.3741

-12.876 17.8751 -2.44397e-12
17.8751 -16.9549 5.94606e-12
-2.44397e-12 5.94606e-12 -41.0604

10.7132 20.1825 -3.89259e-12
20.1825 59.4536 2.52835e-12
-3.89259e-12 2.52835e-12 -4.35648

4.31841 27.2103 -1.21325e-12
27.2103 -16.2236 1.82047e-12
-1.21325e-12 1.82047e-12 -8.12405

30.9043 -24.5113 -3.62258e-12
-24.5113 -8.1321 -8.00219e-12
-3.62258e-12 -8.00219e-12 -4.87195

-37.7872 -17.8385 -3.49781e-12
-17.8385 2.40087 -1.03177e-12
-3.49781e-12 -1.03177e-12 -9.86423

55.5132 35.0677 -4.56761e-12
35.0677 42.3451 5.80277e-14
-4.56761e-12 5.80277e-14 -6.63619

-40.0149 -21.831 5.01318e-12
-21.831 2.53687 4.17562e-12
5.01318e-12 4.17562e-12 -9.39374

2.96661 30.8503 -6.9574e-13
30.8503 -17.3881 1.33523e-12
-6.9574e-13 1.33523e-12 -9.07805

18.5373 -25.2438 -3.86239e-12
-25.2438 -19.4176 2.30038e-12
-3.86239e-12 2.30038e-12 -6.34226

-15.6535 -25.1261 8.86106e-13
-25.1261 5.89565 1.44595e-12
8.86106e-13 1.44595e-12 -5.77529

42.718 -18.6878 -2.03807e-12
-18.6878 -9.16556 -6.18291e-12
-2.03807e-12 -6.18291e-12 -5.36888

27.4318 -18.8494 9.28443e-13
-18.8494 -20.3681 -6.40317e-12
9.28443e-13 -6.40317e-12 -5.68952

-41.3938 -25.3369 3.97016e-13
-25.3369 -14.964 3.28989e-12
3.97016e-13 3.28989e-12 -11.5669

29.7807 35.9688 -8.1594e-13
35.9688 25.2269 4.31773e-12
-8.1594e-13 4.31773e-12 -8.6441

-28.518 15.3766 -1.21148e-12
15.3766 18.5188 -1.31036e-12
-1.21148e-12 -1.31036e-12 -5.87374

-23.1079 26.422 2.69236e-12
26.422 -12.5466 1.61352e-13
2.69236e-12 1.61352e-13 -9.95786

-42.0965 25.4736 3.78059e-12
25.4736 -11.5925 -3.88652e-12
3.78059e-12 -3.88652e-12 -10.9926

-37.2883 11.6214 -2.49684e-12
11.6214 11.8441 7.1901e-12
-2.49684e-12 7.1901e-12 -9.08029

64.3924 -8.22686 2.42295e-12
-8.22686 3.19781 1.76259e-12
2.42295e-12 1.76259e-12 -4.2506

8.73394 18.6061 -4.67952e-12
18.6061 59.2194 2.95704e-12
-4.67952e-12 2.95704e-12 -4.16208

-25.6144 -24.3803 2.90642e-12
-24.3803 0.458461 -2.31163e-12
2.90642e-12 -2.31163e-12 -7.21531

-1.14148 25.6656 -7.6863e-12
25.6656 13.7523 5.30539e-13
-7.6863e-12 5.30539e-13 -4.08241

32.3784 -35.6287 -4.46931e-12
-35.6287 21.7 3.34962e-12
-4.46931e-12 3.34962e-12 -8.48581

59.5356 38.316 -4.37102e-12
38.316 17.8476 3.98733e-12
-4.37102e-12 3.98733e-12 -13.7221

12.1251 -33.3105 3.47041e-12
-33.3105 42.913 1.69109e-12
3.47041e-12 1.69109e-12 -9.54244

30.5511 -31.159 -7.09951e-12
-31.159 36.8133 1.05516e-12
-7.09951e-12 1.05516e-12 -4.40518

11.7688 -6.83865 4.15371e-13
-6.83865 -48.8379 -1.54247e-12
4.15371e-13 -1.54247e-12 -8.76993

25.2743 30.3412 9.166e-13
30.3412 41.0887 -8.02913e-13
9.166e-13 -8.02913e-13 -4.45568

62.6815 13.2944 -5.43565e-13
13.2944 5.22829 -1.80596e-14
-5.43565e-13 -1.80596e-14 -4.30519

-7.02549 13.3786 3.19581e-12
13.3786 61.3435 5.48894e-12
3.19581e-12 5.48894e-12 -8.69467

11.7297 -22.34 8.40809e-14
-22.34 55.7626 -2.21334e-12
8.40809e-14 -2.21334e-12 -4.30114

-47.2605 -1.09153 -5.92341e-13
-1.09153 12.4096 5.82763e-12
-5.92341e-13 5.82763e-12 -22.162

-5.91881 2.24657 3.61577e-12
2.24657 59.0038 -3.75877e-12
3.61577e-12 -3.75877e-12 -5.26218

6.2688 31.0887 -1.68635e-12
31.0887 47.8647 1.7053e-13
-1.68635e-12 1.7053e-13 -9.66023

-39.7252 12.1078 1.06413e-12
12.1078 12.8448 4.64813e-13
1.06413e-12 4.64813e-13 -9.31276

40.7379 -27.6471 8.12387e-13
-27.6471 8.35765 -3.80614e-12
8.12387e-13 -3.80614e-12 -5.64164

7.54 20.5569 -7.61169e-13
20.5569 -47.4668 -9.61601e-13
-7.61169e-13 -9.61601e-13 -16.4816

-3.42109 26.2704 3.81325e-12
26.2704 -31.4866 1.36469e-12
3.81325e-12 1.36469e-12 -22.2524

15.7774 -18.5674 1.24937e-13
-18.5674 -30.0128 2.53753e-12
1.24937e-13 2.53753e-12 -8.18267

4.4287 -1.80118 2.70051e-12
-1.80118 -34.133 -1.27572e-12
2.70051e-12 -1.27572e-12 -24.4394

-14.3395 -31.8117 -2.11268e-12
-31.8117 -11.9302 7.27359e-12
-2.11268e-12 7.27359e-12 -9.0492

56.2177 23.3274 2.43953e-12
23.3274 0.816992 -3.13112e-12
2.43953e-12 -3.13112e-12 -8.28769

-27.828 30.1621 1.09305e-12
30.1621 -9.23641 4.60846e-12
1.09305e-12 4.60846e-12 -8.80008

-27.0035 29.2058 1.13539e-12
29.2058 -9.20177 1.37016e-12
1.13539e-12 1.37016e-12 -8.67736

28.6285 30.6603 1.80359e-12
30.6603 40.4055 -1.18424e-13
1.80359e-12 -1.18424e-13 -4.4487

0.343098 27.0849 1.51642e-12
27.0849 -19.8457 6.3564e-13
1.51642e-12 6.3564e-13 -11.7769

64.5074 3.52509 -1.8107e-12
3.52509 -11.8255 -7.14503e-13
-1.8107e-12 -7.14503e-13 -10.0181

-14.8997 31.8172 -3.61814e-12
31.8172 -20.7987 -1.4954e-12
-3.61814e-12 -1.4954e-12 -12.4473

-37.9439 -12.5997 -4.09361e-12
-12.5997 8.18004 1.58925e-12
-4.09361e-12 1.58925e-12 -14.0227

-0.475029 24.2782 -1.0066e-13
24.2782 -29.9991 6.03517e-12
-1.0066e-13 6.03517e-12 -20.7714

-23.7273 -29.5787 -3.12787e-12
-29.5787 -11.9349 -1.14161e-12
-3.12787e-12 -1.14161e-12 -8.84301

-38.1481 -4.89806 2.33054e-13
-4.89806 18.8466 -5.2817e-12
2.33054e-13 -5.2817e-12 -11.7299

69.9439 -24.5559 -3.39166e-12
-24.5559 18.0288 2.63552e-12
-3.39166e-12 2.63552e-12 -7.04416

39.9818 29.6926 5.3717e-12
29.6926 13.4795 2.54256e-12
5.3717e-12 2.54256e-12 -5.21473

-4.2959 14.6963 -2.10439e-12
14.6963 60.5708 4.15075e-12
-2.10439e-12 4.15075e-12 -8.4006

1.61142 -1.13889 2.01913e-13
-1.13889 -56.1233 -1.88316e-12
2.01913e-13 -1.88316e-12 -11.2089

9.61413 0.00222906 1.65468e-12
0.00222906 -44.7537 -1.96709e-12
1.65468e-12 -1.96709e-12 -8.43763

-31.0786 23.1238 7.66054e-13
23.1238 -4.3371 -5.79981e-13
7.66054e-13 -5.79981e-13 -8.45807

-34.7625 23.8709 -2.81641e-12
23.8709 -13.1925 6.91798e-13
-2.81641e-12 6.91798e-13 -14.8129

-43.3786 -24.3807 1.4864e-13
-24.3807 -12.6139 -2.93099e-14
1.4864e-13 -2.93099e-14 -11.4684

-39.059 -0.672759 -3.51598e-12
-0.672759 21.0464 -3.11395e-12
-3.51598e-12 -3.11395e-12 -10.4953

-40.8066 25.5904 -1.76481e-12
25.5904 -13.2225 -1.41901e-12
-1.76481e-12 -1.41901e-12 -11.172

32.3215 -10.3078 3.59653e-12
-10.3078 -25.1533 -1.03266e-12
3.59653e-12 -1.03266e-12 -6.01388

8.70678 -32.8331 2.24887e-12
-32.8331 22.7976 1.74675e-12
2.24887e-12 1.74675e-12 -6.99171

2.39684 -2.3007 -2.91619e-12
-2.3007 -49.9606 2.25864e-12
-2.91619e-12 2.25864e-12 -14.7725

36.7454 -34.5078 -7.4607e-14
-34.5078 24.4796 -1.90781e-12
-7.4607e-14 -1.90781e-12 -7.70888

-38.2938 19.0861 7.50511e-14
19.0861 -7.09367 -2.36818e-12
7.50511e-14 -2.36818e-12 -14.4493

7.87075 -26.4787 2.78177e-12
-26.4787 -27.9944 -1.57622e-12
2.78177e-12 -1.57622e-12 -10.9689

63.9469 -9.69014 1.83202e-12
-9.69014 5.6776 6.08639e-12
1.83202e-12 6.08639e-12 -5.07208

6.04079 -23.1919 -2.14939e-13
-23.1919 -35.4681 1.31776e-12
-2.14939e-13 1.31776e-12 -17.736

0.141363 2.35827 4.77396e-13
2.35827 -56.174 3.10152e-12
4.77396e-13 3.10152e-12 -11.5458

-4.06204 -23.3214 5.14907e-12
-23.3214 -23.4117 -3.22128e-12
5.14907e-12 -3.22128e-12 -16.7199

11.0388 -25.8594 1.05516e-12
-25.8594 -29.4857 -3.47515e-12
1.05516e-12 -3.47515e-12 -9.73341

10.2014 -8.54609 1.05604e-12
-8.54609 -43.4898 3.33378e-12
1.05604e-12 3.33378e-12 -9.28115

-35.4182 -23.0681 -7.78044e-13
-23.0681 -12.6458 3.22884e-12
-7.78044e-13 3.22884e-12 -15.103

23.6643 -31.3416 2.81493e-12
-31.3416 5.71254 6.90944e-12
2.81493e-12 6.90944e-12 -5.87794

11.0598 -24.5872 -9.23706e-13
-24.5872 -27.4945 4.12766e-12
-9.23706e-13 4.12766e-12 -10.0479

46.6428 10.8643 -1.9457e-12
10.8643 -16.117 1.6979e-12
-1.9457e-12 1.6979e-12 -6.79958

-14.1861 26.3402 -2.09758e-12
26.3402 -15.6397 5.36904e-13
-2.09758e-12 5.36904e-13 -14.1189

-45.2518 -37.6129 -8.28966e-15
-37.6129 -20.6124 3.55593e-12
-8.28966e-15 3.55593e-12 -14.919

-43.7085 37.2652 4.73103e-13
37.2652 -21.2662 -7.08396e-13
4.73103e-13 -7.08396e-13 -14.7694

-61.1851 -28.5734 3.67958e-12
-28.5734 -7.49705 -5.50375e-13
3.67958e-12 -5.50375e-13 -15.1994

-58.416 27.0641 3.78438e-13
27.0641 -6.27168 -1.9836e-13
3.78438e-13 -1.9836e-13 -14.478

5.60065 -8.52763 -2.85831e-12
-8.52763 -71.0641 5.54075e-13
-2.85831e-12 5.54075e-13 -14.7096

4.39738 9.27365 6.90115e-13
9.27365 -68.8327 -1.38408e-13
6.90115e-13 -1.38408e-13 -14.4376

9.02397 -9.84614 -1.17506e-12
-9.84614 -40.8898 -1.67984e-12
-1.17506e-12 -1.67984e-12 -9.61164

-24.3355 32.1162 7.31563e-13
32.1162 -24.81 1.42397e-12
7.31563e-13 1.42397e-12 -21.1453

-25.5229 -32.8542 -1.65882e-12
-32.8542 -25.0961 4.00166e-12
-1.65882e-12 4.00166e-12 -21.4695

-53.9199 16.0685 -8.01137e-13
16.0685 3.40177 1.28727e-12
-8.01137e-13 1.28727e-12 -21.4029

-52.4208 -15.801 -3.52962e-12
-15.801 3.29709 -1.43293e-12
-3.52962e-12 -1.43293e-12 -21.0762

6.11225 -3.74762 -1.26329e-12
-3.74762 -43.9252 3.9743e-12
-1.26329e-12 3.9743e-12 -25.7652

6.91841 3.61039 1.33123e-12
3.61039 -46.3487 6.3339e-12
1.33123e-12 6.3339e-12 -26.1415

-15.6256 9.8368 8.63013e-14
9.8368 46.2624 -6.37238e-12
8.63013e-14 -6.37238e-12 -5.84774

-22.9185 -24.7741 -3.13823e-13
-24.7741 -14.5522 -6.36365e-12
-3.13823e-13 -6.36365e-12 -10.3297

-56.6036 -36.3876 -4.78876e-13
-36.3876 -14.5327 8.93063e-13
-4.78876e-13 8.93063e-13 -13.437

33.3583 -4.66427 1.31687e-12
-4.66427 -19.8468 -1.55032e-12
1.31687e-12 -1.55032e-12 -3.94486

3.43341 -16.6947 -2.74033e-12
-16.6947 -52.6288 3.013e-12
-2.74033e-12 3.013e-12 -21.5327

3.67454 16.1757 3.91272e-12
16.1757 -51.8845 -3.68594e-13
3.91272e-12 -3.68594e-13 -21.406

6.55575 0.121882 1.83912e-12
0.121882 -76.755 -2.42986e-13
1.83912e-12 -2.42986e-13 -13.3039

-7.56939 23.375 -6.04553e-12
23.375 39.9356 6.43041e-13
-6.04553e-12 6.43041e-13 -6.88503

-56.8893 36.1715 1.40628e-13
36.1715 -14.0113 -3.70859e-12
1.40628e-13 -3.70859e-12 -13.3887

-39.7946 -23.3957 2.68526e-13
-23.3957 2.56156 -5.30243e-13
2.68526e-13 -5.30243e-13 -8.80071

37.1166 23.3526 5.51855e-13
23.3526 -8.61293 8.02913e-13
5.51855e-13 8.02913e-13 -5.75838

4.73533 23.8582 2.73085e-12
23.8582 -38.2259 -4.77544e-13
2.73085e-12 -4.77544e-13 -18.9858

24.0134 -31.3134 2.92033e-12
-31.3134 6.40841 -1.06877e-12
2.92033e-12 -1.06877e-12 -5.64792

2.43079 -3.23095 -9.41469e-13
-3.23095 -48.3698 -2.79717e-12
-9.41469e-13 -2.79717e-12 -14.7426

-60.4578 -34.161 -6.25477e-12
-34.161 -14.3498 5.1692e-13
-6.25477e-12 5.1692e-13 -14.0307

-17.4524 8.31991 -7.58578e-13
8.31991 45.6917 -5.8975e-13
-7.58578e-13 -5.8975e-13 -5.78079

-9.46864 21.8114 -7.00773e-12
21.8114 40.425 2.84217e-13
-7.00773e-12 2.84217e-13 -6.65352

58.6034 35.7756 -2.49164e-12
35.7756 37.088 4.30352e-12
-2.49164e-12 4.30352e-12 -6.91578

70.4837 1.57875 1.03739e-12
1.57875 -5.54281 3.86876e-12
1.03739e-12 3.86876e-12 -10.3739

-30.7595 -22.8045 5.07742e-13
-22.8045 -13.3564 2.48964e-12
5.07742e-13 2.48964e-12 -14.4659

32.8412 31.1837 3.69245e-12
31.1837 69.794 1.87583e-12
3.69245e-12 1.87583e-12 -6.67928

-19.3764 23.6099 -9.4739e-13
23.6099 7.68693 -2.35427e-12
-9.4739e-13 -2.35427e-12 -5.51305

47.6369 -5.34951 -3.73035e-12
-5.34951 -17.433 1.77192e-12
-3.73035e-12 1.77192e-12 -6.82152

33.2194 11.216 -5.0111e-12
11.216 -23.6367 -2.73322e-12
-5.0111e-12 -2.73322e-12 -6.01364

6.25427 0.429904 -1.29274e-12
0.429904 -77.5523 -3.72199e-12
-1.29274e-12 -3.72199e-12 -13.4496

-58.9358 -29.0311 7.32155e-13
-29.0311 -6.28809 1.51553e-12
7.32155e-13 1.51553e-12 -14.697

-28.332 -6.31896 2.17352e-12
-6.31896 -11.3584 -7.53708e-12
2.17352e-12 -7.53708e-12 -51.5894

-44.6982 37.4116 -2.55855e-12
37.4116 -20.8115 -4.05846e-12
-2.55855e-12 -4.05846e-12 -14.7734

93.7901 1.66328 -8.28967e-13
1.66328 16.6554 -6.57252e-14
-8.28967e-13 -6.57252e-14 -6.043

10.0365 -32.7867 -4.83051e-12
-32.7867 21.3109 -5.33795e-12
-4.83051e-12 -5.33795e-12 -6.80797

-56.9362 36.613 -3.52784e-12
36.613 -14.5712 1.86873e-12
-3.52784e-12 1.86873e-12 -13.5049

-35.079 -11.1338 5.00653e-12
-11.1338 19.1771 -1.10371e-12
5.00653e-12 -1.10371e-12 -8.31625

-5.47732 -25.5144 -8.86698e-13
-25.5144 37.3501 -2.44782e-12
-8.86698e-13 -2.44782e-12 -6.9868

-58.4523 28.8301 2.84091e-12
28.8301 -6.27146 -3.27442e-13
2.84091e-12 -3.27442e-13 -14.614

28.4958 -26.1417 2.16123e-12
-26.1417 -4.91236 5.48776e-12
2.16123e-12 5.48776e-12 -4.69698

-21.1705 10.4834 8.95876e-13
10.4834 -18.559 -5.21768e-12
8.95876e-13 -5.21768e-12 -51.6849

3.43298 30.8718 -9.30811e-13
30.8718 27.1625 6.70397e-12
-9.30811e-13 6.70397e-12 -6.73275

6.14058 8.12673 -1.05412e-12
8.12673 -72.2978 1.25973e-13
-1.05412e-12 1.25973e-13 -14.9842

-11.5457 30.1906 -3.27975e-12
30.1906 -20.6032 5.42973e-13
-3.27975e-12 5.42973e-13 -11.549

-30.7975 23.3318 2.27374e-12
23.3318 -5.09967 4.36954e-12
2.27374e-12 4.36954e-12 -8.46413

-25.8637 -32.4888 -1.90248e-12
-32.4888 -24.1128 4.42032e-12
-1.90248e-12 4.42032e-12 -21.5589

9.20547 -23.1901 3.56456e-12
-23.1901 -27.9221 2.79154e-12
3.56456e-12 2.79154e-12 -11.4256

-37.6608 10.4707 1.79897e-12
10.4707 8.92891 -3.86713e-12
1.79897e-12 -3.86713e-12 -25.3311

-23.0404 -23.4337 5.69915e-13
-23.4337 4.95248 1.59339e-12
5.69915e-13 1.59339e-12 -6.26276

88.8029 -9.70773 3.59298e-12
-9.70773 10.8073 1.68917e-12
3.59298e-12 1.68917e-12 -10.0308

84.0431 -14.2771 -2.07242e-12
-14.2771 2.81273 -9.84102e-13
-2.07242e-12 -9.84102e-13 -13.1967

5.888 16.5294 2.38476e-12
16.5294 -33.9324 1.47082e-12
2.38476e-12 1.47082e-12 -22.3761

-16.4212 22.5015 4.51195e-13
22.5015 16.228 -2.42295e-12
4.51195e-13 -2.42295e-12 -5.08506

-3.91229 29.1631 -1.26832e-12
29.1631 -12.2297 2.26515e-12
-1.26832e-12 2.26515e-12 -8.39609

50.9925 0.688667 1.53951e-13
0.688667 -6.53162 7.53789e-12
1.53951e-13 7.53789e-12 -3.63419

-48.141 6.57119 4.14456e-12
6.57119 14.7862 4.71741e-12
4.14456e-12 4.71741e-12 -18.9524

10.1157 16.5408 1.20437e-12
16.5408 -36.0796 -4.78728e-13
1.20437e-12 -4.78728e-13 -9.13531

-4.50352 -25.7609 -4.22773e-13
-25.7609 35.5553 4.32365e-12
-4.22773e-13 4.32365e-12 -6.74676

-39.1911 -2.57241 1.23457e-12
-2.57241 21.5042 -1.50813e-12
1.23457e-12 -1.50813e-12 -10.6692

-7.99045 13.3651 -4.67271e-12
13.3651 44.4051 -4.74169e-12
-4.67271e-12 -4.74169e-12 -3.94408

3.7347 -29.7132 -4.35326e-12
-29.7132 -17.3646 -2.81849e-13
-4.35326e-12 -2.81849e-13 -8.92036

21.4259 -29.9472 9.04166e-13
-29.9472 14.7561 2.40637e-12
9.04166e-13 2.40637e-12 -3.91764

6.88103 31.6226 1.37372e-13
31.6226 25.4016 4.18983e-12
1.37372e-13 4.18983e-12 -6.82791

2.78558 -15.0201 -5.29058e-13
-15.0201 -39.2673 6.00305e-12
-5.29058e-13 6.00305e-12 -63.3118

-46.1597 2.04129 -2.506e-12
2.04129 11.4614 -2.92684e-12
-2.506e-12 -2.92684e-12 -22.7568

-55.4449 20.3001 -1.76303e-12
20.3001 3.0958 -6.06803e-12
-1.76303e-12 -6.06803e-12 -22.9159

5.91683 15.439 2.48098e-12
15.439 -58.8187 -5.84717e-13
2.48098e-12 -5.84717e-13 -23.036

-18.9214 -26.1886 -6.74986e-12
-26.1886 -12.9133 1.69257e-12
-6.74986e-12 1.69257e-12 -9.65244

41.3459 17.9571 5.22604e-12
17.9571 -6.27081 -1.97738e-12
5.22604e-12 -1.97738e-12 -3.86118

-44.6827 -5.29408 1.02671e-12
-5.29408 4.53832 3.47722e-12
1.02671e-12 3.47722e-12 -39.1452

7.49927 -18.9881 7.61465e-13
-18.9881 -39.8943 2.56713e-12
7.61465e-13 2.56713e-12 -11.6598

30.2909 -15.5988 -5.59552e-13
-15.5988 -20.5082 -5.84007e-12
-5.59552e-13 -5.84007e-12 -4.80476

-9.63818 11.6031 -1.19874e-12
11.6031 44.319 -2.37558e-12
-1.19874e-12 -2.37558e-12 -3.85883

8.33403 -25.734 -4.91459e-13
-25.734 32.9917 2.61243e-12
-4.91459e-13 2.61243e-12 -3.63279

-10.2447 -25.2738 3.67351e-12
-25.2738 -19.1002 -2.12053e-12
3.67351e-12 -2.12053e-12 -23.1748

17.0051 31.9592 2.73855e-12
31.9592 11.1973 1.71892e-12
2.73855e-12 1.71892e-12 -5.74608

-1.06927 -25.1347 4.56524e-13
-25.1347 -30.7627 5.34239e-12
4.56524e-13 5.34239e-12 -20.8916

48.0648 2.59735 1.06581e-13
2.59735 -8.40948 3.76218e-12
1.06581e-13 3.76218e-12 -3.53135

6.55263 -28.9303 -5.71809e-12
-28.9303 72.0499 1.84504e-12
-5.71809e-12 1.84504e-12 -14.5514

21.7915 -29.2307 5.18696e-13
-29.2307 13.9636 -4.36688e-12
5.18696e-13 -4.36688e-12 -3.93003

35.3511 32.1586 -1.26121e-12
32.1586 74.1338 3.55035e-12
-1.26121e-12 3.55035e-12 -5.44159

-45.2831 -11.8769 -3.44684e-12
-11.8769 13.9221 -2.02919e-12
-3.44684e-12 -2.02919e-12 -15.3262

-14.4202 -13.8212 -3.91835e-13
-13.8212 43.3821 2.53664e-12
-3.91835e-13 2.53664e-12 -5.6724

-19.2435 -23.9881 -3.61104e-12
-23.9881 -19.8305 1.88353e-12
-3.61104e-12 1.88353e-12 -64.2536

2.43841 23.7706 1.6757e-12
23.7706 36.0065 -8.70415e-13
1.6757e-12 -8.70415e-13 -3.7108

-15.1823 -32.7263 9.21544e-12
-32.7263 -21.1189 -5.52506e-12
9.21544e-12 -5.52506e-12 -14.3128

-14.5648 -11.963 -8.26672e-13
-11.963 45.5303 -1.12384e-12
-8.26672e-13 -1.12384e-12 -5.73859

7.83561 -19.1169 -3.40468e-14
-19.1169 -43.1218 -3.749e-12
-3.40468e-14 -3.749e-12 -12.6319

6.54578 23.8768 5.32078e-12
23.8768 35.1711 -8.19493e-13
5.32078e-12 -8.19493e-13 -3.44177

23.1733 -4.97547 2.80428e-12
-4.97547 -30.6759 3.9226e-12
2.80428e-12 3.9226e-12 -5.36398

36.97 -30.3425 1.86517e-12
-30.3425 122.626 -8.36782e-12
1.86517e-12 -8.36782e-12 -6.24185

-26.869 21.0139 1.26358e-12
21.0139 8.43427 -3.20692e-12
1.26358e-12 -3.20692e-12 -7.12962

40.3382 -19.3231 -3.71851e-13
-19.3231 -11.3721 -5.3421e-12
-3.71851e-13 -5.3421e-12 -5.72561

6.52855 -21.4459 1.2396e-12
-21.4459 -45.5582 6.36528e-14
1.2396e-12 6.36528e-14 -24.9718

20.7051 31.7537 3.47692e-12
31.7537 9.5576 1.44892e-12
3.47692e-12 1.44892e-12 -5.80565

13.9189 -29.9715 6.17284e-12
-29.9715 -7.60545 1.70856e-12
6.17284e-12 1.70856e-12 -5.94388

6.75486 20.8852 1.61175e-12
20.8852 -27.7919 2.33561e-12
1.61175e-12 2.33561e-12 -11.1086

-38.274 -28.0758 -5.46319e-12
-28.0758 -14.0377 2.61939e-12
-5.46319e-12 2.61939e-12 -11.0607

8.64646 -26.225 -2.14525e-12
-26.225 31.1707 3.49824e-12
-2.14525e-12 3.49824e-12 -3.63481

15.3314 28.9808 4.63629e-13
28.9808 19.1538 3.51008e-12
4.63629e-13 3.51008e-12 -3.88259

28.6402 26.1911 -2.71546e-12
26.1911 -5.63298 2.50141e-12
-2.71546e-12 2.50141e-12 -4.80158

7.91479 -14.6099 2.77881e-12
-14.6099 -36.8774 -8.62125e-13
2.77881e-12 -8.62125e-13 -13.9911

-6.84111 -16.6174 4.2751e-13
-16.6174 41.3406 1.31806e-12
4.2751e-13 1.31806e-12 -3.95902

17.4406 -17.5682 -8.95284e-13
-17.5682 -30.9989 -2.00462e-12
-8.95284e-13 -2.00462e-12 -7.10483

19.8419 16.9083 8.98837e-13
16.9083 -31.664 2.95379e-12
8.98837e-13 2.95379e-12 -7.33406

-33.6795 -9.38683 7.16686e-13
-9.38683 8.756 5.77138e-12
7.16686e-13 5.77138e-12 -23.9928

43.4312 -13.4299 3.05178e-12
-13.4299 -8.36844 6.57696e-13
3.05178e-12 6.57696e-13 -3.80376

-19.378 0.594019 -2.07715e-12
0.594019 43.1451 -1.12976e-12
-2.07715e-12 -1.12976e-12 -4.77503

28.0558 18.5548 -3.73509e-12
18.5548 -18.1986 6.1009e-12
-3.73509e-12 6.1009e-12 -4.74927

25.5283 27.6037 -2.57335e-12
27.6037 -3.7753 -1.94837e-12
-2.57335e-12 -1.94837e-12 -4.77072

-6.71491 -15.686 1.85748e-12
-15.686 43.7982 7.72123e-13
1.85748e-12 7.72123e-13 -3.84756

-19.9061 -1.20229 4.98942e-12
-1.20229 42.1276 -2.45256e-12
4.98942e-12 -2.45256e-12 -4.68659

-5.4732 29.1343 3.19744e-12
29.1343 -23.6464 7.57912e-14
3.19744e-12 7.57912e-14 -16.7968

-37.2734 -10.922 -5.29206e-13
-10.922 21.6799 7.63241e-13
-5.29206e-13 7.63241e-13 -7.82961

27.1432 -26.715 -2.10854e-12
-26.715 -5.53043 -4.50425e-12
-2.10854e-12 -4.50425e-12 -4.94377

40.7188 21.3324 -2.39098e-12
21.3324 -8.36974 8.39625e-13
-2.39098e-12 8.39625e-13 -5.46712

12.378 23.6652 -9.4739e-14
23.6652 -27.1268 -1.97176e-12
-9.4739e-14 -1.97176e-12 -8.6666

-37.7962 5.47074 -3.91243e-13
5.47074 23.3113 2.00077e-12
-3.91243e-13 2.00077e-12 -8.59705

18.593 29.0653 9.97128e-13
29.0653 17.3778 4.50129e-12
9.97128e-13 4.50129e-12 -3.94667

-9.98909 22.9638 4.80001e-12
22.9638 -14.9128 -2.54789e-12
4.80001e-12 -2.54789e-12 -24.026

68.316 -59.6913 -6.31436e-12
-59.6913 36.3349 1.78465e-12
-6.31436e-12 1.78465e-12 -23.0107

17.5309 -25.0476 -6.24685e-13
-25.0476 -17.9917 1.94511e-12
-6.24685e-13 1.94511e-12 -6.41724

10.0585 7.06984 -2.17663e-12
7.06984 82.55 2.76164e-12
-2.17663e-12 2.76164e-12 -7.16508

11.9204 -28.889 3.15185e-12
-28.889 -3.88131 -1.76155e-12
3.15185e-12 -1.76155e-12 -5.16535

-66.9449 -52.701 -2.72375e-12
-52.701 143.25 1.75267e-12
-2.72375e-12 1.75267e-12 -49.6693

-68.3881 51.4517 -1.74557e-12
51.4517 142.537 2.75691e-12
-1.74557e-12 2.75691e-12 -49.8584

19.5693 117.154 -2.97954e-12
117.154 64.1287 -1.8332e-12
-2.97954e-12 -1.8332e-12 -48.3599

20.5282 -117.097 1.01134e-12
-117.097 61.0255 -4.12115e-12
1.01134e-12 -4.12115e-12 -48.7246

157.743 -1.36336 -2.73796e-12
-1.36336 -79.1871 5.30363e-15
-2.73796e-12 5.30363e-15 -48.9115

110.325 -91.1255 -9.00021e-13
-91.1255 -36.69 -9.02389e-13
-9.00021e-13 -9.02389e-13 -50.3061

110.378 91.6534 -2.21216e-12
91.6534 -36.5003 -4.51195e-12
-2.21216e-12 -4.51195e-12 -50.179

7.84704 14.3303 -2.94816e-12
14.3303 -42.6814 3.94351e-13
-2.94816e-12 3.94351e-13 -15.0789

-11.791 25.5366 3.16636e-12
25.5366 -27.4047 4.20404e-14
3.16636e-12 4.20404e-14 -35.1381

12.4381 6.606 -8.47145e-12
6.606 -40.5334 -1.0704e-12
-8.47145e-12 -1.0704e-12 -8.25207

26.2547 21.7845 3.86594e-12
21.7845 -19.5282 7.59393e-13
3.86594e-12 7.59393e-13 -5.85043

-21.2296 17.7443 -4.17932e-12
17.7443 29.8683 2.27374e-12
-4.17932e-12 2.27374e-12 -6.16191

22.5303 28.8983 -5.22071e-12
28.8983 -0.775217 1.47734e-12
-5.22071e-12 1.47734e-12 -4.73035

4.0556 -29.6633 -6.87095e-12
-29.6633 -17.4661 -4.74435e-12
-6.87095e-12 -4.74435e-12 -8.50407

25.9952 28.0276 -5.63697e-13
28.0276 -2.3014 2.56151e-12
-5.63697e-13 2.56151e-12 -4.73076

-19.3466 -2.84123 -7.84706e-13
-2.84123 43.0711 -2.91678e-12
-7.84706e-13 -2.91678e-12 -4.76957

-13.4116 -26.0974 -1.86044e-12
-26.0974 -25.8384 -1.71981e-12
-1.86044e-12 -1.71981e-12 -35.5212

-19.8417 -4.86236 1.15611e-13
-4.86236 41.7762 1.95399e-13
1.15611e-13 1.95399e-13 -4.74344

-1.82686 23.0162 2.21156e-12
23.0162 -24.3771 -1.97398e-12
2.21156e-12 -1.97398e-12 -16.1498

44.9823 26.8705 6.08106e-12
26.8705 8.11158 -2.50881e-12
6.08106e-12 -2.50881e-12 -5.36878

-52.5088 -13.2161 -4.68973e-12
-13.2161 0.150416 4.97291e-12
-4.68973e-12 4.97291e-12 -20.6173

20.2805 13.7279 3.05356e-12
13.7279 -31.1411 5.92445e-12
3.05356e-12 5.92445e-12 -7.04258

13.7008 -29.9875 -1.37904e-12
-29.9875 -6.69119 2.02564e-12
-1.37904e-12 2.02564e-12 -5.83481

29.6308 -24.7133 -7.91071e-13
-24.7133 -7.87342 -2.03807e-12
-7.91071e-13 -2.03807e-12 -4.82473

5.76483 -16.0746 -1.30947e-12
-16.0746 -32.3342 -1.55017e-12
-1.30947e-12 -1.55017e-12 -22.2555

12.6277 27.9288 -1.20674e-12
27.9288 -13.6385 -1.70234e-13
-1.20674e-12 -1.70234e-13 -6.41923

23.309 23.9773 4.29701e-12
23.9773 -17.9429 -9.63674e-13
4.29701e-12 -9.63674e-13 -5.96195

-31.0766 -2.79294 -2.43561e-12
-2.79294 30.1317 3.31705e-12
-2.43561e-12 3.31705e-12 -6.39809

-28.6289 5.87333 1.52094e-13
5.87333 33.3213 -1.84386e-12
1.52094e-13 -1.84386e-12 -6.05891

34.5485 2.64669 -2.27196e-12
2.64669 -26.183 4.21367e-12
-2.27196e-12 4.21367e-12 -6.14166

50.6511 -7.28961 -1.28608e-12
-7.28961 -14.0814 2.53057e-12
-1.28608e-12 2.53057e-12 -6.77831

11.0412 30.4846 -6.47778e-13
30.4846 -4.78736 -2.62013e-12
-6.47778e-13 -2.62013e-12 -5.96576

17.4675 -26.1553 4.47464e-12
-26.1553 -17.4547 1.70501e-12
4.47464e-12 1.70501e-12 -6.35135

-0.0844473 -21.2543 5.92119e-15
-21.2543 -27.9558 2.62101e-12
5.92119e-15 2.62101e-12 -17.1664

4.93915 -31.6335 1.91847e-12
-31.6335 4.86158 -1.06049e-12
1.91847e-12 -1.06049e-12 -5.9346

-8.22686 -27.7854 2.67756e-12
-27.7854 18.5789 -6.83305e-13
2.67756e-12 -6.83305e-13 -6.12922

-1.65006 29.887 -1.82195e-12
29.887 10.4475 -2.24176e-12
-1.82195e-12 -2.24176e-12 -5.79965

-26.0161 -9.57788 -1.89108e-14
-9.57788 32.9697 -4.29286e-13
-1.89108e-14 -4.29286e-13 -5.78658

-31.3224 -1.54479 -1.79212e-12
-1.54479 31.6507 1.72247e-12
-1.79212e-12 1.72247e-12 -6.22292

-38.9151 5.74794 -5.49225e-12
5.74794 23.9465 5.07446e-13
-5.49225e-12 5.07446e-13 -9.18246

-17.2177 -21.089 -9.23113e-13
-21.089 26.571 -1.01193e-12
-9.23113e-13 -1.01193e-12 -5.7713

13.0719 24.1111 -1.75386e-12
24.1111 -28.1009 -2.41348e-12
-1.75386e-12 -2.41348e-12 -9.20433

21.555 -9.58972 -5.02709e-13
-9.58972 -31.706 -7.60014e-12
-5.02709e-13 -7.60014e-12 -6.59741

-27.153 7.46525 -4.03807e-13
7.46525 34.3346 8.96468e-13
-4.03807e-13 8.96468e-13 -5.87331

-35.2353 -9.70108 1.61996e-12
-9.70108 22.3135 1.3974e-12
1.61996e-12 1.3974e-12 -8.18289

-29.1552 -16.3306 1.24493e-12
-16.3306 19.3468 2.07656e-12
1.24493e-12 2.07656e-12 -6.66108

36.9677 -8.23918 -2.62782e-12
-8.23918 -20.2363 -1.03769e-12
-2.62782e-12 -1.03769e-12 -5.10082

-14.8096 -32.3468 5.92504e-12
-32.3468 -21.6274 -2.07123e-12
5.92504e-12 -2.07123e-12 -12.9926

-22.8237 9.32084 4.42698e-12
9.32084 33.3233 1.35891e-12
4.42698e-12 1.35891e-12 -4.78816

-0.750987 -18.2126 -2.9754e-13
-18.2126 -35.1576 1.22805e-12
-2.9754e-13 1.22805e-12 -33.2777

4.93224 24.8226 -7.0853e-12
24.8226 75.3065 3.15718e-12
-7.0853e-12 3.15718e-12 -14.3188

-14.1418 -26.6262 2.7199e-12
-26.6262 -16.3499 -5.52358e-12
2.7199e-12 -5.52358e-12 -14.6404

-6.35704 -30.2028 5.17926e-12
-30.2028 -23.6022 -2.46588e-12
5.17926e-12 -2.46588e-12 -17.0876

-31.2703 -0.701283 -1.79405e-12
-0.701283 31.5004 1.04687e-12
-1.79405e-12 1.04687e-12 -6.34779

28.4876 -16.6225 6.53581e-12
-16.6225 -18.0566 1.10489e-12
6.53581e-12 1.10489e-12 -4.43736

-37.8046 12.8416 -3.85793e-12
12.8416 11.1651 3.52311e-13
-3.85793e-12 3.52311e-13 -10.9886

-8.86113 -3.18054 -2.60925e-12
-3.18054 111.051 -1.07529e-11
-2.60925e-12 -1.07529e-11 -22.6716

-31.6022 14.2736 2.1884e-12
14.2736 21.3504 -2.51177e-12
2.1884e-12 -2.51177e-12 -7.12379

12.422 -29.4892 -8.22986e-12
-29.4892 -2.51938 -1.1191e-13
-8.22986e-12 -1.1191e-13 -4.92758

33.6319 25.1056 -1.78169e-12
25.1056 124.03 6.41383e-12
-1.78169e-12 6.41383e-12 -6.21419

-13.5026 26.0979 -7.85786e-12
26.0979 -19.0973 8.63147e-12
-7.85786e-12 8.63147e-12 -58.8956

-9.55275 -27.8073 -2.72123e-12
-27.8073 -22.8068 -2.01069e-12
-2.72123e-12 -2.01069e-12 -59.546

-2.86568 -30.419 1.90603e-12
-30.419 -7.32103 -4.20434e-12
1.90603e-12 -4.20434e-12 -7.28674

3.86042 -31.1602 5.98928e-12
-31.1602 5.63578 4.35207e-13
5.98928e-12 4.35207e-13 -6.06183

25.152 20.8275 1.03325e-12
20.8275 -17.0341 3.35406e-12
1.03325e-12 3.35406e-12 -4.97626

31.8051 15.0061 -5.24381e-12
15.0061 -23.3006 -9.39989e-13
-5.24381e-12 -9.39989e-13 -5.95411

-9.48873 3.0835 4.27939e-12
3.0835 -9.83055 5.92526e-12
4.27939e-12 5.92526e-12 -80.9381

-5.549 -7.00005 -8.70119e-12
-7.00005 -14.0417 -5.12198e-12
-8.70119e-12 -5.12198e-12 -80.2908

11.7485 4.8243 -5.38177e-12
4.8243 -43.2053 -7.02549e-13
-5.38177e-12 -7.02549e-13 -7.82699

-35.0564 6.73099 3.42541e-13
6.73099 24.3753 1.67392e-12
3.42541e-13 1.67392e-12 -7.56349

-36.1102 6.73632 -4.44655e-12
6.73632 24.4326 1.51879e-12
-4.44655e-12 1.51879e-12 -8.30846

74.5866 58.6343 -7.55544e-13
58.6343 34.1727 6.25988e-12
-7.55544e-13 6.25988e-12 -21.873

-6.91964 -28.1998 2.61243e-12
-28.1998 16.8753 2.83092e-12
2.61243e-12 2.83092e-12 -6.11611

8.17204 17.9745 1.64106e-12
17.9745 -44.8758 -2.22163e-12
1.64106e-12 -2.22163e-12 -12.8964

32.7031 9.53974 -3.74101e-12
9.53974 -19.0799 -1.87435e-12
-3.74101e-12 -1.87435e-12 -4.07385

3.38797 -26.7233 -2.48749e-12
-26.7233 13.4841 -9.26074e-13
-2.48749e-12 -9.26074e-13 -3.82648

26.2376 -20.2377 2.95941e-12
-20.2377 -20.3227 -1.78228e-13
2.95941e-12 -1.78228e-13 -5.86268

65.3904 60.2322 -3.68772e-12
60.2322 34.2895 -7.21438e-12
-3.68772e-12 -7.21438e-12 -23.8677

-13.2424 31.0691 -3.36916e-12
31.0691 -16.8812 -1.97679e-12
-3.36916e-12 -1.97679e-12 -12.7856

-18.6039 -19.7861 8.60645e-13
-19.7861 28.4148 8.78704e-13
8.60645e-13 8.78704e-13 -5.96896

11.1745 28.8577 -3.76055e-12
28.8577 -13.323 3.24777e-12
-3.76055e-12 3.24777e-12 -6.43565

-31.8688 -4.14483 6.68502e-13
-4.14483 30.1479 1.85985e-12
6.68502e-13 1.85985e-12 -6.35736

-14.5961 19.6092 3.71643e-12
19.6092 27.1853 -3.05237e-12
3.71643e-12 -3.05237e-12 -4.41818

7.4794 30.5188 -1.08002e-12
30.5188 -1.67016 3.8393e-12
-1.08002e-12 3.8393e-12 -5.65996

-9.34464 -22.4732 2.07242e-14
-22.4732 23.1493 -9.8351e-13
2.07242e-14 -9.8351e-13 -4.17494

4.59072 -27.3525 -4.2976e-12
-27.3525 11.4492 -8.71599e-13
-4.2976e-12 -8.71599e-13 -3.93799

24.2719 11.257 2.91559e-12
11.257 102.079 -1.7503e-12
2.91559e-12 -1.7503e-12 -12.405

37.4666 -33.4562 9.15416e-13
-33.4562 69.2856 6.91595e-13
9.15416e-13 6.91595e-13 -5.70298

-25.3349 -11.6905 1.31672e-13
-11.6905 31.3682 1.84267e-12
1.31672e-13 1.84267e-12 -5.64787

16.0966 26.4845 -2.49164e-12
26.4845 -15.5018 -2.61124e-12
-2.49164e-12 -2.61124e-12 -6.21696

4.95595 29.4779 3.50416e-12
29.4779 1.63708 -2.18373e-12
3.50416e-12 -2.18373e-12 -4.98945

-9.85442 -21.4339 1.42375e-12
-21.4339 25.1209 5.35276e-13
1.42375e-12 5.35276e-13 -4.03273

-21.6344 -11.7824 -1.80182e-12
-11.7824 32.0822 7.34228e-13
-1.80182e-12 7.34228e-13 -4.6367

10.4631 28.4095 -3.01981e-14
28.4095 -0.156291 -4.50129e-12
-3.01981e-14 -4.50129e-12 -4.67239

-21.8465 -13.8778 -2.55144e-12
-13.8778 29.4674 1.85392e-12
-2.55144e-12 1.85392e-12 -4.84664

6.95872 27.855 2.78118e-12
27.855 73.0849 2.80191e-12
2.78118e-12 2.80191e-12 -14.322

-45.8316 -4.04126 4.4146e-12
-4.04126 14.0479 1.1724e-12
4.4146e-12 1.1724e-12 -19.9649

0.877333 31.0275 -2.13044e-12
31.0275 7.52051 -4.20997e-12
-2.13044e-12 -4.20997e-12 -6.08857

9.71926 14.9012 -1.1647e-12
14.9012 -36.429 -1.07174e-13
-1.1647e-12 -1.07174e-13 -10.985

9.92877 -15.9275 3.59712e-13
-15.9275 -39.4104 -6.0929e-13
3.59712e-13 -6.0929e-13 -13.0689

85.6133 -24.2045 3.6214e-12
-24.2045 7.63592 -6.97516e-13
3.6214e-12 -6.97516e-13 -12.9578

-23.2067 -21.2672 -2.50259e-12
-21.2672 10.5139 -9.14232e-13
-2.50259e-12 -9.14232e-13 -6.1648

-16.6007 26.6983 -6.37979e-12
26.6983 1.77866 4.22773e-13
-6.37979e-12 4.22773e-13 -6.58725

-26.2014 -21.7278 -5.2219e-12
-21.7278 -5.36493 -1.06766e-13
-5.2219e-12 -1.06766e-13 -23.8672

-41.5968 14.1066 -9.97187e-12
14.1066 -3.56009 -1.63662e-12
-9.97187e-12 -1.63662e-12 -64.128

-0.893416 9.44534 -7.95379e-12
9.44534 -44.2595 2.54019e-13
-7.95379e-12 2.54019e-13 -64.2294

-20.3841 32.7055 1.16795e-12
32.7055 -23.2024 -4.20789e-12
1.16795e-12 -4.20789e-12 -24.3295

-11.4103 26.0004 2.47476e-12
26.0004 22.6042 4.38879e-12
2.47476e-12 4.38879e-12 -5.92519

16.0388 26.6615 7.83373e-13
26.6615 -17.287 -8.15141e-12
7.83373e-13 -8.15141e-12 -6.54943

30.4283 45.186 1.50161e-12
45.186 47.5548 -2.56506e-12
1.50161e-12 -2.56506e-12 -15.1949

-44.8887 -11.3436 2.03348e-12
-11.3436 -1.80805 4.23602e-12
2.03348e-12 4.23602e-12 -61.684

-8.29817 -3.43291 9.57567e-14
-3.43291 -12.7551 -2.56491e-12
9.57567e-14 -2.56491e-12 -77.2282

-14.6914 -0.210014 -7.29106e-12
-0.210014 -6.41857 -2.87081e-12
-7.29106e-12 -2.87081e-12 -77.3724

27.6651 -53.8026 6.75489e-12
-53.8026 71.1488 2.60532e-12
6.75489e-12 2.60532e-12 -24.3896

-11.6912 -11.6 -7.65906e-13
-11.6 -16.2045 7.90745e-12
-7.65906e-13 7.90745e-12 -37.4312

-32.6103 8.81299 -2.43102e-12
8.81299 -9.41943 2.63819e-12
-2.43102e-12 2.63819e-12 -49.5415

18.2563 -26.1995 1.19904e-12
-26.1995 -19.5462 -5.07446e-13
1.19904e-12 -5.07446e-13 -6.50618

-39.43 1.01105 1.57914e-12
1.01105 11.9802 2.98783e-12
1.57914e-12 2.98783e-12 -19.7219

-30.2023 -20.2679 6.55757e-12
-20.2679 6.30514 -2.40756e-12
6.55757e-12 -2.40756e-12 -7.21568

10.5366 6.25533 2.99316e-13
6.25533 -52.3899 2.32192e-12
2.99316e-13 2.32192e-12 -9.63938

-49.8127 15.5963 -4.64577e-13
15.5963 10.1654 -4.73695e-15
-4.64577e-13 -4.73695e-15 -13.5309

-40.2835 7.1916 4.97149e-12
7.1916 16.5415 1.17832e-12
4.97149e-12 1.17832e-12 -13.774

16.4049 20.3928 -9.11863e-12
20.3928 -25.8406 -3.64301e-12
-9.11863e-12 -3.64301e-12 -7.60731

-9.10016 -3.1139 -3.5482e-12
-3.1139 108.395 7.80413e-12
-3.5482e-12 7.80413e-12 -23.1019

-3.31998 -27.6237 3.04349e-12
-27.6237 -3.62936 -1.71122e-12
3.04349e-12 -1.71122e-12 -5.82961

-7.33492 -26.1163 -6.65068e-12
-26.1163 -14.0818 -5.37348e-13
-6.65068e-12 -5.37348e-13 -9.81043

-14.1982 -31.4837 5.65385e-12
-31.4837 -21.7779 -6.69835e-12
5.65385e-12 -6.69835e-12 -12.7555

90.7276 32.7496 5.5896e-13
32.7496 20.9064 7.84262e-13
5.5896e-13 7.84262e-13 -16.5059

-23.1174 -20.1165 -2.54522e-12
-20.1165 -17.385 1.1217e-12
-2.54522e-12 1.1217e-12 -44.4278

72.6303 54.3223 -7.60281e-13
54.3223 91.6405 -7.10069e-12
-7.60281e-13 -7.10069e-12 -6.14238

-36.215 -21.4395 -7.64588e-12
-21.4395 -6.79682 1.06433e-12
-7.64588e-12 1.06433e-12 -13.0428

15.0339 14.6504 -4.24194e-12
14.6504 -37.7515 -2.55647e-13
-4.24194e-12 -2.55647e-13 -8.17845

44.5726 -14.5724 3.04823e-12
-14.5724 -8.27166 5.17186e-12
3.04823e-12 5.17186e-12 -4.41816

-21.2305 24.0467 -2.43361e-12
24.0467 4.9556 -2.44604e-12
-2.43361e-12 -2.44604e-12 -5.97599

17.3732 20.428 -2.2838e-12
20.428 -26.7922 -5.33292e-12
-2.2838e-12 -5.33292e-12 -6.95112

-51.14 11.4005 8.40883e-13
11.4005 7.71048 -6.3558e-12
8.40883e-13 -6.3558e-12 -29.9942

-7.28689 -31.5802 -6.05353e-12
-31.5802 -12.8265 3.15836e-12
-6.05353e-12 3.15836e-12 -8.11873

2.79671 19.8124 -1.93268e-12
19.8124 -46.0333 3.33097e-12
-1.93268e-12 3.33097e-12 -29.9861

-24.6707 -18.4434 -1.79975e-12
-18.4434 17.8362 6.05738e-12
-1.79975e-12 6.05738e-12 -5.47968

-42.3404 4.28318 2.14814e-12
4.28318 17.8694 2.46618e-12
2.14814e-12 2.46618e-12 -12.7279

-4.09805 9.92677 -3.93345e-12
9.92677 -40.2759 5.17497e-12
-3.93345e-12 5.17497e-12 -47.549

-2.68828 -8.51339 -2.24324e-12
-8.51339 -38.3071 -1.11126e-12
-2.24324e-12 -1.11126e-12 -47.4047

81.7224 18.5123 -7.34227e-14
18.5123 1.70024 -5.19288e-13
-7.34227e-14 -5.19288e-13 -14.4531

3.89495 7.96502 -8.79297e-14
7.96502 -45.183 9.96388e-13
-8.79297e-14 9.96388e-13 -11.0179

35.8715 7.74046 -4.45658e-12
7.74046 184.572 -1.76688e-12
-4.45658e-12 -1.76688e-12 -9.75757

40.145 -11.3851 1.80067e-12
-11.3851 190.37 3.19744e-12
1.80067e-12 3.19744e-12 -7.3894

53.7644 56.4067 3.55982e-12
56.4067 159.254 -2.20742e-12
3.55982e-12 -2.20742e-12 -11.5003

1.709 -28.9505 9.22521e-13
-28.9505 -24.6907 1.09542e-12
9.22521e-13 1.09542e-12 -11.9626

16.0488 -49.1902 2.21452e-12
-49.1902 99.4183 4.39352e-12
2.21452e-12 4.39352e-12 -21.6893

54.5122 -55.9492 4.48116e-12
-55.9492 149.971 1.71478e-12
4.48116e-12 1.71478e-12 -13.6651

-2.16548 26.22 -4.56287e-12
26.22 17.5727 -3.63916e-12
-4.56287e-12 -3.63916e-12 -3.99549

134.938 73.8435 1.79057e-12
73.8435 85.024 1.18424e-14
1.79057e-12 1.18424e-14 -10.1594

-18.7198 13.0473 -5.40309e-13
13.0473 -3.9002 -7.79495e-12
-5.40309e-13 -7.79495e-12 -26.7696

3.74111 0.0394205 5.61758e-12
0.0394205 -26.1889 2.41614e-12
5.61758e-12 2.41614e-12 -26.7729

144.096 -73.1289 -3.57166e-12
-73.1289 85.3515 -5.41907e-12
-3.57166e-12 -5.41907e-12 -8.19664

-21.3926 -23.4239 1.79116e-12
-23.4239 12.2481 -1.12325e-12
1.79116e-12 -1.12325e-12 -6.49068

89.3455 34.7289 -7.4607e-13
34.7289 41.3896 5.30657e-12
-7.4607e-13 5.30657e-12 -11.5481

72.1862 63.4905 2.29979e-12
63.4905 149.692 9.37916e-13
2.29979e-12 9.37916e-13 -9.67397

26.1643 21.63 -6.1687e-12
21.63 100.132 -4.11641e-12
-6.1687e-12 -4.11641e-12 -13.0316

73.873 -65.9193 2.72848e-12
-65.9193 151.142 8.19493e-13
2.72848e-12 8.19493e-13 -9.40252

25.7688 -12.381 1.79294e-12
-12.381 105.011 2.38742e-12
1.79294e-12 2.38742e-12 -12.4285

-28.6639 6.84172 4.94974e-12
6.84172 3.1068 2.5846e-12
4.94974e-12 2.5846e-12 -37.8538

37.7425 -45.9744 -7.06872e-12
-45.9744 49.6689 -2.76875e-12
-7.06872e-12 -2.76875e-12 -15.5324

14.4435 47.5315 -4.31773e-12
47.5315 94.8787 -4.40536e-13
-4.31773e-12 -4.40536e-13 -22.1925

173.337 37.9111 -2.25953e-12
37.9111 48.0409 2.67815e-12
-2.25953e-12 2.67815e-12 -9.52261

7.02089 -29.2856 -2.37913e-12
-29.2856 -14.3582 -7.89591e-12
-2.37913e-12 -7.89591e-12 -7.15569

-38.4173 12.8967 -7.7612e-13
12.8967 6.43532 -2.46114e-12
-7.7612e-13 -2.46114e-12 -15.2904

88.5038 -38.1121 9.52127e-13
-38.1121 34.1626 4.42431e-12
9.52127e-13 4.42431e-12 -14.0998

6.04186 -28.8021 2.61776e-12
-28.8021 -16.1716 4.47405e-12
2.61776e-12 4.47405e-12 -8.02954

169.203 -36.343 1.71478e-12
-36.343 34.9283 -1.67807e-12
1.71478e-12 -1.67807e-12 -13.2904

-5.72502 -28.3173 -4.64636e-12
-28.3173 -14.4727 1.84386e-12
-4.64636e-12 1.84386e-12 -9.30911

-17.7902 -25.2947 -3.39906e-12
-25.2947 12.0803 -6.94556e-13
-3.39906e-12 -6.94556e-13 -5.93383

118.874 69.4599 -5.3196e-12
69.4599 96.2177 2.65506e-12
-5.3196e-12 2.65506e-12 -11.4006

29.4126 -22.9326 3.09441e-12
-22.9326 97.7951 3.59535e-12
3.09441e-12 3.59535e-12 -14.3401

117.957 -71.6919 0
-71.6919 93.6792 1.73846e-12
0 1.73846e-12 -12.4166

22.2644 50.737 9.02389e-13
50.737 73.7775 -8.5502e-13
9.02389e-13 -8.5502e-13 -24.7775

-1.53612 -30.212 -8.05874e-13
-30.212 -6.55231 -5.95435e-12
-8.05874e-13 -5.95435e-12 -6.99748

-7.0451 -14.6403 2.01913e-13
-14.6403 -21.9194 3.0805e-12
2.01913e-13 3.0805e-12 -32.6144

-11.892 11.0926 -3.14563e-12
11.0926 -16.4307 5.53202e-12
-3.14563e-12 5.53202e-12 -77.7946

-26.1689 -5.16001 -7.90923e-13
-5.16001 -6.38736 -7.59041e-12
-7.90923e-13 -7.59041e-12 -77.6283

-38.9409 13.0836 -4.80856e-13
13.0836 13.7444 1.6153e-12
-4.80856e-13 1.6153e-12 -10.2385

-14.4805 -10.6669 2.75335e-14
-10.6669 -17.3182 8.11247e-12
2.75335e-14 8.11247e-12 -78.7574

-25.9027 4.09175 7.87814e-13
4.09175 -5.91386 7.92288e-12
7.87814e-13 7.92288e-12 -78.8995

-3.63379 7.43403 3.70977e-12
7.43403 -27.8605 1.38038e-12
3.70977e-12 1.38038e-12 -77.9868

-43.9752 -12.1151 -7.45537e-12
-12.1151 2.91631 -9.06386e-13
-7.45537e-12 -9.06386e-13 -68.1583

11.9737 -30.4699 -3.60896e-12
-30.4699 76.1626 1.07742e-11
-3.60896e-12 1.07742e-11 -14.7009

0.521847 -12.9721 -2.53279e-12
-12.9721 -39.9907 3.67587e-12
-2.53279e-12 3.67587e-12 -45.2772

-16.3488 -34.4177 -1.53211e-12
-34.4177 -22.0686 3.60956e-12
-1.53211e-12 3.60956e-12 -23.59

-2.42062 -18.1768 1.89685e-12
-18.1768 -29.8952 3.23504e-12
1.89685e-12 3.23504e-12 -33.6267

12.7383 15.4592 2.29979e-12
15.4592 -37.7161 -1.94393e-12
2.29979e-12 -1.94393e-12 -9.62496

-46.9085 9.8642 3.61774e-12
9.8642 8.87762 -1.88886e-13
3.61774e-12 -1.88886e-13 -70.154

3.46263 19.2276 -1.07184e-11
19.2276 -41.472 -9.77414e-12
-1.07184e-11 -9.77414e-12 -70.2699

1.4723 11.3063 7.44116e-12
11.3063 -23.9651 -4.56168e-12
7.44116e-12 -4.56168e-12 -31.8679

109.391 -15.3393 -9.42653e-13
-15.3393 -12.5355 -3.51363e-12
-9.42653e-13 -3.51363e-12 -25.0372

-14.3202 24.964 -2.79066e-12
24.964 10.3862 1.29023e-12
-2.79066e-12 1.29023e-12 -5.80434

76.6066 -61.3544 -8.0315e-12
-61.3544 37.3651 9.11863e-13
-8.0315e-12 9.11863e-13 -22.3953

76.1139 -57.457 -7.18359e-12
-57.457 99.228 1.18424e-14
-7.18359e-12 1.18424e-14 -5.55531

118.196 -36.5439 4.33431e-13
-36.5439 40.6008 3.61074e-12
4.33431e-13 3.61074e-12 -7.3785

-51.1143 -5.15895 -1.49273e-12
-5.15895 3.34073 6.45158e-12
-1.49273e-12 6.45158e-12 -60.6605

-50.4783 2.89124 1.98286e-12
2.89124 3.13499 8.57581e-12
1.98286e-12 8.57581e-12 -60.1331

-11.9756 -24.4563 -3.04941e-14
-24.4563 -35.0034 1.12554e-12
-3.04941e-14 1.12554e-12 -59.1672

-8.99192 -21.7605 5.97185e-12
-21.7605 -37.8881 3.11987e-12
5.97185e-12 3.11987e-12 -59.4768

-14.7026 26.1359 -2.31607e-12
26.1359 -33.0277 3.89962e-12
-2.31607e-12 3.89962e-12 -60.7517

-18.1576 3.09943 2.13192e-12
3.09943 -13.1645 6.662e-12
2.13192e-12 6.662e-12 -75.479

-9.94506 -20.5089 3.08109e-12
-20.5089 -32.6508 1.01282e-12
3.08109e-12 1.01282e-12 -56.7375

-26.6484 -18.5683 1.53033e-12
-18.5683 -14.1959 -1.43314e-11
1.53033e-12 -1.43314e-11 -71.2728

-15.479 2.43449 -1.09555e-11
2.43449 -12.8526 -2.62344e-11
-1.09555e-11 -2.62344e-11 -77.8736

-6.02753 -20.5262 -2.18936e-13
-20.5262 -41.4872 4.68366e-13
-2.18936e-13 4.68366e-13 -60.5078

-6.75681 20.9558 2.43753e-12
20.9558 -40.1435 1.27306e-13
2.43753e-12 1.27306e-13 -60.019

-14.3162 -3.45851 -9.20538e-12
-3.45851 -11.3902 5.10392e-12
-9.20538e-12 5.10392e-12 -76.888

-11.2641 -3.11718 1.1712e-11
-3.11718 -17.6893 3.80377e-12
1.1712e-11 3.80377e-12 -74.0508

-24.204 12.1098 2.22045e-13
12.1098 -13.4007 -5.80669e-12
2.22045e-13 -5.80669e-12 -69.969

-22.0825 26.9296 2.46114e-12
26.9296 -26.2669 -8.0041e-12
2.46114e-12 -8.0041e-12 -57.5831

VECTORS fluid_flux_TPM float
-8.72098e-05 3.10248e-05 -2.16429e-20
3.55913e-06 6.88176e-06 -1.74473e-21
-1.27859e-05 -1.02243e-05 3.91597e-21
-4.17011e-06 4.25353e-06 -1.03513e-20
2.27051e-05 -6.31258e-06 3.27419e-21
2.75727e-06 -1.59018e-05 1.99816e-21
-8.57858e-05 -3.10896e-05 -9.08523e-21
-1.38908e-05 -1.04656e-05 -1.22933e-20
2.21193e-05 9.45415e-07 4.69207e-21
1.13827e-05 -3.90766e-06 -1.7468e-20
5.4595e-05 1.24827e-05 8.21757e-21
2.3466e-06 -1.71921e-05 -9.09342e-21
1.361e-05 1.12525e-05 -8.4613e-22
2.66178e-06 1.3783e-05 3.11287e-21
2.05787e-05 -2.94632e-06 2.01662e-20
-1.63305e-05 -2.72869e-07 5.23869e-21
2.75322e-06 1.40972e-05 -1.08588e-20
1.01807e-05 -2.39162e-06 -5.58157e-21
9.89752e-06 1.72208e-05 1.00496e-20
-1.48468e-05 1.88525e-06 6.45771e-21
-3.60078e-06 -2.13017e-05 -4.81819e-21
3.41078e-05 5.94121e-05 9.7331e-21
1.56958e-05 1.63113e-06 -3.03104e-21
1.12261e-05 -1.12803e-05 8.30853e-21
-1.50768e-05 -3.33205e-06 -4.58021e-21
-6.77154e-07 -1.11296e-05 3.18684e-20
6.28978e-05 -4.90804e-06 6.80574e-21
1.40646e-05 1.02478e-05 5.89473e-21
-2.51472e-05 -2.06409e-05 5.73224e-21
4.9116e-05 -1.28128e-05 1.93652e-20
-1.65808e-05 -6.03772e-06 1.95996e-21
5.53658e-06 -3.2034e-05 2.66115e-20
4.76505e-05 -4.80435e-05 1.70181e-20
-4.92296e-06 -4.12445e-05 5.68828e-21
-2.9671e-05 3.70025e-05 -3.48363e-20
-3.82445e-05 -1.63938e-05 -3.6207e-21
3.27e-05 4.32122e-05 -9.3105e-21
-4.47373e-05 -8.7252e-06 -1.32737e-20
1.43733e-05 -1.10809e-05 2.41012e-22
4.64664e-05 5.01114e-05 -6.44376e-21
3.21269e-05 -1.4021e-05 1.04043e-20
3.36375e-05 -4.23403e-05 3.23949e-20
-1.98949e-05 -5.03746e-05 4.71954e-20
-1.58967e-05 6.35627e-06 5.33085e-21
3.05231e-05 -2.93121e-05 8.13087e-21
-3.03302e-05 1.09894e-05 -6.26458e-21
-4.04991e-06 -2.03691e-05 -1.01851e-20
7.88553e-06 2.02103e-05 6.52046e-21
-1.63413e-05 5.92741e-06 1.61987e-20
-1.78186e-05 2.87237e-05 1.31877e-21
3.24064e-05 1.52898e-05 -6.36918e-21
2.93631e-05 -1.00745e-05 1.26638e-20
-1.56653e-05 1.57594e-05 -2.9761e-20
-2.35397e-05 -2.06889e-05 -8.99125e-21
-2.11386e-05 -5.13213e-06 2.79186e-21
-4.47888e-05 2.70744e-05 -1.44531e-20
-2.93702e-05 -3.80209e-05 -2.95079e-20
6.36306e-06 -3.06261e-05 5.58338e-21
-4.77051e-05 6.48251e-06 -1.47629e-20
6.07377e-06 1.36963e-05 -8.74963e-21
-5.57654e-06 -8.17305e-06 -3.39969e-21
-6.58324e-06 -1.79428e-05 -2.56599e-21
5.71414e-05 2.48586e-05 -2.41228e-21
9.24244e-06 1.81435e-05 -1.70227e-20
1.2296e-05 -1.44444e-05 1.81762e-20
-1.64052e-06 -2.07517e-05 2.01938e-21
4.6209e-06 -8.80518e-06 1.76884e-20
-1.00901e-05 -5.56467e-06 -3.17898e-21
-1.06023e-05 1.19288e-05 -6.18273e-21
2.5581e-06 -4.09244e-06 -1.50476e-20
-1.50429e-05 -1.58426e-05 -3.28694e-20
-2.13641e-05 5.16573e-06 2.15295e-20
-3.5567e-06 3.44801e-05 -1.99061e-20
-1.78712e-05 1.07105e-05 2.08244e-20
-9.07049e-06 1.46141e-05 -9.51936e-21
-6.03527e-05 7.69185e-06 -9.39142e-21
7.81779e-06 -2.16808e-05 1.7278e-20
-1.88795e-05 -8.89977e-06 -1.01409e-20
1.93365e-06 1.16236e-05 -8.20575e-21
2.63001e-05 5.08948e-06 -9.80463e-21
3.41679e-05 -2.89742e-05 8.153e-21
2.21457e-05 2.05555e-05 -2.07825e-20
1.19081e-05 -2.82223e-06 1.66935e-20
-3.21527e-05 2.40663e-05 -1.04916e-20
3.79032e-05 4.84571e-06 5.83167e-21
-4.98069e-06 4.94131e-05 -9.4075e-21
-1.74106e-06 -1.68566e-05 8.79511e-21
1.81233e-05 9.95436e-06 6.32492e-21
2.93165e-05 3.02849e-05 5.70647e-21
5.50231e-05 3.80123e-05 3.96871e-21
-5.33119e-06 3.07719e-05 -2.16611e-21
5.9178e-05 -3.55114e-05 -1.03798e-20
-2.7124e-05 5.34102e-06 1.10106e-20
1.78388e-05 1.10015e-05 8.69263e-21
-2.96402e-05 9.90303e-06 -1.59615e-21
1.66525e-05 2.85204e-05 -1.244e-20
1.01685e-05 -4.43854e-05 3.41933e-20
1.91542e-06 1.16205e-05 -5.62824e-21
-1.48003e-05 -1.76196e-05 1.3013e-20
3.0698e-06 1.74742e-05 -2.44366e-20
2.64061e-05 5.25733e-06 -7.93988e-21
-1.54429e-05 3.32102e-05 -7.07919e-21
4.05511e-05 -1.33328e-05 2.85975e-21
-3.77296e-06 7.45483e-06 1.77139e-21
9.95256e-06 5.89915e-06 2.45169e-21
-2.28052e-06 -1.13242e-05 1.87207e-20
3.22057e-06 -1.92513e-05 2.50881e-20
1.74689e-05 3.89197e-06 1.70897e-20
-7.93698e-06 4.09714e-05 -1.99052e-20
-9.80534e-06 2.47918e-07 2.49977e-20
9.31825e-06 1.18854e-05 1.76142e-20
-2.17727e-06 -4.17127e-05 1.69581e-20
4.20218e-05 1.28647e-05 -1.71348e-21
4.42243e-06 -7.45298e-06 -3.75075e-21
-1.11448e-05 -3.55354e-06 -9.70278e-21
-2.93248e-05 -1.24856e-05 -4.70966e-21
1.58033e-05 4.11461e-05 -1.10152e-20
-4.34837e-05 -1.55733e-05 -1.0568e-20
1.60181e-05 -4.11226e-05 -2.57654e-20
-3.6997e-06 -3.19192e-05 4.75271e-21
2.18382e-05 6.52147e-07 -2.05248e-20
-7.17129e-06 1.83961e-05 8.02902e-21
-1.61115e-06 3.96945e-06 -1.1375e-20
-3.68587e-06 -1.65383e-05 -2.92949e-21
5.22984e-06 -8.30187e-06 -8.2091e-21
9.35922e-06 1.58631e-05 -6.93582e-21
3.31002e-05 1.06521e-05 1.94444e-20
8.61522e-06 -7.45782e-06 4.91733e-21
-8.27068e-06 -4.51586e-05 -4.57471e-22
2.55514e-05 -1.88193e-05 1.43118e-20
4.97778e-06 2.77704e-05 8.79776e-22
-2.81625e-06 -2.84153e-06 -5.62158e-21
-8.626e-06 -8.3256e-06 -1.87232e-20
-4.77653e-06 4.41242e-08 -1.37122e-21
-2.2872e-05 2.85933e-05 1.52449e-20
1.87625e-05 -3.73739e-05 1.88471e-20
-2.65792e-05 4.27131e-05 -5.34539e-21
-1.63713e-05 9.53497e-06 2.03229e-20
2.52788e-06 1.21985e-05 -1.22088e-20
-2.29861e-05 -3.49883e-05 2.54977e-20
1.39357e-05 3.3465e-05 -1.07087e-20
1.75072e-05 9.36891e-06 -1.50369e-21
2.28108e-05 -8.52238e-06 -8.63473e-21
-1.25316e-06 -1.1265e-05 -1.92606e-20
-3.39105e-05 -3.15569e-05 3.42243e-21
-2.75139e-06 1.1303e-05 -1.73836e-21
1.72461e-05 1.01714e-05 3.6019e-21
1.88868e-05 -8.82055e-06 3.33875e-21
8.2429e-06 -1.43444e-05 -5.77468e-21
2.43561e-05 -1.0795e-05 -2.21249e-21
1.90089e-05 -8.99756e-06 6.71509e-21
4.64047e-06 2.05794e-07 1.18901e-20
2.57397e-05 2.02204e-05 4.41715e-22
-2.74153e-06 -1.70293e-05 6.39762e-23
-1.04794e-05 -4.45684e-06 -1.9247e-20
1.12581e-06 -3.88994e-06 2.06382e-20
-3.15495e-06 1.58464e-05 -1.36085e-20
-3.48821e-05 2.76801e-06 8.21884e-22
-1.21211e-05 -3.3257e-05 -1.11201e-21
-7.87879e-06 9.77866e-06 -3.95084e-21
1.35647e-05 1.66397e-05 5.10834e-22
2.65676e-05 -1.8744e-05 1.88207e-20
-3.67909e-05 -2.03499e-05 -1.55593e-20
1.74024e-05 -2.75066e-05 3.3424e-21
2.28031e-05 -2.72155e-05 -9.41323e-22
-1.09439e-05 3.78479e-06 2.09205e-23
-1.98282e-05 -2.88391e-05 -7.48756e-21
-3.48785e-05 -5.79119e-06 5.28416e-21
-3.85231e-06 -3.17415e-05 5.88412e-21
1.54471e-05 -3.1698e-05 3.61373e-21
-9.10582e-06 -2.61985e-05 -5.66433e-21
4.58103e-06 3.14042e-05 -2.37023e-20
-1.57518e-05 -2.85209e-05 -3.96933e-21
2.9387e-06 -1.62916e-05 2.21892e-20
-2.47384e-05 1.82592e-05 1.33977e-20
-1.50302e-05 -1.21107e-05 6.0457e-21
-2.73518e-05 -5.17225e-06 1.25327e-21
1.56675e-05 -9.18125e-06 6.37221e-21
-4.30677e-06 2.39517e-05 -2.13638e-21
1.22321e-05 -9.32416e-06 -1.3566e-20
-2.95848e-05 -1.31637e-05 1.17895e-20
-8.83135e-06 -7.45782e-06 -4.14215e-21
9.08177e-06 7.54058e-06 -1.45819e-20
2.1426e-05 2.86997e-05 7.13438e-21
-1.75082e-05 -1.08089e-05 -5.43393e-21
-3.2505e-05 -7.51045e-07 1.00126e-20
-1.63362e-05 -5.01598e-06 -9.48664e-21
-4.57797e-06 -1.65827e-05 -2.01177e-20
1.76841e-05 2.12385e-05 -2.09488e-21
-1.0957e-05 5.87455e-06 1.635e-20
6.3602e-07 -2.05546e-05 5.59612e-21
-4.19383e-05 1.08505e-05 -9.47055e-21
2.48597e-05 2.02456e-05 1.07281e-20
3.79435e-06 3.27843e-05 -1.94286e-20
-2.43189e-06 3.79708e-06 6.85819e-21
-9.0506e-06 2.51193e-07 7.50272e-21
4.35494e-06 7.75984e-06 -3.67162e-21
-1.16936e-05 3.40135e-06 -4.92311e-21
-2.07331e-06 -3.78481e-06 -6.06997e-21
1.65973e-06 2.07592e-05 -7.5576e-21
4.47226e-06 4.49685e-07 1.41344e-20
-1.95375e-05 4.75649e-06 3.42976e-20
-1.72979e-05 1.93574e-05 1.6065e-20
-3.10734e-06 1.15778e-05 1.37725e-20
-2.9216e-05 1.83937e-05 1.03228e-21
-9.34309e-06 8.97905e-06 -1.31616e-20
1.73107e-05 -1.16134e-05 -4.88641e-21
3.66031e-05 -3.56458e-06 -1.91751e-21
-2.11401e-05 1.1297e-05 8.28943e-21
2.23294e-06 4.49811e-06 -2.2151e-20
2.17747e-05 -4.34477e-06 -1.81629e-20
-1.72784e-05 1.03525e-05 -1.11625e-21
-9.87148e-06 5.53887e-06 1.87935e-20
1.18311e-05 3.74258e-06 2.94768e-21
2.18792e-05 -1.34708e-05 1.20496e-20
-1.73795e-05 9.95581e-06 1.56184e-20
-2.50361e-05 -5.30288e-06 2.46063e-20
-1.67612e-05 -4.36235e-06 -5.4591e-21
9.87592e-06 6.23823e-09 -7.16862e-21
1.01736e-05 1.95354e-07 1.76578e-20
4.39064e-06 8.31692e-06 -1.8343e-20
4.82941e-06 -8.7975e-06 1.88153e-20
-5.0102e-06 8.41958e-06 2.61601e-21
-5.26652e-06 -8.65734e-06 -3.0354e-20
9.91071e-06 -7.40779e-06 -1.72937e-20
-2.03269e-05 3.23482e-06 2.58481e-20
-2.00593e-05 -3.28364e-06 5.32661e-21
-1.28344e-05 1.5876e-05 2.14641e-21
-1.29142e-05 -1.59303e-05 -2.42896e-20
7.48604e-06 -1.98431e-05 -7.87957e-21
7.2058e-06 1.97632e-05 -1.76512e-20
1.55774e-06 2.58842e-05 4.40437e-21
1.12401e-05 -3.13674e-06 1.59207e-20
2.35983e-06 -3.86641e-06 -1.36773e-20
-2.14107e-05 1.42164e-06 7.76648e-21
7.67694e-06 -1.95124e-05 -1.66007e-20
7.27321e-06 1.9661e-05 -5.44668e-21
4.76865e-06 -5.27125e-08 -1.46519e-20
8.96789e-06 2.44023e-05 9.96866e-21
-2.24222e-06 -4.0162e-06 -6.4453e-22
2.31767e-06 -1.13166e-05 4.34283e-21
-2.24296e-05 -1.21511e-05 1.84324e-20
-2.13573e-05 -1.14942e-05 3.21081e-21
-2.18918e-05 1.3628e-05 1.05047e-20
3.25113e-06 -1.22871e-05 -8.64111e-21
-1.56527e-06 3.38183e-06 -2.47349e-20
-5.87332e-07 -2.55678e-05 8.04301e-22
-7.71989e-06 -2.44217e-05 2.05549e-20
3.27023e-05 3.0361e-05 4.96554e-21
3.54514e-05 -1.8151e-06 -1.7244e-21
-1.27105e-05 -3.63199e-06 1.22773e-20
-2.28914e-05 -4.13837e-05 3.47184e-21
8.30379e-06 1.37472e-05 2.02423e-21
-2.52343e-05 3.03313e-06 6.59383e-21
2.00641e-05 5.78609e-06 -1.41272e-20
-4.53288e-06 -3.27406e-08 -5.60976e-21
-4.66494e-06 -8.41228e-06 -2.75956e-20
-7.07251e-06 -3.93306e-05 -1.23306e-20
-9.7078e-06 -8.39103e-08 -1.31007e-20
-4.86713e-05 -1.81561e-06 -1.51124e-20
1.73077e-05 -1.91042e-05 1.07314e-20
2.42921e-06 3.99885e-06 1.28793e-20
-1.20633e-07 -1.75126e-05 -1.11983e-20
-9.81785e-06 2.40824e-05 3.08258e-21
-4.37179e-06 8.62689e-06 5.9684e-21
2.05549e-05 -1.36052e-05 4.31706e-21
-3.76565e-05 -1.35505e-05 3.12855e-22
-1.52648e-05 -2.03644e-05 8.91253e-23
4.97675e-06 8.38852e-06 -1.59507e-20
1.663e-05 5.16023e-06 2.01241e-21
-4.76355e-06 -7.33777e-06 1.2427e-20
1.97951e-05 3.54693e-06 2.72593e-20
1.81871e-05 -9.82504e-06 -5.4297e-22
-3.48796e-07 2.71706e-05 -5.69737e-21
8.31968e-06 -1.36656e-05 6.97611e-21
4.87996e-05 2.2004e-06 -8.89788e-22
-4.23529e-05 1.14523e-05 -8.47829e-21
2.28578e-05 1.15551e-05 1.03112e-20
-6.45229e-06 -1.71775e-05 8.72628e-21
-1.53483e-05 -8.61723e-06 -2.94233e-20
2.87843e-05 -2.10523e-07 5.27142e-21
-6.91905e-07 -2.42523e-05 1.08612e-20
-1.2616e-05 -1.08728e-05 -1.81383e-21
1.02227e-05 -2.3497e-05 -3.27781e-21
-4.96551e-07 2.05531e-05 -6.95248e-21
7.91678e-06 2.60647e-05 6.93367e-21
1.72659e-05 -9.88312e-06 -3.83776e-21
-1.89457e-05 1.92962e-05 1.6741e-20
1.65258e-05 2.0027e-05 4.49866e-21
-6.22231e-05 1.602e-05 5.45454e-21
-1.01079e-05 2.60131e-05 -1.50309e-21
1.25175e-05 -1.52464e-05 3.59356e-20
-7.02824e-06 -1.83956e-05 1.81908e-20
-1.18521e-05 4.50513e-06 2.16141e-20
-2.58902e-05 -7.04493e-06 4.47531e-21
-6.38534e-06 3.88531e-05 2.2778e-20
-1.26043e-05 1.1901e-05 2.67544e-21
2.07741e-05 -4.47506e-06 4.24976e-21
-6.87163e-06 -2.5791e-05 1.96081e-20
-1.4867e-05 2.3888e-05 -9.95713e-21
-2.17863e-05 1.25632e-05 1.46183e-20
-2.0567e-05 -1.50535e-05 1.56069e-21
1.80264e-05 -2.06525e-05 -8.30369e-21
-2.75273e-05 -1.45607e-06 1.46898e-20
1.23656e-05 -4.08052e-05 3.27666e-20
1.93839e-05 -1.89108e-05 -3.38907e-21
2.47295e-05 4.30766e-05 -2.88822e-20
1.97088e-06 1.98641e-05 -1.09618e-20
2.96073e-06 -2.54181e-05 2.54628e-21
-4.16313e-05 4.69561e-05 1.02455e-20
-1.27006e-05 -2.44086e-05 -7.18894e-21
1.63648e-05 -6.41975e-06 -5.52033e-21
-2.41061e-06 2.57691e-05 -4.1576e-21
1.28814e-05 -1.1825e-05 -1.3375e-20
1.38789e-05 2.431e-05 1.80838e-21
1.72278e-05 -1.40032e-06 7.37205e-21
2.21174e-05 -6.32088e-05 1.93701e-20
-5.8754e-06 -1.28576e-05 7.28989e-21
-2.31815e-05 1.00859e-05 -5.57125e-21
-2.00175e-05 1.87167e-05 -7.04948e-21
2.16097e-05 1.45659e-05 -8.42069e-21
1.86703e-05 -1.07554e-05 6.88395e-21
1.49501e-05 1.25919e-05 1.34808e-20
-5.42747e-06 4.55079e-08 1.94453e-20
1.54017e-05 -2.30844e-05 -7.48907e-21
-1.69882e-05 -2.04066e-05 -7.33719e-21
2.25591e-05 9.77252e-06 -1.95456e-20
1.28051e-05 -1.19883e-05 -1.66504e-20
9.55276e-06 -2.48487e-05 -3.61735e-21
1.66571e-05 -6.93204e-06 -4.67483e-22
-1.58035e-05 -7.5437e-06 8.34157e-21
1.29669e-06 -2.62997e-05 7.72706e-21
-2.61036e-05 4.47253e-06 1.64861e-21
2.3901e-06 2.45398e-05 2.04909e-21
2.05824e-05 6.62665e-06 -9.27744e-21
-2.17178e-05 -1.07005e-05 -3.73226e-21
-8.97612e-06 2.56069e-05 5.23231e-21
-1.49521e-06 -2.4185e-05 -5.70979e-21
1.94641e-05 1.1836e-05 1.60095e-20
-1.76875e-06 1.80826e-05 -1.19262e-20
-2.01363e-05 1.37009e-05 3.42576e-21
2.35081e-05 1.14138e-05 5.36596e-22
-1.71132e-05 -9.98444e-06 6.54895e-21
9.50924e-08 -1.98324e-05 2.35201e-20
1.83802e-05 1.99819e-05 2.76486e-21
-2.21512e-05 -1.4302e-05 4.02784e-21
4.83456e-05 -3.39784e-05 1.34508e-20
1.7895e-05 -1.08213e-05 9.08068e-21
9.00088e-06 4.30824e-05 -2.62628e-20
1.70323e-05 -1.36771e-05 3.25296e-22
-1.98728e-05 8.70264e-05 -4.58566e-21
-1.9763e-05 -8.65406e-05 1.84488e-20
5.71785e-05 7.17102e-05 -1.70077e-22
5.6916e-05 -7.1384e-05 2.8757e-20
9.06379e-05 -1.59719e-10 4.3116e-20
-7.81932e-05 3.76344e-05 -1.306e-20
-7.74475e-05 -3.72787e-05 9.35596e-21
1.22327e-05 1.18175e-05 -3.08046e-21
2.93651e-05 2.18903e-05 -4.76758e-21
1.14471e-05 3.3325e-06 -2.91463e-21
1.88539e-05 9.75059e-06 2.26372e-21
4.98876e-06 2.01682e-05 -3.36818e-22
-1.88301e-05 -1.49789e-05 -5.17563e-21
1.70364e-05 -1.02133e-05 -9.27108e-21
1.98508e-05 1.4548e-05 -3.3618e-21
-3.16665e-06 2.43618e-05 3.90839e-21
2.94379e-05 -1.9991e-05 -1.00151e-20
3.79355e-06 -2.37377e-05 -1.86058e-20
2.19589e-05 5.22658e-06 1.37552e-20
2.98931e-05 1.1025e-05 4.24127e-22
1.42074e-05 1.41425e-05 -2.12309e-20
1.58818e-05 6.59311e-06 -2.11488e-21
-1.84971e-05 1.09356e-05 7.77981e-21
-2.25612e-05 9.03584e-06 4.10213e-21
2.29275e-05 -1.12625e-05 -1.0615e-20
-1.82663e-05 -9.99713e-06 -4.70027e-21
-1.85528e-05 -1.05815e-05 1.16054e-20
-3.43825e-07 -2.0766e-05 -1.58452e-20
-8.61422e-08 -2.11589e-05 -1.86916e-20
-2.01253e-05 -1.00539e-06 3.6113e-21
2.66968e-05 -4.01882e-06 -2.17854e-21
1.81105e-05 1.13412e-05 1.39452e-22
-1.78627e-05 1.09441e-05 2.72516e-21
-1.53601e-05 1.66223e-05 8.07934e-21
1.60208e-05 -1.37521e-05 -3.57037e-21
-1.10226e-05 1.74619e-05 6.13817e-21
-1.42237e-05 -1.48884e-05 -2.63178e-21
-1.15515e-06 2.12089e-05 -1.017e-20
-1.28757e-06 2.09666e-05 -2.11673e-20
8.97147e-08 -1.98324e-05 -5.8505e-23
6.11033e-06 -1.97357e-05 4.98009e-21
-1.71396e-05 -9.93469e-06 2.08758e-21
1.55856e-05 -5.48985e-06 7.95806e-21
6.6311e-07 2.14761e-05 -1.27053e-20
3.00818e-07 1.8506e-05 -2.13043e-20
-2.34557e-06 1.6856e-05 -2.32346e-21
2.19071e-05 -5.52699e-06 1.88629e-21
-1.654e-05 5.37766e-06 1.31422e-20
4.15714e-06 2.15158e-05 8.38825e-21
-3.25559e-05 1.29183e-05 1.36521e-20
9.7626e-06 4.17284e-05 -3.24456e-20
-1.70522e-05 4.5678e-06 1.24152e-20
1.9683e-05 -1.16292e-05 -8.57775e-21
9.45701e-07 2.1018e-05 -2.40798e-20
-2.04797e-05 6.69893e-06 2.05085e-20
2.44392e-06 -1.62613e-05 1.15145e-20
1.81901e-06 -5.80084e-05 9.64336e-21
2.00632e-06 1.7485e-05 -1.152e-20
-1.69608e-05 1.40216e-05 3.05295e-22
1.78528e-05 6.39673e-05 -2.59163e-20
4.57661e-05 3.77042e-05 4.20973e-21
5.20613e-05 -3.52532e-05 -2.84229e-20
1.48144e-05 -1.01664e-05 -6.54837e-22
-1.57844e-05 1.40366e-05 -8.25395e-21
-2.02155e-05 -7.92017e-06 7.54242e-21
-1.96443e-05 -6.82195e-06 1.82929e-21
5.92631e-05 -2.46103e-05 -2.9956e-20
5.74299e-05 2.38693e-05 -9.5209e-21
1.08938e-05 3.81723e-06 -1.18186e-20
7.66583e-07 1.95781e-05 -1.32904e-20
7.83527e-08 1.95594e-05 -1.30346e-20
-4.83798e-05 -3.69163e-05 4.32343e-21
1.14244e-05 -1.71708e-05 -1.37109e-20
1.17326e-05 1.24639e-05 -8.47649e-21
-2.14168e-05 -3.39553e-06 2.77123e-21
-1.40441e-05 1.7201e-05 -6.72692e-21
-1.88874e-05 9.16719e-06 2.45898e-21
4.76404e-05 3.36923e-05 -2.35164e-21
1.58055e-05 7.06123e-06 1.48978e-20
-5.56642e-06 2.00292e-05 -1.55223e-20
-1.6977e-05 -1.17485e-05 9.65123e-21
1.85613e-06 -2.05417e-05 -2.13025e-20
-8.9492e-06 -1.92662e-05 2.04303e-21
-1.72481e-05 -1.17728e-05 -6.75845e-21
1.05789e-05 -1.89347e-05 4.54535e-21
1.41216e-05 -1.69883e-05 -6.83423e-21
-2.44024e-06 -6.14338e-05 7.67312e-22
2.61787e-05 -4.11233e-05 2.96759e-20
1.74739e-06 -2.07844e-05 -1.92837e-20
1.79577e-05 1.13548e-05 -4.39953e-21
-1.44755e-05 -1.49045e-05 -1.77072e-20
-9.84053e-06 1.9709e-05 2.85672e-21
-5.03914e-06 2.10056e-05 -1.51064e-20
1.66263e-05 1.4243e-05 1.38667e-21
6.05867e-06 -1.98603e-05 -5.2981e-21
-1.34058e-05 -4.03557e-05 -1.85864e-20
-1.98827e-06 2.50391e-05 -5.37451e-21
1.47911e-05 1.44543e-05 1.28336e-20
-1.29576e-05 -1.02162e-05 4.69541e-21
-1.35143e-05 1.06076e-05 2.73997e-20
4.43405e-05 -1.89122e-05 7.83316e-21
7.56265e-06 -1.33995e-05 9.74704e-21
-8.31673e-06 -1.26263e-05 1.25419e-20
2.13294e-05 6.36314e-06 1.14405e-20
1.09938e-05 -5.06593e-05 5.96003e-22
-3.84495e-05 -3.49012e-05 2.16817e-20
2.33056e-05 6.20708e-06 9.00853e-21
-9.32776e-06 -1.82802e-05 6.73358e-21
1.87047e-05 9.48231e-06 -2.38108e-20
-2.8563e-05 -3.25496e-05 1.38361e-20
9.68769e-06 5.00443e-05 2.12279e-20
3.43324e-05 -5.98567e-05 1.58834e-20
-3.47354e-05 -5.97735e-05 2.68573e-20
2.7807e-05 -5.20196e-05 2.25949e-21
-1.26975e-05 4.3631e-05 -7.31527e-22
-6.27576e-06 3.89754e-05 7.98446e-21
-1.87298e-05 8.94543e-06 2.33331e-20
5.97691e-06 2.4241e-05 5.29203e-21
-2.39146e-06 1.26534e-05 6.97398e-21
1.01197e-05 3.23298e-06 -1.08657e-20
-3.18832e-06 1.62047e-05 -1.04089e-20
-2.47443e-07 2.09907e-05 -9.44723e-21
1.66598e-05 9.75009e-06 5.29019e-22
1.71012e-06 5.77213e-05 -4.9052e-21
-1.47165e-05 1.07321e-05 4.84003e-21
1.59486e-05 -6.24629e-06 1.20356e-21
1.6871e-05 -4.50874e-06 1.97421e-21
-6.06595e-05 -8.7684e-06 -1.78588e-20
-3.46039e-05 1.67406e-05 -5.92504e-21
-4.35124e-05 -5.25435e-05 -7.06339e-23
8.65608e-06 8.34526e-06 -1.89602e-20
1.42092e-05 7.29217e-06 5.79952e-21
2.68034e-05 -4.19565e-06 -4.74756e-21
-8.10397e-06 -1.32421e-05 1.56484e-20
1.72157e-05 8.42818e-06 -2.54386e-21
7.33495e-06 -3.00331e-05 1.64576e-20
-1.3713e-05 1.02044e-05 1.47711e-20
-2.23732e-05 -2.14212e-05 1.73061e-20
-5.83567e-06 1.62969e-05 -1.16009e-20
-3.27083e-06 2.06775e-05 -1.95512e-21
3.3848e-05 2.12953e-05 -1.09182e-20
3.61113e-05 -1.92819e-05 -3.38674e-20
-4.20681e-05 -1.16224e-05 -1.98946e-20
7.63378e-06 7.68534e-06 -1.40956e-20
-4.05835e-06 0.000101356 -1.01318e-21
8.61688e-07 -0.000104462 -3.89445e-21
5.24515e-05 8.76402e-05 7.56031e-21
-1.91019e-05 8.45744e-06 1.44904e-20
-2.63751e-05 5.65464e-05 -1.16791e-20
5.30297e-05 -8.4635e-05 1.16261e-20
-1.17199e-05 -1.82813e-05 -1.42739e-20
7.79957e-05 6.7494e-05 -1.11695e-20
2.39923e-05 -1.79758e-05 2.04357e-20
-3.60724e-06 -2.98205e-05 3.9814e-20
8.17742e-05 -6.58467e-05 2.09362e-20
-6.74426e-06 1.45175e-05 8.9342e-22
-5.3829e-05 -3.48219e-05 -1.11831e-20
-4.30109e-05 -9.31245e-05 -1.19965e-20
-2.41112e-05 -5.7801e-05 -7.47876e-21
-4.39724e-05 9.41315e-05 4.44348e-21
-1.00927e-05 6.40802e-05 -1.27847e-20
1.56319e-05 3.71062e-05 2.25142e-20
-2.79538e-05 3.72383e-05 -1.48402e-20
-2.52716e-05 -5.51802e-05 -6.02842e-21
0.00010036 1.7316e-05 1.59592e-20
-1.69265e-05 1.07664e-05 2.38221e-20
-5.91201e-06 1.63321e-05 -1.095e-20
-5.07551e-05 3.76375e-05 -1.44306e-20
-1.72753e-05 9.94356e-06 7.18015e-21
9.91971e-05 -1.52625e-05 3.42458e-20
-1.53593e-05 7.79826e-06 1.42709e-20
7.1922e-06 -1.44941e-05 -6.60019e-21
-7.79649e-05 -6.09446e-05 8.64383e-21
-2.58774e-05 5.77139e-05 -2.07759e-20
-7.91179e-05 6.03719e-05 -7.51332e-21
2.45388e-05 5.19473e-05 -1.6959e-21
-1.47667e-05 1.05818e-05 -2.37013e-21
-2.05287e-05 2.44752e-05 1.38261e-20
-2.8531e-05 4.9815e-05 -9.09553e-21
-5.67727e-05 2.07978e-07 -2.14807e-20
-9.44055e-07 1.62951e-05 -1.16336e-20
-2.8848e-05 -5.04035e-05 1.29263e-20
-5.8195e-05 -2.19792e-07 -4.74515e-21
-2.83479e-05 4.86934e-05 3.49125e-21
-1.51894e-05 6.62623e-05 1.97297e-20
-1.78638e-05 4.12581e-05 -2.15171e-20
-3.38983e-05 2.71358e-05 9.36961e-21
2.43815e-05 -6.0566e-06 -7.04737e-21
3.80005e-05 -2.19518e-06 -1.80823e-20
1.34816e-05 8.19984e-06 -1.10294e-20
-1.04686e-05 -7.39834e-05 1.25144e-21
-6.94449e-05 -2.79726e-05 1.72052e-20
3.71301e-05 7.32694e-07 2.51547e-23
5.83627e-05 -1.08915e-05 1.70045e-20
-1.05831e-05 -1.34963e-05 -7.97111e-21
-5.08258e-05 3.76232e-05 -1.42248e-20
-4.61309e-05 5.39969e-05 -1.91282e-20
6.2359e-05 -2.22311e-05 5.75105e-22
-2.81758e-05 -5.04942e-05 -3.47118e-20
-2.87754e-05 4.97766e-05 -2.30362e-20
-5.72511e-05 -1.17109e-06 -2.51345e-20
-2.65718e-05 5.05949e-05 9.29352e-21
-5.79498e-05 -8.16966e-07 1.00429e-20
6.60723e-05 1.73914e-05 -1.41481e-20
5.6377e-05 1.29243e-06 2.34604e-20
5.08972e-05 -2.92722e-05 -3.41191e-20
2.49088e-05 -5.94237e-05 -9.15014e-21
2.99168e-05 -4.8854e-05 -6.26978e-21
2.91657e-05 4.86779e-05 -6.73905e-21
2.43436e-05 5.80861e-05 -1.7147e-20
7.5798e-05 -2.00364e-05 -6.32128e-21
4.62637e-05 2.90616e-05 -2.83729e-20
4.66216e-05 1.37447e-05 -3.01618e-21
TENSORS solid_stress_TPM float
375.031 -24.9203 -4.59484e-12
-24.9203 238.569 -1.84741e-12
-4.59484e-12 -1.84741e-12 197.817

457.002 -21.3202 5.26971e-12
-21.3202 489.986 2.91589e-12
5.26971e-12 2.91589e-12 487.109

454.877 28.0431 4.35148e-12
28.0431 463.706 -2.56388e-12
4.35148e-12 -2.56388e-12 458.457

455.026 -29.8427 -1.41132e-12
-29.8427 482.607 -3.93611e-13
-1.41132e-12 -3.93611e-13 484.855

527.685 19.9309 2.85401e-13
19.9309 548.455 -1.18394e-12
2.85401e-13 -1.18394e-12 527.356

437.309 -18.0743 -3.16192e-13
-18.0743 480.336 9.58048e-13
-3.16192e-13 9.58048e-13 458.038

372.325 26.4845 -4.42905e-12
26.4845 239.089 3.90799e-13
-4.42905e-12 3.90799e-13 197.801

473.65 29.9578 2.49223e-12
29.9578 469.499 -3.62939e-12
2.49223e-12 -3.62939e-12 472.335

471.546 5.48312 -5.07564e-12
5.48312 417.82 2.48342e-12
-5.07564e-12 2.48342e-12 432.793

504.257 -7.47757 -8.02913e-13
-7.47757 444.11 -1.22539e-12
-8.02913e-13 -1.22539e-12 483.45

360.291 16.3084 2.88954e-12
16.3084 247.655 -2.15531e-13
2.88954e-12 -2.15531e-13 233.644

444.78 -13.4531 1.62833e-15
-13.4531 498.383 -3.9897e-12
1.62833e-15 -3.9897e-12 472.237

466.865 27.833 5.88566e-13
27.833 468.3 1.22036e-12
5.88566e-13 1.22036e-12 466.732

457.035 -14.34 -1.90663e-12
-14.34 500.432 1.55076e-12
-1.90663e-12 1.55076e-12 483.455

512.935 33.3113 2.56091e-12
33.3113 511.595 1.54452e-12
2.56091e-12 1.54452e-12 515.224

489.17 0.56097 2.49815e-12
0.56097 435.521 -4.05143e-12
2.49815e-12 -4.05143e-12 462.269

457.581 -17.9691 -8.34823e-13
-17.9691 512.884 -7.12171e-12
-8.34823e-13 -7.12171e-12 493.595

493.955 -2.6652 -3.13053e-12
-2.6652 439.046 3.17317e-12
-3.13053e-12 3.17317e-12 474.262

418.79 26.6736 5.35305e-12
26.6736 449.657 -2.87947e-12
5.35305e-12 -2.87947e-12 424.051

481.978 -4.19556 2.7723e-12
-4.19556 424.919 -2.78673e-12
2.7723e-12 -2.78673e-12 453.472

425.294 8.66855 -1.86369e-13
8.66855 481.9 -7.02253e-13
-1.86369e-13 -7.02253e-13 444.839

634.129 6.28767 3.60508e-13
6.28767 633.963 2.2878e-12
3.60508e-13 2.2878e-12 570.316

479.15 1.87597 6.39015e-12
1.87597 422.938 -1.65275e-13
6.39015e-12 -1.65275e-13 449.729

447.16 -27.715 -1.022e-12
-27.715 461.147 -1.28253e-12
-1.022e-12 -1.28253e-12 452.945

481.046 6.84936 3.73035e-14
6.84936 425.438 -2.38565e-12
3.73035e-14 -2.38565e-12 452.935

449.756 19.1128 -5.88714e-13
19.1128 490.315 2.03008e-12
-5.88714e-13 2.03008e-12 478.203

377.652 4.18135 4.61853e-12
4.18135 291.652 1.32013e-12
4.61853e-12 1.32013e-12 259.001

462.682 30.7457 3.57403e-12
30.7457 460.712 6.14619e-13
3.57403e-12 6.14619e-13 460.543

384.938 37.0742 -7.00714e-12
37.0742 383.517 1.29674e-12
-7.00714e-12 1.29674e-12 348.416

586.941 10.3235 2.44012e-12
10.3235 563.45 4.63011e-12
2.44012e-12 4.63011e-12 546.871

491.684 14.2168 4.69254e-12
14.2168 442.495 4.28235e-12
4.69254e-12 4.28235e-12 465.853

352.853 -17.7803 1.34589e-12
-17.7803 416.72 -1.85452e-12
1.34589e-12 -1.85452e-12 348.587

331.015 -42.1015 -2.60059e-12
-42.1015 335.871 -8.40809e-13
-2.60059e-12 -8.40809e-13 253.481

531.408 5.98675 -1.80716e-12
5.98675 586.888 -2.27492e-12
-1.80716e-12 -2.27492e-12 538.581

554.022 -4.84068 2.60444e-12
-4.84068 582.07 -2.49341e-12
2.60444e-12 -2.49341e-12 542.511

577.986 21.0279 2.95586e-12
21.0279 539.946 1.56615e-13
2.95586e-12 1.56615e-13 538.349

556.183 5.06749 -2.11535e-12
5.06749 600.674 1.79797e-12
-2.11535e-12 1.79797e-12 547.968

573.773 -9.16995 -4.27243e-12
-9.16995 555.763 1.9116e-12
-4.27243e-12 1.9116e-12 540.636

467.125 -27.998 3.62969e-12
-27.998 466.488 -1.59931e-12
3.62969e-12 -1.59931e-12 465.105

330.4 41.5207 -8.88178e-13
41.5207 337.969 -2.22637e-13
-8.88178e-13 -2.22637e-13 253.839

414.522 -17.949 -4.32247e-12
-17.949 354.485 4.58122e-12
-4.32247e-12 4.58122e-12 346.318

559.305 -3.70605 -1.00172e-12
-3.70605 599.923 -4.22773e-13
-1.00172e-12 -4.22773e-13 548.382

586.411 19.5555 -4.45718e-13
19.5555 572.454 -1.18009e-12
-4.45718e-13 -1.18009e-12 548.171

490.889 -12.2733 6.35936e-13
-12.2733 442.85 3.36768e-12
6.35936e-13 3.36768e-12 466.525

341.705 -43.2987 -7.72123e-13
-43.2987 345.333 -3.55035e-12
-7.72123e-13 -3.55035e-12 288.974

417.548 -18.0633 -6.34752e-13
-18.0633 357.102 2.66157e-12
-6.34752e-13 2.66157e-12 351.491

413.002 17.0856 -3.53051e-13
17.0856 464.771 4.5232e-12
-3.53051e-13 4.5232e-12 428.716

429.618 19.3389 1.09009e-12
19.3389 466.501 6.53107e-13
1.09009e-12 6.53107e-13 437.069

486.769 -16.301 -1.49036e-12
-16.301 432.864 -1.06152e-12
-1.49036e-12 -1.06152e-12 458.666

355.571 -34.1851 7.02668e-12
-34.1851 389.391 -8.28967e-14
7.02668e-12 -8.28967e-14 332.558

410.241 19.1816 3.67114e-12
19.1816 350.691 -2.75691e-12
3.67114e-12 -2.75691e-12 339.467

425.189 -25.2881 1.72425e-12
-25.2881 383.81 -2.71575e-12
1.72425e-12 -2.71575e-12 373.066

519.912 19.4857 6.51331e-13
19.4857 547.522 7.03141e-13
6.51331e-13 7.03141e-13 525.722

416.401 29.649 1.20792e-13
29.649 393.875 -7.57912e-13
1.20792e-13 -7.57912e-13 373.93

522.167 -21.8128 -2.72079e-12
-21.8128 541.388 9.54246e-13
-2.72079e-12 9.54246e-13 524.369

364.061 -42.7108 5.36223e-12
-42.7108 343.273 3.37745e-12
5.36223e-12 3.37745e-12 289.691

553.444 5.45969 -2.53915e-12
5.45969 583.863 -6.83216e-12
-2.53915e-12 -6.83216e-12 542.885

373.706 -5.32973 3.58794e-12
-5.32973 436.651 -5.00933e-13
3.58794e-12 -5.00933e-13 373.814

580.811 10.3842 -2.51828e-12
10.3842 556.163 4.18302e-12
-2.51828e-12 4.18302e-12 542.641

435.046 21.4129 1.4273e-12
21.4129 473.75 -4.25734e-13
1.4273e-12 -4.25734e-13 454.662

513.563 5.75388 -4.88498e-13
5.75388 452.797 1.14827e-12
-4.88498e-13 1.14827e-12 494.856

522.45 11.4589 -3.33807e-13
11.4589 487.853 -1.9762e-12
-3.33807e-13 -1.9762e-12 507.07

383.697 31.8196 -1.39503e-12
31.8196 315.186 -6.28949e-12
-1.39503e-12 -6.28949e-12 269.864

482.08 -6.03514 8.91583e-13
-6.03514 528.172 -5.48598e-12
8.91583e-13 -5.48598e-12 504.092

487.088 9.51971 -3.1819e-12
9.51971 523.682 7.1901e-12
-3.1819e-12 7.1901e-12 507.488

456.451 -2.88079 4.60879e-12
-2.88079 520.149 -3.48225e-12
4.60879e-12 -3.48225e-12 487.799

464.447 23.402 9.97387e-13
23.402 503.462 9.23706e-14
9.97387e-13 9.23706e-14 495.433

496.739 8.46349 -1.66533e-12
8.46349 444.39 3.94351e-13
-1.66533e-12 3.94351e-13 477.69

445.498 -28.2391 2.56091e-12
-28.2391 459.52 -1.56142e-12
2.56091e-12 -1.56142e-12 451.159

501.673 -1.71123 2.81982e-12
-1.71123 444.908 -7.48734e-13
2.81982e-12 -7.48734e-13 489.061

519.525 -19.2617 1.9688e-12
-19.2617 546.815 4.86722e-13
1.9688e-12 4.86722e-13 525.455

523.296 21.3078 3.29692e-12
21.3078 542.913 5.71094e-13
3.29692e-12 5.71094e-13 525.258

353.403 -16.5832 4.85967e-12
-16.5832 415.728 -5.48894e-12
4.85967e-12 -5.48894e-12 346.106

506.013 -27.936 1.42109e-12
-27.936 485.303 2.22933e-13
1.42109e-12 2.22933e-13 493.873

449.712 -25.1345 2.36936e-12
-25.1345 471.212 6.79279e-12
2.36936e-12 6.79279e-12 458.57

357.864 -31.7103 -3.48403e-12
-31.7103 285.672 -1.18246e-12
-3.48403e-12 -1.18246e-12 249.854

498.493 3.22262 -2.38846e-12
3.22262 541.398 4.63037e-12
-2.38846e-12 4.63037e-12 513.635

501.719 28.9438 -3.33837e-12
28.9438 474.542 3.95683e-12
-3.33837e-12 3.95683e-12 487.65

448.437 19.6641 1.04909e-12
19.6641 492.1 1.75504e-12
1.04909e-12 1.75504e-12 477.636

440.185 7.99945 -8.53836e-13
7.99945 373.031 2.5171e-12
-8.53836e-13 2.5171e-12 382.928

386.445 -33.9352 1.94215e-13
-33.9352 360.2 -9.91681e-12
1.94215e-13 -9.91681e-12 319.43

537.714 -10.5875 3.41653e-13
-10.5875 556.132 1.6156e-12
3.41653e-13 1.6156e-12 531.243

482.65 23.8995 -2.68467e-12
23.8995 504.553 -2.7571e-13
-2.68467e-12 -2.7571e-13 502.036

385.365 -32.3834 -8.21861e-13
-32.3834 345.301 1.21977e-12
-8.21861e-13 1.21977e-12 317.076

422.191 10.791 1.96939e-12
10.791 363.845 -1.86458e-12
1.96939e-12 -1.86458e-12 350.247

307.647 -21.2057 1.72958e-12
-21.2057 388.436 5.50671e-12
1.72958e-12 5.50671e-12 288.111

434.438 14.4256 2.1263e-12
14.4256 488.662 -8.23045e-13
2.1263e-12 -8.23045e-13 460.877

509.714 23.1429 2.93987e-12
23.1429 475.165 1.35447e-12
2.93987e-12 1.35447e-12 489.94

338.236 42.1982 1.46017e-12
42.1982 349.566 5.32789e-12
1.46017e-12 5.32789e-12 288.947

634.214 16.5071 -8.44954e-12
16.5071 603.067 8.78941e-12
-8.44954e-12 8.78941e-12 565.321

372.883 -4.10831 -1.68487e-12
-4.10831 436.811 -3.85114e-12
-1.68487e-12 -3.85114e-12 373.421

637.12 -16.6322 6.85844e-12
-16.6322 599.537 -9.47923e-12
6.85844e-12 -9.47923e-12 564.828

533.933 -27.3349 -1.37727e-12
-27.3349 507.233 -2.51206e-12
-1.37727e-12 -2.51206e-12 515.709

505.29 27.4245 -2.00728e-13
27.4245 466.328 3.28419e-12
-2.00728e-13 3.28419e-12 485.066

426.919 -24.4103 4.38168e-14
-24.4103 386.233 -6.11629e-12
4.38168e-14 -6.11629e-12 375.973

358.931 31.3229 -1.65616e-12
31.3229 395.998 -7.95808e-13
-1.65616e-12 -7.95808e-13 339.195

339.82 -10.705 9.42653e-13
-10.705 408.386 3.32297e-12
9.42653e-13 3.32297e-12 319.101

453.098 21.9707 2.8327e-12
21.9707 494.673 2.31992e-12
2.8327e-12 2.31992e-12 483.162

533.108 16.7941 1.05012e-12
16.7941 506.193 1.6005e-12
1.05012e-12 1.6005e-12 513.348

443.447 15.1538 3.10862e-15
15.1538 488.434 -8.68638e-13
3.10862e-15 -8.68638e-13 464.277

451.475 15.9537 -9.37916e-13
15.9537 400.532 -8.20085e-14
-9.37916e-13 -8.20085e-14 403.742

374.483 -21.4723 2.6971e-12
-21.4723 419.861 -3.68061e-12
2.6971e-12 -3.68061e-12 357.192

389.718 -29.3903 1.41635e-12
-29.3903 342.365 3.42718e-12
1.41635e-12 3.42718e-12 314.387

454.96 -24.5729 -1.0445e-12
-24.5729 480.06 1.18276e-12
-1.0445e-12 1.18276e-12 478.365

466.421 27.4509 1.03473e-12
27.4509 478.738 9.20745e-14
1.03473e-12 9.20745e-14 479.804

452.212 23.1875 3.33837e-12
23.1875 492.554 -3.4787e-13
3.33837e-12 -3.4787e-13 482.038

466.292 13.1691 -5.30435e-12
13.1691 529.772 1.06623e-11
-5.30435e-12 1.06623e-11 501.379

490.856 9.37223 5.2367e-12
9.37223 437.884 1.69909e-12
5.2367e-12 1.69909e-12 462.05

327.708 -4.66501 -3.52429e-12
-4.66501 403.376 3.13586e-12
-3.52429e-12 3.13586e-12 314.408

462.574 -36.8333 -2.25834e-12
-36.8333 487.685 1.617e-12
-2.25834e-12 1.617e-12 492.743

445.845 27.4651 -2.35012e-12
27.4651 463.265 2.12452e-12
-2.35012e-12 2.12452e-12 455.01

305.668 2.17031 7.99124e-12
2.17031 393.356 3.12402e-12
7.99124e-12 3.12402e-12 297.252

385.992 34.6099 -3.43429e-13
34.6099 332.444 -3.25547e-12
-3.43429e-13 -3.25547e-12 306.242

453.346 -22.9737 1.3262e-12
-22.9737 480.065 -1.03236e-12
1.3262e-12 -1.03236e-12 476.168

501.389 5.73296 8.49987e-13
5.73296 441.31 -3.56108e-12
8.49987e-13 -3.56108e-12 481.005

422.376 27.2037 2.32584e-12
27.2037 389.763 9.29035e-13
2.32584e-12 9.29035e-13 374.23

570.539 12.7455 -2.50022e-13
12.7455 565.915 1.47586e-12
-2.50022e-13 1.47586e-12 542.913

396.173 24.3302 4.38168e-13
24.3302 349.644 -3.44554e-12
4.38168e-13 -3.44554e-12 319.04

569.161 -13.055 -8.89659e-14
-13.055 565.826 4.65702e-13
-8.89659e-14 4.65702e-13 542.369

375.087 0.778526 1.36158e-12
0.778526 438.864 -7.16464e-13
1.36158e-12 -7.16464e-13 374.636

461.466 -2.23529 -4.59484e-12
-2.23529 399.299 5.9606e-12
-4.59484e-12 5.9606e-12 417.277

538.192 -15.768 2.1146e-12
-15.768 480.627 -8.46434e-13
2.1146e-12 -8.46434e-13 513.474

457.24 24.3881 -1.8905e-13
24.3881 487.78 1.41457e-12
-1.8905e-13 1.41457e-12 488.35

461.252 -13.535 -1.38647e-12
-13.535 519.131 3.43311e-12
-1.38647e-12 3.43311e-12 495.71

514.965 -7.99999 1.77784e-12
-7.99999 438.187 1.24463e-12
1.77784e-12 1.24463e-12 494.273

488.311 -22.2841 2.99953e-12
-22.2841 541.599 5.12183e-13
2.99953e-12 5.12183e-13 515.746

556.048 -6.59651 -2.56654e-12
-6.59651 560.392 3.43651e-13
-2.56654e-12 3.43651e-13 538.726

463.862 -29.9081 2.72937e-12
-29.9081 483.192 -8.78112e-13
2.72937e-12 -8.78112e-13 483.596

341.703 11.4535 3.1628e-12
11.4535 406.189 1.81662e-12
3.1628e-12 1.81662e-12 319.479

422.477 -28.1461 5.29473e-12
-28.1461 391.238 1.39562e-12
5.29473e-12 1.39562e-12 375.143

507.379 -13.7722 1.63055e-13
-13.7722 558.745 -2.23791e-12
1.63055e-13 -2.23791e-12 525.248

501.052 0.504429 -2.00403e-12
0.504429 441.275 -3.20877e-12
-2.00403e-12 -3.20877e-12 487.082

476.938 -21.5245 -3.73331e-13
-21.5245 507.418 3.60245e-12
-3.73331e-13 3.60245e-12 501.501

459.093 25.6977 -2.33724e-12
25.6977 484.597 -4.31954e-12
-2.33724e-12 -4.31954e-12 487.977

394.426 -31.464 -8.53836e-13
-31.464 400.595 -1.02318e-12
-8.53836e-13 -1.02318e-12 357.517

552.124 -7.08503 -5.59708e-12
-7.08503 585.293 5.48302e-13
-5.59708e-12 5.48302e-13 542.6

347.206 -33.0763 -3.64272e-12
-33.0763 382.603 6.12725e-12
-3.64272e-12 6.12725e-12 303.432

490.865 -19.1795 8.13571e-13
-19.1795 448.383 6.54291e-13
8.13571e-13 6.54291e-13 467.12

519.704 1.97028 1.91136e-12
1.97028 466.81 -2.84928e-12
1.91136e-12 -2.84928e-12 502.828

570.557 17.8751 -2.44397e-12
17.8751 566.478 5.94606e-12
-2.44397e-12 5.94606e-12 542.372

375.286 20.1825 -3.89259e-12
20.1825 424.027 2.52835e-12
-3.89259e-12 2.52835e-12 360.217

489.077 27.2103 -1.21325e-12
27.2103 468.535 1.82047e-12
-1.21325e-12 1.82047e-12 476.635

454.374 -24.5113 -3.62258e-12
-24.5113 415.338 -8.00219e-12
-3.62258e-12 -8.00219e-12 418.598

454.714 -17.8385 -3.49781e-12
-17.8385 494.902 -1.03177e-12
-3.49781e-12 -1.03177e-12 482.637

379.194 35.0677 -4.56761e-12
35.0677 366.026 5.80277e-14
-4.56761e-12 5.80277e-14 317.045

449.148 -21.831 5.01318e-12
-21.831 491.699 4.17562e-12
5.01318e-12 4.17562e-12 479.769

485.486 30.8503 -6.9574e-13
30.8503 465.131 1.33523e-12
-6.9574e-13 1.33523e-12 473.441

480.317 -25.2438 -3.86239e-12
-25.2438 442.362 2.30038e-12
-3.86239e-12 2.30038e-12 455.438

448.213 -25.1261 8.86106e-13
-25.1261 469.762 1.44595e-12
8.86106e-13 1.44595e-12 458.091

445.339 -18.6878 -2.03807e-12
-18.6878 393.456 -6.18291e-12
-2.03807e-12 -6.18291e-12 397.253

470.648 -18.8494 9.28443e-13
-18.8494 422.848 -6.40317e-12
9.28443e-13 -6.40317e-12 437.526

458.993 -25.3369 3.97016e-13
-25.3369 485.423 3.28989e-12
3.97016e-13 3.28989e-12 488.82

386.536 35.9688 -8.1594e-13
35.9688 381.982 4.31773e-12
-8.1594e-13 4.31773e-12 348.111

444.489 15.3766 -1.21148e-12
15.3766 491.526 -1.31036e-12
-1.21148e-12 -1.31036e-12 467.134

469.39 26.422 2.69236e-12
26.422 479.952 1.61352e-13
2.69236e-12 1.61352e-13 482.54

456.136 25.4736 3.78059e-12
25.4736 486.64 -3.88652e-12
3.78059e-12 -3.88652e-12 487.24

457.801 11.6214 -2.49684e-12
11.6214 506.933 7.1901e-12
-2.49684e-12 7.1901e-12 486.009

431.944 -8.22686 2.42295e-12
-8.22686 370.75 1.76259e-12
2.42295e-12 1.76259e-12 363.301

376.773 18.6061 -4.67952e-12
18.6061 427.259 2.95704e-12
-4.67952e-12 2.95704e-12 363.877

452.306 -24.3803 2.90642e-12
-24.3803 478.378 -2.31163e-12
2.90642e-12 -2.31163e-12 470.705

440.74 25.6656 -7.6863e-12
25.6656 455.633 5.30539e-13
-7.6863e-12 5.30539e-13 437.799

390.949 -35.6287 -4.46931e-12
-35.6287 380.271 3.34962e-12
-4.46931e-12 3.34962e-12 350.085

368.935 38.316 -4.37102e-12
38.316 327.247 3.98733e-12
-4.37102e-12 3.98733e-12 295.677

363.64 -33.3105 3.47041e-12
-33.3105 394.428 1.69109e-12
3.47041e-12 1.69109e-12 341.973

397.923 -31.159 -7.09951e-12
-31.159 404.185 1.05516e-12
-7.09951e-12 1.05516e-12 362.967

502.849 -6.83865 4.15371e-13
-6.83865 442.242 -1.54247e-12
4.15371e-13 -1.54247e-12 482.31

393.157 30.3412 9.166e-13
30.3412 408.971 -8.02913e-13
9.166e-13 -8.02913e-13 363.427

429.693 13.2944 -5.43565e-13
13.2944 372.24 -1.80596e-14
-5.43565e-13 -1.80596e-14 362.706

350.137 13.3786 3.19581e-12
13.3786 418.506 5.48894e-12
3.19581e-12 5.48894e-12 348.468

379.471 -22.34 8.40809e-14
-22.34 423.504 -2.21334e-12
8.40809e-14 -2.21334e-12 363.441

491.2 -1.09153 -5.92341e-13
-1.09153 550.871 5.82763e-12
-5.92341e-13 5.82763e-12 516.299

372.856 2.24657 3.61577e-12
2.24657 437.779 -3.75877e-12
3.61577e-12 -3.75877e-12 373.513

357.882 31.0887 -1.68635e-12
31.0887 399.478 1.7053e-13
-1.68635e-12 1.7053e-13 341.953

457.983 12.1078 1.06413e-12
12.1078 510.553 4.64813e-13
1.06413e-12 4.64813e-13 488.396

421.444 -27.6471 8.12387e-13
-27.6471 389.064 -3.80614e-12
8.12387e-13 -3.80614e-12 375.065

524.749 20.5569 -7.61169e-13
20.5569 469.742 -9.61601e-13
-7.61169e-13 -9.61601e-13 500.727

534.918 26.2704 3.81325e-12
26.2704 506.853 1.36469e-12
3.81325e-12 1.36469e-12 516.087

494.809 -18.5674 1.24937e-13
-18.5674 449.018 2.53753e-12
1.24937e-13 2.53753e-12 470.849

554.578 -1.80118 2.70051e-12
-1.80118 516.016 -1.27572e-12
2.70051e-12 -1.27572e-12 525.71

473.28 -31.8117 -2.11268e-12
-31.8117 475.689 7.27359e-12
-2.11268e-12 7.27359e-12 478.57

412.59 23.3274 2.43953e-12
23.3274 357.189 -3.13112e-12
2.43953e-12 -3.13112e-12 348.084

464.169 30.1621 1.09305e-12
30.1621 482.76 4.60846e-12
1.09305e-12 4.60846e-12 483.197

464.432 29.2058 1.13539e-12
29.2058 482.233 1.37016e-12
1.13539e-12 1.37016e-12 482.758

393.939 30.6603 1.80359e-12
30.6603 405.716 -1.18424e-13
1.80359e-12 -1.18424e-13 360.861

502.847 27.0849 1.51642e-12
27.0849 482.658 6.3564e-13
1.51642e-12 6.3564e-13 490.727

415.343 3.52509 -1.8107e-12
3.52509 339.01 -7.14503e-13
-1.8107e-12 -7.14503e-13 340.818

493.115 31.8172 -3.61814e-12
31.8172 487.216 -1.4954e-12
-3.61814e-12 -1.4954e-12 495.568

476.32 -12.5997 -4.09361e-12
-12.5997 522.444 1.58925e-12
-4.09361e-12 1.58925e-12 500.241

536.92 24.2782 -1.0066e-13
24.2782 507.396 6.03517e-12
-1.0066e-13 6.03517e-12 516.623

468.17 -29.5787 -3.12787e-12
-29.5787 479.962 -1.14161e-12
-3.12787e-12 -1.14161e-12 483.054

464.554 -4.89806 2.33054e-13
-4.89806 521.549 -5.2817e-12
2.33054e-13 -5.2817e-12 490.972

400.932 -24.5559 -3.39166e-12
-24.5559 349.017 2.63552e-12
-3.39166e-12 2.63552e-12 323.944

418.959 29.6926 5.3717e-12
29.6926 392.457 2.54256e-12
5.3717e-12 2.54256e-12 373.763

352.338 14.6963 -2.10439e-12
14.6963 417.204 4.15075e-12
-2.10439e-12 4.15075e-12 348.233

500.522 -1.13889 2.01913e-13
-1.13889 442.788 -1.88316e-12
2.01913e-13 -1.88316e-12 487.702

492.464 0.00222906 1.65468e-12
0.00222906 438.096 -1.96709e-12
1.65468e-12 -1.96709e-12 474.412

452.959 23.1238 7.66054e-13
23.1238 479.7 -5.79981e-13
7.66054e-13 -5.79981e-13 475.579

481.297 23.8709 -2.81641e-12
23.8709 502.868 6.91798e-13
-2.81641e-12 6.91798e-13 501.247

456.581 -24.3807 1.4864e-13
-24.3807 487.346 -2.93099e-14
1.4864e-13 -2.93099e-14 488.491

457.83 -0.672759 -3.51598e-12
-0.672759 517.936 -3.11395e-12
-3.51598e-12 -3.11395e-12 486.394

458.879 25.5904 -1.76481e-12
25.5904 486.463 -1.41901e-12
-1.76481e-12 -1.41901e-12 488.513

465.555 -10.3078 3.59653e-12
-10.3078 408.08 -1.03266e-12
3.59653e-12 -1.03266e-12 427.219

400.861 -32.8331 2.24887e-12
-32.8331 414.952 1.74675e-12
2.24887e-12 1.74675e-12 385.162

518.094 -2.3007 -2.91619e-12
-2.3007 465.736 2.25864e-12
-2.91619e-12 2.25864e-12 500.925

391.869 -34.5078 -7.4607e-14
-34.5078 379.603 -1.90781e-12
-7.4607e-14 -1.90781e-12 347.415

477.999 19.0861 7.50511e-14
19.0861 509.2 -2.36818e-12
7.50511e-14 -2.36818e-12 501.844

506.111 -26.4787 2.78177e-12
-26.4787 470.246 -1.57622e-12
2.78177e-12 -1.57622e-12 487.272

424.998 -9.69014 1.83202e-12
-9.69014 366.729 6.08639e-12
1.83202e-12 6.08639e-12 355.979

530.265 -23.1919 -2.14939e-13
-23.1919 488.757 1.31776e-12
-2.14939e-13 1.31776e-12 506.489

500.891 2.35827 4.77396e-13
2.35827 444.576 3.10152e-12
4.77396e-13 3.10152e-12 489.204

521.191 -23.3214 5.14907e-12
-23.3214 501.841 -3.22128e-12
5.14907e-12 -3.22128e-12 508.533

502.015 -25.8594 1.05516e-12
-25.8594 461.491 -3.47515e-12
1.05516e-12 -3.47515e-12 481.243

498.826 -8.54609 1.05604e-12
-8.54609 445.135 3.33378e-12
1.05604e-12 3.33378e-12 479.344

482.22 -23.0681 -7.78044e-13
-23.0681 504.992 3.22884e-12
-7.78044e-13 3.22884e-12 502.535

428.538 -31.3416 2.81493e-12
-31.3416 410.587 6.90944e-12
2.81493e-12 6.90944e-12 398.996

503.267 -24.5872 -9.23706e-13
-24.5872 464.713 4.12766e-12
-9.23706e-13 4.12766e-12 482.159

441.239 10.8643 -1.9457e-12
10.8643 378.479 1.6979e-12
-1.9457e-12 1.6979e-12 387.797

500.037 26.3402 -2.09758e-12
26.3402 498.584 5.36904e-13
-2.09758e-12 5.36904e-13 500.104

463.749 -37.6129 -8.28966e-15
-37.6129 488.389 3.55593e-12
-8.28966e-15 3.55593e-12 494.082

464.858 37.2652 4.73103e-13
37.2652 487.3 -7.08396e-13
4.73103e-13 -7.08396e-13 493.797

446.326 -28.5734 3.67958e-12
-28.5734 500.014 -5.50375e-13
3.67958e-12 -5.50375e-13 492.312

448.561 27.0641 3.78438e-13
27.0641 500.705 -1.9836e-13
3.78438e-13 -1.9836e-13 492.499

513.069 -8.52763 -2.85831e-12
-8.52763 436.405 5.54075e-13
-2.85831e-12 5.54075e-13 492.759

511.232 9.27365 6.90115e-13
9.27365 438.002 -1.38408e-13
6.90115e-13 -1.38408e-13 492.397

501.655 -9.84614 -1.17506e-12
-9.84614 451.742 -1.67984e-12
-1.17506e-12 -1.67984e-12 483.02

510.865 32.1162 7.31563e-13
32.1162 510.39 1.42397e-12
7.31563e-13 1.42397e-12 514.055

509.641 -32.8542 -1.65882e-12
-32.8542 510.067 4.00166e-12
-1.65882e-12 4.00166e-12 513.694

481.81 16.0685 -8.01137e-13
16.0685 539.131 1.28727e-12
-8.01137e-13 1.28727e-12 514.327

483.003 -15.801 -3.52962e-12
-15.801 538.721 -1.43293e-12
-3.52962e-12 -1.43293e-12 514.348

556.87 -3.74762 -1.26329e-12
-3.74762 506.832 3.9743e-12
-1.26329e-12 3.9743e-12 524.992

558.424 3.61039 1.33123e-12
3.61039 505.157 6.3339e-12
1.33123e-12 6.3339e-12 525.364

387.307 9.8368 8.63013e-14
9.8368 449.195 -6.37238e-12
8.63013e-14 -6.37238e-12 397.085

472.386 -24.7741 -3.13823e-13
-24.7741 480.753 -6.36365e-12
-3.13823e-13 -6.36365e-12 484.975

443.459 -36.3876 -4.78876e-13
-36.3876 485.53 8.93063e-13
-4.78876e-13 8.93063e-13 486.626

473.639 -4.66427 1.31687e-12
-4.66427 420.434 -1.55032e-12
1.31687e-12 -1.55032e-12 436.336

540.254 -16.6947 -2.74033e-12
-16.6947 484.192 3.013e-12
-2.74033e-12 3.013e-12 515.288

540.974 16.1757 3.91272e-12
16.1757 485.415 -3.68594e-13
3.91272e-12 -3.68594e-13 515.893

506.86 0.121882 1.83912e-12
0.121882 423.549 -2.42986e-13
1.83912e-12 -2.42986e-13 487

384.789 23.375 -6.04553e-12
23.375 432.294 6.43041e-13
-6.04553e-12 6.43041e-13 385.474

442.331 36.1715 1.40628e-13
36.1715 485.209 -3.70859e-12
1.40628e-13 -3.70859e-12 485.832

452.595 -23.3957 2.68526e-13
-23.3957 494.951 -5.30243e-13
2.68526e-13 -5.30243e-13 483.589

443.245 23.3526 5.51855e-13
23.3526 397.516 8.02913e-13
5.51855e-13 8.02913e-13 400.37

530.968 23.8582 2.73085e-12
23.8582 488.007 -4.77544e-13
2.73085e-12 -4.77544e-13 507.247

428.476 -31.3134 2.92033e-12
-31.3134 410.871 -1.06877e-12
2.92033e-12 -1.06877e-12 398.815

519.858 -3.23095 -9.41469e-13
-3.23095 469.057 -2.79717e-12
-9.41469e-13 -2.79717e-12 502.684

439.394 -34.161 -6.25477e-12
-34.161 485.502 5.1692e-13
-6.25477e-12 5.1692e-13 485.821

389.181 8.31991 -7.58578e-13
8.31991 452.325 -5.8975e-13
-7.58578e-13 -5.8975e-13 400.852

385.876 21.8114 -7.00773e-12
21.8114 435.77 2.84217e-13
-7.00773e-12 2.84217e-13 388.691

383.844 35.7756 -2.49164e-12
35.7756 362.329 4.30352e-12
-2.49164e-12 4.30352e-12 318.325

408.18 1.57875 1.03739e-12
1.57875 332.153 3.86876e-12
1.03739e-12 3.86876e-12 327.322

485.453 -22.8045 5.07742e-13
-22.8045 502.856 2.48964e-12
5.07742e-13 2.48964e-12 501.747

351.875 31.1837 3.69245e-12
31.1837 388.828 1.87583e-12
3.69245e-12 1.87583e-12 312.355

451.347 23.6099 -9.4739e-13
23.6099 478.41 -2.35427e-12
-9.4739e-13 -2.35427e-12 465.21

442.193 -5.34951 -3.73035e-12
-5.34951 377.123 1.77192e-12
-3.73035e-12 1.77192e-12 387.735

464.152 11.216 -5.0111e-12
11.216 407.296 -2.73322e-12
-5.0111e-12 -2.73322e-12 424.919

505.375 0.429904 -1.29274e-12
0.429904 421.569 -3.72199e-12
-1.29274e-12 -3.72199e-12 485.671

449.346 -29.0311 7.32155e-13
-29.0311 501.994 1.51553e-12
7.32155e-13 1.51553e-12 493.585

572.508 -6.31896 2.17352e-12
-6.31896 589.482 -7.53708e-12
2.17352e-12 -7.53708e-12 549.251

463.136 37.4116 -2.55855e-12
37.4116 487.023 -4.05846e-12
-2.55855e-12 -4.05846e-12 493.061

408.735 1.66328 -8.28967e-13
1.66328 331.6 -6.57252e-14
-8.28967e-13 -6.57252e-14 308.901

404.231 -32.7867 -4.83051e-12
-32.7867 415.505 -5.33795e-12
-4.83051e-12 -5.33795e-12 387.386

443.137 36.613 -3.52784e-12
36.613 485.502 1.86873e-12
-3.52784e-12 1.86873e-12 486.568

444.676 -11.1338 5.00653e-12
-11.1338 498.932 -1.10371e-12
5.00653e-12 -1.10371e-12 471.438

386.07 -25.5144 -8.86698e-13
-25.5144 428.897 -2.44782e-12
-8.86698e-13 -2.44782e-12 384.56

449.447 28.8301 2.84091e-12
28.8301 501.627 -3.27442e-13
2.84091e-12 -3.27442e-13 493.285

452.707 -26.1417 2.16123e-12
-26.1417 419.299 5.48776e-12
2.16123e-12 5.48776e-12 419.514

579.55 10.4834 8.95876e-13
10.4834 582.161 -5.21768e-12
8.95876e-13 -5.21768e-12 549.035

398.325 30.8718 -9.30811e-13
30.8718 422.055 6.70397e-12
-9.30811e-13 6.70397e-12 388.159

515.703 8.12673 -1.05412e-12
8.12673 437.265 1.25973e-13
-1.05412e-12 1.25973e-13 494.578

493.802 30.1906 -3.27975e-12
30.1906 484.744 5.42973e-13
-3.27975e-12 5.42973e-13 493.799

453.462 23.3318 2.27374e-12
23.3318 479.159 4.36954e-12
2.27374e-12 4.36954e-12 475.795

510.699 -32.4888 -1.90248e-12
-32.4888 512.45 4.42032e-12
-1.90248e-12 4.42032e-12 515.003

510.305 -23.1901 3.56456e-12
-23.1901 473.178 2.79154e-12
3.56456e-12 2.79154e-12 489.674

511.399 10.4707 1.79897e-12
10.4707 557.989 -3.86713e-12
1.79897e-12 -3.86713e-12 523.729

452.169 -23.4337 5.69915e-13
-23.4337 480.162 1.59339e-12
5.69915e-13 1.59339e-12 468.947

394.407 -9.70773 3.59298e-12
-9.70773 316.411 1.68917e-12
3.59298e-12 1.68917e-12 295.573

387.287 -14.2771 -2.07242e-12
-14.2771 306.057 -9.84102e-13
-2.07242e-12 -9.84102e-13 290.047

547.581 16.5294 2.38476e-12
16.5294 507.761 1.47082e-12
2.38476e-12 1.47082e-12 519.317

436.484 22.5015 4.51195e-13
22.5015 469.133 -2.42295e-12
4.51195e-13 -2.42295e-12 447.82

475.959 29.1631 -1.26832e-12
29.1631 467.642 2.26515e-12
-1.26832e-12 2.26515e-12 471.475

450.298 0.688667 1.53951e-13
0.688667 392.773 7.53789e-12
1.53951e-13 7.53789e-12 395.671

478.348 6.57119 4.14456e-12
6.57119 541.275 4.71741e-12
4.14456e-12 4.71741e-12 507.536

507.327 16.5408 1.20437e-12
16.5408 461.132 -4.78728e-13
1.20437e-12 -4.78728e-13 488.076

389.973 -25.7609 -4.22773e-13
-25.7609 430.032 4.32365e-12
-4.22773e-13 4.32365e-12 387.73

456.315 -2.57241 1.23457e-12
-2.57241 517.01 -1.50813e-12
1.23457e-12 -1.50813e-12 484.837

400.586 13.3651 -4.67271e-12
13.3651 452.981 -4.74169e-12
-4.67271e-12 -4.74169e-12 404.632

486.91 -29.7132 -4.35326e-12
-29.7132 465.81 -2.81849e-13
-4.35326e-12 -2.81849e-13 474.255

430.295 -29.9472 9.04166e-13
-29.9472 423.625 2.40637e-12
9.04166e-13 2.40637e-12 404.951

399.707 31.6226 1.37372e-13
31.6226 418.228 4.18983e-12
1.37372e-13 4.18983e-12 385.998

623.999 -15.0201 -5.29058e-13
-15.0201 581.946 6.00305e-12
-5.29058e-13 6.00305e-12 557.901

494.518 2.04129 -2.506e-12
2.04129 552.14 -2.92684e-12
-2.506e-12 -2.92684e-12 517.921

483.498 20.3001 -1.76303e-12
20.3001 542.039 -6.06803e-12
-1.76303e-12 -6.06803e-12 516.027

544.702 15.439 2.48098e-12
15.439 479.967 -5.84717e-13
2.48098e-12 -5.84717e-13 515.749

473.744 -26.1886 -6.74986e-12
-26.1886 479.752 1.69257e-12
-6.74986e-12 1.69257e-12 483.013

452.121 17.9571 5.22604e-12
17.9571 404.504 -1.97738e-12
5.22604e-12 -1.97738e-12 406.914

531.577 -5.29408 1.02671e-12
-5.29408 580.798 3.47722e-12
1.02671e-12 3.47722e-12 537.114

512.183 -18.9881 7.61465e-13
-18.9881 464.79 2.56713e-12
7.61465e-13 2.56713e-12 493.024

473.972 -15.5988 -5.59552e-13
-15.5988 423.172 -5.84007e-12
-5.59552e-13 -5.84007e-12 438.876

401.996 11.6031 -1.19874e-12
11.6031 455.953 -2.37558e-12
-1.19874e-12 -2.37558e-12 407.776

410.919 -25.734 -4.91459e-13
-25.734 435.577 2.61243e-12
-4.91459e-13 2.61243e-12 398.952

532.045 -25.2738 3.67351e-12
-25.2738 523.189 -2.12053e-12
3.67351e-12 -2.12053e-12 519.115

423.052 31.9592 2.73855e-12
31.9592 417.245 1.71892e-12
2.73855e-12 1.71892e-12 400.301

535.478 -25.1347 4.56524e-13
-25.1347 505.785 5.34239e-12
4.56524e-13 5.34239e-12 515.656

453.49 2.59735 1.06581e-13
2.59735 397.016 3.76218e-12
1.06581e-13 3.76218e-12 401.894

311.096 -28.9303 -5.71809e-12
-28.9303 376.594 1.84504e-12
-5.71809e-12 1.84504e-12 289.992

431.872 -29.2307 5.18696e-13
-29.2307 424.044 -4.36688e-12
5.18696e-13 -4.36688e-12 406.15

353.758 32.1586 -1.26121e-12
32.1586 392.541 3.55035e-12
-1.26121e-12 3.55035e-12 312.966

470.343 -11.8769 -3.44684e-12
-11.8769 529.548 -2.02919e-12
-3.44684e-12 -2.02919e-12 500.3

391.447 -13.8212 -3.91835e-13
-13.8212 449.249 2.53664e-12
-3.91835e-13 2.53664e-12 400.195

602.852 -23.9881 -3.61104e-12
-23.9881 602.265 1.88353e-12
-3.61104e-12 1.88353e-12 557.842

408.368 23.7706 1.6757e-12
23.7706 441.936 -8.70415e-13
1.6757e-12 -8.70415e-13 402.218

496.574 -32.7263 9.21544e-12
-32.7263 490.637 -5.52506e-12
9.21544e-12 -5.52506e-12 497.443

388.186 -11.963 -8.26672e-13
-11.963 448.281 -1.12384e-12
-8.26672e-13 -1.12384e-12 397.012

516.707 -19.1169 -3.40468e-14
-19.1169 465.75 -3.749e-12
-3.40468e-14 -3.749e-12 496.24

410.683 23.8768 5.32078e-12
23.8768 439.308 -8.19493e-13
5.32078e-12 -8.19493e-13 400.695

488.916 -4.97547 2.80428e-12
-4.97547 435.067 3.9226e-12
2.80428e-12 3.9226e-12 460.379

305.78 -30.3425 1.86517e-12
-30.3425 391.436 -8.36782e-12
1.86517e-12 -8.36782e-12 262.568

438.606 21.0139 1.26358e-12
21.0139 473.91 -3.20692e-12
1.26358e-12 -3.20692e-12 458.346

445.685 -19.3231 -3.71851e-13
-19.3231 393.974 -5.3421e-12
-3.71851e-13 -5.3421e-12 399.621

551.602 -21.4459 1.2396e-12
-21.4459 499.515 6.36528e-14
1.2396e-12 6.36528e-14 520.101

424.468 31.7537 3.47692e-12
31.7537 413.321 1.44892e-12
3.47692e-12 1.44892e-12 397.957

459.161 -29.9715 6.17284e-12
-29.9715 437.636 1.70856e-12
6.17284e-12 1.70856e-12 439.298

510.618 20.8852 1.61175e-12
20.8852 476.071 2.33561e-12
1.61175e-12 2.33561e-12 492.755

461.503 -28.0758 -5.46319e-12
-28.0758 485.74 2.61939e-12
-5.46319e-12 2.61939e-12 488.717

413.719 -26.225 -2.14525e-12
-26.225 436.244 3.49824e-12
-2.14525e-12 3.49824e-12 401.438

426.074 28.9808 4.63629e-13
28.9808 429.897 3.51008e-12
4.63629e-13 3.51008e-12 406.86

452.5 26.1911 -2.71546e-12
26.1911 418.227 2.50141e-12
-2.71546e-12 2.50141e-12 419.058

521.97 -14.6099 2.77881e-12
-14.6099 477.177 -8.62125e-13
2.77881e-12 -8.62125e-13 500.064

403.561 -16.6174 4.2751e-13
-16.6174 451.742 1.31806e-12
4.2751e-13 1.31806e-12 406.443

496.046 -17.5682 -8.95284e-13
-17.5682 447.607 -2.00462e-12
-8.95284e-13 -2.00462e-12 471.501

487.765 16.9083 8.98837e-13
16.9083 436.259 2.95379e-12
8.98837e-13 2.95379e-12 460.589

513.343 -9.38683 7.16686e-13
-9.38683 555.778 5.77138e-12
7.16686e-13 5.77138e-12 523.03

453.978 -13.4299 3.05178e-12
-13.4299 402.178 6.57696e-13
3.05178e-12 6.57696e-13 406.743

403.202 0.594019 -2.07715e-12
0.594019 465.725 -1.12976e-12
-2.07715e-12 -1.12976e-12 417.805

475.026 18.5548 -3.73509e-12
18.5548 428.772 6.1009e-12
-3.73509e-12 6.1009e-12 442.221

451.143 27.6037 -2.57335e-12
27.6037 421.839 -1.94837e-12
-2.57335e-12 -1.94837e-12 420.844

400.869 -15.686 1.85748e-12
-15.686 451.382 7.72123e-13
1.85748e-12 7.72123e-13 403.736

406.001 -1.20229 4.98942e-12
-1.20229 468.035 -2.45256e-12
4.98942e-12 -2.45256e-12 421.22

516.2 29.1343 3.19744e-12
29.1343 498.027 7.57912e-14
3.19744e-12 7.57912e-14 504.876

441.705 -10.922 -5.29206e-13
-10.922 500.658 7.63241e-13
-5.29206e-13 7.63241e-13 471.149

451.44 -26.715 -2.10854e-12
-26.715 418.767 -4.50425e-12
-2.10854e-12 -4.50425e-12 419.353

444.387 21.3324 -2.39098e-12
21.3324 395.299 8.39625e-13
-2.39098e-12 8.39625e-13 398.201

497.596 23.6652 -9.4739e-14
23.6652 458.091 -1.97176e-12
-9.4739e-14 -1.97176e-12 476.551

447.683 5.47074 -3.91243e-13
5.47074 508.791 2.00077e-12
-3.91243e-13 2.00077e-12 476.883

427.65 29.0653 9.97128e-13
29.0653 426.435 4.50129e-12
9.97128e-13 4.50129e-12 405.111

536.822 22.9638 4.80001e-12
22.9638 531.899 -2.54789e-12
4.80001e-12 -2.54789e-12 522.785

314.751 -59.6913 -6.31436e-12
-59.6913 282.77 1.78465e-12
-6.31436e-12 1.78465e-12 223.424

480.595 -25.0476 -6.24685e-13
-25.0476 445.073 1.94511e-12
-6.24685e-13 1.94511e-12 456.647

336.664 7.06984 -2.17663e-12
7.06984 409.156 2.76164e-12
-2.17663e-12 2.76164e-12 319.441

460.539 -28.889 3.15185e-12
-28.889 444.738 -1.76155e-12
3.15185e-12 -1.76155e-12 443.454

96.4241 -52.701 -2.72375e-12
-52.701 306.618 1.75267e-12
-2.72375e-12 1.75267e-12 113.7

95.958 51.4517 -1.74557e-12
51.4517 306.883 2.75691e-12
-1.74557e-12 2.75691e-12 114.488

181.517 117.154 -2.97954e-12
117.154 226.077 -1.8332e-12
-2.97954e-12 -1.8332e-12 113.588

182.815 -117.097 1.01134e-12
-117.097 223.312 -4.12115e-12
1.01134e-12 -4.12115e-12 113.562

321.583 -1.36336 -2.73796e-12
-1.36336 84.6537 5.30363e-15
-2.73796e-12 5.30363e-15 114.929

274.434 -91.1255 -9.00021e-13
-91.1255 127.418 -9.02389e-13
-9.00021e-13 -9.02389e-13 113.802

275.13 91.6534 -2.21216e-12
91.6534 128.251 -4.51195e-12
-2.21216e-12 -4.51195e-12 114.573

525.241 14.3303 -2.94816e-12
14.3303 474.713 3.94351e-13
-2.94816e-12 3.94351e-13 502.315

556.798 25.5366 3.16636e-12
25.5366 541.184 4.20404e-14
3.16636e-12 4.20404e-14 533.451

492.093 6.606 -8.47145e-12
6.606 439.122 -1.0704e-12
-8.47145e-12 -1.0704e-12 471.403

470.3 21.7845 3.86594e-12
21.7845 424.518 7.59393e-13
3.86594e-12 7.59393e-13 438.195

409.976 17.7443 -4.17932e-12
17.7443 461.074 2.27374e-12
-4.17932e-12 2.27374e-12 425.044

448.011 28.8983 -5.22071e-12
28.8983 424.706 1.47734e-12
-5.22071e-12 1.47734e-12 420.751

487.15 -29.6633 -6.87095e-12
-29.6633 465.629 -4.74435e-12
-6.87095e-12 -4.74435e-12 474.591

449.369 28.0276 -5.63697e-13
28.0276 421.072 2.56151e-12
-5.63697e-13 2.56151e-12 418.643

402.964 -2.84123 -7.84706e-13
-2.84123 465.382 -2.91678e-12
-7.84706e-13 -2.91678e-12 417.541

555.804 -26.0974 -1.86044e-12
-26.0974 543.378 -1.71981e-12
-1.86044e-12 -1.71981e-12 533.695

405.502 -4.86236 1.15611e-13
-4.86236 467.12 1.95399e-13
1.15611e-13 1.95399e-13 420.6

522.294 23.0162 2.21156e-12
23.0162 499.743 -1.97398e-12
2.21156e-12 -1.97398e-12 507.971

423.379 26.8705 6.08106e-12
26.8705 386.508 -2.50881e-12
6.08106e-12 -2.50881e-12 373.028

480.111 -13.2161 -4.68973e-12
-13.2161 532.77 4.97291e-12
-4.68973e-12 4.97291e-12 512.002

484.199 13.7279 3.05356e-12
13.7279 432.777 5.92445e-12
3.05356e-12 5.92445e-12 456.876

457.369 -29.9875 -1.37904e-12
-29.9875 436.978 2.02564e-12
-1.37904e-12 2.02564e-12 437.834

454.309 -24.7133 -7.91071e-13
-24.7133 416.805 -2.03807e-12
-7.91071e-13 -2.03807e-12 419.854

547.406 -16.0746 -1.30947e-12
-16.0746 509.307 -1.55017e-12
-1.30947e-12 -1.55017e-12 519.385

475.973 27.9288 -1.20674e-12
27.9288 449.707 -1.70234e-13
-1.20674e-12 -1.70234e-13 456.926

469.102 23.9773 4.29701e-12
23.9773 427.85 -9.63674e-13
4.29701e-12 -9.63674e-13 439.831

432.43 -2.79294 -2.43561e-12
-2.79294 493.638 3.31705e-12
-2.43561e-12 3.31705e-12 457.108

417.608 5.87333 1.52094e-13
5.87333 479.558 -1.84386e-12
1.52094e-13 -1.84386e-12 440.178

463.012 2.64669 -2.27196e-12
2.64669 402.281 4.21367e-12
-2.27196e-12 4.21367e-12 422.322

438.648 -7.28961 -1.28608e-12
-7.28961 373.916 2.53057e-12
-1.28608e-12 2.53057e-12 381.219

454.845 30.4846 -6.47778e-13
30.4846 439.016 -2.62013e-12
-6.47778e-13 -2.62013e-12 437.838

478.466 -26.1553 4.47464e-12
-26.1553 443.544 1.70501e-12
4.47464e-12 1.70501e-12 454.647

525.702 -21.2543 5.92119e-15
-21.2543 497.83 2.62101e-12
5.92119e-15 2.62101e-12 508.62

437.734 -31.6335 1.91847e-12
-31.6335 437.656 -1.06049e-12
1.91847e-12 -1.06049e-12 426.86

417.591 -27.7854 2.67756e-12
-27.7854 444.397 -6.83305e-13
2.67756e-12 -6.83305e-13 419.689

430.648 29.887 -1.82195e-12
29.887 442.745 -2.24176e-12
-1.82195e-12 -2.24176e-12 426.498

416.226 -9.57788 -1.89108e-14
-9.57788 475.212 -4.29286e-13
-1.89108e-14 -4.29286e-13 436.456

428.896 -1.54479 -1.79212e-12
-1.54479 491.869 1.72247e-12
-1.79212e-12 1.72247e-12 453.996

445.183 5.74794 -5.49225e-12
5.74794 508.044 5.07446e-13
-5.49225e-12 5.07446e-13 474.915

414.62 -21.089 -9.23113e-13
-21.089 458.408 -1.01193e-12
-9.23113e-13 -1.01193e-12 426.066

496.87 24.1111 -1.75386e-12
24.1111 455.697 -2.41348e-12
-1.75386e-12 -2.41348e-12 474.594

483.374 -9.58972 -5.02709e-13
-9.58972 430.113 -7.60014e-12
-5.02709e-13 -7.60014e-12 455.222

415.634 7.46525 -4.03807e-13
7.46525 477.122 8.96468e-13
-4.03807e-13 8.96468e-13 436.914

443.956 -9.70108 1.61996e-12
-9.70108 501.505 1.3974e-12
1.61996e-12 1.3974e-12 471.008

433.175 -16.3306 1.24493e-12
-16.3306 481.677 2.07656e-12
1.24493e-12 2.07656e-12 455.669

463.54 -8.23918 -2.62782e-12
-8.23918 406.336 -1.03769e-12
-2.62782e-12 -1.03769e-12 421.472

494.435 -32.3468 5.92504e-12
-32.3468 487.617 -2.07123e-12
5.92504e-12 -2.07123e-12 496.252

422.945 9.32084 4.42698e-12
9.32084 479.092 1.35891e-12
4.42698e-12 1.35891e-12 440.981

564.359 -18.2126 -2.9754e-13
-18.2126 529.953 1.22805e-12
-2.9754e-13 1.22805e-12 531.833

309.049 24.8226 -7.0853e-12
24.8226 379.424 3.15718e-12
-7.0853e-12 3.15718e-12 289.798

501.7 -26.6262 2.7199e-12
-26.6262 499.491 -5.52358e-12
2.7199e-12 -5.52358e-12 501.201

515.651 -30.2028 5.17926e-12
-30.2028 498.405 -2.46588e-12
5.17926e-12 -2.46588e-12 504.92

429.224 -0.701283 -1.79405e-12
-0.701283 491.995 1.04687e-12
-1.79405e-12 1.04687e-12 454.146

474.882 -16.6225 6.53581e-12
-16.6225 428.338 1.10489e-12
6.53581e-12 1.10489e-12 441.957

462.307 12.8416 -3.85793e-12
12.8416 511.276 3.52311e-13
-3.85793e-12 3.52311e-13 489.123

240.777 -3.18054 -2.60925e-12
-3.18054 360.689 -1.07529e-11
-2.60925e-12 -1.07529e-11 226.966

432.405 14.2736 2.1884e-12
14.2736 485.358 -2.51177e-12
2.1884e-12 -2.51177e-12 456.884

458.113 -29.4892 -8.22986e-12
-29.4892 443.172 -1.1191e-13
-8.22986e-12 -1.1191e-13 440.764

304.188 25.1056 -1.78169e-12
25.1056 394.585 6.41383e-12
-1.78169e-12 6.41383e-12 264.342

603.552 26.0979 -7.85786e-12
26.0979 597.957 8.63147e-12
-7.85786e-12 8.63147e-12 558.159

608.286 -27.8073 -2.72123e-12
-27.8073 595.032 -2.01069e-12
-2.72123e-12 -2.01069e-12 558.292

463.495 -30.419 1.90603e-12
-30.419 459.04 -4.20434e-12
1.90603e-12 -4.20434e-12 459.074

434.586 -31.1602 5.98928e-12
-31.1602 436.361 4.35207e-13
5.98928e-12 4.35207e-13 424.664

474.103 20.8275 1.03325e-12
20.8275 431.917 3.35406e-12
1.03325e-12 3.35406e-12 443.974

465.224 15.0061 -5.24381e-12
15.0061 410.118 -9.39989e-13
-5.24381e-12 -9.39989e-13 427.465

646.07 3.0835 4.27939e-12
3.0835 645.729 5.92526e-12
4.27939e-12 5.92526e-12 574.621

649.891 -7.00005 -8.70119e-12
-7.00005 641.398 -5.12198e-12
-8.70119e-12 -5.12198e-12 575.149

496.99 4.8243 -5.38177e-12
4.8243 442.036 -7.02549e-13
-5.38177e-12 -7.02549e-13 477.415

443.559 6.73099 3.42541e-13
6.73099 502.991 1.67392e-12
3.42541e-13 1.67392e-12 471.052

441.973 6.73632 -4.44655e-12
6.73632 502.516 1.51879e-12
-4.44655e-12 1.51879e-12 469.775

321.537 58.6343 -7.55544e-13
58.6343 281.123 6.25988e-12
-7.55544e-13 6.25988e-12 225.078

420.23 -28.1998 2.61243e-12
-28.1998 444.025 2.83092e-12
2.61243e-12 2.83092e-12 421.033

520.58 17.9745 1.64106e-12
17.9745 467.532 -2.22163e-12
1.64106e-12 -2.22163e-12 499.511

472.982 9.53974 -3.74101e-12
9.53974 421.199 -1.87435e-12
-3.74101e-12 -1.87435e-12 436.205

440.632 -26.7233 -2.48749e-12
-26.7233 450.728 -9.26074e-13
-2.48749e-12 -9.26074e-13 433.417

469.278 -20.2377 2.95941e-12
-20.2377 422.718 -1.78228e-13
2.95941e-12 -1.78228e-13 437.178

312.474 60.2322 -3.68772e-12
60.2322 281.373 -7.21438e-12
-3.68772e-12 -7.21438e-12 223.216

492.683 31.0691 -3.36916e-12
31.0691 489.044 -1.97679e-12
-3.36916e-12 -1.97679e-12 493.14

410.865 -19.7861 8.60645e-13
-19.7861 457.883 8.78704e-13
8.60645e-13 8.78704e-13 423.5

474.13 28.8577 -3.76055e-12
28.8577 449.633 3.24777e-12
-3.76055e-12 3.24777e-12 456.52

430.958 -4.14483 6.68502e-13
-4.14483 492.975 1.85985e-12
6.68502e-13 1.85985e-12 456.469

423.932 19.6092 3.71643e-12
19.6092 465.713 -3.05237e-12
3.71643e-12 -3.05237e-12 434.11

452.749 30.5188 -1.08002e-12
30.5188 443.6 3.8393e-12
-1.08002e-12 3.8393e-12 439.61

428.645 -22.4732 2.07242e-14
-22.4732 461.139 -9.8351e-13
2.07242e-14 -9.8351e-13 433.815

443.576 -27.3525 -4.2976e-12
-27.3525 450.435 -8.71599e-13
-4.2976e-12 -8.71599e-13 435.047

294.779 11.257 2.91559e-12
11.257 372.587 -1.7503e-12
2.91559e-12 -1.7503e-12 258.103

357.299 -33.4562 9.15416e-13
-33.4562 389.118 6.91595e-13
9.15416e-13 6.91595e-13 314.13

419.66 -11.6905 1.31672e-13
-11.6905 476.363 1.84267e-12
1.31672e-13 1.84267e-12 439.347

478.399 26.4845 -2.49164e-12
26.4845 446.801 -2.61124e-12
-2.49164e-12 -2.61124e-12 456.086

452.347 29.4779 3.50416e-12
29.4779 449.028 -2.18373e-12
3.50416e-12 -2.18373e-12 442.401

426.81 -21.4339 1.42375e-12
-21.4339 461.786 5.35276e-13
1.42375e-12 5.35276e-13 432.632

422.932 -11.7824 -1.80182e-12
-11.7824 476.649 7.34228e-13
-1.80182e-12 7.34228e-13 439.93

457.708 28.4095 -3.01981e-14
28.4095 447.089 -4.50129e-12
-3.01981e-14 -4.50129e-12 442.573

425.107 -13.8778 -2.55144e-12
-13.8778 476.421 1.85392e-12
-2.55144e-12 1.85392e-12 442.107

311.266 27.855 2.78118e-12
27.855 377.392 2.80191e-12
2.78118e-12 2.80191e-12 289.985

485.172 -4.04126 4.4146e-12
-4.04126 545.051 1.1724e-12
4.4146e-12 1.1724e-12 511.038

432.987 31.0275 -2.13044e-12
31.0275 439.63 -4.20997e-12
-2.13044e-12 -4.20997e-12 426.021

509.312 14.9012 -1.1647e-12
14.9012 463.163 -1.07174e-13
-1.1647e-12 -1.07174e-13 488.607

516.923 -15.9275 3.59712e-13
-15.9275 467.584 -6.0929e-13
3.59712e-13 -6.0929e-13 493.925

383.926 -24.2045 3.6214e-12
-24.2045 305.949 -6.97516e-13
3.6214e-12 -6.97516e-13 285.355

442.281 -21.2672 -2.50259e-12
-21.2672 476.001 -9.14232e-13
-2.50259e-12 -9.14232e-13 459.322

447.829 26.6983 -6.37979e-12
26.6983 466.209 4.22773e-13
-6.37979e-12 4.22773e-13 457.843

522.977 -21.7278 -5.2219e-12
-21.7278 543.813 -1.06766e-13
-5.2219e-12 -1.06766e-13 525.311

579.585 14.1066 -9.97187e-12
14.1066 617.622 -1.63662e-12
-9.97187e-12 -1.63662e-12 557.054

620.209 9.44534 -7.95379e-12
9.44534 576.843 2.54019e-13
-7.95379e-12 2.54019e-13 556.873

523.471 32.7055 1.16795e-12
32.7055 520.653 -4.20789e-12
1.16795e-12 -4.20789e-12 519.526

414.893 26.0004 2.47476e-12
26.0004 448.907 4.38879e-12
2.47476e-12 4.38879e-12 420.378

478.097 26.6615 7.83373e-13
26.6615 444.771 -8.15141e-12
7.83373e-13 -8.15141e-12 455.509

332.364 45.186 1.50161e-12
45.186 349.49 -2.56506e-12
1.50161e-12 -2.56506e-12 286.741

571.392 -11.3436 2.03348e-12
-11.3436 614.473 4.23602e-12
2.03348e-12 4.23602e-12 554.597

641.327 -3.43291 9.57567e-14
-3.43291 636.87 -2.56491e-12
9.57567e-14 -2.56491e-12 572.397

634.905 -0.210014 -7.29106e-12
-0.210014 643.178 -2.87081e-12
-7.29106e-12 -2.87081e-12 572.224

272.964 -53.8026 6.75489e-12
-53.8026 316.448 2.60532e-12
6.75489e-12 2.60532e-12 220.91

566.64 -11.6 -7.65906e-13
-11.6 562.126 7.90745e-12
-7.65906e-13 7.90745e-12 540.9

563.773 8.81299 -2.43102e-12
8.81299 586.963 2.63819e-12
-2.43102e-12 2.63819e-12 546.841

478.245 -26.1995 1.19904e-12
-26.1995 440.443 -5.07446e-13
1.19904e-12 -5.07446e-13 453.483

494.35 1.01105 1.57914e-12
1.01105 545.76 2.98783e-12
1.57914e-12 2.98783e-12 514.058

447.652 -20.2679 6.55757e-12
-20.2679 484.159 -2.40756e-12
6.55757e-12 -2.40756e-12 470.638

506.302 6.25533 2.99316e-13
6.25533 443.376 2.32192e-12
2.99316e-13 2.32192e-12 486.126

461.276 15.5963 -4.64577e-13
15.5963 521.254 -4.73695e-15
-4.64577e-13 -4.73695e-15 497.558

471.182 7.1916 4.97149e-12
7.1916 528.007 1.17832e-12
4.97149e-12 1.17832e-12 497.692

493.764 20.3928 -9.11863e-12
20.3928 451.519 -3.64301e-12
-9.11863e-12 -3.64301e-12 469.752

241.066 -3.1139 -3.5482e-12
-3.1139 358.561 7.80413e-12
-3.5482e-12 7.80413e-12 227.064

463.702 -27.6237 3.04349e-12
-27.6237 463.392 -1.71122e-12
3.04349e-12 -1.71122e-12 461.192

488.346 -26.1163 -6.65068e-12
-26.1163 481.599 -5.37348e-13
-6.65068e-12 -5.37348e-13 485.87

497.539 -31.4837 5.65385e-12
-31.4837 489.959 -6.69835e-12
5.65385e-12 -6.69835e-12 498.982

355.601 32.7496 5.5896e-13
32.7496 285.779 7.84262e-13
5.5896e-13 7.84262e-13 248.367

563.883 -20.1165 -2.54522e-12
-20.1165 569.615 1.1217e-12
-2.54522e-12 1.1217e-12 542.572

337.648 54.3223 -7.60281e-13
54.3223 356.659 -7.10069e-12
-7.60281e-13 -7.10069e-12 258.876

477.073 -21.4395 -7.64588e-12
-21.4395 506.491 1.06433e-12
-7.64588e-12 1.06433e-12 500.245

504.774 14.6504 -4.24194e-12
14.6504 451.988 -2.55647e-13
-4.24194e-12 -2.55647e-13 481.561

449.832 -14.5724 3.04823e-12
-14.5724 396.988 5.17186e-12
3.04823e-12 5.17186e-12 400.841

452.595 24.0467 -2.43361e-12
24.0467 478.781 -2.44604e-12
-2.43361e-12 -2.44604e-12 467.849

493.668 20.428 -2.2838e-12
20.428 449.502 -5.33292e-12
-2.2838e-12 -5.33292e-12 469.343

505.567 11.4005 8.40883e-13
11.4005 564.417 -6.3558e-12
8.40883e-13 -6.3558e-12 526.713

475.897 -31.5802 -6.05353e-12
-31.5802 470.357 3.15836e-12
-6.05353e-12 3.15836e-12 475.065

559.271 19.8124 -1.93268e-12
19.8124 510.441 3.33097e-12
-1.93268e-12 3.33097e-12 526.488

439.959 -18.4434 -1.79975e-12
-18.4434 482.466 6.05738e-12
-1.79975e-12 6.05738e-12 459.15

465.899 4.28318 2.14814e-12
4.28318 526.109 2.46618e-12
2.14814e-12 2.46618e-12 495.511

588.641 9.92677 -3.93345e-12
9.92677 552.463 5.17497e-12
-3.93345e-12 5.17497e-12 545.19

590.424 -8.51339 -2.24324e-12
-8.51339 554.805 -1.11126e-12
-2.24324e-12 -1.11126e-12 545.707

382.31 18.5123 -7.34227e-14
18.5123 302.288 -5.19288e-13
-7.34227e-14 -5.19288e-13 286.135

502.679 7.96502 -8.79297e-14
7.96502 453.601 9.96388e-13
-8.79297e-14 9.96388e-13 487.766

232.816 7.74046 -4.45658e-12
7.74046 381.516 -1.76688e-12
-4.45658e-12 -1.76688e-12 187.187

236.985 -11.3851 1.80067e-12
-11.3851 387.21 3.19744e-12
1.80067e-12 3.19744e-12 189.451

249.288 56.4067 3.55982e-12
56.4067 354.777 -2.20742e-12
3.55982e-12 -2.20742e-12 184.023

505.016 -28.9505 9.22521e-13
-28.9505 478.616 1.09542e-12
9.22521e-13 1.09542e-12 491.344

258.472 -49.1902 2.21452e-12
-49.1902 341.842 4.39352e-12
2.21452e-12 4.39352e-12 220.734

249.293 -55.9492 4.48116e-12
-55.9492 344.752 1.71478e-12
4.48116e-12 1.71478e-12 181.116

434.655 26.22 -4.56287e-12
26.22 454.393 -3.63916e-12
-4.56287e-12 -3.63916e-12 432.825

329.924 73.8435 1.79057e-12
73.8435 280.011 1.18424e-14
1.79057e-12 1.18424e-14 184.828

540.128 13.0473 -5.40309e-13
13.0473 554.948 -7.79495e-12
-5.40309e-13 -7.79495e-12 532.078

562.385 0.0394205 5.61758e-12
0.0394205 532.455 2.41614e-12
5.61758e-12 2.41614e-12 531.871

338.603 -73.1289 -3.57166e-12
-73.1289 279.858 -5.41907e-12
-3.57166e-12 -5.41907e-12 186.31

432.67 -23.4239 1.79116e-12
-23.4239 466.311 -1.12325e-12
1.79116e-12 -1.12325e-12 447.572

358.932 34.7289 -7.4607e-13
34.7289 310.976 5.30657e-12
-7.4607e-13 5.30657e-12 258.038

267.705 63.4905 2.29979e-12
63.4905 345.211 9.37916e-13
2.29979e-12 9.37916e-13 185.845

293.693 21.63 -6.1687e-12
21.63 367.661 -4.11641e-12
-6.1687e-12 -4.11641e-12 254.497

267.577 -65.9193 2.72848e-12
-65.9193 344.846 8.19493e-13
2.72848e-12 8.19493e-13 184.301

291.64 -12.381 1.79294e-12
-12.381 370.883 2.38742e-12
1.79294e-12 2.38742e-12 253.443

550.308 6.84172 4.94974e-12
6.84172 582.078 2.5846e-12
4.94974e-12 2.5846e-12 541.118

329.89 -45.9744 -7.06872e-12
-45.9744 341.816 -2.76875e-12
-7.06872e-12 -2.76875e-12 276.615

259.782 47.5315 -4.31773e-12
47.5315 340.217 -4.40536e-13
-4.31773e-12 -4.40536e-13 223.146

370.217 37.9111 -2.25953e-12
37.9111 244.92 2.67815e-12
-2.25953e-12 2.67815e-12 187.357

481.891 -29.2856 -2.37913e-12
-29.2856 460.512 -7.89591e-12
-2.37913e-12 -7.89591e-12 467.715

480.978 12.8967 -7.7612e-13
12.8967 525.83 -2.46114e-12
-7.7612e-13 -2.46114e-12 504.105

354.419 -38.1121 9.52127e-13
-38.1121 300.077 4.42431e-12
9.52127e-13 4.42431e-12 251.815

482.535 -28.8021 2.61776e-12
-28.8021 460.322 4.47405e-12
2.61776e-12 4.47405e-12 468.464

365.264 -36.343 1.71478e-12
-36.343 230.989 -1.67807e-12
1.71478e-12 -1.67807e-12 182.77

481.503 -28.3173 -4.64636e-12
-28.3173 472.756 1.84386e-12
-4.64636e-12 1.84386e-12 477.919

436.354 -25.2947 -3.39906e-12
-25.2947 466.225 -6.94556e-13
-3.39906e-12 -6.94556e-13 448.21

314.799 69.4599 -5.3196e-12
69.4599 292.142 2.65506e-12
-5.3196e-12 2.65506e-12 184.524

290.782 -22.9326 3.09441e-12
-22.9326 359.165 3.59535e-12
3.09441e-12 3.59535e-12 247.029

312.401 -71.6919 0
-71.6919 288.122 1.73846e-12
0 1.73846e-12 182.027

268.547 50.737 9.02389e-13
50.737 320.06 -8.5502e-13
9.02389e-13 -8.5502e-13 221.505

459.862 -30.212 -8.05874e-13
-30.212 454.846 -5.95435e-12
-8.05874e-13 -5.95435e-12 454.401

559.287 -14.6403 2.01913e-13
-14.6403 544.413 3.0805e-12
2.01913e-13 3.0805e-12 533.718

635.923 11.0926 -3.14563e-12
11.0926 631.384 5.53202e-12
-3.14563e-12 5.53202e-12 570.02

619.958 -5.16001 -7.90923e-13
-5.16001 639.739 -7.59041e-12
-7.90923e-13 -7.59041e-12 568.498

453.87 13.0836 -4.80856e-13
13.0836 506.556 1.6153e-12
-4.80856e-13 1.6153e-12 482.573

634.152 -10.6669 2.75335e-14
-10.6669 631.314 8.11247e-12
2.75335e-14 8.11247e-12 569.875

622.696 4.09175 7.87814e-13
4.09175 642.685 7.92288e-12
7.87814e-13 7.92288e-12 569.699

643.375 7.43403 3.70977e-12
7.43403 619.148 1.38038e-12
3.70977e-12 1.38038e-12 569.022

584.777 -12.1151 -7.45537e-12
-12.1151 631.668 -9.06386e-13
-7.45537e-12 -9.06386e-13 560.594

307.444 -30.4699 -3.60896e-12
-30.4699 371.633 1.07742e-11
-3.60896e-12 1.07742e-11 280.77

589.626 -12.9721 -2.53279e-12
-12.9721 549.114 3.67587e-12
-2.53279e-12 3.67587e-12 543.827

527.207 -34.4177 -1.53211e-12
-34.4177 521.487 3.60956e-12
-1.53211e-12 3.60956e-12 519.966

565.465 -18.1768 1.89685e-12
-18.1768 537.99 3.23504e-12
1.89685e-12 3.23504e-12 534.259

502.571 15.4592 2.29979e-12
15.4592 452.116 -1.94393e-12
2.29979e-12 -1.94393e-12 480.208

586.35 9.8642 3.61774e-12
9.8642 642.136 -1.88886e-13
3.61774e-12 -1.88886e-13 563.104

636.658 19.2276 -1.07184e-11
19.2276 591.723 -9.77414e-12
-1.07184e-11 -9.77414e-12 562.925

569.777 11.3063 7.44116e-12
11.3063 544.339 -4.56168e-12
7.44116e-12 -4.56168e-12 536.437

353.443 -15.3393 -9.42653e-13
-15.3393 231.516 -3.51363e-12
-9.42653e-13 -3.51363e-12 219.014

437.207 24.964 -2.79066e-12
24.964 461.913 1.29023e-12
-2.79066e-12 1.29023e-12 445.723

317.091 -61.3544 -8.0315e-12
-61.3544 277.849 9.11863e-13
-8.0315e-12 9.11863e-13 218.089

334.209 -57.457 -7.18359e-12
-57.457 357.323 1.18424e-14
-7.18359e-12 1.18424e-14 252.54

383.334 -36.5439 4.33431e-13
-36.5439 305.739 3.61074e-12
4.33431e-13 3.61074e-12 257.76

562.497 -5.15895 -1.49273e-12
-5.15895 616.952 6.45158e-12
-1.49273e-12 6.45158e-12 552.951

562.204 2.89124 1.98286e-12
2.89124 615.817 8.57581e-12
1.98286e-12 8.57581e-12 552.549

598.771 -24.4563 -3.04941e-14
-24.4563 575.743 1.12554e-12
-3.04941e-14 1.12554e-12 551.579

602.33 -21.7605 5.97185e-12
-21.7605 573.434 3.11987e-12
5.97185e-12 3.11987e-12 551.845

598.784 26.1359 -2.31607e-12
26.1359 580.458 3.89962e-12
-2.31607e-12 3.89962e-12 552.734

625.742 3.09943 2.13192e-12
3.09943 630.735 6.662e-12
2.13192e-12 6.662e-12 568.421

599.06 -20.5089 3.08109e-12
-20.5089 576.354 1.01282e-12
3.08109e-12 1.01282e-12 552.268

607.811 -18.5683 1.53033e-12
-18.5683 620.263 -1.43314e-11
1.53033e-12 -1.43314e-11 563.186

632.901 2.43449 -1.09555e-11
2.43449 635.527 -2.62344e-11
-1.09555e-11 -2.62344e-11 570.506

607.887 -20.5262 -2.18936e-13
-20.5262 572.427 4.68366e-13
-2.18936e-13 4.68366e-13 553.407

607.072 20.9558 2.43753e-12
20.9558 573.686 1.27306e-13
2.43753e-12 1.27306e-13 553.81

633.852 -3.45851 -9.20538e-12
-3.45851 636.778 5.10392e-12
-9.20538e-12 5.10392e-12 571.28

632.182 -3.11718 1.1712e-11
-3.11718 625.757 3.80377e-12
1.1712e-11 3.80377e-12 569.395

609.682 12.1098 2.22045e-13
12.1098 620.486 -5.80669e-12
2.22045e-13 -5.80669e-12 563.917

587.204 26.9296 2.46114e-12
26.9296 583.019 -8.0041e-12
2.46114e-12 -8.0041e-12 551.703

FIELD solute_concentration_TPM 2
S_ext 1 563 float
0.979663
0.979474
0.979494
0.979476
0.979445
0.979494
0.979663
0.979485
0.979511
0.979478
0.979624
0.979485
0.979489
0.979477
0.979453
0.979493
0.979469
0.979484
0.979515
0.979497
0.979503
0.979392
0.979499
0.979497
0.979498
0.97948
0.979614
0.979492
0.979562
0.979419
0.97949
0.979561
0.979619
0.979428
0.979427
0.979428
0.979415
0.97943
0.979491
0.979619
0.979562
0.979415
0.979415
0.97949
0.979594
0.979561
0.979513
0.979508
0.979494
0.979571
0.979566
0.979547
0.979443
0.979548
0.979445
0.9796
0.979427
0.979547
0.979427
0.979496
0.979468
0.979461
0.979611
0.979463
0.97946
0.979474
0.979468
0.979481
0.979498
0.979473
0.979444
0.979444
0.979563
0.97947
0.979495
0.979623
0.979455
0.979474
0.979481
0.97954
0.97958
0.97944
0.979464
0.979582
0.979561
0.979598
0.979492
0.979473
0.979594
0.9794
0.979547
0.9794
0.979452
0.979476
0.979547
0.979565
0.979581
0.979478
0.979455
0.979491
0.979529
0.979558
0.979581
0.979481
0.97948
0.979479
0.979463
0.979493
0.979582
0.979469
0.979496
0.979591
0.979585
0.979482
0.979479
0.979548
0.979429
0.979583
0.97943
0.979547
0.979519
0.979453
0.979473
0.979469
0.979469
0.979451
0.979433
0.979478
0.979581
0.979546
0.979442
0.979474
0.979464
0.979473
0.979559
0.979426
0.979592
0.979489
0.979463
0.979426
0.979556
0.979482
0.979519
0.979478
0.979584
0.979479
0.979484
0.979496
0.979495
0.979532
0.979507
0.979473
0.97956
0.979489
0.979478
0.979474
0.979476
0.979556
0.979555
0.979486
0.979508
0.979559
0.979594
0.979564
0.979554
0.979479
0.979555
0.979556
0.979561
0.979554
0.979451
0.979547
0.979565
0.979474
0.979547
0.979463
0.979451
0.979486
0.979445
0.979481
0.979563
0.979478
0.979478
0.979555
0.979472
0.979567
0.979469
0.979465
0.979453
0.979478
0.979472
0.979579
0.979546
0.979561
0.979474
0.979484
0.979482
0.979464
0.979473
0.979475
0.979473
0.979514
0.979539
0.979464
0.979563
0.979463
0.979475
0.979558
0.979459
0.979473
0.97946
0.979479
0.97948
0.979464
0.979531
0.979478
0.979538
0.979465
0.979468
0.979468
0.979468
0.979469
0.979469
0.979469
0.979478
0.979453
0.979453
0.979452
0.979453
0.979446
0.979445
0.979532
0.979476
0.979473
0.97951
0.979453
0.979453
0.979473
0.979538
0.979473
0.979478
0.979531
0.979458
0.979532
0.979464
0.979473
0.97953
0.979537
0.97958
0.979572
0.979464
0.979586
0.97949
0.979538
0.979515
0.979474
0.979468
0.979416
0.979468
0.97959
0.979537
0.979473
0.979485
0.979539
0.979468
0.979519
0.979416
0.979538
0.979468
0.97947
0.979482
0.979453
0.979474
0.979445
0.979488
0.979592
0.979598
0.97945
0.979501
0.979485
0.979534
0.979458
0.979475
0.979537
0.979476
0.979528
0.979484
0.979529
0.979538
0.979406
0.97945
0.979451
0.979451
0.979478
0.979528
0.97943
0.979471
0.979507
0.979527
0.979533
0.979449
0.979531
0.979454
0.979532
0.979594
0.979527
0.979585
0.979464
0.97953
0.979405
0.979531
0.979467
0.979532
0.979469
0.979531
0.979494
0.979618
0.979494
0.979532
0.979447
0.979531
0.979506
0.979472
0.979473
0.979531
0.979528
0.979519
0.979466
0.979527
0.979486
0.979493
0.979446
0.979528
0.97952
0.979505
0.979519
0.979529
0.979518
0.979461
0.979486
0.979519
0.979531
0.979482
0.979482
0.979528
0.979446
0.979631
0.979496
0.97958
0.979504
0.979689
0.979689
0.979687
0.979687
0.979684
0.979694
0.979694
0.979464
0.979435
0.979485
0.979507
0.979514
0.979519
0.979484
0.979519
0.97952
0.979436
0.979518
0.97946
0.979547
0.979454
0.979495
0.979507
0.979519
0.979451
0.979496
0.979506
0.979495
0.979506
0.979517
0.979541
0.979507
0.979497
0.979459
0.979514
0.979518
0.979514
0.979508
0.979497
0.979483
0.979514
0.979483
0.979496
0.979507
0.979485
0.979496
0.979517
0.979468
0.979505
0.979436
0.979594
0.979464
0.979462
0.979497
0.979506
0.979473
0.979631
0.979494
0.979506
0.979616
0.979409
0.97941
0.979494
0.979515
0.979504
0.979514
0.979391
0.97939
0.979482
0.979486
0.979486
0.979635
0.979517
0.979467
0.97951
0.979511
0.979508
0.97963
0.97947
0.979516
0.979496
0.979495
0.97951
0.979506
0.97951
0.97951
0.979617
0.979584
0.979506
0.979496
0.979505
0.979511
0.979506
0.979505
0.979505
0.979596
0.979455
0.979514
0.979474
0.979469
0.979597
0.979494
0.979495
0.979446
0.979404
0.979404
0.979449
0.979518
0.979496
0.979598
0.979407
0.97939
0.97939
0.979632
0.979429
0.979418
0.979498
0.979454
0.979486
0.979476
0.979466
0.979466
0.979487
0.97963
0.979493
0.979476
0.979467
0.979624
0.979424
0.979623
0.979465
0.97948
0.97953
0.979489
0.979487
0.979441
0.979483
0.979441
0.979494
0.979468
0.979422
0.979423
0.9796
0.979474
0.979665
0.979666
0.979665
0.979472
0.979637
0.979666
0.979511
0.979664
0.979439
0.979439
0.979665
0.979501
0.979621
0.979669
0.97962
0.97967
0.97962
0.979428
0.979604
0.979635
0.979663
0.979488
0.979462
0.979623
0.979488
0.979663
0.979481
0.979501
0.97967
0.979623
0.97967
0.979631
0.979496
0.979436
0.97939
0.979391
0.979477
0.97939
0.97939
0.979391
0.979402
0.979601
0.979423
0.97945
0.979436
0.97948
0.9794
0.9794
0.979435
0.979632
0.979502
0.979639
0.979627
0.979618
0.979408
0.979408
0.97941
0.97941
0.979408
0.979394
0.979413
0.979401
0.979394
0.97941
0.97941
0.979393
0.979393
0.9794
0.979412
P_ext 1 563 float
0.0196193
0.0196145
0.0196152
0.0196146
0.0196128
0.0196152
0.0196193
0.0196149
0.0196157
0.0196146
0.0196185
0.0196149
0.019615
0.0196146
0.0196132
0.0196152
0.0196142
0.0196148
0.0196159
0.0196154
0.0196155
0.0196096
0.0196154
0.0196153
0.0196154
0.0196147
0.0196183
0.0196151
0.0196172
0.0196112
0.0196151
0.0196171
0.0196184
0.0196118
0.0196118
0.0196118
0.0196111
0.0196119
0.0196151
0.0196184
0.0196171
0.0196111
0.0196111
0.0196151
0.0196179
0.0196171
0.0196158
0.0196157
0.0196152
0.0196174
0.0196172
0.0196167
0.0196127
0.0196168
0.0196128
0.019618
0.0196118
0.0196168
0.0196118
0.0196153
0.0196142
0.0196138
0.0196182
0.0196138
0.0196137
0.0196143
0.0196141
0.0196148
0.0196154
0.0196144
0.0196128
0.0196128
0.0196172
0.0196141
0.0196153
0.0196185
0.0196134
0.0196143
0.0196147
0.0196166
0.0196175
0.0196126
0.0196139
0.0196176
0.0196171
0.019618
0.0196151
0.0196142
0.0196179
0.0196098
0.0196168
0.0196098
0.0196132
0.0196143
0.0196168
0.0196172
0.0196176
0.0196146
0.0196134
0.0196151
0.0196163
0.0196171
0.0196176
0.0196148
0.0196147
0.0196147
0.0196138
0.0196151
0.0196176
0.0196142
0.0196153
0.0196178
0.0196177
0.0196148
0.0196147
0.0196168
0.0196118
0.0196176
0.0196118
0.0196168
0.019616
0.0196134
0.0196145
0.0196141
0.0196142
0.0196132
0.019612
0.0196146
0.0196176
0.0196167
0.0196126
0.0196145
0.0196139
0.0196145
0.0196171
0.0196117
0.0196178
0.019615
0.0196138
0.0196117
0.019617
0.0196147
0.019616
0.0196146
0.0196177
0.0196147
0.0196147
0.0196152
0.0196152
0.0196163
0.0196156
0.0196144
0.0196171
0.0196151
0.0196146
0.0196145
0.0196145
0.019617
0.019617
0.019615
0.0196157
0.0196171
0.0196179
0.0196172
0.0196169
0.0196147
0.019617
0.019617
0.0196171
0.0196169
0.0196132
0.0196168
0.0196172
0.0196144
0.0196168
0.0196139
0.0196132
0.0196148
0.0196128
0.0196147
0.0196172
0.0196147
0.0196146
0.019617
0.0196142
0.0196173
0.0196142
0.0196139
0.0196132
0.0196147
0.0196142
0.0196176
0.0196167
0.0196171
0.0196145
0.0196149
0.0196148
0.019614
0.0196145
0.0196144
0.0196145
0.0196159
0.0196166
0.019614
0.0196172
0.0196139
0.0196143
0.019617
0.0196136
0.0196144
0.0196135
0.0196146
0.0196147
0.0196139
0.0196163
0.0196145
0.0196166
0.0196139
0.0196142
0.0196142
0.0196142
0.0196143
0.0196143
0.0196143
0.0196145
0.0196133
0.0196133
0.0196133
0.0196133
0.0196128
0.0196127
0.0196164
0.0196145
0.0196145
0.0196158
0.0196132
0.0196132
0.0196144
0.0196165
0.0196145
0.0196146
0.0196164
0.0196135
0.0196164
0.0196139
0.0196145
0.0196163
0.0196165
0.0196176
0.0196174
0.0196139
0.0196177
0.0196151
0.0196166
0.0196158
0.0196145
0.0196142
0.0196111
0.0196142
0.0196178
0.0196165
0.0196145
0.0196148
0.0196166
0.0196142
0.019616
0.0196111
0.0196165
0.0196141
0.0196142
0.0196149
0.0196133
0.0196142
0.0196128
0.019615
0.0196178
0.019618
0.019613
0.0196155
0.0196149
0.0196164
0.0196135
0.0196145
0.0196165
0.0196144
0.0196163
0.0196147
0.0196163
0.0196165
0.0196104
0.0196131
0.0196132
0.0196132
0.0196146
0.0196163
0.0196119
0.0196143
0.0196156
0.0196162
0.0196164
0.019613
0.0196164
0.0196132
0.0196164
0.0196179
0.0196162
0.0196177
0.0196139
0.0196163
0.0196104
0.0196164
0.019614
0.0196164
0.0196141
0.0196163
0.0196152
0.0196184
0.0196152
0.0196164
0.019613
0.0196163
0.0196156
0.0196142
0.0196145
0.0196163
0.0196163
0.019616
0.0196139
0.0196162
0.0196149
0.0196152
0.0196129
0.0196163
0.019616
0.0196155
0.019616
0.0196163
0.019616
0.0196136
0.0196149
0.019616
0.0196163
0.0196147
0.0196147
0.0196162
0.0196129
0.0196187
0.0196152
0.0196176
0.0196155
0.0196199
0.0196199
0.0196198
0.0196198
0.0196198
0.01962
0.01962
0.0196138
0.0196121
0.0196149
0.0196156
0.0196159
0.019616
0.0196147
0.019616
0.019616
0.0196121
0.019616
0.0196136
0.0196167
0.0196134
0.0196152
0.0196156
0.019616
0.019613
0.0196152
0.0196156
0.0196152
0.0196156
0.019616
0.0196166
0.0196156
0.0196153
0.0196136
0.0196158
0.019616
0.0196159
0.0196157
0.0196153
0.0196147
0.0196159
0.0196147
0.0196152
0.0196156
0.0196148
0.0196153
0.0196159
0.0196141
0.0196156
0.0196123
0.0196179
0.0196139
0.0196136
0.0196152
0.0196156
0.0196143
0.0196187
0.0196152
0.0196156
0.0196184
0.0196105
0.0196105
0.0196151
0.0196159
0.0196155
0.0196159
0.0196092
0.0196092
0.0196148
0.0196148
0.0196148
0.0196188
0.0196159
0.019614
0.0196158
0.0196158
0.0196157
0.0196187
0.0196141
0.0196159
0.0196152
0.0196152
0.0196158
0.0196156
0.0196158
0.0196157
0.0196184
0.0196177
0.0196156
0.0196152
0.0196156
0.0196158
0.0196156
0.0196155
0.0196156
0.0196179
0.0196134
0.0196158
0.0196144
0.0196141
0.0196179
0.0196152
0.0196153
0.0196128
0.0196104
0.0196104
0.019613
0.019616
0.0196152
0.019618
0.0196106
0.0196094
0.0196095
0.0196187
0.0196119
0.0196112
0.0196153
0.0196133
0.019615
0.0196145
0.019614
0.019614
0.0196148
0.0196187
0.0196152
0.0196144
0.019614
0.0196185
0.0196116
0.0196185
0.019614
0.0196146
0.0196163
0.0196151
0.0196149
0.0196126
0.0196148
0.0196126
0.0196152
0.0196141
0.0196113
0.0196113
0.019618
0.0196144
0.0196194
0.0196194
0.0196194
0.0196142
0.0196188
0.0196194
0.0196158
0.0196194
0.0196125
0.0196125
0.0196194
0.0196155
0.0196185
0.0196195
0.0196184
0.0196195
0.0196185
0.0196118
0.0196181
0.0196188
0.0196193
0.019615
0.0196138
0.0196185
0.0196149
0.0196193
0.0196147
0.0196154
0.0196195
0.0196185
0.0196195
0.0196187
0.0196153
0.0196123
0.0196095
0.0196096
0.0196145
0.0196095
0.0196095
0.0196095
0.0196101
0.019618
0.0196115
0.019613
0.0196122
0.0196146
0.01961
0.01961
0.0196122
0.0196187
0.0196155
0.0196189
0.0196186
0.0196184
0.0196107
0.0196107
0.0196108
0.0196108
0.0196107
0.0196096
0.0196108
0.0196099
0.0196095
0.0196106
0.0196106
0.0196095
0.0196096
0.0196099
0.0196108
FIELD solute_flux_TPM 2
S_ext 3 563 float
-5.35766e-05 1.79212e-05 -4.03188e-18
2.34303e-06 4.48727e-06 1.50362e-18
-8.30916e-06 -6.59714e-06 1.3332e-18
-2.73813e-06 2.7623e-06 -3.44527e-19
1.51892e-05 -4.34318e-06 -5.10298e-19
1.8048e-06 -1.03694e-05 3.3127e-19
-5.27583e-05 -1.81392e-05 -1.85772e-18
-9.07984e-06 -6.75293e-06 -8.48243e-19
1.44591e-05 6.13889e-07 1.15748e-18
7.51845e-06 -2.64546e-06 -2.19069e-18
3.56727e-05 8.30565e-06 1.70824e-18
1.51494e-06 -1.12387e-05 -1.84457e-18
8.97882e-06 7.3133e-06 -3.34279e-19
1.76186e-06 8.9922e-06 3.01314e-18
1.37711e-05 -2.02246e-06 1.71413e-18
-1.05452e-05 -1.71934e-07 3.37926e-19
1.8444e-06 9.27104e-06 8.2923e-19
6.70266e-06 -1.60584e-06 -3.38863e-19
6.43822e-06 1.12248e-05 1.81781e-18
-9.60948e-06 1.21611e-06 8.34527e-19
-2.32328e-06 -1.38092e-05 -1.49468e-18
2.86295e-05 4.03948e-05 1.41778e-18
1.03076e-05 1.05284e-06 -3.35641e-19
7.37152e-06 -7.36947e-06 1.33272e-18
-9.75047e-06 -2.15886e-06 -1.16283e-18
-4.21505e-07 -7.25795e-06 4.53653e-18
4.09367e-05 -3.20431e-06 1.41744e-18
9.26306e-06 6.7161e-06 1.3338e-18
-1.6205e-05 -1.31569e-05 4.86415e-19
3.24376e-05 -8.58706e-06 1.92066e-18
-1.07235e-05 -3.95113e-06 1.69321e-19
3.4612e-06 -2.07786e-05 4.8405e-18
3.07143e-05 -3.13066e-05 2.98339e-18
-3.45745e-06 -2.77125e-05 3.49136e-19
-1.95829e-05 2.43755e-05 -7.62447e-18
-2.57271e-05 -1.08516e-05 -1.76158e-19
2.15056e-05 2.81607e-05 1.64208e-19
-2.95993e-05 -5.79769e-06 -3.11541e-18
9.49393e-06 -7.21596e-06 4.96993e-19
3.00064e-05 3.26224e-05 -1.25802e-18
2.09214e-05 -9.15668e-06 1.93195e-18
2.19323e-05 -2.71047e-05 7.13067e-18
-1.25139e-05 -3.25258e-05 6.45303e-18
-1.02759e-05 4.16033e-06 5.02116e-19
1.96528e-05 -1.92226e-05 1.2648e-18
-1.94065e-05 6.89936e-06 -1.93283e-18
-2.66441e-06 -1.31575e-05 -2.14845e-18
5.12416e-06 1.31215e-05 1.32783e-18
-1.06138e-05 3.85494e-06 1.17683e-18
-1.16646e-05 1.83432e-05 1.66134e-19
2.11109e-05 9.94319e-06 -1.28403e-18
1.90822e-05 -6.62389e-06 2.59299e-18
-1.03954e-05 1.04131e-05 -6.17272e-18
-1.51091e-05 -1.3124e-05 -1.95058e-18
-1.40011e-05 -3.42884e-06 -1.19112e-18
-2.86481e-05 1.70616e-05 -3.64762e-18
-1.93866e-05 -2.50856e-05 -2.61742e-18
3.98913e-06 -1.97566e-05 6.5008e-19
-3.14259e-05 4.28831e-06 3.30998e-19
3.9574e-06 8.93721e-06 -1.66627e-18
-3.63723e-06 -5.39786e-06 -5.06609e-19
-4.28968e-06 -1.18393e-05 -1.69316e-19
3.6987e-05 1.61188e-05 -6.29838e-19
6.14927e-06 1.19292e-05 -6.92066e-19
8.16084e-06 -9.51116e-06 2.72362e-18
-1.12233e-06 -1.36324e-05 -3.35736e-19
3.07848e-06 -5.78952e-06 2.53565e-18
-6.54936e-06 -3.64306e-06 -5.03757e-19
-6.92021e-06 7.69923e-06 -1.32955e-18
1.67886e-06 -2.76708e-06 -1.35213e-18
-9.96495e-06 -1.04747e-05 -2.93387e-18
-1.4121e-05 3.43772e-06 5.82146e-18
-2.48593e-06 2.21334e-05 -4.18911e-18
-1.17266e-05 7.0249e-06 2.54662e-18
-5.91334e-06 9.43383e-06 -1.67073e-18
-3.82097e-05 4.75278e-06 -2.19259e-18
5.22384e-06 -1.42847e-05 1.5439e-18
-1.24006e-05 -5.76216e-06 -5.14398e-19
1.25148e-06 7.60761e-06 -1.67505e-18
1.71753e-05 3.2977e-06 -2.44347e-18
2.21375e-05 -1.88657e-05 1.44223e-18
1.47481e-05 1.35697e-05 -1.7337e-18
7.96208e-06 -1.94432e-06 1.8688e-18
-2.06123e-05 1.51079e-05 -2.86383e-18
2.46198e-05 3.1562e-06 1.13608e-18
-3.55207e-06 3.16411e-05 -1.58019e-18
-1.14355e-06 -1.0972e-05 5.07668e-19
1.20411e-05 6.53616e-06 1.01538e-18
1.8901e-05 1.97952e-05 3.20153e-19
4.25363e-05 2.64427e-05 2.98279e-18
-3.51703e-06 1.98543e-05 -8.15936e-19
4.44303e-05 -2.49684e-05 1.74175e-18
-1.79732e-05 3.46839e-06 -3.28613e-19
1.18427e-05 7.32304e-06 1.68351e-18
-1.89687e-05 6.31366e-06 -9.75165e-19
1.06999e-05 1.85663e-05 -3.2073e-18
6.3655e-06 -2.856e-05 6.08692e-18
1.26234e-06 7.60344e-06 -1.67898e-18
-9.69086e-06 -1.16373e-05 2.55763e-18
1.9853e-06 1.13877e-05 -4.18545e-18
1.72072e-05 3.44202e-06 -1.15427e-18
-1.00046e-05 2.12737e-05 -1.45764e-18
2.62978e-05 -8.76761e-06 7.99053e-19
-2.48386e-06 4.82633e-06 1.68614e-19
6.59902e-06 3.83801e-06 6.71599e-19
-1.46316e-06 -7.38039e-06 3.19167e-18
2.16127e-06 -1.2707e-05 3.05817e-18
1.14697e-05 2.56472e-06 3.67379e-18
-5.31837e-06 2.64257e-05 -3.99794e-18
-6.50567e-06 1.20757e-07 3.37303e-18
6.12516e-06 7.75539e-06 3.4972e-18
-1.74463e-06 -2.69375e-05 3.01956e-18
2.7274e-05 8.46712e-06 -6.34571e-19
2.93743e-06 -4.85706e-06 -6.69251e-19
-7.23354e-06 -2.33334e-06 -1.5124e-18
-1.87385e-05 -7.97237e-06 -1.14049e-18
1.06342e-05 2.7756e-05 8.52005e-19
-2.7554e-05 -9.8173e-06 -2.55524e-18
1.07827e-05 -2.78299e-05 -7.15214e-19
-2.43566e-06 -2.05762e-05 4.86763e-19
1.42867e-05 3.92585e-07 -3.95384e-18
-4.75171e-06 1.22236e-05 -1.62004e-19
-1.05045e-06 2.58492e-06 -2.68637e-18
-2.45668e-06 -1.08874e-05 1.00637e-18
3.48154e-06 -5.60736e-06 -8.31721e-21
6.21072e-06 1.04772e-05 1.18062e-18
2.23359e-05 7.29597e-06 3.97484e-18
5.75472e-06 -4.85367e-06 6.73955e-19
-5.45814e-06 -2.89071e-05 -4.8082e-19
1.66185e-05 -1.22534e-05 2.93014e-18
3.30544e-06 1.84193e-05 1.02432e-18
-1.82259e-06 -1.87012e-06 -8.40822e-19
-5.70651e-06 -5.47546e-06 -1.88391e-19
-3.14574e-06 6.27378e-08 6.67572e-19
-1.47138e-05 1.81651e-05 2.75748e-18
1.29189e-05 -2.49996e-05 3.29615e-18
-1.71833e-05 2.71589e-05 -1.5911e-18
-1.06136e-05 6.18627e-06 2.51999e-18
1.66029e-06 8.16433e-06 -3.48123e-19
-1.51617e-05 -2.36695e-05 3.99393e-18
8.92258e-06 2.16308e-05 -2.91404e-18
1.15965e-05 6.09111e-06 -6.69194e-19
1.48902e-05 -5.62311e-06 -1.48655e-18
-8.2764e-07 -7.37206e-06 -3.02824e-18
-2.16399e-05 -1.99015e-05 7.60622e-22
-1.77915e-06 7.38068e-06 1.33206e-18
1.13989e-05 6.72536e-06 3.37012e-19
1.24151e-05 -5.86204e-06 3.36121e-19
5.43907e-06 -9.34006e-06 -1.16421e-18
1.58981e-05 -7.04878e-06 -4.91403e-19
1.24703e-05 -5.90501e-06 1.48943e-18
3.1346e-06 1.97149e-07 2.51928e-18
1.66741e-05 1.32004e-05 -4.7851e-19
-1.75098e-06 -1.10633e-05 -9.98003e-19
-6.86634e-06 -2.86371e-06 -2.02415e-18
7.55597e-07 -2.53707e-06 3.36295e-18
-2.10948e-06 1.03785e-05 -1.52079e-18
-2.21904e-05 1.75283e-06 -4.83035e-19
-7.8479e-06 -2.12872e-05 -1.61278e-19
-5.14459e-06 6.33507e-06 -5.04087e-19
8.85073e-06 1.08089e-05 -1.61123e-19
1.72057e-05 -1.22705e-05 3.71031e-18
-2.36009e-05 -1.27953e-05 -3.16626e-18
1.11838e-05 -1.79309e-05 -4.76366e-19
1.47447e-05 -1.76584e-05 -4.82909e-19
-7.11238e-06 2.50597e-06 -1.66703e-19
-1.27507e-05 -1.83515e-05 -1.29869e-18
-2.21722e-05 -3.68852e-06 4.87886e-19
-2.6762e-06 -2.04098e-05 9.72906e-19
9.90021e-06 -2.0492e-05 -3.20223e-19
-6.06338e-06 -1.73374e-05 -5.16162e-19
2.84029e-06 2.02585e-05 -5.04017e-18
-1.02971e-05 -1.82418e-05 -6.38683e-19
1.98335e-06 -1.06712e-05 1.86904e-18
-1.58916e-05 1.15686e-05 2.11793e-18
-9.87974e-06 -8.00045e-06 1.69255e-18
-1.80916e-05 -3.36003e-06 1.69914e-18
1.03482e-05 -6.07712e-06 1.50742e-18
-2.83537e-06 1.58562e-05 -2.56389e-18
8.15259e-06 -6.1159e-06 -1.51831e-18
-1.8941e-05 -8.30368e-06 1.939e-18
-5.78907e-06 -4.82714e-06 3.30631e-19
6.03236e-06 4.90166e-06 -3.3574e-18
1.3856e-05 1.8604e-05 4.92442e-19
-1.14346e-05 -7.08869e-06 1.63747e-19
-2.07729e-05 -5.0208e-07 1.45003e-18
-1.07652e-05 -3.22925e-06 1.60193e-19
-3.02415e-06 -1.09001e-05 -4.06808e-18
1.18319e-05 1.42674e-05 1.52752e-18
-7.20232e-06 3.78211e-06 2.52337e-18
4.5145e-07 -1.34853e-05 3.4085e-19
-2.66745e-05 6.84044e-06 -2.39771e-18
1.61695e-05 1.31523e-05 1.95444e-18
2.34276e-06 2.12486e-05 -4.66813e-18
-1.57206e-06 2.51337e-06 1.34383e-18
-5.8662e-06 1.6419e-07 1.17388e-18
2.8815e-06 5.05496e-06 -1.16985e-18
-7.71924e-06 2.28361e-06 1.51051e-18
-1.34346e-06 -2.45901e-06 1.61371e-19
1.12554e-06 1.36159e-05 1.60358e-19
3.00393e-06 2.44127e-07 2.02057e-18
-1.25967e-05 3.04334e-06 4.63403e-18
-1.12247e-05 1.24028e-05 2.60879e-18
-2.02166e-06 7.65534e-06 1.19316e-18
-1.87906e-05 1.17093e-05 -4.75276e-19
-6.19289e-06 5.90835e-06 -2.0334e-18
1.14857e-05 -7.78939e-06 -3.41175e-19
2.37758e-05 -2.36352e-06 -8.06312e-19
-1.39714e-05 7.41502e-06 6.85562e-19
1.462e-06 2.99043e-06 -3.03203e-18
1.45914e-05 -2.82078e-06 -2.55776e-18
-1.12959e-05 6.80989e-06 -6.70971e-19
-6.42507e-06 3.63384e-06 3.02525e-18
7.95277e-06 2.56967e-06 -3.33771e-19
1.4242e-05 -8.8318e-06 1.80608e-18
-1.13788e-05 6.46673e-06 1.35443e-18
-1.60639e-05 -3.37746e-06 4.24528e-18
-1.10086e-05 -2.82625e-06 6.70475e-19
6.65815e-06 6.2747e-08 -1.68225e-18
6.82029e-06 7.34841e-08 2.0279e-18
2.91676e-06 5.47734e-06 -1.85531e-19
3.21339e-06 -5.79262e-06 2.86493e-18
-3.28596e-06 5.58647e-06 -1.65059e-19
-3.4422e-06 -5.71637e-06 -5.55275e-18
6.54421e-06 -4.95607e-06 -2.52588e-18
-1.34801e-05 2.16528e-06 7.64884e-18
-1.33284e-05 -2.20786e-06 -8.40576e-19
-8.52293e-06 1.05289e-05 1.71382e-19
-8.57092e-06 -1.05694e-05 -2.34792e-20
4.98432e-06 -1.33707e-05 1.18534e-18
4.80218e-06 1.32569e-05 1.53872e-19
9.63732e-07 1.67828e-05 8.18148e-19
7.4872e-06 -1.99495e-06 3.02681e-18
1.61817e-06 -2.51629e-06 -2.34891e-18
-1.37566e-05 9.27035e-07 3.39434e-19
5.14509e-06 -1.31556e-05 -1.2036e-18
4.87516e-06 1.3203e-05 2.02943e-18
3.16443e-06 -5.87837e-08 -1.18268e-18
5.76924e-06 1.58636e-05 1.30724e-18
-1.47283e-06 -2.6234e-06 1.65719e-19
1.54082e-06 -7.40684e-06 1.34207e-18
-1.44243e-05 -7.73557e-06 3.60563e-18
-1.41049e-05 -7.54807e-06 8.49421e-19
-1.41163e-05 8.73109e-06 1.63501e-18
2.14367e-06 -8.2685e-06 -8.01197e-21
-1.04665e-06 2.19771e-06 -4.19246e-18
-4.68118e-07 -1.65018e-05 -4.91378e-19
-5.07502e-06 -1.57023e-05 3.91877e-18
2.11875e-05 1.97327e-05 -1.50487e-19
2.31263e-05 -1.19474e-06 -6.43839e-19
-8.40978e-06 -2.44828e-06 1.79875e-19
-1.47616e-05 -2.62879e-05 3.2126e-19
5.45197e-06 8.95314e-06 1.68792e-19
-1.61911e-05 1.91059e-06 1.67404e-19
1.31447e-05 3.76766e-06 -1.98406e-18
-2.96121e-06 -1.24351e-08 -5.76034e-21
-3.07323e-06 -5.54756e-06 -2.53863e-18
-5.4354e-06 -2.58548e-05 5.08185e-19
-6.42247e-06 -2.23691e-08 -5.15694e-19
-3.06845e-05 -1.15165e-06 -3.02916e-18
1.12242e-05 -1.24745e-05 1.63203e-18
1.64701e-06 2.60764e-06 1.34723e-18
-7.95458e-08 -1.14461e-05 -2.18068e-18
-6.44322e-06 1.54756e-05 6.50566e-19
-2.89124e-06 5.6899e-06 1.17798e-18
1.34424e-05 -8.87712e-06 1.1538e-18
-2.51048e-05 -8.20068e-06 1.38594e-18
-9.89495e-06 -1.30624e-05 6.48019e-19
3.31501e-06 5.61715e-06 -1.69086e-18
1.10895e-05 3.32707e-06 -6.68514e-19
-3.10596e-06 -4.75465e-06 3.34504e-18
1.33129e-05 2.4306e-06 3.24823e-18
1.21118e-05 -6.4936e-06 1.66212e-19
-2.47107e-07 1.79528e-05 -6.89253e-19
5.47768e-06 -8.90675e-06 1.50685e-18
3.17091e-05 1.35331e-06 -1.61209e-19
-2.69394e-05 7.01834e-06 -2.05797e-18
1.53462e-05 7.66016e-06 3.92586e-18
-4.19213e-06 -1.10883e-05 2.32539e-18
-1.00007e-05 -5.58567e-06 -4.86697e-18
1.87409e-05 -1.54741e-07 8.17033e-19
-4.80636e-07 -1.60346e-05 1.11915e-20
-8.20681e-06 -7.15159e-06 -1.69411e-19
6.59389e-06 -1.52889e-05 -1.30459e-18
-3.68509e-07 1.34764e-05 -7.12507e-21
5.07231e-06 1.68718e-05 1.47878e-18
1.14189e-05 -6.55808e-06 -6.72441e-19
-1.22277e-05 1.23139e-05 2.4652e-18
1.07086e-05 1.30517e-05 6.51806e-19
-4.32698e-05 1.03208e-05 -1.68835e-19
-6.73707e-06 1.72147e-05 -1.69857e-19
8.31312e-06 -1.00907e-05 5.96822e-18
-4.62643e-06 -1.21715e-05 2.72996e-18
-7.78479e-06 2.88594e-06 2.02876e-18
-1.65702e-05 -4.5243e-06 8.1909e-19
-4.46233e-06 2.60493e-05 2.94467e-18
-8.23133e-06 7.87369e-06 -6.6955e-19
1.36043e-05 -2.98762e-06 1.16157e-18
-4.45294e-06 -1.66172e-05 3.12523e-18
-9.61417e-06 1.53037e-05 -1.47781e-18
-1.43873e-05 8.29015e-06 1.88682e-18
-1.32473e-05 -9.65395e-06 6.56764e-19
1.20772e-05 -1.39394e-05 3.31783e-19
-1.75896e-05 -9.33461e-07 1.81675e-18
7.74951e-06 -2.6552e-05 5.54377e-18
1.26245e-05 -1.2295e-05 -8.1909e-19
1.58606e-05 2.78632e-05 -6.24193e-18
1.29438e-06 1.30899e-05 1.58311e-19
1.88575e-06 -1.64855e-05 1.65489e-19
-2.81474e-05 3.30434e-05 5.33074e-19
-8.20071e-06 -1.56484e-05 -9.83972e-19
1.09652e-05 -4.23585e-06 -5.11322e-19
-1.65611e-06 1.66172e-05 -3.30447e-19
8.56033e-06 -7.96704e-06 -6.86265e-19
8.98111e-06 1.57518e-05 -1.63852e-19
1.13033e-05 -9.62261e-07 1.33585e-18
1.38802e-05 -4.06463e-05 3.32254e-18
-3.82142e-06 -8.33577e-06 1.66542e-18
-1.49077e-05 6.40412e-06 -1.63754e-18
-1.32666e-05 1.24063e-05 -1.87941e-18
1.40559e-05 9.50992e-06 -1.6388e-18
1.2234e-05 -7.08306e-06 1.49256e-18
9.88722e-06 8.38031e-06 3.20958e-18
-3.60065e-06 -1.35756e-08 2.8629e-18
9.97677e-06 -1.49734e-05 -1.96693e-18
-1.09535e-05 -1.304e-05 -8.23732e-19
1.47204e-05 6.39867e-06 -2.97466e-18
8.52158e-06 -8.01731e-06 -2.5461e-18
6.14291e-06 -1.60946e-05 -9.81473e-19
1.09754e-05 -4.65059e-06 3.33166e-19
-1.02534e-05 -4.88715e-06 1.50402e-18
8.79582e-07 -1.73687e-05 3.48804e-19
-1.67152e-05 2.87472e-06 -4.87621e-19
1.47819e-06 1.58854e-05 8.22063e-19
1.34755e-05 4.36024e-06 -9.98126e-19
-1.39693e-05 -6.88612e-06 -4.97548e-19
-5.82682e-06 1.64887e-05 1.15207e-18
-9.79649e-07 -1.5662e-05 -1.97609e-18
1.29833e-05 7.8859e-06 3.39689e-18
-1.12128e-06 1.18091e-05 -1.04098e-20
-1.30013e-05 8.74404e-06 3.27466e-19
1.53531e-05 7.42784e-06 6.5156e-19
-1.11221e-05 -6.5507e-06 2.01093e-18
1.12534e-07 -1.29663e-05 2.36189e-18
1.19607e-05 1.29724e-05 1.6697e-19
-1.45898e-05 -9.43425e-06 1.37115e-18
3.1375e-05 -2.24492e-05 2.32378e-18
1.17993e-05 -7.09605e-06 2.33538e-18
5.60048e-06 2.77499e-05 -4.81194e-18
1.11899e-05 -8.92198e-06 2.45491e-21
-1.46027e-05 5.63226e-05 -1.0365e-18
-1.46786e-05 -5.57868e-05 3.55443e-18
3.66634e-05 4.79249e-05 1.48512e-19
3.62224e-05 -4.79132e-05 5.33768e-18
5.98629e-05 -2.93674e-08 7.29039e-18
-5.15115e-05 2.08714e-05 -2.3796e-18
-5.06757e-05 -2.10893e-05 1.48306e-18
8.14671e-06 7.87664e-06 6.72126e-19
1.97482e-05 1.47064e-05 1.36765e-18
7.53775e-06 2.19828e-06 4.96926e-19
1.23784e-05 6.36701e-06 1.15961e-18
3.22034e-06 1.31259e-05 1.62895e-19
-1.21557e-05 -9.57366e-06 -1.72483e-19
1.13213e-05 -6.69797e-06 -1.17873e-18
1.29816e-05 9.46605e-06 -2.66903e-21
-2.07299e-06 1.57726e-05 1.15027e-18
1.98453e-05 -1.3503e-05 1.70474e-18
2.39871e-06 -1.53784e-05 -4.4549e-18
1.46731e-05 3.38112e-06 2.04669e-18
1.94163e-05 7.21103e-06 1.65277e-19
9.42683e-06 9.35205e-06 -6.96496e-19
1.04459e-05 4.331e-06 4.97387e-19
-1.19803e-05 7.05912e-06 5.05156e-19
-1.45213e-05 5.81633e-06 -1.6362e-19
1.54096e-05 -7.51289e-06 5.01596e-19
-1.1829e-05 -6.49034e-06 -5.27242e-21
-1.20041e-05 -6.79347e-06 3.47883e-18
-2.08422e-07 -1.35238e-05 -4.16901e-18
-9.90977e-08 -1.37323e-05 -4.6426e-18
-1.29593e-05 -6.51901e-07 1.65596e-19
1.74323e-05 -2.64397e-06 -8.12865e-19
1.18557e-05 7.43122e-06 4.95512e-19
-1.16154e-05 7.04231e-06 -6.61708e-19
-1.00823e-05 1.09897e-05 3.47464e-19
1.04675e-05 -9.00504e-06 -8.23527e-19
-7.18461e-06 1.12434e-05 1.31699e-18
-9.21139e-06 -9.58407e-06 4.91182e-19
-8.01323e-07 1.37435e-05 -3.41191e-19
-8.2544e-07 1.36526e-05 -2.50936e-18
3.0998e-08 -1.29699e-05 -6.66208e-19
3.96755e-06 -1.28464e-05 -1.57192e-19
-1.11869e-05 -6.43752e-06 1.1693e-18
1.02423e-05 -3.63352e-06 1.83195e-18
4.18069e-07 1.39674e-05 -1.16858e-18
1.73298e-07 1.20717e-05 -2.19038e-18
-1.54947e-06 1.09386e-05 9.94753e-19
1.43191e-05 -3.62297e-06 3.29924e-19
-1.09311e-05 3.46714e-06 3.49009e-19
2.65758e-06 1.39805e-05 2.81599e-18
-2.16987e-05 8.50603e-06 1.38456e-18
6.08172e-06 2.71278e-05 -6.01631e-18
-1.12327e-05 2.9586e-06 1.28097e-20
1.31742e-05 -7.79712e-06 -1.78847e-19
5.65387e-07 1.36841e-05 -3.34225e-18
-1.31921e-05 4.33971e-06 2.33606e-18
1.62302e-06 -1.06452e-05 -8.27739e-19
5.92309e-07 -3.75787e-05 1.39897e-18
1.2962e-06 1.14108e-05 -1.50708e-18
-1.1008e-05 8.99173e-06 -9.89167e-19
1.1187e-05 4.11717e-05 -4.74378e-18
3.15082e-05 2.61319e-05 2.0955e-18
3.61208e-05 -2.47137e-05 -1.7713e-18
9.76462e-06 -6.68404e-06 1.66634e-19
-1.02428e-05 9.03061e-06 -2.30402e-18
-1.3027e-05 -5.13309e-06 1.9919e-18
-1.26655e-05 -4.37418e-06 3.30301e-19
4.44186e-05 -1.22058e-05 -1.97225e-18
4.53087e-05 9.52748e-06 3.4395e-19
7.17159e-06 2.5114e-06 -1.1788e-18
4.53257e-07 1.27957e-05 -1.51433e-18
5.12495e-08 1.27875e-05 -1.51477e-18
-3.13032e-05 -2.29076e-05 3.12393e-19
7.4392e-06 -1.12002e-05 -2.96377e-18
7.79913e-06 8.34223e-06 1.60095e-19
-1.37606e-05 -2.20304e-06 2.71446e-21
-9.10644e-06 1.10426e-05 -9.94228e-19
-1.22143e-05 5.8822e-06 -8.23306e-19
3.09844e-05 2.22248e-05 -6.16945e-19
1.05148e-05 4.64765e-06 2.19885e-18
-3.6638e-06 1.29323e-05 -2.31455e-18
-1.10439e-05 -7.5604e-06 2.50042e-18
1.16936e-06 -1.33858e-05 -4.50393e-18
-5.78775e-06 -1.24384e-05 -1.60959e-19
-1.1156e-05 -7.59031e-06 -3.37847e-19
6.87844e-06 -1.23026e-05 6.61422e-19
9.24317e-06 -1.10445e-05 -1.49225e-18
-1.91182e-06 -3.93252e-05 -1.48317e-19
1.67794e-05 -2.66122e-05 4.80619e-18
1.13202e-06 -1.3517e-05 -3.98379e-18
1.18281e-05 7.40646e-06 -3.35537e-19
-9.39494e-06 -9.56882e-06 -2.33345e-18
-6.3822e-06 1.27029e-05 6.62565e-19
-3.26781e-06 1.36037e-05 -1.67082e-18
1.0905e-05 9.25898e-06 6.60935e-19
3.91222e-06 -1.29136e-05 -1.16144e-18
-9.00788e-06 -2.57968e-05 -3.80377e-18
-1.36024e-06 1.65638e-05 -1.75167e-19
9.65564e-06 9.43654e-06 2.80489e-18
-8.44516e-06 -6.68667e-06 8.43952e-19
-8.86807e-06 6.95819e-06 3.89284e-18
2.88695e-05 -1.24059e-05 1.10878e-18
4.94778e-06 -8.73131e-06 2.00022e-18
-5.42463e-06 -8.15124e-06 3.4965e-18
1.43348e-05 4.37628e-06 1.03523e-18
8.81841e-06 -3.18138e-05 2.43885e-18
-2.31475e-05 -2.35235e-05 3.15529e-18
1.563e-05 4.09184e-06 1.87868e-18
-6.07044e-06 -1.17754e-05 1.64934e-18
1.22903e-05 6.25465e-06 -4.17094e-18
-1.85805e-05 -2.06332e-05 2.5291e-18
7.14154e-06 3.23471e-05 3.32438e-18
3.13442e-05 -4.04836e-05 4.59909e-18
-1.93897e-05 -4.73765e-05 4.7857e-18
1.75123e-05 -3.4231e-05 5.97892e-21
-8.4134e-06 2.88977e-05 -1.20699e-18
-4.79498e-06 2.55919e-05 -1.6507e-19
-1.21489e-05 5.82252e-06 3.00975e-18
4.00592e-06 1.6013e-05 2.3827e-18
-1.56227e-06 8.21116e-06 3.00558e-18
6.69013e-06 2.15158e-06 -8.45907e-19
-2.13557e-06 1.06791e-05 -8.51478e-19
-1.59557e-07 1.38091e-05 1.60285e-19
1.09919e-05 6.40639e-06 5.01482e-19
5.47929e-07 3.74009e-05 -7.74364e-19
-9.5849e-06 6.90327e-06 3.93203e-21
1.05863e-05 -4.07771e-06 3.36567e-19
1.1311e-05 -2.92527e-06 5.08372e-19
-3.83375e-05 -5.50999e-06 -3.75675e-18
-2.29388e-05 1.09155e-05 -2.42028e-18
-2.78202e-05 -3.29873e-05 -3.08357e-19
5.72035e-06 5.48039e-06 -3.54114e-19
9.37811e-06 4.85596e-06 2.51423e-18
1.74634e-05 -2.78944e-06 -4.98672e-19
-5.26494e-06 -8.57037e-06 4.00998e-18
1.13395e-05 5.58501e-06 6.65196e-19
4.8822e-06 -1.99225e-05 2.7479e-18
-9.00141e-06 6.59187e-06 1.18324e-18
-1.48059e-05 -1.41871e-05 2.57868e-18
-3.78557e-06 1.05722e-05 -1.33968e-18
-2.20416e-06 1.36055e-05 1.68238e-18
2.29145e-05 1.42306e-05 -1.01986e-20
2.44313e-05 -1.29635e-05 -2.4515e-18
-2.67847e-05 -7.21254e-06 -3.63369e-18
5.0321e-06 5.11386e-06 -1.18565e-18
-3.13463e-06 6.53794e-05 -1.13289e-21
-1.23778e-08 -6.71571e-05 -9.2823e-19
3.31007e-05 5.6647e-05 1.53174e-18
-1.25793e-05 5.48243e-06 1.18949e-18
-1.77588e-05 3.58595e-05 -2.48303e-18
3.33042e-05 -5.46754e-05 2.14918e-18
-7.59196e-06 -1.17458e-05 -2.48702e-18
5.06407e-05 4.40854e-05 -1.69849e-18
1.59536e-05 -1.1865e-05 4.13348e-18
-2.31617e-06 -1.97383e-05 6.55142e-18
5.30604e-05 -4.31079e-05 3.56219e-18
-4.40966e-06 9.39169e-06 8.2667e-19
-3.4006e-05 -2.16028e-05 -2.19779e-18
-2.8002e-05 -5.84676e-05 -2.62998e-18
-1.58549e-05 -3.70154e-05 -1.71695e-18
-2.87879e-05 5.94254e-05 4.53741e-19
-6.81689e-06 4.11296e-05 -2.19948e-18
1.06886e-05 2.48109e-05 3.81525e-18
-1.82544e-05 2.34569e-05 -3.30651e-18
-1.69934e-05 -3.49095e-05 -1.08581e-18
6.51546e-05 1.14323e-05 2.6219e-18
-1.10601e-05 6.94081e-06 3.02517e-18
-3.92904e-06 1.07425e-05 -3.4864e-19
-3.22516e-05 2.32262e-05 -3.14159e-18
-1.12602e-05 6.46594e-06 3.41968e-19
6.45129e-05 -1.01926e-05 5.69415e-18
-1.00494e-05 5.04632e-06 1.0165e-18
4.71497e-06 -9.45996e-06 -1.33139e-18
-5.00938e-05 -3.81699e-05 1.07852e-18
-1.70811e-05 3.70479e-05 -3.91065e-18
-5.12874e-05 3.7897e-05 -1.3961e-18
1.549e-05 3.41037e-05 -1.96355e-22
-9.62288e-06 6.83459e-06 -1.66181e-18
-1.35631e-05 1.63033e-05 1.38586e-18
-2.41703e-05 3.03566e-05 -3.17659e-18
-3.78986e-05 -4.8876e-06 -4.76695e-18
-6.37787e-07 1.06826e-05 -5.12243e-19
-2.56005e-05 -3.04841e-05 3.70739e-18
-3.92119e-05 6.93473e-06 1.93082e-18
-1.49358e-05 3.46447e-05 4.00641e-21
-1.15275e-05 4.61168e-05 2.28975e-18
-1.19099e-05 2.64072e-05 -3.9461e-18
-2.23617e-05 1.80176e-05 1.04501e-18
1.64237e-05 -4.03819e-06 -5.17114e-19
2.56707e-05 -1.38082e-06 -1.04616e-18
8.92053e-06 5.43027e-06 -8.47029e-19
-8.09903e-06 -5.30604e-05 2.80108e-18
-5.00108e-05 -1.95031e-05 4.74132e-18
2.4997e-05 3.28624e-07 1.03062e-18
3.81492e-05 -7.36506e-06 2.63422e-18
-6.86463e-06 -8.71516e-06 -9.99127e-19
-3.31001e-05 2.32725e-05 -3.40516e-18
-2.96641e-05 3.39808e-05 -3.94125e-18
4.03276e-05 -1.45306e-05 -1.60533e-19
-1.86867e-05 -3.16637e-05 -2.46542e-18
-1.90209e-05 3.14188e-05 -5.23216e-18
-3.69052e-05 -1.3067e-06 -4.8838e-18
-1.67853e-05 3.30127e-05 3.5675e-19
-3.67881e-05 3.8133e-07 4.00447e-18
4.57598e-05 1.63868e-05 -3.64673e-19
3.69355e-05 1.35898e-06 4.70978e-18
3.47244e-05 -1.77904e-05 -2.65851e-18
1.01281e-05 -4.88127e-05 1.92764e-18
1.83535e-05 -3.19716e-05 2.77313e-18
1.8229e-05 3.19679e-05 -6.50041e-21
9.91843e-06 4.76945e-05 -2.1299e-18
4.99733e-05 -1.40916e-05 -1.76348e-18
3.20382e-05 1.58688e-05 -3.52904e-18
3.07932e-05 8.41324e-06 -6.96998e-19
P_ext 3 563 float
-1.05959e-06 3.58269e-07 -1.95407e-20
1.00358e-09 3.92416e-08 2.57526e-21
-9.76312e-08 -9.18132e-08 4.42124e-20
-3.0884e-08 2.85079e-08 -1.90903e-22
2.69413e-08 5.15711e-10 -1.28077e-19
3.21322e-08 -1.30406e-07 -1.29159e-20
-1.04323e-06 -3.62604e-07 -6.9597e-20
-7.65409e-08 -8.68309e-08 -5.47545e-21
2.12922e-07 3.7714e-09 1.29808e-20
7.7736e-08 -7.30197e-09 -1.86426e-20
6.8971e-07 1.61659e-07 -5.76691e-20
3.79066e-08 -1.10966e-07 -3.92702e-20
8.68691e-08 1.03405e-07 -7.81468e-21
-8.94957e-09 8.10031e-08 -2.08635e-20
2.43338e-08 9.01625e-09 -9.76043e-20
-1.36111e-07 -2.22814e-09 1.04815e-20
-1.70063e-08 5.3379e-08 5.04391e-21
8.20499e-08 -1.23801e-08 -4.95791e-20
9.42439e-08 1.68076e-07 7.4572e-20
-1.26441e-07 1.27508e-08 -6.9807e-20
-4.74682e-08 -1.7909e-07 -3.37222e-20
1.56591e-09 3.19819e-10 -8.50573e-20
1.40042e-07 1.14015e-08 2.57859e-20
8.91558e-08 -1.02941e-07 4.67087e-20
-1.29163e-07 -2.07986e-08 1.02957e-20
-2.4349e-08 -7.06822e-08 1.1275e-19
7.92913e-07 -6.48641e-08 7.70121e-21
9.71421e-08 8.1898e-08 1.51736e-22
-2.90116e-07 -2.30451e-07 -3.4873e-20
1.70464e-08 3.20724e-09 -7.25638e-20
-1.2969e-07 -2.30954e-08 -1.81654e-20
5.67004e-08 -3.68963e-07 1.80661e-20
5.95841e-07 -6.10216e-07 5.14609e-20
1.26888e-09 -2.79809e-08 4.0405e-20
-7.52957e-09 2.15187e-08 -1.00431e-19
-2.33573e-08 -1.53873e-08 9.9391e-20
3.09204e-09 1.54506e-08 1.33363e-20
-2.36155e-08 4.02177e-09 -1.1033e-20
9.381e-08 -1.02028e-07 -2.34349e-20
5.81428e-07 6.35933e-07 -4.65021e-20
3.71395e-07 -1.68266e-07 6.28293e-20
5.74425e-09 -1.41491e-08 5.47365e-20
-9.30028e-09 -1.2391e-08 8.7517e-20
-1.28834e-07 2.64634e-08 -1.03988e-19
3.68469e-07 -3.61853e-07 2.48179e-20
-3.43332e-07 1.23582e-07 1.49537e-20
-4.33772e-08 -1.89285e-07 -2.54156e-22
7.82667e-08 1.90122e-07 1.23414e-22
-1.23579e-07 3.23149e-08 3.1411e-20
-2.12652e-07 3.30747e-07 -1.14774e-19
3.76941e-07 1.84599e-07 -3.2674e-20
3.27304e-07 -1.0765e-07 5.07085e-20
-9.64178e-09 2.2915e-08 -1.0725e-19
-2.56138e-07 -2.29847e-07 -3.0502e-20
-2.51373e-08 3.31958e-09 -1.86179e-20
-5.49371e-07 3.22621e-07 -4.47444e-20
-6.99162e-09 -2.14289e-08 -4.64054e-20
7.2937e-08 -3.38243e-07 4.30911e-20
-2.18396e-08 -4.75785e-09 -8.65499e-20
5.72237e-08 1.14737e-07 -2.75695e-21
-3.05348e-08 -9.26524e-09 -1.57966e-20
-3.22406e-08 -3.02828e-08 -1.05784e-20
7.14929e-07 3.14754e-07 -2.51458e-21
-6.15665e-10 6.24358e-08 -1.61681e-20
9.64854e-09 -4.16577e-08 6.11215e-20
1.62132e-08 -9.26805e-08 2.66638e-21
-6.43528e-09 -3.03452e-08 2.65981e-20
-7.41752e-08 -1.88502e-08 -6.78667e-20
-8.63463e-08 1.0565e-07 5.02814e-21
2.3157e-08 -8.40772e-09 -4.99276e-20
-9.51001e-09 -2.35748e-08 -5.66521e-20
-2.48622e-08 -3.64451e-09 -4.22266e-20
-4.27985e-08 3.96511e-07 -3.2885e-20
-7.61812e-08 3.84788e-08 -4.80593e-21
-7.39093e-08 1.26418e-07 -1.97852e-22
-7.43439e-07 8.73852e-08 4.64462e-21
3.28545e-11 -5.88736e-08 -1.02684e-20
-7.15701e-08 -5.99656e-08 4.69494e-20
3.01379e-08 7.35419e-08 1.29014e-20
2.84931e-07 5.69633e-08 -1.28782e-20
4.08368e-07 -3.55312e-07 4.24637e-20
1.1194e-08 2.74123e-08 -3.78863e-22
2.76223e-08 8.57301e-09 -7.33853e-20
-3.80504e-07 2.81513e-07 -3.24456e-20
4.44157e-07 5.3999e-08 -9.93739e-21
-6.7321e-08 6.02005e-07 2.20035e-20
-2.33384e-08 -1.20649e-07 -3.36119e-20
8.19264e-08 5.77013e-08 -2.51031e-21
3.54418e-07 3.73761e-07 -3.68644e-20
6.4218e-09 2.85628e-09 -2.66119e-21
-6.83081e-08 3.40155e-07 2.36598e-21
5.80078e-09 -3.10667e-09 2.71717e-20
-4.10141e-08 2.79723e-08 1.88135e-20
8.85434e-08 3.60345e-08 2.36987e-20
-3.2753e-07 1.01254e-07 -3.80784e-20
1.901e-07 3.34038e-07 -1.02012e-20
1.18264e-07 -5.33959e-07 -4.33962e-21
2.78001e-08 7.2883e-08 2.86138e-20
-5.03008e-08 -2.99296e-08 6.39003e-20
4.16794e-08 1.333e-07 -3.12779e-21
2.77131e-07 4.7159e-08 -5.24615e-21
-1.83968e-07 3.80069e-07 -6.31457e-20
4.89044e-07 -1.59834e-07 -6.7045e-20
-2.71381e-08 5.92506e-08 7.871e-21
5.20122e-08 5.28251e-08 -5.47044e-20
-3.09145e-08 -7.13158e-08 1.3346e-19
-1.24366e-08 -5.4336e-08 -4.78114e-21
1.43856e-07 1.72457e-08 1.4325e-19
-1.04929e-07 4.90821e-07 -3.51015e-20
-2.42675e-08 1.4972e-08 -6.22731e-20
7.17547e-08 1.06338e-07 -3.85325e-20
-3.54812e-08 -5.03684e-07 -2.17366e-20
5.09536e-07 1.5299e-07 -3.45957e-20
3.46917e-08 -6.13037e-08 -2.08962e-20
-7.92027e-08 -9.05967e-09 -1.07181e-19
-3.25893e-07 -1.30802e-07 -4.82153e-20
1.61152e-08 1.72366e-08 5.16151e-21
-5.17668e-07 -1.81041e-07 -3.75729e-20
1.63602e-08 -1.71891e-08 2.10603e-20
-5.03369e-08 -3.5393e-07 -2.77328e-20
2.18443e-07 8.2894e-09 -5.56207e-21
-1.94565e-08 1.66012e-08 -5.27588e-20
5.22291e-09 2.38565e-08 -4.4632e-20
1.46136e-08 -6.39929e-08 -7.93962e-21
2.53817e-08 -1.18691e-08 -1.58742e-20
4.72478e-10 2.57081e-08 6.88115e-20
2.21917e-08 -2.77072e-09 1.13254e-19
4.14021e-08 -6.10803e-08 -6.25999e-20
-1.05993e-07 -5.40603e-07 -5.237e-20
2.80012e-07 -2.15556e-07 3.06412e-20
9.05746e-10 3.41136e-08 3.73516e-20
-2.36121e-08 -4.27055e-09 -4.97087e-20
-7.68238e-09 -2.64088e-08 1.27723e-20
-1.94709e-08 -1.37447e-08 1.27958e-19
-2.61774e-07 3.27118e-07 -1.10597e-19
-3.00713e-10 -2.59811e-08 9.7425e-20
-3.27443e-07 5.14137e-07 -1.0085e-20
-1.23064e-07 5.6594e-08 2.11875e-20
1.73048e-08 1.86605e-08 -2.91727e-20
-2.23682e-08 -1.30792e-08 3.55362e-20
1.59657e-07 3.85326e-07 2.31715e-21
9.21201e-08 8.21016e-08 -4.1791e-20
2.23596e-07 -7.37385e-08 -4.63632e-20
1.25834e-08 -6.88012e-08 -5.26142e-20
-4.05694e-07 -3.7384e-07 -8.19555e-20
-3.91191e-08 6.76046e-08 -2.61257e-20
1.01578e-07 5.41832e-08 -7.03188e-20
1.48535e-07 -5.11367e-08 -5.95982e-20
6.4146e-08 -1.28142e-07 -1.05308e-20
2.54284e-07 -1.17254e-07 3.54721e-20
1.69184e-07 -7.98568e-08 5.25395e-21
1.70024e-08 -1.40927e-08 -4.15817e-20
2.94949e-07 2.33302e-07 2.55331e-21
-4.26972e-08 -1.23473e-07 -2.5654e-21
-5.24407e-08 -4.48674e-08 6.49661e-20
-8.57362e-09 -2.2505e-08 7.35169e-20
1.17789e-08 8.80978e-08 -7.35834e-20
-3.94501e-07 2.82838e-08 4.79639e-20
-1.44117e-07 -3.76588e-07 1.49854e-20
-6.20667e-08 7.91145e-08 -9.36886e-23
1.2205e-07 1.62658e-07 4.38689e-20
3.03588e-07 -2.15324e-07 4.30362e-20
-4.43804e-07 -2.37282e-07 -1.01365e-19
1.97437e-07 -3.21409e-07 8.25401e-20
2.57091e-07 -3.16242e-07 7.51697e-21
-7.57207e-08 7.50004e-09 -9.13453e-20
-2.25694e-07 -3.26597e-07 9.898e-21
-3.95068e-07 -6.19183e-08 -1.50205e-20
-4.70833e-08 -3.60531e-07 -1.24761e-20
1.75748e-07 -3.63256e-07 4.04305e-20
3.67568e-09 -4.99375e-08 -3.19603e-20
5.22259e-08 3.47808e-07 -2.82439e-20
-1.86054e-07 -3.2548e-07 -3.25862e-20
-1.74538e-08 -7.98656e-08 6.33744e-20
-2.68955e-07 2.01351e-07 -7.81706e-20
-5.26931e-08 -1.7274e-08 2.64662e-20
-4.10516e-08 -2.82135e-08 5.31417e-21
1.07347e-07 -5.50514e-08 -3.37311e-20
-1.47714e-08 2.09138e-08 8.79984e-20
5.70564e-08 -7.20187e-08 -3.16041e-20
-3.34668e-07 -1.48836e-07 -4.84355e-21
-4.43325e-08 -5.97088e-08 4.43393e-20
4.63325e-08 6.33416e-08 -4.98558e-20
2.41997e-07 3.34043e-07 4.30008e-20
-8.56609e-08 -3.95014e-08 1.04981e-19
-3.72278e-07 -8.37594e-09 7.68507e-21
-4.7719e-08 -4.42569e-08 4.1838e-20
-2.7157e-09 -6.4096e-08 -1.88607e-20
4.67429e-08 2.35751e-08 -5.35033e-21
-5.39082e-08 5.31383e-08 8.15865e-21
-9.00358e-09 -9.43543e-08 -1.30509e-20
-4.96954e-07 1.22412e-07 7.30029e-21
2.7242e-07 2.32401e-07 1.7975e-20
3.64002e-08 3.785e-07 -7.0525e-20
-2.19478e-08 7.54525e-09 5.36781e-21
-7.322e-08 2.27523e-09 -2.06964e-20
3.36153e-08 6.41793e-08 -2.87049e-20
-2.66101e-08 -6.53473e-09 -7.97958e-21
3.1492e-09 -2.26871e-08 3.64529e-20
-1.46425e-08 9.98743e-08 -1.32318e-20
1.62251e-08 1.70965e-08 -5.46089e-20
-1.8495e-07 4.08833e-08 9.3097e-20
-1.8757e-07 2.0466e-07 -5.28976e-20
-2.0251e-08 1.87906e-08 -1.81449e-20
-3.39334e-07 2.04793e-07 -6.76648e-20
-8.71125e-09 2.89172e-08 -3.70891e-20
9.15853e-08 -3.28075e-08 -6.82871e-20
4.25367e-07 -3.91341e-08 5.28397e-20
-5.33234e-08 3.37405e-08 -4.47512e-20
2.15649e-08 9.94117e-09 -6.83606e-20
5.55e-08 -3.47314e-08 -6.1243e-20
-9.52153e-08 3.17346e-08 -2.61756e-20
-6.92937e-08 1.81655e-08 -1.2664e-20
2.43663e-08 -7.11872e-09 -6.57236e-20
2.25353e-07 -1.37051e-07 5.12191e-20
-8.86906e-08 5.65494e-08 5.51505e-21
-2.64935e-07 -5.52469e-08 3.01404e-21
-5.63093e-08 -2.96485e-08 -8.02877e-21
2.15389e-08 -1.43002e-08 -1.3097e-19
2.38596e-08 1.67636e-08 -7.03079e-20
-6.02329e-09 2.7126e-08 5.97717e-20
-2.44475e-09 -3.06059e-08 6.05287e-20
-2.48365e-08 1.26949e-08 -3.91784e-20
-2.77962e-08 -1.42393e-08 -7.38146e-20
6.96333e-08 -2.6317e-08 -4.2171e-20
-2.54791e-08 -7.00845e-09 1.37648e-20
-2.54249e-08 6.75072e-09 1.59658e-20
-6.2657e-09 2.52611e-08 2.12096e-20
-6.80243e-09 -2.58147e-08 -4.28432e-20
1.68014e-08 -1.8812e-08 3.44827e-20
1.61528e-08 1.80043e-08 2.33442e-21
9.74803e-09 2.68937e-07 -4.06645e-20
5.21816e-08 -4.30452e-08 8.12185e-21
1.21787e-08 -2.29682e-08 -8.08392e-21
-2.02824e-07 7.49656e-09 1.55575e-20
1.9259e-08 -1.82829e-08 1.55348e-20
1.79813e-08 1.85673e-08 5.16934e-21
2.75871e-08 -6.00275e-10 -6.8062e-20
9.31026e-08 2.63544e-07 8.12306e-20
-1.3958e-08 -2.28262e-08 2.604e-20
3.01819e-08 -6.90794e-08 2.69807e-21
-2.2634e-07 -1.25229e-07 3.09577e-20
-4.97392e-08 -3.22877e-08 1.03192e-19
-2.27166e-07 1.3473e-07 -8.64106e-20
2.01468e-08 -2.06555e-08 -8.07022e-21
-9.65607e-09 2.1462e-08 -6.56189e-20
-5.31254e-09 -2.60426e-07 1.27721e-20
-8.52601e-08 -2.57932e-07 4.3669e-20
3.90898e-07 3.72041e-07 5.73949e-20
4.18118e-07 -2.37438e-08 9.81681e-21
-2.96603e-08 6.46034e-09 1.33896e-20
-2.79637e-07 -4.94159e-07 -1.4795e-20
6.66786e-08 1.14327e-07 -7.01675e-20
-2.68055e-07 3.15712e-08 6.61197e-20
1.92439e-07 5.38112e-08 2.28419e-20
-2.62953e-08 -1.06359e-10 -9.39077e-20
5.71577e-10 -2.73318e-08 2.82401e-20
-2.38827e-09 -1.86965e-08 -2.95715e-21
-2.3309e-08 -1.38686e-08 4.94338e-20
-5.79803e-07 -2.19717e-08 -6.22279e-20
1.82233e-07 -2.06106e-07 5.60145e-20
1.23921e-08 2.40373e-08 -4.40642e-20
6.33511e-09 -1.15077e-07 -1.5879e-20
-1.08699e-07 2.57422e-07 -2.01886e-20
2.22798e-09 2.89201e-08 1.84257e-20
1.94456e-07 -1.39146e-07 4.98203e-23
-1.71061e-08 -7.47964e-09 1.08296e-20
-1.65358e-07 -2.14917e-07 -4.06656e-20
2.27857e-08 1.15955e-08 -3.69613e-20
5.39229e-08 5.21299e-08 -2.62378e-20
-3.83649e-08 -5.97644e-08 1.22653e-19
2.36075e-08 -7.63327e-09 2.17454e-20
7.99028e-08 -5.57812e-08 -1.83877e-20
-4.74608e-09 4.45547e-08 -2.81457e-21
6.5732e-08 -1.10788e-07 6.00033e-20
6.0021e-07 3.02422e-08 1.23369e-20
-5.08485e-07 1.34535e-07 -4.95736e-20
4.25849e-08 2.96749e-08 3.21616e-20
-6.29984e-08 -1.51674e-07 5.19152e-20
-9.57626e-08 -6.24728e-08 7.76126e-20
3.1169e-07 -3.13269e-09 4.08039e-20
2.66505e-09 -5.94763e-08 4.78298e-20
-7.78989e-08 -2.75052e-08 -4.9826e-20
1.06224e-07 -2.53794e-07 -4.06295e-20
8.46881e-09 1.0224e-07 1.82175e-20
8.71826e-08 2.70365e-07 1.80245e-20
1.04637e-07 -5.51417e-08 -3.92348e-20
-1.90865e-07 2.03158e-07 8.01435e-21
1.75507e-07 2.16871e-07 1.09133e-19
-1.10411e-08 4.9366e-09 3.27953e-20
1.81678e-09 4.71148e-08 1.5924e-20
3.55587e-09 -2.13792e-08 1.25214e-19
-1.69242e-08 -1.40394e-08 -2.31364e-21
-5.82909e-08 4.62187e-08 7.09717e-20
-2.67418e-07 -6.33591e-08 -1.01369e-20
9.35382e-10 3.00588e-08 5.81324e-21
-6.99418e-08 2.08791e-08 -1.83206e-20
1.89475e-07 -2.74693e-08 -4.62859e-20
-8.1023e-08 -2.62376e-07 7.19283e-20
-1.5958e-07 2.54143e-07 -7.66328e-20
-4.50631e-08 2.08283e-08 5.08115e-20
-2.13873e-07 -1.51331e-07 2.04679e-20
4.84158e-08 -2.27077e-08 5.82431e-20
-2.89993e-07 -1.41998e-08 -3.28884e-20
1.4196e-07 -5.00927e-07 1.53713e-20
1.93965e-07 -2.03685e-07 -7.70131e-21
2.96582e-07 5.25837e-07 -7.26792e-20
-2.77851e-09 6.35619e-08 -5.49776e-21
2.54591e-08 -2.64186e-07 3.82408e-20
-1.0318e-08 6.24945e-09 8.36991e-21
-1.37496e-07 -2.56566e-07 1.77418e-20
4.61371e-08 -3.94856e-08 -3.42721e-20
-2.6526e-08 2.67235e-07 -6.11366e-20
6.44037e-08 -1.89059e-08 -5.52908e-21
1.46548e-07 2.61164e-07 6.89283e-20
1.46781e-07 -3.42724e-09 -1.79948e-20
2.67897e-07 -7.90448e-07 3.23131e-20
-5.67675e-08 -1.05683e-07 5.71587e-20
-2.36745e-07 1.03155e-07 7.46043e-21
-3.31754e-08 1.63017e-08 2.91249e-20
2.24747e-07 1.5051e-07 -1.5407e-20
1.60196e-07 -8.8441e-08 7.85775e-21
8.46827e-08 3.72049e-08 1.86649e-20
-1.73194e-08 1.46349e-08 -7.01854e-20
1.60678e-07 -2.48222e-07 -4.34738e-20
-1.713e-07 -2.13765e-07 -1.54558e-20
2.21018e-07 8.71794e-08 5.08579e-20
5.62277e-08 -3.47539e-08 -5.5679e-21
1.03326e-07 -2.56811e-07 -3.58142e-20
1.21426e-07 -2.30186e-08 -5.20617e-21
-1.17835e-07 -4.70117e-08 1.83094e-20
-5.12375e-09 -4.78323e-08 7.48032e-20
-2.70091e-07 3.75059e-08 2.56111e-20
2.83775e-08 2.36937e-07 -5.89437e-20
1.84775e-07 4.31175e-08 -2.59283e-20
-2.09891e-07 -9.39456e-08 1.27332e-20
-1.03207e-07 2.64636e-07 4.35406e-20
-2.35898e-08 -2.3084e-07 -1.56064e-20
6.10314e-08 2.97871e-08 2.1448e-20
-3.96124e-08 1.11645e-07 -8.04378e-21
-1.88745e-07 1.35371e-07 -4.09139e-20
2.42401e-07 1.22267e-07 5.08911e-20
-1.10356e-07 -3.46684e-08 -5.04977e-21
-2.67597e-08 -1.13642e-07 5.6726e-21
1.85239e-07 2.15325e-07 5.11622e-20
-4.35496e-08 -1.97547e-08 6.94228e-20
6.09085e-07 -4.37961e-07 -2.38871e-20
1.28993e-07 -9.02475e-08 -6.99504e-20
1.05335e-07 5.16191e-07 -5.78646e-20
1.36016e-07 -1.30762e-07 2.66166e-21
-2.94054e-07 1.11984e-06 2.9904e-20
-2.95758e-07 -1.10893e-06 -3.21402e-20
7.26648e-07 9.55142e-07 5.29648e-20
7.17634e-07 -9.54885e-07 4.43356e-20
1.18948e-06 -4.63921e-10 3.55726e-20
-1.02538e-06 4.12529e-07 -7.62928e-20
-1.00838e-06 -4.17015e-07 -2.2869e-20
4.90421e-08 2.66045e-08 -3.43272e-20
3.14682e-08 1.52797e-08 -5.4497e-21
9.14031e-08 1.23093e-08 3.63859e-20
1.61367e-07 8.62395e-08 2.83815e-20
4.78674e-08 1.90671e-07 -7.75718e-21
-1.72996e-07 -1.48628e-07 -1.04605e-22
8.71222e-08 -8.03118e-08 -5.50096e-20
1.85882e-07 1.49178e-07 4.87245e-20
-4.29876e-08 2.34678e-07 -3.58236e-20
3.05208e-08 -1.49913e-08 -2.96803e-20
4.375e-08 -2.25208e-07 -2.08777e-20
5.71666e-08 3.8546e-08 6.37707e-20
3.35263e-07 1.17446e-07 -2.77797e-20
7.51765e-09 2.41366e-08 8.68357e-20
1.2958e-07 4.24122e-08 7.25705e-20
-1.60375e-07 8.8713e-08 1.56049e-20
-2.19575e-07 7.59601e-08 -3.83732e-20
4.34776e-08 -2.97865e-08 -3.74471e-20
-1.40191e-07 -6.48734e-08 3.11162e-20
-1.54032e-07 -9.12362e-08 1.31882e-20
-1.35016e-08 -1.54628e-07 -5.51054e-21
6.0916e-10 -1.77591e-07 -1.01027e-19
-1.95527e-07 -8.4522e-09 5.27067e-23
2.90202e-07 -4.50582e-08 -2.91079e-23
1.56562e-07 9.64885e-08 2.05611e-20
-1.29556e-07 8.83797e-08 -7.72379e-21
-5.84186e-08 2.85975e-08 1.6057e-20
1.46127e-07 -1.30934e-07 -1.29002e-20
-1.09792e-07 1.7095e-07 1.80452e-20
-1.35245e-07 -1.42465e-07 -2.62936e-21
-1.28168e-08 1.86209e-07 4.94059e-21
-2.78593e-08 1.57162e-07 -3.41504e-20
4.59237e-09 -1.14099e-07 -3.39332e-20
5.88626e-08 -1.90249e-07 -2.45993e-21
-9.62126e-08 -6.17442e-08 5.74519e-20
1.33299e-07 -3.80148e-08 -6.7188e-20
3.26316e-10 1.8598e-07 -8.53682e-20
-4.02302e-09 1.18834e-07 -3.00664e-21
-2.98648e-08 1.33669e-07 2.0703e-20
2.18769e-07 -5.38388e-08 -3.58966e-20
-4.59484e-08 4.38681e-08 -4.97936e-21
4.95856e-08 1.8613e-07 -5.93167e-20
-2.99686e-08 1.89152e-08 5.38279e-20
1.10483e-07 5.1231e-07 -5.24321e-20
-5.41988e-08 2.92576e-08 -2.0845e-20
5.75046e-08 -2.99336e-08 -5.82699e-20
1.65402e-08 1.58164e-07 -7.3093e-20
-1.85488e-07 4.40603e-08 6.24416e-20
-5.70212e-09 -8.04095e-08 3.43123e-20
7.65284e-09 -7.30885e-07 -7.91618e-20
2.22028e-08 1.34083e-07 -2.87579e-20
-1.38571e-07 1.31828e-07 8.00679e-20
2.15182e-07 8.00315e-07 -3.49236e-20
1.03359e-08 6.80647e-09 -3.8043e-20
8.93017e-09 -6.4915e-09 4.89271e-21
1.04324e-07 -8.13541e-08 -4.15154e-20
-1.48082e-07 1.32586e-07 4.60812e-20
-1.77744e-07 -5.2505e-08 3.89009e-20
-1.82652e-07 -5.9989e-08 -1.54028e-20
-3.63811e-09 2.2391e-09 -1.99082e-20
-2.51295e-09 -1.21022e-09 -3.60675e-20
8.53186e-08 1.73361e-08 -3.15409e-20
2.70782e-08 1.24522e-07 -3.93526e-20
-3.12959e-09 1.23814e-07 -1.8491e-20
-6.12174e-07 -4.44684e-07 -3.13018e-20
1.08667e-07 -1.70916e-07 -3.61512e-20
5.49687e-08 1.97998e-08 -4.22772e-20
-2.01597e-07 -2.1687e-08 2.32311e-20
-1.27469e-07 1.68403e-07 4.8858e-20
-1.64561e-07 7.7378e-08 6.9656e-20
6.01011e-07 4.31836e-07 -3.62949e-20
5.94793e-08 3.90977e-08 -2.86402e-20
-5.85013e-08 1.90935e-07 -3.36817e-20
-1.15326e-07 -9.87805e-08 1.11759e-19
2.86885e-08 -1.50418e-07 -2.896e-20
-9.3319e-08 -1.77549e-07 6.95773e-20
-1.49538e-07 -1.02498e-07 -3.36358e-20
1.02489e-07 -1.81762e-07 2.32142e-20
1.22941e-07 -1.68954e-07 2.44999e-21
-3.89652e-08 -7.62688e-07 -4.64335e-20
3.13581e-07 -5.01583e-07 6.77842e-20
1.49809e-08 -1.82599e-07 -7.26477e-20
1.28768e-07 9.80268e-08 -3.12294e-20
-1.15668e-07 -1.40406e-07 -3.37766e-22
-1.00317e-07 1.87024e-07 -2.57128e-21
-6.16323e-08 1.83305e-07 -2.35307e-20
1.34265e-07 1.39032e-07 -1.56048e-20
6.58238e-08 -1.71454e-07 -4.14414e-20
-1.70187e-07 -4.85251e-07 -1.47937e-19
3.83579e-09 5.89657e-08 -4.2461e-20
1.35929e-07 1.3987e-07 5.15286e-20
-7.32777e-08 -3.60843e-08 5.25509e-20
-6.08886e-08 3.32394e-08 3.9943e-20
5.44886e-07 -2.38705e-07 1.4934e-20
6.76765e-08 -1.11849e-07 -2.3152e-20
-6.42345e-08 -1.0989e-07 7.80372e-20
2.438e-08 -2.10839e-09 8.8201e-20
2.10302e-09 -9.23968e-09 -8.1636e-20
-6.83597e-09 -6.76011e-09 7.11863e-20
3.00184e-08 1.96797e-08 -4.50012e-20
-9.41045e-08 -1.77643e-07 3.85388e-20
1.44809e-07 5.80749e-08 -3.0331e-21
-3.52374e-07 -3.8739e-07 -1.05321e-19
1.32927e-09 1.13573e-08 3.11806e-21
1.31527e-09 2.03127e-09 1.13304e-20
2.54063e-09 -3.33272e-10 8.3153e-20
3.38138e-07 -6.67745e-07 -1.69096e-20
-1.40556e-08 1.65545e-08 -2.69566e-21
-3.22349e-09 2.00551e-08 -2.95744e-20
-1.45603e-07 5.17593e-08 8.59692e-20
-5.03163e-09 5.91438e-08 2.13137e-20
-3.19897e-08 9.48491e-08 -3.10861e-20
6.5943e-08 2.81187e-09 -3.41743e-20
1.48732e-08 5.70191e-08 -3.70053e-20
-3.89826e-09 7.88457e-08 -1.5961e-20
1.13018e-07 6.14876e-08 -2.86579e-20
8.05227e-09 7.27473e-07 -4.34115e-20
-1.05151e-07 9.94962e-08 9.61819e-20
7.88439e-08 -5.30119e-08 -1.56928e-20
4.55177e-08 -4.15613e-08 -2.09879e-20
-7.46137e-07 -1.02447e-07 7.25958e-20
-2.1267e-08 8.43052e-09 1.06566e-20
-5.43301e-07 -6.42676e-07 -8.58257e-20
9.87218e-09 2.64383e-08 -3.45458e-20
9.52976e-08 1.85302e-08 2.62204e-20
2.83717e-07 -3.68216e-08 6.10062e-20
-6.48582e-08 -1.06577e-07 6.53028e-20
1.24007e-07 3.55673e-08 1.30244e-20
6.45335e-10 -3.15601e-08 -5.00969e-21
-6.99387e-08 8.09179e-08 6.02953e-20
-2.67466e-08 -1.70147e-08 4.57068e-20
-6.30386e-08 1.28069e-07 -1.57689e-20
1.14048e-08 8.08333e-08 -4.47859e-20
1.85338e-08 1.35846e-08 -2.72093e-20
1.83933e-08 -1.305e-08 -7.89489e-20
-5.05814e-07 -1.37793e-07 -2.25834e-20
5.57234e-08 2.0793e-08 -4.99808e-20
-6.70885e-08 1.2985e-06 -1.46563e-20
-4.66633e-09 -1.33408e-06 -7.22761e-20
6.56655e-07 1.12411e-06 1.44452e-20
-6.81524e-08 5.40664e-08 3.44221e-20
-3.47955e-07 7.00251e-07 -2.42198e-20
6.60427e-07 -1.08498e-06 -2.61825e-20
-1.0921e-07 -1.76757e-07 3.32409e-20
1.00289e-06 8.78757e-07 -7.46015e-20
1.17909e-08 -2.0913e-08 5.39753e-20
-1.2286e-08 -2.11908e-08 4.36158e-20
1.05127e-06 -8.59192e-07 2.67179e-20
-6.4421e-08 1.2669e-07 -2.32255e-20
-6.60363e-07 -4.20566e-07 -2.46243e-20
-5.56861e-07 -1.16065e-06 -7.45493e-21
-3.11895e-07 -7.17522e-07 -1.34172e-19
-5.72467e-07 1.17997e-06 -4.08923e-20
-1.35286e-07 7.99628e-07 -3.19706e-20
-9.53621e-10 2.8003e-08 -3.18717e-20
-3.47357e-07 4.47212e-07 -1.10614e-19
-3.32554e-07 -6.80637e-07 -8.92261e-20
1.29316e-06 2.25663e-07 -4.27598e-20
-1.01122e-07 8.59704e-08 5.77546e-20
-2.37573e-09 5.67999e-08 -6.09011e-20
-6.25523e-07 4.52836e-07 -7.83519e-20
-1.12146e-07 5.98543e-08 -4.15577e-20
1.28042e-06 -2.00718e-07 -6.44463e-21
-8.55935e-08 5.74575e-08 2.37965e-20
6.235e-08 -1.28947e-07 -4.92316e-20
-9.96429e-07 -7.56799e-07 4.77785e-21
-3.35989e-07 7.19906e-07 -9.77078e-20
-1.02057e-06 7.51241e-07 6.88289e-21
2.98199e-07 6.65255e-07 4.68489e-21
-1.09785e-07 8.72707e-08 8.80054e-20
-3.04661e-08 1.72548e-08 9.14648e-20
-1.66875e-09 -2.65469e-09 -1.59665e-19
4.23029e-10 -2.29038e-09 6.82523e-20
8.34649e-09 8.7639e-08 -3.68461e-20
-2.44759e-09 2.65884e-09 -5.24969e-21
1.29533e-09 3.28882e-09 -4.40726e-20
2.21181e-09 -9.50953e-10 1.10643e-20
-1.30601e-09 1.03821e-08 -6.78509e-20
-2.29454e-07 5.00617e-07 -1.05925e-19
-1.72601e-08 1.23887e-08 8.10971e-20
2.97465e-08 -1.87409e-08 -2.66974e-20
2.91579e-08 -1.68909e-08 -2.99766e-21
8.39979e-08 3.27805e-08 -2.82449e-21
-7.90735e-10 -8.88576e-09 2.18959e-20
-7.93376e-09 -4.02192e-09 -1.05945e-20
2.91407e-08 1.69991e-08 -4.56917e-20
7.4153e-07 -1.42914e-07 -5.24157e-20
-9.60773e-08 -1.22465e-07 1.7917e-20
-6.4922e-07 4.52621e-07 -1.7193e-20
-5.81273e-07 6.62973e-07 -6.64566e-20
7.83533e-07 -2.82963e-07 -7.43199e-21
-3.75943e-09 -1.0908e-08 -9.29297e-20
-4.1286e-09 1.12048e-08 -9.26949e-20
-1.2314e-08 2.11491e-09 2.39176e-20
-8.07503e-09 8.2356e-09 8.31889e-21
-1.11626e-08 -2.36561e-09 8.36593e-21
2.06627e-09 2.6242e-09 -4.42027e-20
1.19815e-08 -2.94842e-09 5.74126e-20
5.05152e-09 -3.55272e-09 -6.35556e-20
-3.53656e-09 -2.54957e-09 -4.96838e-20
7.66291e-09 -7.87921e-09 1.88816e-20
7.70543e-09 8.11383e-09 -2.8533e-21
-3.55813e-09 2.24099e-09 -5.53686e-20
3.89788e-09 -7.80967e-10 -1.93424e-20
6.46509e-09 3.58168e-09 -5.79885e-20
1.40018e-08 4.99778e-09 -1.00335e-19
SCALARS rr_necrosis float
LOOKUP_TABLE default
0
0
0
0
0
0
0
0
0
0
0
0
0
0
0
0
0
0
0
0
0
0
0
0
0
0
0
0
0
0
0
0
0
0
0
0
0
0
0
0
0
0
0
0
0
0
0
0
0
0
0
0
0
0
0
0
0
0
0
0
0
0
0
0
0
0
0
0
0
0
0
0
0
0
0
0
0
0
0
0
0
0
0
0
0
0
0
0
0
0
0
0
0
0
0
0
0
0
0
0
0
0
0
0
0
0
0
0
0
0
0
0
0
0
0
0
0
0
0
0
0
0
0
0
0
0
0
0
0
0
0
0
0
0
0
0
0
0
0
0
0
0
0
0
0
0
0
0
0
0
0
0
0
0
0
0
0
0
0
0
0
0
0
0
0
0
0
0
0
0
0
0
0
0
0
0
0
0
0
0
0
0
0
0
0
0
0
0
0
0
0
0
0
0
0
0
0
0
0
0
0
0
0
0
0
0
0
0
0
0
0
0
0
0
0
0
0
0
0
0
0
0
0
0
0
0
0
0
0
0
0
0
0
0
0
0
0
0
0
0
0
0
0
0
0
0
0
0
0
0
0
0
0
0
0
0
0
0
0
0
0
0
0
0
0
0
0
0
0
0
0
0
0
0
0
0
0
0
0
0
0
0
0
0
0
0
0
0
0
0
0
0
0
0
0
0
0
0
0
0
0
0
0
0
0
0
0
0
0
0
0
0
0
0
0
0
0
0
0
0
0
0
0
0
0
0
0
0
0
0
0
0
0
0
0
0
0
0
0
0
0
0
0
0
0
0
0
0
0
0
0
0
0
0
0
0
0
0
0
0
0
0
0
0
0
0
0
0
0
0
0
0
0
0
0
0
0
0
0
0
0
0
0
0
0
0
0
0
0
0
0
0
0
0
0
0
0
0
0
0
0
0
0
0
0
0
0
0
0
0
0
0
0
0
0
0
0
0
0
0
0
0
0
0
0
0
0
0
0
0
0
0
0
0
0
0
0
0
0
0
0
0
0
0
0
0
0
0
0
0
0
0
0
0
0
0
0
0
0
0
0
0
0
0
0
0
0
0
0
0
0
0
0
0
0
0
0
0
0
0
0
0
0
0
0
0
0
0
0
0
0
0
0
0
0
0
0
0
0
0
0
0
0
0
0
0
0
0
0
0
0
0
0
0
0
0
0
0
0
0
0
0
0
0
0
0
0
0
0
0
0
0
0
0
0
0
0
0
0
0
0
0
0
0
0
0
0
0
0
0
0
0
0
0
0
0
0
0
0
0
0
0
0
SCALARS rr_protein float
LOOKUP_TABLE default
1
1
1
1
1
1
1
1
1
1
1
1
1
1
1
1
1
1
1
1
1
1
1
1
1
1
1
1
1
1
1
1
1
1
1
1
1
1
1
1
1
1
1
1
1
1
1
1
1
1
1
1
1
1
1
1
1
1
1
1
1
1
1
1
1
1
1
1
1
1
1
1
1
1
1
1
1
1
1
1
1
1
1
1
1
1
1
1
1
1
1
1
1
1
1
1
1
1
1
1
1
1
1
1
1
1
1
1
1
1
1
1
1
1
1
1
1
1
1
1
1
1
1
1
1
1
1
1
1
1
1
1
1
1
1
1
1
1
1
1
1
1
1
1
1
1
1
1
1
1
1
1
1
1
1
1
1
1
1
1
1
1
1
1
1
1
1
1
1
1
1
1
1
1
1
1
1
1
1
1
1
1
1
1
1
1
1
1
1
1
1
1
1
1
1
1
1
1
1
1
1
1
1
1
1
1
1
1
1
1
1
1
1
1
1
1
1
1
1
1
1
1
1
1
1
1
1
1
1
1
1
1
1
1
1
1
1
1
1
1
1
1
1
1
1
1
1
1
1
1
1
1
1
1
1
1
1
1
1
1
1
1
1
1
1
1
1
1
1
1
1
1
1
1
1
1
1
1
1
1
1
1
1
1
1
1
1
1
1
1
1
1
1
1
1
1
1
1
1
1
1
1
1
1
1
1
1
1
1
1
1
1
1
1
1
1
1
1
1
1
1
1
1
1
1
1
1
1
1
1
1
1
1
1
1
1
1
1
1
1
1
1
1
1
1
1
1
1
1
1
1
1
1
1
1
1
1
1
1
1
1
1
1
1
1
1
1
1
1
1
1
1
1
1
1
1
1
1
1
1
1
1
1
1
1
1
1
1
1
1
1
1
1
1
1
1
1
1
1
1
1
1
1
1
1
1
1
1
1
1
1
1
1
1
1
1
1
1
1
1
1
1
1
1
1
1
1
1
1
1
1
1
1
1
1
1
1
1
1
1
1
1
1
1
1
1
1
1
1
1
1
1
1
1
1
1
1
1
1
1
1
1
1
1
1
1
1
1
1
1
1
1
1
1
1
1
1
1
1
1
1
1
1
1
1
1
1
1
1
1
1
1
1
1
1
1
1
1
1
1
1
1
1
1
1
1
1
1
1
1
1
1
1
1
1
1
1
1
1
1
1
1
1
1
1
1
1
1
1
1
1
1
1
1
1
1
1
1
1
1
1
1
1
1
1
1
1
1
1
1
1
1
1
1
1
1
1
1
1
1
1
1
1
SCALARS rr_(S_ext) float
LOOKUP_TABLE default
0.977546
0.977512
0.977518
0.97751
0.97752
0.977518
0.977546
0.977518
0.977522
0.977515
0.977517
0.977518
0.977519
0.977516
0.977514
0.977519
0.977513
0.977515
0.977519
0.977518
0.977522
0.977517
0.977518
0.977518
0.977518
0.977514
0.977529
0.977518
0.977525
0.977515
0.97752
0.977524
0.977532
0.977515
0.977518
0.977515
0.977513
0.977519
0.97752
0.977532
0.977524
0.977512
0.977512
0.977519
0.977522
0.977526
0.977521
0.977522
0.977518
0.977523
0.977524
0.977525
0.977516
0.977527
0.977516
0.977533
0.977519
0.977526
0.977518
0.977517
0.977511
0.977517
0.977536
0.977518
0.977516
0.977518
0.977511
0.977515
0.977518
0.977511
0.977516
0.977516
0.977525
0.977518
0.977519
0.977529
0.977519
0.977518
0.977514
0.977521
0.977529
0.97752
0.977513
0.977527
0.977528
0.977527
0.977518
0.977519
0.977522
0.977518
0.977526
0.977518
0.977517
0.977518
0.977527
0.977522
0.977531
0.977514
0.977519
0.977519
0.977524
0.977529
0.977526
0.977513
0.977515
0.977514
0.977514
0.97752
0.977527
0.977508
0.977517
0.977524
0.977525
0.977514
0.977514
0.977527
0.977521
0.977532
0.977521
0.977527
0.97752
0.977513
0.97751
0.977515
0.977509
0.977513
0.97752
0.977514
0.977531
0.977526
0.977514
0.977511
0.977513
0.97751
0.97753
0.977518
0.977533
0.97752
0.977513
0.977518
0.977528
0.97752
0.977523
0.977514
0.977533
0.977513
0.977519
0.977521
0.977519
0.977523
0.977521
0.97751
0.977523
0.977519
0.977514
0.97751
0.977517
0.97753
0.977529
0.977516
0.977522
0.977523
0.977525
0.977522
0.977528
0.977514
0.977529
0.97753
0.977524
0.977528
0.977516
0.977526
0.977523
0.977517
0.977526
0.977514
0.977516
0.977519
0.977518
0.977517
0.977526
0.977514
0.977514
0.977528
0.977519
0.977524
0.977515
0.977517
0.977518
0.977514
0.977519
0.977531
0.977525
0.977523
0.97751
0.977514
0.977514
0.977513
0.97751
0.977518
0.97751
0.977521
0.977522
0.977513
0.977526
0.977513
0.977519
0.977527
0.977517
0.977511
0.977519
0.977518
0.977515
0.977514
0.977522
0.977519
0.977523
0.977517
0.977508
0.977508
0.977507
0.977508
0.977508
0.977508
0.977516
0.977513
0.977512
0.977512
0.977513
0.977517
0.977517
0.977522
0.977515
0.977506
0.977523
0.977514
0.977514
0.977507
0.977521
0.977506
0.977514
0.977523
0.977516
0.977524
0.977514
0.977505
0.977523
0.977522
0.977529
0.977522
0.977514
0.977533
0.977519
0.977523
0.97752
0.977506
0.977508
0.977515
0.977508
0.977536
0.977521
0.977506
0.977518
0.977522
0.977508
0.977523
0.977515
0.977522
0.977508
0.977516
0.977514
0.977514
0.97752
0.977518
0.977518
0.977527
0.977527
0.977519
0.97752
0.977518
0.977526
0.977516
0.977517
0.977522
0.977518
0.977525
0.977519
0.977525
0.977521
0.977516
0.977516
0.977512
0.977512
0.977515
0.977526
0.977515
0.977516
0.977522
0.977525
0.977526
0.977518
0.977523
0.977518
0.977527
0.977522
0.977525
0.977533
0.977516
0.977523
0.977515
0.977526
0.977516
0.977523
0.977516
0.977525
0.97752
0.97754
0.977517
0.977523
0.977515
0.977522
0.977521
0.977519
0.977511
0.977525
0.977525
0.977523
0.977518
0.977525
0.977519
0.977519
0.977519
0.977526
0.977523
0.977522
0.977524
0.977525
0.977523
0.977518
0.977518
0.977523
0.977523
0.977519
0.977519
0.977524
0.977519
0.977518
0.977521
0.97753
0.977522
0.977493
0.977493
0.977491
0.977491
0.977489
0.977497
0.977498
0.977516
0.977517
0.977516
0.977521
0.97752
0.977524
0.977519
0.977523
0.977523
0.977517
0.977523
0.977519
0.977525
0.977512
0.977518
0.977521
0.977523
0.97752
0.977521
0.977521
0.977521
0.97752
0.97752
0.977522
0.97752
0.977521
0.977518
0.97752
0.97752
0.977521
0.97752
0.97752
0.977519
0.97752
0.977519
0.977518
0.97752
0.977519
0.977518
0.977521
0.977515
0.977522
0.977516
0.977522
0.977517
0.977518
0.97752
0.977523
0.977517
0.97752
0.977518
0.977522
0.97754
0.977518
0.977519
0.977519
0.97752
0.977522
0.977521
0.977523
0.977521
0.977515
0.977519
0.977519
0.977525
0.97752
0.977516
0.977523
0.977523
0.977521
0.977517
0.977517
0.97752
0.977521
0.97752
0.977522
0.977521
0.977522
0.977523
0.977532
0.977533
0.977521
0.977521
0.977522
0.977522
0.977522
0.977522
0.977521
0.977524
0.977516
0.97752
0.977517
0.977517
0.977524
0.977518
0.977517
0.977519
0.977512
0.977511
0.977515
0.97752
0.97752
0.977524
0.977511
0.977518
0.977517
0.977517
0.977518
0.977514
0.977521
0.977518
0.977516
0.977514
0.977514
0.977518
0.97752
0.977519
0.97752
0.977519
0.977516
0.977529
0.977515
0.977544
0.977514
0.977518
0.977524
0.977518
0.97752
0.977514
0.977518
0.977514
0.977519
0.977517
0.977515
0.977517
0.977526
0.977514
0.977546
0.977549
0.977542
0.977518
0.977524
0.97754
0.977523
0.977543
0.97752
0.97752
0.977546
0.977518
0.977535
0.977549
0.977532
0.977549
0.977532
0.977518
0.977525
0.977523
0.977543
0.97752
0.977516
0.977532
0.97752
0.977538
0.977518
0.977519
0.977548
0.97753
0.977546
0.977516
0.977519
0.977518
0.977515
0.977515
0.977516
0.977515
0.977514
0.977515
0.977514
0.977525
0.977515
0.977517
0.977519
0.977517
0.977515
0.977515
0.977521
0.977515
0.977519
0.977525
0.977545
0.977538
0.977511
0.977511
0.977511
0.977512
0.977511
0.977517
0.977515
0.977516
0.977519
0.977514
0.977513
0.97752
0.977516
0.977516
0.977513
SCALARS rr_(P_ext) float
LOOKUP_TABLE default
0.0207776
0.0206793
0.0206879
0.0206809
0.0206545
0.0206881
0.0207779
0.0206822
0.0206962
0.0206797
0.0207711
0.0206822
0.0206842
0.0206784
0.0206635
0.0206865
0.0206748
0.0206833
0.0207005
0.0206904
0.0206917
0.0206206
0.0206916
0.0206902
0.0206905
0.0206817
0.0207575
0.0206868
0.0207274
0.0206405
0.0206846
0.0207272
0.0207589
0.0206464
0.0206435
0.0206465
0.0206394
0.0206448
0.0206847
0.0207586
0.0207276
0.020639
0.0206391
0.0206845
0.0207494
0.020726
0.0206985
0.0206946
0.0206877
0.0207335
0.0207299
0.0207174
0.0206558
0.0207171
0.0206566
0.0207465
0.0206433
0.0207171
0.0206434
0.0206899
0.0206752
0.0206671
0.0207512
0.0206676
0.0206669
0.0206749
0.0206748
0.0206816
0.020691
0.0206789
0.020656
0.0206561
0.0207277
0.0206718
0.0206876
0.020763
0.0206618
0.020675
0.0206817
0.0207151
0.0207355
0.0206514
0.020671
0.0207382
0.0207245
0.0207483
0.0206868
0.0206734
0.0207493
0.0206254
0.0207173
0.0206256
0.0206612
0.020676
0.0207164
0.0207308
0.0207353
0.0206798
0.0206619
0.0206851
0.0207062
0.0207222
0.0207384
0.0206824
0.0206807
0.0206804
0.0206699
0.0206859
0.0207386
0.0206778
0.0206898
0.0207462
0.0207418
0.0206829
0.0206809
0.0207168
0.0206434
0.0207358
0.0206437
0.0207165
0.0207027
0.0206647
0.0206793
0.0206731
0.0206771
0.0206627
0.0206468
0.0206798
0.0207353
0.0207164
0.020656
0.0206799
0.0206715
0.0206796
0.0207221
0.0206432
0.0207408
0.0206836
0.020671
0.0206433
0.020721
0.0206794
0.0207012
0.0206796
0.0207362
0.0206813
0.0206809
0.0206878
0.0206881
0.0207091
0.0206948
0.0206793
0.0207274
0.0206841
0.0206796
0.0206798
0.0206769
0.02072
0.0207197
0.0206843
0.0206944
0.0207266
0.020747
0.0207299
0.0207201
0.0206804
0.0207201
0.0207202
0.0207273
0.0207199
0.0206609
0.0207171
0.0207301
0.020676
0.0207169
0.0206702
0.020661
0.0206823
0.0206555
0.0206803
0.0207273
0.02068
0.02068
0.0207208
0.0206732
0.0207307
0.0206731
0.0206697
0.0206606
0.0206798
0.020673
0.0207343
0.0207169
0.0207272
0.0206797
0.0206837
0.0206831
0.0206716
0.0206794
0.0206753
0.0206792
0.0206993
0.0207144
0.0206717
0.0207271
0.0206711
0.020675
0.0207227
0.0206658
0.0206791
0.0206649
0.0206778
0.0206809
0.0206709
0.0207088
0.0206771
0.0207135
0.0206698
0.0206773
0.0206773
0.0206784
0.020678
0.0206779
0.020678
0.020679
0.0206642
0.0206645
0.0206642
0.0206641
0.0206564
0.0206564
0.0207095
0.0206787
0.0206818
0.020695
0.0206635
0.0206632
0.0206815
0.0207142
0.0206822
0.0206798
0.0207084
0.0206657
0.0207088
0.0206707
0.0206825
0.0207082
0.020713
0.0207357
0.020735
0.020671
0.0207376
0.0206853
0.0207135
0.0206999
0.0206823
0.0206775
0.0206385
0.0206777
0.0207383
0.0207135
0.0206818
0.0206822
0.0207146
0.0206775
0.0207008
0.0206386
0.0207133
0.020677
0.0206737
0.0206831
0.0206638
0.0206736
0.0206559
0.0206843
0.0207448
0.0207484
0.0206586
0.0206915
0.0206822
0.0207088
0.0206655
0.0206761
0.0207134
0.0206758
0.0207059
0.0206804
0.0207058
0.0207139
0.0206311
0.02066
0.0206632
0.0206634
0.020679
0.0207051
0.0206475
0.0206741
0.0206941
0.0207047
0.0207078
0.0206587
0.0207085
0.0206612
0.0207068
0.0207492
0.0207053
0.0207367
0.0206695
0.0207084
0.0206311
0.0207068
0.0206718
0.0207095
0.0206727
0.020707
0.0206868
0.0207528
0.0206888
0.0207087
0.020659
0.0207091
0.020694
0.0206727
0.020679
0.0207069
0.0207052
0.020701
0.0206697
0.0207053
0.0206822
0.0206868
0.0206561
0.0207052
0.0207015
0.0206926
0.0207005
0.0207062
0.0207002
0.0206667
0.0206825
0.0207011
0.0207088
0.0206797
0.0206795
0.0207057
0.0206562
0.0207746
0.0206871
0.0207356
0.0206922
0.0208266
0.0208265
0.0208259
0.0208262
0.0208258
0.0208269
0.0208265
0.0206692
0.0206501
0.020684
0.0206945
0.0207
0.0207005
0.0206804
0.0207011
0.0207016
0.0206499
0.0207005
0.0206652
0.0207173
0.0206657
0.0206883
0.0206947
0.0207009
0.0206584
0.0206871
0.020694
0.020687
0.0206939
0.0207013
0.0207155
0.0206947
0.020688
0.0206649
0.0206991
0.0207022
0.0206995
0.0206953
0.0206883
0.0206803
0.0206996
0.0206804
0.0206891
0.020695
0.020682
0.0206889
0.0207008
0.0206728
0.0206931
0.020651
0.0207491
0.0206692
0.0206667
0.0206882
0.0206928
0.0206751
0.0207734
0.0206882
0.0206932
0.0207523
0.0206317
0.0206314
0.0206872
0.0207001
0.0206921
0.020699
0.0206167
0.0206167
0.020682
0.0206819
0.0206823
0.0207737
0.0207016
0.0206714
0.020695
0.0206959
0.0206951
0.0207752
0.0206733
0.0207006
0.0206875
0.0206874
0.020696
0.0206941
0.020696
0.0206952
0.0207579
0.0207365
0.0206942
0.0206873
0.020693
0.0206964
0.0206936
0.0206924
0.020693
0.0207491
0.0206635
0.0206996
0.0206754
0.0206728
0.0207497
0.0206878
0.0206887
0.020656
0.0206323
0.0206323
0.02066
0.0207018
0.0206877
0.0207507
0.0206342
0.0206189
0.020619
0.0207763
0.0206448
0.0206405
0.0206887
0.0206616
0.0206841
0.020679
0.0206725
0.0206701
0.0206822
0.0207736
0.0206863
0.0206762
0.0206716
0.0207636
0.0206436
0.020754
0.0206719
0.0206788
0.0207074
0.0206847
0.0206826
0.0206552
0.0206813
0.0206553
0.0206873
0.0206715
0.0206421
0.0206414
0.0207504
0.0206778
0.0207795
0.0207776
0.0207816
0.0206733
0.0207748
0.0207836
0.0206963
0.0207806
0.0206511
0.0206511
0.020779
0.0206924
0.0207577
0.02078
0.0207595
0.0207804
0.0207595
0.0206442
0.0207539
0.0207744
0.0207792
0.020683
0.020668
0.0207611
0.0206828
0.020783
0.0206797
0.0206918
0.0207811
0.0207625
0.0207825
0.0207763
0.0206891
0.0206494
0.0206207
0.0206219
0.020678
0.0206209
0.020621
0.0206215
0.0206291
0.0207521
0.0206427
0.0206594
0.0206493
0.0206792
0.0206271
0.0206271
0.0206476
0.0207773
0.0206927
0.0207761
0.0207555
0.0207548
0.0206354
0.0206356
0.0206363
0.0206361
0.0206355
0.0206224
0.0206361
0.020627
0.0206204
0.0206352
0.0206351
0.0206201
0.0206221
0.0206267
0.0206369
SCALARS rr_(S) float
LOOKUP_TABLE default
0.953225
0.953136
0.953147
0.953135
0.95313
0.953147
0.953224
0.953144
0.953155
0.953139
0.953193
0.953144
0.953145
0.953139
0.953129
0.953147
0.953135
0.953141
0.953155
0.953147
0.953152
0.95311
0.953148
0.953148
0.953148
0.953139
0.953197
0.953146
0.953175
0.953118
0.953146
0.953174
0.9532
0.953121
0.953123
0.953121
0.953115
0.953124
0.953146
0.9532
0.953174
0.953115
0.953115
0.953146
0.953185
0.953175
0.953155
0.953154
0.953147
0.953178
0.953176
0.95317
0.953127
0.953171
0.953128
0.953194
0.953123
0.95317
0.953123
0.953146
0.953133
0.953134
0.953199
0.953135
0.953133
0.953139
0.953133
0.95314
0.953148
0.953135
0.953127
0.953127
0.953176
0.953138
0.953148
0.9532
0.953133
0.953139
0.953139
0.953165
0.953184
0.953129
0.953133
0.953184
0.953177
0.95319
0.953146
0.95314
0.953185
0.953113
0.95317
0.953113
0.953131
0.95314
0.953171
0.953175
0.953186
0.953138
0.953133
0.953146
0.953163
0.953176
0.953183
0.953139
0.953139
0.953139
0.953133
0.953147
0.953184
0.953131
0.953146
0.953185
0.953184
0.95314
0.953139
0.953172
0.953125
0.953187
0.953126
0.953171
0.953157
0.953129
0.953134
0.953136
0.953132
0.953128
0.953126
0.953138
0.953186
0.95317
0.953126
0.953135
0.953132
0.953134
0.953177
0.953122
0.953191
0.953146
0.953133
0.953122
0.953175
0.953143
0.953158
0.953139
0.953188
0.953139
0.953143
0.953149
0.953147
0.953163
0.953153
0.953134
0.953173
0.953146
0.953138
0.953135
0.953139
0.953176
0.953175
0.953142
0.953154
0.953173
0.953187
0.953174
0.953174
0.953139
0.953175
0.953176
0.953174
0.953174
0.95313
0.95317
0.953176
0.953139
0.95317
0.953133
0.95313
0.953144
0.953129
0.953141
0.953176
0.953138
0.953139
0.953174
0.953139
0.953176
0.953136
0.953135
0.953132
0.953139
0.953139
0.953185
0.95317
0.953174
0.953135
0.95314
0.95314
0.953133
0.953134
0.95314
0.953134
0.953155
0.953165
0.953133
0.953176
0.953133
0.95314
0.953175
0.953134
0.953135
0.953135
0.953141
0.95314
0.953133
0.953162
0.953141
0.953165
0.953135
0.953132
0.953131
0.953131
0.953131
0.953132
0.953132
0.95314
0.953129
0.953129
0.953128
0.953129
0.953129
0.953128
0.953163
0.953138
0.953132
0.953155
0.95313
0.953129
0.953132
0.953165
0.953132
0.953138
0.953163
0.953133
0.953163
0.953134
0.953131
0.953162
0.953165
0.953185
0.953177
0.953133
0.953189
0.953146
0.953165
0.953155
0.953132
0.953131
0.953117
0.953131
0.953192
0.953164
0.953132
0.953143
0.953165
0.953131
0.953158
0.953117
0.953165
0.953131
0.953137
0.95314
0.95313
0.95314
0.953129
0.953144
0.953188
0.95319
0.953131
0.953151
0.953144
0.953165
0.953133
0.953139
0.953164
0.95314
0.953163
0.953144
0.953164
0.953164
0.953114
0.953129
0.953127
0.953127
0.953139
0.953164
0.953122
0.953137
0.953153
0.953163
0.953165
0.95313
0.953163
0.953132
0.953165
0.953185
0.953163
0.953188
0.953135
0.953162
0.953113
0.953164
0.953136
0.953163
0.953137
0.953164
0.953147
0.953205
0.953146
0.953163
0.953128
0.953162
0.953153
0.953139
0.953135
0.953164
0.953163
0.953158
0.953137
0.953162
0.953144
0.953146
0.95313
0.953164
0.953159
0.953153
0.953159
0.953164
0.953158
0.953135
0.953143
0.953159
0.953163
0.953143
0.953143
0.953163
0.95313
0.953196
0.953149
0.953185
0.953152
0.953202
0.953202
0.953201
0.953201
0.953198
0.953207
0.953207
0.953135
0.953125
0.953142
0.953153
0.953155
0.953159
0.953144
0.953158
0.953159
0.953125
0.953158
0.953135
0.95317
0.953128
0.953147
0.953153
0.953159
0.953132
0.953149
0.953153
0.953148
0.953152
0.953156
0.953166
0.953152
0.953149
0.953134
0.953155
0.953156
0.953155
0.953153
0.953149
0.953143
0.953155
0.953143
0.953148
0.953153
0.953144
0.953147
0.953157
0.953135
0.953153
0.953125
0.953185
0.953135
0.953135
0.953149
0.953154
0.953138
0.953197
0.953147
0.953153
0.953204
0.953117
0.953117
0.953147
0.953156
0.953153
0.953155
0.953113
0.953112
0.953141
0.953144
0.953144
0.953202
0.953156
0.953135
0.953155
0.953156
0.953153
0.953195
0.953137
0.953156
0.953149
0.953148
0.953155
0.953153
0.953155
0.953155
0.953199
0.953188
0.953152
0.953149
0.953153
0.953155
0.953153
0.953153
0.953152
0.953187
0.953132
0.953155
0.953139
0.953137
0.953188
0.953146
0.953146
0.95313
0.953111
0.95311
0.953129
0.953157
0.953149
0.953188
0.953112
0.953109
0.953109
0.953196
0.953123
0.953117
0.953149
0.953132
0.953143
0.953137
0.953134
0.953136
0.953145
0.953196
0.953147
0.953141
0.953136
0.9532
0.95312
0.953208
0.953134
0.953141
0.953163
0.953145
0.953145
0.953125
0.953142
0.953125
0.953147
0.953137
0.95312
0.953121
0.95319
0.953137
0.953225
0.953227
0.953223
0.953138
0.953202
0.953222
0.953156
0.953223
0.953128
0.953128
0.953225
0.953149
0.953203
0.953229
0.9532
0.953229
0.9532
0.953123
0.95319
0.953201
0.953223
0.953146
0.953134
0.953202
0.953145
0.95322
0.953142
0.953149
0.953228
0.953201
0.953227
0.953195
0.953148
0.953126
0.953108
0.953108
0.95314
0.953108
0.953107
0.953108
0.953111
0.953189
0.953119
0.95313
0.953127
0.953141
0.953112
0.953111
0.953127
0.953195
0.95315
0.953203
0.953211
0.953203
0.953111
0.953111
0.953113
0.953113
0.953111
0.953111
0.953116
0.953113
0.953112
0.953114
0.953114
0.953112
0.95311
0.953112
0.953115
SCALARS rr_(P) float
LOOKUP_TABLE default
0.0237346
0.0236763
0.0236815
0.0236773
0.0236614
0.0236816
0.0237348
0.0236781
0.0236865
0.0236765
0.0237305
0.0236781
0.0236793
0.0236758
0.0236667
0.0236807
0.0236736
0.0236787
0.023689
0.023683
0.0236838
0.0236407
0.0236837
0.0236829
0.0236831
0.0236777
0.0237226
0.0236808
0.0237049
0.0236528
0.0236796
0.0237047
0.0237235
0.0236564
0.0236547
0.0236564
0.0236521
0.0236555
0.0236796
0.0237233
0.023705
0.0236519
0.0236519
0.0236795
0.0237178
0.0237041
0.0236878
0.0236855
0.0236814
0.0237084
0.0237064
0.023699
0.0236621
0.0236989
0.0236626
0.0237162
0.0236546
0.0236989
0.0236547
0.0236827
0.0236738
0.023669
0.023719
0.0236693
0.0236689
0.0236737
0.0236736
0.0236777
0.0236833
0.023676
0.0236623
0.0236623
0.0237051
0.0236719
0.0236814
0.0237259
0.0236658
0.0236738
0.0236777
0.0236976
0.0237097
0.0236596
0.0236713
0.0237113
0.0237032
0.0237172
0.0236809
0.0236728
0.0237177
0.0236436
0.023699
0.0236436
0.0236654
0.0236743
0.0236985
0.0237069
0.0237096
0.0236766
0.0236659
0.0236799
0.0236924
0.0237019
0.0237114
0.0236782
0.0236771
0.023677
0.0236706
0.0236803
0.0237115
0.0236753
0.0236826
0.023716
0.0237134
0.0236785
0.0236773
0.0236987
0.0236547
0.0237099
0.0236548
0.0236985
0.0236903
0.0236674
0.0236763
0.0236726
0.0236749
0.0236663
0.0236567
0.0236766
0.0237096
0.0236984
0.0236622
0.0236766
0.0236716
0.0236764
0.0237018
0.0236545
0.0237129
0.0236789
0.0236712
0.0236546
0.0237012
0.0236764
0.0236894
0.0236765
0.0237101
0.0236775
0.0236773
0.0236814
0.0236816
0.0236941
0.0236856
0.0236762
0.0237048
0.0236793
0.0236765
0.0236766
0.0236749
0.0237006
0.0237004
0.0236793
0.0236854
0.0237044
0.0237164
0.0237063
0.0237007
0.023677
0.0237007
0.0237008
0.0237048
0.0237005
0.0236652
0.0236989
0.0237065
0.0236744
0.0236988
0.0236708
0.0236653
0.0236781
0.023662
0.0236769
0.0237048
0.0236767
0.0236768
0.0237011
0.0236727
0.0237068
0.0236726
0.0236706
0.023665
0.0236766
0.0236726
0.023709
0.0236988
0.0237048
0.0236765
0.0236789
0.0236786
0.0236717
0.0236763
0.0236739
0.0236762
0.0236883
0.0236973
0.0236717
0.0237048
0.0236713
0.0236737
0.0237022
0.0236682
0.0236761
0.0236677
0.0236755
0.0236773
0.0236712
0.0236939
0.023675
0.0236967
0.0236706
0.023675
0.023675
0.0236756
0.0236754
0.0236754
0.0236754
0.0236761
0.0236672
0.0236673
0.0236671
0.0236671
0.0236625
0.0236625
0.0236943
0.0236759
0.0236777
0.0236858
0.0236667
0.0236665
0.0236775
0.0236971
0.0236779
0.0236766
0.0236937
0.0236681
0.023694
0.0236711
0.0236781
0.0236936
0.0236964
0.0237098
0.0237093
0.0236713
0.023711
0.02368
0.0236967
0.0236887
0.023678
0.0236751
0.0236516
0.0236753
0.0237114
0.0236967
0.0236777
0.0236781
0.0236974
0.0236751
0.0236892
0.0236516
0.0236966
0.0236748
0.0236729
0.0236786
0.0236669
0.0236729
0.0236622
0.0236794
0.0237152
0.0237173
0.0236638
0.0236837
0.0236781
0.023694
0.023668
0.0236745
0.0236966
0.0236743
0.0236922
0.023677
0.0236922
0.023697
0.023647
0.0236647
0.0236666
0.0236667
0.0236761
0.0236918
0.023657
0.0236732
0.0236852
0.0236916
0.0236934
0.0236639
0.0236937
0.0236654
0.0236928
0.0237177
0.0236919
0.0237104
0.0236704
0.0236937
0.0236471
0.0236928
0.0236718
0.0236944
0.0236723
0.0236929
0.0236809
0.02372
0.023682
0.0236939
0.0236641
0.0236941
0.0236851
0.0236724
0.0236761
0.0236928
0.0236918
0.0236893
0.0236705
0.0236919
0.0236781
0.0236808
0.0236624
0.0236918
0.0236896
0.0236843
0.023689
0.0236924
0.0236889
0.0236687
0.0236783
0.0236894
0.0236939
0.0236766
0.0236765
0.0236921
0.0236624
0.0237326
0.023681
0.0237098
0.0236841
0.023763
0.023763
0.0237626
0.0237627
0.0237625
0.0237632
0.023763
0.0236702
0.0236586
0.0236791
0.0236854
0.0236887
0.0236891
0.023677
0.0236894
0.0236897
0.0236585
0.023689
0.0236678
0.0236989
0.023668
0.0236817
0.0236855
0.0236893
0.0236637
0.0236811
0.0236851
0.023681
0.0236851
0.0236895
0.0236979
0.0236855
0.0236816
0.0236677
0.0236881
0.02369
0.0236884
0.0236859
0.0236817
0.0236769
0.0236884
0.023677
0.0236822
0.0236857
0.023678
0.0236821
0.0236892
0.0236724
0.0236846
0.0236592
0.0237176
0.0236703
0.0236687
0.0236817
0.0236845
0.0236738
0.0237319
0.0236817
0.0236847
0.0237197
0.0236474
0.0236473
0.0236811
0.0236888
0.023684
0.0236882
0.0236384
0.0236384
0.0236779
0.0236779
0.0236782
0.0237321
0.0236897
0.0236715
0.0236858
0.0236863
0.0236858
0.0237329
0.0236727
0.0236891
0.0236813
0.0236812
0.0236864
0.0236852
0.0236864
0.0236859
0.0237229
0.0237103
0.0236852
0.0236811
0.0236846
0.0236866
0.0236849
0.0236842
0.0236845
0.0237176
0.0236668
0.0236885
0.023674
0.0236724
0.023718
0.0236815
0.023682
0.0236623
0.0236477
0.0236478
0.0236646
0.0236898
0.0236814
0.0237186
0.0236489
0.0236397
0.0236398
0.0237336
0.0236555
0.0236527
0.023682
0.0236657
0.0236792
0.0236761
0.0236722
0.0236708
0.0236781
0.023732
0.0236806
0.0236745
0.0236717
0.0237263
0.0236547
0.0237207
0.0236719
0.023676
0.0236931
0.0236796
0.0236784
0.0236617
0.0236776
0.0236618
0.0236812
0.0236716
0.0236537
0.0236533
0.0237184
0.0236754
0.0237357
0.0237347
0.023737
0.0236728
0.0237328
0.0237381
0.0236865
0.0237364
0.0236593
0.0236594
0.0237355
0.0236842
0.0237228
0.0237361
0.0237239
0.0237363
0.0237239
0.0236551
0.0237205
0.0237325
0.0237356
0.0236786
0.0236695
0.0237248
0.0236785
0.0237377
0.0236766
0.0236838
0.0237367
0.0237256
0.0237375
0.0237336
0.0236822
0.0236583
0.0236407
0.0236415
0.0236756
0.0236409
0.0236409
0.0236412
0.0236458
0.0237194
0.0236541
0.0236643
0.0236582
0.0236763
0.0236446
0.0236446
0.0236572
0.0237342
0.0236844
0.0237336
0.0237217
0.0237212
0.0236496
0.0236498
0.0236502
0.02365
0.0236496
0.0236418
0.0236501
0.0236445
0.0236406
0.0236495
0.0236494
0.0236404
0.0236416
0.0236443
0.0236505
SCALARS rr_(T) float
LOOKUP_TABLE default
0.133586
0.133614
0.133611
0.133613
0.133625
0.133611
0.133586
0.133613
0.133609
0.133614
0.133586
0.133613
0.133612
0.133614
0.13362
0.133611
0.133616
0.133612
0.133607
0.13361
0.13361
0.13364
0.13361
0.13361
0.13361
0.133613
0.133591
0.133612
0.133599
0.133631
0.133612
0.133599
0.13359
0.133628
0.133629
0.133628
0.133631
0.133629
0.133612
0.133591
0.133599
0.133631
0.133631
0.133612
0.133593
0.1336
0.133608
0.133609
0.133611
0.133597
0.133598
0.133602
0.133624
0.133602
0.133624
0.133594
0.13363
0.133602
0.133629
0.13361
0.133615
0.133619
0.133593
0.133619
0.133619
0.133616
0.133616
0.133613
0.13361
0.133614
0.133624
0.133624
0.133599
0.133617
0.133611
0.133589
0.133621
0.133616
0.133613
0.133603
0.133597
0.133626
0.133617
0.133596
0.1336
0.133593
0.133612
0.133617
0.133593
0.133638
0.133602
0.133638
0.133622
0.133616
0.133603
0.133598
0.133597
0.133614
0.133621
0.133612
0.133606
0.133601
0.133596
0.133613
0.133614
0.133613
0.133618
0.133612
0.133596
0.133614
0.13361
0.133594
0.133595
0.133612
0.133613
0.133602
0.13363
0.133597
0.13363
0.133603
0.133606
0.13362
0.133614
0.133616
0.133614
0.133621
0.133628
0.133614
0.133597
0.133603
0.133624
0.133613
0.133617
0.133613
0.133601
0.13363
0.133596
0.133613
0.133617
0.13363
0.133601
0.133614
0.133607
0.133614
0.133597
0.133613
0.133614
0.133612
0.133611
0.133605
0.133609
0.133614
0.133599
0.133612
0.133614
0.133613
0.133615
0.133602
0.133602
0.133612
0.133609
0.133599
0.133593
0.133598
0.133602
0.133613
0.133602
0.133602
0.133599
0.133602
0.133622
0.133602
0.133598
0.133615
0.133602
0.133618
0.133622
0.133613
0.133624
0.133614
0.133599
0.133613
0.133613
0.133601
0.133617
0.133598
0.133616
0.133618
0.133622
0.133614
0.133617
0.133598
0.133602
0.133599
0.133613
0.133612
0.133612
0.133617
0.133613
0.133616
0.133614
0.133608
0.133603
0.133617
0.133599
0.133617
0.133616
0.133601
0.13362
0.133614
0.13362
0.133615
0.133613
0.133617
0.133605
0.133615
0.133603
0.133618
0.133614
0.133614
0.133614
0.133614
0.133614
0.133614
0.133614
0.13362
0.13362
0.13362
0.13362
0.133624
0.133624
0.133604
0.133614
0.133612
0.133609
0.13362
0.133621
0.133612
0.133603
0.133612
0.133614
0.133605
0.13362
0.133605
0.133617
0.133612
0.133605
0.133603
0.133597
0.133597
0.133617
0.133597
0.133612
0.133603
0.133607
0.133612
0.133614
0.133632
0.133614
0.133597
0.133603
0.133612
0.133613
0.133603
0.133614
0.133607
0.133632
0.133603
0.133614
0.133616
0.133612
0.13362
0.133617
0.133624
0.133612
0.133594
0.133593
0.133623
0.13361
0.133613
0.133605
0.13362
0.133615
0.133603
0.133616
0.133606
0.133614
0.133606
0.133603
0.133635
0.133622
0.13362
0.13362
0.133614
0.133606
0.133628
0.133616
0.133609
0.133606
0.133605
0.133623
0.133605
0.133622
0.133605
0.133593
0.133606
0.133597
0.133618
0.133605
0.133635
0.133605
0.133617
0.133604
0.133617
0.133605
0.133611
0.133593
0.133611
0.133605
0.133623
0.133605
0.133609
0.133617
0.133614
0.133605
0.133606
0.133607
0.133618
0.133606
0.133613
0.133612
0.133624
0.133606
0.133607
0.13361
0.133607
0.133606
0.133607
0.13362
0.133613
0.133607
0.133605
0.133614
0.133614
0.133606
0.133624
0.133585
0.133612
0.133597
0.13361
0.133568
0.133568
0.133568
0.133568
0.133568
0.133568
0.133568
0.133618
0.133627
0.133612
0.133609
0.133607
0.133607
0.133614
0.133607
0.133607
0.133627
0.133607
0.13362
0.133602
0.133619
0.133611
0.133609
0.133607
0.133623
0.133612
0.133609
0.133612
0.133609
0.133607
0.133603
0.133609
0.133611
0.13362
0.133608
0.133607
0.133607
0.133609
0.133611
0.133614
0.133607
0.133614
0.133611
0.133609
0.133613
0.133611
0.133607
0.133617
0.13361
0.133626
0.133593
0.133618
0.13362
0.133611
0.13361
0.133616
0.133585
0.133611
0.13361
0.133593
0.133635
0.133635
0.133612
0.133607
0.13361
0.133608
0.133642
0.133642
0.133613
0.133613
0.133613
0.133586
0.133607
0.133617
0.133609
0.133609
0.133609
0.133585
0.133617
0.133607
0.133612
0.133612
0.133609
0.133609
0.133609
0.133609
0.133591
0.133597
0.133609
0.133612
0.13361
0.133608
0.133609
0.13361
0.13361
0.133593
0.133621
0.133607
0.133616
0.133617
0.133593
0.133611
0.133611
0.133624
0.133635
0.133634
0.133622
0.133607
0.133612
0.133592
0.133634
0.133641
0.133641
0.133584
0.133629
0.133631
0.133611
0.133621
0.133612
0.133614
0.133617
0.133618
0.133613
0.133585
0.133612
0.133616
0.133617
0.133589
0.133629
0.133593
0.133617
0.133614
0.133605
0.133612
0.133613
0.133624
0.133613
0.133624
0.133611
0.133617
0.13363
0.133631
0.133593
0.133615
0.133585
0.133586
0.133585
0.133617
0.133585
0.133584
0.133609
0.133585
0.133626
0.133626
0.133586
0.13361
0.133591
0.133586
0.13359
0.133585
0.13359
0.133629
0.133591
0.133585
0.133585
0.133613
0.133619
0.13359
0.133613
0.133584
0.133614
0.13361
0.133585
0.133589
0.133585
0.133584
0.133611
0.133627
0.13364
0.133639
0.133615
0.13364
0.13364
0.13364
0.133636
0.133592
0.13363
0.133623
0.133627
0.133614
0.133637
0.133637
0.133628
0.133584
0.133609
0.133585
0.133592
0.133592
0.133633
0.133633
0.133633
0.133633
0.133633
0.133639
0.133633
0.133637
0.13364
0.133633
0.133633
0.13364
0.133639
0.133637
0.133633
SCALARS rr_tsim float
LOOKUP_TABLE default
290
290
290
290
290
290
290
290
290
290
290
290
290
290
290
290
290
290
290
290
290
290
290
290
290
290
290
290
290
290
290
290
290
290
290
290
290
290
290
290
290
290
290
290
290
290
290
290
290
290
290
290
290
290
290
290
290
290
290
290
290
290
290
290
290
290
290
290
290
290
290
290
290
290
290
290
290
290
290
290
290
290
290
290
290
290
290
290
290
290
290
290
290
290
290
290
290
290
290
290
290
290
290
290
290
290
290
290
290
290
290
290
290
290
290
290
290
290
290
290
290
290
290
290
290
290
290
290
290
290
290
290
290
290
290
290
290
290
290
290
290
290
290
290
290
290
290
290
290
290
290
290
290
290
290
290
290
290
290
290
290
290
290
290
290
290
290
290
290
290
290
290
290
290
290
290
290
290
290
290
290
290
290
290
290
290
290
290
290
290
290
290
290
290
290
290
290
290
290
290
290
290
290
290
290
290
290
290
290
290
290
290
290
290
290
290
290
290
290
290
290
290
290
290
290
290
290
290
290
290
290
290
290
290
290
290
290
290
290
290
290
290
290
290
290
290
290
290
290
290
290
290
290
290
290
290
290
290
290
290
290
290
290
290
290
290
290
290
290
290
290
290
290
290
290
290
290
290
290
290
290
290
290
290
290
290
290
290
290
290
290
290
290
290
290
290
290
290
290
290
290
290
290
290
290
290
290
290
290
290
290
290
290
290
290
290
290
290
290
290
290
290
290
290
290
290
290
290
290
290
290
290
290
290
290
290
290
290
290
290
290
290
290
290
290
290
290
290
290
290
290
290
290
290
290
290
290
290
290
290
290
290
290
290
290
290
290
290
290
290
290
290
290
290
290
290
290
290
290
290
290
290
290
290
290
290
290
290
290
290
290
290
290
290
290
290
290
290
290
290
290
290
290
290
290
290
290
290
290
290
290
290
290
290
290
290
290
290
290
290
290
290
290
290
290
290
290
290
290
290
290
290
290
290
290
290
290
290
290
290
290
290
290
290
290
290
290
290
290
290
290
290
290
290
290
290
290
290
290
290
290
290
290
290
290
290
290
290
290
290
290
290
290
290
290
290
290
290
290
290
290
290
290
290
290
290
290
290
290
290
290
290
290
290
290
290
290
290
290
290
290
290
290
290
290
290
290
290
290
290
290
290
290
290
290
290
290
290
290
290
290
290
290
290
290
290
290
290
290
290
290
290
290
290
290
290
290
290
290
290
290
290
290
290
290
290
290
290
290
290
290
290
290
290
290
290
290
290
290
290
290
290
290
SCALARS rr_Vext float
LOOKUP_TABLE default
0.181359
0.449123
0.356049
0.468109
0.250492
0.377828
0.179275
0.465089
0.395106
0.504565
0.165389
0.466509
0.409826
0.435013
0.516135
0.424864
0.369044
0.414184
0.365531
0.360527
0.405109
0.0765106
0.41507
0.383014
0.347105
0.403471
0.15501
0.352834
0.267413
0.339246
0.361969
0.276485
0.17152
0.252901
0.249247
0.253452
0.330126
0.24949
0.36154
0.192836
0.224721
0.29105
0.29106
0.397272
0.216885
0.24412
0.344612
0.350184
0.330079
0.303761
0.312854
0.245236
0.401518
0.315207
0.369414
0.157754
0.266178
0.317516
0.26615
0.393185
0.470929
0.464872
0.153275
0.327642
0.445313
0.417374
0.455654
0.391905
0.357986
0.515556
0.435554
0.43079
0.277654
0.338744
0.353972
0.176426
0.372675
0.413477
0.395169
0.271133
0.24049
0.283506
0.527532
0.24025
0.32776
0.119292
0.40758
0.344609
0.229706
0.0374828
0.273093
0.0407607
0.316357
0.299312
0.258659
0.232983
0.220908
0.44293
0.37291
0.351855
0.293535
0.277769
0.230478
0.418576
0.426138
0.383832
0.340626
0.340848
0.244629
0.512518
0.326026
0.164038
0.220056
0.457878
0.429718
0.304482
0.308631
0.183508
0.320035
0.303366
0.266986
0.502648
0.51181
0.44204
0.484525
0.384951
0.220815
0.47821
0.200079
0.262279
0.227503
0.456394
0.449023
0.448249
0.288937
0.187537
0.190638
0.32744
0.404468
0.187459
0.241542
0.387289
0.287969
0.472757
0.223275
0.385189
0.349731
0.336127
0.214789
0.269546
0.304298
0.440626
0.248026
0.39741
0.461989
0.469242
0.307855
0.249008
0.247656
0.401135
0.333852
0.246117
0.160076
0.239704
0.240467
0.430955
0.252348
0.2551
0.27462
0.245939
0.386343
0.258183
0.226059
0.297713
0.272811
0.340306
0.382117
0.361132
0.313977
0.360845
0.266567
0.418246
0.448851
0.241614
0.442299
0.239439
0.436794
0.402737
0.378965
0.379414
0.446226
0.200774
0.266928
0.246016
0.447409
0.43902
0.407198
0.447894
0.452951
0.381864
0.466569
0.307715
0.27411
0.51273
0.285547
0.465953
0.369961
0.226654
0.286341
0.461724
0.389034
0.350307
0.450055
0.445255
0.278859
0.284221
0.267542
0.395452
0.433418
0.498091
0.478088
0.52037
0.471557
0.515286
0.432055
0.457201
0.46065
0.434354
0.456356
0.422918
0.416635
0.282411
0.38941
0.454294
0.31212
0.470272
0.432155
0.492659
0.288246
0.468276
0.448677
0.2845
0.406913
0.282469
0.455237
0.411289
0.296255
0.277677
0.235552
0.271097
0.455772
0.197501
0.34702
0.276527
0.313903
0.46867
0.455547
0.147788
0.457103
0.236431
0.261764
0.466269
0.379026
0.264585
0.522181
0.29123
0.147779
0.267724
0.406398
0.508921
0.382689
0.457754
0.425155
0.226614
0.216731
0.175978
0.201428
0.308134
0.229075
0.371981
0.227524
0.406391
0.287622
0.268101
0.323952
0.293522
0.398521
0.281486
0.287596
0.13637
0.303571
0.437809
0.438057
0.391524
0.281115
0.192358
0.545877
0.360488
0.298317
0.274291
0.284975
0.282729
0.358842
0.278091
0.192059
0.274791
0.183496
0.351067
0.279576
0.127091
0.263721
0.321337
0.279314
0.443669
0.290709
0.381467
0.138314
0.305661
0.287013
0.261624
0.269317
0.321991
0.308722
0.321045
0.266563
0.271163
0.293859
0.403601
0.276095
0.399021
0.358786
0.290796
0.286473
0.290122
0.323372
0.289912
0.270117
0.308528
0.333028
0.387865
0.290168
0.286353
0.425142
0.419247
0.276211
0.290835
0.117368
0.342062
0.227678
0.31968
0.126304
0.131123
0.117233
0.119129
0.126411
0.133076
0.137186
0.365818
0.275202
0.269662
0.305533
0.296206
0.292407
0.314709
0.285993
0.292386
0.310822
0.291313
0.368787
0.261063
0.378832
0.289102
0.277578
0.291595
0.322764
0.328993
0.304695
0.351048
0.32603
0.300389
0.213975
0.303859
0.298861
0.32828
0.305308
0.288518
0.275035
0.304062
0.319091
0.43616
0.283305
0.423999
0.438658
0.298863
0.422862
0.322474
0.255677
0.356792
0.307317
0.229504
0.18527
0.353348
0.377138
0.313431
0.259542
0.317012
0.138204
0.309863
0.289512
0.140569
0.0597485
0.0653752
0.268651
0.283293
0.331355
0.316585
0.0311308
0.0325286
0.318178
0.321541
0.304241
0.103723
0.264725
0.315902
0.31564
0.272074
0.240281
0.107863
0.464464
0.284944
0.352159
0.35767
0.255162
0.323444
0.249474
0.275479
0.129739
0.19938
0.323804
0.327749
0.280324
0.293562
0.303656
0.320503
0.306408
0.14396
0.275778
0.301352
0.290883
0.437486
0.143857
0.23373
0.240571
0.234522
0.155624
0.155628
0.267698
0.208506
0.301872
0.153855
0.185525
0.0614166
0.0614141
0.11231
0.199632
0.134971
0.256999
0.284537
0.297805
0.336998
0.307416
0.28523
0.222215
0.127171
0.278048
0.290579
0.282437
0.144129
0.147644
0.104628
0.281946
0.285969
0.224179
0.258248
0.238711
0.22379
0.292909
0.223756
0.257202
0.251385
0.158046
0.19524
0.165307
0.310644
0.112706
0.118918
0.115939
0.294532
0.10769
0.104732
0.200915
0.0979318
0.243154
0.243508
0.100659
0.255443
0.113722
0.110988
0.127154
0.105858
0.105723
0.174205
0.12624
0.112774
0.106277
0.235809
0.272657
0.118743
0.260315
0.0960765
0.264786
0.208171
0.100551
0.0864348
0.0948694
0.12646
0.22555
0.192179
0.0824424
0.0914071
0.253855
0.0775858
0.0775825
0.0878715
0.0979618
0.0995847
0.127333
0.207532
0.193793
0.253767
0.0775241
0.0775208
0.229251
0.0843464
0.178713
0.0765188
0.0783412
0.103271
0.198595
0.205595
0.218906
0.200659
0.198579
0.0438923
0.32038
0.0557536
0.0543417
0.259007
0.257238
0.0563344
0.0390571
0.0548043
0.238559
SCALARS rr_Vli float
LOOKUP_TABLE default
0.396486
0.903296
0.721402
0.942901
0.493002
0.765664
0.392034
0.937669
0.806266
1.01511
0.359835
0.940541
0.827701
0.874153
1.02412
0.859727
0.739393
0.835914
0.748796
0.732052
0.823479
0.146196
0.843736
0.777625
0.704886
0.813139
0.333348
0.714256
0.560608
0.6598
0.731224
0.579527
0.369271
0.494392
0.485904
0.495506
0.641456
0.486895
0.730481
0.415064
0.47121
0.565329
0.565389
0.802513
0.463322
0.511147
0.70466
0.71357
0.66868
0.640141
0.657314
0.509708
0.79128
0.654953
0.728498
0.336093
0.518807
0.659755
0.51879
0.798045
0.943863
0.925029
0.327839
0.652217
0.886009
0.836194
0.912998
0.789772
0.727288
1.03671
0.858505
0.849151
0.582209
0.676851
0.716968
0.381182
0.738158
0.828438
0.79642
0.562479
0.507623
0.556447
1.05351
0.508331
0.685383
0.254579
0.825074
0.689486
0.49066
0.0719434
0.567528
0.0782461
0.626349
0.600258
0.537107
0.489901
0.466216
0.891213
0.738706
0.711147
0.604216
0.579672
0.487749
0.844109
0.85808
0.772713
0.679545
0.689378
0.517758
1.02965
0.661677
0.349478
0.467059
0.923819
0.865435
0.632491
0.601612
0.387411
0.624001
0.62999
0.547959
0.998311
1.02947
0.884277
0.972855
0.763252
0.43175
0.962235
0.422252
0.544645
0.448452
0.918478
0.897109
0.901821
0.602898
0.365537
0.404181
0.660931
0.807731
0.365414
0.503537
0.778933
0.59024
0.951059
0.471531
0.776064
0.704321
0.680954
0.435246
0.556267
0.620246
0.886306
0.519981
0.802496
0.92944
0.94426
0.617852
0.518656
0.515712
0.810196
0.680205
0.515659
0.341238
0.503638
0.500927
0.867513
0.525644
0.531442
0.575695
0.512235
0.764767
0.536473
0.475014
0.597025
0.566758
0.6791
0.756451
0.728157
0.618511
0.726372
0.558759
0.841634
0.903303
0.503621
0.884781
0.503408
0.873806
0.803282
0.749915
0.763388
0.89254
0.423344
0.554569
0.51569
0.900208
0.886299
0.82171
0.894903
0.911195
0.76527
0.938415
0.629673
0.568292
1.02454
0.59847
0.930551
0.741277
0.47324
0.569198
0.928572
0.772727
0.703604
0.906434
0.889136
0.575328
0.570471
0.554199
0.788781
0.870376
1.00028
0.961014
1.04558
0.94745
1.03539
0.868711
0.907696
0.914768
0.862343
0.905931
0.833929
0.821515
0.583003
0.782793
0.915906
0.636237
0.93312
0.857209
0.993023
0.597475
0.944368
0.902754
0.586735
0.808801
0.582774
0.908854
0.829725
0.61088
0.57498
0.497305
0.572061
0.910101
0.417614
0.70148
0.572845
0.642711
0.945256
0.914966
0.286927
0.918293
0.500196
0.542258
0.940099
0.7642
0.548648
1.04887
0.596675
0.286927
0.5545
0.815976
1.01856
0.772233
0.908465
0.850822
0.4466
0.437752
0.374434
0.429883
0.608683
0.465559
0.749991
0.469384
0.807668
0.576816
0.55534
0.649546
0.603995
0.802276
0.579178
0.596019
0.263019
0.600442
0.86851
0.869129
0.787208
0.578062
0.376388
1.09285
0.734299
0.613258
0.565366
0.562958
0.583123
0.710459
0.572676
0.410196
0.565166
0.387691
0.700125
0.576599
0.245149
0.543076
0.642113
0.576619
0.887239
0.598797
0.772173
0.296222
0.619802
0.592062
0.51704
0.555816
0.655878
0.617314
0.645549
0.54901
0.557647
0.602196
0.804985
0.56787
0.804505
0.726242
0.573154
0.589127
0.594775
0.657842
0.593794
0.555994
0.631807
0.662546
0.782179
0.594651
0.590809
0.855286
0.843307
0.5683
0.573277
0.256088
0.692601
0.480627
0.650103
0.287606
0.29855
0.266803
0.271172
0.287682
0.303056
0.312311
0.729343
0.539723
0.544565
0.622603
0.6065
0.598932
0.633519
0.58613
0.599483
0.609469
0.596712
0.732658
0.542545
0.753106
0.586003
0.565698
0.597465
0.637466
0.666112
0.620591
0.710715
0.663996
0.615742
0.444039
0.619297
0.605571
0.652003
0.624636
0.591868
0.562871
0.620017
0.64672
0.877916
0.579857
0.853547
0.889738
0.609277
0.852428
0.653928
0.52384
0.713542
0.625424
0.450401
0.395665
0.704468
0.750312
0.6352
0.528048
0.635252
0.301236
0.62802
0.589265
0.300912
0.115298
0.126126
0.544003
0.580096
0.673736
0.647661
0.0592774
0.0619389
0.641396
0.648086
0.613481
0.226113
0.542804
0.631011
0.643416
0.555014
0.489877
0.235469
0.929282
0.583732
0.713231
0.724382
0.520582
0.658847
0.508989
0.561647
0.279101
0.421176
0.659631
0.663708
0.570433
0.599123
0.618256
0.651892
0.623522
0.307427
0.547096
0.616831
0.583014
0.874901
0.307367
0.473533
0.487753
0.46224
0.300515
0.300535
0.529553
0.427592
0.611535
0.329005
0.358876
0.117176
0.117176
0.245398
0.389619
0.262494
0.52105
0.563539
0.601411
0.677646
0.614656
0.569069
0.448036
0.27725
0.562546
0.582799
0.564247
0.311556
0.287924
0.224284
0.563451
0.574849
0.461942
0.521747
0.481453
0.440836
0.590094
0.440798
0.520821
0.502147
0.307811
0.380027
0.353393
0.623981
0.246785
0.25998
0.254334
0.589282
0.234981
0.230138
0.410009
0.214644
0.47712
0.477842
0.220334
0.51961
0.244574
0.243122
0.273901
0.231958
0.227739
0.339829
0.270697
0.245996
0.232677
0.475748
0.543002
0.256116
0.525107
0.211012
0.532689
0.423219
0.220454
0.186663
0.208255
0.276319
0.457466
0.376607
0.157552
0.174883
0.509986
0.148307
0.148306
0.168049
0.188628
0.213205
0.248113
0.410273
0.379761
0.51034
0.149004
0.149003
0.448511
0.184462
0.363609
0.167149
0.16815
0.221553
0.384549
0.398195
0.424214
0.388778
0.384539
0.0840102
0.620731
0.107163
0.103829
0.501444
0.497965
0.107596
0.0747329
0.105301
0.462542
SCALARS rr_S_ext' float
LOOKUP_TABLE default
-0.000330595
-0.000754899
-0.000602774
-0.000787965
-0.000412243
-0.000639754
-0.000326879
-0.00078358
-0.000673557
-0.000848342
-0.000300069
-0.00078598
-0.000691651
-0.000730563
-0.000856174
-0.000718378
-0.000617985
-0.000698525
-0.00062548
-0.000611638
-0.000688008
-0.000122337
-0.000704929
-0.000649716
-0.000588938
-0.000679518
-0.000278078
-0.000596816
-0.00046799
-0.000551878
-0.00061103
-0.000483785
-0.000308035
-0.000413473
-0.000406404
-0.000414404
-0.000536547
-0.000407223
-0.000610405
-0.000346237
-0.000393358
-0.000472875
-0.000472924
-0.000670601
-0.000386572
-0.000426715
-0.000588642
-0.000596142
-0.000558724
-0.000534306
-0.000548685
-0.000425601
-0.000661635
-0.000546883
-0.000609129
-0.000280443
-0.000433927
-0.000550892
-0.000433912
-0.000666781
-0.000788872
-0.000773279
-0.000273526
-0.000545217
-0.000740662
-0.000698895
-0.000763081
-0.000659993
-0.000607648
-0.000866394
-0.000717843
-0.00071002
-0.00048602
-0.000565755
-0.000599074
-0.000317938
-0.000617139
-0.000692412
-0.000665546
-0.000469686
-0.000423679
-0.000465328
-0.000880594
-0.000424242
-0.000572193
-0.000212414
-0.000689414
-0.000576296
-0.000409382
-6.01956e-05
-0.000473881
-6.54688e-05
-0.000523665
-0.000501685
-0.000448491
-0.00040893
-0.000389122
-0.000744794
-0.000617595
-0.000594245
-0.000504647
-0.000483967
-0.000407061
-0.000705387
-0.00071709
-0.000645754
-0.000568028
-0.000576044
-0.000432105
-0.000860512
-0.000552844
-0.000291609
-0.000389762
-0.000771988
-0.000723234
-0.000528132
-0.000503183
-0.000323346
-0.000521906
-0.000526048
-0.000457695
-0.000834576
-0.000860343
-0.00073911
-0.000813062
-0.000638098
-0.000361083
-0.000804147
-0.000352428
-0.000454784
-0.000374973
-0.000767574
-0.000749858
-0.000753659
-0.000503361
-0.000305732
-0.000337303
-0.000552302
-0.000675158
-0.000305628
-0.000420415
-0.000650971
-0.00049303
-0.000794811
-0.000393551
-0.00064854
-0.000588596
-0.000568979
-0.000363672
-0.000464566
-0.00051817
-0.000740696
-0.000434074
-0.000670593
-0.000776744
-0.000789121
-0.00051638
-0.000433048
-0.000430593
-0.000677021
-0.000568269
-0.000430473
-0.000284729
-0.000420405
-0.000418244
-0.00072498
-0.000438882
-0.000443722
-0.000480585
-0.000427687
-0.000639393
-0.000447952
-0.000396511
-0.000498984
-0.000473243
-0.000567651
-0.000632439
-0.000608496
-0.000517179
-0.000607029
-0.000466449
-0.000703359
-0.000754894
-0.000420486
-0.000739535
-0.000420206
-0.000730358
-0.000671464
-0.000626982
-0.000637971
-0.000746022
-0.000353348
-0.000463064
-0.000430494
-0.000752309
-0.000740623
-0.000686657
-0.000748013
-0.000761494
-0.000639612
-0.000784246
-0.000525991
-0.000474549
-0.000856366
-0.000499602
-0.000777819
-0.000619561
-0.000395101
-0.000475834
-0.000776022
-0.000645993
-0.000588038
-0.000757496
-0.000743204
-0.000480488
-0.00047678
-0.000462792
-0.000659343
-0.000727412
-0.000835979
-0.000803141
-0.000873827
-0.000791816
-0.000865306
-0.000726003
-0.000758831
-0.000764738
-0.000720915
-0.000757357
-0.000697286
-0.000686906
-0.00048689
-0.000654203
-0.000765383
-0.00053153
-0.000780096
-0.00071664
-0.000829831
-0.000498921
-0.000789161
-0.000754439
-0.000490021
-0.000676137
-0.000486707
-0.00075969
-0.000693353
-0.000510187
-0.00048015
-0.000415065
-0.000477463
-0.000760729
-0.000348539
-0.000586164
-0.000478362
-0.000536873
-0.000789901
-0.000764674
-0.000240006
-0.000767451
-0.000417457
-0.000452819
-0.000785599
-0.000638616
-0.000458143
-0.000876586
-0.00049841
-0.000240006
-0.000463045
-0.000681951
-0.000851336
-0.000645313
-0.00075948
-0.000711143
-0.000373429
-0.000365798
-0.000312445
-0.000358683
-0.000508925
-0.000388971
-0.000626743
-0.00039201
-0.000675192
-0.000482094
-0.000463744
-0.000542883
-0.000504466
-0.000670463
-0.000483741
-0.000497707
-0.000220044
-0.000502017
-0.000726085
-0.0007266
-0.000657889
-0.000482817
-0.000314775
-0.000913425
-0.000613465
-0.000512217
-0.000472182
-0.000470693
-0.000487003
-0.000593986
-0.0004783
-0.000342248
-0.000472043
-0.000323573
-0.000585237
-0.000481554
-0.000205093
-0.000453578
-0.000536716
-0.000481559
-0.000741593
-0.000500112
-0.000645212
-0.000247138
-0.00051787
-0.000494466
-0.000432295
-0.000464189
-0.000547948
-0.00051598
-0.000539498
-0.000458531
-0.000465764
-0.000503019
-0.000672888
-0.0004743
-0.000672299
-0.000606834
-0.000479247
-0.000492058
-0.000496816
-0.000549608
-0.000496009
-0.000464372
-0.000527764
-0.000553859
-0.000653638
-0.000496717
-0.000493417
-0.000714776
-0.000704767
-0.000474655
-0.000479349
-0.000213536
-0.00057872
-0.000401147
-0.000543147
-0.00023951
-0.000248624
-0.000222189
-0.000225825
-0.000239576
-0.000252376
-0.000260086
-0.000609664
-0.000451348
-0.000455054
-0.000520143
-0.000506624
-0.0005003
-0.000529433
-0.000489598
-0.000500746
-0.000509677
-0.000498444
-0.000612492
-0.00045302
-0.000629572
-0.000489634
-0.000472602
-0.00049907
-0.000532994
-0.000556587
-0.00051847
-0.000593858
-0.000554733
-0.00051433
-0.000370783
-0.000517378
-0.000505991
-0.00054507
-0.000521785
-0.000494377
-0.000470187
-0.000517974
-0.000540369
-0.000733678
-0.000484374
-0.000713311
-0.000743406
-0.000509004
-0.000712349
-0.000546383
-0.00043757
-0.000596408
-0.000522519
-0.000376646
-0.000330125
-0.000588872
-0.000627228
-0.000530745
-0.000441168
-0.000530943
-0.00025119
-0.000524743
-0.000492307
-0.000251054
-9.64583e-05
-0.000105518
-0.000454554
-0.000484569
-0.000562895
-0.000541021
-4.96078e-05
-5.18351e-05
-0.000535994
-0.000541589
-0.000512665
-0.000188548
-0.0004534
-0.000527442
-0.000537528
-0.000463665
-0.000409254
-0.00019634
-0.000776724
-0.0004876
-0.000595954
-0.000605271
-0.000434898
-0.000550429
-0.000425213
-0.000469213
-0.000232823
-0.000351521
-0.000551082
-0.000554575
-0.000476577
-0.000500508
-0.000516523
-0.00054464
-0.000520931
-0.000256504
-0.000457381
-0.000515259
-0.000487281
-0.00073128
-0.000256451
-0.000395665
-0.000407539
-0.000386505
-0.000251405
-0.000251421
-0.000442746
-0.000357164
-0.000510976
-0.000274497
-0.000300215
-9.8057e-05
-9.80565e-05
-0.000204614
-0.000325864
-0.000219559
-0.000435361
-0.000471148
-0.000502557
-0.000566323
-0.000513758
-0.000475682
-0.000374409
-0.000231188
-0.000470059
-0.000487093
-0.000471634
-0.00025986
-0.000240813
-0.000187116
-0.000470964
-0.00048042
-0.000385807
-0.000435983
-0.000402331
-0.000368612
-0.000493132
-0.000368579
-0.000435184
-0.000419729
-0.000257454
-0.000317861
-0.000294848
-0.000521489
-0.000205763
-0.000216774
-0.000212044
-0.000492543
-0.000195937
-0.000191862
-0.000342523
-0.000178959
-0.000398993
-0.000399597
-0.00018371
-0.000434119
-0.000204023
-0.000202707
-0.000228477
-0.000193397
-0.00018997
-0.000284225
-0.000225832
-0.000205124
-0.000194001
-0.000397561
-0.000453913
-0.000213633
-0.00043881
-0.000175919
-0.000445176
-0.000353592
-0.000183802
-0.000155695
-0.000173624
-0.000230396
-0.00038223
-0.000314949
-0.000131839
-0.000146337
-0.000426218
-0.000124102
-0.000124101
-0.00014062
-0.000157814
-0.000177877
-0.000207521
-0.000343025
-0.000317586
-0.000426502
-0.000124669
-0.000124668
-0.000375097
-0.000153801
-0.000303784
-0.000139372
-0.00014028
-0.000184833
-0.000321684
-0.000333097
-0.000354857
-0.000325217
-0.000321675
-7.02969e-05
-0.000519249
-8.9661e-05
-8.68841e-05
-0.000419471
-0.000416562
-9.00376e-05
-6.25344e-05
-8.81037e-05
-0.000386914
SCALARS rr_P_ext' float
LOOKUP_TABLE default
0.000179431
0.000414433
0.000330595
0.000432501
0.000226954
0.000350869
0.000177408
0.00043004
0.000369067
0.000465713
0.000162978
0.000431357
0.000379501
0.000401118
0.000470862
0.000394065
0.000339439
0.000383309
0.000342548
0.000335361
0.000377179
6.76034e-05
0.000386456
0.000356245
0.00032291
0.000372949
0.000151281
0.000327366
0.000255497
0.000304291
0.000335254
0.000264127
0.000167552
0.000227829
0.000224012
0.00022834
0.000295873
0.000224433
0.000334904
0.000188337
0.000214746
0.000260774
0.000260798
0.00036794
0.0002105
0.000233003
0.000322452
0.000326711
0.000306442
0.000291493
0.000299462
0.000232629
0.000364193
0.000298932
0.000335262
0.000152766
0.000239189
0.000301123
0.000239179
0.000365616
0.000433282
0.000425115
0.000148916
0.000299721
0.00040719
0.000383881
0.000419131
0.000362236
0.00033315
0.000475656
0.000395123
0.000390815
0.000265332
0.000310859
0.00032858
0.000172852
0.000339478
0.000380316
0.00036528
0.000256791
0.000231089
0.000256269
0.000483886
0.00023132
0.000312495
0.000115682
0.000378158
0.000316597
0.000222925
3.32456e-05
0.000259023
3.61574e-05
0.000288076
0.000275524
0.000245171
0.000223161
0.000212245
0.000408862
0.000339724
0.000326023
0.000276194
0.000264385
0.000221946
0.000387115
0.000393615
0.000354468
0.000312173
0.000316009
0.000235597
0.000472485
0.000303144
0.00015885
0.000212428
0.000423638
0.000396978
0.000288693
0.000277361
0.000176359
0.000287672
0.000287565
0.000250596
0.000458927
0.000472315
0.00040605
0.000446465
0.000350963
0.000198957
0.000441443
0.00019223
0.00024861
0.000206396
0.000421358
0.000412024
0.000413735
0.000274984
0.000168525
0.000183864
0.000303065
0.000371
0.000168466
0.0002297
0.000357376
0.00026999
0.00043633
0.00021464
0.000355961
0.000323077
0.000312065
0.000199455
0.000254171
0.000283969
0.00040663
0.00023698
0.000367954
0.000426409
0.000433191
0.000283567
0.00023663
0.000235297
0.000371471
0.00031144
0.000235035
0.000155089
0.000229449
0.000228537
0.000397961
0.000239816
0.000242457
0.000262375
0.000233703
0.000351748
0.000244855
0.000216405
0.000274042
0.000258686
0.000311954
0.00034792
0.000333947
0.000284692
0.000333215
0.00025466
0.000386111
0.000414396
0.000229744
0.000406283
0.000229319
0.00040124
0.000369028
0.000344935
0.000350222
0.000409853
0.000192756
0.00025312
0.00023503
0.00041299
0.000406394
0.000376803
0.000411007
0.000418042
0.000351305
0.000430543
0.000288104
0.000259472
0.000470538
0.000272765
0.00042741
0.000340301
0.000215824
0.000261627
0.000426034
0.000355222
0.000322883
0.000415782
0.000408394
0.000262892
0.000261817
0.000253073
0.000362365
0.000399425
0.000459038
0.000440952
0.000479786
0.00043476
0.000475106
0.000398584
0.000417296
0.000420532
0.000396446
0.000416491
0.000383789
0.000378077
0.000266373
0.000359176
0.000420058
0.000291287
0.000429022
0.000394141
0.000455442
0.000272805
0.000433091
0.000414159
0.000268121
0.000371764
0.000266294
0.000417466
0.000380495
0.000279162
0.000262578
0.000226384
0.000260435
0.000418026
0.000190058
0.000321584
0.000261585
0.000294042
0.000433492
0.000419877
0.000132362
0.000421389
0.000227622
0.000247617
0.00043115
0.00035048
0.000250495
0.000481322
0.000272952
0.000132361
0.000253215
0.00037447
0.000467675
0.000354116
0.000417674
0.000390665
0.000205551
0.000200707
0.00017023
0.00019534
0.000280049
0.000213247
0.000343964
0.000214484
0.00037125
0.000264764
0.000253595
0.000298157
0.000276107
0.000368031
0.000264767
0.000272149
0.000121454
0.000276202
0.00039933
0.000399606
0.000361189
0.000264283
0.000173425
0.000501763
0.000336221
0.000280386
0.000258379
0.00025901
0.000266467
0.000326761
0.000261759
0.00018637
0.000258379
0.000176464
0.000321645
0.000263488
0.000113201
0.00024823
0.000294902
0.000263456
0.000407432
0.000273688
0.000353915
0.000134526
0.000283999
0.000270545
0.000237868
0.000253963
0.000300314
0.000283483
0.000296189
0.000250936
0.000254945
0.000275468
0.000369812
0.000259613
0.000368965
0.000332864
0.000263793
0.000269338
0.000272056
0.000301275
0.000271648
0.000254153
0.000289046
0.000304496
0.000358714
0.000272015
0.000269964
0.000392391
0.000386904
0.000259795
0.000263847
0.000115932
0.00031743
0.000218796
0.000297747
0.00012923
0.000134149
0.000119894
0.000121853
0.000129277
0.000136169
0.000140336
0.000335082
0.000248597
0.000249687
0.00028506
0.000277474
0.000273996
0.000290619
0.000268115
0.000274205
0.00028073
0.000272979
0.000336791
0.00024762
0.000346155
0.000268528
0.000259001
0.00027331
0.0002933
0.000305292
0.000284161
0.000325738
0.000304039
0.000281652
0.000202709
0.000283538
0.000277511
0.000299729
0.000285807
0.000270698
0.000257534
0.000283845
0.000296357
0.000402739
0.000265301
0.000391553
0.000407668
0.000278939
0.000390954
0.000299634
0.000239633
0.000327665
0.000286411
0.000207434
0.000179771
0.000323655
0.000344831
0.000291081
0.000241828
0.000291623
0.000136395
0.000287787
0.000269846
0.000136666
5.32371e-05
5.82388e-05
0.000249322
0.000265391
0.000308579
0.000296346
2.74252e-05
2.86565e-05
0.000294167
0.000297243
0.000281352
0.000102378
0.000248277
0.00028982
0.000294573
0.000254071
0.000224273
0.000106588
0.000426706
0.000267036
0.000326872
0.000331983
0.000238303
0.000301672
0.000232996
0.00025713
0.000126655
0.000191711
0.000302028
0.000304182
0.000261232
0.000274243
0.000283107
0.000298558
0.000285543
0.000139681
0.000251547
0.000282215
0.000267633
0.000401764
0.000139642
0.000217007
0.000223498
0.000212745
0.000138744
0.000138752
0.000243589
0.000195575
0.000280254
0.000149451
0.000165645
5.41966e-05
5.4196e-05
0.000111066
0.000179592
0.00012106
0.000238756
0.000259174
0.00027575
0.000310915
0.000282266
0.000261419
0.000205479
0.00012553
0.000257856
0.000267506
0.00025915
0.000141268
0.000132733
0.00010184
0.000258771
0.000263764
0.000211123
0.000239208
0.000220794
0.000202912
0.000270665
0.000202892
0.000238698
0.000230633
0.000141928
0.000175242
0.000160537
0.000286341
0.000111654
0.000117655
0.000115032
0.000270586
0.000106376
0.000104058
0.00018768
9.70956e-05
0.000219744
0.000220075
9.96919e-05
0.000237971
0.000110992
0.000109989
0.000124268
0.000104932
0.000103324
0.000156653
0.000122908
0.000111369
0.000105273
0.000218167
0.000249515
0.000116173
0.000240808
9.54184e-05
0.000244388
0.000193843
9.97186e-05
8.46515e-05
9.41803e-05
0.00012506
0.000209608
0.000173486
7.28531e-05
8.08533e-05
0.000234024
6.85758e-05
6.85748e-05
7.76985e-05
8.71246e-05
9.68297e-05
0.000114394
0.00018874
0.00017494
0.000234148
6.88416e-05
6.88407e-05
0.000206662
8.34733e-05
0.00016652
7.56542e-05
7.63353e-05
0.000100587
0.000177467
0.000183758
0.000195749
0.000179403
0.000177461
3.8838e-05
0.000286439
4.95104e-05
4.80126e-05
0.00023142
0.000229818
4.97576e-05
3.45507e-05
4.86526e-05
0.000213418
SCALARS rr_S' float
LOOKUP_TABLE default
0.000113869
0.00026116
0.000208456
0.000272578
0.00014277
0.000221243
0.000112588
0.000271052
0.000232851
0.000293483
0.00010338
0.000271881
0.000239231
0.000252753
0.000296393
0.000248452
0.000213835
0.000241616
0.000216187
0.000211498
0.000237894
4.24275e-05
0.000243743
0.000224666
0.000203648
0.000235058
9.58663e-05
0.000206405
0.000161559
0.000191236
0.000211343
0.000167013
0.000106188
0.000143241
0.000140812
0.000143563
0.000185931
0.000141089
0.000211125
0.000119358
0.000135793
0.00016387
0.000163886
0.000231948
0.000133317
0.00014732
0.000203474
0.000206104
0.000193224
0.000184401
0.000189394
0.000146992
0.000229125
0.000188884
0.000210935
9.67312e-05
0.00015035
0.000190268
0.000150344
0.000230571
0.00027296
0.000267662
9.43254e-05
0.000188717
0.000256373
0.000241833
0.000264039
0.000228305
0.000210113
0.000299734
0.000248587
0.000245878
0.000167781
0.00019579
0.00020718
0.00010958
0.000213664
0.000239589
0.000230225
0.000162234
0.000146209
0.000161176
0.000304751
0.000146385
0.000197559
7.32596e-05
0.000238429
0.000199425
0.000141184
2.08718e-05
0.000163668
2.27001e-05
0.000181305
0.000173586
0.000154906
0.000141147
0.000134285
0.000257659
0.000213821
0.000205532
0.000174381
0.000167116
0.000140455
0.000243999
0.000248066
0.000223391
0.00019659
0.00019923
0.000149095
0.000297711
0.000191172
0.000100582
0.000134464
0.00026703
0.000250189
0.00018241
0.000174345
0.000111584
0.00018083
0.000181693
0.00015818
0.000288903
0.000297636
0.000255767
0.000281303
0.000220908
0.000125091
0.000278191
0.000121622
0.000157079
0.000129852
0.000265536
0.000259501
0.000260726
0.000173814
0.000105931
0.000116374
0.000191038
0.000233655
0.000105895
0.000145179
0.000225207
0.000170403
0.000274965
0.000135809
0.000224345
0.000203615
0.00019677
0.000125767
0.000160509
0.000179143
0.000256244
0.00014985
0.00023195
0.000268714
0.000272991
0.000178664
0.000149548
0.000148702
0.00023417
0.000196468
0.000148612
9.8206e-05
0.000145114
0.000144434
0.000250799
0.000151562
0.000153233
0.000165907
0.000147697
0.000221374
0.000154714
0.000136866
0.000172651
0.000163451
0.000196457
0.000218966
0.000210486
0.000179104
0.000209996
0.000161028
0.000243324
0.000261151
0.000145204
0.000255915
0.000145041
0.000252738
0.000232393
0.000217081
0.000220705
0.000258161
0.000121946
0.000159935
0.000148615
0.000260258
0.000256174
0.000237512
0.000258862
0.000263437
0.000221317
0.000271311
0.000181811
0.000163919
0.000296359
0.000172475
0.000269184
0.000214381
0.000136426
0.000164713
0.000268467
0.000223623
0.000203449
0.000262041
0.000257205
0.000166012
0.000164962
0.000159865
0.000228197
0.000251668
0.000289229
0.000277854
0.000302316
0.000273943
0.000299368
0.000251168
0.000262688
0.000264729
0.000249562
0.000262179
0.000241464
0.00023787
0.000168219
0.00022633
0.000264752
0.000183762
0.000270057
0.000248093
0.000287049
0.000172339
0.000272973
0.000260996
0.00016931
0.000234049
0.000168162
0.000262914
0.000239829
0.000176279
0.000165864
0.000143235
0.000164771
0.000263271
0.000120268
0.000202736
0.000165243
0.000185567
0.000273228
0.000264558
8.31734e-05
0.000265515
0.000144045
0.000156419
0.000271744
0.000220906
0.00015825
0.000303275
0.000172267
8.31732e-05
0.000159953
0.000235941
0.000294596
0.000223212
0.000262917
0.000246085
0.000129319
0.000126523
0.000107776
0.000123706
0.000176221
0.000134496
0.000216799
0.000135444
0.000233723
0.000166807
0.000160194
0.000187842
0.000174321
0.000231939
0.00016716
0.000171922
7.62795e-05
0.000173818
0.000251361
0.000251538
0.000227604
0.000166846
0.000109044
0.000316076
0.000212096
0.000177009
0.000163152
0.000162983
0.000168267
0.000205652
0.000165273
0.000118032
0.000163121
0.000111658
0.000202551
0.000166384
7.10962e-05
0.000156731
0.000185739
0.000166377
0.00025663
0.000172808
0.000223143
8.52202e-05
0.000179086
0.000170844
0.000149684
0.000160378
0.000189445
0.000178558
0.000186643
0.000158441
0.000160953
0.000173858
0.000232886
0.000163901
0.000232557
0.00020987
0.000165963
0.000170039
0.00017171
0.000190031
0.00017144
0.000160464
0.000182417
0.000191714
0.0002261
0.00017168
0.000170479
0.000247278
0.000243817
0.000164021
0.000165998
7.35563e-05
0.000200144
0.000138433
0.000187801
8.2301e-05
8.54334e-05
7.63515e-05
7.76003e-05
8.23264e-05
8.6722e-05
8.93731e-05
0.000211007
0.000156338
0.000157396
0.000179828
0.000175111
0.000172923
0.000183152
0.000169218
0.000173068
0.000176544
0.000172281
0.000212024
0.000156463
0.000217927
0.000169325
0.000163391
0.000172494
0.000184557
0.000192491
0.000179254
0.000205381
0.000191792
0.000177764
0.000128069
0.00017887
0.000174986
0.000188687
0.000180359
0.000170862
0.000162521
0.000179072
0.000186872
0.00025381
0.000167424
0.000246763
0.000257076
0.000175973
0.000246413
0.000188946
0.000151238
0.000206388
0.000180662
0.000130459
0.000113852
0.000203812
0.000217109
0.000183544
0.000152537
0.000183716
8.65321e-05
0.000181468
0.000170215
8.65726e-05
3.34371e-05
3.65779e-05
0.000157202
0.000167487
0.000194631
0.000187009
1.72073e-05
1.79798e-05
0.000185408
0.000187346
0.000177336
6.49523e-05
0.000156703
0.000182533
0.000185836
0.000160294
0.000141487
6.76309e-05
0.000268781
0.000168531
0.000206102
0.000209324
0.000150348
0.000190303
0.000146999
0.000162216
8.02636e-05
0.000121303
0.000190528
0.000191793
0.000164778
0.000173027
0.000178585
0.000188315
0.000180113
8.84623e-05
0.00015834
0.000178098
0.000168607
0.000253062
8.84413e-05
0.000136832
0.000140933
0.000133846
8.71456e-05
8.71512e-05
0.000153295
0.000123441
0.000176711
9.46607e-05
0.000104056
3.40095e-05
3.40093e-05
7.04773e-05
0.0001129
7.60812e-05
0.000150556
0.00016312
0.000173827
0.000195923
0.000177788
0.000164631
0.000129513
7.96405e-05
0.000162572
0.000168536
0.000163218
8.95607e-05
8.34357e-05
6.45197e-05
0.000162984
0.000166208
0.000133308
0.000150797
0.000139169
0.000127653
0.000170588
0.000127641
0.000150503
0.000145257
8.92066e-05
0.00011014
0.00010168
0.000180422
7.08664e-05
7.46656e-05
7.30221e-05
0.000170442
6.74942e-05
6.60655e-05
0.000118411
6.16314e-05
0.000138202
0.00013841
6.32725e-05
0.0001501
7.03364e-05
6.98125e-05
7.87595e-05
6.66049e-05
6.54856e-05
9.84758e-05
7.78668e-05
7.066e-05
6.68157e-05
0.000137517
0.00015711
7.36375e-05
0.000151787
6.05773e-05
0.000154009
0.000122261
6.32986e-05
5.36629e-05
5.97893e-05
7.93574e-05
0.000132179
0.000109097
4.57225e-05
5.07478e-05
0.00014746
4.30388e-05
4.30383e-05
4.87661e-05
5.47112e-05
6.13371e-05
7.19035e-05
0.000118772
0.00011001
0.000147551
4.32241e-05
4.32237e-05
0.000129943
5.29724e-05
0.000105035
4.80062e-05
4.83667e-05
6.37293e-05
0.000111492
0.000115446
0.000122985
0.000112714
0.000111489
2.43776e-05
0.000179961
3.10864e-05
3.01322e-05
0.000145385
0.000144378
3.12264e-05
2.1686e-05
3.0547e-05
0.000134092
SCALARS rr_P' float
LOOKUP_TABLE default
3.72939e-05
7.93062e-05
6.37228e-05
8.28861e-05
4.2519e-05
6.76422e-05
3.68831e-05
8.24881e-05
7.16387e-05
8.91459e-05
3.3711e-05
8.27416e-05
7.29192e-05
7.66924e-05
8.89181e-05
7.5861e-05
6.47113e-05
7.36e-05
6.67441e-05
6.47785e-05
7.29347e-05
1.2306e-05
7.47295e-05
6.88047e-05
6.23809e-05
7.1511e-05
3.09305e-05
6.30454e-05
5.09338e-05
5.63514e-05
6.44326e-05
5.26452e-05
3.42957e-05
4.24024e-05
4.15799e-05
4.25006e-05
5.47422e-05
4.17012e-05
6.43761e-05
3.85411e-05
4.28195e-05
4.82314e-05
4.82394e-05
7.07123e-05
4.27547e-05
4.63925e-05
6.2716e-05
6.33276e-05
5.90581e-05
5.84115e-05
5.9829e-05
4.59796e-05
6.83176e-05
5.90682e-05
6.29315e-05
3.09453e-05
4.43883e-05
5.95015e-05
4.43895e-05
7.05948e-05
8.26306e-05
8.05026e-05
3.02837e-05
5.67791e-05
7.70996e-05
7.31811e-05
7.99106e-05
6.9452e-05
6.43858e-05
9.10042e-05
7.41322e-05
7.3327e-05
5.29066e-05
5.91057e-05
6.33146e-05
3.55057e-05
6.39965e-05
7.25061e-05
7.00416e-05
5.06617e-05
4.63812e-05
4.78824e-05
9.19561e-05
4.65377e-05
6.21389e-05
2.34725e-05
7.28266e-05
6.02751e-05
4.52736e-05
6.07812e-06
5.11896e-05
6.61138e-06
5.42844e-05
5.25758e-05
4.84142e-05
4.46208e-05
4.25924e-05
7.82723e-05
6.40499e-05
6.26893e-05
5.40716e-05
5.24671e-05
4.46605e-05
7.4273e-05
7.54098e-05
6.78946e-05
5.92644e-05
6.08051e-05
4.74131e-05
9.03158e-05
5.85276e-05
3.21772e-05
4.28695e-05
8.13195e-05
7.60667e-05
5.70292e-05
5.14773e-05
3.54024e-05
5.34041e-05
5.67902e-05
4.89187e-05
8.67451e-05
9.03911e-05
7.72931e-05
8.52945e-05
6.62275e-05
3.70357e-05
8.45126e-05
3.85756e-05
4.90953e-05
3.8726e-05
8.06794e-05
7.83328e-05
7.91972e-05
5.45634e-05
3.12754e-05
3.7065e-05
5.81995e-05
7.05027e-05
3.12668e-05
4.55356e-05
6.83877e-05
5.26356e-05
8.35161e-05
4.3102e-05
6.82338e-05
6.19042e-05
6.01437e-05
3.845e-05
4.98865e-05
5.50581e-05
7.78217e-05
4.7244e-05
7.06893e-05
8.1621e-05
8.29388e-05
5.41501e-05
4.68695e-05
4.65939e-05
7.13803e-05
6.03601e-05
4.68268e-05
3.14339e-05
4.58422e-05
4.5272e-05
7.62195e-05
4.75033e-05
4.80322e-05
5.2303e-05
4.62872e-05
6.62703e-05
4.83833e-05
4.32404e-05
5.22906e-05
5.11064e-05
5.92394e-05
6.55532e-05
6.40626e-05
5.33833e-05
6.38182e-05
5.07602e-05
7.39245e-05
7.93469e-05
4.55381e-05
7.73362e-05
4.58458e-05
7.63794e-05
7.00434e-05
6.49658e-05
6.70441e-05
7.80075e-05
3.8647e-05
5.00098e-05
4.68483e-05
7.90611e-05
7.80551e-05
7.23416e-05
7.81439e-05
8.0014e-05
6.69898e-05
8.23917e-05
5.60758e-05
5.11583e-05
8.94697e-05
5.43619e-05
8.12254e-05
6.48796e-05
4.28515e-05
4.94942e-05
8.15204e-05
6.71486e-05
6.17056e-05
7.96733e-05
7.76048e-05
5.15842e-05
5.00012e-05
4.98543e-05
6.8781e-05
7.63194e-05
8.77127e-05
8.43346e-05
9.17255e-05
8.31128e-05
9.08324e-05
7.62513e-05
7.88463e-05
7.94766e-05
7.49072e-05
7.86867e-05
7.20336e-05
7.09596e-05
5.2298e-05
6.86973e-05
8.05732e-05
5.64813e-05
8.10172e-05
7.44063e-05
8.73406e-05
5.37762e-05
8.30968e-05
7.92844e-05
5.25899e-05
7.03235e-05
5.22516e-05
7.93103e-05
7.30296e-05
5.47467e-05
5.17079e-05
4.54464e-05
5.22562e-05
7.94319e-05
3.82125e-05
6.18448e-05
5.15342e-05
5.72646e-05
8.31816e-05
8.02403e-05
2.447e-05
8.05466e-05
4.57892e-05
4.87822e-05
8.27052e-05
6.72309e-05
4.93977e-05
9.19892e-05
5.31912e-05
2.44713e-05
4.98758e-05
7.15394e-05
8.90656e-05
6.79845e-05
7.88896e-05
7.43922e-05
3.8559e-05
3.85677e-05
3.44383e-05
3.96373e-05
5.26548e-05
4.12275e-05
6.59807e-05
4.20828e-05
7.02181e-05
5.05227e-05
4.99556e-05
5.68837e-05
5.40375e-05
7.04918e-05
5.18136e-05
5.36371e-05
2.23099e-05
5.19969e-05
7.53932e-05
7.54561e-05
6.90966e-05
5.16877e-05
3.23063e-05
9.55856e-05
6.51476e-05
5.48217e-05
5.06513e-05
4.87008e-05
5.2269e-05
6.15737e-05
5.12677e-05
3.78454e-05
5.05426e-05
3.54512e-05
6.10414e-05
5.16826e-05
2.0796e-05
4.86172e-05
5.60753e-05
5.17259e-05
7.75308e-05
5.3616e-05
6.81543e-05
2.73923e-05
5.4784e-05
5.30778e-05
4.47436e-05
4.98476e-05
5.81897e-05
5.39391e-05
5.66659e-05
4.91543e-05
4.98659e-05
5.36934e-05
7.01904e-05
5.0786e-05
7.07761e-05
6.40988e-05
4.94905e-05
5.26806e-05
5.30492e-05
5.83019e-05
5.29212e-05
4.97549e-05
5.63004e-05
5.765e-05
6.88241e-05
5.30219e-05
5.29737e-05
7.51074e-05
7.40467e-05
5.08385e-05
4.95044e-05
2.40481e-05
6.1145e-05
4.39183e-05
5.75993e-05
2.79791e-05
2.90414e-05
2.59434e-05
2.63724e-05
2.79729e-05
2.94845e-05
3.03766e-05
6.35744e-05
4.64131e-05
4.79712e-05
5.52556e-05
5.40398e-05
5.33812e-05
5.56616e-05
5.22649e-05
5.34739e-05
5.2403e-05
5.31846e-05
6.36771e-05
4.89375e-05
6.54895e-05
5.17804e-05
5.02099e-05
5.32647e-05
5.51363e-05
5.88047e-05
5.50549e-05
6.27384e-05
5.89019e-05
5.49131e-05
4.00042e-05
5.49699e-05
5.34941e-05
5.66544e-05
5.56191e-05
5.28178e-05
5.01319e-05
5.50562e-05
5.71406e-05
7.71283e-05
5.16492e-05
7.49952e-05
7.8662e-05
5.40923e-05
7.49817e-05
5.78029e-05
4.66987e-05
6.2355e-05
5.54467e-05
3.87532e-05
3.65024e-05
6.14052e-05
6.52878e-05
5.61191e-05
4.68029e-05
5.56046e-05
2.82635e-05
5.54885e-05
5.22464e-05
2.78154e-05
9.78408e-06
1.07008e-05
4.80296e-05
5.169e-05
5.96851e-05
5.76658e-05
4.9754e-06
5.19878e-06
5.64182e-05
5.70005e-05
5.39761e-05
2.12176e-05
4.84205e-05
5.50885e-05
5.71188e-05
4.93005e-05
4.34941e-05
2.21213e-05
8.12375e-05
5.20327e-05
6.298e-05
6.39638e-05
4.6247e-05
5.84538e-05
4.52179e-05
4.98669e-05
2.59046e-05
3.85074e-05
5.8527e-05
5.86007e-05
5.05672e-05
5.32389e-05
5.48316e-05
5.77662e-05
5.52742e-05
2.83607e-05
4.74935e-05
5.49453e-05
5.1041e-05
7.64545e-05
2.83674e-05
4.18254e-05
4.31077e-05
3.99134e-05
2.55155e-05
2.55181e-05
4.58627e-05
3.81477e-05
5.4011e-05
3.03854e-05
3.0514e-05
9.85097e-06
9.85121e-06
2.30714e-05
3.33715e-05
2.2418e-05
4.60498e-05
4.88544e-05
5.29798e-05
5.94848e-05
5.37035e-05
4.96323e-05
3.94163e-05
2.60179e-05
4.96313e-05
5.10506e-05
4.92657e-05
2.90322e-05
2.46449e-05
2.07558e-05
4.92095e-05
5.04478e-05
4.13755e-05
4.5978e-05
4.23676e-05
3.80473e-05
5.18793e-05
3.8046e-05
4.59829e-05
4.38389e-05
2.63192e-05
3.24783e-05
3.26301e-05
5.47256e-05
2.32428e-05
2.44538e-05
2.39903e-05
5.15145e-05
2.20669e-05
2.17383e-05
3.64314e-05
2.02319e-05
4.10474e-05
4.11114e-05
2.07458e-05
4.60476e-05
2.26945e-05
2.29054e-05
2.54495e-05
2.18594e-05
2.11606e-05
2.90955e-05
2.50573e-05
2.30953e-05
2.19117e-05
4.18764e-05
4.72884e-05
2.38226e-05
4.62151e-05
1.99234e-05
4.67783e-05
3.74886e-05
2.07851e-05
1.73803e-05
1.96549e-05
2.59785e-05
4.04432e-05
3.23656e-05
1.32633e-05
1.47361e-05
4.47332e-05
1.24876e-05
1.24878e-05
1.41554e-05
1.59782e-05
1.971e-05
2.1223e-05
3.55138e-05
3.26358e-05
4.48028e-05
1.26029e-05
1.26032e-05
3.84923e-05
1.7355e-05
3.22289e-05
1.57111e-05
1.55776e-05
2.05168e-05
3.27243e-05
3.38919e-05
3.61232e-05
3.31005e-05
3.27249e-05
7.08129e-06
5.28484e-05
9.06417e-06
8.73925e-06
4.2666e-05
4.23662e-05
9.0536e-06
6.29773e-06
8.90401e-06
3.9404e-05
SCALARS rr_T' float
LOOKUP_TABLE default
0.000209759
0.000477865
0.000381641
0.000498817
0.000260809
0.000405056
0.000207403
0.000496051
0.000426538
0.000537021
0.000190367
0.00049757
0.000437875
0.000462448
0.000541783
0.000454819
0.000391157
0.00044222
0.000396134
0.000387275
0.000435643
7.73399e-05
0.000446359
0.000411384
0.000372904
0.000430171
0.000176354
0.00037786
0.00029658
0.000349047
0.000386837
0.000306589
0.000195359
0.000261543
0.000257053
0.000262132
0.000339342
0.000257578
0.000386444
0.000219585
0.000249286
0.000299069
0.000299101
0.00042455
0.000245114
0.000270414
0.000372785
0.000377499
0.000353749
0.000338657
0.000347741
0.000269652
0.000418604
0.000346491
0.000385391
0.000177806
0.000274459
0.000349032
0.00027445
0.000422187
0.000499326
0.000489362
0.00017344
0.000345038
0.000468719
0.000442367
0.000482998
0.000417809
0.000384755
0.000548442
0.000454168
0.000449219
0.000308008
0.000358071
0.000379295
0.00020166
0.000390502
0.000438264
0.000421326
0.000297569
0.00026855
0.000294373
0.000557329
0.000268925
0.000362591
0.000134682
0.000436486
0.000364755
0.000259577
3.80593e-05
0.00030024
4.13935e-05
0.000331353
0.000317551
0.000284147
0.000259174
0.000246645
0.000471473
0.000390792
0.000376216
0.000319649
0.000306666
0.000258036
0.000446555
0.000453946
0.000408784
0.000359495
0.0003647
0.000273912
0.000544707
0.000350045
0.000184886
0.000247091
0.000488724
0.000457836
0.000334608
0.000318265
0.000204954
0.000330109
0.000333285
0.000289886
0.000528128
0.000544616
0.000467803
0.000514663
0.000403777
0.000228404
0.000509046
0.000223386
0.000288135
0.000237241
0.000485897
0.000474591
0.000477085
0.000318953
0.000193376
0.000213827
0.00034965
0.000427308
0.000193311
0.000266388
0.000412075
0.000312254
0.000503133
0.000249457
0.000410557
0.000372604
0.000360243
0.000230257
0.000294282
0.000328127
0.000468877
0.000275087
0.000424541
0.000491697
0.000499536
0.000326859
0.000274386
0.000272829
0.000428614
0.000359848
0.0002728
0.000180527
0.000266441
0.000265007
0.000458936
0.000278083
0.000281151
0.000304562
0.000270989
0.000404579
0.000283811
0.000251298
0.000315841
0.000299833
0.000359259
0.000400179
0.000385214
0.000327206
0.000384269
0.000295602
0.000445245
0.00047787
0.000266432
0.000468071
0.00026632
0.000462264
0.000424955
0.000396722
0.000403851
0.000472176
0.000223964
0.000293385
0.000272817
0.000476232
0.000468874
0.000434705
0.000473424
0.000482044
0.000404847
0.000496444
0.000333115
0.000300644
0.000542003
0.000316611
0.000492283
0.000392154
0.00025036
0.000301119
0.000491237
0.00040879
0.000372224
0.000479526
0.000470374
0.000304366
0.000301793
0.000293189
0.000417284
0.000460449
0.000529172
0.000508399
0.000553138
0.000501223
0.000547744
0.00045957
0.000480191
0.000483933
0.000456199
0.000479257
0.000441167
0.000434599
0.000308426
0.000414117
0.000484536
0.000336588
0.000493641
0.000453482
0.000525332
0.000316083
0.000499593
0.000477579
0.000310401
0.000427874
0.000308305
0.000480805
0.000438944
0.000323174
0.000304182
0.000263092
0.00030264
0.000481464
0.000220933
0.000371101
0.000303053
0.000340013
0.000500062
0.000484038
0.00015179
0.000485798
0.000264622
0.000286871
0.000497335
0.000404281
0.000290252
0.000554879
0.000315659
0.00015179
0.000293347
0.00043167
0.000538842
0.00040853
0.000480598
0.000450106
0.000236261
0.000231582
0.000198089
0.000227424
0.000322007
0.000246293
0.000396765
0.000248319
0.000427275
0.00030515
0.000293792
0.000343626
0.000319531
0.000424425
0.000306403
0.000315313
0.000139142
0.000317647
0.000459461
0.000459788
0.000416452
0.000305812
0.000199116
0.000578144
0.000388465
0.000324432
0.000299096
0.000297817
0.00030849
0.000375849
0.000302963
0.000217008
0.00029899
0.000205103
0.000370383
0.000305038
0.000129688
0.000287304
0.000339693
0.000305049
0.000469371
0.000316782
0.0004085
0.000156713
0.000327892
0.000313219
0.000273525
0.000294044
0.000346978
0.000326574
0.000341511
0.000290443
0.000295012
0.000318579
0.000425856
0.00030042
0.000425604
0.000384201
0.000303211
0.000311666
0.000314654
0.000348017
0.000314134
0.000294138
0.000334244
0.000350502
0.000413793
0.000314588
0.000312556
0.000452468
0.000446131
0.000300648
0.000303276
0.00013548
0.000366404
0.000254269
0.000343922
0.000152156
0.000157946
0.00014115
0.000143461
0.000152196
0.00016033
0.000165226
0.000385839
0.000285525
0.000288089
0.000329374
0.000320856
0.000316853
0.000335148
0.00031008
0.000317144
0.000322422
0.000315678
0.000387593
0.000287024
0.00039841
0.000310011
0.00029927
0.000316076
0.000337234
0.000352391
0.00032831
0.000375987
0.000351272
0.000325745
0.000234911
0.000327625
0.000320363
0.000344925
0.00033045
0.000313115
0.000297775
0.000328006
0.000342132
0.00046444
0.000306761
0.000451548
0.000470695
0.000322324
0.000450956
0.000345945
0.000277126
0.000377481
0.000330867
0.000238271
0.000209321
0.00037268
0.000396933
0.000336038
0.000279352
0.000336064
0.000159366
0.000332239
0.000311737
0.000159194
6.09948e-05
6.6723e-05
0.000287792
0.000306888
0.000356425
0.000342631
3.13587e-05
3.27667e-05
0.000339314
0.000342854
0.000324547
0.000119623
0.000287159
0.00033382
0.000340385
0.000293618
0.000259159
0.000124572
0.000491613
0.000308811
0.000377319
0.000383218
0.000275403
0.000348549
0.00026927
0.000297127
0.000147656
0.000222817
0.000348963
0.000351119
0.000301775
0.000316953
0.000327075
0.000344869
0.000329861
0.00016264
0.000289426
0.000326321
0.000308429
0.000462843
0.000162609
0.000250511
0.000258034
0.000244535
0.000158978
0.000158988
0.000280145
0.000226209
0.000323519
0.000174056
0.000189852
6.19881e-05
6.19878e-05
0.000129825
0.000206116
0.000138864
0.00027565
0.000298125
0.000318162
0.000358491
0.000325168
0.000301051
0.000237023
0.000146676
0.000297602
0.000308315
0.0002985
0.000164826
0.000152317
0.000118655
0.000298079
0.00030411
0.000244381
0.000276018
0.000254701
0.000233212
0.000312175
0.000233191
0.000275528
0.000265648
0.000162838
0.000201042
0.000186958
0.000330101
0.00013056
0.000137541
0.000134554
0.000311745
0.000124314
0.000121753
0.000216906
0.000113556
0.000252407
0.000252789
0.000116566
0.000274888
0.000129389
0.000128623
0.000144904
0.000122716
0.000120483
0.000179777
0.000143209
0.000130142
0.000123097
0.000251683
0.00028726
0.000135495
0.000277795
0.000111634
0.000281806
0.000223894
0.00011663
9.8752e-05
0.000110176
0.000146183
0.000242012
0.000199233
8.33473e-05
9.25157e-05
0.000269795
7.84568e-05
7.8456e-05
8.89003e-05
9.97876e-05
0.000112794
0.000131257
0.000217044
0.000200901
0.000269983
7.88257e-05
7.88252e-05
0.000237272
9.75873e-05
0.000192359
8.84285e-05
8.89584e-05
0.000117211
0.000203433
0.000210652
0.000224416
0.000205671
0.000203428
4.44428e-05
0.000328378
5.66912e-05
5.4927e-05
0.000265273
0.000263432
5.69201e-05
3.95349e-05
5.57059e-05
0.000244693
SCALARS rr_uec(SIM,_S_ext) float
LOOKUP_TABLE default
0.0134566
0.0306584
0.0244847
0.0320027
0.0167327
0.0259869
0.0133055
0.0318249
0.0273649
0.0344535
0.012213
0.0319224
0.0280925
0.0296692
0.0347592
0.0291795
0.0250954
0.0283713
0.0254144
0.0248462
0.0279491
0.00496195
0.0286368
0.0263929
0.0239241
0.0275984
0.0113139
0.0242421
0.0190272
0.022394
0.024818
0.0196693
0.0125331
0.0167799
0.0164918
0.0168177
0.0217714
0.0165254
0.0247928
0.0140873
0.015993
0.0191876
0.0191896
0.0272376
0.0157253
0.0173484
0.0239164
0.0242188
0.0226953
0.0217266
0.0223094
0.0172996
0.0268564
0.0222292
0.0247256
0.011407
0.0176085
0.0223922
0.017608
0.027086
0.0320353
0.0313959
0.0111268
0.0221365
0.0300715
0.0283808
0.0309877
0.0268053
0.0246845
0.0351864
0.0291381
0.0288206
0.0197603
0.0229726
0.0243342
0.0129374
0.0250534
0.0281175
0.0270309
0.0190907
0.0172288
0.018886
0.0357565
0.0172529
0.023262
0.00864045
0.0280034
0.0234014
0.0166532
0.00244179
0.019262
0.0026557
0.0212586
0.020373
0.0182295
0.0166274
0.0158234
0.0302482
0.025072
0.0241366
0.0205072
0.0196741
0.0165543
0.0286495
0.0291237
0.0262263
0.0230641
0.0233978
0.0175728
0.0349469
0.0224576
0.0118614
0.0158521
0.0313549
0.0293733
0.0214668
0.0204189
0.0131487
0.0211788
0.021382
0.0185979
0.0338832
0.034941
0.0300128
0.0330194
0.0259052
0.0146537
0.0326588
0.0143313
0.0184854
0.0152207
0.0311737
0.0304484
0.0306084
0.0204624
0.0124065
0.0137179
0.0224322
0.0274148
0.0124023
0.0170901
0.0264373
0.0200329
0.0322794
0.0160038
0.02634
0.0239049
0.0231118
0.0147724
0.0188799
0.0210514
0.0300818
0.0176483
0.027237
0.0315457
0.0320488
0.0209702
0.0176032
0.0175033
0.0274984
0.0230864
0.0175016
0.0115817
0.0170936
0.0170015
0.0294438
0.0178404
0.0180372
0.0195393
0.0173853
0.0259565
0.018208
0.0161221
0.0202633
0.0192359
0.023049
0.0256743
0.024714
0.0209925
0.0246534
0.0189644
0.0285655
0.0306586
0.017093
0.0300298
0.0170858
0.0296574
0.0272638
0.0254524
0.0259098
0.0302932
0.0143683
0.0188222
0.0175027
0.0305536
0.0300815
0.0278893
0.0303735
0.0309265
0.0259736
0.0318504
0.0213713
0.019288
0.0347733
0.0203122
0.0315834
0.0251592
0.0160618
0.0193188
0.0315163
0.0262266
0.0238806
0.0307648
0.0301778
0.0195268
0.019362
0.0188097
0.0267716
0.0295412
0.0339503
0.0326175
0.0354878
0.0321571
0.0351417
0.0294845
0.0308077
0.0310478
0.0292684
0.0307478
0.0283039
0.0278826
0.0197873
0.0265684
0.0310865
0.0215941
0.0316706
0.0290941
0.0337039
0.0202785
0.0320525
0.0306399
0.019914
0.0274511
0.0197795
0.030847
0.0281615
0.0207334
0.019515
0.0168786
0.0194159
0.0308893
0.0141738
0.0238085
0.0194425
0.0218139
0.0320827
0.0310546
0.00973844
0.0311675
0.0169766
0.0184044
0.0319077
0.0259373
0.0186213
0.0355996
0.0202513
0.00973846
0.0188199
0.0276948
0.0345703
0.02621
0.0308338
0.0288772
0.0151578
0.0148575
0.0127083
0.0145903
0.0206589
0.0158012
0.025455
0.015931
0.0274126
0.0195774
0.0188484
0.0220459
0.0204997
0.0272296
0.0196574
0.0202291
0.008927
0.0203793
0.0294777
0.0294987
0.0267182
0.0196195
0.0127748
0.0370918
0.0249223
0.0208141
0.0191886
0.019107
0.0197914
0.0241133
0.0194367
0.0139222
0.0191819
0.0131582
0.0237626
0.0195699
0.00832048
0.0184321
0.0217936
0.0195706
0.0301133
0.0203233
0.0262078
0.0100537
0.0210364
0.0200947
0.0175486
0.0188646
0.0222607
0.0209519
0.0219103
0.0186335
0.0189267
0.0204387
0.0273215
0.0192736
0.0273052
0.0246489
0.0194531
0.0199951
0.0201869
0.0223274
0.0201535
0.0188706
0.0214437
0.0224871
0.0265475
0.0201826
0.0200522
0.0290288
0.0286222
0.0192882
0.0194573
0.00869172
0.0235071
0.0163125
0.0220647
0.00976169
0.0101331
0.00905561
0.00920388
0.0097643
0.010286
0.0106002
0.0247542
0.0183184
0.0184828
0.0211314
0.0205848
0.0203279
0.0215019
0.0198934
0.0203466
0.0206857
0.0202526
0.0248667
0.0184141
0.0255609
0.0198892
0.0192
0.0202781
0.0216358
0.0226081
0.0210631
0.0241219
0.0225363
0.0208985
0.0150708
0.0210191
0.0205533
0.0221293
0.0212004
0.0200882
0.019104
0.0210436
0.0219499
0.0297968
0.0196805
0.0289697
0.0301981
0.0206791
0.0289317
0.0221946
0.0177793
0.024218
0.0212271
0.0152868
0.013429
0.0239099
0.0254659
0.0215589
0.0179221
0.0215607
0.0102241
0.0213153
0.0199998
0.0102129
0.00391327
0.00428077
0.0184637
0.0196887
0.0228668
0.0219818
0.00201189
0.00210222
0.0217693
0.0219963
0.0208218
0.00767433
0.018423
0.0214168
0.0218377
0.0188373
0.0166266
0.00799194
0.0315403
0.0198121
0.0242073
0.0245858
0.0176687
0.0223615
0.0172752
0.0190624
0.00947271
0.0142947
0.0223881
0.0225265
0.0193607
0.0203344
0.0209838
0.0221254
0.0211625
0.0104342
0.0185687
0.0209355
0.0197878
0.0296945
0.0104321
0.0160719
0.0165545
0.0156886
0.0101997
0.0102003
0.0179733
0.0145126
0.0207557
0.0111665
0.0121805
0.00397701
0.00397699
0.00832893
0.0132238
0.00890919
0.0176846
0.0191267
0.0204122
0.0229997
0.0208618
0.0193144
0.0152065
0.00940999
0.019093
0.0197804
0.0191508
0.0105743
0.00977229
0.00761213
0.0191238
0.0195106
0.0156784
0.0177083
0.0163407
0.0149622
0.020028
0.0149609
0.0176769
0.0170431
0.0104473
0.0128983
0.0119942
0.0211783
0.00837582
0.0088236
0.00863202
0.0200005
0.00797531
0.00781085
0.0139158
0.00728497
0.0161936
0.0162181
0.00747806
0.0176358
0.00830082
0.00825146
0.00929622
0.00787255
0.00772947
0.0115339
0.00918752
0.00834919
0.00789701
0.0161471
0.0184297
0.00869258
0.0178223
0.00716171
0.0180797
0.0143642
0.00748213
0.00633535
0.0070681
0.00937839
0.0155266
0.0127822
0.00534738
0.00593561
0.0173092
0.00503362
0.00503357
0.00570365
0.00640214
0.00723624
0.00842108
0.0139249
0.0128892
0.0173212
0.00505727
0.00505724
0.0152226
0.00626072
0.012341
0.00567307
0.00570696
0.0075195
0.0130518
0.013515
0.0143981
0.0131954
0.0130515
0.00285134
0.0210679
0.00363717
0.00352398
0.0170193
0.0169012
0.00365185
0.00253647
0.00357396
0.0156989
SCALARS rr_uec(PEX,_P_ext) float
LOOKUP_TABLE default
-0.0610087
-0.139044
-0.111041
-0.145139
-0.0758943
-0.117854
-0.0603235
-0.144333
-0.1241
-0.156255
-0.0553703
-0.144775
-0.127405
-0.134558
-0.157651
-0.132333
-0.113816
-0.12867
-0.115252
-0.112679
-0.126752
-0.0225086
-0.12987
-0.119694
-0.108498
-0.125165
-0.0512972
-0.109942
-0.0862785
-0.101577
-0.112554
-0.0891903
-0.0568249
-0.0761105
-0.0748046
-0.076282
-0.0987533
-0.0749569
-0.11244
-0.0638718
-0.0725199
-0.0870335
-0.0870427
-0.123528
-0.0713003
-0.0786668
-0.10846
-0.109833
-0.102926
-0.0985167
-0.101161
-0.0784479
-0.121812
-0.100802
-0.112146
-0.0517217
-0.0798701
-0.101541
-0.0798675
-0.122837
-0.14529
-0.142395
-0.0504506
-0.100399
-0.136389
-0.128717
-0.140539
-0.121568
-0.111946
-0.159579
-0.13216
-0.13072
-0.0896029
-0.10419
-0.110359
-0.0586569
-0.113631
-0.127523
-0.122591
-0.0865705
-0.0781217
-0.0856622
-0.16217
-0.07823
-0.105483
-0.0391771
-0.126999
-0.106134
-0.0755074
-0.0110764
-0.0873468
-0.0120467
-0.0964198
-0.0923983
-0.0826651
-0.0753957
-0.0717494
-0.137183
-0.113716
-0.109464
-0.0929972
-0.0892143
-0.0750623
-0.129931
-0.132083
-0.118942
-0.104605
-0.106113
-0.0796806
-0.158493
-0.101847
-0.0537815
-0.0718773
-0.142201
-0.133215
-0.0973452
-0.0926178
-0.0596213
-0.0960644
-0.0969605
-0.0843395
-0.153677
-0.158466
-0.136119
-0.149752
-0.117494
-0.0664668
-0.148116
-0.0649834
-0.0838253
-0.0690357
-0.14138
-0.138095
-0.138816
-0.0927889
-0.0562742
-0.0622011
-0.101735
-0.124337
-0.0562553
-0.0774971
-0.1199
-0.0908477
-0.146395
-0.0725671
-0.119458
-0.108415
-0.104815
-0.0669948
-0.0856163
-0.0954684
-0.136428
-0.080026
-0.123525
-0.143068
-0.145349
-0.0951063
-0.0798242
-0.0793713
-0.12471
-0.104697
-0.079361
-0.0525134
-0.07751
-0.0770957
-0.133535
-0.0808997
-0.081792
-0.0886005
-0.0788361
-0.117728
-0.0825672
-0.0731048
-0.0919005
-0.0872284
-0.104537
-0.116448
-0.112083
-0.0952151
-0.111809
-0.085994
-0.129552
-0.139044
-0.0775101
-0.136197
-0.0774744
-0.134507
-0.123653
-0.115442
-0.117507
-0.137391
-0.0651517
-0.0853524
-0.0793656
-0.138568
-0.136425
-0.126483
-0.137755
-0.140259
-0.117799
-0.144449
-0.0969178
-0.0874652
-0.15771
-0.0921057
-0.143243
-0.114106
-0.0728337
-0.0876204
-0.142934
-0.118951
-0.108306
-0.139526
-0.136868
-0.0885501
-0.0878127
-0.0852966
-0.121421
-0.133977
-0.153974
-0.147929
-0.160946
-0.145841
-0.159377
-0.13372
-0.139729
-0.140817
-0.132747
-0.139457
-0.128377
-0.126466
-0.0897311
-0.120495
-0.140983
-0.0979297
-0.143643
-0.131957
-0.152854
-0.0919569
-0.145364
-0.13896
-0.0903059
-0.124504
-0.089696
-0.139903
-0.127717
-0.0940221
-0.0884952
-0.0765337
-0.0880387
-0.140095
-0.0642691
-0.107976
-0.0881664
-0.0989244
-0.145501
-0.140841
-0.044173
-0.141353
-0.076978
-0.0834587
-0.144707
-0.117631
-0.0844419
-0.161453
-0.0918383
-0.0441731
-0.0853429
-0.125603
-0.156789
-0.118867
-0.139847
-0.130969
-0.0687507
-0.0673815
-0.0576223
-0.0661546
-0.0937011
-0.0716598
-0.115444
-0.072244
-0.12433
-0.0887898
-0.0854722
-0.0999853
-0.0929632
-0.123493
-0.0891436
-0.091733
-0.0404935
-0.092432
-0.133697
-0.133792
-0.121174
-0.0889721
-0.0579438
-0.168225
-0.113024
-0.0943893
-0.0870171
-0.0866621
-0.0897499
-0.109368
-0.0881425
-0.0631248
-0.0869872
-0.0596643
-0.107773
-0.0887458
-0.0377422
-0.0835868
-0.0988426
-0.0887485
-0.136575
-0.0921628
-0.118856
-0.0455848
-0.0954022
-0.0911256
-0.0795934
-0.0855469
-0.100953
-0.0950248
-0.0993688
-0.0844999
-0.0858298
-0.092688
-0.123915
-0.0874033
-0.123835
-0.111787
-0.0882326
-0.0906751
-0.0915457
-0.101256
-0.091395
-0.0855751
-0.0972459
-0.10199
-0.120399
-0.0915266
-0.0909328
-0.131653
-0.129809
-0.0874693
-0.0882515
-0.0394055
-0.106608
-0.0739671
-0.100065
-0.0442469
-0.0459306
-0.0410466
-0.0417186
-0.0442588
-0.0466238
-0.0480477
-0.112271
-0.083088
-0.0838229
-0.0958313
-0.0933508
-0.0921859
-0.0975165
-0.0902152
-0.0922702
-0.0938252
-0.0918441
-0.112783
-0.0835017
-0.115931
-0.0901999
-0.0870725
-0.0919598
-0.0981321
-0.102531
-0.0955219
-0.109397
-0.102203
-0.0947728
-0.0683414
-0.0953223
-0.093212
-0.100368
-0.0961426
-0.0910979
-0.0866357
-0.095433
-0.0995457
-0.135136
-0.0892501
-0.131385
-0.136952
-0.0937799
-0.131212
-0.100655
-0.0806278
-0.109838
-0.0962661
-0.069337
-0.0608887
-0.108442
-0.1155
-0.0977725
-0.0812779
-0.0977852
-0.0463529
-0.0966674
-0.0907003
-0.0463066
-0.0177509
-0.0194179
-0.0837355
-0.0892868
-0.103703
-0.0996866
-0.00912662
-0.00953639
-0.0987284
-0.0997584
-0.0944315
-0.0347932
-0.0835464
-0.0971338
-0.0990347
-0.0854275
-0.0754019
-0.0362327
-0.143047
-0.0898463
-0.109784
-0.1115
-0.0801277
-0.10141
-0.0783434
-0.0864487
-0.0429493
-0.0648176
-0.101531
-0.102161
-0.0878017
-0.0922167
-0.0951625
-0.10034
-0.0959733
-0.0473098
-0.0842189
-0.0949411
-0.0897442
-0.134676
-0.0473005
-0.0728882
-0.0750767
-0.0711583
-0.046266
-0.0462691
-0.0815194
-0.0658134
-0.0941301
-0.0506301
-0.0552506
-0.0180408
-0.0180407
-0.0377604
-0.0599813
-0.0404112
-0.080202
-0.0867506
-0.0925729
-0.104309
-0.0946158
-0.0875992
-0.068965
-0.0426621
-0.0865899
-0.0897108
-0.0868564
-0.0479427
-0.0443257
-0.0345143
-0.0867338
-0.0884861
-0.0710989
-0.0803104
-0.0741087
-0.0678635
-0.0908319
-0.0678576
-0.0801672
-0.0772972
-0.0473876
-0.0585054
-0.0543832
-0.0960494
-0.0379734
-0.0400039
-0.0391346
-0.0907097
-0.0361576
-0.0354113
-0.0631083
-0.0330276
-0.0734503
-0.0735614
-0.0339033
-0.0799792
-0.0376361
-0.0374097
-0.0421489
-0.0356917
-0.0350453
-0.0523164
-0.0416567
-0.0378527
-0.0358026
-0.0732305
-0.0835872
-0.0394118
-0.0808282
-0.0324684
-0.0819961
-0.0651426
-0.0339216
-0.028724
-0.0320443
-0.0425183
-0.0704148
-0.0579772
-0.024257
-0.0269252
-0.078502
-0.0228337
-0.0228335
-0.0258731
-0.0290408
-0.0328097
-0.038197
-0.0631576
-0.0584627
-0.0785562
-0.0229405
-0.0229403
-0.0690469
-0.0283837
-0.0559673
-0.0257199
-0.0258759
-0.034094
-0.0592029
-0.0613036
-0.0653092
-0.0598538
-0.0592013
-0.0129343
-0.0955637
-0.0164987
-0.0159857
-0.0771994
-0.0766638
-0.0165658
-0.011506
-0.016212
-0.0712098
SCALARS cell_type float
LOOKUP_TABLE default
0
0
0
0
0
0
0
0
0
0
0
0
0
0
0
0
0
0
0
0
0
1
0
0
0
0
0
0
0
0
0
0
0
0
0
0
0
0
0
0
0
0
0
0
0
0
0
0
0
0
0
0
0
0
0
0
0
0
0
0
0
0
0
0
0
0
0
0
0
0
0
0
0
0
0
0
0
0
0
0
0
0
0
0
0
0
0
0
0
0
0
0
0
0
0
0
0
0
0
0
0
0
0
0
0
0
0
0
0
0
0
0
0
0
0
0
0
0
0
0
0
0
0
0
0
0
0
0
0
0
0
0
0
0
0
0
0
0
0
0
0
0
0
0
0
0
0
0
0
0
0
0
0
0
0
0
0
0
0
0
0
0
0
0
0
0
0
0
0
0
0
0
0
0
0
0
0
0
0
0
0
0
0
0
0
0
0
0
0
0
0
0
0
0
0
0
0
0
0
0
0
0
0
0
0
0
0
0
0
0
0
0
0
0
0
0
0
0
0
0
0
0
0
0
0
0
0
0
0
0
0
0
0
0
0
0
0
0
0
0
0
0
0
0
0
0
0
0
0
0
0
0
0
0
0
0
0
0
0
0
0
0
0
0
0
0
0
0
0
0
0
0
0
0
0
0
0
0
0
0
0
0
0
0
0
0
0
0
0
0
0
0
0
0
0
0
0
0
0
0
0
0
0
0
0
0
0
0
0
0
0
0
0
0
0
0
0
0
0
0
0
0
0
0
0
0
0
0
0
0
0
0
0
0
0
0
0
0
0
0
0
0
0
0
0
0
0
0
0
0
2
2
2
2
2
2
2
0
0
0
0
0
0
0
0
0
0
0
0
0
0
0
0
0
0
0
0
0
0
0
0
0
0
0
0
0
0
0
0
0
0
0
0
0
0
0
0
0
0
0
0
0
0
0
0
0
0
0
0
0
0
0
0
0
0
0
1
1
0
0
0
0
0
0
0
0
0
0
0
0
0
0
0
0
0
0
0
0
0
0
0
0
0
0
0
0
0
0
0
0
0
0
0
0
0
0
0
0
0
0
0
1
1
0
0
0
0
0
0
0
0
0
0
0
0
0
0
0
0
0
0
0
0
0
0
0
0
0
0
0
0
0
0
0
0
0
0
0
0
0
0
0
0
0
0
0
0
0
0
0
0
0
0
0
0
0
0
0
0
0
0
0
0
0
0
0
0
0
1
1
0
0
0
0
0
0
0
0
0
0
0
0
0
0
0
0
0
0
0
0
0
0
0
0
0
0
0
0
0
0
0
0
0
TENSORS Lagrange_strain float
0.0305676 -0.00319822 1.16173e-07
-0.00319822 0.0133889 2.53621e-07
1.16173e-07 2.53621e-07 0.00740164

0.0291919 -0.00280082 5.88741e-08
-0.00280082 0.0335531 2.29382e-08
5.88741e-08 2.29382e-08 0.0331628

0.0300206 0.00367893 -3.23849e-08
0.00367893 0.0311687 5.03857e-08
-3.23849e-08 5.03857e-08 0.0304672

0.0291614 -0.0039247 8.42112e-08
-0.0039247 0.0327982 3.14856e-08
8.42112e-08 3.14856e-08 0.0330876

0.0353665 0.00266898 2.7741e-07
0.00266898 0.0380855 -3.86878e-07
2.7741e-07 -3.86878e-07 0.0352917

0.0277346 -0.00236705 -1.05134e-07
-0.00236705 0.0333831 6.83965e-09
-1.05134e-07 6.83965e-09 0.0304382

0.0302615 0.00339403 1.22417e-07
0.00339403 0.0134944 -1.50989e-08
1.22417e-07 -1.50989e-08 0.00746303

0.0317536 0.00393954 1.1394e-07
0.00393954 0.0311992 8.28108e-08
1.1394e-07 8.28108e-08 0.03156

0.0332411 0.000715595 3.52251e-08
0.000715595 0.0262208 -1.90073e-09
3.52251e-08 -1.90073e-09 0.0281414

0.0354664 -0.000991256 -4.78763e-08
-0.000991256 0.0275505 -4.52136e-08
-4.78763e-08 -4.52136e-08 0.0327204

0.0280608 0.00205109 8.51395e-08
0.00205109 0.0138087 2.76305e-07
8.51395e-08 2.76305e-07 0.0117533

0.0279525 -0.00176559 -1.31613e-07
-0.00176559 0.0350058 -7.68066e-08
-1.31613e-07 -7.68066e-08 0.0315486

0.0311205 0.00365714 1.63367e-07
0.00365714 0.0312992 -6.90354e-08
1.63367e-07 -6.90354e-08 0.0310789

0.0290686 -0.00188001 -1.05657e-07
-0.00188001 0.0347983 -2.04088e-08
-1.05657e-07 -2.04088e-08 0.0325458

0.034631 0.00441842 -7.93043e-08
0.00441842 0.0343619 1.86489e-07
-7.93043e-08 1.86489e-07 0.0348841

0.0343269 7.30628e-05 -1.1487e-07
7.30628e-05 0.0272854 -5.02986e-08
-1.1487e-07 -5.02986e-08 0.0307777

0.0286924 -0.00235357 -1.24968e-07
-0.00235357 0.0360132 -8.67956e-08
-1.24968e-07 -8.67956e-08 0.0334495

0.0345724 -0.00035327 -5.60481e-08
-0.00035327 0.0273557 -3.48974e-08
-5.60481e-08 -3.48974e-08 0.0319764

0.0269194 0.00347803 -1.49925e-07
0.00347803 0.0309442 1.42762e-07
-1.49925e-07 1.42762e-07 0.027576

0.0338836 -0.000550612 5.71826e-09
-0.000550612 0.0264087 1.23836e-07
5.71826e-09 1.23836e-07 0.0301336

0.0266215 0.00113526 -1.13196e-08
0.00113526 0.0340327 -1.51798e-07
-1.13196e-08 -1.51798e-07 0.0291493

0.0452948 0.000852723 1.40487e-07
0.000852723 0.0452644 6.59695e-08
1.40487e-07 6.59695e-08 0.0366376

0.0336741 0.000247701 4.9712e-08
0.000247701 0.0263148 -3.42654e-09
4.9712e-08 -3.42654e-09 0.0298045

0.0293092 -0.00363183 -1.11735e-08
-0.00363183 0.0311351 1.65986e-08
-1.11735e-08 1.65986e-08 0.0300461

0.0337789 0.000900333 -1.47955e-07
0.000900333 0.0264958 3.01403e-08
-1.47955e-07 3.01403e-08 0.0300805

0.0285455 0.00250778 8.66989e-08
0.00250778 0.0338931 5.26597e-08
8.66989e-08 5.26597e-08 0.0322863

0.0286291 0.000526655 3.51887e-07
0.000526655 0.0176894 -2.77094e-07
3.51887e-07 -2.77094e-07 0.0131711

0.0309135 0.00403437 1.15253e-07
0.00403437 0.0306456 3.80344e-08
1.15253e-07 3.80344e-08 0.0306101

0.0259241 0.00477627 -1.29946e-07
0.00477627 0.0257326 -9.73497e-08
-1.29946e-07 -9.73497e-08 0.0211276

0.0415287 0.00136978 -1.13202e-07
0.00136978 0.0383502 -2.89729e-07
-1.13202e-07 -2.89729e-07 0.0361347

0.0344096 0.00187119 -1.47416e-07
0.00187119 0.0279517 3.13584e-08
-1.47416e-07 3.13584e-08 0.0309993

0.0217593 -0.0022878 2.10023e-08
-0.0022878 0.0299919 1.56806e-07
2.10023e-08 1.56806e-07 0.0211244

0.022863 -0.0053523 1.49685e-07
-0.0053523 0.0234725 -1.79283e-07
1.49685e-07 -1.79283e-07 0.0125787

0.0348323 0.00080092 -4.28449e-08
0.00080092 0.0422549 -1.17925e-07
-4.28449e-08 -1.17925e-07 0.0357858

0.037453 -0.000661752 1.14827e-07
-0.000661752 0.0412026 -4.93316e-08
1.14827e-07 -4.93316e-08 0.0359004

0.0410745 0.00281348 -1.3408e-07
0.00281348 0.0359856 1.9859e-07
-1.3408e-07 1.9859e-07 0.035766

0.0372535 0.000705328 2.22323e-08
0.000705328 0.043215 -3.85064e-08
2.22323e-08 -3.85064e-08 0.0361411

0.0402605 -0.00121873 -1.42372e-07
-0.00121873 0.0378298 3.60196e-08
-1.42372e-07 3.60196e-08 0.0358076

0.0312149 -0.00367767 -1.71651e-07
-0.00367767 0.0311226 6.90563e-09
-1.71651e-07 6.90563e-09 0.0309248

0.022747 0.00527885 4.83818e-08
0.00527885 0.0237086 1.04947e-07
4.83818e-08 1.04947e-07 0.0125807

0.0297602 -0.00231563 1.32089e-07
-0.00231563 0.0220306 -2.55139e-07
1.32089e-07 -2.55139e-07 0.0208744

0.0376189 -0.000522904 6.33803e-08
-0.000522904 0.0430643 1.3139e-07
6.33803e-08 1.3139e-07 0.0361439

0.0412402 0.00263438 -2.1942e-07
0.00263438 0.0394148 1.3329e-07
-2.1942e-07 1.3329e-07 0.0361263

0.0342999 -0.00161718 6.57194e-09
-0.00161718 0.0279938 1.20364e-07
6.57194e-09 1.20364e-07 0.0310834

0.0231051 -0.00552558 9.30581e-09
-0.00552558 0.0235622 -2.59741e-08
9.30581e-09 -2.59741e-08 0.0162157

0.0299424 -0.00233227 1.31196e-07
-0.00233227 0.0221547 1.24289e-07
1.31196e-07 1.24289e-07 0.0213437

0.025893 0.00222738 -1.7374e-07
0.00222738 0.0326537 1.88622e-07
-1.7374e-07 1.88622e-07 0.0279147

0.0275501 0.00252871 8.08425e-08
0.00252871 0.0323732 -2.02431e-07
8.08425e-08 -2.02431e-07 0.0284902

0.0341743 -0.00214072 -5.41236e-09
-0.00214072 0.0271066 1.08827e-07
-5.41236e-09 1.08827e-07 0.0304715

0.022902 -0.0043923 2.22709e-09
-0.0043923 0.0272481 -1.07575e-07
2.22709e-09 -1.07575e-07 0.0198498

0.0294932 0.00247137 7.92864e-09
0.00247137 0.0218339 3.66736e-08
7.92864e-09 3.66736e-08 0.0202805

0.0298717 -0.00327076 3.8955e-09
-0.00327076 0.024513 -7.36812e-08
3.8955e-09 -7.36812e-08 0.0230477

0.0344772 0.00257796 9.7189e-08
0.00257796 0.0382028 -2.27764e-08
9.7189e-08 -2.27764e-08 0.0352704

0.0286887 0.00383829 5.46302e-08
0.00383829 0.0257792 -1.02307e-07
5.46302e-08 -1.02307e-07 0.0231162

0.0349278 -0.00291574 2.24268e-07
-0.00291574 0.0374322 9.27319e-08
2.24268e-07 9.27319e-08 0.0351887

0.0255794 -0.00545516 -2.34027e-07
-0.00545516 0.0229018 -1.55789e-08
-2.34027e-07 -1.55789e-08 0.0158192

0.0373465 0.000746126 1.81294e-07
0.000746126 0.0414128 7.04431e-08
1.81294e-07 7.04431e-08 0.0359209

0.0231671 -0.000693313 -3.70916e-08
-0.000693313 0.0313125 5.7132e-08
-3.70916e-08 5.7132e-08 0.0231022

0.0410292 0.0013798 4.73193e-08
0.0013798 0.0377066 -8.10041e-08
4.73193e-08 -8.10041e-08 0.035899

0.027675 0.00280494 1.29911e-07
0.00280494 0.0327485 -2.74096e-08
1.29911e-07 -2.74096e-08 0.0302305

0.0361386 0.000784533 -2.15754e-09
0.000784533 0.028131 -7.97834e-08
-2.15754e-09 -7.97834e-08 0.0336726

0.0362539 0.00153404 2.79393e-08
0.00153404 0.0316925 2.17263e-07
2.79393e-08 2.17263e-07 0.0342202

0.0286367 0.00405693 -2.66277e-08
0.00405693 0.019897 -2.52797e-07
-2.66277e-08 -2.52797e-07 0.0137589

0.0309719 -0.000783962 1.53925e-07
-0.000783962 0.0370843 8.69848e-08
1.53925e-07 8.69848e-08 0.0338811

0.0315544 0.00124357 -1.06092e-08
0.00124357 0.0364206 -1.11654e-08
-1.06092e-08 -1.11654e-08 0.0342591

0.0285483 -0.000375281 2.06814e-07
-0.000375281 0.0369552 3.33302e-08
2.06814e-07 3.33302e-08 0.0326701

0.0296022 0.00307148 1.33548e-07
0.00307148 0.0347906 -1.16673e-07
1.33548e-07 -1.16673e-07 0.0337084

0.034719 0.00112213 -2.69106e-10
0.00112213 0.0278381 4.24008e-08
-2.69106e-10 4.24008e-08 0.032208

0.0291868 -0.00369885 -1.68653e-08
-0.00369885 0.0310201 -5.86088e-08
-1.68653e-08 -5.86088e-08 0.029909

0.035054 -0.000237071 -8.15037e-08
-0.000237071 0.0275793 -4.58814e-08
-8.15037e-08 -4.58814e-08 0.0333925

0.034452 -0.00254819 1.26669e-07
-0.00254819 0.0381332 -1.35991e-08
1.26669e-07 -1.35991e-08 0.0352605

0.0350102 0.00284937 2.51712e-08
0.00284937 0.0375698 -7.98012e-08
2.51712e-08 -7.98012e-08 0.0352403

0.0218882 -0.00213175 7.69913e-08
-0.00213175 0.0299216 1.31506e-07
7.69913e-08 1.31506e-07 0.0208509

0.0347007 -0.00369103 -1.86782e-07
-0.00369103 0.0319575 7.12035e-08
-1.86782e-07 7.12035e-08 0.0330785

0.0292913 -0.00329718 -5.97867e-09
-0.00329718 0.0321123 -3.9417e-08
-5.97867e-09 -3.9417e-08 0.0304328

0.0267791 -0.00401679 7.30479e-08
-0.00401679 0.017605 2.92592e-07
7.30479e-08 2.92592e-07 0.0127257

0.0324038 0.000418617 -2.52558e-08
0.000418617 0.0381048 -1.56316e-08
-2.52558e-08 -1.56316e-08 0.0344053

0.034537 0.00381733 -1.16852e-07
0.00381733 0.0309408 -8.27608e-08
-1.16852e-07 -8.27608e-08 0.0326597

0.0283759 0.00258143 1.10845e-07
0.00258143 0.034129 -3.52972e-09
1.10845e-07 -3.52972e-09 0.0322132

0.0315414 0.00103784 -1.22891e-07
0.00103784 0.0228435 1.17996e-07
-1.22891e-07 1.17996e-07 0.0240687

0.0270967 -0.00435845 1.39294e-07
-0.00435845 0.0237364 -1.46156e-08
1.39294e-07 -1.46156e-08 0.0183232

0.0362599 -0.00140287 -2.62468e-08
-0.00140287 0.0387422 -1.41845e-07
-2.62468e-08 -1.41845e-07 0.0354007

0.0315553 0.00317091 -6.98279e-08
0.00317091 0.0344009 1.86206e-07
-6.98279e-08 1.86206e-07 0.0340898

0.0273011 -0.00415595 4.03062e-08
-0.00415595 0.0221745 -8.19615e-08
4.03062e-08 -8.19615e-08 0.018411

0.0303573 0.00139112 -3.39619e-08
0.00139112 0.0228301 1.15902e-07
-3.39619e-08 1.15902e-07 0.0209541

0.0186017 -0.00269687 -2.18271e-07
-0.00269687 0.0289276 -4.00869e-07
-2.18271e-07 -4.00869e-07 0.0158927

0.0271995 0.00188895 5.14143e-08
0.00188895 0.034319 -1.30492e-09
5.14143e-08 -1.30492e-09 0.030654

0.0353814 0.00305675 -1.12832e-07
0.00305675 0.0308194 1.33288e-07
-1.12832e-07 1.33288e-07 0.0327532

0.0226475 0.00538562 2.83253e-08
0.00538562 0.0240881 8.19474e-08
2.83253e-08 8.19474e-08 0.0161982

0.0459481 0.0022379 7.80363e-07
0.0022379 0.0417503 -5.39573e-07
7.80363e-07 -5.39573e-07 0.0366386

0.0230809 -0.000534354 2.45675e-08
-0.000534354 0.0313533 2.08449e-08
2.45675e-08 2.08449e-08 0.0230721

0.0463635 -0.00225533 4.16395e-07
-0.00225533 0.0412944 -1.10777e-07
4.16395e-07 -1.10777e-07 0.0365938

0.0370649 -0.00362429 2.78096e-07
-0.00362429 0.0334906 -6.18497e-10
2.78096e-07 -6.18497e-10 0.0346204

0.0351371 0.00361899 -5.65231e-08
0.00361899 0.0300034 -7.49137e-08
-5.65231e-08 -7.49137e-08 0.0324559

0.0299611 -0.00315884 2.26568e-07
-0.00315884 0.0246901 -2.39969e-08
2.26568e-07 -2.39969e-08 0.0232854

0.0230119 0.00402978 -1.98931e-07
0.00402978 0.0277783 -1.39086e-07
-1.98931e-07 -1.39086e-07 0.0203816

0.0210936 -0.00137848 1.30506e-07
-0.00137848 0.0298944 -1.36943e-07
1.30506e-07 -1.36943e-07 0.0182511

0.0287451 0.00288896 1.16536e-07
0.00288896 0.0342269 -2.52673e-09
1.16536e-07 -2.52673e-09 0.0326991

0.0370112 0.00223598 1.87648e-07
0.00223598 0.0334518 -1.9465e-07
1.87648e-07 -1.9465e-07 0.0343837

0.0281477 0.00198804 1.10781e-07
0.00198804 0.0340588 -3.13271e-09
1.10781e-07 -3.13271e-09 0.0308648

0.0318819 0.00207297 -1.44147e-07
0.00207297 0.0252537 8.51e-08
-1.44147e-07 8.51e-08 0.0256169

0.0239071 -0.00277425 1.30698e-07
-0.00277425 0.0297643 1.37233e-07
1.30698e-07 1.37233e-07 0.021561

0.027898 -0.00376349 3.87911e-08
-0.00376349 0.0218149 -2.61744e-07
3.87911e-08 -2.61744e-07 0.0180756

0.0293309 -0.00323171 7.26156e-08
-0.00323171 0.0326291 -6.43012e-08
7.26156e-08 -6.43012e-08 0.0324022

0.0306257 0.00361495 1.58219e-07
0.00361495 0.032228 -7.6915e-08
1.58219e-07 -7.6915e-08 0.0323701

0.0287072 0.00304803 -2.84294e-08
0.00304803 0.0340262 3.82177e-08
-2.84294e-08 3.82177e-08 0.0326295

0.0292063 0.00172525 -2.20484e-08
0.00172525 0.0376171 -1.73128e-08
-2.20484e-08 -1.73128e-08 0.0338455

0.0344758 0.00123242 7.94453e-08
0.00123242 0.0275231 3.41851e-08
7.94453e-08 3.41851e-08 0.0306741

0.0199603 -0.000605182 3.34921e-09
-0.000605182 0.0296598 2.40776e-07
3.34921e-09 2.40776e-07 0.0181035

0.0297967 -0.00486299 -1.70362e-07
-0.00486299 0.0330485 1.47026e-08
-1.70362e-07 1.47026e-08 0.0337409

0.0290807 0.00359982 -1.22737e-07
0.00359982 0.0313586 -2.75767e-08
-1.22737e-07 -2.75767e-08 0.0302634

0.0181053 0.000282933 -4.83857e-08
0.000282933 0.0293099 -9.76085e-08
-4.83857e-08 -9.76085e-08 0.016878

0.0278426 0.00442357 2.61837e-07
0.00442357 0.0209678 -2.6345e-08
2.61837e-07 -2.6345e-08 0.0174543

0.0291903 -0.0030203 8.63185e-08
-0.0030203 0.0327023 1.12365e-07
8.63185e-08 1.12365e-07 0.0321846

0.0352419 0.000759828 -2.21561e-08
0.000759828 0.0273379 8.38119e-08
-2.21561e-08 8.38119e-08 0.032552

0.0294264 0.00352005 -1.01306e-07
0.00352005 0.0252005 1.18596e-07
-1.01306e-07 1.18596e-07 0.0231106

0.0396362 0.00171009 2.24912e-07
0.00171009 0.0390391 1.79234e-07
2.24912e-07 1.79234e-07 0.0359394

0.0283744 0.00312316 2.88489e-07
0.00312316 0.0224008 -2.3859e-08
2.88489e-07 -2.3859e-08 0.0182859

0.039488 -0.00175078 6.42269e-08
-0.00175078 0.0390648 1.87916e-08
6.42269e-08 1.87916e-08 0.0359046

0.0232604 0.000103577 -1.93504e-07
0.000103577 0.031517 3.69118e-08
-1.93504e-07 3.69118e-08 0.023119

0.0327577 -0.000288349 -1.5574e-07
-0.000288349 0.0246594 -1.99715e-07
-1.5574e-07 -1.99715e-07 0.0269655

0.0380539 -0.00212929 -6.44469e-08
-0.00212929 0.0304629 1.15134e-07
-6.44469e-08 1.15134e-07 0.0347925

0.0292374 0.00320588 5.44164e-08
0.00320588 0.033277 -1.37764e-07
5.44164e-08 -1.37764e-07 0.0333421

0.0289497 -0.00177248 -2.40837e-07
-0.00177248 0.0366083 -2.30029e-08
-2.40837e-07 -2.30029e-08 0.0334989

0.0365824 -0.0010848 -9.4752e-08
-0.0010848 0.0264754 -2.51636e-08
-9.4752e-08 -2.51636e-08 0.0338592

0.0311794 -0.00292607 1.61958e-07
-0.00292607 0.0383051 -7.36592e-08
1.61958e-07 -7.36592e-08 0.0348429

0.0381645 -0.000885036 -1.68483e-07
-0.000885036 0.0387309 9.7752e-08
-1.68483e-07 9.7752e-08 0.0358347

0.0301789 -0.00394007 5.55136e-08
-0.00394007 0.0327096 1.12548e-07
5.55136e-08 1.12548e-07 0.0327625

0.0213322 0.00146948 -1.39371e-07
0.00146948 0.0296126 -1.49668e-07
-1.39371e-07 -1.49668e-07 0.0182951

0.0293872 -0.0036455 3.49502e-08
-0.0036455 0.0253483 -2.3397e-09
3.49502e-08 -2.3397e-09 0.0231813

0.0328588 -0.00181686 -1.64765e-07
-0.00181686 0.0397168 -8.26393e-08
-1.64765e-07 -8.26393e-08 0.0352402

0.03509 7.67666e-05 -6.31685e-09
7.67666e-05 0.0272212 8.5234e-08
-6.31685e-09 8.5234e-08 0.0332504

0.0308175 -0.00282895 -2.41074e-07
-0.00282895 0.0348906 -2.28386e-08
-2.41074e-07 -2.28386e-08 0.0340833

0.0295334 0.00338851 -6.23551e-08
0.00338851 0.0328708 7.9702e-08
-6.23551e-08 7.9702e-08 0.0333251

0.0264594 -0.0040632 -6.77e-08
-0.0040632 0.0272607 -1.09272e-07
-6.77e-08 -1.09272e-07 0.0215838

0.0371719 -0.000958414 -2.76171e-08
-0.000958414 0.0416093 -1.15418e-07
-2.76171e-08 -1.15418e-07 0.0358858

0.0227103 -0.00423747 -3.82116e-08
-0.00423747 0.0272426 -4.26919e-08
-3.82116e-08 -4.26919e-08 0.0168769

0.0341818 -0.00252468 -2.01892e-09
-0.00252468 0.0286056 -2.30129e-07
-2.01892e-09 -2.30129e-07 0.0310436

0.0364251 0.000289888 1.19984e-07
0.000289888 0.0294366 5.60799e-08
1.19984e-07 5.60799e-08 0.0341929

0.0396406 0.00239626 3.48529e-07
0.00239626 0.0391125 -3.87353e-07
3.48529e-07 -3.87353e-07 0.0358668

0.0238555 0.00260914 -1.69287e-07
0.00260914 0.0301506 -1.94249e-07
-1.69287e-07 -1.94249e-07 0.0217981

0.0334299 0.00358112 -3.41453e-08
0.00358112 0.0307142 7.5798e-08
-3.41453e-08 7.5798e-08 0.0317664

0.0316419 -0.00319424 -1.02071e-07
-0.00319424 0.0265511 -6.11594e-08
-1.02071e-07 -6.11594e-08 0.0269346

0.0289283 -0.00234077 -2.07652e-07
-0.00234077 0.0342338 4.88598e-08
-2.07652e-07 4.88598e-08 0.032605

0.0262435 0.00450121 -3.6953e-09
0.00450121 0.0245569 5.92417e-08
-3.6953e-09 5.92417e-08 0.0180805

0.0284217 -0.00286665 3.14557e-08
-0.00286665 0.0340313 4.22838e-08
3.14557e-08 4.22838e-08 0.0324482

0.0331481 0.00405874 -4.75054e-08
0.00405874 0.0304638 1.17254e-07
-4.75054e-08 1.17254e-07 0.0315415

0.0333339 -0.00331155 -1.10959e-07
-0.00331155 0.0283562 6.96091e-09
-1.10959e-07 6.96091e-09 0.030045

0.0291599 -0.00329524 -5.39007e-08
-0.00329524 0.0319868 -2.74e-08
-5.39007e-08 -2.74e-08 0.0304365

0.0314541 -0.00242925 -8.46285e-08
-0.00242925 0.0247182 -8.62627e-08
-8.46285e-08 -8.62627e-08 0.0251555

0.0329548 -0.00246658 -6.64682e-08
-0.00246658 0.0267087 -5.69068e-08
-6.64682e-08 -5.69068e-08 0.0285958

0.0294905 -0.00334219 1.24928e-07
-0.00334219 0.0329492 -2.04846e-08
1.24928e-07 -2.04846e-08 0.0334065

0.0261333 0.00463372 -1.3212e-08
0.00463372 0.0255403 -2.2545e-07
-1.3212e-08 -2.2545e-07 0.0210918

0.0281491 0.0020167 6.88684e-08
0.0020167 0.0343345 1.76459e-09
6.88684e-08 1.76459e-09 0.0311086

0.0308854 0.00348106 3.25386e-08
0.00348106 0.0322544 -5.97969e-08
3.25386e-08 -5.97969e-08 0.0325994

0.0291563 0.00334804 -7.83811e-08
0.00334804 0.0331908 -7.09612e-08
-7.83811e-08 -7.09612e-08 0.0332596

0.0289834 0.00152276 -8.90118e-09
0.00152276 0.0354702 9.61448e-08
-8.90118e-09 9.61448e-08 0.0326947

0.0310517 -0.0010617 -7.32932e-08
-0.0010617 0.0231408 -2.43012e-07
-7.32932e-08 -2.43012e-07 0.0220773

0.0238832 0.00240545 2.0016e-07
0.00240545 0.0304096 -2.5059e-09
2.0016e-07 -2.5059e-09 0.0221123

0.0292124 -0.00320362 -1.17648e-08
-0.00320362 0.0326356 -1.62217e-08
-1.17648e-08 -1.62217e-08 0.0316177

0.0289866 0.00335669 7.63595e-09
0.00335669 0.0309318 1.18319e-07
7.63595e-09 1.18319e-07 0.0285673

0.0266119 -0.00459094 1.25746e-07
-0.00459094 0.0252296 4.02223e-09
1.25746e-07 4.02223e-09 0.0212561

0.026277 0.0048932 -4.1914e-08
0.0048932 0.0209457 2.09871e-07
-4.1914e-08 2.09871e-07 0.0167619

0.0235021 -0.00428675 -2.02661e-08
-0.00428675 0.0274637 -3.50071e-09
-2.02661e-08 -3.50071e-09 0.0206258

0.026671 -0.00402725 1.25743e-07
-0.00402725 0.0274817 3.80216e-09
1.25743e-07 3.80216e-09 0.0220494

0.0353644 -0.000906622 -8.96229e-08
-0.000906622 0.0273897 -6.03939e-08
-8.96229e-08 -6.03939e-08 0.0326543

0.0260444 0.00392157 -2.09281e-07
0.00392157 0.0280915 2.52499e-08
-2.09281e-07 2.52499e-08 0.0221019

0.030787 0.00171646 -2.54199e-07
0.00171646 0.0233597 -1.75497e-08
-2.54199e-07 -1.75497e-08 0.022025

0.0214304 0.00172209 -1.10359e-07
0.00172209 0.03024 -6.0414e-08
-1.10359e-07 -6.0414e-08 0.0211322

0.0242621 -0.0028893 5.42453e-08
-0.0028893 0.0299513 1.58001e-07
5.42453e-08 1.58001e-07 0.0220856

0.0313454 -0.000131195 1.8064e-07
-0.000131195 0.0392735 -1.08929e-07
1.8064e-07 -1.08929e-07 0.0346706

0.0230578 0.000294705 -2.50873e-07
0.000294705 0.0314597 3.18618e-09
-2.50873e-07 3.18618e-09 0.0230617

0.0227766 0.00400121 1.55991e-07
0.00400121 0.0281266 5.5174e-08
1.55991e-07 5.5174e-08 0.0206376

0.028888 0.00158589 1.50735e-07
0.00158589 0.0358322 -3.90359e-08
1.50735e-07 -3.90359e-08 0.0328933

0.0293153 -0.00357991 2.34691e-07
-0.00357991 0.0251291 -1.01449e-08
2.34691e-07 -1.01449e-08 0.0232392

0.0369764 0.00273288 1.7463e-07
0.00273288 0.0297228 1.17197e-07
1.7463e-07 1.17197e-07 0.0338015

0.0371757 0.0034832 8.27917e-08
0.0034832 0.0334225 1.86339e-08
8.27917e-08 1.86339e-08 0.034652

0.0345433 -0.00244637 -1.66643e-08
-0.00244637 0.0285295 1.72037e-08
-1.66643e-08 1.72037e-08 0.0313786

0.0390566 -0.000265567 -1.53646e-07
-0.000265567 0.0339247 -5.49091e-08
-1.53646e-07 -5.49091e-08 0.035208

0.0314789 -0.00418749 -1.40703e-07
-0.00418749 0.0317815 -1.86446e-08
-1.40703e-07 -1.86446e-08 0.0321561

0.0294614 0.00300736 -1.88863e-07
0.00300736 0.0223269 -1.07708e-07
-1.88863e-07 -1.07708e-07 0.0210662

0.0302292 0.00397281 -5.28422e-08
0.00397281 0.0326632 9.71093e-08
-5.28422e-08 9.71093e-08 0.0327197

0.0302771 0.00384691 3.16207e-08
0.00384691 0.0326072 1.64011e-07
3.16207e-08 1.64011e-07 0.0326745

0.026244 0.00396157 -5.97717e-08
0.00396157 0.0277671 -1.335e-07
-5.97717e-08 -1.335e-07 0.0218644

0.03445 0.00357677 -1.95178e-07
0.00357677 0.0317796 2.6285e-08
-1.95178e-07 2.6285e-08 0.0328313

0.0302478 0.000452431 -2.42646e-07
0.000452431 0.0204281 6.01207e-09
-2.42646e-07 6.01207e-09 0.0205729

0.0331863 0.00420078 -2.82606e-08
0.00420078 0.0323727 -6.5763e-08
-2.82606e-08 -6.5763e-08 0.0334837

0.0305008 -0.00165467 2.31053e-07
-0.00165467 0.0366159 -1.07185e-09
2.31053e-07 -1.07185e-09 0.0336627

0.03736 0.00323285 5.25329e-08
0.00323285 0.0334598 -7.91581e-08
5.25329e-08 -7.91581e-08 0.0346641

0.0307365 -0.00389618 2.54257e-08
-0.00389618 0.0322728 -7.46059e-08
2.54257e-08 -7.46059e-08 0.03268

0.0293738 -0.000645006 -8.56864e-08
-0.000645006 0.0369025 8.09126e-09
-8.56864e-08 8.09126e-09 0.0328477

0.0288125 -0.00315226 1.93852e-07
-0.00315226 0.0221397 1.2456e-07
1.93852e-07 1.2456e-07 0.0187587

0.0290022 0.00384455 -1.25843e-07
0.00384455 0.0255773 -2.23112e-07
-1.25843e-07 -2.23112e-07 0.0230726

0.0217011 0.00189092 -1.40125e-07
0.00189092 0.0300609 -1.9209e-07
-1.40125e-07 -1.9209e-07 0.0210836

0.0349895 -0.000161488 1.09628e-07
-0.000161488 0.0273894 -6.04729e-08
1.09628e-07 -6.04729e-08 0.0333014

0.0344195 2.57742e-07 -9.57101e-08
2.57742e-07 0.0272745 -4.89787e-08
-9.57101e-08 -4.89787e-08 0.032041

0.0291655 0.00303993 1.13917e-08
0.00303993 0.0326799 1.64812e-07
1.13917e-08 1.64812e-07 0.0321325

0.0314499 0.00316614 -2.99546e-08
0.00316614 0.03425 -6.88106e-08
-2.99546e-08 -6.88106e-08 0.034058

0.0291685 -0.00320428 1.11153e-07
-0.00320428 0.0332384 -6.19811e-08
1.11153e-07 -6.19811e-08 0.0333788

0.0287736 -8.55063e-05 9.73635e-08
-8.55063e-05 0.0367045 2.0272e-07
9.73635e-08 2.0272e-07 0.0325255

0.029464 0.0033756 -1.38392e-07
0.0033756 0.0330743 -9.66815e-08
-1.38392e-07 -9.66815e-08 0.0333545

0.0328593 -0.0013463 2.6891e-09
-0.0013463 0.0253616 1.7686e-07
2.6891e-09 1.7686e-07 0.0278287

0.0263546 -0.00425457 -1.21905e-07
-0.00425457 0.0281795 -2.02623e-08
-1.21905e-07 -2.02623e-08 0.0242674

0.0362974 -0.000331445 7.67949e-08
-0.000331445 0.0293829 -1.22362e-07
7.67949e-08 -1.22362e-07 0.0340278

0.0267807 -0.00444531 -1.36009e-09
-0.00444531 0.0251902 -2.19526e-09
-1.36009e-09 -2.19526e-09 0.020949

0.0308994 0.0025071 -2.14111e-07
0.0025071 0.035063 -9.55227e-08
-2.14111e-07 -9.55227e-08 0.0340676

0.0351128 -0.00349692 1.90205e-08
-0.00349692 0.0303882 -3.53186e-08
1.90205e-08 -3.53186e-08 0.0326146

0.0305015 -0.00124996 1.96746e-07
-0.00124996 0.0229782 -1.05094e-07
1.96746e-07 -1.05094e-07 0.0214782

0.0371473 -0.00307701 1.7482e-07
-0.00307701 0.0316532 5.46901e-09
1.7482e-07 5.46901e-09 0.0339878

0.0349691 0.00032198 3.7227e-08
0.00032198 0.0275546 -2.33934e-08
3.7227e-08 -2.33934e-08 0.0334297

0.035843 -0.00308839 -1.82866e-08
-0.00308839 0.0332577 -3.37064e-08
-1.82866e-08 -3.37064e-08 0.0341433

0.0349283 -0.00341062 -1.71401e-07
-0.00341062 0.0295949 -7.82194e-08
-1.71401e-07 -7.82194e-08 0.0321779

0.0349094 -0.00113373 2.07373e-08
-0.00113373 0.0278498 1.18565e-07
2.07373e-08 1.18565e-07 0.0323412

0.0314898 -0.00306232 -6.16154e-08
-0.00306232 0.0344483 -1.53516e-07
-6.16154e-08 -1.53516e-07 0.0341464

0.0292353 -0.00407088 -7.97033e-08
-0.00407088 0.0268994 1.63818e-07
-7.97033e-08 1.63818e-07 0.025346

0.0349924 -0.00324366 -1.48329e-07
-0.00324366 0.0299152 1.27483e-08
-1.48329e-07 1.27483e-08 0.0321951

0.0314623 0.00140903 -5.04831e-09
0.00140903 0.0233269 -4.94275e-09
-5.04831e-09 -4.94275e-09 0.0244835

0.033665 0.00348424 -7.48521e-08
0.00348424 0.0334438 6.38126e-09
-7.48521e-08 6.38126e-09 0.0336499

0.0298925 -0.00496744 9.17165e-09
-0.00496744 0.0330779 -1.58853e-08
9.17165e-09 -1.58853e-08 0.033857

0.0300428 0.0049205 9.60394e-08
0.0049205 0.0329397 -1.06857e-07
9.60394e-08 -1.06857e-07 0.0338239

0.0276876 -0.00374173 4.98079e-08
-0.00374173 0.0348067 7.18979e-09
4.98079e-08 7.18979e-09 0.0337665

0.0279256 0.003547 -3.84463e-08
0.003547 0.0348347 -1.24099e-07
-3.84463e-08 -1.24099e-07 0.0337313

0.0364292 -0.00115388 1.12027e-07
-0.00115388 0.0263416 -6.47004e-08
1.12027e-07 -6.47004e-08 0.0337576

0.0361981 0.00124757 -4.69466e-08
0.00124757 0.026563 -1.0783e-08
-4.69466e-08 -1.0783e-08 0.0337205

0.0350343 -0.00130646 -4.01586e-09
-0.00130646 0.0284679 5.82397e-08
-4.01586e-09 5.82397e-08 0.0325756

0.0344362 0.00425898 1.8927e-08
0.00425898 0.0342891 -6.7963e-08
1.8927e-08 -6.7963e-08 0.0348123

0.0343121 -0.00435686 1.78929e-07
-0.00435686 0.0342806 1.39127e-08
1.78929e-07 1.39127e-08 0.0348007

0.0305207 0.00209344 -2.42861e-07
0.00209344 0.0381652 -3.9232e-08
-2.42861e-07 -3.9232e-08 0.0348495

0.030664 -0.00205949 -2.26367e-07
-0.00205949 0.0380948 3.47202e-09
-2.26367e-07 3.47202e-09 0.0348368

0.0395016 -0.000528963 4.96524e-08
-0.000528963 0.0328492 5.52464e-08
4.96524e-08 5.52464e-08 0.0352577

0.039705 0.0005134 1.25749e-07
0.0005134 0.0326218 -6.85931e-08
1.25749e-07 -6.85931e-08 0.0353029

0.0239649 0.00127603 -1.55545e-07
0.00127603 0.0320031 1.79315e-07
-1.55545e-07 1.79315e-07 0.0251841

0.0311621 -0.00326527 -1.15576e-07
-0.00326527 0.0322408 -1.71452e-07
-1.15576e-07 -1.71452e-07 0.0328017

0.0277798 -0.00478575 1.02059e-07
-0.00478575 0.0333118 -6.17764e-08
1.02059e-07 -6.17764e-08 0.033455

0.0333584 -0.000610522 -2.87992e-08
-0.000610522 0.0264029 1.21239e-07
-2.87992e-08 1.21239e-07 0.028448

0.0381874 -0.00225185 -4.18584e-08
-0.00225185 0.0307943 -1.00752e-07
-4.18584e-08 -1.00752e-07 0.0348926

0.0382362 0.00218396 8.21871e-08
0.00218396 0.0309075 -3.59839e-09
8.21871e-08 -3.59839e-09 0.0349247

0.0360837 1.56211e-05 -1.63981e-08
1.56211e-05 0.0251256 7.18699e-08
-1.63981e-08 7.18699e-08 0.0334701

0.0242408 0.00302884 7.22023e-08
0.00302884 0.0303974 2.4757e-07
7.22023e-08 2.4757e-07 0.0242768

0.0276738 0.00475637 2.80029e-08
0.00475637 0.0333122 -6.64828e-08
2.80029e-08 -6.64828e-08 0.0333929

0.0286744 -0.00307576 4.94516e-08
-0.00307576 0.0342607 4.41808e-08
4.94516e-08 4.41808e-08 0.0327521

0.0310854 0.00303566 2.36222e-08
0.00303566 0.0251464 1.25288e-07
2.36222e-08 1.25288e-07 0.025467

0.0372274 0.00316571 -7.41218e-08
0.00316571 0.0315406 4.82136e-08
-7.41218e-08 4.82136e-08 0.0340757

0.0292267 -0.00406713 1.34799e-07
-0.00406713 0.0269354 1.52032e-07
1.34799e-07 1.52032e-07 0.0253211

0.0364011 -0.000453622 -9.17054e-08
-0.000453622 0.0296915 -1.90807e-08
-9.17054e-08 -1.90807e-08 0.0341308

0.0273441 -0.00449498 3.28483e-09
-0.00449498 0.0333953 5.8992e-08
3.28483e-09 5.8992e-08 0.0334416

0.0240377 0.00107905 -1.23527e-07
0.00107905 0.032244 1.81685e-07
-1.23527e-07 1.81685e-07 0.0255057

0.0242295 0.0028264 8.15188e-08
0.0028264 0.0307012 -2.42259e-07
8.15188e-08 -2.42259e-07 0.0245447

0.026792 0.00459426 2.01826e-07
0.00459426 0.0240416 8.68613e-08
2.01826e-07 8.68613e-08 0.0182134

0.0298504 0.000199764 -3.81913e-09
0.000199764 0.0200882 1.96608e-07
-3.81913e-09 1.96608e-07 0.0193623

0.0319089 -0.00302373 -1.59387e-07
-0.00302373 0.0341619 2.96043e-08
-1.59387e-07 2.96043e-08 0.0340355

0.0229184 0.00399945 4.35846e-08
0.00399945 0.02766 -1.46688e-07
4.35846e-08 -1.46688e-07 0.0176529

0.0292097 0.00310076 -1.19441e-07
0.00310076 0.0327627 -3.38499e-08
-1.19441e-07 -3.38499e-08 0.0310121

0.0315946 -0.000694452 9.27199e-08
-0.000694452 0.0231599 -2.3917e-07
9.27199e-08 -2.3917e-07 0.0244847

0.0327612 0.00146443 3.12968e-09
0.00146443 0.0253467 7.32792e-08
3.12968e-09 7.32792e-08 0.0276128

0.035978 5.62355e-05 9.7348e-08
5.62355e-05 0.0249586 -8.26439e-08
9.7348e-08 -8.26439e-08 0.0333861

0.0279656 -0.00380555 1.27181e-07
-0.00380555 0.0349488 -3.3354e-08
1.27181e-07 -3.3354e-08 0.0338158

0.0393146 -0.00084377 -2.85258e-07
-0.00084377 0.0416019 9.93094e-08
-2.85258e-07 9.93094e-08 0.03619

0.0298678 0.00493902 -1.12493e-07
0.00493902 0.0329564 7.83484e-08
-1.12493e-07 7.83484e-08 0.033779

0.0302882 0.00021452 -5.73842e-08
0.00021452 0.0203967 1.80873e-08
-5.73842e-08 1.80873e-08 0.0172759

0.0266736 -0.00425026 1.06076e-07
-0.00425026 0.0281331 3.32019e-08
1.06076e-07 3.32019e-08 0.0244373

0.027746 0.00481563 -1.13885e-07
0.00481563 0.033315 -1.39753e-07
-1.13885e-07 -1.39753e-07 0.0334552

0.0279449 -0.00145848 1.73564e-07
-0.00145848 0.035085 -3.75541e-08
1.73564e-07 -3.75541e-08 0.0314502

0.0244649 -0.00330505 2.50318e-07
-0.00330505 0.0300152 -5.64445e-08
2.50318e-07 -5.64445e-08 0.0242169

0.0279906 0.00377966 3.91483e-08
0.00377966 0.0349101 -1.11924e-07
3.91483e-08 -1.11924e-07 0.0337867

0.0313613 -0.00340935 1.28499e-09
-0.00340935 0.0270083 1.72e-07
1.28499e-09 1.72e-07 0.0269912

0.0402791 0.00140891 -1.21581e-07
0.00140891 0.0406178 2.58351e-07
-1.21581e-07 2.58351e-07 0.0361704

0.0258809 0.00400292 -2.37029e-07
0.00400292 0.0289541 -2.51995e-08
-2.37029e-07 -2.51995e-08 0.0245109

0.036678 0.00110302 1.07268e-07
0.00110302 0.026352 7.54937e-08
1.07268e-07 7.54937e-08 0.0338977

0.0333419 0.00398427 -2.03379e-07
0.00398427 0.0321155 -3.76369e-08
-2.03379e-07 -3.76369e-08 0.0333156

0.0292281 0.00306705 -6.46142e-08
0.00306705 0.0326055 9.66754e-08
-6.46142e-08 9.66754e-08 0.0321576

0.0343645 -0.00431109 -3.13933e-08
-0.00431109 0.0345049 -1.54326e-07
-3.13933e-08 -1.54326e-07 0.0348849

0.0354895 -0.00306338 7.3845e-08
-0.00306338 0.03059 7.64566e-08
7.3845e-08 7.64566e-08 0.0327503

0.0333665 0.0013875 2.34225e-07
0.0013875 0.0395772 -7.5534e-08
2.34225e-07 -7.5534e-08 0.0350025

0.0291967 -0.00307902 -2.0007e-08
-0.00307902 0.0328734 2.81747e-07
-2.0007e-08 2.81747e-07 0.0313833

0.0292649 -0.00123225 -3.75051e-07
-0.00123225 0.019287 8.54556e-08
-3.75051e-07 8.54556e-08 0.0164121

0.0287785 -0.00183226 7.53218e-08
-0.00183226 0.018414 2.93995e-07
7.53218e-08 2.93995e-07 0.016197

0.038529 0.00220229 -1.21352e-07
0.00220229 0.033239 2.45052e-07
-1.21352e-07 2.45052e-07 0.0347629

0.0280558 0.00294504 1.42728e-07
0.00294504 0.0323355 2.072e-07
1.42728e-07 2.072e-07 0.0295181

0.0320669 0.00383431 2.22063e-07
0.00383431 0.0309605 -5.46572e-08
2.22063e-07 -5.46572e-08 0.0314544

0.03205 8.99884e-05 3.81025e-08
8.99884e-05 0.0245769 -2.2316e-07
3.81025e-08 -2.2316e-07 0.0248881

0.0302377 0.000866171 -1.02686e-07
0.000866171 0.0385813 -3.93181e-08
-1.02686e-07 -3.93181e-08 0.0340963

0.0354018 0.00219119 -7.14329e-08
0.00219119 0.029323 -1.06388e-07
-7.14329e-08 -1.06388e-07 0.0328583

0.0248114 -0.00333878 2.15166e-07
-0.00333878 0.0300061 -9.46201e-08
2.15166e-07 -9.46201e-08 0.02447

0.0286506 -0.000337962 5.13085e-09
-0.000337962 0.0366572 1.93857e-07
5.13085e-09 1.93857e-07 0.0323958

0.0252153 0.00173998 1.10245e-07
0.00173998 0.0320298 1.87377e-07
1.10245e-07 1.87377e-07 0.025684

0.0332806 -0.00390954 -2.19867e-08
-0.00390954 0.0304969 7.06613e-08
-2.19867e-08 7.06613e-08 0.0315924

0.0290648 -0.00389597 4.85333e-08
-0.00389597 0.0282003 -1.46285e-08
4.85333e-08 -1.46285e-08 0.0257136

0.0261492 0.00409871 3.9324e-08
0.00409871 0.0285464 4.13215e-08
3.9324e-08 4.13215e-08 0.0243181

0.0452876 -0.00201735 -1.5588e-07
-0.00201735 0.039606 -1.44557e-07
-1.5588e-07 -1.44557e-07 0.036367

0.0316668 0.000256538 5.73501e-08
0.000256538 0.0393271 -9.70333e-08
5.73501e-08 -9.70333e-08 0.0347692

0.0306165 0.00265105 -2.14106e-08
0.00265105 0.038443 2.769e-08
-2.14106e-08 2.769e-08 0.0349577

0.0387659 0.00209485 -1.71007e-07
0.00209485 0.0302216 1.43938e-08
-1.71007e-07 1.43938e-08 0.0349426

0.0313709 -0.00345041 9.60054e-09
-0.00345041 0.0321405 -9.89745e-08
9.60054e-09 -9.89745e-08 0.0325727

0.0318181 0.00233599 4.43545e-08
0.00233599 0.0256203 9.48775e-08
4.43545e-08 9.48775e-08 0.0258797

0.0349938 -0.000708735 2.06811e-07
-0.000708735 0.0415753 -2.19569e-08
2.06811e-07 -2.19569e-08 0.0357277

0.0357882 -0.00251855 1.25586e-07
-0.00251855 0.0295501 -1.24133e-07
1.25586e-07 -1.24133e-07 0.033258

0.0332972 -0.00203978 -5.99186e-08
-0.00203978 0.0266527 -4.01503e-08
-5.99186e-08 -4.01503e-08 0.0286754

0.0252522 0.00151078 -1.77831e-07
0.00151078 0.0322743 1.7975e-07
-1.77831e-07 1.7975e-07 0.0259501

0.0268046 -0.00334475 -1.48846e-07
-0.00334475 0.0300095 -7.06553e-08
-1.48846e-07 -7.06553e-08 0.0251873

0.0364775 -0.00336058 2.192e-07
-0.00336058 0.0352875 -8.05689e-08
2.192e-07 -8.05689e-08 0.0347423

0.0284758 0.00415211 1.74155e-07
0.00415211 0.0277159 1.22281e-07
1.74155e-07 1.22281e-07 0.0254678

0.0372441 -0.00334564 -2.32181e-08
-0.00334564 0.0333222 6.11358e-08
-2.32181e-08 6.11358e-08 0.0346117

0.0322062 0.000337911 1.17057e-07
0.000337911 0.0248626 -1.9225e-07
1.17057e-07 -1.9225e-07 0.0254376

0.019161 -0.00368908 1.85449e-07
-0.00368908 0.0275257 -4.57876e-08
1.85449e-07 -4.57876e-08 0.0163108

0.0292099 -0.00380349 -1.4981e-07
-0.00380349 0.0281927 1.03574e-08
-1.4981e-07 1.03574e-08 0.0258077

0.0230458 0.00412737 -1.21621e-08
0.00412737 0.02802 1.96756e-07
-1.21621e-08 1.96756e-07 0.0175921

0.029691 -0.00155929 1.35939e-07
-0.00155929 0.0375332 9.1299e-08
1.35939e-07 9.1299e-08 0.0336485

0.02436 -0.00179371 1.4234e-09
-0.00179371 0.0318722 -2.19246e-09
1.4234e-09 -2.19246e-09 0.0254478

0.0424371 -0.00323453 -9.73467e-08
-0.00323453 0.0423765 -5.66765e-08
-9.73467e-08 -5.66765e-08 0.0363753

0.0263365 0.00309101 -1.00416e-07
0.00309101 0.0307014 -2.42525e-07
-1.00416e-07 -2.42525e-07 0.0254778

0.0334768 -0.00432355 4.05452e-09
-0.00432355 0.0326593 -2.51578e-08
4.05452e-09 -2.51578e-08 0.0335663

0.0240805 -0.00155081 5.09089e-08
-0.00155081 0.0318868 -2.44458e-08
5.09089e-08 -2.44458e-08 0.0251767

0.0362227 -0.00253875 4.42374e-08
-0.00253875 0.0295111 -1.31808e-08
4.42374e-08 -1.31808e-08 0.0335192

0.0266734 0.00310458 -8.89721e-08
0.00310458 0.0303943 2.50393e-07
-8.89721e-08 2.50393e-07 0.025313

0.0343429 -0.000654007 5.77001e-08
-0.000654007 0.0272765 -1.90501e-08
5.77001e-08 -1.90501e-08 0.0305774

0.0188904 -0.00387153 9.85398e-08
-0.00387153 0.0298015 1.53129e-07
9.85398e-08 1.53129e-07 0.0129611

0.0279988 0.00275446 1.07941e-07
0.00275446 0.0326286 -5.05888e-08
1.07941e-07 -5.05888e-08 0.0305733

0.031437 -0.00251228 -2.64264e-07
-0.00251228 0.024722 -3.65612e-08
-2.64264e-07 -3.65612e-08 0.0254056

0.0391182 -0.0028692 8.7405e-08
-0.0028692 0.0322212 2.36456e-08
8.7405e-08 2.36456e-08 0.0349365

0.0287526 0.00412402 1.34302e-07
0.00412402 0.0272996 2.28487e-07
1.34302e-07 2.28487e-07 0.0252551

0.0313608 -0.0039192 3.17155e-08
-0.0039192 0.0285416 1.26563e-07
3.17155e-08 1.26563e-07 0.0287306

0.0354074 0.00276383 -1.08619e-07
0.00276383 0.0308552 -4.65777e-08
-1.08619e-07 -4.65777e-08 0.0330387

0.029772 -0.00370387 -5.41118e-08
-0.00370387 0.0329373 9.12055e-09
-5.41118e-08 9.12055e-09 0.0333418

0.0270546 -0.00341021 3.89819e-08
-0.00341021 0.0299819 -1.08244e-07
3.89819e-08 -1.08244e-07 0.025397

0.0284405 0.00377104 2.63159e-07
0.00377104 0.028939 -1.11229e-08
2.63159e-07 -1.11229e-08 0.0258868

0.0313707 0.00341316 2.01969e-07
0.00341316 0.0268986 1.38946e-07
2.01969e-07 1.38946e-07 0.0269655

0.0365357 -0.0019443 3.43659e-08
-0.0019443 0.0306247 -3.41415e-08
3.43659e-08 -3.41415e-08 0.033635

0.0255332 -0.00216306 2.7219e-07
-0.00216306 0.0318009 2.08233e-08
2.7219e-07 2.08233e-08 0.0258532

0.0346985 -0.00231383 1.59277e-09
-0.00231383 0.0283337 5.8556e-08
1.59277e-09 5.8556e-08 0.0314552

0.0341849 0.00222285 -3.39464e-08
0.00222285 0.0274311 -1.87321e-07
-3.39464e-08 -1.87321e-07 0.0306031

0.0336444 -0.00124568 -3.80783e-08
-0.00124568 0.0392993 -1.06397e-07
-3.80783e-08 -1.06397e-07 0.0349267

0.0320713 -0.00174651 -1.56478e-07
-0.00174651 0.0253298 1.69932e-07
-1.56478e-07 1.69932e-07 0.0258705

0.0250012 7.99216e-05 -3.11604e-08
7.99216e-05 0.0331503 -2.34088e-08
-3.11604e-08 -2.34088e-08 0.0268606

0.0332462 0.00242836 -6.40787e-08
0.00242836 0.027193 -3.47575e-08
-6.40787e-08 -3.47575e-08 0.0289213

0.0311169 0.00359879 1.19602e-08
0.00359879 0.0272919 1.01868e-07
1.19602e-08 1.01868e-07 0.0271219

0.0252948 -0.00204106 2.7097e-07
-0.00204106 0.0318635 -1.93839e-08
2.7097e-07 -1.93839e-08 0.0256104

0.0252005 -0.000154629 1.99835e-09
-0.000154629 0.033291 -1.10674e-08
1.99835e-09 -1.10674e-08 0.0271433

0.0354125 0.00385829 -3.78388e-08
0.00385829 0.032995 2.38209e-07
-3.78388e-08 2.38209e-07 0.0338947

0.0275849 -0.00143112 -3.18938e-08
-0.00143112 0.0353413 -9.24905e-08
-3.18938e-08 -9.24905e-08 0.0314412

0.0312333 -0.0034837 -2.29361e-07
-0.0034837 0.0269767 1.38481e-07
-2.29361e-07 1.38481e-07 0.027009

0.0312958 0.00277244 -3.46893e-09
0.00277244 0.0249214 -2.13001e-07
-3.46893e-09 -2.13001e-07 0.0252455

0.0345817 0.00311827 7.45945e-09
0.00311827 0.0293859 -1.10888e-07
7.45945e-09 -1.10888e-07 0.031795

0.0279905 0.000716619 2.61341e-08
0.000716619 0.0360385 4.00529e-08
2.61341e-08 4.00529e-08 0.0318173

0.0287156 0.00378125 2.48155e-07
0.00378125 0.0285585 3.70612e-08
2.48155e-07 3.70612e-08 0.0257272

0.0367895 0.00305761 -2.71347e-08
0.00305761 0.0361247 2.12527e-07
-2.71347e-08 2.12527e-07 0.0349064

0.0226796 -0.0075452 1.70801e-07
-0.0075452 0.0186874 3.07501e-07
1.70801e-07 3.07501e-07 0.0108448

0.0332903 -0.00328726 -5.50931e-08
-0.00328726 0.0286316 1.1966e-07
-5.50931e-08 1.1966e-07 0.0301232

0.0207263 0.000913313 8.25602e-08
0.000913313 0.0300303 2.50811e-07
8.25602e-08 2.50811e-07 0.0183459

0.0312992 -0.00378168 -1.12805e-07
-0.00378168 0.0292304 -1.31842e-07
-1.12805e-07 -1.31842e-07 0.0290308

0.00153954 -0.00651865 1.50928e-08
-0.00651865 0.0275677 -6.61261e-08
1.50928e-08 -6.61261e-08 0.00290824

0.00146993 0.00636821 3.90326e-08
0.00636821 0.0275856 1.71013e-07
3.90326e-08 1.71013e-07 0.00300119

0.0119843 0.0145047 -1.47573e-07
0.0145047 0.0175321 -1.85051e-07
-1.47573e-07 -1.85051e-07 0.00277112

0.0121657 -0.0144953 -1.49909e-07
-0.0144953 0.0172236 1.87981e-07
-1.49909e-07 1.87981e-07 0.00280373

0.02934 -0.000164085 -2.05274e-07
-0.000164085 0 0
-2.05274e-07 0 0.00295254

0.0235917 -0.0112824 -1.41937e-07
-0.0112824 0.00539536 6.83533e-08
-1.41937e-07 6.83533e-08 0.00297828

0.0236337 0.0113486 6.0733e-08
0.0113486 0.00544942 2.92475e-08
6.0733e-08 2.92475e-08 0.0030394

0.0369102 0.00191133 1.0738e-07
0.00191133 0.0302414 1.54599e-08
1.0738e-07 1.54599e-08 0.0338771

0.0387046 0.00341018 -1.01147e-07
0.00341018 0.036617 2.77303e-07
-1.01147e-07 2.77303e-07 0.0355779

0.0344143 0.000872354 8.16821e-08
0.000872354 0.0274562 3.44203e-08
8.16821e-08 3.44203e-08 0.0316872

0.0328718 0.00285016 -1.58803e-07
0.00285016 0.0268885 1.35975e-07
-1.58803e-07 1.35975e-07 0.0286457

0.0257001 0.00231313 -8.39353e-08
0.00231313 0.0323664 -2.05066e-07
-8.39353e-08 -2.05066e-07 0.027635

0.0307122 0.00376896 3.42155e-09
0.00376896 0.0276754 1.14514e-07
3.42155e-09 1.14514e-07 0.027117

0.0333048 -0.0039032 -8.6395e-08
-0.0039032 0.0304651 -2.2079e-08
-8.6395e-08 -2.2079e-08 0.0316293

0.0309727 0.0036543 1.50857e-07
0.0036543 0.0272863 2.29074e-07
1.50857e-07 2.29074e-07 0.0269247

0.0249866 -0.000371518 5.30006e-08
-0.000371518 0.0331213 -2.07092e-08
5.30006e-08 -2.07092e-08 0.0268427

0.0385482 -0.00348465 1.29749e-07
-0.00348465 0.0368804 -2.67871e-08
1.29749e-07 -2.67871e-08 0.0355835

0.025175 -0.000635603 -3.14585e-09
-0.000635603 0.0332096 -1.15033e-08
-3.14585e-09 -1.15033e-08 0.0271022

0.0360177 0.00304736 1.25738e-07
0.00304736 0.0330109 -1.98578e-07
1.25738e-07 -1.98578e-07 0.0340975

0.0296225 0.00347556 -1.35759e-07
0.00347556 0.0248458 -2.04914e-07
-1.35759e-07 -2.04914e-07 0.0230224

0.0304958 -0.00171382 -1.7879e-07
-0.00171382 0.0375117 5.06254e-08
-1.7879e-07 5.06254e-08 0.0347361

0.0339194 0.00180414 1.19168e-07
0.00180414 0.0271812 -3.30774e-08
1.19168e-07 -3.30774e-08 0.03032

0.0312007 -0.00392023 -6.95032e-08
-0.00392023 0.0285305 -1.29665e-07
-6.95032e-08 -1.29665e-07 0.028614

0.031583 -0.00322142 -2.94425e-07
-0.00322142 0.0266913 1.33202e-08
-2.94425e-07 1.33202e-08 0.0270473

0.0384797 -0.00214133 1.25701e-08
-0.00214133 0.0334168 1.29478e-07
1.25701e-08 1.29478e-07 0.0347445

0.0326805 0.00366402 -5.86545e-08
0.00366402 0.0292318 1.66075e-07
-5.86545e-08 1.66075e-07 0.0301545

0.0326441 0.00313755 -9.22527e-08
0.00313755 0.0272519 9.77953e-08
-9.22527e-08 9.77953e-08 0.0287875

0.0269548 -0.000365329 -1.43765e-07
-0.000365329 0.0349867 -3.17831e-08
-1.43765e-07 -3.17831e-08 0.0301675

0.0258993 0.000765732 -6.40501e-08
0.000765732 0.034003 -1.53964e-07
-6.40501e-08 -1.53964e-07 0.0288226

0.0327772 0.000345348 1.37909e-07
0.000345348 0.0248614 -1.91363e-07
1.37909e-07 -1.91363e-07 0.0274434

0.0313867 -0.000945013 1.00618e-07
-0.000945013 0.0230036 -1.09635e-07
1.00618e-07 -1.09635e-07 0.0238918

0.0308801 0.00398513 -7.04837e-09
0.00398513 0.028806 -5.97828e-08
-7.04837e-09 -5.97828e-08 0.0286238

0.0331175 -0.00343134 1.73813e-07
-0.00343134 0.0285401 -1.27411e-07
1.73813e-07 -1.27411e-07 0.0299689

0.0364121 -0.00282351 1.59197e-07
-0.00282351 0.0327328 -8.85044e-09
1.59197e-07 -8.85044e-09 0.0341437

0.0292061 -0.00412754 -5.95579e-08
-0.00412754 0.029192 -1.27942e-07
-5.95579e-08 -1.27942e-07 0.0277536

0.0269716 -0.00362029 -1.88978e-07
-0.00362029 0.0304642 -4.21096e-09
-1.88978e-07 -4.21096e-09 0.027213

0.0283262 0.00389942 1.79807e-07
0.00389942 0.0299006 -1.77691e-07
1.79807e-07 -1.77691e-07 0.0277517

0.025901 -0.00124894 7.11229e-08
-0.00124894 0.033613 -4.92157e-08
7.11229e-08 -4.92157e-08 0.0285156

0.0266542 -0.000201876 -1.6739e-08
-0.000201876 0.034913 -2.11514e-07
-1.6739e-08 -2.11514e-07 0.0299195

0.027762 0.000752798 -1.10369e-07
0.000752798 0.0360379 4.10801e-08
-1.10369e-07 4.10801e-08 0.0316578

0.0262469 -0.00274944 1.66635e-07
-0.00274944 0.0319628 1.78971e-07
1.66635e-07 1.78971e-07 0.0277103

0.0345821 0.00317571 -1.37271e-07
0.00317571 0.0291681 1.61712e-07
-1.37271e-07 1.61712e-07 0.0316341

0.033909 -0.0012611 5.8336e-08
-0.0012611 0.0269299 -1.74182e-08
5.8336e-08 -1.74182e-08 0.0302013

0.02579 0.000974456 -7.08276e-08
0.000974456 0.033829 -9.4217e-08
-7.08276e-08 -9.4217e-08 0.0285416

0.0278237 -0.00126982 -8.61058e-08
-0.00126982 0.0353972 -1.03549e-07
-8.61058e-08 -1.03549e-07 0.0313656

0.0272926 -0.00213729 8.77796e-09
-0.00213729 0.0336569 -5.29896e-09
8.77796e-09 -5.29896e-09 0.0302253

0.0327763 -0.00107723 -1.58754e-07
-0.00107723 0.0253198 5.11853e-08
-1.58754e-07 5.11853e-08 0.027254

0.0333152 -0.00427101 -1.13846e-07
-0.00427101 0.0323801 -7.58826e-08
-1.13846e-07 -7.58826e-08 0.0335289

0.0264884 0.00121978 -1.51388e-07
0.00121978 0.033835 -9.52548e-08
-1.51388e-07 -9.52548e-08 0.0288157

0.0398106 -0.00243194 -2.58182e-07
-0.00243194 0.0352181 -6.38365e-08
-2.58182e-07 -6.38365e-08 0.0354607

0.0188886 0.00316463 1.06118e-07
0.00316463 0.0278754 2.07654e-07
1.06118e-07 2.07654e-07 0.0162726

0.0338155 -0.0035228 -5.05355e-08
-0.0035228 0.0334945 2.4989e-08
-5.05355e-08 2.4989e-08 0.0337258

0.0353435 -0.00399933 2.84361e-08
-0.00399933 0.0330462 1.31121e-07
2.84361e-08 1.31121e-07 0.0339036

0.0266855 -9.05169e-05 5.31478e-10
-9.05169e-05 0.0349181 -2.1112e-07
5.31478e-10 -2.1112e-07 0.0299276

0.0332428 -0.00217639 4.03402e-08
-0.00217639 0.0271528 1.00088e-07
4.03402e-08 1.00088e-07 0.0289024

0.0293472 0.00168466 -1.89818e-08
0.00168466 0.035819 -2.90915e-08
-1.89818e-08 -2.90915e-08 0.0328794

0.0132073 -0.000379133 1.44053e-07
-0.000379133 0.0283619 1.40892e-07
1.44053e-07 1.40892e-07 0.0111516

0.0271133 0.00186844 -1.01734e-07
0.00186844 0.0340608 -1.43255e-09
-1.01734e-07 -1.43255e-09 0.0303058

0.0311087 -0.00385839 3.93967e-08
-0.00385839 0.0291538 8.98961e-08
3.93967e-08 8.98961e-08 0.028806

0.0186195 0.00320462 3.27722e-08
0.00320462 0.0301392 5.7697e-09
3.27722e-08 5.7697e-09 0.0131266

0.0426002 0.00351784 -4.3511e-07
0.00351784 0.0418486 -5.84049e-07
-4.3511e-07 -5.84049e-07 0.0364801

0.0432044 -0.00374789 6.84601e-08
-0.00374789 0.0414175 -9.69964e-08
6.84601e-08 -9.69964e-08 0.0364625

0.0310645 -0.00399078 -1.84312e-07
-0.00399078 0.0304706 -1.96796e-08
-1.84312e-07 -1.96796e-08 0.0304606

0.0289215 -0.00406396 -1.41315e-08
-0.00406396 0.0291502 8.9304e-08
-1.41315e-08 8.9304e-08 0.027594

0.0330506 0.0027267 7.99582e-08
0.0027267 0.027528 -1.77093e-07
7.99582e-08 -1.77093e-07 0.029075

0.0327793 0.00196002 2.2612e-07
0.00196002 0.0255907 1.01879e-07
2.2612e-07 1.01879e-07 0.0278223

0.0464016 0.000418537 4.16889e-07
0.000418537 0.046357 -4.72623e-08
4.16889e-07 -4.72623e-08 0.0366943

0.0469183 -0.000952074 7.65392e-07
-0.000952074 0.0457683 -4.51208e-07
7.65392e-07 -4.51208e-07 0.0367654

0.0347989 0.000638325 -3.61814e-08
0.000638325 0.0275724 1.36911e-07
-3.61814e-08 1.36911e-07 0.032216

0.0277513 0.00088219 -9.45269e-08
0.00088219 0.03557 -1.38614e-08
-9.45269e-08 -1.38614e-08 0.0313481

0.0276072 0.000882709 1.20749e-07
0.000882709 0.0355702 -7.71061e-09
1.20749e-07 -7.71061e-09 0.0312443

0.0234589 0.00739979 2.48272e-07
0.00739979 0.0183017 -1.56956e-07
2.48272e-07 -1.56956e-07 0.0109014

0.0272464 -0.00367548 -2.17156e-08
-0.00367548 0.0303465 -1.80945e-08
-2.17156e-08 -1.80945e-08 0.027319

0.0365662 0.00239159 7.67572e-08
0.00239159 0.0295756 5.46296e-08
7.67572e-08 5.46296e-08 0.0337839

0.0332731 0.00124778 2.61221e-07
0.00124778 0.0265036 3.4663e-08
2.61221e-07 3.4663e-08 0.0284312

0.0291519 -0.00349237 -5.94077e-08
-0.00349237 0.0304704 6.58192e-09
-5.94077e-08 6.58192e-09 0.0281727

0.0328105 -0.00264783 -9.8143e-09
-0.00264783 0.0267275 2.26641e-08
-9.8143e-09 2.26641e-08 0.0285862

0.0224597 0.00761267 7.84123e-08
0.00761267 0.0185901 -3.48846e-07
7.84123e-08 -3.48846e-07 0.0109038

0.0331445 0.0041024 -1.72242e-07
0.0041024 0.0326379 -1.10167e-07
-1.72242e-07 -1.10167e-07 0.0331811

0.0258896 -0.00257815 1.56293e-07
-0.00257815 0.0320233 1.69718e-07
1.56293e-07 1.69718e-07 0.0275068

0.0324816 0.00378582 1.7277e-07
0.00378582 0.0292675 -1.48071e-07
1.7277e-07 -1.48071e-07 0.0301463

0.0268155 -0.000543687 1.50173e-07
-0.000543687 0.0349517 -1.7372e-09
1.50173e-07 -1.7372e-09 0.0301373

0.0269894 0.00256336 5.88558e-08
0.00256336 0.032448 1.36538e-07
5.88558e-08 1.36538e-07 0.0282858

0.0305256 0.00399098 -1.41691e-07
0.00399098 0.0293226 -1.77108e-07
-1.41691e-07 -1.77108e-07 0.0287745

0.0276079 -0.00293706 6.32308e-08
-0.00293706 0.0318534 1.60703e-07
6.32308e-08 1.60703e-07 0.0282484

0.0294557 -0.00357566 5.61664e-09
-0.00357566 0.0303502 -1.63478e-08
5.61664e-09 -1.63478e-08 0.0283044

0.0181374 0.0014255 -4.70556e-08
0.0014255 0.0280359 -1.45056e-08
-4.70556e-08 -1.45056e-08 0.0131273

0.0234732 -0.00429391 3.9121e-09
-0.00429391 0.0275554 -4.09171e-08
3.9121e-09 -4.09171e-08 0.0177229

0.0262049 -0.0015261 8.72757e-08
-0.0015261 0.0336231 -1.42916e-07
8.72757e-08 -1.42916e-07 0.0287512

0.0330227 0.00347478 -1.47378e-07
0.00347478 0.0288774 -4.78996e-08
-1.47378e-07 -4.78996e-08 0.0300683

0.030321 0.0038574 -1.22953e-07
0.0038574 0.0298859 -1.98354e-07
-1.22953e-07 -1.98354e-07 0.0289896

0.0274136 -0.00280048 -1.08362e-07
-0.00280048 0.031983 1.50594e-07
-1.08362e-07 1.50594e-07 0.0281384

0.0265539 -0.00154075 3.82149e-08
-0.00154075 0.0335814 -5.09106e-08
3.82149e-08 -5.09106e-08 0.0287456

0.0309557 0.00371818 1.90452e-08
0.00371818 0.0295627 -1.1104e-07
1.90452e-08 -1.1104e-07 0.0289405

0.0267587 -0.00181611 2.9476e-08
-0.00181611 0.0334735 -1.5532e-07
2.9476e-08 -1.5532e-07 0.0289536

0.0191656 0.00355432 -1.22322e-07
0.00355432 0.0276073 -1.6519e-07
-1.22322e-07 -1.6519e-07 0.0162918

0.0308728 -0.000535006 1.18181e-07
-0.000535006 0.0388186 -2.27257e-07
1.18181e-07 -2.27257e-07 0.0342937

0.0286557 0.00404771 1.43153e-07
0.00404771 0.0295178 -1.24785e-07
1.43153e-07 -1.24785e-07 0.0277139

0.0355791 0.00197495 -7.11638e-08
0.00197495 0.0295024 -1.06898e-07
-7.11638e-08 -1.06898e-07 0.0328419

0.0362583 -0.00211465 1.73707e-07
-0.00211465 0.0297547 -5.62839e-08
1.73707e-07 -5.62839e-08 0.0332171

0.0285101 -0.00309567 -3.33461e-07
-0.00309567 0.0185686 2.81208e-07
-3.33461e-07 2.81208e-07 0.0157295

0.0283527 -0.00278997 2.42817e-07
-0.00278997 0.0327745 1.8817e-07
2.42817e-07 1.8817e-07 0.0305709

0.0291906 0.00350041 -2.71461e-07
0.00350041 0.0315991 1.78636e-07
-2.71461e-07 1.78636e-07 0.0304867

0.0349591 -0.00290724 1.70249e-07
-0.00290724 0.0376754 2.22558e-07
1.70249e-07 2.22558e-07 0.0352354

0.0394598 0.00188545 1.29712e-07
0.00188545 0.0446087 1.56234e-07
1.29712e-07 1.56234e-07 0.0364323

0.0449441 0.00128993 4.12755e-07
0.00128993 0.0391156 -3.8764e-07
4.12755e-07 -3.8764e-07 0.0364142

0.0355597 0.00434527 2.94386e-07
0.00434527 0.0351344 -7.65108e-08
2.94386e-07 -7.65108e-08 0.0350027

0.0265711 0.00338795 7.89334e-08
0.00338795 0.0310056 8.33824e-08
7.89334e-08 8.33824e-08 0.0272552

0.0330383 0.00349713 -1.95038e-07
0.00349713 0.0286661 7.19344e-08
-1.95038e-07 7.19344e-08 0.0300493

0.0220593 0.00576405 -9.83614e-08
0.00576405 0.0242368 7.62624e-08
-9.83614e-08 7.62624e-08 0.0160719

0.0386177 -0.00151214 -6.45346e-08
-0.00151214 0.0444319 -1.22641e-08
-6.45346e-08 -1.22641e-08 0.0363614

0.046048 -0.000463863 4.40411e-08
-0.000463863 0.0454387 1.89778e-07
4.40411e-08 1.89778e-07 0.0366904

0.0451798 -3.13932e-05 3.14801e-07
-3.13932e-05 0.0463021 2.5703e-07
3.14801e-07 2.5703e-07 0.0366723

0.0176406 -0.00679477 -9.11196e-08
-0.00679477 0.0231077 -2.26092e-07
-9.11196e-08 -2.26092e-07 0.0107382

0.0392916 -0.00155581 -2.91397e-07
-0.00155581 0.038714 2.70728e-07
-2.91397e-07 2.70728e-07 0.0358529

0.0383962 0.00117666 1.88238e-07
0.00117666 0.0415173 -4.2916e-08
1.88238e-07 -4.2916e-08 0.0361243

0.0331742 -0.00343556 1.45054e-07
-0.00343556 0.0282188 -1.9375e-07
1.45054e-07 -1.9375e-07 0.0299028

0.031844 0.000140641 -1.31197e-07
0.000140641 0.0386712 -2.01944e-07
-1.31197e-07 -2.01944e-07 0.0344497

0.0285761 -0.00265992 2.04626e-08
-0.00265992 0.0333794 6.54105e-10
2.04626e-08 6.54105e-10 0.0315885

0.0356614 0.00083179 -2.00102e-07
0.00083179 0.0273769 1.39779e-08
-2.00102e-07 1.39779e-08 0.0329993

0.0288753 0.00204425 -1.32251e-08
0.00204425 0.0368157 1.42848e-07
-1.32251e-08 1.42848e-07 0.0336689

0.0298688 0.000946278 -3.29499e-08
0.000946278 0.0373873 1.26624e-07
-3.29499e-08 1.26624e-07 0.0333628

0.0344014 0.00268494 5.26473e-08
0.00268494 0.0288507 4.04709e-08
5.26473e-08 4.04709e-08 0.0312255

0.0132789 -0.000409385 -5.25673e-08
-0.000409385 0.0281223 -2.7789e-08
-5.25673e-08 -2.7789e-08 0.0112011

0.0309641 -0.00362594 1.1662e-07
-0.00362594 0.0309143 -2.0149e-08
1.1662e-07 -2.0149e-08 0.0306088

0.0329275 -0.00344337 -9.74412e-08
-0.00344337 0.03202 1.72424e-08
-9.74412e-08 1.72424e-08 0.0325785

0.0335705 -0.00415904 -3.87908e-08
-0.00415904 0.0325341 -1.90429e-07
-3.87908e-08 -1.90429e-07 0.033735

0.0265614 0.00414857 -1.71508e-07
0.00414857 0.0176911 -2.74499e-07
-1.71508e-07 -2.74499e-07 0.0126049

0.0388275 -0.00269678 -2.13989e-07
-0.00269678 0.0395756 -1.45984e-07
-2.13989e-07 -1.45984e-07 0.0359577

0.0230825 0.00692069 9.79211e-08
0.00692069 0.0255014 3.37616e-07
9.79211e-08 3.37616e-07 0.0126092

0.0308744 -0.0028174 -2.2039e-07
-0.0028174 0.0348067 7.18764e-09
-2.2039e-07 7.18764e-09 0.0339556

0.0354111 0.00193661 -5.37824e-08
0.00193661 0.0284651 -1.58699e-07
-5.37824e-08 -1.58699e-07 0.0323439

0.0318202 -0.00189339 -1.97597e-08
-0.00189339 0.0249503 8.83584e-08
-1.97597e-08 8.83584e-08 0.0253949

0.0292919 0.00315888 -1.76188e-07
0.00315888 0.0327309 -1.00624e-07
-1.76188e-07 -1.00624e-07 0.0312789

0.0344365 0.00268894 9.66664e-08
0.00268894 0.0286339 -6.40106e-08
9.66664e-08 -6.40106e-08 0.0312202

0.0325182 0.00149881 -3.0774e-08
0.00149881 0.0403731 -1.13321e-07
-3.0774e-08 -1.13321e-07 0.0353359

0.0319398 -0.0041545 -4.46267e-08
-0.0041545 0.0312005 6.49545e-08
-4.46267e-08 6.49545e-08 0.03181

0.0396764 0.00265571 3.61045e-07
0.00265571 0.033198 -1.07521e-07
3.61045e-07 -1.07521e-07 0.0353153

0.0279711 -0.00241863 2.37993e-08
-0.00241863 0.0335506 -2.91861e-09
2.37993e-08 -2.91861e-09 0.0304699

0.0293502 0.000558723 -5.93159e-08
0.000558723 0.0373111 1.23819e-07
-5.93159e-08 1.23819e-07 0.033252

0.041943 0.00133767 1.66866e-07
0.00133767 0.0370997 2.42716e-07
1.66866e-07 2.42716e-07 0.0361156

0.0420973 -0.00114776 1.05784e-08
-0.00114776 0.0373259 -3.91344e-08
1.05784e-08 -3.91344e-08 0.0360975

0.0283828 0.002369 1.77606e-07
0.002369 0.0181813 -3.27523e-07
1.77606e-07 -3.27523e-07 0.0159495

0.0350253 0.00106141 -1.04376e-07
0.00106141 0.0285655 -1.55941e-07
-1.04376e-07 -1.55941e-07 0.0330583

0.0128668 0.000923326 -4.04136e-08
0.000923326 0.031626 -1.17884e-07
-4.04136e-08 -1.17884e-07 0.0061216

0.0131624 -0.00138811 1.42051e-07
-0.00138811 0.0321318 7.99906e-08
1.42051e-07 7.99906e-08 0.00611191

0.0152686 0.00715417 -1.7658e-07
0.00715417 0.0284526 -8.47447e-08
-1.7658e-07 -8.47447e-08 0.00598403

0.0347637 -0.00382123 -1.30274e-07
-0.00382123 0.0312673 1.74895e-07
-1.30274e-07 1.74895e-07 0.0329385

0.0155805 -0.00619422 -8.86956e-08
-0.00619422 0.0261526 3.88747e-08
-8.86956e-08 3.88747e-08 0.0104718

0.0155127 -0.00708675 -2.19474e-07
-0.00708675 0.0274231 -5.84431e-08
-2.19474e-07 -5.84431e-08 0.00591384

0.0284257 0.00342565 -1.18122e-08
0.00342565 0.0310058 8.31071e-08
-1.18122e-08 8.31071e-08 0.0281522

0.025193 0.00932577 1.69222e-07
0.00932577 0.0190206 -2.45753e-07
1.69222e-07 -2.45753e-07 0.00593374

0.0365376 0.00173181 1.17602e-07
0.00173181 0.0385514 -4.47255e-09
1.17602e-07 -4.47255e-09 0.0354746

0.0395344 2.55919e-05 -2.10759e-07
2.55919e-05 0.0355395 1.44034e-07
-2.10759e-07 1.44034e-07 0.0354552

0.0261068 -0.00924431 2.13231e-07
-0.00924431 0.0188124 2.64767e-07
2.13231e-07 2.64767e-07 0.00588791

0.0276895 -0.00306536 5.05515e-09
-0.00306536 0.0320948 -3.98806e-08
5.05515e-09 -3.98806e-08 0.0296223

0.0262547 0.00441807 -2.51251e-07
0.00441807 0.0201578 3.1914e-08
-2.51251e-07 3.1914e-08 0.0130444

0.017279 0.00797302 -3.53024e-07
0.00797302 0.0271486 5.53168e-08
-3.53024e-07 5.53168e-08 0.00598775

0.018196 0.00275506 -3.17829e-08
0.00275506 0.0275895 -1.7054e-08
-3.17829e-08 -1.7054e-08 0.0128498

0.017304 -0.00827625 -4.84991e-08
-0.00827625 0.027152 -4.66879e-08
-4.84991e-08 -4.66879e-08 0.00581367

0.0179327 -0.00157099 -4.1468e-07
-0.00157099 0.0280051 1.69616e-07
-4.1468e-07 1.69616e-07 0.0126903

0.0370498 0.000923377 -7.02236e-08
0.000923377 0.0412996 3.17362e-10
-7.02236e-08 3.17362e-10 0.0358094

0.0221309 -0.005855 3.58604e-09
-0.005855 0.0236642 1.2696e-07
3.58604e-09 1.2696e-07 0.0151586

0.0156999 0.00598614 -2.04264e-07
0.00598614 0.0259019 3.78833e-07
-2.04264e-07 3.78833e-07 0.01075

0.0302082 0.00473002 -5.58159e-08
0.00473002 0.0143491 2.59985e-07
-5.58159e-08 2.59985e-07 0.00611574

0.0329378 -0.00384948 1.06069e-07
-0.00384948 0.0301236 -2.61021e-08
1.06069e-07 -2.61021e-08 0.0310507

0.0308881 0.00169414 -4.70402e-08
0.00169414 0.0368422 1.44345e-07
-4.70402e-08 1.44345e-07 0.0339497

0.0260895 -0.00484386 -9.98058e-08
-0.00484386 0.0191971 -2.49314e-07
-9.98058e-08 -2.49314e-07 0.0126949

0.0330001 -0.00378589 1.09374e-07
-0.00378589 0.0300747 -1.82837e-08
1.09374e-07 -1.82837e-08 0.031127

0.0300184 -0.00451981 2.70112e-10
-0.00451981 0.0130534 -3.57101e-07
2.70112e-10 -3.57101e-07 0.00603718

0.0324726 -0.00372748 1.28155e-08
-0.00372748 0.0313068 1.49238e-07
1.28155e-08 1.49238e-07 0.0319788

0.0280903 -0.00331105 1.81551e-07
-0.00331105 0.0320032 5.53125e-09
1.81551e-07 5.53125e-09 0.0296248

0.0234433 0.00874344 4.94037e-08
0.00874344 0.0204827 -3.15891e-07
4.94037e-08 -3.15891e-07 0.00602608

0.0181994 -0.00292074 4.38276e-08
-0.00292074 0.0268661 3.55479e-07
4.38276e-08 3.55479e-07 0.0122698

0.0233143 -0.0090192 -1.321e-07
-0.0090192 0.0201519 -1.27167e-07
-1.321e-07 -1.27167e-07 0.00588391

0.0170822 0.00640816 -2.4669e-08
0.00640816 0.0235657 1.1052e-07
-2.4669e-08 1.1052e-07 0.0108308

0.0308256 -0.00396017 1.14354e-07
-0.00396017 0.0301597 -2.68209e-08
1.14354e-07 -2.68209e-08 0.030085

0.0389176 -0.00195865 6.7424e-08
-0.00195865 0.0369404 2.47605e-07
6.7424e-08 2.47605e-07 0.0354989

0.045541 0.00150608 2.51165e-07
0.00150608 0.0449514 1.85728e-07
2.51165e-07 1.85728e-07 0.0366185

0.0435642 -0.000711784 -1.90969e-07
-0.000711784 0.0462317 -4.43395e-08
-1.90969e-07 -4.43395e-08 0.0365843

0.028615 0.0017158 -4.11711e-08
0.0017158 0.0355659 8.94342e-08
-4.11711e-08 8.94342e-08 0.032389

0.0453363 -0.00144719 -2.88078e-08
-0.00144719 0.0449791 -2.49433e-07
-2.88078e-08 -2.49433e-07 0.0366363

0.0438079 0.000567661 9.09158e-08
0.000567661 0.0465063 1.99525e-07
9.09158e-08 1.99525e-07 0.0366174

0.046679 0.000990879 -5.96206e-08
0.000990879 0.0433769 -5.1917e-08
-5.96206e-08 -5.1917e-08 0.0365925

0.0397501 -0.00163932 1.53302e-07
-0.00163932 0.0460747 6.41554e-08
1.53302e-07 6.41554e-08 0.0364822

0.0190536 -0.00388717 2.63327e-07
-0.00388717 0.02723 -9.43359e-08
2.63327e-07 -9.43359e-08 0.0154708

0.0421403 -0.00175011 -2.40652e-07
-0.00175011 0.0367251 3.09879e-07
-2.40652e-07 3.09879e-07 0.0360042

0.035964 -0.0045736 2.85317e-07
-0.0045736 0.0351499 -2.32439e-07
2.85317e-07 -2.32439e-07 0.0349675

0.0397529 -0.00242202 -8.53596e-09
-0.00242202 0.0360632 -3.15638e-07
-8.53596e-09 -3.15638e-07 0.0355666

0.0351839 0.00204352 -1.19081e-07
0.00204352 0.0285486 -7.78399e-08
-1.19081e-07 -7.78399e-08 0.0322313

0.0396922 0.0013379 -2.86818e-07
0.0013379 0.0472264 8.45813e-08
-2.86818e-07 8.45813e-08 0.0365481

0.0464969 0.00259399 1.69046e-07
0.00259399 0.0404181 3.89882e-07
1.69046e-07 3.89882e-07 0.0365293

0.0400867 0.00150538 -1.70645e-08
0.00150538 0.0366733 4.67839e-08
-1.70645e-08 4.67839e-08 0.0356147

0.0279142 -0.00191987 2.66216e-07
-0.00191987 0.0125245 -3.86983e-07
2.66216e-07 -3.86983e-07 0.0106243

0.0283185 0.00326745 3.99535e-08
0.00326745 0.0315495 2.99004e-07
3.99535e-08 2.99004e-07 0.0294101

0.0231877 -0.00773589 -4.56297e-09
-0.00773589 0.0181797 -2.30205e-07
-4.56297e-09 -2.30205e-07 0.0102893

0.0228304 -0.00731558 7.63777e-08
-0.00731558 0.0257682 5.92033e-08
7.63777e-08 5.92033e-08 0.0119543

0.0290222 -0.00464693 5.16895e-08
-0.00464693 0.019128 2.08898e-07
5.16895e-08 2.08898e-07 0.0126149

0.0375739 -0.000660656 2.13627e-07
-0.000660656 0.0449116 -2.8353e-07
2.13627e-07 -2.8353e-07 0.0362932

0.0375716 0.00035842 1.29012e-07
0.00035842 0.0447889 1.65803e-07
1.29012e-07 1.65803e-07 0.0362735

0.0426052 -0.00327475 -1.59996e-07
-0.00327475 0.03945 4.65348e-08
-1.59996e-07 4.65348e-08 0.0362273

0.0429987 -0.00294491 7.13073e-08
-0.00294491 0.0391685 8.64671e-08
7.13073e-08 8.64671e-08 0.0362343

0.0425015 0.00350473 1.69333e-07
0.00350473 0.0399723 5.05066e-09
1.69333e-07 5.05066e-09 0.0362721

0.0443975 0.000417496 3.15262e-07
0.000417496 0.0450803 4.61359e-07
3.15262e-07 4.61359e-07 0.0366355

0.0426082 -0.0027445 4.72091e-08
-0.0027445 0.0395071 1.19114e-08
4.72091e-08 1.19114e-08 0.0362889

0.0426019 -0.00251229 9.43492e-08
-0.00251229 0.0442679 -2.27472e-07
9.43492e-08 -2.27472e-07 0.036563

0.0451178 0.000332146 -4.80959e-07
0.000332146 0.0454679 -7.31224e-07
-4.80959e-07 -7.31224e-07 0.0366537

0.0436363 -0.00278338 -8.19332e-08
-0.00278338 0.0389165 1.00887e-07
-8.19332e-08 1.00887e-07 0.0363295

0.0435121 0.00283879 -1.28228e-07
0.00283879 0.039069 -2.16195e-08
-1.28228e-07 -2.16195e-08 0.0363676

0.0451938 -0.000471254 -1.83944e-07
-0.000471254 0.0455815 8.58056e-08
-1.83944e-07 8.58056e-08 0.0367024

0.0452258 -0.000426227 -8.05685e-07
-0.000426227 0.0443626 6.81487e-07
-8.05685e-07 6.81487e-07 0.0367207

0.0427981 0.00163846 -4.73926e-07
0.00163846 0.0442484 1.26587e-07
-4.73926e-07 1.26587e-07 0.0366068

0.041116 0.00361825 -1.29405e-07
0.00361825 0.0405161 -1.05933e-07
-1.29405e-07 -1.05933e-07 0.0363215

SCALARS pressure float
LOOKUP_TABLE default
-60.051
19.3082
5.80339
21.2902
15.8788
5.88735
-58.6742
7.78312
-3.80489
15.1245
-24.4318
7.61727
5.59208
12.2792
23.3377
5.53896
18.5208
13.2072
-0.692877
6.75655
-0.90485
33.1346
5.80077
5.79683
6.60184
14.9028
-38.3851
6.67168
-15.2423
30.6261
5.17631
-15.6571
-42.0561
27.3261
20.7791
27.359
31.8844
19.809
4.8596
-42.5994
-17.4073
31.9052
31.9933
5.99355
-21.8049
-15.9758
-1.05246
-3.4055
6.54479
-16.2177
-18.9187
-15.3458
20.7556
-15.3731
20.3087
-33.1485
21.1295
-15.4602
21.1394
7.0449
21.7647
16.1188
-45.5619
12.7898
16.3621
10.9051
21.574
13.8281
5.77347
21.817
20.8117
20.7823
-17.6909
11.6006
3.97394
-31.6095
14.3567
10.9962
14.1461
-8.72002
-28.9447
14.9777
20.1631
-22.0378
-23.4294
-28.0919
7.09776
9.63238
-22.2157
37.7413
-15.5089
38.4439
18.3045
10.7615
-15.1665
-15.8727
-30.2212
14.7534
14.3657
4.59869
-10.7663
-21.9394
-25.1014
16.2129
14.1002
14.9616
18.6975
3.77472
-24.5583
26.5131
7.21753
-21.4089
-24.6119
14.8379
15.078
-16.1456
20.1649
-29.1131
20.6285
-16.7292
-2.90476
23.8339
21.7271
16.0329
26.6797
22.6316
21.7855
15.7084
-29.7808
-16.0989
24.0917
21.6173
20.9893
22.0657
-22.0138
23.5871
-33.8372
5.46336
21.7543
23.6304
-21.9368
6.67641
-5.96676
15.0835
-30.4074
15.6239
7.83318
2.40754
5.17773
-9.39451
-0.458052
22.6416
-15.4545
5.29098
15.2041
21.5605
11.5081
-21.1132
-21.2638
10.7904
-2.84281
-15.1975
-21.2204
-15.1652
-20.9864
15.2797
-20.6358
-21.2015
-15.2078
-21.0637
19.0043
-15.9409
-14.8244
12.0644
-14.4846
18.8028
19.0534
7.4727
18.0479
11.773
-16.249
15.2882
14.9609
-21.5284
10.4265
-14.2213
16.0486
14.5955
17.0818
14.8351
10.3438
-26.9762
-16.0822
-15.9581
21.9069
14.5257
14.6246
20.9226
22.487
9.50264
21.7337
-0.384785
-8.1709
20.7788
-17.8387
19.9456
10.3642
-21.5175
15.7211
22.5262
14.7312
9.39343
14.1898
21.0557
-7.83295
8.82751
-7.90876
14.6482
26.9277
26.5814
27.9605
26.3886
26.7243
26.291
13.8258
23.4303
24.0295
23.9737
23.4
21.1927
21.8573
-8.26301
15.9335
28.1911
-3.18887
23.5761
23.2053
27.8344
-8.49372
28.0965
15.3446
-7.58178
17.4921
-8.25798
20.2272
29.6128
-7.48617
-8.10093
-29.5919
-18.189
19.5273
-31.9853
5.73416
-7.79413
-1.18971
28.2492
26.6403
30.4266
26.761
-34.8008
-8.17983
28.3374
8.0727
-8.29534
26.4459
-6.29549
30.4715
-7.95426
27.0471
14.566
14.7871
23.8451
10.0474
18.021
8.11689
-29.8598
-24.553
16.8068
1.75942
8.17935
-13.6089
17.4358
11.6997
-8.10169
9.45203
-10.8235
7.51674
-10.7548
-8.48491
33.2645
19.1517
25.0883
25.3126
13.8291
-10.4046
26.4298
14.6849
-1.65929
-10.274
-12.5643
17.5066
-7.48542
17.5745
-12.0413
-21.3504
-10.6084
-34.6811
15.5624
-7.76316
34.4425
-11.578
16.8713
-8.40894
15.9727
-12.7584
4.28886
-51.1181
8.52143
-7.74683
21.3338
-8.15234
-0.123186
10.7152
21.1242
-12.0608
-10.2009
-6.06855
14.3179
-10.1802
6.88768
6.38539
16.3054
-10.4197
-6.33066
-1.70266
-5.66076
-11.0786
-5.84497
15.3055
7.8077
-5.55635
-8.96064
7.80512
7.69398
-10.6747
16.3093
-27.2134
2.29268
-28.4811
-0.957916
-8.87846
-8.09675
-11.7794
-10.943
-9.88134
-7.77635
-7.89971
16.6378
24.7779
12.1158
-0.292032
-0.82558
-5.67492
7.30485
-6.32102
-6.31831
24.9237
-5.73035
14.1179
-15.9084
24.3252
5.96775
-0.391589
-5.64421
16.2749
2.47668
0.198628
2.44766
0.455499
-0.741273
-9.93047
-0.0960266
2.11284
15.0689
-1.28871
-1.40759
-0.99925
-0.38901
1.96487
8.05034
-1.19399
8.07779
5.58282
-0.436071
7.03489
5.48985
-3.87687
16.4765
-1.90382
23.0621
-21.9733
15.044
15.6823
2.03922
-1.9979
12.5427
-26.506
5.79184
-1.65834
-50.4825
30.4985
30.6352
5.82448
-1.14479
-1.04723
-0.850121
33.4191
33.2938
13.0946
6.08153
6.66201
-28.9621
-1.27985
16.5334
-3.18311
-4.34852
-0.0173775
-25.2707
14.3031
-1.28063
2.86137
2.69276
-2.72368
-0.0497588
-3.20991
-4.03397
-37.982
-33.6831
-0.128465
1.87405
-0.534523
-3.7446
-1.93701
-1.87814
-0.924747
-21.9072
17.2495
-0.769758
12.5649
14.1835
-26.7638
6.28587
7.13643
18.4778
36.4283
36.4608
22.6387
-1.75624
2.59921
-20.9294
36.1269
32.7605
32.8275
-24.8081
21.7756
30.5238
2.5987
15.7239
10.3709
17.1642
17.7261
12.5054
5.68099
-25.3975
4.25965
10.409
16.2439
-31.7094
28.3101
-52.7095
18.6849
10.2987
-10.6276
7.41697
5.45668
24.4746
9.41072
24.4076
4.10475
12.3996
30.641
29.4667
-22.9899
17.4353
-70.2286
-74.3751
-67.1726
11.6481
-31.2592
-63.6061
-3.8039
-69.9341
16.4632
16.4069
-73.7502
5.2117
-39.729
-70.7346
-37.755
-71.8709
-39.4505
21.137
-23.9597
-29.0433
-70.6185
4.831
15.7575
-36.1889
6.0531
-63.6138
9.83559
3.88123
-67.8971
-37.6225
-66.4067
-23.7548
5.02864
20.5263
35.3724
36.7282
11.8117
36.852
36.9054
36.4937
36.4057
-24.4784
28.2487
20.6691
21.9808
11.5342
36.0616
36.0931
18.1202
-23.9395
3.24611
-30.5255
-56.5955
-50.4727
36.1447
35.8254
35.3821
35.4523
36.1607
35.6004
33.1111
37.3724
35.4017
36.0075
35.6398
34.1981
34.3347
35.8579
35.3108
