# vtk DataFile Version 3.0
vtk output at time 2000
ASCII
DATASET UNSTRUCTURED_GRID
POINTS 626 float
-3.68058e-05 0.000978749 0 3.68058e-05 0.000978749 0 -0.000829194 0.00052125 0 
-0.0008235 0.0005 0 -0.000866 0.0004575 0 -0.000866 -0.0004575 0 
-0.0008235 -0.0005 0 -0.000829194 -0.00052125 0 -3.68058e-05 -0.000978749 0 
3.68058e-05 -0.000978749 0 0.000829194 -0.00052125 0 0.000866 -0.0004575 0 
0.000866 0.0004575 0 0.000829194 0.00052125 0 8.5e-05 0 0 
-3.68058e-05 0.000978749 -0.001 3.68058e-05 0.000978749 -0.001 -0.000829194 0.00052125 -0.001 
-0.0008235 0.0005 -0.001 -0.000866 0.0004575 -0.001 -0.000866 -0.0004575 -0.001 
-0.0008235 -0.0005 -0.001 -0.000829194 -0.00052125 -0.001 -3.68058e-05 -0.000978749 -0.001 
3.68058e-05 -0.000978749 -0.001 0.000829194 -0.00052125 -0.001 0.000866 -0.0004575 -0.001 
0.000866 0.0004575 -0.001 0.000829194 0.00052125 -0.001 8.5e-05 0 -0.001 
8.46223e-17 0.0009575 0 -0.000715996 0.000586607 0 -0.000602797 0.000651965 0 
-0.000489599 0.000717321 0 -0.000376401 0.000782678 0 -0.000263202 0.000848036 0 
-0.000150004 0.000913393 0 -0.000835948 0.000469948 0 -0.000866 -0.000326786 0 
-0.000866 -0.000196071 0 -0.000866 -6.53571e-05 0 -0.000866 6.53571e-05 0 
-0.000866 0.000196071 0 -0.000866 0.000326786 0 -0.000835948 -0.000469948 0 
-0.000150004 -0.000913393 0 -0.000263202 -0.000848036 0 -0.000376401 -0.000782678 0 
-0.000489599 -0.000717321 0 -0.000602797 -0.000651965 0 -0.000715996 -0.000586607 0 
8.47648e-17 -0.0009575 0 0.000715996 -0.000586607 0 0.000602797 -0.000651965 0 
0.000489599 -0.000717321 0 0.000376401 -0.000782678 0 0.000263202 -0.000848036 0 
0.000150004 -0.000913393 0 0.000829194 -0.00047875 0 0.000866 0.000326786 0 
0.000866 0.000196071 0 0.000866 6.53571e-05 0 0.000866 -6.53571e-05 0 
0.000866 -0.000196071 0 0.000866 -0.000326786 0 0.000829194 0.00047875 0 
0.000150004 0.000913393 0 0.000263202 0.000848036 0 0.000376401 0.000782678 0 
0.000489599 0.000717321 0 0.000602797 0.000651965 0 0.000715996 0.000586607 0 
5.29966e-05 6.64557e-05 0 -1.89143e-05 8.28689e-05 0 -7.65824e-05 3.68801e-05 0 
-7.65824e-05 -3.68801e-05 0 -1.89143e-05 -8.28689e-05 0 5.29966e-05 -6.64557e-05 0 
8.46223e-17 0.0009575 -0.001 -0.000715996 0.000586607 -0.001 -0.000602797 0.000651965 -0.001 
-0.000489599 0.000717321 -0.001 -0.000376401 0.000782678 -0.001 -0.000263202 0.000848036 -0.001 
-0.000150004 0.000913393 -0.001 -0.000835948 0.000469948 -0.001 -0.000866 -0.000326786 -0.001 
-0.000866 -0.000196071 -0.001 -0.000866 -6.53571e-05 -0.001 -0.000866 6.53571e-05 -0.001 
-0.000866 0.000196071 -0.001 -0.000866 0.000326786 -0.001 -0.000835948 -0.000469948 -0.001 
-0.000150004 -0.000913393 -0.001 -0.000263202 -0.000848036 -0.001 -0.000376401 -0.000782678 -0.001 
-0.000489599 -0.000717321 -0.001 -0.000602797 -0.000651965 -0.001 -0.000715996 -0.000586607 -0.001 
8.47648e-17 -0.0009575 -0.001 0.000715996 -0.000586607 -0.001 0.000602797 -0.000651965 -0.001 
0.000489599 -0.000717321 -0.001 0.000376401 -0.000782678 -0.001 0.000263202 -0.000848036 -0.001 
0.000150004 -0.000913393 -0.001 0.000829194 -0.00047875 -0.001 0.000866 0.000326786 -0.001 
0.000866 0.000196071 -0.001 0.000866 6.53571e-05 -0.001 0.000866 -6.53571e-05 -0.001 
0.000866 -0.000196071 -0.001 0.000866 -0.000326786 -0.001 0.000829194 0.00047875 -0.001 
0.000150004 0.000913393 -0.001 0.000263202 0.000848036 -0.001 0.000376401 0.000782678 -0.001 
0.000489599 0.000717321 -0.001 0.000602797 0.000651965 -0.001 0.000715996 0.000586607 -0.001 
5.29966e-05 6.64557e-05 -0.001 -1.89143e-05 8.28689e-05 -0.001 -7.65824e-05 3.68801e-05 -0.001 
-7.65824e-05 -3.68801e-05 -0.001 -1.89143e-05 -8.28689e-05 -0.001 5.29966e-05 -6.64557e-05 -0.001 
0.000131234 6.38474e-05 0 0.00012964 -6.2443e-05 0 3.13827e-05 0.0001394 0 
3.12554e-05 -0.000136939 0 -0.000140461 8.25467e-19 0 -8.90565e-05 -0.000102707 0 
-9.04142e-05 0.000102872 0 -0.000765769 -0.00025965 0 -0.000756873 0.000262774 0 
-0.00015609 0.000787505 0 -0.000155807 -0.00079355 0 0.000605069 0.000528035 0 
0.000608694 -0.00052497 0 0.000744069 0.000116929 0 -0.000494418 0.000596218 0 
-0.000483866 -0.000584648 0 0.000269496 0.000702219 0 0.000263201 -0.000717324 0 
0.000754429 -0.000127825 0 -0.000748858 5.84659e-07 0 -0.000747838 0.000373886 0 
-0.0006542 0.000324842 0 -0.000645137 0.000210123 0 -0.000550884 0.000274171 0 
-0.000538857 0.000163195 0 -0.00045062 0.000224461 0 -0.000438393 0.000123907 0 
-0.000354088 0.000181668 0 -0.000363908 0.000282171 0 -0.000270361 0.000239477 0 
-0.000279138 0.000337653 0 -0.000188888 0.000294791 0 -0.000196448 0.000393271 0 
-0.000104767 0.000348259 0 -0.000113332 0.000449012 0 -2.01066e-05 0.000403223 0 
-2.89189e-05 0.000507105 0 6.9524e-05 0.000461596 0 -0.000213644 0.000490203 0 
7.33757e-05 0.000357726 0 0.000163331 0.00041299 0 0.000163359 0.000313022 0 
0.000248077 0.000366368 0 0.000250914 0.000265758 0 0.000335709 0.000322266 0 
0.000340555 0.000218148 0 0.000427299 0.000276717 0 0.000431508 0.000173093 0 
0.000328731 0.000425633 0 0.00034586 0.000114823 0 0.000435362 7.05241e-05 0 
0.000350892 1.5455e-05 0 0.000441547 -3.11896e-05 0 0.000353547 -8.47783e-05 0 
0.000445767 -0.000132964 0 0.000356135 -0.000186358 0 0.000449094 -0.000234674 0 
0.000359978 -0.000287876 0 0.00026856 -0.000240545 0 0.000271895 -0.000341045 0 
0.000181792 -0.00029305 0 0.00018533 -0.000392851 0 9.75701e-05 -0.00034483 0 
9.98764e-05 -0.000444884 0 8.75116e-06 -0.000396343 0 1.20916e-05 -0.000500496 0 
-7.83929e-05 -0.000449843 0 -8.1471e-05 -0.000347249 0 -0.000171566 -0.000403733 0 
-0.000169889 -0.000298891 0 -0.000259867 -0.000354132 0 -0.000257696 -0.000249137 0 
-0.00034313 -0.000299896 0 -0.000344514 -0.000199127 0 -0.000434309 -0.000250039 0 
-0.000169832 -0.000505815 0 -0.000435227 -0.000146227 0 0.000280331 -0.000442424 0 
-0.000340889 8.76793e-05 0 -0.000515252 4.06198e-05 0 6.50491e-05 0.000568253 0 
0.00053278 1.74743e-05 0 0.000522071 0.000229831 0 -0.00037162 0.000391659 0 
-0.000255272 -0.000150439 0 -0.000442893 -0.000350705 0 0.000450067 -0.000332559 0 
0.000545175 -0.000276306 0 -0.000527797 -0.000197598 0 0.000105306 -0.000551033 0 
1.45836e-05 -0.000609147 0 0.00017145 0.000214453 0 0.000515525 0.000341711 0 
0.000636086 0.000290368 0 -0.000558657 0.000404468 0 -4.01232e-05 0.000616718 0 
6.60192e-05 0.000696422 0 -0.000101806 0.0002546 0 0.000271142 -3.88908e-05 0 
0.000179455 -0.00018534 0 -8.79553e-05 -0.000254307 0 -0.000749267 -0.000373451 0 
-0.000655941 -0.000323397 0 0.000709746 0.000466718 0 0.000698426 -0.000473086 0 
-5.25801e-05 -0.00084886 0 -4.93005e-05 0.000848038 0 0.000617396 -0.000413362 0 
0.000702056 -0.000369817 0 0.000131459 -0.000679171 0 2.48171e-05 -0.000715924 0 
-0.000664217 -0.00042729 0 -0.000528828 -8.80444e-05 0 -0.000611101 -0.000136672 0 
-0.000426972 -4.45841e-05 0 0.000800669 0.000378216 0 0.000821144 -0.000415062 0 
7.2799e-05 0.00088254 0 6.81831e-05 -0.00087503 0 0.000104963 -0.000788946 0 
-7.40696e-05 -0.000660054 0 0.000126061 0.000809943 0 0.000764361 0.000295682 0 
0.000166862 0.000630623 0 0.000516462 -0.00046707 0 -0.000563585 -0.000389606 0 
-0.000622598 -1.40238e-05 0 0.000629891 0.000171529 0 2.5614e-06 -0.000299794 0 
8.6901e-05 -0.00024329 0 0.000272045 -0.000136982 0 -0.00075148 0.000138321 0 
0.000209366 -0.000599589 0 0.000324913 -0.000630055 0 0.000614044 0.00041245 0 
0.00049651 -0.000573327 0 0.000394822 -0.000507321 0 -0.000173714 -0.000206698 0 
0.000264897 5.63722e-05 0 0.000247997 0.000152811 0 -4.63327e-05 -0.000920208 0 
9.18688e-05 0.000258626 0 -5.54111e-06 0.000290558 0 -0.000184219 0.000201484 0 
-0.000263559 0.000142267 0 -0.000256427 5.13624e-05 0 -0.000336894 -2.06179e-06 0 
-0.000228499 -4.2388e-05 0 -0.00017589 0.000106626 0 -0.000769947 -0.000133367 0 
0.000767591 -0.000500293 0 -5.05874e-05 0.000737978 0 0.000754456 -3.51771e-06 0 
0.00064691 -6.15298e-05 0 0.000630483 -0.00018134 0 0.000749187 -0.000265543 0 
-0.000760805 -0.000462521 0 0.000638155 6.09315e-05 0 -4.46661e-05 0.000922995 0 
-2.37945e-05 0.000207237 0 0.000776979 0.000500181 0 -0.000605691 0.000527596 0 
-0.000377914 -0.000653727 0 -0.000372325 -0.000526022 0 -0.000275829 -0.000589621 0 
-0.000254285 -0.000710579 0 -0.000379307 0.000656222 0 -0.000379818 0.00052718 0 
-0.000266817 0.000721555 0 -0.000150544 0.000668174 0 0.000381963 0.00065079 0 
0.000493113 0.000590432 0 0.000505439 0.000463708 0 -0.000269094 0.000596608 0 
0.000385815 0.000532045 0 0.000283599 0.0005899 0 -0.000176405 -0.000108505 0 
-0.000278769 -0.000475415 0 0.000185395 2.33014e-06 0 0.000186773 0.000517571 0 
0.000540032 -8.68444e-05 0 -0.000600694 -0.000514877 0 -0.00063703 8.98033e-05 0 
-0.000459677 0.000335729 0 -0.000338836 -0.000100751 0 -0.000457327 0.000432721 0 
-8.72007e-06 -0.000210238 0 0.000156073 0.000129496 0 -7.70692e-05 -0.000555049 0 
0.00036091 -0.000389728 0 0.000531628 0.000120564 0 -0.000285451 0.000435562 0 
0.000192719 -0.000494604 0 0.00041642 0.00039368 0 -0.000135943 0.000554637 0 
-0.000170665 -0.000610079 0 -0.000666304 0.000434981 0 -0.000758736 0.000479231 0 
-0.000470189 -0.000458901 0 0.000203433 -8.59809e-05 0 0.000101846 0.000170114 0 
-0.00035513 -0.00040726 0 0.000100184 -0.000165831 0 2.96286e-05 0.00081537 0 
0.000720946 0.000381836 0 -0.000539809 -0.000292001 0 0.00052211 -0.000182426 0 
-6.41339e-05 -0.000753908 0 0.000638039 -0.000299861 0 -0.000605136 -0.000230182 0 
-3.41638e-05 -0.000145561 0 -0.000104037 0.000172396 0 -0.000808575 -0.00042774 0 
-0.000807207 -0.000465052 0 -0.00080817 0.000429771 0 -0.000806589 0.000469738 0 
-9.50634e-05 -0.000178909 0 0.000247777 0.000445058 0 1.48293e-05 -0.000814201 0 
-4.11555e-05 0.000140955 0 0.000276104 -0.000536845 0 0.000765969 -0.000436638 0 
0.000780871 -0.000362769 0 0.000424176 -0.000642018 0 0.00053413 -0.000368009 0 
-0.000416333 4.17911e-05 0 -0.000133891 -6.23822e-05 0 4.2574e-05 0.000206312 0 
0.000141163 -0.000121542 0 0.000707423 0.000212137 0 0.000172327 0.000723882 0 
7.72652e-06 -0.00090254 0 -0.000134435 5.66935e-05 0 -0.000188826 3.70894e-05 0 
0.000197119 8.09714e-05 0 1.27801e-05 0.000917296 0 0.000800767 0.00044758 0 
-0.000686682 0.000507104 0 9.35831e-05 0.000110457 0 -0.000696793 -0.000509595 0 
-0.00068446 -8.52012e-05 0 -0.000691033 -0.000201242 0 5.24052e-05 -0.000189075 0 
-0.000151818 -0.000701092 0 -0.000296988 0.000518087 0 9.31023e-05 -0.000108117 0 
0.00044261 -0.000416726 0 0.000197044 -0.000784423 0 -0.000516861 0.000504567 0 
0.000298997 0.000502377 0 0.000131234 6.38474e-05 -0.001 0.00012964 -6.2443e-05 -0.001 
3.13827e-05 0.0001394 -0.001 3.12554e-05 -0.000136939 -0.001 -0.000140461 8.25467e-19 -0.001 
-8.90565e-05 -0.000102707 -0.001 -9.04142e-05 0.000102872 -0.001 -0.000765769 -0.00025965 -0.001 
-0.000756873 0.000262774 -0.001 -0.00015609 0.000787505 -0.001 -0.000155807 -0.00079355 -0.001 
0.000605069 0.000528035 -0.001 0.000608694 -0.00052497 -0.001 0.000744069 0.000116929 -0.001 
-0.000494418 0.000596218 -0.001 -0.000483866 -0.000584648 -0.001 0.000269496 0.000702219 -0.001 
0.000263201 -0.000717324 -0.001 0.000754429 -0.000127825 -0.001 -0.000748858 5.84659e-07 -0.001 
-0.000747838 0.000373886 -0.001 -0.0006542 0.000324842 -0.001 -0.000645137 0.000210123 -0.001 
-0.000550884 0.000274171 -0.001 -0.000538857 0.000163195 -0.001 -0.00045062 0.000224461 -0.001 
-0.000438393 0.000123907 -0.001 -0.000354088 0.000181668 -0.001 -0.000363908 0.000282171 -0.001 
-0.000270361 0.000239477 -0.001 -0.000279138 0.000337653 -0.001 -0.000188888 0.000294791 -0.001 
-0.000196448 0.000393271 -0.001 -0.000104767 0.000348259 -0.001 -0.000113332 0.000449012 -0.001 
-2.01066e-05 0.000403223 -0.001 -2.89189e-05 0.000507105 -0.001 6.9524e-05 0.000461596 -0.001 
-0.000213644 0.000490203 -0.001 7.33757e-05 0.000357726 -0.001 0.000163331 0.00041299 -0.001 
0.000163359 0.000313022 -0.001 0.000248077 0.000366368 -0.001 0.000250914 0.000265758 -0.001 
0.000335709 0.000322266 -0.001 0.000340555 0.000218148 -0.001 0.000427299 0.000276717 -0.001 
0.000431508 0.000173093 -0.001 0.000328731 0.000425633 -0.001 0.00034586 0.000114823 -0.001 
0.000435362 7.05241e-05 -0.001 0.000350892 1.5455e-05 -0.001 0.000441547 -3.11896e-05 -0.001 
0.000353547 -8.47783e-05 -0.001 0.000445767 -0.000132964 -0.001 0.000356135 -0.000186358 -0.001 
0.000449094 -0.000234674 -0.001 0.000359978 -0.000287876 -0.001 0.00026856 -0.000240545 -0.001 
0.000271895 -0.000341045 -0.001 0.000181792 -0.00029305 -0.001 0.00018533 -0.000392851 -0.001 
9.75701e-05 -0.00034483 -0.001 9.98764e-05 -0.000444884 -0.001 8.75116e-06 -0.000396343 -0.001 
1.20916e-05 -0.000500496 -0.001 -7.83929e-05 -0.000449843 -0.001 -8.1471e-05 -0.000347249 -0.001 
-0.000171566 -0.000403733 -0.001 -0.000169889 -0.000298891 -0.001 -0.000259867 -0.000354132 -0.001 
-0.000257696 -0.000249137 -0.001 -0.00034313 -0.000299896 -0.001 -0.000344514 -0.000199127 -0.001 
-0.000434309 -0.000250039 -0.001 -0.000169832 -0.000505815 -0.001 -0.000435227 -0.000146227 -0.001 
0.000280331 -0.000442424 -0.001 -0.000340889 8.76793e-05 -0.001 -0.000515252 4.06198e-05 -0.001 
6.50491e-05 0.000568253 -0.001 0.00053278 1.74743e-05 -0.001 0.000522071 0.000229831 -0.001 
-0.00037162 0.000391659 -0.001 -0.000255272 -0.000150439 -0.001 -0.000442893 -0.000350705 -0.001 
0.000450067 -0.000332559 -0.001 0.000545175 -0.000276306 -0.001 -0.000527797 -0.000197598 -0.001 
0.000105306 -0.000551033 -0.001 1.45836e-05 -0.000609147 -0.001 0.00017145 0.000214453 -0.001 
0.000515525 0.000341711 -0.001 0.000636086 0.000290368 -0.001 -0.000558657 0.000404468 -0.001 
-4.01232e-05 0.000616718 -0.001 6.60192e-05 0.000696422 -0.001 -0.000101806 0.0002546 -0.001 
0.000271142 -3.88908e-05 -0.001 0.000179455 -0.00018534 -0.001 -8.79553e-05 -0.000254307 -0.001 
-0.000749267 -0.000373451 -0.001 -0.000655941 -0.000323397 -0.001 0.000709746 0.000466718 -0.001 
0.000698426 -0.000473086 -0.001 -5.25801e-05 -0.00084886 -0.001 -4.93005e-05 0.000848038 -0.001 
0.000617396 -0.000413362 -0.001 0.000702056 -0.000369817 -0.001 0.000131459 -0.000679171 -0.001 
2.48171e-05 -0.000715924 -0.001 -0.000664217 -0.00042729 -0.001 -0.000528828 -8.80444e-05 -0.001 
-0.000611101 -0.000136672 -0.001 -0.000426972 -4.45841e-05 -0.001 0.000800669 0.000378216 -0.001 
0.000821144 -0.000415062 -0.001 7.2799e-05 0.00088254 -0.001 6.81831e-05 -0.00087503 -0.001 
0.000104963 -0.000788946 -0.001 -7.40696e-05 -0.000660054 -0.001 0.000126061 0.000809943 -0.001 
0.000764361 0.000295682 -0.001 0.000166862 0.000630623 -0.001 0.000516462 -0.00046707 -0.001 
-0.000563585 -0.000389606 -0.001 -0.000622598 -1.40238e-05 -0.001 0.000629891 0.000171529 -0.001 
2.5614e-06 -0.000299794 -0.001 8.6901e-05 -0.00024329 -0.001 0.000272045 -0.000136982 -0.001 
-0.00075148 0.000138321 -0.001 0.000209366 -0.000599589 -0.001 0.000324913 -0.000630055 -0.001 
0.000614044 0.00041245 -0.001 0.00049651 -0.000573327 -0.001 0.000394822 -0.000507321 -0.001 
-0.000173714 -0.000206698 -0.001 0.000264897 5.63722e-05 -0.001 0.000247997 0.000152811 -0.001 
-4.63327e-05 -0.000920208 -0.001 9.18688e-05 0.000258626 -0.001 -5.54111e-06 0.000290558 -0.001 
-0.000184219 0.000201484 -0.001 -0.000263559 0.000142267 -0.001 -0.000256427 5.13624e-05 -0.001 
-0.000336894 -2.06179e-06 -0.001 -0.000228499 -4.2388e-05 -0.001 -0.00017589 0.000106626 -0.001 
-0.000769947 -0.000133367 -0.001 0.000767591 -0.000500293 -0.001 -5.05874e-05 0.000737978 -0.001 
0.000754456 -3.51771e-06 -0.001 0.00064691 -6.15298e-05 -0.001 0.000630483 -0.00018134 -0.001 
0.000749187 -0.000265543 -0.001 -0.000760805 -0.000462521 -0.001 0.000638155 6.09315e-05 -0.001 
-4.46661e-05 0.000922995 -0.001 -2.37945e-05 0.000207237 -0.001 0.000776979 0.000500181 -0.001 
-0.000605691 0.000527596 -0.001 -0.000377914 -0.000653727 -0.001 -0.000372325 -0.000526022 -0.001 
-0.000275829 -0.000589621 -0.001 -0.000254285 -0.000710579 -0.001 -0.000379307 0.000656222 -0.001 
-0.000379818 0.00052718 -0.001 -0.000266817 0.000721555 -0.001 -0.000150544 0.000668174 -0.001 
0.000381963 0.00065079 -0.001 0.000493113 0.000590432 -0.001 0.000505439 0.000463708 -0.001 
-0.000269094 0.000596608 -0.001 0.000385815 0.000532045 -0.001 0.000283599 0.0005899 -0.001 
-0.000176405 -0.000108505 -0.001 -0.000278769 -0.000475415 -0.001 0.000185395 2.33014e-06 -0.001 
0.000186773 0.000517571 -0.001 0.000540032 -8.68444e-05 -0.001 -0.000600694 -0.000514877 -0.001 
-0.00063703 8.98033e-05 -0.001 -0.000459677 0.000335729 -0.001 -0.000338836 -0.000100751 -0.001 
-0.000457327 0.000432721 -0.001 -8.72007e-06 -0.000210238 -0.001 0.000156073 0.000129496 -0.001 
-7.70692e-05 -0.000555049 -0.001 0.00036091 -0.000389728 -0.001 0.000531628 0.000120564 -0.001 
-0.000285451 0.000435562 -0.001 0.000192719 -0.000494604 -0.001 0.00041642 0.00039368 -0.001 
-0.000135943 0.000554637 -0.001 -0.000170665 -0.000610079 -0.001 -0.000666304 0.000434981 -0.001 
-0.000758736 0.000479231 -0.001 -0.000470189 -0.000458901 -0.001 0.000203433 -8.59809e-05 -0.001 
0.000101846 0.000170114 -0.001 -0.00035513 -0.00040726 -0.001 0.000100184 -0.000165831 -0.001 
2.96286e-05 0.00081537 -0.001 0.000720946 0.000381836 -0.001 -0.000539809 -0.000292001 -0.001 
0.00052211 -0.000182426 -0.001 -6.41339e-05 -0.000753908 -0.001 0.000638039 -0.000299861 -0.001 
-0.000605136 -0.000230182 -0.001 -3.41638e-05 -0.000145561 -0.001 -0.000104037 0.000172396 -0.001 
-0.000808575 -0.00042774 -0.001 -0.000807207 -0.000465052 -0.001 -0.00080817 0.000429771 -0.001 
-0.000806589 0.000469738 -0.001 -9.50634e-05 -0.000178909 -0.001 0.000247777 0.000445058 -0.001 
1.48293e-05 -0.000814201 -0.001 -4.11555e-05 0.000140955 -0.001 0.000276104 -0.000536845 -0.001 
0.000765969 -0.000436638 -0.001 0.000780871 -0.000362769 -0.001 0.000424176 -0.000642018 -0.001 
0.00053413 -0.000368009 -0.001 -0.000416333 4.17911e-05 -0.001 -0.000133891 -6.23822e-05 -0.001 
4.2574e-05 0.000206312 -0.001 0.000141163 -0.000121542 -0.001 0.000707423 0.000212137 -0.001 
0.000172327 0.000723882 -0.001 7.72652e-06 -0.00090254 -0.001 -0.000134435 5.66935e-05 -0.001 
-0.000188826 3.70894e-05 -0.001 0.000197119 8.09714e-05 -0.001 1.27801e-05 0.000917296 -0.001 
0.000800767 0.00044758 -0.001 -0.000686682 0.000507104 -0.001 9.35831e-05 0.000110457 -0.001 
-0.000696793 -0.000509595 -0.001 -0.00068446 -8.52012e-05 -0.001 -0.000691033 -0.000201242 -0.001 
5.24052e-05 -0.000189075 -0.001 -0.000151818 -0.000701092 -0.001 -0.000296988 0.000518087 -0.001 
9.31023e-05 -0.000108117 -0.001 0.00044261 -0.000416726 -0.001 0.000197044 -0.000784423 -0.001 
-0.000516861 0.000504567 -0.001 0.000298997 0.000502377 -0.001 

CELLS 563 3941
6 14 304 127 29 554 377 
6 143 259 55 393 509 103 
6 300 319 174 550 569 424 
6 259 349 55 509 599 103 
6 50 365 307 98 615 557 
6 299 320 164 549 570 414 
6 126 304 14 376 554 29 
6 298 319 300 548 569 550 
6 205 240 238 455 490 488 
6 257 308 145 507 558 395 
6 130 352 273 380 602 523 
6 295 320 299 545 570 549 
6 324 327 289 574 577 539 
6 235 258 143 485 508 393 
6 50 307 49 98 557 97 
6 207 283 279 457 533 529 
6 143 373 235 393 623 485 
6 145 308 252 395 558 502 
6 194 303 196 444 553 446 
6 279 306 207 529 556 457 
6 206 305 163 456 555 413 
6 51 357 9 99 607 24 
6 238 252 205 488 502 455 
6 293 317 209 543 567 459 
6 207 316 283 457 566 533 
6 142 301 249 392 551 499 
6 273 359 130 523 609 380 
6 211 327 324 461 577 574 
6 169 265 217 419 515 467 
6 7 365 50 22 615 98 
6 283 316 253 533 566 503 
6 159 268 223 409 518 473 
6 274 337 132 524 587 382 
6 232 361 329 482 611 579 
6 231 266 45 481 516 93 
6 229 362 330 479 612 580 
6 9 244 57 24 494 105 
6 230 276 52 480 526 100 
6 209 311 293 459 561 543 
6 131 342 302 381 592 552 
6 270 271 204 520 521 454 
6 66 243 1 114 493 16 
6 59 241 12 107 491 27 
6 280 306 279 530 556 529 
6 269 337 274 519 587 524 
6 179 256 224 429 506 474 
6 163 305 166 413 555 416 
6 201 303 194 451 553 444 
6 280 332 306 530 582 556 
6 186 255 225 436 505 475 
6 210 310 273 460 560 523 
6 153 270 204 403 520 454 
6 136 231 45 386 481 93 
6 171 265 169 421 515 419 
6 138 230 52 388 480 100 
6 225 354 325 475 604 575 
6 36 284 232 84 534 482 
6 161 268 159 411 518 409 
6 71 286 229 119 536 479 
6 290 303 201 540 553 451 
6 139 355 60 389 605 108 
6 60 355 248 108 605 498 
6 273 352 302 523 602 552 
6 235 373 245 485 623 495 
6 67 356 247 115 606 497 
6 221 295 277 471 545 527 
6 142 356 67 392 606 115 
6 139 283 253 389 533 503 
6 203 315 262 453 565 512 
6 41 257 145 89 507 395 
6 36 232 135 84 482 385 
6 71 229 137 119 479 387 
6 254 255 188 504 505 438 
6 233 350 334 483 600 584 
6 262 346 203 512 596 453 
6 304 325 127 554 575 377 
6 222 329 247 472 579 497 
6 218 298 260 468 548 510 
6 290 321 291 540 571 541 
6 272 310 240 522 560 490 
6 269 274 270 519 524 520 
6 244 245 57 494 495 105 
6 49 307 141 97 557 391 
6 225 325 256 475 575 506 
6 273 310 272 523 560 522 
6 312 368 255 562 618 505 
6 249 305 206 499 555 456 
6 228 331 251 478 581 501 
6 302 342 263 552 592 513 
6 338 339 44 588 589 92 
6 190 254 188 440 504 438 
6 37 341 340 85 591 590 
6 138 233 230 388 483 480 
6 228 335 331 478 585 581 
6 181 256 179 431 506 429 
6 195 263 226 445 513 476 
6 268 285 223 518 535 473 
6 290 291 288 540 541 538 
6 219 330 248 469 580 498 
6 201 321 290 451 571 540 
6 240 310 202 490 560 452 
6 188 255 186 438 505 436 
6 270 274 271 520 524 521 
6 262 349 259 512 599 509 
6 141 324 289 391 574 539 
6 296 301 142 546 551 392 
6 247 356 222 497 606 472 
6 239 252 238 489 502 488 
6 254 312 255 504 562 505 
6 54 261 53 102 511 101 
6 289 327 303 539 577 553 
6 268 353 285 518 603 535 
6 273 302 210 523 552 460 
6 292 299 293 542 549 543 
6 278 283 139 528 533 389 
6 175 265 171 425 515 421 
6 227 338 38 477 588 86 
6 264 360 265 514 610 515 
6 43 340 146 91 590 396 
6 165 268 161 415 518 411 
6 205 351 240 455 601 490 
6 64 281 63 112 531 111 
6 288 291 47 538 541 95 
6 135 295 294 385 545 544 
6 42 257 41 90 507 89 
6 245 373 57 495 623 105 
6 31 363 323 79 613 573 
6 292 293 140 542 543 390 
6 267 353 268 517 603 518 
6 155 270 153 405 520 403 
6 244 344 245 494 594 495 
6 61 278 139 109 528 389 
6 135 294 35 385 544 83 
6 69 297 296 117 547 546 
6 186 225 184 436 475 434 
6 329 361 243 579 611 493 
6 255 328 225 505 578 475 
6 213 332 280 463 582 530 
6 39 275 133 87 525 383 
6 330 362 241 580 612 491 
6 195 226 193 445 476 443 
6 211 324 251 461 574 501 
6 151 153 152 401 403 402 
6 295 299 294 545 549 544 
6 265 313 217 515 563 467 
6 258 259 143 508 509 393 
6 251 331 211 501 581 461 
6 149 151 150 399 401 400 
6 293 370 317 543 620 567 
6 153 204 152 403 454 402 
6 151 152 150 401 402 400 
6 33 292 140 81 542 390 
6 210 263 197 460 513 447 
6 301 305 249 551 555 499 
6 298 300 297 548 550 547 
6 68 296 142 116 546 392 
6 321 369 291 571 619 541 
6 179 224 177 429 474 427 
6 167 267 165 417 517 415 
6 259 346 262 509 596 512 
6 303 327 196 553 577 446 
6 269 270 155 519 520 405 
6 265 360 313 515 610 563 
6 223 269 157 473 519 407 
6 157 269 155 407 519 405 
6 144 279 278 394 529 528 
6 169 217 167 419 467 417 
6 177 264 175 427 514 425 
6 267 268 165 517 518 415 
6 159 223 157 409 473 407 
6 232 277 135 482 527 385 
6 193 254 190 443 504 440 
6 217 267 167 467 517 417 
6 249 356 142 499 606 392 
6 184 256 181 434 506 431 
6 248 355 219 498 605 469 
6 229 260 137 479 510 387 
6 149 150 148 399 400 398 
6 64 348 281 112 598 531 
6 311 374 293 561 624 543 
6 264 265 175 514 515 425 
6 297 300 296 547 550 546 
6 141 289 288 391 539 538 
6 197 263 195 447 513 445 
6 218 260 219 468 510 469 
6 224 264 177 474 514 427 
6 137 298 297 387 548 547 
6 277 295 135 527 545 385 
6 133 228 227 383 478 477 
6 261 349 262 511 599 512 
6 221 277 222 471 527 472 
6 256 325 224 506 575 474 
6 199 210 197 449 460 447 
6 226 254 193 476 504 443 
6 144 278 62 394 528 110 
6 279 283 278 529 533 528 
6 289 290 288 539 540 538 
6 137 297 70 387 547 118 
6 34 294 292 82 544 542 
6 235 236 216 485 486 466 
6 141 288 48 391 538 96 
6 178 306 180 428 556 430 
6 185 186 184 435 436 434 
6 63 281 144 111 531 394 
6 225 256 184 475 506 434 
6 46 291 136 94 541 386 
6 147 149 148 397 399 398 
6 271 272 204 521 522 454 
6 233 334 234 483 584 484 
6 145 275 40 395 525 88 
6 220 322 287 470 572 537 
6 280 334 213 530 584 463 
6 144 280 279 394 530 529 
6 140 287 32 390 537 80 
6 154 155 153 404 405 403 
6 334 350 213 584 600 463 
6 176 177 175 426 427 425 
6 260 298 137 510 548 387 
6 33 140 32 81 390 80 
6 49 141 48 97 391 96 
6 56 143 55 104 393 103 
6 68 142 67 116 392 115 
6 63 144 62 111 394 110 
6 61 139 60 109 389 108 
6 148 308 257 398 558 507 
6 71 137 70 119 387 118 
6 53 138 52 101 388 100 
6 46 136 45 94 386 93 
6 36 135 35 84 385 83 
6 43 146 134 91 396 384 
6 133 227 38 383 477 86 
6 192 193 190 442 443 440 
6 293 374 140 543 624 390 
6 34 292 33 82 542 81 
6 207 306 178 457 556 428 
6 43 134 42 91 384 90 
6 39 133 38 87 383 86 
6 41 145 40 89 395 88 
6 194 195 193 444 445 443 
6 69 296 68 117 546 116 
6 294 299 292 544 549 542 
6 173 175 171 423 425 421 
6 260 330 219 510 580 469 
6 183 184 181 433 434 431 
6 134 257 42 384 507 90 
6 55 349 54 103 599 102 
6 163 165 161 413 415 411 
6 166 167 165 416 417 415 
6 210 302 263 460 552 513 
6 271 273 272 521 523 522 
6 53 261 138 101 511 388 
6 217 326 267 467 576 517 
6 289 303 290 539 553 540 
6 178 179 177 428 429 427 
6 238 240 202 488 490 452 
6 62 278 61 110 528 109 
6 35 294 34 83 544 82 
6 284 361 232 534 611 482 
6 70 297 69 118 547 117 
6 224 304 264 474 554 514 
6 156 157 155 406 407 405 
6 48 288 47 96 538 95 
6 221 320 295 471 570 545 
6 187 188 186 437 438 436 
6 47 291 46 95 541 94 
6 151 154 153 401 404 403 
6 286 362 229 536 612 479 
6 168 169 167 418 419 417 
6 40 275 39 88 525 87 
6 307 324 141 557 574 391 
6 300 301 296 550 551 546 
6 32 287 31 80 537 79 
6 147 220 149 397 470 399 
6 333 344 231 583 594 481 
6 299 370 293 549 620 543 
6 271 359 273 521 609 523 
6 224 325 304 474 575 554 
6 228 237 227 478 487 477 
6 305 375 343 555 625 593 
6 218 319 298 468 569 548 
6 240 351 272 490 601 522 
6 277 329 222 527 579 472 
6 253 355 139 503 605 389 
6 158 159 157 408 409 407 
6 236 246 216 486 496 466 
6 192 194 193 442 444 443 
6 220 309 149 470 559 399 
6 183 185 184 433 435 434 
6 196 197 195 446 447 445 
6 276 347 58 526 597 106 
6 136 333 231 386 583 481 
6 67 247 66 115 497 114 
6 60 248 59 108 498 107 
6 261 262 250 511 512 500 
6 173 176 175 423 426 425 
6 344 357 231 594 607 481 
6 144 281 280 394 531 530 
6 152 205 150 402 455 400 
6 163 166 165 413 416 415 
6 185 187 186 435 437 436 
6 233 234 230 483 484 480 
6 170 171 169 420 421 419 
6 146 147 134 396 397 384 
6 176 178 177 426 428 427 
6 285 337 223 535 587 473 
6 154 156 155 404 406 405 
6 263 342 226 513 592 476 
6 235 245 236 485 495 486 
6 160 161 159 410 411 409 
6 58 347 242 106 597 492 
6 166 168 167 416 418 417 
6 287 374 220 537 624 470 
6 189 190 188 439 440 438 
6 148 257 134 398 507 384 
6 194 196 195 444 446 445 
6 252 308 205 502 558 455 
6 285 345 337 535 595 587 
6 301 375 305 551 625 555 
6 180 181 179 430 431 429 
6 281 348 234 531 598 484 
6 198 199 197 448 449 447 
6 151 309 154 401 559 404 
6 228 367 335 478 617 585 
6 54 349 261 102 599 511 
6 156 158 157 406 408 407 
6 168 170 169 418 420 419 
6 200 202 199 450 452 449 
6 147 148 134 397 398 384 
6 158 160 159 408 410 409 
6 150 308 148 400 558 398 
6 253 316 208 503 566 458 
6 232 329 277 482 579 527 
6 178 180 179 428 430 429 
6 191 192 190 441 442 440 
6 214 238 202 464 488 452 
6 172 173 171 422 423 421 
6 187 189 188 437 439 438 
6 162 163 161 412 413 411 
6 228 251 237 478 501 487 
6 215 258 235 465 508 485 
6 182 183 181 432 433 431 
6 202 310 199 452 560 449 
6 219 253 208 469 503 458 
6 222 249 206 472 499 456 
6 196 198 197 446 448 447 
6 229 330 260 479 580 510 
6 132 358 274 382 608 524 
6 149 309 151 399 559 401 
6 226 312 254 476 562 504 
6 154 309 209 404 559 459 
6 77 129 76 125 379 124 
6 73 128 72 121 378 120 
6 76 131 75 124 381 123 
6 74 132 73 122 382 121 
6 75 130 74 123 380 122 
6 14 127 77 29 377 125 
6 72 126 14 120 376 29 
6 133 367 228 383 617 478 
6 237 282 227 487 532 477 
6 239 366 252 489 616 502 
6 200 214 202 450 464 452 
6 192 201 194 442 451 444 
6 170 172 171 420 422 421 
6 220 311 309 470 561 559 
6 198 200 199 448 450 449 
6 189 191 190 439 441 440 
6 146 323 322 396 573 572 
6 160 162 161 410 412 411 
6 251 307 237 501 557 487 
6 199 310 210 449 560 460 
6 57 373 56 105 623 104 
6 214 239 238 464 489 488 
6 182 212 183 432 462 433 
6 180 182 181 430 432 431 
6 146 322 147 396 572 397 
6 172 218 208 422 468 458 
6 172 208 173 422 458 423 
6 162 221 206 412 471 456 
6 162 206 163 412 456 413 
6 176 207 178 426 457 428 
6 272 351 204 522 601 454 
6 198 211 200 448 461 450 
6 182 213 212 432 463 462 
6 234 334 281 484 584 531 
6 154 209 156 404 459 406 
6 185 203 187 435 453 437 
6 168 174 170 418 424 420 
6 189 215 191 439 465 441 
6 215 216 191 465 466 441 
6 221 222 206 471 472 456 
6 158 164 160 408 414 410 
6 218 219 208 468 469 458 
6 205 308 150 455 558 400 
6 191 314 192 441 564 442 
6 215 235 216 465 485 466 
6 215 318 258 465 568 508 
6 152 351 205 402 601 455 
6 138 261 250 388 511 500 
6 192 314 201 442 564 451 
6 234 347 230 484 597 480 
6 226 342 312 476 592 562 
6 138 250 233 388 500 483 
6 147 322 220 397 572 470 
6 216 314 191 466 564 441 
6 306 332 180 556 582 430 
6 222 356 249 472 606 499 
6 128 345 285 378 595 535 
6 314 321 201 564 571 451 
6 212 315 183 462 565 433 
6 312 342 336 562 592 586 
6 282 339 338 532 589 588 
6 340 341 323 590 591 573 
6 309 311 209 559 561 459 
6 183 315 185 433 565 435 
6 208 316 173 458 566 423 
6 173 316 176 423 566 426 
6 3 341 37 18 591 85 
6 44 339 6 92 589 21 
6 252 366 145 502 616 395 
6 246 321 314 496 571 564 
6 246 314 216 496 564 466 
6 126 364 313 376 614 563 
6 156 317 158 406 567 408 
6 275 367 133 525 617 383 
6 176 316 207 426 566 457 
6 185 315 203 435 565 453 
6 180 332 182 430 582 432 
6 302 352 131 552 602 381 
6 251 324 307 501 574 557 
6 187 318 189 437 568 439 
6 172 319 218 422 569 468 
6 162 320 221 412 570 471 
6 305 343 166 555 593 416 
6 170 319 172 420 569 422 
6 158 317 164 408 567 414 
6 209 317 156 459 567 406 
6 285 353 128 535 603 378 
6 223 337 269 473 587 519 
6 160 320 162 410 570 412 
6 211 331 200 461 581 450 
6 174 319 170 424 569 420 
6 203 318 187 453 568 437 
6 189 318 215 439 568 465 
6 198 327 211 448 577 461 
6 164 320 160 414 570 410 
6 326 353 267 576 603 517 
6 236 344 333 486 594 583 
6 196 327 198 446 577 448 
6 219 355 253 469 605 503 
6 281 334 280 531 584 530 
6 274 359 271 524 609 521 
6 164 370 299 414 620 549 
6 174 375 300 424 625 550 
6 287 363 31 537 613 79 
6 243 361 1 493 611 16 
6 241 362 12 491 612 27 
6 307 365 237 557 615 487 
6 166 343 168 416 593 418 
6 200 331 214 450 581 464 
6 313 326 217 563 576 467 
6 9 357 244 24 607 494 
6 1 361 30 16 611 78 
6 12 362 65 27 612 113 
6 337 345 132 587 595 382 
6 242 348 64 492 598 112 
6 231 357 266 481 607 516 
6 182 332 213 432 582 463 
6 245 344 236 495 594 486 
6 258 346 259 508 596 509 
6 145 366 275 395 616 525 
6 291 369 136 541 619 386 
6 236 333 246 486 583 496 
6 331 335 214 581 585 464 
6 312 336 129 562 586 379 
6 315 372 262 565 622 512 
6 220 374 311 470 624 561 
6 140 374 287 390 624 537 
6 126 360 304 376 610 554 
6 230 347 276 480 597 526 
6 313 364 326 563 614 576 
6 56 373 143 104 623 393 
6 239 367 366 489 617 616 
6 204 351 152 454 601 402 
6 300 375 301 550 625 551 
6 214 335 239 464 585 489 
6 247 329 243 497 579 493 
6 262 372 250 512 622 500 
6 248 330 241 498 580 491 
6 318 346 258 568 596 508 
6 333 369 246 583 619 496 
6 282 338 227 532 588 477 
6 146 340 323 396 590 573 
6 304 360 264 554 610 514 
6 366 367 275 616 617 525 
6 129 336 76 379 586 124 
6 73 345 128 121 595 378 
6 76 336 131 124 586 381 
6 250 350 233 500 600 483 
6 129 371 328 379 621 578 
6 132 345 73 382 595 121 
6 168 343 174 418 593 424 
6 131 352 75 381 602 123 
6 66 247 243 114 497 493 
6 59 248 241 107 498 491 
6 74 358 132 122 608 382 
6 203 346 318 453 596 568 
6 313 360 126 563 610 376 
6 128 364 72 378 614 120 
6 128 353 326 378 603 576 
6 77 371 129 125 621 379 
6 129 368 312 379 618 562 
6 244 357 344 494 607 594 
6 328 354 225 578 604 475 
6 326 364 128 576 614 378 
6 75 352 130 123 602 380 
6 350 372 212 600 622 462 
6 136 369 333 386 619 583 
6 325 354 127 575 604 377 
6 213 350 212 463 600 462 
6 130 358 74 380 608 122 
6 250 372 350 500 622 600 
6 317 370 164 567 620 414 
6 72 364 126 120 614 376 
6 328 368 129 578 618 379 
6 127 371 77 377 621 125 
6 336 342 131 586 592 381 
6 212 372 315 462 622 565 
6 234 348 347 484 598 597 
6 8 266 51 23 516 99 
6 10 276 58 25 526 106 
6 246 369 321 496 619 571 
6 30 284 0 78 534 15 
6 65 286 13 113 536 28 
6 58 242 11 106 492 26 
6 266 357 51 516 607 99 
6 255 368 328 505 618 578 
6 347 348 242 597 598 492 
6 322 363 287 572 613 537 
6 323 363 322 573 613 572 
6 335 367 239 585 617 489 
6 30 361 284 78 611 534 
6 65 362 286 113 612 536 
6 237 365 282 487 615 532 
6 130 359 358 380 609 608 
6 343 375 174 593 625 424 
6 354 371 127 604 621 377 
6 328 371 354 578 621 604 
6 358 359 274 608 609 524 
6 0 284 36 15 534 84 
6 45 266 8 93 516 23 
6 52 276 10 100 526 25 
6 11 242 64 26 492 112 
6 13 286 71 28 536 119 
6 2 323 3 17 573 18 
6 31 323 2 79 573 17 
6 323 341 3 573 591 18 
6 37 340 4 85 590 19 
6 4 340 43 19 590 91 
6 38 338 5 86 588 20 
6 5 338 44 20 588 92 
6 6 282 7 21 532 22 
6 6 339 282 21 589 532 
6 282 365 7 532 615 22 

CELL_TYPES 563
13
13
13
13
13
13
13
13
13
13
13
13
13
13
13
13
13
13
13
13
13
13
13
13
13
13
13
13
13
13
13
13
13
13
13
13
13
13
13
13
13
13
13
13
13
13
13
13
13
13
13
13
13
13
13
13
13
13
13
13
13
13
13
13
13
13
13
13
13
13
13
13
13
13
13
13
13
13
13
13
13
13
13
13
13
13
13
13
13
13
13
13
13
13
13
13
13
13
13
13
13
13
13
13
13
13
13
13
13
13
13
13
13
13
13
13
13
13
13
13
13
13
13
13
13
13
13
13
13
13
13
13
13
13
13
13
13
13
13
13
13
13
13
13
13
13
13
13
13
13
13
13
13
13
13
13
13
13
13
13
13
13
13
13
13
13
13
13
13
13
13
13
13
13
13
13
13
13
13
13
13
13
13
13
13
13
13
13
13
13
13
13
13
13
13
13
13
13
13
13
13
13
13
13
13
13
13
13
13
13
13
13
13
13
13
13
13
13
13
13
13
13
13
13
13
13
13
13
13
13
13
13
13
13
13
13
13
13
13
13
13
13
13
13
13
13
13
13
13
13
13
13
13
13
13
13
13
13
13
13
13
13
13
13
13
13
13
13
13
13
13
13
13
13
13
13
13
13
13
13
13
13
13
13
13
13
13
13
13
13
13
13
13
13
13
13
13
13
13
13
13
13
13
13
13
13
13
13
13
13
13
13
13
13
13
13
13
13
13
13
13
13
13
13
13
13
13
13
13
13
13
13
13
13
13
13
13
13
13
13
13
13
13
13
13
13
13
13
13
13
13
13
13
13
13
13
13
13
13
13
13
13
13
13
13
13
13
13
13
13
13
13
13
13
13
13
13
13
13
13
13
13
13
13
13
13
13
13
13
13
13
13
13
13
13
13
13
13
13
13
13
13
13
13
13
13
13
13
13
13
13
13
13
13
13
13
13
13
13
13
13
13
13
13
13
13
13
13
13
13
13
13
13
13
13
13
13
13
13
13
13
13
13
13
13
13
13
13
13
13
13
13
13
13
13
13
13
13
13
13
13
13
13
13
13
13
13
13
13
13
13
13
13
13
13
13
13
13
13
13
13
13
13
13
13
13
13
13
13
13
13
13
13
13
13
13
13
13
13
13
13
13
13
13
13
13
13
13
13
13
13
13
13
13
13
13
13
13
13
13
13
13
13
13
13
13
13
13
13
13
13
13
13
13
13
13
13
13
13
13
13
13
13
13
13
13
13
13
13
13
13
13
13
13
13
13
13
13
13
13
13
13
13

POINT_DATA 626
VECTORS displacement float
-1.74395e-06 3.0954e-05 1.80548e-05
1.73566e-06 3.0973e-05 1.80999e-05
-2.59859e-05 1.69926e-05 1.80868e-05
-2.58405e-05 1.60328e-05 1.80514e-05
-2.77203e-05 1.39726e-05 1.80688e-05
-2.77132e-05 -1.40189e-05 1.80943e-05
-2.58117e-05 -1.60709e-05 1.81056e-05
-2.59821e-05 -1.70107e-05 1.81668e-05
-1.67741e-06 -3.09577e-05 1.80512e-05
1.75546e-06 -3.09592e-05 1.81017e-05
2.59432e-05 -1.69805e-05 1.80433e-05
2.77166e-05 -1.39364e-05 1.80431e-05
2.76721e-05 1.39892e-05 1.80914e-05
2.59146e-05 1.69928e-05 1.80458e-05
0 0 0
-1.74395e-06 3.0954e-05 -1.80548e-05
1.73566e-06 3.0973e-05 -1.80999e-05
-2.59859e-05 1.69926e-05 -1.80868e-05
-2.58405e-05 1.60328e-05 -1.80514e-05
-2.77203e-05 1.39726e-05 -1.80688e-05
-2.77132e-05 -1.40189e-05 -1.80943e-05
-2.58117e-05 -1.60709e-05 -1.81056e-05
-2.59821e-05 -1.70107e-05 -1.81668e-05
-1.67741e-06 -3.09577e-05 -1.80512e-05
1.75546e-06 -3.09592e-05 -1.81017e-05
2.59432e-05 -1.69805e-05 -1.80433e-05
2.77166e-05 -1.39364e-05 -1.80431e-05
2.76721e-05 1.39892e-05 -1.80914e-05
2.59146e-05 1.69928e-05 -1.80458e-05
0 0 0
2.48963e-08 3.01539e-05 1.8034e-05
-2.11402e-05 1.87121e-05 1.75495e-05
-1.72321e-05 1.98335e-05 1.69205e-05
-1.40067e-05 2.10538e-05 1.65546e-05
-1.12067e-05 2.26644e-05 1.65485e-05
-8.52396e-06 2.48324e-05 1.69011e-05
-5.56775e-06 2.76212e-05 1.75372e-05
-2.64494e-05 1.46789e-05 1.80332e-05
-2.67683e-05 -9.01132e-06 1.75771e-05
-2.58058e-05 -5.03534e-06 1.69257e-05
-2.5254e-05 -1.63616e-06 1.65711e-05
-2.52569e-05 1.6078e-06 1.6574e-05
-2.5798e-05 5.02274e-06 1.69239e-05
-2.67545e-05 8.98441e-06 1.75637e-05
-2.64364e-05 -1.47252e-05 1.8062e-05
-5.54101e-06 -2.76357e-05 1.75294e-05
-8.47647e-06 -2.48414e-05 1.69004e-05
-1.11699e-05 -2.26838e-05 1.65558e-05
-1.39703e-05 -2.10868e-05 1.65592e-05
-1.72146e-05 -1.98688e-05 1.69364e-05
-2.11338e-05 -1.87489e-05 1.7562e-05
8.98425e-08 -3.01386e-05 1.80291e-05
2.11236e-05 -1.86245e-05 1.75112e-05
1.72443e-05 -1.97618e-05 1.68725e-05
1.40336e-05 -2.10108e-05 1.65113e-05
1.12249e-05 -2.25925e-05 1.65458e-05
8.58112e-06 -2.47796e-05 1.68739e-05
5.65463e-06 -2.76259e-05 1.75347e-05
2.61242e-05 -1.50594e-05 1.80281e-05
2.67164e-05 8.93819e-06 1.75012e-05
2.57216e-05 5.04946e-06 1.69081e-05
2.52061e-05 1.62327e-06 1.65229e-05
2.52032e-05 -1.59939e-06 1.65212e-05
2.57502e-05 -4.99725e-06 1.6888e-05
2.66984e-05 -8.91695e-06 1.75094e-05
2.61072e-05 1.50606e-05 1.80252e-05
5.63309e-06 2.76173e-05 1.75093e-05
8.50849e-06 2.48063e-05 1.69109e-05
1.12169e-05 2.26406e-05 1.6529e-05
1.40042e-05 2.10217e-05 1.65244e-05
1.72213e-05 1.97931e-05 1.68848e-05
2.11146e-05 1.86342e-05 1.75251e-05
0 0 0
0 0 0
0 0 0
0 0 0
0 0 0
0 0 0
2.48963e-08 3.01539e-05 -1.8034e-05
-2.11402e-05 1.87121e-05 -1.75495e-05
-1.72321e-05 1.98335e-05 -1.69205e-05
-1.40067e-05 2.10538e-05 -1.65546e-05
-1.12067e-05 2.26644e-05 -1.65485e-05
-8.52396e-06 2.48324e-05 -1.69011e-05
-5.56775e-06 2.76212e-05 -1.75372e-05
-2.64494e-05 1.46789e-05 -1.80332e-05
-2.67683e-05 -9.01132e-06 -1.75771e-05
-2.58058e-05 -5.03534e-06 -1.69257e-05
-2.5254e-05 -1.63616e-06 -1.65711e-05
-2.52569e-05 1.6078e-06 -1.6574e-05
-2.5798e-05 5.02274e-06 -1.69239e-05
-2.67545e-05 8.98441e-06 -1.75637e-05
-2.64364e-05 -1.47252e-05 -1.8062e-05
-5.54101e-06 -2.76357e-05 -1.75294e-05
-8.47647e-06 -2.48414e-05 -1.69004e-05
-1.11699e-05 -2.26838e-05 -1.65558e-05
-1.39703e-05 -2.10868e-05 -1.65592e-05
-1.72146e-05 -1.98688e-05 -1.69364e-05
-2.11338e-05 -1.87489e-05 -1.7562e-05
8.98425e-08 -3.01386e-05 -1.80291e-05
2.11236e-05 -1.86245e-05 -1.75112e-05
1.72443e-05 -1.97618e-05 -1.68725e-05
1.40336e-05 -2.10108e-05 -1.65113e-05
1.12249e-05 -2.25925e-05 -1.65458e-05
8.58112e-06 -2.47796e-05 -1.68739e-05
5.65463e-06 -2.76259e-05 -1.75347e-05
2.61242e-05 -1.50594e-05 -1.80281e-05
2.67164e-05 8.93819e-06 -1.75012e-05
2.57216e-05 5.04946e-06 -1.69081e-05
2.52061e-05 1.62327e-06 -1.65229e-05
2.52032e-05 -1.59939e-06 -1.65212e-05
2.57502e-05 -4.99725e-06 -1.6888e-05
2.66984e-05 -8.91695e-06 -1.75094e-05
2.61072e-05 1.50606e-05 -1.80252e-05
5.63309e-06 2.76173e-05 -1.75093e-05
8.50849e-06 2.48063e-05 -1.69109e-05
1.12169e-05 2.26406e-05 -1.6529e-05
1.40042e-05 2.10217e-05 -1.65244e-05
1.72213e-05 1.97931e-05 -1.68848e-05
2.11146e-05 1.86342e-05 -1.75251e-05
0 0 0
0 0 0
0 0 0
0 0 0
0 0 0
0 0 0
1.79365e-06 8.58732e-07 4.55215e-06
1.73779e-06 -8.25101e-07 4.46071e-06
4.31947e-07 1.8496e-06 4.49502e-06
4.36091e-07 -1.7806e-06 4.35599e-06
-1.84746e-06 2.09627e-08 4.42227e-06
-1.12307e-06 -1.30885e-06 4.15091e-06
-1.15919e-06 1.30678e-06 4.19969e-06
-2.25126e-05 -7.28751e-06 1.69996e-05
-2.2196e-05 7.3714e-06 1.69683e-05
-4.86036e-06 2.2898e-05 1.69367e-05
-4.85788e-06 -2.31312e-05 1.69636e-05
1.74209e-05 1.56352e-05 1.69295e-05
1.75684e-05 -1.55361e-05 1.69388e-05
2.10731e-05 3.1638e-06 1.6324e-05
-1.39528e-05 1.71509e-05 1.6478e-05
-1.35909e-05 -1.67409e-05 1.64096e-05
7.76769e-06 1.98191e-05 1.63309e-05
7.68471e-06 -2.03095e-05 1.64021e-05
2.14718e-05 -3.44365e-06 1.63998e-05
-2.11023e-05 6.58808e-09 1.62463e-05
-2.24199e-05 1.09995e-05 1.74533e-05
-1.87505e-05 9.2545e-06 1.66267e-05
-1.79824e-05 5.79532e-06 1.60359e-05
-1.49836e-05 7.44817e-06 1.5486e-05
-1.42241e-05 4.30762e-06 1.48293e-05
-1.15323e-05 5.74376e-06 1.40943e-05
-1.08578e-05 3.06867e-06 1.33732e-05
-8.4003e-06 4.30478e-06 1.2404e-05
-9.0586e-06 7.01325e-06 1.34559e-05
-6.20397e-06 5.48839e-06 1.16886e-05
-6.82815e-06 8.24926e-06 1.30795e-05
-4.2813e-06 6.67477e-06 1.14501e-05
-4.7999e-06 9.60971e-06 1.30935e-05
-2.40082e-06 7.99317e-06 1.17226e-05
-2.81279e-06 1.1167e-05 1.34745e-05
-4.75399e-07 9.59508e-06 1.25006e-05
-7.38337e-07 1.29966e-05 1.41413e-05
1.73104e-06 1.15175e-05 1.35346e-05
-5.53456e-06 1.27001e-05 1.44365e-05
1.68504e-06 8.2238e-06 1.17472e-05
4.00409e-06 1.01207e-05 1.31505e-05
3.70527e-06 7.0978e-06 1.14779e-05
6.06727e-06 8.96647e-06 1.31129e-05
5.7667e-06 6.10666e-06 1.17352e-05
8.3579e-06 8.02015e-06 1.34916e-05
8.10548e-06 5.19515e-06 1.24999e-05
1.09538e-05 7.0969e-06 1.41465e-05
1.07457e-05 4.3227e-06 1.34986e-05
8.53034e-06 1.10372e-05 1.44603e-05
7.93752e-06 2.64369e-06 1.1727e-05
1.06458e-05 1.73716e-06 1.31036e-05
7.94852e-06 3.58753e-07 1.14552e-05
1.08062e-05 -7.59096e-07 1.31237e-05
8.11147e-06 -1.93776e-06 1.17087e-05
1.1098e-05 -3.31278e-06 1.34835e-05
8.46955e-06 -4.42389e-06 1.24437e-05
1.15035e-05 -6.00275e-06 1.4109e-05
8.95538e-06 -7.13795e-06 1.34276e-05
6.14739e-06 -5.4943e-06 1.16409e-05
6.64435e-06 -8.30068e-06 1.30179e-05
4.10512e-06 -6.58837e-06 1.13106e-05
4.52326e-06 -9.55066e-06 1.29879e-05
2.24225e-06 -7.85812e-06 1.1597e-05
2.48478e-06 -1.10017e-05 1.33505e-05
2.25287e-07 -9.37349e-06 1.23532e-05
3.30008e-07 -1.27695e-05 1.40334e-05
-1.91539e-06 -1.11505e-05 1.33766e-05
-1.84103e-06 -7.92146e-06 1.15818e-05
-4.16781e-06 -9.87464e-06 1.30846e-05
-3.81386e-06 -6.73036e-06 1.13168e-05
-6.34549e-06 -8.66184e-06 1.30989e-05
-5.89118e-06 -5.6979e-06 1.1628e-05
-8.49954e-06 -7.43564e-06 1.33793e-05
-8.16738e-06 -4.72796e-06 1.24083e-05
-1.10954e-05 -6.40264e-06 1.40695e-05
-4.37156e-06 -1.31229e-05 1.44333e-05
-1.08086e-05 -3.65061e-06 1.34388e-05
7.22597e-06 -1.13725e-05 1.42726e-05
-7.74155e-06 1.98265e-06 1.14926e-05
-1.32158e-05 1.03504e-06 1.42106e-05
1.72909e-06 1.50825e-05 1.49518e-05
1.37678e-05 4.62228e-07 1.43874e-05
1.38429e-05 6.09998e-06 1.49314e-05
-9.69386e-06 1.01961e-05 1.45321e-05
-5.41591e-06 -3.1976e-06 1.01819e-05
-1.17134e-05 -9.29715e-06 1.48889e-05
1.18821e-05 -8.76004e-06 1.47868e-05
1.47815e-05 -7.47346e-06 1.5403e-05
-1.39595e-05 -5.24379e-06 1.48613e-05
2.79577e-06 -1.45159e-05 1.47959e-05
4.24556e-07 -1.64991e-05 1.53974e-05
3.51837e-06 4.39686e-06 9.58089e-06
1.40103e-05 9.29888e-06 1.54913e-05
1.79305e-05 8.1448e-06 1.63003e-05
-1.56752e-05 1.13951e-05 1.62332e-05
-1.09407e-06 1.67688e-05 1.5495e-05
1.90683e-06 1.96212e-05 1.63107e-05
-2.09183e-06 5.21999e-06 9.59738e-06
5.55385e-06 -7.8459e-07 9.59393e-06
3.58589e-06 -3.6835e-06 9.08178e-06
-1.77961e-06 -5.17849e-06 9.4494e-06
-2.24684e-05 -1.10106e-05 1.74741e-05
-1.87978e-05 -9.24125e-06 1.66508e-05
2.11475e-05 1.41646e-05 1.75054e-05
2.07534e-05 -1.43174e-05 1.74353e-05
-1.76459e-06 -2.54461e-05 1.75107e-05
-1.68212e-06 2.54101e-05 1.75153e-05
1.77127e-05 -1.19067e-05 1.66869e-05
2.06454e-05 -1.07509e-05 1.71157e-05
3.77558e-06 -1.89848e-05 1.61391e-05
7.68521e-07 -2.03454e-05 1.64826e-05
-1.94047e-05 -1.26503e-05 1.71429e-05
-1.37308e-05 -2.30688e-06 1.44716e-05
-1.65924e-05 -3.70135e-06 1.54772e-05
-1.03756e-05 -1.09636e-06 1.29518e-05
2.44517e-05 1.10726e-05 1.76514e-05
2.54972e-05 -1.2403e-05 1.78479e-05
2.64923e-06 2.67255e-05 1.76603e-05
2.52098e-06 -2.64131e-05 1.76291e-05
3.33942e-06 -2.30315e-05 1.70288e-05
-2.05385e-06 -1.83195e-05 1.59506e-05
4.05902e-06 2.37909e-05 1.71301e-05
2.26137e-05 8.37908e-06 1.7119e-05
4.61352e-06 1.7313e-05 1.5727e-05
1.44267e-05 -1.31192e-05 1.61371e-05
-1.57874e-05 -1.09845e-05 1.62143e-05
-1.67994e-05 -3.81419e-07 1.5377e-05
1.73056e-05 4.68738e-06 1.57253e-05
6.5521e-08 -6.38718e-06 1.02672e-05
1.74168e-06 -4.84837e-06 9.09228e-06
5.85035e-06 -2.93545e-06 1.03779e-05
-2.14437e-05 3.75042e-06 1.64585e-05
5.72924e-06 -1.62741e-05 1.55074e-05
9.08327e-06 -1.74986e-05 1.59972e-05
1.75718e-05 1.18814e-05 1.6672e-05
1.39939e-05 -1.63819e-05 1.64009e-05
1.07397e-05 -1.37887e-05 1.55498e-05
-3.5479e-06 -4.22011e-06 9.50054e-06
5.39901e-06 1.13847e-06 9.49883e-06
5.21794e-06 3.22281e-06 1.0047e-05
-1.74977e-06 -2.8354e-05 1.78766e-05
1.89202e-06 5.29878e-06 9.58422e-06
-1.13821e-07 6.10488e-06 1.00385e-05
-3.78484e-06 4.12766e-06 9.57818e-06
-5.62256e-06 3.03412e-06 1.0285e-05
-5.16537e-06 1.04065e-06 9.2134e-06
-7.52708e-06 -6.17378e-08 1.11721e-05
-4.33429e-06 -8.10262e-07 8.38166e-06
-3.10853e-06 1.8723e-06 7.3739e-06
-2.20807e-05 -3.60766e-06 1.65155e-05
2.34057e-05 -1.56877e-05 1.78359e-05
-1.50717e-06 2.11674e-05 1.66817e-05
2.12612e-05 -8.45174e-08 1.62254e-05
1.76217e-05 -1.64676e-06 1.55811e-05
1.73473e-05 -4.94156e-06 1.57703e-05
2.18911e-05 -7.45093e-06 1.69133e-05
-2.31818e-05 -1.42543e-05 1.78324e-05
1.73242e-05 1.64883e-06 1.55082e-05
-1.73399e-06 2.84725e-05 1.78938e-05
-4.22063e-07 3.68335e-06 7.49513e-06
2.37715e-05 1.57421e-05 1.78843e-05
-1.7497e-05 1.56419e-05 1.69746e-05
-1.0626e-05 -1.84657e-05 1.62547e-05
-1.00993e-05 -1.4342e-05 1.55713e-05
-7.5076e-06 -1.60945e-05 1.56217e-05
-7.32197e-06 -2.012e-05 1.63949e-05
-1.07042e-05 1.85348e-05 1.62664e-05
-1.03471e-05 1.43838e-05 1.5619e-05
-7.77248e-06 2.04919e-05 1.64439e-05
-4.2529e-06 1.86093e-05 1.60526e-05
1.07594e-05 1.8345e-05 1.62258e-05
1.38913e-05 1.69345e-05 1.64307e-05
1.40416e-05 1.29726e-05 1.6051e-05
-7.36141e-06 1.62879e-05 1.56382e-05
1.05249e-05 1.45467e-05 1.56449e-05
7.74858e-06 1.60919e-05 1.56136e-05
-3.11641e-06 -1.89873e-06 7.39302e-06
-7.25748e-06 -1.24217e-05 1.46248e-05
3.00861e-06 4.03594e-08 6.60083e-06
4.87247e-06 1.35224e-05 1.46178e-05
1.40757e-05 -2.26034e-06 1.45701e-05
-1.72894e-05 -1.52164e-05 1.69452e-05
-1.73661e-05 2.42025e-06 1.55975e-05
-1.22044e-05 8.91174e-06 1.49432e-05
-7.70547e-06 -2.29247e-06 1.15544e-05
-1.24495e-05 1.18124e-05 1.55397e-05
-1.42733e-07 -3.75416e-06 7.55402e-06
2.73018e-06 2.27204e-06 7.25177e-06
-2.00382e-06 -1.46502e-05 1.48077e-05
9.36489e-06 -1.0068e-05 1.43891e-05
1.38604e-05 3.15774e-06 1.45658e-05
-7.33988e-06 1.11991e-05 1.426e-05
4.99711e-06 -1.27745e-05 1.4369e-05
1.10316e-05 1.04303e-05 1.49193e-05
-3.59637e-06 1.4685e-05 1.49077e-05
-4.63537e-06 -1.66165e-05 1.55485e-05
-1.95067e-05 1.28922e-05 1.7161e-05
-2.31265e-05 1.48579e-05 1.78432e-05
-1.29047e-05 -1.26858e-05 1.58122e-05
3.76074e-06 -1.5861e-06 7.90678e-06
1.76436e-06 2.92223e-06 7.08429e-06
-9.23029e-06 -1.06093e-05 1.45315e-05
1.72771e-06 -2.82311e-06 6.93092e-06
9.94721e-07 2.41164e-05 1.73082e-05
2.13676e-05 1.11936e-05 1.72984e-05
-1.46643e-05 -7.95323e-06 1.54851e-05
1.37078e-05 -4.78622e-06 1.46903e-05
-1.90985e-06 -2.17626e-05 1.68025e-05
1.80601e-05 -8.4189e-06 1.63405e-05
-1.66786e-05 -6.32844e-06 1.57822e-05
-4.32894e-07 -1.92229e-06 4.79838e-06
-1.80534e-06 2.99539e-06 7.17704e-06
-2.50516e-05 -1.29816e-05 1.79221e-05
-2.51268e-05 -1.45071e-05 1.80019e-05
-2.50448e-05 1.30335e-05 1.79058e-05
-2.51177e-05 1.46498e-05 1.7982e-05
-1.64843e-06 -3.1248e-06 7.20977e-06
6.32783e-06 1.13682e-05 1.40763e-05
5.33706e-07 -2.40857e-05 1.7302e-05
-5.2277e-07 1.80952e-06 4.64492e-06
7.40732e-06 -1.43434e-05 1.51521e-05
2.33025e-05 -1.32091e-05 1.77286e-05
2.36323e-05 -1.05374e-05 1.74906e-05
1.19882e-05 -1.82106e-05 1.6293e-05
1.47299e-05 -1.01465e-05 1.57953e-05
-1.00269e-05 1.00123e-06 1.27544e-05
-1.73999e-06 -8.15891e-07 4.72337e-06
7.69052e-07 3.70829e-06 7.573e-06
2.34304e-06 -1.99713e-06 6.55516e-06
2.01562e-05 5.89771e-06 1.64534e-05
5.07001e-06 2.05956e-05 1.64958e-05
3.42117e-07 -2.76796e-05 1.78538e-05
-1.7312e-06 7.09102e-07 4.60624e-06
-3.21146e-06 6.23039e-07 6.82401e-06
3.57716e-06 1.47539e-06 7.63648e-06
4.99224e-07 2.83234e-05 1.79271e-05
2.476e-05 1.37339e-05 1.79182e-05
-2.0328e-05 1.55356e-05 1.74288e-05
1.17869e-06 1.36445e-06 4.45977e-06
-2.06393e-05 -1.57282e-05 1.75274e-05
-1.89985e-05 -2.32214e-06 1.59459e-05
-1.95588e-05 -5.58488e-06 1.6332e-05
9.05669e-07 -3.24771e-06 7.00597e-06
-4.36595e-06 -1.97889e-05 1.63216e-05
-7.93713e-06 1.38342e-05 1.51008e-05
1.16573e-06 -1.30417e-06 4.33921e-06
1.19342e-05 -1.12282e-05 1.52919e-05
6.13299e-06 -2.26957e-05 1.68203e-05
-1.45219e-05 1.43551e-05 1.63234e-05
7.92893e-06 1.3321e-05 1.49477e-05
1.79365e-06 8.58732e-07 -4.55215e-06
1.73779e-06 -8.25101e-07 -4.46071e-06
4.31947e-07 1.8496e-06 -4.49502e-06
4.36091e-07 -1.7806e-06 -4.35599e-06
-1.84746e-06 2.09627e-08 -4.42227e-06
-1.12307e-06 -1.30885e-06 -4.15091e-06
-1.15919e-06 1.30678e-06 -4.19969e-06
-2.25126e-05 -7.28751e-06 -1.69996e-05
-2.2196e-05 7.3714e-06 -1.69683e-05
-4.86036e-06 2.2898e-05 -1.69367e-05
-4.85788e-06 -2.31312e-05 -1.69636e-05
1.74209e-05 1.56352e-05 -1.69295e-05
1.75684e-05 -1.55361e-05 -1.69388e-05
2.10731e-05 3.1638e-06 -1.6324e-05
-1.39528e-05 1.71509e-05 -1.6478e-05
-1.35909e-05 -1.67409e-05 -1.64096e-05
7.76769e-06 1.98191e-05 -1.63309e-05
7.68471e-06 -2.03095e-05 -1.64021e-05
2.14718e-05 -3.44365e-06 -1.63998e-05
-2.11023e-05 6.58808e-09 -1.62463e-05
-2.24199e-05 1.09995e-05 -1.74533e-05
-1.87505e-05 9.2545e-06 -1.66267e-05
-1.79824e-05 5.79532e-06 -1.60359e-05
-1.49836e-05 7.44817e-06 -1.5486e-05
-1.42241e-05 4.30762e-06 -1.48293e-05
-1.15323e-05 5.74376e-06 -1.40943e-05
-1.08578e-05 3.06867e-06 -1.33732e-05
-8.4003e-06 4.30478e-06 -1.2404e-05
-9.0586e-06 7.01325e-06 -1.34559e-05
-6.20397e-06 5.48839e-06 -1.16886e-05
-6.82815e-06 8.24926e-06 -1.30795e-05
-4.2813e-06 6.67477e-06 -1.14501e-05
-4.7999e-06 9.60971e-06 -1.30935e-05
-2.40082e-06 7.99317e-06 -1.17226e-05
-2.81279e-06 1.1167e-05 -1.34745e-05
-4.75399e-07 9.59508e-06 -1.25006e-05
-7.38337e-07 1.29966e-05 -1.41413e-05
1.73104e-06 1.15175e-05 -1.35346e-05
-5.53456e-06 1.27001e-05 -1.44365e-05
1.68504e-06 8.2238e-06 -1.17472e-05
4.00409e-06 1.01207e-05 -1.31505e-05
3.70527e-06 7.0978e-06 -1.14779e-05
6.06727e-06 8.96647e-06 -1.31129e-05
5.7667e-06 6.10666e-06 -1.17352e-05
8.3579e-06 8.02015e-06 -1.34916e-05
8.10548e-06 5.19515e-06 -1.24999e-05
1.09538e-05 7.0969e-06 -1.41465e-05
1.07457e-05 4.3227e-06 -1.34986e-05
8.53034e-06 1.10372e-05 -1.44603e-05
7.93752e-06 2.64369e-06 -1.1727e-05
1.06458e-05 1.73716e-06 -1.31036e-05
7.94852e-06 3.58753e-07 -1.14552e-05
1.08062e-05 -7.59096e-07 -1.31237e-05
8.11147e-06 -1.93776e-06 -1.17087e-05
1.1098e-05 -3.31278e-06 -1.34835e-05
8.46955e-06 -4.42389e-06 -1.24437e-05
1.15035e-05 -6.00275e-06 -1.4109e-05
8.95538e-06 -7.13795e-06 -1.34276e-05
6.14739e-06 -5.4943e-06 -1.16409e-05
6.64435e-06 -8.30068e-06 -1.30179e-05
4.10512e-06 -6.58837e-06 -1.13106e-05
4.52326e-06 -9.55066e-06 -1.29879e-05
2.24225e-06 -7.85812e-06 -1.1597e-05
2.48478e-06 -1.10017e-05 -1.33505e-05
2.25287e-07 -9.37349e-06 -1.23532e-05
3.30008e-07 -1.27695e-05 -1.40334e-05
-1.91539e-06 -1.11505e-05 -1.33766e-05
-1.84103e-06 -7.92146e-06 -1.15818e-05
-4.16781e-06 -9.87464e-06 -1.30846e-05
-3.81386e-06 -6.73036e-06 -1.13168e-05
-6.34549e-06 -8.66184e-06 -1.30989e-05
-5.89118e-06 -5.6979e-06 -1.1628e-05
-8.49954e-06 -7.43564e-06 -1.33793e-05
-8.16738e-06 -4.72796e-06 -1.24083e-05
-1.10954e-05 -6.40264e-06 -1.40695e-05
-4.37156e-06 -1.31229e-05 -1.44333e-05
-1.08086e-05 -3.65061e-06 -1.34388e-05
7.22597e-06 -1.13725e-05 -1.42726e-05
-7.74155e-06 1.98265e-06 -1.14926e-05
-1.32158e-05 1.03504e-06 -1.42106e-05
1.72909e-06 1.50825e-05 -1.49518e-05
1.37678e-05 4.62228e-07 -1.43874e-05
1.38429e-05 6.09998e-06 -1.49314e-05
-9.69386e-06 1.01961e-05 -1.45321e-05
-5.41591e-06 -3.1976e-06 -1.01819e-05
-1.17134e-05 -9.29715e-06 -1.48889e-05
1.18821e-05 -8.76004e-06 -1.47868e-05
1.47815e-05 -7.47346e-06 -1.5403e-05
-1.39595e-05 -5.24379e-06 -1.48613e-05
2.79577e-06 -1.45159e-05 -1.47959e-05
4.24556e-07 -1.64991e-05 -1.53974e-05
3.51837e-06 4.39686e-06 -9.58089e-06
1.40103e-05 9.29888e-06 -1.54913e-05
1.79305e-05 8.1448e-06 -1.63003e-05
-1.56752e-05 1.13951e-05 -1.62332e-05
-1.09407e-06 1.67688e-05 -1.5495e-05
1.90683e-06 1.96212e-05 -1.63107e-05
-2.09183e-06 5.21999e-06 -9.59738e-06
5.55385e-06 -7.8459e-07 -9.59393e-06
3.58589e-06 -3.6835e-06 -9.08178e-06
-1.77961e-06 -5.17849e-06 -9.4494e-06
-2.24684e-05 -1.10106e-05 -1.74741e-05
-1.87978e-05 -9.24125e-06 -1.66508e-05
2.11475e-05 1.41646e-05 -1.75054e-05
2.07534e-05 -1.43174e-05 -1.74353e-05
-1.76459e-06 -2.54461e-05 -1.75107e-05
-1.68212e-06 2.54101e-05 -1.75153e-05
1.77127e-05 -1.19067e-05 -1.66869e-05
2.06454e-05 -1.07509e-05 -1.71157e-05
3.77558e-06 -1.89848e-05 -1.61391e-05
7.68521e-07 -2.03454e-05 -1.64826e-05
-1.94047e-05 -1.26503e-05 -1.71429e-05
-1.37308e-05 -2.30688e-06 -1.44716e-05
-1.65924e-05 -3.70135e-06 -1.54772e-05
-1.03756e-05 -1.09636e-06 -1.29518e-05
2.44517e-05 1.10726e-05 -1.76514e-05
2.54972e-05 -1.2403e-05 -1.78479e-05
2.64923e-06 2.67255e-05 -1.76603e-05
2.52098e-06 -2.64131e-05 -1.76291e-05
3.33942e-06 -2.30315e-05 -1.70288e-05
-2.05385e-06 -1.83195e-05 -1.59506e-05
4.05902e-06 2.37909e-05 -1.71301e-05
2.26137e-05 8.37908e-06 -1.7119e-05
4.61352e-06 1.7313e-05 -1.5727e-05
1.44267e-05 -1.31192e-05 -1.61371e-05
-1.57874e-05 -1.09845e-05 -1.62143e-05
-1.67994e-05 -3.81419e-07 -1.5377e-05
1.73056e-05 4.68738e-06 -1.57253e-05
6.5521e-08 -6.38718e-06 -1.02672e-05
1.74168e-06 -4.84837e-06 -9.09228e-06
5.85035e-06 -2.93545e-06 -1.03779e-05
-2.14437e-05 3.75042e-06 -1.64585e-05
5.72924e-06 -1.62741e-05 -1.55074e-05
9.08327e-06 -1.74986e-05 -1.59972e-05
1.75718e-05 1.18814e-05 -1.6672e-05
1.39939e-05 -1.63819e-05 -1.64009e-05
1.07397e-05 -1.37887e-05 -1.55498e-05
-3.5479e-06 -4.22011e-06 -9.50054e-06
5.39901e-06 1.13847e-06 -9.49883e-06
5.21794e-06 3.22281e-06 -1.0047e-05
-1.74977e-06 -2.8354e-05 -1.78766e-05
1.89202e-06 5.29878e-06 -9.58422e-06
-1.13821e-07 6.10488e-06 -1.00385e-05
-3.78484e-06 4.12766e-06 -9.57818e-06
-5.62256e-06 3.03412e-06 -1.0285e-05
-5.16537e-06 1.04065e-06 -9.2134e-06
-7.52708e-06 -6.17378e-08 -1.11721e-05
-4.33429e-06 -8.10262e-07 -8.38166e-06
-3.10853e-06 1.8723e-06 -7.3739e-06
-2.20807e-05 -3.60766e-06 -1.65155e-05
2.34057e-05 -1.56877e-05 -1.78359e-05
-1.50717e-06 2.11674e-05 -1.66817e-05
2.12612e-05 -8.45174e-08 -1.62254e-05
1.76217e-05 -1.64676e-06 -1.55811e-05
1.73473e-05 -4.94156e-06 -1.57703e-05
2.18911e-05 -7.45093e-06 -1.69133e-05
-2.31818e-05 -1.42543e-05 -1.78324e-05
1.73242e-05 1.64883e-06 -1.55082e-05
-1.73399e-06 2.84725e-05 -1.78938e-05
-4.22063e-07 3.68335e-06 -7.49513e-06
2.37715e-05 1.57421e-05 -1.78843e-05
-1.7497e-05 1.56419e-05 -1.69746e-05
-1.0626e-05 -1.84657e-05 -1.62547e-05
-1.00993e-05 -1.4342e-05 -1.55713e-05
-7.5076e-06 -1.60945e-05 -1.56217e-05
-7.32197e-06 -2.012e-05 -1.63949e-05
-1.07042e-05 1.85348e-05 -1.62664e-05
-1.03471e-05 1.43838e-05 -1.5619e-05
-7.77248e-06 2.04919e-05 -1.64439e-05
-4.2529e-06 1.86093e-05 -1.60526e-05
1.07594e-05 1.8345e-05 -1.62258e-05
1.38913e-05 1.69345e-05 -1.64307e-05
1.40416e-05 1.29726e-05 -1.6051e-05
-7.36141e-06 1.62879e-05 -1.56382e-05
1.05249e-05 1.45467e-05 -1.56449e-05
7.74858e-06 1.60919e-05 -1.56136e-05
-3.11641e-06 -1.89873e-06 -7.39302e-06
-7.25748e-06 -1.24217e-05 -1.46248e-05
3.00861e-06 4.03594e-08 -6.60083e-06
4.87247e-06 1.35224e-05 -1.46178e-05
1.40757e-05 -2.26034e-06 -1.45701e-05
-1.72894e-05 -1.52164e-05 -1.69452e-05
-1.73661e-05 2.42025e-06 -1.55975e-05
-1.22044e-05 8.91174e-06 -1.49432e-05
-7.70547e-06 -2.29247e-06 -1.15544e-05
-1.24495e-05 1.18124e-05 -1.55397e-05
-1.42733e-07 -3.75416e-06 -7.55402e-06
2.73018e-06 2.27204e-06 -7.25177e-06
-2.00382e-06 -1.46502e-05 -1.48077e-05
9.36489e-06 -1.0068e-05 -1.43891e-05
1.38604e-05 3.15774e-06 -1.45658e-05
-7.33988e-06 1.11991e-05 -1.426e-05
4.99711e-06 -1.27745e-05 -1.4369e-05
1.10316e-05 1.04303e-05 -1.49193e-05
-3.59637e-06 1.4685e-05 -1.49077e-05
-4.63537e-06 -1.66165e-05 -1.55485e-05
-1.95067e-05 1.28922e-05 -1.7161e-05
-2.31265e-05 1.48579e-05 -1.78432e-05
-1.29047e-05 -1.26858e-05 -1.58122e-05
3.76074e-06 -1.5861e-06 -7.90678e-06
1.76436e-06 2.92223e-06 -7.08429e-06
-9.23029e-06 -1.06093e-05 -1.45315e-05
1.72771e-06 -2.82311e-06 -6.93092e-06
9.94721e-07 2.41164e-05 -1.73082e-05
2.13676e-05 1.11936e-05 -1.72984e-05
-1.46643e-05 -7.95323e-06 -1.54851e-05
1.37078e-05 -4.78622e-06 -1.46903e-05
-1.90985e-06 -2.17626e-05 -1.68025e-05
1.80601e-05 -8.4189e-06 -1.63405e-05
-1.66786e-05 -6.32844e-06 -1.57822e-05
-4.32894e-07 -1.92229e-06 -4.79838e-06
-1.80534e-06 2.99539e-06 -7.17704e-06
-2.50516e-05 -1.29816e-05 -1.79221e-05
-2.51268e-05 -1.45071e-05 -1.80019e-05
-2.50448e-05 1.30335e-05 -1.79058e-05
-2.51177e-05 1.46498e-05 -1.7982e-05
-1.64843e-06 -3.1248e-06 -7.20977e-06
6.32783e-06 1.13682e-05 -1.40763e-05
5.33706e-07 -2.40857e-05 -1.7302e-05
-5.2277e-07 1.80952e-06 -4.64492e-06
7.40732e-06 -1.43434e-05 -1.51521e-05
2.33025e-05 -1.32091e-05 -1.77286e-05
2.36323e-05 -1.05374e-05 -1.74906e-05
1.19882e-05 -1.82106e-05 -1.6293e-05
1.47299e-05 -1.01465e-05 -1.57953e-05
-1.00269e-05 1.00123e-06 -1.27544e-05
-1.73999e-06 -8.15891e-07 -4.72337e-06
7.69052e-07 3.70829e-06 -7.573e-06
2.34304e-06 -1.99713e-06 -6.55516e-06
2.01562e-05 5.89771e-06 -1.64534e-05
5.07001e-06 2.05956e-05 -1.64958e-05
3.42117e-07 -2.76796e-05 -1.78538e-05
-1.7312e-06 7.09102e-07 -4.60624e-06
-3.21146e-06 6.23039e-07 -6.82401e-06
3.57716e-06 1.47539e-06 -7.63648e-06
4.99224e-07 2.83234e-05 -1.79271e-05
2.476e-05 1.37339e-05 -1.79182e-05
-2.0328e-05 1.55356e-05 -1.74288e-05
1.17869e-06 1.36445e-06 -4.45977e-06
-2.06393e-05 -1.57282e-05 -1.75274e-05
-1.89985e-05 -2.32214e-06 -1.59459e-05
-1.95588e-05 -5.58488e-06 -1.6332e-05
9.05669e-07 -3.24771e-06 -7.00597e-06
-4.36595e-06 -1.97889e-05 -1.63216e-05
-7.93713e-06 1.38342e-05 -1.51008e-05
1.16573e-06 -1.30417e-06 -4.33921e-06
1.19342e-05 -1.12282e-05 -1.52919e-05
6.13299e-06 -2.26957e-05 -1.68203e-05
-1.45219e-05 1.43551e-05 -1.63234e-05
7.92893e-06 1.3321e-05 -1.49477e-05
SCALARS effective_fluid_pressure_TPM float
LOOKUP_TABLE default
665
665
665
665
665
665
665
665
665
665
665
665
665
665
133
665
665
665
665
665
665
665
665
665
665
665
665
665
665
133
665
560.313
520.655
502.795
502.566
519.782
559.933
665
561.979
520.75
503.238
503.347
520.682
561.601
665
559.6
519.653
502.74
502.957
521.151
561.617
665
558.856
518.997
501.528
502.224
518.846
559.445
665
558.496
519.937
501.86
501.792
519.369
557.935
665
558.652
519.95
502.033
501.894
519.358
559.659
133
133
133
133
133
133
665
560.313
520.655
502.795
502.566
519.782
559.933
665
561.979
520.75
503.238
503.347
520.682
561.601
665
559.6
519.653
502.74
502.957
521.151
561.617
665
558.856
518.997
501.528
502.224
518.846
559.445
665
558.496
519.937
501.86
501.792
519.369
557.935
665
558.652
519.95
502.033
501.894
519.358
559.659
133
133
133
133
133
133
228.253
226.323
227.037
224.105
225.52
219.843
220.859
529.156
528.166
526.544
527.924
526.572
527.625
498.691
503.537
501.576
498.932
501.448
501.23
494.311
562.495
518.97
495.015
480.722
461.341
443.261
425.029
402.104
427.254
385.25
417.722
379.597
417.885
385.935
427.37
404.281
444.365
429.06
450.241
386.544
419.285
380.192
418.297
386.174
427.744
404.209
444.475
428.144
450.838
386.019
418.148
379.608
418.504
385.542
427.58
402.903
443.538
426.435
384.035
416.121
376.292
415.328
383.008
424.401
400.829
441.687
425.209
382.744
417.761
376.556
418.079
383.829
425.249
402.196
442.66
450.632
426.709
445.99
380.717
444.656
465.271
448.723
464.744
453.392
350.893
463.486
461.018
478.425
462.753
460.623
478.329
337.268
480.801
505.834
503.594
480.867
506.141
337.681
337.492
326.156
334.406
563.371
519.645
567.572
562.357
567.889
567.743
521.794
542.706
498.606
513.718
542.051
451.434
477.552
414.64
579.514
611.025
579.667
576.027
534.54
494.456
538.214
537.911
485.012
498.092
503.31
473.113
485.06
352.737
326.407
355.167
503.419
477.691
488.333
520.863
502.002
477.888
335.532
335.395
347.69
613.442
337.369
347.561
337.256
353.194
329.18
373.244
310.652
288.781
504.685
608.377
521.084
493.695
478.3
486.329
526.478
600.336
476.537
615.896
291.389
615.795
528.706
494.507
478.207
479.382
501.289
494.813
479.408
502.484
495.148
493.717
502.236
495.222
479.855
480.021
479.023
289.287
454.564
271.936
454.971
453.6
526.987
479.444
465.195
382.086
480.481
292.662
286.075
461.451
449.605
453.949
445.826
448.66
463.576
463.233
479.925
543.446
601.697
487.465
300.294
282.454
452.985
279.156
552.229
551.989
480.747
457.989
526.209
508.161
488.562
233.725
284.551
614.503
636.32
615.137
636.676
285.273
441.312
553.07
230.481
467.523
590.258
566.023
495.786
490.022
410.017
232.114
293.088
271.119
507.869
509.166
607.81
229.658
276.969
294.423
618.875
618.788
558.504
226.517
562.517
488.284
503.368
280.84
504.038
466.349
224.003
473.556
519.554
502.953
462.416
228.253
226.323
227.037
224.105
225.52
219.843
220.859
529.156
528.166
526.544
527.924
526.572
527.625
498.691
503.537
501.576
498.932
501.448
501.23
494.311
562.495
518.97
495.015
480.722
461.341
443.261
425.029
402.104
427.254
385.25
417.722
379.597
417.885
385.935
427.37
404.281
444.365
429.06
450.241
386.544
419.285
380.192
418.297
386.174
427.744
404.209
444.475
428.144
450.838
386.019
418.148
379.608
418.504
385.542
427.58
402.903
443.538
426.435
384.035
416.121
376.292
415.328
383.008
424.401
400.829
441.687
425.209
382.744
417.761
376.556
418.079
383.829
425.249
402.196
442.66
450.632
426.709
445.99
380.717
444.656
465.271
448.723
464.744
453.392
350.893
463.486
461.018
478.425
462.753
460.623
478.329
337.268
480.801
505.834
503.594
480.867
506.141
337.681
337.492
326.156
334.406
563.371
519.645
567.572
562.357
567.889
567.743
521.794
542.706
498.606
513.718
542.051
451.434
477.552
414.64
579.514
611.025
579.667
576.027
534.54
494.456
538.214
537.911
485.012
498.092
503.31
473.113
485.06
352.737
326.407
355.167
503.419
477.691
488.333
520.863
502.002
477.888
335.532
335.395
347.69
613.442
337.369
347.561
337.256
353.194
329.18
373.244
310.652
288.781
504.685
608.377
521.084
493.695
478.3
486.329
526.478
600.336
476.537
615.896
291.389
615.795
528.706
494.507
478.207
479.382
501.289
494.813
479.408
502.484
495.148
493.717
502.236
495.222
479.855
480.021
479.023
289.287
454.564
271.936
454.971
453.6
526.987
479.444
465.195
382.086
480.481
292.662
286.075
461.451
449.605
453.949
445.826
448.66
463.576
463.233
479.925
543.446
601.697
487.465
300.294
282.454
452.985
279.156
552.229
551.989
480.747
457.989
526.209
508.161
488.562
233.725
284.551
614.503
636.32
615.137
636.676
285.273
441.312
553.07
230.481
467.523
590.258
566.023
495.786
490.022
410.017
232.114
293.088
271.119
507.869
509.166
607.81
229.658
276.969
294.423
618.875
618.788
558.504
226.517
562.517
488.284
503.368
280.84
504.038
466.349
224.003
473.556
519.554
502.953
462.416

CELL_DATA 563
TENSORS stress float
164.607 -24.9202 1.51109e-12
-24.9202 28.1476 3.58469e-12
1.51109e-12 3.58469e-12 -12.605

-40.3383 -21.3202 -3.7248e-12
-21.3202 -7.35467 8.54724e-13
-3.7248e-12 8.54724e-13 -10.2312

-9.93957 28.0428 -1.09838e-12
28.0428 -1.11013 -2.40519e-12
-1.09838e-12 -2.40519e-12 -6.35956

-40.4266 -29.8427 -5.44098e-12
-29.8427 -12.8459 -2.05125e-12
-5.44098e-12 -2.05125e-12 -10.5976

-22.6926 19.931 3.49646e-12
19.931 -1.92196 -5.53742e-12
3.49646e-12 -5.53742e-12 -23.0218

-27.1387 -18.0741 -1.83364e-12
-18.0741 15.8879 7.22385e-14
-1.83364e-12 7.22385e-14 -6.41033

161.259 26.4843 2.81849e-12
26.4843 28.0243 -3.94351e-13
2.81849e-12 -3.94351e-13 -13.2639

-5.96111 29.9576 -1.36779e-13
29.9576 -10.1118 -6.92483e-13
-1.36779e-13 -6.92483e-13 -7.27567

34.6308 5.48306 3.31587e-14
5.48306 -19.094 1.17195e-12
3.31587e-14 1.17195e-12 -4.1214

11.8603 -7.47756 -3.29337e-12
-7.47756 -48.2869 2.25449e-13
-3.29337e-12 2.25449e-13 -8.94645

104.192 16.3082 -2.68585e-12
16.3082 -8.44341 6.94615e-12
-2.68585e-12 6.94615e-12 -22.4545

-34.6369 -13.453 -1.65571e-12
-13.453 18.9658 1.04509e-12
-1.65571e-12 1.04509e-12 -7.17992

-6.02566 27.8328 -1.10016e-12
27.8328 -4.59134 -2.44841e-12
-1.10016e-12 -2.44841e-12 -6.15852

-35.5512 -14.3399 -2.58599e-12
-14.3399 7.84496 -3.73568e-12
-2.58599e-12 -3.73568e-12 -9.13079

-23.6537 33.3116 2.24413e-13
33.3116 -24.9944 6.36856e-13
2.24413e-13 6.36856e-13 -21.3652

21.3106 0.560955 2.61006e-12
0.560955 -32.3378 2.94453e-12
2.61006e-12 2.94453e-12 -5.58896

-48.9594 -17.9692 5.57637e-13
-17.9692 6.34303 2.73766e-12
5.57637e-13 2.73766e-12 -12.9457

11.6601 -2.6652 -1.42405e-13
-2.6652 -43.2481 -4.54244e-12
-1.42405e-13 -4.54244e-12 -8.03284

-11.3491 26.6732 8.92915e-13
26.6732 19.5173 -1.91077e-12
8.92915e-13 -1.91077e-12 -6.08866

21.7654 -4.19549 -1.48148e-12
-4.19549 -35.2936 7.00699e-13
-1.48148e-12 7.00699e-13 -6.74048

-24.4784 8.6684 -1.84919e-12
8.6684 32.1273 7.18832e-13
-1.84919e-12 7.18832e-13 -4.93357

-11.8088 6.28788 1.9679e-12
6.28788 -11.9744 -1.48725e-12
1.9679e-12 -1.48725e-12 -75.6231

22.7431 1.87596 -2.97421e-12
1.87596 -33.4679 1.19704e-12
-2.97421e-12 1.19704e-12 -6.67646

-12.3875 -27.7147 1.07174e-13
-27.7147 1.59991 -3.2229e-12
1.07174e-13 -3.2229e-12 -6.60197

21.3042 6.84928 3.55271e-14
6.84928 -34.303 -3.35983e-12
3.55271e-14 -3.35983e-12 -6.80572

-37.9046 19.1127 8.46952e-13
19.1127 2.654 1.6751e-12
8.46952e-13 1.6751e-12 -9.45701

106.601 4.18128 -9.33179e-13
4.18128 20.6023 -1.33582e-12
-9.33179e-13 -1.33582e-12 -12.0495

-5.30145 30.7454 -2.22874e-12
30.7454 -7.27177 2.78592e-13
-2.22874e-12 2.78592e-13 -7.44086

27.8898 37.0736 5.42736e-12
37.0736 26.469 4.8909e-13
5.42736e-12 4.8909e-13 -8.63168

-9.43909 10.3235 -6.206e-12
10.3235 -32.9309 -3.22916e-12
-6.206e-12 -3.22916e-12 -49.5102

19.8306 14.2168 2.36019e-12
14.2168 -29.3585 1.56364e-12
2.36019e-12 1.56364e-12 -6.00024

-4.20966 -17.78 2.22045e-14
-17.78 59.6567 -2.65032e-12
2.22045e-14 -2.65032e-12 -8.47559

66.2818 -42.1009 -4.46695e-12
-42.1009 71.1369 1.7882e-12
-4.46695e-12 1.7882e-12 -11.2523

-48.2103 5.98692 -3.81423e-12
5.98692 7.26966 1.49125e-12
-3.81423e-12 1.49125e-12 -41.0386

-26.2913 -4.84094 2.4869e-12
-4.84094 1.75674 4.99452e-13
2.4869e-12 4.99452e-13 -37.8035

-1.46667 21.0279 -8.68698e-12
21.0279 -39.5068 1.38245e-12
-8.68698e-12 1.38245e-12 -41.1045

-43.9766 5.06775 1.26314e-12
5.06775 0.514249 2.47654e-12
1.26314e-12 2.47654e-12 -52.1927

-2.7599 -9.16984 -5.19496e-12
-9.16984 -20.7701 2.04827e-12
-5.19496e-12 2.04827e-12 -35.8978

-3.97387 -27.9978 -2.50229e-12
-27.9978 -4.61034 -1.37668e-12
-2.50229e-12 -1.37668e-12 -5.99385

65.5956 41.5202 -3.55982e-12
41.5202 73.1646 2.10794e-13
-3.55982e-12 2.10794e-13 -10.964

60.1541 -17.9487 -3.606e-12
-17.9487 0.117474 1.82965e-12
-3.606e-12 1.82965e-12 -8.04959

-41.8044 -3.70627 5.44113e-12
-3.70627 -1.18565 1.09216e-12
5.44113e-12 1.09216e-12 -52.7275

-14.5943 19.5559 2.22452e-12
19.5559 -28.5519 -2.60532e-13
2.22452e-12 -2.60532e-13 -52.8357

18.1408 -12.2732 -3.8772e-12
-12.2732 -29.8983 -1.39844e-12
-3.8772e-12 -1.39844e-12 -6.22243

38.1725 -43.298 -2.04518e-12
-43.298 41.8004 -1.70293e-12
-2.04518e-12 -1.70293e-12 -14.5588

58.1428 -18.063 2.73796e-12
-18.063 -2.30216 8.81665e-13
2.73796e-12 8.81665e-13 -7.91316

-21.441 17.0853 -3.17302e-12
17.0853 30.3269 1.88886e-12
-3.17302e-12 1.88886e-12 -5.7276

-11.3721 19.3386 -3.15747e-12
19.3386 25.5103 -2.76934e-12
-3.15747e-12 -2.76934e-12 -3.92104

20.7911 -16.3008 -3.93108e-12
-16.3008 -33.1135 -1.6076e-13
-3.93108e-12 -1.6076e-13 -7.31098

12.6154 -34.1845 3.13705e-12
-34.1845 46.4347 -4.82932e-12
3.13705e-12 -4.82932e-12 -10.3969

62.3589 19.1813 -1.80123e-12
19.1813 2.81067 2.00373e-12
-1.80123e-12 2.00373e-12 -8.41356

46.5128 -25.2877 -4.06194e-13
-25.2877 5.13444 -1.69316e-12
-4.06194e-13 -1.69316e-12 -5.60948

-31.8955 19.486 2.35678e-12
19.486 -4.28562 -2.74506e-12
2.35678e-12 -2.74506e-12 -26.0859

37.0386 29.6486 -3.75403e-12
29.6486 14.5127 1.11318e-13
-3.75403e-12 1.11318e-13 -5.43192

-27.4501 -21.8128 -9.35548e-14
-21.8128 -8.22803 1.55189e-12
-9.35548e-14 1.55189e-12 -25.2482

64.8674 -42.7102 -7.95808e-13
-42.7102 44.0792 6.64002e-12
-7.95808e-13 6.64002e-12 -9.50206

-27.7497 5.45995 7.66202e-13
5.45995 2.66936 -6.3558e-12
7.66202e-13 -6.3558e-12 -38.3091

-5.55714 -5.32964 3.52755e-12
-5.32964 57.387 -1.80478e-12
3.52755e-12 -1.80478e-12 -5.44895

-0.199944 10.3842 -5.94665e-12
10.3842 -24.8484 -2.16677e-12
-5.94665e-12 -2.16677e-12 -38.3707

-26.4844 21.4126 -3.48551e-12
21.4126 12.2196 3.0127e-12
-3.48551e-12 3.0127e-12 -6.86891

4.72656 5.75377 -3.89126e-12
5.75377 -56.0399 -2.52554e-12
-3.89126e-12 -2.52554e-12 -13.9804

0.539687 11.4589 -2.80265e-12
11.4589 -34.0563 4.68662e-13
-2.80265e-12 4.68662e-13 -14.8396

106.342 31.8192 1.41161e-12
31.8192 37.8323 9.00021e-13
1.41161e-12 9.00021e-13 -7.48979

-35.4915 -6.03502 -2.52198e-12
-6.03502 10.6012 -1.01726e-12
-2.52198e-12 -1.01726e-12 -13.4787

-35.3598 9.51961 5.51855e-12
9.51961 1.23357 -8.77816e-13
5.51855e-12 -8.77816e-13 -14.9598

-42.5872 -2.8807 1.81429e-12
-2.8807 21.111 -3.23593e-12
1.81429e-12 -3.23593e-12 -11.2384

-44.9076 23.4021 1.64417e-12
23.4021 -5.89261 -2.15709e-12
1.64417e-12 -2.15709e-12 -13.9214

9.97105 8.4634 -8.05578e-13
8.4634 -42.3773 1.03932e-12
-8.05578e-13 1.03932e-12 -9.07724

-12.3339 -28.2388 -5.0037e-12
-28.2388 1.68757 -1.47556e-12
-5.0037e-12 -1.47556e-12 -6.67313

1.30887 -1.71119 -1.0365e-12
-1.71119 -55.456 6.09364e-13
-1.0365e-12 6.09364e-13 -11.3034

-31.885 -19.262 2.6259e-12
-19.262 -4.595 -3.87542e-13
2.6259e-12 -3.87542e-13 -25.9552

-27.9756 21.3078 6.42449e-14
21.3078 -8.35788 -1.83988e-12
6.42449e-14 -1.83988e-12 -26.0136

-0.651258 -16.583 2.36848e-14
-16.583 61.6725 1.90662e-12
2.36848e-14 1.90662e-12 -7.94844

-0.650083 -27.9359 5.57184e-13
-27.9359 -21.3604 9.99793e-13
5.57184e-13 9.99793e-13 -12.7906

-14.0927 -25.1342 -2.60799e-12
-25.1342 7.40688 2.25005e-12
-2.60799e-12 2.25005e-12 -5.23525

91.6759 -31.7098 2.04163e-12
-31.7098 19.4845 1.95903e-12
2.04163e-12 1.95903e-12 -16.3333

-33.7057 3.22256 -9.49759e-13
3.22256 9.19923 -3.46686e-12
-9.49759e-13 -3.46686e-12 -18.5635

2.75242 28.9436 -1.41102e-12
28.9436 -24.4244 4.959e-13
-1.41102e-12 4.959e-13 -11.3161

-38.4328 19.664 -1.41206e-12
19.664 5.22978 -1.21266e-12
-1.41206e-12 -1.21266e-12 -9.23448

50.1897 7.99932 -1.85689e-12
7.99932 -16.9628 -9.32587e-14
-1.85689e-12 -9.32587e-14 -7.06622

60.0303 -33.9347 1.1795e-12
-33.9347 33.7865 -6.80937e-12
1.1795e-12 -6.80937e-12 -6.98347

-18.9596 -10.5876 3.16192e-13
-10.5876 -0.54189 1.615e-12
3.16192e-13 1.615e-12 -25.4317

-33.9261 23.8994 3.09382e-13
23.8994 -12.0229 3.82587e-13
3.09382e-13 3.82587e-13 -14.5399

58.1551 -32.3829 2.83625e-12
-32.3829 18.0913 -7.49623e-13
2.83625e-12 -7.49623e-13 -10.1334

66.8583 10.7908 -1.48977e-12
10.7908 8.5135 -1.74971e-13
-1.48977e-12 -1.74971e-13 -5.08398

7.67422 -21.2054 9.27465e-12
-21.2054 88.4626 7.39675e-12
9.27465e-12 7.39675e-12 -11.8621

-33.9849 14.4254 1.19941e-12
14.4254 20.2383 3.81798e-12
1.19941e-12 3.81798e-12 -7.54569

8.47562 23.1426 3.0056e-12
23.1426 -26.0735 -1.72543e-12
3.0056e-12 -1.72543e-12 -11.2987

34.8682 42.1976 -2.52124e-12
42.1976 46.1985 -9.0831e-13
-2.52124e-12 -9.0831e-13 -14.4203

-4.39443 16.5073 -2.13947e-12
16.5073 -35.5425 -5.18992e-13
-2.13947e-12 -5.18992e-13 -73.2896

-5.97922 -4.10823 -3.42097e-12
-4.10823 57.9474 4.85538e-14
-3.42097e-12 4.85538e-14 -5.44114

-1.81876 -16.6324 1.81869e-12
-16.6324 -39.4027 -5.79329e-12
1.81869e-12 -5.79329e-12 -74.1129

-3.32928 -27.335 -1.49806e-13
-27.335 -30.0299 2.83329e-13
-1.49806e-13 2.83329e-13 -21.5543

8.96724 27.4244 5.45934e-13
27.4244 -29.9943 1.97709e-12
5.45934e-13 1.97709e-12 -11.2567

45.7105 -24.4099 5.41197e-13
-24.4099 5.02473 1.71685e-12
5.41197e-13 1.71685e-12 -5.23555

10.0956 31.3223 -6.11955e-12
31.3223 47.1625 -3.47219e-12
-6.11955e-12 -3.47219e-12 -9.63988

14.2725 -10.7048 2.19084e-14
-10.7048 82.8372 1.77636e-13
2.19084e-14 1.77636e-13 -6.44678

-38.6329 21.9706 -1.54943e-12
21.9706 2.94161 -6.47186e-13
-1.54943e-12 -6.47186e-13 -8.56846

1.19262 16.7939 2.40696e-13
16.7939 -25.7219 -8.78112e-13
2.40696e-13 -8.78112e-13 -18.5677

-26.5373 15.1536 -1.73817e-12
15.1536 18.4493 1.87465e-12
-1.73817e-12 1.87465e-12 -5.70733

43.6582 15.9535 -1.16884e-12
15.9535 -7.28435 -1.92276e-12
-1.16884e-12 -1.92276e-12 -4.07451

12.5772 -21.4719 9.41469e-14
-21.4719 57.9546 9.9476e-14
9.41469e-14 9.9476e-14 -4.71358

65.9952 -29.3898 7.1149e-12
-29.3898 18.6435 1.6301e-12
7.1149e-12 1.6301e-12 -9.33498

-32.3808 -24.5727 -7.00876e-12
-24.5727 -7.28147 2.27048e-12
-7.00876e-12 2.27048e-12 -8.97566

-22.6666 27.4506 3.38278e-12
27.4506 -10.3498 -2.70894e-13
3.38278e-12 -2.70894e-13 -9.28327

-38.351 23.1875 -1.60671e-12
23.1875 1.99112 -1.93031e-12
-1.60671e-12 -1.93031e-12 -8.52435

-51.5532 13.1692 -2.16723e-12
13.1692 11.9271 -3.22231e-12
-2.16723e-12 -3.22231e-12 -16.4661

23.4845 9.37216 -8.98244e-13
9.37216 -29.487 2.0061e-12
-8.98244e-13 2.0061e-12 -5.32082

3.769 -4.66494 1.75652e-12
-4.66494 79.4364 -6.20778e-12
1.75652e-12 -6.20778e-12 -9.53109

-44.9401 -36.8335 -2.04222e-12
-36.8335 -19.8289 3.56648e-12
-2.04222e-12 3.56648e-12 -14.7703

-16.0789 27.4647 1.83409e-12
27.4647 1.3413 -2.80842e-12
1.83409e-12 -2.80842e-12 -6.91391

-5.01478 2.17029 -3.5089e-12
2.17029 82.6717 3.0956e-12
-3.5089e-12 3.0956e-12 -13.4309

69.0441 34.6094 -7.74492e-13
34.6094 15.4967 1.19667e-12
-7.74492e-13 1.19667e-12 -10.7056

-31.3513 -22.9736 8.07798e-13
-22.9736 -4.63229 3.60512e-12
8.07798e-13 3.60512e-12 -8.52915

11.7429 5.73297 1.33493e-12
5.73297 -48.3357 2.27248e-12
1.33493e-12 2.27248e-12 -8.64075

43.065 27.2033 -3.1406e-12
27.2033 10.4523 -1.66622e-12
-3.1406e-12 -1.66622e-12 -5.0803

-9.41506 12.7456 -3.26924e-12
12.7456 -14.0389 9.53904e-13
-3.26924e-12 9.53904e-13 -37.0415

70.3332 24.3298 1.97768e-12
24.3298 23.8048 6.63173e-14
1.97768e-12 6.63173e-14 -6.79926

-10.5863 -13.0551 4.14306e-12
-13.0551 -13.9207 8.36368e-13
4.14306e-12 8.36368e-13 -37.3793

-4.37892 0.778508 9.08607e-13
0.778508 59.397 -1.91847e-12
9.08607e-13 -1.91847e-12 -4.83015

38.3564 -2.23526 -9.05942e-13
-2.23526 -23.8097 -1.03795e-12
-9.05942e-13 -1.03795e-12 -5.83163

3.59381 -15.7682 -3.03727e-12
-15.7682 -53.9715 -1.00157e-12
-3.03727e-12 -1.00157e-12 -21.1243

-42.2768 24.3881 -9.47437e-13
24.3881 -11.7369 5.62513e-13
-9.47437e-13 5.62513e-13 -11.167

-46.8123 -13.5349 -1.26354e-12
-13.5349 11.0675 -2.39453e-12
-1.26354e-12 -2.39453e-12 -12.3535

5.81023 -8.00006 -1.014e-13
-8.00006 -70.9679 -1.87095e-12
-1.014e-13 -1.87095e-12 -14.8816

-49.5391 -22.2843 -4.44267e-12
-22.2843 3.7487 -9.31403e-13
-4.44267e-12 -9.31403e-13 -22.1043

-17.4594 -6.59627 4.09154e-13
-6.59627 -13.1158 -1.69524e-12
4.09154e-13 -1.69524e-12 -34.7822

-28.7295 -29.9081 -1.54869e-12
-29.9081 -9.39983 2.75039e-12
-1.54869e-12 2.75039e-12 -8.99549

15.6935 11.4533 2.2687e-12
11.4533 80.1787 3.13823e-12
2.2687e-12 3.13823e-12 -6.53044

42.2894 -28.1457 2.9902e-12
-28.1457 11.0511 -1.4353e-12
2.9902e-12 -1.4353e-12 -5.04354

-47.1705 -13.7724 7.89739e-12
-13.7724 4.19613 -3.50949e-12
7.89739e-12 -3.50949e-12 -29.3011

2.96491 0.504362 -1.16041e-12
0.504362 -56.8117 2.62649e-12
-1.16041e-12 2.62649e-12 -11.0047

-39.3363 -21.5246 -1.40628e-14
-21.5246 -8.85735 -3.60304e-13
-1.40628e-14 -3.60304e-13 -14.7739

-40.1948 25.6976 -3.80732e-13
25.6976 -14.6914 2.4161e-12
-3.80732e-13 2.4161e-12 -11.3104

32.2602 -31.4635 1.06463e-12
-31.4635 38.4289 -1.77754e-12
1.06463e-12 -1.77754e-12 -4.64775

-31.4688 -7.08531 -1.65571e-12
-7.08531 1.70014 -7.67386e-13
-1.65571e-12 -7.67386e-13 -40.9937

36.6294 -33.0759 -2.65388e-12
-33.0759 72.0258 3.23534e-12
-2.65388e-12 3.23534e-12 -7.1446

16.6125 -19.1793 -5.39716e-12
-19.1793 -25.8692 4.61912e-12
-5.39716e-12 4.61912e-12 -7.13272

1.50262 1.97014 -7.97288e-13
1.97014 -51.3914 3.97934e-12
-7.97288e-13 3.97934e-12 -15.374

-12.8764 17.8752 -1.8856e-12
17.8752 -16.9548 -4.59129e-12
-1.8856e-12 -4.59129e-12 -41.0613

10.7134 20.1822 -7.51932e-12
20.1822 59.453 -1.87583e-12
-7.51932e-12 -1.87583e-12 -4.35621

4.31857 27.2101 1.54306e-12
27.2101 -16.2234 -1.06641e-12
1.54306e-12 -1.06641e-12 -8.12375

30.9042 -24.511 7.63833e-13
-24.511 -8.13165 -6.03488e-12
7.63833e-13 -6.03488e-12 -4.87155

-37.7868 -17.8384 -1.71059e-12
-17.8384 2.40089 -6.77384e-13
-1.71059e-12 -6.77384e-13 -9.86388

55.5127 35.0672 2.60769e-12
35.0672 42.3448 7.10543e-14
2.60769e-12 7.10543e-14 -6.63607

-40.0146 -21.8309 1.39873e-12
-21.8309 2.53689 -3.51127e-12
1.39873e-12 -3.51127e-12 -9.39339

2.96673 30.8501 3.22409e-12
30.8501 -17.3877 -1.57415e-12
3.22409e-12 -1.57415e-12 -9.07772

18.5373 -25.2436 -6.27646e-13
-25.2436 -19.4172 6.93963e-13
-6.27646e-13 6.93963e-13 -6.34187

-15.6532 -25.1259 -1.2174e-12
-25.1259 5.89571 -3.44199e-12
-1.2174e-12 -3.44199e-12 -5.77488

42.7177 -18.6876 -2.69059e-12
-18.6876 -9.16505 -3.85055e-12
-2.69059e-12 -3.85055e-12 -5.36849

27.4317 -18.8491 4.31892e-12
-18.8491 -20.3676 -4.46991e-12
4.31892e-12 -4.46991e-12 -5.6891

-41.3937 -25.3369 5.53631e-14
-25.3369 -14.9639 -1.89045e-12
5.53631e-14 -1.89045e-12 -11.5666

29.7806 35.9682 4.91459e-13
35.9682 25.2269 1.6982e-12
4.91459e-13 1.6982e-12 -8.6438

-28.5176 15.3764 1.16795e-12
15.3764 18.5188 3.69245e-12
1.16795e-12 3.69245e-12 -5.87336

-23.1077 26.4218 -8.19493e-13
26.4218 -12.5464 6.39488e-14
-8.19493e-13 6.39488e-14 -9.95752

-42.0963 25.4736 -3.50432e-12
25.4736 -11.5925 -1.44832e-12
-3.50432e-12 -1.44832e-12 -10.9922

-37.288 11.6213 9.77528e-14
11.6213 11.8441 6.72647e-13
9.77528e-14 6.72647e-13 -9.07999

64.3918 -8.22673 2.47861e-12
-8.22673 3.19815 -4.37606e-12
2.47861e-12 -4.37606e-12 -4.25032

8.73419 18.6058 2.37854e-12
18.6058 59.2188 2.27374e-12
2.37854e-12 2.27374e-12 -4.1618

-25.614 -24.3801 2.70302e-13
-24.3801 0.458527 -8.91139e-13
2.70302e-13 -8.91139e-13 -7.2149

-1.1412 25.6652 3.84877e-14
25.6652 13.7523 -3.0352e-12
3.84877e-14 -3.0352e-12 -4.082

32.3783 -35.6281 1.57859e-12
-35.6281 21.7 -1.66504e-12
1.57859e-12 -1.66504e-12 -8.48551

59.535 38.3154 -6.65542e-13
38.3154 17.8476 3.09086e-12
-6.65542e-13 3.09086e-12 -13.722

12.1253 -33.3099 8.31927e-13
-33.3099 42.9127 -8.82257e-13
8.31927e-13 -8.82257e-13 -9.54215

30.551 -31.1585 -3.426e-12
-31.1585 36.813 6.60805e-13
-3.426e-12 6.60805e-13 -4.4049

11.7688 -6.83866 1.91254e-13
-6.83866 -48.8377 1.78161e-12
1.91254e-13 1.78161e-12 -8.76959

25.2743 30.3407 3.06007e-12
30.3407 41.0884 3.6818e-12
3.06007e-12 3.6818e-12 -4.4554

62.6808 13.2942 1.6828e-12
13.2942 5.2286 2.68111e-12
1.6828e-12 2.68111e-12 -4.30491

-7.025 13.3784 -1.04805e-13
13.3784 61.3429 4.33668e-12
-1.04805e-13 4.33668e-12 -8.69437

11.7299 -22.3396 -2.62782e-12
-22.3396 55.7621 -7.62649e-12
-2.62782e-12 -7.62649e-12 -4.30087

-47.2606 -1.09143 1.75223e-12
-1.09143 12.4097 2.5846e-12
1.75223e-12 2.5846e-12 -22.1622

-5.91833 2.24652 2.23525e-12
2.24652 59.0032 -7.81597e-14
2.23525e-12 -7.81597e-14 -5.26186

6.26906 31.0882 2.78059e-12
31.0882 47.8643 1.57504e-13
2.78059e-12 1.57504e-13 -9.65994

-39.7251 12.1077 8.51615e-13
12.1077 12.8449 3.28034e-13
8.51615e-13 3.28034e-13 -9.31247

40.7376 -27.6467 -1.72425e-12
-27.6467 8.35789 7.67978e-13
-1.72425e-12 7.67978e-13 -5.64131

7.54018 20.5569 -2.5097e-12
20.5569 -47.4668 -2.10646e-12
-2.5097e-12 -2.10646e-12 -16.4815

-3.42096 26.2704 3.71022e-12
26.2704 -31.4867 3.58365e-12
3.71022e-12 3.58365e-12 -22.2526

15.7774 -18.5672 -1.48267e-12
-18.5672 -30.0123 8.19197e-13
-1.48267e-12 8.19197e-13 -8.18231

4.42882 -1.80093 -4.67137e-12
-1.80093 -34.133 8.17716e-13
-4.67137e-12 8.17716e-13 -24.4397

-14.3393 -31.8115 -2.40104e-13
-31.8115 -11.93 1.55935e-12
-2.40104e-13 1.55935e-12 -9.04885

56.2171 23.327 -8.14756e-13
23.327 0.817364 5.10821e-12
-8.14756e-13 5.10821e-12 -8.2874

-27.8279 30.162 -2.00136e-12
30.162 -9.23637 -6.48074e-13
-2.00136e-12 -6.48074e-13 -8.79974

-27.0034 29.2058 2.03126e-12
29.2058 -9.20175 2.65269e-13
2.03126e-12 2.65269e-13 -8.67701

28.6284 30.6598 -3.48166e-13
30.6598 40.4052 -3.63798e-12
-3.48166e-13 -3.63798e-12 -4.44843

0.343104 27.0847 2.25124e-12
27.0847 -19.8454 -4.59928e-12
2.25124e-12 -4.59928e-12 -11.7767

64.5067 3.52503 2.72375e-12
3.52503 -11.8249 -8.00952e-13
2.72375e-12 -8.00952e-13 -10.0178

-14.8996 31.8172 2.11298e-12
31.8172 -20.7987 -5.69322e-13
2.11298e-12 -5.69322e-13 -12.4471

-37.9436 -12.5997 8.52947e-13
-12.5997 8.18001 -1.19845e-12
8.52947e-13 -1.19845e-12 -14.0225

-0.475071 24.2783 2.89546e-12
24.2783 -29.9989 1.94807e-13
2.89546e-12 1.94807e-13 -20.7715

-23.7272 -29.5786 7.02727e-12
-29.5786 -11.9349 5.04545e-12
7.02727e-12 5.04545e-12 -8.84268

-38.1477 -4.89814 3.0929e-12
-4.89814 18.8465 -1.87169e-12
3.0929e-12 -1.87169e-12 -11.7297

69.9432 -24.5555 -1.91847e-13
-24.5555 18.0289 2.60769e-12
-1.91847e-13 2.60769e-12 -7.044

39.9816 29.6922 -2.09965e-12
29.6922 13.4796 -9.00021e-14
-2.09965e-12 -9.00021e-14 -5.21441

-4.29546 14.696 3.4522e-12
14.696 60.5702 7.25938e-13
3.4522e-12 7.25938e-13 -8.40031

1.61144 -1.13885 1.39015e-12
-1.13885 -56.1231 3.97578e-12
1.39015e-12 3.97578e-12 -11.2086

9.61413 0.00223611 1.10756e-12
0.00223611 -44.7533 3.72161e-12
1.10756e-12 3.72161e-12 -8.43721

-31.0783 23.1236 -4.13151e-12
23.1236 -4.33698 -5.56888e-13
-4.13151e-12 -5.56888e-13 -8.45766

-34.7626 23.8709 1.29911e-12
23.8709 -13.1923 -5.7578e-13
1.29911e-12 -5.7578e-13 -14.8128

-43.3785 -24.3807 -1.54428e-12
-24.3807 -12.6139 -1.6495e-12
-1.54428e-12 -1.6495e-12 -11.4681

-39.0586 -0.672675 1.05965e-12
-0.672675 21.0464 -1.3903e-12
1.05965e-12 -1.3903e-12 -10.4951

-40.8066 25.5903 2.27492e-12
25.5903 -13.2224 -1.56689e-12
2.27492e-12 -1.56689e-12 -11.1717

32.3213 -10.3077 2.97066e-12
-10.3077 -25.1526 1.60213e-12
2.97066e-12 1.60213e-12 -6.01344

8.70702 -32.8325 -3.86713e-12
-32.8325 22.7976 -9.74036e-13
-3.86713e-12 -9.74036e-13 -6.99132

2.39689 -2.30055 -3.60763e-12
-2.30055 -49.9606 -3.86298e-12
-3.60763e-12 -3.86298e-12 -14.7723

36.7452 -34.5073 4.83406e-12
-34.5073 24.4795 1.58629e-12
4.83406e-12 1.58629e-12 -7.70861

-38.2937 19.0861 -4.25571e-12
19.0861 -7.09373 -1.33227e-14
-4.25571e-12 -1.33227e-14 -14.4491

7.87077 -26.4786 -1.62773e-12
-26.4786 -27.994 -3.45205e-13
-1.62773e-12 -3.45205e-13 -10.9686

63.9463 -9.68998 -2.53427e-12
-9.68998 5.6779 8.55168e-13
-2.53427e-12 8.55168e-13 -5.07182

6.04099 -23.1918 1.76511e-12
-23.1918 -35.468 3.11099e-12
1.76511e-12 3.11099e-12 -17.736

0.14135 2.35825 3.04793e-13
2.35825 -56.1739 -2.32273e-12
3.04793e-13 -2.32273e-12 -11.5455

-4.06197 -23.3212 -2.08544e-12
-23.3212 -23.4116 -1.77517e-12
-2.08544e-12 -1.77517e-12 -16.7199

11.0389 -25.8593 3.62673e-12
-25.8593 -29.4853 -3.30698e-12
3.62673e-12 -3.30698e-12 -9.73312

10.2015 -8.54597 -1.30533e-12
-8.54597 -43.4894 1.10401e-12
-1.30533e-12 1.10401e-12 -9.28078

-35.4183 -23.068 4.77544e-12
-23.068 -12.6456 1.27877e-12
4.77544e-12 1.27877e-12 -15.1028

23.6642 -31.3411 2.314e-12
-31.3411 5.71281 2.53427e-13
2.314e-12 2.53427e-13 -5.87754

11.06 -24.5869 -3.78601e-12
-24.5869 -27.4942 -1.87228e-12
-3.78601e-12 -1.87228e-12 -10.0476

46.6424 10.8642 -1.80004e-12
10.8642 -16.1163 -8.52059e-13
-1.80004e-12 -8.52059e-13 -6.79918

-14.1861 26.3401 -1.15286e-12
26.3401 -15.6394 3.7114e-12
-1.15286e-12 3.7114e-12 -14.1187

-45.252 -37.6131 1.77843e-12
-37.6131 -20.6125 -3.94466e-12
1.77843e-12 -3.94466e-12 -14.9188

-43.7087 37.2654 4.74524e-12
37.2654 -21.2663 -2.67105e-12
4.74524e-12 -2.67105e-12 -14.7692

-61.1854 -28.5735 -1.02881e-14
-28.5735 -7.49703 1.83172e-12
-1.02881e-14 1.83172e-12 -15.1992

-58.4163 27.0642 -1.34529e-12
27.0642 -6.27166 -3.8014e-13
-1.34529e-12 -3.8014e-13 -14.4778

5.6007 -8.52771 1.1983e-12
-8.52771 -71.0644 3.02736e-12
1.1983e-12 3.02736e-12 -14.7094

4.39741 9.27373 -2.93099e-12
9.27373 -68.833 -2.07952e-12
-2.93099e-12 -2.07952e-12 -14.4374

9.024 -9.84603 -2.95053e-12
-9.84603 -40.8894 2.32555e-12
-2.95053e-12 2.32555e-12 -9.61129

-24.3355 32.1164 -6.94556e-13
32.1164 -24.8102 -1.90969e-12
-6.94556e-13 -1.90969e-12 -21.1454

-25.523 -32.8545 -4.13003e-13
-32.8545 -25.0963 1.05712e-13
-4.13003e-13 1.05712e-13 -21.4696

-53.9204 16.0686 -3.71199e-12
16.0686 3.40194 -2.50496e-12
-3.71199e-12 -2.50496e-12 -21.403

-52.4212 -15.801 6.04701e-13
-15.801 3.29725 -3.7037e-13
6.04701e-13 -3.7037e-13 -21.0763

6.11245 -3.7474 1.50487e-12
-3.7474 -43.9254 -2.5242e-12
1.50487e-12 -2.5242e-12 -25.7654

6.91863 3.61018 -3.87749e-12
3.61018 -46.3489 2.29446e-13
-3.87749e-12 2.29446e-13 -26.1418

-15.625 9.83665 3.57751e-12
9.83665 46.262 1.45661e-13
3.57751e-12 1.45661e-13 -5.84735

-22.9184 -24.7739 -2.18196e-12
-24.7739 -14.5521 7.62694e-12
-2.18196e-12 7.62694e-12 -10.3294

-56.6039 -36.3877 1.33841e-12
-36.3877 -14.5327 -1.82772e-12
1.33841e-12 -1.82772e-12 -13.4368

33.358 -4.66422 2.01557e-12
-4.66422 -19.8463 -4.49899e-13
2.01557e-12 -4.49899e-13 -3.94445

3.43348 -16.6949 2.39808e-13
-16.6949 -52.6291 7.03141e-13
2.39808e-13 7.03141e-13 -21.5329

3.67462 16.1759 -3.15155e-12
16.1759 -51.8848 -2.83418e-12
-3.15155e-12 -2.83418e-12 -21.4061

6.55581 0.121884 -6.20393e-13
0.121884 -76.7553 2.06081e-12
-6.20393e-13 2.06081e-12 -13.3036

-7.5689 23.3746 -1.6902e-12
23.3746 39.9353 4.99275e-12
-1.6902e-12 4.99275e-12 -6.88464

-56.8896 36.1717 1.21562e-12
36.1717 -14.0114 -1.01682e-12
1.21562e-12 -1.01682e-12 -13.3884

-39.7945 -23.3957 -2.99523e-12
-23.3957 2.56161 4.46458e-13
-2.99523e-12 4.46458e-13 -8.80037

37.1164 23.3523 -1.24108e-12
23.3523 -8.61244 -8.10611e-13
-1.24108e-12 -8.10611e-13 -5.75798

4.73551 23.8581 -2.38624e-13
23.8581 -38.2258 -3.7493e-12
-2.38624e-13 -3.7493e-12 -18.9858

24.0134 -31.3129 7.22385e-14
-31.3129 6.40867 5.66066e-13
7.22385e-14 5.66066e-13 -5.64753

2.43083 -3.23082 1.22065e-12
-3.23082 -48.3697 -1.42049e-12
1.22065e-12 -1.42049e-12 -14.7424

-60.4581 -34.1611 -3.08664e-12
-34.1611 -14.3498 -4.52616e-12
-3.08664e-12 -4.52616e-12 -14.0305

-17.4518 8.31979 2.64429e-12
8.31979 45.6913 3.11691e-12
2.64429e-12 3.11691e-12 -5.78039

-9.46812 21.8111 3.52311e-14
21.8111 40.4247 7.62649e-13
3.52311e-14 7.62649e-13 -6.65312

58.6028 35.7751 3.27205e-12
35.7751 37.0877 7.88702e-13
3.27205e-12 7.88702e-13 -6.91565

70.4829 1.57872 -1.10963e-12
1.57872 -5.54236 -1.17521e-12
-1.10963e-12 -1.17521e-12 -10.3736

-30.7595 -22.8044 -5.30835e-12
-22.8044 -13.3562 -2.08851e-13
-5.30835e-12 -2.08851e-13 -14.4658

32.8411 31.1832 2.36492e-12
31.1832 69.7933 1.89004e-12
2.36492e-12 1.89004e-12 -6.67917

-19.3761 23.6097 1.2473e-12
23.6097 7.68697 2.19617e-12
1.2473e-12 2.19617e-12 -5.51265

47.6365 -5.34943 -3.85588e-12
-5.34943 -17.4323 -1.71744e-12
-3.85588e-12 -1.71744e-12 -6.82113

33.2192 11.2159 4.52024e-12
11.2159 -23.636 -1.03384e-12
4.52024e-12 -1.03384e-12 -6.0132

6.25432 0.429907 -1.65053e-13
0.429907 -77.5526 1.79443e-12
-1.65053e-13 1.79443e-12 -13.4493

-58.9361 -29.0312 -6.92779e-14
-29.0312 -6.28805 -3.12757e-12
-6.92779e-14 -3.12757e-12 -14.6968

-28.3321 -6.31909 1.7281e-12
-6.31909 -11.3588 -5.70951e-12
1.7281e-12 -5.70951e-12 -51.5906

-44.6983 37.4118 -8.83441e-13
37.4118 -20.8116 -3.5331e-13
-8.83441e-13 -3.5331e-13 -14.7732

93.789 1.66326 -2.07715e-12
1.66326 16.6554 -5.28481e-12
-2.07715e-12 -5.28481e-12 -6.04293

10.0367 -32.7862 -4.84116e-12
-32.7862 21.311 2.76283e-12
-4.84116e-12 2.76283e-12 -6.80757

-56.9364 36.6132 2.02875e-13
36.6132 -14.5713 3.10611e-12
2.02875e-13 3.10611e-12 -13.5046

-35.0784 -11.1337 3.10957e-12
-11.1337 19.177 2.91263e-12
3.10957e-12 2.91263e-12 -8.31589

-5.47686 -25.514 3.10004e-12
-25.514 37.3499 3.72088e-12
3.10004e-12 3.72088e-12 -6.98641

-58.4526 28.8302 1.07932e-12
28.8302 -6.27143 -1.06996e-12
1.07932e-12 -1.06996e-12 -14.6138

28.4957 -26.1413 4.90689e-12
-26.1413 -4.912 3.11277e-12
4.90689e-12 3.11277e-12 -4.69659

-21.171 10.4834 -5.73467e-12
10.4834 -18.559 -6.29867e-13
-5.73467e-12 -6.29867e-13 -51.6862

3.4333 30.8713 -3.47515e-12
30.8713 27.1625 -1.12621e-12
-3.47515e-12 -1.12621e-12 -6.73236

6.14067 8.12681 1.02881e-12
8.12681 -72.2982 1.42789e-12
1.02881e-12 1.42789e-12 -14.984

-11.5455 30.1905 7.59689e-13
30.1905 -20.6032 1.65201e-13
7.59689e-13 1.65201e-13 -11.5488

-30.7972 23.3316 -2.67431e-12
23.3316 -5.09956 6.21429e-13
-2.67431e-12 6.21429e-13 -8.46372

-25.8638 -32.4891 1.6378e-12
-32.4891 -24.113 1.94076e-12
1.6378e-12 1.94076e-12 -21.559

9.20561 -23.1899 8.82257e-14
-23.1899 -27.9219 1.07706e-12
8.82257e-14 1.07706e-12 -11.4253

-37.6606 10.4709 -7.2781e-12
10.4709 8.9289 -7.24102e-12
-7.2781e-12 -7.24102e-12 -25.3314

-23.0401 -23.4335 -3.29781e-12
-23.4335 4.95255 5.59138e-12
-3.29781e-12 5.59138e-12 -6.26235

88.8019 -9.70757 4.62563e-12
-9.70757 10.8074 3.47167e-12
4.62563e-12 3.47167e-12 -10.0307

84.042 -14.2769 -2.00847e-12
-14.2769 2.81296 1.74675e-12
-2.00847e-12 1.74675e-12 -13.1966

5.88818 16.5292 6.0778e-12
16.5292 -33.9324 -4.63037e-12
6.0778e-12 -4.63037e-12 -22.3763

-16.4208 22.5012 2.76845e-12
22.5012 16.228 -6.34752e-13
2.76845e-12 -6.34752e-13 -5.08463

-3.91213 29.1628 -3.42541e-12
29.1628 -12.2294 6.30607e-13
-3.42541e-12 6.30607e-13 -8.39574

50.992 0.688659 7.43701e-13
0.688659 -6.53114 -4.41797e-12
7.43701e-13 -4.41797e-12 -3.63384

-48.1409 6.57129 2.60088e-12
6.57129 14.7862 -2.43835e-12
2.60088e-12 -2.43835e-12 -18.9525

10.1157 16.5408 -1.69346e-13
16.5408 -36.0793 -1.13568e-12
-1.69346e-13 -1.13568e-12 -9.13501

-4.50308 -25.7604 -4.77248e-13
-25.7604 35.5551 -4.49537e-12
-4.77248e-13 -4.49537e-12 -6.74636

-39.1907 -2.57248 5.10336e-12
-2.57248 21.5042 1.61767e-12
5.10336e-12 1.61767e-12 -10.669

-7.99 13.3648 -3.60897e-13
13.3648 44.4048 3.11099e-12
-3.60897e-13 3.11099e-12 -3.9437

3.73478 -29.713 -2.84809e-12
-29.713 -17.3642 -2.27729e-12
-2.84809e-12 -2.27729e-12 -8.92004

21.4259 -29.9467 1.80537e-12
-29.9467 14.7562 -1.2393e-12
1.80537e-12 -1.2393e-12 -3.91727

6.88129 31.622 3.54265e-12
31.622 25.4016 1.74675e-13
3.54265e-12 1.74675e-13 -6.82752

2.78573 -15.0202 3.30284e-12
-15.0202 -39.268 7.90827e-12
3.30284e-12 7.90827e-12 -63.3134

-46.1597 2.0412 -3.35953e-13
2.0412 11.4615 -2.31045e-12
-3.35953e-13 -2.31045e-12 -22.757

-55.4453 20.3003 1.08343e-12
20.3003 3.096 4.70113e-12
1.08343e-12 4.70113e-12 -22.9161

5.91704 15.4392 8.65974e-13
15.4392 -58.8191 1.58569e-12
8.65974e-13 1.58569e-12 -23.0362

-18.9212 -26.1884 2.89931e-12
-26.1884 -12.9131 -2.53693e-12
2.89931e-12 -2.53693e-12 -9.6521

41.3455 17.9569 -4.13891e-12
17.9569 -6.27037 -2.27966e-14
-4.13891e-12 -2.27966e-14 -3.8608

-44.6829 -5.29424 -4.16667e-12
-5.29424 4.5383 -3.87956e-12
-4.16667e-12 -3.87956e-12 -39.1459

7.49924 -18.9882 1.59724e-12
-18.9882 -39.8941 -3.77861e-12
1.59724e-12 -3.77861e-12 -11.6596

30.2907 -15.5986 3.04231e-12
-15.5986 -20.5077 1.2131e-12
3.04231e-12 1.2131e-12 -4.80435

-9.6377 11.6029 -4.25734e-13
11.6029 44.3186 -9.2489e-13
-4.25734e-13 -9.2489e-13 -3.85845

8.33426 -25.7336 4.41306e-12
-25.7336 32.9915 3.50534e-12
4.41306e-12 3.50534e-12 -3.63242

-10.2448 -25.2738 3.77861e-12
-25.2738 -19.0999 5.2891e-13
3.77861e-12 5.2891e-13 -23.175

17.0051 31.9587 -1.60464e-12
31.9587 11.1975 6.21606e-12
-1.60464e-12 6.21606e-12 -5.74568

-1.06931 -25.1348 2.07034e-12
-25.1348 -30.7626 -2.36996e-12
2.07034e-12 -2.36996e-12 -20.8917

48.0644 2.59731 -6.95148e-13
2.59731 -8.40898 -4.48056e-12
-6.95148e-13 -4.48056e-12 -3.53098

6.55276 -28.9298 -3.97489e-12
-28.9298 72.049 -9.07126e-13
-3.97489e-12 -9.07126e-13 -14.5513

21.7915 -29.2302 -3.21521e-13
-29.2302 13.9637 1.18305e-12
-3.21521e-13 1.18305e-12 -3.92965

35.3509 32.1582 -3.47219e-12
32.1582 74.133 8.73968e-13
-3.47219e-12 8.73968e-13 -5.44151

-45.2829 -11.877 2.62707e-12
-11.877 13.9222 -1.72721e-12
2.62707e-12 -1.72721e-12 -15.3261

-14.4196 -13.821 1.33908e-12
-13.821 43.3817 -3.78956e-14
1.33908e-12 -3.78956e-14 -5.672

-19.244 -23.9885 -8.20781e-12
-23.9885 -19.8306 8.12091e-13
-8.20781e-12 8.12091e-13 -64.2552

2.43872 23.7702 -1.67984e-12
23.7702 36.0063 3.19744e-14
-1.67984e-12 3.19744e-14 -3.71043

-15.1822 -32.7262 1.19312e-12
-32.7262 -21.1187 -6.79456e-13
1.19312e-12 -6.79456e-13 -14.3126

-14.5642 -11.9628 -4.75198e-12
-11.9628 45.5299 2.36966e-12
-4.75198e-12 2.36966e-12 -5.7382

7.83565 -19.1169 1.44211e-12
-19.1169 -43.1217 -1.91254e-12
1.44211e-12 -1.91254e-12 -12.6317

6.54603 23.8764 6.33567e-14
23.8764 35.1709 5.1313e-12
6.33567e-14 5.1313e-12 -3.4414

23.1732 -4.97543 4.72511e-13
-4.97543 -30.6755 -3.80425e-12
4.72511e-13 -3.80425e-12 -5.36358

36.9697 -30.3421 -1.79886e-12
-30.3421 122.625 -1.80478e-12
-1.79886e-12 -1.80478e-12 -6.24202

-26.8685 21.0137 -7.75676e-14
21.0137 8.43433 3.17139e-12
-7.75676e-14 3.17139e-12 -7.12918

40.3379 -19.3228 -5.65e-12
-19.3228 -11.3715 1.66918e-12
-5.65e-12 1.66918e-12 -5.72521

6.5288 -21.4459 -8.3696e-13
-21.4459 -45.5584 -6.40673e-13
-8.3696e-13 -6.40673e-13 -24.972

20.7051 31.7532 8.40809e-14
31.7532 9.5578 -2.41348e-12
8.40809e-14 -2.41348e-12 -5.80525

13.919 -29.9712 4.26681e-12
-29.9712 -7.60506 3.73242e-12
4.26681e-12 3.73242e-12 -5.94347

6.7548 20.8851 -2.87355e-12
20.8851 -27.7916 3.67114e-14
-2.87355e-12 3.67114e-14 -11.1084

-38.2739 -28.0758 1.00685e-11
-28.0758 -14.0376 3.87135e-12
1.00685e-11 3.87135e-12 -11.0603

8.64669 -26.2245 -7.01128e-12
-26.2245 31.1706 -1.74438e-12
-7.01128e-12 -1.74438e-12 -3.63444

15.3316 28.9804 3.60719e-12
28.9804 19.1538 -1.8711e-12
3.60719e-12 -1.8711e-12 -3.8822

28.6401 26.1907 -1.86044e-12
26.1907 -5.63257 8.86402e-13
-1.86044e-12 8.86402e-13 -4.80117

7.9149 -14.6097 2.04399e-12
-14.6097 -36.8772 7.64129e-13
2.04399e-12 7.64129e-13 -13.9909

-6.84067 -16.6171 5.80277e-14
-16.6171 41.3404 1.85096e-12
5.80277e-14 1.85096e-12 -3.95864

17.4406 -17.5681 -1.9836e-13
-17.5681 -30.9985 5.02768e-12
-1.9836e-13 5.02768e-12 -7.10447

19.8419 16.9081 3.1104e-12
16.9081 -31.6635 1.94807e-12
3.1104e-12 1.94807e-12 -7.33366

-33.6793 -9.38703 -1.47822e-12
-9.38703 8.75595 8.25414e-13
-1.47822e-12 8.25414e-13 -23.993

43.4309 -13.4297 -6.90174e-12
-13.4297 -8.36796 -5.31131e-13
-6.90174e-12 -5.31131e-13 -3.80338

-19.3775 0.593988 3.15215e-12
0.593988 43.1448 1.6757e-12
3.15215e-12 1.6757e-12 -4.77463

28.0557 18.5546 1.53536e-12
18.5546 -18.198 8.7752e-13
1.53536e-12 8.7752e-13 -4.74886

25.5282 27.6033 -1.76215e-12
27.6033 -3.77492 -1.59576e-12
-1.76215e-12 -1.59576e-12 -4.77032

-6.71447 -15.6857 3.15599e-12
-15.6857 43.7979 -9.14232e-13
3.15599e-12 -9.14232e-13 -3.84718

-19.9055 -1.2023 2.60318e-12
-1.2023 42.1273 -3.70311e-12
2.60318e-12 -3.70311e-12 -4.68619

-5.47319 29.1343 8.16532e-13
29.1343 -23.6461 -6.03103e-12
8.16532e-13 -6.03103e-12 -16.7967

-37.273 -10.9219 -7.40001e-13
-10.9219 21.68 -3.75699e-12
-7.40001e-13 -3.75699e-12 -7.82926

27.1432 -26.7147 -1.73668e-12
-26.7147 -5.53006 2.30275e-12
-1.73668e-12 2.30275e-12 -4.94337

40.7185 21.332 -3.29218e-13
21.332 -8.36926 -1.94807e-13
-3.29218e-13 -1.94807e-13 -5.46673

12.378 23.6651 1.61293e-12
23.6651 -27.1264 -1.03147e-12
1.61293e-12 -1.03147e-12 -8.66629

-37.7958 5.47062 2.47402e-12
5.47062 23.3113 3.60068e-12
2.47402e-12 3.60068e-12 -8.59674

18.5931 29.0648 -1.67096e-12
29.0648 17.3778 -7.99953e-13
-1.67096e-12 -7.99953e-13 -3.94629

-9.98926 22.9638 4.42757e-12
22.9638 -14.9125 -4.36096e-13
4.42757e-12 -4.36096e-13 -24.0263

68.315 -59.6906 -6.40436e-12
-59.6906 36.3345 3.58706e-12
-6.40436e-12 3.58706e-12 -23.0108

17.531 -25.0473 -1.53359e-12
-25.0473 -17.9913 3.80732e-13
-1.53359e-12 3.80732e-13 -6.41686

10.0587 7.06974 3.89881e-12
7.06974 82.549 -4.40063e-12
3.89881e-12 -4.40063e-12 -7.16493

11.9205 -28.8887 3.51245e-12
-28.8887 -3.88107 -1.75504e-12
3.51245e-12 -1.75504e-12 -5.16495

-66.9451 -52.7006 1.79294e-12
-52.7006 143.247 2.65743e-12
1.79294e-12 2.65743e-12 -49.6698

-68.3883 51.4512 9.20153e-13
51.4512 142.535 9.37916e-13
9.20153e-13 9.37916e-13 -49.8589

19.5684 117.153 2.57453e-12
117.153 64.1273 3.68061e-12
2.57453e-12 3.68061e-12 -48.3605

20.5272 -117.096 1.88768e-12
-117.096 61.0242 -5.08275e-12
1.88768e-12 -5.08275e-12 -48.7252

157.741 -1.36335 -8.66862e-13
-1.36335 -79.1872 4.04052e-14
-8.66862e-13 4.04052e-14 -48.9121

110.323 -91.1247 -8.43177e-13
-91.1247 -36.6905 1.83794e-12
-8.43177e-13 1.83794e-12 -50.3067

110.377 91.6526 -1.34056e-12
91.6526 -36.5007 -4.44089e-12
-1.34056e-12 -4.44089e-12 -50.1795

7.8472 14.3301 -9.30515e-13
14.3301 -42.6813 -2.55795e-13
-9.30515e-13 -2.55795e-13 -15.0787

-11.7911 25.5367 5.55171e-12
25.5367 -27.4046 -6.92898e-12
5.55171e-12 -6.92898e-12 -35.1387

12.4381 6.60592 8.13571e-12
6.60592 -40.5329 -4.91903e-13
8.13571e-12 -4.91903e-13 -8.25166

26.2547 21.7842 1.89478e-14
21.7842 -19.5277 8.81961e-13
1.89478e-14 8.81961e-13 -5.85001

-21.229 17.744 -7.6262e-12
17.744 29.8682 -1.0818e-12
-7.6262e-12 -1.0818e-12 -6.16147

22.5304 28.8979 -4.59425e-12
28.8979 -0.774929 5.11472e-12
-4.59425e-12 5.11472e-12 -4.72995

4.05579 -29.6631 9.07718e-13
-29.6631 -17.4659 2.43746e-12
9.07718e-13 2.43746e-12 -8.50375

25.9952 28.0272 2.19558e-12
28.0272 -2.30108 -1.8859e-12
2.19558e-12 -1.8859e-12 -4.73035

-19.346 -2.84116 -3.43607e-12
-2.84116 43.0708 1.58214e-12
-3.43607e-12 1.58214e-12 -4.76917

-13.4118 -26.0975 3.6137e-12
-26.0975 -25.8383 4.14306e-12
3.6137e-12 4.14306e-12 -35.5218

-19.8411 -4.86226 -4.13151e-13
-4.86226 41.7759 -1.9907e-12
-4.13151e-13 -1.9907e-12 -4.74303

-1.82675 23.016 -3.74278e-12
23.016 -24.377 1.14368e-12
-3.74278e-12 1.14368e-12 -16.1498

44.982 26.8701 -2.02742e-12
26.8701 8.11184 -3.09323e-12
-2.02742e-12 -3.09323e-12 -5.36845

-52.5093 -13.216 -4.55043e-13
-13.216 0.150493 -3.32475e-13
-4.55043e-13 -3.32475e-13 -20.6174

20.2804 13.7277 -2.5698e-12
13.7277 -31.1406 -4.98268e-13
-2.5698e-12 -4.98268e-13 -7.04216

13.7009 -29.9871 -1.57977e-12
-29.9871 -6.69081 9.84398e-13
-1.57977e-12 9.84398e-13 -5.8344

29.6306 -24.713 1.02437e-12
-24.713 -7.87298 -4.42017e-12
1.02437e-12 -4.42017e-12 -4.82433

5.76501 -16.0744 5.52595e-12
-16.0744 -32.3342 4.88794e-13
5.52595e-12 4.88794e-13 -22.2557

12.6277 27.9285 1.0522e-12
27.9285 -13.6381 -1.99663e-12
1.0522e-12 -1.99663e-12 -6.41885

23.309 23.977 3.53436e-12
23.977 -17.9424 -1.85037e-13
3.53436e-12 -1.85037e-13 -5.96154

-31.076 -2.79296 -8.71118e-13
-2.79296 30.1315 2.96888e-12
-8.71118e-13 2.96888e-12 -6.39772

-28.6283 5.87328 3.4191e-12
5.87328 33.3212 -1.18187e-12
3.4191e-12 -1.18187e-12 -6.0585

34.5482 2.64666 1.202e-12
2.64666 -26.1823 -1.77776e-12
1.202e-12 -1.77776e-12 -6.14121

50.6507 -7.28949 9.52127e-13
-7.28949 -14.0808 1.65912e-12
9.52127e-13 1.65912e-12 -6.77793

11.0413 30.4842 3.87246e-13
30.4842 -4.787 -2.6296e-12
3.87246e-13 -2.6296e-12 -5.96534

17.4676 -26.155 -1.36483e-12
-26.155 -17.4543 2.43361e-12
-1.36483e-12 2.43361e-12 -6.35097

-0.0845497 -21.2543 1.6455e-12
-21.2543 -27.9556 1.82521e-12
1.6455e-12 1.82521e-12 -17.1664

4.93938 -31.633 3.54975e-12
-31.633 4.86181 8.88178e-15
3.54975e-12 8.88178e-15 -5.93417

-8.22642 -27.785 8.63309e-13
-27.785 18.5789 -4.08266e-12
8.63309e-13 -4.08266e-12 -6.12877

-1.64973 29.8866 7.0326e-12
29.8866 10.4476 -1.92379e-12
7.0326e-12 -1.92379e-12 -5.79921

-26.0155 -9.57776 3.42711e-12
-9.57776 32.9695 -7.36596e-13
3.42711e-12 -7.36596e-13 -5.78616

-31.3219 -1.54472 2.11764e-12
-1.54472 31.6506 -1.39444e-12
2.11764e-12 -1.39444e-12 -6.22253

-38.9146 5.74796 -3.9214e-12
5.74796 23.9465 2.65802e-12
-3.9214e-12 2.65802e-12 -9.18214

-17.2172 -21.0886 -8.89067e-13
-21.0886 26.5709 1.46253e-12
-8.89067e-13 1.46253e-12 -5.77086

13.072 24.1109 1.67392e-12
24.1109 -28.1006 -1.33671e-12
1.67392e-12 -1.33671e-12 -9.20401

21.5549 -9.58961 3.15599e-13
-9.58961 -31.7054 -1.06478e-12
3.15599e-13 -1.06478e-12 -6.59698

-27.1524 7.46517 4.66645e-13
7.46517 34.3344 -6.49554e-13
4.66645e-13 -6.49554e-13 -5.87289

-35.2348 -9.70104 -9.25329e-13
-9.70104 22.3135 -3.16547e-12
-9.25329e-13 -3.16547e-12 -8.18254

-29.1547 -16.3304 -4.71771e-13
-16.3304 19.3467 2.40637e-12
-4.71771e-13 2.40637e-12 -6.66066

36.9675 -8.23906 -1.85096e-12
-8.23906 -20.2357 5.32759e-12
-1.85096e-12 5.32759e-12 -5.1004

-14.8095 -32.3468 -4.0347e-12
-32.3468 -21.6274 -3.24185e-13
-4.0347e-12 -3.24185e-13 -12.9924

-22.8232 9.32067 -7.97436e-13
9.32067 33.3232 -3.5764e-13
-7.97436e-13 -3.5764e-13 -4.78775

-0.75088 -18.2126 -1.57563e-12
-18.2126 -35.1577 -1.202e-12
-1.57563e-12 -1.202e-12 -33.2783

4.93241 24.8223 -4.85538e-14
24.8223 75.3056 1.15345e-12
-4.85538e-14 1.15345e-12 -14.3187

-14.1417 -26.626 -2.47447e-12
-26.626 -16.3496 2.95541e-12
-2.47447e-12 2.95541e-12 -14.6403

-6.35702 -30.2028 -4.20464e-12
-30.2028 -23.6019 -4.05601e-14
-4.20464e-12 -4.05601e-14 -17.0875

-31.2697 -0.701326 3.83863e-12
-0.701326 31.5003 -1.70175e-12
3.83863e-12 -1.70175e-12 -6.34741

28.4875 -16.6224 3.59416e-12
-16.6224 -18.0561 -2.78e-12
3.59416e-12 -2.78e-12 -4.43696

-37.8042 12.8416 -1.93636e-12
12.8416 11.1651 1.06581e-14
-1.93636e-12 1.06581e-14 -10.9883

-8.86109 -3.18045 9.17784e-13
-3.18045 111.049 -9.85286e-13
9.17784e-13 -9.85286e-13 -22.6718

-31.6016 14.2735 -2.12697e-12
14.2735 21.3504 2.12808e-12
-2.12697e-12 2.12808e-12 -7.12337

12.4221 -29.4888 -4.32839e-12
-29.4888 -2.51915 4.80208e-13
-4.32839e-12 4.80208e-13 -4.92718

33.6316 25.1053 -2.18788e-12
25.1053 124.028 -4.36747e-12
-2.18788e-12 -4.36747e-12 -6.21435

-13.5028 26.0983 9.67226e-13
26.0983 -19.0974 3.58691e-12
9.67226e-13 3.58691e-12 -58.8971

-9.55286 -27.8077 8.54354e-12
-27.8077 -22.807 1.96273e-12
8.54354e-12 1.96273e-12 -59.5475

-2.86545 -30.4187 1.8705e-12
-30.4187 -7.32071 4.60698e-12
1.8705e-12 4.60698e-12 -7.28633

3.86068 -31.1597 -1.70234e-12
-31.1597 5.63599 1.46253e-12
-1.70234e-12 1.46253e-12 -6.06139

25.1519 20.8272 3.12639e-13
20.8272 -17.0336 1.88205e-12
3.12639e-13 1.88205e-12 -4.97586

31.805 15.0059 9.59825e-13
15.0059 -23.3 -9.79957e-14
9.59825e-13 -9.79957e-14 -5.95368

-9.489 3.08374 1.03251e-13
3.08374 -9.83073 1.34716e-11
1.03251e-13 1.34716e-11 -80.9403

-5.54918 -7.0004 -1.05832e-11
-7.0004 -14.042 7.14806e-12
-1.05832e-11 7.14806e-12 -80.293

11.7485 4.82432 2.80783e-12
4.82432 -43.205 5.92785e-12
2.80783e-12 5.92785e-12 -7.8266

-35.056 6.73087 1.64787e-12
6.73087 24.3753 -5.63105e-13
1.64787e-12 -5.63105e-13 -7.56315

-36.1096 6.73631 3.34724e-12
6.73631 24.4326 2.72375e-13
3.34724e-12 2.72375e-13 -8.30812

74.5856 58.6335 1.89478e-14
58.6335 34.1722 1.86162e-12
1.89478e-14 1.86162e-12 -21.8731

-6.91922 -28.1993 -1.68517e-12
-28.1993 16.8754 -3.11455e-12
-1.68517e-12 -3.11455e-12 -6.11567

8.17208 17.9746 9.28443e-13
17.9746 -44.8757 2.26841e-12
9.28443e-13 2.26841e-12 -12.8963

32.7029 9.53964 -8.65678e-13
9.53964 -19.0794 -2.72227e-12
-8.65678e-13 -2.72227e-12 -4.07343

3.38822 -26.7229 -2.79658e-12
-26.7229 13.4841 -2.04163e-12
-2.79658e-12 -2.04163e-12 -3.82607

26.2375 -20.2374 2.8102e-12
-20.2374 -20.3222 -5.41907e-12
2.8102e-12 -5.41907e-12 -5.86226

65.3895 60.2314 -2.57927e-12
60.2314 34.289 9.78891e-12
-2.57927e-12 9.78891e-12 -23.8679

-13.2423 31.069 8.02025e-13
31.069 -16.8809 -1.25529e-12
8.02025e-13 -1.25529e-12 -12.7854

-18.6034 -19.7858 -1.77725e-12
-19.7858 28.4147 -3.97904e-13
-1.77725e-12 -3.97904e-13 -5.96852

11.1747 28.8574 -5.09222e-14
28.8574 -13.3227 3.42422e-12
-5.09222e-14 3.42422e-12 -6.43527

-31.8683 -4.14473 4.25008e-12
-4.14473 30.1478 5.21479e-12
4.25008e-12 5.21479e-12 -6.35697

-14.5956 19.6089 -8.4673e-14
19.6089 27.1852 -1.247e-12
-8.4673e-14 -1.247e-12 -4.41776

7.47955 30.5184 -8.20499e-12
30.5184 -1.66986 3.54265e-12
-8.20499e-12 3.54265e-12 -5.65955

-9.34425 -22.4729 4.15075e-13
-22.4729 23.1492 1.54958e-12
4.15075e-13 1.54958e-12 -4.17452

4.59095 -27.3522 -4.17444e-13
-27.3522 11.4492 -6.90707e-12
-4.17444e-13 -6.90707e-12 -3.93759

24.2716 11.2568 -4.95159e-12
11.2568 102.078 -3.60482e-12
-4.95159e-12 -3.60482e-12 -12.4051

37.4664 -33.4557 2.71664e-12
-33.4557 69.2849 1.3074e-12
2.71664e-12 1.3074e-12 -5.70289

-25.3343 -11.6904 1.78479e-12
-11.6904 31.3681 -2.50052e-12
1.78479e-12 -2.50052e-12 -5.64745

16.0967 26.4842 6.88042e-13
26.4842 -15.5015 -3.37981e-12
6.88042e-13 -3.37981e-12 -6.21658

4.95617 29.4776 -4.76064e-13
29.4776 1.63725 -3.95535e-13
-4.76064e-13 -3.95535e-13 -4.98904

-9.85402 -21.4336 2.29091e-12
-21.4336 25.1209 -1.45661e-13
2.29091e-12 -1.45661e-13 -4.03231

-21.6339 -11.7822 2.13104e-12
-11.7822 32.082 1.0066e-12
2.13104e-12 1.0066e-12 -4.63629

10.4633 28.4091 -1.86577e-12
28.4091 -0.156109 -1.69405e-12
-1.86577e-12 -1.69405e-12 -4.67199

-21.8461 -13.8776 -3.79815e-12
-13.8776 29.4673 -2.31874e-12
-3.79815e-12 -2.31874e-12 -4.84623

6.95886 27.8545 5.88625e-12
27.8545 73.0841 -1.68399e-12
5.88625e-12 -1.68399e-12 -14.3218

-45.8314 -4.04136 2.65387e-12
-4.04136 14.048 4.12056e-12
2.65387e-12 4.12056e-12 -19.965

0.877629 31.0271 -4.22773e-13
31.0271 7.5207 -8.85218e-13
-4.22773e-13 -8.85218e-13 -6.08813

9.71932 14.9011 -2.0961e-13
14.9011 -36.4286 -1.55609e-12
-2.0961e-13 -1.55609e-12 -10.9848

9.92892 -15.9273 7.6561e-13
-15.9273 -39.4101 -1.90248e-12
7.6561e-13 -1.90248e-12 -13.0687

85.6122 -24.2042 5.31012e-12
-24.2042 7.63602 2.35308e-12
5.31012e-12 2.35308e-12 -12.9578

-23.2063 -21.267 6.32176e-12
-21.267 10.5139 8.78112e-13
6.32176e-12 8.78112e-13 -6.16438

-16.6004 26.698 1.49836e-12
26.698 1.7788 -2.19439e-12
1.49836e-12 -2.19439e-12 -6.58682

-26.2016 -21.7279 3.09145e-12
-21.7279 -5.36455 -3.90021e-13
3.09145e-12 -3.90021e-13 -23.8674

-41.5974 14.1069 2.76312e-12
14.1069 -3.5602 -3.90473e-12
2.76312e-12 -3.90473e-12 -64.1296

-0.893335 9.44535 8.8128e-12
9.44535 -44.2602 -7.24428e-12
8.8128e-12 -7.24428e-12 -64.231

-20.3843 32.7056 3.82686e-12
32.7056 -23.2023 5.01273e-12
3.82686e-12 5.01273e-12 -24.3297

-11.4098 26 -1.58333e-12
26 22.6041 -8.0765e-13
-1.58333e-12 -8.0765e-13 -5.92475

16.0388 26.6612 4.44681e-13
26.6612 -17.2865 8.91435e-13
4.44681e-13 8.91435e-13 -6.54905

30.4281 45.1853 1.04331e-12
45.1853 47.5543 -1.6532e-12
1.04331e-12 -1.6532e-12 -15.1948

-44.8892 -11.3439 1.99411e-12
-11.3439 -1.80811 2.41762e-12
1.99411e-12 2.41762e-12 -61.6856

-8.2982 -3.43306 -1.16507e-11
-3.43306 -12.7556 2.874e-12
-1.16507e-11 2.874e-12 -77.2303

-14.6919 -0.210145 3.93774e-12
-0.210145 -6.41858 -3.75218e-12
3.93774e-12 -3.75218e-12 -77.3745

27.6646 -53.8019 8.50283e-13
-53.8019 71.1477 4.38642e-12
8.50283e-13 4.38642e-12 -24.3897

-11.6915 -11.6001 -4.37768e-12
-11.6001 -16.2044 -1.62537e-13
-4.37768e-12 -1.62537e-13 -37.4319

-32.6105 8.81317 -3.38566e-12
8.81317 -9.41976 -3.01389e-13
-3.38566e-12 -3.01389e-13 -49.5427

18.2563 -26.1993 5.44749e-13
-26.1993 -19.5457 4.60609e-12
5.44749e-13 4.60609e-12 -6.50579

-39.4298 1.01116 3.92564e-12
1.01116 11.9802 7.6863e-12
3.92564e-12 7.6863e-12 -19.722

-30.2019 -20.2676 2.9042e-12
-20.2676 6.3052 1.97531e-12
2.9042e-12 1.97531e-12 -7.21527

10.5366 6.25531 -7.99923e-12
6.25531 -52.3897 -1.04272e-12
-7.99923e-12 -1.04272e-12 -9.63904

-49.8126 15.5963 -1.60714e-12
15.5963 10.1655 8.12683e-13
-1.60714e-12 8.12683e-13 -13.5307

-40.2831 7.19167 2.57799e-12
7.19167 16.5415 -1.21384e-12
2.57799e-12 -1.21384e-12 -13.7739

16.405 20.3926 -1.34648e-12
20.3926 -25.8402 1.05871e-12
-1.34648e-12 1.05871e-12 -7.60695

-9.10011 -3.1139 9.43616e-13
-3.1139 108.393 4.68721e-12
9.43616e-13 4.68721e-12 -23.1021

-3.31973 -27.6234 3.90147e-12
-27.6234 -3.62924 -4.10338e-13
3.90147e-12 -4.10338e-13 -5.82921

-7.33479 -26.1161 2.94046e-12
-26.1161 -14.0816 -2.36048e-12
2.94046e-12 -2.36048e-12 -9.81015

-14.1981 -31.4837 -1.20881e-12
-31.4837 -21.7779 3.47885e-12
-1.20881e-12 3.47885e-12 -12.7553

90.7265 32.7491 -2.67875e-12
32.7491 20.9062 -6.22495e-12
-2.67875e-12 -6.22495e-12 -16.5061

-23.1178 -20.1166 -3.69541e-12
-20.1166 -17.3849 4.66693e-12
-3.69541e-12 4.66693e-12 -44.4287

72.6295 54.3216 1.92794e-12
54.3216 91.6395 1.56319e-13
1.92794e-12 1.56319e-13 -6.14257

-36.2148 -21.4396 3.29248e-12
-21.4396 -6.79682 2.17012e-12
3.29248e-12 2.17012e-12 -13.0425

15.0339 14.6503 9.37916e-13
14.6503 -37.7512 -2.72345e-12
9.37916e-13 -2.72345e-12 -8.17811

44.5722 -14.5722 4.26562e-12
-14.5722 -8.27116 3.46478e-12
4.26562e-12 3.46478e-12 -4.41778

-21.2302 24.0465 -2.2989e-12
24.0465 4.95566 -3.55271e-15
-2.2989e-12 -3.55271e-15 -5.97559

17.3732 20.4278 5.90343e-13
20.4278 -26.7917 3.53732e-12
5.90343e-13 3.53732e-12 -6.95075

-51.1401 11.4007 4.4742e-13
11.4007 7.71059 1.62093e-12
4.4742e-13 1.62093e-12 -29.9946

-7.28666 -31.58 -1.64994e-12
-31.58 -12.8263 1.70353e-12
-1.64994e-12 1.70353e-12 -8.11837

2.7969 19.8124 1.71833e-12
19.8124 -46.0336 -3.88726e-13
1.71833e-12 -3.88726e-13 -29.9865

-24.6704 -18.4432 1.58569e-12
-18.4432 17.8362 -6.01001e-13
1.58569e-12 -6.01001e-13 -5.47927

-42.3401 4.28309 -8.85671e-13
4.28309 17.8695 -2.72552e-12
-8.85671e-13 -2.72552e-12 -12.7278

-4.09805 9.92665 -6.01297e-13
9.92665 -40.2763 -4.19812e-12
-6.01297e-13 -4.19812e-12 -47.5501

-2.68826 -8.51325 -2.75187e-12
-8.51325 -38.3075 2.24976e-12
-2.75187e-12 2.24976e-12 -47.4058

81.7214 18.5121 9.04758e-13
18.5121 1.70047 -4.76182e-12
9.04758e-13 -4.76182e-12 -14.453

3.89494 7.96493 -6.26728e-12
7.96493 -45.1827 -1.619e-12
-6.26728e-12 -1.619e-12 -11.0176

35.8707 7.74034 1.8443e-12
7.74034 184.57 3.72798e-12
1.8443e-12 3.72798e-12 -9.75819

40.1442 -11.385 3.54442e-12
-11.385 190.367 -3.74219e-13
3.54442e-12 -3.74219e-13 -7.39004

53.7635 56.4062 5.36697e-12
56.4062 159.252 2.29268e-12
5.36697e-12 2.29268e-12 -11.5009

1.70918 -28.9503 -1.71714e-12
-28.9503 -24.6905 -1.63899e-12
-1.71714e-12 -1.63899e-12 -11.9624

16.0485 -49.1896 4.50721e-12
-49.1896 99.417 9.04284e-12
4.50721e-12 9.04284e-12 -21.6895

54.5113 -55.9487 1.71004e-12
-55.9487 149.969 1.7432e-12
1.71004e-12 1.7432e-12 -13.6657

-2.16517 26.2196 4.43319e-12
26.2196 17.5727 -6.51331e-15
4.43319e-12 -6.51331e-15 -3.99508

134.936 73.8428 1.00897e-12
73.8428 85.0229 5.32197e-12
1.00897e-12 5.32197e-12 -10.16

-18.7195 13.0474 5.26098e-12
13.0474 -3.90037 3.64153e-12
5.26098e-12 3.64153e-12 -26.77

3.74117 0.0391551 2.54848e-12
0.0391551 -26.1888 1.44418e-12
2.54848e-12 1.44418e-12 -26.7732

144.094 -73.1283 -5.68434e-14
-73.1283 85.3503 -8.76336e-13
-5.68434e-14 -8.76336e-13 -8.19729

-21.3921 -23.4235 4.33609e-12
-23.4235 12.2482 -1.25233e-12
4.33609e-12 -1.25233e-12 -6.49022

89.3444 34.7284 -8.05282e-13
34.7284 41.3891 7.21556e-12
-8.05282e-13 7.21556e-12 -11.5482

72.1851 63.4899 -3.86062e-13
63.4899 149.69 6.63173e-14
-3.86062e-13 6.63173e-14 -9.6746

26.164 21.6297 2.75098e-12
21.6297 100.131 -5.82408e-12
2.75098e-12 -5.82408e-12 -13.0317

73.8719 -65.9187 9.04521e-12
-65.9187 151.141 -2.64796e-12
9.04521e-12 -2.64796e-12 -9.40316

25.7685 -12.3808 4.4853e-12
-12.3808 105.01 1.91373e-12
4.4853e-12 1.91373e-12 -12.4287

-28.6639 6.84197 7.92337e-12
6.84197 3.10668 -2.81523e-12
7.92337e-12 -2.81523e-12 -37.8545

37.7421 -45.9737 -1.67807e-12
-45.9737 49.6684 2.63611e-12
-1.67807e-12 2.63611e-12 -15.5323

14.4432 47.5309 -2.52953e-12
47.5309 94.8775 5.02827e-12
-2.52953e-12 5.02827e-12 -22.1927

173.335 37.9107 -1.72425e-12
37.9107 48.04 1.80123e-12
-1.72425e-12 1.80123e-12 -9.52323

7.02105 -29.2853 -3.37922e-12
-29.2853 -14.358 -2.10409e-12
-3.37922e-12 -2.10409e-12 -7.15534

-38.417 12.8967 -2.49608e-12
12.8967 6.43527 4.70202e-12
-2.49608e-12 4.70202e-12 -15.2903

88.5027 -38.1116 6.93963e-13
-38.1116 34.1622 2.60532e-14
6.93963e-13 2.60532e-14 -14.0999

6.04195 -28.8018 1.69997e-12
-28.8018 -16.1712 -6.25574e-13
1.69997e-12 -6.25574e-13 -8.02919

169.201 -36.3426 9.00021e-13
-36.3426 34.9276 -4.27391e-12
9.00021e-13 -4.27391e-12 -13.291

-5.72487 -28.3171 -2.12808e-12
-28.3171 -14.4724 -2.01409e-12
-2.12808e-12 -2.01409e-12 -9.30879

-17.7897 -25.2944 4.33342e-12
-25.2944 12.0804 -2.66098e-12
4.33342e-12 -2.66098e-12 -5.93338

118.873 69.4593 -8.76336e-13
69.4593 96.2164 -2.61953e-12
-8.76336e-13 -2.61953e-12 -11.4012

29.4123 -22.9323 4.95011e-13
-22.9323 97.7939 -7.67386e-13
4.95011e-13 -7.67386e-13 -14.3403

117.956 -71.6913 1.37372e-13
-71.6913 93.6779 -3.55508e-12
1.37372e-13 -3.55508e-12 -12.4172

22.264 50.7363 -4.90867e-12
50.7363 73.7765 -4.60432e-12
-4.90867e-12 -4.60432e-12 -24.7777

-1.53588 -30.2117 -7.98768e-13
-30.2117 -6.55201 -2.41111e-12
-7.98768e-13 -2.41111e-12 -6.99707

-7.04533 -14.6402 -2.60207e-12
-14.6402 -21.9193 5.80869e-13
-2.60207e-12 5.80869e-13 -32.615

-11.8921 11.0928 -3.36523e-12
11.0928 -16.4313 -1.93993e-12
-3.36523e-12 -1.93993e-12 -77.7967

-26.1696 -5.15996 -1.20881e-12
-5.15996 -6.38739 5.78313e-12
-1.20881e-12 5.78313e-12 -77.6305

-38.9405 13.0836 -5.33499e-13
13.0836 13.7444 9.53904e-13
-5.33499e-13 9.53904e-13 -10.2382

-14.4807 -10.6672 7.98916e-12
-10.6672 -17.3188 6.05619e-12
7.98916e-12 6.05619e-12 -78.7596

-25.9034 4.09168 -5.26453e-12
4.09168 -5.9139 1.55901e-12
-5.26453e-12 1.55901e-12 -78.9017

-3.63397 7.43435 -4.20997e-13
7.43435 -27.861 -2.9868e-12
-4.20997e-13 -2.9868e-12 -77.9889

-43.9758 -12.1154 -5.04807e-12
-12.1154 2.91635 2.90301e-12
-5.04807e-12 2.90301e-12 -68.16

11.9737 -30.4694 2.67638e-12
-30.4694 76.1617 3.77772e-12
2.67638e-12 3.77772e-12 -14.7009

0.522003 -12.9721 -1.09438e-11
-12.9721 -39.991 4.09125e-12
-1.09438e-11 4.09125e-12 -45.2781

-16.3488 -34.4179 -1.34529e-12
-34.4179 -22.0684 -4.39382e-12
-1.34529e-12 -4.39382e-12 -23.5902

-2.42049 -18.1768 1.60464e-12
-18.1768 -29.8955 -8.23815e-12
1.60464e-12 -8.23815e-12 -33.6272

12.7384 15.459 -5.03301e-14
15.459 -37.7157 2.63315e-12
-5.03301e-14 2.63315e-12 -9.62462

-46.9092 9.86442 1.06604e-12
9.86442 8.87782 1.36732e-11
1.06604e-12 1.36732e-11 -70.1559

3.46278 19.2279 -4.24135e-12
19.2279 -41.4727 -9.78921e-13
-4.24135e-12 -9.78921e-13 -70.2717

1.47248 11.3061 -1.38911e-12
11.3061 -23.9652 8.58706e-12
-1.38911e-12 8.58706e-12 -31.8684

109.39 -15.3391 -9.71075e-13
-15.3391 -12.5355 2.72316e-12
-9.71075e-13 2.72316e-12 -25.0373

-14.3198 24.9637 3.52814e-12
24.9637 10.3863 6.30607e-13
3.52814e-12 6.30607e-13 -5.80389

76.6056 -61.3537 -3.88904e-12
-61.3537 37.3645 -3.45087e-12
-3.88904e-12 -3.45087e-12 -22.3955

76.113 -57.4564 -1.75267e-12
-57.4564 99.2269 4.81037e-12
-1.75267e-12 4.81037e-12 -5.55554

118.195 -36.5435 3.95772e-12
-36.5435 40.6004 2.64085e-12
3.95772e-12 2.64085e-12 -7.37867

-51.1152 -5.15898 2.07641e-12
-5.15898 3.34089 9.05646e-13
2.07641e-12 9.05646e-13 -60.662

-50.4791 2.89122 4.75368e-12
2.89122 3.13515 -1.9611e-12
4.75368e-12 -1.9611e-12 -60.1345

-11.9756 -24.4567 -3.75374e-12
-24.4567 -35.0041 -1.07854e-12
-3.75374e-12 -1.07854e-12 -59.1687

-8.99205 -21.7609 2.63822e-12
-21.7609 -37.8887 -9.0387e-13
2.63822e-12 -9.0387e-13 -59.4782

-14.7028 26.1364 -3.28212e-12
26.1364 -33.0283 1.58222e-12
-3.28212e-12 1.58222e-12 -60.7532

-18.1581 3.09972 -1.57592e-12
3.09972 -13.1648 -1.0208e-11
-1.57592e-12 -1.0208e-11 -75.4811

-9.94511 -20.5092 1.9688e-13
-20.5092 -32.6514 7.68718e-13
1.9688e-13 7.68718e-13 -56.7389

-26.649 -18.5685 1.7469e-12
-18.5685 -14.196 1.69445e-11
1.7469e-12 1.69445e-11 -71.2747

-15.4795 2.43471 1.87687e-12
2.43471 -12.8528 -1.23981e-11
1.87687e-12 -1.23981e-11 -77.8757

-6.0276 -20.5266 8.5835e-13
-20.5266 -41.4879 -9.24298e-13
8.5835e-13 -9.24298e-13 -60.5093

-6.75689 20.9562 -5.12101e-12
20.9562 -40.1441 -1.99959e-12
-5.12101e-12 -1.99959e-12 -60.0205

-14.3167 -3.45875 -7.7276e-12
-3.45875 -11.3903 -4.8123e-12
-7.7276e-12 -4.8123e-12 -76.8901

-11.2644 -3.11751 1.30476e-11
-3.11751 -17.6897 -1.67126e-11
1.30476e-11 -1.67126e-11 -74.0528

-24.2046 12.1098 1.28283e-12
12.1098 -13.4007 5.42277e-12
1.28283e-12 5.42277e-12 -69.9708

-22.0829 26.93 -4.39441e-12
26.93 -26.2671 3.11182e-12
-4.39441e-12 3.11182e-12 -57.5844

VECTORS fluid_flux_TPM float
-8.72048e-05 3.1023e-05 -4.50714e-21
3.55893e-06 6.88139e-06 -2.7925e-21
-1.27852e-05 -1.02238e-05 1.74532e-21
-4.16989e-06 4.2533e-06 -3.35972e-21
2.27039e-05 -6.31224e-06 -1.31392e-20
2.75711e-06 -1.59009e-05 -1.06599e-20
-8.5781e-05 -3.10878e-05 1.69569e-20
-1.389e-05 -1.0465e-05 1.73495e-20
2.21181e-05 9.45364e-07 -5.92051e-21
1.13821e-05 -3.90745e-06 1.50973e-22
5.45921e-05 1.24821e-05 6.98339e-21
2.34647e-06 -1.71912e-05 -8.46981e-21
1.36093e-05 1.12519e-05 -1.44958e-20
2.66163e-06 1.37823e-05 -3.16322e-20
2.05776e-05 -2.94616e-06 -8.555e-21
-1.63296e-05 -2.72854e-07 2.6636e-20
2.75306e-06 1.40965e-05 -3.21991e-20
1.01801e-05 -2.39149e-06 1.01715e-20
9.89698e-06 1.72199e-05 -1.0153e-20
-1.4846e-05 1.88515e-06 -1.17406e-20
-3.6006e-06 -2.13005e-05 -1.61102e-20
3.4106e-05 5.94089e-05 2.67967e-21
1.56949e-05 1.63104e-06 1.28336e-20
1.12255e-05 -1.12797e-05 -7.10194e-21
-1.50759e-05 -3.33187e-06 1.77533e-20
-6.77122e-07 -1.1129e-05 -1.53456e-20
6.28945e-05 -4.90778e-06 -3.04075e-22
1.40638e-05 1.02473e-05 -1.4815e-20
-2.51459e-05 -2.06397e-05 1.07502e-20
4.91133e-05 -1.28121e-05 8.80785e-21
-1.65799e-05 -6.0374e-06 2.86839e-20
5.53626e-06 -3.20323e-05 -8.24425e-21
4.76479e-05 -4.80409e-05 3.41545e-21
-4.9227e-06 -4.12423e-05 -1.53277e-20
-2.96694e-05 3.70005e-05 -3.83907e-20
-3.82424e-05 -1.63929e-05 1.6805e-20
3.26983e-05 4.32099e-05 -8.32674e-21
-4.47349e-05 -8.72472e-06 -3.65368e-20
1.43725e-05 -1.10803e-05 -2.44201e-21
4.64639e-05 5.01087e-05 -5.70283e-21
3.21252e-05 -1.40202e-05 7.18863e-21
3.36357e-05 -4.2338e-05 -4.27693e-20
-1.98939e-05 -5.03719e-05 1.48072e-20
-1.58958e-05 6.35592e-06 -1.74241e-20
3.05214e-05 -2.93106e-05 3.64494e-21
-3.03286e-05 1.09888e-05 -1.02557e-20
-4.0497e-06 -2.0368e-05 1.28096e-20
7.8851e-06 2.02092e-05 -1.84912e-20
-1.63404e-05 5.92709e-06 -1.65931e-20
-1.78177e-05 2.87222e-05 -2.71993e-20
3.24047e-05 1.5289e-05 8.76903e-21
2.93616e-05 -1.0074e-05 -1.08021e-20
-1.56645e-05 1.57586e-05 -2.58681e-20
-2.35384e-05 -2.06878e-05 1.90081e-20
-2.11374e-05 -5.13185e-06 -2.37805e-20
-4.47863e-05 2.70729e-05 -4.98008e-21
-2.93686e-05 -3.80188e-05 -9.87044e-21
6.3627e-06 -3.06244e-05 -4.85245e-21
-4.77025e-05 6.48216e-06 9.41345e-22
6.07344e-06 1.36956e-05 -1.86771e-20
-5.57624e-06 -8.17261e-06 9.63458e-21
-6.58288e-06 -1.79418e-05 2.11697e-20
5.71383e-05 2.48572e-05 4.2634e-21
9.24193e-06 1.81425e-05 -1.81087e-20
1.22953e-05 -1.44436e-05 -1.34745e-20
-1.64044e-06 -2.07506e-05 2.99072e-21
4.62065e-06 -8.80471e-06 6.21375e-23
-1.00896e-05 -5.56437e-06 1.55705e-20
-1.06017e-05 1.19282e-05 -1.89599e-20
2.55796e-06 -4.09222e-06 -4.35799e-21
-1.50421e-05 -1.58418e-05 -4.32021e-22
-2.1363e-05 5.16545e-06 1.33156e-20
-3.55653e-06 3.44782e-05 -3.05068e-20
-1.78702e-05 1.07099e-05 -3.4732e-20
-9.07e-06 1.46134e-05 -1.40659e-20
-6.03494e-05 7.69141e-06 1.0809e-20
7.81736e-06 -2.16796e-05 1.9748e-21
-1.88785e-05 -8.89929e-06 1.12698e-20
1.93354e-06 1.1623e-05 -7.42786e-21
2.62987e-05 5.0892e-06 -3.85929e-21
3.41661e-05 -2.89726e-05 5.11681e-21
2.21445e-05 2.05544e-05 -1.53517e-20
1.19074e-05 -2.82208e-06 -2.18873e-20
-3.2151e-05 2.4065e-05 -1.73501e-21
3.79012e-05 4.84545e-06 6.5729e-21
-4.98046e-06 4.94104e-05 -1.75851e-20
-1.74097e-06 -1.68557e-05 8.99216e-21
1.81224e-05 9.95383e-06 1.14733e-20
2.93149e-05 3.02833e-05 1.75144e-20
5.50201e-05 3.80102e-05 3.71434e-20
-5.33092e-06 3.07703e-05 -3.79168e-20
5.91748e-05 -3.55095e-05 -3.14546e-20
-2.71226e-05 5.34073e-06 -3.10938e-20
1.78378e-05 1.10009e-05 -5.08043e-21
-2.96386e-05 9.90248e-06 -2.08498e-20
1.66516e-05 2.85188e-05 -2.4714e-20
1.0168e-05 -4.4383e-05 7.80982e-21
1.91531e-06 1.16199e-05 -1.05823e-20
-1.47995e-05 -1.76187e-05 -3.50336e-21
3.06963e-06 1.74733e-05 -5.45123e-21
2.64047e-05 5.25705e-06 -2.30887e-20
-1.5442e-05 3.32084e-05 -3.07157e-20
4.05489e-05 -1.33321e-05 -2.76971e-21
-3.77276e-06 7.45442e-06 -1.40781e-20
9.95202e-06 5.89883e-06 -7.78527e-21
-2.2804e-06 -1.13236e-05 1.84323e-21
3.22039e-06 -1.92503e-05 -1.14909e-20
1.74679e-05 3.89177e-06 1.07948e-20
-7.93658e-06 4.09692e-05 -2.60909e-20
-9.80482e-06 2.47902e-07 -6.74272e-21
9.31775e-06 1.18848e-05 -8.52469e-21
-2.1772e-06 -4.17105e-05 1.09912e-20
4.20195e-05 1.2864e-05 1.74359e-20
4.42218e-06 -7.45259e-06 -1.50024e-20
-1.11442e-05 -3.55335e-06 4.24745e-22
-2.93232e-05 -1.24849e-05 -6.31795e-21
1.58025e-05 4.11439e-05 1.51109e-20
-4.34813e-05 -1.55725e-05 -3.48275e-21
1.60172e-05 -4.11204e-05 -5.42968e-20
-3.69952e-06 -3.19175e-05 -8.14361e-21
2.18371e-05 6.52111e-07 2.2716e-21
-7.1709e-06 1.83951e-05 1.25404e-20
-1.61106e-06 3.96924e-06 -1.38328e-20
-3.68567e-06 -1.65374e-05 -9.64034e-21
5.22956e-06 -8.30142e-06 2.24583e-21
9.35871e-06 1.58622e-05 -9.41785e-21
3.30984e-05 1.06515e-05 6.97553e-22
8.61475e-06 -7.45743e-06 -1.34854e-20
-8.27026e-06 -4.51562e-05 -4.31009e-21
2.555e-05 -1.88183e-05 1.4658e-21
4.9775e-06 2.7769e-05 -4.37015e-21
-2.8161e-06 -2.84138e-06 -5.15864e-21
-8.62554e-06 -8.32516e-06 6.21476e-22
-4.77628e-06 4.41242e-08 2.31099e-20
-2.28707e-05 2.85917e-05 -3.91825e-20
1.87615e-05 -3.73719e-05 -3.5664e-20
-2.65778e-05 4.27108e-05 -2.89601e-20
-1.63704e-05 9.53445e-06 -1.00924e-21
2.52774e-06 1.21979e-05 1.56354e-20
-2.29848e-05 -3.49864e-05 2.51839e-21
1.39349e-05 3.34632e-05 -3.97085e-20
1.75062e-05 9.36841e-06 4.54292e-21
2.28095e-05 -8.52193e-06 -4.83093e-21
-1.25309e-06 -1.12644e-05 -3.61767e-21
-3.39087e-05 -3.15552e-05 -3.54399e-21
-2.75125e-06 1.13023e-05 -1.67423e-20
1.72452e-05 1.01709e-05 1.80716e-21
1.88858e-05 -8.82008e-06 7.42933e-21
8.24245e-06 -1.43436e-05 -6.6769e-21
2.43548e-05 -1.07944e-05 -4.77666e-21
1.90078e-05 -8.99708e-06 1.19565e-20
4.64022e-06 2.0578e-07 -2.23009e-21
2.57383e-05 2.02194e-05 -8.45162e-21
-2.74139e-06 -1.70284e-05 8.34429e-21
-1.04789e-05 -4.45659e-06 2.67773e-20
1.12574e-06 -3.88973e-06 -8.15786e-21
-3.15478e-06 1.58456e-05 -6.99677e-21
-3.48802e-05 2.76785e-06 -1.41441e-20
-1.21204e-05 -3.32552e-05 -1.12262e-20
-7.87837e-06 9.77813e-06 -6.21672e-21
1.3564e-05 1.66388e-05 1.62131e-21
2.65661e-05 -1.8743e-05 2.85914e-21
-3.67889e-05 -2.03488e-05 6.88517e-21
1.74014e-05 -2.75051e-05 3.66344e-21
2.28019e-05 -2.72141e-05 -1.21874e-22
-1.09434e-05 3.78458e-06 3.96388e-21
-1.98271e-05 -2.88375e-05 6.68538e-21
-3.48766e-05 -5.79088e-06 -8.48406e-21
-3.85212e-06 -3.17397e-05 -4.46319e-21
1.54462e-05 -3.16963e-05 -6.95641e-21
-9.10533e-06 -2.61971e-05 -1.04819e-20
4.58077e-06 3.14025e-05 -4.43084e-20
-1.5751e-05 -2.85194e-05 -1.71673e-20
2.93854e-06 -1.62908e-05 -9.40083e-21
-2.47371e-05 1.82582e-05 -2.21222e-20
-1.50294e-05 -1.211e-05 1.92534e-20
-2.73503e-05 -5.17197e-06 9.65884e-21
1.56667e-05 -9.18076e-06 1.71468e-21
-4.30654e-06 2.39504e-05 2.4824e-20
1.22315e-05 -9.32366e-06 3.28052e-21
-2.95832e-05 -1.3163e-05 -8.17392e-21
-8.83088e-06 -7.45742e-06 -2.29192e-21
9.08128e-06 7.54018e-06 -2.34522e-20
2.14249e-05 2.86982e-05 -2.02884e-20
-1.75073e-05 -1.08083e-05 7.43967e-21
-3.25032e-05 -7.51006e-07 3.66526e-21
-1.63353e-05 -5.01571e-06 2.50599e-20
-4.57773e-06 -1.65818e-05 -9.83678e-21
1.76831e-05 2.12373e-05 -3.17474e-21
-1.09564e-05 5.87423e-06 -2.28535e-20
6.35981e-07 -2.05535e-05 1.09082e-20
-4.1936e-05 1.08499e-05 -1.16394e-20
2.48583e-05 2.02446e-05 4.13668e-21
3.79413e-06 3.27825e-05 -1.18334e-20
-2.43176e-06 3.79687e-06 1.57958e-20
-9.05012e-06 2.51179e-07 -1.89598e-21
4.3547e-06 7.75942e-06 -9.10587e-21
-1.16929e-05 3.40117e-06 1.52753e-20
-2.07321e-06 -3.7846e-06 -1.20362e-20
1.65963e-06 2.07581e-05 -2.53343e-20
4.47201e-06 4.49663e-07 -8.3513e-21
-1.95364e-05 4.75623e-06 -2.58235e-21
-1.72969e-05 1.93563e-05 -5.16092e-20
-3.10718e-06 1.15772e-05 2.78432e-20
-2.92145e-05 1.83927e-05 -1.96878e-20
-9.34259e-06 8.97857e-06 -2.47537e-20
1.73097e-05 -1.16128e-05 -1.31092e-20
3.66011e-05 -3.5644e-06 1.40993e-20
-2.11389e-05 1.12964e-05 -1.15791e-20
2.23282e-06 4.49787e-06 1.3325e-20
2.17735e-05 -4.34454e-06 -9.73039e-21
-1.72774e-05 1.0352e-05 -1.20538e-20
-9.87095e-06 5.53857e-06 -4.13152e-21
1.18304e-05 3.74238e-06 5.72645e-21
2.1878e-05 -1.347e-05 -1.31192e-20
-1.73785e-05 9.95527e-06 -8.36612e-21
-2.50348e-05 -5.30259e-06 -1.46489e-20
-1.67603e-05 -4.36211e-06 3.28949e-20
9.87539e-06 6.23515e-09 5.35872e-21
1.0173e-05 1.95346e-07 -2.75261e-20
4.3904e-06 8.31647e-06 -2.10603e-20
4.82915e-06 -8.79703e-06 -4.25129e-21
-5.00993e-06 8.41913e-06 1.20059e-20
-5.26623e-06 -8.65688e-06 4.59143e-21
9.91018e-06 -7.40739e-06 -2.02111e-20
-2.03258e-05 3.23464e-06 2.1763e-20
-2.00582e-05 -3.28346e-06 -3.48673e-21
-1.28337e-05 1.58751e-05 -1.45698e-20
-1.29135e-05 -1.59295e-05 -8.43417e-22
7.48564e-06 -1.98421e-05 -2.80515e-20
7.20541e-06 1.97622e-05 3.20961e-21
1.55764e-06 2.58828e-05 -4.39234e-20
1.12395e-05 -3.13657e-06 -9.88475e-23
2.3597e-06 -3.8662e-06 -1.00402e-20
-2.14095e-05 1.42156e-06 2.53567e-21
7.67653e-06 -1.95114e-05 -1.66595e-20
7.27282e-06 1.96599e-05 1.46747e-20
4.7684e-06 -5.271e-08 -4.45166e-21
8.9674e-06 2.4401e-05 -2.49835e-20
-2.2421e-06 -4.01598e-06 2.36104e-20
2.31754e-06 -1.1316e-05 7.27321e-21
-2.24284e-05 -1.21504e-05 -4.03179e-21
-2.13561e-05 -1.14936e-05 8.08753e-21
-2.18906e-05 1.36273e-05 -2.1646e-21
3.25095e-06 -1.22865e-05 -2.28456e-20
-1.56519e-06 3.38164e-06 -1.6484e-20
-5.87314e-07 -2.55665e-05 -8.60694e-22
-7.71948e-06 -2.44203e-05 -2.87724e-20
3.27006e-05 3.03594e-05 -1.20426e-20
3.54495e-05 -1.81501e-06 -4.94826e-21
-1.27098e-05 -3.6318e-06 -1.26578e-20
-2.28901e-05 -4.13814e-05 4.56717e-21
8.30334e-06 1.37464e-05 -1.15645e-20
-2.5233e-05 3.03296e-06 -1.81929e-20
2.0063e-05 5.78578e-06 -1.16621e-20
-4.53263e-06 -3.27395e-08 9.08433e-21
-4.66469e-06 -8.41183e-06 -1.79443e-21
-7.07213e-06 -3.93284e-05 -3.38295e-20
-9.70728e-06 -8.39036e-08 2.35747e-20
-4.86686e-05 -1.81551e-06 -8.02961e-21
1.73068e-05 -1.91032e-05 1.03785e-20
2.42908e-06 3.99864e-06 -2.64257e-20
-1.20633e-07 -1.75117e-05 -1.30879e-20
-9.81734e-06 2.40811e-05 -4.75198e-20
-4.37156e-06 8.62643e-06 -2.28429e-20
2.05538e-05 -1.36045e-05 -1.04201e-20
-3.76545e-05 -1.35498e-05 1.06462e-20
-1.5264e-05 -2.03633e-05 -4.31464e-21
4.97648e-06 8.38807e-06 2.68895e-20
1.66291e-05 5.15995e-06 -1.32647e-20
-4.7633e-06 -7.33737e-06 -2.85005e-21
1.9794e-05 3.54674e-06 1.55287e-20
1.81861e-05 -9.82451e-06 -1.71697e-20
-3.48781e-07 2.71691e-05 -3.59377e-20
8.31923e-06 -1.36649e-05 -9.77888e-21
4.8797e-05 2.20028e-06 1.51161e-20
-4.23506e-05 1.14516e-05 -2.10123e-21
2.28565e-05 1.15544e-05 -1.25058e-20
-6.45195e-06 -1.71765e-05 6.18152e-21
-1.53475e-05 -8.61677e-06 1.88517e-20
2.87828e-05 -2.10513e-07 -6.36313e-21
-6.91873e-07 -2.4251e-05 -1.14724e-20
-1.26153e-05 -1.08723e-05 6.475e-21
1.02221e-05 -2.34957e-05 -1.26171e-20
-4.9653e-07 2.05519e-05 -2.36517e-20
7.91634e-06 2.60633e-05 -3.14939e-20
1.7265e-05 -9.88259e-06 1.12168e-21
-1.89447e-05 1.92952e-05 -2.03323e-20
1.65249e-05 2.0026e-05 -7.32385e-21
-6.22198e-05 1.60191e-05 -3.05193e-20
-1.01074e-05 2.60117e-05 -3.82967e-20
1.25168e-05 -1.52456e-05 -2.17742e-20
-7.02787e-06 -1.83946e-05 1.7465e-20
-1.18515e-05 4.50488e-06 -1.62754e-20
-2.58888e-05 -7.04455e-06 1.4273e-21
-6.385e-06 3.8851e-05 -4.76854e-20
-1.26037e-05 1.19004e-05 1.51622e-20
2.0773e-05 -4.47482e-06 6.32188e-21
-6.87126e-06 -2.57896e-05 -1.59795e-20
-1.48662e-05 2.38867e-05 -5.28358e-20
-2.17851e-05 1.25626e-05 -1.47101e-20
-2.05659e-05 -1.50527e-05 1.02994e-20
1.80255e-05 -2.06514e-05 -1.71012e-20
-2.75258e-05 -1.45599e-06 6.7921e-21
1.23649e-05 -4.08031e-05 1.03564e-20
1.93828e-05 -1.89098e-05 6.04842e-21
2.47282e-05 4.30743e-05 4.49653e-21
1.97077e-06 1.9863e-05 -4.26526e-21
2.96056e-06 -2.54167e-05 -8.61321e-21
-4.1629e-05 4.69536e-05 -1.75402e-20
-1.26999e-05 -2.44072e-05 -2.62243e-20
1.6364e-05 -6.41941e-06 -8.19456e-21
-2.41049e-06 2.57677e-05 -5.83704e-20
1.28807e-05 -1.18244e-05 -1.01718e-20
1.38781e-05 2.43087e-05 -8.94336e-21
1.72269e-05 -1.40025e-06 1.46325e-20
2.21161e-05 -6.32054e-05 2.46373e-20
-5.87509e-06 -1.28569e-05 3.12683e-21
-2.31802e-05 1.00853e-05 -1.35142e-20
-2.00164e-05 1.87157e-05 9.09706e-21
2.16085e-05 1.45651e-05 1.2451e-21
1.86693e-05 -1.07548e-05 -2.90403e-21
1.49493e-05 1.25912e-05 -1.13408e-20
-5.42718e-06 4.55028e-08 -2.92493e-20
1.54009e-05 -2.30832e-05 1.17919e-20
-1.69873e-05 -2.04055e-05 1.10328e-20
2.25579e-05 9.772e-06 -3.84322e-21
1.28044e-05 -1.19876e-05 -2.49779e-21
9.55223e-06 -2.48474e-05 -2.09747e-20
1.66563e-05 -6.93167e-06 -2.75547e-21
-1.58026e-05 -7.54329e-06 3.24277e-20
1.29661e-06 -2.62983e-05 4.71238e-21
-2.61021e-05 4.47228e-06 -3.38165e-20
2.38997e-06 2.45384e-05 -2.84205e-20
2.05813e-05 6.6263e-06 1.09097e-20
-2.17166e-05 -1.07e-05 -2.90129e-22
-8.97564e-06 2.56055e-05 -3.18068e-20
-1.49513e-06 -2.41837e-05 -6.74208e-21
1.9463e-05 1.18353e-05 -3.5534e-21
-1.76866e-06 1.80816e-05 -1.22336e-20
-2.01353e-05 1.37002e-05 -7.25321e-21
2.35068e-05 1.14132e-05 3.63009e-21
-1.71123e-05 -9.9839e-06 3.47163e-20
9.50816e-08 -1.98314e-05 -1.44622e-20
1.83792e-05 1.99809e-05 -8.9282e-21
-2.215e-05 -1.43012e-05 7.89926e-21
4.8343e-05 -3.39766e-05 1.43812e-20
1.7894e-05 -1.08207e-05 -3.97056e-21
9.00037e-06 4.30801e-05 8.45707e-21
1.70313e-05 -1.36764e-05 -1.24607e-20
-1.98719e-05 8.70216e-05 -1.17212e-20
-1.97621e-05 -8.65359e-05 -1.10904e-20
5.71753e-05 7.17064e-05 -1.19062e-20
5.69128e-05 -7.13803e-05 -5.82682e-21
9.06331e-05 -1.62135e-10 -3.53153e-20
-7.8189e-05 3.76319e-05 -1.02357e-20
-7.74434e-05 -3.72763e-05 -1.00557e-20
1.2232e-05 1.18169e-05 -7.18189e-22
2.93635e-05 2.18891e-05 -1.45455e-20
1.14464e-05 3.33232e-06 -1.94092e-20
1.88529e-05 9.75006e-06 -1.35273e-21
4.98848e-06 2.01672e-05 -7.91867e-21
-1.88291e-05 -1.49781e-05 2.13973e-21
1.70355e-05 -1.02127e-05 -2.25708e-21
1.98497e-05 1.45472e-05 6.96217e-21
-3.16649e-06 2.43605e-05 -4.15351e-20
2.94363e-05 -1.99899e-05 2.3874e-21
3.79334e-06 -2.37364e-05 1.20556e-20
2.19577e-05 5.2263e-06 -9.00368e-21
2.98915e-05 1.10244e-05 -2.33134e-21
1.42067e-05 1.41418e-05 -2.96259e-20
1.58809e-05 6.59275e-06 1.19439e-22
-1.84961e-05 1.0935e-05 -9.86649e-21
-2.25599e-05 9.03534e-06 1.17203e-21
2.29262e-05 -1.12619e-05 -1.08554e-20
-1.82653e-05 -9.99659e-06 1.00123e-20
-1.85518e-05 -1.05809e-05 6.38949e-21
-3.43814e-07 -2.07648e-05 -1.49678e-20
-8.61471e-08 -2.11578e-05 -1.14475e-20
-2.01242e-05 -1.00534e-06 3.78713e-21
2.66953e-05 -4.01861e-06 -9.59152e-21
1.81095e-05 1.13406e-05 -2.70338e-20
-1.78618e-05 1.09435e-05 1.25631e-21
-1.53593e-05 1.66214e-05 -6.61413e-21
1.60199e-05 -1.37513e-05 3.10893e-21
-1.1022e-05 1.7461e-05 -5.42561e-20
-1.4223e-05 -1.48876e-05 -7.54456e-21
-1.1551e-06 2.12077e-05 -2.3608e-20
-1.28751e-06 2.09654e-05 -1.73926e-20
8.9703e-08 -1.98313e-05 1.03682e-21
6.10999e-06 -1.97347e-05 -2.75334e-20
-1.71386e-05 -9.93415e-06 1.45373e-20
1.55847e-05 -5.48955e-06 4.21124e-21
6.63065e-07 2.1475e-05 -8.96824e-21
3.00795e-07 1.85051e-05 -2.06289e-20
-2.34545e-06 1.68551e-05 -1.20135e-20
2.19059e-05 -5.52669e-06 -3.10471e-21
-1.65392e-05 5.37736e-06 -2.55777e-20
4.15691e-06 2.15147e-05 -2.44669e-20
-3.25542e-05 1.29176e-05 -2.5581e-21
9.76204e-06 4.17261e-05 1.34799e-20
-1.70513e-05 4.56755e-06 -1.65998e-20
1.96819e-05 -1.16286e-05 -9.69849e-22
9.45642e-07 2.10168e-05 -2.42871e-20
-2.04786e-05 6.69857e-06 -1.0404e-20
2.44378e-06 -1.62604e-05 -3.88415e-21
1.81883e-06 -5.80053e-05 -5.81682e-21
2.00621e-06 1.74841e-05 -8.14182e-21
-1.69599e-05 1.40208e-05 1.01984e-21
1.78518e-05 6.39638e-05 2.75216e-20
4.57636e-05 3.77021e-05 1.99358e-20
5.20585e-05 -3.52513e-05 -2.56765e-20
1.48136e-05 -1.01659e-05 7.26228e-21
-1.57836e-05 1.40359e-05 -1.93128e-20
-2.02144e-05 -7.91974e-06 1.71364e-20
-1.96433e-05 -6.82158e-06 3.27236e-21
5.92599e-05 -2.4609e-05 3.08015e-21
5.74268e-05 2.38681e-05 2.66582e-20
1.08932e-05 3.81702e-06 5.16283e-22
7.66536e-07 1.9577e-05 -1.89554e-20
7.83418e-08 1.95584e-05 -1.81802e-20
-4.83772e-05 -3.69142e-05 8.45768e-21
1.14238e-05 -1.71699e-05 3.04134e-21
1.17319e-05 1.24632e-05 -2.62571e-21
-2.14156e-05 -3.39535e-06 3.11726e-20
-1.40434e-05 1.72001e-05 -2.15271e-20
-1.88864e-05 9.16669e-06 -3.59554e-22
4.76378e-05 3.36905e-05 -2.12673e-20
1.58046e-05 7.06085e-06 7.47784e-21
-5.56613e-06 2.00281e-05 -3.76021e-20
-1.69761e-05 -1.17479e-05 3.2572e-21
1.85603e-06 -2.05406e-05 -1.53874e-20
-8.94872e-06 -1.92651e-05 2.1384e-20
-1.72472e-05 -1.17722e-05 8.82299e-21
1.05784e-05 -1.89337e-05 -7.19713e-21
1.41209e-05 -1.69874e-05 1.5418e-20
-2.44016e-06 -6.14305e-05 -1.23079e-20
2.61773e-05 -4.11211e-05 -4.74574e-21
1.74729e-06 -2.07833e-05 1.102e-21
1.79567e-05 1.13542e-05 -2.34479e-20
-1.44748e-05 -1.49037e-05 5.7095e-21
-9.84001e-06 1.97079e-05 -5.28525e-20
-5.03888e-06 2.10044e-05 -3.36131e-20
1.66254e-05 1.42422e-05 -3.8896e-21
6.05833e-06 -1.98593e-05 -1.60783e-20
-1.34051e-05 -4.03535e-05 3.55521e-21
-1.98817e-06 2.50378e-05 -1.74029e-20
1.47903e-05 1.44536e-05 3.9569e-21
-1.29569e-05 -1.02156e-05 1.11607e-20
-1.35136e-05 1.06071e-05 -2.44017e-21
4.43381e-05 -1.89112e-05 4.82092e-21
7.56223e-06 -1.33988e-05 -8.31186e-21
-8.31629e-06 -1.26256e-05 8.42039e-21
2.13282e-05 6.36279e-06 -1.19298e-21
1.09932e-05 -5.06566e-05 -4.20662e-20
-3.84474e-05 -3.48993e-05 6.6242e-22
2.33043e-05 6.20674e-06 -1.14781e-20
-9.32727e-06 -1.82792e-05 -1.46119e-20
1.87037e-05 9.4818e-06 2.08546e-21
-2.85615e-05 -3.25478e-05 6.35554e-21
9.68716e-06 5.00416e-05 -8.89819e-21
3.43306e-05 -5.98535e-05 -3.86317e-20
-3.47335e-05 -5.97703e-05 4.75333e-21
2.78054e-05 -5.20168e-05 2.51951e-20
-1.26968e-05 4.36286e-05 1.60769e-21
-6.27542e-06 3.89734e-05 -3.42597e-20
-1.87288e-05 8.94495e-06 5.14591e-21
5.97658e-06 2.42397e-05 -5.3524e-21
-2.39133e-06 1.26527e-05 -1.61178e-20
1.01191e-05 3.2328e-06 -5.05375e-21
-3.18815e-06 1.62038e-05 -1.33084e-20
-2.47435e-07 2.09895e-05 -2.69162e-20
1.66589e-05 9.74957e-06 1.68141e-20
1.70995e-06 5.77182e-05 -8.86877e-21
-1.47157e-05 1.07315e-05 4.99644e-21
1.59478e-05 -6.24596e-06 -2.66514e-21
1.68701e-05 -4.5085e-06 -1.59359e-20
-6.06561e-05 -8.76791e-06 6.19759e-21
-3.46021e-05 1.67397e-05 -3.69873e-20
-4.351e-05 -5.25406e-05 1.23161e-20
8.65561e-06 8.34481e-06 -3.61579e-20
1.42084e-05 7.29178e-06 -3.85064e-20
2.68019e-05 -4.19542e-06 1.75107e-21
-8.10353e-06 -1.32414e-05 -2.74606e-21
1.72148e-05 8.42773e-06 9.89224e-21
7.33455e-06 -3.00314e-05 -3.51165e-20
-1.37122e-05 1.02039e-05 -2.60087e-21
-2.2372e-05 -2.142e-05 -5.82772e-21
-5.83536e-06 1.6296e-05 -2.40792e-20
-3.27066e-06 2.06763e-05 -2.58239e-20
3.38462e-05 2.12942e-05 1.75138e-20
3.61094e-05 -1.92808e-05 -2.85739e-20
-4.20658e-05 -1.16217e-05 -3.07136e-21
7.63337e-06 7.68492e-06 -3.62873e-20
-4.05821e-06 0.00010135 -8.60229e-21
8.61559e-07 -0.000104456 -1.34305e-20
5.24486e-05 8.76355e-05 -1.43291e-20
-1.91009e-05 8.45698e-06 -1.73492e-20
-2.63738e-05 5.65433e-05 -2.74561e-20
5.30267e-05 -8.46304e-05 1.50715e-20
-1.17192e-05 -1.82804e-05 -1.95754e-21
7.79916e-05 6.74904e-05 -1.24137e-20
2.3991e-05 -1.79749e-05 -4.23124e-20
-3.60705e-06 -2.98189e-05 9.78374e-21
8.17698e-05 -6.58432e-05 -1.27783e-21
-6.7439e-06 1.45167e-05 -4.66352e-20
-5.38261e-05 -3.48199e-05 -3.54338e-21
-4.30086e-05 -9.31193e-05 -3.77349e-21
-2.411e-05 -5.77978e-05 -4.10515e-21
-4.39701e-05 9.41263e-05 -1.68711e-20
-1.00922e-05 6.40768e-05 -2.55665e-20
1.5631e-05 3.71042e-05 2.30039e-21
-2.79523e-05 3.72363e-05 -1.15618e-20
-2.52702e-05 -5.51771e-05 -2.48058e-20
0.000100355 1.7315e-05 -1.73956e-20
-1.69256e-05 1.07658e-05 9.14464e-21
-5.9117e-06 1.63312e-05 -2.54149e-20
-5.07523e-05 3.76353e-05 3.85473e-21
-1.72743e-05 9.94302e-06 2.3283e-21
9.91918e-05 -1.52617e-05 -2.41692e-20
-1.53585e-05 7.79783e-06 -4.93311e-21
7.19181e-06 -1.44933e-05 -3.30674e-20
-7.79607e-05 -6.09412e-05 9.81313e-21
-2.58761e-05 5.77107e-05 -4.38151e-20
-7.91137e-05 6.03686e-05 -5.16319e-21
2.45374e-05 5.19445e-05 -8.43949e-21
-1.47659e-05 1.05812e-05 6.60533e-21
-2.05276e-05 2.44739e-05 1.42214e-21
-2.85295e-05 4.98123e-05 -1.83193e-20
-5.67697e-05 2.07964e-07 -2.76871e-20
-9.4401e-07 1.62943e-05 -7.7656e-21
-2.88464e-05 -5.04008e-05 -2.54904e-20
-5.81919e-05 -2.19773e-07 -3.40226e-20
-2.83464e-05 4.86908e-05 -2.89504e-20
-1.51886e-05 6.62587e-05 -2.56016e-20
-1.78629e-05 4.12559e-05 -3.84767e-20
-3.38965e-05 2.71343e-05 -1.18461e-20
2.43802e-05 -6.05627e-06 -1.94664e-21
3.79985e-05 -2.19507e-06 -1.71009e-20
1.34808e-05 8.1994e-06 -3.04911e-20
-1.0468e-05 -7.39794e-05 -5.1605e-20
-6.94412e-05 -2.79711e-05 -2.21346e-20
3.71281e-05 7.32659e-07 -1.13653e-20
5.83596e-05 -1.0891e-05 -2.06637e-20
-1.05825e-05 -1.34956e-05 -9.30018e-21
-5.08231e-05 3.76211e-05 -7.50605e-21
-4.61285e-05 5.39939e-05 -1.61296e-20
6.23557e-05 -2.223e-05 4.89217e-21
-2.81742e-05 -5.04914e-05 -2.11148e-20
-2.87739e-05 4.9774e-05 -2.7842e-20
-5.7248e-05 -1.17102e-06 -3.213e-20
-2.65704e-05 5.05921e-05 -1.246e-20
-5.79467e-05 -8.16924e-07 -1.88147e-20
6.60688e-05 1.73905e-05 4.0151e-21
5.63739e-05 1.29235e-06 1.76639e-20
5.08945e-05 -2.92706e-05 9.68907e-22
2.49074e-05 -5.94205e-05 -2.08268e-20
2.99152e-05 -4.88513e-05 -3.69512e-20
2.91642e-05 4.86753e-05 -1.74359e-20
2.43423e-05 5.80829e-05 7.94987e-21
7.57939e-05 -2.00353e-05 1.2342e-21
4.62612e-05 2.906e-05 1.4507e-20
4.66191e-05 1.3744e-05 -1.19471e-20
TENSORS solid_stress_TPM float
375.027 -24.9202 1.51109e-12
-24.9202 238.567 3.58469e-12
1.51109e-12 3.58469e-12 197.815

456.997 -21.3202 -3.7248e-12
-21.3202 489.98 8.54724e-13
-3.7248e-12 8.54724e-13 487.104

454.872 28.0428 -1.09838e-12
28.0428 463.701 -2.40519e-12
-1.09838e-12 -2.40519e-12 458.452

455.021 -29.8427 -5.44098e-12
-29.8427 482.602 -2.05125e-12
-5.44098e-12 -2.05125e-12 484.85

527.681 19.931 3.49646e-12
19.931 548.452 -5.53742e-12
3.49646e-12 -5.53742e-12 527.352

437.304 -18.0741 -1.83364e-12
-18.0741 480.331 7.22385e-14
-1.83364e-12 7.22385e-14 458.033

372.322 26.4843 2.81849e-12
26.4843 239.087 -3.94351e-13
2.81849e-12 -3.94351e-13 197.799

473.645 29.9576 -1.36779e-13
29.9576 469.494 -6.92483e-13
-1.36779e-13 -6.92483e-13 472.33

471.541 5.48306 3.31587e-14
5.48306 417.816 1.17195e-12
3.31587e-14 1.17195e-12 432.788

504.252 -7.47756 -3.29337e-12
-7.47756 444.105 2.25449e-13
-3.29337e-12 2.25449e-13 483.445

360.287 16.3082 -2.68585e-12
16.3082 247.652 6.94615e-12
-2.68585e-12 6.94615e-12 233.641

444.775 -13.453 -1.65571e-12
-13.453 498.378 1.04509e-12
-1.65571e-12 1.04509e-12 472.232

466.86 27.8328 -1.10016e-12
27.8328 468.294 -2.44841e-12
-1.10016e-12 -2.44841e-12 466.727

457.03 -14.3399 -2.58599e-12
-14.3399 500.426 -3.73568e-12
-2.58599e-12 -3.73568e-12 483.451

512.931 33.3116 2.24413e-13
33.3116 511.591 6.36856e-13
2.24413e-13 6.36856e-13 515.22

489.164 0.560955 2.61006e-12
0.560955 435.516 2.94453e-12
2.61006e-12 2.94453e-12 462.265

457.577 -17.9692 5.57637e-13
-17.9692 512.879 2.73766e-12
5.57637e-13 2.73766e-12 493.59

493.95 -2.6652 -1.42405e-13
-2.6652 439.041 -4.54244e-12
-1.42405e-13 -4.54244e-12 474.257

418.785 26.6732 8.92915e-13
26.6732 449.652 -1.91077e-12
8.92915e-13 -1.91077e-12 424.046

481.973 -4.19549 -1.48148e-12
-4.19549 424.914 7.00699e-13
-1.48148e-12 7.00699e-13 453.467

425.289 8.6684 -1.84919e-12
8.6684 481.895 7.18832e-13
-1.84919e-12 7.18832e-13 444.834

634.128 6.28788 1.9679e-12
6.28788 633.962 -1.48725e-12
1.9679e-12 -1.48725e-12 570.314

479.144 1.87596 -2.97421e-12
1.87596 422.933 1.19704e-12
-2.97421e-12 1.19704e-12 449.725

447.155 -27.7147 1.07174e-13
-27.7147 461.142 -3.2229e-12
1.07174e-13 -3.2229e-12 452.94

481.041 6.84928 3.55271e-14
6.84928 425.433 -3.35983e-12
3.55271e-14 -3.35983e-12 452.931

449.751 19.1127 8.46952e-13
19.1127 490.31 1.6751e-12
8.46952e-13 1.6751e-12 478.199

377.648 4.18128 -9.33179e-13
4.18128 291.65 -1.33582e-12
-9.33179e-13 -1.33582e-12 258.998

462.677 30.7454 -2.22874e-12
30.7454 460.707 2.78592e-13
-2.22874e-12 2.78592e-13 460.538

384.934 37.0736 5.42736e-12
37.0736 383.513 4.8909e-13
5.42736e-12 4.8909e-13 348.412

586.939 10.3235 -6.206e-12
10.3235 563.447 -3.22916e-12
-6.206e-12 -3.22916e-12 546.868

491.679 14.2168 2.36019e-12
14.2168 442.49 1.56364e-12
2.36019e-12 1.56364e-12 465.848

352.849 -17.78 2.22045e-14
-17.78 416.716 -2.65032e-12
2.22045e-14 -2.65032e-12 348.583

331.012 -42.1009 -4.46695e-12
-42.1009 335.867 1.7882e-12
-4.46695e-12 1.7882e-12 253.478

531.405 5.98692 -3.81423e-12
5.98692 586.885 1.49125e-12
-3.81423e-12 1.49125e-12 538.577

554.019 -4.84094 2.4869e-12
-4.84094 582.067 4.99452e-13
2.4869e-12 4.99452e-13 542.507

577.983 21.0279 -8.68698e-12
21.0279 539.943 1.38245e-12
-8.68698e-12 1.38245e-12 538.345

556.181 5.06775 1.26314e-12
5.06775 600.671 2.47654e-12
1.26314e-12 2.47654e-12 547.964

573.77 -9.16984 -5.19496e-12
-9.16984 555.76 2.04827e-12
-5.19496e-12 2.04827e-12 540.633

467.12 -27.9978 -2.50229e-12
-27.9978 466.483 -1.37668e-12
-2.50229e-12 -1.37668e-12 465.1

330.396 41.5202 -3.55982e-12
41.5202 337.965 2.10794e-13
-3.55982e-12 2.10794e-13 253.837

414.517 -17.9487 -3.606e-12
-17.9487 354.481 1.82965e-12
-3.606e-12 1.82965e-12 346.314

559.302 -3.70627 5.44113e-12
-3.70627 599.921 1.09216e-12
5.44113e-12 1.09216e-12 548.379

586.409 19.5559 2.22452e-12
19.5559 572.451 -2.60532e-13
2.22452e-12 -2.60532e-13 548.168

490.884 -12.2732 -3.8772e-12
-12.2732 442.845 -1.39844e-12
-3.8772e-12 -1.39844e-12 466.521

341.702 -43.298 -2.04518e-12
-43.298 345.33 -1.70293e-12
-2.04518e-12 -1.70293e-12 288.97

417.543 -18.063 2.73796e-12
-18.063 357.098 8.81665e-13
2.73796e-12 8.81665e-13 351.487

412.998 17.0853 -3.17302e-12
17.0853 464.766 1.88886e-12
-3.17302e-12 1.88886e-12 428.711

429.613 19.3386 -3.15747e-12
19.3386 466.496 -2.76934e-12
-3.15747e-12 -2.76934e-12 437.064

486.764 -16.3008 -3.93108e-12
-16.3008 432.859 -1.6076e-13
-3.93108e-12 -1.6076e-13 458.662

355.567 -34.1845 3.13705e-12
-34.1845 389.386 -4.82932e-12
3.13705e-12 -4.82932e-12 332.555

410.236 19.1813 -1.80123e-12
19.1813 350.688 2.00373e-12
-1.80123e-12 2.00373e-12 339.463

425.184 -25.2877 -4.06194e-13
-25.2877 383.806 -1.69316e-12
-4.06194e-13 -1.69316e-12 373.062

519.909 19.486 2.35678e-12
19.486 547.519 -2.74506e-12
2.35678e-12 -2.74506e-12 525.718

416.396 29.6486 -3.75403e-12
29.6486 393.87 1.11318e-13
-3.75403e-12 1.11318e-13 373.926

522.163 -21.8128 -9.35548e-14
-21.8128 541.385 1.55189e-12
-9.35548e-14 1.55189e-12 524.365

364.057 -42.7102 -7.95808e-13
-42.7102 343.269 6.64002e-12
-7.95808e-13 6.64002e-12 289.688

553.441 5.45995 7.66202e-13
5.45995 583.86 -6.3558e-12
7.66202e-13 -6.3558e-12 542.881

373.702 -5.32964 3.52755e-12
-5.32964 436.646 -1.80478e-12
3.52755e-12 -1.80478e-12 373.81

580.809 10.3842 -5.94665e-12
10.3842 556.16 -2.16677e-12
-5.94665e-12 -2.16677e-12 542.638

435.041 21.4126 -3.48551e-12
21.4126 473.745 3.0127e-12
-3.48551e-12 3.0127e-12 454.657

513.559 5.75377 -3.89126e-12
5.75377 452.792 -2.52554e-12
-3.89126e-12 -2.52554e-12 494.852

522.445 11.4589 -2.80265e-12
11.4589 487.849 4.68662e-13
-2.80265e-12 4.68662e-13 507.066

383.693 31.8192 1.41161e-12
31.8192 315.183 9.00021e-13
1.41161e-12 9.00021e-13 269.861

482.075 -6.03502 -2.52198e-12
-6.03502 528.168 -1.01726e-12
-2.52198e-12 -1.01726e-12 504.088

487.084 9.51961 5.51855e-12
9.51961 523.677 -8.77816e-13
5.51855e-12 -8.77816e-13 507.484

456.446 -2.8807 1.81429e-12
-2.8807 520.144 -3.23593e-12
1.81429e-12 -3.23593e-12 487.795

464.442 23.4021 1.64417e-12
23.4021 503.457 -2.15709e-12
1.64417e-12 -2.15709e-12 495.428

496.734 8.4634 -8.05578e-13
8.4634 444.385 1.03932e-12
-8.05578e-13 1.03932e-12 477.685

445.494 -28.2388 -5.0037e-12
-28.2388 459.515 -1.47556e-12
-5.0037e-12 -1.47556e-12 451.154

501.668 -1.71119 -1.0365e-12
-1.71119 444.903 6.09364e-13
-1.0365e-12 6.09364e-13 489.056

519.522 -19.262 2.6259e-12
-19.262 546.812 -3.87542e-13
2.6259e-12 -3.87542e-13 525.451

523.292 21.3078 6.42449e-14
21.3078 542.91 -1.83988e-12
6.42449e-14 -1.83988e-12 525.254

353.399 -16.583 2.36848e-14
-16.583 415.723 1.90662e-12
2.36848e-14 1.90662e-12 346.102

506.009 -27.9359 5.57184e-13
-27.9359 485.298 9.99793e-13
5.57184e-13 9.99793e-13 493.868

449.707 -25.1342 -2.60799e-12
-25.1342 471.207 2.25005e-12
-2.60799e-12 2.25005e-12 458.565

357.86 -31.7098 2.04163e-12
-31.7098 285.669 1.95903e-12
2.04163e-12 1.95903e-12 249.851

498.489 3.22256 -9.49759e-13
3.22256 541.394 -3.46686e-12
-9.49759e-13 -3.46686e-12 513.631

501.714 28.9436 -1.41102e-12
28.9436 474.538 4.959e-13
-1.41102e-12 4.959e-13 487.646

448.432 19.664 -1.41206e-12
19.664 492.095 -1.21266e-12
-1.41206e-12 -1.21266e-12 477.631

440.18 7.99932 -1.85689e-12
7.99932 373.027 -9.32587e-14
-1.85689e-12 -9.32587e-14 382.924

386.44 -33.9347 1.1795e-12
-33.9347 360.196 -6.80937e-12
1.1795e-12 -6.80937e-12 319.426

537.711 -10.5876 3.16192e-13
-10.5876 556.129 1.615e-12
3.16192e-13 1.615e-12 531.239

482.645 23.8994 3.09382e-13
23.8994 504.548 3.82587e-13
3.09382e-13 3.82587e-13 502.031

385.361 -32.3829 2.83625e-12
-32.3829 345.297 -7.49623e-13
2.83625e-12 -7.49623e-13 317.072

422.186 10.7908 -1.48977e-12
10.7908 363.841 -1.74971e-13
-1.48977e-12 -1.74971e-13 350.243

307.644 -21.2054 9.27465e-12
-21.2054 388.432 7.39675e-12
9.27465e-12 7.39675e-12 288.107

434.433 14.4254 1.19941e-12
14.4254 488.656 3.81798e-12
1.19941e-12 3.81798e-12 460.872

509.71 23.1426 3.0056e-12
23.1426 475.161 -1.72543e-12
3.0056e-12 -1.72543e-12 489.935

338.232 42.1976 -2.52124e-12
42.1976 349.562 -9.0831e-13
-2.52124e-12 -9.0831e-13 288.943

634.213 16.5073 -2.13947e-12
16.5073 603.065 -5.18992e-13
-2.13947e-12 -5.18992e-13 565.318

372.879 -4.10823 -3.42097e-12
-4.10823 436.806 4.85538e-14
-3.42097e-12 4.85538e-14 373.417

637.119 -16.6324 1.81869e-12
-16.6324 599.535 -5.79329e-12
1.81869e-12 -5.79329e-12 564.825

533.929 -27.335 -1.49806e-13
-27.335 507.229 2.83329e-13
-1.49806e-13 2.83329e-13 515.704

505.285 27.4244 5.45934e-13
27.4244 466.324 1.97709e-12
5.45934e-13 1.97709e-12 485.061

426.914 -24.4099 5.41197e-13
-24.4099 386.229 1.71685e-12
5.41197e-13 1.71685e-12 375.968

358.927 31.3223 -6.11955e-12
31.3223 395.994 -3.47219e-12
-6.11955e-12 -3.47219e-12 339.192

339.816 -10.7048 2.19084e-14
-10.7048 408.381 1.77636e-13
2.19084e-14 1.77636e-13 319.097

453.093 21.9706 -1.54943e-12
21.9706 494.667 -6.47186e-13
-1.54943e-12 -6.47186e-13 483.157

533.104 16.7939 2.40696e-13
16.7939 506.189 -8.78112e-13
2.40696e-13 -8.78112e-13 513.343

443.442 15.1536 -1.73817e-12
15.1536 488.429 1.87465e-12
-1.73817e-12 1.87465e-12 464.272

451.47 15.9535 -1.16884e-12
15.9535 400.527 -1.92276e-12
-1.16884e-12 -1.92276e-12 403.737

374.479 -21.4719 9.41469e-14
-21.4719 419.857 9.9476e-14
9.41469e-14 9.9476e-14 357.188

389.713 -29.3898 7.1149e-12
-29.3898 342.362 1.6301e-12
7.1149e-12 1.6301e-12 314.383

454.955 -24.5727 -7.00876e-12
-24.5727 480.054 2.27048e-12
-7.00876e-12 2.27048e-12 478.36

466.416 27.4506 3.38278e-12
27.4506 478.733 -2.70894e-13
3.38278e-12 -2.70894e-13 479.8

452.206 23.1875 -1.60671e-12
23.1875 492.548 -1.93031e-12
-1.60671e-12 -1.93031e-12 482.033

466.287 13.1692 -2.16723e-12
13.1692 529.767 -3.22231e-12
-2.16723e-12 -3.22231e-12 501.374

490.851 9.37216 -8.98244e-13
9.37216 437.879 2.0061e-12
-8.98244e-13 2.0061e-12 462.046

327.704 -4.66494 1.75652e-12
-4.66494 403.372 -6.20778e-12
1.75652e-12 -6.20778e-12 314.404

462.569 -36.8335 -2.04222e-12
-36.8335 487.68 3.56648e-12
-2.04222e-12 3.56648e-12 492.739

445.84 27.4647 1.83409e-12
27.4647 463.26 -2.80842e-12
1.83409e-12 -2.80842e-12 455.005

305.665 2.17029 -3.5089e-12
2.17029 393.351 3.0956e-12
-3.5089e-12 3.0956e-12 297.249

385.988 34.6094 -7.74492e-13
34.6094 332.441 1.19667e-12
-7.74492e-13 1.19667e-12 306.238

453.341 -22.9736 8.07798e-13
-22.9736 480.06 3.60512e-12
8.07798e-13 3.60512e-12 476.163

501.384 5.73297 1.33493e-12
5.73297 441.305 2.27248e-12
1.33493e-12 2.27248e-12 481

422.371 27.2033 -3.1406e-12
27.2033 389.758 -1.66622e-12
-3.1406e-12 -1.66622e-12 374.226

570.536 12.7456 -3.26924e-12
12.7456 565.912 9.53904e-13
-3.26924e-12 9.53904e-13 542.909

396.169 24.3298 1.97768e-12
24.3298 349.641 6.63173e-14
1.97768e-12 6.63173e-14 319.037

569.158 -13.0551 4.14306e-12
-13.0551 565.824 8.36368e-13
4.14306e-12 8.36368e-13 542.365

375.083 0.778508 9.08607e-13
0.778508 438.859 -1.91847e-12
9.08607e-13 -1.91847e-12 374.632

461.461 -2.23526 -9.05942e-13
-2.23526 399.294 -1.03795e-12
-9.05942e-13 -1.03795e-12 417.273

538.188 -15.7682 -3.03727e-12
-15.7682 480.623 -1.00157e-12
-3.03727e-12 -1.00157e-12 513.47

457.235 24.3881 -9.47437e-13
24.3881 487.775 5.62513e-13
-9.47437e-13 5.62513e-13 488.345

461.247 -13.5349 -1.26354e-12
-13.5349 519.127 -2.39453e-12
-1.26354e-12 -2.39453e-12 495.706

514.96 -8.00006 -1.014e-13
-8.00006 438.182 -1.87095e-12
-1.014e-13 -1.87095e-12 494.268

488.307 -22.2843 -4.44267e-12
-22.2843 541.595 -9.31403e-13
-4.44267e-12 -9.31403e-13 515.742

556.045 -6.59627 4.09154e-13
-6.59627 560.389 -1.69524e-12
4.09154e-13 -1.69524e-12 538.722

463.857 -29.9081 -1.54869e-12
-29.9081 483.186 2.75039e-12
-1.54869e-12 2.75039e-12 483.591

341.7 11.4533 2.2687e-12
11.4533 406.185 3.13823e-12
2.2687e-12 3.13823e-12 319.476

422.472 -28.1457 2.9902e-12
-28.1457 391.234 -1.4353e-12
2.9902e-12 -1.4353e-12 375.139

507.375 -13.7724 7.89739e-12
-13.7724 558.742 -3.50949e-12
7.89739e-12 -3.50949e-12 525.244

501.047 0.504362 -1.16041e-12
0.504362 441.27 2.62649e-12
-1.16041e-12 2.62649e-12 487.077

476.934 -21.5246 -1.40628e-14
-21.5246 507.413 -3.60304e-13
-1.40628e-14 -3.60304e-13 501.496

459.088 25.6976 -3.80732e-13
25.6976 484.591 2.4161e-12
-3.80732e-13 2.4161e-12 487.972

394.421 -31.4635 1.06463e-12
-31.4635 400.59 -1.77754e-12
1.06463e-12 -1.77754e-12 357.513

552.121 -7.08531 -1.65571e-12
-7.08531 585.29 -7.67386e-13
-1.65571e-12 -7.67386e-13 542.596

347.202 -33.0759 -2.65388e-12
-33.0759 382.599 3.23534e-12
-2.65388e-12 3.23534e-12 303.428

490.86 -19.1793 -5.39716e-12
-19.1793 448.379 4.61912e-12
-5.39716e-12 4.61912e-12 467.115

519.7 1.97014 -7.97288e-13
1.97014 466.806 3.97934e-12
-7.97288e-13 3.97934e-12 502.823

570.554 17.8752 -1.8856e-12
17.8752 566.475 -4.59129e-12
-1.8856e-12 -4.59129e-12 542.369

375.282 20.1822 -7.51932e-12
20.1822 424.022 -1.87583e-12
-7.51932e-12 -1.87583e-12 360.213

489.072 27.2101 1.54306e-12
27.2101 468.53 -1.06641e-12
1.54306e-12 -1.06641e-12 476.63

454.369 -24.511 7.63833e-13
-24.511 415.333 -6.03488e-12
7.63833e-13 -6.03488e-12 418.593

454.709 -17.8384 -1.71059e-12
-17.8384 494.897 -6.77384e-13
-1.71059e-12 -6.77384e-13 482.632

379.19 35.0672 2.60769e-12
35.0672 366.022 7.10543e-14
2.60769e-12 7.10543e-14 317.041

449.143 -21.8309 1.39873e-12
-21.8309 491.694 -3.51127e-12
1.39873e-12 -3.51127e-12 479.764

485.481 30.8501 3.22409e-12
30.8501 465.127 -1.57415e-12
3.22409e-12 -1.57415e-12 473.437

480.312 -25.2436 -6.27646e-13
-25.2436 442.358 6.93963e-13
-6.27646e-13 6.93963e-13 455.433

448.208 -25.1259 -1.2174e-12
-25.1259 469.757 -3.44199e-12
-1.2174e-12 -3.44199e-12 458.086

445.334 -18.6876 -2.69059e-12
-18.6876 393.452 -3.85055e-12
-2.69059e-12 -3.85055e-12 397.248

470.642 -18.8491 4.31892e-12
-18.8491 422.843 -4.46991e-12
4.31892e-12 -4.46991e-12 437.522

458.988 -25.3369 5.53631e-14
-25.3369 485.418 -1.89045e-12
5.53631e-14 -1.89045e-12 488.815

386.532 35.9682 4.91459e-13
35.9682 381.978 1.6982e-12
4.91459e-13 1.6982e-12 348.107

444.485 15.3764 1.16795e-12
15.3764 491.521 3.69245e-12
1.16795e-12 3.69245e-12 467.129

469.385 26.4218 -8.19493e-13
26.4218 479.947 6.39488e-14
-8.19493e-13 6.39488e-14 482.536

456.131 25.4736 -3.50432e-12
25.4736 486.635 -1.44832e-12
-3.50432e-12 -1.44832e-12 487.235

457.796 11.6213 9.77528e-14
11.6213 506.928 6.72647e-13
9.77528e-14 6.72647e-13 486.004

431.939 -8.22673 2.47861e-12
-8.22673 370.745 -4.37606e-12
2.47861e-12 -4.37606e-12 363.297

376.769 18.6058 2.37854e-12
18.6058 427.254 2.27374e-12
2.37854e-12 2.27374e-12 363.873

452.301 -24.3801 2.70302e-13
-24.3801 478.373 -8.91139e-13
2.70302e-13 -8.91139e-13 470.7

440.735 25.6652 3.84877e-14
25.6652 455.628 -3.0352e-12
3.84877e-14 -3.0352e-12 437.794

390.945 -35.6281 1.57859e-12
-35.6281 380.266 -1.66504e-12
1.57859e-12 -1.66504e-12 350.081

368.931 38.3154 -6.65542e-13
38.3154 327.243 3.09086e-12
-6.65542e-13 3.09086e-12 295.674

363.636 -33.3099 8.31927e-13
-33.3099 394.424 -8.82257e-13
8.31927e-13 -8.82257e-13 341.969

397.919 -31.1585 -3.426e-12
-31.1585 404.181 6.60805e-13
-3.426e-12 6.60805e-13 362.963

502.844 -6.83866 1.91254e-13
-6.83866 442.237 1.78161e-12
1.91254e-13 1.78161e-12 482.305

393.152 30.3407 3.06007e-12
30.3407 408.966 3.6818e-12
3.06007e-12 3.6818e-12 363.422

429.688 13.2942 1.6828e-12
13.2942 372.236 2.68111e-12
1.6828e-12 2.68111e-12 362.702

350.133 13.3784 -1.04805e-13
13.3784 418.501 4.33668e-12
-1.04805e-13 4.33668e-12 348.464

379.467 -22.3396 -2.62782e-12
-22.3396 423.5 -7.62649e-12
-2.62782e-12 -7.62649e-12 363.437

491.196 -1.09143 1.75223e-12
-1.09143 550.867 2.5846e-12
1.75223e-12 2.5846e-12 516.295

372.852 2.24652 2.23525e-12
2.24652 437.773 -7.81597e-14
2.23525e-12 -7.81597e-14 373.508

357.879 31.0882 2.78059e-12
31.0882 399.474 1.57504e-13
2.78059e-12 1.57504e-13 341.95

457.978 12.1077 8.51615e-13
12.1077 510.548 3.28034e-13
8.51615e-13 3.28034e-13 488.391

421.439 -27.6467 -1.72425e-12
-27.6467 389.06 7.67978e-13
-1.72425e-12 7.67978e-13 375.06

524.745 20.5569 -2.5097e-12
20.5569 469.738 -2.10646e-12
-2.5097e-12 -2.10646e-12 500.723

534.914 26.2704 3.71022e-12
26.2704 506.849 3.58365e-12
3.71022e-12 3.58365e-12 516.083

494.804 -18.5672 -1.48267e-12
-18.5672 449.014 8.19197e-13
-1.48267e-12 8.19197e-13 470.844

554.574 -1.80093 -4.67137e-12
-1.80093 516.013 8.17716e-13
-4.67137e-12 8.17716e-13 525.706

473.275 -31.8115 -2.40104e-13
-31.8115 475.684 1.55935e-12
-2.40104e-13 1.55935e-12 478.565

412.585 23.327 -8.14756e-13
23.327 357.185 5.10821e-12
-8.14756e-13 5.10821e-12 348.08

464.164 30.162 -2.00136e-12
30.162 482.755 -6.48074e-13
-2.00136e-12 -6.48074e-13 483.192

464.427 29.2058 2.03126e-12
29.2058 482.228 2.65269e-13
2.03126e-12 2.65269e-13 482.753

393.934 30.6598 -3.48166e-13
30.6598 405.711 -3.63798e-12
-3.48166e-13 -3.63798e-12 360.857

502.842 27.0847 2.25124e-12
27.0847 482.654 -4.59928e-12
2.25124e-12 -4.59928e-12 490.723

415.338 3.52503 2.72375e-12
3.52503 339.007 -8.00952e-13
2.72375e-12 -8.00952e-13 340.814

493.11 31.8172 2.11298e-12
31.8172 487.211 -5.69322e-13
2.11298e-12 -5.69322e-13 495.563

476.315 -12.5997 8.52947e-13
-12.5997 522.439 -1.19845e-12
8.52947e-13 -1.19845e-12 500.236

536.916 24.2783 2.89546e-12
24.2783 507.392 1.94807e-13
2.89546e-12 1.94807e-13 516.619

468.165 -29.5786 7.02727e-12
-29.5786 479.957 5.04545e-12
7.02727e-12 5.04545e-12 483.049

464.55 -4.89814 3.0929e-12
-4.89814 521.544 -1.87169e-12
3.0929e-12 -1.87169e-12 490.968

400.927 -24.5555 -1.91847e-13
-24.5555 349.013 2.60769e-12
-1.91847e-13 2.60769e-12 323.94

418.954 29.6922 -2.09965e-12
29.6922 392.452 -9.00021e-14
-2.09965e-12 -9.00021e-14 373.758

352.334 14.696 3.4522e-12
14.696 417.2 7.25938e-13
3.4522e-12 7.25938e-13 348.229

500.517 -1.13885 1.39015e-12
-1.13885 442.782 3.97578e-12
1.39015e-12 3.97578e-12 487.697

492.458 0.00223611 1.10756e-12
0.00223611 438.091 3.72161e-12
1.10756e-12 3.72161e-12 474.407

452.954 23.1236 -4.13151e-12
23.1236 479.695 -5.56888e-13
-4.13151e-12 -5.56888e-13 475.574

481.293 23.8709 1.29911e-12
23.8709 502.863 -5.7578e-13
1.29911e-12 -5.7578e-13 501.242

456.576 -24.3807 -1.54428e-12
-24.3807 487.34 -1.6495e-12
-1.54428e-12 -1.6495e-12 488.486

457.826 -0.672675 1.05965e-12
-0.672675 517.931 -1.3903e-12
1.05965e-12 -1.3903e-12 486.389

458.873 25.5903 2.27492e-12
25.5903 486.458 -1.56689e-12
2.27492e-12 -1.56689e-12 488.508

465.549 -10.3077 2.97066e-12
-10.3077 408.075 1.60213e-12
2.97066e-12 1.60213e-12 427.215

400.856 -32.8325 -3.86713e-12
-32.8325 414.947 -9.74036e-13
-3.86713e-12 -9.74036e-13 385.158

518.089 -2.30055 -3.60763e-12
-2.30055 465.732 -3.86298e-12
-3.60763e-12 -3.86298e-12 500.92

391.865 -34.5073 4.83406e-12
-34.5073 379.599 1.58629e-12
4.83406e-12 1.58629e-12 347.411

477.995 19.0861 -4.25571e-12
19.0861 509.195 -1.33227e-14
-4.25571e-12 -1.33227e-14 501.839

506.106 -26.4786 -1.62773e-12
-26.4786 470.242 -3.45205e-13
-1.62773e-12 -3.45205e-13 487.267

424.993 -9.68998 -2.53427e-12
-9.68998 366.725 8.55168e-13
-2.53427e-12 8.55168e-13 355.975

530.261 -23.1918 1.76511e-12
-23.1918 488.752 3.11099e-12
1.76511e-12 3.11099e-12 506.484

500.886 2.35825 3.04793e-13
2.35825 444.571 -2.32273e-12
3.04793e-13 -2.32273e-12 489.199

521.187 -23.3212 -2.08544e-12
-23.3212 501.837 -1.77517e-12
-2.08544e-12 -1.77517e-12 508.529

502.01 -25.8593 3.62673e-12
-25.8593 461.486 -3.30698e-12
3.62673e-12 -3.30698e-12 481.238

498.821 -8.54597 -1.30533e-12
-8.54597 445.13 1.10401e-12
-1.30533e-12 1.10401e-12 479.339

482.215 -23.068 4.77544e-12
-23.068 504.987 1.27877e-12
4.77544e-12 1.27877e-12 502.53

428.534 -31.3411 2.314e-12
-31.3411 410.582 2.53427e-13
2.314e-12 2.53427e-13 398.992

503.262 -24.5869 -3.78601e-12
-24.5869 464.708 -1.87228e-12
-3.78601e-12 -1.87228e-12 482.155

441.234 10.8642 -1.80004e-12
10.8642 378.475 -8.52059e-13
-1.80004e-12 -8.52059e-13 387.792

500.033 26.3401 -1.15286e-12
26.3401 498.579 3.7114e-12
-1.15286e-12 3.7114e-12 500.1

463.744 -37.6131 1.77843e-12
-37.6131 488.383 -3.94466e-12
1.77843e-12 -3.94466e-12 494.077

464.853 37.2654 4.74524e-12
37.2654 487.295 -2.67105e-12
4.74524e-12 -2.67105e-12 493.792

446.321 -28.5735 -1.02881e-14
-28.5735 500.009 1.83172e-12
-1.02881e-14 1.83172e-12 492.307

448.555 27.0642 -1.34529e-12
27.0642 500.7 -3.8014e-13
-1.34529e-12 -3.8014e-13 492.494

513.064 -8.52771 1.1983e-12
-8.52771 436.399 3.02736e-12
1.1983e-12 3.02736e-12 492.754

511.227 9.27373 -2.93099e-12
9.27373 437.996 -2.07952e-12
-2.93099e-12 -2.07952e-12 492.392

501.65 -9.84603 -2.95053e-12
-9.84603 451.737 2.32555e-12
-2.95053e-12 2.32555e-12 483.015

510.86 32.1164 -6.94556e-13
32.1164 510.386 -1.90969e-12
-6.94556e-13 -1.90969e-12 514.051

509.636 -32.8545 -4.13003e-13
-32.8545 510.063 1.05712e-13
-4.13003e-13 1.05712e-13 513.69

481.805 16.0686 -3.71199e-12
16.0686 539.127 -2.50496e-12
-3.71199e-12 -2.50496e-12 514.322

482.999 -15.801 6.04701e-13
-15.801 538.717 -3.7037e-13
6.04701e-13 -3.7037e-13 514.343

556.866 -3.7474 1.50487e-12
-3.7474 506.829 -2.5242e-12
1.50487e-12 -2.5242e-12 524.988

558.421 3.61018 -3.87749e-12
3.61018 505.153 2.29446e-13
-3.87749e-12 2.29446e-13 525.36

387.302 9.83665 3.57751e-12
9.83665 449.189 1.45661e-13
3.57751e-12 1.45661e-13 397.08

472.381 -24.7739 -2.18196e-12
-24.7739 480.748 7.62694e-12
-2.18196e-12 7.62694e-12 484.97

443.454 -36.3877 1.33841e-12
-36.3877 485.525 -1.82772e-12
1.33841e-12 -1.82772e-12 486.621

473.634 -4.66422 2.01557e-12
-4.66422 420.429 -4.49899e-13
2.01557e-12 -4.49899e-13 436.331

540.25 -16.6949 2.39808e-13
-16.6949 484.187 7.03141e-13
2.39808e-13 7.03141e-13 515.283

540.97 16.1759 -3.15155e-12
16.1759 485.41 -2.83418e-12
-3.15155e-12 -2.83418e-12 515.889

506.854 0.121884 -6.20393e-13
0.121884 423.543 2.06081e-12
-6.20393e-13 2.06081e-12 486.995

384.785 23.3746 -1.6902e-12
23.3746 432.289 4.99275e-12
-1.6902e-12 4.99275e-12 385.469

442.325 36.1717 1.21562e-12
36.1717 485.204 -1.01682e-12
1.21562e-12 -1.01682e-12 485.827

452.59 -23.3957 -2.99523e-12
-23.3957 494.946 4.46458e-13
-2.99523e-12 4.46458e-13 483.584

443.24 23.3523 -1.24108e-12
23.3523 397.511 -8.10611e-13
-1.24108e-12 -8.10611e-13 400.366

530.964 23.8581 -2.38624e-13
23.8581 488.003 -3.7493e-12
-2.38624e-13 -3.7493e-12 507.243

428.471 -31.3129 7.22385e-14
-31.3129 410.867 5.66066e-13
7.22385e-14 5.66066e-13 398.81

519.853 -3.23082 1.22065e-12
-3.23082 469.053 -1.42049e-12
1.22065e-12 -1.42049e-12 502.68

439.388 -34.1611 -3.08664e-12
-34.1611 485.496 -4.52616e-12
-3.08664e-12 -4.52616e-12 485.816

389.177 8.31979 2.64429e-12
8.31979 452.32 3.11691e-12
2.64429e-12 3.11691e-12 400.848

385.872 21.8111 3.52311e-14
21.8111 435.765 7.62649e-13
3.52311e-14 7.62649e-13 388.687

383.84 35.7751 3.27205e-12
35.7751 362.325 7.88702e-13
3.27205e-12 7.88702e-13 318.322

408.175 1.57872 -1.10963e-12
1.57872 332.15 -1.17521e-12
-1.10963e-12 -1.17521e-12 327.318

485.448 -22.8044 -5.30835e-12
-22.8044 502.852 -2.08851e-13
-5.30835e-12 -2.08851e-13 501.742

351.871 31.1832 2.36492e-12
31.1832 388.824 1.89004e-12
2.36492e-12 1.89004e-12 312.351

451.341 23.6097 1.2473e-12
23.6097 478.405 2.19617e-12
1.2473e-12 2.19617e-12 465.205

442.188 -5.34943 -3.85588e-12
-5.34943 377.119 -1.71744e-12
-3.85588e-12 -1.71744e-12 387.73

464.147 11.2159 4.52024e-12
11.2159 407.292 -1.03384e-12
4.52024e-12 -1.03384e-12 424.914

505.37 0.429907 -1.65053e-13
0.429907 421.563 1.79443e-12
-1.65053e-13 1.79443e-12 485.666

449.341 -29.0312 -6.92779e-14
-29.0312 501.989 -3.12757e-12
-6.92779e-14 -3.12757e-12 493.58

572.506 -6.31909 1.7281e-12
-6.31909 589.479 -5.70951e-12
1.7281e-12 -5.70951e-12 549.247

463.131 37.4118 -8.83441e-13
37.4118 487.018 -3.5331e-13
-8.83441e-13 -3.5331e-13 493.056

408.73 1.66326 -2.07715e-12
1.66326 331.596 -5.28481e-12
-2.07715e-12 -5.28481e-12 308.898

404.226 -32.7862 -4.84116e-12
-32.7862 415.501 2.76283e-12
-4.84116e-12 2.76283e-12 387.382

443.132 36.6132 2.02875e-13
36.6132 485.497 3.10611e-12
2.02875e-13 3.10611e-12 486.563

444.671 -11.1337 3.10957e-12
-11.1337 498.927 2.91263e-12
3.10957e-12 2.91263e-12 471.434

386.066 -25.514 3.10004e-12
-25.514 428.892 3.72088e-12
3.10004e-12 3.72088e-12 384.556

449.441 28.8302 1.07932e-12
28.8302 501.622 -1.06996e-12
1.07932e-12 -1.06996e-12 493.28

452.702 -26.1413 4.90689e-12
-26.1413 419.294 3.11277e-12
4.90689e-12 3.11277e-12 419.51

579.547 10.4834 -5.73467e-12
10.4834 582.159 -6.29867e-13
-5.73467e-12 -6.29867e-13 549.032

398.321 30.8713 -3.47515e-12
30.8713 422.05 -1.12621e-12
-3.47515e-12 -1.12621e-12 388.155

515.698 8.12681 1.02881e-12
8.12681 437.259 1.42789e-12
1.02881e-12 1.42789e-12 494.574

493.797 30.1905 7.59689e-13
30.1905 484.74 1.65201e-13
7.59689e-13 1.65201e-13 493.794

453.457 23.3316 -2.67431e-12
23.3316 479.154 6.21429e-13
-2.67431e-12 6.21429e-13 475.79

510.694 -32.4891 1.6378e-12
-32.4891 512.445 1.94076e-12
1.6378e-12 1.94076e-12 514.999

510.301 -23.1899 8.82257e-14
-23.1899 473.173 1.07706e-12
8.82257e-14 1.07706e-12 489.67

511.396 10.4709 -7.2781e-12
10.4709 557.985 -7.24102e-12
-7.2781e-12 -7.24102e-12 523.725

452.164 -23.4335 -3.29781e-12
-23.4335 480.157 5.59138e-12
-3.29781e-12 5.59138e-12 468.942

394.402 -9.70757 4.62563e-12
-9.70757 316.408 3.47167e-12
4.62563e-12 3.47167e-12 295.57

387.283 -14.2769 -2.00847e-12
-14.2769 306.053 1.74675e-12
-2.00847e-12 1.74675e-12 290.044

547.577 16.5292 6.0778e-12
16.5292 507.757 -4.63037e-12
6.0778e-12 -4.63037e-12 519.313

436.479 22.5012 2.76845e-12
22.5012 469.128 -6.34752e-13
2.76845e-12 -6.34752e-13 447.815

475.954 29.1628 -3.42541e-12
29.1628 467.637 6.30607e-13
-3.42541e-12 6.30607e-13 471.47

450.292 0.688659 7.43701e-13
0.688659 392.769 -4.41797e-12
7.43701e-13 -4.41797e-12 395.666

478.344 6.57129 2.60088e-12
6.57129 541.271 -2.43835e-12
2.60088e-12 -2.43835e-12 507.532

507.322 16.5408 -1.69346e-13
16.5408 461.127 -1.13568e-12
-1.69346e-13 -1.13568e-12 488.071

389.969 -25.7604 -4.77248e-13
-25.7604 430.027 -4.49537e-12
-4.77248e-13 -4.49537e-12 387.726

456.311 -2.57248 5.10336e-12
-2.57248 517.005 1.61767e-12
5.10336e-12 1.61767e-12 484.832

400.581 13.3648 -3.60897e-13
13.3648 452.976 3.11099e-12
-3.60897e-13 3.11099e-12 404.628

486.905 -29.713 -2.84809e-12
-29.713 465.806 -2.27729e-12
-2.84809e-12 -2.27729e-12 474.25

430.29 -29.9467 1.80537e-12
-29.9467 423.62 -1.2393e-12
1.80537e-12 -1.2393e-12 404.947

399.703 31.622 3.54265e-12
31.622 418.223 1.74675e-13
3.54265e-12 1.74675e-13 385.994

623.997 -15.0202 3.30284e-12
-15.0202 581.944 7.90827e-12
3.30284e-12 7.90827e-12 557.898

494.514 2.0412 -3.35953e-13
2.0412 552.136 -2.31045e-12
-3.35953e-13 -2.31045e-12 517.917

483.494 20.3003 1.08343e-12
20.3003 542.035 4.70113e-12
1.08343e-12 4.70113e-12 516.023

544.698 15.4392 8.65974e-13
15.4392 479.962 1.58569e-12
8.65974e-13 1.58569e-12 515.745

473.739 -26.1884 2.89931e-12
-26.1884 479.747 -2.53693e-12
2.89931e-12 -2.53693e-12 483.008

452.116 17.9569 -4.13891e-12
17.9569 404.5 -2.27966e-14
-4.13891e-12 -2.27966e-14 406.909

531.573 -5.29424 -4.16667e-12
-5.29424 580.795 -3.87956e-12
-4.16667e-12 -3.87956e-12 537.11

512.178 -18.9882 1.59724e-12
-18.9882 464.785 -3.77861e-12
1.59724e-12 -3.77861e-12 493.019

473.966 -15.5986 3.04231e-12
-15.5986 423.168 1.2131e-12
3.04231e-12 1.2131e-12 438.871

401.992 11.6029 -4.25734e-13
11.6029 455.948 -9.2489e-13
-4.25734e-13 -9.2489e-13 407.771

410.915 -25.7336 4.41306e-12
-25.7336 435.572 3.50534e-12
4.41306e-12 3.50534e-12 398.948

532.041 -25.2738 3.77861e-12
-25.2738 523.186 5.2891e-13
3.77861e-12 5.2891e-13 519.111

423.048 31.9587 -1.60464e-12
31.9587 417.24 6.21606e-12
-1.60464e-12 6.21606e-12 400.297

535.474 -25.1348 2.07034e-12
-25.1348 505.781 -2.36996e-12
2.07034e-12 -2.36996e-12 515.652

453.484 2.59731 -6.95148e-13
2.59731 397.011 -4.48056e-12
-6.95148e-13 -4.48056e-12 401.889

311.093 -28.9298 -3.97489e-12
-28.9298 376.589 -9.07126e-13
-3.97489e-12 -9.07126e-13 289.989

431.867 -29.2302 -3.21521e-13
-29.2302 424.039 1.18305e-12
-3.21521e-13 1.18305e-12 406.146

353.754 32.1582 -3.47219e-12
32.1582 392.537 8.73968e-13
-3.47219e-12 8.73968e-13 312.962

470.339 -11.877 2.62707e-12
-11.877 529.544 -1.72721e-12
2.62707e-12 -1.72721e-12 500.295

391.443 -13.821 1.33908e-12
-13.821 449.244 -3.78956e-14
1.33908e-12 -3.78956e-14 400.19

602.85 -23.9885 -8.20781e-12
-23.9885 602.264 8.12091e-13
-8.20781e-12 8.12091e-13 557.839

408.363 23.7702 -1.67984e-12
23.7702 441.931 3.19744e-14
-1.67984e-12 3.19744e-14 402.214

496.569 -32.7262 1.19312e-12
-32.7262 490.632 -6.79456e-13
1.19312e-12 -6.79456e-13 497.439

388.182 -11.9628 -4.75198e-12
-11.9628 448.276 2.36966e-12
-4.75198e-12 2.36966e-12 397.008

516.702 -19.1169 1.44211e-12
-19.1169 465.745 -1.91254e-12
1.44211e-12 -1.91254e-12 496.235

410.678 23.8764 6.33567e-14
23.8764 439.303 5.1313e-12
6.33567e-14 5.1313e-12 400.691

488.911 -4.97543 4.72511e-13
-4.97543 435.062 -3.80425e-12
4.72511e-13 -3.80425e-12 460.374

305.777 -30.3421 -1.79886e-12
-30.3421 391.432 -1.80478e-12
-1.79886e-12 -1.80478e-12 262.565

438.602 21.0137 -7.75676e-14
21.0137 473.904 3.17139e-12
-7.75676e-14 3.17139e-12 458.341

445.68 -19.3228 -5.65e-12
-19.3228 393.97 1.66918e-12
-5.65e-12 1.66918e-12 399.616

551.598 -21.4459 -8.3696e-13
-21.4459 499.511 -6.40673e-13
-8.3696e-13 -6.40673e-13 520.097

424.463 31.7532 8.40809e-14
31.7532 413.316 -2.41348e-12
8.40809e-14 -2.41348e-12 397.953

459.156 -29.9712 4.26681e-12
-29.9712 437.632 3.73242e-12
4.26681e-12 3.73242e-12 439.293

510.613 20.8851 -2.87355e-12
20.8851 476.067 3.67114e-14
-2.87355e-12 3.67114e-14 492.75

461.498 -28.0758 1.00685e-11
-28.0758 485.735 3.87135e-12
1.00685e-11 3.87135e-12 488.712

413.715 -26.2245 -7.01128e-12
-26.2245 436.239 -1.74438e-12
-7.01128e-12 -1.74438e-12 401.434

426.07 28.9804 3.60719e-12
28.9804 429.892 -1.8711e-12
3.60719e-12 -1.8711e-12 406.856

452.495 26.1907 -1.86044e-12
26.1907 418.222 8.86402e-13
-1.86044e-12 8.86402e-13 419.054

521.965 -14.6097 2.04399e-12
-14.6097 477.173 7.64129e-13
2.04399e-12 7.64129e-13 500.059

403.556 -16.6171 5.80277e-14
-16.6171 451.737 1.85096e-12
5.80277e-14 1.85096e-12 406.438

496.041 -17.5681 -1.9836e-13
-17.5681 447.602 5.02768e-12
-1.9836e-13 5.02768e-12 471.496

487.759 16.9081 3.1104e-12
16.9081 436.254 1.94807e-12
3.1104e-12 1.94807e-12 460.584

513.339 -9.38703 -1.47822e-12
-9.38703 555.775 8.25414e-13
-1.47822e-12 8.25414e-13 523.026

453.973 -13.4297 -6.90174e-12
-13.4297 402.174 -5.31131e-13
-6.90174e-12 -5.31131e-13 406.739

403.198 0.593988 3.15215e-12
0.593988 465.72 1.6757e-12
3.15215e-12 1.6757e-12 417.801

475.021 18.5546 1.53536e-12
18.5546 428.767 8.7752e-13
1.53536e-12 8.7752e-13 442.217

451.138 27.6033 -1.76215e-12
27.6033 421.835 -1.59576e-12
-1.76215e-12 -1.59576e-12 420.839

400.865 -15.6857 3.15599e-12
-15.6857 451.377 -9.14232e-13
3.15599e-12 -9.14232e-13 403.732

405.996 -1.2023 2.60318e-12
-1.2023 468.029 -3.70311e-12
2.60318e-12 -3.70311e-12 421.216

516.196 29.1343 8.16532e-13
29.1343 498.023 -6.03103e-12
8.16532e-13 -6.03103e-12 504.872

441.7 -10.9219 -7.40001e-13
-10.9219 500.653 -3.75699e-12
-7.40001e-13 -3.75699e-12 471.144

451.435 -26.7147 -1.73668e-12
-26.7147 418.762 2.30275e-12
-1.73668e-12 2.30275e-12 419.349

444.382 21.332 -3.29218e-13
21.332 395.294 -1.94807e-13
-3.29218e-13 -1.94807e-13 398.197

497.591 23.6651 1.61293e-12
23.6651 458.086 -1.03147e-12
1.61293e-12 -1.03147e-12 476.546

447.679 5.47062 2.47402e-12
5.47062 508.786 3.60068e-12
2.47402e-12 3.60068e-12 476.878

427.646 29.0648 -1.67096e-12
29.0648 426.43 -7.99953e-13
-1.67096e-12 -7.99953e-13 405.106

536.818 22.9638 4.42757e-12
22.9638 531.895 -4.36096e-13
4.42757e-12 -4.36096e-13 522.781

314.748 -59.6906 -6.40436e-12
-59.6906 282.767 3.58706e-12
-6.40436e-12 3.58706e-12 223.422

480.59 -25.0473 -1.53359e-12
-25.0473 445.068 3.80732e-13
-1.53359e-12 3.80732e-13 456.642

336.661 7.06974 3.89881e-12
7.06974 409.151 -4.40063e-12
3.89881e-12 -4.40063e-12 319.437

460.534 -28.8887 3.51245e-12
-28.8887 444.733 -1.75504e-12
3.51245e-12 -1.75504e-12 443.449

96.4233 -52.7006 1.79294e-12
-52.7006 306.616 2.65743e-12
1.79294e-12 2.65743e-12 113.699

95.9572 51.4512 9.20153e-13
51.4512 306.88 9.37916e-13
9.20153e-13 9.37916e-13 114.487

181.516 117.153 2.57453e-12
117.153 226.075 3.68061e-12
2.57453e-12 3.68061e-12 113.587

182.814 -117.096 1.88768e-12
-117.096 223.31 -5.08275e-12
1.88768e-12 -5.08275e-12 113.561

321.581 -1.36335 -8.66862e-13
-1.36335 84.6529 4.04052e-14
-8.66862e-13 4.04052e-14 114.928

274.431 -91.1247 -8.43177e-13
-91.1247 127.417 1.83794e-12
-8.43177e-13 1.83794e-12 113.801

275.127 91.6526 -1.34056e-12
91.6526 128.25 -4.44089e-12
-1.34056e-12 -4.44089e-12 114.571

525.237 14.3301 -9.30515e-13
14.3301 474.708 -2.55795e-13
-9.30515e-13 -2.55795e-13 502.311

556.795 25.5367 5.55171e-12
25.5367 541.181 -6.92898e-12
5.55171e-12 -6.92898e-12 533.447

492.088 6.60592 8.13571e-12
6.60592 439.117 -4.91903e-13
8.13571e-12 -4.91903e-13 471.398

470.295 21.7842 1.89478e-14
21.7842 424.513 8.81961e-13
1.89478e-14 8.81961e-13 438.191

409.972 17.744 -7.6262e-12
17.744 461.069 -1.0818e-12
-7.6262e-12 -1.0818e-12 425.039

448.006 28.8979 -4.59425e-12
28.8979 424.701 5.11472e-12
-4.59425e-12 5.11472e-12 420.746

487.145 -29.6631 9.07718e-13
-29.6631 465.624 2.43746e-12
9.07718e-13 2.43746e-12 474.586

449.364 28.0272 2.19558e-12
28.0272 421.067 -1.8859e-12
2.19558e-12 -1.8859e-12 418.638

402.96 -2.84116 -3.43607e-12
-2.84116 465.377 1.58214e-12
-3.43607e-12 1.58214e-12 417.537

555.801 -26.0975 3.6137e-12
-26.0975 543.375 4.14306e-12
3.6137e-12 4.14306e-12 533.691

405.498 -4.86226 -4.13151e-13
-4.86226 467.115 -1.9907e-12
-4.13151e-13 -1.9907e-12 420.596

522.289 23.016 -3.74278e-12
23.016 499.739 1.14368e-12
-3.74278e-12 1.14368e-12 507.966

423.374 26.8701 -2.02742e-12
26.8701 386.504 -3.09323e-12
-2.02742e-12 -3.09323e-12 373.023

480.106 -13.216 -4.55043e-13
-13.216 532.766 -3.32475e-13
-4.55043e-13 -3.32475e-13 511.998

484.194 13.7277 -2.5698e-12
13.7277 432.773 -4.98268e-13
-2.5698e-12 -4.98268e-13 456.871

457.364 -29.9871 -1.57977e-12
-29.9871 436.973 9.84398e-13
-1.57977e-12 9.84398e-13 437.829

454.304 -24.713 1.02437e-12
-24.713 416.801 -4.42017e-12
1.02437e-12 -4.42017e-12 419.849

547.402 -16.0744 5.52595e-12
-16.0744 509.303 4.88794e-13
5.52595e-12 4.88794e-13 519.381

475.968 27.9285 1.0522e-12
27.9285 449.702 -1.99663e-12
1.0522e-12 -1.99663e-12 456.921

469.097 23.977 3.53436e-12
23.977 427.845 -1.85037e-13
3.53436e-12 -1.85037e-13 439.826

432.425 -2.79296 -8.71118e-13
-2.79296 493.632 2.96888e-12
-8.71118e-13 2.96888e-12 457.103

417.603 5.87328 3.4191e-12
5.87328 479.553 -1.18187e-12
3.4191e-12 -1.18187e-12 440.173

463.007 2.64666 1.202e-12
2.64666 402.276 -1.77776e-12
1.202e-12 -1.77776e-12 422.317

438.643 -7.28949 9.52127e-13
-7.28949 373.912 1.65912e-12
9.52127e-13 1.65912e-12 381.215

454.84 30.4842 3.87246e-13
30.4842 439.011 -2.6296e-12
3.87246e-13 -2.6296e-12 437.833

478.461 -26.155 -1.36483e-12
-26.155 443.539 2.43361e-12
-1.36483e-12 2.43361e-12 454.643

525.697 -21.2543 1.6455e-12
-21.2543 497.826 1.82521e-12
1.6455e-12 1.82521e-12 508.615

437.729 -31.633 3.54975e-12
-31.633 437.651 8.88178e-15
3.54975e-12 8.88178e-15 426.855

417.586 -27.785 8.63309e-13
-27.785 444.392 -4.08266e-12
8.63309e-13 -4.08266e-12 419.684

430.643 29.8866 7.0326e-12
29.8866 442.74 -1.92379e-12
7.0326e-12 -1.92379e-12 426.493

416.222 -9.57776 3.42711e-12
-9.57776 475.207 -7.36596e-13
3.42711e-12 -7.36596e-13 436.451

428.891 -1.54472 2.11764e-12
-1.54472 491.864 -1.39444e-12
2.11764e-12 -1.39444e-12 453.991

445.178 5.74796 -3.9214e-12
5.74796 508.039 2.65802e-12
-3.9214e-12 2.65802e-12 474.911

414.615 -21.0886 -8.89067e-13
-21.0886 458.403 1.46253e-12
-8.89067e-13 1.46253e-12 426.061

496.865 24.1109 1.67392e-12
24.1109 455.693 -1.33671e-12
1.67392e-12 -1.33671e-12 474.589

483.369 -9.58961 3.15599e-13
-9.58961 430.108 -1.06478e-12
3.15599e-13 -1.06478e-12 455.217

415.63 7.46517 4.66645e-13
7.46517 477.117 -6.49554e-13
4.66645e-13 -6.49554e-13 436.909

443.951 -9.70104 -9.25329e-13
-9.70104 501.5 -3.16547e-12
-9.25329e-13 -3.16547e-12 471.004

433.17 -16.3304 -4.71771e-13
-16.3304 481.672 2.40637e-12
-4.71771e-13 2.40637e-12 455.664

463.535 -8.23906 -1.85096e-12
-8.23906 406.332 5.32759e-12
-1.85096e-12 5.32759e-12 421.467

494.43 -32.3468 -4.0347e-12
-32.3468 487.612 -3.24185e-13
-4.0347e-12 -3.24185e-13 496.247

422.941 9.32067 -7.97436e-13
9.32067 479.087 -3.5764e-13
-7.97436e-13 -3.5764e-13 440.976

564.356 -18.2126 -1.57563e-12
-18.2126 529.949 -1.202e-12
-1.57563e-12 -1.202e-12 531.829

309.046 24.8223 -4.85538e-14
24.8223 379.419 1.15345e-12
-4.85538e-14 1.15345e-12 289.795

501.695 -26.626 -2.47447e-12
-26.626 499.487 2.95541e-12
-2.47447e-12 2.95541e-12 501.196

515.646 -30.2028 -4.20464e-12
-30.2028 498.401 -4.05601e-14
-4.20464e-12 -4.05601e-14 504.916

429.219 -0.701326 3.83863e-12
-0.701326 491.989 -1.70175e-12
3.83863e-12 -1.70175e-12 454.142

474.877 -16.6224 3.59416e-12
-16.6224 428.334 -2.78e-12
3.59416e-12 -2.78e-12 441.953

462.302 12.8416 -1.93636e-12
12.8416 511.271 1.06581e-14
-1.93636e-12 1.06581e-14 489.118

240.774 -3.18045 9.17784e-13
-3.18045 360.685 -9.85286e-13
9.17784e-13 -9.85286e-13 226.964

432.401 14.2735 -2.12697e-12
14.2735 485.353 2.12808e-12
-2.12697e-12 2.12808e-12 456.879

458.108 -29.4888 -4.32839e-12
-29.4888 443.167 4.80208e-13
-4.32839e-12 4.80208e-13 440.759

304.185 25.1053 -2.18788e-12
25.1053 394.581 -4.36747e-12
-2.18788e-12 -4.36747e-12 264.339

603.55 26.0983 9.67226e-13
26.0983 597.955 3.58691e-12
9.67226e-13 3.58691e-12 558.156

608.284 -27.8077 8.54354e-12
-27.8077 595.03 1.96273e-12
8.54354e-12 1.96273e-12 558.289

463.49 -30.4187 1.8705e-12
-30.4187 459.035 4.60698e-12
1.8705e-12 4.60698e-12 459.07

434.581 -31.1597 -1.70234e-12
-31.1597 436.356 1.46253e-12
-1.70234e-12 1.46253e-12 424.659

474.097 20.8272 3.12639e-13
20.8272 431.912 1.88205e-12
3.12639e-13 1.88205e-12 443.97

465.218 15.0059 9.59825e-13
15.0059 410.113 -9.79957e-14
9.59825e-13 -9.79957e-14 427.46

646.07 3.08374 1.03251e-13
3.08374 645.728 1.34716e-11
1.03251e-13 1.34716e-11 574.618

649.891 -7.0004 -1.05832e-11
-7.0004 641.398 7.14806e-12
-1.05832e-11 7.14806e-12 575.147

496.985 4.82432 2.80783e-12
4.82432 442.031 5.92785e-12
2.80783e-12 5.92785e-12 477.41

443.554 6.73087 1.64787e-12
6.73087 502.986 -5.63105e-13
1.64787e-12 -5.63105e-13 471.047

441.969 6.73631 3.34724e-12
6.73631 502.511 2.72375e-13
3.34724e-12 2.72375e-13 469.771

321.534 58.6335 1.89478e-14
58.6335 281.12 1.86162e-12
1.89478e-14 1.86162e-12 225.075

420.225 -28.1993 -1.68517e-12
-28.1993 444.02 -3.11455e-12
-1.68517e-12 -3.11455e-12 421.029

520.575 17.9746 9.28443e-13
17.9746 467.527 2.26841e-12
9.28443e-13 2.26841e-12 499.507

472.976 9.53964 -8.65678e-13
9.53964 421.194 -2.72227e-12
-8.65678e-13 -2.72227e-12 436.2

440.627 -26.7229 -2.79658e-12
-26.7229 450.723 -2.04163e-12
-2.79658e-12 -2.04163e-12 433.412

469.273 -20.2374 2.8102e-12
-20.2374 422.713 -5.41907e-12
2.8102e-12 -5.41907e-12 437.173

312.471 60.2314 -2.57927e-12
60.2314 281.37 9.78891e-12
-2.57927e-12 9.78891e-12 223.213

492.679 31.069 8.02025e-13
31.069 489.04 -1.25529e-12
8.02025e-13 -1.25529e-12 493.135

410.86 -19.7858 -1.77725e-12
-19.7858 457.878 -3.97904e-13
-1.77725e-12 -3.97904e-13 423.495

474.125 28.8574 -5.09222e-14
28.8574 449.628 3.42422e-12
-5.09222e-14 3.42422e-12 456.515

430.953 -4.14473 4.25008e-12
-4.14473 492.969 5.21479e-12
4.25008e-12 5.21479e-12 456.465

423.927 19.6089 -8.4673e-14
19.6089 465.708 -1.247e-12
-8.4673e-14 -1.247e-12 434.105

452.744 30.5184 -8.20499e-12
30.5184 443.595 3.54265e-12
-8.20499e-12 3.54265e-12 439.605

428.64 -22.4729 4.15075e-13
-22.4729 461.133 1.54958e-12
4.15075e-13 1.54958e-12 433.81

443.571 -27.3522 -4.17444e-13
-27.3522 450.429 -6.90707e-12
-4.17444e-13 -6.90707e-12 435.043

294.776 11.2568 -4.95159e-12
11.2568 372.583 -3.60482e-12
-4.95159e-12 -3.60482e-12 258.1

357.296 -33.4557 2.71664e-12
-33.4557 389.114 1.3074e-12
2.71664e-12 1.3074e-12 314.126

419.655 -11.6904 1.78479e-12
-11.6904 476.357 -2.50052e-12
1.78479e-12 -2.50052e-12 439.342

478.394 26.4842 6.88042e-13
26.4842 446.796 -3.37981e-12
6.88042e-13 -3.37981e-12 456.081

452.342 29.4776 -4.76064e-13
29.4776 449.023 -3.95535e-13
-4.76064e-13 -3.95535e-13 442.397

426.805 -21.4336 2.29091e-12
-21.4336 461.78 -1.45661e-13
2.29091e-12 -1.45661e-13 432.627

422.928 -11.7822 2.13104e-12
-11.7822 476.644 1.0066e-12
2.13104e-12 1.0066e-12 439.925

457.703 28.4091 -1.86577e-12
28.4091 447.084 -1.69405e-12
-1.86577e-12 -1.69405e-12 442.568

425.102 -13.8776 -3.79815e-12
-13.8776 476.416 -2.31874e-12
-3.79815e-12 -2.31874e-12 442.102

311.263 27.8545 5.88625e-12
27.8545 377.388 -1.68399e-12
5.88625e-12 -1.68399e-12 289.982

485.168 -4.04136 2.65387e-12
-4.04136 545.047 4.12056e-12
2.65387e-12 4.12056e-12 511.034

432.982 31.0271 -4.22773e-13
31.0271 439.625 -8.85218e-13
-4.22773e-13 -8.85218e-13 426.016

509.307 14.9011 -2.0961e-13
14.9011 463.159 -1.55609e-12
-2.0961e-13 -1.55609e-12 488.603

516.918 -15.9273 7.6561e-13
-15.9273 467.579 -1.90248e-12
7.6561e-13 -1.90248e-12 493.921

383.922 -24.2042 5.31012e-12
-24.2042 305.946 2.35308e-12
5.31012e-12 2.35308e-12 285.352

442.276 -21.267 6.32176e-12
-21.267 475.996 8.78112e-13
6.32176e-12 8.78112e-13 459.318

447.824 26.698 1.49836e-12
26.698 466.204 -2.19439e-12
1.49836e-12 -2.19439e-12 457.838

522.973 -21.7279 3.09145e-12
-21.7279 543.81 -3.90021e-13
3.09145e-12 -3.90021e-13 525.307

579.583 14.1069 2.76312e-12
14.1069 617.62 -3.90473e-12
2.76312e-12 -3.90473e-12 557.051

620.207 9.44535 8.8128e-12
9.44535 576.84 -7.24428e-12
8.8128e-12 -7.24428e-12 556.87

523.467 32.7056 3.82686e-12
32.7056 520.649 5.01273e-12
3.82686e-12 5.01273e-12 519.522

414.888 26 -1.58333e-12
26 448.902 -8.0765e-13
-1.58333e-12 -8.0765e-13 420.373

478.092 26.6612 4.44681e-13
26.6612 444.767 8.91435e-13
4.44681e-13 8.91435e-13 455.504

332.36 45.1853 1.04331e-12
45.1853 349.487 -1.6532e-12
1.04331e-12 -1.6532e-12 286.737

571.39 -11.3439 1.99411e-12
-11.3439 614.471 2.41762e-12
1.99411e-12 2.41762e-12 554.594

641.327 -3.43306 -1.16507e-11
-3.43306 636.869 2.874e-12
-1.16507e-11 2.874e-12 572.395

634.904 -0.210145 3.93774e-12
-0.210145 643.177 -3.75218e-12
3.93774e-12 -3.75218e-12 572.221

272.962 -53.8019 8.50283e-13
-53.8019 316.445 4.38642e-12
8.50283e-13 4.38642e-12 220.907

566.636 -11.6001 -4.37768e-12
-11.6001 562.123 -1.62537e-13
-4.37768e-12 -1.62537e-13 540.896

563.77 8.81317 -3.38566e-12
8.81317 586.961 -3.01389e-13
-3.38566e-12 -3.01389e-13 546.838

478.24 -26.1993 5.44749e-13
-26.1993 440.438 4.60609e-12
5.44749e-13 4.60609e-12 453.478

494.346 1.01116 3.92564e-12
1.01116 545.756 7.6863e-12
3.92564e-12 7.6863e-12 514.054

447.647 -20.2676 2.9042e-12
-20.2676 484.154 1.97531e-12
2.9042e-12 1.97531e-12 470.634

506.297 6.25531 -7.99923e-12
6.25531 443.37 -1.04272e-12
-7.99923e-12 -1.04272e-12 486.121

461.271 15.5963 -1.60714e-12
15.5963 521.249 8.12683e-13
-1.60714e-12 8.12683e-13 497.553

471.178 7.19167 2.57799e-12
7.19167 528.003 -1.21384e-12
2.57799e-12 -1.21384e-12 497.687

493.759 20.3926 -1.34648e-12
20.3926 451.514 1.05871e-12
-1.34648e-12 1.05871e-12 469.747

241.064 -3.1139 9.43616e-13
-3.1139 358.557 4.68721e-12
9.43616e-13 4.68721e-12 227.062

463.697 -27.6234 3.90147e-12
-27.6234 463.387 -4.10338e-13
3.90147e-12 -4.10338e-13 461.187

488.341 -26.1161 2.94046e-12
-26.1161 481.594 -2.36048e-12
2.94046e-12 -2.36048e-12 485.866

497.534 -31.4837 -1.20881e-12
-31.4837 489.955 3.47885e-12
-1.20881e-12 3.47885e-12 498.977

355.597 32.7491 -2.67875e-12
32.7491 285.777 -6.22495e-12
-2.67875e-12 -6.22495e-12 248.364

563.88 -20.1166 -3.69541e-12
-20.1166 569.613 4.66693e-12
-3.69541e-12 4.66693e-12 542.569

337.645 54.3216 1.92794e-12
54.3216 356.655 1.56319e-13
1.92794e-12 1.56319e-13 258.873

477.068 -21.4396 3.29248e-12
-21.4396 506.486 2.17012e-12
3.29248e-12 2.17012e-12 500.24

504.769 14.6503 9.37916e-13
14.6503 451.983 -2.72345e-12
9.37916e-13 -2.72345e-12 481.557

449.827 -14.5722 4.26562e-12
-14.5722 396.983 3.46478e-12
4.26562e-12 3.46478e-12 400.837

452.59 24.0465 -2.2989e-12
24.0465 478.776 -3.55271e-15
-2.2989e-12 -3.55271e-15 467.844

493.662 20.4278 5.90343e-13
20.4278 449.498 3.53732e-12
5.90343e-13 3.53732e-12 469.339

505.563 11.4007 4.4742e-13
11.4007 564.414 1.62093e-12
4.4742e-13 1.62093e-12 526.709

475.892 -31.58 -1.64994e-12
-31.58 470.352 1.70353e-12
-1.64994e-12 1.70353e-12 475.06

559.268 19.8124 1.71833e-12
19.8124 510.437 -3.88726e-13
1.71833e-12 -3.88726e-13 526.484

439.954 -18.4432 1.58569e-12
-18.4432 482.461 -6.01001e-13
1.58569e-12 -6.01001e-13 459.145

465.894 4.28309 -8.85671e-13
4.28309 526.104 -2.72552e-12
-8.85671e-13 -2.72552e-12 495.507

588.638 9.92665 -6.01297e-13
9.92665 552.46 -4.19812e-12
-6.01297e-13 -4.19812e-12 545.186

590.422 -8.51325 -2.75187e-12
-8.51325 554.802 2.24976e-12
-2.75187e-12 2.24976e-12 545.704

382.306 18.5121 9.04758e-13
18.5121 302.285 -4.76182e-12
9.04758e-13 -4.76182e-12 286.131

502.674 7.96493 -6.26728e-12
7.96493 453.596 -1.619e-12
-6.26728e-12 -1.619e-12 487.762

232.814 7.74034 1.8443e-12
7.74034 381.513 3.72798e-12
1.8443e-12 3.72798e-12 187.185

236.983 -11.385 3.54442e-12
-11.385 387.207 -3.74219e-13
3.54442e-12 -3.74219e-13 189.449

249.286 56.4062 5.36697e-12
56.4062 354.774 2.29268e-12
5.36697e-12 2.29268e-12 184.021

505.011 -28.9503 -1.71714e-12
-28.9503 478.612 -1.63899e-12
-1.71714e-12 -1.63899e-12 491.34

258.47 -49.1896 4.50721e-12
-49.1896 341.838 9.04284e-12
4.50721e-12 9.04284e-12 220.732

249.291 -55.9487 1.71004e-12
-55.9487 344.749 1.7432e-12
1.71004e-12 1.7432e-12 181.114

434.65 26.2196 4.43319e-12
26.2196 454.388 -6.51331e-15
4.43319e-12 -6.51331e-15 432.82

329.921 73.8428 1.00897e-12
73.8428 280.008 5.32197e-12
1.00897e-12 5.32197e-12 184.826

540.125 13.0474 5.26098e-12
13.0474 554.944 3.64153e-12
5.26098e-12 3.64153e-12 532.074

562.381 0.0391551 2.54848e-12
0.0391551 532.451 1.44418e-12
2.54848e-12 1.44418e-12 531.867

338.6 -73.1283 -5.68434e-14
-73.1283 279.856 -8.76336e-13
-5.68434e-14 -8.76336e-13 186.308

432.666 -23.4235 4.33609e-12
-23.4235 466.306 -1.25233e-12
4.33609e-12 -1.25233e-12 447.567

358.928 34.7284 -8.05282e-13
34.7284 310.972 7.21556e-12
-8.05282e-13 7.21556e-12 258.035

267.703 63.4899 -3.86062e-13
63.4899 345.208 6.63173e-14
-3.86062e-13 6.63173e-14 185.843

293.69 21.6297 2.75098e-12
21.6297 367.657 -5.82408e-12
2.75098e-12 -5.82408e-12 254.495

267.574 -65.9187 9.04521e-12
-65.9187 344.843 -2.64796e-12
9.04521e-12 -2.64796e-12 184.299

291.637 -12.3808 4.4853e-12
-12.3808 370.879 1.91373e-12
4.4853e-12 1.91373e-12 253.44

550.305 6.84197 7.92337e-12
6.84197 582.076 -2.81523e-12
7.92337e-12 -2.81523e-12 541.114

329.886 -45.9737 -1.67807e-12
-45.9737 341.812 2.63611e-12
-1.67807e-12 2.63611e-12 276.612

259.779 47.5309 -2.52953e-12
47.5309 340.214 5.02827e-12
-2.52953e-12 5.02827e-12 223.143

370.214 37.9107 -1.72425e-12
37.9107 244.918 1.80123e-12
-1.72425e-12 1.80123e-12 187.355

481.886 -29.2853 -3.37922e-12
-29.2853 460.507 -2.10409e-12
-3.37922e-12 -2.10409e-12 467.71

480.973 12.8967 -2.49608e-12
12.8967 525.826 4.70202e-12
-2.49608e-12 4.70202e-12 504.1

354.415 -38.1116 6.93963e-13
-38.1116 300.074 2.60532e-14
6.93963e-13 2.60532e-14 251.812

482.53 -28.8018 1.69997e-12
-28.8018 460.317 -6.25574e-13
1.69997e-12 -6.25574e-13 468.459

365.261 -36.3426 9.00021e-13
-36.3426 230.987 -4.27391e-12
9.00021e-13 -4.27391e-12 182.768

481.498 -28.3171 -2.12808e-12
-28.3171 472.751 -2.01409e-12
-2.12808e-12 -2.01409e-12 477.914

436.349 -25.2944 4.33342e-12
-25.2944 466.219 -2.66098e-12
4.33342e-12 -2.66098e-12 448.206

314.796 69.4593 -8.76336e-13
69.4593 292.14 -2.61953e-12
-8.76336e-13 -2.61953e-12 184.522

290.779 -22.9323 4.95011e-13
-22.9323 359.161 -7.67386e-13
4.95011e-13 -7.67386e-13 247.027

312.398 -71.6913 1.37372e-13
-71.6913 288.12 -3.55508e-12
1.37372e-13 -3.55508e-12 182.025

268.544 50.7363 -4.90867e-12
50.7363 320.056 -4.60432e-12
-4.90867e-12 -4.60432e-12 221.502

459.857 -30.2117 -7.98768e-13
-30.2117 454.841 -2.41111e-12
-7.98768e-13 -2.41111e-12 454.396

559.284 -14.6402 -2.60207e-12
-14.6402 544.41 5.80869e-13
-2.60207e-12 5.80869e-13 533.714

635.922 11.0928 -3.36523e-12
11.0928 631.383 -1.93993e-12
-3.36523e-12 -1.93993e-12 570.017

619.956 -5.15996 -1.20881e-12
-5.15996 639.738 5.78313e-12
-1.20881e-12 5.78313e-12 568.495

453.866 13.0836 -5.33499e-13
13.0836 506.551 9.53904e-13
-5.33499e-13 9.53904e-13 482.568

634.151 -10.6672 7.98916e-12
-10.6672 631.313 6.05619e-12
7.98916e-12 6.05619e-12 569.872

622.695 4.09168 -5.26453e-12
4.09168 642.684 1.55901e-12
-5.26453e-12 1.55901e-12 569.697

643.374 7.43435 -4.20997e-13
7.43435 619.147 -2.9868e-12
-4.20997e-13 -2.9868e-12 569.019

584.775 -12.1154 -5.04807e-12
-12.1154 631.667 2.90301e-12
-5.04807e-12 2.90301e-12 560.591

307.441 -30.4694 2.67638e-12
-30.4694 371.629 3.77772e-12
2.67638e-12 3.77772e-12 280.767

589.624 -12.9721 -1.09438e-11
-12.9721 549.111 4.09125e-12
-1.09438e-11 4.09125e-12 543.824

527.203 -34.4179 -1.34529e-12
-34.4179 521.484 -4.39382e-12
-1.34529e-12 -4.39382e-12 519.962

565.462 -18.1768 1.60464e-12
-18.1768 537.987 -8.23815e-12
1.60464e-12 -8.23815e-12 534.255

502.566 15.459 -5.03301e-14
15.459 452.112 2.63315e-12
-5.03301e-14 2.63315e-12 480.203

586.348 9.86442 1.06604e-12
9.86442 642.135 1.36732e-11
1.06604e-12 1.36732e-11 563.101

636.657 19.2279 -4.24135e-12
19.2279 591.722 -9.78921e-13
-4.24135e-12 -9.78921e-13 562.923

569.774 11.3061 -1.38911e-12
11.3061 544.336 8.58706e-12
-1.38911e-12 8.58706e-12 536.433

353.439 -15.3391 -9.71075e-13
-15.3391 231.514 2.72316e-12
-9.71075e-13 2.72316e-12 219.012

437.202 24.9637 3.52814e-12
24.9637 461.908 6.30607e-13
3.52814e-12 6.30607e-13 445.718

317.087 -61.3537 -3.88904e-12
-61.3537 277.846 -3.45087e-12
-3.88904e-12 -3.45087e-12 218.086

334.206 -57.4564 -1.75267e-12
-57.4564 357.32 4.81037e-12
-1.75267e-12 4.81037e-12 252.537

383.331 -36.5435 3.95772e-12
-36.5435 305.736 2.64085e-12
3.95772e-12 2.64085e-12 257.757

562.494 -5.15898 2.07641e-12
-5.15898 616.951 9.05646e-13
2.07641e-12 9.05646e-13 552.948

562.202 2.89122 4.75368e-12
2.89122 615.816 -1.9611e-12
4.75368e-12 -1.9611e-12 552.546

598.769 -24.4567 -3.75374e-12
-24.4567 575.74 -1.07854e-12
-3.75374e-12 -1.07854e-12 551.576

602.328 -21.7609 2.63822e-12
-21.7609 573.431 -9.0387e-13
2.63822e-12 -9.0387e-13 551.842

598.782 26.1364 -3.28212e-12
26.1364 580.456 1.58222e-12
-3.28212e-12 1.58222e-12 552.731

625.741 3.09972 -1.57592e-12
3.09972 630.734 -1.0208e-11
-1.57592e-12 -1.0208e-11 568.418

599.058 -20.5092 1.9688e-13
-20.5092 576.352 7.68718e-13
1.9688e-13 7.68718e-13 552.264

607.809 -18.5685 1.7469e-12
-18.5685 620.262 1.69445e-11
1.7469e-12 1.69445e-11 563.183

632.899 2.43471 1.87687e-12
2.43471 635.526 -1.23981e-11
1.87687e-12 -1.23981e-11 570.503

607.885 -20.5266 8.5835e-13
-20.5266 572.425 -9.24298e-13
8.5835e-13 -9.24298e-13 553.403

607.07 20.9562 -5.12101e-12
20.9562 573.683 -1.99959e-12
-5.12101e-12 -1.99959e-12 553.807

633.851 -3.45875 -7.7276e-12
-3.45875 636.777 -4.8123e-12
-7.7276e-12 -4.8123e-12 571.277

632.181 -3.11751 1.30476e-11
-3.11751 625.756 -1.67126e-11
1.30476e-11 -1.67126e-11 569.392

609.681 12.1098 1.28283e-12
12.1098 620.484 5.42277e-12
1.28283e-12 5.42277e-12 563.914

587.201 26.93 -4.39441e-12
26.93 583.017 3.11182e-12
-4.39441e-12 3.11182e-12 551.7

FIELD solute_concentration_TPM 2
S_ext 1 563 float
1.0059
1.00571
1.00573
1.00571
1.00568
1.00573
1.0059
1.00572
1.00575
1.00571
1.00586
1.00572
1.00572
1.00571
1.00568
1.00573
1.0057
1.00572
1.00575
1.00573
1.00574
1.00562
1.00573
1.00573
1.00573
1.00571
1.00585
1.00573
1.0058
1.00565
1.00572
1.0058
1.00586
1.00566
1.00566
1.00566
1.00564
1.00566
1.00572
1.00586
1.0058
1.00564
1.00564
1.00572
1.00583
1.0058
1.00575
1.00574
1.00573
1.00581
1.0058
1.00578
1.00567
1.00578
1.00568
1.00584
1.00566
1.00578
1.00566
1.00573
1.0057
1.00569
1.00585
1.00569
1.00569
1.00571
1.0057
1.00571
1.00573
1.00571
1.00567
1.00567
1.0058
1.0057
1.00573
1.00586
1.00569
1.00571
1.00571
1.00578
1.00582
1.00567
1.0057
1.00582
1.0058
1.00584
1.00573
1.00571
1.00583
1.00563
1.00578
1.00563
1.00568
1.00571
1.00578
1.0058
1.00582
1.00571
1.00569
1.00572
1.00576
1.00579
1.00582
1.00571
1.00571
1.00571
1.00569
1.00573
1.00582
1.0057
1.00573
1.00583
1.00582
1.00572
1.00571
1.00578
1.00566
1.00582
1.00566
1.00578
1.00575
1.00568
1.00571
1.0057
1.0057
1.00568
1.00566
1.00571
1.00582
1.00578
1.00567
1.00571
1.0057
1.00571
1.00579
1.00565
1.00583
1.00572
1.0057
1.00565
1.00579
1.00572
1.00575
1.00571
1.00582
1.00571
1.00572
1.00573
1.00573
1.00577
1.00574
1.00571
1.0058
1.00572
1.00571
1.00571
1.00571
1.00579
1.00579
1.00572
1.00574
1.0058
1.00583
1.0058
1.00579
1.00571
1.00579
1.00579
1.0058
1.00579
1.00568
1.00578
1.0058
1.00571
1.00578
1.0057
1.00568
1.00572
1.00568
1.00571
1.0058
1.00571
1.00571
1.00579
1.0057
1.0058
1.0057
1.0057
1.00568
1.00571
1.0057
1.00582
1.00578
1.0058
1.00571
1.00572
1.00572
1.0057
1.00571
1.00571
1.00571
1.00575
1.00577
1.0057
1.0058
1.0057
1.00571
1.00579
1.00569
1.00571
1.00569
1.00571
1.00571
1.0057
1.00577
1.00571
1.00577
1.0057
1.0057
1.0057
1.0057
1.0057
1.0057
1.0057
1.00571
1.00568
1.00568
1.00568
1.00568
1.00568
1.00568
1.00577
1.00571
1.00571
1.00574
1.00568
1.00568
1.00571
1.00577
1.00571
1.00571
1.00577
1.00569
1.00577
1.0057
1.00571
1.00577
1.00577
1.00582
1.00581
1.0057
1.00582
1.00572
1.00577
1.00575
1.00571
1.0057
1.00564
1.0057
1.00583
1.00577
1.00571
1.00572
1.00578
1.0057
1.00575
1.00564
1.00577
1.0057
1.0057
1.00572
1.00568
1.00571
1.00568
1.00572
1.00583
1.00584
1.00568
1.00574
1.00572
1.00577
1.00569
1.00571
1.00577
1.00571
1.00576
1.00572
1.00576
1.00577
1.00563
1.00568
1.00568
1.00568
1.00571
1.00576
1.00566
1.0057
1.00574
1.00576
1.00577
1.00568
1.00577
1.00568
1.00577
1.00583
1.00576
1.00582
1.0057
1.00577
1.00563
1.00577
1.0057
1.00577
1.0057
1.00577
1.00573
1.00586
1.00573
1.00577
1.00568
1.00577
1.00574
1.0057
1.00571
1.00577
1.00576
1.00575
1.0057
1.00576
1.00572
1.00573
1.00568
1.00576
1.00575
1.00574
1.00575
1.00576
1.00575
1.00569
1.00572
1.00575
1.00577
1.00572
1.00571
1.00576
1.00568
1.00587
1.00573
1.00582
1.00574
1.00593
1.00593
1.00593
1.00593
1.00592
1.00593
1.00593
1.0057
1.00566
1.00572
1.00574
1.00575
1.00575
1.00572
1.00575
1.00575
1.00567
1.00575
1.00569
1.00578
1.00569
1.00573
1.00574
1.00575
1.00568
1.00573
1.00574
1.00573
1.00574
1.00575
1.00578
1.00574
1.00573
1.00569
1.00575
1.00575
1.00575
1.00574
1.00573
1.00572
1.00575
1.00572
1.00573
1.00574
1.00572
1.00573
1.00575
1.0057
1.00574
1.00567
1.00583
1.0057
1.00569
1.00573
1.00574
1.00571
1.00587
1.00573
1.00574
1.00585
1.00564
1.00564
1.00573
1.00575
1.00574
1.00575
1.00562
1.00562
1.00572
1.00572
1.00572
1.00587
1.00575
1.0057
1.00574
1.00575
1.00574
1.00587
1.0057
1.00575
1.00573
1.00573
1.00574
1.00574
1.00574
1.00574
1.00586
1.00582
1.00574
1.00573
1.00574
1.00575
1.00574
1.00574
1.00574
1.00583
1.00569
1.00575
1.00571
1.0057
1.00583
1.00573
1.00573
1.00568
1.00563
1.00563
1.00568
1.00575
1.00573
1.00584
1.00563
1.00562
1.00562
1.00587
1.00566
1.00565
1.00573
1.00568
1.00572
1.00571
1.0057
1.0057
1.00572
1.00587
1.00573
1.00571
1.0057
1.00586
1.00565
1.00586
1.0057
1.00571
1.00577
1.00572
1.00572
1.00567
1.00572
1.00567
1.00573
1.0057
1.00565
1.00565
1.00584
1.00571
1.0059
1.00591
1.0059
1.0057
1.00588
1.00591
1.00575
1.0059
1.00567
1.00567
1.0059
1.00573
1.00586
1.00591
1.00586
1.00591
1.00586
1.00566
1.00584
1.00587
1.0059
1.00572
1.00569
1.00586
1.00572
1.0059
1.00571
1.00573
1.00591
1.00586
1.00591
1.00587
1.00573
1.00567
1.00562
1.00562
1.00571
1.00562
1.00562
1.00562
1.00563
1.00584
1.00565
1.00568
1.00567
1.00571
1.00563
1.00563
1.00567
1.00587
1.00574
1.00588
1.00587
1.00586
1.00564
1.00564
1.00564
1.00564
1.00564
1.00562
1.00564
1.00563
1.00562
1.00564
1.00564
1.00562
1.00562
1.00563
1.00564
P_ext 1 563 float
0.0126537
0.0126508
0.0126512
0.0126508
0.0126496
0.0126512
0.0126536
0.012651
0.0126515
0.0126508
0.0126532
0.012651
0.0126511
0.0126508
0.0126499
0.0126512
0.0126505
0.012651
0.0126516
0.0126513
0.0126514
0.0126476
0.0126513
0.0126512
0.0126513
0.0126509
0.012653
0.0126511
0.0126524
0.0126486
0.0126511
0.0126523
0.0126531
0.012649
0.012649
0.012649
0.0126486
0.0126491
0.0126511
0.0126531
0.0126523
0.0126485
0.0126486
0.0126511
0.0126528
0.0126523
0.0126516
0.0126515
0.0126512
0.0126525
0.0126524
0.0126521
0.0126496
0.0126521
0.0126497
0.0126529
0.012649
0.0126521
0.012649
0.0126512
0.0126505
0.0126503
0.012653
0.0126503
0.0126502
0.0126506
0.0126505
0.0126509
0.0126513
0.0126507
0.0126496
0.0126496
0.0126524
0.0126505
0.0126512
0.0126532
0.01265
0.0126506
0.0126509
0.012652
0.0126526
0.0126495
0.0126504
0.0126526
0.0126523
0.0126528
0.0126511
0.0126505
0.0126528
0.0126477
0.0126521
0.0126477
0.0126499
0.0126506
0.0126521
0.0126524
0.0126526
0.0126508
0.01265
0.0126511
0.0126518
0.0126523
0.0126526
0.0126509
0.0126508
0.0126509
0.0126503
0.0126511
0.0126526
0.0126506
0.0126512
0.0126527
0.0126527
0.0126509
0.0126509
0.0126521
0.012649
0.0126526
0.012649
0.0126521
0.0126517
0.01265
0.0126507
0.0126505
0.0126505
0.0126499
0.0126491
0.0126508
0.0126526
0.0126521
0.0126495
0.0126508
0.0126504
0.0126507
0.0126523
0.0126489
0.0126528
0.012651
0.0126503
0.0126489
0.0126523
0.0126508
0.0126516
0.0126508
0.0126527
0.0126509
0.0126509
0.0126512
0.0126512
0.0126519
0.0126514
0.0126507
0.0126523
0.0126511
0.0126508
0.0126508
0.0126507
0.0126523
0.0126522
0.012651
0.0126515
0.0126523
0.0126528
0.0126524
0.0126522
0.0126509
0.0126523
0.0126523
0.0126523
0.0126522
0.0126499
0.0126521
0.0126524
0.0126507
0.0126521
0.0126503
0.0126499
0.0126509
0.0126497
0.0126508
0.0126524
0.0126508
0.0126508
0.0126522
0.0126506
0.0126524
0.0126505
0.0126504
0.0126499
0.0126508
0.0126505
0.0126526
0.0126521
0.0126523
0.0126508
0.012651
0.0126509
0.0126504
0.0126507
0.0126506
0.0126507
0.0126516
0.012652
0.0126504
0.0126524
0.0126504
0.0126506
0.0126523
0.0126502
0.0126507
0.0126501
0.0126508
0.0126509
0.0126503
0.0126518
0.0126507
0.012652
0.0126504
0.0126505
0.0126505
0.0126506
0.0126506
0.0126506
0.0126506
0.0126508
0.01265
0.01265
0.01265
0.01265
0.0126496
0.0126496
0.0126519
0.0126507
0.0126507
0.0126515
0.0126499
0.0126499
0.0126507
0.012652
0.0126508
0.0126508
0.0126519
0.0126501
0.0126519
0.0126503
0.0126507
0.0126519
0.012652
0.0126526
0.0126525
0.0126504
0.0126527
0.0126511
0.012652
0.0126516
0.0126508
0.0126506
0.0126485
0.0126506
0.0126527
0.012652
0.0126507
0.0126509
0.012652
0.0126506
0.0126516
0.0126486
0.012652
0.0126505
0.0126505
0.012651
0.0126499
0.0126506
0.0126496
0.0126511
0.0126528
0.0126528
0.0126498
0.0126514
0.012651
0.0126519
0.0126501
0.0126507
0.012652
0.0126507
0.0126518
0.0126509
0.0126518
0.012652
0.0126481
0.0126498
0.0126499
0.0126499
0.0126508
0.0126518
0.0126491
0.0126506
0.0126514
0.0126518
0.0126519
0.0126498
0.0126519
0.0126499
0.0126519
0.0126528
0.0126518
0.0126527
0.0126503
0.0126519
0.0126481
0.0126519
0.0126504
0.0126519
0.0126505
0.0126519
0.0126512
0.0126531
0.0126512
0.0126519
0.0126498
0.0126519
0.0126514
0.0126505
0.0126507
0.0126519
0.0126518
0.0126516
0.0126503
0.0126518
0.012651
0.0126511
0.0126497
0.0126518
0.0126517
0.0126514
0.0126517
0.0126518
0.0126516
0.0126502
0.012651
0.0126517
0.0126519
0.0126509
0.0126508
0.0126518
0.0126497
0.0126532
0.0126511
0.0126526
0.0126513
0.0126539
0.012654
0.0126539
0.0126539
0.0126539
0.012654
0.012654
0.0126503
0.0126492
0.012651
0.0126514
0.0126516
0.0126517
0.0126509
0.0126516
0.0126517
0.0126492
0.0126516
0.0126501
0.0126521
0.01265
0.0126512
0.0126514
0.0126517
0.0126498
0.0126512
0.0126514
0.0126512
0.0126514
0.0126517
0.012652
0.0126514
0.0126512
0.0126501
0.0126515
0.0126517
0.0126516
0.0126514
0.0126512
0.0126509
0.0126516
0.0126509
0.0126512
0.0126514
0.0126509
0.0126512
0.0126516
0.0126505
0.0126514
0.0126493
0.0126528
0.0126503
0.0126502
0.0126512
0.0126514
0.0126506
0.0126532
0.0126512
0.0126514
0.0126531
0.0126482
0.0126482
0.0126511
0.0126516
0.0126514
0.0126516
0.0126473
0.0126473
0.0126509
0.0126509
0.0126509
0.0126533
0.0126516
0.0126504
0.0126515
0.0126515
0.0126515
0.0126532
0.0126505
0.0126516
0.0126512
0.0126512
0.0126515
0.0126514
0.0126515
0.0126515
0.0126531
0.0126526
0.0126514
0.0126512
0.0126514
0.0126515
0.0126514
0.0126514
0.0126514
0.0126528
0.01265
0.0126516
0.0126506
0.0126505
0.0126528
0.0126512
0.0126512
0.0126497
0.0126481
0.0126481
0.0126498
0.0126517
0.0126512
0.0126528
0.0126482
0.0126475
0.0126475
0.0126533
0.0126491
0.0126486
0.0126512
0.01265
0.012651
0.0126508
0.0126504
0.0126504
0.0126509
0.0126532
0.0126512
0.0126507
0.0126504
0.0126532
0.0126489
0.0126532
0.0126504
0.0126508
0.0126518
0.0126511
0.012651
0.0126495
0.0126509
0.0126495
0.0126512
0.0126505
0.0126487
0.0126487
0.0126529
0.0126507
0.0126537
0.0126537
0.0126537
0.0126506
0.0126533
0.0126537
0.0126515
0.0126536
0.0126495
0.0126495
0.0126536
0.0126513
0.0126531
0.0126537
0.0126531
0.0126537
0.0126531
0.012649
0.0126529
0.0126533
0.0126536
0.012651
0.0126503
0.0126532
0.012651
0.0126536
0.0126508
0.0126513
0.0126537
0.0126532
0.0126537
0.0126533
0.0126512
0.0126493
0.0126475
0.0126476
0.0126507
0.0126475
0.0126475
0.0126476
0.0126479
0.0126529
0.0126488
0.0126498
0.0126492
0.0126508
0.0126478
0.0126479
0.0126492
0.0126533
0.0126514
0.0126534
0.0126532
0.0126531
0.0126483
0.0126483
0.0126483
0.0126483
0.0126483
0.0126476
0.0126484
0.0126478
0.0126475
0.0126483
0.0126483
0.0126475
0.0126476
0.0126478
0.0126484
FIELD solute_flux_TPM 2
S_ext 3 563 float
-5.49638e-05 1.83901e-05 -1.09715e-18
2.34414e-06 4.53817e-06 6.01685e-18
-8.43609e-06 -6.71658e-06 3.35435e-19
-2.77828e-06 2.79932e-06 5.33928e-18
1.52237e-05 -4.34236e-06 -1.55103e-18
1.84663e-06 -1.0539e-05 -1.83469e-18
-5.41241e-05 -1.86138e-05 2.78833e-18
-9.17915e-06 -6.86583e-06 2.68734e-18
1.47364e-05 6.18761e-07 -1.72003e-19
7.61941e-06 -2.65481e-06 3.35735e-19
3.65755e-05 8.51737e-06 1.40902e-18
1.56432e-06 -1.13828e-05 -1.84179e-18
9.09159e-06 7.44784e-06 -2.18024e-18
1.75001e-06 9.0973e-06 -5.35463e-19
1.38023e-05 -2.01058e-06 -1.53501e-18
-1.07222e-05 -1.74831e-07 4.01589e-18
1.82206e-06 9.34011e-06 -2.00296e-19
6.80932e-06 -1.62188e-06 2.34308e-18
6.56094e-06 1.14438e-05 -8.32646e-19
-9.77396e-06 1.23267e-06 -2.82724e-18
-2.38519e-06 -1.40423e-05 -3.16094e-18
2.86316e-05 4.03947e-05 5.30763e-19
1.04898e-05 1.06766e-06 2.82906e-18
7.48743e-06 -7.50344e-06 3.2254e-19
-9.9185e-06 -2.18586e-06 2.99675e-18
-4.53307e-07 -7.3497e-06 -1.85106e-18
4.19743e-05 -3.28925e-06 1.05912e-20
9.38925e-06 6.82261e-06 -3.3392e-18
-1.65839e-05 -1.34578e-05 2.74321e-18
3.24595e-05 -8.5828e-06 1.81944e-19
-1.08921e-05 -3.98099e-06 4.35761e-18
3.53516e-06 -2.12605e-05 -2.09979e-18
3.14941e-05 -3.21053e-05 1.59881e-19
-3.45588e-06 -2.77485e-05 -8.76248e-19
-1.95925e-05 2.44032e-05 -3.66191e-18
-2.57572e-05 -1.08714e-05 2.08138e-18
2.15093e-05 2.81806e-05 2.07029e-18
-2.96296e-05 -5.79244e-06 -5.72413e-18
9.61574e-06 -7.34871e-06 1.49728e-18
3.07673e-05 3.34547e-05 -9.38342e-19
2.14065e-05 -9.37656e-06 1.28895e-18
2.19395e-05 -2.7123e-05 -4.37143e-18
-1.25261e-05 -3.25415e-05 1.39946e-18
-1.04435e-05 4.19457e-06 -4.17709e-18
2.01347e-05 -1.96959e-05 7.91238e-19
-1.98548e-05 7.06077e-06 -1.93849e-18
-2.72095e-06 -1.3404e-05 2.97339e-18
5.22606e-06 1.33691e-05 -1.3364e-18
-1.07745e-05 3.89685e-06 -3.00419e-18
-1.19425e-05 1.87753e-05 -4.97586e-18
2.16033e-05 1.01845e-05 1.92582e-18
1.95094e-05 -6.76434e-06 -1.4661e-18
-1.04077e-05 1.04425e-05 -3.67416e-19
-1.54434e-05 -1.3424e-05 3.90453e-18
-1.40333e-05 -3.4245e-06 -1.90046e-18
-2.93666e-05 1.74835e-05 -1.11205e-18
-1.93955e-05 -2.51132e-05 -5.278e-19
4.08435e-06 -2.0198e-05 -8.15076e-19
-3.1454e-05 4.28209e-06 -2.41529e-18
4.03186e-06 9.08645e-06 -8.4517e-19
-3.67685e-06 -5.40959e-06 9.88099e-21
-4.33147e-06 -1.18782e-05 2.04978e-18
3.79223e-05 1.65306e-05 1.42382e-18
6.14817e-06 1.201e-05 2.34665e-18
8.17302e-06 -9.56497e-06 -6.90025e-19
-1.10116e-06 -1.37525e-05 1.70375e-19
3.06986e-06 -5.82873e-06 1.34272e-18
-6.64574e-06 -3.66739e-06 1.6843e-18
-7.03252e-06 7.83668e-06 -2.16948e-18
1.70898e-06 -2.77787e-06 -5.0614e-19
-9.97708e-06 -1.05049e-05 1.36367e-18
-1.41529e-05 3.43297e-06 -3.28662e-19
-2.54182e-06 2.26514e-05 -4.84451e-18
-1.18253e-05 7.0747e-06 -5.75818e-18
-6.00947e-06 9.59827e-06 -8.43442e-19
-3.91827e-05 4.86704e-06 1.71957e-18
5.2237e-06 -1.43608e-05 2.37787e-18
-1.24932e-05 -5.84003e-06 6.82087e-19
1.29073e-06 7.70309e-06 2.49443e-18
1.7547e-05 3.37205e-06 3.15934e-19
2.26712e-05 -1.93303e-05 1.12518e-18
1.47623e-05 1.36049e-05 2.0404e-18
7.99761e-06 -1.93303e-06 -2.54896e-18
-2.11097e-05 1.54759e-05 -3.21448e-19
2.52e-05 3.2267e-06 1.77251e-18
-3.64013e-06 3.24285e-05 -2.85209e-18
-1.174e-06 -1.11287e-05 1.50321e-18
1.21473e-05 6.61101e-06 3.03701e-18
1.93645e-05 2.0284e-05 3.63625e-18
4.25446e-05 2.64462e-05 7.92242e-18
-3.6063e-06 2.02983e-05 -6.02543e-18
4.44377e-05 -2.49722e-05 -2.65952e-18
-1.80261e-05 3.50468e-06 -4.27808e-18
1.19576e-05 7.36965e-06 -1.3486e-18
-1.93962e-05 6.44572e-06 -4.39499e-18
1.09482e-05 1.90027e-05 -4.35141e-18
6.52006e-06 -2.9258e-05 1.75713e-18
1.29853e-06 7.69805e-06 9.92017e-19
-9.75593e-06 -1.16758e-05 -1.87129e-18
2.03957e-06 1.1561e-05 2.49054e-18
1.75686e-05 3.50345e-06 -2.80062e-18
-1.02449e-05 2.177e-05 -5.35329e-18
2.69371e-05 -8.97652e-06 -6.40602e-19
-2.51914e-06 4.90335e-06 1.48594e-18
6.66643e-06 3.90674e-06 -1.73358e-19
-1.50344e-06 -7.47296e-06 1.00302e-18
2.14491e-06 -1.27772e-05 -3.49385e-19
1.16568e-05 2.58705e-06 2.83817e-18
-5.45565e-06 2.70673e-05 -4.15818e-18
-6.53695e-06 1.40293e-07 3.34245e-18
6.21841e-06 7.89376e-06 -5.07246e-19
-1.79108e-06 -2.75962e-05 2.53197e-18
2.79401e-05 8.66707e-06 3.97979e-18
2.9825e-06 -4.93678e-06 -2.18221e-18
-7.33643e-06 -2.34499e-06 -1.33475e-18
-1.91639e-05 -8.143e-06 -6.50845e-19
1.0655e-05 2.7778e-05 2.60333e-18
-2.82307e-05 -1.00539e-05 -9.59595e-19
1.08038e-05 -2.78519e-05 -6.95399e-18
-2.50148e-06 -2.10381e-05 -3.32688e-19
1.45714e-05 4.03411e-07 1.64131e-18
-4.77689e-06 1.22447e-05 1.53621e-18
-1.04357e-06 2.6159e-06 4.88122e-19
-2.43749e-06 -1.09702e-05 -6.81628e-19
3.51446e-06 -5.62251e-06 1.50996e-18
6.21101e-06 1.05103e-05 3.72275e-18
2.23643e-05 7.29234e-06 3.61248e-18
5.80835e-06 -4.93308e-06 -1.35017e-18
-5.59677e-06 -2.96138e-05 -8.03069e-19
1.69839e-05 -1.25348e-05 8.12064e-19
3.30642e-06 1.84632e-05 3.23823e-18
-1.8533e-06 -1.87555e-06 -2.01063e-18
-5.71623e-06 -5.50957e-06 1.5159e-18
-3.17095e-06 4.47921e-08 3.53449e-18
-1.50557e-05 1.85923e-05 -7.62471e-18
1.29185e-05 -2.50329e-05 -3.65968e-18
-1.76115e-05 2.78312e-05 -5.41683e-18
-1.07735e-05 6.25972e-06 1.65641e-19
1.68272e-06 8.18821e-06 3.55223e-18
-1.51905e-05 -2.36863e-05 1.58092e-21
9.13106e-06 2.2134e-05 -7.30454e-18
1.1716e-05 6.19787e-06 1.17678e-18
1.51816e-05 -5.71911e-06 1.57281e-19
-8.11166e-07 -7.46136e-06 -2.55804e-21
-2.21703e-05 -2.03902e-05 -8.0871e-19
-1.83014e-06 7.46841e-06 2.48728e-18
1.15307e-05 6.79568e-06 8.39202e-19
1.26083e-05 -5.92843e-06 3.49157e-18
5.52244e-06 -9.50679e-06 -7.17925e-21
1.62296e-05 -7.20175e-06 -3.29072e-19
1.26905e-05 -6.00898e-06 3.64341e-18
3.15655e-06 1.78724e-07 8.34035e-19
1.70593e-05 1.35051e-05 -1.12966e-18
-1.80665e-06 -1.12237e-05 2.00409e-18
-6.93432e-06 -2.92208e-06 4.8756e-18
7.44323e-07 -2.56627e-06 -6.77059e-19
-2.094e-06 1.04928e-05 3.67525e-18
-2.27055e-05 1.78973e-06 -2.76204e-18
-8.03615e-06 -2.17789e-05 -1.62482e-18
-5.22529e-06 6.43791e-06 2.3265e-18
9.00959e-06 1.10208e-05 1.32152e-18
1.76021e-05 -1.25517e-05 8.09008e-19
-2.41812e-05 -1.31055e-05 1.1091e-18
1.14416e-05 -1.83508e-05 9.65263e-19
1.50804e-05 -1.80714e-05 1.64647e-19
-7.21073e-06 2.51557e-06 -3.30118e-19
-1.30454e-05 -1.87779e-05 1.61917e-18
-2.26881e-05 -3.76932e-06 -1.46304e-18
-2.7377e-06 -2.08806e-05 -4.85266e-19
1.01297e-05 -2.09663e-05 -1.62487e-18
-6.05845e-06 -1.74019e-05 -1.53969e-18
2.90847e-06 2.07124e-05 -7.81419e-18
-1.05402e-05 -1.86669e-05 -3.22381e-18
1.96042e-06 -1.07747e-05 -8.47138e-19
-1.62426e-05 1.18314e-05 -4.0676e-18
-9.948e-06 -8.02257e-06 1.70441e-18
-1.81445e-05 -3.39664e-06 -6.70161e-19
1.04876e-05 -6.14857e-06 2.5022e-18
-2.85436e-06 1.58829e-05 4.29255e-18
8.2265e-06 -6.20954e-06 3.17638e-18
-1.93781e-05 -8.49807e-06 -1.29228e-18
-5.84654e-06 -4.90474e-06 -1.00591e-18
6.09239e-06 4.98402e-06 -1.69464e-18
1.4172e-05 1.90403e-05 -3.56966e-18
-1.15457e-05 -7.13984e-06 -4.97008e-19
-2.12592e-05 -5.13008e-07 6.42717e-19
-1.08269e-05 -3.28679e-06 3.21854e-18
-3.02755e-06 -1.0983e-05 -1.19105e-18
1.18924e-05 1.42977e-05 -6.82774e-19
-7.2722e-06 3.85121e-06 -3.57328e-19
4.39698e-07 -1.36076e-05 2.19745e-18
-2.73241e-05 7.00035e-06 -2.40527e-18
1.6525e-05 1.34557e-05 6.51818e-19
2.3902e-06 2.1743e-05 -1.45905e-18
-1.6006e-06 2.52304e-06 1.01889e-18
-5.9614e-06 1.6715e-07 -1.16754e-18
2.92516e-06 5.13841e-06 8.26228e-19
-7.7535e-06 2.27498e-06 1.8448e-19
-1.33927e-06 -2.48846e-06 -1.01551e-18
1.10636e-06 1.37453e-05 -8.62522e-19
3.02488e-06 2.66449e-07 1.66453e-18
-1.28375e-05 3.09656e-06 -4.96433e-19
-1.14695e-05 1.26698e-05 -9.46131e-18
-2.04792e-06 7.6794e-06 3.73082e-18
-1.92338e-05 1.19767e-05 -3.8777e-18
-6.20394e-06 5.94571e-06 -2.60893e-20
1.16045e-05 -7.83177e-06 -1.81233e-19
2.43313e-05 -2.41459e-06 3.07805e-18
-1.40403e-05 7.45863e-06 -2.88703e-18
1.49005e-06 3.00319e-06 2.35526e-18
1.46631e-05 -2.86588e-06 4.95835e-19
-1.14194e-05 6.85088e-06 -2.52539e-18
-6.51509e-06 3.65727e-06 -1.34121e-18
7.98407e-06 2.56026e-06 3.20526e-18
1.45358e-05 -9.01048e-06 -6.65725e-19
-1.14939e-05 6.5401e-06 -2.01936e-18
-1.64094e-05 -3.44952e-06 -3.09389e-18
-1.10815e-05 -2.86474e-06 4.75088e-18
6.68584e-06 4.40572e-08 3.1885e-18
6.85099e-06 9.53804e-08 -2.54021e-18
2.90868e-06 5.5124e-06 3.82704e-18
3.20997e-06 -5.83218e-06 8.32881e-19
-3.31818e-06 5.60268e-06 1.22183e-20
-3.47826e-06 -5.73458e-06 4.61761e-21
6.63465e-06 -4.99007e-06 -2.53041e-18
-1.35127e-05 2.15603e-06 1.03788e-18
-1.3361e-05 -2.19894e-06 3.55252e-18
-8.53074e-06 1.05614e-05 1.00139e-18
-8.57943e-06 -1.06026e-05 1.52388e-18
5.00595e-06 -1.33948e-05 -2.41578e-18
4.82296e-06 1.32799e-05 -1.67394e-19
9.76348e-07 1.71335e-05 -6.72583e-18
7.55478e-06 -2.05099e-06 1.84227e-18
1.63394e-06 -2.54611e-06 -6.7773e-19
-1.40207e-05 9.36752e-07 4.97408e-19
5.17002e-06 -1.31789e-05 -1.87004e-19
4.89844e-06 1.32266e-05 2.72647e-18
3.20023e-06 -5.95703e-08 -1.3395e-18
5.89063e-06 1.62074e-05 -4.23917e-18
-1.49097e-06 -2.65301e-06 4.69385e-18
1.5801e-06 -7.4965e-06 1.84688e-18
-1.47194e-05 -7.89886e-06 -3.31845e-19
-1.41692e-05 -7.58979e-06 3.46242e-19
-1.44126e-05 8.9067e-06 -1.62114e-19
2.16979e-06 -8.29499e-06 -2.55046e-18
-1.05921e-06 2.22557e-06 3.31772e-18
-4.75037e-07 -1.68414e-05 9.78049e-19
-5.18626e-06 -1.60387e-05 -4.41559e-18
2.16984e-05 2.02191e-05 -1.44474e-18
2.36727e-05 -1.22581e-06 -1.62344e-19
-8.44799e-06 -2.43975e-06 1.50328e-18
-1.51272e-05 -2.69339e-05 4.86401e-19
5.53862e-06 9.10181e-06 -1.7719e-19
-1.65407e-05 1.95177e-06 -3.91443e-18
1.33954e-05 3.83775e-06 -1.16211e-18
-2.99534e-06 -1.25732e-08 1.75655e-19
-3.0723e-06 -5.5829e-06 1.65578e-19
-5.43839e-06 -2.58787e-05 -4.71092e-18
-6.45251e-06 -4.0472e-08 2.70264e-18
-3.14425e-05 -1.18037e-06 -1.59171e-18
1.14619e-05 -1.27434e-05 2.44834e-18
1.66306e-06 2.63886e-06 -1.52776e-18
-7.12774e-08 -1.15956e-05 -2.18032e-18
-6.58506e-06 1.58114e-05 -7.9954e-18
-2.88816e-06 5.72731e-06 -6.91814e-19
1.36957e-05 -9.05849e-06 -5.05495e-19
-2.51266e-05 -8.21031e-06 5.29647e-19
-1.01107e-05 -1.33427e-05 -3.2909e-19
3.34456e-06 5.63193e-06 4.55052e-18
1.11592e-05 3.39488e-06 -1.35632e-18
-3.15585e-06 -4.83234e-06 -2.1563e-21
1.33431e-05 2.42051e-06 6.28639e-18
1.22153e-05 -6.56598e-06 -8.58745e-19
-2.53204e-07 1.80102e-05 -3.27796e-18
5.56311e-06 -9.05079e-06 -1.00847e-18
3.2494e-05 1.39293e-06 2.38618e-18
-2.76044e-05 7.1943e-06 -3.19834e-19
1.54012e-05 7.69846e-06 -2.05605e-18
-4.27416e-06 -1.12856e-05 1.49473e-18
-1.0125e-05 -5.66685e-06 2.68723e-18
1.91474e-05 -1.5884e-07 1.56945e-19
-4.77221e-07 -1.61114e-05 -1.53527e-18
-8.30794e-06 -7.18702e-06 -1.62139e-19
6.73239e-06 -1.56199e-05 -2.12534e-18
-3.57491e-07 1.3609e-05 3.11375e-19
5.186e-06 1.72243e-05 -4.43925e-18
1.15547e-05 -6.62966e-06 3.00707e-18
-1.24766e-05 1.25788e-05 -3.7796e-18
1.09375e-05 1.33346e-05 -1.30261e-18
-4.32839e-05 1.0327e-05 -6.48253e-18
-6.73454e-06 1.72755e-05 -3.26938e-18
8.31737e-06 -1.01181e-05 -1.37954e-18
-4.64833e-06 -1.21893e-05 6.9651e-19
-7.86035e-06 2.94607e-06 1.51147e-19
-1.69188e-05 -4.60682e-06 3.26841e-19
-4.46117e-06 2.6088e-05 -6.57944e-18
-8.32209e-06 7.90047e-06 1.86526e-18
1.38509e-05 -3.02329e-06 2.15456e-18
-4.55868e-06 -1.69592e-05 -1.98e-18
-9.82233e-06 1.56351e-05 -8.86947e-18
-1.44455e-05 8.31704e-06 -2.39882e-18
-1.35262e-05 -9.85121e-06 2.29383e-18
1.21398e-05 -1.39685e-05 -1.0372e-18
-1.79677e-05 -9.51969e-07 9.89729e-19
7.93508e-06 -2.72071e-05 2.21484e-18
1.28773e-05 -1.25606e-05 2.13414e-18
1.62483e-05 2.85507e-05 7.96039e-19
1.29062e-06 1.31721e-05 4.21403e-18
1.91886e-06 -1.683e-05 -1.31274e-18
-2.81605e-05 3.30514e-05 -5.59731e-18
-8.38006e-06 -1.5983e-05 -4.59603e-18
1.10248e-05 -4.28716e-06 1.16835e-18
-1.69071e-06 1.69657e-05 -9.67071e-18
8.64386e-06 -7.99127e-06 -6.82063e-19
9.1722e-06 1.60925e-05 -9.85468e-19
1.14942e-05 -9.66664e-07 3.50431e-18
1.42307e-05 -4.16805e-05 4.89133e-18
-3.89533e-06 -8.4732e-06 9.96524e-19
-1.52164e-05 6.53863e-06 -1.64252e-18
-1.33095e-05 1.24272e-05 1.20008e-18
1.4349e-05 9.70616e-06 1.6302e-19
1.24425e-05 -7.19814e-06 1.48569e-18
9.99708e-06 8.42837e-06 -2.87096e-18
-3.62302e-06 5.52784e-09 -6.98067e-19
1.01863e-05 -1.52971e-05 2.78673e-18
-1.11768e-05 -1.33187e-05 2.46107e-18
1.50084e-05 6.51219e-06 -3.30559e-19
8.59443e-06 -8.06218e-06 1.34616e-18
6.27765e-06 -1.64294e-05 -4.27231e-18
1.11332e-05 -4.68032e-06 9.97667e-19
-1.04066e-05 -4.94817e-06 6.01668e-18
8.72972e-07 -1.74304e-05 1.71146e-18
-1.70674e-05 2.92355e-06 -5.9193e-18
1.51519e-06 1.61941e-05 -2.8146e-18
1.3716e-05 4.41625e-06 2.98848e-18
-1.42427e-05 -7.00843e-06 4.88657e-22
-5.9615e-06 1.68337e-05 -4.44205e-18
-1.01048e-06 -1.59627e-05 -1.70877e-19
1.30622e-05 7.92441e-06 -4.53992e-21
-1.17297e-06 1.19541e-05 2.32416e-18
-1.32472e-05 8.92044e-06 -9.93392e-19
1.56692e-05 7.58731e-06 6.52865e-19
-1.12654e-05 -6.59551e-06 5.88483e-18
7.75731e-08 -1.31138e-05 -2.8565e-18
1.22022e-05 1.32532e-05 -1.15432e-18
-1.46459e-05 -9.45974e-06 8.55729e-21
3.21724e-05 -2.30225e-05 1.55676e-18
1.1967e-05 -7.21345e-06 8.25825e-19
5.73816e-06 2.84246e-05 2.08052e-18
1.13668e-05 -9.09225e-06 -1.79349e-19
-1.49883e-05 5.77904e-05 -2.23575e-18
-1.50665e-05 -5.72403e-05 -1.93969e-18
3.76158e-05 4.91769e-05 -1.93536e-18
3.7163e-05 -4.91648e-05 -1.33562e-18
6.1422e-05 -3.00068e-08 -6.84605e-18
-5.28555e-05 2.14121e-05 -2.07691e-18
-5.19975e-05 -2.16359e-05 -1.93459e-18
8.21022e-06 7.9109e-06 -1.01149e-18
1.97887e-05 1.47261e-05 -2.24331e-18
7.65656e-06 2.21418e-06 -2.5188e-18
1.25884e-05 6.47927e-06 9.90004e-19
3.28265e-06 1.33743e-05 8.13884e-19
-1.23811e-05 -9.76732e-06 6.59867e-19
1.14343e-05 -6.80238e-06 2.16598e-18
1.32238e-05 9.66049e-06 1.48398e-18
-2.12913e-06 1.60783e-05 -5.28853e-18
1.98846e-05 -1.35224e-05 3.43309e-18
2.45575e-06 -1.56717e-05 2.63855e-18
1.4747e-05 3.43115e-06 -1.36469e-18
1.98539e-05 7.36425e-06 -1.62295e-19
9.4362e-06 9.38313e-06 1.32325e-18
1.06144e-05 4.38608e-06 9.95245e-19
-1.21891e-05 7.17453e-06 -1.65979e-18
-1.48074e-05 5.9152e-06 8.21229e-19
1.54658e-05 -7.55135e-06 4.98878e-19
-1.20113e-05 -6.5746e-06 1.83642e-18
-1.22046e-05 -6.9122e-06 1.824e-18
-2.26072e-07 -1.37248e-05 -2.67392e-18
-9.83168e-08 -1.39634e-05 -1.49782e-18
-1.3214e-05 -6.62898e-07 4.96414e-19
1.78109e-05 -2.70278e-06 -1.46797e-18
1.20594e-05 7.55679e-06 -5.47168e-18
-1.17839e-05 7.15725e-06 3.33296e-19
-1.0158e-05 1.10265e-05 -2.20678e-18
1.06577e-05 -9.17558e-06 2.63304e-18
-7.32768e-06 1.14661e-05 -9.56183e-18
-9.38756e-06 -9.76961e-06 -6.65865e-19
-8.18044e-07 1.39859e-05 -1.17849e-18
-8.61816e-07 1.38569e-05 6.48147e-19
3.69436e-08 -1.3118e-05 1.69479e-19
4.04418e-06 -1.30942e-05 -5.1256e-18
-1.13117e-05 -6.51767e-06 2.01691e-18
1.04156e-05 -3.68291e-06 2.65752e-18
4.18422e-07 1.42094e-05 2.30036e-18
1.67987e-07 1.2226e-05 4.79191e-19
-1.58842e-06 1.11124e-05 1.64798e-18
1.46041e-05 -3.69314e-06 -1.68263e-19
-1.09904e-05 3.52417e-06 -2.21161e-18
2.72218e-06 1.42228e-05 -1.18308e-18
-2.17372e-05 8.53038e-06 -1.03156e-18
6.22613e-06 2.77978e-05 2.21596e-18
-1.13028e-05 2.99658e-06 -1.02918e-18
1.32485e-05 -7.83584e-06 2.87203e-18
5.86926e-07 1.38897e-05 -5.2327e-19
-1.34336e-05 4.39695e-06 -1.8299e-18
1.61543e-06 -1.07494e-05 3.31845e-19
6.02322e-07 -3.85355e-05 -9.29481e-19
1.32509e-06 1.15851e-05 2.64715e-18
-1.11883e-05 9.16336e-06 6.60934e-19
1.14685e-05 4.22188e-05 4.74251e-18
3.15213e-05 2.61406e-05 5.0745e-18
3.61321e-05 -2.4722e-05 -3.16366e-18
9.90016e-06 -6.78985e-06 3.82872e-18
-1.04356e-05 9.20328e-06 -2.64518e-18
-1.32583e-05 -5.2013e-06 3.65622e-18
-1.29033e-05 -4.45228e-06 3.30515e-19
4.44134e-05 -1.22026e-05 1.23945e-18
4.5305e-05 9.52549e-06 5.32569e-18
7.28246e-06 2.53384e-06 8.32993e-19
4.88551e-07 1.29574e-05 1.31434e-18
4.71448e-08 1.29483e-05 9.8143e-19
-3.21046e-05 -2.34898e-05 1.24046e-18
7.58072e-06 -1.14229e-05 1.64317e-18
7.8704e-06 8.36759e-06 -6.76314e-19
-1.40231e-05 -2.2312e-06 5.31147e-18
-9.27241e-06 1.12619e-05 -3.47934e-18
-1.24285e-05 5.98289e-06 7.25518e-22
3.17713e-05 2.279e-05 -3.56106e-18
1.05918e-05 4.69843e-06 2.52865e-18
-3.74005e-06 1.3181e-05 -5.12555e-18
-1.11938e-05 -7.68889e-06 -1.63266e-19
1.20673e-06 -1.35813e-05 -2.67302e-18
-5.90936e-06 -1.26695e-05 4.80551e-18
-1.13507e-05 -7.7237e-06 1.82264e-18
7.0119e-06 -1.25393e-05 -1.161e-18
9.40317e-06 -1.12646e-05 4.46997e-18
-1.96284e-06 -4.03232e-05 -2.03753e-18
1.71893e-05 -2.7268e-05 -8.05809e-19
1.15148e-06 -1.37547e-05 3.32542e-19
1.19954e-05 7.53399e-06 -4.50642e-18
-9.54541e-06 -9.75161e-06 9.96822e-19
-6.51291e-06 1.29464e-05 -8.12992e-18
-3.34818e-06 1.38423e-05 -3.171e-18
1.10796e-05 9.44003e-06 -6.64952e-19
3.99796e-06 -1.31367e-05 -2.82435e-18
-9.23049e-06 -2.64314e-05 3.15285e-19
-1.35526e-06 1.664e-05 6.60315e-19
9.83262e-06 9.61873e-06 6.60963e-19
-8.54024e-06 -6.7333e-06 1.18422e-18
-8.947e-06 7.0011e-06 -8.43159e-19
2.95822e-05 -1.27182e-05 6.34123e-19
5.0358e-06 -8.87677e-06 -1.1683e-18
-5.50815e-06 -8.29418e-06 1.33619e-18
1.43659e-05 4.37347e-06 3.41167e-18
8.82077e-06 -3.18255e-05 -5.26697e-18
-2.31563e-05 -2.35318e-05 -6.9649e-19
1.56686e-05 4.11738e-06 -2.05266e-18
-6.19307e-06 -1.20068e-05 -2.14657e-18
1.24786e-05 6.33006e-06 1.33123e-18
-1.90414e-05 -2.11398e-05 7.94454e-19
7.14295e-06 3.23616e-05 1.64871e-19
3.1346e-05 -4.04804e-05 -4.26933e-18
-1.93859e-05 -4.73767e-05 -5.2423e-19
1.79549e-05 -3.51054e-05 4.17579e-18
-8.43155e-06 2.89189e-05 -1.20536e-18
-4.79904e-06 2.56176e-05 -4.35743e-18
-1.23383e-05 5.88971e-06 1.00091e-18
3.99925e-06 1.60894e-05 3.39125e-18
-1.60398e-06 8.3344e-06 1.31648e-18
6.77575e-06 2.15509e-06 -1.0086e-18
-2.11605e-06 1.07529e-05 2.84505e-18
-1.64622e-07 1.39112e-05 -8.69503e-19
1.11387e-05 6.48622e-06 3.85245e-18
5.58477e-07 3.83533e-05 -1.54804e-18
-9.72155e-06 7.03272e-06 2.66286e-18
1.06884e-05 -4.14664e-06 2.0087e-18
1.13698e-05 -2.97935e-06 -8.57508e-19
-3.9314e-05 -5.64397e-06 7.87292e-19
-2.29661e-05 1.09265e-05 -7.28044e-18
-2.8531e-05 -3.38282e-05 1.42855e-18
5.73284e-06 5.51452e-06 1.32523e-19
9.50186e-06 4.87982e-06 -6.56484e-18
1.78334e-05 -2.83738e-06 9.83349e-19
-5.34928e-06 -8.70891e-06 -5.02179e-19
1.15007e-05 5.63106e-06 3.17711e-18
4.88282e-06 -1.99632e-05 -2.93801e-18
-9.09211e-06 6.69706e-06 2.00008e-18
-1.48405e-05 -1.42089e-05 -2.396e-18
-3.86768e-06 1.07387e-05 -1.86225e-19
-2.18922e-06 1.37102e-05 -2.71206e-20
2.29384e-05 1.42479e-05 4.85301e-18
2.44549e-05 -1.29802e-05 -3.48468e-18
-2.74462e-05 -7.39276e-06 -4.74801e-19
5.10448e-06 5.14065e-06 -6.7341e-18
-3.22248e-06 6.70797e-05 -1.54296e-18
-1.84943e-08 -6.89039e-05 -2.47658e-18
3.39604e-05 5.8119e-05 -2.63342e-18
-1.26675e-05 5.55263e-06 -1.86761e-18
-1.82145e-05 3.67761e-05 -4.96101e-18
3.41689e-05 -5.60963e-05 2.31827e-18
-7.73418e-06 -1.1976e-05 6.57954e-19
5.1954e-05 4.5236e-05 -2.15459e-18
1.59687e-05 -1.18918e-05 -4.32836e-18
-2.33193e-06 -1.97654e-05 9.9509e-21
5.44369e-05 -4.42328e-05 -1.37864e-18
-4.49354e-06 9.55653e-06 -5.99706e-18
-3.48701e-05 -2.21532e-05 -9.46946e-19
-2.87312e-05 -5.99872e-05 -7.73826e-19
-1.62632e-05 -3.79544e-05 -1.2452e-18
-2.95376e-05 6.09703e-05 -2.93512e-18
-6.99401e-06 4.21761e-05 -4.3869e-18
1.06873e-05 2.48468e-05 3.44989e-18
-1.87089e-05 2.40419e-05 -2.21048e-18
-1.74289e-05 -3.58005e-05 -5.26692e-18
6.68479e-05 1.17278e-05 -3.24863e-18
-1.11913e-05 7.05258e-06 2.51062e-18
-3.93197e-06 1.08159e-05 3.13112e-19
-3.30702e-05 2.38188e-05 7.85187e-19
-1.14059e-05 6.54364e-06 6.69458e-19
6.61896e-05 -1.04555e-05 -5.5368e-18
-1.01604e-05 5.12097e-06 9.97556e-19
4.79606e-06 -9.62775e-06 -5.49314e-18
-5.13985e-05 -3.91609e-05 1.39915e-18
-1.75209e-05 3.79902e-05 -7.66868e-18
-5.26238e-05 3.88807e-05 -1.07542e-18
1.58802e-05 3.49747e-05 -1.99997e-18
-9.76561e-06 6.9481e-06 2.66065e-18
-1.36023e-05 1.63255e-05 3.45139e-19
-2.41723e-05 3.03525e-05 -2.65806e-18
-3.78975e-05 -4.89071e-06 -4.94946e-18
-6.26863e-07 1.07963e-05 3.84092e-18
-2.56036e-05 -3.04801e-05 -2.6651e-18
-3.92097e-05 6.9392e-06 -8.65501e-18
-1.49325e-05 3.4643e-05 -8.64623e-18
-1.15292e-05 4.61301e-05 -3.51929e-18
-1.22101e-05 2.7062e-05 -6.48693e-18
-2.23839e-05 1.80334e-05 -3.11884e-18
1.64619e-05 -4.06253e-06 2.72016e-18
2.57082e-05 -1.40266e-06 -1.39131e-18
9.02957e-06 5.47268e-06 -5.21577e-18
-8.09994e-06 -5.30717e-05 -6.00158e-18
-5.00209e-05 -1.95083e-05 -5.97171e-18
2.50344e-05 3.50544e-07 -1.90205e-18
3.912e-05 -7.55229e-06 -4.93497e-18
-6.9897e-06 -8.87454e-06 -1.16741e-18
-3.395e-05 2.38651e-05 -1.39467e-18
-3.04247e-05 3.48483e-05 -2.68305e-18
4.13528e-05 -1.49009e-05 3.21576e-19
-1.86912e-05 -3.16779e-05 -2.10523e-18
-1.90259e-05 3.14333e-05 -2.63229e-18
-3.6921e-05 -1.30365e-06 -4.02389e-18
-1.6796e-05 3.3023e-05 -5.22113e-18
-3.68024e-05 3.77931e-07 -5.40351e-18
4.5762e-05 1.63904e-05 1.93721e-18
3.69508e-05 1.3549e-06 6.44099e-18
3.47306e-05 -1.7795e-05 1.0506e-18
1.0123e-05 -4.88158e-05 -7.24899e-19
1.83636e-05 -3.19815e-05 -4.37962e-18
1.82391e-05 3.19781e-05 -3.66686e-18
9.91335e-06 4.76972e-05 3.17721e-18
4.9978e-05 -1.4093e-05 -1.75651e-18
3.20462e-05 1.58734e-05 2.64011e-18
3.0811e-05 8.41992e-06 -2.44085e-18
P_ext 3 563 float
-7.18369e-07 2.43161e-07 -2.18535e-20
8.5356e-10 2.7005e-08 2.5704e-21
-6.69408e-08 -6.28738e-08 6.48422e-20
-2.11762e-08 1.95821e-08 2.60579e-20
1.89739e-08 2.25209e-10 -7.49198e-20
2.1976e-08 -8.93625e-08 2.57943e-20
-7.07254e-07 -2.46091e-07 3.38461e-20
-5.26491e-08 -5.95239e-08 8.36325e-20
1.45581e-07 2.60921e-09 7.63767e-21
5.33889e-08 -5.12727e-09 2.6139e-20
4.67577e-07 1.09448e-07 2.66642e-20
2.59081e-08 -7.62192e-08 2.59507e-20
5.97022e-08 7.08133e-08 -1.84212e-20
-5.95599e-09 5.57235e-08 -3.17933e-20
1.70674e-08 6.0439e-09 2.53928e-21
-9.32734e-08 -1.52718e-09 7.30965e-20
-1.1459e-08 3.68653e-08 -5.81083e-20
5.62639e-08 -8.53101e-09 6.003e-20
6.44352e-08 1.1485e-07 -1.55059e-20
-8.65904e-08 8.75533e-09 1.27831e-20
-3.23821e-08 -1.22636e-07 2.04919e-20
9.78058e-10 7.99475e-10 3.02859e-20
9.58729e-08 7.82309e-09 5.18954e-20
6.11202e-08 -7.04552e-08 4.6466e-20
-8.84476e-08 -1.42966e-08 3.12589e-20
-1.65665e-08 -4.85708e-08 -5.41323e-21
5.37936e-07 -4.39825e-08 1.70248e-20
6.66922e-08 5.61083e-08 -2.16324e-22
-1.97392e-07 -1.56851e-07 4.02271e-20
1.19201e-08 2.12994e-09 -9.44577e-20
-8.89233e-08 -1.59781e-08 7.06194e-20
3.8639e-08 -2.51067e-07 6.00584e-20
4.04204e-07 -4.13917e-07 5.37276e-20
9.56195e-10 -1.94772e-08 -1.90182e-20
-5.32393e-09 1.49958e-08 -8.9444e-20
-1.62285e-08 -1.07622e-08 1.82982e-19
2.35277e-09 1.06995e-08 5.94059e-20
-1.65055e-08 2.74995e-09 -5.96985e-20
6.44455e-08 -6.98671e-08 8.58024e-20
3.94421e-07 4.31367e-07 1.6961e-20
2.52712e-07 -1.1443e-07 4.01884e-20
4.21146e-09 -9.78179e-09 -4.38261e-20
-6.31221e-09 -8.76362e-09 1.35451e-19
-8.83207e-08 1.82863e-08 5.70144e-20
2.50189e-07 -2.45663e-07 2.71408e-20
-2.33664e-07 8.4103e-08 7.76989e-20
-2.96074e-08 -1.2943e-07 4.38562e-20
5.3528e-08 1.30027e-07 1.52504e-20
-8.47205e-08 2.22457e-08 8.01747e-20
-1.44572e-07 2.24932e-07 3.954e-20
2.56417e-07 1.25504e-07 3.26204e-20
2.22981e-07 -7.33723e-08 2.2607e-20
-6.80599e-09 1.60737e-08 -4.03255e-20
-1.74519e-07 -1.56567e-07 7.87069e-20
-1.76579e-08 2.26742e-09 -2.96258e-21
-3.73024e-07 2.19088e-07 -7.5316e-21
-4.95467e-09 -1.49315e-08 5.25955e-21
4.96726e-08 -2.30443e-07 6.06713e-20
-1.52657e-08 -3.23661e-09 1.42897e-19
3.91774e-08 7.85927e-08 3.34252e-20
-2.10082e-08 -6.62145e-09 5.25765e-20
-2.22195e-08 -2.11684e-08 7.68563e-20
4.85345e-07 2.13671e-07 6.14662e-20
-1.72782e-10 4.31702e-08 -3.19327e-20
6.92231e-09 -2.88662e-08 -2.6582e-20
1.10409e-08 -6.38469e-08 3.413e-20
-4.19761e-09 -2.10112e-08 2.36036e-20
-5.08902e-08 -1.30794e-08 -1.02314e-20
-5.91434e-08 7.23338e-08 6.18883e-20
1.58685e-08 -5.88926e-09 1.30166e-20
-6.71784e-09 -1.65259e-08 1.86634e-20
-1.74659e-08 -2.50351e-09 1.44137e-19
-2.91195e-08 2.69779e-07 7.98446e-20
-5.25266e-08 2.65662e-08 2.84823e-20
-5.06396e-08 8.66049e-08 4.91036e-20
-5.04186e-07 5.92999e-08 4.89427e-21
1.71065e-10 -4.07914e-08 4.77724e-20
-4.93767e-08 -4.11903e-08 8.93274e-20
2.05988e-08 5.05258e-08 7.69336e-21
1.94237e-07 3.88063e-08 5.01051e-21
2.77586e-07 -2.41454e-07 3.49911e-20
7.9459e-09 1.9204e-08 -5.55113e-21
1.92684e-08 5.7553e-09 -2.13349e-20
-2.58586e-07 1.91306e-07 2.44448e-21
3.0222e-07 3.67651e-08 2.55626e-21
-4.56839e-08 4.08728e-07 8.10346e-20
-1.5906e-08 -8.27731e-08 2.34437e-20
5.64622e-08 3.97078e-08 -3.92436e-20
2.40645e-07 2.53754e-07 2.25177e-22
4.46092e-09 2.22363e-09 -1.32217e-20
-4.64554e-08 2.31742e-07 3.99789e-20
4.03945e-09 -2.37158e-09 -2.77743e-20
-2.85113e-08 1.92507e-08 -2.16241e-20
6.09443e-08 2.49075e-08 -2.62537e-20
-2.23134e-07 6.90449e-08 9.59065e-20
1.29335e-07 2.27202e-07 9.64349e-21
8.04011e-08 -3.62913e-07 6.23048e-20
1.90204e-08 5.00934e-08 -5.3566e-21
-3.47844e-08 -2.08511e-08 8.48423e-20
2.84978e-08 9.14197e-08 2.85455e-20
1.8912e-07 3.22305e-08 -6.92316e-20
-1.25165e-07 2.58709e-07 7.76752e-20
3.32326e-07 -1.08622e-07 1.98611e-20
-1.8607e-08 4.06319e-08 7.6236e-21
3.58441e-08 3.61723e-08 1.03566e-20
-2.11211e-08 -4.90215e-08 4.1794e-20
-8.36016e-09 -3.75868e-08 2.35394e-20
9.86052e-08 1.19064e-08 1.8317e-20
-7.12397e-08 3.33531e-07 4.43112e-20
-1.6867e-08 1.02014e-08 3.91654e-20
4.92187e-08 7.27905e-08 -7.91904e-21
-2.40666e-08 -3.42071e-07 1.25366e-20
3.46167e-07 1.03951e-07 5.70892e-20
2.38057e-08 -4.20156e-08 -2.62493e-20
-5.43694e-08 -6.31792e-09 1.305e-20
-2.21994e-07 -8.91694e-08 3.03309e-20
1.12213e-08 1.21094e-08 1.09733e-20
-3.51802e-07 -1.23072e-07 5.46962e-20
1.13839e-08 -1.2062e-08 1.00957e-20
-3.42138e-08 -2.41131e-07 3.53273e-20
1.49214e-07 5.64793e-09 5.37992e-20
-1.34319e-08 1.17928e-08 1.34062e-20
3.49962e-09 1.6392e-08 1.02881e-20
9.85839e-09 -4.41592e-08 2.35059e-20
1.74655e-08 -8.37574e-09 5.23726e-20
6.09676e-10 1.79376e-08 -2.74476e-21
1.55921e-08 -1.89482e-09 5.6446e-20
2.85553e-08 -4.18788e-08 1.55042e-20
-7.19893e-08 -3.67423e-07 2.73149e-20
1.90817e-07 -1.46809e-07 -1.7643e-20
7.94535e-10 2.37349e-08 -1.87177e-20
-1.61818e-08 -3.02977e-09 -3.14053e-20
-5.49573e-09 -1.83024e-08 -2.63007e-20
-1.34396e-08 -9.35603e-09 9.69356e-20
-1.78181e-07 2.22659e-07 3.22153e-20
-2.00171e-10 -1.82153e-08 -4.09047e-20
-2.22402e-07 3.49271e-07 3.94099e-20
-8.4415e-08 3.89129e-08 8.07088e-20
1.19219e-08 1.31198e-08 5.45793e-21
-1.56848e-08 -9.16551e-09 1.0516e-19
1.087e-07 2.6231e-07 -4.66686e-22
6.34098e-08 5.62789e-08 -1.82209e-20
1.52761e-07 -5.0432e-08 3.32888e-20
8.52271e-09 -4.72958e-08 2.86957e-20
-2.75712e-07 -2.5407e-07 3.96814e-20
-2.67125e-08 4.64778e-08 -7.58463e-20
6.98377e-08 3.7243e-08 -2.86628e-20
1.01809e-07 -3.51392e-08 8.82439e-20
4.3993e-08 -8.77478e-08 1.03041e-20
1.73497e-07 -7.99512e-08 2.0324e-20
1.15771e-07 -5.46373e-08 1.82155e-20
1.17811e-08 -9.5731e-09 1.04254e-20
2.00714e-07 1.58758e-07 -4.51778e-20
-2.91416e-08 -8.47359e-08 1.05113e-20
-3.61242e-08 -3.07257e-08 8.91367e-20
-5.76961e-09 -1.54837e-08 3.90642e-20
7.93115e-09 6.0617e-08 1.29767e-20
-2.68604e-07 1.92778e-08 3.26435e-20
-9.80758e-08 -2.56429e-07 5.03465e-20
-4.25493e-08 5.42412e-08 6.75644e-20
8.35316e-08 1.1121e-07 -1.02784e-20
2.06608e-07 -1.4654e-07 4.27031e-20
-3.01374e-07 -1.6115e-07 1.05993e-19
1.34346e-07 -2.18634e-07 6.00731e-20
1.75079e-07 -2.15281e-07 2.01826e-20
-5.19932e-08 5.26576e-09 4.96608e-20
-1.53663e-07 -2.22375e-07 7.57715e-20
-2.68977e-07 -4.21879e-08 3.26889e-20
-3.20245e-08 -2.45353e-07 7.01973e-20
1.19672e-07 -2.47326e-07 7.55364e-20
2.40265e-09 -3.45935e-08 -8.09266e-21
3.55745e-08 2.36953e-07 4.24647e-20
-1.2654e-07 -2.21436e-07 7.72522e-20
-1.17686e-08 -5.50157e-08 -5.51698e-20
-1.83259e-07 1.37167e-07 2.25898e-20
-3.63328e-08 -1.2134e-08 7.39841e-20
-2.85171e-08 -1.94122e-08 1.70025e-19
7.36968e-08 -3.7851e-08 -1.04101e-20
-1.03395e-08 1.47344e-08 1.89937e-20
3.934e-08 -4.93657e-08 4.44075e-20
-2.27746e-07 -1.01279e-07 4.50174e-20
-3.05317e-08 -4.09575e-08 9.39836e-20
3.19362e-08 4.34201e-08 -6.81773e-20
1.64791e-07 2.27381e-07 -1.02915e-20
-5.89994e-08 -2.72584e-08 1.26197e-19
-2.5324e-07 -5.70625e-09 4.99743e-20
-3.30519e-08 -3.03383e-08 1.18542e-19
-1.98361e-09 -4.42675e-08 2.3561e-20
3.23143e-08 1.64802e-08 -3.19249e-20
-3.7137e-08 3.64177e-08 2.2823e-21
-6.14282e-09 -6.50128e-08 8.68703e-20
-3.37787e-07 8.32558e-08 2.73424e-20
1.85634e-07 1.58271e-07 -1.26142e-20
2.48359e-08 2.57541e-07 8.25737e-20
-1.50349e-08 5.29842e-09 8.11602e-20
-5.01915e-08 1.55943e-09 1.55999e-20
2.30757e-08 4.39837e-08 -2.0939e-20
-1.85379e-08 -4.37481e-09 1.84321e-19
2.0699e-09 -1.55894e-08 -4.71718e-20
-9.92549e-09 6.87827e-08 1.54092e-20
1.12479e-08 1.16395e-08 -7.93467e-21
-1.26427e-07 2.79699e-08 5.64506e-20
-1.27844e-07 1.39549e-07 3.2287e-20
-1.39431e-08 1.32051e-08 3.71721e-20
-2.3085e-07 1.3939e-07 3.7361e-20
-6.21082e-09 2.00336e-08 -8.2104e-21
6.3019e-08 -2.27194e-08 -2.37676e-20
2.8951e-07 -2.6656e-08 4.80856e-20
-3.68986e-08 2.33572e-08 4.74298e-20
1.47721e-08 6.95656e-09 6.54907e-20
3.84759e-08 -2.38707e-08 8.45269e-20
-6.54711e-08 2.19831e-08 7.30853e-20
-4.75581e-08 1.26157e-08 4.16833e-20
1.70343e-08 -4.75819e-09 6.58455e-20
1.53778e-07 -9.35281e-08 1.51118e-20
-6.10316e-08 3.89072e-08 8.36768e-20
-1.8065e-07 -3.7676e-08 1.50438e-20
-3.89544e-08 -2.03753e-08 1.29493e-19
1.50302e-08 -9.71999e-09 2.09879e-20
1.66214e-08 1.14057e-08 1.00958e-20
-3.92177e-09 1.87718e-08 -5.25556e-20
-1.47012e-09 -2.11697e-08 1.30259e-20
-1.7085e-08 8.95345e-09 5.76993e-20
-1.9117e-08 -1.00178e-08 4.45339e-20
4.78134e-08 -1.82273e-08 2.34777e-21
-1.78482e-08 -4.68195e-09 1.53785e-19
-1.78175e-08 4.50665e-09 -2.7131e-21
-4.58403e-09 1.75789e-08 4.48204e-20
-4.95106e-09 -1.79618e-08 -5.31226e-21
1.17244e-08 -1.32606e-08 2.89813e-20
1.1282e-08 1.27074e-08 -1.32835e-20
6.71643e-09 1.83477e-07 2.2318e-20
3.60004e-08 -2.9441e-08 4.70911e-20
8.39835e-09 -1.5778e-08 5.08177e-21
-1.38703e-07 5.16184e-09 3.09924e-20
1.32929e-08 -1.29313e-08 5.27729e-20
1.2408e-08 1.31372e-08 -1.83643e-20
1.89678e-08 -4.06214e-10 7.29378e-20
6.35149e-08 1.79662e-07 4.78529e-20
-9.57651e-09 -1.57013e-08 8.36831e-20
2.06567e-08 -4.74861e-08 1.83549e-20
-1.54471e-07 -8.5445e-08 1.26589e-20
-3.44195e-08 -2.23617e-08 1.508e-19
-1.54975e-07 9.19714e-08 5.59681e-20
1.38783e-08 -1.44841e-08 7.59842e-21
-6.61891e-09 1.47467e-08 -2.81334e-21
-3.62585e-09 -1.7773e-07 6.36724e-20
-5.81103e-08 -1.75895e-07 2.75184e-20
2.65713e-07 2.52826e-07 -2.25509e-20
2.84281e-07 -1.61166e-08 2.98135e-20
-2.06457e-08 4.32349e-09 1.03704e-20
-1.89994e-07 -3.35808e-07 9.19679e-20
4.57401e-08 7.83579e-08 5.06996e-21
-1.82771e-07 2.15236e-08 5.55983e-20
1.31536e-07 3.67823e-08 -3.092e-20
-1.80756e-08 -7.29584e-11 6.52562e-20
2.32092e-10 -1.88998e-08 -1.83528e-20
-1.75166e-09 -1.31874e-08 -3.29089e-20
-1.62075e-08 -9.44421e-09 1.10173e-19
-3.93962e-07 -1.49313e-08 -1.48902e-20
1.24283e-07 -1.4052e-07 6.60536e-20
8.54656e-09 1.65093e-08 -5.54103e-21
4.3071e-09 -7.90309e-08 -1.83997e-20
-7.40754e-08 1.75498e-07 6.01777e-20
1.37194e-09 1.99903e-08 1.01777e-20
1.32905e-07 -9.5018e-08 6.91172e-20
-1.21097e-08 -5.20756e-09 1.97708e-19
-1.12722e-07 -1.46562e-07 5.06401e-20
1.56835e-08 8.19823e-09 5.26816e-20
3.73301e-08 3.57103e-08 -3.69278e-20
-2.62905e-08 -4.09751e-08 9.11115e-20
1.65937e-08 -5.09207e-09 3.72759e-20
5.50774e-08 -3.83787e-08 5.49048e-20
-3.33159e-09 3.09807e-08 -3.77868e-20
4.50945e-08 -7.59535e-08 -1.26216e-22
4.07619e-07 2.05194e-08 4.2169e-20
-3.45246e-07 9.13577e-08 7.44133e-21
2.95367e-08 2.06032e-08 2.48341e-21
-4.30774e-08 -1.03842e-07 5.69351e-20
-6.57993e-08 -4.28587e-08 7.05953e-20
2.12579e-07 -2.12615e-09 7.53694e-21
1.87507e-09 -4.11685e-08 4.74349e-20
-5.35341e-08 -1.9144e-08 1.58154e-20
7.24654e-08 -1.7303e-07 3.03023e-20
5.8023e-09 7.0385e-08 2.06677e-20
5.94837e-08 1.8451e-07 1.49045e-20
7.19282e-08 -3.78939e-08 2.09045e-20
-1.3028e-07 1.38628e-07 6.35905e-20
1.19681e-07 1.4785e-07 -2.03507e-20
-7.79338e-09 3.54136e-09 -1.01191e-19
1.11328e-09 3.26488e-08 -4.03309e-20
2.76018e-09 -1.49436e-08 -5.06233e-20
-1.16916e-08 -1.00317e-08 7.70292e-20
-4.01641e-08 3.1652e-08 2.85384e-20
-1.82512e-07 -4.33082e-08 3.06774e-20
7.05344e-10 2.09228e-08 -5.43086e-20
-4.81011e-08 1.46219e-08 6.58282e-20
1.29636e-07 -1.88683e-08 7.49364e-20
-5.52237e-08 -1.79116e-07 2.79173e-20
-1.08835e-07 1.73367e-07 4.26543e-20
-3.12804e-08 1.44388e-08 5.12483e-21
-1.4591e-07 -1.03298e-07 6.89654e-20
3.34674e-08 -1.58727e-08 3.95931e-20
-1.97852e-07 -9.69709e-09 6.13928e-20
9.64316e-08 -3.4009e-07 4.69949e-20
1.3244e-07 -1.38963e-07 1.7975e-20
2.01564e-07 3.57309e-07 1.00098e-20
-1.77397e-09 4.39398e-08 -1.3228e-20
1.74291e-08 -1.80259e-07 8.39342e-20
-7.3107e-09 4.41247e-09 -1.38364e-20
-9.37778e-08 -1.75062e-07 5.58042e-20
3.19929e-08 -2.70924e-08 9.98277e-20
-1.80809e-08 1.82323e-07 1.20109e-20
4.43273e-08 -1.32623e-08 1.03723e-20
1.00002e-07 1.78152e-07 -5.1874e-21
1.00574e-07 -2.3935e-09 5.73189e-20
1.81896e-07 -5.36545e-07 4.20029e-20
-3.88273e-08 -7.2419e-08 1.55951e-20
-1.61549e-07 7.03844e-08 7.87256e-20
-2.29588e-08 1.15051e-08 1.87335e-20
1.53346e-07 1.02702e-07 2.80355e-20
1.09662e-07 -6.05455e-08 5.41773e-20
5.82679e-08 2.57762e-08 3.14036e-20
-1.20034e-08 9.96584e-09 -2.12776e-20
1.09653e-07 -1.69328e-07 4.60611e-20
-1.16936e-07 -1.45884e-07 5.63798e-20
1.51003e-07 5.9614e-08 -1.29062e-20
3.87728e-08 -2.41035e-08 4.47557e-20
7.05051e-08 -1.75283e-07 2.02031e-20
8.3325e-08 -1.59472e-08 2.86173e-20
-8.07938e-08 -3.23173e-08 7.30878e-20
-3.57346e-09 -3.32432e-08 4.27196e-20
-1.84334e-07 2.56526e-08 1.23373e-20
1.93715e-08 1.6188e-07 4.06753e-20
1.26456e-07 2.95975e-08 -2.56846e-20
-1.43407e-07 -6.42554e-08 6.92963e-20
-7.035e-08 1.80607e-07 1.48958e-20
-1.60466e-08 -1.57755e-07 6.40447e-20
4.22094e-08 2.05997e-08 -2.38182e-20
-2.70072e-08 7.67115e-08 -1.31964e-20
-1.28984e-07 9.24714e-08 6.91176e-20
1.65413e-07 8.33924e-08 -2.03223e-20
-7.57943e-08 -2.39852e-08 9.71026e-20
-1.82072e-08 -7.81416e-08 -1.58581e-22
1.26473e-07 1.46899e-07 -1.54131e-20
-3.0282e-08 -1.37073e-08 1.17426e-19
4.12757e-07 -2.96966e-07 2.5785e-21
8.84844e-08 -6.18246e-08 3.88684e-20
7.16071e-08 3.50841e-07 2.99428e-20
9.31893e-08 -8.94311e-08 4.63329e-20
-1.98761e-07 7.5722e-07 3.8981e-20
-1.99929e-07 -7.49826e-07 7.14004e-20
4.91356e-07 6.45931e-07 5.05365e-20
4.85235e-07 -6.45769e-07 8.77459e-20
8.04363e-07 -2.79029e-10 4.81795e-20
-6.93326e-07 2.78824e-07 -7.07484e-21
-6.81834e-07 -2.81872e-07 5.31107e-20
3.38431e-08 1.85318e-08 -2.64e-21
2.19067e-08 1.05748e-08 -2.96727e-20
6.26772e-08 8.52804e-09 -2.62753e-20
1.10456e-07 5.90145e-08 -5.15502e-21
3.27365e-08 1.30329e-07 3.07027e-20
-1.18253e-07 -1.01536e-07 1.07831e-19
5.99798e-08 -5.50665e-08 8.08612e-20
1.27054e-07 1.01869e-07 7.78707e-21
-2.9272e-08 1.60338e-07 2.25593e-20
2.12713e-08 -1.03841e-08 1.88106e-20
2.98662e-08 -1.53911e-07 8.73666e-20
3.96242e-08 2.65066e-08 -2.91963e-20
2.28383e-07 8.00588e-08 -1.01636e-20
5.48738e-09 1.68016e-08 -6.9087e-20
8.87987e-08 2.91343e-08 -5.70239e-20
-1.09743e-07 6.07481e-08 9.01469e-20
-1.50004e-07 5.19713e-08 6.67006e-20
3.01712e-08 -2.0665e-08 4.50987e-20
-9.61031e-08 -4.4538e-08 6.75896e-20
-1.05452e-07 -6.24544e-08 6.20727e-20
-9.18334e-09 -1.06032e-07 -1.05863e-20
4.30601e-10 -1.21583e-07 5.14584e-20
-1.33603e-07 -5.78727e-09 3.07881e-20
1.97812e-07 -3.06972e-08 3.0265e-20
1.07165e-07 6.60403e-08 -3.7274e-22
-8.88362e-08 6.05681e-08 9.33456e-20
-4.03195e-08 1.99196e-08 6.07808e-20
9.99371e-08 -8.94919e-08 4.88522e-20
-7.49841e-08 1.16801e-07 3.51679e-20
-9.24348e-08 -9.73844e-08 3.58478e-20
-8.73312e-09 1.27421e-07 -1.06074e-20
-1.89761e-08 1.07746e-07 1.5327e-20
3.17409e-09 -7.84427e-08 8.35809e-20
4.02502e-08 -1.30029e-07 2.02088e-20
-6.61405e-08 -4.24451e-08 6.28562e-20
9.13078e-08 -2.60911e-08 1.81997e-20
2.73634e-10 1.2727e-07 1.53735e-20
-2.68447e-09 8.163e-08 2.83987e-20
-2.03689e-08 9.16203e-08 4.39215e-20
1.49466e-07 -3.67783e-08 7.69466e-21
-3.18396e-08 3.00756e-08 -1.34773e-20
3.38835e-08 1.27401e-07 3.84518e-20
-2.08728e-08 1.3189e-08 5.31723e-21
7.50615e-08 3.47816e-07 1.50443e-20
-3.75138e-08 2.01106e-08 1.29393e-20
3.97906e-08 -2.06827e-08 4.48686e-20
1.13128e-08 1.08431e-07 -3.16232e-22
-1.2692e-07 3.02422e-08 4.63314e-20
-3.75444e-09 -5.53958e-08 -4.91369e-23
5.09398e-09 -4.95408e-07 5.5266e-20
1.51922e-08 9.1917e-08 5.17625e-20
-9.48833e-08 9.01767e-08 1.03283e-19
1.46115e-07 5.43247e-07 2.73011e-20
7.36461e-09 4.78194e-09 -3.51467e-20
6.36934e-09 -4.56416e-09 1.32902e-20
7.16008e-08 -5.57309e-08 8.05562e-20
-1.01208e-07 9.06322e-08 6.13656e-20
-1.21654e-07 -3.60426e-08 5.45051e-20
-1.24871e-07 -4.10394e-08 5.65382e-20
-2.04477e-09 1.19411e-09 -6.6197e-20
-1.30324e-09 -3.70937e-10 -7.41796e-20
5.85298e-08 1.19726e-08 2.86633e-20
1.84895e-08 8.55312e-08 7.01201e-20
-2.1242e-09 8.50415e-08 4.14357e-20
-4.15049e-07 -3.013e-07 7.24026e-20
7.42838e-08 -1.16757e-07 5.12926e-20
3.78464e-08 1.39013e-08 1.83776e-20
-1.37866e-07 -1.48934e-08 8.28721e-20
-8.71786e-08 1.15129e-07 1.02819e-19
-1.12605e-07 5.29709e-08 8.76272e-20
4.07252e-07 2.92806e-07 4.54194e-20
4.11142e-08 2.68455e-08 -1.56787e-20
-3.99341e-08 1.30501e-07 4.05566e-20
-7.91314e-08 -6.76731e-08 6.22705e-20
1.96047e-08 -1.03153e-07 -1.98248e-22
-6.37445e-08 -1.21445e-07 7.24061e-20
-1.0234e-07 -7.01533e-08 8.00757e-20
7.00859e-08 -1.24276e-07 5.14494e-20
8.41494e-08 -1.15486e-07 1.05884e-19
-2.64148e-08 -5.174e-07 4.37861e-20
2.13123e-07 -3.40839e-07 4.96666e-20
1.02699e-08 -1.24961e-07 2.83806e-20
8.83325e-08 6.71412e-08 -5.22054e-20
-7.92246e-08 -9.60484e-08 6.46558e-20
-6.85358e-08 1.27885e-07 9.61286e-21
-4.2055e-08 1.25463e-07 5.63568e-20
9.1984e-08 9.50756e-08 1.54331e-20
4.49949e-08 -1.17366e-07 5.40358e-20
-1.15508e-07 -3.29482e-07 1.7271e-20
2.64357e-09 4.08303e-08 -5.32264e-20
9.29623e-08 9.55891e-08 3.08432e-20
-5.0394e-08 -2.49885e-08 5.7818e-20
-4.19411e-08 2.30558e-08 6.03912e-20
3.69935e-07 -1.62021e-07 1.47949e-20
4.63648e-08 -7.66327e-08 8.03119e-20
-4.4026e-08 -7.52678e-08 7.01024e-20
1.71712e-08 -1.40194e-09 5.59566e-20
1.81387e-09 -6.63849e-09 -4.67913e-20
-4.76605e-09 -5.10207e-09 1.22457e-19
2.09953e-08 1.3522e-08 -4.53284e-20
-6.42649e-08 -1.21386e-07 8.69702e-20
9.92686e-08 3.98882e-08 -4.40684e-20
-2.39203e-07 -2.63008e-07 8.3595e-20
1.22004e-09 8.06206e-09 3.52096e-20
8.0202e-10 8.23167e-10 -6.6588e-20
1.19574e-09 -4.21732e-10 1.95611e-19
2.29288e-07 -4.52407e-07 9.88582e-20
-9.74526e-09 1.16057e-08 2.96356e-20
-2.34221e-09 1.40719e-08 -3.01494e-20
-9.97795e-08 3.55716e-08 7.78091e-20
-3.34926e-09 4.09773e-08 2.5898e-21
-2.18345e-08 6.50796e-08 -2.36341e-20
4.53064e-08 2.05179e-09 -2.6192e-20
1.00407e-08 3.93772e-08 1.56191e-20
-2.68314e-09 5.44212e-08 -2.14078e-20
7.75971e-08 4.22575e-08 -1.54382e-20
5.37343e-09 4.93059e-07 4.67384e-21
-7.21419e-08 6.81333e-08 1.16905e-19
5.43438e-08 -3.63373e-08 9.68993e-20
3.15858e-08 -2.84624e-08 1.82226e-20
-5.05994e-07 -6.95153e-08 3.65896e-20
-1.49189e-08 5.7768e-09 -9.74755e-20
-3.68783e-07 -4.36276e-07 7.63155e-20
7.06092e-09 1.83406e-08 -7.40889e-20
6.54601e-08 1.29068e-08 -6.06202e-20
1.93572e-07 -2.51751e-08 -1.01653e-20
-4.44602e-08 -7.3081e-08 8.84069e-20
8.50998e-08 2.45486e-08 -7.80606e-20
6.38973e-10 -2.19451e-08 -3.51348e-20
-4.81462e-08 5.54824e-08 4.43221e-20
-1.85082e-08 -1.19791e-08 9.86375e-20
-4.30939e-08 8.78033e-08 4.86506e-21
7.72373e-09 5.57544e-08 -2.97506e-21
1.29502e-08 9.56961e-09 -4.83511e-20
1.28755e-08 -9.19962e-09 -3.27539e-20
-3.43381e-07 -9.35624e-08 8.11813e-20
3.82613e-08 1.44674e-08 -1.87584e-20
-4.56111e-08 8.80313e-07 3.34992e-20
-3.26804e-09 -9.0456e-07 4.54841e-20
4.45327e-07 7.61898e-07 4.05144e-20
-4.70533e-08 3.71491e-08 3.39206e-20
-2.35663e-07 4.7474e-07 2.12895e-20
4.47823e-07 -7.35267e-07 6.22806e-20
-7.46755e-08 -1.20849e-07 6.95114e-20
6.79768e-07 5.95919e-07 4.7957e-20
8.3356e-09 -1.47173e-08 -4.60784e-20
-8.62737e-09 -1.49268e-08 8.58208e-20
7.12691e-07 -5.82714e-07 9.36601e-20
-4.40512e-08 8.67398e-08 3.03945e-20
-4.48017e-07 -2.85324e-07 8.78568e-20
-3.7736e-07 -7.87007e-07 6.95606e-20
-2.11502e-07 -4.86717e-07 9.02935e-20
-3.87936e-07 8.00104e-07 3.81653e-20
-9.17282e-08 5.42395e-07 2.88883e-20
-6.31912e-10 1.96111e-08 2.90995e-23
-2.35713e-07 3.03538e-07 -2.22624e-20
-2.25222e-07 -4.61439e-07 5.5165e-20
8.76786e-07 1.52823e-07 4.79166e-20
-6.94862e-08 5.89474e-08 1.04274e-19
-1.76291e-09 3.9278e-08 -2.14322e-20
-4.24286e-07 3.07145e-07 2.19117e-20
-7.701e-08 4.11288e-08 8.34033e-20
8.67973e-07 -1.35856e-07 9.11307e-21
-5.88817e-08 3.94288e-08 3.12756e-20
4.27094e-08 -8.82671e-08 4.60984e-20
-6.75588e-07 -5.12935e-07 7.45464e-20
-2.27822e-07 4.88224e-07 4.80984e-20
-6.91892e-07 5.09132e-07 -4.86838e-21
2.02207e-07 4.50735e-07 4.63702e-21
-7.52709e-08 5.97863e-08 9.33604e-20
-2.12218e-08 1.20947e-08 -2.675e-21
-1.24858e-09 -1.21797e-09 -6.34761e-20
-3.01221e-10 -1.41807e-09 1.33881e-20
5.65299e-09 6.03043e-08 1.29752e-20
-1.76209e-09 1.23401e-09 -5.8059e-20
3.30086e-10 2.03661e-09 1.61761e-19
1.08861e-09 -1.85767e-10 3.81029e-20
-9.27626e-10 7.29205e-09 -3.30739e-20
-1.55708e-07 3.39813e-07 3.13464e-20
-1.19541e-08 8.8107e-09 -4.05946e-20
2.08079e-08 -1.28613e-08 3.98492e-20
2.03491e-08 -1.17015e-08 -2.16793e-20
5.77204e-08 2.26587e-08 -4.21877e-20
-6.62337e-10 -6.24771e-09 -6.90081e-20
-5.63819e-09 -2.72427e-09 1.85632e-19
2.03528e-08 1.18398e-08 -2.43232e-20
5.02544e-07 -9.66713e-08 1.89633e-20
-6.57343e-08 -8.38157e-08 6.95958e-20
-4.4011e-07 3.06653e-07 -2.17493e-20
-3.94534e-07 4.50024e-07 -5.07035e-21
5.31845e-07 -1.92019e-07 -1.20689e-20
-2.93894e-09 -7.46482e-09 -3.28324e-20
-3.18206e-09 7.65932e-09 -9.26094e-20
-8.60446e-09 1.14624e-09 -4.92011e-20
-5.32708e-09 5.96311e-09 6.49299e-20
-7.82695e-09 -1.2955e-09 1.49016e-19
1.8695e-09 1.51544e-09 -4.38806e-20
8.43816e-09 -1.77695e-09 -7.9208e-21
3.81639e-09 -2.39431e-09 -1.09299e-20
-1.9302e-09 -1.97841e-09 -2.77658e-20
5.14603e-09 -5.71162e-09 -3.1882e-21
5.17176e-09 5.87665e-09 -5.72397e-20
-1.94095e-09 1.80704e-09 -2.46594e-20
3.1198e-09 -1.00903e-10 -1.1259e-19
4.88107e-09 2.53141e-09 -8.73402e-20
9.96431e-09 3.23173e-09 -1.08582e-19
SCALARS rr_necrosis float
LOOKUP_TABLE default
1
1
1
1
1
1
1
1
1
1
1
1
1
1
1
1
1
1
1
1
1
1
1
1
1
1
1
1
1
1
1
1
1
1
1
1
1
1
1
1
1
1
1
1
1
1
1
1
1
1
1
1
1
1
1
1
1
1
1
1
1
1
1
1
1
1
1
1
1
1
1
1
1
1
1
1
1
1
1
1
1
1
1
1
1
1
1
1
1
1
1
1
1
1
1
1
1
1
1
1
1
1
1
1
1
1
1
1
1
1
1
1
1
1
1
1
1
1
1
1
1
1
1
1
1
1
1
1
1
1
1
1
1
1
1
1
1
1
1
1
1
1
1
1
1
1
1
1
1
1
1
1
1
1
1
1
1
1
1
1
1
1
1
1
1
1
1
1
1
1
1
1
1
1
1
1
1
1
1
1
1
1
1
1
1
1
1
1
1
1
1
1
1
1
1
1
1
1
1
1
1
1
1
1
1
1
1
1
1
1
1
1
1
1
1
1
1
1
1
1
1
1
1
1
1
1
1
1
1
1
1
1
1
1
1
1
1
1
1
1
1
1
1
1
1
1
1
1
1
1
1
1
1
1
1
1
1
1
1
1
1
1
1
1
1
1
1
1
1
1
1
1
1
1
1
1
1
1
1
1
1
1
1
1
1
1
1
1
1
1
1
1
1
1
1
1
1
1
1
1
1
1
1
1
1
1
1
1
1
1
1
1
1
1
1
1
1
1
1
1
1
1
1
1
1
1
1
1
1
1
1
1
1
1
1
1
1
1
1
1
1
1
1
1
1
1
1
1
1
1
1
1
1
1
1
1
1
1
1
1
1
1
1
1
1
1
1
1
1
1
1
1
1
1
1
1
1
1
1
1
1
1
1
1
1
1
1
1
1
1
1
1
1
1
1
1
1
1
1
1
1
1
1
1
1
1
1
1
1
1
1
1
1
1
1
1
1
1
1
1
1
1
1
1
1
1
1
1
1
1
1
1
1
1
1
1
1
1
1
1
1
1
1
1
1
1
1
1
1
1
1
1
1
1
1
1
1
1
1
1
1
1
1
1
1
1
1
1
1
1
1
1
1
1
1
1
1
1
1
1
1
1
1
1
1
1
1
1
1
1
1
1
1
1
1
1
1
1
1
1
1
1
1
1
1
1
1
1
1
1
1
1
1
1
1
1
1
1
1
1
1
1
1
1
1
1
1
1
1
1
1
1
1
1
1
1
1
1
1
1
1
1
1
1
1
1
1
1
1
1
1
1
1
1
1
1
1
1
1
1
1
1
1
SCALARS rr_protein float
LOOKUP_TABLE default
1
1
1
1
1
1
1
1
1
1
1
1
1
1
1
1
1
1
1
1
1
1
1
1
1
1
1
1
1
1
1
1
1
1
1
1
1
1
1
1
1
1
1
1
1
1
1
1
1
1
1
1
1
1
1
1
1
1
1
1
1
1
1
1
1
1
1
1
1
1
1
1
1
1
1
1
1
1
1
1
1
1
1
1
1
1
1
1
1
1
1
1
1
1
1
1
1
1
1
1
1
1
1
1
1
1
1
1
1
1
1
1
1
1
1
1
1
1
1
1
1
1
1
1
1
1
1
1
1
1
1
1
1
1
1
1
1
1
1
1
1
1
1
1
1
1
1
1
1
1
1
1
1
1
1
1
1
1
1
1
1
1
1
1
1
1
1
1
1
1
1
1
1
1
1
1
1
1
1
1
1
1
1
1
1
1
1
1
1
1
1
1
1
1
1
1
1
1
1
1
1
1
1
1
1
1
1
1
1
1
1
1
1
1
1
1
1
1
1
1
1
1
1
1
1
1
1
1
1
1
1
1
1
1
1
1
1
1
1
1
1
1
1
1
1
1
1
1
1
1
1
1
1
1
1
1
1
1
1
1
1
1
1
1
1
1
1
1
1
1
1
1
1
1
1
1
1
1
1
1
1
1
1
1
1
1
1
1
1
1
1
1
1
1
1
1
1
1
1
1
1
1
1
1
1
1
1
1
1
1
1
1
1
1
1
1
1
1
1
1
1
1
1
1
1
1
1
1
1
1
1
1
1
1
1
1
1
1
1
1
1
1
1
1
1
1
1
1
1
1
1
1
1
1
1
1
1
1
1
1
1
1
1
1
1
1
1
1
1
1
1
1
1
1
1
1
1
1
1
1
1
1
1
1
1
1
1
1
1
1
1
1
1
1
1
1
1
1
1
1
1
1
1
1
1
1
1
1
1
1
1
1
1
1
1
1
1
1
1
1
1
1
1
1
1
1
1
1
1
1
1
1
1
1
1
1
1
1
1
1
1
1
1
1
1
1
1
1
1
1
1
1
1
1
1
1
1
1
1
1
1
1
1
1
1
1
1
1
1
1
1
1
1
1
1
1
1
1
1
1
1
1
1
1
1
1
1
1
1
1
1
1
1
1
1
1
1
1
1
1
1
1
1
1
1
1
1
1
1
1
1
1
1
1
1
1
1
1
1
1
1
1
1
1
1
1
1
1
1
1
1
1
1
1
1
1
1
1
1
1
1
1
1
1
1
1
1
1
1
1
1
1
1
1
1
1
1
1
1
1
1
1
1
SCALARS rr_(S_ext) float
LOOKUP_TABLE default
1.0052
1.00501
1.00503
1.00501
1.00497
1.00503
1.0052
1.00502
1.00504
1.00501
1.00516
1.00502
1.00502
1.00501
1.00498
1.00502
1.005
1.00502
1.00505
1.00503
1.00504
1.00492
1.00503
1.00503
1.00503
1.00501
1.00515
1.00502
1.0051
1.00495
1.00502
1.0051
1.00516
1.00496
1.00495
1.00496
1.00494
1.00496
1.00502
1.00515
1.0051
1.00494
1.00494
1.00502
1.00513
1.0051
1.00505
1.00504
1.00503
1.00511
1.0051
1.00508
1.00497
1.00508
1.00497
1.00514
1.00495
1.00508
1.00495
1.00503
1.005
1.00499
1.00515
1.00499
1.00499
1.005
1.005
1.00501
1.00503
1.005
1.00497
1.00497
1.0051
1.005
1.00503
1.00516
1.00498
1.005
1.00501
1.00507
1.00511
1.00497
1.00499
1.00512
1.0051
1.00513
1.00502
1.005
1.00513
1.00492
1.00508
1.00492
1.00498
1.00501
1.00508
1.0051
1.00512
1.00501
1.00498
1.00502
1.00506
1.00509
1.00512
1.00501
1.00501
1.00501
1.00499
1.00502
1.00512
1.005
1.00503
1.00513
1.00512
1.00501
1.00501
1.00508
1.00496
1.00512
1.00496
1.00508
1.00505
1.00498
1.005
1.005
1.005
1.00498
1.00496
1.00501
1.00512
1.00508
1.00497
1.00501
1.00499
1.005
1.00509
1.00495
1.00513
1.00502
1.00499
1.00495
1.00509
1.00501
1.00505
1.00501
1.00512
1.00501
1.00501
1.00503
1.00503
1.00507
1.00504
1.005
1.00509
1.00502
1.00501
1.005
1.00501
1.00509
1.00509
1.00502
1.00504
1.00509
1.00513
1.0051
1.00509
1.00501
1.00509
1.00509
1.0051
1.00509
1.00498
1.00508
1.0051
1.00501
1.00508
1.00499
1.00498
1.00502
1.00497
1.00501
1.0051
1.00501
1.00501
1.00509
1.005
1.0051
1.005
1.00499
1.00498
1.00501
1.005
1.00511
1.00508
1.0051
1.005
1.00501
1.00501
1.00499
1.005
1.00501
1.005
1.00505
1.00507
1.00499
1.0051
1.00499
1.00501
1.00509
1.00499
1.005
1.00499
1.00501
1.00501
1.00499
1.00506
1.00501
1.00507
1.00499
1.005
1.005
1.005
1.005
1.005
1.005
1.00501
1.00498
1.00498
1.00498
1.00498
1.00497
1.00497
1.00506
1.00501
1.005
1.00504
1.00498
1.00498
1.005
1.00507
1.005
1.00501
1.00506
1.00499
1.00507
1.00499
1.005
1.00506
1.00507
1.00511
1.00511
1.00499
1.00512
1.00502
1.00507
1.00505
1.005
1.005
1.00494
1.005
1.00513
1.00507
1.005
1.00502
1.00507
1.005
1.00505
1.00494
1.00507
1.005
1.005
1.00501
1.00498
1.005
1.00497
1.00502
1.00513
1.00513
1.00498
1.00503
1.00502
1.00507
1.00499
1.00501
1.00507
1.00501
1.00506
1.00501
1.00506
1.00507
1.00493
1.00498
1.00498
1.00498
1.00501
1.00506
1.00496
1.005
1.00504
1.00506
1.00507
1.00498
1.00506
1.00498
1.00506
1.00513
1.00506
1.00512
1.00499
1.00506
1.00493
1.00506
1.005
1.00507
1.005
1.00506
1.00503
1.00515
1.00503
1.00506
1.00498
1.00506
1.00504
1.005
1.005
1.00506
1.00506
1.00505
1.005
1.00506
1.00502
1.00502
1.00497
1.00506
1.00505
1.00504
1.00505
1.00506
1.00505
1.00499
1.00502
1.00505
1.00506
1.00501
1.00501
1.00506
1.00497
1.00517
1.00503
1.00511
1.00504
1.00523
1.00523
1.00522
1.00522
1.00522
1.00523
1.00523
1.00499
1.00496
1.00502
1.00504
1.00505
1.00505
1.00501
1.00505
1.00505
1.00496
1.00505
1.00499
1.00508
1.00498
1.00503
1.00504
1.00505
1.00498
1.00503
1.00504
1.00503
1.00504
1.00505
1.00507
1.00504
1.00503
1.00499
1.00505
1.00505
1.00505
1.00504
1.00503
1.00501
1.00505
1.00501
1.00503
1.00504
1.00502
1.00503
1.00505
1.005
1.00504
1.00496
1.00513
1.00499
1.00499
1.00503
1.00504
1.005
1.00517
1.00503
1.00504
1.00515
1.00494
1.00494
1.00503
1.00505
1.00504
1.00505
1.00492
1.00491
1.00501
1.00502
1.00502
1.00517
1.00505
1.005
1.00504
1.00504
1.00504
1.00517
1.005
1.00505
1.00503
1.00503
1.00504
1.00504
1.00504
1.00504
1.00515
1.00512
1.00504
1.00503
1.00504
1.00504
1.00504
1.00504
1.00504
1.00513
1.00498
1.00505
1.005
1.005
1.00513
1.00503
1.00503
1.00497
1.00493
1.00493
1.00498
1.00505
1.00503
1.00513
1.00493
1.00491
1.00491
1.00517
1.00496
1.00494
1.00503
1.00498
1.00502
1.00501
1.005
1.005
1.00502
1.00517
1.00502
1.00501
1.005
1.00516
1.00495
1.00516
1.005
1.00501
1.00506
1.00502
1.00502
1.00497
1.00501
1.00497
1.00503
1.005
1.00495
1.00495
1.00514
1.005
1.0052
1.0052
1.0052
1.005
1.00517
1.0052
1.00504
1.0052
1.00497
1.00497
1.0052
1.00503
1.00516
1.00521
1.00516
1.00521
1.00516
1.00496
1.00514
1.00517
1.0052
1.00502
1.00499
1.00516
1.00502
1.0052
1.00501
1.00503
1.00521
1.00516
1.00521
1.00517
1.00503
1.00496
1.00491
1.00492
1.00501
1.00491
1.00491
1.00492
1.00493
1.00514
1.00495
1.00498
1.00496
1.00501
1.00492
1.00492
1.00496
1.00517
1.00503
1.00518
1.00516
1.00515
1.00493
1.00493
1.00494
1.00494
1.00493
1.00492
1.00494
1.00493
1.00492
1.00494
1.00494
1.00492
1.00492
1.00492
1.00494
SCALARS rr_(P_ext) float
LOOKUP_TABLE default
0.0132755
0.0132724
0.0132729
0.0132725
0.0132712
0.0132729
0.0132755
0.0132727
0.0132732
0.0132725
0.0132749
0.0132726
0.0132727
0.0132725
0.0132716
0.0132729
0.0132722
0.0132726
0.0132733
0.013273
0.0132731
0.0132691
0.013273
0.0132729
0.013273
0.0132726
0.0132748
0.0132728
0.0132741
0.0132702
0.0132728
0.0132741
0.0132749
0.0132706
0.0132706
0.0132706
0.0132701
0.0132707
0.0132728
0.0132749
0.0132741
0.0132701
0.0132701
0.0132728
0.0132745
0.0132741
0.0132733
0.0132732
0.0132729
0.0132742
0.0132741
0.0132738
0.0132712
0.0132739
0.0132713
0.0132746
0.0132706
0.0132739
0.0132706
0.0132729
0.0132722
0.0132719
0.0132748
0.013272
0.0132719
0.0132723
0.0132722
0.0132726
0.013273
0.0132724
0.0132712
0.0132713
0.0132741
0.0132721
0.0132729
0.0132749
0.0132716
0.0132723
0.0132725
0.0132737
0.0132743
0.0132711
0.013272
0.0132744
0.0132741
0.0132746
0.0132728
0.0132722
0.0132745
0.0132692
0.0132739
0.0132692
0.0132715
0.0132723
0.0132739
0.0132741
0.0132744
0.0132725
0.0132717
0.0132728
0.0132735
0.013274
0.0132744
0.0132726
0.0132725
0.0132725
0.0132719
0.0132728
0.0132744
0.0132722
0.0132729
0.0132745
0.0132744
0.0132726
0.0132726
0.0132739
0.0132706
0.0132744
0.0132706
0.0132739
0.0132734
0.0132716
0.0132724
0.0132722
0.0132722
0.0132715
0.0132707
0.0132725
0.0132744
0.0132738
0.0132712
0.0132724
0.013272
0.0132724
0.013274
0.0132705
0.0132745
0.0132727
0.013272
0.0132705
0.013274
0.0132725
0.0132734
0.0132725
0.0132744
0.0132725
0.0132725
0.0132729
0.0132729
0.0132736
0.0132731
0.0132724
0.0132741
0.0132728
0.0132725
0.0132724
0.0132724
0.013274
0.013274
0.0132727
0.0132732
0.013274
0.0132746
0.0132741
0.013274
0.0132725
0.013274
0.013274
0.0132741
0.013274
0.0132715
0.0132739
0.0132741
0.0132724
0.0132739
0.013272
0.0132715
0.0132726
0.0132713
0.0132725
0.0132741
0.0132725
0.0132725
0.013274
0.0132722
0.0132742
0.0132722
0.013272
0.0132715
0.0132725
0.0132722
0.0132744
0.0132738
0.0132741
0.0132724
0.0132727
0.0132726
0.013272
0.0132724
0.0132723
0.0132724
0.0132733
0.0132737
0.0132721
0.0132741
0.013272
0.0132723
0.013274
0.0132718
0.0132723
0.0132718
0.0132724
0.0132725
0.013272
0.0132736
0.0132724
0.0132737
0.013272
0.0132722
0.0132722
0.0132722
0.0132722
0.0132722
0.0132723
0.0132724
0.0132716
0.0132716
0.0132716
0.0132716
0.0132712
0.0132712
0.0132736
0.0132724
0.0132724
0.0132732
0.0132716
0.0132715
0.0132724
0.0132737
0.0132724
0.0132725
0.0132736
0.0132718
0.0132736
0.013272
0.0132724
0.0132736
0.0132737
0.0132743
0.0132742
0.013272
0.0132745
0.0132728
0.0132737
0.0132733
0.0132724
0.0132722
0.0132701
0.0132722
0.0132745
0.0132737
0.0132724
0.0132726
0.0132737
0.0132722
0.0132733
0.0132701
0.0132737
0.0132722
0.0132722
0.0132726
0.0132716
0.0132722
0.0132713
0.0132727
0.0132745
0.0132746
0.0132714
0.0132731
0.0132726
0.0132736
0.0132717
0.0132724
0.0132737
0.0132723
0.0132735
0.0132725
0.0132736
0.0132737
0.0132697
0.0132715
0.0132715
0.0132715
0.0132725
0.0132736
0.0132707
0.0132722
0.0132731
0.0132735
0.0132736
0.0132714
0.0132736
0.0132715
0.0132736
0.0132746
0.0132735
0.0132744
0.013272
0.0132736
0.0132696
0.0132736
0.0132721
0.0132736
0.0132721
0.0132736
0.0132728
0.0132749
0.0132729
0.0132736
0.0132714
0.0132736
0.0132731
0.0132722
0.0132724
0.0132736
0.0132735
0.0132733
0.013272
0.0132735
0.0132726
0.0132728
0.0132713
0.0132736
0.0132734
0.0132731
0.0132734
0.0132736
0.0132733
0.0132718
0.0132726
0.0132734
0.0132736
0.0132725
0.0132725
0.0132735
0.0132713
0.013275
0.0132728
0.0132744
0.013273
0.0132758
0.0132758
0.0132757
0.0132757
0.0132757
0.0132758
0.0132758
0.0132719
0.0132708
0.0132727
0.0132731
0.0132733
0.0132734
0.0132725
0.0132734
0.0132734
0.0132708
0.0132734
0.0132718
0.0132738
0.0132717
0.0132728
0.0132731
0.0132734
0.0132714
0.0132729
0.0132731
0.0132728
0.0132731
0.0132734
0.0132737
0.0132731
0.0132729
0.0132718
0.0132733
0.0132734
0.0132733
0.0132731
0.0132729
0.0132725
0.0132733
0.0132725
0.0132729
0.0132731
0.0132726
0.0132729
0.0132733
0.0132721
0.0132731
0.0132709
0.0132746
0.013272
0.0132718
0.0132729
0.0132731
0.0132723
0.013275
0.0132729
0.0132731
0.0132748
0.0132697
0.0132697
0.0132728
0.0132733
0.0132731
0.0132733
0.0132688
0.0132688
0.0132726
0.0132726
0.0132726
0.0132751
0.0132733
0.0132721
0.0132732
0.0132732
0.0132732
0.013275
0.0132721
0.0132733
0.0132729
0.0132729
0.0132732
0.0132731
0.0132732
0.0132732
0.0132749
0.0132744
0.0132731
0.0132728
0.0132731
0.0132732
0.0132731
0.0132731
0.0132731
0.0132746
0.0132716
0.0132733
0.0132723
0.0132722
0.0132746
0.0132729
0.0132729
0.0132713
0.0132696
0.0132697
0.0132714
0.0132734
0.0132728
0.0132746
0.0132698
0.013269
0.013269
0.0132751
0.0132706
0.0132702
0.0132729
0.0132716
0.0132727
0.0132724
0.0132721
0.013272
0.0132726
0.013275
0.0132728
0.0132723
0.0132721
0.013275
0.0132704
0.0132749
0.0132721
0.0132725
0.0132736
0.0132728
0.0132727
0.0132711
0.0132726
0.0132711
0.0132729
0.0132721
0.0132703
0.0132703
0.0132746
0.0132723
0.0132755
0.0132755
0.0132755
0.0132722
0.0132751
0.0132755
0.0132733
0.0132754
0.0132711
0.0132711
0.0132755
0.013273
0.0132749
0.0132755
0.0132749
0.0132755
0.0132749
0.0132706
0.0132747
0.0132751
0.0132754
0.0132727
0.0132719
0.0132749
0.0132727
0.0132754
0.0132725
0.013273
0.0132755
0.0132749
0.0132755
0.013275
0.0132729
0.0132709
0.013269
0.0132691
0.0132724
0.013269
0.013269
0.0132691
0.0132695
0.0132747
0.0132704
0.0132714
0.0132708
0.0132724
0.0132694
0.0132694
0.0132708
0.013275
0.0132731
0.0132752
0.013275
0.0132749
0.0132698
0.0132698
0.0132699
0.0132699
0.0132698
0.0132691
0.0132699
0.0132693
0.013269
0.0132698
0.0132698
0.013269
0.0132691
0.0132693
0.0132699
SCALARS rr_(S) float
LOOKUP_TABLE default
0.980097
0.979957
0.979973
0.979957
0.979938
0.979972
0.980097
0.979966
0.979985
0.97996
0.980061
0.979966
0.979969
0.97996
0.979941
0.979972
0.979953
0.979964
0.979987
0.979974
0.97998
0.979899
0.979976
0.979975
0.979975
0.979961
0.980059
0.979971
0.980021
0.979918
0.97997
0.98002
0.980063
0.979924
0.979925
0.979924
0.979915
0.979927
0.97997
0.980063
0.980021
0.979914
0.979914
0.97997
0.980042
0.980021
0.979986
0.979983
0.979972
0.980027
0.980024
0.980011
0.979935
0.980012
0.979937
0.98005
0.979924
0.980011
0.979925
0.979973
0.979952
0.979948
0.980058
0.97995
0.979948
0.979958
0.979952
0.979962
0.979975
0.979956
0.979936
0.979936
0.980022
0.979955
0.979973
0.980064
0.979944
0.979958
0.979962
0.980005
0.980035
0.979935
0.979949
0.980036
0.980022
0.980047
0.979971
0.979958
0.980042
0.979905
0.980011
0.979905
0.979942
0.979959
0.980012
0.980023
0.980036
0.97996
0.979945
0.97997
0.979998
0.98002
0.980035
0.979961
0.979961
0.97996
0.979949
0.979972
0.980036
0.979951
0.979973
0.980041
0.980037
0.979963
0.979961
0.980013
0.979927
0.980038
0.979927
0.980012
0.97999
0.979942
0.979955
0.979953
0.979951
0.97994
0.979929
0.97996
0.980037
0.98001
0.979934
0.979956
0.979949
0.979955
0.98002
0.979924
0.980044
0.979969
0.979949
0.979924
0.980018
0.979964
0.979991
0.97996
0.980039
0.979961
0.979965
0.979975
0.979973
0.98
0.979982
0.979955
0.980019
0.979969
0.97996
0.979956
0.979959
0.980019
0.980018
0.979966
0.979983
0.980019
0.980043
0.980022
0.980017
0.97996
0.980018
0.980019
0.980021
0.980017
0.979941
0.980011
0.980023
0.979958
0.980011
0.979949
0.979941
0.979967
0.979937
0.979963
0.980022
0.97996
0.97996
0.980017
0.979957
0.980024
0.979953
0.979951
0.979943
0.97996
0.979957
0.980035
0.980011
0.98002
0.979956
0.979964
0.979963
0.979949
0.979955
0.979959
0.979955
0.979987
0.980005
0.97995
0.980023
0.979949
0.979959
0.980019
0.979947
0.979955
0.979948
0.979962
0.979962
0.979949
0.979999
0.979961
0.980004
0.979951
0.979951
0.979951
0.979951
0.979951
0.979951
0.979952
0.97996
0.979941
0.979941
0.979941
0.979941
0.979938
0.979937
0.98
0.979959
0.979954
0.979985
0.979942
0.979942
0.979954
0.980004
0.979954
0.97996
0.98
0.979946
0.98
0.97995
0.979953
0.979999
0.980003
0.980035
0.980027
0.979949
0.980041
0.97997
0.980004
0.979987
0.979954
0.979951
0.979916
0.979951
0.980044
0.980003
0.979953
0.979966
0.980005
0.979951
0.979991
0.979915
0.980004
0.979951
0.979955
0.979963
0.979942
0.979958
0.979937
0.979968
0.980043
0.980047
0.979941
0.979978
0.979966
0.980002
0.979946
0.979959
0.980003
0.979959
0.979998
0.979965
0.979999
0.980004
0.979908
0.97994
0.97994
0.97994
0.97996
0.979998
0.979925
0.979955
0.979982
0.979997
0.980002
0.97994
0.979999
0.979944
0.980001
0.980043
0.979997
0.980039
0.97995
0.979999
0.979908
0.98
0.979953
0.98
0.979954
0.98
0.979972
0.980064
0.979972
0.98
0.979938
0.979999
0.979981
0.979957
0.979955
0.98
0.979998
0.979991
0.979952
0.979997
0.979967
0.979971
0.979939
0.979998
0.979991
0.979981
0.979991
0.979999
0.97999
0.979949
0.979966
0.979991
0.979999
0.979964
0.979964
0.979998
0.979939
0.980066
0.979974
0.980035
0.97998
0.980098
0.980098
0.980096
0.980096
0.980094
0.980103
0.980103
0.97995
0.97993
0.979965
0.979982
0.979987
0.979991
0.979965
0.979991
0.979992
0.97993
0.979991
0.979948
0.980011
0.979942
0.979973
0.979982
0.979991
0.979942
0.979974
0.979982
0.979974
0.979981
0.979989
0.980006
0.979982
0.979975
0.979947
0.979986
0.97999
0.979987
0.979982
0.979975
0.979964
0.979987
0.979965
0.979974
0.979982
0.979966
0.979973
0.979989
0.979953
0.979981
0.97993
0.980043
0.979951
0.979949
0.979975
0.979982
0.979957
0.980067
0.979972
0.979982
0.980063
0.979912
0.979912
0.979972
0.979988
0.979981
0.979987
0.9799
0.979899
0.979963
0.979967
0.979967
0.980072
0.979989
0.979952
0.979985
0.979986
0.979983
0.980065
0.979955
0.979988
0.979974
0.979974
0.979985
0.979982
0.979985
0.979985
0.980061
0.980039
0.979981
0.979974
0.979981
0.979986
0.979982
0.979981
0.979981
0.980044
0.979944
0.979986
0.979958
0.979954
0.980045
0.979972
0.979972
0.979939
0.979906
0.979906
0.979939
0.97999
0.979974
0.980046
0.979908
0.979898
0.979897
0.980067
0.979926
0.979917
0.979975
0.979943
0.979966
0.979958
0.979951
0.979953
0.979968
0.980066
0.979972
0.97996
0.979953
0.980065
0.979921
0.980069
0.97995
0.979962
0.979999
0.979969
0.979968
0.979933
0.979964
0.979933
0.979973
0.979954
0.97992
0.979921
0.980048
0.979957
0.980098
0.9801
0.980097
0.979956
0.980072
0.980097
0.979986
0.980097
0.979934
0.979934
0.980098
0.979977
0.980065
0.980102
0.980063
0.980103
0.980063
0.979925
0.98005
0.980071
0.980096
0.979969
0.979949
0.980065
0.979968
0.980095
0.979963
0.979977
0.980103
0.980065
0.980102
0.980066
0.979974
0.979931
0.979897
0.979898
0.97996
0.979897
0.979896
0.979898
0.979905
0.980048
0.97992
0.97994
0.979931
0.979962
0.979904
0.979904
0.979933
0.980066
0.979978
0.980074
0.980072
0.980064
0.979908
0.979908
0.97991
0.97991
0.979908
0.979901
0.979914
0.979905
0.979901
0.979911
0.979911
0.979901
0.9799
0.979904
0.979912
SCALARS rr_(P) float
LOOKUP_TABLE default
0.024687
0.0246288
0.024634
0.0246298
0.0246135
0.0246341
0.0246871
0.0246306
0.0246389
0.024629
0.0246833
0.0246305
0.0246317
0.0246282
0.0246191
0.0246332
0.024626
0.0246312
0.0246415
0.0246355
0.0246362
0.0245925
0.0246362
0.0246353
0.0246356
0.0246302
0.0246751
0.0246333
0.0246574
0.0246048
0.024632
0.0246572
0.0246759
0.0246085
0.0246068
0.0246086
0.0246042
0.0246076
0.024632
0.0246758
0.0246575
0.0246039
0.024604
0.024632
0.0246704
0.0246566
0.0246403
0.0246379
0.0246338
0.024661
0.0246589
0.0246515
0.0246144
0.0246513
0.0246148
0.0246687
0.0246067
0.0246513
0.0246067
0.0246352
0.0246263
0.0246213
0.0246714
0.0246217
0.0246212
0.0246261
0.0246261
0.0246302
0.0246359
0.0246286
0.0246145
0.0246145
0.0246575
0.0246242
0.0246338
0.0246784
0.024618
0.0246261
0.0246305
0.0246502
0.0246621
0.0246117
0.0246238
0.0246638
0.0246557
0.0246698
0.0246333
0.0246251
0.0246703
0.0245954
0.0246514
0.0245954
0.0246177
0.0246267
0.0246509
0.0246594
0.024662
0.0246291
0.0246181
0.0246323
0.0246448
0.0246544
0.0246639
0.0246307
0.0246296
0.0246296
0.024623
0.0246328
0.024664
0.0246279
0.0246352
0.0246685
0.0246659
0.024631
0.0246298
0.0246511
0.0246071
0.0246625
0.0246069
0.0246509
0.0246428
0.0246198
0.0246288
0.024625
0.0246274
0.0246186
0.0246088
0.0246291
0.024662
0.0246509
0.0246144
0.0246293
0.0246241
0.0246292
0.0246543
0.0246066
0.0246652
0.0246314
0.0246237
0.0246067
0.0246536
0.0246288
0.0246419
0.0246289
0.0246625
0.0246301
0.0246296
0.0246338
0.0246341
0.0246466
0.024638
0.0246288
0.0246574
0.0246317
0.024629
0.0246291
0.0246273
0.024653
0.0246528
0.0246318
0.0246378
0.0246569
0.024669
0.0246589
0.0246531
0.0246295
0.0246531
0.0246532
0.0246573
0.024653
0.0246175
0.0246513
0.024659
0.0246268
0.0246512
0.0246232
0.0246176
0.0246305
0.0246142
0.0246294
0.0246573
0.0246292
0.0246292
0.0246535
0.0246251
0.0246594
0.0246251
0.0246229
0.0246173
0.0246291
0.0246249
0.0246614
0.0246512
0.0246573
0.024629
0.0246315
0.0246311
0.0246241
0.0246289
0.0246263
0.0246288
0.0246408
0.0246499
0.0246242
0.0246572
0.0246238
0.0246261
0.0246546
0.0246205
0.0246286
0.0246199
0.0246279
0.0246298
0.0246236
0.0246464
0.0246274
0.0246492
0.024623
0.0246275
0.0246275
0.0246282
0.0246281
0.024628
0.024628
0.0246286
0.0246195
0.0246197
0.0246196
0.0246194
0.0246147
0.0246147
0.0246468
0.0246284
0.0246303
0.0246382
0.0246191
0.0246188
0.0246302
0.0246496
0.0246305
0.0246291
0.0246462
0.0246205
0.0246464
0.0246235
0.0246308
0.024646
0.0246489
0.0246623
0.0246619
0.0246237
0.0246634
0.0246324
0.0246492
0.0246411
0.0246307
0.0246277
0.0246036
0.0246279
0.0246638
0.0246492
0.0246303
0.0246305
0.0246499
0.0246277
0.0246416
0.0246037
0.0246491
0.0246274
0.0246253
0.0246311
0.0246192
0.0246253
0.0246144
0.0246318
0.0246676
0.0246698
0.024616
0.0246361
0.0246305
0.0246464
0.0246203
0.0246269
0.0246491
0.0246266
0.0246446
0.0246294
0.0246446
0.0246495
0.024599
0.0246169
0.0246189
0.024619
0.0246286
0.0246442
0.0246092
0.0246256
0.0246377
0.024644
0.0246459
0.0246161
0.0246462
0.0246176
0.0246452
0.0246703
0.0246443
0.0246628
0.0246228
0.0246462
0.0245991
0.0246452
0.0246241
0.0246468
0.0246247
0.0246453
0.0246334
0.0246723
0.0246345
0.0246463
0.0246163
0.0246466
0.0246376
0.0246247
0.0246286
0.0246453
0.0246443
0.0246418
0.0246229
0.0246444
0.0246305
0.0246333
0.0246145
0.0246443
0.0246421
0.0246367
0.0246415
0.0246449
0.0246414
0.024621
0.0246307
0.0246418
0.0246464
0.024629
0.024629
0.0246445
0.0246146
0.0246853
0.0246334
0.0246622
0.0246365
0.0247164
0.0247162
0.0247159
0.024716
0.0247159
0.0247165
0.0247162
0.0246225
0.0246108
0.0246316
0.0246379
0.0246412
0.0246415
0.0246294
0.0246418
0.0246421
0.0246106
0.0246415
0.0246201
0.0246514
0.0246204
0.0246344
0.024638
0.0246417
0.0246159
0.0246335
0.0246376
0.0246334
0.0246375
0.024642
0.0246504
0.0246381
0.024634
0.0246199
0.0246406
0.0246425
0.0246409
0.0246384
0.0246342
0.0246293
0.0246409
0.0246294
0.0246347
0.0246382
0.0246304
0.0246345
0.0246417
0.0246248
0.024637
0.0246113
0.0246702
0.0246226
0.024621
0.0246341
0.0246369
0.0246262
0.0246846
0.0246342
0.0246372
0.024672
0.0245993
0.0245992
0.0246335
0.0246413
0.0246364
0.0246406
0.02459
0.0245901
0.0246304
0.0246303
0.0246307
0.0246847
0.0246422
0.0246243
0.0246385
0.0246387
0.0246383
0.0246857
0.024625
0.0246416
0.0246337
0.0246337
0.0246388
0.0246377
0.0246388
0.0246383
0.0246754
0.0246627
0.0246377
0.0246335
0.024637
0.0246391
0.0246374
0.0246366
0.024637
0.0246702
0.024619
0.0246409
0.0246264
0.0246248
0.0246705
0.0246339
0.0246344
0.0246145
0.0245998
0.0245998
0.024617
0.0246424
0.0246338
0.0246711
0.0246009
0.0245915
0.0245915
0.0246863
0.0246076
0.0246048
0.0246344
0.024618
0.0246317
0.0246286
0.0246246
0.0246232
0.0246305
0.0246848
0.024633
0.0246268
0.024624
0.0246788
0.0246068
0.024673
0.0246244
0.0246284
0.0246456
0.024632
0.0246308
0.024614
0.02463
0.024614
0.0246336
0.024624
0.0246057
0.0246054
0.024671
0.0246278
0.024688
0.0246869
0.0246893
0.0246251
0.0246854
0.0246905
0.024639
0.0246887
0.0246118
0.0246119
0.0246878
0.0246367
0.0246752
0.0246883
0.0246763
0.0246886
0.0246763
0.0246072
0.0246731
0.0246851
0.0246879
0.024631
0.0246219
0.0246772
0.0246309
0.0246901
0.0246291
0.0246363
0.024689
0.0246781
0.0246898
0.0246863
0.0246347
0.0246104
0.0245926
0.0245933
0.024628
0.0245927
0.0245927
0.024593
0.0245977
0.024672
0.0246062
0.0246165
0.0246103
0.0246287
0.0245965
0.0245965
0.0246013
0.024687
0.0246369
0.0246862
0.0246739
0.0246735
0.0246016
0.0246018
0.0246022
0.0246021
0.0246017
0.0245936
0.0246021
0.0245964
0.0245923
0.0246015
0.0246014
0.0245921
0.0245934
0.0245962
0.0246025
SCALARS rr_(T) float
LOOKUP_TABLE default
1
1
1
1
1
1
1
1
1
1
1
1
1
1
1
1
1
1
1
1
1
1
1
1
1
1
1
1
1
1
1
1
1
1
1
1
1
1
1
1
1
1
1
1
1
1
1
1
1
1
1
1
1
1
1
1
1
1
1
1
1
1
1
1
1
1
1
1
1
1
1
1
1
1
1
1
1
1
1.00001
1
1
1
1
1
1
1
1
1
1
1
1
1
1
1
1
1
1
1
1
1
1
1
1
1
1
1
1
1
1
1
1
1
1
1
1
1
1.00001
1
1
1
1
1
1
1
1
1
1
1
1
1
1
1
1
1
1
1
1
1
1
1
1
1
1
1
1
1
1
1
1
1
1
1
1
1
1
1
1
1
1
1
1
1
1
1
1
1
1
1
1
1
1
1
1
1
1
1
1
1
1
1
1
1
1
1
1
1
1
1
1
1
1
1
1
1
1
1
1
1
1
1
1
1
1
1
1
1
1
1
1
1
1
1
1
1
1
1
1
1
1
1
1
1
1
1
1
1
1
1
1
1
1
1
1
1
1
1
1
1
1
1
1
1
1
1
1
1
1
1
1
1
1
1
1
1
1
1
1
1
1
1
1
1
1
1
1
1
1
1
1
1
1
1
1
1
1
1
1
1
1
1
1
1
1
1
1
1
1
1
1
1
1
1
1
1
1
1
1
1
1
1
1
1
1
1
1
1
1
1
1
1
1
1
1
1
1
1
1
1
1
1
1
1
1
1
1
1
1
1
1
1
1
1
1
1
1
1
1
1
1
1
1
1
1
1
1
1
1
1
1
1
1
1
1
1
1
1
1
1
1
1
1
1
1
1
1
1
1
1
1
1
1
1
1
1
1
1
1
1
1
1
1
1
1
1
1
1
1
1
1
1
1
1
1
1
1
1
1
1
1
1
1
1
1
1
1
1
1
1
1
1
1
1
1
1
1
1
1
1
1
1
1
1
1
1.00001
1.00001
1
1
1
1
1
1
1
1
1
1
1
1
1
1
1
1
1
1
1
1
1
1
1
1
1
1
1
1
1
1
1
1
1
1
1
1
1
1
1
1
1
1
1
1
1
1
1
1
1
1
1
1
1
1
1
1
1
1
1
1
1
1
1
1
1
1
1
1
1
1
1
1
1
1
1
1
1
1.00001
1.00001
1
1
1
1
1
1
1
1
1
1
1
1
1
1
1
1
1
1
1
1
1
1
1
1
1
1
1
1
1
1
1
1
1
1
1
1
1
1
1
1
1
1
1
1
1
1
1
1
1
1
1
1
1
1
1
1
1
1
1
SCALARS rr_tsim float
LOOKUP_TABLE default
2000
2000
2000
2000
2000
2000
2000
2000
2000
2000
2000
2000
2000
2000
2000
2000
2000
2000
2000
2000
2000
2000
2000
2000
2000
2000
2000
2000
2000
2000
2000
2000
2000
2000
2000
2000
2000
2000
2000
2000
2000
2000
2000
2000
2000
2000
2000
2000
2000
2000
2000
2000
2000
2000
2000
2000
2000
2000
2000
2000
2000
2000
2000
2000
2000
2000
2000
2000
2000
2000
2000
2000
2000
2000
2000
2000
2000
2000
2000
2000
2000
2000
2000
2000
2000
2000
2000
2000
2000
2000
2000
2000
2000
2000
2000
2000
2000
2000
2000
2000
2000
2000
2000
2000
2000
2000
2000
2000
2000
2000
2000
2000
2000
2000
2000
2000
2000
2000
2000
2000
2000
2000
2000
2000
2000
2000
2000
2000
2000
2000
2000
2000
2000
2000
2000
2000
2000
2000
2000
2000
2000
2000
2000
2000
2000
2000
2000
2000
2000
2000
2000
2000
2000
2000
2000
2000
2000
2000
2000
2000
2000
2000
2000
2000
2000
2000
2000
2000
2000
2000
2000
2000
2000
2000
2000
2000
2000
2000
2000
2000
2000
2000
2000
2000
2000
2000
2000
2000
2000
2000
2000
2000
2000
2000
2000
2000
2000
2000
2000
2000
2000
2000
2000
2000
2000
2000
2000
2000
2000
2000
2000
2000
2000
2000
2000
2000
2000
2000
2000
2000
2000
2000
2000
2000
2000
2000
2000
2000
2000
2000
2000
2000
2000
2000
2000
2000
2000
2000
2000
2000
2000
2000
2000
2000
2000
2000
2000
2000
2000
2000
2000
2000
2000
2000
2000
2000
2000
2000
2000
2000
2000
2000
2000
2000
2000
2000
2000
2000
2000
2000
2000
2000
2000
2000
2000
2000
2000
2000
2000
2000
2000
2000
2000
2000
2000
2000
2000
2000
2000
2000
2000
2000
2000
2000
2000
2000
2000
2000
2000
2000
2000
2000
2000
2000
2000
2000
2000
2000
2000
2000
2000
2000
2000
2000
2000
2000
2000
2000
2000
2000
2000
2000
2000
2000
2000
2000
2000
2000
2000
2000
2000
2000
2000
2000
2000
2000
2000
2000
2000
2000
2000
2000
2000
2000
2000
2000
2000
2000
2000
2000
2000
2000
2000
2000
2000
2000
2000
2000
2000
2000
2000
2000
2000
2000
2000
2000
2000
2000
2000
2000
2000
2000
2000
2000
2000
2000
2000
2000
2000
2000
2000
2000
2000
2000
2000
2000
2000
2000
2000
2000
2000
2000
2000
2000
2000
2000
2000
2000
2000
2000
2000
2000
2000
2000
2000
2000
2000
2000
2000
2000
2000
2000
2000
2000
2000
2000
2000
2000
2000
2000
2000
2000
2000
2000
2000
2000
2000
2000
2000
2000
2000
2000
2000
2000
2000
2000
2000
2000
2000
2000
2000
2000
2000
2000
2000
2000
2000
2000
2000
2000
2000
2000
2000
2000
2000
2000
2000
2000
2000
2000
2000
2000
2000
2000
2000
2000
2000
2000
2000
2000
2000
2000
2000
2000
2000
2000
2000
2000
2000
2000
2000
2000
2000
2000
2000
2000
2000
2000
2000
2000
2000
2000
2000
2000
2000
2000
2000
2000
2000
2000
2000
2000
2000
2000
2000
2000
2000
2000
2000
2000
2000
2000
2000
2000
2000
2000
2000
2000
2000
2000
2000
2000
2000
2000
2000
2000
2000
2000
2000
2000
2000
2000
2000
2000
2000
2000
2000
2000
2000
2000
2000
2000
2000
2000
2000
2000
2000
2000
2000
2000
2000
2000
2000
2000
2000
2000
2000
2000
2000
2000
2000
2000
2000
SCALARS rr_Vext float
LOOKUP_TABLE default
0.181358
0.449122
0.356047
0.468108
0.250492
0.377827
0.179274
0.465088
0.395105
0.504564
0.165389
0.466507
0.409825
0.435012
0.516134
0.424863
0.369043
0.414183
0.36553
0.360526
0.405108
0.0765106
0.415069
0.383013
0.347104
0.40347
0.15501
0.352833
0.267412
0.339246
0.361968
0.276484
0.17152
0.252901
0.249247
0.253451
0.330126
0.24949
0.361539
0.192836
0.22472
0.29105
0.291059
0.397271
0.216885
0.244119
0.344611
0.350183
0.330078
0.30376
0.312853
0.245236
0.401517
0.315206
0.369413
0.157753
0.266178
0.317515
0.26615
0.393184
0.470928
0.464871
0.153275
0.327641
0.445312
0.417373
0.455653
0.391904
0.357984
0.515555
0.435553
0.430789
0.277653
0.338744
0.353971
0.176426
0.372674
0.413476
0.395168
0.271132
0.24049
0.283506
0.52753
0.24025
0.32776
0.119291
0.407579
0.344608
0.229705
0.0374828
0.273092
0.0407607
0.316356
0.299311
0.258658
0.232982
0.220908
0.442929
0.372909
0.351854
0.293534
0.277769
0.230478
0.418574
0.426136
0.38383
0.340625
0.340847
0.244628
0.512517
0.326025
0.164038
0.220056
0.457877
0.429717
0.304481
0.30863
0.183508
0.320034
0.303365
0.266985
0.502647
0.511808
0.442038
0.484524
0.38495
0.220814
0.478208
0.200078
0.262278
0.227502
0.456393
0.449022
0.448247
0.288936
0.187537
0.190638
0.327439
0.404467
0.187459
0.241541
0.387288
0.287968
0.472756
0.223275
0.385188
0.34973
0.336126
0.214788
0.269545
0.304297
0.440624
0.248026
0.397409
0.461988
0.469241
0.307854
0.249007
0.247656
0.401134
0.333851
0.246116
0.160076
0.239703
0.240466
0.430954
0.252348
0.2551
0.274619
0.245938
0.386342
0.258182
0.226058
0.297713
0.272811
0.340305
0.382116
0.361131
0.313976
0.360844
0.266566
0.418244
0.44885
0.241613
0.442298
0.239439
0.436793
0.402736
0.378964
0.379413
0.446225
0.200774
0.266927
0.246016
0.447408
0.439019
0.407197
0.447892
0.45295
0.381863
0.466567
0.307714
0.274109
0.512729
0.285546
0.465952
0.36996
0.226654
0.28634
0.461723
0.389033
0.350306
0.450054
0.445254
0.278858
0.28422
0.267542
0.395451
0.433417
0.49809
0.478086
0.520368
0.471556
0.515284
0.432053
0.4572
0.460649
0.434353
0.456355
0.422917
0.416634
0.28241
0.389409
0.454293
0.312119
0.470271
0.432154
0.492657
0.288245
0.468274
0.448675
0.284499
0.406912
0.282468
0.455236
0.411287
0.296254
0.277677
0.235552
0.271096
0.455771
0.1975
0.347019
0.276527
0.313902
0.468669
0.455546
0.147788
0.457102
0.23643
0.261763
0.466268
0.379025
0.264584
0.522179
0.291229
0.147779
0.267723
0.406397
0.508919
0.382688
0.457753
0.425154
0.226614
0.21673
0.175978
0.201427
0.308133
0.229074
0.37198
0.227523
0.40639
0.287621
0.2681
0.323952
0.293521
0.39852
0.281485
0.287595
0.13637
0.30357
0.437808
0.438056
0.391523
0.281115
0.192358
0.545875
0.360487
0.298316
0.27429
0.284975
0.282728
0.358841
0.27809
0.192058
0.27479
0.183495
0.351066
0.279575
0.127091
0.26372
0.321336
0.279314
0.443667
0.290709
0.381466
0.138314
0.30566
0.287012
0.261623
0.269317
0.32199
0.308721
0.321044
0.266563
0.271162
0.293858
0.403599
0.276094
0.39902
0.358785
0.290795
0.286472
0.290121
0.323371
0.289911
0.270116
0.308527
0.333028
0.387864
0.290168
0.286352
0.425141
0.419246
0.27621
0.290834
0.117368
0.342061
0.227677
0.319679
0.126304
0.131123
0.117233
0.119129
0.126411
0.133076
0.137186
0.365817
0.275202
0.269662
0.305532
0.296205
0.292406
0.314708
0.285992
0.292385
0.310822
0.291313
0.368786
0.261062
0.378831
0.289101
0.277577
0.291594
0.322764
0.328992
0.304694
0.351047
0.326029
0.300388
0.213974
0.303858
0.29886
0.328279
0.305307
0.288517
0.275034
0.304061
0.31909
0.436158
0.283304
0.423998
0.438656
0.298863
0.42286
0.322473
0.255676
0.356791
0.307316
0.229503
0.185269
0.353347
0.377137
0.31343
0.259541
0.317011
0.138203
0.309862
0.289511
0.140568
0.0597484
0.0653752
0.26865
0.283292
0.331354
0.316584
0.0311308
0.0325286
0.318177
0.32154
0.30424
0.103723
0.264725
0.315901
0.315639
0.272073
0.24028
0.107863
0.464463
0.284943
0.352158
0.357669
0.255161
0.323443
0.249473
0.275478
0.129738
0.19938
0.323803
0.327748
0.280323
0.293561
0.303655
0.320502
0.306407
0.14396
0.275777
0.301351
0.290882
0.437484
0.143857
0.23373
0.24057
0.234521
0.155624
0.155628
0.267697
0.208506
0.301871
0.153855
0.185525
0.0614166
0.0614141
0.112309
0.199632
0.134971
0.256998
0.284536
0.297804
0.336997
0.307415
0.28523
0.222214
0.127171
0.278047
0.290578
0.282436
0.144129
0.147644
0.104628
0.281945
0.285968
0.224179
0.258248
0.23871
0.223789
0.292908
0.223756
0.257201
0.251384
0.158046
0.195239
0.165307
0.310643
0.112706
0.118918
0.115939
0.294531
0.10769
0.104732
0.200915
0.0979317
0.243153
0.243507
0.100659
0.255443
0.113722
0.110988
0.127154
0.105858
0.105723
0.174204
0.12624
0.112774
0.106277
0.235808
0.272656
0.118743
0.260314
0.0960764
0.264786
0.20817
0.100551
0.0864347
0.0948693
0.12646
0.225549
0.192178
0.0824423
0.091407
0.253854
0.0775857
0.0775824
0.0878714
0.0979617
0.0995845
0.127333
0.207531
0.193793
0.253766
0.077524
0.0775207
0.229251
0.0843463
0.178712
0.0765187
0.078341
0.10327
0.198595
0.205595
0.218905
0.200658
0.198579
0.0438923
0.320379
0.0557535
0.0543416
0.259007
0.257237
0.0563344
0.0390571
0.0548043
0.238559
SCALARS rr_Vli float
LOOKUP_TABLE default
0.396486
0.903295
0.721401
0.9429
0.493002
0.765663
0.392034
0.937668
0.806265
1.01511
0.359835
0.94054
0.8277
0.874152
1.02412
0.859726
0.739393
0.835913
0.748795
0.732051
0.823478
0.146196
0.843736
0.777624
0.704886
0.813138
0.333348
0.714255
0.560607
0.6598
0.731223
0.579527
0.369271
0.494391
0.485903
0.495506
0.641456
0.486895
0.73048
0.415064
0.471209
0.565329
0.565389
0.802512
0.463322
0.511146
0.70466
0.71357
0.668679
0.640141
0.657313
0.509708
0.79128
0.654952
0.728497
0.336093
0.518807
0.659754
0.51879
0.798044
0.943862
0.925028
0.327839
0.652216
0.886008
0.836193
0.912997
0.789772
0.727287
1.0367
0.858505
0.84915
0.582209
0.67685
0.716967
0.381182
0.738157
0.828437
0.796419
0.562479
0.507622
0.556447
1.0535
0.508331
0.685382
0.254579
0.825073
0.689485
0.49066
0.0719434
0.567527
0.078246
0.626349
0.600258
0.537107
0.489901
0.466216
0.891212
0.738705
0.711147
0.604216
0.579672
0.487748
0.844108
0.858079
0.772712
0.679545
0.689378
0.517758
1.02964
0.661676
0.349478
0.467058
0.923819
0.865434
0.63249
0.601612
0.38741
0.624
0.62999
0.547958
0.99831
1.02947
0.884276
0.972854
0.763251
0.431749
0.962234
0.422252
0.544645
0.448452
0.918477
0.897108
0.90182
0.602898
0.365537
0.404181
0.66093
0.80773
0.365414
0.503537
0.778932
0.590239
0.951057
0.47153
0.776063
0.704321
0.680953
0.435246
0.556267
0.620245
0.886305
0.519981
0.802495
0.929439
0.944259
0.617852
0.518655
0.515712
0.810195
0.680204
0.515658
0.341238
0.503637
0.500927
0.867512
0.525644
0.531442
0.575695
0.512235
0.764766
0.536472
0.475014
0.597024
0.566757
0.679099
0.75645
0.728157
0.61851
0.726371
0.558759
0.841633
0.903302
0.503621
0.88478
0.503407
0.873805
0.803282
0.749914
0.763387
0.89254
0.423343
0.554569
0.51569
0.900207
0.886298
0.821709
0.894902
0.911194
0.765269
0.938414
0.629673
0.568291
1.02453
0.59847
0.93055
0.741276
0.473239
0.569197
0.928571
0.772726
0.703604
0.906433
0.889135
0.575328
0.57047
0.554199
0.788781
0.870375
1.00028
0.961013
1.04558
0.947449
1.03539
0.86871
0.907695
0.914767
0.862343
0.90593
0.833929
0.821515
0.583003
0.782793
0.915905
0.636237
0.933119
0.857208
0.993021
0.597474
0.944366
0.902753
0.586735
0.8088
0.582773
0.908853
0.829724
0.610879
0.57498
0.497304
0.572061
0.9101
0.417613
0.70148
0.572845
0.642711
0.945254
0.914965
0.286927
0.918292
0.500196
0.542257
0.940098
0.764199
0.548648
1.04887
0.596674
0.286927
0.554499
0.815975
1.01856
0.772232
0.908464
0.850821
0.4466
0.437751
0.374434
0.429883
0.608682
0.465558
0.74999
0.469384
0.807667
0.576816
0.555339
0.649546
0.603994
0.802275
0.579177
0.596019
0.263019
0.600441
0.868509
0.869128
0.787207
0.578061
0.376387
1.09285
0.734298
0.613257
0.565365
0.562957
0.583122
0.710458
0.572676
0.410195
0.565166
0.387691
0.700124
0.576598
0.245149
0.543076
0.642112
0.576618
0.887238
0.598796
0.772172
0.296222
0.619802
0.592061
0.517039
0.555816
0.655878
0.617313
0.645548
0.549009
0.557646
0.602195
0.804984
0.567869
0.804504
0.726241
0.573154
0.589127
0.594775
0.657841
0.593794
0.555993
0.631806
0.662545
0.782178
0.59465
0.590809
0.855285
0.843306
0.568299
0.573277
0.256087
0.6926
0.480627
0.650102
0.287606
0.29855
0.266803
0.271172
0.287682
0.303056
0.312311
0.729342
0.539723
0.544564
0.622603
0.606499
0.598932
0.633518
0.58613
0.599482
0.609469
0.596711
0.732657
0.542544
0.753106
0.586002
0.565698
0.597464
0.637465
0.666111
0.620591
0.710714
0.663996
0.615741
0.444039
0.619296
0.60557
0.652003
0.624635
0.591867
0.56287
0.620016
0.64672
0.877915
0.579856
0.853546
0.889737
0.609276
0.852427
0.653928
0.523839
0.713541
0.625424
0.4504
0.395665
0.704467
0.750312
0.635199
0.528048
0.635251
0.301236
0.62802
0.589264
0.300912
0.115298
0.126126
0.544003
0.580096
0.673735
0.64766
0.0592774
0.0619388
0.641395
0.648086
0.613481
0.226113
0.542803
0.631011
0.643415
0.555013
0.489877
0.235469
0.929281
0.583732
0.71323
0.724381
0.520581
0.658846
0.508988
0.561646
0.279101
0.421176
0.659631
0.663707
0.570432
0.599123
0.618255
0.651891
0.623522
0.307427
0.547096
0.61683
0.583014
0.8749
0.307367
0.473532
0.487752
0.46224
0.300515
0.300535
0.529553
0.427592
0.611535
0.329005
0.358876
0.117176
0.117176
0.245398
0.389619
0.262494
0.52105
0.563538
0.60141
0.677645
0.614656
0.569068
0.448035
0.27725
0.562545
0.582799
0.564246
0.311556
0.287924
0.224284
0.563451
0.574849
0.461941
0.521746
0.481452
0.440836
0.590093
0.440797
0.520821
0.502146
0.307811
0.380027
0.353393
0.623981
0.246785
0.259979
0.254333
0.589282
0.234981
0.230138
0.410008
0.214644
0.47712
0.477842
0.220334
0.519609
0.244574
0.243122
0.273901
0.231958
0.227739
0.339829
0.270697
0.245996
0.232677
0.475748
0.543001
0.256116
0.525107
0.211011
0.532688
0.423218
0.220454
0.186663
0.208255
0.276319
0.457466
0.376607
0.157552
0.174883
0.509985
0.148307
0.148306
0.168048
0.188628
0.213205
0.248113
0.410273
0.37976
0.51034
0.149004
0.149003
0.448511
0.184461
0.363609
0.167149
0.16815
0.221553
0.384549
0.398195
0.424213
0.388778
0.384539
0.0840102
0.620731
0.107163
0.103829
0.501444
0.497965
0.107596
0.0747328
0.105301
0.462542
SCALARS rr_S_ext' float
LOOKUP_TABLE default
0
0
0
0
0
0
0
0
0
0
0
0
0
0
0
0
0
0
0
0
0
0
0
0
0
0
0
0
0
0
0
0
0
0
0
0
0
0
0
0
0
0
0
0
0
0
0
0
0
0
0
0
0
0
0
0
0
0
0
0
0
0
0
0
0
0
0
0
0
0
0
0
0
0
0
0
0
0
0
0
0
0
0
0
0
0
0
0
0
0
0
0
0
0
0
0
0
0
0
0
0
0
0
0
0
0
0
0
0
0
0
0
0
0
0
0
0
0
0
0
0
0
0
0
0
0
0
0
0
0
0
0
0
0
0
0
0
0
0
0
0
0
0
0
0
0
0
0
0
0
0
0
0
0
0
0
0
0
0
0
0
0
0
0
0
0
0
0
0
0
0
0
0
0
0
0
0
0
0
0
0
0
0
0
0
0
0
0
0
0
0
0
0
0
0
0
0
0
0
0
0
0
0
0
0
0
0
0
0
0
0
0
0
0
0
0
0
0
0
0
0
0
0
0
0
0
0
0
0
0
0
0
0
0
0
0
0
0
0
0
0
0
0
0
0
0
0
0
0
0
0
0
0
0
0
0
0
0
0
0
0
0
0
0
0
0
0
0
0
0
0
0
0
0
0
0
0
0
0
0
0
0
0
0
0
0
0
0
0
0
0
0
0
0
0
0
0
0
0
0
0
0
0
0
0
0
0
0
0
0
0
0
0
0
0
0
0
0
0
0
0
0
0
0
0
0
0
0
0
0
0
0
0
0
0
0
0
0
0
0
0
0
0
0
0
0
0
0
0
0
0
0
0
0
0
0
0
0
0
0
0
0
0
0
0
0
0
0
0
0
0
0
0
0
0
0
0
0
0
0
0
0
0
0
0
0
0
0
0
0
0
0
0
0
0
0
0
0
0
0
0
0
0
0
0
0
0
0
0
0
0
0
0
0
0
0
0
0
0
0
0
0
0
0
0
0
0
0
0
0
0
0
0
0
0
0
0
0
0
0
0
0
0
0
0
0
0
0
0
0
0
0
0
0
0
0
0
0
0
0
0
0
0
0
0
0
0
0
0
0
0
0
0
0
0
0
0
0
0
0
0
0
0
0
0
0
0
0
0
0
0
0
0
0
0
0
0
0
0
0
0
0
0
0
0
0
0
0
0
0
0
0
0
0
0
0
0
0
0
0
0
0
0
0
0
0
0
0
0
0
0
0
0
0
0
0
0
0
0
0
0
0
0
0
0
0
0
0
0
0
0
0
0
0
0
0
0
0
0
0
0
0
0
SCALARS rr_P_ext' float
LOOKUP_TABLE default
0
0
0
0
0
0
0
0
0
0
0
0
0
0
0
0
0
0
0
0
0
0
0
0
0
0
0
0
0
0
0
0
0
0
0
0
0
0
0
0
0
0
0
0
0
0
0
0
0
0
0
0
0
0
0
0
0
0
0
0
0
0
0
0
0
0
0
0
0
0
0
0
0
0
0
0
0
0
0
0
0
0
0
0
0
0
0
0
0
0
0
0
0
0
0
0
0
0
0
0
0
0
0
0
0
0
0
0
0
0
0
0
0
0
0
0
0
0
0
0
0
0
0
0
0
0
0
0
0
0
0
0
0
0
0
0
0
0
0
0
0
0
0
0
0
0
0
0
0
0
0
0
0
0
0
0
0
0
0
0
0
0
0
0
0
0
0
0
0
0
0
0
0
0
0
0
0
0
0
0
0
0
0
0
0
0
0
0
0
0
0
0
0
0
0
0
0
0
0
0
0
0
0
0
0
0
0
0
0
0
0
0
0
0
0
0
0
0
0
0
0
0
0
0
0
0
0
0
0
0
0
0
0
0
0
0
0
0
0
0
0
0
0
0
0
0
0
0
0
0
0
0
0
0
0
0
0
0
0
0
0
0
0
0
0
0
0
0
0
0
0
0
0
0
0
0
0
0
0
0
0
0
0
0
0
0
0
0
0
0
0
0
0
0
0
0
0
0
0
0
0
0
0
0
0
0
0
0
0
0
0
0
0
0
0
0
0
0
0
0
0
0
0
0
0
0
0
0
0
0
0
0
0
0
0
0
0
0
0
0
0
0
0
0
0
0
0
0
0
0
0
0
0
0
0
0
0
0
0
0
0
0
0
0
0
0
0
0
0
0
0
0
0
0
0
0
0
0
0
0
0
0
0
0
0
0
0
0
0
0
0
0
0
0
0
0
0
0
0
0
0
0
0
0
0
0
0
0
0
0
0
0
0
0
0
0
0
0
0
0
0
0
0
0
0
0
0
0
0
0
0
0
0
0
0
0
0
0
0
0
0
0
0
0
0
0
0
0
0
0
0
0
0
0
0
0
0
0
0
0
0
0
0
0
0
0
0
0
0
0
0
0
0
0
0
0
0
0
0
0
0
0
0
0
0
0
0
0
0
0
0
0
0
0
0
0
0
0
0
0
0
0
0
0
0
0
0
0
0
0
0
0
0
0
0
0
0
0
0
0
0
0
0
0
0
0
0
0
0
0
0
0
0
0
0
0
0
0
0
0
0
0
0
0
0
0
0
0
0
0
0
0
0
0
0
0
0
0
0
0
0
0
0
SCALARS rr_S' float
LOOKUP_TABLE default
0
0
0
0
0
0
0
0
0
0
0
0
0
0
0
0
0
0
0
0
0
0
0
0
0
0
0
0
0
0
0
0
0
0
0
0
0
0
0
0
0
0
0
0
0
0
0
0
0
0
0
0
0
0
0
0
0
0
0
0
0
0
0
0
0
0
0
0
0
0
0
0
0
0
0
0
0
0
0
0
0
0
0
0
0
0
0
0
0
0
0
0
0
0
0
0
0
0
0
0
0
0
0
0
0
0
0
0
0
0
0
0
0
0
0
0
0
0
0
0
0
0
0
0
0
0
0
0
0
0
0
0
0
0
0
0
0
0
0
0
0
0
0
0
0
0
0
0
0
0
0
0
0
0
0
0
0
0
0
0
0
0
0
0
0
0
0
0
0
0
0
0
0
0
0
0
0
0
0
0
0
0
0
0
0
0
0
0
0
0
0
0
0
0
0
0
0
0
0
0
0
0
0
0
0
0
0
0
0
0
0
0
0
0
0
0
0
0
0
0
0
0
0
0
0
0
0
0
0
0
0
0
0
0
0
0
0
0
0
0
0
0
0
0
0
0
0
0
0
0
0
0
0
0
0
0
0
0
0
0
0
0
0
0
0
0
0
0
0
0
0
0
0
0
0
0
0
0
0
0
0
0
0
0
0
0
0
0
0
0
0
0
0
0
0
0
0
0
0
0
0
0
0
0
0
0
0
0
0
0
0
0
0
0
0
0
0
0
0
0
0
0
0
0
0
0
0
0
0
0
0
0
0
0
0
0
0
0
0
0
0
0
0
0
0
0
0
0
0
0
0
0
0
0
0
0
0
0
0
0
0
0
0
0
0
0
0
0
0
0
0
0
0
0
0
0
0
0
0
0
0
0
0
0
0
0
0
0
0
0
0
0
0
0
0
0
0
0
0
0
0
0
0
0
0
0
0
0
0
0
0
0
0
0
0
0
0
0
0
0
0
0
0
0
0
0
0
0
0
0
0
0
0
0
0
0
0
0
0
0
0
0
0
0
0
0
0
0
0
0
0
0
0
0
0
0
0
0
0
0
0
0
0
0
0
0
0
0
0
0
0
0
0
0
0
0
0
0
0
0
0
0
0
0
0
0
0
0
0
0
0
0
0
0
0
0
0
0
0
0
0
0
0
0
0
0
0
0
0
0
0
0
0
0
0
0
0
0
0
0
0
0
0
0
0
0
0
0
0
0
0
0
0
0
0
0
0
0
0
0
0
0
0
0
0
0
0
0
0
0
0
0
0
0
0
0
0
0
0
0
0
0
0
SCALARS rr_P' float
LOOKUP_TABLE default
0
0
0
0
0
0
0
0
0
0
0
0
0
0
0
0
0
0
0
0
0
0
0
0
0
0
0
0
0
0
0
0
0
0
0
0
0
0
0
0
0
0
0
0
0
0
0
0
0
0
0
0
0
0
0
0
0
0
0
0
0
0
0
0
0
0
0
0
0
0
0
0
0
0
0
0
0
0
0
0
0
0
0
0
0
0
0
0
0
0
0
0
0
0
0
0
0
0
0
0
0
0
0
0
0
0
0
0
0
0
0
0
0
0
0
0
0
0
0
0
0
0
0
0
0
0
0
0
0
0
0
0
0
0
0
0
0
0
0
0
0
0
0
0
0
0
0
0
0
0
0
0
0
0
0
0
0
0
0
0
0
0
0
0
0
0
0
0
0
0
0
0
0
0
0
0
0
0
0
0
0
0
0
0
0
0
0
0
0
0
0
0
0
0
0
0
0
0
0
0
0
0
0
0
0
0
0
0
0
0
0
0
0
0
0
0
0
0
0
0
0
0
0
0
0
0
0
0
0
0
0
0
0
0
0
0
0
0
0
0
0
0
0
0
0
0
0
0
0
0
0
0
0
0
0
0
0
0
0
0
0
0
0
0
0
0
0
0
0
0
0
0
0
0
0
0
0
0
0
0
0
0
0
0
0
0
0
0
0
0
0
0
0
0
0
0
0
0
0
0
0
0
0
0
0
0
0
0
0
0
0
0
0
0
0
0
0
0
0
0
0
0
0
0
0
0
0
0
0
0
0
0
0
0
0
0
0
0
0
0
0
0
0
0
0
0
0
0
0
0
0
0
0
0
0
0
0
0
0
0
0
0
0
0
0
0
0
0
0
0
0
0
0
0
0
0
0
0
0
0
0
0
0
0
0
0
0
0
0
0
0
0
0
0
0
0
0
0
0
0
0
0
0
0
0
0
0
0
0
0
0
0
0
0
0
0
0
0
0
0
0
0
0
0
0
0
0
0
0
0
0
0
0
0
0
0
0
0
0
0
0
0
0
0
0
0
0
0
0
0
0
0
0
0
0
0
0
0
0
0
0
0
0
0
0
0
0
0
0
0
0
0
0
0
0
0
0
0
0
0
0
0
0
0
0
0
0
0
0
0
0
0
0
0
0
0
0
0
0
0
0
0
0
0
0
0
0
0
0
0
0
0
0
0
0
0
0
0
0
0
0
0
0
0
0
0
0
0
0
0
0
0
0
0
0
0
0
0
0
0
0
0
0
0
0
0
0
0
0
0
0
0
0
0
0
0
0
0
0
0
0
0
0
SCALARS rr_T' float
LOOKUP_TABLE default
0
0
0
0
0
0
0
0
0
0
0
0
0
0
0
0
0
0
0
0
0
0
0
0
0
0
0
0
0
0
0
0
0
0
0
0
0
0
0
0
0
0
0
0
0
0
0
0
0
0
0
0
0
0
0
0
0
0
0
0
0
0
0
0
0
0
0
0
0
0
0
0
0
0
0
0
0
0
0
0
0
0
0
0
0
0
0
0
0
0
0
0
0
0
0
0
0
0
0
0
0
0
0
0
0
0
0
0
0
0
0
0
0
0
0
0
0
0
0
0
0
0
0
0
0
0
0
0
0
0
0
0
0
0
0
0
0
0
0
0
0
0
0
0
0
0
0
0
0
0
0
0
0
0
0
0
0
0
0
0
0
0
0
0
0
0
0
0
0
0
0
0
0
0
0
0
0
0
0
0
0
0
0
0
0
0
0
0
0
0
0
0
0
0
0
0
0
0
0
0
0
0
0
0
0
0
0
0
0
0
0
0
0
0
0
0
0
0
0
0
0
0
0
0
0
0
0
0
0
0
0
0
0
0
0
0
0
0
0
0
0
0
0
0
0
0
0
0
0
0
0
0
0
0
0
0
0
0
0
0
0
0
0
0
0
0
0
0
0
0
0
0
0
0
0
0
0
0
0
0
0
0
0
0
0
0
0
0
0
0
0
0
0
0
0
0
0
0
0
0
0
0
0
0
0
0
0
0
0
0
0
0
0
0
0
0
0
0
0
0
0
0
0
0
0
0
0
0
0
0
0
0
0
0
0
0
0
0
0
0
0
0
0
0
0
0
0
0
0
0
0
0
0
0
0
0
0
0
0
0
0
0
0
0
0
0
0
0
0
0
0
0
0
0
0
0
0
0
0
0
0
0
0
0
0
0
0
0
0
0
0
0
0
0
0
0
0
0
0
0
0
0
0
0
0
0
0
0
0
0
0
0
0
0
0
0
0
0
0
0
0
0
0
0
0
0
0
0
0
0
0
0
0
0
0
0
0
0
0
0
0
0
0
0
0
0
0
0
0
0
0
0
0
0
0
0
0
0
0
0
0
0
0
0
0
0
0
0
0
0
0
0
0
0
0
0
0
0
0
0
0
0
0
0
0
0
0
0
0
0
0
0
0
0
0
0
0
0
0
0
0
0
0
0
0
0
0
0
0
0
0
0
0
0
0
0
0
0
0
0
0
0
0
0
0
0
0
0
0
0
0
0
0
0
0
0
0
0
0
0
0
0
0
0
0
0
0
0
0
0
0
0
0
0
0
0
0
0
0
0
0
0
0
SCALARS rr_uec(SIM,_S_ext) float
LOOKUP_TABLE default
0
0
0
0
0
0
0
0
0
0
0
0
0
0
0
0
0
0
0
0
0
0
0
0
0
0
0
0
0
0
0
0
0
0
0
0
0
0
0
0
0
0
0
0
0
0
0
0
0
0
0
0
0
0
0
0
0
0
0
0
0
0
0
0
0
0
0
0
0
0
0
0
0
0
0
0
0
0
0
0
0
0
0
0
0
0
0
0
0
0
0
0
0
0
0
0
0
0
0
0
0
0
0
0
0
0
0
0
0
0
0
0
0
0
0
0
0
0
0
0
0
0
0
0
0
0
0
0
0
0
0
0
0
0
0
0
0
0
0
0
0
0
0
0
0
0
0
0
0
0
0
0
0
0
0
0
0
0
0
0
0
0
0
0
0
0
0
0
0
0
0
0
0
0
0
0
0
0
0
0
0
0
0
0
0
0
0
0
0
0
0
0
0
0
0
0
0
0
0
0
0
0
0
0
0
0
0
0
0
0
0
0
0
0
0
0
0
0
0
0
0
0
0
0
0
0
0
0
0
0
0
0
0
0
0
0
0
0
0
0
0
0
0
0
0
0
0
0
0
0
0
0
0
0
0
0
0
0
0
0
0
0
0
0
0
0
0
0
0
0
0
0
0
0
0
0
0
0
0
0
0
0
0
0
0
0
0
0
0
0
0
0
0
0
0
0
0
0
0
0
0
0
0
0
0
0
0
0
0
0
0
0
0
0
0
0
0
0
0
0
0
0
0
0
0
0
0
0
0
0
0
0
0
0
0
0
0
0
0
0
0
0
0
0
0
0
0
0
0
0
0
0
0
0
0
0
0
0
0
0
0
0
0
0
0
0
0
0
0
0
0
0
0
0
0
0
0
0
0
0
0
0
0
0
0
0
0
0
0
0
0
0
0
0
0
0
0
0
0
0
0
0
0
0
0
0
0
0
0
0
0
0
0
0
0
0
0
0
0
0
0
0
0
0
0
0
0
0
0
0
0
0
0
0
0
0
0
0
0
0
0
0
0
0
0
0
0
0
0
0
0
0
0
0
0
0
0
0
0
0
0
0
0
0
0
0
0
0
0
0
0
0
0
0
0
0
0
0
0
0
0
0
0
0
0
0
0
0
0
0
0
0
0
0
0
0
0
0
0
0
0
0
0
0
0
0
0
0
0
0
0
0
0
0
0
0
0
0
0
0
0
0
0
0
0
0
0
0
0
0
0
0
0
0
0
0
0
0
0
0
0
0
0
0
0
0
0
0
0
0
0
0
0
0
0
0
0
0
0
0
0
0
0
SCALARS rr_uec(PEX,_P_ext) float
LOOKUP_TABLE default
0
0
0
0
0
0
0
0
0
0
0
0
0
0
0
0
0
0
0
0
0
0
0
0
0
0
0
0
0
0
0
0
0
0
0
0
0
0
0
0
0
0
0
0
0
0
0
0
0
0
0
0
0
0
0
0
0
0
0
0
0
0
0
0
0
0
0
0
0
0
0
0
0
0
0
0
0
0
0
0
0
0
0
0
0
0
0
0
0
0
0
0
0
0
0
0
0
0
0
0
0
0
0
0
0
0
0
0
0
0
0
0
0
0
0
0
0
0
0
0
0
0
0
0
0
0
0
0
0
0
0
0
0
0
0
0
0
0
0
0
0
0
0
0
0
0
0
0
0
0
0
0
0
0
0
0
0
0
0
0
0
0
0
0
0
0
0
0
0
0
0
0
0
0
0
0
0
0
0
0
0
0
0
0
0
0
0
0
0
0
0
0
0
0
0
0
0
0
0
0
0
0
0
0
0
0
0
0
0
0
0
0
0
0
0
0
0
0
0
0
0
0
0
0
0
0
0
0
0
0
0
0
0
0
0
0
0
0
0
0
0
0
0
0
0
0
0
0
0
0
0
0
0
0
0
0
0
0
0
0
0
0
0
0
0
0
0
0
0
0
0
0
0
0
0
0
0
0
0
0
0
0
0
0
0
0
0
0
0
0
0
0
0
0
0
0
0
0
0
0
0
0
0
0
0
0
0
0
0
0
0
0
0
0
0
0
0
0
0
0
0
0
0
0
0
0
0
0
0
0
0
0
0
0
0
0
0
0
0
0
0
0
0
0
0
0
0
0
0
0
0
0
0
0
0
0
0
0
0
0
0
0
0
0
0
0
0
0
0
0
0
0
0
0
0
0
0
0
0
0
0
0
0
0
0
0
0
0
0
0
0
0
0
0
0
0
0
0
0
0
0
0
0
0
0
0
0
0
0
0
0
0
0
0
0
0
0
0
0
0
0
0
0
0
0
0
0
0
0
0
0
0
0
0
0
0
0
0
0
0
0
0
0
0
0
0
0
0
0
0
0
0
0
0
0
0
0
0
0
0
0
0
0
0
0
0
0
0
0
0
0
0
0
0
0
0
0
0
0
0
0
0
0
0
0
0
0
0
0
0
0
0
0
0
0
0
0
0
0
0
0
0
0
0
0
0
0
0
0
0
0
0
0
0
0
0
0
0
0
0
0
0
0
0
0
0
0
0
0
0
0
0
0
0
0
0
0
0
0
0
0
0
0
0
0
0
0
0
0
0
0
0
0
0
0
0
0
0
0
0
0
0
0
SCALARS cell_type float
LOOKUP_TABLE default
0
0
0
0
0
0
0
0
0
0
0
0
0
0
0
0
0
0
0
0
0
1
0
0
0
0
0
0
0
0
0
0
0
0
0
0
0
0
0
0
0
0
0
0
0
0
0
0
0
0
0
0
0
0
0
0
0
0
0
0
0
0
0
0
0
0
0
0
0
0
0
0
0
0
0
0
0
0
0
0
0
0
0
0
0
0
0
0
0
0
0
0
0
0
0
0
0
0
0
0
0
0
0
0
0
0
0
0
0
0
0
0
0
0
0
0
0
0
0
0
0
0
0
0
0
0
0
0
0
0
0
0
0
0
0
0
0
0
0
0
0
0
0
0
0
0
0
0
0
0
0
0
0
0
0
0
0
0
0
0
0
0
0
0
0
0
0
0
0
0
0
0
0
0
0
0
0
0
0
0
0
0
0
0
0
0
0
0
0
0
0
0
0
0
0
0
0
0
0
0
0
0
0
0
0
0
0
0
0
0
0
0
0
0
0
0
0
0
0
0
0
0
0
0
0
0
0
0
0
0
0
0
0
0
0
0
0
0
0
0
0
0
0
0
0
0
0
0
0
0
0
0
0
0
0
0
0
0
0
0
0
0
0
0
0
0
0
0
0
0
0
0
0
0
0
0
0
0
0
0
0
0
0
0
0
0
0
0
0
0
0
0
0
0
0
0
0
0
0
0
0
0
0
0
0
0
0
0
0
0
0
0
0
0
0
0
0
0
0
0
0
0
0
0
0
0
0
0
0
0
0
0
0
0
0
0
0
0
0
0
0
0
0
0
0
0
0
0
0
0
2
2
2
2
2
2
2
0
0
0
0
0
0
0
0
0
0
0
0
0
0
0
0
0
0
0
0
0
0
0
0
0
0
0
0
0
0
0
0
0
0
0
0
0
0
0
0
0
0
0
0
0
0
0
0
0
0
0
0
0
0
0
0
0
0
0
1
1
0
0
0
0
0
0
0
0
0
0
0
0
0
0
0
0
0
0
0
0
0
0
0
0
0
0
0
0
0
0
0
0
0
0
0
0
0
0
0
0
0
0
0
1
1
0
0
0
0
0
0
0
0
0
0
0
0
0
0
0
0
0
0
0
0
0
0
0
0
0
0
0
0
0
0
0
0
0
0
0
0
0
0
0
0
0
0
0
0
0
0
0
0
0
0
0
0
0
0
0
0
0
0
0
0
0
0
0
0
0
1
1
0
0
0
0
0
0
0
0
0
0
0
0
0
0
0
0
0
0
0
0
0
0
0
0
0
0
0
0
0
0
0
0
0
TENSORS Lagrange_strain float
0.0305673 -0.0031982 -7.31723e-08
-0.0031982 0.0133887 -1.40346e-07
-7.31723e-08 -1.40346e-07 0.00740155

0.0291917 -0.00280057 5.15165e-08
-0.00280057 0.0335528 1.73793e-08
5.15165e-08 1.73793e-08 0.0331624

0.0300203 0.00367881 -3.99858e-08
0.00367881 0.0311683 3.68561e-08
-3.99858e-08 3.68561e-08 0.0304668

0.0291608 -0.00392504 -2.31751e-07
-0.00392504 0.0327976 -7.81821e-08
-2.31751e-07 -7.81821e-08 0.0330873

0.0353665 0.00266898 -4.39948e-08
0.00266898 0.0380855 9.03966e-08
-4.39948e-08 9.03966e-08 0.0352914

0.0277342 -0.00236707 1.71895e-07
-0.00236707 0.0333831 1.37998e-07
1.71895e-07 1.37998e-07 0.0304379

0.0302612 0.00339402 -7.44802e-08
0.00339402 0.0134943 -8.41923e-08
-7.44802e-08 -8.41923e-08 0.00746299

0.0317533 0.00393951 -1.63006e-07
0.00393951 0.0311988 9.69208e-09
-1.63006e-07 9.69208e-09 0.0315596

0.0332405 0.000715628 6.56453e-08
0.000715628 0.0262205 -3.29444e-09
6.56453e-08 -3.29444e-09 0.0281411

0.0354664 -0.00099126 2.19654e-07
-0.00099126 0.0275502 -3.33068e-08
2.19654e-07 -3.33068e-08 0.03272

0.0280605 0.00205106 1.1353e-07
0.00205106 0.0138086 -1.76104e-07
1.1353e-07 -1.76104e-07 0.0117531

0.0279522 -0.0017657 1.14288e-07
-0.0017657 0.0350053 -4.51827e-08
1.14288e-07 -4.51827e-08 0.0315482

0.0311202 0.0036571 -1.16768e-07
0.0036571 0.0312995 -1.66369e-08
-1.16768e-07 -1.66369e-08 0.0310785

0.0290683 -0.00188003 1.47592e-07
-0.00188003 0.0347983 9.14037e-08
1.47592e-07 9.14037e-08 0.0325454

0.034631 0.00441855 2.74408e-08
0.00441855 0.0343614 -2.44377e-08
2.74408e-08 -2.44377e-08 0.0348838

0.0343264 7.30388e-05 5.2658e-08
7.30388e-05 0.027285 2.06542e-07
5.2658e-08 2.06542e-07 0.0307774

0.028692 -0.0023538 1.41609e-07
-0.0023538 0.0360125 7.03883e-08
1.41609e-07 7.03883e-08 0.0334491

0.0345719 -0.00035301 -1.44966e-08
-0.00035301 0.0273554 2.60013e-07
-1.44966e-08 2.60013e-07 0.0319761

0.026919 0.00347809 4.94317e-08
0.00347809 0.0309437 -1.09769e-07
4.94317e-08 -1.09769e-07 0.0275756

0.0338834 -0.000550323 -2.12337e-07
-0.000550323 0.0264084 -1.76354e-07
-2.12337e-07 -1.76354e-07 0.0301332

0.0266212 0.0011352 -1.5312e-07
0.0011352 0.0340324 1.07616e-07
-1.5312e-07 1.07616e-07 0.029149

0.0452948 0.000850881 1.5501e-07
0.000850881 0.0452638 4.67837e-08
1.5501e-07 4.67837e-08 0.0366374

0.0336741 0.000247699 6.25582e-08
0.000247699 0.0263144 -2.96298e-09
6.25582e-08 -2.96298e-09 0.0298042

0.0293088 -0.0036319 -2.56139e-09
-0.0036319 0.0311346 5.0274e-09
-2.56139e-09 5.0274e-09 0.0300457

0.0337785 0.000900038 1.23131e-07
0.000900038 0.0264954 3.54404e-08
1.23131e-07 3.54404e-08 0.0300802

0.0285452 0.00250749 7.9816e-08
0.00250749 0.033893 5.59729e-08
7.9816e-08 5.59729e-08 0.032286

0.0286288 0.00052663 6.17669e-08
0.00052663 0.0176893 -6.85103e-08
6.17669e-08 -6.85103e-08 0.0131709

0.0309132 0.00403448 -1.77292e-07
0.00403448 0.0306453 1.18333e-07
-1.77292e-07 1.18333e-07 0.0306097

0.0259237 0.00477616 1.94954e-08
0.00477616 0.0257321 1.14588e-07
1.94954e-08 1.14588e-07 0.0211273

0.0415287 0.00136978 5.10277e-08
0.00136978 0.0383502 6.67652e-08
5.10277e-08 6.67652e-08 0.0361344

0.0344093 0.00187092 -2.08327e-08
0.00187092 0.0279514 -2.21895e-07
-2.08327e-08 -2.21895e-07 0.030999

0.021759 -0.00228769 3.23222e-08
-0.00228769 0.0299912 8.77672e-08
3.23222e-08 8.77672e-08 0.0211242

0.0228626 -0.0053522 -6.71134e-08
-0.0053522 0.0234723 6.63212e-08
-6.71134e-08 6.63212e-08 0.0125785

0.034832 0.000800933 9.00399e-08
0.000800933 0.0422549 2.31951e-07
9.00399e-08 2.31951e-07 0.0357855

0.0374528 -0.000661736 -1.56399e-07
-0.000661736 0.0412026 -9.94746e-08
-1.56399e-07 -9.94746e-08 0.0359001

0.0410745 0.00281344 1.59789e-07
0.00281344 0.0359853 -1.00922e-07
1.59789e-07 -1.00922e-07 0.0357657

0.0372532 0.000705438 -5.93819e-09
0.000705438 0.0432156 -6.17648e-08
-5.93819e-09 -6.17648e-08 0.0361408

0.0402608 -0.00121827 -1.11646e-07
-0.00121827 0.0378296 4.4922e-08
-1.11646e-07 4.4922e-08 0.0358073

0.0312145 -0.00367761 1.91187e-07
-0.00367761 0.0311221 1.67515e-08
1.91187e-07 1.67515e-08 0.0309245

0.0227467 0.00527883 1.82295e-07
0.00527883 0.0237082 -1.65427e-07
1.82295e-07 -1.65427e-07 0.0125806

0.0297599 -0.00231566 2.06044e-07
-0.00231566 0.0220303 -2.8763e-07
2.06044e-07 -2.8763e-07 0.0208741

0.0376187 -0.00052274 -1.95135e-07
-0.00052274 0.0430638 -2.44309e-07
-1.95135e-07 -2.44309e-07 0.0361435

0.0412407 0.00263429 -2.08312e-07
0.00263429 0.0394146 1.65712e-07
-2.08312e-07 1.65712e-07 0.036126

0.0342999 -0.00161717 -2.29355e-07
-0.00161717 0.0279935 -1.05466e-07
-2.29355e-07 -1.05466e-07 0.031083

0.0231048 -0.00552554 8.17461e-08
-0.00552554 0.023562 -9.63338e-08
8.17461e-08 -9.63338e-08 0.0162154

0.0299422 -0.00233211 6.51472e-08
-0.00233211 0.0221545 1.4735e-07
6.51472e-08 1.4735e-07 0.0213434

0.0258927 0.00222735 -2.66168e-08
0.00222735 0.0326531 -1.57116e-07
-2.66168e-08 -1.57116e-07 0.0279143

0.0275498 0.00252868 -1.0093e-07
0.00252868 0.0323726 1.15072e-07
-1.0093e-07 1.15072e-07 0.0284898

0.0341743 -0.00214071 -1.18339e-08
-0.00214071 0.0271063 1.0268e-07
-1.18339e-08 1.0268e-07 0.0304711

0.0229018 -0.00439211 -3.89922e-08
-0.00439211 0.027248 -4.17429e-08
-3.89922e-08 -4.17429e-08 0.0198496

0.0294929 0.00247134 -2.30367e-07
0.00247134 0.0218335 1.49382e-07
-2.30367e-07 1.49382e-07 0.0202802

0.0298711 -0.00327064 -1.37104e-07
-0.00327064 0.0245126 1.98482e-07
-1.37104e-07 1.98482e-07 0.0230474

0.034477 0.00257801 -1.82497e-07
0.00257801 0.0382028 -5.98763e-08
-1.82497e-07 -5.98763e-08 0.0352701

0.0286884 0.00383832 -1.80164e-07
0.00383832 0.0257787 1.19963e-07
-1.80164e-07 1.19963e-07 0.0231159

0.0349275 -0.00291558 -5.22421e-08
-0.00291558 0.0374319 5.40801e-08
-5.22421e-08 5.40801e-08 0.0351884

0.0255794 -0.00545515 -3.39779e-07
-0.00545515 0.0229016 4.94547e-08
-3.39779e-07 4.94547e-08 0.015819

0.0373463 0.000746108 -8.61994e-08
0.000746108 0.0414128 1.12105e-07
-8.61994e-08 1.12105e-07 0.0359205

0.0231668 -0.000693069 -2.28706e-08
-0.000693069 0.0313123 -7.08523e-09
-2.28706e-08 -7.08523e-09 0.0231019

0.0410292 0.0013801 7.80813e-08
0.0013801 0.0377063 -8.65345e-08
7.80813e-08 -8.65345e-08 0.0358987

0.0276747 0.00280504 -1.39988e-07
0.00280504 0.0327483 -2.4105e-08
-1.39988e-07 -2.4105e-08 0.0302301

0.0361383 0.000784761 5.04862e-09
0.000784761 0.0281305 -6.71405e-08
5.04862e-09 -6.71405e-08 0.0336722

0.0362536 0.00153416 2.55995e-09
0.00153416 0.0316925 -9.17654e-08
2.55995e-09 -9.17654e-08 0.0342199

0.0286364 0.0040569 2.22762e-07
0.0040569 0.0198969 3.39356e-07
2.22762e-07 3.39356e-07 0.0137587

0.0309718 -0.00078368 -1.82358e-07
-0.00078368 0.0370841 -1.31489e-07
-1.82358e-07 -1.31489e-07 0.0338807

0.0315543 0.00124343 2.41909e-07
0.00124343 0.0364204 -1.92213e-07
2.41909e-07 -1.92213e-07 0.0342587

0.0285481 -0.000375277 -6.72337e-08
-0.000375277 0.0369552 2.90348e-08
-6.72337e-08 2.90348e-08 0.0326698

0.029602 0.00307153 -1.44232e-07
0.00307153 0.0347902 9.0436e-08
-1.44232e-07 9.0436e-08 0.033708

0.0347181 0.00112181 1.37762e-07
0.00112181 0.0278377 -2.10296e-07
1.37762e-07 -2.10296e-07 0.0322076

0.0291865 -0.0036989 -2.42782e-08
-0.0036989 0.0310201 -4.28316e-08
-2.42782e-08 -4.28316e-08 0.0299086

0.0350535 -0.00023707 -8.17447e-08
-0.00023707 0.027579 -3.90659e-08
-8.17447e-08 -3.90659e-08 0.0333923

0.0344517 -0.00254824 -1.42264e-07
-0.00254824 0.0381332 2.55657e-08
-1.42264e-07 2.55657e-08 0.0352601

0.0350102 0.00284944 -2.21308e-07
0.00284944 0.0375695 -7.08774e-08
-2.21308e-07 -7.08774e-08 0.03524

0.021888 -0.00213167 -7.6453e-08
-0.00213167 0.029921 -9.94525e-08
-7.6453e-08 -9.94525e-08 0.0208506

0.0347001 -0.00369087 1.58015e-07
-0.00369087 0.0319572 2.19794e-10
1.58015e-07 2.19794e-10 0.0330781

0.0292912 -0.0032972 -1.37111e-08
-0.0032972 0.0321117 -2.41891e-08
-1.37111e-08 -2.41891e-08 0.0304324

0.0267789 -0.00401675 -1.83349e-07
-0.00401675 0.0176048 -4.65735e-08
-1.83349e-07 -4.65735e-08 0.0127255

0.0324034 0.000418892 -3.83273e-08
0.000418892 0.0381044 1.19889e-08
-3.83273e-08 1.19889e-08 0.0344051

0.0345364 0.00381724 1.91568e-07
0.00381724 0.0309406 -6.11085e-08
1.91568e-07 -6.11085e-08 0.0326594

0.0283756 0.00258135 -1.76464e-07
0.00258135 0.0341285 -5.85816e-08
-1.76464e-07 -5.85816e-08 0.0322128

0.0315408 0.00103768 7.2735e-08
0.00103768 0.0228432 -1.75978e-07
7.2735e-08 -1.75978e-07 0.0240684

0.0270965 -0.00435838 2.17788e-07
-0.00435838 0.0237362 -8.46002e-08
2.17788e-07 -8.46002e-08 0.0183229

0.0362596 -0.00140307 8.10873e-08
-0.00140307 0.0387416 1.23881e-07
8.10873e-08 1.23881e-07 0.0354004

0.0315548 0.00317079 3.36348e-08
0.00317079 0.0344004 -2.45149e-08
3.36348e-08 -2.45149e-08 0.0340894

0.0273003 -0.00415589 -3.48662e-08
-0.00415589 0.0221743 -2.42083e-08
-3.48662e-08 -2.42083e-08 0.0184108

0.0303571 0.00139095 -6.00214e-08
0.00139095 0.0228298 -1.72846e-07
-6.00214e-08 -1.72846e-07 0.0209538

0.0186015 -0.0026969 1.64684e-07
-0.0026969 0.0289276 -3.36668e-08
1.64684e-07 -3.36668e-08 0.0158925

0.0271991 0.00188892 -2.19479e-07
0.00188892 0.034319 -5.10856e-08
-2.19479e-07 -5.10856e-08 0.0306537

0.0353809 0.00305686 -3.82785e-08
0.00305686 0.0308191 -2.02281e-07
-3.82785e-08 -2.02281e-07 0.0327529

0.0226473 0.00538567 2.01064e-07
0.00538567 0.0240878 -1.45067e-07
2.01064e-07 -1.45067e-07 0.016198

0.0459481 0.0022379 6.47846e-07
0.0022379 0.0417503 2.38396e-07
6.47846e-07 2.38396e-07 0.0366383

0.0230806 -0.000534266 1.09207e-08
-0.000534266 0.031353 8.50058e-08
1.09207e-08 8.50058e-08 0.0230717

0.0463635 -0.00225609 -6.26197e-07
-0.00225609 0.0412944 -5.77302e-08
-6.26197e-07 -5.77302e-08 0.0365935

0.0370649 -0.00362438 -3.47068e-08
-0.00362438 0.0334903 2.37724e-08
-3.47068e-08 2.37724e-08 0.03462

0.0351365 0.00361916 -6.74986e-08
0.00361916 0.0300034 -9.41032e-08
-6.74986e-08 -9.41032e-08 0.0324556

0.0299611 -0.00315877 1.63032e-07
-0.00315877 0.0246897 -5.00634e-09
1.63032e-07 -5.00634e-09 0.0232852

0.0230117 0.00402974 -1.61759e-07
0.00402974 0.0277782 -7.21272e-08
-1.61759e-07 -7.21272e-08 0.0203814

0.0210933 -0.00137839 1.02441e-08
-0.00137839 0.029894 1.46393e-07
1.02441e-08 1.46393e-07 0.0182509

0.0287448 0.00288882 1.22863e-07
0.00288882 0.0342263 -5.28032e-09
1.22863e-07 -5.28032e-09 0.0326987

0.0370108 0.00223599 -4.25905e-08
0.00223599 0.0334515 5.49328e-08
-4.25905e-08 5.49328e-08 0.0343834

0.0281474 0.00198804 -1.63729e-07
0.00198804 0.0340588 5.80306e-09
-1.63729e-07 5.80306e-09 0.0308645

0.0318814 0.00207283 2.26073e-07
0.00207283 0.0252534 6.42094e-08
2.26073e-07 6.42094e-08 0.0256166

0.0239068 -0.00277419 -6.88989e-08
-0.00277419 0.0297637 -9.87211e-08
-6.88989e-08 -9.87211e-08 0.0215608

0.0278978 -0.00376344 1.33197e-07
-0.00376344 0.0218145 -2.92528e-07
1.33197e-07 -2.92528e-07 0.0180753

0.0293303 -0.003232 -2.105e-07
-0.003232 0.0326285 9.696e-08
-2.105e-07 9.696e-08 0.0324018

0.0306253 0.00361463 -1.33888e-07
0.00361463 0.0322278 -4.14109e-08
-1.33888e-07 -4.14109e-08 0.0323697

0.0287069 0.00304801 -3.5257e-08
0.00304801 0.0340262 4.15392e-08
-3.5257e-08 4.15392e-08 0.0326292

0.0292059 0.00172522 2.94288e-07
0.00172522 0.0376171 -1.6393e-07
2.94288e-07 -1.6393e-07 0.0338452

0.0344758 0.00123243 -1.15464e-07
0.00123243 0.0275228 -2.28549e-07
-1.15464e-07 -2.28549e-07 0.0306738

0.0199601 -0.000605238 6.79913e-08
-0.000605238 0.0296595 -3.14492e-07
6.79913e-08 -3.14492e-07 0.0181033

0.0297959 -0.00486306 1.17985e-07
-0.00486306 0.0330477 4.12585e-09
1.17985e-07 4.12585e-09 0.0337406

0.0290803 0.00359995 2.31478e-07
0.00359995 0.0313588 -6.70322e-08
2.31478e-07 -6.70322e-08 0.030263

0.018105 0.000282828 -5.00255e-08
0.000282828 0.0293095 1.59399e-07
-5.00255e-08 1.59399e-07 0.0168779

0.0278422 0.00442343 -6.98833e-08
0.00442343 0.0209675 1.09367e-07
-6.98833e-08 1.09367e-07 0.0174541

0.0291901 -0.00302015 -3.69855e-08
-0.00302015 0.0327019 -1.23467e-07
-3.69855e-08 -1.23467e-07 0.0321843

0.035241 0.000759537 -2.18587e-08
0.000759537 0.0273375 9.16305e-08
-2.18587e-08 9.16305e-08 0.0325516

0.0294261 0.00351999 3.35894e-08
0.00351999 0.0252002 -1.82846e-07
3.35894e-08 -1.82846e-07 0.0231103

0.0396358 0.00171021 5.60014e-08
0.00171021 0.0390387 -2.43295e-07
5.60014e-08 -2.43295e-07 0.0359391

0.0283739 0.00312308 1.82564e-07
0.00312308 0.0224007 -6.16244e-08
1.82564e-07 -6.16244e-08 0.0182857

0.0394884 -0.00175068 4.73551e-08
-0.00175068 0.0390646 5.11228e-08
4.73551e-08 5.11228e-08 0.0359043

0.0232602 0.000103512 1.35911e-07
0.000103512 0.0315167 1.34422e-08
1.35911e-07 1.34422e-08 0.0231187

0.0327571 -0.000288291 1.75671e-07
-0.000288291 0.0246591 1.10782e-07
1.75671e-07 1.10782e-07 0.0269652

0.0380534 -0.00212922 -5.91535e-08
-0.00212922 0.0304627 7.91548e-08
-5.91535e-08 7.91548e-08 0.0347922

0.0292371 0.00320566 1.68147e-07
0.00320566 0.0332765 9.30267e-08
1.68147e-07 9.30267e-08 0.0333417

0.0289493 -0.0017726 3.48708e-08
-0.0017726 0.0366078 5.55712e-09
3.48708e-08 5.55712e-09 0.0334985

0.0365819 -0.00108477 -1.02101e-07
-0.00108477 0.026475 -7.18961e-09
-1.02101e-07 -7.18961e-09 0.0338589

0.0311793 -0.00292577 -1.90246e-07
-0.00292577 0.0383049 2.56278e-08
-1.90246e-07 2.56278e-08 0.0348426

0.0381645 -0.00088454 2.97169e-07
-0.00088454 0.0387305 -1.09516e-07
2.97169e-07 -1.09516e-07 0.0358343

0.0301784 -0.00393994 -9.47628e-08
-0.00393994 0.0327091 -1.23305e-07
-9.47628e-08 -1.23305e-07 0.0327621

0.0213319 0.00146945 -1.76494e-08
0.00146945 0.0296124 1.78147e-07
-1.76494e-08 1.78147e-07 0.0182949

0.0293866 -0.00364547 -1.15616e-07
-0.00364547 0.0253482 2.47919e-07
-1.15616e-07 2.47919e-07 0.023181

0.0328586 -0.0018172 9.18662e-08
-0.0018172 0.0397163 1.19251e-07
9.18662e-08 1.19251e-07 0.0352399

0.0350898 7.64866e-05 -6.89111e-09
7.64866e-05 0.0272208 9.29825e-08
-6.89111e-09 9.29825e-08 0.03325

0.0308171 -0.00282907 5.01209e-08
-0.00282907 0.0348902 -2.00118e-08
5.01209e-08 -2.00118e-08 0.0340829

0.0295329 0.00338864 8.61004e-08
0.00338864 0.0328704 -1.60473e-07
8.61004e-08 -1.60473e-07 0.0333248

0.0264592 -0.00406309 -1.18188e-07
-0.00406309 0.0272606 -4.35292e-08
-1.18188e-07 -4.35292e-08 0.0215835

0.0371717 -0.0009584 1.47693e-07
-0.0009584 0.0416093 2.41501e-07
1.47693e-07 2.41501e-07 0.0358855

0.0227101 -0.00423736 -1.02062e-07
-0.00423736 0.0272426 5.92862e-08
-1.02062e-07 5.92862e-08 0.0168767

0.0341818 -0.00252468 -1.17075e-08
-0.00252468 0.0286053 8.94762e-08
-1.17075e-08 8.94762e-08 0.0310432

0.0364245 0.000289876 -1.86681e-07
0.000289876 0.0294364 2.35998e-08
-1.86681e-07 2.35998e-08 0.0341926

0.0396399 0.00239651 1.51989e-08
0.00239651 0.0391125 7.46363e-08
1.51989e-08 7.46363e-08 0.0358664

0.0238553 0.00260921 -1.3627e-07
0.00260921 0.0301503 -1.1947e-07
-1.3627e-07 -1.1947e-07 0.0217978

0.0334297 0.00358121 -4.70004e-08
0.00358121 0.0307139 8.55428e-08
-4.70004e-08 8.55428e-08 0.031766

0.0316417 -0.00319409 7.11378e-08
-0.00319409 0.0265509 2.47745e-07
7.11378e-08 2.47745e-07 0.0269342

0.028928 -0.00234088 5.59676e-08
-0.00234088 0.0342333 5.15684e-08
5.59676e-08 5.15684e-08 0.0326047

0.0262432 0.00450126 -8.43975e-08
0.00450126 0.0245567 -1.46918e-08
-8.43975e-08 -1.46918e-08 0.0180803

0.0284216 -0.00286661 2.56426e-08
-0.00286661 0.0340313 3.56399e-08
2.56426e-08 3.56399e-08 0.0324477

0.0331478 0.00405882 5.28521e-08
0.00405882 0.0304634 -2.24239e-07
5.28521e-08 -2.24239e-07 0.0315411

0.0333336 -0.0033116 2.15853e-07
-0.0033116 0.0283558 4.44878e-08
2.15853e-07 4.44878e-08 0.0300447

0.0291596 -0.00329528 -5.00562e-08
-0.00329528 0.0319864 -4.38894e-08
-5.00562e-08 -4.38894e-08 0.0304361

0.0314539 -0.00242906 8.30043e-08
-0.00242906 0.0247178 2.29831e-07
8.30043e-08 2.29831e-07 0.0251552

0.0329543 -0.00246653 7.38929e-08
-0.00246653 0.0267084 2.48456e-07
7.38929e-08 2.48456e-07 0.0285954

0.0294899 -0.00334218 -1.50117e-07
-0.00334218 0.0329492 -1.72977e-08
-1.50117e-07 -1.72977e-08 0.0334062

0.0261328 0.00463352 4.66792e-08
0.00463352 0.0255401 -1.79885e-07
4.66792e-08 -1.79885e-07 0.0210915

0.0281488 0.00201641 5.95426e-08
0.00201641 0.0343344 -1.95069e-09
5.95426e-08 -1.95069e-09 0.0311083

0.0308852 0.00348111 -7.7823e-08
0.00348111 0.0322542 1.59094e-07
-7.7823e-08 1.59094e-07 0.032599

0.0291559 0.00334781 2.10216e-08
0.00334781 0.0331903 1.64684e-07
2.10216e-08 1.64684e-07 0.0332592

0.0289829 0.00152283 -2.82136e-07
0.00152283 0.0354695 2.92492e-08
-2.82136e-07 2.92492e-08 0.0326944

0.0310513 -0.00106172 1.82025e-08
-0.00106172 0.0231405 6.30677e-08
1.82025e-08 6.30677e-08 0.022077

0.0238829 0.00240555 -2.84885e-08
0.00240555 0.0304093 1.86938e-07
-2.84885e-08 1.86938e-07 0.022112

0.0292124 -0.00320391 -1.63663e-08
-0.00320391 0.0326348 -1.36006e-08
-1.63663e-08 -1.36006e-08 0.0316172

0.0289863 0.00335652 1.75277e-07
0.00335652 0.0309314 -1.29477e-07
1.75277e-07 -1.29477e-07 0.0285669

0.0266117 -0.00459089 -3.38723e-08
-0.00459089 0.0252295 2.53167e-07
-3.38723e-08 2.53167e-07 0.0212558

0.0262767 0.00489312 -1.28172e-07
0.00489312 0.0209455 1.58344e-07
-1.28172e-07 1.58344e-07 0.0167617

0.0235019 -0.00428669 2.01007e-08
-0.00428669 0.0274632 -6.61322e-08
2.01007e-08 -6.61322e-08 0.0206256

0.0266709 -0.00402727 -1.79251e-07
-0.00402727 0.0274813 -7.61995e-08
-1.79251e-07 -7.61995e-08 0.0220491

0.0353635 -0.000906382 1.89433e-07
-0.000906382 0.0273893 -6.80048e-08
1.89433e-07 -6.80048e-08 0.0326539

0.0260442 0.00392126 1.00418e-07
0.00392126 0.0280913 -1.06144e-08
1.00418e-07 -1.06144e-08 0.0221016

0.0307866 0.00171644 2.19837e-08
0.00171644 0.0233595 -1.05769e-08
2.19837e-08 -1.05769e-08 0.0220247

0.0214302 0.00172206 -1.41583e-08
0.00172206 0.0302396 1.89431e-07
-1.41583e-08 1.89431e-07 0.0211319

0.0242619 -0.00288928 9.21099e-08
-0.00288928 0.0299507 8.97374e-08
9.21099e-08 8.97374e-08 0.0220854

0.0313452 -0.000131071 -8.46679e-08
-0.000131071 0.039273 -7.59181e-08
-8.46679e-08 -7.59181e-08 0.0346702

0.0230575 0.000294619 1.03619e-07
0.000294619 0.0314594 9.09478e-08
1.03619e-07 9.09478e-08 0.0230614

0.0227764 0.00400118 1.20399e-07
0.00400118 0.0281264 -8.94776e-09
1.20399e-07 -8.94776e-09 0.0206373

0.0288877 0.00158583 -9.56802e-08
0.00158583 0.0358316 3.07647e-07
-9.56802e-08 3.07647e-07 0.0328929

0.0293151 -0.00357996 1.8344e-07
-0.00357996 0.0251288 2.97613e-08
1.8344e-07 2.97613e-08 0.0232389

0.036976 0.00273317 -3.76269e-08
0.00273317 0.0297227 -6.43418e-08
-3.76269e-08 -6.43418e-08 0.0338011

0.0371757 0.00348327 -1.83261e-07
0.00348327 0.0334222 -6.09372e-09
-1.83261e-07 -6.09372e-09 0.0346516

0.0345433 -0.00244632 -1.80012e-08
-0.00244632 0.0285291 1.9171e-08
-1.80012e-08 1.9171e-08 0.0313783

0.0390559 -0.00026561 -1.42859e-07
-0.00026561 0.0339245 -8.04283e-08
-1.42859e-07 -8.04283e-08 0.0352078

0.0314785 -0.00418743 4.20535e-08
-0.00418743 0.0317811 1.39324e-07
4.20535e-08 1.39324e-07 0.0321557

0.029461 0.0030073 7.28815e-08
0.0030073 0.0223267 -8.10956e-08
7.28815e-08 -8.10956e-08 0.0210659

0.0302288 0.00397306 9.10314e-08
0.00397306 0.0326627 -1.51212e-07
9.10314e-08 -1.51212e-07 0.0327193

0.0302766 0.0038469 -1.23772e-07
0.0038469 0.0326062 -6.07416e-08
-1.23772e-07 -6.07416e-08 0.0326741

0.0262434 0.00396143 -1.09218e-08
0.00396143 0.027767 -6.59631e-08
-1.09218e-08 -6.59631e-08 0.0218642

0.0344498 0.00357644 8.43241e-08
0.00357644 0.0317793 8.82853e-08
8.43241e-08 8.82853e-08 0.0328309

0.0302474 0.000452407 4.10043e-08
0.000452407 0.0204278 2.94775e-08
4.10043e-08 2.94775e-08 0.0205726

0.0331857 0.00420068 1.33782e-07
0.00420068 0.0323724 1.79815e-07
1.33782e-07 1.79815e-07 0.0334833

0.0305005 -0.00165451 -4.81863e-08
-0.00165451 0.0366154 1.69734e-09
-4.81863e-08 1.69734e-09 0.0336623

0.03736 0.00323277 3.68197e-08
0.00323277 0.0334595 -1.0623e-07
3.68197e-08 -1.0623e-07 0.0346638

0.0307367 -0.00389588 -1.39292e-07
-0.00389588 0.0322724 1.12515e-07
-1.39292e-07 1.12515e-07 0.0326797

0.0293735 -0.000645003 -9.103e-08
-0.000645003 0.0369025 2.69871e-08
-9.103e-08 2.69871e-08 0.0328474

0.0288118 -0.00315213 9.25681e-08
-0.00315213 0.0221395 1.47238e-07
9.25681e-08 1.47238e-07 0.0187585

0.029002 0.00384435 -7.79442e-08
0.00384435 0.0255772 -1.77163e-07
-7.79442e-08 -1.77163e-07 0.0230723

0.0217008 0.00189083 2.08526e-07
0.00189083 0.0300605 -9.53392e-08
2.08526e-07 -9.53392e-08 0.0210833

0.0349892 -0.000161215 -1.59785e-07
-0.000161215 0.027389 -6.79718e-08
-1.59785e-07 -6.79718e-08 0.033301

0.034419 2.39479e-07 4.15486e-08
2.39479e-07 0.0272741 2.05989e-07
4.15486e-08 2.05989e-07 0.0320406

0.0291652 0.00303993 1.65557e-07
0.00303993 0.032679 -7.33687e-08
1.65557e-07 -7.33687e-08 0.0321321

0.0314493 0.00316614 -8.77807e-09
0.00316614 0.03425 -7.60071e-08
-8.77807e-09 -7.60071e-08 0.0340576

0.0291683 -0.00320413 -1.82625e-08
-0.00320413 0.0332379 1.82414e-07
-1.82625e-08 1.82414e-07 0.0333784

0.0287732 -8.55148e-05 -9.26094e-08
-8.55148e-05 0.0367045 -1.1436e-07
-9.26094e-08 -1.1436e-07 0.0325251

0.0294634 0.00337574 -3.34864e-09
0.00337574 0.0330738 1.24047e-07
-3.34864e-09 1.24047e-07 0.0333541

0.0328589 -0.00134645 1.15988e-07
-0.00134645 0.0253612 -1.05371e-07
1.15988e-07 -1.05371e-07 0.0278283

0.0263543 -0.00425425 -1.5579e-07
-0.00425425 0.0281789 1.79968e-08
-1.5579e-07 1.79968e-08 0.0242671

0.0362972 -0.00033156 -5.80329e-08
-0.00033156 0.0293826 7.7285e-08
-5.80329e-08 7.7285e-08 0.0340274

0.0267802 -0.00444545 -6.75402e-08
-0.00444545 0.0251899 3.81298e-08
-6.75402e-08 3.81298e-08 0.0209487

0.030899 0.00250723 -1.85475e-08
0.00250723 0.0350625 9.69393e-08
-1.85475e-08 9.69393e-08 0.0340672

0.0351124 -0.00349662 8.46653e-09
-0.00349662 0.0303878 -1.97874e-08
8.46653e-09 -1.97874e-08 0.0326143

0.0305013 -0.00124978 2.80767e-07
-0.00124978 0.022978 -1.14292e-07
2.80767e-07 -1.14292e-07 0.0214779

0.037148 -0.0030772 -1.87916e-07
-0.0030772 0.031653 6.31604e-08
-1.87916e-07 6.31604e-08 0.0339874

0.0349685 0.000322022 3.93249e-08
0.000322022 0.0275541 -3.42432e-08
3.93249e-08 -3.42432e-08 0.0334294

0.0358431 -0.00308815 -4.4025e-08
-0.00308815 0.0332574 -3.20864e-08
-4.4025e-08 -3.20864e-08 0.034143

0.0349278 -0.00341028 1.6445e-07
-0.00341028 0.0295944 -6.86835e-08
1.6445e-07 -6.86835e-08 0.0321775

0.0349083 -0.00113366 1.35337e-07
-0.00113366 0.0278495 -1.55629e-07
1.35337e-07 -1.55629e-07 0.0323409

0.0314892 -0.00306243 4.27037e-08
-0.00306243 0.0344478 7.45916e-08
4.27037e-08 7.45916e-08 0.034146

0.0292346 -0.00407082 1.51151e-07
-0.00407082 0.0268991 -1.38285e-07
1.51151e-07 -1.38285e-07 0.0253456

0.0349918 -0.0032435 1.75224e-07
-0.0032435 0.0299148 -2.62195e-08
1.75224e-07 -2.62195e-08 0.0321947

0.0314616 0.00140899 -5.39868e-08
0.00140899 0.0233266 -1.44518e-08
-5.39868e-08 -1.44518e-08 0.0244831

0.0336644 0.00348415 2.3299e-07
0.00348415 0.0334435 2.6221e-08
2.3299e-07 2.6221e-08 0.0336495

0.029892 -0.00496743 -7.48578e-09
-0.00496743 0.0330779 -2.29827e-08
-7.48578e-09 -2.29827e-08 0.0338566

0.0300423 0.00492038 -5.16702e-08
0.00492038 0.0329393 1.26189e-07
-5.16702e-08 1.26189e-07 0.0338236

0.0276873 -0.0037416 3.73561e-08
-0.0037416 0.0348062 -7.18869e-09
3.73561e-08 -7.18869e-09 0.0337661

0.0279249 0.00354697 7.00062e-08
0.00354697 0.0348343 9.96844e-08
7.00062e-08 9.96844e-08 0.033731

0.0364292 -0.00115382 -1.53651e-07
-0.00115382 0.0263412 -7.90782e-08
-1.53651e-07 -7.90782e-08 0.0337573

0.0361981 0.00124753 -4.31986e-08
0.00124753 0.0265625 7.18868e-09
-4.31986e-08 7.18868e-09 0.0337201

0.035034 -0.00130673 1.62312e-07
-0.00130673 0.0284675 -1.68496e-07
1.62312e-07 -1.68496e-07 0.0325753

0.0344362 0.00425898 -2.16458e-07
0.00425898 0.0342891 -7.98668e-08
-2.16458e-07 -7.98668e-08 0.034812

0.0343115 -0.00435684 -6.24653e-08
-0.00435684 0.0342806 3.62304e-08
-6.24653e-08 3.62304e-08 0.0348003

0.0305202 0.00209349 5.51841e-08
0.00209349 0.0381652 -4.83469e-08
5.51841e-08 -4.83469e-08 0.0348492

0.0306635 -0.00205953 7.0114e-08
-0.00205953 0.0380948 1.52905e-08
7.0114e-08 1.52905e-08 0.0348365

0.0395019 -0.000528781 3.33259e-08
-0.000528781 0.032849 8.62158e-08
3.33259e-08 8.62158e-08 0.0352574

0.0397044 0.000513303 1.15222e-07
0.000513303 0.0326215 -9.49275e-08
1.15222e-07 -9.49275e-08 0.0353027

0.0239646 0.00127587 2.12151e-08
0.00127587 0.0320025 -6.06906e-08
2.12151e-08 -6.06906e-08 0.0251838

0.0311616 -0.00326516 4.66852e-08
-0.00326516 0.0322401 1.11493e-07
4.66852e-08 1.11493e-07 0.0328013

0.0277792 -0.00478588 -3.92135e-08
-0.00478588 0.0333113 1.82908e-07
-3.92135e-08 1.82908e-07 0.0334547

0.0333584 -0.000610214 8.792e-08
-0.000610214 0.0264026 -1.55222e-07
8.792e-08 -1.55222e-07 0.0284477

0.0381871 -0.00225218 -5.52323e-08
-0.00225218 0.0307939 -6.47691e-08
-5.52323e-08 -6.47691e-08 0.0348923

0.0382356 0.00218392 -7.85325e-08
0.00218392 0.0309071 1.94313e-07
-7.85325e-08 1.94313e-07 0.0349244

0.0360832 1.56062e-05 -2.0408e-08
1.56062e-05 0.0251252 7.18699e-08
-2.0408e-08 7.18699e-08 0.0334698

0.0242406 0.00302886 -6.56655e-08
0.00302886 0.0303968 9.93316e-09
-6.56655e-08 9.93316e-09 0.0242765

0.0276734 0.00475639 -1.11444e-07
0.00475639 0.0333118 1.59117e-07
-1.11444e-07 1.59117e-07 0.0333925

0.0286741 -0.00307561 5.76935e-08
-0.00307561 0.0342602 5.15442e-08
5.76935e-08 5.15442e-08 0.0327518

0.0310851 0.00303567 1.74198e-07
0.00303567 0.0251461 -1.76042e-07
1.74198e-07 -1.76042e-07 0.0254667

0.0372272 0.00316556 -5.20894e-08
0.00316556 0.0315404 6.37409e-08
-5.20894e-08 6.37409e-08 0.0340753

0.0292263 -0.00406705 9.49153e-08
-0.00406705 0.0269351 1.7348e-07
9.49153e-08 1.7348e-07 0.0253209

0.0364006 -0.000453655 -9.68068e-08
-0.000453655 0.0296909 3.35803e-09
-9.68068e-08 3.35803e-09 0.0341305

0.0273436 -0.00449469 -1.71168e-07
-0.00449469 0.0333942 -9.88108e-08
-1.71168e-07 -9.88108e-08 0.0334413

0.0240374 0.00107887 5.97489e-08
0.00107887 0.0322434 -1.43655e-07
5.97489e-08 -1.43655e-07 0.0255054

0.0242291 0.00282642 -1.17029e-07
0.00282642 0.0307006 9.28581e-09
-1.17029e-07 9.28581e-09 0.0245444

0.0267916 0.00459415 6.74965e-08
0.00459415 0.0240413 -1.49022e-07
6.74965e-08 -1.49022e-07 0.0182132

0.0298503 0.000199824 7.6169e-08
0.000199824 0.020088 1.93247e-07
7.6169e-08 1.93247e-07 0.019362

0.0319078 -0.0030237 1.3497e-07
-0.0030237 0.0341619 2.70398e-08
1.3497e-07 2.70398e-08 0.0340351

0.0229183 0.00399945 1.87518e-07
0.00399945 0.0276596 1.12621e-07
1.87518e-07 1.12621e-07 0.0176527

0.0292094 0.00310098 2.0362e-07
0.00310098 0.0327625 -1.52766e-08
2.0362e-07 -1.52766e-08 0.0310117

0.031594 -0.00069446 -1.33953e-07
-0.00069446 0.0231596 5.91821e-08
-1.33953e-07 5.91821e-08 0.0244844

0.0327608 0.00146429 2.99476e-08
0.00146429 0.0253464 8.0293e-08
2.99476e-08 8.0293e-08 0.0276125

0.0359775 5.62364e-05 -4.04373e-08
5.62364e-05 0.0249581 1.47322e-07
-4.04373e-08 1.47322e-07 0.0333857

0.0279654 -0.00380541 -1.28373e-07
-0.00380541 0.0349483 -1.49067e-08
-1.28373e-07 -1.49067e-08 0.0338155

0.0393145 -0.00084379 2.46811e-07
-0.00084379 0.0416019 9.15428e-08
2.46811e-07 9.15428e-08 0.0361897

0.0298673 0.00493914 3.93851e-08
0.00493914 0.032956 -1.61836e-07
3.93851e-08 -1.61836e-07 0.0337786

0.0302878 0.000214508 1.81741e-07
0.000214508 0.0203964 3.86185e-08
1.81741e-07 3.86185e-08 0.0172758

0.0266733 -0.0042501 -2.09155e-07
-0.0042501 0.0281325 -3.29293e-08
-2.09155e-07 -3.29293e-08 0.024437

0.0277456 0.00481564 1.53359e-08
0.00481564 0.0333145 9.12438e-08
1.53359e-08 9.12438e-08 0.0334549

0.0279446 -0.00145863 -1.15494e-07
-0.00145863 0.0350844 -7.47282e-08
-1.15494e-07 -7.47282e-08 0.0314498

0.0244647 -0.00330497 -1.15922e-07
-0.00330497 0.0300146 -2.27718e-08
-1.15922e-07 -2.27718e-08 0.0242166

0.0279901 0.00377955 1.73293e-07
0.00377955 0.0349097 8.44689e-08
1.73293e-07 8.44689e-08 0.0337863

0.031361 -0.00340935 -1.11474e-07
-0.00340935 0.027008 -1.64184e-07
-1.11474e-07 -1.64184e-07 0.0269909

0.0402791 0.00140898 1.37699e-07
0.00140898 0.0406185 -2.063e-07
1.37699e-07 -2.063e-07 0.0361701

0.0258807 0.00400274 7.75849e-08
0.00400274 0.0289541 -5.33649e-08
7.75849e-08 -5.33649e-08 0.0245105

0.0366774 0.00110305 -5.85802e-08
0.00110305 0.0263517 -1.72557e-07
-5.85802e-08 -1.72557e-07 0.0338973

0.0333413 0.00398412 1.38806e-08
0.00398412 0.0321153 -5.75334e-08
1.38806e-08 -5.75334e-08 0.0333152

0.0292276 0.00306732 8.41531e-08
0.00306732 0.032605 -1.51353e-07
8.41531e-08 -1.51353e-07 0.0321572

0.0343645 -0.00431122 6.52368e-08
-0.00431122 0.0345044 7.41196e-08
6.52368e-08 7.41196e-08 0.0348845

0.0354889 -0.00306336 5.69439e-08
-0.00306336 0.0305895 7.90509e-08
5.69439e-08 7.90509e-08 0.03275

0.0333662 0.0013877 8.44531e-08
0.0013877 0.0395766 1.88621e-07
8.44531e-08 1.88621e-07 0.0350021

0.0291964 -0.00307896 -5.55648e-08
-0.00307896 0.0328734 -9.3699e-08
-5.55648e-08 -9.3699e-08 0.0313829

0.0292645 -0.0012322 -2.60788e-07
-0.0012322 0.0192868 9.23819e-08
-2.60788e-07 9.23819e-08 0.0164119

0.0287781 -0.00183229 1.75872e-07
-0.00183229 0.0184137 2.67648e-08
1.75872e-07 2.67648e-08 0.0161968

0.038529 0.00220228 1.69858e-08
0.00220228 0.0332385 -6.92529e-08
1.69858e-08 -6.92529e-08 0.0347626

0.0280556 0.00294511 7.10823e-08
0.00294511 0.032335 -2.75792e-07
7.10823e-08 -2.75792e-07 0.0295178

0.0320666 0.00383422 -8.91078e-08
0.00383422 0.0309603 -8.42271e-08
-8.91078e-08 -8.42271e-08 0.0314541

0.0320493 9.00239e-05 -7.72219e-08
9.00239e-05 0.0245766 1.4167e-07
-7.72219e-08 1.4167e-07 0.0248877

0.0302374 0.000866055 -1.03614e-07
0.000866055 0.0385808 -7.99151e-09
-1.03614e-07 -7.99151e-09 0.034096

0.0354016 0.0021914 2.5181e-07
0.0021914 0.0293225 2.78919e-08
2.5181e-07 2.78919e-08 0.0328579

0.0248111 -0.0033388 5.36832e-08
-0.0033388 0.0300057 1.50729e-07
5.36832e-08 1.50729e-07 0.0244697

0.0286504 -0.000337967 1.62761e-07
-0.000337967 0.0366572 -8.98726e-08
1.62761e-07 -8.98726e-08 0.0323955

0.025215 0.00173999 -2.0662e-08
0.00173999 0.0320292 -6.19762e-08
-2.0662e-08 -6.19762e-08 0.0256836

0.0332803 -0.00390955 -2.67926e-08
-0.00390955 0.0304964 7.39733e-08
-2.67926e-08 7.39733e-08 0.0315921

0.0290647 -0.00389581 1.74106e-08
-0.00389581 0.0281997 2.37766e-08
1.74106e-08 2.37766e-08 0.0257133

0.0261487 0.00409864 7.0922e-08
0.00409864 0.0285462 7.83675e-08
7.0922e-08 7.83675e-08 0.0243178

0.0452876 -0.00201775 3.5442e-07
-0.00201775 0.0396055 -1.38951e-07
3.5442e-07 -1.38951e-07 0.0363667

0.0316665 0.000256398 -5.86291e-08
0.000256398 0.0393264 1.71172e-07
-5.86291e-08 1.71172e-07 0.0347688

0.0306164 0.00265099 1.90805e-07
0.00265099 0.0384425 -7.78531e-09
1.90805e-07 -7.78531e-09 0.0349574

0.0387658 0.00209497 -8.73023e-08
0.00209497 0.0302214 -1.83521e-07
-8.73023e-08 -1.83521e-07 0.0349423

0.0313706 -0.00345048 -7.6796e-08
-0.00345048 0.0321402 2.08763e-07
-7.6796e-08 2.08763e-07 0.0325723

0.0318176 0.00233612 -4.21537e-09
0.00233612 0.0256201 8.62322e-08
-4.21537e-09 8.62322e-08 0.0258793

0.0349936 -0.000708738 2.09389e-07
-0.000708738 0.0415753 -5.41353e-08
2.09389e-07 -5.41353e-08 0.0357274

0.0357874 -0.00251874 3.64087e-08
-0.00251874 0.0295498 7.36359e-08
3.64087e-08 7.36359e-08 0.0332576

0.0332965 -0.00203989 -3.80745e-08
-0.00203989 0.0266524 -3.7851e-08
-3.80745e-08 -3.7851e-08 0.0286751

0.025252 0.00151075 -2.1334e-08
0.00151075 0.0322737 -1.46723e-07
-2.1334e-08 -1.46723e-07 0.0259497

0.0268042 -0.00334451 -1.78849e-07
-0.00334451 0.0300089 -2.50198e-08
-1.78849e-07 -2.50198e-08 0.025187

0.0364779 -0.0033604 -1.13079e-07
-0.0033604 0.0352872 -8.25502e-08
-1.13079e-07 -8.25502e-08 0.034742

0.0284753 0.00415205 -2.01854e-07
0.00415205 0.0277157 8.01545e-08
-2.01854e-07 8.01545e-08 0.0254674

0.0372438 -0.00334526 -3.72354e-08
-0.00334526 0.0333219 9.18996e-08
-3.72354e-08 9.18996e-08 0.0346114

0.0322055 0.000337886 -1.19964e-07
0.000337886 0.0248623 8.66607e-08
-1.19964e-07 8.66607e-08 0.0254372

0.0191607 -0.00368895 -1.58636e-07
-0.00368895 0.0275253 -1.32015e-07
-1.58636e-07 -1.32015e-07 0.0163106

0.0292094 -0.00380333 2.16695e-07
-0.00380333 0.0281921 5.12192e-09
2.16695e-07 5.12192e-09 0.0258074

0.0230456 0.00412734 4.44562e-08
0.00412734 0.0280198 2.98743e-07
4.44562e-08 2.98743e-07 0.0175919

0.0296907 -0.00155931 -7.81937e-08
-0.00155931 0.0375332 -1.56593e-07
-7.81937e-08 -1.56593e-07 0.0336481

0.0243598 -0.00179346 5.22281e-09
-0.00179346 0.0318719 -5.0452e-08
5.22281e-09 -5.0452e-08 0.0254475

0.0424371 -0.00323479 4.45035e-07
-0.00323479 0.0423764 -2.91022e-09
4.45035e-07 -2.91022e-09 0.036375

0.0263363 0.00309102 3.81429e-08
0.00309102 0.0307008 9.33749e-09
3.81429e-08 9.33749e-09 0.0254774

0.0334761 -0.00432346 -2.20002e-08
-0.00432346 0.032659 -2.36648e-08
-2.20002e-08 -2.36648e-08 0.033566

0.0240802 -0.00155072 4.75506e-08
-0.00155072 0.0318865 2.20572e-08
4.75506e-08 2.20572e-08 0.0251763

0.0362222 -0.0025387 4.22563e-08
-0.0025387 0.0295105 9.38015e-09
4.22563e-08 9.38015e-09 0.0335189

0.0266729 0.00310459 1.14816e-07
0.00310459 0.0303938 7.0556e-09
1.14816e-07 7.0556e-09 0.0253127

0.0343426 -0.000653743 -6.73479e-08
-0.000653743 0.0272762 2.52322e-07
-6.73479e-08 2.52322e-07 0.0305771

0.0188901 -0.00387144 -2.64156e-07
-0.00387144 0.0298012 1.1262e-07
-2.64156e-07 1.1262e-07 0.012961

0.0279985 0.00275438 1.00785e-07
0.00275438 0.0326279 -5.72002e-08
1.00785e-07 -5.72002e-08 0.030573

0.0314366 -0.00251226 2.33164e-08
-0.00251226 0.0247217 -8.58415e-09
2.33164e-08 -8.58415e-09 0.0254053

0.0391175 -0.00286931 1.07324e-07
-0.00286931 0.0322209 1.10976e-09
1.07324e-07 1.10976e-09 0.0349362

0.0287525 0.00412378 -1.16194e-09
0.00412378 0.0272993 -4.39567e-08
-1.16194e-09 -4.39567e-08 0.0252548

0.0313605 -0.00391916 -1.11573e-07
-0.00391916 0.0285412 -1.64584e-07
-1.11573e-07 -1.64584e-07 0.0287302

0.0354074 0.0027639 -1.20406e-07
0.0027639 0.0308551 -6.53386e-08
-1.20406e-07 -6.53386e-08 0.0330384

0.029772 -0.00370325 -4.3751e-08
-0.00370325 0.0329364 1.1885e-08
-4.3751e-08 1.1885e-08 0.0333415

0.0270541 -0.00341006 -1.28695e-07
-0.00341006 0.0299816 1.36858e-07
-1.28695e-07 1.36858e-07 0.0253966

0.0284398 0.00377103 -1.09374e-07
0.00377103 0.028939 -5.87083e-08
-1.09374e-07 -5.87083e-08 0.0258864

0.0313702 0.00341334 6.69835e-08
0.00341334 0.0268985 -1.41066e-07
6.69835e-08 -1.41066e-07 0.0269651

0.0365354 -0.00194394 2.9282e-08
-0.00194394 0.0306243 -1.81624e-08
2.9282e-08 -1.81624e-08 0.0336347

0.0255329 -0.00216315 -4.73197e-08
-0.00216315 0.0318006 -5.49381e-08
-4.73197e-08 -5.49381e-08 0.0258528

0.0346983 -0.00231403 -1.0885e-07
-0.00231403 0.0283333 -1.86576e-07
-1.0885e-07 -1.86576e-07 0.0314549

0.0341843 0.00222282 -1.74643e-07
0.00222282 0.0274309 7.47575e-08
-1.74643e-07 7.47575e-08 0.0306028

0.0336441 -0.00124582 -3.7617e-08
-0.00124582 0.0392987 -7.64867e-08
-3.7617e-08 -7.64867e-08 0.0349264

0.0320708 -0.00174664 -3.03059e-08
-0.00174664 0.0253294 -1.11233e-07
-3.03059e-08 -1.11233e-07 0.0258702

0.0250009 7.96701e-05 -2.3855e-08
7.96701e-05 0.03315 1.26806e-08
-2.3855e-08 1.26806e-08 0.0268602

0.0332462 0.00242859 -4.14604e-08
0.00242859 0.0271926 -3.45446e-08
-4.14604e-08 -3.45446e-08 0.028921

0.0311164 0.0035986 1.68103e-07
0.0035986 0.0272914 -1.89178e-07
1.68103e-07 -1.89178e-07 0.0271216

0.0252944 -0.00204097 -9.33014e-08
-0.00204097 0.0318632 1.88192e-08
-9.33014e-08 1.88192e-08 0.02561

0.0252002 -0.000154675 -5.73544e-09
-0.000154675 0.0332902 -4.31867e-08
-5.73544e-09 -4.31867e-08 0.027143

0.0354119 0.00385827 5.50663e-08
0.00385827 0.0329944 -7.22309e-08
5.50663e-08 -7.22309e-08 0.0338943

0.0275846 -0.00143093 7.39307e-08
-0.00143093 0.0353409 1.63269e-07
7.39307e-08 1.63269e-07 0.0314408

0.0312326 -0.0034837 7.22855e-08
-0.0034837 0.0269764 1.72896e-07
7.22855e-08 1.72896e-07 0.0270087

0.0312952 0.00277245 2.08301e-07
0.00277245 0.0249211 1.01685e-07
2.08301e-07 1.01685e-07 0.0252452

0.0345814 0.00311846 -1.28464e-07
0.00311846 0.0293854 1.60606e-07
-1.28464e-07 1.60606e-07 0.0317946

0.0279901 0.000716794 -1.36238e-07
0.000716794 0.036038 -1.87415e-07
-1.36238e-07 -1.87415e-07 0.031817

0.0287152 0.00378116 -7.57157e-08
0.00378116 0.0285582 8.1506e-08
-7.57157e-08 8.1506e-08 0.0257268

0.0367895 0.0030577 -1.09444e-07
0.0030577 0.0361243 -1.36347e-07
-1.09444e-07 -1.36347e-07 0.034906

0.0226792 -0.00754504 -7.2869e-08
-0.00754504 0.0186871 -6.74019e-08
-7.2869e-08 -6.74019e-08 0.0108447

0.03329 -0.0032873 1.21518e-07
-0.0032873 0.0286312 -1.45815e-07
1.21518e-07 -1.45815e-07 0.0301228

0.020726 0.000913221 9.96894e-08
0.000913221 0.0300299 -3.10574e-07
9.96894e-08 -3.10574e-07 0.0183457

0.0312989 -0.0037816 5.67646e-08
-0.0037816 0.0292301 1.36439e-07
5.67646e-08 1.36439e-07 0.0290304

0.00153952 -0.00651859 -2.93913e-08
-0.00651859 0.0275675 1.28772e-07
-2.93913e-08 1.28772e-07 0.00290822

0.00146992 0.00636816 -5.35742e-09
0.00636816 0.0275854 -2.34724e-08
-5.35742e-09 -2.34724e-08 0.00300117

0.0119843 0.0145045 -1.91965e-08
0.0145045 0.017532 -2.40717e-08
-1.91965e-08 -2.40717e-08 0.0027711

0.0121656 -0.0144952 -2.24274e-08
-0.0144952 0.0172234 2.81231e-08
-2.24274e-08 2.81231e-08 0.00280371

0.0293398 -0.000164083 -3.56998e-09
-0.000164083 0 0
-3.56998e-09 0 0.00295253

0.0235915 -0.0112823 7.32578e-08
-0.0112823 0.00539531 -3.52791e-08
7.32578e-08 -3.52791e-08 0.00297822

0.0236335 0.0113485 -1.1406e-07
0.0113485 0.00544937 -5.49282e-08
-1.1406e-07 -5.49282e-08 0.00303939

0.0369102 0.00191129 9.66615e-08
0.00191129 0.0302413 -3.00605e-09
9.66615e-08 -3.00605e-09 0.0338768

0.0387042 0.00340993 -2.4791e-09
0.00340993 0.0366167 -1.00075e-07
-2.4791e-09 -1.00075e-07 0.0355775

0.0344143 0.00087234 -1.02094e-07
0.00087234 0.0274558 -2.27504e-07
-1.02094e-07 -2.27504e-07 0.0316868

0.032872 0.00285018 1.80332e-08
0.00285018 0.0268884 -1.41724e-07
1.80332e-08 -1.41724e-07 0.0286454

0.0256998 0.00231307 6.83512e-08
0.00231307 0.0323658 1.17854e-07
6.83512e-08 1.17854e-07 0.0276346

0.0307117 0.00376873 -1.95727e-08
0.00376873 0.0276751 8.87789e-08
-1.95727e-08 8.87789e-08 0.0271168

0.0333045 -0.00390315 -9.83364e-08
-0.00390315 0.0304647 -2.90414e-08
-9.83364e-08 -2.90414e-08 0.031629

0.0309725 0.00365423 1.18636e-08
0.00365423 0.027286 -4.38476e-08
1.18636e-08 -4.38476e-08 0.0269244

0.0249863 -0.000371429 4.37678e-08
-0.000371429 0.033121 1.48491e-08
4.37678e-08 1.48491e-08 0.0268423

0.0385472 -0.00348488 9.81429e-08
-0.00348488 0.0368801 -7.71818e-09
9.81429e-08 -7.71818e-09 0.0355832

0.0251748 -0.000635481 9.47297e-09
-0.000635481 0.0332088 -4.18949e-08
9.47297e-09 -4.18949e-08 0.0271019

0.0360172 0.00304712 1.49371e-09
0.00304712 0.0330104 7.08428e-08
1.49371e-09 7.08428e-08 0.0340972

0.0296222 0.00347557 -2.44183e-07
0.00347557 0.0248455 1.27559e-07
-2.44183e-07 1.27559e-07 0.0230221

0.0304952 -0.00171377 1.37258e-07
-0.00171377 0.0375117 -9.382e-08
1.37258e-07 -9.382e-08 0.0347357

0.0339191 0.00180444 -2.28979e-07
0.00180444 0.0271808 -3.63552e-08
-2.28979e-07 -3.63552e-08 0.0303196

0.0312 -0.00392027 6.55893e-08
-0.00392027 0.0285304 1.8456e-07
6.55893e-08 1.8456e-07 0.0286137

0.0315825 -0.00322127 -8.92866e-10
-0.00322127 0.026691 3.21032e-08
-8.92866e-10 3.21032e-08 0.0270469

0.0384788 -0.00214157 -1.22853e-08
-0.00214157 0.0334165 1.39556e-07
-1.22853e-08 1.39556e-07 0.0347442

0.0326801 0.00366399 1.22477e-07
0.00366399 0.0292313 -8.70052e-08
1.22477e-07 -8.70052e-08 0.0301542

0.0326437 0.00313736 6.95832e-08
0.00313736 0.0272514 -1.93489e-07
6.95832e-08 -1.93489e-07 0.0287872

0.0269544 -0.000365154 1.52443e-07
-0.000365154 0.0349862 -1.21856e-08
1.52443e-07 -1.21856e-08 0.0301672

0.025899 0.000765814 6.82801e-08
0.000765814 0.0340027 1.1687e-07
6.82801e-08 1.1687e-07 0.0288223

0.0327776 0.000345364 -4.36754e-08
0.000345364 0.0248611 9.14785e-08
-4.36754e-08 9.14785e-08 0.0274431

0.0313861 -0.000944854 -2.31112e-07
-0.000944854 0.0230034 -1.37367e-07
-2.31112e-07 -1.37367e-07 0.0238915

0.0308799 0.00398499 8.81777e-09
0.00398499 0.0288054 -4.95234e-08
8.81777e-09 -4.95234e-08 0.0286234

0.0331172 -0.00343129 -1.28491e-08
-0.00343129 0.0285399 1.84015e-07
-1.28491e-08 1.84015e-07 0.0299686

0.0364123 -0.00282395 -1.35744e-07
-0.00282395 0.0327326 1.10937e-07
-1.35744e-07 1.10937e-07 0.0341434

0.0292057 -0.00412763 1.27977e-07
-0.00412763 0.0291917 1.41296e-07
1.27977e-07 1.41296e-07 0.0277532

0.0269713 -0.0036203 -3.92517e-08
-0.0036203 0.0304642 -2.58902e-07
-3.92517e-08 -2.58902e-07 0.0272127

0.0283255 0.00389932 -4.03993e-08
0.00389932 0.0299003 7.86284e-08
-4.03993e-08 7.86284e-08 0.0277513

0.0259007 -0.00124874 7.05063e-08
-0.00124874 0.0336124 -2.72248e-08
7.05063e-08 -2.72248e-08 0.0285152

0.0266538 -0.000201858 1.2785e-07
-0.000201858 0.0349119 7.83361e-08
1.2785e-07 7.83361e-08 0.0299191

0.0277617 0.000753006 7.12053e-08
0.000753006 0.0360375 -1.88957e-07
7.12053e-08 -1.88957e-07 0.0316575

0.0262465 -0.00274938 3.73071e-08
-0.00274938 0.0319622 -1.81349e-07
3.73071e-08 -1.81349e-07 0.02771

0.0345821 0.00317562 6.67888e-09
0.00317562 0.0291677 -9.3911e-08
6.67888e-09 -9.3911e-08 0.0316337

0.0339085 -0.00126114 -1.96849e-07
-0.00126114 0.0269297 -6.84717e-08
-1.96849e-07 -6.84717e-08 0.030201

0.0257897 0.000974206 8.77857e-08
0.000974206 0.0338287 2.12199e-07
8.77857e-08 2.12199e-07 0.0285413

0.0278234 -0.00126999 7.37217e-08
-0.00126999 0.0353967 1.63216e-07
7.37217e-08 1.63216e-07 0.0313653

0.0272923 -0.00213722 2.06542e-09
-0.00213722 0.0336557 9.24864e-09
2.06542e-09 9.24864e-09 0.0302249

0.0327757 -0.00107729 1.7986e-07
-0.00107729 0.0253194 -2.38866e-07
1.7986e-07 -2.38866e-07 0.0272537

0.0333143 -0.00427114 6.82302e-08
-0.00427114 0.0323798 1.81707e-07
6.82302e-08 1.81707e-07 0.0335285

0.0264879 0.0012197 1.13122e-08
0.0012197 0.0338347 2.11291e-07
1.13122e-08 2.11291e-07 0.0288154

0.0398103 -0.00243156 -2.29356e-07
-0.00243156 0.0352178 -7.85208e-08
-2.29356e-07 -7.85208e-08 0.0354605

0.0188884 0.00316444 -2.24728e-07
0.00316444 0.0278752 2.7299e-07
-2.24728e-07 2.7299e-07 0.0162724

0.0338148 -0.0035227 -3.11102e-08
-0.0035227 0.0334942 2.34743e-08
-3.11102e-08 2.34743e-08 0.0337254

0.0353434 -0.00399965 5.14699e-09
-0.00399965 0.033046 1.41361e-07
5.14699e-09 1.41361e-07 0.0339033

0.0266852 -9.05188e-05 1.69392e-07
-9.05188e-05 0.034917 7.92895e-08
1.69392e-07 7.92895e-08 0.0299273

0.0332421 -0.00217633 1.69804e-08
-0.00217633 0.0271524 9.71284e-08
1.69804e-08 9.71284e-08 0.0289019

0.0293468 0.00168476 1.76367e-07
0.00168476 0.0358184 2.91703e-07
1.76367e-07 2.91703e-07 0.032879

0.0132072 -0.000379122 1.4905e-07
-0.000379122 0.0283616 4.31565e-09
1.4905e-07 4.31565e-09 0.0111516

0.0271129 0.00186844 -9.81728e-08
0.00186844 0.0340608 5.2766e-09
-9.81728e-08 5.2766e-09 0.0303055

0.0311082 -0.00385832 -1.18728e-07
-0.00385832 0.0291535 -1.87045e-07
-1.18728e-07 -1.87045e-07 0.0288057

0.0186194 0.00320445 -3.23029e-07
0.00320445 0.0301389 -6.49936e-10
-3.23029e-07 -6.49936e-10 0.0131265

0.0426015 0.00351787 1.40285e-07
0.00351787 0.0418486 2.19757e-07
1.40285e-07 2.19757e-07 0.0364797

0.0432047 -0.00374898 4.62607e-08
-0.00374898 0.0414175 -8.43319e-08
4.62607e-08 -8.43319e-08 0.0364622

0.0310642 -0.00399068 1.66114e-07
-0.00399068 0.0304703 -3.54155e-08
1.66114e-07 -3.54155e-08 0.0304603

0.0289214 -0.00406389 1.43149e-07
-0.00406389 0.0291499 -1.84437e-07
1.43149e-07 -1.84437e-07 0.0275936

0.0330499 0.00272659 -1.02368e-07
0.00272659 0.0275277 8.09493e-08
-1.02368e-07 8.09493e-08 0.0290746

0.0327789 0.0019601 -1.01254e-07
0.0019601 0.0255904 8.27454e-08
-1.01254e-07 8.27454e-08 0.0278219

0.0464016 0.000418534 -6.30264e-07
0.000418534 0.046356 -6.1687e-07
-6.30264e-07 -6.1687e-07 0.036694

0.0469183 -0.000952155 7.65392e-07
-0.000952155 0.0457693 -4.51207e-07
7.65392e-07 -4.51207e-07 0.0367651

0.0347985 0.000638511 -7.37785e-08
0.000638511 0.0275721 -2.52271e-07
-7.37785e-08 -2.52271e-07 0.0322157

0.0277509 0.00088235 -8.58473e-08
0.00088235 0.0355695 -1.58456e-08
-8.58473e-08 -1.58456e-08 0.0313478

0.0276069 0.000882867 1.16808e-07
0.000882867 0.0355696 -1.00552e-08
1.16808e-07 -1.00552e-08 0.031244

0.0234586 0.00739966 -2.08961e-08
0.00739966 0.0183014 2.61731e-07
-2.08961e-08 2.61731e-07 0.0109012

0.0272461 -0.00367539 -7.51021e-09
-0.00367539 0.0303462 -4.34125e-08
-7.51021e-09 -4.34125e-08 0.0273186

0.0365662 0.00239158 6.92505e-08
0.00239158 0.0295753 3.2057e-08
6.92505e-08 3.2057e-08 0.0337836

0.0332731 0.00124747 -7.55168e-08
0.00124747 0.0265033 3.31677e-08
-7.55168e-08 3.31677e-08 0.0284309

0.0291515 -0.00349239 1.09186e-07
-0.00349239 0.0304704 -2.46782e-07
1.09186e-07 -2.46782e-07 0.0281724

0.0328099 -0.00264769 -2.56285e-08
-0.00264769 0.0267272 3.13409e-08
-2.56285e-08 3.13409e-08 0.0285858

0.0224594 0.00761263 1.43777e-07
0.00761263 0.01859 4.10645e-07
1.43777e-07 4.10645e-07 0.0109037

0.0331439 0.00410222 -4.73613e-08
0.00410222 0.0326374 8.52542e-08
-4.73613e-08 8.52542e-08 0.0331807

0.0258893 -0.00257816 -1.56146e-08
-0.00257816 0.0320233 -1.09008e-07
-1.56146e-08 -1.09008e-07 0.0275065

0.0324813 0.00378574 -1.94466e-09
0.00378574 0.0292673 8.18897e-08
-1.94466e-09 8.18897e-08 0.0301459

0.0268151 -0.000543805 -1.36667e-07
-0.000543805 0.0349511 -4.17368e-08
-1.36667e-07 -4.17368e-08 0.0301369

0.0269889 0.00256327 1.61494e-07
0.00256327 0.0324475 -1.99338e-07
1.61494e-07 -1.99338e-07 0.0282855

0.0305253 0.0039909 -2.41804e-08
0.0039909 0.0293223 7.97152e-08
-2.41804e-08 7.97152e-08 0.0287741

0.0276076 -0.00293699 -8.32485e-08
-0.00293699 0.0318527 -2.02831e-07
-8.32485e-08 -2.02831e-07 0.0282481

0.0294553 -0.00357576 2.11955e-08
-0.00357576 0.0303499 -4.16018e-08
2.11955e-08 -4.16018e-08 0.028304

0.0181372 0.00142534 -5.43094e-08
0.00142534 0.0280355 -1.61318e-07
-5.43094e-08 -1.61318e-07 0.0131272

0.023473 -0.00429384 6.66863e-08
-0.00429384 0.027555 -1.38315e-07
6.66863e-08 -1.38315e-07 0.0177227

0.0262046 -0.00152613 -7.93087e-08
-0.00152613 0.0336228 8.70657e-08
-7.93087e-08 8.70657e-08 0.0287508

0.0330222 0.00347463 1.51034e-07
0.00347463 0.0288768 -6.17165e-08
1.51034e-07 -6.17165e-08 0.0300679

0.0303207 0.00385734 -2.42579e-08
0.00385734 0.0298856 7.98135e-08
-2.42579e-08 7.98135e-08 0.0289893

0.0274133 -0.00280049 4.11678e-08
-0.00280049 0.031983 -1.04949e-07
4.11678e-08 -1.04949e-07 0.028138

0.0265536 -0.00154088 2.70392e-08
-0.00154088 0.0335808 -2.9455e-08
2.70392e-08 -2.9455e-08 0.0287452

0.0309554 0.00371819 -1.20916e-07
0.00371819 0.0295621 2.05198e-07
-1.20916e-07 2.05198e-07 0.0289402

0.0267583 -0.00181598 1.69539e-07
-0.00181598 0.0334733 1.40356e-07
1.69539e-07 1.40356e-07 0.0289532

0.0191654 0.00355433 6.62e-08
0.00355433 0.027607 9.88251e-08
6.62e-08 9.88251e-08 0.0162916

0.0308725 -0.000534872 -1.11839e-08
-0.000534872 0.0388179 6.33188e-08
-1.11839e-08 6.33188e-08 0.0342934

0.0286553 0.00404755 -4.04131e-09
0.00404755 0.0295173 1.91912e-07
-4.04131e-09 1.91912e-07 0.0277135

0.0355789 0.00197515 1.90937e-07
0.00197515 0.0295019 1.44107e-07
1.90937e-07 1.44107e-07 0.0328416

0.0362581 -0.00211446 -7.54491e-08
-0.00211446 0.0297542 -8.40547e-08
-7.54491e-08 -8.40547e-08 0.0332168

0.0285097 -0.0030955 -2.30054e-07
-0.0030955 0.0185684 2.37065e-07
-2.30054e-07 2.37065e-07 0.0157293

0.0283525 -0.00278994 -1.84602e-07
-0.00278994 0.0327745 -4.77725e-08
-1.84602e-07 -4.77725e-08 0.0305705

0.0291899 0.00350058 1.45499e-07
0.00350058 0.0315984 -6.26451e-08
1.45499e-07 -6.26451e-08 0.0304863

0.0349591 -0.00290749 -1.14045e-07
-0.00290749 0.0376745 -2.61014e-07
-1.14045e-07 -2.61014e-07 0.0352351

0.0394596 0.00188529 -1.16651e-07
0.00188529 0.0446079 -2.14993e-07
-1.16651e-07 -2.14993e-07 0.036432

0.0449431 0.00129037 -9.80263e-08
0.00129037 0.0391156 7.48336e-08
-9.80263e-08 7.48336e-08 0.0364139

0.0355597 0.00434526 -4.6985e-08
0.00434526 0.035134 3.57424e-08
-4.6985e-08 3.57424e-08 0.0350023

0.0265708 0.00338773 6.42113e-08
0.00338773 0.0310048 5.66215e-08
6.42113e-08 5.66215e-08 0.0272548

0.033038 0.00349672 1.14526e-07
0.00349672 0.028666 3.00652e-08
1.14526e-07 3.00652e-08 0.030049

0.0220592 0.00576401 3.14134e-07
0.00576401 0.0242367 -8.67667e-08
3.14134e-07 -8.67667e-08 0.0160717

0.0386177 -0.00151233 -7.48638e-08
-0.00151233 0.0444325 -4.09264e-08
-7.48638e-08 -4.09264e-08 0.0363611

0.046048 -0.000463459 4.09278e-07
-0.000463459 0.0454374 -4.2067e-07
4.09278e-07 -4.2067e-07 0.0366901

0.0451787 -3.08137e-05 -2.85675e-08
-3.08137e-05 0.046301 -3.82038e-07
-2.85675e-08 -3.82038e-07 0.036672

0.0176404 -0.00679461 -3.1053e-07
-0.00679461 0.0231075 1.84826e-08
-3.1053e-07 1.84826e-08 0.0107381

0.0392911 -0.00155602 -9.33115e-08
-0.00155602 0.038714 -1.979e-07
-9.33115e-08 -1.979e-07 0.0358526

0.0383961 0.00117668 1.96626e-07
0.00117668 0.0415173 -6.85809e-08
1.96626e-07 -6.85809e-08 0.036124

0.0331738 -0.0034356 -5.88703e-08
-0.0034356 0.0282185 7.779e-08
-5.88703e-08 7.779e-08 0.0299024

0.0318436 0.000140382 1.1092e-07
0.000140382 0.0386706 5.09185e-08
1.1092e-07 5.09185e-08 0.0344493

0.0285758 -0.00266024 1.72934e-08
-0.00266024 0.0333787 4.02505e-09
1.72934e-08 4.02505e-09 0.0315881

0.0356606 0.000831797 1.86086e-07
0.000831797 0.0273765 -5.73376e-08
1.86086e-07 -5.73376e-08 0.032999

0.0288749 0.00204429 -2.61912e-07
0.00204429 0.0368151 -1.91953e-07
-2.61912e-07 -1.91953e-07 0.0336686

0.0298685 0.000946262 1.01024e-07
0.000946262 0.0373873 -1.99486e-07
1.01024e-07 -1.99486e-07 0.0333625

0.0344001 0.00268464 5.69545e-08
0.00268464 0.0288506 3.74402e-08
5.69545e-08 3.74402e-08 0.0312252

0.0132788 -0.000409378 -4.75517e-08
-0.000409378 0.0281221 1.07484e-07
-4.75517e-08 1.07484e-07 0.011201

0.0309637 -0.0036258 -2.91959e-07
-0.0036258 0.0309144 -1.20051e-07
-2.91959e-07 -1.20051e-07 0.0306085

0.0329271 -0.00344325 -1.10208e-07
-0.00344325 0.0320197 1.31957e-08
-1.10208e-07 1.31957e-08 0.0325782

0.0335698 -0.00415904 1.50721e-08
-0.00415904 0.0325335 1.19342e-07
1.50721e-08 1.19342e-07 0.0337346

0.0265612 0.00414855 5.08769e-08
0.00414855 0.017691 2.60813e-08
5.08769e-08 2.60813e-08 0.0126048

0.0388275 -0.00269665 -1.89424e-07
-0.00269665 0.0395751 -1.52754e-07
-1.89424e-07 -1.52754e-07 0.0359574

0.0230822 0.0069205 1.51158e-07
0.0069205 0.0255012 -3.02651e-07
1.51158e-07 -3.02651e-07 0.0126091

0.0308737 -0.00281762 2.2039e-07
-0.00281762 0.0348063 -7.18764e-09
2.2039e-07 -7.18764e-09 0.0339552

0.0354107 0.00193633 1.1267e-07
0.00193633 0.0284647 7.85339e-08
1.1267e-07 7.85339e-08 0.0323435

0.0318199 -0.0018934 -1.20981e-07
-0.0018934 0.0249499 -3.19176e-07
-1.20981e-07 -3.19176e-07 0.0253946

0.0292912 0.00315893 1.41311e-07
0.00315893 0.0327303 -5.01198e-08
1.41311e-07 -5.01198e-08 0.0312786

0.0344353 0.00268858 -2.78929e-08
0.00268858 0.0286335 2.38827e-07
-2.78929e-08 2.38827e-07 0.0312198

0.0325178 0.00149918 -1.94128e-08
0.00149918 0.0403727 3.48728e-07
-1.94128e-08 3.48728e-07 0.0353356

0.0319393 -0.00415446 1.00644e-07
-0.00415446 0.0312007 -3.27458e-07
1.00644e-07 -3.27458e-07 0.0318096

0.0396756 0.00265531 1.56334e-08
0.00265531 0.0331974 8.43403e-08
1.56334e-08 8.43403e-08 0.035315

0.0279704 -0.00241854 1.1023e-08
-0.00241854 0.0335495 1.06711e-08
1.1023e-08 1.06711e-08 0.0304695

0.02935 0.000558709 1.1078e-07
0.000558709 0.0373111 -1.98432e-07
1.1078e-07 -1.98432e-07 0.0332517

0.0419438 0.00133718 -8.48474e-08
0.00133718 0.0370993 -8.9455e-08
-8.48474e-08 -8.9455e-08 0.0361153

0.0420967 -0.00114822 -1.83169e-08
-0.00114822 0.0373255 -1.97743e-08
-1.83169e-08 -1.97743e-08 0.0360972

0.0283824 0.002369 2.05601e-07
0.002369 0.0181811 3.12438e-09
2.05601e-07 3.12438e-09 0.0159493

0.0350249 0.00106109 1.09405e-07
0.00106109 0.0285651 7.87758e-08
1.09405e-07 7.87758e-08 0.033058

0.0128667 0.000923326 -4.79831e-08
0.000923326 0.0316257 1.12019e-07
-4.79831e-08 1.12019e-07 0.00612156

0.0131623 -0.0013881 1.44852e-07
-0.0013881 0.0321315 -1.57204e-07
1.44852e-07 -1.57204e-07 0.00611188

0.0152685 0.00715407 -5.84884e-08
0.00715407 0.0284524 1.14561e-07
-5.84884e-08 1.14561e-07 0.005984

0.034763 -0.00382108 6.86047e-08
-0.00382108 0.031267 -1.63896e-07
6.86047e-08 -1.63896e-07 0.0329381

0.0155804 -0.00619417 7.36173e-08
-0.00619417 0.0261523 -3.09422e-07
7.36173e-08 -3.09422e-07 0.0104717

0.0155126 -0.00708666 -1.00655e-07
-0.00708666 0.0274229 -2.51167e-07
-1.00655e-07 -2.51167e-07 0.00591381

0.0284252 0.00342555 -2.40098e-08
0.00342555 0.0310051 5.63331e-08
-2.40098e-08 5.63331e-08 0.0281518

0.0251928 0.00932572 -2.13134e-07
0.00932572 0.0190204 1.25923e-08
-2.13134e-07 1.25923e-08 0.00593367

0.0365373 0.00173204 -3.38428e-07
0.00173204 0.0385507 1.1472e-07
-3.38428e-07 1.1472e-07 0.0354743

0.0395347 2.51288e-05 -1.98122e-07
2.51288e-05 0.0355388 1.78387e-07
-1.98122e-07 1.78387e-07 0.0354549

0.0261066 -0.00924425 -1.45437e-07
-0.00924425 0.0188122 2.4408e-09
-1.45437e-07 2.4408e-09 0.00588784

0.0276889 -0.00306499 -6.78814e-09
-0.00306499 0.0320941 -2.448e-08
-6.78814e-09 -2.448e-08 0.0296219

0.0262545 0.00441798 -9.34796e-09
0.00441798 0.0201575 2.57893e-07
-9.34796e-09 2.57893e-07 0.0130443

0.0172789 0.00797292 9.47887e-08
0.00797292 0.0271484 6.13667e-09
9.47887e-08 6.13667e-09 0.00598768

0.0181958 0.00275501 -8.91071e-08
0.00275501 0.0275891 -1.55451e-07
-8.91071e-08 -1.55451e-07 0.0128498

0.0173038 -0.00827613 -1.4739e-07
-0.00827613 0.0271518 1.65515e-07
-1.4739e-07 1.65515e-07 0.00581364

0.0179325 -0.00157092 1.53204e-07
-0.00157092 0.0280049 -1.8847e-09
1.53204e-07 -1.8847e-09 0.0126902

0.0370497 0.000923372 -7.93687e-08
0.000923372 0.0412996 -3.09208e-08
-7.93687e-08 -3.09208e-08 0.0358091

0.0221307 -0.00585499 -6.35208e-08
-0.00585499 0.0236641 2.15107e-07
-6.35208e-08 2.15107e-07 0.0151584

0.0156997 0.00598598 -3.61551e-08
0.00598598 0.0259017 -2.76195e-07
-3.61551e-08 -2.76195e-07 0.0107499

0.0302079 0.00472997 -1.18779e-07
0.00472997 0.014349 -1.99529e-07
-1.18779e-07 -1.99529e-07 0.00611566

0.0329374 -0.00384943 1.06777e-07
-0.00384943 0.0301228 -1.78125e-08
1.06777e-07 -1.78125e-08 0.0310504

0.0308879 0.00169395 1.05258e-07
0.00169395 0.0368416 -2.07849e-07
1.05258e-07 -2.07849e-07 0.0339493

0.0260894 -0.00484371 -2.19413e-07
-0.00484371 0.0191967 -1.59654e-07
-2.19413e-07 -1.59654e-07 0.0126947

0.0329997 -0.00378576 1.06721e-07
-0.00378576 0.0300743 -1.79641e-08
1.06721e-07 -1.79641e-08 0.0311267

0.0300182 -0.00451976 -9.31577e-08
-0.00451976 0.0130533 1.55151e-07
-9.31577e-08 1.55151e-07 0.00603711

0.0324723 -0.00372754 1.96713e-07
-0.00372754 0.0313065 -1.86609e-07
1.96713e-07 -1.86609e-07 0.0319785

0.0280901 -0.00331113 -1.89674e-07
-0.00331113 0.0320029 -6.33797e-08
-1.89674e-07 -6.33797e-08 0.0296245

0.0234431 0.00874339 -1.06176e-07
0.00874339 0.0204824 1.91509e-07
-1.06176e-07 1.91509e-07 0.006026

0.0181993 -0.00292064 2.13074e-07
-0.00292064 0.0268659 2.24286e-08
2.13074e-07 2.24286e-08 0.0122696

0.0233141 -0.00901906 5.28579e-08
-0.00901906 0.0201516 3.58305e-07
5.28579e-08 3.58305e-07 0.00588383

0.0170821 0.00640797 -2.50915e-07
0.00640797 0.0235654 -1.31019e-07
-2.50915e-07 -1.31019e-07 0.0108307

0.0308253 -0.00396009 -2.47671e-07
-0.00396009 0.030159 1.35984e-08
-2.47671e-07 1.35984e-08 0.0300846

0.0389169 -0.00195855 8.7407e-08
-0.00195855 0.0369399 2.24461e-07
8.7407e-08 2.24461e-07 0.0354986

0.045541 0.00150738 2.52206e-07
0.00150738 0.0449528 1.61755e-07
2.52206e-07 1.61755e-07 0.0366183

0.0435637 -0.000711311 7.71848e-08
-0.000711311 0.0462302 6.53981e-07
7.71848e-08 6.53981e-07 0.036584

0.0286146 0.001716 -3.62646e-08
0.001716 0.0355653 8.01387e-08
-3.62646e-08 8.01387e-08 0.0323887

0.0453362 -0.00144849 -1.52741e-08
-0.00144849 0.0449806 -2.25991e-07
-1.52741e-08 -2.25991e-07 0.036636

0.0438079 0.000567078 1.08961e-07
0.000567078 0.0465063 1.99525e-07
1.08961e-07 1.99525e-07 0.0366171

0.046679 0.000991263 -3.97316e-08
0.000991263 0.043377 -6.41966e-08
-3.97316e-08 -6.41966e-08 0.0365921

0.03975 -0.00163913 1.59174e-07
-0.00163913 0.0460735 4.61884e-08
1.59174e-07 4.61884e-08 0.0364819

0.0190535 -0.00388716 2.22987e-07
-0.00388716 0.02723 3.48642e-09
2.22987e-07 3.48642e-09 0.0154706

0.0421403 -0.00175032 3.78919e-07
-0.00175032 0.0367247 1.65766e-07
3.78919e-07 1.65766e-07 0.0360039

0.0359638 -0.00457361 -1.97292e-07
-0.00457361 0.03515 6.81742e-08
-1.97292e-07 6.81742e-08 0.0349672

0.0397526 -0.00242134 1.86405e-07
-0.00242134 0.0360638 1.76652e-07
1.86405e-07 1.76652e-07 0.0355663

0.0351837 0.00204319 -1.75527e-08
0.00204319 0.0285481 2.39716e-07
-1.75527e-08 2.39716e-07 0.0322309

0.039692 0.00133783 1.89135e-07
0.00133783 0.0472248 -4.90576e-07
1.89135e-07 -4.90576e-07 0.0365478

0.0464969 0.00259343 -1.02167e-07
0.00259343 0.0404182 -3.14862e-07
-1.02167e-07 -3.14862e-07 0.036529

0.040086 0.00150561 -5.28738e-08
0.00150561 0.0366728 3.8083e-08
-5.28738e-08 3.8083e-08 0.0356143

0.027914 -0.00191986 2.08885e-07
-0.00191986 0.0125243 1.23704e-07
2.08885e-07 1.23704e-07 0.0106242

0.0283181 0.00326769 -7.28752e-08
0.00326769 0.0315488 -1.47132e-07
-7.28752e-08 -1.47132e-07 0.0294097

0.0231874 -0.00773568 5.21568e-07
-0.00773568 0.0181794 -1.49111e-08
5.21568e-07 -1.49111e-08 0.0102891

0.02283 -0.00731547 4.53033e-07
-0.00731547 0.025768 -2.63325e-07
4.53033e-07 -2.63325e-07 0.0119541

0.0290218 -0.00464677 1.97391e-07
-0.00464677 0.0191278 1.56963e-07
1.97391e-07 1.56963e-07 0.0126147

0.0375737 -0.000660757 -5.59341e-08
-0.000660757 0.0449127 -2.20186e-07
-5.59341e-08 -2.20186e-07 0.0362929

0.0375714 0.000358499 -1.43513e-07
0.000358499 0.04479 9.73177e-08
-1.43513e-07 9.73177e-08 0.0362732

0.0426046 -0.00327422 -1.26872e-07
-0.00327422 0.03945 5.40152e-08
-1.26872e-07 5.40152e-08 0.036227

0.0429982 -0.00294492 -1.42615e-07
-0.00294492 0.0391683 -1.72934e-07
-1.42615e-07 -1.72934e-07 0.036234

0.0425015 0.00350439 1.91932e-07
0.00350439 0.0399712 -6.24933e-09
1.91932e-07 -6.24933e-09 0.0362718

0.0443975 0.000417496 2.99166e-07
0.000417496 0.0450803 4.79215e-07
2.99166e-07 4.79215e-07 0.0366352

0.0426082 -0.0027445 1.50317e-08
-0.0027445 0.0395071 2.78892e-09
1.50317e-08 2.78892e-09 0.0362886

0.0426019 -0.00251248 7.38453e-08
-0.00251248 0.0442667 -2.23364e-07
7.38453e-08 -2.23364e-07 0.0365628

0.0451182 0.000331557 4.97877e-08
0.000331557 0.0454679 4.09663e-07
4.97877e-08 4.09663e-07 0.0366534

0.0436373 -0.00278344 -8.61281e-08
-0.00278344 0.0389162 1.26109e-07
-8.61281e-08 1.26109e-07 0.0363292

0.0435119 0.00283908 3.88894e-07
0.00283908 0.0390688 -5.40486e-08
3.88894e-07 -5.40486e-08 0.0363673

0.0451938 -0.000471254 2.96627e-08
-0.000471254 0.0455815 6.39346e-07
2.96627e-08 6.39346e-07 0.0367021

0.045227 -0.000425084 -2.2827e-07
-0.000425084 0.0443591 4.82421e-07
-2.2827e-07 4.82421e-07 0.0367204

0.0427994 0.00163813 1.61544e-07
0.00163813 0.0442493 -1.69674e-07
1.61544e-07 -1.69674e-07 0.0366065

0.0411159 0.00361885 4.21781e-08
0.00361885 0.0405155 1.67409e-07
4.21781e-08 1.67409e-07 0.0363211

SCALARS pressure float
LOOKUP_TABLE default
-60.05
19.3081
5.80309
21.29
15.8788
5.88704
-58.6732
7.78287
-3.80513
15.1244
-24.4313
7.61702
5.59184
12.279
23.3378
5.53872
18.5207
13.2069
-0.693187
6.75621
-0.905109
33.1354
5.80043
5.79651
6.6015
14.9025
-38.3845
6.67136
-15.2424
30.6267
5.17606
-15.6572
-42.0555
27.3264
20.7793
27.3593
31.885
19.8093
4.85935
-42.5987
-17.4073
31.9059
31.994
5.99332
-21.8047
-15.9758
-1.05276
-3.40574
6.54447
-16.2177
-18.9187
-15.3459
20.7557
-15.3731
20.3088
-33.1482
21.1298
-15.4603
21.1397
7.04456
21.7646
16.1187
-45.5613
12.7897
16.362
10.9049
21.5739
13.8278
5.77314
21.8169
20.8117
20.7824
-17.6909
11.6004
3.97368
-31.609
14.3566
10.996
14.1458
-8.72022
-28.9444
14.9777
20.163
-22.0377
-23.4293
-28.0916
7.09743
9.63219
-22.2155
37.7422
-15.509
38.4448
18.3045
10.7612
-15.1666
-15.8727
-30.221
14.7532
14.3656
4.59844
-10.7664
-21.9394
-25.1012
16.2127
14.0999
14.9614
18.6974
3.77446
-24.5581
26.5131
7.21719
-21.4087
-24.6117
14.8376
15.0778
-16.1457
20.1651
-29.1129
20.6288
-16.7293
-2.90504
23.834
21.7269
16.0328
26.6798
22.6316
21.7858
15.7083
-29.7806
-16.099
24.0918
21.6171
20.9892
22.0655
-22.0138
23.5875
-33.8369
5.46312
21.7543
23.6308
-21.9367
6.6762
-5.96699
15.0833
-30.4071
15.6237
7.83289
2.40726
5.17747
-9.3947
-0.458337
22.6414
-15.4546
5.29074
15.2039
21.5603
11.5079
-21.1132
-21.2637
10.7901
-2.84305
-15.1976
-21.2202
-15.1653
-20.9864
15.2795
-20.6358
-21.2015
-15.2079
-21.0637
19.0044
-15.941
-14.8245
12.0642
-14.4847
18.8027
19.0534
7.47242
18.048
11.7727
-16.249
15.288
14.9607
-21.5284
10.4263
-14.2213
16.0485
14.5954
17.0818
14.8349
10.3436
-26.976
-16.0823
-15.9581
21.9068
14.5254
14.6243
20.9225
22.4868
9.50243
21.7335
-0.385091
-8.17111
20.7787
-17.8387
19.9455
10.364
-21.5174
15.721
22.526
14.7311
9.39319
14.1896
21.0556
-7.83317
8.8273
-7.90897
14.6481
26.9277
26.5814
27.9606
26.3886
26.7244
26.291
13.8256
23.4304
24.0296
23.9738
23.4001
21.1928
21.8574
-8.26322
15.9333
28.1911
-3.18911
23.5762
23.2054
27.8344
-8.49392
28.0965
15.3444
-7.582
17.492
-8.25819
20.2271
29.6128
-7.48639
-8.10115
-29.5916
-18.189
19.5272
-31.9851
5.73391
-7.79434
-1.19001
28.2492
26.6403
30.4272
26.761
-34.8005
-8.18004
28.3374
8.07242
-8.29554
26.446
-6.29572
30.4721
-7.95447
27.0472
14.5658
14.7868
23.8453
10.0472
18.0211
8.11663
-29.8595
-24.5528
16.8068
1.75914
8.17907
-13.609
17.4357
11.6996
-8.1019
9.45181
-10.8237
7.51648
-10.7549
-8.48511
33.2652
19.1517
25.0884
25.3127
13.8288
-10.4048
26.4302
14.6848
-1.65956
-10.2742
-12.5645
17.5066
-7.48564
17.5745
-12.0415
-21.3502
-10.6085
-34.6808
15.5622
-7.76337
34.4433
-11.5782
16.8712
-8.40915
15.9726
-12.7585
4.28861
-51.1174
8.52111
-7.74704
21.3339
-8.15255
-0.123479
10.7151
21.124
-12.0609
-10.2011
-6.06879
14.3177
-10.1803
6.88743
6.38507
16.3054
-10.4198
-6.33089
-1.70292
-5.66099
-11.0787
-5.84521
15.3053
7.80745
-5.55658
-8.96084
7.80489
7.69375
-10.6749
16.3093
-27.2129
2.29241
-28.4809
-0.958174
-8.87753
-8.09583
-11.7784
-10.9421
-9.8804
-7.77542
-7.89878
16.6376
24.7781
12.1155
-0.292326
-0.825888
-5.67516
7.30461
-6.32125
-6.31854
24.924
-5.73059
14.1178
-15.9085
24.3254
5.96744
-0.391881
-5.64444
16.2749
2.4764
0.198333
2.44739
0.455199
-0.741582
-9.93065
-0.0963249
2.11256
15.0688
-1.28901
-1.40789
-0.999549
-0.389299
1.9646
8.05008
-1.19429
8.07752
5.5825
-0.436362
7.03462
5.48954
-3.87713
16.4764
-1.90407
23.0623
-21.9731
15.0439
15.6821
2.03895
-1.99815
12.5425
-26.5055
5.79152
-1.6586
-50.4818
30.4991
30.6358
5.82416
-1.14509
-1.04749
-0.850426
33.42
33.2947
13.0944
6.08128
6.66173
-28.9615
-1.28016
16.5333
-3.18336
-4.34875
-0.0176722
-25.2702
14.3029
-1.28093
2.86109
2.69248
-2.72393
-0.0500479
-3.21016
-4.0342
-37.9814
-33.6828
-0.128754
1.87378
-0.534791
-3.74484
-1.93727
-1.87839
-0.925014
-21.907
17.2495
-0.770066
12.5647
14.1833
-26.7635
6.28559
7.13612
18.4778
36.429
36.4615
22.6388
-1.75653
2.59892
-20.9292
36.1276
32.7614
32.8284
-24.8076
21.7759
30.5243
2.59841
15.7239
10.3707
17.1641
17.7259
12.5052
5.68072
-25.397
4.25939
10.4088
16.2438
-31.7089
28.3105
-52.7088
18.6847
10.2985
-10.6278
7.41672
5.45642
24.4747
9.41046
24.4077
4.10449
12.3995
30.6415
29.4672
-22.9896
17.4351
-70.2275
-74.3739
-67.1715
11.6479
-31.2586
-63.6049
-3.80415
-69.9329
16.4633
16.407
-73.749
5.21136
-39.7284
-70.7335
-37.7544
-71.8698
-39.4499
21.1373
-23.9594
-29.0427
-70.6173
4.83075
15.7573
-36.1883
6.05282
-63.6127
9.83534
3.8809
-67.896
-37.622
-66.4055
-23.7543
5.02832
20.5265
35.3734
36.7291
11.8114
36.853
36.9063
36.4946
36.4065
-24.4782
28.249
20.6691
21.9811
11.534
36.0624
36.0939
18.1204
-23.939
3.2458
-30.5249
-56.5948
-50.4721
36.1455
35.8262
35.3828
35.453
36.1614
35.6013
33.1118
37.3732
35.4027
36.0083
35.6405
34.1991
34.3356
35.8587
35.3115
