# vtk DataFile Version 3.0
vtk output at time 370
ASCII
DATASET UNSTRUCTURED_GRID
POINTS 626 float
-3.68058e-05 0.000978749 0 3.68058e-05 0.000978749 0 -0.000829194 0.00052125 0 
-0.0008235 0.0005 0 -0.000866 0.0004575 0 -0.000866 -0.0004575 0 
-0.0008235 -0.0005 0 -0.000829194 -0.00052125 0 -3.68058e-05 -0.000978749 0 
3.68058e-05 -0.000978749 0 0.000829194 -0.00052125 0 0.000866 -0.0004575 0 
0.000866 0.0004575 0 0.000829194 0.00052125 0 8.5e-05 0 0 
-3.68058e-05 0.000978749 -0.001 3.68058e-05 0.000978749 -0.001 -0.000829194 0.00052125 -0.001 
-0.0008235 0.0005 -0.001 -0.000866 0.0004575 -0.001 -0.000866 -0.0004575 -0.001 
-0.0008235 -0.0005 -0.001 -0.000829194 -0.00052125 -0.001 -3.68058e-05 -0.000978749 -0.001 
3.68058e-05 -0.000978749 -0.001 0.000829194 -0.00052125 -0.001 0.000866 -0.0004575 -0.001 
0.000866 0.0004575 -0.001 0.000829194 0.00052125 -0.001 8.5e-05 0 -0.001 
8.46223e-17 0.0009575 0 -0.000715996 0.000586607 0 -0.000602797 0.000651965 0 
-0.000489599 0.000717321 0 -0.000376401 0.000782678 0 -0.000263202 0.000848036 0 
-0.000150004 0.000913393 0 -0.000835948 0.000469948 0 -0.000866 -0.000326786 0 
-0.000866 -0.000196071 0 -0.000866 -6.53571e-05 0 -0.000866 6.53571e-05 0 
-0.000866 0.000196071 0 -0.000866 0.000326786 0 -0.000835948 -0.000469948 0 
-0.000150004 -0.000913393 0 -0.000263202 -0.000848036 0 -0.000376401 -0.000782678 0 
-0.000489599 -0.000717321 0 -0.000602797 -0.000651965 0 -0.000715996 -0.000586607 0 
8.47648e-17 -0.0009575 0 0.000715996 -0.000586607 0 0.000602797 -0.000651965 0 
0.000489599 -0.000717321 0 0.000376401 -0.000782678 0 0.000263202 -0.000848036 0 
0.000150004 -0.000913393 0 0.000829194 -0.00047875 0 0.000866 0.000326786 0 
0.000866 0.000196071 0 0.000866 6.53571e-05 0 0.000866 -6.53571e-05 0 
0.000866 -0.000196071 0 0.000866 -0.000326786 0 0.000829194 0.00047875 0 
0.000150004 0.000913393 0 0.000263202 0.000848036 0 0.000376401 0.000782678 0 
0.000489599 0.000717321 0 0.000602797 0.000651965 0 0.000715996 0.000586607 0 
5.29966e-05 6.64557e-05 0 -1.89143e-05 8.28689e-05 0 -7.65824e-05 3.68801e-05 0 
-7.65824e-05 -3.68801e-05 0 -1.89143e-05 -8.28689e-05 0 5.29966e-05 -6.64557e-05 0 
8.46223e-17 0.0009575 -0.001 -0.000715996 0.000586607 -0.001 -0.000602797 0.000651965 -0.001 
-0.000489599 0.000717321 -0.001 -0.000376401 0.000782678 -0.001 -0.000263202 0.000848036 -0.001 
-0.000150004 0.000913393 -0.001 -0.000835948 0.000469948 -0.001 -0.000866 -0.000326786 -0.001 
-0.000866 -0.000196071 -0.001 -0.000866 -6.53571e-05 -0.001 -0.000866 6.53571e-05 -0.001 
-0.000866 0.000196071 -0.001 -0.000866 0.000326786 -0.001 -0.000835948 -0.000469948 -0.001 
-0.000150004 -0.000913393 -0.001 -0.000263202 -0.000848036 -0.001 -0.000376401 -0.000782678 -0.001 
-0.000489599 -0.000717321 -0.001 -0.000602797 -0.000651965 -0.001 -0.000715996 -0.000586607 -0.001 
8.47648e-17 -0.0009575 -0.001 0.000715996 -0.000586607 -0.001 0.000602797 -0.000651965 -0.001 
0.000489599 -0.000717321 -0.001 0.000376401 -0.000782678 -0.001 0.000263202 -0.000848036 -0.001 
0.000150004 -0.000913393 -0.001 0.000829194 -0.00047875 -0.001 0.000866 0.000326786 -0.001 
0.000866 0.000196071 -0.001 0.000866 6.53571e-05 -0.001 0.000866 -6.53571e-05 -0.001 
0.000866 -0.000196071 -0.001 0.000866 -0.000326786 -0.001 0.000829194 0.00047875 -0.001 
0.000150004 0.000913393 -0.001 0.000263202 0.000848036 -0.001 0.000376401 0.000782678 -0.001 
0.000489599 0.000717321 -0.001 0.000602797 0.000651965 -0.001 0.000715996 0.000586607 -0.001 
5.29966e-05 6.64557e-05 -0.001 -1.89143e-05 8.28689e-05 -0.001 -7.65824e-05 3.68801e-05 -0.001 
-7.65824e-05 -3.68801e-05 -0.001 -1.89143e-05 -8.28689e-05 -0.001 5.29966e-05 -6.64557e-05 -0.001 
0.000131234 6.38474e-05 0 0.00012964 -6.2443e-05 0 3.13827e-05 0.0001394 0 
3.12554e-05 -0.000136939 0 -0.000140461 8.25467e-19 0 -8.90565e-05 -0.000102707 0 
-9.04142e-05 0.000102872 0 -0.000765769 -0.00025965 0 -0.000756873 0.000262774 0 
-0.00015609 0.000787505 0 -0.000155807 -0.00079355 0 0.000605069 0.000528035 0 
0.000608694 -0.00052497 0 0.000744069 0.000116929 0 -0.000494418 0.000596218 0 
-0.000483866 -0.000584648 0 0.000269496 0.000702219 0 0.000263201 -0.000717324 0 
0.000754429 -0.000127825 0 -0.000748858 5.84659e-07 0 -0.000747838 0.000373886 0 
-0.0006542 0.000324842 0 -0.000645137 0.000210123 0 -0.000550884 0.000274171 0 
-0.000538857 0.000163195 0 -0.00045062 0.000224461 0 -0.000438393 0.000123907 0 
-0.000354088 0.000181668 0 -0.000363908 0.000282171 0 -0.000270361 0.000239477 0 
-0.000279138 0.000337653 0 -0.000188888 0.000294791 0 -0.000196448 0.000393271 0 
-0.000104767 0.000348259 0 -0.000113332 0.000449012 0 -2.01066e-05 0.000403223 0 
-2.89189e-05 0.000507105 0 6.9524e-05 0.000461596 0 -0.000213644 0.000490203 0 
7.33757e-05 0.000357726 0 0.000163331 0.00041299 0 0.000163359 0.000313022 0 
0.000248077 0.000366368 0 0.000250914 0.000265758 0 0.000335709 0.000322266 0 
0.000340555 0.000218148 0 0.000427299 0.000276717 0 0.000431508 0.000173093 0 
0.000328731 0.000425633 0 0.00034586 0.000114823 0 0.000435362 7.05241e-05 0 
0.000350892 1.5455e-05 0 0.000441547 -3.11896e-05 0 0.000353547 -8.47783e-05 0 
0.000445767 -0.000132964 0 0.000356135 -0.000186358 0 0.000449094 -0.000234674 0 
0.000359978 -0.000287876 0 0.00026856 -0.000240545 0 0.000271895 -0.000341045 0 
0.000181792 -0.00029305 0 0.00018533 -0.000392851 0 9.75701e-05 -0.00034483 0 
9.98764e-05 -0.000444884 0 8.75116e-06 -0.000396343 0 1.20916e-05 -0.000500496 0 
-7.83929e-05 -0.000449843 0 -8.1471e-05 -0.000347249 0 -0.000171566 -0.000403733 0 
-0.000169889 -0.000298891 0 -0.000259867 -0.000354132 0 -0.000257696 -0.000249137 0 
-0.00034313 -0.000299896 0 -0.000344514 -0.000199127 0 -0.000434309 -0.000250039 0 
-0.000169832 -0.000505815 0 -0.000435227 -0.000146227 0 0.000280331 -0.000442424 0 
-0.000340889 8.76793e-05 0 -0.000515252 4.06198e-05 0 6.50491e-05 0.000568253 0 
0.00053278 1.74743e-05 0 0.000522071 0.000229831 0 -0.00037162 0.000391659 0 
-0.000255272 -0.000150439 0 -0.000442893 -0.000350705 0 0.000450067 -0.000332559 0 
0.000545175 -0.000276306 0 -0.000527797 -0.000197598 0 0.000105306 -0.000551033 0 
1.45836e-05 -0.000609147 0 0.00017145 0.000214453 0 0.000515525 0.000341711 0 
0.000636086 0.000290368 0 -0.000558657 0.000404468 0 -4.01232e-05 0.000616718 0 
6.60192e-05 0.000696422 0 -0.000101806 0.0002546 0 0.000271142 -3.88908e-05 0 
0.000179455 -0.00018534 0 -8.79553e-05 -0.000254307 0 -0.000749267 -0.000373451 0 
-0.000655941 -0.000323397 0 0.000709746 0.000466718 0 0.000698426 -0.000473086 0 
-5.25801e-05 -0.00084886 0 -4.93005e-05 0.000848038 0 0.000617396 -0.000413362 0 
0.000702056 -0.000369817 0 0.000131459 -0.000679171 0 2.48171e-05 -0.000715924 0 
-0.000664217 -0.00042729 0 -0.000528828 -8.80444e-05 0 -0.000611101 -0.000136672 0 
-0.000426972 -4.45841e-05 0 0.000800669 0.000378216 0 0.000821144 -0.000415062 0 
7.2799e-05 0.00088254 0 6.81831e-05 -0.00087503 0 0.000104963 -0.000788946 0 
-7.40696e-05 -0.000660054 0 0.000126061 0.000809943 0 0.000764361 0.000295682 0 
0.000166862 0.000630623 0 0.000516462 -0.00046707 0 -0.000563585 -0.000389606 0 
-0.000622598 -1.40238e-05 0 0.000629891 0.000171529 0 2.5614e-06 -0.000299794 0 
8.6901e-05 -0.00024329 0 0.000272045 -0.000136982 0 -0.00075148 0.000138321 0 
0.000209366 -0.000599589 0 0.000324913 -0.000630055 0 0.000614044 0.00041245 0 
0.00049651 -0.000573327 0 0.000394822 -0.000507321 0 -0.000173714 -0.000206698 0 
0.000264897 5.63722e-05 0 0.000247997 0.000152811 0 -4.63327e-05 -0.000920208 0 
9.18688e-05 0.000258626 0 -5.54111e-06 0.000290558 0 -0.000184219 0.000201484 0 
-0.000263559 0.000142267 0 -0.000256427 5.13624e-05 0 -0.000336894 -2.06179e-06 0 
-0.000228499 -4.2388e-05 0 -0.00017589 0.000106626 0 -0.000769947 -0.000133367 0 
0.000767591 -0.000500293 0 -5.05874e-05 0.000737978 0 0.000754456 -3.51771e-06 0 
0.00064691 -6.15298e-05 0 0.000630483 -0.00018134 0 0.000749187 -0.000265543 0 
-0.000760805 -0.000462521 0 0.000638155 6.09315e-05 0 -4.46661e-05 0.000922995 0 
-2.37945e-05 0.000207237 0 0.000776979 0.000500181 0 -0.000605691 0.000527596 0 
-0.000377914 -0.000653727 0 -0.000372325 -0.000526022 0 -0.000275829 -0.000589621 0 
-0.000254285 -0.000710579 0 -0.000379307 0.000656222 0 -0.000379818 0.00052718 0 
-0.000266817 0.000721555 0 -0.000150544 0.000668174 0 0.000381963 0.00065079 0 
0.000493113 0.000590432 0 0.000505439 0.000463708 0 -0.000269094 0.000596608 0 
0.000385815 0.000532045 0 0.000283599 0.0005899 0 -0.000176405 -0.000108505 0 
-0.000278769 -0.000475415 0 0.000185395 2.33014e-06 0 0.000186773 0.000517571 0 
0.000540032 -8.68444e-05 0 -0.000600694 -0.000514877 0 -0.00063703 8.98033e-05 0 
-0.000459677 0.000335729 0 -0.000338836 -0.000100751 0 -0.000457327 0.000432721 0 
-8.72007e-06 -0.000210238 0 0.000156073 0.000129496 0 -7.70692e-05 -0.000555049 0 
0.00036091 -0.000389728 0 0.000531628 0.000120564 0 -0.000285451 0.000435562 0 
0.000192719 -0.000494604 0 0.00041642 0.00039368 0 -0.000135943 0.000554637 0 
-0.000170665 -0.000610079 0 -0.000666304 0.000434981 0 -0.000758736 0.000479231 0 
-0.000470189 -0.000458901 0 0.000203433 -8.59809e-05 0 0.000101846 0.000170114 0 
-0.00035513 -0.00040726 0 0.000100184 -0.000165831 0 2.96286e-05 0.00081537 0 
0.000720946 0.000381836 0 -0.000539809 -0.000292001 0 0.00052211 -0.000182426 0 
-6.41339e-05 -0.000753908 0 0.000638039 -0.000299861 0 -0.000605136 -0.000230182 0 
-3.41638e-05 -0.000145561 0 -0.000104037 0.000172396 0 -0.000808575 -0.00042774 0 
-0.000807207 -0.000465052 0 -0.00080817 0.000429771 0 -0.000806589 0.000469738 0 
-9.50634e-05 -0.000178909 0 0.000247777 0.000445058 0 1.48293e-05 -0.000814201 0 
-4.11555e-05 0.000140955 0 0.000276104 -0.000536845 0 0.000765969 -0.000436638 0 
0.000780871 -0.000362769 0 0.000424176 -0.000642018 0 0.00053413 -0.000368009 0 
-0.000416333 4.17911e-05 0 -0.000133891 -6.23822e-05 0 4.2574e-05 0.000206312 0 
0.000141163 -0.000121542 0 0.000707423 0.000212137 0 0.000172327 0.000723882 0 
7.72652e-06 -0.00090254 0 -0.000134435 5.66935e-05 0 -0.000188826 3.70894e-05 0 
0.000197119 8.09714e-05 0 1.27801e-05 0.000917296 0 0.000800767 0.00044758 0 
-0.000686682 0.000507104 0 9.35831e-05 0.000110457 0 -0.000696793 -0.000509595 0 
-0.00068446 -8.52012e-05 0 -0.000691033 -0.000201242 0 5.24052e-05 -0.000189075 0 
-0.000151818 -0.000701092 0 -0.000296988 0.000518087 0 9.31023e-05 -0.000108117 0 
0.00044261 -0.000416726 0 0.000197044 -0.000784423 0 -0.000516861 0.000504567 0 
0.000298997 0.000502377 0 0.000131234 6.38474e-05 -0.001 0.00012964 -6.2443e-05 -0.001 
3.13827e-05 0.0001394 -0.001 3.12554e-05 -0.000136939 -0.001 -0.000140461 8.25467e-19 -0.001 
-8.90565e-05 -0.000102707 -0.001 -9.04142e-05 0.000102872 -0.001 -0.000765769 -0.00025965 -0.001 
-0.000756873 0.000262774 -0.001 -0.00015609 0.000787505 -0.001 -0.000155807 -0.00079355 -0.001 
0.000605069 0.000528035 -0.001 0.000608694 -0.00052497 -0.001 0.000744069 0.000116929 -0.001 
-0.000494418 0.000596218 -0.001 -0.000483866 -0.000584648 -0.001 0.000269496 0.000702219 -0.001 
0.000263201 -0.000717324 -0.001 0.000754429 -0.000127825 -0.001 -0.000748858 5.84659e-07 -0.001 
-0.000747838 0.000373886 -0.001 -0.0006542 0.000324842 -0.001 -0.000645137 0.000210123 -0.001 
-0.000550884 0.000274171 -0.001 -0.000538857 0.000163195 -0.001 -0.00045062 0.000224461 -0.001 
-0.000438393 0.000123907 -0.001 -0.000354088 0.000181668 -0.001 -0.000363908 0.000282171 -0.001 
-0.000270361 0.000239477 -0.001 -0.000279138 0.000337653 -0.001 -0.000188888 0.000294791 -0.001 
-0.000196448 0.000393271 -0.001 -0.000104767 0.000348259 -0.001 -0.000113332 0.000449012 -0.001 
-2.01066e-05 0.000403223 -0.001 -2.89189e-05 0.000507105 -0.001 6.9524e-05 0.000461596 -0.001 
-0.000213644 0.000490203 -0.001 7.33757e-05 0.000357726 -0.001 0.000163331 0.00041299 -0.001 
0.000163359 0.000313022 -0.001 0.000248077 0.000366368 -0.001 0.000250914 0.000265758 -0.001 
0.000335709 0.000322266 -0.001 0.000340555 0.000218148 -0.001 0.000427299 0.000276717 -0.001 
0.000431508 0.000173093 -0.001 0.000328731 0.000425633 -0.001 0.00034586 0.000114823 -0.001 
0.000435362 7.05241e-05 -0.001 0.000350892 1.5455e-05 -0.001 0.000441547 -3.11896e-05 -0.001 
0.000353547 -8.47783e-05 -0.001 0.000445767 -0.000132964 -0.001 0.000356135 -0.000186358 -0.001 
0.000449094 -0.000234674 -0.001 0.000359978 -0.000287876 -0.001 0.00026856 -0.000240545 -0.001 
0.000271895 -0.000341045 -0.001 0.000181792 -0.00029305 -0.001 0.00018533 -0.000392851 -0.001 
9.75701e-05 -0.00034483 -0.001 9.98764e-05 -0.000444884 -0.001 8.75116e-06 -0.000396343 -0.001 
1.20916e-05 -0.000500496 -0.001 -7.83929e-05 -0.000449843 -0.001 -8.1471e-05 -0.000347249 -0.001 
-0.000171566 -0.000403733 -0.001 -0.000169889 -0.000298891 -0.001 -0.000259867 -0.000354132 -0.001 
-0.000257696 -0.000249137 -0.001 -0.00034313 -0.000299896 -0.001 -0.000344514 -0.000199127 -0.001 
-0.000434309 -0.000250039 -0.001 -0.000169832 -0.000505815 -0.001 -0.000435227 -0.000146227 -0.001 
0.000280331 -0.000442424 -0.001 -0.000340889 8.76793e-05 -0.001 -0.000515252 4.06198e-05 -0.001 
6.50491e-05 0.000568253 -0.001 0.00053278 1.74743e-05 -0.001 0.000522071 0.000229831 -0.001 
-0.00037162 0.000391659 -0.001 -0.000255272 -0.000150439 -0.001 -0.000442893 -0.000350705 -0.001 
0.000450067 -0.000332559 -0.001 0.000545175 -0.000276306 -0.001 -0.000527797 -0.000197598 -0.001 
0.000105306 -0.000551033 -0.001 1.45836e-05 -0.000609147 -0.001 0.00017145 0.000214453 -0.001 
0.000515525 0.000341711 -0.001 0.000636086 0.000290368 -0.001 -0.000558657 0.000404468 -0.001 
-4.01232e-05 0.000616718 -0.001 6.60192e-05 0.000696422 -0.001 -0.000101806 0.0002546 -0.001 
0.000271142 -3.88908e-05 -0.001 0.000179455 -0.00018534 -0.001 -8.79553e-05 -0.000254307 -0.001 
-0.000749267 -0.000373451 -0.001 -0.000655941 -0.000323397 -0.001 0.000709746 0.000466718 -0.001 
0.000698426 -0.000473086 -0.001 -5.25801e-05 -0.00084886 -0.001 -4.93005e-05 0.000848038 -0.001 
0.000617396 -0.000413362 -0.001 0.000702056 -0.000369817 -0.001 0.000131459 -0.000679171 -0.001 
2.48171e-05 -0.000715924 -0.001 -0.000664217 -0.00042729 -0.001 -0.000528828 -8.80444e-05 -0.001 
-0.000611101 -0.000136672 -0.001 -0.000426972 -4.45841e-05 -0.001 0.000800669 0.000378216 -0.001 
0.000821144 -0.000415062 -0.001 7.2799e-05 0.00088254 -0.001 6.81831e-05 -0.00087503 -0.001 
0.000104963 -0.000788946 -0.001 -7.40696e-05 -0.000660054 -0.001 0.000126061 0.000809943 -0.001 
0.000764361 0.000295682 -0.001 0.000166862 0.000630623 -0.001 0.000516462 -0.00046707 -0.001 
-0.000563585 -0.000389606 -0.001 -0.000622598 -1.40238e-05 -0.001 0.000629891 0.000171529 -0.001 
2.5614e-06 -0.000299794 -0.001 8.6901e-05 -0.00024329 -0.001 0.000272045 -0.000136982 -0.001 
-0.00075148 0.000138321 -0.001 0.000209366 -0.000599589 -0.001 0.000324913 -0.000630055 -0.001 
0.000614044 0.00041245 -0.001 0.00049651 -0.000573327 -0.001 0.000394822 -0.000507321 -0.001 
-0.000173714 -0.000206698 -0.001 0.000264897 5.63722e-05 -0.001 0.000247997 0.000152811 -0.001 
-4.63327e-05 -0.000920208 -0.001 9.18688e-05 0.000258626 -0.001 -5.54111e-06 0.000290558 -0.001 
-0.000184219 0.000201484 -0.001 -0.000263559 0.000142267 -0.001 -0.000256427 5.13624e-05 -0.001 
-0.000336894 -2.06179e-06 -0.001 -0.000228499 -4.2388e-05 -0.001 -0.00017589 0.000106626 -0.001 
-0.000769947 -0.000133367 -0.001 0.000767591 -0.000500293 -0.001 -5.05874e-05 0.000737978 -0.001 
0.000754456 -3.51771e-06 -0.001 0.00064691 -6.15298e-05 -0.001 0.000630483 -0.00018134 -0.001 
0.000749187 -0.000265543 -0.001 -0.000760805 -0.000462521 -0.001 0.000638155 6.09315e-05 -0.001 
-4.46661e-05 0.000922995 -0.001 -2.37945e-05 0.000207237 -0.001 0.000776979 0.000500181 -0.001 
-0.000605691 0.000527596 -0.001 -0.000377914 -0.000653727 -0.001 -0.000372325 -0.000526022 -0.001 
-0.000275829 -0.000589621 -0.001 -0.000254285 -0.000710579 -0.001 -0.000379307 0.000656222 -0.001 
-0.000379818 0.00052718 -0.001 -0.000266817 0.000721555 -0.001 -0.000150544 0.000668174 -0.001 
0.000381963 0.00065079 -0.001 0.000493113 0.000590432 -0.001 0.000505439 0.000463708 -0.001 
-0.000269094 0.000596608 -0.001 0.000385815 0.000532045 -0.001 0.000283599 0.0005899 -0.001 
-0.000176405 -0.000108505 -0.001 -0.000278769 -0.000475415 -0.001 0.000185395 2.33014e-06 -0.001 
0.000186773 0.000517571 -0.001 0.000540032 -8.68444e-05 -0.001 -0.000600694 -0.000514877 -0.001 
-0.00063703 8.98033e-05 -0.001 -0.000459677 0.000335729 -0.001 -0.000338836 -0.000100751 -0.001 
-0.000457327 0.000432721 -0.001 -8.72007e-06 -0.000210238 -0.001 0.000156073 0.000129496 -0.001 
-7.70692e-05 -0.000555049 -0.001 0.00036091 -0.000389728 -0.001 0.000531628 0.000120564 -0.001 
-0.000285451 0.000435562 -0.001 0.000192719 -0.000494604 -0.001 0.00041642 0.00039368 -0.001 
-0.000135943 0.000554637 -0.001 -0.000170665 -0.000610079 -0.001 -0.000666304 0.000434981 -0.001 
-0.000758736 0.000479231 -0.001 -0.000470189 -0.000458901 -0.001 0.000203433 -8.59809e-05 -0.001 
0.000101846 0.000170114 -0.001 -0.00035513 -0.00040726 -0.001 0.000100184 -0.000165831 -0.001 
2.96286e-05 0.00081537 -0.001 0.000720946 0.000381836 -0.001 -0.000539809 -0.000292001 -0.001 
0.00052211 -0.000182426 -0.001 -6.41339e-05 -0.000753908 -0.001 0.000638039 -0.000299861 -0.001 
-0.000605136 -0.000230182 -0.001 -3.41638e-05 -0.000145561 -0.001 -0.000104037 0.000172396 -0.001 
-0.000808575 -0.00042774 -0.001 -0.000807207 -0.000465052 -0.001 -0.00080817 0.000429771 -0.001 
-0.000806589 0.000469738 -0.001 -9.50634e-05 -0.000178909 -0.001 0.000247777 0.000445058 -0.001 
1.48293e-05 -0.000814201 -0.001 -4.11555e-05 0.000140955 -0.001 0.000276104 -0.000536845 -0.001 
0.000765969 -0.000436638 -0.001 0.000780871 -0.000362769 -0.001 0.000424176 -0.000642018 -0.001 
0.00053413 -0.000368009 -0.001 -0.000416333 4.17911e-05 -0.001 -0.000133891 -6.23822e-05 -0.001 
4.2574e-05 0.000206312 -0.001 0.000141163 -0.000121542 -0.001 0.000707423 0.000212137 -0.001 
0.000172327 0.000723882 -0.001 7.72652e-06 -0.00090254 -0.001 -0.000134435 5.66935e-05 -0.001 
-0.000188826 3.70894e-05 -0.001 0.000197119 8.09714e-05 -0.001 1.27801e-05 0.000917296 -0.001 
0.000800767 0.00044758 -0.001 -0.000686682 0.000507104 -0.001 9.35831e-05 0.000110457 -0.001 
-0.000696793 -0.000509595 -0.001 -0.00068446 -8.52012e-05 -0.001 -0.000691033 -0.000201242 -0.001 
5.24052e-05 -0.000189075 -0.001 -0.000151818 -0.000701092 -0.001 -0.000296988 0.000518087 -0.001 
9.31023e-05 -0.000108117 -0.001 0.00044261 -0.000416726 -0.001 0.000197044 -0.000784423 -0.001 
-0.000516861 0.000504567 -0.001 0.000298997 0.000502377 -0.001 

CELLS 563 3941
6 14 304 127 29 554 377 
6 143 259 55 393 509 103 
6 300 319 174 550 569 424 
6 259 349 55 509 599 103 
6 50 365 307 98 615 557 
6 299 320 164 549 570 414 
6 126 304 14 376 554 29 
6 298 319 300 548 569 550 
6 205 240 238 455 490 488 
6 257 308 145 507 558 395 
6 130 352 273 380 602 523 
6 295 320 299 545 570 549 
6 324 327 289 574 577 539 
6 235 258 143 485 508 393 
6 50 307 49 98 557 97 
6 207 283 279 457 533 529 
6 143 373 235 393 623 485 
6 145 308 252 395 558 502 
6 194 303 196 444 553 446 
6 279 306 207 529 556 457 
6 206 305 163 456 555 413 
6 51 357 9 99 607 24 
6 238 252 205 488 502 455 
6 293 317 209 543 567 459 
6 207 316 283 457 566 533 
6 142 301 249 392 551 499 
6 273 359 130 523 609 380 
6 211 327 324 461 577 574 
6 169 265 217 419 515 467 
6 7 365 50 22 615 98 
6 283 316 253 533 566 503 
6 159 268 223 409 518 473 
6 274 337 132 524 587 382 
6 232 361 329 482 611 579 
6 231 266 45 481 516 93 
6 229 362 330 479 612 580 
6 9 244 57 24 494 105 
6 230 276 52 480 526 100 
6 209 311 293 459 561 543 
6 131 342 302 381 592 552 
6 270 271 204 520 521 454 
6 66 243 1 114 493 16 
6 59 241 12 107 491 27 
6 280 306 279 530 556 529 
6 269 337 274 519 587 524 
6 179 256 224 429 506 474 
6 163 305 166 413 555 416 
6 201 303 194 451 553 444 
6 280 332 306 530 582 556 
6 186 255 225 436 505 475 
6 210 310 273 460 560 523 
6 153 270 204 403 520 454 
6 136 231 45 386 481 93 
6 171 265 169 421 515 419 
6 138 230 52 388 480 100 
6 225 354 325 475 604 575 
6 36 284 232 84 534 482 
6 161 268 159 411 518 409 
6 71 286 229 119 536 479 
6 290 303 201 540 553 451 
6 139 355 60 389 605 108 
6 60 355 248 108 605 498 
6 273 352 302 523 602 552 
6 235 373 245 485 623 495 
6 67 356 247 115 606 497 
6 221 295 277 471 545 527 
6 142 356 67 392 606 115 
6 139 283 253 389 533 503 
6 203 315 262 453 565 512 
6 41 257 145 89 507 395 
6 36 232 135 84 482 385 
6 71 229 137 119 479 387 
6 254 255 188 504 505 438 
6 233 350 334 483 600 584 
6 262 346 203 512 596 453 
6 304 325 127 554 575 377 
6 222 329 247 472 579 497 
6 218 298 260 468 548 510 
6 290 321 291 540 571 541 
6 272 310 240 522 560 490 
6 269 274 270 519 524 520 
6 244 245 57 494 495 105 
6 49 307 141 97 557 391 
6 225 325 256 475 575 506 
6 273 310 272 523 560 522 
6 312 368 255 562 618 505 
6 249 305 206 499 555 456 
6 228 331 251 478 581 501 
6 302 342 263 552 592 513 
6 338 339 44 588 589 92 
6 190 254 188 440 504 438 
6 37 341 340 85 591 590 
6 138 233 230 388 483 480 
6 228 335 331 478 585 581 
6 181 256 179 431 506 429 
6 195 263 226 445 513 476 
6 268 285 223 518 535 473 
6 290 291 288 540 541 538 
6 219 330 248 469 580 498 
6 201 321 290 451 571 540 
6 240 310 202 490 560 452 
6 188 255 186 438 505 436 
6 270 274 271 520 524 521 
6 262 349 259 512 599 509 
6 141 324 289 391 574 539 
6 296 301 142 546 551 392 
6 247 356 222 497 606 472 
6 239 252 238 489 502 488 
6 254 312 255 504 562 505 
6 54 261 53 102 511 101 
6 289 327 303 539 577 553 
6 268 353 285 518 603 535 
6 273 302 210 523 552 460 
6 292 299 293 542 549 543 
6 278 283 139 528 533 389 
6 175 265 171 425 515 421 
6 227 338 38 477 588 86 
6 264 360 265 514 610 515 
6 43 340 146 91 590 396 
6 165 268 161 415 518 411 
6 205 351 240 455 601 490 
6 64 281 63 112 531 111 
6 288 291 47 538 541 95 
6 135 295 294 385 545 544 
6 42 257 41 90 507 89 
6 245 373 57 495 623 105 
6 31 363 323 79 613 573 
6 292 293 140 542 543 390 
6 267 353 268 517 603 518 
6 155 270 153 405 520 403 
6 244 344 245 494 594 495 
6 61 278 139 109 528 389 
6 135 294 35 385 544 83 
6 69 297 296 117 547 546 
6 186 225 184 436 475 434 
6 329 361 243 579 611 493 
6 255 328 225 505 578 475 
6 213 332 280 463 582 530 
6 39 275 133 87 525 383 
6 330 362 241 580 612 491 
6 195 226 193 445 476 443 
6 211 324 251 461 574 501 
6 151 153 152 401 403 402 
6 295 299 294 545 549 544 
6 265 313 217 515 563 467 
6 258 259 143 508 509 393 
6 251 331 211 501 581 461 
6 149 151 150 399 401 400 
6 293 370 317 543 620 567 
6 153 204 152 403 454 402 
6 151 152 150 401 402 400 
6 33 292 140 81 542 390 
6 210 263 197 460 513 447 
6 301 305 249 551 555 499 
6 298 300 297 548 550 547 
6 68 296 142 116 546 392 
6 321 369 291 571 619 541 
6 179 224 177 429 474 427 
6 167 267 165 417 517 415 
6 259 346 262 509 596 512 
6 303 327 196 553 577 446 
6 269 270 155 519 520 405 
6 265 360 313 515 610 563 
6 223 269 157 473 519 407 
6 157 269 155 407 519 405 
6 144 279 278 394 529 528 
6 169 217 167 419 467 417 
6 177 264 175 427 514 425 
6 267 268 165 517 518 415 
6 159 223 157 409 473 407 
6 232 277 135 482 527 385 
6 193 254 190 443 504 440 
6 217 267 167 467 517 417 
6 249 356 142 499 606 392 
6 184 256 181 434 506 431 
6 248 355 219 498 605 469 
6 229 260 137 479 510 387 
6 149 150 148 399 400 398 
6 64 348 281 112 598 531 
6 311 374 293 561 624 543 
6 264 265 175 514 515 425 
6 297 300 296 547 550 546 
6 141 289 288 391 539 538 
6 197 263 195 447 513 445 
6 218 260 219 468 510 469 
6 224 264 177 474 514 427 
6 137 298 297 387 548 547 
6 277 295 135 527 545 385 
6 133 228 227 383 478 477 
6 261 349 262 511 599 512 
6 221 277 222 471 527 472 
6 256 325 224 506 575 474 
6 199 210 197 449 460 447 
6 226 254 193 476 504 443 
6 144 278 62 394 528 110 
6 279 283 278 529 533 528 
6 289 290 288 539 540 538 
6 137 297 70 387 547 118 
6 34 294 292 82 544 542 
6 235 236 216 485 486 466 
6 141 288 48 391 538 96 
6 178 306 180 428 556 430 
6 185 186 184 435 436 434 
6 63 281 144 111 531 394 
6 225 256 184 475 506 434 
6 46 291 136 94 541 386 
6 147 149 148 397 399 398 
6 271 272 204 521 522 454 
6 233 334 234 483 584 484 
6 145 275 40 395 525 88 
6 220 322 287 470 572 537 
6 280 334 213 530 584 463 
6 144 280 279 394 530 529 
6 140 287 32 390 537 80 
6 154 155 153 404 405 403 
6 334 350 213 584 600 463 
6 176 177 175 426 427 425 
6 260 298 137 510 548 387 
6 33 140 32 81 390 80 
6 49 141 48 97 391 96 
6 56 143 55 104 393 103 
6 68 142 67 116 392 115 
6 63 144 62 111 394 110 
6 61 139 60 109 389 108 
6 148 308 257 398 558 507 
6 71 137 70 119 387 118 
6 53 138 52 101 388 100 
6 46 136 45 94 386 93 
6 36 135 35 84 385 83 
6 43 146 134 91 396 384 
6 133 227 38 383 477 86 
6 192 193 190 442 443 440 
6 293 374 140 543 624 390 
6 34 292 33 82 542 81 
6 207 306 178 457 556 428 
6 43 134 42 91 384 90 
6 39 133 38 87 383 86 
6 41 145 40 89 395 88 
6 194 195 193 444 445 443 
6 69 296 68 117 546 116 
6 294 299 292 544 549 542 
6 173 175 171 423 425 421 
6 260 330 219 510 580 469 
6 183 184 181 433 434 431 
6 134 257 42 384 507 90 
6 55 349 54 103 599 102 
6 163 165 161 413 415 411 
6 166 167 165 416 417 415 
6 210 302 263 460 552 513 
6 271 273 272 521 523 522 
6 53 261 138 101 511 388 
6 217 326 267 467 576 517 
6 289 303 290 539 553 540 
6 178 179 177 428 429 427 
6 238 240 202 488 490 452 
6 62 278 61 110 528 109 
6 35 294 34 83 544 82 
6 284 361 232 534 611 482 
6 70 297 69 118 547 117 
6 224 304 264 474 554 514 
6 156 157 155 406 407 405 
6 48 288 47 96 538 95 
6 221 320 295 471 570 545 
6 187 188 186 437 438 436 
6 47 291 46 95 541 94 
6 151 154 153 401 404 403 
6 286 362 229 536 612 479 
6 168 169 167 418 419 417 
6 40 275 39 88 525 87 
6 307 324 141 557 574 391 
6 300 301 296 550 551 546 
6 32 287 31 80 537 79 
6 147 220 149 397 470 399 
6 333 344 231 583 594 481 
6 299 370 293 549 620 543 
6 271 359 273 521 609 523 
6 224 325 304 474 575 554 
6 228 237 227 478 487 477 
6 305 375 343 555 625 593 
6 218 319 298 468 569 548 
6 240 351 272 490 601 522 
6 277 329 222 527 579 472 
6 253 355 139 503 605 389 
6 158 159 157 408 409 407 
6 236 246 216 486 496 466 
6 192 194 193 442 444 443 
6 220 309 149 470 559 399 
6 183 185 184 433 435 434 
6 196 197 195 446 447 445 
6 276 347 58 526 597 106 
6 136 333 231 386 583 481 
6 67 247 66 115 497 114 
6 60 248 59 108 498 107 
6 261 262 250 511 512 500 
6 173 176 175 423 426 425 
6 344 357 231 594 607 481 
6 144 281 280 394 531 530 
6 152 205 150 402 455 400 
6 163 166 165 413 416 415 
6 185 187 186 435 437 436 
6 233 234 230 483 484 480 
6 170 171 169 420 421 419 
6 146 147 134 396 397 384 
6 176 178 177 426 428 427 
6 285 337 223 535 587 473 
6 154 156 155 404 406 405 
6 263 342 226 513 592 476 
6 235 245 236 485 495 486 
6 160 161 159 410 411 409 
6 58 347 242 106 597 492 
6 166 168 167 416 418 417 
6 287 374 220 537 624 470 
6 189 190 188 439 440 438 
6 148 257 134 398 507 384 
6 194 196 195 444 446 445 
6 252 308 205 502 558 455 
6 285 345 337 535 595 587 
6 301 375 305 551 625 555 
6 180 181 179 430 431 429 
6 281 348 234 531 598 484 
6 198 199 197 448 449 447 
6 151 309 154 401 559 404 
6 228 367 335 478 617 585 
6 54 349 261 102 599 511 
6 156 158 157 406 408 407 
6 168 170 169 418 420 419 
6 200 202 199 450 452 449 
6 147 148 134 397 398 384 
6 158 160 159 408 410 409 
6 150 308 148 400 558 398 
6 253 316 208 503 566 458 
6 232 329 277 482 579 527 
6 178 180 179 428 430 429 
6 191 192 190 441 442 440 
6 214 238 202 464 488 452 
6 172 173 171 422 423 421 
6 187 189 188 437 439 438 
6 162 163 161 412 413 411 
6 228 251 237 478 501 487 
6 215 258 235 465 508 485 
6 182 183 181 432 433 431 
6 202 310 199 452 560 449 
6 219 253 208 469 503 458 
6 222 249 206 472 499 456 
6 196 198 197 446 448 447 
6 229 330 260 479 580 510 
6 132 358 274 382 608 524 
6 149 309 151 399 559 401 
6 226 312 254 476 562 504 
6 154 309 209 404 559 459 
6 77 129 76 125 379 124 
6 73 128 72 121 378 120 
6 76 131 75 124 381 123 
6 74 132 73 122 382 121 
6 75 130 74 123 380 122 
6 14 127 77 29 377 125 
6 72 126 14 120 376 29 
6 133 367 228 383 617 478 
6 237 282 227 487 532 477 
6 239 366 252 489 616 502 
6 200 214 202 450 464 452 
6 192 201 194 442 451 444 
6 170 172 171 420 422 421 
6 220 311 309 470 561 559 
6 198 200 199 448 450 449 
6 189 191 190 439 441 440 
6 146 323 322 396 573 572 
6 160 162 161 410 412 411 
6 251 307 237 501 557 487 
6 199 310 210 449 560 460 
6 57 373 56 105 623 104 
6 214 239 238 464 489 488 
6 182 212 183 432 462 433 
6 180 182 181 430 432 431 
6 146 322 147 396 572 397 
6 172 218 208 422 468 458 
6 172 208 173 422 458 423 
6 162 221 206 412 471 456 
6 162 206 163 412 456 413 
6 176 207 178 426 457 428 
6 272 351 204 522 601 454 
6 198 211 200 448 461 450 
6 182 213 212 432 463 462 
6 234 334 281 484 584 531 
6 154 209 156 404 459 406 
6 185 203 187 435 453 437 
6 168 174 170 418 424 420 
6 189 215 191 439 465 441 
6 215 216 191 465 466 441 
6 221 222 206 471 472 456 
6 158 164 160 408 414 410 
6 218 219 208 468 469 458 
6 205 308 150 455 558 400 
6 191 314 192 441 564 442 
6 215 235 216 465 485 466 
6 215 318 258 465 568 508 
6 152 351 205 402 601 455 
6 138 261 250 388 511 500 
6 192 314 201 442 564 451 
6 234 347 230 484 597 480 
6 226 342 312 476 592 562 
6 138 250 233 388 500 483 
6 147 322 220 397 572 470 
6 216 314 191 466 564 441 
6 306 332 180 556 582 430 
6 222 356 249 472 606 499 
6 128 345 285 378 595 535 
6 314 321 201 564 571 451 
6 212 315 183 462 565 433 
6 312 342 336 562 592 586 
6 282 339 338 532 589 588 
6 340 341 323 590 591 573 
6 309 311 209 559 561 459 
6 183 315 185 433 565 435 
6 208 316 173 458 566 423 
6 173 316 176 423 566 426 
6 3 341 37 18 591 85 
6 44 339 6 92 589 21 
6 252 366 145 502 616 395 
6 246 321 314 496 571 564 
6 246 314 216 496 564 466 
6 126 364 313 376 614 563 
6 156 317 158 406 567 408 
6 275 367 133 525 617 383 
6 176 316 207 426 566 457 
6 185 315 203 435 565 453 
6 180 332 182 430 582 432 
6 302 352 131 552 602 381 
6 251 324 307 501 574 557 
6 187 318 189 437 568 439 
6 172 319 218 422 569 468 
6 162 320 221 412 570 471 
6 305 343 166 555 593 416 
6 170 319 172 420 569 422 
6 158 317 164 408 567 414 
6 209 317 156 459 567 406 
6 285 353 128 535 603 378 
6 223 337 269 473 587 519 
6 160 320 162 410 570 412 
6 211 331 200 461 581 450 
6 174 319 170 424 569 420 
6 203 318 187 453 568 437 
6 189 318 215 439 568 465 
6 198 327 211 448 577 461 
6 164 320 160 414 570 410 
6 326 353 267 576 603 517 
6 236 344 333 486 594 583 
6 196 327 198 446 577 448 
6 219 355 253 469 605 503 
6 281 334 280 531 584 530 
6 274 359 271 524 609 521 
6 164 370 299 414 620 549 
6 174 375 300 424 625 550 
6 287 363 31 537 613 79 
6 243 361 1 493 611 16 
6 241 362 12 491 612 27 
6 307 365 237 557 615 487 
6 166 343 168 416 593 418 
6 200 331 214 450 581 464 
6 313 326 217 563 576 467 
6 9 357 244 24 607 494 
6 1 361 30 16 611 78 
6 12 362 65 27 612 113 
6 337 345 132 587 595 382 
6 242 348 64 492 598 112 
6 231 357 266 481 607 516 
6 182 332 213 432 582 463 
6 245 344 236 495 594 486 
6 258 346 259 508 596 509 
6 145 366 275 395 616 525 
6 291 369 136 541 619 386 
6 236 333 246 486 583 496 
6 331 335 214 581 585 464 
6 312 336 129 562 586 379 
6 315 372 262 565 622 512 
6 220 374 311 470 624 561 
6 140 374 287 390 624 537 
6 126 360 304 376 610 554 
6 230 347 276 480 597 526 
6 313 364 326 563 614 576 
6 56 373 143 104 623 393 
6 239 367 366 489 617 616 
6 204 351 152 454 601 402 
6 300 375 301 550 625 551 
6 214 335 239 464 585 489 
6 247 329 243 497 579 493 
6 262 372 250 512 622 500 
6 248 330 241 498 580 491 
6 318 346 258 568 596 508 
6 333 369 246 583 619 496 
6 282 338 227 532 588 477 
6 146 340 323 396 590 573 
6 304 360 264 554 610 514 
6 366 367 275 616 617 525 
6 129 336 76 379 586 124 
6 73 345 128 121 595 378 
6 76 336 131 124 586 381 
6 250 350 233 500 600 483 
6 129 371 328 379 621 578 
6 132 345 73 382 595 121 
6 168 343 174 418 593 424 
6 131 352 75 381 602 123 
6 66 247 243 114 497 493 
6 59 248 241 107 498 491 
6 74 358 132 122 608 382 
6 203 346 318 453 596 568 
6 313 360 126 563 610 376 
6 128 364 72 378 614 120 
6 128 353 326 378 603 576 
6 77 371 129 125 621 379 
6 129 368 312 379 618 562 
6 244 357 344 494 607 594 
6 328 354 225 578 604 475 
6 326 364 128 576 614 378 
6 75 352 130 123 602 380 
6 350 372 212 600 622 462 
6 136 369 333 386 619 583 
6 325 354 127 575 604 377 
6 213 350 212 463 600 462 
6 130 358 74 380 608 122 
6 250 372 350 500 622 600 
6 317 370 164 567 620 414 
6 72 364 126 120 614 376 
6 328 368 129 578 618 379 
6 127 371 77 377 621 125 
6 336 342 131 586 592 381 
6 212 372 315 462 622 565 
6 234 348 347 484 598 597 
6 8 266 51 23 516 99 
6 10 276 58 25 526 106 
6 246 369 321 496 619 571 
6 30 284 0 78 534 15 
6 65 286 13 113 536 28 
6 58 242 11 106 492 26 
6 266 357 51 516 607 99 
6 255 368 328 505 618 578 
6 347 348 242 597 598 492 
6 322 363 287 572 613 537 
6 323 363 322 573 613 572 
6 335 367 239 585 617 489 
6 30 361 284 78 611 534 
6 65 362 286 113 612 536 
6 237 365 282 487 615 532 
6 130 359 358 380 609 608 
6 343 375 174 593 625 424 
6 354 371 127 604 621 377 
6 328 371 354 578 621 604 
6 358 359 274 608 609 524 
6 0 284 36 15 534 84 
6 45 266 8 93 516 23 
6 52 276 10 100 526 25 
6 11 242 64 26 492 112 
6 13 286 71 28 536 119 
6 2 323 3 17 573 18 
6 31 323 2 79 573 17 
6 323 341 3 573 591 18 
6 37 340 4 85 590 19 
6 4 340 43 19 590 91 
6 38 338 5 86 588 20 
6 5 338 44 20 588 92 
6 6 282 7 21 532 22 
6 6 339 282 21 589 532 
6 282 365 7 532 615 22 

CELL_TYPES 563
13
13
13
13
13
13
13
13
13
13
13
13
13
13
13
13
13
13
13
13
13
13
13
13
13
13
13
13
13
13
13
13
13
13
13
13
13
13
13
13
13
13
13
13
13
13
13
13
13
13
13
13
13
13
13
13
13
13
13
13
13
13
13
13
13
13
13
13
13
13
13
13
13
13
13
13
13
13
13
13
13
13
13
13
13
13
13
13
13
13
13
13
13
13
13
13
13
13
13
13
13
13
13
13
13
13
13
13
13
13
13
13
13
13
13
13
13
13
13
13
13
13
13
13
13
13
13
13
13
13
13
13
13
13
13
13
13
13
13
13
13
13
13
13
13
13
13
13
13
13
13
13
13
13
13
13
13
13
13
13
13
13
13
13
13
13
13
13
13
13
13
13
13
13
13
13
13
13
13
13
13
13
13
13
13
13
13
13
13
13
13
13
13
13
13
13
13
13
13
13
13
13
13
13
13
13
13
13
13
13
13
13
13
13
13
13
13
13
13
13
13
13
13
13
13
13
13
13
13
13
13
13
13
13
13
13
13
13
13
13
13
13
13
13
13
13
13
13
13
13
13
13
13
13
13
13
13
13
13
13
13
13
13
13
13
13
13
13
13
13
13
13
13
13
13
13
13
13
13
13
13
13
13
13
13
13
13
13
13
13
13
13
13
13
13
13
13
13
13
13
13
13
13
13
13
13
13
13
13
13
13
13
13
13
13
13
13
13
13
13
13
13
13
13
13
13
13
13
13
13
13
13
13
13
13
13
13
13
13
13
13
13
13
13
13
13
13
13
13
13
13
13
13
13
13
13
13
13
13
13
13
13
13
13
13
13
13
13
13
13
13
13
13
13
13
13
13
13
13
13
13
13
13
13
13
13
13
13
13
13
13
13
13
13
13
13
13
13
13
13
13
13
13
13
13
13
13
13
13
13
13
13
13
13
13
13
13
13
13
13
13
13
13
13
13
13
13
13
13
13
13
13
13
13
13
13
13
13
13
13
13
13
13
13
13
13
13
13
13
13
13
13
13
13
13
13
13
13
13
13
13
13
13
13
13
13
13
13
13
13
13
13
13
13
13
13
13
13
13
13
13
13
13
13
13
13
13
13
13
13
13
13
13
13
13
13
13
13
13
13
13
13
13
13
13
13
13
13
13
13
13
13
13
13
13
13
13
13
13
13
13
13
13
13
13
13
13
13
13
13
13
13
13
13
13
13
13
13
13
13
13
13
13
13
13
13
13
13
13
13
13
13
13
13
13
13
13
13
13
13
13
13
13

POINT_DATA 626
VECTORS displacement float
-1.74395e-06 3.09541e-05 1.80549e-05
1.73566e-06 3.09731e-05 1.80999e-05
-2.5986e-05 1.69927e-05 1.80869e-05
-2.58406e-05 1.60328e-05 1.80515e-05
-2.77204e-05 1.39726e-05 1.80689e-05
-2.77133e-05 -1.40189e-05 1.80943e-05
-2.58118e-05 -1.6071e-05 1.81057e-05
-2.59822e-05 -1.70107e-05 1.81669e-05
-1.67741e-06 -3.09578e-05 1.80513e-05
1.75545e-06 -3.09593e-05 1.81017e-05
2.59433e-05 -1.69805e-05 1.80433e-05
2.77167e-05 -1.39365e-05 1.80432e-05
2.76722e-05 1.39892e-05 1.80915e-05
2.59147e-05 1.69928e-05 1.80459e-05
0 0 0
-1.74395e-06 3.09541e-05 -1.80549e-05
1.73566e-06 3.09731e-05 -1.80999e-05
-2.5986e-05 1.69927e-05 -1.80869e-05
-2.58406e-05 1.60328e-05 -1.80515e-05
-2.77204e-05 1.39726e-05 -1.80689e-05
-2.77133e-05 -1.40189e-05 -1.80943e-05
-2.58118e-05 -1.6071e-05 -1.81057e-05
-2.59822e-05 -1.70107e-05 -1.81669e-05
-1.67741e-06 -3.09578e-05 -1.80513e-05
1.75545e-06 -3.09593e-05 -1.81017e-05
2.59433e-05 -1.69805e-05 -1.80433e-05
2.77167e-05 -1.39365e-05 -1.80432e-05
2.76722e-05 1.39892e-05 -1.80915e-05
2.59147e-05 1.69928e-05 -1.80459e-05
0 0 0
2.48957e-08 3.0154e-05 1.8034e-05
-2.11403e-05 1.87122e-05 1.75495e-05
-1.72322e-05 1.98336e-05 1.69206e-05
-1.40067e-05 2.10539e-05 1.65547e-05
-1.12067e-05 2.26645e-05 1.65486e-05
-8.52399e-06 2.48325e-05 1.69011e-05
-5.56776e-06 2.76214e-05 1.75372e-05
-2.64495e-05 1.46789e-05 1.80333e-05
-2.67684e-05 -9.01137e-06 1.75772e-05
-2.58059e-05 -5.03537e-06 1.69257e-05
-2.52541e-05 -1.63617e-06 1.65712e-05
-2.52571e-05 1.60781e-06 1.65741e-05
-2.57981e-05 5.02277e-06 1.69239e-05
-2.67546e-05 8.98446e-06 1.75637e-05
-2.64365e-05 -1.47253e-05 1.80621e-05
-5.54102e-06 -2.76358e-05 1.75295e-05
-8.4765e-06 -2.48415e-05 1.69004e-05
-1.11699e-05 -2.26839e-05 1.65559e-05
-1.39704e-05 -2.10869e-05 1.65593e-05
-1.72147e-05 -1.98689e-05 1.69364e-05
-2.11339e-05 -1.8749e-05 1.7562e-05
8.98418e-08 -3.01388e-05 1.80292e-05
2.11237e-05 -1.86246e-05 1.75112e-05
1.72444e-05 -1.97619e-05 1.68726e-05
1.40337e-05 -2.10109e-05 1.65113e-05
1.12249e-05 -2.25926e-05 1.65459e-05
8.58115e-06 -2.47797e-05 1.68739e-05
5.65464e-06 -2.76261e-05 1.75348e-05
2.61243e-05 -1.50595e-05 1.80282e-05
2.67165e-05 8.93825e-06 1.75013e-05
2.57217e-05 5.04949e-06 1.69081e-05
2.52062e-05 1.62328e-06 1.65229e-05
2.52033e-05 -1.5994e-06 1.65212e-05
2.57503e-05 -4.99728e-06 1.68881e-05
2.66985e-05 -8.917e-06 1.75095e-05
2.61073e-05 1.50606e-05 1.80252e-05
5.6331e-06 2.76174e-05 1.75094e-05
8.50852e-06 2.48064e-05 1.6911e-05
1.12169e-05 2.26407e-05 1.65291e-05
1.40043e-05 2.10218e-05 1.65245e-05
1.72214e-05 1.97932e-05 1.68849e-05
2.11147e-05 1.86342e-05 1.75252e-05
0 0 0
0 0 0
0 0 0
0 0 0
0 0 0
0 0 0
2.48957e-08 3.0154e-05 -1.8034e-05
-2.11403e-05 1.87122e-05 -1.75495e-05
-1.72322e-05 1.98336e-05 -1.69206e-05
-1.40067e-05 2.10539e-05 -1.65547e-05
-1.12067e-05 2.26645e-05 -1.65486e-05
-8.52399e-06 2.48325e-05 -1.69011e-05
-5.56776e-06 2.76214e-05 -1.75372e-05
-2.64495e-05 1.46789e-05 -1.80333e-05
-2.67684e-05 -9.01137e-06 -1.75772e-05
-2.58059e-05 -5.03537e-06 -1.69257e-05
-2.52541e-05 -1.63617e-06 -1.65712e-05
-2.52571e-05 1.60781e-06 -1.65741e-05
-2.57981e-05 5.02277e-06 -1.69239e-05
-2.67546e-05 8.98446e-06 -1.75637e-05
-2.64365e-05 -1.47253e-05 -1.80621e-05
-5.54102e-06 -2.76358e-05 -1.75295e-05
-8.4765e-06 -2.48415e-05 -1.69004e-05
-1.11699e-05 -2.26839e-05 -1.65559e-05
-1.39704e-05 -2.10869e-05 -1.65593e-05
-1.72147e-05 -1.98689e-05 -1.69364e-05
-2.11339e-05 -1.8749e-05 -1.7562e-05
8.98418e-08 -3.01388e-05 -1.80292e-05
2.11237e-05 -1.86246e-05 -1.75112e-05
1.72444e-05 -1.97619e-05 -1.68726e-05
1.40337e-05 -2.10109e-05 -1.65113e-05
1.12249e-05 -2.25926e-05 -1.65459e-05
8.58115e-06 -2.47797e-05 -1.68739e-05
5.65464e-06 -2.76261e-05 -1.75348e-05
2.61243e-05 -1.50595e-05 -1.80282e-05
2.67165e-05 8.93825e-06 -1.75013e-05
2.57217e-05 5.04949e-06 -1.69081e-05
2.52062e-05 1.62328e-06 -1.65229e-05
2.52033e-05 -1.5994e-06 -1.65212e-05
2.57503e-05 -4.99728e-06 -1.68881e-05
2.66985e-05 -8.917e-06 -1.75095e-05
2.61073e-05 1.50606e-05 -1.80252e-05
5.6331e-06 2.76174e-05 -1.75094e-05
8.50852e-06 2.48064e-05 -1.6911e-05
1.12169e-05 2.26407e-05 -1.65291e-05
1.40043e-05 2.10218e-05 -1.65245e-05
1.72214e-05 1.97932e-05 -1.68849e-05
2.11147e-05 1.86342e-05 -1.75252e-05
0 0 0
0 0 0
0 0 0
0 0 0
0 0 0
0 0 0
1.79366e-06 8.58736e-07 4.55218e-06
1.7378e-06 -8.25104e-07 4.46073e-06
4.31948e-07 1.8496e-06 4.49504e-06
4.36093e-07 -1.78061e-06 4.35602e-06
-1.84746e-06 2.09628e-08 4.42229e-06
-1.12307e-06 -1.30886e-06 4.15093e-06
-1.15919e-06 1.30678e-06 4.19971e-06
-2.25127e-05 -7.28755e-06 1.69997e-05
-2.21961e-05 7.37144e-06 1.69684e-05
-4.86038e-06 2.28981e-05 1.69368e-05
-4.85789e-06 -2.31313e-05 1.69637e-05
1.74209e-05 1.56352e-05 1.69296e-05
1.75685e-05 -1.55362e-05 1.69389e-05
2.10732e-05 3.16382e-06 1.63241e-05
-1.39529e-05 1.7151e-05 1.64781e-05
-1.35909e-05 -1.6741e-05 1.64097e-05
7.76772e-06 1.98192e-05 1.63309e-05
7.68475e-06 -2.03096e-05 1.64022e-05
2.14719e-05 -3.44367e-06 1.63999e-05
-2.11024e-05 6.58808e-09 1.62464e-05
-2.242e-05 1.09996e-05 1.74534e-05
-1.87506e-05 9.25455e-06 1.66268e-05
-1.79825e-05 5.79535e-06 1.6036e-05
-1.49837e-05 7.4482e-06 1.54861e-05
-1.42242e-05 4.30765e-06 1.48294e-05
-1.15324e-05 5.74379e-06 1.40944e-05
-1.08578e-05 3.06868e-06 1.33732e-05
-8.40034e-06 4.3048e-06 1.2404e-05
-9.05865e-06 7.01328e-06 1.3456e-05
-6.204e-06 5.48842e-06 1.16887e-05
-6.82818e-06 8.2493e-06 1.30796e-05
-4.28133e-06 6.6748e-06 1.14502e-05
-4.79993e-06 9.60976e-06 1.30936e-05
-2.40083e-06 7.99321e-06 1.17226e-05
-2.8128e-06 1.1167e-05 1.34746e-05
-4.75402e-07 9.59513e-06 1.25006e-05
-7.38341e-07 1.29967e-05 1.41414e-05
1.73105e-06 1.15176e-05 1.35346e-05
-5.53459e-06 1.27002e-05 1.44366e-05
1.68505e-06 8.22384e-06 1.17472e-05
4.00411e-06 1.01207e-05 1.31506e-05
3.70529e-06 7.09783e-06 1.14779e-05
6.0673e-06 8.96652e-06 1.3113e-05
5.76672e-06 6.10669e-06 1.17352e-05
8.35794e-06 8.02019e-06 1.34917e-05
8.10552e-06 5.19518e-06 1.25e-05
1.09538e-05 7.09693e-06 1.41466e-05
1.07458e-05 4.32272e-06 1.34987e-05
8.53038e-06 1.10373e-05 1.44604e-05
7.93756e-06 2.6437e-06 1.17271e-05
1.06458e-05 1.73717e-06 1.31037e-05
7.94855e-06 3.58754e-07 1.14553e-05
1.08062e-05 -7.591e-07 1.31238e-05
8.11151e-06 -1.93777e-06 1.17088e-05
1.10981e-05 -3.3128e-06 1.34836e-05
8.46959e-06 -4.42391e-06 1.24437e-05
1.15035e-05 -6.00278e-06 1.4109e-05
8.95542e-06 -7.13799e-06 1.34277e-05
6.14742e-06 -5.49433e-06 1.1641e-05
6.64439e-06 -8.30072e-06 1.30179e-05
4.10514e-06 -6.5884e-06 1.13106e-05
4.52328e-06 -9.55071e-06 1.29879e-05
2.24226e-06 -7.85816e-06 1.1597e-05
2.48479e-06 -1.10017e-05 1.33506e-05
2.25288e-07 -9.37354e-06 1.23533e-05
3.30009e-07 -1.27696e-05 1.40335e-05
-1.9154e-06 -1.11505e-05 1.33767e-05
-1.84104e-06 -7.92149e-06 1.15819e-05
-4.16783e-06 -9.87469e-06 1.30847e-05
-3.81388e-06 -6.73039e-06 1.13168e-05
-6.34552e-06 -8.66188e-06 1.3099e-05
-5.89121e-06 -5.69792e-06 1.16281e-05
-8.49958e-06 -7.43568e-06 1.33794e-05
-8.16742e-06 -4.72798e-06 1.24083e-05
-1.10955e-05 -6.40267e-06 1.40696e-05
-4.37158e-06 -1.3123e-05 1.44333e-05
-1.08087e-05 -3.65062e-06 1.34389e-05
7.226e-06 -1.13726e-05 1.42726e-05
-7.74158e-06 1.98266e-06 1.14926e-05
-1.32159e-05 1.03504e-06 1.42106e-05
1.7291e-06 1.50826e-05 1.49519e-05
1.37678e-05 4.6223e-07 1.43875e-05
1.3843e-05 6.10001e-06 1.49314e-05
-9.69391e-06 1.01961e-05 1.45322e-05
-5.41593e-06 -3.19761e-06 1.01819e-05
-1.17134e-05 -9.2972e-06 1.48889e-05
1.18822e-05 -8.76008e-06 1.47869e-05
1.47816e-05 -7.47349e-06 1.54031e-05
-1.39595e-05 -5.24381e-06 1.48614e-05
2.79578e-06 -1.45159e-05 1.47959e-05
4.24558e-07 -1.64992e-05 1.53975e-05
3.51839e-06 4.39688e-06 9.58093e-06
1.40104e-05 9.29892e-06 1.54913e-05
1.79305e-05 8.14484e-06 1.63003e-05
-1.56752e-05 1.13952e-05 1.62333e-05
-1.09407e-06 1.67688e-05 1.5495e-05
1.90684e-06 1.96213e-05 1.63107e-05
-2.09184e-06 5.22001e-06 9.59743e-06
5.55387e-06 -7.84594e-07 9.59398e-06
3.58591e-06 -3.68352e-06 9.08182e-06
-1.77961e-06 -5.17851e-06 9.44944e-06
-2.24685e-05 -1.10107e-05 1.74741e-05
-1.87979e-05 -9.24129e-06 1.66508e-05
2.11476e-05 1.41646e-05 1.75054e-05
2.07535e-05 -1.43174e-05 1.74354e-05
-1.76459e-06 -2.54462e-05 1.75107e-05
-1.68212e-06 2.54102e-05 1.75154e-05
1.77128e-05 -1.19067e-05 1.6687e-05
2.06455e-05 -1.07509e-05 1.71158e-05
3.7756e-06 -1.89849e-05 1.61392e-05
7.68523e-07 -2.03455e-05 1.64826e-05
-1.94048e-05 -1.26504e-05 1.7143e-05
-1.37309e-05 -2.30689e-06 1.44716e-05
-1.65925e-05 -3.70137e-06 1.54773e-05
-1.03757e-05 -1.09637e-06 1.29518e-05
2.44518e-05 1.10726e-05 1.76514e-05
2.54973e-05 -1.24031e-05 1.7848e-05
2.64924e-06 2.67256e-05 1.76603e-05
2.52099e-06 -2.64133e-05 1.76292e-05
3.33943e-06 -2.30316e-05 1.70289e-05
-2.05386e-06 -1.83196e-05 1.59507e-05
4.05903e-06 2.3791e-05 1.71302e-05
2.26138e-05 8.37912e-06 1.71191e-05
4.61354e-06 1.73131e-05 1.5727e-05
1.44268e-05 -1.31192e-05 1.61371e-05
-1.57874e-05 -1.09846e-05 1.62143e-05
-1.67995e-05 -3.81421e-07 1.53771e-05
1.73057e-05 4.6874e-06 1.57254e-05
6.55212e-08 -6.38721e-06 1.02672e-05
1.74169e-06 -4.84839e-06 9.09232e-06
5.85037e-06 -2.93547e-06 1.0378e-05
-2.14438e-05 3.75044e-06 1.64586e-05
5.72927e-06 -1.62742e-05 1.55075e-05
9.08331e-06 -1.74987e-05 1.59972e-05
1.75719e-05 1.18815e-05 1.66721e-05
1.3994e-05 -1.6382e-05 1.6401e-05
1.07398e-05 -1.37887e-05 1.55498e-05
-3.54791e-06 -4.22013e-06 9.50059e-06
5.39903e-06 1.13848e-06 9.49887e-06
5.21797e-06 3.22282e-06 1.0047e-05
-1.74978e-06 -2.83541e-05 1.78767e-05
1.89203e-06 5.29881e-06 9.58427e-06
-1.13821e-07 6.10491e-06 1.00386e-05
-3.78486e-06 4.12768e-06 9.57823e-06
-5.62259e-06 3.03414e-06 1.02851e-05
-5.16539e-06 1.04066e-06 9.21344e-06
-7.52712e-06 -6.17381e-08 1.11722e-05
-4.33431e-06 -8.10266e-07 8.3817e-06
-3.10854e-06 1.87231e-06 7.37393e-06
-2.20808e-05 -3.60768e-06 1.65155e-05
2.34058e-05 -1.56878e-05 1.78359e-05
-1.50717e-06 2.11675e-05 1.66818e-05
2.12613e-05 -8.45179e-08 1.62255e-05
1.76217e-05 -1.64677e-06 1.55812e-05
1.73474e-05 -4.94158e-06 1.57704e-05
2.18912e-05 -7.45097e-06 1.69134e-05
-2.31819e-05 -1.42544e-05 1.78325e-05
1.73243e-05 1.64884e-06 1.55083e-05
-1.73399e-06 2.84726e-05 1.78939e-05
-4.22065e-07 3.68336e-06 7.49517e-06
2.37716e-05 1.57421e-05 1.78844e-05
-1.7497e-05 1.5642e-05 1.69747e-05
-1.0626e-05 -1.84658e-05 1.62548e-05
-1.00994e-05 -1.43421e-05 1.55714e-05
-7.50764e-06 -1.60946e-05 1.56218e-05
-7.322e-06 -2.01201e-05 1.6395e-05
-1.07043e-05 1.85349e-05 1.62665e-05
-1.03471e-05 1.43838e-05 1.56191e-05
-7.77251e-06 2.0492e-05 1.6444e-05
-4.25292e-06 1.86094e-05 1.60527e-05
1.07595e-05 1.83451e-05 1.62259e-05
1.38914e-05 1.69346e-05 1.64307e-05
1.40417e-05 1.29727e-05 1.6051e-05
-7.36145e-06 1.6288e-05 1.56382e-05
1.05249e-05 1.45468e-05 1.56449e-05
7.74861e-06 1.6092e-05 1.56137e-05
-3.11642e-06 -1.89874e-06 7.39306e-06
-7.25752e-06 -1.24218e-05 1.46249e-05
3.00862e-06 4.03596e-08 6.60087e-06
4.87249e-06 1.35225e-05 1.46178e-05
1.40758e-05 -2.26035e-06 1.45702e-05
-1.72895e-05 -1.52165e-05 1.69453e-05
-1.73662e-05 2.42026e-06 1.55976e-05
-1.22045e-05 8.91179e-06 1.49432e-05
-7.70551e-06 -2.29248e-06 1.15545e-05
-1.24496e-05 1.18124e-05 1.55397e-05
-1.42733e-07 -3.75417e-06 7.55405e-06
2.73019e-06 2.27205e-06 7.25181e-06
-2.00383e-06 -1.46502e-05 1.48078e-05
9.36494e-06 -1.00681e-05 1.43891e-05
1.38605e-05 3.15776e-06 1.45658e-05
-7.33992e-06 1.11992e-05 1.426e-05
4.99714e-06 -1.27746e-05 1.4369e-05
1.10317e-05 1.04303e-05 1.49194e-05
-3.59639e-06 1.4685e-05 1.49078e-05
-4.63539e-06 -1.66166e-05 1.55486e-05
-1.95068e-05 1.28923e-05 1.71611e-05
-2.31266e-05 1.4858e-05 1.78432e-05
-1.29047e-05 -1.26859e-05 1.58123e-05
3.76075e-06 -1.5861e-06 7.90682e-06
1.76437e-06 2.92224e-06 7.08432e-06
-9.23034e-06 -1.06093e-05 1.45316e-05
1.72772e-06 -2.82312e-06 6.93096e-06
9.94723e-07 2.41165e-05 1.73083e-05
2.13677e-05 1.11937e-05 1.72985e-05
-1.46644e-05 -7.95327e-06 1.54851e-05
1.37079e-05 -4.78625e-06 1.46904e-05
-1.90986e-06 -2.17627e-05 1.68025e-05
1.80601e-05 -8.41894e-06 1.63405e-05
-1.66787e-05 -6.32847e-06 1.57822e-05
-4.32896e-07 -1.9223e-06 4.7984e-06
-1.80535e-06 2.99541e-06 7.17707e-06
-2.50517e-05 -1.29816e-05 1.79221e-05
-2.51269e-05 -1.45071e-05 1.8002e-05
-2.50449e-05 1.30335e-05 1.79059e-05
-2.51178e-05 1.46498e-05 1.7982e-05
-1.64843e-06 -3.12481e-06 7.20981e-06
6.32786e-06 1.13682e-05 1.40764e-05
5.33707e-07 -2.40858e-05 1.73021e-05
-5.22772e-07 1.80952e-06 4.64494e-06
7.40735e-06 -1.43435e-05 1.51522e-05
2.33026e-05 -1.32092e-05 1.77287e-05
2.36324e-05 -1.05374e-05 1.74907e-05
1.19882e-05 -1.82107e-05 1.62931e-05
1.47299e-05 -1.01465e-05 1.57954e-05
-1.00269e-05 1.00123e-06 1.27544e-05
-1.73999e-06 -8.15894e-07 4.72339e-06
7.69055e-07 3.70831e-06 7.57304e-06
2.34305e-06 -1.99714e-06 6.5552e-06
2.01563e-05 5.89774e-06 1.64534e-05
5.07003e-06 2.05957e-05 1.64958e-05
3.42117e-07 -2.76797e-05 1.78539e-05
-1.73121e-06 7.09104e-07 4.60626e-06
-3.21147e-06 6.23041e-07 6.82405e-06
3.57717e-06 1.4754e-06 7.63651e-06
4.99224e-07 2.83235e-05 1.79271e-05
2.47601e-05 1.37339e-05 1.79183e-05
-2.03281e-05 1.55357e-05 1.74289e-05
1.1787e-06 1.36446e-06 4.45979e-06
-2.06394e-05 -1.57283e-05 1.75275e-05
-1.89986e-05 -2.32215e-06 1.5946e-05
-1.95589e-05 -5.58491e-06 1.63321e-05
9.05673e-07 -3.24772e-06 7.006e-06
-4.36597e-06 -1.9789e-05 1.63217e-05
-7.93717e-06 1.38342e-05 1.51009e-05
1.16574e-06 -1.30417e-06 4.33923e-06
1.19343e-05 -1.12282e-05 1.5292e-05
6.13301e-06 -2.26958e-05 1.68203e-05
-1.4522e-05 1.43552e-05 1.63235e-05
7.92897e-06 1.33211e-05 1.49478e-05
1.79366e-06 8.58736e-07 -4.55218e-06
1.7378e-06 -8.25104e-07 -4.46073e-06
4.31948e-07 1.8496e-06 -4.49504e-06
4.36093e-07 -1.78061e-06 -4.35602e-06
-1.84746e-06 2.09628e-08 -4.42229e-06
-1.12307e-06 -1.30886e-06 -4.15093e-06
-1.15919e-06 1.30678e-06 -4.19971e-06
-2.25127e-05 -7.28755e-06 -1.69997e-05
-2.21961e-05 7.37144e-06 -1.69684e-05
-4.86038e-06 2.28981e-05 -1.69368e-05
-4.85789e-06 -2.31313e-05 -1.69637e-05
1.74209e-05 1.56352e-05 -1.69296e-05
1.75685e-05 -1.55362e-05 -1.69389e-05
2.10732e-05 3.16382e-06 -1.63241e-05
-1.39529e-05 1.7151e-05 -1.64781e-05
-1.35909e-05 -1.6741e-05 -1.64097e-05
7.76772e-06 1.98192e-05 -1.63309e-05
7.68475e-06 -2.03096e-05 -1.64022e-05
2.14719e-05 -3.44367e-06 -1.63999e-05
-2.11024e-05 6.58808e-09 -1.62464e-05
-2.242e-05 1.09996e-05 -1.74534e-05
-1.87506e-05 9.25455e-06 -1.66268e-05
-1.79825e-05 5.79535e-06 -1.6036e-05
-1.49837e-05 7.4482e-06 -1.54861e-05
-1.42242e-05 4.30765e-06 -1.48294e-05
-1.15324e-05 5.74379e-06 -1.40944e-05
-1.08578e-05 3.06868e-06 -1.33732e-05
-8.40034e-06 4.3048e-06 -1.2404e-05
-9.05865e-06 7.01328e-06 -1.3456e-05
-6.204e-06 5.48842e-06 -1.16887e-05
-6.82818e-06 8.2493e-06 -1.30796e-05
-4.28133e-06 6.6748e-06 -1.14502e-05
-4.79993e-06 9.60976e-06 -1.30936e-05
-2.40083e-06 7.99321e-06 -1.17226e-05
-2.8128e-06 1.1167e-05 -1.34746e-05
-4.75402e-07 9.59513e-06 -1.25006e-05
-7.38341e-07 1.29967e-05 -1.41414e-05
1.73105e-06 1.15176e-05 -1.35346e-05
-5.53459e-06 1.27002e-05 -1.44366e-05
1.68505e-06 8.22384e-06 -1.17472e-05
4.00411e-06 1.01207e-05 -1.31506e-05
3.70529e-06 7.09783e-06 -1.14779e-05
6.0673e-06 8.96652e-06 -1.3113e-05
5.76672e-06 6.10669e-06 -1.17352e-05
8.35794e-06 8.02019e-06 -1.34917e-05
8.10552e-06 5.19518e-06 -1.25e-05
1.09538e-05 7.09693e-06 -1.41466e-05
1.07458e-05 4.32272e-06 -1.34987e-05
8.53038e-06 1.10373e-05 -1.44604e-05
7.93756e-06 2.6437e-06 -1.17271e-05
1.06458e-05 1.73717e-06 -1.31037e-05
7.94855e-06 3.58754e-07 -1.14553e-05
1.08062e-05 -7.591e-07 -1.31238e-05
8.11151e-06 -1.93777e-06 -1.17088e-05
1.10981e-05 -3.3128e-06 -1.34836e-05
8.46959e-06 -4.42391e-06 -1.24437e-05
1.15035e-05 -6.00278e-06 -1.4109e-05
8.95542e-06 -7.13799e-06 -1.34277e-05
6.14742e-06 -5.49433e-06 -1.1641e-05
6.64439e-06 -8.30072e-06 -1.30179e-05
4.10514e-06 -6.5884e-06 -1.13106e-05
4.52328e-06 -9.55071e-06 -1.29879e-05
2.24226e-06 -7.85816e-06 -1.1597e-05
2.48479e-06 -1.10017e-05 -1.33506e-05
2.25288e-07 -9.37354e-06 -1.23533e-05
3.30009e-07 -1.27696e-05 -1.40335e-05
-1.9154e-06 -1.11505e-05 -1.33767e-05
-1.84104e-06 -7.92149e-06 -1.15819e-05
-4.16783e-06 -9.87469e-06 -1.30847e-05
-3.81388e-06 -6.73039e-06 -1.13168e-05
-6.34552e-06 -8.66188e-06 -1.3099e-05
-5.89121e-06 -5.69792e-06 -1.16281e-05
-8.49958e-06 -7.43568e-06 -1.33794e-05
-8.16742e-06 -4.72798e-06 -1.24083e-05
-1.10955e-05 -6.40267e-06 -1.40696e-05
-4.37158e-06 -1.3123e-05 -1.44333e-05
-1.08087e-05 -3.65062e-06 -1.34389e-05
7.226e-06 -1.13726e-05 -1.42726e-05
-7.74158e-06 1.98266e-06 -1.14926e-05
-1.32159e-05 1.03504e-06 -1.42106e-05
1.7291e-06 1.50826e-05 -1.49519e-05
1.37678e-05 4.6223e-07 -1.43875e-05
1.3843e-05 6.10001e-06 -1.49314e-05
-9.69391e-06 1.01961e-05 -1.45322e-05
-5.41593e-06 -3.19761e-06 -1.01819e-05
-1.17134e-05 -9.2972e-06 -1.48889e-05
1.18822e-05 -8.76008e-06 -1.47869e-05
1.47816e-05 -7.47349e-06 -1.54031e-05
-1.39595e-05 -5.24381e-06 -1.48614e-05
2.79578e-06 -1.45159e-05 -1.47959e-05
4.24558e-07 -1.64992e-05 -1.53975e-05
3.51839e-06 4.39688e-06 -9.58093e-06
1.40104e-05 9.29892e-06 -1.54913e-05
1.79305e-05 8.14484e-06 -1.63003e-05
-1.56752e-05 1.13952e-05 -1.62333e-05
-1.09407e-06 1.67688e-05 -1.5495e-05
1.90684e-06 1.96213e-05 -1.63107e-05
-2.09184e-06 5.22001e-06 -9.59743e-06
5.55387e-06 -7.84594e-07 -9.59398e-06
3.58591e-06 -3.68352e-06 -9.08182e-06
-1.77961e-06 -5.17851e-06 -9.44944e-06
-2.24685e-05 -1.10107e-05 -1.74741e-05
-1.87979e-05 -9.24129e-06 -1.66508e-05
2.11476e-05 1.41646e-05 -1.75054e-05
2.07535e-05 -1.43174e-05 -1.74354e-05
-1.76459e-06 -2.54462e-05 -1.75107e-05
-1.68212e-06 2.54102e-05 -1.75154e-05
1.77128e-05 -1.19067e-05 -1.6687e-05
2.06455e-05 -1.07509e-05 -1.71158e-05
3.7756e-06 -1.89849e-05 -1.61392e-05
7.68523e-07 -2.03455e-05 -1.64826e-05
-1.94048e-05 -1.26504e-05 -1.7143e-05
-1.37309e-05 -2.30689e-06 -1.44716e-05
-1.65925e-05 -3.70137e-06 -1.54773e-05
-1.03757e-05 -1.09637e-06 -1.29518e-05
2.44518e-05 1.10726e-05 -1.76514e-05
2.54973e-05 -1.24031e-05 -1.7848e-05
2.64924e-06 2.67256e-05 -1.76603e-05
2.52099e-06 -2.64133e-05 -1.76292e-05
3.33943e-06 -2.30316e-05 -1.70289e-05
-2.05386e-06 -1.83196e-05 -1.59507e-05
4.05903e-06 2.3791e-05 -1.71302e-05
2.26138e-05 8.37912e-06 -1.71191e-05
4.61354e-06 1.73131e-05 -1.5727e-05
1.44268e-05 -1.31192e-05 -1.61371e-05
-1.57874e-05 -1.09846e-05 -1.62143e-05
-1.67995e-05 -3.81421e-07 -1.53771e-05
1.73057e-05 4.6874e-06 -1.57254e-05
6.55212e-08 -6.38721e-06 -1.02672e-05
1.74169e-06 -4.84839e-06 -9.09232e-06
5.85037e-06 -2.93547e-06 -1.0378e-05
-2.14438e-05 3.75044e-06 -1.64586e-05
5.72927e-06 -1.62742e-05 -1.55075e-05
9.08331e-06 -1.74987e-05 -1.59972e-05
1.75719e-05 1.18815e-05 -1.66721e-05
1.3994e-05 -1.6382e-05 -1.6401e-05
1.07398e-05 -1.37887e-05 -1.55498e-05
-3.54791e-06 -4.22013e-06 -9.50059e-06
5.39903e-06 1.13848e-06 -9.49887e-06
5.21797e-06 3.22282e-06 -1.0047e-05
-1.74978e-06 -2.83541e-05 -1.78767e-05
1.89203e-06 5.29881e-06 -9.58427e-06
-1.13821e-07 6.10491e-06 -1.00386e-05
-3.78486e-06 4.12768e-06 -9.57823e-06
-5.62259e-06 3.03414e-06 -1.02851e-05
-5.16539e-06 1.04066e-06 -9.21344e-06
-7.52712e-06 -6.17381e-08 -1.11722e-05
-4.33431e-06 -8.10266e-07 -8.3817e-06
-3.10854e-06 1.87231e-06 -7.37393e-06
-2.20808e-05 -3.60768e-06 -1.65155e-05
2.34058e-05 -1.56878e-05 -1.78359e-05
-1.50717e-06 2.11675e-05 -1.66818e-05
2.12613e-05 -8.45179e-08 -1.62255e-05
1.76217e-05 -1.64677e-06 -1.55812e-05
1.73474e-05 -4.94158e-06 -1.57704e-05
2.18912e-05 -7.45097e-06 -1.69134e-05
-2.31819e-05 -1.42544e-05 -1.78325e-05
1.73243e-05 1.64884e-06 -1.55083e-05
-1.73399e-06 2.84726e-05 -1.78939e-05
-4.22065e-07 3.68336e-06 -7.49517e-06
2.37716e-05 1.57421e-05 -1.78844e-05
-1.7497e-05 1.5642e-05 -1.69747e-05
-1.0626e-05 -1.84658e-05 -1.62548e-05
-1.00994e-05 -1.43421e-05 -1.55714e-05
-7.50764e-06 -1.60946e-05 -1.56218e-05
-7.322e-06 -2.01201e-05 -1.6395e-05
-1.07043e-05 1.85349e-05 -1.62665e-05
-1.03471e-05 1.43838e-05 -1.56191e-05
-7.77251e-06 2.0492e-05 -1.6444e-05
-4.25292e-06 1.86094e-05 -1.60527e-05
1.07595e-05 1.83451e-05 -1.62259e-05
1.38914e-05 1.69346e-05 -1.64307e-05
1.40417e-05 1.29727e-05 -1.6051e-05
-7.36145e-06 1.6288e-05 -1.56382e-05
1.05249e-05 1.45468e-05 -1.56449e-05
7.74861e-06 1.6092e-05 -1.56137e-05
-3.11642e-06 -1.89874e-06 -7.39306e-06
-7.25752e-06 -1.24218e-05 -1.46249e-05
3.00862e-06 4.03596e-08 -6.60087e-06
4.87249e-06 1.35225e-05 -1.46178e-05
1.40758e-05 -2.26035e-06 -1.45702e-05
-1.72895e-05 -1.52165e-05 -1.69453e-05
-1.73662e-05 2.42026e-06 -1.55976e-05
-1.22045e-05 8.91179e-06 -1.49432e-05
-7.70551e-06 -2.29248e-06 -1.15545e-05
-1.24496e-05 1.18124e-05 -1.55397e-05
-1.42733e-07 -3.75417e-06 -7.55405e-06
2.73019e-06 2.27205e-06 -7.25181e-06
-2.00383e-06 -1.46502e-05 -1.48078e-05
9.36494e-06 -1.00681e-05 -1.43891e-05
1.38605e-05 3.15776e-06 -1.45658e-05
-7.33992e-06 1.11992e-05 -1.426e-05
4.99714e-06 -1.27746e-05 -1.4369e-05
1.10317e-05 1.04303e-05 -1.49194e-05
-3.59639e-06 1.4685e-05 -1.49078e-05
-4.63539e-06 -1.66166e-05 -1.55486e-05
-1.95068e-05 1.28923e-05 -1.71611e-05
-2.31266e-05 1.4858e-05 -1.78432e-05
-1.29047e-05 -1.26859e-05 -1.58123e-05
3.76075e-06 -1.5861e-06 -7.90682e-06
1.76437e-06 2.92224e-06 -7.08432e-06
-9.23034e-06 -1.06093e-05 -1.45316e-05
1.72772e-06 -2.82312e-06 -6.93096e-06
9.94723e-07 2.41165e-05 -1.73083e-05
2.13677e-05 1.11937e-05 -1.72985e-05
-1.46644e-05 -7.95327e-06 -1.54851e-05
1.37079e-05 -4.78625e-06 -1.46904e-05
-1.90986e-06 -2.17627e-05 -1.68025e-05
1.80601e-05 -8.41894e-06 -1.63405e-05
-1.66787e-05 -6.32847e-06 -1.57822e-05
-4.32896e-07 -1.9223e-06 -4.7984e-06
-1.80535e-06 2.99541e-06 -7.17707e-06
-2.50517e-05 -1.29816e-05 -1.79221e-05
-2.51269e-05 -1.45071e-05 -1.8002e-05
-2.50449e-05 1.30335e-05 -1.79059e-05
-2.51178e-05 1.46498e-05 -1.7982e-05
-1.64843e-06 -3.12481e-06 -7.20981e-06
6.32786e-06 1.13682e-05 -1.40764e-05
5.33707e-07 -2.40858e-05 -1.73021e-05
-5.22772e-07 1.80952e-06 -4.64494e-06
7.40735e-06 -1.43435e-05 -1.51522e-05
2.33026e-05 -1.32092e-05 -1.77287e-05
2.36324e-05 -1.05374e-05 -1.74907e-05
1.19882e-05 -1.82107e-05 -1.62931e-05
1.47299e-05 -1.01465e-05 -1.57954e-05
-1.00269e-05 1.00123e-06 -1.27544e-05
-1.73999e-06 -8.15894e-07 -4.72339e-06
7.69055e-07 3.70831e-06 -7.57304e-06
2.34305e-06 -1.99714e-06 -6.5552e-06
2.01563e-05 5.89774e-06 -1.64534e-05
5.07003e-06 2.05957e-05 -1.64958e-05
3.42117e-07 -2.76797e-05 -1.78539e-05
-1.73121e-06 7.09104e-07 -4.60626e-06
-3.21147e-06 6.23041e-07 -6.82405e-06
3.57717e-06 1.4754e-06 -7.63651e-06
4.99224e-07 2.83235e-05 -1.79271e-05
2.47601e-05 1.37339e-05 -1.79183e-05
-2.03281e-05 1.55357e-05 -1.74289e-05
1.1787e-06 1.36446e-06 -4.45979e-06
-2.06394e-05 -1.57283e-05 -1.75275e-05
-1.89986e-05 -2.32215e-06 -1.5946e-05
-1.95589e-05 -5.58491e-06 -1.63321e-05
9.05673e-07 -3.24772e-06 -7.006e-06
-4.36597e-06 -1.9789e-05 -1.63217e-05
-7.93717e-06 1.38342e-05 -1.51009e-05
1.16574e-06 -1.30417e-06 -4.33923e-06
1.19343e-05 -1.12282e-05 -1.5292e-05
6.13301e-06 -2.26958e-05 -1.68203e-05
-1.4522e-05 1.43552e-05 -1.63235e-05
7.92897e-06 1.33211e-05 -1.49478e-05
SCALARS effective_fluid_pressure_TPM float
LOOKUP_TABLE default
665
665
665
665
665
665
665
665
665
665
665
665
665
665
133
665
665
665
665
665
665
665
665
665
665
665
665
665
665
133
665
560.314
520.657
502.797
502.568
519.784
559.934
665
561.981
520.752
503.24
503.349
520.684
561.603
665
559.601
519.654
502.742
502.96
521.153
561.619
665
558.858
518.999
501.53
502.226
518.848
559.446
665
558.498
519.938
501.863
501.794
519.371
557.937
665
558.654
519.952
502.035
501.897
519.359
559.66
133
133
133
133
133
133
665
560.314
520.657
502.797
502.568
519.784
559.934
665
561.981
520.752
503.24
503.349
520.684
561.603
665
559.601
519.654
502.742
502.96
521.153
561.619
665
558.858
518.999
501.53
502.226
518.848
559.446
665
558.498
519.938
501.863
501.794
519.371
557.937
665
558.654
519.952
502.035
501.897
519.359
559.66
133
133
133
133
133
133
228.253
226.324
227.037
224.106
225.521
219.843
220.859
529.158
528.167
526.546
527.925
526.573
527.627
498.693
503.54
501.578
498.934
501.45
501.232
494.313
562.496
518.972
495.017
480.724
461.343
443.263
425.032
402.106
427.256
385.252
417.724
379.599
417.887
385.937
427.372
404.284
444.367
429.062
450.243
386.546
419.287
380.194
418.299
386.176
427.746
404.211
444.477
428.146
450.84
386.021
418.15
379.61
418.506
385.544
427.582
402.905
443.54
426.437
384.037
416.123
376.294
415.33
383.01
424.403
400.831
441.689
425.211
382.746
417.763
376.558
418.081
383.831
425.251
402.198
442.662
450.634
426.711
445.992
380.719
444.658
465.273
448.725
464.746
453.395
350.895
463.488
461.02
478.427
462.756
460.626
478.332
337.27
480.803
505.836
503.595
480.869
506.143
337.682
337.494
326.158
334.408
563.372
519.647
567.573
562.359
567.891
567.744
521.795
542.708
498.608
513.72
542.053
451.436
477.554
414.642
579.515
611.026
579.668
576.028
534.542
494.458
538.216
537.912
485.014
498.094
503.312
473.115
485.062
352.739
326.408
355.168
503.421
477.693
488.335
520.864
502.004
477.89
335.533
335.397
347.691
613.443
337.371
347.563
337.257
353.195
329.181
373.246
310.653
288.782
504.687
608.378
521.086
493.697
478.302
486.331
526.48
600.337
476.54
615.897
291.391
615.795
528.708
494.509
478.21
479.384
501.291
494.815
479.41
502.487
495.15
493.72
502.238
495.224
479.857
480.023
479.025
289.288
454.566
271.937
454.974
453.602
526.989
479.446
465.197
382.088
480.483
292.663
286.076
461.453
449.607
453.951
445.828
448.663
463.578
463.235
479.927
543.448
601.698
487.467
300.295
282.455
452.987
279.157
552.231
551.99
480.749
457.991
526.211
508.163
488.565
233.725
284.552
614.503
636.32
615.138
636.677
285.274
441.314
553.071
230.482
467.525
590.259
566.025
495.789
490.024
410.019
232.115
293.09
271.121
507.871
509.168
607.811
229.659
276.97
294.424
618.876
618.789
558.505
226.518
562.518
488.287
503.37
280.841
504.04
466.352
224.003
473.559
519.556
502.955
462.418
228.253
226.324
227.037
224.106
225.521
219.843
220.859
529.158
528.167
526.546
527.925
526.573
527.627
498.693
503.54
501.578
498.934
501.45
501.232
494.313
562.496
518.972
495.017
480.724
461.343
443.263
425.032
402.106
427.256
385.252
417.724
379.599
417.887
385.937
427.372
404.284
444.367
429.062
450.243
386.546
419.287
380.194
418.299
386.176
427.746
404.211
444.477
428.146
450.84
386.021
418.15
379.61
418.506
385.544
427.582
402.905
443.54
426.437
384.037
416.123
376.294
415.33
383.01
424.403
400.831
441.689
425.211
382.746
417.763
376.558
418.081
383.831
425.251
402.198
442.662
450.634
426.711
445.992
380.719
444.658
465.273
448.725
464.746
453.395
350.895
463.488
461.02
478.427
462.756
460.626
478.332
337.27
480.803
505.836
503.595
480.869
506.143
337.682
337.494
326.158
334.408
563.372
519.647
567.573
562.359
567.891
567.744
521.795
542.708
498.608
513.72
542.053
451.436
477.554
414.642
579.515
611.026
579.668
576.028
534.542
494.458
538.216
537.912
485.014
498.094
503.312
473.115
485.062
352.739
326.408
355.168
503.421
477.693
488.335
520.864
502.004
477.89
335.533
335.397
347.691
613.443
337.371
347.563
337.257
353.195
329.181
373.246
310.653
288.782
504.687
608.378
521.086
493.697
478.302
486.331
526.48
600.337
476.54
615.897
291.391
615.795
528.708
494.509
478.21
479.384
501.291
494.815
479.41
502.487
495.15
493.72
502.238
495.224
479.857
480.023
479.025
289.288
454.566
271.937
454.974
453.602
526.989
479.446
465.197
382.088
480.483
292.663
286.076
461.453
449.607
453.951
445.828
448.663
463.578
463.235
479.927
543.448
601.698
487.467
300.295
282.455
452.987
279.157
552.231
551.99
480.749
457.991
526.211
508.163
488.565
233.725
284.552
614.503
636.32
615.138
636.677
285.274
441.314
553.071
230.482
467.525
590.259
566.025
495.789
490.024
410.019
232.115
293.09
271.121
507.871
509.168
607.811
229.659
276.97
294.424
618.876
618.789
558.505
226.518
562.518
488.287
503.37
280.841
504.04
466.352
224.003
473.559
519.556
502.955
462.418

CELL_DATA 563
TENSORS stress float
164.608 -24.9203 3.97904e-13
-24.9203 28.1479 9.56864e-13
3.97904e-13 9.56864e-13 -12.6048

-40.3383 -21.3202 -1.29163e-12
-21.3202 -7.35468 -2.30808e-12
-1.29163e-12 -2.30808e-12 -10.2314

-9.9397 28.0429 -1.79353e-12
28.0429 -1.1102 1.24641e-13
-1.79353e-12 1.24641e-13 -6.35973

-40.4266 -29.8427 2.30527e-12
-29.8427 -12.8459 -4.56672e-13
2.30527e-12 -4.56672e-13 -10.5977

-22.6926 19.9309 1.47082e-12
19.9309 -1.92216 1.06152e-12
1.47082e-12 1.06152e-12 -23.0217

-27.1389 -18.0742 -3.606e-12
-18.0742 15.8879 -3.6818e-12
-3.606e-12 -3.6818e-12 -6.41051

161.26 26.4844 1.98952e-13
26.4844 28.0245 2.29979e-12
1.98952e-13 2.29979e-12 -13.2637

-5.9612 29.9577 -3.28448e-12
29.9577 -10.1119 7.79525e-13
-3.28448e-12 7.79525e-13 -7.27582

34.6309 5.48308 1.82136e-12
5.48308 -19.0942 4.13262e-13
1.82136e-12 4.13262e-13 -4.12157

11.8603 -7.47756 -3.42837e-13
-7.47756 -48.287 -2.14591e-12
-3.42837e-13 -2.14591e-12 -8.94659

104.192 16.3083 -8.36072e-13
16.3083 -8.44344 4.56997e-12
-8.36072e-13 4.56997e-12 -22.4544

-34.6371 -13.4531 -4.14735e-12
-13.4531 18.9658 -3.03461e-12
-4.14735e-12 -3.03461e-12 -7.18007

-6.02576 27.8329 9.59233e-13
27.8329 -4.59138 3.36324e-12
9.59233e-13 3.36324e-12 -6.15867

-35.5513 -14.34 -1.70137e-12
-14.34 7.84497 -3.40764e-12
-1.70137e-12 -3.40764e-12 -9.13093

-23.6537 33.3115 1.75474e-12
33.3115 -24.9943 1.03874e-12
1.75474e-12 1.03874e-12 -21.3652

21.3107 0.560961 1.35358e-12
0.560961 -32.338 -1.29014e-12
1.35358e-12 -1.29014e-12 -5.58913

-48.9594 -17.9692 -1.94589e-12
-17.9692 6.343 -1.08713e-12
-1.94589e-12 -1.08713e-12 -12.9458

11.6601 -2.6652 -2.92329e-12
-2.6652 -43.2482 1.79767e-12
-2.92329e-12 1.79767e-12 -8.03301

-11.3493 26.6734 -2.35456e-12
26.6734 19.5173 1.60583e-12
-2.35456e-12 1.60583e-12 -6.08884

21.7655 -4.19552 1.97412e-12
-4.19552 -35.2938 -8.9373e-13
1.97412e-12 -8.9373e-13 -6.74067

-24.4786 8.66846 5.79092e-13
8.66846 32.1273 -4.22891e-12
5.79092e-13 -4.22891e-12 -4.93373

-11.8088 6.28779 5.23051e-12
6.28779 -11.9742 -4.32646e-12
5.23051e-12 -4.32646e-12 -75.6223

22.7431 1.87596 -1.47615e-12
1.87596 -33.4682 4.78506e-13
-1.47615e-12 4.78506e-13 -6.67664

-12.3876 -27.7148 -1.54543e-13
-27.7148 1.59984 -9.76996e-14
-1.54543e-13 -9.76996e-14 -6.60215

21.3043 6.84931 2.30926e-14
6.84931 -34.3033 1.61056e-13
2.30926e-14 1.61056e-13 -6.8059

-37.9048 19.1128 8.51245e-13
19.1128 2.65398 1.6381e-12
8.51245e-13 1.6381e-12 -9.45716

106.601 4.18131 1.79767e-12
4.18131 20.6024 -1.34707e-12
1.79767e-12 -1.34707e-12 -12.0494

-5.30155 30.7455 -8.05282e-14
30.7455 -7.2719 -1.62418e-12
-8.05282e-14 -1.62418e-12 -7.44102

27.8898 37.0738 -6.85911e-12
37.0738 26.469 -1.75149e-12
-6.85911e-12 -1.75149e-12 -8.63181

-9.43909 10.3235 -1.11999e-12
10.3235 -32.9306 -2.41918e-13
-1.11999e-12 -2.41918e-13 -49.5098

19.8306 14.2168 -1.86517e-13
14.2168 -29.3587 5.12183e-14
-1.86517e-13 5.12183e-14 -6.0004

-4.20984 -17.7801 1.34737e-12
-17.7801 59.6569 4.99393e-12
1.34737e-12 4.99393e-12 -8.47571

66.2822 -42.1011 -1.18424e-14
-42.1011 71.1373 -6.27172e-12
-1.18424e-14 -6.27172e-12 -11.2522

-48.2102 5.98685 1.40106e-12
5.98685 7.26963 -3.50801e-12
1.40106e-12 -3.50801e-12 -41.0383

-26.2912 -4.84083 -1.81026e-12
-4.84083 1.75673 6.98937e-12
-1.81026e-12 6.98937e-12 -37.8032

-1.46672 21.0279 8.42585e-13
21.0279 -39.5067 7.67371e-12
8.42585e-13 7.67371e-12 -41.1041

-43.9764 5.06764 -5.99165e-12
5.06764 0.514239 2.28291e-12
-5.99165e-12 2.28291e-12 -52.1922

-2.75997 -9.16988 -4.26059e-12
-9.16988 -20.77 -7.54137e-13
-4.26059e-12 -7.54137e-13 -35.8975

-3.97397 -27.9979 -2.07715e-12
-27.9979 -4.61038 6.34159e-13
-2.07715e-12 6.34159e-13 -5.99401

65.5959 41.5204 -1.77399e-12
41.5204 73.165 -1.05634e-11
-1.77399e-12 -1.05634e-11 -10.964

60.1544 -17.9488 -8.7752e-13
-17.9488 0.11732 9.07718e-13
-8.7752e-13 9.07718e-13 -8.04971

-41.8041 -3.70618 -6.16958e-12
-3.70618 -1.18565 -3.0016e-12
-6.16958e-12 -3.0016e-12 -52.727

-14.5941 19.5557 -5.05003e-13
19.5557 -28.5518 -2.05673e-12
-5.05003e-13 -2.05673e-12 -52.8352

18.1409 -12.2732 -6.8449e-13
-12.2732 -29.8985 2.18329e-12
-6.8449e-13 2.18329e-12 -6.22259

38.1726 -43.2983 -4.65642e-12
-43.2983 41.8006 -8.66862e-13
-4.65642e-12 -8.66862e-13 -14.5589

58.143 -18.0631 -5.50552e-12
-18.0631 -2.30234 1.89537e-12
-5.50552e-12 1.89537e-12 -7.91328

-21.4412 17.0854 -1.24153e-12
17.0854 30.3269 1.82491e-12
-1.24153e-12 1.82491e-12 -5.72778

-11.3723 19.3387 -3.43281e-12
19.3387 25.5104 1.62655e-12
-3.43281e-12 1.62655e-12 -3.92121

20.7911 -16.3009 3.9968e-13
-16.3009 -33.1137 8.98096e-13
3.9968e-13 8.98096e-13 -7.31115

12.6153 -34.1847 1.37016e-12
-34.1847 46.4349 -1.61056e-13
1.37016e-12 -1.61056e-13 -10.397

62.3591 19.1815 -3.75759e-12
19.1815 2.81054 -2.70125e-12
-3.75759e-12 -2.70125e-12 -8.41366

46.5129 -25.2879 -9.66338e-13
-25.2879 5.13431 -1.72159e-12
-9.66338e-13 -1.72159e-12 -5.60962

-31.8956 19.4859 8.33407e-13
19.4859 -4.28558 2.45137e-12
8.33407e-13 2.45137e-12 -26.0858

37.0387 29.6488 -3.21639e-12
29.6488 14.5127 5.41197e-13
-3.21639e-12 5.41197e-13 -5.43205

-27.45 -21.8128 -6.70871e-13
-21.8128 -8.22815 9.93326e-13
-6.70871e-13 9.93326e-13 -25.2481

64.8677 -42.7105 1.18424e-13
-42.7105 44.0794 -1.62477e-12
1.18424e-13 -1.62477e-12 -9.50207

-27.7497 5.45984 1.50191e-12
5.45984 2.66934 4.162e-12
1.50191e-12 4.162e-12 -38.3088

-5.55733 -5.32968 -6.98671e-12
-5.32968 57.3872 -4.36865e-12
-6.98671e-12 -4.36865e-12 -5.44908

-0.200036 10.3842 -4.7861e-12
10.3842 -24.8483 -4.27686e-13
-4.7861e-12 -4.27686e-13 -38.3704

-26.4846 21.4127 -3.45649e-12
21.4127 12.2196 2.98191e-12
-3.45649e-12 2.98191e-12 -6.86909

4.72651 5.75382 5.06262e-14
5.75382 -56.04 -1.28697e-12
5.06262e-14 -1.28697e-12 -13.9805

0.539726 11.4589 1.51834e-12
11.4589 -34.0564 2.76016e-12
1.51834e-12 2.76016e-12 -14.8396

106.342 31.8194 -2.12215e-12
31.8194 37.8324 -5.33381e-12
-2.12215e-12 -5.33381e-12 -7.48975

-35.4916 -6.03507 -3.3585e-12
-6.03507 10.6012 -2.33769e-12
-3.3585e-12 -2.33769e-12 -13.4787

-35.3599 9.51965 4.69624e-12
9.51965 1.23359 5.49072e-12
4.69624e-12 5.49072e-12 -14.9599

-42.5873 -2.88074 1.83183e-12
-2.88074 21.1109 2.79954e-12
1.83183e-12 2.79954e-12 -11.2385

-44.9077 23.4021 7.59193e-12
23.4021 -5.89261 2.55351e-12
7.59193e-12 2.55351e-12 -13.9215

9.97105 8.46344 -2.38032e-12
8.46344 -42.3775 -2.95379e-12
-2.38032e-12 -2.95379e-12 -9.07739

-12.334 -28.2389 -2.48572e-12
-28.2389 1.68749 -1.95991e-12
-2.48572e-12 -1.95991e-12 -6.67331

1.30886 -1.71121 9.65006e-13
-1.71121 -55.4561 -2.20579e-12
9.65006e-13 -2.20579e-12 -11.3036

-31.8851 -19.2619 6.70131e-13
-19.2619 -4.59495 5.03301e-15
6.70131e-13 5.03301e-15 -25.9551

-27.9755 21.3078 -1.61441e-12
21.3078 -8.358 -2.26675e-13
-1.61441e-12 -2.26675e-13 -26.0135

-0.651415 -16.5831 -3.471e-12
-16.5831 61.6727 -1.0445e-12
-3.471e-12 -1.0445e-12 -7.94855

-0.650097 -27.936 8.84034e-13
-27.936 -21.3605 1.65112e-12
8.84034e-13 1.65112e-12 -12.7907

-14.0928 -25.1343 -1.72514e-12
-25.1343 7.40686 -1.067e-12
-1.72514e-12 -1.067e-12 -5.23542

91.6764 -31.71 -7.7686e-13
-31.71 19.4846 2.77023e-12
-7.7686e-13 2.77023e-12 -16.3333

-33.7058 3.22258 -5.12124e-12
3.22258 9.19928 1.08002e-12
-5.12124e-12 1.08002e-12 -18.5635

2.75234 28.9437 -1.69997e-12
28.9437 -24.4245 -1.21e-12
-1.69997e-12 -1.21e-12 -11.3162

-38.433 19.6641 2.77126e-12
19.6641 5.22976 -1.4726e-12
2.77126e-12 -1.4726e-12 -9.23463

50.1899 7.99938 -3.42955e-12
7.99938 -16.9631 2.71812e-12
-3.42955e-12 2.71812e-12 -7.06638

60.0306 -33.9349 -3.19744e-14
-33.9349 33.7865 -1.61056e-12
-3.19744e-14 -1.61056e-12 -6.98352

-18.9597 -10.5875 1.64431e-12
-10.5875 -0.541829 3.96335e-12
1.64431e-12 3.96335e-12 -25.4315

-33.9261 23.8994 -3.85854e-12
23.8994 -12.023 5.1086e-13
-3.85854e-12 5.1086e-13 -14.54

58.1554 -32.3831 1.07647e-12
-32.3831 18.0913 -2.38624e-12
1.07647e-12 -2.38624e-12 -10.1335

66.8586 10.7908 -1.61885e-12
10.7908 8.5134 1.68813e-12
-1.61885e-12 1.68813e-12 -5.08408

7.67416 -21.2056 4.45214e-12
-21.2056 88.4631 1.14161e-12
4.45214e-12 1.14161e-12 -11.8622

-33.9851 14.4255 2.29187e-12
14.4255 20.2383 7.40149e-13
2.29187e-12 7.40149e-13 -7.54586

8.47558 23.1427 2.75098e-12
23.1427 -26.0736 6.80345e-13
2.75098e-12 6.80345e-13 -11.2988

34.8683 42.1978 3.25192e-12
42.1978 46.1987 1.81899e-12
3.25192e-12 1.81899e-12 -14.4204

-4.39443 16.5072 -2.56521e-12
16.5072 -35.5422 -1.94627e-11
-2.56521e-12 -1.94627e-11 -73.2888

-5.97942 -4.10826 -2.44841e-12
-4.10826 57.9476 -1.93031e-13
-2.44841e-12 -1.93031e-13 -5.44127

-1.81878 -16.6324 3.80214e-12
-16.6324 -39.4024 9.44563e-12
3.80214e-12 9.44563e-12 -74.1121

-3.32934 -27.335 -1.08299e-12
-27.335 -30.0298 1.24019e-12
-1.08299e-12 1.24019e-12 -21.5543

8.9672 27.4244 2.4271e-12
27.4244 -29.9945 1.40125e-12
2.4271e-12 1.40125e-12 -11.2568

45.7107 -24.4101 -3.54442e-12
-24.4101 5.0246 -5.14759e-12
-3.54442e-12 -5.14759e-12 -5.23569

10.0955 31.3226 -2.53605e-12
31.3226 47.1626 -2.74388e-12
-2.53605e-12 -2.74388e-12 -9.64

14.2725 -10.7049 -4.14483e-15
-10.7049 82.8376 6.04672e-12
-4.14483e-15 6.04672e-12 -6.44683

-38.6329 21.9706 1.58111e-12
21.9706 2.94159 -2.71605e-12
1.58111e-12 -2.71605e-12 -8.5686

1.19264 16.794 -7.33339e-13
16.794 -25.722 -1.24611e-12
-7.33339e-13 -1.24611e-12 -18.5677

-26.5374 15.1537 -8.74856e-13
15.1537 18.4493 -3.33777e-12
-8.74856e-13 -3.33777e-12 -5.70749

43.6583 15.9535 -1.08713e-12
15.9535 -7.28455 2.47639e-12
-1.08713e-12 2.47639e-12 -4.07467

12.5771 -21.4721 2.74092e-12
-21.4721 57.9548 -2.28795e-12
2.74092e-12 -2.28795e-12 -4.71368

65.9954 -29.39 3.71851e-13
-29.39 18.6435 2.55144e-12
3.71851e-13 2.55144e-12 -9.33504

-32.3809 -24.5728 7.04177e-13
-24.5728 -7.28152 -1.33286e-12
7.04177e-13 -1.33286e-12 -8.97582

-22.6667 27.4507 -2.59318e-12
27.4507 -10.3499 9.46502e-13
-2.59318e-12 9.46502e-13 -9.28342

-38.3511 23.1875 -2.95911e-13
23.1875 1.9911 -4.7784e-13
-2.95911e-13 -4.7784e-13 -8.52449

-51.5532 13.1692 -5.01627e-12
13.1692 11.9271 -5.52447e-13
-5.01627e-12 -5.52447e-13 -16.4661

23.4845 9.37219 -4.21529e-12
9.37219 -29.4872 -3.1856e-12
-4.21529e-12 -3.1856e-12 -5.32098

3.76889 -4.66497 9.28739e-13
-4.66497 79.4368 -5.47118e-13
9.28739e-13 -5.47118e-13 -9.53116

-44.94 -36.8334 -5.99224e-13
-36.8334 -19.8289 1.27557e-12
-5.99224e-13 1.27557e-12 -14.7704

-16.0791 27.4649 9.85256e-12
27.4649 1.34122 2.27966e-13
9.85256e-12 2.27966e-13 -6.9141

-5.01492 2.1703 3.57188e-12
2.1703 82.6721 4.19457e-12
3.57188e-12 4.19457e-12 -13.4309

69.0444 34.6096 1.12976e-12
34.6096 15.4966 -3.57225e-12
1.12976e-12 -3.57225e-12 -10.7057

-31.3514 -22.9736 3.68402e-12
-22.9736 -4.63233 -1.75771e-12
3.68402e-12 -1.75771e-12 -8.52931

11.7429 5.73296 3.09974e-13
5.73296 -48.3357 -4.52897e-13
3.09974e-13 -4.52897e-13 -8.64089

43.0652 27.2035 -5.81461e-13
27.2035 10.4522 -4.20523e-12
-5.81461e-13 -4.20523e-12 -5.08043

-9.41494 12.7455 4.99882e-12
12.7455 -14.039 2.05998e-12
4.99882e-12 2.05998e-12 -37.0412

70.3335 24.33 1.32635e-13
24.33 23.8048 -2.58105e-12
1.32635e-13 -2.58105e-12 -6.79931

-10.5861 -13.0551 5.79729e-12
-13.0551 -13.9208 -6.40643e-12
5.79729e-12 -6.40643e-12 -37.379

-4.3791 0.778516 -3.53673e-12
0.778516 59.3972 -3.21757e-12
-3.53673e-12 -3.21757e-12 -4.83028

38.3565 -2.23527 -5.18459e-12
-2.23527 -23.8099 -4.41236e-12
-5.18459e-12 -4.41236e-12 -5.83181

3.59377 -15.7681 3.1819e-12
-15.7681 -53.9714 3.74071e-12
3.1819e-12 3.74071e-12 -21.1243

-42.2768 24.3881 1.13049e-12
24.3881 -11.7369 -2.22933e-12
1.13049e-12 -2.22933e-12 -11.1671

-46.8123 -13.535 -1.99022e-12
-13.535 11.0674 2.78059e-12
-1.99022e-12 2.78059e-12 -12.3536

5.81021 -8.00003 -1.34855e-13
-8.00003 -70.9678 -2.53753e-12
-1.34855e-13 -2.53753e-12 -14.8817

-49.5391 -22.2842 -5.97152e-13
-22.2842 3.74862 3.04112e-12
-5.97152e-13 3.04112e-12 -22.1042

-17.4593 -6.59637 -2.67371e-12
-6.59637 -13.1158 -6.34607e-12
-2.67371e-12 -6.34607e-12 -34.782

-28.7296 -29.9081 1.13835e-12
-29.9081 -9.39984 -1.18098e-12
1.13835e-12 -1.18098e-12 -8.99563

15.6935 11.4534 7.01661e-14
11.4534 80.179 2.04163e-12
7.01661e-14 2.04163e-12 -6.53049

42.2895 -28.1459 1.27898e-13
-28.1459 11.051 -1.23338e-12
1.27898e-13 -1.23338e-12 -5.04367

-47.1705 -13.7723 2.5151e-12
-13.7723 4.19613 9.82325e-13
2.5151e-12 9.82325e-13 -29.3009

2.96489 0.504389 2.70539e-12
0.504389 -56.8117 -1.43544e-12
2.70539e-12 -1.43544e-12 -11.0048

-39.3364 -21.5246 6.57252e-13
-21.5246 -8.85732 2.46914e-12
6.57252e-13 2.46914e-12 -14.774

-40.1948 25.6976 1.8067e-12
25.6976 -14.6914 -1.02448e-12
1.8067e-12 -1.02448e-12 -11.3105

32.2602 -31.4637 5.43684e-12
-31.4637 38.429 -6.43041e-13
5.43684e-12 -6.43041e-13 -4.64786

-31.4688 -7.08519 7.74736e-12
-7.08519 1.70021 -7.86926e-13
7.74736e-12 -7.86926e-13 -40.9934

36.6295 -33.0761 5.3196e-12
-33.0761 72.0262 -1.23161e-13
5.3196e-12 -1.23161e-13 -7.14463

16.6125 -19.1794 4.68366e-13
-19.1794 -25.8693 4.56405e-12
4.68366e-13 4.56405e-12 -7.13286

1.50261 1.9702 -1.60405e-12
1.9702 -51.3914 -2.40311e-12
-1.60405e-12 -2.40311e-12 -15.374

-12.8762 17.8751 2.97421e-12
17.8751 -16.9548 -1.84149e-13
2.97421e-12 -1.84149e-13 -41.0609

10.7133 20.1823 -5.25091e-12
20.1823 59.4532 -2.6669e-12
-5.25091e-12 -2.6669e-12 -4.35632

4.31851 27.2102 -4.88498e-13
27.2102 -16.2235 -1.81632e-12
-4.88498e-13 -1.81632e-12 -8.12387

30.9042 -24.5111 -5.9804e-13
-24.5111 -8.13183 -3.45857e-12
-5.9804e-13 -3.45857e-12 -4.87171

-37.7869 -17.8384 -2.37201e-12
-17.8384 2.40088 -1.30237e-12
-2.37201e-12 -1.30237e-12 -9.86402

55.5129 35.0674 -2.39808e-12
35.0674 42.3449 -9.40285e-13
-2.39808e-12 -9.40285e-13 -6.63612

-40.0147 -21.831 6.33123e-13
-21.831 2.53688 -2.32999e-13
6.33123e-13 -2.32999e-13 -9.39354

2.96668 30.8502 -2.73381e-12
30.8502 -17.3878 4.68514e-12
-2.73381e-12 4.68514e-12 -9.07786

18.5373 -25.2437 -3.62377e-13
-25.2437 -19.4174 1.72277e-12
-3.62377e-13 1.72277e-12 -6.34203

-15.6534 -25.126 1.50961e-12
-25.126 5.89568 5.30894e-12
1.50961e-12 5.30894e-12 -5.77505

42.7178 -18.6877 -2.69651e-12
-18.6877 -9.16526 -7.22563e-12
-2.69651e-12 -7.22563e-12 -5.36865

27.4317 -18.8492 -1.52293e-12
-18.8492 -20.3678 -2.64292e-12
-1.52293e-12 -2.64292e-12 -5.68927

-41.3937 -25.3369 -2.23199e-12
-25.3369 -14.964 -2.43879e-14
-2.23199e-12 -2.43879e-14 -11.5667

29.7807 35.9685 -2.51651e-12
35.9685 25.2269 2.5698e-12
-2.51651e-12 2.5698e-12 -8.64392

-28.5178 15.3765 -5.59996e-13
15.3765 18.5188 3.61193e-14
-5.59996e-13 3.61193e-14 -5.87351

-23.1078 26.4219 6.86266e-13
26.4219 -12.5465 2.71042e-12
6.86266e-13 2.71042e-12 -9.95766

-42.0963 25.4736 -7.72364e-13
25.4736 -11.5925 -1.86517e-14
-7.72364e-13 -1.86517e-14 -10.9924

-37.2881 11.6213 -7.40482e-13
11.6213 11.8441 4.32188e-12
-7.40482e-13 4.32188e-12 -9.08011

64.3921 -8.22679 -3.26968e-12
-8.22679 3.19801 -1.52841e-12
-3.26968e-12 -1.52841e-12 -4.25044

8.73409 18.6059 5.79803e-12
18.6059 59.219 -1.61175e-12
5.79803e-12 -1.61175e-12 -4.16191

-25.6141 -24.3802 -1.51286e-12
-24.3802 0.4585 1.26743e-12
-1.51286e-12 1.26743e-12 -7.21507

-1.14131 25.6654 4.67656e-12
25.6654 13.7523 5.1988e-13
4.67656e-12 5.1988e-13 -4.08217

32.3783 -35.6284 -2.29387e-12
-35.6284 21.7 -8.80481e-13
-2.29387e-12 -8.80481e-13 -8.48563

59.5352 38.3156 -7.17648e-13
38.3156 17.8476 3.6593e-13
-7.17648e-13 3.6593e-13 -13.722

12.1252 -33.3101 -4.67774e-13
-33.3101 42.9128 3.57758e-12
-4.67774e-13 3.57758e-12 -9.54227

30.5511 -31.1587 -2.71072e-12
-31.1587 36.8131 3.93167e-13
-2.71072e-12 3.93167e-13 -4.40502

11.7688 -6.83866 -3.2759e-12
-6.83866 -48.8378 -5.41419e-13
-3.2759e-12 -5.41419e-13 -8.76973

25.2743 30.3409 -1.68399e-12
30.3409 41.0885 -1.6982e-12
-1.68399e-12 -1.6982e-12 -4.45552

62.6811 13.2943 2.60769e-12
13.2943 5.22848 2.3063e-13
2.60769e-12 2.3063e-13 -4.30503

-7.0252 13.3785 -5.67842e-12
13.3785 61.3432 6.51331e-13
-5.67842e-12 6.51331e-13 -8.69449

11.7298 -22.3397 -2.65921e-12
-22.3397 55.7623 2.97007e-12
-2.65921e-12 2.97007e-12 -4.30098

-47.2606 -1.09147 1.85607e-12
-1.09147 12.4096 -2.26782e-13
1.85607e-12 -2.26782e-13 -22.1621

-5.91853 2.24654 -3.32874e-12
2.24654 59.0034 -3.426e-12
-3.32874e-12 -3.426e-12 -5.26199

6.26895 31.0884 3.1554e-12
31.0884 47.8645 -3.49942e-12
3.1554e-12 -3.49942e-12 -9.66006

-39.7251 12.1077 4.41202e-12
12.1077 12.8448 -7.89235e-12
4.41202e-12 -7.89235e-12 -9.31259

40.7378 -27.6469 -7.02253e-13
-27.6469 8.35779 -3.01744e-12
-7.02253e-13 -3.01744e-12 -5.64144

7.54011 20.5569 -1.78317e-12
20.5569 -47.4668 4.43882e-12
-1.78317e-12 4.43882e-12 -16.4815

-3.42101 26.2704 1.97294e-12
26.2704 -31.4867 4.91518e-12
1.97294e-12 4.91518e-12 -22.2525

15.7774 -18.5673 2.33295e-13
-18.5673 -30.0125 1.78968e-12
2.33295e-13 1.78968e-12 -8.18246

4.42877 -1.80103 -2.81849e-12
-1.80103 -34.133 -2.8922e-12
-2.81849e-12 -2.8922e-12 -24.4396

-14.3394 -31.8116 3.29218e-12
-31.8116 -11.9301 -2.50111e-12
3.29218e-12 -2.50111e-12 -9.049

56.2174 23.3271 3.07902e-14
23.3271 0.817211 3.15363e-12
3.07902e-14 3.15363e-12 -8.28752

-27.8279 30.162 -1.46549e-13
30.162 -9.23639 -1.76896e-12
-1.46549e-13 -1.76896e-12 -8.79988

-27.0035 29.2058 2.46766e-12
29.2058 -9.20176 -2.03186e-12
2.46766e-12 -2.03186e-12 -8.67715

28.6284 30.66 1.25648e-12
30.66 40.4053 -5.44749e-12
1.25648e-12 -5.44749e-12 -4.44854

0.343102 27.0848 -1.32043e-13
27.0848 -19.8455 -1.64639e-12
-1.32043e-13 -1.64639e-12 -11.7767

64.507 3.52505 -8.72783e-13
3.52505 -11.8251 -6.08391e-12
-8.72783e-13 -6.08391e-12 -10.0179

-14.8996 31.8172 3.84552e-12
31.8172 -20.7987 4.61586e-12
3.84552e-12 4.61586e-12 -12.4472

-37.9437 -12.5997 3.08709e-12
-12.5997 8.18002 2.03097e-12
3.08709e-12 2.03097e-12 -14.0226

-0.475053 24.2782 -2.15235e-12
24.2782 -29.999 1.6606e-12
-2.15235e-12 1.6606e-12 -20.7714

-23.7273 -29.5786 2.30186e-12
-29.5786 -11.9349 -1.59162e-12
2.30186e-12 -1.59162e-12 -8.84281

-38.1478 -4.89811 -3.20984e-13
-4.89811 18.8465 3.7037e-12
-3.20984e-13 3.7037e-12 -11.7298

69.9435 -24.5557 4.27036e-12
-24.5557 18.0288 9.05942e-13
4.27036e-12 9.05942e-13 -7.04407

39.9817 29.6924 3.22231e-12
29.6924 13.4795 1.67451e-12
3.22231e-12 1.67451e-12 -5.21454

-4.29564 14.6961 -4.20256e-13
14.6961 60.5705 -4.59603e-12
-4.20256e-13 -4.59603e-12 -8.40043

1.61143 -1.13886 -1.32901e-12
-1.13886 -56.1232 3.27442e-13
-1.32901e-12 3.27442e-13 -11.2087

9.61413 0.00223323 -1.00335e-12
0.00223323 -44.7534 -2.95663e-12
-1.00335e-12 -2.95663e-12 -8.43738

-31.0784 23.1237 1.95888e-12
23.1237 -4.33703 -1.62951e-12
1.95888e-12 -1.62951e-12 -8.45783

-34.7625 23.8709 -3.91983e-13
23.8709 -13.1924 -3.25871e-12
-3.91983e-13 -3.25871e-12 -14.8128

-43.3785 -24.3807 6.49795e-13
-24.3807 -12.6139 2.78444e-13
6.49795e-13 2.78444e-13 -11.4682

-39.0588 -0.672709 1.02918e-12
-0.672709 21.0464 -4.62859e-12
1.02918e-12 -4.62859e-12 -10.4952

-40.8066 25.5903 2.04207e-12
25.5903 -13.2224 -9.14898e-13
2.04207e-12 -9.14898e-13 -11.1719

32.3214 -10.3077 2.35604e-12
-10.3077 -25.1529 -4.25556e-12
2.35604e-12 -4.25556e-12 -6.01362

8.70692 -32.8327 3.46153e-12
-32.8327 22.7976 5.92119e-16
3.46153e-12 5.92119e-16 -6.99148

2.39687 -2.30061 3.26391e-12
-2.30061 -49.9606 3.35909e-12
3.26391e-12 3.35909e-12 -14.7724

36.7453 -34.5075 5.31486e-12
-34.5075 24.4796 -7.36004e-13
5.31486e-12 -7.36004e-13 -7.70872

-38.2937 19.0861 2.66424e-12
19.0861 -7.09371 1.38556e-13
2.66424e-12 1.38556e-13 -14.4492

7.87076 -26.4786 -1.34411e-13
-26.4786 -27.9942 -8.73968e-13
-1.34411e-13 -8.73968e-13 -10.9687

63.9465 -9.69004 -1.72662e-12
-9.69004 5.67778 3.46641e-12
-1.72662e-12 3.46641e-12 -5.07192

6.04091 -23.1919 -4.23306e-12
-23.1919 -35.468 1.03058e-12
-4.23306e-12 1.03058e-12 -17.736

0.141355 2.35826 4.70735e-13
2.35826 -56.174 -1.4088e-12
4.70735e-13 -1.4088e-12 -11.5457

-4.062 -23.3213 3.64686e-12
-23.3213 -23.4116 2.51532e-12
3.64686e-12 2.51532e-12 -16.7199

11.0388 -25.8594 -1.41339e-12
-25.8594 -29.4855 1.21414e-12
-1.41339e-12 1.21414e-12 -9.73323

10.2014 -8.54601 -2.70391e-12
-8.54601 -43.4895 3.44732e-12
-2.70391e-12 3.44732e-12 -9.28093

-35.4182 -23.0681 1.32635e-13
-23.0681 -12.6457 -1.20972e-12
1.32635e-13 -1.20972e-12 -15.1029

23.6642 -31.3413 3.41179e-12
-31.3413 5.7127 -2.96059e-15
3.41179e-12 -2.96059e-15 -5.87771

11.0599 -24.587 -1.16115e-12
-24.587 -27.4943 4.32336e-12
-1.16115e-12 4.32336e-12 -10.0478

46.6426 10.8642 -1.30029e-12
10.8642 -16.1166 2.00551e-12
-1.30029e-12 2.00551e-12 -6.79935

-14.1861 26.3401 2.66069e-12
26.3401 -15.6395 4.39263e-12
2.66069e-12 4.39263e-12 -14.1188

-45.2519 -37.613 3.73213e-12
-37.613 -20.6125 1.57382e-12
3.73213e-12 1.57382e-12 -14.9188

-43.7086 37.2653 -2.98546e-12
37.2653 -21.2663 -5.37644e-13
-2.98546e-12 -5.37644e-13 -14.7692

-61.1853 -28.5735 2.18714e-13
-28.5735 -7.49703 -2.49164e-12
2.18714e-13 -2.49164e-12 -15.1993

-58.4162 27.0642 -3.38662e-12
27.0642 -6.27167 2.01765e-12
-3.38662e-12 2.01765e-12 -14.4779

5.60068 -8.52768 1.66918e-12
-8.52768 -71.0643 -3.08005e-12
1.66918e-12 -3.08005e-12 -14.7095

4.3974 9.2737 1.22613e-12
9.2737 -68.8329 -2.21349e-12
1.22613e-12 -2.21349e-12 -14.4374

9.02398 -9.84607 -1.50398e-12
-9.84607 -40.8896 -2.26663e-12
-1.50398e-12 -2.26663e-12 -9.61143

-24.3355 32.1163 -9.39101e-13
32.1163 -24.8102 -4.9016e-12
-9.39101e-13 -4.9016e-12 -21.1453

-25.5229 -32.8544 3.18442e-12
-32.8544 -25.0962 1.29764e-12
3.18442e-12 1.29764e-12 -21.4695

-53.9202 16.0685 4.06475e-12
16.0685 3.40188 3.1178e-12
4.06475e-12 3.1178e-12 -21.4029

-52.421 -15.801 -2.14451e-12
-15.801 3.29719 2.37736e-13
-2.14451e-12 2.37736e-13 -21.0762

6.11237 -3.74749 2.0585e-12
-3.74749 -43.9253 4.40981e-12
2.0585e-12 4.40981e-12 -25.7653

6.91854 3.61026 2.67238e-12
3.61026 -46.3489 3.61104e-12
2.67238e-12 3.61104e-12 -26.1417

-15.6252 9.83671 3.66677e-12
9.83671 46.2622 6.51331e-14
3.66677e-12 6.51331e-14 -5.84751

-22.9184 -24.7739 1.0821e-12
-24.7739 -14.5522 2.26175e-12
1.0821e-12 2.26175e-12 -10.3295

-56.6038 -36.3876 -3.58106e-12
-36.3876 -14.5327 1.19297e-12
-3.58106e-12 1.19297e-12 -13.4369

33.3581 -4.66424 5.3646e-13
-4.66424 -19.8465 -1.806e-12
5.3646e-13 -1.806e-12 -3.94462

3.43345 -16.6948 -1.60553e-12
-16.6948 -52.629 -7.04622e-13
-1.60553e-12 -7.04622e-13 -21.5328

3.67459 16.1758 4.26207e-12
16.1758 -51.8847 1.96435e-12
4.26207e-12 1.96435e-12 -21.4061

6.55578 0.121883 -3.82657e-13
0.121883 -76.7551 5.1955e-14
-3.82657e-13 5.1955e-14 -13.3037

-7.5691 23.3748 -2.46381e-12
23.3748 39.9354 2.69888e-12
-2.46381e-12 2.69888e-12 -6.8848

-56.8895 36.1716 -1.29082e-13
36.1716 -14.0114 1.08979e-12
-1.29082e-13 1.08979e-12 -13.3885

-39.7945 -23.3957 3.24452e-12
-23.3957 2.56159 -1.96021e-12
3.24452e-12 -1.96021e-12 -8.80051

37.1165 23.3524 2.449e-12
23.3524 -8.61264 -6.27054e-13
2.449e-12 -6.27054e-13 -5.75814

4.73544 23.8581 -1.4424e-12
23.8581 -38.2258 -1.21917e-12
-1.4424e-12 -1.21917e-12 -18.9858

24.0134 -31.3131 -5.95435e-12
-31.3131 6.40856 2.72908e-12
-5.95435e-12 2.72908e-12 -5.64769

2.43082 -3.23087 -2.54315e-13
-3.23087 -48.3697 -3.6214e-12
-2.54315e-13 -3.6214e-12 -14.7425

-60.458 -34.1611 -5.01406e-12
-34.1611 -14.3498 2.77482e-12
-5.01406e-12 2.77482e-12 -14.0306

-17.452 8.31984 1.77314e-12
8.31984 45.6915 5.43684e-12
1.77314e-12 5.43684e-12 -5.78055

-9.46833 21.8112 1.70471e-12
21.8112 40.4248 1.11318e-13
1.70471e-12 1.11318e-13 -6.65329

58.603 35.7753 7.11727e-13
35.7753 37.0878 -8.47914e-13
7.11727e-13 -8.47914e-13 -6.91571

70.4832 1.57873 -2.54019e-12
1.57873 -5.54255 2.11372e-12
-2.54019e-12 2.11372e-12 -10.3737

-30.7595 -22.8044 -1.30089e-12
-22.8044 -13.3563 -2.0219e-13
-1.30089e-12 -2.0219e-13 -14.4659

32.8411 31.1834 4.57471e-12
31.1834 69.7936 -1.16055e-13
4.57471e-12 -1.16055e-13 -6.67922

-19.3762 23.6097 6.46712e-12
23.6097 7.68695 4.05601e-13
6.46712e-12 4.05601e-13 -5.51281

47.6367 -5.34947 -1.64964e-12
-5.34947 -17.4326 2.37884e-13
-1.64964e-12 2.37884e-13 -6.82129

33.2193 11.2159 2.93336e-12
11.2159 -23.6363 2.45611e-12
2.93336e-12 2.45611e-12 -6.01338

6.2543 0.429906 -4.91311e-13
0.429906 -77.5525 7.31174e-13
-4.91311e-13 7.31174e-13 -13.4494

-58.936 -29.0312 2.82811e-12
-29.0312 -6.28807 1.45454e-12
2.82811e-12 1.45454e-12 -14.6969

-28.332 -6.31904 -6.01341e-12
-6.31904 -11.3586 4.37398e-12
-6.01341e-12 4.37398e-12 -51.5901

-44.6983 37.4117 -2.82263e-12
37.4117 -20.8115 -1.17314e-12
-2.82263e-12 -1.17314e-12 -14.7733

93.7894 1.66327 2.01084e-12
1.66327 16.6554 -4.2953e-12
2.01084e-12 -4.2953e-12 -6.04296

10.0366 -32.7864 -2.26249e-12
-32.7864 21.3109 4.39411e-12
-2.26249e-12 4.39411e-12 -6.80773

-56.9363 36.6131 3.5516e-12
36.6131 -14.5712 -1.90647e-12
3.5516e-12 -1.90647e-12 -13.5047

-35.0786 -11.1338 -3.7428e-12
-11.1338 19.1771 -1.93741e-12
-3.7428e-12 -1.93741e-12 -8.31603

-5.47705 -25.5141 -1.5555e-12
-25.5141 37.35 3.87956e-12
-1.5555e-12 3.87956e-12 -6.98657

-58.4525 28.8302 -2.78148e-12
28.8302 -6.27144 2.42858e-12
-2.78148e-12 2.42858e-12 -14.6139

28.4958 -26.1415 -1.12443e-12
-26.1415 -4.91215 -2.19558e-12
-1.12443e-12 -2.19558e-12 -4.69675

-21.1708 10.4834 -4.14898e-12
10.4834 -18.559 -2.6011e-12
-4.14898e-12 -2.6011e-12 -51.6857

3.43317 30.8715 -5.19111e-12
30.8715 27.1625 7.10543e-15
-5.19111e-12 7.10543e-15 -6.73252

6.14063 8.12677 -1.06108e-12
8.12677 -72.298 1.44684e-12
-1.06108e-12 1.44684e-12 -14.9841

-11.5456 30.1905 -2.38328e-12
30.1905 -20.6032 4.40862e-12
-2.38328e-12 4.40862e-12 -11.5489

-30.7973 23.3317 -9.68559e-13
23.3317 -5.09961 -3.03283e-12
-9.68559e-13 -3.03283e-12 -8.46389

-25.8637 -32.489 4.39559e-12
-32.489 -24.1129 -2.50588e-12
4.39559e-12 -2.50588e-12 -21.559

9.20555 -23.19 5.70625e-12
-23.19 -27.922 -1.33523e-13
5.70625e-12 -1.33523e-13 -11.4254

-37.6607 10.4708 -2.52879e-12
10.4708 8.9289 -4.14483e-14
-2.52879e-12 -4.14483e-14 -25.3313

-23.0402 -23.4336 3.77742e-12
-23.4336 4.95252 2.09373e-12
3.77742e-12 2.09373e-12 -6.26252

88.8023 -9.70763 -3.22113e-13
-9.70763 10.8074 -9.85804e-13
-3.22113e-13 -9.85804e-13 -10.0307

84.0425 -14.277 3.78956e-12
-14.277 2.81286 9.81141e-13
3.78956e-12 9.81141e-13 -13.1967

5.88811 16.5293 7.74492e-13
16.5293 -33.9324 1.32783e-12
7.74492e-13 1.32783e-12 -22.3762

-16.4209 22.5014 3.18442e-12
22.5014 16.228 8.1594e-13
3.18442e-12 8.1594e-13 -5.0848

-3.91219 29.1629 -2.33117e-12
29.1629 -12.2295 -3.25014e-12
-2.33117e-12 -3.25014e-12 -8.39588

50.9922 0.688662 3.60364e-12
0.688662 -6.53133 -4.79489e-12
3.60364e-12 -4.79489e-12 -3.63398

-48.1409 6.57125 -3.34094e-13
6.57125 14.7862 4.62445e-13
-3.34094e-13 4.62445e-13 -18.9525

10.1157 16.5408 7.83966e-13
16.5408 -36.0794 -1.21473e-12
7.83966e-13 -1.21473e-12 -9.13513

-4.50326 -25.7606 4.12707e-13
-25.7606 35.5552 8.28966e-15
4.12707e-13 8.28966e-15 -6.74653

-39.1908 -2.57245 -1.6704e-12
-2.57245 21.5042 -6.79753e-12
-1.6704e-12 -6.79753e-12 -10.6691

-7.99018 13.3649 5.75836e-13
13.3649 44.4049 3.29929e-12
5.75836e-13 3.29929e-12 -3.94385

3.73475 -29.713 1.15878e-12
-29.713 -17.3643 -2.95319e-12
1.15878e-12 -2.95319e-12 -8.92017

21.4259 -29.9469 -5.26749e-12
-29.9469 14.7561 9.74628e-13
-5.26749e-12 9.74628e-13 -3.91742

6.88118 31.6223 1.85511e-12
31.6223 25.4016 -4.01338e-12
1.85511e-12 -4.01338e-12 -6.82768

2.78567 -15.0202 1.5173e-12
-15.0202 -39.2677 1.09551e-11
1.5173e-12 1.09551e-11 -63.3127

-46.1597 2.04124 7.79303e-13
2.04124 11.4615 2.22104e-12
7.79303e-13 2.22104e-12 -22.7569

-55.4451 20.3002 3.86979e-12
20.3002 3.09592 5.74059e-13
3.86979e-12 5.74059e-13 -22.916

5.91696 15.4391 1.45543e-12
15.4391 -58.8189 1.435e-12
1.45543e-12 1.435e-12 -23.0361

-18.9213 -26.1885 1.12266e-12
-26.1885 -12.9132 4.0122e-12
1.12266e-12 4.0122e-12 -9.65224

41.3457 17.957 2.82441e-12
17.957 -6.27055 -2.13163e-12
2.82441e-12 -2.13163e-12 -3.86096

-44.6828 -5.29418 -1.73526e-12
-5.29418 4.53831 3.85617e-12
-1.73526e-12 3.85617e-12 -39.1456

7.49925 -18.9882 -3.37952e-12
-18.9882 -39.8942 2.30364e-12
-3.37952e-12 2.30364e-12 -11.6597

30.2908 -15.5987 4.46339e-12
-15.5987 -20.5079 2.13977e-12
4.46339e-12 2.13977e-12 -4.80452

-9.6379 11.603 4.74287e-13
11.603 44.3188 8.10137e-12
4.74287e-13 8.10137e-12 -3.85861

8.33417 -25.7337 3.69186e-12
-25.7337 32.9916 1.88649e-12
3.69186e-12 1.88649e-12 -3.63257

-10.2448 -25.2738 1.53359e-12
-25.2738 -19.1 -6.93327e-12
1.53359e-12 -6.93327e-12 -23.1749

17.0051 31.9589 3.19744e-13
31.9589 11.1974 2.84454e-12
3.19744e-13 2.84454e-12 -5.74585

-1.0693 -25.1348 -2.51206e-12
-25.1348 -30.7627 6.08491e-12
-2.51206e-12 6.08491e-12 -20.8916

48.0645 2.59733 2.5544e-12
2.59733 -8.40918 1.89863e-12
2.5544e-12 1.89863e-12 -3.53114

6.55271 -28.93 -4.05009e-13
-28.93 72.0494 -1.53951e-13
-4.05009e-13 -1.53951e-13 -14.5513

21.7915 -29.2304 4.00095e-12
-29.2304 13.9637 2.67342e-12
4.00095e-12 2.67342e-12 -3.92981

35.351 32.1584 1.16884e-12
32.1584 74.1333 7.13148e-12
1.16884e-12 7.13148e-12 -5.44154

-45.283 -11.877 9.913e-13
-11.877 13.9222 -2.05524e-12
9.913e-13 -2.05524e-12 -15.3261

-14.4198 -13.8211 -4.38908e-12
-13.8211 43.3819 -1.07174e-12
-4.38908e-12 -1.07174e-12 -5.67216

-19.2438 -23.9883 -4.81659e-12
-23.9883 -19.8305 -1.20985e-12
-4.81659e-12 -1.20985e-12 -64.2546

2.43859 23.7703 -3.49705e-12
23.7703 36.0064 -7.69755e-13
-3.49705e-12 -7.69755e-13 -3.71058

-15.1823 -32.7263 -4.12707e-12
-32.7263 -21.1188 -1.43174e-12
-4.12707e-12 -1.43174e-12 -14.3127

-14.5645 -11.9629 -1.55846e-12
-11.9629 45.53 -3.54324e-12
-1.55846e-12 -3.54324e-12 -5.73836

7.83563 -19.1169 2.31252e-12
-19.1169 -43.1217 -2.09077e-12
2.31252e-12 -2.09077e-12 -12.6317

6.54593 23.8766 1.91847e-13
23.8766 35.171 8.05282e-13
1.91847e-13 8.05282e-13 -3.44155

23.1733 -4.97545 -1.59635e-12
-4.97545 -30.6756 -2.498e-13
-1.59635e-12 -2.498e-13 -5.36374

36.9698 -30.3422 3.57521e-12
-30.3422 122.625 -2.48453e-12
3.57521e-12 -2.48453e-12 -6.24195

-26.8687 21.0138 1.14516e-12
21.0138 8.4343 -4.01457e-13
1.14516e-12 -4.01457e-13 -7.12936

40.338 -19.3229 -1.76451e-13
-19.3229 -11.3717 -2.50348e-12
-1.76451e-13 -2.50348e-12 -5.72538

6.5287 -21.4459 7.24428e-12
-21.4459 -45.5583 -2.68852e-12
7.24428e-12 -2.68852e-12 -24.9719

20.7051 31.7534 8.45546e-13
31.7534 9.55772 -1.0291e-12
8.45546e-13 -1.0291e-12 -5.80542

13.9189 -29.9713 -1.8486e-12
-29.9713 -7.60522 8.10019e-13
-1.8486e-12 8.10019e-13 -5.94364

6.75482 20.8852 2.21334e-12
20.8852 -27.7918 8.04394e-13
2.21334e-12 8.04394e-13 -11.1085

-38.274 -28.0758 -7.85979e-12
-28.0758 -14.0377 3.06503e-12
-7.85979e-12 3.06503e-12 -11.0605

8.6466 -26.2247 -6.99648e-12
-26.2247 31.1706 3.43429e-14
-6.99648e-12 3.43429e-14 -3.63459

15.3315 28.9805 2.38032e-12
28.9805 19.1538 -8.72783e-13
2.38032e-12 -8.72783e-13 -3.88236

28.6401 26.1909 2.60414e-12
26.1909 -5.63274 1.5099e-13
2.60414e-12 1.5099e-13 -4.80134

7.91485 -14.6098 3.9666e-12
-14.6098 -36.8773 -2.26545e-12
3.9666e-12 -2.26545e-12 -13.991

-6.84085 -16.6172 2.59407e-12
-16.6172 41.3405 -3.56574e-12
2.59407e-12 -3.56574e-12 -3.95879

17.4406 -17.5682 2.03097e-13
-17.5682 -30.9986 2.35367e-13
2.03097e-13 2.35367e-13 -7.10461

19.8419 16.9082 -4.41129e-13
16.9082 -31.6637 2.21719e-12
-4.41129e-13 2.21719e-12 -7.33382

-33.6793 -9.38695 -1.1775e-12
-9.38695 8.75597 -2.70302e-12
-1.1775e-12 -2.70302e-12 -23.9929

43.431 -13.4298 1.01726e-12
-13.4298 -8.36815 -2.50659e-12
1.01726e-12 -2.50659e-12 -3.80354

-19.3777 0.594 1.42109e-13
0.594 43.1449 1.77991e-12
1.42109e-13 1.77991e-12 -4.77479

28.0557 18.5547 -2.88421e-12
18.5547 -18.1982 -3.55952e-12
-2.88421e-12 -3.55952e-12 -4.74903

25.5282 27.6035 3.70193e-12
27.6035 -3.77507 3.30402e-13
3.70193e-12 3.30402e-13 -4.77048

-6.71465 -15.6858 3.21817e-13
-15.6858 43.798 -3.51837e-12
3.21817e-13 -3.51837e-12 -3.84734

-19.9057 -1.2023 4.64991e-12
-1.2023 42.1274 1.61293e-12
4.64991e-12 1.61293e-12 -4.68636

-5.4732 29.1343 -2.17308e-12
29.1343 -23.6462 -7.92255e-13
-2.17308e-12 -7.92255e-13 -16.7967

-37.2732 -10.922 -3.12624e-12
-10.922 21.68 1.15286e-12
-3.12624e-12 1.15286e-12 -7.8294

27.1432 -26.7148 -1.27898e-13
-26.7148 -5.53021 1.71418e-12
-1.27898e-13 1.71418e-12 -4.94353

40.7186 21.3322 7.6857e-13
21.3322 -8.36946 1.63366e-12
7.6857e-13 1.63366e-12 -5.46689

12.378 23.6652 -2.26663e-12
23.6652 -27.1266 1.16825e-12
-2.26663e-12 1.16825e-12 -8.66642

-37.796 5.47067 5.02635e-13
5.47067 23.3113 1.0522e-12
5.02635e-13 1.0522e-12 -8.59686

18.5931 29.065 6.43633e-13
29.065 17.3778 -2.82974e-12
6.43633e-13 -2.82974e-12 -3.94645

-9.98919 22.9638 1.73195e-12
22.9638 -14.9126 7.62324e-12
1.73195e-12 7.62324e-12 -24.0262

68.3155 -59.6909 9.07126e-13
-59.6909 36.3347 -1.87939e-12
9.07126e-13 -1.87939e-12 -23.0108

17.5309 -25.0474 -7.67978e-13
-25.0474 -17.9915 1.42345e-12
-7.67978e-13 1.42345e-12 -6.41702

10.0586 7.06978 2.64351e-12
7.06978 82.5494 -3.46982e-12
2.64351e-12 -3.46982e-12 -7.16499

11.9205 -28.8888 -2.15117e-12
-28.8888 -3.88117 2.71131e-12
-2.15117e-12 2.71131e-12 -5.16512

-66.945 -52.7007 -2.36848e-14
-52.7007 143.248 -6.63173e-14
-2.36848e-14 -6.63173e-14 -49.6696

-68.3883 51.4514 9.4739e-13
51.4514 142.536 9.33179e-13
9.4739e-13 9.33179e-13 -49.8587

19.5688 117.154 -3.81561e-12
117.154 64.1279 8.8581e-13
-3.81561e-12 8.8581e-13 -48.3602

20.5276 -117.096 -8.52651e-13
-117.096 61.0247 -4.02641e-13
-8.52651e-13 -4.02641e-13 -48.7249

157.741 -1.36335 3.31587e-14
-1.36335 -79.1872 3.29597e-15
3.31587e-14 3.29597e-15 -48.9119

110.324 -91.1251 -1.80478e-12
-91.1251 -36.6903 9.40285e-13
-1.80478e-12 9.40285e-13 -50.3064

110.377 91.6529 1.50161e-12
91.6529 -36.5005 -3.52903e-12
1.50161e-12 -3.52903e-12 -50.1793

7.84714 14.3302 -7.19365e-12
14.3302 -42.6814 -2.449e-12
-7.19365e-12 -2.449e-12 -15.0788

-11.7911 25.5367 -7.1824e-13
25.5367 -27.4046 -9.92835e-13
-7.1824e-13 -9.92835e-13 -35.1384

12.4381 6.60595 2.76993e-12
6.60595 -40.5331 -2.95963e-12
2.76993e-12 -2.95963e-12 -8.25182

26.2547 21.7843 -3.67943e-12
21.7843 -19.5279 5.34979e-13
-3.67943e-12 5.34979e-13 -5.85018

-21.2293 17.7442 -1.54913e-12
17.7442 29.8682 6.15212e-13
-1.54913e-12 6.15212e-13 -6.16165

22.5303 28.8981 -1.46964e-12
28.8981 -0.775047 3.19744e-14
-1.46964e-12 3.19744e-14 -4.73012

4.05571 -29.6632 2.81138e-12
-29.6632 -17.466 1.72099e-12
2.81138e-12 1.72099e-12 -8.50388

25.9952 28.0274 1.12976e-12
28.0274 -2.30121 -1.07174e-12
1.12976e-12 -1.07174e-12 -4.73052

-19.3463 -2.84119 -2.43213e-13
-2.84119 43.0709 -8.52651e-14
-2.43213e-13 -8.52651e-14 -4.76934

-13.4117 -26.0975 -3.25488e-12
-26.0975 -25.8383 -1.23723e-12
-3.25488e-12 -1.23723e-12 -35.5215

-19.8414 -4.8623 -1.28697e-12
-4.8623 41.776 -5.1988e-13
-1.28697e-12 -5.1988e-13 -4.7432

-1.82679 23.0161 7.43109e-13
23.0161 -24.377 -1.02437e-13
7.43109e-13 -1.02437e-13 -16.1498

44.9821 26.8702 2.56743e-12
26.8702 8.11173 2.46914e-13
2.56743e-12 2.46914e-13 -5.36859

-52.5091 -13.2161 -1.63306e-12
-13.2161 0.150461 3.55123e-12
-1.63306e-12 3.55123e-12 -20.6173

20.2804 13.7278 -2.09729e-12
13.7278 -31.1408 -2.27314e-12
-2.09729e-12 -2.27314e-12 -7.04233

13.7008 -29.9872 3.23889e-13
-29.9872 -6.69096 7.31178e-12
3.23889e-13 7.31178e-12 -5.83457

29.6307 -24.7132 6.46239e-12
-24.7132 -7.87316 2.33591e-12
6.46239e-12 2.33591e-12 -4.82449

5.76494 -16.0745 -2.86674e-12
-16.0745 -32.3342 -1.46224e-12
-2.86674e-12 -1.46224e-12 -22.2556

12.6277 27.9286 -1.20792e-13
27.9286 -13.6382 -1.14753e-12
-1.20792e-13 -1.14753e-12 -6.419

23.309 23.9771 4.10398e-12
23.9771 -17.9426 2.53723e-13
4.10398e-12 2.53723e-13 -5.96171

-31.0762 -2.79295 -7.10876e-13
-2.79295 30.1316 -1.2393e-12
-7.10876e-13 -1.2393e-12 -6.39787

-28.6286 5.8733 2.69847e-12
5.8733 33.3213 -4.32898e-12
2.69847e-12 -4.32898e-12 -6.05867

34.5483 2.64667 -9.39101e-13
2.64667 -26.1826 1.84116e-12
-9.39101e-13 1.84116e-12 -6.1414

50.6508 -7.28954 5.74355e-12
-7.28954 -14.081 -1.80981e-12
5.74355e-12 -1.80981e-12 -6.77809

11.0413 30.4843 3.86062e-12
30.4843 -4.78715 1.73136e-12
3.86062e-12 1.73136e-12 -5.96551

17.4676 -26.1551 4.81393e-13
-26.1551 -17.4545 4.37546e-12
4.81393e-13 4.37546e-12 -6.35113

-0.0845079 -21.2543 -2.20653e-12
-21.2543 -27.9557 2.03008e-12
-2.20653e-12 2.03008e-12 -17.1664

4.93928 -31.6332 7.18477e-12
-31.6332 4.86172 1.51642e-12
7.18477e-12 1.51642e-12 -5.93435

-8.2266 -27.7851 1.8705e-12
-27.7851 18.5789 4.21944e-12
1.8705e-12 4.21944e-12 -6.12896

-1.64987 29.8867 5.32848e-12
29.8867 10.4475 1.32871e-12
5.32848e-12 1.32871e-12 -5.79939

-26.0157 -9.57781 1.75238e-12
-9.57781 32.9696 -4.08562e-13
1.75238e-12 -4.08562e-13 -5.78634

-31.3221 -1.54474 3.02787e-12
-1.54474 31.6507 5.5825e-12
3.02787e-12 5.5825e-12 -6.22269

-38.9148 5.74795 -2.44769e-12
5.74795 23.9465 3.68653e-12
-2.44769e-12 3.68653e-12 -9.18227

-17.2174 -21.0888 -9.30515e-13
-21.0888 26.5709 4.36273e-12
-9.30515e-13 4.36273e-12 -5.77104

13.0719 24.111 8.71007e-13
24.111 -28.1007 -3.01981e-12
8.71007e-13 -3.01981e-12 -9.20414

21.5549 -9.58965 -3.12047e-12
-9.58965 -31.7057 1.2923e-13
-3.12047e-12 1.2923e-13 -6.59716

-27.1527 7.4652 6.14721e-12
7.4652 34.3345 2.75395e-12
6.14721e-12 2.75395e-12 -5.87306

-35.235 -9.70106 6.10482e-12
-9.70106 22.3135 5.96264e-13
6.10482e-12 5.96264e-13 -8.18268

-29.1549 -16.3305 -3.60571e-12
-16.3305 19.3467 3.3733e-12
-3.60571e-12 3.3733e-12 -6.66083

36.9676 -8.23911 -4.18391e-12
-8.23911 -20.2359 3.96424e-13
-4.18391e-12 3.96424e-13 -5.10057

-14.8095 -32.3468 2.30245e-12
-32.3468 -21.6274 -1.60405e-12
2.30245e-12 -1.60405e-12 -12.9925

-22.8234 9.32074 9.79513e-13
9.32074 33.3232 -3.41653e-13
9.79513e-13 -3.41653e-13 -4.78792

-0.750924 -18.2126 3.26998e-12
-18.2126 -35.1577 -4.29597e-12
3.26998e-12 -4.29597e-12 -33.2781

4.93234 24.8224 -2.6521e-12
24.8224 75.306 4.25852e-12
-2.6521e-12 4.25852e-12 -14.3188

-14.1417 -26.6261 -5.72875e-13
-26.6261 -16.3498 1.08595e-12
-5.72875e-13 1.08595e-12 -14.6404

-6.35703 -30.2028 9.41469e-13
-30.2028 -23.602 -1.44003e-12
9.41469e-13 -1.44003e-12 -17.0876

-31.2699 -0.701308 9.99201e-15
-0.701308 31.5003 5.49723e-12
9.99201e-15 5.49723e-12 -6.34756

28.4876 -16.6224 4.358e-13
-16.6224 -18.0563 2.14525e-12
4.358e-13 2.14525e-12 -4.43712

-37.8044 12.8416 -3.30593e-12
12.8416 11.1651 -3.94588e-12
-3.30593e-12 -3.94588e-12 -10.9884

-8.86111 -3.18049 3.20588e-12
-3.18049 111.05 -7.28306e-12
3.20588e-12 -7.28306e-12 -22.6717

-31.6018 14.2736 -1.18786e-12
14.2736 21.3504 -3.68239e-12
-1.18786e-12 -3.68239e-12 -7.12354

12.4221 -29.4889 -1.9007e-12
-29.4889 -2.51925 8.7752e-13
-1.9007e-12 8.7752e-13 -4.92734

33.6317 25.1055 -7.4684e-12
25.1055 124.029 -9.66338e-13
-7.4684e-12 -9.66338e-13 -6.21429

-13.5028 26.0982 -6.29319e-12
26.0982 -19.0974 -1.71515e-11
-6.29319e-12 -1.71515e-11 -58.8965

-9.55281 -27.8075 -8.0281e-12
-27.8075 -22.8069 7.38313e-12
-8.0281e-12 7.38313e-12 -59.5469

-2.86554 -30.4188 -3.23238e-12
-30.4188 -7.32084 2.54552e-12
-3.23238e-12 2.54552e-12 -7.2865

3.86057 -31.1599 -8.71954e-12
-31.1599 5.6359 3.45205e-13
-8.71954e-12 3.45205e-13 -6.06157

25.152 20.8273 2.20209e-12
20.8273 -17.0338 6.46594e-13
2.20209e-12 6.46594e-13 -4.97603

31.805 15.0059 -4.06194e-13
15.0059 -23.3003 -7.63241e-13
-4.06194e-13 -7.63241e-13 -5.95386

-9.48889 3.08364 9.12396e-12
3.08364 -9.83066 -5.74918e-12
9.12396e-12 -5.74918e-12 -80.9394

-5.54911 -7.00025 -5.62728e-12
-7.00025 -14.0419 7.08663e-12
-5.62728e-12 7.08663e-12 -80.2921

11.7485 4.82431 -2.77112e-13
4.82431 -43.2051 3.87986e-12
-2.77112e-13 3.87986e-12 -7.82676

-35.0562 6.73092 -2.11586e-12
6.73092 24.3753 -2.86586e-13
-2.11586e-12 -2.86586e-13 -7.56329

-36.1099 6.73632 -5.23579e-12
6.73632 24.4326 2.12867e-12
-5.23579e-12 2.12867e-12 -8.30826

74.586 58.6338 1.03029e-12
58.6338 34.1724 9.14232e-13
1.03029e-12 9.14232e-13 -21.8731

-6.91939 -28.1995 -3.37567e-12
-28.1995 16.8753 -2.77941e-12
-3.37567e-12 -2.77941e-12 -6.11585

8.17206 17.9745 -3.61607e-12
17.9745 -44.8757 -2.49104e-12
-3.61607e-12 -2.49104e-12 -12.8963

32.703 9.53968 4.18036e-13
9.53968 -19.0796 8.56352e-13
4.18036e-13 8.56352e-13 -4.0736

3.38811 -26.7231 -5.47059e-12
-26.7231 13.4841 3.40528e-12
-5.47059e-12 3.40528e-12 -3.82624

26.2375 -20.2375 5.77316e-13
-20.2375 -20.3224 8.71303e-13
5.77316e-13 8.71303e-13 -5.86243

65.3899 60.2317 -2.69059e-12
60.2317 34.2892 -2.71072e-12
-2.69059e-12 -2.71072e-12 -23.8678

-13.2424 31.069 -2.12215e-12
31.069 -16.881 -1.43174e-12
-2.12215e-12 -1.43174e-12 -12.7855

-18.6036 -19.7859 -4.23069e-12
-19.7859 28.4147 1.17476e-12
-4.23069e-12 1.17476e-12 -5.9687

11.1746 28.8575 -1.83735e-12
28.8575 -13.3228 1.20792e-12
-1.83735e-12 1.20792e-12 -6.43542

-31.8685 -4.14477 5.84717e-15
-4.14477 30.1479 -2.86645e-12
5.84717e-15 -2.86645e-12 -6.35713

-14.5958 19.609 4.15668e-13
19.609 27.1852 8.3844e-13
4.15668e-13 8.3844e-13 -4.41793

7.47949 30.5185 3.69897e-12
30.5185 -1.66998 1.51582e-13
3.69897e-12 1.51582e-13 -5.65972

-9.34441 -22.473 1.80359e-12
-22.473 23.1493 4.61557e-12
1.80359e-12 4.61557e-12 -4.17469

4.59086 -27.3523 1.02733e-12
-27.3523 11.4492 -4.31299e-12
1.02733e-12 -4.31299e-12 -3.93775

24.2717 11.2569 2.90849e-12
11.2569 102.078 -8.14519e-12
2.90849e-12 -8.14519e-12 -12.405

37.4665 -33.4559 -4.38523e-12
-33.4559 69.2852 -2.60532e-13
-4.38523e-12 -2.60532e-13 -5.70293

-25.3346 -11.6904 -8.53391e-13
-11.6904 31.3681 5.37762e-12
-8.53391e-13 5.37762e-12 -5.64762

16.0967 26.4843 -2.95704e-12
26.4843 -15.5016 4.49537e-12
-2.95704e-12 4.49537e-12 -6.21674

4.95608 29.4777 5.26986e-14
29.4777 1.63718 -5.92119e-16
5.26986e-14 -5.92119e-16 -4.98921

-9.85418 -21.4337 6.40673e-13
-21.4337 25.1209 -1.87169e-12
6.40673e-13 -1.87169e-12 -4.03248

-21.6341 -11.7822 4.41721e-13
-11.7822 32.0821 8.28966e-15
4.41721e-13 8.28966e-15 -4.63646

10.4632 28.4093 1.68991e-12
28.4093 -0.156183 2.1038e-12
1.68991e-12 2.1038e-12 -4.67215

-21.8463 -13.8777 -9.55798e-12
-13.8777 29.4674 9.40877e-13
-9.55798e-12 9.40877e-13 -4.8464

6.9588 27.8547 5.70803e-13
27.8547 73.0844 -2.69296e-12
5.70803e-13 -2.69296e-12 -14.3219

-45.8315 -4.04132 -1.55153e-12
-4.04132 14.0479 -3.99088e-13
-1.55153e-12 -3.99088e-13 -19.9649

0.877507 31.0273 2.79776e-12
31.0273 7.52062 1.68754e-12
2.79776e-12 1.68754e-12 -6.08831

9.7193 14.9011 -2.78533e-12
14.9011 -36.4288 1.68606e-12
-2.78533e-12 1.68606e-12 -10.9849

9.92886 -15.9274 -3.99207e-12
-15.9274 -39.4102 -4.7636e-13
-3.99207e-12 -4.7636e-13 -13.0687

85.6127 -24.2043 8.64494e-13
-24.2043 7.63598 3.22823e-12
8.64494e-13 3.22823e-12 -12.9578

-23.2065 -21.2671 7.93143e-13
-21.2671 10.5139 9.58048e-13
7.93143e-13 9.58048e-13 -6.16455

-16.6005 26.6981 3.30373e-12
26.6981 1.77875 -2.14347e-13
3.30373e-12 -2.14347e-13 -6.58699

-26.2015 -21.7279 4.21174e-12
-21.7279 -5.36471 1.63973e-12
4.21174e-12 1.63973e-12 -23.8673

-41.5971 14.1068 1.16064e-11
14.1068 -3.56015 2.36522e-12
1.16064e-11 2.36522e-12 -64.1289

-0.893368 9.44534 1.88057e-12
9.44534 -44.2599 1.56053e-12
1.88057e-12 1.56053e-12 -64.2304

-20.3842 32.7056 -5.06262e-14
32.7056 -23.2023 6.13435e-13
-5.06262e-14 6.13435e-13 -24.3296

-11.41 26.0001 1.34648e-12
26.0001 22.6042 3.60778e-12
1.34648e-12 3.60778e-12 -5.92493

16.0388 26.6613 -1.83498e-12
26.6613 -17.2867 -1.01874e-12
-1.83498e-12 -1.01874e-12 -6.5492

30.4282 45.1856 5.56118e-12
45.1856 47.5545 8.92915e-13
5.56118e-12 8.92915e-13 -15.1949

-44.889 -11.3438 5.17172e-12
-11.3438 -1.80809 -1.37638e-12
5.17172e-12 -1.37638e-12 -61.6849

-8.29819 -3.433 -1.18308e-11
-3.433 -12.7554 9.73562e-12
-1.18308e-11 9.73562e-12 -77.2295

-14.6917 -0.210092 -1.61278e-12
-0.210092 -6.41858 3.56567e-12
-1.61278e-12 3.56567e-12 -77.3737

27.6648 -53.8022 -2.19913e-12
-53.8022 71.1481 -2.71901e-12
-2.19913e-12 -2.71901e-12 -24.3896

-11.6914 -11.6001 -7.00329e-12
-11.6001 -16.2045 1.95399e-12
-7.00329e-12 1.95399e-12 -37.4316

-32.6104 8.8131 -2.61028e-12
8.8131 -9.41962 8.9555e-12
-2.61028e-12 8.9555e-12 -49.5422

18.2563 -26.1994 -1.10134e-12
-26.1994 -19.5459 2.67075e-12
-1.10134e-12 2.67075e-12 -6.50595

-39.4299 1.01112 2.60699e-12
1.01112 11.9802 -2.67638e-13
2.60699e-12 -2.67638e-13 -19.7219

-30.2021 -20.2677 -1.54351e-12
-20.2677 6.30518 3.72206e-12
-1.54351e-12 3.72206e-12 -7.21544

10.5366 6.25532 -2.90227e-12
6.25532 -52.3898 2.12593e-12
-2.90227e-12 2.12593e-12 -9.63918

-49.8126 15.5963 -1.2988e-12
15.5963 10.1654 -4.06312e-12
-1.2988e-12 -4.06312e-12 -13.5308

-40.2832 7.19164 -2.86404e-12
7.19164 16.5415 -8.56796e-12
-2.86404e-12 -8.56796e-12 -13.774

16.405 20.3927 -2.4869e-14
20.3927 -25.8404 4.42609e-12
-2.4869e-14 4.42609e-12 -7.6071

-9.10013 -3.1139 4.30026e-14
-3.1139 108.394 4.10694e-12
4.30026e-14 4.10694e-12 -23.102

-3.31983 -27.6235 1.56497e-12
-27.6235 -3.62929 -1.00719e-12
1.56497e-12 -1.00719e-12 -5.82938

-7.33484 -26.1162 3.0275e-12
-26.1162 -14.0817 -4.10013e-12
3.0275e-12 -4.10013e-12 -9.81027

-14.1982 -31.4837 -8.70415e-13
-31.4837 -21.7779 2.74743e-13
-8.70415e-13 2.74743e-13 -12.7553

90.7269 32.7493 -1.65556e-12
32.7493 20.9063 -8.62717e-13
-1.65556e-12 -8.62717e-13 -16.506

-23.1176 -20.1166 -4.24845e-12
-20.1166 -17.385 5.96538e-12
-4.24845e-12 5.96538e-12 -44.4283

72.6298 54.3219 -7.4607e-13
54.3219 91.6399 -3.60245e-12
-7.4607e-13 -3.60245e-12 -6.14249

-36.2149 -21.4396 -1.5814e-12
-21.4396 -6.79682 -7.17056e-13
-1.5814e-12 -7.17056e-13 -13.0426

15.0339 14.6504 3.60364e-12
14.6504 -37.7514 -4.76804e-13
3.60364e-12 -4.76804e-13 -8.17825

44.5724 -14.5723 3.471e-12
-14.5723 -8.27136 3.46286e-12
3.471e-12 3.46286e-12 -4.41794

-21.2304 24.0466 -1.53892e-12
24.0466 4.95564 -1.80419e-12
-1.53892e-12 -1.80419e-12 -5.97575

17.3732 20.4279 3.11158e-12
20.4279 -26.7919 -1.77636e-15
3.11158e-12 -1.77636e-15 -6.9509

-51.1401 11.4006 -2.6783e-12
11.4006 7.71054 4.32365e-12
-2.6783e-12 4.32365e-12 -29.9944

-7.28676 -31.58 3.64568e-12
-31.58 -12.8264 -3.58735e-12
3.64568e-12 -3.58735e-12 -8.11851

2.79682 19.8124 3.58469e-12
19.8124 -46.0335 2.56328e-12
3.58469e-12 2.56328e-12 -29.9863

-24.6705 -18.4433 2.11979e-13
-18.4433 17.8362 2.46795e-12
2.11979e-13 2.46795e-12 -5.47944

-42.3402 4.28313 1.34495e-12
4.28313 17.8694 -3.67469e-12
1.34495e-12 -3.67469e-12 -12.7278

-4.09805 9.9267 8.39092e-12
9.9267 -40.2761 -2.71679e-12
8.39092e-12 -2.71679e-12 -47.5496

-2.68826 -8.51331 4.37221e-12
-8.51331 -38.3074 -1.75548e-12
4.37221e-12 -1.75548e-12 -47.4054

81.7218 18.5122 -6.32146e-12
18.5122 1.70038 -2.06709e-12
-6.32146e-12 -2.06709e-12 -14.453

3.89495 7.96496 -2.76579e-12
7.96496 -45.1828 -8.04394e-13
-2.76579e-12 -8.04394e-13 -11.0178

35.871 7.74039 2.66602e-12
7.74039 184.571 -8.71599e-13
2.66602e-12 -8.71599e-13 -9.75794

40.1445 -11.385 4.50251e-12
-11.385 190.368 2.84217e-14
4.50251e-12 2.84217e-14 -7.38978

53.7639 56.4064 3.60008e-12
56.4064 159.253 -4.358e-13
3.60008e-12 -4.358e-13 -11.5006

1.70911 -28.9504 -1.39503e-12
-28.9504 -24.6906 -2.48187e-12
-1.39503e-12 -2.48187e-12 -11.9625

16.0486 -49.1898 2.26071e-12
-49.1898 99.4175 5.52329e-12
2.26071e-12 5.52329e-12 -21.6894

54.5117 -55.9489 -4.46221e-12
-55.9489 149.97 -5.41434e-12
-4.46221e-12 -5.41434e-12 -13.6655

-2.1653 26.2198 1.71892e-12
26.2198 17.5727 5.99224e-13
1.71892e-12 5.99224e-13 -3.99525

134.937 73.8431 6.40436e-12
73.8431 85.0233 2.13163e-14
6.40436e-12 2.13163e-14 -10.1597

-18.7196 13.0474 -4.2822e-12
13.0474 -3.9003 5.51588e-12
-4.2822e-12 5.51588e-12 -26.7699

3.74114 0.039263 3.38455e-12
0.039263 -26.1889 -8.77224e-13
3.38455e-12 -8.77224e-13 -26.7731

144.095 -73.1285 -4.48116e-12
-73.1285 85.3508 1.81425e-12
-4.48116e-12 1.81425e-12 -8.19702

-21.3923 -23.4237 1.64047e-12
-23.4237 12.2482 8.31335e-13
1.64047e-12 8.31335e-13 -6.49041

89.3449 34.7286 -4.30826e-12
34.7286 41.3893 3.57285e-12
-4.30826e-12 3.57285e-12 -11.5482

72.1855 63.4901 1.49214e-12
63.4901 149.691 9.05231e-12
1.49214e-12 9.05231e-12 -9.67434

26.1641 21.6299 -1.67807e-12
21.6299 100.131 -9.02863e-12
-1.67807e-12 -9.02863e-12 -13.0316

73.8723 -65.9189 3.61666e-12
-65.9189 151.141 9.00021e-14
3.61666e-12 9.00021e-14 -9.4029

25.7686 -12.3809 3.59002e-12
-12.3809 105.01 -1.29082e-12
3.59002e-12 -1.29082e-12 -12.4286

-28.6639 6.84187 2.96178e-12
6.84187 3.10673 3.43607e-12
2.96178e-12 3.43607e-12 -37.8542

37.7423 -45.974 9.23706e-14
-45.974 49.6686 -2.60177e-12
9.23706e-14 -2.60177e-12 -15.5324

14.4434 47.5312 -6.12014e-12
47.5312 94.878 2.32111e-13
-6.12014e-12 2.32111e-13 -22.1926

173.336 37.9109 -8.90547e-13
37.9109 48.0403 7.15398e-12
-8.90547e-13 7.15398e-12 -9.52298

7.02099 -29.2854 4.58655e-12
-29.2854 -14.3581 -3.58498e-12
4.58655e-12 -3.58498e-12 -7.15548

-38.4171 12.8967 1.02659e-13
12.8967 6.43529 -1.14101e-12
1.02659e-13 -1.14101e-12 -15.2903

88.5032 -38.1118 -2.15058e-12
-38.1118 34.1623 -6.12488e-12
-2.15058e-12 -6.12488e-12 -14.0998

6.04191 -28.8019 2.79599e-12
-28.8019 -16.1714 -1.14901e-12
2.79599e-12 -1.14901e-12 -8.02933

169.202 -36.3428 -2.36848e-14
-36.3428 34.9279 1.893e-12
-2.36848e-14 1.893e-12 -13.2908

-5.72493 -28.3172 1.5851e-12
-28.3172 -14.4725 -1.35595e-12
1.5851e-12 -1.35595e-12 -9.30892

-17.7899 -25.2945 3.58883e-12
-25.2945 12.0804 1.11318e-13
3.58883e-12 1.11318e-13 -5.93357

118.873 69.4596 4.62326e-12
69.4596 96.2169 -1.6982e-12
4.62326e-12 -1.6982e-12 -11.401

29.4124 -22.9324 1.33937e-12
-22.9324 97.7944 -9.68707e-12
1.33937e-12 -9.68707e-12 -14.3402

117.956 -71.6915 -3.54324e-12
-71.6915 93.6784 -3.51719e-12
-3.54324e-12 -3.51719e-12 -12.417

22.2641 50.7366 -2.67519e-12
50.7366 73.7769 -2.77585e-12
-2.67519e-12 -2.77585e-12 -24.7776

-1.53598 -30.2118 3.66107e-12
-30.2118 -6.55213 7.8811e-13
3.66107e-12 7.8811e-13 -6.99724

-7.04524 -14.6403 3.65959e-12
-14.6403 -21.9193 -2.45285e-12
3.65959e-12 -2.45285e-12 -32.6148

-11.892 11.0927 3.34407e-12
11.0927 -16.4311 -4.80756e-12
3.34407e-12 -4.80756e-12 -77.7959

-26.1693 -5.15998 5.86597e-12
-5.15998 -6.38738 -1.08257e-11
5.86597e-12 -1.08257e-11 -77.6296

-38.9407 13.0836 -2.14625e-12
13.0836 13.7444 -1.07114e-12
-2.14625e-12 -1.07114e-12 -10.2384

-14.4806 -10.6671 7.80531e-12
-10.6671 -17.3186 -8.3924e-12
7.80531e-12 -8.3924e-12 -78.7587

-25.9031 4.09171 2.56491e-12
4.09171 -5.91388 3.84974e-12
2.56491e-12 3.84974e-12 -78.9008

-3.63389 7.43422 1.23084e-11
7.43422 -27.8608 1.72469e-12
1.23084e-11 1.72469e-12 -77.9881

-43.9756 -12.1153 -1.30899e-12
-12.1153 2.91633 -2.70761e-12
-1.30899e-12 -2.70761e-12 -68.1593

11.9737 -30.4696 -9.70661e-12
-30.4696 76.162 2.96059e-13
-9.70661e-12 2.96059e-13 -14.7009

0.52194 -12.9721 -1.22803e-11
-12.9721 -39.9909 1.56645e-12
-1.22803e-11 1.56645e-12 -45.2777

-16.3488 -34.4178 4.53948e-12
-34.4178 -22.0685 1.07159e-12
4.53948e-12 1.07159e-12 -23.5901

-2.42054 -18.1768 -1.65853e-12
-18.1768 -29.8954 -1.98641e-12
-1.65853e-12 -1.98641e-12 -33.627

12.7383 15.4591 4.11227e-12
15.4591 -37.7158 -8.7604e-13
4.11227e-12 -8.7604e-13 -9.62476

-46.9089 9.86433 -5.0178e-12
9.86433 8.87774 1.91864e-11
-5.0178e-12 1.91864e-11 -70.1551

3.46272 19.2277 -5.38621e-12
19.2277 -41.4724 7.33265e-13
-5.38621e-12 7.33265e-13 -70.271

1.47241 11.3062 1.20437e-12
11.3062 -23.9651 2.0813e-12
1.20437e-12 2.0813e-12 -31.8682

109.39 -15.3392 8.14756e-12
-15.3392 -12.5355 8.52651e-13
8.14756e-12 8.52651e-13 -25.0373

-14.32 24.9638 8.10019e-13
24.9638 10.3862 1.45661e-13
8.10019e-13 1.45661e-13 -5.80408

76.606 -61.354 -4.92406e-12
-61.354 37.3647 -1.68399e-12
-4.92406e-12 -1.68399e-12 -22.3954

76.1134 -57.4567 -3.52192e-12
-57.4567 99.2273 7.50807e-13
-3.52192e-12 7.50807e-13 -5.55545

118.195 -36.5437 4.00272e-12
-36.5437 40.6005 -3.07902e-14
4.00272e-12 -3.07902e-14 -7.3786

-51.1149 -5.15897 3.69053e-12
-5.15897 3.34082 -5.82911e-12
3.69053e-12 -5.82911e-12 -60.6614

-50.4788 2.89123 -3.54827e-13
2.89123 3.13508 -6.91787e-12
-3.54827e-13 -6.91787e-12 -60.1339

-11.9756 -24.4565 4.58922e-12
-24.4565 -35.0038 -9.84316e-12
4.58922e-12 -9.84316e-12 -59.1681

-8.99199 -21.7607 4.70853e-12
-21.7607 -37.8885 -4.14631e-12
4.70853e-12 -4.14631e-12 -59.4776

-14.7027 26.1362 6.987e-13
26.1362 -33.0281 -1.33589e-12
6.987e-13 -1.33589e-12 -60.7526

-18.1579 3.0996 1.0355e-11
3.0996 -13.1647 2.87266e-12
1.0355e-11 2.87266e-12 -75.4802

-9.94509 -20.5091 -4.32543e-12
-20.5091 -32.6511 -2.95808e-12
-4.32543e-12 -2.95808e-12 -56.7383

-26.6488 -18.5684 -1.68399e-12
-18.5684 -14.1959 -2.94987e-11
-1.68399e-12 -2.94987e-11 -71.2739

-15.4793 2.43462 -2.78799e-12
2.43462 -12.8527 3.81547e-12
-2.78799e-12 3.81547e-12 -77.8748

-6.02757 -20.5264 -3.20003e-12
-20.5264 -41.4876 -2.28824e-12
-3.20003e-12 -2.28824e-12 -60.5087

-6.75686 20.956 -5.03272e-12
20.956 -40.1438 -2.07686e-12
-5.03272e-12 -2.07686e-12 -60.0199

-14.3165 -3.45865 1.4273e-12
-3.45865 -11.3903 -1.53437e-11
1.4273e-12 -1.53437e-11 -76.8893

-11.2643 -3.11738 -2.44492e-11
-3.11738 -17.6895 2.40949e-11
-2.44492e-11 2.40949e-11 -74.052

-24.2044 12.1098 -2.13725e-12
12.1098 -13.4007 7.19654e-12
-2.13725e-12 7.19654e-12 -69.9701

-22.0827 26.9298 1.6757e-13
26.9298 -26.2671 4.57987e-12
1.6757e-13 4.57987e-12 -57.5839

VECTORS fluid_flux_TPM float
-8.72069e-05 3.10237e-05 8.88727e-21
3.55902e-06 6.88154e-06 2.27191e-21
-1.27855e-05 -1.0224e-05 -1.52819e-20
-4.16998e-06 4.2534e-06 -1.1664e-20
2.27044e-05 -6.31238e-06 -5.52357e-22
2.75718e-06 -1.59013e-05 -1.87268e-20
-8.5783e-05 -3.10885e-05 8.15028e-21
-1.38903e-05 -1.04652e-05 -2.48001e-20
2.21186e-05 9.45385e-07 -1.64406e-21
1.13824e-05 -3.90754e-06 -1.4759e-20
5.45933e-05 1.24823e-05 4.98675e-21
2.34652e-06 -1.71916e-05 -2.00753e-20
1.36096e-05 1.12522e-05 9.09737e-21
2.66169e-06 1.37826e-05 -5.33206e-21
2.05781e-05 -2.94623e-06 1.16143e-21
-1.633e-05 -2.7286e-07 -7.81997e-23
2.75313e-06 1.40968e-05 -2.4893e-21
1.01803e-05 -2.39155e-06 -8.07024e-21
9.8972e-06 1.72203e-05 1.41235e-20
-1.48464e-05 1.88519e-06 -1.42032e-21
-3.60067e-06 -2.1301e-05 7.09381e-22
3.41067e-05 5.94102e-05 1.82308e-20
1.56953e-05 1.63108e-06 -3.65828e-21
1.12257e-05 -1.12799e-05 -8.42071e-21
-1.50763e-05 -3.33194e-06 -1.67025e-20
-6.77135e-07 -1.11293e-05 -2.5166e-20
6.28959e-05 -4.90789e-06 1.2842e-21
1.40641e-05 1.02475e-05 2.55077e-20
-2.51465e-05 -2.06402e-05 -8.38614e-21
4.91144e-05 -1.28124e-05 8.57471e-21
-1.65803e-05 -6.03753e-06 -7.61093e-21
5.5364e-06 -3.2033e-05 -7.66977e-21
4.7649e-05 -4.8042e-05 2.14783e-20
-4.92281e-06 -4.12432e-05 -2.50787e-20
-2.96701e-05 3.70013e-05 1.15384e-20
-3.82433e-05 -1.63933e-05 2.51481e-20
3.2699e-05 4.32108e-05 9.31138e-21
-4.47359e-05 -8.72492e-06 1.58758e-20
1.43728e-05 -1.10805e-05 -1.96269e-20
4.6465e-05 5.01098e-05 3.19171e-21
3.21259e-05 -1.40205e-05 -1.23164e-20
3.36364e-05 -4.2339e-05 -1.08145e-20
-1.98943e-05 -5.03731e-05 1.13302e-20
-1.58962e-05 6.35607e-06 -4.29274e-22
3.05221e-05 -2.93112e-05 3.51791e-21
-3.03293e-05 1.09891e-05 1.83102e-20
-4.04979e-06 -2.03685e-05 -9.26593e-21
7.88528e-06 2.02097e-05 -7.40903e-21
-1.63408e-05 5.92723e-06 5.47364e-21
-1.78181e-05 2.87228e-05 9.74341e-21
3.24054e-05 1.52893e-05 3.82805e-21
2.93622e-05 -1.00742e-05 -9.47572e-21
-1.56648e-05 1.57589e-05 1.5877e-20
-2.3539e-05 -2.06883e-05 1.16267e-20
-2.11379e-05 -5.13197e-06 2.05349e-20
-4.47873e-05 2.70735e-05 2.72217e-20
-2.93692e-05 -3.80197e-05 -2.60782e-20
6.36285e-06 -3.06251e-05 -7.22593e-21
-4.77036e-05 6.48231e-06 3.11168e-20
6.07358e-06 1.36959e-05 -3.77287e-21
-5.57636e-06 -8.17279e-06 1.35894e-20
-6.58303e-06 -1.79422e-05 -9.60098e-22
5.71396e-05 2.48578e-05 -3.9275e-21
9.24214e-06 1.81429e-05 -1.92828e-20
1.22956e-05 -1.44439e-05 -1.33056e-20
-1.64047e-06 -2.0751e-05 -6.16791e-21
4.62076e-06 -8.80491e-06 -1.52349e-20
-1.00898e-05 -5.56449e-06 2.70455e-21
-1.06019e-05 1.19285e-05 -7.96474e-21
2.55802e-06 -4.09232e-06 -3.32572e-21
-1.50424e-05 -1.58421e-05 -3.16237e-20
-2.13634e-05 5.16557e-06 2.22926e-20
-3.5566e-06 3.4479e-05 1.57082e-20
-1.78706e-05 1.07101e-05 3.26296e-21
-9.07021e-06 1.46137e-05 3.6883e-21
-6.03508e-05 7.69159e-06 1.11261e-20
7.81754e-06 -2.16801e-05 -4.24321e-20
-1.88789e-05 -8.89949e-06 -6.59748e-21
1.93359e-06 1.16233e-05 1.48502e-20
2.62993e-05 5.08932e-06 -1.32969e-21
3.41669e-05 -2.89733e-05 3.36199e-22
2.2145e-05 2.05549e-05 -1.20838e-20
1.19077e-05 -2.82215e-06 8.4592e-21
-3.21517e-05 2.40655e-05 1.66565e-20
3.7902e-05 4.84555e-06 -6.73299e-21
-4.98056e-06 4.94115e-05 1.8369e-20
-1.74101e-06 -1.68561e-05 -2.18597e-20
1.81228e-05 9.95405e-06 5.04315e-21
2.93156e-05 3.02839e-05 7.11314e-21
5.50214e-05 3.80111e-05 1.45067e-20
-5.33103e-06 3.0771e-05 2.00322e-20
5.91761e-05 -3.55103e-05 -1.38067e-20
-2.71232e-05 5.34085e-06 2.53118e-20
1.78382e-05 1.10012e-05 2.28641e-20
-2.96393e-05 9.90271e-06 8.67658e-21
1.6652e-05 2.85195e-05 1.07666e-20
1.01682e-05 -4.4384e-05 -6.98007e-21
1.91536e-06 1.16201e-05 -2.07303e-21
-1.47999e-05 -1.76191e-05 3.04317e-21
3.0697e-06 1.74736e-05 2.29436e-21
2.64053e-05 5.25717e-06 1.17103e-20
-1.54424e-05 3.32092e-05 4.18852e-21
4.05498e-05 -1.33324e-05 -1.56343e-21
-3.77284e-06 7.45459e-06 7.5457e-22
9.95225e-06 5.89896e-06 1.00357e-20
-2.28045e-06 -1.13239e-05 -1.17592e-20
3.22047e-06 -1.92507e-05 -2.1656e-20
1.74683e-05 3.89185e-06 2.34286e-21
-7.93674e-06 4.09702e-05 7.76707e-21
-9.80504e-06 2.47909e-07 -1.14411e-20
9.31796e-06 1.18851e-05 1.17031e-20
-2.17723e-06 -4.17114e-05 -3.41546e-21
4.20205e-05 1.28643e-05 -1.05183e-20
4.42229e-06 -7.45275e-06 -1.87053e-20
-1.11445e-05 -3.55343e-06 1.54772e-20
-2.93238e-05 -1.24852e-05 4.37708e-21
1.58028e-05 4.11448e-05 1.15412e-20
-4.34823e-05 -1.55728e-05 -1.09261e-21
1.60176e-05 -4.11213e-05 -2.15547e-20
-3.69959e-06 -3.19182e-05 -2.19397e-20
2.18376e-05 6.52126e-07 -6.09271e-21
-7.17106e-06 1.83955e-05 1.91976e-20
-1.6111e-06 3.96933e-06 -4.64932e-21
-3.68575e-06 -1.65377e-05 -1.2012e-20
5.22967e-06 -8.30161e-06 -3.48545e-20
9.35893e-06 1.58626e-05 -1.2176e-20
3.30992e-05 1.06518e-05 -1.88951e-20
8.61495e-06 -7.45759e-06 -1.21548e-20
-8.27044e-06 -4.51572e-05 -3.10563e-21
2.55506e-05 -1.88187e-05 -9.61972e-21
4.97762e-06 2.77696e-05 -7.91745e-21
-2.81616e-06 -2.84144e-06 1.03307e-20
-8.62574e-06 -8.32534e-06 -2.38375e-20
-4.77639e-06 4.41243e-08 1.1508e-21
-2.28712e-05 2.85923e-05 8.21364e-21
1.87619e-05 -3.73727e-05 -2.44975e-20
-2.65784e-05 4.27118e-05 4.82092e-21
-1.63708e-05 9.53466e-06 1.29939e-20
2.5278e-06 1.21981e-05 1.78864e-20
-2.29854e-05 -3.49872e-05 -8.33642e-21
1.39352e-05 3.3464e-05 1.3399e-20
1.75066e-05 9.36862e-06 1.30073e-20
2.281e-05 -8.52212e-06 -5.8526e-21
-1.25312e-06 -1.12647e-05 -1.08466e-20
-3.39095e-05 -3.15559e-05 9.08886e-22
-2.75131e-06 1.13026e-05 -3.51611e-21
1.72456e-05 1.01711e-05 2.08244e-20
1.88862e-05 -8.82027e-06 -1.98821e-20
8.24264e-06 -1.43439e-05 -1.32801e-20
2.43553e-05 -1.07946e-05 -2.55395e-20
1.90083e-05 -8.99728e-06 -2.96678e-21
4.64032e-06 2.05786e-07 -2.07553e-20
2.57389e-05 2.02198e-05 1.95805e-20
-2.74145e-06 -1.70288e-05 -2.52239e-20
-1.04791e-05 -4.4567e-06 -1.79586e-20
1.12577e-06 -3.88981e-06 -1.81234e-21
-3.15485e-06 1.58459e-05 4.93158e-21
-3.4881e-05 2.76792e-06 8.35794e-21
-1.21207e-05 -3.3256e-05 -9.85346e-21
-7.87855e-06 9.77835e-06 -1.69409e-21
1.35643e-05 1.66392e-05 7.46543e-21
2.65667e-05 -1.87434e-05 8.48284e-21
-3.67898e-05 -2.03493e-05 -1.28027e-21
1.74018e-05 -2.75057e-05 -5.91626e-21
2.28024e-05 -2.72147e-05 -1.2494e-20
-1.09436e-05 3.78467e-06 6.81818e-21
-1.98276e-05 -2.88382e-05 1.35635e-21
-3.48774e-05 -5.79101e-06 1.88386e-21
-3.8522e-06 -3.17405e-05 -1.81471e-20
1.54466e-05 -3.1697e-05 -4.19883e-21
-9.10553e-06 -2.61977e-05 -1.59823e-20
4.58088e-06 3.14033e-05 -8.65836e-22
-1.57513e-05 -2.852e-05 1.11927e-21
2.93861e-06 -1.62911e-05 -3.3678e-20
-2.47376e-05 1.82586e-05 4.1285e-21
-1.50298e-05 -1.21103e-05 -1.75228e-21
-2.7351e-05 -5.17208e-06 1.32016e-20
1.5667e-05 -9.18097e-06 -2.43177e-20
-4.30664e-06 2.39509e-05 8.7551e-21
1.22318e-05 -9.32387e-06 -7.53457e-21
-2.95838e-05 -1.31633e-05 7.02129e-21
-8.83108e-06 -7.45759e-06 -1.46629e-20
9.08149e-06 7.54034e-06 6.60172e-21
2.14254e-05 2.86988e-05 1.20093e-20
-1.75077e-05 -1.08085e-05 -1.52219e-20
-3.2504e-05 -7.51022e-07 1.12601e-20
-1.63356e-05 -5.01582e-06 9.5533e-21
-4.57783e-06 -1.65822e-05 -2.36002e-20
1.76835e-05 2.12378e-05 1.84861e-20
-1.09566e-05 5.87437e-06 -2.0155e-20
6.35997e-07 -2.0554e-05 -2.24591e-20
-4.19369e-05 1.08501e-05 1.83002e-20
2.48589e-05 2.0245e-05 1.24379e-20
3.79422e-06 3.27832e-05 6.75026e-21
-2.43181e-06 3.79696e-06 2.4175e-20
-9.05032e-06 2.51185e-07 2.45806e-20
4.3548e-06 7.75959e-06 9.80011e-21
-1.16932e-05 3.40125e-06 -7.26262e-21
-2.07325e-06 -3.78469e-06 -9.3559e-22
1.65967e-06 2.07586e-05 -1.48132e-20
4.47211e-06 4.49672e-07 1.68378e-20
-1.95369e-05 4.75634e-06 -3.82745e-21
-1.72973e-05 1.93568e-05 1.10293e-21
-3.10725e-06 1.15775e-05 1.23376e-20
-2.92151e-05 1.83931e-05 1.21742e-20
-9.3428e-06 8.97877e-06 -1.12053e-20
1.73101e-05 -1.16131e-05 -3.3299e-20
3.66019e-05 -3.56447e-06 -2.26124e-20
-2.11394e-05 1.12966e-05 2.67967e-20
2.23287e-06 4.49797e-06 6.47955e-21
2.1774e-05 -4.34463e-06 -2.2426e-20
-1.72778e-05 1.03522e-05 1.68008e-20
-9.87117e-06 5.53869e-06 2.23211e-20
1.18307e-05 3.74246e-06 -2.80767e-20
2.18785e-05 -1.34703e-05 -1.65328e-20
-1.73789e-05 9.95549e-06 1.01548e-20
-2.50353e-05 -5.30271e-06 3.03953e-21
-1.67607e-05 -4.36221e-06 -3.10623e-21
9.87561e-06 6.23656e-09 -1.62539e-20
1.01732e-05 1.9535e-07 2.13258e-20
4.3905e-06 8.31666e-06 -2.87527e-20
4.82926e-06 -8.79723e-06 -2.25466e-21
-5.01005e-06 8.41932e-06 3.44216e-20
-5.26635e-06 -8.65707e-06 2.97499e-20
9.9104e-06 -7.40756e-06 -2.45627e-20
-2.03262e-05 3.23472e-06 1.06137e-21
-2.00587e-05 -3.28353e-06 1.5784e-20
-1.2834e-05 1.58755e-05 -1.14933e-20
-1.29138e-05 -1.59298e-05 -2.60525e-20
7.48581e-06 -1.98425e-05 -2.89207e-20
7.20557e-06 1.97626e-05 2.21228e-20
1.55768e-06 2.58834e-05 -1.68408e-21
1.12397e-05 -3.13664e-06 -1.43661e-20
2.35975e-06 -3.86629e-06 -1.54444e-20
-2.141e-05 1.42159e-06 2.5769e-21
7.6767e-06 -1.95118e-05 -2.83229e-20
7.27298e-06 1.96603e-05 1.76427e-20
4.7685e-06 -5.2711e-08 4.8871e-22
8.9676e-06 2.44016e-05 6.80149e-21
-2.24215e-06 -4.01607e-06 -1.17919e-20
2.3176e-06 -1.13163e-05 -1.68335e-20
-2.24289e-05 -1.21507e-05 2.24472e-20
-2.13566e-05 -1.14938e-05 -5.34388e-21
-2.18911e-05 1.36276e-05 7.53091e-21
3.25103e-06 -1.22867e-05 -2.04579e-20
-1.56523e-06 3.38172e-06 -6.8973e-21
-5.87322e-07 -2.5567e-05 -8.50863e-21
-7.71965e-06 -2.44209e-05 -2.23714e-20
3.27013e-05 3.03601e-05 -1.64619e-21
3.54503e-05 -1.81505e-06 -2.27526e-21
-1.27101e-05 -3.63188e-06 9.8583e-21
-2.28906e-05 -4.13824e-05 -2.49665e-20
8.30353e-06 1.37467e-05 5.84209e-22
-2.52335e-05 3.03303e-06 2.02635e-21
2.00634e-05 5.78591e-06 -1.54978e-21
-4.53273e-06 -3.274e-08 2.59094e-20
-4.6648e-06 -8.41202e-06 -1.18377e-20
-7.07229e-06 -3.93293e-05 -1.83233e-20
-9.7075e-06 -8.39062e-08 -1.80635e-20
-4.86697e-05 -1.81555e-06 2.38299e-20
1.73072e-05 -1.91036e-05 -5.04133e-21
2.42913e-06 3.99872e-06 1.95993e-20
-1.20633e-07 -1.75121e-05 -3.06666e-20
-9.81755e-06 2.40816e-05 3.07379e-21
-4.37166e-06 8.62662e-06 -4.7809e-21
2.05543e-05 -1.36048e-05 2.95008e-21
-3.76553e-05 -1.35501e-05 1.13769e-20
-1.52643e-05 -2.03638e-05 1.41632e-20
4.97659e-06 8.38825e-06 1.35803e-20
1.66295e-05 5.16007e-06 1.43057e-20
-4.7634e-06 -7.33754e-06 -1.05289e-20
1.97945e-05 3.54682e-06 -3.07367e-20
1.81865e-05 -9.82473e-06 -2.21789e-20
-3.48787e-07 2.71697e-05 -9.38931e-21
8.31942e-06 -1.36652e-05 -1.6876e-20
4.87981e-05 2.20033e-06 -9.71067e-21
-4.23516e-05 1.14519e-05 2.25448e-20
2.2857e-05 1.15547e-05 4.1373e-21
-6.45209e-06 -1.71769e-05 -2.47122e-20
-1.53478e-05 -8.61696e-06 -6.74542e-21
2.87834e-05 -2.10517e-07 -1.56172e-20
-6.91887e-07 -2.42515e-05 -2.01247e-20
-1.26156e-05 -1.08725e-05 -6.60652e-23
1.02224e-05 -2.34963e-05 1.231e-20
-4.96539e-07 2.05524e-05 4.48957e-21
7.91653e-06 2.60639e-05 -6.24367e-21
1.72654e-05 -9.88281e-06 -3.25159e-20
-1.89451e-05 1.92956e-05 1.45001e-20
1.65253e-05 2.00264e-05 1.53325e-20
-6.22212e-05 1.60195e-05 4.60322e-20
-1.01076e-05 2.60122e-05 6.46528e-21
1.25171e-05 -1.5246e-05 -1.79019e-20
-7.02802e-06 -1.8395e-05 2.5366e-21
-1.18518e-05 4.50498e-06 -2.11239e-20
-2.58894e-05 -7.04471e-06 -1.47004e-21
-6.38514e-06 3.88519e-05 2.17299e-20
-1.26039e-05 1.19006e-05 3.25236e-21
2.07734e-05 -4.47492e-06 -1.90348e-20
-6.87141e-06 -2.57902e-05 -1.56779e-20
-1.48665e-05 2.38872e-05 9.09737e-21
-2.17856e-05 1.25628e-05 1.72485e-20
-2.05663e-05 -1.50531e-05 4.16608e-21
1.80259e-05 -2.06519e-05 -2.57902e-20
-2.75264e-05 -1.45602e-06 7.59306e-21
1.23652e-05 -4.0804e-05 1.14175e-20
1.93833e-05 -1.89102e-05 4.90816e-22
2.47287e-05 4.30752e-05 -7.62337e-21
1.97082e-06 1.98634e-05 -1.90324e-20
2.96063e-06 -2.54173e-05 -1.11443e-20
-4.163e-05 4.69546e-05 3.36155e-20
-1.27002e-05 -2.44078e-05 -1.34905e-20
1.63643e-05 -6.41955e-06 -2.52218e-20
-2.41054e-06 2.57683e-05 8.1051e-21
1.2881e-05 -1.18246e-05 -2.83959e-20
1.38784e-05 2.43092e-05 2.08441e-20
1.72272e-05 -1.40028e-06 2.39469e-21
2.21166e-05 -6.32068e-05 -1.00205e-20
-5.87522e-06 -1.28572e-05 -1.82326e-20
-2.31807e-05 1.00855e-05 6.95672e-21
-2.00169e-05 1.87161e-05 1.78306e-20
2.1609e-05 1.45654e-05 9.20317e-21
1.86697e-05 -1.0755e-05 -7.96657e-21
1.49497e-05 1.25915e-05 2.63438e-20
-5.4273e-06 4.55048e-08 8.97184e-21
1.54012e-05 -2.30837e-05 -2.80129e-22
-1.69877e-05 -2.0406e-05 -2.7929e-20
2.25584e-05 9.77221e-06 1.6745e-20
1.28047e-05 -1.19879e-05 -1.92301e-20
9.55245e-06 -2.48479e-05 5.77982e-21
1.66566e-05 -6.93183e-06 -8.89001e-21
-1.5803e-05 -7.54346e-06 -1.4276e-20
1.29664e-06 -2.62989e-05 -2.31103e-20
-2.61027e-05 4.47238e-06 -1.2347e-20
2.39002e-06 2.4539e-05 -4.6466e-21
2.05818e-05 6.62645e-06 1.6182e-20
-2.17171e-05 -1.07002e-05 1.31255e-20
-8.97584e-06 2.56061e-05 9.83164e-22
-1.49516e-06 -2.41843e-05 1.67467e-21
1.94634e-05 1.18356e-05 -5.85986e-21
-1.7687e-06 1.8082e-05 -1.99894e-20
-2.01357e-05 1.37005e-05 1.77457e-20
2.35074e-05 1.14135e-05 1.52037e-21
-1.71127e-05 -9.98412e-06 -6.30875e-22
9.50863e-08 -1.98318e-05 -2.04358e-22
1.83796e-05 1.99813e-05 2.91853e-20
-2.21505e-05 -1.43015e-05 6.99491e-21
4.8344e-05 -3.39774e-05 -3.2851e-21
1.78944e-05 -1.08209e-05 -2.57995e-21
9.00058e-06 4.30811e-05 -1.17082e-21
1.70317e-05 -1.36767e-05 -5.20655e-21
-1.98723e-05 8.70236e-05 -1.26541e-21
-1.97625e-05 -8.65378e-05 -1.75481e-20
5.71766e-05 7.1708e-05 1.2112e-20
5.69141e-05 -7.13818e-05 6.61535e-21
9.06351e-05 -1.61125e-10 1.34932e-20
-7.81908e-05 3.76329e-05 -7.28473e-21
-7.74451e-05 -3.72773e-05 -8.95426e-21
1.22323e-05 1.18171e-05 9.2635e-21
2.93642e-05 2.18896e-05 5.79409e-21
1.14467e-05 3.3324e-06 2.81155e-21
1.88533e-05 9.75028e-06 9.10463e-21
4.9886e-06 2.01676e-05 1.04198e-20
-1.88295e-05 -1.49785e-05 9.7825e-21
1.70359e-05 -1.0213e-05 -6.57474e-21
1.98501e-05 1.45475e-05 1.167e-20
-3.16656e-06 2.4361e-05 -3.01254e-21
2.9437e-05 -1.99904e-05 -2.23796e-20
3.79343e-06 -2.37369e-05 -1.16937e-20
2.19582e-05 5.22642e-06 -1.66261e-20
2.98922e-05 1.10246e-05 4.83846e-22
1.4207e-05 1.41421e-05 -1.24843e-20
1.58813e-05 6.5929e-06 -9.90498e-21
-1.84965e-05 1.09353e-05 -1.77769e-20
-2.25604e-05 9.03555e-06 1.56888e-20
2.29268e-05 -1.12621e-05 -2.40143e-20
-1.82657e-05 -9.99681e-06 -1.06738e-20
-1.85522e-05 -1.05812e-05 -5.58737e-22
-3.43818e-07 -2.07653e-05 -2.61783e-20
-8.61451e-08 -2.11583e-05 -9.88894e-21
-2.01247e-05 -1.00536e-06 -1.75781e-20
2.66959e-05 -4.0187e-06 -1.23209e-20
1.81099e-05 1.13408e-05 1.66004e-20
-1.78622e-05 1.09438e-05 4.46532e-21
-1.53597e-05 1.66217e-05 2.68607e-22
1.60203e-05 -1.37517e-05 -9.36748e-21
-1.10222e-05 1.74614e-05 -2.22037e-21
-1.42233e-05 -1.48879e-05 -1.58379e-20
-1.15512e-06 2.12082e-05 -3.04529e-21
-1.28754e-06 2.09659e-05 -1.72681e-21
8.97078e-08 -1.98318e-05 -1.4772e-20
6.11013e-06 -1.97351e-05 -1.1503e-20
-1.7139e-05 -9.93437e-06 -1.16461e-20
1.55851e-05 -5.48968e-06 -1.16576e-20
6.63084e-07 2.14754e-05 6.48681e-21
3.00805e-07 1.85055e-05 2.69725e-21
-2.3455e-06 1.68554e-05 -1.61471e-20
2.19064e-05 -5.52682e-06 -1.62424e-20
-1.65395e-05 5.37749e-06 1.96816e-21
4.157e-06 2.15151e-05 1.86174e-21
-3.25549e-05 1.29179e-05 3.33044e-20
9.76227e-06 4.1727e-05 -3.24447e-21
-1.70517e-05 4.56765e-06 1.73368e-20
1.96824e-05 -1.16289e-05 -2.12864e-20
9.45666e-07 2.10173e-05 5.11348e-21
-2.04791e-05 6.69872e-06 6.18001e-21
2.44384e-06 -1.62608e-05 -3.15494e-20
1.8189e-06 -5.80066e-05 2.78456e-21
2.00625e-06 1.74845e-05 2.04882e-20
-1.69603e-05 1.40211e-05 -6.38615e-21
1.78523e-05 6.39652e-05 1.81899e-20
4.57646e-05 3.7703e-05 4.62629e-21
5.20597e-05 -3.52521e-05 -4.22751e-20
1.4814e-05 -1.01661e-05 -2.19888e-20
-1.57839e-05 1.40362e-05 1.89444e-20
-2.02149e-05 -7.91992e-06 -9.9738e-21
-1.96437e-05 -6.82174e-06 -4.96462e-21
5.92612e-05 -2.46095e-05 -2.56708e-20
5.74281e-05 2.38686e-05 -1.28305e-20
1.08935e-05 3.81711e-06 3.2566e-21
7.66555e-07 1.95775e-05 1.27147e-20
7.83464e-08 1.95588e-05 1.67401e-20
-4.83783e-05 -3.69151e-05 1.12523e-20
1.14241e-05 -1.71703e-05 2.54718e-21
1.17322e-05 1.24635e-05 2.51554e-20
-2.14161e-05 -3.39542e-06 -9.85223e-21
-1.40437e-05 1.72005e-05 3.11896e-21
-1.88868e-05 9.16689e-06 7.83347e-21
4.76389e-05 3.36912e-05 1.64846e-20
1.5805e-05 7.06101e-06 1.14536e-21
-5.56625e-06 2.00285e-05 7.20319e-21
-1.69765e-05 -1.17481e-05 -3.23114e-21
1.85607e-06 -2.0541e-05 -1.75011e-20
-8.94892e-06 -1.92655e-05 -2.41725e-20
-1.72476e-05 -1.17725e-05 -9.51392e-21
1.05786e-05 -1.89341e-05 -8.39161e-21
1.41212e-05 -1.69878e-05 -3.81563e-21
-2.44019e-06 -6.14319e-05 -1.72076e-20
2.61779e-05 -4.1122e-05 -3.60706e-21
1.74733e-06 -2.07838e-05 -1.58488e-20
1.79571e-05 1.13544e-05 1.90554e-20
-1.44751e-05 -1.4904e-05 -2.80227e-20
-9.84022e-06 1.97084e-05 -1.6983e-20
-5.03899e-06 2.10049e-05 -1.57082e-20
1.66258e-05 1.42425e-05 1.92616e-20
6.05847e-06 -1.98597e-05 -1.82651e-20
-1.34054e-05 -4.03544e-05 -1.5264e-20
-1.98821e-06 2.50383e-05 -1.5495e-20
1.47906e-05 1.44539e-05 1.77518e-20
-1.29572e-05 -1.02159e-05 8.76025e-21
-1.35139e-05 1.06073e-05 2.16005e-21
4.43391e-05 -1.89116e-05 8.93721e-22
7.56241e-06 -1.3399e-05 -3.12457e-20
-8.31647e-06 -1.26259e-05 -2.24618e-20
2.13287e-05 6.36294e-06 -1.10094e-20
1.09934e-05 -5.06577e-05 -8.8234e-23
-3.84483e-05 -3.49001e-05 1.62866e-20
2.33048e-05 6.20688e-06 -3.4779e-21
-9.32748e-06 -1.82796e-05 -1.5264e-20
1.87041e-05 9.48201e-06 7.88238e-23
-2.85621e-05 -3.25485e-05 -7.95171e-21
9.68738e-06 5.00427e-05 2.43435e-20
3.43313e-05 -5.98548e-05 -1.24525e-20
-3.47343e-05 -5.97717e-05 2.11221e-20
2.78061e-05 -5.2018e-05 5.45574e-21
-1.26971e-05 4.36296e-05 3.00433e-20
-6.27556e-06 3.89742e-05 1.02685e-20
-1.87292e-05 8.94515e-06 1.62354e-20
5.97672e-06 2.42402e-05 -1.26871e-20
-2.39138e-06 1.2653e-05 -2.02575e-21
1.01194e-05 3.23287e-06 5.95234e-21
-3.18822e-06 1.62042e-05 -3.4876e-21
-2.47438e-07 2.099e-05 8.24547e-21
1.66592e-05 9.74978e-06 2.64747e-20
1.71002e-06 5.77195e-05 2.4047e-20
-1.4716e-05 1.07318e-05 9.41902e-21
1.59481e-05 -6.2461e-06 -2.26e-20
1.68705e-05 -4.5086e-06 -1.69897e-20
-6.06575e-05 -8.76811e-06 -3.3242e-21
-3.46028e-05 1.67401e-05 1.99667e-20
-4.3511e-05 -5.25418e-05 -8.95427e-21
8.6558e-06 8.345e-06 -3.89113e-21
1.42087e-05 7.29194e-06 2.46909e-20
2.68025e-05 -4.19552e-06 -2.60797e-20
-8.10371e-06 -1.32417e-05 -9.90925e-21
1.72151e-05 8.42792e-06 -4.25673e-21
7.33472e-06 -3.00321e-05 5.50544e-21
-1.37126e-05 1.02041e-05 -6.42527e-21
-2.23725e-05 -2.14205e-05 7.89077e-21
-5.83549e-06 1.62964e-05 3.22355e-21
-3.27073e-06 2.06768e-05 2.71908e-21
3.38469e-05 2.12946e-05 2.55019e-20
3.61102e-05 -1.92813e-05 -1.05726e-20
-4.20668e-05 -1.1622e-05 1.3442e-20
7.63354e-06 7.6851e-06 1.36363e-20
-4.05827e-06 0.000101352 4.03572e-20
8.61612e-07 -0.000104459 3.84102e-22
5.24498e-05 8.76374e-05 1.59971e-20
-1.91013e-05 8.45717e-06 5.79318e-21
-2.63743e-05 5.65446e-05 2.70756e-20
5.3028e-05 -8.46323e-05 -9.80404e-21
-1.17195e-05 -1.82808e-05 -2.07453e-20
7.79933e-05 6.74919e-05 1.21329e-20
2.39915e-05 -1.79753e-05 -3.05954e-21
-3.60713e-06 -2.98196e-05 7.01735e-21
8.17717e-05 -6.58447e-05 2.94664e-22
-6.74405e-06 1.45171e-05 3.77739e-22
-5.38273e-05 -3.48207e-05 1.04461e-20
-4.30095e-05 -9.31215e-05 -5.1256e-21
-2.41105e-05 -5.77991e-05 -9.35081e-21
-4.39711e-05 9.41285e-05 1.12586e-20
-1.00924e-05 6.40782e-05 1.24273e-20
1.56314e-05 3.7105e-05 7.21803e-21
-2.79529e-05 3.72371e-05 2.56896e-20
-2.52708e-05 -5.51784e-05 -1.57909e-20
0.000100357 1.73154e-05 1.09658e-20
-1.6926e-05 1.07661e-05 4.42591e-21
-5.91183e-06 1.63316e-05 -1.61496e-20
-5.07535e-05 3.76362e-05 4.60561e-20
-1.72747e-05 9.94324e-06 -3.04983e-21
9.9194e-05 -1.5262e-05 -2.89249e-21
-1.53589e-05 7.79801e-06 3.20567e-21
7.19197e-06 -1.44936e-05 -2.35717e-20
-7.79625e-05 -6.09426e-05 -5.09498e-21
-2.58767e-05 5.7712e-05 2.4871e-20
-7.91154e-05 6.037e-05 9.41265e-21
2.4538e-05 5.19457e-05 1.67989e-20
-1.47662e-05 1.05815e-05 -3.11531e-21
-2.0528e-05 2.44744e-05 1.85867e-20
-2.85302e-05 4.98134e-05 2.20294e-20
-5.6771e-05 2.0797e-07 6.38193e-21
-9.44029e-07 1.62946e-05 1.99552e-20
-2.88471e-05 -5.0402e-05 -7.36359e-21
-5.81932e-05 -2.19781e-07 2.70277e-20
-2.8347e-05 4.86919e-05 1.91182e-20
-1.51889e-05 6.62602e-05 3.73074e-20
-1.78632e-05 4.12568e-05 1.11422e-20
-3.38972e-05 2.71349e-05 3.06884e-20
2.43807e-05 -6.05641e-06 -2.35225e-20
3.79993e-05 -2.19512e-06 -2.9266e-20
1.34811e-05 8.19958e-06 9.17164e-21
-1.04682e-05 -7.3981e-05 -1.48781e-20
-6.94427e-05 -2.79717e-05 -3.87473e-21
3.71289e-05 7.32673e-07 -5.92292e-21
5.83609e-05 -1.08912e-05 1.05183e-20
-1.05828e-05 -1.34959e-05 -2.50087e-20
-5.08242e-05 3.7622e-05 3.43619e-20
-4.61295e-05 5.39951e-05 3.62748e-20
6.23571e-05 -2.22305e-05 1.46124e-21
-2.81749e-05 -5.04926e-05 -3.71913e-20
-2.87745e-05 4.97751e-05 7.55759e-21
-5.72493e-05 -1.17105e-06 2.8489e-20
-2.6571e-05 5.05933e-05 2.99815e-20
-5.7948e-05 -8.16941e-07 1.73186e-20
6.60703e-05 1.73909e-05 1.22932e-21
5.63752e-05 1.29238e-06 -3.97161e-22
5.08956e-05 -2.92713e-05 -1.3791e-20
2.4908e-05 -5.94219e-05 -1.14305e-20
2.99159e-05 -4.88524e-05 -1.72837e-20
2.91648e-05 4.86764e-05 -4.77271e-21
2.43429e-05 5.80842e-05 -1.29518e-20
7.57956e-05 -2.00358e-05 -6.12755e-21
4.62622e-05 2.90607e-05 3.21959e-22
4.66201e-05 1.37443e-05 3.58007e-21
TENSORS solid_stress_TPM float
375.029 -24.9203 3.97904e-13
-24.9203 238.568 9.56864e-13
3.97904e-13 9.56864e-13 197.816

456.999 -21.3202 -1.29163e-12
-21.3202 489.983 -2.30808e-12
-1.29163e-12 -2.30808e-12 487.106

454.874 28.0429 -1.79353e-12
28.0429 463.703 1.24641e-13
-1.79353e-12 1.24641e-13 458.454

455.023 -29.8427 2.30527e-12
-29.8427 482.604 -4.56672e-13
2.30527e-12 -4.56672e-13 484.852

527.683 19.9309 1.47082e-12
19.9309 548.453 1.06152e-12
1.47082e-12 1.06152e-12 527.354

437.306 -18.0742 -3.606e-12
-18.0742 480.333 -3.6818e-12
-3.606e-12 -3.6818e-12 458.035

372.323 26.4844 1.98952e-13
26.4844 239.088 2.29979e-12
1.98952e-13 2.29979e-12 197.8

473.647 29.9577 -3.28448e-12
29.9577 469.496 7.79525e-13
-3.28448e-12 7.79525e-13 472.332

471.543 5.48308 1.82136e-12
5.48308 417.818 4.13262e-13
1.82136e-12 4.13262e-13 432.79

504.254 -7.47756 -3.42837e-13
-7.47756 444.107 -2.14591e-12
-3.42837e-13 -2.14591e-12 483.447

360.289 16.3083 -8.36072e-13
16.3083 247.653 4.56997e-12
-8.36072e-13 4.56997e-12 233.642

444.777 -13.4531 -4.14735e-12
-13.4531 498.38 -3.03461e-12
-4.14735e-12 -3.03461e-12 472.234

466.862 27.8329 9.59233e-13
27.8329 468.297 3.36324e-12
9.59233e-13 3.36324e-12 466.729

457.032 -14.34 -1.70137e-12
-14.34 500.428 -3.40764e-12
-1.70137e-12 -3.40764e-12 483.453

512.933 33.3115 1.75474e-12
33.3115 511.592 1.03874e-12
1.75474e-12 1.03874e-12 515.221

489.166 0.560961 1.35358e-12
0.560961 435.518 -1.29014e-12
1.35358e-12 -1.29014e-12 462.267

457.579 -17.9692 -1.94589e-12
-17.9692 512.881 -1.08713e-12
-1.94589e-12 -1.08713e-12 493.592

493.952 -2.6652 -2.92329e-12
-2.6652 439.043 1.79767e-12
-2.92329e-12 1.79767e-12 474.259

418.787 26.6734 -2.35456e-12
26.6734 449.654 1.60583e-12
-2.35456e-12 1.60583e-12 424.048

481.975 -4.19552 1.97412e-12
-4.19552 424.916 -8.9373e-13
1.97412e-12 -8.9373e-13 453.469

425.291 8.66846 5.79092e-13
8.66846 481.897 -4.22891e-12
5.79092e-13 -4.22891e-12 444.836

634.128 6.28779 5.23051e-12
6.28779 633.963 -4.32646e-12
5.23051e-12 -4.32646e-12 570.315

479.146 1.87596 -1.47615e-12
1.87596 422.935 4.78506e-13
-1.47615e-12 4.78506e-13 449.727

447.157 -27.7148 -1.54543e-13
-27.7148 461.144 -9.76996e-14
-1.54543e-13 -9.76996e-14 452.942

481.043 6.84931 2.30926e-14
6.84931 425.435 1.61056e-13
2.30926e-14 1.61056e-13 452.933

449.753 19.1128 8.51245e-13
19.1128 490.312 1.6381e-12
8.51245e-13 1.6381e-12 478.201

377.649 4.18131 1.79767e-12
4.18131 291.651 -1.34707e-12
1.79767e-12 -1.34707e-12 258.999

462.679 30.7455 -8.05282e-14
30.7455 460.709 -1.62418e-12
-8.05282e-14 -1.62418e-12 460.54

384.935 37.0738 -6.85911e-12
37.0738 383.515 -1.75149e-12
-6.85911e-12 -1.75149e-12 348.414

586.94 10.3235 -1.11999e-12
10.3235 563.448 -2.41918e-13
-1.11999e-12 -2.41918e-13 546.869

491.681 14.2168 -1.86517e-13
14.2168 442.492 5.12183e-14
-1.86517e-13 5.12183e-14 465.85

352.851 -17.7801 1.34737e-12
-17.7801 416.717 4.99393e-12
1.34737e-12 4.99393e-12 348.585

331.013 -42.1011 -1.18424e-14
-42.1011 335.869 -6.27172e-12
-1.18424e-14 -6.27172e-12 253.479

531.407 5.98685 1.40106e-12
5.98685 586.886 -3.50801e-12
1.40106e-12 -3.50801e-12 538.578

554.02 -4.84083 -1.81026e-12
-4.84083 582.068 6.98937e-12
-1.81026e-12 6.98937e-12 542.508

577.984 21.0279 8.42585e-13
21.0279 539.944 7.67371e-12
8.42585e-13 7.67371e-12 538.347

556.182 5.06764 -5.99165e-12
5.06764 600.672 2.28291e-12
-5.99165e-12 2.28291e-12 547.966

573.771 -9.16988 -4.26059e-12
-9.16988 555.761 -7.54137e-13
-4.26059e-12 -7.54137e-13 540.634

467.122 -27.9979 -2.07715e-12
-27.9979 466.485 6.34159e-13
-2.07715e-12 6.34159e-13 465.102

330.398 41.5204 -1.77399e-12
41.5204 337.967 -1.05634e-11
-1.77399e-12 -1.05634e-11 253.838

414.519 -17.9488 -8.7752e-13
-17.9488 354.482 9.07718e-13
-8.7752e-13 9.07718e-13 346.315

559.303 -3.70618 -6.16958e-12
-3.70618 599.922 -3.0016e-12
-6.16958e-12 -3.0016e-12 548.38

586.41 19.5557 -5.05003e-13
19.5557 572.452 -2.05673e-12
-5.05003e-13 -2.05673e-12 548.169

490.886 -12.2732 -6.8449e-13
-12.2732 442.847 2.18329e-12
-6.8449e-13 2.18329e-12 466.523

341.703 -43.2983 -4.65642e-12
-43.2983 345.331 -8.66862e-13
-4.65642e-12 -8.66862e-13 288.972

417.545 -18.0631 -5.50552e-12
-18.0631 357.1 1.89537e-12
-5.50552e-12 1.89537e-12 351.489

413 17.0854 -1.24153e-12
17.0854 464.768 1.82491e-12
-1.24153e-12 1.82491e-12 428.713

429.615 19.3387 -3.43281e-12
19.3387 466.498 1.62655e-12
-3.43281e-12 1.62655e-12 437.066

486.766 -16.3009 3.9968e-13
-16.3009 432.861 8.98096e-13
3.9968e-13 8.98096e-13 458.664

355.569 -34.1847 1.37016e-12
-34.1847 389.388 -1.61056e-13
1.37016e-12 -1.61056e-13 332.556

410.238 19.1815 -3.75759e-12
19.1815 350.689 -2.70125e-12
-3.75759e-12 -2.70125e-12 339.465

425.186 -25.2879 -9.66338e-13
-25.2879 383.807 -1.72159e-12
-9.66338e-13 -1.72159e-12 373.064

519.91 19.4859 8.33407e-13
19.4859 547.52 2.45137e-12
8.33407e-13 2.45137e-12 525.72

416.398 29.6488 -3.21639e-12
29.6488 393.872 5.41197e-13
-3.21639e-12 5.41197e-13 373.928

522.164 -21.8128 -6.70871e-13
-21.8128 541.386 9.93326e-13
-6.70871e-13 9.93326e-13 524.366

364.059 -42.7105 1.18424e-13
-42.7105 343.271 -1.62477e-12
1.18424e-13 -1.62477e-12 289.689

553.442 5.45984 1.50191e-12
5.45984 583.861 4.162e-12
1.50191e-12 4.162e-12 542.883

373.704 -5.32968 -6.98671e-12
-5.32968 436.648 -4.36865e-12
-6.98671e-12 -4.36865e-12 373.812

580.81 10.3842 -4.7861e-12
10.3842 556.161 -4.27686e-13
-4.7861e-12 -4.27686e-13 542.639

435.043 21.4127 -3.45649e-12
21.4127 473.747 2.98191e-12
-3.45649e-12 2.98191e-12 454.659

513.561 5.75382 5.06262e-14
5.75382 452.794 -1.28697e-12
5.06262e-14 -1.28697e-12 494.854

522.447 11.4589 1.51834e-12
11.4589 487.851 2.76016e-12
1.51834e-12 2.76016e-12 507.068

383.694 31.8194 -2.12215e-12
31.8194 315.185 -5.33381e-12
-2.12215e-12 -5.33381e-12 269.862

482.077 -6.03507 -3.3585e-12
-6.03507 528.17 -2.33769e-12
-3.3585e-12 -2.33769e-12 504.09

487.086 9.51965 4.69624e-12
9.51965 523.679 5.49072e-12
4.69624e-12 5.49072e-12 507.486

456.448 -2.88074 1.83183e-12
-2.88074 520.146 2.79954e-12
1.83183e-12 2.79954e-12 487.797

464.444 23.4021 7.59193e-12
23.4021 503.459 2.55351e-12
7.59193e-12 2.55351e-12 495.43

496.736 8.46344 -2.38032e-12
8.46344 444.387 -2.95379e-12
-2.38032e-12 -2.95379e-12 477.687

445.496 -28.2389 -2.48572e-12
-28.2389 459.517 -1.95991e-12
-2.48572e-12 -1.95991e-12 451.156

501.67 -1.71121 9.65006e-13
-1.71121 444.905 -2.20579e-12
9.65006e-13 -2.20579e-12 489.058

519.523 -19.2619 6.70131e-13
-19.2619 546.813 5.03301e-15
6.70131e-13 5.03301e-15 525.453

523.294 21.3078 -1.61441e-12
21.3078 542.911 -2.26675e-13
-1.61441e-12 -2.26675e-13 525.255

353.401 -16.5831 -3.471e-12
-16.5831 415.725 -1.0445e-12
-3.471e-12 -1.0445e-12 346.104

506.01 -27.936 8.84034e-13
-27.936 485.3 1.65112e-12
8.84034e-13 1.65112e-12 493.87

449.709 -25.1343 -1.72514e-12
-25.1343 471.209 -1.067e-12
-1.72514e-12 -1.067e-12 458.567

357.862 -31.71 -7.7686e-13
-31.71 285.67 2.77023e-12
-7.7686e-13 2.77023e-12 249.852

498.491 3.22258 -5.12124e-12
3.22258 541.396 1.08002e-12
-5.12124e-12 1.08002e-12 513.633

501.716 28.9437 -1.69997e-12
28.9437 474.539 -1.21e-12
-1.69997e-12 -1.21e-12 487.648

448.434 19.6641 2.77126e-12
19.6641 492.097 -1.4726e-12
2.77126e-12 -1.4726e-12 477.633

440.182 7.99938 -3.42955e-12
7.99938 373.029 2.71812e-12
-3.42955e-12 2.71812e-12 382.925

386.442 -33.9349 -3.19744e-14
-33.9349 360.198 -1.61056e-12
-3.19744e-14 -1.61056e-12 319.428

537.712 -10.5875 1.64431e-12
-10.5875 556.13 3.96335e-12
1.64431e-12 3.96335e-12 531.24

482.647 23.8994 -3.85854e-12
23.8994 504.55 5.1086e-13
-3.85854e-12 5.1086e-13 502.033

385.363 -32.3831 1.07647e-12
-32.3831 345.298 -2.38624e-12
1.07647e-12 -2.38624e-12 317.074

422.188 10.7908 -1.61885e-12
10.7908 363.842 1.68813e-12
-1.61885e-12 1.68813e-12 350.245

307.645 -21.2056 4.45214e-12
-21.2056 388.434 1.14161e-12
4.45214e-12 1.14161e-12 288.109

434.435 14.4255 2.29187e-12
14.4255 488.659 7.40149e-13
2.29187e-12 7.40149e-13 460.874

509.712 23.1427 2.75098e-12
23.1427 475.162 6.80345e-13
2.75098e-12 6.80345e-13 489.937

338.233 42.1978 3.25192e-12
42.1978 349.564 1.81899e-12
3.25192e-12 1.81899e-12 288.945

634.213 16.5072 -2.56521e-12
16.5072 603.066 -1.94627e-11
-2.56521e-12 -1.94627e-11 565.319

372.881 -4.10826 -2.44841e-12
-4.10826 436.808 -1.93031e-13
-2.44841e-12 -1.93031e-13 373.419

637.119 -16.6324 3.80214e-12
-16.6324 599.536 9.44563e-12
3.80214e-12 9.44563e-12 564.826

533.931 -27.335 -1.08299e-12
-27.335 507.231 1.24019e-12
-1.08299e-12 1.24019e-12 515.706

505.287 27.4244 2.4271e-12
27.4244 466.326 1.40125e-12
2.4271e-12 1.40125e-12 485.063

426.916 -24.4101 -3.54442e-12
-24.4101 386.23 -5.14759e-12
-3.54442e-12 -5.14759e-12 375.97

358.929 31.3226 -2.53605e-12
31.3226 395.996 -2.74388e-12
-2.53605e-12 -2.74388e-12 339.193

339.818 -10.7049 -4.14483e-15
-10.7049 408.383 6.04672e-12
-4.14483e-15 6.04672e-12 319.098

453.095 21.9706 1.58111e-12
21.9706 494.67 -2.71605e-12
1.58111e-12 -2.71605e-12 483.159

533.105 16.794 -7.33339e-13
16.794 506.191 -1.24611e-12
-7.33339e-13 -1.24611e-12 513.345

443.444 15.1537 -8.74856e-13
15.1537 488.431 -3.33777e-12
-8.74856e-13 -3.33777e-12 464.274

451.472 15.9535 -1.08713e-12
15.9535 400.529 2.47639e-12
-1.08713e-12 2.47639e-12 403.739

374.481 -21.4721 2.74092e-12
-21.4721 419.859 -2.28795e-12
2.74092e-12 -2.28795e-12 357.19

389.715 -29.39 3.71851e-13
-29.39 342.363 2.55144e-12
3.71851e-13 2.55144e-12 314.384

454.957 -24.5728 7.04177e-13
-24.5728 480.056 -1.33286e-12
7.04177e-13 -1.33286e-12 478.362

466.418 27.4507 -2.59318e-12
27.4507 478.735 9.46502e-13
-2.59318e-12 9.46502e-13 479.802

452.208 23.1875 -2.95911e-13
23.1875 492.551 -4.7784e-13
-2.95911e-13 -4.7784e-13 482.035

466.289 13.1692 -5.01627e-12
13.1692 529.769 -5.52447e-13
-5.01627e-12 -5.52447e-13 501.376

490.853 9.37219 -4.21529e-12
9.37219 437.881 -3.1856e-12
-4.21529e-12 -3.1856e-12 462.048

327.706 -4.66497 9.28739e-13
-4.66497 403.374 -5.47118e-13
9.28739e-13 -5.47118e-13 314.406

462.571 -36.8334 -5.99224e-13
-36.8334 487.682 1.27557e-12
-5.99224e-13 1.27557e-12 492.741

445.842 27.4649 9.85256e-12
27.4649 463.262 2.27966e-13
9.85256e-12 2.27966e-13 455.007

305.666 2.1703 3.57188e-12
2.1703 393.353 4.19457e-12
3.57188e-12 4.19457e-12 297.25

385.99 34.6096 1.12976e-12
34.6096 332.442 -3.57225e-12
1.12976e-12 -3.57225e-12 306.24

453.343 -22.9736 3.68402e-12
-22.9736 480.062 -1.75771e-12
3.68402e-12 -1.75771e-12 476.165

501.386 5.73296 3.09974e-13
5.73296 441.307 -4.52897e-13
3.09974e-13 -4.52897e-13 481.002

422.373 27.2035 -5.81461e-13
27.2035 389.76 -4.20523e-12
-5.81461e-13 -4.20523e-12 374.227

570.537 12.7455 4.99882e-12
12.7455 565.913 2.05998e-12
4.99882e-12 2.05998e-12 542.911

396.171 24.33 1.32635e-13
24.33 349.642 -2.58105e-12
1.32635e-13 -2.58105e-12 319.038

569.159 -13.0551 5.79729e-12
-13.0551 565.825 -6.40643e-12
5.79729e-12 -6.40643e-12 542.367

375.085 0.778516 -3.53673e-12
0.778516 438.861 -3.21757e-12
-3.53673e-12 -3.21757e-12 374.634

461.463 -2.23527 -5.18459e-12
-2.23527 399.296 -4.41236e-12
-5.18459e-12 -4.41236e-12 417.274

538.19 -15.7681 3.1819e-12
-15.7681 480.625 3.74071e-12
3.1819e-12 3.74071e-12 513.472

457.237 24.3881 1.13049e-12
24.3881 487.777 -2.22933e-12
1.13049e-12 -2.22933e-12 488.347

461.249 -13.535 -1.99022e-12
-13.535 519.129 2.78059e-12
-1.99022e-12 2.78059e-12 495.708

514.962 -8.00003 -1.34855e-13
-8.00003 438.184 -2.53753e-12
-1.34855e-13 -2.53753e-12 494.27

488.309 -22.2842 -5.97152e-13
-22.2842 541.597 3.04112e-12
-5.97152e-13 3.04112e-12 515.744

556.046 -6.59637 -2.67371e-12
-6.59637 560.39 -6.34607e-12
-2.67371e-12 -6.34607e-12 538.724

463.859 -29.9081 1.13835e-12
-29.9081 483.188 -1.18098e-12
1.13835e-12 -1.18098e-12 483.593

341.701 11.4534 7.01661e-14
11.4534 406.187 2.04163e-12
7.01661e-14 2.04163e-12 319.477

422.474 -28.1459 1.27898e-13
-28.1459 391.235 -1.23338e-12
1.27898e-13 -1.23338e-12 375.141

507.376 -13.7723 2.5151e-12
-13.7723 558.743 9.82325e-13
2.5151e-12 9.82325e-13 525.246

501.049 0.504389 2.70539e-12
0.504389 441.272 -1.43544e-12
2.70539e-12 -1.43544e-12 487.079

476.936 -21.5246 6.57252e-13
-21.5246 507.415 2.46914e-12
6.57252e-13 2.46914e-12 501.498

459.09 25.6976 1.8067e-12
25.6976 484.593 -1.02448e-12
1.8067e-12 -1.02448e-12 487.974

394.423 -31.4637 5.43684e-12
-31.4637 400.592 -6.43041e-13
5.43684e-12 -6.43041e-13 357.515

552.122 -7.08519 7.74736e-12
-7.08519 585.292 -7.86926e-13
7.74736e-12 -7.86926e-13 542.598

347.204 -33.0761 5.3196e-12
-33.0761 382.601 -1.23161e-13
5.3196e-12 -1.23161e-13 303.43

490.862 -19.1794 4.68366e-13
-19.1794 448.38 4.56405e-12
4.68366e-13 4.56405e-12 467.117

519.702 1.9702 -1.60405e-12
1.9702 466.808 -2.40311e-12
-1.60405e-12 -2.40311e-12 502.825

570.555 17.8751 2.97421e-12
17.8751 566.476 -1.84149e-13
2.97421e-12 -1.84149e-13 542.37

375.284 20.1823 -5.25091e-12
20.1823 424.024 -2.6669e-12
-5.25091e-12 -2.6669e-12 360.214

489.074 27.2102 -4.88498e-13
27.2102 468.532 -1.81632e-12
-4.88498e-13 -1.81632e-12 476.632

454.371 -24.5111 -5.9804e-13
-24.5111 415.335 -3.45857e-12
-5.9804e-13 -3.45857e-12 418.595

454.711 -17.8384 -2.37201e-12
-17.8384 494.899 -1.30237e-12
-2.37201e-12 -1.30237e-12 482.634

379.192 35.0674 -2.39808e-12
35.0674 366.024 -9.40285e-13
-2.39808e-12 -9.40285e-13 317.043

449.145 -21.831 6.33123e-13
-21.831 491.696 -2.32999e-13
6.33123e-13 -2.32999e-13 479.766

485.483 30.8502 -2.73381e-12
30.8502 465.129 4.68514e-12
-2.73381e-12 4.68514e-12 473.439

480.314 -25.2437 -3.62377e-13
-25.2437 442.359 1.72277e-12
-3.62377e-13 1.72277e-12 455.435

448.21 -25.126 1.50961e-12
-25.126 469.759 5.30894e-12
1.50961e-12 5.30894e-12 458.088

445.336 -18.6877 -2.69651e-12
-18.6877 393.453 -7.22563e-12
-2.69651e-12 -7.22563e-12 397.25

470.645 -18.8492 -1.52293e-12
-18.8492 422.845 -2.64292e-12
-1.52293e-12 -2.64292e-12 437.524

458.99 -25.3369 -2.23199e-12
-25.3369 485.42 -2.43879e-14
-2.23199e-12 -2.43879e-14 488.817

386.534 35.9685 -2.51651e-12
35.9685 381.98 2.5698e-12
-2.51651e-12 2.5698e-12 348.109

444.487 15.3765 -5.59996e-13
15.3765 491.523 3.61193e-14
-5.59996e-13 3.61193e-14 467.131

469.387 26.4219 6.86266e-13
26.4219 479.949 2.71042e-12
6.86266e-13 2.71042e-12 482.538

456.133 25.4736 -7.72364e-13
25.4736 486.637 -1.86517e-14
-7.72364e-13 -1.86517e-14 487.237

457.798 11.6213 -7.40482e-13
11.6213 506.93 4.32188e-12
-7.40482e-13 4.32188e-12 486.006

431.941 -8.22679 -3.26968e-12
-8.22679 370.747 -1.52841e-12
-3.26968e-12 -1.52841e-12 363.299

376.771 18.6059 5.79803e-12
18.6059 427.256 -1.61175e-12
5.79803e-12 -1.61175e-12 363.875

452.303 -24.3802 -1.51286e-12
-24.3802 478.375 1.26743e-12
-1.51286e-12 1.26743e-12 470.702

440.737 25.6654 4.67656e-12
25.6654 455.63 5.1988e-13
4.67656e-12 5.1988e-13 437.796

390.946 -35.6284 -2.29387e-12
-35.6284 380.268 -8.80481e-13
-2.29387e-12 -8.80481e-13 350.082

368.932 38.3156 -7.17648e-13
38.3156 327.245 3.6593e-13
-7.17648e-13 3.6593e-13 295.675

363.638 -33.3101 -4.67774e-13
-33.3101 394.426 3.57758e-12
-4.67774e-13 3.57758e-12 341.97

397.92 -31.1587 -2.71072e-12
-31.1587 404.182 3.93167e-13
-2.71072e-12 3.93167e-13 362.964

502.846 -6.83866 -3.2759e-12
-6.83866 442.239 -5.41419e-13
-3.2759e-12 -5.41419e-13 482.307

393.154 30.3409 -1.68399e-12
30.3409 408.968 -1.6982e-12
-1.68399e-12 -1.6982e-12 363.424

429.69 13.2943 2.60769e-12
13.2943 372.237 2.3063e-13
2.60769e-12 2.3063e-13 362.704

350.135 13.3785 -5.67842e-12
13.3785 418.503 6.51331e-13
-5.67842e-12 6.51331e-13 348.465

379.469 -22.3397 -2.65921e-12
-22.3397 423.502 2.97007e-12
-2.65921e-12 2.97007e-12 363.438

491.198 -1.09147 1.85607e-12
-1.09147 550.868 -2.26782e-13
1.85607e-12 -2.26782e-13 516.297

372.854 2.24654 -3.32874e-12
2.24654 437.776 -3.426e-12
-3.32874e-12 -3.426e-12 373.51

357.88 31.0884 3.1554e-12
31.0884 399.476 -3.49942e-12
3.1554e-12 -3.49942e-12 341.951

457.98 12.1077 4.41202e-12
12.1077 510.55 -7.89235e-12
4.41202e-12 -7.89235e-12 488.393

421.441 -27.6469 -7.02253e-13
-27.6469 389.061 -3.01744e-12
-7.02253e-13 -3.01744e-12 375.062

524.747 20.5569 -1.78317e-12
20.5569 469.74 4.43882e-12
-1.78317e-12 4.43882e-12 500.725

534.916 26.2704 1.97294e-12
26.2704 506.85 4.91518e-12
1.97294e-12 4.91518e-12 516.085

494.806 -18.5673 2.33295e-13
-18.5673 449.016 1.78968e-12
2.33295e-13 1.78968e-12 470.846

554.576 -1.80103 -2.81849e-12
-1.80103 516.014 -2.8922e-12
-2.81849e-12 -2.8922e-12 525.708

473.277 -31.8116 3.29218e-12
-31.8116 475.686 -2.50111e-12
3.29218e-12 -2.50111e-12 478.567

412.587 23.3271 3.07902e-14
23.3271 357.187 3.15363e-12
3.07902e-14 3.15363e-12 348.082

464.166 30.162 -1.46549e-13
30.162 482.757 -1.76896e-12
-1.46549e-13 -1.76896e-12 483.194

464.429 29.2058 2.46766e-12
29.2058 482.23 -2.03186e-12
2.46766e-12 -2.03186e-12 482.755

393.936 30.66 1.25648e-12
30.66 405.713 -5.44749e-12
1.25648e-12 -5.44749e-12 360.859

502.844 27.0848 -1.32043e-13
27.0848 482.656 -1.64639e-12
-1.32043e-13 -1.64639e-12 490.725

415.34 3.52505 -8.72783e-13
3.52505 339.008 -6.08391e-12
-8.72783e-13 -6.08391e-12 340.815

493.112 31.8172 3.84552e-12
31.8172 487.213 4.61586e-12
3.84552e-12 4.61586e-12 495.565

476.317 -12.5997 3.08709e-12
-12.5997 522.441 2.03097e-12
3.08709e-12 2.03097e-12 500.238

536.917 24.2782 -2.15235e-12
24.2782 507.393 1.6606e-12
-2.15235e-12 1.6606e-12 516.621

468.167 -29.5786 2.30186e-12
-29.5786 479.959 -1.59162e-12
2.30186e-12 -1.59162e-12 483.051

464.551 -4.89811 -3.20984e-13
-4.89811 521.546 3.7037e-12
-3.20984e-13 3.7037e-12 490.969

400.929 -24.5557 4.27036e-12
-24.5557 349.015 9.05942e-13
4.27036e-12 9.05942e-13 323.942

418.956 29.6924 3.22231e-12
29.6924 392.454 1.67451e-12
3.22231e-12 1.67451e-12 373.76

352.335 14.6961 -4.20256e-13
14.6961 417.202 -4.59603e-12
-4.20256e-13 -4.59603e-12 348.231

500.519 -1.13886 -1.32901e-12
-1.13886 442.785 3.27442e-13
-1.32901e-12 3.27442e-13 487.699

492.461 0.00223323 -1.00335e-12
0.00223323 438.093 -2.95663e-12
-1.00335e-12 -2.95663e-12 474.409

452.956 23.1237 1.95888e-12
23.1237 479.697 -1.62951e-12
1.95888e-12 -1.62951e-12 475.576

481.295 23.8709 -3.91983e-13
23.8709 502.865 -3.25871e-12
-3.91983e-13 -3.25871e-12 501.244

456.578 -24.3807 6.49795e-13
-24.3807 487.343 2.78444e-13
6.49795e-13 2.78444e-13 488.488

457.828 -0.672709 1.02918e-12
-0.672709 517.933 -4.62859e-12
1.02918e-12 -4.62859e-12 486.391

458.875 25.5903 2.04207e-12
25.5903 486.46 -9.14898e-13
2.04207e-12 -9.14898e-13 488.51

465.551 -10.3077 2.35604e-12
-10.3077 408.077 -4.25556e-12
2.35604e-12 -4.25556e-12 427.216

400.858 -32.8327 3.46153e-12
-32.8327 414.949 5.92119e-16
3.46153e-12 5.92119e-16 385.16

518.091 -2.30061 3.26391e-12
-2.30061 465.734 3.35909e-12
3.26391e-12 3.35909e-12 500.922

391.866 -34.5075 5.31486e-12
-34.5075 379.601 -7.36004e-13
5.31486e-12 -7.36004e-13 347.413

477.997 19.0861 2.66424e-12
19.0861 509.197 1.38556e-13
2.66424e-12 1.38556e-13 501.841

506.108 -26.4786 -1.34411e-13
-26.4786 470.243 -8.73968e-13
-1.34411e-13 -8.73968e-13 487.269

424.995 -9.69004 -1.72662e-12
-9.69004 366.726 3.46641e-12
-1.72662e-12 3.46641e-12 355.977

530.263 -23.1919 -4.23306e-12
-23.1919 488.754 1.03058e-12
-4.23306e-12 1.03058e-12 506.486

500.888 2.35826 4.70735e-13
2.35826 444.573 -1.4088e-12
4.70735e-13 -1.4088e-12 489.201

521.189 -23.3213 3.64686e-12
-23.3213 501.839 2.51532e-12
3.64686e-12 2.51532e-12 508.531

502.012 -25.8594 -1.41339e-12
-25.8594 461.488 1.21414e-12
-1.41339e-12 1.21414e-12 481.24

498.823 -8.54601 -2.70391e-12
-8.54601 445.132 3.44732e-12
-2.70391e-12 3.44732e-12 479.341

482.217 -23.0681 1.32635e-13
-23.0681 504.989 -1.20972e-12
1.32635e-13 -1.20972e-12 502.532

428.536 -31.3413 3.41179e-12
-31.3413 410.584 -2.96059e-15
3.41179e-12 -2.96059e-15 398.994

503.264 -24.587 -1.16115e-12
-24.587 464.71 4.32336e-12
-1.16115e-12 4.32336e-12 482.157

441.236 10.8642 -1.30029e-12
10.8642 378.477 2.00551e-12
-1.30029e-12 2.00551e-12 387.794

500.034 26.3401 2.66069e-12
26.3401 498.581 4.39263e-12
2.66069e-12 4.39263e-12 500.102

463.746 -37.613 3.73213e-12
-37.613 488.385 1.57382e-12
3.73213e-12 1.57382e-12 494.079

464.855 37.2653 -2.98546e-12
37.2653 487.297 -5.37644e-13
-2.98546e-12 -5.37644e-13 493.794

446.323 -28.5735 2.18714e-13
-28.5735 500.011 -2.49164e-12
2.18714e-13 -2.49164e-12 492.309

448.558 27.0642 -3.38662e-12
27.0642 500.702 2.01765e-12
-3.38662e-12 2.01765e-12 492.496

513.066 -8.52768 1.66918e-12
-8.52768 436.401 -3.08005e-12
1.66918e-12 -3.08005e-12 492.756

511.229 9.2737 1.22613e-12
9.2737 437.998 -2.21349e-12
1.22613e-12 -2.21349e-12 492.394

501.652 -9.84607 -1.50398e-12
-9.84607 451.739 -2.26663e-12
-1.50398e-12 -2.26663e-12 483.017

510.862 32.1163 -9.39101e-13
32.1163 510.388 -4.9016e-12
-9.39101e-13 -4.9016e-12 514.052

509.638 -32.8544 3.18442e-12
-32.8544 510.065 1.29764e-12
3.18442e-12 1.29764e-12 513.692

481.807 16.0685 4.06475e-12
16.0685 539.129 3.1178e-12
4.06475e-12 3.1178e-12 514.324

483 -15.801 -2.14451e-12
-15.801 538.719 2.37736e-13
-2.14451e-12 2.37736e-13 514.345

556.868 -3.74749 2.0585e-12
-3.74749 506.83 4.40981e-12
2.0585e-12 4.40981e-12 524.99

558.422 3.61026 2.67238e-12
3.61026 505.155 3.61104e-12
2.67238e-12 3.61104e-12 525.362

387.304 9.83671 3.66677e-12
9.83671 449.192 6.51331e-14
3.66677e-12 6.51331e-14 397.082

472.383 -24.7739 1.0821e-12
-24.7739 480.75 2.26175e-12
1.0821e-12 2.26175e-12 484.972

443.456 -36.3876 -3.58106e-12
-36.3876 485.527 1.19297e-12
-3.58106e-12 1.19297e-12 486.623

473.636 -4.66424 5.3646e-13
-4.66424 420.431 -1.806e-12
5.3646e-13 -1.806e-12 436.333

540.251 -16.6948 -1.60553e-12
-16.6948 484.189 -7.04622e-13
-1.60553e-12 -7.04622e-13 515.285

540.971 16.1758 4.26207e-12
16.1758 485.412 1.96435e-12
4.26207e-12 1.96435e-12 515.891

506.857 0.121883 -3.82657e-13
0.121883 423.546 5.1955e-14
-3.82657e-13 5.1955e-14 486.997

384.787 23.3748 -2.46381e-12
23.3748 432.291 2.69888e-12
-2.46381e-12 2.69888e-12 385.471

442.328 36.1716 -1.29082e-13
36.1716 485.206 1.08979e-12
-1.29082e-13 1.08979e-12 485.829

452.592 -23.3957 3.24452e-12
-23.3957 494.948 -1.96021e-12
3.24452e-12 -1.96021e-12 483.586

443.242 23.3524 2.449e-12
23.3524 397.513 -6.27054e-13
2.449e-12 -6.27054e-13 400.368

530.966 23.8581 -1.4424e-12
23.8581 488.004 -1.21917e-12
-1.4424e-12 -1.21917e-12 507.244

428.473 -31.3131 -5.95435e-12
-31.3131 410.868 2.72908e-12
-5.95435e-12 2.72908e-12 398.812

519.855 -3.23087 -2.54315e-13
-3.23087 469.055 -3.6214e-12
-2.54315e-13 -3.6214e-12 502.682

439.39 -34.1611 -5.01406e-12
-34.1611 485.498 2.77482e-12
-5.01406e-12 2.77482e-12 485.818

389.178 8.31984 1.77314e-12
8.31984 452.322 5.43684e-12
1.77314e-12 5.43684e-12 400.85

385.874 21.8112 1.70471e-12
21.8112 435.767 1.11318e-13
1.70471e-12 1.11318e-13 388.689

383.842 35.7753 7.11727e-13
35.7753 362.327 -8.47914e-13
7.11727e-13 -8.47914e-13 318.323

408.177 1.57873 -2.54019e-12
1.57873 332.151 2.11372e-12
-2.54019e-12 2.11372e-12 327.32

485.45 -22.8044 -1.30089e-12
-22.8044 502.854 -2.0219e-13
-1.30089e-12 -2.0219e-13 501.744

351.873 31.1834 4.57471e-12
31.1834 388.825 -1.16055e-13
4.57471e-12 -1.16055e-13 312.353

451.344 23.6097 6.46712e-12
23.6097 478.407 4.05601e-13
6.46712e-12 4.05601e-13 465.207

442.19 -5.34947 -1.64964e-12
-5.34947 377.121 2.37884e-13
-1.64964e-12 2.37884e-13 387.732

464.149 11.2159 2.93336e-12
11.2159 407.293 2.45611e-12
2.93336e-12 2.45611e-12 424.916

505.372 0.429906 -4.91311e-13
0.429906 421.565 7.31174e-13
-4.91311e-13 7.31174e-13 485.668

449.343 -29.0312 2.82811e-12
-29.0312 501.991 1.45454e-12
2.82811e-12 1.45454e-12 493.582

572.507 -6.31904 -6.01341e-12
-6.31904 589.48 4.37398e-12
-6.01341e-12 4.37398e-12 549.249

463.133 37.4117 -2.82263e-12
37.4117 487.02 -1.17314e-12
-2.82263e-12 -1.17314e-12 493.058

408.732 1.66327 2.01084e-12
1.66327 331.598 -4.2953e-12
2.01084e-12 -4.2953e-12 308.899

404.228 -32.7864 -2.26249e-12
-32.7864 415.502 4.39411e-12
-2.26249e-12 4.39411e-12 387.384

443.134 36.6131 3.5516e-12
36.6131 485.499 -1.90647e-12
3.5516e-12 -1.90647e-12 486.565

444.673 -11.1338 -3.7428e-12
-11.1338 498.929 -1.93741e-12
-3.7428e-12 -1.93741e-12 471.436

386.067 -25.5141 -1.5555e-12
-25.5141 428.894 3.87956e-12
-1.5555e-12 3.87956e-12 384.558

449.443 28.8302 -2.78148e-12
28.8302 501.624 2.42858e-12
-2.78148e-12 2.42858e-12 493.282

452.704 -26.1415 -1.12443e-12
-26.1415 419.296 -2.19558e-12
-1.12443e-12 -2.19558e-12 419.512

579.548 10.4834 -4.14898e-12
10.4834 582.16 -2.6011e-12
-4.14898e-12 -2.6011e-12 549.033

398.323 30.8715 -5.19111e-12
30.8715 422.052 7.10543e-15
-5.19111e-12 7.10543e-15 388.157

515.7 8.12677 -1.06108e-12
8.12677 437.262 1.44684e-12
-1.06108e-12 1.44684e-12 494.576

493.799 30.1905 -2.38328e-12
30.1905 484.741 4.40862e-12
-2.38328e-12 4.40862e-12 493.796

453.459 23.3317 -9.68559e-13
23.3317 479.156 -3.03283e-12
-9.68559e-13 -3.03283e-12 475.792

510.696 -32.489 4.39559e-12
-32.489 512.447 -2.50588e-12
4.39559e-12 -2.50588e-12 515.001

510.302 -23.19 5.70625e-12
-23.19 473.175 -1.33523e-13
5.70625e-12 -1.33523e-13 489.672

511.397 10.4708 -2.52879e-12
10.4708 557.987 -4.14483e-14
-2.52879e-12 -4.14483e-14 523.726

452.166 -23.4336 3.77742e-12
-23.4336 480.159 2.09373e-12
3.77742e-12 2.09373e-12 468.944

394.404 -9.70763 -3.22113e-13
-9.70763 316.409 -9.85804e-13
-3.22113e-13 -9.85804e-13 295.571

387.284 -14.277 3.78956e-12
-14.277 306.055 9.81141e-13
3.78956e-12 9.81141e-13 290.045

547.579 16.5293 7.74492e-13
16.5293 507.758 1.32783e-12
7.74492e-13 1.32783e-12 519.315

436.481 22.5014 3.18442e-12
22.5014 469.13 8.1594e-13
3.18442e-12 8.1594e-13 447.817

475.956 29.1629 -2.33117e-12
29.1629 467.639 -3.25014e-12
-2.33117e-12 -3.25014e-12 471.472

450.294 0.688662 3.60364e-12
0.688662 392.771 -4.79489e-12
3.60364e-12 -4.79489e-12 395.668

478.345 6.57125 -3.34094e-13
6.57125 541.273 4.62445e-13
-3.34094e-13 4.62445e-13 507.534

507.324 16.5408 7.83966e-13
16.5408 461.129 -1.21473e-12
7.83966e-13 -1.21473e-12 488.073

389.971 -25.7606 4.12707e-13
-25.7606 430.029 8.28966e-15
4.12707e-13 8.28966e-15 387.728

456.312 -2.57245 -1.6704e-12
-2.57245 517.007 -6.79753e-12
-1.6704e-12 -6.79753e-12 484.834

400.583 13.3649 5.75836e-13
13.3649 452.978 3.29929e-12
5.75836e-13 3.29929e-12 404.63

486.907 -29.713 1.15878e-12
-29.713 465.808 -2.95319e-12
1.15878e-12 -2.95319e-12 474.252

430.292 -29.9469 -5.26749e-12
-29.9469 423.622 9.74628e-13
-5.26749e-12 9.74628e-13 404.948

399.705 31.6223 1.85511e-12
31.6223 418.225 -4.01338e-12
1.85511e-12 -4.01338e-12 385.996

623.998 -15.0202 1.5173e-12
-15.0202 581.944 1.09551e-11
1.5173e-12 1.09551e-11 557.899

494.516 2.04124 7.79303e-13
2.04124 552.137 2.22104e-12
7.79303e-13 2.22104e-12 517.919

483.496 20.3002 3.86979e-12
20.3002 542.037 5.74059e-13
3.86979e-12 5.74059e-13 516.025

544.7 15.4391 1.45543e-12
15.4391 479.964 1.435e-12
1.45543e-12 1.435e-12 515.747

473.741 -26.1885 1.12266e-12
-26.1885 479.749 4.0122e-12
1.12266e-12 4.0122e-12 483.01

452.118 17.957 2.82441e-12
17.957 404.502 -2.13163e-12
2.82441e-12 -2.13163e-12 406.911

531.575 -5.29418 -1.73526e-12
-5.29418 580.796 3.85617e-12
-1.73526e-12 3.85617e-12 537.112

512.18 -18.9882 -3.37952e-12
-18.9882 464.787 2.30364e-12
-3.37952e-12 2.30364e-12 493.021

473.968 -15.5987 4.46339e-12
-15.5987 423.17 2.13977e-12
4.46339e-12 2.13977e-12 438.873

401.994 11.603 4.74287e-13
11.603 455.95 8.10137e-12
4.74287e-13 8.10137e-12 407.773

410.916 -25.7337 3.69186e-12
-25.7337 435.574 1.88649e-12
3.69186e-12 1.88649e-12 398.95

532.043 -25.2738 1.53359e-12
-25.2738 523.187 -6.93327e-12
1.53359e-12 -6.93327e-12 519.112

423.049 31.9589 3.19744e-13
31.9589 417.242 2.84454e-12
3.19744e-13 2.84454e-12 400.299

535.476 -25.1348 -2.51206e-12
-25.1348 505.782 6.08491e-12
-2.51206e-12 6.08491e-12 515.653

453.487 2.59733 2.5544e-12
2.59733 397.013 1.89863e-12
2.5544e-12 1.89863e-12 401.891

311.095 -28.93 -4.05009e-13
-28.93 376.591 -1.53951e-13
-4.05009e-13 -1.53951e-13 289.991

431.869 -29.2304 4.00095e-12
-29.2304 424.041 2.67342e-12
4.00095e-12 2.67342e-12 406.148

353.756 32.1584 1.16884e-12
32.1584 392.538 7.13148e-12
1.16884e-12 7.13148e-12 312.964

470.34 -11.877 9.913e-13
-11.877 529.545 -2.05524e-12
9.913e-13 -2.05524e-12 500.297

391.444 -13.8211 -4.38908e-12
-13.8211 449.246 -1.07174e-12
-4.38908e-12 -1.07174e-12 400.192

602.851 -23.9883 -4.81659e-12
-23.9883 602.264 -1.20985e-12
-4.81659e-12 -1.20985e-12 557.84

408.365 23.7703 -3.49705e-12
23.7703 441.933 -7.69755e-13
-3.49705e-12 -7.69755e-13 402.216

496.571 -32.7263 -4.12707e-12
-32.7263 490.634 -1.43174e-12
-4.12707e-12 -1.43174e-12 497.44

388.184 -11.9629 -1.55846e-12
-11.9629 448.278 -3.54324e-12
-1.55846e-12 -3.54324e-12 397.01

516.704 -19.1169 2.31252e-12
-19.1169 465.747 -2.09077e-12
2.31252e-12 -2.09077e-12 496.237

410.68 23.8766 1.91847e-13
23.8766 439.305 8.05282e-13
1.91847e-13 8.05282e-13 400.693

488.913 -4.97545 -1.59635e-12
-4.97545 435.064 -2.498e-13
-1.59635e-12 -2.498e-13 460.376

305.778 -30.3422 3.57521e-12
-30.3422 391.433 -2.48453e-12
3.57521e-12 -2.48453e-12 262.566

438.603 21.0138 1.14516e-12
21.0138 473.906 -4.01457e-13
1.14516e-12 -4.01457e-13 458.343

445.682 -19.3229 -1.76451e-13
-19.3229 393.972 -2.50348e-12
-1.76451e-13 -2.50348e-12 399.618

551.599 -21.4459 7.24428e-12
-21.4459 499.512 -2.68852e-12
7.24428e-12 -2.68852e-12 520.099

424.465 31.7534 8.45546e-13
31.7534 413.318 -1.0291e-12
8.45546e-13 -1.0291e-12 397.955

459.158 -29.9713 -1.8486e-12
-29.9713 437.634 8.10019e-13
-1.8486e-12 8.10019e-13 439.295

510.615 20.8852 2.21334e-12
20.8852 476.069 8.04394e-13
2.21334e-12 8.04394e-13 492.752

461.5 -28.0758 -7.85979e-12
-28.0758 485.737 3.06503e-12
-7.85979e-12 3.06503e-12 488.714

413.717 -26.2247 -6.99648e-12
-26.2247 436.241 3.43429e-14
-6.99648e-12 3.43429e-14 401.435

426.072 28.9805 2.38032e-12
28.9805 429.894 -8.72783e-13
2.38032e-12 -8.72783e-13 406.858

452.497 26.1909 2.60414e-12
26.1909 418.224 1.5099e-13
2.60414e-12 1.5099e-13 419.056

521.967 -14.6098 3.9666e-12
-14.6098 477.175 -2.26545e-12
3.9666e-12 -2.26545e-12 500.061

403.558 -16.6172 2.59407e-12
-16.6172 451.739 -3.56574e-12
2.59407e-12 -3.56574e-12 406.44

496.043 -17.5682 2.03097e-13
-17.5682 447.604 2.35367e-13
2.03097e-13 2.35367e-13 471.498

487.762 16.9082 -4.41129e-13
16.9082 436.256 2.21719e-12
-4.41129e-13 2.21719e-12 460.586

513.341 -9.38695 -1.1775e-12
-9.38695 555.776 -2.70302e-12
-1.1775e-12 -2.70302e-12 523.027

453.975 -13.4298 1.01726e-12
-13.4298 402.176 -2.50659e-12
1.01726e-12 -2.50659e-12 406.74

403.199 0.594 1.42109e-13
0.594 465.722 1.77991e-12
1.42109e-13 1.77991e-12 417.802

475.023 18.5547 -2.88421e-12
18.5547 428.769 -3.55952e-12
-2.88421e-12 -3.55952e-12 442.219

451.14 27.6035 3.70193e-12
27.6035 421.836 3.30402e-13
3.70193e-12 3.30402e-13 420.841

400.866 -15.6858 3.21817e-13
-15.6858 451.379 -3.51837e-12
3.21817e-13 -3.51837e-12 403.734

405.998 -1.2023 4.64991e-12
-1.2023 468.031 1.61293e-12
4.64991e-12 1.61293e-12 421.218

516.197 29.1343 -2.17308e-12
29.1343 498.024 -7.92255e-13
-2.17308e-12 -7.92255e-13 504.874

441.702 -10.922 -3.12624e-12
-10.922 500.655 1.15286e-12
-3.12624e-12 1.15286e-12 471.146

451.437 -26.7148 -1.27898e-13
-26.7148 418.764 1.71418e-12
-1.27898e-13 1.71418e-12 419.35

444.384 21.3322 7.6857e-13
21.3322 395.296 1.63366e-12
7.6857e-13 1.63366e-12 398.199

497.593 23.6652 -2.26663e-12
23.6652 458.088 1.16825e-12
-2.26663e-12 1.16825e-12 476.548

447.681 5.47067 5.02635e-13
5.47067 508.788 1.0522e-12
5.02635e-13 1.0522e-12 476.88

427.648 29.065 6.43633e-13
29.065 426.432 -2.82974e-12
6.43633e-13 -2.82974e-12 405.108

536.82 22.9638 1.73195e-12
22.9638 531.897 7.62324e-12
1.73195e-12 7.62324e-12 522.783

314.749 -59.6909 9.07126e-13
-59.6909 282.768 -1.87939e-12
9.07126e-13 -1.87939e-12 223.423

480.592 -25.0474 -7.67978e-13
-25.0474 445.07 1.42345e-12
-7.67978e-13 1.42345e-12 456.644

336.662 7.06978 2.64351e-12
7.06978 409.153 -3.46982e-12
2.64351e-12 -3.46982e-12 319.439

460.536 -28.8888 -2.15117e-12
-28.8888 444.735 2.71131e-12
-2.15117e-12 2.71131e-12 443.451

96.4236 -52.7007 -2.36848e-14
-52.7007 306.617 -6.63173e-14
-2.36848e-14 -6.63173e-14 113.699

95.9575 51.4514 9.4739e-13
51.4514 306.881 9.33179e-13
9.4739e-13 9.33179e-13 114.487

181.517 117.154 -3.81561e-12
117.154 226.076 8.8581e-13
-3.81561e-12 8.8581e-13 113.588

182.814 -117.096 -8.52651e-13
-117.096 223.311 -4.02641e-13
-8.52651e-13 -4.02641e-13 113.562

321.582 -1.36335 3.31587e-14
-1.36335 84.6532 3.29597e-15
3.31587e-14 3.29597e-15 114.929

274.432 -91.1251 -1.80478e-12
-91.1251 127.418 9.40285e-13
-1.80478e-12 9.40285e-13 113.802

275.128 91.6529 1.50161e-12
91.6529 128.251 -3.52903e-12
1.50161e-12 -3.52903e-12 114.572

525.239 14.3302 -7.19365e-12
14.3302 474.71 -2.449e-12
-7.19365e-12 -2.449e-12 502.313

556.796 25.5367 -7.1824e-13
25.5367 541.183 -9.92835e-13
-7.1824e-13 -9.92835e-13 533.449

492.09 6.60595 2.76993e-12
6.60595 439.119 -2.95963e-12
2.76993e-12 -2.95963e-12 471.4

470.297 21.7843 -3.67943e-12
21.7843 424.515 5.34979e-13
-3.67943e-12 5.34979e-13 438.193

409.973 17.7442 -1.54913e-12
17.7442 461.071 6.15212e-13
-1.54913e-12 6.15212e-13 425.041

448.008 28.8981 -1.46964e-12
28.8981 424.703 3.19744e-14
-1.46964e-12 3.19744e-14 420.748

487.147 -29.6632 2.81138e-12
-29.6632 465.626 1.72099e-12
2.81138e-12 1.72099e-12 474.588

449.366 28.0274 1.12976e-12
28.0274 421.069 -1.07174e-12
1.12976e-12 -1.07174e-12 418.64

402.962 -2.84119 -2.43213e-13
-2.84119 465.379 -8.52651e-14
-2.43213e-13 -8.52651e-14 417.539

555.802 -26.0975 -3.25488e-12
-26.0975 543.376 -1.23723e-12
-3.25488e-12 -1.23723e-12 533.693

405.5 -4.8623 -1.28697e-12
-4.8623 467.117 -5.1988e-13
-1.28697e-12 -5.1988e-13 420.598

522.291 23.0161 7.43109e-13
23.0161 499.741 -1.02437e-13
7.43109e-13 -1.02437e-13 507.968

423.376 26.8702 2.56743e-12
26.8702 386.505 2.46914e-13
2.56743e-12 2.46914e-13 373.025

480.108 -13.2161 -1.63306e-12
-13.2161 532.767 3.55123e-12
-1.63306e-12 3.55123e-12 511.999

484.196 13.7278 -2.09729e-12
13.7278 432.775 -2.27314e-12
-2.09729e-12 -2.27314e-12 456.873

457.366 -29.9872 3.23889e-13
-29.9872 436.975 7.31178e-12
3.23889e-13 7.31178e-12 437.831

454.306 -24.7132 6.46239e-12
-24.7132 416.802 2.33591e-12
6.46239e-12 2.33591e-12 419.851

547.404 -16.0745 -2.86674e-12
-16.0745 509.304 -1.46224e-12
-2.86674e-12 -1.46224e-12 519.383

475.97 27.9286 -1.20792e-13
27.9286 449.704 -1.14753e-12
-1.20792e-13 -1.14753e-12 456.923

469.099 23.9771 4.10398e-12
23.9771 427.847 2.53723e-13
4.10398e-12 2.53723e-13 439.828

432.427 -2.79295 -7.10876e-13
-2.79295 493.635 -1.2393e-12
-7.10876e-13 -1.2393e-12 457.105

417.605 5.8733 2.69847e-12
5.8733 479.555 -4.32898e-12
2.69847e-12 -4.32898e-12 440.175

463.009 2.64667 -9.39101e-13
2.64667 402.278 1.84116e-12
-9.39101e-13 1.84116e-12 422.319

438.645 -7.28954 5.74355e-12
-7.28954 373.914 -1.80981e-12
5.74355e-12 -1.80981e-12 381.216

454.842 30.4843 3.86062e-12
30.4843 439.013 1.73136e-12
3.86062e-12 1.73136e-12 437.835

478.463 -26.1551 4.81393e-13
-26.1551 443.541 4.37546e-12
4.81393e-13 4.37546e-12 454.644

525.699 -21.2543 -2.20653e-12
-21.2543 497.828 2.03008e-12
-2.20653e-12 2.03008e-12 508.617

437.731 -31.6332 7.18477e-12
-31.6332 437.653 1.51642e-12
7.18477e-12 1.51642e-12 426.857

417.588 -27.7851 1.8705e-12
-27.7851 444.394 4.21944e-12
1.8705e-12 4.21944e-12 419.686

430.645 29.8867 5.32848e-12
29.8867 442.742 1.32871e-12
5.32848e-12 1.32871e-12 426.495

416.224 -9.57781 1.75238e-12
-9.57781 475.209 -4.08562e-13
1.75238e-12 -4.08562e-13 436.453

428.893 -1.54474 3.02787e-12
-1.54474 491.866 5.5825e-12
3.02787e-12 5.5825e-12 453.993

445.18 5.74795 -2.44769e-12
5.74795 508.041 3.68653e-12
-2.44769e-12 3.68653e-12 474.913

414.617 -21.0888 -9.30515e-13
-21.0888 458.405 4.36273e-12
-9.30515e-13 4.36273e-12 426.063

496.867 24.111 8.71007e-13
24.111 455.695 -3.01981e-12
8.71007e-13 -3.01981e-12 474.591

483.371 -9.58965 -3.12047e-12
-9.58965 430.11 1.2923e-13
-3.12047e-12 1.2923e-13 455.219

415.632 7.4652 6.14721e-12
7.4652 477.119 2.75395e-12
6.14721e-12 2.75395e-12 436.911

443.953 -9.70106 6.10482e-12
-9.70106 501.502 5.96264e-13
6.10482e-12 5.96264e-13 471.006

433.172 -16.3305 -3.60571e-12
-16.3305 481.674 3.3733e-12
-3.60571e-12 3.3733e-12 455.666

463.537 -8.23911 -4.18391e-12
-8.23911 406.334 3.96424e-13
-4.18391e-12 3.96424e-13 421.469

494.432 -32.3468 2.30245e-12
-32.3468 487.614 -1.60405e-12
2.30245e-12 -1.60405e-12 496.249

422.943 9.32074 9.79513e-13
9.32074 479.089 -3.41653e-13
9.79513e-13 -3.41653e-13 440.978

564.357 -18.2126 3.26998e-12
-18.2126 529.951 -4.29597e-12
3.26998e-12 -4.29597e-12 531.83

309.047 24.8224 -2.6521e-12
24.8224 379.421 4.25852e-12
-2.6521e-12 4.25852e-12 289.796

501.697 -26.6261 -5.72875e-13
-26.6261 499.489 1.08595e-12
-5.72875e-13 1.08595e-12 501.198

515.648 -30.2028 9.41469e-13
-30.2028 498.403 -1.44003e-12
9.41469e-13 -1.44003e-12 504.917

429.221 -0.701308 9.99201e-15
-0.701308 491.992 5.49723e-12
9.99201e-15 5.49723e-12 454.144

474.879 -16.6224 4.358e-13
-16.6224 428.335 2.14525e-12
4.358e-13 2.14525e-12 441.955

462.304 12.8416 -3.30593e-12
12.8416 511.273 -3.94588e-12
-3.30593e-12 -3.94588e-12 489.12

240.775 -3.18049 3.20588e-12
-3.18049 360.686 -7.28306e-12
3.20588e-12 -7.28306e-12 226.965

432.403 14.2736 -1.18786e-12
14.2736 485.355 -3.68239e-12
-1.18786e-12 -3.68239e-12 456.881

458.11 -29.4889 -1.9007e-12
-29.4889 443.169 8.7752e-13
-1.9007e-12 8.7752e-13 440.761

304.186 25.1055 -7.4684e-12
25.1055 394.583 -9.66338e-13
-7.4684e-12 -9.66338e-13 264.34

603.551 26.0982 -6.29319e-12
26.0982 597.956 -1.71515e-11
-6.29319e-12 -1.71515e-11 558.157

608.285 -27.8075 -8.0281e-12
-27.8075 595.031 7.38313e-12
-8.0281e-12 7.38313e-12 558.291

463.492 -30.4188 -3.23238e-12
-30.4188 459.037 2.54552e-12
-3.23238e-12 2.54552e-12 459.072

434.583 -31.1599 -8.71954e-12
-31.1599 436.358 3.45205e-13
-8.71954e-12 3.45205e-13 424.661

474.1 20.8273 2.20209e-12
20.8273 431.914 6.46594e-13
2.20209e-12 6.46594e-13 443.972

465.221 15.0059 -4.06194e-13
15.0059 410.115 -7.63241e-13
-4.06194e-13 -7.63241e-13 427.462

646.07 3.08364 9.12396e-12
3.08364 645.728 -5.74918e-12
9.12396e-12 -5.74918e-12 574.62

649.891 -7.00025 -5.62728e-12
-7.00025 641.398 7.08663e-12
-5.62728e-12 7.08663e-12 575.148

496.987 4.82431 -2.77112e-13
4.82431 442.033 3.87986e-12
-2.77112e-13 3.87986e-12 477.412

443.556 6.73092 -2.11586e-12
6.73092 502.988 -2.86586e-13
-2.11586e-12 -2.86586e-13 471.049

441.971 6.73632 -5.23579e-12
6.73632 502.513 2.12867e-12
-5.23579e-12 2.12867e-12 469.772

321.535 58.6338 1.03029e-12
58.6338 281.122 9.14232e-13
1.03029e-12 9.14232e-13 225.076

420.227 -28.1995 -3.37567e-12
-28.1995 444.022 -2.77941e-12
-3.37567e-12 -2.77941e-12 421.031

520.577 17.9745 -3.61607e-12
17.9745 467.529 -2.49104e-12
-3.61607e-12 -2.49104e-12 499.509

472.978 9.53968 4.18036e-13
9.53968 421.196 8.56352e-13
4.18036e-13 8.56352e-13 436.202

440.629 -26.7231 -5.47059e-12
-26.7231 450.725 3.40528e-12
-5.47059e-12 3.40528e-12 433.414

469.275 -20.2375 5.77316e-13
-20.2375 422.715 8.71303e-13
5.77316e-13 8.71303e-13 437.175

312.472 60.2317 -2.69059e-12
60.2317 281.371 -2.71072e-12
-2.69059e-12 -2.71072e-12 223.214

492.68 31.069 -2.12215e-12
31.069 489.042 -1.43174e-12
-2.12215e-12 -1.43174e-12 493.137

410.862 -19.7859 -4.23069e-12
-19.7859 457.88 1.17476e-12
-4.23069e-12 1.17476e-12 423.497

474.127 28.8575 -1.83735e-12
28.8575 449.63 1.20792e-12
-1.83735e-12 1.20792e-12 456.517

430.955 -4.14477 5.84717e-15
-4.14477 492.972 -2.86645e-12
5.84717e-15 -2.86645e-12 456.467

423.929 19.609 4.15668e-13
19.609 465.71 8.3844e-13
4.15668e-13 8.3844e-13 434.107

452.746 30.5185 3.69897e-12
30.5185 443.597 1.51582e-13
3.69897e-12 1.51582e-13 439.607

428.642 -22.473 1.80359e-12
-22.473 461.136 4.61557e-12
1.80359e-12 4.61557e-12 433.812

443.573 -27.3523 1.02733e-12
-27.3523 450.432 -4.31299e-12
1.02733e-12 -4.31299e-12 435.045

294.778 11.2569 2.90849e-12
11.2569 372.584 -8.14519e-12
2.90849e-12 -8.14519e-12 258.101

357.297 -33.4559 -4.38523e-12
-33.4559 389.116 -2.60532e-13
-4.38523e-12 -2.60532e-13 314.128

419.657 -11.6904 -8.53391e-13
-11.6904 476.36 5.37762e-12
-8.53391e-13 5.37762e-12 439.344

478.396 26.4843 -2.95704e-12
26.4843 446.798 4.49537e-12
-2.95704e-12 4.49537e-12 456.083

452.344 29.4777 5.26986e-14
29.4777 449.025 -5.92119e-16
5.26986e-14 -5.92119e-16 442.399

426.807 -21.4337 6.40673e-13
-21.4337 461.782 -1.87169e-12
6.40673e-13 -1.87169e-12 432.629

422.93 -11.7822 4.41721e-13
-11.7822 476.646 8.28966e-15
4.41721e-13 8.28966e-15 439.927

457.705 28.4093 1.68991e-12
28.4093 447.086 2.1038e-12
1.68991e-12 2.1038e-12 442.57

425.104 -13.8777 -9.55798e-12
-13.8777 476.418 9.40877e-13
-9.55798e-12 9.40877e-13 442.104

311.264 27.8547 5.70803e-13
27.8547 377.39 -2.69296e-12
5.70803e-13 -2.69296e-12 289.983

485.169 -4.04132 -1.55153e-12
-4.04132 545.049 -3.99088e-13
-1.55153e-12 -3.99088e-13 511.036

432.984 31.0273 2.79776e-12
31.0273 439.627 1.68754e-12
2.79776e-12 1.68754e-12 426.018

509.309 14.9011 -2.78533e-12
14.9011 463.161 1.68606e-12
-2.78533e-12 1.68606e-12 488.605

516.92 -15.9274 -3.99207e-12
-15.9274 467.581 -4.7636e-13
-3.99207e-12 -4.7636e-13 493.922

383.924 -24.2043 8.64494e-13
-24.2043 305.947 3.22823e-12
8.64494e-13 3.22823e-12 285.353

442.278 -21.2671 7.93143e-13
-21.2671 475.998 9.58048e-13
7.93143e-13 9.58048e-13 459.32

447.826 26.6981 3.30373e-12
26.6981 466.206 -2.14347e-13
3.30373e-12 -2.14347e-13 457.84

522.974 -21.7279 4.21174e-12
-21.7279 543.811 1.63973e-12
4.21174e-12 1.63973e-12 525.308

579.584 14.1068 1.16064e-11
14.1068 617.621 2.36522e-12
1.16064e-11 2.36522e-12 557.052

620.208 9.44534 1.88057e-12
9.44534 576.841 1.56053e-12
1.88057e-12 1.56053e-12 556.871

523.469 32.7056 -5.06262e-14
32.7056 520.651 6.13435e-13
-5.06262e-14 6.13435e-13 519.524

414.89 26.0001 1.34648e-12
26.0001 448.904 3.60778e-12
1.34648e-12 3.60778e-12 420.375

478.094 26.6613 -1.83498e-12
26.6613 444.769 -1.01874e-12
-1.83498e-12 -1.01874e-12 455.506

332.362 45.1856 5.56118e-12
45.1856 349.488 8.92915e-13
5.56118e-12 8.92915e-13 286.739

571.391 -11.3438 5.17172e-12
-11.3438 614.472 -1.37638e-12
5.17172e-12 -1.37638e-12 554.595

641.327 -3.433 -1.18308e-11
-3.433 636.87 9.73562e-12
-1.18308e-11 9.73562e-12 572.396

634.905 -0.210092 -1.61278e-12
-0.210092 643.178 3.56567e-12
-1.61278e-12 3.56567e-12 572.223

272.963 -53.8022 -2.19913e-12
-53.8022 316.446 -2.71901e-12
-2.19913e-12 -2.71901e-12 220.908

566.638 -11.6001 -7.00329e-12
-11.6001 562.125 1.95399e-12
-7.00329e-12 1.95399e-12 540.897

563.771 8.8131 -2.61028e-12
8.8131 586.962 8.9555e-12
-2.61028e-12 8.9555e-12 546.839

478.242 -26.1994 -1.10134e-12
-26.1994 440.44 2.67075e-12
-1.10134e-12 2.67075e-12 453.48

494.348 1.01112 2.60699e-12
1.01112 545.758 -2.67638e-13
2.60699e-12 -2.67638e-13 514.056

447.649 -20.2677 -1.54351e-12
-20.2677 484.156 3.72206e-12
-1.54351e-12 3.72206e-12 470.636

506.299 6.25532 -2.90227e-12
6.25532 443.373 2.12593e-12
-2.90227e-12 2.12593e-12 486.123

461.273 15.5963 -1.2988e-12
15.5963 521.251 -4.06312e-12
-1.2988e-12 -4.06312e-12 497.555

471.18 7.19164 -2.86404e-12
7.19164 528.005 -8.56796e-12
-2.86404e-12 -8.56796e-12 497.689

493.761 20.3927 -2.4869e-14
20.3927 451.516 4.42609e-12
-2.4869e-14 4.42609e-12 469.749

241.065 -3.1139 4.30026e-14
-3.1139 358.559 4.10694e-12
4.30026e-14 4.10694e-12 227.063

463.699 -27.6235 1.56497e-12
-27.6235 463.389 -1.00719e-12
1.56497e-12 -1.00719e-12 461.189

488.343 -26.1162 3.0275e-12
-26.1162 481.596 -4.10013e-12
3.0275e-12 -4.10013e-12 485.868

497.536 -31.4837 -8.70415e-13
-31.4837 489.956 2.74743e-13
-8.70415e-13 2.74743e-13 498.979

355.598 32.7493 -1.65556e-12
32.7493 285.778 -8.62717e-13
-1.65556e-12 -8.62717e-13 248.365

563.881 -20.1166 -4.24845e-12
-20.1166 569.614 5.96538e-12
-4.24845e-12 5.96538e-12 542.57

337.646 54.3219 -7.4607e-13
54.3219 356.656 -3.60245e-12
-7.4607e-13 -3.60245e-12 258.874

477.07 -21.4396 -1.5814e-12
-21.4396 506.488 -7.17056e-13
-1.5814e-12 -7.17056e-13 500.242

504.771 14.6504 3.60364e-12
14.6504 451.985 -4.76804e-13
3.60364e-12 -4.76804e-13 481.559

449.829 -14.5723 3.471e-12
-14.5723 396.985 3.46286e-12
3.471e-12 3.46286e-12 400.839

452.592 24.0466 -1.53892e-12
24.0466 478.778 -1.80419e-12
-1.53892e-12 -1.80419e-12 467.846

493.665 20.4279 3.11158e-12
20.4279 449.499 -1.77636e-15
3.11158e-12 -1.77636e-15 469.34

505.565 11.4006 -2.6783e-12
11.4006 564.415 4.32365e-12
-2.6783e-12 4.32365e-12 526.71

475.894 -31.58 3.64568e-12
-31.58 470.354 -3.58735e-12
3.64568e-12 -3.58735e-12 475.062

559.269 19.8124 3.58469e-12
19.8124 510.439 2.56328e-12
3.58469e-12 2.56328e-12 526.486

439.956 -18.4433 2.11979e-13
-18.4433 482.463 2.46795e-12
2.11979e-13 2.46795e-12 459.147

465.896 4.28313 1.34495e-12
4.28313 526.106 -3.67469e-12
1.34495e-12 -3.67469e-12 495.509

588.639 9.9267 8.39092e-12
9.9267 552.461 -2.71679e-12
8.39092e-12 -2.71679e-12 545.188

590.422 -8.51331 4.37221e-12
-8.51331 554.803 -1.75548e-12
4.37221e-12 -1.75548e-12 545.705

382.308 18.5122 -6.32146e-12
18.5122 302.286 -2.06709e-12
-6.32146e-12 -2.06709e-12 286.133

502.676 7.96496 -2.76579e-12
7.96496 453.598 -8.04394e-13
-2.76579e-12 -8.04394e-13 487.764

232.815 7.74039 2.66602e-12
7.74039 381.514 -8.71599e-13
2.66602e-12 -8.71599e-13 187.186

236.984 -11.385 4.50251e-12
-11.385 387.208 2.84217e-14
4.50251e-12 2.84217e-14 189.45

249.287 56.4064 3.60008e-12
56.4064 354.776 -4.358e-13
3.60008e-12 -4.358e-13 184.022

505.013 -28.9504 -1.39503e-12
-28.9504 478.614 -2.48187e-12
-1.39503e-12 -2.48187e-12 491.342

258.471 -49.1898 2.26071e-12
-49.1898 341.84 5.52329e-12
2.26071e-12 5.52329e-12 220.733

249.292 -55.9489 -4.46221e-12
-55.9489 344.75 -5.41434e-12
-4.46221e-12 -5.41434e-12 181.115

434.652 26.2198 1.71892e-12
26.2198 454.39 5.99224e-13
1.71892e-12 5.99224e-13 432.822

329.923 73.8431 6.40436e-12
73.8431 280.009 2.13163e-14
6.40436e-12 2.13163e-14 184.826

540.126 13.0474 -4.2822e-12
13.0474 554.945 5.51588e-12
-4.2822e-12 5.51588e-12 532.076

562.383 0.039263 3.38455e-12
0.039263 532.453 -8.77224e-13
3.38455e-12 -8.77224e-13 531.869

338.601 -73.1285 -4.48116e-12
-73.1285 279.857 1.81425e-12
-4.48116e-12 1.81425e-12 186.309

432.667 -23.4237 1.64047e-12
-23.4237 466.308 8.31335e-13
1.64047e-12 8.31335e-13 447.569

358.929 34.7286 -4.30826e-12
34.7286 310.974 3.57285e-12
-4.30826e-12 3.57285e-12 258.036

267.704 63.4901 1.49214e-12
63.4901 345.209 9.05231e-12
1.49214e-12 9.05231e-12 185.844

293.692 21.6299 -1.67807e-12
21.6299 367.659 -9.02863e-12
-1.67807e-12 -9.02863e-12 254.496

267.575 -65.9189 3.61666e-12
-65.9189 344.844 9.00021e-14
3.61666e-12 9.00021e-14 184.3

291.639 -12.3809 3.59002e-12
-12.3809 370.88 -1.29082e-12
3.59002e-12 -1.29082e-12 253.441

550.306 6.84187 2.96178e-12
6.84187 582.077 3.43607e-12
2.96178e-12 3.43607e-12 541.116

329.888 -45.974 9.23706e-14
-45.974 341.814 -2.60177e-12
9.23706e-14 -2.60177e-12 276.613

259.78 47.5312 -6.12014e-12
47.5312 340.215 2.32111e-13
-6.12014e-12 2.32111e-13 223.144

370.215 37.9109 -8.90547e-13
37.9109 244.919 7.15398e-12
-8.90547e-13 7.15398e-12 187.356

481.888 -29.2854 4.58655e-12
-29.2854 460.509 -3.58498e-12
4.58655e-12 -3.58498e-12 467.712

480.975 12.8967 1.02659e-13
12.8967 525.828 -1.14101e-12
1.02659e-13 -1.14101e-12 504.102

354.416 -38.1118 -2.15058e-12
-38.1118 300.076 -6.12488e-12
-2.15058e-12 -6.12488e-12 251.813

482.532 -28.8019 2.79599e-12
-28.8019 460.319 -1.14901e-12
2.79599e-12 -1.14901e-12 468.461

365.262 -36.3428 -2.36848e-14
-36.3428 230.988 1.893e-12
-2.36848e-14 1.893e-12 182.769

481.5 -28.3172 1.5851e-12
-28.3172 472.753 -1.35595e-12
1.5851e-12 -1.35595e-12 477.916

436.351 -25.2945 3.58883e-12
-25.2945 466.222 1.11318e-13
3.58883e-12 1.11318e-13 448.208

314.797 69.4596 4.62326e-12
69.4596 292.141 -1.6982e-12
4.62326e-12 -1.6982e-12 184.523

290.78 -22.9324 1.33937e-12
-22.9324 359.162 -9.68707e-12
1.33937e-12 -9.68707e-12 247.028

312.399 -71.6915 -3.54324e-12
-71.6915 288.121 -3.51719e-12
-3.54324e-12 -3.51719e-12 182.026

268.545 50.7366 -2.67519e-12
50.7366 320.058 -2.77585e-12
-2.67519e-12 -2.77585e-12 221.503

459.859 -30.2118 3.66107e-12
-30.2118 454.843 7.8811e-13
3.66107e-12 7.8811e-13 454.398

559.285 -14.6403 3.65959e-12
-14.6403 544.411 -2.45285e-12
3.65959e-12 -2.45285e-12 533.716

635.922 11.0927 3.34407e-12
11.0927 631.383 -4.80756e-12
3.34407e-12 -4.80756e-12 570.018

619.957 -5.15998 5.86597e-12
-5.15998 639.739 -1.08257e-11
5.86597e-12 -1.08257e-11 568.496

453.868 13.0836 -2.14625e-12
13.0836 506.553 -1.07114e-12
-2.14625e-12 -1.07114e-12 482.57

634.152 -10.6671 7.80531e-12
-10.6671 631.314 -8.3924e-12
7.80531e-12 -8.3924e-12 569.874

622.695 4.09171 2.56491e-12
4.09171 642.685 3.84974e-12
2.56491e-12 3.84974e-12 569.698

643.375 7.43422 1.23084e-11
7.43422 619.148 1.72469e-12
1.23084e-11 1.72469e-12 569.021

584.776 -12.1153 -1.30899e-12
-12.1153 631.668 -2.70761e-12
-1.30899e-12 -2.70761e-12 560.592

307.442 -30.4696 -9.70661e-12
-30.4696 371.631 2.96059e-13
-9.70661e-12 2.96059e-13 280.768

589.625 -12.9721 -1.22803e-11
-12.9721 549.112 1.56645e-12
-1.22803e-11 1.56645e-12 543.825

527.205 -34.4178 4.53948e-12
-34.4178 521.485 1.07159e-12
4.53948e-12 1.07159e-12 519.964

565.463 -18.1768 -1.65853e-12
-18.1768 537.988 -1.98641e-12
-1.65853e-12 -1.98641e-12 534.257

502.568 15.4591 4.11227e-12
15.4591 452.114 -8.7604e-13
4.11227e-12 -8.7604e-13 480.205

586.349 9.86433 -5.0178e-12
9.86433 642.135 1.91864e-11
-5.0178e-12 1.91864e-11 563.102

636.657 19.2277 -5.38621e-12
19.2277 591.722 7.33265e-13
-5.38621e-12 7.33265e-13 562.924

569.775 11.3062 1.20437e-12
11.3062 544.337 2.0813e-12
1.20437e-12 2.0813e-12 536.434

353.441 -15.3392 8.14756e-12
-15.3392 231.515 8.52651e-13
8.14756e-12 8.52651e-13 219.013

437.204 24.9638 8.10019e-13
24.9638 461.91 1.45661e-13
8.10019e-13 1.45661e-13 445.72

317.089 -61.354 -4.92406e-12
-61.354 277.847 -1.68399e-12
-4.92406e-12 -1.68399e-12 218.087

334.207 -57.4567 -3.52192e-12
-57.4567 357.321 7.50807e-13
-3.52192e-12 7.50807e-13 252.538

383.332 -36.5437 4.00272e-12
-36.5437 305.738 -3.07902e-14
4.00272e-12 -3.07902e-14 257.758

562.495 -5.15897 3.69053e-12
-5.15897 616.951 -5.82911e-12
3.69053e-12 -5.82911e-12 552.949

562.203 2.89123 -3.54827e-13
2.89123 615.817 -6.91787e-12
-3.54827e-13 -6.91787e-12 552.547

598.77 -24.4565 4.58922e-12
-24.4565 575.741 -9.84316e-12
4.58922e-12 -9.84316e-12 551.577

602.329 -21.7607 4.70853e-12
-21.7607 573.432 -4.14631e-12
4.70853e-12 -4.14631e-12 551.843

598.782 26.1362 6.987e-13
26.1362 580.457 -1.33589e-12
6.987e-13 -1.33589e-12 552.733

625.742 3.0996 1.0355e-11
3.0996 630.735 2.87266e-12
1.0355e-11 2.87266e-12 568.419

599.059 -20.5091 -4.32543e-12
-20.5091 576.353 -2.95808e-12
-4.32543e-12 -2.95808e-12 552.266

607.81 -18.5684 -1.68399e-12
-18.5684 620.262 -2.94987e-11
-1.68399e-12 -2.94987e-11 563.184

632.9 2.43462 -2.78799e-12
2.43462 635.526 3.81547e-12
-2.78799e-12 3.81547e-12 570.504

607.886 -20.5264 -3.20003e-12
-20.5264 572.426 -2.28824e-12
-3.20003e-12 -2.28824e-12 553.405

607.071 20.956 -5.03272e-12
20.956 573.684 -2.07686e-12
-5.03272e-12 -2.07686e-12 553.808

633.851 -3.45865 1.4273e-12
-3.45865 636.778 -1.53437e-11
1.4273e-12 -1.53437e-11 571.279

632.181 -3.11738 -2.44492e-11
-3.11738 625.756 2.40949e-11
-2.44492e-11 2.40949e-11 569.394

609.681 12.1098 -2.13725e-12
12.1098 620.485 7.19654e-12
-2.13725e-12 7.19654e-12 563.916

587.202 26.9298 1.6757e-13
26.9298 583.018 4.57987e-12
1.6757e-13 4.57987e-12 551.701

FIELD solute_concentration_TPM 2
S_ext 1 563 float
0.990449
0.990258
0.990278
0.990259
0.990228
0.990278
0.990449
0.990269
0.990295
0.990262
0.99041
0.990269
0.990273
0.990261
0.990235
0.990277
0.990252
0.990268
0.990299
0.990281
0.990287
0.990172
0.990283
0.990281
0.990282
0.990264
0.9904
0.990276
0.990347
0.990201
0.990274
0.990346
0.990405
0.99021
0.990209
0.99021
0.990197
0.990212
0.990274
0.990405
0.990347
0.990196
0.990196
0.990274
0.99038
0.990346
0.990297
0.990292
0.990278
0.990356
0.990351
0.990331
0.990226
0.990333
0.990227
0.990385
0.990209
0.990332
0.990209
0.99028
0.990251
0.990244
0.990396
0.990246
0.990243
0.990257
0.990251
0.990265
0.990282
0.990257
0.990226
0.990226
0.990348
0.990253
0.990279
0.990409
0.990238
0.990258
0.990264
0.990324
0.990365
0.990223
0.990247
0.990367
0.990346
0.990383
0.990276
0.990256
0.99038
0.990181
0.990332
0.990181
0.990235
0.990259
0.990332
0.99035
0.990366
0.990261
0.990238
0.990275
0.990313
0.990343
0.990366
0.990264
0.990263
0.990262
0.990246
0.990277
0.990367
0.990252
0.99028
0.990376
0.99037
0.990266
0.990263
0.990333
0.990211
0.990368
0.990212
0.990332
0.990304
0.990236
0.990257
0.990252
0.990252
0.990234
0.990215
0.990261
0.990367
0.990331
0.990224
0.990258
0.990247
0.990257
0.990344
0.990208
0.990377
0.990273
0.990246
0.990208
0.990341
0.990266
0.990304
0.990261
0.990369
0.990263
0.990267
0.99028
0.990279
0.990316
0.990291
0.990257
0.990345
0.990273
0.990261
0.990258
0.990259
0.990341
0.990339
0.99027
0.990292
0.990344
0.990379
0.990349
0.990339
0.990262
0.99034
0.990341
0.990346
0.990339
0.990234
0.990332
0.99035
0.990258
0.990332
0.990247
0.990234
0.99027
0.990227
0.990265
0.990348
0.990261
0.990262
0.99034
0.990255
0.990352
0.990252
0.990248
0.990235
0.990261
0.990255
0.990365
0.990331
0.990346
0.990257
0.990267
0.990266
0.990247
0.990257
0.990258
0.990257
0.990298
0.990324
0.990247
0.990348
0.990247
0.990259
0.990342
0.990242
0.990257
0.990243
0.990262
0.990264
0.990247
0.990315
0.990262
0.990323
0.990248
0.990252
0.990252
0.990252
0.990252
0.990252
0.990253
0.990262
0.990236
0.990236
0.990235
0.990236
0.990228
0.990227
0.990316
0.99026
0.990257
0.990294
0.990236
0.990235
0.990257
0.990323
0.990257
0.990261
0.990316
0.990241
0.990316
0.990247
0.990256
0.990314
0.990322
0.990365
0.990357
0.990247
0.990372
0.990274
0.990323
0.990299
0.990257
0.990252
0.990198
0.990252
0.990376
0.990322
0.990256
0.990269
0.990324
0.990252
0.990303
0.990198
0.990322
0.990251
0.990254
0.990266
0.990236
0.990257
0.990227
0.990272
0.990378
0.990383
0.990233
0.990286
0.990269
0.990318
0.990241
0.990259
0.990322
0.990259
0.990313
0.990267
0.990313
0.990322
0.990187
0.990232
0.990233
0.990234
0.990261
0.990313
0.990212
0.990254
0.990291
0.990311
0.990317
0.990232
0.990315
0.990236
0.990316
0.99038
0.990312
0.99037
0.990247
0.990315
0.990187
0.990315
0.990251
0.990317
0.990252
0.990315
0.990278
0.990403
0.990278
0.990316
0.99023
0.990316
0.99029
0.990255
0.990257
0.990315
0.990312
0.990303
0.990249
0.990312
0.99027
0.990277
0.990229
0.990313
0.990304
0.990289
0.990303
0.990314
0.990302
0.990244
0.990269
0.990304
0.990316
0.990266
0.990265
0.990312
0.990229
0.990417
0.990279
0.990365
0.990288
0.990475
0.990476
0.990473
0.990473
0.990471
0.99048
0.99048
0.990247
0.990218
0.990269
0.990291
0.990299
0.990303
0.990267
0.990303
0.990304
0.990218
0.990303
0.990243
0.990331
0.990237
0.990279
0.990292
0.990304
0.990233
0.990279
0.99029
0.990279
0.99029
0.990301
0.990325
0.990291
0.990281
0.990242
0.990298
0.990302
0.990299
0.990292
0.990281
0.990266
0.990298
0.990267
0.99028
0.990291
0.990269
0.990279
0.990302
0.990251
0.99029
0.990218
0.99038
0.990247
0.990245
0.990281
0.99029
0.990257
0.990417
0.990278
0.99029
0.990402
0.990191
0.990191
0.990277
0.9903
0.990288
0.990298
0.990172
0.990171
0.990266
0.990269
0.99027
0.990421
0.990301
0.99025
0.990294
0.990295
0.990292
0.990416
0.990253
0.9903
0.99028
0.990279
0.990295
0.990291
0.990295
0.990294
0.990403
0.990369
0.99029
0.99028
0.990289
0.990296
0.99029
0.990289
0.990289
0.990381
0.990238
0.990298
0.990257
0.990253
0.990382
0.990278
0.990278
0.990229
0.990185
0.990185
0.990231
0.990302
0.99028
0.990383
0.990188
0.99017
0.99017
0.990418
0.990211
0.9902
0.990282
0.990236
0.99027
0.99026
0.99025
0.99025
0.990271
0.990416
0.990277
0.99026
0.99025
0.99041
0.990206
0.990408
0.990248
0.990263
0.990315
0.990273
0.990271
0.990223
0.990267
0.990223
0.990278
0.990251
0.990204
0.990205
0.990385
0.990258
0.990451
0.990452
0.990451
0.990255
0.990422
0.990452
0.990296
0.99045
0.990222
0.990222
0.990451
0.990285
0.990406
0.990455
0.990405
0.990456
0.990406
0.99021
0.99039
0.990421
0.990449
0.990272
0.990245
0.990408
0.990271
0.990449
0.990265
0.990285
0.990456
0.990409
0.990457
0.990417
0.99028
0.990218
0.99017
0.990172
0.990261
0.990171
0.99017
0.990172
0.990183
0.990387
0.990205
0.990232
0.990219
0.990263
0.990181
0.990181
0.990218
0.990418
0.990286
0.990425
0.990413
0.990404
0.990189
0.990189
0.990191
0.990191
0.990189
0.990175
0.990195
0.990182
0.990174
0.990192
0.990191
0.990174
0.990174
0.990181
0.990194
P_ext 1 563 float
0.0201359
0.020131
0.0201317
0.020131
0.0201292
0.0201317
0.0201359
0.0201313
0.0201322
0.020131
0.0201351
0.0201313
0.0201315
0.020131
0.0201297
0.0201317
0.0201306
0.0201313
0.0201324
0.0201318
0.020132
0.0201259
0.0201318
0.0201318
0.0201318
0.0201312
0.0201349
0.0201316
0.0201337
0.0201276
0.0201315
0.0201336
0.020135
0.0201282
0.0201282
0.0201282
0.0201275
0.0201283
0.0201315
0.020135
0.0201336
0.0201274
0.0201275
0.0201315
0.0201344
0.0201336
0.0201323
0.0201322
0.0201317
0.0201339
0.0201337
0.0201332
0.0201291
0.0201333
0.0201292
0.0201346
0.0201281
0.0201333
0.0201282
0.0201318
0.0201306
0.0201302
0.0201348
0.0201303
0.0201301
0.0201308
0.0201306
0.0201312
0.0201319
0.0201309
0.0201292
0.0201292
0.0201337
0.0201305
0.0201317
0.0201351
0.0201298
0.0201308
0.0201312
0.0201331
0.0201341
0.020129
0.0201303
0.0201341
0.0201336
0.0201345
0.0201316
0.0201306
0.0201344
0.0201261
0.0201333
0.0201261
0.0201296
0.0201308
0.0201333
0.0201337
0.0201341
0.0201311
0.0201298
0.0201316
0.0201327
0.0201336
0.0201341
0.0201312
0.0201311
0.0201311
0.0201302
0.0201316
0.0201341
0.0201307
0.0201317
0.0201343
0.0201342
0.0201313
0.0201312
0.0201333
0.0201281
0.0201342
0.0201282
0.0201333
0.0201325
0.0201298
0.0201309
0.0201306
0.0201306
0.0201296
0.0201284
0.0201311
0.0201341
0.0201332
0.020129
0.020131
0.0201304
0.0201309
0.0201336
0.020128
0.0201344
0.0201314
0.0201303
0.0201281
0.0201335
0.0201311
0.0201325
0.020131
0.0201342
0.0201312
0.0201312
0.0201317
0.0201317
0.0201328
0.0201321
0.0201309
0.0201336
0.0201315
0.0201311
0.020131
0.0201309
0.0201335
0.0201335
0.0201314
0.0201321
0.0201336
0.0201344
0.0201337
0.0201334
0.0201311
0.0201335
0.0201335
0.0201336
0.0201334
0.0201296
0.0201333
0.0201337
0.0201309
0.0201333
0.0201303
0.0201296
0.0201313
0.0201292
0.0201311
0.0201337
0.0201311
0.0201311
0.0201335
0.0201307
0.0201338
0.0201306
0.0201303
0.0201296
0.0201311
0.0201306
0.0201341
0.0201332
0.0201336
0.020131
0.0201313
0.0201313
0.0201304
0.0201309
0.0201308
0.0201309
0.0201324
0.0201331
0.0201304
0.0201337
0.0201303
0.0201307
0.0201335
0.02013
0.0201309
0.02013
0.020131
0.0201312
0.0201303
0.0201328
0.020131
0.0201331
0.0201304
0.0201306
0.0201306
0.0201307
0.0201307
0.0201307
0.0201307
0.020131
0.0201297
0.0201297
0.0201297
0.0201297
0.0201292
0.0201291
0.0201329
0.0201309
0.0201309
0.0201322
0.0201296
0.0201296
0.0201309
0.020133
0.020131
0.0201311
0.0201328
0.02013
0.0201329
0.0201303
0.0201309
0.0201328
0.020133
0.0201341
0.0201339
0.0201304
0.0201342
0.0201316
0.0201331
0.0201323
0.020131
0.0201306
0.0201274
0.0201307
0.0201343
0.020133
0.0201309
0.0201313
0.0201331
0.0201306
0.0201324
0.0201275
0.020133
0.0201306
0.0201306
0.0201313
0.0201297
0.0201307
0.0201292
0.0201315
0.0201344
0.0201345
0.0201294
0.020132
0.0201313
0.0201329
0.0201299
0.0201309
0.020133
0.0201308
0.0201328
0.0201311
0.0201328
0.020133
0.0201268
0.0201295
0.0201296
0.0201296
0.020131
0.0201328
0.0201283
0.0201307
0.0201321
0.0201327
0.0201329
0.0201294
0.0201328
0.0201296
0.0201329
0.0201344
0.0201327
0.0201342
0.0201303
0.0201328
0.0201267
0.0201328
0.0201304
0.0201329
0.0201305
0.0201328
0.0201316
0.0201349
0.0201317
0.0201329
0.0201294
0.0201328
0.020132
0.0201306
0.0201309
0.0201328
0.0201328
0.0201324
0.0201303
0.0201327
0.0201313
0.0201316
0.0201293
0.0201328
0.0201325
0.020132
0.0201325
0.0201328
0.0201324
0.02013
0.0201313
0.0201325
0.0201328
0.0201312
0.0201311
0.0201327
0.0201293
0.0201352
0.0201316
0.0201341
0.020132
0.0201364
0.0201365
0.0201364
0.0201364
0.0201363
0.0201366
0.0201366
0.0201302
0.0201285
0.0201313
0.020132
0.0201323
0.0201325
0.0201312
0.0201325
0.0201325
0.0201285
0.0201325
0.02013
0.0201332
0.0201298
0.0201316
0.0201321
0.0201325
0.0201294
0.0201317
0.0201321
0.0201316
0.020132
0.0201325
0.0201331
0.0201321
0.0201317
0.02013
0.0201323
0.0201325
0.0201324
0.0201321
0.0201317
0.0201311
0.0201323
0.0201312
0.0201317
0.0201321
0.0201313
0.0201317
0.0201324
0.0201306
0.020132
0.0201287
0.0201344
0.0201303
0.02013
0.0201317
0.0201321
0.0201308
0.0201352
0.0201317
0.0201321
0.0201349
0.0201269
0.0201268
0.0201316
0.0201324
0.020132
0.0201323
0.0201255
0.0201255
0.0201312
0.0201313
0.0201313
0.0201353
0.0201324
0.0201304
0.0201322
0.0201323
0.0201321
0.0201352
0.0201306
0.0201324
0.0201317
0.0201317
0.0201322
0.0201321
0.0201322
0.0201322
0.0201349
0.0201342
0.0201321
0.0201316
0.0201321
0.0201323
0.0201321
0.020132
0.020132
0.0201345
0.0201298
0.0201323
0.0201308
0.0201306
0.0201345
0.0201317
0.0201317
0.0201292
0.0201267
0.0201268
0.0201294
0.0201325
0.0201316
0.0201345
0.0201269
0.0201257
0.0201258
0.0201353
0.0201283
0.0201276
0.0201318
0.0201297
0.0201314
0.020131
0.0201305
0.0201304
0.0201313
0.0201352
0.0201316
0.0201309
0.0201305
0.0201351
0.0201279
0.0201351
0.0201305
0.0201311
0.0201328
0.0201315
0.0201313
0.020129
0.0201313
0.020129
0.0201317
0.0201305
0.0201277
0.0201277
0.0201346
0.0201308
0.020136
0.020136
0.020136
0.0201307
0.0201354
0.020136
0.0201323
0.0201359
0.0201289
0.0201289
0.0201359
0.0201319
0.020135
0.020136
0.020135
0.0201361
0.020135
0.0201282
0.0201347
0.0201353
0.0201359
0.0201314
0.0201302
0.0201351
0.0201314
0.0201359
0.0201311
0.0201319
0.0201361
0.0201351
0.0201361
0.0201352
0.0201317
0.0201286
0.0201258
0.0201259
0.0201309
0.0201258
0.0201258
0.0201259
0.0201265
0.0201346
0.0201279
0.0201294
0.0201286
0.020131
0.0201263
0.0201263
0.0201285
0.0201352
0.020132
0.0201354
0.0201351
0.0201349
0.020127
0.020127
0.0201271
0.0201271
0.020127
0.0201259
0.0201271
0.0201262
0.0201258
0.020127
0.020127
0.0201258
0.0201259
0.0201263
0.0201271
FIELD solute_flux_TPM 2
S_ext 3 563 float
-5.4165e-05 1.81202e-05 1.096e-18
2.34361e-06 4.50911e-06 1.33881e-18
-8.36346e-06 -6.64819e-06 -1.17645e-18
-2.7553e-06 2.77816e-06 -1.51353e-18
1.52043e-05 -4.34291e-06 -1.02553e-18
1.82266e-06 -1.04419e-05 -8.46016e-19
-5.33375e-05 -1.83406e-05 9.22814e-19
-9.12243e-06 -6.80122e-06 -3.02734e-18
1.45775e-05 6.15988e-07 2.4706e-21
7.5617e-06 -2.64953e-06 -8.50483e-19
3.60556e-05 8.39538e-06 1.23388e-18
1.53601e-06 -1.13005e-05 -1.35534e-18
9.02715e-06 7.3708e-06 8.41633e-19
1.7569e-06 9.03728e-06 -1.74373e-19
1.37847e-05 -2.01746e-06 -6.63395e-22
-1.06209e-05 -1.73173e-07 -1.99439e-18
1.83497e-06 9.30075e-06 1.17378e-18
6.7483e-06 -1.61273e-06 -1.34027e-18
6.49061e-06 1.13183e-05 2.63748e-18
-9.67978e-06 1.2232e-06 -1.32712e-18
-2.34967e-06 -1.39088e-05 2.97782e-18
2.86304e-05 4.03951e-05 4.77048e-18
1.03854e-05 1.05918e-06 -9.9505e-19
7.4211e-06 -7.42671e-06 3.20611e-19
-9.82229e-06 -2.17044e-06 -4.65093e-18
-4.35032e-07 -7.29727e-06 -2.69438e-18
4.1377e-05 -3.24034e-06 4.76167e-19
9.3171e-06 6.76164e-06 4.34151e-18
-1.63661e-05 -1.32849e-05 -8.09821e-19
3.24471e-05 -8.58529e-06 1.81311e-19
-1.07956e-05 -3.96399e-06 -3.16901e-18
3.49269e-06 -2.09835e-05 -1.65859e-19
3.10452e-05 -3.16455e-05 5.17933e-18
-3.45673e-06 -2.77281e-05 -3.69359e-19
-1.95871e-05 2.43875e-05 3.11624e-18
-2.57402e-05 -1.08602e-05 4.49812e-18
2.15073e-05 2.81693e-05 2.77932e-18
-2.96125e-05 -5.79545e-06 8.77312e-19
9.54611e-06 -7.2727e-06 -1.01943e-18
3.03293e-05 3.29756e-05 7.80173e-19
2.11278e-05 -9.25016e-06 -1.13535e-18
2.19356e-05 -2.71126e-05 -1.83568e-19
-1.25191e-05 -3.25327e-05 1.91636e-18
-1.03476e-05 4.17506e-06 -8.31652e-19
1.98574e-05 -1.94236e-05 1.5759e-18
-1.95972e-05 6.96802e-06 2.10539e-18
-2.68852e-06 -1.32628e-05 1.53088e-19
5.16767e-06 1.32272e-05 -1.65599e-18
-1.06825e-05 3.87293e-06 6.68755e-19
-1.17828e-05 1.85269e-05 1.28525e-18
2.13203e-05 1.00457e-05 1.12326e-18
1.92641e-05 -6.68371e-06 -4.96118e-19
-1.04007e-05 1.04259e-05 4.62351e-18
-1.52514e-05 -1.32517e-05 2.76161e-18
-1.40151e-05 -3.42699e-06 1.89723e-18
-2.89532e-05 1.72408e-05 3.9722e-18
-1.93905e-05 -2.50976e-05 -7.15985e-19
4.02965e-06 -1.99445e-05 -2.84777e-21
-3.14381e-05 4.28567e-06 3.99884e-18
3.98922e-06 9.00101e-06 -1.49522e-18
-3.65422e-06 -5.40304e-06 -4.89745e-19
-4.30763e-06 -1.18562e-05 -3.04288e-18
3.73841e-05 1.62936e-05 1.61835e-19
6.14895e-06 1.1964e-05 -2.55437e-18
8.16624e-06 -9.53437e-06 -6.88059e-19
-1.11333e-06 -1.3684e-05 2.1748e-18
3.07493e-06 -5.80642e-06 -1.81929e-19
-6.59061e-06 -3.65357e-06 -2.16829e-18
-6.96822e-06 7.75797e-06 -1.16458e-18
1.69174e-06 -2.77178e-06 1.63834e-19
-9.97026e-06 -1.04878e-05 -8.83376e-19
-1.41349e-05 3.43569e-06 3.60568e-18
-2.5097e-06 2.23537e-05 3.05402e-18
-1.1769e-05 7.04632e-06 5.0812e-19
-5.95444e-06 9.50413e-06 9.98583e-19
-3.86225e-05 4.80129e-06 9.50678e-19
5.22387e-06 -1.43175e-05 -4.79621e-18
-1.24404e-05 -5.79552e-06 4.98097e-19
1.26823e-06 7.64852e-06 2.01623e-18
1.73336e-05 3.32935e-06 6.48212e-19
2.23643e-05 -1.90631e-05 1.27781e-18
1.47544e-05 1.3585e-05 -1.21122e-18
7.97748e-06 -1.93957e-06 8.49436e-19
-2.08237e-05 1.52643e-05 1.92017e-18
2.48665e-05 3.18621e-06 -4.90262e-19
-3.58946e-06 3.19755e-05 3.64423e-18
-1.15652e-06 -1.10391e-05 -2.01534e-18
1.20867e-05 6.56827e-06 4.64666e-21
1.90978e-05 2.00027e-05 1.73637e-18
4.25399e-05 2.64444e-05 1.89293e-19
-3.55499e-06 2.00433e-05 3.90203e-18
4.44335e-05 -2.49702e-05 1.73849e-18
-1.79961e-05 3.48396e-06 3.08295e-18
1.1892e-05 7.34311e-06 4.0465e-18
-1.91507e-05 6.36992e-06 3.32563e-19
1.08055e-05 1.87518e-05 2.41048e-18
6.43119e-06 -2.88566e-05 1.52997e-19
1.2778e-06 7.64399e-06 -1.33982e-18
-9.71888e-06 -1.1654e-05 -6.76784e-19
2.00847e-06 1.14619e-05 -8.27513e-19
1.73613e-05 3.46824e-06 3.12079e-18
-1.01068e-05 2.14848e-05 6.48813e-19
2.65695e-05 -8.85639e-06 7.94279e-19
-2.49895e-06 4.85929e-06 8.34828e-19
6.62797e-06 3.86738e-06 -1.57406e-19
-1.48035e-06 -7.42007e-06 -3.45325e-19
2.15437e-06 -1.27372e-05 -1.53668e-18
1.15498e-05 2.57432e-06 -6.63359e-19
-5.37666e-06 2.66984e-05 1.43931e-18
-6.51919e-06 1.29075e-07 -1.68501e-18
6.16507e-06 7.81451e-06 1.8324e-18
-1.76434e-06 -2.72173e-05 4.71764e-19
2.7557e-05 8.55208e-06 -1.28219e-18
2.95672e-06 -4.89116e-06 -5.17699e-19
-7.2776e-06 -2.33839e-06 5.18225e-19
-1.89195e-05 -8.04505e-06 1.14277e-18
1.06432e-05 2.77656e-05 8.73449e-19
-2.78415e-05 -9.91786e-06 7.95566e-19
1.07918e-05 -2.78395e-05 1.51482e-19
-2.46363e-06 -2.07728e-05 -2.94035e-18
1.44082e-05 3.97193e-07 1.57669e-19
-4.76254e-06 1.22329e-05 1.54308e-18
-1.04756e-06 2.59819e-06 -1.50982e-18
-2.44857e-06 -1.0923e-05 9.96618e-19
3.49566e-06 -5.61399e-06 -2.71504e-18
6.21102e-06 1.04915e-05 -1.20031e-18
2.23483e-05 7.29442e-06 -1.90291e-19
5.77777e-06 -4.88764e-06 8.24157e-19
-5.51702e-06 -2.92074e-05 9.47348e-19
1.67741e-05 -1.23732e-05 -4.93474e-19
3.30597e-06 1.84383e-05 -6.90487e-19
-1.83573e-06 -1.87251e-06 -1.15983e-18
-5.71081e-06 -5.49017e-06 -5.28191e-19
-3.15658e-06 5.51025e-08 1.5059e-18
-1.48592e-05 1.83468e-05 1.6951e-19
1.29187e-05 -2.50141e-05 -1.7503e-18
-1.73652e-05 2.74445e-05 6.42185e-19
-1.0682e-05 6.21776e-06 1.84354e-18
1.66992e-06 8.17475e-06 1.02781e-18
-1.51742e-05 -2.36768e-05 -1.56028e-18
9.01129e-06 2.18449e-05 3.07774e-18
1.16478e-05 6.13677e-06 6.79777e-19
1.50145e-05 -5.6641e-06 3.22203e-19
-8.20657e-07 -7.41034e-06 1.15939e-18
-2.18653e-05 -2.01092e-05 1.6337e-19
-1.80089e-06 7.41829e-06 -5.90106e-21
1.14554e-05 6.7555e-06 2.52474e-18
1.24977e-05 -5.89049e-06 -1.84522e-18
5.47474e-06 -9.41132e-06 -1.79155e-19
1.60394e-05 -7.11395e-06 -3.2847e-18
1.25643e-05 -5.94942e-06 9.84675e-19
3.14407e-06 1.89322e-07 -8.5665e-19
1.6838e-05 1.333e-05 3.87216e-18
-1.77472e-06 -1.11319e-05 -2.85488e-18
-6.89552e-06 -2.88866e-06 -1.51921e-18
7.50841e-07 -2.54959e-06 1.83667e-18
-2.10295e-06 1.04275e-05 1.01123e-18
-2.24095e-05 1.76854e-06 9.72696e-19
-7.92797e-06 -2.14964e-05 -3.36661e-19
-5.17911e-06 6.37906e-06 3.30799e-19
8.9186e-06 1.08994e-05 1.16397e-18
1.73743e-05 -1.23902e-05 2.25601e-18
-2.38474e-05 -1.29271e-05 3.1113e-19
1.12934e-05 -1.81095e-05 -3.25644e-19
1.48876e-05 -1.78341e-05 -1.78872e-18
-7.1545e-06 2.51015e-06 -4.95013e-19
-1.28761e-05 -1.85329e-05 9.72238e-19
-2.23917e-05 -3.72292e-06 6.36548e-19
-2.70235e-06 -2.06101e-05 -2.10153e-18
9.99786e-06 -2.06938e-05 -3.1915e-21
-6.06135e-06 -1.73652e-05 1.51308e-18
2.86931e-06 2.04517e-05 -3.23884e-19
-1.04004e-05 -1.84226e-05 1.44219e-18
1.97366e-06 -1.07156e-05 -3.55593e-18
-1.60411e-05 1.16805e-05 -1.5533e-19
-9.90907e-06 -8.01009e-06 -2.19244e-18
-1.81145e-05 -3.37574e-06 2.56119e-18
1.04079e-05 -6.10775e-06 -2.52737e-18
-2.84362e-06 1.58678e-05 8.68604e-21
8.18434e-06 -6.15595e-06 1.16195e-18
-1.9127e-05 -8.38636e-06 1.29425e-18
-5.81374e-06 -4.86035e-06 -5.14115e-19
6.05814e-06 4.93689e-06 -4.94747e-19
1.39905e-05 1.87896e-05 2.43254e-18
-1.14823e-05 -7.11068e-06 -2.36855e-18
-2.09797e-05 -5.06733e-07 2.4098e-18
-1.07918e-05 -3.25386e-06 3.37254e-18
-3.02568e-06 -1.09358e-05 -6.98786e-19
1.18579e-05 1.42805e-05 1.37737e-18
-7.23233e-06 3.81166e-06 -2.69482e-18
4.46443e-07 -1.35378e-05 -1.36661e-18
-2.69506e-05 6.90843e-06 1.61478e-18
1.63209e-05 1.32814e-05 2.6035e-18
2.36299e-06 2.14589e-05 1.45e-18
-1.58426e-06 2.51758e-06 2.1962e-18
-5.90692e-06 1.65456e-07 2.8561e-18
2.9002e-06 5.09065e-06 3.42889e-19
-7.73408e-06 2.27998e-06 4.97268e-19
-1.34172e-06 -2.47163e-06 2.67412e-18
1.11741e-06 1.36714e-05 -3.03741e-18
3.01297e-06 2.53626e-07 1.35372e-18
-1.26995e-05 3.06607e-06 -6.5701e-19
-1.1329e-05 1.25166e-05 -1.45809e-18
-2.03293e-06 7.66583e-06 -1.55587e-19
-1.89791e-05 1.1823e-05 8.12032e-19
-6.19777e-06 5.92446e-06 -2.53695e-18
1.15367e-05 -7.80766e-06 -3.38834e-18
2.40121e-05 -2.38526e-06 -3.72864e-18
-1.40011e-05 7.43381e-06 5.4413e-18
1.47399e-06 2.99598e-06 -6.62682e-19
1.46224e-05 -2.8401e-06 -2.5607e-18
-1.13489e-05 6.82756e-06 2.3624e-18
-6.46361e-06 3.64396e-06 2.86144e-18
7.96636e-06 2.56572e-06 -1.88091e-18
1.43672e-05 -8.90797e-06 -1.80644e-18
-1.14282e-05 6.4982e-06 1.18387e-18
-1.62111e-05 -3.40816e-06 6.55015e-19
-1.104e-05 -2.84274e-06 5.04887e-19
6.67016e-06 5.48037e-08 4.86116e-19
6.83359e-06 8.27971e-08 2.53378e-18
2.91343e-06 5.49245e-06 -3.87675e-18
3.21205e-06 -5.80966e-06 3.17809e-18
-3.29978e-06 5.59356e-06 3.88431e-18
-3.45766e-06 -5.72432e-06 1.87037e-18
6.58295e-06 -4.97073e-06 -1.86341e-18
-1.34943e-05 2.1614e-06 6.78451e-19
-1.33426e-05 -2.20412e-06 1.70997e-18
-8.52645e-06 1.0543e-05 -2.55292e-18
-8.57474e-06 -1.05838e-05 -5.34246e-19
4.9937e-06 -1.33812e-05 -1.05246e-18
4.8112e-06 1.3267e-05 2.06912e-18
9.69151e-07 1.69323e-05 1.64407e-19
7.51625e-06 -2.01888e-06 1.53947e-19
1.62495e-06 -2.52907e-06 -1.52029e-20
-1.38694e-05 9.31206e-07 8.28211e-19
5.15581e-06 -1.31658e-05 1.40349e-19
4.88517e-06 1.32133e-05 1.54363e-18
3.17978e-06 -5.91169e-08 -1.00114e-18
5.82098e-06 1.601e-05 1.62885e-18
-1.48059e-06 -2.6361e-06 4.88182e-19
1.5576e-06 -7.44527e-06 -1.83444e-19
-1.45501e-05 -7.80517e-06 4.42619e-18
-1.41326e-05 -7.56606e-06 -1.0195e-18
-1.42426e-05 8.80597e-06 8.23172e-19
2.15488e-06 -8.28003e-06 3.1712e-19
-1.05203e-06 2.20965e-06 -3.40422e-19
-4.71071e-07 -1.66466e-05 1.53001e-19
-5.12239e-06 -1.58457e-05 -2.62331e-18
2.14046e-05 1.99394e-05 -7.68695e-22
2.33586e-05 -1.20793e-06 3.15509e-19
-8.42632e-06 -2.4447e-06 1.52633e-18
-1.49169e-05 -2.65624e-05 -3.36878e-18
5.48905e-06 9.01672e-06 -1.16413e-18
-1.63401e-05 1.92813e-06 6.47197e-19
1.32517e-05 3.79758e-06 -2.12208e-21
-2.97584e-06 -1.24943e-08 2.02679e-18
-3.07293e-06 -5.56278e-06 6.57845e-19
-5.43675e-06 -2.58652e-05 -1.57707e-18
-6.43546e-06 -3.00737e-08 -1.1901e-18
-3.10065e-05 -1.16385e-06 4.00007e-18
1.13255e-05 -1.2589e-05 -3.32787e-19
1.65391e-06 2.62101e-06 1.85419e-18
-7.603e-08 -1.15101e-05 -3.36465e-18
-6.50362e-06 1.56186e-05 -6.46468e-19
-2.89002e-06 5.70601e-06 -1.51209e-18
1.35505e-05 -8.95447e-06 1.81055e-18
-2.51144e-05 -8.20485e-06 3.56873e-19
-9.98684e-06 -1.31819e-05 3.42264e-18
3.32769e-06 5.62363e-06 5.16331e-19
1.11196e-05 3.35606e-06 1.52841e-18
-3.1273e-06 -4.78788e-06 3.24157e-19
1.33261e-05 2.42637e-06 -2.40499e-18
1.21563e-05 -6.52464e-06 -1.87271e-18
-2.4976e-07 1.79776e-05 -1.03244e-18
5.51424e-06 -8.96837e-06 -1.83006e-19
3.20424e-05 1.37012e-06 -6.38766e-19
-2.72218e-05 7.09306e-06 3.33926e-18
1.53699e-05 7.6767e-06 -8.45669e-19
-4.22715e-06 -1.11726e-05 -2.83679e-18
-1.00539e-05 -5.62041e-06 1.61478e-19
1.89141e-05 -1.56481e-07 -1.47994e-18
-4.79148e-07 -1.60677e-05 9.96087e-19
-8.25015e-06 -7.16692e-06 -3.01794e-18
6.65291e-06 -1.54299e-05 3.26479e-18
-3.638e-07 1.35333e-05 5.07347e-19
5.12076e-06 1.70221e-05 -8.20011e-19
1.14771e-05 -6.58876e-06 -4.54508e-18
-1.23338e-05 1.24268e-05 1.97596e-18
1.08061e-05 1.31722e-05 2.613e-18
-4.3276e-05 1.03235e-05 4.92775e-18
-6.73607e-06 1.72409e-05 1.70778e-18
8.31514e-06 -1.01026e-05 -2.56165e-18
-4.63585e-06 -1.21794e-05 -2.03247e-18
-7.81724e-06 2.91164e-06 -3.70329e-18
-1.67188e-05 -4.55952e-06 -6.54649e-19
-4.46179e-06 2.6066e-05 5.17845e-18
-8.27025e-06 7.88534e-06 -5.01248e-19
1.37096e-05 -3.0029e-06 -1.6709e-18
-4.49797e-06 -1.6763e-05 -1.48788e-18
-9.70286e-06 1.54449e-05 8.27776e-19
-1.44125e-05 8.30175e-06 2.06109e-18
-1.33661e-05 -9.73806e-06 1.46937e-18
1.21042e-05 -1.3952e-05 -7.05707e-19
-1.77508e-05 -9.41354e-07 1.47487e-18
7.82834e-06 -2.68302e-05 3.15835e-18
1.27323e-05 -1.24082e-05 9.81702e-19
1.60254e-05 2.81553e-05 -1.12204e-18
1.29285e-06 1.31253e-05 -3.55985e-18
1.8999e-06 -1.66324e-05 -9.89654e-19
-2.81532e-05 3.30469e-05 2.82349e-18
-8.27713e-06 -1.5791e-05 -1.32133e-18
1.09909e-05 -4.25781e-06 -3.05542e-18
-1.67085e-06 1.67658e-05 1.80256e-18
8.59617e-06 -7.97759e-06 -1.87726e-18
9.06256e-06 1.5897e-05 4.42551e-18
1.13849e-05 -9.64172e-07 6.67412e-19
1.4029e-05 -4.10853e-05 -6.33555e-19
-3.85299e-06 -8.39454e-06 -2.17144e-18
-1.50393e-05 6.46145e-06 4.96807e-19
-1.32851e-05 1.24155e-05 2.22956e-18
1.41808e-05 9.59357e-06 1.15332e-18
1.23231e-05 -7.13224e-06 -1.73234e-19
9.93435e-06 8.40104e-06 4.23037e-18
-3.6103e-06 -5.44538e-09 2.35053e-18
1.00661e-05 -1.51113e-05 4.90123e-19
-1.10487e-05 -1.31588e-05 -4.6059e-18
1.48433e-05 6.44714e-06 3.30214e-18
8.55288e-06 -8.03668e-06 1.49781e-19
6.20034e-06 -1.62373e-05 2.46057e-18
1.1043e-05 -4.66341e-06 3.25341e-19
-1.0319e-05 -4.9133e-06 -3.66871e-18
8.7672e-07 -1.73954e-05 8.30628e-19
-1.68653e-05 2.89557e-06 -3.11955e-18
1.49396e-06 1.60171e-05 -9.88104e-19
1.35782e-05 4.38422e-06 2.66047e-18
-1.40859e-05 -6.93835e-06 3.13353e-18
-5.88418e-06 1.66358e-05 2.06124e-22
-9.92758e-07 -1.57904e-05 1.97106e-18
1.30173e-05 7.90248e-06 -2.204e-18
-1.1433e-06 1.18712e-05 -3.68723e-18
-1.31062e-05 8.81929e-06 2.80487e-18
1.54879e-05 7.49579e-06 4.93594e-19
-1.11834e-05 -6.57e-06 -1.33668e-18
9.76658e-08 -1.30295e-05 3.00765e-18
1.20637e-05 1.30921e-05 5.58388e-18
-1.46141e-05 -9.44525e-06 1.37187e-18
3.17131e-05 -2.26924e-05 6.12319e-19
1.18711e-05 -7.14624e-06 1.82525e-18
5.65899e-06 2.80366e-05 1.54919e-19
1.12655e-05 -8.99469e-06 -3.35409e-19
-1.47659e-05 5.6944e-05 -2.9288e-19
-1.48428e-05 -5.64022e-05 -3.12518e-18
3.70666e-05 4.8455e-05 2.22331e-18
3.66206e-05 -4.84432e-05 1.64727e-18
6.05231e-05 -2.96199e-08 2.22153e-18
-5.20805e-05 2.11002e-05 -1.47778e-18
-5.12353e-05 -2.13207e-05 -2.08059e-18
8.17401e-06 7.89148e-06 3.47309e-19
1.97657e-05 1.47149e-05 1.79327e-19
7.58859e-06 2.20513e-06 1.69969e-19
1.24681e-05 6.41496e-06 2.1526e-18
3.24695e-06 1.32319e-05 1.48888e-18
-1.22519e-05 -9.65627e-06 2.96484e-18
1.13698e-05 -6.74264e-06 4.91107e-19
1.3085e-05 9.54897e-06 2.30968e-18
-2.09688e-06 1.5903e-05 -8.20878e-19
1.98624e-05 -1.35114e-05 -8.80174e-19
2.42303e-06 -1.55036e-05 -6.67529e-19
1.4705e-05 3.40257e-06 -4.41987e-18
1.96026e-05 7.27629e-06 4.86396e-19
9.43105e-06 9.3655e-06 -3.50633e-19
1.0518e-05 4.3546e-06 -2.6644e-18
-1.20695e-05 7.10845e-06 -4.47356e-18
-1.46434e-05 5.85856e-06 2.14725e-18
1.54339e-05 -7.52949e-06 -1.04608e-18
-1.1907e-05 -6.52643e-06 -1.17186e-18
-1.20898e-05 -6.8442e-06 4.96504e-19
-2.15926e-07 -1.36098e-05 -2.52189e-18
-9.87574e-08 -1.3831e-05 6.52381e-19
-1.30679e-05 -6.56601e-07 -3.13662e-18
1.75935e-05 -2.66901e-06 -6.60666e-19
1.19427e-05 7.48487e-06 2.8232e-18
-1.16875e-05 7.09146e-06 -3.27573e-19
-1.01148e-05 1.10056e-05 -3.38599e-19
1.05487e-05 -9.07782e-06 -1.16079e-18
-7.24564e-06 1.13384e-05 -9.8927e-19
-9.28657e-06 -9.66327e-06 -1.49356e-18
-8.08445e-07 1.3847e-05 -6.6538e-19
-8.40923e-07 1.374e-05 -1.49479e-18
3.35556e-08 -1.30334e-05 -2.08496e-20
4.00027e-06 -1.29521e-05 -8.34552e-19
-1.12404e-05 -6.47188e-06 -1.85003e-18
1.03164e-05 -3.65467e-06 -3.43601e-19
4.18252e-07 1.40708e-05 6.66413e-19
1.7107e-07 1.21378e-05 5.04442e-19
-1.56607e-06 1.1013e-05 -3.4991e-18
1.44407e-05 -3.6529e-06 -9.9994e-19
-1.09567e-05 3.49153e-06 -1.00802e-18
2.68514e-06 1.4084e-05 1.86321e-21
-2.17154e-05 8.51658e-06 4.48948e-18
6.14307e-06 2.74123e-05 -3.18769e-19
-1.12629e-05 2.97488e-06 1.87198e-18
1.32062e-05 -7.81378e-06 -1.20528e-18
5.74582e-07 1.3772e-05 1.71036e-19
-1.32953e-05 4.36422e-06 8.33317e-19
1.61987e-06 -1.06899e-05 -3.05314e-18
5.96508e-07 -3.79845e-05 1.39232e-18
1.30854e-06 1.14853e-05 3.17112e-18
-1.10851e-05 9.06502e-06 -2.15867e-18
1.13066e-05 4.16162e-05 3.62488e-18
3.1514e-05 2.61357e-05 5.27265e-19
3.61258e-05 -2.47173e-05 -3.00555e-18
9.82265e-06 -6.72928e-06 -2.51427e-18
-1.03251e-05 9.10431e-06 3.30409e-18
-1.31258e-05 -5.1623e-06 -1.99373e-18
-1.2767e-05 -4.40753e-06 -9.93309e-19
4.44166e-05 -1.22046e-05 -2.4983e-18
4.53074e-05 9.52689e-06 -4.2517e-18
7.21904e-06 2.52106e-06 -6.65466e-19
4.68308e-07 1.2865e-05 2.51688e-18
4.95082e-08 1.28564e-05 3.01881e-18
-3.16431e-05 -2.31545e-05 1.86591e-18
7.4996e-06 -1.12952e-05 1.6423e-18
7.82972e-06 8.35328e-06 3.05428e-18
-1.38727e-05 -2.2151e-06 -2.48444e-18
-9.17731e-06 1.11362e-05 4.95399e-19
-1.23058e-05 5.92522e-06 8.34195e-19
3.13181e-05 2.24646e-05 3.71129e-18
1.05479e-05 4.6694e-06 -6.71635e-19
-3.69631e-06 1.30385e-05 1.32083e-18
-1.1108e-05 -7.61533e-06 1.16165e-18
1.1853e-06 -1.34695e-05 -1.01313e-18
-5.83963e-06 -1.25371e-05 -2.66231e-18
-1.12392e-05 -7.6473e-06 -6.68238e-19
6.93542e-06 -1.24037e-05 1.52915e-19
9.31153e-06 -1.11384e-05 1.59936e-19
-1.93346e-06 -3.97487e-05 -2.51586e-18
1.69536e-05 -2.68908e-05 3.1463e-19
1.14034e-06 -1.36186e-05 -8.42589e-19
1.18997e-05 7.46097e-06 3.17386e-18
-9.45926e-06 -9.64688e-06 -3.33328e-18
-6.43797e-06 1.28068e-05 -3.80698e-18
-3.30206e-06 1.37056e-05 -3.15429e-18
1.09796e-05 9.33627e-06 3.16178e-18
3.94881e-06 -1.30089e-05 -1.83447e-18
-9.10239e-06 -2.60663e-05 -1.43316e-18
-1.3581e-06 1.65967e-05 -2.89697e-18
9.73121e-06 9.51429e-06 3.63274e-18
-8.48593e-06 -6.70677e-06 1.01742e-20
-8.90195e-06 6.97671e-06 3.83027e-21
2.91721e-05 -1.25384e-05 1.10307e-18
4.98541e-06 -8.7935e-06 -3.34872e-18
-5.46035e-06 -8.21234e-06 -1.84482e-18
1.43484e-05 4.3751e-06 1.60158e-19
8.81963e-06 -3.1819e-05 1.5676e-18
-2.31513e-05 -2.35273e-05 2.80258e-18
1.56468e-05 4.10278e-06 -1.19382e-18
-6.12274e-06 -1.18741e-05 -1.49e-18
1.23708e-05 6.28696e-06 -1.65298e-19
-1.87762e-05 -2.08484e-05 -6.41992e-19
7.14233e-06 3.23535e-05 5.58865e-18
3.13449e-05 -4.04826e-05 1.39812e-18
-1.93883e-05 -4.73767e-05 3.54658e-18
1.77001e-05 -3.46017e-05 2.16092e-18
-8.42123e-06 2.8907e-05 2.95947e-18
-4.7968e-06 2.56031e-05 2.9504e-18
-1.22299e-05 5.85132e-06 2.00773e-18
4.00313e-06 1.6046e-05 -2.04944e-18
-1.58005e-06 8.26391e-06 4.97733e-19
6.72682e-06 2.15316e-06 5.07226e-19
-2.12731e-06 1.07109e-05 -6.75295e-19
-1.61729e-07 1.3853e-05 1.18706e-18
1.10548e-05 6.4406e-06 5.03083e-18
5.52357e-07 3.78048e-05 4.49634e-18
-9.64339e-06 6.9586e-06 1.50655e-18
1.06301e-05 -4.10719e-06 -2.53873e-18
1.13364e-05 -2.94839e-06 -5.21493e-19
-3.87518e-05 -5.56686e-06 -3.16297e-19
-2.29507e-05 1.09202e-05 1.05393e-18
-2.81219e-05 -3.33443e-05 -9.50341e-19
5.72588e-06 5.49512e-06 1.34283e-18
9.43112e-06 4.86629e-06 3.5379e-18
1.76211e-05 -2.80991e-06 -2.63526e-18
-5.30102e-06 -8.62964e-06 1.57315e-19
1.14085e-05 5.60481e-06 -1.50418e-18
4.88259e-06 -1.99401e-05 3.7621e-18
-9.04033e-06 6.63687e-06 -1.17335e-18
-1.48208e-05 -1.41966e-05 3.48858e-19
-3.82062e-06 1.06435e-05 5.02013e-19
-2.19783e-06 1.36505e-05 5.06338e-19
2.29249e-05 1.42381e-05 3.8242e-18
2.44415e-05 -1.29708e-05 1.89001e-18
-2.70655e-05 -7.28907e-06 2.84595e-18
5.0631e-06 5.12545e-06 1.68783e-18
-3.17195e-06 6.61005e-05 7.56737e-18
-1.50234e-08 -6.7898e-05 9.29231e-19
3.34654e-05 5.72712e-05 3.07451e-18
-1.26172e-05 5.51251e-06 4.78242e-21
-1.7952e-05 3.62483e-05 4.65573e-18
3.3671e-05 -5.52779e-05 -9.19009e-19
-7.65268e-06 -1.18441e-05 -1.66954e-18
5.11976e-05 4.45735e-05 2.7656e-18
1.59602e-05 -1.18767e-05 3.39658e-19
-2.32303e-06 -1.97501e-05 5.22431e-19
5.36442e-05 -4.35851e-05 1.23763e-18
-4.44547e-06 9.46214e-06 4.96361e-19
-3.43727e-05 -2.18364e-05 2.03632e-18
-2.83112e-05 -5.91121e-05 -4.6714e-19
-1.60281e-05 -3.74139e-05 -1.26552e-18
-2.91058e-05 6.00807e-05 1.70458e-18
-6.89202e-06 4.15736e-05 2.20078e-18
1.0688e-05 2.48265e-05 2.24845e-18
-1.84473e-05 2.37053e-05 3.94674e-18
-1.7178e-05 -3.52874e-05 -1.86336e-18
6.58728e-05 1.15575e-05 2.0073e-18
-1.11163e-05 6.98863e-06 -3.28718e-19
-3.93038e-06 1.07741e-05 -3.05551e-18
-3.2599e-05 2.34776e-05 7.99488e-18
-1.13226e-05 6.49924e-06 -1.50435e-18
6.5224e-05 -1.0304e-05 -6.17375e-19
-1.0097e-05 5.07827e-06 -4.98461e-19
4.74964e-06 -9.53165e-06 -2.66922e-18
-5.06471e-05 -3.85901e-05 -1.23477e-18
-1.72676e-05 3.74477e-05 4.07764e-18
-5.18542e-05 3.83141e-05 1.22775e-18
1.56555e-05 3.4473e-05 3.08896e-18
-9.68394e-06 6.88312e-06 -1.16454e-18
-1.35801e-05 1.6313e-05 2.59355e-18
-2.41712e-05 3.03552e-05 3.71744e-18
-3.78985e-05 -4.88885e-06 -3.45096e-19
-6.33156e-07 1.07313e-05 3.86999e-18
-2.56019e-05 -3.04828e-05 2.45613e-18
-3.92113e-05 6.93652e-06 2.66595e-18
-1.49347e-05 3.46442e-05 1.25002e-18
-1.15282e-05 4.61226e-05 7.37281e-18
-1.20373e-05 2.66852e-05 2.21119e-18
-2.23713e-05 1.80246e-05 3.31042e-18
1.64403e-05 -4.04861e-06 -1.89513e-18
2.56869e-05 -1.39023e-06 -1.91658e-18
8.96726e-06 5.44852e-06 1.18153e-18
-8.09949e-06 -5.30653e-05 5.10634e-19
-5.00152e-05 -1.95053e-05 -2.62826e-18
2.50132e-05 3.38109e-07 -1.03657e-18
3.85609e-05 -7.44437e-06 2.46687e-18
-6.91805e-06 -8.78325e-06 -2.50516e-18
-3.34606e-05 2.35237e-05 5.57506e-18
-2.99869e-05 3.43491e-05 6.31011e-18
4.07628e-05 -1.46878e-05 1.24795e-18
-1.86888e-05 -3.16698e-05 -3.33729e-18
-1.90233e-05 3.1425e-05 1.22285e-18
-3.69121e-05 -1.30557e-06 3.49887e-18
-1.67898e-05 3.30173e-05 2.63323e-18
-3.67943e-05 3.80065e-07 1.23226e-18
4.5761e-05 1.63882e-05 1.93423e-18
3.69422e-05 1.35738e-06 1.91085e-18
3.47273e-05 -1.77923e-05 1.38622e-18
1.01262e-05 -4.88142e-05 8.68812e-19
1.83578e-05 -3.1976e-05 2.06809e-18
1.82332e-05 3.19724e-05 -1.39456e-18
9.91655e-06 4.76958e-05 -2.83029e-18
4.99756e-05 -1.4092e-05 -1.7635e-18
3.20419e-05 1.58708e-05 3.49874e-19
3.0801e-05 8.41599e-06 3.50638e-19
P_ext 3 563 float
-1.08782e-06 3.6782e-07 2.197e-20
1.03195e-09 4.02911e-08 -5.18419e-21
-1.0024e-07 -9.42658e-08 6.19177e-20
-3.17093e-08 2.927e-08 -2.63119e-20
2.7666e-08 5.2828e-10 -1.01486e-19
3.29902e-08 -1.3389e-07 2.29356e-20
-1.07103e-06 -3.7227e-07 4.82398e-20
-7.85878e-08 -8.9151e-08 -5.61035e-22
2.18607e-07 3.87239e-09 -4.88627e-20
7.9814e-08 -7.49823e-09 2.34461e-21
7.08089e-07 1.65965e-07 -7.00657e-20
3.89188e-08 -1.13933e-07 4.38623e-20
8.91917e-08 1.06167e-07 -4.14638e-20
-9.18701e-09 8.31693e-08 -1.77656e-22
2.49876e-08 9.25587e-09 -1.19173e-19
-1.39748e-07 -2.28767e-09 -1.55906e-20
-1.74589e-08 5.48079e-08 -4.98677e-20
8.42424e-08 -1.27113e-08 -6.26617e-20
9.67605e-08 1.72564e-07 -2.3212e-21
-1.29818e-07 1.30917e-08 -1.29521e-20
-4.87351e-08 -1.83874e-07 5.95641e-23
1.60678e-09 3.34083e-10 8.61352e-21
1.43783e-07 1.17063e-08 -2.84729e-20
9.15381e-08 -1.0569e-07 -1.60654e-22
-1.32613e-07 -2.13547e-08 -7.79392e-20
-2.49984e-08 -7.25719e-08 -5.00377e-20
8.14046e-07 -6.65929e-08 2.93815e-20
9.97387e-08 8.4086e-08 -4.72105e-21
-2.97854e-07 -2.36598e-07 9.90931e-21
1.75041e-08 3.29231e-09 -4.30328e-20
-1.33155e-07 -2.37139e-08 -3.39279e-20
5.82131e-08 -3.78804e-07 1.7413e-20
6.11721e-07 -6.26479e-07 6.14063e-20
1.30363e-09 -2.87313e-08 -7.30787e-20
-7.7323e-09 2.2096e-08 7.57073e-20
-2.39834e-08 -1.58004e-08 8.65355e-20
3.17685e-09 1.58645e-08 5.58073e-21
-2.42495e-08 4.12918e-09 -9.9329e-20
9.63179e-08 -1.04754e-07 -3.1645e-20
5.96924e-07 6.52882e-07 1.47148e-20
3.81301e-07 -1.72753e-07 -2.02877e-20
5.90033e-09 -1.45279e-08 3.22387e-20
-9.54814e-09 -1.27246e-08 -5.11785e-20
-1.32276e-07 2.71719e-08 -1.03721e-20
3.78291e-07 -3.71499e-07 1.9845e-20
-3.5249e-07 1.26878e-07 9.3142e-20
-4.4535e-08 -1.9434e-07 -1.04977e-20
8.03568e-08 1.95199e-07 -4.9095e-20
-1.26881e-07 3.31792e-08 -4.40297e-20
-2.18322e-07 3.39568e-07 -1.22008e-20
3.86994e-07 1.89521e-07 2.78052e-20
3.36036e-07 -1.10522e-07 -1.03292e-20
-9.90128e-09 2.35307e-08 4.03443e-20
-2.62972e-07 -2.35979e-07 2.80693e-20
-2.58131e-08 3.40822e-09 -5.55179e-20
-5.64016e-07 3.31221e-07 7.44852e-20
-7.17997e-09 -2.20037e-08 2.10608e-20
7.48828e-08 -3.47268e-07 -3.81092e-20
-2.24259e-08 -4.88474e-09 3.29797e-20
5.87522e-08 1.17802e-07 -4.40691e-20
-3.13515e-08 -9.51537e-09 -2.85755e-20
-3.31032e-08 -3.10958e-08 1.32009e-20
7.33987e-07 3.23145e-07 -3.66546e-20
-6.29777e-10 6.41076e-08 -6.64078e-20
9.90925e-09 -4.27737e-08 -2.40358e-20
1.66457e-08 -9.51599e-08 8.12056e-20
-6.60522e-09 -3.1158e-08 -7.63359e-20
-7.61575e-08 -1.93553e-08 1.30771e-20
-8.8653e-08 1.08472e-07 -1.04575e-20
2.37757e-08 -8.63356e-09 1.20155e-19
-9.76602e-09 -2.42083e-08 4.20242e-20
-2.55306e-08 -3.74196e-09 2.44507e-20
-4.39401e-08 4.07086e-07 2.52846e-20
-7.82197e-08 3.95087e-08 -1.30755e-20
-7.5884e-08 1.29795e-07 6.75114e-20
-7.63252e-07 8.97141e-08 3.44876e-20
3.51108e-11 -6.04508e-08 -9.63871e-20
-7.34855e-08 -6.15687e-08 -4.73211e-20
3.09426e-08 7.5508e-08 6.28489e-20
2.92534e-07 5.84831e-08 5.04895e-21
4.19257e-07 -3.64786e-07 -3.2356e-20
1.14957e-08 2.81487e-08 4.52891e-20
2.83635e-08 8.80094e-09 -4.45876e-20
-3.9065e-07 2.89019e-07 3.01781e-20
4.56003e-07 5.54395e-08 2.24648e-20
-6.91154e-08 6.18053e-07 7.65889e-20
-2.39612e-08 -1.23873e-07 -2.383e-20
8.41183e-08 5.92446e-08 7.93991e-21
3.63866e-07 3.83725e-07 3.20798e-20
6.5939e-09 2.9352e-09 -4.62601e-20
-7.01299e-08 3.4923e-07 4.84417e-20
5.95633e-09 -3.19204e-09 -3.86006e-20
-4.21137e-08 2.87204e-08 4.29664e-20
9.09116e-08 3.69993e-08 3.71372e-20
-3.36268e-07 1.03956e-07 2.54786e-20
1.9517e-07 3.42946e-07 -2.97546e-20
1.21417e-07 -5.48197e-07 2.47047e-20
2.85426e-08 7.48317e-08 4.69746e-20
-5.16478e-08 -3.07325e-08 2.66285e-20
4.27924e-08 1.36862e-07 -6.23692e-20
2.84528e-07 4.84181e-08 7.8659e-21
-1.88875e-07 3.90207e-07 -6.53721e-20
5.02083e-07 -1.64096e-07 2.40846e-21
-2.78633e-08 6.08339e-08 1.30304e-20
5.34038e-08 5.42362e-08 8.01235e-21
-3.17399e-08 -7.32226e-08 -2.26248e-22
-1.27673e-08 -5.5791e-08 -5.57127e-20
1.477e-07 1.77073e-08 1.04461e-20
-1.07726e-07 5.03908e-07 7.45888e-20
-2.49181e-08 1.53714e-08 2.33065e-20
7.36722e-08 1.09178e-07 2.86791e-20
-3.6427e-08 -5.17111e-07 -4.93195e-20
5.23121e-07 1.57069e-07 -1.74863e-20
3.56188e-08 -6.29417e-08 -1.07678e-20
-8.13197e-08 -9.30276e-09 -1.01347e-20
-3.34588e-07 -1.34292e-07 7.5921e-20
1.65475e-08 1.77e-08 4.60554e-20
-5.31471e-07 -1.85868e-07 4.97775e-20
1.6799e-08 -1.7651e-08 -3.0085e-20
-5.16793e-08 -3.63373e-07 -2.3318e-20
2.24274e-07 8.51059e-09 -3.34097e-20
-1.99772e-08 1.70487e-08 3.21182e-20
5.36168e-09 2.44943e-08 -3.14564e-20
1.50026e-08 -6.57055e-08 8.9062e-20
2.60605e-08 -1.21886e-08 1.76107e-20
4.87803e-10 2.6398e-08 -8.19212e-21
2.27883e-08 -2.84475e-09 -9.17379e-20
4.251e-08 -6.27124e-08 2.84568e-20
-1.08819e-07 -5.55018e-07 1.9838e-20
2.87483e-07 -2.21306e-07 -7.76874e-21
9.31592e-10 3.50283e-08 -4.28168e-20
-2.4243e-08 -4.38563e-09 2.10898e-20
-7.88984e-09 -2.71164e-08 2.84455e-20
-1.9992e-08 -1.41113e-08 5.22729e-20
-2.68757e-07 3.35843e-07 -2.36048e-21
-3.08753e-10 -2.66792e-08 -5.9809e-20
-3.36173e-07 5.27845e-07 1.50835e-20
-1.26352e-07 5.81073e-08 -2.83893e-20
1.77678e-08 1.91623e-08 6.08866e-20
-2.29693e-08 -1.34305e-08 1.60477e-20
1.63916e-07 3.95605e-07 3.30337e-20
9.4584e-08 8.42954e-08 -3.89406e-20
2.29565e-07 -7.57076e-08 1.10173e-19
1.29186e-08 -7.06408e-08 6.77064e-20
-4.16512e-07 -3.83808e-07 6.9654e-20
-4.01634e-08 6.94123e-08 -1.57265e-20
1.04294e-07 5.56319e-08 -4.80069e-21
1.52504e-07 -5.25039e-08 -5.5563e-21
6.58601e-08 -1.31565e-07 3.86253e-20
2.61071e-07 -1.20383e-07 -1.84063e-20
1.73702e-07 -8.19897e-08 -1.55528e-20
1.74579e-08 -1.44685e-08 5.70411e-20
3.02816e-07 2.39524e-07 8.31601e-20
-4.38369e-08 -1.26773e-07 -2.65724e-20
-5.38436e-08 -4.60659e-08 -3.42895e-20
-8.8017e-09 -2.31069e-08 1.56313e-20
1.20923e-08 9.0454e-08 -6.53793e-20
-4.05025e-07 2.90385e-08 1.08667e-19
-1.47961e-07 -3.86634e-07 -1.02811e-20
-6.37252e-08 8.12284e-08 -4.63642e-23
1.2531e-07 1.67001e-07 -2.82487e-20
3.11686e-07 -2.21068e-07 3.28264e-20
-4.55635e-07 -2.43608e-07 6.64654e-20
2.02702e-07 -3.29981e-07 4.24202e-20
2.6395e-07 -3.24678e-07 -4.56301e-20
-7.77448e-08 7.70162e-09 -5.12986e-21
-2.31714e-07 -3.3531e-07 5.08553e-21
-4.05607e-07 -6.35702e-08 8.56232e-20
-4.8339e-08 -3.70147e-07 -1.28478e-20
1.80436e-07 -3.72946e-07 4.82718e-21
3.77278e-09 -5.12752e-08 6.86828e-20
5.36192e-08 3.57088e-07 2.02638e-20
-1.91016e-07 -3.3416e-07 -3.49837e-20
-1.79183e-08 -8.20021e-08 -1.15984e-19
-2.76131e-07 2.06723e-07 1.52106e-20
-5.4103e-08 -1.77383e-08 6.31657e-20
-4.21521e-08 -2.8968e-08 3.74292e-20
1.10216e-07 -5.65235e-08 5.94697e-20
-1.51681e-08 2.14764e-08 -3.45138e-20
5.85831e-08 -7.3943e-08 7.67824e-21
-3.43594e-07 -1.52805e-07 8.54238e-20
-4.55184e-08 -6.13044e-08 -1.59478e-20
4.75722e-08 6.50341e-08 -8.34487e-20
2.48452e-07 3.42954e-07 -4.76199e-20
-8.79524e-08 -4.05585e-08 -3.70441e-20
-3.82206e-07 -8.59939e-09 8.52153e-20
-4.89972e-08 -4.54394e-08 -2.08212e-20
-2.78946e-09 -6.58118e-08 1.52934e-20
4.79944e-08 2.4208e-08 -5.01109e-20
-5.53504e-08 5.4558e-08 -1.60259e-20
-9.24392e-09 -9.68786e-08 3.63234e-20
-5.10206e-07 1.25676e-07 1.30022e-19
2.79689e-07 2.38601e-07 6.859e-20
3.73715e-08 3.88595e-07 7.52786e-20
-2.25341e-08 7.74805e-09 4.74913e-20
-7.51764e-08 2.33603e-09 -9.92746e-21
3.45138e-08 6.58941e-08 1.58271e-20
-2.7324e-08 -6.70834e-09 1.03632e-20
3.23248e-09 -2.32936e-08 1.20156e-19
-1.50327e-08 1.02546e-07 -5.57616e-21
1.66598e-08 1.75526e-08 3.16812e-20
-1.89888e-07 4.19751e-08 2.8168e-20
-1.92574e-07 2.10122e-07 1.02076e-20
-2.07927e-08 1.92958e-08 3.18257e-20
-3.48384e-07 2.10255e-07 1.27509e-20
-8.9463e-09 2.96919e-08 -4.49421e-20
9.40348e-08 -3.36863e-08 -5.94299e-21
4.36713e-07 -4.01781e-08 -5.07165e-20
-5.47514e-08 3.46442e-08 -4.70781e-20
2.2141e-08 1.02081e-08 -7.70588e-21
5.69871e-08 -3.566e-08 -3.06383e-21
-9.77614e-08 3.25847e-08 -2.58071e-20
-7.11458e-08 1.86524e-08 8.2895e-21
2.50205e-08 -7.3078e-09 -8.47944e-20
2.31368e-07 -1.40708e-07 -5.64019e-20
-9.10626e-08 5.80617e-08 1.0661e-20
-2.72005e-07 -5.67213e-08 5.08845e-20
-5.78173e-08 -3.04411e-08 -3.68945e-20
2.21169e-08 -1.46816e-08 -5.57673e-21
2.44996e-08 1.72107e-08 -3.09638e-20
-6.18229e-09 2.78525e-08 4.64446e-21
-2.50815e-09 -3.14255e-08 -3.40607e-20
-2.55007e-08 1.30365e-08 3.32788e-21
-2.85395e-08 -1.46222e-08 8.43773e-21
7.14946e-08 -2.7022e-08 -3.05957e-21
-2.61635e-08 -7.19455e-09 -1.85232e-20
-2.6108e-08 6.92994e-09 -3.14281e-20
-6.43588e-09 2.59385e-08 -3.99201e-20
-6.98694e-09 -2.6507e-08 2.32932e-20
1.72524e-08 -1.93181e-08 2.07012e-20
1.65864e-08 1.84889e-08 1.37439e-20
1.00087e-08 2.76115e-07 -4.33079e-20
5.35781e-08 -4.41947e-08 2.34504e-21
1.25046e-08 -2.35822e-08 4.13903e-20
-2.0824e-07 7.69707e-09 -3.09076e-20
1.97745e-08 -1.87752e-08 9.47596e-20
1.84626e-08 1.90673e-08 -6.58661e-20
2.83248e-08 -6.16264e-10 2.08862e-20
9.55873e-08 2.70576e-07 -2.7754e-20
-1.4331e-08 -2.34366e-08 -2.10762e-20
3.0988e-08 -7.09265e-08 1.53411e-20
-2.32382e-07 -1.28571e-07 3.85923e-20
-5.10712e-08 -3.31526e-08 4.48532e-20
-2.33229e-07 1.38327e-07 2.30523e-20
2.06858e-08 -2.12105e-08 1.33836e-19
-9.91409e-09 2.20357e-08 2.46702e-21
-5.45436e-09 -2.67377e-07 -1.54579e-20
-8.7535e-08 -2.64815e-07 -6.89521e-20
4.01321e-07 3.81961e-07 1.50568e-20
4.29268e-07 -2.43767e-08 -2.24547e-20
-3.04558e-08 6.63197e-09 -5.77308e-20
-2.87093e-07 -5.07335e-07 3.66312e-20
6.84606e-08 1.17382e-07 -5.45592e-20
-2.75208e-07 3.24137e-08 3.54719e-20
1.97577e-07 5.5248e-08 -6.15812e-20
-2.69984e-08 -1.09202e-10 -1.25043e-20
5.8532e-10 -2.80637e-08 6.51522e-20
-2.45322e-09 -1.91996e-08 2.13033e-20
-2.3934e-08 -1.42385e-08 -2.91243e-20
-5.95262e-07 -2.25575e-08 8.49797e-20
1.87097e-07 -2.11606e-07 -1.79078e-20
1.27237e-08 2.46798e-08 4.46971e-20
6.504e-09 -1.18153e-07 5.41271e-20
-1.11599e-07 2.64291e-07 -4.80698e-20
2.28603e-09 2.96944e-08 -2.62897e-20
1.99648e-07 -1.42861e-07 -2.56991e-21
-1.75669e-08 -7.68023e-09 1.91814e-20
-1.6977e-07 -2.20653e-07 5.60606e-20
2.33951e-08 1.19077e-08 1.85595e-20
5.53671e-08 5.35226e-08 -1.01569e-20
-3.939e-08 -6.13613e-08 -1.58426e-20
2.42422e-08 -7.8359e-09 -1.43641e-19
8.20407e-08 -5.72731e-08 4.77156e-21
-4.87369e-09 4.57494e-08 -5.08607e-20
6.74887e-08 -1.13748e-07 -2.6345e-20
6.16211e-07 3.10484e-08 -1.16224e-19
-5.2204e-07 1.38122e-07 5.72545e-20
4.3726e-08 3.04703e-08 2.93732e-20
-6.46807e-08 -1.55725e-07 1.5028e-20
-9.83229e-08 -6.41424e-08 2.5902e-20
3.20008e-07 -3.21619e-09 -6.65479e-20
2.73671e-09 -6.10693e-08 -5.71283e-21
-7.99817e-08 -2.82429e-08 3.66844e-20
1.09059e-07 -2.60566e-07 6.37264e-20
8.69506e-09 1.04975e-07 -1.8261e-20
8.95094e-08 2.77582e-07 -6.39042e-20
1.07434e-07 -5.6616e-08 -1.89733e-20
-1.9596e-07 2.0858e-07 5.39417e-20
1.80191e-07 2.22659e-07 -4.27413e-20
-1.13382e-08 5.07002e-09 3.09001e-20
1.86407e-09 4.8377e-08 1.6074e-20
3.65392e-09 -2.19532e-08 -5.6879e-21
-1.73773e-08 -1.44184e-08 7.99427e-21
-5.98504e-08 4.74533e-08 -5.68851e-21
-2.74555e-07 -6.50508e-08 -1.79592e-20
9.61007e-10 3.0865e-08 4.6103e-20
-7.18121e-08 2.14399e-08 -3.14144e-20
1.94536e-07 -2.82037e-08 -5.97388e-20
-8.3185e-08 -2.6938e-07 -3.09574e-20
-1.63839e-07 2.60926e-07 -4.05889e-20
-4.62709e-08 2.13864e-08 8.33795e-21
-2.19581e-07 -1.5537e-07 -2.03918e-20
4.97121e-08 -2.33174e-08 1.53979e-20
-2.97733e-07 -1.45789e-08 4.08987e-20
1.45745e-07 -5.14281e-07 8.64846e-20
1.99143e-07 -2.09121e-07 -2.80431e-20
3.0449e-07 5.39858e-07 -2.00574e-20
-2.85152e-09 6.52638e-08 -2.93547e-20
2.6139e-08 -2.71237e-07 4.05741e-20
-1.05959e-08 6.41763e-09 -1.5656e-20
-1.41165e-07 -2.63414e-07 -1.81549e-20
4.73733e-08 -4.05409e-08 7.57531e-20
-2.72338e-08 2.74367e-07 2.81836e-20
6.61262e-08 -1.9414e-08 1.12442e-19
1.5046e-07 2.68134e-07 -1.74249e-20
1.50703e-07 -3.51922e-09 -3.36619e-20
2.75038e-07 -8.11519e-07 -2.2276e-20
-5.82835e-08 -1.08507e-07 1.77641e-20
-2.43064e-07 1.05908e-07 2.30787e-20
-3.40639e-08 1.67404e-08 2.95961e-20
2.30746e-07 1.54528e-07 1.19857e-19
1.64475e-07 -9.08034e-08 5.0425e-21
8.69475e-08 3.82016e-08 4.2559e-20
-1.77834e-08 1.50253e-08 5.4034e-21
1.64966e-07 -2.54847e-07 3.06125e-20
-1.75872e-07 -2.1947e-07 4.2801e-20
2.26919e-07 8.95075e-08 1.08063e-19
5.77322e-08 -3.56852e-08 6.55385e-20
1.06083e-07 -2.63666e-07 5.38673e-20
1.24672e-07 -2.36352e-08 -1.51939e-22
-1.20983e-07 -4.82687e-08 -7.81338e-20
-5.26128e-09 -4.91147e-08 -5.81226e-21
-2.773e-07 3.85074e-08 3.81051e-20
2.91349e-08 2.43263e-07 -3.85321e-20
1.89711e-07 4.427e-08 2.95053e-21
-2.15495e-07 -9.64544e-08 -2.2801e-20
-1.05961e-07 2.71699e-07 -2.29808e-20
-2.4219e-08 -2.37004e-07 -1.02285e-20
6.26657e-08 3.05847e-08 -4.50282e-20
-4.06695e-08 1.1463e-07 -6.29798e-20
-1.93785e-07 1.38985e-07 -4.83994e-20
2.48871e-07 1.2553e-07 7.90168e-20
-1.13306e-07 -3.55968e-08 -4.43233e-20
-2.74734e-08 -1.16681e-07 5.18645e-21
1.90184e-07 2.21072e-07 5.42131e-20
-4.47173e-08 -2.02841e-08 3.48031e-20
6.25314e-07 -4.49632e-07 4.68437e-21
1.3244e-07 -9.26586e-08 -4.67664e-20
1.08144e-07 5.29955e-07 4.4738e-20
1.3965e-07 -1.34254e-07 -3.62541e-20
-3.01885e-07 1.14966e-06 -4.8467e-20
-3.03634e-07 -1.13846e-06 -1.88706e-20
7.45998e-07 9.80579e-07 1.1712e-20
7.36744e-07 -9.80316e-07 3.95572e-20
1.22115e-06 -4.75948e-10 1.39696e-20
-1.05268e-06 4.23513e-07 -2.08695e-20
-1.03523e-06 -4.28118e-07 2.74736e-20
5.03546e-08 2.73182e-08 -3.14348e-20
3.23122e-08 1.56889e-08 3.2283e-20
9.38455e-08 1.26391e-08 -3.63634e-20
1.65677e-07 8.85429e-08 -6.17281e-20
4.91456e-08 1.95763e-07 -4.92526e-21
-1.77615e-07 -1.52596e-07 1.9366e-22
8.94525e-08 -8.24579e-08 2.33116e-20
1.90846e-07 1.53161e-07 6.17066e-20
-4.41345e-08 2.40944e-07 5.37527e-20
3.13396e-08 -1.53928e-08 -2.18823e-20
4.49178e-08 -2.31222e-07 5.11121e-20
5.86982e-08 3.95767e-08 -6.91e-20
3.44208e-07 1.2058e-07 1.06298e-19
7.72166e-09 2.47839e-08 -2.1363e-20
1.33042e-07 4.35461e-08 -3.12741e-20
-1.64658e-07 9.10828e-08 -1.08689e-19
-2.25437e-07 7.79888e-08 -9.90165e-21
4.46428e-08 -3.05848e-08 -4.82479e-22
-1.43937e-07 -6.66074e-08 -2.09208e-20
-1.58147e-07 -9.36732e-08 -5.93563e-20
-1.38618e-08 -1.5876e-07 -6.80201e-20
6.25546e-10 -1.82335e-07 -1.82437e-20
-2.00748e-07 -8.67797e-09 -5.67881e-20
2.97945e-07 -4.62604e-08 2.34286e-21
1.60744e-07 9.90657e-08 5.44188e-20
-1.33018e-07 9.07411e-08 2.34766e-20
-5.99822e-08 2.93646e-08 -3.70437e-20
1.50029e-07 -1.3443e-07 2.29164e-20
-1.12723e-07 1.75514e-07 1.02002e-20
-1.38856e-07 -1.46269e-07 -1.56839e-20
-1.31588e-08 1.91183e-07 2.82776e-20
-2.86026e-08 1.61361e-07 -4.15127e-20
4.71532e-09 -1.1715e-07 -4.73405e-20
6.04344e-08 -1.95328e-07 1.25554e-19
-9.87851e-08 -6.33952e-08 -4.98215e-20
1.3686e-07 -3.90309e-08 -4.43244e-20
3.35441e-10 1.90947e-07 -2.817e-20
-4.12983e-09 1.2201e-07 6.52365e-20
-3.06618e-08 1.37241e-07 -4.69637e-20
2.2461e-07 -5.52762e-08 -1.05333e-20
-4.71794e-08 4.50403e-08 -6.30444e-20
5.09095e-08 1.91102e-07 -1.00643e-19
-3.07725e-08 1.94227e-08 -1.0043e-20
1.13429e-07 5.25967e-07 4.42042e-20
-5.56504e-08 3.00398e-08 -3.65985e-20
5.90446e-08 -3.0735e-08 -1.63125e-20
1.69819e-08 1.6239e-07 -1.2812e-20
-1.90442e-07 4.5238e-08 2.6681e-21
-5.85303e-09 -8.25607e-08 -7.14529e-20
7.85527e-09 -7.50361e-07 3.15642e-20
2.27958e-08 1.37666e-07 4.44494e-20
-1.42273e-07 1.35348e-07 -2.3377e-20
2.20918e-07 8.21649e-07 1.01099e-20
1.06148e-08 6.98944e-09 1.09866e-20
9.17114e-09 -6.66604e-09 -2.80954e-20
1.07113e-07 -8.35275e-08 2.29201e-20
-1.52035e-07 1.36127e-07 1.323e-20
-1.82492e-07 -5.39084e-08 -1.21667e-19
-1.87529e-07 -6.15911e-08 -7.20804e-20
-3.73087e-09 2.29555e-09 -6.67511e-20
-2.57596e-09 -1.23802e-09 -1.38246e-19
8.75987e-08 1.78002e-08 5.27722e-21
2.7801e-08 1.27851e-07 2.77932e-22
-3.21307e-09 1.27124e-07 1.59632e-20
-6.28487e-07 -4.56532e-07 5.82408e-20
1.11568e-07 -1.75479e-07 4.61889e-20
5.6439e-08 2.03319e-08 4.26156e-20
-2.0698e-07 -2.22667e-08 -8.78476e-20
-1.30873e-07 1.729e-07 -1.02788e-20
-1.68956e-07 7.94449e-08 -4.36752e-20
6.17025e-07 4.43344e-07 -5.02282e-20
6.10718e-08 4.01428e-08 -1.10324e-19
-6.00629e-08 1.96034e-07 -2.04071e-20
-1.18408e-07 -1.0142e-07 5.70391e-20
2.94545e-08 -1.54437e-07 2.03715e-20
-9.58104e-08 -1.82291e-07 -5.61433e-21
-1.53532e-07 -1.05236e-07 -1.55963e-20
1.05226e-07 -1.86616e-07 4.09869e-20
1.26225e-07 -1.73465e-07 -1.55632e-20
-4.00037e-08 -7.83016e-07 -1.99262e-20
3.21942e-07 -5.14957e-07 3.97815e-20
1.53811e-08 -1.87476e-07 3.57767e-20
1.32209e-07 1.00646e-07 3.93141e-20
-1.18758e-07 -1.44156e-07 -4.69814e-20
-1.02996e-07 1.92018e-07 1.25952e-20
-6.32773e-08 1.88202e-07 -2.61628e-20
1.37852e-07 1.42744e-07 4.94575e-20
6.75814e-08 -1.76033e-07 1.02933e-19
-1.74723e-07 -4.98186e-07 3.65606e-20
3.93841e-09 6.05451e-08 1.2945e-20
1.39559e-07 1.43605e-07 -1.24577e-20
-7.52372e-08 -3.70509e-08 1.77766e-22
-6.25174e-08 3.41301e-08 -3.93567e-20
5.59411e-07 -2.45068e-07 -7.36862e-20
6.94845e-08 -1.14837e-07 -3.43459e-20
-6.59508e-08 -1.12825e-07 4.36353e-20
2.50358e-08 -2.16434e-09 -8.29004e-20
2.16282e-09 -9.48948e-09 5.71443e-20
-7.01937e-09 -6.94528e-09 6.01897e-20
3.08245e-08 2.02058e-08 -2.13337e-20
-9.66167e-08 -1.82386e-07 3.82294e-20
1.48678e-07 5.96274e-08 5.19177e-20
-3.61767e-07 -3.97716e-07 4.64141e-20
1.36778e-09 1.16634e-08 -3.75273e-20
1.34941e-09 2.07992e-09 2.45455e-20
2.60312e-09 -3.44075e-10 1.14417e-20
3.47149e-07 -6.85536e-07 -9.58556e-21
-1.44322e-08 1.69993e-08 -1.28468e-20
-3.31093e-09 2.05941e-08 4.07494e-20
-1.49493e-07 5.31432e-08 -7.39707e-21
-5.16517e-09 6.07283e-08 -2.91792e-21
-3.28436e-08 9.7384e-08 2.60179e-20
6.77059e-08 2.88818e-09 2.62465e-20
1.52691e-08 5.85454e-08 -3.15838e-20
-4.00256e-09 8.0956e-08 3.70479e-20
1.16039e-07 6.31316e-08 -9.85891e-21
8.26549e-09 7.46857e-07 5.35297e-20
-1.07961e-07 1.02154e-07 -1.79312e-20
8.09534e-08 -5.44284e-08 -3.97758e-20
4.67376e-08 -4.26716e-08 -4.50483e-20
-7.66021e-07 -1.05177e-07 -2.52985e-21
-2.18385e-08 8.6557e-09 -2.92638e-20
-5.57784e-07 -6.59808e-07 3.90867e-20
1.01387e-08 2.71468e-08 -1.84574e-20
9.78453e-08 1.90272e-08 -3.08498e-20
2.9129e-07 -3.78048e-08 -4.38368e-20
-6.65912e-08 -1.09425e-07 -4.69939e-20
1.27322e-07 3.65193e-08 1.81577e-20
6.64436e-10 -3.24063e-08 1.07895e-20
-7.18094e-08 8.30801e-08 -1.57507e-20
-2.74629e-08 -1.74723e-08 4.28256e-20
-6.47219e-08 1.31491e-07 4.42027e-20
1.17086e-08 8.29964e-08 -2.8898e-20
1.90313e-08 1.395e-08 7.33711e-20
1.88872e-08 -1.34011e-08 1.59751e-20
-5.19297e-07 -1.41466e-07 1.20714e-19
5.72129e-08 2.13507e-08 1.07507e-20
-6.88783e-08 1.33311e-06 1.75908e-20
-4.79233e-09 -1.36963e-06 -1.70126e-20
6.74156e-07 1.15407e-06 1.7178e-20
-6.99766e-08 5.55118e-08 3.42339e-20
-3.57225e-07 7.18911e-07 -1.38795e-20
6.78028e-07 -1.11389e-06 4.78767e-20
-1.12126e-07 -1.81477e-07 7.295e-21
1.02961e-06 9.02178e-07 -6.70185e-20
1.21083e-08 -2.14755e-08 4.27786e-20
-1.26163e-08 -2.17608e-08 -1.32384e-20
1.07928e-06 -8.82092e-07 8.17218e-20
-6.61413e-08 1.30074e-07 5.20071e-21
-6.77963e-07 -4.31775e-07 5.14576e-20
-5.71699e-07 -1.19158e-06 -4.58266e-20
-3.20207e-07 -7.36645e-07 5.82669e-20
-5.87721e-07 1.21142e-06 3.16051e-20
-1.38891e-07 8.20939e-07 5.38505e-20
-9.78946e-10 2.87552e-08 3.51616e-20
-3.56615e-07 4.59132e-07 4.95411e-20
-3.41414e-07 -6.98774e-07 2.28108e-21
1.32763e-06 2.31675e-07 -4.53428e-20
-1.03826e-07 8.82676e-08 8.08493e-20
-2.4405e-09 5.83208e-08 -9.0036e-20
-6.42194e-07 4.64904e-07 6.43836e-20
-1.15144e-07 6.14545e-08 4.16013e-20
1.31454e-06 -2.06065e-07 4.05637e-20
-8.78825e-08 5.89931e-08 5.75171e-20
6.40157e-08 -1.32392e-07 -1.08233e-20
-1.02298e-06 -7.76965e-07 3.32848e-20
-3.44943e-07 7.39091e-07 3.95053e-20
-1.04777e-06 7.71258e-07 7.30697e-21
3.06146e-07 6.8298e-07 -9.30506e-21
-1.12718e-07 8.96022e-08 -1.04184e-20
-3.12834e-08 1.77184e-08 -8.2731e-20
-1.71438e-09 -2.71968e-09 3.61862e-20
4.2851e-10 -2.35008e-09 -3.55785e-20
8.56881e-09 8.99829e-08 -1.27079e-20
-2.51382e-09 2.72407e-09 1.29067e-19
1.32443e-09 3.37454e-09 1.21503e-19
2.26669e-09 -9.71789e-10 -8.2048e-20
-1.34123e-09 1.06612e-08 6.62481e-20
-2.3557e-07 5.13961e-07 3.20968e-20
-1.77223e-08 1.27227e-08 1.94953e-20
3.05452e-08 -1.92417e-08 -4.83241e-20
2.99404e-08 -1.73434e-08 -7.29955e-20
8.62436e-08 3.36582e-08 3.41593e-20
-8.13058e-10 -9.12464e-09 2.15721e-20
-8.14764e-09 -4.12902e-09 5.18659e-20
2.99229e-08 1.74552e-08 -4.57305e-20
7.61288e-07 -1.46721e-07 2.66645e-20
-9.86433e-08 -1.25736e-07 -5.21527e-20
-6.6652e-07 4.6468e-07 4.88408e-20
-5.96768e-07 6.80646e-07 1.55543e-20
8.04419e-07 -2.90506e-07 4.87956e-21
-3.86339e-09 -1.11992e-08 2.91055e-20
-4.24232e-09 1.15039e-08 2.45393e-20
-1.26446e-08 2.16845e-09 -5.36571e-20
-8.28872e-09 8.45867e-09 -8.88903e-20
-1.14625e-08 -2.42563e-09 3.83592e-20
2.12592e-09 2.6915e-09 -2.72984e-21
1.23037e-08 -3.02482e-09 -1.62664e-20
5.18991e-09 -3.64723e-09 5.19385e-21
-3.62616e-09 -2.61996e-09 -1.2124e-19
7.86658e-09 -8.09271e-09 -5.1943e-20
7.91019e-09 8.33364e-09 -6.25248e-20
-3.64827e-09 2.30353e-09 -4.97851e-20
4.00642e-09 -7.97525e-10 -1.11116e-20
6.6422e-09 3.67812e-09 -3.82861e-20
1.43794e-08 5.1294e-09 2.44784e-20
SCALARS rr_necrosis float
LOOKUP_TABLE default
0
0
0
0
0
0
0
0
0
0
0
0
0
0
0
0
0
0
0
0
0
0
0
0
0
0
0
0
0
0
0
0
0
0
0
0
0
0
0
0
0
0
0
0
0
0
0
0
0
0
0
0
0
0
0
0
0
0
0
0
0
0
0
0
0
0
0
0
0
0
0
0
0
0
0
0
0
0
0
0
0
0
0
0
0
0
0
0
0
0
0
0
0
0
0
0
0
0
0
0
0
0
0
0
0
0
0
0
0
0
0
0
0
0
0
0
0
0
0
0
0
0
0
0
0
0
0
0
0
0
0
0
0
0
0
0
0
0
0
0
0
0
0
0
0
0
0
0
0
0
0
0
0
0
0
0
0
0
0
0
0
0
0
0
0
0
0
0
0
0
0
0
0
0
0
0
0
0
0
0
0
0
0
0
0
0
0
0
0
0
0
0
0
0
0
0
0
0
0
0
0
0
0
0
0
0
0
0
0
0
0
0
0
0
0
0
0
0
0
0
0
0
0
0
0
0
0
0
0
0
0
0
0
0
0
0
0
0
0
0
0
0
0
0
0
0
0
0
0
0
0
0
0
0
0
0
0
0
0
0
0
0
0
0
0
0
0
0
0
0
0
0
0
0
0
0
0
0
0
0
0
0
0
0
0
0
0
0
0
0
0
0
0
0
0
0
0
0
0
0
0
0
0
0
0
0
0
0
0
0
0
0
0
0
0
0
0
0
0
0
0
0
0
0
0
0
0
0
0
0
0
0
0
0
0
0
0
0
0
0
0
0
0
0
0
0
0
0
0
0
0
0
0
0
0
0
0
0
0
0
0
0
0
0
0
0
0
0
0
0
0
0
0
0
0
0
0
0
0
0
0
0
0
0
0
0
0
0
0
0
0
0
0
0
0
0
0
0
0
0
0
0
0
0
0
0
0
0
0
0
0
0
0
0
0
0
0
0
0
0
0
0
0
0
0
0
0
0
0
0
0
0
0
0
0
0
0
0
0
0
0
0
0
0
0
0
0
0
0
0
0
0
0
0
0
0
0
0
0
0
0
0
0
0
0
0
0
0
0
0
0
0
0
0
0
0
0
0
0
0
0
0
0
0
0
0
0
0
0
0
0
0
0
0
0
0
0
0
0
0
0
0
0
0
0
0
0
0
0
0
0
0
0
0
0
0
0
0
0
0
0
0
0
0
0
0
0
0
0
0
0
0
0
0
0
0
0
0
0
0
0
0
0
0
0
0
0
0
0
0
0
0
0
0
0
0
0
0
0
0
0
0
0
SCALARS rr_protein float
LOOKUP_TABLE default
1
1
1
1
1
1
1
1
1
1
1
1
1
1
1
1
1
1
1
1
1
1
1
1
1
1
1
1
1
1
1
1
1
1
1
1
1
1
1
1
1
1
1
1
1
1
1
1
1
1
1
1
1
1
1
1
1
1
1
1
1
1
1
1
1
1
1
1
1
1
1
1
1
1
1
1
1
1
1
1
1
1
1
1
1
1
1
1
1
1
1
1
1
1
1
1
1
1
1
1
1
1
1
1
1
1
1
1
1
1
1
1
1
1
1
1
1
1
1
1
1
1
1
1
1
1
1
1
1
1
1
1
1
1
1
1
1
1
1
1
1
1
1
1
1
1
1
1
1
1
1
1
1
1
1
1
1
1
1
1
1
1
1
1
1
1
1
1
1
1
1
1
1
1
1
1
1
1
1
1
1
1
1
1
1
1
1
1
1
1
1
1
1
1
1
1
1
1
1
1
1
1
1
1
1
1
1
1
1
1
1
1
1
1
1
1
1
1
1
1
1
1
1
1
1
1
1
1
1
1
1
1
1
1
1
1
1
1
1
1
1
1
1
1
1
1
1
1
1
1
1
1
1
1
1
1
1
1
1
1
1
1
1
1
1
1
1
1
1
1
1
1
1
1
1
1
1
1
1
1
1
1
1
1
1
1
1
1
1
1
1
1
1
1
1
1
1
1
1
1
1
1
1
1
1
1
1
1
1
1
1
1
1
1
1
1
1
1
1
1
1
1
1
1
1
1
1
1
1
1
1
1
1
1
1
1
1
1
1
1
1
1
1
1
1
1
1
1
1
1
1
1
1
1
1
1
1
1
1
1
1
1
1
1
1
1
1
1
1
1
1
1
1
1
1
1
1
1
1
1
1
1
1
1
1
1
1
1
1
1
1
1
1
1
1
1
1
1
1
1
1
1
1
1
1
1
1
1
1
1
1
1
1
1
1
1
1
1
1
1
1
1
1
1
1
1
1
1
1
1
1
1
1
1
1
1
1
1
1
1
1
1
1
1
1
1
1
1
1
1
1
1
1
1
1
1
1
1
1
1
1
1
1
1
1
1
1
1
1
1
1
1
1
1
1
1
1
1
1
1
1
1
1
1
1
1
1
1
1
1
1
1
1
1
1
1
1
1
1
1
1
1
1
1
1
1
1
1
1
1
1
1
1
1
1
1
1
1
1
1
1
1
1
1
1
1
1
1
1
1
1
1
1
1
1
1
1
1
1
1
1
1
1
1
1
1
1
1
1
1
1
1
1
1
1
1
1
1
1
1
1
1
1
SCALARS rr_(S_ext) float
LOOKUP_TABLE default
0.988895
0.988823
0.988833
0.988822
0.988822
0.988833
0.988895
0.988831
0.98884
0.988826
0.988863
0.988831
0.988832
0.988827
0.988819
0.988833
0.988822
0.988828
0.988839
0.988833
0.988838
0.988805
0.988833
0.988833
0.988833
0.988826
0.988871
0.988832
0.988854
0.988811
0.988833
0.988853
0.988874
0.988813
0.988816
0.988813
0.988808
0.988817
0.988833
0.988874
0.988854
0.988808
0.988808
0.988832
0.98886
0.988855
0.988839
0.988839
0.988833
0.988855
0.988855
0.988851
0.988818
0.988853
0.988819
0.98887
0.988816
0.988851
0.988816
0.988832
0.988821
0.988823
0.988874
0.988825
0.988823
0.988827
0.988821
0.988827
0.988833
0.988822
0.988818
0.988818
0.988855
0.988827
0.988834
0.988872
0.988823
0.988828
0.988826
0.988846
0.988862
0.98882
0.988821
0.988861
0.988857
0.988865
0.988832
0.988828
0.98886
0.988808
0.988851
0.988808
0.988821
0.988828
0.988852
0.988853
0.988864
0.988826
0.988823
0.988833
0.988846
0.988857
0.98886
0.988825
0.988826
0.988826
0.988822
0.988834
0.988861
0.988818
0.988832
0.98886
0.98886
0.988827
0.988826
0.988853
0.988818
0.988865
0.988818
0.988852
0.988841
0.988818
0.988821
0.988824
0.988819
0.988818
0.988818
0.988826
0.988864
0.988851
0.988816
0.988822
0.988821
0.988821
0.988857
0.988815
0.988868
0.988833
0.988821
0.988815
0.988856
0.988831
0.988842
0.988826
0.988866
0.988825
0.988831
0.988835
0.988833
0.988846
0.988838
0.988821
0.988852
0.988832
0.988826
0.988822
0.988827
0.988857
0.988856
0.988829
0.988839
0.988852
0.988862
0.988853
0.988855
0.988826
0.988856
0.988857
0.988853
0.988855
0.98882
0.988851
0.988854
0.988827
0.988852
0.988822
0.98882
0.988831
0.98882
0.988828
0.988855
0.988826
0.988826
0.988855
0.988828
0.988855
0.988824
0.988824
0.988822
0.988826
0.988827
0.988864
0.988851
0.988853
0.988822
0.988827
0.988826
0.988821
0.988821
0.988828
0.988821
0.988839
0.988847
0.988821
0.988856
0.988821
0.988828
0.988855
0.988823
0.988822
0.988824
0.988829
0.988827
0.988821
0.988845
0.988829
0.988847
0.988824
0.988819
0.988818
0.988817
0.988818
0.988819
0.988819
0.988827
0.988818
0.988818
0.988817
0.988818
0.98882
0.988819
0.988845
0.988826
0.988818
0.98884
0.988819
0.988819
0.988819
0.988846
0.988818
0.988826
0.988846
0.988822
0.988846
0.988822
0.988817
0.988845
0.988846
0.988862
0.988855
0.988822
0.988867
0.988832
0.988847
0.988839
0.988818
0.988818
0.98881
0.988818
0.98887
0.988846
0.988818
0.98883
0.988847
0.988818
0.988842
0.98881
0.988847
0.988819
0.988825
0.988826
0.988819
0.988828
0.98882
0.988831
0.988864
0.988865
0.988822
0.988836
0.988831
0.988848
0.988822
0.988827
0.988846
0.988828
0.988846
0.988831
0.988847
0.988846
0.988808
0.98882
0.988817
0.988817
0.988826
0.988847
0.988814
0.988825
0.988838
0.988846
0.988848
0.988821
0.988846
0.988822
0.988848
0.98886
0.988846
0.988866
0.988823
0.988845
0.988807
0.988848
0.988824
0.988846
0.988825
0.988847
0.988834
0.98888
0.988831
0.988846
0.988819
0.988845
0.988838
0.988828
0.988822
0.988847
0.988847
0.988842
0.988825
0.988846
0.988832
0.988833
0.988821
0.988847
0.988843
0.988838
0.988843
0.988847
0.988842
0.988824
0.98883
0.988843
0.988845
0.98883
0.98883
0.988846
0.988821
0.988866
0.988835
0.988863
0.988838
0.98886
0.98886
0.988859
0.988859
0.988856
0.988865
0.988865
0.988824
0.988816
0.988828
0.988838
0.988839
0.988843
0.988831
0.988842
0.988843
0.988817
0.988842
0.988824
0.988851
0.988817
0.988833
0.988838
0.988843
0.988823
0.988835
0.988838
0.988835
0.988837
0.98884
0.988847
0.988837
0.988836
0.988823
0.988839
0.98884
0.98884
0.988838
0.988835
0.98883
0.988839
0.98883
0.988833
0.988838
0.988831
0.988833
0.988841
0.988824
0.988838
0.988816
0.98886
0.988824
0.988824
0.988835
0.988839
0.988826
0.988867
0.988833
0.988839
0.988879
0.988811
0.988812
0.988833
0.98884
0.988838
0.98884
0.988809
0.988808
0.988828
0.988831
0.988831
0.988872
0.98884
0.988824
0.98884
0.988841
0.988838
0.988864
0.988825
0.98884
0.988835
0.988835
0.98884
0.988838
0.98884
0.98884
0.988873
0.988866
0.988838
0.988835
0.988838
0.98884
0.988838
0.988838
0.988838
0.988862
0.988821
0.988839
0.988827
0.988825
0.988862
0.988833
0.988832
0.988821
0.988804
0.988804
0.988819
0.98884
0.988835
0.988862
0.988805
0.988805
0.988805
0.988865
0.988816
0.98881
0.988835
0.988822
0.988829
0.988825
0.988823
0.988825
0.988832
0.988866
0.988834
0.988829
0.988824
0.988873
0.988812
0.988884
0.988822
0.988829
0.988846
0.988831
0.988832
0.988816
0.988829
0.988816
0.988834
0.988826
0.988812
0.988813
0.988864
0.988824
0.988895
0.988898
0.988893
0.988827
0.988872
0.988891
0.988841
0.988893
0.98882
0.98882
0.988895
0.988834
0.988877
0.988899
0.988874
0.988899
0.988874
0.988816
0.988864
0.988871
0.988893
0.988833
0.988823
0.988875
0.988832
0.988889
0.988829
0.988835
0.988898
0.988874
0.988897
0.988864
0.988834
0.988818
0.988803
0.988803
0.988827
0.988803
0.988803
0.988803
0.988805
0.988864
0.988812
0.98882
0.988818
0.988828
0.988806
0.988806
0.98882
0.988864
0.988835
0.988873
0.988886
0.988878
0.988805
0.988805
0.988806
0.988806
0.988804
0.988806
0.988809
0.988807
0.988807
0.988808
0.988807
0.988808
0.988805
0.988806
0.988808
SCALARS rr_(P_ext) float
LOOKUP_TABLE default
0.0213244
0.021224
0.0212328
0.0212257
0.0211987
0.021233
0.0213247
0.021227
0.0212412
0.0212244
0.0213178
0.021227
0.021229
0.0212231
0.0212079
0.0212314
0.0212194
0.0212281
0.0212457
0.0212353
0.0212367
0.0211641
0.0212366
0.0212352
0.0212355
0.0212264
0.0213038
0.0212317
0.0212731
0.0211844
0.0212294
0.0212729
0.0213053
0.0211904
0.0211875
0.0211905
0.0211833
0.0211888
0.0212295
0.021305
0.0212733
0.0211829
0.021183
0.0212293
0.0212956
0.0212717
0.0212436
0.0212396
0.0212326
0.0212793
0.0212757
0.0212629
0.0212
0.0212626
0.0212008
0.0212926
0.0211872
0.0212626
0.0211873
0.0212348
0.0212198
0.0212115
0.0212974
0.021212
0.0212113
0.0212195
0.0212195
0.0212264
0.021236
0.0212236
0.0212002
0.0212003
0.0212734
0.0212164
0.0212325
0.0213095
0.0212061
0.0212196
0.0212264
0.0212606
0.0212814
0.0211955
0.0212156
0.0212842
0.0212702
0.0212945
0.0212317
0.0212179
0.0212955
0.021169
0.0212628
0.0211691
0.0212055
0.0212206
0.0212619
0.0212766
0.0212812
0.0212245
0.0212062
0.0212299
0.0212515
0.0212678
0.0212844
0.0212272
0.0212254
0.0212252
0.0212144
0.0212308
0.0212846
0.0212224
0.0212347
0.0212924
0.0212879
0.0212277
0.0212257
0.0212623
0.0211874
0.0212817
0.0211876
0.021262
0.0212479
0.021209
0.021224
0.0212177
0.0212217
0.0212071
0.0211908
0.0212246
0.0212812
0.0212619
0.0212002
0.0212246
0.0212161
0.0212243
0.0212677
0.0211872
0.0212868
0.0212284
0.0212155
0.0211873
0.0212665
0.0212241
0.0212464
0.0212243
0.0212821
0.0212261
0.0212256
0.0212326
0.021233
0.0212545
0.0212398
0.021224
0.0212731
0.0212289
0.0212244
0.0212245
0.0212216
0.0212656
0.0212653
0.0212291
0.0212394
0.0212724
0.0212931
0.0212757
0.0212657
0.0212251
0.0212656
0.0212658
0.0212731
0.0212655
0.0212052
0.0212626
0.0212759
0.0212207
0.0212624
0.0212147
0.0212053
0.021227
0.0211997
0.0212251
0.021273
0.0212247
0.0212247
0.0212664
0.0212178
0.0212765
0.0212177
0.0212142
0.0212049
0.0212245
0.0212176
0.0212802
0.0212624
0.0212729
0.0212244
0.0212285
0.0212279
0.0212162
0.0212241
0.0212199
0.0212239
0.0212445
0.0212599
0.0212163
0.0212729
0.0212156
0.0212196
0.0212684
0.0212102
0.0212238
0.0212093
0.0212225
0.0212257
0.0212155
0.0212541
0.0212217
0.0212589
0.0212143
0.0212219
0.021222
0.0212231
0.0212226
0.0212226
0.0212227
0.0212237
0.0212086
0.0212089
0.0212086
0.0212085
0.0212007
0.0212006
0.0212548
0.0212234
0.0212266
0.0212401
0.0212079
0.0212075
0.0212263
0.0212596
0.0212269
0.0212245
0.0212537
0.0212101
0.0212542
0.0212152
0.0212273
0.0212535
0.0212584
0.0212816
0.0212808
0.0212155
0.0212836
0.0212301
0.021259
0.0212451
0.021227
0.0212221
0.0211824
0.0212224
0.0212843
0.0212589
0.0212266
0.021227
0.0212601
0.0212222
0.0212459
0.0211825
0.0212587
0.0212217
0.0212182
0.0212279
0.0212081
0.0212182
0.0212001
0.0212291
0.0212909
0.0212946
0.0212029
0.0212365
0.021227
0.0212541
0.0212099
0.0212208
0.0212588
0.0212205
0.0212511
0.0212252
0.0212511
0.0212594
0.0211747
0.0212043
0.0212076
0.0212078
0.0212237
0.0212504
0.0211915
0.0212186
0.0212391
0.02125
0.0212531
0.0212029
0.0212538
0.0212055
0.0212521
0.0212953
0.0212505
0.0212826
0.021214
0.0212537
0.0211748
0.021252
0.0212163
0.0212549
0.0212173
0.0212523
0.0212317
0.0212991
0.0212337
0.021254
0.0212033
0.0212545
0.021239
0.0212172
0.0212237
0.0212522
0.0212504
0.0212462
0.0212142
0.0212506
0.021227
0.0212316
0.0212003
0.0212504
0.0212467
0.0212376
0.0212456
0.0212515
0.0212454
0.0212112
0.0212273
0.0212463
0.0212542
0.0212244
0.0212243
0.021251
0.0212004
0.0213213
0.021232
0.0212815
0.0212372
0.0213745
0.0213743
0.0213737
0.021374
0.0213736
0.0213747
0.0213743
0.0212137
0.0211942
0.0212288
0.0212395
0.0212451
0.0212457
0.0212251
0.0212463
0.0212468
0.021194
0.0212457
0.0212096
0.0212628
0.0212101
0.0212332
0.0212397
0.0212461
0.0212027
0.021232
0.021239
0.0212319
0.0212389
0.0212465
0.021261
0.0212397
0.0212329
0.0212093
0.0212442
0.0212474
0.0212446
0.0212403
0.0212332
0.021225
0.0212447
0.0212252
0.021234
0.02124
0.0212268
0.0212338
0.0212459
0.0212173
0.0212381
0.0211951
0.0212952
0.0212137
0.0212112
0.0212331
0.0212378
0.0212197
0.0213201
0.0212331
0.0212382
0.0212985
0.0211754
0.0211751
0.0212321
0.0212453
0.021237
0.0212442
0.0211601
0.0211601
0.0212267
0.0212267
0.0212271
0.0213204
0.0212468
0.0212159
0.0212401
0.0212409
0.0212401
0.0213219
0.0212178
0.0212458
0.0212324
0.0212323
0.021241
0.0212391
0.021241
0.0212402
0.0213043
0.0212824
0.0212392
0.0212322
0.021238
0.0212414
0.0212386
0.0212374
0.021238
0.0212952
0.0212078
0.0212447
0.02122
0.0212173
0.0212959
0.0212327
0.0212336
0.0212003
0.021176
0.021176
0.0212043
0.021247
0.0212326
0.0212969
0.021178
0.0211624
0.0211624
0.021323
0.0211888
0.0211844
0.0212336
0.021206
0.0212289
0.0212237
0.021217
0.0212146
0.021227
0.0213203
0.0212312
0.0212208
0.0212161
0.0213101
0.0211876
0.0213003
0.0212165
0.0212235
0.0212527
0.0212295
0.0212274
0.0211994
0.0212261
0.0211995
0.0212322
0.021216
0.021186
0.0211853
0.0212966
0.0212224
0.0213263
0.0213244
0.0213285
0.0212179
0.0213215
0.0213305
0.0212413
0.0213274
0.0211952
0.0211952
0.0213259
0.0212374
0.021304
0.0213268
0.0213059
0.0213272
0.0213059
0.0211882
0.0213002
0.0213211
0.0213261
0.0212278
0.0212124
0.0213075
0.0212276
0.0213299
0.0212244
0.0212368
0.0213279
0.021309
0.0213294
0.021323
0.021234
0.0211935
0.0211641
0.0211654
0.0212227
0.0211644
0.0211644
0.021165
0.0211727
0.0212983
0.0211867
0.0212037
0.0211934
0.0212239
0.0211707
0.0211707
0.0211916
0.0213241
0.0212377
0.0213229
0.0213019
0.0213011
0.0211791
0.0211794
0.0211801
0.0211799
0.0211792
0.0211659
0.0211799
0.0211706
0.0211639
0.0211789
0.0211788
0.0211635
0.0211656
0.0211703
0.0211807
SCALARS rr_(S) float
LOOKUP_TABLE default
0.969792
0.969672
0.969686
0.969672
0.969658
0.969686
0.969792
0.969681
0.969697
0.969675
0.969758
0.969681
0.969683
0.969675
0.96966
0.969685
0.969669
0.969679
0.969698
0.969687
0.969692
0.969626
0.969688
0.969687
0.969687
0.969676
0.969758
0.969684
0.969727
0.969641
0.969684
0.969725
0.969762
0.969646
0.969647
0.969646
0.969638
0.969649
0.969684
0.969761
0.969726
0.969638
0.969638
0.969684
0.969743
0.969726
0.969697
0.969695
0.969685
0.969731
0.969728
0.969718
0.969656
0.969719
0.969657
0.969751
0.969647
0.969718
0.969647
0.969686
0.969668
0.969666
0.969758
0.969668
0.969665
0.969674
0.969668
0.969677
0.969688
0.969671
0.969656
0.969656
0.969727
0.969672
0.969687
0.969762
0.969663
0.969674
0.969676
0.969712
0.969738
0.969656
0.969666
0.969738
0.969727
0.969747
0.969684
0.969674
0.969743
0.969631
0.969719
0.969632
0.969661
0.969675
0.969719
0.969727
0.96974
0.969675
0.969664
0.969684
0.969708
0.969726
0.969738
0.969676
0.969676
0.969675
0.969666
0.969686
0.969739
0.969667
0.969686
0.969742
0.969739
0.969677
0.969676
0.96972
0.96965
0.969742
0.96965
0.969719
0.969701
0.96966
0.96967
0.96967
0.969667
0.969659
0.969651
0.969675
0.96974
0.969718
0.969654
0.969671
0.969666
0.96967
0.969727
0.969646
0.969747
0.969683
0.969666
0.969646
0.969724
0.96968
0.969702
0.969675
0.969742
0.969675
0.96968
0.969688
0.969686
0.969709
0.969694
0.96967
0.969725
0.969683
0.969675
0.969671
0.969675
0.969725
0.969724
0.96968
0.969695
0.969724
0.969744
0.969727
0.969723
0.969675
0.969725
0.969726
0.969726
0.969724
0.96966
0.969718
0.969728
0.969674
0.969719
0.969666
0.96966
0.969681
0.969657
0.969678
0.969727
0.969675
0.969675
0.969724
0.969673
0.969729
0.96967
0.969668
0.969662
0.969675
0.969673
0.969739
0.969718
0.969725
0.969671
0.969678
0.969677
0.969666
0.96967
0.969675
0.96967
0.969698
0.969713
0.969666
0.969728
0.969666
0.969675
0.969725
0.969665
0.96967
0.969666
0.969677
0.969676
0.969666
0.969708
0.969677
0.969712
0.969669
0.969667
0.969667
0.969666
0.969667
0.969667
0.969667
0.969676
0.96966
0.96966
0.969659
0.96966
0.969658
0.969657
0.969709
0.969674
0.969669
0.969696
0.969661
0.96966
0.969669
0.969712
0.969669
0.969675
0.969709
0.969664
0.969709
0.969667
0.969668
0.969708
0.969712
0.969739
0.969731
0.969666
0.969744
0.969684
0.969712
0.969698
0.969669
0.969667
0.969639
0.969667
0.969747
0.969711
0.969668
0.96968
0.969713
0.969666
0.969702
0.969639
0.969712
0.969667
0.969671
0.969677
0.96966
0.969674
0.969657
0.969682
0.969745
0.969748
0.969661
0.969691
0.969681
0.969711
0.969664
0.969674
0.969711
0.969675
0.969707
0.96968
0.969708
0.969711
0.969634
0.969659
0.969658
0.969658
0.969675
0.969708
0.969647
0.969671
0.969694
0.969707
0.969711
0.96966
0.969708
0.969663
0.96971
0.969743
0.969707
0.969743
0.969667
0.969708
0.969633
0.969709
0.969669
0.969709
0.96967
0.969709
0.969686
0.969764
0.969685
0.969709
0.969658
0.969708
0.969693
0.969673
0.969671
0.969709
0.969708
0.969701
0.96967
0.969707
0.969682
0.969685
0.969658
0.969708
0.969702
0.969693
0.969702
0.969708
0.969701
0.969667
0.969681
0.969702
0.969708
0.969679
0.969679
0.969707
0.969659
0.969762
0.969688
0.969739
0.969693
0.969784
0.969784
0.969782
0.969782
0.96978
0.969788
0.969789
0.969668
0.969651
0.96968
0.969694
0.969698
0.969702
0.96968
0.969702
0.969702
0.969652
0.969701
0.969666
0.969718
0.96966
0.969686
0.969694
0.969702
0.969662
0.969688
0.969694
0.969687
0.969693
0.969699
0.969713
0.969694
0.969688
0.969665
0.969697
0.9697
0.969698
0.969694
0.969688
0.969679
0.969698
0.96968
0.969687
0.969694
0.969681
0.969686
0.9697
0.969669
0.969693
0.969652
0.969743
0.969668
0.969667
0.969688
0.969694
0.969673
0.969763
0.969686
0.969694
0.969763
0.969637
0.969638
0.969685
0.969698
0.969693
0.969698
0.969628
0.969627
0.969678
0.969681
0.969681
0.969767
0.969699
0.969669
0.969696
0.969697
0.969695
0.969761
0.969671
0.969699
0.969687
0.969687
0.969696
0.969694
0.969696
0.969696
0.96976
0.969742
0.969693
0.969688
0.969693
0.969697
0.969694
0.969693
0.969693
0.969745
0.969663
0.969697
0.969674
0.969671
0.969746
0.969685
0.969686
0.969659
0.969631
0.969631
0.969658
0.9697
0.969687
0.969746
0.969633
0.969626
0.969625
0.969763
0.969648
0.96964
0.969689
0.969662
0.96968
0.969673
0.969668
0.96967
0.969682
0.969762
0.969686
0.969676
0.969669
0.969763
0.969644
0.969768
0.969667
0.969677
0.969708
0.969683
0.969682
0.969653
0.969679
0.969653
0.969686
0.969671
0.969643
0.969644
0.969748
0.969673
0.969793
0.969795
0.969792
0.969673
0.969768
0.969791
0.969697
0.969791
0.969655
0.969655
0.969793
0.969689
0.969764
0.969797
0.969762
0.969797
0.969762
0.969648
0.96975
0.969767
0.969791
0.969683
0.969666
0.969764
0.969682
0.969789
0.969678
0.969689
0.969797
0.969763
0.969796
0.969762
0.969687
0.969652
0.969624
0.969625
0.969675
0.969624
0.969624
0.969625
0.969631
0.969748
0.969643
0.96966
0.969653
0.969677
0.96963
0.96963
0.969653
0.969761
0.969691
0.96977
0.969771
0.969764
0.969633
0.969633
0.969634
0.969634
0.969633
0.969628
0.969638
0.969631
0.969628
0.969636
0.969635
0.969628
0.969627
0.96963
0.969637
SCALARS rr_(P) float
LOOKUP_TABLE default
0.0243454
0.0242856
0.024291
0.0242866
0.0242704
0.0242911
0.0243456
0.0242875
0.024296
0.0242859
0.0243412
0.0242875
0.0242887
0.0242851
0.0242758
0.0242901
0.0242828
0.0242881
0.0242986
0.0242925
0.0242933
0.0242492
0.0242932
0.0242923
0.0242926
0.0242871
0.0243331
0.0242903
0.0243149
0.0242615
0.024289
0.0243147
0.0243339
0.0242652
0.0242635
0.0242653
0.0242608
0.0242643
0.024289
0.0243338
0.024315
0.0242606
0.0242606
0.0242889
0.0243281
0.0243141
0.0242974
0.0242951
0.0242908
0.0243185
0.0243164
0.0243089
0.0242711
0.0243088
0.0242716
0.0243265
0.0242634
0.0243087
0.0242634
0.0242921
0.024283
0.0242781
0.0243293
0.0242785
0.024278
0.0242829
0.0242828
0.0242871
0.0242928
0.0242853
0.0242712
0.0242713
0.0243151
0.0242811
0.0242908
0.0243364
0.0242749
0.024283
0.0242871
0.0243075
0.0243198
0.0242685
0.0242805
0.0243215
0.0243132
0.0243276
0.0242903
0.024282
0.0243281
0.0242521
0.0243088
0.0242522
0.0242745
0.0242836
0.0243083
0.0243169
0.0243198
0.024286
0.024275
0.0242893
0.0243021
0.0243118
0.0243216
0.0242875
0.0242865
0.0242864
0.0242798
0.0242898
0.0243217
0.0242846
0.0242921
0.0243262
0.0243236
0.0242879
0.0242866
0.0243086
0.0242635
0.02432
0.0242636
0.0243084
0.0243
0.0242765
0.0242856
0.0242818
0.0242841
0.0242753
0.0242655
0.024286
0.0243198
0.0243083
0.0242711
0.024286
0.0242808
0.0242857
0.0243118
0.0242633
0.0243231
0.0242883
0.0242804
0.0242634
0.0243111
0.0242857
0.0242991
0.0242858
0.0243203
0.0242869
0.0242866
0.0242909
0.0242911
0.0243039
0.0242951
0.0242856
0.0243149
0.0242887
0.0242859
0.0242859
0.0242842
0.0243105
0.0243103
0.0242887
0.024295
0.0243144
0.0243267
0.0243164
0.0243105
0.0242863
0.0243106
0.0243107
0.0243149
0.0243104
0.0242743
0.0243087
0.0243165
0.0242837
0.0243086
0.02428
0.0242743
0.0242875
0.024271
0.0242863
0.0243148
0.0242861
0.0242861
0.024311
0.0242819
0.0243169
0.0242819
0.0242798
0.0242741
0.024286
0.0242818
0.0243191
0.0243086
0.0243148
0.0242858
0.0242883
0.024288
0.0242809
0.0242856
0.0242832
0.0242855
0.0242979
0.0243071
0.0242809
0.0243148
0.0242805
0.024283
0.0243121
0.0242773
0.0242854
0.0242768
0.0242848
0.0242867
0.0242804
0.0243037
0.0242843
0.0243065
0.0242798
0.0242843
0.0242843
0.0242849
0.0242847
0.0242847
0.0242847
0.0242854
0.0242763
0.0242764
0.0242762
0.0242762
0.0242715
0.0242714
0.0243041
0.0242852
0.024287
0.0242954
0.0242758
0.0242756
0.0242869
0.0243069
0.0242873
0.0242859
0.0243034
0.0242772
0.0243037
0.0242803
0.0242875
0.0243033
0.0243062
0.02432
0.0243194
0.0242805
0.0243212
0.0242894
0.0243065
0.0242983
0.0242873
0.0242844
0.0242603
0.0242846
0.0243216
0.0243065
0.0242871
0.0242875
0.0243072
0.0242844
0.0242988
0.0242604
0.0243064
0.0242841
0.0242822
0.024288
0.024276
0.0242821
0.0242712
0.0242888
0.0243254
0.0243276
0.0242729
0.0242932
0.0242875
0.0243037
0.0242771
0.0242837
0.0243064
0.0242835
0.0243019
0.0242864
0.0243019
0.0243068
0.0242556
0.0242737
0.0242756
0.0242758
0.0242855
0.0243015
0.0242659
0.0242824
0.0242947
0.0243013
0.0243031
0.0242729
0.0243035
0.0242744
0.0243025
0.024328
0.0243016
0.0243206
0.0242796
0.0243034
0.0242557
0.0243025
0.024281
0.0243041
0.0242816
0.0243026
0.0242903
0.0243304
0.0242915
0.0243036
0.0242731
0.0243039
0.0242947
0.0242816
0.0242854
0.0243026
0.0243015
0.024299
0.0242797
0.0243016
0.0242875
0.0242903
0.0242713
0.0243015
0.0242993
0.0242938
0.0242987
0.0243022
0.0242985
0.0242779
0.0242876
0.024299
0.0243037
0.024286
0.0242858
0.0243018
0.0242714
0.0243433
0.0242905
0.0243199
0.0242936
0.0243744
0.0243744
0.024374
0.0243741
0.0243739
0.0243746
0.0243744
0.0242794
0.0242675
0.0242885
0.024295
0.0242983
0.0242987
0.0242863
0.024299
0.0242993
0.0242674
0.0242987
0.0242769
0.0243088
0.0242772
0.0242912
0.0242951
0.0242989
0.0242727
0.0242905
0.0242947
0.0242904
0.0242946
0.0242991
0.0243077
0.0242951
0.024291
0.0242768
0.0242978
0.0242997
0.024298
0.0242955
0.0242912
0.0242863
0.0242981
0.0242864
0.0242917
0.0242953
0.0242874
0.0242915
0.0242988
0.0242816
0.0242941
0.0242681
0.0243279
0.0242795
0.0242779
0.0242911
0.024294
0.0242831
0.0243426
0.0242911
0.0242942
0.02433
0.0242561
0.0242559
0.0242905
0.0242984
0.0242935
0.0242978
0.0242468
0.0242468
0.0242873
0.0242873
0.0242875
0.0243428
0.0242993
0.0242808
0.0242954
0.0242959
0.0242954
0.0243436
0.0242819
0.0242987
0.0242907
0.0242907
0.0242959
0.0242948
0.0242959
0.0242954
0.0243334
0.0243204
0.0242948
0.0242906
0.0242941
0.0242962
0.0242945
0.0242937
0.0242941
0.0243279
0.0242758
0.0242981
0.0242833
0.0242816
0.0243283
0.0242909
0.0242914
0.0242713
0.0242563
0.0242564
0.0242737
0.0242994
0.0242908
0.0243289
0.0242575
0.0242482
0.0242482
0.0243443
0.0242643
0.0242615
0.0242914
0.0242747
0.0242886
0.0242855
0.0242814
0.02428
0.0242875
0.0243427
0.02429
0.0242837
0.0242809
0.0243368
0.0242635
0.0243311
0.0242811
0.0242853
0.0243028
0.024289
0.0242877
0.0242707
0.0242869
0.0242707
0.0242906
0.0242808
0.0242625
0.0242621
0.0243288
0.0242847
0.0243465
0.0243454
0.0243478
0.024282
0.0243434
0.0243489
0.0242961
0.0243471
0.0242682
0.0242683
0.0243462
0.0242937
0.0243333
0.0243469
0.0243343
0.0243471
0.0243343
0.0242639
0.0243309
0.0243432
0.0243463
0.024288
0.0242786
0.0243353
0.0242878
0.0243485
0.0242859
0.0242933
0.0243475
0.0243361
0.0243483
0.0243443
0.0242917
0.0242672
0.0242492
0.0242499
0.0242849
0.0242493
0.0242494
0.0242497
0.0242544
0.0243298
0.0242629
0.0242733
0.0242671
0.0242856
0.0242531
0.0242532
0.0242661
0.0243449
0.0242939
0.0243443
0.0243321
0.0243316
0.0242583
0.0242584
0.0242589
0.0242587
0.0242583
0.0242502
0.0242588
0.0242531
0.024249
0.0242581
0.0242581
0.0242488
0.0242501
0.0242529
0.0242592
SCALARS rr_(T) float
LOOKUP_TABLE default
0.175892
0.175917
0.175915
0.175917
0.175928
0.175915
0.175891
0.175917
0.175913
0.175917
0.175891
0.175917
0.175916
0.175918
0.175924
0.175915
0.175919
0.175916
0.175911
0.175914
0.175914
0.175943
0.175914
0.175914
0.175914
0.175917
0.175896
0.175916
0.175904
0.175934
0.175916
0.175904
0.175896
0.175932
0.175933
0.175931
0.175934
0.175932
0.175916
0.175896
0.175904
0.175934
0.175934
0.175916
0.175897
0.175904
0.175912
0.175913
0.175915
0.175902
0.175903
0.175907
0.175927
0.175907
0.175927
0.175899
0.175933
0.175907
0.175933
0.175914
0.175919
0.175923
0.175898
0.175922
0.175923
0.17592
0.175919
0.175917
0.175914
0.175918
0.175927
0.175927
0.175904
0.175921
0.175915
0.175894
0.175925
0.17592
0.175917
0.175907
0.175902
0.175929
0.175921
0.175901
0.175905
0.175898
0.175916
0.175921
0.175898
0.175941
0.175907
0.175941
0.175925
0.17592
0.175907
0.175903
0.175902
0.175917
0.175925
0.175916
0.17591
0.175906
0.175901
0.175916
0.175917
0.175917
0.175922
0.175916
0.175901
0.175918
0.175914
0.175898
0.1759
0.175916
0.175917
0.175907
0.175933
0.175902
0.175933
0.175907
0.175911
0.175923
0.175917
0.17592
0.175918
0.175924
0.175931
0.175917
0.175902
0.175907
0.175927
0.175917
0.175921
0.175917
0.175906
0.175933
0.175901
0.175917
0.175921
0.175933
0.175906
0.175918
0.175911
0.175918
0.175902
0.175917
0.175918
0.175916
0.175915
0.175909
0.175913
0.175917
0.175904
0.175916
0.175918
0.175917
0.175919
0.175906
0.175906
0.175916
0.175913
0.175904
0.175898
0.175903
0.175906
0.175917
0.175906
0.175906
0.175904
0.175906
0.175925
0.175907
0.175903
0.175919
0.175907
0.175921
0.175925
0.175917
0.175928
0.175918
0.175904
0.175917
0.175917
0.175906
0.175921
0.175903
0.17592
0.175922
0.175926
0.175917
0.175921
0.175902
0.175907
0.175904
0.175917
0.175916
0.175916
0.175921
0.175917
0.17592
0.175917
0.175912
0.175907
0.175921
0.175904
0.175921
0.17592
0.175905
0.175923
0.175917
0.175924
0.175919
0.175917
0.175921
0.175909
0.175919
0.175908
0.175922
0.175918
0.175918
0.175917
0.175918
0.175918
0.175918
0.175918
0.175924
0.175923
0.175924
0.175924
0.175927
0.175927
0.175909
0.175918
0.175916
0.175913
0.175924
0.175924
0.175916
0.175907
0.175916
0.175917
0.175909
0.175923
0.175909
0.175921
0.175916
0.175909
0.175908
0.175902
0.175902
0.175921
0.175902
0.175916
0.175908
0.175912
0.175916
0.175918
0.175935
0.175918
0.175902
0.175908
0.175916
0.175917
0.175907
0.175918
0.175912
0.175935
0.175908
0.175918
0.17592
0.175916
0.175924
0.175921
0.175927
0.175916
0.175899
0.175898
0.175927
0.175914
0.175917
0.175909
0.175924
0.175919
0.175908
0.17592
0.17591
0.175918
0.17591
0.175907
0.175938
0.175926
0.175924
0.175924
0.175918
0.17591
0.175931
0.17592
0.175913
0.17591
0.175909
0.175926
0.175909
0.175925
0.17591
0.175898
0.17591
0.175902
0.175922
0.175909
0.175938
0.17591
0.175921
0.175909
0.17592
0.17591
0.175915
0.175898
0.175915
0.175909
0.175926
0.175909
0.175914
0.175921
0.175917
0.17591
0.17591
0.175911
0.175922
0.17591
0.175917
0.175916
0.175927
0.17591
0.175911
0.175914
0.175912
0.17591
0.175912
0.175923
0.175917
0.175911
0.175909
0.175918
0.175918
0.17591
0.175927
0.17589
0.175916
0.175902
0.175914
0.175874
0.175874
0.175874
0.175874
0.175874
0.175874
0.175874
0.175922
0.17593
0.175916
0.175913
0.175911
0.175912
0.175918
0.175911
0.175911
0.17593
0.175912
0.175924
0.175907
0.175923
0.175915
0.175913
0.175911
0.175927
0.175916
0.175913
0.175916
0.175913
0.175911
0.175907
0.175913
0.175915
0.175924
0.175912
0.175911
0.175912
0.175913
0.175915
0.175918
0.175912
0.175918
0.175915
0.175913
0.175917
0.175915
0.175911
0.17592
0.175914
0.17593
0.175898
0.175922
0.175923
0.175915
0.175914
0.17592
0.175891
0.175915
0.175914
0.175898
0.175938
0.175938
0.175916
0.175911
0.175914
0.175912
0.175945
0.175945
0.175917
0.175917
0.175917
0.175891
0.175911
0.175921
0.175913
0.175913
0.175913
0.17589
0.17592
0.175911
0.175916
0.175916
0.175913
0.175913
0.175913
0.175913
0.175896
0.175902
0.175913
0.175916
0.175914
0.175913
0.175914
0.175914
0.175914
0.175898
0.175924
0.175912
0.17592
0.175921
0.175898
0.175915
0.175915
0.175927
0.175938
0.175937
0.175926
0.175911
0.175916
0.175897
0.175937
0.175944
0.175944
0.17589
0.175932
0.175934
0.175915
0.175925
0.175916
0.175918
0.17592
0.175922
0.175917
0.17589
0.175916
0.175919
0.175921
0.175894
0.175933
0.175898
0.17592
0.175918
0.17591
0.175916
0.175917
0.175928
0.175917
0.175928
0.175915
0.175921
0.175934
0.175934
0.175897
0.175918
0.175891
0.175892
0.17589
0.17592
0.175891
0.175889
0.175913
0.175891
0.175929
0.175929
0.175891
0.175914
0.175896
0.175891
0.175895
0.175891
0.175895
0.175932
0.175896
0.175891
0.175891
0.175917
0.175922
0.175895
0.175917
0.17589
0.175918
0.175914
0.175891
0.175894
0.17589
0.17589
0.175915
0.17593
0.175943
0.175942
0.175919
0.175943
0.175943
0.175942
0.175939
0.175897
0.175933
0.175926
0.17593
0.175918
0.17594
0.17594
0.175931
0.175889
0.175914
0.17589
0.175898
0.175897
0.175936
0.175936
0.175936
0.175936
0.175936
0.175942
0.175936
0.17594
0.175943
0.175936
0.175936
0.175943
0.175942
0.17594
0.175936
SCALARS rr_tsim float
LOOKUP_TABLE default
370
370
370
370
370
370
370
370
370
370
370
370
370
370
370
370
370
370
370
370
370
370
370
370
370
370
370
370
370
370
370
370
370
370
370
370
370
370
370
370
370
370
370
370
370
370
370
370
370
370
370
370
370
370
370
370
370
370
370
370
370
370
370
370
370
370
370
370
370
370
370
370
370
370
370
370
370
370
370
370
370
370
370
370
370
370
370
370
370
370
370
370
370
370
370
370
370
370
370
370
370
370
370
370
370
370
370
370
370
370
370
370
370
370
370
370
370
370
370
370
370
370
370
370
370
370
370
370
370
370
370
370
370
370
370
370
370
370
370
370
370
370
370
370
370
370
370
370
370
370
370
370
370
370
370
370
370
370
370
370
370
370
370
370
370
370
370
370
370
370
370
370
370
370
370
370
370
370
370
370
370
370
370
370
370
370
370
370
370
370
370
370
370
370
370
370
370
370
370
370
370
370
370
370
370
370
370
370
370
370
370
370
370
370
370
370
370
370
370
370
370
370
370
370
370
370
370
370
370
370
370
370
370
370
370
370
370
370
370
370
370
370
370
370
370
370
370
370
370
370
370
370
370
370
370
370
370
370
370
370
370
370
370
370
370
370
370
370
370
370
370
370
370
370
370
370
370
370
370
370
370
370
370
370
370
370
370
370
370
370
370
370
370
370
370
370
370
370
370
370
370
370
370
370
370
370
370
370
370
370
370
370
370
370
370
370
370
370
370
370
370
370
370
370
370
370
370
370
370
370
370
370
370
370
370
370
370
370
370
370
370
370
370
370
370
370
370
370
370
370
370
370
370
370
370
370
370
370
370
370
370
370
370
370
370
370
370
370
370
370
370
370
370
370
370
370
370
370
370
370
370
370
370
370
370
370
370
370
370
370
370
370
370
370
370
370
370
370
370
370
370
370
370
370
370
370
370
370
370
370
370
370
370
370
370
370
370
370
370
370
370
370
370
370
370
370
370
370
370
370
370
370
370
370
370
370
370
370
370
370
370
370
370
370
370
370
370
370
370
370
370
370
370
370
370
370
370
370
370
370
370
370
370
370
370
370
370
370
370
370
370
370
370
370
370
370
370
370
370
370
370
370
370
370
370
370
370
370
370
370
370
370
370
370
370
370
370
370
370
370
370
370
370
370
370
370
370
370
370
370
370
370
370
370
370
370
370
370
370
370
370
370
370
370
370
370
370
370
370
370
370
370
370
370
370
370
370
370
370
370
370
370
370
370
370
370
370
370
370
370
370
370
370
370
370
370
370
370
370
370
370
370
370
SCALARS rr_Vext float
LOOKUP_TABLE default
0.181359
0.449122
0.356048
0.468108
0.250492
0.377827
0.179274
0.465088
0.395106
0.504565
0.165389
0.466508
0.409825
0.435012
0.516134
0.424864
0.369043
0.414183
0.365531
0.360526
0.405108
0.0765106
0.415069
0.383014
0.347105
0.403471
0.15501
0.352834
0.267413
0.339246
0.361969
0.276485
0.17152
0.252901
0.249247
0.253452
0.330126
0.24949
0.361539
0.192836
0.224721
0.29105
0.291059
0.397271
0.216885
0.244119
0.344612
0.350183
0.330079
0.30376
0.312853
0.245236
0.401517
0.315206
0.369414
0.157753
0.266178
0.317516
0.26615
0.393184
0.470928
0.464871
0.153275
0.327641
0.445313
0.417373
0.455654
0.391904
0.357985
0.515555
0.435554
0.43079
0.277654
0.338744
0.353971
0.176426
0.372675
0.413476
0.395169
0.271132
0.24049
0.283506
0.527531
0.24025
0.32776
0.119291
0.407579
0.344608
0.229706
0.0374828
0.273092
0.0407607
0.316357
0.299312
0.258658
0.232983
0.220908
0.442929
0.37291
0.351855
0.293535
0.277769
0.230478
0.418575
0.426137
0.383831
0.340626
0.340847
0.244628
0.512517
0.326025
0.164038
0.220056
0.457877
0.429717
0.304481
0.30863
0.183508
0.320034
0.303365
0.266985
0.502648
0.511809
0.442039
0.484524
0.384951
0.220815
0.478209
0.200078
0.262278
0.227503
0.456394
0.449022
0.448248
0.288936
0.187537
0.190638
0.327439
0.404467
0.187459
0.241541
0.387289
0.287969
0.472756
0.223275
0.385188
0.34973
0.336127
0.214789
0.269545
0.304298
0.440625
0.248026
0.39741
0.461988
0.469241
0.307855
0.249007
0.247656
0.401135
0.333852
0.246117
0.160076
0.239704
0.240466
0.430954
0.252348
0.2551
0.274619
0.245938
0.386343
0.258183
0.226058
0.297713
0.272811
0.340305
0.382117
0.361132
0.313976
0.360844
0.266566
0.418245
0.448851
0.241614
0.442299
0.239439
0.436794
0.402736
0.378965
0.379413
0.446226
0.200774
0.266927
0.246016
0.447408
0.439019
0.407198
0.447893
0.45295
0.381864
0.466568
0.307715
0.274109
0.51273
0.285547
0.465952
0.36996
0.226654
0.286341
0.461723
0.389033
0.350307
0.450054
0.445254
0.278858
0.28422
0.267542
0.395452
0.433418
0.49809
0.478087
0.520369
0.471556
0.515285
0.432054
0.4572
0.460649
0.434353
0.456356
0.422917
0.416634
0.28241
0.389409
0.454293
0.312119
0.470271
0.432155
0.492658
0.288245
0.468275
0.448676
0.284499
0.406912
0.282468
0.455237
0.411288
0.296254
0.277677
0.235552
0.271096
0.455772
0.1975
0.347019
0.276527
0.313902
0.46867
0.455547
0.147788
0.457103
0.23643
0.261764
0.466268
0.379026
0.264584
0.52218
0.29123
0.147779
0.267723
0.406397
0.50892
0.382688
0.457753
0.425154
0.226614
0.21673
0.175978
0.201428
0.308133
0.229075
0.37198
0.227524
0.406391
0.287621
0.268101
0.323952
0.293521
0.39852
0.281486
0.287595
0.13637
0.30357
0.437809
0.438056
0.391523
0.281115
0.192358
0.545876
0.360487
0.298316
0.27429
0.284975
0.282728
0.358842
0.27809
0.192059
0.274791
0.183495
0.351066
0.279575
0.127091
0.263721
0.321336
0.279314
0.443668
0.290709
0.381466
0.138314
0.305661
0.287013
0.261623
0.269317
0.32199
0.308721
0.321045
0.266563
0.271163
0.293858
0.4036
0.276094
0.399021
0.358786
0.290796
0.286473
0.290122
0.323371
0.289911
0.270116
0.308528
0.333028
0.387865
0.290168
0.286352
0.425141
0.419247
0.276211
0.290834
0.117368
0.342062
0.227677
0.319679
0.126304
0.131123
0.117233
0.119129
0.126411
0.133076
0.137186
0.365817
0.275202
0.269662
0.305533
0.296206
0.292406
0.314708
0.285992
0.292386
0.310822
0.291313
0.368786
0.261062
0.378831
0.289102
0.277577
0.291595
0.322764
0.328992
0.304694
0.351047
0.326029
0.300388
0.213974
0.303858
0.298861
0.328279
0.305307
0.288517
0.275034
0.304062
0.31909
0.436159
0.283305
0.423999
0.438657
0.298863
0.422861
0.322473
0.255676
0.356792
0.307316
0.229504
0.18527
0.353347
0.377137
0.313431
0.259541
0.317011
0.138204
0.309862
0.289511
0.140568
0.0597484
0.0653752
0.26865
0.283293
0.331355
0.316585
0.0311308
0.0325286
0.318178
0.32154
0.30424
0.103723
0.264725
0.315901
0.31564
0.272074
0.24028
0.107863
0.464464
0.284944
0.352158
0.35767
0.255161
0.323443
0.249474
0.275478
0.129739
0.19938
0.323803
0.327748
0.280323
0.293561
0.303656
0.320503
0.306407
0.14396
0.275777
0.301351
0.290882
0.437485
0.143857
0.23373
0.24057
0.234521
0.155624
0.155628
0.267697
0.208506
0.301871
0.153855
0.185525
0.0614166
0.0614141
0.112309
0.199632
0.134971
0.256999
0.284536
0.297804
0.336998
0.307415
0.28523
0.222214
0.127171
0.278048
0.290578
0.282436
0.144129
0.147644
0.104628
0.281945
0.285969
0.224179
0.258248
0.238711
0.223789
0.292909
0.223756
0.257202
0.251385
0.158046
0.19524
0.165307
0.310643
0.112706
0.118918
0.115939
0.294531
0.10769
0.104732
0.200915
0.0979318
0.243153
0.243508
0.100659
0.255443
0.113722
0.110988
0.127154
0.105858
0.105723
0.174204
0.12624
0.112774
0.106277
0.235808
0.272657
0.118743
0.260314
0.0960764
0.264786
0.20817
0.100551
0.0864347
0.0948693
0.12646
0.22555
0.192178
0.0824423
0.091407
0.253855
0.0775857
0.0775825
0.0878715
0.0979618
0.0995846
0.127333
0.207531
0.193793
0.253766
0.0775241
0.0775208
0.229251
0.0843463
0.178712
0.0765187
0.0783411
0.103271
0.198595
0.205595
0.218906
0.200659
0.198579
0.0438923
0.32038
0.0557536
0.0543417
0.259007
0.257237
0.0563344
0.0390571
0.0548043
0.238559
SCALARS rr_Vli float
LOOKUP_TABLE default
0.396486
0.903296
0.721402
0.942901
0.493002
0.765663
0.392034
0.937668
0.806265
1.01511
0.359835
0.940541
0.8277
0.874152
1.02412
0.859727
0.739393
0.835913
0.748795
0.732052
0.823479
0.146196
0.843736
0.777624
0.704886
0.813138
0.333348
0.714255
0.560607
0.6598
0.731223
0.579527
0.369271
0.494392
0.485904
0.495506
0.641456
0.486895
0.73048
0.415064
0.471209
0.565329
0.565389
0.802512
0.463322
0.511146
0.70466
0.71357
0.66868
0.640141
0.657313
0.509708
0.79128
0.654953
0.728498
0.336093
0.518807
0.659755
0.51879
0.798044
0.943862
0.925028
0.327839
0.652216
0.886008
0.836194
0.912998
0.789772
0.727288
1.0367
0.858505
0.849151
0.582209
0.67685
0.716967
0.381182
0.738158
0.828437
0.79642
0.562479
0.507622
0.556447
1.0535
0.508331
0.685383
0.254579
0.825073
0.689485
0.49066
0.0719434
0.567527
0.0782461
0.626349
0.600258
0.537107
0.489901
0.466216
0.891212
0.738706
0.711147
0.604216
0.579672
0.487749
0.844108
0.858079
0.772712
0.679545
0.689378
0.517758
1.02965
0.661676
0.349478
0.467058
0.923819
0.865434
0.63249
0.601612
0.38741
0.624001
0.62999
0.547958
0.99831
1.02947
0.884276
0.972854
0.763251
0.431749
0.962234
0.422252
0.544645
0.448452
0.918478
0.897108
0.901821
0.602898
0.365537
0.404181
0.66093
0.80773
0.365414
0.503537
0.778932
0.59024
0.951058
0.47153
0.776063
0.704321
0.680953
0.435246
0.556267
0.620245
0.886305
0.519981
0.802495
0.92944
0.94426
0.617852
0.518656
0.515712
0.810195
0.680205
0.515658
0.341238
0.503637
0.500927
0.867512
0.525644
0.531442
0.575695
0.512235
0.764766
0.536472
0.475014
0.597024
0.566757
0.679099
0.75645
0.728157
0.61851
0.726371
0.558759
0.841634
0.903302
0.503621
0.884781
0.503407
0.873805
0.803282
0.749914
0.763387
0.89254
0.423343
0.554569
0.51569
0.900208
0.886298
0.82171
0.894902
0.911194
0.765269
0.938414
0.629673
0.568291
1.02453
0.59847
0.93055
0.741276
0.47324
0.569197
0.928572
0.772726
0.703604
0.906434
0.889136
0.575328
0.57047
0.554199
0.788781
0.870375
1.00028
0.961014
1.04558
0.94745
1.03539
0.86871
0.907696
0.914768
0.862343
0.90593
0.833929
0.821515
0.583003
0.782793
0.915905
0.636237
0.93312
0.857208
0.993022
0.597475
0.944367
0.902753
0.586735
0.8088
0.582773
0.908854
0.829724
0.610879
0.57498
0.497305
0.572061
0.9101
0.417613
0.70148
0.572845
0.642711
0.945255
0.914965
0.286927
0.918292
0.500196
0.542258
0.940099
0.764199
0.548648
1.04887
0.596675
0.286927
0.554499
0.815976
1.01856
0.772232
0.908465
0.850822
0.4466
0.437752
0.374434
0.429883
0.608683
0.465559
0.749991
0.469384
0.807668
0.576816
0.555339
0.649546
0.603994
0.802276
0.579178
0.596019
0.263019
0.600442
0.868509
0.869128
0.787207
0.578062
0.376387
1.09285
0.734299
0.613257
0.565366
0.562957
0.583123
0.710459
0.572676
0.410196
0.565166
0.387691
0.700125
0.576598
0.245149
0.543076
0.642113
0.576619
0.887239
0.598797
0.772172
0.296222
0.619802
0.592061
0.51704
0.555816
0.655878
0.617313
0.645548
0.549009
0.557646
0.602196
0.804985
0.56787
0.804505
0.726241
0.573154
0.589127
0.594775
0.657842
0.593794
0.555993
0.631806
0.662546
0.782179
0.59465
0.590809
0.855286
0.843306
0.568299
0.573277
0.256088
0.6926
0.480627
0.650102
0.287606
0.29855
0.266803
0.271172
0.287682
0.303056
0.312311
0.729342
0.539723
0.544564
0.622603
0.606499
0.598932
0.633518
0.58613
0.599483
0.609469
0.596711
0.732657
0.542545
0.753106
0.586003
0.565698
0.597464
0.637466
0.666112
0.620591
0.710715
0.663996
0.615741
0.444039
0.619296
0.605571
0.652003
0.624635
0.591867
0.562871
0.620017
0.64672
0.877916
0.579856
0.853547
0.889737
0.609276
0.852427
0.653928
0.523839
0.713542
0.625424
0.450401
0.395665
0.704467
0.750312
0.6352
0.528048
0.635251
0.301236
0.62802
0.589264
0.300912
0.115298
0.126126
0.544003
0.580096
0.673735
0.647661
0.0592774
0.0619388
0.641395
0.648086
0.613481
0.226113
0.542803
0.631011
0.643416
0.555013
0.489877
0.235469
0.929282
0.583732
0.713231
0.724382
0.520582
0.658847
0.508989
0.561646
0.279101
0.421176
0.659631
0.663707
0.570432
0.599123
0.618255
0.651892
0.623522
0.307427
0.547096
0.616831
0.583014
0.8749
0.307367
0.473533
0.487753
0.46224
0.300515
0.300535
0.529553
0.427592
0.611535
0.329005
0.358876
0.117176
0.117176
0.245398
0.389619
0.262494
0.52105
0.563539
0.60141
0.677645
0.614656
0.569069
0.448035
0.27725
0.562545
0.582799
0.564246
0.311556
0.287924
0.224284
0.563451
0.574849
0.461941
0.521746
0.481453
0.440836
0.590093
0.440798
0.520821
0.502146
0.307811
0.380027
0.353393
0.623981
0.246785
0.259979
0.254334
0.589282
0.234981
0.230138
0.410009
0.214644
0.47712
0.477842
0.220334
0.51961
0.244574
0.243122
0.273901
0.231958
0.227739
0.339829
0.270697
0.245996
0.232677
0.475748
0.543001
0.256116
0.525107
0.211011
0.532688
0.423218
0.220454
0.186663
0.208255
0.276319
0.457466
0.376607
0.157552
0.174883
0.509985
0.148307
0.148306
0.168048
0.188628
0.213205
0.248113
0.410273
0.379761
0.51034
0.149004
0.149003
0.448511
0.184461
0.363609
0.167149
0.16815
0.221553
0.384549
0.398195
0.424214
0.388778
0.384539
0.0840102
0.620731
0.107163
0.103829
0.501444
0.497965
0.107596
0.0747329
0.105301
0.462542
SCALARS rr_S_ext' float
LOOKUP_TABLE default
-0.000256716
-0.000586371
-0.000468195
-0.000612053
-0.000320235
-0.000496918
-0.00025383
-0.000608644
-0.000523161
-0.000658953
-0.000233017
-0.000610508
-0.000537235
-0.000567469
-0.000665069
-0.00055799
-0.000480029
-0.000542576
-0.000485813
-0.000475076
-0.000534392
-9.50427e-05
-0.000547536
-0.000504653
-0.000457445
-0.000527815
-0.000215948
-0.000463569
-0.000363461
-0.000428725
-0.000474612
-0.000375729
-0.000239211
-0.000321199
-0.00031571
-0.000321922
-0.000416816
-0.000316345
-0.000474127
-0.000268877
-0.000305499
-0.000367353
-0.000367391
-0.000520883
-0.000300209
-0.000331406
-0.000457204
-0.000463034
-0.00043398
-0.000414957
-0.000426129
-0.000330549
-0.000513964
-0.000424745
-0.000473176
-0.000217791
-0.000337091
-0.000427859
-0.000337079
-0.000517909
-0.000612768
-0.00060067
-0.000212416
-0.000423514
-0.000575334
-0.000542877
-0.000592735
-0.000512649
-0.000471976
-0.000672976
-0.000557627
-0.00055155
-0.000377463
-0.000439462
-0.000465322
-0.000246898
-0.00047939
-0.00053784
-0.000516962
-0.000364792
-0.000329039
-0.000361476
-0.000684022
-0.000329474
-0.000444393
-0.00016496
-0.000535493
-0.000447648
-0.000317924
-4.67649e-05
-0.000368047
-5.08616e-05
-0.000406781
-0.00038969
-0.000348328
-0.000317589
-0.000302202
-0.000578521
-0.000479745
-0.000461574
-0.000391954
-0.000375875
-0.000316131
-0.000547907
-0.000557001
-0.00050159
-0.000441231
-0.000447435
-0.00033558
-0.000668411
-0.000429411
-0.000226463
-0.000302693
-0.000599639
-0.000561772
-0.000410182
-0.000390892
-0.000251118
-0.000405436
-0.000408564
-0.000355491
-0.000648289
-0.000668276
-0.000574117
-0.000631555
-0.00049567
-0.000280501
-0.000624624
-0.000273704
-0.000353216
-0.000291283
-0.000596216
-0.000582469
-0.000585408
-0.000390937
-0.000237504
-0.000261953
-0.000428997
-0.000524445
-0.000237424
-0.000326518
-0.000505644
-0.000382937
-0.000617373
-0.00030564
-0.000503753
-0.000457192
-0.000441945
-0.000282476
-0.000360821
-0.000402472
-0.000575339
-0.00033712
-0.000520878
-0.000603339
-0.000612953
-0.000401103
-0.000336331
-0.000334424
-0.000525871
-0.000441385
-0.000334325
-0.00022112
-0.000326502
-0.000324833
-0.000563129
-0.000340861
-0.00034462
-0.000373243
-0.000332167
-0.000496679
-0.000347909
-0.000307945
-0.000387591
-0.000367552
-0.000440937
-0.000491277
-0.000472647
-0.00040175
-0.000471511
-0.000362264
-0.000546336
-0.000586366
-0.000326573
-0.000574447
-0.000326347
-0.000567319
-0.000521578
-0.000487038
-0.000495546
-0.000579486
-0.000274419
-0.000359646
-0.00033434
-0.000584359
-0.000575275
-0.000533358
-0.000581036
-0.000591494
-0.000496827
-0.000609167
-0.000408541
-0.000368569
-0.000665201
-0.000388012
-0.00060419
-0.000481253
-0.000306856
-0.000369621
-0.00060278
-0.000501799
-0.000456763
-0.000588385
-0.000577301
-0.000373188
-0.000370343
-0.000359439
-0.000512162
-0.000565025
-0.000649356
-0.000623846
-0.000678753
-0.00061505
-0.000672134
-0.000563927
-0.000589452
-0.00059404
-0.00056
-0.000588308
-0.000541657
-0.000533595
-0.00037816
-0.000508156
-0.000594512
-0.000412848
-0.000605973
-0.000556681
-0.000644572
-0.000387498
-0.000612981
-0.000586013
-0.000380592
-0.000525214
-0.000378018
-0.000590108
-0.000538561
-0.000396256
-0.000372921
-0.000322349
-0.00037081
-0.000590914
-0.000270682
-0.000455297
-0.000371531
-0.000416993
-0.000613555
-0.000593969
-0.000186449
-0.000596125
-0.000324204
-0.000351693
-0.000610214
-0.000496043
-0.000355827
-0.000680897
-0.000387117
-0.000186449
-0.000359635
-0.000529713
-0.00066129
-0.000501244
-0.000589958
-0.000552392
-0.000290083
-0.00028413
-0.000242645
-0.000278552
-0.000395334
-0.000302123
-0.000486821
-0.000304468
-0.00052448
-0.000374472
-0.000360178
-0.000421691
-0.000391815
-0.000520782
-0.000375717
-0.000386556
-0.000170945
-0.000389967
-0.000564017
-0.000564417
-0.000511019
-0.000375
-0.000244527
-0.000709518
-0.00047649
-0.000397836
-0.000366738
-0.000365636
-0.000378248
-0.000461406
-0.00037149
-0.000265788
-0.000366632
-0.000251293
-0.000454598
-0.000374016
-0.00015933
-0.000352289
-0.000416906
-0.000374019
-0.000576047
-0.000388431
-0.00050116
-0.000191923
-0.000402246
-0.000384044
-0.000335808
-0.000360528
-0.000425602
-0.000400798
-0.000419058
-0.000356136
-0.000361755
-0.000390696
-0.000522684
-0.000368386
-0.000522206
-0.00047135
-0.000372283
-0.000382178
-0.000385878
-0.000426893
-0.000385252
-0.000360673
-0.000409917
-0.000430229
-0.000507711
-0.000385801
-0.00038323
-0.000555204
-0.00054743
-0.00036866
-0.000372362
-0.000165819
-0.000449512
-0.00031154
-0.000421875
-0.000185961
-0.000193038
-0.000172513
-0.000175336
-0.000186013
-0.00019595
-0.000201937
-0.000473573
-0.000350618
-0.00035346
-0.000404005
-0.000393498
-0.000388585
-0.000411237
-0.000380272
-0.00038893
-0.000395929
-0.000387144
-0.000475776
-0.000351845
-0.000489043
-0.000380315
-0.000367078
-0.000387629
-0.000414031
-0.000432321
-0.000402705
-0.00046127
-0.000430872
-0.000399481
-0.000287976
-0.000401857
-0.00039302
-0.000423404
-0.000405275
-0.000383983
-0.000365197
-0.000402318
-0.000419722
-0.000569885
-0.000376216
-0.000554065
-0.000577427
-0.000395352
-0.000553315
-0.000424393
-0.000339862
-0.000463272
-0.000405851
-0.000292586
-0.000256373
-0.000457422
-0.00048722
-0.000412247
-0.000342665
-0.000412418
-0.000195059
-0.000407585
-0.000382385
-0.000194965
-7.49353e-05
-8.19732e-05
-0.000353068
-0.000376367
-0.000437214
-0.000420215
-3.85404e-05
-4.02708e-05
-0.000416332
-0.000420678
-0.00039821
-0.000146415
-0.000352157
-0.000409702
-0.000417507
-0.000360135
-0.000317875
-0.000152465
-0.000603335
-0.000378721
-0.000462898
-0.000470135
-0.000337792
-0.000427528
-0.000330269
-0.000364445
-0.000180804
-0.000272999
-0.000428036
-0.000430758
-0.000370167
-0.000388751
-0.000401194
-0.000423034
-0.000404618
-0.0001992
-0.00035529
-0.000400205
-0.000378502
-0.000568036
-0.000199158
-0.000307327
-0.000316548
-0.00030024
-0.000195308
-0.000195321
-0.000343925
-0.000277409
-0.000396893
-0.000213172
-0.000233226
-7.61802e-05
-7.61798e-05
-0.00015889
-0.000253142
-0.000170564
-0.000338159
-0.000365986
-0.000390357
-0.000439894
-0.000399072
-0.000369498
-0.000290821
-0.000179527
-0.000365112
-0.000378355
-0.000366352
-0.000201797
-0.000187073
-0.00014531
-0.000365832
-0.000373168
-0.000299651
-0.000338646
-0.000312509
-0.000286342
-0.00038304
-0.000286316
-0.000338023
-0.000326034
-0.000200001
-0.000246928
-0.000228976
-0.000405071
-0.00015978
-0.000168331
-0.000164656
-0.000382591
-0.000152152
-0.000148984
-0.000266042
-0.000138965
-0.000309946
-0.000310415
-0.000142655
-0.00033719
-0.000158439
-0.000157406
-0.000177428
-0.000150176
-0.000147525
-0.000220796
-0.000175377
-0.000159286
-0.000150646
-0.000308803
-0.000352591
-0.0001659
-0.000340843
-0.000136604
-0.000345792
-0.000274644
-0.000142726
-0.000120907
-0.000134822
-0.00017891
-0.00029689
-0.00024466
-0.000102425
-0.000113688
-0.000331067
-9.64141e-05
-9.64131e-05
-0.000109247
-0.000122602
-0.000138137
-0.000161211
-0.000266462
-0.000246708
-0.000331287
-9.68524e-05
-9.68516e-05
-0.000291386
-0.000119431
-0.000235955
-0.000108227
-0.000108938
-0.000143537
-0.000249903
-0.000258769
-0.000275673
-0.000252647
-0.000249896
-5.46129e-05
-0.000403382
-6.96558e-05
-6.74997e-05
-0.00032587
-0.00032361
-6.99498e-05
-4.85824e-05
-6.84459e-05
-0.000300577
SCALARS rr_P_ext' float
LOOKUP_TABLE default
0.000182923
0.000422472
0.00033701
0.000440891
0.000231353
0.000357677
0.00018086
0.000438383
0.00037623
0.000474747
0.000166148
0.000439725
0.000386864
0.000408898
0.000479991
0.000401711
0.000346022
0.000390745
0.000349197
0.000341868
0.000384498
6.89124e-05
0.000393956
0.000363157
0.000329176
0.000380184
0.000154223
0.000333718
0.00026046
0.000310187
0.000341758
0.000269258
0.00017081
0.000232244
0.000228353
0.000232765
0.000301606
0.000228782
0.000341402
0.000191999
0.000218918
0.000265826
0.000265851
0.000375079
0.000214592
0.000237528
0.00032871
0.000333051
0.000312388
0.000297157
0.00030528
0.000237147
0.000371252
0.000304737
0.000341761
0.000155736
0.000243823
0.000306971
0.000243813
0.00037271
0.000441685
0.000433358
0.000151812
0.000305532
0.000415085
0.000391326
0.00042726
0.000369263
0.000339614
0.000484882
0.000402782
0.00039839
0.000270486
0.000316888
0.000334955
0.000176214
0.00034606
0.000387693
0.000372366
0.000261778
0.000235579
0.000261236
0.00049327
0.000235815
0.000318563
0.000117931
0.000385495
0.000322737
0.000227258
3.38894e-05
0.000264054
3.68575e-05
0.00029366
0.000280868
0.000249932
0.000227497
0.000216369
0.000416794
0.000346311
0.000332349
0.000281556
0.00026952
0.000226259
0.000394625
0.00040125
0.000361345
0.000318226
0.00032214
0.000240176
0.000481649
0.000309027
0.000161938
0.000216557
0.000431857
0.000404679
0.000294299
0.000282735
0.000179786
0.000293246
0.00029315
0.000255461
0.000467825
0.000481477
0.000413925
0.000455124
0.000357767
0.000202812
0.000450006
0.000195966
0.000253438
0.000210396
0.000429532
0.000420014
0.000421761
0.000280325
0.00017179
0.000187437
0.000308944
0.000378195
0.000171731
0.000234161
0.000364308
0.000275231
0.000444794
0.000218811
0.000362866
0.000329344
0.00031812
0.000203325
0.000259105
0.00028948
0.000414518
0.000241584
0.000375093
0.00043468
0.000441594
0.000289067
0.000241226
0.000239866
0.000378678
0.000317484
0.0002396
0.000158104
0.000233906
0.000232975
0.000405681
0.000244473
0.000247165
0.000267471
0.000238241
0.000358567
0.00024961
0.000220609
0.000279357
0.000263709
0.000318004
0.000354665
0.000340426
0.00029021
0.000339679
0.000259607
0.000393601
0.000422435
0.000234205
0.000414163
0.000233775
0.000409022
0.000376185
0.000351622
0.000357016
0.000417802
0.000196501
0.000258035
0.000239596
0.000421001
0.000414278
0.000384113
0.000418978
0.000426151
0.000358119
0.000438895
0.000293696
0.00026451
0.000479663
0.000278063
0.000435699
0.000346901
0.000220016
0.0002667
0.000434298
0.000362109
0.000329146
0.000423847
0.000416314
0.000267996
0.000266895
0.000257987
0.000369392
0.000407172
0.000467941
0.000449505
0.000489092
0.000443193
0.000484322
0.000406316
0.000425387
0.000428685
0.000404132
0.000424566
0.000391228
0.000385406
0.000271545
0.000366143
0.000428206
0.00029694
0.00043734
0.000401782
0.000464277
0.000278103
0.000441493
0.000422193
0.000273327
0.000378972
0.000271464
0.000425562
0.000387876
0.000284582
0.000267677
0.000230783
0.000265496
0.000426133
0.000193752
0.000327823
0.000266664
0.00029975
0.000441901
0.000428021
0.000134927
0.000429562
0.000232046
0.000252426
0.000439514
0.000357279
0.000255359
0.000490658
0.000278251
0.000134926
0.000258132
0.000381734
0.000476746
0.000360986
0.000425772
0.000398242
0.000209535
0.000204601
0.000173539
0.000199137
0.000285478
0.000217385
0.000350636
0.000218648
0.000378449
0.000269899
0.000258519
0.00030394
0.000281468
0.000375171
0.000269907
0.000277433
0.000123807
0.000281557
0.000407072
0.000407353
0.000368195
0.000269413
0.000176786
0.000511495
0.000342746
0.00028583
0.000263396
0.000264031
0.000271641
0.000333095
0.000266841
0.000189994
0.000263395
0.000179893
0.000327882
0.000268603
0.000115393
0.000253049
0.000300621
0.000268571
0.000415333
0.000279002
0.000360782
0.000137141
0.00028951
0.000275797
0.000242479
0.000258894
0.000306142
0.000288981
0.000301934
0.000255808
0.000259895
0.000280815
0.000376984
0.000264653
0.000376123
0.000339323
0.000268907
0.000274567
0.000277337
0.000307121
0.000276921
0.000259087
0.000294657
0.0003104
0.000365673
0.000277295
0.000275206
0.000400002
0.000394409
0.000264839
0.000268961
0.000118187
0.000323589
0.000223047
0.000303525
0.000131748
0.000136763
0.00012223
0.000124227
0.000131796
0.000138823
0.000143071
0.00034158
0.000253415
0.000254531
0.000290592
0.000282859
0.000279315
0.000296256
0.000273319
0.000279527
0.00028617
0.000278278
0.000343321
0.000252429
0.000352867
0.000273739
0.000264028
0.000278616
0.000298986
0.000311215
0.000289675
0.000332058
0.000309939
0.000287119
0.000206645
0.000289041
0.000282896
0.00030554
0.000291355
0.000275953
0.000262533
0.000289354
0.000302107
0.000410552
0.000270451
0.000399148
0.000415578
0.000284352
0.000398539
0.000305448
0.000244284
0.00033402
0.000291969
0.000211454
0.000183266
0.000329931
0.000351517
0.000296729
0.000246521
0.000297279
0.000139048
0.000293371
0.000275083
0.000139323
5.42683e-05
5.93669e-05
0.00025416
0.000270543
0.000314567
0.000302098
2.79561e-05
2.92113e-05
0.000299874
0.000303009
0.00028681
0.00010437
0.000253096
0.000295441
0.00030029
0.000259002
0.000228626
0.000108662
0.000434981
0.000272219
0.000333214
0.000338424
0.000242928
0.000307527
0.000237518
0.00026212
0.000129118
0.000195436
0.000307889
0.000310084
0.000266301
0.000279565
0.000288601
0.000304352
0.000291085
0.000142397
0.000256424
0.000287693
0.000272824
0.000409556
0.000142357
0.000221218
0.000227834
0.000216869
0.000141431
0.00014144
0.000248311
0.000199371
0.000285692
0.000152357
0.000168853
5.52459e-05
5.52453e-05
0.000113227
0.000183072
0.000123405
0.000243389
0.000264198
0.0002811
0.000316946
0.00028774
0.000266489
0.000209466
0.000127972
0.000262859
0.000272695
0.000264176
0.000144015
0.000135305
0.00010382
0.000263789
0.00026888
0.000215222
0.000243849
0.000225077
0.000206845
0.000275916
0.000206825
0.000243329
0.000235106
0.000144678
0.000178637
0.000163658
0.000291895
0.000113826
0.000119944
0.000117271
0.000275834
0.000108446
0.000106084
0.000191322
9.89851e-05
0.000224003
0.00022434
0.000101632
0.000242589
0.00011315
0.000112129
0.000126684
0.000106974
0.000105333
0.000159689
0.000125298
0.000113536
0.000107322
0.0002224
0.000254353
0.000118432
0.00024548
9.72753e-05
0.000249129
0.000197604
0.000101659
8.62978e-05
9.60131e-05
0.000127493
0.000213675
0.000176848
7.42637e-05
8.24189e-05
0.000238563
6.99036e-05
6.99026e-05
7.9203e-05
8.8812e-05
9.87123e-05
0.000116611
0.000192399
0.00017833
0.00023869
7.01748e-05
7.01739e-05
0.000210667
8.50975e-05
0.000169751
7.71262e-05
7.78196e-05
0.000102542
0.000180905
0.000187318
0.000199541
0.000182878
0.000180899
3.959e-05
0.000291988
5.04692e-05
4.89423e-05
0.000235903
0.00023427
5.0721e-05
3.52197e-05
4.95948e-05
0.000217553
SCALARS rr_S' float
LOOKUP_TABLE default
3.87091e-05
8.97184e-05
7.15494e-05
9.3624e-05
4.91726e-05
7.59365e-05
3.82721e-05
9.30899e-05
7.98535e-05
0.000100819
3.51656e-05
9.33748e-05
8.21442e-05
8.68396e-05
0.000101986
8.52905e-05
7.34942e-05
8.29699e-05
7.41039e-05
7.25746e-05
8.16214e-05
1.46622e-05
8.36281e-05
7.70942e-05
6.98797e-05
8.07318e-05
3.26597e-05
7.08528e-05
5.52198e-05
6.59552e-05
7.25663e-05
5.70853e-05
3.61707e-05
4.93733e-05
4.85517e-05
4.94839e-05
6.41327e-05
4.86412e-05
7.24899e-05
4.06583e-05
4.64119e-05
5.65253e-05
5.65306e-05
7.96414e-05
4.54574e-05
5.03609e-05
6.97618e-05
7.06932e-05
6.63224e-05
6.29854e-05
6.47157e-05
5.02953e-05
7.89025e-05
6.46313e-05
7.26331e-05
3.29943e-05
5.18413e-05
6.51049e-05
5.1839e-05
7.9123e-05
9.38111e-05
9.2069e-05
3.21574e-05
6.49111e-05
8.81871e-05
8.31176e-05
9.07482e-05
7.84132e-05
7.20945e-05
0.000102972
8.56031e-05
8.46698e-05
5.73449e-05
6.7314e-05
7.11142e-05
3.73088e-05
7.35351e-05
8.23457e-05
7.90716e-05
5.55232e-05
4.99303e-05
5.55299e-05
0.000104782
4.99748e-05
6.75459e-05
2.49828e-05
8.18459e-05
6.85528e-05
4.81406e-05
7.2093e-06
5.60023e-05
7.84067e-06
6.24013e-05
5.96539e-05
5.30093e-05
4.82249e-05
4.58592e-05
8.85115e-05
7.35882e-05
7.05668e-05
5.97383e-05
5.71519e-05
4.79492e-05
8.37962e-05
8.52082e-05
7.67346e-05
6.76016e-05
6.83973e-05
5.08982e-05
0.000102289
6.56037e-05
3.43077e-05
4.58869e-05
9.17004e-05
8.59357e-05
6.24184e-05
6.01145e-05
3.81051e-05
6.23486e-05
6.21752e-05
5.42077e-05
9.93975e-05
0.000102248
8.79221e-05
9.66575e-05
7.60188e-05
4.31164e-05
9.55642e-05
4.15348e-05
5.37526e-05
4.4715e-05
9.12152e-05
8.92193e-05
8.95659e-05
5.94435e-05
3.65256e-05
3.97192e-05
6.56009e-05
8.03372e-05
3.65128e-05
4.96562e-05
7.73675e-05
5.84064e-05
9.44584e-05
4.63756e-05
7.70552e-05
6.99385e-05
6.75394e-05
4.3167e-05
5.49688e-05
6.14437e-05
8.80283e-05
5.12175e-05
7.96455e-05
9.23106e-05
9.3777e-05
6.13935e-05
5.11564e-05
5.08686e-05
8.04056e-05
6.73893e-05
5.07983e-05
3.34948e-05
4.95851e-05
4.94062e-05
8.61501e-05
5.18449e-05
5.24156e-05
5.67063e-05
5.05234e-05
7.6194e-05
5.29393e-05
4.67662e-05
5.93332e-05
5.59302e-05
6.75536e-05
7.53646e-05
7.22884e-05
6.16801e-05
7.21342e-05
5.50394e-05
8.35859e-05
8.97087e-05
4.96658e-05
8.79735e-05
4.95561e-05
8.68807e-05
7.9915e-05
7.47193e-05
7.5817e-05
8.87468e-05
4.16499e-05
5.47265e-05
5.07966e-05
8.94044e-05
8.7966e-05
8.1562e-05
8.8999e-05
9.04984e-05
7.60637e-05
9.32054e-05
6.23289e-05
5.61045e-05
0.000101889
5.89526e-05
9.25527e-05
7.36814e-05
4.66533e-05
5.6664e-05
9.22295e-05
7.69371e-05
6.99039e-05
9.00063e-05
8.84349e-05
5.68554e-05
5.66847e-05
5.47229e-05
7.84719e-05
8.64731e-05
9.93788e-05
9.54598e-05
0.000103869
9.41213e-05
0.000102856
8.62889e-05
9.03822e-05
9.1082e-05
8.58659e-05
9.0208e-05
8.31462e-05
8.19088e-05
5.7607e-05
7.77578e-05
9.09259e-05
6.30275e-05
9.29237e-05
8.53696e-05
9.85861e-05
5.8988e-05
9.37462e-05
8.9658e-05
5.79876e-05
8.05177e-05
5.75915e-05
9.04004e-05
8.23599e-05
6.03756e-05
5.67791e-05
4.89133e-05
5.62711e-05
9.05212e-05
4.10622e-05
6.96054e-05
5.65634e-05
6.36118e-05
9.38326e-05
9.09003e-05
2.86915e-05
9.1227e-05
4.9177e-05
5.3543e-05
9.33266e-05
7.58672e-05
5.41631e-05
0.000104202
5.90481e-05
2.86912e-05
5.47541e-05
8.1071e-05
0.000101264
7.66514e-05
9.04649e-05
8.45903e-05
4.45329e-05
4.34434e-05
3.67679e-05
4.21858e-05
6.06678e-05
4.61468e-05
7.44568e-05
4.63867e-05
8.04067e-05
5.73244e-05
5.48357e-05
6.45549e-05
5.97203e-05
7.96713e-05
5.72677e-05
5.88464e-05
2.63331e-05
5.98314e-05
8.64931e-05
8.65524e-05
7.81935e-05
5.71645e-05
3.75821e-05
0.000108644
7.27518e-05
6.06484e-05
5.58822e-05
5.61099e-05
5.76297e-05
7.0781e-05
5.66153e-05
4.0247e-05
5.58868e-05
3.81263e-05
6.96541e-05
5.69852e-05
2.45434e-05
5.36891e-05
6.38577e-05
5.69761e-05
8.82224e-05
5.91947e-05
7.65992e-05
2.90484e-05
6.14627e-05
5.85111e-05
5.15289e-05
5.49237e-05
6.49821e-05
6.13841e-05
6.41208e-05
5.4274e-05
5.51446e-05
5.95917e-05
8.00848e-05
5.61538e-05
7.98689e-05
7.20433e-05
5.71511e-05
5.82578e-05
5.88528e-05
6.51936e-05
5.87668e-05
5.49711e-05
6.25311e-05
6.59463e-05
7.76491e-05
5.88449e-05
5.83849e-05
8.49471e-05
8.37596e-05
5.61924e-05
5.71626e-05
2.50113e-05
6.87021e-05
4.7274e-05
6.44311e-05
2.78219e-05
2.88812e-05
2.58127e-05
2.62341e-05
2.78327e-05
2.93161e-05
3.02137e-05
7.25646e-05
5.38678e-05
5.40453e-05
6.16804e-05
6.00274e-05
5.92747e-05
6.29132e-05
5.80009e-05
5.93173e-05
6.0831e-05
5.90545e-05
7.29448e-05
5.35366e-05
7.49697e-05
5.81154e-05
5.60419e-05
5.91256e-05
6.3539e-05
6.60752e-05
6.14873e-05
7.05006e-05
6.57886e-05
6.09288e-05
4.38291e-05
6.13507e-05
6.00607e-05
6.49182e-05
6.18323e-05
5.85572e-05
5.5715e-05
6.14162e-05
6.41386e-05
8.71854e-05
5.7395e-05
8.47634e-05
8.8226e-05
6.0355e-05
8.46293e-05
6.48463e-05
5.18399e-05
7.09502e-05
6.19762e-05
4.49474e-05
3.88219e-05
7.00903e-05
7.46818e-05
6.29971e-05
5.23298e-05
6.31413e-05
2.94275e-05
6.22837e-05
5.83916e-05
2.95112e-05
1.15424e-05
1.2627e-05
5.39609e-05
5.74136e-05
6.67757e-05
6.41127e-05
5.94886e-06
6.21595e-06
6.36775e-05
6.43442e-05
6.09032e-05
2.20883e-05
5.3708e-05
6.27583e-05
6.37386e-05
5.49732e-05
4.85268e-05
2.29949e-05
9.23943e-05
5.77683e-05
7.0745e-05
7.18511e-05
5.15613e-05
6.52763e-05
5.04128e-05
5.56362e-05
2.73429e-05
4.14209e-05
6.53528e-05
6.58343e-05
5.6528e-05
5.93366e-05
6.12603e-05
6.46062e-05
6.17887e-05
3.01646e-05
5.44847e-05
6.10539e-05
5.79469e-05
8.69954e-05
3.01554e-05
4.69661e-05
4.83694e-05
4.60914e-05
3.00802e-05
3.0082e-05
5.2766e-05
4.23072e-05
6.06546e-05
3.22726e-05
3.59102e-05
1.17551e-05
1.1755e-05
2.39598e-05
3.89226e-05
2.62398e-05
5.16719e-05
5.61402e-05
5.9687e-05
6.73089e-05
6.11201e-05
5.66112e-05
4.44796e-05
2.7083e-05
5.581e-05
5.79179e-05
5.61166e-05
3.04909e-05
2.87673e-05
2.19898e-05
5.60338e-05
5.71026e-05
4.56619e-05
5.17767e-05
4.77941e-05
4.39613e-05
5.85918e-05
4.3957e-05
5.16617e-05
4.99421e-05
3.07615e-05
3.79828e-05
3.46671e-05
6.19915e-05
2.40855e-05
2.53821e-05
2.4812e-05
5.85901e-05
2.29499e-05
2.24432e-05
4.06076e-05
2.0944e-05
4.76158e-05
4.76874e-05
2.15055e-05
5.1495e-05
2.3962e-05
2.37261e-05
2.6826e-05
2.2635e-05
2.23048e-05
3.39517e-05
2.65376e-05
2.40274e-05
2.27092e-05
4.7225e-05
5.40367e-05
2.50771e-05
5.21261e-05
2.05801e-05
5.29065e-05
4.1947e-05
2.15097e-05
1.82718e-05
2.03138e-05
2.69787e-05
4.53627e-05
3.75937e-05
1.58006e-05
1.7535e-05
5.06653e-05
1.48728e-05
1.48726e-05
1.68511e-05
1.88909e-05
2.09084e-05
2.47935e-05
4.08858e-05
3.79085e-05
5.06901e-05
1.49276e-05
1.49274e-05
4.47856e-05
1.80066e-05
3.60334e-05
1.63211e-05
1.64818e-05
2.17181e-05
3.84718e-05
3.98353e-05
4.24338e-05
3.88907e-05
3.84705e-05
8.42287e-06
6.2094e-05
1.07358e-05
1.04132e-05
5.01681e-05
4.9821e-05
1.07918e-05
7.49316e-06
1.05499e-05
4.62632e-05
SCALARS rr_P' float
LOOKUP_TABLE default
3.50839e-05
7.41811e-05
5.96357e-05
7.75379e-05
3.97096e-05
6.33046e-05
3.46981e-05
7.71705e-05
6.70776e-05
8.33867e-05
3.17032e-05
7.74077e-05
6.82269e-05
7.17317e-05
8.30917e-05
7.0989e-05
6.05129e-05
6.88604e-05
6.25115e-05
6.06329e-05
6.82725e-05
1.14681e-05
6.99526e-05
6.4401e-05
5.83893e-05
6.68993e-05
2.90657e-05
5.89982e-05
4.77807e-05
5.2583e-05
6.02874e-05
4.93857e-05
3.22305e-05
3.95815e-05
3.88059e-05
3.96734e-05
5.10778e-05
3.89221e-05
6.02353e-05
3.62196e-05
4.01691e-05
4.50017e-05
4.50094e-05
6.6163e-05
4.0159e-05
4.35173e-05
5.87314e-05
5.92896e-05
5.52696e-05
5.48146e-05
5.61333e-05
4.31072e-05
6.38098e-05
5.5377e-05
5.87819e-05
2.90612e-05
4.14263e-05
5.57833e-05
4.14277e-05
6.60752e-05
7.72716e-05
7.52429e-05
2.84475e-05
5.30708e-05
7.20616e-05
6.8433e-05
7.47265e-05
6.49728e-05
6.02677e-05
8.51219e-05
6.92416e-05
6.84897e-05
4.96319e-05
5.52603e-05
5.92524e-05
3.33755e-05
5.97955e-05
6.7802e-05
6.55247e-05
4.74907e-05
4.35299e-05
4.47098e-05
8.59702e-05
4.36839e-05
5.82835e-05
2.2046e-05
6.81514e-05
5.63589e-05
4.25247e-05
5.66617e-06
4.79912e-05
6.16336e-06
5.07194e-05
4.9168e-05
4.53868e-05
4.18669e-05
3.99736e-05
7.32161e-05
5.98458e-05
5.86583e-05
5.06596e-05
4.92032e-05
4.19224e-05
6.94863e-05
7.05423e-05
6.35112e-05
5.54025e-05
5.68981e-05
4.45066e-05
8.44725e-05
5.47802e-05
3.02181e-05
4.02492e-05
7.60813e-05
7.11576e-05
5.34644e-05
4.80426e-05
3.32264e-05
4.98418e-05
5.32393e-05
4.58225e-05
8.10666e-05
8.45502e-05
7.22704e-05
7.97728e-05
6.18846e-05
3.45723e-05
7.90536e-05
3.62037e-05
4.60254e-05
3.61714e-05
7.54688e-05
7.3236e-05
7.40807e-05
5.11687e-05
2.91885e-05
3.47969e-05
5.44522e-05
6.59133e-05
2.91806e-05
4.27005e-05
6.39682e-05
4.92996e-05
7.81203e-05
4.04538e-05
6.38321e-05
5.79091e-05
5.62858e-05
3.59843e-05
4.6747e-05
5.15484e-05
7.27931e-05
4.43193e-05
6.61397e-05
7.63478e-05
7.75818e-05
5.0643e-05
4.39488e-05
4.36896e-05
6.67873e-05
5.65108e-05
4.39266e-05
2.95213e-05
4.30106e-05
4.24512e-05
7.12982e-05
4.45432e-05
4.50395e-05
4.90651e-05
4.34026e-05
6.19173e-05
4.53598e-05
4.05697e-05
4.89011e-05
4.79122e-05
5.53803e-05
6.12476e-05
5.99333e-05
4.98594e-05
5.96976e-05
4.76175e-05
6.91497e-05
7.42223e-05
4.27025e-05
7.23106e-05
4.30159e-05
7.14162e-05
6.54781e-05
6.0697e-05
6.27131e-05
7.29377e-05
3.62685e-05
4.68843e-05
4.39477e-05
7.39539e-05
7.30302e-05
6.76825e-05
7.30596e-05
7.48443e-05
6.26446e-05
7.70674e-05
5.25157e-05
4.7954e-05
8.36491e-05
5.09961e-05
7.59381e-05
6.06705e-05
4.01872e-05
4.6257e-05
7.62518e-05
6.27532e-05
5.77124e-05
7.45317e-05
7.25527e-05
4.83369e-05
4.67631e-05
4.67289e-05
6.42981e-05
7.13796e-05
8.20356e-05
7.88815e-05
8.57919e-05
7.77361e-05
8.49567e-05
7.13221e-05
7.36828e-05
7.42732e-05
7.00017e-05
7.35331e-05
6.72833e-05
6.628e-05
4.90078e-05
6.42554e-05
7.53792e-05
5.28812e-05
7.57085e-05
6.95292e-05
8.17089e-05
5.04072e-05
7.77417e-05
7.41627e-05
4.92779e-05
6.57236e-05
4.89622e-05
7.4146e-05
6.83249e-05
5.12984e-05
4.84651e-05
4.26532e-05
4.90429e-05
7.42606e-05
3.58677e-05
5.78687e-05
4.83037e-05
5.36312e-05
7.78215e-05
7.50475e-05
2.28306e-05
7.53352e-05
4.2981e-05
4.57242e-05
7.7374e-05
6.28971e-05
4.63043e-05
8.60366e-05
4.98185e-05
2.28319e-05
4.67486e-05
6.69082e-05
8.32807e-05
6.36059e-05
7.37214e-05
6.95599e-05
3.60148e-05
3.60861e-05
3.23388e-05
3.72284e-05
4.91888e-05
3.85916e-05
6.17274e-05
3.94334e-05
6.56245e-05
4.7248e-05
4.68238e-05
5.3196e-05
5.06266e-05
6.59406e-05
4.85427e-05
5.02763e-05
2.08053e-05
4.85787e-05
7.04519e-05
7.05114e-05
6.46298e-05
4.84226e-05
3.01591e-05
8.93791e-05
6.0992e-05
5.13577e-05
4.74596e-05
4.54952e-05
4.89775e-05
5.753e-05
4.80341e-05
3.55472e-05
4.73506e-05
3.3274e-05
5.70622e-05
4.84279e-05
1.93936e-05
4.55507e-05
5.24274e-05
4.84717e-05
7.24909e-05
5.02351e-05
6.37788e-05
2.57337e-05
5.12732e-05
4.9736e-05
4.17997e-05
4.67106e-05
5.44779e-05
5.04325e-05
5.3003e-05
4.60544e-05
4.67163e-05
5.02896e-05
6.56154e-05
4.75788e-05
6.62137e-05
5.99836e-05
4.62253e-05
4.93531e-05
4.96876e-05
5.4578e-05
4.95646e-05
4.66152e-05
5.27288e-05
5.38826e-05
6.43885e-05
4.96608e-05
4.9639e-05
7.02549e-05
6.9262e-05
4.7629e-05
4.62387e-05
2.26201e-05
5.72206e-05
4.12187e-05
5.3919e-05
2.6391e-05
2.73929e-05
2.447e-05
2.48749e-05
2.63842e-05
2.78111e-05
2.86519e-05
5.9429e-05
4.33355e-05
4.48839e-05
5.17325e-05
5.06112e-05
4.99955e-05
5.20677e-05
4.8952e-05
5.00858e-05
4.89275e-05
4.98116e-05
5.95099e-05
4.58799e-05
6.12065e-05
4.84607e-05
4.70088e-05
4.98876e-05
5.15063e-05
5.50303e-05
5.15428e-05
5.87113e-05
5.51441e-05
5.1433e-05
3.7501e-05
5.14656e-05
5.00633e-05
5.29457e-05
5.20873e-05
4.94731e-05
4.69496e-05
5.15482e-05
5.34769e-05
7.21479e-05
4.83709e-05
7.01532e-05
7.36224e-05
5.06448e-05
7.01473e-05
5.40988e-05
4.37377e-05
5.83018e-05
5.19066e-05
3.61852e-05
3.42856e-05
5.74011e-05
6.10213e-05
5.25206e-05
4.38138e-05
5.19976e-05
2.65834e-05
5.19308e-05
4.89111e-05
2.61304e-05
9.12456e-06
9.97933e-06
4.49473e-05
4.84106e-05
5.58709e-05
5.40038e-05
4.63546e-06
4.84358e-06
5.27807e-05
5.3325e-05
5.04971e-05
1.99565e-05
4.53529e-05
5.15033e-05
5.3478e-05
4.61605e-05
4.07223e-05
2.08084e-05
7.59593e-05
4.87331e-05
5.89389e-05
5.98595e-05
4.33019e-05
5.47252e-05
4.23384e-05
4.6689e-05
2.43433e-05
3.6142e-05
5.47941e-05
5.48402e-05
4.73383e-05
4.98497e-05
5.13324e-05
5.40759e-05
5.17448e-05
2.66383e-05
4.43809e-05
5.1458e-05
4.77307e-05
7.14847e-05
2.66455e-05
3.91426e-05
4.03448e-05
3.72801e-05
2.37967e-05
2.37992e-05
4.28482e-05
3.57312e-05
5.05463e-05
2.85426e-05
2.84622e-05
9.17925e-06
9.1795e-06
2.17034e-05
3.11477e-05
2.09188e-05
4.30982e-05
4.56471e-05
4.95703e-05
5.56398e-05
5.02119e-05
4.63983e-05
3.68755e-05
2.44716e-05
4.64433e-05
4.7742e-05
4.606e-05
2.72913e-05
2.30013e-05
1.95002e-05
4.60084e-05
4.71858e-05
3.87675e-05
4.30204e-05
3.96375e-05
3.55357e-05
4.85323e-05
3.55346e-05
4.30319e-05
4.09859e-05
2.45616e-05
3.03081e-05
3.06506e-05
5.11844e-05
2.18677e-05
2.30047e-05
2.25738e-05
4.81675e-05
2.07566e-05
2.0457e-05
3.4112e-05
1.90362e-05
3.8327e-05
3.83869e-05
1.9518e-05
4.31062e-05
2.13263e-05
2.15509e-05
2.39178e-05
2.05671e-05
1.98871e-05
2.71557e-05
2.3542e-05
2.17234e-05
2.06152e-05
3.91788e-05
4.42014e-05
2.23908e-05
4.32375e-05
1.87484e-05
4.3756e-05
3.50925e-05
1.95571e-05
1.6337e-05
1.84952e-05
2.44381e-05
3.7852e-05
3.02177e-05
1.23604e-05
1.37341e-05
4.1839e-05
1.16377e-05
1.1638e-05
1.31925e-05
1.48988e-05
1.85161e-05
1.98065e-05
3.31779e-05
3.04699e-05
4.19071e-05
1.175e-05
1.17503e-05
3.59336e-05
1.63269e-05
3.01706e-05
1.47793e-05
1.46365e-05
1.92767e-05
3.05261e-05
3.16158e-05
3.36986e-05
3.08784e-05
3.05268e-05
6.6e-06
4.93005e-05
8.45072e-06
8.14421e-06
3.97995e-05
3.95196e-05
8.43693e-06
5.86956e-06
8.30119e-06
3.67606e-05
SCALARS rr_T' float
LOOKUP_TABLE default
0.000209408
0.000477062
0.000380999
0.000497978
0.00026037
0.000404375
0.000207057
0.000495217
0.000425821
0.000536117
0.000190048
0.000496734
0.000437139
0.000461671
0.00054087
0.000454054
0.000390499
0.000441476
0.000395469
0.000386624
0.000434911
7.72094e-05
0.000445609
0.000410693
0.000372277
0.000429447
0.000176059
0.000377225
0.000296083
0.000348458
0.000386186
0.000306075
0.000195032
0.000261102
0.00025662
0.000261691
0.00033877
0.000257143
0.000385794
0.000219218
0.000248868
0.000298565
0.000298597
0.000423837
0.000244703
0.00026996
0.000372159
0.000376865
0.000353155
0.000338089
0.000347158
0.000269199
0.000417899
0.00034591
0.000384742
0.000177508
0.000273997
0.000348446
0.000273988
0.000421477
0.000498485
0.000488538
0.000173149
0.000344457
0.00046793
0.000441623
0.000482185
0.000417107
0.000384108
0.000547519
0.000453403
0.000448462
0.000307492
0.000357468
0.000378657
0.000201323
0.000389845
0.000437527
0.000420617
0.000297069
0.0002681
0.000293877
0.000556391
0.000268475
0.000361982
0.000134456
0.000435752
0.000364141
0.000259142
3.79951e-05
0.000299736
4.13237e-05
0.000330795
0.000317017
0.00028367
0.000258739
0.000246232
0.00047068
0.000390134
0.000375583
0.000319112
0.000306151
0.000257604
0.000445804
0.000453182
0.000408097
0.00035889
0.000364086
0.000273453
0.00054379
0.000349456
0.000184577
0.000246677
0.000487902
0.000457066
0.000334047
0.000317729
0.000204611
0.000329553
0.000332726
0.000289399
0.000527239
0.0005437
0.000467016
0.000513797
0.000403097
0.00022802
0.00050819
0.000223012
0.000287651
0.000236841
0.00048508
0.000473793
0.000476282
0.000318418
0.00019305
0.000213468
0.000349062
0.000426589
0.000192985
0.000265941
0.000411382
0.00031173
0.000502287
0.000249039
0.000409866
0.000371977
0.000359637
0.00022987
0.000293788
0.000327576
0.000468088
0.000274626
0.000423827
0.00049087
0.000498696
0.000326309
0.000273926
0.000272371
0.000427893
0.000359243
0.000272343
0.000180225
0.000265994
0.000264562
0.000458164
0.000277617
0.000280679
0.000304051
0.000270535
0.000403897
0.000283335
0.000250877
0.000315309
0.00029933
0.000358655
0.000399505
0.000384566
0.000326654
0.000383623
0.000295107
0.000444496
0.000477066
0.000265985
0.000467283
0.000265873
0.000461486
0.00042424
0.000396054
0.000403172
0.000471381
0.000223588
0.000292892
0.00027236
0.000475431
0.000468086
0.000433974
0.000472628
0.000481233
0.000404166
0.000495609
0.000332556
0.000300139
0.000541091
0.00031608
0.000491454
0.000391494
0.00024994
0.000300612
0.000490411
0.000408102
0.000371598
0.00047872
0.000469582
0.000303855
0.000301286
0.000292696
0.000416582
0.000459675
0.000528282
0.000507544
0.000552207
0.00050038
0.000546822
0.000458797
0.000479383
0.000483118
0.000455431
0.000478451
0.000440424
0.000433867
0.000307909
0.00041342
0.000483721
0.000336022
0.00049281
0.000452719
0.000524449
0.000315552
0.000498752
0.000476776
0.00030988
0.000427154
0.000307787
0.000479996
0.000438206
0.000322631
0.000303672
0.000262651
0.000302132
0.000480654
0.000220563
0.000370478
0.000302544
0.000339442
0.000499221
0.000483224
0.000151534
0.000484981
0.000264179
0.00028639
0.000496498
0.000403601
0.000289765
0.000553946
0.000315128
0.000151534
0.000292855
0.000430944
0.000537935
0.000407843
0.000479789
0.000449349
0.000235863
0.000231193
0.000197757
0.000227043
0.000321465
0.000245879
0.000396097
0.000247902
0.000426556
0.000304637
0.000293299
0.000343048
0.000318995
0.000423711
0.000305888
0.000314783
0.000138907
0.000317112
0.000458687
0.000459014
0.000415752
0.000305299
0.000198781
0.000577171
0.000387812
0.000323887
0.000298594
0.000297315
0.000307972
0.000375216
0.000302455
0.000216645
0.000298488
0.000204759
0.000369759
0.000304526
0.000129469
0.000286822
0.000339121
0.000304537
0.000468581
0.00031625
0.000407813
0.000156451
0.000327341
0.000312693
0.000273065
0.00029355
0.000346395
0.000326025
0.000340936
0.000289955
0.000294517
0.000318044
0.00042514
0.000299916
0.000424888
0.000383555
0.0003027
0.000311143
0.000314125
0.000347432
0.000313607
0.000293644
0.000333683
0.000349912
0.000413097
0.000314059
0.000312031
0.000451707
0.00044538
0.000300143
0.000302765
0.000135254
0.000365788
0.000253843
0.000343344
0.000151902
0.000157682
0.000140915
0.000143222
0.000151942
0.000160062
0.000164951
0.00038519
0.000285043
0.000287604
0.000328821
0.000320317
0.00031632
0.000334584
0.000309559
0.000316611
0.000321879
0.000315148
0.00038694
0.000286542
0.000397739
0.00030949
0.000298767
0.000315545
0.000336666
0.000351799
0.000327758
0.000375355
0.000350682
0.000325198
0.000234516
0.000327075
0.000319825
0.000344344
0.000329895
0.000312589
0.000297275
0.000327455
0.000341557
0.000463659
0.000306245
0.000450789
0.000469904
0.000321783
0.000450198
0.000345364
0.000276661
0.000376846
0.000330311
0.00023787
0.00020897
0.000372053
0.000396265
0.000335473
0.000278883
0.000335498
0.000159099
0.000331681
0.000311214
0.000158928
6.0892e-05
6.66104e-05
0.000287308
0.000306372
0.000355826
0.000342056
3.13058e-05
3.27114e-05
0.000338744
0.000342278
0.000324002
0.000119423
0.000286676
0.000333258
0.000339813
0.000293125
0.000258723
0.000124364
0.000490785
0.000308292
0.000376684
0.000382573
0.00027494
0.000347963
0.000268817
0.000296628
0.000147408
0.000222444
0.000348377
0.000350529
0.000301268
0.000316421
0.000326525
0.000344289
0.000329306
0.000162368
0.000288939
0.000325773
0.00030791
0.000462065
0.000162336
0.00025009
0.0002576
0.000244123
0.000158709
0.00015872
0.000279673
0.000225829
0.000322975
0.000173764
0.000189531
6.18834e-05
6.18831e-05
0.000129608
0.000205769
0.00013863
0.000275186
0.000297623
0.000317627
0.000357888
0.00032462
0.000300544
0.000236624
0.000146431
0.000297101
0.000307797
0.000297998
0.00016455
0.000152061
0.000118457
0.000297577
0.000303598
0.000243971
0.000275553
0.000254273
0.000232819
0.000311649
0.000232798
0.000275065
0.000265201
0.000162563
0.000200703
0.000186645
0.000329546
0.000130342
0.000137311
0.000134329
0.00031122
0.000124106
0.00012155
0.000216542
0.000113366
0.000251982
0.000252363
0.000116372
0.000274426
0.000129173
0.000128408
0.000144662
0.000122511
0.000120281
0.000179474
0.000142969
0.000129924
0.000122891
0.00025126
0.000286777
0.000135269
0.000277328
0.000111448
0.000281332
0.000223518
0.000116435
9.85868e-05
0.000109992
0.000145939
0.000241605
0.000198897
8.32067e-05
9.23596e-05
0.000269341
7.83244e-05
7.83236e-05
8.87503e-05
9.96193e-05
0.000112605
0.000131035
0.000216678
0.000200563
0.000269529
7.86928e-05
7.86922e-05
0.000236872
9.74241e-05
0.000192036
8.82806e-05
8.88094e-05
0.000117014
0.00020309
0.000210297
0.000224038
0.000205324
0.000203085
4.43678e-05
0.000327824
5.65955e-05
5.48343e-05
0.000264826
0.000262988
5.6824e-05
3.94682e-05
5.56119e-05
0.000244281
SCALARS rr_uec(SIM,_S_ext) float
LOOKUP_TABLE default
0.0133339
0.0303797
0.024262
0.0317117
0.0165807
0.0257506
0.0131841
0.0315355
0.027116
0.0341402
0.0121016
0.0316321
0.027837
0.0293994
0.0344434
0.0289141
0.0248673
0.0281134
0.0251832
0.0246202
0.0276949
0.00491693
0.0283763
0.0261529
0.0237066
0.0273474
0.0112108
0.0240217
0.0188539
0.0221906
0.0245923
0.0194902
0.0124188
0.0166275
0.016342
0.016665
0.0215737
0.0163754
0.0245673
0.0139589
0.0158473
0.0190134
0.0190154
0.0269899
0.015582
0.0171905
0.0236988
0.0239985
0.0224889
0.0215287
0.0221062
0.0171421
0.0266125
0.0220269
0.0245009
0.0113031
0.0174486
0.0221884
0.0174481
0.0268397
0.0317441
0.0311106
0.0110254
0.0219353
0.0297983
0.0281228
0.030706
0.0265615
0.02446
0.0348665
0.0288734
0.0285588
0.0195804
0.0227638
0.0241129
0.0128194
0.0248257
0.0278619
0.0267851
0.018917
0.0170718
0.0187145
0.0354315
0.0170957
0.0230502
0.00856171
0.0277487
0.0231887
0.0165014
0.00241963
0.0190867
0.00263161
0.0210654
0.0201878
0.0180636
0.016476
0.0156793
0.0299732
0.0248442
0.0239171
0.0203206
0.019495
0.0164035
0.028389
0.0288589
0.0259878
0.0228545
0.023185
0.0174127
0.0346292
0.0222534
0.0117533
0.0157077
0.0310698
0.0291062
0.0212714
0.0202335
0.013029
0.0209865
0.0211873
0.0184287
0.0335753
0.0346233
0.02974
0.0327192
0.0256698
0.0145207
0.0323618
0.0142007
0.0183171
0.0150824
0.0308903
0.0301716
0.0303301
0.0202761
0.0122938
0.0135929
0.0222283
0.0271657
0.0122897
0.0169345
0.0261969
0.0198507
0.0319859
0.015858
0.0261005
0.0236876
0.0229016
0.0146381
0.018708
0.0208599
0.0298083
0.0174876
0.0269893
0.0312589
0.0317574
0.0207796
0.017443
0.017344
0.0272484
0.0228764
0.0173422
0.0114762
0.0169379
0.0168468
0.0291761
0.017678
0.017873
0.0193613
0.0172271
0.0257207
0.0180422
0.0159753
0.0200791
0.0190608
0.0228395
0.025441
0.0244892
0.0208018
0.0244292
0.0187917
0.0283058
0.0303798
0.0169374
0.0297569
0.0169302
0.0293878
0.027016
0.0252212
0.0256742
0.0300178
0.0142374
0.0186509
0.0173433
0.0302758
0.0298079
0.0276357
0.0300974
0.0306454
0.0257375
0.0315608
0.0211769
0.0191124
0.0344572
0.0201272
0.0312964
0.0249305
0.0159156
0.0191433
0.0312298
0.0259883
0.0236635
0.0304851
0.0299035
0.0193491
0.019186
0.0186385
0.0265283
0.0292726
0.0336416
0.032321
0.0351652
0.0318648
0.0348223
0.0292164
0.0305278
0.0307656
0.0290025
0.0304684
0.0280468
0.0276293
0.0196072
0.0263269
0.0308039
0.0213976
0.0313828
0.0288298
0.0333975
0.0200939
0.0317611
0.0303614
0.0197327
0.0272016
0.0195995
0.0305666
0.0279054
0.0205448
0.0193374
0.0167248
0.0192391
0.0306086
0.0140447
0.023592
0.0192656
0.0216154
0.031791
0.0307723
0.00965003
0.0308842
0.016822
0.0182369
0.0316176
0.0257014
0.0184518
0.0352759
0.0200671
0.00965005
0.0186486
0.027443
0.0342561
0.0259717
0.0305536
0.0286147
0.0150201
0.0147224
0.0125926
0.0144573
0.0204713
0.0156575
0.0252236
0.015786
0.0271635
0.0193994
0.0186769
0.0218455
0.0203132
0.026982
0.0194785
0.020045
0.00884597
0.0201941
0.0292099
0.0292307
0.0264753
0.019441
0.0126588
0.0367547
0.0246957
0.0206247
0.019014
0.0189334
0.0196112
0.0238942
0.0192599
0.0137953
0.0190073
0.0130384
0.0235466
0.0193918
0.00824496
0.0182644
0.0215955
0.0193925
0.0298396
0.0201384
0.0259695
0.0099621
0.0208451
0.0199119
0.0173892
0.0186929
0.0220583
0.0207614
0.0217111
0.0184639
0.0187544
0.0202528
0.0270732
0.0190983
0.0270569
0.0244248
0.0192764
0.0198132
0.0200032
0.0221243
0.0199702
0.0186988
0.0212486
0.0222827
0.0263061
0.019999
0.0198697
0.0287648
0.0283619
0.0191127
0.0192805
0.00861245
0.0232933
0.0161639
0.021864
0.0096725
0.0100406
0.00897288
0.00911979
0.00967508
0.0101921
0.0105033
0.0245293
0.0181521
0.0183147
0.0209392
0.0203976
0.020143
0.0213064
0.0197124
0.0201615
0.0204978
0.0200683
0.0246407
0.0182465
0.0253286
0.0197083
0.0190253
0.0200936
0.0214393
0.0224025
0.0208715
0.0239026
0.0223313
0.0207083
0.0149336
0.0208279
0.0203664
0.0219282
0.0210075
0.0199054
0.0189302
0.0208522
0.0217503
0.0295259
0.0195015
0.0287063
0.0299234
0.020491
0.0286687
0.0219927
0.0176175
0.0239978
0.021034
0.015148
0.0133066
0.0236926
0.0252345
0.0213629
0.0177591
0.0213647
0.0101308
0.0211214
0.0198179
0.0101198
0.00387775
0.00424191
0.0182958
0.0195095
0.0226588
0.0217819
0.00199364
0.00208315
0.0215713
0.0217963
0.0206325
0.00760433
0.0182553
0.0212222
0.0216391
0.018666
0.0164754
0.00791904
0.0312536
0.0196318
0.0239872
0.0243622
0.017508
0.0221581
0.0171181
0.018889
0.00938636
0.0141645
0.0221845
0.0223216
0.0191846
0.0201494
0.0207929
0.0219242
0.0209701
0.0103391
0.0184
0.020745
0.0196079
0.0294246
0.0103371
0.0159257
0.016404
0.0155461
0.0101071
0.0101078
0.01781
0.0143806
0.020567
0.0110648
0.0120699
0.00394093
0.00394091
0.00825296
0.0131038
0.0088283
0.0175238
0.018953
0.0202266
0.0227906
0.0206721
0.0191389
0.0150682
0.00932417
0.0189194
0.0196006
0.0189767
0.0104779
0.00968356
0.00754275
0.01895
0.0193332
0.0155357
0.0175473
0.0161921
0.0148263
0.0198459
0.014825
0.0175161
0.0168882
0.0103524
0.0127812
0.0118849
0.0209857
0.00829941
0.00874311
0.00855328
0.0198187
0.00790257
0.00773958
0.0137892
0.00721851
0.0160466
0.0160708
0.00740985
0.0174754
0.00822516
0.00817619
0.00921147
0.00780074
0.00765901
0.0114292
0.00910379
0.00827304
0.00782498
0.0160002
0.0182622
0.00861334
0.0176603
0.00709637
0.0179153
0.0142336
0.00741387
0.0062776
0.00700361
0.00929285
0.0153854
0.0126661
0.00529887
0.00588175
0.0171518
0.00498795
0.0049879
0.0056519
0.00634404
0.00717029
0.00834462
0.0137983
0.0127722
0.0171637
0.00501138
0.00501134
0.0150844
0.00620361
0.0122288
0.00562133
0.00565494
0.00745096
0.0129334
0.0133923
0.0142674
0.0130756
0.012933
0.00282547
0.0208767
0.00360416
0.00349201
0.0168648
0.0167478
0.00361872
0.00251345
0.00354153
0.0155564
SCALARS rr_uec(PEX,_P_ext) float
LOOKUP_TABLE default
-0.0608856
-0.138764
-0.110818
-0.144847
-0.0757419
-0.117617
-0.0602018
-0.144043
-0.12385
-0.155941
-0.0552587
-0.144484
-0.127149
-0.134287
-0.157334
-0.132067
-0.113587
-0.128411
-0.115021
-0.112453
-0.126497
-0.0224635
-0.129608
-0.119454
-0.10828
-0.124913
-0.0511938
-0.109721
-0.0861048
-0.101373
-0.112328
-0.0890108
-0.0567104
-0.0759577
-0.0746544
-0.0761288
-0.0985551
-0.0748064
-0.112214
-0.063743
-0.0723739
-0.0868588
-0.086868
-0.123279
-0.0711566
-0.0785084
-0.108242
-0.109612
-0.102719
-0.0983183
-0.100957
-0.07829
-0.121567
-0.100599
-0.111921
-0.0516175
-0.0797098
-0.101337
-0.0797072
-0.12259
-0.144998
-0.142109
-0.050349
-0.100198
-0.136115
-0.128458
-0.140257
-0.121323
-0.111721
-0.159258
-0.131895
-0.130458
-0.0894225
-0.10398
-0.110137
-0.0585386
-0.113403
-0.127266
-0.122345
-0.0863962
-0.0779644
-0.0854902
-0.161844
-0.0780724
-0.10527
-0.0390981
-0.126744
-0.105921
-0.0753552
-0.0110542
-0.087171
-0.0120226
-0.0962261
-0.0922126
-0.0824988
-0.0752439
-0.0716049
-0.136907
-0.113487
-0.109244
-0.0928101
-0.0890347
-0.0749112
-0.12967
-0.131817
-0.118703
-0.104395
-0.105899
-0.0795201
-0.158175
-0.101643
-0.0536732
-0.0717325
-0.141915
-0.132947
-0.0971493
-0.0924319
-0.0595012
-0.0958716
-0.0967654
-0.0841698
-0.153369
-0.158147
-0.135845
-0.149451
-0.117258
-0.0663333
-0.147818
-0.0648525
-0.0836566
-0.0688971
-0.141096
-0.137818
-0.138537
-0.0926021
-0.0561613
-0.0620758
-0.10153
-0.124087
-0.0561423
-0.0773411
-0.119659
-0.090665
-0.146101
-0.0724209
-0.119218
-0.108197
-0.104605
-0.0668601
-0.085444
-0.0952764
-0.136154
-0.0798649
-0.123277
-0.14278
-0.145057
-0.0949151
-0.0796635
-0.0792115
-0.12446
-0.104487
-0.0792012
-0.0524076
-0.0773539
-0.0769405
-0.133266
-0.0807369
-0.0816274
-0.0884222
-0.0786774
-0.117491
-0.0824011
-0.0729576
-0.0917158
-0.0870528
-0.104327
-0.116214
-0.111858
-0.0950239
-0.111585
-0.0858209
-0.129291
-0.138765
-0.077354
-0.135923
-0.0773184
-0.134237
-0.123404
-0.11521
-0.117271
-0.137115
-0.0650205
-0.0851807
-0.0792059
-0.138289
-0.136151
-0.126229
-0.137479
-0.139977
-0.117562
-0.144159
-0.0967229
-0.0872892
-0.157393
-0.0919203
-0.142955
-0.113876
-0.0726871
-0.0874444
-0.142647
-0.118712
-0.108088
-0.139245
-0.136593
-0.0883719
-0.0876362
-0.0851249
-0.121177
-0.133708
-0.153664
-0.147631
-0.160623
-0.145548
-0.159056
-0.133451
-0.139448
-0.140534
-0.13248
-0.139177
-0.128119
-0.126212
-0.0895506
-0.120253
-0.1407
-0.0977328
-0.143354
-0.131692
-0.152546
-0.0917718
-0.145072
-0.13868
-0.0901242
-0.124254
-0.0895155
-0.139622
-0.12746
-0.0938329
-0.0883171
-0.0763796
-0.0878614
-0.139814
-0.0641396
-0.107759
-0.0879889
-0.0987254
-0.145208
-0.140558
-0.0440844
-0.141069
-0.076823
-0.0832908
-0.144416
-0.117395
-0.084272
-0.161129
-0.0916536
-0.0440844
-0.0851712
-0.125351
-0.156474
-0.118628
-0.139566
-0.130706
-0.0686126
-0.067246
-0.0575062
-0.0660213
-0.0935129
-0.0715157
-0.115212
-0.0720986
-0.12408
-0.0886114
-0.0853002
-0.0997844
-0.0927762
-0.123245
-0.0889643
-0.0915484
-0.0404122
-0.0922464
-0.133428
-0.133523
-0.120931
-0.0887931
-0.0578274
-0.167886
-0.112796
-0.0941994
-0.086842
-0.086488
-0.0895693
-0.109148
-0.0879652
-0.0629976
-0.0868122
-0.0595441
-0.107557
-0.0885672
-0.0376665
-0.0834186
-0.0986439
-0.0885699
-0.136301
-0.0919774
-0.118618
-0.045493
-0.0952104
-0.0909422
-0.0794335
-0.0853747
-0.10075
-0.0948339
-0.0991691
-0.0843299
-0.0856572
-0.0925016
-0.123666
-0.0872274
-0.123586
-0.111562
-0.0880554
-0.0904927
-0.0913616
-0.101052
-0.0912112
-0.0854029
-0.0970503
-0.101785
-0.120157
-0.0913425
-0.0907498
-0.131389
-0.129548
-0.0872933
-0.0880743
-0.039326
-0.106394
-0.0738181
-0.0998637
-0.0441576
-0.0458378
-0.0409637
-0.0416343
-0.0441694
-0.0465296
-0.0479506
-0.112046
-0.0829211
-0.0836544
-0.0956386
-0.093163
-0.0920004
-0.0973205
-0.0900338
-0.0920846
-0.0936368
-0.0916593
-0.112557
-0.0833336
-0.115698
-0.0900185
-0.0868973
-0.0917748
-0.097935
-0.102325
-0.0953297
-0.109177
-0.101997
-0.0945822
-0.0682039
-0.0951306
-0.0930246
-0.100166
-0.0959492
-0.0909147
-0.0864615
-0.0952411
-0.0993456
-0.134865
-0.0890706
-0.131121
-0.136676
-0.0935913
-0.130948
-0.100453
-0.0804656
-0.109617
-0.0960725
-0.0691978
-0.060766
-0.108224
-0.115268
-0.0975759
-0.0811144
-0.0975887
-0.0462594
-0.096473
-0.0905178
-0.0462133
-0.0177152
-0.0193789
-0.0835671
-0.0891072
-0.103494
-0.0994861
-0.00910831
-0.00951726
-0.09853
-0.0995578
-0.0942417
-0.0347231
-0.0833783
-0.0969386
-0.0988355
-0.0852557
-0.0752503
-0.0361597
-0.142759
-0.0896656
-0.109563
-0.111276
-0.0799666
-0.101206
-0.0781858
-0.0862748
-0.0428628
-0.0646871
-0.101327
-0.101955
-0.0876252
-0.0920312
-0.0949711
-0.100138
-0.0957803
-0.0472145
-0.0840497
-0.0947501
-0.0895638
-0.134405
-0.0472052
-0.0727416
-0.0749258
-0.0710154
-0.0461732
-0.0461763
-0.0813556
-0.065681
-0.0939409
-0.0505281
-0.0551397
-0.0180046
-0.0180046
-0.0376843
-0.0598609
-0.0403301
-0.0800407
-0.0865764
-0.0923868
-0.1041
-0.0944257
-0.0874232
-0.0688263
-0.042576
-0.0864158
-0.0895305
-0.0866819
-0.047846
-0.0442367
-0.0344448
-0.0865595
-0.0883083
-0.0709558
-0.0801489
-0.0739597
-0.0677272
-0.0906493
-0.0677213
-0.080006
-0.0771418
-0.0472924
-0.0583879
-0.0542737
-0.0958563
-0.0378968
-0.0399232
-0.0390556
-0.0905274
-0.0360847
-0.0353399
-0.0629814
-0.032961
-0.0733028
-0.0734137
-0.0338349
-0.0798183
-0.0375603
-0.0373342
-0.0420639
-0.0356198
-0.0349746
-0.0522114
-0.0415727
-0.0377764
-0.0357304
-0.0730832
-0.0834193
-0.0393323
-0.0806657
-0.0324029
-0.0818313
-0.0650116
-0.0338532
-0.0286661
-0.0319796
-0.0424325
-0.0702732
-0.0578608
-0.0242084
-0.0268712
-0.0783442
-0.0227879
-0.0227877
-0.0258212
-0.0289825
-0.0327436
-0.0381203
-0.0630307
-0.0583453
-0.0783983
-0.0228945
-0.0228943
-0.0689083
-0.0283265
-0.0558547
-0.025668
-0.0258238
-0.0340253
-0.0590841
-0.0611806
-0.0651781
-0.0597337
-0.0590825
-0.0129084
-0.095372
-0.0164656
-0.0159536
-0.0770445
-0.0765099
-0.0165325
-0.0114829
-0.0161795
-0.0710669
SCALARS cell_type float
LOOKUP_TABLE default
0
0
0
0
0
0
0
0
0
0
0
0
0
0
0
0
0
0
0
0
0
1
0
0
0
0
0
0
0
0
0
0
0
0
0
0
0
0
0
0
0
0
0
0
0
0
0
0
0
0
0
0
0
0
0
0
0
0
0
0
0
0
0
0
0
0
0
0
0
0
0
0
0
0
0
0
0
0
0
0
0
0
0
0
0
0
0
0
0
0
0
0
0
0
0
0
0
0
0
0
0
0
0
0
0
0
0
0
0
0
0
0
0
0
0
0
0
0
0
0
0
0
0
0
0
0
0
0
0
0
0
0
0
0
0
0
0
0
0
0
0
0
0
0
0
0
0
0
0
0
0
0
0
0
0
0
0
0
0
0
0
0
0
0
0
0
0
0
0
0
0
0
0
0
0
0
0
0
0
0
0
0
0
0
0
0
0
0
0
0
0
0
0
0
0
0
0
0
0
0
0
0
0
0
0
0
0
0
0
0
0
0
0
0
0
0
0
0
0
0
0
0
0
0
0
0
0
0
0
0
0
0
0
0
0
0
0
0
0
0
0
0
0
0
0
0
0
0
0
0
0
0
0
0
0
0
0
0
0
0
0
0
0
0
0
0
0
0
0
0
0
0
0
0
0
0
0
0
0
0
0
0
0
0
0
0
0
0
0
0
0
0
0
0
0
0
0
0
0
0
0
0
0
0
0
0
0
0
0
0
0
0
0
0
0
0
0
0
0
0
0
0
0
0
0
0
0
0
0
0
0
0
0
0
0
0
0
0
0
0
0
0
0
0
0
0
0
0
0
0
2
2
2
2
2
2
2
0
0
0
0
0
0
0
0
0
0
0
0
0
0
0
0
0
0
0
0
0
0
0
0
0
0
0
0
0
0
0
0
0
0
0
0
0
0
0
0
0
0
0
0
0
0
0
0
0
0
0
0
0
0
0
0
0
0
0
1
1
0
0
0
0
0
0
0
0
0
0
0
0
0
0
0
0
0
0
0
0
0
0
0
0
0
0
0
0
0
0
0
0
0
0
0
0
0
0
0
0
0
0
0
1
1
0
0
0
0
0
0
0
0
0
0
0
0
0
0
0
0
0
0
0
0
0
0
0
0
0
0
0
0
0
0
0
0
0
0
0
0
0
0
0
0
0
0
0
0
0
0
0
0
0
0
0
0
0
0
0
0
0
0
0
0
0
0
0
0
0
1
1
0
0
0
0
0
0
0
0
0
0
0
0
0
0
0
0
0
0
0
0
0
0
0
0
0
0
0
0
0
0
0
0
0
TENSORS Lagrange_strain float
0.0305674 -0.00319815 8.46647e-09
-0.00319815 0.0133887 -1.68184e-07
8.46647e-09 -1.68184e-07 0.00740157

0.0291919 -0.00280096 5.37225e-08
-0.00280096 0.0335526 2.12003e-08
5.37225e-08 2.12003e-08 0.0331626

0.0300203 0.00367889 -3.73024e-08
0.00367889 0.0311687 4.42201e-08
-3.73024e-08 4.42201e-08 0.030467

0.0291611 -0.00392478 8.42112e-08
-0.00392478 0.0327978 3.14856e-08
8.42112e-08 3.14856e-08 0.0330874

0.0353659 0.00266944 -2.95046e-08
0.00266944 0.0380855 8.67835e-08
-2.95046e-08 8.67835e-08 0.0352916

0.0277344 -0.00236704 -1.02585e-07
-0.00236704 0.0333831 3.76598e-09
-1.02585e-07 3.76598e-09 0.030438

0.0302614 0.00339396 5.86929e-09
0.00339396 0.0134944 -5.62716e-08
5.86929e-09 -5.62716e-08 0.00746301

0.0317539 0.00393943 1.19589e-07
0.00393943 0.0311992 7.89772e-08
1.19589e-07 7.89772e-08 0.0315598

0.033241 0.000715367 5.20421e-08
0.000715367 0.0262207 -3.67527e-09
5.20421e-08 -3.67527e-09 0.0281412

0.035466 -0.000991021 -4.64198e-08
-0.000991021 0.0275503 -4.1778e-08
-4.64198e-08 -4.1778e-08 0.0327201

0.0280605 0.00205105 -1.54084e-07
0.00205105 0.0138087 2.60332e-07
-1.54084e-07 2.60332e-07 0.0117532

0.0279523 -0.0017657 -1.27942e-07
-0.0017657 0.0350053 -7.63346e-08
-1.27942e-07 -7.63346e-08 0.0315484

0.0311202 0.0036571 1.63935e-07
0.0036571 0.0312995 -6.1225e-08
1.63935e-07 -6.1225e-08 0.0310787

0.0290684 -0.00188008 -1.11094e-07
-0.00188008 0.0347977 -2.68809e-08
-1.11094e-07 -2.68809e-08 0.0325456

0.034631 0.00441842 4.19515e-08
0.00441842 0.0343619 -2.80913e-08
4.19515e-08 -2.80913e-08 0.0348839

0.0343264 7.30316e-05 -1.21349e-07
7.30316e-05 0.0272851 -5.07617e-08
-1.21349e-07 -5.07617e-08 0.0307775

0.0286922 -0.00235366 -1.30895e-07
-0.00235366 0.0360132 -9.49519e-08
-1.30895e-07 -9.49519e-08 0.0334492

0.0345724 -0.000353269 -5.22723e-08
-0.000353269 0.0273555 -3.43725e-08
-5.22723e-08 -3.43725e-08 0.0319762

0.0269191 0.00347799 -1.39536e-07
0.00347799 0.030944 1.56549e-07
-1.39536e-07 1.56549e-07 0.0275758

0.0338834 -0.000550309 -7.47036e-10
-0.000550309 0.0264085 1.23386e-07
-7.47036e-10 1.23386e-07 0.0301334

0.0266212 0.00113507 1.01966e-07
0.00113507 0.034033 1.24898e-07
1.01966e-07 1.24898e-07 0.0291491

0.0452949 0.000850886 1.47748e-07
0.000850886 0.0452638 5.63766e-08
1.47748e-07 5.63766e-08 0.0366375

0.0336738 0.000247482 5.66244e-08
0.000247482 0.0263146 -4.15594e-09
5.66244e-08 -4.15594e-09 0.0298042

0.0293086 -0.00363202 -5.12278e-09
-0.00363202 0.0311346 1.00548e-08
-5.12278e-09 1.00548e-08 0.0300459

0.0337785 0.000900034 -3.61917e-08
0.000900034 0.0264955 -2.57024e-07
-3.61917e-08 -2.57024e-07 0.0300803

0.0285452 0.00250766 -1.77225e-08
0.00250766 0.0338925 -2.23627e-07
-1.77225e-08 -2.23627e-07 0.0322861

0.0286288 0.000526644 6.88921e-10
0.000526644 0.0176893 -6.12081e-08
6.88921e-10 -6.12081e-08 0.0131709

0.0309132 0.00403441 1.17653e-07
0.00403441 0.0306456 4.17586e-08
1.17653e-07 4.17586e-08 0.0306099

0.0259239 0.00477621 2.17346e-07
0.00477621 0.0257322 -1.33034e-07
2.17346e-07 -1.33034e-07 0.0211274

0.0415291 0.00137013 -1.67155e-07
0.00137013 0.0383502 1.21169e-07
-1.67155e-07 1.21169e-07 0.0361345

0.0344096 0.00187123 1.39716e-07
0.00187123 0.0279516 5.7049e-08
1.39716e-07 5.7049e-08 0.0309991

0.0217591 -0.00228775 -1.60908e-07
-0.00228775 0.0299916 -2.08319e-07
-1.60908e-07 -2.08319e-07 0.0211243

0.0228628 -0.00535223 2.16651e-07
-0.00535223 0.0234724 -2.48945e-07
2.16651e-07 -2.48945e-07 0.0125786

0.0348321 0.000800937 -4.10392e-08
0.000800937 0.0422549 -9.91527e-08
-4.10392e-08 -9.91527e-08 0.0357856

0.0374529 -0.000661731 1.27657e-07
-0.000661731 0.0412026 -6.14051e-08
1.27657e-07 -6.14051e-08 0.0359002

0.0410751 0.00281316 -1.15724e-07
0.00281316 0.0359856 2.12104e-07
-1.15724e-07 2.12104e-07 0.0357658

0.0372534 0.000705414 -1.95396e-07
0.000705414 0.0432156 2.95196e-07
-1.95396e-07 2.95196e-07 0.036141

0.0402605 -0.00121855 2.32037e-07
-0.00121855 0.0378296 -1.71426e-07
2.32037e-07 -1.71426e-07 0.0358074

0.0312148 -0.00367771 -1.69433e-07
-0.00367771 0.0311221 1.24314e-10
-1.69433e-07 1.24314e-10 0.0309246

0.0227469 0.00527887 1.13553e-07
0.00527887 0.0237083 1.75338e-07
1.13553e-07 1.75338e-07 0.0125807

0.0297601 -0.0023158 -4.43826e-08
-0.0023158 0.0220303 3.73644e-08
-4.43826e-08 3.73644e-08 0.0208742

0.0376188 -0.000522775 4.95665e-08
-0.000522775 0.0430638 1.50694e-07
4.95665e-08 1.50694e-07 0.0361436

0.0412407 0.00263429 6.73494e-08
0.00263429 0.0394146 -7.92535e-08
6.73494e-08 -7.92535e-08 0.0361262

0.0342999 -0.00161716 1.68877e-09
-0.00161716 0.0279937 1.1321e-07
1.68877e-09 1.1321e-07 0.0310831

0.023105 -0.0055256 -2.1367e-07
-0.0055256 0.0235621 2.21142e-07
-2.1367e-07 2.21142e-07 0.0162156

0.0299422 -0.0023321 -7.57459e-08
-0.0023321 0.0221546 -1.66383e-07
-7.57459e-08 -1.66383e-07 0.0213435

0.0258928 0.00222734 1.09086e-07
0.00222734 0.0326531 1.09589e-07
1.09086e-07 1.09589e-07 0.0279145

0.0275498 0.00252876 8.81352e-08
0.00252876 0.0323726 -1.83988e-07
8.81352e-08 -1.83988e-07 0.02849

0.0341743 -0.00214078 -5.38776e-09
-0.00214078 0.0271063 1.06372e-07
-5.38776e-09 1.06372e-07 0.0304713

0.0229019 -0.00439223 -1.93232e-07
-0.00439223 0.0272481 2.04598e-07
-1.93232e-07 2.04598e-07 0.0198497

0.0294929 0.00247139 5.01139e-08
0.00247139 0.0218336 5.62728e-08
5.01139e-08 5.62728e-08 0.0202803

0.0298713 -0.00327082 4.238e-08
-0.00327082 0.0245128 -8.55964e-08
4.238e-08 -8.55964e-08 0.0230475

0.0344771 0.00257801 1.09428e-07
0.00257801 0.0382028 -3.3962e-08
1.09428e-07 -3.3962e-08 0.0352702

0.0286884 0.00383836 2.78089e-08
0.00383836 0.0257788 -1.28383e-07
2.78089e-08 -1.28383e-07 0.023116

0.0349278 -0.00291582 7.62869e-08
-0.00291582 0.0374319 -1.95412e-07
7.62869e-08 -1.95412e-07 0.0351886

0.0255794 -0.00545511 2.53862e-07
-0.00545511 0.0229016 -1.10073e-07
2.53862e-07 -1.10073e-07 0.0158191

0.0373465 0.000746129 1.93626e-07
0.000746129 0.0414128 8.22425e-08
1.93626e-07 8.22425e-08 0.0359206

0.023167 -0.000693229 -2.75083e-08
-0.000693229 0.0313123 2.12146e-08
-2.75083e-08 2.12146e-08 0.0231021

0.0410301 0.00137995 6.37035e-08
0.00137995 0.0377068 -8.5785e-08
6.37035e-08 -8.5785e-08 0.0358988

0.0276747 0.00280504 1.33804e-07
0.00280504 0.0327483 -2.11587e-08
1.33804e-07 -2.11587e-08 0.0302303

0.0361383 0.000784769 1.44554e-09
0.000784769 0.0281307 -7.3462e-08
1.44554e-09 -7.3462e-08 0.0336724

0.0362536 0.00153416 -1.81234e-09
0.00153416 0.0316925 -1.05664e-07
-1.81234e-09 -1.05664e-07 0.0342201

0.0286364 0.00405689 -2.04963e-07
0.00405689 0.0198969 2.15209e-08
-2.04963e-07 2.15209e-08 0.0137588

0.0309718 -0.000783668 1.39283e-07
-0.000783668 0.0370847 7.33965e-08
1.39283e-07 7.33965e-08 0.0338808

0.0315544 0.00124365 -2.48362e-08
0.00124365 0.03642 3.03447e-09
-2.48362e-08 3.03447e-09 0.0342588

0.0285481 -0.000374989 9.21757e-08
-0.000374989 0.0369552 -2.12679e-07
9.21757e-08 -2.12679e-07 0.03267

0.029602 0.00307126 -1.35919e-07
0.00307126 0.0347905 8.43507e-08
-1.35919e-07 8.43507e-08 0.0337082

0.0347184 0.00112208 1.83465e-09
0.00112208 0.0278379 4.68001e-08
1.83465e-09 4.68001e-08 0.0322078

0.0291864 -0.00369871 -2.12461e-08
-0.00369871 0.0310204 -5.191e-08
-2.12461e-08 -5.191e-08 0.0299088

0.0350538 -0.000236851 1.79743e-07
-0.000236851 0.0275791 -3.74999e-08
1.79743e-07 -3.74999e-08 0.0333924

0.0344518 -0.00254825 1.40606e-07
-0.00254825 0.0381332 6.7722e-10
1.40606e-07 6.7722e-10 0.0352603

0.0350102 0.00284958 4.47484e-08
0.00284958 0.03757 -8.47462e-08
4.47484e-08 -8.47462e-08 0.0352401

0.0218881 -0.00213162 7.4088e-08
-0.00213162 0.0299213 1.7691e-07
7.4088e-08 1.7691e-07 0.0208507

0.0347007 -0.00369093 -1.78571e-07
-0.00369093 0.0319572 6.5573e-08
-1.78571e-07 6.5573e-08 0.0330783

0.0292909 -0.00329719 -8.47376e-09
-0.00329719 0.0321117 -2.93841e-08
-8.47376e-09 -2.93841e-08 0.0304326

0.0267791 -0.00401676 -1.24936e-07
-0.00401676 0.0176049 -5.41973e-08
-1.24936e-07 -5.41973e-08 0.0127255

0.0324035 0.000418566 -3.40455e-08
0.000418566 0.0381042 1.44151e-09
-3.40455e-08 1.44151e-09 0.0344051

0.0345367 0.0038175 1.56828e-08
0.0038175 0.0309406 1.7058e-07
1.56828e-08 1.7058e-07 0.0326595

0.0283756 0.00258135 1.14685e-07
0.00258135 0.0341285 -6.72458e-09
1.14685e-07 -6.72458e-09 0.032213

0.0315408 0.0010377 -9.08683e-08
0.0010377 0.0228433 1.26801e-07
-9.08683e-08 1.26801e-07 0.0240685

0.0270966 -0.00435848 -3.42037e-08
-0.00435848 0.0237362 2.37388e-07
-3.42037e-08 2.37388e-07 0.018323

0.0362597 -0.00140306 -3.44093e-07
-0.00140306 0.0387416 -2.24421e-08
-3.44093e-07 -2.24421e-08 0.0354006

0.0315553 0.00317091 4.35651e-08
0.00317091 0.0344009 -2.80957e-08
4.35651e-08 -2.80957e-08 0.0340896

0.0273005 -0.00415593 -5.09098e-09
-0.00415593 0.0221744 -4.77047e-08
-5.09098e-09 -4.77047e-08 0.0184108

0.0303572 0.00139095 1.41494e-08
0.00139095 0.0228299 1.24363e-07
1.41494e-08 1.24363e-07 0.0209539

0.0186016 -0.00269687 1.69899e-07
-0.00269687 0.0289274 -8.14687e-08
1.69899e-07 -8.14687e-08 0.0158926

0.0271992 0.00188873 4.93377e-08
0.00188873 0.0343189 -1.67065e-09
4.93377e-08 -1.67065e-09 0.0306538

0.035381 0.00305649 1.52502e-07
0.00305649 0.0308194 6.3845e-08
1.52502e-07 6.3845e-08 0.032753

0.0226474 0.00538566 -1.98846e-07
0.00538566 0.0240879 -1.85438e-07
-1.98846e-07 -1.85438e-07 0.0161981

0.0459502 0.00223795 -3.96853e-07
0.00223795 0.0417503 2.12724e-07
-3.96853e-07 2.12724e-07 0.0366385

0.0230808 -0.000534265 1.69859e-08
-0.000534265 0.031353 5.64898e-08
1.69859e-08 5.64898e-08 0.0230719

0.0463635 -0.00225609 4.16479e-07
-0.00225609 0.0412944 -9.8993e-08
4.16479e-07 -9.8993e-08 0.0365935

0.0370646 -0.0036241 -5.11701e-08
-0.0036241 0.0334903 2.50561e-08
-5.11701e-08 2.50561e-08 0.0346202

0.0351365 0.00361916 1.35195e-07
0.00361916 0.0300034 1.27687e-07
1.35195e-07 1.27687e-07 0.0324557

0.0299611 -0.0031588 -1.69622e-07
-0.0031588 0.0246899 -2.03505e-08
-1.69622e-07 -2.03505e-08 0.0232853

0.0230118 0.0040297 5.51611e-09
0.0040297 0.0277783 2.29188e-07
5.51611e-09 2.29188e-07 0.0203815

0.0210934 -0.00137843 -1.91465e-07
-0.00137843 0.0298942 -1.24751e-07
-1.91465e-07 -1.24751e-07 0.018251

0.0287448 0.00288908 1.18728e-07
0.00288908 0.0342264 -6.01689e-09
1.18728e-07 -6.01689e-09 0.0326989

0.0370112 0.00223599 -4.95491e-08
0.00223599 0.0334514 4.59693e-08
-4.95491e-08 4.59693e-08 0.0343836

0.0281474 0.00198804 1.16103e-07
0.00198804 0.0340588 1.31886e-09
1.16103e-07 1.31886e-09 0.0308646

0.0318816 0.00207299 -1.16219e-07
0.00207299 0.0252534 8.74191e-08
-1.16219e-07 8.74191e-08 0.0256167

0.0239069 -0.00277431 -2.24645e-07
-0.00277431 0.029764 1.45637e-07
-2.24645e-07 1.45637e-07 0.0215609

0.0278979 -0.00376363 -1.17879e-07
-0.00376363 0.0218146 3.14883e-08
-1.17879e-07 3.14883e-08 0.0180754

0.0293306 -0.00323177 7.26156e-08
-0.00323177 0.0326287 -6.43012e-08
7.26156e-08 -6.43012e-08 0.032402

0.0306253 0.00361463 1.53757e-07
0.00361463 0.0322278 -7.64296e-08
1.53757e-07 -7.64296e-08 0.0323698

0.0287072 0.00304819 1.22783e-07
0.00304819 0.0340257 -2.06056e-07
1.22783e-07 -2.06056e-07 0.0326293

0.0292061 0.00172528 -3.0883e-08
0.00172528 0.0376165 -2.22514e-10
-3.0883e-08 -2.22514e-10 0.0338453

0.0344758 0.0012324 8.75384e-08
0.0012324 0.0275229 3.49437e-08
8.75384e-08 3.49437e-08 0.0306739

0.0199602 -0.000605127 1.96311e-07
-0.000605127 0.0296597 -6.28392e-09
1.96311e-07 -6.28392e-09 0.0181034

0.0297965 -0.00486293 -1.63762e-07
-0.00486293 0.0330481 1.76487e-08
-1.63762e-07 1.76487e-08 0.0337407

0.0290807 0.00359992 -1.19219e-07
0.00359992 0.0313588 -2.01995e-08
-1.19219e-07 -2.01995e-08 0.0302631

0.0181051 0.000282829 -5.09324e-08
0.000282829 0.0293097 -1.55317e-07
-5.09324e-08 -1.55317e-07 0.0168779

0.0278423 0.00442351 -1.11198e-07
0.00442351 0.0209676 9.60559e-08
-1.11198e-07 9.60559e-08 0.0174542

0.0291902 -0.00302018 9.28515e-08
-0.00302018 0.0327023 1.08703e-07
9.28515e-08 1.08703e-07 0.0321844

0.0352416 0.000759561 -1.98884e-08
0.000759561 0.0273377 8.79039e-08
-1.98884e-08 8.79039e-08 0.0325518

0.0294263 0.00351985 -1.35753e-07
0.00351985 0.0252004 1.03323e-07
-1.35753e-07 1.03323e-07 0.0231104

0.0396355 0.0017099 -1.13615e-07
0.0017099 0.0390391 -3.19816e-08
-1.13615e-07 -3.19816e-08 0.0359393

0.0283738 0.00312324 -1.22311e-07
0.00312324 0.0224008 1.99405e-07
-1.22311e-07 1.99405e-07 0.0182858

0.0394884 -0.00175068 5.71838e-08
-0.00175068 0.0390646 3.64609e-08
5.71838e-08 3.64609e-08 0.0359044

0.0232603 0.000103513 1.40301e-07
0.000103513 0.0315167 4.29096e-08
1.40301e-07 4.29096e-08 0.0231189

0.0327577 -0.000288522 -1.36866e-07
-0.000288522 0.0246592 -1.99338e-07
-1.36866e-07 -1.99338e-07 0.0269653

0.0380534 -0.00212932 7.51458e-08
-0.00212932 0.0304628 -1.33124e-07
7.51458e-08 -1.33124e-07 0.0347924

0.0292372 0.00320602 5.8236e-08
0.00320602 0.0332765 -1.37719e-07
5.8236e-08 -1.37719e-07 0.0333419

0.0289497 -0.00177274 3.11776e-08
-0.00177274 0.0366082 -2.48728e-09
3.11776e-08 -2.48728e-09 0.0334987

0.0365824 -0.0010848 1.84977e-08
-0.0010848 0.0264752 2.15688e-07
1.84977e-08 2.15688e-07 0.033859

0.0311793 -0.00292578 1.35594e-07
-0.00292578 0.0383049 1.51118e-07
1.35594e-07 1.51118e-07 0.0348427

0.0381648 -0.000884871 -1.87641e-07
-0.000884871 0.0387305 9.66093e-08
-1.87641e-07 9.66093e-08 0.0358344

0.030179 -0.00393995 4.9241e-08
-0.00393995 0.0327096 1.08935e-07
4.9241e-08 1.08935e-07 0.0327623

0.0213321 0.00146951 2.2387e-07
0.00146951 0.0296126 1.45654e-09
2.2387e-07 1.45654e-09 0.0182949

0.0293869 -0.00364551 6.71094e-08
-0.00364551 0.0253483 -2.88008e-08
6.71094e-08 -2.88008e-08 0.0231811

0.0328586 -0.00181717 2.08109e-07
-0.00181717 0.0397163 -2.5835e-07
2.08109e-07 -2.5835e-07 0.03524

0.0350898 7.64833e-05 -8.60266e-09
7.64833e-05 0.027221 8.89359e-08
-8.60266e-09 8.89359e-08 0.0332502

0.0308174 -0.00282896 -1.00365e-07
-0.00282896 0.0348902 2.18391e-07
-1.00365e-07 2.18391e-07 0.0340831

0.0295334 0.00338838 -6.01058e-08
0.00338838 0.0328704 7.6063e-08
-6.01058e-08 7.6063e-08 0.0333249

0.0264594 -0.00406313 7.58607e-08
-0.00406313 0.0272607 2.10784e-07
7.58607e-08 2.10784e-07 0.0215836

0.0371718 -0.000958388 -4.18085e-08
-0.000958388 0.0416093 -9.92885e-08
-4.18085e-08 -9.92885e-08 0.0358856

0.0227102 -0.00423746 -7.58941e-08
-0.00423746 0.0272426 1.74919e-08
-7.58941e-08 1.74919e-08 0.0168767

0.0341818 -0.00252475 -2.01891e-09
-0.00252475 0.0286054 -2.30129e-07
-2.01891e-09 -2.30129e-07 0.0310434

0.0364248 0.000289643 1.19918e-07
0.000289643 0.0294364 4.11892e-08
1.19918e-07 4.11892e-08 0.0341927

0.0396399 0.0023967 8.67789e-09
0.0023967 0.0391125 6.10714e-08
8.67789e-09 6.10714e-08 0.0358666

0.0238554 0.00260922 2.99937e-08
0.00260922 0.0301503 1.84531e-07
2.99937e-08 1.84531e-07 0.021798

0.0334297 0.00358129 -3.98956e-08
0.00358129 0.0307141 8.15832e-08
-3.98956e-08 8.15832e-08 0.0317662

0.0316416 -0.00319421 -8.23321e-08
-0.00319421 0.026551 -6.5723e-08
-8.23321e-08 -6.5723e-08 0.0269344

0.0289282 -0.00234115 -5.69073e-08
-0.00234115 0.0342338 -1.94291e-07
-5.69073e-08 -1.94291e-07 0.0326048

0.0262435 0.00450133 2.85242e-07
0.00450133 0.0245567 -4.75414e-08
2.85242e-07 -4.75414e-08 0.0180804

0.0284216 -0.00286668 3.02607e-08
-0.00286668 0.0340307 3.77516e-08
3.02607e-08 3.77516e-08 0.0324479

0.033148 0.00405857 -5.0041e-08
0.00405857 0.0304637 1.13068e-07
-5.0041e-08 1.13068e-07 0.0315412

0.0333336 -0.00331156 -1.03556e-07
-0.00331156 0.0283559 7.76313e-09
-1.03556e-07 7.76313e-09 0.0300448

0.02916 -0.00329507 -4.9107e-08
-0.00329507 0.0319864 -3.52433e-08
-4.9107e-08 -3.52433e-08 0.0304363

0.0314538 -0.00242922 -5.86528e-08
-0.00242922 0.024718 -9.99695e-08
-5.86528e-08 -9.99695e-08 0.0251553

0.0329545 -0.00246663 -5.46727e-08
-0.00246663 0.0267085 -6.24473e-08
-5.46727e-08 -6.24473e-08 0.0285955

0.0294905 -0.00334194 1.18659e-07
-0.00334194 0.0329492 -2.41136e-08
1.18659e-07 -2.41136e-08 0.0334063

0.0261329 0.00463357 2.26914e-07
0.00463357 0.0255403 9.79057e-08
2.26914e-07 9.79057e-08 0.0210916

0.0281489 0.00201675 6.0313e-08
0.00201675 0.0343345 2.57847e-10
6.0313e-08 2.57847e-10 0.0311084

0.0308857 0.00348087 3.86069e-08
0.00348087 0.0322542 -6.29102e-08
3.86069e-08 -6.29102e-08 0.0325992

0.0291562 0.00334809 1.8986e-07
0.00334809 0.0331903 -5.96477e-08
1.8986e-07 -5.96477e-08 0.0332594

0.0289831 0.00152276 -3.93808e-09
0.00152276 0.0354695 9.20152e-08
-3.93808e-09 9.20152e-08 0.0326945

0.0310513 -0.00106171 4.99226e-08
-0.00106171 0.0231406 5.92718e-08
4.99226e-08 5.92718e-08 0.0220772

0.0238831 0.00240554 -1.83101e-07
0.00240554 0.0304093 -1.13883e-07
-1.83101e-07 -1.13883e-07 0.0221122

0.0292121 -0.0032039 -1.17648e-08
-0.0032039 0.0326353 -1.62217e-08
-1.17648e-08 -1.62217e-08 0.0316174

0.0289866 0.00335659 1.70309e-08
0.00335659 0.0309316 1.32275e-07
1.70309e-08 1.32275e-07 0.0285671

0.0266117 -0.00459095 1.59978e-07
-0.00459095 0.0252296 -2.22409e-08
1.59978e-07 -2.22409e-08 0.0212559

0.026277 0.00489309 2.97757e-07
0.00489309 0.0209456 -9.82588e-08
2.97757e-07 -9.82588e-08 0.0167617

0.023502 -0.00428657 4.57498e-09
-0.00428657 0.0274634 -4.20432e-08
4.57498e-09 -4.20432e-08 0.0206256

0.0266709 -0.00402724 1.5466e-07
-0.00402724 0.0274814 -3.45907e-08
1.5466e-07 -3.45907e-08 0.0220492

0.0353641 -0.000906382 -8.96229e-08
-0.000906382 0.0273894 -6.03939e-08
-8.96229e-08 -6.03939e-08 0.0326541

0.0260442 0.00392138 1.20618e-07
0.00392138 0.0280914 1.69725e-08
1.20618e-07 1.69725e-08 0.0221018

0.0307871 0.00171659 5.47153e-08
0.00171659 0.0233595 -4.24313e-09
5.47153e-08 -4.24313e-09 0.0220248

0.0214303 0.00172203 2.10791e-07
0.00172203 0.0302396 -4.03048e-08
2.10791e-07 -4.03048e-08 0.0211321

0.0242619 -0.00288921 -7.09058e-08
-0.00288921 0.029951 -2.05661e-07
-7.09058e-08 -2.05661e-07 0.0220855

0.0313452 -0.000131054 3.70144e-08
-0.000131054 0.039273 1.83292e-07
3.70144e-08 1.83292e-07 0.0346704

0.0230576 0.000294619 1.00676e-07
0.000294619 0.0314594 6.18547e-08
1.00676e-07 6.18547e-08 0.0230616

0.0227765 0.0040012 -2.58595e-07
0.0040012 0.0281266 -1.41654e-08
-2.58595e-07 -1.41654e-08 0.0206374

0.0288877 0.00158559 -1.5926e-07
0.00158559 0.0358322 -2.08727e-08
-1.5926e-07 -2.08727e-08 0.0328931

0.0293151 -0.00358 -1.42971e-07
-0.00358 0.025129 2.50256e-08
-1.42971e-07 2.50256e-08 0.023239

0.0369764 0.00273288 -4.44464e-08
0.00273288 0.0297228 -7.65665e-08
-4.44464e-08 -7.65665e-08 0.0338013

0.0371754 0.00348299 1.03827e-07
0.00348299 0.0334222 1.6199e-08
1.03827e-07 1.6199e-08 0.0346518

0.0345433 -0.00244636 -2.1297e-08
-0.00244636 0.0285292 1.67017e-08
-2.1297e-08 1.67017e-08 0.0313784

0.0390559 -0.000265667 1.62635e-07
-0.000265667 0.0339247 3.3643e-08
1.62635e-07 3.3643e-08 0.0352079

0.0314785 -0.00418743 -1.47674e-07
-0.00418743 0.0317811 -1.78912e-08
-1.47674e-07 -1.78912e-08 0.0321558

0.0294615 0.00300747 -9.60993e-08
0.00300747 0.0223268 2.0459e-07
-9.60993e-08 2.0459e-07 0.021066

0.0302294 0.00397279 -4.85435e-08
0.00397279 0.0326627 9.72487e-08
-4.85435e-08 9.72487e-08 0.0327195

0.0302767 0.00384665 2.73135e-08
0.00384665 0.0326067 1.64199e-07
2.73135e-08 1.64199e-07 0.0326743

0.0262436 0.00396148 1.57429e-07
0.00396148 0.0277671 2.35816e-07
1.57429e-07 2.35816e-07 0.0218643

0.03445 0.00357671 7.83319e-08
0.00357671 0.0317793 8.33581e-08
7.83319e-08 8.33581e-08 0.0328311

0.0302476 0.000452252 7.04402e-08
0.000452252 0.0204279 2.89718e-08
7.04402e-08 2.89718e-08 0.0205728

0.0331851 0.00420065 -1.71365e-08
0.00420065 0.0323724 -6.83877e-08
-1.71365e-08 -6.83877e-08 0.0334834

0.0305006 -0.00165439 -5.19651e-08
-0.00165439 0.0366159 -6.35225e-09
-5.19651e-08 -6.35225e-09 0.0336625

0.0373598 0.00323301 -8.95465e-08
0.00323301 0.0334595 1.4817e-07
-8.95465e-08 1.4817e-07 0.034664

0.0307368 -0.00389597 3.0802e-08
-0.00389597 0.0322724 -7.34343e-08
3.0802e-08 -7.34343e-08 0.0326798

0.0293737 -0.000644997 8.50083e-08
-0.000644997 0.0369025 -2.13334e-07
8.50083e-08 -2.13334e-07 0.0328475

0.028812 -0.00315214 -9.31102e-08
-0.00315214 0.0221396 -1.66132e-07
-9.31102e-08 -1.66132e-07 0.0187586

0.029002 0.0038444 7.47366e-08
0.0038444 0.0255773 1.01841e-07
7.47366e-08 1.01841e-07 0.0230725

0.0217009 0.00189083 3.11657e-08
0.00189083 0.0300605 1.84488e-07
3.11657e-08 1.84488e-07 0.0210834

0.0349892 -0.000161213 1.09628e-07
-0.000161213 0.0273891 -6.04729e-08
1.09628e-07 -6.04729e-08 0.0333011

0.0344195 2.5736e-07 -9.571e-08
2.5736e-07 0.0272742 -4.89787e-08
-9.571e-08 -4.89787e-08 0.0320408

0.0291654 0.00303996 1.13917e-08
0.00303996 0.0326794 1.64812e-07
1.13917e-08 1.64812e-07 0.0321323

0.031449 0.00316638 -1.93663e-08
0.00316638 0.03425 -7.24089e-08
-1.93663e-08 -7.24089e-08 0.0340578

0.029168 -0.00320413 -1.53404e-07
-0.00320413 0.0332379 -5.21869e-08
-1.53404e-07 -5.21869e-08 0.0333786

0.0287734 -8.54193e-05 9.1776e-08
-8.54193e-05 0.0367039 1.93394e-07
9.1776e-08 1.93394e-07 0.0325253

0.0294637 0.0033756 -1.42703e-07
0.0033756 0.0330743 -9.64952e-08
-1.42703e-07 -9.64952e-08 0.0333543

0.0328589 -0.00134643 -1.40863e-08
-0.00134643 0.0253615 1.80755e-07
-1.40863e-08 1.80755e-07 0.0278285

0.0263544 -0.00425434 1.95796e-07
-0.00425434 0.0281792 1.34477e-08
1.95796e-07 1.34477e-08 0.0242672

0.0362972 -0.000331658 -5.39531e-08
-0.000331658 0.0293827 8.39548e-08
-5.39531e-08 8.39548e-08 0.0340276

0.0267804 -0.00444549 -4.13402e-08
-0.00444549 0.0251901 2.15607e-08
-4.13402e-08 2.15607e-08 0.0209488

0.0308991 0.00250711 -2.66601e-08
0.00250711 0.035063 1.04304e-07
-2.66601e-08 1.04304e-07 0.0340674

0.0351128 -0.00349695 9.01759e-09
-0.00349695 0.0303881 -2.79263e-08
9.01759e-09 -2.79263e-08 0.0326144

0.0305016 -0.00124976 -1.14976e-07
-0.00124976 0.0229781 -1.2673e-07
-1.14976e-07 -1.2673e-07 0.021478

0.0371473 -0.00307693 1.95541e-07
-0.00307693 0.0316529 -2.44013e-09
1.95541e-07 -2.44013e-09 0.0339876

0.0349685 0.000322023 3.93928e-08
0.000322023 0.0275543 -2.72409e-08
3.93928e-08 -2.72409e-08 0.0334295

0.035843 -0.00308842 -3.54455e-08
-0.00308842 0.0332574 -3.26264e-08
-3.54455e-08 -3.26264e-08 0.0341432

0.0349283 -0.00341065 -1.67286e-07
-0.00341065 0.0295946 -8.19155e-08
-1.67286e-07 -8.19155e-08 0.0321777

0.0349088 -0.00113367 1.62841e-08
-0.00113367 0.0278497 1.11343e-07
1.62841e-08 1.11343e-07 0.032341

0.0314892 -0.00306231 4.89101e-08
-0.00306231 0.0344483 7.82265e-08
4.89101e-08 7.82265e-08 0.0341462

0.0292349 -0.0040709 -5.61651e-08
-0.0040709 0.0268994 1.49885e-07
-5.61651e-08 1.49885e-07 0.0253458

0.0349924 -0.00324366 -1.43426e-07
-0.00324366 0.0299152 1.21578e-08
-1.43426e-07 1.21578e-08 0.0321948

0.0314618 0.00140916 -3.55946e-08
0.00140916 0.0233267 -8.83327e-09
-3.55946e-08 -8.83327e-09 0.0244833

0.0336642 0.00348388 -6.33724e-08
0.00348388 0.0334435 3.20813e-09
-6.33724e-08 3.20813e-09 0.0336496

0.0298922 -0.00496718 -1.28139e-09
-0.00496718 0.0330779 -1.93495e-08
-1.28139e-09 -1.93495e-08 0.0338568

0.0300428 0.0049205 8.79397e-08
0.0049205 0.0329397 -1.06507e-07
8.79397e-08 -1.06507e-07 0.0338237

0.0276876 -0.00374173 4.15066e-08
-0.00374173 0.0348067 5.26702e-13
4.15066e-08 5.26702e-13 0.0337663

0.0279251 0.0035471 7.47037e-08
0.0035471 0.0348347 9.34429e-08
7.47037e-08 9.34429e-08 0.0337312

0.0364292 -0.00115387 -1.07371e-08
-0.00115387 0.0263414 1.54562e-07
-1.07371e-08 1.54562e-07 0.0337575

0.0361981 0.00124754 -4.62391e-08
0.00124754 0.0265627 -2.29081e-16
-4.62391e-08 -2.29081e-16 0.0337203

0.0350337 -0.00130646 -6.11424e-10
-0.00130646 0.0284676 6.62704e-08
-6.11424e-10 6.62704e-08 0.0325754

0.034436 0.00425949 3.77085e-08
0.00425949 0.0342891 -7.14137e-08
3.77085e-08 -7.14137e-08 0.0348121

0.0343118 -0.00435709 2.0015e-07
-0.00435709 0.0342806 2.03341e-08
2.0015e-07 2.03341e-08 0.0348005

0.0305203 0.00209349 4.50798e-08
0.00209349 0.0381652 -3.70625e-08
4.50798e-08 -3.70625e-08 0.0348494

0.0306636 -0.00205954 -2.13872e-07
-0.00205954 0.0380948 1.78122e-08
-2.13872e-07 1.78122e-08 0.0348366

0.0395021 -0.000529062 4.09301e-08
-0.000529062 0.032849 7.71284e-08
4.09301e-08 7.71284e-08 0.0352575

0.0397046 0.000513586 -3.85423e-08
0.000513586 0.0326215 1.55662e-07
-3.85423e-08 1.55662e-07 0.0353028

0.0239647 0.00127595 2.42919e-08
0.00127595 0.0320028 -7.87694e-08
2.42919e-08 -7.87694e-08 0.025184

0.0311617 -0.00326556 -1.21834e-07
-0.00326556 0.0322408 -1.75041e-07
-1.21834e-07 -1.75041e-07 0.0328014

0.0277795 -0.00478588 9.98859e-08
-0.00478588 0.0333113 -5.8012e-08
9.98859e-08 -5.8012e-08 0.0334548

0.0333584 -0.000610221 -4.85635e-08
-0.000610221 0.0264028 1.19865e-07
-4.85635e-08 1.19865e-07 0.0284478

0.0381877 -0.00225212 -5.07448e-08
-0.00225212 0.0307942 -7.91622e-08
-5.07448e-08 -7.91622e-08 0.0348924

0.0382362 0.00218392 8.016e-08
0.00218392 0.0309071 -2.15903e-08
8.016e-08 -2.15903e-08 0.0349245

0.0360832 1.56217e-05 1.13065e-07
1.56217e-05 0.0251253 -1.58114e-07
1.13065e-07 -1.58114e-07 0.0334699

0.0242406 0.00302893 -7.52978e-08
0.00302893 0.0303971 -7.67882e-09
-7.52978e-08 -7.67882e-09 0.0242767

0.0276739 0.00475613 2.80029e-08
0.00475613 0.0333118 -6.64828e-08
2.80029e-08 -6.64828e-08 0.0333926

0.028674 -0.00307587 -7.08957e-08
-0.00307587 0.0342607 -1.94063e-07
-7.08957e-08 -1.94063e-07 0.0327519

0.0310849 0.00303549 9.64179e-10
0.00303549 0.0251463 1.10589e-07
9.64179e-10 1.10589e-07 0.0254668

0.0372274 0.00316568 -6.25243e-08
0.00316568 0.0315403 5.80071e-08
-6.25243e-08 5.80071e-08 0.0340755

0.0292263 -0.00406705 -4.43135e-08
-0.00406705 0.0269351 -1.34832e-07
-4.43135e-08 -1.34832e-07 0.025321

0.0364011 -0.000453617 -9.42561e-08
-0.000453617 0.0296912 -7.86131e-09
-9.42561e-08 -7.86131e-09 0.0341306

0.0273436 -0.00449484 3.28483e-09
-0.00449484 0.0333947 5.8992e-08
3.28483e-09 5.8992e-08 0.0334414

0.0240376 0.00107894 5.84896e-08
0.00107894 0.0322437 -1.25748e-07
5.84896e-08 -1.25748e-07 0.0255056

0.0242293 0.00282642 -1.11788e-07
0.00282642 0.0307009 3.0254e-08
-1.11788e-07 3.0254e-08 0.0245446

0.0267918 0.00459418 3.52069e-08
0.00459418 0.0240414 -1.79374e-07
3.52069e-08 -1.79374e-07 0.0182133

0.0298505 0.000199944 -9.19121e-08
0.000199944 0.0200882 -1.60859e-07
-9.19121e-08 -1.60859e-07 0.0193621

0.031908 -0.00302394 -1.49818e-07
-0.00302394 0.0341619 3.65615e-08
-1.49818e-07 3.65615e-08 0.0340353

0.0229183 0.00399944 -1.90089e-07
0.00399944 0.0276598 1.07956e-07
-1.90089e-07 1.07956e-07 0.0176528

0.0292097 0.00310099 -1.15314e-07
0.00310099 0.0327625 -2.75886e-08
-1.15314e-07 -2.75886e-08 0.0310119

0.0315943 -0.000694463 2.20413e-07
-0.000694463 0.0231597 6.39205e-08
2.20413e-07 6.39205e-08 0.0244845

0.0327609 0.00146446 1.77263e-08
0.00146446 0.0253465 7.66896e-08
1.77263e-08 7.66896e-08 0.0276126

0.0359775 5.62377e-05 9.7348e-08
5.62377e-05 0.0249583 -8.26439e-08
9.7348e-08 -8.26439e-08 0.0333859

0.0279652 -0.00380529 -4.09664e-09
-0.00380529 0.0349483 2.15586e-07
-4.09664e-09 2.15586e-07 0.0338156

0.0393145 -0.000843765 -2.75872e-07
-0.000843765 0.0416019 1.11294e-07
-2.75872e-07 1.11294e-07 0.0361898

0.0298673 0.00493914 -1.02011e-07
0.00493914 0.032956 7.49357e-08
-1.02011e-07 7.49357e-08 0.0337787

0.0302878 0.000214359 -1.27194e-07
0.000214359 0.0203966 1.59387e-08
-1.27194e-07 1.59387e-08 0.0172759

0.0266736 -0.00425034 1.22434e-07
-0.00425034 0.0281328 1.33172e-08
1.22434e-07 1.33172e-08 0.0244371

0.0277458 0.00481576 -1.18063e-07
0.00481576 0.0333145 -1.39802e-07
-1.18063e-07 -1.39802e-07 0.033455

0.0279447 -0.00145834 1.73564e-07
-0.00145834 0.0350845 -3.75541e-08
1.73564e-07 -3.75541e-08 0.0314499

0.0244647 -0.00330514 -1.10104e-07
-0.00330514 0.0300149 -4.12279e-08
-1.10104e-07 -4.12279e-08 0.0242168

0.0279903 0.00377966 -8.69631e-08
0.00377966 0.0349101 1.08189e-07
-8.69631e-08 1.08189e-07 0.0337865

0.031361 -0.00340929 1.65001e-08
-0.00340929 0.0270083 1.57228e-07
1.65001e-08 1.57228e-07 0.026991

0.0402798 0.00140914 -1.06509e-07
0.00140914 0.0406185 2.56214e-07
-1.06509e-07 2.56214e-07 0.0361702

0.0258807 0.00400274 9.05999e-08
0.00400274 0.0289541 -3.911e-08
9.05999e-08 -3.911e-08 0.0245107

0.0366774 0.00110302 1.04524e-07
0.00110302 0.0263518 6.47088e-08
1.04524e-07 6.47088e-08 0.0338974

0.0333417 0.00398409 2.31106e-08
0.00398409 0.0321153 -6.22722e-08
2.31106e-08 -6.22722e-08 0.0333154

0.0292279 0.00306733 -6.46141e-08
0.00306733 0.032605 9.66753e-08
-6.46141e-08 9.66753e-08 0.0321574

0.0343645 -0.00431109 -1.93885e-07
-0.00431109 0.0345049 8.39301e-08
-1.93885e-07 8.39301e-08 0.0348847

0.0354895 -0.00306344 -5.48638e-08
-0.00306344 0.0305898 -1.58183e-07
-5.48638e-08 -1.58183e-07 0.0327502

0.0333663 0.00138768 -1.83062e-07
0.00138768 0.0395766 -1.46125e-07
-1.83062e-07 -1.46125e-07 0.0350023

0.0291967 -0.00307902 -1.45596e-08
-0.00307902 0.0328734 2.79812e-07
-1.45596e-08 2.79812e-07 0.031383

0.0292643 -0.00123219 9.03837e-08
-0.00123219 0.0192869 -1.06173e-07
9.03837e-08 -1.06173e-07 0.016412

0.0287783 -0.00183227 -1.64723e-07
-0.00183227 0.0184138 -6.24205e-08
-1.64723e-07 -6.24205e-08 0.0161969

0.0385293 0.0022019 2.49779e-08
0.0022019 0.0332388 -6.53628e-08
2.49779e-08 -6.53628e-08 0.0347627

0.0280557 0.00294506 -1.66011e-07
0.00294506 0.032335 -5.5765e-08
-1.66011e-07 -5.5765e-08 0.0295179

0.0320669 0.00383448 4.57084e-08
0.00383448 0.0309603 1.72871e-07
4.57084e-08 1.72871e-07 0.0314542

0.0320495 8.98495e-05 7.51933e-08
8.98495e-05 0.0245767 -2.25031e-07
7.51933e-08 -2.25031e-07 0.0248879

0.0302375 0.000866042 1.85696e-07
0.000866042 0.0385808 6.86653e-08
1.85696e-07 6.86653e-08 0.0340962

0.0354016 0.00219136 -6.8543e-08
0.00219136 0.0293226 -1.00344e-07
-6.8543e-08 -1.00344e-07 0.0328581

0.0248111 -0.00333872 -1.09566e-07
-0.00333872 0.0300061 -1.45561e-07
-1.09566e-07 -1.45561e-07 0.0244699

0.0286505 -0.000337813 9.9146e-09
-0.000337813 0.0366567 1.85526e-07
9.9146e-09 1.85526e-07 0.0323956

0.0252151 0.00174007 -2.97944e-08
0.00174007 0.0320295 -8.04299e-08
-2.97944e-08 -8.04299e-08 0.0256838

0.0332803 -0.00390947 1.27579e-07
-0.00390947 0.0304967 -1.47131e-07
1.27579e-07 -1.47131e-07 0.0315922

0.0290647 -0.00389574 2.96153e-08
-0.00389574 0.0282 7.94244e-09
2.96153e-08 7.94244e-09 0.0257134

0.0261489 0.00409864 -9.93696e-08
0.00409864 0.0285462 -2.17488e-07
-9.93696e-08 -2.17488e-07 0.024318

0.0452873 -0.00201728 -1.38159e-07
-0.00201728 0.0396055 -1.51504e-07
-1.38159e-07 -1.51504e-07 0.0363668

0.0316666 0.000256384 6.5489e-08
0.000256384 0.0393264 -1.15855e-07
6.5489e-08 -1.15855e-07 0.0347689

0.0306165 0.00265113 -3.51066e-08
0.00265113 0.038443 3.99537e-08
-3.51066e-08 3.99537e-08 0.0349575

0.0387658 0.00209508 1.37079e-07
0.00209508 0.0302216 3.59845e-08
1.37079e-07 3.59845e-08 0.0349424

0.0313709 -0.00345051 1.627e-08
-0.00345051 0.0321402 -9.58099e-08
1.627e-08 -9.58099e-08 0.0325725

0.0318174 0.00233599 1.4006e-08
0.00233599 0.0256201 9.14637e-08
1.4006e-08 9.14637e-08 0.0258795

0.0349937 -0.00070874 -2.5522e-07
-0.00070874 0.0415753 -6.12176e-09
-2.5522e-07 -6.12176e-09 0.0357275

0.0357879 -0.00251871 2.95626e-08
-0.00251871 0.0295499 8.07167e-08
2.95626e-08 8.07167e-08 0.0332578

0.0332971 -0.00203958 -4.56247e-08
-0.00203958 0.0266525 -3.9305e-08
-4.56247e-08 -3.9305e-08 0.0286752

0.025252 0.00151083 -1.43798e-08
0.00151083 0.032274 -1.28505e-07
-1.43798e-08 -1.28505e-07 0.0259499

0.0268043 -0.00334467 1.72149e-07
-0.00334467 0.0300092 -3.12566e-08
1.72149e-07 -3.12566e-08 0.0251871

0.0364772 -0.00336028 8.58862e-08
-0.00336028 0.0352875 2.11017e-07
8.58862e-08 2.11017e-07 0.0347421

0.0284754 0.0041522 -3.75985e-09
0.0041522 0.0277157 -1.88229e-07
-3.75985e-09 -1.88229e-07 0.0254676

0.0372435 -0.00334552 -3.18543e-08
-0.00334552 0.0333219 8.2998e-08
-3.18543e-08 8.2998e-08 0.0346114

0.0322059 0.000337894 8.66442e-08
0.000337894 0.0248624 -1.96391e-07
8.66442e-08 -1.96391e-07 0.0254374

0.0191609 -0.00368904 4.4169e-08
-0.00368904 0.0275255 2.63008e-07
4.4169e-08 2.63008e-07 0.0163107

0.0292096 -0.00380357 -1.28798e-07
-0.00380357 0.0281924 -9.13913e-09
-1.28798e-07 -9.13913e-09 0.0258075

0.0230457 0.00412731 -2.08978e-07
0.00412731 0.02802 -1.57773e-07
-2.08978e-07 -1.57773e-07 0.017592

0.0296908 -0.00155939 1.32764e-07
-0.00155939 0.0375338 7.49466e-08
1.32764e-07 7.49466e-08 0.0336483

0.0243599 -0.00179362 5.45821e-09
-0.00179362 0.0318719 -2.96109e-08
5.45821e-09 -2.96109e-08 0.0254477

0.0424367 -0.00323434 -7.83221e-08
-0.00323434 0.0423764 -6.16672e-08
-7.83221e-08 -6.16672e-08 0.0363751

0.0263364 0.00309086 4.69385e-08
0.00309086 0.0307011 3.03253e-08
4.69385e-08 3.03253e-08 0.0254776

0.0334768 -0.00432359 3.64299e-07
-0.00432359 0.032659 1.20084e-07
3.64299e-07 1.20084e-07 0.0335661

0.0240803 -0.00155077 4.78583e-08
-0.00155077 0.0318868 3.43216e-09
4.78583e-08 3.43216e-09 0.0251765

0.0362222 -0.00253875 4.53927e-08
-0.00253875 0.0295108 -1.80732e-09
4.53927e-08 -1.80732e-09 0.033519

0.026673 0.00310451 -2.29914e-07
0.00310451 0.0303941 -5.21492e-09
-2.29914e-07 -5.21492e-09 0.0253129

0.0343424 -0.000654047 6.38133e-08
-0.000654047 0.0272764 -1.82003e-08
6.38133e-08 -1.82003e-08 0.0305772

0.0188902 -0.00387143 1.29596e-07
-0.00387143 0.0298012 6.50804e-08
1.29596e-07 6.50804e-08 0.0129611

0.0279987 0.00275444 -1.25003e-07
0.00275444 0.0326286 2.48298e-07
-1.25003e-07 2.48298e-07 0.0305731

0.031437 -0.00251232 4.01633e-08
-0.00251232 0.0247219 -1.50386e-08
4.01633e-08 -1.50386e-08 0.0254055

0.0391182 -0.00286939 -2.76669e-07
-0.00286939 0.0322211 -1.09512e-07
-2.76669e-07 -1.09512e-07 0.0349364

0.0287526 0.00412393 -1.59932e-08
0.00412393 0.0272993 -5.57238e-08
-1.59932e-08 -5.57238e-08 0.025255

0.0313605 -0.00391909 3.94845e-08
-0.00391909 0.0285414 1.22992e-07
3.94845e-08 1.22992e-07 0.0287303

0.0354074 0.0027639 2.74407e-07
0.0027639 0.0308551 5.19225e-08
2.74407e-07 5.19225e-08 0.0330386

0.029772 -0.00370346 -5.0554e-08
-0.00370346 0.0329369 1.22115e-08
-5.0554e-08 1.22115e-08 0.0333416

0.0270546 -0.00341014 5.29527e-08
-0.00341014 0.0299819 -1.33205e-07
5.29527e-08 -1.33205e-07 0.0253968

0.0284401 0.00377104 -9.95758e-08
0.00377104 0.028939 -4.45259e-08
-9.95758e-08 -4.45259e-08 0.0258866

0.0313704 0.00341315 -1.10955e-07
0.00341315 0.0268986 1.40677e-07
-1.10955e-07 1.40677e-07 0.0269653

0.0365351 -0.00194429 3.40075e-08
-0.00194429 0.0306245 -2.59794e-08
3.40075e-08 -2.59794e-08 0.0336348

0.0255329 -0.00216315 -5.52268e-08
-0.00216315 0.0318006 -3.47811e-08
-5.52268e-08 -3.47811e-08 0.025853

0.0346985 -0.00231382 5.92717e-10
-0.00231382 0.0283334 6.62818e-08
5.92717e-10 6.62818e-08 0.031455

0.0341849 0.00222288 1.17227e-07
0.00222288 0.027431 1.00286e-07
1.17227e-07 1.00286e-07 0.0306029

0.0336442 -0.00124581 7.56954e-08
-0.00124581 0.0392987 1.82884e-07
7.56954e-08 1.82884e-07 0.0349265

0.0320711 -0.00174669 1.45776e-07
-0.00174669 0.0253296 1.87047e-07
1.45776e-07 1.87047e-07 0.0258703

0.025001 7.97495e-05 -2.49888e-08
7.97495e-05 0.0331502 1.43951e-09
-2.49888e-08 1.43951e-09 0.0268603

0.0332462 0.00242863 -5.01783e-08
0.00242863 0.0271927 -3.2492e-08
-5.01783e-08 -3.2492e-08 0.0289211

0.0311165 0.00359878 -7.17385e-09
0.00359878 0.0272919 9.43322e-08
-7.17385e-09 9.43322e-08 0.0271217

0.0252947 -0.00204102 -8.74893e-08
-0.00204102 0.0318635 3.13346e-10
-8.74893e-08 3.13346e-10 0.0256102

0.0252003 -0.00015461 -2.79706e-09
-0.00015461 0.0332905 -3.17006e-08
-2.79706e-09 -3.17006e-08 0.0271432

0.0354121 0.00385791 5.81336e-08
0.00385791 0.0329947 -6.79522e-08
5.81336e-08 -6.79522e-08 0.0338945

0.0275847 -0.00143103 -4.1853e-08
-0.00143103 0.0353404 -9.45231e-08
-4.1853e-08 -9.45231e-08 0.031441

0.0312329 -0.0034837 -7.32717e-08
-0.0034837 0.0269764 -1.36142e-07
-7.32717e-08 -1.36142e-07 0.0270089

0.0312955 0.00277242 -1.27599e-07
0.00277242 0.0249214 1.11596e-07
-1.27599e-07 1.11596e-07 0.0252453

0.0345817 0.00311827 7.37989e-09
0.00311827 0.0293857 -1.02991e-07
7.37989e-09 -1.02991e-07 0.0317948

0.0279903 0.000716496 2.26941e-08
0.000716496 0.036038 4.19085e-08
2.26941e-08 4.19085e-08 0.0318171

0.0287156 0.00378116 8.25032e-08
0.00378116 0.0285582 -2.21543e-07
8.25032e-08 -2.21543e-07 0.025727

0.0367893 0.00305724 -1.46911e-08
0.00305724 0.0361246 2.25251e-07
-1.46911e-08 2.25251e-07 0.0349061

0.0226794 -0.00754497 2.1188e-07
-0.00754497 0.0186872 -3.488e-07
2.1188e-07 -3.488e-07 0.0108448

0.03329 -0.00328723 -4.99674e-08
-0.00328723 0.0286315 1.15869e-07
-4.99674e-08 1.15869e-07 0.030123

0.0207261 0.000913265 -8.21737e-08
0.000913265 0.0300301 -4.13722e-08
-8.21737e-08 -4.13722e-08 0.0183458

0.0312991 -0.00378146 -1.08854e-07
-0.00378146 0.0292301 -1.42245e-07
-1.08854e-07 -1.42245e-07 0.0290305

0.00153952 -0.00651859 -1.1121e-08
-0.00651859 0.0275675 4.87245e-08
-1.1121e-08 4.87245e-08 0.00290823

0.00146992 0.00636819 1.26282e-08
0.00636819 0.0275856 5.53278e-08
1.26282e-08 5.53278e-08 0.00300118

0.0119843 0.0145046 -7.1987e-08
0.0145046 0.017532 -9.02688e-08
-7.1987e-08 -9.02688e-08 0.00277111

0.0121656 -0.0144953 -7.55449e-08
-0.0144953 0.0172235 9.47304e-08
-7.55449e-08 9.47304e-08 0.00280372

0.02934 -0.000164084 -8.56795e-08
-0.000164084 0 0
-8.56795e-08 0 0.00295253

0.0235915 -0.0112823 1.44989e-07
-0.0112823 0.00539531 -6.98232e-08
1.44989e-07 -6.98232e-08 0.00297823

0.0236335 0.0113486 -4.29575e-08
0.0113486 0.00544942 -2.06872e-08
-4.29575e-08 -2.06872e-08 0.00303939

0.0369096 0.00191119 -2.2928e-07
0.00191119 0.0302413 -9.27921e-08
-2.2928e-07 -9.27921e-08 0.0338769

0.0387049 0.00340982 1.19095e-08
0.00340982 0.036617 -8.60868e-08
1.19095e-08 -8.60868e-08 0.0355777

0.0344143 0.00087238 8.16821e-08
0.00087238 0.027456 3.44203e-08
8.16821e-08 3.44203e-08 0.031687

0.0328721 0.00285008 -1.46211e-07
0.00285008 0.0268885 1.40591e-07
-1.46211e-07 1.40591e-07 0.0286455

0.0256999 0.00231314 -8.23842e-08
0.00231314 0.0323658 -1.86735e-07
-8.23842e-08 -1.86735e-07 0.0276348

0.0307118 0.00376905 1.78094e-07
0.00376905 0.0276752 -1.8006e-07
1.78094e-07 -1.8006e-07 0.0271169

0.0333045 -0.00390315 2.04501e-07
-0.00390315 0.0304647 -3.63803e-08
2.04501e-07 -3.63803e-08 0.0316291

0.0309723 0.00365438 3.241e-10
0.00365438 0.027286 -5.55878e-08
3.241e-10 -5.55878e-08 0.0269246

0.0249864 -0.000371522 4.81188e-08
-0.000371522 0.0331213 3.78417e-09
4.81188e-08 3.78417e-09 0.0268425

0.0385475 -0.00348458 -2.3004e-07
-0.00348458 0.0368801 -5.50711e-08
-2.3004e-07 -5.50711e-08 0.0355833

0.0251749 -0.000635579 4.7796e-09
-0.000635579 0.0332091 -3.10566e-08
4.7796e-09 -3.10566e-08 0.0271021

0.036017 0.00304739 6.74693e-09
0.00304739 0.0330104 6.92866e-08
6.74693e-09 6.92866e-08 0.0340973

0.0296222 0.00347559 7.59374e-08
0.00347559 0.0248458 9.96282e-08
7.59374e-08 9.96282e-08 0.0230222

0.0304954 -0.0017138 -2.56399e-08
-0.0017138 0.0375117 2.09905e-07
-2.56399e-08 2.09905e-07 0.0347359

0.0339191 0.0018044 1.26403e-07
0.0018044 0.0271809 -3.08718e-08
1.26403e-07 -3.08718e-08 0.0303197

0.0312004 -0.00392027 -8.01619e-08
-0.00392027 0.0285304 -1.24994e-07
-8.01619e-08 -1.24994e-07 0.0286138

0.0315828 -0.00322127 1.32216e-08
-0.00322127 0.026691 3.02697e-08
1.32216e-08 3.02697e-08 0.0270471

0.0384791 -0.00214128 -1.55872e-07
-0.00214128 0.0334165 -1.53767e-07
-1.55872e-07 -1.53767e-07 0.0347443

0.0326801 0.0036639 -1.98078e-07
0.0036639 0.0292316 -1.05758e-07
-1.98078e-07 -1.05758e-07 0.0301543

0.0326438 0.00313746 -1.00706e-07
0.00313746 0.0272519 9.06825e-08
-1.00706e-07 9.06825e-08 0.0287873

0.0269545 -0.000365031 -1.23076e-08
-0.000365031 0.0349868 2.48653e-07
-1.23076e-08 2.48653e-07 0.0301674

0.0258991 0.00076595 6.89585e-08
0.00076595 0.0340033 1.23476e-07
6.89585e-08 1.23476e-07 0.0288225

0.0327776 0.000345375 1.19261e-07
0.000345375 0.0248612 -1.94793e-07
1.19261e-07 -1.94793e-07 0.0274432

0.0313865 -0.000944847 1.35262e-07
-0.000944847 0.0230034 -1.15874e-07
1.35262e-07 -1.15874e-07 0.0238916

0.0308798 0.00398515 2.70472e-09
0.00398515 0.0288054 -5.13246e-08
2.70472e-09 -5.13246e-08 0.0286236

0.0331172 -0.00343129 1.71e-07
-0.00343129 0.0285399 -1.22656e-07
1.71e-07 -1.22656e-07 0.0299687

0.0364121 -0.00282346 -3.87565e-08
-0.00282346 0.0327325 -2.16872e-07
-3.87565e-08 -2.16872e-07 0.0341436

0.0292055 -0.0041275 -4.49808e-08
-0.0041275 0.0291917 -1.37583e-07
-4.49808e-08 -1.37583e-07 0.0277533

0.0269714 -0.00362044 1.3069e-07
-0.00362044 0.0304642 3.85119e-08
1.3069e-07 3.85119e-08 0.0272129

0.0283258 0.00389941 -3.29306e-08
0.00389941 0.0299006 8.81722e-08
-3.29306e-08 8.81722e-08 0.0277515

0.0259008 -0.00124895 7.33323e-08
-0.00124895 0.033613 -3.58892e-08
7.33323e-08 -3.58892e-08 0.0285154

0.026654 -0.000202027 -1.94591e-08
-0.000202027 0.0349125 -2.07268e-07
-1.94591e-08 -2.07268e-07 0.0299193

0.0277619 0.000753006 -1.07308e-07
0.000753006 0.0360375 4.28862e-08
-1.07308e-07 4.28862e-08 0.0316576

0.0262466 -0.00274944 -1.4976e-07
-0.00274944 0.0319622 1.05973e-07
-1.4976e-07 1.05973e-07 0.0277101

0.0345821 0.00317568 2.69007e-09
0.00317568 0.029168 -9.41444e-08
2.69007e-09 -9.41444e-08 0.0316339

0.0339087 -0.0012609 6.37539e-08
-0.0012609 0.0269297 -1.8285e-08
6.37539e-08 -1.8285e-08 0.0302011

0.0257898 0.000974207 -7.23697e-08
0.000974207 0.0338287 -8.31262e-08
-7.23697e-08 -8.31262e-08 0.0285414

0.0278235 -0.00126984 -8.61058e-08
-0.00126984 0.0353962 -1.03549e-07
-8.61058e-08 -1.03549e-07 0.0313654

0.0272925 -0.00213707 3.55372e-09
-0.00213707 0.0336563 2.79378e-09
3.55372e-09 2.79378e-09 0.0302251

0.0327763 -0.00107705 -1.3983e-07
-0.00107705 0.0253195 4.77387e-08
-1.3983e-07 4.77387e-08 0.0272538

0.0333143 -0.00427114 -1.02252e-07
-0.00427114 0.0323798 -7.36389e-08
-1.02252e-07 -7.36389e-08 0.0335286

0.0264882 0.0012197 -1.4545e-07
0.0012197 0.0338347 -8.4067e-08
-1.4545e-07 -8.4067e-08 0.0288155

0.0398112 -0.00243166 5.26395e-08
-0.00243166 0.0352181 2.12329e-07
5.26395e-08 2.12329e-07 0.0354606

0.0188884 0.00316448 -2.68705e-08
0.00316448 0.0278754 -1.40428e-07
-2.68705e-08 -1.40428e-07 0.0162725

0.0338152 -0.00352245 -4.08229e-08
-0.00352245 0.0334942 2.42317e-08
-4.08229e-08 2.42317e-08 0.0337256

0.0353435 -0.00399937 -6.69776e-08
-0.00399937 0.033046 -1.4389e-07
-6.69776e-08 -1.4389e-07 0.0339035

0.0266853 -9.06805e-05 3.10966e-09
-9.06805e-05 0.0349176 -2.06752e-07
3.10966e-09 -2.06752e-07 0.0299274

0.0332421 -0.00217624 2.527e-08
-0.00217624 0.0271524 1.00467e-07
2.527e-08 1.00467e-07 0.0289021

0.029347 0.00168467 -2.34658e-08
0.00168467 0.035819 -2.88288e-08
-2.34658e-08 -2.88288e-08 0.0328792

0.0132073 -0.000379115 1.47081e-07
-0.000379115 0.0283616 6.03259e-08
1.47081e-07 6.03259e-08 0.0111516

0.0271132 0.00186844 -9.93597e-08
0.00186844 0.0340608 3.04021e-09
-9.93597e-08 3.04021e-09 0.0303056

0.0311084 -0.00385847 3.20792e-08
-0.00385847 0.0291535 1.01308e-07
3.20792e-08 1.01308e-07 0.0288058

0.0186195 0.00320448 5.81546e-08
0.00320448 0.0301389 9.41047e-08
5.81546e-08 9.41047e-08 0.0131266

0.0426002 0.00351784 1.49729e-07
0.00351784 0.0418486 2.32728e-07
1.49729e-07 2.32728e-07 0.0364799

0.043206 -0.003749 4.62607e-08
-0.003749 0.0414175 -8.43319e-08
4.62607e-08 -8.43319e-08 0.0364623

0.0310645 -0.00399068 -1.8234e-07
-0.00399068 0.0304703 -2.69712e-08
-1.8234e-07 -2.69712e-08 0.0304604

0.0289215 -0.00406387 -2.62886e-08
-0.00406387 0.0291499 1.00659e-07
-2.62886e-08 1.00659e-07 0.0275937

0.0330502 0.00272664 -9.50227e-08
0.00272664 0.0275278 8.15918e-08
-9.50227e-08 8.15918e-08 0.0290748

0.032779 0.00195997 -9.16753e-08
0.00195997 0.0255905 8.76606e-08
-9.16753e-08 8.76606e-08 0.0278221

0.0464016 0.000419543 4.16889e-07
0.000419543 0.046356 -4.72623e-08
4.16889e-07 -4.72623e-08 0.0366941

0.0469203 -0.000951746 -3.74311e-07
-0.000951746 0.0457693 8.01318e-08
-3.74311e-07 8.01318e-08 0.0367653

0.0347989 0.000638326 -3.28051e-08
0.000638326 0.0275723 1.33976e-07
-3.28051e-08 1.33976e-07 0.0322158

0.0277511 0.000882188 -8.9601e-08
0.000882188 0.03557 -1.37207e-08
-8.9601e-08 -1.37207e-08 0.0313479

0.027607 0.000882706 1.20749e-07
0.000882706 0.0355702 -7.71061e-09
1.20749e-07 -7.71061e-09 0.031244

0.0234584 0.00739974 -3.52947e-07
0.00739974 0.0183015 -6.49834e-09
-3.52947e-07 -6.49834e-09 0.0109013

0.0272466 -0.00367537 -1.366e-08
-0.00367537 0.0303462 -3.42694e-08
-1.366e-08 -3.42694e-08 0.0273188

0.0365658 0.00239134 -3.22511e-07
0.00239134 0.0295753 2.65353e-08
-3.22511e-07 2.65353e-08 0.0337837

0.0332731 0.00124748 8.65476e-08
0.00124748 0.0265034 -2.55253e-07
8.65476e-08 -2.55253e-07 0.0284311

0.0291517 -0.00349235 -6.94155e-08
-0.00349235 0.0304704 2.1885e-08
-6.94155e-08 2.1885e-08 0.0281725

0.0328099 -0.00264759 -2.08928e-08
-0.00264759 0.0267272 2.91973e-08
-2.08928e-08 2.91973e-08 0.028586

0.0224596 0.00761254 1.44935e-07
0.00761254 0.01859 -3.00532e-07
1.44935e-07 -3.00532e-07 0.0109037

0.0331442 0.00410242 -3.91173e-08
0.00410242 0.0326374 8.28121e-08
-3.91173e-08 8.28121e-08 0.0331809

0.0258895 -0.00257815 -1.41573e-08
-0.00257815 0.0320233 -1.20378e-07
-1.41573e-08 -1.20378e-07 0.0275067

0.0324813 0.00378574 -1.40983e-07
0.00378574 0.0292673 -1.8326e-07
-1.40983e-07 -1.8326e-07 0.0301461

0.0268152 -0.00054369 -1.20666e-08
-0.00054369 0.0349517 2.48671e-07
-1.20666e-08 2.48671e-07 0.0301371

0.0269891 0.00256325 4.71982e-08
0.00256325 0.0324475 1.23508e-07
4.71982e-08 1.23508e-07 0.0282856

0.0305253 0.00399107 1.92457e-07
0.00399107 0.0293224 -1.52025e-07
1.92457e-07 -1.52025e-07 0.0287743

0.0276081 -0.00293702 7.16785e-08
-0.00293702 0.0318528 1.45324e-07
7.16785e-08 1.45324e-07 0.0282482

0.029455 -0.00357577 1.64854e-08
-0.00357577 0.0303499 -3.2357e-08
1.64854e-08 -3.2357e-08 0.0283042

0.0181372 0.00142537 -4.99845e-08
0.00142537 0.0280355 -1.00077e-07
-4.99845e-08 -1.00077e-07 0.0131272

0.0234732 -0.00429385 -1.96412e-07
-0.00429385 0.0275552 2.69897e-07
-1.96412e-07 2.69897e-07 0.0177228

0.0262047 -0.00152612 -8.0878e-08
-0.00152612 0.0336228 9.33708e-08
-8.0878e-08 9.33708e-08 0.028751

0.033023 0.00347475 -1.4202e-07
0.00347475 0.0288768 -3.9054e-08
-1.4202e-07 -3.9054e-08 0.030068

0.0303207 0.00385739 -2.0877e-08
0.00385739 0.0298859 8.90919e-08
-2.0877e-08 8.90919e-08 0.0289895

0.0274136 -0.00280048 5.028e-08
-0.00280048 0.031983 -1.1577e-07
5.028e-08 -1.1577e-07 0.0281382

0.0265538 -0.00154075 2.99559e-08
-0.00154075 0.0335814 -3.81167e-08
2.99559e-08 -3.81167e-08 0.0287454

0.0309554 0.00371811 2.69013e-08
0.00371811 0.0295624 -9.88483e-08
2.69013e-08 -9.88483e-08 0.0289403

0.0267584 -0.00181596 -1.62312e-07
-0.00181596 0.0334733 7.59597e-08
-1.62312e-07 7.59597e-08 0.0289534

0.0191655 0.00355444 7.84654e-08
0.00355444 0.0276071 1.38058e-07
7.84654e-08 1.38058e-07 0.0162917

0.0308726 -0.000534649 -1.54542e-08
-0.000534649 0.0388185 7.33192e-08
-1.54542e-08 7.33192e-08 0.0342935

0.0286557 0.00404762 1.53694e-07
0.00404762 0.0295175 -1.12909e-07
1.53694e-07 -1.12909e-07 0.0277137

0.0355791 0.00197482 -6.9193e-08
0.00197482 0.0295022 -9.90999e-08
-6.9193e-08 -9.90999e-08 0.0328417

0.0362583 -0.00211461 -8.19922e-08
-0.00211461 0.0297545 -7.65474e-08
-8.19922e-08 -7.65474e-08 0.033217

0.0285095 -0.00309553 6.36017e-08
-0.00309553 0.0185685 -2.32668e-07
6.36017e-08 -2.32668e-07 0.0157294

0.0283525 -0.00278994 2.4784e-07
-0.00278994 0.0327745 1.86386e-07
2.4784e-07 1.86386e-07 0.0305706

0.0291903 0.00350077 1.51725e-07
0.00350077 0.0315987 -5.71812e-08
1.51725e-07 -5.71812e-08 0.0304865

0.0349586 -0.00290796 -1.87128e-07
-0.00290796 0.0376745 9.67057e-08
-1.87128e-07 9.67057e-08 0.0352352

0.0394597 0.00188524 1.17753e-07
0.00188524 0.0446079 1.76239e-07
1.17753e-07 1.76239e-07 0.0364321

0.0449431 0.00129037 -1.03183e-07
0.00129037 0.0391156 6.12598e-08
-1.03183e-07 6.12598e-08 0.0364141

0.0355591 0.00434538 -3.19981e-08
0.00434538 0.035134 4.12412e-08
-3.19981e-08 4.12412e-08 0.0350025

0.0265709 0.00338766 6.79935e-08
0.00338766 0.0310052 6.85047e-08
6.79935e-08 6.85047e-08 0.0272549

0.0330386 0.00349699 -1.85689e-07
0.00349699 0.028666 7.07448e-08
-1.85689e-07 7.07448e-08 0.0300491

0.0220592 0.00576409 -1.39858e-07
0.00576409 0.0242367 2.93924e-08
-1.39858e-07 2.93924e-08 0.0160719

0.0386177 -0.00151233 3.45177e-07
-0.00151233 0.0444325 1.3171e-07
3.45177e-07 1.3171e-07 0.0363613

0.046048 -0.000463477 4.91403e-08
-0.000463477 0.0454374 2.03117e-07
4.91403e-08 2.03117e-07 0.0366902

0.0451791 -3.19451e-05 -2.07749e-07
-3.19451e-05 0.046301 7.48697e-07
-2.07749e-07 7.48697e-07 0.0366722

0.0176404 -0.00679463 -5.38696e-08
-0.00679463 0.0231076 -3.01428e-07
-5.38696e-08 -3.01428e-07 0.0107382

0.0392911 -0.00155602 1.70823e-07
-0.00155602 0.038714 1.45237e-08
1.70823e-07 1.45237e-08 0.0358527

0.0383961 0.00117668 -3.41068e-07
0.00117668 0.0415173 -1.02463e-07
-3.41068e-07 -1.02463e-07 0.0361241

0.0331738 -0.00343556 1.39601e-07
-0.00343556 0.0282187 -1.95089e-07
1.39601e-07 -1.95089e-07 0.0299026

0.0318437 0.000140299 1.18899e-07
0.000140299 0.0386713 5.96755e-08
1.18899e-07 5.96755e-08 0.0344495

0.0285759 -0.00265996 2.04626e-08
-0.00265996 0.0333794 6.54105e-10
2.04626e-08 6.54105e-10 0.0315883

0.0356614 0.000831763 -1.97935e-07
0.000831763 0.0273767 1.01316e-08
-1.97935e-07 1.01316e-08 0.0329991

0.028875 0.00204425 -7.20472e-09
0.00204425 0.0368157 1.27345e-07
-7.20472e-09 1.27345e-07 0.0336687

0.0298686 0.000946592 -3.18682e-08
0.000946592 0.0373874 1.11726e-07
-3.18682e-08 1.11726e-07 0.0333626

0.0344006 0.00268492 5.26473e-08
0.00268492 0.0288506 4.04708e-08
5.26473e-08 4.04708e-08 0.0312253

0.0132788 -0.000409262 -4.90011e-08
-0.000409262 0.0281221 5.18164e-08
-4.90011e-08 5.18164e-08 0.011201

0.0309638 -0.00362581 1.13192e-07
-0.00362581 0.0309146 -1.317e-08
1.13192e-07 -1.317e-08 0.0306086

0.0329271 -0.00344325 1.34349e-07
-0.00344325 0.0320197 2.15844e-07
1.34349e-07 2.15844e-07 0.0325783

0.0335703 -0.00415935 2.6334e-07
-0.00415935 0.0325341 -2.69541e-07
2.6334e-07 -2.69541e-07 0.0337348

0.0265614 0.00414853 1.08321e-07
0.00414853 0.0176911 3.36187e-08
1.08321e-07 3.36187e-08 0.0126048

0.0388279 -0.00269617 2.43766e-07
-0.00269617 0.0395751 -1.41715e-07
2.43766e-07 -1.41715e-07 0.0359575

0.0230821 0.00692055 -2.99369e-07
0.00692055 0.0255013 -1.84293e-07
-2.99369e-07 -1.84293e-07 0.0126091

0.0308739 -0.0028174 -2.27304e-07
-0.0028174 0.0348067 -2.88485e-12
-2.27304e-07 -2.88485e-12 0.0339553

0.0354111 0.00193662 1.18127e-07
0.00193662 0.0284648 8.63121e-08
1.18127e-07 8.63121e-08 0.0323437

0.03182 -0.00189321 1.12468e-08
-0.00189321 0.02495 8.81727e-08
1.12468e-08 8.81727e-08 0.0253947

0.0292915 0.00315917 3.75967e-08
0.00315917 0.032731 2.77085e-07
3.75967e-08 2.77085e-07 0.0312787

0.0344358 0.00268889 9.8723e-08
0.00268889 0.0286336 -6.88921e-08
9.8723e-08 -6.88921e-08 0.0312199

0.0325179 0.00149888 -3.98119e-08
0.00149888 0.0403731 -1.00507e-07
-3.98119e-08 -1.00507e-07 0.0353357

0.0319395 -0.00415434 -3.73602e-08
-0.00415434 0.0312007 6.62982e-08
-3.73602e-08 6.62982e-08 0.0318097

0.0396756 0.0026555 9.33935e-09
0.0026555 0.0331976 7.57069e-08
9.33935e-09 7.57069e-08 0.0353152

0.0279708 -0.00241835 1.64985e-08
-0.00241835 0.0335501 4.84692e-09
1.64985e-08 4.84692e-09 0.0304697

0.0293501 0.000558346 -5.18117e-08
0.000558346 0.037311 1.09602e-07
-5.18117e-08 1.09602e-07 0.0332518

0.0419426 0.00133736 -7.4295e-08
0.00133736 0.0370997 -7.4962e-08
-7.4295e-08 -7.4962e-08 0.0361155

0.0420973 -0.0011479 -6.15888e-09
-0.0011479 0.0373255 -3.19261e-08
-6.15888e-09 -3.19261e-08 0.0360973

0.0283822 0.00236903 -1.67082e-07
0.00236903 0.0181812 7.48384e-08
-1.67082e-07 7.48384e-08 0.0159494

0.0350253 0.00106139 -2.52739e-07
0.00106139 0.0285652 1.07383e-07
-2.52739e-07 1.07383e-07 0.0330581

0.0128667 0.000923428 -4.43456e-08
0.000923428 0.0316259 1.80849e-08
-4.43456e-08 1.80849e-08 0.00612157

0.0131623 -0.00138812 1.43757e-07
-0.00138812 0.0321318 -6.11348e-08
1.43757e-07 -6.11348e-08 0.00611189

0.0152685 0.0071541 -1.07272e-07
0.0071541 0.0284526 3.33906e-08
-1.07272e-07 3.33906e-08 0.00598401

0.0347637 -0.00382114 -1.19996e-07
-0.00382114 0.031267 1.73062e-07
-1.19996e-07 1.73062e-07 0.0329383

0.0155805 -0.00619419 9.90609e-08
-0.00619419 0.0261522 -3.6402e-07
9.90609e-08 -3.6402e-07 0.0104717

0.0155126 -0.00708672 -1.51037e-07
-0.00708672 0.0274232 -1.73989e-07
-1.51037e-07 -1.73989e-07 0.00591382

0.0284256 0.0034256 -1.82676e-08
0.0034256 0.0310055 6.82339e-08
-1.82676e-08 6.82339e-08 0.028152

0.0251931 0.00932573 2.7294e-07
0.00932573 0.0190205 -1.55959e-07
2.7294e-07 -1.55959e-07 0.00593372

0.0365374 0.0017319 1.06878e-07
0.0017319 0.0385514 7.10749e-09
1.06878e-07 7.10749e-09 0.0354744

0.0395347 2.52348e-05 1.42983e-07
2.52348e-05 0.0355391 1.6925e-08
1.42983e-07 1.6925e-08 0.0354551

0.0261069 -0.00924423 -2.21012e-07
-0.00924423 0.0188123 6.45791e-08
-2.21012e-07 6.45791e-08 0.00588785

0.0276893 -0.003065 -1.01093e-09
-0.003065 0.0320941 -2.96954e-08
-1.01093e-09 -2.96954e-08 0.0296221

0.0262548 0.00441792 1.70333e-07
0.00441792 0.0201576 -2.04782e-07
1.70333e-07 -2.04782e-07 0.0130443

0.017279 0.00797293 1.36694e-07
0.00797293 0.0271486 9.22422e-08
1.36694e-07 9.22422e-08 0.00598769

0.0181959 0.00275503 -6.53569e-08
0.00275503 0.0275891 -9.74765e-08
-6.53569e-08 -9.74765e-08 0.0128498

0.0173039 -0.00827622 -1.06774e-07
-0.00827622 0.0271518 7.83601e-08
-1.06774e-07 7.83601e-08 0.00581365

0.0179326 -0.00157098 1.63406e-07
-0.00157098 0.0280051 -6.39888e-08
1.63406e-07 -6.39888e-08 0.0126902

0.0370497 0.000923372 4.32864e-07
0.000923372 0.0412996 -6.14486e-08
4.32864e-07 -6.14486e-08 0.0358093

0.0221308 -0.00585507 -1.69675e-07
-0.00585507 0.0236639 -3.64119e-07
-1.69675e-07 -3.64119e-07 0.0151585

0.0156998 0.00598594 -1.00026e-08
0.00598594 0.0259018 -2.23962e-07
-1.00026e-08 -2.23962e-07 0.0107499

0.0302082 0.00473002 7.75555e-08
0.00473002 0.0143491 2.83197e-07
7.75555e-08 2.83197e-07 0.00611572

0.0329374 -0.00384954 1.08333e-07
-0.00384954 0.0301232 -2.07344e-08
1.08333e-07 -2.07344e-08 0.0310505

0.030888 0.00169381 -4.03212e-08
0.00169381 0.0368422 1.28807e-07
-4.03212e-08 1.28807e-07 0.0339494

0.0260895 -0.00484383 -8.2621e-10
-0.00484383 0.019197 3.34882e-07
-8.2621e-10 3.34882e-07 0.0126947

0.0329997 -0.00378587 1.09374e-07
-0.00378587 0.0300747 -1.82837e-08
1.09374e-07 -1.82837e-08 0.0311268

0.0300184 -0.00451979 -1.84626e-07
-0.00451979 0.0130533 1.70926e-07
-1.84626e-07 1.70926e-07 0.00603712

0.0324723 -0.00372754 1.84784e-08
-0.00372754 0.0313065 1.48228e-07
1.84784e-08 1.48228e-07 0.0319786

0.0280903 -0.00331094 1.84456e-07
-0.00331094 0.0320029 -2.56951e-09
1.84456e-07 -2.56951e-09 0.0296246

0.0234431 0.00874352 -3.40665e-08
0.00874352 0.0204825 2.49759e-07
-3.40665e-08 2.49759e-07 0.00602602

0.0181994 -0.00292058 2.37965e-07
-0.00292058 0.0268662 -3.36893e-08
2.37965e-07 -3.36893e-08 0.0122697

0.0233141 -0.00901915 1.25911e-07
-0.00901915 0.0201518 3.02368e-07
1.25911e-07 3.02368e-07 0.00588385

0.0170821 0.00640799 9.08901e-09
0.00640799 0.0235655 1.83258e-07
9.08901e-09 1.83258e-07 0.0108308

0.0308253 -0.00396021 1.10572e-07
-0.00396021 0.0301594 -2.09227e-08
1.10572e-07 -2.09227e-08 0.0300847

0.0389176 -0.00195883 -2.77374e-07
-0.00195883 0.03694 -1.03316e-07
-2.77374e-07 -1.03316e-07 0.0354987

0.045541 0.00150735 -4.89169e-07
0.00150735 0.0449528 4.91522e-08
-4.89169e-07 4.91522e-08 0.0366184

0.0435642 -0.000712024 -1.75675e-07
-0.000712024 0.0462302 -4.43393e-08
-1.75675e-07 -4.43393e-08 0.0365841

0.0286148 0.00171559 -3.87179e-08
0.00171559 0.0355652 8.47865e-08
-3.87179e-08 8.47865e-08 0.0323888

0.0453362 -0.00144849 -1.97854e-08
-0.00144849 0.0449806 -2.33805e-07
-1.97854e-08 -2.33805e-07 0.0366361

0.0438073 0.000567794 -1.82216e-07
0.000567794 0.0465063 -5.09897e-07
-1.82216e-07 -5.09897e-07 0.0366172

0.04668 0.000991804 -5.56405e-08
0.000991804 0.043377 -5.88107e-08
-5.56405e-08 -5.88107e-08 0.0365923

0.03975 -0.00163913 -4.1915e-07
-0.00163913 0.0460735 1.36063e-07
-4.1915e-07 1.36063e-07 0.0364821

0.0190536 -0.003887 2.40125e-07
-0.003887 0.0272299 -3.67084e-08
2.40125e-07 -3.67084e-08 0.0154707

0.0421403 -0.00175032 -4.35209e-08
-0.00175032 0.0367247 -1.50568e-07
-4.35209e-08 -1.50568e-07 0.036004

0.0359632 -0.0045737 -1.77951e-07
-0.0045737 0.03515 6.05949e-08
-1.77951e-07 6.05949e-08 0.0349674

0.0397526 -0.00242134 -1.74115e-07
-0.00242134 0.0360638 6.17407e-08
-1.74115e-07 6.17407e-08 0.0355664

0.0351839 0.00204355 2.36443e-07
0.00204355 0.0285482 -6.01785e-08
2.36443e-07 -6.01785e-08 0.0322311

0.039692 0.00133782 -2.7715e-07
0.00133782 0.0472248 9.93714e-08
-2.7715e-07 9.93714e-08 0.0365479

0.0464955 0.0025931 1.86688e-07
0.0025931 0.0404182 3.88905e-07
1.86688e-07 3.88905e-07 0.0365291

0.0400867 0.00150546 -3.49692e-08
0.00150546 0.0366728 4.24334e-08
-3.49692e-08 4.24334e-08 0.0356145

0.027914 -0.00191984 1.51696e-07
-0.00191984 0.0125244 1.35862e-07
1.51696e-07 1.35862e-07 0.0106242

0.0283185 0.00326755 -6.88824e-08
0.00326755 0.0315488 -1.42537e-07
-6.88824e-08 -1.42537e-07 0.0294099

0.0231875 -0.00773584 7.09484e-08
-0.00773584 0.0181796 3.48088e-07
7.09484e-08 3.48088e-07 0.0102892

0.0228302 -0.00731556 -1.36233e-07
-0.00731556 0.0257678 -3.93439e-07
-1.36233e-07 -3.93439e-07 0.0119542

0.0290218 -0.00464675 3.00563e-07
-0.00464675 0.0191279 -2.76081e-07
3.00563e-07 -2.76081e-07 0.0126147

0.0375739 -0.000660768 2.25654e-07
-0.000660768 0.0449127 -2.68332e-07
2.25654e-07 -2.68332e-07 0.036293

0.0375715 0.000358475 1.41719e-07
0.000358475 0.04479 1.51781e-07
1.41719e-07 1.51781e-07 0.0362733

0.0426052 -0.00327475 -1.42663e-07
-0.00327475 0.03945 5.2542e-08
-1.42663e-07 5.2542e-08 0.0362271

0.0429982 -0.00294492 6.47631e-08
-0.00294492 0.0391683 6.84531e-08
6.47631e-08 6.84531e-08 0.0362341

0.0425017 0.00350401 -2.6081e-07
0.00350401 0.0399717 -3.14811e-07
-2.6081e-07 -3.14811e-07 0.0362719

0.0443965 0.00041593 3.07124e-07
0.00041593 0.0450803 4.81348e-07
3.07124e-07 4.81348e-07 0.0366353

0.0426086 -0.00274487 2.67755e-08
-0.00274487 0.0395071 1.12726e-08
2.67755e-08 1.12726e-08 0.0362887

0.0426027 -0.00251126 7.66252e-08
-0.00251126 0.0442667 -2.37377e-07
7.66252e-08 -2.37377e-07 0.0365628

0.0451167 0.000331017 2.95217e-07
0.000331017 0.0454679 -1.82855e-07
2.95217e-07 -1.82855e-07 0.0366536

0.0436365 -0.00278321 3.27493e-07
-0.00278321 0.0389162 -1.153e-07
3.27493e-07 -1.153e-07 0.0363293

0.0435121 0.00283879 -1.33428e-07
0.00283879 0.039069 -4.32389e-08
-1.33428e-07 -4.32389e-08 0.0363674

0.0451927 -0.000470172 -1.99946e-07
-0.000470172 0.0455815 8.50212e-08
-1.99946e-07 8.50212e-08 0.0367022

0.045227 -0.000425084 7.74941e-07
-0.000425084 0.0443591 -1.18319e-06
7.74941e-07 -1.18319e-06 0.0367206

0.042798 0.00163933 1.71962e-07
0.00163933 0.0442493 -1.74531e-07
1.71962e-07 -1.74531e-07 0.0366067

0.0411164 0.00361855 -1.46862e-07
0.00361855 0.0405155 -1.09662e-07
-1.46862e-07 -1.09662e-07 0.0363213

SCALARS pressure float
LOOKUP_TABLE default
-60.0504
19.3081
5.80321
21.2901
15.8788
5.88717
-58.6736
7.78297
-3.80503
15.1244
-24.4315
7.61712
5.59194
12.2791
23.3377
5.53882
18.5208
13.2071
-0.69306
6.75635
-0.905003
33.1351
5.80057
5.79665
6.60164
14.9027
-38.3847
6.67149
-15.2424
30.6265
5.17616
-15.6571
-42.0557
27.3263
20.7792
27.3592
31.8848
19.8091
4.85945
-42.599
-17.4073
31.9056
31.9937
5.99341
-21.8048
-15.9758
-1.05264
-3.40564
6.5446
-16.2177
-18.9187
-15.3459
20.7556
-15.3731
20.3088
-33.1483
21.1297
-15.4603
21.1396
7.0447
21.7647
16.1188
-45.5616
12.7897
16.362
10.905
21.5739
13.8279
5.77328
21.8169
20.8117
20.7823
-17.6909
11.6004
3.97379
-31.6092
14.3567
10.9961
14.146
-8.72014
-28.9445
14.9777
20.163
-22.0377
-23.4293
-28.0917
7.09756
9.63226
-22.2155
37.7418
-15.509
38.4444
18.3045
10.7613
-15.1665
-15.8727
-30.2211
14.7533
14.3657
4.59854
-10.7664
-21.9394
-25.1013
16.2128
14.1
14.9615
18.6974
3.77456
-24.5582
26.5131
7.21733
-21.4088
-24.6118
14.8377
15.0779
-16.1456
20.165
-29.113
20.6286
-16.7293
-2.90493
23.834
21.727
16.0328
26.6798
22.6316
21.7857
15.7083
-29.7807
-16.099
24.0918
21.6172
20.9892
22.0656
-22.0138
23.5873
-33.837
5.46322
21.7543
23.6307
-21.9367
6.67628
-5.9669
15.0834
-30.4072
15.6238
7.83301
2.40738
5.17757
-9.39462
-0.458221
22.6415
-15.4546
5.29084
15.204
21.5604
11.508
-21.1132
-21.2637
10.7902
-2.84295
-15.1976
-21.2203
-15.1653
-20.9864
15.2796
-20.6358
-21.2015
-15.2078
-21.0637
19.0043
-15.941
-14.8244
12.0643
-14.4847
18.8027
19.0534
7.47253
18.0479
11.7728
-16.249
15.2881
14.9608
-21.5284
10.4264
-14.2213
16.0485
14.5954
17.0818
14.835
10.3437
-26.9761
-16.0822
-15.9581
21.9068
14.5256
14.6244
20.9226
22.4869
9.50251
21.7336
-0.384966
-8.17102
20.7787
-17.8387
19.9455
10.364
-21.5175
15.721
22.5261
14.7312
9.39328
14.1897
21.0556
-7.83308
8.82738
-7.90888
14.6481
26.9277
26.5814
27.9606
26.3886
26.7244
26.291
13.8257
23.4303
24.0296
23.9738
23.4
21.1928
21.8573
-8.26314
15.9334
28.1911
-3.18901
23.5761
23.2054
27.8344
-8.49384
28.0965
15.3445
-7.58191
17.4921
-8.2581
20.2271
29.6128
-7.4863
-8.10106
-29.5917
-18.189
19.5272
-31.9852
5.73401
-7.79425
-1.18989
28.2492
26.6403
30.4269
26.761
-34.8006
-8.17995
28.3374
8.07254
-8.29546
26.446
-6.29563
30.4718
-7.95438
27.0472
14.5659
14.7869
23.8452
10.0473
18.021
8.11673
-29.8597
-24.5529
16.8068
1.75925
8.17919
-13.609
17.4357
11.6996
-8.10181
9.4519
-10.8236
7.51659
-10.7549
-8.48503
33.2649
19.1517
25.0884
25.3127
13.8289
-10.4047
26.43
14.6848
-1.65945
-10.2741
-12.5644
17.5066
-7.48555
17.5745
-12.0414
-21.3503
-10.6085
-34.6809
15.5623
-7.76329
34.443
-11.5781
16.8712
-8.40907
15.9726
-12.7585
4.28871
-51.1177
8.52124
-7.74695
21.3338
-8.15247
-0.123359
10.7151
21.124
-12.0609
-10.201
-6.06869
14.3178
-10.1803
6.88753
6.3852
16.3054
-10.4198
-6.3308
-1.70281
-5.6609
-11.0787
-5.84511
15.3054
7.80755
-5.55649
-8.96076
7.80499
7.69384
-10.6748
16.3093
-27.2131
2.29252
-28.481
-0.958068
-8.87791
-8.0962
-11.7788
-10.9425
-9.88079
-7.7758
-7.89916
16.6377
24.778
12.1156
-0.292206
-0.825762
-5.67506
7.30471
-6.32115
-6.31844
24.9239
-5.73049
14.1179
-15.9084
24.3253
5.96757
-0.391761
-5.64435
16.2749
2.47652
0.198454
2.4475
0.455322
-0.741454
-9.93058
-0.0962029
2.11268
15.0688
-1.28888
-1.40777
-0.999427
-0.389181
1.96471
8.05018
-1.19416
8.07763
5.58263
-0.436243
7.03473
5.48967
-3.87703
16.4765
-1.90397
23.0622
-21.9732
15.0439
15.6822
2.03906
-1.99805
12.5426
-26.5057
5.79166
-1.6585
-50.4821
30.4989
30.6355
5.82429
-1.14497
-1.04738
-0.850301
33.4197
33.2944
13.0945
6.08138
6.66185
-28.9618
-1.28003
16.5333
-3.18326
-4.34865
-0.0175519
-25.2704
14.303
-1.2808
2.8612
2.6926
-2.72383
-0.0499296
-3.21005
-4.0341
-37.9817
-33.6829
-0.128636
1.87389
-0.534682
-3.74474
-1.93716
-1.87829
-0.924904
-21.9071
17.2495
-0.76994
12.5648
14.1834
-26.7636
6.28571
7.13625
18.4778
36.4287
36.4612
22.6387
-1.75641
2.59904
-20.9293
36.1273
32.761
32.828
-24.8078
21.7758
30.5241
2.59853
15.7239
10.3708
17.1641
17.726
12.5052
5.68083
-25.3972
4.2595
10.4089
16.2438
-31.7091
28.3103
-52.7091
18.6848
10.2986
-10.6277
7.41682
5.45653
24.4746
9.41057
24.4077
4.10459
12.3995
30.6413
29.467
-22.9897
17.4352
-70.2279
-74.3744
-67.172
11.648
-31.2589
-63.6054
-3.80405
-69.9334
16.4632
16.4069
-73.7495
5.2115
-39.7287
-70.7339
-37.7547
-71.8703
-39.4501
21.1371
-23.9595
-29.0429
-70.6178
4.83085
15.7574
-36.1885
6.05293
-63.6131
9.83545
3.88103
-67.8965
-37.6222
-66.406
-23.7545
5.02845
20.5264
35.373
36.7288
11.8115
36.8526
36.9059
36.4943
36.4062
-24.4783
28.2489
20.6691
21.981
11.5341
36.0621
36.0935
18.1203
-23.9392
3.24593
-30.5251
-56.5951
-50.4723
36.1452
35.8259
35.3825
35.4527
36.1611
35.6009
33.1115
37.3729
35.4023
36.008
35.6402
34.1987
34.3353
35.8584
35.3112
