# vtk DataFile Version 3.0
vtk output at time 260
ASCII
DATASET UNSTRUCTURED_GRID
POINTS 626 float
-3.68058e-05 0.000978749 0 3.68058e-05 0.000978749 0 -0.000829194 0.00052125 0 
-0.0008235 0.0005 0 -0.000866 0.0004575 0 -0.000866 -0.0004575 0 
-0.0008235 -0.0005 0 -0.000829194 -0.00052125 0 -3.68058e-05 -0.000978749 0 
3.68058e-05 -0.000978749 0 0.000829194 -0.00052125 0 0.000866 -0.0004575 0 
0.000866 0.0004575 0 0.000829194 0.00052125 0 8.5e-05 0 0 
-3.68058e-05 0.000978749 -0.001 3.68058e-05 0.000978749 -0.001 -0.000829194 0.00052125 -0.001 
-0.0008235 0.0005 -0.001 -0.000866 0.0004575 -0.001 -0.000866 -0.0004575 -0.001 
-0.0008235 -0.0005 -0.001 -0.000829194 -0.00052125 -0.001 -3.68058e-05 -0.000978749 -0.001 
3.68058e-05 -0.000978749 -0.001 0.000829194 -0.00052125 -0.001 0.000866 -0.0004575 -0.001 
0.000866 0.0004575 -0.001 0.000829194 0.00052125 -0.001 8.5e-05 0 -0.001 
8.46223e-17 0.0009575 0 -0.000715996 0.000586607 0 -0.000602797 0.000651965 0 
-0.000489599 0.000717321 0 -0.000376401 0.000782678 0 -0.000263202 0.000848036 0 
-0.000150004 0.000913393 0 -0.000835948 0.000469948 0 -0.000866 -0.000326786 0 
-0.000866 -0.000196071 0 -0.000866 -6.53571e-05 0 -0.000866 6.53571e-05 0 
-0.000866 0.000196071 0 -0.000866 0.000326786 0 -0.000835948 -0.000469948 0 
-0.000150004 -0.000913393 0 -0.000263202 -0.000848036 0 -0.000376401 -0.000782678 0 
-0.000489599 -0.000717321 0 -0.000602797 -0.000651965 0 -0.000715996 -0.000586607 0 
8.47648e-17 -0.0009575 0 0.000715996 -0.000586607 0 0.000602797 -0.000651965 0 
0.000489599 -0.000717321 0 0.000376401 -0.000782678 0 0.000263202 -0.000848036 0 
0.000150004 -0.000913393 0 0.000829194 -0.00047875 0 0.000866 0.000326786 0 
0.000866 0.000196071 0 0.000866 6.53571e-05 0 0.000866 -6.53571e-05 0 
0.000866 -0.000196071 0 0.000866 -0.000326786 0 0.000829194 0.00047875 0 
0.000150004 0.000913393 0 0.000263202 0.000848036 0 0.000376401 0.000782678 0 
0.000489599 0.000717321 0 0.000602797 0.000651965 0 0.000715996 0.000586607 0 
5.29966e-05 6.64557e-05 0 -1.89143e-05 8.28689e-05 0 -7.65824e-05 3.68801e-05 0 
-7.65824e-05 -3.68801e-05 0 -1.89143e-05 -8.28689e-05 0 5.29966e-05 -6.64557e-05 0 
8.46223e-17 0.0009575 -0.001 -0.000715996 0.000586607 -0.001 -0.000602797 0.000651965 -0.001 
-0.000489599 0.000717321 -0.001 -0.000376401 0.000782678 -0.001 -0.000263202 0.000848036 -0.001 
-0.000150004 0.000913393 -0.001 -0.000835948 0.000469948 -0.001 -0.000866 -0.000326786 -0.001 
-0.000866 -0.000196071 -0.001 -0.000866 -6.53571e-05 -0.001 -0.000866 6.53571e-05 -0.001 
-0.000866 0.000196071 -0.001 -0.000866 0.000326786 -0.001 -0.000835948 -0.000469948 -0.001 
-0.000150004 -0.000913393 -0.001 -0.000263202 -0.000848036 -0.001 -0.000376401 -0.000782678 -0.001 
-0.000489599 -0.000717321 -0.001 -0.000602797 -0.000651965 -0.001 -0.000715996 -0.000586607 -0.001 
8.47648e-17 -0.0009575 -0.001 0.000715996 -0.000586607 -0.001 0.000602797 -0.000651965 -0.001 
0.000489599 -0.000717321 -0.001 0.000376401 -0.000782678 -0.001 0.000263202 -0.000848036 -0.001 
0.000150004 -0.000913393 -0.001 0.000829194 -0.00047875 -0.001 0.000866 0.000326786 -0.001 
0.000866 0.000196071 -0.001 0.000866 6.53571e-05 -0.001 0.000866 -6.53571e-05 -0.001 
0.000866 -0.000196071 -0.001 0.000866 -0.000326786 -0.001 0.000829194 0.00047875 -0.001 
0.000150004 0.000913393 -0.001 0.000263202 0.000848036 -0.001 0.000376401 0.000782678 -0.001 
0.000489599 0.000717321 -0.001 0.000602797 0.000651965 -0.001 0.000715996 0.000586607 -0.001 
5.29966e-05 6.64557e-05 -0.001 -1.89143e-05 8.28689e-05 -0.001 -7.65824e-05 3.68801e-05 -0.001 
-7.65824e-05 -3.68801e-05 -0.001 -1.89143e-05 -8.28689e-05 -0.001 5.29966e-05 -6.64557e-05 -0.001 
0.000131234 6.38474e-05 0 0.00012964 -6.2443e-05 0 3.13827e-05 0.0001394 0 
3.12554e-05 -0.000136939 0 -0.000140461 8.25467e-19 0 -8.90565e-05 -0.000102707 0 
-9.04142e-05 0.000102872 0 -0.000765769 -0.00025965 0 -0.000756873 0.000262774 0 
-0.00015609 0.000787505 0 -0.000155807 -0.00079355 0 0.000605069 0.000528035 0 
0.000608694 -0.00052497 0 0.000744069 0.000116929 0 -0.000494418 0.000596218 0 
-0.000483866 -0.000584648 0 0.000269496 0.000702219 0 0.000263201 -0.000717324 0 
0.000754429 -0.000127825 0 -0.000748858 5.84659e-07 0 -0.000747838 0.000373886 0 
-0.0006542 0.000324842 0 -0.000645137 0.000210123 0 -0.000550884 0.000274171 0 
-0.000538857 0.000163195 0 -0.00045062 0.000224461 0 -0.000438393 0.000123907 0 
-0.000354088 0.000181668 0 -0.000363908 0.000282171 0 -0.000270361 0.000239477 0 
-0.000279138 0.000337653 0 -0.000188888 0.000294791 0 -0.000196448 0.000393271 0 
-0.000104767 0.000348259 0 -0.000113332 0.000449012 0 -2.01066e-05 0.000403223 0 
-2.89189e-05 0.000507105 0 6.9524e-05 0.000461596 0 -0.000213644 0.000490203 0 
7.33757e-05 0.000357726 0 0.000163331 0.00041299 0 0.000163359 0.000313022 0 
0.000248077 0.000366368 0 0.000250914 0.000265758 0 0.000335709 0.000322266 0 
0.000340555 0.000218148 0 0.000427299 0.000276717 0 0.000431508 0.000173093 0 
0.000328731 0.000425633 0 0.00034586 0.000114823 0 0.000435362 7.05241e-05 0 
0.000350892 1.5455e-05 0 0.000441547 -3.11896e-05 0 0.000353547 -8.47783e-05 0 
0.000445767 -0.000132964 0 0.000356135 -0.000186358 0 0.000449094 -0.000234674 0 
0.000359978 -0.000287876 0 0.00026856 -0.000240545 0 0.000271895 -0.000341045 0 
0.000181792 -0.00029305 0 0.00018533 -0.000392851 0 9.75701e-05 -0.00034483 0 
9.98764e-05 -0.000444884 0 8.75116e-06 -0.000396343 0 1.20916e-05 -0.000500496 0 
-7.83929e-05 -0.000449843 0 -8.1471e-05 -0.000347249 0 -0.000171566 -0.000403733 0 
-0.000169889 -0.000298891 0 -0.000259867 -0.000354132 0 -0.000257696 -0.000249137 0 
-0.00034313 -0.000299896 0 -0.000344514 -0.000199127 0 -0.000434309 -0.000250039 0 
-0.000169832 -0.000505815 0 -0.000435227 -0.000146227 0 0.000280331 -0.000442424 0 
-0.000340889 8.76793e-05 0 -0.000515252 4.06198e-05 0 6.50491e-05 0.000568253 0 
0.00053278 1.74743e-05 0 0.000522071 0.000229831 0 -0.00037162 0.000391659 0 
-0.000255272 -0.000150439 0 -0.000442893 -0.000350705 0 0.000450067 -0.000332559 0 
0.000545175 -0.000276306 0 -0.000527797 -0.000197598 0 0.000105306 -0.000551033 0 
1.45836e-05 -0.000609147 0 0.00017145 0.000214453 0 0.000515525 0.000341711 0 
0.000636086 0.000290368 0 -0.000558657 0.000404468 0 -4.01232e-05 0.000616718 0 
6.60192e-05 0.000696422 0 -0.000101806 0.0002546 0 0.000271142 -3.88908e-05 0 
0.000179455 -0.00018534 0 -8.79553e-05 -0.000254307 0 -0.000749267 -0.000373451 0 
-0.000655941 -0.000323397 0 0.000709746 0.000466718 0 0.000698426 -0.000473086 0 
-5.25801e-05 -0.00084886 0 -4.93005e-05 0.000848038 0 0.000617396 -0.000413362 0 
0.000702056 -0.000369817 0 0.000131459 -0.000679171 0 2.48171e-05 -0.000715924 0 
-0.000664217 -0.00042729 0 -0.000528828 -8.80444e-05 0 -0.000611101 -0.000136672 0 
-0.000426972 -4.45841e-05 0 0.000800669 0.000378216 0 0.000821144 -0.000415062 0 
7.2799e-05 0.00088254 0 6.81831e-05 -0.00087503 0 0.000104963 -0.000788946 0 
-7.40696e-05 -0.000660054 0 0.000126061 0.000809943 0 0.000764361 0.000295682 0 
0.000166862 0.000630623 0 0.000516462 -0.00046707 0 -0.000563585 -0.000389606 0 
-0.000622598 -1.40238e-05 0 0.000629891 0.000171529 0 2.5614e-06 -0.000299794 0 
8.6901e-05 -0.00024329 0 0.000272045 -0.000136982 0 -0.00075148 0.000138321 0 
0.000209366 -0.000599589 0 0.000324913 -0.000630055 0 0.000614044 0.00041245 0 
0.00049651 -0.000573327 0 0.000394822 -0.000507321 0 -0.000173714 -0.000206698 0 
0.000264897 5.63722e-05 0 0.000247997 0.000152811 0 -4.63327e-05 -0.000920208 0 
9.18688e-05 0.000258626 0 -5.54111e-06 0.000290558 0 -0.000184219 0.000201484 0 
-0.000263559 0.000142267 0 -0.000256427 5.13624e-05 0 -0.000336894 -2.06179e-06 0 
-0.000228499 -4.2388e-05 0 -0.00017589 0.000106626 0 -0.000769947 -0.000133367 0 
0.000767591 -0.000500293 0 -5.05874e-05 0.000737978 0 0.000754456 -3.51771e-06 0 
0.00064691 -6.15298e-05 0 0.000630483 -0.00018134 0 0.000749187 -0.000265543 0 
-0.000760805 -0.000462521 0 0.000638155 6.09315e-05 0 -4.46661e-05 0.000922995 0 
-2.37945e-05 0.000207237 0 0.000776979 0.000500181 0 -0.000605691 0.000527596 0 
-0.000377914 -0.000653727 0 -0.000372325 -0.000526022 0 -0.000275829 -0.000589621 0 
-0.000254285 -0.000710579 0 -0.000379307 0.000656222 0 -0.000379818 0.00052718 0 
-0.000266817 0.000721555 0 -0.000150544 0.000668174 0 0.000381963 0.00065079 0 
0.000493113 0.000590432 0 0.000505439 0.000463708 0 -0.000269094 0.000596608 0 
0.000385815 0.000532045 0 0.000283599 0.0005899 0 -0.000176405 -0.000108505 0 
-0.000278769 -0.000475415 0 0.000185395 2.33014e-06 0 0.000186773 0.000517571 0 
0.000540032 -8.68444e-05 0 -0.000600694 -0.000514877 0 -0.00063703 8.98033e-05 0 
-0.000459677 0.000335729 0 -0.000338836 -0.000100751 0 -0.000457327 0.000432721 0 
-8.72007e-06 -0.000210238 0 0.000156073 0.000129496 0 -7.70692e-05 -0.000555049 0 
0.00036091 -0.000389728 0 0.000531628 0.000120564 0 -0.000285451 0.000435562 0 
0.000192719 -0.000494604 0 0.00041642 0.00039368 0 -0.000135943 0.000554637 0 
-0.000170665 -0.000610079 0 -0.000666304 0.000434981 0 -0.000758736 0.000479231 0 
-0.000470189 -0.000458901 0 0.000203433 -8.59809e-05 0 0.000101846 0.000170114 0 
-0.00035513 -0.00040726 0 0.000100184 -0.000165831 0 2.96286e-05 0.00081537 0 
0.000720946 0.000381836 0 -0.000539809 -0.000292001 0 0.00052211 -0.000182426 0 
-6.41339e-05 -0.000753908 0 0.000638039 -0.000299861 0 -0.000605136 -0.000230182 0 
-3.41638e-05 -0.000145561 0 -0.000104037 0.000172396 0 -0.000808575 -0.00042774 0 
-0.000807207 -0.000465052 0 -0.00080817 0.000429771 0 -0.000806589 0.000469738 0 
-9.50634e-05 -0.000178909 0 0.000247777 0.000445058 0 1.48293e-05 -0.000814201 0 
-4.11555e-05 0.000140955 0 0.000276104 -0.000536845 0 0.000765969 -0.000436638 0 
0.000780871 -0.000362769 0 0.000424176 -0.000642018 0 0.00053413 -0.000368009 0 
-0.000416333 4.17911e-05 0 -0.000133891 -6.23822e-05 0 4.2574e-05 0.000206312 0 
0.000141163 -0.000121542 0 0.000707423 0.000212137 0 0.000172327 0.000723882 0 
7.72652e-06 -0.00090254 0 -0.000134435 5.66935e-05 0 -0.000188826 3.70894e-05 0 
0.000197119 8.09714e-05 0 1.27801e-05 0.000917296 0 0.000800767 0.00044758 0 
-0.000686682 0.000507104 0 9.35831e-05 0.000110457 0 -0.000696793 -0.000509595 0 
-0.00068446 -8.52012e-05 0 -0.000691033 -0.000201242 0 5.24052e-05 -0.000189075 0 
-0.000151818 -0.000701092 0 -0.000296988 0.000518087 0 9.31023e-05 -0.000108117 0 
0.00044261 -0.000416726 0 0.000197044 -0.000784423 0 -0.000516861 0.000504567 0 
0.000298997 0.000502377 0 0.000131234 6.38474e-05 -0.001 0.00012964 -6.2443e-05 -0.001 
3.13827e-05 0.0001394 -0.001 3.12554e-05 -0.000136939 -0.001 -0.000140461 8.25467e-19 -0.001 
-8.90565e-05 -0.000102707 -0.001 -9.04142e-05 0.000102872 -0.001 -0.000765769 -0.00025965 -0.001 
-0.000756873 0.000262774 -0.001 -0.00015609 0.000787505 -0.001 -0.000155807 -0.00079355 -0.001 
0.000605069 0.000528035 -0.001 0.000608694 -0.00052497 -0.001 0.000744069 0.000116929 -0.001 
-0.000494418 0.000596218 -0.001 -0.000483866 -0.000584648 -0.001 0.000269496 0.000702219 -0.001 
0.000263201 -0.000717324 -0.001 0.000754429 -0.000127825 -0.001 -0.000748858 5.84659e-07 -0.001 
-0.000747838 0.000373886 -0.001 -0.0006542 0.000324842 -0.001 -0.000645137 0.000210123 -0.001 
-0.000550884 0.000274171 -0.001 -0.000538857 0.000163195 -0.001 -0.00045062 0.000224461 -0.001 
-0.000438393 0.000123907 -0.001 -0.000354088 0.000181668 -0.001 -0.000363908 0.000282171 -0.001 
-0.000270361 0.000239477 -0.001 -0.000279138 0.000337653 -0.001 -0.000188888 0.000294791 -0.001 
-0.000196448 0.000393271 -0.001 -0.000104767 0.000348259 -0.001 -0.000113332 0.000449012 -0.001 
-2.01066e-05 0.000403223 -0.001 -2.89189e-05 0.000507105 -0.001 6.9524e-05 0.000461596 -0.001 
-0.000213644 0.000490203 -0.001 7.33757e-05 0.000357726 -0.001 0.000163331 0.00041299 -0.001 
0.000163359 0.000313022 -0.001 0.000248077 0.000366368 -0.001 0.000250914 0.000265758 -0.001 
0.000335709 0.000322266 -0.001 0.000340555 0.000218148 -0.001 0.000427299 0.000276717 -0.001 
0.000431508 0.000173093 -0.001 0.000328731 0.000425633 -0.001 0.00034586 0.000114823 -0.001 
0.000435362 7.05241e-05 -0.001 0.000350892 1.5455e-05 -0.001 0.000441547 -3.11896e-05 -0.001 
0.000353547 -8.47783e-05 -0.001 0.000445767 -0.000132964 -0.001 0.000356135 -0.000186358 -0.001 
0.000449094 -0.000234674 -0.001 0.000359978 -0.000287876 -0.001 0.00026856 -0.000240545 -0.001 
0.000271895 -0.000341045 -0.001 0.000181792 -0.00029305 -0.001 0.00018533 -0.000392851 -0.001 
9.75701e-05 -0.00034483 -0.001 9.98764e-05 -0.000444884 -0.001 8.75116e-06 -0.000396343 -0.001 
1.20916e-05 -0.000500496 -0.001 -7.83929e-05 -0.000449843 -0.001 -8.1471e-05 -0.000347249 -0.001 
-0.000171566 -0.000403733 -0.001 -0.000169889 -0.000298891 -0.001 -0.000259867 -0.000354132 -0.001 
-0.000257696 -0.000249137 -0.001 -0.00034313 -0.000299896 -0.001 -0.000344514 -0.000199127 -0.001 
-0.000434309 -0.000250039 -0.001 -0.000169832 -0.000505815 -0.001 -0.000435227 -0.000146227 -0.001 
0.000280331 -0.000442424 -0.001 -0.000340889 8.76793e-05 -0.001 -0.000515252 4.06198e-05 -0.001 
6.50491e-05 0.000568253 -0.001 0.00053278 1.74743e-05 -0.001 0.000522071 0.000229831 -0.001 
-0.00037162 0.000391659 -0.001 -0.000255272 -0.000150439 -0.001 -0.000442893 -0.000350705 -0.001 
0.000450067 -0.000332559 -0.001 0.000545175 -0.000276306 -0.001 -0.000527797 -0.000197598 -0.001 
0.000105306 -0.000551033 -0.001 1.45836e-05 -0.000609147 -0.001 0.00017145 0.000214453 -0.001 
0.000515525 0.000341711 -0.001 0.000636086 0.000290368 -0.001 -0.000558657 0.000404468 -0.001 
-4.01232e-05 0.000616718 -0.001 6.60192e-05 0.000696422 -0.001 -0.000101806 0.0002546 -0.001 
0.000271142 -3.88908e-05 -0.001 0.000179455 -0.00018534 -0.001 -8.79553e-05 -0.000254307 -0.001 
-0.000749267 -0.000373451 -0.001 -0.000655941 -0.000323397 -0.001 0.000709746 0.000466718 -0.001 
0.000698426 -0.000473086 -0.001 -5.25801e-05 -0.00084886 -0.001 -4.93005e-05 0.000848038 -0.001 
0.000617396 -0.000413362 -0.001 0.000702056 -0.000369817 -0.001 0.000131459 -0.000679171 -0.001 
2.48171e-05 -0.000715924 -0.001 -0.000664217 -0.00042729 -0.001 -0.000528828 -8.80444e-05 -0.001 
-0.000611101 -0.000136672 -0.001 -0.000426972 -4.45841e-05 -0.001 0.000800669 0.000378216 -0.001 
0.000821144 -0.000415062 -0.001 7.2799e-05 0.00088254 -0.001 6.81831e-05 -0.00087503 -0.001 
0.000104963 -0.000788946 -0.001 -7.40696e-05 -0.000660054 -0.001 0.000126061 0.000809943 -0.001 
0.000764361 0.000295682 -0.001 0.000166862 0.000630623 -0.001 0.000516462 -0.00046707 -0.001 
-0.000563585 -0.000389606 -0.001 -0.000622598 -1.40238e-05 -0.001 0.000629891 0.000171529 -0.001 
2.5614e-06 -0.000299794 -0.001 8.6901e-05 -0.00024329 -0.001 0.000272045 -0.000136982 -0.001 
-0.00075148 0.000138321 -0.001 0.000209366 -0.000599589 -0.001 0.000324913 -0.000630055 -0.001 
0.000614044 0.00041245 -0.001 0.00049651 -0.000573327 -0.001 0.000394822 -0.000507321 -0.001 
-0.000173714 -0.000206698 -0.001 0.000264897 5.63722e-05 -0.001 0.000247997 0.000152811 -0.001 
-4.63327e-05 -0.000920208 -0.001 9.18688e-05 0.000258626 -0.001 -5.54111e-06 0.000290558 -0.001 
-0.000184219 0.000201484 -0.001 -0.000263559 0.000142267 -0.001 -0.000256427 5.13624e-05 -0.001 
-0.000336894 -2.06179e-06 -0.001 -0.000228499 -4.2388e-05 -0.001 -0.00017589 0.000106626 -0.001 
-0.000769947 -0.000133367 -0.001 0.000767591 -0.000500293 -0.001 -5.05874e-05 0.000737978 -0.001 
0.000754456 -3.51771e-06 -0.001 0.00064691 -6.15298e-05 -0.001 0.000630483 -0.00018134 -0.001 
0.000749187 -0.000265543 -0.001 -0.000760805 -0.000462521 -0.001 0.000638155 6.09315e-05 -0.001 
-4.46661e-05 0.000922995 -0.001 -2.37945e-05 0.000207237 -0.001 0.000776979 0.000500181 -0.001 
-0.000605691 0.000527596 -0.001 -0.000377914 -0.000653727 -0.001 -0.000372325 -0.000526022 -0.001 
-0.000275829 -0.000589621 -0.001 -0.000254285 -0.000710579 -0.001 -0.000379307 0.000656222 -0.001 
-0.000379818 0.00052718 -0.001 -0.000266817 0.000721555 -0.001 -0.000150544 0.000668174 -0.001 
0.000381963 0.00065079 -0.001 0.000493113 0.000590432 -0.001 0.000505439 0.000463708 -0.001 
-0.000269094 0.000596608 -0.001 0.000385815 0.000532045 -0.001 0.000283599 0.0005899 -0.001 
-0.000176405 -0.000108505 -0.001 -0.000278769 -0.000475415 -0.001 0.000185395 2.33014e-06 -0.001 
0.000186773 0.000517571 -0.001 0.000540032 -8.68444e-05 -0.001 -0.000600694 -0.000514877 -0.001 
-0.00063703 8.98033e-05 -0.001 -0.000459677 0.000335729 -0.001 -0.000338836 -0.000100751 -0.001 
-0.000457327 0.000432721 -0.001 -8.72007e-06 -0.000210238 -0.001 0.000156073 0.000129496 -0.001 
-7.70692e-05 -0.000555049 -0.001 0.00036091 -0.000389728 -0.001 0.000531628 0.000120564 -0.001 
-0.000285451 0.000435562 -0.001 0.000192719 -0.000494604 -0.001 0.00041642 0.00039368 -0.001 
-0.000135943 0.000554637 -0.001 -0.000170665 -0.000610079 -0.001 -0.000666304 0.000434981 -0.001 
-0.000758736 0.000479231 -0.001 -0.000470189 -0.000458901 -0.001 0.000203433 -8.59809e-05 -0.001 
0.000101846 0.000170114 -0.001 -0.00035513 -0.00040726 -0.001 0.000100184 -0.000165831 -0.001 
2.96286e-05 0.00081537 -0.001 0.000720946 0.000381836 -0.001 -0.000539809 -0.000292001 -0.001 
0.00052211 -0.000182426 -0.001 -6.41339e-05 -0.000753908 -0.001 0.000638039 -0.000299861 -0.001 
-0.000605136 -0.000230182 -0.001 -3.41638e-05 -0.000145561 -0.001 -0.000104037 0.000172396 -0.001 
-0.000808575 -0.00042774 -0.001 -0.000807207 -0.000465052 -0.001 -0.00080817 0.000429771 -0.001 
-0.000806589 0.000469738 -0.001 -9.50634e-05 -0.000178909 -0.001 0.000247777 0.000445058 -0.001 
1.48293e-05 -0.000814201 -0.001 -4.11555e-05 0.000140955 -0.001 0.000276104 -0.000536845 -0.001 
0.000765969 -0.000436638 -0.001 0.000780871 -0.000362769 -0.001 0.000424176 -0.000642018 -0.001 
0.00053413 -0.000368009 -0.001 -0.000416333 4.17911e-05 -0.001 -0.000133891 -6.23822e-05 -0.001 
4.2574e-05 0.000206312 -0.001 0.000141163 -0.000121542 -0.001 0.000707423 0.000212137 -0.001 
0.000172327 0.000723882 -0.001 7.72652e-06 -0.00090254 -0.001 -0.000134435 5.66935e-05 -0.001 
-0.000188826 3.70894e-05 -0.001 0.000197119 8.09714e-05 -0.001 1.27801e-05 0.000917296 -0.001 
0.000800767 0.00044758 -0.001 -0.000686682 0.000507104 -0.001 9.35831e-05 0.000110457 -0.001 
-0.000696793 -0.000509595 -0.001 -0.00068446 -8.52012e-05 -0.001 -0.000691033 -0.000201242 -0.001 
5.24052e-05 -0.000189075 -0.001 -0.000151818 -0.000701092 -0.001 -0.000296988 0.000518087 -0.001 
9.31023e-05 -0.000108117 -0.001 0.00044261 -0.000416726 -0.001 0.000197044 -0.000784423 -0.001 
-0.000516861 0.000504567 -0.001 0.000298997 0.000502377 -0.001 

CELLS 563 3941
6 14 304 127 29 554 377 
6 143 259 55 393 509 103 
6 300 319 174 550 569 424 
6 259 349 55 509 599 103 
6 50 365 307 98 615 557 
6 299 320 164 549 570 414 
6 126 304 14 376 554 29 
6 298 319 300 548 569 550 
6 205 240 238 455 490 488 
6 257 308 145 507 558 395 
6 130 352 273 380 602 523 
6 295 320 299 545 570 549 
6 324 327 289 574 577 539 
6 235 258 143 485 508 393 
6 50 307 49 98 557 97 
6 207 283 279 457 533 529 
6 143 373 235 393 623 485 
6 145 308 252 395 558 502 
6 194 303 196 444 553 446 
6 279 306 207 529 556 457 
6 206 305 163 456 555 413 
6 51 357 9 99 607 24 
6 238 252 205 488 502 455 
6 293 317 209 543 567 459 
6 207 316 283 457 566 533 
6 142 301 249 392 551 499 
6 273 359 130 523 609 380 
6 211 327 324 461 577 574 
6 169 265 217 419 515 467 
6 7 365 50 22 615 98 
6 283 316 253 533 566 503 
6 159 268 223 409 518 473 
6 274 337 132 524 587 382 
6 232 361 329 482 611 579 
6 231 266 45 481 516 93 
6 229 362 330 479 612 580 
6 9 244 57 24 494 105 
6 230 276 52 480 526 100 
6 209 311 293 459 561 543 
6 131 342 302 381 592 552 
6 270 271 204 520 521 454 
6 66 243 1 114 493 16 
6 59 241 12 107 491 27 
6 280 306 279 530 556 529 
6 269 337 274 519 587 524 
6 179 256 224 429 506 474 
6 163 305 166 413 555 416 
6 201 303 194 451 553 444 
6 280 332 306 530 582 556 
6 186 255 225 436 505 475 
6 210 310 273 460 560 523 
6 153 270 204 403 520 454 
6 136 231 45 386 481 93 
6 171 265 169 421 515 419 
6 138 230 52 388 480 100 
6 225 354 325 475 604 575 
6 36 284 232 84 534 482 
6 161 268 159 411 518 409 
6 71 286 229 119 536 479 
6 290 303 201 540 553 451 
6 139 355 60 389 605 108 
6 60 355 248 108 605 498 
6 273 352 302 523 602 552 
6 235 373 245 485 623 495 
6 67 356 247 115 606 497 
6 221 295 277 471 545 527 
6 142 356 67 392 606 115 
6 139 283 253 389 533 503 
6 203 315 262 453 565 512 
6 41 257 145 89 507 395 
6 36 232 135 84 482 385 
6 71 229 137 119 479 387 
6 254 255 188 504 505 438 
6 233 350 334 483 600 584 
6 262 346 203 512 596 453 
6 304 325 127 554 575 377 
6 222 329 247 472 579 497 
6 218 298 260 468 548 510 
6 290 321 291 540 571 541 
6 272 310 240 522 560 490 
6 269 274 270 519 524 520 
6 244 245 57 494 495 105 
6 49 307 141 97 557 391 
6 225 325 256 475 575 506 
6 273 310 272 523 560 522 
6 312 368 255 562 618 505 
6 249 305 206 499 555 456 
6 228 331 251 478 581 501 
6 302 342 263 552 592 513 
6 338 339 44 588 589 92 
6 190 254 188 440 504 438 
6 37 341 340 85 591 590 
6 138 233 230 388 483 480 
6 228 335 331 478 585 581 
6 181 256 179 431 506 429 
6 195 263 226 445 513 476 
6 268 285 223 518 535 473 
6 290 291 288 540 541 538 
6 219 330 248 469 580 498 
6 201 321 290 451 571 540 
6 240 310 202 490 560 452 
6 188 255 186 438 505 436 
6 270 274 271 520 524 521 
6 262 349 259 512 599 509 
6 141 324 289 391 574 539 
6 296 301 142 546 551 392 
6 247 356 222 497 606 472 
6 239 252 238 489 502 488 
6 254 312 255 504 562 505 
6 54 261 53 102 511 101 
6 289 327 303 539 577 553 
6 268 353 285 518 603 535 
6 273 302 210 523 552 460 
6 292 299 293 542 549 543 
6 278 283 139 528 533 389 
6 175 265 171 425 515 421 
6 227 338 38 477 588 86 
6 264 360 265 514 610 515 
6 43 340 146 91 590 396 
6 165 268 161 415 518 411 
6 205 351 240 455 601 490 
6 64 281 63 112 531 111 
6 288 291 47 538 541 95 
6 135 295 294 385 545 544 
6 42 257 41 90 507 89 
6 245 373 57 495 623 105 
6 31 363 323 79 613 573 
6 292 293 140 542 543 390 
6 267 353 268 517 603 518 
6 155 270 153 405 520 403 
6 244 344 245 494 594 495 
6 61 278 139 109 528 389 
6 135 294 35 385 544 83 
6 69 297 296 117 547 546 
6 186 225 184 436 475 434 
6 329 361 243 579 611 493 
6 255 328 225 505 578 475 
6 213 332 280 463 582 530 
6 39 275 133 87 525 383 
6 330 362 241 580 612 491 
6 195 226 193 445 476 443 
6 211 324 251 461 574 501 
6 151 153 152 401 403 402 
6 295 299 294 545 549 544 
6 265 313 217 515 563 467 
6 258 259 143 508 509 393 
6 251 331 211 501 581 461 
6 149 151 150 399 401 400 
6 293 370 317 543 620 567 
6 153 204 152 403 454 402 
6 151 152 150 401 402 400 
6 33 292 140 81 542 390 
6 210 263 197 460 513 447 
6 301 305 249 551 555 499 
6 298 300 297 548 550 547 
6 68 296 142 116 546 392 
6 321 369 291 571 619 541 
6 179 224 177 429 474 427 
6 167 267 165 417 517 415 
6 259 346 262 509 596 512 
6 303 327 196 553 577 446 
6 269 270 155 519 520 405 
6 265 360 313 515 610 563 
6 223 269 157 473 519 407 
6 157 269 155 407 519 405 
6 144 279 278 394 529 528 
6 169 217 167 419 467 417 
6 177 264 175 427 514 425 
6 267 268 165 517 518 415 
6 159 223 157 409 473 407 
6 232 277 135 482 527 385 
6 193 254 190 443 504 440 
6 217 267 167 467 517 417 
6 249 356 142 499 606 392 
6 184 256 181 434 506 431 
6 248 355 219 498 605 469 
6 229 260 137 479 510 387 
6 149 150 148 399 400 398 
6 64 348 281 112 598 531 
6 311 374 293 561 624 543 
6 264 265 175 514 515 425 
6 297 300 296 547 550 546 
6 141 289 288 391 539 538 
6 197 263 195 447 513 445 
6 218 260 219 468 510 469 
6 224 264 177 474 514 427 
6 137 298 297 387 548 547 
6 277 295 135 527 545 385 
6 133 228 227 383 478 477 
6 261 349 262 511 599 512 
6 221 277 222 471 527 472 
6 256 325 224 506 575 474 
6 199 210 197 449 460 447 
6 226 254 193 476 504 443 
6 144 278 62 394 528 110 
6 279 283 278 529 533 528 
6 289 290 288 539 540 538 
6 137 297 70 387 547 118 
6 34 294 292 82 544 542 
6 235 236 216 485 486 466 
6 141 288 48 391 538 96 
6 178 306 180 428 556 430 
6 185 186 184 435 436 434 
6 63 281 144 111 531 394 
6 225 256 184 475 506 434 
6 46 291 136 94 541 386 
6 147 149 148 397 399 398 
6 271 272 204 521 522 454 
6 233 334 234 483 584 484 
6 145 275 40 395 525 88 
6 220 322 287 470 572 537 
6 280 334 213 530 584 463 
6 144 280 279 394 530 529 
6 140 287 32 390 537 80 
6 154 155 153 404 405 403 
6 334 350 213 584 600 463 
6 176 177 175 426 427 425 
6 260 298 137 510 548 387 
6 33 140 32 81 390 80 
6 49 141 48 97 391 96 
6 56 143 55 104 393 103 
6 68 142 67 116 392 115 
6 63 144 62 111 394 110 
6 61 139 60 109 389 108 
6 148 308 257 398 558 507 
6 71 137 70 119 387 118 
6 53 138 52 101 388 100 
6 46 136 45 94 386 93 
6 36 135 35 84 385 83 
6 43 146 134 91 396 384 
6 133 227 38 383 477 86 
6 192 193 190 442 443 440 
6 293 374 140 543 624 390 
6 34 292 33 82 542 81 
6 207 306 178 457 556 428 
6 43 134 42 91 384 90 
6 39 133 38 87 383 86 
6 41 145 40 89 395 88 
6 194 195 193 444 445 443 
6 69 296 68 117 546 116 
6 294 299 292 544 549 542 
6 173 175 171 423 425 421 
6 260 330 219 510 580 469 
6 183 184 181 433 434 431 
6 134 257 42 384 507 90 
6 55 349 54 103 599 102 
6 163 165 161 413 415 411 
6 166 167 165 416 417 415 
6 210 302 263 460 552 513 
6 271 273 272 521 523 522 
6 53 261 138 101 511 388 
6 217 326 267 467 576 517 
6 289 303 290 539 553 540 
6 178 179 177 428 429 427 
6 238 240 202 488 490 452 
6 62 278 61 110 528 109 
6 35 294 34 83 544 82 
6 284 361 232 534 611 482 
6 70 297 69 118 547 117 
6 224 304 264 474 554 514 
6 156 157 155 406 407 405 
6 48 288 47 96 538 95 
6 221 320 295 471 570 545 
6 187 188 186 437 438 436 
6 47 291 46 95 541 94 
6 151 154 153 401 404 403 
6 286 362 229 536 612 479 
6 168 169 167 418 419 417 
6 40 275 39 88 525 87 
6 307 324 141 557 574 391 
6 300 301 296 550 551 546 
6 32 287 31 80 537 79 
6 147 220 149 397 470 399 
6 333 344 231 583 594 481 
6 299 370 293 549 620 543 
6 271 359 273 521 609 523 
6 224 325 304 474 575 554 
6 228 237 227 478 487 477 
6 305 375 343 555 625 593 
6 218 319 298 468 569 548 
6 240 351 272 490 601 522 
6 277 329 222 527 579 472 
6 253 355 139 503 605 389 
6 158 159 157 408 409 407 
6 236 246 216 486 496 466 
6 192 194 193 442 444 443 
6 220 309 149 470 559 399 
6 183 185 184 433 435 434 
6 196 197 195 446 447 445 
6 276 347 58 526 597 106 
6 136 333 231 386 583 481 
6 67 247 66 115 497 114 
6 60 248 59 108 498 107 
6 261 262 250 511 512 500 
6 173 176 175 423 426 425 
6 344 357 231 594 607 481 
6 144 281 280 394 531 530 
6 152 205 150 402 455 400 
6 163 166 165 413 416 415 
6 185 187 186 435 437 436 
6 233 234 230 483 484 480 
6 170 171 169 420 421 419 
6 146 147 134 396 397 384 
6 176 178 177 426 428 427 
6 285 337 223 535 587 473 
6 154 156 155 404 406 405 
6 263 342 226 513 592 476 
6 235 245 236 485 495 486 
6 160 161 159 410 411 409 
6 58 347 242 106 597 492 
6 166 168 167 416 418 417 
6 287 374 220 537 624 470 
6 189 190 188 439 440 438 
6 148 257 134 398 507 384 
6 194 196 195 444 446 445 
6 252 308 205 502 558 455 
6 285 345 337 535 595 587 
6 301 375 305 551 625 555 
6 180 181 179 430 431 429 
6 281 348 234 531 598 484 
6 198 199 197 448 449 447 
6 151 309 154 401 559 404 
6 228 367 335 478 617 585 
6 54 349 261 102 599 511 
6 156 158 157 406 408 407 
6 168 170 169 418 420 419 
6 200 202 199 450 452 449 
6 147 148 134 397 398 384 
6 158 160 159 408 410 409 
6 150 308 148 400 558 398 
6 253 316 208 503 566 458 
6 232 329 277 482 579 527 
6 178 180 179 428 430 429 
6 191 192 190 441 442 440 
6 214 238 202 464 488 452 
6 172 173 171 422 423 421 
6 187 189 188 437 439 438 
6 162 163 161 412 413 411 
6 228 251 237 478 501 487 
6 215 258 235 465 508 485 
6 182 183 181 432 433 431 
6 202 310 199 452 560 449 
6 219 253 208 469 503 458 
6 222 249 206 472 499 456 
6 196 198 197 446 448 447 
6 229 330 260 479 580 510 
6 132 358 274 382 608 524 
6 149 309 151 399 559 401 
6 226 312 254 476 562 504 
6 154 309 209 404 559 459 
6 77 129 76 125 379 124 
6 73 128 72 121 378 120 
6 76 131 75 124 381 123 
6 74 132 73 122 382 121 
6 75 130 74 123 380 122 
6 14 127 77 29 377 125 
6 72 126 14 120 376 29 
6 133 367 228 383 617 478 
6 237 282 227 487 532 477 
6 239 366 252 489 616 502 
6 200 214 202 450 464 452 
6 192 201 194 442 451 444 
6 170 172 171 420 422 421 
6 220 311 309 470 561 559 
6 198 200 199 448 450 449 
6 189 191 190 439 441 440 
6 146 323 322 396 573 572 
6 160 162 161 410 412 411 
6 251 307 237 501 557 487 
6 199 310 210 449 560 460 
6 57 373 56 105 623 104 
6 214 239 238 464 489 488 
6 182 212 183 432 462 433 
6 180 182 181 430 432 431 
6 146 322 147 396 572 397 
6 172 218 208 422 468 458 
6 172 208 173 422 458 423 
6 162 221 206 412 471 456 
6 162 206 163 412 456 413 
6 176 207 178 426 457 428 
6 272 351 204 522 601 454 
6 198 211 200 448 461 450 
6 182 213 212 432 463 462 
6 234 334 281 484 584 531 
6 154 209 156 404 459 406 
6 185 203 187 435 453 437 
6 168 174 170 418 424 420 
6 189 215 191 439 465 441 
6 215 216 191 465 466 441 
6 221 222 206 471 472 456 
6 158 164 160 408 414 410 
6 218 219 208 468 469 458 
6 205 308 150 455 558 400 
6 191 314 192 441 564 442 
6 215 235 216 465 485 466 
6 215 318 258 465 568 508 
6 152 351 205 402 601 455 
6 138 261 250 388 511 500 
6 192 314 201 442 564 451 
6 234 347 230 484 597 480 
6 226 342 312 476 592 562 
6 138 250 233 388 500 483 
6 147 322 220 397 572 470 
6 216 314 191 466 564 441 
6 306 332 180 556 582 430 
6 222 356 249 472 606 499 
6 128 345 285 378 595 535 
6 314 321 201 564 571 451 
6 212 315 183 462 565 433 
6 312 342 336 562 592 586 
6 282 339 338 532 589 588 
6 340 341 323 590 591 573 
6 309 311 209 559 561 459 
6 183 315 185 433 565 435 
6 208 316 173 458 566 423 
6 173 316 176 423 566 426 
6 3 341 37 18 591 85 
6 44 339 6 92 589 21 
6 252 366 145 502 616 395 
6 246 321 314 496 571 564 
6 246 314 216 496 564 466 
6 126 364 313 376 614 563 
6 156 317 158 406 567 408 
6 275 367 133 525 617 383 
6 176 316 207 426 566 457 
6 185 315 203 435 565 453 
6 180 332 182 430 582 432 
6 302 352 131 552 602 381 
6 251 324 307 501 574 557 
6 187 318 189 437 568 439 
6 172 319 218 422 569 468 
6 162 320 221 412 570 471 
6 305 343 166 555 593 416 
6 170 319 172 420 569 422 
6 158 317 164 408 567 414 
6 209 317 156 459 567 406 
6 285 353 128 535 603 378 
6 223 337 269 473 587 519 
6 160 320 162 410 570 412 
6 211 331 200 461 581 450 
6 174 319 170 424 569 420 
6 203 318 187 453 568 437 
6 189 318 215 439 568 465 
6 198 327 211 448 577 461 
6 164 320 160 414 570 410 
6 326 353 267 576 603 517 
6 236 344 333 486 594 583 
6 196 327 198 446 577 448 
6 219 355 253 469 605 503 
6 281 334 280 531 584 530 
6 274 359 271 524 609 521 
6 164 370 299 414 620 549 
6 174 375 300 424 625 550 
6 287 363 31 537 613 79 
6 243 361 1 493 611 16 
6 241 362 12 491 612 27 
6 307 365 237 557 615 487 
6 166 343 168 416 593 418 
6 200 331 214 450 581 464 
6 313 326 217 563 576 467 
6 9 357 244 24 607 494 
6 1 361 30 16 611 78 
6 12 362 65 27 612 113 
6 337 345 132 587 595 382 
6 242 348 64 492 598 112 
6 231 357 266 481 607 516 
6 182 332 213 432 582 463 
6 245 344 236 495 594 486 
6 258 346 259 508 596 509 
6 145 366 275 395 616 525 
6 291 369 136 541 619 386 
6 236 333 246 486 583 496 
6 331 335 214 581 585 464 
6 312 336 129 562 586 379 
6 315 372 262 565 622 512 
6 220 374 311 470 624 561 
6 140 374 287 390 624 537 
6 126 360 304 376 610 554 
6 230 347 276 480 597 526 
6 313 364 326 563 614 576 
6 56 373 143 104 623 393 
6 239 367 366 489 617 616 
6 204 351 152 454 601 402 
6 300 375 301 550 625 551 
6 214 335 239 464 585 489 
6 247 329 243 497 579 493 
6 262 372 250 512 622 500 
6 248 330 241 498 580 491 
6 318 346 258 568 596 508 
6 333 369 246 583 619 496 
6 282 338 227 532 588 477 
6 146 340 323 396 590 573 
6 304 360 264 554 610 514 
6 366 367 275 616 617 525 
6 129 336 76 379 586 124 
6 73 345 128 121 595 378 
6 76 336 131 124 586 381 
6 250 350 233 500 600 483 
6 129 371 328 379 621 578 
6 132 345 73 382 595 121 
6 168 343 174 418 593 424 
6 131 352 75 381 602 123 
6 66 247 243 114 497 493 
6 59 248 241 107 498 491 
6 74 358 132 122 608 382 
6 203 346 318 453 596 568 
6 313 360 126 563 610 376 
6 128 364 72 378 614 120 
6 128 353 326 378 603 576 
6 77 371 129 125 621 379 
6 129 368 312 379 618 562 
6 244 357 344 494 607 594 
6 328 354 225 578 604 475 
6 326 364 128 576 614 378 
6 75 352 130 123 602 380 
6 350 372 212 600 622 462 
6 136 369 333 386 619 583 
6 325 354 127 575 604 377 
6 213 350 212 463 600 462 
6 130 358 74 380 608 122 
6 250 372 350 500 622 600 
6 317 370 164 567 620 414 
6 72 364 126 120 614 376 
6 328 368 129 578 618 379 
6 127 371 77 377 621 125 
6 336 342 131 586 592 381 
6 212 372 315 462 622 565 
6 234 348 347 484 598 597 
6 8 266 51 23 516 99 
6 10 276 58 25 526 106 
6 246 369 321 496 619 571 
6 30 284 0 78 534 15 
6 65 286 13 113 536 28 
6 58 242 11 106 492 26 
6 266 357 51 516 607 99 
6 255 368 328 505 618 578 
6 347 348 242 597 598 492 
6 322 363 287 572 613 537 
6 323 363 322 573 613 572 
6 335 367 239 585 617 489 
6 30 361 284 78 611 534 
6 65 362 286 113 612 536 
6 237 365 282 487 615 532 
6 130 359 358 380 609 608 
6 343 375 174 593 625 424 
6 354 371 127 604 621 377 
6 328 371 354 578 621 604 
6 358 359 274 608 609 524 
6 0 284 36 15 534 84 
6 45 266 8 93 516 23 
6 52 276 10 100 526 25 
6 11 242 64 26 492 112 
6 13 286 71 28 536 119 
6 2 323 3 17 573 18 
6 31 323 2 79 573 17 
6 323 341 3 573 591 18 
6 37 340 4 85 590 19 
6 4 340 43 19 590 91 
6 38 338 5 86 588 20 
6 5 338 44 20 588 92 
6 6 282 7 21 532 22 
6 6 339 282 21 589 532 
6 282 365 7 532 615 22 

CELL_TYPES 563
13
13
13
13
13
13
13
13
13
13
13
13
13
13
13
13
13
13
13
13
13
13
13
13
13
13
13
13
13
13
13
13
13
13
13
13
13
13
13
13
13
13
13
13
13
13
13
13
13
13
13
13
13
13
13
13
13
13
13
13
13
13
13
13
13
13
13
13
13
13
13
13
13
13
13
13
13
13
13
13
13
13
13
13
13
13
13
13
13
13
13
13
13
13
13
13
13
13
13
13
13
13
13
13
13
13
13
13
13
13
13
13
13
13
13
13
13
13
13
13
13
13
13
13
13
13
13
13
13
13
13
13
13
13
13
13
13
13
13
13
13
13
13
13
13
13
13
13
13
13
13
13
13
13
13
13
13
13
13
13
13
13
13
13
13
13
13
13
13
13
13
13
13
13
13
13
13
13
13
13
13
13
13
13
13
13
13
13
13
13
13
13
13
13
13
13
13
13
13
13
13
13
13
13
13
13
13
13
13
13
13
13
13
13
13
13
13
13
13
13
13
13
13
13
13
13
13
13
13
13
13
13
13
13
13
13
13
13
13
13
13
13
13
13
13
13
13
13
13
13
13
13
13
13
13
13
13
13
13
13
13
13
13
13
13
13
13
13
13
13
13
13
13
13
13
13
13
13
13
13
13
13
13
13
13
13
13
13
13
13
13
13
13
13
13
13
13
13
13
13
13
13
13
13
13
13
13
13
13
13
13
13
13
13
13
13
13
13
13
13
13
13
13
13
13
13
13
13
13
13
13
13
13
13
13
13
13
13
13
13
13
13
13
13
13
13
13
13
13
13
13
13
13
13
13
13
13
13
13
13
13
13
13
13
13
13
13
13
13
13
13
13
13
13
13
13
13
13
13
13
13
13
13
13
13
13
13
13
13
13
13
13
13
13
13
13
13
13
13
13
13
13
13
13
13
13
13
13
13
13
13
13
13
13
13
13
13
13
13
13
13
13
13
13
13
13
13
13
13
13
13
13
13
13
13
13
13
13
13
13
13
13
13
13
13
13
13
13
13
13
13
13
13
13
13
13
13
13
13
13
13
13
13
13
13
13
13
13
13
13
13
13
13
13
13
13
13
13
13
13
13
13
13
13
13
13
13
13
13
13
13
13
13
13
13
13
13
13
13
13
13
13
13
13
13
13
13
13
13
13
13
13
13
13
13
13
13
13
13
13
13
13
13
13
13
13
13
13
13
13
13
13
13
13
13
13
13
13
13
13
13
13
13
13
13
13
13
13
13
13
13
13
13
13
13
13
13
13
13
13
13
13
13

POINT_DATA 626
VECTORS displacement float
-1.74395e-06 3.09544e-05 1.8055e-05
1.73566e-06 3.09734e-05 1.81001e-05
-2.59862e-05 1.69928e-05 1.8087e-05
-2.58409e-05 1.6033e-05 1.80516e-05
-2.77206e-05 1.39728e-05 1.8069e-05
-2.77136e-05 -1.40191e-05 1.80945e-05
-2.58121e-05 -1.60712e-05 1.81058e-05
-2.59825e-05 -1.70109e-05 1.8167e-05
-1.6774e-06 -3.09581e-05 1.80514e-05
1.75545e-06 -3.09596e-05 1.81019e-05
2.59436e-05 -1.69807e-05 1.80435e-05
2.7717e-05 -1.39367e-05 1.80433e-05
2.76724e-05 1.39894e-05 1.80916e-05
2.59149e-05 1.6993e-05 1.8046e-05
0 0 0
-1.74395e-06 3.09544e-05 -1.8055e-05
1.73566e-06 3.09734e-05 -1.81001e-05
-2.59862e-05 1.69928e-05 -1.8087e-05
-2.58409e-05 1.6033e-05 -1.80516e-05
-2.77206e-05 1.39728e-05 -1.8069e-05
-2.77136e-05 -1.40191e-05 -1.80945e-05
-2.58121e-05 -1.60712e-05 -1.81058e-05
-2.59825e-05 -1.70109e-05 -1.8167e-05
-1.6774e-06 -3.09581e-05 -1.80514e-05
1.75545e-06 -3.09596e-05 -1.81019e-05
2.59436e-05 -1.69807e-05 -1.80435e-05
2.7717e-05 -1.39367e-05 -1.80433e-05
2.76724e-05 1.39894e-05 -1.80916e-05
2.59149e-05 1.6993e-05 -1.8046e-05
0 0 0
2.48945e-08 3.01543e-05 1.80342e-05
-2.11405e-05 1.87124e-05 1.75497e-05
-1.72325e-05 1.98338e-05 1.69208e-05
-1.40069e-05 2.10542e-05 1.65549e-05
-1.12068e-05 2.26648e-05 1.65487e-05
-8.52407e-06 2.48328e-05 1.69013e-05
-5.56779e-06 2.76217e-05 1.75374e-05
-2.64498e-05 1.46791e-05 1.80334e-05
-2.67687e-05 -9.0115e-06 1.75774e-05
-2.58062e-05 -5.03545e-06 1.69259e-05
-2.52544e-05 -1.6362e-06 1.65713e-05
-2.52574e-05 1.60784e-06 1.65743e-05
-2.57984e-05 5.02285e-06 1.69241e-05
-2.67549e-05 8.98459e-06 1.75639e-05
-2.64367e-05 -1.47254e-05 1.80622e-05
-5.54105e-06 -2.76361e-05 1.75296e-05
-8.47658e-06 -2.48418e-05 1.69006e-05
-1.117e-05 -2.26842e-05 1.65561e-05
-1.39705e-05 -2.10872e-05 1.65595e-05
-1.72149e-05 -1.98691e-05 1.69366e-05
-2.11341e-05 -1.87491e-05 1.75622e-05
8.98401e-08 -3.0139e-05 1.80293e-05
2.11239e-05 -1.86248e-05 1.75114e-05
1.72446e-05 -1.97621e-05 1.68728e-05
1.40338e-05 -2.10111e-05 1.65115e-05
1.1225e-05 -2.25929e-05 1.65461e-05
8.58123e-06 -2.478e-05 1.68741e-05
5.65467e-06 -2.76264e-05 1.75349e-05
2.61245e-05 -1.50597e-05 1.80283e-05
2.67168e-05 8.93837e-06 1.75015e-05
2.5722e-05 5.04957e-06 1.69083e-05
2.52065e-05 1.62331e-06 1.65231e-05
2.52036e-05 -1.59942e-06 1.65214e-05
2.57506e-05 -4.99736e-06 1.68883e-05
2.66988e-05 -8.91713e-06 1.75096e-05
2.61076e-05 1.50608e-05 1.80254e-05
5.63313e-06 2.76177e-05 1.75095e-05
8.5086e-06 2.48067e-05 1.69111e-05
1.1217e-05 2.2641e-05 1.65293e-05
1.40045e-05 2.10221e-05 1.65247e-05
1.72216e-05 1.97934e-05 1.6885e-05
2.11149e-05 1.86344e-05 1.75253e-05
0 0 0
0 0 0
0 0 0
0 0 0
0 0 0
0 0 0
2.48945e-08 3.01543e-05 -1.80342e-05
-2.11405e-05 1.87124e-05 -1.75497e-05
-1.72325e-05 1.98338e-05 -1.69208e-05
-1.40069e-05 2.10542e-05 -1.65549e-05
-1.12068e-05 2.26648e-05 -1.65487e-05
-8.52407e-06 2.48328e-05 -1.69013e-05
-5.56779e-06 2.76217e-05 -1.75374e-05
-2.64498e-05 1.46791e-05 -1.80334e-05
-2.67687e-05 -9.0115e-06 -1.75774e-05
-2.58062e-05 -5.03545e-06 -1.69259e-05
-2.52544e-05 -1.6362e-06 -1.65713e-05
-2.52574e-05 1.60784e-06 -1.65743e-05
-2.57984e-05 5.02285e-06 -1.69241e-05
-2.67549e-05 8.98459e-06 -1.75639e-05
-2.64367e-05 -1.47254e-05 -1.80622e-05
-5.54105e-06 -2.76361e-05 -1.75296e-05
-8.47658e-06 -2.48418e-05 -1.69006e-05
-1.117e-05 -2.26842e-05 -1.65561e-05
-1.39705e-05 -2.10872e-05 -1.65595e-05
-1.72149e-05 -1.98691e-05 -1.69366e-05
-2.11341e-05 -1.87491e-05 -1.75622e-05
8.98401e-08 -3.0139e-05 -1.80293e-05
2.11239e-05 -1.86248e-05 -1.75114e-05
1.72446e-05 -1.97621e-05 -1.68728e-05
1.40338e-05 -2.10111e-05 -1.65115e-05
1.1225e-05 -2.25929e-05 -1.65461e-05
8.58123e-06 -2.478e-05 -1.68741e-05
5.65467e-06 -2.76264e-05 -1.75349e-05
2.61245e-05 -1.50597e-05 -1.80283e-05
2.67168e-05 8.93837e-06 -1.75015e-05
2.5722e-05 5.04957e-06 -1.69083e-05
2.52065e-05 1.62331e-06 -1.65231e-05
2.52036e-05 -1.59942e-06 -1.65214e-05
2.57506e-05 -4.99736e-06 -1.68883e-05
2.66988e-05 -8.91713e-06 -1.75096e-05
2.61076e-05 1.50608e-05 -1.80254e-05
5.63313e-06 2.76177e-05 -1.75095e-05
8.5086e-06 2.48067e-05 -1.69111e-05
1.1217e-05 2.2641e-05 -1.65293e-05
1.40045e-05 2.10221e-05 -1.65247e-05
1.72216e-05 1.97934e-05 -1.6885e-05
2.11149e-05 1.86344e-05 -1.75253e-05
0 0 0
0 0 0
0 0 0
0 0 0
0 0 0
0 0 0
1.79367e-06 8.58743e-07 4.55223e-06
1.73781e-06 -8.25111e-07 4.46078e-06
4.31952e-07 1.84962e-06 4.4951e-06
4.36096e-07 -1.78062e-06 4.35607e-06
-1.84748e-06 2.0963e-08 4.42234e-06
-1.12308e-06 -1.30887e-06 4.15098e-06
-1.1592e-06 1.30679e-06 4.19976e-06
-2.2513e-05 -7.28764e-06 1.69999e-05
-2.21963e-05 7.37153e-06 1.69685e-05
-4.86043e-06 2.28984e-05 1.69369e-05
-4.85794e-06 -2.31315e-05 1.69638e-05
1.74211e-05 1.56354e-05 1.69298e-05
1.75687e-05 -1.55364e-05 1.6939e-05
2.10734e-05 3.16386e-06 1.63243e-05
-1.39531e-05 1.71512e-05 1.64783e-05
-1.35911e-05 -1.67412e-05 1.64098e-05
7.76781e-06 1.98194e-05 1.63311e-05
7.68483e-06 -2.03099e-05 1.64024e-05
2.14722e-05 -3.44371e-06 1.64001e-05
-2.11026e-05 6.58809e-09 1.62466e-05
-2.24203e-05 1.09997e-05 1.74535e-05
-1.87508e-05 9.25465e-06 1.6627e-05
-1.79827e-05 5.79542e-06 1.60362e-05
-1.49839e-05 7.44829e-06 1.54862e-05
-1.42244e-05 4.3077e-06 1.48295e-05
-1.15325e-05 5.74386e-06 1.40946e-05
-1.0858e-05 3.06872e-06 1.33734e-05
-8.40044e-06 4.30485e-06 1.24042e-05
-9.05875e-06 7.01337e-06 1.34562e-05
-6.20407e-06 5.48848e-06 1.16888e-05
-6.82827e-06 8.2494e-06 1.30798e-05
-4.28137e-06 6.67487e-06 1.14503e-05
-4.79998e-06 9.60987e-06 1.30937e-05
-2.40086e-06 7.9933e-06 1.17228e-05
-2.81284e-06 1.11672e-05 1.34747e-05
-4.75408e-07 9.59524e-06 1.25008e-05
-7.3835e-07 1.29968e-05 1.41415e-05
1.73107e-06 1.15177e-05 1.35348e-05
-5.53466e-06 1.27003e-05 1.44367e-05
1.68507e-06 8.22393e-06 1.17474e-05
4.00416e-06 1.01208e-05 1.31508e-05
3.70533e-06 7.09791e-06 1.14781e-05
6.06737e-06 8.96662e-06 1.31132e-05
5.76679e-06 6.10676e-06 1.17354e-05
8.35804e-06 8.02028e-06 1.34918e-05
8.10561e-06 5.19524e-06 1.25002e-05
1.09539e-05 7.09702e-06 1.41468e-05
1.07459e-05 4.32277e-06 1.34989e-05
8.53048e-06 1.10374e-05 1.44606e-05
7.93765e-06 2.64373e-06 1.17272e-05
1.0646e-05 1.73719e-06 1.31038e-05
7.94865e-06 3.58759e-07 1.14554e-05
1.08064e-05 -7.59109e-07 1.31239e-05
8.1116e-06 -1.93779e-06 1.17089e-05
1.10982e-05 -3.31283e-06 1.34837e-05
8.46969e-06 -4.42396e-06 1.24439e-05
1.15037e-05 -6.00285e-06 1.41092e-05
8.95553e-06 -7.13808e-06 1.34279e-05
6.14749e-06 -5.49439e-06 1.16411e-05
6.64447e-06 -8.30082e-06 1.30181e-05
4.10519e-06 -6.58848e-06 1.13108e-05
4.52334e-06 -9.55082e-06 1.29881e-05
2.24228e-06 -7.85825e-06 1.15972e-05
2.48482e-06 -1.10018e-05 1.33508e-05
2.2529e-07 -9.37365e-06 1.23534e-05
3.30012e-07 -1.27697e-05 1.40337e-05
-1.91543e-06 -1.11506e-05 1.33768e-05
-1.84106e-06 -7.92158e-06 1.1582e-05
-4.16788e-06 -9.87481e-06 1.30849e-05
-3.81392e-06 -6.73047e-06 1.1317e-05
-6.34559e-06 -8.66198e-06 1.30991e-05
-5.89127e-06 -5.69799e-06 1.16283e-05
-8.49969e-06 -7.43577e-06 1.33795e-05
-8.16751e-06 -4.72804e-06 1.24085e-05
-1.10956e-05 -6.40274e-06 1.40697e-05
-4.37163e-06 -1.31231e-05 1.44335e-05
-1.08088e-05 -3.65067e-06 1.34391e-05
7.22609e-06 -1.13727e-05 1.42728e-05
-7.74167e-06 1.98268e-06 1.14928e-05
-1.32161e-05 1.03505e-06 1.42108e-05
1.72912e-06 1.50827e-05 1.49521e-05
1.3768e-05 4.62236e-07 1.43876e-05
1.38431e-05 6.10008e-06 1.49316e-05
-9.69403e-06 1.01962e-05 1.45324e-05
-5.41599e-06 -3.19765e-06 1.0182e-05
-1.17136e-05 -9.29731e-06 1.48891e-05
1.18823e-05 -8.76018e-06 1.4787e-05
1.47817e-05 -7.47358e-06 1.54032e-05
-1.39597e-05 -5.24388e-06 1.48616e-05
2.79581e-06 -1.45161e-05 1.47961e-05
4.24562e-07 -1.64994e-05 1.53977e-05
3.51843e-06 4.39693e-06 9.58105e-06
1.40105e-05 9.29903e-06 1.54915e-05
1.79307e-05 8.14494e-06 1.63005e-05
-1.56754e-05 1.13953e-05 1.62334e-05
-1.09408e-06 1.6769e-05 1.54952e-05
1.90686e-06 1.96216e-05 1.63109e-05
-2.09187e-06 5.22007e-06 9.59755e-06
5.55393e-06 -7.84602e-07 9.59409e-06
3.58595e-06 -3.68356e-06 9.08193e-06
-1.77963e-06 -5.17857e-06 9.44956e-06
-2.24687e-05 -1.10108e-05 1.74743e-05
-1.87981e-05 -9.2414e-06 1.6651e-05
2.11478e-05 1.41648e-05 1.75056e-05
2.07537e-05 -1.43176e-05 1.74355e-05
-1.7646e-06 -2.54465e-05 1.75109e-05
-1.68213e-06 2.54105e-05 1.75156e-05
1.7713e-05 -1.19069e-05 1.66871e-05
2.06457e-05 -1.07511e-05 1.71159e-05
3.77564e-06 -1.89851e-05 1.61393e-05
7.6853e-07 -2.03457e-05 1.64828e-05
-1.9405e-05 -1.26505e-05 1.71431e-05
-1.37311e-05 -2.30692e-06 1.44718e-05
-1.65927e-05 -3.70142e-06 1.54775e-05
-1.03758e-05 -1.09638e-06 1.2952e-05
2.4452e-05 1.10728e-05 1.76516e-05
2.54975e-05 -1.24032e-05 1.78481e-05
2.64925e-06 2.67259e-05 1.76605e-05
2.521e-06 -2.64135e-05 1.76293e-05
3.33946e-06 -2.30318e-05 1.7029e-05
-2.05389e-06 -1.83198e-05 1.59508e-05
4.05906e-06 2.37913e-05 1.71303e-05
2.26141e-05 8.37922e-06 1.71192e-05
4.61359e-06 1.73133e-05 1.57272e-05
1.44269e-05 -1.31194e-05 1.61373e-05
-1.57876e-05 -1.09847e-05 1.62145e-05
-1.67997e-05 -3.81426e-07 1.53773e-05
1.73059e-05 4.68746e-06 1.57256e-05
6.55218e-08 -6.38728e-06 1.02674e-05
1.74171e-06 -4.84844e-06 9.09244e-06
5.85044e-06 -2.9355e-06 1.03781e-05
-2.14441e-05 3.75049e-06 1.64588e-05
5.72934e-06 -1.62744e-05 1.55076e-05
9.08342e-06 -1.74989e-05 1.59974e-05
1.75721e-05 1.18816e-05 1.66722e-05
1.39942e-05 -1.63822e-05 1.64011e-05
1.07399e-05 -1.37889e-05 1.555e-05
-3.54795e-06 -4.22017e-06 9.50071e-06
5.39909e-06 1.13849e-06 9.49899e-06
5.21803e-06 3.22286e-06 1.00472e-05
-1.74978e-06 -2.83544e-05 1.78768e-05
1.89205e-06 5.29887e-06 9.58439e-06
-1.13823e-07 6.10498e-06 1.00387e-05
-3.7849e-06 4.12772e-06 9.57835e-06
-5.62265e-06 3.03417e-06 1.02852e-05
-5.16544e-06 1.04067e-06 9.21355e-06
-7.5272e-06 -6.17388e-08 1.11723e-05
-4.33435e-06 -8.10274e-07 8.3818e-06
-3.10857e-06 1.87233e-06 7.37402e-06
-2.2081e-05 -3.60773e-06 1.65157e-05
2.34061e-05 -1.56879e-05 1.78361e-05
-1.50719e-06 2.11678e-05 1.6682e-05
2.12615e-05 -8.45191e-08 1.62256e-05
1.7622e-05 -1.64679e-06 1.55813e-05
1.73476e-05 -4.94164e-06 1.57706e-05
2.18914e-05 -7.45107e-06 1.69135e-05
-2.31821e-05 -1.42545e-05 1.78326e-05
1.73245e-05 1.64886e-06 1.55084e-05
-1.734e-06 2.84729e-05 1.7894e-05
-4.2207e-07 3.6834e-06 7.49526e-06
2.37718e-05 1.57423e-05 1.78845e-05
-1.74973e-05 1.56422e-05 1.69749e-05
-1.06262e-05 -1.8466e-05 1.6255e-05
-1.00995e-05 -1.43422e-05 1.55716e-05
-7.50773e-06 -1.60948e-05 1.5622e-05
-7.32209e-06 -2.01204e-05 1.63952e-05
-1.07044e-05 1.85351e-05 1.62667e-05
-1.03473e-05 1.4384e-05 1.56192e-05
-7.7726e-06 2.04923e-05 1.64441e-05
-4.25297e-06 1.86096e-05 1.60529e-05
1.07596e-05 1.83453e-05 1.62261e-05
1.38916e-05 1.69348e-05 1.64309e-05
1.40419e-05 1.29728e-05 1.60512e-05
-7.36153e-06 1.62882e-05 1.56384e-05
1.05251e-05 1.45469e-05 1.56451e-05
7.74871e-06 1.60922e-05 1.56138e-05
-3.11645e-06 -1.89876e-06 7.39315e-06
-7.25761e-06 -1.24219e-05 1.46251e-05
3.00865e-06 4.036e-08 6.60095e-06
4.87255e-06 1.35227e-05 1.4618e-05
1.40759e-05 -2.26038e-06 1.45704e-05
-1.72897e-05 -1.52166e-05 1.69454e-05
-1.73664e-05 2.42029e-06 1.55977e-05
-1.22046e-05 8.91189e-06 1.49434e-05
-7.70559e-06 -2.29251e-06 1.15546e-05
-1.24497e-05 1.18126e-05 1.55399e-05
-1.42735e-07 -3.75421e-06 7.55415e-06
2.73022e-06 2.27207e-06 7.2519e-06
-2.00385e-06 -1.46504e-05 1.4808e-05
9.36505e-06 -1.00682e-05 1.43893e-05
1.38607e-05 3.1578e-06 1.4566e-05
-7.34001e-06 1.11993e-05 1.42602e-05
4.9972e-06 -1.27747e-05 1.43692e-05
1.10318e-05 1.04305e-05 1.49196e-05
-3.59643e-06 1.46852e-05 1.4908e-05
-4.63545e-06 -1.66168e-05 1.55488e-05
-1.9507e-05 1.28924e-05 1.71613e-05
-2.31269e-05 1.48581e-05 1.78434e-05
-1.29049e-05 -1.2686e-05 1.58125e-05
3.76079e-06 -1.58612e-06 7.90692e-06
1.76439e-06 2.92227e-06 7.08441e-06
-9.23045e-06 -1.06094e-05 1.45317e-05
1.72774e-06 -2.82315e-06 6.93104e-06
9.9473e-07 2.41168e-05 1.73085e-05
2.13679e-05 1.11938e-05 1.72986e-05
-1.46646e-05 -7.95337e-06 1.54853e-05
1.3708e-05 -4.78631e-06 1.46906e-05
-1.90988e-06 -2.17629e-05 1.68027e-05
1.80604e-05 -8.41904e-06 1.63407e-05
-1.66789e-05 -6.32855e-06 1.57824e-05
-4.329e-07 -1.92232e-06 4.79846e-06
-1.80537e-06 2.99544e-06 7.17716e-06
-2.5052e-05 -1.29818e-05 1.79223e-05
-2.51272e-05 -1.45073e-05 1.80021e-05
-2.50452e-05 1.30337e-05 1.7906e-05
-2.5118e-05 1.465e-05 1.79821e-05
-1.64845e-06 -3.12484e-06 7.20989e-06
6.32793e-06 1.13684e-05 1.40765e-05
5.3371e-07 -2.40861e-05 1.73022e-05
-5.22777e-07 1.80954e-06 4.645e-06
7.40744e-06 -1.43436e-05 1.51523e-05
2.33028e-05 -1.32093e-05 1.77288e-05
2.36327e-05 -1.05375e-05 1.74908e-05
1.19884e-05 -1.82109e-05 1.62932e-05
1.47301e-05 -1.01466e-05 1.57956e-05
-1.00271e-05 1.00124e-06 1.27546e-05
-1.74001e-06 -8.15901e-07 4.72344e-06
7.69063e-07 3.70835e-06 7.57313e-06
2.34307e-06 -1.99716e-06 6.55527e-06
2.01565e-05 5.89781e-06 1.64536e-05
5.07008e-06 2.05959e-05 1.6496e-05
3.42118e-07 -2.768e-05 1.7854e-05
-1.73123e-06 7.09111e-07 4.60632e-06
-3.2115e-06 6.23047e-07 6.82413e-06
3.57721e-06 1.47541e-06 7.63661e-06
4.99226e-07 2.83238e-05 1.79273e-05
2.47603e-05 1.37341e-05 1.79184e-05
-2.03283e-05 1.55358e-05 1.7429e-05
1.17871e-06 1.36447e-06 4.45985e-06
-2.06396e-05 -1.57284e-05 1.75276e-05
-1.89989e-05 -2.32218e-06 1.59461e-05
-1.95591e-05 -5.58498e-06 1.63323e-05
9.05682e-07 -3.24775e-06 7.00609e-06
-4.36602e-06 -1.97893e-05 1.63218e-05
-7.93727e-06 1.38344e-05 1.51011e-05
1.16575e-06 -1.30418e-06 4.33929e-06
1.19344e-05 -1.12283e-05 1.52922e-05
6.13307e-06 -2.26961e-05 1.68205e-05
-1.45221e-05 1.43554e-05 1.63236e-05
7.92907e-06 1.33212e-05 1.4948e-05
1.79367e-06 8.58743e-07 -4.55223e-06
1.73781e-06 -8.25111e-07 -4.46078e-06
4.31952e-07 1.84962e-06 -4.4951e-06
4.36096e-07 -1.78062e-06 -4.35607e-06
-1.84748e-06 2.0963e-08 -4.42234e-06
-1.12308e-06 -1.30887e-06 -4.15098e-06
-1.1592e-06 1.30679e-06 -4.19976e-06
-2.2513e-05 -7.28764e-06 -1.69999e-05
-2.21963e-05 7.37153e-06 -1.69685e-05
-4.86043e-06 2.28984e-05 -1.69369e-05
-4.85794e-06 -2.31315e-05 -1.69638e-05
1.74211e-05 1.56354e-05 -1.69298e-05
1.75687e-05 -1.55364e-05 -1.6939e-05
2.10734e-05 3.16386e-06 -1.63243e-05
-1.39531e-05 1.71512e-05 -1.64783e-05
-1.35911e-05 -1.67412e-05 -1.64098e-05
7.76781e-06 1.98194e-05 -1.63311e-05
7.68483e-06 -2.03099e-05 -1.64024e-05
2.14722e-05 -3.44371e-06 -1.64001e-05
-2.11026e-05 6.58809e-09 -1.62466e-05
-2.24203e-05 1.09997e-05 -1.74535e-05
-1.87508e-05 9.25465e-06 -1.6627e-05
-1.79827e-05 5.79542e-06 -1.60362e-05
-1.49839e-05 7.44829e-06 -1.54862e-05
-1.42244e-05 4.3077e-06 -1.48295e-05
-1.15325e-05 5.74386e-06 -1.40946e-05
-1.0858e-05 3.06872e-06 -1.33734e-05
-8.40044e-06 4.30485e-06 -1.24042e-05
-9.05875e-06 7.01337e-06 -1.34562e-05
-6.20407e-06 5.48848e-06 -1.16888e-05
-6.82827e-06 8.2494e-06 -1.30798e-05
-4.28137e-06 6.67487e-06 -1.14503e-05
-4.79998e-06 9.60987e-06 -1.30937e-05
-2.40086e-06 7.9933e-06 -1.17228e-05
-2.81284e-06 1.11672e-05 -1.34747e-05
-4.75408e-07 9.59524e-06 -1.25008e-05
-7.3835e-07 1.29968e-05 -1.41415e-05
1.73107e-06 1.15177e-05 -1.35348e-05
-5.53466e-06 1.27003e-05 -1.44367e-05
1.68507e-06 8.22393e-06 -1.17474e-05
4.00416e-06 1.01208e-05 -1.31508e-05
3.70533e-06 7.09791e-06 -1.14781e-05
6.06737e-06 8.96662e-06 -1.31132e-05
5.76679e-06 6.10676e-06 -1.17354e-05
8.35804e-06 8.02028e-06 -1.34918e-05
8.10561e-06 5.19524e-06 -1.25002e-05
1.09539e-05 7.09702e-06 -1.41468e-05
1.07459e-05 4.32277e-06 -1.34989e-05
8.53048e-06 1.10374e-05 -1.44606e-05
7.93765e-06 2.64373e-06 -1.17272e-05
1.0646e-05 1.73719e-06 -1.31038e-05
7.94865e-06 3.58759e-07 -1.14554e-05
1.08064e-05 -7.59109e-07 -1.31239e-05
8.1116e-06 -1.93779e-06 -1.17089e-05
1.10982e-05 -3.31283e-06 -1.34837e-05
8.46969e-06 -4.42396e-06 -1.24439e-05
1.15037e-05 -6.00285e-06 -1.41092e-05
8.95553e-06 -7.13808e-06 -1.34279e-05
6.14749e-06 -5.49439e-06 -1.16411e-05
6.64447e-06 -8.30082e-06 -1.30181e-05
4.10519e-06 -6.58848e-06 -1.13108e-05
4.52334e-06 -9.55082e-06 -1.29881e-05
2.24228e-06 -7.85825e-06 -1.15972e-05
2.48482e-06 -1.10018e-05 -1.33508e-05
2.2529e-07 -9.37365e-06 -1.23534e-05
3.30012e-07 -1.27697e-05 -1.40337e-05
-1.91543e-06 -1.11506e-05 -1.33768e-05
-1.84106e-06 -7.92158e-06 -1.1582e-05
-4.16788e-06 -9.87481e-06 -1.30849e-05
-3.81392e-06 -6.73047e-06 -1.1317e-05
-6.34559e-06 -8.66198e-06 -1.30991e-05
-5.89127e-06 -5.69799e-06 -1.16283e-05
-8.49969e-06 -7.43577e-06 -1.33795e-05
-8.16751e-06 -4.72804e-06 -1.24085e-05
-1.10956e-05 -6.40274e-06 -1.40697e-05
-4.37163e-06 -1.31231e-05 -1.44335e-05
-1.08088e-05 -3.65067e-06 -1.34391e-05
7.22609e-06 -1.13727e-05 -1.42728e-05
-7.74167e-06 1.98268e-06 -1.14928e-05
-1.32161e-05 1.03505e-06 -1.42108e-05
1.72912e-06 1.50827e-05 -1.49521e-05
1.3768e-05 4.62236e-07 -1.43876e-05
1.38431e-05 6.10008e-06 -1.49316e-05
-9.69403e-06 1.01962e-05 -1.45324e-05
-5.41599e-06 -3.19765e-06 -1.0182e-05
-1.17136e-05 -9.29731e-06 -1.48891e-05
1.18823e-05 -8.76018e-06 -1.4787e-05
1.47817e-05 -7.47358e-06 -1.54032e-05
-1.39597e-05 -5.24388e-06 -1.48616e-05
2.79581e-06 -1.45161e-05 -1.47961e-05
4.24562e-07 -1.64994e-05 -1.53977e-05
3.51843e-06 4.39693e-06 -9.58105e-06
1.40105e-05 9.29903e-06 -1.54915e-05
1.79307e-05 8.14494e-06 -1.63005e-05
-1.56754e-05 1.13953e-05 -1.62334e-05
-1.09408e-06 1.6769e-05 -1.54952e-05
1.90686e-06 1.96216e-05 -1.63109e-05
-2.09187e-06 5.22007e-06 -9.59755e-06
5.55393e-06 -7.84602e-07 -9.59409e-06
3.58595e-06 -3.68356e-06 -9.08193e-06
-1.77963e-06 -5.17857e-06 -9.44956e-06
-2.24687e-05 -1.10108e-05 -1.74743e-05
-1.87981e-05 -9.2414e-06 -1.6651e-05
2.11478e-05 1.41648e-05 -1.75056e-05
2.07537e-05 -1.43176e-05 -1.74355e-05
-1.7646e-06 -2.54465e-05 -1.75109e-05
-1.68213e-06 2.54105e-05 -1.75156e-05
1.7713e-05 -1.19069e-05 -1.66871e-05
2.06457e-05 -1.07511e-05 -1.71159e-05
3.77564e-06 -1.89851e-05 -1.61393e-05
7.6853e-07 -2.03457e-05 -1.64828e-05
-1.9405e-05 -1.26505e-05 -1.71431e-05
-1.37311e-05 -2.30692e-06 -1.44718e-05
-1.65927e-05 -3.70142e-06 -1.54775e-05
-1.03758e-05 -1.09638e-06 -1.2952e-05
2.4452e-05 1.10728e-05 -1.76516e-05
2.54975e-05 -1.24032e-05 -1.78481e-05
2.64925e-06 2.67259e-05 -1.76605e-05
2.521e-06 -2.64135e-05 -1.76293e-05
3.33946e-06 -2.30318e-05 -1.7029e-05
-2.05389e-06 -1.83198e-05 -1.59508e-05
4.05906e-06 2.37913e-05 -1.71303e-05
2.26141e-05 8.37922e-06 -1.71192e-05
4.61359e-06 1.73133e-05 -1.57272e-05
1.44269e-05 -1.31194e-05 -1.61373e-05
-1.57876e-05 -1.09847e-05 -1.62145e-05
-1.67997e-05 -3.81426e-07 -1.53773e-05
1.73059e-05 4.68746e-06 -1.57256e-05
6.55218e-08 -6.38728e-06 -1.02674e-05
1.74171e-06 -4.84844e-06 -9.09244e-06
5.85044e-06 -2.9355e-06 -1.03781e-05
-2.14441e-05 3.75049e-06 -1.64588e-05
5.72934e-06 -1.62744e-05 -1.55076e-05
9.08342e-06 -1.74989e-05 -1.59974e-05
1.75721e-05 1.18816e-05 -1.66722e-05
1.39942e-05 -1.63822e-05 -1.64011e-05
1.07399e-05 -1.37889e-05 -1.555e-05
-3.54795e-06 -4.22017e-06 -9.50071e-06
5.39909e-06 1.13849e-06 -9.49899e-06
5.21803e-06 3.22286e-06 -1.00472e-05
-1.74978e-06 -2.83544e-05 -1.78768e-05
1.89205e-06 5.29887e-06 -9.58439e-06
-1.13823e-07 6.10498e-06 -1.00387e-05
-3.7849e-06 4.12772e-06 -9.57835e-06
-5.62265e-06 3.03417e-06 -1.02852e-05
-5.16544e-06 1.04067e-06 -9.21355e-06
-7.5272e-06 -6.17388e-08 -1.11723e-05
-4.33435e-06 -8.10274e-07 -8.3818e-06
-3.10857e-06 1.87233e-06 -7.37402e-06
-2.2081e-05 -3.60773e-06 -1.65157e-05
2.34061e-05 -1.56879e-05 -1.78361e-05
-1.50719e-06 2.11678e-05 -1.6682e-05
2.12615e-05 -8.45191e-08 -1.62256e-05
1.7622e-05 -1.64679e-06 -1.55813e-05
1.73476e-05 -4.94164e-06 -1.57706e-05
2.18914e-05 -7.45107e-06 -1.69135e-05
-2.31821e-05 -1.42545e-05 -1.78326e-05
1.73245e-05 1.64886e-06 -1.55084e-05
-1.734e-06 2.84729e-05 -1.7894e-05
-4.2207e-07 3.6834e-06 -7.49526e-06
2.37718e-05 1.57423e-05 -1.78845e-05
-1.74973e-05 1.56422e-05 -1.69749e-05
-1.06262e-05 -1.8466e-05 -1.6255e-05
-1.00995e-05 -1.43422e-05 -1.55716e-05
-7.50773e-06 -1.60948e-05 -1.5622e-05
-7.32209e-06 -2.01204e-05 -1.63952e-05
-1.07044e-05 1.85351e-05 -1.62667e-05
-1.03473e-05 1.4384e-05 -1.56192e-05
-7.7726e-06 2.04923e-05 -1.64441e-05
-4.25297e-06 1.86096e-05 -1.60529e-05
1.07596e-05 1.83453e-05 -1.62261e-05
1.38916e-05 1.69348e-05 -1.64309e-05
1.40419e-05 1.29728e-05 -1.60512e-05
-7.36153e-06 1.62882e-05 -1.56384e-05
1.05251e-05 1.45469e-05 -1.56451e-05
7.74871e-06 1.60922e-05 -1.56138e-05
-3.11645e-06 -1.89876e-06 -7.39315e-06
-7.25761e-06 -1.24219e-05 -1.46251e-05
3.00865e-06 4.036e-08 -6.60095e-06
4.87255e-06 1.35227e-05 -1.4618e-05
1.40759e-05 -2.26038e-06 -1.45704e-05
-1.72897e-05 -1.52166e-05 -1.69454e-05
-1.73664e-05 2.42029e-06 -1.55977e-05
-1.22046e-05 8.91189e-06 -1.49434e-05
-7.70559e-06 -2.29251e-06 -1.15546e-05
-1.24497e-05 1.18126e-05 -1.55399e-05
-1.42735e-07 -3.75421e-06 -7.55415e-06
2.73022e-06 2.27207e-06 -7.2519e-06
-2.00385e-06 -1.46504e-05 -1.4808e-05
9.36505e-06 -1.00682e-05 -1.43893e-05
1.38607e-05 3.1578e-06 -1.4566e-05
-7.34001e-06 1.11993e-05 -1.42602e-05
4.9972e-06 -1.27747e-05 -1.43692e-05
1.10318e-05 1.04305e-05 -1.49196e-05
-3.59643e-06 1.46852e-05 -1.4908e-05
-4.63545e-06 -1.66168e-05 -1.55488e-05
-1.9507e-05 1.28924e-05 -1.71613e-05
-2.31269e-05 1.48581e-05 -1.78434e-05
-1.29049e-05 -1.2686e-05 -1.58125e-05
3.76079e-06 -1.58612e-06 -7.90692e-06
1.76439e-06 2.92227e-06 -7.08441e-06
-9.23045e-06 -1.06094e-05 -1.45317e-05
1.72774e-06 -2.82315e-06 -6.93104e-06
9.9473e-07 2.41168e-05 -1.73085e-05
2.13679e-05 1.11938e-05 -1.72986e-05
-1.46646e-05 -7.95337e-06 -1.54853e-05
1.3708e-05 -4.78631e-06 -1.46906e-05
-1.90988e-06 -2.17629e-05 -1.68027e-05
1.80604e-05 -8.41904e-06 -1.63407e-05
-1.66789e-05 -6.32855e-06 -1.57824e-05
-4.329e-07 -1.92232e-06 -4.79846e-06
-1.80537e-06 2.99544e-06 -7.17716e-06
-2.5052e-05 -1.29818e-05 -1.79223e-05
-2.51272e-05 -1.45073e-05 -1.80021e-05
-2.50452e-05 1.30337e-05 -1.7906e-05
-2.5118e-05 1.465e-05 -1.79821e-05
-1.64845e-06 -3.12484e-06 -7.20989e-06
6.32793e-06 1.13684e-05 -1.40765e-05
5.3371e-07 -2.40861e-05 -1.73022e-05
-5.22777e-07 1.80954e-06 -4.645e-06
7.40744e-06 -1.43436e-05 -1.51523e-05
2.33028e-05 -1.32093e-05 -1.77288e-05
2.36327e-05 -1.05375e-05 -1.74908e-05
1.19884e-05 -1.82109e-05 -1.62932e-05
1.47301e-05 -1.01466e-05 -1.57956e-05
-1.00271e-05 1.00124e-06 -1.27546e-05
-1.74001e-06 -8.15901e-07 -4.72344e-06
7.69063e-07 3.70835e-06 -7.57313e-06
2.34307e-06 -1.99716e-06 -6.55527e-06
2.01565e-05 5.89781e-06 -1.64536e-05
5.07008e-06 2.05959e-05 -1.6496e-05
3.42118e-07 -2.768e-05 -1.7854e-05
-1.73123e-06 7.09111e-07 -4.60632e-06
-3.2115e-06 6.23047e-07 -6.82413e-06
3.57721e-06 1.47541e-06 -7.63661e-06
4.99226e-07 2.83238e-05 -1.79273e-05
2.47603e-05 1.37341e-05 -1.79184e-05
-2.03283e-05 1.55358e-05 -1.7429e-05
1.17871e-06 1.36447e-06 -4.45985e-06
-2.06396e-05 -1.57284e-05 -1.75276e-05
-1.89989e-05 -2.32218e-06 -1.59461e-05
-1.95591e-05 -5.58498e-06 -1.63323e-05
9.05682e-07 -3.24775e-06 -7.00609e-06
-4.36602e-06 -1.97893e-05 -1.63218e-05
-7.93727e-06 1.38344e-05 -1.51011e-05
1.16575e-06 -1.30418e-06 -4.33929e-06
1.19344e-05 -1.12283e-05 -1.52922e-05
6.13307e-06 -2.26961e-05 -1.68205e-05
-1.45221e-05 1.43554e-05 -1.63236e-05
7.92907e-06 1.33212e-05 -1.4948e-05
SCALARS effective_fluid_pressure_TPM float
LOOKUP_TABLE default
665
665
665
665
665
665
665
665
665
665
665
665
665
665
133
665
665
665
665
665
665
665
665
665
665
665
665
665
665
133
665
560.318
520.662
502.802
502.573
519.788
559.938
665
561.984
520.757
503.245
503.355
520.689
561.606
665
559.605
519.659
502.747
502.965
521.157
561.622
665
558.861
519.003
501.536
502.231
518.853
559.45
665
558.501
519.943
501.868
501.799
519.376
557.94
665
558.657
519.957
502.041
501.902
519.364
559.664
133
133
133
133
133
133
665
560.318
520.662
502.802
502.573
519.788
559.938
665
561.984
520.757
503.245
503.355
520.689
561.606
665
559.605
519.659
502.747
502.965
521.157
561.622
665
558.861
519.003
501.536
502.231
518.853
559.45
665
558.501
519.943
501.868
501.799
519.376
557.94
665
558.657
519.957
502.041
501.902
519.364
559.664
133
133
133
133
133
133
228.255
226.326
227.039
224.108
225.523
219.845
220.861
529.162
528.172
526.551
527.93
526.578
527.631
498.698
503.545
501.583
498.939
501.455
501.237
494.319
562.5
518.976
495.022
480.729
461.349
443.269
425.037
402.111
427.261
385.257
417.729
379.603
417.892
385.941
427.378
404.288
444.372
429.067
450.249
386.551
419.292
380.198
418.304
386.181
427.751
404.216
444.483
428.151
450.845
386.025
418.155
379.614
418.511
385.549
427.587
402.91
443.545
426.442
384.042
416.128
376.298
415.335
383.014
424.409
400.836
441.694
425.216
382.751
417.768
376.563
418.086
383.836
425.256
402.203
442.667
450.639
426.716
445.997
380.723
444.663
465.278
448.73
464.752
453.4
350.899
463.493
461.025
478.432
462.761
460.631
478.337
337.274
480.808
505.841
503.6
480.874
506.147
337.686
337.498
326.162
334.412
563.376
519.651
567.577
562.362
567.894
567.747
521.8
542.712
498.613
513.725
542.057
451.442
477.559
414.647
579.518
611.027
579.67
576.031
534.546
494.463
538.22
537.917
485.019
498.099
503.317
473.121
485.067
352.743
326.412
355.173
503.427
477.698
488.341
520.869
502.009
477.895
335.537
335.401
347.696
613.445
337.375
347.567
337.261
353.199
329.185
373.25
310.657
288.785
504.692
608.38
521.09
493.703
478.308
486.336
526.484
600.339
476.545
615.898
291.394
615.797
528.713
494.514
478.215
479.389
501.297
494.82
479.416
502.492
495.156
493.725
502.244
495.229
479.863
480.029
479.031
289.291
454.571
271.94
454.979
453.607
526.993
479.452
465.202
382.093
480.488
292.667
286.079
461.458
449.612
453.956
445.834
448.668
463.583
463.24
479.932
543.452
601.7
487.472
300.298
282.458
452.992
279.16
552.234
551.994
480.754
457.997
526.216
508.167
488.57
233.727
284.555
614.505
636.321
615.139
636.678
285.277
441.319
553.075
230.483
467.53
590.261
566.028
495.794
490.029
410.024
232.117
293.093
271.123
507.876
509.173
607.813
229.661
276.973
294.427
618.877
618.79
558.508
226.52
562.522
488.292
503.375
280.844
504.045
466.357
224.005
473.564
519.561
502.96
462.423
228.255
226.326
227.039
224.108
225.523
219.845
220.861
529.162
528.172
526.551
527.93
526.578
527.631
498.698
503.545
501.583
498.939
501.455
501.237
494.319
562.5
518.976
495.022
480.729
461.349
443.269
425.037
402.111
427.261
385.257
417.729
379.603
417.892
385.941
427.378
404.288
444.372
429.067
450.249
386.551
419.292
380.198
418.304
386.181
427.751
404.216
444.483
428.151
450.845
386.025
418.155
379.614
418.511
385.549
427.587
402.91
443.545
426.442
384.042
416.128
376.298
415.335
383.014
424.409
400.836
441.694
425.216
382.751
417.768
376.563
418.086
383.836
425.256
402.203
442.667
450.639
426.716
445.997
380.723
444.663
465.278
448.73
464.752
453.4
350.899
463.493
461.025
478.432
462.761
460.631
478.337
337.274
480.808
505.841
503.6
480.874
506.147
337.686
337.498
326.162
334.412
563.376
519.651
567.577
562.362
567.894
567.747
521.8
542.712
498.613
513.725
542.057
451.442
477.559
414.647
579.518
611.027
579.67
576.031
534.546
494.463
538.22
537.917
485.019
498.099
503.317
473.121
485.067
352.743
326.412
355.173
503.427
477.698
488.341
520.869
502.009
477.895
335.537
335.401
347.696
613.445
337.375
347.567
337.261
353.199
329.185
373.25
310.657
288.785
504.692
608.38
521.09
493.703
478.308
486.336
526.484
600.339
476.545
615.898
291.394
615.797
528.713
494.514
478.215
479.389
501.297
494.82
479.416
502.492
495.156
493.725
502.244
495.229
479.863
480.029
479.031
289.291
454.571
271.94
454.979
453.607
526.993
479.452
465.202
382.093
480.488
292.667
286.079
461.458
449.612
453.956
445.834
448.668
463.583
463.24
479.932
543.452
601.7
487.472
300.298
282.458
452.992
279.16
552.234
551.994
480.754
457.997
526.216
508.167
488.57
233.727
284.555
614.505
636.321
615.139
636.678
285.277
441.319
553.075
230.483
467.53
590.261
566.028
495.794
490.029
410.024
232.117
293.093
271.123
507.876
509.173
607.813
229.661
276.973
294.427
618.877
618.79
558.508
226.52
562.522
488.292
503.375
280.844
504.045
466.357
224.005
473.564
519.561
502.96
462.423

CELL_DATA 563
TENSORS stress float
164.61 -24.9204 1.29319e-12
-24.9204 28.1484 -2.69533e-12
1.29319e-12 -2.69533e-12 -12.6043

-40.3385 -21.3203 -4.09302e-12
-21.3203 -7.3547 -4.26059e-12
-4.09302e-12 -4.26059e-12 -10.2317

-9.94002 28.0433 -6.88457e-12
28.0433 -1.11037 5.08038e-13
-6.88457e-12 5.08038e-13 -6.36016

-40.4267 -29.8427 -7.04029e-13
-29.8427 -12.8459 -3.71273e-12
-7.04029e-13 -3.71273e-12 -10.598

-22.6924 19.9309 -2.13962e-12
19.9309 -1.92268 2.45589e-12
-2.13962e-12 2.45589e-12 -23.0215

-27.1394 -18.0744 -9.6471e-13
-18.0744 15.8879 8.43177e-13
-9.6471e-13 8.43177e-13 -6.41094

161.262 26.4845 -8.52651e-13
26.4845 28.0251 -6.28712e-12
-8.52651e-13 -6.28712e-12 -13.2632

-5.96142 29.9579 5.93895e-13
29.9579 -10.1121 1.88146e-12
5.93895e-13 1.88146e-12 -7.27619

34.6311 5.48314 -3.80851e-12
5.48314 -19.0948 -5.31057e-14
-3.80851e-12 -5.31057e-14 -4.12199

11.8603 -7.47757 2.05199e-12
-7.47757 -48.2871 -1.35529e-12
2.05199e-12 -1.35529e-12 -8.94693

104.194 16.3086 2.6669e-12
16.3086 -8.4435 -2.3442e-12
2.6669e-12 -2.3442e-12 -22.4543

-34.6375 -13.4532 4.00124e-13
-13.4532 18.9658 -1.29733e-12
4.00124e-13 -1.29733e-12 -7.18045

-6.026 27.8332 6.75016e-13
27.8332 -4.59149 -8.98837e-13
6.75016e-13 -8.98837e-13 -6.15906

-35.5517 -14.3401 1.642e-12
-14.3401 7.84498 -3.11336e-12
1.642e-12 -3.11336e-12 -9.13126

-23.6537 33.3112 2.93395e-12
33.3112 -24.9941 5.54607e-13
2.93395e-12 5.54607e-13 -21.3651

21.3108 0.560977 -3.84048e-12
0.560977 -32.3384 1.71968e-12
-3.84048e-12 1.71968e-12 -5.58954

-48.9595 -17.9691 2.94723e-12
-17.9691 6.34291 5.71868e-12
2.94723e-12 5.71868e-12 -12.946

11.6601 -2.6652 -1.22657e-12
-2.6652 -43.2487 1.80915e-12
-1.22657e-12 1.80915e-12 -8.03343

-11.3497 26.6738 -5.0034e-14
26.6738 19.5173 1.68043e-12
-5.0034e-14 1.68043e-12 -6.08929

21.7655 -4.19558 -2.03097e-13
-4.19558 -35.2945 4.39226e-12
-2.03097e-13 4.39226e-12 -6.74112

-24.4791 8.66862 -1.01992e-12
8.66862 32.1275 -1.83794e-12
-1.01992e-12 -1.83794e-12 -4.93414

-11.8087 6.28758 3.6594e-12
6.28758 -11.9737 3.18826e-12
3.6594e-12 3.18826e-12 -75.6202

22.7432 1.87598 1.56793e-12
1.87598 -33.4688 4.80134e-13
1.56793e-12 4.80134e-13 -6.6771

-12.388 -27.7152 -1.59043e-12
-27.7152 1.59967 -7.18892e-12
-1.59043e-12 -7.18892e-12 -6.60259

21.3043 6.84939 -4.45096e-12
6.84939 -34.3039 -2.88954e-13
-4.45096e-12 -2.88954e-13 -6.80635

-37.9052 19.1129 3.98866e-13
19.1129 2.65395 5.4919e-13
3.98866e-13 5.4919e-13 -9.45754

106.603 4.18138 3.5385e-12
4.18138 20.6026 -5.70803e-12
3.5385e-12 -5.70803e-12 -12.0493

-5.30179 30.7459 -2.28321e-12
30.7459 -7.27222 4.85804e-12
-2.28321e-12 4.85804e-12 -7.44144

27.8899 37.0744 2.61361e-12
37.0744 26.4691 -8.71599e-13
2.61361e-12 -8.71599e-13 -8.6321

-9.43911 10.3235 9.63082e-13
10.3235 -32.9299 2.81704e-12
9.63082e-13 2.81704e-12 -49.5086

19.8307 14.2169 -3.38988e-12
14.2169 -29.3591 -1.80211e-12
-3.38988e-12 -1.80211e-12 -6.00079

-4.21028 -17.7804 -1.66326e-12
-17.7804 59.6575 -5.39302e-12
-1.66326e-12 -5.39302e-12 -8.47601

66.283 -42.1017 8.64494e-13
-42.1017 71.1382 2.6598e-12
8.64494e-13 2.6598e-12 -11.252

-48.2099 5.98668 -4.58762e-12
5.98668 7.26956 5.37052e-13
-4.58762e-12 5.37052e-13 -41.0375

-26.2911 -4.84057 2.5467e-12
-4.84057 1.75671 -4.66501e-12
2.5467e-12 -4.66501e-12 -37.8024

-1.46685 21.0278 -2.78533e-12
21.0278 -39.5063 1.87791e-12
-2.78533e-12 1.87791e-12 -41.1033

-43.9757 5.06738 1.99381e-12
5.06738 0.514214 -2.18373e-12
1.99381e-12 -2.18373e-12 -52.191

-2.76013 -9.17 6.7694e-12
-9.17 -20.7697 -1.18012e-12
6.7694e-12 -1.18012e-12 -35.8968

-3.97422 -27.9981 1.34352e-12
-27.9981 -4.6105 -2.63078e-12
1.34352e-12 -2.63078e-12 -5.9944

65.5968 41.5209 -1.87583e-12
41.5209 73.1659 4.75827e-12
-1.87583e-12 4.75827e-12 -10.9638

60.155 -17.9491 -4.52971e-12
-17.9491 0.116941 2.57157e-12
-4.52971e-12 2.57157e-12 -8.04998

-41.8035 -3.70596 2.81227e-12
-3.70596 -1.18565 -3.53761e-12
2.81227e-12 -3.53761e-12 -52.7258

-14.5938 19.5554 -3.62451e-13
19.5554 -28.5515 2.69799e-12
-3.62451e-13 2.69799e-12 -52.834

18.141 -12.2733 9.51535e-13
-12.2733 -29.899 -2.95763e-12
9.51535e-13 -2.95763e-12 -6.22297

38.173 -43.299 3.24955e-12
-43.299 41.801 -1.18424e-14
3.24955e-12 -1.18424e-14 -14.559

58.1436 -18.0634 -7.89887e-13
-18.0634 -2.30277 3.53021e-12
-7.89887e-13 3.53021e-12 -7.91358

-21.4418 17.0857 1.89093e-12
17.0857 30.3271 -5.06439e-12
1.89093e-12 -5.06439e-12 -5.72821

-11.3726 19.339 -2.06353e-12
19.339 25.5105 2.36255e-12
-2.06353e-12 2.36255e-12 -3.92162

20.7911 -16.301 -1.30621e-12
-16.301 -33.1143 -4.24253e-12
-1.30621e-12 -4.24253e-12 -7.31157

12.6152 -34.1853 6.79753e-13
-34.1853 46.4353 5.09222e-13
6.79753e-13 5.09222e-13 -10.3972

62.3598 19.1818 -3.13231e-12
19.1818 2.81023 3.53377e-12
-3.13231e-12 3.53377e-12 -8.41391

46.5133 -25.2883 -1.62241e-13
-25.2883 5.134 1.30266e-13
-1.62241e-13 1.30266e-13 -5.60995

-31.8957 19.4856 -1.34204e-12
19.4856 -4.28548 9.21041e-13
-1.34204e-12 9.21041e-13 -26.0855

37.0389 29.6492 -2.6219e-12
29.6492 14.5125 8.63309e-13
-2.6219e-12 8.63309e-13 -5.43238

-27.4498 -21.8128 -5.63608e-12
-21.8128 -8.22847 -1.11471e-12
-5.63608e-12 -1.11471e-12 -25.2479

64.8683 -42.7111 -5.68434e-14
-42.7111 44.0798 -3.1252e-12
-5.68434e-14 -3.1252e-12 -9.5021

-27.7495 5.45957 -8.84626e-13
5.45957 2.6693 -2.52835e-13
-8.84626e-13 -2.52835e-13 -38.308

-5.5578 -5.32977 -4.2449e-12
-5.32977 57.3877 1.23516e-12
-4.2449e-12 1.23516e-12 -5.44941

-0.200264 10.3843 -7.11431e-13
10.3843 -24.8479 -2.1713e-12
-7.11431e-13 -2.1713e-12 -38.3696

-26.4851 21.413 -1.09098e-12
21.413 12.2195 3.59416e-12
-1.09098e-12 3.59416e-12 -6.86954

4.72639 5.75393 -6.12843e-13
5.75393 -56.04 8.36368e-14
-6.12843e-13 8.36368e-14 -13.9807

0.539824 11.4589 7.70051e-13
11.4589 -34.0566 4.14069e-12
7.70051e-13 4.14069e-12 -14.8397

106.343 31.8197 5.80277e-13
31.8197 37.8327 1.83557e-12
5.80277e-13 1.83557e-12 -7.48964

-35.4918 -6.0352 -2.80339e-12
-6.0352 10.6012 -1.6153e-12
-2.80339e-12 -1.6153e-12 -13.4789

-35.36 9.51975 -2.92374e-12
9.51975 1.23363 -8.02321e-14
-2.92374e-12 -8.02321e-14 -14.96

-42.5876 -2.88083 7.77156e-13
-2.88083 21.1109 -1.01193e-12
7.77156e-13 -1.01193e-12 -11.2387

-44.9078 23.402 2.2186e-12
23.402 -5.89261 -2.26545e-12
2.2186e-12 -2.26545e-12 -13.9217

9.97104 8.46353 -8.0765e-13
8.46353 -42.3779 3.11159e-13
-8.0765e-13 3.11159e-13 -9.07777

-12.3344 -28.2393 7.2653e-13
-28.2393 1.68731 3.34962e-12
7.2653e-13 3.34962e-12 -6.67376

1.30886 -1.71125 2.16375e-12
-1.71125 -55.4562 -5.94783e-13
2.16375e-12 -5.94783e-13 -11.3039

-31.8852 -19.2616 -2.40622e-12
-19.2616 -4.59484 3.41445e-12
-2.40622e-12 3.41445e-12 -25.9548

-27.9753 21.3078 -2.09847e-12
21.3078 -8.35829 -1.1723e-12
-2.09847e-12 -1.1723e-12 -26.0132

-0.6518 -16.5834 -4.52882e-12
-16.5834 61.6734 2.32584e-12
-4.52882e-12 2.32584e-12 -7.94883

-0.650132 -27.9361 -1.66267e-12
-27.9361 -21.3609 2.33176e-12
-1.66267e-12 2.33176e-12 -12.7909

-14.0931 -25.1346 -2.13163e-13
-25.1346 7.4068 6.33567e-14
-2.13163e-13 6.33567e-14 -5.23584

91.6775 -31.7105 -8.62125e-13
-31.7105 19.4848 2.64263e-12
-8.62125e-13 2.64263e-12 -16.3332

-33.706 3.22264 1.05257e-12
3.22264 9.1994 -9.40877e-13
1.05257e-12 -9.40877e-13 -18.5634

2.75214 28.9439 2.22637e-12
28.9439 -24.4246 3.58232e-13
2.22637e-12 3.58232e-13 -11.3164

-38.4334 19.6642 1.91817e-12
19.6642 5.22972 -5.57095e-12
1.91817e-12 -5.57095e-12 -9.23501

50.1903 7.9995 -1.88886e-12
7.9995 -16.9638 -5.15173e-12
-1.88886e-12 -5.15173e-12 -7.06677

60.0312 -33.9354 1.05871e-12
-33.9354 33.7867 -2.49756e-12
1.05871e-12 -2.49756e-12 -6.98366

-18.9601 -10.5875 6.93342e-12
-10.5875 -0.541679 3.5687e-12
6.93342e-12 3.5687e-12 -25.4312

-33.9261 23.8995 7.32747e-13
23.8995 -12.0232 -1.25067e-13
7.32747e-13 -1.25067e-13 -14.5402

58.156 -32.3837 -5.29946e-12
-32.3837 18.0913 -2.08544e-12
-5.29946e-12 -2.08544e-12 -10.1337

66.8594 10.791 1.14871e-12
10.791 8.51315 -3.5499e-12
1.14871e-12 -3.5499e-12 -5.08431

7.67404 -21.2059 6.47867e-12
-21.2059 88.4642 -4.21352e-12
6.47867e-12 -4.21352e-12 -11.8622

-33.9857 14.4256 -1.27801e-12
14.4256 20.2383 3.42245e-13
-1.27801e-12 3.42245e-13 -7.54627

8.47546 23.143 5.51263e-13
23.143 -26.0738 -2.35663e-13
5.51263e-13 -2.35663e-13 -11.299

34.8686 42.1985 -1.9007e-12
42.1985 46.1991 -4.41602e-12
-1.9007e-12 -4.41602e-12 -14.4205

-4.39442 16.507 1.88173e-11
16.507 -35.5416 1.34885e-12
1.88173e-11 1.34885e-12 -73.2868

-5.9799 -4.10834 -2.63907e-12
-4.10834 57.9482 -3.09086e-13
-2.63907e-12 -3.09086e-13 -5.44161

-1.81884 -16.6321 4.59025e-12
-16.6321 -39.4017 6.55846e-12
4.59025e-12 6.55846e-12 -74.1101

-3.32948 -27.3349 -2.06353e-12
-27.3349 -30.0298 -1.84045e-12
-2.06353e-12 -1.84045e-12 -21.5541

8.96711 27.4245 5.72579e-13
27.4245 -29.9948 -5.18252e-12
5.72579e-13 -5.18252e-12 -11.257

45.7111 -24.4105 2.17308e-12
-24.4105 5.0243 1.80596e-14
2.17308e-12 1.80596e-14 -5.23602

10.0953 31.3231 4.32365e-12
31.3231 47.163 -1.83912e-12
4.32365e-12 -1.83912e-12 -9.64028

14.2723 -10.7051 -2.60236e-12
-10.7051 82.8385 -7.55307e-12
-2.60236e-12 -7.55307e-12 -6.44696

-38.633 21.9707 -8.06318e-13
21.9707 2.94154 -5.88714e-12
-8.06318e-13 -5.88714e-12 -8.56895

1.19271 16.7941 3.15895e-13
16.7941 -25.7222 -6.80463e-12
3.15895e-13 -6.80463e-12 -18.5676

-26.5378 15.1539 6.87154e-13
15.1539 18.4493 -2.35663e-13
6.87154e-13 -2.35663e-13 -5.70789

43.6586 15.9538 5.7554e-13
15.9538 -7.28503 7.55988e-13
5.7554e-13 7.55988e-13 -4.07505

12.5769 -21.4724 -3.62673e-12
-21.4724 57.9554 2.17781e-12
-3.62673e-12 2.17781e-12 -4.71394

65.9962 -29.3905 2.6148e-12
-29.3905 18.6435 4.41484e-12
2.6148e-12 4.41484e-12 -9.33519

-32.3811 -24.573 3.27309e-12
-24.573 -7.28166 -1.56763e-12
3.27309e-12 -1.56763e-12 -8.97621

-22.6669 27.4509 -7.84558e-14
27.4509 -10.3502 -3.13468e-12
-7.84558e-14 -3.13468e-12 -9.2838

-38.3512 23.1876 2.27314e-12
23.1876 1.99105 1.16795e-12
2.27314e-12 1.16795e-12 -8.52484

-51.5533 13.1691 7.11958e-13
13.1691 11.9269 -6.10475e-13
7.11958e-13 -6.10475e-13 -16.4663

23.4846 9.37225 2.5094e-12
9.37225 -29.4877 4.85093e-13
2.5094e-12 4.85093e-13 -5.32139

3.76862 -4.66504 5.12864e-12
-4.66504 79.4377 -5.7554e-13
5.12864e-12 -5.7554e-13 -9.53132

-44.9398 -36.8332 -1.84978e-12
-36.8332 -19.8288 -4.09946e-12
-1.84978e-12 -4.09946e-12 -14.7706

-16.0795 27.4652 9.10383e-13
27.4652 1.34102 -1.38082e-12
9.10383e-13 -1.38082e-12 -6.91455

-5.01528 2.17032 -2.60643e-12
2.17032 82.6732 -6.60568e-12
-2.60643e-12 -6.60568e-12 -13.4311

69.0451 34.6102 8.97652e-13
34.6102 15.4966 4.06608e-12
8.97652e-13 4.06608e-12 -10.7058

-31.3518 -22.9738 1.44018e-12
-22.9738 -4.63245 2.6823e-12
1.44018e-12 2.6823e-12 -8.52973

11.7429 5.73296 1.12384e-12
5.73296 -48.3359 -9.71889e-13
1.12384e-12 -9.71889e-13 -8.64124

43.0655 27.2039 -9.26074e-13
27.2039 10.452 -2.50052e-12
-9.26074e-13 -2.50052e-12 -5.08075

-9.41466 12.7454 -2.44649e-12
12.7454 -14.0391 7.0551e-13
-2.44649e-12 7.0551e-13 -37.0404

70.3343 24.3304 2.39216e-13
24.3304 23.8048 3.51659e-12
2.39216e-13 3.51659e-12 -6.79944

-10.5858 -13.055 -1.02185e-12
-13.055 -13.921 -5.04811e-12
-1.02185e-12 -5.04811e-12 -37.3782

-4.37955 0.778534 3.13127e-12
0.778534 59.3978 1.58096e-12
3.13127e-12 1.58096e-12 -4.8306

38.3568 -2.23531 -6.10001e-12
-2.23531 -23.8106 -1.77343e-12
-6.10001e-12 -1.77343e-12 -5.83224

3.59369 -15.7679 -2.52243e-13
-15.7679 -53.971 2.18788e-12
-2.52243e-13 2.18788e-12 -21.1242

-42.277 24.3881 4.99145e-13
24.3881 -11.737 4.91163e-13
4.99145e-13 4.91163e-13 -11.1675

-46.8124 -13.535 -4.76949e-13
-13.535 11.0673 4.13299e-13
-4.76949e-13 4.13299e-13 -12.3538

5.81014 -7.99996 -1.04701e-12
-7.99996 -70.9675 1.79945e-12
-1.04701e-12 1.79945e-12 -14.8819

-49.539 -22.284 -4.7781e-12
-22.284 3.74845 -1.36335e-12
-4.7781e-12 -1.36335e-12 -22.1041

-17.4592 -6.59661 -1.16292e-12
-6.59661 -13.1158 -1.50691e-12
-1.16292e-12 -1.50691e-12 -34.7813

-28.7297 -29.9081 1.34529e-12
-29.9081 -9.39987 -6.11363e-13
1.34529e-12 -6.11363e-13 -8.99597

15.6934 11.4536 -1.32842e-12
11.4536 80.18 -1.89952e-12
-1.32842e-12 -1.89952e-12 -6.53062

42.2898 -28.1463 2.03689e-13
-28.1463 11.0508 -1.63425e-13
2.03689e-13 -1.63425e-13 -5.044

-47.1705 -13.7721 6.77192e-12
-13.7721 4.19615 2.26959e-12
6.77192e-12 2.26959e-12 -29.3006

2.96484 0.504458 1.92231e-12
0.504458 -56.8119 -2.72982e-12
1.92231e-12 -2.72982e-12 -11.0052

-39.3366 -21.5245 1.05782e-12
-21.5245 -8.85726 2.5846e-13
1.05782e-12 2.5846e-13 -14.7742

-40.1949 25.6977 -1.76881e-12
25.6977 -14.6915 1.00808e-13
-1.76881e-12 1.00808e-13 -11.3108

32.2603 -31.4642 -4.50958e-12
-31.4642 38.4292 1.66859e-12
-4.50958e-12 1.66859e-12 -4.64812

-31.4687 -7.08491 6.92809e-12
-7.08491 1.70038 1.32635e-12
6.92809e-12 1.32635e-12 -40.9925

36.6298 -33.0766 2.56032e-12
-33.0766 72.027 -5.47592e-12
2.56032e-12 -5.47592e-12 -7.14469

16.6126 -19.1796 -2.60236e-12
-19.1796 -25.8698 1.61648e-12
-2.60236e-12 1.61648e-12 -7.13322

1.50257 1.97033 5.64733e-14
1.97033 -51.3914 -2.96148e-12
5.64733e-14 -2.96148e-12 -15.3742

-12.8758 17.875 1.31776e-12
17.875 -16.955 -7.87518e-14
1.31776e-12 -7.87518e-14 -41.0601

10.7131 20.1827 2.93454e-12
20.1827 59.4538 1.64609e-12
2.93454e-12 1.64609e-12 -4.35659

4.31834 27.2105 1.0368e-12
27.2105 -16.2236 2.21216e-12
1.0368e-12 2.21216e-12 -8.12418

30.9044 -24.5114 1.53951e-12
-24.5114 -8.13229 -7.08707e-12
1.53951e-12 -7.08707e-12 -4.87212

-37.7873 -17.8385 -9.51887e-13
-17.8385 2.40086 -1.86517e-14
-9.51887e-13 -1.86517e-14 -9.86438

55.5134 35.0679 2.27018e-12
35.0679 42.3452 -4.46102e-12
2.27018e-12 -4.46102e-12 -6.63624

-40.015 -21.831 -2.55588e-12
-21.831 2.53685 -2.17544e-12
-2.55588e-12 -2.17544e-12 -9.39389

2.96655 30.8504 1.96228e-12
30.8504 -17.3882 2.79273e-12
1.96228e-12 2.79273e-12 -9.07819

18.5373 -25.2439 -4.63451e-12
-25.2439 -19.4178 6.24093e-13
-4.63451e-12 6.24093e-13 -6.34242

-15.6537 -25.1263 3.76588e-12
-25.1263 5.89562 2.35249e-12
3.76588e-12 2.35249e-12 -5.77547

42.7181 -18.688 -3.97904e-12
-18.688 -9.16577 -9.17192e-13
-3.97904e-12 -9.17192e-13 -5.36904

27.4318 -18.8495 -1.04213e-12
-18.8495 -20.3683 -6.28623e-12
-1.04213e-12 -6.28623e-12 -5.68969

-41.3938 -25.337 1.07766e-13
-25.337 -14.964 3.57225e-12
1.07766e-13 3.57225e-12 -11.567

29.7808 35.9691 -9.59233e-14
35.9691 25.227 -4.32602e-12
-9.59233e-14 -4.32602e-12 -8.64422

-28.5181 15.3767 -1.31214e-12
15.3767 18.5188 1.43056e-12
-1.31214e-12 1.43056e-12 -5.8739

-23.108 26.4221 -1.35684e-12
26.4221 -12.5467 -4.1774e-13
-1.35684e-12 -4.1774e-13 -9.95801

-42.0965 25.4736 1.64725e-12
25.4736 -11.5925 9.31107e-14
1.64725e-12 9.31107e-14 -10.9927

-37.2884 11.6215 -1.28464e-13
11.6215 11.8441 -1.00542e-12
-1.28464e-13 -1.00542e-12 -9.08042

64.3927 -8.22692 -4.67063e-12
-8.22692 3.19766 -1.67007e-12
-4.67063e-12 -1.67007e-12 -4.25071

8.73384 18.6062 -3.40232e-12
18.6062 59.2196 3.55153e-12
-3.40232e-12 3.55153e-12 -4.16219

-25.6145 -24.3804 -1.578e-12
-24.3804 0.458433 1.11082e-12
-1.578e-12 1.11082e-12 -7.21549

-1.1416 25.6657 5.6873e-12
25.6657 13.7523 5.51855e-13
5.6873e-12 5.51855e-13 -4.08258

32.3785 -35.629 -2.06886e-12
-35.629 21.7 1.82787e-12
-2.06886e-12 1.82787e-12 -8.48593

59.5359 38.3162 2.76046e-12
38.3162 17.8476 2.5923e-12
2.76046e-12 2.5923e-12 -13.7222

12.1251 -33.3107 1.80952e-12
-33.3107 42.9131 5.40131e-12
1.80952e-12 5.40131e-12 -9.54256

30.5512 -31.1592 -1.59991e-12
-31.1592 36.8133 3.32297e-12
-1.59991e-12 3.32297e-12 -4.40529

11.7688 -6.83865 1.37342e-12
-6.83865 -48.8379 2.86378e-12
1.37342e-12 2.86378e-12 -8.77008

25.2744 30.3414 6.5737e-12
30.3414 41.0888 -8.45546e-13
6.5737e-12 -8.45546e-13 -4.4558

62.6817 13.2945 7.67386e-13
13.2945 5.22817 3.58854e-12
7.67386e-13 3.58854e-12 -4.3053

-7.02569 13.3787 4.90141e-12
13.3787 61.3438 5.20473e-12
4.90141e-12 5.20473e-12 -8.69479

11.7296 -22.3401 -7.07582e-13
-22.3401 55.7629 -2.8398e-12
-7.07582e-13 -2.8398e-12 -4.30126

-47.2605 -1.09158 1.98915e-12
-1.09158 12.4096 -1.82136e-12
1.98915e-12 -1.82136e-12 -22.1619

-5.919 2.24658 3.49587e-12
2.24658 59.004 1.69109e-12
3.49587e-12 1.69109e-12 -5.26232

6.26869 31.0889 -2.59526e-12
31.0889 47.8649 2.25005e-14
-2.59526e-12 2.25005e-14 -9.66035

-39.7253 12.1078 1.81381e-12
12.1078 12.8448 -1.38378e-12
1.81381e-12 -1.38378e-12 -9.31288

40.738 -27.6473 3.38218e-12
-27.6473 8.35756 -6.24685e-13
3.38218e-12 -6.24685e-13 -5.64178

7.53992 20.5569 5.4771e-13
20.5569 -47.4669 6.88634e-13
5.4771e-13 6.88634e-13 -16.4817

-3.42115 26.2704 -2.82855e-12
26.2704 -31.4866 -2.07079e-12
-2.82855e-12 -2.07079e-12 -22.2524

15.7773 -18.5675 -1.45069e-12
-18.5675 -30.013 2.91619e-13
-1.45069e-12 2.91619e-13 -8.18282

4.42864 -1.80128 -1.06567e-12
-1.80128 -34.133 2.00284e-12
-1.06567e-12 2.00284e-12 -24.4393

-14.3396 -31.8117 -3.82154e-12
-31.8117 -11.9303 5.0342e-12
-3.82154e-12 5.0342e-12 -9.04935

56.2179 23.3275 6.12251e-13
23.3275 0.816836 1.9155e-12
6.12251e-13 1.9155e-12 -8.28781

-27.8281 30.1621 -1.81159e-12
30.1621 -9.23642 3.63561e-13
-1.81159e-12 3.63561e-13 -8.80022

-27.0036 29.2058 2.64677e-13
29.2058 -9.20178 -1.84504e-12
2.64677e-13 -1.84504e-12 -8.6775

28.6285 30.6605 2.46795e-12
30.6605 40.4056 7.87518e-13
2.46795e-12 7.87518e-13 -4.44881

0.343096 27.085 2.02623e-12
27.085 -19.8459 2.7122e-12
2.02623e-12 2.7122e-12 -11.777

64.5077 3.52511 -3.5764e-12
3.52511 -11.8257 -3.61289e-12
-3.5764e-12 -3.61289e-12 -10.0182

-14.8997 31.8172 2.17041e-12
31.8172 -20.7988 -1.19223e-12
2.17041e-12 -1.19223e-12 -12.4474

-37.9441 -12.5997 2.49526e-12
-12.5997 8.18005 3.03994e-12
2.49526e-12 3.03994e-12 -14.0227

-0.475011 24.2782 -6.60509e-13
24.2782 -29.9991 1.92527e-12
-6.60509e-13 1.92527e-12 -20.7713

-23.7274 -29.5787 3.1631e-12
-29.5787 -11.9349 -9.45614e-13
3.1631e-12 -9.45614e-13 -8.84315

-38.1482 -4.89803 6.99829e-13
-4.89803 18.8466 -1.21976e-13
6.99829e-13 -1.21976e-13 -11.73

69.9443 -24.5561 -3.83693e-13
-24.5561 18.0288 6.97871e-12
-3.83693e-13 6.97871e-12 -7.04423

39.9819 29.6928 4.33431e-13
29.6928 13.4794 1.85925e-12
4.33431e-13 1.85925e-12 -5.21487

-4.29609 14.6964 -9.9772e-13
14.6964 60.5711 1.57267e-12
-9.9772e-13 1.57267e-12 -8.40072

1.61141 -1.1389 4.0495e-12
-1.1389 -56.1233 2.47891e-12
4.0495e-12 2.47891e-12 -11.2091

9.61413 0.00222609 4.36747e-12
0.00222609 -44.7539 1.23019e-12
4.36747e-12 1.23019e-12 -8.4378

-31.0788 23.1239 -4.74879e-12
23.1239 -4.33715 -8.61829e-13
-4.74879e-12 -8.61829e-13 -8.45825

-34.7625 23.871 1.86133e-12
23.871 -13.1925 4.08895e-13
1.86133e-12 4.08895e-13 -14.813

-43.3787 -24.3807 -1.04143e-12
-24.3807 -12.6139 8.09279e-13
-1.04143e-12 8.09279e-13 -11.4685

-39.0591 -0.672795 1.57748e-12
-0.672795 21.0464 9.25482e-13
1.57748e-12 9.25482e-13 -10.4954

-40.8067 25.5904 -7.97288e-13
25.5904 -13.2225 -1.73543e-12
-7.97288e-13 -1.73543e-12 -11.1722

32.3216 -10.3079 -4.5682e-12
-10.3079 -25.1536 5.39006e-12
-4.5682e-12 5.39006e-12 -6.01406

8.70668 -32.8333 -4.64636e-12
-32.8333 22.7976 -1.83438e-12
-4.64636e-12 -1.83438e-12 -6.99187

2.39682 -2.30076 -2.10794e-13
-2.30076 -49.9607 -2.85697e-12
-2.10794e-13 -2.85697e-12 -14.7726

36.7455 -34.5081 -4.12233e-12
-34.5081 24.4796 -9.65746e-13
-4.12233e-12 -9.65746e-13 -7.709

-38.2939 19.0861 -9.5494e-13
19.0861 -7.09364 1.24848e-12
-9.5494e-13 1.24848e-12 -14.4494

7.87073 -26.4787 -1.71122e-13
-26.4787 -27.9945 -9.49167e-13
-1.71122e-13 -9.49167e-13 -10.969

63.9472 -9.6902 -1.94215e-13
-9.6902 5.67747 1.8523e-12
-1.94215e-13 1.8523e-12 -5.07219

6.0407 -23.192 -2.70598e-13
-23.192 -35.4681 2.412e-12
-2.70598e-13 2.412e-12 -17.736

0.141368 2.35828 -1.25159e-12
2.35828 -56.1741 2.4647e-13
-1.25159e-12 2.4647e-13 -11.546

-4.06207 -23.3215 1.22391e-12
-23.3215 -23.4117 2.54359e-12
1.22391e-12 2.54359e-12 -16.7199

11.0388 -25.8594 -1.35891e-12
-25.8594 -29.4858 -1.62892e-12
-1.35891e-12 -1.62892e-12 -9.73353

10.2014 -8.54614 -1.38881e-12
-8.54614 -43.4899 -2.60355e-12
-1.38881e-12 -2.60355e-12 -9.28131

-35.4181 -23.0681 -4.40329e-12
-23.0681 -12.6459 -9.70057e-13
-4.40329e-12 -9.70057e-13 -15.103

23.6643 -31.3418 -1.4649e-12
-31.3418 5.71243 -8.90547e-13
-1.4649e-12 -8.90547e-13 -5.87811

11.0598 -24.5873 -6.59028e-13
-24.5873 -27.4946 -6.80937e-13
-6.59028e-13 -6.80937e-13 -10.048

46.643 10.8644 -5.77908e-13
10.8644 -16.1172 1.04864e-12
-5.77908e-13 1.04864e-12 -6.79974

-14.1862 26.3403 3.63946e-12
26.3403 -15.6398 -2.314e-12
3.63946e-12 -2.314e-12 -14.1189

-45.2517 -37.6128 -8.27486e-13
-37.6128 -20.6124 2.39656e-12
-8.27486e-13 2.39656e-12 -14.919

-43.7085 37.2651 1.45099e-12
37.2651 -21.2661 -2.86341e-12
1.45099e-12 -2.86341e-12 -14.7694

-61.185 -28.5733 2.6581e-12
-28.5733 -7.49706 4.16733e-12
2.6581e-12 4.16733e-12 -15.1995

-58.4159 27.0641 3.38056e-12
27.0641 -6.27168 -1.81544e-12
3.38056e-12 -1.81544e-12 -14.4781

5.60063 -8.5276 5.7323e-12
-8.5276 -71.0639 -2.53723e-13
5.7323e-12 -2.53723e-13 -14.7097

4.39737 9.27361 1.39192e-12
9.27361 -68.8326 -3.92146e-12
1.39192e-12 -3.92146e-12 -14.4376

9.02396 -9.84619 1.2695e-12
-9.84619 -40.89 8.33851e-13
1.2695e-12 8.33851e-13 -9.61178

-24.3355 32.1161 -3.94114e-12
32.1161 -24.8099 -9.22281e-13
-3.94114e-12 -9.22281e-13 -21.1452

-25.5229 -32.8541 5.38828e-14
-32.8541 -25.096 3.76444e-12
5.38828e-14 3.76444e-12 -21.4694

-53.9198 16.0685 -1.42035e-12
16.0685 3.4017 2.00817e-12
-1.42035e-12 2.00817e-12 -21.4028

-52.4206 -15.8009 2.05258e-12
-15.8009 3.29703 1.62359e-12
2.05258e-12 1.62359e-12 -21.0761

6.11216 -3.74771 -1.84963e-12
-3.74771 -43.9252 -1.6831e-12
-1.84963e-12 -1.6831e-12 -25.765

6.91832 3.61048 -1.60124e-12
3.61048 -46.3487 1.27542e-12
-1.60124e-12 1.27542e-12 -26.1414

-15.6258 9.83687 2.61657e-12
9.83687 46.2625 2.67638e-12
2.61657e-12 2.67638e-12 -5.84791

-22.9186 -24.7741 -4.11878e-12
-24.7741 -14.5523 -1.00127e-12
-4.11878e-12 -1.00127e-12 -10.3298

-56.6036 -36.3875 -1.4988e-13
-36.3875 -14.5327 1.56882e-12
-1.4988e-13 1.56882e-12 -13.4371

33.3584 -4.66429 -2.44545e-12
-4.66429 -19.847 2.99338e-12
-2.44545e-12 2.99338e-12 -3.94504

3.43337 -16.6946 1.48119e-12
-16.6946 -52.6287 1.51967e-12
1.48119e-12 1.51967e-12 -21.5327

3.67451 16.1756 -3.61045e-13
16.1756 -51.8844 -1.66859e-12
-3.61045e-13 -1.66859e-12 -21.406

6.55573 0.121881 8.92323e-13
0.121881 -76.7548 6.98858e-13
8.92323e-13 6.98858e-13 -13.304

-7.5696 23.3752 -2.81612e-12
23.3752 39.9357 -1.89952e-12
-2.81612e-12 -1.89952e-12 -6.8852

-56.8892 36.1715 -1.39126e-12
36.1715 -14.0113 1.11481e-12
-1.39126e-12 1.11481e-12 -13.3888

-39.7946 -23.3958 -1.37105e-12
-23.3958 2.56154 2.18107e-12
-1.37105e-12 2.18107e-12 -8.80085

37.1167 23.3528 4.75472e-12
23.3528 -8.61313 1.52767e-13
4.75472e-12 1.52767e-13 -5.75855

4.73525 23.8582 -3.25547e-12
23.8582 -38.2259 1.92143e-12
-3.25547e-12 1.92143e-12 -18.9858

24.0135 -31.3136 7.5436e-13
-31.3136 6.40831 -2.735e-12
7.5436e-13 -2.735e-12 -5.64809

2.43077 -3.23101 -1.67866e-12
-3.23101 -48.3698 4.27125e-12
-1.67866e-12 4.27125e-12 -14.7426

-60.4577 -34.1609 4.59099e-12
-34.1609 -14.3498 -5.04485e-12
4.59099e-12 -5.04485e-12 -14.0308

-17.4527 8.31996 2.76475e-12
8.31996 45.6918 -1.60701e-12
2.76475e-12 -1.60701e-12 -5.78095

-9.46886 21.8116 -7.33635e-13
21.8116 40.4251 7.0699e-12
-7.33635e-13 7.0699e-12 -6.65368

58.6036 35.7758 2.67519e-12
35.7758 37.0881 1.06345e-12
2.67519e-12 1.06345e-12 -6.91584

70.4841 1.57876 1.59635e-12
1.57876 -5.54299 -4.60446e-12
1.59635e-12 -4.60446e-12 -10.374

-30.7594 -22.8045 2.95467e-12
-22.8045 -13.3564 4.66743e-12
2.95467e-12 4.66743e-12 -14.466

32.8413 31.1838 -4.36392e-12
31.1838 69.7943 3.59535e-12
-4.36392e-12 3.59535e-12 -6.67932

-19.3765 23.61 1.20348e-12
23.61 7.68691 3.04527e-12
1.20348e-12 3.04527e-12 -5.51322

47.6371 -5.34955 2.87651e-12
-5.34955 -17.4333 1.00468e-12
2.87651e-12 1.00468e-12 -6.82169

33.2195 11.2161 -1.21621e-12
11.2161 -23.6369 -1.15463e-13
-1.21621e-12 -1.15463e-13 -6.01382

6.25425 0.429903 2.38668e-12
0.429903 -77.5521 -6.58251e-13
2.38668e-12 -6.58251e-13 -13.4497

-58.9357 -29.031 -2.08655e-12
-29.031 -6.2881 -2.24739e-12
-2.08655e-12 -2.24739e-12 -14.6971

-28.3319 -6.3189 -4.06838e-12
-6.3189 -11.3582 6.71789e-12
-4.06838e-12 6.71789e-12 -51.5889

-44.6981 37.4115 1.36602e-12
37.4115 -20.8114 -3.44946e-13
1.36602e-12 -3.44946e-13 -14.7735

93.7905 1.66329 -4.83169e-13
1.66329 16.6553 -4.46546e-12
-4.83169e-13 -4.46546e-12 -6.04303

10.0364 -32.7869 1.39918e-12
-32.7869 21.3109 4.59425e-12
1.39918e-12 4.59425e-12 -6.80813

-56.9361 36.6129 -1.0197e-12
36.6129 -14.5712 1.26669e-12
-1.0197e-12 1.26669e-12 -13.505

-35.0792 -11.1338 3.13508e-13
-11.1338 19.1771 -9.42061e-13
3.13508e-13 -9.42061e-13 -8.31639

-5.47752 -25.5146 -2.37677e-12
-25.5146 37.3502 1.06842e-11
-2.37677e-12 1.06842e-11 -6.98696

-58.4522 28.83 -2.07863e-12
28.83 -6.27148 2.61213e-12
-2.07863e-12 2.61213e-12 -14.6141

28.4959 -26.1419 3.95417e-12
-26.1419 -4.91252 6.96924e-13
3.95417e-12 6.96924e-13 -4.69715

-21.1703 10.4835 1.758e-12
10.4835 -18.559 -6.88612e-12
1.758e-12 -6.88612e-12 -51.6844

3.43285 30.872 1.81188e-12
30.872 27.1626 -2.19084e-12
1.81188e-12 -2.19084e-12 -6.73292

6.14055 8.1267 8.64494e-14
8.1267 -72.2977 -9.90023e-13
8.64494e-14 -9.90023e-13 -14.9843

-11.5457 30.1906 2.42769e-14
30.1906 -20.6032 -1.59014e-12
2.42769e-14 -1.59014e-12 -11.5491

-30.7976 23.3319 1.03621e-12
23.3319 -5.09972 -7.42813e-13
1.03621e-12 -7.42813e-13 -8.4643

-25.8637 -32.4887 1.65793e-14
-32.4887 -24.1127 -1.43443e-12
1.65793e-14 -1.43443e-12 -21.5589

9.20541 -23.1902 3.05533e-13
-23.1902 -27.9222 -5.52151e-13
3.05533e-13 -5.52151e-13 -11.4257

-37.6609 10.4706 -1.45336e-12
10.4706 8.92892 1.39148e-13
-1.45336e-12 1.39148e-13 -25.331

-23.0405 -23.4338 3.65012e-12
-23.4338 4.95245 -1.54898e-12
3.65012e-12 -1.54898e-12 -6.26294

88.8034 -9.7078 4.18983e-12
-9.7078 10.8073 -4.40899e-12
4.18983e-12 -4.40899e-12 -10.0308

84.0435 -14.2772 5.94724e-12
-14.2772 2.81264 8.41993e-13
5.94724e-12 8.41993e-13 -13.1968

5.88792 16.5295 1.54839e-12
16.5295 -33.9324 1.2168e-13
1.54839e-12 1.2168e-13 -22.376

-16.4214 22.5017 5.32937e-12
22.5017 16.228 1.9836e-13
5.32937e-12 1.9836e-13 -5.08524

-3.91235 29.1632 1.04272e-12
29.1632 -12.2298 -9.70779e-13
1.04272e-12 -9.70779e-13 -8.39624

50.9927 0.68867 -9.68707e-13
0.68867 -6.53182 -4.38937e-12
-9.68707e-13 -4.38937e-12 -3.63434

-48.1411 6.57115 -1.89255e-12
6.57115 14.7861 -1.71122e-12
-1.89255e-12 -1.71122e-12 -18.9524

10.1157 16.5407 4.19279e-12
16.5407 -36.0797 1.1567e-12
4.19279e-12 1.1567e-12 -9.13543

-4.50371 -25.761 -4.21766e-12
-25.761 35.5554 -9.11863e-13
-4.21766e-12 -9.11863e-13 -6.74692

-39.1912 -2.57238 -1.89633e-12
-2.57238 21.5042 3.21343e-12
-1.89633e-12 3.21343e-12 -10.6693

-7.99065 13.3652 -1.44359e-12
13.3652 44.4053 2.49282e-12
-1.44359e-12 2.49282e-12 -3.94424

3.73467 -29.7133 -1.02969e-12
-29.7133 -17.3647 -7.93439e-14
-1.02969e-12 -7.93439e-14 -8.92049

21.4259 -29.9474 1.1949e-12
-29.9474 14.7561 6.79753e-13
1.1949e-12 6.79753e-13 -3.9178

6.88092 31.6228 7.59097e-13
31.6228 25.4016 -1.18424e-13
7.59097e-13 -1.18424e-13 -6.82808

2.78552 -15.0201 1.29319e-12
-15.0201 -39.2671 -1.42183e-12
1.29319e-12 -1.42183e-12 -63.3111

-46.1596 2.04133 -3.12868e-12
2.04133 11.4614 1.30562e-12
-3.12868e-12 1.30562e-12 -22.7567

-55.4447 20.3 -2.72049e-12
20.3 3.09571 -1.4726e-12
-2.72049e-12 -1.4726e-12 -22.9159

5.91674 15.439 -4.69373e-12
15.439 -58.8185 -4.34911e-12
-4.69373e-12 -4.34911e-12 -23.0359

-18.9215 -26.1887 3.56041e-12
-26.1887 -12.9134 4.23039e-12
3.56041e-12 4.23039e-12 -9.65258

41.346 17.9572 1.73372e-12
17.9572 -6.271 3.7718e-13
1.73372e-12 3.7718e-13 -3.86134

-44.6826 -5.29401 -1.59132e-15
-5.29401 4.53833 -2.14081e-12
-1.59132e-15 -2.14081e-12 -39.1448

7.49928 -18.9881 8.54132e-13
-18.9881 -39.8943 -4.89682e-12
8.54132e-13 -4.89682e-12 -11.6599

30.2909 -15.5988 1.10726e-12
-15.5988 -20.5085 3.50534e-13
1.10726e-12 3.50534e-13 -4.80494

-9.63838 11.6032 3.56752e-12
11.6032 44.3191 -3.31587e-12
3.56752e-12 -3.31587e-12 -3.85899

8.33393 -25.7342 4.15135e-12
-25.7342 32.9918 4.22773e-12
4.15135e-12 4.22773e-12 -3.63294

-10.2446 -25.2738 2.68792e-12
-25.2738 -19.1003 2.57231e-12
2.68792e-12 2.57231e-12 -23.1747

17.005 31.9594 -9.00613e-13
31.9594 11.1972 -1.12147e-12
-9.00613e-13 -1.12147e-12 -5.74625

-1.06926 -25.1347 1.81514e-12
-25.1347 -30.7628 -4.76271e-12
1.81514e-12 -4.76271e-12 -20.8915

48.065 2.59736 4.63037e-12
2.59736 -8.40968 -7.62797e-13
4.63037e-12 -7.62797e-13 -3.53151

6.55258 -28.9304 -1.71418e-12
-28.9304 72.0502 8.26598e-13
-1.71418e-12 8.26598e-13 -14.5514

21.7915 -29.2309 -3.85469e-13
-29.2309 13.9636 2.67164e-12
-3.85469e-13 2.67164e-12 -3.93019

35.3512 32.1589 -7.89887e-13
32.1589 74.1341 -4.54037e-12
-7.89887e-13 -4.54037e-12 -5.44162

-45.2833 -11.8769 6.82028e-13
-11.8769 13.9221 -2.24828e-12
6.82028e-13 -2.24828e-12 -15.3263

-14.4204 -13.8213 -2.02875e-12
-13.8213 43.3822 -1.11318e-13
-2.02875e-12 -1.11318e-13 -5.67256

-19.2433 -23.9879 -1.23516e-12
-23.9879 -19.8304 -3.12002e-12
-1.23516e-12 -3.12002e-12 -64.2529

2.43827 23.7707 -2.0357e-12
23.7707 36.0066 7.21793e-12
-2.0357e-12 7.21793e-12 -3.71096

-15.1824 -32.7263 4.66294e-13
-32.7263 -21.119 8.93804e-13
4.66294e-13 8.93804e-13 -14.3129

-14.5651 -11.9631 -3.74367e-13
-11.9631 45.5304 -2.84217e-13
-3.74367e-13 -2.84217e-13 -5.73875

7.83559 -19.1169 2.56802e-12
-19.1169 -43.1219 3.71791e-12
2.56802e-12 3.71791e-12 -12.6319

6.54567 23.877 -1.00187e-12
23.877 35.1712 -2.67638e-12
-1.00187e-12 -2.67638e-12 -3.44192

23.1734 -4.97548 1.98301e-12
-4.97548 -30.6761 3.08742e-12
1.98301e-12 3.08742e-12 -5.36415

36.9702 -30.3426 1.42109e-14
-30.3426 122.627 7.7236e-12
1.42109e-14 7.7236e-12 -6.24178

-26.8692 21.014 2.14673e-12
21.014 8.43425 -8.44362e-13
2.14673e-12 -8.44362e-13 -7.12981

40.3383 -19.3232 2.0736e-12
-19.3232 -11.3723 1.05989e-13
2.0736e-12 1.05989e-13 -5.72578

6.52844 -21.4459 5.56592e-14
-21.4459 -45.5582 -5.63105e-13
5.56592e-14 -5.63105e-13 -24.9717

20.7051 31.7539 -2.34479e-13
31.7539 9.55751 4.23365e-13
-2.34479e-13 4.23365e-13 -5.80581

13.9189 -29.9717 -1.18424e-13
-29.9717 -7.60561 3.80644e-12
-1.18424e-13 3.80644e-12 -5.94405

6.75488 20.8853 2.50407e-12
20.8853 -27.7921 -2.05761e-12
2.50407e-12 -2.05761e-12 -11.1087

-38.2741 -28.0759 1.63588e-12
-28.0759 -14.0378 -4.19205e-12
1.63588e-12 -4.19205e-12 -11.0608

8.64637 -26.2251 1.11022e-12
-26.2251 31.1708 -8.0765e-13
1.11022e-12 -8.0765e-13 -3.63497

15.3314 28.981 -3.38692e-12
28.981 19.1538 2.50822e-12
-3.38692e-12 2.50822e-12 -3.88275

28.6403 26.1913 -4.71564e-12
26.1913 -5.63316 -3.99029e-12
-4.71564e-12 -3.99029e-12 -4.80174

7.91474 -14.61 8.67454e-14
-14.61 -36.8775 -6.29422e-13
8.67454e-14 -6.29422e-13 -13.9911

-6.84129 -16.6175 -2.41436e-12
-16.6175 41.3408 3.98141e-12
-2.41436e-12 3.98141e-12 -3.95918

17.4407 -17.5682 -2.84336e-12
-17.5682 -30.999 1.79708e-12
-2.84336e-12 1.79708e-12 -7.10498

19.8419 16.9084 -3.3135e-12
16.9084 -31.6642 -3.18856e-12
-3.3135e-12 -3.18856e-12 -7.33424

-33.6796 -9.38675 -3.41638e-12
-9.38675 8.75603 9.71075e-14
-3.41638e-12 9.71075e-14 -23.9927

43.4314 -13.43 6.26107e-12
-13.43 -8.36864 1.61308e-12
6.26107e-12 1.61308e-12 -3.80392

-19.3783 0.594032 -9.30515e-13
0.594032 43.1452 4.24905e-12
-9.30515e-13 4.24905e-12 -4.7752

28.0559 18.5549 -2.38802e-12
18.5549 -18.1988 1.84948e-12
-2.38802e-12 1.84948e-12 -4.74944

25.5283 27.6039 -2.01439e-12
27.6039 -3.77546 -1.39296e-12
-2.01439e-12 -1.39296e-12 -4.77089

-6.71509 -15.6861 -5.6651e-12
-15.6861 43.7984 -1.02437e-12
-5.6651e-12 -1.02437e-12 -3.84772

-19.9063 -1.20229 1.92838e-12
-1.20229 42.1277 -1.84978e-12
1.92838e-12 -1.84978e-12 -4.68676

-5.47321 29.1343 -3.29218e-13
29.1343 -23.6465 6.75904e-13
-3.29218e-13 6.75904e-13 -16.7968

-37.2736 -10.9221 1.81514e-12
-10.9221 21.6799 -1.34589e-12
1.81514e-12 -1.34589e-12 -7.82976

27.1433 -26.7152 4.76004e-12
-26.7152 -5.53058 -9.52719e-13
4.76004e-12 -9.52719e-13 -4.94394

40.7189 21.3325 1.90544e-12
21.3325 -8.36995 4.33846e-12
1.90544e-12 4.33846e-12 -5.46729

12.378 23.6653 -1.2168e-12
23.6653 -27.127 -8.12683e-13
-1.2168e-12 -8.12683e-13 -8.66673

-37.7964 5.47079 -2.10224e-12
5.47079 23.3113 -1.62004e-12
-2.10224e-12 -1.62004e-12 -8.59718

18.593 29.0655 3.81917e-13
29.0655 17.3778 9.82325e-13
3.81917e-13 9.82325e-13 -3.94683

-9.98903 22.9638 -4.09421e-12
22.9638 -14.913 -8.5798e-13
-4.09421e-12 -8.5798e-13 -24.0259

68.3164 -59.6916 1.95162e-12
-59.6916 36.3352 -8.95758e-12
1.95162e-12 -8.95758e-12 -23.0106

17.5309 -25.0477 -1.38141e-12
-25.0477 -17.9919 3.26613e-12
-1.38141e-12 3.26613e-12 -6.4174

10.0584 7.06989 2.05228e-12
7.06989 82.5504 -2.65032e-12
2.05228e-12 -2.65032e-12 -7.16513

11.9203 -28.8892 1.76274e-12
-28.8892 -3.88141 1.7959e-12
1.76274e-12 1.7959e-12 -5.16552

-66.9448 -52.7012 1.76096e-12
-52.7012 143.25 -1.98005e-12
1.76096e-12 -1.98005e-12 -49.6691

-68.3881 51.4519 -8.43177e-13
51.4519 142.538 -4.62326e-12
-8.43177e-13 -4.62326e-12 -49.8581

19.5697 117.155 -1.18187e-12
117.155 64.1292 -8.47914e-13
-1.18187e-12 -8.47914e-13 -48.3597

20.5286 -117.097 6.39488e-14
-117.097 61.0261 -5.00222e-12
6.39488e-14 -5.00222e-12 -48.7244

157.744 -1.36337 -2.72848e-12
-1.36337 -79.187 3.12239e-14
-2.72848e-12 3.12239e-14 -48.9113

110.326 -91.1259 6.47068e-12
-91.1259 -36.6898 -3.23534e-12
6.47068e-12 -3.23534e-12 -50.3059

110.379 91.6537 -5.01169e-12
91.6537 -36.5001 -4.583e-12
-5.01169e-12 -4.583e-12 -50.1787

7.84698 14.3303 -1.67066e-12
14.3303 -42.6815 -2.94934e-12
-1.67066e-12 -2.94934e-12 -15.0789

-11.7909 25.5365 2.73648e-12
25.5365 -27.4047 -1.69524e-12
2.73648e-12 -1.69524e-12 -35.1378

12.4381 6.60604 3.58706e-12
6.60604 -40.5336 6.65394e-14
3.58706e-12 6.65394e-14 -8.25224

26.2547 21.7846 2.38269e-12
21.7846 -19.5284 1.60316e-12
2.38269e-12 1.60316e-12 -5.8506

-21.2299 17.7444 -1.27898e-13
17.7444 29.8683 1.6005e-12
-1.27898e-13 1.6005e-12 -6.16209

22.5303 28.8985 1.59398e-12
28.8985 -0.775338 -1.18424e-15
1.59398e-12 -1.18424e-15 -4.73052

4.05553 -29.6634 -5.785e-13
-29.6634 -17.4662 -1.94037e-12
-5.785e-13 -1.94037e-12 -8.5042

25.9952 28.0278 -1.66563e-12
28.0278 -2.30154 1.63247e-12
-1.66563e-12 1.63247e-12 -4.73092

-19.3469 -2.84126 4.53119e-13
-2.84126 43.0712 5.0413e-12
4.53119e-13 5.0413e-12 -4.76974

-13.4115 -26.0973 2.32851e-12
-26.0973 -25.8384 5.50981e-12
2.32851e-12 5.50981e-12 -35.5209

-19.8419 -4.8624 -2.00092e-12
-4.8624 41.7763 1.80478e-12
-2.00092e-12 1.80478e-12 -4.74361

-1.8269 23.0163 -2.09373e-12
23.0163 -24.3771 -5.87234e-13
-2.09373e-12 -5.87234e-13 -16.1498

44.9825 26.8707 -2.13873e-12
26.8707 8.11148 2.81789e-12
-2.13873e-12 2.81789e-12 -5.36891

-52.5087 -13.2161 -8.04394e-13
-13.2161 0.150383 -1.49125e-12
-8.04394e-13 -1.49125e-12 -20.6173

20.2805 13.7279 4.03233e-12
13.7279 -31.1414 -2.31341e-12
4.03233e-12 -2.31341e-12 -7.04275

13.7007 -29.9876 9.5568e-13
-29.9876 -6.69134 2.34834e-12
9.5568e-13 2.34834e-12 -5.83499

29.6308 -24.7135 5.18341e-12
-24.7135 -7.8736 -4.08858e-12
5.18341e-12 -4.08858e-12 -4.8249

5.76476 -16.0747 7.63745e-12
-16.0747 -32.3342 -1.66533e-12
7.63745e-12 -1.66533e-12 -22.2554

12.6277 27.9289 1.01252e-13
27.9289 -13.6387 -2.37706e-12
1.01252e-13 -2.37706e-12 -6.41938

23.309 23.9775 3.28981e-12
23.9775 -17.9431 -1.81218e-12
3.28981e-12 -1.81218e-12 -5.96213

-31.0768 -2.79293 1.37927e-13
-2.79293 30.1317 -3.04468e-12
1.37927e-13 -3.04468e-12 -6.39825

-28.6292 5.87335 1.44312e-12
5.87335 33.3214 -2.91441e-12
1.44312e-12 -2.91441e-12 -6.05909

34.5485 2.64671 3.23889e-12
2.64671 -26.1833 1.41849e-13
3.23889e-12 1.41849e-13 -6.14185

50.6513 -7.28966 1.05279e-12
-7.28966 -14.0816 -8.02321e-13
1.05279e-12 -8.02321e-13 -6.77847

11.0412 30.4847 -4.16496e-12
30.4847 -4.78751 -1.73905e-12
-4.16496e-12 -1.73905e-12 -5.96594

17.4675 -26.1554 -4.70142e-12
-26.1554 -17.4549 2.73973e-12
-4.70142e-12 2.73973e-12 -6.35151

-0.0844043 -21.2544 -2.84513e-13
-21.2544 -27.9559 -2.30542e-12
-2.84513e-13 -2.30542e-12 -17.1664

4.93905 -31.6337 4.47287e-12
-31.6337 4.86148 2.01261e-12
4.47287e-12 2.01261e-12 -5.93479

-8.22705 -27.7856 4.27806e-12
-27.7856 18.5788 -9.39101e-13
4.27806e-12 -9.39101e-13 -6.1294

-1.6502 29.8872 3.08968e-12
29.8872 10.4474 4.84945e-12
3.08968e-12 4.84945e-12 -5.79983

-26.0164 -9.57793 1.65656e-12
-9.57793 32.9698 5.66658e-13
1.65656e-12 5.66658e-13 -5.78676

-31.3227 -1.54481 1.58037e-12
-1.54481 31.6508 -4.79972e-12
1.58037e-12 -4.79972e-12 -6.22308

-38.9153 5.74793 1.00843e-12
5.74793 23.9465 8.88771e-13
1.00843e-12 8.88771e-13 -9.18259

-17.2179 -21.0891 -1.52234e-12
-21.0891 26.571 1.13687e-13
-1.52234e-12 1.13687e-13 -5.77148

13.0718 24.1112 -9.78773e-13
24.1112 -28.101 1.74675e-14
-9.78773e-13 1.74675e-14 -9.20446

21.555 -9.58977 -3.97312e-13
-9.58977 -31.7063 -1.70634e-12
-3.97312e-13 -1.70634e-12 -6.59759

-27.1533 7.46528 2.51462e-12
7.46528 34.3346 9.26666e-13
2.51462e-12 9.26666e-13 -5.87349

-35.2356 -9.7011 -3.65755e-12
-9.7011 22.3136 -1.76215e-12
-3.65755e-12 -1.76215e-12 -8.18303

-29.1555 -16.3307 1.59946e-12
-16.3307 19.3468 -2.73559e-13
1.59946e-12 -2.73559e-13 -6.66126

36.9679 -8.23922 -8.10137e-12
-8.23922 -20.2366 3.87512e-12
-8.10137e-12 3.87512e-12 -5.101

-14.8097 -32.3468 2.32614e-12
-32.3468 -21.6274 2.82322e-12
2.32614e-12 2.82322e-12 -12.9927

-22.8239 9.3209 -1.88486e-12
9.3209 33.3234 9.45022e-13
-1.88486e-12 9.45022e-13 -4.78833

-0.751033 -18.2127 5.62217e-13
-18.2127 -35.1575 2.28114e-12
5.62217e-13 2.28114e-12 -33.2775

4.93217 24.8228 -1.97531e-12
24.8228 75.3069 -7.79229e-12
-1.97531e-12 -7.79229e-12 -14.3189

-14.1418 -26.6262 -1.13006e-12
-26.6262 -16.35 -3.67573e-12
-1.13006e-12 -3.67573e-12 -14.6405

-6.35705 -30.2028 2.00847e-12
-30.2028 -23.6023 -1.77251e-12
2.00847e-12 -1.77251e-12 -17.0876

-31.2705 -0.701265 2.02142e-12
-0.701265 31.5004 -4.15668e-12
2.02142e-12 -4.15668e-12 -6.34795

28.4877 -16.6226 2.05051e-12
-16.6226 -18.0568 -5.84303e-12
2.05051e-12 -5.84303e-12 -4.43753

-37.8048 12.8417 1.28394e-12
12.8417 11.1651 3.48462e-12
1.28394e-12 3.48462e-12 -10.9887

-8.86115 -3.18057 -9.99645e-13
-3.18057 111.051 9.84575e-12
-9.99645e-13 9.84575e-12 -22.6716

-31.6024 14.2737 -1.87235e-12
14.2737 21.3504 1.07174e-13
-1.87235e-12 1.07174e-13 -7.12396

12.4219 -29.4893 -1.42345e-12
-29.4893 -2.51948 6.987e-14
-1.42345e-12 6.987e-14 -4.92775

33.6321 25.1058 7.22977e-13
25.1058 124.03 1.11318e-13
7.22977e-13 1.11318e-13 -6.21413

-13.5025 26.0978 -2.31015e-12
26.0978 -19.0973 -1.33273e-11
-2.31015e-12 -1.33273e-11 -58.895

-9.5527 -27.8071 3.66137e-12
-27.8071 -22.8067 2.15872e-12
3.66137e-12 2.15872e-12 -59.5454

-2.86577 -30.4192 3.84463e-12
-30.4192 -7.32117 1.16055e-13
3.84463e-12 1.16055e-13 -7.28691

3.86031 -31.1603 4.07792e-12
-31.1603 5.63569 -4.23365e-13
4.07792e-12 -4.23365e-13 -6.06201

25.1521 20.8276 -7.82781e-13
20.8276 -17.0343 -1.11674e-12
-7.82781e-13 -1.11674e-12 -4.97643

31.8052 15.0062 2.87533e-12
15.0062 -23.3009 1.01844e-12
2.87533e-12 1.01844e-12 -5.9543

-9.48861 3.0834 3.44088e-12
3.0834 -9.83048 1.18425e-11
3.44088e-12 1.18425e-11 -80.9371

-5.54892 -6.9999 9.85404e-12
-6.9999 -14.0416 2.28573e-12
9.85404e-12 2.28573e-12 -80.2898

11.7486 4.8243 -1.65142e-12
4.8243 -43.2055 2.6031e-12
-1.65142e-12 2.6031e-12 -7.82715

-35.0566 6.73104 2.66528e-13
6.73104 24.3754 -3.69482e-12
2.66528e-13 -3.69482e-12 -7.56363

-36.1104 6.73633 2.40069e-12
6.73633 24.4326 -5.22486e-12
2.40069e-12 -5.22486e-12 -8.30861

74.587 58.6346 -7.11253e-12
58.6346 34.173 7.86808e-12
-7.11253e-12 7.86808e-12 -21.8729

-6.91981 -28.1999 1.01489e-12
-28.1999 16.8753 -3.32948e-12
1.01489e-12 -3.32948e-12 -6.1163

8.17202 17.9745 -2.96859e-12
17.9745 -44.8758 -2.6595e-12
-2.96859e-12 -2.6595e-12 -12.8965

32.7032 9.53978 -7.10543e-13
9.53978 -19.0801 9.76996e-14
-7.10543e-13 9.76996e-14 -4.07402

3.38787 -26.7234 4.28161e-12
-26.7234 13.4841 -3.7043e-12
4.28161e-12 -3.7043e-12 -3.82665

26.2376 -20.2378 1.6378e-12
-20.2378 -20.323 -5.96886e-12
1.6378e-12 -5.96886e-12 -5.86286

65.3908 60.2325 -2.76164e-12
60.2325 34.2897 5.41552e-12
-2.76164e-12 5.41552e-12 -23.8677

-13.2425 31.0691 -5.86198e-14
31.0691 -16.8814 -2.19883e-12
-5.86198e-14 -2.19883e-12 -12.7857

-18.6042 -19.7862 -9.41469e-13
-19.7862 28.4148 -8.09071e-12
-9.41469e-13 -8.09071e-12 -5.96914

11.1745 28.8578 2.67519e-12
28.8578 -13.3231 7.78044e-13
2.67519e-12 7.78044e-13 -6.43581

-31.8691 -4.14487 3.47241e-12
-4.14487 30.148 -2.64085e-12
3.47241e-12 -2.64085e-12 -6.35752

-14.5963 19.6093 -5.71632e-12
19.6093 27.1853 -3.97726e-12
-5.71632e-12 -3.97726e-12 -4.41836

7.47933 30.5189 -1.01548e-12
30.5189 -1.67028 1.99189e-12
-1.01548e-12 1.99189e-12 -5.66014

-9.34481 -22.4733 2.44841e-12
-22.4733 23.1493 -2.64855e-12
2.44841e-12 -2.64855e-12 -4.17511

4.59062 -27.3527 -5.06439e-12
-27.3527 11.4492 -1.72366e-12
-5.06439e-12 -1.72366e-12 -3.93817

24.272 11.257 -1.56541e-12
11.257 102.08 9.7818e-12
-1.56541e-12 9.7818e-12 -12.4049

37.4667 -33.4564 5.43447e-12
-33.4564 69.2859 -3.03165e-13
5.43447e-12 -3.03165e-13 -5.70302

-25.3352 -11.6906 -3.30994e-12
-11.6906 31.3683 -2.72316e-12
-3.30994e-12 -2.72316e-12 -5.64804

16.0966 26.4847 1.11378e-12
26.4847 -15.5019 1.90781e-12
1.11378e-12 1.90781e-12 -6.21712

4.95586 29.4781 -2.61065e-12
29.4781 1.63701 4.19812e-12
-2.61065e-12 4.19812e-12 -4.98963

-9.85458 -21.434 2.15709e-12
-21.434 25.121 -3.77298e-12
2.15709e-12 -3.77298e-12 -4.0329

-21.6346 -11.7824 1.60257e-12
-11.7824 32.0822 6.54884e-13
1.60257e-12 6.54884e-13 -4.63687

10.463 28.4097 -4.64991e-12
28.4097 -0.156367 1.61708e-12
-4.64991e-12 1.61708e-12 -4.67256

-21.8468 -13.8779 -2.38298e-12
-13.8779 29.4675 -3.91391e-12
-2.38298e-12 -3.91391e-12 -4.84682

6.95866 27.8551 -6.15744e-12
27.8551 73.0853 -8.81073e-13
-6.15744e-12 -8.81073e-13 -14.322

-45.8316 -4.04122 2.43775e-12
-4.04122 14.0479 5.48302e-12
2.43775e-12 5.48302e-12 -19.9649

0.877209 31.0277 -1.42109e-13
31.0277 7.52043 8.73375e-13
-1.42109e-13 8.73375e-13 -6.08875

9.71923 14.9013 8.37848e-13
14.9013 -36.4291 1.83557e-13
8.37848e-13 1.83557e-13 -10.9851

9.9287 -15.9276 2.29387e-12
-15.9276 -39.4105 -1.65823e-12
2.29387e-12 -1.65823e-12 -13.069

85.6137 -24.2047 4.42431e-12
-24.2047 7.63587 -1.84741e-13
4.42431e-12 -1.84741e-13 -12.9579

-23.2069 -21.2673 8.79297e-13
-21.2673 10.5139 -1.97531e-12
8.79297e-13 -1.97531e-12 -6.16498

-16.6008 26.6984 -1.75948e-12
26.6984 1.7786 -3.17553e-12
-1.75948e-12 -3.17553e-12 -6.58743

-26.2013 -21.7278 -4.11523e-14
-21.7278 -5.36509 -3.1084e-12
-4.11523e-14 -3.1084e-12 -23.8671

-41.5966 14.1065 -8.49839e-13
14.1065 -3.56005 1.73609e-12
-8.49839e-13 1.73609e-12 -64.1273

-0.893451 9.44533 3.50505e-12
9.44533 -44.2592 -3.32386e-12
3.50505e-12 -3.32386e-12 -64.2287

-20.3841 32.7054 -1.95606e-12
32.7054 -23.2025 -9.48427e-13
-1.95606e-12 -9.48427e-13 -24.3295

-11.4105 26.0005 -4.29582e-12
26.0005 22.6042 -3.23119e-12
-4.29582e-12 -3.23119e-12 -5.92538

16.0388 26.6616 -7.69163e-13
26.6616 -17.2871 -1.03029e-12
-7.69163e-13 -1.03029e-12 -6.54959

30.4284 45.1862 -7.5436e-13
45.1862 47.555 -3.5989e-12
-7.5436e-13 -3.5989e-12 -15.195

-44.8884 -11.3435 -3.18841e-12
-11.3435 -1.80803 2.11416e-12
-3.18841e-12 2.11416e-12 -61.6834

-8.29816 -3.43284 -1.3663e-11
-3.43284 -12.7548 2.03763e-12
-1.3663e-11 2.03763e-12 -77.2273

-14.6912 -0.209959 2.97984e-12
-0.209959 -6.41856 -6.47001e-12
2.97984e-12 -6.47001e-12 -77.3715

27.6652 -53.8028 -6.68858e-12
-53.8028 71.1492 -2.72375e-12
-6.68858e-12 -2.72375e-12 -24.3895

-11.6911 -11.5999 -3.25517e-13
-11.5999 -16.2046 -2.64855e-12
-3.25517e-13 -2.64855e-12 -37.4309

-32.6103 8.81291 -1.64935e-12
8.81291 -9.41929 -6.72292e-12
-1.64935e-12 -6.72292e-12 -49.5411

18.2562 -26.1996 -1.48207e-12
-26.1996 -19.5464 -7.42517e-13
-1.48207e-12 -7.42517e-13 -6.50635

-39.4301 1.011 7.37891e-12
1.011 11.9802 5.11887e-12
7.37891e-12 5.11887e-12 -19.7218

-30.2024 -20.2679 2.8891e-12
-20.2679 6.30512 -1.11674e-12
2.8891e-12 -1.11674e-12 -7.21585

10.5365 6.25534 -5.48421e-12
6.25534 -52.3899 1.18927e-12
-5.48421e-12 1.18927e-12 -9.63952

-49.8127 15.5963 -1.2663e-13
15.5963 10.1653 4.3876e-12
-1.2663e-13 4.3876e-12 -13.531

-40.2836 7.19157 -3.63876e-13
7.19157 16.5414 2.37913e-12
-3.63876e-13 2.37913e-12 -13.7741

16.4049 20.3929 7.74492e-13
20.3929 -25.8408 -3.41682e-12
7.74492e-13 -3.41682e-12 -7.60745

-9.10018 -3.1139 2.55077e-12
-3.1139 108.395 -3.8843e-13
2.55077e-12 -3.8843e-13 -23.1019

-3.32009 -27.6238 3.41238e-12
-27.6238 -3.62942 3.8393e-12
3.41238e-12 3.8393e-12 -5.82978

-7.33498 -26.1164 -3.22231e-12
-26.1164 -14.0819 3.52962e-12
-3.22231e-12 3.52962e-12 -9.81055

-14.1983 -31.4837 7.87518e-13
-31.4837 -21.7779 -3.49483e-12
7.87518e-13 -3.49483e-12 -12.7555

90.7281 32.7498 2.81138e-12
32.7498 20.9065 -4.49122e-12
2.81138e-12 -4.49122e-12 -16.5059

-23.1172 -20.1164 5.13663e-12
-20.1164 -17.385 -4.03085e-13
5.13663e-12 -4.03085e-13 -44.4274

72.6306 54.3225 -1.66504e-12
54.3225 91.6409 -3.64035e-12
-1.66504e-12 -3.64035e-12 -6.1423

-36.2151 -21.4395 2.98783e-12
-21.4395 -6.79682 4.94775e-12
2.98783e-12 4.94775e-12 -13.0429

15.034 14.6504 1.40273e-12
14.6504 -37.7517 -1.87406e-12
1.40273e-12 -1.87406e-12 -8.17859

44.5728 -14.5725 1.89715e-12
-14.5725 -8.27186 7.9153e-12
1.89715e-12 7.9153e-12 -4.41832

-21.2306 24.0468 6.75016e-13
24.0468 4.95557 -5.29887e-12
6.75016e-13 -5.29887e-12 -5.97616

17.3732 20.428 1.26181e-12
20.428 -26.7923 -8.73375e-13
1.26181e-12 -8.73375e-13 -6.95127

-51.1399 11.4005 1.25196e-12
11.4005 7.71044 1.82047e-12
1.25196e-12 1.82047e-12 -29.994

-7.28699 -31.5802 2.58519e-12
-31.5802 -12.8266 2.35071e-12
2.58519e-12 2.35071e-12 -8.11888

2.79663 19.8124 -1.33523e-12
19.8124 -46.0332 -6.21784e-12
-1.33523e-12 -6.21784e-12 -29.9859

-24.6709 -18.4435 -1.96406e-12
-18.4435 17.8362 2.6071e-12
-1.96406e-12 2.6071e-12 -5.47985

-42.3405 4.28322 -2.88175e-12
4.28322 17.8694 1.76511e-12
-2.88175e-12 1.76511e-12 -12.728

-4.09805 9.92682 4.45954e-12
9.92682 -40.2757 -3.07399e-12
4.45954e-12 -3.07399e-12 -47.5486

-2.68829 -8.51344 6.47156e-12
-8.51344 -38.3069 3.60408e-12
6.47156e-12 3.60408e-12 -47.4043

81.7228 18.5124 7.4607e-13
18.5124 1.70015 -1.17062e-12
7.4607e-13 -1.17062e-12 -14.4531

3.89496 7.96506 -1.50102e-12
7.96506 -45.1831 -2.76579e-12
-1.50102e-12 -2.76579e-12 -11.0181

35.8718 7.74052 4.3648e-12
7.74052 184.573 6.63173e-14
4.3648e-12 6.63173e-14 -9.75731

40.1453 -11.3852 -4.35045e-12
-11.3852 190.37 -3.16428e-12
-4.35045e-12 -3.16428e-12 -7.38914

53.7647 56.4069 2.57453e-12
56.4069 159.255 1.16055e-12
2.57453e-12 1.16055e-12 -11.5

1.70892 -28.9505 -4.35503e-12
-28.9505 -24.6908 -7.07582e-13
-4.35503e-12 -7.07582e-13 -11.9627

16.049 -49.1904 -4.08562e-12
-49.1904 99.4188 -2.36848e-14
-4.08562e-12 -2.36848e-14 -21.6892

54.5126 -55.9494 -2.69533e-12
-55.9494 149.972 -6.39015e-12
-2.69533e-12 -6.39015e-12 -13.6649

-2.16562 26.2201 2.67046e-12
26.2201 17.5727 -2.14347e-12
2.67046e-12 -2.14347e-12 -3.99567

134.938 73.8437 8.95284e-13
73.8437 85.0245 4.02641e-14
8.95284e-13 4.02641e-14 -10.1591

-18.7199 13.0472 -5.89306e-12
13.0472 -3.90013 8.941e-13
-5.89306e-12 8.941e-13 -26.7695

3.74109 0.0395322 -2.53264e-12
0.0395322 -26.1889 -5.25861e-12
-2.53264e-12 -5.25861e-12 -26.7727

144.096 -73.1292 -9.44074e-12
-73.1292 85.3519 1.02318e-12
-9.44074e-12 1.02318e-12 -8.19637

-21.3928 -23.424 7.17944e-13
-23.424 12.2481 2.50822e-12
7.17944e-13 2.50822e-12 -6.49087

89.346 34.7291 3.73509e-12
34.7291 41.3898 7.03437e-12
3.73509e-12 7.03437e-12 -11.548

72.1867 63.4907 4.9738e-12
63.4907 149.692 -5.35749e-12
4.9738e-12 -5.35749e-12 -9.67371

26.1644 21.6302 2.75335e-12
21.6302 100.133 5.59197e-12
2.75335e-12 5.59197e-12 -13.0315

73.8735 -65.9196 -4.46458e-12
-65.9196 151.143 -5.4096e-12
-4.46458e-12 -5.4096e-12 -9.40225

25.7689 -12.3811 1.62596e-12
-12.3811 105.012 5.46644e-12
1.62596e-12 5.46644e-12 -12.4285

-28.6639 6.84161 -7.93069e-13
6.84161 3.10685 -4.57738e-12
-7.93069e-13 -4.57738e-12 -37.8535

37.7427 -45.9747 3.56929e-12
-45.9747 49.6691 -2.78651e-12
3.56929e-12 -2.78651e-12 -15.5324

14.4437 47.5318 1.89241e-12
47.5318 94.8792 -3.58824e-12
1.89241e-12 -3.58824e-12 -22.1924

173.338 37.9113 -5.03064e-12
37.9113 48.0412 -2.66986e-12
-5.03064e-12 -2.66986e-12 -9.52235

7.02082 -29.2857 -7.28306e-14
-29.2857 -14.3583 -3.21817e-12
-7.28306e-14 -3.21817e-12 -7.15584

-38.4175 12.8967 -5.36171e-12
12.8967 6.43534 5.57983e-12
-5.36171e-12 5.57983e-12 -15.2904

88.5043 -38.1123 -3.10981e-12
-38.1123 34.1627 -2.63611e-12
-3.10981e-12 -2.63611e-12 -14.0997

6.04181 -28.8022 2.74506e-12
-28.8022 -16.1718 2.62901e-13
2.74506e-12 2.62901e-13 -8.02969

169.204 -36.3432 -8.3844e-13
-36.3432 34.9286 3.77357e-12
-8.3844e-13 3.77357e-12 -13.2902

-5.72508 -28.3174 -3.1033e-12
-28.3174 -14.4728 -2.4943e-12
-3.1033e-12 -2.4943e-12 -9.30925

-17.7904 -25.2949 5.32522e-12
-25.2949 12.0803 -2.36196e-12
5.32522e-12 -2.36196e-12 -5.93402

118.875 69.4602 -2.59585e-12
69.4602 96.2183 7.09122e-12
-2.59585e-12 7.09122e-12 -11.4003

29.4128 -22.9327 -5.47592e-12
-22.9327 97.7957 1.90899e-12
-5.47592e-12 1.90899e-12 -14.3401

117.958 -71.6922 1.7432e-12
-71.6922 93.6798 6.22199e-12
1.7432e-12 6.22199e-12 -12.4164

22.2645 50.7372 -5.61329e-13
50.7372 73.7779 -1.85689e-12
-5.61329e-13 -1.85689e-12 -24.7775

-1.53622 -30.2122 1.54069e-12
-30.2122 -6.55244 3.47722e-12
1.54069e-12 3.47722e-12 -6.99766

-7.04501 -14.6404 -4.41277e-12
-14.6404 -21.9194 -3.0056e-12
-4.41277e-12 -3.0056e-12 -32.6142

-11.892 11.0925 8.77713e-12
11.0925 -16.4305 1.25541e-11
8.77713e-12 1.25541e-11 -77.7937

-26.1686 -5.16002 -1.52648e-12
-5.16002 -6.38735 -7.15724e-13
-1.52648e-12 -7.15724e-13 -77.6274

-38.9411 13.0836 4.06203e-12
13.0836 13.7444 -3.47574e-12
4.06203e-12 -3.47574e-12 -10.2387

-14.4805 -10.6668 1.65519e-12
-10.6668 -17.318 3.84833e-12
1.65519e-12 3.84833e-12 -78.7565

-25.9024 4.09178 -1.22435e-12
4.09178 -5.91384 3.92882e-12
-1.22435e-12 3.92882e-12 -78.8986

-3.63371 7.43389 4.85182e-12
7.43389 -27.8603 -4.31447e-12
4.85182e-12 -4.31447e-12 -77.9859

-43.9749 -12.115 -1.14279e-12
-12.115 2.9163 2.66069e-12
-1.14279e-12 2.66069e-12 -68.1575

11.9737 -30.4701 -6.32442e-12
-30.4701 76.163 -6.12014e-12
-6.32442e-12 -6.12014e-12 -14.701

0.521781 -12.9721 -7.84587e-12
-12.9721 -39.9905 -2.53575e-12
-7.84587e-12 -2.53575e-12 -45.2768

-16.3488 -34.4176 -1.80596e-14
-34.4176 -22.0687 1.47526e-12
-1.80596e-14 1.47526e-12 -23.59

-2.42067 -18.1769 3.2679e-12
-18.1769 -29.8951 5.79092e-13
3.2679e-12 5.79092e-13 -33.6264

12.7382 15.4593 -1.49628e-12
15.4593 -37.7162 1.65704e-12
-1.49628e-12 1.65704e-12 -9.6251

-46.9082 9.86411 -7.61669e-12
9.86411 8.87754 7.36078e-12
-7.61669e-12 7.36078e-12 -70.1533

3.46256 19.2274 -3.21565e-12
19.2274 -41.4717 3.73764e-12
-3.21565e-12 3.73764e-12 -70.2691

1.47222 11.3064 -7.79229e-13
11.3064 -23.965 1.71848e-12
-7.79229e-13 1.71848e-12 -31.8676

109.392 -15.3394 8.1665e-12
-15.3394 -12.5355 9.76404e-13
8.1665e-12 9.76404e-13 -25.0371

-14.3204 24.9641 2.63493e-12
24.9641 10.3862 3.48166e-12
2.63493e-12 3.48166e-12 -5.80452

76.607 -61.3547 2.25242e-12
-61.3547 37.3654 -5.44749e-14
2.25242e-12 -5.44749e-14 -22.3952

76.1142 -57.4573 3.47219e-12
-57.4573 99.2285 2.62901e-12
3.47219e-12 2.62901e-12 -5.55521

118.196 -36.5441 1.2155e-11
-36.5441 40.601 8.86994e-13
1.2155e-11 8.86994e-13 -7.37843

-51.114 -5.15894 -2.41851e-12
-5.15894 3.34066 1.35447e-13
-2.41851e-12 1.35447e-13 -60.6599

-50.4779 2.89125 4.03796e-12
2.89125 3.13492 7.6293e-12
4.03796e-12 7.6293e-12 -60.1324

-11.9755 -24.4561 -8.20381e-13
-24.4561 -35.0032 1.28778e-12
-8.20381e-13 1.28778e-12 -59.1666

-8.99187 -21.7603 5.53975e-12
-21.7603 -37.8879 -4.53859e-12
5.53975e-12 -4.53859e-12 -59.4762

-14.7026 26.1357 -2.78029e-12
26.1357 -33.0275 -3.20455e-12
-2.78029e-12 -3.20455e-12 -60.7511

-18.1574 3.0993 6.9537e-12
3.0993 -13.1644 1.34929e-13
6.9537e-12 1.34929e-13 -75.4781

-9.94504 -20.5087 1.33227e-12
-20.5087 -32.6506 -1.37039e-12
1.33227e-12 -1.37039e-12 -56.7369

-26.6481 -18.5682 6.848e-12
-18.5682 -14.1959 1.00599e-11
6.848e-12 1.00599e-11 -71.272

-15.4788 2.4344 5.50227e-12
2.4344 -12.8526 -4.43379e-12
5.50227e-12 -4.43379e-12 -77.8727

-6.0275 -20.5261 -9.93428e-13
-20.5261 -41.4869 -5.73882e-12
-9.93428e-13 -5.73882e-12 -60.5072

-6.75678 20.9556 -6.71974e-12
20.9556 -40.1432 5.13367e-13
-6.71974e-12 5.13367e-13 -60.0184

-14.316 -3.45841 -9.75916e-12
-3.45841 -11.3901 8.92989e-12
-9.75916e-12 8.92989e-12 -76.8871

-11.264 -3.11704 1.13826e-11
-3.11704 -17.6891 -1.30034e-11
1.13826e-11 -1.30034e-11 -74.0499

-24.2038 12.1097 -3.23001e-13
12.1097 -13.4006 1.33991e-11
-3.23001e-13 1.33991e-11 -69.9682

-22.0824 26.9295 5.16624e-13
26.9295 -26.2668 2.89056e-12
5.16624e-13 2.89056e-12 -57.5825

VECTORS fluid_flux_TPM float
-8.72119e-05 3.10256e-05 -1.78351e-21
3.55921e-06 6.88192e-06 2.24433e-20
-1.27862e-05 -1.02246e-05 -2.50647e-20
-4.1702e-06 4.25363e-06 2.64972e-20
2.27057e-05 -6.31272e-06 -2.38889e-22
2.75733e-06 -1.59021e-05 9.9238e-21
-8.57879e-05 -3.10904e-05 6.88179e-22
-1.38911e-05 -1.04658e-05 4.08243e-21
2.21198e-05 9.45436e-07 -4.37375e-21
1.1383e-05 -3.90774e-06 1.96693e-21
5.45962e-05 1.2483e-05 -7.88773e-21
2.34665e-06 -1.71925e-05 1.33769e-20
1.36103e-05 1.12528e-05 3.46547e-21
2.66184e-06 1.37834e-05 1.47614e-20
2.05792e-05 -2.94639e-06 -4.89004e-21
-1.63309e-05 -2.72874e-07 -4.92308e-21
2.75328e-06 1.40975e-05 -1.29939e-20
1.01809e-05 -2.39167e-06 1.17425e-20
9.89774e-06 1.72212e-05 2.82307e-21
-1.48472e-05 1.88529e-06 -1.19173e-21
-3.60086e-06 -2.13022e-05 9.65701e-21
3.41086e-05 5.94134e-05 2.14019e-22
1.56961e-05 1.63116e-06 -1.34999e-21
1.12264e-05 -1.12805e-05 -1.37606e-20
-1.50771e-05 -3.33212e-06 -2.43441e-21
-6.77167e-07 -1.11299e-05 2.56462e-20
6.28992e-05 -4.90814e-06 -1.1251e-20
1.40649e-05 1.0248e-05 8.91604e-22
-2.51478e-05 -2.06413e-05 -3.34785e-21
4.91171e-05 -1.28131e-05 9.78798e-21
-1.65812e-05 -6.03786e-06 1.2759e-20
5.53672e-06 -3.20347e-05 -9.73703e-21
4.76516e-05 -4.80446e-05 -4.4556e-21
-4.92307e-06 -4.12455e-05 2.52054e-21
-2.96717e-05 3.70033e-05 -4.17912e-20
-3.82453e-05 -1.63942e-05 -2.8655e-21
3.27008e-05 4.32131e-05 -6.59142e-21
-4.47383e-05 -8.72539e-06 -6.46894e-21
1.43736e-05 -1.10811e-05 1.44582e-20
4.64675e-05 5.01125e-05 1.81926e-20
3.21277e-05 -1.40213e-05 2.86188e-21
3.36382e-05 -4.23413e-05 -1.09436e-20
-1.98954e-05 -5.03758e-05 9.235e-21
-1.5897e-05 6.35641e-06 1.80941e-20
3.05238e-05 -2.93128e-05 -1.86022e-21
-3.03309e-05 1.09897e-05 1.20775e-20
-4.05e-06 -2.03696e-05 1.6313e-20
7.88571e-06 2.02108e-05 -9.46843e-21
-1.63417e-05 5.92755e-06 7.23987e-21
-1.7819e-05 2.87244e-05 1.10837e-21
3.24071e-05 1.52902e-05 4.70512e-21
2.93638e-05 -1.00747e-05 1.65197e-20
-1.56657e-05 1.57598e-05 -2.08017e-20
-2.35402e-05 -2.06894e-05 2.0403e-20
-2.1139e-05 -5.13224e-06 6.84576e-21
-4.47898e-05 2.7075e-05 -1.55978e-20
-2.93708e-05 -3.80217e-05 1.28703e-20
6.36321e-06 -3.06268e-05 -1.03315e-20
-4.77062e-05 6.48266e-06 -1.25149e-20
6.07391e-06 1.36966e-05 3.53732e-21
-5.57666e-06 -8.17323e-06 -3.19263e-21
-6.58338e-06 -1.79432e-05 -1.33001e-20
5.71427e-05 2.48591e-05 -4.11084e-22
9.24264e-06 1.81439e-05 1.90175e-21
1.22963e-05 -1.44447e-05 2.40892e-20
-1.64056e-06 -2.07521e-05 9.60669e-21
4.62101e-06 -8.80538e-06 3.26884e-20
-1.00903e-05 -5.56479e-06 1.26929e-20
-1.06025e-05 1.19291e-05 -6.31884e-21
2.55816e-06 -4.09253e-06 8.08753e-21
-1.50432e-05 -1.5843e-05 1.1888e-20
-2.13646e-05 5.16585e-06 -7.00765e-21
-3.55677e-06 3.44809e-05 -1.156e-20
-1.78716e-05 1.07107e-05 7.01553e-21
-9.07069e-06 1.46145e-05 8.22245e-21
-6.03541e-05 7.69203e-06 2.03178e-20
7.81796e-06 -2.16813e-05 -1.32753e-21
-1.88799e-05 -8.89997e-06 -1.1583e-20
1.9337e-06 1.16239e-05 5.03132e-21
2.63007e-05 5.08959e-06 -8.3521e-22
3.41687e-05 -2.89748e-05 -5.76072e-21
2.21462e-05 2.0556e-05 3.3545e-21
1.19083e-05 -2.8223e-06 4.02724e-21
-3.21535e-05 2.40669e-05 8.43919e-21
3.7904e-05 4.84581e-06 -1.74795e-20
-4.98079e-06 4.94142e-05 5.43967e-21
-1.7411e-06 -1.6857e-05 1.46986e-20
1.81238e-05 9.95458e-06 8.35368e-21
2.93172e-05 3.02855e-05 -3.14624e-21
5.50243e-05 3.80131e-05 -3.07933e-20
-5.3313e-06 3.07726e-05 4.63175e-21
5.91793e-05 -3.55122e-05 -2.70999e-21
-2.71246e-05 5.34114e-06 8.28252e-22
1.78392e-05 1.10018e-05 -8.15575e-21
-2.96409e-05 9.90325e-06 -8.66438e-22
1.66529e-05 2.8521e-05 1.55615e-21
1.01688e-05 -4.43864e-05 -1.55972e-20
1.91546e-06 1.16207e-05 1.13217e-20
-1.48006e-05 -1.762e-05 -7.5779e-21
3.06988e-06 1.74746e-05 -1.11289e-20
2.64067e-05 5.25745e-06 5.29902e-21
-1.54432e-05 3.3211e-05 7.53673e-22
4.0552e-05 -1.33331e-05 4.76666e-21
-3.77304e-06 7.455e-06 2.18588e-20
9.95278e-06 5.89928e-06 -1.59904e-20
-2.28057e-06 -1.13245e-05 1.11595e-20
3.22064e-06 -1.92518e-05 2.02026e-20
1.74693e-05 3.89206e-06 1.09179e-20
-7.93714e-06 4.09724e-05 -1.1168e-20
-9.80556e-06 2.47925e-07 6.11242e-21
9.31846e-06 1.18857e-05 -1.50643e-21
-2.1773e-06 -4.17136e-05 -2.29311e-20
4.20227e-05 1.28649e-05 1.23873e-21
4.42253e-06 -7.45315e-06 2.17984e-20
-1.11451e-05 -3.55362e-06 7.55304e-21
-2.93254e-05 -1.24859e-05 4.55595e-21
1.58037e-05 4.1147e-05 9.17164e-21
-4.34847e-05 -1.55737e-05 4.9537e-21
1.60185e-05 -4.11235e-05 1.00893e-21
-3.69978e-06 -3.192e-05 -9.8774e-21
2.18387e-05 6.52162e-07 -4.61113e-21
-7.17145e-06 1.83965e-05 7.92654e-21
-1.61118e-06 3.96954e-06 -7.72462e-21
-3.68595e-06 -1.65386e-05 1.96254e-20
5.22995e-06 -8.30205e-06 1.9957e-20
9.35943e-06 1.58634e-05 -2.37228e-21
3.3101e-05 1.06523e-05 -1.39213e-20
8.61542e-06 -7.45799e-06 5.27214e-22
-8.27086e-06 -4.51597e-05 -1.99573e-20
2.55519e-05 -1.88197e-05 -1.40789e-21
4.97789e-06 2.77711e-05 8.53436e-21
-2.81631e-06 -2.84159e-06 -5.29841e-21
-8.62619e-06 -8.32579e-06 2.86548e-20
-4.77664e-06 4.41241e-08 1.71009e-20
-2.28725e-05 2.85939e-05 -1.3519e-20
1.87629e-05 -3.73747e-05 2.67e-21
-2.65798e-05 4.27141e-05 2.31739e-21
-1.63716e-05 9.53518e-06 1.52183e-20
2.52794e-06 1.21988e-05 -1.01566e-20
-2.29866e-05 -3.49891e-05 1.24519e-20
1.3936e-05 3.34657e-05 1.03325e-20
1.75076e-05 9.36912e-06 1.3717e-20
2.28113e-05 -8.52257e-06 5.24415e-21
-1.25318e-06 -1.12653e-05 1.54087e-20
-3.39113e-05 -3.15576e-05 5.78831e-21
-2.75145e-06 1.13032e-05 3.78386e-20
1.72465e-05 1.01716e-05 1.1848e-20
1.88872e-05 -8.82074e-06 6.98495e-22
8.24308e-06 -1.43447e-05 -8.1163e-21
2.43566e-05 -1.07952e-05 -1.62131e-21
1.90093e-05 -8.99776e-06 3.71892e-21
4.64057e-06 2.058e-07 1.75411e-20
2.57403e-05 2.02209e-05 2.12913e-21
-2.74159e-06 -1.70297e-05 2.14824e-21
-1.04797e-05 -4.45694e-06 -1.08472e-20
1.12583e-06 -3.89002e-06 3.52256e-20
-3.15502e-06 1.58468e-05 9.81859e-21
-3.48829e-05 2.76807e-06 -1.37136e-20
-1.21213e-05 -3.32578e-05 -3.8423e-21
-7.87897e-06 9.77888e-06 2.13146e-20
1.35651e-05 1.66401e-05 2.17854e-21
2.65682e-05 -1.87444e-05 7.37751e-21
-3.67918e-05 -2.03504e-05 -2.06819e-21
1.74028e-05 -2.75072e-05 2.88916e-21
2.28036e-05 -2.72161e-05 -8.9203e-21
-1.09442e-05 3.78487e-06 1.6239e-20
-1.98287e-05 -2.88398e-05 -1.17597e-21
-3.48793e-05 -5.79132e-06 -1.11289e-20
-3.85238e-06 -3.17422e-05 -1.50915e-20
1.54474e-05 -3.16987e-05 2.2701e-21
-9.10602e-06 -2.61991e-05 1.16997e-20
4.58114e-06 3.14049e-05 -5.81803e-21
-1.57522e-05 -2.85216e-05 -8.74963e-21
2.93877e-06 -1.6292e-05 2.22332e-20
-2.4739e-05 1.82596e-05 -1.95965e-21
-1.50306e-05 -1.2111e-05 -2.10802e-20
-2.73524e-05 -5.17236e-06 -5.48061e-21
1.56679e-05 -9.18145e-06 -4.1491e-21
-4.30687e-06 2.39522e-05 9.37353e-21
1.22324e-05 -9.32437e-06 1.31046e-20
-2.95855e-05 -1.3164e-05 2.54385e-21
-8.83155e-06 -7.45799e-06 1.00117e-20
9.08198e-06 7.54075e-06 -2.13973e-21
2.14265e-05 2.87004e-05 -1.67342e-22
-1.75086e-05 -1.08091e-05 3.42879e-22
-3.25057e-05 -7.51061e-07 8.8145e-21
-1.63365e-05 -5.01609e-06 4.48685e-22
-4.57807e-06 -1.6583e-05 2.05267e-20
1.76845e-05 2.12389e-05 2.16241e-20
-1.09572e-05 5.87469e-06 1.88732e-20
6.36037e-07 -2.05551e-05 1.04662e-20
-4.19392e-05 1.08507e-05 2.36286e-21
2.48602e-05 2.02461e-05 -6.89547e-21
3.79445e-06 3.2785e-05 -6.40132e-21
-2.43194e-06 3.79716e-06 6.67051e-21
-9.05081e-06 2.51199e-07 -1.17689e-21
4.35504e-06 7.76001e-06 1.09206e-20
-1.16938e-05 3.40143e-06 -1.70906e-20
-2.07336e-06 -3.78489e-06 1.61011e-20
1.65977e-06 2.07597e-05 1.79443e-21
4.47236e-06 4.49694e-07 1.67965e-20
-1.95379e-05 4.7566e-06 1.65707e-20
-1.72983e-05 1.93578e-05 1.23691e-20
-3.10741e-06 1.15781e-05 9.9923e-21
-2.92167e-05 1.83941e-05 -1.6587e-20
-9.34329e-06 8.97925e-06 -1.11631e-20
1.7311e-05 -1.16137e-05 6.25823e-21
3.66039e-05 -3.56466e-06 -1.45508e-22
-2.11405e-05 1.12972e-05 1.60892e-20
2.23299e-06 4.49821e-06 -5.11165e-21
2.17751e-05 -4.34486e-06 -1.71652e-20
-1.72788e-05 1.03528e-05 1.15227e-20
-9.8717e-06 5.53899e-06 1.80898e-21
1.18313e-05 3.74266e-06 -1.10746e-20
2.18797e-05 -1.3471e-05 2.11021e-20
-1.73799e-05 9.95603e-06 3.01952e-21
-2.50367e-05 -5.303e-06 -4.5893e-21
-1.67616e-05 -4.36244e-06 1.81596e-21
9.87614e-06 6.23941e-09 2.6712e-21
1.01738e-05 1.95358e-07 -2.47595e-21
4.39074e-06 8.31711e-06 7.52698e-21
4.82952e-06 -8.7977e-06 4.06289e-20
-5.01031e-06 8.41977e-06 9.43434e-22
-5.26663e-06 -8.65754e-06 5.00585e-21
9.91093e-06 -7.40795e-06 2.82429e-21
-2.03273e-05 3.23489e-06 -1.78709e-20
-2.00597e-05 -3.28371e-06 9.65275e-21
-1.28347e-05 1.58763e-05 -2.27998e-20
-1.29145e-05 -1.59307e-05 3.73099e-20
7.48621e-06 -1.98436e-05 6.35645e-21
7.20596e-06 1.97637e-05 9.33807e-21
1.55778e-06 2.58848e-05 7.46119e-21
1.12404e-05 -3.13681e-06 1.30628e-20
2.35988e-06 -3.86649e-06 1.34805e-20
-2.14111e-05 1.42167e-06 -6.5629e-21
7.67711e-06 -1.95129e-05 1.65522e-20
7.27337e-06 1.96614e-05 -2.15744e-20
4.76876e-06 -5.27136e-08 3.15897e-22
8.9681e-06 2.44029e-05 -4.97735e-21
-2.24227e-06 -4.01629e-06 3.48103e-20
2.31773e-06 -1.13169e-05 1.12259e-20
-2.24301e-05 -1.21514e-05 -3.12806e-21
-2.13577e-05 -1.14944e-05 -4.68995e-21
-2.18922e-05 1.36283e-05 2.09188e-22
3.2512e-06 -1.22874e-05 1.02918e-20
-1.5653e-06 3.3819e-06 2.63523e-20
-5.87339e-07 -2.55684e-05 -2.19333e-20
-7.72005e-06 -2.44222e-05 -8.01081e-21
3.27031e-05 3.03617e-05 4.60234e-21
3.54522e-05 -1.81514e-06 -1.91803e-20
-1.27107e-05 -3.63207e-06 1.83942e-20
-2.28919e-05 -4.13846e-05 -1.80725e-20
8.30398e-06 1.37475e-05 2.85578e-22
-2.52349e-05 3.0332e-06 8.18938e-21
2.00645e-05 5.78622e-06 1.73695e-20
-4.53298e-06 -3.27411e-08 -9.70339e-21
-4.66504e-06 -8.41247e-06 1.47402e-20
-7.07266e-06 -3.93314e-05 -5.51131e-22
-9.70802e-06 -8.39132e-08 9.4069e-21
-4.86724e-05 -1.81565e-06 1.45777e-20
1.73081e-05 -1.91046e-05 -2.34328e-20
2.42927e-06 3.99894e-06 -5.59823e-21
-1.20633e-07 -1.7513e-05 2.37335e-20
-9.81806e-06 2.40829e-05 1.12277e-20
-4.37189e-06 8.62708e-06 -1.92661e-20
2.05554e-05 -1.36055e-05 1.13749e-21
-3.76574e-05 -1.35508e-05 1.05139e-21
-1.52651e-05 -2.03649e-05 2.17581e-21
4.97686e-06 8.3887e-06 1.94901e-20
1.66304e-05 5.16034e-06 7.60397e-21
-4.76366e-06 -7.33794e-06 1.03789e-20
1.97955e-05 3.54701e-06 -7.02461e-21
1.81875e-05 -9.82525e-06 7.89146e-22
-3.48802e-07 2.71712e-05 -2.7276e-21
8.31987e-06 -1.36659e-05 3.25934e-21
4.88007e-05 2.20045e-06 -8.86907e-21
-4.23539e-05 1.14525e-05 -9.20074e-21
2.28583e-05 1.15553e-05 5.38116e-21
-6.45243e-06 -1.71779e-05 -4.41588e-21
-1.53486e-05 -8.61743e-06 7.82529e-21
2.8785e-05 -2.10528e-07 4.11971e-21
-6.91919e-07 -2.42528e-05 -9.85798e-21
-1.26163e-05 -1.08731e-05 1.20993e-20
1.02229e-05 -2.34975e-05 -3.51634e-20
-4.96559e-07 2.05535e-05 -1.56422e-22
7.91696e-06 2.60653e-05 -1.04889e-20
1.72663e-05 -9.88334e-06 3.40576e-21
-1.89461e-05 1.92967e-05 -2.18551e-21
1.65262e-05 2.00275e-05 -8.60376e-22
-6.22245e-05 1.60204e-05 -9.64183e-23
-1.01081e-05 2.60136e-05 -5.15019e-21
1.25178e-05 -1.52468e-05 2.40573e-20
-7.0284e-06 -1.8396e-05 1.01193e-20
-1.18524e-05 4.50523e-06 1.15441e-23
-2.58908e-05 -7.04509e-06 4.59282e-22
-6.38548e-06 3.8854e-05 -1.47453e-20
-1.26046e-05 1.19013e-05 8.08478e-21
2.07746e-05 -4.47516e-06 5.0683e-21
-6.87177e-06 -2.57916e-05 1.56918e-20
-1.48673e-05 2.38885e-05 1.57909e-20
-2.17867e-05 1.25635e-05 -1.38179e-20
-2.05674e-05 -1.50539e-05 4.69147e-21
1.80268e-05 -2.0653e-05 1.89599e-21
-2.75279e-05 -1.4561e-06 4.26613e-21
1.23659e-05 -4.08062e-05 -1.48472e-20
1.93843e-05 -1.89112e-05 -6.16211e-21
2.47301e-05 4.30776e-05 4.84336e-21
1.97093e-06 1.98645e-05 1.11422e-20
2.9608e-06 -2.54187e-05 -1.32831e-20
-4.16322e-05 4.69572e-05 -3.95027e-22
-1.27008e-05 -2.44091e-05 -4.34253e-21
1.63652e-05 -6.41989e-06 -2.703e-21
-2.41065e-06 2.57697e-05 1.12538e-20
1.28817e-05 -1.18253e-05 7.18409e-21
1.38792e-05 2.43105e-05 -8.0963e-21
1.72282e-05 -1.40035e-06 -1.28603e-21
2.21179e-05 -6.32102e-05 6.61625e-21
-5.87553e-06 -1.28579e-05 6.26188e-21
-2.3182e-05 1.00861e-05 1.01903e-20
-2.00179e-05 1.87171e-05 -6.51016e-21
2.16101e-05 1.45662e-05 6.45143e-22
1.86708e-05 -1.07556e-05 2.91706e-21
1.49505e-05 1.25922e-05 -4.55779e-21
-5.42759e-06 4.55102e-08 1.8591e-20
1.54021e-05 -2.30849e-05 -1.97327e-20
-1.69886e-05 -2.04071e-05 -1.34517e-20
2.25596e-05 9.77274e-06 2.45412e-21
1.28053e-05 -1.19885e-05 3.67137e-22
9.55298e-06 -2.48493e-05 -6.84393e-21
1.66575e-05 -6.9322e-06 -3.64767e-21
-1.58039e-05 -7.54387e-06 1.16778e-21
1.29672e-06 -2.63003e-05 -1.35634e-21
-2.61041e-05 4.47263e-06 1.06769e-20
2.39016e-06 2.45403e-05 1.30969e-21
2.05829e-05 6.6268e-06 9.6376e-21
-2.17183e-05 -1.07008e-05 1.34753e-20
-8.97631e-06 2.56075e-05 -6.61806e-21
-1.49523e-06 -2.41856e-05 2.71637e-21
1.94645e-05 1.18362e-05 7.8092e-21
-1.76879e-06 1.8083e-05 1.08656e-21
-2.01368e-05 1.37012e-05 -8.97245e-21
2.35086e-05 1.14141e-05 1.09976e-20
-1.71136e-05 -9.98466e-06 1.916e-21
9.50967e-08 -1.98329e-05 5.57582e-21
1.83806e-05 1.99824e-05 1.95896e-20
-2.21517e-05 -1.43023e-05 -2.28586e-21
4.83467e-05 -3.39791e-05 1.5613e-20
1.78954e-05 -1.08215e-05 -9.44047e-22
9.00109e-06 4.30834e-05 5.65038e-21
1.70326e-05 -1.36774e-05 1.87418e-21
-1.98731e-05 8.70283e-05 -7.77616e-21
-1.97633e-05 -8.65426e-05 -1.91179e-20
5.71798e-05 7.17117e-05 -2.15732e-21
5.69173e-05 -7.13855e-05 1.09733e-20
9.06399e-05 -1.58721e-10 -2.43805e-21
-7.8195e-05 3.76354e-05 3.35997e-21
-7.74493e-05 -3.72796e-05 -1.94438e-20
1.22329e-05 1.18178e-05 8.01839e-21
2.93658e-05 2.18908e-05 1.66022e-20
1.14473e-05 3.33258e-06 -1.4889e-20
1.88543e-05 9.7508e-06 5.3648e-21
4.98888e-06 2.01687e-05 -8.8048e-21
-1.88305e-05 -1.49793e-05 -5.96052e-21
1.70368e-05 -1.02135e-05 1.3921e-20
1.98512e-05 1.45483e-05 1.20238e-20
-3.16672e-06 2.43623e-05 1.06777e-21
2.94386e-05 -1.99914e-05 -3.31798e-20
3.79364e-06 -2.37382e-05 -1.10603e-20
2.19593e-05 5.22669e-06 5.4991e-21
2.98938e-05 1.10252e-05 7.108e-21
1.42078e-05 1.41429e-05 -8.86e-21
1.58821e-05 6.59325e-06 2.66512e-21
-1.84975e-05 1.09359e-05 -6.31157e-21
-2.25617e-05 9.03604e-06 5.7856e-21
2.2928e-05 -1.12628e-05 -2.31681e-20
-1.82667e-05 -9.99736e-06 7.07576e-22
-1.85532e-05 -1.05818e-05 -2.19194e-20
-3.4383e-07 -2.07664e-05 2.84794e-21
-8.61401e-08 -2.11594e-05 8.02962e-21
-2.01258e-05 -1.00541e-06 -5.56761e-21
2.66973e-05 -4.01891e-06 -9.06764e-21
1.81109e-05 1.13415e-05 1.60647e-20
-1.78631e-05 1.09444e-05 -8.07781e-21
-1.53605e-05 1.66226e-05 3.71497e-21
1.60211e-05 -1.37524e-05 -6.82695e-21
-1.10228e-05 1.74623e-05 -4.89003e-21
-1.4224e-05 -1.48887e-05 -1.75083e-20
-1.15518e-06 2.12094e-05 -1.01284e-20
-1.2876e-06 2.0967e-05 -5.3669e-21
8.97196e-08 -1.98328e-05 9.90197e-21
6.11047e-06 -1.97362e-05 5.11076e-21
-1.71399e-05 -9.93491e-06 -8.42252e-21
1.55859e-05 -5.48997e-06 -1.56524e-21
6.63128e-07 2.14766e-05 2.25344e-21
3.00828e-07 1.85065e-05 1.18465e-20
-2.34562e-06 1.68564e-05 1.45074e-20
2.19076e-05 -5.52711e-06 3.58735e-21
-1.65404e-05 5.37778e-06 1.87084e-21
4.15724e-06 2.15163e-05 1.18074e-20
-3.25566e-05 1.29186e-05 -1.11428e-20
9.76283e-06 4.17293e-05 1.18719e-20
-1.70526e-05 4.5679e-06 -6.32157e-21
1.96834e-05 -1.16295e-05 -7.5457e-22
9.45725e-07 2.10184e-05 1.79704e-20
-2.04802e-05 6.69909e-06 2.12912e-20
2.44398e-06 -1.62616e-05 1.18644e-20
1.81908e-06 -5.80097e-05 -1.43276e-21
2.00637e-06 1.74854e-05 1.4296e-20
-1.69612e-05 1.40219e-05 -4.37769e-21
1.78533e-05 6.39687e-05 2.03666e-21
4.57671e-05 3.7705e-05 -6.70205e-21
5.20625e-05 -3.5254e-05 -1.61196e-20
1.48148e-05 -1.01667e-05 1.16521e-20
-1.57848e-05 1.4037e-05 -6.4755e-22
-2.0216e-05 -7.92034e-06 -1.16955e-20
-1.96448e-05 -6.82211e-06 4.70196e-22
5.92644e-05 -2.46109e-05 1.74647e-20
5.74311e-05 2.38699e-05 -2.44099e-20
1.08941e-05 3.81731e-06 -1.58743e-20
7.66603e-07 1.95785e-05 7.64855e-21
7.83572e-08 1.95598e-05 2.15204e-20
-4.83809e-05 -3.69172e-05 -4.8376e-21
1.14247e-05 -1.71712e-05 -1.77239e-20
1.17328e-05 1.24641e-05 -9.8044e-22
-2.14173e-05 -3.39561e-06 4.37405e-21
-1.40444e-05 1.72014e-05 6.4938e-21
-1.88878e-05 9.16739e-06 5.9775e-21
4.76414e-05 3.3693e-05 1.15309e-20
1.58058e-05 7.06139e-06 -2.56177e-22
-5.56654e-06 2.00296e-05 8.24731e-21
-1.69774e-05 -1.17488e-05 6.89032e-21
1.85618e-06 -2.05421e-05 2.40182e-20
-8.9494e-06 -1.92666e-05 1.7714e-21
-1.72485e-05 -1.17731e-05 2.50384e-21
1.05792e-05 -1.89351e-05 9.8092e-21
1.41219e-05 -1.69887e-05 -7.26926e-21
-2.44028e-06 -6.14352e-05 -1.66798e-20
2.61793e-05 -4.11242e-05 5.25809e-21
1.74743e-06 -2.07849e-05 1.29457e-20
1.79581e-05 1.1355e-05 1.41014e-20
-1.44759e-05 -1.49048e-05 -1.11043e-20
-9.84075e-06 1.97095e-05 8.95125e-21
-5.03925e-06 2.1006e-05 -1.56794e-21
1.66267e-05 1.42433e-05 3.3624e-21
6.05881e-06 -1.98608e-05 6.18274e-21
-1.3406e-05 -4.03566e-05 -9.84224e-21
-1.98832e-06 2.50397e-05 -1.39458e-21
1.47914e-05 1.44547e-05 1.38222e-20
-1.29579e-05 -1.02164e-05 4.88398e-21
-1.35146e-05 1.06079e-05 2.07176e-20
4.43415e-05 -1.89126e-05 -8.78782e-21
7.56282e-06 -1.33998e-05 -4.32129e-21
-8.31692e-06 -1.26266e-05 -3.1529e-21
2.13299e-05 6.36328e-06 -5.45301e-21
1.0994e-05 -5.06605e-05 -2.47016e-21
-3.84503e-05 -3.49019e-05 1.88323e-20
2.33061e-05 6.20721e-06 -4.10303e-21
-9.32797e-06 -1.82806e-05 -1.61756e-20
1.87051e-05 9.48252e-06 2.9516e-21
-2.85636e-05 -3.25503e-05 -2.17915e-21
9.68791e-06 5.00454e-05 -9.44723e-21
3.43332e-05 -5.9858e-05 -7.04855e-21
-3.47362e-05 -5.97749e-05 4.80335e-21
2.78076e-05 -5.20207e-05 2.09914e-20
-1.26978e-05 4.3632e-05 1.18683e-20
-6.2759e-06 3.89763e-05 -5.85261e-21
-1.87302e-05 8.94563e-06 4.07162e-22
5.97704e-06 2.42415e-05 2.1094e-21
-2.39151e-06 1.26537e-05 1.51507e-20
1.01199e-05 3.23305e-06 1.22845e-20
-3.18838e-06 1.62051e-05 -1.76534e-21
-2.47446e-07 2.09911e-05 1.80316e-20
1.66601e-05 9.7503e-06 -1.67447e-20
1.71019e-06 5.77226e-05 2.89431e-21
-1.47168e-05 1.07323e-05 -1.16636e-20
1.5949e-05 -6.24643e-06 3.1808e-20
1.68714e-05 -4.50884e-06 1.94997e-21
-6.06609e-05 -8.7686e-06 -1.14799e-20
-3.46047e-05 1.6741e-05 7.69418e-22
-4.35134e-05 -5.25447e-05 2.80791e-21
8.65627e-06 8.34545e-06 -1.68817e-20
1.42095e-05 7.29233e-06 -7.65036e-21
2.6804e-05 -4.19574e-06 -1.54123e-20
-8.10414e-06 -1.32424e-05 -1.08986e-21
1.72161e-05 8.42837e-06 4.66326e-21
7.33511e-06 -3.00337e-05 1.82478e-21
-1.37133e-05 1.02047e-05 5.62979e-21
-2.23737e-05 -2.14217e-05 -1.05901e-20
-5.8358e-06 1.62972e-05 1.35245e-20
-3.2709e-06 2.06779e-05 7.44662e-21
3.38488e-05 2.12958e-05 1.30346e-20
3.61121e-05 -1.92823e-05 -2.66654e-20
-4.20691e-05 -1.16226e-05 -3.81472e-21
7.63395e-06 7.68551e-06 6.0651e-21
-4.05841e-06 0.000101358 7.60337e-21
8.61742e-07 -0.000104464 1.74228e-21
5.24527e-05 8.76421e-05 1.3355e-20
-1.91023e-05 8.45763e-06 4.79061e-21
-2.63757e-05 5.65477e-05 -2.00665e-21
5.30309e-05 -8.46369e-05 7.12406e-21
-1.17201e-05 -1.82818e-05 -2.37362e-20
7.79975e-05 6.74955e-05 1.51688e-20
2.39928e-05 -1.79762e-05 1.16991e-20
-3.60732e-06 -2.98212e-05 1.7617e-21
8.1776e-05 -6.58481e-05 1.1272e-20
-6.74441e-06 1.45178e-05 8.44043e-21
-5.38303e-05 -3.48227e-05 -1.27866e-20
-4.30118e-05 -9.31267e-05 -1.08809e-20
-2.41117e-05 -5.78023e-05 1.20299e-20
-4.39734e-05 9.41337e-05 5.56608e-22
-1.00929e-05 6.40817e-05 -5.39331e-22
1.56322e-05 3.7107e-05 -9.4721e-21
-2.79544e-05 3.72392e-05 1.46516e-20
-2.52721e-05 -5.51814e-05 -7.5494e-21
0.000100362 1.73163e-05 -1.34623e-20
-1.69269e-05 1.07667e-05 -1.0658e-20
-5.91214e-06 1.63325e-05 -3.53219e-21
-5.07563e-05 3.76384e-05 6.24519e-21
-1.72757e-05 9.94378e-06 -8.42584e-21
9.91993e-05 -1.52628e-05 7.47937e-21
-1.53597e-05 7.79843e-06 2.62996e-21
7.19237e-06 -1.44944e-05 -1.13544e-20
-7.79667e-05 -6.09461e-05 -3.09152e-20
-2.5878e-05 5.77152e-05 3.59916e-21
-7.91196e-05 6.03733e-05 1.41945e-20
2.45394e-05 5.19485e-05 2.86855e-21
-1.4767e-05 1.05821e-05 6.02965e-21
-2.05291e-05 2.44757e-05 4.45954e-21
-2.85317e-05 4.98161e-05 -6.91701e-21
-5.6774e-05 2.07984e-07 -1.37728e-21
-9.44074e-07 1.62955e-05 5.85744e-21
-2.88486e-05 -5.04047e-05 -1.11228e-20
-5.81963e-05 -2.19799e-07 6.12847e-21
-2.83485e-05 4.86945e-05 2.02729e-20
-1.51898e-05 6.62638e-05 -1.91124e-20
-1.78642e-05 4.12591e-05 1.4015e-20
-3.38991e-05 2.71364e-05 1.16057e-20
2.4382e-05 -6.05673e-06 -1.8674e-20
3.80014e-05 -2.19523e-06 -3.15937e-20
1.34819e-05 8.20002e-06 2.32556e-21
-1.04688e-05 -7.3985e-05 1.50834e-20
-6.94465e-05 -2.79732e-05 5.48002e-21
3.71309e-05 7.32709e-07 2.25139e-20
5.8364e-05 -1.08918e-05 -8.06111e-22
-1.05833e-05 -1.34966e-05 -3.14978e-22
-5.0827e-05 3.76241e-05 1.61217e-20
-4.6132e-05 5.39981e-05 1.93949e-20
6.23604e-05 -2.22316e-05 4.71603e-21
-2.81764e-05 -5.04953e-05 2.17672e-20
-2.87761e-05 4.97778e-05 -2.17584e-20
-5.72524e-05 -1.17112e-06 -5.53338e-21
-2.65724e-05 5.0596e-05 8.21333e-21
-5.79511e-05 -8.16983e-07 -6.09119e-21
6.60738e-05 1.73918e-05 -3.41045e-20
5.63782e-05 1.29246e-06 -2.80042e-20
5.08983e-05 -2.92728e-05 -1.32716e-20
2.49093e-05 -5.94251e-05 -8.5402e-22
2.99175e-05 -4.88551e-05 5.1835e-21
2.91664e-05 4.8679e-05 3.8796e-21
2.43442e-05 5.80873e-05 -1.35602e-20
7.57997e-05 -2.00368e-05 8.67144e-21
4.62647e-05 2.90622e-05 -3.62736e-21
4.66226e-05 1.3745e-05 3.23052e-20
TENSORS solid_stress_TPM float
375.032 -24.9204 1.29319e-12
-24.9204 238.57 -2.69533e-12
1.29319e-12 -2.69533e-12 197.818

457.004 -21.3203 -4.09302e-12
-21.3203 489.988 -4.26059e-12
-4.09302e-12 -4.26059e-12 487.111

454.879 28.0433 -6.88457e-12
28.0433 463.709 5.08038e-13
-6.88457e-12 5.08038e-13 458.459

455.029 -29.8427 -7.04029e-13
-29.8427 482.61 -3.71273e-12
-7.04029e-13 -3.71273e-12 484.857

527.687 19.9309 -2.13962e-12
19.9309 548.456 2.45589e-12
-2.13962e-12 2.45589e-12 527.357

437.311 -18.0744 -9.6471e-13
-18.0744 480.339 8.43177e-13
-9.6471e-13 8.43177e-13 458.04

372.327 26.4845 -8.52651e-13
26.4845 239.09 -6.28712e-12
-8.52651e-13 -6.28712e-12 197.802

473.652 29.9579 5.93895e-13
29.9579 469.501 1.88146e-12
5.93895e-13 1.88146e-12 472.337

471.548 5.48314 -3.80851e-12
5.48314 417.822 -5.31057e-14
-3.80851e-12 -5.31057e-14 432.795

504.259 -7.47757 2.05199e-12
-7.47757 444.112 -1.35529e-12
2.05199e-12 -1.35529e-12 483.452

360.293 16.3086 2.6669e-12
16.3086 247.656 -2.3442e-12
2.6669e-12 -2.3442e-12 233.645

444.782 -13.4532 4.00124e-13
-13.4532 498.385 -1.29733e-12
4.00124e-13 -1.29733e-12 472.239

466.867 27.8332 6.75016e-13
27.8332 468.302 -8.98837e-13
6.75016e-13 -8.98837e-13 466.734

457.037 -14.3401 1.642e-12
-14.3401 500.434 -3.11336e-12
1.642e-12 -3.11336e-12 483.457

512.937 33.3112 2.93395e-12
33.3112 511.597 5.54607e-13
2.93395e-12 5.54607e-13 515.226

489.172 0.560977 -3.84048e-12
0.560977 435.523 1.71968e-12
-3.84048e-12 1.71968e-12 462.272

457.583 -17.9691 2.94723e-12
-17.9691 512.886 5.71868e-12
2.94723e-12 5.71868e-12 493.597

493.957 -2.6652 -1.22657e-12
-2.6652 439.048 1.80915e-12
-1.22657e-12 1.80915e-12 474.264

418.792 26.6738 -5.0034e-14
26.6738 449.659 1.68043e-12
-5.0034e-14 1.68043e-12 424.052

481.981 -4.19558 -2.03097e-13
-4.19558 424.921 4.39226e-12
-2.03097e-13 4.39226e-12 453.474

425.296 8.66862 -1.01992e-12
8.66862 481.902 -1.83794e-12
-1.01992e-12 -1.83794e-12 444.841

634.129 6.28758 3.6594e-12
6.28758 633.964 3.18826e-12
3.6594e-12 3.18826e-12 570.317

479.152 1.87598 1.56793e-12
1.87598 422.94 4.80134e-13
1.56793e-12 4.80134e-13 449.731

447.162 -27.7152 -1.59043e-12
-27.7152 461.149 -7.18892e-12
-1.59043e-12 -7.18892e-12 452.947

481.048 6.84939 -4.45096e-12
6.84939 425.44 -2.88954e-13
-4.45096e-12 -2.88954e-13 452.937

449.758 19.1129 3.98866e-13
19.1129 490.317 5.4919e-13
3.98866e-13 5.4919e-13 478.206

377.654 4.18138 3.5385e-12
4.18138 291.654 -5.70803e-12
3.5385e-12 -5.70803e-12 259.002

462.684 30.7459 -2.28321e-12
30.7459 460.714 4.85804e-12
-2.28321e-12 4.85804e-12 460.545

384.94 37.0744 2.61361e-12
37.0744 383.519 -8.71599e-13
2.61361e-12 -8.71599e-13 348.418

586.942 10.3235 9.63082e-13
10.3235 563.451 2.81704e-12
9.63082e-13 2.81704e-12 546.873

491.687 14.2169 -3.38988e-12
14.2169 442.497 -1.80211e-12
-3.38988e-12 -1.80211e-12 465.855

352.855 -17.7804 -1.66326e-12
-17.7804 416.722 -5.39302e-12
-1.66326e-12 -5.39302e-12 348.589

331.017 -42.1017 8.64494e-13
-42.1017 335.872 2.6598e-12
8.64494e-13 2.6598e-12 253.482

531.41 5.98668 -4.58762e-12
5.98668 586.889 5.37052e-13
-4.58762e-12 5.37052e-13 538.582

554.023 -4.84057 2.5467e-12
-4.84057 582.071 -4.66501e-12
2.5467e-12 -4.66501e-12 542.512

577.987 21.0278 -2.78533e-12
21.0278 539.947 1.87791e-12
-2.78533e-12 1.87791e-12 538.35

556.185 5.06738 1.99381e-12
5.06738 600.674 -2.18373e-12
1.99381e-12 -2.18373e-12 547.969

573.774 -9.17 6.7694e-12
-9.17 555.765 -1.18012e-12
6.7694e-12 -1.18012e-12 540.638

467.127 -27.9981 1.34352e-12
-27.9981 466.491 -2.63078e-12
1.34352e-12 -2.63078e-12 465.107

330.401 41.5209 -1.87583e-12
41.5209 337.97 4.75827e-12
-1.87583e-12 4.75827e-12 253.841

414.524 -17.9491 -4.52971e-12
-17.9491 354.486 2.57157e-12
-4.52971e-12 2.57157e-12 346.319

559.306 -3.70596 2.81227e-12
-3.70596 599.924 -3.53761e-12
2.81227e-12 -3.53761e-12 548.383

586.413 19.5554 -3.62451e-13
19.5554 572.455 2.69799e-12
-3.62451e-13 2.69799e-12 548.172

490.892 -12.2733 9.51535e-13
-12.2733 442.852 -2.95763e-12
9.51535e-13 -2.95763e-12 466.528

341.707 -43.299 3.24955e-12
-43.299 345.335 -1.18424e-14
3.24955e-12 -1.18424e-14 288.975

417.55 -18.0634 -7.89887e-13
-18.0634 357.104 3.53021e-12
-7.89887e-13 3.53021e-12 351.493

413.004 17.0857 1.89093e-12
17.0857 464.773 -5.06439e-12
1.89093e-12 -5.06439e-12 428.718

429.62 19.339 -2.06353e-12
19.339 466.503 2.36255e-12
-2.06353e-12 2.36255e-12 437.071

486.771 -16.301 -1.30621e-12
-16.301 432.866 -4.24253e-12
-1.30621e-12 -4.24253e-12 458.668

355.572 -34.1853 6.79753e-13
-34.1853 389.393 5.09222e-13
6.79753e-13 5.09222e-13 332.56

410.243 19.1818 -3.13231e-12
19.1818 350.693 3.53377e-12
-3.13231e-12 3.53377e-12 339.469

425.191 -25.2883 -1.62241e-13
-25.2883 383.812 1.30266e-13
-1.62241e-13 1.30266e-13 373.068

519.914 19.4856 -1.34204e-12
19.4856 547.524 9.21041e-13
-1.34204e-12 9.21041e-13 525.724

416.403 29.6492 -2.6219e-12
29.6492 393.877 8.63309e-13
-2.6219e-12 8.63309e-13 373.932

522.168 -21.8128 -5.63608e-12
-21.8128 541.39 -1.11471e-12
-5.63608e-12 -1.11471e-12 524.37

364.063 -42.7111 -5.68434e-14
-42.7111 343.274 -3.1252e-12
-5.68434e-14 -3.1252e-12 289.692

553.445 5.45957 -8.84626e-13
5.45957 583.864 -2.52835e-13
-8.84626e-13 -2.52835e-13 542.886

373.708 -5.32977 -4.2449e-12
-5.32977 436.653 1.23516e-12
-4.2449e-12 1.23516e-12 373.816

580.812 10.3843 -7.11431e-13
10.3843 556.164 -2.1713e-12
-7.11431e-13 -2.1713e-12 542.643

435.048 21.413 -1.09098e-12
21.413 473.753 3.59416e-12
-1.09098e-12 3.59416e-12 454.664

513.565 5.75393 -6.12843e-13
5.75393 452.799 8.36368e-14
-6.12843e-13 8.36368e-14 494.858

522.452 11.4589 7.70051e-13
11.4589 487.855 4.14069e-12
7.70051e-13 4.14069e-12 507.072

383.698 31.8197 5.80277e-13
31.8197 315.188 1.83557e-12
5.80277e-13 1.83557e-12 269.865

482.081 -6.0352 -2.80339e-12
-6.0352 528.174 -1.6153e-12
-2.80339e-12 -1.6153e-12 504.094

487.09 9.51975 -2.92374e-12
9.51975 523.684 -8.02321e-14
-2.92374e-12 -8.02321e-14 507.49

456.452 -2.88083 7.77156e-13
-2.88083 520.151 -1.01193e-12
7.77156e-13 -1.01193e-12 487.801

464.449 23.402 2.2186e-12
23.402 503.464 -2.26545e-12
2.2186e-12 -2.26545e-12 495.435

496.741 8.46353 -8.0765e-13
8.46353 444.392 3.11159e-13
-8.0765e-13 3.11159e-13 477.692

445.501 -28.2393 7.2653e-13
-28.2393 459.522 3.34962e-12
7.2653e-13 3.34962e-12 451.161

501.675 -1.71125 2.16375e-12
-1.71125 444.91 -5.94783e-13
2.16375e-12 -5.94783e-13 489.063

519.527 -19.2616 -2.40622e-12
-19.2616 546.817 3.41445e-12
-2.40622e-12 3.41445e-12 525.457

523.297 21.3078 -2.09847e-12
21.3078 542.914 -1.1723e-12
-2.09847e-12 -1.1723e-12 525.26

353.405 -16.5834 -4.52882e-12
-16.5834 415.73 2.32584e-12
-4.52882e-12 2.32584e-12 346.108

506.015 -27.9361 -1.66267e-12
-27.9361 485.304 2.33176e-12
-1.66267e-12 2.33176e-12 493.874

449.715 -25.1346 -2.13163e-13
-25.1346 471.214 6.33567e-14
-2.13163e-13 6.33567e-14 458.572

357.866 -31.7105 -8.62125e-13
-31.7105 285.673 2.64263e-12
-8.62125e-13 2.64263e-12 249.855

498.494 3.22264 1.05257e-12
3.22264 541.4 -9.40877e-13
1.05257e-12 -9.40877e-13 513.637

501.721 28.9439 2.22637e-12
28.9439 474.544 3.58232e-13
2.22637e-12 3.58232e-13 487.652

448.439 19.6642 1.91817e-12
19.6642 492.102 -5.57095e-12
1.91817e-12 -5.57095e-12 477.638

440.187 7.9995 -1.88886e-12
7.9995 373.033 -5.15173e-12
-1.88886e-12 -5.15173e-12 382.93

386.446 -33.9354 1.05871e-12
-33.9354 360.202 -2.49756e-12
1.05871e-12 -2.49756e-12 319.432

537.716 -10.5875 6.93342e-12
-10.5875 556.134 3.5687e-12
6.93342e-12 3.5687e-12 531.244

482.652 23.8995 7.32747e-13
23.8995 504.555 -1.25067e-13
7.32747e-13 -1.25067e-13 502.038

385.367 -32.3837 -5.29946e-12
-32.3837 345.302 -2.08544e-12
-5.29946e-12 -2.08544e-12 317.077

422.193 10.791 1.14871e-12
10.791 363.846 -3.5499e-12
1.14871e-12 -3.5499e-12 350.249

307.648 -21.2059 6.47867e-12
-21.2059 388.438 -4.21352e-12
6.47867e-12 -4.21352e-12 288.112

434.44 14.4256 -1.27801e-12
14.4256 488.664 3.42245e-13
-1.27801e-12 3.42245e-13 460.879

509.716 23.143 5.51263e-13
23.143 475.167 -2.35663e-13
5.51263e-13 -2.35663e-13 489.942

338.237 42.1985 -1.9007e-12
42.1985 349.568 -4.41602e-12
-1.9007e-12 -4.41602e-12 288.948

634.214 16.507 1.88173e-11
16.507 603.067 1.34885e-12
1.88173e-11 1.34885e-12 565.322

372.885 -4.10834 -2.63907e-12
-4.10834 436.813 -3.09086e-13
-2.63907e-12 -3.09086e-13 373.423

637.12 -16.6321 4.59025e-12
-16.6321 599.537 6.55846e-12
4.59025e-12 6.55846e-12 564.829

533.935 -27.3349 -2.06353e-12
-27.3349 507.235 -1.84045e-12
-2.06353e-12 -1.84045e-12 515.71

505.292 27.4245 5.72579e-13
27.4245 466.33 -5.18252e-12
5.72579e-13 -5.18252e-12 485.068

426.922 -24.4105 2.17308e-12
-24.4105 386.235 1.80596e-14
2.17308e-12 1.80596e-14 375.974

358.933 31.3231 4.32365e-12
31.3231 396 -1.83912e-12
4.32365e-12 -1.83912e-12 339.197

339.821 -10.7051 -2.60236e-12
-10.7051 408.388 -7.55307e-12
-2.60236e-12 -7.55307e-12 319.102

453.1 21.9707 -8.06318e-13
21.9707 494.675 -5.88714e-12
-8.06318e-13 -5.88714e-12 483.164

533.11 16.7941 3.15895e-13
16.7941 506.195 -6.80463e-12
3.15895e-13 -6.80463e-12 513.349

443.449 15.1539 6.87154e-13
15.1539 488.436 -2.35663e-13
6.87154e-13 -2.35663e-13 464.279

451.477 15.9538 5.7554e-13
15.9538 400.533 7.55988e-13
5.7554e-13 7.55988e-13 403.743

374.485 -21.4724 -3.62673e-12
-21.4724 419.863 2.17781e-12
-3.62673e-12 2.17781e-12 357.194

389.719 -29.3905 2.6148e-12
-29.3905 342.367 4.41484e-12
2.6148e-12 4.41484e-12 314.388

454.962 -24.573 3.27309e-12
-24.573 480.062 -1.56763e-12
3.27309e-12 -1.56763e-12 478.367

466.423 27.4509 -7.84558e-14
27.4509 478.74 -3.13468e-12
-7.84558e-14 -3.13468e-12 479.806

452.214 23.1876 2.27314e-12
23.1876 492.556 1.16795e-12
2.27314e-12 1.16795e-12 482.04

466.293 13.1691 7.11958e-13
13.1691 529.774 -6.10475e-13
7.11958e-13 -6.10475e-13 501.381

490.859 9.37225 2.5094e-12
9.37225 437.886 4.85093e-13
2.5094e-12 4.85093e-13 462.053

327.709 -4.66504 5.12864e-12
-4.66504 403.378 -5.7554e-13
5.12864e-12 -5.7554e-13 314.409

462.576 -36.8332 -1.84978e-12
-36.8332 487.687 -4.09946e-12
-1.84978e-12 -4.09946e-12 492.746

445.847 27.4652 9.10383e-13
27.4652 463.267 -1.38082e-12
9.10383e-13 -1.38082e-12 455.012

305.669 2.17032 -2.60643e-12
2.17032 393.358 -6.60568e-12
-2.60643e-12 -6.60568e-12 297.253

385.994 34.6102 8.97652e-13
34.6102 332.446 4.06608e-12
8.97652e-13 4.06608e-12 306.243

453.348 -22.9738 1.44018e-12
-22.9738 480.067 2.6823e-12
1.44018e-12 2.6823e-12 476.17

501.392 5.73296 1.12384e-12
5.73296 441.313 -9.71889e-13
1.12384e-12 -9.71889e-13 481.007

422.378 27.2039 -9.26074e-13
27.2039 389.764 -2.50052e-12
-9.26074e-13 -2.50052e-12 374.232

570.54 12.7454 -2.44649e-12
12.7454 565.916 7.0551e-13
-2.44649e-12 7.0551e-13 542.915

396.175 24.3304 2.39216e-13
24.3304 349.646 3.51659e-12
2.39216e-13 3.51659e-12 319.042

569.162 -13.055 -1.02185e-12
-13.055 565.827 -5.04811e-12
-1.02185e-12 -5.04811e-12 542.37

375.089 0.778534 3.13127e-12
0.778534 438.866 1.58096e-12
3.13127e-12 1.58096e-12 374.638

461.468 -2.23531 -6.10001e-12
-2.23531 399.301 -1.77343e-12
-6.10001e-12 -1.77343e-12 417.279

538.194 -15.7679 -2.52243e-13
-15.7679 480.629 2.18788e-12
-2.52243e-13 2.18788e-12 513.476

457.242 24.3881 4.99145e-13
24.3881 487.782 4.91163e-13
4.99145e-13 4.91163e-13 488.352

461.254 -13.535 -4.76949e-13
-13.535 519.133 4.13299e-13
-4.76949e-13 4.13299e-13 495.712

514.967 -7.99996 -1.04701e-12
-7.99996 438.189 1.79945e-12
-1.04701e-12 1.79945e-12 494.275

488.313 -22.284 -4.7781e-12
-22.284 541.601 -1.36335e-12
-4.7781e-12 -1.36335e-12 515.748

556.05 -6.59661 -1.16292e-12
-6.59661 560.393 -1.50691e-12
-1.16292e-12 -1.50691e-12 538.727

463.864 -29.9081 1.34529e-12
-29.9081 483.194 -6.11363e-13
1.34529e-12 -6.11363e-13 483.598

341.705 11.4536 -1.32842e-12
11.4536 406.191 -1.89952e-12
-1.32842e-12 -1.89952e-12 319.481

422.479 -28.1463 2.03689e-13
-28.1463 391.24 -1.63425e-13
2.03689e-13 -1.63425e-13 375.145

507.38 -13.7721 6.77192e-12
-13.7721 558.747 2.26959e-12
6.77192e-12 2.26959e-12 525.25

501.054 0.504458 1.92231e-12
0.504458 441.278 -2.72982e-12
1.92231e-12 -2.72982e-12 487.084

476.94 -21.5245 1.05782e-12
-21.5245 507.42 2.5846e-13
1.05782e-12 2.5846e-13 501.503

459.095 25.6977 -1.76881e-12
25.6977 484.599 1.00808e-13
-1.76881e-12 1.00808e-13 487.979

394.428 -31.4642 -4.50958e-12
-31.4642 400.597 1.66859e-12
-4.50958e-12 1.66859e-12 357.519

552.125 -7.08491 6.92809e-12
-7.08491 585.294 1.32635e-12
6.92809e-12 1.32635e-12 542.602

347.208 -33.0766 2.56032e-12
-33.0766 382.605 -5.47592e-12
2.56032e-12 -5.47592e-12 303.433

490.868 -19.1796 -2.60236e-12
-19.1796 448.385 1.61648e-12
-2.60236e-12 1.61648e-12 467.122

519.706 1.97033 5.64733e-14
1.97033 466.812 -2.96148e-12
5.64733e-14 -2.96148e-12 502.83

570.558 17.875 1.31776e-12
17.875 566.479 -7.87518e-14
1.31776e-12 -7.87518e-14 542.374

375.288 20.1827 2.93454e-12
20.1827 424.029 1.64609e-12
2.93454e-12 1.64609e-12 360.219

489.079 27.2105 1.0368e-12
27.2105 468.537 2.21216e-12
1.0368e-12 2.21216e-12 476.637

454.376 -24.5114 1.53951e-12
-24.5114 415.34 -7.08707e-12
1.53951e-12 -7.08707e-12 418.6

454.716 -17.8385 -9.51887e-13
-17.8385 494.904 -1.86517e-14
-9.51887e-13 -1.86517e-14 482.639

379.196 35.0679 2.27018e-12
35.0679 366.028 -4.46102e-12
2.27018e-12 -4.46102e-12 317.046

449.15 -21.831 -2.55588e-12
-21.831 491.702 -2.17544e-12
-2.55588e-12 -2.17544e-12 479.771

485.488 30.8504 1.96228e-12
30.8504 465.133 2.79273e-12
1.96228e-12 2.79273e-12 473.443

480.319 -25.2439 -4.63451e-12
-25.2439 442.364 6.24093e-13
-4.63451e-12 6.24093e-13 455.44

448.215 -25.1263 3.76588e-12
-25.1263 469.764 2.35249e-12
3.76588e-12 2.35249e-12 458.093

445.342 -18.688 -3.97904e-12
-18.688 393.458 -9.17192e-13
-3.97904e-12 -9.17192e-13 397.254

470.65 -18.8495 -1.04213e-12
-18.8495 422.85 -6.28623e-12
-1.04213e-12 -6.28623e-12 437.528

458.995 -25.337 1.07766e-13
-25.337 485.425 3.57225e-12
1.07766e-13 3.57225e-12 488.822

386.538 35.9691 -9.59233e-14
35.9691 381.984 -4.32602e-12
-9.59233e-14 -4.32602e-12 348.113

444.492 15.3767 -1.31214e-12
15.3767 491.528 1.43056e-12
-1.31214e-12 1.43056e-12 467.136

469.392 26.4221 -1.35684e-12
26.4221 479.954 -4.1774e-13
-1.35684e-12 -4.1774e-13 482.542

456.138 25.4736 1.64725e-12
25.4736 486.642 9.31107e-14
1.64725e-12 9.31107e-14 487.242

457.803 11.6215 -1.28464e-13
11.6215 506.935 -1.00542e-12
-1.28464e-13 -1.00542e-12 486.011

431.946 -8.22692 -4.67063e-12
-8.22692 370.751 -1.67007e-12
-4.67063e-12 -1.67007e-12 363.303

376.775 18.6062 -3.40232e-12
18.6062 427.261 3.55153e-12
-3.40232e-12 3.55153e-12 363.879

452.308 -24.3804 -1.578e-12
-24.3804 478.381 1.11082e-12
-1.578e-12 1.11082e-12 470.707

440.742 25.6657 5.6873e-12
25.6657 455.635 5.51855e-13
5.6873e-12 5.51855e-13 437.801

390.951 -35.629 -2.06886e-12
-35.629 380.272 1.82787e-12
-2.06886e-12 1.82787e-12 350.086

368.936 38.3162 2.76046e-12
38.3162 327.248 2.5923e-12
2.76046e-12 2.5923e-12 295.678

363.642 -33.3107 1.80952e-12
-33.3107 394.43 5.40131e-12
1.80952e-12 5.40131e-12 341.974

397.925 -31.1592 -1.59991e-12
-31.1592 404.187 3.32297e-12
-1.59991e-12 3.32297e-12 362.968

502.851 -6.83865 1.37342e-12
-6.83865 442.245 2.86378e-12
1.37342e-12 2.86378e-12 482.312

393.159 30.3414 6.5737e-12
30.3414 408.973 -8.45546e-13
6.5737e-12 -8.45546e-13 363.428

429.695 13.2945 7.67386e-13
13.2945 372.242 3.58854e-12
7.67386e-13 3.58854e-12 362.708

350.138 13.3787 4.90141e-12
13.3787 418.508 5.20473e-12
4.90141e-12 5.20473e-12 348.469

379.473 -22.3401 -7.07582e-13
-22.3401 423.507 -2.8398e-12
-7.07582e-13 -2.8398e-12 363.442

491.202 -1.09158 1.98915e-12
-1.09158 550.872 -1.82136e-12
1.98915e-12 -1.82136e-12 516.301

372.858 2.24658 3.49587e-12
2.24658 437.781 1.69109e-12
3.49587e-12 1.69109e-12 373.514

357.884 31.0889 -2.59526e-12
31.0889 399.48 2.25005e-14
-2.59526e-12 2.25005e-14 341.955

457.985 12.1078 1.81381e-12
12.1078 510.555 -1.38378e-12
1.81381e-12 -1.38378e-12 488.398

421.446 -27.6473 3.38218e-12
-27.6473 389.066 -6.24685e-13
3.38218e-12 -6.24685e-13 375.066

524.751 20.5569 5.4771e-13
20.5569 469.744 6.88634e-13
5.4771e-13 6.88634e-13 500.729

534.92 26.2704 -2.82855e-12
26.2704 506.855 -2.07079e-12
-2.82855e-12 -2.07079e-12 516.089

494.811 -18.5675 -1.45069e-12
-18.5675 449.02 2.91619e-13
-1.45069e-12 2.91619e-13 470.85

554.58 -1.80128 -1.06567e-12
-1.80128 516.018 2.00284e-12
-1.06567e-12 2.00284e-12 525.712

473.282 -31.8117 -3.82154e-12
-31.8117 475.691 5.0342e-12
-3.82154e-12 5.0342e-12 478.572

412.592 23.3275 6.12251e-13
23.3275 357.191 1.9155e-12
6.12251e-13 1.9155e-12 348.086

464.171 30.1621 -1.81159e-12
30.1621 482.763 3.63561e-13
-1.81159e-12 3.63561e-13 483.199

464.434 29.2058 2.64677e-13
29.2058 482.236 -1.84504e-12
2.64677e-13 -1.84504e-12 482.76

393.94 30.6605 2.46795e-12
30.6605 405.718 7.87518e-13
2.46795e-12 7.87518e-13 360.863

502.849 27.085 2.02623e-12
27.085 482.66 2.7122e-12
2.02623e-12 2.7122e-12 490.729

415.345 3.52511 -3.5764e-12
3.52511 339.012 -3.61289e-12
-3.5764e-12 -3.61289e-12 340.819

493.117 31.8172 2.17041e-12
31.8172 487.218 -1.19223e-12
2.17041e-12 -1.19223e-12 495.569

476.321 -12.5997 2.49526e-12
-12.5997 522.446 3.03994e-12
2.49526e-12 3.03994e-12 500.243

536.921 24.2782 -6.60509e-13
24.2782 507.397 1.92527e-12
-6.60509e-13 1.92527e-12 516.625

468.172 -29.5787 3.1631e-12
-29.5787 479.965 -9.45614e-13
3.1631e-12 -9.45614e-13 483.056

464.556 -4.89803 6.99829e-13
-4.89803 521.551 -1.21976e-13
6.99829e-13 -1.21976e-13 490.974

400.934 -24.5561 -3.83693e-13
-24.5561 349.018 6.97871e-12
-3.83693e-13 6.97871e-12 323.945

418.961 29.6928 4.33431e-13
29.6928 392.459 1.85925e-12
4.33431e-13 1.85925e-12 373.764

352.339 14.6964 -9.9772e-13
14.6964 417.206 1.57267e-12
-9.9772e-13 1.57267e-12 348.235

500.524 -1.1389 4.0495e-12
-1.1389 442.79 2.47891e-12
4.0495e-12 2.47891e-12 487.704

492.466 0.00222609 4.36747e-12
0.00222609 438.098 1.23019e-12
4.36747e-12 1.23019e-12 474.414

452.961 23.1239 -4.74879e-12
23.1239 479.702 -8.61829e-13
-4.74879e-12 -8.61829e-13 475.581

481.3 23.871 1.86133e-12
23.871 502.869 4.08895e-13
1.86133e-12 4.08895e-13 501.249

456.583 -24.3807 -1.04143e-12
-24.3807 487.348 8.09279e-13
-1.04143e-12 8.09279e-13 488.493

457.832 -0.672795 1.57748e-12
-0.672795 517.938 9.25482e-13
1.57748e-12 9.25482e-13 486.396

458.881 25.5904 -7.97288e-13
25.5904 486.465 -1.73543e-12
-7.97288e-13 -1.73543e-12 488.515

465.557 -10.3079 -4.5682e-12
-10.3079 408.082 5.39006e-12
-4.5682e-12 5.39006e-12 427.221

400.863 -32.8333 -4.64636e-12
-32.8333 414.954 -1.83438e-12
-4.64636e-12 -1.83438e-12 385.164

518.096 -2.30076 -2.10794e-13
-2.30076 465.738 -2.85697e-12
-2.10794e-13 -2.85697e-12 500.927

391.871 -34.5081 -4.12233e-12
-34.5081 379.605 -9.65746e-13
-4.12233e-12 -9.65746e-13 347.416

478.001 19.0861 -9.5494e-13
19.0861 509.202 1.24848e-12
-9.5494e-13 1.24848e-12 501.846

506.113 -26.4787 -1.71122e-13
-26.4787 470.248 -9.49167e-13
-1.71122e-13 -9.49167e-13 487.273

425 -9.6902 -1.94215e-13
-9.6902 366.73 1.8523e-12
-1.94215e-13 1.8523e-12 355.981

530.267 -23.192 -2.70598e-13
-23.192 488.758 2.412e-12
-2.70598e-13 2.412e-12 506.49

500.893 2.35828 -1.25159e-12
2.35828 444.578 2.4647e-13
-1.25159e-12 2.4647e-13 489.206

521.193 -23.3215 1.22391e-12
-23.3215 501.843 2.54359e-12
1.22391e-12 2.54359e-12 508.535

502.017 -25.8594 -1.35891e-12
-25.8594 461.493 -1.62892e-12
-1.35891e-12 -1.62892e-12 481.245

498.828 -8.54614 -1.38881e-12
-8.54614 445.137 -2.60355e-12
-1.38881e-12 -2.60355e-12 479.346

482.222 -23.0681 -4.40329e-12
-23.0681 504.994 -9.70057e-13
-4.40329e-12 -9.70057e-13 502.537

428.54 -31.3418 -1.4649e-12
-31.3418 410.589 -8.90547e-13
-1.4649e-12 -8.90547e-13 398.998

503.269 -24.5873 -6.59028e-13
-24.5873 464.715 -6.80937e-13
-6.59028e-13 -6.80937e-13 482.161

441.241 10.8644 -5.77908e-13
10.8644 378.481 1.04864e-12
-5.77908e-13 1.04864e-12 387.799

500.039 26.3403 3.63946e-12
26.3403 498.585 -2.314e-12
3.63946e-12 -2.314e-12 500.106

463.751 -37.6128 -8.27486e-13
-37.6128 488.391 2.39656e-12
-8.27486e-13 2.39656e-12 494.084

464.86 37.2651 1.45099e-12
37.2651 487.302 -2.86341e-12
1.45099e-12 -2.86341e-12 493.799

446.328 -28.5733 2.6581e-12
-28.5733 500.016 4.16733e-12
2.6581e-12 4.16733e-12 492.314

448.563 27.0641 3.38056e-12
27.0641 500.707 -1.81544e-12
3.38056e-12 -1.81544e-12 492.501

513.072 -8.5276 5.7323e-12
-8.5276 436.407 -2.53723e-13
5.7323e-12 -2.53723e-13 492.761

511.234 9.27361 1.39192e-12
9.27361 438.004 -3.92146e-12
1.39192e-12 -3.92146e-12 492.399

501.658 -9.84619 1.2695e-12
-9.84619 451.744 8.33851e-13
1.2695e-12 8.33851e-13 483.022

510.867 32.1161 -3.94114e-12
32.1161 510.392 -9.22281e-13
-3.94114e-12 -9.22281e-13 514.057

509.642 -32.8541 5.38828e-14
-32.8541 510.069 3.76444e-12
5.38828e-14 3.76444e-12 513.696

481.812 16.0685 -1.42035e-12
16.0685 539.133 2.00817e-12
-1.42035e-12 2.00817e-12 514.328

483.005 -15.8009 2.05258e-12
-15.8009 538.723 1.62359e-12
2.05258e-12 1.62359e-12 514.35

556.871 -3.74771 -1.84963e-12
-3.74771 506.834 -1.6831e-12
-1.84963e-12 -1.6831e-12 524.994

558.426 3.61048 -1.60124e-12
3.61048 505.159 1.27542e-12
-1.60124e-12 1.27542e-12 525.366

387.309 9.83687 2.61657e-12
9.83687 449.197 2.67638e-12
2.61657e-12 2.67638e-12 397.086

472.388 -24.7741 -4.11878e-12
-24.7741 480.755 -1.00127e-12
-4.11878e-12 -1.00127e-12 484.977

443.462 -36.3875 -1.4988e-13
-36.3875 485.533 1.56882e-12
-1.4988e-13 1.56882e-12 486.628

473.641 -4.66429 -2.44545e-12
-4.66429 420.436 2.99338e-12
-2.44545e-12 2.99338e-12 436.338

540.256 -16.6946 1.48119e-12
-16.6946 484.193 1.51967e-12
1.48119e-12 1.51967e-12 515.289

540.976 16.1756 -3.61045e-13
16.1756 485.417 -1.66859e-12
-3.61045e-13 -1.66859e-12 515.895

506.862 0.121881 8.92323e-13
0.121881 423.551 6.98858e-13
8.92323e-13 6.98858e-13 487.002

384.791 23.3752 -2.81612e-12
23.3752 432.296 -1.89952e-12
-2.81612e-12 -1.89952e-12 385.475

442.333 36.1715 -1.39126e-12
36.1715 485.211 1.11481e-12
-1.39126e-12 1.11481e-12 485.834

452.597 -23.3958 -1.37105e-12
-23.3958 494.953 2.18107e-12
-1.37105e-12 2.18107e-12 483.591

443.248 23.3528 4.75472e-12
23.3528 397.518 1.52767e-13
4.75472e-12 1.52767e-13 400.372

530.97 23.8582 -3.25547e-12
23.8582 488.009 1.92143e-12
-3.25547e-12 1.92143e-12 507.249

428.478 -31.3136 7.5436e-13
-31.3136 410.873 -2.735e-12
7.5436e-13 -2.735e-12 398.817

519.86 -3.23101 -1.67866e-12
-3.23101 469.059 4.27125e-12
-1.67866e-12 4.27125e-12 502.686

439.396 -34.1609 4.59099e-12
-34.1609 485.504 -5.04485e-12
4.59099e-12 -5.04485e-12 485.823

389.183 8.31996 2.76475e-12
8.31996 452.327 -1.60701e-12
2.76475e-12 -1.60701e-12 400.854

385.878 21.8116 -7.33635e-13
21.8116 435.772 7.0699e-12
-7.33635e-13 7.0699e-12 388.693

383.846 35.7758 2.67519e-12
35.7758 362.33 1.06345e-12
2.67519e-12 1.06345e-12 318.327

408.181 1.57876 1.59635e-12
1.57876 332.154 -4.60446e-12
1.59635e-12 -4.60446e-12 327.323

485.455 -22.8045 2.95467e-12
-22.8045 502.858 4.66743e-12
2.95467e-12 4.66743e-12 501.749

351.877 31.1838 -4.36392e-12
31.1838 388.83 3.59535e-12
-4.36392e-12 3.59535e-12 312.356

451.349 23.61 1.20348e-12
23.61 478.412 3.04527e-12
1.20348e-12 3.04527e-12 465.212

442.195 -5.34955 2.87651e-12
-5.34955 377.125 1.00468e-12
2.87651e-12 1.00468e-12 387.736

464.154 11.2161 -1.21621e-12
11.2161 407.298 -1.15463e-13
-1.21621e-12 -1.15463e-13 424.921

505.378 0.429903 2.38668e-12
0.429903 421.571 -6.58251e-13
2.38668e-12 -6.58251e-13 485.674

449.349 -29.031 -2.08655e-12
-29.031 501.996 -2.24739e-12
-2.08655e-12 -2.24739e-12 493.587

572.509 -6.3189 -4.06838e-12
-6.3189 589.483 6.71789e-12
-4.06838e-12 6.71789e-12 549.252

463.139 37.4115 1.36602e-12
37.4115 487.025 -3.44946e-13
1.36602e-12 -3.44946e-13 493.063

408.737 1.66329 -4.83169e-13
1.66329 331.601 -4.46546e-12
-4.83169e-13 -4.46546e-12 308.903

404.233 -32.7869 1.39918e-12
-32.7869 415.507 4.59425e-12
1.39918e-12 4.59425e-12 387.388

443.139 36.6129 -1.0197e-12
36.6129 485.504 1.26669e-12
-1.0197e-12 1.26669e-12 486.57

444.678 -11.1338 3.13508e-13
-11.1338 498.934 -9.42061e-13
3.13508e-13 -9.42061e-13 471.44

386.072 -25.5146 -2.37677e-12
-25.5146 428.899 1.06842e-11
-2.37677e-12 1.06842e-11 384.562

449.449 28.83 -2.07863e-12
28.83 501.63 2.61213e-12
-2.07863e-12 2.61213e-12 493.287

452.709 -26.1419 3.95417e-12
-26.1419 419.301 6.96924e-13
3.95417e-12 6.96924e-13 419.516

579.551 10.4835 1.758e-12
10.4835 582.162 -6.88612e-12
1.758e-12 -6.88612e-12 549.037

398.327 30.872 1.81188e-12
30.872 422.057 -2.19084e-12
1.81188e-12 -2.19084e-12 388.161

515.705 8.1267 8.64494e-14
8.1267 437.267 -9.90023e-13
8.64494e-14 -9.90023e-13 494.58

493.804 30.1906 2.42769e-14
30.1906 484.746 -1.59014e-12
2.42769e-14 -1.59014e-12 493.801

453.464 23.3319 1.03621e-12
23.3319 479.162 -7.42813e-13
1.03621e-12 -7.42813e-13 475.797

510.7 -32.4887 1.65793e-14
-32.4887 512.451 -1.43443e-12
1.65793e-14 -1.43443e-12 515.005

510.307 -23.1902 3.05533e-13
-23.1902 473.18 -5.52151e-13
3.05533e-13 -5.52151e-13 489.676

511.401 10.4706 -1.45336e-12
10.4706 557.99 1.39148e-13
-1.45336e-12 1.39148e-13 523.73

452.171 -23.4338 3.65012e-12
-23.4338 480.164 -1.54898e-12
3.65012e-12 -1.54898e-12 468.949

394.408 -9.7078 4.18983e-12
-9.7078 316.412 -4.40899e-12
4.18983e-12 -4.40899e-12 295.574

387.289 -14.2772 5.94724e-12
-14.2772 306.058 8.41993e-13
5.94724e-12 8.41993e-13 290.048

547.583 16.5295 1.54839e-12
16.5295 507.762 1.2168e-13
1.54839e-12 1.2168e-13 519.319

436.486 22.5017 5.32937e-12
22.5017 469.135 1.9836e-13
5.32937e-12 1.9836e-13 447.822

475.961 29.1632 1.04272e-12
29.1632 467.644 -9.70779e-13
1.04272e-12 -9.70779e-13 471.477

450.3 0.68867 -9.68707e-13
0.68867 392.775 -4.38937e-12
-9.68707e-13 -4.38937e-12 395.673

478.35 6.57115 -1.89255e-12
6.57115 541.277 -1.71122e-12
-1.89255e-12 -1.71122e-12 507.538

507.329 16.5407 4.19279e-12
16.5407 461.134 1.1567e-12
4.19279e-12 1.1567e-12 488.078

389.975 -25.761 -4.21766e-12
-25.761 430.034 -9.11863e-13
-4.21766e-12 -9.11863e-13 387.732

456.317 -2.57238 -1.89633e-12
-2.57238 517.012 3.21343e-12
-1.89633e-12 3.21343e-12 484.839

400.588 13.3652 -1.44359e-12
13.3652 452.984 2.49282e-12
-1.44359e-12 2.49282e-12 404.634

486.912 -29.7133 -1.02969e-12
-29.7133 465.812 -7.93439e-14
-1.02969e-12 -7.93439e-14 474.257

430.297 -29.9474 1.1949e-12
-29.9474 423.627 6.79753e-13
1.1949e-12 6.79753e-13 404.953

399.709 31.6228 7.59097e-13
31.6228 418.23 -1.18424e-13
7.59097e-13 -1.18424e-13 386

623.999 -15.0201 1.29319e-12
-15.0201 581.947 -1.42183e-12
1.29319e-12 -1.42183e-12 557.903

494.52 2.04133 -3.12868e-12
2.04133 552.141 1.30562e-12
-3.12868e-12 1.30562e-12 517.923

483.5 20.3 -2.72049e-12
20.3 542.041 -1.4726e-12
-2.72049e-12 -1.4726e-12 516.029

544.704 15.439 -4.69373e-12
15.439 479.968 -4.34911e-12
-4.69373e-12 -4.34911e-12 515.751

473.746 -26.1887 3.56041e-12
-26.1887 479.754 4.23039e-12
3.56041e-12 4.23039e-12 483.015

452.123 17.9572 1.73372e-12
17.9572 404.506 3.7718e-13
1.73372e-12 3.7718e-13 406.916

531.578 -5.29401 -1.59132e-15
-5.29401 580.799 -2.14081e-12
-1.59132e-15 -2.14081e-12 537.116

512.185 -18.9881 8.54132e-13
-18.9881 464.792 -4.89682e-12
8.54132e-13 -4.89682e-12 493.026

473.974 -15.5988 1.10726e-12
-15.5988 423.174 3.50534e-13
1.10726e-12 3.50534e-13 438.878

401.998 11.6032 3.56752e-12
11.6032 455.956 -3.31587e-12
3.56752e-12 -3.31587e-12 407.778

410.921 -25.7342 4.15135e-12
-25.7342 435.579 4.22773e-12
4.15135e-12 4.22773e-12 398.954

532.047 -25.2738 2.68792e-12
-25.2738 523.191 2.57231e-12
2.68792e-12 2.57231e-12 519.117

423.054 31.9594 -9.00613e-13
31.9594 417.247 -1.12147e-12
-9.00613e-13 -1.12147e-12 400.303

535.48 -25.1347 1.81514e-12
-25.1347 505.786 -4.76271e-12
1.81514e-12 -4.76271e-12 515.658

453.492 2.59736 4.63037e-12
2.59736 397.017 -7.62797e-13
4.63037e-12 -7.62797e-13 401.896

311.098 -28.9304 -1.71418e-12
-28.9304 376.595 8.26598e-13
-1.71418e-12 8.26598e-13 289.994

431.874 -29.2309 -3.85469e-13
-29.2309 424.046 2.67164e-12
-3.85469e-13 2.67164e-12 406.152

353.76 32.1589 -7.89887e-13
32.1589 392.543 -4.54037e-12
-7.89887e-13 -4.54037e-12 312.967

470.345 -11.8769 6.82028e-13
-11.8769 529.55 -2.24828e-12
6.82028e-13 -2.24828e-12 500.302

391.449 -13.8213 -2.02875e-12
-13.8213 449.251 -1.11318e-13
-2.02875e-12 -1.11318e-13 400.197

602.853 -23.9879 -1.23516e-12
-23.9879 602.266 -3.12002e-12
-1.23516e-12 -3.12002e-12 557.843

408.37 23.7707 -2.0357e-12
23.7707 441.938 7.21793e-12
-2.0357e-12 7.21793e-12 402.22

496.575 -32.7263 4.66294e-13
-32.7263 490.639 8.93804e-13
4.66294e-13 8.93804e-13 497.445

388.188 -11.9631 -3.74367e-13
-11.9631 448.283 -2.84217e-13
-3.74367e-13 -2.84217e-13 397.014

516.709 -19.1169 2.56802e-12
-19.1169 465.752 3.71791e-12
2.56802e-12 3.71791e-12 496.242

410.685 23.877 -1.00187e-12
23.877 439.31 -2.67638e-12
-1.00187e-12 -2.67638e-12 400.697

488.919 -4.97548 1.98301e-12
-4.97548 435.069 3.08742e-12
1.98301e-12 3.08742e-12 460.381

305.781 -30.3426 1.42109e-14
-30.3426 391.438 7.7236e-12
1.42109e-14 7.7236e-12 262.569

438.608 21.014 2.14673e-12
21.014 473.912 -8.44362e-13
2.14673e-12 -8.44362e-13 458.348

445.687 -19.3232 2.0736e-12
-19.3232 393.976 1.05989e-13
2.0736e-12 1.05989e-13 399.623

551.603 -21.4459 5.56592e-14
-21.4459 499.517 -5.63105e-13
5.56592e-14 -5.63105e-13 520.103

424.47 31.7539 -2.34479e-13
31.7539 413.323 4.23365e-13
-2.34479e-13 4.23365e-13 397.959

459.163 -29.9717 -1.18424e-13
-29.9717 437.638 3.80644e-12
-1.18424e-13 3.80644e-12 439.3

510.62 20.8853 2.50407e-12
20.8853 476.073 -2.05761e-12
2.50407e-12 -2.05761e-12 492.757

461.506 -28.0759 1.63588e-12
-28.0759 485.742 -4.19205e-12
1.63588e-12 -4.19205e-12 488.719

413.721 -26.2251 1.11022e-12
-26.2251 436.246 -8.0765e-13
1.11022e-12 -8.0765e-13 401.44

426.076 28.981 -3.38692e-12
28.981 429.899 2.50822e-12
-3.38692e-12 2.50822e-12 406.862

452.502 26.1913 -4.71564e-12
26.1913 418.229 -3.99029e-12
-4.71564e-12 -3.99029e-12 419.06

521.971 -14.61 8.67454e-14
-14.61 477.179 -6.29422e-13
8.67454e-14 -6.29422e-13 500.066

403.562 -16.6175 -2.41436e-12
-16.6175 451.745 3.98141e-12
-2.41436e-12 3.98141e-12 406.445

496.048 -17.5682 -2.84336e-12
-17.5682 447.609 1.79708e-12
-2.84336e-12 1.79708e-12 471.503

487.767 16.9084 -3.3135e-12
16.9084 436.261 -3.18856e-12
-3.3135e-12 -3.18856e-12 460.591

513.344 -9.38675 -3.41638e-12
-9.38675 555.78 9.71075e-14
-3.41638e-12 9.71075e-14 523.031

453.98 -13.43 6.26107e-12
-13.43 402.18 1.61308e-12
6.26107e-12 1.61308e-12 406.745

403.204 0.594032 -9.30515e-13
0.594032 465.727 4.24905e-12
-9.30515e-13 4.24905e-12 417.807

475.029 18.5549 -2.38802e-12
18.5549 428.774 1.84948e-12
-2.38802e-12 1.84948e-12 442.223

451.145 27.6039 -2.01439e-12
27.6039 421.841 -1.39296e-12
-2.01439e-12 -1.39296e-12 420.846

400.871 -15.6861 -5.6651e-12
-15.6861 451.384 -1.02437e-12
-5.6651e-12 -1.02437e-12 403.738

406.003 -1.20229 1.92838e-12
-1.20229 468.037 -1.84978e-12
1.92838e-12 -1.84978e-12 421.222

516.202 29.1343 -3.29218e-13
29.1343 498.029 6.75904e-13
-3.29218e-13 6.75904e-13 504.878

441.707 -10.9221 1.81514e-12
-10.9221 500.66 -1.34589e-12
1.81514e-12 -1.34589e-12 471.151

451.442 -26.7152 4.76004e-12
-26.7152 418.769 -9.52719e-13
4.76004e-12 -9.52719e-13 419.355

444.39 21.3325 1.90544e-12
21.3325 395.301 4.33846e-12
1.90544e-12 4.33846e-12 398.203

497.598 23.6653 -1.2168e-12
23.6653 458.093 -8.12683e-13
-1.2168e-12 -8.12683e-13 476.553

447.685 5.47079 -2.10224e-12
5.47079 508.793 -1.62004e-12
-2.10224e-12 -1.62004e-12 476.885

427.652 29.0655 3.81917e-13
29.0655 426.437 9.82325e-13
3.81917e-13 9.82325e-13 405.113

536.824 22.9638 -4.09421e-12
22.9638 531.9 -8.5798e-13
-4.09421e-12 -8.5798e-13 522.787

314.752 -59.6916 1.95162e-12
-59.6916 282.771 -8.95758e-12
1.95162e-12 -8.95758e-12 223.425

480.597 -25.0477 -1.38141e-12
-25.0477 445.075 3.26613e-12
-1.38141e-12 3.26613e-12 456.649

336.666 7.06989 2.05228e-12
7.06989 409.158 -2.65032e-12
2.05228e-12 -2.65032e-12 319.442

460.541 -28.8892 1.76274e-12
-28.8892 444.74 1.7959e-12
1.76274e-12 1.7959e-12 443.456

96.4245 -52.7012 1.76096e-12
-52.7012 306.62 -1.98005e-12
1.76096e-12 -1.98005e-12 113.7

95.9583 51.4519 -8.43177e-13
51.4519 306.884 -4.62326e-12
-8.43177e-13 -4.62326e-12 114.488

181.518 117.155 -1.18187e-12
117.155 226.078 -8.47914e-13
-1.18187e-12 -8.47914e-13 113.589

182.816 -117.097 6.39488e-14
-117.097 223.313 -5.00222e-12
6.39488e-14 -5.00222e-12 113.563

321.585 -1.36337 -2.72848e-12
-1.36337 84.654 3.12239e-14
-2.72848e-12 3.12239e-14 114.93

274.435 -91.1259 6.47068e-12
-91.1259 127.419 -3.23534e-12
6.47068e-12 -3.23534e-12 113.803

275.131 91.6537 -5.01169e-12
91.6537 128.252 -4.583e-12
-5.01169e-12 -4.583e-12 114.573

525.243 14.3303 -1.67066e-12
14.3303 474.715 -2.94934e-12
-1.67066e-12 -2.94934e-12 502.317

556.799 25.5365 2.73648e-12
25.5365 541.186 -1.69524e-12
2.73648e-12 -1.69524e-12 533.453

492.095 6.60604 3.58706e-12
6.60604 439.124 6.65394e-14
3.58706e-12 6.65394e-14 471.405

470.303 21.7846 2.38269e-12
21.7846 424.52 1.60316e-12
2.38269e-12 1.60316e-12 438.197

409.978 17.7444 -1.27898e-13
17.7444 461.076 1.6005e-12
-1.27898e-13 1.6005e-12 425.046

448.014 28.8985 1.59398e-12
28.8985 424.708 -1.18424e-15
1.59398e-12 -1.18424e-15 420.753

487.152 -29.6634 -5.785e-13
-29.6634 465.631 -1.94037e-12
-5.785e-13 -1.94037e-12 474.593

449.371 28.0278 -1.66563e-12
28.0278 421.074 1.63247e-12
-1.66563e-12 1.63247e-12 418.645

402.966 -2.84126 4.53119e-13
-2.84126 465.384 5.0413e-12
4.53119e-13 5.0413e-12 417.543

555.806 -26.0973 2.32851e-12
-26.0973 543.379 5.50981e-12
2.32851e-12 5.50981e-12 533.696

405.504 -4.8624 -2.00092e-12
-4.8624 467.122 1.80478e-12
-2.00092e-12 1.80478e-12 420.602

522.295 23.0163 -2.09373e-12
23.0163 499.745 -5.87234e-13
-2.09373e-12 -5.87234e-13 507.973

423.381 26.8707 -2.13873e-12
26.8707 386.51 2.81789e-12
-2.13873e-12 2.81789e-12 373.029

480.112 -13.2161 -8.04394e-13
-13.2161 532.772 -1.49125e-12
-8.04394e-13 -1.49125e-12 512.004

484.201 13.7279 4.03233e-12
13.7279 432.779 -2.31341e-12
4.03233e-12 -2.31341e-12 456.878

457.372 -29.9876 9.5568e-13
-29.9876 436.979 2.34834e-12
9.5568e-13 2.34834e-12 437.836

454.312 -24.7135 5.18341e-12
-24.7135 416.807 -4.08858e-12
5.18341e-12 -4.08858e-12 419.856

547.407 -16.0747 7.63745e-12
-16.0747 509.308 -1.66533e-12
7.63745e-12 -1.66533e-12 519.387

475.975 27.9289 1.01252e-13
27.9289 449.709 -2.37706e-12
1.01252e-13 -2.37706e-12 456.928

469.104 23.9775 3.28981e-12
23.9775 427.852 -1.81218e-12
3.28981e-12 -1.81218e-12 439.833

432.431 -2.79293 1.37927e-13
-2.79293 493.64 -3.04468e-12
1.37927e-13 -3.04468e-12 457.11

417.61 5.87335 1.44312e-12
5.87335 479.56 -2.91441e-12
1.44312e-12 -2.91441e-12 440.18

463.014 2.64671 3.23889e-12
2.64671 402.282 1.41849e-13
3.23889e-12 1.41849e-13 422.324

438.651 -7.28966 1.05279e-12
-7.28966 373.918 -8.02321e-13
1.05279e-12 -8.02321e-13 381.221

454.847 30.4847 -4.16496e-12
30.4847 439.018 -1.73905e-12
-4.16496e-12 -1.73905e-12 437.84

478.468 -26.1554 -4.70142e-12
-26.1554 443.546 2.73973e-12
-4.70142e-12 2.73973e-12 454.649

525.703 -21.2544 -2.84513e-13
-21.2544 497.832 -2.30542e-12
-2.84513e-13 -2.30542e-12 508.621

437.736 -31.6337 4.47287e-12
-31.6337 437.658 2.01261e-12
4.47287e-12 2.01261e-12 426.862

417.593 -27.7856 4.27806e-12
-27.7856 444.399 -9.39101e-13
4.27806e-12 -9.39101e-13 419.691

430.65 29.8872 3.08968e-12
29.8872 442.747 4.84945e-12
3.08968e-12 4.84945e-12 426.5

416.228 -9.57793 1.65656e-12
-9.57793 475.214 5.66658e-13
1.65656e-12 5.66658e-13 436.458

428.898 -1.54481 1.58037e-12
-1.54481 491.871 -4.79972e-12
1.58037e-12 -4.79972e-12 453.998

445.185 5.74793 1.00843e-12
5.74793 508.047 8.88771e-13
1.00843e-12 8.88771e-13 474.917

414.622 -21.0891 -1.52234e-12
-21.0891 458.411 1.13687e-13
-1.52234e-12 1.13687e-13 426.068

496.872 24.1112 -9.78773e-13
24.1112 455.699 1.74675e-14
-9.78773e-13 1.74675e-14 474.596

483.376 -9.58977 -3.97312e-13
-9.58977 430.115 -1.70634e-12
-3.97312e-13 -1.70634e-12 455.224

415.636 7.46528 2.51462e-12
7.46528 477.124 9.26666e-13
2.51462e-12 9.26666e-13 436.916

443.958 -9.7011 -3.65755e-12
-9.7011 501.507 -1.76215e-12
-3.65755e-12 -1.76215e-12 471.01

433.177 -16.3307 1.59946e-12
-16.3307 481.679 -2.73559e-13
1.59946e-12 -2.73559e-13 455.671

463.543 -8.23922 -8.10137e-12
-8.23922 406.338 3.87512e-12
-8.10137e-12 3.87512e-12 421.474

494.437 -32.3468 2.32614e-12
-32.3468 487.619 2.82322e-12
2.32614e-12 2.82322e-12 496.254

422.947 9.3209 -1.88486e-12
9.3209 479.094 9.45022e-13
-1.88486e-12 9.45022e-13 440.983

564.361 -18.2127 5.62217e-13
-18.2127 529.954 2.28114e-12
5.62217e-13 2.28114e-12 531.834

309.051 24.8228 -1.97531e-12
24.8228 379.425 -7.79229e-12
-1.97531e-12 -7.79229e-12 289.8

501.702 -26.6262 -1.13006e-12
-26.6262 499.493 -3.67573e-12
-1.13006e-12 -3.67573e-12 501.203

515.652 -30.2028 2.00847e-12
-30.2028 498.407 -1.77251e-12
2.00847e-12 -1.77251e-12 504.922

429.226 -0.701265 2.02142e-12
-0.701265 491.997 -4.15668e-12
2.02142e-12 -4.15668e-12 454.148

474.885 -16.6226 2.05051e-12
-16.6226 428.34 -5.84303e-12
2.05051e-12 -5.84303e-12 441.959

462.309 12.8417 1.28394e-12
12.8417 511.278 3.48462e-12
1.28394e-12 3.48462e-12 489.125

240.778 -3.18057 -9.99645e-13
-3.18057 360.69 9.84575e-12
-9.99645e-13 9.84575e-12 226.967

432.407 14.2737 -1.87235e-12
14.2737 485.36 1.07174e-13
-1.87235e-12 1.07174e-13 456.886

458.115 -29.4893 -1.42345e-12
-29.4893 443.174 6.987e-14
-1.42345e-12 6.987e-14 440.766

304.189 25.1058 7.22977e-13
25.1058 394.587 1.11318e-13
7.22977e-13 1.11318e-13 264.343

603.552 26.0978 -2.31015e-12
26.0978 597.958 -1.33273e-11
-2.31015e-12 -1.33273e-11 558.16

608.286 -27.8071 3.66137e-12
-27.8071 595.032 2.15872e-12
3.66137e-12 2.15872e-12 558.294

463.497 -30.4192 3.84463e-12
-30.4192 459.042 1.16055e-13
3.84463e-12 1.16055e-13 459.076

434.588 -31.1603 4.07792e-12
-31.1603 436.363 -4.23365e-13
4.07792e-12 -4.23365e-13 424.666

474.105 20.8276 -7.82781e-13
20.8276 431.919 -1.11674e-12
-7.82781e-13 -1.11674e-12 443.976

465.226 15.0062 2.87533e-12
15.0062 410.12 1.01844e-12
2.87533e-12 1.01844e-12 427.467

646.071 3.0834 3.44088e-12
3.0834 645.729 1.18425e-11
3.44088e-12 1.18425e-11 574.622

649.891 -6.9999 9.85404e-12
-6.9999 641.399 2.28573e-12
9.85404e-12 2.28573e-12 575.151

496.992 4.8243 -1.65142e-12
4.8243 442.038 2.6031e-12
-1.65142e-12 2.6031e-12 477.417

443.561 6.73104 2.66528e-13
6.73104 502.993 -3.69482e-12
2.66528e-13 -3.69482e-12 471.054

441.975 6.73633 2.40069e-12
6.73633 502.518 -5.22486e-12
2.40069e-12 -5.22486e-12 469.777

321.538 58.6346 -7.11253e-12
58.6346 281.124 7.86808e-12
-7.11253e-12 7.86808e-12 225.079

420.232 -28.1999 1.01489e-12
-28.1999 444.027 -3.32948e-12
1.01489e-12 -3.32948e-12 421.035

520.582 17.9745 -2.96859e-12
17.9745 467.534 -2.6595e-12
-2.96859e-12 -2.6595e-12 499.513

472.984 9.53978 -7.10543e-13
9.53978 421.201 9.76996e-14
-7.10543e-13 9.76996e-14 436.207

440.634 -26.7234 4.28161e-12
-26.7234 450.73 -3.7043e-12
4.28161e-12 -3.7043e-12 433.419

469.28 -20.2378 1.6378e-12
-20.2378 422.72 -5.96886e-12
1.6378e-12 -5.96886e-12 437.18

312.475 60.2325 -2.76164e-12
60.2325 281.374 5.41552e-12
-2.76164e-12 5.41552e-12 223.217

492.685 31.0691 -5.86198e-14
31.0691 489.046 -2.19883e-12
-5.86198e-14 -2.19883e-12 493.142

410.866 -19.7862 -9.41469e-13
-19.7862 457.885 -8.09071e-12
-9.41469e-13 -8.09071e-12 423.501

474.132 28.8578 2.67519e-12
28.8578 449.635 7.78044e-13
2.67519e-12 7.78044e-13 456.522

430.96 -4.14487 3.47241e-12
-4.14487 492.977 -2.64085e-12
3.47241e-12 -2.64085e-12 456.471

423.934 19.6093 -5.71632e-12
19.6093 465.715 -3.97726e-12
-5.71632e-12 -3.97726e-12 434.112

452.751 30.5189 -1.01548e-12
30.5189 443.602 1.99189e-12
-1.01548e-12 1.99189e-12 439.612

428.647 -22.4733 2.44841e-12
-22.4733 461.141 -2.64855e-12
2.44841e-12 -2.64855e-12 433.817

443.578 -27.3527 -5.06439e-12
-27.3527 450.437 -1.72366e-12
-5.06439e-12 -1.72366e-12 435.049

294.781 11.257 -1.56541e-12
11.257 372.588 9.7818e-12
-1.56541e-12 9.7818e-12 258.104

357.301 -33.4564 5.43447e-12
-33.4564 389.12 -3.03165e-13
5.43447e-12 -3.03165e-13 314.131

419.661 -11.6906 -3.30994e-12
-11.6906 476.365 -2.72316e-12
-3.30994e-12 -2.72316e-12 439.349

478.401 26.4847 1.11378e-12
26.4847 446.803 1.90781e-12
1.11378e-12 1.90781e-12 456.088

452.349 29.4781 -2.61065e-12
29.4781 449.03 4.19812e-12
-2.61065e-12 4.19812e-12 442.403

426.812 -21.434 2.15709e-12
-21.434 461.788 -3.77298e-12
2.15709e-12 -3.77298e-12 432.634

422.934 -11.7824 1.60257e-12
-11.7824 476.651 6.54884e-13
1.60257e-12 6.54884e-13 439.932

457.71 28.4097 -4.64991e-12
28.4097 447.091 1.61708e-12
-4.64991e-12 1.61708e-12 442.575

425.109 -13.8779 -2.38298e-12
-13.8779 476.423 -3.91391e-12
-2.38298e-12 -3.91391e-12 442.109

311.267 27.8551 -6.15744e-12
27.8551 377.394 -8.81073e-13
-6.15744e-12 -8.81073e-13 289.987

485.173 -4.04122 2.43775e-12
-4.04122 545.053 5.48302e-12
2.43775e-12 5.48302e-12 511.04

432.989 31.0277 -1.42109e-13
31.0277 439.632 8.73375e-13
-1.42109e-13 8.73375e-13 426.023

509.314 14.9013 8.37848e-13
14.9013 463.165 1.83557e-13
8.37848e-13 1.83557e-13 488.609

516.925 -15.9276 2.29387e-12
-15.9276 467.586 -1.65823e-12
2.29387e-12 -1.65823e-12 493.927

383.928 -24.2047 4.42431e-12
-24.2047 305.95 -1.84741e-13
4.42431e-12 -1.84741e-13 285.357

442.283 -21.2673 8.79297e-13
-21.2673 476.003 -1.97531e-12
8.79297e-13 -1.97531e-12 459.325

447.831 26.6984 -1.75948e-12
26.6984 466.211 -3.17553e-12
-1.75948e-12 -3.17553e-12 457.845

522.978 -21.7278 -4.11523e-14
-21.7278 543.814 -3.1084e-12
-4.11523e-14 -3.1084e-12 525.312

579.586 14.1065 -8.49839e-13
14.1065 617.622 1.73609e-12
-8.49839e-13 1.73609e-12 557.055

620.209 9.44533 3.50505e-12
9.44533 576.843 -3.32386e-12
3.50505e-12 -3.32386e-12 556.874

523.473 32.7054 -1.95606e-12
32.7054 520.655 -9.48427e-13
-1.95606e-12 -9.48427e-13 519.528

414.895 26.0005 -4.29582e-12
26.0005 448.909 -3.23119e-12
-4.29582e-12 -3.23119e-12 420.38

478.099 26.6616 -7.69163e-13
26.6616 444.773 -1.03029e-12
-7.69163e-13 -1.03029e-12 455.511

332.365 45.1862 -7.5436e-13
45.1862 349.492 -3.5989e-12
-7.5436e-13 -3.5989e-12 286.742

571.393 -11.3435 -3.18841e-12
-11.3435 614.473 2.11416e-12
-3.18841e-12 2.11416e-12 554.598

641.328 -3.43284 -1.3663e-11
-3.43284 636.871 2.03763e-12
-1.3663e-11 2.03763e-12 572.398

634.906 -0.209959 2.97984e-12
-0.209959 643.178 -6.47001e-12
2.97984e-12 -6.47001e-12 572.225

272.965 -53.8028 -6.68858e-12
-53.8028 316.449 -2.72375e-12
-6.68858e-12 -2.72375e-12 220.911

566.641 -11.5999 -3.25517e-13
-11.5999 562.127 -2.64855e-12
-3.25517e-13 -2.64855e-12 540.901

563.774 8.81291 -1.64935e-12
8.81291 586.965 -6.72292e-12
-1.64935e-12 -6.72292e-12 546.843

478.247 -26.1996 -1.48207e-12
-26.1996 440.445 -7.42517e-13
-1.48207e-12 -7.42517e-13 453.485

494.352 1.011 7.37891e-12
1.011 545.762 5.11887e-12
7.37891e-12 5.11887e-12 514.06

447.654 -20.2679 2.8891e-12
-20.2679 484.161 -1.11674e-12
2.8891e-12 -1.11674e-12 470.641

506.304 6.25534 -5.48421e-12
6.25534 443.378 1.18927e-12
-5.48421e-12 1.18927e-12 486.128

461.278 15.5963 -1.2663e-13
15.5963 521.256 4.3876e-12
-1.2663e-13 4.3876e-12 497.56

471.184 7.19157 -3.63876e-13
7.19157 528.009 2.37913e-12
-3.63876e-13 2.37913e-12 497.694

493.766 20.3929 7.74492e-13
20.3929 451.521 -3.41682e-12
7.74492e-13 -3.41682e-12 469.754

241.067 -3.1139 2.55077e-12
-3.1139 358.562 -3.8843e-13
2.55077e-12 -3.8843e-13 227.065

463.704 -27.6238 3.41238e-12
-27.6238 463.394 3.8393e-12
3.41238e-12 3.8393e-12 461.194

488.348 -26.1164 -3.22231e-12
-26.1164 481.601 3.52962e-12
-3.22231e-12 3.52962e-12 485.872

497.541 -31.4837 7.87518e-13
-31.4837 489.961 -3.49483e-12
7.87518e-13 -3.49483e-12 498.984

355.602 32.7498 2.81138e-12
32.7498 285.781 -4.49122e-12
2.81138e-12 -4.49122e-12 248.368

563.884 -20.1164 5.13663e-12
-20.1164 569.616 -4.03085e-13
5.13663e-12 -4.03085e-13 542.574

337.65 54.3225 -1.66504e-12
54.3225 356.66 -3.64035e-12
-1.66504e-12 -3.64035e-12 258.877

477.075 -21.4395 2.98783e-12
-21.4395 506.493 4.94775e-12
2.98783e-12 4.94775e-12 500.247

504.776 14.6504 1.40273e-12
14.6504 451.99 -1.87406e-12
1.40273e-12 -1.87406e-12 481.563

449.834 -14.5725 1.89715e-12
-14.5725 396.99 7.9153e-12
1.89715e-12 7.9153e-12 400.843

452.597 24.0468 6.75016e-13
24.0468 478.783 -5.29887e-12
6.75016e-13 -5.29887e-12 467.851

493.67 20.428 1.26181e-12
20.428 449.504 -8.73375e-13
1.26181e-12 -8.73375e-13 469.345

505.568 11.4005 1.25196e-12
11.4005 564.419 1.82047e-12
1.25196e-12 1.82047e-12 526.714

475.899 -31.5802 2.58519e-12
-31.5802 470.359 2.35071e-12
2.58519e-12 2.35071e-12 475.067

559.273 19.8124 -1.33523e-12
19.8124 510.443 -6.21784e-12
-1.33523e-12 -6.21784e-12 526.49

439.961 -18.4435 -1.96406e-12
-18.4435 482.468 2.6071e-12
-1.96406e-12 2.6071e-12 459.152

465.901 4.28322 -2.88175e-12
4.28322 526.111 1.76511e-12
-2.88175e-12 1.76511e-12 495.513

588.642 9.92682 4.45954e-12
9.92682 552.464 -3.07399e-12
4.45954e-12 -3.07399e-12 545.191

590.425 -8.51344 6.47156e-12
-8.51344 554.806 3.60408e-12
6.47156e-12 3.60408e-12 545.709

382.312 18.5124 7.4607e-13
18.5124 302.289 -1.17062e-12
7.4607e-13 -1.17062e-12 286.136

502.681 7.96506 -1.50102e-12
7.96506 453.603 -2.76579e-12
-1.50102e-12 -2.76579e-12 487.768

232.817 7.74052 4.3648e-12
7.74052 381.518 6.63173e-14
4.3648e-12 6.63173e-14 187.188

236.986 -11.3852 -4.35045e-12
-11.3852 387.211 -3.16428e-12
-4.35045e-12 -3.16428e-12 189.452

249.289 56.4069 2.57453e-12
56.4069 354.779 1.16055e-12
2.57453e-12 1.16055e-12 184.024

505.018 -28.9505 -4.35503e-12
-28.9505 478.618 -7.07582e-13
-4.35503e-12 -7.07582e-13 491.346

258.473 -49.1904 -4.08562e-12
-49.1904 341.843 -2.36848e-14
-4.08562e-12 -2.36848e-14 220.735

249.294 -55.9494 -2.69533e-12
-55.9494 344.753 -6.39015e-12
-2.69533e-12 -6.39015e-12 181.117

434.657 26.2201 2.67046e-12
26.2201 454.395 -2.14347e-12
2.67046e-12 -2.14347e-12 432.827

329.926 73.8437 8.95284e-13
73.8437 280.012 4.02641e-14
8.95284e-13 4.02641e-14 184.828

540.129 13.0472 -5.89306e-12
13.0472 554.949 8.941e-13
-5.89306e-12 8.941e-13 532.08

562.386 0.0395322 -2.53264e-12
0.0395322 532.456 -5.25861e-12
-2.53264e-12 -5.25861e-12 531.872

338.604 -73.1292 -9.44074e-12
-73.1292 279.859 1.02318e-12
-9.44074e-12 1.02318e-12 186.311

432.672 -23.424 7.17944e-13
-23.424 466.313 2.50822e-12
7.17944e-13 2.50822e-12 447.574

358.933 34.7291 3.73509e-12
34.7291 310.977 7.03437e-12
3.73509e-12 7.03437e-12 258.039

267.706 63.4907 4.9738e-12
63.4907 345.212 -5.35749e-12
4.9738e-12 -5.35749e-12 185.846

293.695 21.6302 2.75335e-12
21.6302 367.663 5.59197e-12
2.75335e-12 5.59197e-12 254.499

267.578 -65.9196 -4.46458e-12
-65.9196 344.847 -5.4096e-12
-4.46458e-12 -5.4096e-12 184.302

291.642 -12.3811 1.62596e-12
-12.3811 370.884 5.46644e-12
1.62596e-12 5.46644e-12 253.444

550.309 6.84161 -7.93069e-13
6.84161 582.08 -4.57738e-12
-7.93069e-13 -4.57738e-12 541.119

329.891 -45.9747 3.56929e-12
-45.9747 341.818 -2.78651e-12
3.56929e-12 -2.78651e-12 276.616

259.783 47.5318 1.89241e-12
47.5318 340.218 -3.58824e-12
1.89241e-12 -3.58824e-12 223.147

370.218 37.9113 -5.03064e-12
37.9113 244.921 -2.66986e-12
-5.03064e-12 -2.66986e-12 187.358

481.893 -29.2857 -7.28306e-14
-29.2857 460.514 -3.21817e-12
-7.28306e-14 -3.21817e-12 467.717

480.979 12.8967 -5.36171e-12
12.8967 525.832 5.57983e-12
-5.36171e-12 5.57983e-12 504.107

354.42 -38.1123 -3.10981e-12
-38.1123 300.079 -2.63611e-12
-3.10981e-12 -2.63611e-12 251.816

482.537 -28.8022 2.74506e-12
-28.8022 460.324 2.62901e-13
2.74506e-12 2.62901e-13 468.466

365.266 -36.3432 -8.3844e-13
-36.3432 230.99 3.77357e-12
-8.3844e-13 3.77357e-12 182.771

481.505 -28.3174 -3.1033e-12
-28.3174 472.758 -2.4943e-12
-3.1033e-12 -2.4943e-12 477.921

436.356 -25.2949 5.32522e-12
-25.2949 466.227 -2.36196e-12
5.32522e-12 -2.36196e-12 448.212

314.8 69.4602 -2.59585e-12
69.4602 292.143 7.09122e-12
-2.59585e-12 7.09122e-12 184.525

290.783 -22.9327 -5.47592e-12
-22.9327 359.166 1.90899e-12
-5.47592e-12 1.90899e-12 247.03

312.402 -71.6922 1.7432e-12
-71.6922 288.124 6.22199e-12
1.7432e-12 6.22199e-12 182.027

268.548 50.7372 -5.61329e-13
50.7372 320.061 -1.85689e-12
-5.61329e-13 -1.85689e-12 221.506

459.864 -30.2122 1.54069e-12
-30.2122 454.848 3.47722e-12
1.54069e-12 3.47722e-12 454.403

559.289 -14.6404 -4.41277e-12
-14.6404 544.414 -3.0056e-12
-4.41277e-12 -3.0056e-12 533.719

635.923 11.0925 8.77713e-12
11.0925 631.384 1.25541e-11
8.77713e-12 1.25541e-11 570.021

619.958 -5.16002 -1.52648e-12
-5.16002 639.739 -7.15724e-13
-1.52648e-12 -7.15724e-13 568.499

453.872 13.0836 4.06203e-12
13.0836 506.558 -3.47574e-12
4.06203e-12 -3.47574e-12 482.575

634.152 -10.6668 1.65519e-12
-10.6668 631.315 3.84833e-12
1.65519e-12 3.84833e-12 569.876

622.697 4.09178 -1.22435e-12
4.09178 642.685 3.92882e-12
-1.22435e-12 3.92882e-12 569.7

643.375 7.43389 4.85182e-12
7.43389 619.149 -4.31447e-12
4.85182e-12 -4.31447e-12 569.023

584.778 -12.115 -1.14279e-12
-12.115 631.669 2.66069e-12
-1.14279e-12 2.66069e-12 560.595

307.446 -30.4701 -6.32442e-12
-30.4701 371.635 -6.12014e-12
-6.32442e-12 -6.12014e-12 280.771

589.627 -12.9721 -7.84587e-12
-12.9721 549.115 -2.53575e-12
-7.84587e-12 -2.53575e-12 543.829

527.209 -34.4176 -1.80596e-14
-34.4176 521.489 1.47526e-12
-1.80596e-14 1.47526e-12 519.968

565.466 -18.1769 3.2679e-12
-18.1769 537.992 5.79092e-13
3.2679e-12 5.79092e-13 534.26

502.573 15.4593 -1.49628e-12
15.4593 452.118 1.65704e-12
-1.49628e-12 1.65704e-12 480.21

586.35 9.86411 -7.61669e-12
9.86411 642.136 7.36078e-12
-7.61669e-12 7.36078e-12 563.105

636.658 19.2274 -3.21565e-12
19.2274 591.724 3.73764e-12
-3.21565e-12 3.73764e-12 562.927

569.778 11.3064 -7.79229e-13
11.3064 544.341 1.71848e-12
-7.79229e-13 1.71848e-12 536.438

353.444 -15.3394 8.1665e-12
-15.3394 231.517 9.76404e-13
8.1665e-12 9.76404e-13 219.015

437.209 24.9641 2.63493e-12
24.9641 461.915 3.48166e-12
2.63493e-12 3.48166e-12 445.725

317.092 -61.3547 2.25242e-12
-61.3547 277.85 -5.44749e-14
2.25242e-12 -5.44749e-14 218.09

334.21 -57.4573 3.47219e-12
-57.4573 357.325 2.62901e-12
3.47219e-12 2.62901e-12 252.541

383.336 -36.5441 1.2155e-11
-36.5441 305.741 8.86994e-13
1.2155e-11 8.86994e-13 257.761

562.498 -5.15894 -2.41851e-12
-5.15894 616.953 1.35447e-13
-2.41851e-12 1.35447e-13 552.952

562.205 2.89125 4.03796e-12
2.89125 615.818 7.6293e-12
4.03796e-12 7.6293e-12 552.551

598.771 -24.4561 -8.20381e-13
-24.4561 575.744 1.28778e-12
-8.20381e-13 1.28778e-12 551.58

602.331 -21.7603 5.53975e-12
-21.7603 573.435 -4.53859e-12
5.53975e-12 -4.53859e-12 551.846

598.784 26.1357 -2.78029e-12
26.1357 580.459 -3.20455e-12
-2.78029e-12 -3.20455e-12 552.736

625.743 3.0993 6.9537e-12
3.0993 630.736 1.34929e-13
6.9537e-12 1.34929e-13 568.422

599.061 -20.5087 1.33227e-12
-20.5087 576.355 -1.37039e-12
1.33227e-12 -1.37039e-12 552.269

607.811 -18.5682 6.848e-12
-18.5682 620.263 1.00599e-11
6.848e-12 1.00599e-11 563.187

632.901 2.4344 5.50227e-12
2.4344 635.527 -4.43379e-12
5.50227e-12 -4.43379e-12 570.507

607.888 -20.5261 -9.93428e-13
-20.5261 572.428 -5.73882e-12
-9.93428e-13 -5.73882e-12 553.408

607.073 20.9556 -6.71974e-12
20.9556 573.687 5.13367e-13
-6.71974e-12 5.13367e-13 553.811

633.852 -3.45841 -9.75916e-12
-3.45841 636.778 8.92989e-12
-9.75916e-12 8.92989e-12 571.281

632.182 -3.11704 1.13826e-11
-3.11704 625.757 -1.30034e-11
1.13826e-11 -1.30034e-11 569.396

609.683 12.1097 -3.23001e-13
12.1097 620.486 1.33991e-11
-3.23001e-13 1.33991e-11 563.918

587.204 26.9295 5.16624e-13
26.9295 583.02 2.89056e-12
5.16624e-13 2.89056e-12 551.704

FIELD solute_concentration_TPM 2
S_ext 1 563 float
0.972013
0.971826
0.971846
0.971828
0.971798
0.971846
0.972013
0.971837
0.971862
0.97183
0.971975
0.971837
0.971841
0.971829
0.971805
0.971844
0.971821
0.971836
0.971866
0.971849
0.971855
0.971745
0.971851
0.971849
0.971849
0.971832
0.971965
0.971844
0.971913
0.971773
0.971842
0.971912
0.97197
0.971781
0.97178
0.971781
0.971769
0.971783
0.971842
0.971969
0.971913
0.971768
0.971768
0.971842
0.971945
0.971912
0.971864
0.97186
0.971846
0.971922
0.971917
0.971898
0.971796
0.971899
0.971797
0.971951
0.97178
0.971898
0.97178
0.971848
0.97182
0.971813
0.971961
0.971815
0.971812
0.971826
0.97182
0.971833
0.97185
0.971826
0.971796
0.971796
0.971914
0.971822
0.971846
0.971973
0.971807
0.971826
0.971833
0.971891
0.97193
0.971793
0.971816
0.971933
0.971912
0.971949
0.971844
0.971825
0.971945
0.971754
0.971898
0.971754
0.971804
0.971828
0.971898
0.971916
0.971932
0.97183
0.971807
0.971843
0.97188
0.971909
0.971932
0.971832
0.971832
0.971831
0.971815
0.971844
0.971933
0.971821
0.971847
0.971942
0.971936
0.971834
0.971831
0.971899
0.971782
0.971934
0.971783
0.971898
0.971871
0.971806
0.971825
0.971821
0.971821
0.971804
0.971786
0.97183
0.971932
0.971897
0.971794
0.971826
0.971816
0.971825
0.97191
0.971779
0.971942
0.971841
0.971816
0.971779
0.971907
0.971834
0.971871
0.97183
0.971935
0.971831
0.971836
0.971848
0.971847
0.971883
0.971859
0.971825
0.971911
0.971841
0.97183
0.971826
0.971828
0.971907
0.971906
0.971838
0.971859
0.97191
0.971944
0.971915
0.971905
0.971831
0.971906
0.971907
0.971912
0.971905
0.971804
0.971898
0.971916
0.971827
0.971898
0.971816
0.971804
0.971838
0.971797
0.971833
0.971914
0.97183
0.97183
0.971906
0.971824
0.971918
0.971821
0.971817
0.971805
0.97183
0.971824
0.97193
0.971898
0.971912
0.971826
0.971835
0.971834
0.971816
0.971825
0.971827
0.971825
0.971866
0.971891
0.971816
0.971914
0.971816
0.971827
0.971909
0.971812
0.971825
0.971812
0.971831
0.971832
0.971816
0.971882
0.97183
0.97189
0.971817
0.971821
0.97182
0.971821
0.971821
0.971821
0.971821
0.97183
0.971805
0.971805
0.971805
0.971805
0.971798
0.971798
0.971883
0.971828
0.971825
0.971861
0.971806
0.971805
0.971825
0.971889
0.971825
0.97183
0.971882
0.971811
0.971883
0.971816
0.971825
0.971881
0.971889
0.971931
0.971923
0.971816
0.971937
0.971842
0.97189
0.971866
0.971826
0.97182
0.971769
0.971821
0.971941
0.971888
0.971825
0.971837
0.971891
0.97182
0.97187
0.971769
0.971889
0.97182
0.971823
0.971834
0.971806
0.971826
0.971797
0.97184
0.971943
0.971949
0.971803
0.971853
0.971837
0.971885
0.97181
0.971827
0.971888
0.971828
0.97188
0.971836
0.97188
0.971889
0.97176
0.971802
0.971803
0.971803
0.97183
0.97188
0.971783
0.971823
0.971859
0.971878
0.971884
0.971802
0.971882
0.971806
0.971883
0.971945
0.971879
0.971936
0.971816
0.971882
0.971759
0.971882
0.97182
0.971883
0.971821
0.971882
0.971846
0.971968
0.971846
0.971883
0.9718
0.971882
0.971858
0.971824
0.971825
0.971882
0.971879
0.97187
0.971818
0.971879
0.971838
0.971844
0.971799
0.97188
0.971871
0.971857
0.97187
0.971881
0.971869
0.971814
0.971837
0.971871
0.971882
0.971834
0.971834
0.971879
0.971799
0.971981
0.971847
0.971931
0.971856
0.972039
0.972039
0.972037
0.972037
0.972034
0.972044
0.972044
0.971816
0.971788
0.971837
0.971858
0.971866
0.97187
0.971836
0.971871
0.971871
0.971789
0.97187
0.971812
0.971898
0.971806
0.971847
0.971859
0.971871
0.971803
0.971847
0.971858
0.971847
0.971857
0.971869
0.971892
0.971858
0.971849
0.971811
0.971865
0.97187
0.971866
0.971859
0.971848
0.971835
0.971866
0.971835
0.971848
0.971859
0.971837
0.971847
0.971869
0.97182
0.971857
0.971789
0.971945
0.971816
0.971814
0.971848
0.971857
0.971825
0.971981
0.971846
0.971858
0.971967
0.971763
0.971763
0.971845
0.971867
0.971856
0.971865
0.971745
0.971744
0.971834
0.971838
0.971838
0.971986
0.971869
0.971819
0.971861
0.971863
0.97186
0.971981
0.971822
0.971867
0.971847
0.971847
0.971862
0.971858
0.971862
0.971861
0.971968
0.971935
0.971858
0.971847
0.971857
0.971863
0.971858
0.971856
0.971857
0.971947
0.971808
0.971865
0.971826
0.971822
0.971948
0.971846
0.971846
0.971799
0.971757
0.971757
0.971801
0.971869
0.971848
0.971949
0.97176
0.971744
0.971744
0.971983
0.971782
0.971772
0.971849
0.971806
0.971838
0.971828
0.971819
0.971819
0.971839
0.97198
0.971845
0.971829
0.971819
0.971974
0.971777
0.971973
0.971817
0.971832
0.971882
0.971841
0.971839
0.971793
0.971835
0.971794
0.971846
0.97182
0.971776
0.971776
0.971951
0.971826
0.972015
0.972016
0.972015
0.971824
0.971987
0.972016
0.971863
0.972014
0.971792
0.971792
0.972015
0.971852
0.971971
0.972019
0.97197
0.97202
0.971971
0.971781
0.971955
0.971986
0.972013
0.97184
0.971814
0.971973
0.971839
0.972013
0.971833
0.971852
0.97202
0.971974
0.97202
0.971982
0.971848
0.971788
0.971744
0.971745
0.971829
0.971744
0.971744
0.971745
0.971755
0.971952
0.971776
0.971802
0.971789
0.971832
0.971754
0.971753
0.971788
0.971982
0.971854
0.97199
0.971977
0.971969
0.971761
0.971761
0.971763
0.971763
0.971761
0.971748
0.971767
0.971755
0.971748
0.971764
0.971764
0.971747
0.971747
0.971753
0.971766
P_ext 1 563 float
0.0192491
0.0192444
0.0192451
0.0192445
0.0192427
0.0192451
0.0192491
0.0192448
0.0192456
0.0192445
0.0192483
0.0192448
0.0192449
0.0192445
0.0192432
0.0192451
0.0192441
0.0192447
0.0192458
0.0192452
0.0192454
0.0192395
0.0192453
0.0192452
0.0192452
0.0192446
0.0192481
0.019245
0.019247
0.0192412
0.019245
0.019247
0.0192482
0.0192417
0.0192417
0.0192418
0.0192411
0.0192419
0.0192449
0.0192482
0.019247
0.019241
0.0192411
0.019245
0.0192477
0.019247
0.0192457
0.0192456
0.0192451
0.0192472
0.0192471
0.0192466
0.0192427
0.0192467
0.0192428
0.0192479
0.0192417
0.0192466
0.0192417
0.0192452
0.0192441
0.0192437
0.0192481
0.0192437
0.0192436
0.0192442
0.019244
0.0192447
0.0192453
0.0192443
0.0192427
0.0192427
0.019247
0.019244
0.0192452
0.0192483
0.0192433
0.0192442
0.0192446
0.0192464
0.0192474
0.0192425
0.0192438
0.0192474
0.0192469
0.0192478
0.019245
0.0192441
0.0192477
0.0192398
0.0192466
0.0192398
0.0192431
0.0192442
0.0192466
0.0192471
0.0192474
0.0192445
0.0192433
0.019245
0.0192461
0.0192469
0.0192474
0.0192447
0.0192445
0.0192446
0.0192437
0.019245
0.0192475
0.0192441
0.0192452
0.0192476
0.0192475
0.0192447
0.0192446
0.0192467
0.0192417
0.0192475
0.0192417
0.0192466
0.0192459
0.0192433
0.0192444
0.019244
0.0192441
0.0192431
0.0192419
0.0192445
0.0192474
0.0192466
0.0192426
0.0192444
0.0192438
0.0192444
0.0192469
0.0192416
0.0192477
0.0192449
0.0192437
0.0192416
0.0192468
0.0192446
0.0192458
0.0192445
0.0192475
0.0192446
0.0192446
0.0192451
0.0192451
0.0192462
0.0192455
0.0192443
0.0192469
0.0192449
0.0192445
0.0192444
0.0192444
0.0192469
0.0192468
0.0192449
0.0192455
0.0192469
0.0192477
0.019247
0.0192468
0.0192446
0.0192468
0.0192469
0.019247
0.0192468
0.0192431
0.0192466
0.0192471
0.0192443
0.0192466
0.0192438
0.0192431
0.0192447
0.0192427
0.0192446
0.019247
0.0192446
0.0192445
0.0192468
0.0192441
0.0192471
0.0192441
0.0192438
0.0192431
0.0192445
0.0192441
0.0192474
0.0192466
0.019247
0.0192444
0.0192448
0.0192447
0.0192439
0.0192443
0.0192443
0.0192443
0.0192457
0.0192464
0.0192439
0.019247
0.0192438
0.0192442
0.0192469
0.0192435
0.0192443
0.0192435
0.0192445
0.0192446
0.0192438
0.0192462
0.0192444
0.0192464
0.0192438
0.0192441
0.0192441
0.0192441
0.0192442
0.0192442
0.0192442
0.0192444
0.0192432
0.0192432
0.0192432
0.0192432
0.0192427
0.0192427
0.0192462
0.0192444
0.0192444
0.0192456
0.0192432
0.0192431
0.0192443
0.0192464
0.0192444
0.0192445
0.0192462
0.0192435
0.0192462
0.0192438
0.0192444
0.0192462
0.0192464
0.0192474
0.0192472
0.0192438
0.0192476
0.019245
0.0192464
0.0192457
0.0192444
0.0192441
0.019241
0.0192441
0.0192476
0.0192464
0.0192444
0.0192447
0.0192464
0.0192441
0.0192458
0.0192411
0.0192464
0.019244
0.0192441
0.0192447
0.0192432
0.0192441
0.0192427
0.0192449
0.0192477
0.0192478
0.0192429
0.0192454
0.0192447
0.0192463
0.0192434
0.0192444
0.0192464
0.0192443
0.0192461
0.0192446
0.0192462
0.0192464
0.0192404
0.019243
0.0192431
0.0192431
0.0192445
0.0192461
0.0192418
0.0192442
0.0192455
0.0192461
0.0192463
0.019243
0.0192462
0.0192431
0.0192462
0.0192477
0.0192461
0.0192475
0.0192438
0.0192462
0.0192404
0.0192462
0.0192439
0.0192462
0.019244
0.0192462
0.0192451
0.0192482
0.0192451
0.0192462
0.0192429
0.0192462
0.0192454
0.0192441
0.0192444
0.0192462
0.0192461
0.0192458
0.0192438
0.0192461
0.0192447
0.019245
0.0192428
0.0192461
0.0192459
0.0192454
0.0192459
0.0192462
0.0192458
0.0192435
0.0192448
0.0192459
0.0192462
0.0192446
0.0192446
0.0192461
0.0192428
0.0192485
0.019245
0.0192474
0.0192454
0.0192497
0.0192497
0.0192496
0.0192496
0.0192496
0.0192498
0.0192498
0.0192437
0.0192421
0.0192448
0.0192454
0.0192457
0.0192459
0.0192446
0.0192458
0.0192459
0.0192421
0.0192458
0.0192435
0.0192466
0.0192433
0.0192451
0.0192455
0.0192459
0.0192429
0.0192451
0.0192455
0.0192451
0.0192454
0.0192458
0.0192464
0.0192455
0.0192451
0.0192435
0.0192457
0.0192459
0.0192458
0.0192455
0.0192451
0.0192446
0.0192457
0.0192446
0.0192451
0.0192455
0.0192447
0.0192451
0.0192458
0.019244
0.0192454
0.0192422
0.0192477
0.0192438
0.0192435
0.0192451
0.0192455
0.0192442
0.0192485
0.0192451
0.0192455
0.0192482
0.0192405
0.0192405
0.019245
0.0192458
0.0192454
0.0192457
0.0192392
0.0192392
0.0192447
0.0192447
0.0192447
0.0192486
0.0192458
0.0192439
0.0192456
0.0192457
0.0192455
0.0192485
0.019244
0.0192458
0.0192451
0.0192451
0.0192456
0.0192455
0.0192456
0.0192456
0.0192482
0.0192475
0.0192455
0.0192451
0.0192455
0.0192457
0.0192455
0.0192454
0.0192454
0.0192478
0.0192433
0.0192457
0.0192443
0.019244
0.0192478
0.0192451
0.0192451
0.0192427
0.0192404
0.0192404
0.0192429
0.0192459
0.0192451
0.0192478
0.0192405
0.0192394
0.0192394
0.0192485
0.0192418
0.0192412
0.0192452
0.0192432
0.0192449
0.0192444
0.0192439
0.0192439
0.0192447
0.0192485
0.0192451
0.0192443
0.0192439
0.0192484
0.0192415
0.0192483
0.0192439
0.0192445
0.0192462
0.019245
0.0192448
0.0192425
0.0192447
0.0192425
0.0192451
0.019244
0.0192413
0.0192413
0.0192478
0.0192443
0.0192492
0.0192492
0.0192492
0.0192441
0.0192486
0.0192492
0.0192457
0.0192492
0.0192424
0.0192425
0.0192492
0.0192453
0.0192483
0.0192493
0.0192483
0.0192493
0.0192483
0.0192418
0.0192479
0.0192486
0.0192491
0.0192448
0.0192437
0.0192483
0.0192448
0.0192491
0.0192446
0.0192453
0.0192493
0.0192483
0.0192493
0.0192485
0.0192452
0.0192422
0.0192395
0.0192396
0.0192444
0.0192395
0.0192395
0.0192395
0.0192401
0.0192479
0.0192415
0.0192429
0.0192421
0.0192445
0.01924
0.01924
0.0192421
0.0192485
0.0192454
0.0192487
0.0192484
0.0192482
0.0192406
0.0192407
0.0192407
0.0192407
0.0192406
0.0192396
0.0192408
0.0192399
0.0192394
0.0192406
0.0192406
0.0192394
0.0192396
0.0192399
0.0192407
FIELD solute_flux_TPM 2
S_ext 3 563 float
-5.31592e-05 1.778e-05 -4.66637e-19
2.34262e-06 4.47178e-06 1.88888e-19
-8.27064e-06 -6.56092e-06 -6.33334e-18
-2.72594e-06 2.75105e-06 2.6703e-20
1.51785e-05 -4.34337e-06 -5.12334e-19
1.79213e-06 -1.03179e-05 -1.56512e-19
-5.23473e-05 -1.79963e-05 6.30473e-19
-9.04962e-06 -6.71868e-06 -8.31269e-19
1.43751e-05 6.124e-07 -1.48759e-18
7.48777e-06 -2.64257e-06 5.03994e-19
3.5401e-05 8.242e-06 -2.17007e-18
1.49999e-06 -1.11949e-05 -3.21283e-19
8.94454e-06 7.27251e-06 1.16897e-18
1.76537e-06 8.96023e-06 3.4828e-19
1.37614e-05 -2.02601e-06 -1.02065e-18
-1.04915e-05 -1.71054e-07 -1.16586e-18
1.85109e-06 9.24995e-06 -3.2035e-18
6.67029e-06 -1.60095e-06 1.84461e-18
6.40106e-06 1.11585e-05 2.77811e-21
-9.5596e-06 1.21107e-06 -8.28485e-19
-2.30457e-06 -1.37386e-05 5.04973e-19
2.86289e-05 4.03946e-05 1.93634e-18
1.02523e-05 1.04834e-06 1.66286e-19
7.33634e-06 -7.32887e-06 -4.31965e-18
-9.69952e-06 -2.15065e-06 -1.69139e-19
-4.1191e-07 -7.23005e-06 2.02848e-18
4.06243e-05 -3.17875e-06 -2.82792e-18
9.22473e-06 6.68379e-06 4.97589e-19
-1.60906e-05 -1.3066e-05 1.54869e-19
3.24309e-05 -8.58833e-06 1.00687e-20
-1.06723e-05 -3.94201e-06 2.84577e-18
3.43885e-06 -2.06332e-05 -2.09635e-18
3.04796e-05 -3.10662e-05 -1.41694e-18
-3.45796e-06 -2.77014e-05 -2.75124e-18
-1.95799e-05 2.4367e-05 -4.35368e-18
-2.57179e-05 -1.08455e-05 -1.37838e-18
2.15043e-05 2.81546e-05 6.86272e-19
-2.95899e-05 -5.79928e-06 3.38321e-19
9.4569e-06 -7.17571e-06 1.17979e-18
2.97773e-05 3.23719e-05 3.45297e-18
2.07751e-05 -9.09037e-06 -6.29355e-19
2.19301e-05 -2.70991e-05 -4.85942e-18
-1.25103e-05 -3.25208e-05 1.04742e-18
-1.02251e-05 4.14988e-06 3.17975e-18
1.95076e-05 -1.90801e-05 -4.74802e-19
-1.92712e-05 6.85066e-06 1.94103e-18
-2.64731e-06 -1.30829e-05 2.15498e-18
5.09329e-06 1.30465e-05 -1.82435e-18
-1.05651e-05 3.84219e-06 8.36688e-19
-1.15808e-05 1.82128e-05 1.61126e-19
2.09624e-05 9.87045e-06 3.30401e-19
1.89532e-05 -6.58145e-06 1.95895e-18
-1.03915e-05 1.04041e-05 3.20888e-19
-1.50082e-05 -1.30334e-05 4.06107e-18
-1.39911e-05 -3.43015e-06 1.37182e-18
-2.84316e-05 1.69345e-05 -3.01486e-18
-1.93839e-05 -2.50772e-05 -1.71307e-18
3.96038e-06 -1.96233e-05 -2.27299e-18
-3.14173e-05 4.29019e-06 -2.42876e-18
3.93483e-06 8.89195e-06 6.6629e-19
-3.62518e-06 -5.39418e-06 -3.3984e-19
-4.27695e-06 -1.18273e-05 -2.37978e-18
3.67053e-05 1.59947e-05 -9.44469e-19
6.14949e-06 1.19046e-05 3.39489e-19
8.157e-06 -9.4947e-06 6.99029e-19
-1.12872e-06 -1.35958e-05 1.04118e-20
3.081e-06 -5.77753e-06 2.54941e-18
-6.52009e-06 -3.63561e-06 2.51614e-18
-6.88614e-06 7.65755e-06 -3.48575e-18
1.66973e-06 -2.76376e-06 3.42068e-19
-9.96118e-06 -1.04653e-05 -1.52535e-18
-1.41112e-05 3.43916e-06 -1.03021e-18
-2.46906e-06 2.19772e-05 -2.57655e-18
-1.16965e-05 7.0097e-06 1.52186e-18
-5.88418e-06 9.38396e-06 -1.15256e-18
-3.79168e-05 4.71836e-06 4.22106e-18
5.22381e-06 -1.42614e-05 -3.39797e-18
-1.23723e-05 -5.73849e-06 -3.03205e-18
1.23959e-06 7.57859e-06 5.05293e-19
1.7063e-05 3.27524e-06 -9.7074e-19
2.19766e-05 -1.87257e-05 -1.76087e-18
1.47437e-05 1.35588e-05 2.74381e-18
7.95115e-06 -1.94769e-06 8.46237e-19
-2.04624e-05 1.4997e-05 1.12742e-18
2.44447e-05 3.13492e-06 -3.87559e-18
-3.52555e-06 3.1404e-05 1.57886e-18
-1.13435e-06 -1.09244e-05 1.17567e-18
1.20088e-05 6.51337e-06 3.20151e-18
1.87614e-05 1.96479e-05 -6.31784e-19
4.25338e-05 2.64416e-05 -5.81236e-18
-3.49011e-06 1.97202e-05 1.6472e-19
4.4428e-05 -2.49671e-05 -1.77733e-19
-1.7957e-05 3.45734e-06 -6.7799e-19
1.18078e-05 7.30881e-06 6.61702e-19
-1.88396e-05 6.27375e-06 -8.0994e-19
1.0625e-05 1.84346e-05 -1.59369e-19
6.31889e-06 -2.83496e-05 -2.56121e-18
1.25138e-06 7.57468e-06 2.01787e-18
-9.67099e-06 -1.16255e-05 -1.70633e-18
1.96886e-06 1.13351e-05 -2.17392e-18
1.7098e-05 3.42343e-06 3.45704e-21
-9.93208e-06 2.11239e-05 -6.48185e-19
2.61051e-05 -8.70463e-06 -1.56557e-19
-2.47315e-06 4.80296e-06 -8.12397e-19
6.57849e-06 3.81717e-06 -2.52044e-18
-1.45097e-06 -7.35225e-06 -1.1598e-18
2.16616e-06 -1.26855e-05 1.88142e-19
1.1413e-05 2.55791e-06 3.00205e-18
-5.27703e-06 2.62324e-05 -1.7578e-18
-6.49607e-06 1.14856e-07 -1.50134e-18
6.09685e-06 7.71345e-06 1.62385e-19
-1.73065e-06 -2.67391e-05 -3.65102e-18
2.70732e-05 8.40685e-06 -3.14548e-19
2.92374e-06 -4.83288e-06 2.18887e-18
-7.20229e-06 -2.32975e-06 1.67836e-18
-1.861e-05 -7.92081e-06 1.62186e-18
1.06278e-05 2.77492e-05 1.21615e-18
-2.735e-05 -9.74597e-06 1.75813e-18
1.07762e-05 -2.78231e-05 1.72953e-19
-2.41582e-06 -2.04367e-05 -2.11705e-18
1.42006e-05 3.89316e-07 -1.31634e-18
-4.74402e-06 1.2217e-05 1.0227e-18
-1.05251e-06 2.57551e-06 -2.18118e-18
-2.46243e-06 -1.08621e-05 1.70141e-18
3.47152e-06 -5.60265e-06 2.69923e-18
6.21051e-06 1.0467e-05 1.18494e-18
2.23271e-05 7.29707e-06 -1.56174e-18
5.73837e-06 -4.82957e-06 -1.17031e-18
-5.41637e-06 -2.86941e-05 -3.05202e-18
1.65081e-05 -1.21684e-05 -1.29634e-18
3.30507e-06 1.84058e-05 4.10194e-18
-1.81328e-06 -1.86843e-06 -8.40879e-19
-5.70346e-06 -5.46502e-06 3.22696e-18
-3.13805e-06 6.81542e-08 1.35407e-18
-1.46106e-05 1.80362e-05 -2.59432e-18
1.2919e-05 -2.49893e-05 -3.10268e-18
-1.70543e-05 2.69563e-05 7.99204e-19
-1.0565e-05 6.16393e-06 1.68096e-18
1.65345e-06 8.15694e-06 -1.52569e-18
-1.51529e-05 -2.36643e-05 2.25564e-18
8.85965e-06 2.14789e-05 1.13879e-18
1.15602e-05 6.05871e-06 3.19022e-18
1.48021e-05 -5.59403e-06 6.77658e-21
-8.32594e-07 -7.3449e-06 6.83341e-19
-2.14801e-05 -1.97542e-05 1.5972e-18
-1.76372e-06 7.35399e-06 3.37515e-18
1.13588e-05 6.70397e-06 3.35182e-18
1.23565e-05 -5.84186e-06 -3.32541e-19
5.41376e-06 -9.28951e-06 -3.32643e-18
1.57978e-05 -7.00256e-06 -1.30646e-18
1.24035e-05 -5.87351e-06 3.36466e-19
3.12788e-06 2.02702e-07 1.52177e-18
1.65579e-05 1.31084e-05 -1.58485e-19
-1.73415e-06 -1.10145e-05 -2.16422e-18
-6.84563e-06 -2.84601e-06 -3.35425e-18
7.58971e-07 -2.52819e-06 2.37396e-18
-2.11411e-06 1.03437e-05 1.85316e-18
-2.20349e-05 1.74168e-06 -2.11203e-18
-7.7911e-06 -2.11387e-05 -8.08968e-19
-5.1201e-06 6.30385e-06 -4.78941e-19
8.80259e-06 1.07448e-05 1.65518e-19
1.7086e-05 -1.21857e-05 9.71601e-19
-2.3426e-05 -1.27018e-05 -1.55082e-19
1.1106e-05 -1.78043e-05 -4.76826e-19
1.46434e-05 -1.75338e-05 -2.58995e-18
-7.0825e-06 2.503e-06 4.02556e-18
-1.26618e-05 -1.82227e-05 -4.82938e-19
-2.20165e-05 -3.66411e-06 -1.46446e-18
-2.65764e-06 -2.02677e-05 -2.73917e-18
9.83094e-06 -2.03488e-05 -3.20273e-19
-6.06482e-06 -1.73176e-05 -5.00414e-19
2.8197e-06 2.01214e-05 -1.30151e-18
-1.02238e-05 -1.81136e-05 -1.60712e-18
1.99022e-06 -1.06396e-05 1.36345e-18
-1.57856e-05 1.14892e-05 -4.89081e-19
-9.85893e-06 -7.99361e-06 -3.89803e-18
-1.80754e-05 -3.3489e-06 -1.0244e-18
1.03058e-05 -6.05539e-06 -1.33755e-18
-2.82952e-06 1.58479e-05 2.74168e-18
8.13006e-06 -6.08749e-06 6.80611e-19
-1.88092e-05 -8.24502e-06 1.2838e-18
-5.77156e-06 -4.80358e-06 9.25305e-21
6.01406e-06 4.87667e-06 -6.71199e-19
1.37606e-05 1.84724e-05 -6.44235e-19
-1.14008e-05 -7.07309e-06 -1.32418e-21
-2.06262e-05 -4.98779e-07 2.08079e-18
-1.07464e-05 -3.21178e-06 -1.68979e-19
-3.02307e-06 -1.08747e-05 1.70601e-18
1.18134e-05 1.42581e-05 5.2894e-18
-7.18104e-06 3.76115e-06 -9.8596e-19
4.55002e-07 -1.3448e-05 -8.29919e-19
-2.64787e-05 6.7922e-06 9.59805e-19
1.60621e-05 1.30607e-05 -1.94683e-18
2.32842e-06 2.10994e-05 -1.29101e-18
-1.5634e-06 2.51038e-06 2.84831e-18
-5.83732e-06 1.63293e-07 -1.20888e-21
2.86824e-06 5.02964e-06 2.34622e-18
-7.70871e-06 2.28617e-06 -2.71026e-18
-1.34469e-06 -2.45005e-06 1.5205e-18
1.13131e-06 1.35764e-05 -1.6473e-19
2.99752e-06 2.37389e-07 2.52398e-18
-1.25237e-05 3.02722e-06 2.47963e-18
-1.11508e-05 1.23222e-05 1.95517e-18
-2.01366e-06 7.6479e-06 2.36623e-18
-1.86568e-05 1.16286e-05 -3.2255e-18
-6.18943e-06 5.89692e-06 4.94503e-19
1.14495e-05 -7.77642e-06 1.75797e-19
2.36081e-05 -2.34809e-06 -1.28871e-18
-1.39503e-05 7.40168e-06 3.39939e-18
1.45349e-06 2.9865e-06 -1.17596e-18
1.45695e-05 -2.80707e-06 -4.08134e-18
-1.12583e-05 6.79735e-06 2.02074e-18
-6.39772e-06 3.62666e-06 1.17127e-18
7.94312e-06 2.57247e-06 -4.0523e-18
1.41531e-05 -8.77777e-06 2.30114e-18
-1.13438e-05 6.44441e-06 5.07502e-19
-1.59594e-05 -3.35568e-06 -8.1697e-19
-1.09864e-05 -2.81454e-06 1.70782e-19
6.64963e-06 6.83819e-08 -1.83926e-18
6.81085e-06 6.68776e-08 -2.87446e-21
2.91912e-06 5.46663e-06 -8.28507e-19
3.21434e-06 -5.78052e-06 2.88479e-18
-3.27615e-06 5.58144e-06 1.84186e-18
-3.43122e-06 -5.71073e-06 1.3415e-18
6.51673e-06 -4.94567e-06 -3.3141e-19
-1.347e-05 2.16804e-06 -2.38957e-18
-1.33183e-05 -2.21051e-06 2.04256e-18
-8.52043e-06 1.05189e-05 -2.21011e-20
-8.56821e-06 -1.05592e-05 2.5763e-18
4.97767e-06 -1.33633e-05 3.48836e-19
4.79579e-06 1.32498e-05 1.71538e-18
9.59887e-07 1.66768e-05 6.59516e-19
7.46659e-06 -1.97797e-06 -1.54642e-19
1.61336e-06 -2.50722e-06 8.47078e-19
-1.36766e-05 9.24075e-07 -1.32441e-18
5.13749e-06 -1.31484e-05 2.21993e-18
4.86806e-06 1.31956e-05 -3.92148e-18
3.15355e-06 -5.85473e-08 7.90313e-22
5.73254e-06 1.57597e-05 -1.30629e-18
-1.46732e-06 -2.61439e-06 2.20222e-18
1.52892e-06 -7.37957e-06 1.01631e-20
-1.43351e-05 -7.68619e-06 4.84351e-19
-1.40853e-05 -7.53532e-06 -1.19042e-18
-1.40268e-05 8.67797e-06 -4.8849e-19
2.13571e-06 -8.26033e-06 6.84368e-19
-1.04284e-06 2.18924e-06 -1.40688e-19
-4.66024e-07 -1.63992e-05 -4.42296e-18
-5.04141e-06 -1.56006e-05 -1.79379e-18
2.10335e-05 1.95861e-05 6.35357e-19
2.29616e-05 -1.18539e-06 -4.32403e-18
-8.39805e-06 -2.45082e-06 2.20588e-18
-1.46514e-05 -2.60932e-05 -2.72514e-18
5.42566e-06 8.90803e-06 4.99397e-19
-1.60854e-05 1.89814e-06 1.30608e-18
1.30688e-05 3.74644e-06 2.31457e-18
-2.95083e-06 -1.23931e-08 -8.43171e-19
-3.07344e-06 -5.53676e-06 1.01994e-18
-5.43445e-06 -2.58473e-05 -2.7719e-18
-6.41326e-06 -1.69035e-08 1.01177e-18
-3.0456e-05 -1.14299e-06 3.358e-18
1.11524e-05 -1.23932e-05 -5.86969e-18
1.64212e-06 2.59816e-06 -1.50726e-18
-8.20399e-08 -1.14007e-05 2.35735e-18
-6.40037e-06 1.53741e-05 9.82545e-19
-2.8921e-06 5.67848e-06 -2.6973e-18
1.33658e-05 -8.82225e-06 -1.31247e-18
-2.5098e-05 -8.19773e-06 -1.21094e-18
-9.82977e-06 -1.29777e-05 3.27387e-19
3.30601e-06 5.61256e-06 3.70413e-18
1.10682e-05 3.3065e-06 1.51996e-18
-3.09082e-06 -4.73107e-06 -4.90495e-19
1.33036e-05 2.4336e-06 -3.22631e-18
1.20803e-05 -6.47158e-06 -1.00646e-18
-2.45225e-07 1.79352e-05 2.55706e-18
5.45175e-06 -8.86304e-06 -1.49531e-18
3.14726e-05 1.34139e-06 -2.54171e-18
-2.67391e-05 6.96534e-06 -9.4994e-19
1.53294e-05 7.64843e-06 2.38775e-18
-4.16728e-06 -1.10285e-05 -1.98843e-18
-9.96287e-06 -5.56102e-06 6.74013e-19
1.8618e-05 -1.53507e-07 -8.05886e-19
-4.81693e-07 -1.60111e-05 -4.57918e-18
-8.17606e-06 -7.14071e-06 2.52726e-18
6.55201e-06 -1.51888e-05 -7.50002e-18
-3.71851e-07 1.34361e-05 -1.34238e-18
5.03793e-06 1.67652e-05 -3.11663e-18
1.13776e-05 -6.53631e-06 -6.67674e-19
-1.21525e-05 1.22338e-05 -1.14416e-18
1.06394e-05 1.29662e-05 -6.4913e-19
-4.32655e-05 1.03188e-05 1.39473e-18
-6.73777e-06 1.7196e-05 3.22494e-18
8.31169e-06 -1.00822e-05 3.62231e-19
-4.61974e-06 -1.21659e-05 1.5371e-18
-7.76178e-06 2.86771e-06 -2.84273e-18
-1.64647e-05 -4.49931e-06 1.47216e-18
-4.4627e-06 2.60374e-05 3.28567e-19
-8.20372e-06 7.86542e-06 2.69263e-18
1.35295e-05 -2.97678e-06 9.95206e-19
-4.421e-06 -1.65137e-05 2.9554e-18
-9.55126e-06 1.52035e-05 1.9733e-18
-1.43695e-05 8.28192e-06 -2.73799e-18
-1.31629e-05 -9.59429e-06 4.92766e-19
1.20581e-05 -1.39304e-05 -1.70512e-19
-1.74752e-05 -9.27862e-07 6.56129e-19
7.69359e-06 -2.63546e-05 -3.16208e-18
1.25481e-05 -1.22147e-05 -2.45849e-18
1.57437e-05 2.7656e-05 4.83753e-19
1.29547e-06 1.30648e-05 2.3728e-18
1.87571e-06 -1.63814e-05 -3.44029e-18
-2.81433e-05 3.30409e-05 3.48181e-19
-8.1465e-06 -1.55473e-05 -9.83155e-19
1.0947e-05 -4.22027e-06 -2.52863e-18
-1.64565e-06 1.65119e-05 1.69877e-19
8.5349e-06 -7.95955e-06 5.10269e-19
8.92333e-06 1.56489e-05 -2.4533e-18
1.12454e-05 -9.60905e-07 4.96089e-19
1.37747e-05 -4.03349e-05 1.88505e-18
-3.79903e-06 -8.29408e-06 -4.8981e-19
-1.48144e-05 6.36345e-06 1.47578e-18
-1.32535e-05 1.23999e-05 -5.75016e-21
1.39673e-05 9.45058e-06 -9.74851e-19
1.21709e-05 -7.04818e-06 -9.88477e-19
9.85379e-06 8.36561e-06 6.69017e-19
-3.5938e-06 -1.93432e-08 -4.83946e-19
9.91342e-06 -1.48755e-05 -5.40944e-18
-1.0886e-05 -1.29557e-05 -2.63049e-18
1.46332e-05 6.36429e-06 1.68358e-19
8.49937e-06 -8.00357e-06 -5.06169e-19
6.10218e-06 -1.59933e-05 -2.29445e-18
1.09275e-05 -4.64149e-06 -1.33738e-18
-1.0207e-05 -4.86859e-06 9.97152e-19
8.81612e-07 -1.73498e-05 -2.38989e-18
-1.66087e-05 2.85993e-06 1.15486e-18
1.467e-06 1.5792e-05 -1.47282e-18
1.34026e-05 4.34322e-06 1.49733e-18
-1.38865e-05 -6.84907e-06 3.45834e-18
-5.78614e-06 1.63844e-05 -2.94659e-18
-9.70349e-07 -1.5571e-05 -1.31232e-18
1.29592e-05 7.87413e-06 2.71274e-18
-1.10566e-06 1.1765e-05 -2.49698e-18
-1.29268e-05 8.69066e-06 -2.14404e-18
1.52576e-05 7.37963e-06 1.80017e-18
-1.10785e-05 -6.537e-06 6.70492e-19
1.23082e-07 -1.29214e-05 -1.50079e-18
1.18877e-05 1.28875e-05 2.96007e-18
-1.45726e-05 -9.42644e-06 -6.84024e-19
3.11351e-05 -2.22767e-05 2.16839e-18
1.17484e-05 -7.06045e-06 -9.99064e-19
5.55897e-06 2.75465e-05 1.11741e-18
1.11362e-05 -8.87041e-06 -1.48878e-18
-1.44869e-05 5.58818e-05 -1.62565e-18
-1.45622e-05 -5.53503e-05 -3.41938e-18
3.63773e-05 4.75489e-05 -4.40049e-19
3.59399e-05 -4.75372e-05 1.78096e-18
5.93947e-05 -2.91884e-08 -4.61508e-19
-5.11078e-05 2.0709e-05 5.92073e-19
-5.02788e-05 -2.09252e-05 -3.26412e-18
8.12734e-06 7.86612e-06 2.70624e-18
1.97358e-05 1.47004e-05 1.90321e-18
7.50169e-06 2.19341e-06 -1.51347e-18
1.23147e-05 6.33299e-06 6.64576e-19
3.20146e-06 1.30507e-05 -2.63568e-18
-1.20875e-05 -9.51505e-06 -6.63115e-19
1.12869e-05 -6.66628e-06 5.12476e-19
1.29083e-05 9.40722e-06 1.64983e-18
-2.05604e-06 1.568e-05 -2.12963e-18
1.98333e-05 -1.34971e-05 -4.83583e-18
2.38146e-06 -1.52896e-05 -3.62212e-18
1.46506e-05 3.3659e-06 1.18945e-18
1.92841e-05 7.16473e-06 4.93866e-19
9.42383e-06 9.34251e-06 3.30019e-19
1.03948e-05 4.31426e-06 5.00197e-19
-1.19171e-05 7.02413e-06 -2.15293e-18
-1.44348e-05 5.78637e-06 4.97868e-19
1.53925e-05 -7.50111e-06 -4.79112e-18
-1.17737e-05 -6.46474e-06 1.32921e-18
-1.19434e-05 -6.75748e-06 -2.50051e-18
-2.03099e-07 -1.34628e-05 -1.32602e-18
-9.93391e-08 -1.36622e-05 3.39256e-19
-1.28822e-05 -6.48567e-07 -9.89874e-19
1.73179e-05 -2.62621e-06 -2.27769e-18
1.17939e-05 7.39317e-06 2.98589e-18
-1.15643e-05 7.00744e-06 -2.3316e-18
-1.00592e-05 1.09784e-05 1.35792e-18
1.04099e-05 -8.9534e-06 -2.79996e-18
-7.14132e-06 1.1176e-05 -2.30212e-18
-9.15806e-06 -9.52789e-06 -3.63319e-18
-7.96271e-07 1.36701e-05 -4.46171e-18
-8.14457e-07 1.35906e-05 -3.32418e-18
2.91836e-08 -1.29249e-05 8.41119e-21
3.94434e-06 -1.27714e-05 -3.2171e-19
-1.11489e-05 -6.41315e-06 -1.34526e-18
1.01897e-05 -3.61852e-06 -1.66543e-19
4.17939e-07 1.3894e-05 -1.48224e-18
1.74879e-07 1.20248e-05 -1.5625e-19
-1.5377e-06 1.08859e-05 -6.50559e-19
1.42328e-05 -3.60174e-06 3.31937e-19
-1.09129e-05 3.44983e-06 -1.17551e-18
2.63803e-06 1.39071e-05 1.00498e-18
-2.16868e-05 8.49855e-06 -1.72423e-18
6.0382e-06 2.69259e-05 1.74857e-18
-1.12113e-05 2.94705e-06 -2.70518e-18
1.31514e-05 -7.78529e-06 -8.46387e-19
5.58863e-07 1.36216e-05 1.01273e-18
-1.3119e-05 4.32232e-06 2.99557e-18
1.62526e-06 -1.06134e-05 -3.25407e-19
5.8933e-07 -3.72909e-05 6.0379e-19
1.28745e-06 1.13579e-05 2.00319e-18
-1.09534e-05 8.93973e-06 -1.82243e-18
1.11023e-05 4.08564e-05 1.58554e-19
3.15041e-05 2.61292e-05 -2.44676e-18
3.61172e-05 -2.47111e-05 -1.7588e-18
9.72345e-06 -6.65195e-06 6.75611e-19
-1.01844e-05 8.97832e-06 -1.15091e-18
-1.29569e-05 -5.11237e-06 3.16049e-19
-1.25935e-05 -4.35052e-06 1.47897e-18
4.442e-05 -1.22066e-05 4.07946e-18
4.53096e-05 9.5279e-06 -4.08609e-18
7.13792e-06 2.50456e-06 -2.68585e-18
4.42581e-07 1.27465e-05 1.74569e-19
5.24847e-08 1.27387e-05 2.69123e-18
-3.10621e-05 -2.27325e-05 -4.66368e-19
7.39635e-06 -1.11328e-05 -4.77549e-18
7.77742e-06 8.33439e-06 5.03506e-19
-1.36811e-05 -2.19448e-06 1.15945e-18
-9.05616e-06 1.09762e-05 -3.23587e-19
-1.21494e-05 5.85168e-06 1.69865e-19
3.07478e-05 2.20547e-05 2.0197e-18
1.04913e-05 4.63222e-06 3.36596e-19
-3.64073e-06 1.2857e-05 -1.1433e-18
-1.09984e-05 -7.52143e-06 1.33395e-18
1.15804e-06 -1.33264e-05 2.6788e-18
-5.75095e-06 -1.23684e-05 -1.15265e-18
-1.10971e-05 -7.54989e-06 1.67264e-19
6.83802e-06 -1.22309e-05 6.69382e-19
9.19467e-06 -1.09779e-05 -2.81138e-18
-1.89646e-06 -3.90247e-05 -1.88824e-18
1.66558e-05 -2.64146e-05 6.39222e-19
1.12611e-06 -1.3445e-05 1.16931e-18
1.17772e-05 7.36778e-06 3.16879e-18
-9.34931e-06 -9.51344e-06 -3.14923e-18
-6.34264e-06 1.26291e-05 -4.87469e-19
-3.2435e-06 1.35314e-05 -3.30408e-18
1.0852e-05 9.20414e-06 5.01115e-19
3.88626e-06 -1.2846e-05 8.74148e-21
-8.94084e-06 -2.56056e-05 -7.96541e-19
-1.36175e-06 1.65405e-05 2.88137e-18
9.60203e-06 9.38138e-06 2.47628e-18
-8.41623e-06 -6.67241e-06 8.43918e-19
-8.84402e-06 6.94505e-06 5.23087e-18
2.86549e-05 -1.23118e-05 -2.37123e-18
4.92108e-06 -8.68718e-06 -2.32826e-18
-5.39928e-06 -8.10789e-06 -2.15937e-18
1.43251e-05 4.37711e-06 -1.88213e-18
8.81753e-06 -3.18101e-05 -3.66002e-18
-2.31448e-05 -2.35208e-05 2.45665e-18
1.56182e-05 4.08407e-06 -6.83532e-19
-6.03333e-06 -1.17053e-05 -4.11734e-18
1.22332e-05 6.23173e-06 1.16294e-18
-1.84417e-05 -2.04806e-05 8.85553e-22
7.14098e-06 3.23426e-05 1.65258e-19
3.13437e-05 -4.04843e-05 -4.59019e-18
-1.93906e-05 -4.73763e-05 -7.00719e-19
1.73791e-05 -3.3968e-05 3.86825e-18
-8.40784e-06 2.88912e-05 2.59649e-18
-4.7937e-06 2.5584e-05 1.89604e-18
-1.20915e-05 5.80209e-06 -1.32589e-18
4.0079e-06 1.59896e-05 2.55021e-18
-1.54966e-06 8.17373e-06 -6.5154e-19
6.66411e-06 2.15046e-06 2.85545e-18
-2.14142e-06 1.06566e-05 1.34555e-18
-1.58016e-07 1.3778e-05 4.90653e-18
1.09473e-05 6.38212e-06 -2.51894e-18
5.44787e-07 3.71144e-05 3.1229e-19
-9.54341e-06 6.86403e-06 -4.50154e-18
1.05551e-05 -4.05679e-06 3.55221e-18
1.1293e-05 -2.90888e-06 -1.68202e-18
-3.80436e-05 -5.46964e-06 -1.56455e-18
-2.29304e-05 1.09122e-05 1.72555e-18
-2.76061e-05 -3.27341e-05 7.90287e-19
5.71643e-06 5.46994e-06 -3.55145e-18
9.34049e-06 4.84863e-06 -5.09276e-19
1.73516e-05 -2.77492e-06 -3.92991e-18
-5.23935e-06 -8.52832e-06 -2.66608e-18
1.12906e-05 5.57096e-06 2.17227e-18
4.88193e-06 -1.99101e-05 -3.24165e-18
-8.9738e-06 6.55995e-06 -1.66372e-18
-1.47953e-05 -1.41804e-05 -2.22875e-18
-3.76071e-06 1.05217e-05 -9.84076e-19
-2.20865e-06 1.35735e-05 2.70097e-18
2.29072e-05 1.42252e-05 1.56627e-18
2.4424e-05 -1.29583e-05 -3.65463e-18
-2.65854e-05 -7.15825e-06 -3.18182e-19
5.01011e-06 5.10564e-06 2.01536e-18
-3.10816e-06 6.48678e-05 9.26762e-19
-1.05012e-08 -6.66316e-05 9.30545e-19
3.2842e-05 5.62042e-05 2.32443e-18
-1.25523e-05 5.46109e-06 -3.313e-19
-1.76218e-05 3.55836e-05 7.83479e-21
3.30441e-05 -5.4248e-05 1.69565e-18
-7.54889e-06 -1.16761e-05 -5.463e-18
5.02456e-05 4.37392e-05 2.47108e-18
1.5949e-05 -1.18568e-05 -1.01561e-18
-2.3113e-06 -1.97299e-05 -6.83827e-19
5.26462e-05 -4.27694e-05 1.85569e-18
-4.38425e-06 9.34172e-06 -1.64395e-18
-3.37458e-05 -2.14372e-05 -2.51251e-18
-2.77826e-05 -5.80104e-05 -1.85301e-18
-1.57321e-05 -3.67328e-05 2.97732e-18
-2.85624e-05 5.89606e-05 3.09817e-19
-6.7636e-06 4.08146e-05 1.60819e-19
1.0689e-05 2.47998e-05 1.54146e-18
-1.81176e-05 2.32808e-05 2.83671e-18
-1.68624e-05 -3.46414e-05 -9.31589e-19
6.46452e-05 1.13434e-05 -2.78554e-18
-1.10201e-05 6.90689e-06 -2.84534e-18
-3.92809e-06 1.072e-05 2.02519e-18
-3.20052e-05 2.30478e-05 9.4687e-19
-1.1216e-05 6.44232e-06 -2.34363e-18
6.40085e-05 -1.01136e-05 1.07665e-18
-1.00156e-05 5.02364e-06 -8.33923e-19
4.69037e-06 -9.40909e-06 -3.81605e-18
-4.97013e-05 -3.78718e-05 -5.55232e-18
-1.69487e-05 3.67644e-05 1.10217e-18
-5.08854e-05 3.76011e-05 2.77436e-18
1.53725e-05 3.38417e-05 1.51835e-19
-9.57957e-06 6.80017e-06 -3.26064e-19
-1.3551e-05 1.62965e-05 1.72064e-18
-2.41696e-05 3.03575e-05 -3.58987e-19
-3.78987e-05 -4.88672e-06 5.26228e-19
-6.41072e-07 1.0648e-05 1.34486e-18
-2.55995e-05 -3.04851e-05 -3.52971e-18
-3.92124e-05 6.93347e-06 5.33582e-19
-1.49366e-05 3.4645e-05 3.00949e-18
-1.1527e-05 4.61127e-05 -5.42519e-19
-1.18195e-05 2.621e-05 2.84001e-18
-2.23548e-05 1.80127e-05 4.49941e-18
1.64119e-05 -4.03079e-06 -3.42076e-18
2.56591e-05 -1.37414e-06 -3.46362e-18
8.88737e-06 5.41732e-06 1.50901e-18
-8.0987e-06 -5.30569e-05 -6.85177e-19
-5.00076e-05 -1.95015e-05 -8.69414e-19
2.49854e-05 3.21895e-07 2.77257e-18
3.78572e-05 -7.3088e-06 -4.61325e-19
-6.82673e-06 -8.66686e-06 -1.32041e-18
-3.28444e-05 2.30942e-05 2.78572e-18
-2.9435e-05 3.37196e-05 3.93893e-18
4.00189e-05 -1.44191e-05 3.21232e-19
-1.86852e-05 -3.16594e-05 -3.26218e-19
-1.90193e-05 3.14144e-05 -1.75711e-18
-3.69003e-05 -1.3075e-06 1.55656e-18
-1.67822e-05 3.30094e-05 1.2234e-18
-3.67837e-05 3.82226e-07 -5.26139e-19
4.57589e-05 1.63858e-05 -4.07472e-18
3.69307e-05 1.36012e-06 -4.71458e-18
3.47224e-05 -1.7789e-05 -3.62827e-19
1.01294e-05 -4.88117e-05 5.27047e-19
1.83505e-05 -3.19684e-05 2.08936e-18
1.82259e-05 3.19646e-05 1.77724e-19
9.91977e-06 4.76936e-05 -2.47859e-18
4.99717e-05 -1.40914e-05 -1.7491e-18
3.20356e-05 1.58674e-05 -8.78793e-19
3.07876e-05 8.41129e-06 3.84663e-18
P_ext 3 563 float
-1.03935e-06 3.51424e-07 -6.46236e-20
9.83245e-10 3.84894e-08 7.88083e-20
-9.57614e-08 -9.00554e-08 -6.53076e-20
-3.02925e-08 2.79617e-08 7.87856e-20
2.64219e-08 5.06705e-10 -4.27302e-20
3.15172e-08 -1.27909e-07 -1.53399e-20
-1.02331e-06 -3.55676e-07 -3.5653e-20
-7.50739e-08 -8.5168e-08 -1.55674e-20
2.08847e-07 3.69902e-09 -3.87042e-20
7.62466e-08 -7.1613e-09 1.04846e-20
6.76538e-07 1.58572e-07 3.86322e-20
3.71812e-08 -1.0884e-07 -1.02078e-20
8.52045e-08 1.01425e-07 1.83165e-20
-8.77939e-09 7.94505e-08 3.95273e-20
2.38652e-08 8.84452e-09 -5.83842e-20
-1.33505e-07 -2.18547e-09 -2.86598e-20
-1.6682e-08 5.23549e-08 1.80687e-20
8.04785e-08 -1.21427e-08 -2.84106e-20
9.24403e-08 1.6486e-07 -3.06853e-20
-1.2402e-07 1.25066e-08 -3.88399e-20
-4.65602e-08 -1.75661e-07 1.56261e-20
1.53662e-09 3.09584e-10 4.95084e-20
1.37361e-07 1.11831e-08 -2.32315e-20
8.74484e-08 -1.0097e-07 -5.72059e-20
-1.2669e-07 -2.04e-08 -1.56039e-20
-2.38835e-08 -6.93278e-08 -2.09934e-21
7.77766e-07 -6.36251e-08 3.40824e-20
9.52811e-08 8.03299e-08 -1.81605e-20
-2.8457e-07 -2.26046e-07 -6.27532e-20
1.67184e-08 3.14628e-09 -4.84381e-20
-1.27206e-07 -2.26521e-08 3.67187e-20
5.56162e-08 -3.6191e-07 -2.03177e-20
5.84459e-07 -5.98559e-07 -2.20946e-20
1.24398e-09 -2.74431e-08 1.61719e-20
-7.38428e-09 2.11049e-08 -1.03236e-19
-2.29085e-08 -1.50911e-08 -2.153e-20
3.03125e-09 1.51541e-08 -1.63625e-20
-2.31611e-08 3.94478e-09 1.60404e-20
9.20125e-08 -1.00075e-07 6.01147e-20
5.70321e-07 6.23786e-07 -2.24601e-21
3.64295e-07 -1.65049e-07 2.02234e-20
5.63238e-09 -1.38776e-08 4.84913e-20
-9.12264e-09 -1.21519e-08 -1.60386e-20
-1.26367e-07 2.59557e-08 -3.08034e-20
3.61429e-07 -3.5494e-07 -1.97867e-20
-3.36769e-07 1.2122e-07 -9.71577e-21
-4.25474e-08 -1.85663e-07 -5.87995e-20
7.67687e-08 1.86483e-07 -5.17496e-20
-1.21212e-07 3.16954e-08 -6.98383e-20
-2.08587e-07 3.24426e-07 -1.1081e-23
3.69736e-07 1.8107e-07 6.00151e-20
3.21045e-07 -1.05591e-07 2.88142e-21
-9.4558e-09 2.24736e-08 -7.24074e-20
-2.5124e-07 -2.25452e-07 2.56762e-20
-2.4653e-08 3.25606e-09 2.794e-21
-5.38874e-07 3.16457e-07 -4.95572e-20
-6.85663e-09 -2.10168e-08 -2.94004e-20
7.15425e-08 -3.31775e-07 -4.3233e-20
-2.14194e-08 -4.6669e-09 4.01901e-20
5.61281e-08 1.1254e-07 4.14498e-20
-2.99496e-08 -9.08597e-09 -7.9456e-21
-3.16223e-08 -2.97001e-08 -6.09846e-20
7.01269e-07 3.08741e-07 7.38683e-20
-6.05555e-10 6.12376e-08 6.60054e-20
9.46168e-09 -4.08578e-08 -4.44681e-20
1.59032e-08 -9.09035e-08 -5.22442e-20
-6.31349e-09 -2.97626e-08 -9.8708e-21
-7.27544e-08 -1.84881e-08 9.41293e-20
-8.4693e-08 1.03628e-07 1.27107e-20
2.27136e-08 -8.24585e-09 1.4913e-19
-9.32653e-09 -2.31208e-08 -7.7724e-21
-2.43832e-08 -3.57467e-09 2.38782e-20
-4.19804e-08 3.88931e-07 -3.2768e-20
-7.47202e-08 3.77407e-08 2.75272e-21
-7.24941e-08 1.23997e-07 5.33038e-21
-7.29239e-07 8.5716e-08 2.89237e-21
3.12346e-11 -5.77431e-08 -9.28657e-20
-7.01974e-08 -5.88167e-08 -5.00507e-20
2.95612e-08 7.21328e-08 6.27064e-20
2.79482e-07 5.58741e-08 -5.82609e-20
4.00563e-07 -3.48522e-07 3.46712e-20
1.09778e-08 2.68845e-08 2.74679e-21
2.7091e-08 8.40965e-09 1.06066e-20
-3.73233e-07 2.76134e-07 4.24396e-20
4.35666e-07 5.29666e-08 -3.81641e-20
-6.60349e-08 5.90503e-07 -2.36147e-21
-2.28921e-08 -1.18338e-07 -2.05062e-20
8.03554e-08 5.65953e-08 9.20996e-20
3.47647e-07 3.6662e-07 -3.9445e-20
6.29844e-09 2.79972e-09 -3.61849e-20
-6.70024e-08 3.3365e-07 -1.50461e-20
5.68929e-09 -3.04548e-09 -8.26181e-21
-4.02259e-08 2.74361e-08 2.12296e-20
8.68461e-08 3.53431e-08 -1.58593e-20
-3.21267e-07 9.93171e-08 -3.54836e-20
1.86466e-07 3.27653e-07 3.25607e-20
1.16004e-07 -5.23754e-07 4.71776e-21
2.7268e-08 7.14863e-08 4.46534e-20
-4.93354e-08 -2.93542e-08 -5.32052e-20
4.08818e-08 1.30747e-07 -3.39971e-20
2.7183e-07 4.62565e-08 2.82082e-20
-1.80452e-07 3.72803e-07 4.98127e-21
4.79698e-07 -1.56779e-07 1.74975e-20
-2.66184e-08 5.81159e-08 5.61914e-21
5.10149e-08 5.18137e-08 -9.6847e-20
-3.03229e-08 -6.99491e-08 -6.76513e-20
-1.21995e-08 -5.32931e-08 -9.70826e-20
1.41101e-07 1.69149e-08 1.06746e-19
-1.02924e-07 4.81442e-07 -2.9931e-20
-2.38012e-08 1.46857e-08 -5.11006e-21
7.03804e-08 1.04302e-07 -2.33929e-20
-3.48033e-08 -4.9406e-07 2.67478e-20
4.99799e-07 1.50066e-07 4.95814e-20
3.40272e-08 -6.01298e-08 8.22099e-21
-7.76854e-08 -8.88544e-09 4.71173e-20
-3.19662e-07 -1.283e-07 4.05314e-20
1.58054e-08 1.69045e-08 3.52139e-20
-5.07776e-07 -1.77581e-07 -3.97722e-20
1.60458e-08 -1.6858e-08 -2.15615e-20
-4.93748e-08 -3.47163e-07 -3.32067e-20
2.14263e-07 8.13088e-09 -2.57191e-20
-1.90832e-08 1.62804e-08 5.42664e-21
5.12345e-09 2.33993e-08 -4.19514e-20
1.43349e-08 -6.27654e-08 -1.2734e-20
2.48952e-08 -1.16402e-08 1.391e-19
4.61489e-10 2.52136e-08 7.92093e-21
2.17641e-08 -2.71766e-09 -7.55275e-20
4.06081e-08 -5.99105e-08 -3.3948e-20
-1.03968e-07 -5.30271e-07 7.92017e-20
2.74657e-07 -2.11434e-07 -1.0154e-20
8.87218e-10 3.34579e-08 5.08228e-20
-2.31599e-08 -4.18807e-09 1.8167e-20
-7.53368e-09 -2.59017e-08 1.89707e-20
-1.90974e-08 -1.34819e-08 2.12225e-20
-2.5677e-07 3.20864e-07 -1.78743e-20
-2.9495e-10 -2.54807e-08 -1.34301e-20
-3.21186e-07 5.04313e-07 -3.46008e-20
-1.20707e-07 5.55094e-08 4.71656e-20
1.6973e-08 1.8301e-08 -5.4537e-21
-2.19374e-08 -1.28274e-08 -5.09725e-20
1.56604e-07 3.77959e-07 3.05428e-20
9.03542e-08 8.05293e-08 6.82465e-20
2.19317e-07 -7.23271e-08 -1.52755e-20
1.23431e-08 -6.74827e-08 5.56205e-21
-3.97941e-07 -3.66696e-07 -4.2275e-20
-3.83706e-08 6.63091e-08 1.05052e-19
9.9631e-08 5.31449e-08 3.41771e-20
1.45691e-07 -5.01568e-08 2.07084e-20
6.29175e-08 -1.25689e-07 -1.03929e-19
2.4942e-07 -1.15011e-07 1.01238e-20
1.65945e-07 -7.83282e-08 -1.27786e-20
1.6676e-08 -1.38235e-08 -2.05634e-20
2.89311e-07 2.28842e-07 -7.27165e-20
-4.18804e-08 -1.21107e-07 -5.17969e-21
-5.14353e-08 -4.40084e-08 -2.1102e-20
-8.41016e-09 -2.20736e-08 6.59629e-20
1.15544e-08 8.64092e-08 6.04429e-20
-3.86959e-07 2.7743e-08 -1.78299e-20
-1.41362e-07 -3.69388e-07 -2.03157e-20
-6.08781e-08 7.75993e-08 4.98467e-20
1.19714e-07 1.59545e-07 -5.09123e-21
2.97784e-07 -2.11208e-07 -4.25148e-20
-4.35325e-07 -2.32748e-07 -1.9735e-20
1.93662e-07 -3.15266e-07 7.00393e-20
2.52176e-07 -3.10196e-07 -5.32075e-21
-7.42701e-08 7.35557e-09 -7.51617e-21
-2.21379e-07 -3.20353e-07 7.70237e-21
-3.87515e-07 -6.07343e-08 -2.79498e-20
-4.61833e-08 -3.53639e-07 1.47622e-20
1.72388e-07 -3.56311e-07 -1.01603e-20
3.60608e-09 -4.89787e-08 -3.16356e-20
5.12273e-08 3.41158e-07 -4.82119e-20
-1.82498e-07 -3.19258e-07 -2.739e-21
-1.71208e-08 -7.83343e-08 -1.78967e-20
-2.63812e-07 1.97501e-07 -4.05106e-20
-5.16826e-08 -1.69412e-08 -2.675e-20
-4.02629e-08 -2.76727e-08 1.58167e-20
1.0529e-07 -5.39964e-08 5.10857e-21
-1.4487e-08 2.05106e-08 1.88706e-20
5.59622e-08 -7.06395e-08 4.7253e-20
-3.2827e-07 -1.45991e-07 2.54892e-21
-4.34825e-08 -5.85651e-08 1.92518e-22
4.5444e-08 6.21285e-08 -1.09715e-19
2.3737e-07 3.27657e-07 4.03708e-20
-8.40185e-08 -3.87437e-08 3.93818e-20
-3.65162e-07 -8.21577e-09 7.62211e-21
-4.68028e-08 -4.34094e-08 3.15057e-20
-2.66284e-09 -6.28663e-08 -2.06937e-20
4.58459e-08 2.31214e-08 5.35292e-20
-5.28746e-08 5.21207e-08 5.60164e-21
-8.83132e-09 -9.25451e-08 -5.49257e-20
-4.87457e-07 1.20072e-07 -5.9825e-20
2.67211e-07 2.27957e-07 -1.777e-20
3.5704e-08 3.71265e-07 -7.7141e-21
-2.15275e-08 7.3999e-09 3.93182e-20
-7.18178e-08 2.23166e-09 1.56016e-20
3.29714e-08 6.29503e-08 -7.7882e-20
-2.60985e-08 -6.4103e-09 3.6483e-20
3.08951e-09 -2.22523e-08 5.53171e-21
-1.43628e-08 9.79595e-08 1.83623e-20
1.59136e-08 1.67697e-08 -6.23996e-20
-1.8141e-07 4.01007e-08 -4.34062e-20
-1.83983e-07 2.00746e-07 -3.02192e-20
-1.98628e-08 1.84286e-08 -1.03394e-20
-3.32847e-07 2.00878e-07 -5.79022e-20
-8.54279e-09 2.8362e-08 7.86949e-20
8.98298e-08 -3.21777e-08 -2.48986e-21
4.17235e-07 -3.83858e-08 -5.54404e-20
-5.22999e-08 3.30928e-08 7.17059e-20
2.1152e-08 9.74982e-09 -2.71026e-21
5.44342e-08 -3.40658e-08 1.02465e-20
-9.33905e-08 3.11253e-08 2.11328e-20
-6.79663e-08 1.78165e-08 -3.38964e-20
2.38974e-08 -6.98321e-09 -5.81146e-20
2.21043e-07 -1.34429e-07 8.69683e-20
-8.69905e-08 5.54655e-08 -3.13102e-20
-2.59868e-07 -5.41903e-08 5.0641e-20
-5.52285e-08 -2.90803e-08 -1.58189e-20
2.11246e-08 -1.40269e-08 -6.53632e-20
2.34009e-08 1.64431e-08 -6.02174e-20
-5.90934e-09 2.66054e-08 8.38221e-20
-2.39932e-09 -3.00185e-08 4.26381e-20
-2.43605e-08 1.24501e-08 -6.27653e-20
-2.72634e-08 -1.39649e-08 1.05237e-20
6.82993e-08 -2.58117e-08 7.32713e-20
-2.49885e-08 -6.87508e-09 3.14394e-20
-2.49354e-08 6.62228e-09 -1.0371e-20
-6.14373e-09 2.47755e-08 -5.86639e-20
-6.67019e-09 -2.53185e-08 7.4799e-20
1.64783e-08 -1.84492e-08 8.2766e-20
1.5842e-08 1.7657e-08 -5.14272e-21
9.56118e-09 2.63793e-07 -6.8507e-20
5.11807e-08 -4.22213e-08 5.25486e-20
1.19452e-08 -2.25281e-08 5.7597e-20
-1.98942e-07 7.35285e-09 -4.13876e-20
1.88896e-08 -1.79301e-08 9.03606e-20
1.76364e-08 1.82089e-08 -3.22167e-20
2.70584e-08 -5.88814e-10 9.90861e-20
9.13217e-08 2.58504e-07 -2.0473e-20
-1.36906e-08 -2.23887e-08 1.12727e-19
2.96041e-08 -6.77556e-08 -7.64221e-21
-2.22011e-07 -1.22833e-07 5.59894e-20
-4.87844e-08 -3.16678e-08 -7.94341e-20
-2.22821e-07 1.32153e-07 -6.10962e-20
1.97605e-08 -2.02577e-08 1.47613e-19
-9.47115e-09 2.10507e-08 8.38691e-20
-5.21091e-09 -2.55444e-07 -6.15473e-20
-8.36296e-08 -2.52999e-07 -4.07927e-20
3.83427e-07 3.64931e-07 2.61086e-21
4.10127e-07 -2.32901e-08 3.67776e-20
-2.90901e-08 6.33734e-09 1.61215e-20
-2.74294e-07 -4.84715e-07 -2.837e-21
6.54015e-08 1.12138e-07 -4.68285e-20
-2.62928e-07 3.09675e-08 5.34417e-20
1.88756e-07 5.27814e-08 -4.85291e-21
-2.57914e-08 -1.0432e-10 1.28336e-20
5.61729e-10 -2.68073e-08 2.38642e-20
-2.34172e-09 -1.83359e-08 -5.42468e-21
-2.28611e-08 -1.36034e-08 8.64799e-20
-5.68723e-07 -2.15518e-08 1.26238e-20
1.78748e-07 -2.02164e-07 -7.15184e-20
1.21545e-08 2.35767e-08 -9.91643e-20
6.21407e-09 -1.12872e-07 -1.52251e-20
-1.0662e-07 2.52499e-07 -7.41559e-21
2.18638e-09 2.83652e-08 -2.65444e-20
1.90734e-07 -1.36484e-07 3.07843e-20
-1.67759e-08 -7.33586e-09 1.08484e-20
-1.62195e-07 -2.10807e-07 7.65485e-21
2.23489e-08 1.13718e-08 2.39389e-20
5.28877e-08 5.11317e-08 -5.13637e-21
-3.76303e-08 -5.86198e-08 -1.28283e-20
2.31526e-08 -7.48804e-09 2.37322e-20
7.83706e-08 -5.4712e-08 1.83941e-20
-4.65463e-09 4.36985e-08 -2.4082e-20
6.4473e-08 -1.08666e-07 -1.29458e-20
5.88741e-07 2.96644e-08 5.17098e-20
-4.98771e-07 1.31965e-07 -7.16218e-20
4.17671e-08 2.91048e-08 -2.65108e-20
-6.17927e-08 -1.4877e-07 2.58112e-20
-9.39277e-08 -6.12762e-08 -1.02831e-20
3.05728e-07 -3.07284e-09 -7.4707e-21
2.61368e-09 -5.83346e-08 -2.39585e-20
-7.64062e-08 -2.69765e-08 6.83882e-20
1.04192e-07 -2.4894e-07 -9.19365e-20
8.30666e-09 1.0028e-07 -1.04695e-20
8.55149e-08 2.65193e-07 -4.61787e-20
1.02631e-07 -5.40851e-08 3.65053e-20
-1.87214e-07 1.99271e-07 -2.8069e-20
1.7215e-07 2.12724e-07 -5.06442e-21
-1.08281e-08 4.84097e-09 9.26238e-20
1.78289e-09 4.62102e-08 -8.5125e-20
3.48558e-09 -2.09679e-08 -7.90017e-20
-1.65995e-08 -1.37677e-08 -2.43985e-21
-5.71732e-08 4.53338e-08 -1.56939e-20
-2.62302e-07 -6.21466e-08 5.36395e-20
9.17013e-10 2.94811e-08 -4.86302e-20
-6.86013e-08 2.04772e-08 1.06559e-20
1.85848e-07 -2.6943e-08 -3.60211e-20
-7.94735e-08 -2.57356e-07 -7.12737e-20
-1.56528e-07 2.49282e-07 -2.2824e-21
-4.41974e-08 2.04284e-08 3.43126e-20
-2.09782e-07 -1.48436e-07 1.199e-19
4.74867e-08 -2.22708e-08 -2.65071e-20
-2.84446e-07 -1.39281e-08 4.59688e-20
1.39248e-07 -4.91357e-07 2.42747e-20
1.90254e-07 -1.99789e-07 -3.58787e-20
2.90914e-07 5.15788e-07 -2.47928e-20
-2.72619e-09 6.23422e-08 3.44706e-20
2.49717e-08 -2.59133e-07 -8.43792e-20
-1.01187e-08 6.12891e-09 7.89909e-20
-1.34866e-07 -2.51658e-07 -5.61886e-20
4.52511e-08 -3.87293e-08 -5.50212e-23
-2.60187e-08 2.62123e-07 -6.85547e-20
6.31691e-08 -1.85418e-08 5.53421e-20
1.43745e-07 2.56169e-07 -1.5413e-20
1.4397e-07 -3.36131e-09 -1.55904e-20
2.62778e-07 -7.75346e-07 3.93799e-20
-5.5681e-08 -1.0366e-07 -2.31743e-20
-2.32216e-07 1.01182e-07 2.82248e-20
-3.25386e-08 1.59873e-08 7.96568e-20
2.20448e-07 1.47631e-07 2.04091e-20
1.57129e-07 -8.67479e-08 5.26296e-21
8.30595e-08 3.64905e-08 -1.5857e-20
-1.69868e-08 1.43551e-08 1.02279e-19
1.57604e-07 -2.43474e-07 -5.90922e-20
-1.68022e-07 -2.09676e-07 2.78554e-20
2.16789e-07 8.55109e-08 -1.27477e-20
5.51493e-08 -3.40864e-08 -1.31659e-20
1.01349e-07 -2.51898e-07 -1.80159e-20
1.191e-07 -2.25766e-08 -2.09313e-20
-1.15578e-07 -4.61108e-08 3.11631e-20
-5.02517e-09 -4.69131e-08 -1.60224e-20
-2.64924e-07 3.6788e-08 1.17699e-19
2.78346e-08 2.32404e-07 -9.21876e-20
1.81238e-07 4.22915e-08 -4.96722e-21
-2.05875e-07 -9.21476e-08 4.37617e-20
-1.01233e-07 2.59573e-07 -4.09597e-20
-2.31388e-08 -2.26423e-07 -3.07448e-20
5.98601e-08 2.92154e-08 1.86046e-20
-3.88548e-08 1.09506e-07 7.30324e-20
-1.85134e-07 1.3278e-07 -5.6511e-20
2.37764e-07 1.19929e-07 -2.01801e-20
-1.08242e-07 -3.4003e-08 6.26524e-20
-2.62481e-08 -1.11464e-07 -5.21756e-20
1.81695e-07 2.11206e-07 3.8607e-20
-4.27126e-08 -1.93753e-08 -4.26891e-20
5.97454e-07 -4.29596e-07 3.40193e-20
1.26522e-07 -8.85194e-08 1.55151e-20
1.03322e-07 5.06326e-07 -1.48654e-20
1.33412e-07 -1.28259e-07 5.68937e-20
-2.88441e-07 1.09847e-06 -3.71775e-20
-2.90113e-07 -1.08777e-06 -4.13598e-22
7.12779e-07 9.36911e-07 2.07401e-20
7.03938e-07 -9.36659e-07 2.5464e-20
1.16677e-06 -4.5529e-10 -2.30375e-21
-1.00581e-06 4.04657e-07 -3.21357e-20
-9.89133e-07 -4.09057e-07 -4.87571e-20
4.81014e-08 2.6093e-08 1.29294e-19
3.08633e-08 1.49864e-08 4.05104e-20
8.96526e-08 1.2073e-08 5.17535e-20
1.58278e-07 8.45886e-08 3.10916e-20
4.69512e-08 1.87023e-07 2.42567e-21
-1.69685e-07 -1.45785e-07 7.52797e-21
8.5452e-08 -7.87737e-08 1.22927e-19
1.82325e-07 1.46324e-07 4.88902e-20
-4.21657e-08 2.30188e-07 -6.65817e-20
2.99339e-08 -1.47035e-08 -2.47608e-20
4.2913e-08 -2.20899e-07 -5.9108e-20
5.60688e-08 3.78072e-08 1.85837e-20
3.28853e-07 1.152e-07 -9.92238e-21
7.37143e-09 2.36726e-08 3.94653e-20
1.27099e-07 4.15996e-08 9.0813e-20
-1.57305e-07 8.70146e-08 -7.84121e-21
-2.15373e-07 7.45062e-08 -4.09107e-20
4.26425e-08 -2.92144e-08 -2.43858e-20
-1.37506e-07 -6.36306e-08 -5.12882e-21
-1.51084e-07 -8.94896e-08 4.75519e-21
-1.32435e-08 -1.51666e-07 -3.62979e-20
5.97415e-10 -1.74191e-07 5.32587e-21
-1.91786e-07 -8.29038e-09 -2.66349e-21
2.84652e-07 -4.41966e-08 -4.0657e-20
1.53565e-07 9.46414e-08 5.46498e-21
-1.27075e-07 8.66873e-08 1.80015e-20
-5.7298e-08 2.80477e-08 6.88781e-20
1.4333e-07 -1.28429e-07 -3.85754e-20
-1.07691e-07 1.67679e-07 -6.66468e-20
-1.32657e-07 -1.39739e-07 3.0527e-20
-1.25717e-08 1.82645e-07 1.79016e-20
-2.73265e-08 1.54152e-07 1.28565e-20
4.50425e-09 -1.11912e-07 -8.86348e-20
5.77361e-08 -1.86608e-07 -5.00051e-21
-9.43688e-08 -6.0561e-08 -5.42848e-21
1.30747e-07 -3.72866e-08 2.61082e-21
3.1977e-10 1.82419e-07 -5.92444e-20
-3.94647e-09 1.16557e-07 1.25359e-19
-2.92935e-08 1.31109e-07 2.87419e-21
2.14583e-07 -5.28086e-08 -7.61589e-21
-4.50661e-08 4.3028e-08 1.84368e-20
4.86368e-08 1.82567e-07 -3.33712e-20
-2.93925e-08 1.85515e-08 8.81662e-20
1.08372e-07 5.02522e-07 2.9796e-20
-5.31584e-08 2.86969e-08 3.14881e-20
5.64008e-08 -2.93592e-08 -1.32303e-20
1.62236e-08 1.55135e-07 -2.04125e-20
-1.81938e-07 4.32163e-08 -4.60902e-20
-5.59397e-09 -7.88678e-08 -6.53611e-20
7.50774e-09 -7.16927e-07 -2.6091e-23
2.17778e-08 1.31515e-07 -2.04837e-20
-1.35918e-07 1.29304e-07 3.08963e-20
2.1107e-07 7.85025e-07 -6.36996e-20
1.01361e-08 6.67534e-09 4.61652e-20
8.75746e-09 -6.36641e-09 -4.11624e-20
1.02326e-07 -7.97964e-08 7.03024e-20
-1.45248e-07 1.30049e-07 -8.20993e-20
-1.74341e-07 -5.14992e-08 6.69235e-20
-1.79156e-07 -5.88407e-08 7.73703e-21
-3.57163e-09 2.19865e-09 -1.07031e-20
-2.46781e-09 -1.19031e-09 -3.22998e-21
8.36844e-08 1.70035e-08 -3.68136e-20
2.65601e-08 1.22136e-07 -3.89536e-20
-3.06977e-09 1.21442e-07 -2.56155e-20
-6.00482e-07 -4.36192e-07 -5.06703e-20
1.06587e-07 -1.67645e-07 -5.92834e-20
5.39149e-08 1.94184e-08 1.57417e-20
-1.97738e-07 -2.12715e-08 -2.05636e-20
-1.25029e-07 1.6518e-07 -1.01608e-20
-1.61411e-07 7.58967e-08 -2.82467e-20
5.89534e-07 4.23588e-07 -1.17969e-20
5.8338e-08 3.83487e-08 3.93701e-20
-5.73821e-08 1.87282e-07 1.04275e-20
-1.13117e-07 -9.68891e-08 -2.06132e-20
2.81396e-08 -1.47537e-07 -5.92741e-20
-9.15334e-08 -1.74151e-07 -2.44728e-21
-1.46676e-07 -1.00536e-07 -2.54628e-21
1.00528e-07 -1.78284e-07 -2.04073e-20
1.20588e-07 -1.65721e-07 -9.80341e-20
-3.82209e-08 -7.48119e-07 1.20389e-20
3.07588e-07 -4.91998e-07 3.99079e-20
1.4694e-08 -1.79103e-07 5.39421e-21
1.26301e-07 9.61499e-08 -1.52953e-20
-1.13454e-07 -1.37718e-07 2.04662e-20
-9.83977e-08 1.83444e-07 1.56092e-20
-6.04533e-08 1.79796e-07 -1.02911e-20
1.31694e-07 1.36371e-07 7.82609e-21
6.45641e-08 -1.68171e-07 -1.54025e-20
-1.66935e-07 -4.7598e-07 4.65925e-20
3.76224e-09 5.78337e-08 2.11592e-20
1.33327e-07 1.37194e-07 2.8509e-21
-7.18733e-08 -3.53916e-08 2.63067e-20
-5.97212e-08 3.2601e-08 2.66391e-20
5.34475e-07 -2.34145e-07 -1.25225e-20
6.63806e-08 -1.09707e-07 -4.67727e-20
-6.30045e-08 -1.07786e-07 3.10781e-20
2.391e-08 -2.06829e-09 2.57269e-21
2.06015e-09 -9.06063e-09 -3.71676e-23
-6.70453e-09 -6.6274e-09 4.11873e-20
2.94407e-08 1.93026e-08 3.71046e-20
-9.23041e-08 -1.74244e-07 -4.13017e-20
1.42036e-07 5.69622e-08 4.15098e-20
-3.45641e-07 -3.79989e-07 -4.42504e-20
1.30167e-09 1.11379e-08 -1.64804e-20
1.29081e-09 1.99642e-09 5.37701e-21
2.49586e-09 -3.25525e-10 -3.29624e-20
3.31679e-07 -6.54993e-07 1.72227e-20
-1.37857e-08 1.62358e-08 5.40812e-20
-3.16083e-09 1.96689e-08 -4.60476e-20
-1.42815e-07 5.07675e-08 -2.33072e-20
-4.93593e-09 5.80082e-08 -2.64969e-20
-3.13777e-08 9.30323e-08 3.93544e-20
6.46794e-08 2.75717e-09 2.85402e-21
1.45894e-08 5.59252e-08 3.41295e-20
-3.8235e-09 7.73332e-08 2.66913e-20
1.10853e-07 6.03093e-08 7.46553e-21
7.89943e-09 7.1358e-07 -5.04067e-20
-1.03137e-07 9.75913e-08 -1.06759e-19
7.7332e-08 -5.19967e-08 8.44401e-20
4.46434e-08 -4.07656e-08 1.05536e-20
-7.31886e-07 -1.0049e-07 -3.19021e-20
-2.08574e-08 8.26913e-09 7.00931e-20
-5.32921e-07 -6.30397e-07 -1.45713e-20
9.68113e-09 2.59306e-08 2.85761e-20
9.34717e-08 1.81739e-08 4.42883e-20
2.7829e-07 -3.61169e-08 -1.55807e-20
-6.36161e-08 -1.04535e-07 1.29766e-20
1.21632e-07 3.48851e-08 8.8697e-20
6.31641e-10 -3.09536e-08 -2.39897e-20
-6.8598e-08 7.93682e-08 -5.11842e-21
-2.62333e-08 -1.66868e-08 -5.35544e-20
-6.18322e-08 1.25616e-07 -3.3506e-20
1.1187e-08 7.92829e-08 8.05516e-21
1.81772e-08 1.33226e-08 1.91326e-20
1.80392e-08 -1.27983e-08 -5.72291e-20
-4.9615e-07 -1.3516e-07 -2.21748e-20
5.46558e-08 2.03934e-08 5.76933e-20
-6.58058e-08 1.2737e-06 -5.74528e-20
-4.57604e-09 -1.3086e-06 -2.65411e-20
6.44112e-07 1.10264e-06 -5.7164e-20
-6.68449e-08 5.30304e-08 2.63733e-20
-3.41311e-07 6.86877e-07 -5.5486e-20
6.47813e-07 -1.06426e-06 -1.1856e-20
-1.0712e-07 -1.73374e-07 2.16716e-21
9.83733e-07 8.61972e-07 -1.17259e-20
1.15634e-08 -2.05099e-08 -9.08199e-20
-1.20493e-08 -2.07823e-08 -1.33463e-20
1.03119e-06 -8.4278e-07 3.15121e-20
-6.3188e-08 1.24264e-07 -3.85866e-20
-6.47748e-07 -4.12532e-07 -2.70075e-20
-5.46227e-07 -1.13848e-06 -3.1581e-20
-3.05937e-07 -7.03816e-07 8.56507e-20
-5.61534e-07 1.15743e-06 -3.3558e-20
-1.32702e-07 7.84353e-07 -3.16912e-20
-9.35471e-10 2.74639e-08 -1.09614e-20
-3.40721e-07 4.38668e-07 -2.67041e-20
-3.26205e-07 -6.67637e-07 -5.29986e-20
1.26846e-06 2.21354e-07 1.4128e-20
-9.91846e-08 8.43239e-08 1.02044e-20
-2.3293e-09 5.57098e-08 1.31259e-20
-6.13575e-07 4.44186e-07 -4.85567e-20
-1.09997e-07 5.87074e-08 -5.48385e-20
1.25597e-06 -1.96886e-07 2.18345e-20
-8.39529e-08 5.63568e-08 7.87449e-21
6.11563e-08 -1.26479e-07 -8.55168e-20
-9.77397e-07 -7.42345e-07 -1.73999e-20
-3.29572e-07 7.06155e-07 -4.84765e-20
-1.00108e-06 7.36894e-07 2.89954e-20
2.92504e-07 6.52551e-07 -5.28018e-20
-1.07682e-07 8.55997e-08 2.34207e-20
-2.98803e-08 1.69226e-08 1.23424e-19
-1.63605e-09 -2.60812e-09 3.2857e-20
4.19114e-10 -2.2476e-09 1.01611e-19
8.18714e-09 8.59592e-08 -7.69353e-21
-2.40012e-09 2.6121e-09 -1.39581e-20
1.27448e-09 3.22739e-09 -2.62943e-21
2.17249e-09 -9.36028e-10 7.45837e-20
-1.28077e-09 1.01821e-08 2.36735e-21
-2.2507e-07 4.91053e-07 1.74578e-20
-1.69287e-08 1.21493e-08 1.35068e-19
2.9174e-08 -1.83819e-08 -5.62119e-20
2.85971e-08 -1.65665e-08 -1.10591e-19
8.23884e-08 3.21514e-08 1.01992e-19
-7.74734e-10 -8.71455e-09 -7.91216e-21
-7.78047e-09 -3.94516e-09 -8.73778e-20
2.858e-08 1.66722e-08 1.92423e-20
7.27369e-07 -1.40187e-07 -1.19412e-20
-9.42382e-08 -1.2012e-07 5.42436e-20
-6.36821e-07 4.43979e-07 -1.42736e-20
-5.70168e-07 6.50307e-07 4.19377e-20
7.68563e-07 -2.77557e-07 1.4869e-20
-3.68491e-09 -1.06992e-08 1.12728e-20
-4.04709e-09 1.09905e-08 -8.5341e-21
-1.20771e-08 2.07654e-09 9.75269e-20
-7.92188e-09 8.07572e-09 6.52578e-20
-1.09477e-08 -2.3226e-09 1.07376e-20
2.02351e-09 2.57597e-09 -1.40678e-19
1.17505e-08 -2.89366e-09 -2.49711e-20
4.95232e-09 -3.48498e-09 -5.76642e-20
-3.47235e-09 -2.49911e-09 -2.47631e-20
7.51694e-09 -7.72619e-09 3.80757e-20
7.55867e-09 7.95629e-09 2.45088e-20
-3.49354e-09 2.19616e-09 5.20103e-20
3.82008e-09 -7.69108e-10 -2.45501e-20
6.33814e-09 3.51256e-09 8.14024e-21
1.37311e-08 4.90345e-09 2.22812e-20
SCALARS rr_necrosis float
LOOKUP_TABLE default
0
0
0
0
0
0
0
0
0
0
0
0
0
0
0
0
0
0
0
0
0
0
0
0
0
0
0
0
0
0
0
0
0
0
0
0
0
0
0
0
0
0
0
0
0
0
0
0
0
0
0
0
0
0
0
0
0
0
0
0
0
0
0
0
0
0
0
0
0
0
0
0
0
0
0
0
0
0
0
0
0
0
0
0
0
0
0
0
0
0
0
0
0
0
0
0
0
0
0
0
0
0
0
0
0
0
0
0
0
0
0
0
0
0
0
0
0
0
0
0
0
0
0
0
0
0
0
0
0
0
0
0
0
0
0
0
0
0
0
0
0
0
0
0
0
0
0
0
0
0
0
0
0
0
0
0
0
0
0
0
0
0
0
0
0
0
0
0
0
0
0
0
0
0
0
0
0
0
0
0
0
0
0
0
0
0
0
0
0
0
0
0
0
0
0
0
0
0
0
0
0
0
0
0
0
0
0
0
0
0
0
0
0
0
0
0
0
0
0
0
0
0
0
0
0
0
0
0
0
0
0
0
0
0
0
0
0
0
0
0
0
0
0
0
0
0
0
0
0
0
0
0
0
0
0
0
0
0
0
0
0
0
0
0
0
0
0
0
0
0
0
0
0
0
0
0
0
0
0
0
0
0
0
0
0
0
0
0
0
0
0
0
0
0
0
0
0
0
0
0
0
0
0
0
0
0
0
0
0
0
0
0
0
0
0
0
0
0
0
0
0
0
0
0
0
0
0
0
0
0
0
0
0
0
0
0
0
0
0
0
0
0
0
0
0
0
0
0
0
0
0
0
0
0
0
0
0
0
0
0
0
0
0
0
0
0
0
0
0
0
0
0
0
0
0
0
0
0
0
0
0
0
0
0
0
0
0
0
0
0
0
0
0
0
0
0
0
0
0
0
0
0
0
0
0
0
0
0
0
0
0
0
0
0
0
0
0
0
0
0
0
0
0
0
0
0
0
0
0
0
0
0
0
0
0
0
0
0
0
0
0
0
0
0
0
0
0
0
0
0
0
0
0
0
0
0
0
0
0
0
0
0
0
0
0
0
0
0
0
0
0
0
0
0
0
0
0
0
0
0
0
0
0
0
0
0
0
0
0
0
0
0
0
0
0
0
0
0
0
0
0
0
0
0
0
0
0
0
0
0
0
0
0
0
0
0
0
0
0
0
0
0
0
0
0
0
0
0
0
0
0
0
0
0
0
0
0
0
0
0
0
0
0
0
0
0
0
0
0
0
0
0
0
0
0
0
0
0
0
0
0
0
0
SCALARS rr_protein float
LOOKUP_TABLE default
1
1
1
1
1
1
1
1
1
1
1
1
1
1
1
1
1
1
1
1
1
1
1
1
1
1
1
1
1
1
1
1
1
1
1
1
1
1
1
1
1
1
1
1
1
1
1
1
1
1
1
1
1
1
1
1
1
1
1
1
1
1
1
1
1
1
1
1
1
1
1
1
1
1
1
1
1
1
1
1
1
1
1
1
1
1
1
1
1
1
1
1
1
1
1
1
1
1
1
1
1
1
1
1
1
1
1
1
1
1
1
1
1
1
1
1
1
1
1
1
1
1
1
1
1
1
1
1
1
1
1
1
1
1
1
1
1
1
1
1
1
1
1
1
1
1
1
1
1
1
1
1
1
1
1
1
1
1
1
1
1
1
1
1
1
1
1
1
1
1
1
1
1
1
1
1
1
1
1
1
1
1
1
1
1
1
1
1
1
1
1
1
1
1
1
1
1
1
1
1
1
1
1
1
1
1
1
1
1
1
1
1
1
1
1
1
1
1
1
1
1
1
1
1
1
1
1
1
1
1
1
1
1
1
1
1
1
1
1
1
1
1
1
1
1
1
1
1
1
1
1
1
1
1
1
1
1
1
1
1
1
1
1
1
1
1
1
1
1
1
1
1
1
1
1
1
1
1
1
1
1
1
1
1
1
1
1
1
1
1
1
1
1
1
1
1
1
1
1
1
1
1
1
1
1
1
1
1
1
1
1
1
1
1
1
1
1
1
1
1
1
1
1
1
1
1
1
1
1
1
1
1
1
1
1
1
1
1
1
1
1
1
1
1
1
1
1
1
1
1
1
1
1
1
1
1
1
1
1
1
1
1
1
1
1
1
1
1
1
1
1
1
1
1
1
1
1
1
1
1
1
1
1
1
1
1
1
1
1
1
1
1
1
1
1
1
1
1
1
1
1
1
1
1
1
1
1
1
1
1
1
1
1
1
1
1
1
1
1
1
1
1
1
1
1
1
1
1
1
1
1
1
1
1
1
1
1
1
1
1
1
1
1
1
1
1
1
1
1
1
1
1
1
1
1
1
1
1
1
1
1
1
1
1
1
1
1
1
1
1
1
1
1
1
1
1
1
1
1
1
1
1
1
1
1
1
1
1
1
1
1
1
1
1
1
1
1
1
1
1
1
1
1
1
1
1
1
1
1
1
1
1
1
1
1
1
1
1
1
1
1
1
1
1
1
1
1
1
1
1
1
1
1
1
1
1
1
1
1
1
1
1
1
1
1
1
1
1
1
1
1
1
1
1
1
1
1
1
1
1
1
1
1
SCALARS rr_(S_ext) float
LOOKUP_TABLE default
0.969497
0.969489
0.969494
0.969487
0.969504
0.969493
0.969496
0.969495
0.969495
0.969492
0.969469
0.969495
0.969495
0.969494
0.969495
0.969495
0.969492
0.969491
0.969491
0.969492
0.969496
0.969511
0.969492
0.969492
0.969492
0.969491
0.969486
0.969493
0.969489
0.969503
0.969496
0.969488
0.969488
0.969501
0.969506
0.969501
0.969501
0.969506
0.969496
0.969488
0.969488
0.969501
0.969501
0.969495
0.96948
0.96949
0.969493
0.969496
0.969494
0.969486
0.969488
0.969492
0.9695
0.969494
0.9695
0.969492
0.969506
0.969493
0.969506
0.969491
0.96949
0.969497
0.969494
0.969499
0.969497
0.969497
0.96949
0.969492
0.969492
0.969489
0.9695
0.9695
0.969489
0.969498
0.969495
0.969484
0.969501
0.969497
0.969491
0.969489
0.969492
0.969505
0.969493
0.969489
0.969493
0.969486
0.969493
0.969499
0.96948
0.96951
0.969493
0.96951
0.969499
0.969497
0.969494
0.969486
0.969493
0.969492
0.969501
0.969495
0.969495
0.969495
0.969487
0.96949
0.969492
0.969491
0.969494
0.969496
0.969488
0.969486
0.969491
0.969483
0.969485
0.96949
0.969491
0.969495
0.969508
0.969495
0.969508
0.969494
0.969491
0.969494
0.969488
0.969494
0.969487
0.969495
0.969506
0.969492
0.969494
0.969493
0.969498
0.969488
0.969492
0.969488
0.969495
0.969505
0.969494
0.969496
0.969493
0.969505
0.969495
0.969497
0.969494
0.969492
0.969495
0.96949
0.969496
0.969496
0.969494
0.969492
0.969494
0.969488
0.969487
0.969496
0.969492
0.969488
0.969495
0.969496
0.969496
0.969492
0.969495
0.969487
0.969484
0.969486
0.969494
0.969491
0.969496
0.969496
0.969488
0.969495
0.969499
0.969493
0.969487
0.969495
0.969493
0.969494
0.969499
0.969496
0.969502
0.969494
0.96949
0.969491
0.969492
0.969494
0.969498
0.969487
0.969494
0.969497
0.969501
0.969492
0.969498
0.969494
0.969493
0.969488
0.969488
0.96949
0.96949
0.969492
0.969488
0.969497
0.969488
0.969492
0.96949
0.969492
0.969491
0.969493
0.969498
0.969493
0.969498
0.969488
0.9695
0.969496
0.969492
0.969493
0.969492
0.969497
0.969491
0.969497
0.969486
0.969486
0.969484
0.969486
0.969486
0.969486
0.969493
0.969494
0.969494
0.969494
0.969495
0.969501
0.9695
0.969492
0.969492
0.969483
0.969496
0.969496
0.969496
0.969484
0.969489
0.969483
0.969492
0.969493
0.969497
0.969493
0.969494
0.969481
0.969492
0.969491
0.969492
0.969485
0.969493
0.969495
0.969494
0.969491
0.969492
0.969483
0.969486
0.969503
0.969486
0.969497
0.96949
0.969483
0.969495
0.96949
0.969486
0.969495
0.969503
0.969491
0.969487
0.969495
0.96949
0.969496
0.969499
0.969501
0.969494
0.969487
0.969486
0.969502
0.969494
0.969495
0.969495
0.969497
0.969496
0.96949
0.969497
0.969495
0.969497
0.969496
0.969489
0.969507
0.969499
0.969494
0.969494
0.969493
0.969496
0.969501
0.969495
0.969495
0.969496
0.969496
0.969501
0.969493
0.969501
0.969497
0.969481
0.969495
0.969495
0.969496
0.969492
0.969506
0.969496
0.969495
0.969492
0.969496
0.969495
0.969495
0.969498
0.969491
0.969493
0.969499
0.969491
0.969494
0.969498
0.969488
0.969495
0.969496
0.969494
0.969498
0.969495
0.969496
0.969494
0.969503
0.969496
0.969494
0.969496
0.969495
0.969495
0.969495
0.969499
0.969495
0.969495
0.969492
0.969496
0.969496
0.969495
0.969503
0.96947
0.969496
0.969492
0.969496
0.96943
0.969431
0.969429
0.969429
0.969427
0.969435
0.969436
0.969497
0.969502
0.969492
0.969494
0.969491
0.969495
0.969497
0.969494
0.969494
0.969503
0.969495
0.9695
0.969492
0.969493
0.969493
0.969494
0.969495
0.969503
0.969496
0.969495
0.969496
0.969494
0.969492
0.969489
0.969494
0.969496
0.969499
0.969492
0.969491
0.969493
0.969494
0.969495
0.969496
0.969492
0.969496
0.969493
0.969494
0.969495
0.969493
0.969493
0.969494
0.969495
0.969501
0.969481
0.969497
0.969499
0.969495
0.969496
0.969496
0.969472
0.969493
0.969496
0.969497
0.969509
0.96951
0.969494
0.969492
0.969496
0.969493
0.969517
0.969516
0.969492
0.969496
0.969495
0.969476
0.969491
0.969496
0.969496
0.969496
0.969494
0.969468
0.969496
0.969492
0.969496
0.969496
0.969495
0.969495
0.969495
0.969496
0.969488
0.969494
0.969494
0.969496
0.969495
0.969495
0.969495
0.969496
0.969495
0.969482
0.969498
0.969492
0.969496
0.969496
0.969483
0.969493
0.969492
0.969503
0.969502
0.969502
0.969498
0.969492
0.969496
0.969482
0.969501
0.969512
0.969512
0.969468
0.969505
0.969502
0.969495
0.9695
0.969492
0.969491
0.969493
0.969498
0.969496
0.969471
0.969495
0.969497
0.969496
0.969484
0.969502
0.969501
0.969493
0.969495
0.969494
0.969494
0.969496
0.969498
0.969494
0.969498
0.969495
0.969497
0.969503
0.969505
0.969484
0.969492
0.969496
0.9695
0.969492
0.969497
0.969475
0.969489
0.969496
0.969493
0.969505
0.969505
0.969496
0.969492
0.969491
0.969499
0.969487
0.969499
0.969487
0.969506
0.969482
0.969475
0.969494
0.969497
0.969497
0.969487
0.969496
0.969487
0.969495
0.969493
0.969498
0.969485
0.969495
0.969467
0.969494
0.969504
0.969509
0.969508
0.969494
0.969508
0.969508
0.969508
0.969505
0.969482
0.969503
0.9695
0.969505
0.969495
0.969507
0.969507
0.969507
0.969466
0.969493
0.969476
0.969502
0.969495
0.9695
0.9695
0.969501
0.969501
0.9695
0.96951
0.969505
0.969508
0.969513
0.969503
0.969503
0.969513
0.96951
0.969508
0.969502
SCALARS rr_(P_ext) float
LOOKUP_TABLE default
0.0203857
0.0202889
0.0202974
0.0202905
0.0202645
0.0202976
0.020386
0.0202918
0.0203055
0.0202893
0.0203794
0.0202918
0.0202938
0.020288
0.0202734
0.020296
0.0202845
0.0202929
0.0203098
0.0202998
0.0203012
0.0202311
0.020301
0.0202997
0.0203
0.0202912
0.0203659
0.0202963
0.0203363
0.0202507
0.0202941
0.0203361
0.0203673
0.0202565
0.0202537
0.0202566
0.0202497
0.0202549
0.0202943
0.020367
0.0203365
0.0202493
0.0202494
0.0202941
0.020358
0.0203349
0.0203078
0.0203039
0.0202972
0.0203423
0.0203388
0.0203264
0.0202658
0.0203262
0.0202666
0.0203551
0.0202535
0.0203261
0.0202536
0.0202993
0.0202849
0.0202769
0.0203597
0.0202774
0.0202767
0.0202846
0.0202845
0.0202912
0.0203004
0.0202886
0.020266
0.0202661
0.0203366
0.0202816
0.0202971
0.0203714
0.0202717
0.0202847
0.0202913
0.0203242
0.0203442
0.0202614
0.0202808
0.020347
0.0203334
0.0203569
0.0202963
0.0202831
0.0203579
0.0202359
0.0203263
0.020236
0.0202711
0.0202857
0.0203254
0.0203397
0.0203441
0.0202894
0.0202718
0.0202946
0.0203154
0.0203312
0.0203471
0.020292
0.0202903
0.0202901
0.0202796
0.0202954
0.0203473
0.0202874
0.0202992
0.0203549
0.0203505
0.0202925
0.0202905
0.0203259
0.0202536
0.0203445
0.0202539
0.0203255
0.020312
0.0202745
0.0202889
0.0202828
0.0202867
0.0202726
0.0202569
0.0202894
0.0203441
0.0203254
0.0202659
0.0202895
0.0202813
0.0202892
0.020331
0.0202534
0.0203495
0.0202931
0.0202807
0.0202535
0.02033
0.020289
0.0203105
0.0202892
0.0203449
0.0202909
0.0202904
0.0202972
0.0202976
0.0203183
0.0203042
0.0202889
0.0203363
0.0202936
0.0202893
0.0202894
0.0202866
0.020329
0.0203287
0.0202938
0.0203038
0.0203356
0.0203556
0.0203388
0.0203291
0.02029
0.0203291
0.0203292
0.0203362
0.0203289
0.0202708
0.0203262
0.0203389
0.0202857
0.020326
0.02028
0.0202709
0.0202918
0.0202655
0.0202899
0.0203362
0.0202896
0.0202896
0.0203298
0.0202829
0.0203396
0.0202829
0.0202795
0.0202705
0.0202894
0.0202828
0.0203431
0.020326
0.0203361
0.0202893
0.0202932
0.0202927
0.0202814
0.020289
0.0202849
0.0202888
0.0203087
0.0203235
0.0202815
0.020336
0.0202808
0.0202847
0.0203317
0.0202757
0.0202887
0.0202748
0.0202875
0.0202905
0.0202807
0.020318
0.0202867
0.0203226
0.0202796
0.0202869
0.0202869
0.020288
0.0202876
0.0202875
0.0202876
0.0202886
0.0202741
0.0202743
0.020274
0.0202739
0.0202664
0.0202664
0.0203187
0.0202883
0.0202914
0.0203044
0.0202734
0.020273
0.0202911
0.0203233
0.0202917
0.0202894
0.0203176
0.0202755
0.020318
0.0202804
0.0202921
0.0203174
0.0203221
0.0203445
0.0203437
0.0202807
0.0203464
0.0202948
0.0203226
0.0203093
0.0202918
0.0202871
0.0202488
0.0202874
0.020347
0.0203226
0.0202914
0.0202918
0.0203237
0.0202872
0.0203101
0.0202489
0.0203224
0.0202867
0.0202834
0.0202927
0.0202736
0.0202833
0.0202659
0.0202939
0.0203534
0.020357
0.0202685
0.0203009
0.0202918
0.020318
0.0202753
0.0202858
0.0203225
0.0202855
0.0203151
0.02029
0.020315
0.020323
0.0202414
0.0202699
0.0202731
0.0202733
0.0202886
0.0203143
0.0202576
0.0202838
0.0203035
0.020314
0.020317
0.0202686
0.0203176
0.0202711
0.020316
0.0203577
0.0203145
0.0203454
0.0202793
0.0203176
0.0202415
0.020316
0.0202815
0.0203187
0.0202824
0.0203162
0.0202964
0.0203613
0.0202983
0.0203178
0.020269
0.0203183
0.0203034
0.0202824
0.0202886
0.0203161
0.0203144
0.0203103
0.0202795
0.0203145
0.0202918
0.0202963
0.0202661
0.0203144
0.0203108
0.020302
0.0203098
0.0203154
0.0203095
0.0202765
0.0202921
0.0203104
0.020318
0.0202893
0.0202892
0.0203149
0.0202662
0.0203828
0.0202966
0.0203444
0.0203016
0.020434
0.0204339
0.0204333
0.0204336
0.0204332
0.0204343
0.0204339
0.020279
0.0202602
0.0202935
0.0203039
0.0203093
0.0203098
0.02029
0.0203104
0.0203109
0.02026
0.0203098
0.020275
0.0203263
0.0202755
0.0202978
0.020304
0.0203102
0.0202683
0.0202966
0.0203034
0.0202965
0.0203033
0.0203106
0.0203246
0.0203041
0.0202975
0.0202747
0.0203084
0.0203115
0.0203088
0.0203047
0.0202978
0.0202899
0.0203089
0.02029
0.0202986
0.0203044
0.0202916
0.0202983
0.02031
0.0202825
0.0203025
0.020261
0.0203576
0.020279
0.0202766
0.0202977
0.0203022
0.0202848
0.0203816
0.0202977
0.0203026
0.0203608
0.020242
0.0202418
0.0202967
0.0203094
0.0203015
0.0203084
0.0202273
0.0202273
0.0202915
0.0202915
0.0202919
0.0203819
0.0203109
0.0202811
0.0203044
0.0203052
0.0203045
0.0203834
0.020283
0.0203099
0.020297
0.0202969
0.0203053
0.0203035
0.0203053
0.0203046
0.0203664
0.0203452
0.0203036
0.0202968
0.0203024
0.0203057
0.020303
0.0203018
0.0203024
0.0203576
0.0202733
0.0203089
0.0202851
0.0202825
0.0203582
0.0202973
0.0202982
0.020266
0.0202426
0.0202427
0.02027
0.0203111
0.0202972
0.0203592
0.0202445
0.0202295
0.0202295
0.0203844
0.0202549
0.0202507
0.0202982
0.0202715
0.0202937
0.0202887
0.0202822
0.0202798
0.0202918
0.0203818
0.0202958
0.0202858
0.0202813
0.020372
0.0202538
0.0203625
0.0202817
0.0202884
0.0203166
0.0202942
0.0202922
0.0202652
0.0202909
0.0202653
0.0202968
0.0202812
0.0202523
0.0202517
0.0203589
0.0202874
0.0203876
0.0203858
0.0203897
0.0202831
0.020383
0.0203917
0.0203056
0.0203887
0.0202611
0.0202612
0.0203872
0.0203019
0.0203661
0.0203881
0.0203679
0.0203885
0.0203679
0.0202544
0.0203624
0.0203826
0.0203874
0.0202926
0.0202777
0.0203695
0.0202924
0.020391
0.0202893
0.0203012
0.0203892
0.0203709
0.0203906
0.0203844
0.0202986
0.0202595
0.0202312
0.0202324
0.0202877
0.0202314
0.0202315
0.020232
0.0202395
0.0203606
0.0202529
0.0202693
0.0202594
0.0202888
0.0202375
0.0202375
0.0202577
0.0203854
0.0203022
0.0203843
0.020364
0.0203633
0.0202457
0.0202459
0.0202466
0.0202464
0.0202457
0.0202329
0.0202464
0.0202374
0.020231
0.0202455
0.0202454
0.0202306
0.0202326
0.0202371
0.0202471
SCALARS rr_(S) float
LOOKUP_TABLE default
0.941565
0.941498
0.941507
0.941497
0.941498
0.941507
0.941565
0.941505
0.941513
0.941501
0.941535
0.941505
0.941506
0.941502
0.941495
0.941507
0.941498
0.941502
0.941512
0.941507
0.941511
0.941485
0.941508
0.941507
0.941507
0.941501
0.941542
0.941506
0.941527
0.941489
0.941507
0.941526
0.941545
0.941491
0.941493
0.941491
0.941487
0.941494
0.941507
0.941545
0.941526
0.941486
0.941486
0.941507
0.941532
0.941527
0.941513
0.941513
0.941507
0.941528
0.941527
0.941523
0.941494
0.941525
0.941495
0.941541
0.941493
0.941524
0.941493
0.941506
0.941496
0.941498
0.941546
0.9415
0.941498
0.941502
0.941496
0.941502
0.941507
0.941497
0.941495
0.941495
0.941527
0.941502
0.941508
0.941544
0.941499
0.941502
0.941501
0.941519
0.941534
0.941497
0.941497
0.941533
0.941529
0.941537
0.941506
0.941503
0.941532
0.941487
0.941524
0.941488
0.941497
0.941503
0.941525
0.941526
0.941536
0.9415
0.941499
0.941507
0.941519
0.941529
0.941532
0.9415
0.941501
0.941501
0.941497
0.941508
0.941533
0.941494
0.941506
0.941532
0.941532
0.941501
0.941501
0.941525
0.941495
0.941537
0.941496
0.941525
0.941514
0.941494
0.941496
0.941499
0.941495
0.941494
0.941495
0.9415
0.941536
0.941524
0.941493
0.941497
0.941496
0.941497
0.941529
0.941492
0.94154
0.941507
0.941497
0.941492
0.941528
0.941505
0.941516
0.941501
0.941537
0.9415
0.941505
0.941509
0.941507
0.941519
0.941512
0.941497
0.941525
0.941507
0.9415
0.941497
0.941502
0.941529
0.941528
0.941503
0.941512
0.941525
0.941534
0.941525
0.941527
0.941501
0.941528
0.941529
0.941526
0.941527
0.941496
0.941524
0.941527
0.941502
0.941524
0.941498
0.941496
0.941506
0.941496
0.941503
0.941528
0.9415
0.9415
0.941527
0.941503
0.941527
0.941499
0.9415
0.941498
0.9415
0.941502
0.941535
0.941524
0.941526
0.941497
0.941501
0.941501
0.941496
0.941496
0.941503
0.941497
0.941513
0.94152
0.941497
0.941528
0.941496
0.941503
0.941528
0.941499
0.941497
0.9415
0.941504
0.941501
0.941497
0.941518
0.941504
0.94152
0.9415
0.941494
0.941494
0.941493
0.941494
0.941494
0.941494
0.941502
0.941494
0.941494
0.941494
0.941494
0.941496
0.941495
0.941518
0.9415
0.941494
0.941514
0.941495
0.941495
0.941494
0.941519
0.941494
0.9415
0.941519
0.941498
0.941519
0.941498
0.941493
0.941518
0.941519
0.941534
0.941527
0.941497
0.941538
0.941506
0.94152
0.941513
0.941494
0.941494
0.941488
0.941494
0.941541
0.941519
0.941493
0.941505
0.94152
0.941494
0.941516
0.941488
0.941519
0.941494
0.9415
0.941501
0.941495
0.941503
0.941496
0.941505
0.941535
0.941537
0.941498
0.94151
0.941505
0.941521
0.941498
0.941502
0.941519
0.941503
0.941519
0.941505
0.94152
0.941519
0.941487
0.941496
0.941493
0.941493
0.941501
0.94152
0.941491
0.9415
0.941512
0.941519
0.941521
0.941497
0.941518
0.941498
0.941521
0.941532
0.941519
0.941538
0.941499
0.941518
0.941486
0.94152
0.9415
0.941518
0.9415
0.94152
0.941508
0.94155
0.941505
0.941519
0.941495
0.941518
0.941511
0.941503
0.941497
0.94152
0.941519
0.941515
0.941501
0.941519
0.941506
0.941507
0.941497
0.94152
0.941516
0.941512
0.941516
0.94152
0.941516
0.9415
0.941505
0.941516
0.941518
0.941505
0.941505
0.941519
0.941497
0.941538
0.941509
0.941534
0.941512
0.941533
0.941533
0.941532
0.941532
0.941529
0.941537
0.941538
0.941499
0.941494
0.941503
0.941511
0.941512
0.941516
0.941506
0.941516
0.941516
0.941494
0.941516
0.9415
0.941523
0.941494
0.941507
0.941512
0.941516
0.941499
0.941509
0.941512
0.941509
0.941511
0.941513
0.94152
0.941511
0.941509
0.941499
0.941513
0.941513
0.941513
0.941511
0.941509
0.941505
0.941513
0.941505
0.941507
0.941511
0.941505
0.941507
0.941514
0.941499
0.941512
0.941493
0.941532
0.941499
0.9415
0.941509
0.941513
0.941501
0.941539
0.941507
0.941512
0.94155
0.94149
0.94149
0.941507
0.941513
0.941512
0.941513
0.941489
0.941488
0.941502
0.941506
0.941505
0.941543
0.941513
0.941499
0.941514
0.941514
0.941512
0.941536
0.941501
0.941513
0.941509
0.941509
0.941513
0.941512
0.941513
0.941514
0.941544
0.941537
0.941511
0.941509
0.941512
0.941514
0.941512
0.941512
0.941511
0.941534
0.941497
0.941512
0.941502
0.9415
0.941534
0.941507
0.941506
0.941497
0.941483
0.941483
0.941495
0.941514
0.941509
0.941534
0.941484
0.941485
0.941485
0.941537
0.941493
0.941488
0.941509
0.941498
0.941504
0.9415
0.941498
0.941501
0.941506
0.941538
0.941508
0.941503
0.9415
0.941544
0.94149
0.941554
0.941497
0.941503
0.941519
0.941505
0.941507
0.941493
0.941504
0.941493
0.941508
0.941501
0.94149
0.941491
0.941536
0.941499
0.941565
0.941568
0.941563
0.941502
0.941543
0.941561
0.941514
0.941563
0.941496
0.941496
0.941565
0.941508
0.941548
0.941569
0.941545
0.941568
0.941545
0.941493
0.941536
0.941542
0.941563
0.941507
0.941498
0.941546
0.941506
0.941559
0.941504
0.941509
0.941568
0.941545
0.941567
0.941536
0.941508
0.941494
0.941483
0.941483
0.941502
0.941483
0.941483
0.941483
0.941485
0.941536
0.94149
0.941497
0.941495
0.941503
0.941486
0.941485
0.941496
0.941536
0.941509
0.941544
0.941556
0.941549
0.941484
0.941484
0.941485
0.941485
0.941483
0.941486
0.941488
0.941487
0.941487
0.941486
0.941486
0.941487
0.941485
0.941486
0.941486
SCALARS rr_(P) float
LOOKUP_TABLE default
0.0232971
0.0232397
0.0232449
0.0232407
0.0232251
0.023245
0.0232973
0.0232416
0.0232498
0.02324
0.0232931
0.0232416
0.0232427
0.0232393
0.0232304
0.0232441
0.0232371
0.0232421
0.0232523
0.0232463
0.0232472
0.0232048
0.023247
0.0232462
0.0232464
0.0232412
0.0232853
0.0232442
0.0232679
0.0232167
0.023243
0.0232677
0.0232861
0.0232202
0.0232186
0.0232203
0.023216
0.0232193
0.023243
0.023286
0.023268
0.0232158
0.0232158
0.0232429
0.0232806
0.0232671
0.0232511
0.0232488
0.0232448
0.0232714
0.0232693
0.0232621
0.0232259
0.023262
0.0232263
0.023279
0.0232184
0.0232619
0.0232185
0.023246
0.0232373
0.0232326
0.0232817
0.0232329
0.0232325
0.0232372
0.0232371
0.0232412
0.0232467
0.0232395
0.023226
0.023226
0.023268
0.0232354
0.0232448
0.0232885
0.0232294
0.0232373
0.0232412
0.0232607
0.0232726
0.0232233
0.0232349
0.0232742
0.0232663
0.02328
0.0232443
0.0232363
0.0232805
0.0232076
0.023262
0.0232077
0.0232291
0.0232378
0.0232615
0.0232698
0.0232725
0.0232401
0.0232295
0.0232433
0.0232556
0.0232649
0.0232743
0.0232416
0.0232406
0.0232405
0.0232342
0.0232437
0.0232744
0.0232388
0.023246
0.0232788
0.0232762
0.0232419
0.0232408
0.0232618
0.0232185
0.0232728
0.0232187
0.0232616
0.0232535
0.0232311
0.0232397
0.0232361
0.0232384
0.0232299
0.0232205
0.0232401
0.0232725
0.0232615
0.0232259
0.0232401
0.0232352
0.0232399
0.0232649
0.0232184
0.0232757
0.0232424
0.0232348
0.0232184
0.0232642
0.0232399
0.0232527
0.0232399
0.023273
0.023241
0.0232407
0.0232448
0.023245
0.0232573
0.0232489
0.0232397
0.0232678
0.0232427
0.02324
0.0232401
0.0232384
0.0232637
0.0232635
0.0232427
0.0232487
0.0232674
0.0232792
0.0232693
0.0232637
0.0232404
0.0232637
0.0232638
0.0232678
0.0232636
0.0232289
0.023262
0.0232694
0.0232379
0.0232618
0.0232344
0.023229
0.0232416
0.0232257
0.0232404
0.0232678
0.0232402
0.0232402
0.0232641
0.0232362
0.0232698
0.0232362
0.0232341
0.0232287
0.0232401
0.0232361
0.0232719
0.0232618
0.0232678
0.02324
0.0232424
0.023242
0.0232352
0.0232398
0.0232374
0.0232397
0.0232516
0.0232604
0.0232353
0.0232678
0.0232349
0.0232373
0.0232652
0.0232318
0.0232396
0.0232313
0.023239
0.0232408
0.0232348
0.0232571
0.0232385
0.0232598
0.0232342
0.0232385
0.0232385
0.0232391
0.0232389
0.0232389
0.0232389
0.0232396
0.0232308
0.023231
0.0232308
0.0232307
0.0232262
0.0232262
0.0232575
0.0232394
0.0232411
0.0232491
0.0232304
0.0232302
0.023241
0.0232602
0.0232414
0.0232401
0.0232569
0.0232317
0.0232571
0.0232347
0.0232415
0.0232567
0.0232595
0.0232727
0.0232722
0.0232348
0.0232739
0.0232434
0.0232599
0.0232519
0.0232414
0.0232386
0.0232155
0.0232388
0.0232743
0.0232598
0.0232412
0.0232415
0.0232605
0.0232386
0.0232524
0.0232156
0.0232597
0.0232383
0.0232365
0.0232421
0.0232305
0.0232364
0.0232259
0.0232428
0.023278
0.0232801
0.0232275
0.023247
0.0232416
0.0232571
0.0232316
0.023238
0.0232597
0.0232378
0.0232554
0.0232405
0.0232554
0.0232601
0.023211
0.0232284
0.0232302
0.0232303
0.0232396
0.023255
0.0232208
0.0232367
0.0232485
0.0232548
0.0232566
0.0232276
0.0232569
0.023229
0.023256
0.0232804
0.0232551
0.0232733
0.023234
0.0232569
0.0232111
0.023256
0.0232353
0.0232575
0.0232359
0.0232561
0.0232443
0.0232827
0.0232454
0.023257
0.0232277
0.0232573
0.0232485
0.0232359
0.0232395
0.023256
0.023255
0.0232526
0.0232341
0.0232551
0.0232416
0.0232442
0.0232261
0.0232551
0.0232529
0.0232477
0.0232523
0.0232556
0.0232521
0.0232323
0.0232417
0.0232526
0.0232571
0.0232401
0.02324
0.0232553
0.0232261
0.0232951
0.0232444
0.0232727
0.0232474
0.023325
0.023325
0.0233246
0.0233247
0.0233245
0.0233252
0.023325
0.0232338
0.0232224
0.0232425
0.0232487
0.023252
0.0232523
0.0232405
0.0232526
0.0232529
0.0232223
0.0232523
0.0232315
0.023262
0.0232317
0.0232451
0.0232489
0.0232525
0.0232274
0.0232445
0.0232485
0.0232444
0.0232484
0.0232527
0.023261
0.0232488
0.023245
0.0232313
0.0232514
0.0232532
0.0232517
0.0232492
0.0232451
0.0232404
0.0232517
0.0232405
0.0232456
0.023249
0.0232414
0.0232455
0.0232524
0.0232359
0.0232479
0.023223
0.0232804
0.0232339
0.0232324
0.0232451
0.0232478
0.0232373
0.0232944
0.0232451
0.023248
0.0232824
0.0232114
0.0232113
0.0232444
0.023252
0.0232474
0.0232514
0.0232025
0.0232025
0.0232414
0.0232414
0.0232416
0.0232946
0.0232529
0.0232351
0.0232491
0.0232496
0.0232491
0.0232954
0.0232362
0.0232523
0.0232447
0.0232446
0.0232497
0.0232485
0.0232496
0.0232492
0.0232856
0.0232732
0.0232486
0.0232445
0.0232479
0.0232499
0.0232483
0.0232475
0.0232479
0.0232804
0.0232304
0.0232517
0.0232375
0.023236
0.0232807
0.0232448
0.0232453
0.023226
0.0232117
0.0232117
0.0232283
0.023253
0.0232448
0.0232813
0.0232129
0.0232038
0.0232039
0.0232961
0.0232193
0.0232166
0.0232454
0.0232293
0.0232427
0.0232396
0.0232357
0.0232344
0.0232416
0.0232946
0.023244
0.023238
0.0232352
0.0232889
0.0232186
0.0232834
0.0232354
0.0232395
0.0232563
0.023243
0.0232418
0.0232254
0.023241
0.0232255
0.0232446
0.0232352
0.0232176
0.0232172
0.0232812
0.0232388
0.0232982
0.0232972
0.0232994
0.0232363
0.0232953
0.0233005
0.0232498
0.0232988
0.0232231
0.0232232
0.0232979
0.0232475
0.0232855
0.0232985
0.0232865
0.0232988
0.0232865
0.023219
0.0232832
0.023295
0.023298
0.0232421
0.0232331
0.0232874
0.0232419
0.0233001
0.02324
0.0232472
0.0232991
0.0232882
0.0233
0.023296
0.0232456
0.0232221
0.0232048
0.0232056
0.023239
0.023205
0.023205
0.0232053
0.0232098
0.0232821
0.023218
0.023228
0.023222
0.0232397
0.0232086
0.0232087
0.023221
0.0232966
0.0232477
0.023296
0.0232844
0.0232838
0.0232135
0.0232137
0.0232141
0.023214
0.0232136
0.0232058
0.023214
0.0232086
0.0232047
0.0232134
0.0232134
0.0232045
0.0232057
0.0232084
0.0232144
SCALARS rr_(T) float
LOOKUP_TABLE default
0.117722
0.11775
0.117748
0.117749
0.117761
0.117748
0.117722
0.11775
0.117745
0.11775
0.117722
0.11775
0.117749
0.117751
0.117757
0.117748
0.117752
0.117749
0.117744
0.117747
0.117747
0.117777
0.117746
0.117747
0.117747
0.11775
0.117727
0.117748
0.117736
0.117768
0.117749
0.117736
0.117727
0.117765
0.117766
0.117765
0.117768
0.117766
0.117749
0.117727
0.117736
0.117768
0.117768
0.117749
0.117729
0.117736
0.117744
0.117746
0.117748
0.117734
0.117735
0.117739
0.117761
0.117739
0.11776
0.11773
0.117766
0.117739
0.117766
0.117747
0.117752
0.117755
0.117729
0.117755
0.117756
0.117753
0.117752
0.11775
0.117747
0.11775
0.117761
0.11776
0.117736
0.117754
0.117748
0.117725
0.117758
0.117753
0.11775
0.117739
0.117733
0.117763
0.117754
0.117732
0.117737
0.117729
0.117748
0.117753
0.117729
0.117775
0.117739
0.117775
0.117758
0.117752
0.117739
0.117734
0.117734
0.11775
0.117758
0.117749
0.117742
0.117737
0.117732
0.117749
0.11775
0.11775
0.117755
0.117748
0.117732
0.117751
0.117747
0.11773
0.117731
0.117749
0.11775
0.117739
0.117766
0.117733
0.117766
0.117739
0.117743
0.117756
0.11775
0.117753
0.117751
0.117758
0.117765
0.11775
0.117734
0.117739
0.117761
0.11775
0.117754
0.11775
0.117737
0.117766
0.117732
0.117749
0.117754
0.117766
0.117738
0.117751
0.117744
0.11775
0.117733
0.11775
0.117751
0.117748
0.117748
0.117741
0.117746
0.11775
0.117736
0.117749
0.11775
0.11775
0.117752
0.117738
0.117738
0.117749
0.117746
0.117736
0.11773
0.117735
0.117738
0.11775
0.117738
0.117738
0.117736
0.117738
0.117758
0.117739
0.117735
0.117752
0.117739
0.117754
0.117758
0.11775
0.117761
0.11775
0.117736
0.11775
0.11775
0.117738
0.117753
0.117735
0.117753
0.117755
0.117759
0.11775
0.117753
0.117734
0.117739
0.117736
0.11775
0.117749
0.117749
0.117753
0.11775
0.117753
0.11775
0.117744
0.117739
0.117753
0.117736
0.117754
0.117753
0.117737
0.117756
0.11775
0.117757
0.117752
0.11775
0.117754
0.117741
0.117752
0.11774
0.117755
0.117751
0.117751
0.11775
0.117751
0.117751
0.117751
0.117751
0.117757
0.117757
0.117757
0.117757
0.11776
0.11776
0.117741
0.117751
0.117749
0.117745
0.117757
0.117757
0.117749
0.117739
0.117749
0.11775
0.117741
0.117756
0.117741
0.117754
0.117749
0.117741
0.11774
0.117733
0.117733
0.117754
0.117733
0.117748
0.11774
0.117744
0.117749
0.117751
0.117768
0.117751
0.117733
0.11774
0.117749
0.11775
0.117739
0.117751
0.117744
0.117768
0.11774
0.117751
0.117753
0.117749
0.117757
0.117753
0.117761
0.117749
0.117731
0.117729
0.11776
0.117746
0.11775
0.117741
0.117757
0.117752
0.11774
0.117752
0.117742
0.117751
0.117742
0.11774
0.117772
0.117759
0.117757
0.117757
0.117751
0.117742
0.117764
0.117753
0.117746
0.117742
0.117742
0.117759
0.117741
0.117758
0.117742
0.117729
0.117742
0.117733
0.117755
0.117741
0.117772
0.117742
0.117754
0.117741
0.117753
0.117742
0.117748
0.117729
0.117747
0.117741
0.117759
0.117741
0.117746
0.117754
0.11775
0.117742
0.117742
0.117744
0.117755
0.117742
0.11775
0.117748
0.117761
0.117742
0.117743
0.117746
0.117744
0.117742
0.117744
0.117756
0.11775
0.117744
0.117741
0.117751
0.117751
0.117742
0.117761
0.117721
0.117748
0.117733
0.117746
0.117704
0.117704
0.117704
0.117704
0.117704
0.117704
0.117705
0.117755
0.117763
0.117749
0.117746
0.117744
0.117744
0.117751
0.117744
0.117743
0.117764
0.117744
0.117757
0.117739
0.117756
0.117748
0.117746
0.117744
0.11776
0.117748
0.117746
0.117748
0.117746
0.117743
0.117739
0.117746
0.117748
0.117757
0.117744
0.117743
0.117744
0.117745
0.117748
0.117751
0.117744
0.117751
0.117747
0.117746
0.11775
0.117747
0.117744
0.117753
0.117746
0.117763
0.117729
0.117755
0.117756
0.117748
0.117746
0.117752
0.117722
0.117748
0.117746
0.117729
0.117772
0.117772
0.117748
0.117744
0.117746
0.117744
0.117779
0.117779
0.117749
0.11775
0.11775
0.117722
0.117743
0.117754
0.117745
0.117745
0.117745
0.117721
0.117753
0.117744
0.117748
0.117748
0.117745
0.117746
0.117745
0.117745
0.117727
0.117733
0.117746
0.117748
0.117746
0.117745
0.117746
0.117746
0.117746
0.117729
0.117757
0.117744
0.117752
0.117753
0.117729
0.117748
0.117747
0.117761
0.117771
0.117771
0.117759
0.117743
0.117748
0.117729
0.11777
0.117778
0.117778
0.117721
0.117766
0.117768
0.117748
0.117758
0.117749
0.11775
0.117753
0.117755
0.11775
0.117722
0.117748
0.117752
0.117754
0.117725
0.117766
0.117729
0.117753
0.117751
0.117742
0.117749
0.11775
0.117761
0.11775
0.117761
0.117748
0.117754
0.117767
0.117767
0.117729
0.117751
0.117722
0.117722
0.117721
0.117753
0.117722
0.11772
0.117745
0.117721
0.117763
0.117763
0.117722
0.117746
0.117727
0.117722
0.117726
0.117721
0.117726
0.117766
0.117728
0.117722
0.117722
0.11775
0.117755
0.117726
0.11775
0.11772
0.117751
0.117746
0.117721
0.117726
0.117721
0.117721
0.117747
0.117763
0.117777
0.117776
0.117751
0.117777
0.117777
0.117776
0.117773
0.117728
0.117767
0.117759
0.117764
0.117751
0.117774
0.117774
0.117764
0.11772
0.117746
0.117721
0.117728
0.117728
0.11777
0.11777
0.117769
0.11777
0.11777
0.117776
0.11777
0.117774
0.117777
0.11777
0.11777
0.117777
0.117776
0.117774
0.117769
SCALARS rr_tsim float
LOOKUP_TABLE default
260
260
260
260
260
260
260
260
260
260
260
260
260
260
260
260
260
260
260
260
260
260
260
260
260
260
260
260
260
260
260
260
260
260
260
260
260
260
260
260
260
260
260
260
260
260
260
260
260
260
260
260
260
260
260
260
260
260
260
260
260
260
260
260
260
260
260
260
260
260
260
260
260
260
260
260
260
260
260
260
260
260
260
260
260
260
260
260
260
260
260
260
260
260
260
260
260
260
260
260
260
260
260
260
260
260
260
260
260
260
260
260
260
260
260
260
260
260
260
260
260
260
260
260
260
260
260
260
260
260
260
260
260
260
260
260
260
260
260
260
260
260
260
260
260
260
260
260
260
260
260
260
260
260
260
260
260
260
260
260
260
260
260
260
260
260
260
260
260
260
260
260
260
260
260
260
260
260
260
260
260
260
260
260
260
260
260
260
260
260
260
260
260
260
260
260
260
260
260
260
260
260
260
260
260
260
260
260
260
260
260
260
260
260
260
260
260
260
260
260
260
260
260
260
260
260
260
260
260
260
260
260
260
260
260
260
260
260
260
260
260
260
260
260
260
260
260
260
260
260
260
260
260
260
260
260
260
260
260
260
260
260
260
260
260
260
260
260
260
260
260
260
260
260
260
260
260
260
260
260
260
260
260
260
260
260
260
260
260
260
260
260
260
260
260
260
260
260
260
260
260
260
260
260
260
260
260
260
260
260
260
260
260
260
260
260
260
260
260
260
260
260
260
260
260
260
260
260
260
260
260
260
260
260
260
260
260
260
260
260
260
260
260
260
260
260
260
260
260
260
260
260
260
260
260
260
260
260
260
260
260
260
260
260
260
260
260
260
260
260
260
260
260
260
260
260
260
260
260
260
260
260
260
260
260
260
260
260
260
260
260
260
260
260
260
260
260
260
260
260
260
260
260
260
260
260
260
260
260
260
260
260
260
260
260
260
260
260
260
260
260
260
260
260
260
260
260
260
260
260
260
260
260
260
260
260
260
260
260
260
260
260
260
260
260
260
260
260
260
260
260
260
260
260
260
260
260
260
260
260
260
260
260
260
260
260
260
260
260
260
260
260
260
260
260
260
260
260
260
260
260
260
260
260
260
260
260
260
260
260
260
260
260
260
260
260
260
260
260
260
260
260
260
260
260
260
260
260
260
260
260
260
260
260
260
260
260
260
260
260
260
260
260
260
260
260
260
260
260
260
260
260
260
260
260
260
260
260
260
260
260
260
260
260
260
260
260
260
260
260
260
260
260
260
260
260
260
260
260
260
260
260
260
SCALARS rr_Vext float
LOOKUP_TABLE default
0.181359
0.449124
0.356049
0.46811
0.250492
0.377828
0.179275
0.46509
0.395107
0.504566
0.165389
0.466509
0.409826
0.435014
0.516135
0.424865
0.369044
0.414184
0.365532
0.360527
0.405109
0.0765107
0.41507
0.383015
0.347106
0.403472
0.15501
0.352835
0.267413
0.339247
0.36197
0.276485
0.17152
0.252901
0.249247
0.253452
0.330126
0.24949
0.36154
0.192836
0.224721
0.29105
0.29106
0.397272
0.216886
0.24412
0.344613
0.350184
0.33008
0.303761
0.312854
0.245237
0.401518
0.315207
0.369414
0.157754
0.266178
0.317517
0.26615
0.393185
0.47093
0.464873
0.153276
0.327642
0.445314
0.417374
0.455655
0.391905
0.357986
0.515557
0.435555
0.430791
0.277654
0.338745
0.353972
0.176426
0.372676
0.413477
0.39517
0.271133
0.240491
0.283507
0.527532
0.240251
0.327761
0.119292
0.40758
0.344609
0.229706
0.0374829
0.273093
0.0407607
0.316357
0.299312
0.258659
0.232983
0.220908
0.442931
0.372911
0.351856
0.293536
0.27777
0.230478
0.418576
0.426138
0.383832
0.340627
0.340848
0.244629
0.512519
0.326026
0.164039
0.220056
0.457879
0.429718
0.304482
0.308631
0.183508
0.320035
0.303366
0.266986
0.502649
0.51181
0.44204
0.484526
0.384952
0.220815
0.47821
0.200079
0.262279
0.227503
0.456395
0.449024
0.448249
0.288937
0.187537
0.190638
0.32744
0.404468
0.187459
0.241542
0.38729
0.28797
0.472758
0.223276
0.38519
0.349731
0.336128
0.214789
0.269546
0.304299
0.440626
0.248027
0.397411
0.46199
0.469243
0.307856
0.249008
0.247657
0.401136
0.333853
0.246117
0.160076
0.239704
0.240467
0.430955
0.252349
0.255101
0.27462
0.245939
0.386344
0.258183
0.226059
0.297714
0.272812
0.340306
0.382118
0.361133
0.313977
0.360845
0.266567
0.418246
0.448852
0.241614
0.4423
0.23944
0.436795
0.402737
0.378965
0.379415
0.446227
0.200774
0.266928
0.246017
0.44741
0.439021
0.407199
0.447894
0.452952
0.381865
0.466569
0.307716
0.27411
0.512731
0.285547
0.465954
0.369961
0.226655
0.286341
0.461725
0.389034
0.350308
0.450056
0.445256
0.278859
0.284221
0.267543
0.395453
0.433419
0.498092
0.478088
0.52037
0.471558
0.515287
0.432055
0.457201
0.460651
0.434354
0.456357
0.422918
0.416635
0.282411
0.38941
0.454295
0.31212
0.470272
0.432156
0.492659
0.288246
0.468276
0.448677
0.2845
0.406913
0.282469
0.455238
0.411289
0.296255
0.277678
0.235553
0.271097
0.455773
0.197501
0.34702
0.276528
0.313903
0.468671
0.455548
0.147788
0.457104
0.236431
0.261764
0.46627
0.379027
0.264585
0.522182
0.291231
0.147779
0.267724
0.406399
0.508922
0.382689
0.457754
0.425155
0.226615
0.216731
0.175979
0.201428
0.308134
0.229075
0.371981
0.227524
0.406392
0.287622
0.268101
0.323953
0.293522
0.398521
0.281486
0.287596
0.13637
0.303571
0.43781
0.438058
0.391524
0.281116
0.192358
0.545877
0.360488
0.298317
0.274291
0.284976
0.282729
0.358842
0.278091
0.192059
0.274791
0.183496
0.351067
0.279576
0.127091
0.263721
0.321337
0.279315
0.443669
0.29071
0.381467
0.138314
0.305662
0.287014
0.261624
0.269318
0.321991
0.308722
0.321046
0.266564
0.271163
0.293859
0.403601
0.276095
0.399022
0.358787
0.290796
0.286474
0.290122
0.323372
0.289912
0.270117
0.308529
0.333029
0.387866
0.290169
0.286353
0.425142
0.419248
0.276211
0.290835
0.117368
0.342063
0.227678
0.31968
0.126304
0.131123
0.117233
0.119129
0.126411
0.133076
0.137186
0.365818
0.275202
0.269663
0.305534
0.296207
0.292407
0.314709
0.285993
0.292387
0.310823
0.291314
0.368787
0.261063
0.378832
0.289103
0.277578
0.291596
0.322765
0.328993
0.304695
0.351048
0.32603
0.300389
0.213975
0.303859
0.298861
0.32828
0.305308
0.288518
0.275035
0.304063
0.319091
0.43616
0.283305
0.424
0.438658
0.298864
0.422862
0.322474
0.255677
0.356793
0.307317
0.229504
0.18527
0.353348
0.377138
0.313431
0.259542
0.317012
0.138204
0.309863
0.289512
0.140569
0.0597485
0.0653753
0.268651
0.283293
0.331356
0.316585
0.0311308
0.0325286
0.318179
0.321541
0.304241
0.103724
0.264726
0.315902
0.315641
0.272074
0.240281
0.107863
0.464465
0.284945
0.352159
0.357671
0.255162
0.323444
0.249475
0.275479
0.129739
0.199381
0.323804
0.327749
0.280324
0.293562
0.303657
0.320504
0.306408
0.14396
0.275778
0.301352
0.290883
0.437486
0.143857
0.233731
0.240571
0.234522
0.155624
0.155628
0.267698
0.208506
0.301872
0.153856
0.185525
0.0614167
0.0614141
0.11231
0.199633
0.134971
0.256999
0.284537
0.297805
0.336999
0.307416
0.285231
0.222215
0.127171
0.278048
0.290579
0.282437
0.144129
0.147644
0.104628
0.281946
0.28597
0.22418
0.258249
0.238711
0.22379
0.29291
0.223756
0.257202
0.251385
0.158046
0.19524
0.165308
0.310644
0.112706
0.118918
0.115939
0.294532
0.10769
0.104732
0.200916
0.0979319
0.243154
0.243508
0.100659
0.255444
0.113722
0.110988
0.127154
0.105858
0.105723
0.174205
0.12624
0.112774
0.106277
0.235809
0.272657
0.118743
0.260315
0.0960765
0.264787
0.208171
0.100551
0.0864349
0.0948694
0.12646
0.22555
0.192179
0.0824424
0.0914071
0.253855
0.0775858
0.0775825
0.0878715
0.0979619
0.0995848
0.127334
0.207532
0.193794
0.253767
0.0775242
0.0775208
0.229251
0.0843465
0.178713
0.0765189
0.0783412
0.103271
0.198595
0.205595
0.218906
0.200659
0.19858
0.0438923
0.32038
0.0557536
0.0543417
0.259007
0.257238
0.0563344
0.0390571
0.0548044
0.238559
SCALARS rr_Vli float
LOOKUP_TABLE default
0.396486
0.903297
0.721402
0.942902
0.493003
0.765664
0.392034
0.937669
0.806266
1.01511
0.359835
0.940542
0.827701
0.874153
1.02412
0.859728
0.739394
0.835914
0.748796
0.732053
0.823479
0.146196
0.843737
0.777625
0.704887
0.813139
0.333348
0.714256
0.560608
0.659801
0.731224
0.579527
0.369271
0.494392
0.485904
0.495506
0.641457
0.486895
0.730481
0.415064
0.47121
0.565329
0.565389
0.802513
0.463322
0.511147
0.704661
0.713571
0.66868
0.640142
0.657314
0.509708
0.791281
0.654953
0.728498
0.336093
0.518807
0.659755
0.518791
0.798045
0.943863
0.925029
0.327839
0.652217
0.886009
0.836194
0.912999
0.789773
0.727288
1.03671
0.858506
0.849151
0.58221
0.676851
0.716968
0.381182
0.738158
0.828438
0.79642
0.562479
0.507623
0.556447
1.05351
0.508332
0.685383
0.254579
0.825074
0.689486
0.49066
0.0719434
0.567528
0.0782461
0.626349
0.600258
0.537108
0.489901
0.466216
0.891213
0.738706
0.711148
0.604216
0.579672
0.487749
0.844109
0.85808
0.772713
0.679546
0.689379
0.517758
1.02965
0.661677
0.349478
0.467059
0.92382
0.865435
0.632491
0.601612
0.387411
0.624001
0.629991
0.547959
0.998311
1.02947
0.884277
0.972856
0.763252
0.43175
0.962235
0.422252
0.544646
0.448452
0.918479
0.897109
0.901822
0.602899
0.365537
0.404181
0.660931
0.807731
0.365414
0.503538
0.778933
0.59024
0.951059
0.471531
0.776064
0.704322
0.680954
0.435246
0.556267
0.620246
0.886306
0.519981
0.802496
0.929441
0.944261
0.617853
0.518656
0.515713
0.810196
0.680205
0.515659
0.341238
0.503638
0.500927
0.867513
0.525644
0.531442
0.575696
0.512236
0.764767
0.536473
0.475014
0.597025
0.566758
0.6791
0.756451
0.728158
0.618511
0.726372
0.558759
0.841635
0.903303
0.503621
0.884782
0.503408
0.873806
0.803283
0.749915
0.763388
0.892541
0.423344
0.554569
0.51569
0.900209
0.886299
0.82171
0.894903
0.911195
0.76527
0.938415
0.629674
0.568292
1.02454
0.598471
0.930551
0.741277
0.47324
0.569198
0.928573
0.772727
0.703605
0.906434
0.889137
0.575328
0.570471
0.554199
0.788782
0.870376
1.00028
0.961015
1.04558
0.947451
1.03539
0.868711
0.907696
0.914769
0.862344
0.905931
0.83393
0.821516
0.583003
0.782794
0.915906
0.636238
0.93312
0.857209
0.993023
0.597475
0.944368
0.902754
0.586735
0.808801
0.582774
0.908854
0.829725
0.61088
0.57498
0.497305
0.572061
0.910101
0.417614
0.701481
0.572845
0.642712
0.945256
0.914966
0.286927
0.918293
0.500197
0.542258
0.9401
0.7642
0.548649
1.04888
0.596675
0.286927
0.5545
0.815977
1.01856
0.772233
0.908465
0.850822
0.4466
0.437752
0.374434
0.429883
0.608683
0.465559
0.749992
0.469384
0.807668
0.576817
0.55534
0.649547
0.603995
0.802277
0.579178
0.59602
0.263019
0.600442
0.86851
0.869129
0.787208
0.578062
0.376388
1.09285
0.734299
0.613258
0.565366
0.562958
0.583123
0.710459
0.572676
0.410196
0.565167
0.387691
0.700125
0.576599
0.245149
0.543077
0.642113
0.576619
0.88724
0.598797
0.772173
0.296222
0.619803
0.592062
0.51704
0.555817
0.655879
0.617314
0.645549
0.54901
0.557647
0.602196
0.804985
0.56787
0.804505
0.726242
0.573154
0.589128
0.594776
0.657842
0.593794
0.555994
0.631807
0.662546
0.78218
0.594651
0.590809
0.855287
0.843307
0.5683
0.573277
0.256088
0.692601
0.480627
0.650103
0.287606
0.29855
0.266803
0.271172
0.287682
0.303056
0.312311
0.729343
0.539723
0.544565
0.622603
0.6065
0.598933
0.633519
0.586131
0.599483
0.609469
0.596712
0.732658
0.542545
0.753107
0.586003
0.565698
0.597465
0.637466
0.666112
0.620592
0.710715
0.663996
0.615742
0.444039
0.619297
0.605571
0.652004
0.624636
0.591868
0.562871
0.620017
0.646721
0.877917
0.579857
0.853548
0.889738
0.609277
0.852428
0.653929
0.52384
0.713543
0.625425
0.450401
0.395665
0.704468
0.750313
0.6352
0.528048
0.635252
0.301236
0.628021
0.589265
0.300912
0.115298
0.126126
0.544004
0.580097
0.673736
0.647661
0.0592774
0.0619389
0.641396
0.648087
0.613482
0.226113
0.542804
0.631011
0.643416
0.555014
0.489877
0.235469
0.929282
0.583733
0.713232
0.724382
0.520582
0.658847
0.508989
0.561647
0.279101
0.421176
0.659631
0.663708
0.570433
0.599124
0.618256
0.651892
0.623523
0.307427
0.547096
0.616831
0.583015
0.874901
0.307368
0.473533
0.487753
0.46224
0.300515
0.300535
0.529553
0.427592
0.611536
0.329005
0.358876
0.117176
0.117176
0.245398
0.389619
0.262494
0.52105
0.563539
0.601411
0.677646
0.614657
0.569069
0.448036
0.27725
0.562546
0.5828
0.564247
0.311557
0.287924
0.224284
0.563451
0.574849
0.461942
0.521747
0.481453
0.440836
0.590094
0.440798
0.520822
0.502147
0.307811
0.380027
0.353393
0.623982
0.246785
0.25998
0.254334
0.589283
0.234981
0.230138
0.410009
0.214644
0.477121
0.477842
0.220334
0.51961
0.244574
0.243122
0.273901
0.231958
0.227739
0.339829
0.270697
0.245996
0.232678
0.475748
0.543002
0.256116
0.525107
0.211012
0.532689
0.423219
0.220454
0.186663
0.208255
0.276319
0.457467
0.376608
0.157552
0.174883
0.509986
0.148307
0.148306
0.168049
0.188628
0.213205
0.248113
0.410273
0.379761
0.51034
0.149004
0.149003
0.448511
0.184462
0.363609
0.167149
0.16815
0.221554
0.384549
0.398195
0.424214
0.388778
0.384539
0.0840102
0.620731
0.107163
0.103829
0.501444
0.497965
0.107596
0.0747329
0.105301
0.462542
SCALARS rr_S_ext' float
LOOKUP_TABLE default
-0.00038277
-0.000873933
-0.000697829
-0.000912215
-0.000477232
-0.00074064
-0.000378469
-0.000907141
-0.000779782
-0.000982111
-0.000347424
-0.000909919
-0.000800718
-0.00084576
-0.000991158
-0.000831662
-0.000715427
-0.000808674
-0.000724126
-0.000708092
-0.000796508
-0.000141617
-0.000816097
-0.000752175
-0.000681814
-0.000786669
-0.000321956
-0.00069093
-0.000541816
-0.000638869
-0.000707384
-0.000560103
-0.000356642
-0.00047865
-0.000470466
-0.000479728
-0.00062112
-0.000471415
-0.000706661
-0.000400871
-0.000455412
-0.000547411
-0.000547468
-0.000776348
-0.000447566
-0.00049403
-0.000681478
-0.000690157
-0.000646832
-0.000618598
-0.000635243
-0.000492734
-0.000765941
-0.000633148
-0.000705158
-0.000324691
-0.000502327
-0.000637789
-0.00050231
-0.000771932
-0.000913259
-0.000895199
-0.000316684
-0.000631179
-0.000857439
-0.000809095
-0.000883401
-0.000764065
-0.000703474
-0.00100301
-0.00083101
-0.000821955
-0.00056269
-0.000654959
-0.000693546
-0.000368109
-0.000714436
-0.000801589
-0.000770494
-0.000543772
-0.00049052
-0.000538684
-0.00101944
-0.000491173
-0.000662455
-0.000245929
-0.00079813
-0.000667164
-0.000473975
-6.96826e-05
-0.00054863
-7.57869e-05
-0.000606224
-0.00058079
-0.000519234
-0.000473441
-0.000450512
-0.000862236
-0.000714964
-0.000687952
-0.00058424
-0.000560311
-0.000471282
-0.000816617
-0.000830165
-0.000747579
-0.000657588
-0.000666882
-0.000500278
-0.000996197
-0.000640027
-0.000337618
-0.000451255
-0.000893721
-0.000837277
-0.000611438
-0.000582501
-0.000374358
-0.000604174
-0.000609025
-0.000529881
-0.000966156
-0.000996004
-0.000855648
-0.000941264
-0.000738699
-0.000418003
-0.000930947
-0.000408029
-0.00052652
-0.000434087
-0.000888607
-0.000868089
-0.000872498
-0.000582764
-0.000353924
-0.000390519
-0.000639395
-0.00078161
-0.000353805
-0.000486732
-0.000753618
-0.000570788
-0.00092014
-0.00045564
-0.000750805
-0.000681409
-0.000658705
-0.000421022
-0.00053784
-0.000599889
-0.00085749
-0.00050255
-0.000776339
-0.000899224
-0.000913552
-0.000597803
-0.000501358
-0.000498516
-0.000783781
-0.000657888
-0.000498381
-0.000329653
-0.000486726
-0.000484218
-0.000839298
-0.000508112
-0.000513716
-0.000556398
-0.000495152
-0.000740197
-0.000518611
-0.000459063
-0.000577663
-0.000547891
-0.000657152
-0.000732148
-0.000704448
-0.000598712
-0.000702748
-0.000540032
-0.000814268
-0.000873928
-0.000486814
-0.000856141
-0.000486496
-0.000845516
-0.000777334
-0.000725829
-0.000738568
-0.00086365
-0.000409093
-0.000536107
-0.000498405
-0.000870936
-0.000857411
-0.000794935
-0.000865954
-0.000881568
-0.000740464
-0.000907908
-0.000608946
-0.000549401
-0.000991391
-0.000578414
-0.000900459
-0.000717252
-0.000457426
-0.000550856
-0.000898387
-0.000747842
-0.000680761
-0.000876942
-0.000860385
-0.000556273
-0.000551959
-0.000535789
-0.000763301
-0.000842109
-0.000967796
-0.000929781
-0.00101161
-0.00091667
-0.00100175
-0.000840481
-0.000878468
-0.000885307
-0.000834575
-0.000876762
-0.000807213
-0.000795197
-0.000563686
-0.000757359
-0.000886073
-0.000615356
-0.000903086
-0.000829625
-0.000960683
-0.000577617
-0.000913601
-0.000873402
-0.000567309
-0.000782739
-0.000563473
-0.000879471
-0.000802685
-0.000590656
-0.000555885
-0.000480548
-0.000552788
-0.000880674
-0.000403527
-0.000678598
-0.000553815
-0.000621545
-0.000914458
-0.000885248
-0.000277836
-0.000888462
-0.000483318
-0.000524243
-0.000909476
-0.000739318
-0.000530408
-0.00101481
-0.000577017
-0.000277836
-0.000536081
-0.00078948
-0.000985571
-0.000747071
-0.00087922
-0.000823272
-0.000432299
-0.00042348
-0.000361741
-0.000415277
-0.000589159
-0.000450312
-0.000725573
-0.00045384
-0.000781645
-0.00055811
-0.000536892
-0.000628484
-0.000584032
-0.000776184
-0.000560037
-0.000576212
-0.000254725
-0.000581163
-0.000840559
-0.000841155
-0.000761627
-0.000558967
-0.000364395
-0.00105745
-0.000710211
-0.000593004
-0.000546657
-0.0005449
-0.000563816
-0.000687632
-0.000553739
-0.000396249
-0.000546494
-0.000374621
-0.00067751
-0.000557507
-0.000237418
-0.000525117
-0.000621341
-0.000557513
-0.000858522
-0.000578991
-0.000746958
-0.000286134
-0.000599536
-0.000572456
-0.000500448
-0.000537404
-0.000634362
-0.000597337
-0.000624567
-0.000530852
-0.000539225
-0.000582353
-0.000778982
-0.000549107
-0.000778312
-0.000702528
-0.0005548
-0.000569665
-0.000575171
-0.000636283
-0.000574236
-0.000537614
-0.000610999
-0.000641183
-0.000756708
-0.000575056
-0.000571241
-0.000827485
-0.000815898
-0.000549518
-0.000554918
-0.000247236
-0.000669981
-0.000464433
-0.000628803
-0.000277325
-0.000287878
-0.000257269
-0.00026148
-0.000277402
-0.000292223
-0.00030115
-0.000705789
-0.000522499
-0.000526812
-0.000602172
-0.000586526
-0.000579204
-0.000612916
-0.000566815
-0.000579722
-0.000590022
-0.000577056
-0.00070906
-0.000524478
-0.000728832
-0.000566848
-0.000547134
-0.00057778
-0.000617022
-0.000644358
-0.000600235
-0.000687506
-0.000642216
-0.000595447
-0.000429268
-0.000598971
-0.000585783
-0.000631007
-0.000604077
-0.000572348
-0.000544341
-0.000599661
-0.000625584
-0.000849368
-0.000560766
-0.000825789
-0.00086064
-0.000589277
-0.000824678
-0.000632546
-0.000506581
-0.000690446
-0.000604922
-0.000436021
-0.000382213
-0.000681718
-0.00072612
-0.000614441
-0.000510742
-0.000614661
-0.000290832
-0.000607493
-0.000569946
-0.000290667
-0.000111661
-0.000122148
-0.000526234
-0.000560991
-0.000651665
-0.000626346
-5.74256e-05
-6.00039e-05
-0.000620513
-0.000626991
-0.000593506
-0.000218304
-0.000524908
-0.000610604
-0.000622299
-0.000536788
-0.000473796
-0.000227326
-0.000899194
-0.000564501
-0.000689933
-0.00070072
-0.000503485
-0.000637234
-0.000492272
-0.00054321
-0.000269561
-0.000406979
-0.000637991
-0.000642029
-0.000551735
-0.000579442
-0.000597981
-0.000630531
-0.000603083
-0.000296976
-0.000529492
-0.000596521
-0.000564114
-0.000846584
-0.000296914
-0.00045806
-0.000471806
-0.000447437
-0.000291029
-0.000291049
-0.000512547
-0.000413494
-0.000591555
-0.000317809
-0.000347534
-0.00011351
-0.00011351
-0.000236906
-0.000377231
-0.000254167
-0.000504017
-0.000545428
-0.000581805
-0.000655622
-0.000594763
-0.000550683
-0.000433448
-0.000267673
-0.000544184
-0.000563897
-0.000545997
-0.000300867
-0.000278773
-0.000216641
-0.000545222
-0.000556173
-0.000446657
-0.000504734
-0.000465774
-0.000426722
-0.000570892
-0.000426685
-0.00050381
-0.000485908
-0.000298036
-0.000367965
-0.00034137
-0.000603718
-0.000238238
-0.000250986
-0.000245511
-0.000570204
-0.000226859
-0.000222144
-0.000396541
-0.000207203
-0.000461892
-0.00046259
-0.000212704
-0.00050258
-0.000236217
-0.000234699
-0.000264529
-0.00022392
-0.000219947
-0.000329028
-0.000261466
-0.000237496
-0.000224619
-0.000460252
-0.00052548
-0.000247344
-0.000508005
-0.000203684
-0.000515373
-0.000409354
-0.000212811
-0.000180263
-0.000201028
-0.000266756
-0.000442507
-0.000364597
-0.000152616
-0.0001694
-0.000493424
-0.00014366
-0.000143659
-0.000162781
-0.000182687
-0.000205943
-0.000240232
-0.000397105
-0.000367649
-0.000493754
-0.000144317
-0.000144316
-0.000434226
-0.000178073
-0.000351691
-0.000161367
-0.000162415
-0.000213998
-0.000372387
-0.000385599
-0.000410789
-0.000376477
-0.000372377
-8.13756e-05
-0.000601092
-0.000103792
-0.000100577
-0.000485587
-0.000482219
-0.000104227
-7.23898e-05
-0.000101989
-0.0004479
SCALARS rr_P_ext' float
LOOKUP_TABLE default
0.00017693
0.000408672
0.000325999
0.000426489
0.000223802
0.000345991
0.000174935
0.000424063
0.000363934
0.00045924
0.000160706
0.000425361
0.000374225
0.000395542
0.00046432
0.000388587
0.000334721
0.000377981
0.000337784
0.000330698
0.000371934
6.66655e-05
0.000381083
0.000351291
0.00031842
0.000367765
0.000149173
0.000322815
0.000251941
0.000300067
0.000330593
0.000260451
0.000165217
0.000224666
0.000220902
0.000225169
0.000291766
0.000221317
0.000330248
0.000185713
0.000211757
0.000257153
0.000257178
0.000362825
0.000207568
0.00022976
0.000317967
0.000322167
0.000302181
0.000287435
0.000295294
0.000229392
0.000359134
0.000294772
0.000330605
0.000150638
0.000235868
0.000296933
0.000235858
0.000360532
0.00042726
0.000419208
0.000146842
0.000295556
0.000401532
0.000378546
0.000413306
0.000357201
0.000328517
0.000469044
0.000389635
0.000385387
0.000261639
0.00030654
0.000324011
0.000170443
0.000334762
0.000375031
0.000360202
0.000253218
0.000227871
0.00025271
0.000477162
0.000228098
0.000308145
0.000114071
0.000372901
0.000312197
0.000219819
3.27843e-05
0.000255419
3.56556e-05
0.000284074
0.000271695
0.000241759
0.000220055
0.000209289
0.000403179
0.000335005
0.000321491
0.000272352
0.000260706
0.000218856
0.000381734
0.000388143
0.000349541
0.000307835
0.000311615
0.000232316
0.000465918
0.000298929
0.000156637
0.000209469
0.000417749
0.00039146
0.000284676
0.00027351
0.000173903
0.000283678
0.000283563
0.000247111
0.000452551
0.00046575
0.000400407
0.000440259
0.000346087
0.000196194
0.000435307
0.000189554
0.000245151
0.000203529
0.000415501
0.000406298
0.000407985
0.000271158
0.000166185
0.000181303
0.000298851
0.000365845
0.000166127
0.000226504
0.000352408
0.000266235
0.000430265
0.000211651
0.000351013
0.000318586
0.000307727
0.000196682
0.000250634
0.00028002
0.000400978
0.000233682
0.000362839
0.000420482
0.00042717
0.000279625
0.000233337
0.000232022
0.000366307
0.000307109
0.000231763
0.000152929
0.000226254
0.000225357
0.000392429
0.000236479
0.000239083
0.000258723
0.000230451
0.000346862
0.000241448
0.000213392
0.000270233
0.000255086
0.000307619
0.000343087
0.000329305
0.000280738
0.000328583
0.000251116
0.000380744
0.000408636
0.000226546
0.000400637
0.000226127
0.000395664
0.000363901
0.000340143
0.000345354
0.000404157
0.000190072
0.000249597
0.000231759
0.00040725
0.000400745
0.000371565
0.000405295
0.000412231
0.000346423
0.000424559
0.000284097
0.000255861
0.000463999
0.000268968
0.000421471
0.000335571
0.000212821
0.000257992
0.000420113
0.000350286
0.000318396
0.000410002
0.000402719
0.000259234
0.000258178
0.000249551
0.000357329
0.000393873
0.000452658
0.000434823
0.000473118
0.000428717
0.000468503
0.000393044
0.000411499
0.000414689
0.000390938
0.000410705
0.000378458
0.000372826
0.000262667
0.000354183
0.000414219
0.000287236
0.000423062
0.000388665
0.000449111
0.000269009
0.000427071
0.000408402
0.000264391
0.000366599
0.000262589
0.000411665
0.000375206
0.000275278
0.000258924
0.000223232
0.000256809
0.000412217
0.000187412
0.000317113
0.000257945
0.000289952
0.000427466
0.000414041
0.000130525
0.000415532
0.000224453
0.000244172
0.000425156
0.000345608
0.00024701
0.000474632
0.000269156
0.000130524
0.000249692
0.000369266
0.000461176
0.000349194
0.000411871
0.000385236
0.000202696
0.000197917
0.000167859
0.000192619
0.000276159
0.000210282
0.000339182
0.0002115
0.000366092
0.000261084
0.000250066
0.000294013
0.000272266
0.000362916
0.000261083
0.000268362
0.000119769
0.000272365
0.000393782
0.000394054
0.000356169
0.000260606
0.000171017
0.00049479
0.000331545
0.000276486
0.000254785
0.000255412
0.00026276
0.000322221
0.000258117
0.000183774
0.000254784
0.000174007
0.000317175
0.000259822
0.00011163
0.000244777
0.000290804
0.00025979
0.00040177
0.000269881
0.000348994
0.000132652
0.000280051
0.000266781
0.000234564
0.00025043
0.000296138
0.000279544
0.000292072
0.000247445
0.000251399
0.000271636
0.000364674
0.000256002
0.000363837
0.000328237
0.000260129
0.000265591
0.000268272
0.000297085
0.000267869
0.000250617
0.000285026
0.000300265
0.000353728
0.000268232
0.000266208
0.000386937
0.000381526
0.000256181
0.000260182
0.000114316
0.000313017
0.000215749
0.000293607
0.000127425
0.000132276
0.00011822
0.000120151
0.000127472
0.000134268
0.000138377
0.000330426
0.000245144
0.000246216
0.000281095
0.000273614
0.000270185
0.000286579
0.000264386
0.000270391
0.000276831
0.000269182
0.000332112
0.000244174
0.000341346
0.000264795
0.000255399
0.000269509
0.000289226
0.000301047
0.000280209
0.000321209
0.000299811
0.000277734
0.000199888
0.000279595
0.000273653
0.000295564
0.000281832
0.000266933
0.000253952
0.000279898
0.000292236
0.000397141
0.000261611
0.00038611
0.000402
0.00027506
0.00038552
0.000295468
0.0002363
0.000323112
0.000282428
0.000204553
0.000177267
0.000319157
0.00034004
0.000287034
0.000238466
0.00028757
0.000134493
0.000283786
0.000266094
0.000134762
5.24982e-05
5.74305e-05
0.000245856
0.0002617
0.000304288
0.000292225
2.70447e-05
2.8259e-05
0.000290078
0.000293111
0.000277441
0.000100951
0.000244823
0.000285793
0.000290477
0.000250537
0.000221154
0.000105102
0.000420776
0.000263322
0.000322327
0.000327368
0.000234989
0.000297477
0.000229756
0.000253554
0.00012489
0.000189041
0.000297828
0.000299953
0.000257599
0.000270429
0.00027917
0.000294407
0.000281573
0.000137735
0.000248053
0.00027829
0.000263914
0.000396181
0.000137697
0.00021399
0.00022039
0.00020979
0.000136818
0.000136826
0.000240205
0.000192854
0.000276358
0.000147369
0.000163346
5.34447e-05
5.34441e-05
0.000109517
0.000177099
0.000119379
0.000235436
0.000255573
0.000271917
0.000306593
0.000278343
0.000257787
0.000202623
0.00012378
0.000254271
0.000263789
0.000255549
0.000139299
0.00013089
0.000100422
0.000255175
0.000260098
0.000208186
0.000235883
0.000217725
0.000200093
0.000266902
0.000200074
0.000235379
0.000227428
0.000139958
0.000172809
0.000158301
0.000282361
0.000110097
0.000116015
0.000113428
0.000266826
0.000104893
0.000102607
0.00018507
9.57418e-05
0.000216693
0.000217019
9.8302e-05
0.000234662
0.000109446
0.000108455
0.000122536
0.000103469
0.000101884
0.000154478
0.000121196
0.000109816
0.000103805
0.000215134
0.000246048
0.000114554
0.00023746
9.40879e-05
0.000240991
0.000191147
9.83282e-05
8.34718e-05
9.28671e-05
0.000123316
0.000206693
0.000171077
7.18423e-05
7.97315e-05
0.000230771
6.76243e-05
6.76233e-05
7.66205e-05
8.59155e-05
9.54808e-05
0.000112806
0.000186118
0.00017251
0.000230894
6.78863e-05
6.78854e-05
0.000203792
8.23095e-05
0.000164204
7.45995e-05
7.52718e-05
9.91853e-05
0.000175004
0.000181208
0.000193032
0.000176913
0.000174998
3.82991e-05
0.000282463
4.88234e-05
4.73465e-05
0.000228208
0.000226628
4.90672e-05
3.40713e-05
4.79775e-05
0.000210456
SCALARS rr_S' float
LOOKUP_TABLE default
0.000166964
0.000382285
0.000305181
0.000399011
0.0002089
0.000323902
0.000165086
0.000396783
0.000340943
0.000429602
0.000151569
0.000397998
0.000350214
0.000369973
0.000433747
0.000363726
0.000312988
0.0003537
0.000316568
0.000309648
0.0003483
6.20455e-05
0.000356865
0.000328926
0.000298155
0.000344091
0.000140518
0.000302172
0.000236684
0.000279752
0.00030939
0.000244674
0.00015565
0.000209562
0.000205998
0.000210034
0.000271988
0.000206407
0.000309072
0.000174955
0.000198938
0.000239713
0.000239738
0.000339553
0.000195385
0.000215818
0.000297941
0.000301771
0.00028288
0.000270176
0.000277475
0.000215306
0.000335261
0.000276665
0.00030865
0.000141758
0.00021995
0.000278692
0.000219942
0.000337569
0.000399531
0.000391722
0.000138244
0.000276189
0.0003752
0.000353968
0.000386472
0.000334206
0.000307623
0.000438748
0.000363741
0.000359777
0.000245801
0.000286561
0.000303311
0.000160634
0.000312669
0.000350684
0.000337016
0.000237622
0.000214227
0.00023582
0.000446034
0.000214494
0.000289409
0.000107364
0.000349056
0.000291888
0.000206914
3.05252e-05
0.000239732
3.31991e-05
0.000265314
0.00025408
0.000226893
0.000206794
0.000196755
0.000377164
0.0003129
0.000300886
0.000255374
0.000244802
0.000205806
0.000357183
0.000363127
0.000327005
0.000287724
0.000291664
0.000218467
0.00043578
0.000279887
0.000147401
0.00019704
0.000390902
0.000366236
0.000267181
0.000255054
0.000163494
0.000264542
0.000266129
0.000231635
0.000422794
0.00043568
0.000374352
0.000411757
0.000323276
0.00018301
0.000407219
0.000178201
0.000230076
0.000190003
0.000388696
0.000379809
0.000381653
0.000254613
0.000154969
0.000170527
0.000279661
0.000341977
0.000154917
0.000212663
0.000329658
0.000249528
0.000402495
0.00019899
0.000328407
0.000298058
0.000288072
0.000184125
0.000235072
0.000262298
0.00037509
0.00021953
0.000339553
0.000393345
0.000399608
0.000261516
0.00021906
0.000217819
0.000342805
0.000287662
0.000217714
0.000143921
0.000212602
0.000211569
0.000367125
0.00022201
0.000224458
0.000243054
0.000216348
0.000323948
0.000226616
0.000200518
0.000252712
0.000239412
0.00028753
0.000320425
0.000308124
0.000262067
0.000307396
0.000235906
0.000356181
0.000382276
0.000212699
0.000374569
0.000212497
0.000369919
0.000340121
0.000317664
0.000323069
0.000377856
0.000178672
0.000234262
0.000217721
0.000380968
0.000375014
0.000347692
0.000378874
0.000385621
0.000323941
0.000397145
0.000266224
0.000240087
0.000433754
0.000252674
0.000393977
0.000313787
0.000199848
0.000241052
0.000392981
0.00032726
0.0002978
0.000383586
0.000376444
0.00024313
0.000241461
0.000234146
0.000333981
0.00036838
0.000423361
0.000406719
0.000442521
0.00040099
0.000438206
0.000367657
0.000384426
0.000387415
0.000365217
0.00038368
0.00035332
0.000348061
0.000246365
0.000331298
0.000387562
0.000269061
0.000395206
0.000363061
0.000420199
0.000252419
0.000399599
0.000382049
0.000247957
0.000342523
0.000246278
0.000384798
0.000351081
0.000258163
0.000242931
0.00020987
0.000241422
0.000385322
0.000176223
0.000296793
0.000242023
0.000271727
0.000399973
0.000387249
0.000121667
0.000388652
0.000211066
0.000229099
0.000397798
0.000323376
0.000231786
0.000443922
0.000252255
0.000121667
0.000234275
0.000345359
0.000431187
0.000326758
0.000384759
0.000360184
0.000189223
0.000185219
0.000157941
0.000181296
0.000257863
0.000196916
0.000317364
0.000198361
0.000342045
0.000244158
0.000234628
0.000274947
0.000255285
0.000339518
0.000244798
0.000251807
0.000111569
0.000254353
0.000367845
0.000368104
0.000333164
0.000244335
0.000159535
0.000462631
0.000310543
0.000259216
0.000238936
0.000238492
0.00024643
0.000300942
0.000242038
0.000172984
0.000238881
0.000163605
0.000296444
0.000243673
0.000103988
0.000229528
0.00027185
0.000243667
0.000375613
0.000253074
0.000326677
0.000124902
0.000262188
0.000250205
0.000219033
0.00023488
0.000277377
0.000261343
0.000273207
0.000232033
0.000235705
0.000254586
0.000340842
0.000240023
0.000340432
0.000307246
0.000242843
0.000249011
0.000251443
0.000278229
0.000251042
0.000234994
0.000267116
0.000280571
0.000330981
0.000251396
0.000249672
0.000361967
0.0003569
0.0002402
0.000242894
0.00010785
0.000293009
0.000202833
0.000274961
0.000120784
0.00012538
0.000112051
0.000113884
0.000120819
0.000127272
0.000131162
0.00030882
0.000228738
0.000230414
0.000263299
0.000256417
0.000253214
0.000268102
0.000247793
0.000253432
0.000258299
0.000252274
0.000310287
0.000229178
0.00031893
0.000247895
0.000239233
0.000252589
0.00027006
0.000281804
0.000262456
0.000300674
0.000280813
0.000260308
0.000187583
0.000261898
0.00025618
0.000276133
0.000264097
0.000250203
0.000237979
0.000262195
0.000273584
0.000371532
0.000245158
0.000361217
0.000376369
0.000257657
0.000360715
0.000276623
0.000221462
0.000302077
0.000264513
0.000190876
0.000166857
0.000298289
0.000317737
0.000268711
0.000223333
0.000268904
0.000126872
0.000265672
0.000249218
0.000126883
4.89068e-05
5.35005e-05
0.000230142
0.000245253
0.000284961
0.000273834
2.51621e-05
2.62918e-05
0.000271412
0.000274248
0.000259598
9.52323e-05
0.000229468
0.000267156
0.000272097
0.000234702
0.000207163
9.91628e-05
0.000393402
0.000246784
0.000301733
0.00030645
0.00022014
0.000278633
0.000215237
0.000237514
0.000117649
0.000177737
0.000278963
0.000280783
0.000241256
0.000253348
0.000261474
0.000275716
0.000263709
0.000129647
0.000231717
0.000260789
0.000246789
0.00037039
0.000129617
0.000200323
0.00020633
0.000195848
0.000127465
0.000127474
0.000224321
0.000180762
0.000258706
0.000138735
0.000152205
4.97337e-05
4.97334e-05
0.000103338
0.000165168
0.000111297
0.000220417
0.000238704
0.000254467
0.000286791
0.000260217
0.000240948
0.00018959
0.000116768
0.000237999
0.000246689
0.000238887
0.000131289
0.000122061
9.45646e-05
0.000238546
0.000243292
0.000195229
0.000220755
0.000203727
0.000186783
0.000249714
0.000186767
0.000220336
0.000212598
0.000130501
0.000161123
0.000149022
0.000264095
0.000103913
0.00010948
0.000107078
0.000249468
9.89612e-05
9.68809e-05
0.000173379
9.03736e-05
0.000202204
0.000202509
9.27774e-05
0.000219765
0.000103097
0.000102369
0.000115447
9.76659e-05
9.59902e-05
0.000144065
0.000114128
0.000103602
9.79733e-05
0.00020131
0.000229934
0.000107942
0.000222197
8.88318e-05
0.000225439
0.000179003
9.28189e-05
7.86644e-05
8.76753e-05
0.000116359
0.000193515
0.000159617
6.68641e-05
7.42147e-05
0.000215847
6.29398e-05
6.29391e-05
7.13161e-05
8.00203e-05
8.98977e-05
0.000105189
0.0001738
0.000160953
0.000215985
6.32172e-05
6.32166e-05
0.000190109
7.76729e-05
0.000153784
7.03893e-05
7.08915e-05
9.34077e-05
0.000163084
0.000168869
0.000179899
0.000164873
0.00016308
3.56505e-05
0.000263241
4.54653e-05
4.40648e-05
0.000212661
0.000211187
4.56648e-05
3.17142e-05
4.46761e-05
0.000196147
SCALARS rr_P' float
LOOKUP_TABLE default
3.88761e-05
8.29758e-05
6.6649e-05
8.67154e-05
4.45305e-05
7.07479e-05
3.84475e-05
8.62955e-05
7.49045e-05
9.32695e-05
3.51484e-05
8.65606e-05
7.62789e-05
8.02442e-05
9.30898e-05
7.93493e-05
6.77174e-05
7.69934e-05
6.97746e-05
6.77466e-05
7.62729e-05
1.29059e-05
7.81497e-05
7.19577e-05
6.52389e-05
7.48129e-05
3.22656e-05
6.59432e-05
5.31911e-05
5.90497e-05
6.74005e-05
5.49788e-05
3.57744e-05
4.44222e-05
4.35662e-05
4.4525e-05
5.73659e-05
4.36911e-05
6.73409e-05
4.02032e-05
4.47164e-05
5.05439e-05
5.05521e-05
7.39696e-05
4.46131e-05
4.84508e-05
6.5569e-05
6.62187e-05
6.17706e-05
6.09867e-05
6.24746e-05
4.80362e-05
7.15453e-05
6.1711e-05
6.59027e-05
3.22941e-05
4.65091e-05
6.21637e-05
4.65102e-05
7.38308e-05
8.64677e-05
8.42686e-05
3.15983e-05
5.94342e-05
8.07068e-05
7.65808e-05
8.36224e-05
7.26592e-05
6.73343e-05
9.52159e-05
7.7634e-05
7.67905e-05
5.52505e-05
6.1859e-05
6.62231e-05
3.70308e-05
6.70045e-05
7.58742e-05
7.32757e-05
5.29321e-05
4.84226e-05
5.0154e-05
9.6242e-05
4.85809e-05
6.49007e-05
2.44939e-05
7.61741e-05
6.3079e-05
4.72417e-05
6.37308e-06
5.34795e-05
6.93217e-06
5.6837e-05
5.50157e-05
5.05818e-05
4.65925e-05
4.44673e-05
8.18925e-05
6.706e-05
6.55754e-05
5.65145e-05
5.48031e-05
4.66209e-05
7.77003e-05
7.88949e-05
7.10331e-05
6.20295e-05
6.36025e-05
4.9494e-05
9.44995e-05
6.12106e-05
3.35797e-05
4.47455e-05
8.50701e-05
7.95815e-05
5.95815e-05
5.39365e-05
3.69603e-05
5.59548e-05
5.93326e-05
5.11355e-05
9.08109e-05
9.45732e-05
8.08893e-05
8.92479e-05
6.93371e-05
3.87996e-05
8.84213e-05
4.02737e-05
5.12932e-05
4.05552e-05
8.44102e-05
8.19822e-05
8.28605e-05
5.69931e-05
3.27696e-05
3.86889e-05
6.08825e-05
7.37887e-05
3.27605e-05
4.7566e-05
7.15521e-05
5.50242e-05
8.73796e-05
4.49981e-05
7.13854e-05
6.47647e-05
6.2906e-05
4.02155e-05
5.21343e-05
5.75709e-05
8.14221e-05
4.93375e-05
7.39467e-05
8.53966e-05
8.67744e-05
5.66612e-05
4.89613e-05
4.86739e-05
7.46689e-05
6.31161e-05
4.89036e-05
3.28032e-05
4.78695e-05
4.72922e-05
7.97431e-05
4.96231e-05
5.01754e-05
5.46211e-05
4.83531e-05
6.93871e-05
5.0548e-05
4.51523e-05
5.47174e-05
5.33934e-05
6.20026e-05
6.8636e-05
6.70192e-05
5.59064e-05
6.67685e-05
5.30102e-05
7.73432e-05
8.3016e-05
4.75689e-05
8.09346e-05
4.78719e-05
7.99331e-05
7.33122e-05
6.80222e-05
7.01451e-05
8.16374e-05
4.03498e-05
5.22476e-05
4.89246e-05
8.27178e-05
8.16529e-05
7.56775e-05
8.17842e-05
8.37155e-05
7.01009e-05
8.6204e-05
5.86248e-05
5.34524e-05
9.36373e-05
5.6772e-05
8.50111e-05
6.78933e-05
4.47583e-05
5.1812e-05
8.52927e-05
7.02956e-05
6.45648e-05
8.33546e-05
8.1222e-05
5.39091e-05
5.23197e-05
5.2092e-05
7.19908e-05
7.98563e-05
9.17775e-05
8.82391e-05
9.59739e-05
8.69625e-05
9.50393e-05
7.97806e-05
8.25434e-05
8.32023e-05
7.84195e-05
8.23766e-05
7.54348e-05
7.43102e-05
5.46536e-05
7.18777e-05
8.42922e-05
5.90589e-05
8.48182e-05
7.78983e-05
9.13728e-05
5.61882e-05
8.69311e-05
8.29515e-05
5.49611e-05
7.3617e-05
5.46066e-05
8.30079e-05
7.63982e-05
5.72156e-05
5.40297e-05
4.74462e-05
5.45569e-05
8.31345e-05
3.98913e-05
6.46916e-05
5.38471e-05
5.9866e-05
8.70194e-05
8.39582e-05
2.56438e-05
8.42779e-05
4.77998e-05
5.09716e-05
8.65223e-05
7.03338e-05
5.16124e-05
9.62513e-05
5.5606e-05
2.56451e-05
5.21147e-05
7.48553e-05
9.32075e-05
7.11195e-05
8.25901e-05
7.78522e-05
4.03807e-05
4.03445e-05
3.59415e-05
4.13619e-05
5.51365e-05
4.31148e-05
6.90259e-05
4.39797e-05
7.3507e-05
5.28674e-05
5.21979e-05
5.95242e-05
5.64797e-05
7.37504e-05
5.41555e-05
5.60434e-05
2.33873e-05
5.44443e-05
7.89312e-05
7.89965e-05
7.22948e-05
5.40253e-05
3.38437e-05
0.000100029
6.81229e-05
5.73019e-05
5.29365e-05
5.0996e-05
5.46257e-05
6.4469e-05
5.35829e-05
3.94908e-05
5.2828e-05
3.701e-05
6.38905e-05
5.40129e-05
2.18001e-05
5.08127e-05
5.86873e-05
5.40557e-05
8.11393e-05
5.60367e-05
7.12872e-05
2.85798e-05
5.72978e-05
5.54705e-05
4.68514e-05
5.20935e-05
6.08473e-05
5.64499e-05
5.92885e-05
5.13737e-05
5.2121e-05
5.61304e-05
7.34662e-05
5.30824e-05
7.40427e-05
6.70453e-05
5.18283e-05
5.5063e-05
5.54559e-05
6.09681e-05
5.53245e-05
5.20029e-05
5.88576e-05
6.03475e-05
7.2e-05
5.54283e-05
5.53612e-05
7.85818e-05
7.74725e-05
5.31364e-05
5.18428e-05
2.50704e-05
6.39548e-05
4.58511e-05
6.02344e-05
2.9116e-05
3.02217e-05
2.69982e-05
2.74445e-05
2.91103e-05
3.06825e-05
3.16112e-05
6.65426e-05
4.86167e-05
5.01816e-05
5.77782e-05
5.64946e-05
5.58052e-05
5.82348e-05
5.46368e-05
5.58997e-05
5.48915e-05
5.55997e-05
6.66609e-05
5.11266e-05
6.85561e-05
5.41572e-05
5.25018e-05
5.56826e-05
5.77355e-05
6.15071e-05
5.75696e-05
6.56218e-05
6.15925e-05
5.74048e-05
4.17964e-05
5.7479e-05
5.59505e-05
5.93099e-05
5.81478e-05
5.52125e-05
5.24104e-05
5.7568e-05
5.97638e-05
8.06942e-05
5.39964e-05
7.84621e-05
8.22703e-05
5.65606e-05
7.8443e-05
6.0455e-05
4.88187e-05
6.5257e-05
5.79813e-05
4.05919e-05
3.80895e-05
6.42721e-05
6.83426e-05
5.86956e-05
4.89431e-05
5.81872e-05
2.94664e-05
5.80358e-05
5.46345e-05
2.90219e-05
1.02563e-05
1.12174e-05
5.02366e-05
5.40379e-05
6.24161e-05
6.02877e-05
5.2188e-06
5.45311e-06
5.90226e-05
5.96322e-05
5.6467e-05
2.21205e-05
5.06169e-05
5.76555e-05
5.97255e-05
5.15488e-05
4.54787e-05
2.30612e-05
8.50166e-05
5.43951e-05
6.58734e-05
6.69024e-05
4.83557e-05
6.11234e-05
4.72796e-05
5.21422e-05
2.70223e-05
4.02008e-05
6.11997e-05
6.12933e-05
5.2879e-05
5.56656e-05
5.7337e-05
6.04085e-05
5.78012e-05
2.95939e-05
4.97222e-05
5.74422e-05
5.34111e-05
8.00128e-05
2.96002e-05
4.37462e-05
4.50859e-05
4.17988e-05
2.67461e-05
2.67488e-05
4.80212e-05
3.98779e-05
5.64917e-05
3.17048e-05
3.19832e-05
1.03319e-05
1.03322e-05
2.40507e-05
3.49638e-05
2.34915e-05
4.81631e-05
5.11508e-05
5.5421e-05
6.22378e-05
5.62034e-05
5.19479e-05
4.12356e-05
2.7125e-05
5.19139e-05
5.34196e-05
5.15611e-05
3.02786e-05
2.58218e-05
2.16547e-05
5.15014e-05
5.27834e-05
4.32427e-05
4.80956e-05
4.43224e-05
3.98456e-05
5.42758e-05
3.98441e-05
4.80959e-05
4.58817e-05
2.75776e-05
3.40322e-05
3.40474e-05
5.72612e-05
2.42273e-05
2.54913e-05
2.50045e-05
5.3911e-05
2.3005e-05
2.26556e-05
3.80921e-05
2.1088e-05
4.29953e-05
4.30622e-05
2.16248e-05
4.81536e-05
2.3674e-05
2.38752e-05
2.65462e-05
2.27845e-05
2.20724e-05
3.04844e-05
2.61421e-05
2.40774e-05
2.28399e-05
4.38079e-05
4.94987e-05
2.48477e-05
4.83471e-05
2.07646e-05
4.89422e-05
3.92041e-05
2.16642e-05
1.81272e-05
2.04852e-05
2.70812e-05
4.22985e-05
3.39035e-05
1.39098e-05
1.54535e-05
4.68055e-05
1.30961e-05
1.30963e-05
1.48449e-05
1.67511e-05
2.05647e-05
2.22374e-05
3.71862e-05
3.41865e-05
4.68761e-05
1.32137e-05
1.32139e-05
4.03245e-05
1.8091e-05
3.37025e-05
1.63782e-05
1.62513e-05
2.14046e-05
3.42983e-05
3.55216e-05
3.78592e-05
3.46916e-05
3.42988e-05
7.42592e-06
5.53888e-05
9.50341e-06
9.16531e-06
4.47185e-05
4.44045e-05
9.49516e-06
6.60431e-06
9.33565e-06
4.12967e-05
SCALARS rr_T' float
LOOKUP_TABLE default
0.000209509
0.0004773
0.000381189
0.000498227
0.000260501
0.000404577
0.000207156
0.000495464
0.000426032
0.000536385
0.00019014
0.000496982
0.000437357
0.000461901
0.000541142
0.00045428
0.000390694
0.000441696
0.000395665
0.000386817
0.000435127
7.72487e-05
0.000445831
0.000410897
0.000372462
0.000429662
0.000176144
0.000377413
0.000296228
0.000348635
0.000386379
0.000306225
0.000195127
0.000261234
0.000256749
0.000261823
0.000338942
0.000257273
0.000385986
0.000219324
0.00024899
0.000298716
0.000298748
0.000424048
0.000244823
0.000270093
0.000372344
0.000377052
0.000353331
0.000338254
0.000347328
0.000269332
0.00041811
0.00034608
0.000384936
0.000177595
0.000274135
0.000348617
0.000274126
0.000421687
0.000498735
0.000488783
0.000173234
0.00034463
0.000468165
0.000441844
0.000482426
0.000417315
0.000384299
0.000547793
0.000453631
0.000448688
0.000307643
0.000357647
0.000378846
0.00020142
0.000390041
0.000437746
0.000420827
0.000297216
0.000268231
0.000294025
0.000556669
0.000268606
0.00036216
0.000134521
0.000435969
0.000364324
0.000259268
3.80144e-05
0.000299884
4.13447e-05
0.000330961
0.000317176
0.00028381
0.000258866
0.000246352
0.000470916
0.00039033
0.00037577
0.00031927
0.000306302
0.00025773
0.000446026
0.000453408
0.0004083
0.00035907
0.000364268
0.000273587
0.000544062
0.00034963
0.000184667
0.000246797
0.000488145
0.000457295
0.000334211
0.000317889
0.000204711
0.000329719
0.00033289
0.000289543
0.000527504
0.000543971
0.00046725
0.000514054
0.0004033
0.000228135
0.000508444
0.000223121
0.000287793
0.00023696
0.000485322
0.00047403
0.00047652
0.000318575
0.000193148
0.000213573
0.000349236
0.000426803
0.000193083
0.000266072
0.000411588
0.000311884
0.000502538
0.000249161
0.000410071
0.000372163
0.000359816
0.000229984
0.000293933
0.000327739
0.000468322
0.000274761
0.000424039
0.000491115
0.000498945
0.000326472
0.000274061
0.000272505
0.000428107
0.000359421
0.000272477
0.000180313
0.000266125
0.000264693
0.000458393
0.000277753
0.000280817
0.0003042
0.000270668
0.0004041
0.000283475
0.000251
0.000315467
0.000299477
0.000358835
0.000399706
0.000384758
0.000326819
0.000383814
0.000295251
0.000444718
0.000477304
0.000266116
0.000467517
0.000266003
0.000461717
0.000424453
0.000396253
0.000403373
0.000471617
0.000223698
0.000293037
0.000272493
0.000475668
0.000468319
0.000434191
0.000472864
0.000481473
0.000404368
0.000495857
0.00033272
0.000300287
0.000541362
0.000316235
0.000491701
0.00039169
0.000250062
0.000300763
0.000490656
0.000408307
0.000371784
0.000478959
0.000469817
0.000304005
0.000301436
0.000292841
0.00041679
0.000459904
0.000528546
0.000507797
0.000552483
0.00050063
0.000547096
0.000459026
0.000479624
0.00048336
0.000455659
0.000478691
0.000440645
0.000434086
0.000308061
0.000413627
0.000483962
0.000336189
0.000493058
0.000452946
0.000524711
0.000315708
0.000499001
0.000477014
0.000310033
0.000427368
0.000307939
0.000480236
0.000438424
0.000322791
0.000303822
0.000262779
0.00030228
0.000480895
0.00022067
0.000370662
0.000302693
0.00033961
0.000499471
0.000483465
0.00015161
0.000485223
0.000264308
0.000286531
0.000496746
0.000403803
0.000289908
0.000554223
0.000315284
0.000151611
0.000293
0.00043116
0.000538204
0.000408047
0.00048003
0.000449573
0.000235982
0.000231308
0.000197854
0.000227154
0.000321626
0.000246002
0.000396295
0.000248024
0.00042677
0.000304789
0.000293443
0.00034322
0.000319153
0.000423922
0.00030604
0.000314939
0.000138978
0.000317272
0.000458917
0.000459245
0.000415959
0.00030545
0.000198881
0.00057746
0.000388005
0.000324047
0.000298741
0.000297465
0.000308124
0.000375405
0.000302604
0.00021675
0.000298636
0.000204859
0.000369945
0.000304677
0.000129535
0.000286963
0.000339291
0.000304687
0.000468816
0.000316406
0.000408016
0.000156527
0.000327504
0.000312847
0.000273202
0.000293695
0.000346567
0.000326188
0.000341107
0.000290099
0.000294662
0.000318202
0.000425353
0.000300064
0.0004251
0.000383746
0.000302853
0.000311297
0.000314281
0.000347605
0.000313762
0.000293789
0.000333848
0.000350088
0.000413303
0.000314215
0.000312185
0.000451933
0.000445603
0.000300291
0.000302918
0.000135319
0.000365971
0.000253967
0.000343515
0.000151974
0.000157757
0.000140981
0.00014329
0.000152014
0.000160138
0.000165029
0.000385383
0.000285187
0.000287748
0.000328984
0.000320476
0.000316477
0.000334751
0.000309713
0.000316768
0.000322041
0.000315304
0.000387135
0.000286683
0.000397939
0.000309644
0.000298916
0.000315702
0.000336835
0.000351974
0.000327921
0.000375542
0.000350856
0.000325359
0.000234632
0.000327237
0.000319984
0.000344517
0.000330059
0.000312744
0.000297422
0.000327618
0.000341727
0.00046389
0.000306397
0.000451014
0.000470138
0.000321942
0.000450422
0.000345536
0.000276798
0.000377034
0.000330475
0.00023799
0.000209072
0.000372239
0.000396463
0.00033564
0.000279021
0.000335666
0.000159176
0.000331846
0.000311368
0.000159005
6.09229e-05
6.66443e-05
0.000287452
0.000306524
0.000356003
0.000342225
3.13218e-05
3.2728e-05
0.000338913
0.000342449
0.000324163
0.00011948
0.000286819
0.000333425
0.000339982
0.00029327
0.000258852
0.000124424
0.000491031
0.000308445
0.000376872
0.000382764
0.000275076
0.000348136
0.000268951
0.000296775
0.00014748
0.000222553
0.00034855
0.000350703
0.000301417
0.000316578
0.000326687
0.000344461
0.00032947
0.000162447
0.000289084
0.000325935
0.000308064
0.000462296
0.000162415
0.000250215
0.000257729
0.000244246
0.00015879
0.000158801
0.000279814
0.00022594
0.000323136
0.000173849
0.000189627
6.1915e-05
6.19147e-05
0.000129671
0.000205873
0.0001387
0.000275323
0.000297772
0.000317785
0.000358067
0.000324783
0.000300695
0.000236742
0.000146502
0.000297249
0.000307951
0.000298147
0.00016463
0.000152138
0.000118514
0.000297726
0.00030375
0.000244092
0.000275691
0.0002544
0.000232936
0.000311805
0.000232916
0.000275202
0.000265333
0.000162646
0.000200804
0.000186736
0.000329711
0.000130405
0.000137377
0.000134393
0.000311376
0.000124166
0.000121608
0.000216649
0.000113421
0.000252109
0.00025249
0.000116428
0.000274562
0.000129235
0.000128469
0.000144732
0.00012257
0.00012034
0.000179564
0.000143039
0.000129987
0.00012295
0.000251385
0.000286921
0.000135334
0.000277467
0.000111501
0.000281472
0.000223629
0.000116491
9.86346e-05
0.000110045
0.000146009
0.000241725
0.000198998
8.3249e-05
9.24066e-05
0.000269476
7.83643e-05
7.83635e-05
8.87955e-05
9.96699e-05
0.000112659
0.000131102
0.000216787
0.000200664
0.000269663
7.87328e-05
7.87322e-05
0.000236992
9.74711e-05
0.000192131
8.83232e-05
8.88526e-05
0.000117071
0.000203193
0.000210403
0.000224152
0.000205428
0.000203188
4.43904e-05
0.00032799
5.66243e-05
5.48623e-05
0.00026496
0.000263121
5.6853e-05
3.94883e-05
5.56402e-05
0.000244404
SCALARS rr_uec(SIM,_S_ext) float
LOOKUP_TABLE default
0.013545
0.0308591
0.024645
0.0322121
0.0168421
0.0261571
0.0133929
0.0320332
0.0275441
0.034679
0.0122931
0.0321313
0.0282764
0.0298633
0.0349866
0.0293705
0.0252596
0.028557
0.0255809
0.0250088
0.0281321
0.00499435
0.0288243
0.0265657
0.0240808
0.027779
0.0113881
0.0244008
0.0191519
0.0225403
0.0249805
0.0197982
0.0126153
0.0168896
0.0165996
0.0169277
0.0219137
0.0166334
0.0249551
0.0141797
0.0160978
0.019313
0.019315
0.0274159
0.0158285
0.0174621
0.024073
0.0243774
0.0228438
0.021869
0.0224557
0.017413
0.027032
0.0223749
0.0248872
0.0114818
0.0177236
0.022539
0.017723
0.0272633
0.0322449
0.0316013
0.0111998
0.0222813
0.0302683
0.0285665
0.0311905
0.0269807
0.0248461
0.0354167
0.0293286
0.029009
0.0198899
0.0231229
0.0244935
0.0130223
0.0252172
0.0283015
0.0272078
0.0192158
0.0173417
0.0190095
0.0359905
0.017366
0.0234145
0.00869713
0.0281867
0.0235545
0.0167624
0.00245774
0.0193882
0.00267305
0.0213976
0.0205063
0.018349
0.0167364
0.0159272
0.0304462
0.025236
0.0242946
0.0206416
0.0198031
0.0166629
0.028837
0.0293143
0.0263979
0.023215
0.0235509
0.017688
0.0351756
0.0226046
0.0119392
0.015956
0.0315602
0.0295655
0.0216075
0.0205524
0.0132349
0.0213172
0.0215221
0.0187197
0.0341049
0.0351696
0.0302092
0.0332354
0.0260746
0.0147495
0.0328725
0.0144252
0.0186065
0.0153202
0.0313778
0.0306476
0.0308087
0.0205965
0.0124876
0.0138079
0.0225791
0.0275942
0.0124834
0.0172021
0.0266103
0.0201641
0.0324907
0.0161087
0.0265124
0.0240614
0.0232631
0.0148691
0.0190036
0.0211892
0.0302787
0.017764
0.0274153
0.0317521
0.0322585
0.0211074
0.0177186
0.017618
0.0276784
0.0232375
0.0176163
0.0116577
0.0172057
0.017113
0.0296365
0.0179573
0.0181554
0.0196673
0.0174993
0.0261263
0.0183273
0.0162278
0.0203959
0.0193619
0.0231998
0.0258422
0.0248757
0.0211298
0.0248147
0.0190887
0.0287525
0.0308592
0.017205
0.0302263
0.0171978
0.0298515
0.0274421
0.0256189
0.0260794
0.0304914
0.0144625
0.0189455
0.0176174
0.0307536
0.0302784
0.0280718
0.0305722
0.0311289
0.0261435
0.0320588
0.0215113
0.0194144
0.0350008
0.0204454
0.0317901
0.0253239
0.0161671
0.0194452
0.0317226
0.0263982
0.0240369
0.0309662
0.0303752
0.0196547
0.0194887
0.0189329
0.0269467
0.0297345
0.0341724
0.032831
0.03572
0.0323676
0.0353717
0.0296774
0.0310092
0.0312508
0.0294599
0.0309489
0.028489
0.0280649
0.0199169
0.0267423
0.03129
0.0217355
0.0318777
0.0292844
0.0339245
0.0204114
0.0322623
0.0308405
0.0200444
0.0276306
0.0199091
0.0310488
0.0283458
0.0208693
0.0196429
0.0169893
0.0195432
0.0310914
0.0142668
0.0239644
0.0195699
0.0219567
0.0322927
0.0312578
0.00980208
0.0313715
0.017088
0.018525
0.0321165
0.026107
0.0187433
0.0358325
0.020384
0.0098021
0.0189432
0.027876
0.0347965
0.0263815
0.0310355
0.0290662
0.0152569
0.0149547
0.0127917
0.014686
0.020794
0.0159047
0.0256216
0.0160354
0.0275919
0.0197055
0.0189719
0.0221901
0.020634
0.0274078
0.0197862
0.0203616
0.00898532
0.0205126
0.0296705
0.0296917
0.0268931
0.0197481
0.0128583
0.0373345
0.0250855
0.0209504
0.0193143
0.019232
0.019921
0.024271
0.0195641
0.0140135
0.0193075
0.0132445
0.023918
0.0196981
0.00837484
0.0185529
0.0219362
0.0196988
0.0303103
0.0204564
0.0263794
0.0101197
0.0211741
0.0202264
0.0176634
0.0189882
0.0224065
0.021089
0.0220537
0.0187556
0.0190506
0.0205726
0.0275003
0.0193999
0.0274839
0.0248103
0.0195803
0.0201261
0.0203191
0.0224736
0.0202855
0.0189942
0.0215841
0.0226342
0.0267213
0.0203148
0.0201836
0.0292187
0.0288095
0.0194146
0.0195845
0.00874879
0.023661
0.0164195
0.0222092
0.0098259
0.0101998
0.00911518
0.00926442
0.00982852
0.0103537
0.0106699
0.0249162
0.0184382
0.0186038
0.0212697
0.0207196
0.0204611
0.0216426
0.0200237
0.0204799
0.0208209
0.0203852
0.0250294
0.0185348
0.0257281
0.0200194
0.0193257
0.0204109
0.0217773
0.0227561
0.021201
0.0242798
0.0226838
0.0210354
0.0151696
0.0211568
0.0206878
0.022274
0.0213392
0.0202198
0.0192292
0.0211814
0.0220936
0.0299918
0.0198094
0.0291593
0.0303958
0.0208145
0.0291211
0.0223399
0.0178957
0.0243764
0.0213661
0.0153868
0.0135171
0.0240664
0.0256325
0.0217001
0.0180395
0.0217018
0.0102912
0.0214548
0.0201308
0.0102799
0.00393883
0.00430873
0.0185846
0.0198176
0.0230165
0.0221258
0.00202503
0.00211595
0.0219118
0.0221403
0.0209581
0.00772471
0.0185436
0.0215569
0.0219807
0.0189607
0.0167355
0.00804441
0.0317466
0.0199418
0.0243658
0.0247467
0.0177844
0.0225079
0.0173884
0.0191873
0.00953487
0.0143885
0.0225347
0.0226739
0.0194874
0.0204676
0.0211212
0.0222703
0.0213011
0.0105026
0.0186902
0.0210726
0.0199173
0.0298888
0.0105006
0.0161771
0.0166629
0.0157912
0.0102663
0.010267
0.0180908
0.0146077
0.0208916
0.0112398
0.01226
0.00400298
0.00400296
0.00838362
0.0133103
0.00896741
0.0178004
0.0192518
0.0205458
0.0231502
0.0209983
0.0194408
0.015306
0.00947178
0.019218
0.0199099
0.0192761
0.0106437
0.00983616
0.00766208
0.019249
0.0196383
0.0157811
0.0178242
0.0164476
0.01506
0.0201591
0.0150587
0.0177926
0.0171546
0.0105155
0.0129826
0.0120729
0.0213169
0.00843082
0.00888153
0.00868871
0.0201314
0.00802768
0.00786215
0.0140069
0.00733281
0.0162995
0.0163242
0.00752717
0.0177513
0.00835529
0.00830565
0.00935722
0.00792425
0.00778019
0.0116093
0.0092478
0.00840401
0.00794887
0.0162528
0.0185503
0.00874963
0.017939
0.00720874
0.018198
0.0144583
0.00753127
0.00637693
0.00711452
0.00943997
0.0156282
0.0128658
0.0053823
0.00597437
0.0174224
0.00506649
0.00506644
0.0057409
0.00644397
0.00728372
0.00847613
0.0140159
0.0129735
0.0174345
0.00509031
0.00509027
0.0153221
0.00630183
0.0124218
0.00571032
0.00574441
0.00756884
0.0131371
0.0136033
0.0144921
0.0132816
0.0131368
0.00286997
0.0212056
0.00366093
0.00354699
0.0171305
0.0170116
0.0036757
0.00255303
0.00359731
0.0158015
SCALARS rr_uec(PEX,_P_ext) float
LOOKUP_TABLE default
-0.0610971
-0.139245
-0.111202
-0.145349
-0.0760039
-0.118024
-0.060411
-0.144542
-0.12428
-0.156481
-0.0554506
-0.144984
-0.127589
-0.134752
-0.157879
-0.132525
-0.113981
-0.128856
-0.115419
-0.112842
-0.126935
-0.0225411
-0.130057
-0.119867
-0.108655
-0.125346
-0.0513716
-0.110101
-0.0864034
-0.101724
-0.112717
-0.0893195
-0.0569073
-0.0762203
-0.0749126
-0.0763921
-0.0988958
-0.0750651
-0.112603
-0.0639643
-0.0726249
-0.0871591
-0.0871683
-0.123706
-0.0714036
-0.0787807
-0.108617
-0.109992
-0.103075
-0.0986594
-0.101307
-0.0785614
-0.121987
-0.100948
-0.112308
-0.0517966
-0.0799854
-0.101688
-0.0799828
-0.123015
-0.1455
-0.142601
-0.0505237
-0.100545
-0.136586
-0.128903
-0.140742
-0.121744
-0.112108
-0.15981
-0.132351
-0.130909
-0.0897327
-0.10434
-0.110518
-0.0587419
-0.113795
-0.127707
-0.122768
-0.0866958
-0.0782348
-0.0857859
-0.162404
-0.0783433
-0.105635
-0.0392338
-0.127183
-0.106288
-0.0756168
-0.0110924
-0.0874732
-0.0120641
-0.0965591
-0.0925318
-0.0827848
-0.0755049
-0.0718533
-0.137382
-0.11388
-0.109622
-0.0931317
-0.0893434
-0.0751711
-0.130119
-0.132274
-0.119114
-0.104757
-0.106266
-0.079796
-0.158722
-0.101995
-0.0538594
-0.0719814
-0.142406
-0.133407
-0.0974861
-0.0927515
-0.0597077
-0.0962031
-0.0971009
-0.0844615
-0.153899
-0.158695
-0.136316
-0.149968
-0.117664
-0.0665627
-0.14833
-0.0650775
-0.0839466
-0.0691355
-0.141585
-0.138295
-0.139017
-0.0929233
-0.0563555
-0.0622912
-0.101882
-0.124517
-0.0563365
-0.0776093
-0.120074
-0.0909792
-0.146607
-0.0726722
-0.119631
-0.108572
-0.104967
-0.0670917
-0.0857402
-0.0956065
-0.136625
-0.0801419
-0.123704
-0.143274
-0.145559
-0.0952437
-0.0799398
-0.0794862
-0.124891
-0.104849
-0.0794759
-0.0525894
-0.0776222
-0.0772073
-0.133728
-0.0810168
-0.0819104
-0.0887288
-0.0789502
-0.117898
-0.0826867
-0.0732106
-0.0920334
-0.0873546
-0.104688
-0.116616
-0.112245
-0.0953526
-0.111971
-0.0861186
-0.129739
-0.139245
-0.0776223
-0.136393
-0.0775866
-0.134702
-0.123832
-0.115608
-0.117677
-0.13759
-0.065246
-0.085476
-0.0794806
-0.138768
-0.136622
-0.126666
-0.137955
-0.140462
-0.117969
-0.144658
-0.097058
-0.0875918
-0.157938
-0.0922391
-0.14345
-0.114271
-0.0729391
-0.087747
-0.143141
-0.119123
-0.108462
-0.139727
-0.137066
-0.0886782
-0.0879396
-0.08542
-0.121596
-0.134171
-0.154196
-0.148142
-0.161179
-0.146052
-0.159607
-0.133913
-0.13993
-0.141021
-0.132939
-0.139658
-0.128562
-0.126648
-0.089861
-0.120669
-0.141187
-0.0980714
-0.14385
-0.132148
-0.153075
-0.09209
-0.145574
-0.139161
-0.0904366
-0.124684
-0.0898258
-0.140106
-0.127902
-0.0941582
-0.0886232
-0.0766446
-0.0881662
-0.140298
-0.0643621
-0.108132
-0.088294
-0.0990675
-0.145711
-0.141044
-0.0442368
-0.141557
-0.0770895
-0.0835795
-0.144916
-0.117801
-0.0845641
-0.161687
-0.0919712
-0.0442368
-0.0854664
-0.125785
-0.157015
-0.119039
-0.140049
-0.131158
-0.06885
-0.0674789
-0.0577058
-0.0662505
-0.0938365
-0.0717634
-0.115611
-0.0723485
-0.12451
-0.0889182
-0.0855959
-0.10013
-0.0930977
-0.123672
-0.0892726
-0.0918657
-0.0405519
-0.0925655
-0.13389
-0.133985
-0.121349
-0.0891008
-0.0580274
-0.168468
-0.113187
-0.0945259
-0.087143
-0.0867873
-0.0898798
-0.109526
-0.0882701
-0.0632163
-0.087113
-0.0597507
-0.107929
-0.0888742
-0.0377967
-0.0837077
-0.0989854
-0.0888769
-0.136773
-0.0922962
-0.119028
-0.0456509
-0.0955402
-0.0912575
-0.0797084
-0.0856707
-0.101099
-0.0951622
-0.0995125
-0.0846222
-0.085954
-0.0928221
-0.124094
-0.0875298
-0.124014
-0.111948
-0.0883601
-0.0908063
-0.0916782
-0.101402
-0.0915272
-0.0856989
-0.0973866
-0.102137
-0.120573
-0.091659
-0.0910644
-0.131844
-0.129997
-0.0875959
-0.088379
-0.0394626
-0.106762
-0.0740742
-0.10021
-0.0443112
-0.0459973
-0.0411062
-0.0417792
-0.0443231
-0.0466915
-0.0481175
-0.112433
-0.0832079
-0.0839441
-0.09597
-0.0934859
-0.0923192
-0.0976575
-0.0903457
-0.0924037
-0.0939606
-0.0919769
-0.112946
-0.0836226
-0.116098
-0.0903303
-0.0871984
-0.0920929
-0.0982738
-0.102679
-0.09566
-0.109555
-0.102351
-0.0949099
-0.0684403
-0.0954602
-0.0933468
-0.100513
-0.0962817
-0.0912297
-0.0867611
-0.095571
-0.0996897
-0.135332
-0.0893792
-0.131575
-0.13715
-0.0939156
-0.131402
-0.100801
-0.0807444
-0.109996
-0.0964053
-0.0694371
-0.0609769
-0.108599
-0.115667
-0.0979139
-0.0813954
-0.0979265
-0.0464201
-0.0968072
-0.0908314
-0.0463738
-0.0177765
-0.0194459
-0.0838566
-0.089416
-0.103853
-0.0998308
-0.00913978
-0.00955014
-0.0988712
-0.0999026
-0.094568
-0.0348437
-0.0836672
-0.0972742
-0.0991779
-0.0855511
-0.075511
-0.0362853
-0.143253
-0.0899763
-0.109942
-0.111661
-0.0802436
-0.101557
-0.0784567
-0.0865737
-0.0430116
-0.0649115
-0.101678
-0.102309
-0.0879287
-0.0923501
-0.0953001
-0.100485
-0.0961121
-0.0473784
-0.0843406
-0.0950784
-0.0898739
-0.13487
-0.047369
-0.0729936
-0.0751853
-0.071261
-0.0463328
-0.0463359
-0.0816372
-0.0659086
-0.0942662
-0.0507035
-0.0553303
-0.0180668
-0.0180668
-0.0378152
-0.0600679
-0.0404696
-0.080318
-0.086876
-0.0927068
-0.10446
-0.0947526
-0.0877258
-0.0690647
-0.0427239
-0.0867151
-0.0898405
-0.086982
-0.0480122
-0.0443897
-0.0345643
-0.0868592
-0.0886141
-0.0712018
-0.0804265
-0.0742158
-0.0679615
-0.0909632
-0.0679556
-0.0802831
-0.0774089
-0.047456
-0.0585898
-0.054462
-0.0961882
-0.0380285
-0.0400619
-0.0391913
-0.0908408
-0.0362101
-0.0354627
-0.0631996
-0.0330755
-0.0735564
-0.0736677
-0.0339525
-0.0800948
-0.0376907
-0.0374639
-0.04221
-0.0357435
-0.0350961
-0.0523919
-0.041717
-0.0379076
-0.0358546
-0.0733363
-0.083708
-0.0394689
-0.080945
-0.0325155
-0.0821147
-0.0652368
-0.0339708
-0.0287657
-0.0320907
-0.0425799
-0.0705167
-0.0580609
-0.024292
-0.0269641
-0.0786155
-0.0228666
-0.0228664
-0.0259104
-0.0290827
-0.0328572
-0.0382521
-0.0632488
-0.0585471
-0.0786697
-0.0229736
-0.0229734
-0.0691466
-0.0284249
-0.0560482
-0.0257572
-0.0259134
-0.0341434
-0.0592883
-0.0613921
-0.0654034
-0.0599402
-0.0592868
-0.012953
-0.0957016
-0.0165225
-0.0160088
-0.0773108
-0.0767744
-0.0165897
-0.0115226
-0.0162354
-0.0713126
SCALARS cell_type float
LOOKUP_TABLE default
0
0
0
0
0
0
0
0
0
0
0
0
0
0
0
0
0
0
0
0
0
1
0
0
0
0
0
0
0
0
0
0
0
0
0
0
0
0
0
0
0
0
0
0
0
0
0
0
0
0
0
0
0
0
0
0
0
0
0
0
0
0
0
0
0
0
0
0
0
0
0
0
0
0
0
0
0
0
0
0
0
0
0
0
0
0
0
0
0
0
0
0
0
0
0
0
0
0
0
0
0
0
0
0
0
0
0
0
0
0
0
0
0
0
0
0
0
0
0
0
0
0
0
0
0
0
0
0
0
0
0
0
0
0
0
0
0
0
0
0
0
0
0
0
0
0
0
0
0
0
0
0
0
0
0
0
0
0
0
0
0
0
0
0
0
0
0
0
0
0
0
0
0
0
0
0
0
0
0
0
0
0
0
0
0
0
0
0
0
0
0
0
0
0
0
0
0
0
0
0
0
0
0
0
0
0
0
0
0
0
0
0
0
0
0
0
0
0
0
0
0
0
0
0
0
0
0
0
0
0
0
0
0
0
0
0
0
0
0
0
0
0
0
0
0
0
0
0
0
0
0
0
0
0
0
0
0
0
0
0
0
0
0
0
0
0
0
0
0
0
0
0
0
0
0
0
0
0
0
0
0
0
0
0
0
0
0
0
0
0
0
0
0
0
0
0
0
0
0
0
0
0
0
0
0
0
0
0
0
0
0
0
0
0
0
0
0
0
0
0
0
0
0
0
0
0
0
0
0
0
0
0
0
0
0
0
0
0
0
0
0
0
0
0
0
0
0
0
0
0
2
2
2
2
2
2
2
0
0
0
0
0
0
0
0
0
0
0
0
0
0
0
0
0
0
0
0
0
0
0
0
0
0
0
0
0
0
0
0
0
0
0
0
0
0
0
0
0
0
0
0
0
0
0
0
0
0
0
0
0
0
0
0
0
0
0
1
1
0
0
0
0
0
0
0
0
0
0
0
0
0
0
0
0
0
0
0
0
0
0
0
0
0
0
0
0
0
0
0
0
0
0
0
0
0
0
0
0
0
0
0
1
1
0
0
0
0
0
0
0
0
0
0
0
0
0
0
0
0
0
0
0
0
0
0
0
0
0
0
0
0
0
0
0
0
0
0
0
0
0
0
0
0
0
0
0
0
0
0
0
0
0
0
0
0
0
0
0
0
0
0
0
0
0
0
0
0
0
1
1
0
0
0
0
0
0
0
0
0
0
0
0
0
0
0
0
0
0
0
0
0
0
0
0
0
0
0
0
0
0
0
0
0
TENSORS Lagrange_strain float
0.0305677 -0.00319828 -8.71238e-08
-0.00319828 0.0133889 1.84146e-08
-8.71238e-08 1.84146e-08 0.0074017

0.0291922 -0.00280077 -2.6568e-07
-0.00280077 0.0335531 -8.65515e-08
-2.6568e-07 -8.65515e-08 0.033163

0.0300207 0.00367914 -3.39482e-08
0.00367914 0.0311692 5.34251e-08
-3.39482e-08 5.34251e-08 0.0304673

0.0291614 -0.0039247 8.42113e-08
-0.0039247 0.0327982 3.14856e-08
8.42113e-08 3.14856e-08 0.0330878

0.0353666 0.00266936 -5.2421e-10
0.00266936 0.0380855 7.95572e-08
-5.2421e-10 7.95572e-08 0.0352918

0.0277347 -0.00236702 1.61255e-07
-0.00236702 0.0333831 1.54464e-07
1.61255e-07 1.54464e-07 0.0304384

0.0302617 0.00339397 -9.19949e-08
0.00339397 0.0134945 2.28062e-07
-9.19949e-08 2.28062e-07 0.00746309

0.0317543 0.00393959 -1.70981e-07
0.00393959 0.0311996 2.31774e-08
-1.70981e-07 2.31774e-08 0.0315601

0.0332414 0.000715604 2.08105e-08
0.000715604 0.026221 -3.7969e-10
2.08105e-08 -3.7969e-10 0.0281416

0.0354669 -0.000991229 -4.66545e-08
-0.000991229 0.0275506 -5.20061e-08
-4.66545e-08 -5.20061e-08 0.0327206

0.0280608 0.00205108 -6.90553e-08
0.00205108 0.0138088 -2.17456e-07
-6.90553e-08 -2.17456e-07 0.0117533

0.0279526 -0.00176566 9.70939e-08
-0.00176566 0.0350058 -4.94588e-08
9.70939e-08 -4.94588e-08 0.0315487

0.0311208 0.003657 -1.13548e-07
0.003657 0.0312998 -3.28884e-08
-1.13548e-07 -3.28884e-08 0.031079

0.0290688 -0.00188016 7.60816e-08
-0.00188016 0.0347986 -1.92423e-07
7.60816e-08 -1.92423e-07 0.032546

0.0346312 0.00441864 7.31279e-08
0.00441864 0.0343619 -3.88625e-08
7.31279e-08 -3.88625e-08 0.0348842

0.0343269 7.30556e-05 -1.09019e-07
7.30556e-05 0.0272855 -5.37062e-08
-1.09019e-07 -5.37062e-08 0.0307779

0.0286925 -0.0023539 1.59391e-07
-0.0023539 0.0360129 9.48573e-08
1.59391e-07 9.48573e-08 0.0334496

0.0345724 -0.000352973 -5.98239e-08
-0.000352973 0.0273559 -3.54222e-08
-5.98239e-08 -3.54222e-08 0.0319766

0.0269194 0.00347803 3.05332e-08
0.00347803 0.0309442 -1.43413e-07
3.05332e-08 -1.43413e-07 0.0275761

0.033884 -0.000550296 1.43387e-08
-0.000550296 0.0264089 1.24435e-07
1.43387e-08 1.24435e-07 0.0301338

0.0266215 0.00113513 -1.37029e-07
0.00113513 0.0340332 1.32416e-07
-1.37029e-07 1.32416e-07 0.0291495

0.0452948 0.000852728 1.45064e-07
0.000852728 0.0452644 7.38979e-08
1.45064e-07 7.38979e-08 0.0366378

0.0336747 0.000247659 4.51038e-08
0.000247659 0.0263149 -2.94028e-09
4.51038e-08 -2.94028e-09 0.0298047

0.0293089 -0.00363195 -1.28811e-08
-0.00363195 0.0311351 1.99502e-08
-1.28811e-08 1.99502e-08 0.0300462

0.0337791 0.000900038 -1.44464e-07
0.000900038 0.0264959 3.24503e-08
-1.44464e-07 3.24503e-08 0.0300807

0.0285458 0.0025074 8.93783e-08
0.0025074 0.033893 4.88188e-08
8.93783e-08 4.88188e-08 0.0322865

0.0286291 0.000526654 -1.49136e-07
0.000526654 0.0176895 -5.16311e-08
-1.49136e-07 -5.16311e-08 0.0131711

0.0309137 0.00403442 -1.775e-07
0.00403442 0.030646 1.09726e-07
-1.775e-07 1.09726e-07 0.0306102

0.0259242 0.00477622 1.01084e-07
0.00477622 0.0257328 1.78248e-07
1.01084e-07 1.78248e-07 0.0211277

0.0415291 0.00137013 1.01937e-07
0.00137013 0.0383502 5.4071e-08
1.01937e-07 5.4071e-08 0.0361348

0.0344099 0.00187096 -1.47596e-07
0.00187096 0.027952 2.71077e-08
-1.47596e-07 2.71077e-08 0.0309995

0.0217594 -0.00228784 -1.71675e-07
-0.00228784 0.0299919 -1.34306e-07
-1.71675e-07 -1.34306e-07 0.0211245

0.022863 -0.00535235 -2.25755e-07
-0.00535235 0.0234727 2.25637e-07
-2.25755e-07 2.25637e-07 0.0125787

0.0348323 0.000800924 -3.29462e-07
0.000800924 0.0422549 1.11804e-07
-3.29462e-07 1.11804e-07 0.0357859

0.0374531 -0.000661774 -1.62395e-07
-0.000661774 0.0412026 3.61893e-07
-1.62395e-07 3.61893e-07 0.0359005

0.0410751 0.00281316 1.13637e-07
0.00281316 0.0359856 -1.23649e-07
1.13637e-07 -1.23649e-07 0.0357661

0.0372536 0.000705347 3.10011e-08
0.000705347 0.043215 -3.20789e-08
3.10011e-08 -3.20789e-08 0.0361413

0.0402615 -0.00121865 -1.58604e-07
-0.00121865 0.0378298 2.93606e-08
-1.58604e-07 2.93606e-08 0.0358078

0.0312151 -0.00367777 1.90418e-07
-0.00367777 0.0311226 3.22649e-08
1.90418e-07 3.22649e-08 0.0309249

0.0227471 0.0052789 3.45645e-10
0.0052789 0.0237085 5.43531e-08
3.45645e-10 5.43531e-08 0.0125809

0.0297604 -0.00231581 -1.15494e-07
-0.00231581 0.0220305 7.00788e-08
-1.15494e-07 7.00788e-08 0.0208744

0.0376191 -0.000522922 1.80989e-07
-0.000522922 0.0430643 -1.47647e-07
1.80989e-07 -1.47647e-07 0.036144

0.0412411 0.0026347 5.62415e-08
0.0026347 0.0394151 -1.11675e-07
5.62415e-08 -1.11675e-07 0.0361264

0.0343005 -0.0016172 7.59667e-08
-0.0016172 0.027994 -1.35592e-07
7.59667e-08 -1.35592e-07 0.0310835

0.0231051 -0.00552564 -2.19838e-08
-0.00552564 0.0235623 2.94091e-09
-2.19838e-08 2.94091e-09 0.0162157

0.029943 -0.00233211 -8.19044e-09
-0.00233211 0.0221548 -1.91797e-07
-8.19044e-09 -1.91797e-07 0.0213438

0.0258931 0.00222729 -1.56805e-08
0.00222729 0.0326537 -1.21589e-07
-1.56805e-08 -1.21589e-07 0.0279148

0.0275502 0.00252863 -1.17671e-07
0.00252863 0.0323732 7.8149e-08
-1.17671e-07 7.8149e-08 0.0284903

0.0341748 -0.00214084 2.06588e-09
-0.00214084 0.0271067 -2.0621e-07
2.06588e-09 -2.0621e-07 0.0304717

0.0229021 -0.00439226 -1.53155e-07
-0.00439226 0.0272483 1.36588e-07
-1.53155e-07 1.36588e-07 0.0198499

0.0294933 0.00247142 -2.36618e-08
0.00247142 0.021834 2.08888e-08
-2.36618e-08 2.08888e-08 0.0202805

0.0298717 -0.00327083 -1.88774e-08
-0.00327083 0.0245131 -6.69823e-08
-1.88774e-08 -6.69823e-08 0.0230477

0.0344773 0.00257796 8.747e-08
0.00257796 0.0382028 -1.53948e-08
8.747e-08 -1.53948e-08 0.0352705

0.028689 0.00383832 -1.1493e-07
0.00383832 0.0257794 1.8417e-07
-1.1493e-07 1.8417e-07 0.0231163

0.0349278 -0.00291574 -9.59677e-08
-0.00291574 0.0374322 3.90238e-08
-9.59677e-08 3.90238e-08 0.0351889

0.0255796 -0.0054552 -1.90988e-07
-0.0054552 0.0229019 -4.22353e-08
-1.90988e-07 -4.22353e-08 0.0158192

0.0373467 0.000746147 -8.12745e-08
0.000746147 0.0414128 -3.34145e-07
-8.12745e-08 -3.34145e-07 0.035921

0.0231673 -0.000693226 -4.55617e-08
-0.000693226 0.0313128 8.28722e-08
-4.55617e-08 8.28722e-08 0.0231024

0.0410299 0.00137991 -1.02665e-07
0.00137991 0.0377071 1.78134e-07
-1.02665e-07 1.78134e-07 0.0358992

0.0276752 0.00280515 -7.73291e-08
0.00280515 0.032749 2.23533e-07
-7.73291e-08 2.23533e-07 0.0302307

0.0361386 0.000784541 3.31781e-08
0.000784541 0.0281311 2.3976e-07
3.31781e-08 2.3976e-07 0.0336727

0.0362539 0.00153405 -4.47828e-09
0.00153405 0.0316928 -1.31979e-07
-4.47828e-09 -1.31979e-07 0.0342204

0.0286367 0.00405691 3.05701e-08
0.00405691 0.019897 2.5416e-07
3.05701e-08 2.5416e-07 0.013759

0.0309722 -0.000783639 -1.58238e-07
-0.000783639 0.0370847 -1.03066e-07
-1.58238e-07 -1.03066e-07 0.0338812

0.0315546 0.00124352 -8.21839e-08
0.00124352 0.0364206 2.83541e-07
-8.21839e-08 2.83541e-07 0.0342592

0.0285486 -0.00037515 -7.85097e-08
-0.00037515 0.0369557 4.83724e-09
-7.85097e-08 4.83724e-09 0.0326703

0.0296022 0.00307121 1.84125e-07
0.00307121 0.034791 8.84974e-08
1.84125e-07 8.84974e-08 0.0337086

0.0347192 0.00112186 1.88847e-09
0.00112186 0.0278383 3.83199e-08
1.88847e-09 3.83199e-08 0.0322082

0.0291868 -0.003699 -1.54863e-07
-0.003699 0.0310205 1.52405e-07
-1.54863e-07 1.52405e-07 0.0299091

0.035054 -0.000237105 -8.12627e-08
-0.000237105 0.0275795 -5.26969e-08
-8.12627e-08 -5.26969e-08 0.0333927

0.0344521 -0.00254819 1.21965e-07
-0.00254819 0.0381332 -2.08468e-08
1.21965e-07 -2.08468e-08 0.0352605

0.0350104 0.00284976 -1.19928e-07
0.00284976 0.0375702 1.78928e-07
-1.19928e-07 1.78928e-07 0.0352404

0.0218883 -0.00213174 7.90236e-08
-0.00213174 0.0299216 9.97227e-08
7.90236e-08 9.97227e-08 0.0208509

0.034701 -0.00369072 1.38511e-07
-0.00369072 0.0319577 1.61779e-08
1.38511e-07 1.61779e-08 0.0330786

0.0292914 -0.00329729 -8.45742e-08
-0.00329729 0.0321123 2.76618e-07
-8.45742e-08 2.76618e-07 0.030433

0.0267793 -0.0040169 1.75914e-08
-0.0040169 0.0176051 -7.20173e-08
1.75914e-08 -7.20173e-08 0.0127257

0.0324039 0.000418609 2.96507e-07
0.000418609 0.0381048 7.09504e-08
2.96507e-07 7.09504e-08 0.0344055

0.0345367 0.00381762 1.63866e-07
0.00381762 0.0309411 -5.57042e-08
1.63866e-07 -5.57042e-08 0.0326599

0.0283762 0.00258133 1.02384e-07
0.00258133 0.034129 -1.15799e-09
1.02384e-07 -1.15799e-09 0.0322134

0.0315412 0.00103769 1.22498e-09
0.00103769 0.0228436 -1.88723e-07
1.22498e-09 -1.88723e-07 0.0240688

0.027097 -0.00435846 1.03378e-07
-0.00435846 0.0237365 1.39578e-08
1.03378e-07 1.39578e-08 0.0183232

0.03626 -0.00140289 1.2374e-07
-0.00140289 0.0387422 1.65787e-07
1.2374e-07 1.65787e-07 0.0354009

0.0315555 0.00317113 6.1397e-08
0.00317113 0.0344009 -3.86545e-08
6.1397e-08 -3.86545e-08 0.0340899

0.0273008 -0.00415587 7.29426e-08
-0.00415587 0.0221746 -1.06148e-07
7.29426e-08 -1.06148e-07 0.0184111

0.0303576 0.00139097 8.78088e-08
0.00139097 0.0228301 -1.89865e-07
8.78088e-08 -1.89865e-07 0.0209542

0.0186018 -0.00269692 1.82937e-07
-0.00269692 0.0289278 -2.00973e-07
1.82937e-07 -2.00973e-07 0.0158928

0.0271995 0.00188881 -2.11387e-07
0.00188881 0.0343195 -4.55166e-08
-2.11387e-07 -4.55166e-08 0.0306542

0.0353816 0.00305642 -1.94276e-08
0.00305642 0.0308194 -1.97255e-07
-1.94276e-08 -1.97255e-07 0.0327534

0.0226476 0.0053857 -2.69108e-07
0.0053857 0.0240882 -2.56771e-07
-2.69108e-07 -2.56771e-07 0.0161983

0.0459481 0.0022379 -3.82701e-07
0.0022379 0.0417503 2.25869e-07
-3.82701e-07 2.25869e-07 0.0366387

0.023081 -0.00053428 2.92858e-08
-0.00053428 0.0313537 -5.34868e-09
2.92858e-08 -5.34868e-09 0.0230722

0.0463635 -0.00225609 4.37842e-07
-0.00225609 0.0412944 6.42763e-07
4.37842e-07 6.42763e-07 0.0365939

0.0370649 -0.00362429 -8.95845e-08
-0.00362429 0.0334906 2.80515e-08
-8.95845e-08 2.80515e-08 0.0346205

0.0351369 0.00361932 -5.49764e-08
0.00361932 0.0300037 -6.56881e-08
-5.49764e-08 -6.56881e-08 0.0324561

0.0299616 -0.00315867 -1.06086e-07
-0.00315867 0.0246901 -3.9341e-08
-1.06086e-07 -3.9341e-08 0.0232856

0.023012 0.00402974 -3.2995e-08
0.00402974 0.0277785 1.6469e-07
-3.2995e-08 1.6469e-07 0.0203817

0.0210936 -0.00137852 -2.13821e-07
-0.00137852 0.0298946 -1.98356e-08
-2.13821e-07 -1.98356e-08 0.0182512

0.0287452 0.00288859 -1.50324e-07
0.00288859 0.0342268 -4.61771e-08
-1.50324e-07 -4.61771e-08 0.0326993

0.0370112 0.0022361 -6.32448e-08
0.0022361 0.0334519 2.26971e-08
-6.32448e-08 2.26971e-08 0.0343838

0.028148 0.00198817 1.01884e-07
0.00198817 0.0340594 -3.06158e-09
1.01884e-07 -3.06158e-09 0.030865

0.0318821 0.00207312 1.57377e-07
0.00207312 0.0252538 5.60267e-08
1.57377e-07 5.60267e-08 0.0256171

0.0239072 -0.00277425 -1.87509e-07
-0.00277425 0.0297643 7.17792e-08
-1.87509e-07 7.17792e-08 0.0215611

0.0278982 -0.00376362 1.34043e-07
-0.00376362 0.0218148 8.94433e-08
1.34043e-07 8.94433e-08 0.0180756

0.0293309 -0.00323171 7.21845e-08
-0.00323171 0.0326291 -6.78789e-08
7.21845e-08 -6.78789e-08 0.0324024

0.0306258 0.00361454 -1.22884e-07
0.00361454 0.0322281 -4.63394e-08
-1.22884e-07 -4.63394e-08 0.0323702

0.0287074 0.00304791 -2.60292e-08
0.00304791 0.0340262 3.43404e-08
-2.60292e-08 3.43404e-08 0.0326297

0.0292065 0.00172522 -9.37081e-08
0.00172522 0.0376171 2.77219e-07
-9.37081e-08 2.77219e-07 0.0338457

0.0344765 0.00123248 7.73061e-08
0.00123248 0.0275234 3.78044e-08
7.73061e-08 3.78044e-08 0.0306743

0.0199604 -0.000605234 2.16359e-07
-0.000605234 0.02966 -1.05844e-07
2.16359e-07 -1.05844e-07 0.0181036

0.029797 -0.00486307 9.19781e-08
-0.00486307 0.0330485 -1.15172e-09
9.19781e-08 -1.15172e-09 0.0337411

0.029081 0.0036 2.24442e-07
0.0036 0.031359 -8.17865e-08
2.24442e-07 -8.17865e-08 0.0302635

0.0181053 0.000282939 -4.78069e-08
0.000282939 0.02931 -5.61166e-08
-4.78069e-08 -5.61166e-08 0.0168782

0.0278427 0.00442365 -2.08475e-07
0.00442365 0.0209679 6.66409e-08
-2.08475e-07 6.66409e-08 0.0174544

0.0291906 -0.00302045 -3.50232e-08
-0.00302045 0.0327028 -1.19839e-07
-3.50232e-08 -1.19839e-07 0.0321848

0.0352419 0.000759829 1.0591e-07
0.000759829 0.027338 -1.58416e-07
1.0591e-07 -1.58416e-07 0.0325522

0.0294267 0.00352009 1.21881e-07
0.00352009 0.0252007 -1.51303e-07
1.21881e-07 -1.51303e-07 0.0231108

0.0396362 0.00171009 -1.04357e-07
0.00171009 0.0390391 1.26583e-09
-1.04357e-07 1.26583e-09 0.0359395

0.0283743 0.00312329 -1.35475e-07
0.00312329 0.022401 -9.09522e-08
-1.35475e-07 -9.09522e-08 0.0182861

0.0394884 -0.00175075 -1.07008e-07
-0.00175075 0.039065 -1.9134e-07
-1.07008e-07 -1.9134e-07 0.0359047

0.0232605 0.000103475 1.52297e-07
0.000103475 0.0315173 1.08453e-07
1.52297e-07 1.08453e-07 0.0231191

0.0327577 -0.000288524 1.2614e-07
-0.000288524 0.0246595 1.08776e-07
1.2614e-07 1.08776e-07 0.0269657

0.0380539 -0.00212923 6.60798e-08
-0.00212923 0.0304632 -1.0434e-07
6.60798e-08 -1.0434e-07 0.0347927

0.0292377 0.00320575 -8.43992e-08
0.00320575 0.0332775 9.73486e-08
-8.43992e-08 9.73486e-08 0.0333422

0.02895 -0.00177255 1.55351e-08
-0.00177255 0.0366088 -1.89598e-08
1.55351e-08 -1.89598e-08 0.033499

0.0365824 -0.00108488 -9.42745e-08
-0.00108488 0.0264756 -3.23533e-08
-9.42745e-08 -3.23533e-08 0.0338594

0.0311797 -0.00292574 -1.6643e-07
-0.00292574 0.0383053 6.07029e-08
-1.6643e-07 6.07029e-08 0.034843

0.0381655 -0.000885232 3.37194e-07
-0.000885232 0.0387309 -9.47584e-08
3.37194e-07 -9.47584e-08 0.0358348

0.0301794 -0.00393993 -8.4404e-08
-0.00393993 0.0327101 -1.19709e-07
-8.4404e-08 -1.19709e-07 0.0327626

0.0213323 0.00146954 2.4567e-07
0.00146954 0.0296128 1.11456e-07
2.4567e-07 1.11456e-07 0.0182952

0.0293872 -0.00364552 1.59697e-08
-0.00364552 0.0253487 1.30805e-08
1.59697e-08 1.30805e-08 0.0231814

0.0328589 -0.00181725 1.08309e-07
-0.00181725 0.0397171 1.72348e-07
1.08309e-07 1.72348e-07 0.0352404

0.03509 7.67628e-05 1.42261e-07
7.67628e-05 0.0272214 -1.55391e-07
1.42261e-07 -1.55391e-07 0.0332505

0.0308178 -0.00282883 2.45824e-08
-0.00282883 0.0348906 -3.41457e-08
2.45824e-08 -3.41457e-08 0.0340834

0.0295337 0.00338902 7.73118e-08
0.00338902 0.0328708 -1.53314e-07
7.73118e-08 -1.53314e-07 0.0333253

0.0264596 -0.00406324 1.27637e-07
-0.00406324 0.0272609 1.42913e-07
1.27637e-07 1.42913e-07 0.0215839

0.0371721 -0.000958402 1.67202e-07
-0.000958402 0.0416093 1.93918e-07
1.67202e-07 1.93918e-07 0.0358859

0.0227104 -0.00423753 -1.27479e-08
-0.00423753 0.027243 -8.73498e-08
-1.27479e-08 -8.73498e-08 0.016877

0.0341824 -0.00252469 -8.98002e-10
-0.00252469 0.0286057 8.96359e-08
-8.98002e-10 8.96359e-08 0.0310437

0.0364251 0.000290002 -1.84137e-07
0.000290002 0.0294368 5.71831e-08
-1.84137e-07 5.71831e-08 0.0341931

0.0396399 0.00239652 -1.61735e-08
0.00239652 0.0391129 3.39581e-08
-1.61735e-08 3.39581e-08 0.0358669

0.0238556 0.00260906 -1.71313e-09
0.00260906 0.0301509 1.07344e-07
-1.71313e-09 1.07344e-07 0.0217982

0.0334298 0.00358136 -3.12701e-08
0.00358136 0.0307144 7.29055e-08
-3.12701e-08 7.29055e-08 0.0317665

0.0316422 -0.00319426 -1.16699e-07
-0.00319426 0.0265513 -5.59742e-08
-1.16699e-07 -5.59742e-08 0.0269347

0.0289285 -0.00234104 4.28308e-08
-0.00234104 0.0342343 4.05389e-08
4.28308e-08 4.05389e-08 0.0326052

0.0262438 0.00450131 -2.15017e-07
0.00450131 0.0245572 -2.14444e-07
-2.15017e-07 -2.14444e-07 0.0180807

0.028422 -0.0028668 -4.04085e-08
-0.0028668 0.0340316 -2.45668e-07
-4.04085e-08 -2.45668e-07 0.0324483

0.0331483 0.00405854 6.21392e-08
0.00405854 0.0304637 -2.16894e-07
6.21392e-08 -2.16894e-07 0.0315416

0.0333339 -0.00331155 1.99943e-07
-0.00331155 0.0283562 4.06541e-08
1.99943e-07 4.06541e-08 0.0300452

0.0291599 -0.00329524 -5.32679e-08
-0.00329524 0.0319868 -2.16359e-08
-5.32679e-08 -2.16359e-08 0.0304366

0.0314544 -0.00242925 -1.00913e-07
-0.00242925 0.0247182 -7.86326e-08
-1.00913e-07 -7.86326e-08 0.0251555

0.0329548 -0.00246663 2.36913e-07
-0.00246663 0.0267088 -1.30406e-08
2.36913e-07 -1.30406e-08 0.0285959

0.0294907 -0.00334182 -1.41746e-07
-0.00334182 0.0329497 -9.87386e-09
-1.41746e-07 -9.87386e-09 0.0334067

0.0261335 0.00463377 1.69822e-07
0.00463377 0.0255404 5.22719e-08
1.69822e-07 5.22719e-08 0.0210918

0.0281495 0.00201657 7.39166e-08
0.00201657 0.034335 4.72649e-09
7.39166e-08 4.72649e-09 0.0311088

0.0308857 0.00348071 -8.99597e-08
0.00348071 0.0322549 1.65321e-07
-8.99597e-08 1.65321e-07 0.0325995

0.0291565 0.00334816 -7.57836e-08
0.00334816 0.0331912 -7.44125e-08
-7.57836e-08 -7.44125e-08 0.0332598

0.0289834 0.00152308 -1.33958e-08
0.00152308 0.0354697 9.52141e-08
-1.33958e-08 9.52141e-08 0.0326949

0.0310519 -0.00106185 1.28981e-07
-0.00106185 0.0231409 5.44116e-08
1.28981e-07 5.44116e-08 0.0220774

0.0238835 0.00240547 -1.54409e-07
0.00240547 0.0304096 -4.05368e-08
-1.54409e-07 -4.05368e-08 0.0221124

0.0292127 -0.003204 -1.06579e-08
-0.003204 0.0326359 -2.06727e-08
-1.06579e-08 -2.06727e-08 0.0316179

0.028987 0.00335667 1.51956e-07
0.00335667 0.0309318 -1.62467e-07
1.51956e-07 -1.62467e-07 0.0285674

0.0266121 -0.00459096 9.99836e-08
-0.00459096 0.0252299 1.8937e-08
9.99836e-08 1.8937e-08 0.0212561

0.0262773 0.00489327 -2.7028e-07
0.00489327 0.0209457 4.79328e-09
-2.7028e-07 4.79328e-09 0.016762

0.0235022 -0.00428679 -3.73444e-08
-0.00428679 0.0274639 2.29973e-08
-3.73444e-08 2.29973e-08 0.0206259

0.0266711 -0.00402738 1.05001e-07
-0.00402738 0.0274819 3.01541e-08
1.05001e-07 3.01541e-08 0.0220495

0.0353644 -0.000906621 1.87687e-07
-0.000906621 0.0273898 -5.66771e-08
1.87687e-07 -5.66771e-08 0.0326544

0.0260445 0.00392165 1.63567e-07
0.00392165 0.0280915 8.17842e-08
1.63567e-07 8.17842e-08 0.022102

0.0307875 0.00171664 1.3288e-07
0.00171664 0.0233599 6.72957e-09
1.3288e-07 6.72957e-09 0.0220251

0.0214305 0.0017221 2.1928e-07
0.0017221 0.03024 2.92077e-08
2.1928e-07 2.92077e-08 0.0211323

0.0242623 -0.00288934 -1.09154e-07
-0.00288934 0.0299513 -1.32449e-07
-1.09154e-07 -1.32449e-07 0.0220857

0.0313455 -0.000131196 2.30509e-08
-0.000131196 0.0392735 1.53547e-07
2.30509e-08 1.53547e-07 0.0346707

0.0230579 0.000294792 8.94034e-08
0.000294792 0.0314601 -1.49446e-09
8.94034e-08 -1.49446e-09 0.0230618

0.0227767 0.00400129 -2.23003e-07
0.00400129 0.0281266 4.99564e-08
-2.23003e-07 4.99564e-08 0.0206377

0.0288881 0.00158566 1.54396e-07
0.00158566 0.0358322 -4.42845e-08
1.54396e-07 -4.42845e-08 0.0328935

0.0293154 -0.00358001 -9.17198e-08
-0.00358001 0.0251292 -1.48807e-08
-9.17198e-08 -1.48807e-08 0.0232393

0.0369764 0.00273299 -5.83251e-08
0.00273299 0.029723 -9.52283e-08
-5.83251e-08 -9.52283e-08 0.0338016

0.0371757 0.0034832 -2.30324e-07
0.0034832 0.0334225 -9.74826e-09
-2.30324e-07 -9.74826e-09 0.0346521

0.0345439 -0.00244634 -1.66643e-08
-0.00244634 0.0285295 1.72037e-08
-1.66643e-08 1.72037e-08 0.0313788

0.0390566 -0.000265567 1.54908e-07
-0.000265567 0.0339247 6.49985e-08
1.54908e-07 6.49985e-08 0.0352082

0.0314789 -0.00418749 5.50475e-08
-0.00418749 0.0317815 1.43561e-07
5.50475e-08 1.43561e-07 0.0321562

0.0294618 0.00300758 1.65347e-07
0.00300758 0.022327 -3.84168e-08
1.65347e-07 -3.84168e-08 0.0210663

0.0302292 0.00397294 8.03202e-08
0.00397294 0.0326627 -1.47606e-07
8.03202e-08 -1.47606e-07 0.0327198

0.0302771 0.00384676 -1.11203e-07
0.00384676 0.0326067 -6.86425e-08
-1.11203e-07 -6.86425e-08 0.0326746

0.0262442 0.00396162 1.10041e-07
0.00396162 0.0277673 1.7086e-07
1.10041e-07 1.7086e-07 0.0218645

0.0344504 0.00357661 7.05658e-08
0.00357661 0.0317798 7.42654e-08
7.05658e-08 7.42654e-08 0.0328314

0.030248 0.000452288 1.44432e-07
0.000452288 0.0204282 3.13869e-08
1.44432e-07 3.13869e-08 0.0205731

0.033186 0.00420039 9.82253e-08
0.00420039 0.0323731 1.8377e-07
9.82253e-08 1.8377e-07 0.0334838

0.0305009 -0.00165449 -5.95226e-08
-0.00165449 0.0366164 -2.24514e-08
-5.95226e-08 -2.24514e-08 0.0336628

0.03736 0.00323278 6.03896e-08
0.00323278 0.03346 -6.56223e-08
6.03896e-08 -6.56223e-08 0.0346643

0.0307372 -0.00389576 2.27912e-08
-0.00389576 0.0322729 -7.86647e-08
2.27912e-08 -7.86647e-08 0.0326802

0.0293739 -0.00064491 -8.71099e-08
-0.00064491 0.036903 4.09702e-09
-8.71099e-08 4.09702e-09 0.0328479

0.0288122 -0.00315212 9.80572e-09
-0.00315212 0.0221398 -1.91156e-07
9.80572e-09 -1.91156e-07 0.0187588

0.0290025 0.0038445 2.41969e-08
0.0038445 0.0255775 5.59565e-08
2.41969e-08 5.59565e-08 0.0230727

0.0217012 0.00189101 2.66946e-08
0.00189101 0.0300612 1.09253e-07
2.66946e-08 1.09253e-07 0.0210837

0.03499 -0.000161487 -1.57712e-07
-0.000161487 0.0273895 -5.6638e-08
-1.57712e-07 -5.6638e-08 0.0333015

0.0344195 2.5741e-07 1.75068e-07
2.5741e-07 0.0272746 -3.34498e-08
1.75068e-07 -3.34498e-08 0.0320411

0.0291655 0.00303978 -1.36849e-07
0.00303978 0.0326795 -6.74829e-08
-1.36849e-07 -6.74829e-08 0.0321327

0.0314501 0.00316625 -3.84075e-08
0.00316625 0.0342505 -6.13809e-08
-3.84075e-08 -6.13809e-08 0.0340581

0.0291685 -0.00320428 1.11153e-07
-0.00320428 0.0332384 -6.19812e-08
1.11153e-07 -6.19812e-08 0.033379

0.0287737 -8.551e-05 -7.71746e-08
-8.551e-05 0.0367045 -9.53004e-08
-7.71746e-08 -9.53004e-08 0.0325256

0.029464 0.00337574 9.40726e-09
0.00337574 0.0330747 1.16415e-07
9.40726e-09 1.16415e-07 0.0333546

0.0328595 -0.00134648 -1.58944e-07
-0.00134648 0.0253617 -1.25953e-07
-1.58944e-07 -1.25953e-07 0.0278288

0.0263548 -0.00425457 2.29681e-07
-0.00425457 0.0281795 -2.48114e-08
2.29681e-07 -2.48114e-08 0.0242675

0.0362974 -0.000331413 -6.02559e-08
-0.000331413 0.0293832 1.08083e-07
-6.02559e-08 1.08083e-07 0.0340279

0.0267807 -0.00444549 2.73914e-08
-0.00444549 0.0251904 -1.88502e-08
2.73914e-08 -1.88502e-08 0.020949

0.0308996 0.00250709 6.4655e-08
0.00250709 0.035063 -1.10188e-07
6.4655e-08 -1.10188e-07 0.0340678

0.0351134 -0.00349698 2.42975e-08
-0.00349698 0.0303885 -4.30842e-08
2.42975e-08 -4.30842e-08 0.0326148

0.030502 -0.00124976 -5.21388e-08
-0.00124976 0.0229783 2.17618e-07
-5.21388e-08 2.17618e-07 0.0214783

0.0371477 -0.00307686 -2.25584e-07
-0.00307686 0.0316535 8.24328e-08
-2.25584e-07 8.24328e-08 0.0339879

0.0349691 0.000322015 3.94608e-08
0.000322015 0.0275547 -2.02386e-08
3.94608e-08 -2.02386e-08 0.0334299

0.0358431 -0.00308811 -4.81079e-09
-0.00308811 0.0332577 -3.2376e-08
-4.81079e-09 -3.2376e-08 0.0341435

0.034929 -0.0034106 1.54148e-07
-0.0034106 0.0295949 -4.95484e-08
1.54148e-07 -4.95484e-08 0.032178

0.0349094 -0.00113371 1.33969e-07
-0.00113371 0.02785 -1.43693e-07
1.33969e-07 -1.43693e-07 0.0323414

0.0314892 -0.00306246 7.18149e-08
-0.00306246 0.0344488 8.90314e-08
7.18149e-08 8.90314e-08 0.0341465

0.0292353 -0.00407085 9.69668e-08
-0.00407085 0.0268995 -1.04157e-07
9.69668e-08 -1.04157e-07 0.0253461

0.034993 -0.00324366 1.61776e-07
-0.00324366 0.0299155 -1.94839e-08
1.61776e-07 -1.94839e-08 0.0321952

0.0314621 0.00140917 1.33439e-08
0.00140917 0.023327 6.75786e-10
1.33439e-08 6.75786e-10 0.0244836

0.0336644 0.00348422 2.01557e-07
0.00348422 0.0334438 2.37803e-08
2.01557e-07 2.37803e-08 0.03365

0.0298922 -0.00496733 1.7669e-08
-0.00496733 0.0330784 -1.62234e-08
1.7669e-08 -1.62234e-08 0.0338571

0.0300433 0.00492036 -2.73111e-08
0.00492036 0.0329402 1.18053e-07
-2.73111e-08 1.18053e-07 0.033824

0.0276878 -0.00374173 -2.09609e-07
-0.00374173 0.0348067 1.07811e-08
-2.09609e-07 1.07811e-08 0.0337666

0.0279258 0.00354713 -1.86418e-07
0.00354713 0.0348352 7.25069e-08
-1.86418e-07 7.25069e-08 0.0337315

0.0364295 -0.00115367 -1.59317e-07
-0.00115367 0.0263418 -5.3917e-08
-1.59317e-07 -5.3917e-08 0.0337578

0.0361981 0.00124757 2.00475e-07
0.00124757 0.0265632 -1.79717e-08
2.00475e-07 -1.79717e-08 0.0337206

0.0350346 -0.00130667 -1.49678e-09
-0.00130667 0.028468 5.45087e-08
-1.49678e-09 5.45087e-08 0.0325758

0.0344365 0.00425937 6.55934e-09
0.00425937 0.0342895 -6.05996e-08
6.55934e-09 -6.05996e-08 0.0348124

0.0343118 -0.00435696 -1.04907e-07
-0.00435696 0.034281 2.33875e-08
-1.04907e-07 2.33875e-08 0.0348008

0.0305208 0.00209344 1.82655e-08
0.00209344 0.0381652 -1.87383e-08
1.82655e-08 -1.87383e-08 0.0348496

0.0306641 -0.00205949 3.45211e-08
-0.00205949 0.0380948 -1.66132e-08
3.45211e-08 -1.66132e-08 0.0348369

0.0395019 -0.000528836 -2.10236e-07
-0.000528836 0.0328493 6.79092e-08
-2.10236e-07 6.79092e-08 0.0352579

0.039705 0.000513455 -1.42832e-07
0.000513455 0.0326221 -9.51352e-08
-1.42832e-07 -9.51352e-08 0.0353031

0.023965 0.00127595 2.15374e-08
0.00127595 0.0320028 -1.26551e-07
2.15374e-08 -1.26551e-07 0.0251842

0.0311622 -0.00326561 5.92022e-08
-0.00326561 0.0322408 1.18672e-07
5.92022e-08 1.18672e-07 0.0328018

0.0277798 -0.00478575 -1.67079e-07
-0.00478575 0.0333118 -5.55911e-08
-1.67079e-07 -5.55911e-08 0.0334552

0.033359 -0.000610218 -1.89171e-08
-0.000610218 0.0264031 1.21926e-07
-1.89171e-08 1.21926e-07 0.0284482

0.0381874 -0.00225196 -1.80333e-07
-0.00225196 0.0307944 1.18743e-07
-1.80333e-07 1.18743e-07 0.0348927

0.0382362 0.00218407 -2.13712e-07
0.00218407 0.0309076 1.07952e-08
-2.13712e-07 1.07952e-08 0.0349249

0.0360837 1.56205e-05 -1.23883e-08
1.56205e-05 0.0251258 7.18699e-08
-1.23883e-08 7.18699e-08 0.0334703

0.024241 0.00302882 -9.13451e-08
0.00302882 0.0303977 -5.62788e-08
-9.13451e-08 -5.62788e-08 0.024277

0.0276743 0.00475652 2.58954e-08
0.00475652 0.0333127 -7.01329e-08
2.58954e-08 -7.01329e-08 0.0333931

0.0286746 -0.00307602 5.16568e-08
-0.00307602 0.0342612 4.03837e-08
5.16568e-08 4.03837e-08 0.0327523

0.0310854 0.0030357 2.27403e-07
0.0030357 0.0251465 -1.4624e-07
2.27403e-07 -1.4624e-07 0.0254671

0.0372278 0.00316554 -8.80304e-08
0.00316554 0.0315409 4.57024e-08
-8.80304e-08 4.57024e-08 0.0340758

0.0292268 -0.00406724 -1.82092e-07
-0.00406724 0.0269355 1.30851e-07
-1.82092e-07 1.30851e-07 0.0253213

0.0364011 -0.000453724 -9.14036e-08
-0.000453724 0.0296916 -2.66208e-08
-9.14036e-08 -2.66208e-08 0.034131

0.0273441 -0.00449465 3.28483e-09
-0.00449465 0.033395 5.8992e-08
3.28483e-09 5.8992e-08 0.0334418

0.0240378 0.00107896 5.9308e-08
0.00107896 0.0322443 -8.3079e-08
5.9308e-08 -8.3079e-08 0.0255059

0.0242297 0.00282648 -9.64027e-08
0.00282648 0.0307015 7.6851e-08
-9.64027e-08 7.6851e-08 0.0245448

0.0267922 0.00459429 -3.97236e-08
0.00459429 0.0240417 -2.5097e-07
-3.97236e-08 -2.5097e-07 0.0182135

0.0298509 0.00019993 1.34483e-07
0.00019993 0.0200884 -6.37539e-08
1.34483e-07 -6.37539e-08 0.0193624

0.0319085 -0.00302406 1.03007e-07
-0.00302406 0.0341624 1.3721e-08
1.03007e-07 1.3721e-08 0.0340356

0.0229185 0.00399951 -1.34373e-07
0.00399951 0.0276601 2.08334e-07
-1.34373e-07 2.08334e-07 0.017653

0.0292099 0.00310107 5.74488e-08
0.00310107 0.0327633 2.27168e-07
5.74488e-08 2.27168e-07 0.0310123

0.0315945 -0.000694611 -6.4488e-08
-0.000694611 0.02316 4.94052e-08
-6.4488e-08 4.94052e-08 0.0244848

0.0327614 0.00146461 -9.09155e-09
0.00146461 0.0253468 6.96758e-08
-9.09155e-09 6.96758e-08 0.027613

0.0359783 5.60053e-05 -4.46481e-08
5.60053e-05 0.0249587 1.47322e-07
-4.46481e-08 1.47322e-07 0.0333862

0.0279658 -0.00380544 1.25141e-07
-0.00380544 0.0349488 -3.70107e-08
1.25141e-07 -3.70107e-08 0.033816

0.0393146 -0.000843745 1.8653e-07
-0.000843745 0.0416019 -3.50788e-07
1.8653e-07 -3.50788e-07 0.0361901

0.0298681 0.00493925 1.42031e-08
0.00493925 0.0329564 -1.55127e-07
1.42031e-08 -1.55127e-07 0.0337791

0.0302882 0.000214359 -8.64883e-09
0.000214359 0.0203968 2.12822e-08
-8.64883e-09 2.12822e-08 0.0172761

0.0266736 -0.00425026 9.27543e-08
-0.00425026 0.0281331 4.86143e-08
9.27543e-08 4.86143e-08 0.0244374

0.027746 0.00481576 1.95707e-08
0.00481576 0.0333154 9.85787e-08
1.95707e-08 9.85787e-08 0.0334554

0.0279451 -0.00145854 -1.16518e-07
-0.00145854 0.035085 -7.69245e-08
-1.16518e-07 -7.69245e-08 0.0314503

0.024465 -0.00330514 -8.8744e-08
-0.00330514 0.0300155 -8.94595e-08
-8.8744e-08 -8.94595e-08 0.0242171

0.0279908 0.00377965 3.70498e-08
0.00377965 0.0349101 -1.08369e-07
3.70498e-08 -1.08369e-07 0.0337869

0.0313616 -0.00340938 -1.48786e-07
-0.00340938 0.0270085 -1.28346e-07
-1.48786e-07 -1.28346e-07 0.0269914

0.0402798 0.00140908 9.40412e-08
0.00140908 0.0406178 -2.17091e-07
9.40412e-08 -2.17091e-07 0.0361705

0.0258809 0.004003 1.20273e-07
0.004003 0.0289544 1.07595e-09
1.20273e-07 1.07595e-09 0.024511

0.036678 0.0011031 -5.05469e-08
0.0011031 0.0263523 -1.47392e-07
-5.05469e-08 -1.47392e-07 0.0338978

0.0333418 0.00398416 4.57596e-08
0.00398416 0.0321155 -6.47358e-08
4.57596e-08 -6.47358e-08 0.0333157

0.0292281 0.0030672 8.64312e-08
0.0030672 0.032605 -1.47329e-07
8.64312e-08 -1.47329e-07 0.0321577

0.034365 -0.00431097 1.06923e-07
-0.00431097 0.0345053 8.82772e-08
1.06923e-07 8.82772e-08 0.034885

0.0354899 -0.00306369 8.13855e-08
-0.00306369 0.0305902 7.33038e-08
8.13855e-08 7.33038e-08 0.0327505

0.0333666 0.00138793 -1.86708e-07
0.00138793 0.0395773 -1.11891e-07
-1.86708e-07 -1.11891e-07 0.0350026

0.0291968 -0.00307884 -5.97504e-08
-0.00307884 0.0328734 -8.02713e-08
-5.97504e-08 -8.02713e-08 0.0313834

0.0292647 -0.00123221 -2.87954e-08
-0.00123221 0.0192871 -1.12099e-07
-2.87954e-08 -1.12099e-07 0.0164122

0.0287786 -0.00183234 -6.13554e-08
-0.00183234 0.0184141 -8.83974e-08
-6.13554e-08 -8.83974e-08 0.0161971

0.0385293 0.00220198 5.42184e-08
0.00220198 0.033239 -5.41119e-08
5.42184e-08 -5.41119e-08 0.034763

0.0280562 0.00294511 8.29596e-08
0.00294511 0.0323355 -2.49665e-07
8.29596e-08 -2.49665e-07 0.0295182

0.0320675 0.00383449 -9.23123e-08
0.00383449 0.0309608 -7.68061e-08
-9.23123e-08 -7.68061e-08 0.0314546

0.0320498 8.98247e-05 -1.55544e-07
8.98247e-05 0.024577 1.43226e-07
-1.55544e-07 1.43226e-07 0.0248882

0.0302378 0.000866153 -1.07427e-07
0.000866153 0.0385813 -5.26226e-08
-1.07427e-07 -5.26226e-08 0.0340965

0.0354025 0.00219129 1.12776e-07
0.00219129 0.0293231 2.70225e-07
1.12776e-07 2.70225e-07 0.0328585

0.0248115 -0.0033388 -1.28876e-07
-0.0033388 0.0300063 -1.02115e-07
-1.28876e-07 -1.02115e-07 0.0244701

0.0286508 -0.000337966 1.58211e-07
-0.000337966 0.0366572 -7.27301e-08
1.58211e-07 -7.27301e-08 0.032396

0.0252155 0.00174008 -4.61471e-08
0.00174008 0.0320295 -1.28642e-07
-4.61471e-08 -1.28642e-07 0.0256841

0.0332809 -0.00390983 -1.96519e-08
-0.00390983 0.0304971 6.7202e-08
-1.96519e-08 6.7202e-08 0.0315926

0.0290652 -0.00389597 -2.7141e-07
-0.00389597 0.0282003 -4.14853e-08
-2.7141e-07 -4.14853e-08 0.0257137

0.0261494 0.00409879 2.6767e-08
0.00409879 0.0285467 2.38403e-08
2.6767e-08 2.38403e-08 0.0243183

0.0452876 -0.00201735 1.54836e-07
-0.00201735 0.039606 3.44308e-07
1.54836e-07 3.44308e-07 0.0363671

0.0316669 0.000256543 5.1246e-08
0.000256543 0.0393271 -8.29173e-08
5.1246e-08 -8.29173e-08 0.0347692

0.0306167 0.00265104 -7.71466e-09
0.00265104 0.038443 1.54263e-08
-7.71466e-09 1.54263e-08 0.0349578

0.0387659 0.00209482 1.24952e-07
0.00209482 0.0302218 -2.36607e-16
1.24952e-07 -2.36607e-16 0.0349427

0.0313711 -0.00345045 1.70601e-07
-0.00345045 0.0321404 1.4906e-07
1.70601e-07 1.4906e-07 0.0325729

0.0318179 0.00233615 6.14293e-08
0.00233615 0.0256205 9.77926e-08
6.14293e-08 9.77926e-08 0.0258798

0.0349939 -0.000708445 -2.60657e-07
-0.000708445 0.0415759 3.16149e-08
-2.60657e-07 3.16149e-08 0.0357278

0.0357882 -0.00251856 2.67886e-08
-0.00251856 0.0295505 1.04693e-07
2.67886e-08 1.04693e-07 0.0332581

0.0332972 -0.00203981 2.49643e-07
-0.00203981 0.0266529 1.94647e-08
2.49643e-07 1.94647e-08 0.0286756

0.0252525 0.00151086 3.08668e-09
0.00151086 0.0322746 -8.51998e-08
3.08668e-09 -8.51998e-08 0.0259502

0.0268048 -0.00334467 2.00884e-07
-0.00334467 0.0300098 -7.9272e-08
2.00884e-07 -7.9272e-08 0.0251874

0.0364779 -0.0033603 -1.53293e-07
-0.0033603 0.0352875 -5.83668e-08
-1.53293e-07 -5.83668e-08 0.0347425

0.028476 0.00415205 -1.51573e-07
0.00415205 0.0277162 1.16076e-07
-1.51573e-07 1.16076e-07 0.0254679

0.0372438 -0.0033452 -1.7837e-08
-0.0033452 0.0333222 5.22343e-08
-1.7837e-08 5.22343e-08 0.0346118

0.0322062 0.000337908 -4.42095e-08
0.000337908 0.0248627 8.89753e-08
-4.42095e-08 8.89753e-08 0.0254377

0.0191611 -0.00368912 -1.98136e-07
-0.00368912 0.0275259 5.37655e-09
-1.98136e-07 5.37655e-09 0.0163109

0.0292099 -0.00380349 1.69927e-07
-0.00380349 0.0281927 5.5566e-08
1.69927e-07 5.5566e-08 0.0258079

0.0230458 0.0041274 -2.68443e-07
0.0041274 0.0280204 -2.60029e-07
-2.68443e-07 -2.60029e-07 0.0175922

0.0296911 -0.00155937 -6.70383e-08
-0.00155937 0.0375338 -1.25048e-07
-6.70383e-08 -1.25048e-07 0.0336486

0.0243602 -0.00179363 -7.12802e-10
-0.00179363 0.0318725 1.38201e-08
-7.12802e-10 1.38201e-08 0.025448

0.0424371 -0.00323453 -1.02858e-07
-0.00323453 0.0423765 -4.25826e-08
-1.02858e-07 -4.25826e-08 0.0363754

0.0263365 0.0030911 7.25976e-08
0.0030911 0.0307017 7.69666e-08
7.25976e-08 7.69666e-08 0.0254779

0.0334769 -0.00432328 1.4696e-08
-0.00432328 0.0326593 -2.4908e-08
1.4696e-08 -2.4908e-08 0.0335665

0.0240806 -0.00155076 5.12165e-08
-0.00155076 0.0318871 -4.30709e-08
5.12165e-08 -4.30709e-08 0.0251768

0.0362227 -0.00253872 4.91895e-08
-0.00253872 0.0295112 -2.05151e-08
4.91895e-08 -2.05151e-08 0.0335194

0.0266735 0.00310473 7.76892e-08
0.00310473 0.0303946 -5.90391e-08
7.76892e-08 -5.90391e-08 0.0253132

0.0343431 -0.000653714 5.36246e-08
-0.000653714 0.0272767 -1.96166e-08
5.36246e-08 -1.96166e-08 0.0305776

0.0188905 -0.00387152 -1.18925e-07
-0.00387152 0.0298015 -1.75586e-07
-1.18925e-07 -1.75586e-07 0.0129612

0.0279992 0.00275449 1.10821e-07
0.00275449 0.0326286 -4.47298e-08
1.10821e-07 -4.47298e-08 0.0305735

0.0314371 -0.00251215 8.0458e-08
-0.00251215 0.0247221 -3.46629e-08
8.0458e-08 -3.46629e-08 0.0254058

0.0391182 -0.0028692 7.41256e-08
-0.0028692 0.0322212 3.86695e-08
7.41256e-08 3.86695e-08 0.0349367

0.0287528 0.00412383 -5.51157e-08
0.00412383 0.0272998 -8.17007e-08
-5.51157e-08 -8.17007e-08 0.0252553

0.0313612 -0.00391918 -1.33649e-07
-0.00391918 0.0285416 -1.51671e-07
-1.33649e-07 -1.51671e-07 0.0287307

0.0354076 0.00276414 -1.05751e-07
0.00276414 0.0308555 -3.80665e-08
-1.05751e-07 -3.80665e-08 0.0330389

0.0297724 -0.00370324 -5.76695e-08
-0.00370324 0.0329373 6.02962e-09
-5.76695e-08 6.02962e-09 0.033342

0.0270546 -0.00341006 2.6872e-08
-0.00341006 0.0299822 -9.02397e-08
2.6872e-08 -9.02397e-08 0.0253971

0.0284405 0.00377112 -7.13637e-08
0.00377112 0.0289393 -4.32953e-09
-7.13637e-08 -4.32953e-09 0.0258869

0.0313707 0.00341328 1.76904e-08
0.00341328 0.026899 -1.54993e-07
1.76904e-08 -1.54993e-07 0.0269656

0.0365357 -0.00194424 3.90914e-08
-0.00194424 0.0306249 -4.19585e-08
3.90914e-08 -4.19585e-08 0.0336352

0.0255332 -0.00216315 -7.51636e-08
-0.00216315 0.0318012 7.49676e-09
-7.51636e-08 7.49676e-09 0.0258533

0.0346989 -0.00231404 -1.80495e-10
-0.00231404 0.0283338 5.45399e-08
-1.80495e-10 5.45399e-08 0.0314554

0.0341849 0.00222289 -1.713e-07
0.00222289 0.0274313 7.29064e-08
-1.713e-07 7.29064e-08 0.0306033

0.0336445 -0.00124568 -3.10255e-07
-0.00124568 0.0392993 1.57481e-07
-3.10255e-07 1.57481e-07 0.0349268

0.0320711 -0.00174667 3.71666e-08
-0.00174667 0.0253299 -1.176e-07
3.71666e-08 -1.176e-07 0.0258706

0.0250013 7.95804e-05 -3.49209e-08
7.95804e-05 0.0331508 -3.47341e-08
-3.49209e-08 -3.47341e-08 0.0268606

0.0332465 0.00242868 -7.27966e-08
0.00242868 0.0271931 -3.2705e-08
-7.27966e-08 -3.2705e-08 0.0289215

0.0311167 0.00359871 2.14229e-07
0.00359871 0.0272921 -1.73787e-07
2.14229e-07 -1.73787e-07 0.027122

0.0252948 -0.00204119 -6.4888e-08
-0.00204119 0.0318638 -4.57654e-08
-6.4888e-08 -4.57654e-08 0.0256105

0.0252006 -0.000154634 2.1627e-09
-0.000154634 0.033291 4.67822e-09
2.1627e-09 4.67822e-09 0.0271435

0.0354128 0.00385799 8.1775e-08
0.00385799 0.032995 -5.62663e-08
8.1775e-08 -5.62663e-08 0.0338948

0.0275851 -0.0014309 -2.24845e-07
-0.0014309 0.0353409 1.02289e-07
-2.24845e-07 1.02289e-07 0.0314414

0.0312335 -0.00348389 1.0901e-07
-0.00348389 0.0269768 1.42094e-07
1.0901e-07 1.42094e-07 0.0270092

0.031296 0.0027726 1.49825e-07
0.0027726 0.0249215 7.18957e-08
1.49825e-07 7.18957e-08 0.0252456

0.0345819 0.00311852 -1.32535e-07
0.00311852 0.0293859 1.45032e-07
-1.32535e-07 1.45032e-07 0.0317951

0.0279906 0.000716619 -1.19039e-07
0.000716619 0.0360385 -1.96694e-07
-1.19039e-07 -1.96694e-07 0.0318175

0.0287156 0.00378116 -1.19686e-07
0.00378116 0.0285588 2.69005e-08
-1.19686e-07 2.69005e-08 0.0257273

0.0367899 0.00305728 -1.464e-07
0.00305728 0.0361246 -1.57846e-07
-1.464e-07 -1.57846e-07 0.0349065

0.0226795 -0.00754513 -2.33261e-07
-0.00754513 0.0186874 4.56805e-08
-2.33261e-07 4.56805e-08 0.0108449

0.0332903 -0.00328726 1.14528e-07
-0.00328726 0.0286316 -1.31655e-07
1.14528e-07 -1.31655e-07 0.0301233

0.0207264 0.000913357 -1.01459e-07
0.000913357 0.0300304 -1.45911e-07
-1.01459e-07 -1.45911e-07 0.018346

0.0312996 -0.00378159 4.11804e-08
-0.00378159 0.0292306 1.60975e-07
4.11804e-08 1.60975e-07 0.0290309

0.00153954 -0.00651868 3.37603e-08
-0.00651868 0.0275679 -1.47914e-07
3.37603e-08 -1.47914e-07 0.00290825

0.00146993 0.00636824 -4.05633e-08
0.00636824 0.0275858 -1.7772e-07
-4.05633e-08 -1.7772e-07 0.00300124

0.0119843 0.0145047 1.06781e-07
0.0145047 0.0175322 1.33899e-07
1.06781e-07 1.33899e-07 0.00277116

0.0121658 -0.0144954 9.79723e-08
-0.0144954 0.0172236 -1.22853e-07
9.79723e-08 -1.22853e-07 0.00280377

0.0293402 -0.000164086 1.66004e-07
-0.000164086 0 0
1.66004e-07 0 0.00295259

0.0235919 -0.0112824 -6.7153e-08
-0.0112824 0.00539536 3.23392e-08
-6.7153e-08 3.23392e-08 0.00297828

0.0236337 0.0113487 1.33316e-07
0.0113487 0.00544946 6.42018e-08
1.33316e-07 6.42018e-08 0.00303941

0.0369106 0.00191155 1.12739e-07
0.00191155 0.0302416 2.46929e-08
1.12739e-07 2.46929e-08 0.0338773

0.0387049 0.00340982 4.47327e-08
0.00340982 0.036617 -6.92029e-08
4.47327e-08 -6.92029e-08 0.035578

0.0344143 0.000872331 -3.60202e-07
0.000872331 0.0274564 -3.17614e-09
-3.60202e-07 -3.17614e-09 0.0316873

0.0328725 0.00285012 -4.66415e-09
0.00285012 0.026889 -1.55437e-07
-4.66415e-09 -1.55437e-07 0.0286459

0.0257003 0.00231322 5.76646e-08
0.00231322 0.0323664 8.10627e-08
5.76646e-08 8.10627e-08 0.0276351

0.030712 0.00376889 1.32064e-08
0.00376889 0.0276757 1.23938e-07
1.32064e-08 1.23938e-07 0.0271172

0.0333054 -0.00390325 -8.1736e-08
-0.00390325 0.0304654 -2.21919e-08
-8.1736e-08 -2.21919e-08 0.0316295

0.0309728 0.00365436 -2.4031e-08
0.00365436 0.0272865 -8.14022e-08
-2.4031e-08 -8.14022e-08 0.0269248

0.0249868 -0.00037136 5.73516e-08
-0.00037136 0.0331219 -3.17742e-08
5.73516e-08 -3.17742e-08 0.0268428

0.0385479 -0.00348488 1.35963e-07
-0.00348488 0.0368807 -3.50798e-08
1.35963e-07 -3.50798e-08 0.0355837

0.0251752 -0.000635606 -5.53565e-09
-0.000635606 0.0332096 4.025e-09
-5.53565e-09 4.025e-09 0.0271023

0.0360177 0.00304736 3.35254e-08
0.00304736 0.0330109 7.26095e-08
3.35254e-08 7.26095e-08 0.0340976

0.0296227 0.00347568 1.12274e-08
0.00347568 0.0248459 7.97241e-08
1.12274e-08 7.97241e-08 0.0230225

0.0304959 -0.00171395 1.7367e-07
-0.00171395 0.0375123 -6.33435e-08
1.7367e-07 -6.33435e-08 0.0347362

0.0339198 0.00180447 1.17912e-07
0.00180447 0.0271813 -3.09518e-08
1.17912e-07 -3.09518e-08 0.0303201

0.0312007 -0.00392032 8.95148e-08
-0.00392032 0.0285308 1.75244e-07
8.95148e-08 1.75244e-07 0.0286142

0.0315833 -0.00322146 4.66875e-08
-0.00322146 0.0266914 2.21838e-08
4.66875e-08 2.21838e-08 0.0270474

0.0384791 -0.0021412 1.84823e-08
-0.0021412 0.0334168 1.21588e-07
1.84823e-08 1.21588e-07 0.0347447

0.0326808 0.00366387 1.35609e-07
0.00366387 0.0292317 -9.04223e-08
1.35609e-07 -9.04223e-08 0.0301547

0.0326443 0.00313732 9.15259e-08
0.00313732 0.0272521 -1.79059e-07
9.15259e-08 -1.79059e-07 0.0287876

0.0269549 -0.000365023 1.56305e-07
-0.000365023 0.0349868 1.02507e-09
1.56305e-07 1.02507e-09 0.0301677

0.0258994 0.000765868 6.51156e-08
0.000765868 0.0340035 1.40854e-07
6.51156e-08 1.40854e-07 0.0288227

0.0327782 0.000345388 -2.8204e-09
0.000345388 0.0248615 9.16668e-08
-2.8204e-09 9.16668e-08 0.0274435

0.0313869 -0.000944843 -1.15531e-07
-0.000944843 0.0230037 2.15305e-07
-1.15531e-07 2.15305e-07 0.0238919

0.0308804 0.0039852 -1.31614e-08
0.0039852 0.0288056 -6.1584e-08
-1.31614e-08 -6.1584e-08 0.0286239

0.0331175 -0.00343127 -2.33038e-09
-0.00343127 0.0285404 1.74554e-07
-2.33038e-09 1.74554e-07 0.0299691

0.0364121 -0.00282367 -1.58575e-07
-0.00282367 0.0327329 1.43794e-07
-1.58575e-07 1.43794e-07 0.0341439

0.0292061 -0.00412763 9.87873e-08
-0.00412763 0.0291923 1.64842e-07
9.87873e-08 1.64842e-07 0.0277537

0.0269719 -0.00362034 1.46445e-07
-0.00362034 0.0304645 1.21866e-08
1.46445e-07 1.21866e-08 0.0272132

0.0283262 0.00389942 -1.40566e-08
0.00389942 0.0299006 1.09785e-07
-1.40566e-08 1.09785e-07 0.0277518

0.0259011 -0.00124878 7.3949e-08
-0.00124878 0.0336136 -5.78801e-08
7.3949e-08 -5.78801e-08 0.0285157

0.0266544 -0.000202031 1.41096e-07
-0.000202031 0.0349125 6.57136e-08
1.41096e-07 6.57136e-08 0.0299196

0.0277622 0.000753084 6.47835e-08
0.000753084 0.0360379 -1.98055e-07
6.47835e-08 -1.98055e-07 0.031658

0.026247 -0.00274951 2.53121e-08
-0.00274951 0.0319628 -1.4251e-07
2.53121e-08 -1.4251e-07 0.0277104

0.0345826 0.00317572 -3.12926e-09
0.00317572 0.0291681 -9.8676e-08
-3.12926e-09 -9.8676e-08 0.0316342

0.033909 -0.00126111 5.41663e-08
-0.00126111 0.0269301 -1.82212e-08
5.41663e-08 -1.82212e-08 0.0302015

0.0257901 0.000974071 8.83645e-08
0.000974071 0.0338292 1.85542e-07
8.83645e-08 1.85542e-07 0.0285417

0.0278239 -0.00126997 7.82915e-08
-0.00126997 0.0353967 1.64149e-07
7.82915e-08 1.64149e-07 0.0313658

0.0272928 -0.00213697 -2.99636e-07
-0.00213697 0.033657 -5.86637e-08
-2.99636e-07 -5.86637e-08 0.0302255

0.0327763 -0.00107723 1.25884e-07
-0.00107723 0.0253199 1.33336e-07
1.25884e-07 1.33336e-07 0.0272541

0.0333149 -0.00427126 3.34459e-08
-0.00427126 0.0323801 1.74976e-07
3.34459e-08 1.74976e-07 0.033529

0.0264884 0.00121989 -5.47668e-09
0.00121989 0.0338353 1.84409e-07
-5.47668e-09 1.84409e-07 0.0288159

0.0398112 -0.00243166 1.84236e-07
-0.00243166 0.0352181 -7.02747e-08
1.84236e-07 -7.02747e-08 0.0354609

0.0188886 0.00316462 -4.92818e-08
0.00316462 0.0278758 -2.39068e-07
-4.92818e-08 -2.39068e-07 0.0162727

0.0338155 -0.0035228 -6.02482e-08
-0.0035228 0.0334945 2.57464e-08
-6.02482e-08 2.57464e-08 0.0337259

0.0353435 -0.00399933 3.94565e-08
-0.00399933 0.0330462 1.23799e-07
3.94565e-08 1.23799e-07 0.0339038

0.0266857 -9.06849e-05 1.61657e-07
-9.06849e-05 0.0349176 6.61857e-08
1.61657e-07 6.61857e-08 0.0299278

0.0332428 -0.00217639 -1.32385e-07
-0.00217639 0.0271528 -1.80695e-07
-1.32385e-07 -1.80695e-07 0.0289025

0.0293474 0.00168474 -1.31776e-08
0.00168474 0.035819 -3.44655e-08
-1.31776e-08 -3.44655e-08 0.0328796

0.0132074 -0.000379126 -2.70709e-07
-0.000379126 0.0283619 -1.35465e-07
-2.70709e-07 -1.35465e-07 0.0111517

0.0271134 0.00186866 -1.04247e-07
0.00186866 0.0340613 -1.41246e-09
-1.04247e-07 -1.41246e-09 0.030306

0.0311087 -0.00385849 -1.03774e-07
-0.00385849 0.0291541 -2.14458e-07
-1.03774e-07 -2.14458e-07 0.0288062

0.0186196 0.00320451 2.08624e-07
0.00320451 0.0301391 4.72039e-07
2.08624e-07 4.72039e-07 0.0131267

0.0426015 0.00351787 1.69304e-07
0.00351787 0.0418486 2.4607e-07
1.69304e-07 2.4607e-07 0.0364802

0.0432047 -0.00374866 -7.07412e-07
-0.00374866 0.0414175 6.88005e-07
-7.07412e-07 6.88005e-07 0.0364626

0.0310649 -0.00399071 1.61441e-07
-0.00399071 0.0304709 -2.80584e-08
1.61441e-07 -2.80584e-08 0.0304608

0.0289219 -0.00406405 -1.67327e-07
-0.00406405 0.0291505 -2.14794e-07
-1.67327e-07 -2.14794e-07 0.0275941

0.0330506 0.00272666 -7.1715e-08
0.00272666 0.0275281 8.14898e-08
-7.1715e-08 8.14898e-08 0.0290751

0.0327795 0.00196015 -6.54345e-08
0.00196015 0.0255909 9.32019e-08
-6.54345e-08 9.32019e-08 0.0278224

0.0464016 0.000418537 4.32889e-07
0.000418537 0.046357 -5.38897e-08
4.32889e-07 -5.38897e-08 0.0366944

0.0469183 -0.000952074 -3.61492e-07
-0.000952074 0.0457683 1.0112e-07
-3.61492e-07 1.0112e-07 0.0367655

0.0347989 0.000638328 -8.39075e-08
0.000638328 0.0275726 -2.43468e-07
-8.39075e-08 -2.43468e-07 0.0322162

0.0277515 0.000882474 -9.82806e-08
0.000882474 0.0355701 -1.17364e-08
-9.82806e-08 -1.17364e-08 0.0313483

0.0276073 0.000882676 1.19488e-07
0.000882676 0.0355702 -5.51463e-09
1.19488e-07 -5.51463e-09 0.0312444

0.0234588 0.00739977 2.95498e-07
0.00739977 0.0183017 -1.18808e-07
2.95498e-07 -1.18808e-07 0.0109014

0.0272468 -0.00367554 -2.94029e-08
-0.00367554 0.0303468 -6.66561e-09
-2.94029e-08 -6.66561e-09 0.0273191

0.036567 0.00239156 8.05106e-08
0.00239156 0.0295757 6.59159e-08
8.05106e-08 6.59159e-08 0.0337841

0.0332737 0.00124751 -3.44764e-08
0.00124751 0.0265037 3.36263e-08
-3.44764e-08 3.36263e-08 0.0284314

0.0291521 -0.00349261 -5.22593e-08
-0.00349261 0.0304707 -4.34883e-09
-5.22593e-08 -4.34883e-09 0.0281728

0.0328105 -0.00264778 -1.95003e-09
-0.00264778 0.0267276 2.06229e-08
-1.95003e-09 2.06229e-08 0.0285863

0.0224599 0.00761259 -1.57022e-08
0.00761259 0.0185901 2.96026e-07
-1.57022e-08 2.96026e-07 0.0109039

0.0331442 0.00410243 -1.99109e-08
0.00410243 0.0326379 8.83684e-08
-1.99109e-08 8.83684e-08 0.0331812

0.0258897 -0.00257822 -1.74643e-07
-0.00257822 0.0320233 1.34211e-07
-1.74643e-07 1.34211e-07 0.027507

0.0324819 0.00378568 -1.67094e-09
0.00378568 0.0292675 9.59272e-08
-1.67094e-09 9.59272e-08 0.0301464

0.0268156 -0.000543681 -1.46746e-07
-0.000543681 0.0349517 -2.99515e-08
-1.46746e-07 -2.99515e-08 0.0301374

0.0269895 0.00256328 1.82027e-07
0.00256328 0.032448 -1.65949e-07
1.82027e-07 -1.65949e-07 0.028286

0.0305256 0.00399098 -8.22718e-10
0.00399098 0.0293226 9.58817e-08
-8.22718e-10 9.58817e-08 0.0287746

0.0276084 -0.0029371 -1.04994e-07
-0.0029371 0.0318534 -1.65701e-07
-1.04994e-07 -1.65701e-07 0.0282485

0.0294555 -0.00357589 -2.71006e-10
-0.00357589 0.0303505 -4.79174e-09
-2.71006e-10 -4.79174e-09 0.0283045

0.0181374 0.0014255 -4.61932e-08
0.0014255 0.0280359 4.73142e-08
-4.61932e-08 4.73142e-08 0.0131274

0.0234733 -0.00429388 -2.28593e-08
-0.00429388 0.0275555 6.20302e-10
-2.28593e-08 6.20302e-10 0.017723

0.026205 -0.00152609 -8.20851e-08
-0.00152609 0.0336231 1.15249e-07
-8.20851e-08 1.15249e-07 0.0287513

0.0330233 0.00347482 1.47591e-07
0.00347482 0.0288771 -7.53767e-08
1.47591e-07 -7.53767e-08 0.0300684

0.030321 0.0038574 -1.32698e-08
0.0038574 0.0298859 1.09968e-07
-1.32698e-08 1.09968e-07 0.0289897

0.027414 -0.00280054 2.25449e-07
-0.00280054 0.031983 1.63352e-07
2.25449e-07 1.63352e-07 0.0281385

0.0265541 -0.00154059 -2.87719e-07
-0.00154059 0.033582 -7.6394e-08
-2.87719e-07 -7.6394e-08 0.0287457

0.0309559 0.00371824 -1.34275e-07
0.00371824 0.029563 1.76197e-07
-1.34275e-07 1.76197e-07 0.0289406

0.0267588 -0.00181609 1.51825e-07
-0.00181609 0.0334735 1.65347e-07
1.51825e-07 1.65347e-07 0.0289537

0.0191657 0.00355438 1.12887e-07
0.00355438 0.0276075 2.35912e-07
1.12887e-07 2.35912e-07 0.0162919

0.030873 -0.000534648 -1.93515e-08
-0.000534648 0.0388185 1.07198e-07
-1.93515e-08 1.07198e-07 0.0342938

0.0286559 0.00404775 -3.0381e-08
0.00404775 0.0295181 1.64397e-07
-3.0381e-08 1.64397e-07 0.027714

0.0355797 0.00197519 1.86996e-07
0.00197519 0.0295024 1.28511e-07
1.86996e-07 1.28511e-07 0.0328421

0.0362583 -0.00211478 -9.38786e-08
-0.00211478 0.0297547 -6.54185e-08
-9.38786e-08 -6.54185e-08 0.0332173

0.0285099 -0.00309557 4.1958e-08
-0.00309557 0.0185687 2.22994e-07
4.1958e-08 2.22994e-07 0.0157296

0.0283531 -0.00278985 -1.96105e-07
-0.00278985 0.0327745 -3.17545e-08
-1.96105e-07 -3.17545e-08 0.030571

0.0291905 0.00350089 1.50423e-07
0.00350089 0.0315994 -4.54785e-08
1.50423e-07 -4.54785e-08 0.0304868

0.0349593 -0.00290758 -7.15364e-08
-0.00290758 0.0376754 -2.4534e-07
-7.15364e-08 -2.4534e-07 0.0352355

0.0394599 0.00188543 -8.91134e-08
0.00188543 0.0446087 -2.48753e-07
-8.91134e-08 -2.48753e-07 0.0364324

0.044944 0.00129057 -1.20717e-07
0.00129057 0.039116 3.41223e-08
-1.20717e-07 3.41223e-08 0.0364143

0.0355597 0.00434527 -2.33157e-09
0.00434527 0.0351344 4.6645e-08
-2.33157e-09 4.6645e-08 0.0350028

0.0265711 0.00338795 8.27157e-08
0.00338795 0.0310056 9.52656e-08
8.27157e-08 9.52656e-08 0.0272552

0.0330389 0.00349703 1.03099e-07
0.00349703 0.0286664 3.64789e-08
1.03099e-07 3.64789e-08 0.0300495

0.0220593 0.00576414 1.80199e-07
0.00576414 0.0242372 -2.85486e-07
1.80199e-07 -2.85486e-07 0.016072

0.0386178 -0.00151212 -6.02928e-08
-0.00151212 0.0444319 -4.46528e-09
-6.02928e-08 -4.46528e-09 0.0363616

0.046048 -0.000463867 -6.48162e-07
-0.000463867 0.0454387 -3.0259e-08
-6.48162e-07 -3.0259e-08 0.0366905

0.0451798 -3.11218e-05 -5.67708e-08
-3.11218e-05 0.0463016 -3.86546e-07
-5.67708e-08 -3.86546e-07 0.0366725

0.0176407 -0.0067947 1.14887e-07
-0.0067947 0.023108 2.91899e-07
1.14887e-07 2.91899e-07 0.0107383

0.0392916 -0.00155581 1.60641e-07
-0.00155581 0.038714 5.16952e-08
1.60641e-07 5.16952e-08 0.035853

0.0383963 0.00117663 4.98354e-08
0.00117663 0.0415173 3.80555e-07
4.98354e-08 3.80555e-07 0.0361244

0.0331742 -0.00343553 -4.37207e-08
-0.00343553 0.028219 7.90187e-08
-4.37207e-08 7.90187e-08 0.0299029

0.031844 0.000140303 1.30717e-07
0.000140303 0.0386713 9.19621e-08
1.30717e-07 9.19621e-08 0.0344498

0.0285763 -0.00266023 2.36318e-08
-0.00266023 0.0333799 -2.71684e-09
2.36318e-08 -2.71684e-09 0.0315887

0.0356614 0.000831756 1.83445e-07
0.000831756 0.027377 -4.29013e-08
1.83445e-07 -4.29013e-08 0.0329995

0.0288753 0.00204443 1.14556e-08
0.00204443 0.0368164 -1.7326e-07
1.14556e-08 -1.7326e-07 0.0336691

0.0298689 0.000946478 1.00905e-07
0.000946478 0.037388 -1.74478e-07
1.00905e-07 -1.74478e-07 0.0333629

0.0344006 0.00268492 4.83401e-08
0.00268492 0.0288511 4.35015e-08
4.83401e-08 4.35015e-08 0.0312257

0.013279 -0.000409394 -1.1058e-07
-0.000409394 0.0281223 3.45734e-07
-1.1058e-07 3.45734e-07 0.0112011

0.0309641 -0.00362585 -1.97331e-07
-0.00362585 0.0309149 1.40288e-07
-1.97331e-07 1.40288e-07 0.030609

0.0329279 -0.00344317 -9.36788e-08
-0.00344317 0.03202 2.036e-08
-9.36788e-08 2.036e-08 0.0325787

0.0335703 -0.00415935 5.23856e-08
-0.00415935 0.0325341 1.20457e-07
5.23856e-08 1.20457e-07 0.0337351

0.0265617 0.00414854 -2.10721e-07
0.00414854 0.0176912 1.25095e-07
-2.10721e-07 1.25095e-07 0.012605

0.0388284 -0.00269677 -3.67088e-08
-0.00269677 0.0395756 3.39297e-07
-3.67088e-08 3.39297e-07 0.0359578

0.0230824 0.00692062 2.98183e-07
0.00692062 0.0255015 -1.262e-07
2.98183e-07 -1.262e-07 0.0126093

0.0308744 -0.00281786 2.44778e-07
-0.00281786 0.0348067 1.07888e-08
2.44778e-07 1.07888e-08 0.0339557

0.0354107 0.00193631 -2.76284e-07
0.00193631 0.0284652 1.16741e-07
-2.76284e-07 1.16741e-07 0.0323441

0.0318206 -0.00189336 -3.86605e-08
-0.00189336 0.0249504 8.89578e-08
-3.86605e-08 8.89578e-08 0.025395

0.0292919 0.0031592 1.48045e-07
0.0031592 0.032731 -3.82235e-08
1.48045e-07 -3.82235e-08 0.0312791

0.034436 0.0026886 9.37153e-08
0.0026886 0.0286339 -6.41989e-08
9.37153e-08 -6.41989e-08 0.0312204

0.0325183 0.00149881 2.98909e-07
0.00149881 0.0403731 1.09116e-07
2.98909e-07 1.09116e-07 0.035336

0.0319398 -0.00415433 2.51712e-07
-0.00415433 0.031201 -9.65395e-08
2.51712e-07 -9.65395e-08 0.0318101

0.0396756 0.00265532 -1.5583e-08
0.00265532 0.0331978 4.6763e-08
-1.5583e-08 4.6763e-08 0.0353154

0.0279711 -0.00241863 2.74497e-08
-0.00241863 0.0335506 -6.80137e-09
2.74497e-08 -6.80137e-09 0.0304701

0.0293505 0.000558577 9.2552e-08
0.000558577 0.0373117 -1.75343e-07
9.2552e-08 -1.75343e-07 0.0332521

0.0419438 0.00133729 -5.12174e-08
0.00133729 0.0370997 -5.6805e-08
-5.12174e-08 -5.6805e-08 0.0361157

0.0420967 -0.0011482 2.73156e-08
-0.0011482 0.0373261 -4.63427e-08
2.73156e-08 -4.63427e-08 0.0360977

0.0283826 0.002369 -6.46259e-08
0.002369 0.0181814 1.03619e-07
-6.46259e-08 1.03619e-07 0.0159496

0.0350256 0.0010611 1.05659e-07
0.0010611 0.0285656 9.51734e-08
1.05659e-07 9.51734e-08 0.0330585

0.0128668 0.000923332 -3.65278e-08
0.000923332 0.0316262 -2.13703e-07
-3.65278e-08 -2.13703e-07 0.00612161

0.0131624 -0.00138813 -2.66007e-07
-0.00138813 0.032132 2.22019e-08
-2.66007e-07 2.22019e-08 0.00611197

0.0152686 0.00715423 2.23429e-07
0.00715423 0.0284528 -2.76906e-07
2.23429e-07 -2.76906e-07 0.00598409

0.0347637 -0.00382123 4.05562e-08
-0.00382123 0.0312673 -1.63633e-07
4.05562e-08 -1.63633e-07 0.0329386

0.0155806 -0.00619417 -6.14951e-08
-0.00619417 0.0261526 -1.55076e-08
-6.14951e-08 -1.55076e-08 0.0104718

0.0155128 -0.00708673 1.87539e-07
-0.00708673 0.0274234 1.95841e-07
1.87539e-07 1.95841e-07 0.00591389

0.0284257 0.00342565 -3.18066e-09
0.00342565 0.0310058 9.50189e-08
-3.18066e-09 9.50189e-08 0.0281523

0.0251933 0.00932579 -1.20904e-07
0.00932579 0.0190207 1.77529e-07
-1.20904e-07 1.77529e-07 0.0059338

0.0365377 0.0017318 1.28325e-07
0.0017318 0.0385514 -1.60526e-08
1.28325e-07 -1.60526e-08 0.0354747

0.0395347 2.52348e-05 1.30345e-07
2.52348e-05 0.0355391 -1.74285e-08
1.30345e-07 -1.74285e-08 0.0354554

0.0261071 -0.00924438 -2.75135e-08
-0.00924438 0.0188124 -1.49594e-07
-2.75135e-08 -1.49594e-07 0.00588797

0.0276896 -0.00306521 1.65227e-07
-0.00306521 0.0320948 2.65226e-07
1.65227e-07 2.65226e-07 0.0296225

0.026255 0.00441804 -1.95707e-07
0.00441804 0.0201577 6.70317e-08
-1.95707e-07 6.70317e-08 0.0130445

0.0172791 0.00797303 1.90683e-08
0.00797303 0.0271488 -1.60542e-07
1.90683e-08 -1.60542e-07 0.00598781

0.0181961 0.00275505 -6.27019e-09
0.00275505 0.0275895 4.06262e-08
-6.27019e-09 4.06262e-08 0.01285

0.017304 -0.00827617 -4.84112e-09
-0.00827617 0.0271522 -1.36403e-07
-4.84112e-09 -1.36403e-07 0.00581368

0.0179328 -0.001571 1.73013e-08
-0.001571 0.0280051 2.76406e-07
1.73013e-08 2.76406e-07 0.0126904

0.0370499 0.000923222 -6.96922e-08
0.000923222 0.0413003 1.62614e-08
-6.96922e-08 1.62614e-08 0.0358096

0.022131 -0.00585505 3.11402e-08
-0.00585505 0.0236644 9.10432e-08
3.11402e-08 9.10432e-08 0.0151587

0.0157 0.00598611 5.14611e-08
0.00598611 0.025902 -9.18738e-08
5.14611e-08 -9.18738e-08 0.0107501

0.0302084 0.00473007 4.88135e-08
0.00473007 0.0143492 -2.03883e-07
4.88135e-08 -2.03883e-07 0.00611579

0.0329378 -0.00384948 1.0225e-07
-0.00384948 0.0301236 -2.85478e-08
1.0225e-07 -2.85478e-08 0.0310509

0.0308883 0.00169391 9.182e-08
0.00169391 0.0368429 -1.76773e-07
9.182e-08 -1.76773e-07 0.0339498

0.0260897 -0.0048439 -5.08292e-08
-0.0048439 0.0191971 -2.86515e-07
-5.08292e-08 -2.86515e-07 0.0126949

0.0330001 -0.00378582 1.08773e-07
-0.00378582 0.030075 -1.31003e-08
1.08773e-07 -1.31003e-08 0.0311272

0.0300187 -0.00451985 7.68882e-08
-0.00451985 0.0130535 1.55234e-07
7.68882e-08 1.55234e-07 0.00603724

0.0324726 -0.00372748 1.88172e-07
-0.00372748 0.0313068 -1.8982e-07
1.88172e-07 -1.8982e-07 0.031979

0.0280907 -0.00331103 -1.99385e-07
-0.00331103 0.0320032 -4.20522e-08
-1.99385e-07 -4.20522e-08 0.029625

0.0234433 0.00874357 1.23016e-07
0.00874357 0.0204828 -2.56428e-07
1.23016e-07 -2.56428e-07 0.00602609

0.0181995 -0.00292063 6.96159e-08
-0.00292063 0.0268662 2.97518e-07
6.96159e-08 2.97518e-07 0.0122698

0.0233145 -0.00901911 -5.5932e-08
-0.00901911 0.0201519 -1.85595e-07
-5.5932e-08 -1.85595e-07 0.00588392

0.0170822 0.00640811 4.56022e-07
0.00640811 0.0235657 1.83401e-08
4.56022e-07 1.83401e-08 0.0108309

0.0308256 -0.00396017 -2.42891e-07
-0.00396017 0.0301597 2.04865e-09
-2.42891e-07 2.04865e-09 0.0300851

0.0389176 -0.00195865 9.1815e-08
-0.00195865 0.0369404 -1.58682e-07
9.1815e-08 -1.58682e-07 0.035499

0.045541 0.00150602 -2.30097e-07
0.00150602 0.0449514 -3.99581e-07
-2.30097e-07 -3.99581e-07 0.0366187

0.0435642 -0.000711784 2.90805e-07
-0.000711784 0.0462317 -4.43349e-08
2.90805e-07 -4.43349e-08 0.0365844

0.0286152 0.00171598 -4.66119e-08
0.00171598 0.0355653 8.83076e-08
-4.66119e-08 8.83076e-08 0.0323892

0.0453362 -0.00144715 2.55399e-07
-0.00144715 0.0449791 2.42837e-07
2.55399e-07 2.42837e-07 0.0366364

0.0438079 0.000567661 8.18934e-08
0.000567661 0.0465063 1.99525e-07
8.18934e-08 1.99525e-07 0.0366175

0.046679 0.000990879 -6.75809e-08
0.000990879 0.0433769 -3.81295e-08
-6.75809e-08 -3.81295e-08 0.0365926

0.0397502 -0.00163931 1.50366e-07
-0.00163931 0.0460747 7.31389e-08
1.50366e-07 7.31389e-08 0.0364824

0.0190537 -0.00388711 2.82047e-07
-0.00388711 0.0272304 -1.37782e-07
2.82047e-07 -1.37782e-07 0.0154709

0.0421403 -0.00175011 -7.0168e-08
-0.00175011 0.0367251 -1.2607e-07
-7.0168e-08 -1.2607e-07 0.0360043

0.0359638 -0.00457321 -1.49309e-07
-0.00457321 0.0351499 6.21654e-08
-1.49309e-07 6.21654e-08 0.0349676

0.0397533 -0.00242153 2.3445e-07
-0.00242153 0.0360632 1.70649e-07
2.3445e-07 1.70649e-07 0.0355667

0.0351837 0.00204319 -1.19081e-07
0.00204319 0.0285486 -7.78399e-08
-1.19081e-07 -7.78399e-08 0.0322314

0.0396922 0.00133789 2.46623e-07
0.00133789 0.0472264 2.54151e-07
2.46623e-07 2.54151e-07 0.0365482

0.0464969 0.00259399 -1.30888e-07
0.00259399 0.0404181 -3.18895e-07
-1.30888e-07 -3.18895e-07 0.0365294

0.0400867 0.00150538 3.27793e-09
0.00150538 0.0366733 4.44509e-08
3.27793e-09 4.44509e-08 0.0356148

0.0279142 -0.00191988 1.53547e-08
-0.00191988 0.0125245 1.62513e-07
1.53547e-08 1.62513e-07 0.0106244

0.0283186 0.00326767 -5.60975e-08
0.00326767 0.0315495 -1.25389e-07
-5.60975e-08 -1.25389e-07 0.0294102

0.023188 -0.00773586 4.48417e-08
-0.00773586 0.0181797 -2.67213e-07
4.48417e-08 -2.67213e-07 0.0102893

0.0228306 -0.00731563 1.21621e-07
-0.00731563 0.0257682 6.95144e-09
1.21621e-07 6.95144e-09 0.0119543

0.0290221 -0.00464682 -9.49905e-09
-0.00464682 0.0191281 2.31869e-07
-9.49905e-09 2.31869e-07 0.0126149

0.0375741 -0.000660633 -1.38971e-07
-0.000660633 0.0449116 2.98347e-07
-1.38971e-07 2.98347e-07 0.0362934

0.0375717 0.000358364 -2.12326e-07
0.000358364 0.0447889 -3.96572e-07
-2.12326e-07 -3.96572e-07 0.0362736

0.0426054 -0.00327446 2.35601e-07
-0.00327446 0.03945 -2.06306e-07
2.35601e-07 -2.06306e-07 0.0362274

0.0429987 -0.00294491 6.39441e-08
-0.00294491 0.0391685 1.00878e-07
6.39441e-08 1.00878e-07 0.0362344

0.0425015 0.00350463 4.76417e-08
0.00350463 0.0399729 2.84279e-07
4.76417e-08 2.84279e-07 0.0362722

0.0443975 0.000417496 -1.78143e-07
0.000417496 0.0450803 3.29147e-07
-1.78143e-07 3.29147e-07 0.0366356

0.0426082 -0.0027445 -2.83483e-07
-0.0027445 0.0395071 1.52311e-07
-2.83483e-07 1.52311e-07 0.036289

0.0426019 -0.00251229 -4.61174e-07
-0.00251229 0.0442679 -5.53479e-07
-4.61174e-07 -5.53479e-07 0.0365631

0.0451182 0.000331557 6.11152e-08
0.000331557 0.0454679 3.82316e-07
6.11152e-08 3.82316e-07 0.0366539

0.0436373 -0.00278339 -1.91269e-07
-0.00278339 0.0389165 -1.44125e-07
-1.91269e-07 -1.44125e-07 0.0363296

0.0435121 0.00283879 -1.25629e-07
0.00283879 0.039069 -1.08097e-08
-1.25629e-07 -1.08097e-08 0.0363677

0.0451938 -0.000471254 -1.80299e-07
-0.000471254 0.0455815 9.46044e-08
-1.80299e-07 9.46044e-08 0.0367025

0.045227 -0.000426384 -2.15092e-07
-0.000426384 0.0443626 5.23233e-07
-2.15092e-07 5.23233e-07 0.0367209

0.0427994 0.00163815 1.91288e-07
0.00163815 0.0442484 -1.56581e-07
1.91288e-07 -1.56581e-07 0.036607

0.0411164 0.00361853 9.21606e-08
0.00361853 0.0405161 1.65342e-07
9.21606e-08 1.65342e-07 0.0363216

SCALARS pressure float
LOOKUP_TABLE default
-60.0514
19.3083
5.80352
21.2902
15.8788
5.88747
-58.6746
7.78322
-3.80478
15.1246
-24.432
7.61738
5.59218
12.2793
23.3376
5.53906
18.5209
13.2074
-0.692747
6.7567
-0.904742
33.1342
5.80091
5.79697
6.60198
14.9029
-38.3853
6.67182
-15.2423
30.6259
5.17641
-15.6571
-42.0564
27.3259
20.7789
27.3588
31.8842
19.8089
4.8597
-42.5996
-17.4073
31.905
31.9931
5.99365
-21.805
-15.9758
-1.05234
-3.4054
6.54492
-16.2177
-18.9187
-15.3458
20.7556
-15.373
20.3087
-33.1487
21.1294
-15.4602
21.1393
7.04504
21.7648
16.1188
-45.5621
12.7898
16.3621
10.9052
21.574
13.8282
5.77361
21.8171
20.8116
20.7823
-17.6909
11.6006
3.97405
-31.6097
14.3567
10.9963
14.1462
-8.71994
-28.9448
14.9776
20.1631
-22.0379
-23.4294
-28.092
7.09789
9.63246
-22.2157
37.741
-15.5089
38.4435
18.3045
10.7616
-15.1664
-15.8727
-30.2213
14.7535
14.3657
4.59879
-10.7662
-21.9395
-25.1015
16.213
14.1003
14.9617
18.6975
3.77483
-24.5583
26.5131
7.21767
-21.409
-24.612
14.838
15.0781
-16.1456
20.1647
-29.1132
20.6283
-16.7292
-2.90464
23.8338
21.7271
16.0329
26.6797
22.6316
21.7854
15.7085
-29.7809
-16.0989
24.0916
21.6174
20.9893
22.0658
-22.0138
23.587
-33.8374
5.46347
21.7544
23.6303
-21.9368
6.6765
-5.96666
15.0836
-30.4075
15.624
7.83329
2.40766
5.17784
-9.39443
-0.457933
22.6416
-15.4545
5.29108
15.2042
21.5606
11.5082
-21.1132
-21.2638
10.7905
-2.84271
-15.1975
-21.2204
-15.1652
-20.9864
15.2797
-20.6358
-21.2015
-15.2078
-21.0637
19.0043
-15.9409
-14.8244
12.0645
-14.4846
18.8029
19.0534
7.47282
18.0479
11.7731
-16.249
15.2882
14.961
-21.5284
10.4266
-14.2213
16.0486
14.5956
17.0818
14.8352
10.3439
-26.9763
-16.0822
-15.9581
21.907
14.5259
14.6247
20.9227
22.487
9.50272
21.7338
-0.384658
-8.17082
20.7788
-17.8387
19.9456
10.3642
-21.5175
15.7212
22.5262
14.7312
9.39353
14.19
21.0557
-7.83286
8.82761
-7.90867
14.6483
26.9277
26.5814
27.9605
26.3886
26.7243
26.291
13.8259
23.4302
24.0294
23.9736
23.3999
21.1927
21.8572
-8.26292
15.9336
28.1911
-3.18877
23.576
23.2053
27.8344
-8.49363
28.0965
15.3446
-7.58169
17.4921
-8.25789
20.2272
29.6128
-7.48607
-8.10085
-29.5919
-18.189
19.5273
-31.9854
5.73426
-7.79404
-1.18958
28.2492
26.6403
30.4264
26.761
-34.8009
-8.17974
28.3374
8.07282
-8.29525
26.4459
-6.2954
30.4712
-7.95417
27.0471
14.566
14.7872
23.8451
10.0475
18.021
8.117
-29.8599
-24.5531
16.8068
1.75954
8.17947
-13.6088
17.4358
11.6998
-8.1016
9.45212
-10.8235
7.51685
-10.7547
-8.48483
33.2642
19.1517
25.0883
25.3126
13.8292
-10.4045
26.4297
14.685
-1.65917
-10.2739
-12.5643
17.5066
-7.48533
17.5745
-12.0413
-21.3505
-10.6083
-34.6812
15.5625
-7.76307
34.4422
-11.578
16.8714
-8.40886
15.9727
-12.7583
4.28896
-51.1183
8.52157
-7.74674
21.3338
-8.15225
-0.123064
10.7153
21.1242
-12.0607
-10.2008
-6.06845
14.318
-10.1801
6.88778
6.38553
16.3054
-10.4196
-6.33056
-1.70255
-5.66066
-11.0785
-5.84488
15.3055
7.8078
-5.55625
-8.96056
7.80522
7.69407
-10.6746
16.3093
-27.2137
2.2928
-28.4812
-0.957808
-8.87885
-8.09713
-11.7798
-10.9434
-9.88174
-7.77674
-7.9001
16.6378
24.7778
12.1159
-0.291909
-0.82545
-5.67482
7.30496
-6.32092
-6.31821
24.9236
-5.73025
14.1179
-15.9083
24.3252
5.96789
-0.391467
-5.64411
16.275
2.47679
0.198752
2.44778
0.455624
-0.741144
-9.9304
-0.0959015
2.11295
15.0689
-1.28858
-1.40746
-0.999125
-0.388889
1.96499
8.05045
-1.19386
8.0779
5.58295
-0.435949
7.03501
5.48998
-3.87677
16.4766
-1.90371
23.062
-21.9734
15.0441
15.6823
2.03934
-1.9978
12.5428
-26.5062
5.79198
-1.65823
-50.4827
30.4983
30.6349
5.82462
-1.14466
-1.04712
-0.849994
33.4187
33.2934
13.0947
6.08163
6.66213
-28.9623
-1.27973
16.5334
-3.18301
-4.34842
-0.0172532
-25.2709
14.3032
-1.2805
2.86148
2.69288
-2.72357
-0.0496376
-3.2098
-4.03387
-37.9822
-33.6832
-0.128344
1.87416
-0.534411
-3.7445
-1.9369
-1.87804
-0.924634
-21.9073
17.2495
-0.769628
12.565
14.1836
-26.7639
6.28599
7.13656
18.4778
36.428
36.4604
22.6387
-1.75611
2.59933
-20.9295
36.1266
32.7601
32.8271
-24.8083
21.7755
30.5235
2.59882
15.7239
10.3711
17.1643
17.7261
12.5054
5.6811
-25.3977
4.25976
10.4091
16.2439
-31.7096
28.3099
-52.7097
18.6849
10.2988
-10.6275
7.41708
5.45679
24.4745
9.41083
24.4075
4.10486
12.3997
30.6408
29.4665
-22.99
17.4354
-70.2291
-74.3756
-67.1731
11.6482
-31.2595
-63.6065
-3.8038
-69.9345
16.4632
16.4069
-73.7507
5.21185
-39.7293
-70.7351
-37.7552
-71.8715
-39.4507
21.1368
-23.9598
-29.0435
-70.619
4.83111
15.7575
-36.1891
6.05321
-63.6142
9.8357
3.88137
-67.8976
-37.6228
-66.4071
-23.755
5.02877
20.5262
35.3721
36.7278
11.8118
36.8516
36.905
36.4933
36.4054
-24.4786
28.2485
20.6691
21.9807
11.5344
36.0613
36.0927
18.1201
-23.9398
3.24624
-30.5257
-56.5958
-50.473
36.1444
35.8251
35.3818
35.452
36.1604
35.6
33.1108
37.372
35.4013
36.0072
35.6395
34.1978
34.3343
35.8575
35.3106
