# vtk DataFile Version 3.0
vtk output at time 180
ASCII
DATASET UNSTRUCTURED_GRID
POINTS 626 float
-3.68058e-05 0.000978749 0 3.68058e-05 0.000978749 0 -0.000829194 0.00052125 0 
-0.0008235 0.0005 0 -0.000866 0.0004575 0 -0.000866 -0.0004575 0 
-0.0008235 -0.0005 0 -0.000829194 -0.00052125 0 -3.68058e-05 -0.000978749 0 
3.68058e-05 -0.000978749 0 0.000829194 -0.00052125 0 0.000866 -0.0004575 0 
0.000866 0.0004575 0 0.000829194 0.00052125 0 8.5e-05 0 0 
-3.68058e-05 0.000978749 -0.001 3.68058e-05 0.000978749 -0.001 -0.000829194 0.00052125 -0.001 
-0.0008235 0.0005 -0.001 -0.000866 0.0004575 -0.001 -0.000866 -0.0004575 -0.001 
-0.0008235 -0.0005 -0.001 -0.000829194 -0.00052125 -0.001 -3.68058e-05 -0.000978749 -0.001 
3.68058e-05 -0.000978749 -0.001 0.000829194 -0.00052125 -0.001 0.000866 -0.0004575 -0.001 
0.000866 0.0004575 -0.001 0.000829194 0.00052125 -0.001 8.5e-05 0 -0.001 
8.46223e-17 0.0009575 0 -0.000715996 0.000586607 0 -0.000602797 0.000651965 0 
-0.000489599 0.000717321 0 -0.000376401 0.000782678 0 -0.000263202 0.000848036 0 
-0.000150004 0.000913393 0 -0.000835948 0.000469948 0 -0.000866 -0.000326786 0 
-0.000866 -0.000196071 0 -0.000866 -6.53571e-05 0 -0.000866 6.53571e-05 0 
-0.000866 0.000196071 0 -0.000866 0.000326786 0 -0.000835948 -0.000469948 0 
-0.000150004 -0.000913393 0 -0.000263202 -0.000848036 0 -0.000376401 -0.000782678 0 
-0.000489599 -0.000717321 0 -0.000602797 -0.000651965 0 -0.000715996 -0.000586607 0 
8.47648e-17 -0.0009575 0 0.000715996 -0.000586607 0 0.000602797 -0.000651965 0 
0.000489599 -0.000717321 0 0.000376401 -0.000782678 0 0.000263202 -0.000848036 0 
0.000150004 -0.000913393 0 0.000829194 -0.00047875 0 0.000866 0.000326786 0 
0.000866 0.000196071 0 0.000866 6.53571e-05 0 0.000866 -6.53571e-05 0 
0.000866 -0.000196071 0 0.000866 -0.000326786 0 0.000829194 0.00047875 0 
0.000150004 0.000913393 0 0.000263202 0.000848036 0 0.000376401 0.000782678 0 
0.000489599 0.000717321 0 0.000602797 0.000651965 0 0.000715996 0.000586607 0 
5.29966e-05 6.64557e-05 0 -1.89143e-05 8.28689e-05 0 -7.65824e-05 3.68801e-05 0 
-7.65824e-05 -3.68801e-05 0 -1.89143e-05 -8.28689e-05 0 5.29966e-05 -6.64557e-05 0 
8.46223e-17 0.0009575 -0.001 -0.000715996 0.000586607 -0.001 -0.000602797 0.000651965 -0.001 
-0.000489599 0.000717321 -0.001 -0.000376401 0.000782678 -0.001 -0.000263202 0.000848036 -0.001 
-0.000150004 0.000913393 -0.001 -0.000835948 0.000469948 -0.001 -0.000866 -0.000326786 -0.001 
-0.000866 -0.000196071 -0.001 -0.000866 -6.53571e-05 -0.001 -0.000866 6.53571e-05 -0.001 
-0.000866 0.000196071 -0.001 -0.000866 0.000326786 -0.001 -0.000835948 -0.000469948 -0.001 
-0.000150004 -0.000913393 -0.001 -0.000263202 -0.000848036 -0.001 -0.000376401 -0.000782678 -0.001 
-0.000489599 -0.000717321 -0.001 -0.000602797 -0.000651965 -0.001 -0.000715996 -0.000586607 -0.001 
8.47648e-17 -0.0009575 -0.001 0.000715996 -0.000586607 -0.001 0.000602797 -0.000651965 -0.001 
0.000489599 -0.000717321 -0.001 0.000376401 -0.000782678 -0.001 0.000263202 -0.000848036 -0.001 
0.000150004 -0.000913393 -0.001 0.000829194 -0.00047875 -0.001 0.000866 0.000326786 -0.001 
0.000866 0.000196071 -0.001 0.000866 6.53571e-05 -0.001 0.000866 -6.53571e-05 -0.001 
0.000866 -0.000196071 -0.001 0.000866 -0.000326786 -0.001 0.000829194 0.00047875 -0.001 
0.000150004 0.000913393 -0.001 0.000263202 0.000848036 -0.001 0.000376401 0.000782678 -0.001 
0.000489599 0.000717321 -0.001 0.000602797 0.000651965 -0.001 0.000715996 0.000586607 -0.001 
5.29966e-05 6.64557e-05 -0.001 -1.89143e-05 8.28689e-05 -0.001 -7.65824e-05 3.68801e-05 -0.001 
-7.65824e-05 -3.68801e-05 -0.001 -1.89143e-05 -8.28689e-05 -0.001 5.29966e-05 -6.64557e-05 -0.001 
0.000131234 6.38474e-05 0 0.00012964 -6.2443e-05 0 3.13827e-05 0.0001394 0 
3.12554e-05 -0.000136939 0 -0.000140461 8.25467e-19 0 -8.90565e-05 -0.000102707 0 
-9.04142e-05 0.000102872 0 -0.000765769 -0.00025965 0 -0.000756873 0.000262774 0 
-0.00015609 0.000787505 0 -0.000155807 -0.00079355 0 0.000605069 0.000528035 0 
0.000608694 -0.00052497 0 0.000744069 0.000116929 0 -0.000494418 0.000596218 0 
-0.000483866 -0.000584648 0 0.000269496 0.000702219 0 0.000263201 -0.000717324 0 
0.000754429 -0.000127825 0 -0.000748858 5.84659e-07 0 -0.000747838 0.000373886 0 
-0.0006542 0.000324842 0 -0.000645137 0.000210123 0 -0.000550884 0.000274171 0 
-0.000538857 0.000163195 0 -0.00045062 0.000224461 0 -0.000438393 0.000123907 0 
-0.000354088 0.000181668 0 -0.000363908 0.000282171 0 -0.000270361 0.000239477 0 
-0.000279138 0.000337653 0 -0.000188888 0.000294791 0 -0.000196448 0.000393271 0 
-0.000104767 0.000348259 0 -0.000113332 0.000449012 0 -2.01066e-05 0.000403223 0 
-2.89189e-05 0.000507105 0 6.9524e-05 0.000461596 0 -0.000213644 0.000490203 0 
7.33757e-05 0.000357726 0 0.000163331 0.00041299 0 0.000163359 0.000313022 0 
0.000248077 0.000366368 0 0.000250914 0.000265758 0 0.000335709 0.000322266 0 
0.000340555 0.000218148 0 0.000427299 0.000276717 0 0.000431508 0.000173093 0 
0.000328731 0.000425633 0 0.00034586 0.000114823 0 0.000435362 7.05241e-05 0 
0.000350892 1.5455e-05 0 0.000441547 -3.11896e-05 0 0.000353547 -8.47783e-05 0 
0.000445767 -0.000132964 0 0.000356135 -0.000186358 0 0.000449094 -0.000234674 0 
0.000359978 -0.000287876 0 0.00026856 -0.000240545 0 0.000271895 -0.000341045 0 
0.000181792 -0.00029305 0 0.00018533 -0.000392851 0 9.75701e-05 -0.00034483 0 
9.98764e-05 -0.000444884 0 8.75116e-06 -0.000396343 0 1.20916e-05 -0.000500496 0 
-7.83929e-05 -0.000449843 0 -8.1471e-05 -0.000347249 0 -0.000171566 -0.000403733 0 
-0.000169889 -0.000298891 0 -0.000259867 -0.000354132 0 -0.000257696 -0.000249137 0 
-0.00034313 -0.000299896 0 -0.000344514 -0.000199127 0 -0.000434309 -0.000250039 0 
-0.000169832 -0.000505815 0 -0.000435227 -0.000146227 0 0.000280331 -0.000442424 0 
-0.000340889 8.76793e-05 0 -0.000515252 4.06198e-05 0 6.50491e-05 0.000568253 0 
0.00053278 1.74743e-05 0 0.000522071 0.000229831 0 -0.00037162 0.000391659 0 
-0.000255272 -0.000150439 0 -0.000442893 -0.000350705 0 0.000450067 -0.000332559 0 
0.000545175 -0.000276306 0 -0.000527797 -0.000197598 0 0.000105306 -0.000551033 0 
1.45836e-05 -0.000609147 0 0.00017145 0.000214453 0 0.000515525 0.000341711 0 
0.000636086 0.000290368 0 -0.000558657 0.000404468 0 -4.01232e-05 0.000616718 0 
6.60192e-05 0.000696422 0 -0.000101806 0.0002546 0 0.000271142 -3.88908e-05 0 
0.000179455 -0.00018534 0 -8.79553e-05 -0.000254307 0 -0.000749267 -0.000373451 0 
-0.000655941 -0.000323397 0 0.000709746 0.000466718 0 0.000698426 -0.000473086 0 
-5.25801e-05 -0.00084886 0 -4.93005e-05 0.000848038 0 0.000617396 -0.000413362 0 
0.000702056 -0.000369817 0 0.000131459 -0.000679171 0 2.48171e-05 -0.000715924 0 
-0.000664217 -0.00042729 0 -0.000528828 -8.80444e-05 0 -0.000611101 -0.000136672 0 
-0.000426972 -4.45841e-05 0 0.000800669 0.000378216 0 0.000821144 -0.000415062 0 
7.2799e-05 0.00088254 0 6.81831e-05 -0.00087503 0 0.000104963 -0.000788946 0 
-7.40696e-05 -0.000660054 0 0.000126061 0.000809943 0 0.000764361 0.000295682 0 
0.000166862 0.000630623 0 0.000516462 -0.00046707 0 -0.000563585 -0.000389606 0 
-0.000622598 -1.40238e-05 0 0.000629891 0.000171529 0 2.5614e-06 -0.000299794 0 
8.6901e-05 -0.00024329 0 0.000272045 -0.000136982 0 -0.00075148 0.000138321 0 
0.000209366 -0.000599589 0 0.000324913 -0.000630055 0 0.000614044 0.00041245 0 
0.00049651 -0.000573327 0 0.000394822 -0.000507321 0 -0.000173714 -0.000206698 0 
0.000264897 5.63722e-05 0 0.000247997 0.000152811 0 -4.63327e-05 -0.000920208 0 
9.18688e-05 0.000258626 0 -5.54111e-06 0.000290558 0 -0.000184219 0.000201484 0 
-0.000263559 0.000142267 0 -0.000256427 5.13624e-05 0 -0.000336894 -2.06179e-06 0 
-0.000228499 -4.2388e-05 0 -0.00017589 0.000106626 0 -0.000769947 -0.000133367 0 
0.000767591 -0.000500293 0 -5.05874e-05 0.000737978 0 0.000754456 -3.51771e-06 0 
0.00064691 -6.15298e-05 0 0.000630483 -0.00018134 0 0.000749187 -0.000265543 0 
-0.000760805 -0.000462521 0 0.000638155 6.09315e-05 0 -4.46661e-05 0.000922995 0 
-2.37945e-05 0.000207237 0 0.000776979 0.000500181 0 -0.000605691 0.000527596 0 
-0.000377914 -0.000653727 0 -0.000372325 -0.000526022 0 -0.000275829 -0.000589621 0 
-0.000254285 -0.000710579 0 -0.000379307 0.000656222 0 -0.000379818 0.00052718 0 
-0.000266817 0.000721555 0 -0.000150544 0.000668174 0 0.000381963 0.00065079 0 
0.000493113 0.000590432 0 0.000505439 0.000463708 0 -0.000269094 0.000596608 0 
0.000385815 0.000532045 0 0.000283599 0.0005899 0 -0.000176405 -0.000108505 0 
-0.000278769 -0.000475415 0 0.000185395 2.33014e-06 0 0.000186773 0.000517571 0 
0.000540032 -8.68444e-05 0 -0.000600694 -0.000514877 0 -0.00063703 8.98033e-05 0 
-0.000459677 0.000335729 0 -0.000338836 -0.000100751 0 -0.000457327 0.000432721 0 
-8.72007e-06 -0.000210238 0 0.000156073 0.000129496 0 -7.70692e-05 -0.000555049 0 
0.00036091 -0.000389728 0 0.000531628 0.000120564 0 -0.000285451 0.000435562 0 
0.000192719 -0.000494604 0 0.00041642 0.00039368 0 -0.000135943 0.000554637 0 
-0.000170665 -0.000610079 0 -0.000666304 0.000434981 0 -0.000758736 0.000479231 0 
-0.000470189 -0.000458901 0 0.000203433 -8.59809e-05 0 0.000101846 0.000170114 0 
-0.00035513 -0.00040726 0 0.000100184 -0.000165831 0 2.96286e-05 0.00081537 0 
0.000720946 0.000381836 0 -0.000539809 -0.000292001 0 0.00052211 -0.000182426 0 
-6.41339e-05 -0.000753908 0 0.000638039 -0.000299861 0 -0.000605136 -0.000230182 0 
-3.41638e-05 -0.000145561 0 -0.000104037 0.000172396 0 -0.000808575 -0.00042774 0 
-0.000807207 -0.000465052 0 -0.00080817 0.000429771 0 -0.000806589 0.000469738 0 
-9.50634e-05 -0.000178909 0 0.000247777 0.000445058 0 1.48293e-05 -0.000814201 0 
-4.11555e-05 0.000140955 0 0.000276104 -0.000536845 0 0.000765969 -0.000436638 0 
0.000780871 -0.000362769 0 0.000424176 -0.000642018 0 0.00053413 -0.000368009 0 
-0.000416333 4.17911e-05 0 -0.000133891 -6.23822e-05 0 4.2574e-05 0.000206312 0 
0.000141163 -0.000121542 0 0.000707423 0.000212137 0 0.000172327 0.000723882 0 
7.72652e-06 -0.00090254 0 -0.000134435 5.66935e-05 0 -0.000188826 3.70894e-05 0 
0.000197119 8.09714e-05 0 1.27801e-05 0.000917296 0 0.000800767 0.00044758 0 
-0.000686682 0.000507104 0 9.35831e-05 0.000110457 0 -0.000696793 -0.000509595 0 
-0.00068446 -8.52012e-05 0 -0.000691033 -0.000201242 0 5.24052e-05 -0.000189075 0 
-0.000151818 -0.000701092 0 -0.000296988 0.000518087 0 9.31023e-05 -0.000108117 0 
0.00044261 -0.000416726 0 0.000197044 -0.000784423 0 -0.000516861 0.000504567 0 
0.000298997 0.000502377 0 0.000131234 6.38474e-05 -0.001 0.00012964 -6.2443e-05 -0.001 
3.13827e-05 0.0001394 -0.001 3.12554e-05 -0.000136939 -0.001 -0.000140461 8.25467e-19 -0.001 
-8.90565e-05 -0.000102707 -0.001 -9.04142e-05 0.000102872 -0.001 -0.000765769 -0.00025965 -0.001 
-0.000756873 0.000262774 -0.001 -0.00015609 0.000787505 -0.001 -0.000155807 -0.00079355 -0.001 
0.000605069 0.000528035 -0.001 0.000608694 -0.00052497 -0.001 0.000744069 0.000116929 -0.001 
-0.000494418 0.000596218 -0.001 -0.000483866 -0.000584648 -0.001 0.000269496 0.000702219 -0.001 
0.000263201 -0.000717324 -0.001 0.000754429 -0.000127825 -0.001 -0.000748858 5.84659e-07 -0.001 
-0.000747838 0.000373886 -0.001 -0.0006542 0.000324842 -0.001 -0.000645137 0.000210123 -0.001 
-0.000550884 0.000274171 -0.001 -0.000538857 0.000163195 -0.001 -0.00045062 0.000224461 -0.001 
-0.000438393 0.000123907 -0.001 -0.000354088 0.000181668 -0.001 -0.000363908 0.000282171 -0.001 
-0.000270361 0.000239477 -0.001 -0.000279138 0.000337653 -0.001 -0.000188888 0.000294791 -0.001 
-0.000196448 0.000393271 -0.001 -0.000104767 0.000348259 -0.001 -0.000113332 0.000449012 -0.001 
-2.01066e-05 0.000403223 -0.001 -2.89189e-05 0.000507105 -0.001 6.9524e-05 0.000461596 -0.001 
-0.000213644 0.000490203 -0.001 7.33757e-05 0.000357726 -0.001 0.000163331 0.00041299 -0.001 
0.000163359 0.000313022 -0.001 0.000248077 0.000366368 -0.001 0.000250914 0.000265758 -0.001 
0.000335709 0.000322266 -0.001 0.000340555 0.000218148 -0.001 0.000427299 0.000276717 -0.001 
0.000431508 0.000173093 -0.001 0.000328731 0.000425633 -0.001 0.00034586 0.000114823 -0.001 
0.000435362 7.05241e-05 -0.001 0.000350892 1.5455e-05 -0.001 0.000441547 -3.11896e-05 -0.001 
0.000353547 -8.47783e-05 -0.001 0.000445767 -0.000132964 -0.001 0.000356135 -0.000186358 -0.001 
0.000449094 -0.000234674 -0.001 0.000359978 -0.000287876 -0.001 0.00026856 -0.000240545 -0.001 
0.000271895 -0.000341045 -0.001 0.000181792 -0.00029305 -0.001 0.00018533 -0.000392851 -0.001 
9.75701e-05 -0.00034483 -0.001 9.98764e-05 -0.000444884 -0.001 8.75116e-06 -0.000396343 -0.001 
1.20916e-05 -0.000500496 -0.001 -7.83929e-05 -0.000449843 -0.001 -8.1471e-05 -0.000347249 -0.001 
-0.000171566 -0.000403733 -0.001 -0.000169889 -0.000298891 -0.001 -0.000259867 -0.000354132 -0.001 
-0.000257696 -0.000249137 -0.001 -0.00034313 -0.000299896 -0.001 -0.000344514 -0.000199127 -0.001 
-0.000434309 -0.000250039 -0.001 -0.000169832 -0.000505815 -0.001 -0.000435227 -0.000146227 -0.001 
0.000280331 -0.000442424 -0.001 -0.000340889 8.76793e-05 -0.001 -0.000515252 4.06198e-05 -0.001 
6.50491e-05 0.000568253 -0.001 0.00053278 1.74743e-05 -0.001 0.000522071 0.000229831 -0.001 
-0.00037162 0.000391659 -0.001 -0.000255272 -0.000150439 -0.001 -0.000442893 -0.000350705 -0.001 
0.000450067 -0.000332559 -0.001 0.000545175 -0.000276306 -0.001 -0.000527797 -0.000197598 -0.001 
0.000105306 -0.000551033 -0.001 1.45836e-05 -0.000609147 -0.001 0.00017145 0.000214453 -0.001 
0.000515525 0.000341711 -0.001 0.000636086 0.000290368 -0.001 -0.000558657 0.000404468 -0.001 
-4.01232e-05 0.000616718 -0.001 6.60192e-05 0.000696422 -0.001 -0.000101806 0.0002546 -0.001 
0.000271142 -3.88908e-05 -0.001 0.000179455 -0.00018534 -0.001 -8.79553e-05 -0.000254307 -0.001 
-0.000749267 -0.000373451 -0.001 -0.000655941 -0.000323397 -0.001 0.000709746 0.000466718 -0.001 
0.000698426 -0.000473086 -0.001 -5.25801e-05 -0.00084886 -0.001 -4.93005e-05 0.000848038 -0.001 
0.000617396 -0.000413362 -0.001 0.000702056 -0.000369817 -0.001 0.000131459 -0.000679171 -0.001 
2.48171e-05 -0.000715924 -0.001 -0.000664217 -0.00042729 -0.001 -0.000528828 -8.80444e-05 -0.001 
-0.000611101 -0.000136672 -0.001 -0.000426972 -4.45841e-05 -0.001 0.000800669 0.000378216 -0.001 
0.000821144 -0.000415062 -0.001 7.2799e-05 0.00088254 -0.001 6.81831e-05 -0.00087503 -0.001 
0.000104963 -0.000788946 -0.001 -7.40696e-05 -0.000660054 -0.001 0.000126061 0.000809943 -0.001 
0.000764361 0.000295682 -0.001 0.000166862 0.000630623 -0.001 0.000516462 -0.00046707 -0.001 
-0.000563585 -0.000389606 -0.001 -0.000622598 -1.40238e-05 -0.001 0.000629891 0.000171529 -0.001 
2.5614e-06 -0.000299794 -0.001 8.6901e-05 -0.00024329 -0.001 0.000272045 -0.000136982 -0.001 
-0.00075148 0.000138321 -0.001 0.000209366 -0.000599589 -0.001 0.000324913 -0.000630055 -0.001 
0.000614044 0.00041245 -0.001 0.00049651 -0.000573327 -0.001 0.000394822 -0.000507321 -0.001 
-0.000173714 -0.000206698 -0.001 0.000264897 5.63722e-05 -0.001 0.000247997 0.000152811 -0.001 
-4.63327e-05 -0.000920208 -0.001 9.18688e-05 0.000258626 -0.001 -5.54111e-06 0.000290558 -0.001 
-0.000184219 0.000201484 -0.001 -0.000263559 0.000142267 -0.001 -0.000256427 5.13624e-05 -0.001 
-0.000336894 -2.06179e-06 -0.001 -0.000228499 -4.2388e-05 -0.001 -0.00017589 0.000106626 -0.001 
-0.000769947 -0.000133367 -0.001 0.000767591 -0.000500293 -0.001 -5.05874e-05 0.000737978 -0.001 
0.000754456 -3.51771e-06 -0.001 0.00064691 -6.15298e-05 -0.001 0.000630483 -0.00018134 -0.001 
0.000749187 -0.000265543 -0.001 -0.000760805 -0.000462521 -0.001 0.000638155 6.09315e-05 -0.001 
-4.46661e-05 0.000922995 -0.001 -2.37945e-05 0.000207237 -0.001 0.000776979 0.000500181 -0.001 
-0.000605691 0.000527596 -0.001 -0.000377914 -0.000653727 -0.001 -0.000372325 -0.000526022 -0.001 
-0.000275829 -0.000589621 -0.001 -0.000254285 -0.000710579 -0.001 -0.000379307 0.000656222 -0.001 
-0.000379818 0.00052718 -0.001 -0.000266817 0.000721555 -0.001 -0.000150544 0.000668174 -0.001 
0.000381963 0.00065079 -0.001 0.000493113 0.000590432 -0.001 0.000505439 0.000463708 -0.001 
-0.000269094 0.000596608 -0.001 0.000385815 0.000532045 -0.001 0.000283599 0.0005899 -0.001 
-0.000176405 -0.000108505 -0.001 -0.000278769 -0.000475415 -0.001 0.000185395 2.33014e-06 -0.001 
0.000186773 0.000517571 -0.001 0.000540032 -8.68444e-05 -0.001 -0.000600694 -0.000514877 -0.001 
-0.00063703 8.98033e-05 -0.001 -0.000459677 0.000335729 -0.001 -0.000338836 -0.000100751 -0.001 
-0.000457327 0.000432721 -0.001 -8.72007e-06 -0.000210238 -0.001 0.000156073 0.000129496 -0.001 
-7.70692e-05 -0.000555049 -0.001 0.00036091 -0.000389728 -0.001 0.000531628 0.000120564 -0.001 
-0.000285451 0.000435562 -0.001 0.000192719 -0.000494604 -0.001 0.00041642 0.00039368 -0.001 
-0.000135943 0.000554637 -0.001 -0.000170665 -0.000610079 -0.001 -0.000666304 0.000434981 -0.001 
-0.000758736 0.000479231 -0.001 -0.000470189 -0.000458901 -0.001 0.000203433 -8.59809e-05 -0.001 
0.000101846 0.000170114 -0.001 -0.00035513 -0.00040726 -0.001 0.000100184 -0.000165831 -0.001 
2.96286e-05 0.00081537 -0.001 0.000720946 0.000381836 -0.001 -0.000539809 -0.000292001 -0.001 
0.00052211 -0.000182426 -0.001 -6.41339e-05 -0.000753908 -0.001 0.000638039 -0.000299861 -0.001 
-0.000605136 -0.000230182 -0.001 -3.41638e-05 -0.000145561 -0.001 -0.000104037 0.000172396 -0.001 
-0.000808575 -0.00042774 -0.001 -0.000807207 -0.000465052 -0.001 -0.00080817 0.000429771 -0.001 
-0.000806589 0.000469738 -0.001 -9.50634e-05 -0.000178909 -0.001 0.000247777 0.000445058 -0.001 
1.48293e-05 -0.000814201 -0.001 -4.11555e-05 0.000140955 -0.001 0.000276104 -0.000536845 -0.001 
0.000765969 -0.000436638 -0.001 0.000780871 -0.000362769 -0.001 0.000424176 -0.000642018 -0.001 
0.00053413 -0.000368009 -0.001 -0.000416333 4.17911e-05 -0.001 -0.000133891 -6.23822e-05 -0.001 
4.2574e-05 0.000206312 -0.001 0.000141163 -0.000121542 -0.001 0.000707423 0.000212137 -0.001 
0.000172327 0.000723882 -0.001 7.72652e-06 -0.00090254 -0.001 -0.000134435 5.66935e-05 -0.001 
-0.000188826 3.70894e-05 -0.001 0.000197119 8.09714e-05 -0.001 1.27801e-05 0.000917296 -0.001 
0.000800767 0.00044758 -0.001 -0.000686682 0.000507104 -0.001 9.35831e-05 0.000110457 -0.001 
-0.000696793 -0.000509595 -0.001 -0.00068446 -8.52012e-05 -0.001 -0.000691033 -0.000201242 -0.001 
5.24052e-05 -0.000189075 -0.001 -0.000151818 -0.000701092 -0.001 -0.000296988 0.000518087 -0.001 
9.31023e-05 -0.000108117 -0.001 0.00044261 -0.000416726 -0.001 0.000197044 -0.000784423 -0.001 
-0.000516861 0.000504567 -0.001 0.000298997 0.000502377 -0.001 

CELLS 563 3941
6 14 304 127 29 554 377 
6 143 259 55 393 509 103 
6 300 319 174 550 569 424 
6 259 349 55 509 599 103 
6 50 365 307 98 615 557 
6 299 320 164 549 570 414 
6 126 304 14 376 554 29 
6 298 319 300 548 569 550 
6 205 240 238 455 490 488 
6 257 308 145 507 558 395 
6 130 352 273 380 602 523 
6 295 320 299 545 570 549 
6 324 327 289 574 577 539 
6 235 258 143 485 508 393 
6 50 307 49 98 557 97 
6 207 283 279 457 533 529 
6 143 373 235 393 623 485 
6 145 308 252 395 558 502 
6 194 303 196 444 553 446 
6 279 306 207 529 556 457 
6 206 305 163 456 555 413 
6 51 357 9 99 607 24 
6 238 252 205 488 502 455 
6 293 317 209 543 567 459 
6 207 316 283 457 566 533 
6 142 301 249 392 551 499 
6 273 359 130 523 609 380 
6 211 327 324 461 577 574 
6 169 265 217 419 515 467 
6 7 365 50 22 615 98 
6 283 316 253 533 566 503 
6 159 268 223 409 518 473 
6 274 337 132 524 587 382 
6 232 361 329 482 611 579 
6 231 266 45 481 516 93 
6 229 362 330 479 612 580 
6 9 244 57 24 494 105 
6 230 276 52 480 526 100 
6 209 311 293 459 561 543 
6 131 342 302 381 592 552 
6 270 271 204 520 521 454 
6 66 243 1 114 493 16 
6 59 241 12 107 491 27 
6 280 306 279 530 556 529 
6 269 337 274 519 587 524 
6 179 256 224 429 506 474 
6 163 305 166 413 555 416 
6 201 303 194 451 553 444 
6 280 332 306 530 582 556 
6 186 255 225 436 505 475 
6 210 310 273 460 560 523 
6 153 270 204 403 520 454 
6 136 231 45 386 481 93 
6 171 265 169 421 515 419 
6 138 230 52 388 480 100 
6 225 354 325 475 604 575 
6 36 284 232 84 534 482 
6 161 268 159 411 518 409 
6 71 286 229 119 536 479 
6 290 303 201 540 553 451 
6 139 355 60 389 605 108 
6 60 355 248 108 605 498 
6 273 352 302 523 602 552 
6 235 373 245 485 623 495 
6 67 356 247 115 606 497 
6 221 295 277 471 545 527 
6 142 356 67 392 606 115 
6 139 283 253 389 533 503 
6 203 315 262 453 565 512 
6 41 257 145 89 507 395 
6 36 232 135 84 482 385 
6 71 229 137 119 479 387 
6 254 255 188 504 505 438 
6 233 350 334 483 600 584 
6 262 346 203 512 596 453 
6 304 325 127 554 575 377 
6 222 329 247 472 579 497 
6 218 298 260 468 548 510 
6 290 321 291 540 571 541 
6 272 310 240 522 560 490 
6 269 274 270 519 524 520 
6 244 245 57 494 495 105 
6 49 307 141 97 557 391 
6 225 325 256 475 575 506 
6 273 310 272 523 560 522 
6 312 368 255 562 618 505 
6 249 305 206 499 555 456 
6 228 331 251 478 581 501 
6 302 342 263 552 592 513 
6 338 339 44 588 589 92 
6 190 254 188 440 504 438 
6 37 341 340 85 591 590 
6 138 233 230 388 483 480 
6 228 335 331 478 585 581 
6 181 256 179 431 506 429 
6 195 263 226 445 513 476 
6 268 285 223 518 535 473 
6 290 291 288 540 541 538 
6 219 330 248 469 580 498 
6 201 321 290 451 571 540 
6 240 310 202 490 560 452 
6 188 255 186 438 505 436 
6 270 274 271 520 524 521 
6 262 349 259 512 599 509 
6 141 324 289 391 574 539 
6 296 301 142 546 551 392 
6 247 356 222 497 606 472 
6 239 252 238 489 502 488 
6 254 312 255 504 562 505 
6 54 261 53 102 511 101 
6 289 327 303 539 577 553 
6 268 353 285 518 603 535 
6 273 302 210 523 552 460 
6 292 299 293 542 549 543 
6 278 283 139 528 533 389 
6 175 265 171 425 515 421 
6 227 338 38 477 588 86 
6 264 360 265 514 610 515 
6 43 340 146 91 590 396 
6 165 268 161 415 518 411 
6 205 351 240 455 601 490 
6 64 281 63 112 531 111 
6 288 291 47 538 541 95 
6 135 295 294 385 545 544 
6 42 257 41 90 507 89 
6 245 373 57 495 623 105 
6 31 363 323 79 613 573 
6 292 293 140 542 543 390 
6 267 353 268 517 603 518 
6 155 270 153 405 520 403 
6 244 344 245 494 594 495 
6 61 278 139 109 528 389 
6 135 294 35 385 544 83 
6 69 297 296 117 547 546 
6 186 225 184 436 475 434 
6 329 361 243 579 611 493 
6 255 328 225 505 578 475 
6 213 332 280 463 582 530 
6 39 275 133 87 525 383 
6 330 362 241 580 612 491 
6 195 226 193 445 476 443 
6 211 324 251 461 574 501 
6 151 153 152 401 403 402 
6 295 299 294 545 549 544 
6 265 313 217 515 563 467 
6 258 259 143 508 509 393 
6 251 331 211 501 581 461 
6 149 151 150 399 401 400 
6 293 370 317 543 620 567 
6 153 204 152 403 454 402 
6 151 152 150 401 402 400 
6 33 292 140 81 542 390 
6 210 263 197 460 513 447 
6 301 305 249 551 555 499 
6 298 300 297 548 550 547 
6 68 296 142 116 546 392 
6 321 369 291 571 619 541 
6 179 224 177 429 474 427 
6 167 267 165 417 517 415 
6 259 346 262 509 596 512 
6 303 327 196 553 577 446 
6 269 270 155 519 520 405 
6 265 360 313 515 610 563 
6 223 269 157 473 519 407 
6 157 269 155 407 519 405 
6 144 279 278 394 529 528 
6 169 217 167 419 467 417 
6 177 264 175 427 514 425 
6 267 268 165 517 518 415 
6 159 223 157 409 473 407 
6 232 277 135 482 527 385 
6 193 254 190 443 504 440 
6 217 267 167 467 517 417 
6 249 356 142 499 606 392 
6 184 256 181 434 506 431 
6 248 355 219 498 605 469 
6 229 260 137 479 510 387 
6 149 150 148 399 400 398 
6 64 348 281 112 598 531 
6 311 374 293 561 624 543 
6 264 265 175 514 515 425 
6 297 300 296 547 550 546 
6 141 289 288 391 539 538 
6 197 263 195 447 513 445 
6 218 260 219 468 510 469 
6 224 264 177 474 514 427 
6 137 298 297 387 548 547 
6 277 295 135 527 545 385 
6 133 228 227 383 478 477 
6 261 349 262 511 599 512 
6 221 277 222 471 527 472 
6 256 325 224 506 575 474 
6 199 210 197 449 460 447 
6 226 254 193 476 504 443 
6 144 278 62 394 528 110 
6 279 283 278 529 533 528 
6 289 290 288 539 540 538 
6 137 297 70 387 547 118 
6 34 294 292 82 544 542 
6 235 236 216 485 486 466 
6 141 288 48 391 538 96 
6 178 306 180 428 556 430 
6 185 186 184 435 436 434 
6 63 281 144 111 531 394 
6 225 256 184 475 506 434 
6 46 291 136 94 541 386 
6 147 149 148 397 399 398 
6 271 272 204 521 522 454 
6 233 334 234 483 584 484 
6 145 275 40 395 525 88 
6 220 322 287 470 572 537 
6 280 334 213 530 584 463 
6 144 280 279 394 530 529 
6 140 287 32 390 537 80 
6 154 155 153 404 405 403 
6 334 350 213 584 600 463 
6 176 177 175 426 427 425 
6 260 298 137 510 548 387 
6 33 140 32 81 390 80 
6 49 141 48 97 391 96 
6 56 143 55 104 393 103 
6 68 142 67 116 392 115 
6 63 144 62 111 394 110 
6 61 139 60 109 389 108 
6 148 308 257 398 558 507 
6 71 137 70 119 387 118 
6 53 138 52 101 388 100 
6 46 136 45 94 386 93 
6 36 135 35 84 385 83 
6 43 146 134 91 396 384 
6 133 227 38 383 477 86 
6 192 193 190 442 443 440 
6 293 374 140 543 624 390 
6 34 292 33 82 542 81 
6 207 306 178 457 556 428 
6 43 134 42 91 384 90 
6 39 133 38 87 383 86 
6 41 145 40 89 395 88 
6 194 195 193 444 445 443 
6 69 296 68 117 546 116 
6 294 299 292 544 549 542 
6 173 175 171 423 425 421 
6 260 330 219 510 580 469 
6 183 184 181 433 434 431 
6 134 257 42 384 507 90 
6 55 349 54 103 599 102 
6 163 165 161 413 415 411 
6 166 167 165 416 417 415 
6 210 302 263 460 552 513 
6 271 273 272 521 523 522 
6 53 261 138 101 511 388 
6 217 326 267 467 576 517 
6 289 303 290 539 553 540 
6 178 179 177 428 429 427 
6 238 240 202 488 490 452 
6 62 278 61 110 528 109 
6 35 294 34 83 544 82 
6 284 361 232 534 611 482 
6 70 297 69 118 547 117 
6 224 304 264 474 554 514 
6 156 157 155 406 407 405 
6 48 288 47 96 538 95 
6 221 320 295 471 570 545 
6 187 188 186 437 438 436 
6 47 291 46 95 541 94 
6 151 154 153 401 404 403 
6 286 362 229 536 612 479 
6 168 169 167 418 419 417 
6 40 275 39 88 525 87 
6 307 324 141 557 574 391 
6 300 301 296 550 551 546 
6 32 287 31 80 537 79 
6 147 220 149 397 470 399 
6 333 344 231 583 594 481 
6 299 370 293 549 620 543 
6 271 359 273 521 609 523 
6 224 325 304 474 575 554 
6 228 237 227 478 487 477 
6 305 375 343 555 625 593 
6 218 319 298 468 569 548 
6 240 351 272 490 601 522 
6 277 329 222 527 579 472 
6 253 355 139 503 605 389 
6 158 159 157 408 409 407 
6 236 246 216 486 496 466 
6 192 194 193 442 444 443 
6 220 309 149 470 559 399 
6 183 185 184 433 435 434 
6 196 197 195 446 447 445 
6 276 347 58 526 597 106 
6 136 333 231 386 583 481 
6 67 247 66 115 497 114 
6 60 248 59 108 498 107 
6 261 262 250 511 512 500 
6 173 176 175 423 426 425 
6 344 357 231 594 607 481 
6 144 281 280 394 531 530 
6 152 205 150 402 455 400 
6 163 166 165 413 416 415 
6 185 187 186 435 437 436 
6 233 234 230 483 484 480 
6 170 171 169 420 421 419 
6 146 147 134 396 397 384 
6 176 178 177 426 428 427 
6 285 337 223 535 587 473 
6 154 156 155 404 406 405 
6 263 342 226 513 592 476 
6 235 245 236 485 495 486 
6 160 161 159 410 411 409 
6 58 347 242 106 597 492 
6 166 168 167 416 418 417 
6 287 374 220 537 624 470 
6 189 190 188 439 440 438 
6 148 257 134 398 507 384 
6 194 196 195 444 446 445 
6 252 308 205 502 558 455 
6 285 345 337 535 595 587 
6 301 375 305 551 625 555 
6 180 181 179 430 431 429 
6 281 348 234 531 598 484 
6 198 199 197 448 449 447 
6 151 309 154 401 559 404 
6 228 367 335 478 617 585 
6 54 349 261 102 599 511 
6 156 158 157 406 408 407 
6 168 170 169 418 420 419 
6 200 202 199 450 452 449 
6 147 148 134 397 398 384 
6 158 160 159 408 410 409 
6 150 308 148 400 558 398 
6 253 316 208 503 566 458 
6 232 329 277 482 579 527 
6 178 180 179 428 430 429 
6 191 192 190 441 442 440 
6 214 238 202 464 488 452 
6 172 173 171 422 423 421 
6 187 189 188 437 439 438 
6 162 163 161 412 413 411 
6 228 251 237 478 501 487 
6 215 258 235 465 508 485 
6 182 183 181 432 433 431 
6 202 310 199 452 560 449 
6 219 253 208 469 503 458 
6 222 249 206 472 499 456 
6 196 198 197 446 448 447 
6 229 330 260 479 580 510 
6 132 358 274 382 608 524 
6 149 309 151 399 559 401 
6 226 312 254 476 562 504 
6 154 309 209 404 559 459 
6 77 129 76 125 379 124 
6 73 128 72 121 378 120 
6 76 131 75 124 381 123 
6 74 132 73 122 382 121 
6 75 130 74 123 380 122 
6 14 127 77 29 377 125 
6 72 126 14 120 376 29 
6 133 367 228 383 617 478 
6 237 282 227 487 532 477 
6 239 366 252 489 616 502 
6 200 214 202 450 464 452 
6 192 201 194 442 451 444 
6 170 172 171 420 422 421 
6 220 311 309 470 561 559 
6 198 200 199 448 450 449 
6 189 191 190 439 441 440 
6 146 323 322 396 573 572 
6 160 162 161 410 412 411 
6 251 307 237 501 557 487 
6 199 310 210 449 560 460 
6 57 373 56 105 623 104 
6 214 239 238 464 489 488 
6 182 212 183 432 462 433 
6 180 182 181 430 432 431 
6 146 322 147 396 572 397 
6 172 218 208 422 468 458 
6 172 208 173 422 458 423 
6 162 221 206 412 471 456 
6 162 206 163 412 456 413 
6 176 207 178 426 457 428 
6 272 351 204 522 601 454 
6 198 211 200 448 461 450 
6 182 213 212 432 463 462 
6 234 334 281 484 584 531 
6 154 209 156 404 459 406 
6 185 203 187 435 453 437 
6 168 174 170 418 424 420 
6 189 215 191 439 465 441 
6 215 216 191 465 466 441 
6 221 222 206 471 472 456 
6 158 164 160 408 414 410 
6 218 219 208 468 469 458 
6 205 308 150 455 558 400 
6 191 314 192 441 564 442 
6 215 235 216 465 485 466 
6 215 318 258 465 568 508 
6 152 351 205 402 601 455 
6 138 261 250 388 511 500 
6 192 314 201 442 564 451 
6 234 347 230 484 597 480 
6 226 342 312 476 592 562 
6 138 250 233 388 500 483 
6 147 322 220 397 572 470 
6 216 314 191 466 564 441 
6 306 332 180 556 582 430 
6 222 356 249 472 606 499 
6 128 345 285 378 595 535 
6 314 321 201 564 571 451 
6 212 315 183 462 565 433 
6 312 342 336 562 592 586 
6 282 339 338 532 589 588 
6 340 341 323 590 591 573 
6 309 311 209 559 561 459 
6 183 315 185 433 565 435 
6 208 316 173 458 566 423 
6 173 316 176 423 566 426 
6 3 341 37 18 591 85 
6 44 339 6 92 589 21 
6 252 366 145 502 616 395 
6 246 321 314 496 571 564 
6 246 314 216 496 564 466 
6 126 364 313 376 614 563 
6 156 317 158 406 567 408 
6 275 367 133 525 617 383 
6 176 316 207 426 566 457 
6 185 315 203 435 565 453 
6 180 332 182 430 582 432 
6 302 352 131 552 602 381 
6 251 324 307 501 574 557 
6 187 318 189 437 568 439 
6 172 319 218 422 569 468 
6 162 320 221 412 570 471 
6 305 343 166 555 593 416 
6 170 319 172 420 569 422 
6 158 317 164 408 567 414 
6 209 317 156 459 567 406 
6 285 353 128 535 603 378 
6 223 337 269 473 587 519 
6 160 320 162 410 570 412 
6 211 331 200 461 581 450 
6 174 319 170 424 569 420 
6 203 318 187 453 568 437 
6 189 318 215 439 568 465 
6 198 327 211 448 577 461 
6 164 320 160 414 570 410 
6 326 353 267 576 603 517 
6 236 344 333 486 594 583 
6 196 327 198 446 577 448 
6 219 355 253 469 605 503 
6 281 334 280 531 584 530 
6 274 359 271 524 609 521 
6 164 370 299 414 620 549 
6 174 375 300 424 625 550 
6 287 363 31 537 613 79 
6 243 361 1 493 611 16 
6 241 362 12 491 612 27 
6 307 365 237 557 615 487 
6 166 343 168 416 593 418 
6 200 331 214 450 581 464 
6 313 326 217 563 576 467 
6 9 357 244 24 607 494 
6 1 361 30 16 611 78 
6 12 362 65 27 612 113 
6 337 345 132 587 595 382 
6 242 348 64 492 598 112 
6 231 357 266 481 607 516 
6 182 332 213 432 582 463 
6 245 344 236 495 594 486 
6 258 346 259 508 596 509 
6 145 366 275 395 616 525 
6 291 369 136 541 619 386 
6 236 333 246 486 583 496 
6 331 335 214 581 585 464 
6 312 336 129 562 586 379 
6 315 372 262 565 622 512 
6 220 374 311 470 624 561 
6 140 374 287 390 624 537 
6 126 360 304 376 610 554 
6 230 347 276 480 597 526 
6 313 364 326 563 614 576 
6 56 373 143 104 623 393 
6 239 367 366 489 617 616 
6 204 351 152 454 601 402 
6 300 375 301 550 625 551 
6 214 335 239 464 585 489 
6 247 329 243 497 579 493 
6 262 372 250 512 622 500 
6 248 330 241 498 580 491 
6 318 346 258 568 596 508 
6 333 369 246 583 619 496 
6 282 338 227 532 588 477 
6 146 340 323 396 590 573 
6 304 360 264 554 610 514 
6 366 367 275 616 617 525 
6 129 336 76 379 586 124 
6 73 345 128 121 595 378 
6 76 336 131 124 586 381 
6 250 350 233 500 600 483 
6 129 371 328 379 621 578 
6 132 345 73 382 595 121 
6 168 343 174 418 593 424 
6 131 352 75 381 602 123 
6 66 247 243 114 497 493 
6 59 248 241 107 498 491 
6 74 358 132 122 608 382 
6 203 346 318 453 596 568 
6 313 360 126 563 610 376 
6 128 364 72 378 614 120 
6 128 353 326 378 603 576 
6 77 371 129 125 621 379 
6 129 368 312 379 618 562 
6 244 357 344 494 607 594 
6 328 354 225 578 604 475 
6 326 364 128 576 614 378 
6 75 352 130 123 602 380 
6 350 372 212 600 622 462 
6 136 369 333 386 619 583 
6 325 354 127 575 604 377 
6 213 350 212 463 600 462 
6 130 358 74 380 608 122 
6 250 372 350 500 622 600 
6 317 370 164 567 620 414 
6 72 364 126 120 614 376 
6 328 368 129 578 618 379 
6 127 371 77 377 621 125 
6 336 342 131 586 592 381 
6 212 372 315 462 622 565 
6 234 348 347 484 598 597 
6 8 266 51 23 516 99 
6 10 276 58 25 526 106 
6 246 369 321 496 619 571 
6 30 284 0 78 534 15 
6 65 286 13 113 536 28 
6 58 242 11 106 492 26 
6 266 357 51 516 607 99 
6 255 368 328 505 618 578 
6 347 348 242 597 598 492 
6 322 363 287 572 613 537 
6 323 363 322 573 613 572 
6 335 367 239 585 617 489 
6 30 361 284 78 611 534 
6 65 362 286 113 612 536 
6 237 365 282 487 615 532 
6 130 359 358 380 609 608 
6 343 375 174 593 625 424 
6 354 371 127 604 621 377 
6 328 371 354 578 621 604 
6 358 359 274 608 609 524 
6 0 284 36 15 534 84 
6 45 266 8 93 516 23 
6 52 276 10 100 526 25 
6 11 242 64 26 492 112 
6 13 286 71 28 536 119 
6 2 323 3 17 573 18 
6 31 323 2 79 573 17 
6 323 341 3 573 591 18 
6 37 340 4 85 590 19 
6 4 340 43 19 590 91 
6 38 338 5 86 588 20 
6 5 338 44 20 588 92 
6 6 282 7 21 532 22 
6 6 339 282 21 589 532 
6 282 365 7 532 615 22 

CELL_TYPES 563
13
13
13
13
13
13
13
13
13
13
13
13
13
13
13
13
13
13
13
13
13
13
13
13
13
13
13
13
13
13
13
13
13
13
13
13
13
13
13
13
13
13
13
13
13
13
13
13
13
13
13
13
13
13
13
13
13
13
13
13
13
13
13
13
13
13
13
13
13
13
13
13
13
13
13
13
13
13
13
13
13
13
13
13
13
13
13
13
13
13
13
13
13
13
13
13
13
13
13
13
13
13
13
13
13
13
13
13
13
13
13
13
13
13
13
13
13
13
13
13
13
13
13
13
13
13
13
13
13
13
13
13
13
13
13
13
13
13
13
13
13
13
13
13
13
13
13
13
13
13
13
13
13
13
13
13
13
13
13
13
13
13
13
13
13
13
13
13
13
13
13
13
13
13
13
13
13
13
13
13
13
13
13
13
13
13
13
13
13
13
13
13
13
13
13
13
13
13
13
13
13
13
13
13
13
13
13
13
13
13
13
13
13
13
13
13
13
13
13
13
13
13
13
13
13
13
13
13
13
13
13
13
13
13
13
13
13
13
13
13
13
13
13
13
13
13
13
13
13
13
13
13
13
13
13
13
13
13
13
13
13
13
13
13
13
13
13
13
13
13
13
13
13
13
13
13
13
13
13
13
13
13
13
13
13
13
13
13
13
13
13
13
13
13
13
13
13
13
13
13
13
13
13
13
13
13
13
13
13
13
13
13
13
13
13
13
13
13
13
13
13
13
13
13
13
13
13
13
13
13
13
13
13
13
13
13
13
13
13
13
13
13
13
13
13
13
13
13
13
13
13
13
13
13
13
13
13
13
13
13
13
13
13
13
13
13
13
13
13
13
13
13
13
13
13
13
13
13
13
13
13
13
13
13
13
13
13
13
13
13
13
13
13
13
13
13
13
13
13
13
13
13
13
13
13
13
13
13
13
13
13
13
13
13
13
13
13
13
13
13
13
13
13
13
13
13
13
13
13
13
13
13
13
13
13
13
13
13
13
13
13
13
13
13
13
13
13
13
13
13
13
13
13
13
13
13
13
13
13
13
13
13
13
13
13
13
13
13
13
13
13
13
13
13
13
13
13
13
13
13
13
13
13
13
13
13
13
13
13
13
13
13
13
13
13
13
13
13
13
13
13
13
13
13
13
13
13
13
13
13
13
13
13
13
13
13
13
13
13
13
13
13
13
13
13
13
13
13
13
13
13
13
13
13
13
13
13
13
13
13
13
13
13
13
13
13
13
13
13
13
13
13
13
13
13
13
13
13
13
13
13
13
13

POINT_DATA 626
VECTORS displacement float
-1.74394e-06 3.09551e-05 1.80553e-05
1.73565e-06 3.09741e-05 1.81004e-05
-2.59868e-05 1.69932e-05 1.80873e-05
-2.58414e-05 1.60333e-05 1.80519e-05
-2.77212e-05 1.39731e-05 1.80693e-05
-2.77142e-05 -1.40194e-05 1.80948e-05
-2.58126e-05 -1.60715e-05 1.81061e-05
-2.5983e-05 -1.70112e-05 1.81673e-05
-1.6774e-06 -3.09588e-05 1.80517e-05
1.75545e-06 -3.09603e-05 1.81022e-05
2.59442e-05 -1.6981e-05 1.80438e-05
2.77175e-05 -1.3937e-05 1.80436e-05
2.7673e-05 1.39897e-05 1.80919e-05
2.59155e-05 1.69933e-05 1.80463e-05
0 0 0
-1.74394e-06 3.09551e-05 -1.80553e-05
1.73565e-06 3.09741e-05 -1.81004e-05
-2.59868e-05 1.69932e-05 -1.80873e-05
-2.58414e-05 1.60333e-05 -1.80519e-05
-2.77212e-05 1.39731e-05 -1.80693e-05
-2.77142e-05 -1.40194e-05 -1.80948e-05
-2.58126e-05 -1.60715e-05 -1.81061e-05
-2.5983e-05 -1.70112e-05 -1.81673e-05
-1.6774e-06 -3.09588e-05 -1.80517e-05
1.75545e-06 -3.09603e-05 -1.81022e-05
2.59442e-05 -1.6981e-05 -1.80438e-05
2.77175e-05 -1.3937e-05 -1.80436e-05
2.7673e-05 1.39897e-05 -1.80919e-05
2.59155e-05 1.69933e-05 -1.80463e-05
0 0 0
2.48917e-08 3.01549e-05 1.80345e-05
-2.11411e-05 1.87128e-05 1.755e-05
-1.72329e-05 1.98343e-05 1.69211e-05
-1.40073e-05 2.10547e-05 1.65553e-05
-1.12071e-05 2.26654e-05 1.65491e-05
-8.52424e-06 2.48335e-05 1.69017e-05
-5.56786e-06 2.76223e-05 1.75377e-05
-2.64504e-05 1.46794e-05 1.80337e-05
-2.67693e-05 -9.01179e-06 1.75777e-05
-2.58068e-05 -5.03564e-06 1.69263e-05
-2.52551e-05 -1.63626e-06 1.65717e-05
-2.52581e-05 1.6079e-06 1.65747e-05
-2.57991e-05 5.02303e-06 1.69245e-05
-2.67555e-05 8.98487e-06 1.75642e-05
-2.64373e-05 -1.47258e-05 1.80625e-05
-5.54112e-06 -2.76368e-05 1.753e-05
-8.47676e-06 -2.48425e-05 1.6901e-05
-1.11703e-05 -2.26848e-05 1.65565e-05
-1.39709e-05 -2.10878e-05 1.65599e-05
-1.72154e-05 -1.98696e-05 1.6937e-05
-2.11347e-05 -1.87495e-05 1.75625e-05
8.98364e-08 -3.01397e-05 1.80296e-05
2.11245e-05 -1.86252e-05 1.75117e-05
1.72451e-05 -1.97626e-05 1.68732e-05
1.40342e-05 -2.10117e-05 1.65119e-05
1.12253e-05 -2.25935e-05 1.65465e-05
8.5814e-06 -2.47807e-05 1.68745e-05
5.65473e-06 -2.76271e-05 1.75353e-05
2.61251e-05 -1.506e-05 1.80286e-05
2.67174e-05 8.93866e-06 1.75018e-05
2.57226e-05 5.04976e-06 1.69087e-05
2.52072e-05 1.62338e-06 1.65235e-05
2.52043e-05 -1.59949e-06 1.65218e-05
2.57513e-05 -4.99755e-06 1.68886e-05
2.66994e-05 -8.91742e-06 1.751e-05
2.61081e-05 1.50611e-05 1.80257e-05
5.63319e-06 2.76184e-05 1.75099e-05
8.50877e-06 2.48074e-05 1.69115e-05
1.12173e-05 2.26416e-05 1.65297e-05
1.40049e-05 2.10226e-05 1.65251e-05
1.72221e-05 1.97939e-05 1.68854e-05
2.11155e-05 1.86348e-05 1.75257e-05
0 0 0
0 0 0
0 0 0
0 0 0
0 0 0
0 0 0
2.48917e-08 3.01549e-05 -1.80345e-05
-2.11411e-05 1.87128e-05 -1.755e-05
-1.72329e-05 1.98343e-05 -1.69211e-05
-1.40073e-05 2.10547e-05 -1.65553e-05
-1.12071e-05 2.26654e-05 -1.65491e-05
-8.52424e-06 2.48335e-05 -1.69017e-05
-5.56786e-06 2.76223e-05 -1.75377e-05
-2.64504e-05 1.46794e-05 -1.80337e-05
-2.67693e-05 -9.01179e-06 -1.75777e-05
-2.58068e-05 -5.03564e-06 -1.69263e-05
-2.52551e-05 -1.63626e-06 -1.65717e-05
-2.52581e-05 1.6079e-06 -1.65747e-05
-2.57991e-05 5.02303e-06 -1.69245e-05
-2.67555e-05 8.98487e-06 -1.75642e-05
-2.64373e-05 -1.47258e-05 -1.80625e-05
-5.54112e-06 -2.76368e-05 -1.753e-05
-8.47676e-06 -2.48425e-05 -1.6901e-05
-1.11703e-05 -2.26848e-05 -1.65565e-05
-1.39709e-05 -2.10878e-05 -1.65599e-05
-1.72154e-05 -1.98696e-05 -1.6937e-05
-2.11347e-05 -1.87495e-05 -1.75625e-05
8.98364e-08 -3.01397e-05 -1.80296e-05
2.11245e-05 -1.86252e-05 -1.75117e-05
1.72451e-05 -1.97626e-05 -1.68732e-05
1.40342e-05 -2.10117e-05 -1.65119e-05
1.12253e-05 -2.25935e-05 -1.65465e-05
8.5814e-06 -2.47807e-05 -1.68745e-05
5.65473e-06 -2.76271e-05 -1.75353e-05
2.61251e-05 -1.506e-05 -1.80286e-05
2.67174e-05 8.93866e-06 -1.75018e-05
2.57226e-05 5.04976e-06 -1.69087e-05
2.52072e-05 1.62338e-06 -1.65235e-05
2.52043e-05 -1.59949e-06 -1.65218e-05
2.57513e-05 -4.99755e-06 -1.68886e-05
2.66994e-05 -8.91742e-06 -1.751e-05
2.61081e-05 1.50611e-05 -1.80257e-05
5.63319e-06 2.76184e-05 -1.75099e-05
8.50877e-06 2.48074e-05 -1.69115e-05
1.12173e-05 2.26416e-05 -1.65297e-05
1.40049e-05 2.10226e-05 -1.65251e-05
1.72221e-05 1.97939e-05 -1.68854e-05
2.11155e-05 1.86348e-05 -1.75257e-05
0 0 0
0 0 0
0 0 0
0 0 0
0 0 0
0 0 0
1.79371e-06 8.58761e-07 4.55235e-06
1.73785e-06 -8.25128e-07 4.4609e-06
4.31961e-07 1.84966e-06 4.49522e-06
4.36105e-07 -1.78066e-06 4.35619e-06
-1.84752e-06 2.09636e-08 4.42246e-06
-1.12311e-06 -1.3089e-06 4.15109e-06
-1.15923e-06 1.30682e-06 4.19987e-06
-2.25135e-05 -7.28786e-06 1.70002e-05
-2.21969e-05 7.37175e-06 1.69689e-05
-4.86053e-06 2.2899e-05 1.69373e-05
-4.85804e-06 -2.31321e-05 1.69642e-05
1.74216e-05 1.56358e-05 1.69301e-05
1.75692e-05 -1.55368e-05 1.69394e-05
2.1074e-05 3.16396e-06 1.63247e-05
-1.39535e-05 1.71516e-05 1.64787e-05
-1.35915e-05 -1.67416e-05 1.64102e-05
7.76801e-06 1.982e-05 1.63315e-05
7.68503e-06 -2.03104e-05 1.64028e-05
2.14728e-05 -3.44382e-06 1.64005e-05
-2.11032e-05 6.58811e-09 1.6247e-05
-2.24208e-05 1.1e-05 1.74539e-05
-1.87513e-05 9.2549e-06 1.66273e-05
-1.79832e-05 5.79558e-06 1.60366e-05
-1.49843e-05 7.4485e-06 1.54866e-05
-1.42248e-05 4.30782e-06 1.48299e-05
-1.15329e-05 5.74401e-06 1.40949e-05
-1.08583e-05 3.0688e-06 1.33738e-05
-8.40067e-06 4.30497e-06 1.24045e-05
-9.059e-06 7.01356e-06 1.34565e-05
-6.20424e-06 5.48863e-06 1.16891e-05
-6.82845e-06 8.24962e-06 1.30801e-05
-4.28149e-06 6.67505e-06 1.14506e-05
-4.80012e-06 9.61014e-06 1.30941e-05
-2.40092e-06 7.99352e-06 1.17231e-05
-2.81291e-06 1.11675e-05 1.34751e-05
-4.75421e-07 9.5955e-06 1.25011e-05
-7.38371e-07 1.29972e-05 1.41419e-05
1.73112e-06 1.1518e-05 1.35352e-05
-5.53481e-06 1.27007e-05 1.44371e-05
1.68512e-06 8.22415e-06 1.17477e-05
4.00427e-06 1.01211e-05 1.31511e-05
3.70543e-06 7.0981e-06 1.14784e-05
6.06754e-06 8.96687e-06 1.31135e-05
5.76694e-06 6.10692e-06 1.17357e-05
8.35827e-06 8.0205e-06 1.34922e-05
8.10583e-06 5.19538e-06 1.25005e-05
1.09542e-05 7.09721e-06 1.41472e-05
1.07462e-05 4.32289e-06 1.34992e-05
8.53072e-06 1.10377e-05 1.4461e-05
7.93786e-06 2.6438e-06 1.17276e-05
1.06462e-05 1.73724e-06 1.31042e-05
7.94886e-06 3.58768e-07 1.14557e-05
1.08066e-05 -7.5913e-07 1.31243e-05
8.11182e-06 -1.93784e-06 1.17093e-05
1.10985e-05 -3.31293e-06 1.34841e-05
8.46992e-06 -4.42408e-06 1.24442e-05
1.1504e-05 -6.00302e-06 1.41096e-05
8.95577e-06 -7.13827e-06 1.34282e-05
6.14766e-06 -5.49454e-06 1.16414e-05
6.64465e-06 -8.30105e-06 1.30184e-05
4.10529e-06 -6.58865e-06 1.13111e-05
4.52346e-06 -9.55108e-06 1.29885e-05
2.24234e-06 -7.85846e-06 1.15975e-05
2.48489e-06 -1.10021e-05 1.33511e-05
2.25295e-07 -9.3739e-06 1.23538e-05
3.3002e-07 -1.27701e-05 1.4034e-05
-1.91548e-06 -1.1151e-05 1.33772e-05
-1.84111e-06 -7.92179e-06 1.15823e-05
-4.16799e-06 -9.87508e-06 1.30852e-05
-3.81402e-06 -6.73065e-06 1.13173e-05
-6.34577e-06 -8.66222e-06 1.30995e-05
-5.89143e-06 -5.69814e-06 1.16286e-05
-8.49992e-06 -7.43597e-06 1.33799e-05
-8.16773e-06 -4.72817e-06 1.24088e-05
-1.10959e-05 -6.40292e-06 1.40701e-05
-4.37176e-06 -1.31235e-05 1.44339e-05
-1.08091e-05 -3.65077e-06 1.34394e-05
7.22629e-06 -1.1373e-05 1.42732e-05
-7.74188e-06 1.98273e-06 1.14931e-05
-1.32164e-05 1.03508e-06 1.42112e-05
1.72916e-06 1.50832e-05 1.49525e-05
1.37684e-05 4.62249e-07 1.4388e-05
1.38435e-05 6.10025e-06 1.4932e-05
-9.6943e-06 1.01965e-05 1.45328e-05
-5.41613e-06 -3.19773e-06 1.01823e-05
-1.17139e-05 -9.29756e-06 1.48895e-05
1.18827e-05 -8.76042e-06 1.47874e-05
1.47821e-05 -7.47379e-06 1.54036e-05
-1.39601e-05 -5.24402e-06 1.4862e-05
2.79589e-06 -1.45165e-05 1.47965e-05
4.24571e-07 -1.64998e-05 1.53981e-05
3.51851e-06 4.39704e-06 9.58132e-06
1.40109e-05 9.29929e-06 1.54919e-05
1.79312e-05 8.14516e-06 1.63009e-05
-1.56758e-05 1.13956e-05 1.62338e-05
-1.09411e-06 1.67695e-05 1.54956e-05
1.9069e-06 1.96221e-05 1.63113e-05
-2.09192e-06 5.2202e-06 9.59782e-06
5.55407e-06 -7.84622e-07 9.59437e-06
3.58604e-06 -3.68365e-06 9.08219e-06
-1.77968e-06 -5.17869e-06 9.44983e-06
-2.24693e-05 -1.10111e-05 1.74746e-05
-1.87986e-05 -9.24165e-06 1.66514e-05
2.11483e-05 1.41651e-05 1.75059e-05
2.07543e-05 -1.43179e-05 1.74359e-05
-1.76463e-06 -2.54471e-05 1.75112e-05
-1.68216e-06 2.54111e-05 1.75159e-05
1.77134e-05 -1.19072e-05 1.66875e-05
2.06462e-05 -1.07513e-05 1.71163e-05
3.77573e-06 -1.89856e-05 1.61397e-05
7.68545e-07 -2.03463e-05 1.64832e-05
-1.94055e-05 -1.26508e-05 1.71435e-05
-1.37314e-05 -2.30698e-06 1.44722e-05
-1.65931e-05 -3.70152e-06 1.54779e-05
-1.03761e-05 -1.09641e-06 1.29524e-05
2.44526e-05 1.10731e-05 1.76519e-05
2.54981e-05 -1.24035e-05 1.78484e-05
2.64928e-06 2.67266e-05 1.76608e-05
2.52103e-06 -2.64142e-05 1.76297e-05
3.33953e-06 -2.30324e-05 1.70294e-05
-2.05394e-06 -1.83203e-05 1.59512e-05
4.05914e-06 2.37919e-05 1.71307e-05
2.26147e-05 8.37947e-06 1.71196e-05
4.61371e-06 1.73138e-05 1.57276e-05
1.44273e-05 -1.31198e-05 1.61377e-05
-1.5788e-05 -1.0985e-05 1.62149e-05
-1.68002e-05 -3.81438e-07 1.53777e-05
1.73063e-05 4.68759e-06 1.5726e-05
6.5523e-08 -6.38745e-06 1.02677e-05
1.74175e-06 -4.84856e-06 9.09269e-06
5.85059e-06 -2.93557e-06 1.03784e-05
-2.14447e-05 3.7506e-06 1.64592e-05
5.72949e-06 -1.62749e-05 1.5508e-05
9.08367e-06 -1.74994e-05 1.59978e-05
1.75726e-05 1.18819e-05 1.66726e-05
1.39945e-05 -1.63826e-05 1.64015e-05
1.07402e-05 -1.37893e-05 1.55504e-05
-3.54804e-06 -4.22028e-06 9.50098e-06
5.39923e-06 1.13852e-06 9.49926e-06
5.21816e-06 3.22294e-06 1.00475e-05
-1.7498e-06 -2.83551e-05 1.78771e-05
1.8921e-06 5.299e-06 9.58466e-06
-1.13826e-07 6.10513e-06 1.0039e-05
-3.785e-06 4.12782e-06 9.57862e-06
-5.62279e-06 3.03425e-06 1.02855e-05
-5.16557e-06 1.04069e-06 9.21381e-06
-7.5274e-06 -6.17405e-08 1.11726e-05
-4.33446e-06 -8.10293e-07 8.38204e-06
-3.10864e-06 1.87237e-06 7.37423e-06
-2.20816e-05 -3.60785e-06 1.65161e-05
2.34067e-05 -1.56882e-05 1.78364e-05
-1.50723e-06 2.11683e-05 1.66823e-05
2.12621e-05 -8.45218e-08 1.62261e-05
1.76225e-05 -1.64684e-06 1.55817e-05
1.73481e-05 -4.94178e-06 1.5771e-05
2.1892e-05 -7.45128e-06 1.69139e-05
-2.31826e-05 -1.42548e-05 1.7833e-05
1.7325e-05 1.64891e-06 1.55088e-05
-1.73401e-06 2.84736e-05 1.78944e-05
-4.22079e-07 3.68349e-06 7.49547e-06
2.37724e-05 1.57426e-05 1.78848e-05
-1.74977e-05 1.56425e-05 1.69752e-05
-1.06265e-05 -1.84665e-05 1.62554e-05
-1.00998e-05 -1.43426e-05 1.5572e-05
-7.50794e-06 -1.60952e-05 1.56224e-05
-7.32228e-06 -2.01209e-05 1.63956e-05
-1.07047e-05 1.85356e-05 1.62671e-05
-1.03476e-05 1.43844e-05 1.56197e-05
-7.7728e-06 2.04929e-05 1.64445e-05
-4.25308e-06 1.86101e-05 1.60533e-05
1.07599e-05 1.83458e-05 1.62265e-05
1.3892e-05 1.69353e-05 1.64313e-05
1.40423e-05 1.29732e-05 1.60516e-05
-7.36174e-06 1.62887e-05 1.56388e-05
1.05254e-05 1.45473e-05 1.56455e-05
7.74892e-06 1.60927e-05 1.56142e-05
-3.11652e-06 -1.8988e-06 7.39335e-06
-7.25781e-06 -1.24223e-05 1.46255e-05
3.00872e-06 4.03609e-08 6.60113e-06
4.87269e-06 1.3523e-05 1.46184e-05
1.40763e-05 -2.26044e-06 1.45708e-05
-1.72901e-05 -1.5217e-05 1.69458e-05
-1.73669e-05 2.42036e-06 1.55981e-05
-1.2205e-05 8.91214e-06 1.49438e-05
-7.7058e-06 -2.29257e-06 1.15549e-05
-1.24501e-05 1.18129e-05 1.55403e-05
-1.42738e-07 -3.7543e-06 7.55436e-06
2.73028e-06 2.27212e-06 7.2521e-06
-2.00391e-06 -1.46508e-05 1.48084e-05
9.36531e-06 -1.00685e-05 1.43897e-05
1.38611e-05 3.15789e-06 1.45664e-05
-7.34021e-06 1.11996e-05 1.42606e-05
4.99734e-06 -1.27751e-05 1.43696e-05
1.10321e-05 1.04308e-05 1.492e-05
-3.59653e-06 1.46856e-05 1.49084e-05
-4.63558e-06 -1.66173e-05 1.55492e-05
-1.95075e-05 1.28927e-05 1.71616e-05
-2.31274e-05 1.48585e-05 1.78437e-05
-1.29052e-05 -1.26864e-05 1.58129e-05
3.76088e-06 -1.58616e-06 7.90714e-06
1.76443e-06 2.92234e-06 7.08461e-06
-9.2307e-06 -1.06097e-05 1.45321e-05
1.72778e-06 -2.82321e-06 6.93124e-06
9.94745e-07 2.41174e-05 1.73088e-05
2.13685e-05 1.11941e-05 1.7299e-05
-1.4665e-05 -7.95358e-06 1.54857e-05
1.37084e-05 -4.78644e-06 1.4691e-05
-1.90992e-06 -2.17635e-05 1.68031e-05
1.80608e-05 -8.41927e-06 1.63411e-05
-1.66793e-05 -6.32873e-06 1.57828e-05
-4.32909e-07 -1.92236e-06 4.79859e-06
-1.80541e-06 2.9955e-06 7.17736e-06
-2.50525e-05 -1.29821e-05 1.79226e-05
-2.51277e-05 -1.45076e-05 1.80024e-05
-2.50457e-05 1.3034e-05 1.79063e-05
-2.51186e-05 1.46503e-05 1.79825e-05
-1.64849e-06 -3.12491e-06 7.21009e-06
6.32811e-06 1.13687e-05 1.40769e-05
5.33718e-07 -2.40867e-05 1.73026e-05
-5.22788e-07 1.80958e-06 4.64513e-06
7.40765e-06 -1.4344e-05 1.51527e-05
2.33034e-05 -1.32096e-05 1.77291e-05
2.36332e-05 -1.05378e-05 1.74912e-05
1.19887e-05 -1.82114e-05 1.62937e-05
1.47305e-05 -1.01469e-05 1.5796e-05
-1.00273e-05 1.00127e-06 1.2755e-05
-1.74005e-06 -8.15918e-07 4.72357e-06
7.69081e-07 3.70843e-06 7.57334e-06
2.34312e-06 -1.9972e-06 6.55546e-06
2.0157e-05 5.89799e-06 1.6454e-05
5.07021e-06 2.05965e-05 1.64964e-05
3.42119e-07 -2.76807e-05 1.78543e-05
-1.73126e-06 7.09126e-07 4.60644e-06
-3.21158e-06 6.23061e-07 6.82432e-06
3.57729e-06 1.47545e-06 7.63682e-06
4.99228e-07 2.83245e-05 1.79276e-05
2.47609e-05 1.37344e-05 1.79187e-05
-2.03289e-05 1.55362e-05 1.74294e-05
1.17873e-06 1.3645e-06 4.45997e-06
-2.06401e-05 -1.57288e-05 1.7528e-05
-1.89994e-05 -2.32225e-06 1.59466e-05
-1.95597e-05 -5.58514e-06 1.63326e-05
9.05702e-07 -3.24783e-06 7.00628e-06
-4.36613e-06 -1.97898e-05 1.63222e-05
-7.93749e-06 1.38348e-05 1.51015e-05
1.16577e-06 -1.30421e-06 4.3394e-06
1.19348e-05 -1.12287e-05 1.52926e-05
6.1332e-06 -2.26967e-05 1.68209e-05
-1.45225e-05 1.43557e-05 1.6324e-05
7.92929e-06 1.33216e-05 1.49484e-05
1.79371e-06 8.58761e-07 -4.55235e-06
1.73785e-06 -8.25128e-07 -4.4609e-06
4.31961e-07 1.84966e-06 -4.49522e-06
4.36105e-07 -1.78066e-06 -4.35619e-06
-1.84752e-06 2.09636e-08 -4.42246e-06
-1.12311e-06 -1.3089e-06 -4.15109e-06
-1.15923e-06 1.30682e-06 -4.19987e-06
-2.25135e-05 -7.28786e-06 -1.70002e-05
-2.21969e-05 7.37175e-06 -1.69689e-05
-4.86053e-06 2.2899e-05 -1.69373e-05
-4.85804e-06 -2.31321e-05 -1.69642e-05
1.74216e-05 1.56358e-05 -1.69301e-05
1.75692e-05 -1.55368e-05 -1.69394e-05
2.1074e-05 3.16396e-06 -1.63247e-05
-1.39535e-05 1.71516e-05 -1.64787e-05
-1.35915e-05 -1.67416e-05 -1.64102e-05
7.76801e-06 1.982e-05 -1.63315e-05
7.68503e-06 -2.03104e-05 -1.64028e-05
2.14728e-05 -3.44382e-06 -1.64005e-05
-2.11032e-05 6.58811e-09 -1.6247e-05
-2.24208e-05 1.1e-05 -1.74539e-05
-1.87513e-05 9.2549e-06 -1.66273e-05
-1.79832e-05 5.79558e-06 -1.60366e-05
-1.49843e-05 7.4485e-06 -1.54866e-05
-1.42248e-05 4.30782e-06 -1.48299e-05
-1.15329e-05 5.74401e-06 -1.40949e-05
-1.08583e-05 3.0688e-06 -1.33738e-05
-8.40067e-06 4.30497e-06 -1.24045e-05
-9.059e-06 7.01356e-06 -1.34565e-05
-6.20424e-06 5.48863e-06 -1.16891e-05
-6.82845e-06 8.24962e-06 -1.30801e-05
-4.28149e-06 6.67505e-06 -1.14506e-05
-4.80012e-06 9.61014e-06 -1.30941e-05
-2.40092e-06 7.99352e-06 -1.17231e-05
-2.81291e-06 1.11675e-05 -1.34751e-05
-4.75421e-07 9.5955e-06 -1.25011e-05
-7.38371e-07 1.29972e-05 -1.41419e-05
1.73112e-06 1.1518e-05 -1.35352e-05
-5.53481e-06 1.27007e-05 -1.44371e-05
1.68512e-06 8.22415e-06 -1.17477e-05
4.00427e-06 1.01211e-05 -1.31511e-05
3.70543e-06 7.0981e-06 -1.14784e-05
6.06754e-06 8.96687e-06 -1.31135e-05
5.76694e-06 6.10692e-06 -1.17357e-05
8.35827e-06 8.0205e-06 -1.34922e-05
8.10583e-06 5.19538e-06 -1.25005e-05
1.09542e-05 7.09721e-06 -1.41472e-05
1.07462e-05 4.32289e-06 -1.34992e-05
8.53072e-06 1.10377e-05 -1.4461e-05
7.93786e-06 2.6438e-06 -1.17276e-05
1.06462e-05 1.73724e-06 -1.31042e-05
7.94886e-06 3.58768e-07 -1.14557e-05
1.08066e-05 -7.5913e-07 -1.31243e-05
8.11182e-06 -1.93784e-06 -1.17093e-05
1.10985e-05 -3.31293e-06 -1.34841e-05
8.46992e-06 -4.42408e-06 -1.24442e-05
1.1504e-05 -6.00302e-06 -1.41096e-05
8.95577e-06 -7.13827e-06 -1.34282e-05
6.14766e-06 -5.49454e-06 -1.16414e-05
6.64465e-06 -8.30105e-06 -1.30184e-05
4.10529e-06 -6.58865e-06 -1.13111e-05
4.52346e-06 -9.55108e-06 -1.29885e-05
2.24234e-06 -7.85846e-06 -1.15975e-05
2.48489e-06 -1.10021e-05 -1.33511e-05
2.25295e-07 -9.3739e-06 -1.23538e-05
3.3002e-07 -1.27701e-05 -1.4034e-05
-1.91548e-06 -1.1151e-05 -1.33772e-05
-1.84111e-06 -7.92179e-06 -1.15823e-05
-4.16799e-06 -9.87508e-06 -1.30852e-05
-3.81402e-06 -6.73065e-06 -1.13173e-05
-6.34577e-06 -8.66222e-06 -1.30995e-05
-5.89143e-06 -5.69814e-06 -1.16286e-05
-8.49992e-06 -7.43597e-06 -1.33799e-05
-8.16773e-06 -4.72817e-06 -1.24088e-05
-1.10959e-05 -6.40292e-06 -1.40701e-05
-4.37176e-06 -1.31235e-05 -1.44339e-05
-1.08091e-05 -3.65077e-06 -1.34394e-05
7.22629e-06 -1.1373e-05 -1.42732e-05
-7.74188e-06 1.98273e-06 -1.14931e-05
-1.32164e-05 1.03508e-06 -1.42112e-05
1.72916e-06 1.50832e-05 -1.49525e-05
1.37684e-05 4.62249e-07 -1.4388e-05
1.38435e-05 6.10025e-06 -1.4932e-05
-9.6943e-06 1.01965e-05 -1.45328e-05
-5.41613e-06 -3.19773e-06 -1.01823e-05
-1.17139e-05 -9.29756e-06 -1.48895e-05
1.18827e-05 -8.76042e-06 -1.47874e-05
1.47821e-05 -7.47379e-06 -1.54036e-05
-1.39601e-05 -5.24402e-06 -1.4862e-05
2.79589e-06 -1.45165e-05 -1.47965e-05
4.24571e-07 -1.64998e-05 -1.53981e-05
3.51851e-06 4.39704e-06 -9.58132e-06
1.40109e-05 9.29929e-06 -1.54919e-05
1.79312e-05 8.14516e-06 -1.63009e-05
-1.56758e-05 1.13956e-05 -1.62338e-05
-1.09411e-06 1.67695e-05 -1.54956e-05
1.9069e-06 1.96221e-05 -1.63113e-05
-2.09192e-06 5.2202e-06 -9.59782e-06
5.55407e-06 -7.84622e-07 -9.59437e-06
3.58604e-06 -3.68365e-06 -9.08219e-06
-1.77968e-06 -5.17869e-06 -9.44983e-06
-2.24693e-05 -1.10111e-05 -1.74746e-05
-1.87986e-05 -9.24165e-06 -1.66514e-05
2.11483e-05 1.41651e-05 -1.75059e-05
2.07543e-05 -1.43179e-05 -1.74359e-05
-1.76463e-06 -2.54471e-05 -1.75112e-05
-1.68216e-06 2.54111e-05 -1.75159e-05
1.77134e-05 -1.19072e-05 -1.66875e-05
2.06462e-05 -1.07513e-05 -1.71163e-05
3.77573e-06 -1.89856e-05 -1.61397e-05
7.68545e-07 -2.03463e-05 -1.64832e-05
-1.94055e-05 -1.26508e-05 -1.71435e-05
-1.37314e-05 -2.30698e-06 -1.44722e-05
-1.65931e-05 -3.70152e-06 -1.54779e-05
-1.03761e-05 -1.09641e-06 -1.29524e-05
2.44526e-05 1.10731e-05 -1.76519e-05
2.54981e-05 -1.24035e-05 -1.78484e-05
2.64928e-06 2.67266e-05 -1.76608e-05
2.52103e-06 -2.64142e-05 -1.76297e-05
3.33953e-06 -2.30324e-05 -1.70294e-05
-2.05394e-06 -1.83203e-05 -1.59512e-05
4.05914e-06 2.37919e-05 -1.71307e-05
2.26147e-05 8.37947e-06 -1.71196e-05
4.61371e-06 1.73138e-05 -1.57276e-05
1.44273e-05 -1.31198e-05 -1.61377e-05
-1.5788e-05 -1.0985e-05 -1.62149e-05
-1.68002e-05 -3.81438e-07 -1.53777e-05
1.73063e-05 4.68759e-06 -1.5726e-05
6.5523e-08 -6.38745e-06 -1.02677e-05
1.74175e-06 -4.84856e-06 -9.09269e-06
5.85059e-06 -2.93557e-06 -1.03784e-05
-2.14447e-05 3.7506e-06 -1.64592e-05
5.72949e-06 -1.62749e-05 -1.5508e-05
9.08367e-06 -1.74994e-05 -1.59978e-05
1.75726e-05 1.18819e-05 -1.66726e-05
1.39945e-05 -1.63826e-05 -1.64015e-05
1.07402e-05 -1.37893e-05 -1.55504e-05
-3.54804e-06 -4.22028e-06 -9.50098e-06
5.39923e-06 1.13852e-06 -9.49926e-06
5.21816e-06 3.22294e-06 -1.00475e-05
-1.7498e-06 -2.83551e-05 -1.78771e-05
1.8921e-06 5.299e-06 -9.58466e-06
-1.13826e-07 6.10513e-06 -1.0039e-05
-3.785e-06 4.12782e-06 -9.57862e-06
-5.62279e-06 3.03425e-06 -1.02855e-05
-5.16557e-06 1.04069e-06 -9.21381e-06
-7.5274e-06 -6.17405e-08 -1.11726e-05
-4.33446e-06 -8.10293e-07 -8.38204e-06
-3.10864e-06 1.87237e-06 -7.37423e-06
-2.20816e-05 -3.60785e-06 -1.65161e-05
2.34067e-05 -1.56882e-05 -1.78364e-05
-1.50723e-06 2.11683e-05 -1.66823e-05
2.12621e-05 -8.45218e-08 -1.62261e-05
1.76225e-05 -1.64684e-06 -1.55817e-05
1.73481e-05 -4.94178e-06 -1.5771e-05
2.1892e-05 -7.45128e-06 -1.69139e-05
-2.31826e-05 -1.42548e-05 -1.7833e-05
1.7325e-05 1.64891e-06 -1.55088e-05
-1.73401e-06 2.84736e-05 -1.78944e-05
-4.22079e-07 3.68349e-06 -7.49547e-06
2.37724e-05 1.57426e-05 -1.78848e-05
-1.74977e-05 1.56425e-05 -1.69752e-05
-1.06265e-05 -1.84665e-05 -1.62554e-05
-1.00998e-05 -1.43426e-05 -1.5572e-05
-7.50794e-06 -1.60952e-05 -1.56224e-05
-7.32228e-06 -2.01209e-05 -1.63956e-05
-1.07047e-05 1.85356e-05 -1.62671e-05
-1.03476e-05 1.43844e-05 -1.56197e-05
-7.7728e-06 2.04929e-05 -1.64445e-05
-4.25308e-06 1.86101e-05 -1.60533e-05
1.07599e-05 1.83458e-05 -1.62265e-05
1.3892e-05 1.69353e-05 -1.64313e-05
1.40423e-05 1.29732e-05 -1.60516e-05
-7.36174e-06 1.62887e-05 -1.56388e-05
1.05254e-05 1.45473e-05 -1.56455e-05
7.74892e-06 1.60927e-05 -1.56142e-05
-3.11652e-06 -1.8988e-06 -7.39335e-06
-7.25781e-06 -1.24223e-05 -1.46255e-05
3.00872e-06 4.03609e-08 -6.60113e-06
4.87269e-06 1.3523e-05 -1.46184e-05
1.40763e-05 -2.26044e-06 -1.45708e-05
-1.72901e-05 -1.5217e-05 -1.69458e-05
-1.73669e-05 2.42036e-06 -1.55981e-05
-1.2205e-05 8.91214e-06 -1.49438e-05
-7.7058e-06 -2.29257e-06 -1.15549e-05
-1.24501e-05 1.18129e-05 -1.55403e-05
-1.42738e-07 -3.7543e-06 -7.55436e-06
2.73028e-06 2.27212e-06 -7.2521e-06
-2.00391e-06 -1.46508e-05 -1.48084e-05
9.36531e-06 -1.00685e-05 -1.43897e-05
1.38611e-05 3.15789e-06 -1.45664e-05
-7.34021e-06 1.11996e-05 -1.42606e-05
4.99734e-06 -1.27751e-05 -1.43696e-05
1.10321e-05 1.04308e-05 -1.492e-05
-3.59653e-06 1.46856e-05 -1.49084e-05
-4.63558e-06 -1.66173e-05 -1.55492e-05
-1.95075e-05 1.28927e-05 -1.71616e-05
-2.31274e-05 1.48585e-05 -1.78437e-05
-1.29052e-05 -1.26864e-05 -1.58129e-05
3.76088e-06 -1.58616e-06 -7.90714e-06
1.76443e-06 2.92234e-06 -7.08461e-06
-9.2307e-06 -1.06097e-05 -1.45321e-05
1.72778e-06 -2.82321e-06 -6.93124e-06
9.94745e-07 2.41174e-05 -1.73088e-05
2.13685e-05 1.11941e-05 -1.7299e-05
-1.4665e-05 -7.95358e-06 -1.54857e-05
1.37084e-05 -4.78644e-06 -1.4691e-05
-1.90992e-06 -2.17635e-05 -1.68031e-05
1.80608e-05 -8.41927e-06 -1.63411e-05
-1.66793e-05 -6.32873e-06 -1.57828e-05
-4.32909e-07 -1.92236e-06 -4.79859e-06
-1.80541e-06 2.9955e-06 -7.17736e-06
-2.50525e-05 -1.29821e-05 -1.79226e-05
-2.51277e-05 -1.45076e-05 -1.80024e-05
-2.50457e-05 1.3034e-05 -1.79063e-05
-2.51186e-05 1.46503e-05 -1.79825e-05
-1.64849e-06 -3.12491e-06 -7.21009e-06
6.32811e-06 1.13687e-05 -1.40769e-05
5.33718e-07 -2.40867e-05 -1.73026e-05
-5.22788e-07 1.80958e-06 -4.64513e-06
7.40765e-06 -1.4344e-05 -1.51527e-05
2.33034e-05 -1.32096e-05 -1.77291e-05
2.36332e-05 -1.05378e-05 -1.74912e-05
1.19887e-05 -1.82114e-05 -1.62937e-05
1.47305e-05 -1.01469e-05 -1.5796e-05
-1.00273e-05 1.00127e-06 -1.2755e-05
-1.74005e-06 -8.15918e-07 -4.72357e-06
7.69081e-07 3.70843e-06 -7.57334e-06
2.34312e-06 -1.9972e-06 -6.55546e-06
2.0157e-05 5.89799e-06 -1.6454e-05
5.07021e-06 2.05965e-05 -1.64964e-05
3.42119e-07 -2.76807e-05 -1.78543e-05
-1.73126e-06 7.09126e-07 -4.60644e-06
-3.21158e-06 6.23061e-07 -6.82432e-06
3.57729e-06 1.47545e-06 -7.63682e-06
4.99228e-07 2.83245e-05 -1.79276e-05
2.47609e-05 1.37344e-05 -1.79187e-05
-2.03289e-05 1.55362e-05 -1.74294e-05
1.17873e-06 1.3645e-06 -4.45997e-06
-2.06401e-05 -1.57288e-05 -1.7528e-05
-1.89994e-05 -2.32225e-06 -1.59466e-05
-1.95597e-05 -5.58514e-06 -1.63326e-05
9.05702e-07 -3.24783e-06 -7.00628e-06
-4.36613e-06 -1.97898e-05 -1.63222e-05
-7.93749e-06 1.38348e-05 -1.51015e-05
1.16577e-06 -1.30421e-06 -4.3394e-06
1.19348e-05 -1.12287e-05 -1.52926e-05
6.1332e-06 -2.26967e-05 -1.68209e-05
-1.45225e-05 1.43557e-05 -1.6324e-05
7.92929e-06 1.33216e-05 -1.49484e-05
SCALARS effective_fluid_pressure_TPM float
LOOKUP_TABLE default
665
665
665
665
665
665
665
665
665
665
665
665
665
665
133
665
665
665
665
665
665
665
665
665
665
665
665
665
665
133
665
560.326
520.673
502.815
502.585
519.799
559.946
665
561.992
520.768
503.257
503.367
520.7
561.614
665
559.613
519.67
502.759
502.977
521.168
561.63
665
558.869
519.014
501.548
502.244
518.864
559.458
665
558.509
519.954
501.88
501.812
519.387
557.949
665
558.666
519.968
502.053
501.914
519.375
559.672
133
133
133
133
133
133
665
560.326
520.673
502.815
502.585
519.799
559.946
665
561.992
520.768
503.257
503.367
520.7
561.614
665
559.613
519.67
502.759
502.977
521.168
561.63
665
558.869
519.014
501.548
502.244
518.864
559.458
665
558.509
519.954
501.88
501.812
519.387
557.949
665
558.666
519.968
502.053
501.914
519.375
559.672
133
133
133
133
133
133
228.26
226.33
227.043
224.112
225.527
219.849
220.865
529.172
528.182
526.561
527.94
526.588
527.642
498.71
503.557
501.595
498.951
501.467
501.249
494.331
562.507
518.986
495.034
480.74
461.361
443.28
425.048
402.122
427.273
385.267
417.741
379.614
417.904
385.952
427.389
404.3
444.384
429.079
450.261
386.561
419.304
380.209
418.315
386.192
427.763
404.228
444.494
428.163
450.857
386.036
418.167
379.625
418.523
385.559
427.599
402.921
443.557
426.454
384.053
416.14
376.309
415.347
383.025
424.42
400.847
441.706
425.228
382.761
417.78
376.573
418.098
383.847
425.268
402.214
442.679
450.651
426.728
446.009
380.734
444.675
465.29
448.743
464.764
453.412
350.908
463.505
461.037
478.444
462.773
460.643
478.348
337.283
480.82
505.852
503.611
480.886
506.158
337.695
337.507
326.17
334.421
563.383
519.662
567.584
562.37
567.901
567.754
521.81
542.721
498.624
513.735
542.066
451.454
477.571
414.658
579.524
611.032
579.677
576.038
534.556
494.474
538.229
537.926
485.031
498.11
503.328
473.133
485.079
352.753
326.421
355.182
503.438
477.71
488.353
520.879
502.021
477.908
335.546
335.41
347.705
613.449
337.384
347.576
337.27
353.209
329.194
373.261
310.665
288.792
504.704
608.384
521.1
493.715
478.32
486.348
526.495
600.344
476.557
615.902
291.401
615.801
528.723
494.527
478.227
479.402
501.308
494.833
479.428
502.504
495.167
493.737
502.256
495.241
479.875
480.041
479.043
289.298
454.583
271.946
454.991
453.62
527.004
479.464
465.214
382.103
480.5
292.674
286.086
461.47
449.624
453.968
445.846
448.68
463.595
463.252
479.944
543.461
601.705
487.484
300.306
282.465
453.004
279.167
552.243
552.002
480.766
458.009
526.226
508.178
488.581
233.732
284.562
614.509
636.323
615.143
636.68
285.284
441.331
553.083
230.488
467.543
590.267
566.035
495.806
490.04
410.036
232.122
293.1
271.13
507.887
509.184
607.817
229.665
276.98
294.435
618.881
618.794
558.516
226.524
562.529
488.304
503.386
280.851
504.057
466.369
224.009
473.576
519.572
502.972
462.435
228.26
226.33
227.043
224.112
225.527
219.849
220.865
529.172
528.182
526.561
527.94
526.588
527.642
498.71
503.557
501.595
498.951
501.467
501.249
494.331
562.507
518.986
495.034
480.74
461.361
443.28
425.048
402.122
427.273
385.267
417.741
379.614
417.904
385.952
427.389
404.3
444.384
429.079
450.261
386.561
419.304
380.209
418.315
386.192
427.763
404.228
444.494
428.163
450.857
386.036
418.167
379.625
418.523
385.559
427.599
402.921
443.557
426.454
384.053
416.14
376.309
415.347
383.025
424.42
400.847
441.706
425.228
382.761
417.78
376.573
418.098
383.847
425.268
402.214
442.679
450.651
426.728
446.009
380.734
444.675
465.29
448.743
464.764
453.412
350.908
463.505
461.037
478.444
462.773
460.643
478.348
337.283
480.82
505.852
503.611
480.886
506.158
337.695
337.507
326.17
334.421
563.383
519.662
567.584
562.37
567.901
567.754
521.81
542.721
498.624
513.735
542.066
451.454
477.571
414.658
579.524
611.032
579.677
576.038
534.556
494.474
538.229
537.926
485.031
498.11
503.328
473.133
485.079
352.753
326.421
355.182
503.438
477.71
488.353
520.879
502.021
477.908
335.546
335.41
347.705
613.449
337.384
347.576
337.27
353.209
329.194
373.261
310.665
288.792
504.704
608.384
521.1
493.715
478.32
486.348
526.495
600.344
476.557
615.902
291.401
615.801
528.723
494.527
478.227
479.402
501.308
494.833
479.428
502.504
495.167
493.737
502.256
495.241
479.875
480.041
479.043
289.298
454.583
271.946
454.991
453.62
527.004
479.464
465.214
382.103
480.5
292.674
286.086
461.47
449.624
453.968
445.846
448.68
463.595
463.252
479.944
543.461
601.705
487.484
300.306
282.465
453.004
279.167
552.243
552.002
480.766
458.009
526.226
508.178
488.581
233.732
284.562
614.509
636.323
615.143
636.68
285.284
441.331
553.083
230.488
467.543
590.267
566.035
495.806
490.04
410.036
232.122
293.1
271.13
507.887
509.184
607.817
229.665
276.98
294.435
618.881
618.794
558.516
226.524
562.529
488.304
503.386
280.851
504.057
466.369
224.009
473.576
519.572
502.972
462.435

CELL_DATA 563
TENSORS stress float
164.615 -24.9207 2.19795e-12
-24.9207 28.1498 -2.73559e-12
2.19795e-12 -2.73559e-12 -12.6031

-40.3389 -21.3204 -5.24891e-12
-21.3204 -7.35477 -2.26841e-12
-5.24891e-12 -2.26841e-12 -10.2325

-9.94075 28.0441 9.68114e-13
28.0441 -1.11075 4.72215e-13
9.68114e-13 4.72215e-13 -6.36113

-40.4269 -29.8426 7.39112e-13
-29.8426 -12.8458 -1.18572e-12
7.39112e-13 -1.18572e-12 -10.5988

-22.692 19.9309 -2.36403e-12
19.9309 -1.92384 -6.80078e-12
-2.36403e-12 -6.80078e-12 -23.021

-27.1406 -18.075 9.03722e-13
-18.075 15.8879 8.0469e-13
9.03722e-13 8.0469e-13 -6.41192

161.266 26.4849 4.59011e-12
26.4849 28.0264 -5.37999e-12
4.59011e-12 -5.37999e-12 -13.2621

-5.96194 29.9584 -4.39767e-12
29.9584 -10.1124 2.52568e-12
-4.39767e-12 2.52568e-12 -7.27703

34.6317 5.48328 -4.54747e-13
5.48328 -19.0961 -2.53645e-12
-4.54747e-13 -2.53645e-12 -4.12295

11.8602 -7.47759 2.41555e-12
-7.47759 -48.2875 -1.41983e-12
2.41555e-12 -1.41983e-12 -8.94772

104.197 16.3091 -4.41958e-12
16.3091 -8.44363 -4.73162e-12
-4.41958e-12 -4.73162e-12 -22.4541

-34.6383 -13.4535 2.56935e-12
-13.4535 18.9657 -4.44504e-12
2.56935e-12 -4.44504e-12 -7.1813

-6.02655 27.8337 1.07943e-12
27.8337 -4.59172 1.93801e-12
1.07943e-12 1.93801e-12 -6.15994

-35.5525 -14.3404 3.70216e-12
-14.3404 7.84501 -6.80937e-14
3.70216e-12 -6.80937e-14 -9.13202

-23.6537 33.3105 -1.49421e-12
33.3105 -24.9936 3.2457e-12
-1.49421e-12 3.2457e-12 -21.3648

21.311 0.561011 6.59028e-13
0.561011 -32.3394 2.7286e-12
6.59028e-13 2.7286e-12 -5.59047

-48.9598 -17.969 8.02515e-13
-17.969 6.34273 -5.7699e-12
8.02515e-13 -5.7699e-12 -12.9466

11.6602 -2.6652 1.05012e-12
-2.6652 -43.2498 -2.74255e-12
1.05012e-12 -2.74255e-12 -8.03439

-11.3508 26.6747 -4.44089e-13
26.6747 19.5172 2.21808e-12
-4.44089e-13 2.21808e-12 -6.09032

21.7656 -4.19573 -2.68467e-12
-4.19573 -35.2959 6.24686e-14
-2.68467e-12 6.24686e-14 -6.74216

-24.4803 8.66896 2.57098e-12
8.66896 32.1278 -4.24786e-12
2.57098e-12 -4.24786e-12 -4.93507

-11.8086 6.28708 -1.68423e-12
6.28708 -11.9726 -4.66146e-13
-1.68423e-12 -4.66146e-13 -75.6153

22.7434 1.87602 -3.77653e-12
1.87602 -33.4703 -8.30669e-13
-3.77653e-12 -8.30669e-13 -6.67813

-12.3888 -27.716 1.59339e-12
-27.716 1.59928 4.78314e-12
1.59339e-12 4.78314e-12 -6.6036

21.3045 6.84956 -2.17663e-12
6.84956 -34.3054 -1.45957e-13
-2.17663e-12 -1.45957e-13 -6.80738

-37.9061 19.1132 2.21312e-12
19.1132 2.65387 1.09601e-12
2.21312e-12 1.09601e-12 -9.4584

106.606 4.18153 -5.37407e-12
4.18153 20.603 -3.52015e-13
-5.37407e-12 -3.52015e-13 -12.049

-5.30236 30.7466 -2.07597e-12
30.7466 -7.27297 3.99562e-12
-2.07597e-12 3.99562e-12 -7.44239

27.8901 37.0758 1.01489e-12
37.0758 26.4693 3.32771e-13
1.01489e-12 3.32771e-13 -8.63278

-9.43913 10.3235 -2.08722e-13
10.3235 -32.9284 -4.78421e-12
-2.08722e-13 -4.78421e-12 -49.5059

19.8308 14.217 -1.88708e-12
14.217 -29.3601 -1.70145e-12
-1.88708e-12 -1.70145e-12 -6.00168

-4.2113 -17.7811 3.13912e-12
-17.7811 59.6589 2.70717e-12
3.13912e-12 2.70717e-12 -8.47668

66.2849 -42.103 9.71075e-14
-42.103 71.1402 3.66877e-12
9.71075e-14 3.66877e-12 -11.2516

-48.2092 5.98629 3.4348e-12
5.98629 7.2694 -5.00015e-12
3.4348e-12 -5.00015e-12 -41.0356

-26.2909 -4.83997 -1.92468e-12
-4.83997 1.75667 2.37529e-12
-1.92468e-12 2.37529e-12 -37.8006

-1.46714 21.0277 -1.52056e-12
21.0277 -39.5055 -3.71421e-12
-1.52056e-12 -3.71421e-12 -41.1014

-43.9742 5.06679 -6.72247e-12
5.06679 0.514157 1.1043e-13
-6.72247e-12 1.1043e-13 -52.1881

-2.7605 -9.17027 9.53075e-12
-9.17027 -20.7692 3.11984e-12
9.53075e-12 3.11984e-12 -35.8952

-3.97479 -27.9988 -5.01762e-12
-27.9988 -4.61076 5.45934e-13
-5.01762e-12 5.45934e-13 -5.99529

65.5986 41.5222 -3.54798e-12
41.5222 73.1679 -2.20268e-12
-3.54798e-12 -2.20268e-12 -10.9634

60.1564 -17.9497 3.45797e-12
-17.9497 0.116077 -2.33709e-12
3.45797e-12 -2.33709e-12 -8.05061

-41.8021 -3.70545 5.98736e-12
-3.70545 -1.18566 -8.34444e-13
5.98736e-12 -8.34444e-13 -52.7229

-14.593 19.5545 3.12076e-12
19.5545 -28.5509 5.29354e-13
3.12076e-12 5.29354e-13 -52.8311

18.1412 -12.2734 -3.45679e-12
-12.2734 -29.9 4.29286e-14
-3.45679e-12 4.29286e-14 -6.22385

38.1737 -43.3005 -2.59467e-12
-43.3005 41.8019 2.83743e-12
-2.59467e-12 2.83743e-12 -14.5593

58.145 -18.064 -3.42008e-12
-18.064 -2.30374 1.758e-12
-3.42008e-12 1.758e-12 -7.91426

-21.4432 17.0862 2.05613e-13
17.0862 30.3274 2.10498e-12
2.05613e-13 2.10498e-12 -5.72921

-11.3736 19.3396 -9.92095e-13
19.3396 25.5107 1.86221e-12
-9.92095e-13 1.86221e-12 -3.92257

20.7911 -16.3014 -4.09746e-13
-16.3014 -33.1155 1.68902e-12
-4.09746e-13 1.68902e-12 -7.31252

12.6149 -34.1866 -2.06946e-12
-34.1866 46.4362 -1.65083e-12
-2.06946e-12 -1.65083e-12 -10.3978

62.3613 19.1825 -4.18036e-13
19.1825 2.8095 -7.59097e-13
-4.18036e-13 -7.59097e-13 -8.41448

46.5142 -25.2892 1.20319e-12
-25.2892 5.13329 4.58211e-12
1.20319e-12 4.58211e-12 -5.61071

-31.8961 19.4851 4.58004e-13
19.4851 -4.28525 -4.68366e-12
4.58004e-13 -4.68366e-12 -26.0848

37.0394 29.6504 -6.10475e-12
29.6504 14.5123 -1.20792e-13
-6.10475e-12 -1.20792e-13 -5.43313

-27.4493 -21.8127 -7.28573e-12
-21.8127 -8.22918 1.26716e-12
-7.28573e-12 1.26716e-12 -25.2473

64.8699 -42.7125 4.52379e-12
-42.7125 44.0808 3.1702e-12
4.52379e-12 3.1702e-12 -9.50217

-27.7492 5.45896 -5.58783e-12
5.45896 2.66921 -2.21393e-12
-5.58783e-12 -2.21393e-12 -38.3062

-5.55887 -5.32999 1.0069e-12
-5.32999 57.389 -2.25242e-12
1.0069e-12 -2.25242e-12 -5.45016

-0.200786 10.3844 -2.50999e-12
10.3844 -24.8472 -7.90812e-13
-2.50999e-12 -7.90812e-13 -38.3678

-26.4863 21.4136 1.67481e-12
21.4136 12.2194 -1.94274e-12
1.67481e-12 -1.94274e-12 -6.87057

4.72611 5.75418 -1.91787e-12
5.75418 -56.0401 1.36898e-12
-1.91787e-12 1.36898e-12 -13.9813

0.540046 11.4589 -1.91358e-12
11.4589 -34.0569 -3.5761e-12
-1.91358e-12 -3.5761e-12 -14.8399

106.346 31.8206 -4.68011e-12
31.8206 37.8335 -2.67046e-12
-4.68011e-12 -2.67046e-12 -7.4894

-35.4922 -6.03548 3.44717e-12
-6.03548 10.6012 -5.1544e-12
3.44717e-12 -5.1544e-12 -13.4791

-35.3602 9.51999 -1.04953e-13
9.51999 1.23374 1.81307e-12
-1.04953e-13 1.81307e-12 -14.9601

-42.5884 -2.88105 3.35006e-12
-2.88105 21.1108 -6.00645e-12
3.35006e-12 -6.00645e-12 -11.2393

-44.9082 23.4018 8.18827e-13
23.4018 -5.89262 7.60873e-14
8.18827e-13 7.60873e-14 -13.9222

9.97101 8.46373 -3.85262e-12
8.46373 -42.3789 -4.07082e-13
-3.85262e-12 -4.07082e-13 -9.07864

-12.3352 -28.2401 1.47142e-13
-28.2401 1.68688 -3.35139e-13
1.47142e-13 -3.35139e-13 -6.67477

1.30884 -1.71133 -1.24878e-12
-1.71133 -55.4566 -1.9628e-12
-1.24878e-12 -1.9628e-12 -11.3046

-31.8856 -19.2611 -4.76597e-12
-19.2611 -4.59458 1.14368e-12
-4.76597e-12 1.14368e-12 -25.9542

-27.9747 21.3078 -3.04349e-12
21.3078 -8.35897 -4.58115e-13
-3.04349e-12 -4.58115e-13 -26.0126

-0.652678 -16.584 2.78311e-12
-16.584 61.6748 2.42769e-13
2.78311e-12 2.42769e-13 -7.94945

-0.650212 -27.9364 4.08562e-13
-27.9364 -21.3617 -4.68662e-13
4.08562e-13 -4.68662e-13 -12.7913

-14.0938 -25.1352 2.56032e-12
-25.1352 7.40666 5.03656e-12
2.56032e-12 5.03656e-12 -5.23679

91.6803 -31.7115 1.02081e-12
-31.7115 19.4852 4.63629e-12
1.02081e-12 4.63629e-12 -16.3329

-33.7067 3.22278 -4.90511e-12
3.22278 9.19966 -7.25938e-13
-4.90511e-12 -7.25938e-13 -18.5633

2.7517 28.9442 2.95586e-12
28.9442 -24.425 2.41525e-12
2.95586e-12 2.41525e-12 -11.3169

-38.4343 19.6644 4.85108e-12
19.6644 5.2296 8.52355e-13
4.85108e-12 8.52355e-13 -9.23589

50.1914 7.9998 2.60769e-12
7.9998 -16.9653 1.49569e-12
2.60769e-12 1.49569e-12 -7.06766

60.0326 -33.9366 -8.3844e-13
-33.9366 33.7871 5.07564e-12
-8.3844e-13 5.07564e-12 -6.98397

-18.9608 -10.5873 -3.33777e-12
-10.5873 -0.541335 5.61921e-13
-3.33777e-12 5.61921e-13 -25.4304

-33.926 23.8997 1.38615e-12
23.8997 -12.0237 2.37336e-12
1.38615e-12 2.37336e-12 -14.5406

58.1574 -32.3848 2.02505e-12
-32.3848 18.0912 1.69938e-12
2.02505e-12 1.69938e-12 -10.1341

66.861 10.7914 2.14584e-12
10.7914 8.51259 -5.17023e-12
2.14584e-12 -5.17023e-12 -5.08485

7.67375 -21.2066 4.4776e-12
-21.2066 88.4667 1.54804e-11
4.4776e-12 1.54804e-11 -11.8624

-33.987 14.4259 2.81582e-12
14.4259 20.2383 -3.75048e-12
2.81582e-12 -3.75048e-12 -7.54722

8.47519 23.1435 9.81141e-13
23.1435 -26.0744 1.65734e-12
9.81141e-13 1.65734e-12 -11.2995

34.8692 42.2 5.66066e-13
42.2 46.2002 -9.20153e-13
5.66066e-13 -9.20153e-13 -14.4207

-4.3944 16.5065 -5.55371e-12
16.5065 -35.5401 8.00323e-12
-5.55371e-12 8.00323e-12 -73.2823

-5.98099 -4.1085 1.79412e-13
-4.1085 57.9495 -3.17376e-12
1.79412e-13 -3.17376e-12 -5.44236

-1.81898 -16.6317 5.97137e-12
-16.6317 -39.4 1.13499e-11
5.97137e-12 1.13499e-11 -74.1056

-3.32982 -27.3349 4.3876e-13
-27.3349 -30.0296 -1.26166e-12
4.3876e-13 -1.26166e-12 -21.5538

8.96688 27.4248 3.75226e-12
27.4248 -29.9956 -2.95171e-13
3.75226e-12 -2.95171e-13 -11.2576

45.7119 -24.4114 -1.5099e-12
-24.4114 5.0236 -3.47426e-12
-1.5099e-12 -3.47426e-12 -5.23678

10.0948 31.3243 3.67824e-12
31.3243 47.164 1.55727e-12
3.67824e-12 1.55727e-12 -9.64091

14.2721 -10.7054 6.18646e-12
-10.7054 82.8407 -2.92744e-12
6.18646e-12 -2.92744e-12 -6.44726

-38.6333 21.9709 1.22051e-12
21.9709 2.94141 -1.72988e-12
1.22051e-12 -1.72988e-12 -8.56975

1.19287 16.7944 -9.41469e-14
16.7944 -25.7227 5.08749e-12
-9.41469e-14 5.08749e-12 -18.5674

-26.5387 15.1543 3.51201e-12
15.1543 18.4494 -3.05178e-12
3.51201e-12 -3.05178e-12 -5.7088

43.6595 15.9543 7.17648e-13
15.9543 -7.28613 7.4459e-14
7.17648e-13 7.4459e-14 -4.07592

12.5765 -21.4732 -6.81529e-13
-21.4732 57.9567 -2.62072e-12
-6.81529e-13 -2.62072e-12 -4.71454

65.9978 -29.3915 -1.32398e-12
-29.3915 18.6435 -6.19771e-12
-1.32398e-12 -6.19771e-12 -9.33554

-32.3815 -24.5733 8.0691e-13
-24.5733 -7.28198 3.19744e-13
8.0691e-13 3.19744e-13 -8.97711

-22.6674 27.4514 -8.35776e-13
27.4514 -10.3507 -1.21828e-12
-8.35776e-13 -1.21828e-12 -9.28468

-38.3514 23.1878 -8.25266e-13
23.1878 1.99094 5.63697e-13
-8.25266e-13 5.63697e-13 -8.52565

-51.5535 13.169 -3.55916e-12
13.169 11.9266 -2.36315e-12
-3.55916e-12 -2.36315e-12 -16.4665

23.4848 9.3724 1.75682e-12
9.3724 -29.4888 5.88004e-12
1.75682e-12 5.88004e-12 -5.32233

3.76801 -4.66518 1.14279e-13
-4.66518 79.4399 3.97904e-12
1.14279e-13 3.97904e-12 -9.53169

-44.9394 -36.8327 -3.55567e-12
-36.8327 -19.8287 3.84729e-13
-3.55567e-12 3.84729e-13 -14.771

-16.0804 27.466 -5.1541e-12
27.466 1.34058 1.47378e-12
-5.1541e-12 1.47378e-12 -6.91559

-5.01608 2.17036 -5.25839e-12
2.17036 82.6755 -1.42819e-12
-5.25839e-12 -1.42819e-12 -13.4314

69.0469 34.6114 -1.71478e-12
34.6114 15.4965 3.57699e-12
-1.71478e-12 3.57699e-12 -10.7061

-31.3525 -22.9743 -3.04083e-12
-22.9743 -4.63272 1.07174e-13
-3.04083e-12 1.07174e-13 -8.53068

11.743 5.73295 -1.59872e-12
5.73295 -48.3363 -4.37428e-14
-1.59872e-12 -4.37428e-14 -8.64205

43.0662 27.2049 -4.02404e-12
27.2049 10.4515 -3.51896e-12
-4.02404e-12 -3.51896e-12 -5.08149

-9.41401 12.7452 3.59194e-12
12.7452 -14.0396 -2.21364e-12
3.59194e-12 -2.21364e-12 -37.0387

70.336 24.3313 7.26412e-12
24.3313 23.8049 3.59949e-12
7.26412e-12 3.59949e-12 -6.79974

-10.5851 -13.0548 -1.08713e-12
-13.0548 -13.9214 -8.32194e-12
-1.08713e-12 -8.32194e-12 -37.3765

-4.38057 0.778576 6.29126e-14
0.778576 59.3991 -2.50466e-12
6.29126e-14 -2.50466e-12 -4.83133

38.3575 -2.23539 -4.85893e-12
-2.23539 -23.8122 -3.43695e-12
-4.85893e-12 -3.43695e-12 -5.83324

3.5935 -15.7675 -1.28297e-12
-15.7675 -53.9703 2.23673e-12
-1.28297e-12 2.23673e-12 -21.1239

-42.2774 24.3882 2.39994e-12
24.3882 -11.737 8.57092e-13
2.39994e-12 8.57092e-13 -11.1682

-46.8125 -13.5351 -2.20512e-12
-13.5351 11.0671 3.8618e-12
-2.20512e-12 3.8618e-12 -12.3543

5.80998 -7.99979 -4.68514e-13
-7.99979 -70.9667 -8.73227e-13
-4.68514e-13 -8.73227e-13 -14.8823

-49.5389 -22.2834 2.874e-12
-22.2834 3.74804 3.48758e-13
2.874e-12 3.48758e-13 -22.1039

-17.459 -6.59715 -1.92231e-12
-6.59715 -13.1157 -4.31847e-12
-1.92231e-12 -4.31847e-12 -34.7798

-28.73 -29.9083 -1.17447e-12
-29.9083 -9.39994 -2.8629e-13
-1.17447e-12 -2.8629e-13 -8.99675

15.6932 11.454 -3.96483e-12
11.454 80.1821 -1.42819e-12
-3.96483e-12 -1.42819e-12 -6.53091

42.2905 -28.1474 1.84978e-12
-28.1474 11.0504 -2.84809e-13
1.84978e-12 -2.84809e-13 -5.04474

-47.1704 -13.7716 -5.17519e-12
-13.7716 4.19619 -2.07005e-12
-5.17519e-12 -2.07005e-12 -29.2997

2.96473 0.504614 2.37721e-12
0.504614 -56.8122 -1.41553e-12
2.37721e-12 -1.41553e-12 -11.006

-39.3369 -21.5243 2.89591e-12
-21.5243 -8.8571 -2.73115e-12
2.89591e-12 -2.73115e-12 -14.7746

-40.1951 25.6979 7.45922e-13
25.6979 -14.6917 -2.5232e-12
7.45922e-13 -2.5232e-12 -11.3116

32.2606 -31.4654 2.99849e-12
-31.4654 38.4298 -3.87246e-13
2.99849e-12 -3.87246e-13 -4.64871

-31.4686 -7.08426 3.09515e-12
-7.08426 1.70076 -2.72108e-12
3.09515e-12 -2.72108e-12 -40.9905

36.6304 -33.0777 -3.45442e-12
-33.0777 72.0287 4.14483e-12
-3.45442e-12 4.14483e-12 -7.14483

16.6127 -19.18 6.33567e-13
-19.18 -25.8708 2.06324e-12
6.33567e-13 2.06324e-12 -7.13405

1.50249 1.97065 -1.45809e-13
1.97065 -51.3915 2.69118e-13
-1.45809e-13 2.69118e-13 -15.3745

-12.875 17.8748 -3.85884e-12
17.8748 -16.9553 6.84282e-12
-3.85884e-12 6.84282e-12 -41.0581

10.7126 20.1835 4.84945e-13
20.1835 59.4552 2.20268e-13
4.84945e-13 2.20268e-13 -4.3572

4.31795 27.211 4.15964e-12
27.211 -16.224 1.81455e-12
4.15964e-12 1.81455e-12 -8.12489

30.9047 -24.5122 5.05196e-12
-24.5122 -8.13333 4.47287e-12
5.05196e-12 4.47287e-12 -4.87305

-37.7882 -17.8388 -2.36873e-12
-17.8388 2.40081 2.9526e-12
-2.36873e-12 2.9526e-12 -9.86519

55.5146 35.0692 -3.34074e-12
35.0692 42.346 -1.74557e-12
-3.34074e-12 -1.74557e-12 -6.63651

-40.0155 -21.8312 -1.37298e-12
-21.8312 2.5368 -2.96148e-12
-1.37298e-12 -2.96148e-12 -9.3947

2.96627 30.8508 3.98555e-12
30.8508 -17.3892 3.77624e-12
3.98555e-12 3.77624e-12 -9.07896

18.5373 -25.2444 -3.51719e-13
-25.2444 -19.4189 -2.55233e-12
-3.51719e-13 -2.55233e-12 -6.34331

-15.6544 -25.1269 -2.48039e-12
-25.1269 5.89548 9.09495e-13
-2.48039e-12 9.09495e-13 -5.77642

42.7188 -18.6886 3.36205e-12
-18.6886 -9.16692 9.72259e-13
3.36205e-12 9.72259e-13 -5.36993

27.432 -18.8501 -5.515e-12
-18.8501 -20.3696 3.69601e-12
-5.515e-12 3.69601e-12 -5.69065

-41.3939 -25.3371 1.91447e-12
-25.3371 -14.9642 -2.50729e-12
1.91447e-12 -2.50729e-12 -11.5678

29.781 35.9704 -2.13992e-12
35.9704 25.2271 -1.6603e-12
-2.13992e-12 -1.6603e-12 -8.64489

-28.5189 15.3771 1.4615e-12
15.3771 18.5188 -6.03665e-12
1.4615e-12 -6.03665e-12 -5.87479

-23.1084 26.4226 -2.00936e-12
26.4226 -12.5472 2.9677e-12
-2.00936e-12 2.9677e-12 -9.95881

-42.097 25.4736 -4.92902e-13
25.4736 -11.5925 -3.28182e-13
-4.92902e-13 -3.28182e-13 -10.9935

-37.289 11.6218 -2.3819e-12
11.6218 11.8441 6.60035e-12
-2.3819e-12 6.60035e-12 -9.08112

64.3943 -8.22722 1.12858e-12
-8.22722 3.19687 4.48723e-12
1.12858e-12 4.48723e-12 -4.25135

8.73328 18.607 1.83675e-12
18.607 59.2209 4.01575e-12
1.83675e-12 4.01575e-12 -4.16282

-25.6154 -24.3809 1.59191e-12
-24.3809 0.45828 7.25346e-14
1.59191e-12 7.25346e-14 -7.21644

-1.14225 25.6665 8.82257e-14
25.6665 13.7522 3.1554e-12
8.82257e-14 3.1554e-12 -4.08354

32.3788 -35.6303 2.56151e-12
-35.6303 21.7 4.59188e-12
2.56151e-12 4.59188e-12 -8.48662

59.5373 38.3176 1.74083e-12
38.3176 17.8477 5.27578e-12
1.74083e-12 5.27578e-12 -13.7225

12.1247 -33.312 -7.56017e-12
-33.312 42.9139 -1.50635e-12
-7.56017e-12 -1.50635e-12 -9.54322

30.5514 -31.1604 2.68704e-12
-31.1604 36.8139 -1.337e-12
2.68704e-12 -1.337e-12 -4.40592

11.7689 -6.83864 5.40901e-13
-6.83864 -48.8383 -1.3376e-12
5.40901e-13 -1.3376e-12 -8.77087

25.2744 30.3426 -7.47254e-13
30.3426 41.0894 1.6307e-12
-7.47254e-13 1.6307e-12 -4.45643

62.6832 13.295 1.65438e-12
13.295 5.22746 -2.50881e-12
1.65438e-12 -2.50881e-12 -4.30593

-7.02682 13.3792 9.25482e-13
13.3792 61.3452 1.66267e-12
9.25482e-13 1.66267e-12 -8.69548

11.7291 -22.341 -1.63188e-12
-22.341 55.7641 -2.43479e-12
-1.63188e-12 -2.43479e-12 -4.30189

-47.2604 -1.09181 -3.10433e-12
-1.09181 12.4094 6.69094e-14
-3.10433e-12 6.69094e-14 -22.1616

-5.9201 2.24668 -7.00921e-13
2.24668 59.0053 -5.26986e-12
-7.00921e-13 -5.26986e-12 -5.26306

6.26808 31.0901 3.1708e-12
31.0901 47.8659 -7.91071e-13
3.1708e-12 -7.91071e-13 -9.66101

-39.7257 12.1081 -8.14617e-13
12.1081 12.8446 2.07656e-12
-8.14617e-13 2.07656e-12 -9.31355

40.7387 -27.6483 -6.2883e-13
-27.6483 8.35702 2.64263e-12
-6.2883e-13 2.64263e-12 -5.64255

7.53949 20.557 2.67046e-13
20.557 -47.467 -4.45688e-12
2.67046e-13 -4.45688e-12 -16.4819

-3.42147 26.2704 2.0132e-13
26.2704 -31.4863 2.74225e-12
2.0132e-13 2.74225e-12 -22.252

15.7773 -18.568 -4.22654e-12
-18.568 -30.014 -1.68695e-12
-4.22654e-12 -1.68695e-12 -8.18364

4.42835 -1.80185 7.66054e-13
-1.80185 -34.133 2.15354e-12
7.66054e-13 2.15354e-12 -24.4387

-14.3402 -31.8121 -1.66681e-13
-31.8121 -11.9309 9.23409e-13
-1.66681e-13 9.23409e-13 -9.05017

56.2192 23.3284 -2.59348e-13
23.3284 0.815981 5.69618e-13
-2.59348e-13 5.69618e-13 -8.28848

-27.8283 30.1622 1.11082e-12
30.1622 -9.2365 -1.08891e-12
1.11082e-12 -1.08891e-12 -8.80101

-27.0039 29.206 -2.26782e-13
29.206 -9.20183 2.43716e-12
-2.26782e-13 2.43716e-12 -8.6783

28.6286 30.6617 1.43766e-12
30.6617 40.4063 -7.21201e-13
1.43766e-12 -7.21201e-13 -4.44943

0.343081 27.0853 4.00391e-12
27.0853 -19.8467 1.45069e-14
4.00391e-12 1.45069e-14 -11.7774

64.5093 3.52524 1.84031e-12
3.52524 -11.827 -1.65656e-12
1.84031e-12 -1.65656e-12 -10.0189

-14.9 31.8172 3.8997e-12
31.8172 -20.7988 2.88451e-12
3.8997e-12 2.88451e-12 -12.4479

-37.9449 -12.5996 -5.78145e-12
-12.5996 8.18011 3.91154e-12
-5.78145e-12 3.91154e-12 -14.0231

-0.474915 24.278 -3.14918e-12
24.278 -29.9994 -2.47891e-12
-3.14918e-12 -2.47891e-12 -20.771

-23.7277 -29.5789 4.5531e-12
-29.5789 -11.935 1.7654e-12
4.5531e-12 1.7654e-12 -8.84393

-38.1492 -4.89787 1.97446e-12
-4.89787 18.8467 -5.20946e-12
1.97446e-12 -5.20946e-12 -11.7305

69.946 -24.557 -6.90174e-12
-24.557 18.0286 8.58572e-13
-6.90174e-12 8.58572e-13 -7.04459

39.9825 29.6939 1.48622e-12
29.6939 13.479 -1.7053e-12
1.48622e-12 -1.7053e-12 -5.21561

-4.2971 14.6969 -4.28206e-12
14.6969 60.5725 -1.30266e-14
-4.28206e-12 -1.30266e-14 -8.40139

1.61137 -1.139 -1.3826e-12
-1.139 -56.1237 -7.964e-13
-1.3826e-12 -7.964e-13 -11.2099

9.61414 0.00220981 -1.60287e-12
0.00220981 -44.755 1.49983e-12
-1.60287e-12 1.49983e-12 -8.43876

-31.0795 23.1243 -5.59552e-14
23.1243 -4.33743 2.99079e-12
-5.59552e-14 2.99079e-12 -8.4592

-34.7623 23.8711 -1.22213e-12
23.8711 -13.1929 -2.04555e-12
-1.22213e-12 -2.04555e-12 -14.8134

-43.379 -24.3808 2.38813e-12
-24.3808 -12.6138 -7.90331e-12
2.38813e-12 -7.90331e-12 -11.4693

-39.06 -0.672991 -3.88621e-12
-0.672991 21.0463 1.54247e-12
-3.88621e-12 1.54247e-12 -10.496

-40.8068 25.5906 -4.8909e-12
25.5906 -13.2227 -3.12269e-13
-4.8909e-12 -3.12269e-13 -11.173

32.322 -10.3082 6.07277e-12
-10.3082 -25.1551 -6.06359e-12
6.07277e-12 -6.06359e-12 -6.01508

8.70614 -32.8345 1.98834e-12
-32.8345 22.7977 -2.65921e-12
1.98834e-12 -2.65921e-12 -6.99277

2.39671 -2.30112 -4.55487e-13
-2.30112 -49.9609 2.36848e-14
-4.55487e-13 2.36848e-14 -14.773

36.746 -34.5094 5.11591e-12
-34.5094 24.4797 -9.59233e-14
5.11591e-12 -9.59233e-14 -7.70962

-38.2943 19.086 2.62708e-12
19.086 -7.0935 2.5319e-12
2.62708e-12 2.5319e-12 -14.4498

7.87067 -26.4789 -5.88803e-12
-26.4789 -27.9953 -3.50416e-12
-5.88803e-12 -3.50416e-12 -10.9695

63.9487 -9.69057 6.17106e-12
-9.69057 5.67678 -7.66794e-13
6.17106e-12 -7.66794e-13 -5.07278

6.04022 -23.1922 -2.56743e-12
-23.1922 -35.4684 -5.45638e-13
-2.56743e-12 -5.45638e-13 -17.7361

0.141397 2.35832 -3.86861e-12
2.35832 -56.1743 -1.51879e-13
-3.86861e-12 -1.51879e-13 -11.5467

-4.06224 -23.3218 -1.44714e-12
-23.3218 -23.4118 -2.75631e-12
-1.44714e-12 -2.75631e-12 -16.7199

11.0386 -25.8597 -6.39488e-13
-25.8597 -29.4866 -1.38793e-12
-6.39488e-13 -1.38793e-12 -9.73421

10.2012 -8.54642 1.28312e-12
-8.54642 -43.4909 4.32099e-13
1.28312e-12 4.32099e-13 -9.28218

-35.4179 -23.0683 4.35829e-12
-23.0683 -12.6463 4.7865e-12
4.35829e-12 4.7865e-12 -15.1034

23.6643 -31.3429 2.15531e-12
-31.3429 5.7118 1.24286e-12
2.15531e-12 1.24286e-12 -5.87902

11.0596 -24.5878 -2.99967e-12
-24.5878 -27.4952 -2.54345e-12
-2.99967e-12 -2.54345e-12 -10.0486

46.6439 10.8648 1.7053e-12
10.8648 -16.1187 -7.46662e-13
1.7053e-12 -7.46662e-13 -6.80065

-14.1862 26.3406 5.8374e-12
26.3406 -15.6405 2.49445e-12
5.8374e-12 2.49445e-12 -14.1193

-45.2513 -37.6123 3.36916e-13
-37.6123 -20.6121 -2.07212e-12
3.36916e-13 -2.07212e-12 -14.9195

-43.7081 37.2647 4.4705e-12
37.2647 -21.2659 -7.53101e-13
4.4705e-12 -7.53101e-13 -14.7699

-61.1842 -28.573 3.46057e-13
-28.573 -7.49711 2.52095e-12
3.46057e-13 2.52095e-12 -15.1999

-58.4152 27.0639 -6.8449e-13
27.0639 -6.27173 -8.09131e-13
-6.8449e-13 -8.09131e-13 -14.4786

5.60051 -8.52742 3.4935e-13
-8.52742 -71.0632 -1.85289e-12
3.4935e-13 -1.85289e-12 -14.7101

4.39732 9.27341 1.89374e-12
9.27341 -68.8319 -3.12061e-12
1.89374e-12 -3.12061e-12 -14.4381

9.0239 -9.84646 2.36552e-13
-9.84646 -40.8909 3.38248e-13
2.36552e-13 3.38248e-13 -9.61258

-24.3354 32.1154 -6.3564e-13
32.1154 -24.8095 -3.54685e-12
-6.3564e-13 -3.54685e-12 -21.145

-25.5228 -32.8534 -1.80744e-12
-32.8534 -25.0955 3.51877e-12
-1.80744e-12 3.51877e-12 -21.4692

-53.9188 16.0683 6.06611e-12
16.0683 3.40131 -2.28499e-12
6.06611e-12 -2.28499e-12 -21.4026

-52.4197 -15.8008 4.50469e-12
-15.8008 3.29667 9.96832e-13
4.50469e-12 9.96832e-13 -21.0759

6.1117 -3.74821 -8.44658e-13
-3.74821 -43.9248 -1.44122e-12
-8.44658e-13 -1.44122e-12 -25.7644

6.91781 3.61096 -4.27806e-14
3.61096 -46.3483 -1.51938e-12
-4.27806e-14 -1.51938e-12 -26.1408

-15.6272 9.83721 3.63539e-12
9.83721 46.2633 -1.06345e-12
3.63539e-12 -1.06345e-12 -5.84881

-22.9191 -24.7746 3.95832e-13
-24.7746 -14.5526 1.80034e-12
3.95832e-13 1.80034e-12 -10.3306

-56.603 -36.3871 -2.30268e-12
-36.3871 -14.5326 -5.01155e-12
-2.30268e-12 -5.01155e-12 -13.4377

33.3589 -4.66439 4.40063e-12
-4.66439 -19.8482 -9.56235e-13
4.40063e-12 -9.56235e-13 -3.94599

3.43319 -16.6941 1.12147e-12
-16.6941 -52.628 4.83909e-12
1.12147e-12 4.83909e-12 -21.5324

3.67434 16.1751 -1.24626e-12
16.1751 -51.8837 1.17062e-12
-1.24626e-12 1.17062e-12 -21.4057

6.55561 0.121875 -1.83927e-12
0.121875 -76.7541 -2.86087e-12
-1.83927e-12 -2.86087e-12 -13.3046

-7.57073 23.3761 1.82195e-12
23.3761 39.9363 2.16716e-12
1.82195e-12 2.16716e-12 -6.8861

-56.8887 36.1711 -1.72351e-12
36.1711 -14.0112 2.09743e-12
-1.72351e-12 2.09743e-12 -13.3894

-39.7948 -23.3959 -4.61734e-12
-23.3959 2.56144 3.34074e-12
-4.61734e-12 3.34074e-12 -8.80164

37.1172 23.3536 5.12301e-12
23.3536 -8.61423 -1.68932e-12
5.12301e-12 -1.68932e-12 -5.75947

4.73482 23.8584 2.24413e-12
23.8584 -38.226 4.5978e-13
2.24413e-12 4.5978e-13 -18.9857

24.0135 -31.3147 -2.22637e-13
-31.3147 6.40772 6.13139e-12
-2.22637e-13 6.13139e-12 -5.64899

2.43067 -3.23131 2.27033e-12
-3.23131 -48.37 3.20129e-12
2.27033e-12 3.20129e-12 -14.743

-60.4569 -34.1606 -1.65112e-12
-34.1606 -14.3498 -2.76253e-12
-1.65112e-12 -2.76253e-12 -14.0314

-17.4541 8.32025 2.74932e-12
8.32025 45.6926 3.14534e-12
2.74932e-12 3.14534e-12 -5.78187

-9.47006 21.8124 -8.12683e-13
21.8124 40.4257 1.93268e-12
-8.12683e-13 1.93268e-12 -6.65459

58.605 35.7771 1.93978e-12
35.7771 37.0886 -7.91071e-13
1.93978e-12 -7.91071e-13 -6.91614

70.4859 1.57882 3.57285e-12
1.57882 -5.54402 4.73917e-12
3.57285e-12 4.73917e-12 -10.3745

-30.7594 -22.8047 -7.22089e-13
-22.8047 -13.3568 4.4218e-12
-7.22089e-13 4.4218e-12 -14.4664

32.8417 31.1849 9.90023e-13
31.1849 69.796 -1.7953e-12
9.90023e-13 -1.7953e-12 -6.67954

-19.3772 23.6105 -3.88874e-12
23.6105 7.68683 -2.38328e-12
-3.88874e-12 -2.38328e-12 -5.51416

47.6381 -5.34974 -4.74879e-12
-5.34974 -17.4348 2.71975e-12
-4.74879e-12 2.71975e-12 -6.8226

33.2199 11.2165 -1.52234e-12
11.2165 -23.6384 5.24025e-14
-1.52234e-12 5.24025e-14 -6.01483

6.25413 0.429896 8.92619e-14
0.429896 -77.5514 2.08927e-12
8.92619e-14 2.08927e-12 -13.4503

-58.935 -29.0307 3.03439e-12
-29.0307 -6.28818 -4.31566e-12
3.03439e-12 -4.31566e-12 -14.6975

-28.3317 -6.3186 4.76115e-12
-6.3186 -11.3573 9.57456e-13
4.76115e-12 9.57456e-13 -51.5861

-44.6977 37.411 -2.88007e-12
37.411 -20.8112 -8.71747e-13
-2.88007e-12 -8.71747e-13 -14.7739

93.793 1.66333 -6.61515e-12
1.66333 16.6552 2.6806e-12
-6.61515e-12 2.6806e-12 -6.04319

10.0359 -32.7882 2.8848e-12
-32.7882 21.3109 -5.79388e-12
2.8848e-12 -5.79388e-12 -6.80904

-56.9355 36.6126 -1.09831e-12
36.6126 -14.5711 -1.09216e-12
-1.09831e-12 -1.09216e-12 -13.5056

-35.0804 -11.134 3.80897e-12
-11.134 19.1772 -7.10543e-13
3.80897e-12 -7.10543e-13 -8.31722

-5.47859 -25.5155 -3.75403e-12
-25.5155 37.3508 -2.38032e-12
-3.75403e-12 -2.38032e-12 -6.98786

-58.4516 28.8297 -1.68036e-12
28.8297 -6.27156 5.40693e-12
-1.68036e-12 5.40693e-12 -14.6146

28.496 -26.1427 2.81789e-12
-26.1427 -4.91335 3.16843e-12
2.81789e-12 3.16843e-12 -4.69807

-21.1693 10.4836 -1.3903e-12
10.4836 -18.5588 -5.21153e-12
-1.3903e-12 -5.21153e-12 -51.6816

3.43211 30.8731 -1.77162e-12
30.8731 27.1628 -1.29082e-13
-1.77162e-12 -1.29082e-13 -6.73383

6.14036 8.12652 8.17864e-13
8.12652 -72.2968 3.6741e-12
8.17864e-13 3.6741e-12 -14.9847

-11.5461 30.1908 -5.87974e-13
30.1908 -20.6032 -2.89842e-13
-5.87974e-13 -2.89842e-13 -11.5496

-30.7983 23.3323 2.30364e-12
23.3323 -5.09997 -2.29713e-12
2.30364e-12 -2.29713e-12 -8.46524

-25.8636 -32.4881 3.5012e-12
-32.4881 -24.1123 3.37907e-12
3.5012e-12 3.37907e-12 -21.5586

9.20509 -23.1907 -1.05634e-12
-23.1907 -27.9228 2.97362e-12
-1.05634e-12 2.97362e-12 -11.4262

-37.6612 10.4701 3.73808e-12
10.4701 8.92895 1.69642e-12
3.73808e-12 1.69642e-12 -25.3304

-23.0413 -23.4342 -5.184e-13
-23.4342 4.9523 2.00906e-12
-5.184e-13 2.00906e-12 -6.26388

88.8058 -9.70818 -5.94961e-12
-9.70818 10.807 -7.98028e-13
-5.94961e-12 -7.98028e-13 -10.031

84.0459 -14.2776 -5.21065e-12
-14.2776 2.81213 2.07242e-14
-5.21065e-12 2.07242e-14 -13.197

5.8875 16.5299 -3.7416e-12
16.5299 -33.9324 -2.46647e-12
-3.7416e-12 -2.46647e-12 -22.3756

-16.4223 22.5024 -2.2767e-13
22.5024 16.2279 3.18323e-12
-2.2767e-13 3.18323e-12 -5.08624

-3.91272 29.1638 -1.05279e-12
29.1638 -12.2306 2.51088e-12
-1.05279e-12 2.51088e-12 -8.39706

50.9938 0.688687 3.54442e-12
0.688687 -6.53294 -1.53059e-12
3.54442e-12 -1.53059e-12 -3.63517

-48.1415 6.57092 2.82703e-12
6.57092 14.7859 5.33499e-13
2.82703e-12 5.33499e-13 -18.9524

10.1157 16.5407 -4.10042e-12
16.5407 -36.0803 2.51295e-12
-4.10042e-12 2.51295e-12 -9.13611

-4.50472 -25.762 -1.63721e-12
-25.762 35.5559 -7.87518e-13
-1.63721e-12 -7.87518e-13 -6.74783

-39.1922 -2.57222 4.35672e-12
-2.57222 21.5043 -6.72647e-13
4.35672e-12 -6.72647e-13 -10.6699

-7.9917 13.3657 9.14824e-13
13.3657 44.406 6.65542e-13
9.14824e-13 6.65542e-13 -3.9451

3.73448 -29.7138 3.53732e-12
-29.7138 -17.3656 2.41436e-12
3.53732e-12 2.41436e-12 -8.92123

21.4258 -29.9485 1.63899e-12
-29.9485 14.7559 -1.78169e-12
1.63899e-12 -1.78169e-12 -3.91867

6.88031 31.624 9.34956e-13
31.624 25.4017 2.03689e-13
9.34956e-13 2.03689e-13 -6.82897

2.78518 -15.0198 -4.72985e-12
-15.0198 -39.2655 -4.06046e-13
-4.72985e-12 -4.06046e-13 -63.3074

-46.1595 2.04154 2.04022e-12
2.04154 11.4612 -1.44951e-12
2.04022e-12 -1.44951e-12 -22.7563

-55.4437 20.2996 -3.90206e-13
20.2996 3.09524 -6.45706e-13
-3.90206e-13 -6.45706e-13 -22.9155

5.91625 15.4385 -2.79184e-13
15.4385 -58.8175 -2.79776e-13
-2.79184e-13 -2.79776e-13 -23.0356

-18.922 -26.1892 9.02685e-13
-26.1892 -12.9138 -1.55994e-12
9.02685e-13 -1.55994e-12 -9.65336

41.3467 17.9578 4.49655e-12
17.9578 -6.27204 7.87814e-13
4.49655e-12 7.87814e-13 -3.86221

-44.6822 -5.29364 -8.40901e-14
-5.29364 4.53838 3.08228e-12
-8.40901e-14 3.08228e-12 -39.1431

7.49935 -18.988 1.5552e-12
-18.988 -39.8947 -1.75267e-13
1.5552e-12 -1.75267e-13 -11.6604

30.2913 -15.5992 -2.31282e-12
-15.5992 -20.5097 -1.27631e-12
-2.31282e-12 -1.27631e-12 -4.8059

-9.63947 11.6037 -3.33955e-13
11.6037 44.3199 2.96415e-12
-3.33955e-13 2.96415e-12 -3.85987

8.3334 -25.7351 1.55135e-13
-25.7351 32.9922 -7.96992e-13
1.55135e-13 -7.96992e-13 -3.63379

-10.2444 -25.2738 -2.79184e-12
-25.2738 -19.1009 -1.67451e-12
-2.79184e-12 -1.67451e-12 -23.1743

17.0048 31.9606 -4.22299e-12
31.9606 11.1968 3.95358e-12
-4.22299e-12 3.95358e-12 -5.74717

-1.06916 -25.1345 -2.39749e-12
-25.1345 -30.7631 -1.97472e-12
-2.39749e-12 -1.97472e-12 -20.8912

48.066 2.59744 2.7877e-12
2.59744 -8.41083 5.22656e-12
2.7877e-12 5.22656e-12 -3.53237

6.55228 -28.9315 5.82231e-12
-28.9315 72.0522 -1.70293e-12
5.82231e-12 -1.70293e-12 -14.5517

21.7914 -29.2319 -2.85461e-12
-29.2319 13.9633 -2.23051e-12
-2.85461e-12 -2.23051e-12 -3.93105

35.3517 32.16 -1.41516e-12
32.16 74.136 -8.19493e-13
-1.41516e-12 -8.19493e-13 -5.4418

-45.2839 -11.8767 -5.17793e-12
-11.8767 13.9219 -3.84344e-12
-5.17793e-12 -3.84344e-12 -15.3266

-14.4218 -13.8218 -1.16677e-12
-13.8218 43.3829 1.25529e-13
-1.16677e-12 1.25529e-13 -5.67348

-19.2422 -23.9871 -6.1835e-12
-23.9871 -19.8301 5.11532e-12
-6.1835e-12 5.11532e-12 -64.2491

2.43756 23.7716 -8.31927e-13
23.7716 36.0072 9.59233e-13
-8.31927e-13 9.59233e-13 -3.71182

-15.1826 -32.7263 5.55704e-12
-32.7263 -21.1195 1.86902e-12
5.55704e-12 1.86902e-12 -14.3133

-14.5664 -11.9635 -3.35657e-12
-11.9635 45.5312 3.45797e-12
-3.35657e-12 3.45797e-12 -5.73966

7.83549 -19.1168 9.35252e-13
-19.1168 -43.1221 2.11209e-12
9.35252e-13 2.11209e-12 -12.6324

6.54509 23.8779 -3.46034e-12
23.8779 35.1717 3.01981e-13
-3.46034e-12 3.01981e-13 -3.44277

23.1736 -4.97556 -2.49104e-12
-4.97556 -30.6771 -3.3374e-12
-2.49104e-12 -3.3374e-12 -5.36509

36.971 -30.3434 2.72612e-12
-30.3434 122.63 1.7053e-12
2.72612e-12 1.7053e-12 -6.2414

-26.8702 21.0146 -1.20467e-12
21.0146 8.43414 -5.1988e-12
-1.20467e-12 -5.1988e-12 -7.13082

40.3389 -19.3239 5.47355e-12
-19.3239 -11.3735 -3.44199e-12
5.47355e-12 -3.44199e-12 -5.72669

6.52785 -21.4458 -2.78592e-13
-21.4458 -45.5578 1.45217e-12
-2.78592e-13 1.45217e-12 -24.9712

20.705 31.7551 -8.06466e-13
31.7551 9.55704 -4.43201e-12
-8.06466e-13 -4.43201e-12 -5.80672

13.9187 -29.9725 3.61725e-12
-29.9725 -7.60651 3.2158e-12
3.61725e-12 3.2158e-12 -5.94501

6.75501 20.8855 -6.44995e-12
20.8855 -27.7928 2.69799e-12
-6.44995e-12 2.69799e-12 -11.1092

-38.2743 -28.076 -1.14131e-13
-28.076 -14.038 3.17391e-12
-1.14131e-13 3.17391e-12 -11.0616

8.64584 -26.2261 2.50703e-12
-26.2261 31.1711 -2.359e-12
2.50703e-12 -2.359e-12 -3.63582

15.3311 28.982 1.72899e-13
28.982 19.1538 3.30166e-12
1.72899e-13 3.30166e-12 -3.88363

28.6405 26.1921 1.84504e-12
26.1921 -5.63411 2.92211e-13
1.84504e-12 2.92211e-13 -4.80267

7.91449 -14.6104 -4.68366e-13
-14.6104 -36.8781 -1.30888e-12
-4.68366e-13 -1.30888e-12 -13.9915

-6.8423 -16.6182 -1.96435e-12
-16.6182 41.3414 -3.15007e-13
-1.96435e-12 -3.15007e-13 -3.96007

17.4407 -17.5684 -6.06922e-13
-17.5684 -30.9999 -1.20126e-12
-6.06922e-13 -1.20126e-12 -7.10582

19.8418 16.9089 1.86932e-12
16.9089 -31.6654 -3.54857e-12
1.86932e-12 -3.54857e-12 -7.33517

-33.6801 -9.38628 5.23337e-12
-9.38628 8.75616 4.67774e-13
5.23337e-12 4.67774e-13 -23.9921

43.4322 -13.4304 1.89833e-12
-13.4304 -8.36975 -3.46108e-12
1.89833e-12 -3.46108e-12 -3.8048

-19.3797 0.594105 1.01874e-12
0.594105 43.1459 1.77636e-12
1.01874e-12 1.77636e-12 -4.77612

28.0562 18.5554 -2.07715e-12
18.5554 -18.1999 1.0365e-12
-2.07715e-12 1.0365e-12 -4.75038

25.5285 27.6047 8.6852e-12
27.6047 -3.77634 -1.45484e-12
8.6852e-12 -1.45484e-12 -4.77182

-6.71611 -15.6867 2.4191e-12
-15.6867 43.7991 3.54087e-12
2.4191e-12 3.54087e-12 -3.84859

-19.9077 -1.20228 5.86235e-12
-1.20228 42.1284 -2.54019e-12
5.86235e-12 -2.54019e-12 -4.68769

-5.47324 29.1344 -2.18492e-13
29.1344 -23.6472 1.93238e-12
-2.18492e-13 1.93238e-12 -16.7969

-37.2745 -10.9224 -2.5208e-12
-10.9224 21.6799 6.11955e-12
-2.5208e-12 6.11955e-12 -7.83058

27.1434 -26.7161 -4.83169e-13
-26.7161 -5.53142 6.03961e-14
-4.83169e-13 6.03961e-14 -4.94487

40.7196 21.3333 3.40824e-12
21.3333 -8.37105 1.7882e-12
3.40824e-12 1.7882e-12 -5.46818

12.378 23.6656 2.05465e-12
23.6656 -27.1279 -1.48651e-12
2.05465e-12 -1.48651e-12 -8.66745

-37.7973 5.47105 -1.11126e-12
5.47105 23.3114 4.21529e-12
-1.11126e-12 4.21529e-12 -8.59789

18.5928 29.0665 -4.60432e-12
29.0665 17.3777 -6.80937e-13
-4.60432e-12 -6.80937e-13 -3.94771

-9.98866 22.9639 4.51491e-13
22.9639 -14.9137 -5.34624e-12
4.51491e-13 -5.34624e-12 -24.0253

68.3187 -59.6933 -3.60245e-12
-59.6933 36.3363 1.65793e-14
-3.60245e-12 1.65793e-14 -23.0103

17.5307 -25.0484 3.93641e-12
-25.0484 -17.9927 3.58824e-12
3.93641e-12 3.58824e-12 -6.41828

10.058 7.07012 -8.10907e-13
7.07012 82.5526 -2.55085e-12
-8.10907e-13 -2.55085e-12 -7.16546

11.92 -28.8901 -9.28443e-13
-28.8901 -3.88195 -4.8986e-12
-9.28443e-13 -4.8986e-12 -5.16644

-66.9442 -52.7022 8.96468e-13
-52.7022 143.255 -1.98478e-12
8.96468e-13 -1.98478e-12 -49.6678

-68.3876 51.4529 2.4869e-14
51.4529 142.542 5.54697e-12
2.4869e-14 5.54697e-12 -49.8569

19.572 117.157 -1.06108e-12
117.157 64.1324 1.82846e-12
-1.06108e-12 1.82846e-12 -48.3584

20.5309 -117.1 4.58537e-12
-117.1 61.0291 -2.37795e-12
4.58537e-12 -2.37795e-12 -48.7231

157.749 -1.3634 6.5512e-12
-1.3634 -79.1868 2.54357e-14
6.5512e-12 2.54357e-14 -48.9101

110.33 -91.1277 6.50857e-12
-91.1277 -36.6887 -9.82917e-13
6.50857e-12 -9.82917e-13 -50.3047

110.383 91.6556 -4.96906e-12
91.6556 -36.4989 -2.75927e-12
-4.96906e-12 -2.75927e-12 -50.1775

7.8466 14.3307 1.60642e-12
14.3307 -42.6818 4.8983e-12
1.60642e-12 4.8983e-12 -15.0793

-11.7905 25.5362 -3.02543e-12
25.5362 -27.4048 1.60301e-12
-3.02543e-12 1.60301e-12 -35.1364

12.4381 6.60624 -3.26672e-12
6.60624 -40.5347 5.57591e-12
-3.26672e-12 5.57591e-12 -8.25318

26.2549 21.7853 -3.18738e-12
21.7853 -19.5296 -1.18424e-13
-3.18738e-12 -1.18424e-13 -5.85157

-21.2313 17.745 -3.61045e-13
17.745 29.8686 9.59233e-13
-3.61045e-13 9.59233e-13 -6.16311

22.5303 28.8994 2.21038e-12
28.8994 -0.776003 4.31418e-12
2.21038e-12 4.31418e-12 -4.73146

4.0551 -29.664 1.71418e-12
-29.664 -17.4667 2.81464e-12
1.71418e-12 2.81464e-12 -8.50495

25.9953 28.0287 7.38964e-13
28.0287 -2.30227 -5.36874e-12
7.38964e-13 -5.36874e-12 -4.73185

-19.3482 -2.84142 -8.13231e-12
-2.84142 43.0719 2.76401e-12
-8.13231e-12 2.76401e-12 -4.77067

-13.411 -26.097 1.26269e-12
-26.097 -25.8385 6.75312e-13
1.26269e-12 6.75312e-13 -35.5195

-19.8433 -4.86263 1.97205e-12
-4.86263 41.7769 1.90307e-12
1.97205e-12 1.90307e-12 -4.74454

-1.82716 23.0167 -7.52583e-13
23.0167 -24.3772 -1.97738e-12
-7.52583e-13 -1.97738e-12 -16.1499

44.9833 26.8717 7.51991e-13
26.8717 8.11089 2.72612e-12
7.51991e-13 2.72612e-12 -5.36966

-52.5077 -13.2162 -5.95864e-12
-13.2162 0.150204 1.63632e-12
-5.95864e-12 1.63632e-12 -20.6171

20.2806 13.7283 4.66886e-12
13.7283 -31.1427 -7.90479e-13
4.66886e-12 -7.90479e-13 -7.04372

13.7005 -29.9885 2.96592e-12
-29.9885 -6.69221 -4.62504e-12
2.96592e-12 -4.62504e-12 -5.83594

29.6311 -24.7142 3.63561e-13
-24.7142 -7.87462 2.14702e-12
3.63561e-13 2.14702e-12 -4.82583

5.76436 -16.0752 2.02653e-12
-16.0752 -32.3342 -7.59393e-13
2.02653e-12 -7.59393e-13 -22.255

12.6276 27.9296 -5.85783e-12
27.9296 -13.6396 -1.91225e-12
-5.85783e-12 -1.91225e-12 -6.42026

23.309 23.9782 -5.45993e-12
23.9782 -17.9442 -2.78385e-12
-5.45993e-12 -2.78385e-12 -5.96308

-31.0781 -2.79289 -2.3674e-12
-2.79289 30.132 1.92379e-12
-2.3674e-12 1.92379e-12 -6.39913

-28.6306 5.87347 3.66562e-12
5.87347 33.3218 -5.37348e-12
3.66562e-12 -5.37348e-12 -6.06005

34.5491 2.6468 -1.3974e-13
2.6468 -26.1849 6.17325e-12
-1.3974e-13 6.17325e-12 -6.14287

50.6524 -7.28994 7.29491e-13
-7.28994 -14.0831 -7.3852e-13
7.29491e-13 -7.3852e-13 -6.77933

11.0409 30.4856 2.50999e-12
30.4856 -4.78833 -7.02194e-12
2.50999e-12 -7.02194e-12 -5.9669

17.4673 -26.1562 -4.82103e-12
-26.1562 -17.4557 -6.04109e-12
-4.82103e-12 -6.04109e-12 -6.35239

-0.0841679 -21.2545 4.05661e-12
-21.2545 -27.9564 2.28173e-12
4.05661e-12 2.28173e-12 -17.1663

4.93851 -31.6347 1.16766e-12
-31.6347 4.86095 -4.81334e-12
1.16766e-12 -4.81334e-12 -5.93578

-8.22807 -27.7866 4.44326e-12
-27.7866 18.5788 -1.09897e-12
4.44326e-12 -1.09897e-12 -6.13042

-1.65096 29.8882 -1.60287e-12
29.8882 10.4471 -5.8679e-13
-1.60287e-12 -5.8679e-13 -5.80084

-26.0178 -9.57821 -3.4364e-12
-9.57821 32.9702 -5.20236e-12
-3.4364e-12 -5.20236e-12 -5.78772

-31.3239 -1.54497 3.92109e-12
-1.54497 31.651 1.90662e-13
3.92109e-12 1.90662e-13 -6.22397

-38.9164 5.74787 -6.2802e-12
5.74787 23.9466 3.31883e-12
-6.2802e-12 3.31883e-12 -9.18332

-17.2192 -21.0898 -3.23652e-12
-21.0898 26.5712 -2.75335e-12
-3.23652e-12 -2.75335e-12 -5.77249

13.0715 24.1118 2.57631e-12
24.1118 -28.1019 -2.36552e-12
2.57631e-12 -2.36552e-12 -9.2052

21.5552 -9.59003 -9.2785e-13
-9.59003 -31.7076 4.64073e-13
-9.2785e-13 4.64073e-13 -6.59858

-27.1547 7.46546 3.99673e-12
7.46546 34.335 1.06937e-12
3.99673e-12 1.06937e-12 -5.87445

-35.2368 -9.70119 -7.84604e-14
-9.70119 22.3137 4.9661e-12
-7.84604e-14 4.9661e-12 -8.18384

-29.1567 -16.3312 7.0625e-13
-16.3312 19.3469 -8.18901e-13
7.0625e-13 -8.18901e-13 -6.66223

36.9685 -8.23948 -1.77399e-12
-8.23948 -20.238 -3.66995e-12
-1.77399e-12 -3.66995e-12 -5.10197

-14.8099 -32.3468 2.15827e-13
-32.3468 -21.6275 -2.68467e-12
2.15827e-13 -2.68467e-12 -12.9932

-22.8251 9.32129 6.12384e-12
9.32129 33.3237 4.71919e-13
6.12384e-12 4.71919e-13 -4.78926

-0.751283 -18.2128 4.1173e-12
-18.2128 -35.1571 -2.58134e-12
4.1173e-12 -2.58134e-12 -33.2762

4.9318 24.8237 1.78346e-12
24.8237 75.3089 -5.66303e-12
1.78346e-12 -5.66303e-12 -14.3191

-14.1418 -26.6265 1.59073e-12
-26.6265 -16.3507 -2.35663e-12
1.59073e-12 -2.35663e-12 -14.6408

-6.3571 -30.2029 -6.12251e-13
-30.2029 -23.603 -2.82737e-13
-6.12251e-13 -2.82737e-13 -17.0877

-31.2718 -0.701167 2.64181e-12
-0.701167 31.5007 -1.62004e-12
2.64181e-12 -1.62004e-12 -6.34884

28.4881 -16.623 -1.1724e-12
-16.623 -18.0579 5.03094e-12
-1.1724e-12 5.03094e-12 -4.43847

-37.8057 12.8417 -8.21676e-13
12.8417 11.1651 1.15463e-12
-8.21676e-13 1.15463e-12 -10.9893

-8.86124 -3.18076 -2.81701e-13
-3.18076 111.055 -9.14232e-13
-2.81701e-13 -9.14232e-13 -22.6712

-31.6037 14.2741 -1.67089e-12
14.2741 21.3505 -5.71336e-12
-1.67089e-12 -5.71336e-12 -7.12492

12.4216 -29.4902 -2.36255e-13
-29.4902 -2.52001 1.55727e-13
-2.36255e-13 1.55727e-13 -4.92868

33.6328 25.1064 1.42641e-12
25.1064 124.033 8.76336e-14
1.42641e-12 8.76336e-14 -6.21377

-13.502 26.0969 3.1104e-12
26.0969 -19.097 6.92246e-12
3.1104e-12 6.92246e-12 -58.8916

-9.55245 -27.8062 2.42428e-12
-27.8062 -22.8063 1.62966e-11
2.42428e-12 1.62966e-11 -59.542

-2.86631 -30.4199 -2.98487e-12
-30.4199 -7.32192 3.74959e-12
-2.98487e-12 3.74959e-12 -7.28785

3.85973 -31.1614 1.05812e-12
-31.1614 5.6352 1.71833e-12
1.05812e-12 1.71833e-12 -6.06301

25.1523 20.8281 -4.24135e-12
20.8281 -17.0354 -6.29067e-12
-4.24135e-12 -6.29067e-12 -4.97736

31.8055 15.0066 -1.76629e-12
15.0066 -23.3024 -1.74231e-12
-1.76629e-12 -1.74231e-12 -5.9553

-9.48799 3.08285 4.38634e-12
3.08285 -9.83006 1.18535e-12
4.38634e-12 1.18535e-12 -80.9319

-5.5485 -6.99909 -6.75067e-12
-6.99909 -14.0409 -6.69006e-12
-6.75067e-12 -6.69006e-12 -80.2846

11.7487 4.82426 4.58655e-12
4.82426 -43.2063 3.69897e-12
4.58655e-12 3.69897e-12 -7.82804

-35.0576 6.73133 -8.33185e-13
6.73133 24.3754 9.0535e-13
-8.33185e-13 9.0535e-13 -7.56442

-36.1116 6.73636 3.43992e-12
6.73636 24.4327 5.6725e-13
3.43992e-12 5.6725e-13 -8.3094

74.5892 58.6363 6.25278e-12
58.6363 34.1743 2.68822e-12
6.25278e-12 2.68822e-12 -21.8725

-6.92078 -28.2009 -1.32931e-12
-28.2009 16.8752 5.82645e-13
-1.32931e-12 5.82645e-13 -6.11732

8.17193 17.9744 5.35039e-12
17.9744 -44.876 1.19105e-12
5.35039e-12 1.19105e-12 -12.8969

32.7037 9.54001 -3.18797e-12
9.54001 -19.0813 2.62768e-12
-3.18797e-12 2.62768e-12 -4.07497

3.3873 -26.7243 -4.11286e-12
-26.7243 13.484 -7.89887e-13
-4.11286e-12 -7.89887e-13 -3.8276

26.2377 -20.2384 -2.02268e-12
-20.2384 -20.3242 1.79116e-12
-2.02268e-12 1.79116e-12 -5.86383

65.393 60.2342 -9.54496e-13
60.2342 34.2908 7.96992e-13
-9.54496e-13 7.96992e-13 -23.8674

-13.2427 31.0694 -2.48986e-13
31.0694 -16.8821 -2.7572e-12
-2.48986e-13 -2.7572e-12 -12.7862

-18.6055 -19.7869 2.70332e-12
-19.7869 28.4151 -4.01279e-12
2.70332e-12 -4.01279e-12 -5.97015

11.1741 28.8585 -4.28161e-12
28.8585 -13.3238 -2.38446e-12
-4.28161e-12 -2.38446e-12 -6.4367

-31.8703 -4.14508 1.37327e-12
-4.14508 30.1481 2.79184e-12
1.37327e-12 2.79184e-12 -6.35841

-14.5973 19.61 -1.6452e-12
19.61 27.1856 1.77932e-12
-1.6452e-12 1.77932e-12 -4.41933

7.47897 30.5199 -8.08242e-13
30.5199 -1.67095 -1.85156e-12
-8.08242e-13 -1.85156e-12 -5.6611

-9.34572 -22.4741 -1.9836e-13
-22.4741 23.1495 -2.71487e-12
-1.9836e-13 -2.71487e-12 -4.17608

4.59009 -27.3536 2.4342e-12
-27.3536 11.449 -8.12979e-13
2.4342e-12 -8.12979e-13 -3.93911

24.2725 11.2574 -2.19676e-12
11.2574 102.083 -9.09495e-13
-2.19676e-12 -9.09495e-13 -12.4046

37.4673 -33.4576 -2.63848e-12
-33.4576 69.2876 1.80004e-13
-2.63848e-12 1.80004e-13 -5.70322

-25.3366 -11.6909 -6.48592e-13
-11.6909 31.3686 5.20769e-12
-6.48592e-13 5.20769e-12 -5.64901

16.0964 26.4854 -8.89363e-13
26.4854 -15.5027 -3.43725e-12
-8.89363e-13 -3.43725e-12 -6.21799

4.95535 29.4789 -1.30799e-12
29.4789 1.63661 -2.80072e-13
-1.30799e-12 -2.80072e-13 -4.99058

-9.8555 -21.4348 -6.41265e-13
-21.4348 25.1212 -2.67282e-12
-6.41265e-13 -2.67282e-12 -4.03386

-21.6358 -11.7829 2.1266e-12
-11.7829 32.0826 -5.04426e-12
2.1266e-12 -5.04426e-12 -4.63782

10.4627 28.4105 -7.72715e-13
28.4105 -0.156784 3.0281e-12
-7.72715e-13 3.0281e-12 -4.67348

-21.8479 -13.8784 1.64313e-12
-13.8784 29.4677 2.94638e-12
1.64313e-12 2.94638e-12 -4.84778

6.95834 27.8562 -4.39826e-12
27.8562 73.0873 -1.86162e-12
-4.39826e-12 -1.86162e-12 -14.3223

-45.832 -4.04099 -1.74667e-12
-4.04099 14.0478 -5.26453e-12
-1.74667e-12 -5.26453e-12 -19.9647

0.876527 31.0288 -1.58747e-12
31.0288 7.51999 2.81671e-12
-1.58747e-12 2.81671e-12 -6.08977

9.7191 14.9016 -1.79886e-12
14.9016 -36.4299 3.31883e-13
-1.79886e-12 3.31883e-13 -10.9858

9.92836 -15.928 1.06907e-12
-15.928 -39.411 2.28232e-12
1.06907e-12 2.28232e-12 -13.0694

85.6162 -24.2055 -7.99834e-12
-24.2055 7.63563 9.15416e-13
-7.99834e-12 9.15416e-13 -12.958

-23.2078 -21.2678 7.24458e-13
-21.2678 10.5139 1.82965e-12
7.24458e-13 1.82965e-12 -6.16595

-16.6016 26.6991 9.25186e-13
26.6991 1.77827 5.43684e-12
9.25186e-13 5.43684e-12 -6.58843

-26.2008 -21.7277 -2.31755e-12
-21.7277 -5.36597 -2.19321e-12
-2.31755e-12 -2.19321e-12 -23.8666

-41.5954 14.1057 5.22545e-13
14.1057 -3.55982 -1.86221e-13
5.22545e-13 -1.86221e-13 -64.1235

-0.893639 9.44529 -5.06824e-12
9.44529 -44.2575 1.42405e-12
-5.06824e-12 1.42405e-12 -64.225

-20.3838 32.7051 1.23427e-12
32.7051 -23.2029 -1.83039e-12
1.23427e-12 -1.83039e-12 -24.329

-11.4116 26.0015 -2.89931e-12
26.0015 22.6043 -1.45543e-12
-2.89931e-12 -1.45543e-12 -5.9264

16.0387 26.6621 -1.49155e-12
26.6621 -17.2882 -2.72878e-12
-1.49155e-12 -2.72878e-12 -6.55049

30.429 45.1878 5.40841e-12
45.1878 47.5562 -4.35563e-12
5.40841e-12 -4.35563e-12 -15.1952

-44.8871 -11.3429 -2.48808e-12
-11.3429 -1.8079 -1.08358e-13
-2.48808e-12 -1.08358e-13 -61.6799

-8.29811 -3.4325 -9.7898e-12
-3.4325 -12.7537 3.38618e-12
-9.7898e-12 3.38618e-12 -77.2223

-14.69 -0.209655 9.51387e-13
-0.209655 -6.41853 -1.38406e-11
9.51387e-13 -1.38406e-11 -77.3665

27.6662 -53.8044 6.29541e-12
-53.8044 71.1516 4.50484e-12
6.29541e-12 4.50484e-12 -24.3891

-11.6903 -11.5997 9.05794e-13
-11.5997 -16.2049 -6.38186e-12
9.05794e-13 -6.38186e-12 -37.4291

-32.61 8.8125 2.45115e-12
8.8125 -9.41854 7.33339e-13
2.45115e-12 7.33339e-13 -49.5385

18.2562 -26.2002 1.23457e-12
-26.2002 -19.5475 2.22844e-12
1.23457e-12 2.22844e-12 -6.50725

-39.4305 1.01073 -6.23894e-12
1.01073 11.9803 -4.20997e-12
-6.23894e-12 -4.20997e-12 -19.7216

-30.2033 -20.2684 -2.81449e-12
-20.2684 6.30498 -2.94461e-12
-2.81449e-12 -2.94461e-12 -7.2168

10.5364 6.2554 1.45809e-12
6.2554 -52.3902 -3.00056e-13
1.45809e-12 -3.00056e-13 -9.6403

-49.8129 15.5963 -5.53858e-13
15.5963 10.1651 -2.7273e-12
-5.53858e-13 -2.7273e-12 -13.5314

-40.2845 7.19143 -2.61776e-12
7.19143 16.5414 -7.03319e-12
-2.61776e-12 -7.03319e-12 -13.7744

16.4049 20.3934 -9.82917e-13
20.3934 -25.8418 -3.48521e-12
-9.82917e-13 -3.48521e-12 -7.60827

-9.10029 -3.11391 -2.59082e-12
-3.11391 108.399 9.56864e-13
-2.59082e-12 9.56864e-13 -23.1016

-3.32068 -27.6246 4.59958e-12
-27.6246 -3.62971 -1.34411e-13
4.59958e-12 -1.34411e-13 -5.83069

-7.33528 -26.117 1.7509e-12
-26.117 -14.0823 2.98132e-13
1.7509e-12 2.98132e-13 -9.81119

-14.1986 -31.4837 6.57903e-12
-31.4837 -21.7779 4.58492e-12
6.57903e-12 4.58492e-12 -12.756

90.7308 32.7508 5.16565e-12
32.7508 20.907 -4.4554e-12
5.16565e-12 -4.4554e-12 -16.5057

-23.1163 -20.1162 3.50919e-12
-20.1162 -17.3853 -1.49954e-13
3.50919e-12 -1.49954e-13 -44.4252

72.6324 54.324 1.80004e-12
54.324 91.6432 2.71901e-12
1.80004e-12 2.71901e-12 -6.14187

-36.2156 -21.4393 -7.51725e-12
-21.4393 -6.79682 2.81138e-12
-7.51725e-12 2.81138e-12 -13.0434

15.034 14.6505 -8.0392e-12
14.6505 -37.7524 -1.05249e-12
-8.0392e-12 -1.05249e-12 -8.17936

44.5736 -14.573 5.64052e-12
-14.573 -8.27302 -1.58318e-12
5.64052e-12 -1.58318e-12 -4.4192

-21.2313 24.0473 2.46647e-12
24.0473 4.95543 -2.97836e-13
2.46647e-12 -2.97836e-13 -5.9771

17.3733 20.4283 1.1191e-13
20.4283 -26.7933 -3.45176e-12
1.1191e-13 -3.45176e-12 -6.95211

-51.1396 11.4001 -3.43281e-13
11.4001 7.7102 -4.18598e-12
-3.43281e-13 -4.18598e-12 -29.9931

-7.28751 -31.5807 8.88178e-16
-31.5807 -12.8271 1.53744e-12
8.88178e-16 1.53744e-12 -8.11971

2.7962 19.8123 -7.43376e-12
19.8123 -46.0327 1.32309e-12
-7.43376e-12 1.32309e-12 -29.985

-24.6718 -18.444 -5.38295e-12
-18.444 17.8362 3.42778e-12
-5.38295e-12 3.42778e-12 -5.4808

-42.341 4.28344 1.27399e-12
4.28344 17.8694 -5.58546e-12
1.27399e-12 -5.58546e-12 -12.7284

-4.09804 9.92708 -1.32871e-12
9.92708 -40.2747 5.18163e-12
-1.32871e-12 5.18163e-12 -47.5462

-2.68834 -8.51376 5.54253e-12
-8.51376 -38.306 1.49628e-12
5.54253e-12 1.49628e-12 -47.4019

81.7252 18.513 -2.88007e-12
18.513 1.69964 -4.1176e-12
-2.88007e-12 -4.1176e-12 -14.4533

3.89499 7.96527 2.08515e-12
7.96527 -45.1838 -2.1713e-12
2.08515e-12 -2.1713e-12 -11.0188

35.8736 7.74081 -4.42476e-12
7.74081 184.578 -1.80952e-12
-4.42476e-12 -1.80952e-12 -9.75589

40.1471 -11.3855 -4.02271e-14
-11.3855 190.375 4.1401e-12
-4.02271e-14 4.1401e-12 -7.38766

53.7668 56.408 4.52142e-12
56.408 159.259 -2.02742e-12
4.52142e-12 -2.02742e-12 -11.4986

1.7085 -28.9509 1.89064e-12
-28.9509 -24.6911 1.13184e-12
1.89064e-12 1.13184e-12 -11.9632

16.0497 -49.1919 -3.02573e-12
-49.1919 99.4217 -5.39776e-12
-3.02573e-12 -5.39776e-12 -21.6888

54.5147 -55.9505 4.42668e-12
-55.9505 149.976 5.35276e-12
4.42668e-12 5.35276e-12 -13.6635

-2.16635 26.221 1.43293e-13
26.221 17.5727 -2.32584e-12
1.43293e-13 -2.32584e-12 -3.99663

134.942 73.8452 2.79006e-12
73.8452 85.0271 8.31335e-13
2.79006e-12 8.31335e-13 -10.1577

-18.7206 13.0469 -2.14347e-13
13.0469 -3.89974 1.41339e-12
-2.14347e-13 1.41339e-12 -26.7686

3.74096 0.0401466 4.35089e-12
0.0401466 -26.1891 -4.27421e-12
4.35089e-12 -4.27421e-12 -26.7719

144.101 -73.1306 1.80004e-12
-73.1306 85.3546 -5.3196e-12
1.80004e-12 -5.3196e-12 -8.19487

-21.3939 -23.4247 -4.49655e-12
-23.4247 12.2479 3.70193e-12
-4.49655e-12 3.70193e-12 -6.49192

89.3486 34.7302 -4.47168e-12
34.7302 41.3909 5.37999e-12
-4.47168e-12 5.37999e-12 -11.5477

72.1893 63.4921 -6.64121e-12
63.4921 149.696 3.51956e-12
-6.64121e-12 3.51956e-12 -9.67226

26.165 21.6308 -6.18883e-12
21.6308 100.136 -7.91071e-13
-6.18883e-12 -7.91071e-13 -13.0312

73.8762 -65.921 -8.93863e-12
-65.921 151.147 1.00897e-12
-8.93863e-12 1.00897e-12 -9.40077

25.7695 -12.3814 8.986e-12
-12.3814 105.015 -2.59585e-12
8.986e-12 -2.59585e-12 -12.4281

-28.664 6.84101 1.70382e-12
6.84101 3.10712 -2.05288e-12
1.70382e-12 -2.05288e-12 -37.8517

37.7436 -45.9762 -9.68588e-12
-45.9762 49.6704 -8.13571e-13
-9.68588e-12 -8.13571e-13 -15.5325

14.4444 47.5332 -8.81784e-12
47.5332 94.882 4.76774e-12
-8.81784e-12 4.76774e-12 -22.192

173.343 37.9122 1.42109e-12
37.9122 48.0433 -1.77458e-12
1.42109e-12 -1.77458e-12 -9.52093

7.02043 -29.2864 -6.96924e-13
-29.2864 -14.3589 1.70945e-12
-6.96924e-13 1.70945e-12 -7.15664

-38.4182 12.8965 1.69494e-12
12.8965 6.43544 1.20319e-12
1.69494e-12 1.20319e-12 -15.2907

88.5069 -38.1135 5.13959e-13
-38.1135 34.1636 8.11203e-12
5.13959e-13 8.11203e-12 -14.0994

6.04159 -28.8028 -4.21648e-12
-28.8028 -16.1727 -2.99583e-12
-4.21648e-12 -2.99583e-12 -8.03049

169.209 -36.344 4.73695e-14
-36.344 34.9304 3.76943e-12
4.73695e-14 3.76943e-12 -13.2888

-5.72541 -28.318 -2.915e-12
-28.318 -14.4734 -8.92027e-13
-2.915e-12 -8.92027e-13 -9.30999

-17.7914 -25.2957 -1.47971e-12
-25.2957 12.0801 -9.05942e-13
-1.47971e-12 -9.05942e-13 -5.93506

118.878 69.4616 -4.51905e-12
69.4616 96.2214 -3.72088e-12
-4.51905e-12 -3.72088e-12 -11.3989

29.4136 -22.9334 -1.28016e-12
-22.9334 97.7986 -9.78417e-12
-1.28016e-12 -9.78417e-12 -14.3397

117.961 -71.6937 5.3717e-12
-71.6937 93.6828 1.43695e-11
5.3717e-12 1.43695e-11 -12.415

22.2653 50.7387 3.16784e-12
50.7387 73.7804 -5.46881e-12
3.16784e-12 -5.46881e-12 -24.7772

-1.53678 -30.213 6.12073e-12
-30.213 -6.55313 4.13062e-12
6.12073e-12 4.13062e-12 -6.99861

-7.04449 -14.6405 -4.0945e-13
-14.6405 -21.9197 -2.55647e-12
-4.0945e-13 -2.55647e-12 -32.6129

-11.8918 11.0919 8.46641e-12
11.0919 -16.4292 8.38692e-12
8.46641e-12 8.38692e-12 -77.7887

-26.167 -5.16013 -9.86929e-12
-5.16013 -6.38728 -3.68657e-12
-9.86929e-12 -3.68657e-12 -77.6225

-38.9422 13.0837 -1.7083e-12
13.0837 13.7444 7.38372e-13
-1.7083e-12 7.38372e-13 -10.2394

-14.4801 -10.6662 2.99153e-12
-10.6662 -17.3166 2.8626e-12
2.99153e-12 2.8626e-12 -78.7514

-25.9008 4.09194 3.48669e-12
4.09194 -5.91376 2.46226e-11
3.48669e-12 2.46226e-11 -78.8936

-3.6333 7.43315 -3.67055e-12
7.43315 -27.8591 -2.41733e-13
-3.67055e-12 -2.41733e-13 -77.9809

-43.9734 -12.1143 -1.79564e-12
-12.1143 2.91621 -2.1414e-12
-1.79564e-12 -2.1414e-12 -68.1534

11.9736 -30.4711 -1.05776e-11
-30.4711 76.1651 5.60618e-12
-1.05776e-11 5.60618e-12 -14.7011

0.52142 -12.9721 1.07647e-12
-12.9721 -39.9897 -3.381e-12
1.07647e-12 -3.381e-12 -45.2746

-16.3487 -34.4172 3.49587e-12
-34.4172 -22.0691 -1.44921e-12
3.49587e-12 -1.44921e-12 -23.5896

-2.42097 -18.1771 2.51088e-12
-18.1771 -29.8946 -1.2738e-12
2.51088e-12 -1.2738e-12 -33.6251

12.738 15.4596 -4.52734e-12
15.4596 -37.7171 -6.22287e-12
-4.52734e-12 -6.22287e-12 -9.62588

-46.9065 9.86362 -2.05391e-12
9.86362 8.87708 7.8817e-12
-2.05391e-12 7.8817e-12 -70.149

3.46222 19.2267 -6.96021e-12
19.2267 -41.4701 -6.16059e-12
-6.96021e-12 -6.16059e-12 -70.2649

1.4718 11.307 -1.64698e-12
11.307 -23.9647 3.88548e-12
-1.64698e-12 3.88548e-12 -31.8664

109.395 -15.3399 -9.04758e-13
-15.3399 -12.5355 3.6439e-12
-9.04758e-13 3.6439e-12 -25.0368

-14.3214 24.9649 1.79412e-13
24.9649 10.386 4.60728e-12
1.79412e-13 4.60728e-12 -5.80555

76.6093 -61.3565 8.97889e-12
-61.3565 37.3668 1.25269e-11
8.97889e-12 1.25269e-11 -22.3948

76.1161 -57.4588 3.56929e-12
-57.4588 99.2311 -7.10306e-12
3.56929e-12 -7.10306e-12 -5.55466

118.2 -36.5451 3.97904e-12
-36.5451 40.6019 7.16464e-12
3.97904e-12 7.16464e-12 -7.37803

-51.1119 -5.15886 -3.78068e-12
-5.15886 3.34028 9.11049e-12
-3.78068e-12 9.11049e-12 -60.6564

-50.4759 2.89129 8.65234e-13
2.89129 3.13455 5.89958e-12
8.65234e-13 5.89958e-12 -60.129

-11.9754 -24.4551 -7.39586e-12
-24.4551 -35.0017 8.48877e-12
-7.39586e-12 8.48877e-12 -59.1633

-8.99157 -21.7592 -7.266e-12
-21.7592 -37.8866 1.66119e-12
-7.266e-12 1.66119e-12 -59.4728

-14.7023 26.1347 6.87213e-12
26.1347 -33.0261 6.25048e-12
6.87213e-12 6.25048e-12 -60.7476

-18.1563 3.09861 1.04213e-12
3.09861 -13.1638 -1.04179e-11
1.04213e-12 -1.04179e-11 -75.4733

-9.94493 -20.508 1.48859e-12
-20.508 -32.6493 -5.83555e-12
1.48859e-12 -5.83555e-12 -56.7337

-26.6467 -18.5676 6.57104e-13
-18.5676 -14.1958 -1.07345e-11
6.57104e-13 -1.07345e-11 -71.2677

-15.4776 2.43389 -7.48098e-12
2.43389 -12.8522 -1.05083e-11
-7.48098e-12 -1.05083e-11 -77.8677

-6.02734 -20.5251 -8.13446e-12
-20.5251 -41.4855 -8.80481e-13
-8.13446e-12 -8.80481e-13 -60.5037

-6.75659 20.9547 6.05686e-12
20.9547 -40.1418 -5.84717e-13
6.05686e-12 -5.84717e-13 -60.0149

-14.3149 -3.45786 1.66933e-12
-3.45786 -11.3898 1.27454e-13
1.66933e-12 1.27454e-13 -76.8822

-11.2633 -3.11627 -7.70421e-12
-3.11627 -17.6881 1.02693e-11
-7.70421e-12 1.02693e-11 -74.0452

-24.2024 12.1096 4.58922e-12
12.1096 -13.4005 -6.69672e-12
4.58922e-12 -6.69672e-12 -69.9639

-22.0816 26.9286 -4.65405e-13
26.9286 -26.2663 6.86209e-12
-4.65405e-13 6.86209e-12 -57.5793

VECTORS fluid_flux_TPM float
-8.72232e-05 3.10299e-05 1.69123e-20
3.55966e-06 6.88276e-06 -1.01894e-20
-1.27878e-05 -1.02258e-05 7.37085e-21
-4.1707e-06 4.25416e-06 3.08137e-21
2.27084e-05 -6.3135e-06 1.49503e-20
2.75769e-06 -1.59041e-05 5.1065e-21
-8.5799e-05 -3.10946e-05 8.68626e-21
-1.38928e-05 -1.04671e-05 2.25324e-20
2.21225e-05 9.45551e-07 -2.31908e-22
1.13844e-05 -3.90822e-06 -2.21643e-21
5.46029e-05 1.24845e-05 -4.41108e-22
2.34696e-06 -1.71946e-05 -5.83925e-21
1.3612e-05 1.12542e-05 6.47984e-21
2.66218e-06 1.3785e-05 8.0466e-21
2.05817e-05 -2.94675e-06 -7.92197e-21
-1.63329e-05 -2.72906e-07 2.0265e-20
2.75363e-06 1.40993e-05 3.6292e-21
1.01821e-05 -2.39196e-06 -6.22366e-21
9.89897e-06 1.72233e-05 2.59457e-20
-1.4849e-05 1.88553e-06 8.88547e-21
-3.60129e-06 -2.13048e-05 -1.9163e-21
3.41127e-05 5.94207e-05 -1.27875e-20
1.56981e-05 1.63136e-06 8.24548e-21
1.12277e-05 -1.12819e-05 8.03749e-21
-1.5079e-05 -3.33253e-06 7.72829e-21
-6.77239e-07 -1.11313e-05 -9.26077e-21
6.29069e-05 -4.90873e-06 -3.19234e-22
1.40666e-05 1.02493e-05 4.97069e-21
-2.51509e-05 -2.06439e-05 -1.73834e-21
4.91231e-05 -1.28146e-05 2.3337e-20
-1.65832e-05 -6.0386e-06 1.74192e-20
5.53745e-06 -3.20387e-05 5.79351e-22
4.76575e-05 -4.80504e-05 -7.69613e-21
-4.92366e-06 -4.12505e-05 1.14656e-21
-2.96753e-05 3.70078e-05 2.11967e-20
-3.825e-05 -1.63962e-05 1.032e-20
3.27048e-05 4.32184e-05 1.23664e-20
-4.47438e-05 -8.72647e-06 -2.17024e-20
1.43754e-05 -1.10825e-05 -1.11292e-21
4.64732e-05 5.01186e-05 1.78139e-20
3.21316e-05 -1.4023e-05 9.19408e-21
3.36424e-05 -4.23464e-05 -1.64482e-20
-1.98978e-05 -5.03819e-05 -1.01751e-20
-1.5899e-05 6.35719e-06 9.32354e-21
3.05276e-05 -2.93163e-05 -4.50654e-21
-3.03347e-05 1.09911e-05 -7.49119e-21
-4.05047e-06 -2.03721e-05 1.25804e-20
7.88669e-06 2.02132e-05 1.83969e-20
-1.63437e-05 5.92828e-06 1.81008e-20
-1.78211e-05 2.8728e-05 -8.25638e-21
3.24111e-05 1.5292e-05 -1.37212e-21
2.93674e-05 -1.00759e-05 9.72643e-21
-1.56676e-05 1.57617e-05 8.20637e-21
-2.35431e-05 -2.0692e-05 -2.80881e-21
-2.11416e-05 -5.13287e-06 -1.49891e-20
-4.47953e-05 2.70784e-05 -1.64163e-21
-2.93744e-05 -3.80264e-05 -1.61044e-20
6.36403e-06 -3.06305e-05 6.72085e-21
-4.7712e-05 6.48346e-06 3.97794e-20
6.07467e-06 1.36983e-05 2.18988e-20
-5.57734e-06 -8.17423e-06 1.54262e-20
-6.58418e-06 -1.79454e-05 4.46805e-21
5.71496e-05 2.48621e-05 8.83724e-21
9.24378e-06 1.81461e-05 5.06923e-21
1.22978e-05 -1.44465e-05 4.30431e-21
-1.64074e-06 -2.07547e-05 -1.97788e-20
4.62158e-06 -8.80646e-06 4.26521e-21
-1.00916e-05 -5.56548e-06 2.65524e-20
-1.06038e-05 1.19306e-05 5.48305e-21
2.55847e-06 -4.09303e-06 -1.51988e-20
-1.5045e-05 -1.58449e-05 9.5314e-22
-2.13672e-05 5.16648e-06 3.78534e-20
-3.55715e-06 3.44852e-05 -7.65096e-21
-1.78738e-05 1.0712e-05 3.93933e-21
-9.07179e-06 1.46163e-05 2.43929e-20
-6.03617e-05 7.69304e-06 7.44633e-21
7.81893e-06 -2.16839e-05 7.2544e-21
-1.88822e-05 -8.90107e-06 4.03057e-20
1.93395e-06 1.16253e-05 2.67787e-21
2.63039e-05 5.09021e-06 -6.28641e-21
3.41729e-05 -2.89783e-05 1.45528e-20
2.21489e-05 2.05585e-05 4.36619e-21
1.19098e-05 -2.82265e-06 9.88105e-21
-3.21574e-05 2.407e-05 -5.96506e-21
3.79087e-05 4.8464e-06 -6.99218e-21
-4.98131e-06 4.94204e-05 -1.11404e-20
-1.74129e-06 -1.68591e-05 -2.55358e-20
1.8126e-05 9.95579e-06 1.43403e-20
2.93208e-05 3.02892e-05 2.27282e-21
5.50311e-05 3.80178e-05 2.56577e-20
-5.33192e-06 3.07764e-05 -3.90782e-22
5.91866e-05 -3.55165e-05 -3.08725e-20
-2.71279e-05 5.3418e-06 -7.90805e-21
1.78413e-05 1.10031e-05 5.89363e-22
-2.96446e-05 9.90449e-06 1.05204e-20
1.6655e-05 2.85245e-05 1.37749e-20
1.01701e-05 -4.43918e-05 -6.85818e-21
1.91571e-06 1.16221e-05 8.14089e-21
-1.48025e-05 -1.76222e-05 7.62248e-21
3.07026e-06 1.74767e-05 1.12553e-20
2.64099e-05 5.25808e-06 8.45739e-21
-1.54451e-05 3.32151e-05 -3.54551e-21
4.05569e-05 -1.33347e-05 2.88674e-21
-3.77349e-06 7.45592e-06 3.07639e-20
9.95401e-06 5.89999e-06 4.43531e-21
-2.28084e-06 -1.13259e-05 4.25066e-21
3.22105e-06 -1.92541e-05 8.03203e-21
1.74714e-05 3.89253e-06 -7.6943e-21
-7.93805e-06 4.09774e-05 -1.4172e-20
-9.80675e-06 2.47962e-07 8.19818e-21
9.31961e-06 1.18871e-05 5.79145e-23
-2.17747e-06 -4.17188e-05 -1.7447e-21
4.20279e-05 1.28665e-05 1.37121e-20
4.42308e-06 -7.45405e-06 1.00438e-21
-1.11465e-05 -3.55406e-06 2.65205e-20
-2.93291e-05 -1.24875e-05 3.19779e-21
1.58056e-05 4.1152e-05 -2.07364e-21
-4.34901e-05 -1.55757e-05 5.19079e-21
1.60204e-05 -4.11286e-05 -3.86389e-20
-3.7002e-06 -3.19239e-05 7.74434e-21
2.18414e-05 6.52243e-07 -9.05521e-21
-7.17232e-06 1.83988e-05 4.05666e-21
-1.61137e-06 3.97002e-06 -1.55587e-20
-3.68638e-06 -1.65406e-05 -3.33724e-21
5.23059e-06 -8.30306e-06 -2.65554e-20
9.36059e-06 1.58654e-05 1.95199e-20
3.3105e-05 1.06536e-05 3.39695e-21
8.61648e-06 -7.45889e-06 4.60142e-21
-8.27183e-06 -4.51652e-05 -1.44337e-20
2.55551e-05 -1.8822e-05 1.38719e-20
4.97851e-06 2.77745e-05 4.50747e-21
-2.81666e-06 -2.84194e-06 2.72378e-20
-8.62724e-06 -8.32679e-06 -3.26266e-21
-4.77721e-06 4.41234e-08 1.76837e-21
-2.28753e-05 2.85975e-05 1.24552e-20
1.87653e-05 -3.73793e-05 -1.07505e-20
-2.6583e-05 4.27194e-05 -2.17229e-20
-1.63737e-05 9.53636e-06 1.72537e-20
2.52824e-06 1.22003e-05 -5.14016e-21
-2.29894e-05 -3.49933e-05 2.85491e-21
1.39377e-05 3.34698e-05 -8.63321e-21
1.75097e-05 9.37026e-06 1.35324e-20
2.28141e-05 -8.5236e-06 -7.46361e-21
-1.25332e-06 -1.12666e-05 6.21759e-21
-3.39155e-05 -3.15616e-05 3.35361e-21
-2.75178e-06 1.13046e-05 1.34253e-20
1.72486e-05 1.01729e-05 1.37758e-20
1.88895e-05 -8.82181e-06 3.38361e-21
8.2441e-06 -1.43464e-05 5.91049e-21
2.43596e-05 -1.07965e-05 -3.89354e-21
1.90116e-05 -8.99885e-06 4.81729e-22
4.64115e-06 2.0583e-07 -6.21498e-22
2.57435e-05 2.02233e-05 1.4839e-20
-2.74192e-06 -1.70318e-05 -6.78725e-21
-1.04809e-05 -4.45749e-06 3.57801e-20
1.12598e-06 -3.89051e-06 -1.79964e-20
-3.15539e-06 1.58487e-05 7.93534e-21
-3.48873e-05 2.76842e-06 4.30798e-21
-1.21228e-05 -3.32619e-05 1.27065e-20
-7.87992e-06 9.78008e-06 -9.2828e-22
1.35667e-05 1.66421e-05 3.21469e-23
2.65714e-05 -1.87467e-05 2.39642e-20
-3.67963e-05 -2.0353e-05 1.38628e-20
1.74049e-05 -2.75105e-05 1.45692e-20
2.28064e-05 -2.72195e-05 9.83284e-21
-1.09455e-05 3.78534e-06 3.52578e-20
-1.98311e-05 -2.88434e-05 2.99254e-21
-3.48836e-05 -5.79205e-06 1.70548e-20
-3.8528e-06 -3.17461e-05 -1.31322e-20
1.54493e-05 -3.17025e-05 5.36571e-21
-9.10712e-06 -2.62023e-05 -1.37579e-20
4.58174e-06 3.14088e-05 -7.45512e-21
-1.57541e-05 -2.85252e-05 -6.66082e-21
2.93914e-06 -1.6294e-05 -1.33426e-20
-2.4742e-05 1.82619e-05 6.98491e-21
-1.50324e-05 -1.21124e-05 -5.41025e-21
-2.73558e-05 -5.173e-06 2.98523e-20
1.56698e-05 -9.18257e-06 -1.70603e-20
-4.30739e-06 2.39551e-05 3.32329e-21
1.22339e-05 -9.3255e-06 -1.02367e-20
-2.95891e-05 -1.31657e-05 9.31595e-21
-8.83262e-06 -7.45891e-06 1.26077e-20
9.08309e-06 7.54166e-06 3.58736e-21
2.14292e-05 2.87039e-05 1.06999e-20
-1.75108e-05 -1.08105e-05 3.63345e-21
-3.25098e-05 -7.5115e-07 9.37991e-21
-1.63385e-05 -5.01672e-06 3.54684e-20
-4.57861e-06 -1.65851e-05 -1.21813e-21
1.76866e-05 2.12415e-05 -1.10382e-21
-1.09585e-05 5.87541e-06 5.5076e-21
6.36127e-07 -2.05576e-05 1.07107e-21
-4.19444e-05 1.08521e-05 -1.91694e-20
2.48633e-05 2.02486e-05 1.28975e-20
3.79496e-06 3.2789e-05 -9.58394e-21
-2.43224e-06 3.79763e-06 3.16625e-20
-9.05192e-06 2.51232e-07 1.68317e-20
4.35558e-06 7.76095e-06 -3.36966e-21
-1.16952e-05 3.40184e-06 3.69928e-20
-2.0736e-06 -3.78534e-06 9.21617e-22
1.65998e-06 2.07622e-05 1.03719e-20
4.47291e-06 4.49745e-07 8.91912e-21
-1.95403e-05 4.75719e-06 -7.27271e-22
-1.73004e-05 1.93602e-05 2.13734e-20
-3.10779e-06 1.15795e-05 2.61598e-20
-2.92203e-05 1.83965e-05 1.25713e-20
-9.34442e-06 8.98034e-06 1.92692e-21
1.73132e-05 -1.16151e-05 -1.75232e-20
3.66084e-05 -3.56509e-06 3.44153e-21
-2.11431e-05 1.12986e-05 1.16185e-20
2.23326e-06 4.49875e-06 3.09211e-23
2.17778e-05 -4.34538e-06 -6.50924e-21
-1.72809e-05 1.0354e-05 8.2473e-21
-9.87291e-06 5.53967e-06 8.58412e-21
1.18328e-05 3.74313e-06 -9.12616e-21
2.18824e-05 -1.34727e-05 -1.23094e-20
-1.7382e-05 9.95726e-06 3.41819e-21
-2.50398e-05 -5.30366e-06 2.81944e-21
-1.67636e-05 -4.36298e-06 3.74232e-20
9.87736e-06 6.24586e-09 -5.42029e-21
1.0175e-05 1.95377e-07 1.44024e-20
4.39128e-06 8.31813e-06 -5.50001e-21
4.83012e-06 -8.79878e-06 2.96919e-21
-5.01093e-06 8.4208e-06 3.80663e-20
-5.26728e-06 -8.65859e-06 1.5311e-20
9.91214e-06 -7.40885e-06 -6.79179e-21
-2.03298e-05 3.23528e-06 3.75973e-20
-2.00622e-05 -3.28411e-06 -5.24415e-21
-1.28362e-05 1.58783e-05 -1.40835e-20
-1.2916e-05 -1.59326e-05 -7.04798e-21
7.48712e-06 -1.9846e-05 -3.65325e-20
7.20683e-06 1.97661e-05 2.03969e-21
1.558e-06 2.5888e-05 -2.0976e-21
1.12417e-05 -3.13719e-06 -1.31464e-20
2.36018e-06 -3.86696e-06 -6.33372e-21
-2.14138e-05 1.42185e-06 -1.28269e-20
7.67805e-06 -1.95152e-05 -4.07526e-20
7.27425e-06 1.96638e-05 4.46257e-21
4.76934e-06 -5.27194e-08 -9.33959e-21
8.96923e-06 2.44059e-05 2.07043e-20
-2.24253e-06 -4.01678e-06 1.87077e-20
2.31802e-06 -1.13182e-05 4.8288e-21
-2.24329e-05 -1.21529e-05 1.12889e-20
-2.13604e-05 -1.14958e-05 1.096e-20
-2.18949e-05 1.363e-05 1.34772e-20
3.25159e-06 -1.22889e-05 -2.71411e-20
-1.56549e-06 3.38232e-06 2.50808e-21
-5.87379e-07 -2.55716e-05 -1.45e-20
-7.72097e-06 -2.44252e-05 6.19426e-21
3.27071e-05 3.03654e-05 3.07985e-21
3.54565e-05 -1.81536e-06 -5.85652e-21
-1.27123e-05 -3.63251e-06 -4.64296e-21
-2.28947e-05 -4.13898e-05 -6.3816e-21
8.30501e-06 1.37492e-05 2.00777e-20
-2.5238e-05 3.03358e-06 8.44284e-21
2.0067e-05 5.78692e-06 -5.81651e-21
-4.53353e-06 -3.27435e-08 3.62685e-20
-4.6656e-06 -8.41349e-06 -3.11442e-21
-7.07352e-06 -3.93362e-05 -2.3257e-20
-9.70919e-06 -8.39291e-08 3.04747e-20
-4.86785e-05 -1.81587e-06 -3.97782e-21
1.73102e-05 -1.91069e-05 -2.15853e-21
2.42957e-06 3.99942e-06 -9.20284e-21
-1.20632e-07 -1.75152e-05 -9.00793e-21
-9.81924e-06 2.40859e-05 -3.88505e-21
-4.37241e-06 8.62813e-06 -1.2625e-20
2.05579e-05 -1.36071e-05 -2.91887e-21
-3.7662e-05 -1.35525e-05 8.31066e-21
-1.5267e-05 -2.03674e-05 -1.18567e-21
4.97746e-06 8.38972e-06 2.44592e-21
1.66324e-05 5.16097e-06 -7.55302e-21
-4.76423e-06 -7.33884e-06 9.11555e-21
1.97979e-05 3.54745e-06 3.73377e-21
1.81897e-05 -9.82645e-06 -9.02582e-21
-3.48835e-07 2.71745e-05 7.4039e-21
8.3209e-06 -1.36676e-05 -3.78647e-22
4.88067e-05 2.20072e-06 -1.93028e-20
-4.23592e-05 1.1454e-05 -2.40531e-21
2.28611e-05 1.15567e-05 1.49672e-20
-6.45321e-06 -1.718e-05 -1.72946e-20
-1.53505e-05 -8.61849e-06 2.96174e-20
2.87885e-05 -2.10551e-07 -4.38066e-22
-6.91991e-07 -2.42558e-05 1.35502e-20
-1.26178e-05 -1.08744e-05 8.15484e-21
1.02242e-05 -2.35004e-05 3.37634e-21
-4.96606e-07 2.0556e-05 1.49251e-20
7.91796e-06 2.60685e-05 1.33235e-20
1.72684e-05 -9.88454e-06 4.82546e-21
-1.89484e-05 1.92991e-05 1.76502e-20
1.65282e-05 2.00299e-05 1.54887e-20
-6.22321e-05 1.60223e-05 -8.6884e-21
-1.01094e-05 2.60168e-05 1.66378e-21
1.25193e-05 -1.52486e-05 -8.47061e-22
-7.02925e-06 -1.83982e-05 -2.28495e-20
-1.18538e-05 4.50579e-06 1.19019e-20
-2.5894e-05 -7.04597e-06 1.50318e-20
-6.38626e-06 3.88587e-05 1.70039e-20
-1.26062e-05 1.19027e-05 1.31334e-20
2.07771e-05 -4.4757e-06 1.448e-20
-6.8726e-06 -2.57948e-05 4.0136e-21
-1.48691e-05 2.38915e-05 1.28087e-20
-2.17894e-05 1.25651e-05 -7.80678e-21
-2.057e-05 -1.50558e-05 9.9235e-21
1.8029e-05 -2.06555e-05 -3.96673e-20
-2.75313e-05 -1.45628e-06 5.34693e-21
1.23675e-05 -4.08111e-05 1.75351e-21
1.93867e-05 -1.89135e-05 -5.76073e-21
2.47332e-05 4.30828e-05 2.31526e-21
1.97118e-06 1.98669e-05 2.9926e-20
2.96119e-06 -2.54218e-05 -1.2166e-20
-4.16373e-05 4.69629e-05 -2.51217e-20
-1.27024e-05 -2.44121e-05 8.7918e-22
1.63672e-05 -6.42067e-06 -3.55613e-21
-2.41092e-06 2.57728e-05 -6.2564e-21
1.28833e-05 -1.18267e-05 -1.42418e-20
1.38809e-05 2.43135e-05 -1.67892e-21
1.72303e-05 -1.40052e-06 2.19106e-20
2.21207e-05 -6.3218e-05 6.09179e-21
-5.87623e-06 -1.28595e-05 -6.19062e-21
-2.31849e-05 1.00874e-05 4.52565e-21
-2.00204e-05 1.87194e-05 2.01848e-21
2.16128e-05 1.4568e-05 -5.53669e-21
1.8673e-05 -1.07569e-05 -1.32301e-20
1.49523e-05 1.25937e-05 2.13655e-20
-5.42824e-06 4.55225e-08 1.83433e-20
1.5404e-05 -2.30878e-05 5.04404e-21
-1.69907e-05 -2.04096e-05 1.04092e-20
2.25624e-05 9.77392e-06 1.84154e-20
1.28069e-05 -1.199e-05 -1.1108e-20
9.55417e-06 -2.48523e-05 1.39992e-20
1.66596e-05 -6.93304e-06 -1.01851e-20
-1.58058e-05 -7.5448e-06 2.15583e-20
1.29689e-06 -2.63035e-05 3.48941e-21
-2.61074e-05 4.47319e-06 -3.26385e-21
2.39048e-06 2.45433e-05 7.9996e-21
2.05854e-05 6.62761e-06 -9.0925e-21
-2.1721e-05 -1.07021e-05 7.17895e-21
-8.97739e-06 2.56107e-05 3.30813e-21
-1.49539e-06 -2.41886e-05 1.26853e-20
1.94669e-05 1.18377e-05 2.05167e-20
-1.76899e-06 1.80852e-05 -2.61872e-21
-2.01393e-05 1.3703e-05 2.39626e-23
2.35115e-05 1.14155e-05 3.98662e-21
-1.71157e-05 -9.98589e-06 1.66819e-20
9.51203e-08 -1.98353e-05 1.63284e-21
1.83829e-05 1.99848e-05 -3.93143e-21
-2.21544e-05 -1.43041e-05 7.05102e-21
4.83526e-05 -3.39832e-05 1.66528e-21
1.78976e-05 -1.08228e-05 -1.08748e-20
9.00226e-06 4.30887e-05 4.09787e-21
1.70347e-05 -1.36791e-05 -9.99231e-21
-1.98751e-05 8.70392e-05 -7.26776e-21
-1.97653e-05 -8.65535e-05 -6.10725e-21
5.7187e-05 7.17203e-05 1.78876e-20
5.69246e-05 -7.1394e-05 3.79016e-21
9.0651e-05 -1.53244e-10 3.26295e-21
-7.82045e-05 3.76409e-05 2.97829e-21
-7.74588e-05 -3.72851e-05 1.42702e-20
1.22344e-05 1.18192e-05 8.58259e-21
2.93694e-05 2.18934e-05 2.05919e-20
1.14487e-05 3.33298e-06 -3.32266e-22
1.88566e-05 9.75199e-06 8.88455e-21
4.98951e-06 2.01712e-05 -6.92943e-21
-1.88328e-05 -1.49811e-05 1.04049e-20
1.70389e-05 -1.02147e-05 -8.3719e-21
1.98536e-05 1.45501e-05 -1.27147e-21
-3.16708e-06 2.43653e-05 7.34173e-21
2.94422e-05 -1.99939e-05 -1.45704e-20
3.79413e-06 -2.37411e-05 1.19219e-20
2.1962e-05 5.22733e-06 1.97566e-20
2.98975e-05 1.10266e-05 1.57982e-20
1.42095e-05 1.41446e-05 8.66991e-21
1.58841e-05 6.59405e-06 -2.53687e-21
-1.84998e-05 1.09372e-05 -6.79784e-21
-2.25644e-05 9.03717e-06 -2.3099e-20
2.29308e-05 -1.12641e-05 -1.81659e-20
-1.82689e-05 -9.99859e-06 2.80867e-20
-1.85555e-05 -1.05831e-05 1.48317e-20
-3.43855e-07 -2.0769e-05 -1.51112e-20
-8.61285e-08 -2.1162e-05 3.45668e-21
-2.01283e-05 -1.00553e-06 8.9755e-23
2.67006e-05 -4.01939e-06 -5.09437e-21
1.81131e-05 1.13428e-05 -1.0853e-22
-1.78653e-05 1.09457e-05 -1.49821e-20
-1.53624e-05 1.66247e-05 7.15954e-21
1.60231e-05 -1.37541e-05 6.23427e-21
-1.10242e-05 1.74645e-05 2.38533e-20
-1.42258e-05 -1.48905e-05 -3.56035e-21
-1.1553e-06 2.1212e-05 1.28654e-20
-1.28774e-06 2.09696e-05 5.05103e-21
8.97468e-08 -1.98353e-05 -1.63988e-20
6.11124e-06 -1.97386e-05 1.68584e-20
-1.7142e-05 -9.93614e-06 2.01974e-20
1.55878e-05 -5.49063e-06 -2.00148e-21
6.6323e-07 2.14792e-05 4.02997e-21
3.0088e-07 1.85087e-05 4.58871e-21
-2.34589e-06 1.68584e-05 -5.13853e-22
2.19102e-05 -5.52778e-06 -1.24167e-20
-1.65424e-05 5.37845e-06 4.64752e-21
4.15776e-06 2.15189e-05 8.83391e-21
-3.25606e-05 1.29202e-05 -1.84691e-20
9.76411e-06 4.17344e-05 -7.63399e-21
-1.70547e-05 4.56846e-06 5.88148e-22
1.96858e-05 -1.16309e-05 -3.29874e-21
9.4586e-07 2.1021e-05 4.66632e-21
-2.04827e-05 6.69992e-06 1.11046e-20
2.44429e-06 -1.62636e-05 -1.02473e-20
1.8195e-06 -5.80169e-05 1.3215e-21
2.00663e-06 1.74875e-05 4.44774e-21
-1.69633e-05 1.40237e-05 4.04998e-21
1.78555e-05 6.39765e-05 -8.51919e-23
4.57727e-05 3.77096e-05 9.44631e-21
5.20689e-05 -3.52583e-05 -2.60958e-20
1.48166e-05 -1.01679e-05 -1.45583e-20
-1.57867e-05 1.40387e-05 1.50339e-20
-2.02185e-05 -7.92132e-06 7.75284e-21
-1.96472e-05 -6.82296e-06 1.75372e-20
5.92717e-05 -2.46139e-05 -1.64946e-20
5.74382e-05 2.38728e-05 8.19466e-22
1.08954e-05 3.81778e-06 -6.36493e-21
7.66712e-07 1.95809e-05 9.88833e-21
7.8382e-08 1.95622e-05 1.41599e-20
-4.83868e-05 -3.6922e-05 -1.13293e-21
1.14261e-05 -1.71733e-05 -7.0895e-21
1.17342e-05 1.24657e-05 1.14154e-20
-2.14199e-05 -3.39602e-06 -1.10597e-20
-1.40462e-05 1.72036e-05 2.13316e-20
-1.88901e-05 9.16854e-06 -8.45372e-21
4.76473e-05 3.3697e-05 6.15697e-21
1.58078e-05 7.06224e-06 1.94007e-20
-5.56721e-06 2.00321e-05 -4.52503e-21
-1.69795e-05 -1.17502e-05 1.80453e-20
1.85643e-06 -2.05446e-05 9.44967e-22
-8.95048e-06 -1.9269e-05 -9.47661e-21
-1.72506e-05 -1.17746e-05 1.79519e-20
1.05805e-05 -1.89374e-05 2.21334e-20
1.41237e-05 -1.69908e-05 4.97705e-21
-2.44048e-06 -6.14428e-05 -5.27627e-21
2.61825e-05 -4.11293e-05 -6.91154e-21
1.74767e-06 -2.07874e-05 -2.90188e-21
1.79603e-05 1.13564e-05 -2.58568e-21
-1.44776e-05 -1.49067e-05 1.63457e-20
-9.84194e-06 1.97119e-05 1.82878e-20
-5.03986e-06 2.10086e-05 -1.39989e-20
1.66287e-05 1.4245e-05 7.5682e-21
6.05957e-06 -1.98632e-05 2.16277e-21
-1.34076e-05 -4.03617e-05 -1.3703e-20
-1.98855e-06 2.50427e-05 6.39081e-22
1.47932e-05 1.44564e-05 -1.5512e-20
-1.29595e-05 -1.02177e-05 -2.455e-21
-1.35162e-05 1.06092e-05 1.78297e-20
4.43469e-05 -1.89149e-05 -6.10936e-21
7.56376e-06 -1.34014e-05 7.08738e-21
-8.31792e-06 -1.26282e-05 3.82624e-21
2.13325e-05 6.36407e-06 -1.15575e-20
1.09954e-05 -5.06667e-05 -1.28063e-20
-3.8455e-05 -3.49062e-05 9.24107e-21
2.33089e-05 6.20797e-06 1.91057e-20
-9.3291e-06 -1.82829e-05 -6.19304e-21
1.87074e-05 9.48367e-06 1.29118e-20
-2.85671e-05 -3.25545e-05 6.33826e-21
9.6891e-06 5.00515e-05 -1.78568e-22
3.43374e-05 -5.98653e-05 -2.44221e-20
-3.47404e-05 -5.97822e-05 -2.09602e-20
2.78112e-05 -5.2027e-05 1.43706e-20
-1.26993e-05 4.36373e-05 -1.58313e-20
-6.27666e-06 3.89811e-05 1.05902e-20
-1.87325e-05 8.94674e-06 2.34666e-22
5.97778e-06 2.42445e-05 2.32724e-20
-2.39179e-06 1.26552e-05 2.65026e-20
1.01211e-05 3.23344e-06 4.31586e-21
-3.18876e-06 1.6207e-05 5.78166e-21
-2.47465e-07 2.09937e-05 2.47761e-20
1.66622e-05 9.75149e-06 1.47702e-20
1.71058e-06 5.77297e-05 -9.32898e-21
-1.47186e-05 1.07337e-05 2.17734e-21
1.59509e-05 -6.24719e-06 -1.7998e-20
1.68734e-05 -4.50939e-06 -1.15254e-20
-6.06685e-05 -8.76973e-06 2.40622e-21
-3.46089e-05 1.6743e-05 -1.76548e-20
-4.35187e-05 -5.25513e-05 -1.28396e-20
8.65734e-06 8.34647e-06 -7.28806e-21
1.42112e-05 7.29322e-06 9.44358e-21
2.68073e-05 -4.19625e-06 -1.45031e-20
-8.10513e-06 -1.32441e-05 2.12761e-21
1.72182e-05 8.42939e-06 -5.06162e-21
7.33602e-06 -3.00374e-05 4.50349e-21
-1.3715e-05 1.02059e-05 8.70507e-21
-2.23764e-05 -2.14243e-05 -5.19865e-21
-5.8365e-06 1.62992e-05 1.80234e-20
-3.27129e-06 2.06804e-05 -5.51152e-21
3.38529e-05 2.12984e-05 4.56574e-22
3.61166e-05 -1.92846e-05 -1.62648e-20
-4.20744e-05 -1.16241e-05 -6.30279e-22
7.63488e-06 7.68644e-06 6.8979e-21
-4.05872e-06 0.00010137 -3.10016e-21
8.62038e-07 -0.000104477 -1.30455e-20
5.24593e-05 8.76529e-05 2.16187e-21
-1.91047e-05 8.45868e-06 -2.40711e-21
-2.63788e-05 5.65548e-05 -2.69332e-21
5.30376e-05 -8.46473e-05 -1.74198e-21
-1.17216e-05 -1.8284e-05 -5.22231e-21
7.8007e-05 6.75035e-05 -8.57167e-21
2.39957e-05 -1.79784e-05 -3.50178e-22
-3.60775e-06 -2.98248e-05 -5.81529e-21
8.1786e-05 -6.5856e-05 -4.24642e-21
-6.74522e-06 1.45196e-05 2.11976e-20
-5.38371e-05 -3.48272e-05 5.1738e-21
-4.3017e-05 -9.31384e-05 -1.35057e-20
-2.41146e-05 -5.78095e-05 -1.28517e-20
-4.39787e-05 9.41455e-05 -3.58644e-21
-1.00941e-05 6.40896e-05 -2.68146e-20
1.56341e-05 3.71115e-05 -1.31725e-21
-2.79578e-05 3.72439e-05 -7.88137e-21
-2.52751e-05 -5.51884e-05 -1.05892e-20
0.000100374 1.73184e-05 1.89053e-21
-1.6929e-05 1.0768e-05 -4.12878e-21
-5.91286e-06 1.63344e-05 -9.06067e-21
-5.07626e-05 3.76432e-05 -2.81644e-22
-1.72778e-05 9.94501e-06 -8.23515e-21
9.92113e-05 -1.52646e-05 1.20323e-20
-1.53616e-05 7.7994e-06 -1.02836e-20
7.19326e-06 -1.44962e-05 -5.8062e-21
-7.79762e-05 -6.09538e-05 3.976e-21
-2.58811e-05 5.77223e-05 -2.50999e-20
-7.91292e-05 6.0381e-05 1.03728e-20
2.45425e-05 5.19548e-05 1.65598e-20
-1.47688e-05 1.05834e-05 8.9091e-21
-2.05316e-05 2.44787e-05 -1.51688e-20
-2.85352e-05 4.98222e-05 1.58394e-20
-5.6781e-05 2.08015e-07 -4.69997e-21
-9.44175e-07 1.62975e-05 5.27447e-21
-2.88521e-05 -5.04108e-05 -2.56062e-20
-5.82034e-05 -2.19841e-07 -9.02519e-21
-2.8352e-05 4.87005e-05 -1.76417e-20
-1.51916e-05 6.62719e-05 2.24111e-20
-1.78662e-05 4.12642e-05 -1.14672e-20
-3.39032e-05 2.71397e-05 -3.26508e-20
2.4385e-05 -6.05746e-06 2.50898e-21
3.8006e-05 -2.19549e-06 -1.05647e-20
1.34835e-05 8.20102e-06 -9.60151e-21
-1.04701e-05 -7.39941e-05 -3.19496e-20
-6.9455e-05 -2.79766e-05 7.51857e-22
3.71354e-05 7.3279e-07 1.32225e-20
5.83712e-05 -1.08931e-05 -2.06776e-20
-1.05846e-05 -1.34983e-05 2.39925e-21
-5.08331e-05 3.76291e-05 -5.06982e-21
-4.61376e-05 5.40049e-05 -1.15124e-20
6.2368e-05 -2.22343e-05 -1.67401e-20
-2.81798e-05 -5.05015e-05 -2.12021e-20
-2.87796e-05 4.97838e-05 2.44751e-20
-5.72594e-05 -1.17127e-06 -1.17464e-20
-2.65757e-05 5.06022e-05 -1.22706e-20
-5.79582e-05 -8.17078e-07 1.30719e-20
6.60819e-05 1.7394e-05 -8.64043e-22
5.63851e-05 1.29263e-06 -2.53725e-20
5.09046e-05 -2.92764e-05 -3.02031e-20
2.49124e-05 -5.94323e-05 -2.65969e-20
2.99211e-05 -4.8861e-05 -2.55501e-20
2.91699e-05 4.8685e-05 1.17507e-21
2.43472e-05 5.80944e-05 2.26276e-20
7.5809e-05 -2.00393e-05 1.93416e-20
4.62704e-05 2.90658e-05 5.39784e-21
4.66283e-05 1.37467e-05 -1.30359e-21
TENSORS solid_stress_TPM float
375.04 -24.9207 2.19795e-12
-24.9207 238.575 -2.73559e-12
2.19795e-12 -2.73559e-12 197.822

457.016 -21.3204 -5.24891e-12
-21.3204 490 -2.26841e-12
-5.24891e-12 -2.26841e-12 487.122

454.89 28.0441 9.68114e-13
28.0441 463.72 4.72215e-13
9.68114e-13 4.72215e-13 458.47

455.041 -29.8426 7.39112e-13
-29.8426 482.622 -1.18572e-12
7.39112e-13 -1.18572e-12 484.869

527.696 19.9309 -2.36403e-12
19.9309 548.464 -6.80078e-12
-2.36403e-12 -6.80078e-12 527.367

437.322 -18.075 9.03722e-13
-18.075 480.351 8.0469e-13
9.03722e-13 8.0469e-13 458.051

372.335 26.4849 4.59011e-12
26.4849 239.095 -5.37999e-12
4.59011e-12 -5.37999e-12 197.807

473.664 29.9584 -4.39767e-12
29.9584 469.513 2.52568e-12
-4.39767e-12 2.52568e-12 472.349

471.561 5.48328 -4.54747e-13
5.48328 417.833 -2.53645e-12
-4.54747e-13 -2.53645e-12 432.806

504.271 -7.47759 2.41555e-12
-7.47759 444.124 -1.41983e-12
2.41555e-12 -1.41983e-12 483.463

360.302 16.3091 -4.41958e-12
16.3091 247.661 -4.73162e-12
-4.41958e-12 -4.73162e-12 233.651

444.793 -13.4535 2.56935e-12
-13.4535 498.397 -4.44504e-12
2.56935e-12 -4.44504e-12 472.25

466.879 27.8337 1.07943e-12
27.8337 468.314 1.93801e-12
1.07943e-12 1.93801e-12 466.745

457.048 -14.3404 3.70216e-12
-14.3404 500.446 -6.80937e-14
3.70216e-12 -6.80937e-14 483.469

512.947 33.3105 -1.49421e-12
33.3105 511.607 3.2457e-12
-1.49421e-12 3.2457e-12 515.236

489.184 0.561011 6.59028e-13
0.561011 435.534 2.7286e-12
6.59028e-13 2.7286e-12 462.283

457.595 -17.969 8.02515e-13
-17.969 512.897 -5.7699e-12
8.02515e-13 -5.7699e-12 493.608

493.97 -2.6652 1.05012e-12
-2.6652 439.06 -2.74255e-12
1.05012e-12 -2.74255e-12 474.275

418.803 26.6747 -4.44089e-13
26.6747 449.671 2.21808e-12
-4.44089e-13 2.21808e-12 424.063

481.993 -4.19573 -2.68467e-12
-4.19573 424.932 6.24686e-14
-2.68467e-12 6.24686e-14 453.485

425.306 8.66896 2.57098e-12
8.66896 481.914 -4.24786e-12
2.57098e-12 -4.24786e-12 444.852

634.13 6.28708 -1.68423e-12
6.28708 633.966 -4.66146e-13
-1.68423e-12 -4.66146e-13 570.324

479.164 1.87602 -3.77653e-12
1.87602 422.95 -8.30669e-13
-3.77653e-12 -8.30669e-13 449.743

447.173 -27.716 1.59339e-12
-27.716 461.161 4.78314e-12
1.59339e-12 4.78314e-12 452.958

481.061 6.84956 -2.17663e-12
6.84956 425.451 -1.45957e-13
-2.17663e-12 -1.45957e-13 452.949

449.769 19.1132 2.21312e-12
19.1132 490.329 1.09601e-12
2.21312e-12 1.09601e-12 478.217

377.663 4.18153 -5.37407e-12
4.18153 291.66 -3.52015e-13
-5.37407e-12 -3.52015e-13 259.008

462.696 30.7466 -2.07597e-12
30.7466 460.725 3.99562e-12
-2.07597e-12 3.99562e-12 460.556

384.95 37.0758 1.01489e-12
37.0758 383.529 3.32771e-13
1.01489e-12 3.32771e-13 348.427

586.947 10.3235 -2.08722e-13
10.3235 563.458 -4.78421e-12
-2.08722e-13 -4.78421e-12 546.88

491.699 14.217 -1.88708e-12
14.217 442.508 -1.70145e-12
-1.88708e-12 -1.70145e-12 465.867

352.863 -17.7811 3.13912e-12
-17.7811 416.734 2.70717e-12
3.13912e-12 2.70717e-12 348.598

331.025 -42.103 9.71075e-14
-42.103 335.88 3.66877e-12
9.71075e-14 3.66877e-12 253.488

531.417 5.98629 3.4348e-12
5.98629 586.895 -5.00015e-12
3.4348e-12 -5.00015e-12 538.59

554.03 -4.83997 -1.92468e-12
-4.83997 582.078 2.37529e-12
-1.92468e-12 2.37529e-12 542.52

577.993 21.0277 -1.52056e-12
21.0277 539.954 -3.71421e-12
-1.52056e-12 -3.71421e-12 538.358

556.191 5.06679 -6.72247e-12
5.06679 600.679 1.1043e-13
-6.72247e-12 1.1043e-13 547.977

573.781 -9.17027 9.53075e-12
-9.17027 555.772 3.11984e-12
9.53075e-12 3.11984e-12 540.646

467.138 -27.9988 -5.01762e-12
-27.9988 466.502 5.45934e-13
-5.01762e-12 5.45934e-13 465.118

330.409 41.5222 -3.54798e-12
41.5222 337.978 -2.20268e-12
-3.54798e-12 -2.20268e-12 253.847

414.535 -17.9497 3.45797e-12
-17.9497 354.495 -2.33709e-12
3.45797e-12 -2.33709e-12 346.328

559.312 -3.70545 5.98736e-12
-3.70545 599.928 -8.34444e-13
5.98736e-12 -8.34444e-13 548.391

586.418 19.5545 3.12076e-12
19.5545 572.46 5.29354e-13
3.12076e-12 5.29354e-13 548.18

490.904 -12.2734 -3.45679e-12
-12.2734 442.863 4.29286e-14
-3.45679e-12 4.29286e-14 466.539

341.715 -43.3005 -2.59467e-12
-43.3005 345.343 2.83743e-12
-2.59467e-12 2.83743e-12 288.982

417.561 -18.064 -3.42008e-12
-18.064 357.113 1.758e-12
-3.42008e-12 1.758e-12 351.502

413.015 17.0862 2.05613e-13
17.0862 464.785 2.10498e-12
2.05613e-13 2.10498e-12 428.729

429.631 19.3396 -9.92095e-13
19.3396 466.516 1.86221e-12
-9.92095e-13 1.86221e-12 437.082

486.783 -16.3014 -4.09746e-13
-16.3014 432.877 1.68902e-12
-4.09746e-13 1.68902e-12 458.68

355.581 -34.1866 -2.06946e-12
-34.1866 389.403 -1.65083e-12
-2.06946e-12 -1.65083e-12 332.569

410.253 19.1825 -4.18036e-13
19.1825 350.702 -7.59097e-13
-4.18036e-13 -7.59097e-13 339.478

425.202 -25.2892 1.20319e-12
-25.2892 383.822 4.58211e-12
1.20319e-12 4.58211e-12 373.078

519.922 19.4851 4.58004e-13
19.4851 547.533 -4.68366e-12
4.58004e-13 -4.68366e-12 525.733

416.414 29.6504 -6.10475e-12
29.6504 393.887 -1.20792e-13
-6.10475e-12 -1.20792e-13 373.942

522.178 -21.8127 -7.28573e-12
-21.8127 541.398 1.26716e-12
-7.28573e-12 1.26716e-12 524.38

364.072 -42.7125 4.52379e-12
-42.7125 343.283 3.1702e-12
4.52379e-12 3.1702e-12 289.7

553.452 5.45896 -5.58783e-12
5.45896 583.87 -2.21393e-12
-5.58783e-12 -2.21393e-12 542.895

373.717 -5.32999 1.0069e-12
-5.32999 436.665 -2.25242e-12
1.0069e-12 -2.25242e-12 373.826

580.818 10.3844 -2.50999e-12
10.3844 556.172 -7.90812e-13
-2.50999e-12 -7.90812e-13 542.651

435.059 21.4136 1.67481e-12
21.4136 473.765 -1.94274e-12
1.67481e-12 -1.94274e-12 454.675

513.577 5.75418 -1.91787e-12
5.75418 452.81 1.36898e-12
-1.91787e-12 1.36898e-12 494.869

522.462 11.4589 -1.91358e-12
11.4589 487.865 -3.5761e-12
-1.91358e-12 -3.5761e-12 507.083

383.708 31.8206 -4.68011e-12
31.8206 315.195 -2.67046e-12
-4.68011e-12 -2.67046e-12 269.872

482.092 -6.03548 3.44717e-12
-6.03548 528.185 -5.1544e-12
3.44717e-12 -5.1544e-12 504.105

487.1 9.51999 -1.04953e-13
9.51999 523.694 1.81307e-12
-1.04953e-13 1.81307e-12 507.5

456.463 -2.88105 3.35006e-12
-2.88105 520.162 -6.00645e-12
3.35006e-12 -6.00645e-12 487.812

464.46 23.4018 8.18827e-13
23.4018 503.475 7.60873e-14
8.18827e-13 7.60873e-14 495.446

496.753 8.46373 -3.85262e-12
8.46373 444.403 -4.07082e-13
-3.85262e-12 -4.07082e-13 477.704

445.512 -28.2401 1.47142e-13
-28.2401 459.534 -3.35139e-13
1.47142e-13 -3.35139e-13 451.172

501.688 -1.71133 -1.24878e-12
-1.71133 444.922 -1.9628e-12
-1.24878e-12 -1.9628e-12 489.074

519.535 -19.2611 -4.76597e-12
-19.2611 546.826 1.14368e-12
-4.76597e-12 1.14368e-12 525.466

523.307 21.3078 -3.04349e-12
21.3078 542.922 -4.58115e-13
-3.04349e-12 -4.58115e-13 525.269

353.414 -16.584 2.78311e-12
-16.584 415.741 2.42769e-13
2.78311e-12 2.42769e-13 346.117

506.026 -27.9364 4.08562e-13
-27.9364 485.314 -4.68662e-13
4.08562e-13 -4.68662e-13 493.885

449.726 -25.1352 2.56032e-12
-25.1352 471.227 5.03656e-12
2.56032e-12 5.03656e-12 458.583

357.874 -31.7115 1.02081e-12
-31.7115 285.679 4.63629e-12
1.02081e-12 4.63629e-12 249.861

498.503 3.22278 -4.90511e-12
3.22278 541.41 -7.25938e-13
-4.90511e-12 -7.25938e-13 513.647

501.732 28.9442 2.95586e-12
28.9442 474.555 2.41525e-12
2.95586e-12 2.41525e-12 487.663

448.45 19.6644 4.85108e-12
19.6644 492.114 8.52355e-13
4.85108e-12 8.52355e-13 477.649

440.199 7.9998 2.60769e-12
7.9998 373.042 1.49569e-12
2.60769e-12 1.49569e-12 382.94

386.456 -33.9366 -8.3844e-13
-33.9366 360.211 5.07564e-12
-8.3844e-13 5.07564e-12 319.44

537.723 -10.5873 -3.33777e-12
-10.5873 556.142 5.61921e-13
-3.33777e-12 5.61921e-13 531.253

482.663 23.8997 1.38615e-12
23.8997 504.565 2.37336e-12
1.38615e-12 2.37336e-12 502.048

385.377 -32.3848 2.02505e-12
-32.3848 345.311 1.69938e-12
2.02505e-12 1.69938e-12 317.086

422.204 10.7914 2.14584e-12
10.7914 363.856 -5.17023e-12
2.14584e-12 -5.17023e-12 350.258

307.655 -21.2066 4.4776e-12
-21.2066 388.448 1.54804e-11
4.4776e-12 1.54804e-11 288.119

434.451 14.4259 2.81582e-12
14.4259 488.676 -3.75048e-12
2.81582e-12 -3.75048e-12 460.89

509.727 23.1435 9.81141e-13
23.1435 475.177 1.65734e-12
9.81141e-13 1.65734e-12 489.952

338.245 42.2 5.66066e-13
42.2 349.576 -9.20153e-13
5.66066e-13 -9.20153e-13 288.955

634.216 16.5065 -5.55371e-12
16.5065 603.071 8.00323e-12
-5.55371e-12 8.00323e-12 565.328

372.894 -4.1085 1.79412e-13
-4.1085 436.825 -3.17376e-12
1.79412e-13 -3.17376e-12 373.433

637.122 -16.6317 5.97137e-12
-16.6317 599.541 1.13499e-11
5.97137e-12 1.13499e-11 564.835

533.944 -27.3349 4.3876e-13
-27.3349 507.244 -1.26166e-12
4.3876e-13 -1.26166e-12 515.72

505.303 27.4248 3.75226e-12
27.4248 466.341 -2.95171e-13
3.75226e-12 -2.95171e-13 485.079

426.933 -24.4114 -1.5099e-12
-24.4114 386.245 -3.47426e-12
-1.5099e-12 -3.47426e-12 375.984

358.942 31.3243 3.67824e-12
31.3243 396.011 1.55727e-12
3.67824e-12 1.55727e-12 339.206

339.83 -10.7054 6.18646e-12
-10.7054 408.398 -2.92744e-12
6.18646e-12 -2.92744e-12 319.11

453.112 21.9709 1.22051e-12
21.9709 494.687 -1.72988e-12
1.22051e-12 -1.72988e-12 483.176

533.12 16.7944 -9.41469e-14
16.7944 506.204 5.08749e-12
-9.41469e-14 5.08749e-12 513.359

443.46 15.1543 3.51201e-12
15.1543 488.448 -3.05178e-12
3.51201e-12 -3.05178e-12 464.29

451.489 15.9543 7.17648e-13
15.9543 400.544 7.4459e-14
7.17648e-13 7.4459e-14 403.754

374.495 -21.4732 -6.81529e-13
-21.4732 419.875 -2.62072e-12
-6.81529e-13 -2.62072e-12 357.204

389.729 -29.3915 -1.32398e-12
-29.3915 342.375 -6.19771e-12
-1.32398e-12 -6.19771e-12 314.396

454.974 -24.5733 8.0691e-13
-24.5733 480.074 3.19744e-13
8.0691e-13 3.19744e-13 478.379

466.435 27.4514 -8.35776e-13
27.4514 478.751 -1.21828e-12
-8.35776e-13 -1.21828e-12 479.818

452.226 23.1878 -8.25266e-13
23.1878 492.568 5.63697e-13
-8.25266e-13 5.63697e-13 482.052

466.304 13.169 -3.55916e-12
13.169 529.784 -2.36315e-12
-3.55916e-12 -2.36315e-12 501.391

490.871 9.3724 1.75682e-12
9.3724 437.897 5.88004e-12
1.75682e-12 5.88004e-12 462.064

327.717 -4.66518 1.14279e-13
-4.66518 403.389 3.97904e-12
1.14279e-13 3.97904e-12 314.417

462.588 -36.8327 -3.55567e-12
-36.8327 487.699 3.84729e-13
-3.55567e-12 3.84729e-13 492.757

445.858 27.466 -5.1541e-12
27.466 463.279 1.47378e-12
-5.1541e-12 1.47378e-12 455.023

305.676 2.17036 -5.25839e-12
2.17036 393.368 -1.42819e-12
-5.25839e-12 -1.42819e-12 297.261

386.004 34.6114 -1.71478e-12
34.6114 332.454 3.57699e-12
-1.71478e-12 3.57699e-12 306.251

453.36 -22.9743 -3.04083e-12
-22.9743 480.079 1.07174e-13
-3.04083e-12 1.07174e-13 476.181

501.404 5.73295 -1.59872e-12
5.73295 441.325 -4.37428e-14
-1.59872e-12 -4.37428e-14 481.019

422.389 27.2049 -4.02404e-12
27.2049 389.774 -3.51896e-12
-4.02404e-12 -3.51896e-12 374.241

570.547 12.7452 3.59194e-12
12.7452 565.922 -2.21364e-12
3.59194e-12 -2.21364e-12 542.923

396.186 24.3313 7.26412e-12
24.3313 349.655 3.59949e-12
7.26412e-12 3.59949e-12 319.05

569.17 -13.0548 -1.08713e-12
-13.0548 565.833 -8.32194e-12
-1.08713e-12 -8.32194e-12 542.378

375.099 0.778576 6.29126e-14
0.778576 438.878 -2.50466e-12
6.29126e-14 -2.50466e-12 374.648

461.48 -2.23539 -4.85893e-12
-2.23539 399.311 -3.43695e-12
-4.85893e-12 -3.43695e-12 417.29

538.204 -15.7675 -1.28297e-12
-15.7675 480.64 2.23673e-12
-1.28297e-12 2.23673e-12 513.486

457.254 24.3882 2.39994e-12
24.3882 487.795 8.57092e-13
2.39994e-12 8.57092e-13 488.363

461.265 -13.5351 -2.20512e-12
-13.5351 519.144 3.8618e-12
-2.20512e-12 3.8618e-12 495.723

514.978 -7.99979 -4.68514e-13
-7.99979 438.202 -8.73227e-13
-4.68514e-13 -8.73227e-13 494.286

488.323 -22.2834 2.874e-12
-22.2834 541.61 3.48758e-13
2.874e-12 3.48758e-13 515.758

556.057 -6.59715 -1.92231e-12
-6.59715 560.4 -4.31847e-12
-1.92231e-12 -4.31847e-12 538.736

463.876 -29.9083 -1.17447e-12
-29.9083 483.206 -2.8629e-13
-1.17447e-12 -2.8629e-13 483.609

341.713 11.454 -3.96483e-12
11.454 406.202 -1.42819e-12
-3.96483e-12 -1.42819e-12 319.489

422.49 -28.1474 1.84978e-12
-28.1474 391.25 -2.84809e-13
1.84978e-12 -2.84809e-13 375.155

507.388 -13.7716 -5.17519e-12
-13.7716 558.755 -2.07005e-12
-5.17519e-12 -2.07005e-12 525.259

501.066 0.504614 2.37721e-12
0.504614 441.29 -1.41553e-12
2.37721e-12 -1.41553e-12 487.096

476.951 -21.5243 2.89591e-12
-21.5243 507.431 -2.73115e-12
2.89591e-12 -2.73115e-12 501.513

459.107 25.6979 7.45922e-13
25.6979 484.611 -2.5232e-12
7.45922e-13 -2.5232e-12 487.991

394.438 -31.4654 2.99849e-12
-31.4654 400.607 -3.87246e-13
2.99849e-12 -3.87246e-13 357.529

552.132 -7.08426 3.09515e-12
-7.08426 585.301 -2.72108e-12
3.09515e-12 -2.72108e-12 542.61

347.216 -33.0777 -3.45442e-12
-33.0777 382.615 4.14483e-12
-3.45442e-12 4.14483e-12 303.441

490.88 -19.18 6.33567e-13
-19.18 448.396 2.06324e-12
6.33567e-13 2.06324e-12 467.133

519.717 1.97065 -1.45809e-13
1.97065 466.823 2.69118e-13
-1.45809e-13 2.69118e-13 502.84

570.565 17.8748 -3.85884e-12
17.8748 566.485 6.84282e-12
-3.85884e-12 6.84282e-12 542.382

375.298 20.1835 4.84945e-13
20.1835 424.04 2.20268e-13
4.84945e-13 2.20268e-13 360.228

489.091 27.211 4.15964e-12
27.211 468.549 1.81455e-12
4.15964e-12 1.81455e-12 476.648

454.388 -24.5122 5.05196e-12
-24.5122 415.35 4.47287e-12
5.05196e-12 4.47287e-12 418.61

454.727 -17.8388 -2.36873e-12
-17.8388 494.916 2.9526e-12
-2.36873e-12 2.9526e-12 482.65

379.206 35.0692 -3.34074e-12
35.0692 366.037 -1.74557e-12
-3.34074e-12 -1.74557e-12 317.055

449.161 -21.8312 -1.37298e-12
-21.8312 491.714 -2.96148e-12
-1.37298e-12 -2.96148e-12 479.782

485.499 30.8508 3.98555e-12
30.8508 465.144 3.77624e-12
3.98555e-12 3.77624e-12 473.454

480.331 -25.2444 -3.51719e-13
-25.2444 442.375 -2.55233e-12
-3.51719e-13 -2.55233e-12 455.451

448.227 -25.1269 -2.48039e-12
-25.1269 469.777 9.09495e-13
-2.48039e-12 9.09495e-13 458.105

445.354 -18.6886 3.36205e-12
-18.6886 393.468 9.72259e-13
3.36205e-12 9.72259e-13 397.265

470.662 -18.8501 -5.515e-12
-18.8501 422.86 3.69601e-12
-5.515e-12 3.69601e-12 437.539

459.007 -25.3371 1.91447e-12
-25.3371 485.437 -2.50729e-12
1.91447e-12 -2.50729e-12 488.834

386.548 35.9704 -2.13992e-12
35.9704 381.994 -1.6603e-12
-2.13992e-12 -1.6603e-12 348.122

444.503 15.3771 1.4615e-12
15.3771 491.541 -6.03665e-12
1.4615e-12 -6.03665e-12 467.147

469.404 26.4226 -2.00936e-12
26.4226 479.965 2.9677e-12
-2.00936e-12 2.9677e-12 482.554

456.15 25.4736 -4.92902e-13
25.4736 486.655 -3.28182e-13
-4.92902e-13 -3.28182e-13 487.254

457.814 11.6218 -2.3819e-12
11.6218 506.947 6.60035e-12
-2.3819e-12 6.60035e-12 486.022

431.958 -8.22722 1.12858e-12
-8.22722 370.761 4.48723e-12
1.12858e-12 4.48723e-12 363.312

376.785 18.607 1.83675e-12
18.607 427.272 4.01575e-12
1.83675e-12 4.01575e-12 363.888

452.319 -24.3809 1.59191e-12
-24.3809 478.393 7.25346e-14
1.59191e-12 7.25346e-14 470.718

440.753 25.6665 8.82257e-14
25.6665 455.647 3.1554e-12
8.82257e-14 3.1554e-12 437.812

390.961 -35.6303 2.56151e-12
-35.6303 380.282 4.59188e-12
2.56151e-12 4.59188e-12 350.096

368.946 38.3176 1.74083e-12
38.3176 327.256 5.27578e-12
1.74083e-12 5.27578e-12 295.686

363.651 -33.312 -7.56017e-12
-33.312 394.44 -1.50635e-12
-7.56017e-12 -1.50635e-12 341.983

397.935 -31.1604 2.68704e-12
-31.1604 404.198 -1.337e-12
2.68704e-12 -1.337e-12 362.978

502.864 -6.83864 5.40901e-13
-6.83864 442.257 -1.3376e-12
5.40901e-13 -1.3376e-12 482.324

393.169 30.3426 -7.47254e-13
30.3426 408.984 1.6307e-12
-7.47254e-13 1.6307e-12 363.438

429.707 13.295 1.65438e-12
13.295 372.251 -2.50881e-12
1.65438e-12 -2.50881e-12 362.718

350.147 13.3792 9.25482e-13
13.3792 418.519 1.66267e-12
9.25482e-13 1.66267e-12 348.478

379.483 -22.341 -1.63188e-12
-22.341 423.518 -2.43479e-12
-1.63188e-12 -2.43479e-12 363.452

491.212 -1.09181 -3.10433e-12
-1.09181 550.881 6.69094e-14
-3.10433e-12 6.69094e-14 516.31

372.867 2.24668 -7.00921e-13
2.24668 437.793 -5.26986e-12
-7.00921e-13 -5.26986e-12 373.524

357.893 31.0901 3.1708e-12
31.0901 399.491 -7.91071e-13
3.1708e-12 -7.91071e-13 341.964

457.997 12.1081 -8.14617e-13
12.1081 510.567 2.07656e-12
-8.14617e-13 2.07656e-12 488.409

421.457 -27.6483 -6.2883e-13
-27.6483 389.076 2.64263e-12
-6.2883e-13 2.64263e-12 375.076

524.761 20.557 2.67046e-13
20.557 469.755 -4.45688e-12
2.67046e-13 -4.45688e-12 500.74

534.929 26.2704 2.0132e-13
26.2704 506.864 2.74225e-12
2.0132e-13 2.74225e-12 516.098

494.822 -18.568 -4.22654e-12
-18.568 449.031 -1.68695e-12
-4.22654e-12 -1.68695e-12 470.861

554.588 -1.80185 7.66054e-13
-1.80185 516.027 2.15354e-12
7.66054e-13 2.15354e-12 525.721

473.293 -31.8121 -1.66681e-13
-31.8121 475.702 9.23409e-13
-1.66681e-13 9.23409e-13 478.583

412.603 23.3284 -2.59348e-13
23.3284 357.2 5.69618e-13
-2.59348e-13 5.69618e-13 348.095

464.183 30.1622 1.11082e-12
30.1622 482.775 -1.08891e-12
1.11082e-12 -1.08891e-12 483.21

464.446 29.206 -2.26782e-13
29.206 482.248 2.43716e-12
-2.26782e-13 2.43716e-12 482.771

393.951 30.6617 1.43766e-12
30.6617 405.728 -7.21201e-13
1.43766e-12 -7.21201e-13 360.873

502.86 27.0853 4.00391e-12
27.0853 482.67 1.45069e-14
4.00391e-12 1.45069e-14 490.74

415.356 3.52524 1.84031e-12
3.52524 339.02 -1.65656e-12
1.84031e-12 -1.65656e-12 340.828

493.128 31.8172 3.8997e-12
31.8172 487.229 2.88451e-12
3.8997e-12 2.88451e-12 495.58

476.331 -12.5996 -5.78145e-12
-12.5996 522.456 3.91154e-12
-5.78145e-12 3.91154e-12 500.253

536.931 24.278 -3.14918e-12
24.278 507.406 -2.47891e-12
-3.14918e-12 -2.47891e-12 516.635

468.184 -29.5789 4.5531e-12
-29.5789 479.977 1.7654e-12
4.5531e-12 1.7654e-12 483.068

464.566 -4.89787 1.97446e-12
-4.89787 521.562 -5.20946e-12
1.97446e-12 -5.20946e-12 490.984

400.944 -24.557 -6.90174e-12
-24.557 349.027 8.58572e-13
-6.90174e-12 8.58572e-13 323.954

418.972 29.6939 1.48622e-12
29.6939 392.469 -1.7053e-12
1.48622e-12 -1.7053e-12 373.774

352.348 14.6969 -4.28206e-12
14.6969 417.218 -1.30266e-14
-4.28206e-12 -1.30266e-14 348.244

500.537 -1.139 -1.3826e-12
-1.139 442.802 -7.964e-13
-1.3826e-12 -7.964e-13 487.715

492.478 0.00220981 -1.60287e-12
0.00220981 438.109 1.49983e-12
-1.60287e-12 1.49983e-12 474.425

452.972 23.1243 -5.59552e-14
23.1243 479.714 2.99079e-12
-5.59552e-14 2.99079e-12 475.593

481.311 23.8711 -1.22213e-12
23.8711 502.88 -2.04555e-12
-1.22213e-12 -2.04555e-12 501.26

456.595 -24.3808 2.38813e-12
-24.3808 487.36 -7.90331e-12
2.38813e-12 -7.90331e-12 488.505

457.843 -0.672991 -3.88621e-12
-0.672991 517.949 1.54247e-12
-3.88621e-12 1.54247e-12 486.407

458.893 25.5906 -4.8909e-12
25.5906 486.477 -3.12269e-13
-4.8909e-12 -3.12269e-13 488.527

465.569 -10.3082 6.07277e-12
-10.3082 408.092 -6.06359e-12
6.07277e-12 -6.06359e-12 427.232

400.873 -32.8345 1.98834e-12
-32.8345 414.965 -2.65921e-12
1.98834e-12 -2.65921e-12 385.174

518.107 -2.30112 -4.55487e-13
-2.30112 465.749 2.36848e-14
-4.55487e-13 2.36848e-14 500.937

391.881 -34.5094 5.11591e-12
-34.5094 379.615 -9.59233e-14
5.11591e-12 -9.59233e-14 347.426

478.012 19.086 2.62708e-12
19.086 509.213 2.5319e-12
2.62708e-12 2.5319e-12 501.857

506.124 -26.4789 -5.88803e-12
-26.4789 470.258 -3.50416e-12
-5.88803e-12 -3.50416e-12 487.284

425.012 -9.69057 6.17106e-12
-9.69057 366.74 -7.66794e-13
6.17106e-12 -7.66794e-13 355.99

530.277 -23.1922 -2.56743e-12
-23.1922 488.768 -5.45638e-13
-2.56743e-12 -5.45638e-13 506.5

500.905 2.35832 -3.86861e-12
2.35832 444.59 -1.51879e-13
-3.86861e-12 -1.51879e-13 489.217

521.203 -23.3218 -1.44714e-12
-23.3218 501.853 -2.75631e-12
-1.44714e-12 -2.75631e-12 508.545

502.029 -25.8597 -6.39488e-13
-25.8597 461.503 -1.38793e-12
-6.39488e-13 -1.38793e-12 481.256

498.84 -8.54642 1.28312e-12
-8.54642 445.148 4.32099e-13
1.28312e-12 4.32099e-13 479.357

482.233 -23.0683 4.35829e-12
-23.0683 505.005 4.7865e-12
4.35829e-12 4.7865e-12 502.547

428.552 -31.3429 2.15531e-12
-31.3429 410.599 1.24286e-12
2.15531e-12 1.24286e-12 399.008

503.28 -24.5878 -2.99967e-12
-24.5878 464.726 -2.54345e-12
-2.99967e-12 -2.54345e-12 482.172

441.253 10.8648 1.7053e-12
10.8648 378.491 -7.46662e-13
1.7053e-12 -7.46662e-13 387.809

500.05 26.3406 5.8374e-12
26.3406 498.595 2.49445e-12
5.8374e-12 2.49445e-12 500.117

463.763 -37.6123 3.36916e-13
-37.6123 488.403 -2.07212e-12
3.36916e-13 -2.07212e-12 494.095

464.872 37.2647 4.4705e-12
37.2647 487.314 -7.53101e-13
4.4705e-12 -7.53101e-13 493.81

446.341 -28.573 3.46057e-13
-28.573 500.028 2.52095e-12
3.46057e-13 2.52095e-12 492.325

448.576 27.0639 -6.8449e-13
27.0639 500.719 -8.09131e-13
-6.8449e-13 -8.09131e-13 492.512

513.083 -8.52742 3.4935e-13
-8.52742 436.419 -1.85289e-12
3.4935e-13 -1.85289e-12 492.773

511.246 9.27341 1.89374e-12
9.27341 438.016 -3.12061e-12
1.89374e-12 -3.12061e-12 492.41

501.669 -9.84646 2.36552e-13
-9.84646 451.755 3.38248e-13
2.36552e-13 3.38248e-13 483.033

510.876 32.1154 -6.3564e-13
32.1154 510.402 -3.54685e-12
-6.3564e-13 -3.54685e-12 514.067

509.652 -32.8534 -1.80744e-12
-32.8534 510.08 3.51877e-12
-1.80744e-12 3.51877e-12 513.706

481.822 16.0683 6.06611e-12
16.0683 539.142 -2.28499e-12
6.06611e-12 -2.28499e-12 514.339

483.016 -15.8008 4.50469e-12
-15.8008 538.732 9.96832e-13
4.50469e-12 9.96832e-13 514.36

556.879 -3.74821 -8.44658e-13
-3.74821 506.843 -1.44122e-12
-8.44658e-13 -1.44122e-12 525.003

558.434 3.61096 -4.27806e-14
3.61096 505.168 -1.51938e-12
-4.27806e-14 -1.51938e-12 525.375

387.318 9.83721 3.63539e-12
9.83721 449.209 -1.06345e-12
3.63539e-12 -1.06345e-12 397.097

472.4 -24.7746 3.95832e-13
-24.7746 480.766 1.80034e-12
3.95832e-13 1.80034e-12 484.988

443.475 -36.3871 -2.30268e-12
-36.3871 485.545 -5.01155e-12
-2.30268e-12 -5.01155e-12 486.64

473.654 -4.66439 4.40063e-12
-4.66439 420.447 -9.56235e-13
4.40063e-12 -9.56235e-13 436.349

540.265 -16.6941 1.12147e-12
-16.6941 484.204 4.83909e-12
1.12147e-12 4.83909e-12 515.299

540.985 16.1751 -1.24626e-12
16.1751 485.427 1.17062e-12
-1.24626e-12 1.17062e-12 515.905

506.874 0.121875 -1.83927e-12
0.121875 423.564 -2.86087e-12
-1.83927e-12 -2.86087e-12 487.014

384.801 23.3761 1.82195e-12
23.3761 432.308 2.16716e-12
1.82195e-12 2.16716e-12 385.485

442.346 36.1711 -1.72351e-12
36.1711 485.224 2.09743e-12
-1.72351e-12 2.09743e-12 485.845

452.609 -23.3959 -4.61734e-12
-23.3959 494.965 3.34074e-12
-4.61734e-12 3.34074e-12 483.602

443.259 23.3536 5.12301e-12
23.3536 397.528 -1.68932e-12
5.12301e-12 -1.68932e-12 400.383

530.979 23.8584 2.24413e-12
23.8584 488.018 4.5978e-13
2.24413e-12 4.5978e-13 507.259

428.49 -31.3147 -2.22637e-13
-31.3147 410.884 6.13139e-12
-2.22637e-13 6.13139e-12 398.827

519.871 -3.23131 2.27033e-12
-3.23131 469.07 3.20129e-12
2.27033e-12 3.20129e-12 502.697

439.409 -34.1606 -1.65112e-12
-34.1606 485.516 -2.76253e-12
-1.65112e-12 -2.76253e-12 485.835

389.193 8.32025 2.74932e-12
8.32025 452.339 3.14534e-12
2.74932e-12 3.14534e-12 400.865

385.888 21.8124 -8.12683e-13
21.8124 435.784 1.93268e-12
-8.12683e-13 1.93268e-12 388.703

383.856 35.7771 1.93978e-12
35.7771 362.34 -7.91071e-13
1.93978e-12 -7.91071e-13 318.335

408.192 1.57882 3.57285e-12
1.57882 332.162 4.73917e-12
3.57285e-12 4.73917e-12 327.332

485.466 -22.8047 -7.22089e-13
-22.8047 502.869 4.4218e-12
-7.22089e-13 4.4218e-12 501.759

351.886 31.1849 9.90023e-13
31.1849 388.84 -1.7953e-12
9.90023e-13 -1.7953e-12 312.364

451.36 23.6105 -3.88874e-12
23.6105 478.424 -2.38328e-12
-3.88874e-12 -2.38328e-12 465.223

442.207 -5.34974 -4.74879e-12
-5.34974 377.134 2.71975e-12
-4.74879e-12 2.71975e-12 387.747

464.167 11.2165 -1.52234e-12
11.2165 407.308 5.24025e-14
-1.52234e-12 5.24025e-14 424.932

505.39 0.429896 8.92619e-14
0.429896 421.584 2.08927e-12
8.92619e-14 2.08927e-12 485.685

449.361 -29.0307 3.03439e-12
-29.0307 502.008 -4.31566e-12
3.03439e-12 -4.31566e-12 493.599

572.514 -6.3186 4.76115e-12
-6.3186 589.488 9.57456e-13
4.76115e-12 9.57456e-13 549.26

463.151 37.411 -2.88007e-12
37.411 487.037 -8.71747e-13
-2.88007e-12 -8.71747e-13 493.074

408.747 1.66333 -6.61515e-12
1.66333 331.609 2.6806e-12
-6.61515e-12 2.6806e-12 308.911

404.243 -32.7882 2.8848e-12
-32.7882 415.518 -5.79388e-12
2.8848e-12 -5.79388e-12 387.398

443.152 36.6126 -1.09831e-12
36.6126 485.517 -1.09216e-12
-1.09831e-12 -1.09216e-12 486.582

444.688 -11.134 3.80897e-12
-11.134 498.946 -7.10543e-13
3.80897e-12 -7.10543e-13 471.451

386.082 -25.5155 -3.75403e-12
-25.5155 428.911 -2.38032e-12
-3.75403e-12 -2.38032e-12 384.572

449.461 28.8297 -1.68036e-12
28.8297 501.641 5.40693e-12
-1.68036e-12 5.40693e-12 493.298

452.721 -26.1427 2.81789e-12
-26.1427 419.312 3.16843e-12
2.81789e-12 3.16843e-12 419.527

579.557 10.4836 -1.3903e-12
10.4836 582.167 -5.21153e-12
-1.3903e-12 -5.21153e-12 549.044

398.337 30.8731 -1.77162e-12
30.8731 422.068 -1.29082e-13
-1.77162e-12 -1.29082e-13 388.171

515.717 8.12652 8.17864e-13
8.12652 437.279 3.6741e-12
8.17864e-13 3.6741e-12 494.592

493.815 30.1908 -5.87974e-13
30.1908 484.758 -2.89842e-13
-5.87974e-13 -2.89842e-13 493.811

453.475 23.3323 2.30364e-12
23.3323 479.174 -2.29713e-12
2.30364e-12 -2.29713e-12 475.809

510.71 -32.4881 3.5012e-12
-32.4881 512.461 3.37907e-12
3.5012e-12 3.37907e-12 515.015

510.318 -23.1907 -1.05634e-12
-23.1907 473.19 2.97362e-12
-1.05634e-12 2.97362e-12 489.687

511.409 10.4701 3.73808e-12
10.4701 557.999 1.69642e-12
3.73808e-12 1.69642e-12 523.74

452.183 -23.4342 -5.184e-13
-23.4342 480.176 2.00906e-12
-5.184e-13 2.00906e-12 468.96

394.419 -9.70818 -5.94961e-12
-9.70818 316.42 -7.98028e-13
-5.94961e-12 -7.98028e-13 295.582

387.299 -14.2776 -5.21065e-12
-14.2776 306.065 2.07242e-14
-5.21065e-12 2.07242e-14 290.056

547.591 16.5299 -3.7416e-12
16.5299 507.771 -2.46647e-12
-3.7416e-12 -2.46647e-12 519.328

436.497 22.5024 -2.2767e-13
22.5024 469.147 3.18323e-12
-2.2767e-13 3.18323e-12 447.833

475.973 29.1638 -1.05279e-12
29.1638 467.655 2.51088e-12
-1.05279e-12 2.51088e-12 471.488

450.312 0.688687 3.54442e-12
0.688687 392.785 -1.53059e-12
3.54442e-12 -1.53059e-12 395.683

478.359 6.57092 2.82703e-12
6.57092 541.286 5.33499e-13
2.82703e-12 5.33499e-13 507.548

507.341 16.5407 -4.10042e-12
16.5407 461.145 2.51295e-12
-4.10042e-12 2.51295e-12 488.089

389.985 -25.762 -1.63721e-12
-25.762 430.046 -7.87518e-13
-1.63721e-12 -7.87518e-13 387.742

456.327 -2.57222 4.35672e-12
-2.57222 517.024 -6.72647e-13
4.35672e-12 -6.72647e-13 484.849

400.598 13.3657 9.14824e-13
13.3657 452.996 6.65542e-13
9.14824e-13 6.65542e-13 404.645

486.923 -29.7138 3.53732e-12
-29.7138 465.823 2.41436e-12
3.53732e-12 2.41436e-12 474.267

430.308 -29.9485 1.63899e-12
-29.9485 423.638 -1.78169e-12
1.63899e-12 -1.78169e-12 404.964

399.72 31.624 9.34956e-13
31.624 418.241 2.03689e-13
9.34956e-13 2.03689e-13 386.01

624.002 -15.0198 -4.72985e-12
-15.0198 581.952 -4.06046e-13
-4.72985e-12 -4.06046e-13 557.91

494.529 2.04154 2.04022e-12
2.04154 552.15 -1.44951e-12
2.04022e-12 -1.44951e-12 517.933

483.511 20.2996 -3.90206e-13
20.2996 542.05 -6.45706e-13
-3.90206e-13 -6.45706e-13 516.039

544.713 15.4385 -2.79184e-13
15.4385 479.979 -2.79776e-13
-2.79184e-13 -2.79776e-13 515.761

473.758 -26.1892 9.02685e-13
-26.1892 479.766 -1.55994e-12
9.02685e-13 -1.55994e-12 483.026

452.135 17.9578 4.49655e-12
17.9578 404.517 7.87814e-13
4.49655e-12 7.87814e-13 406.926

531.585 -5.29364 -8.40901e-14
-5.29364 580.805 3.08228e-12
-8.40901e-14 3.08228e-12 537.124

512.197 -18.988 1.5552e-12
-18.988 464.802 -1.75267e-13
1.5552e-12 -1.75267e-13 493.037

473.986 -15.5992 -2.31282e-12
-15.5992 423.185 -1.27631e-12
-2.31282e-12 -1.27631e-12 438.889

402.009 11.6037 -3.33955e-13
11.6037 455.968 2.96415e-12
-3.33955e-13 2.96415e-12 407.788

410.932 -25.7351 1.55135e-13
-25.7351 435.591 -7.96992e-13
1.55135e-13 -7.96992e-13 398.965

532.056 -25.2738 -2.79184e-12
-25.2738 523.199 -1.67451e-12
-2.79184e-12 -1.67451e-12 519.126

423.065 31.9606 -4.22299e-12
31.9606 417.257 3.95358e-12
-4.22299e-12 3.95358e-12 400.313

535.489 -25.1345 -2.39749e-12
-25.1345 505.796 -1.97472e-12
-2.39749e-12 -1.97472e-12 515.667

453.504 2.59744 2.7877e-12
2.59744 397.028 5.22656e-12
2.7877e-12 5.22656e-12 401.906

311.105 -28.9315 5.82231e-12
-28.9315 376.605 -1.70293e-12
5.82231e-12 -1.70293e-12 290.001

431.885 -29.2319 -2.85461e-12
-29.2319 424.057 -2.23051e-12
-2.85461e-12 -2.23051e-12 406.163

353.769 32.16 -1.41516e-12
32.16 392.553 -8.19493e-13
-1.41516e-12 -8.19493e-13 312.975

470.354 -11.8767 -5.17793e-12
-11.8767 529.56 -3.84344e-12
-5.17793e-12 -3.84344e-12 500.312

391.459 -13.8218 -1.16677e-12
-13.8218 449.263 1.25529e-13
-1.16677e-12 1.25529e-13 400.207

602.857 -23.9871 -6.1835e-12
-23.9871 602.269 5.11532e-12
-6.1835e-12 5.11532e-12 557.85

408.38 23.7716 -8.31927e-13
23.7716 441.95 9.59233e-13
-8.31927e-13 9.59233e-13 402.231

496.586 -32.7263 5.55704e-12
-32.7263 490.649 1.86902e-12
5.55704e-12 1.86902e-12 497.455

388.198 -11.9635 -3.35657e-12
-11.9635 448.295 3.45797e-12
-3.35657e-12 3.45797e-12 397.025

516.72 -19.1168 9.35252e-13
-19.1168 465.763 2.11209e-12
9.35252e-13 2.11209e-12 496.252

410.695 23.8779 -3.46034e-12
23.8779 439.322 3.01981e-13
-3.46034e-12 3.01981e-13 400.708

488.931 -4.97556 -2.49104e-12
-4.97556 435.08 -3.3374e-12
-2.49104e-12 -3.3374e-12 460.392

305.788 -30.3434 2.72612e-12
-30.3434 391.447 1.7053e-12
2.72612e-12 1.7053e-12 262.576

438.62 21.0146 -1.20467e-12
21.0146 473.924 -5.1988e-12
-1.20467e-12 -5.1988e-12 458.359

445.699 -19.3239 5.47355e-12
-19.3239 393.986 -3.44199e-12
5.47355e-12 -3.44199e-12 399.633

551.611 -21.4458 -2.78592e-13
-21.4458 499.526 1.45217e-12
-2.78592e-13 1.45217e-12 520.112

424.481 31.7551 -8.06466e-13
31.7551 413.333 -4.43201e-12
-8.06466e-13 -4.43201e-12 397.97

459.174 -29.9725 3.61725e-12
-29.9725 437.649 3.2158e-12
3.61725e-12 3.2158e-12 439.311

510.631 20.8855 -6.44995e-12
20.8855 476.084 2.69799e-12
-6.44995e-12 2.69799e-12 492.767

461.517 -28.076 -1.14131e-13
-28.076 485.754 3.17391e-12
-1.14131e-13 3.17391e-12 488.73

413.732 -26.2261 2.50703e-12
-26.2261 436.257 -2.359e-12
2.50703e-12 -2.359e-12 401.45

426.088 28.982 1.72899e-13
28.982 429.91 3.30166e-12
1.72899e-13 3.30166e-12 406.873

452.514 26.1921 1.84504e-12
26.1921 418.239 2.92211e-13
1.84504e-12 2.92211e-13 419.071

521.982 -14.6104 -4.68366e-13
-14.6104 477.189 -1.30888e-12
-4.68366e-13 -1.30888e-12 500.076

403.573 -16.6182 -1.96435e-12
-16.6182 451.757 -3.15007e-13
-1.96435e-12 -3.15007e-13 406.455

496.06 -17.5684 -6.06922e-13
-17.5684 447.62 -1.20126e-12
-6.06922e-13 -1.20126e-12 471.514

487.779 16.9089 1.86932e-12
16.9089 436.272 -3.54857e-12
1.86932e-12 -3.54857e-12 460.602

513.352 -9.38628 5.23337e-12
-9.38628 555.789 4.67774e-13
5.23337e-12 4.67774e-13 523.04

453.993 -13.4304 1.89833e-12
-13.4304 402.191 -3.46108e-12
1.89833e-12 -3.46108e-12 406.756

403.214 0.594105 1.01874e-12
0.594105 465.74 1.77636e-12
1.01874e-12 1.77636e-12 417.818

475.041 18.5554 -2.07715e-12
18.5554 428.785 1.0365e-12
-2.07715e-12 1.0365e-12 442.234

451.157 27.6047 8.6852e-12
27.6047 421.852 -1.45484e-12
8.6852e-12 -1.45484e-12 420.856

400.881 -15.6867 2.4191e-12
-15.6867 451.397 3.54087e-12
2.4191e-12 3.54087e-12 403.749

406.013 -1.20228 5.86235e-12
-1.20228 468.049 -2.54019e-12
5.86235e-12 -2.54019e-12 421.233

516.212 29.1344 -2.18492e-13
29.1344 498.038 1.93238e-12
-2.18492e-13 1.93238e-12 504.888

441.718 -10.9224 -2.5208e-12
-10.9224 500.672 6.11955e-12
-2.5208e-12 6.11955e-12 471.162

451.454 -26.7161 -4.83169e-13
-26.7161 418.779 6.03961e-14
-4.83169e-13 6.03961e-14 419.366

444.401 21.3333 3.40824e-12
21.3333 395.311 1.7882e-12
3.40824e-12 1.7882e-12 398.214

497.61 23.6656 2.05465e-12
23.6656 458.104 -1.48651e-12
2.05465e-12 -1.48651e-12 476.564

447.696 5.47105 -1.11126e-12
5.47105 508.805 4.21529e-12
-1.11126e-12 4.21529e-12 476.895

427.664 29.0665 -4.60432e-12
29.0665 426.448 -6.80937e-13
-4.60432e-12 -6.80937e-13 405.123

536.833 22.9639 4.51491e-13
22.9639 531.908 -5.34624e-12
4.51491e-13 -5.34624e-12 522.796

314.76 -59.6933 -3.60245e-12
-59.6933 282.777 1.65793e-14
-3.60245e-12 1.65793e-14 223.431

480.609 -25.0484 3.93641e-12
-25.0484 445.086 3.58824e-12
3.93641e-12 3.58824e-12 456.66

336.674 7.07012 -8.10907e-13
7.07012 409.169 -2.55085e-12
-8.10907e-13 -2.55085e-12 319.451

460.553 -28.8901 -9.28443e-13
-28.8901 444.751 -4.8986e-12
-9.28443e-13 -4.8986e-12 443.467

96.4264 -52.7022 8.96468e-13
-52.7022 306.626 -1.98478e-12
8.96468e-13 -1.98478e-12 113.703

95.9603 51.4529 2.4869e-14
51.4529 306.89 5.54697e-12
2.4869e-14 5.54697e-12 114.491

181.522 117.157 -1.06108e-12
117.157 226.082 1.82846e-12
-1.06108e-12 1.82846e-12 113.591

182.819 -117.1 4.58537e-12
-117.1 223.318 -2.37795e-12
4.58537e-12 -2.37795e-12 113.565

321.591 -1.3634 6.5512e-12
-1.3634 84.6557 2.54357e-14
6.5512e-12 2.54357e-14 114.932

274.44 -91.1277 6.50857e-12
-91.1277 127.421 -9.82917e-13
6.50857e-12 -9.82917e-13 113.805

275.136 91.6556 -4.96906e-12
91.6556 128.254 -2.75927e-12
-4.96906e-12 -2.75927e-12 114.576

525.253 14.3307 1.60642e-12
14.3307 474.725 4.8983e-12
1.60642e-12 4.8983e-12 502.328

556.807 25.5362 -3.02543e-12
25.5362 541.193 1.60301e-12
-3.02543e-12 1.60301e-12 533.461

492.108 6.60624 -3.26672e-12
6.60624 439.135 5.57591e-12
-3.26672e-12 5.57591e-12 471.416

470.315 21.7853 -3.18738e-12
21.7853 424.53 -1.18424e-13
-3.18738e-12 -1.18424e-13 438.208

409.988 17.745 -3.61045e-13
17.745 461.088 9.59233e-13
-3.61045e-13 9.59233e-13 425.057

448.025 28.8994 2.21038e-12
28.8994 424.719 4.31418e-12
2.21038e-12 4.31418e-12 420.763

487.163 -29.664 1.71418e-12
-29.664 465.642 2.81464e-12
1.71418e-12 2.81464e-12 474.603

449.382 28.0287 7.38964e-13
28.0287 421.085 -5.36874e-12
7.38964e-13 -5.36874e-12 418.655

402.976 -2.84142 -8.13231e-12
-2.84142 465.397 2.76401e-12
-8.13231e-12 2.76401e-12 417.554

555.813 -26.097 1.26269e-12
-26.097 543.386 6.75312e-13
1.26269e-12 6.75312e-13 533.705

405.514 -4.86263 1.97205e-12
-4.86263 467.135 1.90307e-12
1.97205e-12 1.90307e-12 420.613

522.305 23.0167 -7.52583e-13
23.0167 499.755 -1.97738e-12
-7.52583e-13 -1.97738e-12 507.983

423.392 26.8717 7.51991e-13
26.8717 386.52 2.72612e-12
7.51991e-13 2.72612e-12 373.039

480.123 -13.2162 -5.95864e-12
-13.2162 532.781 1.63632e-12
-5.95864e-12 1.63632e-12 512.014

484.213 13.7283 4.66886e-12
13.7283 432.79 -7.90479e-13
4.66886e-12 -7.90479e-13 456.889

457.383 -29.9885 2.96592e-12
-29.9885 436.99 -4.62504e-12
2.96592e-12 -4.62504e-12 437.847

454.323 -24.7142 3.63561e-13
-24.7142 416.818 2.14702e-12
3.63561e-13 2.14702e-12 419.867

547.416 -16.0752 2.02653e-12
-16.0752 509.317 -7.59393e-13
2.02653e-12 -7.59393e-13 519.396

475.987 27.9296 -5.85783e-12
27.9296 449.72 -1.91225e-12
-5.85783e-12 -1.91225e-12 456.939

469.116 23.9782 -5.45993e-12
23.9782 427.863 -2.78385e-12
-5.45993e-12 -2.78385e-12 439.844

432.442 -2.79289 -2.3674e-12
-2.79289 493.652 1.92379e-12
-2.3674e-12 1.92379e-12 457.121

417.62 5.87347 3.66562e-12
5.87347 479.573 -5.37348e-12
3.66562e-12 -5.37348e-12 440.191

463.027 2.6468 -1.3974e-13
2.6468 402.293 6.17325e-12
-1.3974e-13 6.17325e-12 422.335

438.662 -7.28994 7.29491e-13
-7.28994 373.927 -7.3852e-13
7.29491e-13 -7.3852e-13 381.231

454.858 30.4856 2.50999e-12
30.4856 439.029 -7.02194e-12
2.50999e-12 -7.02194e-12 437.85

478.48 -26.1562 -4.82103e-12
-26.1562 443.557 -6.04109e-12
-4.82103e-12 -6.04109e-12 454.66

525.714 -21.2545 4.05661e-12
-21.2545 497.841 2.28173e-12
4.05661e-12 2.28173e-12 508.632

437.747 -31.6347 1.16766e-12
-31.6347 437.669 -4.81334e-12
1.16766e-12 -4.81334e-12 426.873

417.604 -27.7866 4.44326e-12
-27.7866 444.411 -1.09897e-12
4.44326e-12 -1.09897e-12 419.702

430.661 29.8882 -1.60287e-12
29.8882 442.759 -5.8679e-13
-1.60287e-12 -5.8679e-13 426.511

416.239 -9.57821 -3.4364e-12
-9.57821 475.227 -5.20236e-12
-3.4364e-12 -5.20236e-12 436.469

428.909 -1.54497 3.92109e-12
-1.54497 491.884 1.90662e-13
3.92109e-12 1.90662e-13 454.009

445.195 5.74787 -6.2802e-12
5.74787 508.058 3.31883e-12
-6.2802e-12 3.31883e-12 474.928

414.632 -21.0898 -3.23652e-12
-21.0898 458.423 -2.75335e-12
-3.23652e-12 -2.75335e-12 426.079

496.883 24.1118 2.57631e-12
24.1118 455.71 -2.36552e-12
2.57631e-12 -2.36552e-12 474.607

483.389 -9.59003 -9.2785e-13
-9.59003 430.126 4.64073e-13
-9.2785e-13 4.64073e-13 455.235

415.647 7.46546 3.99673e-12
7.46546 477.136 1.06937e-12
3.99673e-12 1.06937e-12 436.927

443.968 -9.70119 -7.84604e-14
-9.70119 501.519 4.9661e-12
-7.84604e-14 4.9661e-12 471.021

433.188 -16.3312 7.0625e-13
-16.3312 481.691 -8.18901e-13
7.0625e-13 -8.18901e-13 455.682

463.555 -8.23948 -1.77399e-12
-8.23948 406.348 -3.66995e-12
-1.77399e-12 -3.66995e-12 421.484

494.448 -32.3468 2.15827e-13
-32.3468 487.63 -2.68467e-12
2.15827e-13 -2.68467e-12 496.264

422.958 9.32129 6.12384e-12
9.32129 479.107 4.71919e-13
6.12384e-12 4.71919e-13 440.994

564.368 -18.2128 4.1173e-12
-18.2128 529.962 -2.58134e-12
4.1173e-12 -2.58134e-12 531.843

309.058 24.8237 1.78346e-12
24.8237 379.435 -5.66303e-12
1.78346e-12 -5.66303e-12 289.807

501.712 -26.6265 1.59073e-12
-26.6265 499.503 -2.35663e-12
1.59073e-12 -2.35663e-12 501.213

515.662 -30.2029 -6.12251e-13
-30.2029 498.417 -2.82737e-13
-6.12251e-13 -2.82737e-13 504.932

429.236 -0.701167 2.64181e-12
-0.701167 492.009 -1.62004e-12
2.64181e-12 -1.62004e-12 454.159

474.897 -16.623 -1.1724e-12
-16.623 428.351 5.03094e-12
-1.1724e-12 5.03094e-12 441.971

462.319 12.8417 -8.21676e-13
12.8417 511.29 1.15463e-12
-8.21676e-13 1.15463e-12 489.135

240.783 -3.18076 -2.81701e-13
-3.18076 360.699 -9.14232e-13
-2.81701e-13 -9.14232e-13 226.973

432.418 14.2741 -1.67089e-12
14.2741 485.372 -5.71336e-12
-1.67089e-12 -5.71336e-12 456.897

458.127 -29.4902 -2.36255e-13
-29.4902 443.185 1.55727e-13
-2.36255e-13 1.55727e-13 440.777

304.196 25.1064 1.42641e-12
25.1064 394.597 8.76336e-14
1.42641e-12 8.76336e-14 264.349

603.557 26.0969 3.1104e-12
26.0969 597.962 6.92246e-12
3.1104e-12 6.92246e-12 558.167

608.29 -27.8062 2.42428e-12
-27.8062 595.036 1.62966e-11
2.42428e-12 1.62966e-11 558.301

463.509 -30.4199 -2.98487e-12
-30.4199 459.053 3.74959e-12
-2.98487e-12 3.74959e-12 459.087

434.599 -31.1614 1.05812e-12
-31.1614 436.375 1.71833e-12
1.05812e-12 1.71833e-12 424.676

474.117 20.8281 -4.24135e-12
20.8281 431.929 -6.29067e-12
-4.24135e-12 -6.29067e-12 443.987

465.238 15.0066 -1.76629e-12
15.0066 410.13 -1.74231e-12
-1.76629e-12 -1.74231e-12 427.477

646.072 3.08285 4.38634e-12
3.08285 645.73 1.18535e-12
4.38634e-12 1.18535e-12 574.628

649.893 -6.99909 -6.75067e-12
-6.99909 641.4 -6.69006e-12
-6.75067e-12 -6.69006e-12 575.156

497.005 4.82426 4.58655e-12
4.82426 442.05 3.69897e-12
4.58655e-12 3.69897e-12 477.428

443.572 6.73133 -8.33185e-13
6.73133 503.005 9.0535e-13
-8.33185e-13 9.0535e-13 471.065

441.986 6.73636 3.43992e-12
6.73636 502.53 5.6725e-13
3.43992e-12 5.6725e-13 469.788

321.546 58.6363 6.25278e-12
58.6363 281.131 2.68822e-12
6.25278e-12 2.68822e-12 225.084

420.243 -28.2009 -1.32931e-12
-28.2009 444.039 5.82645e-13
-1.32931e-12 5.82645e-13 421.046

520.593 17.9744 5.35039e-12
17.9744 467.545 1.19105e-12
5.35039e-12 1.19105e-12 499.524

472.996 9.54001 -3.18797e-12
9.54001 421.211 2.62768e-12
-3.18797e-12 2.62768e-12 436.218

440.645 -26.7243 -4.11286e-12
-26.7243 450.742 -7.89887e-13
-4.11286e-12 -7.89887e-13 433.43

469.293 -20.2384 -2.02268e-12
-20.2384 422.731 1.79116e-12
-2.02268e-12 1.79116e-12 437.191

312.483 60.2342 -9.54496e-13
60.2342 281.381 7.96992e-13
-9.54496e-13 7.96992e-13 223.222

492.696 31.0694 -2.48986e-13
31.0694 489.057 -2.7572e-12
-2.48986e-13 -2.7572e-12 493.152

410.877 -19.7869 2.70332e-12
-19.7869 457.898 -4.01279e-12
2.70332e-12 -4.01279e-12 423.512

474.144 28.8585 -4.28161e-12
28.8585 449.646 -2.38446e-12
-4.28161e-12 -2.38446e-12 456.533

430.97 -4.14508 1.37327e-12
-4.14508 492.989 2.79184e-12
1.37327e-12 2.79184e-12 456.482

423.945 19.61 -1.6452e-12
19.61 465.728 1.77932e-12
-1.6452e-12 1.77932e-12 434.123

452.763 30.5199 -8.08242e-13
30.5199 443.613 -1.85156e-12
-8.08242e-13 -1.85156e-12 439.623

428.658 -22.4741 -1.9836e-13
-22.4741 461.153 -2.71487e-12
-1.9836e-13 -2.71487e-12 433.828

443.59 -27.3536 2.4342e-12
-27.3536 450.449 -8.12979e-13
2.4342e-12 -8.12979e-13 435.06

294.787 11.2574 -2.19676e-12
11.2574 372.597 -9.09495e-13
-2.19676e-12 -9.09495e-13 258.11

357.31 -33.4576 -2.63848e-12
-33.4576 389.13 1.80004e-13
-2.63848e-12 1.80004e-13 314.139

419.672 -11.6909 -6.48592e-13
-11.6909 476.377 5.20769e-12
-6.48592e-13 5.20769e-12 439.36

478.413 26.4854 -8.89363e-13
26.4854 446.814 -3.43725e-12
-8.89363e-13 -3.43725e-12 456.099

452.36 29.4789 -1.30799e-12
29.4789 449.042 -2.80072e-13
-1.30799e-12 -2.80072e-13 442.414

426.823 -21.4348 -6.41265e-13
-21.4348 461.8 -2.67282e-12
-6.41265e-13 -2.67282e-12 432.645

422.945 -11.7829 2.1266e-12
-11.7829 476.664 -5.04426e-12
2.1266e-12 -5.04426e-12 439.943

457.722 28.4105 -7.72715e-13
28.4105 447.103 3.0281e-12
-7.72715e-13 3.0281e-12 442.586

425.12 -13.8784 1.64313e-12
-13.8784 476.435 2.94638e-12
1.64313e-12 2.94638e-12 442.12

311.275 27.8562 -4.39826e-12
27.8562 377.404 -1.86162e-12
-4.39826e-12 -1.86162e-12 289.994

485.183 -4.04099 -1.74667e-12
-4.04099 545.062 -5.26453e-12
-1.74667e-12 -5.26453e-12 511.05

433 31.0288 -1.58747e-12
31.0288 439.643 2.81671e-12
-1.58747e-12 2.81671e-12 426.034

509.325 14.9016 -1.79886e-12
14.9016 463.176 3.31883e-13
-1.79886e-12 3.31883e-13 488.62

516.935 -15.928 1.06907e-12
-15.928 467.596 2.28232e-12
1.06907e-12 2.28232e-12 493.938

383.938 -24.2055 -7.99834e-12
-24.2055 305.958 9.15416e-13
-7.99834e-12 9.15416e-13 285.364

442.294 -21.2678 7.24458e-13
-21.2678 476.016 1.82965e-12
7.24458e-13 1.82965e-12 459.336

447.843 26.6991 9.25186e-13
26.6991 466.223 5.43684e-12
9.25186e-13 5.43684e-12 457.856

522.987 -21.7277 -2.31755e-12
-21.7277 543.822 -2.19321e-12
-2.31755e-12 -2.19321e-12 525.322

579.59 14.1057 5.22545e-13
14.1057 617.626 -1.86221e-13
5.22545e-13 -1.86221e-13 557.062

620.212 9.44529 -5.06824e-12
9.44529 576.848 1.42405e-12
-5.06824e-12 1.42405e-12 556.881

523.482 32.7051 1.23427e-12
32.7051 520.663 -1.83039e-12
1.23427e-12 -1.83039e-12 519.537

414.905 26.0015 -2.89931e-12
26.0015 448.921 -1.45543e-12
-2.89931e-12 -1.45543e-12 420.39

478.111 26.6621 -1.49155e-12
26.6621 444.784 -2.72878e-12
-1.49155e-12 -2.72878e-12 455.522

332.374 45.1878 5.40841e-12
45.1878 349.501 -4.35563e-12
5.40841e-12 -4.35563e-12 286.749

571.398 -11.3429 -2.48808e-12
-11.3429 614.477 -1.08358e-13
-2.48808e-12 -1.08358e-13 554.605

641.329 -3.4325 -9.7898e-12
-3.4325 636.873 3.38618e-12
-9.7898e-12 3.38618e-12 572.405

634.908 -0.209655 9.51387e-13
-0.209655 643.179 -1.38406e-11
9.51387e-13 -1.38406e-11 572.231

272.971 -53.8044 6.29541e-12
-53.8044 316.457 4.50484e-12
6.29541e-12 4.50484e-12 220.916

566.648 -11.5997 9.05794e-13
-11.5997 562.134 -6.38186e-12
9.05794e-13 -6.38186e-12 540.909

563.779 8.8125 2.45115e-12
8.8125 586.97 7.33339e-13
2.45115e-12 7.33339e-13 546.851

478.259 -26.2002 1.23457e-12
-26.2002 440.456 2.22844e-12
1.23457e-12 2.22844e-12 453.496

494.361 1.01073 -6.23894e-12
1.01073 545.772 -4.20997e-12
-6.23894e-12 -4.20997e-12 514.07

447.665 -20.2684 -2.81449e-12
-20.2684 484.174 -2.94461e-12
-2.81449e-12 -2.94461e-12 470.652

506.316 6.2554 1.45809e-12
6.2554 443.39 -3.00056e-13
1.45809e-12 -3.00056e-13 486.139

461.289 15.5963 -5.53858e-13
15.5963 521.267 -2.7273e-12
-5.53858e-13 -2.7273e-12 497.57

471.194 7.19143 -2.61776e-12
7.19143 528.02 -7.03319e-12
-2.61776e-12 -7.03319e-12 497.704

493.778 20.3934 -9.82917e-13
20.3934 451.531 -3.48521e-12
-9.82917e-13 -3.48521e-12 469.765

241.072 -3.11391 -2.59082e-12
-3.11391 358.571 9.56864e-13
-2.59082e-12 9.56864e-13 227.071

463.715 -27.6246 4.59958e-12
-27.6246 463.406 -1.34411e-13
4.59958e-12 -1.34411e-13 461.205

488.359 -26.117 1.7509e-12
-26.117 481.612 2.98132e-13
1.7509e-12 2.98132e-13 485.883

497.552 -31.4837 6.57903e-12
-31.4837 489.972 4.58492e-12
6.57903e-12 4.58492e-12 498.994

355.611 32.7508 5.16565e-12
32.7508 285.787 -4.4554e-12
5.16565e-12 -4.4554e-12 248.374

563.891 -20.1162 3.50919e-12
-20.1162 569.622 -1.49954e-13
3.50919e-12 -1.49954e-13 542.582

337.658 54.324 1.80004e-12
54.324 356.668 2.71901e-12
1.80004e-12 2.71901e-12 258.883

477.085 -21.4393 -7.51725e-12
-21.4393 506.504 2.81138e-12
-7.51725e-12 2.81138e-12 500.258

504.788 14.6505 -8.0392e-12
14.6505 452.001 -1.05249e-12
-8.0392e-12 -1.05249e-12 481.575

449.846 -14.573 5.64052e-12
-14.573 397 -1.58318e-12
5.64052e-12 -1.58318e-12 400.853

452.609 24.0473 2.46647e-12
24.0473 478.795 -2.97836e-13
2.46647e-12 -2.97836e-13 467.863

493.682 20.4283 1.1191e-13
20.4283 449.515 -3.45176e-12
1.1191e-13 -3.45176e-12 469.356

505.577 11.4001 -3.43281e-13
11.4001 564.427 -4.18598e-12
-3.43281e-13 -4.18598e-12 526.723

475.91 -31.5807 8.88178e-16
-31.5807 470.371 1.53744e-12
8.88178e-16 1.53744e-12 475.078

559.28 19.8123 -7.43376e-12
19.8123 510.451 1.32309e-12
-7.43376e-12 1.32309e-12 526.499

439.973 -18.444 -5.38295e-12
-18.444 482.481 3.42778e-12
-5.38295e-12 3.42778e-12 459.164

465.911 4.28344 1.27399e-12
4.28344 526.121 -5.58546e-12
1.27399e-12 -5.58546e-12 495.524

588.647 9.92708 -1.32871e-12
9.92708 552.471 5.18163e-12
-1.32871e-12 5.18163e-12 545.199

590.43 -8.51376 5.54253e-12
-8.51376 554.812 1.49628e-12
5.54253e-12 1.49628e-12 545.717

382.322 18.513 -2.88007e-12
18.513 302.296 -4.1176e-12
-2.88007e-12 -4.1176e-12 286.143

502.693 7.96527 2.08515e-12
7.96527 453.614 -2.1713e-12
2.08515e-12 -2.1713e-12 487.779

232.822 7.74081 -4.42476e-12
7.74081 381.526 -1.80952e-12
-4.42476e-12 -1.80952e-12 187.192

236.991 -11.3855 -4.02271e-14
-11.3855 387.219 4.1401e-12
-4.02271e-14 4.1401e-12 189.456

249.294 56.408 4.52142e-12
56.408 354.786 -2.02742e-12
4.52142e-12 -2.02742e-12 184.028

505.029 -28.9509 1.89064e-12
-28.9509 478.629 1.13184e-12
1.89064e-12 1.13184e-12 491.357

258.479 -49.1919 -3.02573e-12
-49.1919 341.851 -5.39776e-12
-3.02573e-12 -5.39776e-12 220.741

249.299 -55.9505 4.42668e-12
-55.9505 344.761 5.35276e-12
4.42668e-12 5.35276e-12 181.121

434.668 26.221 1.43293e-13
26.221 454.407 -2.32584e-12
1.43293e-13 -2.32584e-12 432.838

329.932 73.8452 2.79006e-12
73.8452 280.017 8.31335e-13
2.79006e-12 8.31335e-13 184.833

540.137 13.0469 -2.14347e-13
13.0469 554.958 1.41339e-12
-2.14347e-13 1.41339e-12 532.089

562.394 0.0401466 4.35089e-12
0.0401466 532.464 -4.27421e-12
4.35089e-12 -4.27421e-12 531.881

338.611 -73.1306 1.80004e-12
-73.1306 279.865 -5.3196e-12
1.80004e-12 -5.3196e-12 186.315

432.683 -23.4247 -4.49655e-12
-23.4247 466.325 3.70193e-12
-4.49655e-12 3.70193e-12 447.585

358.942 34.7302 -4.47168e-12
34.7302 310.984 5.37999e-12
-4.47168e-12 5.37999e-12 258.046

267.712 63.4921 -6.64121e-12
63.4921 345.219 3.51956e-12
-6.64121e-12 3.51956e-12 185.85

293.701 21.6308 -6.18883e-12
21.6308 367.672 -7.91071e-13
-6.18883e-12 -7.91071e-13 254.505

267.583 -65.921 -8.93863e-12
-65.921 344.854 1.00897e-12
-8.93863e-12 1.00897e-12 184.306

291.648 -12.3814 8.986e-12
-12.3814 370.894 -2.59585e-12
8.986e-12 -2.59585e-12 253.451

550.315 6.84101 1.70382e-12
6.84101 582.086 -2.05288e-12
1.70382e-12 -2.05288e-12 541.128

329.899 -45.9762 -9.68588e-12
-45.9762 341.826 -8.13571e-13
-9.68588e-12 -8.13571e-13 276.623

259.789 47.5332 -8.81784e-12
47.5332 340.226 4.76774e-12
-8.81784e-12 4.76774e-12 223.152

370.226 37.9122 1.42109e-12
37.9122 244.926 -1.77458e-12
1.42109e-12 -1.77458e-12 187.362

481.905 -29.2864 -6.96924e-13
-29.2864 460.525 1.70945e-12
-6.96924e-13 1.70945e-12 467.728

480.989 12.8965 1.69494e-12
12.8965 525.843 1.20319e-12
1.69494e-12 1.20319e-12 504.117

354.429 -38.1135 5.13959e-13
-38.1135 300.086 8.11203e-12
5.13959e-13 8.11203e-12 251.823

482.549 -28.8028 -4.21648e-12
-28.8028 460.334 -2.99583e-12
-4.21648e-12 -2.99583e-12 468.477

365.273 -36.344 4.73695e-14
-36.344 230.995 3.76943e-12
4.73695e-14 3.76943e-12 182.775

481.517 -28.318 -2.915e-12
-28.318 472.769 -8.92027e-13
-2.915e-12 -8.92027e-13 477.932

436.367 -25.2957 -1.47971e-12
-25.2957 466.239 -9.05942e-13
-1.47971e-12 -9.05942e-13 448.224

314.806 69.4616 -4.51905e-12
69.4616 292.149 -3.72088e-12
-4.51905e-12 -3.72088e-12 184.529

290.79 -22.9334 -1.28016e-12
-22.9334 359.175 -9.78417e-12
-1.28016e-12 -9.78417e-12 247.037

312.408 -71.6937 5.3717e-12
-71.6937 288.129 1.43695e-11
5.3717e-12 1.43695e-11 182.032

268.554 50.7387 3.16784e-12
50.7387 320.069 -5.46881e-12
3.16784e-12 -5.46881e-12 221.511

459.876 -30.213 6.12073e-12
-30.213 454.859 4.13062e-12
6.12073e-12 4.13062e-12 454.414

559.297 -14.6405 -4.0945e-13
-14.6405 544.421 -2.55647e-12
-4.0945e-13 -2.55647e-12 533.728

635.924 11.0919 8.46641e-12
11.0919 631.387 8.38692e-12
8.46641e-12 8.38692e-12 570.028

619.961 -5.16013 -9.86929e-12
-5.16013 639.741 -3.68657e-12
-9.86929e-12 -3.68657e-12 568.506

453.883 13.0837 -1.7083e-12
13.0837 506.569 7.38372e-13
-1.7083e-12 7.38372e-13 482.586

634.154 -10.6662 2.99153e-12
-10.6662 631.317 2.8626e-12
2.99153e-12 2.8626e-12 569.883

622.699 4.09194 3.48669e-12
4.09194 642.686 2.46226e-11
3.48669e-12 2.46226e-11 569.707

643.377 7.43315 -3.67055e-12
7.43315 619.151 -2.41733e-13
-3.67055e-12 -2.41733e-13 569.03

584.782 -12.1143 -1.79564e-12
-12.1143 631.672 -2.1414e-12
-1.79564e-12 -2.1414e-12 560.602

307.453 -30.4711 -1.05776e-11
-30.4711 371.644 5.60618e-12
-1.05776e-11 5.60618e-12 280.778

589.633 -12.9721 1.07647e-12
-12.9721 549.122 -3.381e-12
1.07647e-12 -3.381e-12 543.837

527.218 -34.4172 3.49587e-12
-34.4172 521.498 -1.44921e-12
3.49587e-12 -1.44921e-12 519.977

565.473 -18.1771 2.51088e-12
-18.1771 538 -1.2738e-12
2.51088e-12 -1.2738e-12 534.269

502.584 15.4596 -4.52734e-12
15.4596 452.129 -6.22287e-12
-4.52734e-12 -6.22287e-12 480.22

586.354 9.86362 -2.05391e-12
9.86362 642.138 7.8817e-12
-2.05391e-12 7.8817e-12 563.112

636.66 19.2267 -6.96021e-12
19.2267 591.728 -6.16059e-12
-6.96021e-12 -6.16059e-12 562.933

569.785 11.307 -1.64698e-12
11.307 544.348 3.88548e-12
-1.64698e-12 3.88548e-12 536.447

353.453 -15.3399 -9.04758e-13
-15.3399 231.522 3.6439e-12
-9.04758e-13 3.6439e-12 219.021

437.22 24.9649 1.79412e-13
24.9649 461.927 4.60728e-12
1.79412e-13 4.60728e-12 445.736

317.099 -61.3565 8.97889e-12
-61.3565 277.857 1.25269e-11
8.97889e-12 1.25269e-11 218.095

334.218 -57.4588 3.56929e-12
-57.4588 357.333 -7.10306e-12
3.56929e-12 -7.10306e-12 252.547

383.345 -36.5451 3.97904e-12
-36.5451 305.748 7.16464e-12
3.97904e-12 7.16464e-12 257.768

562.504 -5.15886 -3.78068e-12
-5.15886 616.956 9.11049e-12
-3.78068e-12 9.11049e-12 552.96

562.211 2.89129 8.65234e-13
2.89129 615.822 5.89958e-12
8.65234e-13 5.89958e-12 552.558

598.776 -24.4551 -7.39586e-12
-24.4551 575.749 8.48877e-12
-7.39586e-12 8.48877e-12 551.588

602.335 -21.7592 -7.266e-12
-21.7592 573.44 1.66119e-12
-7.266e-12 1.66119e-12 551.854

598.789 26.1347 6.87213e-12
26.1347 580.465 6.25048e-12
6.87213e-12 6.25048e-12 552.743

625.745 3.09861 1.04213e-12
3.09861 630.738 -1.04179e-11
1.04213e-12 -1.04179e-11 568.428

599.065 -20.508 1.48859e-12
-20.508 576.361 -5.83555e-12
1.48859e-12 -5.83555e-12 552.276

607.815 -18.5676 6.57104e-13
-18.5676 620.266 -1.07345e-11
6.57104e-13 -1.07345e-11 563.194

632.903 2.43389 -7.48098e-12
2.43389 635.529 -1.05083e-11
-7.48098e-12 -1.05083e-11 570.513

607.892 -20.5251 -8.13446e-12
-20.5251 572.434 -8.80481e-13
-8.13446e-12 -8.80481e-13 553.415

607.077 20.9547 6.05686e-12
20.9547 573.692 -5.84717e-13
6.05686e-12 -5.84717e-13 553.819

633.855 -3.45786 1.66933e-12
-3.45786 636.78 1.27454e-13
1.66933e-12 1.27454e-13 571.287

632.185 -3.11627 -7.70421e-12
-3.11627 625.76 1.02693e-11
-7.70421e-12 1.02693e-11 569.403

609.687 12.1096 4.58922e-12
12.1096 620.488 -6.69672e-12
4.58922e-12 -6.69672e-12 563.925

587.209 26.9286 -4.65405e-13
26.9286 583.025 6.86209e-12
-4.65405e-13 6.86209e-12 551.712

FIELD solute_concentration_TPM 2
S_ext 1 563 float
0.929985
0.929809
0.929827
0.92981
0.929784
0.929827
0.929985
0.929819
0.929842
0.929812
0.929948
0.929819
0.929822
0.929811
0.92979
0.929825
0.929804
0.929817
0.929846
0.929829
0.929835
0.929738
0.929831
0.92983
0.92983
0.929814
0.929939
0.929825
0.92989
0.929762
0.929823
0.929889
0.929944
0.929769
0.929768
0.929769
0.929758
0.92977
0.929824
0.929944
0.92989
0.929758
0.929758
0.929823
0.92992
0.929889
0.929844
0.92984
0.929826
0.929898
0.929893
0.929875
0.929782
0.929877
0.929783
0.929926
0.929768
0.929876
0.929768
0.929828
0.929803
0.929797
0.929936
0.929799
0.929796
0.929809
0.929803
0.929815
0.92983
0.929808
0.929782
0.929782
0.929891
0.929805
0.929827
0.929947
0.929792
0.929809
0.929814
0.929869
0.929906
0.929779
0.9298
0.929908
0.929889
0.929923
0.929825
0.929808
0.92992
0.929746
0.929876
0.929747
0.929789
0.929811
0.929875
0.929893
0.929908
0.929812
0.929792
0.929824
0.929858
0.929886
0.929908
0.929814
0.929814
0.929812
0.929799
0.929825
0.929909
0.929804
0.929828
0.929917
0.929912
0.929816
0.929813
0.929877
0.92977
0.929909
0.929771
0.929876
0.92985
0.929791
0.929807
0.929804
0.929804
0.929789
0.929774
0.929812
0.929908
0.929875
0.929781
0.929808
0.929799
0.929808
0.929886
0.929767
0.929918
0.929822
0.929799
0.929767
0.929884
0.929816
0.92985
0.929812
0.92991
0.929813
0.929818
0.929829
0.929827
0.929862
0.929839
0.929808
0.929888
0.929822
0.929812
0.929808
0.92981
0.929884
0.929883
0.929819
0.929839
0.929887
0.92992
0.929892
0.929882
0.929812
0.929883
0.929884
0.929889
0.929882
0.929789
0.929876
0.929893
0.929809
0.929876
0.929799
0.929789
0.92982
0.929783
0.929815
0.929891
0.929812
0.929812
0.929883
0.929807
0.929894
0.929804
0.929801
0.92979
0.929812
0.929807
0.929906
0.929875
0.929889
0.929808
0.929817
0.929816
0.929799
0.929808
0.92981
0.929808
0.929845
0.929868
0.9298
0.929891
0.929799
0.92981
0.929886
0.929796
0.929808
0.929796
0.929813
0.929814
0.9298
0.92986
0.929812
0.929868
0.929801
0.929804
0.929803
0.929803
0.929804
0.929804
0.929804
0.929812
0.92979
0.92979
0.92979
0.92979
0.929784
0.929784
0.929861
0.929811
0.929808
0.929841
0.929791
0.92979
0.929808
0.929867
0.929808
0.929812
0.929861
0.929795
0.929861
0.9298
0.929807
0.92986
0.929866
0.929907
0.929899
0.929799
0.929913
0.929823
0.929868
0.929845
0.929808
0.929803
0.929759
0.929803
0.929916
0.929867
0.929807
0.929819
0.929869
0.929803
0.929849
0.929759
0.929867
0.929803
0.929805
0.929816
0.929791
0.929808
0.929783
0.929821
0.929918
0.929924
0.929788
0.929833
0.929819
0.929863
0.929795
0.929809
0.929866
0.92981
0.929858
0.929818
0.929859
0.929867
0.929751
0.929787
0.929788
0.929788
0.929812
0.929858
0.92977
0.929806
0.929838
0.929857
0.929862
0.929787
0.929861
0.929791
0.929861
0.92992
0.929857
0.929911
0.9298
0.92986
0.92975
0.92986
0.929803
0.929862
0.929804
0.929861
0.929826
0.929942
0.929826
0.929861
0.929786
0.929861
0.929838
0.929807
0.929807
0.92986
0.929858
0.929849
0.929802
0.929857
0.92982
0.929825
0.929785
0.929858
0.92985
0.929837
0.929849
0.929859
0.929849
0.929798
0.929819
0.92985
0.929861
0.929816
0.929816
0.929858
0.929785
0.929955
0.929828
0.929907
0.929836
0.93001
0.93001
0.930008
0.930008
0.930005
0.930014
0.930014
0.9298
0.929776
0.929819
0.929838
0.929845
0.929849
0.929818
0.92985
0.92985
0.929776
0.929849
0.929797
0.929875
0.929791
0.929827
0.929839
0.92985
0.929789
0.929828
0.929838
0.929828
0.929837
0.929848
0.92987
0.929838
0.929829
0.929795
0.929845
0.929849
0.929845
0.929839
0.929829
0.929816
0.929845
0.929817
0.929829
0.929839
0.929819
0.929828
0.929848
0.929803
0.929837
0.929776
0.92992
0.9298
0.929798
0.929829
0.929837
0.929808
0.929955
0.929827
0.929838
0.929941
0.929754
0.929754
0.929826
0.929846
0.929836
0.929845
0.929739
0.929738
0.929816
0.929819
0.929819
0.929959
0.929848
0.929802
0.929841
0.929842
0.929839
0.929954
0.929805
0.929846
0.929828
0.929828
0.929841
0.929838
0.929842
0.929841
0.929942
0.929911
0.929838
0.929828
0.929837
0.929842
0.929838
0.929836
0.929837
0.929922
0.929792
0.929845
0.929808
0.929805
0.929923
0.929826
0.929827
0.929785
0.929748
0.929748
0.929787
0.929848
0.929828
0.929924
0.929751
0.929737
0.929737
0.929956
0.92977
0.929761
0.92983
0.929791
0.929819
0.92981
0.929802
0.929802
0.92982
0.929954
0.929826
0.929811
0.929803
0.929948
0.929765
0.929947
0.929801
0.929814
0.92986
0.929822
0.929821
0.92978
0.929817
0.92978
0.929827
0.929804
0.929765
0.929765
0.929925
0.929809
0.929987
0.929988
0.929987
0.929806
0.92996
0.929988
0.929843
0.929986
0.929779
0.929779
0.929987
0.929832
0.929945
0.929991
0.929944
0.929992
0.929945
0.929769
0.929929
0.929959
0.929985
0.929822
0.929798
0.929947
0.929821
0.929985
0.929815
0.929833
0.929992
0.929948
0.929992
0.929955
0.929829
0.929775
0.929737
0.929738
0.929811
0.929737
0.929737
0.929738
0.929747
0.929927
0.929765
0.929788
0.929777
0.929814
0.929745
0.929745
0.929776
0.929956
0.929834
0.929963
0.929951
0.929943
0.929752
0.929752
0.929753
0.929753
0.929752
0.929741
0.929757
0.929747
0.929741
0.929754
0.929754
0.92974
0.92974
0.929745
0.929756
P_ext 1 563 float
0.0172318
0.0172275
0.0172282
0.0172276
0.017226
0.0172281
0.0172318
0.0172278
0.0172286
0.0172276
0.017231
0.0172278
0.0172279
0.0172276
0.0172264
0.0172281
0.0172272
0.0172278
0.0172287
0.0172283
0.0172284
0.0172231
0.0172283
0.0172282
0.0172283
0.0172277
0.0172309
0.017228
0.0172298
0.0172246
0.017228
0.0172298
0.017231
0.0172251
0.0172251
0.0172251
0.0172245
0.0172252
0.017228
0.0172309
0.0172298
0.0172245
0.0172245
0.017228
0.0172305
0.0172298
0.0172287
0.0172285
0.0172281
0.01723
0.0172299
0.0172295
0.017226
0.0172295
0.017226
0.0172306
0.0172251
0.0172295
0.0172251
0.0172282
0.0172272
0.0172268
0.0172308
0.0172269
0.0172268
0.0172273
0.0172272
0.0172277
0.0172283
0.0172274
0.017226
0.017226
0.0172298
0.0172272
0.0172282
0.017231
0.0172265
0.0172274
0.0172277
0.0172293
0.0172302
0.0172258
0.017227
0.0172302
0.0172298
0.0172306
0.017228
0.0172272
0.0172305
0.0172234
0.0172295
0.0172233
0.0172264
0.0172274
0.0172295
0.0172299
0.0172302
0.0172276
0.0172265
0.017228
0.017229
0.0172297
0.0172302
0.0172277
0.0172276
0.0172277
0.0172269
0.0172281
0.0172302
0.0172273
0.0172282
0.0172304
0.0172303
0.0172278
0.0172277
0.0172295
0.0172251
0.0172303
0.0172251
0.0172295
0.0172288
0.0172265
0.0172275
0.0172272
0.0172272
0.0172264
0.0172253
0.0172276
0.0172302
0.0172295
0.0172259
0.0172275
0.017227
0.0172275
0.0172298
0.017225
0.0172304
0.0172279
0.0172269
0.017225
0.0172297
0.0172276
0.0172288
0.0172276
0.0172303
0.0172277
0.0172277
0.0172281
0.0172282
0.0172291
0.0172285
0.0172274
0.0172298
0.017228
0.0172276
0.0172275
0.0172275
0.0172297
0.0172297
0.0172279
0.0172285
0.0172298
0.0172305
0.0172299
0.0172296
0.0172277
0.0172297
0.0172297
0.0172298
0.0172296
0.0172263
0.0172295
0.0172299
0.0172274
0.0172295
0.0172269
0.0172263
0.0172278
0.017226
0.0172276
0.0172299
0.0172276
0.0172276
0.0172297
0.0172273
0.0172299
0.0172272
0.017227
0.0172263
0.0172276
0.0172272
0.0172302
0.0172295
0.0172298
0.0172275
0.0172278
0.0172278
0.017227
0.0172275
0.0172274
0.0172275
0.0172287
0.0172293
0.017227
0.0172299
0.017227
0.0172273
0.0172297
0.0172267
0.0172274
0.0172267
0.0172276
0.0172277
0.0172269
0.0172291
0.0172275
0.0172293
0.017227
0.0172272
0.0172272
0.0172273
0.0172273
0.0172273
0.0172273
0.0172275
0.0172265
0.0172265
0.0172264
0.0172264
0.017226
0.0172259
0.0172291
0.0172275
0.0172275
0.0172286
0.0172264
0.0172264
0.0172274
0.0172293
0.0172275
0.0172276
0.0172291
0.0172267
0.0172291
0.0172269
0.0172275
0.0172291
0.0172293
0.0172302
0.01723
0.017227
0.0172303
0.017228
0.0172293
0.0172287
0.0172275
0.0172272
0.0172245
0.0172273
0.0172304
0.0172293
0.0172275
0.0172278
0.0172293
0.0172272
0.0172288
0.0172245
0.0172293
0.0172272
0.0172272
0.0172278
0.0172264
0.0172273
0.017226
0.0172279
0.0172304
0.0172306
0.0172262
0.0172284
0.0172278
0.0172292
0.0172266
0.0172275
0.0172293
0.0172274
0.0172291
0.0172277
0.0172291
0.0172293
0.0172239
0.0172263
0.0172264
0.0172264
0.0172276
0.0172291
0.0172252
0.0172273
0.0172285
0.017229
0.0172292
0.0172262
0.0172291
0.0172263
0.0172292
0.0172305
0.017229
0.0172303
0.0172269
0.0172291
0.0172239
0.0172291
0.017227
0.0172292
0.0172271
0.0172291
0.0172281
0.0172309
0.0172281
0.0172291
0.0172262
0.0172291
0.0172284
0.0172272
0.0172275
0.0172291
0.0172291
0.0172288
0.017227
0.017229
0.0172278
0.0172281
0.0172261
0.0172291
0.0172288
0.0172284
0.0172288
0.0172291
0.0172288
0.0172267
0.0172278
0.0172288
0.0172291
0.0172277
0.0172277
0.017229
0.0172261
0.0172312
0.0172281
0.0172302
0.0172284
0.0172322
0.0172322
0.0172322
0.0172322
0.0172321
0.0172323
0.0172323
0.0172269
0.0172254
0.0172278
0.0172284
0.0172287
0.0172288
0.0172277
0.0172288
0.0172288
0.0172254
0.0172288
0.0172267
0.0172295
0.0172265
0.0172281
0.0172285
0.0172288
0.0172262
0.0172281
0.0172285
0.0172281
0.0172284
0.0172288
0.0172293
0.0172284
0.0172282
0.0172267
0.0172287
0.0172288
0.0172287
0.0172285
0.0172282
0.0172277
0.0172287
0.0172277
0.0172282
0.0172285
0.0172278
0.0172282
0.0172288
0.0172272
0.0172284
0.0172256
0.0172305
0.017227
0.0172267
0.0172282
0.0172285
0.0172273
0.0172312
0.0172281
0.0172285
0.0172309
0.017224
0.017224
0.017228
0.0172287
0.0172284
0.0172287
0.0172228
0.0172229
0.0172277
0.0172278
0.0172278
0.0172313
0.0172288
0.0172271
0.0172286
0.0172286
0.0172285
0.0172312
0.0172272
0.0172288
0.0172281
0.0172281
0.0172286
0.0172285
0.0172286
0.0172286
0.0172309
0.0172303
0.0172285
0.0172281
0.0172285
0.0172286
0.0172285
0.0172284
0.0172284
0.0172305
0.0172265
0.0172287
0.0172274
0.0172272
0.0172305
0.0172281
0.0172282
0.017226
0.0172239
0.0172239
0.0172262
0.0172288
0.0172281
0.0172306
0.017224
0.017223
0.0172231
0.0172312
0.0172252
0.0172246
0.0172282
0.0172264
0.0172279
0.0172275
0.0172271
0.017227
0.0172278
0.0172312
0.0172281
0.0172274
0.0172271
0.0172311
0.0172249
0.017231
0.0172271
0.0172276
0.0172291
0.017228
0.0172278
0.0172258
0.0172278
0.0172258
0.0172282
0.0172271
0.0172247
0.0172247
0.0172306
0.0172274
0.0172318
0.0172318
0.0172318
0.0172273
0.0172313
0.0172318
0.0172286
0.0172318
0.0172258
0.0172258
0.0172318
0.0172284
0.017231
0.0172319
0.017231
0.0172319
0.017231
0.0172251
0.0172307
0.0172313
0.0172317
0.0172279
0.0172268
0.017231
0.0172279
0.0172318
0.0172276
0.0172283
0.0172319
0.017231
0.0172319
0.0172312
0.0172282
0.0172255
0.0172231
0.0172232
0.0172275
0.0172231
0.0172231
0.0172231
0.0172237
0.0172306
0.0172249
0.0172262
0.0172255
0.0172276
0.0172235
0.0172236
0.0172254
0.0172312
0.0172284
0.0172313
0.0172311
0.0172309
0.0172241
0.0172241
0.0172242
0.0172242
0.0172241
0.0172232
0.0172242
0.0172235
0.0172231
0.0172241
0.0172241
0.0172231
0.0172232
0.0172235
0.0172242
FIELD solute_flux_TPM 2
S_ext 3 563 float
-5.08648e-05 1.70039e-05 3.08673e-18
2.34036e-06 4.3866e-06 -2.01656e-18
-8.05885e-06 -6.36181e-06 1.73471e-19
-2.65894e-06 2.6892e-06 -4.98097e-19
1.51198e-05 -4.34443e-06 1.25272e-20
1.72247e-06 -1.00351e-05 1.1651e-18
-5.00884e-05 -1.72109e-05 1.9916e-18
-8.88349e-06 -6.53033e-06 2.85884e-18
1.39134e-05 6.04209e-07 -1.48255e-18
7.3191e-06 -2.62666e-06 -6.71679e-19
3.39077e-05 7.89211e-06 3.07194e-19
1.41781e-06 -1.09542e-05 -6.72107e-19
8.75602e-06 7.04823e-06 3.40622e-19
1.78469e-06 8.78441e-06 -1.61361e-19
1.37085e-05 -2.04549e-06 -4.24574e-18
-1.01962e-05 -1.66221e-07 1.01571e-18
1.88788e-06 9.13402e-06 -1.50728e-18
6.49231e-06 -1.57407e-06 -2.00629e-18
6.19673e-06 1.07942e-05 4.45745e-18
-9.28539e-06 1.18341e-06 -1.14875e-18
-2.20167e-06 -1.33502e-05 -3.3474e-19
2.86256e-05 4.03935e-05 -8.91518e-19
9.94863e-06 1.0236e-06 -1.57763e-19
7.14295e-06 -7.10564e-06 2.15993e-18
-9.41941e-06 -2.10552e-06 -1.14993e-18
-3.59159e-07 -7.07667e-06 -1.17706e-18
3.89071e-05 -3.03826e-06 1.63189e-19
9.01396e-06 6.50616e-06 5.15569e-21
-1.54621e-05 -1.25668e-05 -1.28813e-18
3.23938e-05 -8.59526e-06 7.11883e-19
-1.0391e-05 -3.89183e-06 1.01832e-18
3.31601e-06 -1.98338e-05 -3.2012e-19
2.91893e-05 -2.97448e-05 -1.41604e-18
-3.46077e-06 -2.76406e-05 1.72094e-18
-1.95635e-05 2.43202e-05 7.10147e-19
-2.56671e-05 -1.0812e-05 -8.49493e-19
2.14975e-05 2.8121e-05 2.954e-18
-2.95385e-05 -5.80801e-06 -5.37281e-19
9.25334e-06 -6.95443e-06 3.32257e-19
2.85182e-05 3.09947e-05 3.45164e-18
1.99704e-05 -8.72582e-06 3.2964e-19
2.19174e-05 -2.70684e-05 1.36892e-18
-1.24901e-05 -3.24938e-05 -3.1259e-18
-9.94565e-06 4.09239e-06 -9.89101e-19
1.87097e-05 -1.82964e-05 -1.26377e-18
-1.85273e-05 6.58291e-06 -1.93544e-18
-2.55328e-06 -1.26725e-05 1.98479e-18
4.92358e-06 1.26343e-05 2.65717e-18
-1.0297e-05 3.77204e-06 1.17751e-18
-1.11202e-05 1.74964e-05 -1.76205e-18
2.01458e-05 9.47053e-06 -6.387e-19
1.82439e-05 -6.34817e-06 1.14216e-18
-1.03705e-05 1.03541e-05 -5.03203e-19
-1.44531e-05 -1.25353e-05 -1.62039e-18
-1.39363e-05 -3.43736e-06 -6.96378e-19
-2.72417e-05 1.62358e-05 -4.74019e-19
-1.93686e-05 -2.50306e-05 -1.22356e-18
3.80233e-06 -1.88903e-05 1.46126e-18
-3.13698e-05 4.30051e-06 4.35103e-18
3.81074e-06 8.64311e-06 2.34146e-18
-3.5589e-06 -5.37394e-06 6.84401e-19
-4.20694e-06 -1.17614e-05 -1.17902e-18
3.51568e-05 1.53129e-05 1.42652e-18
6.1507e-06 1.17689e-05 -1.51593e-18
8.13592e-06 -9.40416e-06 2.87875e-18
-1.16386e-06 -1.33946e-05 -2.87259e-18
3.09485e-06 -5.7116e-06 2.52044e-18
-6.35917e-06 -3.59464e-06 2.3605e-18
-6.69887e-06 7.42844e-06 -8.26348e-19
1.6195e-06 -2.74545e-06 -2.69051e-18
-9.94045e-06 -1.0414e-05 1.36505e-18
-1.4057e-05 3.44708e-06 4.47155e-18
-2.37634e-06 2.11182e-05 -9.67932e-19
-1.15311e-05 6.92613e-06 -6.68937e-19
-5.72387e-06 9.10977e-06 3.01099e-18
-3.6307e-05 4.52918e-06 9.40383e-19
5.22367e-06 -1.41335e-05 3.40348e-18
-1.22169e-05 -5.60837e-06 5.57559e-18
1.17426e-06 7.419e-06 -1.16717e-18
1.64455e-05 3.15179e-06 -2.43903e-18
2.10919e-05 -1.7956e-05 2.08525e-18
1.47193e-05 1.34991e-05 -6.81873e-19
7.89105e-06 -1.96623e-06 1.77663e-19
-1.96382e-05 1.43872e-05 -1.44084e-18
2.34824e-05 3.01792e-06 -2.09333e-18
-3.37975e-06 3.01002e-05 -1.8996e-18
-1.08377e-06 -1.06626e-05 -4.01148e-18
1.18309e-05 6.38811e-06 1.02097e-18
1.79938e-05 1.88384e-05 7.9123e-19
4.25198e-05 2.64352e-05 3.35319e-18
-3.3421e-06 1.89831e-05 3.22619e-19
4.44154e-05 -2.49602e-05 -3.8831e-18
-1.78678e-05 3.39662e-06 -8.5696e-19
1.16156e-05 7.23054e-06 -1.17177e-18
-1.81298e-05 6.05432e-06 1.1469e-18
1.02132e-05 1.7711e-05 2.57303e-18
6.0627e-06 -2.71929e-05 -1.91896e-18
1.1911e-06 7.41651e-06 -1.60719e-19
-9.5617e-06 -1.15604e-05 -1.01137e-18
1.87849e-06 1.10459e-05 8.4409e-19
1.64972e-05 3.32119e-06 4.97374e-19
-9.53347e-06 2.03004e-05 -7.99791e-19
2.50458e-05 -8.35843e-06 -6.32857e-19
-2.41428e-06 4.67443e-06 4.6981e-18
6.46557e-06 3.70261e-06 -3.30743e-19
-1.38395e-06 -7.19748e-06 1.1732e-18
2.19306e-06 -1.25675e-05 2.53801e-18
1.11009e-05 2.52045e-06 -2.50154e-18
-5.04973e-06 2.51692e-05 -2.07829e-18
-6.44331e-06 8.24151e-08 6.77163e-19
5.9412e-06 7.48284e-06 -1.16115e-18
-1.65378e-06 -2.56482e-05 -1.10399e-18
2.59695e-05 8.0755e-06 2.70809e-18
2.84848e-06 -4.69991e-06 6.66679e-19
-7.03045e-06 -2.31004e-06 2.02905e-18
-1.79038e-05 -7.63735e-06 -9.68e-19
1.05928e-05 2.77116e-05 -5.19106e-19
-2.62286e-05 -9.3538e-06 5.97826e-21
1.07406e-05 -2.77857e-05 -4.17535e-18
-2.30675e-06 -1.96697e-05 8.18897e-19
1.3727e-05 3.71345e-07 -2.956e-18
-4.70176e-06 1.21808e-05 -1.01204e-18
-1.06379e-06 2.52374e-06 -3.52558e-18
-2.49404e-06 -1.07231e-05 4.99849e-19
3.41643e-06 -5.57678e-06 -5.21722e-18
6.20933e-06 1.04111e-05 1.54513e-18
2.22788e-05 7.3031e-06 1.37949e-18
5.64848e-06 -4.69707e-06 1.84508e-18
-5.18677e-06 -2.7523e-05 -3.36025e-18
1.59013e-05 -1.17013e-05 2.44253e-18
3.303e-06 1.83316e-05 -1.19017e-18
-1.76206e-06 -1.85911e-06 1.52944e-18
-5.68667e-06 -5.40762e-06 5.01513e-19
-3.09576e-06 9.79311e-08 -1.33594e-18
-1.40434e-05 1.73274e-05 2.42786e-18
1.29197e-05 -2.49327e-05 1.6277e-19
-1.6345e-05 2.58427e-05 -3.82536e-18
-1.0298e-05 6.0411e-06 2.01424e-18
1.61588e-06 8.11629e-06 -5.09964e-19
-1.51041e-05 -2.36358e-05 -1.03038e-18
8.5137e-06 2.0644e-05 -1.45602e-18
1.13602e-05 5.88061e-06 8.4936e-19
1.43173e-05 -5.43414e-06 -8.28383e-19
-8.59827e-07 -7.19559e-06 1.8442e-18
-2.06013e-05 -1.89444e-05 -1.52151e-19
-1.67892e-06 7.20728e-06 1.17849e-18
1.11383e-05 6.58639e-06 8.47756e-19
1.20343e-05 -5.73089e-06 1.16755e-18
5.27462e-06 -9.01159e-06 1.00439e-18
1.52466e-05 -6.74842e-06 -8.19894e-19
1.20367e-05 -5.70033e-06 1.97994e-21
3.09093e-06 2.33226e-07 1.17017e-18
1.59189e-05 1.2603e-05 3.06215e-18
-1.64159e-06 -1.07466e-05 -6.74931e-19
-6.73178e-06 -2.74871e-06 4.71404e-18
7.77514e-07 -2.47934e-06 -3.52631e-18
-2.13958e-06 1.01525e-05 3.41846e-19
-2.11801e-05 1.68039e-06 -4.81466e-19
-7.47883e-06 -2.03227e-05 1.62775e-18
-4.98546e-06 6.13224e-06 -1.33381e-18
8.53791e-06 1.03921e-05 -1.31807e-18
1.64283e-05 -1.17192e-05 3.87571e-18
-2.24649e-05 -1.2188e-05 2.0667e-18
1.06782e-05 -1.7108e-05 2.25187e-18
1.40863e-05 -1.68485e-05 1.46484e-18
-6.9182e-06 2.48666e-06 2.36986e-18
-1.21727e-05 -1.75151e-05 -1.59238e-19
-2.11605e-05 -3.52994e-06 1.95501e-18
-2.55564e-06 -1.94866e-05 -3.70415e-18
9.45011e-06 -1.95617e-05 8.17157e-19
-6.07273e-06 -1.72091e-05 -1.2026e-18
2.70653e-06 1.93677e-05 -9.76957e-19
-9.82071e-06 -1.74084e-05 -1.9292e-18
2.02798e-06 -1.04663e-05 -1.18567e-18
-1.52028e-05 1.10529e-05 8.17165e-19
-9.74452e-06 -7.95599e-06 -3.54388e-18
-1.79861e-05 -3.28765e-06 3.42439e-18
1.00729e-05 -5.9359e-06 -3.01921e-18
-2.79734e-06 1.58023e-05 1.73187e-19
8.00618e-06 -5.93127e-06 -1.17843e-18
-1.80841e-05 -7.92257e-06 8.12902e-19
-5.67532e-06 -4.67405e-06 1.51451e-18
5.91347e-06 4.73927e-06 -1.0008e-18
1.32363e-05 1.77485e-05 2.26641e-18
-1.12149e-05 -6.98732e-06 -1.67785e-18
-1.98197e-05 -4.80632e-07 1.12941e-18
-1.06427e-05 -3.11579e-06 4.57298e-18
-3.0171e-06 -1.07355e-05 1.17787e-18
1.17119e-05 1.42068e-05 -6.79997e-19
-7.064e-06 3.64589e-06 -4.95723e-19
4.74529e-07 -1.32431e-05 1.51657e-18
-2.54022e-05 6.52703e-06 -3.68686e-18
1.54718e-05 1.25571e-05 2.44018e-18
2.24956e-06 2.02794e-05 -1.13366e-18
-1.5158e-06 2.49395e-06 1.53413e-18
-5.6785e-06 1.58357e-07 -1.50078e-19
2.79531e-06 4.89043e-06 -1.83814e-18
-7.65082e-06 2.3003e-06 4.07355e-18
-1.35147e-06 -2.40082e-06 5.02654e-19
1.16302e-06 1.33596e-05 5.14419e-19
2.96226e-06 2.00346e-07 -4.92906e-19
-1.21227e-05 2.93856e-06 -2.62969e-18
-1.07443e-05 1.18786e-05 3.75237e-18
-1.96969e-06 7.60696e-06 1.03452e-18
-1.79217e-05 1.11849e-05 1.61789e-18
-6.17041e-06 5.83408e-06 1.34371e-21
1.12507e-05 -7.70514e-06 -3.20432e-18
2.26865e-05 -2.2633e-06 5.99252e-21
-1.38345e-05 7.32837e-06 1.36285e-18
1.40672e-06 2.96486e-06 1.6759e-19
1.44489e-05 -2.73168e-06 -1.19122e-18
-1.10516e-05 6.72839e-06 1.76379e-19
-6.24739e-06 3.58717e-06 -1.32792e-18
7.89009e-06 2.58785e-06 -1.01974e-18
1.36647e-05 -8.48071e-06 -2.12718e-18
-1.11513e-05 6.32167e-06 -6.65764e-19
-1.53853e-05 -3.23594e-06 -6.44709e-19
-1.0864e-05 -2.7502e-06 4.75769e-18
6.60278e-06 9.93591e-08 -5.0398e-21
6.75896e-06 3.05586e-08 1.01741e-18
2.93208e-06 5.4077e-06 -1.34288e-18
3.21954e-06 -5.71404e-06 1.17558e-18
-3.22225e-06 5.55378e-06 2.3782e-18
-3.3709e-06 -5.67971e-06 1.01841e-18
6.36564e-06 -4.88848e-06 -1.51239e-18
-1.34145e-05 2.18317e-06 3.42257e-18
-1.3263e-05 -2.22509e-06 -4.91491e-21
-8.50668e-06 1.0464e-05 -3.57155e-18
-8.5533e-06 -1.0503e-05 3.32843e-19
4.9411e-06 -1.33223e-05 -4.46932e-18
4.76062e-06 1.32105e-05 1.73595e-19
9.38745e-07 1.60939e-05 -3.27812e-19
7.35328e-06 -1.88463e-06 -1.52053e-18
1.58692e-06 -2.45738e-06 -3.39415e-19
-1.32368e-05 9.07805e-07 -4.79549e-18
5.09566e-06 -1.31085e-05 -5.12333e-18
4.82901e-06 1.31551e-05 1.87003e-18
3.09368e-06 -5.72477e-08 -1.01041e-18
5.53076e-06 1.51886e-05 4.23741e-18
-1.43704e-06 -2.56486e-06 2.68594e-18
1.46347e-06 -7.22966e-06 1.17556e-18
-1.38445e-05 -7.41476e-06 1.69562e-19
-1.39772e-05 -7.46515e-06 -4.99201e-19
-1.35344e-05 8.38594e-06 1.80597e-18
2.09197e-06 -8.21534e-06 -4.74105e-18
-1.0219e-06 2.14267e-06 2.29096e-21
-4.5451e-07 -1.58347e-05 -3.27625e-18
-4.85664e-06 -1.50416e-05 4.94651e-19
2.01867e-05 1.87802e-05 7.97718e-19
2.20559e-05 -1.13396e-06 -1.7635e-18
-8.33354e-06 -2.46478e-06 -1.85666e-18
-1.40456e-05 -2.50227e-05 -1.91076e-18
5.281e-06 8.66004e-06 2.18084e-18
-1.55045e-05 1.82972e-06 -1.52357e-19
1.26516e-05 3.62976e-06 -1.97368e-18
-2.89377e-06 -1.21624e-08 2.86852e-18
-3.07459e-06 -5.47739e-06 3.32426e-19
-5.42919e-06 -2.58066e-05 -3.83312e-18
-6.36257e-06 1.3144e-08 3.54366e-18
-2.92001e-05 -1.09539e-06 -1.11874e-18
1.07574e-05 -1.19466e-05 -6.53143e-19
1.61522e-06 2.546e-06 -3.67895e-18
-9.57514e-08 -1.1151e-05 -1.1747e-18
-6.16482e-06 1.48162e-05 -4.94357e-19
-2.89685e-06 5.61566e-06 -3.36057e-18
1.29442e-05 -8.52059e-06 -2.1372e-21
-2.50607e-05 -8.18146e-06 7.79581e-21
-9.47141e-06 -1.2512e-05 -6.50293e-19
3.25656e-06 5.58727e-06 1.34289e-18
1.09511e-05 3.19343e-06 -3.03151e-18
-3.00761e-06 -4.60143e-06 1.34276e-18
1.32521e-05 2.45008e-06 1.19076e-18
1.19068e-05 -6.35049e-06 -8.47336e-19
-2.34872e-07 1.78383e-05 -1.01753e-18
5.30914e-06 -8.62271e-06 -6.65991e-19
3.01726e-05 1.27586e-06 -3.96953e-18
-2.56378e-05 6.67395e-06 -3.17918e-19
1.52368e-05 7.5839e-06 6.95011e-19
-4.03068e-06 -1.06995e-05 -2.6647e-18
-9.75506e-06 -5.42549e-06 3.02995e-18
1.79424e-05 -1.46721e-07 -8.1648e-19
-4.87502e-07 -1.58818e-05 4.58061e-18
-8.00701e-06 -7.0809e-06 -8.31271e-19
6.3218e-06 -1.46388e-05 4.91158e-19
-3.9022e-07 1.32141e-05 1.68996e-18
4.84896e-06 1.61791e-05 2.95284e-18
1.11505e-05 -6.41665e-06 1.50785e-18
-1.17387e-05 1.17935e-05 2.96114e-18
1.0259e-05 1.24962e-05 2.93536e-18
-4.32414e-05 1.0308e-05 -5.30969e-19
-6.74165e-06 1.70936e-05 -1.35823e-18
8.3038e-06 -1.00357e-05 2.20199e-18
-4.58298e-06 -1.21353e-05 -5.44531e-18
-7.63522e-06 2.76747e-06 5.13857e-19
-1.58851e-05 -4.36194e-06 9.95915e-19
-4.46478e-06 2.5972e-05 2.25079e-18
-8.05192e-06 7.81997e-06 -3.23192e-19
1.31186e-05 -2.91718e-06 2.4897e-18
-4.2454e-06 -1.5945e-05 -3.2403e-19
-9.20538e-06 1.46526e-05 2.13537e-18
-1.42715e-05 8.23666e-06 -1.87976e-18
-1.26994e-05 -9.26628e-06 1.72873e-19
1.19529e-05 -1.3881e-05 -5.98327e-18
-1.68467e-05 -8.97078e-07 -9.7395e-19
7.38616e-06 -2.52698e-05 -1.58271e-19
1.21276e-05 -1.17732e-05 -1.15098e-18
1.51013e-05 2.65169e-05 7.9728e-19
1.30142e-06 1.29267e-05 3.23149e-18
1.82052e-06 -1.58088e-05 -2.62013e-18
-2.81207e-05 3.30273e-05 -3.85846e-18
-7.84849e-06 -1.49911e-05 -1.60695e-19
1.08467e-05 -4.13461e-06 8.38948e-19
-1.58817e-06 1.59327e-05 -1.14849e-18
8.3951e-06 -7.91838e-06 -2.53496e-18
8.60568e-06 1.50828e-05 -4.89784e-19
1.0927e-05 -9.53449e-07 3.17803e-18
1.31944e-05 -3.86228e-05 9.50775e-19
-3.67594e-06 -8.06486e-06 -5.0364e-19
-1.43013e-05 6.13986e-06 -6.50978e-19
-1.31814e-05 1.23643e-05 -5.08236e-19
1.34802e-05 9.12435e-06 -1.47283e-18
1.18234e-05 -6.85638e-06 -1.82882e-18
9.66997e-06 8.28476e-06 2.0388e-18
-3.55616e-06 -5.10505e-08 2.35879e-18
9.56513e-06 -1.43375e-05 1.47388e-18
-1.05146e-05 -1.24923e-05 1.15351e-18
1.41541e-05 6.17526e-06 2.80535e-18
8.37728e-06 -7.92803e-06 -1.19146e-18
5.87821e-06 -1.54366e-05 2.63007e-18
1.06641e-05 -4.59147e-06 -2.18002e-18
-9.95135e-06 -4.76657e-06 1.84765e-18
8.92775e-07 -1.72458e-05 2.39415e-18
-1.60233e-05 2.77861e-06 -2.62231e-18
1.40549e-06 1.52783e-05 1.6489e-18
1.30019e-05 4.24967e-06 -2.98358e-18
-1.34314e-05 -6.64537e-06 -8.13522e-19
-5.56245e-06 1.58107e-05 9.80375e-19
-9.19227e-07 -1.50705e-05 1.65499e-18
1.28266e-05 7.80942e-06 1.20164e-18
-1.01981e-06 1.15228e-05 -1.67263e-18
-1.25176e-05 8.39718e-06 -1.4779e-18
1.47322e-05 7.11462e-06 -1.5617e-19
-1.0839e-05 -6.46169e-06 5.15828e-19
1.81066e-07 -1.26748e-05 1.17381e-18
1.14861e-05 1.24208e-05 -1.47846e-18
-1.44778e-05 -9.3835e-06 -1.53004e-18
2.98165e-05 -2.13283e-05 -2.46236e-21
1.14686e-05 -6.8647e-06 -1.17521e-18
5.33078e-06 2.64283e-05 1.28144e-18
1.08412e-05 -8.58686e-06 -1.00233e-18
-1.38504e-05 5.34585e-05 -1.34029e-18
-1.3922e-05 -5.29507e-05 -1.0421e-18
3.4805e-05 4.54818e-05 3.11464e-18
3.4387e-05 -4.54707e-05 8.87309e-19
5.68205e-05 -2.82059e-08 1.02557e-18
-4.8889e-05 1.98166e-05 4.34241e-19
-4.80967e-05 -2.0023e-05 2.81677e-18
8.02084e-06 7.80824e-06 6.81945e-19
1.96673e-05 1.46672e-05 1.73383e-18
7.30342e-06 2.16666e-06 -3.32249e-19
1.19648e-05 6.14597e-06 7.3111e-21
3.09768e-06 1.26373e-05 -1.6498e-18
-1.17124e-05 -9.19283e-06 -6.43679e-19
1.10978e-05 -6.49205e-06 1.58662e-19
1.25053e-05 9.08382e-06 -9.84466e-19
-1.96288e-06 1.51712e-05 1.64633e-18
1.97669e-05 -1.34645e-05 -2.24423e-18
2.28662e-06 -1.48013e-05 1.48893e-18
1.45263e-05 3.28223e-06 6.95312e-19
1.85576e-05 6.91022e-06 2.6036e-18
9.40736e-06 9.29001e-06 3.45766e-19
1.01137e-05 4.22223e-06 -1.66249e-18
-1.15693e-05 6.83174e-06 -2.97847e-18
-1.39587e-05 5.62167e-06 -6.2587e-18
1.52979e-05 -7.43635e-06 -2.74284e-18
-1.14696e-05 -6.32399e-06 2.35178e-18
-1.16093e-05 -6.55962e-06 5.10544e-19
-1.73838e-07 -1.31274e-05 -3.50151e-18
-1.00667e-07 -1.32771e-05 4.95413e-19
-1.24583e-05 -6.30237e-07 -2.13318e-18
1.6689e-05 -2.52857e-06 -1.94918e-18
1.14544e-05 7.18392e-06 -3.30604e-19
-1.12833e-05 6.81574e-06 -4.32832e-18
-9.93236e-06 1.09162e-05 1.74949e-19
1.0093e-05 -8.66953e-06 1.65124e-18
-6.90331e-06 1.08054e-05 4.11888e-18
-8.86483e-06 -9.21902e-06 -1.64587e-18
-7.68498e-07 1.32663e-05 1.83034e-18
-7.54076e-07 1.32497e-05 5.01839e-19
1.92068e-08 -1.26773e-05 -2.35503e-18
3.81672e-06 -1.23589e-05 2.81115e-18
-1.09401e-05 -6.27915e-06 1.35538e-18
9.90056e-06 -3.53603e-06 -1.32909e-18
4.1722e-07 1.34907e-05 5.55844e-21
1.83565e-07 1.17669e-05 -4.95275e-19
-1.47297e-06 1.05959e-05 -1.32742e-18
1.37585e-05 -3.48501e-06 -3.2939e-18
-1.08131e-05 3.35467e-06 -1.63983e-19
2.53052e-06 1.35034e-05 1.16416e-18
-2.16216e-05 8.45739e-06 -1.90202e-18
5.79895e-06 2.58164e-05 -7.93608e-19
-1.10935e-05 2.88356e-06 -1.01313e-18
1.30265e-05 -7.72028e-06 1.65663e-19
5.22997e-07 1.32786e-05 -3.25625e-19
-1.27167e-05 4.22673e-06 1.33294e-20
1.63755e-06 -1.04388e-05 -8.47638e-19
5.7295e-07 -3.57085e-05 -1.52837e-19
1.23931e-06 1.1067e-05 -3.27448e-19
-1.06528e-05 8.65387e-06 -4.9272e-19
1.06362e-05 3.9123e-05 3.11235e-19
3.14815e-05 2.61144e-05 1.05444e-18
3.60977e-05 -2.4697e-05 -3.51094e-18
9.49711e-06 -6.4755e-06 -1.84229e-18
-9.8633e-06 8.69087e-06 1.49343e-18
-1.25714e-05 -4.99846e-06 -8.1815e-19
-1.21974e-05 -4.22044e-06 1.16696e-18
4.44275e-05 -1.22112e-05 -1.78164e-18
4.53148e-05 9.53019e-06 -1.41217e-18
6.95283e-06 2.4669e-06 -1.50758e-18
3.83883e-07 1.24763e-05 1.77214e-19
5.92745e-08 1.247e-05 1.17919e-18
-2.97366e-05 -2.17699e-05 1.53069e-19
7.16075e-06 -1.07623e-05 -9.9145e-19
7.6581e-06 8.29126e-06 1.52607e-18
-1.32439e-05 -2.14742e-06 -4.4684e-18
-8.77976e-06 1.06111e-05 2.98551e-18
-1.17926e-05 5.68387e-06 -3.80257e-18
2.94466e-05 2.11196e-05 1.08431e-18
1.03621e-05 4.54739e-06 1.52941e-18
-3.51392e-06 1.24431e-05 -1.48191e-18
-1.07482e-05 -7.30718e-06 6.85232e-19
1.09585e-06 -1.30001e-05 -1.6496e-19
-5.54863e-06 -1.19834e-05 -1.98749e-18
-1.07728e-05 -7.32762e-06 8.43203e-19
6.61579e-06 -1.18368e-05 4.30697e-18
8.92806e-06 -1.06116e-05 9.941e-19
-1.81206e-06 -3.73731e-05 -1.25816e-18
1.59765e-05 -2.5328e-05 -1.2799e-18
1.09363e-06 -1.3049e-05 -1.15691e-18
1.14979e-05 7.15516e-06 -1.49654e-18
-9.09844e-06 -9.20898e-06 1.33667e-18
-6.12514e-06 1.22236e-05 3.15057e-18
-3.1099e-06 1.31339e-05 -2.9854e-18
1.05608e-05 8.90266e-06 8.36792e-19
3.74355e-06 -1.24741e-05 4.94545e-19
-8.57228e-06 -2.45547e-05 -3.00603e-18
-1.37008e-06 1.64124e-05 -1.18511e-18
9.3073e-06 9.07814e-06 -3.6265e-18
-8.25719e-06 -6.594e-06 -3.02216e-18
-8.71184e-06 6.8728e-06 2.03723e-18
2.74748e-05 -1.17948e-05 -1.73589e-18
4.7743e-06 -8.44458e-06 1.0031e-18
-5.25995e-06 -7.86956e-06 8.35514e-19
1.4272e-05 4.38167e-06 -1.20423e-18
8.81273e-06 -3.17899e-05 6.84972e-19
-2.31299e-05 -2.35058e-05 -1.66041e-19
1.55528e-05 4.04137e-06 1.03833e-18
-5.82933e-06 -1.13202e-05 -1.31618e-18
1.1919e-05 6.10572e-06 8.40785e-19
-1.76786e-05 -1.96417e-05 4.8343e-19
7.1379e-06 3.23178e-05 5.21832e-19
3.13409e-05 -4.04883e-05 -1.98809e-19
-1.93957e-05 -4.73755e-05 -5.308e-18
1.6647e-05 -3.25225e-05 2.47573e-18
-8.37728e-06 2.88552e-05 -2.25541e-18
-4.78661e-06 2.55403e-05 -5.09219e-19
-1.17757e-05 5.68978e-06 -1.98903e-18
4.01877e-06 1.58611e-05 2.56877e-18
-1.48032e-06 7.96796e-06 3.68766e-18
6.52101e-06 2.1443e-06 3.42594e-21
-2.1736e-06 1.05327e-05 1.73581e-19
-1.49544e-07 1.36067e-05 3.22602e-18
1.07021e-05 6.24868e-06 1.01383e-18
5.27517e-07 3.55394e-05 -1.25248e-18
-9.31527e-06 6.64824e-06 -9.95268e-19
1.03839e-05 -3.9418e-06 -1.52483e-18
1.11941e-05 -2.81874e-06 -1.1891e-18
-3.64279e-05 -5.24784e-06 4.70932e-19
-2.28841e-05 1.08939e-05 -1.91375e-18
-2.64293e-05 -3.13421e-05 -2.20584e-18
5.69486e-06 5.41247e-06 -2.70014e-18
9.1337e-06 4.80833e-06 5.1078e-19
1.67366e-05 -2.69509e-06 -3.4405e-18
-5.09866e-06 -8.29712e-06 3.34856e-19
1.10216e-05 5.49372e-06 -2.83869e-18
4.88042e-06 -1.98414e-05 2.56428e-18
-8.82198e-06 6.38442e-06 3.42225e-19
-1.47372e-05 -1.41433e-05 -2.56409e-18
-3.62402e-06 1.02439e-05 2.01083e-18
-2.23334e-06 1.3398e-05 -2.53109e-18
2.28669e-05 1.41955e-05 -1.03595e-18
2.4384e-05 -1.29299e-05 -1.57032e-18
-2.549e-05 -6.85982e-06 -1.60464e-19
4.88921e-06 5.06042e-06 8.43377e-19
-2.96263e-06 6.20559e-05 -6.18378e-19
-1.88064e-10 -6.37424e-05 -2.62087e-18
3.14199e-05 5.377e-05 3.06737e-19
-1.24043e-05 5.34376e-06 -2.01999e-18
-1.68686e-05 3.40675e-05 3.01966e-19
3.16138e-05 -5.18987e-05 -3.09098e-19
-7.31209e-06 -1.12929e-05 -1.32408e-18
4.8074e-05 4.18359e-05 -1.54206e-18
1.59233e-05 -1.18112e-05 2.74157e-18
-2.28451e-06 -1.96837e-05 -2.23311e-18
5.03697e-05 -4.09084e-05 -6.29915e-19
-4.24457e-06 9.06698e-06 2.16876e-18
-3.23158e-05 -2.05264e-05 1.10144e-18
-2.65769e-05 -5.54969e-05 -2.31131e-18
-1.50566e-05 -3.5179e-05 -2.67072e-18
-2.73229e-05 5.64053e-05 -1.51791e-19
-6.47062e-06 3.9083e-05 -4.55522e-18
1.0691e-05 2.47388e-05 -6.91342e-19
-1.73654e-05 2.23123e-05 -1.10653e-18
-1.61425e-05 -3.31677e-05 -1.86582e-18
6.18446e-05 1.08549e-05 7.68743e-19
-1.08007e-05 6.7204e-06 -2.17052e-18
-3.92286e-06 1.05966e-05 -2.71042e-18
-3.06507e-05 2.20672e-05 4.70398e-19
-1.09726e-05 6.31244e-06 -2.50637e-18
6.12357e-05 -9.67911e-06 2.30384e-18
-9.82979e-06 4.89899e-06 -3.35377e-18
4.55515e-06 -9.12945e-06 -1.99337e-18
-4.75434e-05 -3.62331e-05 1.39298e-18
-1.62211e-05 3.52055e-05 -4.22251e-18
-4.86753e-05 3.59745e-05 2.16111e-18
1.47269e-05 3.24015e-05 2.934e-18
-9.34142e-06 6.61089e-06 3.41312e-19
-1.34847e-05 1.62589e-05 -2.75892e-18
-2.41659e-05 3.03628e-05 8.94315e-19
-3.78992e-05 -4.88187e-06 1.04987e-18
-6.59131e-07 1.04578e-05 -3.31395e-19
-2.55942e-05 -3.04904e-05 -4.4225e-18
-3.92148e-05 6.9265e-06 -3.17536e-18
-1.49411e-05 3.46467e-05 -2.83017e-18
-1.15241e-05 4.60901e-05 3.16471e-18
-1.13226e-05 2.51259e-05 -2.0546e-18
-2.23173e-05 1.79857e-05 -4.34568e-18
1.63472e-05 -3.99014e-06 1.5341e-18
2.55957e-05 -1.33741e-06 -1.72669e-18
8.7051e-06 5.34611e-06 -2.5166e-18
-8.0969e-06 -5.30375e-05 -4.22927e-18
-4.99903e-05 -1.94928e-05 -1.04948e-18
2.4922e-05 2.84889e-07 -5.03903e-19
3.62517e-05 -6.99956e-06 -3.7086e-18
-6.61838e-06 -8.4013e-06 1.68253e-19
-3.14386e-05 2.21145e-05 -3.1176e-19
-2.8176e-05 3.22837e-05 -1.2643e-18
3.83217e-05 -1.38063e-05 -3.46272e-18
-1.86768e-05 -3.16358e-05 -3.14754e-18
-1.90101e-05 3.13901e-05 2.62665e-18
-3.68735e-05 -1.31189e-06 2.07162e-18
-1.67648e-05 3.29914e-05 -2.26815e-18
-3.67594e-05 3.87143e-07 1.85994e-19
4.57541e-05 1.63803e-05 2.81102e-18
3.69046e-05 1.36636e-06 -2.45449e-18
3.47112e-05 -1.77813e-05 -4.05243e-18
1.01367e-05 -4.8806e-05 -2.48921e-18
1.8334e-05 -3.19511e-05 -1.76072e-18
1.82093e-05 3.19469e-05 -3.46915e-19
9.92711e-06 4.76885e-05 3.19057e-18
4.9963e-05 -1.409e-05 1.60104e-18
3.20213e-05 1.58596e-05 8.80017e-19
3.07571e-05 8.40059e-06 -2.42875e-18
P_ext 3 563 float
-9.29065e-07 3.14124e-07 5.79158e-20
8.72467e-10 3.43904e-08 -3.67589e-20
-8.55721e-08 -8.04763e-08 3.38524e-20
-2.70693e-08 2.49853e-08 3.13549e-20
2.35915e-08 4.57594e-10 -4.78199e-20
2.8166e-08 -1.14301e-07 -3.10582e-20
-9.14726e-07 -3.17925e-07 5.0522e-20
-6.70795e-08 -7.61064e-08 5.25337e-20
1.8664e-07 3.3046e-09 -2.31645e-20
6.81304e-08 -6.39479e-09 -6.00939e-20
6.04754e-07 1.41753e-07 4.57632e-20
3.32282e-08 -9.72544e-08 -6.52637e-20
7.61333e-08 9.06365e-08 -5.71245e-20
-7.85199e-09 7.09899e-08 -1.5539e-20
2.13116e-08 7.90862e-09 -5.04474e-20
-1.19301e-07 -1.95294e-09 3.41063e-20
-1.49145e-08 4.67744e-08 -3.40563e-20
7.19152e-08 -1.08491e-08 7.67402e-21
8.26115e-08 1.47333e-07 1.83297e-20
-1.10828e-07 1.11754e-08 1.31316e-20
-4.16121e-08 -1.56976e-07 -2.59286e-21
1.37699e-09 2.53934e-10 -1.12164e-20
1.22751e-07 9.99299e-09 2.60003e-20
7.81442e-08 -9.02316e-08 4.1476e-20
-1.13214e-07 -1.82281e-08 1.57436e-22
-2.13471e-08 -6.19472e-08 1.28758e-20
6.95224e-07 -5.68732e-08 2.69219e-20
8.51398e-08 7.17843e-08 -7.26064e-20
-2.54349e-07 -2.02038e-07 -4.51712e-20
1.49309e-08 2.81402e-09 -5.0138e-21
-1.13671e-07 -2.02365e-08 -4.87888e-21
4.97079e-08 -3.23474e-07 2.74767e-20
5.22434e-07 -5.35039e-07 -4.41017e-20
1.10826e-09 -2.45123e-08 1.61564e-20
-6.59256e-09 1.88503e-08 5.75254e-21
-2.04632e-08 -1.34774e-08 1.36236e-20
2.70003e-09 1.35378e-08 -1.33033e-20
-2.0685e-08 3.52526e-09 -1.65074e-20
8.22175e-08 -8.94299e-08 2.3408e-20
5.09797e-07 5.57588e-07 3.06952e-22
3.25606e-07 -1.47523e-07 -1.23559e-20
5.02283e-09 -1.23982e-08 -6.25165e-20
-8.1546e-09 -1.08489e-08 -5.15845e-20
-1.12921e-07 2.31886e-08 3.65475e-20
3.23065e-07 -3.17265e-07 2.69043e-20
-3.01002e-07 1.08346e-07 1.99209e-20
-3.80252e-08 -1.65921e-07 1.3107e-20
6.86055e-08 1.66653e-07 8.06005e-21
-1.08315e-07 2.83197e-08 3.66385e-20
-1.8644e-07 2.89976e-07 4.78441e-21
3.30472e-07 1.61844e-07 -4.50954e-20
2.86939e-07 -9.43724e-08 2.73107e-21
-8.44234e-09 2.00686e-08 2.41588e-20
-2.24549e-07 -2.01502e-07 1.2646e-20
-2.20138e-08 2.90985e-09 -1.62522e-20
-4.81673e-07 2.82865e-07 -7.44606e-21
-6.12106e-09 -1.87717e-08 -4.61071e-20
6.39428e-08 -2.96529e-07 -7.32829e-20
-1.91294e-08 -4.17127e-09 6.08589e-21
5.01583e-08 1.00568e-07 2.62765e-20
-2.67602e-08 -8.10912e-09 4.21797e-20
-2.82533e-08 -2.65247e-08 5.34493e-21
6.26833e-07 2.75969e-07 6.89432e-20
-5.50399e-10 5.47081e-08 -6.06553e-20
8.44348e-09 -3.6499e-08 6.87762e-20
1.4214e-08 -8.12199e-08 -6.58987e-20
-5.64972e-09 -2.65881e-08 6.5634e-20
-6.5012e-08 -1.65151e-08 8.39066e-20
-7.56838e-08 9.26056e-08 1.5603e-20
2.02972e-08 -7.36379e-09 -2.63992e-20
-8.32673e-09 -2.06469e-08 -5.32813e-20
-2.17728e-08 -3.19405e-09 -7.33767e-21
-3.7522e-08 3.47627e-07 -1.26189e-20
-6.67587e-08 3.37182e-08 -1.57177e-20
-6.47819e-08 1.10806e-07 1.33964e-20
-6.51856e-07 7.66196e-08 4.86619e-20
2.24431e-11 -5.1583e-08 5.58526e-20
-6.27168e-08 -5.25557e-08 -4.56927e-21
2.64184e-08 6.44539e-08 2.35013e-20
2.49787e-07 4.99382e-08 -6.08765e-20
3.58033e-07 -3.11519e-07 -2.23066e-21
9.79967e-09 2.40084e-08 -5.88151e-20
2.41961e-08 7.51943e-09 2.82214e-21
-3.33607e-07 2.46817e-07 1.97845e-20
3.89397e-07 4.73407e-08 -5.0351e-20
-5.90262e-08 5.27824e-07 -3.71292e-20
-2.04599e-08 -1.05745e-07 -3.93779e-20
7.17945e-08 5.05678e-08 5.48613e-21
3.10746e-07 3.27706e-07 -1.22854e-20
5.62626e-09 2.49155e-09 1.41295e-20
-5.9887e-08 2.98205e-07 -5.30766e-20
5.08175e-09 -2.71207e-09 -1.69557e-20
-3.59312e-08 2.45141e-08 2.90573e-20
7.75967e-08 3.1575e-08 -2.09173e-20
-2.87137e-07 8.8764e-08 1.16596e-19
1.66664e-07 2.92859e-07 3.77706e-20
1.03686e-07 -4.68145e-07 -1.01504e-20
2.43682e-08 6.38754e-08 -2.85753e-20
-4.40748e-08 -2.62185e-08 8.07104e-21
3.65349e-08 1.16834e-07 -1.53916e-20
2.4294e-07 4.13387e-08 -3.80423e-20
-1.61287e-07 3.33206e-07 -7.4731e-21
4.28769e-07 -1.40134e-07 2.48201e-20
-2.37861e-08 5.19321e-08 4.22257e-20
4.558e-08 4.63025e-08 -1.55633e-20
-2.70993e-08 -6.25018e-08 1.17546e-19
-1.09077e-08 -4.76103e-08 6.86446e-20
1.26089e-07 1.5112e-08 -6.24879e-20
-9.19983e-08 4.30328e-07 -6.22372e-20
-2.12601e-08 1.31256e-08 6.81466e-20
6.28911e-08 9.32087e-08 -3.37021e-20
-3.11094e-08 -4.41615e-07 -1.72799e-20
4.4674e-07 1.34135e-07 -2.45894e-20
3.0406e-08 -5.37325e-08 2.59981e-21
-6.94171e-08 -7.93603e-09 5.0046e-20
-2.85704e-07 -1.14669e-07 3.04742e-20
1.41172e-08 1.50949e-08 -3.36875e-23
-4.53865e-07 -1.58726e-07 -9.88805e-21
1.43321e-08 -1.50539e-08 -3.29982e-20
-4.41321e-08 -3.10281e-07 2.51659e-21
1.91486e-07 7.26698e-09 -4.36885e-20
-1.70493e-08 1.45328e-08 -1.8451e-20
4.58145e-09 2.09083e-08 -5.51341e-20
1.28157e-08 -5.60764e-08 -5.26267e-20
2.2244e-08 -1.03928e-08 -3.70996e-20
4.01674e-10 2.25192e-08 -6.59139e-20
1.94342e-08 -2.42853e-09 3.50054e-20
3.6281e-08 -5.35359e-08 1.57563e-20
-9.29305e-08 -4.73971e-07 -1.50894e-20
2.45477e-07 -1.88974e-07 1.29583e-20
7.86291e-10 2.98851e-08 -5.32274e-20
-2.0696e-08 -3.73864e-09 4.48558e-20
-6.72345e-09 -2.31383e-08 -3.689e-20
-1.7062e-08 -1.205e-08 6.53327e-20
-2.29498e-07 2.86784e-07 -4.68781e-21
-2.63541e-10 -2.27543e-08 4.02763e-20
-2.8709e-07 4.50775e-07 -1.03337e-20
-1.07862e-07 4.9599e-08 4.1952e-20
1.51649e-08 1.63415e-08 1.30732e-20
-1.95899e-08 -1.14552e-08 -8.00588e-21
1.3997e-07 3.37814e-07 2.43443e-21
8.0731e-08 7.19612e-08 2.84996e-21
1.96002e-07 -6.46362e-08 2.29715e-20
1.10339e-08 -6.02978e-08 -3.90802e-20
-3.55691e-07 -3.27763e-07 -1.47553e-20
-3.4292e-08 5.92491e-08 7.32533e-20
8.90228e-08 4.74867e-08 2.11187e-20
1.3019e-07 -4.48172e-08 3.37831e-20
5.62226e-08 -1.12319e-07 4.16007e-20
2.22913e-07 -1.0279e-07 -7.90192e-20
1.48297e-07 -6.99981e-08 2.58647e-21
1.48971e-08 -1.23559e-08 4.70226e-20
2.58585e-07 2.04538e-07 7.72455e-21
-3.74291e-08 -1.08218e-07 3.11188e-20
-4.59561e-08 -3.93273e-08 1.10321e-19
-7.51934e-09 -1.9723e-08 5.71346e-20
1.03305e-08 7.7207e-08 1.84769e-20
-3.45856e-07 2.47955e-08 2.53672e-20
-1.26348e-07 -3.3015e-07 2.79902e-20
-5.44007e-08 6.93428e-08 5.72043e-20
1.06981e-07 1.4258e-07 -3.61401e-20
2.66158e-07 -1.88776e-07 6.82314e-20
-3.89116e-07 -2.08042e-07 4.70468e-20
1.73095e-07 -2.81786e-07 9.27895e-20
2.25388e-07 -2.77248e-07 5.0639e-20
-6.63648e-08 6.5683e-09 3.97755e-20
-1.97864e-07 -2.86325e-07 2.27715e-20
-3.46353e-07 -5.42821e-08 3.27082e-22
-4.12789e-08 -3.16081e-07 -6.29268e-20
1.54076e-07 -3.18463e-07 2.78632e-20
3.22678e-09 -4.3754e-08 -4.53926e-20
4.57854e-08 3.04915e-07 -6.83928e-20
-1.63119e-07 -2.85354e-07 -1.75997e-20
-1.53065e-08 -6.99898e-08 7.57767e-20
-2.35785e-07 1.7652e-07 7.0936e-20
-4.61759e-08 -1.51278e-08 -2.64351e-20
-3.59651e-08 -2.47257e-08 -2.86686e-20
9.40838e-08 -4.8247e-08 1.53284e-20
-1.29374e-08 1.83133e-08 5.39478e-21
4.99996e-08 -6.31238e-08 5.09745e-21
-2.93406e-07 -1.30486e-07 -2.74614e-20
-3.88508e-08 -5.23331e-08 6.02617e-20
4.06024e-08 5.55183e-08 -1.82424e-20
2.12156e-07 2.92855e-07 -2.49922e-20
-7.50687e-08 -3.46148e-08 2.69886e-21
-3.26384e-07 -7.34301e-09 -1.97761e-20
-4.18103e-08 -3.87908e-08 4.79288e-20
-2.37483e-09 -5.61651e-08 -7.90587e-20
4.09578e-08 2.06494e-08 -2.38948e-20
-4.7242e-08 4.65756e-08 8.10843e-20
-7.89262e-09 -8.2686e-08 2.63441e-21
-4.35701e-07 1.07322e-07 -2.75312e-21
2.38822e-07 2.03742e-07 5.32192e-20
3.191e-08 3.31836e-07 -5.29081e-20
-1.92375e-08 6.60784e-09 2.14388e-20
-6.41768e-08 1.99423e-09 -1.01047e-20
2.94623e-08 5.62531e-08 1.29455e-20
-2.33105e-08 -5.7322e-09 4.79632e-20
2.76421e-09 -1.98833e-08 2.09194e-20
-1.28387e-08 8.75249e-08 -3.12915e-20
1.42158e-08 1.49884e-08 4.19678e-20
-1.62122e-07 3.58362e-08 2.31226e-20
-1.64435e-07 1.79416e-07 5.36579e-20
-1.77471e-08 1.64557e-08 2.41269e-20
-2.975e-07 1.79543e-07 4.78621e-20
-7.62483e-09 2.53364e-08 1.05381e-20
8.02633e-08 -2.87455e-08 -1.33867e-20
3.7292e-07 -3.43082e-08 1.31057e-22
-4.67224e-08 2.95633e-08 5.30605e-20
1.89019e-08 8.70715e-09 3.65913e-20
4.86264e-08 -3.04389e-08 6.60364e-20
-8.34466e-08 2.78052e-08 2.11012e-20
-6.07329e-08 1.59147e-08 1.84409e-20
2.13424e-08 -6.24474e-09 -6.06936e-20
1.97551e-07 -1.20142e-07 -2.79394e-21
-7.77263e-08 4.95588e-08 3.93535e-20
-2.32256e-07 -4.8432e-08 -2.0178e-20
-4.9339e-08 -2.59844e-08 -4.61034e-21
1.88672e-08 -1.25376e-08 4.43913e-20
2.09012e-08 1.46968e-08 1.85369e-20
-5.28831e-09 2.37681e-08 -1.57941e-20
-2.1517e-09 -2.68176e-08 7.8513e-20
-2.17664e-08 1.11161e-08 7.12878e-20
-2.43604e-08 -1.24695e-08 -2.06671e-20
6.10295e-08 -2.30584e-08 4.43287e-20
-2.23155e-08 -6.14824e-09 2.18012e-20
-2.22677e-08 5.92228e-09 1.57804e-20
-5.47915e-09 2.21296e-08 -8.19295e-21
-5.94963e-09 -2.26148e-08 -7.42218e-20
1.47171e-08 -1.64725e-08 -1.13042e-20
1.41485e-08 1.57646e-08 3.20363e-20
8.54295e-09 2.35759e-07 -7.71179e-21
4.57267e-08 -3.77315e-08 -4.21278e-20
1.06725e-08 -2.013e-08 -1.05292e-20
-1.77787e-07 6.56972e-09 1.5242e-20
1.68764e-08 -1.60074e-08 -3.24645e-20
1.57569e-08 1.62562e-08 5.30203e-20
2.41774e-08 -5.26363e-10 -3.92728e-20
8.16173e-08 2.31037e-07 2.0645e-20
-1.22336e-08 -2.00047e-08 7.32892e-20
2.64557e-08 -6.05417e-08 4.18705e-20
-1.98415e-07 -1.09779e-07 2.71344e-21
-4.35819e-08 -2.82899e-08 1.07541e-20
-1.99142e-07 1.18107e-07 2.32498e-20
1.76555e-08 -1.80901e-08 -3.72993e-20
-8.46341e-09 1.88098e-08 3.38975e-20
-4.65704e-09 -2.28295e-07 -6.39732e-20
-7.47442e-08 -2.26116e-07 -4.93108e-21
3.42716e-07 3.26186e-07 -7.49833e-21
3.66579e-07 -2.08181e-08 -2.08444e-22
-2.59831e-08 5.66701e-09 1.07809e-19
-2.45173e-07 -4.33254e-07 -3.97092e-20
5.84418e-08 1.00207e-07 8.16326e-21
-2.34991e-07 2.76771e-08 1.80071e-20
1.68688e-07 4.71695e-08 -5.26288e-21
-2.30455e-08 -9.32162e-11 1.3652e-20
5.08015e-10 -2.3949e-08 -2.67344e-21
-2.08808e-09 -1.63709e-08 -2.74598e-20
-2.04201e-08 -1.21585e-08 9.99239e-20
-5.08344e-07 -1.92636e-08 5.19382e-20
1.59754e-07 -1.80683e-07 8.1144e-20
1.08594e-08 2.1067e-08 -3.14438e-20
5.55442e-09 -1.00857e-07 -6.53367e-20
-9.52928e-08 2.25671e-07 -2.59399e-21
1.95965e-09 2.5341e-08 -1.99843e-22
1.70456e-07 -1.21976e-07 -5.20132e-21
-1.49763e-08 -6.5524e-09 -2.96209e-20
-1.44962e-07 -1.88407e-07 -7.68575e-21
1.99687e-08 1.01525e-08 3.14712e-20
4.7247e-08 4.56923e-08 -5.78687e-20
-3.36268e-08 -5.23827e-08 5.22455e-20
2.06739e-08 -6.69661e-09 4.24629e-20
7.00208e-08 -4.88854e-08 -4.21471e-20
-4.15628e-09 3.90325e-08 -5.21939e-21
5.7612e-08 -9.71038e-08 -2.61847e-21
5.26244e-07 2.65156e-08 7.10661e-21
-4.45829e-07 1.17957e-07 2.45332e-20
3.73103e-08 2.59982e-08 1.12002e-19
-5.52222e-08 -1.32946e-07 -3.90802e-20
-8.39282e-08 -5.47555e-08 2.65949e-20
2.7324e-07 -2.74668e-09 -2.80584e-20
2.33378e-09 -5.21132e-08 1.07863e-20
-6.82718e-08 -2.40954e-08 1.84765e-20
9.31202e-08 -2.22489e-07 5.84251e-20
7.42299e-09 8.95997e-08 1.85934e-20
7.64269e-08 2.37008e-07 2.06821e-20
9.17042e-08 -4.83271e-08 2.71088e-21
-1.67316e-07 1.78093e-07 2.58374e-20
1.53858e-07 1.90122e-07 1.54922e-20
-9.66753e-09 4.31988e-09 2.4374e-20
1.59814e-09 4.12804e-08 1.06522e-20
3.10266e-09 -1.87262e-08 1.58493e-20
-1.483e-08 -1.22876e-08 -1.11644e-19
-5.10824e-08 4.05117e-08 6.03351e-20
-2.34424e-07 -5.55392e-08 2.8012e-21
8.16925e-10 2.63326e-08 5.402e-20
-6.12965e-08 1.82869e-08 -2.86523e-20
1.66084e-07 -2.4075e-08 -2.30076e-20
-7.10294e-08 -2.30002e-07 5.88646e-20
-1.39894e-07 2.22791e-07 4.10237e-20
-3.94802e-08 1.82489e-08 3.4448e-20
-1.87488e-07 -1.3266e-07 4.34842e-20
4.24238e-08 -1.98898e-08 -5.37504e-20
-2.54217e-07 -1.24476e-08 3.84093e-20
1.24466e-07 -4.39203e-07 2.45468e-20
1.70031e-07 -1.78556e-07 4.0764e-20
2.60027e-07 4.61028e-07 2.74955e-20
-2.44101e-09 5.56954e-08 -1.00213e-20
2.2316e-08 -2.31593e-07 -6.12777e-20
-9.03303e-09 5.47209e-09 -2.49456e-20
-1.20534e-07 -2.24913e-07 -2.5499e-20
4.04229e-08 -3.46077e-08 -5.33591e-21
-2.32542e-08 2.34267e-07 -1.29143e-20
5.64414e-08 -1.65577e-08 7.66049e-21
1.28468e-07 2.28946e-07 -1.53537e-20
1.28654e-07 -3.00204e-09 -1.77671e-20
2.34885e-07 -6.93049e-07 4.42552e-20
-4.97599e-08 -9.26318e-08 -1.05082e-20
-2.07537e-07 9.04288e-08 4.08123e-20
-2.90686e-08 1.42739e-08 5.36695e-21
1.9702e-07 1.31942e-07 2.79144e-20
1.40417e-07 -7.75213e-08 -2.08643e-20
7.4214e-08 3.25978e-08 1.87687e-20
-1.51745e-08 1.28303e-08 6.82631e-20
1.40854e-07 -2.176e-07 1.53804e-20
-1.50164e-07 -1.87391e-07 -1.77524e-20
1.93742e-07 7.64184e-08 4.13289e-20
4.9273e-08 -3.04491e-08 5.25171e-20
9.05781e-08 -2.25126e-07 -2.78657e-20
1.06425e-07 -2.01683e-08 -1.7904e-22
-1.0328e-07 -4.12014e-08 2.89331e-20
-4.48802e-09 -4.19045e-08 3.74056e-20
-2.36768e-07 3.28762e-08 -3.28632e-23
2.48761e-08 2.07697e-07 -2.29468e-20
1.61963e-07 3.77904e-08 -5.18114e-20
-1.83988e-07 -8.2349e-08 1.0286e-20
-9.04766e-08 2.31986e-07 2.05047e-20
-2.06813e-08 -2.02351e-07 7.88304e-21
5.34772e-08 2.61003e-08 1.8829e-20
-3.47262e-08 9.78479e-08 3.64308e-20
-1.65451e-07 1.18665e-07 -2.60216e-21
2.12495e-07 1.07184e-07 -4.57234e-20
-9.67195e-08 -3.0377e-08 7.8597e-20
-2.34604e-08 -9.9596e-08 -5.13538e-21
1.62382e-07 1.88761e-07 2.02982e-20
-3.81519e-08 -1.73077e-08 -5.23004e-21
5.34068e-07 -3.8401e-07 6.49284e-20
1.13058e-07 -7.91026e-08 2.38253e-21
9.23514e-08 4.52568e-07 -6.21814e-20
1.19219e-07 -1.14621e-07 2.0475e-20
-2.57856e-07 9.81994e-07 -3.46317e-20
-2.59349e-07 -9.72427e-07 1.60889e-20
6.37201e-07 8.37561e-07 1.63174e-20
6.29299e-07 -8.37335e-07 -2.97905e-20
1.04305e-06 -4.0831e-10 -6.80392e-21
-8.99159e-07 3.61758e-07 2.99743e-20
-8.84252e-07 -3.6569e-07 -1.16266e-20
4.29751e-08 2.33056e-08 -1.56671e-20
2.7567e-08 1.33884e-08 9.4134e-20
8.01131e-08 1.0785e-08 -3.12132e-20
1.41444e-07 7.55924e-08 2.59273e-20
4.19589e-08 1.67138e-07 1.78572e-20
-1.51644e-07 -1.30287e-07 -6.91308e-20
7.63506e-08 -7.03918e-08 1.29123e-20
1.6294e-07 1.3077e-07 7.69608e-20
-3.76865e-08 2.05717e-07 2.67766e-21
2.6736e-08 -1.31352e-08 -3.51001e-20
3.83519e-08 -1.97414e-07 -1.77383e-20
5.00869e-08 3.37814e-08 3.20897e-20
2.93918e-07 1.02961e-07 -2.75643e-20
6.57469e-09 2.11444e-08 -5.79955e-20
1.13577e-07 3.71712e-08 2.06782e-20
-1.40575e-07 7.77592e-08 2.44232e-21
-1.92477e-07 6.65829e-08 2.10273e-21
3.80917e-08 -2.60967e-08 7.65979e-21
-1.22876e-07 -5.68581e-08 4.46157e-20
-1.35014e-07 -7.99716e-08 1.8331e-20
-1.1837e-08 -1.35528e-07 3.86925e-20
5.33405e-10 -1.55664e-07 -5.06246e-21
-1.71397e-07 -7.40857e-09 -1.02103e-20
2.54408e-07 -3.95013e-08 -8.10968e-20
1.37232e-07 8.45758e-08 1.54138e-20
-1.13554e-07 7.74647e-08 -1.84091e-20
-5.11913e-08 2.50517e-08 -1.04659e-20
1.28089e-07 -1.14774e-07 1.72182e-22
-9.62436e-08 1.49853e-07 4.38964e-20
-1.18553e-07 -1.24882e-07 -6.1639e-20
-1.12361e-08 1.63221e-07 7.49482e-20
-2.44234e-08 1.3775e-07 3.37857e-20
4.02405e-09 -9.99967e-08 -2.11857e-20
5.15972e-08 -1.66768e-07 1.05956e-20
-8.43213e-08 -5.4113e-08 4.73235e-20
1.16838e-07 -3.33181e-08 -3.62613e-20
2.84108e-10 1.63019e-07 -7.65452e-21
-3.52932e-09 1.04149e-07 5.21898e-20
-2.61807e-08 1.1716e-07 1.29595e-20
1.91771e-07 -4.71946e-08 -5.40839e-20
-4.02584e-08 3.84499e-08 2.63578e-20
4.34661e-08 1.6315e-07 2.85536e-20
-2.62529e-08 1.65692e-08 2.91583e-20
9.68682e-08 4.49182e-07 -2.71597e-20
-4.74889e-08 2.56416e-08 4.21726e-20
5.03861e-08 -2.62295e-08 6.06765e-20
1.44985e-08 1.38628e-07 5.83724e-23
-1.62589e-07 3.86168e-08 6.48262e-20
-5.00457e-09 -7.04662e-08 -2.78623e-21
6.71682e-09 -6.40861e-07 3.11856e-20
1.9462e-08 1.17522e-07 -1.28743e-20
-1.21461e-07 1.15554e-07 6.97595e-20
1.88666e-07 7.01701e-07 -2.20885e-20
9.04704e-09 5.96075e-09 3.01147e-20
7.81635e-09 -5.68474e-09 -3.85882e-20
9.14357e-08 -7.13078e-08 2.8288e-20
-1.29805e-07 1.16222e-07 1.08055e-19
-1.55799e-07 -4.6018e-08 6.48105e-20
-1.60107e-07 -5.25834e-08 4.91312e-20
-3.20927e-09 1.97815e-09 -5.54823e-20
-2.22171e-09 -1.08171e-09 -2.74042e-21
7.47791e-08 1.5191e-08 2.49502e-21
2.3737e-08 1.09135e-07 -2.84738e-20
-2.74377e-09 1.08515e-07 -2.407e-21
-5.36766e-07 -3.89918e-07 -5.54123e-20
9.52545e-08 -1.49824e-07 3.83489e-20
4.81723e-08 1.734e-08 -2.60863e-20
-1.76712e-07 -1.90073e-08 -1.30899e-20
-1.11734e-07 1.47617e-07 5.95835e-20
-1.44245e-07 6.78243e-08 -2.72644e-21
5.2699e-07 3.7864e-07 -7.05808e-21
5.21182e-08 3.42669e-08 -5.74721e-20
-5.12831e-08 1.6737e-07 -5.22861e-21
-1.01079e-07 -8.6582e-08 -6.44852e-20
2.51479e-08 -1.31838e-07 -2.85399e-20
-8.18028e-08 -1.55632e-07 -1.82428e-20
-1.31076e-07 -8.98439e-08 -5.38494e-20
8.98383e-08 -1.59327e-07 4.16372e-20
1.07762e-07 -1.48101e-07 7.48516e-20
-3.41648e-08 -6.68726e-07 2.91061e-20
2.74931e-07 -4.39763e-07 -2.35691e-22
1.31308e-08 -1.60055e-07 -3.10259e-20
1.12861e-07 8.59218e-08 7.76805e-21
-1.01385e-07 -1.23073e-07 -3.84707e-20
-8.7937e-08 1.63939e-07 -2.28272e-20
-5.40283e-08 1.60674e-07 -3.12184e-20
1.17684e-07 1.2187e-07 3.11506e-20
5.76995e-08 -1.50285e-07 -4.65382e-20
-1.49217e-07 -4.25457e-07 -1.48795e-20
3.36142e-09 5.16651e-08 -1.05719e-20
1.1915e-07 1.22608e-07 2.28485e-20
-6.42201e-08 -3.16165e-08 -5.29026e-21
-5.33595e-08 2.91222e-08 3.18535e-20
4.77744e-07 -2.09293e-07 7.3644e-20
5.9319e-08 -9.80361e-08 2.61106e-20
-5.63013e-08 -9.63202e-08 3.37958e-20
2.13487e-08 -1.84975e-09 2.38184e-20
1.8266e-09 -8.08503e-09 2.6985e-20
-5.98826e-09 -5.90427e-09 5.59909e-21
2.62928e-08 1.72477e-08 8.80054e-20
-8.24924e-08 -1.5572e-07 -6.16256e-20
1.26924e-07 5.08988e-08 3.65208e-20
-3.08955e-07 -3.39656e-07 -7.19842e-21
1.1513e-09 9.94243e-09 -1.3577e-20
1.15747e-09 1.80635e-09 -3.62318e-20
2.25177e-09 -2.83358e-10 -4.99344e-20
2.96485e-07 -5.85506e-07 3.35153e-22
-1.23148e-08 1.44988e-08 6.43419e-20
-2.81935e-09 1.7564e-08 3.26067e-20
-1.27621e-07 4.53628e-08 -1.55732e-20
-4.41435e-09 5.18199e-08 -4.99842e-20
-2.80428e-08 8.31318e-08 8.37236e-20
5.77939e-08 2.45915e-09 5.23145e-20
1.30431e-08 4.99641e-08 2.90106e-20
-3.41614e-09 6.90912e-08 -7.47112e-21
9.9054e-08 5.38884e-08 6.28134e-20
7.06637e-09 6.3787e-07 -2.91043e-20
-9.21609e-08 8.72106e-08 4.67892e-20
6.90929e-08 -4.64645e-08 2.32709e-20
3.98792e-08 -3.64293e-08 -2.84051e-21
-6.54223e-07 -8.98257e-08 -2.66076e-20
-1.86255e-08 7.38964e-09 2.39687e-21
-4.76356e-07 -5.63485e-07 -7.35867e-20
8.6401e-09 2.31635e-08 -7.37558e-20
8.35216e-08 1.62326e-08 3.67793e-20
2.48715e-07 -3.22768e-08 2.37239e-21
-5.68475e-08 -9.34124e-08 4.68379e-20
1.08687e-07 3.11671e-08 -6.26103e-20
5.57061e-10 -2.76488e-08 5.07334e-20
-6.12917e-08 7.09233e-08 1.58234e-20
-2.34358e-08 -1.48996e-08 -3.21059e-20
-5.52578e-08 1.1225e-07 3.92437e-20
1.00003e-08 7.08346e-08 -3.16735e-20
1.62341e-08 1.18954e-08 4.8582e-20
1.61099e-08 -1.14269e-08 2.67175e-20
-4.43489e-07 -1.20813e-07 1.71104e-20
4.88383e-08 1.82155e-08 5.50527e-20
-5.88157e-08 1.13855e-06 -1.43143e-20
-4.08423e-09 -1.16974e-06 1.67002e-20
5.7576e-07 9.8565e-07 -4.04913e-20
-5.97203e-08 4.73849e-08 2.0992e-20
-3.05105e-07 6.13996e-07 3.37644e-20
5.79071e-07 -9.51347e-07 -2.15392e-20
-9.57297e-08 -1.5494e-07 -8.76309e-20
8.79354e-07 7.70499e-07 -3.60445e-20
1.03237e-08 -1.83132e-08 1.3377e-20
-1.07593e-08 -1.8556e-08 -6.97308e-20
9.2177e-07 -7.53341e-07 -6.97371e-20
-5.64691e-08 1.11047e-07 1.33288e-20
-5.79005e-07 -3.68752e-07 1.47729e-20
-4.88274e-07 -1.01767e-06 -1.68967e-20
-2.73472e-07 -6.29126e-07 2.40556e-20
-5.01957e-07 1.03461e-06 4.83517e-21
-1.1862e-07 7.01117e-07 -9.07633e-20
-8.3655e-10 2.45261e-08 -2.72182e-21
-3.0456e-07 3.9211e-07 2.18583e-20
-2.91602e-07 -5.96798e-07 -5.09004e-20
1.13386e-06 1.97874e-07 4.7498e-21
-8.86254e-08 7.53516e-08 2.33832e-20
-2.07634e-09 4.97695e-08 -1.86358e-20
-5.48463e-07 3.9705e-07 -1.70404e-20
-9.8289e-08 5.24575e-08 2.07038e-20
1.1227e-06 -1.76004e-07 -3.29445e-20
-7.50128e-08 5.03592e-08 -3.41505e-20
5.46508e-08 -1.13027e-07 6.19094e-20
-8.73684e-07 -6.63583e-07 -4.08276e-20
-2.946e-07 6.31222e-07 4.10082e-20
-8.94857e-07 6.58711e-07 -1.8763e-20
2.61466e-07 5.83323e-07 7.49268e-21
-9.62247e-08 7.64938e-08 9.07919e-20
-2.66883e-08 1.51121e-08 1.31512e-20
-1.45788e-09 -2.35423e-09 6.35158e-20
3.97646e-10 -2.01445e-09 -1.9312e-20
7.31877e-09 7.68049e-08 -3.65192e-20
-2.14146e-09 2.35727e-09 -1.96892e-20
1.16073e-09 2.89258e-09 -5.65909e-21
1.95811e-09 -8.54602e-10 5.46544e-20
-1.14324e-09 9.09227e-09 -4.32826e-20
-2.01183e-07 4.38934e-07 7.09218e-20
-1.51232e-08 1.08446e-08 -5.45135e-20
2.60544e-08 -1.64256e-08 4.25791e-20
2.5541e-08 -1.47991e-08 1.05036e-20
7.36174e-08 2.87235e-08 -1.0204e-19
-6.87567e-10 -7.78157e-09 -4.15601e-20
-6.94513e-09 -3.52686e-09 1.09481e-20
2.55251e-08 1.48911e-08 9.42386e-20
6.50197e-07 -1.25321e-07 -1.96607e-20
-8.42163e-08 -1.07345e-07 -5.67518e-20
-5.69251e-07 3.9688e-07 -7.27826e-21
-5.0965e-07 5.81282e-07 4.88399e-20
6.86986e-07 -2.48099e-07 -1.98951e-20
-3.27893e-09 -9.56165e-09 -3.64448e-22
-3.60297e-09 9.82227e-09 1.08945e-19
-1.07862e-08 1.86739e-09 -3.81511e-20
-7.08728e-09 7.20454e-09 5.67555e-20
-9.77646e-09 -2.08817e-09 1.64937e-20
1.79057e-09 2.31311e-09 3.84241e-20
1.04919e-08 -2.59522e-09 -4.48075e-22
4.41181e-09 -3.11586e-09 -3.87926e-20
-3.12235e-09 -2.22422e-09 -6.37215e-20
6.72148e-09 -6.89238e-09 -1.67209e-20
6.75891e-09 7.09784e-09 -1.08347e-20
-3.14144e-09 1.95194e-09 3.89137e-20
3.39623e-09 -7.04396e-10 3.05326e-20
5.64643e-09 3.1359e-09 2.81214e-21
1.22564e-08 4.38936e-09 9.75798e-20
SCALARS rr_necrosis float
LOOKUP_TABLE default
0
0
0
0
0
0
0
0
0
0
0
0
0
0
0
0
0
0
0
0
0
0
0
0
0
0
0
0
0
0
0
0
0
0
0
0
0
0
0
0
0
0
0
0
0
0
0
0
0
0
0
0
0
0
0
0
0
0
0
0
0
0
0
0
0
0
0
0
0
0
0
0
0
0
0
0
0
0
0
0
0
0
0
0
0
0
0
0
0
0
0
0
0
0
0
0
0
0
0
0
0
0
0
0
0
0
0
0
0
0
0
0
0
0
0
0
0
0
0
0
0
0
0
0
0
0
0
0
0
0
0
0
0
0
0
0
0
0
0
0
0
0
0
0
0
0
0
0
0
0
0
0
0
0
0
0
0
0
0
0
0
0
0
0
0
0
0
0
0
0
0
0
0
0
0
0
0
0
0
0
0
0
0
0
0
0
0
0
0
0
0
0
0
0
0
0
0
0
0
0
0
0
0
0
0
0
0
0
0
0
0
0
0
0
0
0
0
0
0
0
0
0
0
0
0
0
0
0
0
0
0
0
0
0
0
0
0
0
0
0
0
0
0
0
0
0
0
0
0
0
0
0
0
0
0
0
0
0
0
0
0
0
0
0
0
0
0
0
0
0
0
0
0
0
0
0
0
0
0
0
0
0
0
0
0
0
0
0
0
0
0
0
0
0
0
0
0
0
0
0
0
0
0
0
0
0
0
0
0
0
0
0
0
0
0
0
0
0
0
0
0
0
0
0
0
0
0
0
0
0
0
0
0
0
0
0
0
0
0
0
0
0
0
0
0
0
0
0
0
0
0
0
0
0
0
0
0
0
0
0
0
0
0
0
0
0
0
0
0
0
0
0
0
0
0
0
0
0
0
0
0
0
0
0
0
0
0
0
0
0
0
0
0
0
0
0
0
0
0
0
0
0
0
0
0
0
0
0
0
0
0
0
0
0
0
0
0
0
0
0
0
0
0
0
0
0
0
0
0
0
0
0
0
0
0
0
0
0
0
0
0
0
0
0
0
0
0
0
0
0
0
0
0
0
0
0
0
0
0
0
0
0
0
0
0
0
0
0
0
0
0
0
0
0
0
0
0
0
0
0
0
0
0
0
0
0
0
0
0
0
0
0
0
0
0
0
0
0
0
0
0
0
0
0
0
0
0
0
0
0
0
0
0
0
0
0
0
0
0
0
0
0
0
0
0
0
0
0
0
0
0
0
0
0
0
0
0
0
0
0
0
0
0
0
0
0
0
0
0
0
0
0
0
0
0
0
0
0
0
0
0
0
0
SCALARS rr_protein float
LOOKUP_TABLE default
1
1
1
1
1
1
1
1
1
1
1
1
1
1
1
1
1
1
1
1
1
1
1
1
1
1
1
1
1
1
1
1
1
1
1
1
1
1
1
1
1
1
1
1
1
1
1
1
1
1
1
1
1
1
1
1
1
1
1
1
1
1
1
1
1
1
1
1
1
1
1
1
1
1
1
1
1
1
1
1
1
1
1
1
1
1
1
1
1
1
1
1
1
1
1
1
1
1
1
1
1
1
1
1
1
1
1
1
1
1
1
1
1
1
1
1
1
1
1
1
1
1
1
1
1
1
1
1
1
1
1
1
1
1
1
1
1
1
1
1
1
1
1
1
1
1
1
1
1
1
1
1
1
1
1
1
1
1
1
1
1
1
1
1
1
1
1
1
1
1
1
1
1
1
1
1
1
1
1
1
1
1
1
1
1
1
1
1
1
1
1
1
1
1
1
1
1
1
1
1
1
1
1
1
1
1
1
1
1
1
1
1
1
1
1
1
1
1
1
1
1
1
1
1
1
1
1
1
1
1
1
1
1
1
1
1
1
1
1
1
1
1
1
1
1
1
1
1
1
1
1
1
1
1
1
1
1
1
1
1
1
1
1
1
1
1
1
1
1
1
1
1
1
1
1
1
1
1
1
1
1
1
1
1
1
1
1
1
1
1
1
1
1
1
1
1
1
1
1
1
1
1
1
1
1
1
1
1
1
1
1
1
1
1
1
1
1
1
1
1
1
1
1
1
1
1
1
1
1
1
1
1
1
1
1
1
1
1
1
1
1
1
1
1
1
1
1
1
1
1
1
1
1
1
1
1
1
1
1
1
1
1
1
1
1
1
1
1
1
1
1
1
1
1
1
1
1
1
1
1
1
1
1
1
1
1
1
1
1
1
1
1
1
1
1
1
1
1
1
1
1
1
1
1
1
1
1
1
1
1
1
1
1
1
1
1
1
1
1
1
1
1
1
1
1
1
1
1
1
1
1
1
1
1
1
1
1
1
1
1
1
1
1
1
1
1
1
1
1
1
1
1
1
1
1
1
1
1
1
1
1
1
1
1
1
1
1
1
1
1
1
1
1
1
1
1
1
1
1
1
1
1
1
1
1
1
1
1
1
1
1
1
1
1
1
1
1
1
1
1
1
1
1
1
1
1
1
1
1
1
1
1
1
1
1
1
1
1
1
1
1
1
1
1
1
1
1
1
1
1
1
1
1
1
1
1
1
1
1
1
1
1
1
1
1
1
1
1
1
1
1
1
1
1
1
1
1
1
1
1
1
1
1
SCALARS rr_(S_ext) float
LOOKUP_TABLE default
0.925272
0.925409
0.925401
0.925405
0.925462
0.9254
0.92527
0.925411
0.92539
0.925412
0.925254
0.925411
0.925408
0.925415
0.925439
0.925404
0.925419
0.925406
0.925379
0.925396
0.925397
0.925519
0.925393
0.925396
0.925395
0.925407
0.92529
0.925402
0.925338
0.925481
0.925408
0.925337
0.92529
0.925471
0.925479
0.925471
0.925481
0.925478
0.925408
0.925291
0.925337
0.925482
0.925481
0.925407
0.925297
0.925341
0.925384
0.925393
0.925401
0.925326
0.925333
0.925355
0.925455
0.925358
0.925454
0.925312
0.92548
0.925357
0.92548
0.925396
0.925416
0.925436
0.925307
0.925436
0.925436
0.925423
0.925417
0.925408
0.925395
0.925409
0.925455
0.925455
0.925338
0.925429
0.925402
0.92528
0.925447
0.925423
0.925408
0.925356
0.925328
0.925467
0.925426
0.925321
0.925346
0.925304
0.925402
0.925427
0.925297
0.925511
0.925356
0.925511
0.925446
0.925422
0.925359
0.925329
0.92533
0.925411
0.925447
0.925406
0.925374
0.925351
0.92532
0.925405
0.92541
0.92541
0.925429
0.925406
0.92532
0.925408
0.925396
0.925304
0.925313
0.925405
0.925409
0.925359
0.925482
0.925331
0.925482
0.925359
0.925377
0.925436
0.925408
0.925424
0.92541
0.92544
0.925475
0.925411
0.925331
0.925358
0.925453
0.925407
0.925424
0.925407
0.925352
0.925479
0.925323
0.92541
0.925425
0.925479
0.925353
0.925417
0.925382
0.925411
0.92533
0.925407
0.925413
0.925403
0.925401
0.925368
0.925391
0.925408
0.925336
0.925408
0.925411
0.925407
0.925418
0.925356
0.925356
0.925405
0.925393
0.925337
0.925304
0.925331
0.925354
0.92541
0.925355
0.925356
0.925337
0.925354
0.925446
0.925357
0.925332
0.92542
0.925357
0.925428
0.925446
0.925411
0.925458
0.925412
0.925339
0.92541
0.92541
0.925352
0.925427
0.925331
0.925424
0.925431
0.925449
0.925411
0.925427
0.925332
0.925357
0.925337
0.925407
0.925404
0.925404
0.925424
0.925407
0.925423
0.925408
0.925383
0.925358
0.925424
0.92534
0.925425
0.925424
0.925349
0.925439
0.925409
0.925442
0.925418
0.925409
0.925426
0.925368
0.92542
0.92536
0.925431
0.92541
0.925409
0.925406
0.925408
0.925408
0.925408
0.925414
0.925437
0.925436
0.925437
0.925438
0.925456
0.925455
0.925367
0.925413
0.9254
0.925393
0.92544
0.92544
0.925401
0.925358
0.925399
0.925411
0.92537
0.925438
0.925369
0.925427
0.925397
0.925369
0.925361
0.925328
0.925322
0.925426
0.925328
0.925405
0.92536
0.925381
0.925398
0.925409
0.925485
0.925408
0.92533
0.925359
0.925399
0.92541
0.925357
0.925409
0.925383
0.925484
0.92536
0.92541
0.925424
0.925404
0.925439
0.925427
0.925457
0.925406
0.92531
0.925304
0.925453
0.925396
0.925411
0.925371
0.925438
0.92542
0.925359
0.925422
0.925375
0.925415
0.925376
0.925358
0.925499
0.925448
0.925438
0.925438
0.925413
0.925378
0.925469
0.925423
0.925393
0.925378
0.925373
0.925452
0.925369
0.925448
0.925376
0.925297
0.925376
0.92533
0.925431
0.925369
0.925498
0.925375
0.925427
0.925367
0.925425
0.925374
0.925404
0.925309
0.925397
0.925369
0.925449
0.925367
0.925392
0.925428
0.925409
0.925374
0.925377
0.925382
0.925433
0.925376
0.925411
0.925403
0.925457
0.925378
0.925381
0.925396
0.925384
0.925375
0.925384
0.925438
0.92541
0.925382
0.925368
0.925416
0.925416
0.925375
0.925457
0.925249
0.925405
0.925328
0.925396
0.925133
0.925134
0.925134
0.925133
0.925131
0.925138
0.925139
0.925432
0.925466
0.925405
0.925391
0.925381
0.925384
0.925415
0.925382
0.925381
0.925467
0.925383
0.925441
0.925356
0.925433
0.9254
0.925392
0.925383
0.925454
0.925404
0.925393
0.925404
0.925392
0.925379
0.925356
0.925391
0.925403
0.925441
0.925383
0.925377
0.925382
0.92539
0.925402
0.925414
0.925382
0.925414
0.925399
0.92539
0.925411
0.925399
0.925381
0.925424
0.925395
0.925464
0.925298
0.925432
0.925438
0.925402
0.925396
0.925422
0.925253
0.9254
0.925395
0.925309
0.925501
0.925502
0.925402
0.925381
0.925397
0.925384
0.925532
0.92553
0.925408
0.925412
0.925411
0.925257
0.925378
0.925427
0.925393
0.925391
0.925391
0.925247
0.925425
0.92538
0.925404
0.925403
0.92539
0.925392
0.92539
0.925392
0.925291
0.92533
0.925392
0.925404
0.925395
0.92539
0.925394
0.925396
0.925395
0.925299
0.925442
0.925381
0.925421
0.925426
0.925299
0.9254
0.925398
0.925458
0.925493
0.925493
0.925447
0.925378
0.925403
0.925296
0.925489
0.925523
0.925522
0.925245
0.925477
0.925481
0.925401
0.925447
0.925405
0.925412
0.925424
0.925432
0.925412
0.925252
0.925405
0.925422
0.925427
0.925279
0.925476
0.92531
0.925424
0.925416
0.925372
0.925406
0.925411
0.925455
0.925411
0.925454
0.925403
0.925429
0.925479
0.925482
0.925299
0.925414
0.925268
0.925274
0.925261
0.925426
0.925254
0.925255
0.92539
0.925263
0.925467
0.925467
0.925268
0.925392
0.925295
0.92527
0.925289
0.925269
0.925289
0.925478
0.925291
0.925254
0.925266
0.925411
0.925434
0.925286
0.925411
0.925254
0.925415
0.925394
0.925267
0.925282
0.925263
0.925244
0.925399
0.925469
0.925517
0.925514
0.925416
0.925516
0.925516
0.925516
0.925501
0.925295
0.925478
0.92545
0.92547
0.925415
0.925506
0.925506
0.925475
0.925241
0.925393
0.925253
0.925309
0.925303
0.925487
0.925486
0.925486
0.925486
0.925486
0.925516
0.92549
0.925507
0.925522
0.92549
0.92549
0.925523
0.925516
0.925507
0.925486
SCALARS rr_(P_ext) float
LOOKUP_TABLE default
0.0182501
0.0181614
0.0181692
0.0181629
0.018139
0.0181694
0.0182504
0.0181641
0.0181766
0.0181617
0.0182443
0.018164
0.0181659
0.0181606
0.0181472
0.0181679
0.0181574
0.018165
0.0181806
0.0181714
0.0181726
0.0181085
0.0181725
0.0181713
0.0181715
0.0181636
0.0182319
0.0181682
0.0182048
0.0181265
0.0181662
0.0182046
0.0182332
0.0181318
0.0181292
0.0181319
0.0181255
0.0181303
0.0181663
0.0182329
0.018205
0.0181251
0.0181252
0.0181661
0.0182247
0.0182035
0.0181787
0.0181752
0.018169
0.0182103
0.0182071
0.0181958
0.0181403
0.0181955
0.018141
0.018222
0.018129
0.0181955
0.0181291
0.018171
0.0181577
0.0181504
0.0182263
0.0181508
0.0181502
0.0181575
0.0181574
0.0181635
0.018172
0.0181611
0.0181404
0.0181405
0.0182051
0.0181547
0.0181689
0.018237
0.0181456
0.0181575
0.0181636
0.0181937
0.0182121
0.0181363
0.018154
0.0182146
0.0182022
0.0182237
0.0181682
0.0181561
0.0182246
0.0181129
0.0181957
0.018113
0.0181451
0.0181584
0.0181949
0.0182079
0.018212
0.0181619
0.0181457
0.0181667
0.0181857
0.0182001
0.0182148
0.0181642
0.0181626
0.0181625
0.0181529
0.0181674
0.0182149
0.01816
0.0181709
0.0182218
0.0182178
0.0181647
0.0181629
0.0181953
0.0181291
0.0182123
0.0181293
0.0181949
0.0181825
0.0181482
0.0181614
0.0181558
0.0181594
0.0181465
0.0181322
0.0181619
0.018212
0.0181949
0.0181404
0.018162
0.0181544
0.0181617
0.0182
0.0181289
0.0182169
0.0181653
0.0181539
0.018129
0.018199
0.0181615
0.0181812
0.0181617
0.0182127
0.0181632
0.0181628
0.018169
0.0181693
0.0181883
0.0181754
0.0181614
0.0182048
0.0181657
0.0181617
0.0181619
0.0181593
0.0181981
0.0181979
0.0181659
0.018175
0.0182041
0.0182225
0.0182071
0.0181982
0.0181624
0.0181982
0.0181983
0.0182047
0.018198
0.0181449
0.0181955
0.0182072
0.0181585
0.0181953
0.0181532
0.018145
0.0181641
0.01814
0.0181623
0.0182047
0.018162
0.0181621
0.0181988
0.0181559
0.0182078
0.0181559
0.0181528
0.0181446
0.0181619
0.0181558
0.018211
0.0181954
0.0182046
0.0181618
0.0181654
0.0181649
0.0181545
0.0181615
0.0181578
0.0181614
0.0181795
0.0181931
0.0181546
0.0182046
0.018154
0.0181575
0.0182006
0.0181493
0.0181612
0.0181485
0.0181601
0.0181629
0.0181539
0.018188
0.0181594
0.0181922
0.0181529
0.0181596
0.0181596
0.0181606
0.0181602
0.0181602
0.0181602
0.0181611
0.0181478
0.0181481
0.0181478
0.0181477
0.0181408
0.0181408
0.0181887
0.0181609
0.0181637
0.0181756
0.0181472
0.0181469
0.0181634
0.0181929
0.018164
0.0181619
0.0181877
0.0181491
0.0181881
0.0181537
0.0181643
0.0181875
0.0181918
0.0182123
0.0182116
0.0181539
0.018214
0.0181668
0.0181923
0.01818
0.0181641
0.0181598
0.0181247
0.01816
0.0182147
0.0181922
0.0181637
0.0181641
0.0181933
0.0181598
0.0181808
0.0181248
0.0181921
0.0181594
0.0181563
0.0181649
0.0181474
0.0181563
0.0181403
0.0181659
0.0182205
0.0182238
0.0181428
0.0181724
0.0181641
0.018188
0.018149
0.0181586
0.0181922
0.0181583
0.0181854
0.0181624
0.0181853
0.0181927
0.018118
0.018144
0.018147
0.0181471
0.0181611
0.0181847
0.0181328
0.0181567
0.0181747
0.0181844
0.0181872
0.0181428
0.0181877
0.0181451
0.0181862
0.0182244
0.0181848
0.0182132
0.0181526
0.0181877
0.018118
0.0181862
0.0181546
0.0181887
0.0181555
0.0181864
0.0181682
0.0182277
0.01817
0.0181879
0.0181432
0.0181883
0.0181747
0.0181555
0.0181611
0.0181863
0.0181848
0.018181
0.0181528
0.0181849
0.0181641
0.0181682
0.0181405
0.0181848
0.0181814
0.0181734
0.0181805
0.0181857
0.0181803
0.0181501
0.0181643
0.0181811
0.0181881
0.0181618
0.0181616
0.0181852
0.0181406
0.0182474
0.0181685
0.0182122
0.018173
0.0182944
0.0182943
0.0182937
0.0182939
0.0182936
0.0182946
0.0182942
0.0181523
0.0181351
0.0181656
0.0181751
0.0181801
0.0181806
0.0181624
0.0181811
0.0181816
0.018135
0.0181806
0.0181487
0.0181957
0.0181492
0.0181696
0.0181753
0.0181809
0.0181426
0.0181685
0.0181746
0.0181684
0.0181745
0.0181813
0.0181941
0.0181753
0.0181693
0.0181484
0.0181793
0.0181821
0.0181796
0.0181758
0.0181695
0.0181623
0.0181797
0.0181625
0.0181703
0.0181756
0.0181639
0.0181701
0.0181808
0.0181555
0.0181738
0.0181359
0.0182244
0.0181524
0.0181501
0.0181694
0.0181736
0.0181577
0.0182463
0.0181695
0.018174
0.0182272
0.0181185
0.0181183
0.0181685
0.0181802
0.0181729
0.0181792
0.018105
0.018105
0.0181638
0.0181638
0.0181642
0.0182466
0.0181816
0.0181543
0.0181756
0.0181763
0.0181757
0.0182479
0.018156
0.0181806
0.0181688
0.0181688
0.0181765
0.0181748
0.0181765
0.0181757
0.0182324
0.018213
0.0181748
0.0181686
0.0181737
0.0181768
0.0181743
0.0181732
0.0181737
0.0182243
0.0181471
0.0181797
0.0181579
0.0181555
0.0182249
0.0181691
0.0181699
0.0181405
0.0181191
0.0181191
0.0181441
0.0181817
0.018169
0.0182258
0.0181208
0.018107
0.0181071
0.0182489
0.0181303
0.0181264
0.0181699
0.0181455
0.0181658
0.0181612
0.0181553
0.0181531
0.0181641
0.0182465
0.0181677
0.0181586
0.0181544
0.0182375
0.0181293
0.0182288
0.0181548
0.0181609
0.0181868
0.0181663
0.0181644
0.0181397
0.0181632
0.0181398
0.0181686
0.0181544
0.0181279
0.0181273
0.0182255
0.01816
0.0182518
0.0182501
0.0182537
0.0181561
0.0182476
0.0182555
0.0181767
0.0182528
0.018136
0.018136
0.0182514
0.0181733
0.0182321
0.0182523
0.0182338
0.0182526
0.0182338
0.0181298
0.0182288
0.0182472
0.0182516
0.0181648
0.0181512
0.0182352
0.0181646
0.0182549
0.0181618
0.0181727
0.0182532
0.0182365
0.0182545
0.0182489
0.0181702
0.0181345
0.0181086
0.0181097
0.0181603
0.0181088
0.0181089
0.0181093
0.0181162
0.0182271
0.0181285
0.0181435
0.0181344
0.0181613
0.0181144
0.0181144
0.0181329
0.0182498
0.0181735
0.0182488
0.0182302
0.0182295
0.0181219
0.0181221
0.0181227
0.0181225
0.0181219
0.0181102
0.0181225
0.0181143
0.0181084
0.0181217
0.0181216
0.0181081
0.0181099
0.018114
0.0181232
SCALARS rr_(S) float
LOOKUP_TABLE default
0.87882
0.878862
0.878861
0.87886
0.87889
0.878861
0.878819
0.878866
0.878858
0.878865
0.878799
0.878866
0.878865
0.878867
0.878877
0.878863
0.878867
0.878862
0.878852
0.878859
0.878861
0.878917
0.878858
0.878859
0.878859
0.878862
0.87882
0.878862
0.878837
0.878898
0.878865
0.878836
0.878821
0.878893
0.878898
0.878893
0.878897
0.878898
0.878865
0.878821
0.878836
0.878898
0.878897
0.878865
0.878819
0.878839
0.878855
0.878859
0.878861
0.878832
0.878835
0.878845
0.878886
0.878846
0.878885
0.87883
0.878899
0.878846
0.878898
0.878858
0.878866
0.878877
0.878829
0.878877
0.878877
0.878871
0.878866
0.878863
0.878858
0.878862
0.878886
0.878886
0.878837
0.878874
0.878862
0.878815
0.878883
0.878871
0.878863
0.878843
0.878835
0.878893
0.878871
0.878831
0.878842
0.878824
0.878862
0.878874
0.878819
0.878915
0.878845
0.878915
0.878882
0.878871
0.878847
0.878833
0.878837
0.878864
0.878883
0.878864
0.878853
0.878845
0.87883
0.878861
0.878864
0.878863
0.878873
0.878864
0.878831
0.878861
0.878858
0.878823
0.878827
0.878861
0.878863
0.878847
0.878901
0.878838
0.878901
0.878847
0.878852
0.878876
0.878861
0.878871
0.878862
0.878878
0.878897
0.878864
0.878837
0.878846
0.878884
0.878861
0.87887
0.878861
0.878845
0.878898
0.878835
0.878866
0.878871
0.878898
0.878845
0.878869
0.878855
0.878865
0.878838
0.878862
0.878867
0.878864
0.878861
0.878849
0.878858
0.878861
0.878835
0.878865
0.878864
0.878861
0.878869
0.878847
0.878847
0.878862
0.878859
0.878836
0.878823
0.878833
0.878845
0.878864
0.878846
0.878847
0.878836
0.878846
0.878882
0.878846
0.878834
0.878869
0.878846
0.878872
0.878882
0.878866
0.878888
0.878866
0.878838
0.878864
0.878864
0.878845
0.878873
0.878834
0.87887
0.878875
0.878884
0.878864
0.878874
0.878838
0.878845
0.878836
0.878861
0.878861
0.878861
0.87887
0.878861
0.878872
0.878861
0.878854
0.878844
0.87887
0.878839
0.87887
0.878872
0.878843
0.878878
0.878862
0.878881
0.878869
0.878864
0.878871
0.878849
0.87887
0.878846
0.878875
0.878862
0.878861
0.878859
0.87886
0.878861
0.878861
0.878866
0.878876
0.878876
0.878876
0.878876
0.878887
0.878886
0.878848
0.878865
0.878856
0.87886
0.878878
0.878878
0.878857
0.878844
0.878855
0.878864
0.87885
0.878878
0.87885
0.878872
0.878854
0.87885
0.878846
0.878835
0.87883
0.878871
0.878837
0.878863
0.878846
0.878853
0.878855
0.878861
0.8789
0.878861
0.878839
0.878845
0.878856
0.878866
0.878844
0.878861
0.878856
0.8789
0.878845
0.878862
0.878871
0.878861
0.878878
0.878874
0.878887
0.878863
0.878827
0.878824
0.878886
0.87886
0.878866
0.878852
0.878878
0.87887
0.878845
0.878871
0.878853
0.878868
0.878854
0.878844
0.878907
0.878882
0.878876
0.878876
0.878866
0.878854
0.878892
0.87887
0.878859
0.878854
0.878853
0.878885
0.87885
0.878883
0.878854
0.878819
0.878854
0.878837
0.878874
0.878849
0.878907
0.878853
0.878872
0.878849
0.878872
0.878853
0.878863
0.878832
0.878859
0.87885
0.878883
0.878848
0.878859
0.878874
0.878862
0.878853
0.878854
0.878855
0.878876
0.878853
0.878867
0.878862
0.878888
0.878854
0.878855
0.878861
0.878856
0.878853
0.878856
0.878878
0.878865
0.878855
0.878849
0.878868
0.878868
0.878853
0.878888
0.878798
0.878864
0.878836
0.878861
0.878738
0.878739
0.878738
0.878737
0.878736
0.878742
0.878743
0.878875
0.878892
0.878862
0.878858
0.878853
0.878856
0.878868
0.878855
0.878855
0.878892
0.878855
0.87888
0.878845
0.878874
0.878861
0.878858
0.878856
0.878887
0.878864
0.878859
0.878864
0.878859
0.878853
0.878843
0.878858
0.878863
0.87888
0.878854
0.878852
0.878854
0.878857
0.878863
0.878868
0.878854
0.878868
0.87886
0.878858
0.878866
0.87886
0.878854
0.878871
0.87886
0.87889
0.878819
0.878875
0.878878
0.878863
0.878861
0.87887
0.8788
0.878861
0.87886
0.878832
0.878909
0.87891
0.878862
0.878854
0.878861
0.878855
0.878926
0.878925
0.878863
0.878867
0.878866
0.878804
0.878852
0.878873
0.87886
0.878859
0.878858
0.878796
0.878872
0.878853
0.878863
0.878863
0.878858
0.878859
0.878858
0.87886
0.878821
0.878837
0.878858
0.878864
0.87886
0.878858
0.87886
0.878861
0.87886
0.878821
0.87888
0.878853
0.87887
0.878872
0.878821
0.878861
0.87886
0.878888
0.878903
0.878903
0.878882
0.878852
0.878863
0.878819
0.878901
0.878919
0.878919
0.878795
0.878897
0.878897
0.878863
0.878882
0.878862
0.878864
0.87887
0.878875
0.878867
0.878799
0.878864
0.878871
0.878873
0.878815
0.878895
0.878834
0.87887
0.878868
0.878851
0.878863
0.878867
0.878885
0.878866
0.878885
0.878862
0.878874
0.878898
0.8789
0.878822
0.878866
0.878818
0.878823
0.878813
0.878873
0.878802
0.87881
0.878859
0.878815
0.878893
0.878893
0.878818
0.878857
0.878825
0.87882
0.87882
0.87882
0.87882
0.878898
0.878818
0.878802
0.878816
0.878867
0.878876
0.878819
0.878866
0.878809
0.878867
0.878858
0.878819
0.878817
0.878816
0.878794
0.878861
0.878893
0.878916
0.878914
0.878868
0.878915
0.878915
0.878915
0.878908
0.878819
0.878896
0.878884
0.878894
0.878867
0.878911
0.87891
0.878897
0.878793
0.878858
0.878802
0.878835
0.878829
0.878899
0.878899
0.878899
0.8789
0.878899
0.878916
0.878903
0.878912
0.87892
0.878902
0.878902
0.87892
0.878916
0.878911
0.8789
SCALARS rr_(P) float
LOOKUP_TABLE default
0.020914
0.0208622
0.0208668
0.0208631
0.020849
0.0208669
0.0209142
0.0208638
0.0208712
0.0208624
0.0209104
0.0208638
0.0208649
0.0208617
0.0208537
0.0208661
0.0208598
0.0208643
0.0208735
0.0208681
0.0208689
0.0208307
0.0208688
0.020868
0.0208682
0.0208635
0.0209033
0.0208662
0.0208876
0.0208413
0.0208651
0.0208875
0.0209041
0.0208445
0.0208431
0.0208446
0.0208407
0.0208438
0.0208651
0.020904
0.0208877
0.0208405
0.0208406
0.020865
0.0208991
0.0208869
0.0208724
0.0208704
0.0208667
0.0208908
0.0208889
0.0208824
0.0208496
0.0208823
0.0208501
0.0208976
0.0208429
0.0208822
0.020843
0.0208678
0.02086
0.0208557
0.0209001
0.020856
0.0208556
0.0208599
0.0208598
0.0208635
0.0208685
0.020862
0.0208498
0.0208498
0.0208878
0.0208583
0.0208667
0.0209063
0.0208529
0.0208599
0.0208635
0.0208811
0.0208919
0.0208474
0.0208578
0.0208933
0.0208861
0.0208986
0.0208662
0.0208591
0.020899
0.0208332
0.0208823
0.0208333
0.0208525
0.0208605
0.0208819
0.0208894
0.0208918
0.0208625
0.020853
0.0208654
0.0208765
0.0208849
0.0208934
0.0208638
0.0208629
0.0208628
0.0208571
0.0208658
0.0208935
0.0208613
0.0208678
0.0208974
0.0208951
0.0208641
0.0208631
0.0208821
0.020843
0.0208921
0.0208432
0.0208819
0.0208746
0.0208543
0.0208622
0.0208589
0.0208609
0.0208533
0.0208448
0.0208625
0.0208918
0.0208818
0.0208497
0.0208625
0.020858
0.0208623
0.0208849
0.0208429
0.0208947
0.0208645
0.0208577
0.0208429
0.0208843
0.0208623
0.0208739
0.0208624
0.0208923
0.0208633
0.0208631
0.0208667
0.0208669
0.020878
0.0208705
0.0208622
0.0208876
0.0208648
0.0208624
0.0208625
0.020861
0.0208838
0.0208836
0.0208649
0.0208703
0.0208872
0.0208978
0.0208889
0.0208838
0.0208628
0.0208838
0.0208839
0.0208876
0.0208837
0.0208524
0.0208822
0.020889
0.0208605
0.0208821
0.0208573
0.0208524
0.0208638
0.0208495
0.0208628
0.0208876
0.0208626
0.0208626
0.0208842
0.020859
0.0208894
0.0208589
0.0208571
0.0208522
0.0208625
0.0208589
0.0208913
0.0208821
0.0208875
0.0208624
0.0208645
0.0208643
0.0208581
0.0208622
0.0208601
0.0208621
0.0208729
0.0208808
0.0208581
0.0208875
0.0208578
0.0208599
0.0208852
0.020855
0.020862
0.0208546
0.0208615
0.0208631
0.0208577
0.0208778
0.0208611
0.0208803
0.0208572
0.020861
0.020861
0.0208616
0.0208614
0.0208614
0.0208614
0.020862
0.0208541
0.0208542
0.0208541
0.020854
0.02085
0.0208499
0.0208782
0.0208619
0.0208634
0.0208706
0.0208537
0.0208535
0.0208633
0.0208807
0.0208636
0.0208625
0.0208777
0.0208549
0.0208779
0.0208576
0.0208638
0.0208775
0.0208801
0.020892
0.0208916
0.0208578
0.020893
0.0208654
0.0208803
0.0208732
0.0208637
0.0208611
0.0208403
0.0208613
0.0208934
0.0208803
0.0208635
0.0208638
0.0208809
0.0208612
0.0208736
0.0208403
0.0208802
0.0208609
0.0208592
0.0208643
0.0208538
0.0208592
0.0208497
0.0208649
0.0208967
0.0208986
0.0208512
0.0208687
0.0208638
0.0208779
0.0208548
0.0208606
0.0208802
0.0208604
0.0208763
0.0208628
0.0208763
0.0208805
0.0208363
0.0208519
0.0208536
0.0208537
0.0208621
0.0208759
0.0208451
0.0208594
0.0208701
0.0208758
0.0208774
0.0208512
0.0208777
0.0208525
0.0208769
0.0208989
0.020876
0.0208925
0.020857
0.0208776
0.0208363
0.0208768
0.0208582
0.0208782
0.0208587
0.0208769
0.0208663
0.020901
0.0208673
0.0208778
0.0208513
0.020878
0.02087
0.0208587
0.020862
0.0208769
0.020876
0.0208738
0.0208571
0.020876
0.0208638
0.0208662
0.0208498
0.020876
0.020874
0.0208693
0.0208735
0.0208765
0.0208734
0.0208555
0.0208639
0.0208738
0.0208779
0.0208625
0.0208624
0.0208762
0.0208499
0.0209122
0.0208664
0.020892
0.0208691
0.0209393
0.0209392
0.0209389
0.020939
0.0209388
0.0209394
0.0209392
0.0208568
0.0208465
0.0208647
0.0208703
0.0208732
0.0208735
0.0208628
0.0208738
0.0208741
0.0208464
0.0208735
0.0208547
0.0208823
0.0208549
0.020867
0.0208704
0.0208737
0.0208511
0.0208664
0.02087
0.0208664
0.02087
0.0208739
0.0208814
0.0208704
0.0208669
0.0208545
0.0208727
0.0208744
0.0208729
0.0208707
0.020867
0.0208628
0.020873
0.0208629
0.0208674
0.0208706
0.0208637
0.0208673
0.0208736
0.0208587
0.0208696
0.020847
0.0208989
0.0208569
0.0208555
0.020867
0.0208694
0.02086
0.0209116
0.020867
0.0208697
0.0209007
0.0208366
0.0208365
0.0208664
0.0208733
0.020869
0.0208727
0.0208286
0.0208286
0.0208636
0.0208636
0.0208639
0.0209118
0.0208741
0.020858
0.0208706
0.0208711
0.0208706
0.0209125
0.020859
0.0208735
0.0208666
0.0208666
0.0208711
0.0208701
0.0208711
0.0208707
0.0209036
0.0208924
0.0208701
0.0208665
0.0208695
0.0208713
0.0208699
0.0208692
0.0208695
0.0208989
0.0208537
0.020873
0.0208602
0.0208587
0.0208992
0.0208668
0.0208672
0.0208498
0.0208369
0.0208369
0.0208519
0.0208742
0.0208667
0.0208997
0.0208379
0.0208298
0.0208298
0.0209131
0.0208437
0.0208413
0.0208672
0.0208528
0.0208648
0.0208621
0.0208586
0.0208573
0.0208638
0.0209117
0.020866
0.0208606
0.0208581
0.0209066
0.0208431
0.0209017
0.0208583
0.020862
0.0208771
0.0208651
0.020864
0.0208493
0.0208633
0.0208493
0.0208665
0.0208581
0.0208422
0.0208419
0.0208996
0.0208614
0.020915
0.0209141
0.0209161
0.0208591
0.0209124
0.0209171
0.0208713
0.0209155
0.0208472
0.0208472
0.0209148
0.0208692
0.0209035
0.0209153
0.0209044
0.0209155
0.0209045
0.0208434
0.0209015
0.0209121
0.0209149
0.0208643
0.0208562
0.0209053
0.0208641
0.0209168
0.0208624
0.0208689
0.0209159
0.020906
0.0209166
0.0209131
0.0208674
0.0208462
0.0208307
0.0208313
0.0208615
0.0208308
0.0208308
0.0208311
0.0208352
0.0209005
0.0208426
0.0208515
0.0208462
0.0208622
0.0208341
0.0208341
0.0208453
0.0209136
0.0208694
0.0209131
0.0209025
0.020902
0.0208385
0.0208387
0.020839
0.0208389
0.0208386
0.0208316
0.020839
0.0208341
0.0208306
0.0208384
0.0208384
0.0208304
0.0208314
0.0208339
0.0208393
SCALARS rr_(T) float
LOOKUP_TABLE default
0.07569
0.0757186
0.0757159
0.0757178
0.0757297
0.0757159
0.0756899
0.0757179
0.0757133
0.0757186
0.0756906
0.075718
0.0757172
0.0757193
0.0757255
0.0757163
0.0757206
0.0757174
0.0757119
0.075715
0.0757148
0.0757454
0.0757147
0.0757152
0.075715
0.075718
0.0756951
0.0757165
0.0757038
0.075736
0.0757171
0.0757038
0.0756948
0.0757334
0.0757345
0.0757334
0.0757364
0.075734
0.0757171
0.0756949
0.0757037
0.0757366
0.0757366
0.0757171
0.0756972
0.0757042
0.0757125
0.0757138
0.0757161
0.0757019
0.0757031
0.0757069
0.075729
0.0757069
0.0757287
0.0756984
0.0757347
0.0757069
0.0757346
0.0757152
0.0757204
0.0757239
0.0756973
0.0757238
0.0757239
0.075721
0.0757206
0.075718
0.0757149
0.0757188
0.0757289
0.0757289
0.0757037
0.0757223
0.0757159
0.0756934
0.0757264
0.0757209
0.075718
0.0757074
0.0757016
0.0757309
0.0757222
0.0757006
0.0757048
0.0756977
0.0757164
0.0757217
0.0756972
0.0757434
0.0757069
0.0757434
0.0757267
0.0757207
0.0757072
0.0757027
0.0757017
0.0757185
0.0757263
0.0757169
0.0757103
0.0757055
0.0757006
0.0757175
0.0757185
0.0757182
0.075723
0.0757167
0.0757006
0.0757191
0.0757153
0.0756982
0.0756995
0.0757174
0.075718
0.075707
0.0757347
0.0757016
0.0757346
0.0757072
0.0757112
0.0757249
0.0757186
0.0757214
0.0757194
0.075726
0.0757332
0.0757185
0.0757017
0.0757072
0.075729
0.0757183
0.0757219
0.0757184
0.0757055
0.0757348
0.0757001
0.0757176
0.0757222
0.0757347
0.0757058
0.0757192
0.0757118
0.0757188
0.0757015
0.075718
0.0757188
0.0757163
0.0757158
0.0757093
0.0757139
0.0757186
0.0757038
0.0757172
0.0757188
0.0757183
0.0757199
0.0757061
0.0757062
0.075717
0.0757139
0.075704
0.075698
0.075703
0.0757061
0.0757182
0.0757061
0.0757061
0.0757038
0.0757062
0.0757268
0.0757069
0.0757029
0.0757202
0.075707
0.0757228
0.0757267
0.0757182
0.0757291
0.0757187
0.0757039
0.0757184
0.0757184
0.0757059
0.0757217
0.0757027
0.0757213
0.075723
0.075727
0.0757185
0.0757218
0.075702
0.075707
0.0757038
0.0757184
0.0757171
0.0757173
0.0757219
0.0757185
0.0757208
0.0757186
0.0757122
0.0757076
0.0757219
0.0757039
0.0757221
0.075721
0.0757053
0.0757248
0.0757187
0.0757251
0.0757198
0.0757183
0.0757223
0.0757094
0.0757202
0.0757079
0.075723
0.0757193
0.0757193
0.0757188
0.075719
0.075719
0.075719
0.0757192
0.0757251
0.075725
0.0757251
0.0757251
0.0757289
0.0757289
0.0757092
0.0757192
0.0757173
0.0757136
0.0757255
0.0757256
0.0757175
0.0757077
0.0757172
0.0757185
0.0757095
0.0757249
0.0757094
0.0757224
0.075717
0.0757096
0.075708
0.0757015
0.0757015
0.0757222
0.0757011
0.0757167
0.0757079
0.0757121
0.0757171
0.0757192
0.075737
0.0757191
0.075701
0.0757079
0.0757173
0.0757181
0.0757075
0.0757192
0.075712
0.0757369
0.075708
0.0757194
0.0757212
0.0757173
0.0757254
0.0757216
0.0757291
0.075717
0.0756988
0.0756977
0.075728
0.0757147
0.0757181
0.0757095
0.0757249
0.0757201
0.0757079
0.0757207
0.0757103
0.075719
0.0757104
0.0757078
0.0757405
0.0757271
0.0757256
0.0757255
0.075719
0.0757106
0.0757329
0.075721
0.0757141
0.0757107
0.0757097
0.0757278
0.0757095
0.0757268
0.07571
0.0756973
0.0757105
0.0757014
0.0757232
0.0757095
0.0757405
0.07571
0.0757222
0.0757091
0.0757216
0.07571
0.0757163
0.075697
0.0757155
0.0757094
0.0757277
0.0757093
0.0757142
0.0757218
0.0757187
0.07571
0.0757105
0.0757119
0.0757231
0.0757105
0.0757181
0.0757165
0.075729
0.0757105
0.0757117
0.0757146
0.075712
0.0757102
0.0757121
0.0757245
0.0757179
0.0757118
0.0757094
0.0757191
0.0757191
0.0757104
0.0757289
0.0756896
0.0757165
0.0757015
0.0757147
0.0756729
0.075673
0.0756731
0.075673
0.0756731
0.075673
0.0756731
0.0757233
0.0757318
0.0757172
0.075714
0.0757121
0.075712
0.0757189
0.0757119
0.0757117
0.0757319
0.075712
0.075725
0.0757069
0.0757244
0.0757159
0.0757139
0.0757119
0.0757281
0.0757165
0.0757141
0.0757165
0.0757142
0.0757116
0.0757073
0.0757139
0.0757162
0.075725
0.0757124
0.0757113
0.0757122
0.0757137
0.0757161
0.075719
0.0757122
0.0757189
0.0757156
0.0757138
0.0757182
0.0757156
0.0757119
0.0757215
0.0757144
0.0757313
0.0756973
0.0757232
0.0757245
0.0757161
0.0757144
0.0757208
0.07569
0.075716
0.0757143
0.0756971
0.0757404
0.0757406
0.0757164
0.075712
0.0757147
0.0757124
0.0757475
0.0757474
0.0757178
0.0757183
0.0757182
0.0756901
0.0757115
0.0757221
0.0757136
0.0757134
0.0757137
0.0756894
0.0757217
0.0757118
0.0757163
0.0757163
0.0757133
0.075714
0.0757133
0.0757137
0.075695
0.0757014
0.075714
0.0757165
0.0757143
0.0757132
0.0757142
0.0757146
0.0757144
0.0756973
0.0757258
0.0757122
0.0757207
0.0757218
0.0756972
0.0757159
0.0757156
0.075729
0.0757399
0.0757399
0.0757273
0.0757114
0.0757163
0.0756968
0.075739
0.0757461
0.0757461
0.075689
0.0757339
0.0757361
0.0757159
0.0757265
0.0757171
0.0757188
0.0757217
0.075723
0.0757183
0.0756899
0.0757165
0.0757204
0.075722
0.0756932
0.0757346
0.0756968
0.0757218
0.0757192
0.0757099
0.0757169
0.075718
0.0757294
0.0757183
0.0757293
0.0757161
0.0757223
0.0757355
0.0757358
0.075697
0.0757195
0.0756895
0.0756902
0.0756887
0.0757216
0.0756898
0.075688
0.0757132
0.0756891
0.0757311
0.0757311
0.0756897
0.0757144
0.0756952
0.0756895
0.0756946
0.0756893
0.0756946
0.0757343
0.0756959
0.0756898
0.0756895
0.0757179
0.0757237
0.0756941
0.075718
0.0756881
0.0757191
0.0757146
0.0756891
0.0756936
0.0756886
0.075689
0.0757157
0.0757319
0.0757453
0.0757447
0.0757197
0.0757452
0.0757452
0.0757449
0.0757415
0.0756965
0.0757351
0.0757276
0.0757321
0.0757193
0.0757425
0.0757425
0.0757328
0.0756887
0.0757143
0.0756894
0.0756964
0.0756963
0.0757384
0.0757382
0.075738
0.0757381
0.0757383
0.0757446
0.0757382
0.0757426
0.0757456
0.0757386
0.0757387
0.0757458
0.0757447
0.0757427
0.0757379
SCALARS rr_tsim float
LOOKUP_TABLE default
180
180
180
180
180
180
180
180
180
180
180
180
180
180
180
180
180
180
180
180
180
180
180
180
180
180
180
180
180
180
180
180
180
180
180
180
180
180
180
180
180
180
180
180
180
180
180
180
180
180
180
180
180
180
180
180
180
180
180
180
180
180
180
180
180
180
180
180
180
180
180
180
180
180
180
180
180
180
180
180
180
180
180
180
180
180
180
180
180
180
180
180
180
180
180
180
180
180
180
180
180
180
180
180
180
180
180
180
180
180
180
180
180
180
180
180
180
180
180
180
180
180
180
180
180
180
180
180
180
180
180
180
180
180
180
180
180
180
180
180
180
180
180
180
180
180
180
180
180
180
180
180
180
180
180
180
180
180
180
180
180
180
180
180
180
180
180
180
180
180
180
180
180
180
180
180
180
180
180
180
180
180
180
180
180
180
180
180
180
180
180
180
180
180
180
180
180
180
180
180
180
180
180
180
180
180
180
180
180
180
180
180
180
180
180
180
180
180
180
180
180
180
180
180
180
180
180
180
180
180
180
180
180
180
180
180
180
180
180
180
180
180
180
180
180
180
180
180
180
180
180
180
180
180
180
180
180
180
180
180
180
180
180
180
180
180
180
180
180
180
180
180
180
180
180
180
180
180
180
180
180
180
180
180
180
180
180
180
180
180
180
180
180
180
180
180
180
180
180
180
180
180
180
180
180
180
180
180
180
180
180
180
180
180
180
180
180
180
180
180
180
180
180
180
180
180
180
180
180
180
180
180
180
180
180
180
180
180
180
180
180
180
180
180
180
180
180
180
180
180
180
180
180
180
180
180
180
180
180
180
180
180
180
180
180
180
180
180
180
180
180
180
180
180
180
180
180
180
180
180
180
180
180
180
180
180
180
180
180
180
180
180
180
180
180
180
180
180
180
180
180
180
180
180
180
180
180
180
180
180
180
180
180
180
180
180
180
180
180
180
180
180
180
180
180
180
180
180
180
180
180
180
180
180
180
180
180
180
180
180
180
180
180
180
180
180
180
180
180
180
180
180
180
180
180
180
180
180
180
180
180
180
180
180
180
180
180
180
180
180
180
180
180
180
180
180
180
180
180
180
180
180
180
180
180
180
180
180
180
180
180
180
180
180
180
180
180
180
180
180
180
180
180
180
180
180
180
180
180
180
180
180
180
180
180
180
180
180
180
180
180
180
180
180
180
180
180
180
180
180
180
180
180
180
180
180
180
180
180
180
180
180
180
180
180
180
180
180
180
180
180
180
180
180
180
180
180
180
180
180
180
180
180
SCALARS rr_Vext float
LOOKUP_TABLE default
0.181359
0.449127
0.356051
0.468113
0.250494
0.377831
0.179275
0.465093
0.39511
0.50457
0.16539
0.466512
0.409829
0.435017
0.516139
0.424868
0.369046
0.414187
0.365534
0.36053
0.405112
0.0765108
0.415073
0.383017
0.347108
0.403475
0.155011
0.352837
0.267415
0.339248
0.361972
0.276487
0.171521
0.252902
0.249248
0.253453
0.330128
0.249492
0.361543
0.192837
0.224722
0.291051
0.291061
0.397275
0.216887
0.244122
0.344615
0.350186
0.330082
0.303763
0.312856
0.245238
0.40152
0.315209
0.369416
0.157755
0.26618
0.317519
0.266151
0.393188
0.470933
0.464876
0.153276
0.327644
0.445317
0.417377
0.455658
0.391908
0.357988
0.515561
0.435557
0.430793
0.277656
0.338747
0.353975
0.176427
0.372678
0.41348
0.395172
0.271135
0.240492
0.283508
0.527536
0.240252
0.327763
0.119292
0.407583
0.344612
0.229707
0.0374829
0.273095
0.0407608
0.316359
0.299314
0.258661
0.232984
0.22091
0.442934
0.372913
0.351858
0.293538
0.277771
0.23048
0.418579
0.426141
0.383835
0.340629
0.34085
0.24463
0.512523
0.326029
0.164039
0.220058
0.457882
0.429722
0.304484
0.308632
0.183509
0.320036
0.303368
0.266988
0.502652
0.511814
0.442043
0.484529
0.384954
0.220816
0.478214
0.20008
0.262281
0.227504
0.456398
0.449027
0.448252
0.288939
0.187538
0.190639
0.327442
0.404471
0.18746
0.241543
0.387292
0.287971
0.472761
0.223277
0.385192
0.349734
0.33613
0.214791
0.269548
0.304301
0.440629
0.248028
0.397414
0.461993
0.469246
0.307858
0.24901
0.247658
0.401139
0.333855
0.246119
0.160077
0.239706
0.240468
0.430959
0.25235
0.255102
0.274622
0.24594
0.386346
0.258185
0.22606
0.297716
0.272813
0.340308
0.38212
0.361135
0.313979
0.360848
0.266569
0.418249
0.448855
0.241616
0.442303
0.239441
0.436798
0.40274
0.378968
0.379417
0.44623
0.200775
0.26693
0.246018
0.447413
0.439024
0.407202
0.447897
0.452955
0.381867
0.466572
0.307718
0.274112
0.512734
0.285549
0.465957
0.369963
0.226656
0.286343
0.461728
0.389037
0.35031
0.450059
0.445258
0.278861
0.284223
0.267544
0.395455
0.433422
0.498095
0.478092
0.520374
0.471561
0.51529
0.432058
0.457204
0.460653
0.434357
0.456359
0.422921
0.416637
0.282413
0.389413
0.454298
0.312122
0.470275
0.432158
0.492663
0.288248
0.46828
0.44868
0.284502
0.406915
0.282471
0.455241
0.411292
0.296257
0.277679
0.235554
0.271099
0.455776
0.197502
0.347023
0.276529
0.313905
0.468675
0.455551
0.147789
0.457107
0.236432
0.261766
0.466273
0.379029
0.264587
0.522185
0.291233
0.14778
0.267726
0.406401
0.508925
0.382692
0.457757
0.425158
0.226616
0.216733
0.17598
0.201429
0.308136
0.229077
0.371984
0.227526
0.406394
0.287624
0.268103
0.323955
0.293524
0.398524
0.281488
0.287598
0.136371
0.303573
0.437812
0.43806
0.391527
0.281118
0.192359
0.545881
0.360491
0.298319
0.274293
0.284977
0.282731
0.358844
0.278093
0.19206
0.274793
0.183497
0.351069
0.279578
0.127092
0.263723
0.321339
0.279316
0.443672
0.290712
0.38147
0.138315
0.305664
0.287015
0.261625
0.269319
0.321994
0.308724
0.321048
0.266565
0.271165
0.293861
0.403604
0.276097
0.399025
0.358789
0.290798
0.286476
0.290124
0.323374
0.289914
0.270119
0.308531
0.333031
0.387868
0.290171
0.286355
0.425145
0.419251
0.276213
0.290836
0.117369
0.342065
0.227679
0.319682
0.126305
0.131123
0.117233
0.11913
0.126411
0.133077
0.137186
0.36582
0.275204
0.269665
0.305536
0.296209
0.292409
0.314711
0.285995
0.292388
0.310824
0.291316
0.36879
0.261065
0.378835
0.289105
0.27758
0.291598
0.322766
0.328995
0.304697
0.351051
0.326032
0.300391
0.213976
0.303861
0.298863
0.328282
0.30531
0.28852
0.275037
0.304065
0.319093
0.436163
0.283307
0.424003
0.438661
0.298866
0.422865
0.322477
0.255679
0.356795
0.307319
0.229505
0.185271
0.35335
0.37714
0.313434
0.259544
0.317014
0.138204
0.309865
0.289514
0.140569
0.0597487
0.0653755
0.268653
0.283295
0.331358
0.316588
0.0311309
0.0325287
0.318181
0.321543
0.304243
0.103724
0.264727
0.315904
0.315643
0.272076
0.240283
0.107864
0.464468
0.284947
0.352162
0.357673
0.255164
0.323446
0.249476
0.275481
0.129739
0.199382
0.323806
0.327751
0.280326
0.293564
0.303659
0.320506
0.30641
0.143961
0.27578
0.301354
0.290885
0.437489
0.143858
0.233732
0.240573
0.234523
0.155625
0.155629
0.2677
0.208508
0.301874
0.153856
0.185526
0.0614168
0.0614143
0.11231
0.199633
0.134971
0.257001
0.284538
0.297808
0.337001
0.307418
0.285232
0.222217
0.127171
0.27805
0.290581
0.282439
0.14413
0.147645
0.104629
0.281948
0.285971
0.224181
0.258251
0.238713
0.223791
0.292912
0.223758
0.257204
0.251387
0.158047
0.195241
0.165308
0.310646
0.112706
0.118918
0.115939
0.294534
0.10769
0.104733
0.200917
0.0979322
0.243155
0.243509
0.10066
0.255446
0.113723
0.110989
0.127155
0.105858
0.105723
0.174205
0.126241
0.112775
0.106277
0.235811
0.272659
0.118744
0.260317
0.0960769
0.264789
0.208173
0.100551
0.0864353
0.0948698
0.126461
0.225552
0.19218
0.0824426
0.0914073
0.253857
0.077586
0.0775827
0.0878717
0.0979621
0.0995853
0.127334
0.207533
0.193795
0.253769
0.0775244
0.077521
0.229252
0.0843468
0.178714
0.0765191
0.0783416
0.103271
0.198596
0.205596
0.218907
0.20066
0.19858
0.0438924
0.320381
0.0557538
0.0543418
0.259008
0.257239
0.0563345
0.0390572
0.0548045
0.23856
SCALARS rr_Vli float
LOOKUP_TABLE default
0.396487
0.903299
0.721404
0.942904
0.493003
0.765666
0.392034
0.937672
0.806268
1.01512
0.359836
0.940544
0.827703
0.874155
1.02412
0.85973
0.739395
0.835916
0.748798
0.732054
0.823481
0.146196
0.843739
0.777627
0.704889
0.813141
0.333349
0.714258
0.560609
0.659802
0.731226
0.579529
0.369272
0.494393
0.485905
0.495507
0.641457
0.486896
0.730483
0.415065
0.471211
0.56533
0.56539
0.802515
0.463323
0.511148
0.704662
0.713573
0.668682
0.640143
0.657315
0.50971
0.791282
0.654954
0.7285
0.336094
0.518808
0.659757
0.518791
0.798047
0.943865
0.925031
0.32784
0.652219
0.886011
0.836196
0.913001
0.789775
0.72729
1.03671
0.858507
0.849153
0.582211
0.676853
0.71697
0.381183
0.73816
0.82844
0.796422
0.562481
0.507624
0.556448
1.05351
0.508333
0.685385
0.254579
0.825076
0.689488
0.490661
0.0719435
0.567529
0.0782462
0.626351
0.60026
0.537109
0.489902
0.466217
0.891215
0.738708
0.71115
0.604218
0.579674
0.48775
0.844112
0.858082
0.772715
0.679547
0.68938
0.517759
1.02965
0.661679
0.349479
0.46706
0.923822
0.865437
0.632492
0.601613
0.387411
0.624002
0.629992
0.54796
0.998313
1.02948
0.884279
0.972858
0.763254
0.43175
0.962238
0.422253
0.544647
0.448453
0.918481
0.897111
0.901824
0.6029
0.365538
0.404182
0.660932
0.807733
0.365415
0.503539
0.778935
0.590242
0.951061
0.471532
0.776066
0.704323
0.680955
0.435247
0.556269
0.620248
0.886308
0.519982
0.802498
0.929443
0.944263
0.617854
0.518657
0.515714
0.810198
0.680207
0.51566
0.341239
0.503639
0.500928
0.867516
0.525645
0.531443
0.575697
0.512237
0.764769
0.536474
0.475015
0.597026
0.566759
0.679101
0.756453
0.728159
0.618512
0.726374
0.55876
0.841637
0.903306
0.503622
0.884784
0.503409
0.873808
0.803284
0.749916
0.76339
0.892543
0.423345
0.55457
0.515691
0.900211
0.886302
0.821712
0.894905
0.911197
0.765272
0.938418
0.629675
0.568293
1.02454
0.598472
0.930553
0.741279
0.473241
0.569199
0.928575
0.772729
0.703606
0.906437
0.889139
0.57533
0.570472
0.554201
0.788783
0.870379
1.00029
0.961017
1.04559
0.947453
1.03539
0.868713
0.907698
0.914771
0.862346
0.905933
0.833931
0.821517
0.583005
0.782796
0.915909
0.636239
0.933122
0.857211
0.993026
0.597476
0.94437
0.902756
0.586737
0.808803
0.582775
0.908857
0.829727
0.610881
0.574982
0.497306
0.572062
0.910103
0.417615
0.701482
0.572847
0.642713
0.945258
0.914969
0.286927
0.918296
0.500197
0.542259
0.940102
0.764202
0.54865
1.04888
0.596677
0.286928
0.554501
0.815979
1.01856
0.772235
0.908467
0.850824
0.446601
0.437753
0.374435
0.429884
0.608684
0.46556
0.749993
0.469385
0.80767
0.576818
0.555341
0.649548
0.603996
0.802278
0.57918
0.596021
0.26302
0.600443
0.868512
0.869131
0.78721
0.578064
0.376388
1.09285
0.734301
0.613259
0.565367
0.562959
0.583124
0.710461
0.572678
0.410197
0.565168
0.387692
0.700127
0.5766
0.245149
0.543078
0.642115
0.576621
0.887242
0.598799
0.772175
0.296223
0.619804
0.592063
0.517041
0.555818
0.65588
0.617315
0.645551
0.549011
0.557648
0.602198
0.804987
0.567872
0.804507
0.726244
0.573155
0.589129
0.594777
0.657844
0.593796
0.555995
0.631809
0.662548
0.782182
0.594652
0.590811
0.855289
0.843309
0.568301
0.573279
0.256088
0.692603
0.480628
0.650105
0.287607
0.29855
0.266803
0.271172
0.287683
0.303057
0.312311
0.729345
0.539724
0.544566
0.622605
0.606502
0.598934
0.63352
0.586132
0.599485
0.60947
0.596713
0.73266
0.542546
0.753108
0.586005
0.5657
0.597466
0.637467
0.666114
0.620593
0.710717
0.663998
0.615743
0.44404
0.619298
0.605573
0.652005
0.624637
0.591869
0.562873
0.620019
0.646722
0.877919
0.579858
0.85355
0.88974
0.609278
0.85243
0.65393
0.523841
0.713544
0.625426
0.450402
0.395666
0.704469
0.750314
0.635202
0.52805
0.635254
0.301236
0.628022
0.589266
0.300913
0.115298
0.126126
0.544005
0.580098
0.673738
0.647663
0.0592774
0.0619389
0.641397
0.648088
0.613483
0.226113
0.542805
0.631013
0.643418
0.555015
0.489879
0.23547
0.929285
0.583734
0.713233
0.724384
0.520583
0.658849
0.50899
0.561648
0.279102
0.421177
0.659633
0.663709
0.570434
0.599125
0.618257
0.651894
0.623524
0.307428
0.547098
0.616833
0.583016
0.874903
0.307368
0.473534
0.487754
0.462241
0.300515
0.300536
0.529554
0.427593
0.611537
0.329006
0.358876
0.117176
0.117176
0.245399
0.38962
0.262495
0.521052
0.56354
0.601412
0.677648
0.614658
0.56907
0.448037
0.277251
0.562547
0.582801
0.564248
0.311557
0.287925
0.224284
0.563453
0.574851
0.461943
0.521748
0.481454
0.440837
0.590095
0.440799
0.520823
0.502148
0.307812
0.380028
0.353394
0.623983
0.246786
0.25998
0.254334
0.589284
0.234981
0.230138
0.41001
0.214644
0.477121
0.477843
0.220334
0.519611
0.244574
0.243122
0.273902
0.231958
0.227739
0.33983
0.270698
0.245997
0.232678
0.47575
0.543003
0.256116
0.525109
0.211012
0.53269
0.42322
0.220455
0.186663
0.208255
0.276319
0.457468
0.376608
0.157552
0.174883
0.509987
0.148307
0.148306
0.168049
0.188629
0.213206
0.248114
0.410274
0.379761
0.510342
0.149004
0.149003
0.448512
0.184462
0.36361
0.167149
0.16815
0.221554
0.38455
0.398196
0.424214
0.388779
0.38454
0.0840103
0.620732
0.107163
0.103829
0.501445
0.497966
0.107596
0.0747329
0.105301
0.462543
SCALARS rr_S_ext' float
LOOKUP_TABLE default
-0.000666115
-0.00152057
-0.00121419
-0.00158719
-0.000830305
-0.00128868
-0.00065863
-0.00157837
-0.00135681
-0.0017088
-0.000604593
-0.0015832
-0.0013932
-0.00147155
-0.00172448
-0.00144705
-0.00124477
-0.00140704
-0.00125998
-0.00123205
-0.0013859
-0.000246372
-0.00141998
-0.00130875
-0.00118633
-0.00136875
-0.000560262
-0.00120218
-0.000942805
-0.00111149
-0.00123081
-0.000974626
-0.000620623
-0.000832756
-0.000818515
-0.000834632
-0.00108061
-0.000820168
-0.00122955
-0.00069759
-0.000792455
-0.00095237
-0.00095247
-0.0013508
-0.000778833
-0.000859651
-0.00118576
-0.00120086
-0.00112546
-0.00107642
-0.00110538
-0.000857382
-0.00133261
-0.00110171
-0.00122686
-0.000565009
-0.000873945
-0.00110979
-0.000873916
-0.00134313
-0.00158898
-0.00155754
-0.000551081
-0.00109818
-0.00149184
-0.00140775
-0.00153703
-0.00132942
-0.00122402
-0.00174515
-0.00144582
-0.00143007
-0.000979129
-0.00113956
-0.00120674
-0.000640582
-0.00124302
-0.00139469
-0.00134061
-0.000946187
-0.00085356
-0.000937215
-0.00177371
-0.0008547
-0.00115272
-0.000427954
-0.00138871
-0.0011608
-0.00082479
-0.000121228
-0.000954645
-0.000131848
-0.00105474
-0.00101052
-0.000903493
-0.000823832
-0.00078394
-0.00150022
-0.00124394
-0.001197
-0.00101659
-0.00097498
-0.000820088
-0.00142086
-0.00144443
-0.00130073
-0.00114413
-0.00116034
-0.000870543
-0.0017333
-0.00111362
-0.000587504
-0.000785242
-0.00155502
-0.0014568
-0.00106393
-0.00101343
-0.000651425
-0.00105114
-0.00105973
-0.000921994
-0.00168098
-0.00173297
-0.00148874
-0.00163772
-0.00128523
-0.000727244
-0.00161978
-0.000710015
-0.000916171
-0.000755241
-0.00154611
-0.00151038
-0.00151808
-0.00101405
-0.000615755
-0.000679554
-0.00111251
-0.00135992
-0.000615547
-0.000846945
-0.00131124
-0.00099317
-0.00160097
-0.000792866
-0.00130635
-0.0011856
-0.00114612
-0.000732559
-0.000935855
-0.00104379
-0.00149196
-0.000874479
-0.00135078
-0.00156458
-0.00158951
-0.00104013
-0.000872395
-0.000867448
-0.00136373
-0.00114471
-0.000867222
-0.000573645
-0.000846948
-0.000842569
-0.00146032
-0.000884147
-0.000893898
-0.000968179
-0.000861594
-0.00128784
-0.00090241
-0.000798812
-0.00100508
-0.000953358
-0.00114337
-0.00127383
-0.00122569
-0.00104166
-0.00122273
-0.000939701
-0.00141676
-0.00152057
-0.000847088
-0.0014896
-0.00084655
-0.00147111
-0.00135247
-0.00126284
-0.00128505
-0.00150267
-0.000711866
-0.000932852
-0.000867266
-0.00151536
-0.00149184
-0.00138314
-0.00150667
-0.00153386
-0.00128834
-0.00157969
-0.00105956
-0.000955981
-0.00172491
-0.00100649
-0.0015667
-0.00124795
-0.000795954
-0.000958421
-0.00156312
-0.00130115
-0.00118447
-0.00152582
-0.00149698
-0.000967929
-0.000960361
-0.000932294
-0.00132806
-0.0014652
-0.00168388
-0.00161774
-0.00176012
-0.00159493
-0.00174295
-0.00146237
-0.00152842
-0.00154032
-0.00145205
-0.00152545
-0.00140442
-0.00138351
-0.000980828
-0.00131774
-0.0015417
-0.00107071
-0.00157125
-0.00144343
-0.00167152
-0.00100508
-0.0015896
-0.00151965
-0.000987131
-0.00136187
-0.000980457
-0.00153018
-0.00139661
-0.00102775
-0.000967261
-0.000836207
-0.000961911
-0.00153228
-0.000702185
-0.00118072
-0.00096366
-0.00108148
-0.00159109
-0.00154025
-0.000483371
-0.00154585
-0.000841033
-0.000912203
-0.00158242
-0.00128636
-0.000922932
-0.00176567
-0.00100401
-0.000483372
-0.000932802
-0.00137362
-0.0017148
-0.00129986
-0.00152972
-0.00143241
-0.000752131
-0.000736831
-0.00062948
-0.000722645
-0.00102505
-0.000783528
-0.00126245
-0.000789693
-0.00135996
-0.000971062
-0.000934212
-0.00109351
-0.00101622
-0.0013505
-0.000974473
-0.00100263
-0.000443157
-0.00101114
-0.00146246
-0.00146349
-0.00132517
-0.000972609
-0.000633977
-0.00183986
-0.00123575
-0.00103183
-0.000951195
-0.000948043
-0.000981052
-0.00119638
-0.000963515
-0.000689533
-0.000950905
-0.000651884
-0.00117879
-0.000970075
-0.000413046
-0.000913714
-0.00108107
-0.000970088
-0.00149374
-0.00100746
-0.00129967
-0.000497921
-0.00104317
-0.000996087
-0.000870704
-0.000935095
-0.00110377
-0.00103931
-0.0010867
-0.000923692
-0.000938258
-0.00101329
-0.00135534
-0.000955454
-0.00135421
-0.00122236
-0.000965264
-0.000991225
-0.0010008
-0.00110711
-0.000999169
-0.000935456
-0.00106314
-0.00111558
-0.00131662
-0.0010006
-0.000993973
-0.00143976
-0.0014196
-0.000956169
-0.00096547
-0.000430247
-0.00116573
-0.000808166
-0.0010941
-0.000482652
-0.000501019
-0.000447746
-0.000455075
-0.000482785
-0.000508581
-0.000524117
-0.00122799
-0.000909051
-0.00091662
-0.00104776
-0.00102055
-0.00100781
-0.00106643
-0.000986257
-0.00100872
-0.00102653
-0.00100408
-0.00123367
-0.000912619
-0.00126807
-0.000986289
-0.000952
-0.00100534
-0.00107352
-0.00112115
-0.00104439
-0.00119623
-0.00111744
-0.00103608
-0.000746945
-0.0010422
-0.00101924
-0.00109787
-0.00105109
-0.000995887
-0.00094715
-0.0010434
-0.00108849
-0.00147784
-0.000975728
-0.00143681
-0.00149748
-0.00102533
-0.00143488
-0.0011006
-0.000881448
-0.00120131
-0.00105255
-0.000758598
-0.000665108
-0.00118611
-0.00126336
-0.0010691
-0.000888676
-0.00106945
-0.000506114
-0.00105701
-0.00099169
-0.00050581
-0.000194263
-0.000212507
-0.000915622
-0.000976122
-0.00113388
-0.00108984
-9.99028e-05
-0.000104388
-0.00107965
-0.00109092
-0.00103266
-0.000379898
-0.00091334
-0.00106239
-0.00108279
-0.000934002
-0.000824395
-0.000395601
-0.00156451
-0.00098223
-0.00120045
-0.00121922
-0.000876054
-0.00110877
-0.000856544
-0.000945175
-0.000469086
-0.000708191
-0.00111009
-0.0011171
-0.000960002
-0.00100822
-0.00104047
-0.0010971
-0.00104935
-0.000516783
-0.000921245
-0.00103794
-0.000981508
-0.00147297
-0.000516676
-0.000797002
-0.000820922
-0.000778469
-0.000506318
-0.000506352
-0.000891756
-0.00071948
-0.00102928
-0.000553037
-0.000604624
-0.000197474
-0.000197473
-0.000412272
-0.000656305
-0.000442194
-0.000876967
-0.000948969
-0.00101231
-0.00114073
-0.00103483
-0.000958128
-0.000754171
-0.000465812
-0.000946852
-0.000981131
-0.000949978
-0.000523569
-0.000485007
-0.000376993
-0.00094863
-0.000967698
-0.000777193
-0.000878208
-0.000810416
-0.000742426
-0.000993312
-0.000742361
-0.000876606
-0.000845429
-0.000518519
-0.000640178
-0.000594038
-0.00105042
-0.000414594
-0.000436779
-0.000427253
-0.0009921
-0.000394788
-0.000386589
-0.000689975
-0.000360587
-0.00080361
-0.000804825
-0.000370159
-0.000874474
-0.00041106
-0.000408437
-0.000460331
-0.000389678
-0.000382748
-0.000572441
-0.000454994
-0.000413298
-0.000390893
-0.000800809
-0.000914273
-0.000430426
-0.000883896
-0.000354464
-0.00089671
-0.000712262
-0.000370347
-0.000313694
-0.000349841
-0.000464219
-0.000769942
-0.000634331
-0.000265507
-0.000294706
-0.000858517
-0.000249927
-0.000249924
-0.000283192
-0.000317827
-0.000358375
-0.000417953
-0.000690903
-0.000639642
-0.000859094
-0.000251073
-0.000251071
-0.00075547
-0.00030989
-0.000611932
-0.000280817
-0.000282631
-0.000372393
-0.000647863
-0.000670849
-0.000714676
-0.000654981
-0.000647846
-0.00014157
-0.00104576
-0.00018057
-0.000174974
-0.000844804
-0.000838944
-0.000181324
-0.000125937
-0.000177433
-0.00077924
SCALARS rr_P_ext' float
LOOKUP_TABLE default
0.000163249
0.000377166
0.000300859
0.000393607
0.000206561
0.000319309
0.000161408
0.000391366
0.000335862
0.000423834
0.000148282
0.000392564
0.00034537
0.000365049
0.000428541
0.000358622
0.000308919
0.000348836
0.000311725
0.000305194
0.000343249
6.1535e-05
0.000351692
0.000324199
0.000293863
0.00033941
0.000137645
0.000297922
0.000232491
0.00027696
0.000305102
0.000240344
0.000152449
0.000207362
0.00020389
0.000207827
0.000269299
0.000204272
0.000304783
0.000171361
0.000195409
0.000237352
0.000237375
0.000334849
0.000191532
0.000212023
0.000293439
0.000297318
0.000278879
0.000265242
0.000272496
0.000211686
0.000331466
0.000272021
0.000305135
0.000139001
0.000217703
0.000274015
0.000217694
0.000332728
0.000394324
0.000386901
0.000135497
0.000272778
0.000370587
0.000349365
0.000381447
0.00032966
0.000303181
0.000432884
0.000359617
0.000355696
0.00024144
0.000282912
0.000299025
0.00015727
0.000308967
0.000346121
0.00033243
0.000233675
0.000210275
0.000233244
0.000440384
0.000210483
0.000284358
0.000105258
0.000344145
0.000288132
0.000202836
3.02609e-05
0.000235705
3.29112e-05
0.000262185
0.00025075
0.0002231
0.000203065
0.000193129
0.000372096
0.000309191
0.000296701
0.000251338
0.000240581
0.000201954
0.000352301
0.000358218
0.000322592
0.000284109
0.000287586
0.000214375
0.000429999
0.000275876
0.000144537
0.00019329
0.000385539
0.000361279
0.000262704
0.000252446
0.000160475
0.000261831
0.000261678
0.000228046
0.000417677
0.000429843
0.000369543
0.00040632
0.000319418
0.000181083
0.000401746
0.000174917
0.00022623
0.000187849
0.000383467
0.000374982
0.000376531
0.000250226
0.000153387
0.0001673
0.000275808
0.000337647
0.000153334
0.000209019
0.000325239
0.000245696
0.000397093
0.000195308
0.00032395
0.000294023
0.000283996
0.000181515
0.000231294
0.000258421
0.000370065
0.000215642
0.000334862
0.000388064
0.000394236
0.000258069
0.000215326
0.000214113
0.000338062
0.000283422
0.000213871
0.000141115
0.000208787
0.000207961
0.000362174
0.000218225
0.000220628
0.000238749
0.000212662
0.000320135
0.000222812
0.000196918
0.000249401
0.000235398
0.00028391
0.000316651
0.000303915
0.00025911
0.00030325
0.00023173
0.00035139
0.000377132
0.000209059
0.000369755
0.000208669
0.000365166
0.000335853
0.000313934
0.000318728
0.000373004
0.000175396
0.000230333
0.000213867
0.000375852
0.000369845
0.000342916
0.000374056
0.00038045
0.000319718
0.000391827
0.000262181
0.000236115
0.000428235
0.000248204
0.000388986
0.000309704
0.000196392
0.00023811
0.000387724
0.000323293
0.00029385
0.000378391
0.000371679
0.000239231
0.000238275
0.000230292
0.000329789
0.000363509
0.000417762
0.000401301
0.000436644
0.000395667
0.000432385
0.000362742
0.000379789
0.000382733
0.000360812
0.000379056
0.000349301
0.000344102
0.000242398
0.000326878
0.000382282
0.000265081
0.000390462
0.000358715
0.000414484
0.000248248
0.000394143
0.000376916
0.00024399
0.000338347
0.000242327
0.000379936
0.000346276
0.000254037
0.000238942
0.000205994
0.00023698
0.000380445
0.000172939
0.000292661
0.000238038
0.000267584
0.000394507
0.000382122
0.000120474
0.000383498
0.000207119
0.000225328
0.000392376
0.000318961
0.000227946
0.000438042
0.000248392
0.000120473
0.000230422
0.000340799
0.000425627
0.000322269
0.000380133
0.000355541
0.00018708
0.000182656
0.000154892
0.000177738
0.000254882
0.000194064
0.00031303
0.00019518
0.00033788
0.000240958
0.000230767
0.000271348
0.000251259
0.000334935
0.000240939
0.000247651
0.000110549
0.000251379
0.000363438
0.000363689
0.00032871
0.000240499
0.000157845
0.00045665
0.000305973
0.000255154
0.000235125
0.000235733
0.000242485
0.000297393
0.000238201
0.000169576
0.000235126
0.00016057
0.00029273
0.000239773
0.000103036
0.00022589
0.000268389
0.000239743
0.000370801
0.000249057
0.000322082
0.000122402
0.000258454
0.000246195
0.000216491
0.000231106
0.000273296
0.000257996
0.000269555
0.000228352
0.000232002
0.000250681
0.000336567
0.00023625
0.000335784
0.000302925
0.000240089
0.000245099
0.000247576
0.000274172
0.000247205
0.00023128
0.000263038
0.000277125
0.000326454
0.000247539
0.000245667
0.000357105
0.000352112
0.000236415
0.000240137
0.000105477
0.000288879
0.00019909
0.000270962
0.000117557
0.000122033
0.000109065
0.000110847
0.000117601
0.000123871
0.000127661
0.000304959
0.000226262
0.000227231
0.000259414
0.000252507
0.000249342
0.000264485
0.000243989
0.000249531
0.000255508
0.000248416
0.000306519
0.000225328
0.00031504
0.000244375
0.0002357
0.000248717
0.000266942
0.000277832
0.000258597
0.00029644
0.000276686
0.000256308
0.000184461
0.000258029
0.00025255
0.000272787
0.000260091
0.000246339
0.000234361
0.000258309
0.0002697
0.000366522
0.00024143
0.000356341
0.000370998
0.000253844
0.000355795
0.000272682
0.00021807
0.000298206
0.000260645
0.000188796
0.000163571
0.000294559
0.000313834
0.000264899
0.000220074
0.000265402
0.000124095
0.000261901
0.00024557
0.00012435
4.84567e-05
5.30093e-05
0.000226897
0.000241511
0.00028082
0.000269682
2.49636e-05
2.60845e-05
0.000267713
0.000270511
0.000256049
9.31458e-05
0.000225936
0.000263765
0.000268071
0.000231212
0.000204096
9.6976e-05
0.000388342
0.000243008
0.000297471
0.000302123
0.000216864
0.000274533
0.000212034
0.000233997
0.000115239
0.000174443
0.000274856
0.000276822
0.000237731
0.000249569
0.000257638
0.0002717
0.000259856
0.000127094
0.000228938
0.000256822
0.00024357
0.000365643
0.000127058
0.000197488
0.000203394
0.000193628
0.000126285
0.000126293
0.000221697
0.000177976
0.000255046
0.000135983
0.00015077
4.93318e-05
4.93313e-05
0.000101049
0.000163459
0.000110186
0.00021728
0.00023588
0.00025095
0.000282956
0.000256889
0.000237918
0.000187
0.00011421
0.000234664
0.000243454
0.000235852
0.000128532
0.00012081
9.26621e-05
0.000235507
0.000240045
0.000192122
0.000217694
0.000200937
0.000184678
0.000246324
0.00018466
0.000217228
0.000209899
0.00012918
0.000159502
0.000146071
0.000260593
0.000101583
0.000107044
0.000104656
0.000246258
9.67829e-05
9.46719e-05
0.000170794
8.8338e-05
0.000200001
0.000200302
9.07006e-05
0.000216563
0.000100988
0.000100069
0.000113066
9.54679e-05
9.40102e-05
0.000142581
0.000111831
0.000101326
9.57783e-05
0.000198547
0.000227085
0.000105701
0.000219151
8.68115e-05
0.000222412
0.000176405
9.07243e-05
7.70204e-05
8.56852e-05
0.000113781
0.000190753
0.0001579
6.63134e-05
7.35952e-05
0.00021298
6.242e-05
6.24191e-05
7.07237e-05
7.93019e-05
8.81035e-05
0.000104119
0.000171778
0.000159223
0.000213093
6.26608e-05
6.266e-05
0.000188096
7.59451e-05
0.00015154
6.88314e-05
6.94554e-05
9.15211e-05
0.00016153
0.000167256
0.000178169
0.000163291
0.000161524
3.53515e-05
0.000260715
4.50653e-05
4.37028e-05
0.000210637
0.000209179
4.52912e-05
3.14491e-05
4.42845e-05
0.000194251
SCALARS rr_S' float
LOOKUP_TABLE default
0.000455524
0.00104079
0.000831015
0.00108636
0.000568443
0.000881995
0.000450403
0.00108032
0.000928556
0.00116962
0.000413471
0.00108363
0.000953566
0.00100724
0.00118051
0.000990402
0.000852043
0.000963043
0.000862253
0.000843222
0.000948503
0.000168718
0.000971828
0.000895717
0.000811927
0.000936847
0.000383206
0.000822804
0.00064504
0.00076103
0.000842414
0.000666812
0.000424487
0.000570156
0.000560422
0.00057144
0.000739892
0.000561548
0.000841551
0.000477131
0.000542173
0.00065209
0.000652158
0.000924543
0.000532742
0.000588156
0.000811482
0.000821841
0.000770285
0.000736415
0.000756251
0.000586651
0.000912318
0.000753832
0.000839916
0.000386495
0.000598375
0.000759357
0.000598354
0.000919246
0.00108765
0.0010662
0.000376951
0.000751749
0.00102123
0.000963601
0.00105209
0.00090993
0.000837719
0.0011945
0.000989821
0.000979035
0.00066989
0.000780048
0.000825917
0.00043812
0.00085094
0.000954662
0.000917584
0.000647426
0.000583938
0.000641653
0.00121414
0.000584702
0.000788681
0.000292736
0.000950465
0.000794575
0.000564179
8.30146e-05
0.000653203
9.02867e-05
0.000722054
0.000691693
0.000618209
0.000563623
0.000536311
0.00102685
0.00085157
0.00081927
0.000695657
0.000667087
0.000561022
0.000972508
0.000988653
0.000890303
0.000783185
0.000794173
0.000595538
0.0011864
0.000762169
0.000401881
0.000537166
0.00106433
0.000997123
0.000727986
0.000693878
0.000445653
0.000719694
0.000725115
0.000630945
0.00115072
0.00118616
0.00101905
0.00112098
0.000879829
0.000497915
0.00110868
0.000485737
0.000626882
0.000517042
0.00105826
0.00103388
0.00103907
0.00069382
0.000421596
0.000464875
0.000761451
0.000930886
0.000421453
0.000579492
0.000897504
0.000679663
0.00109581
0.000542413
0.000894139
0.000811499
0.000784424
0.000501377
0.000640394
0.000714347
0.0010212
0.000598292
0.000924535
0.0010709
0.00108796
0.000711951
0.000596911
0.000593527
0.000933394
0.000783416
0.000593332
0.000392399
0.000579442
0.000576502
0.000999533
0.000604951
0.000611622
0.0006624
0.00058952
0.000881625
0.000617463
0.00054651
0.000687969
0.000652325
0.000782665
0.000872037
0.000838929
0.000713134
0.000836914
0.000642917
0.000969727
0.00104078
0.00057959
0.00101964
0.000579166
0.00100699
0.000925806
0.000864515
0.000879576
0.00102859
0.000487008
0.000638293
0.000593359
0.00103721
0.00102108
0.000946682
0.00103134
0.00104987
0.000881864
0.00108124
0.00072511
0.000654133
0.00118073
0.000688613
0.00107243
0.000854219
0.000544593
0.000656088
0.00106991
0.000890709
0.000810745
0.00104436
0.00102471
0.000662343
0.000657353
0.000637932
0.000909093
0.00100289
0.00115258
0.00110729
0.00120475
0.00109168
0.00119301
0.00100095
0.00104629
0.00105443
0.00099401
0.00104426
0.000961472
0.00094716
0.000671166
0.000901959
0.00105522
0.000732767
0.00107561
0.000988121
0.00114407
0.000687728
0.001088
0.00104015
0.000675487
0.000932267
0.000670917
0.00104744
0.000955905
0.000703286
0.00066186
0.000572065
0.000658063
0.00104887
0.00048037
0.000808128
0.000659393
0.000740107
0.00108902
0.00105427
0.000330967
0.00105809
0.000575354
0.000624183
0.00108309
0.000880456
0.000631518
0.00120856
0.000687083
0.000330967
0.00063828
0.000940215
0.00117378
0.000889681
0.00104719
0.000980495
0.000514916
0.000504317
0.000430601
0.000494315
0.00070174
0.000536245
0.000864087
0.00054038
0.000930964
0.000664683
0.000639243
0.000748496
0.000695411
0.000924371
0.000666842
0.000686057
0.000303451
0.000692208
0.00100114
0.00100185
0.000907043
0.000665571
0.000434055
0.00125939
0.000845724
0.000706101
0.0006509
0.000649024
0.000671326
0.000819016
0.000659338
0.00047166
0.000650717
0.000445963
0.000806916
0.000663815
0.000282832
0.000625258
0.000740006
0.000663816
0.00102248
0.000689404
0.000889528
0.000340584
0.000713956
0.000681613
0.000596075
0.000639873
0.000755402
0.000711416
0.000743811
0.000632085
0.000642063
0.000693435
0.000927769
0.000653829
0.000926894
0.000836617
0.000660828
0.000678309
0.000684881
0.000757698
0.000683774
0.000640139
0.000727551
0.000763665
0.000901165
0.000684747
0.000680165
0.000985473
0.000971674
0.000654316
0.000660969
0.000294229
0.000797856
0.000552882
0.000748792
0.000329897
0.000342451
0.000306041
0.000311049
0.00032999
0.000347619
0.00035824
0.000840597
0.000622373
0.000627372
0.000717068
0.000698408
0.00068969
0.000729933
0.000674933
0.0006903
0.000702803
0.000687131
0.000844517
0.000624447
0.000868056
0.000675031
0.000651528
0.000687992
0.000734929
0.000767344
0.000714764
0.000818727
0.000764756
0.000709025
0.000511094
0.000713255
0.000697585
0.000751556
0.000719312
0.000681516
0.00064818
0.000714074
0.000744979
0.00101153
0.000667737
0.000983447
0.00102489
0.000701709
0.000982113
0.000753267
0.00060321
0.000822305
0.00072035
0.000519363
0.000454953
0.000811931
0.000864825
0.000731711
0.000608202
0.000732037
0.000346116
0.000723435
0.000678701
0.000345982
0.00013302
0.000145514
0.000626672
0.000668003
0.000776019
0.000745831
6.84167e-05
7.14885e-05
0.000738971
0.000746688
0.000706807
0.000259801
0.000625029
0.000727221
0.000741035
0.000639205
0.000564196
0.000270534
0.00107091
0.00067218
0.000821616
0.000834461
0.000599546
0.000758823
0.000586194
0.000646854
0.000320843
0.000484484
0.000759723
0.000764568
0.000657015
0.000689994
0.000712084
0.000750849
0.000718162
0.000353495
0.000630651
0.000710312
0.000671837
0.00100826
0.00035342
0.000545484
0.000561851
0.000532946
0.000346696
0.000346719
0.00061048
0.000492364
0.000704458
0.000378288
0.000414003
0.000135234
0.000135233
0.000281932
0.000449355
0.000302768
0.000600209
0.000649641
0.000692864
0.000780796
0.000708349
0.000655863
0.000516195
0.000318554
0.000648054
0.000671574
0.000650275
0.000358088
0.000332073
0.000257865
0.00064935
0.000662364
0.000531832
0.00060108
0.000554691
0.000508272
0.000679882
0.000508228
0.00059997
0.000578711
0.000355022
0.000438323
0.000406335
0.000718987
0.000283515
0.000298692
0.000292166
0.000679099
0.00026998
0.000264353
0.000472197
0.000246581
0.000550183
0.000551014
0.00025313
0.000598482
0.000281156
0.000279304
0.00031485
0.000266475
0.000261786
0.000391937
0.000311215
0.00028264
0.000267308
0.000548114
0.000625855
0.000294392
0.000604983
0.000242387
0.00061377
0.000487469
0.000253254
0.000214549
0.000239228
0.000317456
0.000526958
0.000434293
0.000181822
0.000201815
0.000587636
0.000171151
0.00017115
0.000193931
0.000217635
0.000245132
0.000286165
0.000472983
0.000437928
0.000588024
0.000171927
0.000171926
0.000517239
0.000211916
0.0004188
0.000192037
0.000193318
0.000254716
0.000443605
0.000459344
0.00048935
0.000448477
0.000443594
9.69469e-05
0.000716049
0.000123649
0.000119824
0.000578456
0.000574444
0.000124173
8.62419e-05
0.000121502
0.000533555
SCALARS rr_P' float
LOOKUP_TABLE default
4.73421e-05
0.000102623
8.23159e-05
0.000107218
5.53019e-05
8.73753e-05
4.6818e-05
0.00010668
9.23878e-05
0.000115348
4.28403e-05
0.000107008
9.42664e-05
9.92614e-05
0.000115428
9.80253e-05
8.38127e-05
9.51621e-05
8.59982e-05
8.36375e-05
9.41443e-05
1.6119e-05
9.64605e-05
8.88382e-05
8.05396e-05
9.24918e-05
3.94105e-05
8.14577e-05
6.52743e-05
7.34998e-05
8.32907e-05
6.74703e-05
4.36872e-05
5.52387e-05
5.4203e-05
5.53657e-05
7.14169e-05
5.43474e-05
8.32143e-05
4.90977e-05
5.48723e-05
6.29283e-05
6.29376e-05
9.14091e-05
5.45587e-05
5.94718e-05
8.08424e-05
8.16968e-05
7.62929e-05
7.4767e-05
7.66346e-05
5.90448e-05
8.88289e-05
7.58575e-05
8.18129e-05
3.95132e-05
5.78667e-05
7.64138e-05
5.78673e-05
9.11556e-05
0.000107012
0.000104434
3.86338e-05
7.3651e-05
0.000100022
9.47836e-05
0.000103496
8.98303e-05
8.31199e-05
0.000117766
9.63853e-05
9.53375e-05
6.77987e-05
7.66013e-05
8.17947e-05
4.51922e-05
8.31112e-05
9.39079e-05
9.0591e-05
6.50854e-05
5.93468e-05
6.23185e-05
0.00011919
5.95151e-05
7.96827e-05
2.99599e-05
9.40957e-05
7.80924e-05
5.77744e-05
7.95285e-06
6.57373e-05
8.65028e-06
7.05051e-05
6.80798e-05
6.21846e-05
5.71439e-05
5.45008e-05
0.000101275
8.31784e-05
8.10276e-05
6.95919e-05
6.73117e-05
5.71115e-05
9.60501e-05
9.75542e-05
8.7837e-05
7.68352e-05
7.85795e-05
6.06302e-05
0.0001169
7.55753e-05
4.10862e-05
5.47856e-05
0.000105151
9.84002e-05
7.32437e-05
6.71066e-05
4.52972e-05
6.96142e-05
7.29416e-05
6.30028e-05
0.000112582
0.000116965
0.000100145
0.000110416
8.59877e-05
4.82452e-05
0.000109349
4.9361e-05
6.30587e-05
5.035e-05
0.000104385
0.000101522
0.000102475
7.00033e-05
4.07717e-05
4.73794e-05
7.52476e-05
9.13835e-05
4.07599e-05
5.84342e-05
8.84947e-05
6.78109e-05
0.000108065
5.51446e-05
8.82592e-05
8.00801e-05
7.76948e-05
4.96676e-05
6.41671e-05
7.10238e-05
0.000100699
6.0545e-05
9.13872e-05
0.000105612
0.00010731
7.01061e-05
6.0158e-05
5.98077e-05
9.22758e-05
7.78708e-05
6.00196e-05
4.01317e-05
5.87187e-05
5.81058e-05
9.86088e-05
6.09705e-05
6.16477e-05
6.70296e-05
5.94113e-05
8.60764e-05
6.21353e-05
5.53848e-05
6.77112e-05
6.56354e-05
7.67977e-05
8.51437e-05
8.2849e-05
6.94175e-05
8.25649e-05
6.5054e-05
9.56475e-05
0.000102661
5.84392e-05
0.000100201
5.87146e-05
9.89604e-05
9.08147e-05
8.43885e-05
8.67481e-05
0.000101073
4.94621e-05
6.42262e-05
6.004e-05
0.000102296
0.000100915
9.35379e-05
0.000101276
0.000103534
8.67588e-05
0.000106615
7.22707e-05
6.5733e-05
0.000115952
6.96723e-05
0.000105281
8.40295e-05
5.49691e-05
6.42227e-05
0.00010549
8.71469e-05
7.98732e-05
0.000103065
0.00010059
6.6355e-05
6.47333e-05
6.40703e-05
8.91772e-05
9.87936e-05
0.000113541
0.000109144
0.00011872
0.000107575
0.000117564
9.8677e-05
0.00010234
0.000103152
9.72267e-05
0.000102135
9.36479e-05
9.22522e-05
6.72639e-05
8.89059e-05
0.000104203
7.28585e-05
0.000105171
9.6597e-05
0.000112962
6.91001e-05
0.00010746
0.000102586
6.76549e-05
9.12523e-05
6.72136e-05
0.000102807
9.44336e-05
7.04322e-05
6.64582e-05
5.81479e-05
6.6868e-05
0.00010296
4.88752e-05
7.99333e-05
6.62283e-05
7.37927e-05
0.000107567
0.000103865
3.19299e-05
0.000104256
5.8559e-05
6.26917e-05
0.000106959
8.69473e-05
6.34681e-05
0.000119071
6.85333e-05
3.19312e-05
6.40999e-05
9.26096e-05
0.000115385
8.79046e-05
0.000102405
9.63777e-05
5.01356e-05
4.98576e-05
4.39863e-05
5.05918e-05
6.84253e-05
5.32189e-05
8.53306e-05
5.41339e-05
9.11181e-05
6.54213e-05
6.4201e-05
7.36615e-05
6.95533e-05
9.11972e-05
6.66921e-05
6.89243e-05
2.91572e-05
6.75498e-05
9.7876e-05
9.79542e-05
8.94184e-05
6.65395e-05
4.20769e-05
0.000123823
8.40518e-05
7.05788e-05
6.51694e-05
6.32865e-05
6.72411e-05
7.99726e-05
6.59765e-05
4.82964e-05
6.50625e-05
4.53515e-05
7.91457e-05
6.64872e-05
2.71779e-05
6.25658e-05
7.26727e-05
6.65279e-05
0.000100461
6.8995e-05
8.806e-05
3.4935e-05
7.07559e-05
6.82788e-05
5.81384e-05
6.41165e-05
7.5075e-05
6.98934e-05
7.33304e-05
6.32548e-05
6.4193e-05
6.91767e-05
9.10059e-05
6.53753e-05
9.15325e-05
8.28205e-05
6.43473e-05
6.78165e-05
6.83404e-05
7.52424e-05
6.81903e-05
6.40367e-05
7.25476e-05
7.47912e-05
8.90036e-05
6.83111e-05
6.81418e-05
9.71842e-05
9.58149e-05
6.54377e-05
6.43642e-05
3.0541e-05
7.89983e-05
5.61941e-05
7.43418e-05
3.51975e-05
3.65347e-05
3.26405e-05
3.31789e-05
3.51942e-05
3.70905e-05
3.82155e-05
8.24353e-05
6.04173e-05
6.20163e-05
7.12829e-05
6.96365e-05
6.87822e-05
7.20119e-05
6.73349e-05
6.88858e-05
6.82175e-05
6.85285e-05
8.26377e-05
6.28447e-05
8.49763e-05
6.68824e-05
6.4772e-05
6.86269e-05
7.16532e-05
7.59754e-05
7.10321e-05
8.10592e-05
7.59968e-05
7.07438e-05
5.13899e-05
7.09115e-05
6.91016e-05
7.35287e-05
7.1685e-05
6.80321e-05
6.46083e-05
7.10147e-05
7.38078e-05
9.97866e-05
6.65621e-05
9.7024e-05
0.000101588
6.97751e-05
9.69753e-05
7.4654e-05
6.0168e-05
8.07956e-05
7.15511e-05
5.04382e-05
4.65834e-05
7.9623e-05
8.46995e-05
7.24897e-05
6.04008e-05
7.20152e-05
3.59029e-05
7.16738e-05
6.74193e-05
3.54783e-05
1.27854e-05
1.39842e-05
6.20522e-05
6.66076e-05
7.70369e-05
7.43242e-05
6.5225e-06
6.81535e-06
7.29669e-05
7.37224e-05
6.98036e-05
2.69517e-05
6.2375e-05
7.14002e-05
7.36807e-05
6.35848e-05
5.61034e-05
2.80907e-05
0.000105251
6.70423e-05
8.13641e-05
8.26354e-05
5.96447e-05
7.54155e-05
5.83172e-05
6.43235e-05
3.30041e-05
4.92633e-05
7.55086e-05
7.57088e-05
6.52559e-05
6.86569e-05
7.07499e-05
7.45542e-05
7.13299e-05
3.61937e-05
6.1656e-05
7.08089e-05
6.61014e-05
9.90653e-05
3.61979e-05
5.40302e-05
5.56771e-05
5.18951e-05
3.3337e-05
3.33401e-05
5.9579e-05
4.914e-05
6.9773e-05
3.87656e-05
3.98514e-05
1.2908e-05
1.29082e-05
2.92912e-05
4.34909e-05
2.92404e-05
5.94773e-05
6.34475e-05
6.8491e-05
7.69778e-05
6.95892e-05
6.43465e-05
5.09757e-05
3.30487e-05
6.41346e-05
6.61034e-05
6.38512e-05
3.69485e-05
3.21242e-05
2.64655e-05
6.37733e-05
6.52883e-05
5.32385e-05
5.94334e-05
5.47883e-05
4.94754e-05
6.71064e-05
4.9473e-05
5.94081e-05
5.68195e-05
3.43171e-05
4.23538e-05
4.16321e-05
7.08369e-05
2.94949e-05
3.10426e-05
3.04309e-05
6.67425e-05
2.80246e-05
2.75638e-05
4.69829e-05
2.56685e-05
5.34261e-05
5.35087e-05
2.63282e-05
5.94287e-05
2.89161e-05
2.90642e-05
3.24146e-05
2.77348e-05
2.69518e-05
3.79226e-05
3.1948e-05
2.93327e-05
2.78066e-05
5.41492e-05
6.13337e-05
3.03335e-05
5.97616e-05
2.52654e-05
6.05281e-05
4.83886e-05
2.63684e-05
2.21243e-05
2.49278e-05
3.2982e-05
5.22312e-05
4.2139e-05
1.73724e-05
1.92961e-05
5.79008e-05
1.63554e-05
1.63555e-05
1.85376e-05
2.08904e-05
2.51391e-05
2.76692e-05
4.61419e-05
4.2491e-05
5.79766e-05
1.64847e-05
1.64849e-05
5.01357e-05
2.20293e-05
4.15921e-05
1.99479e-05
1.9857e-05
2.6156e-05
4.27276e-05
4.42497e-05
4.71565e-05
4.32126e-05
4.27278e-05
9.27168e-06
6.89937e-05
1.18559e-05
1.14473e-05
5.57105e-05
5.53205e-05
1.18601e-05
8.24635e-06
1.16474e-05
5.14329e-05
SCALARS rr_T' float
LOOKUP_TABLE default
0.000206247
0.000469889
0.000375269
0.000490491
0.000256459
0.000398293
0.000203931
0.00048777
0.000419414
0.000528056
0.00018718
0.000489264
0.000430565
0.000454729
0.000532743
0.000447225
0.000384628
0.000434837
0.000389517
0.000380808
0.000428368
7.60512e-05
0.000438906
0.000404515
0.000366677
0.000422989
0.000173403
0.000371551
0.000291622
0.000343227
0.000380378
0.000301464
0.00019209
0.000257181
0.000252767
0.000257761
0.000333684
0.000253282
0.000379992
0.000215911
0.000245118
0.000294083
0.000294114
0.000417462
0.000241014
0.000265893
0.000366559
0.000371195
0.000347843
0.000332994
0.000341927
0.000265146
0.000411621
0.000340701
0.000378962
0.000174832
0.000269883
0.000343199
0.000269874
0.000415137
0.000490992
0.000481196
0.000170538
0.00033928
0.000460898
0.000434984
0.000474936
0.000410835
0.00037833
0.000539287
0.000446592
0.000441726
0.000302859
0.000352095
0.000372962
0.000198285
0.000383987
0.000430949
0.000414293
0.000292596
0.00026406
0.000289463
0.000548028
0.000264428
0.00035653
0.000132429
0.000429198
0.000358667
0.000255235
3.7425e-05
0.000295223
4.07037e-05
0.000325825
0.000312251
0.000279399
0.000254841
0.000242521
0.000463603
0.000384272
0.000369935
0.000314308
0.00030154
0.000253721
0.0004391
0.000446368
0.00040196
0.000353496
0.000358611
0.000269332
0.000535614
0.000344199
0.000181794
0.000242958
0.000480565
0.000450194
0.000329016
0.000312958
0.000201527
0.000324605
0.000327715
0.000285044
0.000519316
0.000535525
0.000459996
0.000506073
0.00039704
0.000224596
0.000500549
0.000219651
0.00028332
0.000233283
0.000477786
0.000466671
0.000469121
0.000313622
0.000190152
0.000210251
0.000343812
0.000420177
0.000190088
0.000261936
0.000405197
0.000307038
0.000494735
0.000245285
0.000403703
0.000366384
0.000354228
0.000226412
0.000289365
0.000322648
0.00046105
0.000270489
0.000417454
0.000483489
0.000491198
0.000321403
0.0002698
0.000268269
0.000421458
0.000353838
0.00026824
0.000177508
0.000261987
0.000260578
0.000451275
0.000273435
0.000276452
0.000299471
0.00026646
0.000397829
0.000279068
0.000247097
0.000310569
0.000294822
0.000353264
0.000393503
0.000378783
0.000321748
0.000377854
0.000290661
0.000437813
0.000469892
0.000261979
0.000460259
0.000261867
0.000454549
0.000417864
0.000390103
0.00039711
0.000464295
0.000220219
0.000288482
0.000268256
0.000468282
0.000461047
0.000427448
0.000465524
0.000473997
0.000398089
0.000488157
0.000327551
0.00029562
0.000532957
0.000311318
0.000484068
0.000385609
0.000246175
0.000296094
0.000483037
0.00040197
0.000366011
0.000471521
0.000462524
0.000299281
0.000296756
0.000288289
0.00041032
0.000452764
0.00052034
0.000499913
0.000543905
0.000492857
0.000538601
0.000451898
0.000472179
0.000475858
0.000448587
0.000471261
0.000433808
0.00042735
0.000303273
0.000407204
0.000476447
0.000330966
0.000485405
0.000445916
0.000516563
0.000310801
0.000491253
0.000469607
0.000305215
0.000420735
0.000303154
0.000472781
0.000431616
0.000317774
0.000299099
0.000258693
0.000297579
0.00047343
0.000217238
0.000364906
0.000297989
0.000334333
0.000491714
0.000475959
0.000149259
0.000477689
0.000260197
0.000282077
0.000489032
0.000397532
0.000285402
0.000545617
0.000310386
0.000149259
0.000288446
0.000424465
0.000529848
0.00040171
0.00047258
0.000442594
0.00023232
0.000227716
0.000194776
0.00022362
0.000316635
0.000242181
0.000390141
0.00024417
0.000420145
0.000300057
0.000288883
0.000337891
0.000314193
0.00041734
0.000301284
0.000310044
0.000136822
0.000312348
0.000451795
0.000452117
0.000409501
0.000300704
0.000195796
0.000568495
0.000381977
0.000319012
0.000294099
0.000292849
0.000303336
0.000369578
0.000297902
0.000213378
0.000293995
0.000201673
0.000364202
0.000299942
0.000127526
0.000282504
0.000334024
0.000299952
0.000461537
0.00031149
0.000401679
0.000154091
0.000322417
0.000307985
0.000268962
0.000289131
0.000341183
0.000321124
0.00033581
0.000285591
0.000290084
0.000313258
0.00041875
0.000295402
0.000418499
0.000377786
0.000298153
0.00030646
0.000309398
0.000342205
0.000308887
0.000289224
0.000328661
0.000344654
0.000406885
0.000309333
0.000307334
0.000444915
0.000438684
0.000295625
0.000298217
0.000133212
0.000360287
0.000250017
0.000338179
0.000149604
0.000155297
0.000138783
0.000141055
0.000149644
0.000157641
0.000162455
0.000379401
0.000280763
0.000283279
0.000323874
0.000315496
0.00031156
0.000329553
0.000304901
0.000311847
0.000317045
0.000310405
0.000381126
0.000282227
0.000391762
0.000304835
0.000294272
0.000310797
0.000331608
0.000346507
0.000322827
0.00036971
0.000345406
0.000320304
0.000230985
0.000322154
0.000315014
0.00033917
0.000324931
0.000307885
0.000292801
0.000322528
0.00033642
0.000456687
0.000301637
0.000444011
0.000462836
0.000316941
0.000443428
0.000340169
0.000272497
0.000371181
0.000325342
0.000234297
0.000205819
0.000366461
0.000390309
0.000330427
0.000274687
0.000330455
0.000156698
0.000326692
0.000306531
0.000156531
5.99781e-05
6.56108e-05
0.000282987
0.000301762
0.000350473
0.000336908
3.08362e-05
3.22207e-05
0.00033365
0.000337131
0.000319129
0.00011762
0.000282362
0.000328249
0.000334701
0.000288714
0.000254831
0.000122487
0.000483408
0.000303653
0.000371018
0.000376819
0.000270803
0.000342728
0.000264773
0.000292165
0.000145185
0.000219092
0.000343136
0.000345257
0.000296735
0.00031166
0.000321612
0.00033911
0.000324352
0.000159919
0.000284597
0.000320871
0.000303281
0.000455119
0.000159888
0.000246329
0.000253726
0.000240456
0.000156328
0.000156338
0.000275472
0.00022243
0.000318117
0.000171144
0.000186687
6.09552e-05
6.09549e-05
0.000127652
0.000202679
0.000136549
0.000271047
0.000293151
0.00031285
0.000352507
0.000319741
0.000296027
0.000233066
0.000144221
0.000292633
0.000303169
0.000293518
0.000162067
0.000149778
0.00011667
0.000293104
0.000299033
0.000240298
0.000271409
0.000250449
0.000229321
0.000306963
0.000229301
0.000270928
0.000261214
0.000160123
0.00019769
0.00018383
0.000324591
0.000128374
0.000135238
0.000132301
0.000306542
0.000122233
0.000119714
0.000213284
0.000111655
0.000248197
0.000248573
0.000114615
0.000270297
0.000127224
0.000126469
0.00014248
0.000120661
0.000118467
0.000176779
0.000140813
0.000127963
0.000121036
0.000247482
0.000282467
0.000133228
0.000273158
0.000109765
0.000277102
0.000220155
0.000114677
9.70994e-05
0.000108331
0.000143736
0.000237971
0.00019591
8.19585e-05
9.0974e-05
0.000265292
7.71494e-05
7.71487e-05
8.74189e-05
9.81244e-05
0.000110906
0.000129068
0.000213423
0.000197551
0.000265476
7.7512e-05
7.75114e-05
0.000233315
9.59534e-05
0.000189147
8.6948e-05
8.747e-05
0.00011525
0.000200042
0.00020714
0.000220675
0.000202242
0.000200037
4.37022e-05
0.000322904
5.57463e-05
5.40118e-05
0.000260851
0.000259041
5.59716e-05
3.88761e-05
5.47775e-05
0.000240614
SCALARS rr_uec(SIM,_S_ext) float
LOOKUP_TABLE default
0.0140509
0.0320077
0.0255626
0.0334112
0.0174684
0.027131
0.0138931
0.0332256
0.0285699
0.0359698
0.0127522
0.0333274
0.029329
0.0309748
0.036288
0.030464
0.0261997
0.0296201
0.0265337
0.0259401
0.0291797
0.00517984
0.0298976
0.0275549
0.0249774
0.028813
0.0118132
0.0253093
0.0198659
0.0233781
0.0259104
0.0205364
0.0130862
0.0175175
0.0172166
0.017557
0.0227281
0.0172518
0.0258841
0.014709
0.016698
0.0200308
0.0200329
0.0284365
0.0164191
0.0181132
0.0249697
0.0252852
0.0236944
0.0226846
0.023293
0.018062
0.0280373
0.0232088
0.0258128
0.0119102
0.0183824
0.023379
0.0183818
0.0282785
0.0334449
0.032777
0.0116178
0.0231103
0.0313944
0.0296296
0.0323512
0.027985
0.0257713
0.0367349
0.0304193
0.0300879
0.0206314
0.0239833
0.0254054
0.0135084
0.0261552
0.0293547
0.0282206
0.019932
0.0179885
0.0197163
0.0373297
0.0180137
0.0242874
0.00902162
0.0292361
0.0244311
0.0173879
0.00254903
0.0201108
0.00277235
0.0221935
0.0212695
0.0190328
0.0173605
0.0165211
0.0315794
0.0261747
0.0251991
0.0214106
0.0205413
0.0172843
0.0299105
0.0304054
0.0273805
0.0240788
0.0244277
0.0183478
0.0364848
0.0234463
0.0123846
0.0165512
0.032735
0.0306661
0.0224128
0.0213163
0.0137285
0.0221096
0.0223242
0.0194171
0.0353736
0.0364787
0.0313333
0.0344724
0.0270445
0.0152979
0.0340961
0.0149632
0.0193
0.01589
0.0325457
0.031788
0.0319554
0.0213643
0.0129517
0.0143229
0.0234196
0.028621
0.0129474
0.0178434
0.0276007
0.0209152
0.0337
0.0167095
0.0274993
0.024957
0.0241292
0.0154227
0.0197116
0.0219783
0.0314057
0.0184263
0.0284359
0.032934
0.0334593
0.021893
0.018379
0.0182747
0.0287088
0.0241029
0.0182731
0.0120926
0.0178472
0.0177508
0.0307397
0.0186267
0.0188321
0.0204006
0.0181515
0.0270981
0.0190104
0.0168329
0.0211549
0.0200835
0.024063
0.0268034
0.0258017
0.0219156
0.0257384
0.0198004
0.0298227
0.0320079
0.0178463
0.0313511
0.0178391
0.0309623
0.0284632
0.0265718
0.0270501
0.031626
0.0150019
0.0196516
0.0182742
0.0318983
0.0314055
0.0291168
0.0317098
0.0322876
0.0271165
0.0332521
0.0223125
0.0201379
0.0363032
0.0212076
0.0329729
0.0262663
0.0167698
0.0201686
0.0329033
0.0273802
0.0249315
0.0321188
0.0315054
0.0203871
0.020214
0.0196385
0.0279494
0.0308411
0.0354443
0.0340529
0.0370495
0.0335723
0.0366882
0.030782
0.0321628
0.0324134
0.0305558
0.0321002
0.0295485
0.0291086
0.0206591
0.0277376
0.0324547
0.0225449
0.0330636
0.0303738
0.0351873
0.021172
0.0334633
0.0319884
0.0207912
0.0286586
0.0206509
0.0322041
0.029401
0.0216468
0.0203749
0.0176229
0.0202721
0.0322483
0.0147989
0.0248565
0.0202992
0.0227746
0.0334948
0.0324212
0.0101664
0.0325391
0.0177253
0.0192153
0.033312
0.0270788
0.0194418
0.0371662
0.0211432
0.0101664
0.0196491
0.0289135
0.0360914
0.0273636
0.03219
0.0301478
0.0158243
0.0155115
0.0132689
0.015234
0.0215674
0.0164969
0.0265754
0.0166328
0.0286184
0.0204389
0.0196789
0.023016
0.0214027
0.0284279
0.0205233
0.0211204
0.00931916
0.0212755
0.0307742
0.0307962
0.027894
0.0204838
0.0133363
0.0387239
0.0260197
0.0217309
0.020034
0.0199473
0.0206632
0.0251738
0.020293
0.0145364
0.0200268
0.0137385
0.024808
0.0204321
0.008686
0.0192441
0.0227525
0.0204328
0.0314383
0.0212186
0.0273615
0.0104973
0.0219625
0.02098
0.0183203
0.0196957
0.0232409
0.0218737
0.0228746
0.0194544
0.0197604
0.0213389
0.0285235
0.0201226
0.028507
0.025734
0.0203085
0.0208759
0.021076
0.0233104
0.0210411
0.0197018
0.0223881
0.0234763
0.0277159
0.0210715
0.0209356
0.0303063
0.0298818
0.0201379
0.0203128
0.00907552
0.0245419
0.0170318
0.0230362
0.0101935
0.0105814
0.0094562
0.00961103
0.0101962
0.0107411
0.0110691
0.0258432
0.0191237
0.0192963
0.0220618
0.0214914
0.0212232
0.0224482
0.0207696
0.0212428
0.021595
0.0211445
0.0259605
0.0192256
0.0266852
0.0207648
0.0200454
0.0211712
0.0225873
0.0236033
0.0219905
0.0251838
0.0235286
0.0218189
0.0157349
0.0219447
0.0214581
0.0231026
0.022134
0.020973
0.0199454
0.0219702
0.0229162
0.0311082
0.0205473
0.0302447
0.0315275
0.0215896
0.0302051
0.0231717
0.0185623
0.0252835
0.0221617
0.0159589
0.0140214
0.0249618
0.0265861
0.022508
0.0187112
0.0225094
0.0106755
0.0222536
0.0208804
0.0106635
0.00408518
0.00446882
0.0192765
0.0205558
0.0238736
0.0229499
0.00210023
0.00219453
0.0227274
0.0229644
0.0217382
0.00801319
0.0192344
0.0223591
0.0227993
0.0196668
0.0173587
0.00834484
0.032928
0.0206847
0.025273
0.0256681
0.0184467
0.0233461
0.018036
0.0199018
0.00989075
0.0149251
0.0233739
0.0235181
0.0202131
0.0212299
0.0219077
0.0230996
0.0220943
0.0108945
0.0193854
0.0218575
0.0206585
0.031001
0.0108924
0.0167794
0.0172833
0.0163785
0.0106478
0.0106485
0.0187637
0.0151518
0.0216694
0.0116592
0.0127156
0.00415164
0.00415162
0.00869673
0.0138051
0.00930071
0.0184632
0.0199679
0.0213106
0.0240118
0.0217796
0.0201642
0.0158758
0.00982549
0.0199335
0.0206509
0.0199934
0.011041
0.0102018
0.00794801
0.0199652
0.0203692
0.0163691
0.0184878
0.0170599
0.0156201
0.0209095
0.0156187
0.018455
0.0177929
0.0109064
0.0134651
0.0125234
0.0221102
0.00874572
0.00921325
0.00901327
0.0208805
0.00832747
0.00815585
0.0145286
0.00760671
0.0169056
0.0169311
0.00780831
0.0184123
0.00866714
0.00861588
0.00970649
0.00822024
0.00807059
0.0120409
0.00959292
0.00871786
0.00824577
0.0168578
0.0192405
0.00907623
0.0186068
0.00747803
0.0188754
0.0149966
0.00781258
0.00661498
0.00738028
0.00979253
0.0162101
0.0133441
0.0055822
0.00619627
0.0180709
0.00525466
0.00525461
0.00595412
0.00668337
0.00755552
0.00879119
0.0145372
0.0134558
0.0180835
0.00527941
0.00527937
0.0158918
0.0065372
0.0128844
0.00592359
0.00595879
0.0078513
0.0136253
0.0141088
0.0150307
0.0137752
0.013625
0.00297656
0.0219936
0.00379692
0.00367873
0.0177671
0.0176438
0.00381221
0.00264786
0.00373094
0.0163887
SCALARS rr_uec(PEX,_P_ext) float
LOOKUP_TABLE default
-0.0615839
-0.14035
-0.112085
-0.146503
-0.0766069
-0.118962
-0.0608923
-0.145689
-0.125267
-0.157724
-0.0558923
-0.146136
-0.128602
-0.135822
-0.159132
-0.133577
-0.114885
-0.129879
-0.116336
-0.113739
-0.127943
-0.0227197
-0.131091
-0.12082
-0.109518
-0.126341
-0.0517806
-0.110975
-0.0870906
-0.10253
-0.113612
-0.0900299
-0.0573604
-0.0768248
-0.0755066
-0.0769979
-0.0996799
-0.0756603
-0.113497
-0.0644736
-0.0732026
-0.0878501
-0.0878594
-0.124689
-0.0719719
-0.0794072
-0.10948
-0.110866
-0.103894
-0.0994442
-0.102113
-0.0791861
-0.122955
-0.101751
-0.113199
-0.0522089
-0.0806196
-0.102497
-0.080617
-0.123992
-0.146655
-0.143733
-0.0509259
-0.101343
-0.13767
-0.129926
-0.14186
-0.12271
-0.112998
-0.161079
-0.133401
-0.131948
-0.0904464
-0.105169
-0.111396
-0.0592097
-0.114698
-0.128721
-0.123743
-0.087385
-0.0788572
-0.0864664
-0.163694
-0.0789666
-0.106476
-0.0395461
-0.128193
-0.107131
-0.0762186
-0.0111802
-0.0881687
-0.0121597
-0.0973253
-0.0932665
-0.083443
-0.0761055
-0.0724249
-0.138472
-0.114784
-0.110493
-0.0938719
-0.0900539
-0.0757692
-0.131153
-0.133324
-0.12006
-0.105588
-0.10711
-0.0804309
-0.159983
-0.102805
-0.0542881
-0.0725542
-0.143537
-0.134467
-0.0982612
-0.093487
-0.0601827
-0.096966
-0.0978729
-0.0851327
-0.155121
-0.159955
-0.137398
-0.151159
-0.118597
-0.0670906
-0.149508
-0.0655952
-0.0846141
-0.0696839
-0.142709
-0.139392
-0.140121
-0.0936622
-0.0568023
-0.0627869
-0.102691
-0.125505
-0.0567832
-0.0782265
-0.121027
-0.0917021
-0.147771
-0.0732503
-0.120581
-0.109434
-0.105801
-0.0676246
-0.0864217
-0.0963661
-0.13771
-0.0807793
-0.124686
-0.144412
-0.146715
-0.096
-0.0805754
-0.0801182
-0.125883
-0.105682
-0.080108
-0.053008
-0.0782397
-0.0778212
-0.13479
-0.081661
-0.0825618
-0.0894345
-0.079578
-0.118833
-0.0833442
-0.073793
-0.0927641
-0.0880492
-0.105519
-0.117541
-0.113137
-0.0961091
-0.11286
-0.0868035
-0.130769
-0.140351
-0.0782395
-0.137476
-0.0782037
-0.135771
-0.124814
-0.116526
-0.118612
-0.138682
-0.0657651
-0.0861556
-0.0801127
-0.13987
-0.137707
-0.127672
-0.13905
-0.141577
-0.118906
-0.145807
-0.0978293
-0.0882882
-0.159192
-0.0929727
-0.144589
-0.115178
-0.0735192
-0.0884434
-0.144278
-0.120069
-0.109323
-0.140837
-0.138154
-0.0893831
-0.0886379
-0.0860991
-0.122561
-0.135236
-0.15542
-0.149319
-0.162459
-0.147211
-0.160875
-0.134977
-0.141041
-0.14214
-0.133994
-0.140767
-0.129582
-0.127653
-0.0905753
-0.121627
-0.142308
-0.0988505
-0.144992
-0.133196
-0.15429
-0.0928221
-0.14673
-0.140266
-0.0911554
-0.125674
-0.0905398
-0.141218
-0.128918
-0.0949066
-0.0893278
-0.0772543
-0.0888676
-0.141411
-0.0648742
-0.108991
-0.0889959
-0.0998547
-0.146868
-0.142164
-0.0445875
-0.142681
-0.0777029
-0.084244
-0.146067
-0.118737
-0.0852364
-0.162971
-0.092702
-0.0445875
-0.0861459
-0.126784
-0.158262
-0.119985
-0.141161
-0.132199
-0.0693962
-0.0680148
-0.058165
-0.0667778
-0.094581
-0.0723335
-0.116529
-0.0729236
-0.125498
-0.0896242
-0.0862764
-0.100925
-0.0938376
-0.124654
-0.0899821
-0.0925961
-0.0408733
-0.0933
-0.134952
-0.135049
-0.122313
-0.0898089
-0.0584876
-0.169805
-0.114087
-0.0952772
-0.0878356
-0.0874759
-0.0905942
-0.110395
-0.0889717
-0.0637194
-0.0878054
-0.0602261
-0.108786
-0.0895806
-0.0380963
-0.084373
-0.0997712
-0.0895834
-0.137858
-0.0930298
-0.119974
-0.0460143
-0.0962991
-0.0919828
-0.0803408
-0.0863516
-0.101902
-0.0959176
-0.100303
-0.0852948
-0.0866372
-0.0935597
-0.125079
-0.0882254
-0.124999
-0.112837
-0.0890611
-0.091528
-0.0924067
-0.102208
-0.0922545
-0.08638
-0.0981604
-0.102948
-0.12153
-0.0923874
-0.0917882
-0.13289
-0.131029
-0.0882921
-0.0890801
-0.039777
-0.10761
-0.0746635
-0.101006
-0.0446648
-0.0463644
-0.0414342
-0.0421126
-0.0446767
-0.0470641
-0.0485015
-0.113326
-0.0838679
-0.0846107
-0.0967324
-0.0942287
-0.0930528
-0.098433
-0.0910637
-0.093138
-0.0947059
-0.0927078
-0.113842
-0.0842874
-0.11702
-0.0910478
-0.0878912
-0.0928247
-0.0990535
-0.103495
-0.09642
-0.110425
-0.103164
-0.0956641
-0.0689844
-0.0962186
-0.0940882
-0.10131
-0.0970467
-0.0919547
-0.0874505
-0.0963303
-0.100482
-0.136406
-0.0900894
-0.13262
-0.138239
-0.0946617
-0.132445
-0.101601
-0.0813861
-0.110869
-0.0971712
-0.0699879
-0.0614622
-0.109461
-0.116585
-0.0986916
-0.0820421
-0.098704
-0.0467898
-0.0975761
-0.091553
-0.0467429
-0.0179174
-0.0196
-0.0845226
-0.0901265
-0.104678
-0.100624
-0.00921217
-0.00962579
-0.0996563
-0.100696
-0.095319
-0.0351212
-0.0843321
-0.0980463
-0.0999659
-0.0862308
-0.0761109
-0.0365743
-0.144391
-0.0906913
-0.110816
-0.112548
-0.0808812
-0.102364
-0.07908
-0.0872615
-0.043354
-0.0654279
-0.102485
-0.103121
-0.0886273
-0.0930838
-0.0960572
-0.101284
-0.0968757
-0.0477555
-0.0850099
-0.0958339
-0.0905874
-0.135941
-0.0477461
-0.0735734
-0.0757825
-0.0718264
-0.0467
-0.0467031
-0.0822849
-0.0664323
-0.095015
-0.0511071
-0.0557689
-0.01821
-0.0182099
-0.0381164
-0.0605443
-0.0407904
-0.0809559
-0.0875653
-0.093443
-0.10529
-0.0955048
-0.0884221
-0.0696131
-0.0430643
-0.0874038
-0.0905538
-0.0876724
-0.0483945
-0.0447417
-0.0348395
-0.0875487
-0.0893177
-0.0717677
-0.0810652
-0.0748052
-0.0685007
-0.0916855
-0.0684947
-0.0809207
-0.0780234
-0.0478322
-0.0590544
-0.0548955
-0.096952
-0.0383315
-0.0403811
-0.0395036
-0.0915619
-0.0364985
-0.0357453
-0.0637017
-0.0333391
-0.0741398
-0.074252
-0.034223
-0.0807311
-0.0379908
-0.0377624
-0.042546
-0.0360283
-0.0353755
-0.0528073
-0.0420491
-0.0382096
-0.0361402
-0.0739187
-0.0843724
-0.0397832
-0.0815879
-0.0327746
-0.0827667
-0.0657551
-0.0342415
-0.0289947
-0.0323464
-0.0429191
-0.0710768
-0.0585214
-0.0244844
-0.0271777
-0.0792397
-0.0230478
-0.0230475
-0.0261156
-0.0293131
-0.0331188
-0.0385554
-0.0637506
-0.0590114
-0.0792944
-0.0231556
-0.0231555
-0.069695
-0.0286514
-0.0564935
-0.0259624
-0.0261197
-0.0344152
-0.0597583
-0.0618787
-0.0659219
-0.0604153
-0.0597567
-0.0130556
-0.0964603
-0.0166534
-0.0161356
-0.0779236
-0.077383
-0.0167211
-0.0116139
-0.016364
-0.0718779
SCALARS cell_type float
LOOKUP_TABLE default
0
0
0
0
0
0
0
0
0
0
0
0
0
0
0
0
0
0
0
0
0
1
0
0
0
0
0
0
0
0
0
0
0
0
0
0
0
0
0
0
0
0
0
0
0
0
0
0
0
0
0
0
0
0
0
0
0
0
0
0
0
0
0
0
0
0
0
0
0
0
0
0
0
0
0
0
0
0
0
0
0
0
0
0
0
0
0
0
0
0
0
0
0
0
0
0
0
0
0
0
0
0
0
0
0
0
0
0
0
0
0
0
0
0
0
0
0
0
0
0
0
0
0
0
0
0
0
0
0
0
0
0
0
0
0
0
0
0
0
0
0
0
0
0
0
0
0
0
0
0
0
0
0
0
0
0
0
0
0
0
0
0
0
0
0
0
0
0
0
0
0
0
0
0
0
0
0
0
0
0
0
0
0
0
0
0
0
0
0
0
0
0
0
0
0
0
0
0
0
0
0
0
0
0
0
0
0
0
0
0
0
0
0
0
0
0
0
0
0
0
0
0
0
0
0
0
0
0
0
0
0
0
0
0
0
0
0
0
0
0
0
0
0
0
0
0
0
0
0
0
0
0
0
0
0
0
0
0
0
0
0
0
0
0
0
0
0
0
0
0
0
0
0
0
0
0
0
0
0
0
0
0
0
0
0
0
0
0
0
0
0
0
0
0
0
0
0
0
0
0
0
0
0
0
0
0
0
0
0
0
0
0
0
0
0
0
0
0
0
0
0
0
0
0
0
0
0
0
0
0
0
0
0
0
0
0
0
0
0
0
0
0
0
0
0
0
0
0
0
0
2
2
2
2
2
2
2
0
0
0
0
0
0
0
0
0
0
0
0
0
0
0
0
0
0
0
0
0
0
0
0
0
0
0
0
0
0
0
0
0
0
0
0
0
0
0
0
0
0
0
0
0
0
0
0
0
0
0
0
0
0
0
0
0
0
0
1
1
0
0
0
0
0
0
0
0
0
0
0
0
0
0
0
0
0
0
0
0
0
0
0
0
0
0
0
0
0
0
0
0
0
0
0
0
0
0
0
0
0
0
0
1
1
0
0
0
0
0
0
0
0
0
0
0
0
0
0
0
0
0
0
0
0
0
0
0
0
0
0
0
0
0
0
0
0
0
0
0
0
0
0
0
0
0
0
0
0
0
0
0
0
0
0
0
0
0
0
0
0
0
0
0
0
0
0
0
0
0
1
1
0
0
0
0
0
0
0
0
0
0
0
0
0
0
0
0
0
0
0
0
0
0
0
0
0
0
0
0
0
0
0
0
0
TENSORS Lagrange_strain float
0.0305683 -0.00319831 7.71668e-08
-0.00319831 0.0133892 1.15691e-07
7.71668e-08 1.15691e-07 0.00740188

0.029193 -0.00280096 8.16868e-08
-0.00280096 0.0335541 3.37109e-08
8.16868e-08 3.37109e-08 0.0331638

0.0300217 0.00367913 -2.00881e-08
0.00367913 0.0311701 7.68023e-08
-2.00881e-08 7.68023e-08 0.0304682

0.029162 -0.00392494 8.45978e-08
-0.00392494 0.0327993 3.46925e-08
8.45978e-08 3.46925e-08 0.0330886

0.0353678 0.00266884 7.64256e-08
0.00266884 0.0380863 5.426e-08
7.64256e-08 5.426e-08 0.0352926

0.0277355 -0.00236717 -1.23864e-07
-0.00236717 0.0333842 3.66961e-08
-1.23864e-07 3.66961e-08 0.0304392

0.0302623 0.00339411 7.66908e-08
0.00339411 0.0134947 1.36407e-07
7.66908e-08 1.36407e-07 0.00746327

0.0317548 0.00393967 9.80451e-08
0.00393967 0.0312005 1.03016e-07
9.80451e-08 1.03016e-07 0.031561

0.0332423 0.000715306 -5.12307e-08
0.000715306 0.0262217 1.77341e-09
-5.12307e-08 1.77341e-09 0.0281424

0.035468 -0.000991274 -4.56675e-08
-0.000991274 0.0275516 -6.90268e-08
-4.56675e-08 -6.90268e-08 0.0327213

0.0280616 0.00205119 -4.84279e-08
0.00205119 0.0138091 -2.52158e-07
-4.84279e-08 -2.52158e-07 0.0117537

0.0279534 -0.00176567 -1.60974e-07
-0.00176567 0.0350069 -8.05827e-08
-1.60974e-07 -8.05827e-08 0.0315495

0.0311215 0.00365712 1.66683e-07
0.00365712 0.0313008 -9.91127e-08
1.66683e-07 -9.91127e-08 0.0310798

0.0290697 -0.00188006 -7.69145e-08
-0.00188006 0.0347992 -7.26606e-09
-7.69145e-08 -7.26606e-09 0.0325468

0.0346317 0.00441849 1.47837e-07
0.00441849 0.0343632 -6.05945e-08
1.47837e-07 -6.05945e-08 0.034885

0.034328 7.3105e-05 -8.31048e-08
7.3105e-05 0.0272863 -5.18535e-08
-8.31048e-08 -5.18535e-08 0.0307787

0.0286935 -0.00235361 -8.66294e-08
-0.00235361 0.0360143 -4.05923e-08
-8.66294e-08 -4.05923e-08 0.0334504

0.0345734 -0.000352906 -6.79067e-08
-0.000352906 0.0273567 -4.10635e-08
-6.79067e-08 -4.10635e-08 0.0319774

0.0269203 0.00347819 1.23589e-07
0.00347819 0.0309452 2.69568e-08
1.23589e-07 2.69568e-08 0.0275769

0.0338847 -0.000550581 3.85677e-08
-0.000550581 0.0264097 1.23875e-07
3.85677e-08 1.23875e-07 0.0301345

0.0266223 0.00113508 1.78789e-08
0.00113508 0.0340341 -1.00132e-07
1.78789e-08 -1.00132e-07 0.0291503

0.0452949 0.000853073 -1.55943e-07
0.000853073 0.0452654 -3.8096e-07
-1.55943e-07 -3.8096e-07 0.0366384

0.0336755 0.0002474 8.86948e-09
0.0002474 0.0263156 -4.5741e-09
8.86948e-09 -4.5741e-09 0.0298054

0.0293097 -0.00363197 -2.73957e-08
-0.00363197 0.0311362 4.84389e-08
-2.73957e-08 4.84389e-08 0.0300471

0.0337802 0.000900078 -1.16061e-07
0.000900078 0.0264967 2.82258e-08
-1.16061e-07 2.82258e-08 0.0300815

0.0285464 0.00250763 7.12944e-09
0.00250763 0.0338942 -2.33039e-07
7.12944e-09 -2.33039e-07 0.0322873

0.02863 0.000526646 -2.8725e-07
0.000526646 0.01769 2.4338e-07
-2.8725e-07 2.4338e-07 0.0131715

0.0309144 0.00403455 1.1254e-07
0.00403455 0.0306467 2.13999e-08
1.1254e-07 2.13999e-08 0.030611

0.0259252 0.00477646 2.24263e-08
0.00477646 0.0257333 2.40834e-08
2.24263e-08 2.40834e-08 0.0211283

0.0415291 0.00136969 -5.75132e-08
0.00136969 0.038351 8.77155e-08
-5.75132e-08 8.77155e-08 0.0361355

0.0344114 0.00187132 -1.25359e-07
0.00187132 0.0279527 1.18201e-08
-1.25359e-07 1.18201e-08 0.0310003

0.0217599 -0.00228784 1.07265e-07
-0.00228784 0.0299925 3.5611e-08
1.07265e-07 3.5611e-08 0.0211252

0.0228636 -0.00535248 -1.57246e-07
-0.00535248 0.0234731 1.29788e-07
-1.57246e-07 1.29788e-07 0.0125791

0.0348328 0.000800611 -3.25933e-07
0.000800611 0.0422554 3.38734e-08
-3.25933e-07 3.38734e-08 0.0357866

0.0374537 -0.000661534 4.742e-08
-0.000661534 0.0412026 3.05461e-08
4.742e-08 3.05461e-08 0.0359011

0.0410752 0.00281343 4.38085e-08
0.00281343 0.0359863 -1.6059e-07
4.38085e-08 -1.6059e-07 0.0357668

0.0372541 0.000705238 -2.82406e-08
0.000705238 0.0432158 -2.32082e-07
-2.82406e-08 -2.32082e-07 0.0361419

0.0402612 -0.00121883 2.19997e-07
-0.00121883 0.0378303 9.21046e-08
2.19997e-07 9.21046e-08 0.0358085

0.0312161 -0.00367795 -1.69521e-07
-0.00367795 0.0311237 3.98833e-08
-1.69521e-07 3.98833e-08 0.0309258

0.0227476 0.00527909 -2.50347e-07
0.00527909 0.0237092 -2.18935e-07
-2.50347e-07 -2.18935e-07 0.0125812

0.0297612 -0.00231578 -6.01953e-08
-0.00231578 0.0220312 -1.65555e-07
-6.01953e-08 -1.65555e-07 0.0208751

0.0376195 -0.000522576 1.33053e-07
-0.000522576 0.0430641 7.91437e-08
1.33053e-07 7.91437e-08 0.0361446

0.0412417 0.00263433 4.71413e-08
0.00263433 0.0394153 -1.87327e-07
4.71413e-08 -1.87327e-07 0.0361271

0.034301 -0.00161727 3.57759e-08
-0.00161727 0.0279948 1.35919e-07
3.57759e-08 1.35919e-07 0.0310843

0.0231059 -0.00552594 7.67468e-08
-0.00552594 0.0235629 -1.26e-07
7.67468e-08 -1.26e-07 0.0162162

0.0299437 -0.00233246 -4.73183e-08
-0.00233246 0.0221554 5.16369e-08
-4.73183e-08 5.16369e-08 0.0213444

0.0258938 0.00222735 -3.02461e-11
0.00222735 0.0326543 -6.25453e-08
-3.02461e-11 -6.25453e-08 0.0279156

0.0275509 0.00252891 1.26518e-07
0.00252891 0.0323741 2.27588e-08
1.26518e-07 2.27588e-08 0.0284911

0.0341754 -0.00214089 1.61158e-08
-0.00214089 0.0271075 1.17041e-07
1.61158e-08 1.17041e-07 0.0304725

0.0229027 -0.0043925 2.58916e-07
-0.0043925 0.0272491 -9.45013e-09
2.58916e-07 -9.45013e-09 0.0198505

0.0294942 0.00247157 -4.73936e-08
0.00247157 0.0218344 1.77029e-07
-4.73936e-08 1.77029e-07 0.0202811

0.0298726 -0.00327094 -1.61429e-07
-0.00327094 0.0245138 -2.26707e-08
-1.61429e-07 -2.26707e-08 0.0230484

0.034478 0.00257783 4.03145e-08
0.00257783 0.0382039 4.12131e-08
4.03145e-08 4.12131e-08 0.0352712

0.0286895 0.00383859 -1.43174e-07
0.00383859 0.0257799 2.84062e-08
-1.43174e-07 2.84062e-08 0.023117

0.0349287 -0.00291577 -1.65542e-07
-0.00291577 0.0374328 3.24001e-08
-1.65542e-07 3.24001e-08 0.0351896

0.0255805 -0.00545541 5.67858e-08
-0.00545541 0.0229025 -1.90352e-07
5.67858e-08 -1.90352e-07 0.0158197

0.0373471 0.000746149 1.12944e-07
0.000746149 0.0414136 -1.3264e-08
1.12944e-07 -1.3264e-08 0.0359216

0.0231678 -0.000693155 7.81951e-08
-0.000693155 0.0313136 -1.46618e-08
7.81951e-08 -1.46618e-08 0.023103

0.0410301 0.00137965 2.74332e-07
0.00137965 0.0377071 1.66336e-07
2.74332e-07 1.66336e-07 0.0358998

0.0276759 0.00280524 1.06252e-07
0.00280524 0.0327496 -5.05709e-08
1.06252e-07 -5.05709e-08 0.0302315

0.0361397 0.000784532 -1.04425e-08
0.000784532 0.028132 -1.32318e-07
-1.04425e-08 -1.32318e-07 0.0336736

0.0362551 0.00153411 1.71688e-08
0.00153411 0.0316934 1.40209e-07
1.71688e-08 1.40209e-07 0.0342212

0.0286375 0.00405711 -2.02293e-08
0.00405711 0.0198975 -1.18775e-07
-2.02293e-08 -1.18775e-07 0.0137593

0.0309729 -0.000783971 2.02377e-07
-0.000783971 0.0370854 1.39499e-07
2.02377e-07 1.39499e-07 0.033882

0.0315554 0.00124339 5.09436e-08
0.00124339 0.0364212 -6.00061e-08
5.09436e-08 -6.00061e-08 0.03426

0.0285492 -0.000375301 1.77284e-07
-0.000375301 0.0369562 -1.17965e-08
1.77284e-07 -1.17965e-08 0.0326711

0.0296031 0.00307118 -9.16447e-08
0.00307118 0.0347914 4.43752e-08
-9.16447e-08 4.43752e-08 0.0337094

0.03472 0.00112221 6.25744e-09
0.00112221 0.027839 2.1678e-08
6.25744e-09 2.1678e-08 0.032209

0.0291879 -0.00369887 4.04604e-10
-0.00369887 0.0310213 -8.94586e-08
4.04604e-10 -8.94586e-08 0.02991

0.0350551 -0.000237112 1.72603e-07
-0.000237112 0.0275804 -6.49162e-08
1.72603e-07 -6.49162e-08 0.0333936

0.0344526 -0.00254802 7.30981e-08
-0.00254802 0.0381341 -7.45474e-08
7.30981e-08 -7.45474e-08 0.0352613

0.0350113 0.00284921 8.95275e-08
0.00284921 0.0375703 1.75858e-07
8.95275e-08 1.75858e-07 0.0352412

0.0218889 -0.00213182 9.69182e-08
-0.00213182 0.0299228 -7.89503e-08
9.69182e-08 -7.89503e-08 0.0208516

0.0347017 -0.00369081 -3.06778e-08
-0.00369081 0.0319583 -2.01268e-07
-3.06778e-08 -2.01268e-07 0.0330794

0.0292923 -0.00329733 8.73881e-09
-0.00329733 0.0321133 -7.47999e-08
8.73881e-09 -7.47999e-08 0.0304338

0.02678 -0.00401702 3.47983e-08
-0.00401702 0.0176055 1.53114e-07
3.47983e-08 1.53114e-07 0.0127261

0.0324045 0.000418889 9.9033e-09
0.000418889 0.0381055 -8.39241e-08
9.9033e-09 -8.39241e-08 0.0344063

0.0345376 0.00381723 -1.71538e-07
0.00381723 0.030942 -7.95874e-08
-1.71538e-07 -7.95874e-08 0.0326607

0.028377 0.00258121 9.00834e-08
0.00258121 0.0341299 4.40859e-09
9.00834e-08 4.40859e-09 0.0322142

0.0315424 0.00103787 7.31874e-08
0.00103787 0.0228442 8.58332e-08
7.31874e-08 8.58332e-08 0.0240695

0.0270977 -0.00435872 1.3972e-07
-0.00435872 0.0237371 -1.20741e-07
1.3972e-07 -1.20741e-07 0.0183238

0.0362604 -0.00140294 4.99976e-08
-0.00140294 0.038743 -6.50932e-08
4.99976e-08 -6.50932e-08 0.0354017

0.031556 0.00317101 -1.46112e-07
0.00317101 0.0344022 -5.60414e-08
-1.46112e-07 -5.60414e-08 0.0340907

0.0273019 -0.00415607 -1.20198e-07
-0.00415607 0.0221752 -1.48086e-07
-1.20198e-07 -1.48086e-07 0.0184116

0.0303584 0.00139113 2.52647e-10
0.00139113 0.0228307 8.70086e-08
2.52647e-10 8.70086e-08 0.0209548

0.0186023 -0.00269699 -3.40102e-07
-0.00269699 0.0289287 -2.78167e-07
-3.40102e-07 -2.78167e-07 0.0158932

0.0272003 0.00188885 6.43757e-08
0.00188885 0.0343205 1.13376e-08
6.43757e-08 1.13376e-08 0.030655

0.0353824 0.00305709 -7.94571e-08
0.00305709 0.0308202 1.44395e-07
-7.94571e-08 1.44395e-07 0.0327542

0.0226482 0.00538595 1.05367e-07
0.00538595 0.0240888 1.92287e-07
1.05367e-07 1.92287e-07 0.0161987

0.0459502 0.00223847 -3.56533e-07
0.00223847 0.0417503 2.64707e-07
-3.56533e-07 2.64707e-07 0.0366394

0.0230816 -0.000534381 6.23059e-08
-0.000534381 0.0313546 -1.52573e-07
6.23059e-08 -1.52573e-07 0.0230729

0.0463635 -0.00225609 4.48224e-07
-0.00225609 0.0412944 -1.47399e-07
4.48224e-07 -1.47399e-07 0.0365945

0.0370656 -0.0036243 -1.66413e-07
-0.0036243 0.0334917 3.40423e-08
-1.66413e-07 3.40423e-08 0.0346212

0.0351381 0.00361914 -2.9833e-08
0.00361914 0.0300045 -3.91175e-08
-2.9833e-08 -3.91175e-08 0.0324568

0.0299622 -0.00315888 3.64706e-08
-0.00315888 0.0246908 -7.92175e-08
3.64706e-08 -7.92175e-08 0.0232863

0.0230127 0.00402972 2.35694e-07
0.00402972 0.0277793 2.99056e-08
2.35694e-07 2.99056e-08 0.0203823

0.0210942 -0.00137857 6.36993e-08
-0.00137857 0.0298957 1.51352e-07
6.36993e-08 1.51352e-07 0.0182518

0.028746 0.00288891 1.0169e-07
0.00288891 0.0342279 6.47063e-09
1.0169e-07 6.47063e-09 0.0327001

0.0370122 0.00223597 -1.01185e-07
0.00223597 0.0334526 -3.46199e-08
-1.01185e-07 -3.46199e-08 0.0343846

0.0281488 0.00198792 8.46098e-08
0.00198792 0.0340605 -2.3147e-08
8.46098e-08 -2.3147e-08 0.0308658

0.031883 0.00207315 4.53986e-08
0.00207315 0.0252544 4.21846e-08
4.53986e-08 4.21846e-08 0.0256178

0.0239079 -0.00277429 2.30218e-07
-0.00277429 0.0297655 -6.50046e-08
2.30218e-07 -6.50046e-08 0.0215618

0.0278991 -0.0037637 1.27622e-07
-0.0037637 0.0218155 -1.50387e-07
1.27622e-07 -1.50387e-07 0.0180762

0.0293315 -0.00323198 7.13222e-08
-0.00323198 0.0326304 -7.50344e-08
7.13222e-08 -7.50344e-08 0.0324032

0.0306267 0.00361475 1.75765e-07
0.00361475 0.032229 -8.62868e-08
1.75765e-07 -8.62868e-08 0.032371

0.0287082 0.00304794 1.38839e-07
0.00304794 0.0340273 -2.16577e-07
1.38839e-07 -2.16577e-07 0.0326305

0.0292072 0.00172531 8.17064e-09
0.00172531 0.037618 -8.29664e-08
8.17064e-09 -8.29664e-08 0.0338465

0.0344778 0.00123259 4.9307e-08
0.00123259 0.0275241 4.66392e-08
4.9307e-08 4.66392e-08 0.030675

0.0199609 -0.000605213 -1.46324e-07
-0.000605213 0.029661 2.83949e-07
-1.46324e-07 2.83949e-07 0.0181041

0.0297978 -0.004863 5.47082e-08
-0.004863 0.0330494 -1.56774e-08
5.47082e-08 -1.56774e-08 0.0337419

0.0290819 0.00360011 -1.2982e-07
0.00360011 0.03136 -5.61256e-08
-1.2982e-07 -5.61256e-08 0.0302643

0.0181057 0.000282945 4.10333e-07
0.000282945 0.0293111 7.51939e-08
4.10333e-07 7.51939e-08 0.0168786

0.0278435 0.00442382 2.58805e-07
0.00442382 0.0209683 1.00709e-07
2.58805e-07 1.00709e-07 0.0174549

0.0291914 -0.00302047 8.59956e-08
-0.00302047 0.0327037 1.19638e-07
8.59956e-08 1.19638e-07 0.0321856

0.035243 0.000759887 -1.65427e-08
0.000759887 0.0273389 6.48136e-08
-1.65427e-08 6.48136e-08 0.032553

0.0294273 0.00352015 -4.3683e-08
0.00352015 0.0252015 -1.12535e-07
-4.3683e-08 -1.12535e-07 0.0231114

0.0396366 0.00170997 -7.29879e-08
0.00170997 0.0390394 7.97356e-08
-7.29879e-08 7.97356e-08 0.0359402

0.0283752 0.00312344 1.00121e-07
0.00312344 0.0224016 -6.45934e-09
1.00121e-07 -6.45934e-09 0.0182866

0.0394888 -0.00175064 -2.26741e-07
-0.00175064 0.0390654 1.09037e-07
-2.26741e-07 1.09037e-07 0.0359054

0.0232611 0.0001035 3.7578e-08
0.0001035 0.0315181 -1.99132e-08
3.7578e-08 -1.99132e-08 0.0231198

0.0327593 -0.000288448 4.83137e-08
-0.000288448 0.0246602 1.0485e-07
4.83137e-08 1.0485e-07 0.0269664

0.0380546 -0.00212917 4.93273e-08
-0.00212917 0.030464 -2.87836e-08
4.93273e-08 -2.87836e-08 0.0347934

0.0292384 0.00320586 3.86864e-08
0.00320586 0.0332779 -1.30665e-07
3.86864e-08 -1.30665e-07 0.0333431

0.0289506 -0.00177268 1.01021e-07
-0.00177268 0.0366093 1.93641e-07
1.01021e-07 1.93641e-07 0.0334998

0.0365834 -0.00108486 3.2815e-08
-0.00108486 0.0264765 1.54577e-07
3.2815e-08 1.54577e-07 0.0338602

0.0311804 -0.00292592 2.09773e-07
-0.00292592 0.0383061 -7.22245e-09
2.09773e-07 -7.22245e-09 0.0348438

0.0381658 -0.000885197 4.95911e-08
-0.000885197 0.0387311 -2.12644e-07
4.95911e-08 -2.12644e-07 0.0358355

0.0301799 -0.00393992 7.62314e-08
-0.00393992 0.032711 1.19741e-07
7.62314e-08 1.19741e-07 0.0327634

0.0213329 0.00146942 -2.25097e-07
0.00146942 0.0296137 -2.87933e-07
-2.25097e-07 -2.87933e-07 0.0182957

0.0293881 -0.00364567 -1.04788e-07
-0.00364567 0.0253493 1.07513e-07
-1.04788e-07 1.07513e-07 0.0231821

0.0328595 -0.0018169 -1.4026e-07
-0.0018169 0.0397176 1.62027e-08
-1.4026e-07 1.62027e-08 0.0352411

0.035091 7.68439e-05 -2.88252e-09
7.68439e-05 0.0272223 6.6035e-08
-2.88252e-09 6.6035e-08 0.0332514

0.0308185 -0.00282913 1.144e-07
-0.00282913 0.0348916 1.71379e-07
1.144e-07 1.71379e-07 0.0340842

0.0295348 0.00338889 -7.99324e-08
0.00338889 0.0328713 9.40206e-08
-7.99324e-08 9.40206e-08 0.0333261

0.0264604 -0.00406345 -9.40148e-08
-0.00406345 0.0272617 -1.71321e-08
-9.40148e-08 -1.71321e-08 0.0215845

0.0371725 -0.000958258 1.86313e-07
-0.000958258 0.04161 1.18557e-07
1.86313e-07 1.18557e-07 0.0358866

0.0227109 -0.0042376 2.24004e-07
-0.0042376 0.0272436 4.51525e-08
2.24004e-07 4.51525e-08 0.0168775

0.0341829 -0.00252462 1.95501e-08
-0.00252462 0.0286064 -2.2483e-07
1.95501e-08 -2.2483e-07 0.0310446

0.0364257 0.000290014 1.2504e-07
0.000290014 0.0294377 1.15801e-07
1.2504e-07 1.15801e-07 0.0341939

0.0396407 0.00239671 -7.1781e-08
0.00239671 0.0391129 -2.02603e-08
-7.1781e-08 -2.02603e-08 0.0358676

0.0238563 0.00260913 1.05511e-07
0.00260913 0.0301516 2.69773e-07
1.05511e-07 2.69773e-07 0.0217989

0.0334311 0.00358134 -6.91434e-09
0.00358134 0.0307152 5.15904e-08
-6.91434e-09 5.15904e-08 0.0317674

0.0316431 -0.0031944 1.32956e-07
-0.0031944 0.0265522 -8.16338e-11
1.32956e-07 -8.16338e-11 0.0269355

0.0289292 -0.00234097 -8.37636e-08
-0.00234097 0.0342353 -2.08827e-07
-8.37636e-08 -2.08827e-07 0.032606

0.0262446 0.00450143 -2.99118e-08
0.00450143 0.0245577 -4.08995e-08
-2.99118e-08 -4.08995e-08 0.0180812

0.028423 -0.00286671 5.45462e-08
-0.00286671 0.0340322 5.2842e-08
5.45462e-08 5.2842e-08 0.0324491

0.0331492 0.00405902 -3.31471e-08
0.00405902 0.0304646 1.32972e-07
-3.31471e-08 1.32972e-07 0.0315424

0.0333349 -0.00331153 -1.41417e-07
-0.00331153 0.028357 -2.66849e-09
-1.41417e-07 -2.66849e-09 0.030046

0.029161 -0.0032951 -6.38283e-08
-0.0032951 0.0319879 1.09415e-08
-6.38283e-08 1.09415e-08 0.0304375

0.0314553 -0.00242933 1.2103e-07
-0.00242933 0.024719 1.69971e-08
1.2103e-07 1.69971e-08 0.0251563

0.0329559 -0.00246677 -1.21514e-07
-0.00246677 0.0267097 -3.10509e-08
-1.21514e-07 -3.10509e-08 0.0285967

0.0294915 -0.00334208 1.41671e-07
-0.00334208 0.0329507 -5.63697e-09
1.41671e-07 -5.63697e-09 0.0334075

0.0261341 0.00463394 3.92643e-08
0.00463394 0.0255415 -5.03528e-08
3.92643e-08 -5.03528e-08 0.0210925

0.0281502 0.00201683 9.41092e-08
0.00201683 0.0343361 1.65741e-08
9.41092e-08 1.65741e-08 0.0311095

0.0308865 0.00348108 1.24197e-08
0.00348108 0.0322556 -4.69393e-08
1.24197e-08 -4.69393e-08 0.0326004

0.0291573 0.003348 2.07829e-07
0.003348 0.0331922 -6.60115e-08
2.07829e-07 -6.60115e-08 0.0332606

0.0289844 0.00152308 -4.27059e-08
0.00152308 0.0354703 1.14931e-07
-4.27059e-08 1.14931e-07 0.0326957

0.0310532 -0.00106171 -5.7614e-08
-0.00106171 0.0231415 3.32439e-08
-5.7614e-08 3.32439e-08 0.0220781

0.023884 0.00240563 -8.8316e-08
0.00240563 0.0304109 1.28882e-07
-8.8316e-08 1.28882e-07 0.0221131

0.0292135 -0.00320396 -1.54164e-09
-0.00320396 0.0326367 -3.35062e-08
-1.54164e-09 -3.35062e-08 0.0316186

0.0289879 0.00335677 -3.36306e-08
0.00335677 0.0309328 5.15027e-08
-3.36306e-08 5.15027e-08 0.0285682

0.0266128 -0.00459121 -3.40373e-08
-0.00459121 0.0252305 1.12252e-07
-3.40373e-08 1.12252e-07 0.0212568

0.026278 0.00489351 -6.89387e-08
0.00489351 0.0209463 1.13176e-07
-6.89387e-08 1.13176e-07 0.0167624

0.023503 -0.00428684 -1.23491e-07
-0.00428684 0.0274647 1.65396e-07
-1.23491e-07 1.65396e-07 0.0206265

0.026672 -0.00402753 -8.00973e-09
-0.00402753 0.0274827 1.71409e-07
-8.00973e-09 1.71409e-07 0.0220502

0.0353655 -0.000906645 -8.87504e-08
-0.000906645 0.0273907 -3.77393e-08
-8.87504e-08 -3.77393e-08 0.0326553

0.0260456 0.00392164 9.24639e-08
0.00392164 0.0280925 -8.43394e-08
9.24639e-08 -8.43394e-08 0.0221026

0.0307884 0.00171653 -3.90823e-08
0.00171653 0.0233605 1.4387e-08
-3.90823e-08 1.4387e-08 0.0220257

0.021431 0.001722 -8.88967e-08
0.001722 0.0302411 1.28637e-07
-8.88967e-08 1.28637e-07 0.0211329

0.0242631 -0.0028894 -1.87965e-07
-0.0028894 0.029952 2.63068e-08
-1.87965e-07 2.63068e-08 0.0220864

0.0313462 -0.000131177 -1.52935e-08
-0.000131177 0.0392746 8.13597e-08
-1.52935e-08 8.13597e-08 0.0346714

0.0230585 0.000294708 6.12901e-08
0.000294708 0.031461 -1.52637e-07
6.12901e-08 -1.52637e-07 0.0230625

0.0227772 0.00400152 7.49084e-08
0.00400152 0.0281277 -8.56515e-08
7.49084e-08 -8.56515e-08 0.0206383

0.028889 0.0015857 -1.14554e-07
0.0015857 0.0358335 -5.87302e-08
-1.14554e-07 -5.87302e-08 0.0328943

0.0293161 -0.00358008 2.05921e-08
-0.00358008 0.02513 -1.06253e-07
2.05921e-08 -1.06253e-07 0.02324

0.0369774 0.00273302 -1.12017e-07
0.00273302 0.0297238 2.28193e-07
-1.12017e-07 2.28193e-07 0.0338024

0.0371769 0.00348327 -6.62908e-09
0.00348327 0.0334235 1.16903e-08
-6.62908e-09 1.16903e-08 0.0346529

0.0345445 -0.00244635 -2.19192e-08
-0.00244635 0.0285303 1.02977e-08
-2.19192e-08 1.02977e-08 0.0313795

0.0390572 -0.000265637 1.32799e-07
-0.000265637 0.0339255 1.3038e-07
1.32799e-07 1.3038e-07 0.0352089

0.0314798 -0.00418763 -1.11703e-07
-0.00418763 0.0317826 -7.67402e-09
-1.11703e-07 -7.67402e-09 0.032157

0.0294625 0.00300765 -1.00247e-08
0.00300765 0.0223276 -2.58252e-08
-1.00247e-08 -2.58252e-08 0.0210669

0.0302303 0.00397297 -7.20797e-08
0.00397297 0.0326637 1.08344e-07
-7.20797e-08 1.08344e-07 0.0327207

0.0302782 0.00384676 5.0474e-08
0.00384676 0.0326076 1.5216e-07
5.0474e-08 1.5216e-07 0.0326755

0.0262447 0.00396187 3.56896e-09
0.00396187 0.0277681 2.0305e-08
3.56896e-09 2.0305e-08 0.0218652

0.0344509 0.00357664 -6.80439e-08
0.00357664 0.0317803 -2.23777e-07
-6.80439e-08 -2.23777e-07 0.0328322

0.0302492 0.000452488 -4.136e-08
0.000452488 0.0204287 9.4657e-09
-4.136e-08 9.4657e-09 0.0205736

0.0331868 0.00420059 -9.49377e-08
0.00420059 0.0323738 -5.74218e-08
-9.49377e-08 -5.74218e-08 0.0334846

0.0305016 -0.00165464 3.60622e-08
-0.00165464 0.0366169 1.90651e-07
3.60622e-08 1.90651e-07 0.0336636

0.0373609 0.0032326 1.06967e-07
0.0032326 0.0334606 7.24654e-09
1.06967e-07 7.24654e-09 0.034665

0.0307377 -0.00389601 -3.98317e-09
-0.00389601 0.0322742 -9.14688e-08
-3.98317e-09 -9.14688e-08 0.032681

0.0293747 -0.000644801 -7.64227e-08
-0.000644801 0.0369035 -3.36948e-08
-7.64227e-08 -3.36948e-08 0.0328486

0.0288131 -0.00315248 2.86806e-08
-0.00315248 0.0221404 5.22075e-08
2.86806e-08 5.22075e-08 0.0187594

0.0290032 0.00384454 -9.14985e-08
0.00384454 0.0255785 -4.72343e-08
-9.14985e-08 -4.72343e-08 0.0230734

0.0217017 0.00189107 -1.66393e-07
0.00189107 0.0300618 2.50623e-07
-1.66393e-07 2.50623e-07 0.0210843

0.0349911 -0.000161516 1.13774e-07
-0.000161516 0.0273904 -3.78052e-08
1.13774e-07 -3.78052e-08 0.0333023

0.0344206 2.95694e-07 -8.11212e-08
2.95694e-07 0.0272754 -5.17663e-08
-8.11212e-08 -5.17663e-08 0.032042

0.0291664 0.00304006 9.05711e-09
0.00304006 0.0326804 1.53893e-07
9.05711e-09 1.53893e-07 0.0321335

0.0314507 0.00316612 -8.49723e-08
0.00316612 0.034251 -3.94805e-08
-8.49723e-08 -3.94805e-08 0.034059

0.0291696 -0.0032043 -1.76467e-07
-0.0032043 0.0332393 -6.27995e-08
-1.76467e-07 -6.27995e-08 0.0333798

0.0287744 -8.54175e-05 -5.48248e-08
-8.54175e-05 0.0367056 -5.79968e-08
-5.48248e-08 -5.79968e-08 0.0325264

0.0294651 0.00337573 -1.21503e-07
0.00337573 0.0330756 -1.11572e-07
-1.21503e-07 -1.11572e-07 0.0333555

0.0328604 -0.00134646 -9.64726e-08
-0.00134646 0.0253625 -1.37135e-07
-9.64726e-08 -1.37135e-07 0.0278296

0.0263554 -0.00425466 -2.07035e-07
-0.00425466 0.0281804 1.69197e-07
-2.07035e-07 1.69197e-07 0.0242682

0.0362985 -0.000331567 7.0309e-08
-0.000331567 0.0293839 -6.41022e-08
7.0309e-08 -6.41022e-08 0.0340287

0.0267817 -0.00444562 -1.45571e-07
-0.00444562 0.0251911 -1.00429e-07
-1.45571e-07 -1.00429e-07 0.0209496

0.0309004 0.0025072 2.31545e-08
0.0025072 0.0350643 -8.01425e-08
2.31545e-08 -8.01425e-08 0.0340685

0.035114 -0.00349694 4.12306e-08
-0.00349694 0.0303891 -8.26589e-08
4.12306e-08 -8.26589e-08 0.0326156

0.0305026 -0.00124994 -2.73544e-08
-0.00124994 0.0229789 -8.91929e-08
-2.73544e-08 -8.91929e-08 0.0214789

0.0371485 -0.00307689 -1.33608e-07
-0.00307689 0.031654 -1.82724e-07
-1.33608e-07 -1.82724e-07 0.0339887

0.0349702 0.000321931 3.5265e-08
0.000321931 0.0275556 1.46103e-09
3.5265e-08 1.46103e-09 0.0334307

0.0358441 -0.00308842 5.64587e-08
-0.00308842 0.0332587 -3.18752e-08
5.64587e-08 -3.18752e-08 0.0341442

0.0349296 -0.00341064 -1.90985e-07
-0.00341064 0.0295956 -3.59258e-08
-1.90985e-07 -3.59258e-08 0.0321789

0.0349104 -0.00113384 1.97985e-08
-0.00113384 0.0278508 1.38276e-07
1.97985e-08 1.38276e-07 0.0323422

0.0314909 -0.00306236 -5.31404e-09
-0.00306236 0.0344493 -1.28371e-07
-5.31404e-09 -1.28371e-07 0.0341473

0.0292361 -0.00407108 8.81373e-09
-0.00407108 0.0269004 -5.71137e-08
8.81373e-09 -5.71137e-08 0.0253468

0.0349937 -0.00324377 -1.76483e-07
-0.00324377 0.0299162 2.12552e-08
-1.76483e-07 2.12552e-08 0.032196

0.031463 0.00140906 1.23086e-07
0.00140906 0.0233276 2.26384e-08
1.23086e-07 2.26384e-08 0.0244843

0.0336656 0.00348409 -1.33227e-07
0.00348409 0.0334448 1.84842e-09
-1.33227e-07 1.84842e-09 0.0336508

0.0298936 -0.00496736 5.94812e-08
-0.00496736 0.0330794 -2.36671e-09
5.94812e-08 -2.36671e-09 0.033858

0.0300438 0.00492035 -1.14435e-07
0.00492035 0.0329411 -1.11928e-07
-1.14435e-07 -1.11928e-07 0.0338249

0.0276888 -0.00374176 8.50882e-08
-0.00374176 0.0348081 3.95415e-08
8.50882e-08 3.95415e-08 0.0337675

0.0279265 0.00354717 1.18007e-07
0.00354717 0.0348356 5.34246e-08
1.18007e-07 5.34246e-08 0.0337323

0.0364306 -0.00115371 1.00697e-07
-0.00115371 0.0263428 -1.43779e-08
1.00697e-07 -1.43779e-08 0.0337586

0.0361991 0.00124763 -5.66704e-08
0.00124763 0.0265641 -6.11038e-08
-5.66704e-08 -6.11038e-08 0.0337215

0.0350357 -0.00130674 -1.56526e-09
-0.00130674 0.0284687 3.50007e-08
-1.56526e-09 3.50007e-08 0.0325766

0.0344371 0.00425898 2.00412e-07
0.00425898 0.03429 -3.4277e-08
2.00412e-07 -3.4277e-08 0.0348132

0.0343129 -0.00435685 -1.83449e-07
-0.00435685 0.0342815 1.11057e-09
-1.83449e-07 1.11057e-09 0.0348016

0.0305216 0.00209364 -3.6531e-08
0.00209364 0.0381662 3.74765e-08
-3.6531e-08 3.74765e-08 0.0348504

0.030665 -0.00205962 -2.1951e-08
-0.00205962 0.0380957 -6.9924e-08
-2.1951e-08 -6.9924e-08 0.0348377

0.0395024 -0.000529024 -1.84069e-07
-0.000529024 0.0328501 2.26328e-09
-1.84069e-07 2.26328e-09 0.0352586

0.0397053 0.000513325 -1.14759e-07
0.000513325 0.0326226 -2.49101e-08
-1.14759e-07 -2.49101e-08 0.0353038

0.0239657 0.00127599 1.88796e-08
0.00127599 0.032004 -2.31114e-07
1.88796e-08 -2.31114e-07 0.0251849

0.031163 -0.00326544 -8.78527e-08
-0.00326544 0.0322415 -1.52631e-07
-8.78527e-08 -1.52631e-07 0.0328026

0.0277808 -0.00478578 1.06406e-07
-0.00478578 0.0333128 -6.93052e-08
1.06406e-07 -6.93052e-08 0.033456

0.0333597 -0.000610495 5.14104e-08
-0.000610495 0.0264039 1.24575e-07
5.14104e-08 1.24575e-07 0.028449

0.0381882 -0.00225187 -1.60006e-07
-0.00225187 0.0307953 4.31794e-08
-1.60006e-07 4.31794e-08 0.0348935

0.0382365 0.00218383 -3.7398e-08
0.00218383 0.0309085 -1.40337e-07
-3.7398e-08 -1.40337e-07 0.0349256

0.0360847 1.56022e-05 1.23072e-07
1.56022e-05 0.0251268 -1.5452e-07
1.23072e-07 -1.5452e-07 0.0334711

0.0242416 0.00302888 -1.30866e-07
0.00302888 0.0303985 -1.62243e-07
-1.30866e-07 -1.62243e-07 0.0242777

0.0276755 0.00475616 2.3788e-08
0.00475616 0.0333136 -7.37831e-08
2.3788e-08 -7.37831e-08 0.0333938

0.0286755 -0.00307593 -9.15971e-08
-0.00307593 0.0342621 -2.08713e-07
-9.15971e-08 -2.08713e-07 0.0327531

0.0310864 0.00303576 -2.20015e-08
0.00303576 0.0251473 -1.1167e-07
-2.20015e-08 -1.1167e-07 0.0254679

0.0372284 0.00316567 7.51423e-08
0.00316567 0.0315414 -1.98171e-07
7.51423e-08 -1.98171e-07 0.0340766

0.0292275 -0.00406733 -9.41731e-08
-0.00406733 0.0269364 7.90819e-08
-9.41731e-08 7.90819e-08 0.025322

0.0364022 -0.000453748 -8.50949e-08
-0.000453748 0.0296922 -7.92203e-08
-8.50949e-08 -7.92203e-08 0.0341318

0.0273453 -0.00449472 8.86499e-10
-0.00449472 0.0333959 6.3146e-08
8.86499e-10 6.3146e-08 0.0334426

0.0240385 0.00107902 5.60338e-08
0.00107902 0.0322451 1.7787e-08
5.60338e-08 1.7787e-08 0.0255066

0.0242303 0.00282661 -6.12759e-08
0.00282661 0.0307024 1.84024e-07
-6.12759e-08 1.84024e-07 0.0245456

0.026793 0.00459449 2.08639e-07
0.00459449 0.0240423 1.95487e-07
2.08639e-07 1.95487e-07 0.018214

0.0298515 0.000199778 -5.15781e-08
0.000199778 0.0200889 -5.24425e-08
-5.15781e-08 -5.24425e-08 0.0193629

0.0319096 -0.00302392 5.88288e-08
-0.00302392 0.0341629 -1.01328e-08
5.88288e-08 -1.01328e-08 0.0340364

0.0229191 0.00399968 -7.49445e-09
0.00399968 0.0276607 -2.33474e-07
-7.49445e-09 -2.33474e-07 0.0176535

0.0292108 0.00310126 -1.29632e-07
0.00310126 0.0327638 -5.66812e-08
-1.29632e-07 -5.66812e-08 0.0310131

0.0315956 -0.000694463 4.68265e-08
-0.000694463 0.0231606 3.609e-08
4.68265e-08 3.609e-08 0.0244855

0.032762 0.00146456 -7.25732e-08
0.00146456 0.0253475 5.18519e-08
-7.25732e-08 5.18519e-08 0.0276137

0.0359794 5.60017e-05 8.89266e-08
5.60017e-05 0.0249597 -8.2644e-08
8.89266e-08 -8.2644e-08 0.0333871

0.0279669 -0.00380547 -4.34146e-08
-0.00380547 0.0349497 1.75845e-07
-4.34146e-08 1.75845e-07 0.0338168

0.039315 -0.000844191 -3.02079e-07
-0.000844191 0.0416027 1.23943e-08
-3.02079e-07 1.23943e-08 0.0361907

0.0298686 0.00493913 -1.58638e-07
0.00493913 0.0329569 9.18822e-08
-1.58638e-07 9.18822e-08 0.0337799

0.0302891 0.000214553 -9.70154e-08
0.000214553 0.0203973 5.77859e-09
-9.70154e-08 5.77859e-09 0.0172765

0.0266745 -0.0042505 1.73773e-08
-0.0042505 0.028134 1.3438e-07
1.73773e-08 1.3438e-07 0.0244381

0.0277471 0.00481591 -1.0965e-07
0.00481591 0.0333159 -1.32418e-07
-1.0965e-07 -1.32418e-07 0.0334562

0.0279458 -0.00145852 1.64531e-07
-0.00145852 0.035086 -3.87158e-08
1.64531e-07 -3.87158e-08 0.0314511

0.0244658 -0.00330513 1.23506e-07
-0.00330513 0.0300164 1.09354e-07
1.23506e-07 1.09354e-07 0.0242177

0.0279917 0.00377937 8.25832e-09
0.00377937 0.0349114 -7.91555e-08
8.25832e-09 -7.91555e-08 0.0337876

0.0313625 -0.00340953 1.12115e-07
-0.00340953 0.0270094 -4.71115e-08
1.12115e-07 -4.71115e-08 0.0269921

0.0402798 0.00140896 1.60647e-07
0.00140896 0.0406183 3.94932e-07
1.60647e-07 3.94932e-07 0.0361712

0.0258819 0.00400291 1.88665e-07
0.00400291 0.0289553 9.32763e-08
1.88665e-07 9.32763e-08 0.0245117

0.0366789 0.00110289 1.20789e-07
0.00110289 0.0263532 1.22228e-07
1.20789e-07 1.22228e-07 0.0338986

0.0333425 0.00398415 -1.43396e-07
0.00398415 0.0321165 -5.16311e-08
-1.43396e-07 -5.16311e-08 0.0333165

0.029229 0.00306721 -6.24558e-08
0.00306721 0.032606 1.08598e-07
-6.24558e-08 1.08598e-07 0.0321586

0.0343655 -0.00431085 5.41927e-08
-0.00431085 0.0345058 -1.29844e-07
5.41927e-08 -1.29844e-07 0.0348858

0.0354905 -0.00306365 1.13368e-07
-0.00306365 0.0305909 6.44041e-08
1.13368e-07 6.44041e-08 0.0327513

0.0333672 0.00138771 -1.89828e-07
0.00138771 0.0395779 -3.79602e-08
-1.89828e-07 -3.79602e-08 0.0350033

0.0291978 -0.00307898 -3.14173e-08
-0.00307898 0.0328741 3.06697e-07
-3.14173e-08 3.06697e-07 0.0313842

0.0292658 -0.00123232 1.72228e-07
-0.00123232 0.0192876 1.43348e-08
1.72228e-07 1.43348e-08 0.0164126

0.0287792 -0.00183246 -3.24485e-08
-0.00183246 0.0184145 1.39872e-07
-3.24485e-08 1.39872e-07 0.0161975

0.0385297 0.00220227 1.18347e-07
0.00220227 0.0332396 -1.39531e-08
1.18347e-07 -1.39531e-08 0.0347637

0.0280569 0.00294511 -1.35198e-07
0.00294511 0.0323359 2.42656e-09
-1.35198e-07 2.42656e-09 0.0295191

0.0320682 0.00383438 2.16386e-07
0.00383438 0.0309618 -4.74406e-08
2.16386e-07 -4.74406e-08 0.0314554

0.032051 8.9925e-05 6.53959e-08
8.9925e-05 0.0245777 1.02527e-07
6.53959e-08 1.02527e-07 0.0248889

0.0302385 0.000866228 -1.07153e-07
0.000866228 0.0385819 -1.19711e-07
-1.07153e-07 -1.19711e-07 0.0340973

0.0354028 0.00219109 -8.0175e-08
0.00219109 0.029324 -1.59061e-07
-8.0175e-08 -1.59061e-07 0.0328593

0.0248122 -0.00333895 -1.73681e-07
-0.00333895 0.0300072 3.2191e-09
-1.73681e-07 3.2191e-09 0.0244708

0.0286515 -0.00033794 1.44093e-07
-0.00033794 0.0366583 -3.8926e-08
1.44093e-07 -3.8926e-08 0.0323967

0.025216 0.00174009 -8.59586e-08
0.00174009 0.0320307 -2.3437e-07
-8.59586e-08 -2.3437e-07 0.0256848

0.0332815 -0.00390973 -1.26474e-08
-0.00390973 0.0304978 5.68239e-08
-1.26474e-08 5.68239e-08 0.0315934

0.0290658 -0.00389606 -4.46519e-08
-0.00389606 0.0282012 1.74829e-07
-4.46519e-08 1.74829e-07 0.0257145

0.0261501 0.00409909 -4.51231e-08
0.00409909 0.0285473 -6.55953e-08
-4.51231e-08 -6.55953e-08 0.024319

0.0452876 -0.00201743 -2.242e-07
-0.00201743 0.0396065 -1.24101e-07
-2.242e-07 -1.24101e-07 0.0363677

0.0316676 0.000256356 1.09778e-08
0.000256356 0.0393277 -1.3523e-08
1.09778e-08 -1.3523e-08 0.03477

0.0306175 0.00265078 -4.16286e-08
0.00265078 0.0384437 2.73357e-07
-4.16286e-08 2.73357e-07 0.0349586

0.0387667 0.00209476 3.48487e-08
0.00209476 0.0302226 1.58332e-07
3.48487e-08 1.58332e-07 0.0349435

0.031372 -0.00345045 -1.70774e-08
-0.00345045 0.0321416 -1.11633e-07
-1.70774e-08 -1.11633e-07 0.0325737

0.0318189 0.00233623 2.35741e-08
0.00233623 0.0256212 -1.78716e-07
2.35741e-08 -1.78716e-07 0.0258805

0.0349944 -0.000708433 -2.67104e-07
-0.000708433 0.0415759 1.12061e-07
-2.67104e-07 1.12061e-07 0.0357285

0.0357892 -0.0025186 1.07843e-07
-0.0025186 0.0295511 -6.54866e-08
1.07843e-07 -6.54866e-08 0.033259

0.0332985 -0.00203978 -1.27161e-07
-0.00203978 0.0266536 -4.54702e-08
-1.27161e-07 -4.54702e-08 0.0286764

0.0252531 0.00151094 4.12532e-08
0.00151094 0.0322755 1.72456e-08
4.12532e-08 1.72456e-08 0.0259509

0.0268054 -0.00334483 -2.461e-07
-0.00334483 0.0300107 9.63488e-08
-2.461e-07 9.63488e-08 0.0251881

0.0364786 -0.00336036 -2.12864e-07
-0.00336036 0.0352884 -2.8949e-08
-2.12864e-07 -2.8949e-08 0.0347432

0.0284765 0.00415237 -6.51048e-08
0.00415237 0.0277168 1.76069e-07
-6.51048e-08 1.76069e-07 0.0254686

0.037245 -0.00334535 2.7338e-08
-0.00334535 0.033323 -1.49189e-08
2.7338e-08 -1.49189e-08 0.0346126

0.0322071 0.000337782 7.66659e-08
0.000337782 0.0248634 9.40335e-08
7.66659e-08 9.40335e-08 0.0254384

0.0191615 -0.00368927 -1.09102e-07
-0.00368927 0.027527 -1.33359e-07
-1.09102e-07 -1.33359e-07 0.0163114

0.0292108 -0.00380372 9.96623e-08
-0.00380372 0.0281936 1.4191e-07
9.96623e-08 1.4191e-07 0.0258086

0.0230466 0.00412745 1.91028e-07
0.00412745 0.0280214 -4.94925e-08
1.91028e-07 -4.94925e-08 0.0175927

0.0296918 -0.00155914 -1.52472e-07
-0.00155914 0.0375342 2.25108e-07
-1.52472e-07 2.25108e-07 0.0336494

0.0243608 -0.00179365 -8.78683e-09
-0.00179365 0.0318734 1.19553e-07
-8.78683e-09 1.19553e-07 0.0254487

0.0424378 -0.0032341 -1.43797e-07
-0.0032341 0.0423769 -3.38519e-09
-1.43797e-07 -3.38519e-09 0.0363761

0.0263375 0.00309107 1.31613e-07
0.00309107 0.0307026 1.84242e-07
1.31613e-07 1.84242e-07 0.0254786

0.0334781 -0.0043234 6.68056e-08
-0.0043234 0.0326604 -2.78939e-08
6.68056e-08 -2.78939e-08 0.0335672

0.0240813 -0.00155088 6.07528e-08
-0.00155088 0.031888 -1.49986e-07
6.07528e-08 -1.49986e-07 0.0251775

0.0362238 -0.00253876 7.09787e-08
-0.00253876 0.0295118 -7.24134e-08
7.09787e-08 -7.24134e-08 0.0335201

0.0266743 0.0031048 1.56703e-08
0.0031048 0.0303955 -1.64749e-07
1.56703e-08 -1.64749e-07 0.0253139

0.0343437 -0.000653694 2.11277e-08
-0.000653694 0.0272775 -2.86457e-08
2.11277e-08 -2.86457e-08 0.0305784

0.0188908 -0.00387158 -2.18549e-08
-0.00387158 0.0298024 -3.33044e-07
-2.18549e-08 -3.33044e-07 0.0129616

0.0279999 0.00275465 -9.85155e-08
0.00275465 0.03263 2.74367e-07
-9.85155e-08 2.74367e-07 0.0305743

0.0314383 -0.0025124 1.7264e-07
-0.0025124 0.0247228 -7.59108e-08
1.7264e-07 -7.59108e-08 0.0254065

0.039119 -0.00286931 2.7227e-08
-0.00286931 0.032222 9.5954e-08
2.7227e-08 9.5954e-08 0.0349374

0.0287537 0.00412394 -1.42821e-07
0.00412394 0.0273005 -1.36097e-07
-1.42821e-07 -1.36097e-07 0.025256

0.031362 -0.00391934 -1.61302e-08
-0.00391934 0.0285425 1.45783e-07
-1.61302e-08 1.45783e-07 0.0287315

0.0354088 0.00276389 -9.4281e-08
0.00276389 0.0308564 -4.02168e-09
-9.4281e-08 -4.02168e-09 0.0330397

0.0297733 -0.00370345 -8.2261e-08
-0.00370345 0.0329381 -9.09852e-09
-8.2261e-08 -9.09852e-09 0.0333428

0.0270556 -0.00341022 -4.00795e-08
-0.00341022 0.0299831 1.34903e-08
-4.00795e-08 1.34903e-08 0.0253978

0.0284412 0.00377119 -6.32415e-09
0.00377119 0.0289402 8.78946e-08
-6.32415e-09 8.78946e-08 0.0258876

0.0313719 0.00341348 -6.01539e-08
0.00341348 0.0268998 -1.78166e-07
-6.01539e-08 -1.78166e-07 0.0269663

0.0365368 -0.00194425 6.7086e-08
-0.00194425 0.0306256 -8.06985e-08
6.7086e-08 -8.06985e-08 0.033636

0.0255339 -0.00216335 -1.21476e-07
-0.00216335 0.0318021 1.1002e-07
-1.21476e-07 1.1002e-07 0.025854

0.0346995 -0.00231407 -1.13201e-08
-0.00231407 0.0283345 3.43066e-08
-1.13201e-08 3.43066e-08 0.0314562

0.0341863 0.00222324 -2.04181e-08
0.00222324 0.0274321 -1.90426e-07
-2.04181e-08 -1.90426e-07 0.0306041

0.0336451 -0.00124579 -3.04597e-07
-0.00124579 0.0393004 8.4762e-08
-3.04597e-07 8.4762e-08 0.0349276

0.0320725 -0.00174672 1.46129e-07
-0.00174672 0.0253307 -1.26829e-07
1.46129e-07 -1.26829e-07 0.0258714

0.025002 7.96567e-05 -5.06657e-08
7.96567e-05 0.0331517 -1.18154e-07
-5.06657e-08 -1.18154e-07 0.0268614

0.0332472 0.00242866 -1.24238e-07
0.00242866 0.0271938 -3.10547e-08
-1.24238e-07 -3.10547e-08 0.0289223

0.0311179 0.00359886 1.00114e-07
0.00359886 0.0272927 1.34737e-07
1.00114e-07 1.34737e-07 0.0271228

0.0252957 -0.00204114 -1.93619e-08
-0.00204114 0.0318647 -1.51895e-07
-1.93619e-08 -1.51895e-07 0.0256112

0.0252013 -0.000154591 1.56319e-08
-0.000154591 0.0332919 7.99844e-08
1.56319e-08 7.99844e-08 0.0271442

0.0354132 0.00385831 -1.7634e-07
0.00385831 0.0329956 9.52262e-09
-1.7634e-07 9.52262e-09 0.0338956

0.027586 -0.00143095 -1.2923e-10
-0.00143095 0.0353418 -8.23486e-08
-1.2923e-10 -8.23486e-08 0.0314422

0.0312341 -0.00348389 1.71967e-07
-0.00348389 0.0269777 8.92911e-08
1.71967e-07 8.92911e-08 0.0270099

0.031297 0.00277263 5.56159e-08
0.00277263 0.0249223 2.04792e-08
5.56159e-08 2.04792e-08 0.0252463

0.0345827 0.00311827 1.3849e-07
0.00311827 0.0293868 1.03279e-07
1.3849e-07 1.03279e-07 0.0317959

0.0279914 0.000716653 5.93456e-08
0.000716653 0.0360394 1.96762e-08
5.93456e-08 1.96762e-08 0.0318183

0.0287165 0.00378131 -1.86492e-07
0.00378131 0.0285593 -6.27623e-08
-1.86492e-07 -6.27623e-08 0.025728

0.0367907 0.00305779 8.77039e-08
0.00305779 0.0361254 -1.54665e-07
8.77039e-08 -1.54665e-07 0.0349072

0.0226801 -0.00754541 -1.6631e-07
-0.00754541 0.0186879 -8.28428e-08
-1.6631e-07 -8.28428e-08 0.0108452

0.0332911 -0.00328736 -6.99013e-08
-0.00328736 0.0286326 1.416e-07
-6.99013e-08 1.416e-07 0.0301241

0.0207269 0.000913455 -1.49011e-07
0.000913455 0.0300315 2.83681e-07
-1.49011e-07 2.83681e-07 0.0183465

0.0313005 -0.00378172 -1.4273e-07
-0.00378172 0.0292312 -8.05469e-08
-1.4273e-07 -8.05469e-08 0.0290317

0.00153958 -0.00651881 3.5349e-08
-0.00651881 0.0275684 -1.54874e-07
3.5349e-08 -1.54874e-07 0.00290833

0.00146997 0.00636837 -3.59712e-08
0.00636837 0.0275863 -1.576e-07
-3.59712e-08 -1.576e-07 0.00300132

0.0119847 0.014505 1.17579e-07
0.014505 0.0175325 1.47439e-07
1.17579e-07 1.47439e-07 0.00277124

0.012166 -0.0144957 1.06235e-07
-0.0144957 0.017224 -1.33215e-07
1.06235e-07 -1.33215e-07 0.00280385

0.0293407 -0.00016409 1.53509e-07
-0.00016409 0 0
1.53509e-07 0 0.00295267

0.0235923 -0.0112827 -5.03648e-08
-0.0112827 0.0053955 2.42544e-08
-5.03648e-08 2.42544e-08 0.00297836

0.0236343 0.0113489 1.58498e-07
0.0113489 0.00544956 7.63288e-08
1.58498e-07 7.63288e-08 0.00303949

0.0369112 0.00191129 1.3931e-07
0.00191129 0.0302426 6.31e-08
1.3931e-07 6.31e-08 0.033878

0.0387053 0.00341007 1.11448e-07
0.00341007 0.0366174 -2.50053e-08
1.11448e-07 -2.50053e-08 0.0355787

0.0344152 0.000872383 6.57987e-08
0.000872383 0.0274571 4.82251e-08
6.57987e-08 4.82251e-08 0.0316882

0.032873 0.00285023 -4.24931e-08
0.00285023 0.0268897 -1.78293e-07
-4.24931e-08 -1.78293e-07 0.0286466

0.0257009 0.00231327 4.0615e-08
0.00231327 0.0323673 2.12828e-08
4.0615e-08 2.12828e-08 0.0276359

0.0307132 0.00376904 6.78383e-08
0.00376904 0.0276763 1.82537e-07
6.78383e-08 1.82537e-07 0.027118

0.033306 -0.0039032 -5.78532e-08
-0.0039032 0.030466 -8.2671e-09
-5.78532e-08 -8.2671e-09 0.0316302

0.030974 0.00365456 -8.43347e-08
0.00365456 0.0272872 -1.35507e-07
-8.43347e-08 -1.35507e-07 0.0269256

0.0249874 -0.000371463 8.01683e-08
-0.000371463 0.0331228 -1.13956e-07
8.01683e-08 -1.13956e-07 0.0268435

0.0385482 -0.0034846 8.79679e-09
-0.0034846 0.0368812 1.88554e-07
8.79679e-09 1.88554e-07 0.0355843

0.0251759 -0.000635558 -3.02405e-08
-0.000635558 0.0332105 7.609e-08
-3.02405e-08 7.609e-08 0.0271031

0.0360183 0.00304732 -1.35898e-07
0.00304732 0.0330113 -9.8561e-08
-1.35898e-07 -9.8561e-08 0.0340984

0.0296234 0.0034758 -1.34391e-07
0.0034758 0.0248467 3.1395e-08
-1.34391e-07 3.1395e-08 0.0230232

0.0304968 -0.001714 -1.03299e-07
-0.001714 0.0375129 1.06959e-07
-1.03299e-07 1.06959e-07 0.034737

0.0339212 0.00180455 9.40117e-08
0.00180455 0.027182 -2.90394e-08
9.40117e-08 -2.90394e-08 0.0303209

0.0312015 -0.00392045 1.3215e-07
-0.00392045 0.0285316 1.56561e-07
1.3215e-07 1.56561e-07 0.0286149

0.0315842 -0.00322139 1.2652e-07
-0.00322139 0.026692 1.84367e-09
1.2652e-07 1.84367e-09 0.0270481

0.0384801 -0.00214153 8.23906e-08
-0.00214153 0.0334176 9.01831e-08
8.23906e-08 9.01831e-08 0.0347454

0.0326818 0.00366411 -3.42798e-08
0.00366411 0.0292326 1.65409e-07
-3.42798e-08 1.65409e-07 0.0301555

0.0326454 0.00313764 -5.22639e-08
0.00313764 0.0272527 1.28754e-07
-5.22639e-08 1.28754e-07 0.0287885

0.0269556 -0.000365072 -1.31099e-07
-0.000365072 0.0349879 -9.12855e-09
-1.31099e-07 -9.12855e-09 0.0301685

0.0259001 0.000765926 -6.93457e-08
0.000765926 0.0340044 -1.03761e-07
-6.93457e-08 -1.03761e-07 0.0288235

0.0327787 0.000345272 6.77863e-08
0.000345272 0.0248622 9.3664e-08
6.77863e-08 9.3664e-08 0.0274443

0.0313879 -0.000945023 -4.08927e-08
-0.000945023 0.0230043 -8.99988e-08
-4.08927e-08 -8.99988e-08 0.0238926

0.0308814 0.00398524 1.00615e-07
0.00398524 0.0288065 2.02764e-07
1.00615e-07 2.02764e-07 0.0286247

0.0331187 -0.00343149 8.9194e-09
-0.00343149 0.0285411 1.55534e-07
8.9194e-09 1.55534e-07 0.0299699

0.0364132 -0.00282357 1.23364e-07
-0.00282357 0.0327335 5.2421e-08
1.23364e-07 5.2421e-08 0.0341447

0.0292067 -0.00412761 2.28447e-07
-0.00412761 0.0291928 -5.43151e-08
2.28447e-07 -5.43151e-08 0.0277545

0.0269724 -0.00362041 -1.43084e-07
-0.00362041 0.0304654 -7.63917e-08
-1.43084e-07 -7.63917e-08 0.027214

0.0283269 0.00389957 -1.23068e-07
0.00389957 0.0299018 -1.43902e-07
-1.23068e-07 -1.43902e-07 0.0277526

0.0259018 -0.0012489 -9.63158e-08
-0.0012489 0.0336144 1.64646e-07
-9.63158e-08 1.64646e-07 0.0285165

0.0266551 -0.00020205 -1.65694e-07
-0.00020205 0.0349136 3.71332e-08
-1.65694e-07 3.71332e-08 0.0299204

0.0277629 0.000753041 -1.17388e-07
0.000753041 0.0360389 2.10109e-08
-1.17388e-07 2.10109e-08 0.0316588

0.0262477 -0.00274965 4.96467e-09
-0.00274965 0.0319637 -7.86439e-08
4.96467e-09 -7.86439e-08 0.0277112

0.0345831 0.00317579 1.01143e-07
0.00317579 0.0291689 1.73565e-07
1.01143e-07 1.73565e-07 0.031635

0.0339096 -0.0012611 2.62401e-08
-0.0012611 0.0269309 -1.59585e-08
2.62401e-08 -1.59585e-08 0.0302023

0.0257909 0.000974115 9.20274e-08
0.000974115 0.0338301 1.36703e-07
9.20274e-08 1.36703e-07 0.0285425

0.0278246 -0.00126993 -7.90387e-08
-0.00126993 0.0353976 -9.84483e-08
-7.90387e-08 -9.84483e-08 0.0313666

0.0272936 -0.00213708 2.33269e-08
-0.00213708 0.0336581 -3.19857e-08
2.33269e-08 -3.19857e-08 0.0302263

0.0327778 -0.00107721 5.20631e-08
-0.00107721 0.0253204 -2.10643e-07
5.20631e-08 -2.10643e-07 0.0272549

0.0333158 -0.00427104 1.13139e-07
-0.00427104 0.0323813 -1.36186e-07
1.13139e-07 -1.36186e-07 0.0335298

0.0264892 0.00121977 -2.9066e-08
0.00121977 0.0338362 1.35214e-07
-2.9066e-08 1.35214e-07 0.0288166

0.0398112 -0.00243167 9.81759e-08
-0.00243167 0.0352189 -3.99073e-08
9.81759e-08 -3.99073e-08 0.0354616

0.0188891 0.00316474 4.39387e-08
0.00316474 0.0278769 -6.32731e-08
4.39387e-08 -6.32731e-08 0.0162731

0.0338161 -0.00352282 2.01994e-07
-0.00352282 0.0334956 5.29798e-09
2.01994e-07 5.29798e-09 0.0337267

0.0353445 -0.00399958 9.13012e-08
-0.00399958 0.0330471 9.10986e-08
9.13012e-08 9.10986e-08 0.0339046

0.0266863 -9.06829e-05 1.48766e-07
-9.06829e-05 0.0349187 4.43459e-08
1.48766e-07 4.43459e-08 0.0299285

0.0332439 -0.00217651 -2.44848e-07
-0.00217651 0.0271536 1.65796e-07
-2.44848e-07 1.65796e-07 0.0289033

0.0293481 0.00168476 3.71196e-09
0.00168476 0.0358203 -6.56588e-08
3.71196e-09 -6.56588e-08 0.0328803

0.0132077 -0.000379156 -2.90852e-07
-0.000379156 0.0283628 -2.61989e-07
-2.90852e-07 -2.61989e-07 0.0111521

0.0271142 0.00186857 -1.12416e-07
0.00186857 0.0340625 -2.156e-08
-1.12416e-07 -2.156e-08 0.0303068

0.0311096 -0.00385865 7.19134e-08
-0.00385865 0.0291547 3.50944e-08
7.19134e-08 3.50944e-08 0.028807

0.0186201 0.00320463 -8.19839e-08
0.00320463 0.0301399 -4.09755e-07
-8.19839e-08 -4.09755e-07 0.0131271

0.0426002 0.00351784 2.2803e-07
0.00351784 0.0418486 2.86096e-07
2.2803e-07 2.86096e-07 0.0364809

0.043206 -0.00374836 1.35058e-07
-0.00374836 0.0414175 -1.3499e-07
1.35058e-07 -1.3499e-07 0.0364632

0.0310659 -0.00399093 -1.90957e-07
-0.00399093 0.0304716 -5.03089e-09
-1.90957e-07 -5.03089e-09 0.0304616

0.0289227 -0.0040642 4.00034e-08
-0.0040642 0.0291511 3.47632e-08
4.00034e-08 3.47632e-08 0.0275949

0.0330515 0.00272704 1.38816e-07
0.00272704 0.0275289 -1.76227e-07
1.38816e-07 -1.76227e-07 0.0290759

0.0327801 0.00196021 1.39345e-07
0.00196021 0.0255916 -1.74697e-07
1.39345e-07 -1.74697e-07 0.0278232

0.0464016 0.000418534 4.48777e-07
0.000418534 0.046356 -7.6148e-08
4.48777e-07 -7.6148e-08 0.0366951

0.0469203 -0.000951172 -3.30866e-07
-0.000951172 0.0457687 1.13806e-07
-3.30866e-07 1.13806e-07 0.0367662

0.0347999 0.000638333 -4.63105e-08
0.000638333 0.0275734 1.45714e-07
-4.63105e-08 1.45714e-07 0.032217

0.0277522 0.000882505 -1.20566e-07
0.000882505 0.0355712 -7.90857e-09
-1.20566e-07 -7.90857e-09 0.031349

0.0276081 0.000882732 1.22168e-07
0.000882732 0.0355713 -9.74081e-10
1.22168e-07 -9.74081e-10 0.0312452

0.0234594 0.00740003 1.82528e-07
0.00740003 0.0183022 -2.24858e-07
1.82528e-07 -2.24858e-07 0.0109017

0.0272477 -0.00367564 1.30123e-07
-0.00367564 0.0303477 -2.39641e-07
1.30123e-07 -2.39641e-07 0.0273198

0.036567 0.00239169 9.88179e-08
0.00239169 0.0295766 1.14891e-07
9.88179e-08 1.14891e-07 0.0337848

0.0332743 0.00124755 3.30492e-08
0.00124755 0.0265045 2.9846e-08
3.30492e-08 2.9846e-08 0.0284322

0.0291531 -0.00349249 -1.49788e-08
-0.00349249 0.0304716 -6.57899e-08
-1.49788e-08 -6.57899e-08 0.0281737

0.0328119 -0.00264772 -3.61306e-07
-0.00264772 0.0267282 -1.41179e-08
-3.61306e-07 -1.41179e-08 0.0285871

0.0224604 0.00761297 -2.7199e-07
0.00761297 0.0185906 1.13668e-07
-2.7199e-07 1.13668e-07 0.0109041

0.0331452 0.00410216 -1.21464e-07
0.00410216 0.0326385 -1.02718e-07
-1.21464e-07 -1.02718e-07 0.033182

0.0258905 -0.00257812 -1.54151e-07
-0.00257812 0.0320242 6.9138e-08
-1.54151e-07 6.9138e-08 0.0275077

0.0324829 0.00378585 1.77181e-07
0.00378585 0.0292685 -1.21639e-07
1.77181e-07 -1.21639e-07 0.0301472

0.0268163 -0.000543733 1.28028e-07
-0.000543733 0.0349528 1.73585e-08
1.28028e-07 1.73585e-08 0.0301382

0.0269903 0.00256341 -1.67636e-07
0.00256341 0.0324486 -2.49987e-08
-1.67636e-07 -2.49987e-08 0.0282868

0.0305267 0.00399113 -9.60182e-08
0.00399113 0.0293237 -1.46871e-07
-9.60182e-08 -1.46871e-07 0.0287754

0.0276092 -0.00293723 2.254e-07
-0.00293723 0.0318542 -3.95789e-08
2.254e-07 -3.95789e-08 0.0282493

0.0294561 -0.00357577 1.19837e-07
-0.00357577 0.0303514 -2.40535e-07
1.19837e-07 -2.40535e-07 0.0283053

0.0181379 0.00142552 4.12117e-07
0.00142552 0.0280368 3.09741e-07
4.12117e-07 3.09741e-07 0.0131278

0.0234741 -0.00429407 7.24012e-08
-0.00429407 0.0275566 -1.3847e-07
7.24012e-08 -1.3847e-07 0.0177236

0.0262058 -0.00152615 8.1723e-08
-0.00152615 0.0336242 -8.65489e-08
8.1723e-08 -8.65489e-08 0.0287521

0.0330236 0.00347477 1.39368e-08
0.00347477 0.028878 2.10444e-07
1.39368e-08 2.10444e-07 0.0300692

0.0303221 0.00385748 -9.9933e-08
0.00385748 0.029887 -1.42499e-07
-9.9933e-08 -1.42499e-07 0.0289906

0.0274145 -0.00280061 -6.3785e-08
-0.00280061 0.0319838 7.57482e-08
-6.3785e-08 7.57482e-08 0.0281393

0.0265548 -0.00154054 -1.03402e-07
-0.00154054 0.0335829 1.64321e-07
-1.03402e-07 1.64321e-07 0.0287465

0.0309567 0.00371843 1.57437e-07
0.00371843 0.0295638 9.13133e-08
1.57437e-07 9.13133e-08 0.0289414

0.0267595 -0.0018162 -5.95249e-09
-0.0018162 0.0334746 -1.05337e-07
-5.95249e-09 -1.05337e-07 0.0289545

0.0191662 0.00355453 -2.5284e-07
0.00355453 0.027608 -2.60824e-07
-2.5284e-07 -2.60824e-07 0.0162923

0.0308736 -0.000534781 -3.05354e-08
-0.000534781 0.0388191 1.70517e-07
-3.05354e-08 1.70517e-07 0.0342946

0.0286567 0.00404794 -6.99312e-08
0.00404794 0.0295189 1.16601e-07
-6.99312e-08 1.16601e-07 0.0277148

0.0355799 0.00197499 -2.27628e-07
0.00197499 0.0295033 1.22474e-07
-2.27628e-07 1.22474e-07 0.0328429

0.0362593 -0.00211474 1.43935e-07
-0.00211474 0.0297555 -1.45973e-08
1.43935e-07 -1.45973e-08 0.0332181

0.028511 -0.00309571 1.35038e-07
-0.00309571 0.0185691 -1.61275e-07
1.35038e-07 -1.61275e-07 0.01573

0.0283537 -0.00279018 2.21431e-07
-0.00279018 0.0327754 2.16648e-07
2.21431e-07 2.16648e-07 0.0305718

0.0291915 0.00350114 1.54046e-07
0.00350114 0.0315999 -1.66092e-08
1.54046e-07 -1.66092e-08 0.0304877

0.0349594 -0.00290793 2.79009e-10
-0.00290793 0.0376754 -2.30697e-07
2.79009e-10 -2.30697e-07 0.0352363

0.0394602 0.00188506 1.7199e-07
0.00188506 0.0446079 9.3718e-08
1.7199e-07 9.3718e-08 0.0364331

0.044944 0.00129057 -1.55786e-07
0.00129057 0.039116 -2.01526e-08
-1.55786e-07 -2.01526e-08 0.036415

0.0355609 0.0043454 7.64718e-08
0.0043454 0.0351348 5.54616e-08
7.64718e-08 5.54616e-08 0.0350035

0.026572 0.00338792 -9.2314e-08
0.00338792 0.0310067 -2.22892e-07
-9.2314e-08 -2.22892e-07 0.027256

0.0330392 0.00349699 8.10245e-08
0.00349699 0.0286672 4.17676e-08
8.10245e-08 4.17676e-08 0.0300502

0.02206 0.00576422 -1.43027e-07
0.00576422 0.0242377 -2.03361e-08
-1.43027e-07 -2.03361e-08 0.0160725

0.0386182 -0.00151216 1.17965e-07
-0.00151216 0.0444325 -2.76361e-07
1.17965e-07 -2.76361e-07 0.0363622

0.046048 -0.00046571 4.52757e-08
-0.00046571 0.0454391 1.43296e-07
4.52757e-08 1.43296e-07 0.0366911

0.0451801 -3.2341e-05 -2.67203e-07
-3.2341e-05 0.0463028 7.12232e-07
-2.67203e-07 7.12232e-07 0.0366731

0.017641 -0.00679492 2.48894e-07
-0.00679492 0.0231083 2.0908e-07
2.48894e-07 2.0908e-07 0.0107386

0.0392922 -0.0015557 1.30364e-07
-0.0015557 0.0387144 1.36409e-07
1.30364e-07 1.36409e-07 0.0358537

0.0383967 0.00117657 -3.72523e-07
0.00117657 0.0415173 -6.21957e-09
-3.72523e-07 -6.21957e-09 0.0361251

0.0331756 -0.00343546 -1.76669e-07
-0.00343546 0.0282196 -2.7279e-07
-1.76669e-07 -2.7279e-07 0.0299037

0.0318447 0.000140564 -1.87886e-07
0.000140564 0.0386718 1.86533e-07
-1.87886e-07 1.86533e-07 0.0344506

0.0285771 -0.00266023 3.70781e-08
-0.00266023 0.0333806 -1.32825e-08
3.70781e-08 -1.32825e-08 0.0315895

0.0356621 0.000831755 -1.91164e-07
0.000831755 0.0273779 3.71065e-08
-1.91164e-07 3.71065e-08 0.0330003

0.0288763 0.00204438 -1.99431e-08
0.00204438 0.036817 -1.31255e-07
-1.99431e-08 -1.31255e-07 0.0336698

0.0298696 0.000946305 9.56157e-08
0.000946305 0.0373886 -1.24994e-07
9.56157e-08 -1.24994e-07 0.0333637

0.0344023 0.00268495 5.0437e-08
0.00268495 0.0288518 4.57174e-08
5.0437e-08 4.57174e-08 0.0312265

0.0132793 -0.000409304 3.66288e-07
-0.000409304 0.028123 -2.32698e-07
3.66288e-07 -2.32698e-07 0.0112015

0.0309648 -0.00362614 1.22537e-07
-0.00362614 0.0309155 -5.42961e-08
1.22537e-07 -5.42961e-08 0.0306098

0.0329286 -0.00344334 -6.81454e-08
-0.00344334 0.0320213 2.84533e-08
-6.81454e-08 2.84533e-08 0.0325795

0.0335717 -0.00415912 2.71391e-08
-0.00415912 0.0325347 -1.80943e-07
2.71391e-08 -1.80943e-07 0.0337359

0.0265623 0.0041488 -2.43552e-07
0.0041488 0.0176917 -1.45195e-07
-2.43552e-07 -1.45195e-07 0.0126053

0.0388284 -0.00269667 1.3863e-07
-0.00269667 0.039576 -1.14809e-07
1.3863e-07 -1.14809e-07 0.0359585

0.0230831 0.00692076 4.4357e-08
0.00692076 0.0255023 2.29262e-07
4.4357e-08 2.29262e-07 0.0126096

0.0308753 -0.00281754 -1.67968e-07
-0.00281754 0.0348081 3.95453e-08
-1.67968e-07 3.95453e-08 0.0339565

0.0354119 0.00193657 -5.38313e-08
0.00193657 0.0284661 -1.22303e-07
-5.38313e-08 -1.22303e-07 0.0323449

0.0318215 -0.00189344 3.49114e-08
-0.00189344 0.0249509 -2.14854e-07
3.49114e-08 -2.14854e-07 0.0253957

0.0292928 0.0031594 4.59703e-08
0.0031594 0.0327324 2.99982e-07
4.59703e-08 2.99982e-07 0.0312799

0.0344376 0.00268877 8.63834e-08
0.00268877 0.0286348 -3.96034e-08
8.63834e-08 -3.96034e-08 0.0312211

0.0325189 0.00149904 2.70621e-08
0.00149904 0.0403736 2.20785e-07
2.70621e-08 2.20785e-07 0.0353368

0.0319409 -0.00415452 -6.95422e-08
-0.00415452 0.0312014 4.70368e-08
-6.95422e-08 4.70368e-08 0.0318109

0.0396763 0.00265536 -7.17217e-08
0.00265536 0.0331987 -1.97582e-08
-7.17217e-08 -1.97582e-08 0.0353162

0.0279719 -0.00241879 5.05808e-08
-0.00241879 0.0335517 -2.76723e-08
5.05808e-08 -2.76723e-08 0.0304709

0.0293511 0.00055837 6.7538e-08
0.00055837 0.0373123 -1.27953e-07
6.7538e-08 -1.27953e-07 0.0332529

0.041943 0.00133779 1.09806e-08
0.00133779 0.0371 -1.19958e-08
1.09806e-08 -1.19958e-08 0.0361164

0.0420973 -0.00114787 -1.70213e-07
-0.00114787 0.0373267 1.70126e-07
-1.70213e-07 1.70126e-07 0.0360983

0.0283836 0.00236915 3.42884e-08
0.00236915 0.0181818 -1.87208e-07
3.42884e-08 -1.87208e-07 0.01595

0.035026 0.00106142 -1.02876e-07
0.00106142 0.0285665 -1.19609e-07
-1.02876e-07 -1.19609e-07 0.0330593

0.0128671 0.000923427 3.19671e-07
0.000923427 0.0316269 1.0834e-07
3.19671e-07 1.0834e-07 0.00612181

0.0131627 -0.00138817 -2.82516e-07
-0.00138817 0.0321325 6.11706e-08
-2.82516e-07 6.11706e-08 0.00611213

0.015269 0.0071543 1.15077e-07
0.0071543 0.0284535 1.58081e-07
1.15077e-07 1.58081e-07 0.00598429

0.0347643 -0.00382123 1.42533e-07
-0.00382123 0.0312682 1.1676e-07
1.42533e-07 1.1676e-07 0.0329394

0.015581 -0.00619444 -1.42213e-07
-0.00619444 0.0261534 1.57699e-07
-1.42213e-07 1.57699e-07 0.0104721

0.0155131 -0.00708693 2.14266e-07
-0.00708693 0.0274238 2.51356e-07
2.14266e-07 2.51356e-07 0.00591405

0.0284264 0.00342579 -6.50492e-08
0.00342579 0.031007 -2.22977e-07
-6.50492e-08 -2.22977e-07 0.0281531

0.0251936 0.00932604 -1.87342e-07
0.00932604 0.019021 2.05754e-07
-1.87342e-07 2.05754e-07 0.00593395

0.0365382 0.00173197 6.51655e-08
0.00173197 0.0385518 2.48767e-07
6.51655e-08 2.48767e-07 0.0354754

0.0395353 2.52318e-05 1.14453e-07
2.52318e-05 0.0355401 -1.01667e-07
1.14453e-07 -1.01667e-07 0.0354561

0.0261075 -0.00924456 -7.24501e-08
-0.00924456 0.0188128 -1.71143e-07
-7.24501e-08 -1.71143e-07 0.00588812

0.0276903 -0.0030655 2.62865e-08
-0.0030655 0.0320957 -7.55286e-08
2.62865e-08 -7.55286e-08 0.0296233

0.0262556 0.00441824 -2.67099e-07
0.00441824 0.0201583 -5.50612e-08
-2.67099e-07 -5.50612e-08 0.0130448

0.0172796 0.00797328 2.70903e-08
0.00797328 0.0271493 -1.3935e-07
2.70903e-08 -1.3935e-07 0.00598797

0.0181965 0.00275521 1.25165e-07
0.00275521 0.0275904 3.57633e-07
1.25165e-07 3.57633e-07 0.0128503

0.0173045 -0.00827643 -1.30932e-09
-0.00827643 0.0271527 -1.43982e-07
-1.30932e-09 -1.43982e-07 0.00581384

0.0179332 -0.00157105 -5.2225e-07
-0.00157105 0.0280059 2.5184e-07
-5.2225e-07 2.5184e-07 0.0126907

0.0370504 0.000923236 -5.08706e-08
0.000923236 0.0413003 9.46817e-08
-5.08706e-08 9.46817e-08 0.0358103

0.0221314 -0.00585527 1.84608e-07
-0.00585527 0.0236651 -1.13487e-07
1.84608e-07 -1.13487e-07 0.0151591

0.0157003 0.00598631 1.89493e-07
0.00598631 0.0259027 2.08732e-07
1.89493e-07 2.08732e-07 0.0107504

0.0302089 0.00473017 1.29255e-08
0.00473017 0.0143495 -2.44333e-07
1.29255e-08 -2.44333e-07 0.00611595

0.0329388 -0.00384948 9.54593e-08
-0.00384948 0.0301246 -4.46508e-08
9.54593e-08 -4.46508e-08 0.0310516

0.030889 0.00169375 6.34554e-08
0.00169375 0.0368435 -1.34888e-07
6.34554e-08 -1.34888e-07 0.0339505

0.0260905 -0.00484399 -2.75601e-08
-0.00484399 0.0191974 -4.23839e-08
-2.75601e-08 -4.23839e-08 0.0126953

0.0330011 -0.00378593 1.08773e-07
-0.00378593 0.0300757 -1.31003e-08
1.08773e-07 -1.31003e-08 0.0311279

0.0300192 -0.00451996 4.86451e-08
-0.00451996 0.0130537 1.82444e-07
4.86451e-08 1.82444e-07 0.0060374

0.0324737 -0.00372748 -4.2664e-09
-0.00372748 0.0313076 1.42814e-07
-4.2664e-09 1.42814e-07 0.0319798

0.0280914 -0.00331116 1.63083e-07
-0.00331116 0.0320043 4.26485e-08
1.63083e-07 4.26485e-08 0.0296258

0.0234439 0.00874375 1.4805e-07
0.00874375 0.0204833 -2.50928e-07
1.4805e-07 -2.50928e-07 0.00602625

0.0182 -0.00292082 -1.73455e-08
-0.00292082 0.0268669 4.56473e-07
-1.73455e-08 4.56473e-07 0.0122702

0.0233149 -0.00901943 -3.97601e-08
-0.00901943 0.0201523 -1.81007e-07
-3.97601e-08 -1.81007e-07 0.00588408

0.0170827 0.00640825 -1.83111e-07
0.00640825 0.0235663 -2.23827e-07
-1.83111e-07 -2.23827e-07 0.0108312

0.0308264 -0.00396039 1.24807e-07
-0.00396039 0.0301608 -4.7218e-08
1.24807e-07 -4.7218e-08 0.0300859

0.0389183 -0.00195853 4.40275e-08
-0.00195853 0.0369408 -9.17038e-08
4.40275e-08 -9.17038e-08 0.0354998

0.045541 0.00150561 2.33136e-07
0.00150561 0.0449523 2.39126e-07
2.33136e-07 2.39126e-07 0.0366193

0.0435647 -0.000712243 -2.56023e-07
-0.000712243 0.0462302 -3.32557e-08
-2.56023e-07 -3.32557e-08 0.036585

0.0286158 0.0017158 -5.88782e-08
0.0017158 0.0355659 1.11547e-07
-5.88782e-08 1.11547e-07 0.03239

0.0453362 -0.00144695 -4.40386e-08
-0.00144695 0.0449791 -2.97985e-07
-4.40386e-08 -2.97985e-07 0.036637

0.0438073 0.000568079 -2.58945e-07
0.000568079 0.0465049 -5.20981e-07
-2.58945e-07 -5.20981e-07 0.0366181

0.04668 0.000991293 -9.14617e-08
0.000991293 0.0433773 3.23291e-09
-9.14617e-08 3.23291e-09 0.0365933

0.0397505 -0.00163947 -2.5473e-07
-0.00163947 0.0460759 -3.67014e-07
-2.5473e-07 -3.67014e-07 0.036483

0.0190542 -0.00388731 1.79754e-07
-0.00388731 0.027231 5.26271e-08
1.79754e-07 5.26271e-08 0.0154714

0.0421412 -0.00174988 -1.22316e-07
-0.00174988 0.0367255 -5.8185e-08
-1.22316e-07 -5.8185e-08 0.036005

0.0359638 -0.00457336 -7.11444e-08
-0.00457336 0.035151 5.16402e-08
-7.11444e-08 5.16402e-08 0.0349684

0.0397533 -0.00242138 -5.4473e-08
-0.00242138 0.0360645 5.63906e-08
-5.4473e-08 5.63906e-08 0.0355674

0.0351851 0.00204329 -1.10443e-07
0.00204329 0.0285494 -5.22019e-08
-1.10443e-07 -5.22019e-08 0.0322322

0.0396925 0.00133741 -3.00087e-07
0.00133741 0.0472276 3.34956e-08
-3.00087e-07 3.34956e-08 0.0365488

0.0464955 0.00259382 1.07092e-07
0.00259382 0.0404188 3.70821e-07
1.07092e-07 3.70821e-07 0.03653

0.0400871 0.00150559 8.30295e-08
0.00150559 0.0366737 5.29151e-08
8.30295e-08 5.29151e-08 0.0356155

0.0279151 -0.00191997 -3.03452e-07
-0.00191997 0.0125248 2.20717e-07
-3.03452e-07 2.20717e-07 0.0106247

0.0283193 0.00326766 -3.29075e-08
0.00326766 0.03155 -8.8966e-08
-3.29075e-08 -8.8966e-08 0.0294111

0.0231883 -0.00773607 -1.77713e-07
-0.00773607 0.01818 -7.15722e-08
-1.77713e-07 -7.15722e-08 0.0102896

0.0228309 -0.00731579 -1.12848e-07
-0.00731579 0.025769 1.61557e-07
-1.12848e-07 1.61557e-07 0.0119547

0.029023 -0.00464699 -1.88016e-07
-0.00464699 0.0191286 -1.00768e-07
-1.88016e-07 -1.00768e-07 0.0126152

0.0375744 -0.000660456 1.41312e-07
-0.000660456 0.0449116 -3.24018e-07
1.41312e-07 -3.24018e-07 0.036294

0.0375723 0.000358611 5.92847e-08
0.000358611 0.0447901 2.10769e-07
5.92847e-08 2.10769e-07 0.0362742

0.042606 -0.00327449 -1.40048e-07
-0.00327449 0.0394501 3.07413e-07
-1.40048e-07 3.07413e-07 0.0362281

0.0429991 -0.0029448 6.57148e-08
-0.0029448 0.0391689 1.69331e-07
6.57148e-08 1.69331e-07 0.0362351

0.0425017 0.0035039 -3.56514e-07
0.0035039 0.0399722 -2.78807e-07
-3.56514e-07 -2.78807e-07 0.0362729

0.0443985 0.000418148 3.79108e-07
0.000418148 0.0450806 4.56298e-07
3.79108e-07 4.56298e-07 0.0366362

0.0426086 -0.00274439 -6.5823e-09
-0.00274439 0.0395073 -1.90367e-07
-6.5823e-09 -1.90367e-07 0.0362897

0.0426031 -0.00251159 1.55861e-07
-0.00251159 0.0442674 -2.39797e-07
1.55861e-07 -2.39797e-07 0.0365638

0.0451182 0.000331557 -4.37706e-07
0.000331557 0.0454679 -7.59951e-07
-4.37706e-07 -7.59951e-07 0.0366545

0.0436375 -0.0027831 -6.46597e-08
-0.0027831 0.0389167 1.80156e-08
-6.46597e-08 1.80156e-08 0.0363302

0.0435132 0.00283893 -1.11897e-07
0.00283893 0.0390695 5.76519e-08
-1.11897e-07 5.76519e-08 0.0363684

0.0451943 -0.000470569 -1.49719e-07
-0.000470569 0.045582 1.30584e-07
-1.49719e-07 1.30584e-07 0.0367032

0.045227 -0.000426096 8.34976e-07
-0.000426096 0.0443625 -1.13276e-06
8.34976e-07 -1.13276e-06 0.0367215

0.042798 0.00163933 2.52285e-07
0.00163933 0.0442493 -1.58058e-07
2.52285e-07 -1.58058e-07 0.0366076

0.0411164 0.00361851 -3.97572e-08
0.00361851 0.0405167 -1.14093e-07
-3.97572e-08 -1.14093e-07 0.0363222

SCALARS pressure float
LOOKUP_TABLE default
-60.0537
19.3087
5.80421
21.2905
15.8789
5.88818
-58.6769
7.7838
-3.80422
15.125
-24.4331
7.61795
5.59274
12.2798
23.3374
5.53963
18.5212
13.208
-0.692033
6.75749
-0.904146
33.1322
5.80169
5.79771
6.60276
14.9035
-38.3865
6.67257
-15.2422
30.6245
5.17698
-15.657
-42.0578
27.3251
20.7783
27.358
31.8827
19.8083
4.86028
-42.6011
-17.4073
31.9035
31.9916
5.9942
-21.8055
-15.9757
-1.05166
-3.40485
6.54567
-16.2177
-18.9188
-15.3456
20.7554
-15.3728
20.3086
-33.1495
21.1287
-15.46
21.1386
7.04581
21.7651
16.1189
-45.5634
12.79
16.3622
10.9056
21.5744
13.8288
5.77436
21.8175
20.8114
20.7821
-17.6909
11.6011
3.97464
-31.6109
14.3568
10.9968
14.1469
-8.71948
-28.9453
14.9775
20.1634
-22.0382
-23.4296
-28.0927
7.09865
9.6329
-22.2162
37.7389
-15.5087
38.4415
18.3044
10.7621
-15.1662
-15.8726
-30.2218
14.7539
14.3658
4.59936
-10.7658
-21.9396
-25.1019
16.2135
14.101
14.962
18.6978
3.77544
-24.5587
26.5131
7.21847
-21.4094
-24.6124
14.8386
15.0785
-16.1454
20.1641
-29.1137
20.6277
-16.7291
-2.90399
23.8336
21.7275
16.0332
26.6797
22.6316
21.7848
15.7089
-29.7814
-16.0987
24.0913
21.6178
20.9895
22.0661
-22.0139
23.5861
-33.8381
5.46404
21.7545
23.6294
-21.9368
6.67699
-5.96611
15.0842
-30.408
15.6245
7.83395
2.4083
5.17844
-9.394
-0.457275
22.642
-15.4544
5.29164
15.2048
21.561
11.5087
-21.1133
-21.2638
10.7912
-2.84215
-15.1974
-21.2209
-15.1651
-20.9864
15.2801
-20.6358
-21.2016
-15.2076
-21.0638
19.0042
-15.9407
-14.8243
12.0649
-14.4844
18.8031
19.0533
7.47346
18.0478
11.7737
-16.2489
15.2886
14.9613
-21.5285
10.427
-14.2212
16.0489
14.596
17.0818
14.8355
10.3443
-26.9767
-16.082
-15.958
21.9074
14.5265
14.6254
20.9229
22.4874
9.5032
21.7342
-0.383955
-8.17034
20.779
-17.8387
19.9458
10.3647
-21.5176
15.7214
22.5265
14.7313
9.39409
14.1906
21.0559
-7.83236
8.82811
-7.90818
14.6487
26.9276
26.5813
27.9604
26.3885
26.7243
26.2909
13.8265
23.43
24.0292
23.9734
23.3997
21.1925
21.8571
-8.26244
15.9341
28.1911
-3.18823
23.5757
23.205
27.8344
-8.49316
28.0964
15.345
-7.58118
17.4923
-8.25741
20.2274
29.6127
-7.48556
-8.10036
-29.5925
-18.1891
19.5275
-31.9861
5.73483
-7.79355
-1.18889
28.2492
26.6402
30.425
26.7609
-34.8017
-8.17926
28.3374
8.07347
-8.29479
26.4459
-6.29487
30.4699
-7.95368
27.0471
14.5663
14.7878
23.8448
10.0479
18.0209
8.11761
-29.8606
-24.5537
16.8068
1.7602
8.18011
-13.6086
17.436
11.7002
-8.10112
9.45261
-10.8231
7.51745
-10.7543
-8.48436
33.2626
19.1515
25.088
25.3123
13.8297
-10.4042
26.429
14.6853
-1.65856
-10.2735
-12.5639
17.5065
-7.48482
17.5745
-12.0409
-21.3509
-10.6079
-34.6819
15.5629
-7.76257
34.4405
-11.5776
16.8718
-8.40838
15.973
-12.758
4.28952
-51.1198
8.52231
-7.74624
21.3337
-8.15177
-0.12239
10.7157
21.1246
-12.0604
-10.2004
-6.06791
14.3184
-10.1797
6.88835
6.38627
16.3053
-10.4192
-6.33004
-1.70195
-5.66011
-11.0781
-5.84434
15.3058
7.80838
-5.5557
-8.9601
7.80576
7.6946
-10.6743
16.3092
-27.2149
2.29344
-28.4817
-0.957213
-8.88099
-8.09925
-11.782
-10.9456
-9.8839
-7.77888
-7.90225
16.6382
24.7772
12.1166
-0.291233
-0.82474
-5.67427
7.30552
-6.32039
-6.31768
24.923
-5.72969
14.1181
-15.9082
24.3248
5.96862
-0.390794
-5.64356
16.275
2.47743
0.199433
2.44841
0.456312
-0.740435
-9.92999
-0.0952137
2.11359
15.069
-1.28789
-1.40677
-0.998437
-0.388222
1.96562
8.05106
-1.19318
8.07851
5.58367
-0.435276
7.03563
5.49071
-3.87617
16.4769
-1.90312
23.0615
-21.9739
15.0444
15.6826
2.03998
-1.99723
12.5433
-26.5074
5.79272
-1.65764
-50.4841
30.4969
30.6336
5.82536
-1.14397
-1.04653
-0.849292
33.4166
33.2913
13.0952
6.0822
6.66277
-28.9636
-1.27903
16.5337
-3.18245
-4.34789
-0.0165728
-25.2722
14.3037
-1.27981
2.86213
2.69352
-2.72297
-0.0489713
-3.20922
-4.03334
-37.9835
-33.6839
-0.127679
1.87477
-0.533795
-3.74394
-1.93631
-1.87747
-0.924018
-21.9078
17.2496
-0.768917
12.5655
14.184
-26.7646
6.28663
7.13726
18.4778
36.4263
36.4587
22.6386
-1.75542
2.59999
-20.93
36.125
32.758
32.825
-24.8095
21.7748
30.5223
2.59949
15.7239
10.3717
17.1647
17.7264
12.5058
5.68173
-25.3989
4.26036
10.4096
16.2442
-31.7107
28.3089
-52.7113
18.6853
10.2993
-10.6271
7.41766
5.45739
24.4742
9.41144
24.4072
4.10546
12.4
30.6397
29.4654
-22.9905
17.4359
-70.2318
-74.3783
-67.1757
11.6486
-31.2609
-63.6091
-3.80324
-69.9372
16.463
16.4067
-73.7534
5.21264
-39.7306
-70.7378
-37.7565
-71.8742
-39.4521
21.1362
-23.9605
-29.0448
-70.6216
4.83169
15.7578
-36.1904
6.05385
-63.6167
9.83628
3.88213
-67.9002
-37.6241
-66.4098
-23.7562
5.02951
20.5257
35.3699
36.7256
11.8124
36.8494
36.9027
36.4911
36.4035
-24.4792
28.2476
20.6691
21.9802
11.535
36.0595
36.0909
18.1197
-23.941
3.24696
-30.5271
-56.5975
-50.4745
36.1427
35.8235
35.3801
35.4503
36.1587
35.5978
33.1093
37.37
35.3991
36.0055
35.6378
34.1956
34.3322
35.8556
35.3091
