# vtk DataFile Version 3.0
vtk output at time 10
ASCII
DATASET UNSTRUCTURED_GRID
POINTS 626 float
-3.68058e-05 0.000978749 0 3.68058e-05 0.000978749 0 -0.000829194 0.00052125 0 
-0.0008235 0.0005 0 -0.000866 0.0004575 0 -0.000866 -0.0004575 0 
-0.0008235 -0.0005 0 -0.000829194 -0.00052125 0 -3.68058e-05 -0.000978749 0 
3.68058e-05 -0.000978749 0 0.000829194 -0.00052125 0 0.000866 -0.0004575 0 
0.000866 0.0004575 0 0.000829194 0.00052125 0 8.5e-05 0 0 
-3.68058e-05 0.000978749 -0.001 3.68058e-05 0.000978749 -0.001 -0.000829194 0.00052125 -0.001 
-0.0008235 0.0005 -0.001 -0.000866 0.0004575 -0.001 -0.000866 -0.0004575 -0.001 
-0.0008235 -0.0005 -0.001 -0.000829194 -0.00052125 -0.001 -3.68058e-05 -0.000978749 -0.001 
3.68058e-05 -0.000978749 -0.001 0.000829194 -0.00052125 -0.001 0.000866 -0.0004575 -0.001 
0.000866 0.0004575 -0.001 0.000829194 0.00052125 -0.001 8.5e-05 0 -0.001 
8.46223e-17 0.0009575 0 -0.000715996 0.000586607 0 -0.000602797 0.000651965 0 
-0.000489599 0.000717321 0 -0.000376401 0.000782678 0 -0.000263202 0.000848036 0 
-0.000150004 0.000913393 0 -0.000835948 0.000469948 0 -0.000866 -0.000326786 0 
-0.000866 -0.000196071 0 -0.000866 -6.53571e-05 0 -0.000866 6.53571e-05 0 
-0.000866 0.000196071 0 -0.000866 0.000326786 0 -0.000835948 -0.000469948 0 
-0.000150004 -0.000913393 0 -0.000263202 -0.000848036 0 -0.000376401 -0.000782678 0 
-0.000489599 -0.000717321 0 -0.000602797 -0.000651965 0 -0.000715996 -0.000586607 0 
8.47648e-17 -0.0009575 0 0.000715996 -0.000586607 0 0.000602797 -0.000651965 0 
0.000489599 -0.000717321 0 0.000376401 -0.000782678 0 0.000263202 -0.000848036 0 
0.000150004 -0.000913393 0 0.000829194 -0.00047875 0 0.000866 0.000326786 0 
0.000866 0.000196071 0 0.000866 6.53571e-05 0 0.000866 -6.53571e-05 0 
0.000866 -0.000196071 0 0.000866 -0.000326786 0 0.000829194 0.00047875 0 
0.000150004 0.000913393 0 0.000263202 0.000848036 0 0.000376401 0.000782678 0 
0.000489599 0.000717321 0 0.000602797 0.000651965 0 0.000715996 0.000586607 0 
5.29966e-05 6.64557e-05 0 -1.89143e-05 8.28689e-05 0 -7.65824e-05 3.68801e-05 0 
-7.65824e-05 -3.68801e-05 0 -1.89143e-05 -8.28689e-05 0 5.29966e-05 -6.64557e-05 0 
8.46223e-17 0.0009575 -0.001 -0.000715996 0.000586607 -0.001 -0.000602797 0.000651965 -0.001 
-0.000489599 0.000717321 -0.001 -0.000376401 0.000782678 -0.001 -0.000263202 0.000848036 -0.001 
-0.000150004 0.000913393 -0.001 -0.000835948 0.000469948 -0.001 -0.000866 -0.000326786 -0.001 
-0.000866 -0.000196071 -0.001 -0.000866 -6.53571e-05 -0.001 -0.000866 6.53571e-05 -0.001 
-0.000866 0.000196071 -0.001 -0.000866 0.000326786 -0.001 -0.000835948 -0.000469948 -0.001 
-0.000150004 -0.000913393 -0.001 -0.000263202 -0.000848036 -0.001 -0.000376401 -0.000782678 -0.001 
-0.000489599 -0.000717321 -0.001 -0.000602797 -0.000651965 -0.001 -0.000715996 -0.000586607 -0.001 
8.47648e-17 -0.0009575 -0.001 0.000715996 -0.000586607 -0.001 0.000602797 -0.000651965 -0.001 
0.000489599 -0.000717321 -0.001 0.000376401 -0.000782678 -0.001 0.000263202 -0.000848036 -0.001 
0.000150004 -0.000913393 -0.001 0.000829194 -0.00047875 -0.001 0.000866 0.000326786 -0.001 
0.000866 0.000196071 -0.001 0.000866 6.53571e-05 -0.001 0.000866 -6.53571e-05 -0.001 
0.000866 -0.000196071 -0.001 0.000866 -0.000326786 -0.001 0.000829194 0.00047875 -0.001 
0.000150004 0.000913393 -0.001 0.000263202 0.000848036 -0.001 0.000376401 0.000782678 -0.001 
0.000489599 0.000717321 -0.001 0.000602797 0.000651965 -0.001 0.000715996 0.000586607 -0.001 
5.29966e-05 6.64557e-05 -0.001 -1.89143e-05 8.28689e-05 -0.001 -7.65824e-05 3.68801e-05 -0.001 
-7.65824e-05 -3.68801e-05 -0.001 -1.89143e-05 -8.28689e-05 -0.001 5.29966e-05 -6.64557e-05 -0.001 
0.000131234 6.38474e-05 0 0.00012964 -6.2443e-05 0 3.13827e-05 0.0001394 0 
3.12554e-05 -0.000136939 0 -0.000140461 8.25467e-19 0 -8.90565e-05 -0.000102707 0 
-9.04142e-05 0.000102872 0 -0.000765769 -0.00025965 0 -0.000756873 0.000262774 0 
-0.00015609 0.000787505 0 -0.000155807 -0.00079355 0 0.000605069 0.000528035 0 
0.000608694 -0.00052497 0 0.000744069 0.000116929 0 -0.000494418 0.000596218 0 
-0.000483866 -0.000584648 0 0.000269496 0.000702219 0 0.000263201 -0.000717324 0 
0.000754429 -0.000127825 0 -0.000748858 5.84659e-07 0 -0.000747838 0.000373886 0 
-0.0006542 0.000324842 0 -0.000645137 0.000210123 0 -0.000550884 0.000274171 0 
-0.000538857 0.000163195 0 -0.00045062 0.000224461 0 -0.000438393 0.000123907 0 
-0.000354088 0.000181668 0 -0.000363908 0.000282171 0 -0.000270361 0.000239477 0 
-0.000279138 0.000337653 0 -0.000188888 0.000294791 0 -0.000196448 0.000393271 0 
-0.000104767 0.000348259 0 -0.000113332 0.000449012 0 -2.01066e-05 0.000403223 0 
-2.89189e-05 0.000507105 0 6.9524e-05 0.000461596 0 -0.000213644 0.000490203 0 
7.33757e-05 0.000357726 0 0.000163331 0.00041299 0 0.000163359 0.000313022 0 
0.000248077 0.000366368 0 0.000250914 0.000265758 0 0.000335709 0.000322266 0 
0.000340555 0.000218148 0 0.000427299 0.000276717 0 0.000431508 0.000173093 0 
0.000328731 0.000425633 0 0.00034586 0.000114823 0 0.000435362 7.05241e-05 0 
0.000350892 1.5455e-05 0 0.000441547 -3.11896e-05 0 0.000353547 -8.47783e-05 0 
0.000445767 -0.000132964 0 0.000356135 -0.000186358 0 0.000449094 -0.000234674 0 
0.000359978 -0.000287876 0 0.00026856 -0.000240545 0 0.000271895 -0.000341045 0 
0.000181792 -0.00029305 0 0.00018533 -0.000392851 0 9.75701e-05 -0.00034483 0 
9.98764e-05 -0.000444884 0 8.75116e-06 -0.000396343 0 1.20916e-05 -0.000500496 0 
-7.83929e-05 -0.000449843 0 -8.1471e-05 -0.000347249 0 -0.000171566 -0.000403733 0 
-0.000169889 -0.000298891 0 -0.000259867 -0.000354132 0 -0.000257696 -0.000249137 0 
-0.00034313 -0.000299896 0 -0.000344514 -0.000199127 0 -0.000434309 -0.000250039 0 
-0.000169832 -0.000505815 0 -0.000435227 -0.000146227 0 0.000280331 -0.000442424 0 
-0.000340889 8.76793e-05 0 -0.000515252 4.06198e-05 0 6.50491e-05 0.000568253 0 
0.00053278 1.74743e-05 0 0.000522071 0.000229831 0 -0.00037162 0.000391659 0 
-0.000255272 -0.000150439 0 -0.000442893 -0.000350705 0 0.000450067 -0.000332559 0 
0.000545175 -0.000276306 0 -0.000527797 -0.000197598 0 0.000105306 -0.000551033 0 
1.45836e-05 -0.000609147 0 0.00017145 0.000214453 0 0.000515525 0.000341711 0 
0.000636086 0.000290368 0 -0.000558657 0.000404468 0 -4.01232e-05 0.000616718 0 
6.60192e-05 0.000696422 0 -0.000101806 0.0002546 0 0.000271142 -3.88908e-05 0 
0.000179455 -0.00018534 0 -8.79553e-05 -0.000254307 0 -0.000749267 -0.000373451 0 
-0.000655941 -0.000323397 0 0.000709746 0.000466718 0 0.000698426 -0.000473086 0 
-5.25801e-05 -0.00084886 0 -4.93005e-05 0.000848038 0 0.000617396 -0.000413362 0 
0.000702056 -0.000369817 0 0.000131459 -0.000679171 0 2.48171e-05 -0.000715924 0 
-0.000664217 -0.00042729 0 -0.000528828 -8.80444e-05 0 -0.000611101 -0.000136672 0 
-0.000426972 -4.45841e-05 0 0.000800669 0.000378216 0 0.000821144 -0.000415062 0 
7.2799e-05 0.00088254 0 6.81831e-05 -0.00087503 0 0.000104963 -0.000788946 0 
-7.40696e-05 -0.000660054 0 0.000126061 0.000809943 0 0.000764361 0.000295682 0 
0.000166862 0.000630623 0 0.000516462 -0.00046707 0 -0.000563585 -0.000389606 0 
-0.000622598 -1.40238e-05 0 0.000629891 0.000171529 0 2.5614e-06 -0.000299794 0 
8.6901e-05 -0.00024329 0 0.000272045 -0.000136982 0 -0.00075148 0.000138321 0 
0.000209366 -0.000599589 0 0.000324913 -0.000630055 0 0.000614044 0.00041245 0 
0.00049651 -0.000573327 0 0.000394822 -0.000507321 0 -0.000173714 -0.000206698 0 
0.000264897 5.63722e-05 0 0.000247997 0.000152811 0 -4.63327e-05 -0.000920208 0 
9.18688e-05 0.000258626 0 -5.54111e-06 0.000290558 0 -0.000184219 0.000201484 0 
-0.000263559 0.000142267 0 -0.000256427 5.13624e-05 0 -0.000336894 -2.06179e-06 0 
-0.000228499 -4.2388e-05 0 -0.00017589 0.000106626 0 -0.000769947 -0.000133367 0 
0.000767591 -0.000500293 0 -5.05874e-05 0.000737978 0 0.000754456 -3.51771e-06 0 
0.00064691 -6.15298e-05 0 0.000630483 -0.00018134 0 0.000749187 -0.000265543 0 
-0.000760805 -0.000462521 0 0.000638155 6.09315e-05 0 -4.46661e-05 0.000922995 0 
-2.37945e-05 0.000207237 0 0.000776979 0.000500181 0 -0.000605691 0.000527596 0 
-0.000377914 -0.000653727 0 -0.000372325 -0.000526022 0 -0.000275829 -0.000589621 0 
-0.000254285 -0.000710579 0 -0.000379307 0.000656222 0 -0.000379818 0.00052718 0 
-0.000266817 0.000721555 0 -0.000150544 0.000668174 0 0.000381963 0.00065079 0 
0.000493113 0.000590432 0 0.000505439 0.000463708 0 -0.000269094 0.000596608 0 
0.000385815 0.000532045 0 0.000283599 0.0005899 0 -0.000176405 -0.000108505 0 
-0.000278769 -0.000475415 0 0.000185395 2.33014e-06 0 0.000186773 0.000517571 0 
0.000540032 -8.68444e-05 0 -0.000600694 -0.000514877 0 -0.00063703 8.98033e-05 0 
-0.000459677 0.000335729 0 -0.000338836 -0.000100751 0 -0.000457327 0.000432721 0 
-8.72007e-06 -0.000210238 0 0.000156073 0.000129496 0 -7.70692e-05 -0.000555049 0 
0.00036091 -0.000389728 0 0.000531628 0.000120564 0 -0.000285451 0.000435562 0 
0.000192719 -0.000494604 0 0.00041642 0.00039368 0 -0.000135943 0.000554637 0 
-0.000170665 -0.000610079 0 -0.000666304 0.000434981 0 -0.000758736 0.000479231 0 
-0.000470189 -0.000458901 0 0.000203433 -8.59809e-05 0 0.000101846 0.000170114 0 
-0.00035513 -0.00040726 0 0.000100184 -0.000165831 0 2.96286e-05 0.00081537 0 
0.000720946 0.000381836 0 -0.000539809 -0.000292001 0 0.00052211 -0.000182426 0 
-6.41339e-05 -0.000753908 0 0.000638039 -0.000299861 0 -0.000605136 -0.000230182 0 
-3.41638e-05 -0.000145561 0 -0.000104037 0.000172396 0 -0.000808575 -0.00042774 0 
-0.000807207 -0.000465052 0 -0.00080817 0.000429771 0 -0.000806589 0.000469738 0 
-9.50634e-05 -0.000178909 0 0.000247777 0.000445058 0 1.48293e-05 -0.000814201 0 
-4.11555e-05 0.000140955 0 0.000276104 -0.000536845 0 0.000765969 -0.000436638 0 
0.000780871 -0.000362769 0 0.000424176 -0.000642018 0 0.00053413 -0.000368009 0 
-0.000416333 4.17911e-05 0 -0.000133891 -6.23822e-05 0 4.2574e-05 0.000206312 0 
0.000141163 -0.000121542 0 0.000707423 0.000212137 0 0.000172327 0.000723882 0 
7.72652e-06 -0.00090254 0 -0.000134435 5.66935e-05 0 -0.000188826 3.70894e-05 0 
0.000197119 8.09714e-05 0 1.27801e-05 0.000917296 0 0.000800767 0.00044758 0 
-0.000686682 0.000507104 0 9.35831e-05 0.000110457 0 -0.000696793 -0.000509595 0 
-0.00068446 -8.52012e-05 0 -0.000691033 -0.000201242 0 5.24052e-05 -0.000189075 0 
-0.000151818 -0.000701092 0 -0.000296988 0.000518087 0 9.31023e-05 -0.000108117 0 
0.00044261 -0.000416726 0 0.000197044 -0.000784423 0 -0.000516861 0.000504567 0 
0.000298997 0.000502377 0 0.000131234 6.38474e-05 -0.001 0.00012964 -6.2443e-05 -0.001 
3.13827e-05 0.0001394 -0.001 3.12554e-05 -0.000136939 -0.001 -0.000140461 8.25467e-19 -0.001 
-8.90565e-05 -0.000102707 -0.001 -9.04142e-05 0.000102872 -0.001 -0.000765769 -0.00025965 -0.001 
-0.000756873 0.000262774 -0.001 -0.00015609 0.000787505 -0.001 -0.000155807 -0.00079355 -0.001 
0.000605069 0.000528035 -0.001 0.000608694 -0.00052497 -0.001 0.000744069 0.000116929 -0.001 
-0.000494418 0.000596218 -0.001 -0.000483866 -0.000584648 -0.001 0.000269496 0.000702219 -0.001 
0.000263201 -0.000717324 -0.001 0.000754429 -0.000127825 -0.001 -0.000748858 5.84659e-07 -0.001 
-0.000747838 0.000373886 -0.001 -0.0006542 0.000324842 -0.001 -0.000645137 0.000210123 -0.001 
-0.000550884 0.000274171 -0.001 -0.000538857 0.000163195 -0.001 -0.00045062 0.000224461 -0.001 
-0.000438393 0.000123907 -0.001 -0.000354088 0.000181668 -0.001 -0.000363908 0.000282171 -0.001 
-0.000270361 0.000239477 -0.001 -0.000279138 0.000337653 -0.001 -0.000188888 0.000294791 -0.001 
-0.000196448 0.000393271 -0.001 -0.000104767 0.000348259 -0.001 -0.000113332 0.000449012 -0.001 
-2.01066e-05 0.000403223 -0.001 -2.89189e-05 0.000507105 -0.001 6.9524e-05 0.000461596 -0.001 
-0.000213644 0.000490203 -0.001 7.33757e-05 0.000357726 -0.001 0.000163331 0.00041299 -0.001 
0.000163359 0.000313022 -0.001 0.000248077 0.000366368 -0.001 0.000250914 0.000265758 -0.001 
0.000335709 0.000322266 -0.001 0.000340555 0.000218148 -0.001 0.000427299 0.000276717 -0.001 
0.000431508 0.000173093 -0.001 0.000328731 0.000425633 -0.001 0.00034586 0.000114823 -0.001 
0.000435362 7.05241e-05 -0.001 0.000350892 1.5455e-05 -0.001 0.000441547 -3.11896e-05 -0.001 
0.000353547 -8.47783e-05 -0.001 0.000445767 -0.000132964 -0.001 0.000356135 -0.000186358 -0.001 
0.000449094 -0.000234674 -0.001 0.000359978 -0.000287876 -0.001 0.00026856 -0.000240545 -0.001 
0.000271895 -0.000341045 -0.001 0.000181792 -0.00029305 -0.001 0.00018533 -0.000392851 -0.001 
9.75701e-05 -0.00034483 -0.001 9.98764e-05 -0.000444884 -0.001 8.75116e-06 -0.000396343 -0.001 
1.20916e-05 -0.000500496 -0.001 -7.83929e-05 -0.000449843 -0.001 -8.1471e-05 -0.000347249 -0.001 
-0.000171566 -0.000403733 -0.001 -0.000169889 -0.000298891 -0.001 -0.000259867 -0.000354132 -0.001 
-0.000257696 -0.000249137 -0.001 -0.00034313 -0.000299896 -0.001 -0.000344514 -0.000199127 -0.001 
-0.000434309 -0.000250039 -0.001 -0.000169832 -0.000505815 -0.001 -0.000435227 -0.000146227 -0.001 
0.000280331 -0.000442424 -0.001 -0.000340889 8.76793e-05 -0.001 -0.000515252 4.06198e-05 -0.001 
6.50491e-05 0.000568253 -0.001 0.00053278 1.74743e-05 -0.001 0.000522071 0.000229831 -0.001 
-0.00037162 0.000391659 -0.001 -0.000255272 -0.000150439 -0.001 -0.000442893 -0.000350705 -0.001 
0.000450067 -0.000332559 -0.001 0.000545175 -0.000276306 -0.001 -0.000527797 -0.000197598 -0.001 
0.000105306 -0.000551033 -0.001 1.45836e-05 -0.000609147 -0.001 0.00017145 0.000214453 -0.001 
0.000515525 0.000341711 -0.001 0.000636086 0.000290368 -0.001 -0.000558657 0.000404468 -0.001 
-4.01232e-05 0.000616718 -0.001 6.60192e-05 0.000696422 -0.001 -0.000101806 0.0002546 -0.001 
0.000271142 -3.88908e-05 -0.001 0.000179455 -0.00018534 -0.001 -8.79553e-05 -0.000254307 -0.001 
-0.000749267 -0.000373451 -0.001 -0.000655941 -0.000323397 -0.001 0.000709746 0.000466718 -0.001 
0.000698426 -0.000473086 -0.001 -5.25801e-05 -0.00084886 -0.001 -4.93005e-05 0.000848038 -0.001 
0.000617396 -0.000413362 -0.001 0.000702056 -0.000369817 -0.001 0.000131459 -0.000679171 -0.001 
2.48171e-05 -0.000715924 -0.001 -0.000664217 -0.00042729 -0.001 -0.000528828 -8.80444e-05 -0.001 
-0.000611101 -0.000136672 -0.001 -0.000426972 -4.45841e-05 -0.001 0.000800669 0.000378216 -0.001 
0.000821144 -0.000415062 -0.001 7.2799e-05 0.00088254 -0.001 6.81831e-05 -0.00087503 -0.001 
0.000104963 -0.000788946 -0.001 -7.40696e-05 -0.000660054 -0.001 0.000126061 0.000809943 -0.001 
0.000764361 0.000295682 -0.001 0.000166862 0.000630623 -0.001 0.000516462 -0.00046707 -0.001 
-0.000563585 -0.000389606 -0.001 -0.000622598 -1.40238e-05 -0.001 0.000629891 0.000171529 -0.001 
2.5614e-06 -0.000299794 -0.001 8.6901e-05 -0.00024329 -0.001 0.000272045 -0.000136982 -0.001 
-0.00075148 0.000138321 -0.001 0.000209366 -0.000599589 -0.001 0.000324913 -0.000630055 -0.001 
0.000614044 0.00041245 -0.001 0.00049651 -0.000573327 -0.001 0.000394822 -0.000507321 -0.001 
-0.000173714 -0.000206698 -0.001 0.000264897 5.63722e-05 -0.001 0.000247997 0.000152811 -0.001 
-4.63327e-05 -0.000920208 -0.001 9.18688e-05 0.000258626 -0.001 -5.54111e-06 0.000290558 -0.001 
-0.000184219 0.000201484 -0.001 -0.000263559 0.000142267 -0.001 -0.000256427 5.13624e-05 -0.001 
-0.000336894 -2.06179e-06 -0.001 -0.000228499 -4.2388e-05 -0.001 -0.00017589 0.000106626 -0.001 
-0.000769947 -0.000133367 -0.001 0.000767591 -0.000500293 -0.001 -5.05874e-05 0.000737978 -0.001 
0.000754456 -3.51771e-06 -0.001 0.00064691 -6.15298e-05 -0.001 0.000630483 -0.00018134 -0.001 
0.000749187 -0.000265543 -0.001 -0.000760805 -0.000462521 -0.001 0.000638155 6.09315e-05 -0.001 
-4.46661e-05 0.000922995 -0.001 -2.37945e-05 0.000207237 -0.001 0.000776979 0.000500181 -0.001 
-0.000605691 0.000527596 -0.001 -0.000377914 -0.000653727 -0.001 -0.000372325 -0.000526022 -0.001 
-0.000275829 -0.000589621 -0.001 -0.000254285 -0.000710579 -0.001 -0.000379307 0.000656222 -0.001 
-0.000379818 0.00052718 -0.001 -0.000266817 0.000721555 -0.001 -0.000150544 0.000668174 -0.001 
0.000381963 0.00065079 -0.001 0.000493113 0.000590432 -0.001 0.000505439 0.000463708 -0.001 
-0.000269094 0.000596608 -0.001 0.000385815 0.000532045 -0.001 0.000283599 0.0005899 -0.001 
-0.000176405 -0.000108505 -0.001 -0.000278769 -0.000475415 -0.001 0.000185395 2.33014e-06 -0.001 
0.000186773 0.000517571 -0.001 0.000540032 -8.68444e-05 -0.001 -0.000600694 -0.000514877 -0.001 
-0.00063703 8.98033e-05 -0.001 -0.000459677 0.000335729 -0.001 -0.000338836 -0.000100751 -0.001 
-0.000457327 0.000432721 -0.001 -8.72007e-06 -0.000210238 -0.001 0.000156073 0.000129496 -0.001 
-7.70692e-05 -0.000555049 -0.001 0.00036091 -0.000389728 -0.001 0.000531628 0.000120564 -0.001 
-0.000285451 0.000435562 -0.001 0.000192719 -0.000494604 -0.001 0.00041642 0.00039368 -0.001 
-0.000135943 0.000554637 -0.001 -0.000170665 -0.000610079 -0.001 -0.000666304 0.000434981 -0.001 
-0.000758736 0.000479231 -0.001 -0.000470189 -0.000458901 -0.001 0.000203433 -8.59809e-05 -0.001 
0.000101846 0.000170114 -0.001 -0.00035513 -0.00040726 -0.001 0.000100184 -0.000165831 -0.001 
2.96286e-05 0.00081537 -0.001 0.000720946 0.000381836 -0.001 -0.000539809 -0.000292001 -0.001 
0.00052211 -0.000182426 -0.001 -6.41339e-05 -0.000753908 -0.001 0.000638039 -0.000299861 -0.001 
-0.000605136 -0.000230182 -0.001 -3.41638e-05 -0.000145561 -0.001 -0.000104037 0.000172396 -0.001 
-0.000808575 -0.00042774 -0.001 -0.000807207 -0.000465052 -0.001 -0.00080817 0.000429771 -0.001 
-0.000806589 0.000469738 -0.001 -9.50634e-05 -0.000178909 -0.001 0.000247777 0.000445058 -0.001 
1.48293e-05 -0.000814201 -0.001 -4.11555e-05 0.000140955 -0.001 0.000276104 -0.000536845 -0.001 
0.000765969 -0.000436638 -0.001 0.000780871 -0.000362769 -0.001 0.000424176 -0.000642018 -0.001 
0.00053413 -0.000368009 -0.001 -0.000416333 4.17911e-05 -0.001 -0.000133891 -6.23822e-05 -0.001 
4.2574e-05 0.000206312 -0.001 0.000141163 -0.000121542 -0.001 0.000707423 0.000212137 -0.001 
0.000172327 0.000723882 -0.001 7.72652e-06 -0.00090254 -0.001 -0.000134435 5.66935e-05 -0.001 
-0.000188826 3.70894e-05 -0.001 0.000197119 8.09714e-05 -0.001 1.27801e-05 0.000917296 -0.001 
0.000800767 0.00044758 -0.001 -0.000686682 0.000507104 -0.001 9.35831e-05 0.000110457 -0.001 
-0.000696793 -0.000509595 -0.001 -0.00068446 -8.52012e-05 -0.001 -0.000691033 -0.000201242 -0.001 
5.24052e-05 -0.000189075 -0.001 -0.000151818 -0.000701092 -0.001 -0.000296988 0.000518087 -0.001 
9.31023e-05 -0.000108117 -0.001 0.00044261 -0.000416726 -0.001 0.000197044 -0.000784423 -0.001 
-0.000516861 0.000504567 -0.001 0.000298997 0.000502377 -0.001 

CELLS 563 3941
6 14 304 127 29 554 377 
6 143 259 55 393 509 103 
6 300 319 174 550 569 424 
6 259 349 55 509 599 103 
6 50 365 307 98 615 557 
6 299 320 164 549 570 414 
6 126 304 14 376 554 29 
6 298 319 300 548 569 550 
6 205 240 238 455 490 488 
6 257 308 145 507 558 395 
6 130 352 273 380 602 523 
6 295 320 299 545 570 549 
6 324 327 289 574 577 539 
6 235 258 143 485 508 393 
6 50 307 49 98 557 97 
6 207 283 279 457 533 529 
6 143 373 235 393 623 485 
6 145 308 252 395 558 502 
6 194 303 196 444 553 446 
6 279 306 207 529 556 457 
6 206 305 163 456 555 413 
6 51 357 9 99 607 24 
6 238 252 205 488 502 455 
6 293 317 209 543 567 459 
6 207 316 283 457 566 533 
6 142 301 249 392 551 499 
6 273 359 130 523 609 380 
6 211 327 324 461 577 574 
6 169 265 217 419 515 467 
6 7 365 50 22 615 98 
6 283 316 253 533 566 503 
6 159 268 223 409 518 473 
6 274 337 132 524 587 382 
6 232 361 329 482 611 579 
6 231 266 45 481 516 93 
6 229 362 330 479 612 580 
6 9 244 57 24 494 105 
6 230 276 52 480 526 100 
6 209 311 293 459 561 543 
6 131 342 302 381 592 552 
6 270 271 204 520 521 454 
6 66 243 1 114 493 16 
6 59 241 12 107 491 27 
6 280 306 279 530 556 529 
6 269 337 274 519 587 524 
6 179 256 224 429 506 474 
6 163 305 166 413 555 416 
6 201 303 194 451 553 444 
6 280 332 306 530 582 556 
6 186 255 225 436 505 475 
6 210 310 273 460 560 523 
6 153 270 204 403 520 454 
6 136 231 45 386 481 93 
6 171 265 169 421 515 419 
6 138 230 52 388 480 100 
6 225 354 325 475 604 575 
6 36 284 232 84 534 482 
6 161 268 159 411 518 409 
6 71 286 229 119 536 479 
6 290 303 201 540 553 451 
6 139 355 60 389 605 108 
6 60 355 248 108 605 498 
6 273 352 302 523 602 552 
6 235 373 245 485 623 495 
6 67 356 247 115 606 497 
6 221 295 277 471 545 527 
6 142 356 67 392 606 115 
6 139 283 253 389 533 503 
6 203 315 262 453 565 512 
6 41 257 145 89 507 395 
6 36 232 135 84 482 385 
6 71 229 137 119 479 387 
6 254 255 188 504 505 438 
6 233 350 334 483 600 584 
6 262 346 203 512 596 453 
6 304 325 127 554 575 377 
6 222 329 247 472 579 497 
6 218 298 260 468 548 510 
6 290 321 291 540 571 541 
6 272 310 240 522 560 490 
6 269 274 270 519 524 520 
6 244 245 57 494 495 105 
6 49 307 141 97 557 391 
6 225 325 256 475 575 506 
6 273 310 272 523 560 522 
6 312 368 255 562 618 505 
6 249 305 206 499 555 456 
6 228 331 251 478 581 501 
6 302 342 263 552 592 513 
6 338 339 44 588 589 92 
6 190 254 188 440 504 438 
6 37 341 340 85 591 590 
6 138 233 230 388 483 480 
6 228 335 331 478 585 581 
6 181 256 179 431 506 429 
6 195 263 226 445 513 476 
6 268 285 223 518 535 473 
6 290 291 288 540 541 538 
6 219 330 248 469 580 498 
6 201 321 290 451 571 540 
6 240 310 202 490 560 452 
6 188 255 186 438 505 436 
6 270 274 271 520 524 521 
6 262 349 259 512 599 509 
6 141 324 289 391 574 539 
6 296 301 142 546 551 392 
6 247 356 222 497 606 472 
6 239 252 238 489 502 488 
6 254 312 255 504 562 505 
6 54 261 53 102 511 101 
6 289 327 303 539 577 553 
6 268 353 285 518 603 535 
6 273 302 210 523 552 460 
6 292 299 293 542 549 543 
6 278 283 139 528 533 389 
6 175 265 171 425 515 421 
6 227 338 38 477 588 86 
6 264 360 265 514 610 515 
6 43 340 146 91 590 396 
6 165 268 161 415 518 411 
6 205 351 240 455 601 490 
6 64 281 63 112 531 111 
6 288 291 47 538 541 95 
6 135 295 294 385 545 544 
6 42 257 41 90 507 89 
6 245 373 57 495 623 105 
6 31 363 323 79 613 573 
6 292 293 140 542 543 390 
6 267 353 268 517 603 518 
6 155 270 153 405 520 403 
6 244 344 245 494 594 495 
6 61 278 139 109 528 389 
6 135 294 35 385 544 83 
6 69 297 296 117 547 546 
6 186 225 184 436 475 434 
6 329 361 243 579 611 493 
6 255 328 225 505 578 475 
6 213 332 280 463 582 530 
6 39 275 133 87 525 383 
6 330 362 241 580 612 491 
6 195 226 193 445 476 443 
6 211 324 251 461 574 501 
6 151 153 152 401 403 402 
6 295 299 294 545 549 544 
6 265 313 217 515 563 467 
6 258 259 143 508 509 393 
6 251 331 211 501 581 461 
6 149 151 150 399 401 400 
6 293 370 317 543 620 567 
6 153 204 152 403 454 402 
6 151 152 150 401 402 400 
6 33 292 140 81 542 390 
6 210 263 197 460 513 447 
6 301 305 249 551 555 499 
6 298 300 297 548 550 547 
6 68 296 142 116 546 392 
6 321 369 291 571 619 541 
6 179 224 177 429 474 427 
6 167 267 165 417 517 415 
6 259 346 262 509 596 512 
6 303 327 196 553 577 446 
6 269 270 155 519 520 405 
6 265 360 313 515 610 563 
6 223 269 157 473 519 407 
6 157 269 155 407 519 405 
6 144 279 278 394 529 528 
6 169 217 167 419 467 417 
6 177 264 175 427 514 425 
6 267 268 165 517 518 415 
6 159 223 157 409 473 407 
6 232 277 135 482 527 385 
6 193 254 190 443 504 440 
6 217 267 167 467 517 417 
6 249 356 142 499 606 392 
6 184 256 181 434 506 431 
6 248 355 219 498 605 469 
6 229 260 137 479 510 387 
6 149 150 148 399 400 398 
6 64 348 281 112 598 531 
6 311 374 293 561 624 543 
6 264 265 175 514 515 425 
6 297 300 296 547 550 546 
6 141 289 288 391 539 538 
6 197 263 195 447 513 445 
6 218 260 219 468 510 469 
6 224 264 177 474 514 427 
6 137 298 297 387 548 547 
6 277 295 135 527 545 385 
6 133 228 227 383 478 477 
6 261 349 262 511 599 512 
6 221 277 222 471 527 472 
6 256 325 224 506 575 474 
6 199 210 197 449 460 447 
6 226 254 193 476 504 443 
6 144 278 62 394 528 110 
6 279 283 278 529 533 528 
6 289 290 288 539 540 538 
6 137 297 70 387 547 118 
6 34 294 292 82 544 542 
6 235 236 216 485 486 466 
6 141 288 48 391 538 96 
6 178 306 180 428 556 430 
6 185 186 184 435 436 434 
6 63 281 144 111 531 394 
6 225 256 184 475 506 434 
6 46 291 136 94 541 386 
6 147 149 148 397 399 398 
6 271 272 204 521 522 454 
6 233 334 234 483 584 484 
6 145 275 40 395 525 88 
6 220 322 287 470 572 537 
6 280 334 213 530 584 463 
6 144 280 279 394 530 529 
6 140 287 32 390 537 80 
6 154 155 153 404 405 403 
6 334 350 213 584 600 463 
6 176 177 175 426 427 425 
6 260 298 137 510 548 387 
6 33 140 32 81 390 80 
6 49 141 48 97 391 96 
6 56 143 55 104 393 103 
6 68 142 67 116 392 115 
6 63 144 62 111 394 110 
6 61 139 60 109 389 108 
6 148 308 257 398 558 507 
6 71 137 70 119 387 118 
6 53 138 52 101 388 100 
6 46 136 45 94 386 93 
6 36 135 35 84 385 83 
6 43 146 134 91 396 384 
6 133 227 38 383 477 86 
6 192 193 190 442 443 440 
6 293 374 140 543 624 390 
6 34 292 33 82 542 81 
6 207 306 178 457 556 428 
6 43 134 42 91 384 90 
6 39 133 38 87 383 86 
6 41 145 40 89 395 88 
6 194 195 193 444 445 443 
6 69 296 68 117 546 116 
6 294 299 292 544 549 542 
6 173 175 171 423 425 421 
6 260 330 219 510 580 469 
6 183 184 181 433 434 431 
6 134 257 42 384 507 90 
6 55 349 54 103 599 102 
6 163 165 161 413 415 411 
6 166 167 165 416 417 415 
6 210 302 263 460 552 513 
6 271 273 272 521 523 522 
6 53 261 138 101 511 388 
6 217 326 267 467 576 517 
6 289 303 290 539 553 540 
6 178 179 177 428 429 427 
6 238 240 202 488 490 452 
6 62 278 61 110 528 109 
6 35 294 34 83 544 82 
6 284 361 232 534 611 482 
6 70 297 69 118 547 117 
6 224 304 264 474 554 514 
6 156 157 155 406 407 405 
6 48 288 47 96 538 95 
6 221 320 295 471 570 545 
6 187 188 186 437 438 436 
6 47 291 46 95 541 94 
6 151 154 153 401 404 403 
6 286 362 229 536 612 479 
6 168 169 167 418 419 417 
6 40 275 39 88 525 87 
6 307 324 141 557 574 391 
6 300 301 296 550 551 546 
6 32 287 31 80 537 79 
6 147 220 149 397 470 399 
6 333 344 231 583 594 481 
6 299 370 293 549 620 543 
6 271 359 273 521 609 523 
6 224 325 304 474 575 554 
6 228 237 227 478 487 477 
6 305 375 343 555 625 593 
6 218 319 298 468 569 548 
6 240 351 272 490 601 522 
6 277 329 222 527 579 472 
6 253 355 139 503 605 389 
6 158 159 157 408 409 407 
6 236 246 216 486 496 466 
6 192 194 193 442 444 443 
6 220 309 149 470 559 399 
6 183 185 184 433 435 434 
6 196 197 195 446 447 445 
6 276 347 58 526 597 106 
6 136 333 231 386 583 481 
6 67 247 66 115 497 114 
6 60 248 59 108 498 107 
6 261 262 250 511 512 500 
6 173 176 175 423 426 425 
6 344 357 231 594 607 481 
6 144 281 280 394 531 530 
6 152 205 150 402 455 400 
6 163 166 165 413 416 415 
6 185 187 186 435 437 436 
6 233 234 230 483 484 480 
6 170 171 169 420 421 419 
6 146 147 134 396 397 384 
6 176 178 177 426 428 427 
6 285 337 223 535 587 473 
6 154 156 155 404 406 405 
6 263 342 226 513 592 476 
6 235 245 236 485 495 486 
6 160 161 159 410 411 409 
6 58 347 242 106 597 492 
6 166 168 167 416 418 417 
6 287 374 220 537 624 470 
6 189 190 188 439 440 438 
6 148 257 134 398 507 384 
6 194 196 195 444 446 445 
6 252 308 205 502 558 455 
6 285 345 337 535 595 587 
6 301 375 305 551 625 555 
6 180 181 179 430 431 429 
6 281 348 234 531 598 484 
6 198 199 197 448 449 447 
6 151 309 154 401 559 404 
6 228 367 335 478 617 585 
6 54 349 261 102 599 511 
6 156 158 157 406 408 407 
6 168 170 169 418 420 419 
6 200 202 199 450 452 449 
6 147 148 134 397 398 384 
6 158 160 159 408 410 409 
6 150 308 148 400 558 398 
6 253 316 208 503 566 458 
6 232 329 277 482 579 527 
6 178 180 179 428 430 429 
6 191 192 190 441 442 440 
6 214 238 202 464 488 452 
6 172 173 171 422 423 421 
6 187 189 188 437 439 438 
6 162 163 161 412 413 411 
6 228 251 237 478 501 487 
6 215 258 235 465 508 485 
6 182 183 181 432 433 431 
6 202 310 199 452 560 449 
6 219 253 208 469 503 458 
6 222 249 206 472 499 456 
6 196 198 197 446 448 447 
6 229 330 260 479 580 510 
6 132 358 274 382 608 524 
6 149 309 151 399 559 401 
6 226 312 254 476 562 504 
6 154 309 209 404 559 459 
6 77 129 76 125 379 124 
6 73 128 72 121 378 120 
6 76 131 75 124 381 123 
6 74 132 73 122 382 121 
6 75 130 74 123 380 122 
6 14 127 77 29 377 125 
6 72 126 14 120 376 29 
6 133 367 228 383 617 478 
6 237 282 227 487 532 477 
6 239 366 252 489 616 502 
6 200 214 202 450 464 452 
6 192 201 194 442 451 444 
6 170 172 171 420 422 421 
6 220 311 309 470 561 559 
6 198 200 199 448 450 449 
6 189 191 190 439 441 440 
6 146 323 322 396 573 572 
6 160 162 161 410 412 411 
6 251 307 237 501 557 487 
6 199 310 210 449 560 460 
6 57 373 56 105 623 104 
6 214 239 238 464 489 488 
6 182 212 183 432 462 433 
6 180 182 181 430 432 431 
6 146 322 147 396 572 397 
6 172 218 208 422 468 458 
6 172 208 173 422 458 423 
6 162 221 206 412 471 456 
6 162 206 163 412 456 413 
6 176 207 178 426 457 428 
6 272 351 204 522 601 454 
6 198 211 200 448 461 450 
6 182 213 212 432 463 462 
6 234 334 281 484 584 531 
6 154 209 156 404 459 406 
6 185 203 187 435 453 437 
6 168 174 170 418 424 420 
6 189 215 191 439 465 441 
6 215 216 191 465 466 441 
6 221 222 206 471 472 456 
6 158 164 160 408 414 410 
6 218 219 208 468 469 458 
6 205 308 150 455 558 400 
6 191 314 192 441 564 442 
6 215 235 216 465 485 466 
6 215 318 258 465 568 508 
6 152 351 205 402 601 455 
6 138 261 250 388 511 500 
6 192 314 201 442 564 451 
6 234 347 230 484 597 480 
6 226 342 312 476 592 562 
6 138 250 233 388 500 483 
6 147 322 220 397 572 470 
6 216 314 191 466 564 441 
6 306 332 180 556 582 430 
6 222 356 249 472 606 499 
6 128 345 285 378 595 535 
6 314 321 201 564 571 451 
6 212 315 183 462 565 433 
6 312 342 336 562 592 586 
6 282 339 338 532 589 588 
6 340 341 323 590 591 573 
6 309 311 209 559 561 459 
6 183 315 185 433 565 435 
6 208 316 173 458 566 423 
6 173 316 176 423 566 426 
6 3 341 37 18 591 85 
6 44 339 6 92 589 21 
6 252 366 145 502 616 395 
6 246 321 314 496 571 564 
6 246 314 216 496 564 466 
6 126 364 313 376 614 563 
6 156 317 158 406 567 408 
6 275 367 133 525 617 383 
6 176 316 207 426 566 457 
6 185 315 203 435 565 453 
6 180 332 182 430 582 432 
6 302 352 131 552 602 381 
6 251 324 307 501 574 557 
6 187 318 189 437 568 439 
6 172 319 218 422 569 468 
6 162 320 221 412 570 471 
6 305 343 166 555 593 416 
6 170 319 172 420 569 422 
6 158 317 164 408 567 414 
6 209 317 156 459 567 406 
6 285 353 128 535 603 378 
6 223 337 269 473 587 519 
6 160 320 162 410 570 412 
6 211 331 200 461 581 450 
6 174 319 170 424 569 420 
6 203 318 187 453 568 437 
6 189 318 215 439 568 465 
6 198 327 211 448 577 461 
6 164 320 160 414 570 410 
6 326 353 267 576 603 517 
6 236 344 333 486 594 583 
6 196 327 198 446 577 448 
6 219 355 253 469 605 503 
6 281 334 280 531 584 530 
6 274 359 271 524 609 521 
6 164 370 299 414 620 549 
6 174 375 300 424 625 550 
6 287 363 31 537 613 79 
6 243 361 1 493 611 16 
6 241 362 12 491 612 27 
6 307 365 237 557 615 487 
6 166 343 168 416 593 418 
6 200 331 214 450 581 464 
6 313 326 217 563 576 467 
6 9 357 244 24 607 494 
6 1 361 30 16 611 78 
6 12 362 65 27 612 113 
6 337 345 132 587 595 382 
6 242 348 64 492 598 112 
6 231 357 266 481 607 516 
6 182 332 213 432 582 463 
6 245 344 236 495 594 486 
6 258 346 259 508 596 509 
6 145 366 275 395 616 525 
6 291 369 136 541 619 386 
6 236 333 246 486 583 496 
6 331 335 214 581 585 464 
6 312 336 129 562 586 379 
6 315 372 262 565 622 512 
6 220 374 311 470 624 561 
6 140 374 287 390 624 537 
6 126 360 304 376 610 554 
6 230 347 276 480 597 526 
6 313 364 326 563 614 576 
6 56 373 143 104 623 393 
6 239 367 366 489 617 616 
6 204 351 152 454 601 402 
6 300 375 301 550 625 551 
6 214 335 239 464 585 489 
6 247 329 243 497 579 493 
6 262 372 250 512 622 500 
6 248 330 241 498 580 491 
6 318 346 258 568 596 508 
6 333 369 246 583 619 496 
6 282 338 227 532 588 477 
6 146 340 323 396 590 573 
6 304 360 264 554 610 514 
6 366 367 275 616 617 525 
6 129 336 76 379 586 124 
6 73 345 128 121 595 378 
6 76 336 131 124 586 381 
6 250 350 233 500 600 483 
6 129 371 328 379 621 578 
6 132 345 73 382 595 121 
6 168 343 174 418 593 424 
6 131 352 75 381 602 123 
6 66 247 243 114 497 493 
6 59 248 241 107 498 491 
6 74 358 132 122 608 382 
6 203 346 318 453 596 568 
6 313 360 126 563 610 376 
6 128 364 72 378 614 120 
6 128 353 326 378 603 576 
6 77 371 129 125 621 379 
6 129 368 312 379 618 562 
6 244 357 344 494 607 594 
6 328 354 225 578 604 475 
6 326 364 128 576 614 378 
6 75 352 130 123 602 380 
6 350 372 212 600 622 462 
6 136 369 333 386 619 583 
6 325 354 127 575 604 377 
6 213 350 212 463 600 462 
6 130 358 74 380 608 122 
6 250 372 350 500 622 600 
6 317 370 164 567 620 414 
6 72 364 126 120 614 376 
6 328 368 129 578 618 379 
6 127 371 77 377 621 125 
6 336 342 131 586 592 381 
6 212 372 315 462 622 565 
6 234 348 347 484 598 597 
6 8 266 51 23 516 99 
6 10 276 58 25 526 106 
6 246 369 321 496 619 571 
6 30 284 0 78 534 15 
6 65 286 13 113 536 28 
6 58 242 11 106 492 26 
6 266 357 51 516 607 99 
6 255 368 328 505 618 578 
6 347 348 242 597 598 492 
6 322 363 287 572 613 537 
6 323 363 322 573 613 572 
6 335 367 239 585 617 489 
6 30 361 284 78 611 534 
6 65 362 286 113 612 536 
6 237 365 282 487 615 532 
6 130 359 358 380 609 608 
6 343 375 174 593 625 424 
6 354 371 127 604 621 377 
6 328 371 354 578 621 604 
6 358 359 274 608 609 524 
6 0 284 36 15 534 84 
6 45 266 8 93 516 23 
6 52 276 10 100 526 25 
6 11 242 64 26 492 112 
6 13 286 71 28 536 119 
6 2 323 3 17 573 18 
6 31 323 2 79 573 17 
6 323 341 3 573 591 18 
6 37 340 4 85 590 19 
6 4 340 43 19 590 91 
6 38 338 5 86 588 20 
6 5 338 44 20 588 92 
6 6 282 7 21 532 22 
6 6 339 282 21 589 532 
6 282 365 7 532 615 22 

CELL_TYPES 563
13
13
13
13
13
13
13
13
13
13
13
13
13
13
13
13
13
13
13
13
13
13
13
13
13
13
13
13
13
13
13
13
13
13
13
13
13
13
13
13
13
13
13
13
13
13
13
13
13
13
13
13
13
13
13
13
13
13
13
13
13
13
13
13
13
13
13
13
13
13
13
13
13
13
13
13
13
13
13
13
13
13
13
13
13
13
13
13
13
13
13
13
13
13
13
13
13
13
13
13
13
13
13
13
13
13
13
13
13
13
13
13
13
13
13
13
13
13
13
13
13
13
13
13
13
13
13
13
13
13
13
13
13
13
13
13
13
13
13
13
13
13
13
13
13
13
13
13
13
13
13
13
13
13
13
13
13
13
13
13
13
13
13
13
13
13
13
13
13
13
13
13
13
13
13
13
13
13
13
13
13
13
13
13
13
13
13
13
13
13
13
13
13
13
13
13
13
13
13
13
13
13
13
13
13
13
13
13
13
13
13
13
13
13
13
13
13
13
13
13
13
13
13
13
13
13
13
13
13
13
13
13
13
13
13
13
13
13
13
13
13
13
13
13
13
13
13
13
13
13
13
13
13
13
13
13
13
13
13
13
13
13
13
13
13
13
13
13
13
13
13
13
13
13
13
13
13
13
13
13
13
13
13
13
13
13
13
13
13
13
13
13
13
13
13
13
13
13
13
13
13
13
13
13
13
13
13
13
13
13
13
13
13
13
13
13
13
13
13
13
13
13
13
13
13
13
13
13
13
13
13
13
13
13
13
13
13
13
13
13
13
13
13
13
13
13
13
13
13
13
13
13
13
13
13
13
13
13
13
13
13
13
13
13
13
13
13
13
13
13
13
13
13
13
13
13
13
13
13
13
13
13
13
13
13
13
13
13
13
13
13
13
13
13
13
13
13
13
13
13
13
13
13
13
13
13
13
13
13
13
13
13
13
13
13
13
13
13
13
13
13
13
13
13
13
13
13
13
13
13
13
13
13
13
13
13
13
13
13
13
13
13
13
13
13
13
13
13
13
13
13
13
13
13
13
13
13
13
13
13
13
13
13
13
13
13
13
13
13
13
13
13
13
13
13
13
13
13
13
13
13
13
13
13
13
13
13
13
13
13
13
13
13
13
13
13
13
13
13
13
13
13
13
13
13
13
13
13
13
13
13
13
13
13
13
13
13
13
13
13
13
13
13
13
13
13
13
13
13
13
13
13
13
13
13
13
13
13
13
13
13
13
13
13
13
13
13
13
13
13
13
13
13
13
13
13
13
13
13
13
13
13
13

POINT_DATA 626
VECTORS displacement float
-1.74389e-06 3.09625e-05 1.80587e-05
1.7356e-06 3.09815e-05 1.81038e-05
-2.59933e-05 1.69968e-05 1.80908e-05
-2.58478e-05 1.60369e-05 1.80554e-05
-2.77276e-05 1.39768e-05 1.80728e-05
-2.77205e-05 -1.40231e-05 1.80982e-05
-2.5819e-05 -1.60751e-05 1.81095e-05
-2.59894e-05 -1.70149e-05 1.81707e-05
-1.67736e-06 -3.09662e-05 1.80551e-05
1.75541e-06 -3.09677e-05 1.81056e-05
2.59506e-05 -1.69846e-05 1.80472e-05
2.77239e-05 -1.39407e-05 1.80471e-05
2.76794e-05 1.39935e-05 1.80953e-05
2.59219e-05 1.69969e-05 1.80497e-05
0 0 0
-1.74389e-06 3.09625e-05 -1.80587e-05
1.7356e-06 3.09815e-05 -1.81038e-05
-2.59933e-05 1.69968e-05 -1.80908e-05
-2.58478e-05 1.60369e-05 -1.80554e-05
-2.77276e-05 1.39768e-05 -1.80728e-05
-2.77205e-05 -1.40231e-05 -1.80982e-05
-2.5819e-05 -1.60751e-05 -1.81095e-05
-2.59894e-05 -1.70149e-05 -1.81707e-05
-1.67736e-06 -3.09662e-05 -1.80551e-05
1.75541e-06 -3.09677e-05 -1.81056e-05
2.59506e-05 -1.69846e-05 -1.80472e-05
2.77239e-05 -1.39407e-05 -1.80471e-05
2.76794e-05 1.39935e-05 -1.80953e-05
2.59219e-05 1.69969e-05 -1.80497e-05
0 0 0
2.48723e-08 3.01622e-05 1.80379e-05
-2.11473e-05 1.87171e-05 1.75538e-05
-1.72384e-05 1.98396e-05 1.69254e-05
-1.40117e-05 2.1061e-05 1.65597e-05
-1.12103e-05 2.26723e-05 1.65536e-05
-8.52618e-06 2.48409e-05 1.69059e-05
-5.56859e-06 2.76299e-05 1.75416e-05
-2.64567e-05 1.4683e-05 1.80372e-05
-2.67762e-05 -9.01497e-06 1.75815e-05
-2.58142e-05 -5.03769e-06 1.69305e-05
-2.52627e-05 -1.63697e-06 1.65762e-05
-2.52657e-05 1.6086e-06 1.65791e-05
-2.58065e-05 5.02507e-06 1.69287e-05
-2.67624e-05 8.98804e-06 1.7568e-05
-2.64435e-05 -1.47294e-05 1.80659e-05
-5.54184e-06 -2.76444e-05 1.75338e-05
-8.4787e-06 -2.48499e-05 1.69052e-05
-1.11735e-05 -2.26918e-05 1.6561e-05
-1.39754e-05 -2.1094e-05 1.65643e-05
-1.72208e-05 -1.9875e-05 1.69412e-05
-2.11409e-05 -1.87539e-05 1.75663e-05
8.98084e-08 -3.0147e-05 1.80331e-05
2.11307e-05 -1.86296e-05 1.75156e-05
1.72506e-05 -1.9768e-05 1.68774e-05
1.40386e-05 -2.10179e-05 1.65164e-05
1.12285e-05 -2.26005e-05 1.65509e-05
8.58331e-06 -2.47881e-05 1.68787e-05
5.65543e-06 -2.76346e-05 1.75391e-05
2.61314e-05 -1.50636e-05 1.80321e-05
2.67243e-05 8.94186e-06 1.75056e-05
2.573e-05 5.0518e-06 1.69129e-05
2.52148e-05 1.62408e-06 1.6528e-05
2.52119e-05 -1.60018e-06 1.65263e-05
2.57587e-05 -4.99958e-06 1.68929e-05
2.67064e-05 -8.9206e-06 1.75138e-05
2.61144e-05 1.50648e-05 1.80291e-05
5.63387e-06 2.7626e-05 1.75137e-05
8.5107e-06 2.48148e-05 1.69157e-05
1.12205e-05 2.26485e-05 1.65342e-05
1.40093e-05 2.10289e-05 1.65295e-05
1.72276e-05 1.97993e-05 1.68896e-05
2.11217e-05 1.86392e-05 1.75295e-05
0 0 0
0 0 0
0 0 0
0 0 0
0 0 0
0 0 0
2.48723e-08 3.01622e-05 -1.80379e-05
-2.11473e-05 1.87171e-05 -1.75538e-05
-1.72384e-05 1.98396e-05 -1.69254e-05
-1.40117e-05 2.1061e-05 -1.65597e-05
-1.12103e-05 2.26723e-05 -1.65536e-05
-8.52618e-06 2.48409e-05 -1.69059e-05
-5.56859e-06 2.76299e-05 -1.75416e-05
-2.64567e-05 1.4683e-05 -1.80372e-05
-2.67762e-05 -9.01497e-06 -1.75815e-05
-2.58142e-05 -5.03769e-06 -1.69305e-05
-2.52627e-05 -1.63697e-06 -1.65762e-05
-2.52657e-05 1.6086e-06 -1.65791e-05
-2.58065e-05 5.02507e-06 -1.69287e-05
-2.67624e-05 8.98804e-06 -1.7568e-05
-2.64435e-05 -1.47294e-05 -1.80659e-05
-5.54184e-06 -2.76444e-05 -1.75338e-05
-8.4787e-06 -2.48499e-05 -1.69052e-05
-1.11735e-05 -2.26918e-05 -1.6561e-05
-1.39754e-05 -2.1094e-05 -1.65643e-05
-1.72208e-05 -1.9875e-05 -1.69412e-05
-2.11409e-05 -1.87539e-05 -1.75663e-05
8.98084e-08 -3.0147e-05 -1.80331e-05
2.11307e-05 -1.86296e-05 -1.75156e-05
1.72506e-05 -1.9768e-05 -1.68774e-05
1.40386e-05 -2.10179e-05 -1.65164e-05
1.12285e-05 -2.26005e-05 -1.65509e-05
8.58331e-06 -2.47881e-05 -1.68787e-05
5.65543e-06 -2.76346e-05 -1.75391e-05
2.61314e-05 -1.50636e-05 -1.80321e-05
2.67243e-05 8.94186e-06 -1.75056e-05
2.573e-05 5.0518e-06 -1.69129e-05
2.52148e-05 1.62408e-06 -1.6528e-05
2.52119e-05 -1.60018e-06 -1.65263e-05
2.57587e-05 -4.99958e-06 -1.68929e-05
2.67064e-05 -8.9206e-06 -1.75138e-05
2.61144e-05 1.50648e-05 -1.80291e-05
5.63387e-06 2.7626e-05 -1.75137e-05
8.5107e-06 2.48148e-05 -1.69157e-05
1.12205e-05 2.26485e-05 -1.65342e-05
1.40093e-05 2.10289e-05 -1.65295e-05
1.72276e-05 1.97993e-05 -1.68896e-05
2.11217e-05 1.86392e-05 -1.75295e-05
0 0 0
0 0 0
0 0 0
0 0 0
0 0 0
0 0 0
1.79412e-06 8.58954e-07 4.55372e-06
1.73824e-06 -8.25313e-07 4.46224e-06
4.32058e-07 1.85007e-06 4.49656e-06
4.36203e-07 -1.78105e-06 4.35748e-06
-1.84793e-06 2.09697e-08 4.42378e-06
-1.12335e-06 -1.30918e-06 4.15233e-06
-1.15948e-06 1.30711e-06 4.20112e-06
-2.25199e-05 -7.29024e-06 1.70043e-05
-2.22032e-05 7.37413e-06 1.6973e-05
-4.86168e-06 2.29057e-05 1.69414e-05
-4.85917e-06 -2.31389e-05 1.69683e-05
1.74268e-05 1.56401e-05 1.69342e-05
1.75744e-05 -1.55411e-05 1.69435e-05
2.10804e-05 3.16506e-06 1.63291e-05
-1.39578e-05 1.71567e-05 1.64831e-05
-1.35957e-05 -1.67466e-05 1.64146e-05
7.77024e-06 1.98261e-05 1.63359e-05
7.68719e-06 -2.03166e-05 1.64072e-05
2.14793e-05 -3.44502e-06 1.64049e-05
-2.11097e-05 6.58878e-09 1.62514e-05
-2.24269e-05 1.10031e-05 1.74577e-05
-1.87568e-05 9.25764e-06 1.66315e-05
-1.79885e-05 5.79738e-06 1.60409e-05
-1.49888e-05 7.45074e-06 1.54909e-05
-1.42291e-05 4.30913e-06 1.48342e-05
-1.15363e-05 5.74574e-06 1.40991e-05
-1.08615e-05 3.06972e-06 1.33778e-05
-8.40316e-06 4.30624e-06 1.24084e-05
-9.06173e-06 7.01566e-06 1.34606e-05
-6.20605e-06 5.49023e-06 1.16928e-05
-6.83051e-06 8.2521e-06 1.30841e-05
-4.28274e-06 6.67699e-06 1.14542e-05
-4.80157e-06 9.61303e-06 1.30981e-05
-2.40163e-06 7.99585e-06 1.17268e-05
-2.81377e-06 1.11708e-05 1.34792e-05
-4.75568e-07 9.59835e-06 1.2505e-05
-7.38602e-07 1.30011e-05 1.41461e-05
1.73163e-06 1.15215e-05 1.35393e-05
-5.53651e-06 1.27046e-05 1.44414e-05
1.6856e-06 8.22656e-06 1.17514e-05
4.00547e-06 1.01242e-05 1.31552e-05
3.7065e-06 7.10017e-06 1.1482e-05
6.06936e-06 8.96957e-06 1.31176e-05
5.76863e-06 6.10871e-06 1.17394e-05
8.36079e-06 8.02293e-06 1.34963e-05
8.10823e-06 5.19692e-06 1.25044e-05
1.09575e-05 7.09936e-06 1.41514e-05
1.07494e-05 4.3242e-06 1.35034e-05
8.53332e-06 1.10411e-05 1.44653e-05
7.94018e-06 2.64457e-06 1.17312e-05
1.06494e-05 1.73776e-06 1.31082e-05
7.95117e-06 3.58873e-07 1.14593e-05
1.08099e-05 -7.59358e-07 1.31284e-05
8.11419e-06 -1.93841e-06 1.17129e-05
1.11019e-05 -3.31393e-06 1.34882e-05
8.47243e-06 -4.42539e-06 1.24481e-05
1.15074e-05 -6.00484e-06 1.41138e-05
8.95846e-06 -7.14042e-06 1.34323e-05
6.14944e-06 -5.49614e-06 1.16451e-05
6.64664e-06 -8.30355e-06 1.30225e-05
4.10648e-06 -6.59057e-06 1.13146e-05
4.52481e-06 -9.55396e-06 1.29925e-05
2.24299e-06 -7.86075e-06 1.16011e-05
2.48563e-06 -1.10055e-05 1.33552e-05
2.25357e-07 -9.37667e-06 1.23576e-05
3.30111e-07 -1.2774e-05 1.40382e-05
-1.91607e-06 -1.11543e-05 1.33813e-05
-1.84165e-06 -7.9241e-06 1.1586e-05
-4.16926e-06 -9.87804e-06 1.30893e-05
-3.81513e-06 -6.7326e-06 1.13208e-05
-6.34768e-06 -8.66482e-06 1.31035e-05
-5.89315e-06 -5.6998e-06 1.16322e-05
-8.50248e-06 -7.4382e-06 1.3384e-05
-8.17015e-06 -4.72956e-06 1.24126e-05
-1.10993e-05 -6.40485e-06 1.40743e-05
-4.3731e-06 -1.31275e-05 1.44382e-05
-1.08124e-05 -3.65186e-06 1.34435e-05
7.2285e-06 -1.13765e-05 1.42775e-05
-7.74413e-06 1.9833e-06 1.14967e-05
-1.32205e-05 1.0354e-06 1.42155e-05
1.72967e-06 1.50877e-05 1.49568e-05
1.37726e-05 4.62395e-07 1.43924e-05
1.38477e-05 6.10211e-06 1.49363e-05
-9.69726e-06 1.01996e-05 1.45371e-05
-5.41765e-06 -3.19862e-06 1.01855e-05
-1.17174e-05 -9.30037e-06 1.48938e-05
1.18863e-05 -8.76308e-06 1.47917e-05
1.47866e-05 -7.47605e-06 1.54079e-05
-1.39643e-05 -5.24562e-06 1.48662e-05
2.79672e-06 -1.45209e-05 1.48008e-05
4.24681e-07 -1.65048e-05 1.54023e-05
3.51948e-06 4.39825e-06 9.58431e-06
1.40151e-05 9.30208e-06 1.54962e-05
1.79365e-05 8.14763e-06 1.63051e-05
-1.56805e-05 1.13989e-05 1.6238e-05
-1.09444e-06 1.67746e-05 1.54999e-05
1.9074e-06 1.96279e-05 1.63155e-05
-2.0925e-06 5.22164e-06 9.60081e-06
5.5556e-06 -7.84838e-07 9.59736e-06
3.58701e-06 -3.68465e-06 9.08502e-06
-1.78017e-06 -5.18011e-06 9.45277e-06
-2.24754e-05 -1.10143e-05 1.74784e-05
-1.88041e-05 -9.24438e-06 1.66555e-05
2.11542e-05 1.41688e-05 1.75097e-05
2.07601e-05 -1.43217e-05 1.74397e-05
-1.76493e-06 -2.54541e-05 1.7515e-05
-1.68245e-06 2.54181e-05 1.75197e-05
1.77186e-05 -1.19106e-05 1.66916e-05
2.0652e-05 -1.07545e-05 1.71202e-05
3.77677e-06 -1.89913e-05 1.6144e-05
7.68722e-07 -2.03523e-05 1.64873e-05
-1.94111e-05 -1.26543e-05 1.71474e-05
-1.37356e-05 -2.30769e-06 1.44765e-05
-1.65982e-05 -3.70268e-06 1.54822e-05
-1.03792e-05 -1.09674e-06 1.29564e-05
2.4459e-05 1.10764e-05 1.76556e-05
2.55045e-05 -1.2407e-05 1.7852e-05
2.64962e-06 2.67338e-05 1.76645e-05
2.52136e-06 -2.64214e-05 1.76334e-05
3.34026e-06 -2.30391e-05 1.70334e-05
-2.05453e-06 -1.83258e-05 1.59555e-05
4.05999e-06 2.37987e-05 1.71347e-05
2.2621e-05 8.38213e-06 1.71236e-05
4.61505e-06 1.7319e-05 1.5732e-05
1.44317e-05 -1.31236e-05 1.6142e-05
-1.57928e-05 -1.09882e-05 1.62191e-05
-1.68054e-05 -3.81563e-07 1.53821e-05
1.73116e-05 4.68907e-06 1.57303e-05
6.5538e-08 -6.38924e-06 1.02709e-05
1.74222e-06 -4.84988e-06 9.09552e-06
5.85224e-06 -2.9364e-06 1.03816e-05
-2.14511e-05 3.75189e-06 1.64635e-05
5.7312e-06 -1.62799e-05 1.55124e-05
9.08643e-06 -1.75048e-05 1.60023e-05
1.75777e-05 1.18853e-05 1.66767e-05
1.39989e-05 -1.63875e-05 1.64059e-05
1.07435e-05 -1.37935e-05 1.55549e-05
-3.54902e-06 -4.22144e-06 9.50393e-06
5.40071e-06 1.13883e-06 9.50222e-06
5.21961e-06 3.22384e-06 1.00506e-05
-1.74997e-06 -2.83624e-05 1.78807e-05
1.89262e-06 5.30046e-06 9.58765e-06
-1.13861e-07 6.10683e-06 1.00421e-05
-3.78604e-06 4.12896e-06 9.5816e-06
-5.62438e-06 3.0351e-06 1.02887e-05
-5.16698e-06 1.04098e-06 9.21667e-06
-7.52957e-06 -6.1759e-08 1.11761e-05
-4.3356e-06 -8.10505e-07 8.38463e-06
-3.10944e-06 1.87285e-06 7.37649e-06
-2.20882e-05 -3.60913e-06 1.65205e-05
2.34129e-05 -1.5692e-05 1.784e-05
-1.50761e-06 2.11745e-05 1.66864e-05
2.12686e-05 -8.45519e-08 1.62306e-05
1.76279e-05 -1.64737e-06 1.55862e-05
1.73533e-05 -4.94333e-06 1.57753e-05
2.18983e-05 -7.45367e-06 1.6918e-05
-2.31888e-05 -1.42585e-05 1.78365e-05
1.73303e-05 1.64944e-06 1.55133e-05
-1.73417e-06 2.84809e-05 1.78979e-05
-4.22188e-07 3.68443e-06 7.49777e-06
2.37787e-05 1.57464e-05 1.78884e-05
-1.7503e-05 1.56469e-05 1.69793e-05
-1.06297e-05 -1.84722e-05 1.62599e-05
-1.01029e-05 -1.4347e-05 1.55764e-05
-7.51024e-06 -1.61002e-05 1.56268e-05
-7.32438e-06 -2.01271e-05 1.64e-05
-1.0708e-05 1.85413e-05 1.62716e-05
-1.03508e-05 1.43888e-05 1.56241e-05
-7.77501e-06 2.04991e-05 1.64489e-05
-4.2543e-06 1.86157e-05 1.60576e-05
1.07632e-05 1.83515e-05 1.6231e-05
1.38963e-05 1.69403e-05 1.64357e-05
1.40465e-05 1.2977e-05 1.60559e-05
-7.36399e-06 1.62937e-05 1.56433e-05
1.05286e-05 1.45518e-05 1.565e-05
7.75128e-06 1.60976e-05 1.56187e-05
-3.11732e-06 -1.89929e-06 7.39562e-06
-7.26005e-06 -1.24261e-05 1.46298e-05
3.00945e-06 4.03713e-08 6.60314e-06
4.87416e-06 1.35272e-05 1.46227e-05
1.40806e-05 -2.26114e-06 1.45751e-05
-1.72953e-05 -1.52212e-05 1.69499e-05
-1.73722e-05 2.42113e-06 1.56026e-05
-1.22087e-05 8.91482e-06 1.49481e-05
-7.70804e-06 -2.29323e-06 1.15585e-05
-1.24539e-05 1.18164e-05 1.55446e-05
-1.42776e-07 -3.75526e-06 7.55668e-06
2.73098e-06 2.2727e-06 7.25433e-06
-2.00452e-06 -1.46553e-05 1.48127e-05
9.36816e-06 -1.00715e-05 1.4394e-05
1.38653e-05 3.15886e-06 1.45707e-05
-7.34247e-06 1.12031e-05 1.42649e-05
4.99885e-06 -1.2779e-05 1.43739e-05
1.10355e-05 1.04339e-05 1.49243e-05
-3.59762e-06 1.46901e-05 1.49127e-05
-4.63696e-06 -1.66223e-05 1.55535e-05
-1.95131e-05 1.28963e-05 1.71655e-05
-2.31336e-05 1.48622e-05 1.78473e-05
-1.29092e-05 -1.26902e-05 1.58172e-05
3.76186e-06 -1.58657e-06 7.90958e-06
1.76487e-06 2.92308e-06 7.08678e-06
-9.23353e-06 -1.0613e-05 1.45364e-05
1.72821e-06 -2.82393e-06 6.93336e-06
9.94923e-07 2.41242e-05 1.73127e-05
2.13744e-05 1.11973e-05 1.73028e-05
-1.46694e-05 -7.95597e-06 1.549e-05
1.37126e-05 -4.7879e-06 1.46953e-05
-1.91041e-06 -2.17698e-05 1.68072e-05
1.80661e-05 -8.42181e-06 1.63453e-05
-1.66843e-05 -6.33066e-06 1.57871e-05
-4.33011e-07 -1.92281e-06 4.80004e-06
-1.80587e-06 2.99626e-06 7.17956e-06
-2.50589e-05 -1.29856e-05 1.79261e-05
-2.5134e-05 -1.45112e-05 1.80059e-05
-2.50521e-05 1.30375e-05 1.79099e-05
-2.51249e-05 1.46539e-05 1.79859e-05
-1.64891e-06 -3.12571e-06 7.2123e-06
6.33003e-06 1.13721e-05 1.40812e-05
5.33804e-07 -2.40934e-05 1.73064e-05
-5.22911e-07 1.81e-06 4.64652e-06
7.40991e-06 -1.43485e-05 1.51572e-05
2.33096e-05 -1.32132e-05 1.77328e-05
2.36396e-05 -1.0541e-05 1.74949e-05
1.19924e-05 -1.8217e-05 1.62981e-05
1.47349e-05 -1.01499e-05 1.58002e-05
-1.00303e-05 1.00157e-06 1.27589e-05
-1.74045e-06 -8.16108e-07 4.72499e-06
7.69277e-07 3.70939e-06 7.57567e-06
2.34371e-06 -1.9977e-06 6.55746e-06
2.0163e-05 5.89988e-06 1.64582e-05
5.07155e-06 2.06026e-05 1.65006e-05
3.42143e-07 -2.76879e-05 1.78579e-05
-1.73166e-06 7.09289e-07 4.60782e-06
-3.21238e-06 6.23215e-07 6.8264e-06
3.57822e-06 1.47583e-06 7.63917e-06
4.99264e-07 2.83317e-05 1.79311e-05
2.47672e-05 1.3738e-05 1.79223e-05
-2.03347e-05 1.55402e-05 1.74332e-05
1.179e-06 1.36482e-06 4.46131e-06
-2.0646e-05 -1.57328e-05 1.75317e-05
-1.90052e-05 -2.32301e-06 1.5951e-05
-1.95655e-05 -5.58692e-06 1.63369e-05
9.05929e-07 -3.24865e-06 7.00843e-06
-4.36734e-06 -1.97957e-05 1.63265e-05
-7.93995e-06 1.3839e-05 1.51059e-05
1.16604e-06 -1.30451e-06 4.34071e-06
1.19384e-05 -1.12321e-05 1.52969e-05
6.13467e-06 -2.27034e-05 1.68251e-05
-1.4527e-05 1.43599e-05 1.63283e-05
7.93172e-06 1.33257e-05 1.49528e-05
1.79412e-06 8.58954e-07 -4.55372e-06
1.73824e-06 -8.25313e-07 -4.46224e-06
4.32058e-07 1.85007e-06 -4.49656e-06
4.36203e-07 -1.78105e-06 -4.35748e-06
-1.84793e-06 2.09697e-08 -4.42378e-06
-1.12335e-06 -1.30918e-06 -4.15233e-06
-1.15948e-06 1.30711e-06 -4.20112e-06
-2.25199e-05 -7.29024e-06 -1.70043e-05
-2.22032e-05 7.37413e-06 -1.6973e-05
-4.86168e-06 2.29057e-05 -1.69414e-05
-4.85917e-06 -2.31389e-05 -1.69683e-05
1.74268e-05 1.56401e-05 -1.69342e-05
1.75744e-05 -1.55411e-05 -1.69435e-05
2.10804e-05 3.16506e-06 -1.63291e-05
-1.39578e-05 1.71567e-05 -1.64831e-05
-1.35957e-05 -1.67466e-05 -1.64146e-05
7.77024e-06 1.98261e-05 -1.63359e-05
7.68719e-06 -2.03166e-05 -1.64072e-05
2.14793e-05 -3.44502e-06 -1.64049e-05
-2.11097e-05 6.58878e-09 -1.62514e-05
-2.24269e-05 1.10031e-05 -1.74577e-05
-1.87568e-05 9.25764e-06 -1.66315e-05
-1.79885e-05 5.79738e-06 -1.60409e-05
-1.49888e-05 7.45074e-06 -1.54909e-05
-1.42291e-05 4.30913e-06 -1.48342e-05
-1.15363e-05 5.74574e-06 -1.40991e-05
-1.08615e-05 3.06972e-06 -1.33778e-05
-8.40316e-06 4.30624e-06 -1.24084e-05
-9.06173e-06 7.01566e-06 -1.34606e-05
-6.20605e-06 5.49023e-06 -1.16928e-05
-6.83051e-06 8.2521e-06 -1.30841e-05
-4.28274e-06 6.67699e-06 -1.14542e-05
-4.80157e-06 9.61303e-06 -1.30981e-05
-2.40163e-06 7.99585e-06 -1.17268e-05
-2.81377e-06 1.11708e-05 -1.34792e-05
-4.75568e-07 9.59835e-06 -1.2505e-05
-7.38602e-07 1.30011e-05 -1.41461e-05
1.73163e-06 1.15215e-05 -1.35393e-05
-5.53651e-06 1.27046e-05 -1.44414e-05
1.6856e-06 8.22656e-06 -1.17514e-05
4.00547e-06 1.01242e-05 -1.31552e-05
3.7065e-06 7.10017e-06 -1.1482e-05
6.06936e-06 8.96957e-06 -1.31176e-05
5.76863e-06 6.10871e-06 -1.17394e-05
8.36079e-06 8.02293e-06 -1.34963e-05
8.10823e-06 5.19692e-06 -1.25044e-05
1.09575e-05 7.09936e-06 -1.41514e-05
1.07494e-05 4.3242e-06 -1.35034e-05
8.53332e-06 1.10411e-05 -1.44653e-05
7.94018e-06 2.64457e-06 -1.17312e-05
1.06494e-05 1.73776e-06 -1.31082e-05
7.95117e-06 3.58873e-07 -1.14593e-05
1.08099e-05 -7.59358e-07 -1.31284e-05
8.11419e-06 -1.93841e-06 -1.17129e-05
1.11019e-05 -3.31393e-06 -1.34882e-05
8.47243e-06 -4.42539e-06 -1.24481e-05
1.15074e-05 -6.00484e-06 -1.41138e-05
8.95846e-06 -7.14042e-06 -1.34323e-05
6.14944e-06 -5.49614e-06 -1.16451e-05
6.64664e-06 -8.30355e-06 -1.30225e-05
4.10648e-06 -6.59057e-06 -1.13146e-05
4.52481e-06 -9.55396e-06 -1.29925e-05
2.24299e-06 -7.86075e-06 -1.16011e-05
2.48563e-06 -1.10055e-05 -1.33552e-05
2.25357e-07 -9.37667e-06 -1.23576e-05
3.30111e-07 -1.2774e-05 -1.40382e-05
-1.91607e-06 -1.11543e-05 -1.33813e-05
-1.84165e-06 -7.9241e-06 -1.1586e-05
-4.16926e-06 -9.87804e-06 -1.30893e-05
-3.81513e-06 -6.7326e-06 -1.13208e-05
-6.34768e-06 -8.66482e-06 -1.31035e-05
-5.89315e-06 -5.6998e-06 -1.16322e-05
-8.50248e-06 -7.4382e-06 -1.3384e-05
-8.17015e-06 -4.72956e-06 -1.24126e-05
-1.10993e-05 -6.40485e-06 -1.40743e-05
-4.3731e-06 -1.31275e-05 -1.44382e-05
-1.08124e-05 -3.65186e-06 -1.34435e-05
7.2285e-06 -1.13765e-05 -1.42775e-05
-7.74413e-06 1.9833e-06 -1.14967e-05
-1.32205e-05 1.0354e-06 -1.42155e-05
1.72967e-06 1.50877e-05 -1.49568e-05
1.37726e-05 4.62395e-07 -1.43924e-05
1.38477e-05 6.10211e-06 -1.49363e-05
-9.69726e-06 1.01996e-05 -1.45371e-05
-5.41765e-06 -3.19862e-06 -1.01855e-05
-1.17174e-05 -9.30037e-06 -1.48938e-05
1.18863e-05 -8.76308e-06 -1.47917e-05
1.47866e-05 -7.47605e-06 -1.54079e-05
-1.39643e-05 -5.24562e-06 -1.48662e-05
2.79672e-06 -1.45209e-05 -1.48008e-05
4.24681e-07 -1.65048e-05 -1.54023e-05
3.51948e-06 4.39825e-06 -9.58431e-06
1.40151e-05 9.30208e-06 -1.54962e-05
1.79365e-05 8.14763e-06 -1.63051e-05
-1.56805e-05 1.13989e-05 -1.6238e-05
-1.09444e-06 1.67746e-05 -1.54999e-05
1.9074e-06 1.96279e-05 -1.63155e-05
-2.0925e-06 5.22164e-06 -9.60081e-06
5.5556e-06 -7.84838e-07 -9.59736e-06
3.58701e-06 -3.68465e-06 -9.08502e-06
-1.78017e-06 -5.18011e-06 -9.45277e-06
-2.24754e-05 -1.10143e-05 -1.74784e-05
-1.88041e-05 -9.24438e-06 -1.66555e-05
2.11542e-05 1.41688e-05 -1.75097e-05
2.07601e-05 -1.43217e-05 -1.74397e-05
-1.76493e-06 -2.54541e-05 -1.7515e-05
-1.68245e-06 2.54181e-05 -1.75197e-05
1.77186e-05 -1.19106e-05 -1.66916e-05
2.0652e-05 -1.07545e-05 -1.71202e-05
3.77677e-06 -1.89913e-05 -1.6144e-05
7.68722e-07 -2.03523e-05 -1.64873e-05
-1.94111e-05 -1.26543e-05 -1.71474e-05
-1.37356e-05 -2.30769e-06 -1.44765e-05
-1.65982e-05 -3.70268e-06 -1.54822e-05
-1.03792e-05 -1.09674e-06 -1.29564e-05
2.4459e-05 1.10764e-05 -1.76556e-05
2.55045e-05 -1.2407e-05 -1.7852e-05
2.64962e-06 2.67338e-05 -1.76645e-05
2.52136e-06 -2.64214e-05 -1.76334e-05
3.34026e-06 -2.30391e-05 -1.70334e-05
-2.05453e-06 -1.83258e-05 -1.59555e-05
4.05999e-06 2.37987e-05 -1.71347e-05
2.2621e-05 8.38213e-06 -1.71236e-05
4.61505e-06 1.7319e-05 -1.5732e-05
1.44317e-05 -1.31236e-05 -1.6142e-05
-1.57928e-05 -1.09882e-05 -1.62191e-05
-1.68054e-05 -3.81563e-07 -1.53821e-05
1.73116e-05 4.68907e-06 -1.57303e-05
6.5538e-08 -6.38924e-06 -1.02709e-05
1.74222e-06 -4.84988e-06 -9.09552e-06
5.85224e-06 -2.9364e-06 -1.03816e-05
-2.14511e-05 3.75189e-06 -1.64635e-05
5.7312e-06 -1.62799e-05 -1.55124e-05
9.08643e-06 -1.75048e-05 -1.60023e-05
1.75777e-05 1.18853e-05 -1.66767e-05
1.39989e-05 -1.63875e-05 -1.64059e-05
1.07435e-05 -1.37935e-05 -1.55549e-05
-3.54902e-06 -4.22144e-06 -9.50393e-06
5.40071e-06 1.13883e-06 -9.50222e-06
5.21961e-06 3.22384e-06 -1.00506e-05
-1.74997e-06 -2.83624e-05 -1.78807e-05
1.89262e-06 5.30046e-06 -9.58765e-06
-1.13861e-07 6.10683e-06 -1.00421e-05
-3.78604e-06 4.12896e-06 -9.5816e-06
-5.62438e-06 3.0351e-06 -1.02887e-05
-5.16698e-06 1.04098e-06 -9.21667e-06
-7.52957e-06 -6.1759e-08 -1.11761e-05
-4.3356e-06 -8.10505e-07 -8.38463e-06
-3.10944e-06 1.87285e-06 -7.37649e-06
-2.20882e-05 -3.60913e-06 -1.65205e-05
2.34129e-05 -1.5692e-05 -1.784e-05
-1.50761e-06 2.11745e-05 -1.66864e-05
2.12686e-05 -8.45519e-08 -1.62306e-05
1.76279e-05 -1.64737e-06 -1.55862e-05
1.73533e-05 -4.94333e-06 -1.57753e-05
2.18983e-05 -7.45367e-06 -1.6918e-05
-2.31888e-05 -1.42585e-05 -1.78365e-05
1.73303e-05 1.64944e-06 -1.55133e-05
-1.73417e-06 2.84809e-05 -1.78979e-05
-4.22188e-07 3.68443e-06 -7.49777e-06
2.37787e-05 1.57464e-05 -1.78884e-05
-1.7503e-05 1.56469e-05 -1.69793e-05
-1.06297e-05 -1.84722e-05 -1.62599e-05
-1.01029e-05 -1.4347e-05 -1.55764e-05
-7.51024e-06 -1.61002e-05 -1.56268e-05
-7.32438e-06 -2.01271e-05 -1.64e-05
-1.0708e-05 1.85413e-05 -1.62716e-05
-1.03508e-05 1.43888e-05 -1.56241e-05
-7.77501e-06 2.04991e-05 -1.64489e-05
-4.2543e-06 1.86157e-05 -1.60576e-05
1.07632e-05 1.83515e-05 -1.6231e-05
1.38963e-05 1.69403e-05 -1.64357e-05
1.40465e-05 1.2977e-05 -1.60559e-05
-7.36399e-06 1.62937e-05 -1.56433e-05
1.05286e-05 1.45518e-05 -1.565e-05
7.75128e-06 1.60976e-05 -1.56187e-05
-3.11732e-06 -1.89929e-06 -7.39562e-06
-7.26005e-06 -1.24261e-05 -1.46298e-05
3.00945e-06 4.03713e-08 -6.60314e-06
4.87416e-06 1.35272e-05 -1.46227e-05
1.40806e-05 -2.26114e-06 -1.45751e-05
-1.72953e-05 -1.52212e-05 -1.69499e-05
-1.73722e-05 2.42113e-06 -1.56026e-05
-1.22087e-05 8.91482e-06 -1.49481e-05
-7.70804e-06 -2.29323e-06 -1.15585e-05
-1.24539e-05 1.18164e-05 -1.55446e-05
-1.42776e-07 -3.75526e-06 -7.55668e-06
2.73098e-06 2.2727e-06 -7.25433e-06
-2.00452e-06 -1.46553e-05 -1.48127e-05
9.36816e-06 -1.00715e-05 -1.4394e-05
1.38653e-05 3.15886e-06 -1.45707e-05
-7.34247e-06 1.12031e-05 -1.42649e-05
4.99885e-06 -1.2779e-05 -1.43739e-05
1.10355e-05 1.04339e-05 -1.49243e-05
-3.59762e-06 1.46901e-05 -1.49127e-05
-4.63696e-06 -1.66223e-05 -1.55535e-05
-1.95131e-05 1.28963e-05 -1.71655e-05
-2.31336e-05 1.48622e-05 -1.78473e-05
-1.29092e-05 -1.26902e-05 -1.58172e-05
3.76186e-06 -1.58657e-06 -7.90958e-06
1.76487e-06 2.92308e-06 -7.08678e-06
-9.23353e-06 -1.0613e-05 -1.45364e-05
1.72821e-06 -2.82393e-06 -6.93336e-06
9.94923e-07 2.41242e-05 -1.73127e-05
2.13744e-05 1.11973e-05 -1.73028e-05
-1.46694e-05 -7.95597e-06 -1.549e-05
1.37126e-05 -4.7879e-06 -1.46953e-05
-1.91041e-06 -2.17698e-05 -1.68072e-05
1.80661e-05 -8.42181e-06 -1.63453e-05
-1.66843e-05 -6.33066e-06 -1.57871e-05
-4.33011e-07 -1.92281e-06 -4.80004e-06
-1.80587e-06 2.99626e-06 -7.17956e-06
-2.50589e-05 -1.29856e-05 -1.79261e-05
-2.5134e-05 -1.45112e-05 -1.80059e-05
-2.50521e-05 1.30375e-05 -1.79099e-05
-2.51249e-05 1.46539e-05 -1.79859e-05
-1.64891e-06 -3.12571e-06 -7.2123e-06
6.33003e-06 1.13721e-05 -1.40812e-05
5.33804e-07 -2.40934e-05 -1.73064e-05
-5.22911e-07 1.81e-06 -4.64652e-06
7.40991e-06 -1.43485e-05 -1.51572e-05
2.33096e-05 -1.32132e-05 -1.77328e-05
2.36396e-05 -1.0541e-05 -1.74949e-05
1.19924e-05 -1.8217e-05 -1.62981e-05
1.47349e-05 -1.01499e-05 -1.58002e-05
-1.00303e-05 1.00157e-06 -1.27589e-05
-1.74045e-06 -8.16108e-07 -4.72499e-06
7.69277e-07 3.70939e-06 -7.57567e-06
2.34371e-06 -1.9977e-06 -6.55746e-06
2.0163e-05 5.89988e-06 -1.64582e-05
5.07155e-06 2.06026e-05 -1.65006e-05
3.42143e-07 -2.76879e-05 -1.78579e-05
-1.73166e-06 7.09289e-07 -4.60782e-06
-3.21238e-06 6.23215e-07 -6.8264e-06
3.57822e-06 1.47583e-06 -7.63917e-06
4.99264e-07 2.83317e-05 -1.79311e-05
2.47672e-05 1.3738e-05 -1.79223e-05
-2.03347e-05 1.55402e-05 -1.74332e-05
1.179e-06 1.36482e-06 -4.46131e-06
-2.0646e-05 -1.57328e-05 -1.75317e-05
-1.90052e-05 -2.32301e-06 -1.5951e-05
-1.95655e-05 -5.58692e-06 -1.63369e-05
9.05929e-07 -3.24865e-06 -7.00843e-06
-4.36734e-06 -1.97957e-05 -1.63265e-05
-7.93995e-06 1.3839e-05 -1.51059e-05
1.16604e-06 -1.30451e-06 -4.34071e-06
1.19384e-05 -1.12321e-05 -1.52969e-05
6.13467e-06 -2.27034e-05 -1.68251e-05
-1.4527e-05 1.43599e-05 -1.63283e-05
7.93172e-06 1.33257e-05 -1.49528e-05
SCALARS effective_fluid_pressure_TPM float
LOOKUP_TABLE default
665
665
665
665
665
665
665
665
665
665
665
665
665
665
133
665
665
665
665
665
665
665
665
665
665
665
665
665
665
133
665
560.414
520.794
502.949
502.72
519.921
560.035
665
562.079
520.888
503.391
503.501
520.82
561.702
665
559.702
519.792
502.894
503.111
521.289
561.717
665
558.959
519.136
501.683
502.379
518.986
559.547
665
558.599
520.076
502.015
501.946
519.509
558.039
665
558.755
520.09
502.188
502.049
519.497
559.761
133
133
133
133
133
133
665
560.414
520.794
502.949
502.72
519.921
560.035
665
562.079
520.888
503.391
503.501
520.82
561.702
665
559.702
519.792
502.894
503.111
521.289
561.717
665
558.959
519.136
501.683
502.379
518.986
559.547
665
558.599
520.076
502.015
501.946
519.509
558.039
665
558.755
520.09
502.188
502.049
519.497
559.761
133
133
133
133
133
133
228.308
226.377
227.091
224.158
225.574
219.893
220.909
529.284
528.294
526.674
528.052
526.701
527.754
498.843
503.687
501.726
499.084
501.599
501.38
494.468
562.592
519.1
495.162
480.869
461.494
443.411
425.178
402.245
427.402
385.386
417.869
379.731
418.033
386.071
427.519
404.424
444.515
429.208
450.396
386.681
419.433
380.326
418.444
386.311
427.893
404.352
444.625
428.292
450.992
386.155
418.296
379.742
418.652
385.678
427.729
403.045
443.688
426.583
384.171
416.268
376.425
415.475
383.143
424.55
400.97
441.837
425.357
382.879
417.908
376.689
418.226
383.965
425.397
402.338
442.809
450.785
426.857
446.144
380.851
444.809
465.422
448.878
464.895
453.545
351.014
463.637
461.169
478.573
462.904
460.775
478.477
337.383
480.949
505.973
503.733
481.015
506.279
337.796
337.607
326.266
334.52
563.467
519.775
567.664
562.454
567.982
567.835
521.922
542.819
498.75
513.852
542.165
451.588
477.705
414.786
579.595
611.077
579.748
576.112
534.662
494.599
538.333
538.03
485.163
498.237
503.45
473.27
485.21
352.86
326.516
355.29
503.569
477.845
488.49
520.992
502.152
478.044
335.646
335.509
347.81
613.492
337.484
347.681
337.37
353.316
329.29
373.375
310.753
288.87
504.834
608.432
521.213
493.852
478.457
486.479
526.607
600.398
476.694
615.943
291.48
615.842
528.835
494.663
478.364
479.538
501.44
494.969
479.564
502.635
495.295
493.874
502.387
495.368
480.011
480.177
479.18
289.377
454.719
272.016
455.126
453.754
527.116
479.599
465.345
382.221
480.631
292.754
286.163
461.602
449.758
454.102
445.98
448.814
463.728
463.385
480.077
543.559
601.758
487.615
300.389
282.54
453.138
279.24
552.335
552.094
480.894
458.141
526.335
508.298
488.709
233.783
284.638
614.551
636.347
615.185
636.704
285.36
441.465
553.174
230.537
467.679
590.329
566.117
495.942
490.166
410.162
232.172
293.18
271.199
508.01
509.308
607.865
229.714
277.052
294.515
618.919
618.832
558.605
226.572
562.615
488.439
503.512
280.925
504.181
466.505
224.055
473.708
519.691
503.098
462.572
228.308
226.377
227.091
224.158
225.574
219.893
220.909
529.284
528.294
526.674
528.052
526.701
527.754
498.843
503.687
501.726
499.084
501.599
501.38
494.468
562.592
519.1
495.162
480.869
461.494
443.411
425.178
402.245
427.402
385.386
417.869
379.731
418.033
386.071
427.519
404.424
444.515
429.208
450.396
386.681
419.433
380.326
418.444
386.311
427.893
404.352
444.625
428.292
450.992
386.155
418.296
379.742
418.652
385.678
427.729
403.045
443.688
426.583
384.171
416.268
376.425
415.475
383.143
424.55
400.97
441.837
425.357
382.879
417.908
376.689
418.226
383.965
425.397
402.338
442.809
450.785
426.857
446.144
380.851
444.809
465.422
448.878
464.895
453.545
351.014
463.637
461.169
478.573
462.904
460.775
478.477
337.383
480.949
505.973
503.733
481.015
506.279
337.796
337.607
326.266
334.52
563.467
519.775
567.664
562.454
567.982
567.835
521.922
542.819
498.75
513.852
542.165
451.588
477.705
414.786
579.595
611.077
579.748
576.112
534.662
494.599
538.333
538.03
485.163
498.237
503.45
473.27
485.21
352.86
326.516
355.29
503.569
477.845
488.49
520.992
502.152
478.044
335.646
335.509
347.81
613.492
337.484
347.681
337.37
353.316
329.29
373.375
310.753
288.87
504.834
608.432
521.213
493.852
478.457
486.479
526.607
600.398
476.694
615.943
291.48
615.842
528.835
494.663
478.364
479.538
501.44
494.969
479.564
502.635
495.295
493.874
502.387
495.368
480.011
480.177
479.18
289.377
454.719
272.016
455.126
453.754
527.116
479.599
465.345
382.221
480.631
292.754
286.163
461.602
449.758
454.102
445.98
448.814
463.728
463.385
480.077
543.559
601.758
487.615
300.389
282.54
453.138
279.24
552.335
552.094
480.894
458.141
526.335
508.298
488.709
233.783
284.638
614.551
636.347
615.185
636.704
285.36
441.465
553.174
230.537
467.679
590.329
566.117
495.942
490.166
410.162
232.172
293.18
271.199
508.01
509.308
607.865
229.714
277.052
294.515
618.919
618.832
558.605
226.572
562.615
488.439
503.512
280.925
504.181
466.505
224.055
473.708
519.691
503.098
462.572

CELL_DATA 563
TENSORS stress float
164.664 -24.9242 -2.55322e-12
-24.9242 28.1644 2.72138e-12
-2.55322e-12 2.72138e-12 -12.5902

-40.3433 -21.3224 -2.81249e-12
-21.3224 -7.35544 1.80004e-12
-2.81249e-12 1.80004e-12 -10.2411

-9.94878 28.0526 -1.01312e-12
28.0526 -1.11493 9.78773e-13
-1.01312e-12 9.78773e-13 -6.37183

-40.4295 -29.8419 3.1708e-13
-29.8419 -12.8453 -1.50753e-12
3.1708e-13 -1.50753e-12 -10.6074

-22.6872 19.9305 1.57829e-12
19.9305 -1.93677 -3.13187e-12
1.57829e-12 -3.13187e-12 -23.0159

-27.1531 -18.0811 2.12127e-13
-18.0811 15.8881 1.36957e-12
2.12127e-13 1.36957e-12 -6.42272

161.315 26.489 -7.05806e-13
26.489 28.0408 1.82609e-12
-7.05806e-13 1.82609e-12 -13.2494

-5.96763 29.9637 -4.32247e-14
29.9637 -10.1165 1.49244e-12
-4.32247e-14 1.49244e-12 -7.28633

34.6376 5.48485 -2.70006e-12
5.48485 -19.1101 -3.04901e-12
-2.70006e-12 -3.04901e-12 -4.13354

11.8599 -7.47785 -5.69382e-12
-7.47785 -48.2917 -1.23005e-12
-5.69382e-12 -1.23005e-12 -8.9564

104.233 16.3157 -1.81425e-12
16.3157 -8.44498 -5.46822e-12
-1.81425e-12 -5.46822e-12 -22.4513

-34.6474 -13.4569 4.60521e-13
-13.4569 18.9651 -1.91373e-12
4.60521e-13 -1.91373e-12 -7.19068

-6.03264 27.8402 -2.30097e-12
27.8402 -4.59431 3.64153e-13
-2.30097e-12 3.64153e-13 -6.16969

-35.5618 -14.3437 3.59329e-12
-14.3437 7.84532 -5.24617e-13
3.59329e-12 -5.24617e-13 -9.14037

-23.6539 33.303 -2.71013e-12
33.303 -24.9886 -1.69169e-12
-2.71013e-12 -1.69169e-12 -21.3621

21.3135 0.561389 2.11979e-12
0.561389 -32.3503 2.15047e-12
2.11979e-12 2.15047e-12 -5.60076

-48.9624 -17.9679 1.46388e-12
-17.9679 6.34067 1.23723e-12
1.46388e-12 1.23723e-12 -12.9524

11.6607 -2.66518 -4.46458e-12
-2.66518 -43.262 -1.68517e-12
-4.46458e-12 -1.68517e-12 -8.04498

-11.3628 26.685 -1.79442e-12
26.685 19.5169 -9.67522e-13
-1.79442e-12 -9.67522e-13 -6.10165

21.767 -4.19737 -5.0863e-13
-4.19737 -35.312 -4.34823e-12
-5.0863e-13 -4.34823e-12 -6.75358

-24.4934 8.67276 -7.46958e-13
8.67276 32.1315 1.63839e-12
-7.46958e-13 1.63839e-12 -4.9453

-11.8077 6.28161 -1.52452e-11
6.28161 -11.9601 -4.13817e-12
-1.52452e-11 -4.13817e-12 -75.5622

22.7457 1.87647 -1.80596e-12
1.87647 -33.487 -1.68228e-12
-1.80596e-12 -1.68228e-12 -6.6896

-12.3979 -27.725 -3.58054e-12
-27.725 1.59503 -2.57809e-12
-3.58054e-12 -2.57809e-12 -6.61471

21.3062 6.8515 1.48385e-12
6.8515 -34.3215 2.27226e-12
1.48385e-12 2.27226e-12 -6.81866

-37.9161 19.1163 -2.63819e-12
19.1163 2.65305 -2.21541e-12
-2.63819e-12 -2.21541e-12 -9.4679

106.64 4.18326 8.26598e-13
4.18326 20.6074 1.85363e-12
8.26598e-13 1.85363e-12 -12.0459

-5.30858 30.7546 -4.33786e-12
30.7546 -7.28115 -1.89212e-12
-4.33786e-12 -1.89212e-12 -7.45284

27.8921 37.0913 9.09495e-13
37.0913 26.4711 -4.26681e-12
9.09495e-13 -4.26681e-12 -8.64027

-9.43945 10.3239 -2.14702e-12
10.3239 -32.9115 -5.02291e-12
-2.14702e-12 -5.02291e-12 -49.4766

19.8325 14.2188 1.34707e-12
14.2188 -29.3708 -1.86503e-12
1.34707e-12 -1.86503e-12 -6.01143

-4.22253 -17.7886 2.75631e-12
-17.7886 59.6743 6.19475e-12
2.75631e-12 6.19475e-12 -8.48417

66.3056 -42.1172 -5.17038e-12
-42.1172 71.1622 -6.22435e-12
-5.17038e-12 -6.22435e-12 -11.2472

-48.202 5.98196 1.00137e-12
5.98196 7.26765 3.92072e-12
1.00137e-12 3.92072e-12 -41.0151

-26.2882 -4.83335 -4.44977e-12
-4.83335 1.7562 4.20937e-12
-4.44977e-12 4.20937e-12 -37.7812

-1.4704 21.026 -2.28055e-12
21.026 -39.4968 1.73343e-12
-2.28055e-12 1.73343e-12 -41.0809

-43.9576 5.06027 1.80522e-12
5.06027 0.513515 3.84344e-12
1.80522e-12 3.84344e-12 -52.1568

-2.76462 -9.17325 1.41901e-12
-9.17325 -20.7632 2.42934e-12
1.41901e-12 2.42934e-12 -35.8773

-3.98109 -28.0057 6.42982e-12
-28.0057 -4.61367 -2.3288e-12
6.42982e-12 -2.3288e-12 -6.00512

65.6192 41.5363 -8.28967e-14
41.5363 73.1908 2.50585e-12
-8.28967e-14 2.50585e-12 -10.9588

60.1721 -17.9572 3.44021e-12
-17.9572 0.106489 -1.01844e-12
3.44021e-12 -1.01844e-12 -8.0576

-41.7863 -3.69986 3.40794e-12
-3.69986 -1.18575 2.93277e-12
3.40794e-12 2.93277e-12 -52.6911

-14.5843 19.5448 -2.01542e-13
19.5448 -28.544 5.16713e-12
-2.01542e-13 5.16713e-12 -52.7993

18.1439 -12.2748 -1.92498e-12
-12.2748 -29.9109 1.717e-12
-1.92498e-12 1.717e-12 -6.23352

38.1821 -43.3174 -9.16837e-12
-43.3174 41.8119 -1.69938e-12
-9.16837e-12 -1.69938e-12 -14.5622

58.1599 -18.0713 -2.91678e-12
-18.0713 -2.31451 1.95399e-14
-2.91678e-12 1.95399e-14 -7.92177

-21.4583 17.0927 2.76534e-12
17.0927 30.3311 -2.67342e-12
2.76534e-12 -2.67342e-12 -5.7402

-11.3835 19.347 5.82941e-13
19.347 25.5131 -4.30293e-12
5.82941e-13 -4.30293e-12 -3.93304

20.7908 -16.3056 -1.56852e-12
-16.3056 -33.1293 3.47603e-12
-1.56852e-12 3.47603e-12 -7.32298

12.6111 -34.2008 -2.69651e-12
-34.2008 46.4467 1.07292e-12
-2.69651e-12 1.07292e-12 -10.4044

62.3779 19.1904 -3.17968e-12
19.1904 2.80151 4.1626e-13
-3.17968e-12 4.1626e-13 -8.42079

46.5236 -25.2995 -5.35276e-13
-25.2995 5.12542 6.23324e-12
-5.35276e-13 6.23324e-12 -5.61909

-31.8998 19.479 -1.12221e-12
19.479 -4.28277 -9.46502e-13
-1.12221e-12 -9.46502e-13 -26.0775

37.0447 29.6626 7.25346e-12
29.6626 14.509 -4.32365e-12
7.25346e-12 -4.32365e-12 -5.44136

-27.4434 -21.8125 -2.48394e-12
-21.8125 -8.23703 3.00066e-12
-2.48394e-12 3.00066e-12 -25.2407

64.8867 -42.7284 -3.48403e-12
-42.7284 44.0915 1.06581e-13
-3.48403e-12 1.06581e-13 -9.50287

-27.7456 5.45215 -2.10913e-12
5.45215 2.66819 4.18954e-12
-2.10913e-12 4.18954e-12 -38.2863

-5.57066 -5.33245 -3.32741e-12
-5.33245 57.4028 -4.45629e-12
-3.32741e-12 -4.45629e-12 -5.45846

-0.206549 10.3858 -2.89842e-13
10.3858 -24.8389 1.72751e-12
-2.89842e-13 1.72751e-12 -38.3479

-26.4993 21.4203 4.11079e-12
21.4203 12.2183 -8.66862e-13
4.11079e-12 -8.66862e-13 -6.88187

4.72308 5.75698 -5.71987e-13
5.75698 -56.0412 -2.90982e-12
-5.71987e-13 -2.90982e-12 -13.987

0.54248 11.4593 1.82669e-13
11.4593 -34.061 2.45315e-12
1.82669e-13 2.45315e-12 -14.842

106.377 31.8302 1.02081e-12
31.8302 37.8419 1.8486e-12
1.02081e-12 1.8486e-12 -7.48672

-35.4972 -6.03858 5.37052e-12
-6.03858 10.6017 -1.56615e-12
5.37052e-12 -1.56615e-12 -13.482

-35.3627 9.52263 -3.39447e-12
9.52263 1.23492 -2.59259e-12
-3.39447e-12 -2.59259e-12 -14.9622

-42.5964 -2.88343 3.58195e-12
-2.88343 21.1097 -2.55677e-12
3.58195e-12 -2.55677e-12 -11.2453

-44.9126 23.3997 1.93697e-13
23.3997 -5.89272 -1.21384e-12
1.93697e-13 -1.21384e-12 -13.928

9.97076 8.466 7.64129e-13
8.466 -42.3896 -5.89158e-13
7.64129e-13 -5.89158e-13 -9.08815

-12.3442 -28.2492 2.37677e-12
-28.2492 1.68226 -5.11117e-12
2.37677e-12 -5.11117e-12 -6.68592

1.30867 -1.71227 3.43607e-12
-1.71227 -55.4605 -1.94704e-12
3.43607e-12 -1.94704e-12 -11.313

-31.8895 -19.2551 -1.18217e-12
-19.2551 -4.59176 2.66572e-12
-1.18217e-12 2.66572e-12 -25.9469

-27.9684 21.3078 3.84729e-12
21.3078 -8.36642 -8.82248e-13
3.84729e-12 -8.82248e-13 -26.0053

-0.662377 -16.5911 -4.39648e-13
-16.5911 61.691 6.70634e-12
-4.39648e-13 6.70634e-12 -7.95634

-0.651095 -27.9398 -2.73204e-12
-27.9398 -21.3704 8.54132e-13
-2.73204e-12 8.54132e-13 -12.7959

-14.1013 -25.1421 1.48977e-12
-25.1421 7.40518 -1.06996e-12
1.48977e-12 -1.06996e-12 -5.24724

91.7102 -31.7225 4.59958e-12
-31.7225 19.4905 4.90896e-12
4.59958e-12 4.90896e-12 -16.3302

-33.7136 3.22424 7.84113e-12
3.22424 9.20261 2.46914e-13
7.84113e-12 2.46914e-13 -18.5616

2.74682 28.9484 -1.59102e-12
28.9484 -24.4294 -6.86562e-13
-1.59102e-12 -6.86562e-13 -11.3229

-38.4445 19.6672 2.67534e-12
19.6672 5.22838 -2.02445e-12
2.67534e-12 -2.02445e-12 -9.24554

50.2029 8.00303 3.46745e-12
8.00303 -16.9821 3.80555e-12
3.46745e-12 3.80555e-12 -7.07751

60.048 -33.9499 8.99665e-12
-33.9499 33.7917 -1.89833e-12
8.99665e-12 -1.89833e-12 -6.98739

-18.9692 -10.5853 9.16008e-13
-10.5853 -0.537543 -6.22021e-13
9.16008e-13 -6.22021e-13 -25.422

-33.9249 23.9021 1.73432e-12
23.9021 -12.0292 -4.33468e-13
1.73432e-12 -4.33468e-13 -14.545

58.1726 -32.3979 1.21976e-13
-32.3979 18.0904 -4.20523e-12
1.21976e-13 -4.20523e-12 -10.1386

66.8791 10.7958 -1.01015e-12
10.7958 8.50635 -1.79486e-12
-1.01015e-12 -1.79486e-12 -5.09075

7.6706 -21.2148 1.35921e-12
-21.2148 88.4943 -9.71075e-12
1.35921e-12 -9.71075e-12 -11.8638

-34.0016 14.429 -1.1852e-12
14.429 20.2384 2.80842e-12
-1.1852e-12 2.80842e-12 -7.55763

8.47225 23.1497 -1.11496e-12
23.1497 -26.0806 -9.47094e-13
-1.11496e-12 -9.47094e-13 -11.305

34.8764 42.2164 -2.29624e-12
42.2164 46.2116 1.3145e-13
-2.29624e-12 1.3145e-13 -14.4236

-4.39413 16.5008 1.22073e-11
16.5008 -35.5237 1.36676e-12
1.22073e-11 1.36676e-12 -73.2326

-5.9931 -4.11034 -4.28724e-12
-4.11034 57.9635 3.02454e-12
-4.28724e-12 3.02454e-12 -5.45069

-1.8205 -16.6263 4.66123e-12
-16.6263 -39.3813 1.55461e-12
4.66123e-12 1.55461e-12 -74.0553

-3.33358 -27.3342 2.25893e-12
-27.3342 -30.0279 4.61705e-13
2.25893e-12 4.61705e-13 -21.5504

8.96439 27.4274 1.22865e-12
27.4274 -30.0042 8.43769e-14
1.22865e-12 8.43769e-14 -11.2641

45.7214 -24.4211 -1.60464e-12
-24.4211 5.01589 -3.44347e-12
-1.60464e-12 -3.44347e-12 -5.24513

10.0897 31.3376 5.22012e-12
31.3376 47.1744 1.38437e-12
5.22012e-12 1.38437e-12 -9.64798

14.2692 -10.7096 5.49842e-12
-10.7096 82.8645 -1.71241e-12
5.49842e-12 -1.71241e-12 -6.45051

-38.6361 21.9731 1.59694e-12
21.9731 2.94003 5.45934e-13
1.59694e-12 5.45934e-13 -8.57855

1.19456 16.798 -7.61465e-13
16.798 -25.7285 5.87086e-13
-7.61465e-13 5.87086e-13 -18.5658

-26.548 15.1594 2.45877e-13
15.1594 18.4498 4.87195e-12
2.45877e-13 4.87195e-12 -5.71878

43.6683 15.96 -1.57622e-12
15.96 -7.29832 -4.47849e-12
-1.57622e-12 -4.47849e-12 -4.08559

12.5719 -21.4822 9.25482e-13
-21.4822 57.9709 7.6336e-12
9.25482e-13 7.6336e-12 -4.72105

66.0157 -29.4033 6.42094e-12
-29.4033 18.6429 -1.81129e-12
6.42094e-12 -1.81129e-12 -9.33937

-32.3864 -24.5777 -9.39841e-13
-24.5777 -7.28542 8.15052e-13
-9.39841e-13 8.15052e-13 -8.9869

-22.6734 27.4569 -1.32339e-12
27.4569 -10.3571 -1.11318e-12
-1.32339e-12 -1.11318e-12 -9.29431

-38.3543 23.19 3.04808e-12
23.19 1.98976 -2.66454e-12
3.04808e-12 -2.66454e-12 -8.53451

-51.5561 13.1677 -3.70694e-12
13.1677 11.9228 3.94055e-12
-3.70694e-12 3.94055e-12 -16.4692

23.4873 9.374 -1.62359e-12
9.374 -29.5011 -3.03801e-12
-1.62359e-12 -3.03801e-12 -5.33269

3.76121 -4.66681 2.65506e-12
-4.66681 79.4633 2.96059e-13
2.65506e-12 2.96059e-13 -9.5357

-44.9351 -36.8278 1.39858e-12
-36.8278 -19.8273 -2.30401e-12
1.39858e-12 -2.30401e-12 -14.776

-16.0903 27.4744 -6.10179e-13
27.4744 1.3357 -3.0654e-12
-6.10179e-13 -3.0654e-12 -6.927

-5.02498 2.17085 -8.6553e-12
2.17085 82.7013 2.0961e-12
-8.6553e-12 2.0961e-12 -13.4348

69.066 34.6252 -3.20218e-12
34.6252 15.4955 -8.43177e-13
-3.20218e-12 -8.43177e-13 -10.7096

-31.3607 -22.9792 -3.15303e-13
-22.9792 -4.63565 -2.34479e-12
-3.15303e-13 -2.34479e-12 -8.54112

11.7435 5.73289 6.43337e-13
5.73289 -48.3408 5.09141e-12
6.43337e-13 5.09141e-12 -8.65086

43.0745 27.2159 7.55544e-13
27.2159 10.4462 6.12133e-12
7.55544e-13 6.12133e-12 -5.08957

-9.40684 12.7426 -1.22169e-12
12.7426 -14.0443 -3.04734e-12
-1.22169e-12 -3.04734e-12 -37.0197

70.3555 24.3411 4.51195e-12
24.3411 23.8059 1.71063e-12
4.51195e-12 1.71063e-12 -6.80299

-10.5774 -13.052 3.20292e-12
-13.052 -13.9263 -4.76537e-12
3.20292e-12 -4.76537e-12 -37.3573

-4.3919 0.779027 -2.67194e-13
0.779027 59.4138 -2.60295e-12
-2.67194e-13 -2.60295e-12 -4.83937

38.3646 -2.23628 1.06937e-12
-2.23628 -23.8299 2.63167e-12
1.06937e-12 2.63167e-12 -5.84428

3.59138 -15.7626 1.18823e-12
-15.7626 -53.9621 7.46573e-12
1.18823e-12 7.46573e-12 -21.1215

-42.2815 24.3888 -1.18253e-12
24.3888 -11.737 -2.54152e-12
-1.18253e-12 -2.54152e-12 -11.1767

-46.8139 -13.5363 -6.16414e-13
-13.5363 11.0647 1.04213e-13
-6.16414e-13 1.04213e-13 -12.3596

5.80821 -7.99802 2.40459e-12
-7.99802 -70.9584 -5.09814e-13
2.40459e-12 -5.09814e-13 -14.8871

-49.5371 -22.2771 5.35868e-14
-22.2771 3.74355 -1.28549e-12
5.35868e-14 -1.28549e-12 -22.1015

-17.4561 -6.60316 2.36996e-12
-6.60316 -13.1145 -2.97758e-12
2.36996e-12 -2.97758e-12 -34.7634

-28.733 -29.9095 7.32747e-13
-29.9095 -9.40071 -4.00332e-12
7.32747e-13 -4.00332e-12 -9.0054

15.6908 11.4584 4.63185e-12
11.4584 80.2054 8.77994e-12
4.63185e-12 8.77994e-12 -6.53413

42.2981 -28.159 -1.65438e-12
-28.159 11.0454 4.83524e-12
-1.65438e-12 4.83524e-12 -5.05297

-47.1694 -13.7665 -5.98085e-12
-13.7665 4.19663 -3.64479e-12
-5.98085e-12 -3.64479e-12 -29.2902

2.96349 0.506335 1.49821e-12
0.506335 -56.8163 5.04989e-12
1.49821e-12 5.04989e-12 -11.0147

-39.3413 -21.5227 -1.36557e-12
-21.5227 -8.85537 3.61607e-12
-1.36557e-12 3.61607e-12 -14.7788

-40.197 25.6997 -7.2875e-13
25.6997 -14.6935 -2.30364e-12
-7.2875e-13 -2.30364e-12 -11.32

32.264 -31.4784 3.63916e-12
-31.4784 38.4361 3.17849e-12
3.63916e-12 3.17849e-12 -4.6552

-31.4666 -7.07711 2.11905e-13
-7.07711 1.70498 2.90375e-12
2.11905e-13 2.90375e-12 -40.9684

36.637 -33.0902 -2.69651e-12
-33.0902 72.0485 -2.56506e-12
-2.69651e-12 -2.56506e-12 -7.14634

16.6142 -19.1851 -1.6307e-12
-19.1851 -25.8822 2.65832e-12
-1.6307e-12 2.65832e-12 -7.14308

1.5016 1.97409 -9.09051e-13
1.97409 -51.3919 3.73005e-12
-9.09051e-13 3.73005e-12 -15.3783

-12.8651 17.8722 -4.70735e-14
17.8722 -16.959 2.81553e-13
-4.70735e-14 2.81553e-13 -41.036

10.7071 20.1921 2.55085e-12
20.1921 59.4699 4.58182e-12
2.55085e-12 4.58182e-12 -4.36392

4.31367 27.2176 6.44818e-13
27.2176 -16.2281 3.63857e-13
6.44818e-13 3.63857e-13 -8.13276

30.9084 -24.5205 -8.73968e-13
-24.5205 -8.14487 1.94511e-12
-8.73968e-13 1.94511e-12 -4.88336

-37.798 -17.8415 -1.85983e-12
-17.8415 2.40027 -4.24253e-13
-1.85983e-12 -4.24253e-13 -9.87411

55.5278 35.0827 -7.4607e-13
35.0827 42.3543 -4.5984e-12
-7.4607e-13 -4.5984e-12 -6.63945

-40.0213 -21.8326 4.93087e-13
-21.8326 2.53616 -1.93149e-12
4.93087e-13 -1.93149e-12 -9.40361

2.96315 30.8562 9.64562e-13
30.8562 -17.3993 -1.53359e-12
9.64562e-13 -1.53359e-12 -9.08745

18.5377 -25.2502 3.98496e-12
-25.2502 -19.4306 1.55135e-13
3.98496e-12 1.55135e-13 -6.35315

-15.6623 -25.1339 -7.52139e-12
-25.1339 5.89397 -1.75682e-12
-7.52139e-12 -1.75682e-12 -5.78698

42.727 -18.6961 -7.30793e-12
-18.6961 -9.17972 1.45424e-12
-7.30793e-12 1.45424e-12 -5.37973

27.4346 -18.8567 5.2142e-12
-18.8567 -20.3833 1.71655e-12
5.2142e-12 1.71655e-12 -5.70129

-41.3953 -25.3391 -1.91669e-12
-25.3391 -14.9659 1.73087e-12
-1.91669e-12 1.73087e-12 -11.576

29.7839 35.9854 -4.99393e-12
35.9854 25.2282 -4.37102e-12
-4.99393e-12 -4.37102e-12 -8.65238

-28.5278 15.3821 -8.25858e-13
15.3821 18.5192 4.41662e-12
-8.25858e-13 4.41662e-12 -5.88454

-23.1134 26.428 -1.42109e-14
26.428 -12.5523 -4.52468e-12
-1.42109e-14 -4.52468e-12 -9.96762

-42.1016 25.4738 -7.11736e-13
25.4738 -11.5928 1.61441e-12
-7.11736e-13 1.61441e-12 -11.0022

-37.2961 11.6255 1.99253e-12
11.6255 11.8441 3.78364e-13
1.99253e-12 3.78364e-13 -9.08887

64.4112 -8.23051 -1.97649e-12
-8.23051 3.18815 3.62525e-12
-1.97649e-12 3.62525e-12 -4.25834

8.72707 18.6149 6.8674e-12
18.6149 59.2356 -5.74237e-12
6.8674e-12 -5.74237e-12 -4.16976

-25.6246 -24.3861 -1.53359e-13
-24.3861 0.456622 -2.38032e-13
-1.53359e-13 -2.38032e-13 -7.22694

-1.14942 25.6757 8.72191e-13
25.6757 13.7515 3.51896e-12
8.72191e-13 3.51896e-12 -4.09405

32.3826 -35.6452 6.11659e-12
-35.6452 21.6995 6.20659e-12
6.11659e-12 6.20659e-12 -8.49426

59.5537 38.3331 -4.31299e-12
38.3331 17.8485 4.63392e-12
-4.31299e-12 4.63392e-12 -13.7257

12.1203 -33.326 -6.63292e-12
-33.326 42.9226 8.63309e-13
-6.63292e-12 8.63309e-13 -9.55052

30.554 -31.1734 9.03573e-13
-31.1734 36.8194 -1.71596e-12
9.03573e-13 -1.71596e-12 -4.41292

11.7691 -6.83851 -2.13459e-12
-6.83851 -48.8422 -1.5327e-12
-2.13459e-12 -1.5327e-12 -8.77952

25.2748 30.3552 -4.27391e-12
30.3552 41.0968 1.67807e-12
-4.27391e-12 1.67807e-12 -4.46347

62.6995 13.3003 -4.55339e-12
13.3003 5.21967 -2.55825e-12
-4.55339e-12 -2.55825e-12 -4.31281

-7.03932 13.3848 3.53436e-12
13.3848 61.3612 -3.63561e-12
3.53436e-12 -3.63561e-12 -8.70307

11.724 -22.3504 -4.31655e-12
-22.3504 55.7773 1.0895e-12
-4.31655e-12 1.0895e-12 -4.30892

-47.2591 -1.09443 1.10778e-12
-1.09443 12.4073 6.4837e-13
1.10778e-12 6.4837e-13 -22.1576

-5.93214 2.2478 -8.01877e-13
2.2478 59.0198 1.16055e-12
-8.01877e-13 1.16055e-12 -5.27129

6.26139 31.1031 -2.36907e-12
31.1031 47.8767 2.53664e-12
-2.36907e-12 2.53664e-12 -9.6683

-39.7301 12.111 -2.58133e-12
12.111 12.8428 3.55271e-13
-2.58133e-12 3.55271e-13 -9.32093

40.7457 -27.6597 5.26394e-12
-27.6597 8.35112 -9.71667e-13
5.26394e-12 -9.71667e-13 -5.651

7.5348 20.5574 -2.01676e-12
20.5574 -47.4687 1.06937e-12
-2.01676e-12 1.06937e-12 -16.4847

-3.42501 26.2703 2.21808e-12
26.2703 -31.4837 -2.79924e-13
2.21808e-12 -2.79924e-13 -22.248

15.7763 -18.5734 -5.03301e-13
-18.5734 -30.0253 3.07902e-13
-5.03301e-13 3.07902e-13 -8.19273

4.42513 -1.80809 -7.89472e-12
-1.80809 -34.1328 -4.31625e-12
-7.89472e-12 -4.31625e-12 -24.4322

-14.3458 -31.8165 9.5716e-13
-31.8165 -11.9368 9.13788e-12
9.5716e-13 9.13788e-12 -9.05923

56.2331 23.338 -6.27765e-12
23.338 0.806556 4.73695e-15
-6.27765e-12 4.73695e-15 -8.29583

-27.8314 30.1637 -1.27572e-12
30.1637 -9.2374 -4.55103e-12
-1.27572e-12 -4.55103e-12 -8.80967

-27.0073 29.2078 1.64017e-13
29.2078 -9.20245 2.29713e-12
1.64017e-13 2.29713e-12 -8.68707

28.6304 30.6745 -4.08088e-12
30.6745 40.4132 2.0132e-14
-4.08088e-12 2.0132e-14 -4.4563

0.342909 27.0894 1.86873e-12
27.0894 -19.8558 5.40309e-13
1.86873e-12 5.40309e-13 -11.7826

64.5272 3.52669 -2.58519e-12
3.52669 -11.8411 3.19596e-13
-2.58519e-12 3.19596e-13 -10.0262

-14.9033 31.8174 -1.247e-12
31.8174 -20.7995 -7.55248e-13
-1.247e-12 -7.55248e-13 -12.4531

-37.9542 -12.5985 -2.73507e-12
-12.5985 8.18083 2.75039e-12
-2.73507e-12 2.75039e-12 -14.027

-0.473873 24.2758 6.04553e-13
24.2758 -30.0028 3.5462e-12
6.04553e-13 3.5462e-12 -20.7679

-23.7312 -29.5808 5.71395e-13
-29.5808 -11.9355 7.4459e-13
5.71395e-13 7.4459e-13 -8.85243

-38.1596 -4.89603 -1.71881e-13
-4.89603 18.8477 -2.13696e-12
-1.71881e-13 -2.13696e-12 -11.7357

69.9655 -24.567 2.41348e-12
-24.567 18.0271 -7.28306e-14
2.41348e-12 -7.28306e-14 -7.04856

39.9889 29.7062 8.64494e-14
29.7062 13.4752 -5.30894e-12
8.64494e-14 -5.30894e-12 -5.22381

-4.30835 14.7032 -1.71729e-12
14.7032 60.5881 5.36104e-12
-1.71729e-12 5.36104e-12 -8.40879

1.61086 -1.14005 1.46845e-13
-1.14005 -56.1273 -3.00323e-12
1.46845e-13 -3.00323e-12 -11.2183

9.61421 0.00203065 -3.73005e-12
0.00203065 -44.7669 1.30732e-12
-3.73005e-12 1.30732e-12 -8.44932

-31.0881 23.1293 1.90485e-12
23.1293 -4.34047 8.05282e-14
1.90485e-12 8.05282e-14 -8.46975

-34.7608 23.873 1.90603e-12
23.873 -13.197 3.52235e-12
1.90603e-12 3.52235e-12 -14.8176

-43.3823 -24.3815 1.49719e-12
-24.3815 -12.6137 -5.18992e-13
1.49719e-12 -5.18992e-13 -11.4776

-39.0694 -0.675132 8.99447e-13
-0.675132 21.0462 -1.03088e-12
8.99447e-13 -1.03088e-12 -10.5023

-40.8086 25.5926 -3.15999e-12
25.5926 -13.2255 5.53113e-13
-3.15999e-12 5.53113e-13 -11.1815

32.3268 -10.3118 1.56201e-12
-10.3118 -25.1718 -1.64816e-12
1.56201e-12 -1.64816e-12 -6.0262

8.70014 -32.8481 2.30926e-12
-32.8481 22.7979 -8.3844e-13
2.30926e-12 -8.3844e-13 -7.00267

2.39549 -2.30498 1.73535e-12
-2.30498 -49.9631 1.89833e-12
1.73535e-12 1.89833e-12 -14.7773

36.7515 -34.5237 2.68467e-12
-34.5237 24.4806 -1.73728e-12
2.68467e-12 -1.73728e-12 -7.71652

-38.2985 19.0854 1.07514e-12
19.0854 -7.09195 -2.29772e-12
1.07514e-12 -2.29772e-12 -14.454

7.8699 -26.4809 -2.10854e-12
-26.4809 -28.004 6.09883e-13
-2.10854e-12 6.09883e-13 -10.9757

63.9655 -9.69464 1.61293e-12
-9.69464 5.66905 -4.35681e-12
1.61293e-12 -4.35681e-12 -5.0794

6.03497 -23.195 -1.13545e-11
-23.195 -35.4712 1.13302e-12
-1.13545e-11 1.13302e-12 -17.7367

0.14172 2.35881 4.75856e-12
2.35881 -56.1769 -2.95467e-13
4.75856e-12 -2.95467e-13 -11.5548

-4.06408 -23.326 1.80004e-13
-23.326 -23.4133 -2.36848e-14
1.80004e-13 -2.36848e-14 -16.7202

11.0365 -25.8622 -4.69965e-12
-25.8622 -29.4957 -1.86073e-12
-4.69965e-12 -1.86073e-12 -9.74167

10.1997 -8.54953 1.58806e-12
-8.54953 -43.5014 3.32948e-12
1.58806e-12 3.32948e-12 -9.29172

-35.4156 -23.0702 2.00728e-13
-23.0702 -12.6505 2.33228e-12
2.00728e-13 2.33228e-12 -15.1072

23.6646 -31.3551 9.02389e-13
-31.3551 5.70489 -4.29405e-12
9.02389e-13 -4.29405e-12 -5.88914

11.0568 -24.5939 -2.51473e-12
-24.5939 -27.5024 -8.17716e-13
-2.51473e-12 -8.17716e-13 -10.0554

46.6538 10.8692 -9.4739e-14
10.8692 -16.1348 -1.67392e-12
-9.4739e-14 -1.67392e-12 -6.81067

-14.187 26.3444 -2.02593e-12
26.3444 -15.6482 -3.18101e-12
-2.02593e-12 -3.18101e-12 -14.1231

-45.2468 -37.6068 -2.16035e-12
-37.6068 -20.6096 1.17199e-12
-2.16035e-12 1.17199e-12 -14.9243

-43.7043 37.2597 1.81781e-13
37.2597 -21.2629 1.48052e-12
1.81781e-13 1.48052e-12 -14.7748

-61.1758 -28.5698 -9.84583e-13
-28.5698 -7.49769 -2.07301e-12
-9.84583e-13 -2.07301e-12 -15.2047

-58.408 27.0614 4.91259e-12
27.0614 -6.27217 -1.55579e-12
4.91259e-12 -1.55579e-12 -14.4836

5.59923 -8.52543 2.91915e-13
-8.52543 -71.0551 -4.64414e-12
2.91915e-13 -4.64414e-12 -14.715

4.39671 9.27128 -3.7231e-12
9.27128 -68.8246 -3.02084e-12
-3.7231e-12 -3.02084e-12 -14.4431

9.02325 -9.84938 -4.39974e-12
-9.84938 -40.901 -1.79116e-13
-4.39974e-12 -1.79116e-13 -9.62144

-24.3349 32.1087 1.32605e-12
32.1087 -24.8042 3.01771e-12
1.32605e-12 3.01771e-12 -21.1424

-25.5214 -32.8462 -3.16784e-12
-32.8462 -25.0906 -1.38889e-12
-3.16784e-12 -1.38889e-12 -21.4664

-53.908 16.0667 -1.33227e-13
16.0667 3.39699 3.03757e-13
-1.33227e-13 3.03757e-13 -21.3999

-52.4098 -15.7996 -1.10771e-12
-15.7996 3.29266 3.54916e-12
-1.10771e-12 3.54916e-12 -21.0733

6.10659 -3.75377 1.56601e-12
-3.75377 -43.9213 -3.04349e-13
1.56601e-12 -3.04349e-13 -25.7576

6.91217 3.61632 -2.52391e-13
3.61632 -46.3438 5.14255e-13
-2.52391e-13 5.14255e-13 -26.1338

-15.6424 9.84108 -8.29855e-13
9.84108 46.2725 -1.82017e-12
-8.29855e-13 -1.82017e-12 -5.85882

-22.924 -24.7797 3.87838e-13
-24.7797 -14.5557 -3.66818e-12
3.87838e-13 -3.66818e-12 -10.3389

-56.5972 -36.383 -3.38973e-12
-36.383 -14.5315 9.23854e-13
-3.38973e-12 9.23854e-13 -13.4446

33.3648 -4.66554 -1.89241e-12
-4.66554 -19.8615 -2.53941e-12
-1.89241e-12 -2.53941e-12 -3.95643

3.43118 -16.6886 2.40445e-12
-16.6886 -52.6201 1.69938e-12
2.40445e-12 1.69938e-12 -21.5295

3.67239 16.1696 3.29958e-12
16.1696 -51.8758 2.28232e-12
3.29958e-12 2.28232e-12 -21.4027

6.55426 0.121818 4.02315e-12
0.121818 -76.7462 1.59568e-12
4.02315e-12 1.59568e-12 -13.3115

-7.58327 23.386 -1.84238e-12
23.386 39.9433 -1.42938e-12
-1.84238e-12 -1.42938e-12 -6.89602

-56.8827 36.167 -1.96576e-12
36.167 -14.0101 1.5512e-12
-1.96576e-12 1.5512e-12 -13.3962

-39.7972 -23.3976 1.09705e-12
-23.3976 2.56025 -6.03665e-13
1.09705e-12 -6.03665e-13 -8.81029

37.1227 23.3627 5.85369e-12
23.3627 -8.62642 6.1912e-12
5.85369e-12 6.1912e-12 -5.76958

4.7301 23.8608 -1.13687e-13
23.8608 -38.2276 -9.24002e-13
-1.13687e-13 -9.24002e-13 -18.9855

24.0139 -31.3268 2.7948e-12
-31.3268 6.40129 -8.86402e-13
2.7948e-12 -8.86402e-13 -5.65895

2.42957 -3.23471 7.80117e-14
-3.23471 -48.3721 -7.17352e-13
7.80117e-14 -7.17352e-13 -14.7471

-60.449 -34.1574 3.6536e-12
-34.1574 -14.3498 -6.35788e-13
3.6536e-12 -6.35788e-13 -14.0379

-17.4698 8.32339 1.05612e-12
8.32339 45.7015 4.31063e-13
1.05612e-12 4.31063e-13 -5.79203

-9.48329 21.8215 5.45845e-12
21.8215 40.433 -1.89833e-12
5.45845e-12 -1.89833e-12 -6.6646

58.6197 35.7909 -5.41197e-13
35.7909 37.0942 4.85538e-14
-5.41197e-13 4.85538e-14 -6.91948

70.5065 1.57951 -2.77585e-12
1.57951 -5.55536 3.5875e-12
-2.77585e-12 3.5875e-12 -10.3804

-30.7586 -22.8071 -1.98212e-12
-22.8071 -13.3606 -1.52572e-12
-1.98212e-12 -1.52572e-12 -14.4705

32.8463 31.1969 -8.18545e-12
31.1969 69.8147 -1.03976e-12
-8.18545e-12 -1.03976e-12 -6.68203

-19.3846 23.6161 -1.01252e-12
23.6161 7.68587 -5.82645e-13
-1.01252e-12 -5.82645e-13 -5.52448

47.6487 -5.35185 2.29505e-12
-5.35185 -17.4514 9.89431e-13
2.29505e-12 9.89431e-13 -6.83261

33.2247 11.2205 6.71463e-13
11.2205 -23.6551 -5.30835e-12
6.71463e-13 -5.30835e-12 -6.02596

6.25286 0.429819 2.27537e-12
0.429819 -77.5432 6.75582e-13
2.27537e-12 6.75582e-13 -13.4571

-58.9276 -29.0274 2.29098e-12
-29.0274 -6.28906 6.72055e-13
2.29098e-12 6.72055e-13 -14.7025

-28.3295 -6.3153 -5.4355e-12
-6.3153 -11.3467 6.51805e-12
-5.4355e-12 6.51805e-12 -51.5552

-44.6936 37.4057 3.25665e-12
37.4057 -20.8087 -1.70382e-13
3.25665e-12 -1.70382e-13 -14.7788

93.8207 1.66385 -1.19371e-12
1.66385 16.6539 8.80333e-13
-1.19371e-12 8.80333e-13 -6.04494

10.0305 -32.8017 -1.20437e-12
-32.8017 21.3103 -6.63173e-14
-1.20437e-12 -6.63173e-14 -6.81905

-56.9295 36.6083 1.43959e-12
36.6083 -14.5698 -2.3177e-12
1.43959e-12 -2.3177e-12 -13.5123

-35.0938 -11.1358 2.55301e-12
-11.1358 19.1782 -1.46964e-12
2.55301e-12 -1.46964e-12 -8.32633

-5.49038 -25.5263 2.18758e-12
-25.5263 37.357 9.74628e-13
2.18758e-12 9.74628e-13 -6.99776

-58.4445 28.8265 -5.2595e-13
28.8265 -6.27245 -3.19744e-12
-5.2595e-13 -3.19744e-12 -14.6197

28.4981 -26.1526 -3.84285e-13
-26.1526 -4.92256 -5.24321e-12
-3.84285e-13 -5.24321e-12 -4.70822

-21.158 10.4856 3.54975e-13
10.4856 -18.5574 2.53989e-12
3.54975e-13 2.53989e-12 -51.6508

3.42401 30.8859 -4.12766e-12
30.8859 27.1648 2.06886e-12
-4.12766e-12 2.06886e-12 -6.74385

6.13822 8.12455 2.12526e-12
8.12455 -72.2874 3.35435e-13
2.12526e-12 3.35435e-13 -14.9894

-11.5503 30.1926 2.42117e-12
30.1926 -20.6028 -7.91071e-13
2.42117e-12 -7.91071e-13 -11.5553

-30.8061 23.3371 -1.70042e-12
23.3371 -5.10271 -3.52696e-12
-1.70042e-12 -3.52696e-12 -8.47557

-25.8623 -32.481 5.38828e-13
-32.481 -24.1072 1.82134e-12
5.38828e-13 1.82134e-12 -21.5556

9.20149 -23.1964 1.40036e-12
-23.1964 -27.9288 -3.80732e-13
1.40036e-12 -3.80732e-13 -11.4317

-37.6654 10.465 1.75275e-12
10.465 8.92928 -1.75386e-12
1.75275e-12 -1.75386e-12 -25.3233

-23.0494 -23.4393 -2.82914e-12
-23.4393 4.95063 6.21784e-12
-2.82914e-12 6.21784e-12 -6.2743

88.8325 -9.7124 3.64745e-13
-9.7124 10.8038 3.60031e-12
3.64745e-13 3.60031e-12 -10.0329

84.0722 -14.2826 4.1851e-12
-14.2826 2.80659 8.96468e-13
4.1851e-12 8.96468e-13 -13.1994

5.88277 16.5348 4.17444e-12
16.5348 -33.9322 2.72996e-12
4.17444e-12 2.72996e-12 -22.3712

-16.4328 22.5103 -1.86517e-13
22.5103 16.2275 -2.65032e-12
-1.86517e-13 -2.65032e-12 -5.09716

-3.91672 29.1709 7.99361e-14
29.1709 -12.2388 -7.07286e-13
7.99361e-14 -7.07286e-13 -8.40606

51.0058 0.68888 4.38642e-12
0.68888 -6.54525 1.54011e-12
4.38642e-12 1.54011e-12 -3.64428

-48.1458 6.56839 -2.87688e-12
6.56839 14.784 -2.40223e-12
-2.87688e-12 -2.40223e-12 -18.9522

10.1159 16.5405 1.94926e-12
16.5405 -36.087 -1.94363e-12
1.94926e-12 -1.94363e-12 -9.14355

-4.51599 -25.7729 -3.93167e-13
-25.7729 35.5612 -1.01489e-12
-3.93167e-13 -1.01489e-12 -6.75786

-39.2029 -2.57041 5.6725e-13
-2.57041 21.5051 8.79889e-13
5.6725e-13 8.79889e-13 -10.6763

-8.00332 13.3716 -1.34174e-12
13.3716 44.4146 -1.68872e-12
-1.34174e-12 -1.68872e-12 -3.95469

3.73239 -29.7197 1.41516e-12
-29.7197 -17.3753 6.78864e-13
1.41516e-12 6.78864e-13 -8.92944

21.4248 -29.9603 1.99959e-12
-29.9603 14.7538 -1.78465e-12
1.99959e-12 -1.78465e-12 -3.92822

6.87359 31.6372 -2.77052e-12
31.6372 25.4029 7.41925e-13
-2.77052e-12 7.41925e-13 -6.8389

2.78144 -15.0169 -2.48779e-12
-15.0169 -39.2483 6.88338e-13
-2.48779e-12 6.88338e-13 -63.2663

-46.1583 2.0439 -1.82787e-12
2.0439 11.4594 2.20387e-12
-1.82787e-12 2.20387e-12 -22.7517

-55.4333 20.2948 -1.95755e-12
20.2948 3.09001 -1.36424e-12
-1.95755e-12 -1.36424e-12 -22.9119

5.9108 15.4342 -2.33532e-12
15.4342 -58.8069 -3.75996e-13
-2.33532e-12 -3.75996e-13 -23.0319

-18.9271 -26.1947 1.03769e-12
-26.1947 -12.9184 3.45235e-12
1.03769e-12 3.45235e-12 -9.66189

41.3548 17.9643 4.51076e-12
17.9643 -6.28343 6.11688e-12
4.51076e-12 6.11688e-12 -3.87181

-44.6773 -5.28948 8.91343e-13
-5.28948 4.53889 9.31107e-12
8.91343e-13 9.31107e-12 -39.1242

7.50007 -18.987 1.95666e-12
-18.987 -39.8992 1.32043e-12
1.95666e-12 1.32043e-12 -11.6659

30.2951 -15.6035 9.27318e-12
-15.6035 -20.5234 1.03813e-12
9.27318e-12 1.03813e-12 -4.81654

-9.65154 11.6088 1.88945e-12
11.6088 44.3284 8.86994e-13
1.88945e-12 8.86994e-13 -3.86954

8.32749 -25.7458 4.027e-12
-25.7458 32.997 -9.29627e-13
4.027e-12 -9.29627e-13 -3.64306

-10.2411 -25.2743 -2.03186e-12
-25.2743 -19.1079 -4.3241e-12
-2.03186e-12 -4.3241e-12 -23.1692

17.0025 31.9733 8.13927e-12
31.9733 11.1925 -4.65109e-12
8.13927e-12 -4.65109e-12 -5.75729

-1.06816 -25.1323 -1.71626e-12
-25.1323 -30.7661 -1.16855e-12
-1.71626e-12 -1.16855e-12 -20.8882

48.0769 2.59834 -3.56929e-12
2.59834 -8.42339 -2.83625e-12
-3.56929e-12 -2.83625e-12 -3.54176

6.54901 -28.9427 9.04876e-12
-28.9427 72.074 8.36072e-13
9.04876e-12 8.36072e-13 -14.5546

21.7907 -29.2435 3.82154e-12
-29.2435 13.9609 -1.70708e-12
3.82154e-12 -1.70708e-12 -3.94065

35.3571 32.1724 -2.48808e-12
32.1724 74.1565 -6.14383e-12
-2.48808e-12 -6.14383e-12 -5.44378

-45.2911 -11.8744 1.05419e-12
-11.8744 13.9199 -1.40865e-12
1.05419e-12 -1.40865e-12 -15.3298

-14.4364 -13.8274 -6.81766e-12
-13.8274 43.3911 1.85333e-12
-6.81766e-12 1.85333e-12 -5.68361

-19.23 -23.9777 -2.69814e-12
-23.9777 -19.8268 4.74435e-12
-2.69814e-12 4.74435e-12 -64.2073

2.42961 23.7815 -3.20928e-12
23.7815 36.0129 -3.45324e-12
-3.20928e-12 -3.45324e-12 -3.7213

-15.1849 -32.7268 5.73704e-12
-32.7268 -21.1253 1.71655e-12
5.73704e-12 1.71655e-12 -14.3178

-14.5813 -11.9683 5.3683e-13
-11.9683 45.5403 -6.11896e-12
5.3683e-13 -6.11896e-12 -5.74963

7.83439 -19.1158 -5.61447e-12
-19.1158 -43.1252 -6.97516e-13
-5.61447e-12 -6.97516e-13 -12.6375

6.53865 23.8879 -4.13654e-12
23.8879 35.1771 4.14483e-14
-4.13654e-12 4.14483e-14 -3.45208

23.1766 -4.97643 -2.82796e-12
-4.97643 -30.6884 -3.17498e-12
-2.82796e-12 -3.17498e-12 -5.37542

36.9799 -30.3523 6.34515e-12
-30.3523 122.665 1.31924e-12
6.34515e-12 1.31924e-12 -6.2371

-26.8823 21.0206 2.11061e-12
21.0206 8.43288 9.96536e-13
2.11061e-12 9.96536e-13 -7.14191

40.346 -19.3314 2.34479e-12
-19.3314 -11.387 -3.37981e-12
2.34479e-12 -3.37981e-12 -5.73676

6.52139 -21.445 4.11049e-12
-21.445 -45.5543 -1.33789e-12
4.11049e-12 -1.33789e-12 -24.9656

20.7041 31.7677 2.68111e-12
31.7677 9.55181 1.43293e-12
2.68111e-12 1.43293e-12 -5.81678

13.9168 -29.9818 -2.80191e-12
-29.9818 -7.61639 2.05761e-13
-2.80191e-12 2.05761e-13 -5.95553

6.75646 20.888 -2.56387e-13
20.888 -27.8012 -9.61601e-13
-2.56387e-13 -9.61601e-13 -11.1146

-38.277 -28.0774 3.35672e-12
-28.0774 -14.0407 -2.99279e-12
3.35672e-12 -2.99279e-12 -11.0701

8.64007 -26.237 7.1978e-12
-26.237 31.1751 8.06466e-13
7.1978e-12 8.06466e-13 -3.64527

15.3279 28.9935 1.17121e-12
28.9935 19.1534 1.76215e-12
1.17121e-12 1.76215e-12 -3.89333

28.6434 26.2012 6.27646e-14
26.2012 -5.64468 -2.93454e-12
6.27646e-14 -2.93454e-12 -4.81294

7.91165 -14.6153 -2.31134e-12
-14.6153 -36.8839 1.35536e-12
-2.31134e-12 1.35536e-12 -13.9955

-6.85343 -16.6254 1.44151e-12
-16.6254 41.3488 3.09915e-12
1.44151e-12 3.09915e-12 -3.96984

17.4413 -17.5705 1.54721e-12
-17.5705 -31.0101 2.03097e-13
1.54721e-12 2.03097e-13 -7.1151

19.8412 16.9139 -4.44089e-13
16.9139 -31.6789 6.89819e-13
-4.44089e-13 6.89819e-13 -7.34546

-33.6859 -9.38115 -4.82462e-12
-9.38115 8.75762 -4.84945e-13
-4.82462e-12 -4.84945e-13 -23.9858

43.4411 -13.4351 1.72899e-13
-13.4351 -8.38194 -3.46434e-12
1.72899e-13 -3.46434e-12 -3.81445

-19.3946 0.594924 -1.70989e-12
0.594924 43.1536 -4.21233e-12
-1.70989e-12 -4.21233e-12 -4.78628

28.0597 18.5603 2.97658e-12
18.5603 -18.213 3.13823e-13
2.97658e-12 3.13823e-13 -4.76076

25.5304 27.6144 -2.52006e-12
27.6144 -3.78598 -1.58777e-12
-2.52006e-12 -1.58777e-12 -4.78202

-6.72735 -15.6934 9.82029e-13
-15.6934 43.8075 -3.53258e-12
9.82029e-13 -3.53258e-12 -3.85815

-19.9226 -1.20219 1.28993e-12
-1.20219 42.1358 4.11523e-12
1.28993e-12 4.11523e-12 -4.69789

-5.47358 29.1357 2.08426e-13
29.1357 -23.6547 1.57652e-12
2.08426e-13 1.57652e-12 -16.7984

-37.2841 -10.9255 -8.56352e-13
-10.9255 21.6795 2.17189e-12
-8.56352e-13 2.17189e-12 -7.83957

27.1448 -26.726 -1.09364e-12
-26.726 -5.54068 9.35548e-13
-1.09364e-12 9.35548e-13 -4.95506

40.7265 21.3418 1.08595e-12
21.3418 -8.38333 -8.92915e-13
1.08595e-12 -8.92915e-13 -5.47811

12.3782 23.6686 1.01904e-12
23.6686 -27.1377 -4.52083e-13
1.01904e-12 -4.52083e-13 -8.67535

-37.8071 5.47396 3.56182e-12
5.47396 23.3118 -1.36543e-12
3.56182e-12 -1.36543e-12 -8.60578

18.5907 29.0782 2.57216e-12
29.0782 17.3764 1.80419e-12
2.57216e-12 1.80419e-12 -3.95737

-9.98456 22.9645 9.29035e-13
22.9645 -14.9222 6.86562e-13
9.29035e-13 6.86562e-13 -24.019

68.3438 -59.7118 -6.23383e-12
-59.7118 36.349 1.77044e-12
-6.23383e-12 1.77044e-12 -23.0063

17.5289 -25.0563 2.65743e-12
-25.0563 -18.0024 1.01548e-13
2.65743e-12 1.01548e-13 -6.42796

10.0535 7.07273 -2.62812e-12
7.07273 82.5768 4.26326e-14
-2.62812e-12 4.26326e-14 -7.16899

11.9166 -28.8995 -1.90485e-12
-28.8995 -3.888 3.59831e-12
-1.90485e-12 3.59831e-12 -5.17662

-66.9384 -52.7138 -1.76688e-12
-52.7138 143.307 -1.9232e-12
-1.76688e-12 -1.9232e-12 -49.6542

-68.3822 51.4642 -8.5502e-13
51.4642 142.594 -2.76638e-12
-8.5502e-13 -2.76638e-12 -49.8435

19.5969 117.182 -2.91323e-12
117.182 64.1669 2.73322e-12
-2.91323e-12 2.73322e-12 -48.3441

20.556 -117.125 2.7877e-12
-117.125 61.0629 -3.24955e-12
2.7877e-12 -3.24955e-12 -48.709

157.803 -1.3638 4.18747e-12
-1.3638 -79.1837 5.95554e-14
4.18747e-12 5.95554e-14 -48.8963

110.375 -91.1477 -5.45697e-12
-91.1477 -36.6762 4.14957e-12
-5.45697e-12 4.14957e-12 -50.2912

110.428 91.6758 6.0633e-13
91.6758 -36.4864 -8.64494e-13
6.0633e-13 -8.64494e-13 -50.1641

7.84248 14.3347 -1.64047e-12
14.3347 -42.6856 -1.61116e-12
-1.64047e-12 -1.61116e-12 -15.0828

-11.7862 25.5325 5.53513e-12
25.5325 -27.4061 1.04213e-13
5.53513e-12 1.04213e-13 -35.1211

12.4386 6.60846 2.04399e-12
6.60846 -40.5474 -3.81495e-12
2.04399e-12 -3.81495e-12 -8.26357

26.2561 21.7926 3.25547e-12
21.7926 -19.5426 -2.54078e-12
3.25547e-12 -2.54078e-12 -5.8622

-21.2467 17.7518 -5.11561e-12
17.7518 29.8717 -5.19703e-12
-5.11561e-12 -5.19703e-12 -6.17427

22.5297 28.91 -1.05397e-12
28.91 -0.783286 -2.80309e-12
-1.05397e-12 -2.80309e-12 -4.74171

4.05037 -29.6701 -4.17444e-13
-29.6701 -17.4724 -3.20396e-12
-4.17444e-13 -3.20396e-12 -8.51316

25.996 28.0392 1.31154e-12
28.0392 -2.31046 2.60414e-12
1.31154e-12 2.60414e-12 -4.74208

-19.3631 -2.84314 2.6635e-12
-2.84314 43.0794 -2.56032e-12
2.6635e-12 -2.56032e-12 -4.78088

-13.4058 -26.0934 8.11203e-14
-26.0934 -25.84 -2.86882e-12
8.11203e-14 -2.86882e-12 -35.5037

-19.8581 -4.86519 -6.31806e-12
-4.86519 41.7838 5.23788e-12
-6.31806e-12 5.23788e-12 -4.75486

-1.82999 23.0211 -1.47438e-13
23.0211 -24.3786 1.19593e-12
-1.47438e-13 1.19593e-12 -16.1507

44.9919 26.8826 -9.6397e-13
26.8826 8.10439 -1.49096e-12
-9.6397e-13 -1.49096e-12 -5.37794

-52.497 -13.217 6.15019e-12
-13.217 0.148231 1.25233e-13
6.15019e-12 1.25233e-13 -20.6148

20.2816 13.7324 -7.14628e-12
13.7324 -31.1573 -1.24227e-12
-7.14628e-12 -1.24227e-12 -7.05436

13.6984 -29.9979 -5.81461e-13
-29.9979 -6.70173 1.90692e-12
-5.81461e-13 1.90692e-12 -5.84644

29.6346 -24.7225 -6.31199e-13
-24.7225 -7.88579 -1.53507e-12
-6.31199e-13 -1.53507e-12 -4.83603

5.75994 -16.0803 -1.92972e-12
-16.0803 -32.3345 -1.77813e-12
-1.92972e-12 -1.77813e-12 -22.2506

12.6268 27.9369 4.33194e-12
27.9369 -13.6501 -2.37499e-12
4.33194e-12 -2.37499e-12 -6.42986

23.3091 23.9862 2.72375e-14
23.9862 -17.9562 -4.43142e-12
2.72375e-14 -4.43142e-12 -5.97358

-31.0924 -2.79245 1.14712e-12
-2.79245 30.135 -5.05077e-13
1.14712e-12 -5.05077e-13 -6.40878

-28.6466 5.87471 -2.4249e-12
5.87471 33.3255 4.358e-13
-2.4249e-12 4.358e-13 -6.07062

34.5548 2.64776 2.67756e-12
2.64776 -26.2028 -2.60488e-12
2.67756e-12 -2.60488e-12 -6.15414

50.6641 -7.29296 7.14095e-13
-7.29296 -14.0988 -6.0858e-12
7.14095e-13 -6.0858e-12 -6.78894

11.0378 30.4954 -1.87939e-12
30.4954 -4.79739 -8.1594e-13
-1.87939e-12 -8.1594e-13 -5.97758

17.4656 -26.164 -4.00983e-12
-26.164 -17.4652 1.73668e-12
-4.00983e-12 1.73668e-12 -6.36206

-0.0815777 -21.2558 -2.54907e-12
-21.2558 -27.9619 3.78098e-12
-2.54907e-12 3.78098e-12 -17.1663

4.93255 -31.646 2.17959e-12
-31.646 4.85505 3.21284e-12
2.17959e-12 3.21284e-12 -5.9468

-8.2393 -27.7974 -3.39876e-12
-27.7974 18.5783 -8.2719e-13
-3.39876e-12 -8.2719e-13 -6.14163

-1.6593 29.8994 -1.623e-12
29.8994 10.4439 -5.44157e-13
-1.623e-12 -5.44157e-13 -5.81193

-26.0335 -9.58126 -9.26185e-13
-9.58126 32.9745 1.84978e-12
-9.26185e-13 1.84978e-12 -5.79834

-31.3378 -1.54672 -4.78802e-12
-1.54672 31.6538 3.18619e-12
-4.78802e-12 3.18619e-12 -6.23377

-38.9292 5.74722 -1.08489e-12
5.74722 23.9473 1.66385e-13
-1.08489e-12 1.66385e-13 -9.19144

-17.233 -21.0981 2.78888e-12
-21.0981 26.5736 1.12207e-12
2.78888e-12 1.12207e-12 -5.78363

13.0684 24.1179 1.16529e-12
24.1179 -28.1107 -1.17624e-12
1.16529e-12 -1.17624e-12 -9.21328

21.5572 -9.59293 -1.87761e-12
-9.59293 -31.7226 9.88691e-13
-1.87761e-12 9.88691e-13 -6.60946

-27.1706 7.46751 1.77452e-12
7.46751 34.3392 2.07182e-12
1.77452e-12 2.07182e-12 -5.88502

-35.2501 -9.70222 -7.50173e-13
-9.70222 22.3152 1.81188e-12
-7.50173e-13 1.81188e-12 -8.19266

-29.1708 -16.3362 1.5928e-12
-16.3362 19.3478 -1.73372e-12
1.5928e-12 -1.73372e-12 -6.67295

36.9755 -8.24233 9.49759e-13
-8.24233 -20.2539 5.78796e-12
9.49759e-13 5.78796e-12 -5.11269

-14.8131 -32.3468 -2.87563e-12
-32.3468 -21.6286 3.55242e-12
-2.87563e-12 3.55242e-12 -12.998

-22.8382 9.32554 -5.97433e-12
9.32554 33.3277 9.0535e-13
-5.97433e-12 9.0535e-13 -4.79952

-0.754037 -18.2143 1.7204e-12
-18.2143 -35.1526 -2.47698e-12
1.7204e-12 -2.47698e-12 -33.2624

4.92767 24.8333 1.70649e-12
24.8333 75.3319 -7.2049e-12
1.70649e-12 -7.2049e-12 -14.322

-14.1426 -26.6299 -6.51657e-12
-26.6299 -16.3579 3.49779e-12
-6.51657e-12 3.49779e-12 -14.6442

-6.35764 -30.2034 -5.76724e-13
-30.2034 -23.6105 -6.19356e-13
-5.76724e-13 -6.19356e-13 -17.0891

-31.2861 -0.700071 1.82898e-12
-0.700071 31.5037 1.73728e-12
1.82898e-12 1.73728e-12 -6.35859

28.4922 -16.6274 -1.56852e-12
-16.6274 -18.0705 3.47988e-12
-1.56852e-12 3.47988e-12 -4.44873

-37.8161 12.8426 -9.36566e-13
12.8426 11.1653 -5.92297e-12
-9.36566e-13 -5.92297e-12 -10.9961

-8.8621 -3.18289 -5.27119e-12
-3.18289 111.092 1.69346e-12
-5.27119e-12 1.69346e-12 -22.6677

-31.6183 14.2779 -2.44641e-12
14.2779 21.3512 3.79193e-12
-2.44641e-12 3.79193e-12 -7.13547

12.418 -29.5 -2.90553e-12
-29.5 -2.52581 1.8184e-12
-2.90553e-12 1.8184e-12 -4.9389

33.6405 25.114 2.65151e-12
25.114 124.069 2.15531e-13
2.65151e-12 2.15531e-13 -6.20976

-13.4964 26.0875 -1.80712e-11
26.0875 -19.0943 1.62685e-12
-1.80712e-11 1.62685e-12 -58.8543

-9.54963 -27.7956 -5.71025e-12
-27.7956 -22.8015 4.30693e-12
-5.71025e-12 4.30693e-12 -59.5042

-2.8722 -30.4281 4.5759e-12
-30.4281 -7.33019 -4.52941e-12
4.5759e-12 -4.52941e-12 -7.2982

3.85326 -31.1728 1.03206e-12
-31.1728 5.62983 2.28913e-12
1.03206e-12 2.28913e-12 -6.07402

25.1551 20.8337 -6.34752e-13
20.8337 -17.0475 -9.91207e-13
-6.34752e-13 -9.91207e-13 -4.98751

31.8094 15.012 -2.5994e-13
15.012 -23.3183 5.18903e-12
-2.5994e-13 5.18903e-12 -5.96634

-9.48112 3.07675 -2.52872e-12
3.07675 -9.82552 -1.66149e-12
-2.52872e-12 -1.66149e-12 -80.874

-5.54382 -6.99014 1.39052e-11
-6.99014 -14.033 -1.18717e-11
1.39052e-11 -1.18717e-11 -80.2271

11.7498 4.8239 -2.96711e-12
4.8239 -43.215 1.81721e-12
-2.96711e-12 1.81721e-12 -7.83789

-35.0686 6.73446 -4.27347e-12
6.73446 24.3763 5.92119e-16
-4.27347e-12 5.92119e-16 -7.57315

-36.1252 6.73669 1.8158e-12
6.73669 24.4338 1.7432e-12
1.8158e-12 1.7432e-12 -8.31819

74.6134 58.6553 1.09376e-11
58.6553 34.1888 2.65743e-12
1.09376e-11 2.65743e-12 -21.8682

-6.93146 -28.2119 5.4244e-12
-28.2119 16.874 9.99497e-13
5.4244e-12 9.99497e-13 -6.12858

8.17086 17.9731 -3.33629e-12
17.9731 -44.878 1.48355e-12
-3.33629e-12 1.48355e-12 -12.9017

32.7091 9.54249 2.15058e-12
9.54249 -19.0947 -4.44089e-14
2.15058e-12 -4.44089e-14 -4.08543

3.38103 -26.7338 1.24049e-12
-26.7338 13.4832 -4.26326e-14
1.24049e-12 -4.26326e-14 -3.83793

26.2396 -20.2452 -4.47464e-12
-20.2452 -20.3378 -8.00841e-13
-4.47464e-12 -8.00841e-13 -5.87447

65.4173 60.2533 -9.28443e-13
60.2533 34.3032 3.59653e-12
-9.28443e-13 3.59653e-12 -23.8637

-13.2451 31.0722 1.41783e-12
31.0722 -16.8905 -2.52272e-12
1.41783e-12 -2.52272e-12 -12.792

-18.6202 -19.7945 -4.44119e-12
-19.7945 28.418 4.24964e-12
-4.44119e-12 4.24964e-12 -5.98127

11.1703 28.8665 3.55449e-12
28.8665 -13.3315 -7.41333e-13
3.55449e-12 -7.41333e-13 -6.44647

-31.8838 -4.14748 1.65682e-12
-4.14748 30.1503 -3.55863e-13
1.65682e-12 -3.55863e-13 -6.36824

-14.6088 19.6173 2.23377e-12
19.6173 27.1882 -4.64636e-12
2.23377e-12 -4.64636e-12 -4.42999

7.47498 30.5301 -3.73627e-13
30.5301 -1.67833 7.10543e-15
-3.73627e-13 7.10543e-15 -5.67168

-9.35574 -22.4826 5.86198e-12
-22.4826 23.1511 -3.55686e-12
5.86198e-12 -3.55686e-12 -4.18675

4.58419 -27.3631 -5.8454e-12
-27.3631 11.4476 -1.75445e-12
-5.8454e-12 -1.75445e-12 -3.94947

24.2785 11.2611 -9.18673e-12
11.2611 102.115 1.76451e-12
-9.18673e-12 1.76451e-12 -12.4016

37.4734 -33.4705 -8.74323e-12
-33.4705 69.3062 -7.08174e-13
-8.74323e-12 -7.08174e-13 -5.70547

-25.3518 -11.6948 -3.26724e-12
-11.6948 31.3725 -1.30325e-12
-3.26724e-12 -1.30325e-12 -5.65964

16.0943 26.4934 1.19312e-12
26.4934 -15.5113 8.72783e-13
1.19312e-12 8.72783e-13 -6.22761

4.94979 29.4881 6.9574e-13
29.4881 1.63235 4.31063e-13
6.9574e-13 4.31063e-13 -5.00107

-9.86558 -21.4429 -3.1027e-13
-21.4429 25.1235 2.60532e-12
-3.1027e-13 2.60532e-12 -4.04439

-21.6487 -11.7878 -3.19034e-12
-11.7878 32.0863 2.79066e-12
-3.19034e-12 2.79066e-12 -4.64822

10.4587 28.4199 -3.43429e-12
28.4199 -0.161412 1.11496e-12
-3.43429e-12 1.11496e-12 -4.68368

-21.8603 -13.8837 3.62969e-13
-13.8837 29.4704 -1.13924e-12
3.62969e-13 -1.13924e-12 -4.85834

6.9549 27.8675 1.17305e-11
27.8675 73.1093 -8.78704e-13
1.17305e-11 -8.78704e-13 -14.3251

-45.8356 -4.0385 -5.02107e-12
-4.0385 14.047 -4.39648e-12
-5.02107e-12 -4.39648e-12 -19.963

0.868991 31.0402 1.2624e-12
31.0402 7.51517 1.74142e-12
1.2624e-12 1.74142e-12 -6.10097

9.71756 14.9057 -3.54206e-12
14.9057 -36.4385 4.55636e-13
-3.54206e-12 4.55636e-13 -10.9926

9.92451 -15.9322 -1.06493e-12
-15.9322 -39.417 -9.80253e-13
-1.06493e-12 -9.80253e-13 -13.0746

85.6432 -24.2146 2.67401e-12
-24.2146 7.63291 6.87095e-12
2.67401e-12 6.87095e-12 -12.9594

-23.2177 -21.2735 2.70095e-12
-21.2735 10.5133 3.36442e-12
2.70095e-12 3.36442e-12 -6.17664

-16.6103 26.7065 2.54522e-12
26.7065 1.77468 -3.7262e-12
2.54522e-12 -3.7262e-12 -6.59938

-26.1957 -21.7268 -2.42088e-12
-21.7268 -5.37568 -2.64433e-12
-2.42088e-12 -2.64433e-12 -23.861

-41.582 14.0972 -5.62735e-12
14.0972 -3.55721 -3.82509e-13
-5.62735e-12 -3.82509e-13 -64.0823

-0.895697 9.44489 6.4612e-12
9.44489 -44.2395 -1.07144e-12
6.4612e-12 -1.07144e-12 -64.1838

-20.3805 32.7015 1.07706e-12
32.7015 -23.2072 3.15836e-12
1.07706e-12 3.15836e-12 -24.3243

-11.424 26.0116 -1.89804e-12
26.0116 22.6051 3.70311e-12
-1.89804e-12 3.70311e-12 -5.9376

16.0383 26.6684 2.4715e-12
26.6684 -17.2998 -4.37842e-12
2.4715e-12 -4.37842e-12 -6.56034

30.4352 45.2049 -1.14279e-12
45.2049 47.5694 -1.12503e-13
-1.14279e-12 -1.12503e-13 -15.1977

-44.8727 -11.336 2.62797e-12
-11.336 -1.8064 4.8462e-12
2.62797e-12 4.8462e-12 -61.641

-8.29751 -3.42866 3.94342e-13
-3.42866 -12.7409 -2.77349e-12
3.94342e-13 -2.77349e-12 -77.1674

-14.6769 -0.2063 4.68766e-12
-0.2063 -6.41822 1.06262e-11
4.68766e-12 1.06262e-11 -77.3116

27.6769 -53.8213 2.81967e-12
-53.8213 71.1781 -6.33567e-12
2.81967e-12 -6.33567e-12 -24.3852

-11.6825 -11.5965 -7.00255e-12
-11.5965 -16.2083 -6.38837e-12
-7.00255e-12 -6.38837e-12 -37.4101

-32.6064 8.80794 -9.02167e-13
8.80794 -9.4102 3.19004e-12
-9.02167e-13 3.19004e-12 -49.5098

18.2562 -26.2062 -2.404e-12
-26.2062 -19.5595 -2.12482e-12
-2.404e-12 -2.12482e-12 -6.51716

-39.4354 1.00782 -5.05074e-12
1.00782 11.9815 -3.73627e-12
-5.05074e-12 -3.73627e-12 -19.7194

-30.2131 -20.2739 2.91485e-12
-20.2739 6.30351 2.69e-12
2.91485e-12 2.69e-12 -7.22724

10.5349 6.25607 -1.83646e-12
6.25607 -52.3933 5.90047e-13
-1.83646e-12 5.90047e-13 -9.6489

-49.8149 15.596 1.31845e-12
15.596 10.1622 -1.88975e-12
1.31845e-12 -1.88975e-12 -13.5363

-40.2938 7.18981 -2.05456e-12
7.18981 16.5413 -6.85259e-12
-2.05456e-12 -6.85259e-12 -13.7783

16.404 20.3994 -4.55162e-12
20.3994 -25.8528 1.81188e-12
-4.55162e-12 1.81188e-12 -7.61728

-9.10142 -3.11394 5.38488e-12
-3.11394 108.436 6.01593e-12
5.38488e-12 6.01593e-12 -23.0982

-3.32716 -27.6326 2.33295e-12
-27.6326 -3.63289 -2.19084e-13
2.33295e-12 -2.19084e-13 -5.84071

-7.33863 -26.1233 -2.98902e-12
-26.1233 -14.0876 6.20985e-12
-2.98902e-12 6.20985e-12 -9.81827

-14.2022 -31.4835 1.53862e-12
-31.4835 -21.778 -1.57696e-12
1.53862e-12 -1.57696e-12 -12.7608

90.7607 32.7621 -5.61329e-13
32.7621 20.9129 -4.85538e-14
-5.61329e-13 -4.85538e-14 -16.5028

-23.1065 -20.1133 3.98496e-13
-20.1133 -17.3875 -8.32075e-13
3.98496e-13 -8.32075e-13 -44.4015

72.6526 54.34 2.47743e-12
54.34 91.669 7.93676e-12
2.47743e-12 7.93676e-12 -6.13699

-36.2217 -21.4371 2.72848e-12
-21.4371 -6.79684 -5.03301e-13
2.72848e-12 -5.03301e-13 -13.049

15.0342 14.6513 2.53368e-12
14.6513 -37.7605 1.2584e-12
2.53368e-12 1.2584e-12 -8.1879

44.5828 -14.5783 -4.448e-12
-14.5783 -8.28575 3.64804e-12
-4.448e-12 3.64804e-12 -4.42887

-21.2386 24.0523 1.5176e-12
24.0523 4.95391 -3.37508e-14
1.5176e-12 -3.37508e-14 -5.98739

17.3737 20.4317 -5.15499e-12
20.4317 -26.8042 4.42875e-12
-5.15499e-12 4.42875e-12 -6.96137

-51.136 11.3958 2.58971e-12
11.3958 7.70754 2.7572e-12
2.58971e-12 2.7572e-12 -29.9831

-7.29328 -31.5859 1.59517e-12
-31.5859 -12.8322 -1.58096e-13
1.59517e-12 -1.58096e-13 -8.12883

2.79137 19.8118 1.41191e-12
19.8118 -46.0271 1.38852e-12
1.41191e-12 1.38852e-12 -29.975

-24.6818 -18.4493 2.85638e-12
-18.4493 17.8367 -8.8581e-13
2.85638e-12 -8.8581e-13 -5.49118

-42.3472 4.28585 -8.49585e-13
4.28585 17.8689 -3.47574e-12
-8.49585e-13 -3.47574e-12 -12.7327

-4.09793 9.93002 -3.09323e-12
9.93002 -40.2639 6.8255e-12
-3.09323e-12 6.8255e-12 -47.5196

-2.68889 -8.51723 2.8099e-12
-8.51723 -38.2955 -2.45996e-12
2.8099e-12 -2.45996e-12 -47.3752

81.7511 18.5196 -9.59233e-13
18.5196 1.69405 -1.36898e-12
-9.59233e-13 -1.36898e-12 -14.4557

3.89535 7.96757 -3.10922e-12
7.96757 -45.1914 9.51831e-14
-3.10922e-12 9.51831e-14 -11.0267

35.893 7.74404 3.59046e-12
7.74404 184.63 -2.6669e-12
3.59046e-12 -2.6669e-12 -9.74015

40.1676 -11.3893 -3.51023e-12
-11.3893 190.429 -4.95959e-12
-3.51023e-12 -4.95959e-12 -7.37131

53.7894 56.42 -9.04758e-13
56.42 159.308 -1.82373e-12
-9.04758e-13 -1.82373e-12 -11.4829

1.70381 -28.9549 -4.43142e-12
-28.9549 -24.6949 -1.10401e-12
-4.43142e-12 -1.10401e-12 -11.9684

16.0585 -49.2078 -2.60177e-12
-49.2078 99.4541 -5.31486e-12
-2.60177e-12 -5.31486e-12 -21.6839

54.5375 -55.9626 -2.66927e-12
-55.9626 150.023 -1.80478e-12
-2.66927e-12 -1.80478e-12 -13.6482

-2.17439 26.2306 2.60532e-13
26.2306 17.5728 3.44968e-12
2.60532e-13 3.44968e-12 -4.0072

134.986 73.8615 5.44749e-12
73.8615 85.0563 7.57912e-14
5.44749e-12 7.57912e-14 -10.1416

-18.7282 13.0438 3.73893e-12
13.0438 -3.89539 -1.08654e-13
3.73893e-12 -1.08654e-13 -26.7592

3.73955 0.0469193 -1.33345e-12
0.0469193 -26.1911 9.79365e-13
-1.33345e-12 9.79365e-13 -26.7624

144.146 -73.1465 8.62125e-13
-73.1465 85.384 3.55035e-12
8.62125e-13 3.55035e-12 -8.17826

-21.4067 -23.4325 5.13811e-12
-23.4325 12.2462 -2.89961e-12
5.13811e-12 -2.89961e-12 -6.50343

89.377 34.7422 -6.34752e-13
34.7422 41.4027 8.84744e-12
-6.34752e-13 8.84744e-12 -11.5441

72.2179 63.5069 -3.60008e-13
63.5069 149.74 -5.21065e-14
-3.60008e-13 -5.21065e-14 -9.65626

26.172 21.6384 7.27359e-12
21.6384 100.168 -2.93217e-12
7.27359e-12 -2.93217e-12 -13.0278

73.9055 -65.9363 -7.96282e-12
-65.9363 151.192 -3.46745e-12
-7.96282e-12 -3.46745e-12 -9.38431

25.7766 -12.3855 -5.30124e-12
-12.3855 105.049 4.13536e-12
-5.30124e-12 4.13536e-12 -12.4242

-28.6642 6.83442 4.74694e-12
6.83442 3.11015 2.76283e-12
4.74694e-12 2.76283e-12 -37.8323

37.7536 -45.9932 -5.24262e-12
-45.9932 49.6842 1.05042e-12
-5.24262e-12 1.05042e-12 -15.5337

14.4523 47.5488 7.35412e-12
47.5488 94.9131 4.63511e-12
7.35412e-12 4.63511e-12 -22.1877

173.392 37.9218 4.56642e-12
37.9218 48.0659 -1.66089e-12
4.56642e-12 -1.66089e-12 -9.50517

7.01617 -29.2935 -2.75927e-13
-29.2935 -14.365 -7.43701e-13
-2.75927e-13 -7.43701e-13 -7.16553

-38.4262 12.8952 -1.60013e-12
12.8952 6.43658 -3.68002e-13
-1.60013e-12 -3.68002e-13 -15.2934

88.5359 -38.1265 -3.35376e-12
-38.1265 34.1738 -4.31063e-12
-3.35376e-12 -4.31063e-12 -14.0958

6.03909 -28.8091 8.43177e-13
-28.8091 -16.1825 -2.34775e-12
8.43177e-13 -2.34775e-12 -8.03933

169.258 -36.3535 1.76688e-12
-36.3535 34.9499 3.72916e-12
1.76688e-12 3.72916e-12 -13.2738

-5.72909 -28.3245 2.89191e-12
-28.3245 -14.4808 4.60076e-13
2.89191e-12 4.60076e-13 -9.31814

-17.8031 -25.3042 5.52358e-12
-25.3042 12.078 7.11135e-13
5.52358e-12 7.11135e-13 -5.9465

118.916 69.4775 -5.2817e-12
69.4775 96.2554 -1.13687e-13
-5.2817e-12 -1.13687e-13 -11.3834

29.4225 -22.9413 3.5764e-12
-22.9413 97.8306 3.68535e-12
3.5764e-12 3.68535e-12 -14.3357

117.999 -71.7101 4.73695e-14
-71.7101 93.7166 7.57912e-14
4.73695e-14 7.57912e-14 -12.3994

22.2744 50.7547 -9.04758e-13
50.7547 73.8073 5.92119e-14
-9.04758e-13 5.92119e-14 -24.7736

-1.54287 -30.2217 1.61767e-12
-30.2217 -6.56076 3.5684e-12
1.61767e-12 3.5684e-12 -7.00909

-7.03874 -14.6426 5.85221e-12
-14.6426 -21.9228 -2.6293e-12
5.85221e-12 -2.6293e-12 -32.5985

-11.8902 11.0857 6.88153e-12
11.0857 -16.415 -5.4919e-14
6.88153e-12 -5.4919e-14 -77.7341

-26.1497 -5.16129 -2.72064e-12
-5.16129 -6.38657 8.24679e-12
-2.72064e-12 8.24679e-12 -77.5683

-38.9536 13.0848 -2.18433e-12
13.0848 13.7439 1.0066e-14
-2.18433e-12 1.0066e-14 -10.2473

-14.4766 -10.66 -3.10655e-12
-10.66 -17.3018 -5.35261e-12
-3.10655e-12 -5.35261e-12 -78.696

-25.8834 4.09373 -1.97472e-13
4.09373 -5.91283 -2.76279e-12
-1.97472e-13 -2.76279e-12 -78.8381

-3.62874 7.42492 -8.35509e-12
7.42492 -27.8459 7.67534e-13
-8.35509e-12 7.67534e-13 -77.9263

-43.9567 -12.1065 2.13762e-12
-12.1065 2.91525 -6.47364e-12
2.13762e-12 -6.47364e-12 -68.1085

11.9725 -30.4829 2.65861e-12
-30.4829 76.1887 -7.81597e-13
2.65861e-12 -7.81597e-13 -14.7028

0.517447 -12.9721 -4.0643e-12
-12.9721 -39.9809 -3.58587e-12
-4.0643e-12 -3.58587e-12 -45.2504

-16.3477 -34.4123 -3.90769e-12
-34.4123 -22.0741 4.31033e-12
-3.90769e-12 4.31033e-12 -23.5853

-2.4243 -18.1793 4.05039e-12
-18.1793 -29.8888 -2.55499e-13
4.05039e-12 -2.55499e-13 -33.6102

12.7354 15.4637 5.22959e-12
15.4637 -37.7272 3.47041e-12
5.22959e-12 3.47041e-12 -9.63454

-46.8878 9.85817 -1.46538e-12
9.85817 8.87207 4.86973e-12
-1.46538e-12 4.86973e-12 -70.1022

3.45842 19.2192 1.36187e-12
19.2192 -41.4526 1.30225e-11
1.36187e-12 1.30225e-11 -70.2181

1.46712 11.3129 4.86722e-13
11.3129 -23.9611 3.91109e-12
4.86722e-13 3.91109e-12 -31.8523

109.433 -15.346 8.21861e-13
-15.346 -12.5359 2.71901e-12
8.21861e-13 2.71901e-12 -25.0329

-14.3322 24.9735 1.03473e-12
24.9735 10.3843 -1.27602e-12
1.03473e-12 -1.27602e-12 -5.81677

76.6346 -61.3756 6.43278e-12
-61.3756 37.3828 -4.36984e-12
6.43278e-12 -4.36984e-12 -22.3896

76.1376 -57.4752 7.14806e-12
-57.4752 99.2597 -2.56269e-12
7.14806e-12 -2.56269e-12 -5.54853

118.233 -36.5564 1.28845e-12
-36.5564 40.6128 8.87231e-12
1.28845e-12 8.87231e-12 -7.37356

-51.0894 -5.15802 1.95236e-12
-5.15802 3.33614 -7.41333e-13
1.95236e-12 -7.41333e-13 -60.6182

-50.4539 2.89175 -2.04577e-12
2.89175 3.13042 -5.51825e-12
-2.04577e-12 -5.51825e-12 -60.0913

-11.974 -24.4444 -9.74717e-12
-24.4444 -34.9856 5.62972e-12
-9.74717e-12 5.62972e-12 -59.1264

-8.98832 -21.7476 -1.12411e-11
-21.7476 -37.8723 -1.9913e-12
-1.12411e-11 -1.9913e-12 -59.4357

-14.6991 26.1227 -3.47367e-12
26.1227 -33.0111 1.85407e-13
-3.47367e-12 1.85407e-13 -60.7094

-18.144 3.09097 5.21701e-12
3.09097 -13.1573 -3.32419e-12
5.21701e-12 -3.32419e-12 -75.4203

-9.9437 -20.4996 -2.12985e-12
-20.4996 -32.6349 3.6607e-12
-2.12985e-12 3.6607e-12 -56.6985

-26.6308 -18.5611 -4.88054e-13
-18.5611 -14.1945 -1.48818e-12
-4.88054e-13 -1.48818e-12 -71.2197

-15.4641 2.42824 -1.08217e-11
2.42824 -12.8482 -1.08439e-11
-1.08217e-11 -1.08439e-11 -77.8125

-6.02556 -20.5151 -5.89447e-12
-20.5151 -41.4692 1.03532e-12
-5.89447e-12 1.03532e-12 -60.4656

-6.75451 20.9444 7.52576e-12
20.9444 -40.1262 2.12689e-12
7.52576e-12 2.12689e-12 -59.9771

-14.3022 -3.4518 -5.06247e-12
-3.4518 -11.3867 1.67623e-11
-5.06247e-12 1.67623e-11 -76.8278

-11.2556 -3.10774 -5.16491e-12
-3.10774 -17.6771 1.3871e-11
-5.16491e-12 1.3871e-11 -73.993

-24.1868 12.1082 -3.33245e-12
12.1082 -13.3993 -6.21651e-13
-3.33245e-12 -6.21651e-13 -69.9166

-22.073 26.9191 -1.10697e-12
26.9191 -26.2608 -3.23527e-12
-1.10697e-12 -3.23527e-12 -57.5443

VECTORS fluid_flux_TPM float
-8.73832e-05 3.10902e-05 1.18765e-20
3.56827e-06 6.89713e-06 2.22157e-21
-1.28129e-05 -1.02454e-05 1.91605e-21
-4.17884e-06 4.26283e-06 2.58031e-21
2.27607e-05 -6.32857e-06 -8.86789e-21
2.7627e-06 -1.59348e-05 -9.66178e-21
-8.59563e-05 -3.11544e-05 5.68536e-21
-1.39217e-05 -1.04875e-05 7.20246e-21
2.21637e-05 9.47621e-07 3.23158e-21
1.14073e-05 -3.91714e-06 -3.22258e-21
5.46969e-05 1.25056e-05 7.3103e-21
2.35064e-06 -1.72296e-05 -7.35743e-22
1.36398e-05 1.12753e-05 5.84948e-21
2.66922e-06 1.38136e-05 4.48658e-21
2.06293e-05 -2.95434e-06 -2.95413e-21
-1.63646e-05 -2.73423e-07 9.90644e-21
2.76131e-06 1.41301e-05 9.04575e-22
1.02019e-05 -2.39698e-06 -9.87552e-22
9.91773e-06 1.72552e-05 4.11265e-21
-1.48777e-05 1.8894e-06 9.53265e-21
-3.60707e-06 -2.1346e-05 -3.76287e-21
3.41928e-05 5.956e-05 2.38059e-20
1.57279e-05 1.63465e-06 -1.04441e-22
1.12499e-05 -1.13031e-05 -1.4144e-20
-1.5108e-05 -3.33941e-06 8.87379e-21
-6.77347e-07 -1.11541e-05 -5.39258e-22
6.30149e-05 -4.91688e-06 6.37925e-21
1.4095e-05 1.02692e-05 1.07471e-20
-2.51955e-05 -2.06816e-05 2.98909e-21
4.92379e-05 -1.28452e-05 -1.53451e-20
-1.66158e-05 -6.05184e-06 8.33421e-21
5.54829e-06 -3.20954e-05 3.17629e-21
4.77405e-05 -4.81323e-05 -3.47393e-21
-4.93528e-06 -4.13465e-05 -1.80225e-22
-2.9745e-05 3.7094e-05 1.08862e-20
-3.83392e-05 -1.64342e-05 2.44363e-21
3.2782e-05 4.33196e-05 1.30056e-20
-4.48483e-05 -8.74739e-06 -2.07642e-21
1.44047e-05 -1.11032e-05 -1.87829e-20
4.6554e-05 5.02041e-05 4.4078e-22
3.21885e-05 -1.40472e-05 3.75533e-21
3.37216e-05 -4.24456e-05 -1.40357e-20
-1.99443e-05 -5.05004e-05 2.223e-20
-1.593e-05 6.37104e-06 9.875e-21
3.05817e-05 -2.93667e-05 -2.34284e-21
-3.03893e-05 1.10113e-05 -6.63413e-21
-4.05753e-06 -2.04107e-05 5.3488e-21
7.90145e-06 2.02511e-05 6.00309e-21
-1.63761e-05 5.94081e-06 7.31668e-21
-1.78519e-05 2.87798e-05 4.16406e-21
3.24684e-05 1.53185e-05 4.46074e-21
2.942e-05 -1.00941e-05 3.97706e-21
-1.57041e-05 1.57977e-05 3.53926e-21
-2.35858e-05 -2.07297e-05 1.42959e-21
-2.11903e-05 -5.14523e-06 -6.52362e-21
-4.48737e-05 2.71273e-05 9.47631e-21
-2.94434e-05 -3.81149e-05 -1.27983e-21
6.37581e-06 -3.06857e-05 3.1995e-21
-4.78236e-05 6.4991e-06 -1.0271e-20
6.08624e-06 1.37247e-05 5.00576e-22
-5.58897e-06 -8.19328e-06 1.30702e-20
-6.59807e-06 -1.79865e-05 1.59518e-20
5.7248e-05 2.49044e-05 5.50553e-21
9.26599e-06 1.81859e-05 1.11181e-20
1.23267e-05 -1.44786e-05 -6.74433e-21
-1.64539e-06 -2.07991e-05 3.19348e-21
4.63312e-06 -8.82587e-06 -2.7445e-21
-1.01117e-05 -5.5778e-06 1.86115e-20
-1.06243e-05 1.19535e-05 3.39954e-21
2.56329e-06 -4.10232e-06 -3.88208e-21
-1.50801e-05 -1.58811e-05 -1.27507e-21
-2.14164e-05 5.17894e-06 -6.35722e-21
-3.56273e-06 3.45469e-05 6.47834e-21
-1.79122e-05 1.07356e-05 -3.02013e-21
-9.08931e-06 1.46444e-05 6.21505e-21
-6.04691e-05 7.70763e-06 1.68292e-21
7.83764e-06 -2.17322e-05 -4.33674e-21
-1.89234e-05 -8.91914e-06 1.2255e-21
1.93706e-06 1.1649e-05 8.80622e-21
2.63513e-05 5.09926e-06 -1.02795e-21
3.42329e-05 -2.90281e-05 1.21077e-21
2.22009e-05 2.06056e-05 7.98999e-22
1.19367e-05 -2.82992e-06 5.87573e-21
-3.22145e-05 2.41138e-05 2.7381e-21
3.79753e-05 4.85504e-06 8.14832e-22
-4.98858e-06 4.95075e-05 7.18329e-21
-1.74396e-06 -1.68929e-05 3.29216e-22
1.81647e-05 9.97628e-06 -2.17702e-21
2.93727e-05 3.03414e-05 1.33493e-21
5.516e-05 3.81068e-05 -2.46153e-20
-5.34054e-06 3.08318e-05 8.08994e-21
5.93253e-05 -3.55997e-05 -8.89892e-21
-2.71901e-05 5.35302e-06 -1.39546e-20
1.78791e-05 1.10273e-05 2.08834e-21
-2.96982e-05 9.92306e-06 -5.32795e-21
1.66851e-05 2.85746e-05 1.34999e-20
1.01889e-05 -4.44697e-05 5.7086e-22
1.91886e-06 1.16458e-05 6.62238e-21
-1.48349e-05 -1.76625e-05 8.81523e-21
3.07545e-06 1.75111e-05 7.6086e-21
2.6458e-05 5.26806e-06 5.98661e-21
-1.54718e-05 3.32745e-05 -1.59987e-21
4.06279e-05 -1.33577e-05 -4.85323e-22
-3.78089e-06 7.47058e-06 5.11545e-21
9.97503e-06 5.91109e-06 6.70678e-21
-2.28445e-06 -1.13491e-05 1.66972e-21
3.22958e-06 -1.92971e-05 -2.47071e-21
1.75052e-05 3.90089e-06 -1.38501e-21
-7.95062e-06 4.10495e-05 8.32996e-21
-9.82876e-06 2.4778e-07 6.97828e-21
9.33811e-06 1.19096e-05 2.94763e-21
-2.17959e-06 -4.17921e-05 5.23355e-21
4.21012e-05 1.28889e-05 1.39064e-20
4.43188e-06 -7.4684e-06 -1.93494e-20
-1.11688e-05 -3.56208e-06 2.02513e-20
-2.93821e-05 -1.25106e-05 2.46301e-21
1.5842e-05 4.12482e-05 -1.38796e-20
-4.35677e-05 -1.56039e-05 1.79396e-21
1.60573e-05 -4.12247e-05 -9.35245e-21
-3.7059e-06 -3.19813e-05 8.24543e-21
2.18817e-05 6.53369e-07 -4.29286e-22
-7.18828e-06 1.84417e-05 1.35974e-20
-1.6154e-06 3.97812e-06 1.15691e-20
-3.69586e-06 -1.65765e-05 -1.00012e-20
5.24166e-06 -8.3222e-06 -6.72961e-21
9.38296e-06 1.59017e-05 1.85405e-21
3.3182e-05 1.06791e-05 -2.12027e-20
8.6349e-06 -7.47325e-06 -2.24539e-20
-8.28536e-06 -4.5245e-05 3.06601e-21
2.56011e-05 -1.88551e-05 -2.32309e-21
4.99041e-06 2.78385e-05 9.42745e-21
-2.82208e-06 -2.84851e-06 1.88157e-20
-8.64727e-06 -8.3451e-06 -1.01985e-20
-4.78746e-06 4.49422e-08 6.47806e-21
-2.29159e-05 2.8649e-05 6.32921e-22
1.88097e-05 -3.74661e-05 1.08545e-21
-2.66289e-05 4.27953e-05 2.05885e-21
-1.64061e-05 9.5562e-06 8.39255e-21
2.53328e-06 1.22283e-05 -1.0441e-20
-2.30424e-05 -3.50754e-05 7.01094e-21
1.39629e-05 3.35291e-05 3.82675e-21
1.75465e-05 9.38801e-06 4.00857e-21
2.28565e-05 -8.53986e-06 -4.99722e-21
-1.25687e-06 -1.12897e-05 -1.56202e-20
-3.39754e-05 -3.16184e-05 2.02783e-21
-2.75604e-06 1.1328e-05 2.42457e-22
1.72843e-05 1.01941e-05 8.24598e-21
1.89266e-05 -8.84002e-06 -3.76188e-21
8.26045e-06 -1.43736e-05 -1.06142e-20
2.44041e-05 -1.08158e-05 -3.80822e-22
1.90478e-05 -9.01588e-06 -3.33104e-21
4.65142e-06 2.07186e-07 -2.5393e-20
2.57895e-05 2.02589e-05 5.39934e-21
-2.74595e-06 -1.70658e-05 9.3855e-23
-1.0503e-05 -4.46575e-06 6.78283e-21
1.12929e-06 -3.89863e-06 7.00557e-22
-3.16346e-06 1.58816e-05 9.36656e-22
-3.49502e-05 2.77366e-06 5.44764e-22
-1.21437e-05 -3.33216e-05 4.43118e-21
-7.89521e-06 9.79922e-06 4.87695e-21
1.35926e-05 1.66729e-05 9.66198e-21
2.6619e-05 -1.87797e-05 3.03329e-23
-3.68613e-05 -2.03903e-05 -1.55407e-21
1.74365e-05 -2.75588e-05 -1.18633e-21
2.28473e-05 -2.72672e-05 -3.0068e-21
-1.09676e-05 3.79403e-06 1.83601e-20
-1.98663e-05 -2.88955e-05 1.68793e-21
-3.49465e-05 -5.80274e-06 -3.83443e-22
-3.85883e-06 -3.18031e-05 -1.84728e-22
1.54772e-05 -3.17587e-05 -5.21259e-22
-9.12883e-06 -2.62618e-05 2.46599e-21
4.59035e-06 3.14653e-05 3.7048e-21
-1.57813e-05 -2.85766e-05 3.28308e-21
2.94728e-06 -1.63286e-05 -1.03145e-20
-2.47869e-05 1.82953e-05 1.90799e-21
-1.50653e-05 -1.21404e-05 1.24274e-20
-2.74185e-05 -5.1838e-06 -5.82942e-21
1.57014e-05 -9.20139e-06 -1.64003e-21
-4.31673e-06 2.40109e-05 9.68157e-21
1.22601e-05 -9.3437e-06 -2.34561e-20
-2.96425e-05 -1.31898e-05 3.56008e-21
-8.85122e-06 -7.47353e-06 8.08619e-21
9.10235e-06 7.5561e-06 9.09912e-21
2.14676e-05 2.87543e-05 2.55742e-21
-1.75479e-05 -1.08342e-05 -7.06471e-22
-3.25683e-05 -7.52464e-07 1.31884e-21
-1.63748e-05 -5.02633e-06 5.81875e-21
-4.58923e-06 -1.6621e-05 -2.20114e-22
1.7726e-05 2.12906e-05 -1.3794e-20
-1.09817e-05 5.88661e-06 3.47375e-21
6.38304e-07 -2.06014e-05 6.54837e-21
-4.20191e-05 1.08721e-05 5.7494e-21
2.49081e-05 2.02842e-05 6.97383e-21
3.80267e-06 3.28471e-05 8.33981e-21
-2.43684e-06 3.80634e-06 1.78882e-20
-9.06957e-06 2.51727e-07 1.90213e-20
4.36427e-06 7.77588e-06 3.61004e-21
-1.17216e-05 3.41029e-06 5.10405e-21
-2.07861e-06 -3.79306e-06 -2.23617e-20
1.66494e-06 2.08063e-05 9.23531e-21
4.4828e-06 4.49796e-07 7.96786e-21
-1.95772e-05 4.76649e-06 2.17122e-21
-1.73314e-05 1.93959e-05 3.93029e-21
-3.11407e-06 1.16062e-05 9.69653e-21
-2.92721e-05 1.84301e-05 3.45464e-21
-9.36612e-06 9.00007e-06 7.31039e-21
1.73494e-05 -1.16409e-05 -3.92501e-21
3.66729e-05 -3.57142e-06 3.13598e-21
-2.11905e-05 1.13238e-05 8.14965e-23
2.23739e-06 4.50896e-06 -8.92112e-21
2.18266e-05 -4.35372e-06 -1.70192e-20
-1.7317e-05 1.03771e-05 9.54055e-21
-9.89273e-06 5.552e-06 1.14777e-20
1.18597e-05 3.75252e-06 -2.42233e-20
2.19226e-05 -1.34973e-05 -2.26821e-22
-1.74187e-05 9.97808e-06 -3.99428e-21
-2.50857e-05 -5.31351e-06 6.62564e-21
-1.68005e-05 -4.37182e-06 -3.46231e-21
9.89985e-06 7.14081e-09 -2.49183e-20
1.01981e-05 1.94836e-07 1.04282e-20
4.40226e-06 8.33658e-06 1.77095e-21
4.84194e-06 -8.81818e-06 -1.58423e-21
-5.02153e-06 8.4403e-06 1.63312e-20
-5.27834e-06 -8.67855e-06 2.18184e-20
9.93197e-06 -7.42506e-06 -3.15638e-21
-2.03767e-05 3.24336e-06 -1.96415e-21
-2.01084e-05 -3.29228e-06 -2.27471e-21
-1.28663e-05 1.59146e-05 9.2425e-21
-1.29463e-05 -1.5969e-05 -1.01791e-20
7.5039e-06 -1.98919e-05 -1.2292e-20
7.22298e-06 1.98119e-05 -1.83071e-20
1.56158e-06 2.59353e-05 8.3646e-21
1.12658e-05 -3.14222e-06 -3.08187e-20
2.36527e-06 -3.87486e-06 -2.79782e-20
-2.14541e-05 1.42489e-06 5.74056e-21
7.69518e-06 -1.95605e-05 -1.44381e-20
7.29048e-06 1.97094e-05 -1.68008e-20
4.7792e-06 -5.28013e-08 -6.52079e-21
8.98602e-06 2.44499e-05 9.04181e-21
-2.24702e-06 -4.0252e-06 6.1795e-21
2.32201e-06 -1.13414e-05 -1.01489e-20
-2.24745e-05 -1.21755e-05 4.20909e-21
-2.14085e-05 -1.15215e-05 -7.06372e-22
-2.1935e-05 1.36557e-05 1.66706e-21
3.2582e-06 -1.2317e-05 -6.72756e-21
-1.56858e-06 3.38931e-06 6.65252e-21
-5.88102e-07 -2.56188e-05 3.84776e-21
-7.73447e-06 -2.44701e-05 7.67626e-21
3.27645e-05 3.04176e-05 1.51535e-21
3.55189e-05 -1.81837e-06 5.31578e-21
-1.27409e-05 -3.64151e-06 -1.45393e-21
-2.29343e-05 -4.14635e-05 -8.98845e-22
8.32132e-06 1.37757e-05 7.6414e-21
-2.52843e-05 3.03928e-06 1.43619e-21
2.01044e-05 5.79778e-06 5.675e-21
-4.54294e-06 -3.28027e-08 1.94838e-20
-4.67667e-06 -8.432e-06 -1.71705e-20
-7.08991e-06 -3.94279e-05 -6.95991e-21
-9.73104e-06 -8.34073e-08 7.61709e-21
-4.87658e-05 -1.81908e-06 -3.84799e-21
1.73421e-05 -1.91413e-05 -3.78729e-21
2.4348e-06 4.00758e-06 6.77013e-21
-1.21079e-07 -1.75507e-05 4.71332e-21
-9.83648e-06 2.413e-05 -3.1594e-23
-4.38288e-06 8.64708e-06 3.89826e-21
2.05965e-05 -1.36319e-05 1.11138e-21
-3.77498e-05 -1.35842e-05 -8.86035e-21
-1.52944e-05 -2.04049e-05 6.07871e-21
4.98806e-06 8.4091e-06 -8.61136e-21
1.66692e-05 5.17032e-06 3.3076e-21
-4.77339e-06 -7.35319e-06 6.92223e-21
1.98437e-05 3.5564e-06 -2.95931e-20
1.82287e-05 -9.84672e-06 -4.19854e-21
-3.49283e-07 2.72365e-05 3.56516e-21
8.33732e-06 -1.36941e-05 -1.72535e-20
4.88913e-05 2.20441e-06 5.48863e-21
-4.24348e-05 1.14753e-05 1.06512e-21
2.29129e-05 1.15825e-05 -1.25776e-20
-6.46503e-06 -1.72129e-05 -1.70597e-21
-1.53819e-05 -8.63578e-06 4.53591e-21
2.88403e-05 -2.10861e-07 -4.83707e-22
-6.93628e-07 -2.43103e-05 -1.1538e-22
-1.26437e-05 -1.0899e-05 1.2815e-20
1.02433e-05 -2.35427e-05 7.54973e-23
-4.98083e-07 2.05995e-05 8.72794e-21
7.93245e-06 2.61161e-05 3.26201e-21
1.7304e-05 -9.90503e-06 -4.93448e-21
-1.89834e-05 1.93346e-05 3.05903e-21
1.65585e-05 2.00659e-05 3.10147e-21
-6.23782e-05 1.60598e-05 1.34038e-21
-1.01334e-05 2.6076e-05 1.27921e-21
1.2549e-05 -1.52837e-05 -1.43904e-20
-7.045e-06 -1.84413e-05 2.13308e-20
-1.18789e-05 4.51409e-06 2.18635e-21
-2.59417e-05 -7.05954e-06 2.39995e-21
-6.40132e-06 3.8949e-05 2.51422e-21
-1.26324e-05 1.19301e-05 9.32982e-21
2.08164e-05 -4.48485e-06 -8.15864e-21
-6.88436e-06 -2.58424e-05 9.09892e-21
-1.48959e-05 2.39352e-05 1.75075e-21
-2.18387e-05 1.25938e-05 -1.01878e-21
-2.06076e-05 -1.50839e-05 -1.20909e-21
1.80692e-05 -2.07032e-05 -8.29578e-21
-2.75818e-05 -1.45901e-06 8.12471e-21
1.23906e-05 -4.08819e-05 -2.08034e-21
1.94226e-05 -1.89475e-05 1.4573e-21
2.47769e-05 4.31575e-05 6.59023e-21
1.97621e-06 1.99108e-05 8.94258e-21
2.96727e-06 -2.54682e-05 2.17589e-22
-4.17348e-05 4.70734e-05 6.55379e-21
-1.27251e-05 -2.44569e-05 3.26687e-21
1.64038e-05 -6.4337e-06 -2.43877e-20
-2.41485e-06 2.58202e-05 3.66669e-21
1.29104e-05 -1.18538e-05 -8.07473e-21
1.39063e-05 2.43573e-05 9.99676e-21
1.72634e-05 -1.40366e-06 -6.17085e-21
2.21605e-05 -6.33272e-05 -2.614e-21
-5.88701e-06 -1.28846e-05 -1.39572e-21
-2.32277e-05 1.01062e-05 2.50548e-22
-2.00661e-05 1.87631e-05 9.64389e-21
2.16524e-05 1.45945e-05 5.20907e-21
1.8709e-05 -1.07777e-05 -3.26308e-21
1.49833e-05 1.26217e-05 -1.28192e-20
-5.44015e-06 4.48778e-08 8.19254e-21
1.54323e-05 -2.31293e-05 -2.10505e-21
-1.7022e-05 -2.04472e-05 3.23766e-21
2.26043e-05 9.79246e-06 8.49303e-21
1.28343e-05 -1.20166e-05 -9.59846e-21
9.57171e-06 -2.48977e-05 -2.08491e-21
1.66927e-05 -6.9483e-06 -1.39657e-21
-1.58372e-05 -7.56038e-06 5.72214e-21
1.30036e-06 -2.63633e-05 1.9379e-21
-2.61555e-05 4.48199e-06 -9.17164e-22
2.39496e-06 2.45892e-05 4.60102e-21
2.06245e-05 6.64106e-06 2.06031e-21
-2.17616e-05 -1.07228e-05 -4.6687e-22
-8.99297e-06 2.56578e-05 1.713e-21
-1.49738e-06 -2.42339e-05 7.68791e-21
1.95099e-05 1.18641e-05 -4.61772e-21
-1.77083e-06 1.81224e-05 1.17952e-20
-2.01773e-05 1.37287e-05 -5.401e-22
2.35546e-05 1.1436e-05 9.29482e-21
-1.71506e-05 -1.00079e-05 2.81719e-21
9.70193e-08 -1.98765e-05 -1.92368e-22
1.84169e-05 2.00207e-05 7.78044e-21
-2.22046e-05 -1.4337e-05 -1.73877e-22
4.84369e-05 -3.40401e-05 -1.024e-21
1.79333e-05 -1.08436e-05 5.17948e-23
9.0189e-06 4.31644e-05 8.58812e-21
1.70681e-05 -1.37045e-05 -7.04318e-21
-1.99024e-05 8.71917e-05 1.30427e-21
-1.97918e-05 -8.67061e-05 2.39917e-21
5.7289e-05 7.18395e-05 2.79142e-21
5.70272e-05 -7.15119e-05 3.82232e-21
9.08051e-05 -6.66517e-11 1.17167e-20
-7.83377e-05 3.7721e-05 8.18847e-22
-7.75921e-05 -3.73627e-05 5.57419e-21
1.22609e-05 1.18458e-05 -1.02535e-20
2.94371e-05 2.19443e-05 -2.6334e-20
1.1471e-05 3.34027e-06 -4.28375e-21
1.88929e-05 9.77049e-06 9.77312e-21
4.99911e-06 2.02089e-05 2.48244e-21
-1.88685e-05 -1.50092e-05 9.97391e-22
1.70749e-05 -1.02346e-05 -1.05891e-20
1.9891e-05 1.45766e-05 7.00718e-21
-3.172e-06 2.44109e-05 7.73847e-22
2.95101e-05 -2.00403e-05 -1.63568e-20
3.80113e-06 -2.37857e-05 5.04247e-21
2.20111e-05 5.23757e-06 -2.2978e-21
2.99509e-05 1.10464e-05 4.39016e-21
1.42431e-05 1.41769e-05 -3.36761e-21
1.59149e-05 6.60746e-06 -4.88125e-21
-1.85353e-05 1.09588e-05 2.19515e-21
-2.26066e-05 9.05487e-06 -1.90229e-22
2.29828e-05 -1.12891e-05 -1.46503e-20
-1.8305e-05 -1.00191e-05 5.7236e-21
-1.85916e-05 -1.06036e-05 5.47351e-21
-3.43707e-07 -2.08102e-05 1.73731e-21
-8.60988e-08 -2.1203e-05 -1.02193e-21
-2.0166e-05 -1.00748e-06 5.95812e-21
2.67487e-05 -4.02648e-06 -2.21781e-21
1.8148e-05 1.13646e-05 1.42043e-20
-1.7901e-05 1.09673e-05 1.41642e-21
-1.53957e-05 1.66628e-05 2.73354e-21
1.60536e-05 -1.37797e-05 -3.19173e-21
-1.10443e-05 1.74972e-05 4.83703e-21
-1.42523e-05 -1.49186e-05 2.72223e-21
-1.15708e-06 2.12527e-05 2.57143e-21
-1.28904e-06 2.10112e-05 4.78377e-21
8.99062e-08 -1.98764e-05 1.48013e-21
6.12291e-06 -1.97753e-05 -4.54482e-21
-1.71778e-05 -9.95662e-06 5.81503e-21
1.56178e-05 -5.50162e-06 -7.02272e-21
6.65073e-07 2.15204e-05 -1.03316e-21
3.02026e-07 1.85465e-05 4.48677e-21
-2.34963e-06 1.68915e-05 3.45338e-21
2.19507e-05 -5.53798e-06 -6.39585e-21
-1.65793e-05 5.38895e-06 -5.78743e-21
4.16521e-06 2.15602e-05 9.56083e-22
-3.26361e-05 1.29498e-05 3.25963e-21
9.78259e-06 4.18068e-05 4.65709e-21
-1.70923e-05 4.57781e-06 -1.09284e-20
1.97296e-05 -1.16569e-05 -2.02467e-20
9.47436e-07 2.10626e-05 1.89468e-21
-2.05217e-05 6.71367e-06 2.14678e-21
2.45061e-06 -1.62981e-05 -4.40612e-21
1.82579e-06 -5.81175e-05 8.28495e-22
2.01042e-06 1.7522e-05 6.63691e-21
-1.69963e-05 1.40502e-05 3.14166e-22
1.78878e-05 6.40869e-05 -3.76317e-22
4.58798e-05 3.77979e-05 -1.98335e-20
5.21909e-05 -3.53408e-05 -1.60165e-20
1.48464e-05 -1.01876e-05 -1.01311e-20
-1.58163e-05 1.40653e-05 1.52105e-21
-2.02572e-05 -7.93753e-06 1.79323e-22
-1.96844e-05 -6.83615e-06 2.31176e-21
5.94106e-05 -2.46716e-05 -1.41651e-21
5.75727e-05 2.39286e-05 -2.8709e-20
1.09167e-05 3.82595e-06 -3.78806e-21
7.67222e-07 1.96209e-05 5.5514e-21
7.89497e-08 1.96022e-05 2.44845e-21
-4.84701e-05 -3.69903e-05 2.19047e-22
1.14477e-05 -1.72049e-05 -7.34086e-21
1.17592e-05 1.24943e-05 -1.40383e-20
-2.14603e-05 -3.40301e-06 2.93118e-21
-1.40727e-05 1.72357e-05 3.87137e-21
-1.89264e-05 9.18645e-06 1.55045e-21
4.77302e-05 3.37538e-05 5.09013e-21
1.58423e-05 7.07685e-06 1.11559e-21
-5.57705e-06 2.00698e-05 -4.57931e-22
-1.70138e-05 -1.17731e-05 9.17396e-22
1.85951e-06 -2.05855e-05 3.75352e-21
-8.9666e-06 -1.93055e-05 1.67949e-21
-1.72837e-05 -1.17973e-05 2.80265e-21
1.06004e-05 -1.89727e-05 -8.9455e-21
1.41509e-05 -1.7022e-05 -7.23235e-21
-2.44306e-06 -6.15506e-05 6.02733e-21
2.62289e-05 -4.12006e-05 -1.38038e-21
1.75129e-06 -2.08271e-05 -3.09771e-21
1.79962e-05 1.13781e-05 9.25982e-21
-1.45059e-05 -1.49349e-05 8.34421e-21
-9.85981e-06 1.9749e-05 2.25634e-21
-5.04829e-06 2.10489e-05 -2.06451e-21
1.66612e-05 1.42713e-05 1.42703e-20
6.07068e-06 -1.99013e-05 -2.75914e-21
-1.34296e-05 -4.04335e-05 3.67498e-21
-1.99334e-06 2.50991e-05 9.89675e-21
1.48213e-05 1.44832e-05 7.86714e-21
-1.29864e-05 -1.02402e-05 6.00643e-21
-1.35452e-05 1.06328e-05 8.73281e-21
4.44239e-05 -1.8947e-05 1.98209e-21
7.5783e-06 -1.34272e-05 -1.65984e-20
-8.33419e-06 -1.26525e-05 4.64931e-22
2.13817e-05 6.37935e-06 -2.2648e-20
1.10211e-05 -5.07856e-05 -1.43765e-20
-3.85454e-05 -3.49881e-05 1.1012e-20
2.33626e-05 6.22155e-06 -1.26523e-20
-9.34608e-06 -1.83172e-05 3.26972e-21
1.87442e-05 9.5031e-06 4.8358e-21
-2.86164e-05 -3.26132e-05 -1.91971e-21
9.71185e-06 5.01689e-05 1.1703e-20
3.44178e-05 -6.00058e-05 -1.46325e-20
-3.48221e-05 -5.99224e-05 2.73982e-21
2.78616e-05 -5.21155e-05 -2.22363e-21
-1.27285e-05 4.37397e-05 1.27685e-20
-6.29115e-06 3.9072e-05 3.98616e-21
-1.87694e-05 8.96547e-06 5.24265e-21
5.99241e-06 2.42988e-05 8.97412e-21
-2.39557e-06 1.26804e-05 7.30668e-21
1.01417e-05 3.24102e-06 -2.29282e-21
-3.19707e-06 1.62425e-05 5.82901e-22
-2.47682e-07 2.10394e-05 1.31551e-20
1.66958e-05 9.77134e-06 2.46e-21
1.71643e-06 5.78299e-05 2.43355e-21
-1.4748e-05 1.0754e-05 2.58905e-21
1.59847e-05 -6.25908e-06 -2.19074e-20
1.69112e-05 -4.51774e-06 -2.29757e-20
-6.07768e-05 -8.7859e-06 1.65271e-21
-3.46896e-05 1.67822e-05 4.25294e-21
-4.35941e-05 -5.2645e-05 -4.19313e-21
8.67762e-06 8.36497e-06 -3.13455e-21
1.42399e-05 7.30961e-06 -1.04888e-20
2.68559e-05 -4.2042e-06 7.16928e-22
-8.12084e-06 -1.327e-05 1.21741e-21
1.72525e-05 8.44755e-06 -6.7714e-21
7.35352e-06 -3.01069e-05 -3.59847e-21
-1.37438e-05 1.0226e-05 3.11122e-21
-2.2428e-05 -2.14743e-05 1.58395e-20
-5.84681e-06 1.63313e-05 4.38712e-22
-3.27957e-06 2.07253e-05 4.73621e-21
3.39318e-05 2.13478e-05 -2.68738e-20
3.62008e-05 -1.93293e-05 -1.60319e-20
-4.21495e-05 -1.16454e-05 5.27216e-22
7.65002e-06 7.70364e-06 -5.6596e-21
-4.06259e-06 0.000101544 2.61943e-22
8.66699e-07 -0.000104657 -7.03752e-22
5.25519e-05 8.78031e-05 -1.0499e-21
-1.91465e-05 8.47601e-06 -6.91639e-22
-2.64219e-05 5.66555e-05 1.41175e-21
5.31321e-05 -8.47927e-05 3.3935e-22
-1.17435e-05 -1.83183e-05 -2.05506e-21
7.81402e-05 6.76163e-05 4.70808e-21
2.4052e-05 -1.80198e-05 -1.41079e-20
-3.61553e-06 -2.98944e-05 2.33767e-20
8.19255e-05 -6.59656e-05 4.83933e-21
-6.75763e-06 1.45476e-05 1.7152e-21
-5.39329e-05 -3.48907e-05 -3.07751e-22
-4.30898e-05 -9.33041e-05 -4.46861e-22
-2.41548e-05 -5.79109e-05 4.17299e-21
-4.40525e-05 9.43117e-05 6.0116e-22
-1.011e-05 6.42016e-05 4.83988e-21
1.56712e-05 3.71976e-05 7.65334e-21
-2.80058e-05 3.73112e-05 3.64137e-21
-2.53165e-05 -5.52871e-05 5.49811e-21
0.000100545 1.73476e-05 6.48382e-21
-1.69639e-05 1.07892e-05 7.86397e-21
-5.92668e-06 1.63702e-05 1.05662e-20
-5.08525e-05 3.77125e-05 4.52257e-21
-1.73129e-05 9.96565e-06 3.71561e-21
9.93798e-05 -1.52901e-05 1.01631e-20
-1.53935e-05 7.81499e-06 1.08031e-21
7.20724e-06 -1.45237e-05 -1.2449e-20
-7.81101e-05 -6.10632e-05 5.51647e-21
-2.5924e-05 5.78234e-05 1.00131e-21
-7.92635e-05 6.04892e-05 4.48525e-21
2.4587e-05 5.20434e-05 5.58235e-21
-1.47981e-05 1.06041e-05 4.08757e-21
-2.05785e-05 2.45358e-05 1.08777e-20
-2.86019e-05 4.99392e-05 2.08593e-20
-5.69143e-05 2.08685e-07 -3.83593e-22
-9.46726e-07 1.63316e-05 2.9261e-21
-2.89195e-05 -5.05292e-05 -4.87739e-21
-5.83401e-05 -2.20678e-07 -3.32545e-22
-2.84187e-05 4.88149e-05 -3.94309e-21
-1.52272e-05 6.64273e-05 2.60196e-20
-1.78956e-05 4.13374e-05 3.44642e-21
-3.39824e-05 2.72033e-05 7.87282e-21
2.44413e-05 -6.07071e-06 -2.25217e-20
3.80943e-05 -2.19964e-06 -1.79206e-20
1.35111e-05 8.21876e-06 -1.0959e-20
-1.04945e-05 -7.41676e-05 -1.28778e-20
-6.9618e-05 -2.80424e-05 -3.31228e-21
3.72216e-05 7.33512e-07 -2.52357e-20
5.84716e-05 -1.09112e-05 6.31897e-21
-1.06045e-05 -1.3524e-05 5.14235e-21
-5.09198e-05 3.76989e-05 6.71565e-21
-4.62168e-05 5.41009e-05 4.46992e-22
6.24753e-05 -2.22719e-05 5.72088e-21
-2.8246e-05 -5.062e-05 -1.60965e-20
-2.88472e-05 4.99007e-05 1.02837e-20
-5.7394e-05 -1.1741e-06 2.90888e-21
-2.6638e-05 5.07213e-05 1.64091e-21
-5.80945e-05 -8.18962e-07 -5.24963e-21
6.62367e-05 1.74347e-05 -1.99378e-21
5.65174e-05 1.29589e-06 -1.38408e-20
5.10239e-05 -2.93451e-05 -6.57084e-21
2.49711e-05 -5.95712e-05 1.96943e-21
2.99913e-05 -4.89757e-05 -5.7361e-21
2.92383e-05 4.87992e-05 -1.33996e-20
2.44045e-05 5.82302e-05 -1.70507e-20
7.59865e-05 -2.00866e-05 -3.67603e-20
4.63786e-05 2.91339e-05 -3.10688e-20
4.67374e-05 1.37788e-05 -2.60459e-20
TENSORS solid_stress_TPM float
375.128 -24.9242 -2.55322e-12
-24.9242 238.629 2.72138e-12
-2.55322e-12 2.72138e-12 197.874

457.146 -21.3224 -2.81249e-12
-21.3224 490.134 1.80004e-12
-2.81249e-12 1.80004e-12 487.248

455.017 28.0526 -1.01312e-12
28.0526 463.851 9.78773e-13
-1.01312e-12 9.78773e-13 458.594

455.174 -29.8419 3.1708e-13
-29.8419 482.758 -1.50753e-12
3.1708e-13 -1.50753e-12 484.996

527.796 19.9305 1.57829e-12
19.9305 548.546 -3.13187e-12
1.57829e-12 -3.13187e-12 527.467

437.444 -18.0811 2.12127e-13
-18.0811 480.486 1.36957e-12
2.12127e-13 1.36957e-12 458.175

372.423 26.489 -7.05806e-13
26.489 239.149 1.82609e-12
-7.05806e-13 1.82609e-12 197.858

473.79 29.9637 -4.32247e-14
29.9637 469.641 1.49244e-12
-4.32247e-14 1.49244e-12 472.472

471.699 5.48485 -2.70006e-12
5.48485 417.951 -3.04901e-12
-2.70006e-12 -3.04901e-12 432.927

504.405 -7.47785 -5.69382e-12
-7.47785 444.254 -1.23005e-12
-5.69382e-12 -1.23005e-12 483.589

360.399 16.3157 -1.81425e-12
16.3157 247.721 -5.46822e-12
-1.81425e-12 -5.46822e-12 233.715

444.917 -13.4569 4.60521e-13
-13.4569 498.529 -1.91373e-12
4.60521e-13 -1.91373e-12 472.373

467.006 27.8402 -2.30097e-12
27.8402 468.445 3.64153e-13
-2.30097e-12 3.64153e-13 466.869

457.169 -14.3437 3.59329e-12
-14.3437 500.576 -5.24617e-13
3.59329e-12 -5.24617e-13 483.591

513.054 33.303 -2.71013e-12
33.303 511.719 -1.69169e-12
-2.71013e-12 -1.69169e-12 515.345

489.323 0.561389 2.11979e-12
0.561389 435.659 2.15047e-12
2.11979e-12 2.15047e-12 462.409

457.718 -17.9679 1.46388e-12
-17.9679 513.021 1.23723e-12
1.46388e-12 1.23723e-12 493.728

494.106 -2.66518 -4.46458e-12
-2.66518 439.184 -1.68517e-12
-4.46458e-12 -1.68517e-12 474.401

418.922 26.685 -1.79442e-12
26.685 449.801 -9.67522e-13
-1.79442e-12 -9.67522e-13 424.183

482.13 -4.19737 -5.0863e-13
-4.19737 425.051 -4.34823e-12
-5.0863e-13 -4.34823e-12 453.609

425.425 8.67276 -7.46958e-13
8.67276 482.05 1.63839e-12
-7.46958e-13 1.63839e-12 444.973

634.147 6.28161 -1.52452e-11
6.28161 633.995 -4.13817e-12
-1.52452e-11 -4.13817e-12 570.393

479.301 1.87647 -1.80596e-12
1.87647 423.069 -1.68228e-12
-1.80596e-12 -1.68228e-12 449.866

447.299 -27.725 -3.58054e-12
-27.725 461.292 -2.57809e-12
-3.58054e-12 -2.57809e-12 453.082

481.197 6.8515 1.48385e-12
6.8515 425.57 2.27226e-12
1.48385e-12 2.27226e-12 453.072

449.893 19.1163 -2.63819e-12
19.1163 490.462 -2.21541e-12
-2.63819e-12 -2.21541e-12 478.341

377.766 4.18326 8.26598e-13
4.18326 291.734 1.85363e-12
8.26598e-13 1.85363e-12 259.08

462.822 30.7546 -4.33786e-12
30.7546 460.849 -1.89212e-12
-4.33786e-12 -1.89212e-12 460.677

385.06 37.0913 9.09495e-13
37.0913 383.639 -4.26681e-12
9.09495e-13 -4.26681e-12 348.527

587.005 10.3239 -2.14702e-12
10.3239 563.533 -5.02291e-12
-2.14702e-12 -5.02291e-12 546.968

491.834 14.2188 1.34707e-12
14.2188 442.631 -1.86503e-12
1.34707e-12 -1.86503e-12 465.991

352.96 -17.7886 2.75631e-12
-17.7886 416.857 6.19475e-12
2.75631e-12 6.19475e-12 348.698

331.112 -42.1172 -5.17038e-12
-42.1172 335.968 -6.22435e-12
-5.17038e-12 -6.22435e-12 253.559

531.494 5.98196 1.00137e-12
5.98196 586.964 3.92072e-12
1.00137e-12 3.92072e-12 538.681

554.104 -4.83335 -4.44977e-12
-4.83335 582.148 4.20937e-12
-4.44977e-12 4.20937e-12 542.611

578.06 21.026 -2.28055e-12
21.026 540.033 1.73343e-12
-2.28055e-12 1.73343e-12 538.449

556.262 5.06027 1.80522e-12
5.06027 600.733 3.84344e-12
1.80522e-12 3.84344e-12 548.063

573.85 -9.17325 1.41901e-12
-9.17325 555.852 2.42934e-12
1.41901e-12 2.42934e-12 540.738

467.266 -28.0057 6.42982e-12
-28.0057 466.633 -2.3288e-12
6.42982e-12 -2.3288e-12 465.242

330.496 41.5363 -8.28967e-14
41.5363 338.067 2.50585e-12
-8.28967e-14 2.50585e-12 253.918

414.658 -17.9572 3.44021e-12
-17.9572 354.592 -1.01844e-12
3.44021e-12 -1.01844e-12 346.428

559.381 -3.69986 3.40794e-12
-3.69986 599.982 2.93277e-12
3.40794e-12 2.93277e-12 548.477

586.48 19.5448 -2.01542e-13
19.5448 572.521 5.16713e-12
-2.01542e-13 5.16713e-12 548.265

491.041 -12.2748 -1.92498e-12
-12.2748 442.986 1.717e-12
-1.92498e-12 1.717e-12 466.663

341.808 -43.3174 -9.16837e-12
-43.3174 345.438 -1.69938e-12
-9.16837e-12 -1.69938e-12 289.064

417.685 -18.0713 -2.91678e-12
-18.0713 357.211 1.95399e-14
-2.91678e-12 1.95399e-14 351.603

413.131 17.0927 2.76534e-12
17.0927 464.92 -2.67342e-12
2.76534e-12 -2.67342e-12 428.849

429.754 19.347 5.82941e-13
19.347 466.65 -4.30293e-12
5.82941e-13 -4.30293e-12 437.204

486.916 -16.3056 -1.56852e-12
-16.3056 432.995 3.47603e-12
-1.56852e-12 3.47603e-12 458.802

355.68 -34.2008 -2.69651e-12
-34.2008 389.516 1.07292e-12
-2.69651e-12 1.07292e-12 332.664

410.374 19.1904 -3.17968e-12
19.1904 350.798 4.1626e-13
-3.17968e-12 4.1626e-13 339.575

425.328 -25.2995 -5.35276e-13
-25.2995 383.929 6.23324e-12
-5.35276e-13 6.23324e-12 373.185

520.012 19.479 -1.12221e-12
19.479 547.629 -9.46502e-13
-1.12221e-12 -9.46502e-13 525.834

416.535 29.6626 7.25346e-12
29.6626 394 -4.32365e-12
7.25346e-12 -4.32365e-12 374.049

522.279 -21.8125 -2.48394e-12
-21.8125 541.485 3.00066e-12
-2.48394e-12 3.00066e-12 524.482

364.171 -42.7284 -3.48403e-12
-42.7284 343.376 1.06581e-13
-3.48403e-12 1.06581e-13 289.782

553.525 5.45215 -2.10913e-12
5.45215 583.939 4.18954e-12
-2.10913e-12 4.18954e-12 542.985

373.821 -5.33245 -3.32741e-12
-5.33245 436.795 -4.45629e-12
-3.32741e-12 -4.45629e-12 373.934

580.882 10.3858 -2.89842e-13
10.3858 556.25 1.72751e-12
-2.89842e-13 1.72751e-12 542.741

435.181 21.4203 4.11079e-12
21.4203 473.899 -8.66862e-13
4.11079e-12 -8.66862e-13 454.799

513.699 5.75698 -5.71987e-13
5.75698 452.935 -2.90982e-12
-5.71987e-13 -2.90982e-12 494.989

522.581 11.4593 1.82669e-13
11.4593 487.978 2.45315e-12
1.82669e-13 2.45315e-12 507.197

383.81 31.8302 1.02081e-12
31.8302 315.276 1.8486e-12
1.02081e-12 1.8486e-12 269.947

482.204 -6.03858 5.37052e-12
-6.03858 528.303 -1.56615e-12
5.37052e-12 -1.56615e-12 504.219

487.214 9.52263 -3.39447e-12
9.52263 523.812 -2.59259e-12
-3.39447e-12 -2.59259e-12 507.615

456.578 -2.88343 3.58195e-12
-2.88343 520.284 -2.55677e-12
3.58195e-12 -2.55677e-12 487.929

464.581 23.3997 1.93697e-13
23.3997 503.601 -1.21384e-12
1.93697e-13 -1.21384e-12 495.566

496.886 8.466 7.64129e-13
8.466 444.526 -5.89158e-13
7.64129e-13 -5.89158e-13 477.827

445.638 -28.2492 2.37677e-12
-28.2492 459.664 -5.11117e-12
2.37677e-12 -5.11117e-12 451.296

501.821 -1.71227 3.43607e-12
-1.71227 445.052 -1.94704e-12
3.43607e-12 -1.94704e-12 489.199

519.625 -19.2551 -1.18217e-12
-19.2551 546.923 2.66572e-12
-1.18217e-12 2.66572e-12 525.568

523.407 21.3078 3.84729e-12
21.3078 543.009 -8.82248e-13
3.84729e-12 -8.82248e-13 525.37

353.511 -16.5911 -4.39648e-13
-16.5911 415.864 6.70634e-12
-4.39648e-13 6.70634e-12 346.217

506.144 -27.9398 -2.73204e-12
-27.9398 485.425 8.54132e-13
-2.73204e-12 8.54132e-13 493.999

449.854 -25.1421 1.48977e-12
-25.1421 471.361 -1.06996e-12
1.48977e-12 -1.06996e-12 458.708

357.971 -31.7225 4.59958e-12
-31.7225 285.751 4.90896e-12
4.59958e-12 4.90896e-12 249.931

498.602 3.22424 7.84113e-12
3.22424 541.518 2.46914e-13
7.84113e-12 2.46914e-13 513.754

501.85 28.9484 -1.59102e-12
28.9484 474.674 -6.86562e-13
-1.59102e-12 -6.86562e-13 487.78

448.574 19.6672 2.67534e-12
19.6672 492.246 -2.02445e-12
2.67534e-12 -2.02445e-12 477.773

440.33 8.00303 3.46745e-12
8.00303 373.145 3.80555e-12
3.46745e-12 3.80555e-12 383.05

386.567 -33.9499 8.99665e-12
-33.9499 360.31 -1.89833e-12
8.99665e-12 -1.89833e-12 319.531

537.804 -10.5853 9.16008e-13
-10.5853 556.236 -6.22021e-13
9.16008e-13 -6.22021e-13 531.352

482.786 23.9021 1.73432e-12
23.9021 504.681 -4.33468e-13
1.73432e-12 -4.33468e-13 502.165

385.488 -32.3979 1.21976e-13
-32.3979 345.405 -4.20523e-12
1.21976e-13 -4.20523e-12 317.176

422.329 10.7958 -1.01015e-12
10.7958 363.956 -1.79486e-12
-1.01015e-12 -1.79486e-12 350.359

307.735 -21.2148 1.35921e-12
-21.2148 388.559 -9.71075e-12
1.35921e-12 -9.71075e-12 288.201

434.568 14.429 -1.1852e-12
14.429 488.808 2.80842e-12
-1.1852e-12 2.80842e-12 461.012

509.845 23.1497 -1.11496e-12
23.1497 475.292 -9.47094e-13
-1.11496e-12 -9.47094e-13 490.068

338.337 42.2164 -2.29624e-12
42.2164 349.672 1.3145e-13
-2.29624e-12 1.3145e-13 289.037

634.239 16.5008 1.22073e-11
16.5008 603.109 1.36676e-12
1.22073e-11 1.36676e-12 565.4

372.998 -4.11034 -4.28724e-12
-4.11034 436.955 3.02454e-12
-4.28724e-12 3.02454e-12 373.54

637.142 -16.6263 4.66123e-12
-16.6263 599.581 1.55461e-12
4.66123e-12 1.55461e-12 564.908

534.043 -27.3342 2.25893e-12
-27.3342 507.349 4.61705e-13
2.25893e-12 4.61705e-13 515.826

505.424 27.4274 1.22865e-12
27.4274 466.455 8.43769e-14
1.22865e-12 8.43769e-14 485.195

427.059 -24.4211 -1.60464e-12
-24.4211 386.354 -3.44347e-12
-1.60464e-12 -3.44347e-12 376.093

359.041 31.3376 5.22012e-12
31.3376 396.126 1.38437e-12
5.22012e-12 1.38437e-12 339.304

339.922 -10.7096 5.49842e-12
-10.7096 408.517 -1.71241e-12
5.49842e-12 -1.71241e-12 319.202

453.244 21.9731 1.59694e-12
21.9731 494.82 5.45934e-13
1.59694e-12 5.45934e-13 483.302

533.227 16.798 -7.61465e-13
16.798 506.304 5.87086e-13
-7.61465e-13 5.87086e-13 513.467

443.585 15.1594 2.45877e-13
15.1594 488.583 4.87195e-12
2.45877e-13 4.87195e-12 464.414

451.623 15.96 -1.57622e-12
15.96 400.656 -4.47849e-12
-1.57622e-12 -4.47849e-12 403.869

374.6 -21.4822 9.25482e-13
-21.4822 419.999 7.6336e-12
9.25482e-13 7.6336e-12 357.307

389.841 -29.4033 6.42094e-12
-29.4033 342.468 -1.81129e-12
6.42094e-12 -1.81129e-12 314.486

455.106 -24.5777 -9.39841e-13
-24.5777 480.207 8.15052e-13
-9.39841e-13 8.15052e-13 478.505

466.562 27.4569 -1.32339e-12
27.4569 478.878 -1.11318e-12
-1.32339e-12 -1.11318e-12 479.941

452.358 23.19 3.04808e-12
23.19 492.702 -2.66454e-12
3.04808e-12 -2.66454e-12 482.178

466.417 13.1677 -3.70694e-12
13.1677 529.896 3.94055e-12
-3.70694e-12 3.94055e-12 501.504

491.008 9.374 -1.62359e-12
9.374 438.02 -3.03801e-12
-1.62359e-12 -3.03801e-12 462.188

327.804 -4.66681 2.65506e-12
-4.66681 403.506 2.96059e-13
2.65506e-12 2.96059e-13 314.507

462.722 -36.8278 1.39858e-12
-36.8278 487.829 -2.30401e-12
1.39858e-12 -2.30401e-12 492.881

445.983 27.4744 -6.10179e-13
27.4744 463.409 -3.0654e-12
-6.10179e-13 -3.0654e-12 455.147

305.755 2.17085 -8.6553e-12
2.17085 393.482 2.0961e-12
-8.6553e-12 2.0961e-12 297.346

386.114 34.6252 -3.20218e-12
34.6252 332.543 -8.43177e-13
-3.20218e-12 -8.43177e-13 306.338

453.488 -22.9792 -3.15303e-13
-22.9792 480.213 -2.34479e-12
-3.15303e-13 -2.34479e-12 476.307

501.54 5.73289 6.43337e-13
5.73289 441.455 5.09141e-12
6.43337e-13 5.09141e-12 481.145

422.513 27.2159 7.55544e-13
27.2159 389.885 6.12133e-12
7.55544e-13 6.12133e-12 374.349

570.626 12.7426 -1.22169e-12
12.7426 565.988 -3.04734e-12
-1.22169e-12 -3.04734e-12 543.013

396.3 24.3411 4.51195e-12
24.3411 349.75 1.71063e-12
4.51195e-12 1.71063e-12 319.142

569.249 -13.052 3.20292e-12
-13.052 565.9 -4.76537e-12
3.20292e-12 -4.76537e-12 542.469

375.203 0.779027 -2.67194e-13
0.779027 439.009 -2.60295e-12
-2.67194e-13 -2.60295e-12 374.756

461.617 -2.23628 1.06937e-12
-2.23628 399.422 2.63167e-12
1.06937e-12 2.63167e-12 417.408

538.31 -15.7626 1.18823e-12
-15.7626 480.756 7.46573e-12
1.18823e-12 7.46573e-12 513.597

457.384 24.3888 -1.18253e-12
24.3888 487.929 -2.54152e-12
-1.18253e-12 -2.54152e-12 488.489

461.388 -13.5363 -6.16414e-13
-13.5363 519.266 1.04213e-13
-6.16414e-13 1.04213e-13 495.842

515.105 -7.99802 2.40459e-12
-7.99802 438.338 -5.09814e-13
2.40459e-12 -5.09814e-13 494.41

488.43 -22.2771 5.35868e-14
-22.2771 541.71 -1.28549e-12
5.35868e-14 -1.28549e-12 515.865

556.136 -6.60316 2.36996e-12
-6.60316 560.478 -2.97758e-12
2.36996e-12 -2.97758e-12 538.829

464.007 -29.9095 7.32747e-13
-29.9095 483.34 -4.00332e-12
7.32747e-13 -4.00332e-12 483.735

341.806 11.4584 4.63185e-12
11.4584 406.32 8.77994e-12
4.63185e-12 8.77994e-12 319.581

422.614 -28.159 -1.65438e-12
-28.159 391.361 4.83524e-12
-1.65438e-12 4.83524e-12 375.263

507.48 -13.7665 -5.98085e-12
-13.7665 558.846 -3.64479e-12
-5.98085e-12 -3.64479e-12 525.359

501.2 0.506335 1.49821e-12
0.506335 441.42 5.04989e-12
1.49821e-12 5.04989e-12 487.222

477.069 -21.5227 -1.36557e-12
-21.5227 507.555 3.61607e-12
-1.36557e-12 3.61607e-12 501.631

459.24 25.6997 -7.2875e-13
25.6997 484.743 -2.30364e-12
-7.2875e-13 -2.30364e-12 488.117

394.551 -31.4784 3.63916e-12
-31.4784 400.723 3.17849e-12
3.63916e-12 3.17849e-12 357.632

552.201 -7.07711 2.11905e-13
-7.07711 585.372 2.90375e-12
2.11905e-13 2.90375e-12 542.699

347.311 -33.0902 -2.69651e-12
-33.0902 382.723 -2.56506e-12
-2.69651e-12 -2.56506e-12 303.528

491.012 -19.1851 -1.6307e-12
-19.1851 448.515 2.65832e-12
-1.6307e-12 2.65832e-12 467.254

519.837 1.97409 -9.09051e-13
1.97409 466.944 3.73005e-12
-9.09051e-13 3.73005e-12 502.957

570.642 17.8722 -4.70735e-14
17.8722 566.548 2.81553e-13
-4.70735e-14 2.81553e-13 542.471

375.403 20.1921 2.55085e-12
20.1921 424.166 4.58182e-12
2.55085e-12 4.58182e-12 360.332

489.214 27.2176 6.44818e-13
27.2176 468.672 3.63857e-13
6.44818e-13 3.63857e-13 476.768

454.52 -24.5205 -8.73968e-13
-24.5205 415.466 1.94511e-12
-8.73968e-13 1.94511e-12 418.728

454.849 -17.8415 -1.85983e-12
-17.8415 495.047 -4.24253e-13
-1.85983e-12 -4.24253e-13 482.773

379.313 35.0827 -7.4607e-13
35.0827 366.139 -4.5984e-12
-7.4607e-13 -4.5984e-12 317.146

449.29 -21.8326 4.93087e-13
-21.8326 491.847 -1.93149e-12
4.93087e-13 -1.93149e-12 479.907

485.623 30.8562 9.64562e-13
30.8562 465.261 -1.53359e-12
9.64562e-13 -1.53359e-12 473.573

480.462 -25.2502 3.98496e-12
-25.2502 442.494 1.55135e-13
3.98496e-12 1.55135e-13 455.571

448.354 -25.1339 -7.52139e-12
-25.1339 469.911 -1.75682e-12
-7.52139e-12 -1.75682e-12 458.23

445.485 -18.6961 -7.30793e-12
-18.6961 393.578 1.45424e-12
-7.30793e-12 1.45424e-12 397.378

470.795 -18.8567 5.2142e-12
-18.8567 422.978 1.71655e-12
5.2142e-12 1.71655e-12 437.66

459.14 -25.3391 -1.91669e-12
-25.3391 485.569 1.73087e-12
-1.91669e-12 1.73087e-12 488.959

386.659 35.9854 -4.99393e-12
35.9854 382.103 -4.37102e-12
-4.99393e-12 -4.37102e-12 348.222

444.628 15.3821 -8.25858e-13
15.3821 491.675 4.41662e-12
-8.25858e-13 4.41662e-12 467.271

469.531 26.428 -1.42109e-14
26.428 480.092 -4.52468e-12
-1.42109e-14 -4.52468e-12 482.676

456.28 25.4738 -7.11736e-13
25.4738 486.789 1.61441e-12
-7.11736e-13 1.61441e-12 487.38

457.936 11.6255 1.99253e-12
11.6255 507.077 3.78364e-13
1.99253e-12 3.78364e-13 486.144

432.087 -8.23051 -1.97649e-12
-8.23051 370.864 3.62525e-12
-1.97649e-12 3.62525e-12 363.418

376.891 18.6149 6.8674e-12
18.6149 427.399 -5.74237e-12
6.8674e-12 -5.74237e-12 363.994

452.446 -24.3861 -1.53359e-13
-24.3861 478.528 -2.38032e-13
-1.53359e-13 -2.38032e-13 470.844

440.878 25.6757 8.72191e-13
25.6757 455.779 3.51896e-12
8.72191e-13 3.51896e-12 437.934

391.073 -35.6452 6.11659e-12
-35.6452 380.39 6.20659e-12
6.11659e-12 6.20659e-12 350.196

369.049 38.3331 -4.31299e-12
38.3331 327.344 4.63392e-12
-4.31299e-12 4.63392e-12 295.77

363.753 -33.326 -6.63292e-12
-33.326 394.555 8.63309e-13
-6.63292e-12 8.63309e-13 342.082

398.05 -31.1734 9.03573e-13
-31.1734 404.315 -1.71596e-12
9.03573e-13 -1.71596e-12 363.083

502.999 -6.83851 -2.13459e-12
-6.83851 442.387 -1.5327e-12
-2.13459e-12 -1.5327e-12 482.45

393.281 30.3552 -4.27391e-12
30.3552 409.103 1.67807e-12
-4.27391e-12 1.67807e-12 363.543

429.835 13.3003 -4.55339e-12
13.3003 372.355 -2.55825e-12
-4.55339e-12 -2.55825e-12 362.823

350.242 13.3848 3.53436e-12
13.3848 418.643 -3.63561e-12
3.53436e-12 -3.63561e-12 348.579

379.59 -22.3504 -4.31655e-12
-22.3504 423.643 1.0895e-12
-4.31655e-12 1.0895e-12 363.557

491.315 -1.09443 1.10778e-12
-1.09443 550.981 6.4837e-13
1.10778e-12 6.4837e-13 516.417

372.971 2.2478 -8.01877e-13
2.2478 437.923 1.16055e-12
-8.01877e-13 1.16055e-12 373.632

357.992 31.1031 -2.36907e-12
31.1031 399.608 2.53664e-12
-2.36907e-12 2.53664e-12 342.063

458.121 12.111 -2.58133e-12
12.111 510.694 3.55271e-13
-2.58133e-12 3.55271e-13 488.53

421.581 -27.6597 5.26394e-12
-27.6597 389.186 -9.71667e-13
5.26394e-12 -9.71667e-13 375.184

524.873 20.5574 -2.01676e-12
20.5574 469.869 1.06937e-12
-2.01676e-12 1.06937e-12 500.853

535.027 26.2703 2.21808e-12
26.2703 506.969 -2.79924e-13
2.21808e-12 -2.79924e-13 516.205

494.951 -18.5734 -5.03301e-13
-18.5734 449.149 3.07902e-13
-5.03301e-13 3.07902e-13 470.982

554.68 -1.80809 -7.89472e-12
-1.80809 516.122 -4.31625e-12
-7.89472e-12 -4.31625e-12 525.822

473.419 -31.8165 9.5716e-13
-31.8165 475.828 9.13788e-12
9.5716e-13 9.13788e-12 478.705

412.724 23.338 -6.27765e-12
23.338 357.298 4.73695e-15
-6.27765e-12 4.73695e-15 348.195

464.315 30.1637 -1.27572e-12
30.1637 482.909 -4.55103e-12
-1.27572e-12 -4.55103e-12 483.336

464.577 29.2078 1.64017e-13
29.2078 482.382 2.29713e-12
1.64017e-13 2.29713e-12 482.897

394.064 30.6745 -4.08088e-12
30.6745 405.846 2.0132e-14
-4.08088e-12 2.0132e-14 360.977

502.981 27.0894 1.86873e-12
27.0894 482.782 5.40309e-13
1.86873e-12 5.40309e-13 490.855

415.48 3.52669 -2.58519e-12
3.52669 339.112 3.19596e-13
-2.58519e-12 3.19596e-13 340.927

493.249 31.8174 -1.247e-12
31.8174 487.353 -7.55248e-13
-1.247e-12 -7.55248e-13 495.699

476.44 -12.5985 -2.73507e-12
-12.5985 522.575 2.75039e-12
-2.73507e-12 2.75039e-12 500.367

537.035 24.2758 6.04553e-13
24.2758 507.506 3.5462e-12
6.04553e-13 3.5462e-12 516.741

468.315 -29.5808 5.71395e-13
-29.5808 480.11 7.4459e-13
5.71395e-13 7.4459e-13 483.193

464.676 -4.89603 -1.71881e-13
-4.89603 521.683 -2.13696e-12
-1.71881e-13 -2.13696e-12 491.1

401.061 -24.567 2.41348e-12
-24.567 349.123 -7.28306e-14
2.41348e-12 -7.28306e-14 324.047

419.094 29.7062 8.64494e-14
29.7062 392.581 -5.30894e-12
8.64494e-14 -5.30894e-12 373.882

352.445 14.7032 -1.71729e-12
14.7032 417.341 5.36104e-12
-1.71729e-12 5.36104e-12 348.344

500.67 -1.14005 1.46845e-13
-1.14005 442.932 -3.00323e-12
1.46845e-13 -3.00323e-12 487.841

492.615 0.00203065 -3.73005e-12
0.00203065 438.234 1.30732e-12
-3.73005e-12 1.30732e-12 474.551

453.1 23.1293 1.90485e-12
23.1293 479.848 8.05282e-14
1.90485e-12 8.05282e-14 475.719

481.434 23.873 1.90603e-12
23.873 502.998 3.52235e-12
1.90603e-12 3.52235e-12 501.377

456.726 -24.3815 1.49719e-12
-24.3815 487.494 -5.18992e-13
1.49719e-12 -5.18992e-13 488.63

457.957 -0.675132 8.99447e-13
-0.675132 518.073 -1.03088e-12
8.99447e-13 -1.03088e-12 486.524

459.025 25.5926 -3.15999e-12
25.5926 486.608 5.53113e-13
-3.15999e-12 5.53113e-13 488.652

465.705 -10.3118 1.56201e-12
-10.3118 408.207 -1.64816e-12
1.56201e-12 -1.64816e-12 427.352

400.988 -32.8481 2.30926e-12
-32.8481 415.086 -8.3844e-13
2.30926e-12 -8.3844e-13 385.285

518.228 -2.30498 1.73535e-12
-2.30498 465.869 1.89833e-12
1.73535e-12 1.89833e-12 501.055

391.994 -34.5237 2.68467e-12
-34.5237 379.723 -1.73728e-12
2.68467e-12 -1.73728e-12 347.526

478.129 19.0854 1.07514e-12
19.0854 509.336 -2.29772e-12
1.07514e-12 -2.29772e-12 501.974

506.247 -26.4809 -2.10854e-12
-26.4809 470.373 6.09883e-13
-2.10854e-12 6.09883e-13 487.401

425.138 -9.69464 1.61293e-12
-9.69464 366.841 -4.35681e-12
1.61293e-12 -4.35681e-12 356.093

530.381 -23.195 -1.13545e-11
-23.195 488.875 1.13302e-12
-1.13545e-11 1.13302e-12 506.61

501.04 2.35881 4.75856e-12
2.35881 444.721 -2.95467e-13
4.75856e-12 -2.95467e-13 489.343

521.312 -23.326 1.80004e-13
-23.326 501.962 -2.36848e-14
1.80004e-13 -2.36848e-14 508.655

502.153 -25.8622 -4.69965e-12
-25.8622 461.621 -1.86073e-12
-4.69965e-12 -1.86073e-12 481.375

498.972 -8.54953 1.58806e-12
-8.54953 445.271 3.32948e-12
1.58806e-12 3.32948e-12 479.48

482.356 -23.0702 2.00728e-13
-23.0702 505.121 2.33228e-12
2.00728e-13 2.33228e-12 502.665

428.676 -31.3551 9.02389e-13
-31.3551 410.716 -4.29405e-12
9.02389e-13 -4.29405e-12 399.122

503.402 -24.5939 -2.51473e-12
-24.5939 464.843 -8.17716e-13
-2.51473e-12 -8.17716e-13 482.29

441.385 10.8692 -9.4739e-14
10.8692 378.596 -1.67392e-12
-9.4739e-14 -1.67392e-12 387.92

500.167 26.3444 -2.02593e-12
26.3444 498.706 -3.18101e-12
-2.02593e-12 -3.18101e-12 500.231

463.897 -37.6068 -2.16035e-12
-37.6068 488.534 1.17199e-12
-2.16035e-12 1.17199e-12 494.219

465.004 37.2597 1.81781e-13
37.2597 487.446 1.48052e-12
1.81781e-13 1.48052e-12 493.934

446.478 -28.5698 -9.84583e-13
-28.5698 500.157 -2.07301e-12
-9.84583e-13 -2.07301e-12 492.45

448.712 27.0614 4.91259e-12
27.0614 500.848 -1.55579e-12
4.91259e-12 -1.55579e-12 492.637

513.211 -8.52543 2.91915e-13
-8.52543 436.557 -4.64414e-12
2.91915e-13 -4.64414e-12 492.897

511.374 9.27128 -3.7231e-12
9.27128 438.153 -3.02084e-12
-3.7231e-12 -3.02084e-12 492.535

501.8 -9.84938 -4.39974e-12
-9.84938 451.876 -1.79116e-13
-4.39974e-12 -1.79116e-13 483.155

510.985 32.1087 1.32605e-12
32.1087 510.515 3.01771e-12
1.32605e-12 3.01771e-12 514.177

509.761 -32.8462 -3.16784e-12
-32.8462 510.192 -1.38889e-12
-3.16784e-12 -1.38889e-12 513.816

481.941 16.0667 -1.33227e-13
16.0667 539.246 3.03757e-13
-1.33227e-13 3.03757e-13 514.449

483.134 -15.7996 -1.10771e-12
-15.7996 538.836 3.54916e-12
-1.10771e-12 3.54916e-12 514.47

556.969 -3.75377 1.56601e-12
-3.75377 506.941 -3.04349e-13
1.56601e-12 -3.04349e-13 525.105

558.522 3.61632 -2.52391e-13
3.61632 505.266 5.14255e-13
-2.52391e-13 5.14255e-13 525.476

387.427 9.84108 -8.29855e-13
9.84108 449.341 -1.82017e-12
-8.29855e-13 -1.82017e-12 397.21

472.526 -24.7797 3.87838e-13
-24.7797 480.894 -3.66818e-12
3.87838e-13 -3.66818e-12 485.111

443.616 -36.383 -3.38973e-12
-36.383 485.681 9.23854e-13
-3.38973e-12 9.23854e-13 486.768

473.793 -4.66554 -1.89241e-12
-4.66554 420.567 -2.53941e-12
-1.89241e-12 -2.53941e-12 436.472

540.37 -16.6886 2.40445e-12
-16.6886 484.319 1.69938e-12
2.40445e-12 1.69938e-12 515.409

541.09 16.1696 3.29958e-12
16.1696 485.541 2.28232e-12
3.29958e-12 2.28232e-12 516.014

507.008 0.121818 4.02315e-12
0.121818 423.707 1.59568e-12
4.02315e-12 1.59568e-12 487.142

384.909 23.386 -1.84238e-12
23.386 432.436 -1.42938e-12
-1.84238e-12 -1.42938e-12 385.596

442.487 36.167 -1.96576e-12
36.167 485.36 1.5512e-12
-1.96576e-12 1.5512e-12 485.974

452.741 -23.3976 1.09705e-12
-23.3976 495.099 -6.03665e-13
1.09705e-12 -6.03665e-13 483.728

443.389 23.3627 5.85369e-12
23.3627 397.64 6.1912e-12
5.85369e-12 6.1912e-12 400.497

531.083 23.8608 -1.13687e-13
23.8608 488.125 -9.24002e-13
-1.13687e-13 -9.24002e-13 507.367

428.614 -31.3268 2.7948e-12
-31.3268 411.001 -8.86402e-13
2.7948e-12 -8.86402e-13 398.941

519.991 -3.23471 7.80117e-14
-3.23471 469.189 -7.17352e-13
7.80117e-14 -7.17352e-13 502.814

439.552 -34.1574 3.6536e-12
-34.1574 485.651 -6.35788e-13
3.6536e-12 -6.35788e-13 485.963

389.301 8.32339 1.05612e-12
8.32339 452.472 4.31063e-13
1.05612e-12 4.31063e-13 400.979

385.996 21.8215 5.45845e-12
21.8215 435.913 -1.89833e-12
5.45845e-12 -1.89833e-12 388.815

383.965 35.7909 -5.41197e-13
35.7909 362.44 4.85538e-14
-5.41197e-13 4.85538e-14 318.426

408.313 1.57951 -2.77585e-12
1.57951 332.251 3.5875e-12
-2.77585e-12 3.5875e-12 327.426

485.588 -22.8071 -1.98212e-12
-22.8071 502.987 -1.52572e-12
-1.98212e-12 -1.52572e-12 501.877

351.982 31.1969 -8.18545e-12
31.1969 388.95 -1.03976e-12
-8.18545e-12 -1.03976e-12 312.454

451.489 23.6161 -1.01252e-12
23.6161 478.559 -5.82645e-13
-1.01252e-12 -5.82645e-13 465.349

442.34 -5.35185 2.29505e-12
-5.35185 377.239 9.89431e-13
2.29505e-12 9.89431e-13 387.858

464.302 11.2205 6.71463e-13
11.2205 407.422 -5.30835e-12
6.71463e-13 -5.30835e-12 425.051

505.524 0.429819 2.27537e-12
0.429819 421.728 6.75582e-13
2.27537e-12 6.75582e-13 485.814

449.498 -29.0274 2.29098e-12
-29.0274 502.136 6.72055e-13
2.29098e-12 6.72055e-13 493.723

572.57 -6.3153 -5.4355e-12
-6.3153 589.552 6.51805e-12
-5.4355e-12 6.51805e-12 549.344

463.284 37.4057 3.25665e-12
37.4057 487.169 -1.70382e-13
3.25665e-12 -1.70382e-13 493.199

408.865 1.66385 -1.19371e-12
1.66385 331.698 8.80333e-13
-1.19371e-12 8.80333e-13 308.999

404.359 -32.8017 -1.20437e-12
-32.8017 415.639 -6.63173e-14
-1.20437e-12 -6.63173e-14 387.51

443.293 36.6083 1.43959e-12
36.6083 485.653 -2.3177e-12
1.43959e-12 -2.3177e-12 486.711

444.805 -11.1358 2.55301e-12
-11.1358 499.077 -1.46964e-12
2.55301e-12 -1.46964e-12 471.572

386.191 -25.5263 2.18758e-12
-25.5263 429.038 9.74628e-13
2.18758e-12 9.74628e-13 384.683

449.597 28.8265 -5.2595e-13
28.8265 501.769 -3.19744e-12
-5.2595e-13 -3.19744e-12 493.422

452.851 -26.1526 -3.84285e-13
-26.1526 419.43 -5.24321e-12
-3.84285e-13 -5.24321e-12 419.645

579.621 10.4856 3.54975e-13
10.4856 582.222 2.53989e-12
3.54975e-13 2.53989e-12 549.129

398.451 30.8859 -4.12766e-12
30.8859 422.192 2.06886e-12
-4.12766e-12 2.06886e-12 388.283

515.843 8.12455 2.12526e-12
8.12455 437.417 3.35435e-13
2.12526e-12 3.35435e-13 494.715

493.936 30.1926 2.42117e-12
30.1926 484.883 -7.91071e-13
2.42117e-12 -7.91071e-13 493.931

453.604 23.3371 -1.70042e-12
23.3371 479.308 -3.52696e-12
-1.70042e-12 -3.52696e-12 475.935

510.818 -32.481 5.38828e-13
-32.481 512.574 1.82134e-12
5.38828e-13 1.82134e-12 515.125

510.436 -23.1964 1.40036e-12
-23.1964 473.305 -3.80732e-13
1.40036e-12 -3.80732e-13 489.802

511.498 10.465 1.75275e-12
10.465 558.093 -1.75386e-12
1.75275e-12 -1.75386e-12 523.84

452.311 -23.4393 -2.82914e-12
-23.4393 480.311 6.21784e-12
-2.82914e-12 6.21784e-12 469.086

394.531 -9.7124 3.64745e-13
-9.7124 316.502 3.60031e-12
3.64745e-13 3.60031e-12 295.666

387.41 -14.2826 4.1851e-12
-14.2826 306.144 8.96468e-13
4.1851e-12 8.96468e-13 290.138

547.685 16.5348 4.17444e-12
16.5348 507.87 2.72996e-12
4.17444e-12 2.72996e-12 519.431

436.621 22.5103 -1.86517e-13
22.5103 469.282 -2.65032e-12
-1.86517e-13 -2.65032e-12 447.957

476.098 29.1709 7.99361e-14
29.1709 467.776 -7.07286e-13
7.99361e-14 -7.07286e-13 471.609

450.447 0.68888 4.38642e-12
0.68888 392.896 1.54011e-12
4.38642e-12 1.54011e-12 395.797

478.463 6.56839 -2.87688e-12
6.56839 541.393 -2.40223e-12
-2.87688e-12 -2.40223e-12 507.657

507.47 16.5405 1.94926e-12
16.5405 461.267 -1.94363e-12
1.94926e-12 -1.94363e-12 488.211

390.096 -25.7729 -3.93167e-13
-25.7729 430.173 -1.01489e-12
-3.93167e-13 -1.01489e-12 387.854

456.44 -2.57041 5.6725e-13
-2.57041 517.148 8.79889e-13
5.6725e-13 8.79889e-13 484.966

400.712 13.3716 -1.34174e-12
13.3716 453.13 -1.68872e-12
-1.34174e-12 -1.68872e-12 404.76

487.048 -29.7197 1.41516e-12
-29.7197 465.94 6.78864e-13
1.41516e-12 6.78864e-13 474.386

430.432 -29.9603 1.99959e-12
-29.9603 423.761 -1.78465e-12
1.99959e-12 -1.78465e-12 405.079

399.834 31.6372 -2.77052e-12
31.6372 418.363 7.41925e-13
-2.77052e-12 7.41925e-13 386.121

624.035 -15.0169 -2.48779e-12
-15.0169 582.005 6.88338e-13
-2.48779e-12 6.88338e-13 557.987

494.632 2.0439 -1.82787e-12
2.0439 552.249 2.20387e-12
-1.82787e-12 2.20387e-12 518.038

483.626 20.2948 -1.95755e-12
20.2948 542.149 -1.36424e-12
-1.95755e-12 -1.36424e-12 516.147

544.812 15.4342 -2.33532e-12
15.4342 480.095 -3.75996e-13
-2.33532e-12 -3.75996e-13 515.87

473.884 -26.1947 1.03769e-12
-26.1947 479.892 3.45235e-12
1.03769e-12 3.45235e-12 483.149

452.269 17.9643 4.51076e-12
17.9643 404.631 6.11688e-12
4.51076e-12 6.11688e-12 407.043

531.663 -5.28948 8.91343e-13
-5.28948 580.879 9.31107e-12
8.91343e-13 9.31107e-12 537.216

512.322 -18.987 1.95666e-12
-18.987 464.923 1.32043e-12
1.95666e-12 1.32043e-12 493.156

474.122 -15.6035 9.27318e-12
-15.6035 423.303 1.03813e-12
9.27318e-12 1.03813e-12 439.01

402.122 11.6088 1.88945e-12
11.6088 456.102 8.86994e-13
1.88945e-12 8.86994e-13 407.904

411.05 -25.7458 4.027e-12
-25.7458 435.719 -9.29627e-13
4.027e-12 -9.29627e-13 399.079

532.158 -25.2743 -2.03186e-12
-25.2743 523.291 -4.3241e-12
-2.03186e-12 -4.3241e-12 519.229

423.188 31.9733 8.13927e-12
31.9733 417.378 -4.65109e-12
8.13927e-12 -4.65109e-12 400.428

535.594 -25.1323 -1.71626e-12
-25.1323 505.896 -1.16855e-12
-1.71626e-12 -1.16855e-12 515.774

453.64 2.59834 -3.56929e-12
2.59834 397.14 -2.83625e-12
-3.56929e-12 -2.83625e-12 402.022

311.187 -28.9427 9.04876e-12
-28.9427 376.712 8.36072e-13
9.04876e-12 8.36072e-13 290.084

432.01 -29.2435 3.82154e-12
-29.2435 424.18 -1.70708e-12
3.82154e-12 -1.70708e-12 406.278

353.866 32.1724 -2.48808e-12
32.1724 392.665 -6.14383e-12
-2.48808e-12 -6.14383e-12 313.065

470.463 -11.8744 1.05419e-12
-11.8744 529.674 -1.40865e-12
1.05419e-12 -1.40865e-12 500.425

391.569 -13.8274 -6.81766e-12
-13.8274 449.396 1.85333e-12
-6.81766e-12 1.85333e-12 400.321

602.905 -23.9777 -2.69814e-12
-23.9777 602.308 4.74435e-12
-2.69814e-12 4.74435e-12 557.928

408.497 23.7815 -3.20928e-12
23.7815 442.081 -3.45324e-12
-3.20928e-12 -3.45324e-12 402.346

496.704 -32.7268 5.73704e-12
-32.7268 490.763 1.71655e-12
5.73704e-12 1.71655e-12 497.571

388.306 -11.9683 5.3683e-13
-11.9683 448.428 -6.11896e-12
5.3683e-13 -6.11896e-12 397.138

516.843 -19.1158 -5.61447e-12
-19.1158 465.883 -6.97516e-13
-5.61447e-12 -6.97516e-13 496.371

410.813 23.8879 -4.13654e-12
23.8879 439.452 4.14483e-14
-4.13654e-12 4.14483e-14 400.823

489.069 -4.97643 -2.82796e-12
-4.97643 435.204 -3.17498e-12
-2.82796e-12 -3.17498e-12 460.517

305.865 -30.3523 6.34515e-12
-30.3523 391.551 1.31924e-12
6.34515e-12 1.31924e-12 262.648

438.743 21.0206 2.11061e-12
21.0206 474.059 9.96536e-13
2.11061e-12 9.96536e-13 458.484

445.83 -19.3314 2.34479e-12
-19.3314 394.097 -3.37981e-12
2.34479e-12 -3.37981e-12 399.747

551.703 -21.445 4.11049e-12
-21.445 499.627 -1.33789e-12
4.11049e-12 -1.33789e-12 520.216

424.604 31.7677 2.68111e-12
31.7677 413.452 1.43293e-12
2.68111e-12 1.43293e-12 398.083

459.303 -29.9818 -2.80191e-12
-29.9818 437.77 2.05761e-13
-2.80191e-12 2.05761e-13 439.431

510.755 20.888 -2.56387e-13
20.888 476.198 -9.61601e-13
-2.56387e-13 -9.61601e-13 492.884

461.649 -28.0774 3.35672e-12
-28.0774 485.885 -2.99279e-12
3.35672e-12 -2.99279e-12 488.855

413.851 -26.237 7.1978e-12
-26.237 436.386 8.06466e-13
7.1978e-12 8.06466e-13 401.566

426.21 28.9935 1.17121e-12
28.9935 430.036 1.76215e-12
1.17121e-12 1.76215e-12 406.989

452.645 26.2012 6.27646e-14
26.2012 418.357 -2.93454e-12
6.27646e-14 -2.93454e-12 419.188

522.097 -14.6153 -2.31134e-12
-14.6153 477.301 1.35536e-12
-2.31134e-12 1.35536e-12 500.19

403.688 -16.6254 1.44151e-12
-16.6254 451.89 3.09915e-12
1.44151e-12 3.09915e-12 406.571

496.193 -17.5705 1.54721e-12
-17.5705 447.741 2.03097e-13
1.54721e-12 2.03097e-13 471.636

487.91 16.9139 -4.44089e-13
16.9139 436.39 6.89819e-13
-4.44089e-13 6.89819e-13 460.724

513.442 -9.38115 -4.82462e-12
-9.38115 555.885 -4.84945e-13
-4.82462e-12 -4.84945e-13 523.142

454.128 -13.4351 1.72899e-13
-13.4351 402.304 -3.46434e-12
1.72899e-13 -3.46434e-12 406.872

403.327 0.594924 -1.70989e-12
0.594924 465.875 -4.21233e-12
-1.70989e-12 -4.21233e-12 417.935

475.176 18.5603 2.97658e-12
18.5603 428.903 3.13823e-13
2.97658e-12 3.13823e-13 442.356

451.287 27.6144 -2.52006e-12
27.6144 421.971 -1.58777e-12
-2.52006e-12 -1.58777e-12 420.975

400.995 -15.6934 9.82029e-13
-15.6934 451.53 -3.53258e-12
9.82029e-13 -3.53258e-12 403.864

406.127 -1.20219 1.28993e-12
-1.20219 468.185 4.11523e-12
1.28993e-12 4.11523e-12 421.351

516.323 29.1357 2.08426e-13
29.1357 498.142 1.57652e-12
2.08426e-13 1.57652e-12 504.998

441.839 -10.9255 -8.56352e-13
-10.9255 500.803 2.17189e-12
-8.56352e-13 2.17189e-12 471.284

451.584 -26.726 -1.09364e-12
-26.726 418.898 9.35548e-13
-1.09364e-12 9.35548e-13 419.484

444.532 21.3418 1.08595e-12
21.3418 395.422 -8.92915e-13
1.08595e-12 -8.92915e-13 398.327

497.737 23.6686 1.01904e-12
23.6686 458.222 -4.52083e-13
1.01904e-12 -4.52083e-13 476.684

447.814 5.47396 3.56182e-12
5.47396 508.933 -1.36543e-12
3.56182e-12 -1.36543e-12 477.015

427.787 29.0782 2.57216e-12
29.0782 426.573 1.80419e-12
2.57216e-12 1.80419e-12 405.239

536.932 22.9645 9.29035e-13
22.9645 531.995 6.86562e-13
9.29035e-13 6.86562e-13 522.898

314.842 -59.7118 -6.23383e-12
-59.7118 282.847 1.77044e-12
-6.23383e-12 1.77044e-12 223.492

480.737 -25.0563 2.65743e-12
-25.0563 445.206 1.01548e-13
2.65743e-12 1.01548e-13 456.78

336.765 7.07273 -2.62812e-12
7.07273 409.288 4.26326e-14
-2.62812e-12 4.26326e-14 319.542

460.681 -28.8995 -1.90485e-12
-28.8995 444.876 3.59831e-12
-1.90485e-12 3.59831e-12 443.588

96.4475 -52.7138 -1.76688e-12
-52.7138 306.693 -1.9232e-12
-1.76688e-12 -1.9232e-12 113.732

95.9814 51.4642 -8.5502e-13
51.4642 306.957 -2.76638e-12
-8.5502e-13 -2.76638e-12 114.52

181.561 117.182 -2.91323e-12
117.182 226.131 2.73322e-12
-2.91323e-12 2.73322e-12 113.62

182.859 -117.125 2.7877e-12
-117.125 223.366 -3.24955e-12
2.7877e-12 -3.24955e-12 113.594

321.661 -1.3638 4.18747e-12
-1.3638 84.6742 5.95554e-14
4.18747e-12 5.95554e-14 114.962

274.501 -91.1477 -5.45697e-12
-91.1477 127.45 4.14957e-12
-5.45697e-12 4.14957e-12 113.834

275.197 91.6758 6.0633e-13
91.6758 128.283 -8.64494e-13
6.0633e-13 -8.64494e-13 114.605

525.366 14.3347 -1.64047e-12
14.3347 474.838 -1.61116e-12
-1.64047e-12 -1.61116e-12 502.441

556.891 25.5325 5.53513e-12
25.5325 541.271 1.04213e-13
5.53513e-12 1.04213e-13 533.556

492.243 6.60846 2.04399e-12
6.60846 439.257 -3.81495e-12
2.04399e-12 -3.81495e-12 471.541

470.446 21.7926 3.25547e-12
21.7926 424.648 -2.54078e-12
3.25547e-12 -2.54078e-12 438.328

410.103 17.7518 -5.11561e-12
17.7518 461.222 -5.19703e-12
-5.11561e-12 -5.19703e-12 425.176

448.153 28.91 -1.05397e-12
28.91 424.84 -2.80309e-12
-1.05397e-12 -2.80309e-12 420.882

487.287 -29.6701 -4.17444e-13
-29.6701 465.764 -3.20396e-12
-4.17444e-13 -3.20396e-12 474.723

449.511 28.0392 1.31154e-12
28.0392 421.204 2.60414e-12
1.31154e-12 2.60414e-12 418.773

403.089 -2.84314 2.6635e-12
-2.84314 465.532 -2.56032e-12
2.6635e-12 -2.56032e-12 417.672

555.897 -26.0934 8.11203e-14
-26.0934 543.463 -2.86882e-12
8.11203e-14 -2.86882e-12 533.799

405.628 -4.86519 -6.31806e-12
-4.86519 467.27 5.23788e-12
-6.31806e-12 5.23788e-12 420.731

522.414 23.0211 -1.47438e-13
23.0211 499.865 1.19593e-12
-1.47438e-13 1.19593e-12 508.093

423.516 26.8826 -9.6397e-13
26.8826 386.629 -1.49096e-12
-9.6397e-13 -1.49096e-12 373.146

480.244 -13.217 6.15019e-12
-13.217 532.89 1.25233e-13
6.15019e-12 1.25233e-13 512.126

484.347 13.7324 -7.14628e-12
13.7324 432.908 -1.24227e-12
-7.14628e-12 -1.24227e-12 457.011

457.512 -29.9979 -5.81461e-13
-29.9979 437.112 1.90692e-12
-5.81461e-13 1.90692e-12 437.967

454.455 -24.7225 -6.31199e-13
-24.7225 416.935 -1.53507e-12
-6.31199e-13 -1.53507e-12 419.985

547.51 -16.0803 -1.92972e-12
-16.0803 509.416 -1.77813e-12
-1.92972e-12 -1.77813e-12 519.5

476.116 27.9369 4.33194e-12
27.9369 449.84 -2.37499e-12
4.33194e-12 -2.37499e-12 457.06

469.247 23.9862 2.72375e-14
23.9862 427.981 -4.43142e-12
2.72375e-14 -4.43142e-12 439.964

432.558 -2.79245 1.14712e-12
-2.79245 493.785 -5.05077e-13
1.14712e-12 -5.05077e-13 457.242

417.735 5.87471 -2.4249e-12
5.87471 479.707 4.358e-13
-2.4249e-12 4.358e-13 440.311

463.163 2.64776 2.67756e-12
2.64776 402.406 -2.60488e-12
2.67756e-12 -2.60488e-12 422.454

438.793 -7.29296 7.14095e-13
-7.29296 374.031 -6.0858e-12
7.14095e-13 -6.0858e-12 381.34

454.986 30.4954 -1.87939e-12
30.4954 439.15 -8.1594e-13
-1.87939e-12 -8.1594e-13 437.97

478.609 -26.164 -4.00983e-12
-26.164 443.678 1.73668e-12
-4.00983e-12 1.73668e-12 454.781

525.826 -21.2558 -2.54907e-12
-21.2558 497.946 3.78098e-12
-2.54907e-12 3.78098e-12 508.742

437.871 -31.646 2.17959e-12
-31.646 437.794 3.21284e-12
2.17959e-12 3.21284e-12 426.992

417.723 -27.7974 -3.39876e-12
-27.7974 444.541 -8.2719e-13
-3.39876e-12 -8.2719e-13 419.821

430.784 29.8994 -1.623e-12
29.8994 442.887 -5.44157e-13
-1.623e-12 -5.44157e-13 426.631

416.354 -9.58126 -9.26185e-13
-9.58126 475.362 1.84978e-12
-9.26185e-13 1.84978e-12 436.589

429.025 -1.54672 -4.78802e-12
-1.54672 492.017 3.18619e-12
-4.78802e-12 3.18619e-12 454.129

445.309 5.74722 -1.08489e-12
5.74722 508.186 1.66385e-13
-1.08489e-12 1.66385e-13 475.047

414.75 -21.0981 2.78888e-12
-21.0981 458.556 1.12207e-12
2.78888e-12 1.12207e-12 426.199

497.007 24.1179 1.16529e-12
24.1179 455.828 -1.17624e-12
1.16529e-12 -1.17624e-12 474.725

483.525 -9.59293 -1.87761e-12
-9.59293 430.245 9.88691e-13
-1.87761e-12 9.88691e-13 455.358

415.761 7.46751 1.77452e-12
7.46751 477.271 2.07182e-12
1.77452e-12 2.07182e-12 437.047

444.084 -9.70222 -7.50173e-13
-9.70222 501.649 1.81188e-12
-7.50173e-13 1.81188e-12 471.142

433.307 -16.3362 1.5928e-12
-16.3362 481.826 -1.73372e-12
1.5928e-12 -1.73372e-12 455.805

463.692 -8.24233 9.49759e-13
-8.24233 406.462 5.78796e-12
9.49759e-13 5.78796e-12 421.604

494.568 -32.3468 -2.87563e-12
-32.3468 487.752 3.55242e-12
-2.87563e-12 3.55242e-12 496.383

423.076 9.32554 -5.97433e-12
9.32554 479.242 9.0535e-13
-5.97433e-12 9.0535e-13 441.115

564.447 -18.2143 1.7204e-12
-18.2143 530.048 -2.47698e-12
1.7204e-12 -2.47698e-12 531.938

309.139 24.8333 1.70649e-12
24.8333 379.543 -7.2049e-12
1.70649e-12 -7.2049e-12 289.889

501.828 -26.6299 -6.51657e-12
-26.6299 499.613 3.49779e-12
-6.51657e-12 3.49779e-12 501.327

515.773 -30.2034 -5.76724e-13
-30.2034 498.52 -6.19356e-13
-5.76724e-13 -6.19356e-13 505.042

429.353 -0.700071 1.82898e-12
-0.700071 492.142 1.73728e-12
1.82898e-12 1.73728e-12 454.28

475.033 -16.6274 -1.56852e-12
-16.6274 428.471 3.47988e-12
-1.56852e-12 3.47988e-12 442.093

462.434 12.8426 -9.36566e-13
12.8426 511.415 -5.92297e-12
-9.36566e-13 -5.92297e-12 489.254

240.841 -3.18289 -5.27119e-12
-3.18289 360.795 1.69346e-12
-5.27119e-12 1.69346e-12 227.035

432.536 14.2779 -2.44641e-12
14.2779 485.505 3.79193e-12
-2.44641e-12 3.79193e-12 457.019

458.255 -29.5 -2.90553e-12
-29.5 443.311 1.8184e-12
-2.90553e-12 1.8184e-12 440.898

304.273 25.114 2.65151e-12
25.114 394.702 2.15531e-13
2.65151e-12 2.15531e-13 264.423

603.602 26.0875 -1.80712e-11
26.0875 598.004 1.62685e-12
-1.80712e-11 1.62685e-12 558.244

608.333 -27.7956 -5.71025e-12
-27.7956 595.081 4.30693e-12
-5.71025e-12 4.30693e-12 558.378

463.635 -30.4281 4.5759e-12
-30.4281 459.177 -4.52941e-12
4.5759e-12 -4.52941e-12 459.209

434.723 -31.1728 1.03206e-12
-31.1728 436.499 2.28913e-12
1.03206e-12 2.28913e-12 424.796

474.252 20.8337 -6.34752e-13
20.8337 432.049 -9.91207e-13
-6.34752e-13 -9.91207e-13 444.109

465.373 15.012 -2.5994e-13
15.012 410.245 5.18903e-12
-2.5994e-13 5.18903e-12 427.597

646.087 3.07675 -2.52872e-12
3.07675 645.742 -1.66149e-12
-2.52872e-12 -1.66149e-12 574.694

649.905 -6.99014 1.39052e-11
-6.99014 641.416 -1.18717e-11
1.39052e-11 -1.18717e-11 575.222

497.142 4.8239 -2.96711e-12
4.8239 442.177 1.81721e-12
-2.96711e-12 1.81721e-12 477.554

443.691 6.73446 -4.27347e-12
6.73446 503.135 5.92119e-16
-4.27347e-12 5.92119e-16 471.186

442.101 6.73669 1.8158e-12
6.73669 502.66 1.7432e-12
1.8158e-12 1.7432e-12 469.908

321.627 58.6553 1.09376e-11
58.6553 281.203 2.65743e-12
1.09376e-11 2.65743e-12 225.146

420.362 -28.2119 5.4244e-12
-28.2119 444.168 9.99497e-13
5.4244e-12 9.99497e-13 421.165

520.714 17.9731 -3.33629e-12
17.9731 467.666 1.48355e-12
-3.33629e-12 1.48355e-12 499.642

473.134 9.54249 2.15058e-12
9.54249 421.33 -4.44089e-14
2.15058e-12 -4.44089e-14 436.34

440.771 -26.7338 1.24049e-12
-26.7338 450.873 -4.26326e-14
1.24049e-12 -4.26326e-14 433.552

469.425 -20.2452 -4.47464e-12
-20.2452 422.848 -8.00841e-13
-4.47464e-12 -8.00841e-13 437.311

312.564 60.2533 -9.28443e-13
60.2533 281.45 3.59653e-12
-9.28443e-13 3.59653e-12 223.283

492.815 31.0722 1.41783e-12
31.0722 489.17 -2.52272e-12
1.41783e-12 -2.52272e-12 493.268

410.993 -19.7945 -4.44119e-12
-19.7945 458.031 4.24964e-12
-4.44119e-12 4.24964e-12 423.632

474.271 28.8665 3.55449e-12
28.8665 449.769 -7.41333e-13
3.55449e-12 -7.41333e-13 456.654

431.088 -4.14748 1.65682e-12
-4.14748 493.122 -3.55863e-13
1.65682e-12 -3.55863e-13 456.603

424.066 19.6173 2.23377e-12
19.6173 465.863 -4.64636e-12
2.23377e-12 -4.64636e-12 434.244

452.89 30.5301 -3.73627e-13
30.5301 443.737 7.10543e-15
-3.73627e-13 7.10543e-15 439.744

428.78 -22.4826 5.86198e-12
-22.4826 461.287 -3.55686e-12
5.86198e-12 -3.55686e-12 433.949

443.716 -27.3631 -5.8454e-12
-27.3631 450.579 -1.75445e-12
-5.8454e-12 -1.75445e-12 435.182

294.862 11.2611 -9.18673e-12
11.2611 372.699 1.76451e-12
-9.18673e-12 1.76451e-12 258.182

357.408 -33.4705 -8.74323e-12
-33.4705 389.241 -7.08174e-13
-8.74323e-12 -7.08174e-13 314.229

419.788 -11.6948 -3.26724e-12
-11.6948 476.512 -1.30325e-12
-3.26724e-12 -1.30325e-12 439.48

478.541 26.4934 1.19312e-12
26.4934 446.935 8.72783e-13
1.19312e-12 8.72783e-13 456.219

452.487 29.4881 6.9574e-13
29.4881 449.17 4.31063e-13
6.9574e-13 4.31063e-13 442.536

426.945 -21.4429 -3.1027e-13
-21.4429 461.935 2.60532e-12
-3.1027e-13 2.60532e-12 432.767

423.064 -11.7878 -3.19034e-12
-11.7878 476.799 2.79066e-12
-3.19034e-12 2.79066e-12 440.065

457.85 28.4199 -3.43429e-12
28.4199 447.229 1.11496e-12
-3.43429e-12 1.11496e-12 442.707

425.24 -13.8837 3.62969e-13
-13.8837 476.57 -1.13924e-12
3.62969e-13 -1.13924e-12 442.242

311.356 27.8675 1.17305e-11
27.8675 377.511 -8.78704e-13
1.17305e-11 -8.78704e-13 290.076

485.285 -4.0385 -5.02107e-12
-4.0385 545.168 -4.39648e-12
-5.02107e-12 -4.39648e-12 511.157

433.123 31.0402 1.2624e-12
31.0402 439.769 1.74142e-12
1.2624e-12 1.74142e-12 426.153

509.449 14.9057 -3.54206e-12
14.9057 463.293 4.55636e-13
-3.54206e-12 4.55636e-13 488.739

517.052 -15.9322 -1.06493e-12
-15.9322 467.711 -9.80253e-13
-1.06493e-12 -9.80253e-13 494.053

384.047 -24.2146 2.67401e-12
-24.2146 306.037 6.87095e-12
2.67401e-12 6.87095e-12 285.445

442.42 -21.2735 2.70095e-12
-21.2735 476.151 3.36442e-12
2.70095e-12 3.36442e-12 459.461

447.97 26.7065 2.54522e-12
26.7065 466.355 -3.7262e-12
2.54522e-12 -3.7262e-12 457.981

523.089 -21.7268 -2.42088e-12
-21.7268 543.909 -2.64433e-12
-2.42088e-12 -2.64433e-12 525.424

579.64 14.0972 -5.62735e-12
14.0972 617.665 -3.82509e-13
-5.62735e-12 -3.82509e-13 557.14

620.247 9.44489 6.4612e-12
9.44489 576.903 -1.07144e-12
6.4612e-12 -1.07144e-12 556.959

523.585 32.7015 1.07706e-12
32.7015 520.758 3.15836e-12
1.07706e-12 3.15836e-12 519.641

415.023 26.0116 -1.89804e-12
26.0116 449.052 3.70311e-12
-1.89804e-12 3.70311e-12 420.51

478.241 26.6684 2.4715e-12
26.6684 444.903 -4.37842e-12
2.4715e-12 -4.37842e-12 455.642

332.464 45.2049 -1.14279e-12
45.2049 349.598 -1.12503e-13
-1.14279e-12 -1.12503e-13 286.831

571.453 -11.336 2.62797e-12
-11.336 614.519 4.8462e-12
2.62797e-12 4.8462e-12 554.685

641.342 -3.42866 3.94342e-13
-3.42866 636.899 -2.77349e-12
3.94342e-13 -2.77349e-12 572.472

634.934 -0.2063 4.68766e-12
-0.2063 643.193 1.06262e-11
4.68766e-12 1.06262e-11 572.299

273.039 -53.8213 2.81967e-12
-53.8213 316.54 -6.33567e-12
2.81967e-12 -6.33567e-12 220.976

566.729 -11.5965 -7.00255e-12
-11.5965 562.203 -6.38837e-12
-7.00255e-12 -6.38837e-12 541.001

563.84 8.80794 -9.02167e-13
8.80794 587.036 3.19004e-12
-9.02167e-13 3.19004e-12 546.936

478.39 -26.2062 -2.404e-12
-26.2062 440.574 -2.12482e-12
-2.404e-12 -2.12482e-12 453.617

494.461 1.00782 -5.05074e-12
1.00782 545.877 -3.73627e-12
-5.05074e-12 -3.73627e-12 514.177

447.792 -20.2739 2.91485e-12
-20.2739 484.308 2.69e-12
2.91485e-12 2.69e-12 470.777

506.449 6.25607 -1.83646e-12
6.25607 443.52 5.90047e-13
-1.83646e-12 5.90047e-13 486.265

461.41 15.596 1.31845e-12
15.596 521.387 -1.88975e-12
1.31845e-12 -1.88975e-12 497.688

471.302 7.18981 -2.05456e-12
7.18981 528.137 -6.85259e-12
-2.05456e-12 -6.85259e-12 497.817

493.906 20.3994 -4.55162e-12
20.3994 451.649 1.81188e-12
-4.55162e-12 1.81188e-12 469.885

241.13 -3.11394 5.38488e-12
-3.11394 358.667 6.01593e-12
5.38488e-12 6.01593e-12 227.133

463.843 -27.6326 2.33295e-12
-27.6326 463.537 -2.19084e-13
2.33295e-12 -2.19084e-13 461.329

488.482 -26.1233 -2.98902e-12
-26.1233 481.733 6.20985e-12
-2.98902e-12 6.20985e-12 486.002

497.671 -31.4835 1.53862e-12
-31.4835 490.095 -1.57696e-12
1.53862e-12 -1.57696e-12 499.113

355.707 32.7621 -5.61329e-13
32.7621 285.859 -4.85538e-14
-5.61329e-13 -4.85538e-14 248.443

563.965 -20.1133 3.98496e-13
-20.1133 569.684 -8.32075e-13
3.98496e-13 -8.32075e-13 542.67

337.744 54.34 2.47743e-12
54.34 356.76 7.93676e-12
2.47743e-12 7.93676e-12 258.954

477.203 -21.4371 2.72848e-12
-21.4371 506.628 -5.03301e-13
2.72848e-12 -5.03301e-13 500.376

504.919 14.6513 2.53368e-12
14.6513 452.125 1.2584e-12
2.53368e-12 1.2584e-12 481.697

449.98 -14.5783 -4.448e-12
-14.5783 397.111 3.64804e-12
-4.448e-12 3.64804e-12 400.968

452.738 24.0523 1.5176e-12
24.0523 478.93 -3.37508e-14
1.5176e-12 -3.37508e-14 467.989

493.813 20.4317 -5.15499e-12
20.4317 449.635 4.42875e-12
-5.15499e-12 4.42875e-12 469.478

505.67 11.3958 2.58971e-12
11.3958 564.513 2.7572e-12
2.58971e-12 2.7572e-12 526.822

476.036 -31.5859 1.59517e-12
-31.5859 470.497 -1.58096e-13
1.59517e-12 -1.58096e-13 475.201

559.365 19.8118 1.41191e-12
19.8118 510.546 1.38852e-12
1.41191e-12 1.38852e-12 526.598

440.098 -18.4493 2.85638e-12
-18.4493 482.616 -8.8581e-13
2.85638e-12 -8.8581e-13 459.288

466.025 4.28585 -8.49585e-13
4.28585 526.241 -3.47574e-12
-8.49585e-13 -3.47574e-12 495.639

588.707 9.93002 -3.09323e-12
9.93002 552.542 6.8255e-12
-3.09323e-12 6.8255e-12 545.286

590.489 -8.51723 2.8099e-12
-8.51723 554.883 -2.45996e-12
2.8099e-12 -2.45996e-12 545.803

382.431 18.5196 -9.59233e-13
18.5196 302.374 -1.36898e-12
-9.59233e-13 -1.36898e-12 286.224

502.824 7.96757 -3.10922e-12
7.96757 453.737 9.51831e-14
-3.10922e-12 9.51831e-14 487.902

232.873 7.74404 3.59046e-12
7.74404 381.611 -2.6669e-12
3.59046e-12 -2.6669e-12 187.24

237.044 -11.3893 -3.51023e-12
-11.3893 387.305 -4.95959e-12
-3.51023e-12 -4.95959e-12 189.505

249.348 56.42 -9.04758e-13
56.42 354.866 -1.82373e-12
-9.04758e-13 -1.82373e-12 184.076

505.146 -28.9549 -4.43142e-12
-28.9549 478.747 -1.10401e-12
-4.43142e-12 -1.10401e-12 491.473

258.543 -49.2078 -2.60177e-12
-49.2078 341.939 -5.31486e-12
-2.60177e-12 -5.31486e-12 220.801

249.353 -55.9626 -2.66927e-12
-55.9626 344.839 -1.80478e-12
-2.66927e-12 -1.80478e-12 181.167

434.793 26.2306 2.60532e-13
26.2306 454.54 3.44968e-12
2.60532e-13 3.44968e-12 432.96

330.007 73.8615 5.44749e-12
73.8615 280.078 7.57912e-14
5.44749e-12 7.57912e-14 184.88

540.217 13.0438 3.73893e-12
13.0438 555.05 -1.08654e-13
3.73893e-12 -1.08654e-13 532.186

562.481 0.0469193 -1.33345e-12
0.0469193 532.55 9.79365e-13
-1.33345e-12 9.79365e-13 531.979

338.687 -73.1465 8.62125e-13
-73.1465 279.925 3.55035e-12
8.62125e-13 3.55035e-12 186.363

432.806 -23.4325 5.13811e-12
-23.4325 466.459 -2.89961e-12
5.13811e-12 -2.89961e-12 447.709

359.039 34.7422 -6.34752e-13
34.7422 311.064 8.84744e-12
-6.34752e-13 8.84744e-12 258.118

267.772 63.5069 -3.60008e-13
63.5069 345.295 -5.21065e-14
-3.60008e-13 -5.21065e-14 185.898

293.776 21.6384 7.27359e-12
21.6384 367.772 -2.93217e-12
7.27359e-12 -2.93217e-12 254.576

267.643 -65.9363 -7.96282e-12
-65.9363 344.93 -3.46745e-12
-7.96282e-12 -3.46745e-12 184.353

291.722 -12.3855 -5.30124e-12
-12.3855 370.994 4.13536e-12
-5.30124e-12 4.13536e-12 253.521

550.386 6.83442 4.74694e-12
6.83442 582.161 2.76283e-12
4.74694e-12 2.76283e-12 541.218

329.989 -45.9932 -5.24262e-12
-45.9932 341.919 1.05042e-12
-5.24262e-12 1.05042e-12 276.701

259.853 47.5488 7.35412e-12
47.5488 340.314 4.63511e-12
7.35412e-12 4.63511e-12 223.213

370.308 37.9218 4.56642e-12
37.9218 244.981 -1.66089e-12
4.56642e-12 -1.66089e-12 187.41

482.03 -29.2935 -2.75927e-13
-29.2935 460.649 -7.43701e-13
-2.75927e-13 -7.43701e-13 467.849

481.097 12.8952 -1.60013e-12
12.8952 525.96 -3.68002e-13
-1.60013e-12 -3.68002e-13 504.23

354.524 -38.1265 -3.35376e-12
-38.1265 300.162 -4.31063e-12
-3.35376e-12 -4.31063e-12 251.893

482.675 -28.8091 8.43177e-13
-28.8091 460.453 -2.34775e-12
8.43177e-13 -2.34775e-12 468.596

365.354 -36.3535 1.76688e-12
-36.3535 231.046 3.72916e-12
1.76688e-12 3.72916e-12 182.822

481.641 -28.3245 2.89191e-12
-28.3245 472.89 4.60076e-13
2.89191e-12 4.60076e-13 478.052

436.491 -25.3042 5.52358e-12
-25.3042 466.372 7.11135e-13
5.52358e-12 7.11135e-13 448.347

314.876 69.4775 -5.2817e-12
69.4775 292.215 -1.13687e-13
-5.2817e-12 -1.13687e-13 184.576

290.863 -22.9413 3.5764e-12
-22.9413 359.271 3.68535e-12
3.5764e-12 3.68535e-12 247.105

312.476 -71.7101 4.73695e-14
-71.7101 288.194 7.57912e-14
4.73695e-14 7.57912e-14 182.078

268.62 50.7547 -9.04758e-13
50.7547 320.153 5.92119e-14
-9.04758e-13 5.92119e-14 221.572

460.002 -30.2217 1.61767e-12
-30.2217 454.984 3.5684e-12
1.61767e-12 3.5684e-12 454.536

559.383 -14.6426 5.85221e-12
-14.6426 544.499 -2.6293e-12
5.85221e-12 -2.6293e-12 533.823

635.94 11.0857 6.88153e-12
11.0857 631.416 -5.4919e-14
6.88153e-12 -5.4919e-14 570.097

619.994 -5.16129 -2.72064e-12
-5.16129 639.757 8.24679e-12
-2.72064e-12 8.24679e-12 568.576

453.999 13.0848 -2.18433e-12
13.0848 506.696 1.0066e-14
-2.18433e-12 1.0066e-14 482.705

634.171 -10.66 -3.10655e-12
-10.66 631.346 -5.35261e-12
-3.10655e-12 -5.35261e-12 569.952

622.731 4.09373 -1.97472e-13
4.09373 642.701 -2.76279e-12
-1.97472e-13 -2.76279e-12 569.776

643.397 7.42492 -8.35509e-12
7.42492 619.18 7.67534e-13
-8.35509e-12 7.67534e-13 569.099

584.829 -12.1065 2.13762e-12
-12.1065 631.701 -6.47364e-12
2.13762e-12 -6.47364e-12 560.677

307.533 -30.4829 2.65861e-12
-30.4829 371.749 -7.81597e-13
2.65861e-12 -7.81597e-13 280.858

589.692 -12.9721 -4.0643e-12
-12.9721 549.193 -3.58587e-12
-4.0643e-12 -3.58587e-12 543.924

527.319 -34.4123 -3.90769e-12
-34.4123 521.592 4.31033e-12
-3.90769e-12 4.31033e-12 520.081

565.55 -18.1793 4.05039e-12
-18.1793 538.085 -2.55499e-13
4.05039e-12 -2.55499e-13 534.364

502.711 15.4637 5.22959e-12
15.4637 452.248 3.47041e-12
5.22959e-12 3.47041e-12 480.341

586.4 9.85817 -1.46538e-12
9.85817 642.159 4.86973e-12
-1.46538e-12 4.86973e-12 563.185

636.683 19.2192 1.36187e-12
19.2192 591.772 1.30225e-11
1.36187e-12 1.30225e-11 563.007

569.86 11.3129 4.86722e-13
11.3129 544.432 3.91109e-12
4.86722e-13 3.91109e-12 536.54

353.546 -15.346 8.21861e-13
-15.346 231.577 2.71901e-12
8.21861e-13 2.71901e-12 219.08

437.344 24.9735 1.03473e-12
24.9735 462.06 -1.27602e-12
1.03473e-12 -1.27602e-12 445.859

317.178 -61.3756 6.43278e-12
-61.3756 277.927 -4.36984e-12
6.43278e-12 -4.36984e-12 218.154

334.302 -57.4752 7.14806e-12
-57.4752 357.425 -2.56269e-12
7.14806e-12 -2.56269e-12 252.616

383.445 -36.5564 1.28845e-12
-36.5564 305.825 8.87231e-12
1.28845e-12 8.87231e-12 257.838

562.57 -5.15802 1.95236e-12
-5.15802 616.995 -7.41333e-13
1.95236e-12 -7.41333e-13 553.041

562.277 2.89175 -2.04577e-12
2.89175 615.862 -5.51825e-12
-2.04577e-12 -5.51825e-12 552.64

598.823 -24.4444 -9.74717e-12
-24.4444 575.811 5.62972e-12
-9.74717e-12 5.62972e-12 551.67

602.384 -21.7476 -1.12411e-11
-21.7476 573.5 -1.9913e-12
-1.12411e-11 -1.9913e-12 551.936

598.835 26.1227 -3.47367e-12
26.1227 580.523 1.85407e-13
-3.47367e-12 1.85407e-13 552.825

625.775 3.09097 5.21701e-12
3.09097 630.762 -3.32419e-12
5.21701e-12 -3.32419e-12 568.499

599.114 -20.4996 -2.12985e-12
-20.4996 576.423 3.6607e-12
-2.12985e-12 3.6607e-12 552.359

607.856 -18.5611 -4.88054e-13
-18.5611 620.293 -1.48818e-12
-4.88054e-13 -1.48818e-12 563.268

632.931 2.42824 -1.08217e-11
2.42824 635.547 -1.08439e-11
-1.08217e-11 -1.08439e-11 570.582

607.937 -20.5151 -5.89447e-12
-20.5151 572.493 1.03532e-12
-5.89447e-12 1.03532e-12 553.497

607.122 20.9444 7.52576e-12
20.9444 573.751 2.12689e-12
7.52576e-12 2.12689e-12 553.9

633.882 -3.4518 -5.06247e-12
-3.4518 636.797 1.67623e-11
-5.06247e-12 1.67623e-11 571.356

632.21 -3.10774 -5.16491e-12
-3.10774 625.789 1.3871e-11
-5.16491e-12 1.3871e-11 569.473

609.728 12.1082 -3.33245e-12
12.1082 620.516 -6.21651e-13
-3.33245e-12 -6.21651e-13 563.998

587.265 26.9191 -1.10697e-12
26.9191 583.077 -3.23527e-12
-1.10697e-12 -3.23527e-12 551.793

FIELD solute_concentration_TPM 2
S_ext 1 563 float
0.241636
0.241623
0.241617
0.241622
0.24166
0.241618
0.241636
0.241621
0.241615
0.241625
0.241627
0.241622
0.24162
0.241625
0.24165
0.241616
0.24163
0.241621
0.241614
0.241615
0.241616
0.241727
0.241617
0.241617
0.241615
0.241622
0.241625
0.24162
0.241615
0.241692
0.241618
0.241615
0.241626
0.241679
0.241679
0.241678
0.241692
0.241676
0.24162
0.241626
0.241616
0.241693
0.241692
0.241618
0.241621
0.241614
0.241614
0.241615
0.241618
0.241616
0.241616
0.241614
0.241659
0.241613
0.241657
0.241621
0.241679
0.241614
0.241679
0.241617
0.24163
0.241638
0.241624
0.241638
0.241639
0.241631
0.241631
0.241621
0.241616
0.241626
0.241659
0.241658
0.241615
0.241634
0.241616
0.241626
0.241648
0.24163
0.241622
0.241614
0.241618
0.241662
0.241636
0.241618
0.241616
0.241621
0.241619
0.241634
0.241621
0.241727
0.241613
0.241728
0.24165
0.241632
0.241613
0.241616
0.241618
0.241623
0.241647
0.241619
0.241614
0.241614
0.241618
0.24162
0.241624
0.241621
0.241639
0.241619
0.241618
0.241628
0.241617
0.24162
0.241619
0.241621
0.241621
0.241613
0.241681
0.241618
0.241682
0.241614
0.241614
0.241646
0.241625
0.241632
0.241631
0.241649
0.241677
0.241624
0.241618
0.241614
0.241662
0.241623
0.241635
0.241623
0.241614
0.241682
0.241619
0.241621
0.241638
0.241681
0.241614
0.241626
0.241615
0.241625
0.241618
0.241622
0.241626
0.241621
0.241617
0.241614
0.241617
0.241626
0.241615
0.241619
0.241624
0.241623
0.241626
0.241614
0.241614
0.241618
0.241615
0.241615
0.24162
0.241616
0.241615
0.241621
0.241614
0.241614
0.241615
0.241614
0.241651
0.241614
0.241615
0.241627
0.241613
0.241638
0.241651
0.241625
0.241657
0.241625
0.241615
0.241622
0.241623
0.241615
0.241632
0.241615
0.241631
0.241637
0.241653
0.241622
0.241633
0.241617
0.241614
0.241615
0.241623
0.241619
0.24162
0.241634
0.241625
0.24163
0.241625
0.241613
0.241613
0.241634
0.241615
0.241635
0.241632
0.241615
0.241643
0.241626
0.241646
0.241627
0.241622
0.241637
0.241614
0.241628
0.241612
0.241636
0.241631
0.24163
0.241628
0.241628
0.241628
0.241628
0.241626
0.241646
0.241647
0.241647
0.241647
0.241661
0.241661
0.241613
0.241626
0.241624
0.241613
0.24165
0.24165
0.241625
0.241613
0.241623
0.241623
0.241613
0.241644
0.241613
0.241638
0.241623
0.241613
0.241613
0.241618
0.241617
0.241635
0.241619
0.241618
0.241612
0.241615
0.241622
0.241629
0.241694
0.241628
0.241619
0.241613
0.241624
0.241623
0.241613
0.241629
0.241615
0.241693
0.241613
0.241631
0.241632
0.241619
0.24165
0.241634
0.241658
0.241619
0.24162
0.241621
0.241656
0.241615
0.241622
0.241614
0.241645
0.241626
0.241613
0.24163
0.241613
0.241627
0.241613
0.241613
0.241709
0.241653
0.241649
0.241649
0.241624
0.241613
0.241677
0.24163
0.241616
0.241613
0.241612
0.241654
0.241613
0.241653
0.241612
0.24162
0.241614
0.241619
0.241638
0.241613
0.24171
0.241612
0.241637
0.241613
0.241635
0.241613
0.241619
0.241625
0.241616
0.241613
0.241655
0.241614
0.241617
0.241634
0.241624
0.241613
0.241613
0.241615
0.241639
0.241613
0.241623
0.241619
0.241657
0.241612
0.241614
0.241617
0.241614
0.241613
0.241614
0.241644
0.241622
0.241614
0.241614
0.241625
0.241625
0.241614
0.241656
0.241629
0.241621
0.241618
0.241618
0.241643
0.241643
0.241643
0.241643
0.241643
0.241644
0.241644
0.24164
0.241674
0.241621
0.241617
0.241614
0.241614
0.241626
0.241615
0.241614
0.241675
0.241614
0.241645
0.241614
0.241645
0.241619
0.241615
0.241614
0.241656
0.241619
0.241616
0.24162
0.241616
0.241612
0.241614
0.241617
0.241619
0.241643
0.241615
0.241613
0.241613
0.241615
0.241619
0.241626
0.241614
0.241625
0.241619
0.241616
0.241623
0.241617
0.241614
0.241632
0.241616
0.241669
0.24162
0.241637
0.241645
0.241619
0.241615
0.24163
0.241628
0.241619
0.241615
0.241625
0.241709
0.24171
0.24162
0.241613
0.241616
0.241613
0.24174
0.241738
0.241622
0.241623
0.241623
0.241629
0.241614
0.241636
0.241614
0.241613
0.241615
0.241629
0.241634
0.241613
0.241619
0.241619
0.241614
0.241615
0.241614
0.241615
0.241625
0.241619
0.241616
0.241621
0.241615
0.241613
0.241615
0.241617
0.241616
0.24162
0.241648
0.241614
0.241629
0.241633
0.241621
0.241617
0.241616
0.241659
0.241708
0.241707
0.241656
0.241613
0.241621
0.241621
0.241704
0.24173
0.241729
0.241629
0.241677
0.241691
0.241618
0.241649
0.241619
0.241625
0.241633
0.241637
0.241624
0.241628
0.241618
0.24163
0.241635
0.241626
0.241683
0.241626
0.241633
0.241626
0.241614
0.241617
0.241623
0.241663
0.241622
0.241662
0.241617
0.241635
0.241691
0.241692
0.241621
0.241628
0.241637
0.241637
0.241637
0.241632
0.24163
0.241638
0.241613
0.241637
0.241664
0.241663
0.241637
0.241615
0.241626
0.241638
0.241626
0.241638
0.241626
0.241679
0.241622
0.241629
0.241637
0.241621
0.241639
0.241626
0.241622
0.241637
0.241625
0.241616
0.241638
0.241626
0.241638
0.241629
0.241618
0.241669
0.241728
0.241726
0.241627
0.241729
0.241728
0.241727
0.241715
0.241621
0.241685
0.241656
0.241674
0.241627
0.241719
0.241718
0.241673
0.241629
0.241614
0.24163
0.241627
0.241626
0.241702
0.241701
0.241699
0.2417
0.241701
0.241728
0.241702
0.241722
0.241733
0.241706
0.241705
0.241733
0.241726
0.241721
0.241702
P_ext 1 563 float
0.000259258
0.000259174
0.000259185
0.000259174
0.00025915
0.000259185
0.000259258
0.000259179
0.000259193
0.000259175
0.000259244
0.000259179
0.000259181
0.000259175
0.000259156
0.000259184
0.000259169
0.000259178
0.000259195
0.000259186
0.000259189
0.000259107
0.000259187
0.000259186
0.000259187
0.000259177
0.00025924
0.000259183
0.000259217
0.000259129
0.000259182
0.000259217
0.000259242
0.000259136
0.000259136
0.000259137
0.000259127
0.000259138
0.000259182
0.000259242
0.000259217
0.000259127
0.000259127
0.000259182
0.000259231
0.000259217
0.000259194
0.000259192
0.000259184
0.000259221
0.000259219
0.000259211
0.000259149
0.000259211
0.00025915
0.000259233
0.000259136
0.000259211
0.000259136
0.000259186
0.000259169
0.000259163
0.000259238
0.000259164
0.000259162
0.000259171
0.000259168
0.000259177
0.000259187
0.000259172
0.000259149
0.00025915
0.000259218
0.000259168
0.000259185
0.000259242
0.000259158
0.000259171
0.000259177
0.000259207
0.000259225
0.000259147
0.000259165
0.000259226
0.000259217
0.000259233
0.000259183
0.00025917
0.000259231
0.00025911
0.000259211
0.00025911
0.000259156
0.000259172
0.000259211
0.000259219
0.000259226
0.000259175
0.000259158
0.000259183
0.000259202
0.000259216
0.000259226
0.000259177
0.000259176
0.000259176
0.000259164
0.000259183
0.000259226
0.000259169
0.000259185
0.00025923
0.000259228
0.000259178
0.000259176
0.000259211
0.000259136
0.000259226
0.000259136
0.000259211
0.000259197
0.000259157
0.000259173
0.000259168
0.000259168
0.000259155
0.000259139
0.000259175
0.000259226
0.00025921
0.000259148
0.000259174
0.000259165
0.000259173
0.000259216
0.000259135
0.00025923
0.000259181
0.000259164
0.000259135
0.000259215
0.000259176
0.000259197
0.000259175
0.000259227
0.000259176
0.000259177
0.000259185
0.000259185
0.000259204
0.000259191
0.000259172
0.000259217
0.000259182
0.000259175
0.000259173
0.000259173
0.000259215
0.000259214
0.00025918
0.000259192
0.000259216
0.000259231
0.000259218
0.000259214
0.000259176
0.000259214
0.000259215
0.000259217
0.000259214
0.000259155
0.000259211
0.000259219
0.000259173
0.000259211
0.000259164
0.000259155
0.000259179
0.00025915
0.000259176
0.000259218
0.000259175
0.000259175
0.000259214
0.00025917
0.000259219
0.000259169
0.000259165
0.000259155
0.000259175
0.00025917
0.000259225
0.00025921
0.000259217
0.000259173
0.000259179
0.000259178
0.000259165
0.000259172
0.000259172
0.000259172
0.000259195
0.000259207
0.000259166
0.000259218
0.000259165
0.000259171
0.000259215
0.000259161
0.000259172
0.00025916
0.000259175
0.000259176
0.000259164
0.000259203
0.000259174
0.000259207
0.000259166
0.000259168
0.000259169
0.000259169
0.00025917
0.00025917
0.00025917
0.000259174
0.000259157
0.000259157
0.000259156
0.000259157
0.000259149
0.000259149
0.000259204
0.000259173
0.000259172
0.000259193
0.000259156
0.000259156
0.000259172
0.000259207
0.000259173
0.000259175
0.000259203
0.00025916
0.000259204
0.000259164
0.000259173
0.000259203
0.000259206
0.000259225
0.000259222
0.000259165
0.000259228
0.000259183
0.000259207
0.000259195
0.000259173
0.000259169
0.000259127
0.000259169
0.000259229
0.000259206
0.000259172
0.000259179
0.000259207
0.000259169
0.000259197
0.000259127
0.000259207
0.000259168
0.000259169
0.000259178
0.000259156
0.00025917
0.00025915
0.000259181
0.000259231
0.000259232
0.000259153
0.000259189
0.000259179
0.000259205
0.00025916
0.000259173
0.000259206
0.000259172
0.000259202
0.000259177
0.000259202
0.000259207
0.000259118
0.000259154
0.000259155
0.000259155
0.000259175
0.000259202
0.000259138
0.00025917
0.000259191
0.000259201
0.000259204
0.000259153
0.000259203
0.000259155
0.000259204
0.000259231
0.000259201
0.000259227
0.000259165
0.000259203
0.000259118
0.000259203
0.000259166
0.000259204
0.000259168
0.000259203
0.000259184
0.000259241
0.000259185
0.000259203
0.000259152
0.000259203
0.00025919
0.000259169
0.000259173
0.000259203
0.000259202
0.000259197
0.000259165
0.000259202
0.000259179
0.000259183
0.000259151
0.000259202
0.000259198
0.00025919
0.000259197
0.000259203
0.000259197
0.000259162
0.000259179
0.000259198
0.000259203
0.000259177
0.000259177
0.000259202
0.000259151
0.000259246
0.000259184
0.000259225
0.000259189
0.000259269
0.000259269
0.000259269
0.000259269
0.000259268
0.00025927
0.00025927
0.000259164
0.000259141
0.000259179
0.000259191
0.000259195
0.000259197
0.000259177
0.000259197
0.000259198
0.000259141
0.000259197
0.000259161
0.000259211
0.000259158
0.000259184
0.000259191
0.000259197
0.000259153
0.000259185
0.000259191
0.000259184
0.00025919
0.000259197
0.000259208
0.000259191
0.000259185
0.000259161
0.000259194
0.000259197
0.000259195
0.000259192
0.000259185
0.000259177
0.000259195
0.000259177
0.000259185
0.000259191
0.000259179
0.000259185
0.000259196
0.000259168
0.00025919
0.000259143
0.000259231
0.000259165
0.000259161
0.000259185
0.000259191
0.000259171
0.000259246
0.000259184
0.000259191
0.00025924
0.000259119
0.000259119
0.000259183
0.000259196
0.00025919
0.000259195
0.000259102
0.000259102
0.000259177
0.000259179
0.000259179
0.000259247
0.000259196
0.000259166
0.000259193
0.000259194
0.000259192
0.000259246
0.000259168
0.000259196
0.000259185
0.000259185
0.000259193
0.000259191
0.000259193
0.000259193
0.000259241
0.000259227
0.000259191
0.000259184
0.00025919
0.000259194
0.000259191
0.00025919
0.00025919
0.000259232
0.000259158
0.000259195
0.000259172
0.000259168
0.000259233
0.000259184
0.000259185
0.00025915
0.000259118
0.000259118
0.000259152
0.000259197
0.000259184
0.000259233
0.00025912
0.000259105
0.000259105
0.000259247
0.000259137
0.000259129
0.000259186
0.000259157
0.00025918
0.000259174
0.000259167
0.000259166
0.000259179
0.000259246
0.000259184
0.000259173
0.000259167
0.000259243
0.000259133
0.000259242
0.000259167
0.000259175
0.000259203
0.000259182
0.00025918
0.000259147
0.000259178
0.000259147
0.000259185
0.000259168
0.00025913
0.00025913
0.000259233
0.000259172
0.00025926
0.00025926
0.00025926
0.00025917
0.000259248
0.00025926
0.000259194
0.00025926
0.000259146
0.000259146
0.00025926
0.000259188
0.000259241
0.000259261
0.000259242
0.000259261
0.000259242
0.000259137
0.000259235
0.000259248
0.000259259
0.000259181
0.000259163
0.000259242
0.00025918
0.000259259
0.000259176
0.000259188
0.000259261
0.000259243
0.000259261
0.000259247
0.000259186
0.000259143
0.000259106
0.000259107
0.000259174
0.000259105
0.000259106
0.000259106
0.000259114
0.000259234
0.000259132
0.000259153
0.000259142
0.000259175
0.000259112
0.000259113
0.000259141
0.000259247
0.000259189
0.000259249
0.000259244
0.000259241
0.000259121
0.000259122
0.000259123
0.000259123
0.000259122
0.000259107
0.000259123
0.000259112
0.000259105
0.000259121
0.000259121
0.000259105
0.000259107
0.000259112
0.000259123
FIELD solute_flux_TPM 2
S_ext 3 563 float
-1.28657e-05 4.1494e-06 1.69617e-18
2.30045e-06 2.9698e-06 2.0956e-19
-4.53962e-06 -3.05406e-06 -4.14363e-19
-1.54564e-06 1.66076e-06 -5.0024e-19
1.41371e-05 -4.36012e-06 -7.28853e-19
5.65488e-07 -5.33558e-06 -1.26654e-19
-1.26764e-05 -4.20106e-06 6.55532e-19
-6.12062e-06 -3.40062e-06 1.6902e-19
6.24803e-06 4.67742e-07 8.65456e-19
4.51491e-06 -2.36071e-06 1.29473e-18
9.17339e-06 2.09819e-06 1.04355e-18
5.32715e-08 -6.95111e-06 5.00252e-19
5.62152e-06 3.3228e-06 -9.98277e-19
2.10322e-06 5.86029e-06 5.87062e-19
1.28226e-05 -2.36739e-06 -1.2298e-18
-5.29109e-06 -8.59227e-08 -8.09553e-20
2.49637e-06 7.20382e-06 2.94296e-19
3.53452e-06 -1.12683e-06 1.33332e-18
2.80393e-06 4.74484e-06 -2.45523e-19
-4.73006e-06 7.23502e-07 1.67962e-19
-4.94396e-07 -6.89837e-06 -1.07678e-18
2.85715e-05 4.03677e-05 2.1179e-18
4.90406e-06 6.12512e-07 6.62093e-19
3.92948e-06 -3.3979e-06 5.35699e-19
-4.76618e-06 -1.355e-06 1.26627e-19
5.15637e-07 -4.52635e-06 -2.08673e-19
1.04623e-05 -7.11897e-07 7.06712e-19
5.51041e-06 3.55509e-06 4.17775e-19
-5.04075e-06 -4.2874e-06 5.21978e-19
3.17739e-05 -8.70937e-06 -3.03054e-18
-5.71608e-06 -3.05609e-06 -2.48172e-19
1.27788e-06 -6.5795e-06 1.32365e-18
7.81507e-06 -7.85566e-06 3.49568e-19
-3.50859e-06 -2.66252e-05 -1.9357e-18
-1.92884e-05 2.35389e-05 2.63366e-18
-2.48203e-05 -1.02524e-05 -3.43441e-19
2.13807e-05 2.75616e-05 1.12847e-18
-2.868e-05 -5.95291e-06 -7.75809e-19
5.869e-06 -3.27867e-06 2.8719e-19
7.66116e-06 8.18301e-06 3.52848e-19
6.62906e-06 -2.68285e-06 5.21877e-19
2.1704e-05 -2.65565e-05 -2.03816e-18
-1.21564e-05 -3.20409e-05 5.24929e-19
-5.30195e-06 3.13526e-06 4.36879e-20
5.48627e-06 -5.31109e-06 7.45629e-19
-6.19286e-06 2.14326e-06 -2.03075e-19
-9.92801e-07 -5.85777e-06 -1.22625e-19
2.10555e-06 5.78882e-06 3.72284e-19
-5.84271e-06 2.60519e-06 -1.63286e-19
-3.48416e-06 5.6181e-06 1.27769e-18
6.60683e-06 2.84179e-06 8.21175e-20
6.47992e-06 -2.47817e-06 7.28175e-19
-1.00185e-05 9.51971e-06 1.66507e-18
-5.24641e-06 -4.27461e-06 1.6329e-19
-1.30204e-05 -3.5569e-06 -6.83686e-19
-7.5261e-06 4.65703e-06 2.05656e-18
-1.91129e-05 -2.42526e-05 -5.18038e-19
1.18126e-06 -6.73282e-06 1.1339e-18
-3.05758e-05 4.47149e-06 -8.65065e-19
1.7494e-06 4.50905e-06 -4.13989e-19
-2.45655e-06 -5.03386e-06 -3.89026e-20
-3.04209e-06 -1.06606e-05 3.41751e-19
9.50198e-06 4.0183e-06 5.52579e-19
6.16729e-06 9.51e-06 1.26949e-18
7.78118e-06 -7.89556e-06 -1.56544e-18
-1.74661e-06 -1.00469e-05 -1.1745e-18
3.32197e-06 -4.61306e-06 -8.39715e-19
-3.68465e-06 -2.91163e-06 6.30304e-19
-3.5878e-06 3.62258e-06 -6.20614e-19
7.84947e-07 -2.43955e-06 1.42094e-18
-9.59315e-06 -9.55577e-06 -9.81106e-19
-1.31511e-05 3.57865e-06 -8.54973e-19
-8.38878e-07 6.87511e-06 1.40438e-18
-8.77825e-06 5.53491e-06 -1.09499e-18
-3.06053e-06 4.55456e-06 -1.64571e-19
-9.64161e-06 1.39398e-06 1.16449e-19
5.21916e-06 -1.20014e-05 -1.52998e-18
-9.63007e-06 -3.44505e-06 -1.67276e-19
8.93737e-08 4.76573e-06 1.58774e-18
6.20147e-06 1.10443e-06 -8.16562e-20
6.42926e-06 -5.1999e-06 1.07614e-18
1.43096e-05 1.25014e-05 1.71797e-19
6.88785e-06 -2.27251e-06 -3.77485e-19
-5.97739e-06 4.28062e-06 1.03378e-18
7.52728e-06 1.07763e-06 -3.99782e-20
-9.64271e-07 8.49651e-06 1.97146e-18
-2.4469e-07 -6.31254e-06 -2.90828e-19
8.87112e-06 4.30481e-06 -2.95072e-19
5.27474e-06 5.4257e-06 2.3547e-19
4.22868e-05 2.63258e-05 -4.38671e-18
-8.88801e-07 6.75704e-06 1.09327e-18
4.42047e-05 -2.48424e-05 2.93254e-18
-1.63805e-05 2.3866e-06 -1.23485e-18
8.41853e-06 5.92708e-06 6.71234e-19
-6.35764e-06 2.41352e-06 -4.47341e-19
3.38477e-06 5.7137e-06 1.60359e-18
1.81617e-06 -8.02181e-06 1.07612e-18
1.89909e-07 4.78653e-06 6.70262e-19
-7.74162e-06 -1.0474e-05 8.70617e-20
3.77912e-07 6.24045e-06 8.75448e-19
6.52887e-06 1.62377e-06 4.916e-19
-2.92516e-06 6.64513e-06 -2.43734e-19
7.48876e-06 -2.62004e-06 4.36722e-19
-1.43602e-06 2.53847e-06 2.93003e-19
4.58655e-06 1.79949e-06 -6.24683e-19
-2.71269e-07 -4.62394e-06 -7.93005e-19
2.63759e-06 -1.06013e-05 -1.05465e-18
5.91614e-06 1.89696e-06 7.89144e-19
-1.28415e-06 7.54841e-06 2.10695e-18
-5.56338e-06 -4.5584e-07 2.94748e-19
3.35428e-06 3.65253e-06 -1.07678e-18
-3.80919e-07 -7.57053e-06 1.46112e-18
7.67886e-06 2.5833e-06 1.74759e-18
1.59752e-06 -2.49048e-06 3.71257e-20
-4.17395e-06 -1.98107e-06 1.17372e-18
-6.19108e-06 -2.93467e-06 -3.96503e-20
1.00078e-05 2.70836e-05 -1.6856e-18
-7.64338e-06 -2.8532e-06 3.59683e-19
1.0147e-05 -2.71597e-05 1.63635e-18
-4.99356e-07 -6.94838e-06 1.45912e-18
5.86624e-06 7.33973e-08 4.9082e-19
-3.99831e-06 1.1573e-05 4.54331e-20
-1.25021e-06 1.66297e-06 1.38226e-18
-3.01719e-06 -8.40995e-06 -9.27567e-19
2.50007e-06 -5.14357e-06 2.00853e-18
6.1858e-06 9.47728e-06 2.97304e-19
2.14701e-05 7.40297e-06 2.44607e-18
4.15224e-06 -2.49531e-06 1.29011e-18
-1.38237e-06 -8.11357e-06 1.71392e-18
5.83576e-06 -3.95472e-06 6.87028e-19
3.26637e-06 1.7094e-05 9.83635e-19
-9.11079e-07 -1.70287e-06 8.40195e-19
-5.40458e-06 -4.45118e-06 -5.07674e-19
-2.39186e-06 5.91861e-07 -8.34315e-19
-4.63841e-06 5.57474e-06 2.41103e-19
1.29305e-05 -2.39867e-05 -1.29416e-18
-4.59214e-06 7.38747e-06 1.86578e-18
-5.86115e-06 3.9986e-06 -3.31522e-19
9.90741e-07 7.43626e-06 2.08089e-19
-1.42896e-05 -2.31598e-05 1.84211e-21
2.777e-06 6.79926e-06 5.2554e-19
8.03395e-06 2.9214e-06 -2.0786e-19
6.27048e-06 -2.77916e-06 4.4983e-19
-1.31104e-06 -4.71271e-06 -1.21564e-18
-6.0359e-06 -5.52263e-06 3.59438e-19
-2.71264e-07 4.76751e-06 -4.14487e-20
7.47244e-06 4.6312e-06 8.78466e-19
6.68105e-06 -3.88587e-06 1.36925e-18
2.96215e-06 -4.39514e-06 1.07604e-18
6.10086e-06 -2.53235e-06 5.30293e-19
5.94366e-06 -2.82455e-06 8.66002e-19
2.47524e-06 7.39215e-07 1.16445e-18
5.32319e-06 4.22197e-06 8.20815e-20
-1.0553e-07 -6.29413e-06 -2.07879e-19
-4.83762e-06 -1.13221e-06 -8.22696e-20
1.08411e-06 -1.66689e-06 -1.12809e-18
-2.56091e-06 6.97198e-06 4.41857e-22
-7.00452e-06 6.63601e-07 5.25156e-19
-2.30142e-06 -6.79037e-06 1.01091e-18
-2.7483e-06 3.28051e-06 -2.48615e-19
4.14208e-06 4.5363e-06 1.26273e-19
5.52187e-06 -3.98356e-06 8.43763e-19
-6.53702e-06 -3.67165e-06 -3.5354e-19
3.58585e-06 -5.5637e-06 1.03957e-18
4.84755e-06 -5.48595e-06 6.44125e-19
-4.18696e-06 2.21351e-06 5.47253e-19
-4.063e-06 -5.77943e-06 4.01728e-19
-6.96491e-06 -1.30436e-06 8.01856e-20
-8.64518e-07 -6.53466e-06 7.20702e-19
3.13482e-06 -6.509e-06 1.0892e-18
-6.20263e-06 -1.5401e-05 -1.14599e-18
8.29601e-07 6.86656e-06 5.6739e-19
-3.13853e-06 -5.71727e-06 8.00721e-19
2.65266e-06 -7.5815e-06 -1.67977e-18
-5.53525e-06 3.8161e-06 4.10438e-20
-7.84045e-06 -7.32675e-06 7.19306e-19
-1.6498e-05 -2.26903e-06 -6.38574e-19
6.20125e-06 -3.94909e-06 2.08444e-18
-2.25988e-06 1.50393e-05 -4.24641e-19
5.9445e-06 -3.33553e-06 1.08035e-18
-6.06143e-06 -2.57593e-06 4.01588e-19
-4.0742e-06 -2.52129e-06 -7.9168e-19
4.23951e-06 2.4562e-06 -1.22973e-19
4.54017e-06 5.74682e-06 2.82294e-19
-8.12092e-06 -5.55945e-06 2.52194e-19
-6.44835e-06 -1.7958e-07 3.59841e-19
-8.915e-06 -1.52056e-06 2.11542e-19
-2.91645e-06 -8.41769e-06 -3.79533e-19
1.00209e-05 1.33498e-05 -1.10847e-18
-5.11679e-06 1.73076e-06 3.77138e-19
7.98426e-07 -9.83466e-06 -3.35098e-19
-7.55909e-06 2.13064e-06 9.97935e-19
5.67937e-06 4.20539e-06 1.64559e-19
9.40423e-07 6.68291e-06 1.16494e-18
-7.24935e-07 2.21913e-06 5.47571e-19
-3.03941e-06 7.63516e-08 4.21353e-19
1.58297e-06 2.57744e-06 -2.90669e-19
-6.68493e-06 2.5335e-06 1.27586e-19
-1.46298e-06 -1.58223e-06 -4.65285e-19
1.68829e-06 9.75251e-06 1.09278e-18
2.3746e-06 -4.14075e-07 -1.65233e-19
-5.465e-06 1.46635e-06 1.28664e-21
-4.00116e-06 4.51979e-06 -3.98744e-20
-1.23833e-06 6.9223e-06 5.0716e-19
-5.73304e-06 3.82726e-06 6.81771e-19
-5.85101e-06 4.78695e-06 1.34897e-18
7.94427e-06 -6.51744e-06 1.84538e-18
7.40451e-06 -8.56831e-07 1.62162e-19
-1.19046e-05 6.10699e-06 -8.03331e-19
6.29666e-07 2.60334e-06 6.24982e-19
1.24386e-05 -1.47832e-06 1.4358e-18
-7.61518e-06 5.57938e-06 -5.83798e-19
-3.74848e-06 2.9287e-06 8.62503e-20
7.00429e-06 2.84172e-06 2.647e-18
5.55895e-06 -3.55096e-06 1.87483e-18
-7.94922e-06 4.28016e-06 -1.59337e-18
-5.85906e-06 -1.24935e-06 1.17842e-18
-8.82633e-06 -1.68035e-06 -1.23358e-21
5.82045e-06 6.12933e-07 2.25498e-18
5.893e-06 -5.71742e-07 2.53754e-19
3.14452e-06 4.42598e-06 -8.32738e-20
3.30302e-06 -4.6066e-06 -1.38127e-18
-2.32569e-06 5.09053e-06 7.15436e-19
-2.36759e-06 -5.16069e-06 7.16826e-19
3.85398e-06 -3.93566e-06 1.67197e-18
-1.24875e-05 2.43303e-06 -6.78025e-19
-1.23377e-05 -2.46568e-06 1.266e-19
-8.2743e-06 9.54749e-06 2.03549e-18
-8.30159e-06 -9.56653e-06 -1.27302e-18
4.33068e-06 -1.26358e-05 1.02034e-18
4.17353e-06 1.25532e-05 -1.24144e-18
5.86642e-07 6.42148e-06 1.59008e-18
5.46724e-06 -3.34595e-07 9.12869e-19
1.14683e-06 -1.62877e-06 -2.98863e-19
-5.93431e-06 6.37087e-07 5.78085e-19
4.39942e-06 -1.24405e-05 1.5223e-18
4.17903e-06 1.24766e-05 -9.78713e-19
2.09805e-06 -3.57253e-08 1.75045e-18
2.18241e-06 5.71332e-06 1.17858e-18
-9.33753e-07 -1.74089e-06 -1.58284e-18
3.76338e-07 -4.73677e-06 6.24483e-19
-5.70276e-06 -2.91065e-06 2.86069e-19
-1.21771e-05 -6.29614e-06 -2.1198e-19
-5.36437e-06 3.53904e-06 -4.02332e-20
1.36421e-06 -7.46346e-06 1.55687e-18
-6.73858e-07 1.36833e-06 -4.0118e-20
-2.63358e-07 -6.46697e-06 2.45037e-19
-1.79152e-06 -5.7668e-06 5.30003e-19
6.15126e-06 5.42341e-06 3.98518e-20
7.04145e-06 -2.81966e-07 5.17613e-19
-7.25731e-06 -2.69529e-06 -5.32178e-23
-4.00714e-06 -7.28201e-06 3.97893e-19
2.87699e-06 4.53963e-06 -1.64545e-19
-5.86626e-06 6.94624e-07 4.07029e-19
5.72457e-06 1.69277e-06 9.45862e-19
-1.94486e-06 -8.33519e-09 4.21557e-19
-3.0916e-06 -4.48855e-06 -5.90326e-19
-5.34039e-06 -2.51239e-05 -2.16703e-18
-5.51726e-06 5.11614e-07 -7.93452e-19
-8.38572e-06 -3.06583e-07 -5.97339e-19
4.20442e-06 -4.53606e-06 5.67555e-19
1.1674e-06 1.67889e-06 5.02136e-19
-3.23274e-07 -6.99993e-06 1.68003e-19
-2.25731e-06 5.5609e-06 -1.62606e-19
-2.97365e-06 4.56953e-06 7.54405e-19
5.94479e-06 -3.51402e-06 1.5181e-18
-2.4435e-05 -7.90996e-06 -8.6811e-19
-3.52638e-06 -4.78383e-06 9.33943e-19
2.43383e-06 5.16371e-06 6.25862e-19
8.99918e-06 1.31498e-06 -1.24963e-19
-1.625e-06 -2.44716e-06 -2.48614e-19
1.23919e-05 2.72204e-06 1.51828e-18
9.01985e-06 -4.33669e-06 1.88909e-18
-6.19477e-08 1.62223e-05 1.06773e-18
2.93916e-06 -4.62938e-06 -2.12317e-19
8.6306e-06 1.90929e-07 3.18109e-19
-7.38988e-06 1.84565e-06 6.32187e-19
1.3694e-05 6.50826e-06 -1.15267e-18
-1.76252e-06 -5.23582e-06 -2.89479e-19
-6.29995e-06 -3.17301e-06 1.67831e-19
6.73396e-06 -3.43063e-08 2.85453e-19
-5.84698e-07 -1.3729e-05 -1.52301e-18
-5.19616e-06 -6.08296e-06 1.71033e-19
2.50154e-06 -5.51372e-06 1.13724e-18
-6.95411e-07 9.52222e-06 5.89061e-19
1.71331e-06 6.45394e-06 3.67895e-19
7.37455e-06 -4.42703e-06 1.46113e-18
-4.87263e-06 4.48614e-06 -2.85651e-19
3.94823e-06 4.69886e-06 -2.43202e-19
-4.2838e-05 1.01262e-05 -1.13327e-18
-6.80419e-06 1.53874e-05 8.07936e-19
8.16832e-06 -9.25852e-06 -2.33474e-18
-3.97091e-06 -1.162e-05 8.95736e-20
-5.52951e-06 1.10226e-06 -1.24875e-19
-6.26556e-06 -2.08129e-06 2.04713e-19
-4.50006e-06 2.48813e-05 1.59066e-18
-5.52737e-06 7.06041e-06 2.95753e-19
6.29531e-06 -1.92626e-06 2.8746e-19
-1.33255e-06 -6.50577e-06 7.78657e-19
-3.46681e-06 5.51268e-06 -3.26271e-19
-1.26383e-05 7.48225e-06 -8.08613e-19
-5.00733e-06 -3.82231e-06 -4.16628e-20
1.02014e-05 -1.30556e-05 1.56984e-18
-6.41672e-06 -3.8616e-07 1.34979e-18
2.29067e-06 -7.29355e-06 1.96212e-19
5.14896e-06 -4.44746e-06 1.47207e-18
4.45327e-06 7.63944e-06 8.38175e-19
1.39859e-06 1.06273e-05 3.39395e-19
9.03485e-07 -6.30663e-06 3.67223e-19
-2.77431e-05 3.2799e-05 -9.13687e-19
-2.90397e-06 -5.76306e-06 1.23923e-19
9.17543e-06 -2.71081e-06 1.71975e-18
-6.34462e-07 6.32132e-06 6.11907e-19
6.06967e-06 -7.2301e-06 1.30147e-18
3.33452e-06 5.69043e-06 9.00423e-19
5.63765e-06 -8.28909e-07 7.04803e-19
3.58057e-06 -1.02597e-05 2.7309e-19
-1.63186e-06 -4.25636e-06 -7.46952e-19
-5.7858e-06 2.42966e-06 -1.2274e-19
-1.19807e-05 1.17692e-05 2.49979e-21
5.39671e-06 3.71073e-06 1.23931e-19
6.05319e-06 -3.67064e-06 1.23752e-18
6.61268e-06 6.93758e-06 -7.59918e-19
-2.92893e-06 -5.77053e-07 2.52901e-19
3.78553e-06 -5.41045e-06 1.14329e-18
-4.35209e-06 -4.80306e-06 6.9558e-19
6.19994e-06 3.03659e-06 4.94386e-19
6.34537e-06 -6.66896e-06 8.83085e-19
2.16176e-06 -6.19842e-06 4.07405e-19
6.2855e-06 -3.758e-06 2.16788e-18
-5.70384e-06 -3.07007e-06 -2.06414e-19
1.07893e-06 -1.55112e-05 -1.83442e-18
-6.30763e-06 1.42819e-06 -5.72869e-19
3.84633e-07 6.75123e-06 1.51868e-18
6.34696e-06 2.69472e-06 3.31101e-19
-5.87754e-06 -3.26276e-06 -4.51635e-19
-1.85195e-06 6.29149e-06 2.46343e-19
-7.18609e-08 -6.76187e-06 7.81113e-19
1.06183e-05 6.7317e-06 -3.81201e-19
4.04634e-07 7.49467e-06 1.0035e-18
-5.72421e-06 3.52574e-06 -2.87809e-19
6.0132e-06 2.71776e-06 7.35953e-19
-6.85812e-06 -5.20714e-06 -2.91826e-19
1.1425e-06 -8.57327e-06 -5.02126e-19
4.82167e-06 4.67653e-06 4.27356e-20
-1.28982e-05 -8.66769e-06 -2.98868e-19
7.97756e-06 -5.62076e-06 2.31603e-19
6.81802e-06 -3.61285e-06 1.57873e-18
1.54862e-06 7.89506e-06 1.47552e-18
5.94008e-06 -3.87863e-06 9.08972e-19
-3.31873e-06 1.33466e-05 8.51837e-19
-3.32886e-06 -1.323e-05 4.06919e-19
8.77687e-06 1.12668e-05 4.09548e-19
8.6825e-06 -1.12646e-05 1.03611e-18
1.42126e-05 -1.23905e-08 1.81131e-18
-1.21609e-05 5.04338e-06 1.09877e-19
-1.19776e-05 -5.08871e-06 7.76593e-19
6.24803e-06 6.84261e-06 8.20693e-20
1.85254e-05 1.41143e-05 -2.4076e-18
4.00849e-06 1.72096e-06 7.06843e-19
6.15254e-06 3.04009e-06 8.28018e-19
1.37424e-06 5.77389e-06 4.52355e-19
-5.48513e-06 -3.84407e-06 -2.46715e-19
7.95176e-06 -3.59704e-06 1.12511e-18
5.81437e-06 3.71627e-06 5.75566e-19
-4.18037e-07 6.72542e-06 6.14971e-19
1.86587e-05 -1.29218e-05 1.49714e-18
7.12696e-07 -6.69526e-06 9.4478e-19
1.24558e-05 1.8909e-06 -2.5437e-19
6.50802e-06 2.68781e-06 1.6234e-19
9.12888e-06 8.41424e-06 -3.81379e-19
5.44397e-06 2.69221e-06 1.23278e-19
-5.79354e-06 3.63583e-06 -2.88436e-19
-6.05678e-06 2.88624e-06 -2.45757e-19
1.37224e-05 -6.35701e-06 8.48008e-19
-6.41672e-06 -3.98426e-06 2.50779e-19
-6.06084e-06 -3.27331e-06 4.55566e-19
3.11169e-07 -7.5534e-06 -2.90135e-19
-1.22903e-07 -6.87994e-06 -8.2203e-20
-5.42106e-06 -3.25764e-07 3.29835e-19
6.25589e-06 -9.09045e-07 1.21215e-19
5.81528e-06 3.70864e-06 1.48876e-18
-6.61315e-06 3.63067e-06 -1.03695e-18
-7.82039e-06 9.87825e-06 -9.73049e-19
4.83174e-06 -3.95649e-06 1.14889e-18
-2.95263e-06 4.65296e-06 -2.85729e-19
-3.9967e-06 -4.09066e-06 6.57285e-19
-3.07732e-07 6.5601e-06 1.15586e-18
2.47299e-07 7.5849e-06 1.32851e-18
-1.46921e-07 -8.55959e-06 -5.42826e-19
1.69752e-06 -5.51089e-06 4.51052e-19
-7.46803e-06 -4.05096e-06 5.02937e-19
5.0977e-06 -2.16515e-06 1.24279e-18
4.0433e-07 6.79269e-06 5.35105e-19
3.26909e-07 7.47992e-06 5.85755e-19
-3.98905e-07 5.77839e-06 4.98259e-19
5.88531e-06 -1.54754e-06 -2.88903e-19
-9.14915e-06 1.77338e-06 -4.22298e-19
7.45826e-07 6.79933e-06 4.96683e-19
-2.05339e-05 7.77042e-06 -1.07055e-18
1.83302e-06 7.43178e-06 1.22054e-18
-9.13176e-06 1.82772e-06 -1.1837e-18
1.09453e-05 -6.63766e-06 -2.16197e-19
-7.25613e-08 7.57774e-06 1.41105e-18
-6.03666e-06 2.63783e-06 -7.84629e-19
1.83957e-06 -7.53429e-06 -7.98079e-19
3.00967e-07 -9.4996e-06 2.6968e-19
4.3971e-07 6.23424e-06 1.45384e-18
-5.6609e-06 3.90691e-06 -7.44322e-19
2.91381e-06 1.04056e-05 4.72956e-19
3.11023e-05 2.58663e-05 -3.79555e-18
3.57699e-05 -2.44603e-05 1.87021e-18
5.73502e-06 -3.54413e-06 9.52959e-19
-4.53314e-06 3.91812e-06 -7.8056e-19
-6.16949e-06 -3.10493e-06 -1.24019e-19
-5.62209e-06 -2.06026e-06 1.24656e-19
4.45475e-05 -1.22835e-05 2.11922e-18
4.5395e-05 9.56253e-06 -5.26172e-18
3.87664e-06 1.84005e-06 5.83073e-19
-5.90456e-07 7.98426e-06 5.44334e-19
1.71617e-07 8.00354e-06 -4.12355e-20
-7.78204e-06 -5.82688e-06 -7.77682e-20
3.24902e-06 -4.61158e-06 6.13178e-19
5.67304e-06 7.57017e-06 2.06905e-19
-5.98553e-06 -1.36518e-06 -3.29125e-19
-4.19016e-06 4.54866e-06 -6.16682e-19
-5.86607e-06 2.89667e-06 -4.52433e-19
7.89799e-06 5.63187e-06 8.08169e-19
8.21049e-06 3.13717e-06 -1.25764e-19
-1.40928e-06 5.57031e-06 4.06938e-20
-6.58983e-06 -3.74781e-06 -6.22495e-19
6.3234e-08 -7.57775e-06 4.57771e-19
-2.19041e-06 -5.59024e-06 -4.12591e-20
-5.38697e-06 -3.63587e-06 -1.64733e-19
2.92582e-06 -5.29317e-06 5.74472e-19
4.49996e-06 -4.52974e-06 8.64278e-19
-4.14586e-07 -1.00134e-05 1.09525e-18
4.71803e-06 -7.32097e-06 6.37169e-19
5.53675e-07 -6.47263e-06 3.29335e-19
6.85538e-06 3.6233e-06 7.90627e-19
-4.93103e-06 -4.15304e-06 1.11751e-18
-2.51483e-06 5.49024e-06 -2.05614e-19
-8.92969e-07 6.53161e-06 -1.74854e-21
5.72289e-06 3.89695e-06 9.54177e-19
1.37404e-06 -6.29837e-06 6.60261e-19
-2.46573e-06 -7.14034e-06 1.37989e-18
-1.5087e-06 1.42777e-05 9.77568e-19
4.41322e-06 4.04369e-06 2.07324e-19
-5.61227e-06 -5.28763e-06 8.54113e-20
-6.51256e-06 5.66854e-06 1.70167e-19
7.92114e-06 -3.22965e-06 5.49879e-19
2.33568e-06 -4.41415e-06 -7.93232e-19
-2.94492e-06 -3.91023e-06 -4.5623e-19
1.33826e-05 4.45676e-06 2.3832e-18
8.72807e-06 -3.14495e-05 -1.91931e-18
-2.28815e-05 -2.3251e-05 5.68565e-19
1.44613e-05 3.33132e-06 -1.06592e-18
-2.44325e-06 -4.92661e-06 2.8764e-19
6.69972e-06 4.01079e-06 2.91332e-19
-5.03409e-06 -5.73998e-06 -1.19683e-19
7.08267e-06 3.19018e-05 9.1567e-19
3.12959e-05 -4.05475e-05 -2.2071e-18
-1.94738e-05 -4.73586e-05 -2.19761e-19
4.51968e-06 -8.58252e-06 3.44622e-19
-7.86806e-06 2.82526e-05 -2.98559e-19
-4.66729e-06 2.48098e-05 1.34117e-18
-6.52849e-06 3.82219e-06 -6.61951e-19
4.19793e-06 1.37194e-05 6.81879e-19
-3.29437e-07 4.54791e-06 2.93229e-19
4.14185e-06 2.04014e-06 1.75574e-18
-2.70618e-06 8.47096e-06 -4.1869e-20
-8.75362e-09 1.07563e-05 1.09886e-18
6.62577e-06 4.03002e-06 4.17214e-19
2.41016e-07 9.45378e-06 8.86189e-19
-5.52395e-06 3.06372e-06 -4.97564e-19
7.53536e-06 -2.03108e-06 9.16995e-19
9.54475e-06 -1.3213e-06 2.64602e-18
-9.66628e-06 -1.57238e-06 7.77664e-20
-2.21096e-05 1.05902e-05 -3.87098e-19
-6.9345e-06 -8.28072e-06 -5.51028e-19
5.33238e-06 4.45456e-06 -7.57923e-19
5.69579e-06 4.13582e-06 -2.85159e-21
6.53234e-06 -1.3695e-06 5.30481e-19
-2.76097e-06 -4.45524e-06 -3.32332e-19
6.54983e-06 4.20798e-06 -4.36093e-20
4.85266e-06 -1.86969e-05 -2.04979e-18
-6.29653e-06 3.46756e-06 -2.91262e-19
-1.37693e-05 -1.35228e-05 3.88139e-19
-1.35463e-06 5.62766e-06 -4.55975e-19
-2.6423e-06 1.04767e-05 4.28394e-20
2.21931e-05 1.36999e-05 -3.28751e-18
2.37148e-05 -1.24535e-05 1.20565e-18
-7.33916e-06 -1.91478e-06 1.96682e-19
2.87927e-06 4.30612e-06 1.21274e-18
-5.53419e-07 1.54891e-05 5.77806e-19
1.69864e-07 -1.58968e-05 2.28304e-19
7.86761e-06 1.34617e-05 -7.62313e-20
-9.94026e-06 3.39301e-06 -3.36378e-19
-4.39557e-06 8.955e-06 1.58238e-18
7.92781e-06 -1.29962e-05 5.34509e-19
-3.38026e-06 -4.92954e-06 -3.30348e-19
1.21118e-05 1.03178e-05 9.21943e-19
1.54925e-05 -1.10485e-05 -2.40316e-18
-1.8368e-06 -1.89107e-05 7.34368e-19
1.26695e-05 -1.00905e-05 1.07617e-18
-1.92516e-06 4.50321e-06 -5.78217e-19
-8.62598e-06 -5.43926e-06 7.82115e-20
-6.6106e-06 -1.38706e-05 3.83974e-20
-3.87004e-06 -9.44059e-06 3.92947e-19
-6.797e-06 1.40861e-05 1.26714e-18
-1.61857e-06 1.03998e-05 1.59993e-18
1.0725e-05 2.37198e-05 1.25167e-18
-4.90294e-06 6.2659e-06 2.00071e-18
-4.22182e-06 -8.75875e-06 8.12043e-19
1.54671e-05 2.76603e-06 1.07482e-18
-7.15215e-06 3.62141e-06 3.77149e-19
-3.83418e-06 8.5415e-06 1.48052e-18
-8.21297e-06 5.82418e-06 8.59781e-19
-6.92747e-06 4.15286e-06 -1.65319e-19
1.53193e-05 -2.48616e-06 1.61104e-18
-6.73997e-06 2.82706e-06 -2.92106e-19
2.30863e-06 -4.48476e-06 2.03905e-19
-1.18082e-05 -9.09637e-06 6.14404e-19
-4.1708e-06 9.38421e-06 1.4409e-18
-1.20757e-05 9.0379e-06 8.81974e-19
4.0319e-06 8.55045e-06 1.04115e-18
-5.38418e-06 3.46629e-06 -8.69511e-19
-1.23787e-05 1.56309e-05 -1.69013e-19
-2.41032e-05 3.04437e-05 1.98493e-18
-3.79e-05 -4.80309e-06 -6.59311e-19
-9.58401e-07 7.29374e-06 -4.13689e-20
-2.55039e-05 -3.05717e-05 -2.46449e-18
-3.92477e-05 6.81338e-06 1.75787e-19
-1.50103e-05 3.46696e-05 -2.06746e-18
-1.14763e-05 4.57116e-05 1.49099e-18
-3.0901e-06 7.16249e-06 1.68973e-18
-2.16924e-05 1.75317e-05 -5.16028e-19
1.52655e-05 -3.31431e-06 1.5683e-18
2.45365e-05 -7.25632e-07 2.44122e-18
5.67434e-06 4.16032e-06 4.57496e-19
-8.06552e-06 -5.27134e-05 -2.32173e-18
-4.96995e-05 -1.93486e-05 -9.63175e-19
2.3863e-05 -3.32284e-07 -2.88619e-18
9.66308e-06 -1.87949e-06 1.0013e-18
-3.15844e-06 -3.99044e-06 7.45165e-19
-8.15686e-06 5.88745e-06 1.27329e-18
-7.31922e-06 8.49466e-06 1.21405e-18
1.02069e-05 -3.65411e-06 1.33456e-18
-1.85327e-05 -3.12429e-05 -1.91464e-18
-1.88529e-05 3.09867e-05 1.8691e-18
-3.64258e-05 -1.38097e-06 -6.50344e-19
-1.64786e-05 3.2687e-05 -1.60523e-18
-3.63529e-05 4.64713e-07 -6.96155e-19
4.56684e-05 1.62927e-05 2.15221e-18
3.64675e-05 1.4669e-06 2.16661e-18
3.45205e-05 -1.76541e-05 2.09816e-18
1.02519e-05 -4.87084e-05 1.89285e-18
1.80603e-05 -3.16598e-05 1.82273e-18
1.79341e-05 3.1647e-05 -2.95718e-18
1.0043e-05 4.76011e-05 -4.67054e-18
4.98114e-05 -1.40724e-05 -6.29296e-18
3.17774e-05 1.57285e-05 -5.39033e-18
3.02437e-05 8.22504e-06 -4.21339e-18
P_ext 3 563 float
-1.05676e-08 3.54377e-09 -5.18232e-22
-8.75071e-13 3.61832e-10 -5.10257e-21
-9.16611e-10 -8.67315e-10 -1.25635e-21
-2.89695e-10 2.65298e-10 -8.19292e-21
2.18931e-10 1.26679e-11 -2.5473e-21
3.05623e-10 -1.22794e-09 1.65965e-21
-1.04073e-08 -3.58786e-09 -5.62598e-22
-7.0777e-10 -8.15392e-10 -1.42349e-21
2.02846e-09 3.41572e-11 -1.28737e-21
7.23769e-10 -6.1072e-11 -3.68409e-22
6.89111e-09 1.62941e-09 -2.86271e-21
3.60787e-10 -1.03294e-09 1.34355e-21
8.06694e-10 9.75831e-10 -3.1293e-21
-9.54118e-11 7.47844e-10 -3.88033e-21
2.05695e-10 9.32163e-11 -5.39059e-22
-1.28079e-09 -2.09686e-11 -4.25874e-21
-1.71968e-10 4.84386e-10 -3.85243e-21
7.69913e-10 -1.1336e-10 1.62244e-22
8.98963e-10 1.60714e-09 -2.64454e-21
-1.19477e-09 1.18835e-10 -4.8099e-21
-4.56294e-10 -1.69278e-09 -4.62769e-25
2.35589e-11 -4.77705e-11 5.42076e-21
1.32591e-09 1.06779e-10 -2.82204e-22
8.38331e-10 -9.75529e-10 1.85703e-21
-1.22092e-09 -1.93034e-10 -2.86829e-21
-2.36741e-10 -6.56626e-10 -2.97496e-21
7.88244e-09 -6.45305e-10 -3.20128e-21
9.0703e-10 7.72642e-10 -4.02913e-22
-2.83886e-09 -2.25232e-09 2.54673e-21
1.46746e-10 3.34914e-11 -3.46653e-21
-1.21691e-09 -2.07882e-10 -3.1279e-21
5.51478e-10 -3.60923e-09 -4.69923e-21
5.92589e-09 -6.0711e-09 -4.58056e-21
4.23141e-12 -2.45452e-10 1.93206e-21
-6.17838e-11 1.87408e-10 1.35056e-21
-2.0796e-10 -1.29709e-10 -7.05528e-21
1.43247e-11 1.40405e-10 2.87744e-21
-2.02953e-10 3.6743e-11 -1.32118e-20
8.72798e-10 -9.63173e-10 1.01155e-21
5.78352e-09 6.32653e-09 -3.8137e-21
3.63411e-09 -1.65015e-09 -6.64294e-22
3.57161e-11 -1.30131e-10 9.68764e-22
-9.39312e-11 -9.97613e-11 -5.10847e-21
-1.2097e-09 2.39367e-10 -4.75363e-21
3.64886e-09 -3.58594e-09 -4.07457e-21
-3.35529e-09 1.2075e-09 -1.64856e-21
-4.1691e-10 -1.80321e-09 2.02091e-22
7.44551e-10 1.80808e-09 -2.17422e-21
-1.16165e-09 2.97766e-10 -4.65999e-21
-2.09036e-09 3.2466e-09 -1.98596e-21
3.69422e-09 1.81301e-09 -8.57588e-22
3.18019e-09 -1.04419e-09 1.26572e-21
-7.89156e-11 1.89896e-10 1.45932e-21
-2.48708e-09 -2.23395e-09 1.69759e-21
-2.07614e-10 3.01491e-11 -1.21186e-20
-5.43345e-09 3.19086e-09 -9.61023e-22
-5.66646e-11 -1.86814e-10 2.52725e-21
7.09369e-10 -3.28552e-09 -4.58155e-21
-1.87844e-10 -4.55897e-11 -7.83806e-21
5.41529e-10 1.0831e-09 -2.83078e-21
-2.81733e-10 -7.01869e-11 -5.85558e-21
-2.94222e-10 -2.58715e-10 -6.59842e-21
7.07663e-09 3.11434e-09 -3.21774e-21
-2.05957e-11 5.61715e-10 -2.22467e-21
7.18516e-11 -3.70887e-10 -2.4781e-21
1.56115e-10 -8.50749e-10 3.69507e-22
-7.36373e-11 -2.71657e-10 -3.89342e-21
-6.94112e-10 -1.66987e-10 -3.13283e-21
-8.15198e-10 9.9957e-10 -6.46622e-21
2.17777e-10 -7.11525e-11 -1.34858e-21
-7.73851e-11 -1.9615e-10 2.99933e-21
-2.05202e-10 -3.22332e-11 -7.12535e-21
-4.19266e-10 3.88066e-09 -2.624e-21
-6.95351e-10 3.49493e-10 -8.34408e-21
-6.96269e-10 1.19139e-09 -6.03938e-21
-7.40747e-09 8.70007e-10 -1.71059e-21
-8.05813e-12 -5.23519e-10 1.49142e-21
-6.52759e-10 -5.5722e-10 -2.66355e-21
2.8712e-10 6.83914e-10 -5.27568e-22
2.76039e-09 5.53316e-10 -9.10557e-22
4.01674e-09 -3.49823e-09 -2.68018e-21
8.88863e-11 2.28654e-10 7.53215e-22
2.38195e-10 8.76838e-11 8.40798e-23
-3.74846e-09 2.77323e-09 -1.59027e-21
4.34324e-09 5.26879e-10 -6.29034e-22
-6.68813e-10 5.96049e-09 -4.53637e-21
-2.25591e-10 -1.13008e-09 1.21608e-22
7.50121e-10 5.31056e-10 -5.75513e-22
3.51024e-09 3.70293e-09 -2.919e-21
5.64736e-11 4.74821e-12 -7.66415e-21
-6.68428e-10 3.30442e-09 -3.51491e-21
5.01019e-11 -9.04288e-12 -2.2265e-21
-3.61393e-10 2.56999e-10 -1.12439e-20
8.16379e-10 3.26189e-10 2.87126e-22
-3.18142e-09 9.79666e-10 -2.37451e-21
1.8622e-09 3.27588e-09 -1.71397e-21
1.16199e-09 -5.25335e-09 -5.52676e-21
2.63384e-10 6.75991e-10 -2.43577e-22
-4.50982e-10 -2.5981e-10 -6.38213e-21
3.96308e-10 1.24968e-09 -1.94738e-21
2.66763e-09 4.51183e-10 4.40797e-22
-1.79866e-09 3.70862e-09 -3.14823e-21
4.81829e-09 -1.57531e-09 -2.71275e-21
-2.54728e-10 5.55685e-10 -6.51422e-21
4.76667e-10 4.98933e-10 -1.87339e-21
-2.94622e-10 -6.61188e-10 -5.62864e-21
-1.26865e-10 -4.89704e-10 -3.7084e-22
1.35245e-09 1.56807e-10 -2.8446e-22
-1.03707e-09 4.83658e-09 -4.07058e-21
-2.14038e-10 1.44413e-10 -9.56269e-21
6.73141e-10 1.00701e-09 -3.35814e-21
-3.52264e-10 -4.98167e-09 -2.58163e-21
5.02738e-09 1.51078e-09 -1.27395e-21
3.24514e-10 -5.76592e-10 1.21606e-21
-7.38902e-10 -7.84683e-11 -4.60197e-21
-3.16718e-09 -1.26723e-09 5.1455e-22
1.39377e-10 1.44145e-10 -4.89024e-21
-5.09582e-09 -1.78001e-09 8.18207e-22
1.42089e-10 -1.44826e-10 -3.24509e-21
-4.93552e-10 -3.43735e-09 -1.85463e-21
2.09273e-09 8.01081e-11 -1.6622e-24
-1.77005e-10 1.30486e-10 -1.16562e-20
5.42033e-11 2.21555e-10 8.47792e-23
1.46762e-10 -5.82663e-10 1.18803e-21
2.34529e-10 -9.71158e-11 -1.39253e-21
-1.37791e-11 2.21639e-10 -1.57294e-21
1.83807e-10 -2.4216e-11 -1.31612e-22
3.78057e-10 -5.72954e-10 1.70798e-21
-1.04584e-09 -5.3193e-09 -2.10421e-21
2.71697e-09 -2.09637e-09 1.18663e-21
-3.24848e-12 2.99543e-10 8.35903e-22
-2.21963e-10 -3.37772e-11 -4.80999e-21
-5.81337e-11 -2.34928e-10 2.05261e-21
-1.77098e-10 -1.33087e-10 -5.3451e-21
-2.55468e-09 3.19183e-09 -2.59678e-21
-4.20328e-13 -2.15959e-10 2.65417e-21
-3.23292e-09 5.07209e-09 -2.82683e-21
-1.15231e-09 5.23897e-10 -5.89799e-21
1.5803e-10 1.54982e-10 -3.33329e-21
-1.84346e-10 -1.11382e-10 -6.19012e-21
1.55617e-09 3.75797e-09 -2.04793e-21
8.4897e-10 7.70515e-10 -6.1155e-22
2.13955e-09 -7.02481e-10 2.28184e-21
1.24804e-10 -6.37707e-10 5.26413e-22
-3.99306e-09 -3.67903e-09 6.61435e-22
-3.7383e-10 6.26772e-10 -5.86877e-21
9.41406e-10 5.03588e-10 4.91131e-22
1.39745e-09 -4.75874e-10 -4.20653e-23
6.0206e-10 -1.21033e-09 3.0769e-21
2.45133e-09 -1.13319e-09 1.23483e-21
1.60583e-09 -7.58037e-10 2.79698e-22
1.51892e-10 -1.37679e-10 2.56529e-21
2.8847e-09 2.28232e-09 -8.58772e-22
-4.09026e-10 -1.15375e-09 -1.42341e-21
-4.81259e-10 -4.23305e-10 -3.22316e-21
-8.72043e-11 -2.07795e-10 -6.44712e-21
1.19369e-10 8.12518e-10 -4.08215e-22
-3.84325e-09 2.74429e-10 -1.41734e-21
-1.40705e-09 -3.66731e-09 1.38175e-21
-5.82825e-10 7.42904e-10 -6.42216e-21
1.15696e-09 1.54918e-09 -1.60971e-21
2.96784e-09 -2.10526e-09 -1.1546e-22
-4.391e-09 -2.34786e-09 2.32171e-22
1.93248e-09 -3.15031e-09 -4.33937e-21
2.50309e-09 -3.08384e-09 -1.96996e-21
-7.05471e-10 6.26764e-11 -5.258e-21
-2.19914e-09 -3.18151e-09 2.44377e-21
-3.84969e-09 -6.01527e-10 1.96395e-22
-4.61852e-10 -3.52516e-09 -2.03705e-21
1.71163e-09 -3.53956e-09 -5.00654e-21
4.04539e-11 -4.47076e-10 2.98792e-21
5.07433e-10 3.3788e-09 -3.67506e-21
-1.82475e-09 -3.1879e-09 1.91733e-21
-1.75813e-10 -7.32864e-10 -2.74679e-21
-2.61106e-09 1.95628e-09 -2.37216e-21
-4.82098e-10 -1.4441e-10 -5.63392e-21
-3.63297e-10 -2.59555e-10 -6.51385e-21
1.00186e-09 -5.0966e-10 -1.62974e-21
-1.2247e-10 1.71049e-10 -1.3337e-20
5.22003e-10 -6.76971e-10 7.49082e-23
-3.27271e-09 -1.45535e-09 1.41081e-21
-4.0746e-10 -5.58825e-10 -5.05806e-21
4.24334e-10 5.94708e-10 -6.50142e-22
2.35707e-09 3.25881e-09 -1.61425e-21
-7.85671e-10 -3.59938e-10 -4.76213e-21
-3.64865e-09 -8.15943e-11 -3.51313e-22
-4.27017e-10 -4.15161e-10 -5.29411e-21
-1.76723e-11 -5.80013e-10 1.15326e-21
4.21495e-10 2.02685e-10 -4.15346e-21
-4.94783e-10 4.9934e-10 -7.75382e-21
-8.54919e-11 -8.64299e-10 1.02819e-21
-4.88765e-09 1.20113e-09 -9.3152e-22
2.64431e-09 2.2611e-09 -1.55159e-22
3.52198e-10 3.7035e-09 -1.76023e-21
-2.0667e-10 6.29479e-11 -5.79063e-21
-6.88068e-10 2.13138e-11 -3.90065e-21
3.14021e-10 6.03797e-10 -7.72062e-22
-2.30979e-10 -6.72643e-11 -6.16364e-21
3.50824e-11 -2.10674e-10 1.21881e-21
-1.43763e-10 9.17474e-10 -5.70616e-22
1.44686e-10 1.65472e-10 6.55432e-22
-1.76468e-09 3.88438e-10 -3.89198e-21
-1.81796e-09 1.9801e-09 -3.32552e-21
-1.85616e-10 1.55998e-10 -8.95622e-21
-3.32194e-09 2.00123e-09 -9.01083e-22
-6.72172e-11 2.57663e-10 1.64669e-21
8.44941e-10 -2.94324e-10 -9.44224e-22
4.15351e-09 -3.81065e-10 -1.21791e-21
-4.79324e-10 3.0176e-10 -1.0782e-20
2.03106e-10 8.46381e-11 -3.22809e-21
4.93552e-10 -3.20726e-10 -6.65211e-22
-8.81547e-10 2.84051e-10 -7.02959e-21
-6.4737e-10 1.60026e-10 -5.62354e-21
2.07831e-10 -7.37338e-11 1.96733e-21
2.17086e-09 -1.32008e-09 2.22805e-21
-8.18092e-10 5.21486e-10 -7.36521e-21
-2.56263e-09 -5.33962e-10 -4.35567e-22
-5.0538e-10 -2.74724e-10 -4.40651e-21
1.86498e-10 -1.39381e-10 1.91542e-21
2.08416e-10 1.62632e-10 1.14788e-21
-6.90392e-11 2.44275e-10 -4.49336e-21
-3.53867e-11 -2.76002e-10 -5.72137e-21
-2.29737e-10 1.04077e-10 -7.06623e-21
-2.5723e-10 -1.18284e-10 -4.53053e-21
6.48963e-10 -2.35178e-10 -9.81573e-22
-2.16099e-10 -7.34306e-11 -7.15598e-21
-2.15071e-10 7.08913e-11 -1.18271e-20
-4.1133e-11 2.21514e-10 1.98751e-21
-4.62655e-11 -2.26437e-10 2.31413e-21
1.43063e-10 -1.53023e-10 -2.95994e-21
1.36822e-10 1.4558e-10 -5.37699e-21
9.01266e-11 2.59362e-09 -3.53924e-21
4.75585e-10 -4.08071e-10 7.27015e-22
1.11439e-10 -2.13796e-10 1.58136e-21
-1.9294e-09 6.9141e-11 -3.30254e-21
1.7558e-10 -1.47489e-10 -2.11431e-21
1.64185e-10 1.49474e-10 -5.30329e-21
2.55799e-10 -5.96472e-12 -2.60915e-21
8.98974e-10 2.55229e-09 -2.17677e-21
-1.30666e-10 -2.11197e-10 -6.14645e-21
2.85407e-10 -6.4038e-10 1.75156e-21
-2.17873e-09 -1.20644e-09 2.39873e-22
-4.47717e-10 -2.88286e-10 -5.28854e-21
-2.19039e-09 1.2958e-09 -2.30766e-21
1.84239e-10 -1.73635e-10 -1.48305e-21
-9.07913e-11 1.99613e-10 -6.63293e-21
-5.13331e-11 -2.507e-09 -9.95388e-22
-8.26498e-10 -2.49345e-09 1.3895e-21
3.84471e-09 3.66243e-09 -2.64404e-21
4.11024e-09 -2.3503e-10 -1.44019e-21
-2.58489e-10 6.65162e-11 -9.74643e-21
-2.75572e-09 -4.86602e-09 1.28128e-21
6.24563e-10 1.07495e-09 -2.19144e-21
-2.59319e-09 3.05538e-10 -1.0306e-21
1.8377e-09 5.13582e-10 1.20414e-21
-2.44016e-10 -1.0591e-12 -5.32853e-21
1.4982e-11 -2.46964e-10 1.18154e-21
-1.33245e-11 -1.49235e-10 2.53596e-21
-2.05247e-10 -1.34071e-10 -5.02574e-21
-5.71242e-09 -2.16222e-10 -8.94104e-22
1.76139e-09 -1.99507e-09 -2.76993e-22
1.1345e-10 2.23911e-10 7.35131e-22
6.22025e-11 -1.07187e-09 1.46685e-21
-1.05441e-09 2.49236e-09 -3.72379e-21
3.03687e-11 2.61745e-10 1.18668e-21
1.85739e-09 -1.33406e-09 2.12468e-21
-1.32944e-10 -6.53168e-11 -7.27633e-21
-1.60119e-09 -2.07782e-09 3.76723e-21
2.10355e-10 9.40158e-11 -3.88774e-21
4.83736e-10 4.90377e-10 -1.39377e-21
-3.61002e-10 -5.61155e-10 -3.98659e-21
1.96679e-10 -8.04102e-11 1.937e-21
7.31107e-10 -5.14062e-10 -1.60125e-21
-3.80788e-11 3.8947e-10 2.50808e-22
6.15316e-10 -1.04021e-09 2.06877e-21
5.93287e-09 2.98553e-10 -2.62124e-21
-5.03546e-09 1.33002e-09 -1.00098e-21
3.78266e-10 2.60495e-10 -2.58132e-21
-5.99519e-10 -1.43467e-09 -2.02267e-22
-8.89612e-10 -5.85075e-10 -2.93089e-21
3.00937e-09 -3.09629e-11 2.7969e-22
2.10668e-11 -5.3411e-10 9.91504e-22
-7.22532e-10 -2.40239e-10 -5.44276e-21
1.02556e-09 -2.45659e-09 -3.64639e-21
7.9146e-11 9.41071e-10 -1.60131e-22
8.39732e-10 2.60157e-09 -2.8742e-21
9.70217e-10 -5.12625e-10 -1.30628e-21
-1.83488e-09 1.95543e-09 -1.47599e-21
1.69748e-09 2.10009e-09 -1.46554e-21
-8.77916e-11 3.39017e-11 -1.2942e-20
2.40812e-11 4.21162e-10 7.47872e-22
1.34711e-11 -1.83153e-10 -2.27996e-21
-1.53514e-10 -1.06801e-10 -6.16149e-21
-5.34193e-10 4.35843e-10 -6.90174e-21
-2.57154e-09 -6.05288e-10 -4.78863e-22
2.59218e-12 2.63328e-10 1.13397e-21
-6.46441e-10 1.77118e-10 -8.52927e-21
1.7991e-09 -2.56312e-10 -1.73613e-21
-7.83805e-10 -2.52034e-09 3.21756e-22
-1.5403e-09 2.45053e-09 -4.42223e-21
-3.97093e-10 1.8585e-10 -1.19714e-20
-2.06177e-09 -1.45572e-09 1.35319e-21
4.36774e-10 -1.95378e-10 -2.32491e-21
-2.79369e-09 -1.3621e-10 -5.16796e-22
1.40368e-09 -4.96289e-09 -4.8059e-21
1.86208e-09 -1.96234e-09 1.55657e-21
2.91914e-09 5.17922e-09 -2.17294e-21
-3.47525e-11 5.737e-10 -1.61908e-22
2.41952e-10 -2.5457e-09 -1.63092e-21
-7.87531e-11 5.04911e-11 -1.3961e-20
-1.32657e-09 -2.47073e-09 2.23221e-21
4.10511e-10 -3.69365e-10 -7.45272e-22
-2.57014e-10 2.57649e-09 -4.1758e-21
5.93498e-10 -1.59128e-10 -9.4654e-22
1.41112e-09 2.51847e-09 -2.0706e-21
1.38245e-09 -2.95027e-11 -1.94842e-21
2.64906e-09 -7.82819e-09 -3.37503e-21
-5.39343e-10 -9.95606e-10 -1.25635e-21
-2.28043e-09 9.93691e-10 -2.70764e-21
-2.99115e-10 1.32742e-10 -1.17561e-20
2.16632e-09 1.45045e-09 -4.76537e-22
1.51745e-09 -8.37988e-10 3.9151e-23
7.80495e-10 3.32265e-10 -2.09763e-21
-1.54457e-10 1.41492e-10 -8.45112e-21
1.54642e-09 -2.39338e-09 -1.71377e-21
-1.64587e-09 -2.05632e-09 2.71637e-21
2.11465e-09 8.31058e-10 1.16459e-21
5.12977e-10 -3.07976e-10 -1.85472e-21
9.94692e-10 -2.46945e-09 -1.31674e-21
1.13525e-09 -2.05943e-10 -1.18163e-21
-1.10681e-09 -4.3589e-10 -2.10778e-21
-4.25664e-11 -4.18612e-10 1.83376e-21
-2.59745e-09 3.57372e-10 -2.07679e-21
2.72324e-10 2.26682e-09 -4.08464e-21
1.75175e-09 4.03363e-10 -1.56731e-25
-2.00691e-09 -8.94382e-10 -1.0907e-24
-9.98171e-10 2.546e-09 -5.7041e-21
-2.29756e-10 -2.20534e-09 -3.18443e-22
5.49194e-10 2.69094e-10 -2.5603e-21
-3.8098e-10 1.03778e-09 -3.6203e-21
-1.80376e-09 1.29567e-09 -1.72317e-21
2.33527e-09 1.1802e-09 1.07745e-21
-1.02694e-09 -3.12218e-10 -3.02098e-21
-2.59333e-10 -1.05218e-09 8.56599e-22
1.77901e-09 2.07502e-09 -1.11596e-21
-3.79376e-10 -1.75557e-10 -7.12382e-21
6.10022e-09 -4.36743e-09 -5.26934e-21
1.20925e-09 -8.50662e-10 6.89106e-22
1.03502e-09 5.0793e-09 -4.35304e-21
1.28302e-09 -1.24312e-09 2.40954e-22
-2.98776e-09 1.13618e-08 -4.43537e-21
-3.00351e-09 -1.1253e-08 -4.29281e-21
7.37291e-09 9.681e-09 -4.07607e-21
7.28425e-09 -9.67719e-09 -4.72565e-21
1.20623e-08 -8.06947e-12 -4.22088e-21
-1.04045e-08 4.19983e-09 -2.30586e-21
-1.02322e-08 -4.24376e-09 -1.87327e-21
4.46049e-10 2.30893e-10 -2.92699e-21
2.74398e-10 1.39867e-10 -4.94792e-21
8.57894e-10 1.09989e-10 1.20514e-22
1.52964e-09 8.18013e-10 1.57389e-21
4.5612e-10 1.82043e-09 -3.73025e-21
-1.65105e-09 -1.42195e-09 1.19727e-22
8.02636e-10 -7.53325e-10 -5.33283e-22
1.77523e-09 1.43032e-09 -1.58122e-22
-4.17156e-10 2.24519e-09 -3.965e-21
2.6428e-10 -1.35987e-10 -1.93008e-21
4.19827e-10 -2.15147e-09 -1.98934e-22
5.08877e-10 3.55147e-10 -2.02574e-21
3.2587e-09 1.13859e-09 -6.70347e-22
5.08261e-11 2.11327e-10 -2.85032e-21
1.22067e-09 3.94853e-10 -5.6897e-22
-1.52155e-09 8.39302e-10 -2.21654e-21
-2.10103e-09 7.22098e-10 -2.8456e-21
3.84689e-10 -2.62422e-10 -2.62349e-21
-1.3174e-09 -6.05955e-10 -1.29761e-21
-1.45845e-09 -8.63885e-10 1.63015e-22
-1.31033e-10 -1.45141e-09 1.62773e-22
4.60274e-12 -1.68136e-09 3.22842e-22
-1.86974e-09 -8.00628e-11 -2.68241e-21
2.81285e-09 -4.37647e-10 2.78154e-22
1.48387e-09 9.15188e-10 1.09211e-21
-1.21662e-09 8.31506e-10 -5.30892e-21
-5.29744e-10 2.49051e-10 -9.50877e-21
1.39135e-09 -1.25047e-09 -1.14355e-24
-1.05235e-09 1.63552e-09 -5.80367e-21
-1.29125e-09 -1.35961e-09 1.96565e-21
-1.24268e-10 1.76705e-09 -5.15367e-21
-2.69109e-10 1.47709e-09 -3.32113e-21
4.09045e-11 -1.05755e-09 -3.66401e-22
5.61158e-10 -1.81675e-09 -1.2039e-21
-8.92356e-10 -5.71944e-10 -2.73202e-21
1.25821e-09 -3.55194e-10 -1.05338e-21
3.55583e-13 1.76464e-09 -4.2704e-21
-4.28517e-11 1.10555e-09 -3.82636e-21
-2.87678e-10 1.25748e-09 -5.87059e-21
2.09313e-09 -5.15125e-10 4.37817e-22
-4.10412e-10 4.1139e-10 -9.36333e-21
4.73206e-10 1.76338e-09 -4.679e-21
-2.61572e-10 1.62094e-10 -1.28027e-20
1.09196e-09 5.0756e-09 -4.34422e-21
-4.85275e-10 2.70813e-10 -8.73455e-21
5.16427e-10 -2.71588e-10 -2.35783e-21
1.56787e-10 1.48658e-09 -3.68671e-21
-1.75933e-09 4.12069e-10 -3.95417e-21
-6.35201e-11 -7.37174e-10 -3.6994e-22
8.84735e-11 -7.3084e-09 -3.12675e-21
2.10955e-10 1.26076e-09 -2.26694e-21
-1.31056e-09 1.25208e-09 -3.51137e-21
2.12722e-09 7.92573e-09 -4.98511e-21
7.64504e-11 5.61431e-11 -6.21754e-21
6.59459e-11 -5.3069e-11 -1.79174e-21
9.75475e-10 -7.67754e-10 -1.23766e-22
-1.41409e-09 1.26544e-09 -3.92974e-21
-1.6837e-09 -4.90834e-10 -1.29268e-21
-1.74182e-09 -5.70077e-10 -1.16287e-21
-7.51391e-11 5.20038e-11 -2.7171e-21
-6.15017e-11 -5.24422e-11 -8.20071e-21
7.9869e-10 1.5718e-10 -4.49564e-22
2.58645e-10 1.15898e-09 -1.30143e-21
-3.01394e-11 1.15284e-09 -2.52326e-21
-6.10869e-09 -4.4592e-09 -1.73273e-21
1.03732e-09 -1.63663e-09 1.19612e-22
5.05769e-10 1.65738e-10 -3.20996e-21
-1.91762e-09 -2.02466e-10 -2.98053e-21
-1.21241e-09 1.60444e-09 -5.91675e-21
-1.56178e-09 7.32536e-10 -3.38221e-21
6.02294e-09 4.30828e-09 -4.81179e-21
5.36812e-10 3.6487e-10 -1.80625e-21
-5.62056e-10 1.82333e-09 -6.41393e-21
-1.07963e-09 -9.30945e-10 -2.14975e-21
2.73283e-10 -1.41161e-09 3.25873e-22
-8.92452e-10 -1.68796e-09 2.4218e-22
-1.41764e-09 -9.71787e-10 4.11093e-23
9.75464e-10 -1.73129e-09 5.62341e-22
1.16528e-09 -1.61103e-09 2.25288e-21
-3.88298e-10 -7.58498e-09 -2.05821e-21
3.08579e-09 -4.93959e-09 -5.17056e-21
1.41356e-10 -1.73183e-09 8.86306e-22
1.20713e-09 9.24758e-10 1.2583e-21
-1.0925e-09 -1.33337e-09 4.85462e-22
-9.58773e-10 1.78056e-09 -7.12134e-21
-5.91964e-10 1.73689e-09 -6.4136e-21
1.26687e-09 1.32242e-09 -5.60556e-22
6.27236e-10 -1.62365e-09 6.85789e-22
-1.68936e-09 -4.8051e-09 -1.14435e-22
3.42385e-11 5.28102e-10 8.30296e-22
1.29443e-09 1.33655e-09 -2.12338e-21
-6.7747e-10 -3.22432e-10 -4.83336e-21
-5.58881e-10 2.9433e-10 -8.62122e-21
5.39796e-09 -2.36625e-09 -3.95762e-21
6.37824e-10 -1.05416e-09 1.61683e-21
-6.04588e-10 -1.03707e-09 -1.41755e-21
1.98519e-10 -2.10612e-11 9.52164e-22
-9.84797e-12 -6.37743e-11 1.22923e-21
-5.89304e-11 -2.67114e-11 -4.5467e-21
2.5639e-10 1.83338e-10 -3.24112e-21
-9.0231e-10 -1.69865e-09 8.07283e-23
1.36158e-09 5.41641e-10 4.4646e-22
-3.49312e-09 -3.83921e-09 1.30441e-21
-1.16126e-11 8.66912e-11 3.90866e-21
2.11018e-11 6.96468e-11 9.43061e-22
7.22712e-11 1.42776e-11 -4.47506e-21
3.37325e-09 -6.69597e-09 -4.73675e-21
-1.24823e-10 1.41694e-10 -1.61949e-20
-1.98644e-11 1.66535e-10 2.40771e-21
-1.37103e-09 4.81348e-10 -4.73809e-21
-5.21404e-11 5.26926e-10 8.73243e-22
-3.06666e-10 8.87227e-10 -6.26025e-21
6.12946e-10 1.87493e-11 -1.71569e-21
1.49233e-10 5.17475e-10 -8.18149e-23
-3.52027e-11 7.16317e-10 1.3208e-21
1.05426e-09 5.70513e-10 4.07622e-22
9.08996e-11 7.27789e-09 -5.57651e-21
-9.84047e-10 9.39329e-10 -6.33032e-21
7.21049e-10 -4.9766e-10 -4.15239e-22
4.03604e-10 -3.91706e-10 1.14505e-21
-7.43641e-09 -1.01986e-09 6.83394e-22
-1.77125e-10 8.17118e-11 -1.25888e-20
-5.37958e-09 -6.36063e-09 -1.90046e-22
7.42954e-11 2.34056e-10 -5.09584e-21
8.86438e-10 1.61437e-10 -1.63687e-21
2.73428e-09 -3.51695e-10 1.79338e-21
-6.09224e-10 -9.99653e-10 -1.5437e-21
1.15931e-09 3.23909e-10 -4.90406e-22
-6.84584e-12 -2.79012e-10 6.66033e-22
-6.44336e-10 7.59168e-10 -6.96947e-21
-2.42415e-10 -1.40512e-10 -6.28955e-21
-5.99785e-10 1.20293e-09 -6.89303e-21
1.12359e-10 7.37321e-10 1.65681e-22
1.58858e-10 1.09472e-10 -5.82585e-21
1.55737e-10 -1.04195e-10 -2.74608e-21
-5.01397e-09 -1.36326e-09 4.23567e-22
5.19157e-10 1.81946e-10 -1.55509e-21
-6.527e-10 1.29488e-08 -4.38572e-21
-3.31314e-11 -1.32907e-08 -3.83084e-21
6.5332e-09 1.12292e-08 -5.08889e-21
-6.19185e-10 5.01662e-10 -8.29133e-21
-3.49663e-09 6.9908e-09 -3.01044e-21
6.57709e-09 -1.08494e-08 -3.88712e-21
-1.0399e-09 -1.68367e-09 1.08513e-21
1.00158e-08 8.7437e-09 -4.98185e-21
9.61552e-11 -1.69711e-10 2.89701e-22
-9.94257e-11 -1.73576e-10 -5.93587e-21
1.04858e-08 -8.5427e-09 -4.87565e-21
-6.13101e-10 1.19877e-09 -7.70982e-21
-6.56343e-09 -4.18023e-09 -3.06031e-22
-5.56915e-09 -1.156e-08 -3.85914e-21
-3.10763e-09 -7.14023e-09 -1.13935e-21
-5.72502e-09 1.17525e-08 -3.33318e-21
-1.34825e-09 7.95747e-09 -5.68176e-21
-8.0557e-12 2.34553e-10 1.89638e-21
-3.45103e-09 4.43667e-09 -1.83727e-21
-3.34324e-09 -6.79604e-09 -1.53803e-21
1.28863e-08 2.26793e-09 -4.50099e-21
-9.39623e-10 8.06405e-10 -5.6142e-21
-1.40066e-11 5.10578e-10 1.61061e-21
-6.22682e-09 4.50769e-09 -1.78651e-21
-1.04493e-09 5.56331e-10 -5.33227e-21
1.27768e-08 -2.02472e-09 -5.3436e-21
-7.90428e-10 5.36951e-10 -6.40869e-21
5.8879e-10 -1.22121e-09 2.05731e-21
-9.92941e-09 -7.56162e-09 -2.3166e-21
-3.34944e-09 7.17372e-09 -4.22213e-21
-1.01762e-08 7.50966e-09 -2.05559e-21
2.97534e-09 6.66962e-09 -4.2441e-21
-1.03144e-09 8.23245e-10 -5.62684e-21
-2.62142e-10 1.45571e-10 -1.27771e-20
-6.4815e-12 -7.78107e-11 4.6458e-21
5.51695e-11 -3.51605e-11 -1.32189e-20
8.30643e-11 8.08655e-10 -7.75952e-22
-1.58937e-11 7.67455e-11 5.14162e-22
6.09769e-11 5.04436e-11 -7.30242e-21
5.82302e-11 -4.89365e-11 -1.57155e-20
-9.82799e-12 8.51813e-11 3.63154e-21
-2.27781e-09 4.96535e-09 -4.17838e-21
-1.56619e-10 9.46389e-11 -1.41574e-20
2.53795e-10 -1.75569e-10 -2.96649e-22
2.52301e-10 -1.48304e-10 -7.59108e-22
7.80496e-10 2.95894e-10 -1.30963e-21
2.73237e-12 -7.21817e-11 2.0045e-21
-5.94029e-11 -4.13537e-11 -7.04953e-21
2.49883e-10 1.44349e-10 -4.7916e-21
7.42255e-09 -1.4492e-09 -4.84314e-21
-9.11824e-10 -1.1608e-09 -3.61623e-22
-6.48255e-09 4.54061e-09 -7.11919e-22
-5.75642e-09 6.56392e-09 -1.64607e-21
7.76028e-09 -2.80727e-09 -4.74356e-21
-7.92055e-12 -1.06807e-10 1.39512e-21
-1.23088e-11 1.10436e-10 2.4618e-21
-1.06805e-10 4.41045e-11 -1.14396e-20
-9.45176e-11 5.57734e-11 -1.61041e-20
-9.46097e-11 -4.85398e-11 -7.42223e-21
-1.93455e-11 4.98372e-11 -1.37346e-21
9.86911e-11 -4.69719e-11 -1.48753e-21
1.88309e-11 -3.67429e-11 -9.41739e-22
-7.7131e-11 -3.95159e-12 -2.66397e-21
8.23076e-11 -5.2097e-11 -2.16456e-21
8.30253e-11 5.40891e-11 -7.0875e-21
-7.75931e-11 -2.38072e-12 -8.21573e-21
-1.60994e-12 -4.5053e-11 -6.6612e-21
2.41728e-11 2.68534e-11 -8.12783e-21
1.05638e-10 6.33952e-11 -6.19016e-21
SCALARS rr_necrosis float
LOOKUP_TABLE default
0
0
0
0
0
0
0
0
0
0
0
0
0
0
0
0
0
0
0
0
0
0
0
0
0
0
0
0
0
0
0
0
0
0
0
0
0
0
0
0
0
0
0
0
0
0
0
0
0
0
0
0
0
0
0
0
0
0
0
0
0
0
0
0
0
0
0
0
0
0
0
0
0
0
0
0
0
0
0
0
0
0
0
0
0
0
0
0
0
0
0
0
0
0
0
0
0
0
0
0
0
0
0
0
0
0
0
0
0
0
0
0
0
0
0
0
0
0
0
0
0
0
0
0
0
0
0
0
0
0
0
0
0
0
0
0
0
0
0
0
0
0
0
0
0
0
0
0
0
0
0
0
0
0
0
0
0
0
0
0
0
0
0
0
0
0
0
0
0
0
0
0
0
0
0
0
0
0
0
0
0
0
0
0
0
0
0
0
0
0
0
0
0
0
0
0
0
0
0
0
0
0
0
0
0
0
0
0
0
0
0
0
0
0
0
0
0
0
0
0
0
0
0
0
0
0
0
0
0
0
0
0
0
0
0
0
0
0
0
0
0
0
0
0
0
0
0
0
0
0
0
0
0
0
0
0
0
0
0
0
0
0
0
0
0
0
0
0
0
0
0
0
0
0
0
0
0
0
0
0
0
0
0
0
0
0
0
0
0
0
0
0
0
0
0
0
0
0
0
0
0
0
0
0
0
0
0
0
0
0
0
0
0
0
0
0
0
0
0
0
0
0
0
0
0
0
0
0
0
0
0
0
0
0
0
0
0
0
0
0
0
0
0
0
0
0
0
0
0
0
0
0
0
0
0
0
0
0
0
0
0
0
0
0
0
0
0
0
0
0
0
0
0
0
0
0
0
0
0
0
0
0
0
0
0
0
0
0
0
0
0
0
0
0
0
0
0
0
0
0
0
0
0
0
0
0
0
0
0
0
0
0
0
0
0
0
0
0
0
0
0
0
0
0
0
0
0
0
0
0
0
0
0
0
0
0
0
0
0
0
0
0
0
0
0
0
0
0
0
0
0
0
0
0
0
0
0
0
0
0
0
0
0
0
0
0
0
0
0
0
0
0
0
0
0
0
0
0
0
0
0
0
0
0
0
0
0
0
0
0
0
0
0
0
0
0
0
0
0
0
0
0
0
0
0
0
0
0
0
0
0
0
0
0
0
0
0
0
0
0
0
0
0
0
0
0
0
0
0
0
0
0
0
0
0
0
0
0
0
0
0
0
0
0
0
0
0
0
0
0
0
0
0
0
0
0
0
0
0
0
0
0
0
SCALARS rr_protein float
LOOKUP_TABLE default
1
1
1
1
1
1
1
1
1
1
1
1
1
1
1
1
1
1
1
1
1
1
1
1
1
1
1
1
1
1
1
1
1
1
1
1
1
1
1
1
1
1
1
1
1
1
1
1
1
1
1
1
1
1
1
1
1
1
1
1
1
1
1
1
1
1
1
1
1
1
1
1
1
1
1
1
1
1
1
1
1
1
1
1
1
1
1
1
1
1
1
1
1
1
1
1
1
1
1
1
1
1
1
1
1
1
1
1
1
1
1
1
1
1
1
1
1
1
1
1
1
1
1
1
1
1
1
1
1
1
1
1
1
1
1
1
1
1
1
1
1
1
1
1
1
1
1
1
1
1
1
1
1
1
1
1
1
1
1
1
1
1
1
1
1
1
1
1
1
1
1
1
1
1
1
1
1
1
1
1
1
1
1
1
1
1
1
1
1
1
1
1
1
1
1
1
1
1
1
1
1
1
1
1
1
1
1
1
1
1
1
1
1
1
1
1
1
1
1
1
1
1
1
1
1
1
1
1
1
1
1
1
1
1
1
1
1
1
1
1
1
1
1
1
1
1
1
1
1
1
1
1
1
1
1
1
1
1
1
1
1
1
1
1
1
1
1
1
1
1
1
1
1
1
1
1
1
1
1
1
1
1
1
1
1
1
1
1
1
1
1
1
1
1
1
1
1
1
1
1
1
1
1
1
1
1
1
1
1
1
1
1
1
1
1
1
1
1
1
1
1
1
1
1
1
1
1
1
1
1
1
1
1
1
1
1
1
1
1
1
1
1
1
1
1
1
1
1
1
1
1
1
1
1
1
1
1
1
1
1
1
1
1
1
1
1
1
1
1
1
1
1
1
1
1
1
1
1
1
1
1
1
1
1
1
1
1
1
1
1
1
1
1
1
1
1
1
1
1
1
1
1
1
1
1
1
1
1
1
1
1
1
1
1
1
1
1
1
1
1
1
1
1
1
1
1
1
1
1
1
1
1
1
1
1
1
1
1
1
1
1
1
1
1
1
1
1
1
1
1
1
1
1
1
1
1
1
1
1
1
1
1
1
1
1
1
1
1
1
1
1
1
1
1
1
1
1
1
1
1
1
1
1
1
1
1
1
1
1
1
1
1
1
1
1
1
1
1
1
1
1
1
1
1
1
1
1
1
1
1
1
1
1
1
1
1
1
1
1
1
1
1
1
1
1
1
1
1
1
1
1
1
1
1
1
1
1
1
1
1
1
1
1
1
1
1
1
1
1
1
1
1
1
1
1
1
1
1
1
1
1
1
1
SCALARS rr_(S_ext) float
LOOKUP_TABLE default
0.199014
0.201071
0.200887
0.201032
0.201643
0.200884
0.199007
0.201012
0.200712
0.201065
0.199128
0.201013
0.200968
0.201096
0.201432
0.200916
0.201175
0.200986
0.200617
0.200833
0.200807
0.202429
0.200808
0.200838
0.20083
0.201022
0.199423
0.200914
0.20005
0.201966
0.20096
0.200055
0.199395
0.20183
0.201895
0.201827
0.201989
0.201865
0.200958
0.199401
0.200046
0.201998
0.201996
0.200961
0.199586
0.20008
0.200661
0.200746
0.200893
0.199921
0.199997
0.200262
0.20161
0.200268
0.201592
0.199654
0.2019
0.200268
0.201897
0.200844
0.201165
0.20135
0.199559
0.20134
0.201354
0.201178
0.201173
0.201023
0.20082
0.201079
0.201606
0.201604
0.200045
0.201247
0.200893
0.199305
0.201475
0.201176
0.201022
0.200308
0.199884
0.201712
0.20126
0.199823
0.200114
0.199612
0.200912
0.201214
0.199589
0.202322
0.200265
0.202319
0.201487
0.201155
0.200284
0.199976
0.199887
0.20106
0.201471
0.200949
0.200499
0.200162
0.19982
0.201003
0.201045
0.201046
0.20129
0.200932
0.199816
0.201103
0.200847
0.199653
0.199747
0.200992
0.201035
0.200275
0.201899
0.199879
0.201893
0.200282
0.200571
0.201405
0.20107
0.201214
0.201121
0.201452
0.20182
0.20106
0.199887
0.200284
0.201608
0.201056
0.201248
0.201064
0.200165
0.201903
0.199775
0.200984
0.201262
0.2019
0.200188
0.201078
0.200605
0.201069
0.19987
0.201028
0.201047
0.200895
0.200884
0.200436
0.200742
0.201071
0.20005
0.20097
0.201067
0.201058
0.201128
0.200208
0.200215
0.200964
0.200749
0.200065
0.199638
0.199996
0.200206
0.201047
0.200207
0.200204
0.200051
0.20021
0.201494
0.200268
0.199993
0.201148
0.200272
0.201282
0.201491
0.201015
0.201618
0.201055
0.200053
0.201057
0.201056
0.200192
0.201217
0.199979
0.201212
0.201293
0.201503
0.201061
0.20122
0.199909
0.200272
0.200053
0.201061
0.200976
0.200988
0.201246
0.201067
0.20117
0.201072
0.200643
0.200322
0.201244
0.200056
0.201258
0.201177
0.200151
0.201383
0.201076
0.201403
0.201111
0.201038
0.201263
0.200443
0.20113
0.200343
0.201291
0.201116
0.201115
0.201089
0.201099
0.2011
0.201098
0.201084
0.201415
0.201409
0.201416
0.201418
0.201598
0.201599
0.200428
0.201089
0.201011
0.200735
0.201433
0.201441
0.201018
0.200328
0.201003
0.201061
0.200451
0.201387
0.200442
0.201269
0.200994
0.200456
0.200352
0.199879
0.19989
0.201261
0.19984
0.200943
0.200341
0.200631
0.201
0.20111
0.202011
0.201104
0.199827
0.200343
0.20101
0.201014
0.200317
0.201108
0.200615
0.202009
0.200346
0.201121
0.201202
0.200987
0.201427
0.201209
0.20161
0.200964
0.199687
0.19961
0.20155
0.20081
0.201014
0.200444
0.20139
0.201146
0.200345
0.201157
0.200506
0.201056
0.200508
0.200333
0.202187
0.201514
0.201438
0.201434
0.201082
0.200522
0.201804
0.201192
0.200757
0.20053
0.200464
0.201547
0.20045
0.20149
0.200486
0.199591
0.200519
0.19986
0.201298
0.200451
0.202185
0.200487
0.201248
0.200427
0.201225
0.200482
0.200911
0.199528
0.200867
0.200445
0.201538
0.200435
0.200759
0.201228
0.201078
0.200484
0.20052
0.200609
0.201296
0.200517
0.201013
0.200914
0.201606
0.20052
0.200598
0.20079
0.200621
0.200498
0.200626
0.201364
0.201007
0.200607
0.200442
0.20107
0.201074
0.20051
0.201603
0.199057
0.200909
0.199881
0.200799
0.197951
0.197953
0.197966
0.19796
0.197966
0.197949
0.197957
0.201306
0.201745
0.200972
0.200749
0.200629
0.200619
0.201056
0.200607
0.200595
0.20175
0.200619
0.201398
0.200265
0.20138
0.200881
0.200745
0.200611
0.201555
0.200908
0.20076
0.20091
0.200762
0.2006
0.2003
0.200745
0.200889
0.201403
0.200649
0.200581
0.200639
0.200731
0.200883
0.201059
0.200638
0.201055
0.200863
0.200737
0.201019
0.200867
0.200613
0.201221
0.200779
0.201723
0.199593
0.201304
0.201364
0.200885
0.200784
0.201171
0.199083
0.200882
0.200775
0.199539
0.202174
0.202181
0.200906
0.200626
0.200801
0.200649
0.202525
0.202524
0.201015
0.201022
0.201013
0.19908
0.200594
0.201254
0.200736
0.200718
0.200735
0.199043
0.201215
0.200615
0.2009
0.200901
0.200715
0.200756
0.200715
0.200733
0.199414
0.199865
0.200755
0.200906
0.20078
0.200706
0.200767
0.200794
0.20078
0.199595
0.201437
0.200637
0.201165
0.201224
0.199583
0.200889
0.20087
0.201607
0.202157
0.202155
0.201515
0.200589
0.200897
0.19956
0.202112
0.202468
0.202466
0.19902
0.201865
0.201966
0.200874
0.201478
0.200968
0.201078
0.201228
0.201287
0.201016
0.199077
0.200923
0.201149
0.201249
0.199292
0.201893
0.199506
0.201239
0.201088
0.200473
0.200956
0.201006
0.201626
0.201032
0.201624
0.2009
0.201254
0.201932
0.201947
0.199568
0.201109
0.198976
0.199017
0.198929
0.201212
0.199056
0.198885
0.200709
0.198951
0.20172
0.201718
0.198985
0.200789
0.199421
0.198967
0.199381
0.198959
0.199381
0.201879
0.199492
0.199064
0.19898
0.200997
0.201333
0.199348
0.201002
0.198898
0.20107
0.200803
0.198944
0.199317
0.198912
0.19902
0.200864
0.201758
0.202427
0.202398
0.201107
0.202422
0.20242
0.202409
0.202233
0.199531
0.201915
0.201531
0.201764
0.201081
0.202281
0.202279
0.201803
0.198998
0.200783
0.199028
0.199474
0.199485
0.202084
0.202077
0.202062
0.202067
0.202081
0.202389
0.202069
0.202284
0.202436
0.202092
0.202094
0.202445
0.202395
0.20229
0.202053
SCALARS rr_(P_ext) float
LOOKUP_TABLE default
0.000267663
0.000262779
0.000263184
0.000262843
0.000261857
0.000263195
0.000267678
0.000262928
0.000263573
0.000262799
0.00026733
0.000262929
0.000263014
0.000262762
0.000262192
0.0002631
0.000262622
0.00026297
0.000263791
0.000263299
0.000263367
0.000260676
0.000263363
0.000263297
0.000263306
0.000262904
0.000266644
0.000263158
0.000265121
0.000261375
0.000263024
0.000265112
0.000266714
0.000261599
0.00026146
0.000261602
0.00026134
0.0002615
0.000263038
0.000266699
0.000265137
0.000261327
0.00026133
0.000263019
0.000266238
0.000265048
0.00026369
0.000263491
0.000263189
0.000265428
0.000265254
0.000264623
0.000261914
0.000264603
0.000261942
0.000266083
0.000261452
0.000264604
0.000261455
0.000263279
0.000262638
0.000262303
0.000266333
0.000262327
0.000262298
0.000262644
0.000262626
0.000262901
0.00026333
0.000262774
0.000261922
0.000261923
0.000265135
0.000262524
0.000263155
0.000266918
0.000262123
0.000262647
0.000262908
0.000264513
0.00026553
0.000261731
0.000262475
0.000265666
0.000264977
0.000266179
0.000263153
0.000262587
0.000266233
0.000260873
0.000264612
0.00026088
0.00026211
0.000262703
0.000264564
0.000265299
0.00026552
0.000262799
0.000262128
0.00026305
0.000264065
0.000264855
0.000265682
0.000262917
0.000262868
0.000262822
0.000262451
0.000263088
0.000265687
0.000262724
0.000263276
0.000266076
0.000265855
0.00026295
0.000262843
0.000264586
0.000261456
0.000265536
0.000261467
0.00026457
0.000263898
0.000262228
0.000262785
0.000262547
0.000262699
0.000262177
0.000261583
0.000262802
0.000265518
0.00026457
0.000261938
0.000262809
0.00026249
0.000262794
0.000264847
0.00026146
0.000265793
0.000262999
0.000262472
0.000261464
0.000264794
0.000262824
0.00026383
0.000262818
0.000265559
0.000262875
0.000262908
0.0002632
0.000263182
0.000264213
0.000263522
0.000262785
0.000265125
0.000263
0.000262819
0.000262805
0.000262699
0.000264741
0.000264728
0.000263004
0.000263484
0.000265089
0.00026611
0.000265253
0.000264751
0.000262818
0.000264745
0.000264752
0.00026512
0.00026474
0.000262103
0.000264604
0.000265257
0.000262656
0.000264592
0.000262464
0.000262106
0.000262956
0.00026189
0.000262858
0.000265114
0.000262802
0.00026281
0.000264787
0.000262576
0.000265288
0.000262549
0.000262435
0.000262087
0.000262798
0.000262571
0.000265463
0.000264599
0.000265115
0.000262798
0.00026298
0.00026296
0.000262492
0.00026279
0.000262657
0.000262784
0.000263728
0.000264472
0.000262497
0.000265107
0.00026247
0.000262652
0.000264887
0.000262297
0.000262777
0.000262245
0.000262763
0.000262874
0.000262468
0.0002642
0.000262733
0.000264422
0.000262436
0.000262704
0.000262706
0.000262747
0.000262728
0.000262725
0.000262728
0.000262797
0.000262211
0.000262223
0.000262213
0.000262207
0.000261943
0.000261943
0.000264231
0.000262778
0.000262878
0.000263505
0.00026219
0.000262175
0.000262869
0.000264462
0.00026289
0.000262797
0.000264173
0.000262295
0.000264195
0.000262459
0.000262906
0.000264165
0.000264402
0.000265543
0.000265509
0.000262464
0.000265634
0.000263047
0.000264425
0.000263768
0.000262894
0.000262711
0.000261312
0.00026272
0.000265667
0.000264429
0.00026288
0.00026295
0.000264483
0.000262715
0.000263806
0.000261314
0.000264415
0.000262697
0.000262571
0.000262954
0.000262199
0.000262597
0.000261921
0.000263006
0.000266006
0.00026618
0.000262022
0.000263343
0.000262949
0.000264189
0.00026229
0.000262658
0.000264422
0.000262686
0.000264044
0.000262885
0.000264037
0.000264452
0.000261054
0.000262067
0.000262186
0.000262193
0.00026279
0.000264002
0.000261634
0.000262582
0.00026348
0.000263987
0.000264134
0.000262021
0.000264176
0.000262111
0.000264081
0.000266223
0.000264017
0.000265588
0.000262438
0.000264175
0.000261058
0.000264082
0.000262523
0.00026423
0.000262537
0.000264097
0.000263126
0.000266414
0.000263222
0.000264185
0.000262043
0.000264216
0.000263492
0.000262544
0.00026277
0.000264092
0.000264007
0.000263819
0.000262437
0.000264016
0.000262936
0.000263149
0.000261922
0.000264005
0.000263838
0.000263412
0.000263785
0.000264058
0.000263776
0.000262336
0.000262949
0.000263817
0.000264201
0.000262838
0.00026283
0.000264037
0.000261925
0.000267506
0.000263174
0.000265534
0.000263395
0.000270068
0.000270061
0.000270036
0.000270048
0.000270032
0.000270072
0.000270051
0.00026242
0.000261731
0.00026301
0.000263512
0.000263768
0.000263787
0.000262874
0.000263824
0.000263844
0.000261721
0.000263791
0.000262256
0.000264617
0.000262263
0.000263221
0.000263514
0.000263806
0.000262012
0.000263167
0.000263482
0.000263164
0.00026348
0.000263822
0.000264531
0.000263522
0.000263208
0.00026224
0.000263726
0.000263867
0.000263735
0.000263542
0.00026322
0.000262876
0.000263742
0.000262882
0.000263249
0.000263533
0.000262943
0.000263235
0.000263799
0.000262537
0.000263431
0.000261751
0.000266219
0.000262415
0.000262337
0.000263218
0.000263409
0.000262646
0.000267442
0.000263216
0.000263438
0.000266386
0.000261078
0.00026107
0.000263174
0.00026377
0.000263381
0.000263718
0.000260544
0.000260541
0.0002629
0.000262929
0.000262963
0.000267453
0.000263843
0.000262479
0.000263509
0.000263549
0.000263532
0.000267535
0.000262586
0.000263792
0.000263181
0.000263181
0.000263558
0.000263483
0.000263559
0.000263523
0.000266664
0.000265577
0.000263489
0.00026318
0.00026342
0.000263574
0.000263451
0.000263401
0.000263423
0.000266216
0.000262206
0.000263751
0.000262655
0.000262559
0.000266249
0.000263172
0.000263213
0.000261919
0.000261109
0.000261111
0.000262085
0.000263848
0.000263202
0.000266294
0.000261179
0.000260613
0.000260614
0.000267588
0.000261504
0.000261385
0.000263239
0.000262125
0.000263
0.000262773
0.000262531
0.000262456
0.000262956
0.000267454
0.000263105
0.000262685
0.000262485
0.000266948
0.000261496
0.000266471
0.000262499
0.000262777
0.000264125
0.000263015
0.000262961
0.00026191
0.000262894
0.000261913
0.000263145
0.000262499
0.000261449
0.000261422
0.00026628
0.000262741
0.000267769
0.000267679
0.000267876
0.000262577
0.000267512
0.000267974
0.00026357
0.000267827
0.000261722
0.000261724
0.000267753
0.000263396
0.000266647
0.000267794
0.000266742
0.000267814
0.000266744
0.000261492
0.00026646
0.000267491
0.000267762
0.000262979
0.000262364
0.000266818
0.000262981
0.000267945
0.000262837
0.000263368
0.000267844
0.000266894
0.000267917
0.000267588
0.000263254
0.000261678
0.000260684
0.000260731
0.000262772
0.000260695
0.000260696
0.000260714
0.000260996
0.000266369
0.000261467
0.000262057
0.000261685
0.000262823
0.000260926
0.000260927
0.00026161
0.000267641
0.000263405
0.000267578
0.000266551
0.000266518
0.000261212
0.000261221
0.000261242
0.000261235
0.000261214
0.000260744
0.000261232
0.000260926
0.000260676
0.000261208
0.000261203
0.00026066
0.000260727
0.000260906
0.000261278
SCALARS rr_(S) float
LOOKUP_TABLE default
0.0978634
0.0982873
0.0982421
0.0982714
0.0985218
0.098242
0.0978616
0.0982783
0.0981987
0.0982871
0.0978742
0.0982789
0.0982644
0.0983041
0.0984319
0.0982442
0.098332
0.0982671
0.0981778
0.0982278
0.0982241
0.0988713
0.0982236
0.0982308
0.0982274
0.09828
0.0979364
0.0982572
0.098057
0.0986623
0.0982607
0.0980585
0.0979313
0.0986088
0.0986277
0.0986076
0.0986742
0.0986137
0.0982621
0.0979324
0.0980575
0.0986785
0.0986774
0.0982598
0.0979664
0.0980628
0.0981881
0.0982054
0.0982487
0.0980313
0.0980479
0.0981019
0.0985091
0.0981014
0.0985012
0.0979809
0.0986302
0.0981022
0.098629
0.0982319
0.0983286
0.0983945
0.0979671
0.0983928
0.0983959
0.0983411
0.0983314
0.0982803
0.0982252
0.0982919
0.0985072
0.0985063
0.0980562
0.0983672
0.098239
0.0979109
0.0984511
0.0983402
0.0982814
0.0981113
0.0980258
0.0985466
0.0983644
0.098012
0.098071
0.0979711
0.0982552
0.098356
0.097967
0.0988296
0.098101
0.0988289
0.098458
0.0983376
0.0981042
0.098043
0.0980261
0.0982835
0.0984496
0.0982578
0.0981516
0.0980792
0.098013
0.0982675
0.0982901
0.0982776
0.0983829
0.0982538
0.0980114
0.0982983
0.0982332
0.0979791
0.0979986
0.0982675
0.0982745
0.0981026
0.0986295
0.0980234
0.0986271
0.0981047
0.0981678
0.0984192
0.098288
0.098345
0.0983051
0.0984459
0.0985961
0.0982837
0.0980256
0.0981059
0.0985128
0.0982827
0.098358
0.0982849
0.0980798
0.0986337
0.098004
0.0982738
0.098364
0.0986325
0.0980849
0.0983049
0.0981775
0.0982961
0.0980223
0.0982768
0.0983022
0.0982527
0.0982382
0.0981389
0.0982109
0.0982879
0.0980583
0.0982627
0.0982949
0.0982835
0.0983142
0.098088
0.0980898
0.0982584
0.0982065
0.0980614
0.0979758
0.0980469
0.098089
0.0982781
0.0980881
0.0980872
0.0980579
0.0980895
0.0984608
0.0981017
0.0980455
0.0983189
0.0981022
0.0983801
0.0984598
0.0982878
0.0985094
0.0982948
0.0980578
0.0982816
0.0982825
0.098086
0.0983558
0.0980423
0.0983444
0.0983818
0.098464
0.0982836
0.0983573
0.0980291
0.0981037
0.0980583
0.0982839
0.0982621
0.0982667
0.0983569
0.0982866
0.0983379
0.0982892
0.0981828
0.0981126
0.0983565
0.0980584
0.0983612
0.0983417
0.0980784
0.0984209
0.0982898
0.0984225
0.0983176
0.0982858
0.0983637
0.0981412
0.0983249
0.0981168
0.0983811
0.0983026
0.0983026
0.0982924
0.0982955
0.0982959
0.0982949
0.0983028
0.098423
0.0984211
0.0984238
0.0984244
0.0985054
0.0985066
0.0981366
0.0983017
0.0982619
0.0982008
0.0984313
0.0984342
0.0982649
0.0981148
0.098258
0.0982833
0.0981412
0.0984231
0.098139
0.0983666
0.0982553
0.0981427
0.0981193
0.0980252
0.0980265
0.0983621
0.098017
0.0982525
0.0981161
0.0981828
0.098257
0.0983004
0.0986853
0.0982977
0.0980145
0.0981183
0.0982612
0.0982863
0.0981115
0.0983
0.0981797
0.0986843
0.0981176
0.0983048
0.0983411
0.0982644
0.0984289
0.0983541
0.0985109
0.0982588
0.0979877
0.0979705
0.0984865
0.0982201
0.0982857
0.0981384
0.0984246
0.098318
0.098118
0.0983355
0.098152
0.0983033
0.0981516
0.098116
0.098765
0.0984687
0.0984355
0.098434
0.0982997
0.0981546
0.0985968
0.0983363
0.0982118
0.0981569
0.0981409
0.0984842
0.0981403
0.0984592
0.0981452
0.0979666
0.0981556
0.0980214
0.0983873
0.0981412
0.0987642
0.098146
0.0983665
0.0981357
0.0983507
0.0981457
0.0982457
0.097962
0.0982355
0.0981393
0.0984824
0.098139
0.098217
0.0983555
0.0982906
0.0981464
0.0981539
0.0981787
0.098384
0.0981542
0.0982809
0.0982554
0.0985076
0.0981536
0.0981748
0.0982211
0.0981793
0.0981492
0.0981809
0.0984143
0.09828
0.0981764
0.0981406
0.0983025
0.0983037
0.0981533
0.0985063
0.097861
0.0982575
0.0980244
0.0982241
0.0976249
0.097625
0.0976288
0.0976275
0.0976283
0.0976236
0.0976253
0.0983883
0.0985721
0.0982664
0.0982141
0.0981817
0.0981789
0.0983004
0.098178
0.0981739
0.0985734
0.0981795
0.098421
0.0981024
0.0984071
0.0982462
0.0982113
0.098177
0.0984876
0.0982552
0.0982152
0.0982563
0.0982164
0.098172
0.0981095
0.0982133
0.0982498
0.0984216
0.0981876
0.0981681
0.098182
0.098207
0.098248
0.0983036
0.0981823
0.0983021
0.0982389
0.0982099
0.0982884
0.0982393
0.0981768
0.0983486
0.0982174
0.0985602
0.0979671
0.0983857
0.0984145
0.0982495
0.0982158
0.098336
0.0978656
0.0982468
0.0982161
0.097964
0.0987604
0.0987639
0.0982555
0.0981803
0.0982224
0.0981856
0.0989161
0.0989147
0.098272
0.0982867
0.0982885
0.0978655
0.0981723
0.0983594
0.0982021
0.0981978
0.0982076
0.0978577
0.0983564
0.0981769
0.0982523
0.098253
0.098198
0.0982126
0.098198
0.0982033
0.0979338
0.0980223
0.0982128
0.0982559
0.0982156
0.0981948
0.0982125
0.0982213
0.0982163
0.0979673
0.0984412
0.0981842
0.0983337
0.0983576
0.0979657
0.09824
0.0982355
0.098507
0.0987549
0.098754
0.0984738
0.0981699
0.0982547
0.0979596
0.0987349
0.0988879
0.0988871
0.0978525
0.0986141
0.0986667
0.098246
0.0984542
0.0982608
0.0982914
0.0983527
0.0983823
0.0982886
0.097864
0.0982511
0.0983273
0.0983575
0.0979084
0.098635
0.0979579
0.0983535
0.0983012
0.0981461
0.0982547
0.0982815
0.0985206
0.0982858
0.0985195
0.0982428
0.098366
0.0986537
0.0986588
0.0979619
0.0983088
0.0978594
0.0978691
0.0978487
0.098352
0.0978616
0.0978388
0.0981955
0.0978546
0.0985508
0.0985499
0.0978626
0.0982166
0.0979354
0.0978578
0.0979271
0.0978564
0.0979274
0.0986228
0.0979465
0.0978626
0.0978605
0.0982792
0.098396
0.09792
0.0982844
0.097842
0.0983026
0.0982209
0.097852
0.0979144
0.0978451
0.0978523
0.0982413
0.0985704
0.0988713
0.0988588
0.0983158
0.0988693
0.0988685
0.0988633
0.0987886
0.097955
0.0986461
0.0984796
0.0985753
0.0983075
0.0988106
0.0988097
0.0985896
0.0978479
0.0982141
0.0978559
0.0979528
0.0979539
0.0987196
0.0987168
0.0987096
0.0987119
0.0987186
0.0988536
0.0987115
0.0988113
0.0988751
0.0987236
0.0987246
0.0988786
0.0988547
0.0988125
0.0987102
SCALARS rr_(P) float
LOOKUP_TABLE default
0.000475247
0.000475172
0.000475115
0.000475099
0.000476242
0.000475119
0.000475243
0.000475207
0.000475052
0.00047518
0.000475119
0.00047521
0.000475161
0.000475282
0.00047581
0.000475076
0.000475386
0.00047515
0.000475044
0.000475087
0.000475103
0.000477961
0.000475094
0.000475104
0.000475089
0.000475202
0.000475127
0.000475202
0.000475028
0.000476916
0.000475145
0.000475033
0.000475134
0.000476686
0.000476737
0.000476681
0.000476982
0.000476665
0.00047516
0.000475133
0.00047504
0.000477005
0.000477
0.000475135
0.000475086
0.000475024
0.000475053
0.000475048
0.000475165
0.000475039
0.000475045
0.00047503
0.000476186
0.000475016
0.000476149
0.000475091
0.00047675
0.000475021
0.000476745
0.000475101
0.000475372
0.000475627
0.000475148
0.000475631
0.000475632
0.000475467
0.000475384
0.000475203
0.000475088
0.000475195
0.000476176
0.000476173
0.000475031
0.000475576
0.000475075
0.00047512
0.000475912
0.000475464
0.000475214
0.000475028
0.000475061
0.000476339
0.000475519
0.000475051
0.000475034
0.000475082
0.000475187
0.000475534
0.000475088
0.000477778
0.000475019
0.000477776
0.000475951
0.000475478
0.000475012
0.00047504
0.000475058
0.000475157
0.000475906
0.000475139
0.00047503
0.000475017
0.000475066
0.000475122
0.000475249
0.000475131
0.000475636
0.000475134
0.00047506
0.000475208
0.000475108
0.000475075
0.000475073
0.000475141
0.000475123
0.000475013
0.000476743
0.000475049
0.000476731
0.000475017
0.000475039
0.000475746
0.000475178
0.00047543
0.000475234
0.000475906
0.000476585
0.000475159
0.000475052
0.000475025
0.000476224
0.000475159
0.000475483
0.000475163
0.000475017
0.000476777
0.000475072
0.000475221
0.000475511
0.000476772
0.000475018
0.000475325
0.000475064
0.000475259
0.000475056
0.00047516
0.00047536
0.000475196
0.000475083
0.000475034
0.000475105
0.000475176
0.000475039
0.000475142
0.000475253
0.000475161
0.000475312
0.000475008
0.000475012
0.000475115
0.000475052
0.000475038
0.000475073
0.000475038
0.00047502
0.000475133
0.000475012
0.000475009
0.000475034
0.000475017
0.000475964
0.000475019
0.000475032
0.000475319
0.000475015
0.000475626
0.00047596
0.000475288
0.000476176
0.000475275
0.000475029
0.000475147
0.000475156
0.000475022
0.000475529
0.00047503
0.000475428
0.000475621
0.000475974
0.000475159
0.000475536
0.000475044
0.000475028
0.000475033
0.000475159
0.000475125
0.000475142
0.000475479
0.00047517
0.000475454
0.000475185
0.000475041
0.000475014
0.00047548
0.000475029
0.000475494
0.000475474
0.00047503
0.00047581
0.000475181
0.000475783
0.00047538
0.000475225
0.000475507
0.000475042
0.000475411
0.000475012
0.000475618
0.000475221
0.000475223
0.000475179
0.00047519
0.000475191
0.000475186
0.000475291
0.000475763
0.000475756
0.000475767
0.000475768
0.000476173
0.000476182
0.00047503
0.000475271
0.000475045
0.000475027
0.000475802
0.000475814
0.000475059
0.000475022
0.000475028
0.000475153
0.000475027
0.000475823
0.000475026
0.000475522
0.000475018
0.000475032
0.000475016
0.000475065
0.000475055
0.000475498
0.000475064
0.000475099
0.000475008
0.000475063
0.000475024
0.000475211
0.000477044
0.0004752
0.000475067
0.000475025
0.000475042
0.000475276
0.000475013
0.000475212
0.000475065
0.000477039
0.000475013
0.000475231
0.000475417
0.000475124
0.000475791
0.000475527
0.000476205
0.000475116
0.00047509
0.00047508
0.000476093
0.000475061
0.000475273
0.000475015
0.000475829
0.000475314
0.000475019
0.000475456
0.000475021
0.000475352
0.000475015
0.000475023
0.000477444
0.000475997
0.000475834
0.000475828
0.000475269
0.000475014
0.000476624
0.000475393
0.000475086
0.00047502
0.000475
0.00047608
0.000475022
0.000475955
0.000474998
0.000475078
0.000475028
0.000475065
0.000475662
0.000475027
0.00047744
0.000475004
0.000475564
0.000475023
0.000475461
0.00047501
0.000475099
0.000475163
0.000475091
0.000475022
0.00047608
0.000475037
0.000475129
0.000475502
0.000475189
0.000475011
0.000475012
0.000475067
0.000475635
0.000475019
0.000475227
0.000475187
0.000476183
0.000475009
0.000475052
0.000475108
0.000475052
0.000475011
0.000475057
0.000475784
0.000475232
0.000475051
0.000475038
0.00047532
0.000475323
0.000475025
0.000476178
0.000475137
0.000475213
0.000475055
0.000475119
0.000475084
0.000475081
0.000475093
0.000475091
0.000475087
0.000475077
0.000475075
0.000475653
0.000476508
0.00047517
0.000475122
0.000475057
0.000475051
0.000475325
0.000475065
0.00047505
0.00047651
0.000475056
0.00047578
0.000475031
0.000475681
0.000475163
0.000475107
0.000475049
0.000476095
0.000475197
0.000475114
0.000475202
0.00047512
0.000475024
0.000475026
0.000475123
0.000475184
0.000475777
0.000475071
0.000475025
0.00047504
0.000475094
0.000475178
0.000475351
0.000475045
0.000475345
0.00047513
0.000475108
0.000475287
0.000475127
0.00047504
0.000475451
0.000475096
0.000476443
0.00047508
0.000475637
0.000475785
0.000475188
0.000475072
0.000475433
0.000475129
0.000475167
0.000475092
0.000475159
0.000477425
0.000477443
0.0004752
0.000475049
0.000475101
0.000475055
0.000478189
0.000478179
0.00047514
0.000475266
0.0004753
0.000475134
0.000475037
0.000475485
0.000475039
0.000475033
0.000475092
0.000475131
0.000475536
0.000475039
0.000475185
0.000475188
0.000475041
0.000475096
0.00047504
0.000475053
0.000475121
0.000475065
0.0004751
0.000475206
0.000475078
0.000475028
0.000475076
0.000475103
0.000475082
0.000475079
0.000475893
0.000475063
0.000475424
0.000475531
0.000475088
0.00047509
0.000475087
0.000476172
0.000477407
0.000477403
0.00047604
0.000475026
0.000475212
0.000475074
0.000477309
0.00047804
0.000478036
0.000475128
0.000476668
0.000476958
0.000475177
0.000475934
0.000475129
0.000475193
0.000475474
0.000475639
0.000475294
0.000475126
0.000475129
0.000475394
0.000475477
0.00047512
0.000476808
0.000475169
0.000475461
0.000475268
0.000475029
0.000475096
0.000475248
0.000476262
0.000475238
0.000476258
0.000475095
0.00047555
0.000476902
0.000476921
0.000475081
0.000475296
0.000475285
0.000475297
0.000475277
0.000475503
0.000475144
0.000475269
0.00047503
0.000475288
0.000476363
0.000476358
0.000475297
0.00047507
0.000475121
0.000475289
0.000475122
0.000475292
0.000475125
0.000476722
0.000475085
0.000475138
0.000475288
0.000475246
0.000475675
0.00047512
0.000475284
0.000475274
0.00047532
0.00047508
0.000475279
0.000475128
0.000475277
0.000475127
0.000475153
0.00047647
0.000477966
0.000477905
0.00047537
0.000477957
0.000477953
0.000477927
0.000477572
0.000475088
0.000476869
0.000476065
0.000476503
0.000475342
0.000477684
0.00047768
0.000476561
0.000475129
0.000475057
0.000475145
0.000475183
0.00047517
0.000477221
0.000477207
0.000477171
0.000477182
0.000477216
0.000477871
0.000477172
0.000477683
0.000477979
0.00047724
0.000477246
0.000477996
0.000477872
0.000477682
0.000477193
SCALARS rr_(T) float
LOOKUP_TABLE default
0.000597593
0.00059884
0.000598619
0.000598684
0.000601117
0.000598623
0.000597583
0.000598865
0.00059839
0.000598846
0.000597451
0.00059887
0.000598753
0.000599052
0.000600204
0.00059857
0.000599287
0.000598743
0.000598314
0.000598536
0.000598546
0.000604708
0.000598529
0.000598567
0.000598537
0.000598861
0.000597659
0.00059879
0.00059791
0.000602525
0.00059872
0.00059792
0.000597653
0.00060203
0.000602166
0.000602021
0.000602662
0.000602018
0.000598744
0.000597655
0.000597926
0.00060271
0.000602701
0.000598703
0.000597701
0.000597921
0.000598361
0.000598408
0.000598713
0.000597843
0.000597903
0.000598053
0.000600995
0.000598032
0.000600919
0.000597753
0.000602193
0.000598042
0.000602183
0.000598567
0.000599256
0.00059983
0.000597789
0.000599831
0.000599841
0.000599434
0.000599281
0.000598865
0.000598527
0.000598882
0.000600975
0.000600968
0.00059791
0.000599674
0.000598552
0.000597569
0.000600419
0.000599428
0.000598882
0.000598081
0.000597853
0.000601338
0.000599576
0.000597797
0.00059796
0.00059771
0.000598763
0.000599575
0.000597705
0.0006043
0.000598036
0.000604294
0.000600496
0.000599437
0.000598036
0.000597881
0.000597851
0.000598804
0.000600407
0.000598702
0.000598211
0.000597963
0.000597821
0.000598707
0.000598959
0.00059875
0.000599807
0.00059868
0.000597808
0.00059892
0.00059858
0.000597725
0.000597784
0.000598733
0.00059873
0.000598033
0.000602176
0.000597829
0.000602151
0.000598045
0.000598275
0.000600075
0.000598847
0.000599389
0.000598975
0.000600393
0.000601841
0.000598806
0.00059784
0.000598059
0.000601061
0.000598806
0.000599506
0.000598818
0.000597965
0.00060224
0.0005978
0.000598871
0.000599561
0.000602231
0.000597982
0.000599115
0.000598342
0.000598992
0.000597836
0.00059879
0.000599158
0.000598766
0.000598558
0.000598175
0.000598505
0.000598842
0.000597927
0.000598723
0.000598982
0.000598811
0.000599125
0.000597979
0.00059799
0.00059867
0.000598415
0.000597937
0.000597712
0.000597891
0.000597997
0.000598756
0.000597984
0.000597977
0.00059792
0.000597995
0.000600522
0.000598037
0.000597879
0.000599151
0.000598034
0.000599785
0.000600516
0.000599008
0.000600984
0.000599011
0.000597913
0.000598785
0.000598799
0.00059799
0.000599572
0.000597865
0.000599387
0.000599783
0.000600545
0.000598809
0.000599584
0.00059784
0.000598056
0.00059792
0.00059881
0.000598697
0.000598732
0.000599498
0.000598831
0.000599405
0.000598861
0.000598328
0.000598067
0.000599499
0.000597914
0.000599532
0.000599443
0.000597978
0.000600179
0.000598855
0.00060014
0.000599237
0.000598914
0.000599557
0.000598195
0.000599304
0.000598078
0.000599777
0.000598949
0.000598952
0.000598858
0.000598884
0.000598888
0.000598878
0.000599058
0.000600111
0.000600095
0.000600118
0.000600122
0.000600962
0.000600977
0.000598165
0.000599026
0.00059857
0.000598364
0.000600189
0.000600215
0.000598598
0.000598083
0.000598535
0.000598798
0.000598176
0.000600205
0.000598167
0.000599587
0.000598512
0.000598187
0.00059809
0.000597858
0.000597848
0.000599543
0.000597831
0.000598627
0.000598069
0.000598356
0.000598527
0.000598929
0.000602787
0.000598907
0.000597827
0.0005981
0.000598562
0.000598989
0.000598061
0.000598929
0.000598349
0.000602779
0.000598081
0.000598969
0.000599358
0.000598701
0.000600166
0.000599559
0.000601031
0.000598671
0.000597774
0.000597704
0.000600789
0.000598473
0.000598984
0.000598148
0.000600217
0.000599143
0.00059809
0.000599401
0.000598199
0.000599148
0.000598191
0.000598089
0.000603619
0.000600595
0.000600251
0.00060024
0.00059902
0.0005982
0.000601902
0.000599311
0.00059848
0.000598215
0.000598136
0.000600767
0.000598166
0.000600501
0.000598147
0.00059769
0.00059822
0.000597845
0.00059986
0.000598175
0.000603611
0.000598157
0.000599649
0.000598152
0.00059945
0.000598164
0.000598604
0.000597792
0.000598564
0.000598162
0.000600759
0.000598181
0.000598559
0.000599526
0.000598875
0.000598167
0.000598195
0.000598349
0.000599806
0.000598204
0.000598897
0.000598765
0.000600989
0.000598189
0.000598317
0.000598542
0.000598333
0.000598178
0.000598343
0.000600116
0.000598905
0.000598322
0.000598187
0.000599103
0.00059911
0.00059821
0.000600978
0.000597434
0.000598806
0.000597841
0.000598566
0.000596604
0.000596599
0.000596629
0.000596622
0.000596619
0.000596588
0.000596591
0.000599845
0.000601655
0.000598771
0.00059854
0.000598346
0.000598329
0.000599101
0.000598344
0.000598312
0.00060166
0.000598337
0.000600132
0.000598056
0.000599942
0.000598699
0.000598511
0.00059832
0.000600795
0.000598779
0.000598534
0.000598788
0.000598545
0.00059827
0.000598072
0.000598539
0.000598744
0.000600133
0.000598383
0.000598258
0.000598323
0.000598479
0.000598729
0.000599151
0.00059833
0.000599139
0.000598627
0.000598508
0.000599012
0.000598628
0.000598305
0.000599433
0.000598514
0.000601527
0.000597694
0.000599819
0.000600119
0.000598747
0.000598476
0.00059937
0.000597438
0.000598707
0.000598506
0.000597794
0.000603576
0.000603612
0.000598781
0.000598332
0.000598538
0.000598356
0.000605174
0.000605156
0.000598743
0.000598975
0.00059903
0.000597444
0.000598287
0.000599512
0.000598386
0.000598364
0.000598479
0.000597416
0.000599579
0.000598305
0.000598753
0.000598758
0.000598374
0.000598501
0.000598371
0.000598407
0.000597643
0.000597848
0.000598505
0.000598791
0.000598484
0.000598346
0.00059847
0.000598536
0.000598491
0.000597694
0.00060036
0.000598361
0.00059935
0.000599579
0.000597699
0.000598575
0.000598558
0.000600967
0.000603534
0.000603527
0.00060067
0.000598265
0.000598796
0.000597661
0.000603329
0.000604875
0.000604868
0.000597394
0.000602023
0.000602605
0.000598721
0.000600461
0.000598698
0.000598879
0.000599477
0.000599811
0.00059902
0.000597428
0.000598667
0.000599284
0.000599495
0.000597561
0.000602289
0.000597788
0.000599463
0.00059902
0.000598192
0.000598631
0.000598931
0.000601141
0.000598933
0.000601132
0.000598593
0.000599631
0.000602479
0.000602522
0.000597679
0.000599082
0.000597635
0.000597683
0.000597591
0.00059952
0.000597445
0.000597547
0.000598352
0.000597625
0.000601385
0.000601376
0.000597663
0.000598475
0.000597648
0.000597635
0.000597623
0.000597635
0.000597629
0.000602128
0.000597634
0.00059744
0.000597644
0.000598924
0.000599905
0.000597598
0.000598996
0.000597566
0.000599104
0.000598501
0.000597603
0.000597591
0.000597577
0.000597392
0.000598673
0.0006016
0.000604713
0.000604585
0.000599216
0.000604692
0.000604685
0.000604631
0.000603877
0.000597667
0.000602415
0.000600724
0.000601657
0.000599147
0.000604111
0.000604104
0.00060179
0.000597381
0.000598449
0.000597428
0.000597791
0.000597778
0.000603152
0.000603123
0.000603048
0.000603071
0.000603143
0.000604515
0.000603051
0.000604105
0.000604739
0.000603187
0.000603199
0.000604774
0.000604521
0.00060411
0.000603079
SCALARS rr_tsim float
LOOKUP_TABLE default
10
10
10
10
10
10
10
10
10
10
10
10
10
10
10
10
10
10
10
10
10
10
10
10
10
10
10
10
10
10
10
10
10
10
10
10
10
10
10
10
10
10
10
10
10
10
10
10
10
10
10
10
10
10
10
10
10
10
10
10
10
10
10
10
10
10
10
10
10
10
10
10
10
10
10
10
10
10
10
10
10
10
10
10
10
10
10
10
10
10
10
10
10
10
10
10
10
10
10
10
10
10
10
10
10
10
10
10
10
10
10
10
10
10
10
10
10
10
10
10
10
10
10
10
10
10
10
10
10
10
10
10
10
10
10
10
10
10
10
10
10
10
10
10
10
10
10
10
10
10
10
10
10
10
10
10
10
10
10
10
10
10
10
10
10
10
10
10
10
10
10
10
10
10
10
10
10
10
10
10
10
10
10
10
10
10
10
10
10
10
10
10
10
10
10
10
10
10
10
10
10
10
10
10
10
10
10
10
10
10
10
10
10
10
10
10
10
10
10
10
10
10
10
10
10
10
10
10
10
10
10
10
10
10
10
10
10
10
10
10
10
10
10
10
10
10
10
10
10
10
10
10
10
10
10
10
10
10
10
10
10
10
10
10
10
10
10
10
10
10
10
10
10
10
10
10
10
10
10
10
10
10
10
10
10
10
10
10
10
10
10
10
10
10
10
10
10
10
10
10
10
10
10
10
10
10
10
10
10
10
10
10
10
10
10
10
10
10
10
10
10
10
10
10
10
10
10
10
10
10
10
10
10
10
10
10
10
10
10
10
10
10
10
10
10
10
10
10
10
10
10
10
10
10
10
10
10
10
10
10
10
10
10
10
10
10
10
10
10
10
10
10
10
10
10
10
10
10
10
10
10
10
10
10
10
10
10
10
10
10
10
10
10
10
10
10
10
10
10
10
10
10
10
10
10
10
10
10
10
10
10
10
10
10
10
10
10
10
10
10
10
10
10
10
10
10
10
10
10
10
10
10
10
10
10
10
10
10
10
10
10
10
10
10
10
10
10
10
10
10
10
10
10
10
10
10
10
10
10
10
10
10
10
10
10
10
10
10
10
10
10
10
10
10
10
10
10
10
10
10
10
10
10
10
10
10
10
10
10
10
10
10
10
10
10
10
10
10
10
10
10
10
10
10
10
10
10
10
10
10
10
10
10
10
10
10
10
10
10
10
10
10
10
10
10
10
10
10
10
10
10
10
10
10
10
10
10
10
10
10
10
10
10
10
10
10
10
10
10
10
10
10
10
10
10
10
10
10
10
10
10
10
10
SCALARS rr_Vext float
LOOKUP_TABLE default
0.181362
0.449139
0.356061
0.468126
0.250499
0.377841
0.179278
0.465105
0.39512
0.504584
0.165392
0.466525
0.40984
0.435028
0.516151
0.42488
0.369056
0.414199
0.365544
0.36054
0.405123
0.0765115
0.415084
0.383028
0.347117
0.403486
0.155014
0.352846
0.267421
0.339253
0.361982
0.276493
0.171524
0.252907
0.249252
0.253457
0.330132
0.249496
0.361553
0.19284
0.224728
0.291056
0.291065
0.397286
0.216891
0.244127
0.344624
0.350196
0.330091
0.303769
0.312863
0.245244
0.401528
0.315217
0.369424
0.157758
0.266184
0.317526
0.266156
0.393199
0.470945
0.464887
0.153279
0.327652
0.445327
0.417388
0.45567
0.391919
0.357998
0.515575
0.435566
0.430802
0.277662
0.338755
0.353985
0.17643
0.372686
0.41349
0.395183
0.271141
0.240497
0.283514
0.527549
0.240257
0.32777
0.119295
0.407594
0.34462
0.229712
0.0374833
0.273101
0.0407612
0.316366
0.299322
0.258667
0.23299
0.220914
0.442946
0.372921
0.351868
0.293545
0.277778
0.230484
0.418591
0.426152
0.383845
0.340637
0.34086
0.244635
0.512536
0.326038
0.164043
0.220062
0.457895
0.429733
0.304491
0.308637
0.183513
0.320042
0.303376
0.266995
0.502664
0.511828
0.442054
0.484543
0.384963
0.22082
0.478227
0.200084
0.262287
0.227509
0.456411
0.449038
0.448265
0.288946
0.187541
0.190643
0.327451
0.404482
0.187463
0.241549
0.387303
0.287979
0.472774
0.223282
0.385203
0.349743
0.336139
0.214797
0.269555
0.304309
0.440642
0.248034
0.397424
0.462005
0.469259
0.307866
0.249016
0.247664
0.40115
0.333864
0.246124
0.16008
0.239711
0.240474
0.43097
0.252356
0.255108
0.274628
0.245946
0.386354
0.258191
0.226065
0.297724
0.27282
0.340316
0.382128
0.361145
0.313985
0.360857
0.266575
0.418261
0.448868
0.241622
0.442314
0.239446
0.436809
0.402749
0.378976
0.379428
0.446241
0.20078
0.266936
0.246024
0.447425
0.439036
0.407213
0.447908
0.452968
0.381877
0.466585
0.307726
0.274118
0.512747
0.285555
0.465968
0.369973
0.226661
0.28635
0.461741
0.389046
0.350319
0.450071
0.44527
0.278868
0.28423
0.267551
0.395465
0.433434
0.498109
0.478105
0.520388
0.471574
0.515304
0.43207
0.457215
0.460664
0.434367
0.45637
0.422929
0.416646
0.28242
0.389423
0.454311
0.312131
0.470286
0.432168
0.492677
0.288255
0.468293
0.448693
0.284509
0.406924
0.282478
0.455252
0.411304
0.296264
0.277686
0.235559
0.271105
0.455787
0.197506
0.347032
0.276536
0.313914
0.468688
0.455564
0.147791
0.45712
0.236437
0.261772
0.466287
0.379039
0.264593
0.5222
0.29124
0.147782
0.267732
0.406413
0.508938
0.382703
0.457768
0.425169
0.22662
0.216739
0.175983
0.201433
0.308142
0.229083
0.371993
0.227532
0.406403
0.287632
0.26811
0.323963
0.293531
0.398534
0.281495
0.287605
0.136372
0.30358
0.437822
0.43807
0.391537
0.281125
0.192363
0.545895
0.3605
0.298327
0.2743
0.284983
0.282738
0.358852
0.2781
0.192064
0.2748
0.183501
0.351077
0.279585
0.127093
0.26373
0.321347
0.279323
0.443684
0.290719
0.381481
0.138318
0.305672
0.287023
0.261631
0.269326
0.322002
0.308732
0.321057
0.266572
0.271172
0.293869
0.403613
0.276104
0.399035
0.358799
0.290804
0.286483
0.290132
0.323383
0.289921
0.270126
0.308539
0.333039
0.387879
0.290178
0.286362
0.425156
0.419261
0.27622
0.290842
0.117371
0.342074
0.227684
0.319691
0.126306
0.131124
0.117234
0.119131
0.126412
0.133078
0.137187
0.365829
0.275209
0.269672
0.305544
0.296216
0.292417
0.314719
0.286002
0.292396
0.31083
0.291323
0.368798
0.261071
0.378844
0.289112
0.277587
0.291605
0.322773
0.329004
0.304705
0.35106
0.326041
0.300399
0.213982
0.303869
0.298871
0.328289
0.305318
0.288528
0.275044
0.304073
0.319102
0.436174
0.283315
0.424013
0.438673
0.298874
0.422876
0.322485
0.255686
0.356804
0.307327
0.229509
0.185274
0.353359
0.377149
0.313442
0.259551
0.317022
0.138206
0.309873
0.289522
0.140572
0.0597494
0.0653762
0.26866
0.283303
0.331367
0.316596
0.0311311
0.0325289
0.31819
0.321552
0.304251
0.103726
0.264734
0.315913
0.315651
0.272084
0.240289
0.107865
0.464479
0.284954
0.352171
0.357682
0.25517
0.323455
0.249483
0.275488
0.129742
0.199386
0.323815
0.32776
0.280333
0.293572
0.303667
0.320514
0.306418
0.143964
0.275786
0.301362
0.290892
0.4375
0.143861
0.233739
0.240579
0.234528
0.155627
0.155631
0.267705
0.208513
0.301882
0.153859
0.185528
0.0614172
0.0614147
0.112312
0.199637
0.134973
0.257008
0.284545
0.297816
0.337011
0.307426
0.285239
0.222222
0.127173
0.278058
0.290589
0.282446
0.144132
0.147647
0.104631
0.281955
0.285979
0.224187
0.258258
0.238719
0.223796
0.292919
0.223762
0.257211
0.251393
0.158049
0.195244
0.165312
0.310655
0.112708
0.11892
0.115941
0.294541
0.107692
0.104734
0.200922
0.0979334
0.24316
0.243514
0.100661
0.255452
0.113725
0.11099
0.127157
0.10586
0.105725
0.174208
0.126243
0.112776
0.106279
0.235817
0.272666
0.118746
0.260324
0.096078
0.264795
0.208178
0.100552
0.0864367
0.0948709
0.126463
0.225558
0.192183
0.0824432
0.0914081
0.253863
0.0775866
0.0775833
0.0878725
0.0979632
0.0995871
0.127336
0.207537
0.193798
0.253775
0.0775251
0.0775218
0.229256
0.084348
0.178719
0.0765203
0.0783429
0.103273
0.198598
0.205599
0.21891
0.200662
0.198583
0.0438928
0.320386
0.0557543
0.0543423
0.259012
0.257242
0.056335
0.0390576
0.0548051
0.238563
SCALARS rr_Vli float
LOOKUP_TABLE default
0.396489
0.903308
0.721411
0.942913
0.493007
0.765673
0.392036
0.93768
0.806276
1.01513
0.359837
0.940553
0.827711
0.874163
1.02413
0.859738
0.739402
0.835925
0.748804
0.732061
0.823489
0.146196
0.843747
0.777634
0.704895
0.813149
0.333351
0.714264
0.560613
0.659805
0.731233
0.579533
0.369274
0.494396
0.485908
0.49551
0.641461
0.486899
0.73049
0.415067
0.471214
0.565333
0.565393
0.802523
0.463326
0.511152
0.704669
0.713579
0.668688
0.640148
0.65732
0.509714
0.791288
0.65496
0.728505
0.336096
0.518811
0.659762
0.518794
0.798055
0.943874
0.925039
0.327842
0.652224
0.886019
0.836204
0.913009
0.789782
0.727297
1.03672
0.858514
0.849159
0.582215
0.676858
0.716977
0.381185
0.738166
0.828447
0.79643
0.562485
0.507627
0.556452
1.05352
0.508336
0.68539
0.254581
0.825084
0.689494
0.490664
0.0719437
0.567534
0.0782464
0.626356
0.600265
0.537113
0.489906
0.466221
0.891224
0.738714
0.711156
0.604223
0.579678
0.487753
0.84412
0.85809
0.772723
0.679553
0.689387
0.517763
1.02966
0.661685
0.349481
0.467063
0.923831
0.865445
0.632498
0.601617
0.387414
0.624006
0.629997
0.547965
0.998321
1.02949
0.884287
0.972867
0.76326
0.431753
0.962247
0.422256
0.544651
0.448456
0.91849
0.897119
0.901833
0.602905
0.36554
0.404185
0.660939
0.807741
0.365417
0.503543
0.778942
0.590247
0.95107
0.471535
0.776073
0.70433
0.680962
0.435251
0.556274
0.620253
0.886317
0.519986
0.802506
0.929452
0.944272
0.61786
0.518661
0.515718
0.810206
0.680213
0.515664
0.341241
0.503643
0.500933
0.867524
0.52565
0.531448
0.575701
0.512241
0.764775
0.536479
0.475019
0.597032
0.566764
0.679107
0.756459
0.728166
0.618517
0.726381
0.558765
0.841645
0.903314
0.503626
0.884791
0.503413
0.873816
0.803291
0.749922
0.763398
0.892551
0.423348
0.554575
0.515695
0.90022
0.88631
0.82172
0.894913
0.911206
0.765279
0.938427
0.629681
0.568298
1.02455
0.598476
0.930562
0.741285
0.473245
0.569204
0.928584
0.772735
0.703613
0.906445
0.889147
0.575335
0.570477
0.554205
0.78879
0.870387
1.00029
0.961026
1.0456
0.947462
1.0354
0.868722
0.907706
0.914778
0.862353
0.905941
0.833937
0.821523
0.58301
0.782803
0.915918
0.636245
0.93313
0.857218
0.993036
0.597481
0.94438
0.902765
0.586742
0.808809
0.58278
0.908865
0.829736
0.610887
0.574987
0.49731
0.572066
0.910111
0.417618
0.701489
0.572851
0.642719
0.945268
0.914978
0.286929
0.918305
0.500201
0.542264
0.940112
0.764209
0.548654
1.04889
0.596682
0.286929
0.554506
0.815987
1.01857
0.772242
0.908475
0.850832
0.446604
0.437757
0.374437
0.429887
0.608689
0.465565
0.75
0.469389
0.807677
0.576823
0.555346
0.649554
0.604002
0.802286
0.579185
0.596026
0.263021
0.600448
0.868519
0.869138
0.787217
0.578069
0.376391
1.09286
0.734308
0.613265
0.565372
0.562963
0.583129
0.710466
0.572683
0.410199
0.565173
0.387695
0.700133
0.576605
0.24515
0.543083
0.64212
0.576626
0.88725
0.598804
0.772182
0.296224
0.61981
0.592068
0.517045
0.555823
0.655886
0.617321
0.645557
0.549016
0.557653
0.602203
0.804994
0.567877
0.804515
0.726251
0.57316
0.589134
0.594782
0.65785
0.593801
0.556
0.631814
0.662553
0.782189
0.594658
0.590816
0.855296
0.843317
0.568306
0.573283
0.256089
0.692609
0.480632
0.650111
0.287607
0.298551
0.266804
0.271172
0.287683
0.303057
0.312312
0.729351
0.539728
0.544572
0.622611
0.606507
0.598939
0.633526
0.586137
0.59949
0.609474
0.596719
0.732666
0.542551
0.753115
0.58601
0.565705
0.597472
0.637472
0.66612
0.620599
0.710724
0.664004
0.615749
0.444044
0.619304
0.605578
0.65201
0.624643
0.591875
0.562878
0.620024
0.646728
0.877927
0.579864
0.853557
0.889749
0.609284
0.852438
0.653936
0.523846
0.713551
0.625432
0.450405
0.395668
0.704475
0.75032
0.635208
0.528054
0.635259
0.301238
0.628028
0.589272
0.300914
0.115299
0.126127
0.54401
0.580103
0.673744
0.647669
0.0592776
0.0619391
0.641404
0.648094
0.613488
0.226114
0.54281
0.631019
0.643424
0.55502
0.489883
0.235471
0.929293
0.583739
0.71324
0.724391
0.520588
0.658855
0.508995
0.561653
0.279103
0.42118
0.659639
0.663716
0.57044
0.599131
0.618263
0.6519
0.62353
0.30743
0.547102
0.616838
0.583021
0.874911
0.30737
0.473539
0.487759
0.462245
0.300517
0.300537
0.529558
0.427597
0.611543
0.329008
0.358878
0.117177
0.117176
0.2454
0.389622
0.262496
0.521056
0.563545
0.601418
0.677654
0.614663
0.569075
0.448041
0.277252
0.562553
0.582806
0.564254
0.311559
0.287926
0.224286
0.563458
0.574856
0.461947
0.521753
0.481459
0.44084
0.590101
0.440802
0.520828
0.502152
0.307813
0.38003
0.353396
0.623989
0.246787
0.259981
0.254335
0.589289
0.234982
0.230139
0.410014
0.214645
0.477125
0.477847
0.220335
0.519616
0.244576
0.243123
0.273903
0.231959
0.227741
0.339832
0.270699
0.245998
0.232679
0.475754
0.543008
0.256118
0.525113
0.211013
0.532695
0.423224
0.220455
0.186664
0.208256
0.27632
0.457472
0.376611
0.157552
0.174883
0.509992
0.148308
0.148306
0.168049
0.188629
0.213207
0.248115
0.410277
0.379764
0.510346
0.149005
0.149004
0.448515
0.184463
0.363614
0.16715
0.168151
0.221555
0.384552
0.398197
0.424216
0.388781
0.384542
0.0840106
0.620735
0.107164
0.103829
0.501447
0.497968
0.107596
0.0747332
0.105301
0.462545
SCALARS rr_S_ext' float
LOOKUP_TABLE default
-0.00419399
-0.00967915
-0.00772185
-0.0101019
-0.00529469
-0.00819541
-0.00414673
-0.0100434
-0.00862151
-0.0108768
-0.00380958
-0.0100742
-0.00886362
-0.00936712
-0.01099
-0.00920457
-0.00792593
-0.00895265
-0.00800234
-0.00783349
-0.00881028
-0.0015745
-0.0090271
-0.00832122
-0.00754265
-0.00871014
-0.00353569
-0.00764583
-0.00597022
-0.00709444
-0.00783027
-0.00617185
-0.003916
-0.00531292
-0.00522348
-0.00532484
-0.00689769
-0.00523365
-0.00782205
-0.00440179
-0.00501797
-0.00607925
-0.00607984
-0.00859379
-0.00491954
-0.00544454
-0.00753267
-0.00763196
-0.00715737
-0.00681167
-0.00699765
-0.00543534
-0.00849694
-0.00698455
-0.00782224
-0.00357014
-0.0055773
-0.00703572
-0.00557707
-0.0085401
-0.0101173
-0.00992381
-0.00348016
-0.0069966
-0.00950534
-0.00896293
-0.00978681
-0.00845991
-0.00778189
-0.0111089
-0.00921867
-0.00911817
-0.00620005
-0.00725715
-0.00767503
-0.00404008
-0.00792246
-0.00887971
-0.00853095
-0.00599978
-0.00540015
-0.00597793
-0.0112973
-0.00540571
-0.00730187
-0.00270356
-0.00883218
-0.00739148
-0.00520989
-0.000774471
-0.00605208
-0.000842309
-0.00672266
-0.00643302
-0.00572841
-0.00521476
-0.00495979
-0.0095492
-0.00792823
-0.00761477
-0.00645263
-0.00617765
-0.00518661
-0.00904169
-0.00919236
-0.008279
-0.00728742
-0.00738096
-0.00550564
-0.0110347
-0.00708084
-0.00371236
-0.0049643
-0.00989463
-0.00927195
-0.00674531
-0.00646748
-0.00412125
-0.00670801
-0.00671892
-0.00585438
-0.010712
-0.011031
-0.00948082
-0.0104268
-0.00819067
-0.00464002
-0.0103102
-0.00449211
-0.00580872
-0.00481529
-0.00984106
-0.00961981
-0.00966299
-0.00642531
-0.00392954
-0.00429673
-0.00707793
-0.00866184
-0.00392818
-0.00536714
-0.0083454
-0.00630725
-0.0101898
-0.00501581
-0.0083137
-0.00754429
-0.00728857
-0.00465892
-0.00593823
-0.00663322
-0.009497
-0.0055375
-0.00859402
-0.00995809
-0.0101174
-0.00662177
-0.00552905
-0.00549787
-0.00867641
-0.00727522
-0.005492
-0.0036245
-0.00536164
-0.00533991
-0.0092948
-0.00560348
-0.0056652
-0.0061309
-0.00546062
-0.00820847
-0.00572103
-0.00505686
-0.00639927
-0.00604419
-0.00728239
-0.00811914
-0.00779872
-0.00664211
-0.00778161
-0.00595066
-0.00901789
-0.00967848
-0.00536813
-0.00948532
-0.00535869
-0.0093685
-0.00861472
-0.00804941
-0.00817959
-0.00956863
-0.00450437
-0.0059141
-0.00549195
-0.00964561
-0.00949199
-0.00880072
-0.00959608
-0.00976357
-0.00820244
-0.0100554
-0.0067304
-0.00606242
-0.010986
-0.0063737
-0.00997891
-0.00794543
-0.00504295
-0.00610634
-0.00995015
-0.00829106
-0.00753945
-0.00971021
-0.00953489
-0.00614191
-0.00611333
-0.00591287
-0.00845915
-0.00932837
-0.0107206
-0.0102986
-0.0112054
-0.0101538
-0.0110962
-0.009308
-0.00974013
-0.00981575
-0.00925347
-0.00972132
-0.00895437
-0.00882104
-0.00622333
-0.00838786
-0.00981205
-0.00680458
-0.0100136
-0.00919927
-0.0106385
-0.00637391
-0.0101166
-0.00967295
-0.00626411
-0.00867684
-0.00622146
-0.00974655
-0.00888815
-0.00652203
-0.00613492
-0.00529019
-0.00608592
-0.00975973
-0.0044414
-0.00751136
-0.00611177
-0.00686905
-0.010126
-0.00980607
-0.00308556
-0.00984146
-0.00531924
-0.00578537
-0.0100712
-0.00818484
-0.00585271
-0.0112411
-0.00637641
-0.00308554
-0.0059162
-0.00874549
-0.0109199
-0.00827095
-0.00974878
-0.00912083
-0.00479558
-0.0046879
-0.00397821
-0.00456521
-0.00653445
-0.00498126
-0.00803267
-0.00501109
-0.00866482
-0.00618263
-0.00592505
-0.00696154
-0.00645061
-0.0085941
-0.00618568
-0.00635855
-0.00283018
-0.00644529
-0.00932018
-0.00932665
-0.00843483
-0.00617433
-0.00404447
-0.011716
-0.00785386
-0.00655052
-0.00603664
-0.00604356
-0.00622551
-0.00762548
-0.00611555
-0.00435563
-0.00603637
-0.00412368
-0.0075083
-0.00615588
-0.00263787
-0.00579944
-0.00688479
-0.0061552
-0.00951286
-0.00639422
-0.00826665
-0.00314386
-0.00663369
-0.00632078
-0.00555031
-0.00593335
-0.00701483
-0.00661856
-0.00691744
-0.00586265
-0.00595621
-0.00643517
-0.00863297
-0.00606525
-0.00861696
-0.00777429
-0.00615451
-0.00629248
-0.00635556
-0.00703732
-0.00634595
-0.00593775
-0.00675237
-0.00710714
-0.00837748
-0.00635458
-0.00630717
-0.00916307
-0.00903492
-0.0060695
-0.00615577
-0.00270993
-0.00741372
-0.0051129
-0.00695484
-0.00302239
-0.00313746
-0.00280401
-0.00284983
-0.00302347
-0.00318473
-0.00328218
-0.00782209
-0.00579826
-0.00583166
-0.00665858
-0.00648201
-0.00640083
-0.00678655
-0.00626342
-0.00640576
-0.00654774
-0.00637704
-0.00786089
-0.00578559
-0.00808033
-0.00627193
-0.00604995
-0.00638484
-0.00684363
-0.00713027
-0.00663756
-0.00760779
-0.00710186
-0.00657986
-0.00473621
-0.00662304
-0.00648155
-0.00699579
-0.00667659
-0.006324
-0.00601626
-0.0066304
-0.00692177
-0.00940452
-0.0061977
-0.00914333
-0.00952211
-0.00651569
-0.00912994
-0.00699866
-0.00559816
-0.00765045
-0.00669019
-0.0048384
-0.00420138
-0.00755536
-0.00804861
-0.00679849
-0.0056489
-0.00680907
-0.00318824
-0.00672169
-0.00630328
-0.00319387
-0.00124058
-0.00135711
-0.0058231
-0.0061998
-0.00720792
-0.00692284
-0.000638609
-0.000667284
-0.00687065
-0.00694162
-0.00657034
-0.00239309
-0.00580013
-0.00676662
-0.00688128
-0.00593521
-0.00523883
-0.00249155
-0.00996217
-0.00623831
-0.00763439
-0.00775376
-0.00556685
-0.00704673
-0.00544289
-0.00600656
-0.00296017
-0.00447997
-0.00705503
-0.00710434
-0.00610212
-0.00640649
-0.00661317
-0.00697388
-0.00667001
-0.00326445
-0.0058706
-0.00659274
-0.006249
-0.00937981
-0.00326354
-0.00506887
-0.00522049
-0.00496361
-0.0032332
-0.00323339
-0.00568409
-0.00456897
-0.00654548
-0.00349286
-0.00386047
-0.00126215
-0.00126213
-0.00259624
-0.004188
-0.00282232
-0.00557645
-0.00604828
-0.00644058
-0.00726136
-0.00659032
-0.00610255
-0.00479855
-0.00293429
-0.0060227
-0.00624628
-0.00605058
-0.00330187
-0.00309491
-0.00238002
-0.00604179
-0.00615968
-0.00493245
-0.00558725
-0.00515642
-0.00473382
-0.00632107
-0.00473337
-0.00557544
-0.00538437
-0.00330908
-0.00408571
-0.00375192
-0.00668677
-0.00260973
-0.00274992
-0.00268876
-0.00631743
-0.00248655
-0.00243233
-0.00438432
-0.00226947
-0.00512583
-0.00513354
-0.00233011
-0.0055588
-0.00259409
-0.00257082
-0.00290441
-0.00245263
-0.0024149
-0.0036529
-0.00287257
-0.00260326
-0.00246058
-0.00509506
-0.00582441
-0.00271527
-0.00562361
-0.00223035
-0.00570694
-0.00452795
-0.00233081
-0.00197854
-0.0022014
-0.00292337
-0.00489578
-0.00404642
-0.00169677
-0.00188322
-0.00546462
-0.00159717
-0.00159715
-0.0018097
-0.00202998
-0.00226303
-0.00266714
-0.00440408
-0.00408027
-0.00546772
-0.00160381
-0.00160379
-0.00481978
-0.00195127
-0.00388981
-0.00176845
-0.00178397
-0.00235073
-0.00413635
-0.00428303
-0.00456266
-0.00418162
-0.00413621
-0.000904646
-0.00667659
-0.00115347
-0.00111823
-0.00539384
-0.00535645
-0.00115885
-0.000804772
-0.00113347
-0.00497449
SCALARS rr_P_ext' float
LOOKUP_TABLE default
1.36971e-05
3.19289e-05
2.5444e-05
3.33073e-05
1.75895e-05
2.70042e-05
1.35421e-05
3.31261e-05
2.83764e-05
3.58793e-05
1.24432e-05
3.32279e-05
2.92229e-05
3.09172e-05
3.64083e-05
3.03292e-05
2.61811e-05
2.95175e-05
2.63256e-05
2.58023e-05
2.90176e-05
5.28658e-06
2.97306e-05
2.7411e-05
2.48441e-05
2.87292e-05
1.15658e-05
2.52054e-05
1.95838e-05
2.36676e-05
2.58135e-05
2.0246e-05
1.28083e-05
1.76969e-05
1.74084e-05
1.77361e-05
2.30203e-05
1.74348e-05
2.57875e-05
1.43976e-05
1.64605e-05
2.02917e-05
2.02931e-05
2.83295e-05
1.61036e-05
1.78618e-05
2.47869e-05
2.51235e-05
2.35894e-05
2.23306e-05
2.29494e-05
1.78482e-05
2.82167e-05
2.29348e-05
2.59702e-05
1.16904e-05
1.8589e-05
2.31034e-05
1.85877e-05
2.81327e-05
3.34164e-05
3.28403e-05
1.13928e-05
2.31528e-05
3.14565e-05
2.96169e-05
3.23273e-05
2.79042e-05
2.56306e-05
3.66495e-05
3.06116e-05
3.02773e-05
2.03373e-05
2.3999e-05
2.52863e-05
1.32076e-05
2.62631e-05
2.93413e-05
2.81395e-05
1.97061e-05
1.77011e-05
1.98739e-05
3.73523e-05
1.77134e-05
2.39597e-05
8.85069e-06
2.91146e-05
2.44349e-05
1.70543e-05
2.59699e-06
1.98728e-05
2.82438e-06
2.22904e-05
2.12555e-05
1.88112e-05
1.71002e-05
1.62577e-05
3.14966e-05
2.62813e-05
2.5101e-05
2.12137e-05
2.02744e-05
1.69962e-05
2.98104e-05
3.03288e-05
2.73024e-05
2.41096e-05
2.43276e-05
1.80409e-05
3.64106e-05
2.33265e-05
1.21555e-05
1.62623e-05
3.26233e-05
3.05744e-05
2.21497e-05
2.15549e-05
1.3508e-05
2.23547e-05
2.20642e-05
1.92546e-05
3.54742e-05
3.63888e-05
3.13286e-05
3.44107e-05
2.71483e-05
1.54485e-05
3.40065e-05
1.47244e-05
1.90759e-05
1.59928e-05
3.24589e-05
3.17998e-05
3.18732e-05
2.10875e-05
1.30984e-05
1.40771e-05
2.33431e-05
2.86377e-05
1.30935e-05
1.76168e-05
2.7547e-05
2.07494e-05
3.36248e-05
1.64398e-05
2.74176e-05
2.49026e-05
2.40247e-05
1.5349e-05
1.95168e-05
2.18403e-05
3.13279e-05
1.81651e-05
2.83324e-05
3.28594e-05
3.3371e-05
2.18619e-05
1.81494e-05
1.80479e-05
2.86e-05
2.39498e-05
1.80172e-05
1.18668e-05
1.75835e-05
1.75291e-05
3.06528e-05
1.83938e-05
1.85959e-05
2.01115e-05
1.79255e-05
2.72191e-05
1.8786e-05
1.65833e-05
2.11299e-05
1.98473e-05
2.40911e-05
2.69223e-05
2.57308e-05
2.20573e-05
2.5678e-05
1.952e-05
2.97426e-05
3.19221e-05
1.76206e-05
3.1357e-05
1.75717e-05
3.09573e-05
2.84997e-05
2.66937e-05
2.69795e-05
3.16336e-05
1.47657e-05
1.94211e-05
1.80156e-05
3.18151e-05
3.12916e-05
2.90162e-05
3.17207e-05
3.22061e-05
2.71015e-05
3.31715e-05
2.21439e-05
1.99123e-05
3.63149e-05
2.0908e-05
3.299e-05
2.62549e-05
1.65504e-05
2.02255e-05
3.28242e-05
2.74608e-05
2.48965e-05
3.20335e-05
3.1524e-05
2.01876e-05
2.01915e-05
1.9423e-05
2.79846e-05
3.07833e-05
3.53777e-05
3.39753e-05
3.69703e-05
3.35012e-05
3.66092e-05
3.07211e-05
3.22594e-05
3.25079e-05
3.0648e-05
3.21981e-05
2.97319e-05
2.92904e-05
2.04528e-05
2.76825e-05
3.23403e-05
2.23969e-05
3.31723e-05
3.04775e-05
3.50671e-05
2.09366e-05
3.33407e-05
3.19043e-05
2.0589e-05
2.87415e-05
2.04477e-05
3.22267e-05
2.92896e-05
2.14376e-05
2.01536e-05
1.73405e-05
1.99494e-05
3.22665e-05
1.45554e-05
2.47554e-05
2.00758e-05
2.26005e-05
3.33707e-05
3.23578e-05
1.03014e-05
3.24723e-05
1.74313e-05
1.9005e-05
3.31937e-05
2.70037e-05
1.92229e-05
3.70928e-05
2.09781e-05
1.03011e-05
1.94342e-05
2.88616e-05
3.60798e-05
2.72675e-05
3.2293e-05
3.01501e-05
1.59265e-05
1.54527e-05
1.30288e-05
1.4945e-05
2.16851e-05
1.64038e-05
2.65013e-05
1.64689e-05
2.87027e-05
2.04141e-05
1.94636e-05
2.30002e-05
2.12071e-05
2.8368e-05
2.03358e-05
2.08867e-05
9.47187e-06
2.13774e-05
3.08806e-05
3.09008e-05
2.78367e-05
2.02999e-05
1.34668e-05
3.87051e-05
2.58591e-05
2.1538e-05
1.98403e-05
2.0055e-05
2.04616e-05
2.52842e-05
2.01017e-05
1.42576e-05
1.9847e-05
1.35155e-05
2.48441e-05
2.02332e-05
8.82798e-06
1.90631e-05
2.27661e-05
2.02282e-05
3.14397e-05
2.10181e-05
2.72401e-05
1.02908e-05
2.18542e-05
2.07742e-05
1.84172e-05
1.9501e-05
2.31009e-05
2.18783e-05
2.28211e-05
1.92712e-05
1.95824e-05
2.1171e-05
2.85616e-05
1.99411e-05
2.84232e-05
2.56276e-05
2.04374e-05
2.06877e-05
2.09068e-05
2.31765e-05
2.08776e-05
1.95195e-05
2.22155e-05
2.35354e-05
2.76333e-05
2.09045e-05
2.07304e-05
3.02446e-05
2.98224e-05
1.99548e-05
2.0441e-05
8.84886e-06
2.44407e-05
1.67589e-05
2.29068e-05
9.81276e-06
1.01863e-05
9.10473e-06
9.25321e-06
9.81715e-06
1.03393e-05
1.0656e-05
2.58821e-05
1.92918e-05
1.92277e-05
2.1926e-05
2.13265e-05
2.10578e-05
2.23991e-05
2.06055e-05
2.10715e-05
2.17859e-05
2.098e-05
2.60352e-05
1.89986e-05
2.67486e-05
2.06696e-05
1.99204e-05
2.10043e-05
2.27118e-05
2.35048e-05
2.18574e-05
2.50796e-05
2.33871e-05
2.16426e-05
1.55552e-05
2.18086e-05
2.13632e-05
2.31706e-05
2.197e-05
2.07991e-05
1.97939e-05
2.18289e-05
2.28129e-05
3.10438e-05
2.0391e-05
3.01804e-05
3.13737e-05
2.14531e-05
3.01239e-05
2.30599e-05
1.84158e-05
2.52834e-05
2.20311e-05
1.60926e-05
1.37529e-05
2.4998e-05
2.66531e-05
2.24077e-05
1.86008e-05
2.2496e-05
1.04117e-05
2.21524e-05
2.07564e-05
1.0455e-05
4.1513e-06
4.54171e-06
1.91957e-05
2.03972e-05
2.37391e-05
2.27791e-05
2.14707e-06
2.24339e-06
2.26551e-05
2.29019e-05
2.1679e-05
7.81502e-06
1.90782e-05
2.23688e-05
2.26505e-05
1.95342e-05
1.72478e-05
8.13507e-06
3.29335e-05
2.05219e-05
2.51644e-05
2.55583e-05
1.83221e-05
2.32028e-05
1.7914e-05
1.97719e-05
9.68248e-06
1.46836e-05
2.32302e-05
2.34196e-05
2.00933e-05
2.10836e-05
2.17744e-05
2.29675e-05
2.19636e-05
1.0686e-05
1.9456e-05
2.16922e-05
2.06443e-05
3.10094e-05
1.06826e-05
1.67006e-05
1.71984e-05
1.64819e-05
1.08175e-05
1.0818e-05
1.88558e-05
1.50276e-05
2.15769e-05
1.14314e-05
1.29083e-05
4.23996e-06
4.23984e-06
8.4758e-06
1.39515e-05
9.41729e-06
1.83782e-05
2.00522e-05
2.12317e-05
2.39558e-05
2.17826e-05
2.01897e-05
1.58327e-05
9.582e-06
1.98497e-05
2.06309e-05
2.00007e-05
1.07936e-05
1.03171e-05
7.78979e-06
1.99697e-05
2.03286e-05
1.62138e-05
1.84151e-05
1.70094e-05
1.57259e-05
2.08533e-05
1.5724e-05
1.83711e-05
1.78044e-05
1.10369e-05
1.36292e-05
1.228e-05
2.20727e-05
8.52272e-06
8.98276e-06
8.77851e-06
2.08816e-05
8.11957e-06
7.93931e-06
1.4429e-05
7.41073e-06
1.70432e-05
1.70685e-05
7.61025e-06
1.83045e-05
8.48535e-06
8.39533e-06
9.49858e-06
8.00915e-06
7.89778e-06
1.21724e-05
9.39849e-06
8.50084e-06
8.03591e-06
1.68063e-05
1.92765e-05
8.87847e-06
1.85532e-05
7.28068e-06
1.8837e-05
1.49116e-05
7.61039e-06
6.46871e-06
7.18663e-06
9.54371e-06
1.61326e-05
1.34623e-05
5.69712e-06
6.3207e-06
1.80439e-05
5.36234e-06
5.36217e-06
6.07478e-06
6.79873e-06
7.40576e-06
8.89428e-06
1.46122e-05
1.35766e-05
1.80498e-05
5.37508e-06
5.37492e-06
1.60444e-05
6.36951e-06
1.28077e-05
5.77389e-06
5.8383e-06
7.69326e-06
1.3824e-05
1.43131e-05
1.52442e-05
1.3972e-05
1.38233e-05
3.03568e-06
2.23074e-05
3.8657e-06
3.75485e-06
1.80282e-05
1.79039e-05
3.89167e-06
2.70066e-06
3.79885e-06
1.66206e-05
SCALARS rr_S' float
LOOKUP_TABLE default
0.00413991
0.00955548
0.00762313
0.00997288
0.00522706
0.00809063
0.00409325
0.00991507
0.00851121
0.0107378
0.00376049
0.00994542
0.00875033
0.00924743
0.0108496
0.00908692
0.00782467
0.00883823
0.00789993
0.00773332
0.0086976
0.00155439
0.00891165
0.00821482
0.0074462
0.00859882
0.00349019
0.00754807
0.00589362
0.00700383
0.00773018
0.00609267
0.0038656
0.00524505
0.00515677
0.00525682
0.00680958
0.00516681
0.00772207
0.00434514
0.00495359
0.0060016
0.00600218
0.00848395
0.00485628
0.0053747
0.00743628
0.00753433
0.00706586
0.00672423
0.00690784
0.00536567
0.00838841
0.00689502
0.00772232
0.00352425
0.00550607
0.00694554
0.00550584
0.0084309
0.00998808
0.00979706
0.0034354
0.00690723
0.00938393
0.0088484
0.00966178
0.00835179
0.00768237
0.010967
0.00910092
0.0090017
0.0061205
0.00716442
0.00757691
0.00398806
0.00782126
0.00876625
0.00842192
0.00592289
0.00533081
0.00590158
0.0111529
0.00533628
0.00720821
0.0026688
0.00871926
0.00729703
0.0051429
0.000764577
0.00597451
0.000831547
0.00663678
0.0063508
0.00565499
0.00514783
0.00489611
0.00942719
0.00782696
0.00751743
0.00637
0.00609843
0.00511999
0.00892614
0.00907488
0.00817322
0.00719432
0.00728661
0.00543493
0.0108938
0.0069903
0.00366464
0.00490052
0.00976817
0.00915348
0.00665886
0.00638488
0.00406833
0.00662234
0.00663281
0.00577944
0.0105752
0.0108901
0.0093597
0.0102936
0.00808604
0.00458076
0.0101784
0.00443443
0.00573427
0.00475378
0.00971532
0.00949692
0.00953954
0.00634292
0.00387935
0.00424153
0.00698746
0.00855118
0.003878
0.00529832
0.00823874
0.00622652
0.0100596
0.00495141
0.00820747
0.00744786
0.00719537
0.00459936
0.00586217
0.00654836
0.00937566
0.00546645
0.00848418
0.00983084
0.00998815
0.00653717
0.00545817
0.00542738
0.00856552
0.00718216
0.00542154
0.00357791
0.00529283
0.00527145
0.00917604
0.00553164
0.00559257
0.00605224
0.00539061
0.00810362
0.0056477
0.00499196
0.00631751
0.00596672
0.00718934
0.00801543
0.00769903
0.00655728
0.00768216
0.00587431
0.00890267
0.00955483
0.0052993
0.00936412
0.00528991
0.00924882
0.00850466
0.00794659
0.00807508
0.00944636
0.00444654
0.00583829
0.00542149
0.00952238
0.00937068
0.00868825
0.00947349
0.00963882
0.00809763
0.00992689
0.00664427
0.00598474
0.0108456
0.00629193
0.00985144
0.0078439
0.00497828
0.00602833
0.00982302
0.00818515
0.0074431
0.00958612
0.00941308
0.00606325
0.0060352
0.00583711
0.00835108
0.0092092
0.0105836
0.0101671
0.0110623
0.0100241
0.0109544
0.00918905
0.00961573
0.00969037
0.00913527
0.00959715
0.00883999
0.00870836
0.00614362
0.00828068
0.00968669
0.00671754
0.00988566
0.00908177
0.0105025
0.00629224
0.00998737
0.00954936
0.00618389
0.00856598
0.00614178
0.00962204
0.00877459
0.0064385
0.00605631
0.00522226
0.00600778
0.00963506
0.00438436
0.00741535
0.00603346
0.00678114
0.00999665
0.00968079
0.00304615
0.00971573
0.00525092
0.00571124
0.0099425
0.00808022
0.00577771
0.0110975
0.0062948
0.00304613
0.00584039
0.00863377
0.0107804
0.00816525
0.00962426
0.00900429
0.00473432
0.00462798
0.00392708
0.00450652
0.00645098
0.00491756
0.00792999
0.00494691
0.00855412
0.00610364
0.00584913
0.00687258
0.00636802
0.00848425
0.00610648
0.00627708
0.00279403
0.00636296
0.00920113
0.00920752
0.00832705
0.00609528
0.0039928
0.0115663
0.0077534
0.00646666
0.00595933
0.00596636
0.00614578
0.00752807
0.00603724
0.00429963
0.00595908
0.00407072
0.00741237
0.00607704
0.00260417
0.00572518
0.00679682
0.00607637
0.00939133
0.00631234
0.00816098
0.00310342
0.00654887
0.00623983
0.00547941
0.00585736
0.0069251
0.006534
0.00682906
0.00578758
0.00587995
0.00635281
0.00852268
0.00598759
0.00850683
0.0076749
0.0060759
0.00621191
0.00627421
0.00694731
0.00626473
0.00586172
0.00666595
0.00701634
0.0082704
0.00627325
0.00622639
0.00904596
0.00891945
0.00599178
0.00607714
0.002675
0.00731893
0.00504725
0.00686589
0.00298324
0.00309681
0.00276769
0.00281292
0.0029843
0.00314348
0.00323966
0.00772215
0.00572419
0.00575712
0.0065734
0.00639906
0.00631891
0.00669981
0.00618325
0.00632377
0.0064641
0.00629543
0.00776047
0.00571143
0.00797712
0.00619173
0.00597255
0.00630312
0.00675621
0.00703911
0.00655265
0.00751051
0.00701101
0.00649565
0.00467551
0.00653831
0.00639867
0.00690643
0.00659115
0.00624306
0.00593927
0.00654557
0.00683326
0.00928432
0.00611839
0.00902647
0.00940035
0.00643233
0.00901324
0.00690917
0.00552651
0.00755271
0.00660462
0.0047766
0.00414736
0.00745883
0.00794578
0.00671156
0.00557665
0.00672207
0.00314715
0.00663574
0.00622265
0.00315279
0.00122473
0.00133978
0.00574864
0.00612045
0.00711573
0.00683425
0.00063045
0.000658759
0.00678285
0.0068529
0.00648636
0.00236225
0.0057259
0.00668018
0.00679326
0.00585928
0.00517181
0.00245943
0.00983487
0.00615847
0.00753677
0.00765462
0.00549564
0.00695659
0.00537326
0.00592973
0.00292208
0.00442244
0.00696478
0.0070135
0.00602408
0.00632454
0.00652858
0.00688469
0.0065847
0.00322248
0.0057956
0.00650836
0.00616915
0.00925997
0.00322157
0.00500406
0.00515375
0.00490021
0.00319189
0.00319209
0.00561148
0.00451049
0.00646179
0.00344794
0.00381115
0.00124602
0.00124601
0.00256277
0.00413451
0.00278627
0.00550515
0.00597102
0.00635826
0.00716858
0.00650612
0.00602458
0.00473721
0.00289647
0.00594571
0.00616647
0.00597329
0.00325936
0.00305537
0.0023494
0.00596461
0.00608097
0.00486928
0.00551584
0.00509051
0.00467335
0.00624028
0.0046729
0.00550416
0.00531557
0.00326681
0.00403352
0.00370367
0.00660133
0.00257607
0.00271446
0.00265407
0.00623671
0.0024545
0.00240094
0.00432823
0.0022402
0.00506036
0.00506798
0.00230005
0.0054877
0.00256071
0.00253766
0.00286703
0.002421
0.00238382
0.00360624
0.00283562
0.00256971
0.00242884
0.00502993
0.00575
0.00268031
0.00555173
0.00220157
0.005634
0.00447004
0.00230074
0.00195307
0.00217299
0.00288568
0.00483317
0.00399474
0.00167509
0.00185916
0.00539478
0.00157677
0.00157675
0.00178658
0.00200405
0.00223392
0.00263307
0.00434782
0.00402815
0.00539785
0.00158332
0.0015833
0.00475822
0.00192611
0.00384007
0.00174565
0.00176101
0.00232049
0.00408351
0.00422832
0.00450438
0.0041282
0.00408337
0.00089309
0.0065913
0.00113873
0.00110395
0.00532494
0.00528803
0.00114405
0.000794492
0.00111899
0.00491094
SCALARS rr_P' float
LOOKUP_TABLE default
4.03868e-05
9.17348e-05
7.32799e-05
9.5761e-05
5.00381e-05
7.77767e-05
3.99336e-05
9.52334e-05
8.19202e-05
0.000103092
3.66457e-05
9.55255e-05
8.40694e-05
8.87736e-05
0.000103969
8.73266e-05
7.50823e-05
8.49017e-05
7.6091e-05
7.43669e-05
8.36582e-05
1.48271e-05
8.57165e-05
7.89968e-05
7.16075e-05
8.25847e-05
3.3934e-05
7.25531e-05
5.70143e-05
6.69482e-05
7.42703e-05
5.89382e-05
3.75925e-05
5.01712e-05
4.93052e-05
5.02843e-05
6.5085e-05
4.9407e-05
7.41959e-05
4.22539e-05
4.79231e-05
5.73602e-05
5.73663e-05
8.1511e-05
4.7153e-05
5.19818e-05
7.16015e-05
7.24981e-05
6.79245e-05
6.51154e-05
6.68551e-05
5.1822e-05
8.03155e-05
6.65881e-05
7.39442e-05
3.42015e-05
5.26437e-05
6.70765e-05
5.2642e-05
8.10702e-05
9.58462e-05
9.39139e-05
3.33668e-05
6.62174e-05
8.99523e-05
8.49126e-05
9.27114e-05
8.02112e-05
7.38844e-05
0.000105284
8.71394e-05
8.61897e-05
5.92118e-05
6.87265e-05
7.28282e-05
3.88098e-05
7.49332e-05
8.41249e-05
8.0887e-05
5.71834e-05
5.1639e-05
5.64728e-05
0.00010697
5.17153e-05
6.96982e-05
2.59079e-05
8.38093e-05
7.00126e-05
4.9935e-05
7.29755e-06
5.77e-05
7.93692e-06
6.35826e-05
6.09565e-05
5.46056e-05
4.9829e-05
4.74265e-05
9.05089e-05
7.49888e-05
7.22326e-05
6.14096e-05
5.89436e-05
4.96219e-05
8.5731e-05
8.71473e-05
7.84753e-05
6.89975e-05
7.00232e-05
5.2675e-05
0.000104564
6.7217e-05
3.55633e-05
4.7522e-05
9.38287e-05
8.7893e-05
6.43037e-05
6.10466e-05
3.94103e-05
6.33189e-05
6.4049e-05
5.56861e-05
0.00010135
0.00010455
8.97905e-05
9.87959e-05
7.74835e-05
4.3814e-05
9.77221e-05
4.29541e-05
5.53723e-05
4.5519e-05
9.32783e-05
9.10905e-05
9.1586e-05
6.13051e-05
3.70916e-05
4.11229e-05
6.71296e-05
8.20148e-05
3.70791e-05
5.12e-05
7.91069e-05
5.99804e-05
9.65873e-05
4.79683e-05
7.88181e-05
7.15331e-05
6.91721e-05
4.42124e-05
5.65415e-05
6.30178e-05
9.00103e-05
5.28828e-05
8.15083e-05
9.43916e-05
9.58966e-05
6.2743e-05
5.27355e-05
5.24358e-05
8.22906e-05
6.9108e-05
5.24421e-05
3.47256e-05
5.12247e-05
5.09333e-05
8.81028e-05
5.34462e-05
5.40359e-05
5.85488e-05
5.20827e-05
7.76337e-05
5.45424e-05
4.83135e-05
6.06263e-05
5.7621e-05
6.89526e-05
7.67895e-05
7.39562e-05
6.2778e-05
7.37705e-05
5.68261e-05
8.54738e-05
9.17374e-05
5.12083e-05
8.98423e-05
5.12023e-05
8.8727e-05
8.15601e-05
7.61255e-05
7.75271e-05
9.06301e-05
4.30637e-05
5.63822e-05
5.2446e-05
9.14223e-05
9.00191e-05
8.34583e-05
9.08663e-05
9.25381e-05
7.77109e-05
9.53021e-05
6.39834e-05
5.77726e-05
0.000104029
6.08645e-05
9.44848e-05
7.52747e-05
4.81222e-05
5.77875e-05
9.43025e-05
7.8449e-05
7.14535e-05
9.20581e-05
9.02801e-05
5.84784e-05
5.79322e-05
5.63382e-05
8.00876e-05
8.83891e-05
0.000101581
9.75958e-05
0.000106183
9.62168e-05
0.000105147
8.82234e-05
9.21498e-05
9.28685e-05
8.75459e-05
9.19706e-05
8.46465e-05
8.33865e-05
5.92595e-05
7.94971e-05
9.30227e-05
6.46416e-05
9.47304e-05
8.7023e-05
0.000100855
6.07392e-05
9.59136e-05
9.16809e-05
5.96366e-05
8.21131e-05
5.92348e-05
9.22817e-05
8.4271e-05
6.20905e-05
5.84501e-05
5.05898e-05
5.81933e-05
9.24078e-05
4.24854e-05
7.12507e-05
5.82338e-05
6.53101e-05
9.6004e-05
9.29174e-05
2.91123e-05
9.32555e-05
5.08878e-05
5.51247e-05
9.54799e-05
7.76163e-05
5.57761e-05
0.000106516
6.06335e-05
2.91123e-05
5.63686e-05
8.28644e-05
0.000103427
7.84326e-05
9.22279e-05
8.63958e-05
4.53302e-05
4.44622e-05
3.81013e-05
4.37483e-05
6.1786e-05
4.7296e-05
7.6173e-05
4.77095e-05
8.1998e-05
5.85742e-05
5.64543e-05
6.59608e-05
6.13862e-05
8.14806e-05
5.88636e-05
6.05909e-05
2.6682e-05
6.09512e-05
8.81703e-05
8.82333e-05
7.99454e-05
5.87489e-05
3.81969e-05
0.000110971
7.46038e-05
6.23254e-05
5.74633e-05
5.71441e-05
5.92696e-05
7.21215e-05
5.82044e-05
4.17459e-05
5.7439e-05
3.94402e-05
7.10862e-05
5.86065e-05
2.48693e-05
5.5196e-05
6.51999e-05
5.86105e-05
9.00911e-05
6.086e-05
7.84349e-05
3.01504e-05
6.2961e-05
6.01785e-05
5.24841e-05
5.64957e-05
6.66368e-05
6.26825e-05
6.55587e-05
5.57996e-05
5.66743e-05
6.1195e-05
8.17335e-05
5.77137e-05
8.17096e-05
7.37698e-05
5.81756e-05
5.98736e-05
6.04415e-05
6.68331e-05
6.03397e-05
5.65081e-05
6.42022e-05
6.72667e-05
7.94424e-05
6.04279e-05
6.0052e-05
8.68614e-05
8.56445e-05
5.77582e-05
5.8188e-05
2.60828e-05
7.03541e-05
4.88928e-05
6.60461e-05
2.93389e-05
3.04552e-05
2.72162e-05
2.76621e-05
2.9346e-05
3.09151e-05
3.18588e-05
7.40525e-05
5.47763e-05
5.53114e-05
6.32569e-05
6.16303e-05
6.08619e-05
6.43409e-05
5.95626e-05
6.09201e-05
6.18546e-05
6.06365e-05
7.43814e-05
5.51603e-05
7.64585e-05
5.95277e-05
5.74751e-05
6.07134e-05
6.47074e-05
6.76628e-05
6.3051e-05
7.21935e-05
6.74609e-05
6.25713e-05
4.51429e-05
6.29213e-05
6.15146e-05
6.61921e-05
6.34717e-05
6.01469e-05
5.71956e-05
6.29951e-05
6.56952e-05
8.91618e-05
5.8922e-05
8.6687e-05
9.03835e-05
6.19035e-05
8.65768e-05
6.6428e-05
5.32319e-05
7.24532e-05
6.35402e-05
4.57112e-05
4.02669e-05
7.1526e-05
7.61776e-05
6.45249e-05
5.36464e-05
6.45076e-05
3.068e-05
6.37956e-05
5.98666e-05
3.06272e-05
1.16967e-05
1.27951e-05
5.52597e-05
5.89472e-05
6.84461e-05
6.58107e-05
6.01143e-06
6.28131e-06
6.51423e-05
6.58224e-05
6.23089e-05
2.30291e-05
5.51603e-05
6.40712e-05
6.5371e-05
5.63908e-05
4.97722e-05
2.39832e-05
9.43623e-05
5.93175e-05
7.24497e-05
7.35825e-05
5.28927e-05
6.69378e-05
5.1715e-05
5.7064e-05
2.84121e-05
4.28463e-05
6.70178e-05
6.74194e-05
5.79528e-05
6.08734e-05
6.28126e-05
6.62281e-05
6.33466e-05
3.12869e-05
5.55407e-05
6.26795e-05
5.92033e-05
8.88383e-05
3.12815e-05
4.81013e-05
4.95468e-05
4.6918e-05
3.04869e-05
3.04889e-05
5.37562e-05
4.34524e-05
6.21206e-05
3.34845e-05
3.64093e-05
1.18835e-05
1.18834e-05
2.49954e-05
3.95363e-05
2.66345e-05
5.29299e-05
5.7207e-05
6.10845e-05
6.88189e-05
6.24122e-05
5.77802e-05
4.55052e-05
2.82374e-05
5.71406e-05
5.9183e-05
5.72923e-05
3.17215e-05
2.92168e-05
2.28291e-05
5.72116e-05
5.83791e-05
4.69512e-05
5.29936e-05
4.88995e-05
4.47452e-05
5.9931e-05
4.47412e-05
5.29037e-05
5.09867e-05
3.12342e-05
3.85614e-05
3.59663e-05
6.33676e-05
2.51396e-05
2.64822e-05
2.59102e-05
5.9837e-05
2.39332e-05
2.34467e-05
4.16585e-05
2.18662e-05
4.84219e-05
4.84951e-05
2.24448e-05
5.27887e-05
2.4897e-05
2.47668e-05
2.78841e-05
2.36298e-05
2.31846e-05
3.44836e-05
2.7553e-05
2.50548e-05
2.37023e-05
4.83203e-05
5.51305e-05
2.60747e-05
5.33336e-05
2.14977e-05
5.40989e-05
4.29954e-05
2.24584e-05
1.90047e-05
2.12165e-05
2.81448e-05
4.64713e-05
3.82201e-05
1.59789e-05
1.77372e-05
5.17913e-05
1.50415e-05
1.50413e-05
1.70439e-05
1.91348e-05
2.17e-05
2.51765e-05
4.1647e-05
3.85407e-05
5.18291e-05
1.51145e-05
1.51144e-05
4.55155e-05
1.87892e-05
3.69404e-05
1.70251e-05
1.71163e-05
2.25518e-05
3.90148e-05
4.03995e-05
4.30398e-05
3.94444e-05
3.90138e-05
8.52077e-06
6.29781e-05
1.08704e-05
1.05304e-05
5.08749e-05
5.05216e-05
1.09124e-05
7.5797e-06
1.06813e-05
4.69298e-05
SCALARS rr_T' float
LOOKUP_TABLE default
5.40444e-05
0.000123574
9.8652e-05
0.000128974
6.75783e-05
0.000104705
5.34367e-05
0.000128266
0.000110216
0.00013887
4.90531e-05
0.00012866
0.00011321
0.000119604
0.000140275
0.00011757
0.00010119
0.000114336
0.000102342
0.000100096
0.000112594
2.0099e-05
0.000115363
0.00010633
9.63814e-05
0.000111233
4.54666e-05
9.76872e-05
7.65423e-05
9.05496e-05
0.000100011
7.91265e-05
5.03641e-05
6.78186e-05
6.66649e-05
6.79708e-05
8.80409e-05
6.67931e-05
9.99105e-05
5.66102e-05
6.43367e-05
7.75952e-05
7.76027e-05
0.00010976
6.32104e-05
6.97926e-05
9.63182e-05
9.75505e-05
9.14473e-05
8.73823e-05
8.97391e-05
6.96195e-05
0.000108453
8.94576e-05
9.98414e-05
4.58585e-05
7.11807e-05
9.01141e-05
7.11777e-05
0.000109123
0.000129168
0.000126662
4.4727e-05
8.93051e-05
0.00012132
0.000114446
0.000124948
0.000108037
9.94425e-05
0.00014183
0.000117665
0.000116382
7.94912e-05
9.26579e-05
9.8043e-05
5.19795e-05
0.000101122
0.000113384
0.000108947
7.68335e-05
6.92895e-05
7.6291e-05
0.000144217
6.93781e-05
9.35897e-05
3.47333e-05
0.000112842
9.43787e-05
6.69405e-05
9.8873e-06
7.75163e-05
1.07534e-05
8.58104e-05
8.21521e-05
7.33633e-05
6.68804e-05
6.36378e-05
0.000121917
0.000101196
9.72627e-05
8.25631e-05
7.91603e-05
6.65695e-05
0.000115457
0.000117391
0.000105701
9.30392e-05
9.42822e-05
7.06644e-05
0.000140872
9.04776e-05
4.7684e-05
6.37378e-05
0.00012636
0.000118381
8.63905e-05
8.25411e-05
5.28797e-05
8.56111e-05
8.60505e-05
7.48861e-05
0.000136725
0.000140836
0.000121031
0.00013311
0.000104556
5.92193e-05
0.000131633
5.76365e-05
7.4394e-05
6.14669e-05
0.000125646
0.000122801
0.000123369
8.23325e-05
5.01534e-05
5.51597e-05
9.04068e-05
0.000110572
5.0136e-05
6.87667e-05
0.000106576
8.06711e-05
0.000130117
6.43611e-05
0.000106158
9.63654e-05
9.3129e-05
5.95181e-05
7.60028e-05
8.47963e-05
0.00012125
7.09962e-05
0.000109761
0.000127158
0.000129173
8.45433e-05
7.08332e-05
7.04323e-05
0.00011081
9.29901e-05
7.04079e-05
4.65585e-05
6.8758e-05
6.84126e-05
0.000118669
7.17877e-05
7.25789e-05
7.86029e-05
6.99573e-05
0.000104776
7.32751e-05
6.48495e-05
8.16966e-05
7.74119e-05
9.29759e-05
0.000103636
9.96144e-05
8.47735e-05
9.93761e-05
7.62905e-05
0.000115132
0.00012357
6.87788e-05
0.000121111
6.87239e-05
0.000119597
0.00010998
0.000102744
0.00010443
0.000122175
5.77873e-05
7.57481e-05
7.04103e-05
0.000123148
0.000121222
0.000112393
0.000122498
0.000124653
0.000104736
0.00012838
8.60646e-05
7.76283e-05
0.000140242
8.17129e-05
0.000127382
0.000101456
6.46254e-05
7.79561e-05
0.000127034
0.000105833
9.62799e-05
0.000124001
0.000121715
7.86087e-05
7.80669e-05
7.5706e-05
0.000107993
0.000119086
0.000136859
0.000131475
0.000143049
0.000129623
0.000141653
0.000118858
0.000124318
0.000125285
0.000118108
0.000124078
0.000114295
0.000112595
7.96542e-05
0.000107102
0.000125272
8.69751e-05
0.00012781
0.000117415
0.000135823
8.16163e-05
0.00012916
0.000123495
8.01672e-05
0.000110774
7.96245e-05
0.000124418
0.000113478
8.34673e-05
7.85465e-05
6.78808e-05
7.80857e-05
0.000124583
5.69992e-05
9.59362e-05
7.82526e-05
8.78466e-05
0.00012928
0.000125184
3.93849e-05
0.000125636
6.82693e-05
7.40757e-05
0.00012858
0.000104544
7.49443e-05
0.000143505
8.15521e-05
3.93846e-05
7.57476e-05
0.000111645
0.000139405
0.000105623
0.00012443
0.000116461
6.12121e-05
5.98712e-05
5.10929e-05
5.86505e-05
8.34103e-05
6.36534e-05
0.0001026
6.41317e-05
0.00011062
7.89307e-05
7.58626e-05
8.88962e-05
8.25331e-05
0.000109769
7.91417e-05
8.14183e-05
3.61275e-05
8.22686e-05
0.000118964
0.000119047
0.000107704
7.89913e-05
5.1626e-05
0.000149567
0.00010039
8.38024e-05
7.72473e-05
7.71428e-05
7.96731e-05
9.73346e-05
7.8249e-05
5.59626e-05
7.72297e-05
5.29171e-05
9.58604e-05
7.87823e-05
3.36727e-05
7.42051e-05
8.79019e-05
7.87813e-05
0.000121442
8.18185e-05
0.000105598
4.04117e-05
8.47534e-05
8.08937e-05
7.08496e-05
7.59413e-05
8.96724e-05
8.44992e-05
8.83154e-05
7.50161e-05
7.62011e-05
8.23061e-05
0.000110215
7.75982e-05
0.000110053
9.9325e-05
7.85557e-05
8.05026e-05
8.12891e-05
8.9944e-05
8.11581e-05
7.59722e-05
8.63548e-05
9.07359e-05
0.000106998
8.12731e-05
8.07235e-05
0.000117021
0.000115383
7.76564e-05
7.85717e-05
3.49062e-05
9.47257e-05
6.56039e-05
8.88881e-05
3.91231e-05
4.06119e-05
3.62945e-05
3.68883e-05
3.91346e-05
4.12243e-05
4.24839e-05
9.98617e-05
7.4014e-05
7.44848e-05
8.51209e-05
8.28964e-05
8.18601e-05
8.66768e-05
8.01098e-05
8.19319e-05
8.35795e-05
8.1557e-05
0.000100343
7.41049e-05
0.000103132
8.01389e-05
7.73391e-05
8.16582e-05
8.73554e-05
9.11011e-05
8.48466e-05
9.72023e-05
9.07818e-05
8.41526e-05
6.06539e-05
8.46682e-05
8.28175e-05
8.92976e-05
8.53795e-05
8.08871e-05
7.69334e-05
8.47622e-05
8.84436e-05
0.000120118
7.92552e-05
0.000116782
0.000121669
8.32959e-05
0.000116616
8.94227e-05
7.15954e-05
9.76654e-05
8.5509e-05
6.17587e-05
5.39804e-05
9.64537e-05
0.000102756
8.68693e-05
7.21946e-05
8.69402e-05
4.10618e-05
8.58854e-05
8.05643e-05
4.10522e-05
1.58364e-05
1.73241e-05
7.44011e-05
7.92866e-05
9.21181e-05
8.85253e-05
8.15253e-06
8.51846e-06
8.77335e-05
8.86597e-05
8.39268e-05
3.08217e-05
7.41845e-05
8.6377e-05
8.79574e-05
7.58697e-05
6.69711e-05
3.20949e-05
0.000127203
7.97812e-05
9.7543e-05
9.90686e-05
7.1163e-05
9.00749e-05
6.95783e-05
7.678e-05
3.80668e-05
5.74881e-05
9.01823e-05
9.07729e-05
7.79893e-05
8.18973e-05
8.45254e-05
8.91307e-05
8.52481e-05
4.19423e-05
7.49421e-05
8.43102e-05
7.97895e-05
0.00011976
4.19335e-05
6.47546e-05
6.66966e-05
6.33536e-05
4.12742e-05
4.12767e-05
7.25591e-05
5.84374e-05
8.36366e-05
4.48832e-05
4.92815e-05
1.61116e-05
1.61114e-05
3.34468e-05
5.34487e-05
3.60255e-05
7.12561e-05
7.72029e-05
8.22562e-05
9.27071e-05
8.41334e-05
7.79131e-05
6.12932e-05
3.77918e-05
7.69342e-05
7.97558e-05
7.72366e-05
4.24842e-05
3.9505e-05
3.05965e-05
7.7125e-05
7.86503e-05
6.3119e-05
7.13567e-05
6.58609e-05
6.0427e-05
8.07255e-05
6.04212e-05
7.12229e-05
6.8741e-05
4.22403e-05
5.21526e-05
4.82112e-05
8.53781e-05
3.36378e-05
3.54391e-05
3.46634e-05
8.06598e-05
3.20294e-05
3.13631e-05
5.60466e-05
2.92556e-05
6.54173e-05
6.55158e-05
3.00332e-05
7.10414e-05
3.33581e-05
3.3138e-05
3.73554e-05
3.16159e-05
3.10598e-05
4.66219e-05
3.69246e-05
3.35312e-05
3.17151e-05
6.50792e-05
7.43527e-05
3.49277e-05
7.18344e-05
2.87574e-05
7.28828e-05
5.78648e-05
3.00468e-05
2.54549e-05
2.83824e-05
3.7661e-05
6.25583e-05
5.16447e-05
2.16602e-05
2.40403e-05
6.97844e-05
2.03889e-05
2.03886e-05
2.31017e-05
2.59145e-05
2.90845e-05
3.40459e-05
5.62181e-05
5.20793e-05
6.9828e-05
2.04746e-05
2.04743e-05
6.15149e-05
2.51404e-05
4.97118e-05
2.27823e-05
2.29378e-05
3.0223e-05
5.28002e-05
5.46726e-05
5.82414e-05
5.33775e-05
5.27984e-05
1.1548e-05
8.52232e-05
1.47253e-05
1.42748e-05
6.88527e-05
6.83756e-05
1.47932e-05
1.02728e-05
1.44696e-05
6.3504e-05
SCALARS rr_uec(SIM,_S_ext) float
LOOKUP_TABLE default
0.0361997
0.0820614
0.065566
0.0856673
0.0447273
0.0695894
0.0357938
0.0851964
0.07331
0.0922211
0.0328442
0.0854572
0.0752125
0.0794093
0.0929587
0.0781323
0.0671551
0.0759556
0.0681001
0.0665426
0.0748579
0.0132391
0.0766993
0.0706843
0.0640737
0.0738798
0.0304048
0.0649125
0.0510552
0.0598147
0.066447
0.0527777
0.0336836
0.0448338
0.0440573
0.0449351
0.0581485
0.0441502
0.0663798
0.0378601
0.0429141
0.0512464
0.0512522
0.0729249
0.0422429
0.0465474
0.0640793
0.0648763
0.0607735
0.0583167
0.0598701
0.0463959
0.0717939
0.0596158
0.0661004
0.0306379
0.04704
0.0600529
0.0470388
0.0725393
0.0857277
0.0839802
0.0298924
0.059214
0.0804371
0.0759466
0.082923
0.0717566
0.0661117
0.0941794
0.0778942
0.0770457
0.0530232
0.0614643
0.065162
0.0347777
0.0669954
0.0752425
0.0723607
0.0511937
0.0462485
0.050475
0.0956647
0.0463199
0.0624091
0.0232095
0.074984
0.0626166
0.0447352
0.00651667
0.0516585
0.00708761
0.0568459
0.0545209
0.0488873
0.0446239
0.0424757
0.0809658
0.0670457
0.0646244
0.0549668
0.0527771
0.0444448
0.076697
0.0779587
0.0702026
0.0617027
0.0626487
0.0471797
0.0935327
0.0601436
0.0318581
0.0425669
0.0839418
0.0786285
0.0575703
0.054548
0.0352966
0.0565788
0.0573417
0.0498403
0.0906217
0.0935244
0.0803065
0.0883703
0.0692767
0.0391539
0.0874181
0.0384702
0.0495734
0.0406889
0.0834437
0.0814653
0.0819289
0.0548914
0.0331429
0.0368339
0.0600561
0.0733467
0.033132
0.0458424
0.0707627
0.0536817
0.0864012
0.0429616
0.0705101
0.0639893
0.0618887
0.0395585
0.0506125
0.056392
0.080518
0.0473554
0.0729217
0.0844377
0.0857855
0.0561223
0.0472165
0.0469478
0.0736225
0.0618423
0.04696
0.0311081
0.045873
0.0456028
0.078815
0.0478528
0.048381
0.0524292
0.0466317
0.0694074
0.0488314
0.0432661
0.0542279
0.0515875
0.0616634
0.068653
0.0661599
0.0561172
0.0659913
0.0508865
0.0764623
0.082065
0.0458496
0.080352
0.0458539
0.0793558
0.0729374
0.068058
0.069353
0.081056
0.0385677
0.0504781
0.0469642
0.0817828
0.0805357
0.0746645
0.0812654
0.0827797
0.0695063
0.0852517
0.0572628
0.0517209
0.0930377
0.0545026
0.0845001
0.0673259
0.043088
0.0516718
0.0843567
0.0701447
0.0639143
0.0823532
0.0807386
0.0523459
0.0518184
0.0504357
0.071621
0.0790623
0.0908629
0.0873011
0.0949813
0.0860666
0.0940553
0.0789173
0.0823942
0.0830373
0.0782773
0.0822334
0.0756657
0.0745392
0.0530462
0.0711113
0.0832187
0.0578467
0.0846985
0.0778066
0.090224
0.0543761
0.0858064
0.0820141
0.0533827
0.0734224
0.0530235
0.0825278
0.0753913
0.0555789
0.0523258
0.0453091
0.0521186
0.0826425
0.038052
0.0637467
0.0521328
0.0584503
0.0858877
0.0831138
0.0260088
0.0834173
0.0455782
0.049349
0.0854172
0.0694347
0.0499337
0.0952783
0.0542656
0.026009
0.0504627
0.07412
0.092504
0.0701689
0.0824617
0.0772695
0.0405207
0.0397785
0.0341303
0.0391918
0.0552345
0.0423211
0.0681438
0.0427065
0.0733189
0.0523926
0.0505394
0.0589973
0.0549457
0.0728872
0.052688
0.054243
0.0238319
0.0544912
0.078833
0.0788899
0.0715135
0.0525845
0.0341347
0.0992533
0.0667591
0.0557852
0.0514369
0.0510856
0.0530543
0.0644792
0.0520992
0.0373987
0.0514119
0.0353238
0.0635701
0.0524605
0.0222128
0.0494062
0.0583097
0.0524654
0.0805735
0.0544761
0.0701763
0.0270116
0.0563346
0.0538681
0.0469198
0.0505716
0.0596292
0.0560603
0.058645
0.0499464
0.0507277
0.0547685
0.0730916
0.051658
0.0730969
0.0660018
0.0520036
0.0535914
0.054095
0.0598033
0.0540029
0.05058
0.0574592
0.0601487
0.0710695
0.0540825
0.0537546
0.0777005
0.0766115
0.0516981
0.0520151
0.0233786
0.0629452
0.0437893
0.0590985
0.0263267
0.0273283
0.0244216
0.0248217
0.0263327
0.0277411
0.0285876
0.0662217
0.0489544
0.0494837
0.0566054
0.0551573
0.0544703
0.0575554
0.0533077
0.0545235
0.0552799
0.0542684
0.0665083
0.0493845
0.0683672
0.0532609
0.0514323
0.0543379
0.0578458
0.060538
0.056421
0.0645913
0.0603669
0.0560017
0.0404147
0.0563053
0.0550384
0.059186
0.0568039
0.0538328
0.0511882
0.0563727
0.0587792
0.0797586
0.0527331
0.0775454
0.0808703
0.0553954
0.0774502
0.0594364
0.0476416
0.0648
0.0568577
0.0408547
0.0360737
0.0639635
0.0681165
0.0577318
0.0480046
0.0576971
0.0274985
0.0570796
0.0535709
0.0274385
0.0104474
0.0114283
0.0494406
0.0527564
0.0612465
0.0588977
0.00536682
0.0056078
0.0582766
0.0588837
0.0557408
0.020641
0.0493687
0.0573006
0.0584994
0.050464
0.0445398
0.021497
0.0843939
0.0530885
0.0648215
0.0658348
0.0473337
0.0598995
0.0462796
0.0510652
0.0254575
0.0383743
0.059971
0.0603198
0.0518583
0.0544761
0.0562077
0.0592619
0.0566846
0.0280288
0.0496591
0.0560957
0.0529533
0.0794533
0.0280242
0.0430378
0.0443322
0.04194
0.0272313
0.0272332
0.0480579
0.0388905
0.0555795
0.0299986
0.0325231
0.0106102
0.0106102
0.0224048
0.0353295
0.0237966
0.0473582
0.0511466
0.0546497
0.0615608
0.0558188
0.0516719
0.0407082
0.0253094
0.0511236
0.0529358
0.0512384
0.0284262
0.0261065
0.0204529
0.0511673
0.0522211
0.0420265
0.047412
0.0437454
0.0399963
0.0536132
0.039993
0.0473343
0.0455987
0.0279071
0.0344532
0.0322217
0.0566816
0.0225339
0.0237363
0.0232258
0.0535167
0.0214518
0.0210185
0.0372805
0.0196003
0.0432786
0.0433442
0.0201182
0.0472369
0.0223077
0.0222
0.0249851
0.0211809
0.0207742
0.0308137
0.0246862
0.022457
0.0212456
0.043228
0.0492995
0.0233646
0.0477123
0.0192711
0.0483933
0.0384728
0.0201312
0.0170299
0.0190187
0.0252278
0.0415801
0.0341582
0.0142676
0.0158381
0.0463268
0.0134306
0.0134305
0.0152188
0.0170896
0.0194414
0.0224956
0.0372316
0.0344438
0.0463618
0.0134982
0.0134981
0.0406756
0.0168422
0.0330556
0.0152603
0.0153351
0.0202049
0.034852
0.0360893
0.0384488
0.0352367
0.0348513
0.00760847
0.0562593
0.00970776
0.00940231
0.0454455
0.0451299
0.00974329
0.00676817
0.0095389
0.0419237
SCALARS rr_uec(PEX,_P_ext) float
LOOKUP_TABLE default
-0.0660107
-0.150393
-0.120109
-0.156987
-0.0820819
-0.127478
-0.0652695
-0.156116
-0.134238
-0.16901
-0.0599088
-0.156594
-0.137807
-0.145541
-0.17051
-0.143139
-0.123104
-0.139174
-0.124669
-0.121882
-0.137104
-0.0243407
-0.140476
-0.129469
-0.117359
-0.135382
-0.0554993
-0.118919
-0.0933365
-0.109853
-0.121744
-0.0964865
-0.0614801
-0.0823131
-0.0809
-0.0824986
-0.106798
-0.0810651
-0.12162
-0.0691041
-0.0784525
-0.0941238
-0.0941337
-0.133613
-0.0771388
-0.0851017
-0.117321
-0.118805
-0.111331
-0.106578
-0.109437
-0.0848625
-0.131743
-0.109045
-0.12129
-0.0559565
-0.0863782
-0.109844
-0.0863754
-0.132869
-0.157147
-0.154012
-0.0545822
-0.10859
-0.147515
-0.139221
-0.152009
-0.131492
-0.121089
-0.172605
-0.142936
-0.141378
-0.096933
-0.112691
-0.11937
-0.063463
-0.122899
-0.13793
-0.132599
-0.0936485
-0.0845148
-0.092645
-0.175402
-0.0846327
-0.114111
-0.042385
-0.137369
-0.114795
-0.0816904
-0.0119781
-0.0944889
-0.0130275
-0.104283
-0.0999391
-0.0894242
-0.0815644
-0.077621
-0.148381
-0.12299
-0.118401
-0.100598
-0.0965108
-0.0812059
-0.140539
-0.142865
-0.128652
-0.11314
-0.114777
-0.0862022
-0.17143
-0.110165
-0.0581849
-0.0777611
-0.15381
-0.144089
-0.105305
-0.100165
-0.0645005
-0.103892
-0.104889
-0.0912312
-0.166213
-0.171401
-0.147227
-0.161974
-0.127077
-0.0718836
-0.160206
-0.0703013
-0.0906793
-0.0746645
-0.152921
-0.149363
-0.150148
-0.100378
-0.0608596
-0.0672926
-0.110041
-0.134482
-0.0608391
-0.083835
-0.129687
-0.0982708
-0.158345
-0.0785058
-0.12921
-0.117265
-0.113374
-0.0724656
-0.0926144
-0.103267
-0.147564
-0.0865726
-0.13361
-0.154746
-0.157213
-0.102869
-0.0863521
-0.085862
-0.134892
-0.11325
-0.0858529
-0.056813
-0.0838515
-0.0834004
-0.144435
-0.0875156
-0.0884809
-0.0958485
-0.0852831
-0.127329
-0.0893186
-0.0790859
-0.0994009
-0.0943608
-0.113066
-0.125944
-0.121234
-0.102978
-0.120936
-0.0930288
-0.140127
-0.150394
-0.0838489
-0.14731
-0.0838132
-0.145483
-0.133741
-0.124856
-0.127099
-0.148602
-0.0704831
-0.0923314
-0.0858581
-0.149879
-0.147563
-0.136809
-0.148996
-0.151708
-0.127413
-0.15624
-0.104836
-0.0946162
-0.170579
-0.0996404
-0.154931
-0.123418
-0.0787906
-0.0947678
-0.154602
-0.128654
-0.117146
-0.150915
-0.148036
-0.0957879
-0.0949797
-0.0922699
-0.131327
-0.144912
-0.166541
-0.160003
-0.174083
-0.157745
-0.172385
-0.144635
-0.151126
-0.152303
-0.143575
-0.150832
-0.138844
-0.136777
-0.0970657
-0.13033
-0.152493
-0.105929
-0.155359
-0.14272
-0.165332
-0.099475
-0.157231
-0.150303
-0.0976871
-0.13466
-0.0970275
-0.151319
-0.138144
-0.101707
-0.0957298
-0.082797
-0.0952432
-0.151526
-0.069529
-0.116792
-0.0953743
-0.107007
-0.157379
-0.152336
-0.0477715
-0.15289
-0.0832783
-0.0902818
-0.156521
-0.127234
-0.0913457
-0.174631
-0.0993422
-0.0477716
-0.09232
-0.135855
-0.169584
-0.128572
-0.151254
-0.141656
-0.0743561
-0.0728829
-0.0623398
-0.0715715
-0.101342
-0.0775124
-0.124869
-0.078149
-0.134472
-0.0960363
-0.0924598
-0.108145
-0.100561
-0.133574
-0.0964289
-0.0992327
-0.043791
-0.0999699
-0.144601
-0.144705
-0.131065
-0.0962431
-0.0626662
-0.181953
-0.122256
-0.102103
-0.0941293
-0.0937289
-0.0970856
-0.118287
-0.0953464
-0.0682938
-0.0940961
-0.0645472
-0.116566
-0.0959994
-0.0408158
-0.0904182
-0.106908
-0.0960028
-0.14772
-0.0996953
-0.128562
-0.0493182
-0.103193
-0.0985738
-0.0860839
-0.0925393
-0.109199
-0.102779
-0.10748
-0.0914061
-0.0928442
-0.100261
-0.134025
-0.0945462
-0.133945
-0.120914
-0.0954266
-0.0980854
-0.0990259
-0.109526
-0.0988625
-0.0925689
-0.105191
-0.11031
-0.130228
-0.0990051
-0.0983653
-0.1424
-0.140405
-0.0946178
-0.0954471
-0.0426359
-0.115313
-0.0800202
-0.108238
-0.0478828
-0.0497048
-0.0444194
-0.0451466
-0.0478955
-0.050455
-0.0519958
-0.121431
-0.0898605
-0.0906665
-0.103659
-0.100978
-0.099718
-0.105477
-0.0975866
-0.0998097
-0.101473
-0.0993483
-0.121983
-0.0903295
-0.125388
-0.0975656
-0.0941849
-0.0994736
-0.106134
-0.110903
-0.103324
-0.118329
-0.110551
-0.102517
-0.0739291
-0.103109
-0.100824
-0.108555
-0.103997
-0.0985417
-0.0937141
-0.103229
-0.107675
-0.146167
-0.0965421
-0.14211
-0.148135
-0.10144
-0.141924
-0.108875
-0.0872156
-0.1188
-0.104129
-0.0749889
-0.0658745
-0.117289
-0.124922
-0.105757
-0.0879164
-0.105765
-0.0501526
-0.104561
-0.0981085
-0.050099
-0.0191964
-0.0209992
-0.090573
-0.096582
-0.112172
-0.107831
-0.00986931
-0.0103124
-0.106788
-0.107902
-0.102141
-0.0376454
-0.090373
-0.105059
-0.107124
-0.092406
-0.0815612
-0.0392032
-0.15472
-0.0971873
-0.118748
-0.120605
-0.0866733
-0.109694
-0.0847432
-0.0935103
-0.0464677
-0.0701222
-0.109824
-0.110503
-0.0949732
-0.0997499
-0.102935
-0.108536
-0.103812
-0.0511838
-0.0910881
-0.102698
-0.0970682
-0.145665
-0.0511738
-0.0788401
-0.0812076
-0.0769601
-0.0500338
-0.0500372
-0.0881673
-0.071191
-0.101817
-0.0547763
-0.0597506
-0.0195091
-0.019509
-0.0408562
-0.0648692
-0.0437036
-0.0867514
-0.0938257
-0.100131
-0.112824
-0.102336
-0.0947464
-0.074595
-0.0461593
-0.0936602
-0.0970324
-0.0939436
-0.0518711
-0.0479376
-0.0373411
-0.0938111
-0.0957088
-0.0769099
-0.0868675
-0.0801588
-0.0733965
-0.0982468
-0.0733901
-0.0867133
-0.0836043
-0.0512486
-0.0632721
-0.0588367
-0.103889
-0.0410871
-0.0432838
-0.0423438
-0.0981118
-0.0391218
-0.0383155
-0.0682636
-0.0357359
-0.0794376
-0.0795578
-0.0366832
-0.0865115
-0.0407192
-0.0404772
-0.0456019
-0.0386185
-0.0379163
-0.0565795
-0.0450685
-0.0409558
-0.0387383
-0.079209
-0.0904064
-0.0426408
-0.0874269
-0.0351311
-0.0886892
-0.0704631
-0.0367032
-0.0310775
-0.0346721
-0.0460042
-0.0761651
-0.0627028
-0.0262314
-0.0291169
-0.0849094
-0.0246922
-0.024692
-0.027979
-0.0314054
-0.0354967
-0.0413093
-0.0683079
-0.0632278
-0.0849684
-0.0248083
-0.0248081
-0.0746743
-0.0307109
-0.0605385
-0.0278285
-0.0279954
-0.0368865
-0.064025
-0.066297
-0.0706289
-0.0647292
-0.0640234
-0.0139872
-0.103348
-0.017842
-0.0172868
-0.0834873
-0.082908
-0.0179141
-0.0124426
-0.0175319
-0.0770104
SCALARS cell_type float
LOOKUP_TABLE default
0
0
0
0
0
0
0
0
0
0
0
0
0
0
0
0
0
0
0
0
0
1
0
0
0
0
0
0
0
0
0
0
0
0
0
0
0
0
0
0
0
0
0
0
0
0
0
0
0
0
0
0
0
0
0
0
0
0
0
0
0
0
0
0
0
0
0
0
0
0
0
0
0
0
0
0
0
0
0
0
0
0
0
0
0
0
0
0
0
0
0
0
0
0
0
0
0
0
0
0
0
0
0
0
0
0
0
0
0
0
0
0
0
0
0
0
0
0
0
0
0
0
0
0
0
0
0
0
0
0
0
0
0
0
0
0
0
0
0
0
0
0
0
0
0
0
0
0
0
0
0
0
0
0
0
0
0
0
0
0
0
0
0
0
0
0
0
0
0
0
0
0
0
0
0
0
0
0
0
0
0
0
0
0
0
0
0
0
0
0
0
0
0
0
0
0
0
0
0
0
0
0
0
0
0
0
0
0
0
0
0
0
0
0
0
0
0
0
0
0
0
0
0
0
0
0
0
0
0
0
0
0
0
0
0
0
0
0
0
0
0
0
0
0
0
0
0
0
0
0
0
0
0
0
0
0
0
0
0
0
0
0
0
0
0
0
0
0
0
0
0
0
0
0
0
0
0
0
0
0
0
0
0
0
0
0
0
0
0
0
0
0
0
0
0
0
0
0
0
0
0
0
0
0
0
0
0
0
0
0
0
0
0
0
0
0
0
0
0
0
0
0
0
0
0
0
0
0
0
0
0
0
0
0
0
0
0
0
0
0
0
0
0
0
0
0
0
0
0
0
2
2
2
2
2
2
2
0
0
0
0
0
0
0
0
0
0
0
0
0
0
0
0
0
0
0
0
0
0
0
0
0
0
0
0
0
0
0
0
0
0
0
0
0
0
0
0
0
0
0
0
0
0
0
0
0
0
0
0
0
0
0
0
0
0
0
1
1
0
0
0
0
0
0
0
0
0
0
0
0
0
0
0
0
0
0
0
0
0
0
0
0
0
0
0
0
0
0
0
0
0
0
0
0
0
0
0
0
0
0
0
1
1
0
0
0
0
0
0
0
0
0
0
0
0
0
0
0
0
0
0
0
0
0
0
0
0
0
0
0
0
0
0
0
0
0
0
0
0
0
0
0
0
0
0
0
0
0
0
0
0
0
0
0
0
0
0
0
0
0
0
0
0
0
0
0
0
0
1
1
0
0
0
0
0
0
0
0
0
0
0
0
0
0
0
0
0
0
0
0
0
0
0
0
0
0
0
0
0
0
0
0
0
TENSORS Lagrange_strain float
0.030576 -0.00319883 -1.28852e-07
-0.00319883 0.0133922 -2.48013e-07
-1.28852e-07 -2.48013e-07 0.00740413

0.0292026 -0.00280141 -2.13597e-08
-0.00280141 0.0335644 2.04854e-08
-2.13597e-08 2.04854e-08 0.033173

0.0300308 0.00368039 2.41633e-08
0.00368039 0.0311796 1.10288e-07
2.41633e-08 1.10288e-07 0.0304772

0.0291723 -0.00392478 8.23731e-08
-0.00392478 0.0328099 5.54782e-08
8.23731e-08 5.54782e-08 0.0330979

0.0353754 0.00266913 -3.83644e-09
0.00266913 0.0380915 1.9286e-08
-3.83644e-09 1.9286e-08 0.0353006

0.0277443 -0.00236804 4.1904e-08
-0.00236804 0.0333945 -1.01418e-07
4.1904e-08 -1.01418e-07 0.0304482

0.0302698 0.00339469 -1.3823e-07
0.00339469 0.0134978 1.55706e-07
-1.3823e-07 1.55706e-07 0.00746558

0.0317647 0.00394065 5.52318e-08
0.00394065 0.0312099 1.17268e-07
5.52318e-08 1.17268e-07 0.03157

0.0332531 0.000715642 8.59977e-08
0.000715642 0.0262298 -6.17459e-08
8.59977e-08 -6.17459e-08 0.028151

0.0354779 -0.000991049 7.03382e-08
-0.000991049 0.0275611 -5.65961e-08
7.03382e-08 -5.65961e-08 0.0327305

0.0280698 0.00205198 -5.81521e-08
0.00205198 0.0138124 -1.83121e-07
-5.81521e-08 -1.83121e-07 0.0117572

0.0279625 -0.00176616 5.12957e-08
-0.00176616 0.0350168 -7.18682e-08
5.12957e-08 -7.18682e-08 0.0315586

0.0311311 0.003658 9.11131e-08
0.003658 0.0313105 -1.39474e-07
9.11131e-08 -1.39474e-07 0.0310888

0.0290783 -0.00188064 -9.48991e-08
-0.00188064 0.0348094 4.44176e-09
-9.48991e-08 4.44176e-09 0.0325558

0.0346398 0.00441747 -9.08948e-08
0.00441747 0.0343716 1.5922e-07
-9.08948e-08 1.5922e-07 0.0348933

0.034339 7.30583e-05 -4.73683e-08
7.30583e-05 0.0272952 -6.84289e-08
-4.73683e-08 -6.84289e-08 0.0307877

0.0287026 -0.00235356 -1.39543e-07
-0.00235356 0.0360237 -1.49431e-07
-1.39543e-07 -1.49431e-07 0.0334593

0.0345843 -0.000353023 6.48338e-08
-0.000353023 0.0273655 -4.97188e-08
6.48338e-08 -4.97188e-08 0.0319866

0.0269287 0.00347957 2.52264e-08
0.00347957 0.0309553 -1.38735e-07
2.52264e-08 -1.38735e-07 0.0275854

0.0338959 -0.000550628 6.69179e-08
-0.000550628 0.0264179 9.66706e-08
6.69179e-08 9.66706e-08 0.0301435

0.0266306 0.00113568 4.58284e-08
0.00113568 0.0340446 -2.13002e-07
4.58284e-08 -2.13002e-07 0.029159

0.0452951 0.000852022 -1.47127e-07
0.000852022 0.0452659 1.66409e-07
-1.47127e-07 1.66409e-07 0.0366456

0.0336866 0.000247543 -8.91327e-08
0.000247543 0.0263238 -4.33489e-08
-8.91327e-08 -4.33489e-08 0.0298144

0.0293191 -0.00363349 2.06775e-08
-0.00363349 0.0311461 -8.85774e-08
2.06775e-08 -8.85774e-08 0.0300559

0.033791 0.000900322 -7.9854e-08
0.000900322 0.0265049 1.04627e-08
-7.9854e-08 1.04627e-08 0.0300905

0.0285553 0.00250806 -1.43902e-07
0.00250806 0.0339045 1.86626e-07
-1.43902e-07 1.86626e-07 0.0322964

0.0286383 0.000527006 -1.74509e-07
0.000527006 0.0176944 5.81275e-08
-1.74509e-07 5.81275e-08 0.0131755

0.0309239 0.00403574 7.7065e-08
0.00403574 0.030656 -1.08202e-07
7.7065e-08 -1.08202e-07 0.0306199

0.0259332 0.00477858 2.34486e-07
0.00477858 0.0257414 1.48087e-07
2.34486e-07 1.48087e-07 0.0211349

0.0415329 0.00136998 8.56227e-08
0.00136998 0.0383565 -3.00631e-09
8.56227e-08 -3.00631e-09 0.036143

0.0344216 0.00187122 -3.75435e-08
0.00187122 0.0279615 8.61785e-08
-3.75435e-08 8.61785e-08 0.0310093

0.0217662 -0.00228892 -9.48176e-08
-0.00228892 0.0300024 -6.24807e-08
-9.48176e-08 -6.24807e-08 0.0211318

0.02287 -0.00535437 2.84677e-07
-0.00535437 0.0234798 -1.41244e-07
2.84677e-07 -1.41244e-07 0.012583

0.0348387 0.000799939 1.74829e-08
0.000799939 0.0422606 9.98781e-08
1.74829e-08 9.98781e-08 0.0357943

0.037459 -0.000660937 -3.0023e-08
-0.000660937 0.041208 -4.222e-08
-3.0023e-08 -4.222e-08 0.0359089

0.0410799 0.00281323 9.12798e-09
0.00281323 0.0359927 -1.04164e-07
9.12798e-09 -1.04164e-07 0.0357745

0.0372597 0.000704186 2.168e-08
0.000704186 0.0432181 -5.19599e-08
2.168e-08 -5.19599e-08 0.0361495

0.0402655 -0.00121888 2.06103e-07
-0.00121888 0.0378366 5.678e-08
2.06103e-07 5.678e-08 0.0358162

0.0312256 -0.00367894 -1.62037e-08
-0.00367894 0.0311336 -9.08827e-08
-1.62037e-08 -9.08827e-08 0.0309347

0.022754 0.00528097 1.12502e-07
0.00528097 0.0237159 -7.35778e-09
1.12502e-07 -7.35778e-09 0.012585

0.0297709 -0.00231683 1.52695e-08
-0.00231683 0.0220375 1.56926e-07
1.52695e-08 1.56926e-07 0.0208816

0.037625 -0.000522073 1.08538e-07
-0.000522073 0.0430678 2.16808e-07
1.08538e-07 2.16808e-07 0.0361522

0.0412454 0.00263306 1.56916e-07
0.00263306 0.0394197 -9.3664e-08
1.56916e-07 -9.3664e-08 0.0361347

0.0343122 -0.00161725 6.89718e-08
-0.00161725 0.0280036 8.83387e-08
6.89718e-08 8.83387e-08 0.0310933

0.0231126 -0.00552808 -6.20071e-08
-0.00552808 0.0235698 2.38113e-07
-6.20071e-08 2.38113e-07 0.0162212

0.0299534 -0.00233329 1.76729e-07
-0.00233329 0.0221617 8.72815e-09
1.76729e-07 8.72815e-09 0.0213512

0.0259019 0.0022282 -9.71161e-08
0.0022282 0.032665 8.65551e-08
-9.71161e-08 8.65551e-08 0.0279241

0.0275597 0.00252989 -3.05028e-08
0.00252989 0.0323847 -5.54773e-08
-3.05028e-08 -5.54773e-08 0.0284998

0.0341859 -0.00214141 -9.44052e-08
-0.00214141 0.0271158 -6.80587e-08
-9.44052e-08 -6.80587e-08 0.0304814

0.0229094 -0.00439429 -4.4889e-08
-0.00439429 0.0272578 -4.83286e-08
-4.4889e-08 -4.83286e-08 0.0198568

0.0295038 0.00247255 5.55181e-08
0.00247255 0.0218408 1.49384e-07
5.55181e-08 1.49384e-07 0.0202875

0.0298823 -0.00327235 8.31343e-08
-0.00327235 0.0245211 6.11611e-08
8.31343e-08 6.11611e-08 0.0230556

0.0344845 0.00257692 -7.18359e-10
0.00257692 0.038211 -8.64095e-08
-7.18359e-10 -8.64095e-08 0.0352794

0.0286989 0.00384023 -1.5199e-07
0.00384023 0.025788 1.5836e-07
-1.5199e-07 1.5836e-07 0.0231242

0.0349365 -0.00291585 -1.80095e-08
-0.00291585 0.0374389 2.20791e-08
-1.80095e-08 2.20791e-08 0.0351978

0.025588 -0.00545755 -2.11119e-07
-0.00545755 0.0229092 7.41904e-08
-2.11119e-07 7.41904e-08 0.0158247

0.0373527 0.000744962 1.56758e-08
0.000744962 0.0414179 2.41547e-08
1.56758e-08 2.41547e-08 0.0359294

0.0231747 -0.000693463 -3.09099e-08
-0.000693463 0.0313242 4.76104e-08
-3.09099e-08 4.76104e-08 0.0231103

0.0410341 0.00137999 -7.55702e-08
0.00137999 0.0377133 3.92814e-08
-7.55702e-08 3.92814e-08 0.0359075

0.0276846 0.00280618 -2.32226e-08
0.00280618 0.0327604 -2.93009e-08
-2.32226e-08 -2.93009e-08 0.0302404

0.0361492 0.000785082 -3.94425e-08
0.000785082 0.0281414 7.85758e-08
-3.94425e-08 7.85758e-08 0.0336824

0.0362644 0.00153436 -3.95655e-08
0.00153436 0.0317019 7.7602e-08
-3.95655e-08 7.7602e-08 0.0342298

0.0286458 0.00405837 3.62804e-08
0.00405837 0.0199029 2.63889e-07
3.62804e-08 2.63889e-07 0.0137636

0.0309811 -0.000784352 5.74471e-08
-0.000784352 0.0370946 -2.67079e-08
5.74471e-08 -2.67079e-08 0.0338906

0.0315639 0.0012438 7.80292e-08
0.0012438 0.0364307 -1.32839e-07
7.80292e-08 -1.32839e-07 0.0342686

0.0285577 -0.000375469 1.54617e-07
-0.000375469 0.0369656 9.46293e-08
1.54617e-07 9.46293e-08 0.0326798

0.029612 0.00307117 -1.86634e-08
0.00307117 0.0348013 -6.20246e-08
-1.86634e-08 -6.20246e-08 0.0337182

0.0347302 0.00112218 -9.21845e-08
0.00112218 0.0278478 8.21971e-08
-9.21845e-08 8.21971e-08 0.0322181

0.029197 -0.00370024 1.90057e-07
-0.00370024 0.0310312 1.2249e-07
1.90057e-07 1.2249e-07 0.0299189

0.0350654 -0.000236972 2.24165e-11
-0.000236972 0.02759 -5.79707e-08
2.24165e-11 -5.79707e-08 0.0334028

0.0344592 -0.0025473 1.1759e-08
-0.0025473 0.0381418 1.81194e-08
1.1759e-08 1.81194e-08 0.0352694

0.0350191 0.00284944 6.99163e-09
0.00284944 0.0375764 3.49559e-08
6.99163e-09 3.49559e-08 0.0352492

0.0218952 -0.00213272 -1.85327e-08
-0.00213272 0.0299321 -3.39443e-08
-1.85327e-08 -3.39443e-08 0.0208581

0.0347107 -0.0036914 -8.20943e-08
-0.0036914 0.0319666 1.49308e-08
-8.20943e-08 1.49308e-08 0.0330881

0.0293016 -0.0032984 6.28543e-08
-0.0032984 0.0321235 -1.02026e-07
6.28543e-08 -1.02026e-07 0.0304428

0.0267878 -0.00401845 -2.62886e-07
-0.00401845 0.01761 -1.34518e-07
-2.62886e-07 -1.34518e-07 0.01273

0.0324116 0.000419144 6.98841e-08
0.000419144 0.0381139 -5.76694e-08
6.98841e-08 -5.76694e-08 0.0344146

0.0345467 0.00381815 -8.7338e-08
0.00381815 0.0309509 -1.10683e-08
-8.7338e-08 -1.10683e-08 0.0326694

0.0283858 0.00258186 -1.05951e-07
0.00258186 0.0341401 9.74929e-08
-1.05951e-07 9.74929e-08 0.0322233

0.0315529 0.00103826 -4.2348e-08
0.00103826 0.0228508 9.51834e-08
-4.2348e-08 9.51834e-08 0.0240771

0.027106 -0.00436047 -9.70132e-08
-0.00436047 0.0237441 2.35536e-07
-9.70132e-08 2.35536e-07 0.0183295

0.0362662 -0.00140256 1.19471e-07
-0.00140256 0.0387507 1.5668e-07
1.19471e-07 1.5668e-07 0.0354096

0.031566 0.00317146 -1.49844e-07
0.00317146 0.0344105 1.60007e-07
-1.49844e-07 1.60007e-07 0.0340995

0.0273102 -0.00415783 -3.10918e-08
-0.00415783 0.0221817 3.08048e-08
-3.10918e-08 3.08048e-08 0.0184174

0.0303684 0.00139167 8.57563e-08
0.00139167 0.0228374 9.23819e-08
8.57563e-08 9.23819e-08 0.0209614

0.0186072 -0.00269808 -1.69281e-07
-0.00269808 0.0289382 -9.49284e-08
-1.69281e-07 -9.49284e-08 0.0158981

0.0272086 0.00188934 1.76088e-07
0.00188934 0.0343308 9.93873e-08
1.76088e-07 9.93873e-08 0.0306639

0.0353916 0.0030575 -1.9193e-07
0.0030575 0.0308287 3.71343e-08
-1.9193e-07 3.71343e-08 0.0327628

0.0226547 0.00538809 4.39665e-08
0.00538809 0.0240959 -8.70247e-08
4.39665e-08 -8.70247e-08 0.0162038

0.0459505 0.00223739 9.08091e-08
0.00223739 0.0417535 -1.48187e-07
9.08091e-08 -1.48187e-07 0.0366465

0.0230885 -0.000534508 2.22045e-08
-0.000534508 0.0313648 5.20073e-08
2.22045e-08 5.20073e-08 0.0230801

0.0463635 -0.00225532 -2.7059e-07
-0.00225532 0.0412975 3.05394e-07
-2.7059e-07 3.05394e-07 0.0366017

0.0370733 -0.00362464 -8.03898e-09
-0.00362464 0.0334991 4.84011e-09
-8.03898e-09 4.84011e-09 0.0346296

0.0351474 0.00361953 -1.52607e-07
0.00361953 0.0300127 -1.0813e-07
-1.52607e-07 -1.0813e-07 0.0324656

0.0299722 -0.00316026 1.7251e-07
-0.00316026 0.0246982 1.58443e-08
1.7251e-07 1.58443e-08 0.0232936

0.0230194 0.00403167 -1.60035e-07
0.00403167 0.0277882 2.35539e-08
-1.60035e-07 2.35539e-08 0.0203887

0.0211001 -0.00137912 -6.95576e-08
-0.00137912 0.029905 -1.29232e-07
-6.95576e-08 -1.29232e-07 0.0182575

0.0287559 0.00288906 -5.33457e-08
0.00288906 0.0342378 1.06916e-07
-5.33457e-08 1.06916e-07 0.0327092

0.0370207 0.00223647 1.85307e-07
0.00223647 0.0334596 3.88135e-08
1.85307e-07 3.88135e-08 0.0343929

0.0281578 0.00198891 -1.09289e-07
0.00198891 0.0340709 7.95214e-08
-1.09289e-07 7.95214e-08 0.0308748

0.0318937 0.00207396 -3.41549e-08
0.00207396 0.0252621 1.08279e-07
-3.41549e-08 1.08279e-07 0.0256258

0.023915 -0.00277558 -3.84893e-08
-0.00277558 0.0297747 -3.6063e-08
-3.84893e-08 -3.6063e-08 0.0215686

0.0279076 -0.00376529 -1.33852e-07
-0.00376529 0.0218217 1.44808e-07
-1.33852e-07 1.44808e-07 0.0180818

0.0293416 -0.00323248 8.45773e-08
-0.00323248 0.0326402 7.41717e-08
8.45773e-08 7.41717e-08 0.0324124

0.0306362 0.00361541 2.24033e-07
0.00361541 0.0322385 5.39961e-08
2.24033e-07 5.39961e-08 0.0323801

0.0287183 0.00304842 -2.46343e-08
0.00304842 0.0340376 2.01667e-07
-2.46343e-08 2.01667e-07 0.0326397

0.0292157 0.00172495 1.4442e-07
0.00172495 0.0376267 -9.7081e-08
1.4442e-07 -9.7081e-08 0.033855

0.0344884 0.00123254 -1.17963e-07
0.00123254 0.0275327 -7.98136e-08
-1.17963e-07 -7.98136e-08 0.030684

0.0199663 -0.000605496 -1.04225e-07
-0.000605496 0.0296705 9.41262e-08
-1.04225e-07 9.41262e-08 0.0181098

0.0298079 -0.00486265 3.92388e-08
-0.00486265 0.0330593 4.70608e-08
3.92388e-08 4.70608e-08 0.033751

0.0290908 0.00360117 -3.45638e-08
0.00360117 0.0313698 -1.21181e-07
-3.45638e-08 -1.21181e-07 0.0302733

0.0181104 0.000282952 -3.82265e-07
0.000282952 0.0293202 -6.05344e-08
-3.82265e-07 -6.05344e-08 0.0168839

0.0278521 0.00442561 -7.09216e-08
0.00442561 0.0209743 1.80269e-07
-7.09216e-08 1.80269e-07 0.0174603

0.0292008 -0.00302122 -8.98726e-08
-0.00302122 0.0327135 -3.23657e-08
-8.98726e-08 -3.23657e-08 0.0321949

0.035253 0.000759756 2.63959e-09
0.000759756 0.0273485 -9.71853e-08
2.63959e-09 -9.71853e-08 0.0325622

0.029437 0.0035217 7.46692e-08
0.0035217 0.0252091 -1.62731e-07
7.46692e-08 -1.62731e-07 0.0231187

0.0396429 0.00170971 1.39669e-07
0.00170971 0.0390441 -1.38251e-08
1.39669e-07 -1.38251e-08 0.0359479

0.0283843 0.00312479 1.5644e-07
0.00312479 0.0224081 -1.43017e-07
1.5644e-07 -1.43017e-07 0.0182923

0.039495 -0.00175036 1.38916e-07
-0.00175036 0.0390699 -1.78578e-07
1.38916e-07 -1.78578e-07 0.0359131

0.0232681 0.000103476 -1.80281e-07
0.000103476 0.0315287 2.83002e-08
-1.80281e-07 2.83002e-08 0.0231271

0.0327699 -0.000288566 8.56855e-08
-0.000288566 0.0246676 -6.19012e-08
8.56855e-08 -6.19012e-08 0.0269748

0.0380628 -0.00212846 1.25347e-07
-0.00212846 0.0304729 -1.29527e-07
1.25347e-07 -1.29527e-07 0.0348018

0.0292481 0.00320588 -1.33443e-07
0.00320588 0.0332887 -6.71251e-08
-1.33443e-07 -6.71251e-08 0.0333522

0.0289599 -0.00177283 -1.59582e-07
-0.00177283 0.0366188 4.39203e-09
-1.59582e-07 4.39203e-09 0.0335087

0.0365933 -0.00108467 -2.82515e-10
-0.00108467 0.0264871 -5.75174e-08
-2.82515e-10 -5.75174e-08 0.0338692

0.0311885 -0.0029252 4.97323e-08
-0.0029252 0.0383137 1.31381e-07
4.97323e-08 1.31381e-07 0.0348521

0.038172 -0.000886149 4.11422e-08
-0.000886149 0.0387369 6.25401e-08
4.11422e-08 6.25401e-08 0.0358432

0.0301897 -0.00394026 -1.34094e-07
-0.00394026 0.0327208 -3.22084e-08
-1.34094e-07 -3.22084e-08 0.0327726

0.0213389 0.00147005 1.83609e-07
0.00147005 0.0296231 2.62865e-07
1.83609e-07 2.62865e-07 0.0183014

0.0293976 -0.00364728 7.01123e-08
-0.00364728 0.0253572 3.12248e-08
7.01123e-08 3.12248e-08 0.0231893

0.0328663 -0.00181632 -4.832e-08
-0.00181632 0.0397249 2.28339e-07
-4.832e-08 2.28339e-07 0.0352491

0.0351016 7.69662e-05 1.71718e-08
7.69662e-05 0.0272319 -9.59959e-08
1.71718e-08 -9.59959e-08 0.0332605

0.0308271 -0.00282877 -6.7456e-08
-0.00282877 0.0349011 -1.50426e-07
-6.7456e-08 -1.50426e-07 0.034093

0.0295446 0.00338892 -1.00711e-07
0.00338892 0.0328817 -6.48998e-09
-1.00711e-07 -6.48998e-09 0.0333353

0.0264686 -0.00406511 1.94764e-07
-0.00406511 0.0272704 -4.32083e-08
1.94764e-07 -4.32083e-08 0.0215913

0.0371774 -0.000957404 -6.79996e-08
-0.000957404 0.0416157 8.57568e-08
-6.79996e-08 8.57568e-08 0.0358943

0.0227176 -0.00423931 -1.22677e-07
-0.00423931 0.0272522 7.6252e-08
-1.22677e-07 7.6252e-08 0.0168828

0.0341935 -0.00252541 -9.59025e-08
-0.00252541 0.0286151 7.62802e-08
-9.59025e-08 7.62802e-08 0.0310534

0.0364349 0.000290455 7.1023e-09
0.000290455 0.0294468 -1.83758e-08
7.1023e-09 -1.83758e-08 0.0342026

0.0396474 0.00239608 -2.27871e-07
0.00239608 0.0391173 1.83572e-07
-2.27871e-07 1.83572e-07 0.0358752

0.0238634 0.00261041 -1.52508e-07
0.00261041 0.0301617 9.35336e-09
-1.52508e-07 9.35336e-09 0.0218058

0.03344 0.00358242 -4.28437e-08
0.00358242 0.0307246 -7.8048e-08
-4.28437e-08 -7.8048e-08 0.0317762

0.0316534 -0.00319569 1.03755e-07
-0.00319569 0.0265602 -5.95392e-09
1.03755e-07 -5.95392e-09 0.0269438

0.0289381 -0.00234135 -8.82937e-08
-0.00234135 0.0342454 1.59375e-07
-8.82937e-08 1.59375e-07 0.0326151

0.0262527 0.00450333 -4.33258e-08
0.00450333 0.0245651 -1.96483e-07
-4.33258e-08 -1.96483e-07 0.0180868

0.0284322 -0.00286705 -3.64589e-08
-0.00286705 0.0340425 3.11592e-08
-3.64589e-08 3.11592e-08 0.0324583

0.0331586 0.00405952 -7.04177e-08
0.00405952 0.030473 7.54572e-09
-7.04177e-08 7.54572e-09 0.0315512

0.0333448 -0.00331242 -1.01657e-07
-0.00331242 0.0283657 -6.37556e-08
-1.01657e-07 -6.37556e-08 0.0300547

0.0291703 -0.00329646 1.61727e-07
-0.00329646 0.0319983 5.66635e-08
1.61727e-07 5.66635e-08 0.0304464

0.0314656 -0.0024304 5.97814e-08
-0.0024304 0.0247263 5.79811e-08
5.97814e-08 5.79811e-08 0.0251642

0.0329663 -0.00246771 -1.2247e-07
-0.00246771 0.0267178 -3.34923e-08
-1.2247e-07 -3.34923e-08 0.0286053

0.0295013 -0.00334253 -9.84295e-08
-0.00334253 0.0329606 -1.00803e-07
-9.84295e-08 -1.00803e-07 0.0334167

0.0261422 0.00463599 1.23952e-07
0.00463599 0.0255493 -1.01005e-08
1.23952e-07 -1.01005e-08 0.0210991

0.0281593 0.00201749 -1.97017e-07
0.00201749 0.0343464 3.37069e-08
-1.97017e-07 3.37069e-08 0.0311186

0.0308963 0.00348203 -8.86314e-08
0.00348203 0.0322651 -1.34546e-07
-8.86314e-08 -1.34546e-07 0.0326094

0.0291671 0.00334822 -7.93722e-08
0.00334822 0.0332022 8.21126e-08
-7.93722e-08 8.21126e-08 0.0332698

0.0289933 0.00152365 -5.05684e-08
0.00152365 0.0354805 5.14161e-08
-5.05684e-08 5.14161e-08 0.0327047

0.0310632 -0.00106215 9.20272e-08
-0.00106215 0.0231483 -1.43597e-07
9.20272e-08 -1.43597e-07 0.022085

0.0238911 0.00240684 2.09455e-07
0.00240684 0.0304208 -1.81304e-07
2.09455e-07 -1.81304e-07 0.02212

0.0292226 -0.00320469 8.29355e-09
-0.00320469 0.0326471 1.17532e-07
8.29355e-09 1.17532e-07 0.0316278

0.0289969 0.00335807 -4.12199e-08
0.00335807 0.030943 -1.28506e-07
-4.12199e-08 -1.28506e-07 0.0285769

0.026621 -0.00459323 5.64496e-08
-0.00459323 0.0252384 3.02203e-08
5.64496e-08 3.02203e-08 0.0212634

0.0262862 0.00489553 -1.03465e-07
0.00489553 0.0209523 4.10991e-08
-1.03465e-07 4.10991e-08 0.0167677

0.0235099 -0.00428878 7.84259e-08
-0.00428878 0.0274735 -1.12946e-07
7.84259e-08 -1.12946e-07 0.020633

0.0266802 -0.00402921 -8.65372e-09
-0.00402921 0.0274916 -1.17464e-07
-8.65372e-09 -1.17464e-07 0.0220571

0.0353753 -0.000906646 -9.66111e-08
-0.000906646 0.0274003 1.5483e-07
-9.66111e-08 1.5483e-07 0.0326645

0.0260537 0.00392341 1.57684e-07
0.00392341 0.0281015 2.67519e-07
1.57684e-07 2.67519e-07 0.0221096

0.0307985 0.00171737 -1.7929e-07
0.00171737 0.0233674 1.96669e-07
-1.7929e-07 1.96669e-07 0.0220327

0.0214371 0.00172285 2.71884e-08
0.00172285 0.030251 -2.1511e-07
2.71884e-08 -2.1511e-07 0.0211396

0.0242702 -0.00289084 1.04788e-07
-0.00289084 0.0299619 -5.62249e-08
1.04788e-07 -5.62249e-08 0.0220933

0.0313541 -0.000131516 1.17251e-07
-0.000131516 0.0392823 -1.68007e-07
1.17251e-07 -1.68007e-07 0.0346797

0.0230654 0.000294822 1.21998e-07
0.000294822 0.0314713 5.84046e-08
1.21998e-07 5.84046e-08 0.0230698

0.022784 0.00400334 -1.14859e-07
0.00400334 0.0281366 2.4479e-07
-1.14859e-07 2.4479e-07 0.0206448

0.0288981 0.00158621 -6.9849e-09
0.00158621 0.0358431 -9.65885e-09
-6.9849e-09 -9.65885e-09 0.0329032

0.0293258 -0.00358167 4.23518e-08
-0.00358167 0.0251377 -2.05809e-07
4.23518e-08 -2.05809e-07 0.0232473

0.0369859 0.00273343 1.90083e-07
0.00273343 0.0297324 -7.89289e-08
1.90083e-07 -7.89289e-08 0.033811

0.0371839 0.00348329 8.35098e-09
0.00348329 0.0334315 3.72639e-08
8.35098e-09 3.72639e-08 0.0346612

0.034555 -0.00244706 -4.99676e-08
-0.00244706 0.0285391 -5.82202e-08
-4.99676e-08 -5.82202e-08 0.0313884

0.0390639 -0.000266718 5.87566e-08
-0.000266718 0.0339329 -2.56682e-07
5.87566e-08 -2.56682e-07 0.035217

0.031489 -0.00418815 -3.55269e-08
-0.00418815 0.0317919 -7.51479e-08
-3.55269e-08 -7.51479e-08 0.032166

0.0294722 0.00300897 7.64324e-08
0.00300897 0.0223341 -1.57494e-07
7.64324e-08 -1.57494e-07 0.0210735

0.0302405 0.00397333 -1.29464e-07
0.00397333 0.0326743 -5.95402e-08
-1.29464e-07 -5.95402e-08 0.0327299

0.0302876 0.00384727 2.26792e-07
0.00384727 0.032618 4.88832e-08
2.26792e-07 4.88832e-08 0.0326846

0.0262529 0.00396359 1.01529e-07
0.00396359 0.0277769 3.44474e-08
1.01529e-07 3.44474e-08 0.0218721

0.0344607 0.00357731 -1.2347e-07
0.00357731 0.0317885 3.92324e-08
-1.2347e-07 3.92324e-08 0.0328409

0.030259 0.000452613 -1.62846e-07
0.000452613 0.0204344 2.30432e-07
-1.62846e-07 2.30432e-07 0.0205801

0.0331956 0.00420069 3.22017e-08
0.00420069 0.0323832 -1.22897e-07
3.22017e-08 -1.22897e-07 0.0334934

0.0305095 -0.00165448 2.05973e-07
-0.00165448 0.0366264 2.13844e-08
2.05973e-07 2.13844e-08 0.0336722

0.0373688 0.00323249 7.8897e-08
0.00323249 0.0334679 -1.00129e-07
7.8897e-08 -1.00129e-07 0.0346732

0.0307477 -0.00389624 -7.07499e-08
-0.00389624 0.0322841 4.03367e-08
-7.07499e-08 4.03367e-08 0.0326901

0.0293826 -0.000644593 -6.56417e-08
-0.000644593 0.036913 7.56356e-08
-6.56417e-08 7.56356e-08 0.0328573

0.0288223 -0.0031537 -4.90786e-08
-0.0031537 0.0221467 6.63132e-09
-4.90786e-08 6.63132e-09 0.0187653

0.0290126 0.00384623 1.2676e-09
0.00384623 0.0255864 -7.10005e-09
1.2676e-09 -7.10005e-09 0.0230806

0.021708 0.00189178 1.37968e-07
0.00189178 0.0300719 2.96053e-08
1.37968e-07 2.96053e-08 0.0210909

0.0350011 -0.000161657 -1.2463e-07
-0.000161657 0.0274 1.5493e-07
-1.2463e-07 1.5493e-07 0.0333116

0.0344308 1.41989e-07 2.12227e-08
1.41989e-07 0.0272843 -6.36023e-08
2.12227e-08 -6.36023e-08 0.0320511

0.0291758 0.00304057 -2.37772e-08
0.00304057 0.0326907 5.9818e-08
-2.37772e-08 5.9818e-08 0.0321426

0.0314599 0.00316654 8.68423e-08
0.00316654 0.0342602 -2.49549e-08
8.68423e-08 -2.49549e-08 0.0340677

0.0291793 -0.00320434 4.45779e-08
-0.00320434 0.0332498 1.02973e-07
4.45779e-08 1.02973e-07 0.0333889

0.0287828 -8.58488e-05 -5.58749e-09
-8.58488e-05 0.0367151 -9.32598e-09
-5.58749e-09 -9.32598e-09 0.0325352

0.0294748 0.00337631 1.82968e-07
0.00337631 0.0330856 -1.85264e-08
1.82968e-07 -1.85264e-08 0.0333647

0.0328713 -0.00134712 1.19477e-07
-0.00134712 0.0253701 1.41358e-08
1.19477e-07 1.41358e-08 0.0278382

0.0263638 -0.00425662 1.135e-07
-0.00425662 0.0281896 9.18013e-08
1.135e-07 9.18013e-08 0.0242758

0.036308 -0.000332014 2.65556e-08
-0.000332014 0.0293929 3.65275e-08
2.65556e-08 3.65275e-08 0.0340376

0.0267899 -0.00444756 9.31081e-08
-0.00444756 0.0251988 -2.0707e-07
9.31081e-08 -2.0707e-07 0.0209563

0.0309091 0.00250716 -5.70338e-08
0.00250716 0.0350734 2.80769e-10
-5.70338e-08 2.80769e-10 0.0340774

0.035124 -0.00349712 -8.77058e-08
-0.00349712 0.0303974 -2.83779e-09
-8.77058e-08 -2.83779e-09 0.0326243

0.0305128 -0.00125037 -1.17911e-07
-0.00125037 0.0229856 -1.52737e-07
-1.17911e-07 -1.52737e-07 0.0214857

0.0371566 -0.00307729 -6.12397e-09
-0.00307729 0.0316623 1.11379e-09
-6.12397e-09 1.11379e-09 0.0339971

0.0349804 0.000321948 -1.45189e-07
0.000321948 0.0275653 2.28581e-08
-1.45189e-07 2.28581e-08 0.0334399

0.0358525 -0.00308909 -3.60024e-08
-0.00308909 0.0332669 1.65661e-07
-3.60024e-08 1.65661e-07 0.0341527

0.0349394 -0.00341098 -1.04904e-07
-0.00341098 0.0296042 8.43556e-08
-1.04904e-07 8.43556e-08 0.0321877

0.0349203 -0.00113399 -1.21389e-07
-0.00113399 0.0278597 1.14554e-07
-1.21389e-07 1.14554e-07 0.0323513

0.0315003 -0.00306262 1.1335e-07
-0.00306262 0.034458 -1.08457e-07
1.1335e-07 -1.08457e-07 0.034156

0.0292456 -0.00407281 9.05553e-08
-0.00407281 0.0269087 1.89062e-09
9.05553e-08 1.89062e-09 0.0253547

0.0350031 -0.00324473 -1.11226e-07
-0.00324473 0.0299248 5.94404e-08
-1.11226e-07 5.94404e-08 0.0322048

0.0314735 0.00140976 -3.14088e-08
0.00140976 0.0233346 2.04643e-07
-3.14088e-08 2.04643e-07 0.024492

0.0336745 0.00348454 -6.7395e-08
0.00348454 0.0334528 3.13479e-08
-6.7395e-08 3.13479e-08 0.0336594

0.0299036 -0.00496671 1.12894e-07
-0.00496671 0.0330892 -1.09255e-07
1.12894e-07 -1.09255e-07 0.0338669

0.0300541 0.00492 -5.45842e-08
0.00492 0.0329511 -8.26631e-09
-5.45842e-08 -8.26631e-09 0.0338339

0.0276995 -0.00374156 -1.01691e-07
-0.00374156 0.0348173 -1.18624e-07
-1.01691e-07 -1.18624e-07 0.0337765

0.0279372 0.00354689 2.76e-08
0.00354689 0.0348455 -6.00293e-08
2.76e-08 -6.00293e-08 0.0337413

0.0364401 -0.00115367 -1.77757e-08
-0.00115367 0.0263533 -3.5945e-08
-1.77757e-08 -3.5945e-08 0.0337677

0.0362092 0.0012473 3.95562e-08
0.0012473 0.0265746 -4.31325e-08
3.95562e-08 -4.31325e-08 0.0337305

0.0350452 -0.00130713 1.10709e-07
-0.00130713 0.0284776 3.86647e-08
1.10709e-07 3.86647e-08 0.0325856

0.0344451 0.00425819 3.90881e-08
0.00425819 0.0342992 -2.58488e-08
3.90881e-08 -2.58488e-08 0.0348216

0.0343208 -0.00435595 -5.68214e-08
-0.00435595 0.0342908 -4.55059e-08
-5.68214e-08 -4.55059e-08 0.03481

0.030531 0.00209334 -1.28141e-08
0.00209334 0.0381734 -8.69613e-08
-1.28141e-08 -8.69613e-08 0.0348588

0.030674 -0.00205937 2.73726e-08
-0.00205937 0.0381035 1.73571e-08
2.73726e-08 1.73571e-08 0.0348461

0.0395091 -0.000529987 2.80928e-08
-0.000529987 0.0328576 9.93458e-08
2.80928e-08 9.93458e-08 0.0352666

0.0397118 0.000513986 1.06665e-07
0.000513986 0.0326302 -9.61692e-08
1.06665e-07 -9.61692e-08 0.0353118

0.0239729 0.00127649 -3.37476e-08
0.00127649 0.0320145 -2.28152e-07
-3.37476e-08 -2.28152e-07 0.0251928

0.0311722 -0.00326621 -6.23057e-08
-0.00326621 0.0322512 8.69645e-08
-6.23057e-08 8.69645e-08 0.0328116

0.0277915 -0.00478531 1.48392e-08
-0.00478531 0.0333232 1.03664e-07
1.48392e-08 1.03664e-07 0.0334652

0.0333711 -0.000610495 1.70157e-07
-0.000610495 0.0264121 1.03702e-07
1.70157e-07 1.03702e-07 0.0284577

0.0381965 -0.00225112 4.15925e-08
-0.00225112 0.0308042 1.22343e-07
4.15925e-08 1.22343e-07 0.0349019

0.0382444 0.00218311 3.01839e-08
0.00218311 0.0309172 1.79921e-08
3.01839e-08 1.79921e-08 0.034934

0.0360945 1.56099e-05 -4.93884e-08
1.56099e-05 0.0251377 -1.47335e-07
-4.93884e-08 -1.47335e-07 0.0334803

0.0242488 0.00303033 -1.2773e-07
0.00303033 0.0304085 5.53412e-08
-1.2773e-07 5.53412e-08 0.0242853

0.0276858 0.00475595 -1.53557e-07
0.00475595 0.0333236 7.89944e-08
-1.53557e-07 7.89944e-08 0.0334031

0.0286854 -0.00307607 1.28162e-08
-0.00307607 0.0342722 1.57555e-07
1.28162e-08 1.57555e-07 0.0327623

0.0310964 0.00303706 -4.27798e-08
0.00303706 0.025155 -1.69136e-07
-4.27798e-08 -1.69136e-07 0.0254758

0.0372358 0.00316606 1.34507e-07
0.00316606 0.0315496 8.58824e-08
1.34507e-07 8.58824e-08 0.034085

0.0292371 -0.00406913 -1.27627e-07
-0.00406913 0.0269449 6.86328e-08
-1.27627e-07 6.86328e-08 0.0253299

0.0364119 -0.000454178 6.8312e-08
-0.000454178 0.0297012 7.84936e-08
6.8312e-08 7.84936e-08 0.0341406

0.0273563 -0.00449427 -3.41503e-08
-0.00449427 0.0334063 9.50828e-08
-3.41503e-08 9.50828e-08 0.0334519

0.0240457 0.00107931 -6.90469e-08
0.00107931 0.0322558 2.57765e-07
-6.90469e-08 2.57765e-07 0.0255145

0.0242376 0.00282793 2.34287e-07
0.00282793 0.0307123 -1.32725e-07
2.34287e-07 -1.32725e-07 0.0245533

0.0268012 0.00459635 7.09189e-08
0.00459635 0.0240494 -8.64581e-08
7.09189e-08 -8.64581e-08 0.0182197

0.0298614 0.000200002 -4.57173e-08
0.000200002 0.0200943 -2.60803e-07
-4.57173e-08 -2.60803e-07 0.019369

0.031919 -0.00302422 -3.01373e-08
-0.00302422 0.0341723 -4.67103e-08
-3.01373e-08 -4.67103e-08 0.0340452

0.0229259 0.00400136 -2.03246e-07
0.00400136 0.0276691 8.42566e-08
-2.03246e-07 8.42566e-08 0.0176591

0.02922 0.0031018 -8.34838e-08
0.0031018 0.0327746 -3.0873e-08
-8.34838e-08 -3.0873e-08 0.0310221

0.0316061 -0.000694748 -5.29139e-08
-0.000694748 0.0231674 -1.47772e-07
-5.29139e-08 -1.47772e-07 0.0244932

0.0327727 0.00146519 1.504e-08
0.00146519 0.0253551 1.04484e-07
1.504e-08 1.04484e-07 0.0276222

0.0359893 5.62314e-05 -1.30856e-07
5.62314e-05 0.0249707 1.4373e-07
-1.30856e-07 1.4373e-07 0.0333963

0.0279773 -0.0038051 -9.62872e-08
-0.0038051 0.0349593 -1.49564e-07
-9.62872e-08 -1.49564e-07 0.0338258

0.0393186 -0.000843199 1.08397e-07
-0.000843199 0.0416067 1.84283e-08
1.08397e-07 1.84283e-08 0.0361983

0.0298788 0.00493833 7.37553e-08
0.00493833 0.0329673 -1.66065e-09
7.37553e-08 -1.66065e-09 0.033789

0.0302987 0.000214562 1.69427e-07
0.000214562 0.020403 2.51449e-07
1.69427e-07 2.51449e-07 0.017282

0.0266828 -0.00425223 -3.0397e-08
-0.00425223 0.028143 -8.57347e-08
-3.0397e-08 -8.57347e-08 0.0244458

0.0277579 0.00481531 2.08377e-07
0.00481531 0.0333266 -6.31223e-08
2.08377e-07 -6.31223e-08 0.0334654

0.0279541 -0.00145871 7.85392e-08
-0.00145871 0.0350961 -6.83573e-08
7.85392e-08 -6.83573e-08 0.03146

0.0244731 -0.00330672 -1.08645e-07
-0.00330672 0.030026 7.77971e-08
-1.08645e-07 7.77971e-08 0.0242254

0.0280021 0.00377929 -1.77944e-07
0.00377929 0.0349205 8.12549e-09
-1.77944e-07 8.12549e-09 0.0337967

0.0313726 -0.00341103 1.07989e-07
-0.00341103 0.0270177 3.58304e-09
1.07989e-07 3.58304e-09 0.0270004

0.0402847 0.00140904 5.181e-09
0.00140904 0.0406219 -1.22991e-07
5.181e-09 -1.22991e-07 0.0361787

0.02589 0.00400477 -5.88201e-08
0.00400477 0.0289646 -1.33596e-07
-5.88201e-08 -1.33596e-07 0.0245194

0.0366883 0.00110268 -7.9991e-08
0.00110268 0.0263639 1.15039e-07
-7.9991e-08 1.15039e-07 0.0339076

0.0333518 0.00398442 -1.86282e-07
0.00398442 0.0321261 9.86957e-08
-1.86282e-07 9.86957e-08 0.0333253

0.0292385 0.00306802 1.31753e-07
0.00306802 0.0326167 -5.10393e-08
1.31753e-07 -5.10393e-08 0.0321678

0.0343736 -0.00430992 -6.85894e-08
-0.00430992 0.0345144 -1.04297e-07
-6.85894e-08 -1.04297e-07 0.0348941

0.0355 -0.00306433 -1.19869e-07
-0.00306433 0.0305994 -6.8395e-08
-1.19869e-07 -6.8395e-08 0.03276

0.0333737 0.00138699 4.92198e-08
0.00138699 0.0395855 1.89289e-07
4.92198e-08 1.89289e-07 0.0350114

0.0292071 -0.00307986 1.16052e-07
-0.00307986 0.0328844 -3.60648e-07
1.16052e-07 -3.60648e-07 0.0313934

0.0292749 -0.00123278 2.72755e-07
-0.00123278 0.0192927 -1.65227e-07
2.72755e-07 -1.65227e-07 0.0164177

0.0287884 -0.00183311 1.05468e-08
-0.00183311 0.0184192 -7.89442e-08
1.05468e-08 -7.89442e-08 0.0162026

0.0385368 0.00220279 -4.97645e-08
0.00220279 0.0332473 1.39765e-07
-4.97645e-08 1.39765e-07 0.0347719

0.0280659 0.00294655 1.35131e-08
0.00294655 0.0323467 -7.99286e-09
1.35131e-08 -7.99286e-09 0.0295279

0.0320779 0.00383568 1.41301e-07
0.00383568 0.0309707 7.83942e-09
1.41301e-07 7.83942e-09 0.0314643

0.0320617 8.99831e-05 2.84304e-08
8.99831e-05 0.0245851 -5.47475e-08
2.84304e-08 -5.47475e-08 0.0248967

0.0302462 0.0008659 -1.3566e-07
0.0008659 0.03859 -1.2053e-07
-1.3566e-07 -1.2053e-07 0.0341056

0.0354131 0.00219133 -1.06345e-07
0.00219133 0.029333 5.27531e-08
-1.06345e-07 5.27531e-08 0.0328682

0.0248197 -0.00334057 6.88542e-08
-0.00334057 0.0300169 5.56598e-10
6.88542e-08 5.56598e-10 0.0244785

0.0286596 -0.000337594 1.75362e-07
-0.000337594 0.036668 8.01747e-09
1.75362e-07 8.01747e-09 0.0324055

0.0252239 0.00174092 4.84023e-08
0.00174092 0.0320413 -2.25795e-07
4.84023e-08 -2.25795e-07 0.0256929

0.033291 -0.00391072 7.92293e-08
-0.00391072 0.0305063 -5.64511e-08
7.92293e-08 -5.64511e-08 0.0316022

0.0290752 -0.00389786 -1.19636e-07
-0.00389786 0.0282104 8.41858e-08
-1.19636e-07 8.41858e-08 0.0257225

0.0261582 0.0041009 1.20996e-07
0.0041009 0.0285564 6.84626e-08
1.20996e-07 6.84626e-08 0.0243266

0.0452896 -0.00201661 1.05399e-07
-0.00201661 0.0396103 1.35872e-07
1.05399e-07 1.35872e-07 0.0363751

0.0316754 0.000256801 1.53778e-07
0.000256801 0.0393356 2.01972e-07
1.53778e-07 2.01972e-07 0.0347783

0.0306266 0.00265042 1.29427e-08
0.00265042 0.0384505 1.01585e-07
1.29427e-08 1.01585e-07 0.0349669

0.0387737 0.00209417 -9.10103e-08
0.00209417 0.0302318 2.51894e-08
-9.10103e-08 2.51894e-08 0.0349518

0.0313814 -0.00345131 -1.01727e-07
-0.00345131 0.0321509 -7.40089e-09
-1.01727e-07 -7.40089e-09 0.0325827

0.0318293 0.00233708 -1.43418e-07
0.00233708 0.0256291 -2.13031e-08
-1.43418e-07 -2.13031e-08 0.0258886

0.0350003 -0.000707895 1.84402e-07
-0.000707895 0.0415814 -7.34407e-08
1.84402e-07 -7.34407e-08 0.0357362

0.0357988 -0.00251841 -8.96604e-08
-0.00251841 0.0295601 4.09242e-08
-8.96604e-08 4.09242e-08 0.0332679

0.0333091 -0.00204033 -9.4088e-08
-0.00204033 0.0266618 3.91036e-08
-9.4088e-08 3.91036e-08 0.028685

0.025261 0.00151159 -6.88791e-09
0.00151159 0.0322862 2.6018e-07
-6.88791e-09 2.6018e-07 0.025959

0.0268141 -0.00334638 1.10271e-07
-0.00334638 0.0300202 8.56332e-08
1.10271e-07 8.56332e-08 0.0251961

0.0364869 -0.00336058 -8.04279e-09
-0.00336058 0.035295 4.83673e-09
-8.04279e-09 4.83673e-09 0.0347514

0.0284855 0.00415393 -1.30461e-07
0.00415393 0.0277258 1.99894e-07
-1.30461e-07 1.99894e-07 0.0254765

0.0372527 -0.00334535 -6.77461e-09
-0.00334535 0.0333304 1.0212e-07
-6.77461e-09 1.0212e-07 0.0346208

0.0322179 0.000338038 5.79691e-08
0.000338038 0.024871 6.76897e-08
5.79691e-08 6.76897e-08 0.0254464

0.0191667 -0.00369075 9.85568e-08
-0.00369075 0.0275352 1.47699e-07
9.85568e-08 1.47699e-07 0.0163164

0.0292203 -0.00380521 5.39968e-08
-0.00380521 0.0282026 -7.82986e-08
5.39968e-08 -7.82986e-08 0.0258166

0.0230532 0.00412919 -5.90573e-08
0.00412919 0.0280297 2.04609e-07
-5.90573e-08 2.04609e-07 0.0175982

0.0296998 -0.00155904 -4.78395e-09
-0.00155904 0.0375432 -1.16844e-08
-4.78395e-09 -1.16844e-08 0.033658

0.0243682 -0.00179436 -5.12429e-08
-0.00179436 0.0318841 7.89292e-08
-5.12429e-08 7.89292e-08 0.0254566

0.0424412 -0.00323277 -2.79556e-07
-0.00323277 0.0423789 -4.42082e-07
-2.79556e-07 -4.42082e-07 0.0363834

0.0263458 0.00309254 -5.93741e-08
0.00309254 0.0307125 -1.32925e-07
-5.93741e-08 -1.32925e-07 0.0254865

0.0334872 -0.00432373 3.39891e-08
-0.00432373 0.0326688 1.92301e-07
3.39891e-08 1.92301e-07 0.0335759

0.0240886 -0.00155143 -4.15277e-08
-0.00155143 0.0318985 1.62076e-07
-4.15277e-08 1.62076e-07 0.0251854

0.0362326 -0.00253864 8.35223e-08
-0.00253864 0.0295209 7.91095e-08
8.35223e-08 7.91095e-08 0.033529

0.0266827 0.00310614 1.31721e-07
0.00310614 0.0304055 5.12447e-08
1.31721e-07 5.12447e-08 0.0253218

0.034355 -0.000653902 -7.60423e-08
-0.000653902 0.0272863 -6.9224e-08
-7.60423e-08 -6.9224e-08 0.0305874

0.0188958 -0.00387288 1.72755e-07
-0.00387288 0.0298109 -2.44011e-08
1.72755e-07 -2.44011e-08 0.0129655

0.0280088 0.00275561 -1.39839e-08
0.00275561 0.0326399 -2.11201e-07
-1.39839e-08 -2.11201e-07 0.0305833

0.0314487 -0.00251342 -1.42494e-07
-0.00251342 0.0247302 7.84271e-09
-1.42494e-07 7.84271e-09 0.0254144

0.0391258 -0.00286957 3.19712e-07
-0.00286957 0.0322299 -1.71572e-07
3.19712e-07 -1.71572e-07 0.0349456

0.0287629 0.00412572 -8.59007e-08
0.00412572 0.0273092 -1.58443e-07
-8.59007e-08 -1.58443e-07 0.0252639

0.0313717 -0.00392064 4.38467e-08
-0.00392064 0.0285511 1.00233e-07
4.38467e-08 1.00233e-07 0.0287401

0.035418 0.0027644 -1.32995e-07
0.0027644 0.0308645 -1.18924e-07
-1.32995e-07 -1.18924e-07 0.0330484

0.0297832 -0.00370369 -8.26957e-08
-0.00370369 0.0329481 5.28949e-08
-8.26957e-08 5.28949e-08 0.033352

0.0270639 -0.00341177 8.38814e-09
-0.00341177 0.0299927 -4.08955e-09
8.38814e-09 -4.08955e-09 0.0254058

0.0284499 0.00377288 8.91148e-08
0.00377288 0.0289495 -1.29598e-07
8.91148e-08 -1.29598e-07 0.0258957

0.0313821 0.00341465 -8.94294e-08
0.00341465 0.026908 -1.35704e-07
-8.94294e-08 -1.35704e-07 0.0269746

0.036545 -0.00194494 5.00425e-08
-0.00194494 0.0306338 8.04874e-09
5.00425e-08 8.04874e-09 0.0336446

0.0255419 -0.00216427 1.1435e-07
-0.00216427 0.0318127 9.30376e-08
1.1435e-07 9.30376e-08 0.0258621

0.0347103 -0.00231442 -1.08202e-08
-0.00231442 0.0283433 3.04439e-08
-1.08202e-08 3.04439e-08 0.0314651

0.034196 0.00222381 1.21707e-07
0.00222381 0.0274405 -2.20869e-07
1.21707e-07 -2.20869e-07 0.0306129

0.0336515 -0.0012453 -9.23771e-08
-0.0012453 0.0393081 -1.65595e-07
-9.23771e-08 -1.65595e-07 0.0349357

0.0320831 -0.00174746 -1.4501e-07
-0.00174746 0.0253383 3.15201e-09
-1.4501e-07 3.15201e-09 0.0258795

0.0250096 7.98001e-05 -8.16832e-08
7.98001e-05 0.0331624 -1.50523e-07
-8.16832e-08 -1.50523e-07 0.0268696

0.0332579 0.00242952 -5.29327e-08
0.00242952 0.0272022 -4.76768e-09
-5.29327e-08 -4.76768e-09 0.028931

0.0311276 0.00360015 9.20274e-08
0.00360015 0.0273012 1.02868e-07
9.20274e-08 1.02868e-07 0.0271311

0.0253034 -0.00204207 -6.29631e-08
-0.00204207 0.0318752 1.61649e-07
-6.29631e-08 1.61649e-07 0.0256193

0.025209 -0.000154744 5.9123e-08
-0.000154744 0.0333029 6.12003e-08
5.9123e-08 6.12003e-08 0.0271525

0.0354222 0.0038583 -1.14947e-07
0.0038583 0.0330034 1.44846e-07
-1.14947e-07 1.44846e-07 0.033904

0.0275946 -0.00143149 -2.83042e-08
-0.00143149 0.0353519 -6.06589e-08
-2.83042e-08 -6.06589e-08 0.0314511

0.0312442 -0.00348537 -1.58229e-07
-0.00348537 0.0269862 6.75921e-08
-1.58229e-07 6.75921e-08 0.0270183

0.0313073 0.00277376 4.75961e-09
0.00277376 0.0249299 2.57834e-08
4.75961e-09 2.57834e-08 0.0252542

0.0345925 0.00311895 1.20641e-07
0.00311895 0.0293952 -2.23342e-07
1.20641e-07 -2.23342e-07 0.0318048

0.0279999 0.000716953 1.87666e-07
0.000716953 0.0360497 8.09114e-08
1.87666e-07 8.09114e-08 0.0318271

0.0287256 0.00378305 -2.25101e-07
0.00378305 0.0285684 7.57123e-08
-2.25101e-07 7.57123e-08 0.0257361

0.0367981 0.00305787 8.29823e-08
0.00305787 0.0361318 -9.43353e-08
8.29823e-08 -9.43353e-08 0.0349153

0.0226866 -0.0075478 2.92042e-07
-0.0075478 0.0186926 3.76407e-08
2.92042e-07 3.76407e-08 0.0108485

0.0333008 -0.00328856 -2.29931e-08
-0.00328856 0.0286412 9.49198e-08
-2.29931e-08 9.49198e-08 0.0301329

0.0207327 0.000913615 1.88619e-07
0.000913615 0.030041 1.31041e-07
1.88619e-07 1.31041e-07 0.0183523

0.03131 -0.00378298 7.06101e-08
-0.00378298 0.0292407 1.48097e-07
7.06101e-08 1.48097e-07 0.0290403

0.00153991 -0.00652026 -5.08391e-08
-0.00652026 0.0275746 2.22741e-07
-5.08391e-08 2.22741e-07 0.00290923

0.0014703 0.00636981 1.49243e-08
0.00636981 0.0275926 6.53874e-08
1.49243e-08 6.53874e-08 0.00300219

0.0119873 0.0145083 -6.71879e-08
0.0145083 0.0175365 -8.4251e-08
-6.71879e-08 -8.4251e-08 0.00277204

0.0121687 -0.0144989 -1.15678e-07
-0.0144989 0.0172279 1.45056e-07
-1.15678e-07 1.45056e-07 0.00280466

0.0293475 -0.000164138 1.071e-08
-0.000164138 0 0
1.071e-08 0 0.00295354

0.0235977 -0.0112852 1.29728e-07
-0.0112852 0.00539671 -6.24735e-08
1.29728e-07 -6.24735e-08 0.00297924

0.0236398 0.0113515 4.59201e-08
0.0113515 0.00545082 2.2114e-08
4.59201e-08 2.2114e-08 0.00304041

0.03692 0.00191227 1.0804e-07
0.00191227 0.0302509 -4.97456e-08
1.0804e-07 -4.97456e-08 0.0338866

0.0387118 0.00340955 2.05295e-08
0.00340955 0.0366232 2.50975e-07
2.05295e-08 2.50975e-07 0.0355865

0.0344264 0.000872566 1.94641e-07
0.000872566 0.0274658 -5.05774e-08
1.94641e-07 -5.05774e-08 0.0316972

0.0328835 0.00285129 1.93289e-08
0.00285129 0.0268979 -1.34957e-07
1.93289e-08 -1.34957e-07 0.0286552

0.0257089 0.00231425 1.34395e-07
0.00231425 0.0323779 -5.26315e-08
1.34395e-07 -5.26315e-08 0.0276444

0.0307227 0.00377032 2.15216e-08
0.00377032 0.0276853 2.0729e-07
2.15216e-08 2.0729e-07 0.0271263

0.033315 -0.00390422 2.02327e-07
-0.00390422 0.0304753 1.20796e-07
2.02327e-07 1.20796e-07 0.0316391

0.0309838 0.00365595 -7.64622e-08
0.00365595 0.0272958 -1.58563e-07
-7.64622e-08 -1.58563e-07 0.0269338

0.0249951 -0.000371619 -2.10444e-07
-0.000371619 0.0331334 -1.5465e-07
-2.10444e-07 -1.5465e-07 0.0268518

0.0385547 -0.00348423 -1.05649e-07
-0.00348423 0.0368867 -8.24131e-08
-1.05649e-07 -8.24131e-08 0.0355921

0.0251836 -0.000635867 -6.52766e-08
-0.000635867 0.0332215 5.06454e-08
-6.52766e-08 5.06454e-08 0.0271114

0.0360266 0.00304815 -3.39157e-10
0.00304815 0.03302 -1.61231e-07
-3.39157e-10 -1.61231e-07 0.0341068

0.0296331 0.00347724 -1.73382e-08
0.00347724 0.0248542 2.70036e-08
-1.73382e-08 2.70036e-08 0.0230304

0.030506 -0.00171384 6.43252e-08
-0.00171384 0.0375208 1.26043e-07
6.43252e-08 1.26043e-07 0.0347454

0.0339311 0.00180515 -1.61656e-07
0.00180515 0.0271903 -5.79694e-09
-1.61656e-07 -5.79694e-09 0.0303298

0.0312113 -0.00392171 -8.33399e-08
-0.00392171 0.0285403 -5.81511e-08
-8.33399e-08 -5.81511e-08 0.0286236

0.0315945 -0.00322263 -1.67586e-07
-0.00322263 0.0267003 4.96024e-08
-1.67586e-07 4.96024e-08 0.0270565

0.038487 -0.00214214 -1.04291e-07
-0.00214214 0.0334252 -8.40508e-08
-1.04291e-07 -8.40508e-08 0.0347536

0.0326919 0.00366499 -1.25699e-07
0.00366499 0.0292412 1.45413e-07
-1.25699e-07 1.45413e-07 0.0301643

0.0326557 0.00313867 -1.51304e-07
0.00313867 0.0272611 9.31411e-08
-1.51304e-07 9.31411e-08 0.0287971

0.0269637 -0.00036529 -1.51663e-07
-0.00036529 0.0349983 -9.2399e-08
-1.51663e-07 -9.2399e-08 0.0301773

0.025908 0.000765875 -6.98013e-08
0.000765875 0.0340148 -2.17787e-07
-6.98013e-08 -2.17787e-07 0.0288322

0.03279 0.00034555 1.84967e-07
0.00034555 0.0248698 7.5534e-08
1.84967e-07 7.5534e-08 0.0274528

0.0313983 -0.000945286 -2.35895e-08
-0.000945286 0.023011 -1.4888e-07
-2.35895e-08 -1.4888e-07 0.0239001

0.0308909 0.00398651 1.34775e-07
0.00398651 0.0288153 2.27723e-07
1.34775e-07 2.27723e-07 0.0286333

0.0331282 -0.00343261 1.46309e-07
-0.00343261 0.0285498 -5.59406e-08
1.46309e-07 -5.59406e-08 0.0299787

0.0364218 -0.00282402 -2.46978e-08
-0.00282402 0.0327411 -1.58821e-08
-2.46978e-08 -1.58821e-08 0.0341531

0.0292162 -0.0041292 -8.68024e-08
-0.0041292 0.0292023 1.36835e-07
-8.68024e-08 1.36835e-07 0.0277629

0.026981 -0.003622 9.37602e-08
-0.003622 0.0304753 1.13743e-07
9.37602e-08 1.13743e-07 0.0272224

0.0283356 0.0039013 5.29113e-08
0.0039013 0.0299112 -2.02079e-07
5.29113e-08 -2.02079e-07 0.0277611

0.0259097 -0.00124936 -2.3975e-07
-0.00124936 0.0336254 -1.09164e-07
-2.3975e-07 -1.09164e-07 0.0285251

0.0266632 -0.000202425 -1.33407e-07
-0.000202425 0.0349241 8.74255e-08
-1.33407e-07 8.74255e-08 0.0299292

0.027771 0.000752764 -7.10547e-08
0.000752764 0.0360492 8.28573e-08
-7.10547e-08 8.28573e-08 0.0316676

0.0262558 -0.00275076 1.35122e-07
-0.00275076 0.0319743 6.25286e-08
1.35122e-07 6.25286e-08 0.0277197

0.0345928 0.00317644 -7.67836e-08
0.00317644 0.0291775 1.48488e-07
-7.67836e-08 1.48488e-07 0.0316438

0.0339208 -0.00126148 -2.70247e-08
-0.00126148 0.0269391 5.21011e-08
-2.70247e-08 5.21011e-08 0.0302112

0.0257987 0.000974451 1.10337e-07
0.000974451 0.0338407 1.92486e-07
1.10337e-07 1.92486e-07 0.0285511

0.0278328 -0.00127027 -3.74599e-08
-0.00127027 0.0354078 -6.25237e-08
-3.74599e-08 -6.25237e-08 0.0313754

0.027302 -0.0021378 -7.86687e-09
-0.0021378 0.0336682 -1.68596e-08
-7.86687e-09 -1.68596e-08 0.0302352

0.0327885 -0.0010776 8.64852e-08
-0.0010776 0.0253283 -1.27468e-07
8.64852e-08 -1.27468e-07 0.0272633

0.0333251 -0.00427123 -4.22325e-08
-0.00427123 0.0323903 -1.85956e-08
-4.22325e-08 -1.85956e-08 0.0335386

0.0264975 0.00122051 -1.46027e-08
0.00122051 0.0338468 1.90963e-07
-1.46027e-08 1.90963e-07 0.0288253

0.039817 -0.00243211 3.1709e-07
-0.00243211 0.0352257 -6.58954e-09
3.1709e-07 -6.58954e-09 0.0354695

0.0188942 0.00316594 1.37045e-07
0.00316594 0.0278851 2.22828e-07
1.37045e-07 2.22828e-07 0.0162782

0.0338254 -0.00352351 -2.66189e-08
-0.00352351 0.0335031 6.28536e-09
-2.66189e-08 6.28536e-09 0.0337354

0.0353534 -0.00399956 -1.06828e-07
-0.00399956 0.0330547 -8.42725e-08
-1.06828e-07 -8.42725e-08 0.033913

0.0266944 -9.05236e-05 1.7065e-07
-9.05236e-05 0.0349292 9.44001e-08
1.7065e-07 9.44001e-08 0.0299373

0.0332545 -0.00217702 1.85428e-07
-0.00217702 0.0271619 -1.20402e-07
1.85428e-07 -1.20402e-07 0.028912

0.0293564 0.00168469 1.23708e-07
0.00168469 0.03583 -1.73163e-08
1.23708e-07 -1.73163e-08 0.0328891

0.0132107 -0.000379354 -6.41647e-08
-0.000379354 0.0283708 3.76167e-08
-6.41647e-08 3.76167e-08 0.0111554

0.0271225 0.00186932 -7.40855e-08
0.00186932 0.0340729 7.91986e-08
-7.40855e-08 7.91986e-08 0.0303157

0.0311192 -0.00385987 -1.3826e-07
-0.00385987 0.0291641 -1.68859e-07
-1.3826e-07 -1.68859e-07 0.0288156

0.018625 0.0032057 -1.00187e-08
0.0032057 0.0301489 -1.8201e-07
-1.00187e-08 -1.8201e-07 0.0131311

0.0426042 0.0035167 -4.37529e-07
0.0035167 0.0418518 -1.67534e-07
-4.37529e-07 -1.67534e-07 0.0364881

0.0432082 -0.00374701 -7.87596e-08
-0.00374701 0.0414205 2.97766e-07
-7.87596e-08 2.97766e-07 0.0364706

0.0310753 -0.00399209 8.64773e-08
-0.00399209 0.0304808 1.23465e-07
8.64773e-08 1.23465e-07 0.0304704

0.0289317 -0.00406573 3.19286e-08
-0.00406573 0.0291605 -1.6711e-07
3.19286e-08 -1.6711e-07 0.0276033

0.0330622 0.00272776 4.91659e-08
0.00272776 0.0275374 -2.26881e-07
4.91659e-08 -2.26881e-07 0.0290846

0.032791 0.00196093 1.62848e-07
0.00196093 0.0255995 -9.82461e-09
1.62848e-07 -9.82461e-09 0.0278317

0.0464016 0.000417527 -2.71885e-07
0.000417527 0.046357 1.28296e-07
-2.71885e-07 1.28296e-07 0.0367022

0.0469203 -0.000951252 -1.60796e-08
-0.000951252 0.0457697 4.79375e-07
-1.60796e-08 4.79375e-07 0.0367733

0.0348108 0.00063826 7.66247e-08
0.00063826 0.0275827 5.20525e-08
7.66247e-08 5.20525e-08 0.0322262

0.0277608 0.000883024 -5.67803e-08
0.000883024 0.0355816 4.97194e-08
-5.67803e-08 4.97194e-08 0.031358

0.0276161 0.00088284 1.47867e-07
0.00088284 0.0355817 5.55604e-08
1.47867e-07 5.55604e-08 0.0312541

0.0234656 0.0074025 -8.71578e-08
0.0074025 0.0183071 6.27362e-08
-8.71578e-08 6.27362e-08 0.010905

0.027256 -0.0036772 -8.22221e-08
-0.0036772 0.0303574 1.30639e-07
-8.22221e-08 1.30639e-07 0.0273283

0.0365771 0.00239159 8.15863e-08
0.00239159 0.0295857 -1.5904e-08
8.15863e-08 -1.5904e-08 0.0337936

0.0332855 0.00124788 1.51062e-07
0.00124788 0.0265127 1.30252e-08
1.51062e-07 1.30252e-08 0.0284408

0.0291622 -0.00349382 1.90032e-07
-0.00349382 0.0304815 1.2185e-07
1.90032e-07 1.2185e-07 0.0281823

0.0328217 -0.00264875 3.05573e-07
-0.00264875 0.0267366 6.51611e-08
3.05573e-07 6.51611e-08 0.0285957

0.0224666 0.00761546 9.81549e-08
0.00761546 0.0185954 2.06029e-07
9.81549e-08 2.06029e-07 0.0109075

0.0331542 0.00410302 -8.56811e-08
0.00410302 0.0326471 -1.35811e-07
-8.56811e-08 -1.35811e-07 0.0331907

0.0258985 -0.00257947 6.6146e-08
-0.00257947 0.0320353 -5.02819e-08
6.6146e-08 -5.02819e-08 0.0275163

0.0324924 0.00378699 7.23199e-08
0.00378699 0.0292776 -1.23386e-07
7.23199e-08 -1.23386e-07 0.030156

0.0268246 -0.000543993 7.88088e-08
-0.000543993 0.0349632 -6.88387e-08
7.88088e-08 -6.88387e-08 0.030147

0.0269987 0.0025645 7.89799e-08
0.0025645 0.0324592 4.71062e-08
7.89799e-08 4.71062e-08 0.0282954

0.0305362 0.00399249 -1.53416e-07
0.00399249 0.0293327 -1.44214e-07
-1.53416e-07 -1.44214e-07 0.028784

0.0276178 -0.00293831 -1.37701e-07
-0.00293831 0.0318649 1.4149e-08
-1.37701e-07 1.4149e-08 0.028258

0.0294656 -0.0035773 -9.07545e-08
-0.0035773 0.0303611 1.30216e-07
-9.07545e-08 1.30216e-07 0.0283139

0.0181426 0.00142597 -3.83125e-07
0.00142597 0.0280448 -2.21645e-07
-3.83125e-07 -2.21645e-07 0.0131318

0.0234809 -0.00429575 -9.30629e-08
-0.00429575 0.0275649 1.53105e-07
-9.30629e-08 1.53105e-07 0.0177291

0.0262138 -0.00152657 5.44422e-08
-0.00152657 0.0336349 -1.23382e-07
5.44422e-08 -1.23382e-07 0.0287607

0.0330336 0.00347593 6.67629e-08
0.00347593 0.0288868 2.33849e-07
6.67629e-08 2.33849e-07 0.0300779

0.0303313 0.00385891 -9.33243e-08
0.00385891 0.0298964 -2.12193e-07
-9.33243e-08 -2.12193e-07 0.0289993

0.0274232 -0.00280178 5.89943e-09
-0.00280178 0.031995 -5.46898e-08
5.89943e-09 -5.46898e-08 0.028148

0.0265632 -0.00154155 4.24411e-08
-0.00154155 0.0335938 -9.47497e-08
4.24411e-08 -9.47497e-08 0.0287553

0.0309662 0.00371965 2.048e-07
0.00371965 0.0295732 9.03767e-08
2.048e-07 9.03767e-08 0.0289501

0.0267679 -0.00181697 5.93304e-08
-0.00181697 0.0334852 -1.22361e-07
5.93304e-08 -1.22361e-07 0.0289632

0.0191713 0.00355607 3.10906e-07
0.00355607 0.0276165 1.42072e-07
3.10906e-07 1.42072e-07 0.0162974

0.0308812 -0.000534491 -8.1614e-08
-0.000534491 0.0388277 1.78609e-08
-8.1614e-08 1.78609e-08 0.0343029

0.0286656 0.0040496 -1.87583e-07
0.0040496 0.0295282 1.34104e-07
-1.87583e-07 1.34104e-07 0.0277233

0.0355898 0.00197586 3.60657e-08
0.00197586 0.0295117 -2.19147e-07
3.60657e-08 -2.19147e-07 0.0328517

0.036268 -0.00211537 -5.66002e-08
-0.00211537 0.029764 8.75239e-08
-5.66002e-08 8.75239e-08 0.0332268

0.0285197 -0.00309701 2.27003e-07
-0.00309701 0.018574 -3.80957e-07
2.27003e-07 -3.80957e-07 0.0157349

0.028363 -0.00279097 -2.23546e-07
-0.00279097 0.0327857 -2.39763e-07
-2.23546e-07 -2.39763e-07 0.0305809

0.0292008 0.00350178 -7.79978e-08
0.00350178 0.0316101 1.65093e-07
-7.79978e-08 1.65093e-07 0.0304967

0.0349674 -0.00290769 1.56111e-08
-0.00290769 0.0376818 5.30999e-08
1.56111e-08 5.30999e-08 0.0352443

0.0394638 0.00188388 -1.99862e-08
0.00188388 0.0446106 1.68773e-07
-1.99862e-08 1.68773e-07 0.0364404

0.0449453 0.00129031 -1.79552e-07
0.00129031 0.0391204 1.83598e-07
-1.79552e-07 1.83598e-07 0.0364223

0.0355685 0.00434507 -1.43201e-08
0.00434507 0.0351422 -1.71507e-07
-1.43201e-08 -1.71507e-07 0.0350117

0.0265802 0.00338931 6.2879e-08
0.00338931 0.0310166 8.92564e-08
6.2879e-08 8.92564e-08 0.0272645

0.0330495 0.00349792 1.32964e-07
0.00349792 0.0286757 6.73978e-08
1.32964e-07 6.73978e-08 0.030059

0.0220663 0.00576665 -2.1973e-08
0.00576665 0.024245 -1.99952e-07
-2.1973e-08 -1.99952e-07 0.0160775

0.0386223 -0.00151126 -3.91616e-07
-0.00151126 0.0444339 7.30614e-08
-3.91616e-07 7.30614e-08 0.0363696

0.0460478 -0.000463297 6.90034e-07
-0.000463297 0.0454395 -1.08774e-07
6.90034e-07 -1.08774e-07 0.0366983

0.0451812 -3.1292e-05 -1.5474e-07
-3.1292e-05 0.0463009 2.0203e-08
-1.5474e-07 2.0203e-08 0.0366803

0.0176454 -0.00679726 9.55834e-08
-0.00679726 0.0231149 -1.77941e-07
9.55834e-08 -1.77941e-07 0.0107419

0.0392983 -0.00155553 -2.09798e-07
-0.00155553 0.0387192 3.78588e-07
-2.09798e-07 3.78588e-07 0.0358614

0.0384009 0.00117606 2.32759e-07
0.00117606 0.0415224 -1.92185e-08
2.32759e-07 -1.92185e-08 0.0361326

0.0331852 -0.00343645 2.39217e-07
-0.00343645 0.0282283 1.58505e-07
2.39217e-07 1.58505e-07 0.0299125

0.0318519 0.000140113 1.33478e-08
0.000140113 0.0386805 8.21145e-09
1.33478e-08 8.21145e-09 0.0344589

0.0285862 -0.00266088 -1.71642e-08
-0.00266088 0.0333911 1.04199e-07
-1.71642e-08 1.04199e-07 0.0315987

0.0356724 0.000831725 6.02684e-09
0.000831725 0.0273876 -9.48844e-10
6.02684e-09 -9.48844e-10 0.0330095

0.0288854 0.00204456 -4.69787e-08
0.00204456 0.0368261 1.21898e-08
-4.69787e-08 1.21898e-08 0.0336787

0.0298773 0.000946232 3.15004e-08
0.000946232 0.0373976 -2.46883e-07
3.15004e-08 -2.46883e-07 0.0333723

0.0344121 0.00268575 2.64634e-08
0.00268575 0.0288603 8.10426e-08
2.64634e-08 8.10426e-08 0.0312353

0.0132823 -0.000409431 -1.86552e-07
-0.000409431 0.0281314 -2.51122e-07
-1.86552e-07 -2.51122e-07 0.0112049

0.0309743 -0.00362702 -1.32908e-08
-0.00362702 0.0309256 6.38914e-08
-1.32908e-08 6.38914e-08 0.0306187

0.0329376 -0.00344424 2.02242e-07
-0.00344424 0.0320301 1.21858e-07
2.02242e-07 1.21858e-07 0.0325883

0.0335808 -0.00415937 2.57525e-09
-0.00415937 0.0325443 7.11392e-08
2.57525e-09 7.11392e-08 0.0337447

0.0265699 0.00415021 -1.11577e-07
0.00415021 0.0176962 1.80574e-07
-1.11577e-07 1.80574e-07 0.0126092

0.0388337 -0.00269586 2.38556e-07
-0.00269586 0.0395799 1.39215e-07
2.38556e-07 1.39215e-07 0.0359661

0.0230892 0.00692301 -1.16212e-08
0.00692301 0.0255093 -1.85558e-07
-1.16212e-08 -1.85558e-07 0.0126135

0.0308839 -0.0028171 -1.70905e-07
-0.0028171 0.0348173 -1.18645e-07
-1.70905e-07 -1.18645e-07 0.0339653

0.0354226 0.00193648 1.80537e-07
0.00193648 0.0284749 -7.08818e-08
1.80537e-07 -7.08818e-08 0.0323539

0.0318321 -0.00189412 -1.9604e-08
-0.00189412 0.0249586 -1.55702e-07
-1.9604e-08 -1.55702e-07 0.0254037

0.0293023 0.00315983 4.69586e-08
0.00315983 0.0327421 -2.00618e-07
4.69586e-08 -2.00618e-07 0.031289

0.0344474 0.0026895 -1.9131e-08
0.0026895 0.0286435 1.89262e-07
-1.9131e-08 1.89262e-07 0.03123

0.0325259 0.00149857 7.29207e-08
0.00149857 0.0403801 -4.83456e-09
7.29207e-08 -4.83456e-09 0.0353447

0.0319502 -0.00415524 -1.48941e-07
-0.00415524 0.0312113 1.35511e-07
-1.48941e-07 1.35511e-07 0.0318199

0.0396831 0.00265535 -2.4415e-07
0.00265535 0.0332057 -1.77651e-07
-2.4415e-07 -1.77651e-07 0.0353241

0.0279809 -0.00241925 8.30182e-08
-0.00241925 0.0335619 -2.4518e-09
8.30182e-08 -2.4518e-09 0.0304799

0.0293595 0.000558909 9.6468e-08
0.000558909 0.0373214 -2.3998e-07
9.6468e-08 -2.3998e-07 0.0332616

0.0419477 0.00133796 -1.19411e-07
0.00133796 0.0371056 2.6923e-07
-1.19411e-07 2.6923e-07 0.0361239

0.0421011 -0.00114849 2.63379e-07
-0.00114849 0.037332 -4.42723e-08
2.63379e-07 -4.42723e-08 0.0361059

0.0283925 0.00236999 2.53836e-07
0.00236999 0.0181865 1.26632e-07
2.53836e-07 1.26632e-07 0.015955

0.0350365 0.00106145 4.09986e-08
0.00106145 0.0285753 -6.30182e-08
4.09986e-08 -6.30182e-08 0.0330683

0.01287 0.00092376 -2.26537e-07
0.00092376 0.0316342 6.05779e-08
-2.26537e-07 6.05779e-08 0.00612367

0.0131657 -0.00138858 -6.17805e-08
-0.00138858 0.0321401 1.33876e-07
-6.17805e-08 1.33876e-07 0.00611395

0.0152724 0.00715596 -9.97146e-08
0.00715596 0.0284601 2.9728e-08
-9.97146e-08 2.9728e-08 0.00598604

0.0347732 -0.00382187 -5.63453e-08
-0.00382187 0.031277 6.21832e-08
-5.63453e-08 6.21832e-08 0.0329482

0.015585 -0.00619652 3.30378e-07
-0.00619652 0.0261605 1.95789e-07
3.30378e-07 1.95789e-07 0.0104753

0.0155165 -0.00708857 -1.26198e-07
-0.00708857 0.0274304 1.0918e-07
-1.26198e-07 1.0918e-07 0.0059158

0.0284356 0.00342704 -1.60632e-07
0.00342704 0.0310169 8.848e-08
-1.60632e-07 8.848e-08 0.0281618

0.0251997 0.00932818 -1.48854e-07
0.00932818 0.0190253 -6.908e-08
-1.48854e-07 -6.908e-08 0.0059357

0.0365439 0.00173142 1.68862e-07
0.00173142 0.038559 6.55484e-08
1.68862e-07 6.55484e-08 0.0354834

0.0395417 2.62938e-05 4.50972e-09
2.62938e-05 0.0355462 -2.87079e-07
4.50972e-09 -2.87079e-07 0.035464

0.0261138 -0.00924665 1.24415e-07
-0.00924665 0.018817 1.95898e-07
1.24415e-07 1.95898e-07 0.00588986

0.027699 -0.00306633 3.32194e-08
-0.00306633 0.0321059 -1.00624e-07
3.32194e-08 -1.00624e-07 0.0296322

0.0262631 0.0044197 -8.03217e-08
0.0044197 0.0201638 6.02121e-08
-8.03217e-08 6.02121e-08 0.0130488

0.0172836 0.00797513 1.31108e-07
0.00797513 0.0271556 9.99943e-08
1.31108e-07 9.99943e-08 0.00598972

0.0182012 0.00275623 4.44117e-08
0.00275623 0.0275982 -2.93075e-07
4.44117e-08 -2.93075e-07 0.0128543

0.0173086 -0.00827842 3.77131e-07
-0.00827842 0.0271589 9.13268e-08
3.77131e-07 9.13268e-08 0.00581561

0.0179378 -0.00157148 -9.75993e-08
-0.00157148 0.0280142 -3.00149e-07
-9.75993e-08 -3.00149e-07 0.0126946

0.0370554 0.000922116 -3.44101e-07
0.000922116 0.041306 -3.09513e-08
-3.44101e-07 -3.09513e-08 0.0358179

0.0221379 -0.00585755 -1.07705e-07
-0.00585755 0.023672 1.36133e-07
-1.07705e-07 1.36133e-07 0.0151638

0.0157043 0.00598832 -1.84044e-09
0.00598832 0.0259099 -1.86573e-07
-1.84044e-09 -1.86573e-07 0.0107536

0.030216 0.00473136 -9.67646e-08
0.00473136 0.0143529 -1.8621e-07
-9.67646e-08 -1.8621e-07 0.00611777

0.0329483 -0.00385054 -1.7568e-08
-0.00385054 0.0301336 -2.26742e-07
-1.7568e-08 -2.26742e-07 0.0310605

0.0308968 0.00169386 2.41033e-07
0.00169386 0.0368526 -2.34218e-10
2.41033e-07 -2.34218e-10 0.0339591

0.026098 -0.00484568 -2.01431e-07
-0.00484568 0.0192026 5.81237e-08
-2.01431e-07 5.81237e-08 0.0126991

0.0330106 -0.00378703 9.2745e-08
-0.00378703 0.0300843 3.48286e-08
9.2745e-08 3.48286e-08 0.0311368

0.0300263 -0.00452114 3.99852e-08
-0.00452114 0.0130567 -5.06493e-08
3.99852e-08 -5.06493e-08 0.0060392

0.0324831 -0.00372846 -1.83535e-07
-0.00372846 0.0313166 8.48214e-08
-1.83535e-07 8.48214e-08 0.0319886

0.0281004 -0.00331243 -1.38283e-07
-0.00331243 0.0320147 1.46961e-08
-1.38283e-07 1.46961e-08 0.0296347

0.0234493 0.0087458 5.11108e-08
0.0087458 0.020488 1.73792e-07
5.11108e-08 1.73792e-07 0.00602806

0.0182046 -0.00292194 1.68175e-07
-0.00292194 0.0268746 -1.92226e-07
1.68175e-07 -1.92226e-07 0.0122739

0.0233203 -0.00902155 1.34281e-07
-0.00902155 0.020157 -1.42473e-07
1.34281e-07 -1.42473e-07 0.00588582

0.017087 0.00641052 -1.15241e-07
0.00641052 0.023573 1.05922e-08
-1.15241e-07 1.05922e-08 0.0108345

0.0308359 -0.00396138 -1.06636e-07
-0.00396138 0.0301698 -2.18643e-07
-1.06636e-07 -2.18643e-07 0.0300947

0.0389252 -0.00195905 3.06063e-07
-0.00195905 0.0369464 -1.71479e-08
3.06063e-07 -1.71479e-08 0.0355076

0.0455411 0.00150617 -1.70472e-07
0.00150617 0.0449552 -3.255e-07
-1.70472e-07 -3.255e-07 0.0366265

0.0435671 -0.000711725 1.49069e-07
-0.000711725 0.0462316 1.10859e-08
1.49069e-07 1.10859e-08 0.0365922

0.0286242 0.00171605 -5.66432e-08
0.00171605 0.035576 5.01404e-08
-5.66432e-08 5.01404e-08 0.0323989

0.0453364 -0.0014472 -4.04636e-07
-0.0014472 0.044983 3.18992e-07
-4.04636e-07 3.18992e-07 0.0366443

0.0438096 0.000568052 9.50822e-08
0.000568052 0.0465063 9.97627e-08
9.50822e-08 9.97627e-08 0.0366254

0.046679 0.00099014 7.57625e-08
0.00099014 0.0433787 -3.97252e-07
7.57625e-08 -3.97252e-07 0.0366004

0.039754 -0.00163805 1.8755e-07
-0.00163805 0.0460755 1.19337e-07
1.8755e-07 1.19337e-07 0.0364903

0.0190592 -0.00388906 5.24465e-08
-0.00388906 0.0272396 4.61449e-08
5.24465e-08 4.61449e-08 0.0154761

0.0421453 -0.00175001 -5.09961e-07
-0.00175001 0.036731 1.47497e-07
-5.09961e-07 1.47497e-07 0.0360126

0.0359716 -0.00457258 -8.32066e-09
-0.00457258 0.0351577 1.47654e-07
-8.32066e-09 1.47654e-07 0.0349765

0.039759 -0.00242177 6.54364e-09
-0.00242177 0.0360707 1.51938e-07
6.54364e-09 1.51938e-07 0.0355753

0.0351944 0.00204411 -2.92468e-08
0.00204411 0.0285581 1.88798e-07
-2.92468e-08 1.88798e-07 0.0322411

0.039696 0.00133716 7.64654e-08
0.00133716 0.047226 -3.03771e-07
7.64654e-08 -3.03771e-07 0.0365561

0.0464963 0.00259231 3.28043e-09
0.00259231 0.0404218 -1.23892e-07
3.28043e-09 -1.23892e-07 0.0365373

0.0400925 0.00150642 2.06559e-07
0.00150642 0.0366805 -2.59032e-07
2.06559e-07 -2.59032e-07 0.0356233

0.0279227 -0.00192067 -2.35119e-07
-0.00192067 0.0125277 -2.16186e-08
-2.35119e-07 -2.16186e-08 0.0106279

0.0283284 0.00326903 -1.49125e-07
0.00326903 0.0315607 1.37337e-07
-1.49125e-07 1.37337e-07 0.0294199

0.0231944 -0.00773856 -1.33044e-07
-0.00773856 0.0181849 7.12282e-08
-1.33044e-07 7.12282e-08 0.0102927

0.022837 -0.00731799 -1.13657e-07
-0.00731799 0.0257761 1.41526e-07
-1.13657e-07 1.41526e-07 0.0119583

0.029031 -0.00464855 -1.30409e-07
-0.00464855 0.0191336 -3.13445e-07
-1.30409e-07 -3.13445e-07 0.0126191

0.0375799 -0.000660825 -6.06536e-09
-0.000660825 0.0449154 2.62717e-07
-6.06536e-09 2.62717e-07 0.0363015

0.0375776 0.0003584 -4.73331e-08
0.0003584 0.0447925 -3.05365e-07
-4.73331e-08 -3.05365e-07 0.0362817

0.0426085 -0.00327334 1.71605e-07
-0.00327334 0.0394555 7.74722e-08
1.71605e-07 7.74722e-08 0.0362356

0.0430008 -0.0029431 4.78719e-07
-0.0029431 0.0391733 2.88226e-08
4.78719e-07 2.88226e-08 0.0362426

0.0425044 0.00350276 7.62141e-08
0.00350276 0.039977 1.46415e-07
7.62141e-08 1.46415e-07 0.0362803

0.0443996 0.000415949 -1.3583e-07
0.000415949 0.0450808 3.01124e-08
-1.3583e-07 3.01124e-08 0.0366434

0.0426118 -0.00274348 -8.61942e-08
-0.00274348 0.039512 1.13258e-07
-8.61942e-08 1.13258e-07 0.0362971

0.0426057 -0.0025111 -6.77638e-08
-0.0025111 0.0442692 2.42331e-07
-6.77638e-08 2.42331e-07 0.036571

0.0451193 0.000330627 1.94832e-07
0.000330627 0.045468 6.27211e-07
1.94832e-07 6.27211e-07 0.0366617

0.0436398 -0.00278176 -1.21424e-07
-0.00278176 0.0389213 -3.24283e-08
-1.21424e-07 -3.24283e-08 0.0363377

0.0435156 0.00283752 -2.59991e-08
0.00283752 0.0390741 -1.08098e-07
-2.59991e-08 -1.08098e-07 0.0363758

0.0451954 -0.000469587 -5.38728e-08
-0.000469587 0.0455822 -5.4362e-08
-5.38728e-08 -5.4362e-08 0.0367103

0.0452264 -0.000423153 2.50887e-07
-0.000423153 0.0443625 -5.32828e-07
2.50887e-07 -5.32828e-07 0.0367287

0.042802 0.00163803 -4.84781e-07
0.00163803 0.0442505 6.97818e-07
-4.84781e-07 6.97818e-07 0.0366148

0.0411205 0.00361719 1.18721e-07
0.00361719 0.0405202 -3.78833e-07
1.18721e-07 -3.78833e-07 0.0363296

SCALARS pressure float
LOOKUP_TABLE default
-60.0793
19.3133
5.81185
21.2941
15.8799
5.89591
-58.702
7.79017
-3.79799
15.1294
-24.4455
7.62434
5.59888
12.2856
23.3349
5.54586
18.5247
13.2154
-0.684151
6.76622
-0.897586
33.11
5.8103
5.80586
6.6113
14.9103
-38.4005
6.68086
-15.241
30.6092
5.18324
-15.6559
-42.0735
27.3165
20.7711
27.3494
31.867
19.8017
4.86662
-42.6171
-17.407
31.8877
31.9758
6.0002
-21.8106
-15.9745
-1.04418
-3.39883
6.55382
-16.2178
-18.9195
-15.3433
20.7534
-15.3708
20.307
-33.1584
21.1212
-15.4579
21.1311
7.0543
21.7684
16.1202
-45.5772
12.7925
16.3633
10.9107
21.5778
13.8357
5.78264
21.8216
20.8094
20.78
-17.6908
11.6058
3.98113
-31.6235
14.3575
11.0018
14.1539
-8.71443
-28.9508
14.9762
20.1664
-22.0415
-23.4316
-28.1004
7.10693
9.63777
-22.2215
37.7168
-15.5066
38.419
18.3039
10.768
-15.1641
-15.872
-30.2277
14.7582
14.3666
4.60568
-10.7615
-21.9406
-25.1064
16.2196
14.1083
14.9663
18.7008
3.78215
-24.5629
26.5128
7.2272
-21.4138
-24.6173
14.8458
15.0827
-16.1437
20.1569
-29.1195
20.6203
-16.7275
-2.89679
23.8307
21.7318
16.0362
26.6791
22.6317
21.778
15.713
-29.7873
-16.0968
24.0877
21.6225
20.9918
22.0701
-22.015
23.5767
-33.8464
5.47035
21.7562
23.62
-21.9377
6.68241
-5.96006
15.0906
-30.4142
15.6296
7.84121
2.41536
5.18511
-9.38917
-0.450008
22.6457
-15.4532
5.29771
15.2111
21.5655
11.5136
-21.1137
-21.2643
10.7983
-2.83602
-15.196
-21.2255
-15.1641
-20.9868
15.2842
-20.6361
-21.2021
-15.2063
-21.0641
19.0032
-15.9388
-14.8233
12.0694
-14.4819
18.8062
19.0522
7.48056
18.0466
11.7806
-16.248
15.2928
14.9656
-21.5291
10.4318
-14.22
16.052
14.6001
17.0815
14.8397
10.3492
-26.9813
-16.0801
-15.957
21.9116
14.534
14.6328
20.9251
22.4912
9.50849
21.7385
-0.376244
-8.16513
20.7816
-17.8385
19.9482
10.3699
-21.5184
15.7243
22.53
14.7325
9.40027
14.1978
21.0578
-7.82678
8.83366
-7.90279
14.6528
26.9269
26.5807
27.9594
26.3879
26.7236
26.2904
13.8331
23.4271
24.0261
23.9703
23.3968
21.1908
21.8551
-8.25708
15.9395
28.1911
-3.1823
23.5728
23.202
27.8345
-8.488
28.0963
15.3491
-7.57555
17.4943
-8.25209
20.2299
29.6123
-7.47989
-8.09503
-29.5981
-18.1902
19.5299
-31.993
5.74109
-7.78822
-1.18122
28.2491
26.6397
30.4105
26.7604
-34.8099
-8.17392
28.3372
8.08062
-8.28962
26.4455
-6.2891
30.4554
-7.94833
27.0462
14.5695
14.7948
23.8417
10.053
18.0198
8.12434
-29.8678
-24.5598
16.8069
1.76747
8.1872
-13.6054
17.438
11.7049
-8.0958
9.45803
-10.8189
7.52412
-10.7501
-8.47921
33.2444
19.1502
25.085
25.3093
13.8358
-10.3999
26.4209
14.6883
-1.65173
-10.2691
-12.5605
17.506
-7.47924
17.5742
-12.0372
-21.3562
-10.6037
-34.6899
15.567
-7.75706
34.4214
-11.5737
16.876
-8.40315
15.9761
-12.7546
4.29576
-51.136
8.53045
-7.74077
21.3329
-8.14637
-0.114949
10.7198
21.1293
-12.0566
-10.196
-6.06193
14.3226
-10.1752
6.89465
6.3944
16.3047
-10.4149
-6.32423
-1.69533
-5.65414
-11.074
-5.83842
15.3089
7.81472
-5.5497
-8.95502
7.81163
7.70037
-10.6699
16.3086
-27.2288
2.30046
-28.4871
-0.950646
-8.90468
-8.1227
-11.8066
-10.97
-9.90781
-7.80252
-7.92593
16.642
24.7711
12.1241
-0.283754
-0.816907
-5.66824
7.31173
-6.31449
-6.31179
24.9165
-5.7236
14.1198
-15.9061
24.3212
5.97669
-0.383411
-5.63759
16.2751
2.48437
0.206908
2.45539
0.463896
-0.73265
-9.92546
-0.0876136
2.12055
15.0699
-1.28027
-1.39912
-0.990878
-0.380896
1.9726
8.05779
-1.18563
8.08521
5.59164
-0.427862
7.04254
5.49864
-3.86963
16.4799
-1.89666
23.0563
-21.9792
15.0483
15.6858
2.047
-1.99099
12.549
-26.5208
5.80087
-1.6511
-50.5
30.4817
30.6184
5.83353
-1.13636
-1.04002
-0.841586
33.3936
33.268
13.101
6.08847
6.66985
-28.978
-1.27131
16.5363
-3.17632
-4.34209
-0.00911172
-25.2856
14.3092
-1.2722
2.86921
2.7006
-2.71647
-0.0416546
-3.20287
-4.02743
-37.9974
-33.6914
-0.120344
1.88152
-0.527023
-3.73785
-1.92981
-1.8712
-0.917231
-21.913
17.2505
-0.761064
12.5712
14.189
-26.7722
6.29369
7.14501
18.4774
36.4072
36.4397
22.6373
-1.74784
2.60727
-20.9356
36.1067
32.7353
32.8023
-24.8232
21.767
30.5088
2.6068
15.7244
10.3789
17.1691
17.7297
12.5102
5.68869
-25.412
4.26692
10.4148
16.247
-31.7236
28.2985
-52.7282
18.6892
10.3047
-10.6227
7.42403
5.46397
24.4705
9.41811
24.4036
4.11211
12.4037
30.6272
29.4532
-22.9965
17.4409
-70.2611
-74.4085
-67.2048
11.6532
-31.2763
-63.6375
-3.79707
-69.9667
16.4609
16.4046
-73.7839
5.22133
-39.7452
-70.7673
-37.7708
-71.9043
-39.467
21.1288
-23.968
-29.0592
-70.651
4.83811
15.761
-36.2046
6.06091
-63.6447
9.84268
3.89052
-67.9293
-37.6391
-66.4387
-23.7694
5.03757
20.52
35.3464
36.7015
11.819
36.8248
36.8781
36.467
36.3833
-24.4861
28.238
20.669
21.9744
11.5421
36.0393
36.0708
18.1154
-23.9546
3.25487
-30.5426
-56.6163
-50.4908
36.1238
35.8049
35.362
35.4321
36.1398
35.5739
33.0923
37.3483
35.375
35.9868
35.6193
34.1722
34.3086
35.8342
35.2927
