# vtk DataFile Version 3.0
vtk output at time 50
ASCII
DATASET UNSTRUCTURED_GRID
POINTS 626 float
-3.68058e-05 0.000978749 0 3.68058e-05 0.000978749 0 -0.000829194 0.00052125 0 
-0.0008235 0.0005 0 -0.000866 0.0004575 0 -0.000866 -0.0004575 0 
-0.0008235 -0.0005 0 -0.000829194 -0.00052125 0 -3.68058e-05 -0.000978749 0 
3.68058e-05 -0.000978749 0 0.000829194 -0.00052125 0 0.000866 -0.0004575 0 
0.000866 0.0004575 0 0.000829194 0.00052125 0 8.5e-05 0 0 
-3.68058e-05 0.000978749 -0.001 3.68058e-05 0.000978749 -0.001 -0.000829194 0.00052125 -0.001 
-0.0008235 0.0005 -0.001 -0.000866 0.0004575 -0.001 -0.000866 -0.0004575 -0.001 
-0.0008235 -0.0005 -0.001 -0.000829194 -0.00052125 -0.001 -3.68058e-05 -0.000978749 -0.001 
3.68058e-05 -0.000978749 -0.001 0.000829194 -0.00052125 -0.001 0.000866 -0.0004575 -0.001 
0.000866 0.0004575 -0.001 0.000829194 0.00052125 -0.001 8.5e-05 0 -0.001 
8.46223e-17 0.0009575 0 -0.000715996 0.000586607 0 -0.000602797 0.000651965 0 
-0.000489599 0.000717321 0 -0.000376401 0.000782678 0 -0.000263202 0.000848036 0 
-0.000150004 0.000913393 0 -0.000835948 0.000469948 0 -0.000866 -0.000326786 0 
-0.000866 -0.000196071 0 -0.000866 -6.53571e-05 0 -0.000866 6.53571e-05 0 
-0.000866 0.000196071 0 -0.000866 0.000326786 0 -0.000835948 -0.000469948 0 
-0.000150004 -0.000913393 0 -0.000263202 -0.000848036 0 -0.000376401 -0.000782678 0 
-0.000489599 -0.000717321 0 -0.000602797 -0.000651965 0 -0.000715996 -0.000586607 0 
8.47648e-17 -0.0009575 0 0.000715996 -0.000586607 0 0.000602797 -0.000651965 0 
0.000489599 -0.000717321 0 0.000376401 -0.000782678 0 0.000263202 -0.000848036 0 
0.000150004 -0.000913393 0 0.000829194 -0.00047875 0 0.000866 0.000326786 0 
0.000866 0.000196071 0 0.000866 6.53571e-05 0 0.000866 -6.53571e-05 0 
0.000866 -0.000196071 0 0.000866 -0.000326786 0 0.000829194 0.00047875 0 
0.000150004 0.000913393 0 0.000263202 0.000848036 0 0.000376401 0.000782678 0 
0.000489599 0.000717321 0 0.000602797 0.000651965 0 0.000715996 0.000586607 0 
5.29966e-05 6.64557e-05 0 -1.89143e-05 8.28689e-05 0 -7.65824e-05 3.68801e-05 0 
-7.65824e-05 -3.68801e-05 0 -1.89143e-05 -8.28689e-05 0 5.29966e-05 -6.64557e-05 0 
8.46223e-17 0.0009575 -0.001 -0.000715996 0.000586607 -0.001 -0.000602797 0.000651965 -0.001 
-0.000489599 0.000717321 -0.001 -0.000376401 0.000782678 -0.001 -0.000263202 0.000848036 -0.001 
-0.000150004 0.000913393 -0.001 -0.000835948 0.000469948 -0.001 -0.000866 -0.000326786 -0.001 
-0.000866 -0.000196071 -0.001 -0.000866 -6.53571e-05 -0.001 -0.000866 6.53571e-05 -0.001 
-0.000866 0.000196071 -0.001 -0.000866 0.000326786 -0.001 -0.000835948 -0.000469948 -0.001 
-0.000150004 -0.000913393 -0.001 -0.000263202 -0.000848036 -0.001 -0.000376401 -0.000782678 -0.001 
-0.000489599 -0.000717321 -0.001 -0.000602797 -0.000651965 -0.001 -0.000715996 -0.000586607 -0.001 
8.47648e-17 -0.0009575 -0.001 0.000715996 -0.000586607 -0.001 0.000602797 -0.000651965 -0.001 
0.000489599 -0.000717321 -0.001 0.000376401 -0.000782678 -0.001 0.000263202 -0.000848036 -0.001 
0.000150004 -0.000913393 -0.001 0.000829194 -0.00047875 -0.001 0.000866 0.000326786 -0.001 
0.000866 0.000196071 -0.001 0.000866 6.53571e-05 -0.001 0.000866 -6.53571e-05 -0.001 
0.000866 -0.000196071 -0.001 0.000866 -0.000326786 -0.001 0.000829194 0.00047875 -0.001 
0.000150004 0.000913393 -0.001 0.000263202 0.000848036 -0.001 0.000376401 0.000782678 -0.001 
0.000489599 0.000717321 -0.001 0.000602797 0.000651965 -0.001 0.000715996 0.000586607 -0.001 
5.29966e-05 6.64557e-05 -0.001 -1.89143e-05 8.28689e-05 -0.001 -7.65824e-05 3.68801e-05 -0.001 
-7.65824e-05 -3.68801e-05 -0.001 -1.89143e-05 -8.28689e-05 -0.001 5.29966e-05 -6.64557e-05 -0.001 
0.000131234 6.38474e-05 0 0.00012964 -6.2443e-05 0 3.13827e-05 0.0001394 0 
3.12554e-05 -0.000136939 0 -0.000140461 8.25467e-19 0 -8.90565e-05 -0.000102707 0 
-9.04142e-05 0.000102872 0 -0.000765769 -0.00025965 0 -0.000756873 0.000262774 0 
-0.00015609 0.000787505 0 -0.000155807 -0.00079355 0 0.000605069 0.000528035 0 
0.000608694 -0.00052497 0 0.000744069 0.000116929 0 -0.000494418 0.000596218 0 
-0.000483866 -0.000584648 0 0.000269496 0.000702219 0 0.000263201 -0.000717324 0 
0.000754429 -0.000127825 0 -0.000748858 5.84659e-07 0 -0.000747838 0.000373886 0 
-0.0006542 0.000324842 0 -0.000645137 0.000210123 0 -0.000550884 0.000274171 0 
-0.000538857 0.000163195 0 -0.00045062 0.000224461 0 -0.000438393 0.000123907 0 
-0.000354088 0.000181668 0 -0.000363908 0.000282171 0 -0.000270361 0.000239477 0 
-0.000279138 0.000337653 0 -0.000188888 0.000294791 0 -0.000196448 0.000393271 0 
-0.000104767 0.000348259 0 -0.000113332 0.000449012 0 -2.01066e-05 0.000403223 0 
-2.89189e-05 0.000507105 0 6.9524e-05 0.000461596 0 -0.000213644 0.000490203 0 
7.33757e-05 0.000357726 0 0.000163331 0.00041299 0 0.000163359 0.000313022 0 
0.000248077 0.000366368 0 0.000250914 0.000265758 0 0.000335709 0.000322266 0 
0.000340555 0.000218148 0 0.000427299 0.000276717 0 0.000431508 0.000173093 0 
0.000328731 0.000425633 0 0.00034586 0.000114823 0 0.000435362 7.05241e-05 0 
0.000350892 1.5455e-05 0 0.000441547 -3.11896e-05 0 0.000353547 -8.47783e-05 0 
0.000445767 -0.000132964 0 0.000356135 -0.000186358 0 0.000449094 -0.000234674 0 
0.000359978 -0.000287876 0 0.00026856 -0.000240545 0 0.000271895 -0.000341045 0 
0.000181792 -0.00029305 0 0.00018533 -0.000392851 0 9.75701e-05 -0.00034483 0 
9.98764e-05 -0.000444884 0 8.75116e-06 -0.000396343 0 1.20916e-05 -0.000500496 0 
-7.83929e-05 -0.000449843 0 -8.1471e-05 -0.000347249 0 -0.000171566 -0.000403733 0 
-0.000169889 -0.000298891 0 -0.000259867 -0.000354132 0 -0.000257696 -0.000249137 0 
-0.00034313 -0.000299896 0 -0.000344514 -0.000199127 0 -0.000434309 -0.000250039 0 
-0.000169832 -0.000505815 0 -0.000435227 -0.000146227 0 0.000280331 -0.000442424 0 
-0.000340889 8.76793e-05 0 -0.000515252 4.06198e-05 0 6.50491e-05 0.000568253 0 
0.00053278 1.74743e-05 0 0.000522071 0.000229831 0 -0.00037162 0.000391659 0 
-0.000255272 -0.000150439 0 -0.000442893 -0.000350705 0 0.000450067 -0.000332559 0 
0.000545175 -0.000276306 0 -0.000527797 -0.000197598 0 0.000105306 -0.000551033 0 
1.45836e-05 -0.000609147 0 0.00017145 0.000214453 0 0.000515525 0.000341711 0 
0.000636086 0.000290368 0 -0.000558657 0.000404468 0 -4.01232e-05 0.000616718 0 
6.60192e-05 0.000696422 0 -0.000101806 0.0002546 0 0.000271142 -3.88908e-05 0 
0.000179455 -0.00018534 0 -8.79553e-05 -0.000254307 0 -0.000749267 -0.000373451 0 
-0.000655941 -0.000323397 0 0.000709746 0.000466718 0 0.000698426 -0.000473086 0 
-5.25801e-05 -0.00084886 0 -4.93005e-05 0.000848038 0 0.000617396 -0.000413362 0 
0.000702056 -0.000369817 0 0.000131459 -0.000679171 0 2.48171e-05 -0.000715924 0 
-0.000664217 -0.00042729 0 -0.000528828 -8.80444e-05 0 -0.000611101 -0.000136672 0 
-0.000426972 -4.45841e-05 0 0.000800669 0.000378216 0 0.000821144 -0.000415062 0 
7.2799e-05 0.00088254 0 6.81831e-05 -0.00087503 0 0.000104963 -0.000788946 0 
-7.40696e-05 -0.000660054 0 0.000126061 0.000809943 0 0.000764361 0.000295682 0 
0.000166862 0.000630623 0 0.000516462 -0.00046707 0 -0.000563585 -0.000389606 0 
-0.000622598 -1.40238e-05 0 0.000629891 0.000171529 0 2.5614e-06 -0.000299794 0 
8.6901e-05 -0.00024329 0 0.000272045 -0.000136982 0 -0.00075148 0.000138321 0 
0.000209366 -0.000599589 0 0.000324913 -0.000630055 0 0.000614044 0.00041245 0 
0.00049651 -0.000573327 0 0.000394822 -0.000507321 0 -0.000173714 -0.000206698 0 
0.000264897 5.63722e-05 0 0.000247997 0.000152811 0 -4.63327e-05 -0.000920208 0 
9.18688e-05 0.000258626 0 -5.54111e-06 0.000290558 0 -0.000184219 0.000201484 0 
-0.000263559 0.000142267 0 -0.000256427 5.13624e-05 0 -0.000336894 -2.06179e-06 0 
-0.000228499 -4.2388e-05 0 -0.00017589 0.000106626 0 -0.000769947 -0.000133367 0 
0.000767591 -0.000500293 0 -5.05874e-05 0.000737978 0 0.000754456 -3.51771e-06 0 
0.00064691 -6.15298e-05 0 0.000630483 -0.00018134 0 0.000749187 -0.000265543 0 
-0.000760805 -0.000462521 0 0.000638155 6.09315e-05 0 -4.46661e-05 0.000922995 0 
-2.37945e-05 0.000207237 0 0.000776979 0.000500181 0 -0.000605691 0.000527596 0 
-0.000377914 -0.000653727 0 -0.000372325 -0.000526022 0 -0.000275829 -0.000589621 0 
-0.000254285 -0.000710579 0 -0.000379307 0.000656222 0 -0.000379818 0.00052718 0 
-0.000266817 0.000721555 0 -0.000150544 0.000668174 0 0.000381963 0.00065079 0 
0.000493113 0.000590432 0 0.000505439 0.000463708 0 -0.000269094 0.000596608 0 
0.000385815 0.000532045 0 0.000283599 0.0005899 0 -0.000176405 -0.000108505 0 
-0.000278769 -0.000475415 0 0.000185395 2.33014e-06 0 0.000186773 0.000517571 0 
0.000540032 -8.68444e-05 0 -0.000600694 -0.000514877 0 -0.00063703 8.98033e-05 0 
-0.000459677 0.000335729 0 -0.000338836 -0.000100751 0 -0.000457327 0.000432721 0 
-8.72007e-06 -0.000210238 0 0.000156073 0.000129496 0 -7.70692e-05 -0.000555049 0 
0.00036091 -0.000389728 0 0.000531628 0.000120564 0 -0.000285451 0.000435562 0 
0.000192719 -0.000494604 0 0.00041642 0.00039368 0 -0.000135943 0.000554637 0 
-0.000170665 -0.000610079 0 -0.000666304 0.000434981 0 -0.000758736 0.000479231 0 
-0.000470189 -0.000458901 0 0.000203433 -8.59809e-05 0 0.000101846 0.000170114 0 
-0.00035513 -0.00040726 0 0.000100184 -0.000165831 0 2.96286e-05 0.00081537 0 
0.000720946 0.000381836 0 -0.000539809 -0.000292001 0 0.00052211 -0.000182426 0 
-6.41339e-05 -0.000753908 0 0.000638039 -0.000299861 0 -0.000605136 -0.000230182 0 
-3.41638e-05 -0.000145561 0 -0.000104037 0.000172396 0 -0.000808575 -0.00042774 0 
-0.000807207 -0.000465052 0 -0.00080817 0.000429771 0 -0.000806589 0.000469738 0 
-9.50634e-05 -0.000178909 0 0.000247777 0.000445058 0 1.48293e-05 -0.000814201 0 
-4.11555e-05 0.000140955 0 0.000276104 -0.000536845 0 0.000765969 -0.000436638 0 
0.000780871 -0.000362769 0 0.000424176 -0.000642018 0 0.00053413 -0.000368009 0 
-0.000416333 4.17911e-05 0 -0.000133891 -6.23822e-05 0 4.2574e-05 0.000206312 0 
0.000141163 -0.000121542 0 0.000707423 0.000212137 0 0.000172327 0.000723882 0 
7.72652e-06 -0.00090254 0 -0.000134435 5.66935e-05 0 -0.000188826 3.70894e-05 0 
0.000197119 8.09714e-05 0 1.27801e-05 0.000917296 0 0.000800767 0.00044758 0 
-0.000686682 0.000507104 0 9.35831e-05 0.000110457 0 -0.000696793 -0.000509595 0 
-0.00068446 -8.52012e-05 0 -0.000691033 -0.000201242 0 5.24052e-05 -0.000189075 0 
-0.000151818 -0.000701092 0 -0.000296988 0.000518087 0 9.31023e-05 -0.000108117 0 
0.00044261 -0.000416726 0 0.000197044 -0.000784423 0 -0.000516861 0.000504567 0 
0.000298997 0.000502377 0 0.000131234 6.38474e-05 -0.001 0.00012964 -6.2443e-05 -0.001 
3.13827e-05 0.0001394 -0.001 3.12554e-05 -0.000136939 -0.001 -0.000140461 8.25467e-19 -0.001 
-8.90565e-05 -0.000102707 -0.001 -9.04142e-05 0.000102872 -0.001 -0.000765769 -0.00025965 -0.001 
-0.000756873 0.000262774 -0.001 -0.00015609 0.000787505 -0.001 -0.000155807 -0.00079355 -0.001 
0.000605069 0.000528035 -0.001 0.000608694 -0.00052497 -0.001 0.000744069 0.000116929 -0.001 
-0.000494418 0.000596218 -0.001 -0.000483866 -0.000584648 -0.001 0.000269496 0.000702219 -0.001 
0.000263201 -0.000717324 -0.001 0.000754429 -0.000127825 -0.001 -0.000748858 5.84659e-07 -0.001 
-0.000747838 0.000373886 -0.001 -0.0006542 0.000324842 -0.001 -0.000645137 0.000210123 -0.001 
-0.000550884 0.000274171 -0.001 -0.000538857 0.000163195 -0.001 -0.00045062 0.000224461 -0.001 
-0.000438393 0.000123907 -0.001 -0.000354088 0.000181668 -0.001 -0.000363908 0.000282171 -0.001 
-0.000270361 0.000239477 -0.001 -0.000279138 0.000337653 -0.001 -0.000188888 0.000294791 -0.001 
-0.000196448 0.000393271 -0.001 -0.000104767 0.000348259 -0.001 -0.000113332 0.000449012 -0.001 
-2.01066e-05 0.000403223 -0.001 -2.89189e-05 0.000507105 -0.001 6.9524e-05 0.000461596 -0.001 
-0.000213644 0.000490203 -0.001 7.33757e-05 0.000357726 -0.001 0.000163331 0.00041299 -0.001 
0.000163359 0.000313022 -0.001 0.000248077 0.000366368 -0.001 0.000250914 0.000265758 -0.001 
0.000335709 0.000322266 -0.001 0.000340555 0.000218148 -0.001 0.000427299 0.000276717 -0.001 
0.000431508 0.000173093 -0.001 0.000328731 0.000425633 -0.001 0.00034586 0.000114823 -0.001 
0.000435362 7.05241e-05 -0.001 0.000350892 1.5455e-05 -0.001 0.000441547 -3.11896e-05 -0.001 
0.000353547 -8.47783e-05 -0.001 0.000445767 -0.000132964 -0.001 0.000356135 -0.000186358 -0.001 
0.000449094 -0.000234674 -0.001 0.000359978 -0.000287876 -0.001 0.00026856 -0.000240545 -0.001 
0.000271895 -0.000341045 -0.001 0.000181792 -0.00029305 -0.001 0.00018533 -0.000392851 -0.001 
9.75701e-05 -0.00034483 -0.001 9.98764e-05 -0.000444884 -0.001 8.75116e-06 -0.000396343 -0.001 
1.20916e-05 -0.000500496 -0.001 -7.83929e-05 -0.000449843 -0.001 -8.1471e-05 -0.000347249 -0.001 
-0.000171566 -0.000403733 -0.001 -0.000169889 -0.000298891 -0.001 -0.000259867 -0.000354132 -0.001 
-0.000257696 -0.000249137 -0.001 -0.00034313 -0.000299896 -0.001 -0.000344514 -0.000199127 -0.001 
-0.000434309 -0.000250039 -0.001 -0.000169832 -0.000505815 -0.001 -0.000435227 -0.000146227 -0.001 
0.000280331 -0.000442424 -0.001 -0.000340889 8.76793e-05 -0.001 -0.000515252 4.06198e-05 -0.001 
6.50491e-05 0.000568253 -0.001 0.00053278 1.74743e-05 -0.001 0.000522071 0.000229831 -0.001 
-0.00037162 0.000391659 -0.001 -0.000255272 -0.000150439 -0.001 -0.000442893 -0.000350705 -0.001 
0.000450067 -0.000332559 -0.001 0.000545175 -0.000276306 -0.001 -0.000527797 -0.000197598 -0.001 
0.000105306 -0.000551033 -0.001 1.45836e-05 -0.000609147 -0.001 0.00017145 0.000214453 -0.001 
0.000515525 0.000341711 -0.001 0.000636086 0.000290368 -0.001 -0.000558657 0.000404468 -0.001 
-4.01232e-05 0.000616718 -0.001 6.60192e-05 0.000696422 -0.001 -0.000101806 0.0002546 -0.001 
0.000271142 -3.88908e-05 -0.001 0.000179455 -0.00018534 -0.001 -8.79553e-05 -0.000254307 -0.001 
-0.000749267 -0.000373451 -0.001 -0.000655941 -0.000323397 -0.001 0.000709746 0.000466718 -0.001 
0.000698426 -0.000473086 -0.001 -5.25801e-05 -0.00084886 -0.001 -4.93005e-05 0.000848038 -0.001 
0.000617396 -0.000413362 -0.001 0.000702056 -0.000369817 -0.001 0.000131459 -0.000679171 -0.001 
2.48171e-05 -0.000715924 -0.001 -0.000664217 -0.00042729 -0.001 -0.000528828 -8.80444e-05 -0.001 
-0.000611101 -0.000136672 -0.001 -0.000426972 -4.45841e-05 -0.001 0.000800669 0.000378216 -0.001 
0.000821144 -0.000415062 -0.001 7.2799e-05 0.00088254 -0.001 6.81831e-05 -0.00087503 -0.001 
0.000104963 -0.000788946 -0.001 -7.40696e-05 -0.000660054 -0.001 0.000126061 0.000809943 -0.001 
0.000764361 0.000295682 -0.001 0.000166862 0.000630623 -0.001 0.000516462 -0.00046707 -0.001 
-0.000563585 -0.000389606 -0.001 -0.000622598 -1.40238e-05 -0.001 0.000629891 0.000171529 -0.001 
2.5614e-06 -0.000299794 -0.001 8.6901e-05 -0.00024329 -0.001 0.000272045 -0.000136982 -0.001 
-0.00075148 0.000138321 -0.001 0.000209366 -0.000599589 -0.001 0.000324913 -0.000630055 -0.001 
0.000614044 0.00041245 -0.001 0.00049651 -0.000573327 -0.001 0.000394822 -0.000507321 -0.001 
-0.000173714 -0.000206698 -0.001 0.000264897 5.63722e-05 -0.001 0.000247997 0.000152811 -0.001 
-4.63327e-05 -0.000920208 -0.001 9.18688e-05 0.000258626 -0.001 -5.54111e-06 0.000290558 -0.001 
-0.000184219 0.000201484 -0.001 -0.000263559 0.000142267 -0.001 -0.000256427 5.13624e-05 -0.001 
-0.000336894 -2.06179e-06 -0.001 -0.000228499 -4.2388e-05 -0.001 -0.00017589 0.000106626 -0.001 
-0.000769947 -0.000133367 -0.001 0.000767591 -0.000500293 -0.001 -5.05874e-05 0.000737978 -0.001 
0.000754456 -3.51771e-06 -0.001 0.00064691 -6.15298e-05 -0.001 0.000630483 -0.00018134 -0.001 
0.000749187 -0.000265543 -0.001 -0.000760805 -0.000462521 -0.001 0.000638155 6.09315e-05 -0.001 
-4.46661e-05 0.000922995 -0.001 -2.37945e-05 0.000207237 -0.001 0.000776979 0.000500181 -0.001 
-0.000605691 0.000527596 -0.001 -0.000377914 -0.000653727 -0.001 -0.000372325 -0.000526022 -0.001 
-0.000275829 -0.000589621 -0.001 -0.000254285 -0.000710579 -0.001 -0.000379307 0.000656222 -0.001 
-0.000379818 0.00052718 -0.001 -0.000266817 0.000721555 -0.001 -0.000150544 0.000668174 -0.001 
0.000381963 0.00065079 -0.001 0.000493113 0.000590432 -0.001 0.000505439 0.000463708 -0.001 
-0.000269094 0.000596608 -0.001 0.000385815 0.000532045 -0.001 0.000283599 0.0005899 -0.001 
-0.000176405 -0.000108505 -0.001 -0.000278769 -0.000475415 -0.001 0.000185395 2.33014e-06 -0.001 
0.000186773 0.000517571 -0.001 0.000540032 -8.68444e-05 -0.001 -0.000600694 -0.000514877 -0.001 
-0.00063703 8.98033e-05 -0.001 -0.000459677 0.000335729 -0.001 -0.000338836 -0.000100751 -0.001 
-0.000457327 0.000432721 -0.001 -8.72007e-06 -0.000210238 -0.001 0.000156073 0.000129496 -0.001 
-7.70692e-05 -0.000555049 -0.001 0.00036091 -0.000389728 -0.001 0.000531628 0.000120564 -0.001 
-0.000285451 0.000435562 -0.001 0.000192719 -0.000494604 -0.001 0.00041642 0.00039368 -0.001 
-0.000135943 0.000554637 -0.001 -0.000170665 -0.000610079 -0.001 -0.000666304 0.000434981 -0.001 
-0.000758736 0.000479231 -0.001 -0.000470189 -0.000458901 -0.001 0.000203433 -8.59809e-05 -0.001 
0.000101846 0.000170114 -0.001 -0.00035513 -0.00040726 -0.001 0.000100184 -0.000165831 -0.001 
2.96286e-05 0.00081537 -0.001 0.000720946 0.000381836 -0.001 -0.000539809 -0.000292001 -0.001 
0.00052211 -0.000182426 -0.001 -6.41339e-05 -0.000753908 -0.001 0.000638039 -0.000299861 -0.001 
-0.000605136 -0.000230182 -0.001 -3.41638e-05 -0.000145561 -0.001 -0.000104037 0.000172396 -0.001 
-0.000808575 -0.00042774 -0.001 -0.000807207 -0.000465052 -0.001 -0.00080817 0.000429771 -0.001 
-0.000806589 0.000469738 -0.001 -9.50634e-05 -0.000178909 -0.001 0.000247777 0.000445058 -0.001 
1.48293e-05 -0.000814201 -0.001 -4.11555e-05 0.000140955 -0.001 0.000276104 -0.000536845 -0.001 
0.000765969 -0.000436638 -0.001 0.000780871 -0.000362769 -0.001 0.000424176 -0.000642018 -0.001 
0.00053413 -0.000368009 -0.001 -0.000416333 4.17911e-05 -0.001 -0.000133891 -6.23822e-05 -0.001 
4.2574e-05 0.000206312 -0.001 0.000141163 -0.000121542 -0.001 0.000707423 0.000212137 -0.001 
0.000172327 0.000723882 -0.001 7.72652e-06 -0.00090254 -0.001 -0.000134435 5.66935e-05 -0.001 
-0.000188826 3.70894e-05 -0.001 0.000197119 8.09714e-05 -0.001 1.27801e-05 0.000917296 -0.001 
0.000800767 0.00044758 -0.001 -0.000686682 0.000507104 -0.001 9.35831e-05 0.000110457 -0.001 
-0.000696793 -0.000509595 -0.001 -0.00068446 -8.52012e-05 -0.001 -0.000691033 -0.000201242 -0.001 
5.24052e-05 -0.000189075 -0.001 -0.000151818 -0.000701092 -0.001 -0.000296988 0.000518087 -0.001 
9.31023e-05 -0.000108117 -0.001 0.00044261 -0.000416726 -0.001 0.000197044 -0.000784423 -0.001 
-0.000516861 0.000504567 -0.001 0.000298997 0.000502377 -0.001 

CELLS 563 3941
6 14 304 127 29 554 377 
6 143 259 55 393 509 103 
6 300 319 174 550 569 424 
6 259 349 55 509 599 103 
6 50 365 307 98 615 557 
6 299 320 164 549 570 414 
6 126 304 14 376 554 29 
6 298 319 300 548 569 550 
6 205 240 238 455 490 488 
6 257 308 145 507 558 395 
6 130 352 273 380 602 523 
6 295 320 299 545 570 549 
6 324 327 289 574 577 539 
6 235 258 143 485 508 393 
6 50 307 49 98 557 97 
6 207 283 279 457 533 529 
6 143 373 235 393 623 485 
6 145 308 252 395 558 502 
6 194 303 196 444 553 446 
6 279 306 207 529 556 457 
6 206 305 163 456 555 413 
6 51 357 9 99 607 24 
6 238 252 205 488 502 455 
6 293 317 209 543 567 459 
6 207 316 283 457 566 533 
6 142 301 249 392 551 499 
6 273 359 130 523 609 380 
6 211 327 324 461 577 574 
6 169 265 217 419 515 467 
6 7 365 50 22 615 98 
6 283 316 253 533 566 503 
6 159 268 223 409 518 473 
6 274 337 132 524 587 382 
6 232 361 329 482 611 579 
6 231 266 45 481 516 93 
6 229 362 330 479 612 580 
6 9 244 57 24 494 105 
6 230 276 52 480 526 100 
6 209 311 293 459 561 543 
6 131 342 302 381 592 552 
6 270 271 204 520 521 454 
6 66 243 1 114 493 16 
6 59 241 12 107 491 27 
6 280 306 279 530 556 529 
6 269 337 274 519 587 524 
6 179 256 224 429 506 474 
6 163 305 166 413 555 416 
6 201 303 194 451 553 444 
6 280 332 306 530 582 556 
6 186 255 225 436 505 475 
6 210 310 273 460 560 523 
6 153 270 204 403 520 454 
6 136 231 45 386 481 93 
6 171 265 169 421 515 419 
6 138 230 52 388 480 100 
6 225 354 325 475 604 575 
6 36 284 232 84 534 482 
6 161 268 159 411 518 409 
6 71 286 229 119 536 479 
6 290 303 201 540 553 451 
6 139 355 60 389 605 108 
6 60 355 248 108 605 498 
6 273 352 302 523 602 552 
6 235 373 245 485 623 495 
6 67 356 247 115 606 497 
6 221 295 277 471 545 527 
6 142 356 67 392 606 115 
6 139 283 253 389 533 503 
6 203 315 262 453 565 512 
6 41 257 145 89 507 395 
6 36 232 135 84 482 385 
6 71 229 137 119 479 387 
6 254 255 188 504 505 438 
6 233 350 334 483 600 584 
6 262 346 203 512 596 453 
6 304 325 127 554 575 377 
6 222 329 247 472 579 497 
6 218 298 260 468 548 510 
6 290 321 291 540 571 541 
6 272 310 240 522 560 490 
6 269 274 270 519 524 520 
6 244 245 57 494 495 105 
6 49 307 141 97 557 391 
6 225 325 256 475 575 506 
6 273 310 272 523 560 522 
6 312 368 255 562 618 505 
6 249 305 206 499 555 456 
6 228 331 251 478 581 501 
6 302 342 263 552 592 513 
6 338 339 44 588 589 92 
6 190 254 188 440 504 438 
6 37 341 340 85 591 590 
6 138 233 230 388 483 480 
6 228 335 331 478 585 581 
6 181 256 179 431 506 429 
6 195 263 226 445 513 476 
6 268 285 223 518 535 473 
6 290 291 288 540 541 538 
6 219 330 248 469 580 498 
6 201 321 290 451 571 540 
6 240 310 202 490 560 452 
6 188 255 186 438 505 436 
6 270 274 271 520 524 521 
6 262 349 259 512 599 509 
6 141 324 289 391 574 539 
6 296 301 142 546 551 392 
6 247 356 222 497 606 472 
6 239 252 238 489 502 488 
6 254 312 255 504 562 505 
6 54 261 53 102 511 101 
6 289 327 303 539 577 553 
6 268 353 285 518 603 535 
6 273 302 210 523 552 460 
6 292 299 293 542 549 543 
6 278 283 139 528 533 389 
6 175 265 171 425 515 421 
6 227 338 38 477 588 86 
6 264 360 265 514 610 515 
6 43 340 146 91 590 396 
6 165 268 161 415 518 411 
6 205 351 240 455 601 490 
6 64 281 63 112 531 111 
6 288 291 47 538 541 95 
6 135 295 294 385 545 544 
6 42 257 41 90 507 89 
6 245 373 57 495 623 105 
6 31 363 323 79 613 573 
6 292 293 140 542 543 390 
6 267 353 268 517 603 518 
6 155 270 153 405 520 403 
6 244 344 245 494 594 495 
6 61 278 139 109 528 389 
6 135 294 35 385 544 83 
6 69 297 296 117 547 546 
6 186 225 184 436 475 434 
6 329 361 243 579 611 493 
6 255 328 225 505 578 475 
6 213 332 280 463 582 530 
6 39 275 133 87 525 383 
6 330 362 241 580 612 491 
6 195 226 193 445 476 443 
6 211 324 251 461 574 501 
6 151 153 152 401 403 402 
6 295 299 294 545 549 544 
6 265 313 217 515 563 467 
6 258 259 143 508 509 393 
6 251 331 211 501 581 461 
6 149 151 150 399 401 400 
6 293 370 317 543 620 567 
6 153 204 152 403 454 402 
6 151 152 150 401 402 400 
6 33 292 140 81 542 390 
6 210 263 197 460 513 447 
6 301 305 249 551 555 499 
6 298 300 297 548 550 547 
6 68 296 142 116 546 392 
6 321 369 291 571 619 541 
6 179 224 177 429 474 427 
6 167 267 165 417 517 415 
6 259 346 262 509 596 512 
6 303 327 196 553 577 446 
6 269 270 155 519 520 405 
6 265 360 313 515 610 563 
6 223 269 157 473 519 407 
6 157 269 155 407 519 405 
6 144 279 278 394 529 528 
6 169 217 167 419 467 417 
6 177 264 175 427 514 425 
6 267 268 165 517 518 415 
6 159 223 157 409 473 407 
6 232 277 135 482 527 385 
6 193 254 190 443 504 440 
6 217 267 167 467 517 417 
6 249 356 142 499 606 392 
6 184 256 181 434 506 431 
6 248 355 219 498 605 469 
6 229 260 137 479 510 387 
6 149 150 148 399 400 398 
6 64 348 281 112 598 531 
6 311 374 293 561 624 543 
6 264 265 175 514 515 425 
6 297 300 296 547 550 546 
6 141 289 288 391 539 538 
6 197 263 195 447 513 445 
6 218 260 219 468 510 469 
6 224 264 177 474 514 427 
6 137 298 297 387 548 547 
6 277 295 135 527 545 385 
6 133 228 227 383 478 477 
6 261 349 262 511 599 512 
6 221 277 222 471 527 472 
6 256 325 224 506 575 474 
6 199 210 197 449 460 447 
6 226 254 193 476 504 443 
6 144 278 62 394 528 110 
6 279 283 278 529 533 528 
6 289 290 288 539 540 538 
6 137 297 70 387 547 118 
6 34 294 292 82 544 542 
6 235 236 216 485 486 466 
6 141 288 48 391 538 96 
6 178 306 180 428 556 430 
6 185 186 184 435 436 434 
6 63 281 144 111 531 394 
6 225 256 184 475 506 434 
6 46 291 136 94 541 386 
6 147 149 148 397 399 398 
6 271 272 204 521 522 454 
6 233 334 234 483 584 484 
6 145 275 40 395 525 88 
6 220 322 287 470 572 537 
6 280 334 213 530 584 463 
6 144 280 279 394 530 529 
6 140 287 32 390 537 80 
6 154 155 153 404 405 403 
6 334 350 213 584 600 463 
6 176 177 175 426 427 425 
6 260 298 137 510 548 387 
6 33 140 32 81 390 80 
6 49 141 48 97 391 96 
6 56 143 55 104 393 103 
6 68 142 67 116 392 115 
6 63 144 62 111 394 110 
6 61 139 60 109 389 108 
6 148 308 257 398 558 507 
6 71 137 70 119 387 118 
6 53 138 52 101 388 100 
6 46 136 45 94 386 93 
6 36 135 35 84 385 83 
6 43 146 134 91 396 384 
6 133 227 38 383 477 86 
6 192 193 190 442 443 440 
6 293 374 140 543 624 390 
6 34 292 33 82 542 81 
6 207 306 178 457 556 428 
6 43 134 42 91 384 90 
6 39 133 38 87 383 86 
6 41 145 40 89 395 88 
6 194 195 193 444 445 443 
6 69 296 68 117 546 116 
6 294 299 292 544 549 542 
6 173 175 171 423 425 421 
6 260 330 219 510 580 469 
6 183 184 181 433 434 431 
6 134 257 42 384 507 90 
6 55 349 54 103 599 102 
6 163 165 161 413 415 411 
6 166 167 165 416 417 415 
6 210 302 263 460 552 513 
6 271 273 272 521 523 522 
6 53 261 138 101 511 388 
6 217 326 267 467 576 517 
6 289 303 290 539 553 540 
6 178 179 177 428 429 427 
6 238 240 202 488 490 452 
6 62 278 61 110 528 109 
6 35 294 34 83 544 82 
6 284 361 232 534 611 482 
6 70 297 69 118 547 117 
6 224 304 264 474 554 514 
6 156 157 155 406 407 405 
6 48 288 47 96 538 95 
6 221 320 295 471 570 545 
6 187 188 186 437 438 436 
6 47 291 46 95 541 94 
6 151 154 153 401 404 403 
6 286 362 229 536 612 479 
6 168 169 167 418 419 417 
6 40 275 39 88 525 87 
6 307 324 141 557 574 391 
6 300 301 296 550 551 546 
6 32 287 31 80 537 79 
6 147 220 149 397 470 399 
6 333 344 231 583 594 481 
6 299 370 293 549 620 543 
6 271 359 273 521 609 523 
6 224 325 304 474 575 554 
6 228 237 227 478 487 477 
6 305 375 343 555 625 593 
6 218 319 298 468 569 548 
6 240 351 272 490 601 522 
6 277 329 222 527 579 472 
6 253 355 139 503 605 389 
6 158 159 157 408 409 407 
6 236 246 216 486 496 466 
6 192 194 193 442 444 443 
6 220 309 149 470 559 399 
6 183 185 184 433 435 434 
6 196 197 195 446 447 445 
6 276 347 58 526 597 106 
6 136 333 231 386 583 481 
6 67 247 66 115 497 114 
6 60 248 59 108 498 107 
6 261 262 250 511 512 500 
6 173 176 175 423 426 425 
6 344 357 231 594 607 481 
6 144 281 280 394 531 530 
6 152 205 150 402 455 400 
6 163 166 165 413 416 415 
6 185 187 186 435 437 436 
6 233 234 230 483 484 480 
6 170 171 169 420 421 419 
6 146 147 134 396 397 384 
6 176 178 177 426 428 427 
6 285 337 223 535 587 473 
6 154 156 155 404 406 405 
6 263 342 226 513 592 476 
6 235 245 236 485 495 486 
6 160 161 159 410 411 409 
6 58 347 242 106 597 492 
6 166 168 167 416 418 417 
6 287 374 220 537 624 470 
6 189 190 188 439 440 438 
6 148 257 134 398 507 384 
6 194 196 195 444 446 445 
6 252 308 205 502 558 455 
6 285 345 337 535 595 587 
6 301 375 305 551 625 555 
6 180 181 179 430 431 429 
6 281 348 234 531 598 484 
6 198 199 197 448 449 447 
6 151 309 154 401 559 404 
6 228 367 335 478 617 585 
6 54 349 261 102 599 511 
6 156 158 157 406 408 407 
6 168 170 169 418 420 419 
6 200 202 199 450 452 449 
6 147 148 134 397 398 384 
6 158 160 159 408 410 409 
6 150 308 148 400 558 398 
6 253 316 208 503 566 458 
6 232 329 277 482 579 527 
6 178 180 179 428 430 429 
6 191 192 190 441 442 440 
6 214 238 202 464 488 452 
6 172 173 171 422 423 421 
6 187 189 188 437 439 438 
6 162 163 161 412 413 411 
6 228 251 237 478 501 487 
6 215 258 235 465 508 485 
6 182 183 181 432 433 431 
6 202 310 199 452 560 449 
6 219 253 208 469 503 458 
6 222 249 206 472 499 456 
6 196 198 197 446 448 447 
6 229 330 260 479 580 510 
6 132 358 274 382 608 524 
6 149 309 151 399 559 401 
6 226 312 254 476 562 504 
6 154 309 209 404 559 459 
6 77 129 76 125 379 124 
6 73 128 72 121 378 120 
6 76 131 75 124 381 123 
6 74 132 73 122 382 121 
6 75 130 74 123 380 122 
6 14 127 77 29 377 125 
6 72 126 14 120 376 29 
6 133 367 228 383 617 478 
6 237 282 227 487 532 477 
6 239 366 252 489 616 502 
6 200 214 202 450 464 452 
6 192 201 194 442 451 444 
6 170 172 171 420 422 421 
6 220 311 309 470 561 559 
6 198 200 199 448 450 449 
6 189 191 190 439 441 440 
6 146 323 322 396 573 572 
6 160 162 161 410 412 411 
6 251 307 237 501 557 487 
6 199 310 210 449 560 460 
6 57 373 56 105 623 104 
6 214 239 238 464 489 488 
6 182 212 183 432 462 433 
6 180 182 181 430 432 431 
6 146 322 147 396 572 397 
6 172 218 208 422 468 458 
6 172 208 173 422 458 423 
6 162 221 206 412 471 456 
6 162 206 163 412 456 413 
6 176 207 178 426 457 428 
6 272 351 204 522 601 454 
6 198 211 200 448 461 450 
6 182 213 212 432 463 462 
6 234 334 281 484 584 531 
6 154 209 156 404 459 406 
6 185 203 187 435 453 437 
6 168 174 170 418 424 420 
6 189 215 191 439 465 441 
6 215 216 191 465 466 441 
6 221 222 206 471 472 456 
6 158 164 160 408 414 410 
6 218 219 208 468 469 458 
6 205 308 150 455 558 400 
6 191 314 192 441 564 442 
6 215 235 216 465 485 466 
6 215 318 258 465 568 508 
6 152 351 205 402 601 455 
6 138 261 250 388 511 500 
6 192 314 201 442 564 451 
6 234 347 230 484 597 480 
6 226 342 312 476 592 562 
6 138 250 233 388 500 483 
6 147 322 220 397 572 470 
6 216 314 191 466 564 441 
6 306 332 180 556 582 430 
6 222 356 249 472 606 499 
6 128 345 285 378 595 535 
6 314 321 201 564 571 451 
6 212 315 183 462 565 433 
6 312 342 336 562 592 586 
6 282 339 338 532 589 588 
6 340 341 323 590 591 573 
6 309 311 209 559 561 459 
6 183 315 185 433 565 435 
6 208 316 173 458 566 423 
6 173 316 176 423 566 426 
6 3 341 37 18 591 85 
6 44 339 6 92 589 21 
6 252 366 145 502 616 395 
6 246 321 314 496 571 564 
6 246 314 216 496 564 466 
6 126 364 313 376 614 563 
6 156 317 158 406 567 408 
6 275 367 133 525 617 383 
6 176 316 207 426 566 457 
6 185 315 203 435 565 453 
6 180 332 182 430 582 432 
6 302 352 131 552 602 381 
6 251 324 307 501 574 557 
6 187 318 189 437 568 439 
6 172 319 218 422 569 468 
6 162 320 221 412 570 471 
6 305 343 166 555 593 416 
6 170 319 172 420 569 422 
6 158 317 164 408 567 414 
6 209 317 156 459 567 406 
6 285 353 128 535 603 378 
6 223 337 269 473 587 519 
6 160 320 162 410 570 412 
6 211 331 200 461 581 450 
6 174 319 170 424 569 420 
6 203 318 187 453 568 437 
6 189 318 215 439 568 465 
6 198 327 211 448 577 461 
6 164 320 160 414 570 410 
6 326 353 267 576 603 517 
6 236 344 333 486 594 583 
6 196 327 198 446 577 448 
6 219 355 253 469 605 503 
6 281 334 280 531 584 530 
6 274 359 271 524 609 521 
6 164 370 299 414 620 549 
6 174 375 300 424 625 550 
6 287 363 31 537 613 79 
6 243 361 1 493 611 16 
6 241 362 12 491 612 27 
6 307 365 237 557 615 487 
6 166 343 168 416 593 418 
6 200 331 214 450 581 464 
6 313 326 217 563 576 467 
6 9 357 244 24 607 494 
6 1 361 30 16 611 78 
6 12 362 65 27 612 113 
6 337 345 132 587 595 382 
6 242 348 64 492 598 112 
6 231 357 266 481 607 516 
6 182 332 213 432 582 463 
6 245 344 236 495 594 486 
6 258 346 259 508 596 509 
6 145 366 275 395 616 525 
6 291 369 136 541 619 386 
6 236 333 246 486 583 496 
6 331 335 214 581 585 464 
6 312 336 129 562 586 379 
6 315 372 262 565 622 512 
6 220 374 311 470 624 561 
6 140 374 287 390 624 537 
6 126 360 304 376 610 554 
6 230 347 276 480 597 526 
6 313 364 326 563 614 576 
6 56 373 143 104 623 393 
6 239 367 366 489 617 616 
6 204 351 152 454 601 402 
6 300 375 301 550 625 551 
6 214 335 239 464 585 489 
6 247 329 243 497 579 493 
6 262 372 250 512 622 500 
6 248 330 241 498 580 491 
6 318 346 258 568 596 508 
6 333 369 246 583 619 496 
6 282 338 227 532 588 477 
6 146 340 323 396 590 573 
6 304 360 264 554 610 514 
6 366 367 275 616 617 525 
6 129 336 76 379 586 124 
6 73 345 128 121 595 378 
6 76 336 131 124 586 381 
6 250 350 233 500 600 483 
6 129 371 328 379 621 578 
6 132 345 73 382 595 121 
6 168 343 174 418 593 424 
6 131 352 75 381 602 123 
6 66 247 243 114 497 493 
6 59 248 241 107 498 491 
6 74 358 132 122 608 382 
6 203 346 318 453 596 568 
6 313 360 126 563 610 376 
6 128 364 72 378 614 120 
6 128 353 326 378 603 576 
6 77 371 129 125 621 379 
6 129 368 312 379 618 562 
6 244 357 344 494 607 594 
6 328 354 225 578 604 475 
6 326 364 128 576 614 378 
6 75 352 130 123 602 380 
6 350 372 212 600 622 462 
6 136 369 333 386 619 583 
6 325 354 127 575 604 377 
6 213 350 212 463 600 462 
6 130 358 74 380 608 122 
6 250 372 350 500 622 600 
6 317 370 164 567 620 414 
6 72 364 126 120 614 376 
6 328 368 129 578 618 379 
6 127 371 77 377 621 125 
6 336 342 131 586 592 381 
6 212 372 315 462 622 565 
6 234 348 347 484 598 597 
6 8 266 51 23 516 99 
6 10 276 58 25 526 106 
6 246 369 321 496 619 571 
6 30 284 0 78 534 15 
6 65 286 13 113 536 28 
6 58 242 11 106 492 26 
6 266 357 51 516 607 99 
6 255 368 328 505 618 578 
6 347 348 242 597 598 492 
6 322 363 287 572 613 537 
6 323 363 322 573 613 572 
6 335 367 239 585 617 489 
6 30 361 284 78 611 534 
6 65 362 286 113 612 536 
6 237 365 282 487 615 532 
6 130 359 358 380 609 608 
6 343 375 174 593 625 424 
6 354 371 127 604 621 377 
6 328 371 354 578 621 604 
6 358 359 274 608 609 524 
6 0 284 36 15 534 84 
6 45 266 8 93 516 23 
6 52 276 10 100 526 25 
6 11 242 64 26 492 112 
6 13 286 71 28 536 119 
6 2 323 3 17 573 18 
6 31 323 2 79 573 17 
6 323 341 3 573 591 18 
6 37 340 4 85 590 19 
6 4 340 43 19 590 91 
6 38 338 5 86 588 20 
6 5 338 44 20 588 92 
6 6 282 7 21 532 22 
6 6 339 282 21 589 532 
6 282 365 7 532 615 22 

CELL_TYPES 563
13
13
13
13
13
13
13
13
13
13
13
13
13
13
13
13
13
13
13
13
13
13
13
13
13
13
13
13
13
13
13
13
13
13
13
13
13
13
13
13
13
13
13
13
13
13
13
13
13
13
13
13
13
13
13
13
13
13
13
13
13
13
13
13
13
13
13
13
13
13
13
13
13
13
13
13
13
13
13
13
13
13
13
13
13
13
13
13
13
13
13
13
13
13
13
13
13
13
13
13
13
13
13
13
13
13
13
13
13
13
13
13
13
13
13
13
13
13
13
13
13
13
13
13
13
13
13
13
13
13
13
13
13
13
13
13
13
13
13
13
13
13
13
13
13
13
13
13
13
13
13
13
13
13
13
13
13
13
13
13
13
13
13
13
13
13
13
13
13
13
13
13
13
13
13
13
13
13
13
13
13
13
13
13
13
13
13
13
13
13
13
13
13
13
13
13
13
13
13
13
13
13
13
13
13
13
13
13
13
13
13
13
13
13
13
13
13
13
13
13
13
13
13
13
13
13
13
13
13
13
13
13
13
13
13
13
13
13
13
13
13
13
13
13
13
13
13
13
13
13
13
13
13
13
13
13
13
13
13
13
13
13
13
13
13
13
13
13
13
13
13
13
13
13
13
13
13
13
13
13
13
13
13
13
13
13
13
13
13
13
13
13
13
13
13
13
13
13
13
13
13
13
13
13
13
13
13
13
13
13
13
13
13
13
13
13
13
13
13
13
13
13
13
13
13
13
13
13
13
13
13
13
13
13
13
13
13
13
13
13
13
13
13
13
13
13
13
13
13
13
13
13
13
13
13
13
13
13
13
13
13
13
13
13
13
13
13
13
13
13
13
13
13
13
13
13
13
13
13
13
13
13
13
13
13
13
13
13
13
13
13
13
13
13
13
13
13
13
13
13
13
13
13
13
13
13
13
13
13
13
13
13
13
13
13
13
13
13
13
13
13
13
13
13
13
13
13
13
13
13
13
13
13
13
13
13
13
13
13
13
13
13
13
13
13
13
13
13
13
13
13
13
13
13
13
13
13
13
13
13
13
13
13
13
13
13
13
13
13
13
13
13
13
13
13
13
13
13
13
13
13
13
13
13
13
13
13
13
13
13
13
13
13
13
13
13
13
13
13
13
13
13
13
13
13
13
13
13
13
13
13
13
13
13
13
13
13
13
13
13
13
13
13
13
13
13
13
13
13
13
13
13
13
13
13
13
13
13
13
13
13
13
13
13
13
13
13
13
13
13
13
13
13
13
13
13
13
13
13
13
13
13
13

POINT_DATA 626
VECTORS displacement float
-1.74392e-06 3.09601e-05 1.80576e-05
1.7356e-06 3.09791e-05 1.81027e-05
-2.59912e-05 1.69956e-05 1.80897e-05
-2.58458e-05 1.60358e-05 1.80543e-05
-2.77256e-05 1.39756e-05 1.80717e-05
-2.77185e-05 -1.4022e-05 1.80971e-05
-2.5817e-05 -1.6074e-05 1.81085e-05
-2.59874e-05 -1.70137e-05 1.81696e-05
-1.67738e-06 -3.09638e-05 1.8054e-05
1.75541e-06 -3.09654e-05 1.81045e-05
2.59486e-05 -1.69835e-05 1.80461e-05
2.77219e-05 -1.39396e-05 1.8046e-05
2.76774e-05 1.39923e-05 1.80943e-05
2.59199e-05 1.69958e-05 1.80487e-05
0 0 0
-1.74392e-06 3.09601e-05 -1.80576e-05
1.7356e-06 3.09791e-05 -1.81027e-05
-2.59912e-05 1.69956e-05 -1.80897e-05
-2.58458e-05 1.60358e-05 -1.80543e-05
-2.77256e-05 1.39756e-05 -1.80717e-05
-2.77185e-05 -1.4022e-05 -1.80971e-05
-2.5817e-05 -1.6074e-05 -1.81085e-05
-2.59874e-05 -1.70137e-05 -1.81696e-05
-1.67738e-06 -3.09638e-05 -1.8054e-05
1.75541e-06 -3.09654e-05 -1.81045e-05
2.59486e-05 -1.69835e-05 -1.80461e-05
2.77219e-05 -1.39396e-05 -1.8046e-05
2.76774e-05 1.39923e-05 -1.80943e-05
2.59199e-05 1.69958e-05 -1.80487e-05
0 0 0
2.48702e-08 3.01599e-05 1.80368e-05
-2.11454e-05 1.87157e-05 1.75526e-05
-1.72367e-05 1.98379e-05 1.6924e-05
-1.40103e-05 2.1059e-05 1.65583e-05
-1.12093e-05 2.26701e-05 1.65522e-05
-8.52557e-06 2.48385e-05 1.69046e-05
-5.56836e-06 2.76275e-05 1.75403e-05
-2.64547e-05 1.46819e-05 1.80361e-05
-2.6774e-05 -9.01396e-06 1.75803e-05
-2.58119e-05 -5.03704e-06 1.69292e-05
-2.52603e-05 -1.63674e-06 1.65748e-05
-2.52632e-05 1.60837e-06 1.65777e-05
-2.58041e-05 5.02442e-06 1.69274e-05
-2.67602e-05 8.98703e-06 1.75668e-05
-2.64416e-05 -1.47283e-05 1.80649e-05
-5.54162e-06 -2.7642e-05 1.75326e-05
-8.47809e-06 -2.48475e-05 1.69039e-05
-1.11725e-05 -2.26896e-05 1.65595e-05
-1.3974e-05 -2.1092e-05 1.65629e-05
-1.72191e-05 -1.98733e-05 1.69399e-05
-2.11389e-05 -1.87525e-05 1.75651e-05
8.98079e-08 -3.01447e-05 1.8032e-05
2.11288e-05 -1.86282e-05 1.75144e-05
1.72489e-05 -1.97663e-05 1.68761e-05
1.40372e-05 -2.1016e-05 1.6515e-05
1.12275e-05 -2.25983e-05 1.65495e-05
8.5827e-06 -2.47858e-05 1.68774e-05
5.6552e-06 -2.76322e-05 1.75379e-05
2.61294e-05 -1.50625e-05 1.8031e-05
2.67221e-05 8.94086e-06 1.75044e-05
2.57277e-05 5.05116e-06 1.69116e-05
2.52124e-05 1.62386e-06 1.65266e-05
2.52095e-05 -1.59996e-06 1.65249e-05
2.57563e-05 -4.99894e-06 1.68915e-05
2.67042e-05 -8.9196e-06 1.75126e-05
2.61124e-05 1.50636e-05 1.8028e-05
5.63365e-06 2.76236e-05 1.75125e-05
8.51008e-06 2.48125e-05 1.69144e-05
1.12195e-05 2.26463e-05 1.65328e-05
1.40079e-05 2.10269e-05 1.65281e-05
1.72259e-05 1.97976e-05 1.68883e-05
2.11197e-05 1.86378e-05 1.75283e-05
0 0 0
0 0 0
0 0 0
0 0 0
0 0 0
0 0 0
2.48702e-08 3.01599e-05 -1.80368e-05
-2.11454e-05 1.87157e-05 -1.75526e-05
-1.72367e-05 1.98379e-05 -1.6924e-05
-1.40103e-05 2.1059e-05 -1.65583e-05
-1.12093e-05 2.26701e-05 -1.65522e-05
-8.52557e-06 2.48385e-05 -1.69046e-05
-5.56836e-06 2.76275e-05 -1.75403e-05
-2.64547e-05 1.46819e-05 -1.80361e-05
-2.6774e-05 -9.01396e-06 -1.75803e-05
-2.58119e-05 -5.03704e-06 -1.69292e-05
-2.52603e-05 -1.63674e-06 -1.65748e-05
-2.52632e-05 1.60837e-06 -1.65777e-05
-2.58041e-05 5.02442e-06 -1.69274e-05
-2.67602e-05 8.98703e-06 -1.75668e-05
-2.64416e-05 -1.47283e-05 -1.80649e-05
-5.54162e-06 -2.7642e-05 -1.75326e-05
-8.47809e-06 -2.48475e-05 -1.69039e-05
-1.11725e-05 -2.26896e-05 -1.65595e-05
-1.3974e-05 -2.1092e-05 -1.65629e-05
-1.72191e-05 -1.98733e-05 -1.69399e-05
-2.11389e-05 -1.87525e-05 -1.75651e-05
8.98079e-08 -3.01447e-05 -1.8032e-05
2.11288e-05 -1.86282e-05 -1.75144e-05
1.72489e-05 -1.97663e-05 -1.68761e-05
1.40372e-05 -2.1016e-05 -1.6515e-05
1.12275e-05 -2.25983e-05 -1.65495e-05
8.5827e-06 -2.47858e-05 -1.68774e-05
5.6552e-06 -2.76322e-05 -1.75379e-05
2.61294e-05 -1.50625e-05 -1.8031e-05
2.67221e-05 8.94086e-06 -1.75044e-05
2.57277e-05 5.05116e-06 -1.69116e-05
2.52124e-05 1.62386e-06 -1.65266e-05
2.52095e-05 -1.59996e-06 -1.65249e-05
2.57563e-05 -4.99894e-06 -1.68915e-05
2.67042e-05 -8.9196e-06 -1.75126e-05
2.61124e-05 1.50636e-05 -1.8028e-05
5.63365e-06 2.76236e-05 -1.75125e-05
8.51008e-06 2.48125e-05 -1.69144e-05
1.12195e-05 2.26463e-05 -1.65328e-05
1.40079e-05 2.10269e-05 -1.65281e-05
1.72259e-05 1.97976e-05 -1.68883e-05
2.11197e-05 1.86378e-05 -1.75283e-05
0 0 0
0 0 0
0 0 0
0 0 0
0 0 0
0 0 0
1.79399e-06 8.58893e-07 4.55329e-06
1.73811e-06 -8.25255e-07 4.46182e-06
4.32027e-07 1.84994e-06 4.49614e-06
4.36172e-07 -1.78093e-06 4.35707e-06
-1.8478e-06 2.09678e-08 4.42336e-06
-1.12328e-06 -1.30909e-06 4.15194e-06
-1.1594e-06 1.30702e-06 4.20073e-06
-2.25179e-05 -7.28948e-06 1.7003e-05
-2.22012e-05 7.37337e-06 1.69717e-05
-4.86132e-06 2.29036e-05 1.69401e-05
-4.85882e-06 -2.31367e-05 1.6967e-05
1.74252e-05 1.56388e-05 1.69329e-05
1.75728e-05 -1.55397e-05 1.69422e-05
2.10784e-05 3.16471e-06 1.63277e-05
-1.39564e-05 1.71551e-05 1.64817e-05
-1.35944e-05 -1.6745e-05 1.64132e-05
7.76953e-06 1.98241e-05 1.63345e-05
7.6865e-06 -2.03147e-05 1.64058e-05
2.14772e-05 -3.44465e-06 1.64035e-05
-2.11076e-05 6.58827e-09 1.625e-05
-2.2425e-05 1.10021e-05 1.74565e-05
-1.8755e-05 9.25677e-06 1.66301e-05
-1.79868e-05 5.79681e-06 1.60395e-05
-1.49874e-05 7.45003e-06 1.54895e-05
-1.42277e-05 4.30871e-06 1.48329e-05
-1.15352e-05 5.74519e-06 1.40978e-05
-1.08605e-05 3.06943e-06 1.33765e-05
-8.40237e-06 4.30583e-06 1.24071e-05
-9.06087e-06 7.015e-06 1.34593e-05
-6.20548e-06 5.48972e-06 1.16916e-05
-6.82986e-06 8.25131e-06 1.30829e-05
-4.28234e-06 6.67637e-06 1.14531e-05
-4.80111e-06 9.61211e-06 1.30968e-05
-2.40141e-06 7.99511e-06 1.17256e-05
-2.8135e-06 1.11698e-05 1.34779e-05
-4.75523e-07 9.59744e-06 1.25038e-05
-7.38531e-07 1.29999e-05 1.41448e-05
1.73147e-06 1.15204e-05 1.3538e-05
-5.53598e-06 1.27033e-05 1.44401e-05
1.68545e-06 8.2258e-06 1.17502e-05
4.00509e-06 1.01232e-05 1.31539e-05
3.70616e-06 7.09952e-06 1.14808e-05
6.06878e-06 8.96872e-06 1.31163e-05
5.76809e-06 6.10815e-06 1.17382e-05
8.35999e-06 8.02216e-06 1.3495e-05
8.10747e-06 5.19644e-06 1.25032e-05
1.09565e-05 7.09868e-06 1.415e-05
1.07484e-05 4.32379e-06 1.35021e-05
8.5325e-06 1.104e-05 1.44639e-05
7.93945e-06 2.64433e-06 1.17301e-05
1.06484e-05 1.7376e-06 1.3107e-05
7.95044e-06 3.5884e-07 1.14582e-05
1.08089e-05 -7.59286e-07 1.31271e-05
8.11344e-06 -1.93823e-06 1.17118e-05
1.11008e-05 -3.31361e-06 1.34869e-05
8.47164e-06 -4.42498e-06 1.24469e-05
1.15063e-05 -6.00426e-06 1.41125e-05
8.95761e-06 -7.13974e-06 1.3431e-05
6.14888e-06 -5.49563e-06 1.16439e-05
6.64601e-06 -8.30276e-06 1.30212e-05
4.1061e-06 -6.58996e-06 1.13135e-05
4.52438e-06 -9.55305e-06 1.29912e-05
2.24279e-06 -7.86003e-06 1.16e-05
2.4854e-06 -1.10044e-05 1.33539e-05
2.25336e-07 -9.37579e-06 1.23564e-05
3.3008e-07 -1.27727e-05 1.40369e-05
-1.91588e-06 -1.11532e-05 1.338e-05
-1.84148e-06 -7.92337e-06 1.15848e-05
-4.16886e-06 -9.8771e-06 1.3088e-05
-3.81478e-06 -6.73198e-06 1.13197e-05
-6.34708e-06 -8.664e-06 1.31023e-05
-5.89261e-06 -5.69927e-06 1.16311e-05
-8.50167e-06 -7.43749e-06 1.33827e-05
-8.16938e-06 -4.72912e-06 1.24114e-05
-1.10982e-05 -6.40423e-06 1.4073e-05
-4.37267e-06 -1.31262e-05 1.44368e-05
-1.08113e-05 -3.65151e-06 1.34422e-05
7.2278e-06 -1.13754e-05 1.42761e-05
-7.74341e-06 1.98312e-06 1.14955e-05
-1.32192e-05 1.0353e-06 1.42141e-05
1.7295e-06 1.50863e-05 1.49554e-05
1.37713e-05 4.62349e-07 1.4391e-05
1.38464e-05 6.10152e-06 1.49349e-05
-9.69632e-06 1.01986e-05 1.45357e-05
-5.41717e-06 -3.19834e-06 1.01845e-05
-1.17163e-05 -9.29947e-06 1.48924e-05
1.18851e-05 -8.76224e-06 1.47903e-05
1.47852e-05 -7.47534e-06 1.54066e-05
-1.3963e-05 -5.24511e-06 1.48649e-05
2.79645e-06 -1.45195e-05 1.47994e-05
4.24643e-07 -1.65032e-05 1.5401e-05
3.51918e-06 4.39787e-06 9.58337e-06
1.40138e-05 9.3012e-06 1.54948e-05
1.79348e-05 8.14685e-06 1.63038e-05
-1.5679e-05 1.13979e-05 1.62367e-05
-1.09434e-06 1.6773e-05 1.54985e-05
1.90724e-06 1.96261e-05 1.63142e-05
-2.09232e-06 5.22118e-06 9.59986e-06
5.55512e-06 -7.84769e-07 9.59641e-06
3.5867e-06 -3.68433e-06 9.08412e-06
-1.78002e-06 -5.17967e-06 9.45184e-06
-2.24735e-05 -1.10132e-05 1.74772e-05
-1.88023e-05 -9.24351e-06 1.66542e-05
2.11524e-05 1.41677e-05 1.75085e-05
2.07582e-05 -1.43205e-05 1.74385e-05
-1.76485e-06 -2.54519e-05 1.75138e-05
-1.68236e-06 2.54159e-05 1.75185e-05
1.7717e-05 -1.19095e-05 1.66903e-05
2.06502e-05 -1.07535e-05 1.7119e-05
3.77644e-06 -1.89895e-05 1.61427e-05
7.68661e-07 -2.03504e-05 1.6486e-05
-1.94093e-05 -1.26532e-05 1.71461e-05
-1.37343e-05 -2.30747e-06 1.44751e-05
-1.65966e-05 -3.70231e-06 1.54809e-05
-1.03782e-05 -1.09664e-06 1.29551e-05
2.4457e-05 1.10753e-05 1.76545e-05
2.55025e-05 -1.24059e-05 1.78509e-05
2.64951e-06 2.67315e-05 1.76633e-05
2.52125e-06 -2.64191e-05 1.76322e-05
3.34002e-06 -2.3037e-05 1.70322e-05
-2.05435e-06 -1.83241e-05 1.59541e-05
4.05971e-06 2.37966e-05 1.71334e-05
2.2619e-05 8.38129e-06 1.71223e-05
4.61462e-06 1.73174e-05 1.57306e-05
1.44303e-05 -1.31224e-05 1.61406e-05
-1.57913e-05 -1.09872e-05 1.62177e-05
-1.68037e-05 -3.81523e-07 1.53807e-05
1.73099e-05 4.6886e-06 1.5729e-05
6.55323e-08 -6.38868e-06 1.02698e-05
1.74207e-06 -4.84946e-06 9.09463e-06
5.85171e-06 -2.93614e-06 1.03806e-05
-2.14491e-05 3.75148e-06 1.64621e-05
5.73066e-06 -1.62783e-05 1.5511e-05
9.08555e-06 -1.75031e-05 1.60009e-05
1.75761e-05 1.18843e-05 1.66754e-05
1.39975e-05 -1.63859e-05 1.64045e-05
1.07425e-05 -1.37922e-05 1.55535e-05
-3.54871e-06 -4.22107e-06 9.503e-06
5.40024e-06 1.13873e-06 9.50129e-06
5.21915e-06 3.22356e-06 1.00496e-05
-1.74992e-06 -2.83601e-05 1.78796e-05
1.89245e-06 5.3e-06 9.5867e-06
-1.13851e-07 6.1063e-06 1.00411e-05
-3.78571e-06 4.1286e-06 9.58065e-06
-5.62388e-06 3.03483e-06 1.02877e-05
-5.16654e-06 1.04089e-06 9.21577e-06
-7.52888e-06 -6.17532e-08 1.1175e-05
-4.33524e-06 -8.10438e-07 8.38381e-06
-3.10919e-06 1.8727e-06 7.37577e-06
-2.20861e-05 -3.60872e-06 1.65191e-05
2.34109e-05 -1.56908e-05 1.78388e-05
-1.5075e-06 2.11726e-05 1.66851e-05
2.12666e-05 -8.45421e-08 1.62291e-05
1.76262e-05 -1.6472e-06 1.55848e-05
1.73517e-05 -4.94284e-06 1.5774e-05
2.18963e-05 -7.45292e-06 1.69167e-05
-2.31868e-05 -1.42573e-05 1.78354e-05
1.73286e-05 1.64927e-06 1.55119e-05
-1.73413e-06 2.84786e-05 1.78968e-05
-4.22154e-07 3.68413e-06 7.49704e-06
2.37767e-05 1.57452e-05 1.78872e-05
-1.75013e-05 1.56455e-05 1.6978e-05
-1.06287e-05 -1.84704e-05 1.62584e-05
-1.01019e-05 -1.43456e-05 1.5575e-05
-7.50951e-06 -1.60986e-05 1.56254e-05
-7.32372e-06 -2.01251e-05 1.63986e-05
-1.07069e-05 1.85395e-05 1.62702e-05
-1.03498e-05 1.43874e-05 1.56227e-05
-7.77431e-06 2.04971e-05 1.64475e-05
-4.25391e-06 1.86139e-05 1.60562e-05
1.07622e-05 1.83497e-05 1.62296e-05
1.38949e-05 1.69387e-05 1.64343e-05
1.40452e-05 1.29758e-05 1.60545e-05
-7.36328e-06 1.62921e-05 1.56419e-05
1.05276e-05 1.45504e-05 1.56486e-05
7.75053e-06 1.60961e-05 1.56173e-05
-3.11707e-06 -1.89913e-06 7.3949e-06
-7.25934e-06 -1.24249e-05 1.46284e-05
3.00922e-06 4.0368e-08 6.60251e-06
4.87369e-06 1.35259e-05 1.46214e-05
1.40793e-05 -2.26092e-06 1.45737e-05
-1.72937e-05 -1.52199e-05 1.69486e-05
-1.73705e-05 2.42088e-06 1.56012e-05
-1.22075e-05 8.91397e-06 1.49467e-05
-7.70733e-06 -2.29302e-06 1.15574e-05
-1.24527e-05 1.18153e-05 1.55433e-05
-1.42765e-07 -3.75496e-06 7.55594e-06
2.73076e-06 2.27252e-06 7.25362e-06
-2.00433e-06 -1.46539e-05 1.48113e-05
9.36726e-06 -1.00706e-05 1.43926e-05
1.3864e-05 3.15856e-06 1.45694e-05
-7.34175e-06 1.1202e-05 1.42635e-05
4.99837e-06 -1.27778e-05 1.43725e-05
1.10344e-05 1.04329e-05 1.49229e-05
-3.59728e-06 1.46887e-05 1.49113e-05
-4.63653e-06 -1.66207e-05 1.55521e-05
-1.95113e-05 1.28951e-05 1.71643e-05
-2.31316e-05 1.4861e-05 1.78462e-05
-1.29079e-05 -1.2689e-05 1.58158e-05
3.76155e-06 -1.58644e-06 7.90881e-06
1.76473e-06 2.92285e-06 7.08609e-06
-9.23264e-06 -1.06119e-05 1.45351e-05
1.72807e-06 -2.8237e-06 6.93269e-06
9.94861e-07 2.4122e-05 1.73114e-05
2.13725e-05 1.11963e-05 1.73016e-05
-1.4668e-05 -7.95521e-06 1.54886e-05
1.37112e-05 -4.78744e-06 1.46939e-05
-1.91026e-06 -2.17678e-05 1.68059e-05
1.80645e-05 -8.42101e-06 1.63439e-05
-1.66827e-05 -6.33005e-06 1.57857e-05
-4.32979e-07 -1.92267e-06 4.79958e-06
-1.80572e-06 2.99602e-06 7.17886e-06
-2.50569e-05 -1.29845e-05 1.7925e-05
-2.5132e-05 -1.45101e-05 1.80048e-05
-2.50501e-05 1.30364e-05 1.79088e-05
-2.51229e-05 1.46528e-05 1.79848e-05
-1.64878e-06 -3.12545e-06 7.2116e-06
6.32942e-06 1.1371e-05 1.40798e-05
5.3377e-07 -2.40913e-05 1.73052e-05
-5.22873e-07 1.80987e-06 4.64608e-06
7.4092e-06 -1.43471e-05 1.51558e-05
2.33076e-05 -1.32121e-05 1.77316e-05
2.36376e-05 -1.054e-05 1.74938e-05
1.19913e-05 -1.82152e-05 1.62967e-05
1.47335e-05 -1.0149e-05 1.57989e-05
-1.00294e-05 1.00147e-06 1.27576e-05
-1.74032e-06 -8.16048e-07 4.72454e-06
7.69215e-07 3.70909e-06 7.57493e-06
2.34352e-06 -1.99754e-06 6.55683e-06
2.01611e-05 5.89928e-06 1.64569e-05
5.07112e-06 2.06007e-05 1.64993e-05
3.42127e-07 -2.76856e-05 1.78568e-05
-1.73154e-06 7.09237e-07 4.60738e-06
-3.21213e-06 6.23167e-07 6.82574e-06
3.57792e-06 1.47571e-06 7.63843e-06
4.99245e-07 2.83294e-05 1.793e-05
2.47652e-05 1.37369e-05 1.79212e-05
-2.03328e-05 1.55389e-05 1.7432e-05
1.17892e-06 1.36472e-06 4.46088e-06
-2.06442e-05 -1.57315e-05 1.75305e-05
-1.90034e-05 -2.32277e-06 1.59496e-05
-1.95636e-05 -5.58636e-06 1.63356e-05
9.05857e-07 -3.24839e-06 7.00775e-06
-4.36696e-06 -1.97939e-05 1.63252e-05
-7.93917e-06 1.38377e-05 1.51045e-05
1.16596e-06 -1.30442e-06 4.3403e-06
1.19372e-05 -1.1231e-05 1.52955e-05
6.1342e-06 -2.27013e-05 1.68237e-05
-1.45256e-05 1.43586e-05 1.6327e-05
7.93095e-06 1.33244e-05 1.49514e-05
1.79399e-06 8.58893e-07 -4.55329e-06
1.73811e-06 -8.25255e-07 -4.46182e-06
4.32027e-07 1.84994e-06 -4.49614e-06
4.36172e-07 -1.78093e-06 -4.35707e-06
-1.8478e-06 2.09678e-08 -4.42336e-06
-1.12328e-06 -1.30909e-06 -4.15194e-06
-1.1594e-06 1.30702e-06 -4.20073e-06
-2.25179e-05 -7.28948e-06 -1.7003e-05
-2.22012e-05 7.37337e-06 -1.69717e-05
-4.86132e-06 2.29036e-05 -1.69401e-05
-4.85882e-06 -2.31367e-05 -1.6967e-05
1.74252e-05 1.56388e-05 -1.69329e-05
1.75728e-05 -1.55397e-05 -1.69422e-05
2.10784e-05 3.16471e-06 -1.63277e-05
-1.39564e-05 1.71551e-05 -1.64817e-05
-1.35944e-05 -1.6745e-05 -1.64132e-05
7.76953e-06 1.98241e-05 -1.63345e-05
7.6865e-06 -2.03147e-05 -1.64058e-05
2.14772e-05 -3.44465e-06 -1.64035e-05
-2.11076e-05 6.58827e-09 -1.625e-05
-2.2425e-05 1.10021e-05 -1.74565e-05
-1.8755e-05 9.25677e-06 -1.66301e-05
-1.79868e-05 5.79681e-06 -1.60395e-05
-1.49874e-05 7.45003e-06 -1.54895e-05
-1.42277e-05 4.30871e-06 -1.48329e-05
-1.15352e-05 5.74519e-06 -1.40978e-05
-1.08605e-05 3.06943e-06 -1.33765e-05
-8.40237e-06 4.30583e-06 -1.24071e-05
-9.06087e-06 7.015e-06 -1.34593e-05
-6.20548e-06 5.48972e-06 -1.16916e-05
-6.82986e-06 8.25131e-06 -1.30829e-05
-4.28234e-06 6.67637e-06 -1.14531e-05
-4.80111e-06 9.61211e-06 -1.30968e-05
-2.40141e-06 7.99511e-06 -1.17256e-05
-2.8135e-06 1.11698e-05 -1.34779e-05
-4.75523e-07 9.59744e-06 -1.25038e-05
-7.38531e-07 1.29999e-05 -1.41448e-05
1.73147e-06 1.15204e-05 -1.3538e-05
-5.53598e-06 1.27033e-05 -1.44401e-05
1.68545e-06 8.2258e-06 -1.17502e-05
4.00509e-06 1.01232e-05 -1.31539e-05
3.70616e-06 7.09952e-06 -1.14808e-05
6.06878e-06 8.96872e-06 -1.31163e-05
5.76809e-06 6.10815e-06 -1.17382e-05
8.35999e-06 8.02216e-06 -1.3495e-05
8.10747e-06 5.19644e-06 -1.25032e-05
1.09565e-05 7.09868e-06 -1.415e-05
1.07484e-05 4.32379e-06 -1.35021e-05
8.5325e-06 1.104e-05 -1.44639e-05
7.93945e-06 2.64433e-06 -1.17301e-05
1.06484e-05 1.7376e-06 -1.3107e-05
7.95044e-06 3.5884e-07 -1.14582e-05
1.08089e-05 -7.59286e-07 -1.31271e-05
8.11344e-06 -1.93823e-06 -1.17118e-05
1.11008e-05 -3.31361e-06 -1.34869e-05
8.47164e-06 -4.42498e-06 -1.24469e-05
1.15063e-05 -6.00426e-06 -1.41125e-05
8.95761e-06 -7.13974e-06 -1.3431e-05
6.14888e-06 -5.49563e-06 -1.16439e-05
6.64601e-06 -8.30276e-06 -1.30212e-05
4.1061e-06 -6.58996e-06 -1.13135e-05
4.52438e-06 -9.55305e-06 -1.29912e-05
2.24279e-06 -7.86003e-06 -1.16e-05
2.4854e-06 -1.10044e-05 -1.33539e-05
2.25336e-07 -9.37579e-06 -1.23564e-05
3.3008e-07 -1.27727e-05 -1.40369e-05
-1.91588e-06 -1.11532e-05 -1.338e-05
-1.84148e-06 -7.92337e-06 -1.15848e-05
-4.16886e-06 -9.8771e-06 -1.3088e-05
-3.81478e-06 -6.73198e-06 -1.13197e-05
-6.34708e-06 -8.664e-06 -1.31023e-05
-5.89261e-06 -5.69927e-06 -1.16311e-05
-8.50167e-06 -7.43749e-06 -1.33827e-05
-8.16938e-06 -4.72912e-06 -1.24114e-05
-1.10982e-05 -6.40423e-06 -1.4073e-05
-4.37267e-06 -1.31262e-05 -1.44368e-05
-1.08113e-05 -3.65151e-06 -1.34422e-05
7.2278e-06 -1.13754e-05 -1.42761e-05
-7.74341e-06 1.98312e-06 -1.14955e-05
-1.32192e-05 1.0353e-06 -1.42141e-05
1.7295e-06 1.50863e-05 -1.49554e-05
1.37713e-05 4.62349e-07 -1.4391e-05
1.38464e-05 6.10152e-06 -1.49349e-05
-9.69632e-06 1.01986e-05 -1.45357e-05
-5.41717e-06 -3.19834e-06 -1.01845e-05
-1.17163e-05 -9.29947e-06 -1.48924e-05
1.18851e-05 -8.76224e-06 -1.47903e-05
1.47852e-05 -7.47534e-06 -1.54066e-05
-1.3963e-05 -5.24511e-06 -1.48649e-05
2.79645e-06 -1.45195e-05 -1.47994e-05
4.24643e-07 -1.65032e-05 -1.5401e-05
3.51918e-06 4.39787e-06 -9.58337e-06
1.40138e-05 9.3012e-06 -1.54948e-05
1.79348e-05 8.14685e-06 -1.63038e-05
-1.5679e-05 1.13979e-05 -1.62367e-05
-1.09434e-06 1.6773e-05 -1.54985e-05
1.90724e-06 1.96261e-05 -1.63142e-05
-2.09232e-06 5.22118e-06 -9.59986e-06
5.55512e-06 -7.84769e-07 -9.59641e-06
3.5867e-06 -3.68433e-06 -9.08412e-06
-1.78002e-06 -5.17967e-06 -9.45184e-06
-2.24735e-05 -1.10132e-05 -1.74772e-05
-1.88023e-05 -9.24351e-06 -1.66542e-05
2.11524e-05 1.41677e-05 -1.75085e-05
2.07582e-05 -1.43205e-05 -1.74385e-05
-1.76485e-06 -2.54519e-05 -1.75138e-05
-1.68236e-06 2.54159e-05 -1.75185e-05
1.7717e-05 -1.19095e-05 -1.66903e-05
2.06502e-05 -1.07535e-05 -1.7119e-05
3.77644e-06 -1.89895e-05 -1.61427e-05
7.68661e-07 -2.03504e-05 -1.6486e-05
-1.94093e-05 -1.26532e-05 -1.71461e-05
-1.37343e-05 -2.30747e-06 -1.44751e-05
-1.65966e-05 -3.70231e-06 -1.54809e-05
-1.03782e-05 -1.09664e-06 -1.29551e-05
2.4457e-05 1.10753e-05 -1.76545e-05
2.55025e-05 -1.24059e-05 -1.78509e-05
2.64951e-06 2.67315e-05 -1.76633e-05
2.52125e-06 -2.64191e-05 -1.76322e-05
3.34002e-06 -2.3037e-05 -1.70322e-05
-2.05435e-06 -1.83241e-05 -1.59541e-05
4.05971e-06 2.37966e-05 -1.71334e-05
2.2619e-05 8.38129e-06 -1.71223e-05
4.61462e-06 1.73174e-05 -1.57306e-05
1.44303e-05 -1.31224e-05 -1.61406e-05
-1.57913e-05 -1.09872e-05 -1.62177e-05
-1.68037e-05 -3.81523e-07 -1.53807e-05
1.73099e-05 4.6886e-06 -1.5729e-05
6.55323e-08 -6.38868e-06 -1.02698e-05
1.74207e-06 -4.84946e-06 -9.09463e-06
5.85171e-06 -2.93614e-06 -1.03806e-05
-2.14491e-05 3.75148e-06 -1.64621e-05
5.73066e-06 -1.62783e-05 -1.5511e-05
9.08555e-06 -1.75031e-05 -1.60009e-05
1.75761e-05 1.18843e-05 -1.66754e-05
1.39975e-05 -1.63859e-05 -1.64045e-05
1.07425e-05 -1.37922e-05 -1.55535e-05
-3.54871e-06 -4.22107e-06 -9.503e-06
5.40024e-06 1.13873e-06 -9.50129e-06
5.21915e-06 3.22356e-06 -1.00496e-05
-1.74992e-06 -2.83601e-05 -1.78796e-05
1.89245e-06 5.3e-06 -9.5867e-06
-1.13851e-07 6.1063e-06 -1.00411e-05
-3.78571e-06 4.1286e-06 -9.58065e-06
-5.62388e-06 3.03483e-06 -1.02877e-05
-5.16654e-06 1.04089e-06 -9.21577e-06
-7.52888e-06 -6.17532e-08 -1.1175e-05
-4.33524e-06 -8.10438e-07 -8.38381e-06
-3.10919e-06 1.8727e-06 -7.37577e-06
-2.20861e-05 -3.60872e-06 -1.65191e-05
2.34109e-05 -1.56908e-05 -1.78388e-05
-1.5075e-06 2.11726e-05 -1.66851e-05
2.12666e-05 -8.45421e-08 -1.62291e-05
1.76262e-05 -1.6472e-06 -1.55848e-05
1.73517e-05 -4.94284e-06 -1.5774e-05
2.18963e-05 -7.45292e-06 -1.69167e-05
-2.31868e-05 -1.42573e-05 -1.78354e-05
1.73286e-05 1.64927e-06 -1.55119e-05
-1.73413e-06 2.84786e-05 -1.78968e-05
-4.22154e-07 3.68413e-06 -7.49704e-06
2.37767e-05 1.57452e-05 -1.78872e-05
-1.75013e-05 1.56455e-05 -1.6978e-05
-1.06287e-05 -1.84704e-05 -1.62584e-05
-1.01019e-05 -1.43456e-05 -1.5575e-05
-7.50951e-06 -1.60986e-05 -1.56254e-05
-7.32372e-06 -2.01251e-05 -1.63986e-05
-1.07069e-05 1.85395e-05 -1.62702e-05
-1.03498e-05 1.43874e-05 -1.56227e-05
-7.77431e-06 2.04971e-05 -1.64475e-05
-4.25391e-06 1.86139e-05 -1.60562e-05
1.07622e-05 1.83497e-05 -1.62296e-05
1.38949e-05 1.69387e-05 -1.64343e-05
1.40452e-05 1.29758e-05 -1.60545e-05
-7.36328e-06 1.62921e-05 -1.56419e-05
1.05276e-05 1.45504e-05 -1.56486e-05
7.75053e-06 1.60961e-05 -1.56173e-05
-3.11707e-06 -1.89913e-06 -7.3949e-06
-7.25934e-06 -1.24249e-05 -1.46284e-05
3.00922e-06 4.0368e-08 -6.60251e-06
4.87369e-06 1.35259e-05 -1.46214e-05
1.40793e-05 -2.26092e-06 -1.45737e-05
-1.72937e-05 -1.52199e-05 -1.69486e-05
-1.73705e-05 2.42088e-06 -1.56012e-05
-1.22075e-05 8.91397e-06 -1.49467e-05
-7.70733e-06 -2.29302e-06 -1.15574e-05
-1.24527e-05 1.18153e-05 -1.55433e-05
-1.42765e-07 -3.75496e-06 -7.55594e-06
2.73076e-06 2.27252e-06 -7.25362e-06
-2.00433e-06 -1.46539e-05 -1.48113e-05
9.36726e-06 -1.00706e-05 -1.43926e-05
1.3864e-05 3.15856e-06 -1.45694e-05
-7.34175e-06 1.1202e-05 -1.42635e-05
4.99837e-06 -1.27778e-05 -1.43725e-05
1.10344e-05 1.04329e-05 -1.49229e-05
-3.59728e-06 1.46887e-05 -1.49113e-05
-4.63653e-06 -1.66207e-05 -1.55521e-05
-1.95113e-05 1.28951e-05 -1.71643e-05
-2.31316e-05 1.4861e-05 -1.78462e-05
-1.29079e-05 -1.2689e-05 -1.58158e-05
3.76155e-06 -1.58644e-06 -7.90881e-06
1.76473e-06 2.92285e-06 -7.08609e-06
-9.23264e-06 -1.06119e-05 -1.45351e-05
1.72807e-06 -2.8237e-06 -6.93269e-06
9.94861e-07 2.4122e-05 -1.73114e-05
2.13725e-05 1.11963e-05 -1.73016e-05
-1.4668e-05 -7.95521e-06 -1.54886e-05
1.37112e-05 -4.78744e-06 -1.46939e-05
-1.91026e-06 -2.17678e-05 -1.68059e-05
1.80645e-05 -8.42101e-06 -1.63439e-05
-1.66827e-05 -6.33005e-06 -1.57857e-05
-4.32979e-07 -1.92267e-06 -4.79958e-06
-1.80572e-06 2.99602e-06 -7.17886e-06
-2.50569e-05 -1.29845e-05 -1.7925e-05
-2.5132e-05 -1.45101e-05 -1.80048e-05
-2.50501e-05 1.30364e-05 -1.79088e-05
-2.51229e-05 1.46528e-05 -1.79848e-05
-1.64878e-06 -3.12545e-06 -7.2116e-06
6.32942e-06 1.1371e-05 -1.40798e-05
5.3377e-07 -2.40913e-05 -1.73052e-05
-5.22873e-07 1.80987e-06 -4.64608e-06
7.4092e-06 -1.43471e-05 -1.51558e-05
2.33076e-05 -1.32121e-05 -1.77316e-05
2.36376e-05 -1.054e-05 -1.74938e-05
1.19913e-05 -1.82152e-05 -1.62967e-05
1.47335e-05 -1.0149e-05 -1.57989e-05
-1.00294e-05 1.00147e-06 -1.27576e-05
-1.74032e-06 -8.16048e-07 -4.72454e-06
7.69215e-07 3.70909e-06 -7.57493e-06
2.34352e-06 -1.99754e-06 -6.55683e-06
2.01611e-05 5.89928e-06 -1.64569e-05
5.07112e-06 2.06007e-05 -1.64993e-05
3.42127e-07 -2.76856e-05 -1.78568e-05
-1.73154e-06 7.09237e-07 -4.60738e-06
-3.21213e-06 6.23167e-07 -6.82574e-06
3.57792e-06 1.47571e-06 -7.63843e-06
4.99245e-07 2.83294e-05 -1.793e-05
2.47652e-05 1.37369e-05 -1.79212e-05
-2.03328e-05 1.55389e-05 -1.7432e-05
1.17892e-06 1.36472e-06 -4.46088e-06
-2.06442e-05 -1.57315e-05 -1.75305e-05
-1.90034e-05 -2.32277e-06 -1.59496e-05
-1.95636e-05 -5.58636e-06 -1.63356e-05
9.05857e-07 -3.24839e-06 -7.00775e-06
-4.36696e-06 -1.97939e-05 -1.63252e-05
-7.93917e-06 1.38377e-05 -1.51045e-05
1.16596e-06 -1.30442e-06 -4.3403e-06
1.19372e-05 -1.1231e-05 -1.52955e-05
6.1342e-06 -2.27013e-05 -1.68237e-05
-1.45256e-05 1.43586e-05 -1.6327e-05
7.93095e-06 1.33244e-05 -1.49514e-05
SCALARS effective_fluid_pressure_TPM float
LOOKUP_TABLE default
665
665
665
665
665
665
665
665
665
665
665
665
665
665
133
665
665
665
665
665
665
665
665
665
665
665
665
665
665
133
665
560.386
520.755
502.906
502.677
519.882
560.007
665
562.052
520.85
503.349
503.458
520.782
561.674
665
559.674
519.753
502.851
503.069
521.25
561.69
665
558.93
519.098
501.64
502.336
518.947
559.519
665
558.571
520.037
501.972
501.904
519.47
558.01
665
558.727
520.051
502.145
502.006
519.458
559.733
133
133
133
133
133
133
665
560.386
520.755
502.906
502.677
519.882
560.007
665
562.052
520.85
503.349
503.458
520.782
561.674
665
559.674
519.753
502.851
503.069
521.25
561.69
665
558.93
519.098
501.64
502.336
518.947
559.519
665
558.571
520.037
501.972
501.904
519.47
558.01
665
558.727
520.051
502.145
502.006
519.458
559.733
133
133
133
133
133
133
228.293
226.363
227.076
224.143
225.559
219.879
220.896
529.248
528.258
526.638
528.017
526.666
527.718
498.801
503.646
501.685
499.042
501.557
501.339
494.424
562.565
519.064
495.121
480.828
461.451
443.37
425.137
402.206
427.361
385.348
417.828
379.694
417.992
386.033
427.478
404.385
444.474
429.167
450.353
386.643
419.392
380.289
418.404
386.273
427.852
404.313
444.584
428.251
450.949
386.118
418.255
379.705
418.611
385.641
427.688
403.006
443.647
426.543
384.134
416.227
376.388
415.435
383.106
424.509
400.931
441.796
425.316
382.842
417.868
376.652
418.185
383.927
425.356
402.298
442.768
450.742
426.816
446.101
380.814
444.767
465.38
448.835
464.854
453.503
350.98
463.595
461.127
478.532
462.862
460.734
478.436
337.351
480.908
505.935
503.694
480.974
506.241
337.764
337.576
326.236
334.488
563.44
519.739
567.639
562.428
567.956
567.809
521.887
542.788
498.71
513.815
542.133
451.545
477.662
414.745
579.573
611.062
579.726
576.089
534.628
494.56
538.3
537.997
485.121
498.197
503.411
473.226
485.169
352.826
326.486
355.256
503.527
477.802
488.447
520.956
502.11
478.001
335.614
335.478
347.777
613.478
337.452
347.648
337.339
353.282
329.26
373.339
310.725
288.845
504.793
608.417
521.177
493.809
478.414
486.438
526.572
600.381
476.651
615.93
291.455
615.829
528.799
494.62
478.32
479.495
501.398
494.926
479.521
502.593
495.255
493.831
502.345
495.328
479.968
480.134
479.137
289.352
454.676
271.994
455.083
453.712
527.08
479.556
465.303
382.184
480.589
292.728
286.138
461.56
449.716
454.06
445.938
448.772
463.686
463.343
480.035
543.528
601.741
487.573
300.363
282.517
453.096
279.217
552.306
552.065
480.853
458.099
526.301
508.26
488.668
233.767
284.614
614.538
636.34
615.172
636.696
285.336
441.423
553.145
230.522
467.636
590.309
566.092
495.899
490.126
410.122
232.156
293.155
271.177
507.971
509.269
607.85
229.699
277.029
294.49
618.907
618.82
558.577
226.557
562.588
488.396
503.472
280.901
504.142
466.462
224.041
473.666
519.653
503.058
462.529
228.293
226.363
227.076
224.143
225.559
219.879
220.896
529.248
528.258
526.638
528.017
526.666
527.718
498.801
503.646
501.685
499.042
501.557
501.339
494.424
562.565
519.064
495.121
480.828
461.451
443.37
425.137
402.206
427.361
385.348
417.828
379.694
417.992
386.033
427.478
404.385
444.474
429.167
450.353
386.643
419.392
380.289
418.404
386.273
427.852
404.313
444.584
428.251
450.949
386.118
418.255
379.705
418.611
385.641
427.688
403.006
443.647
426.543
384.134
416.227
376.388
415.435
383.106
424.509
400.931
441.796
425.316
382.842
417.868
376.652
418.185
383.927
425.356
402.298
442.768
450.742
426.816
446.101
380.814
444.767
465.38
448.835
464.854
453.503
350.98
463.595
461.127
478.532
462.862
460.734
478.436
337.351
480.908
505.935
503.694
480.974
506.241
337.764
337.576
326.236
334.488
563.44
519.739
567.639
562.428
567.956
567.809
521.887
542.788
498.71
513.815
542.133
451.545
477.662
414.745
579.573
611.062
579.726
576.089
534.628
494.56
538.3
537.997
485.121
498.197
503.411
473.226
485.169
352.826
326.486
355.256
503.527
477.802
488.447
520.956
502.11
478.001
335.614
335.478
347.777
613.478
337.452
347.648
337.339
353.282
329.26
373.339
310.725
288.845
504.793
608.417
521.177
493.809
478.414
486.438
526.572
600.381
476.651
615.93
291.455
615.829
528.799
494.62
478.32
479.495
501.398
494.926
479.521
502.593
495.255
493.831
502.345
495.328
479.968
480.134
479.137
289.352
454.676
271.994
455.083
453.712
527.08
479.556
465.303
382.184
480.589
292.728
286.138
461.56
449.716
454.06
445.938
448.772
463.686
463.343
480.035
543.528
601.741
487.573
300.363
282.517
453.096
279.217
552.306
552.065
480.853
458.099
526.301
508.26
488.668
233.767
284.614
614.538
636.34
615.172
636.696
285.336
441.423
553.145
230.522
467.636
590.309
566.092
495.899
490.126
410.122
232.156
293.155
271.177
507.971
509.269
607.85
229.699
277.029
294.49
618.907
618.82
558.577
226.557
562.588
488.396
503.472
280.901
504.142
466.462
224.041
473.666
519.653
503.058
462.529

CELL_DATA 563
TENSORS stress float
164.648 -24.9231 1.89478e-14
-24.9231 28.1597 1.77636e-12
1.89478e-14 1.77636e-12 -12.5944

-40.3419 -21.3218 2.43827e-12
-21.3218 -7.35523 -1.3823e-12
2.43827e-12 -1.3823e-12 -10.2384

-9.94624 28.0499 6.5666e-13
28.0499 -1.11363 1.06877e-12
6.5666e-13 1.06877e-12 -6.36847

-40.4287 -29.8421 3.59712e-14
-29.8421 -12.8455 -2.8327e-12
3.59712e-14 -2.8327e-12 -10.6047

-22.6887 19.9306 -5.84125e-13
19.9306 -1.93266 5.28762e-12
-5.84125e-13 5.28762e-12 -23.0175

-27.1491 -18.0791 5.08926e-13
-18.0791 15.888 2.38742e-12
5.08926e-13 2.38742e-12 -6.4193

161.299 26.4877 -1.61056e-12
26.4877 28.0362 8.69231e-13
-1.61056e-12 8.69231e-13 -13.2535

-5.96583 29.962 -1.9913e-12
29.962 -10.1153 2.6669e-12
-1.9913e-12 2.6669e-12 -7.2834

34.6357 5.48436 -2.18373e-12
5.48436 -19.1056 -3.33407e-12
-2.18373e-12 -3.33407e-12 -4.13017

11.86 -7.47777 -1.31095e-12
-7.47777 -48.2904 -7.04548e-13
-1.31095e-12 -7.04548e-13 -8.95364

104.221 16.3136 2.67401e-12
16.3136 -8.44459 7.55958e-12
2.67401e-12 7.55958e-12 -22.4522

-34.6446 -13.4558 1.15138e-12
-13.4558 18.9653 7.09359e-13
1.15138e-12 7.09359e-13 -7.18771

-6.03072 27.8382 -3.5385e-12
27.8382 -4.59347 -4.32247e-14
-3.5385e-12 -4.32247e-14 -6.16659

-35.5589 -14.3427 9.53367e-13
-14.3427 7.84522 -6.29422e-13
9.53367e-13 -6.29422e-13 -9.13774

-23.6539 33.3054 1.30325e-12
33.3054 -24.9902 1.42647e-12
1.30325e-12 1.42647e-12 -21.363

21.3127 0.56127 2.79421e-12
0.56127 -32.3468 -3.36372e-12
2.79421e-12 -3.36372e-12 -5.59754

-48.9615 -17.9683 5.52641e-13
-17.9683 6.34132 -2.61361e-12
5.52641e-13 -2.61361e-12 -12.9505

11.6605 -2.66519 -2.38091e-12
-2.66519 -43.2582 -1.10926e-12
-2.38091e-12 -1.10926e-12 -8.04162

-11.359 26.6817 5.69559e-12
26.6817 19.517 -2.72967e-13
5.69559e-12 -2.72967e-13 -6.09805

21.7665 -4.19686 3.55567e-12
-4.19686 -35.307 -1.65749e-12
3.55567e-12 -1.65749e-12 -6.75

-24.4893 8.67156 3.55109e-12
8.67156 32.1303 -4.30885e-12
3.55109e-12 -4.30885e-12 -4.94207

-11.808 6.28335 -1.63866e-12
6.28335 -11.964 -9.74361e-12
-1.63866e-12 -9.74361e-12 -75.579

22.745 1.87633 -1.95399e-14
1.87633 -33.4817 -4.60439e-12
-1.95399e-14 -4.60439e-12 -6.68596

-12.395 -27.7221 -7.1676e-13
-27.7221 1.59637 -1.35773e-12
-7.1676e-13 -1.35773e-12 -6.61119

21.3057 6.85089 -5.26986e-14
6.85089 -34.3164 7.41185e-13
-5.26986e-14 7.41185e-13 -6.81513

-37.9129 19.1153 1.13095e-13
19.1153 2.6533 -2.79747e-12
1.13095e-13 -2.79747e-12 -9.46491

106.629 4.18271 3.56456e-12
4.18271 20.606 -3.56071e-12
3.56456e-12 -3.56071e-12 -12.0469

-5.3066 30.7521 -1.13391e-12
30.7521 -7.27856 4.76952e-13
-1.13391e-12 4.76952e-13 -7.44952

27.8915 37.0864 -6.05975e-12
37.0864 26.4705 1.0291e-12
-6.05975e-12 1.0291e-12 -8.63789

-9.43934 10.3238 2.04784e-12
10.3238 -32.9169 4.14946e-12
2.04784e-12 4.14946e-12 -49.4859

19.832 14.2182 -1.18009e-12
14.2182 -29.3674 1.85837e-12
-1.18009e-12 1.85837e-12 -6.00838

-4.21893 -17.7862 -2.12127e-12
-17.7862 59.6694 -4.52734e-12
-2.12127e-12 -4.52734e-12 -8.48177

66.299 -42.1127 -4.45273e-12
-42.1127 71.1552 3.55508e-12
-4.45273e-12 3.55508e-12 -11.2487

-48.2043 5.98333 -4.38219e-12
5.98333 7.2682 2.70894e-13
-4.38219e-12 2.70894e-13 -41.0216

-26.2891 -4.83546 8.09427e-13
-4.83546 1.75635 4.03351e-12
8.09427e-13 4.03351e-12 -37.7874

-1.46937 21.0265 -4.26178e-12
21.0265 -39.4996 6.33612e-12
-4.26178e-12 6.33612e-12 -41.0874

-43.9629 5.06234 -2.34094e-12
5.06234 0.513727 7.80117e-13
-2.34094e-12 7.80117e-13 -52.1668

-2.76331 -9.1723 5.01732e-12
-9.1723 -20.7651 3.36795e-13
5.01732e-12 3.36795e-13 -35.8829

-3.9791 -28.0035 -1.3524e-12
-28.0035 -4.61274 -3.14889e-12
-1.3524e-12 -3.14889e-12 -6.002

65.6127 41.5318 5.33144e-12
41.5318 73.1835 2.56506e-12
5.33144e-12 2.56506e-12 -10.9603

60.1671 -17.9548 -2.13163e-14
-17.9548 0.10958 -2.64855e-12
-2.13163e-14 -2.64855e-12 -8.05535

-41.7913 -3.70163 -3.21979e-12
-3.70163 -1.18571 -4.82473e-12
-3.21979e-12 -4.82473e-12 -52.7012

-14.587 19.5479 2.46751e-12
19.5479 -28.5461 3.39107e-12
2.46751e-12 3.39107e-12 -52.8093

18.143 -12.2743 2.63671e-12
-12.2743 -29.9075 -4.53948e-12
2.63671e-12 -4.53948e-12 -6.23049

38.1795 -43.312 -6.14383e-12
-43.312 41.8087 8.58572e-13
-6.14383e-12 8.58572e-13 -14.5613

58.1552 -18.069 -2.36848e-13
-18.069 -2.3111 1.21384e-13
-2.36848e-13 1.21384e-13 -7.91939

-21.4536 17.0906 -2.35797e-12
17.0906 30.3299 2.40992e-13
-2.35797e-12 2.40992e-13 -5.73673

-11.3804 19.3447 4.94419e-12
19.3447 25.5123 2.59763e-12
4.94419e-12 2.59763e-12 -3.92972

20.7909 -16.3043 2.70598e-12
-16.3043 -33.125 -2.43287e-12
2.70598e-12 -2.43287e-12 -7.3197

12.6123 -34.1963 -4.43497e-12
-34.1963 46.4434 -1.68872e-12
-4.43497e-12 -1.68872e-12 -10.4023

62.3727 19.1879 -3.08257e-12
19.1879 2.80409 4.34675e-12
-3.08257e-12 4.34675e-12 -8.41877

46.5207 -25.2962 -2.85283e-12
-25.2962 5.12795 -1.90485e-12
-2.85283e-12 -1.90485e-12 -5.6164

-31.8986 19.481 3.93507e-12
19.481 -4.28356 -1.1792e-12
3.93507e-12 -1.1792e-12 -26.0798

37.043 29.6587 3.25073e-12
29.6587 14.51 4.07852e-12
3.25073e-12 4.07852e-12 -5.43875

-27.4453 -21.8125 -3.10685e-12
-21.8125 -8.23453 1.14118e-12
-3.10685e-12 1.14118e-12 -25.2428

64.8813 -42.7234 -7.11964e-12
-42.7234 44.0881 4.94301e-12
-7.11964e-12 4.94301e-12 -9.50268

-27.7468 5.45431 -3.75463e-12
5.45431 2.66853 -5.62306e-12
-3.75463e-12 -5.62306e-12 -38.2926

-5.5669 -5.33166 -7.42813e-13
-5.33166 57.3984 7.33043e-13
-7.42813e-13 7.33043e-13 -5.45581

-0.204717 10.3854 2.34598e-12
10.3854 -24.8415 -6.17636e-13
2.34598e-12 -6.17636e-13 -38.3542

-26.4952 21.4182 1.81484e-12
21.4182 12.2186 -3.54975e-12
1.81484e-12 -3.54975e-12 -6.8783

4.72403 5.75609 2.62309e-13
5.75609 -56.0408 -2.65965e-12
2.62309e-13 -2.65965e-12 -13.9852

0.541722 11.4591 -4.53415e-13
11.4591 -34.0597 -2.32229e-12
-4.53415e-13 -2.32229e-12 -14.8413

106.367 31.8272 -1.75267e-12
31.8272 37.8392 7.06635e-12
-1.75267e-12 7.06635e-12 -7.48759

-35.4956 -6.03761 1.0821e-13
-6.03761 10.6015 -3.4562e-12
1.0821e-13 -3.4562e-12 -13.4811

-35.3619 9.52181 1.5361e-12
9.52181 1.23455 -3.48462e-13
1.5361e-12 -3.48462e-13 -14.9615

-42.5939 -2.88267 -3.71518e-13
-2.88267 21.1101 -2.3744e-13
-3.71518e-13 -2.3744e-13 -11.2434

-44.9112 23.4003 1.13465e-13
23.4003 -5.89269 2.88954e-13
1.13465e-13 2.88954e-13 -13.9262

9.97083 8.46528 5.27874e-13
8.46528 -42.3862 -1.86814e-13
5.27874e-13 -1.86814e-13 -9.08517

-12.3414 -28.2463 -4.51787e-12
-28.2463 1.6837 -4.33786e-12
-4.51787e-12 -4.33786e-12 -6.68243

1.30872 -1.71197 2.8213e-12
-1.71197 -55.4593 -2.46928e-12
2.8213e-12 -2.46928e-12 -11.3104

-31.8882 -19.257 -3.12358e-12
-19.257 -4.59266 -2.79184e-13
-3.12358e-12 -2.79184e-13 -25.9492

-27.9704 21.3077 -1.18157e-12
21.3077 -8.36405 -2.28335e-12
-1.18157e-12 -2.28335e-12 -26.0076

-0.659283 -16.5888 4.74435e-13
-16.5888 61.6859 4.10575e-12
4.74435e-13 4.10575e-12 -7.95415

-0.650813 -27.9387 3.5089e-12
-27.9387 -21.3676 -2.96237e-12
3.5089e-12 -2.96237e-12 -12.7944

-14.0989 -25.1399 -4.00835e-12
-25.1399 7.40562 -3.59002e-12
-4.00835e-12 -3.59002e-12 -5.24397

91.7007 -31.719 -5.27933e-12
-31.719 19.4888 4.8912e-12
-5.27933e-12 4.8912e-12 -16.3312

-33.7114 3.22379 -3.27975e-12
3.22379 9.20168 -2.5242e-12
-3.27975e-12 -2.5242e-12 -18.5621

2.74836 28.9471 9.89431e-13
28.9471 -24.428 -1.04302e-12
9.89431e-13 -1.04302e-12 -11.321

-38.4413 19.6663 8.49247e-13
19.6663 5.22876 1.99307e-12
8.49247e-13 1.99307e-12 -9.24248

50.1992 8.002 -2.4869e-13
8.002 -16.9767 -1.56379e-12
-2.4869e-13 -1.56379e-12 -7.07435

60.0431 -33.9457 5.40012e-12
-33.9457 33.7903 4.38168e-14
5.40012e-12 4.38168e-14 -6.98629

-18.9665 -10.5859 2.83418e-12
-10.5859 -0.538744 -5.02117e-13
2.83418e-12 -5.02117e-13 -25.4247

-33.9252 23.9014 -2.40578e-12
23.9014 -12.0274 2.14741e-12
-2.40578e-12 2.14741e-12 -14.5436

58.1678 -32.3938 2.78177e-12
-32.3938 18.0907 -4.71327e-13
2.78177e-12 -4.71327e-13 -10.1372

66.8734 10.7944 3.39166e-12
10.7944 8.50836 -3.57048e-12
3.39166e-12 -3.57048e-12 -5.08885

7.6716 -21.2122 -1.28075e-12
-21.2122 88.4855 -9.75575e-12
-1.28075e-12 -9.75575e-12 -11.8634

-33.997 14.428 5.82941e-12
14.428 20.2384 1.3826e-12
5.82941e-12 1.3826e-12 -7.55435

8.47319 23.1477 1.49214e-13
23.1477 -26.0786 6.66844e-12
1.49214e-13 6.66844e-12 -11.3032

34.8741 42.2112 9.02389e-13
42.2112 46.208 2.66572e-12
9.02389e-13 2.66572e-12 -14.4227

-4.39423 16.5026 -9.18717e-12
16.5026 -35.5289 3.28582e-12
-9.18717e-12 3.28582e-12 -73.2485

-5.98924 -4.10976 -3.38633e-12
-4.10976 57.959 -4.36273e-12
-3.38633e-12 -4.36273e-12 -5.44803

-1.82003 -16.628 -5.90039e-12
-16.628 -39.3873 -4.09776e-12
-5.90039e-12 -4.09776e-12 -74.0713

-3.33239 -27.3344 -9.05942e-14
-27.3344 -30.0284 3.81473e-13
-9.05942e-14 3.81473e-13 -21.5515

8.9652 27.4266 3.91331e-12
27.4266 -30.0015 -3.99266e-12
3.91331e-12 -3.99266e-12 -11.262

45.7184 -24.418 2.14465e-12
-24.418 5.01833 7.93439e-14
2.14465e-12 7.93439e-14 -5.24249

10.0913 31.3333 -1.81129e-12
31.3333 47.1711 -5.10051e-12
-1.81129e-12 -5.10051e-12 -9.64571

14.2701 -10.7083 -3.48995e-12
-10.7083 82.8569 -1.36187e-12
-3.48995e-12 -1.36187e-12 -6.44947

-38.6352 21.9724 -5.73911e-13
21.9724 2.94047 1.44477e-12
-5.73911e-13 1.44477e-12 -8.57576

1.19403 16.7969 2.16419e-13
16.7969 -25.7266 3.61193e-13
2.16419e-13 3.61193e-13 -18.5663

-26.5451 15.1578 -8.23934e-13
15.1578 18.4496 -3.0731e-13
-8.23934e-13 -3.0731e-13 -5.71562

43.6655 15.9582 2.64914e-12
15.9582 -7.29443 -3.75966e-12
2.64914e-12 -3.75966e-12 -4.0825

12.5734 -21.4793 5.56592e-14
-21.4793 57.9664 3.80022e-12
5.56592e-14 3.80022e-12 -4.71898

66.0101 -29.3996 4.538e-12
-29.3996 18.6431 -1.1345e-12
4.538e-12 -1.1345e-12 -9.33814

-32.3849 -24.5763 1.94763e-12
-24.5763 -7.28435 1.59931e-12
1.94763e-12 1.59931e-12 -8.98384

-22.6715 27.4552 9.02981e-14
27.4552 -10.3551 1.45188e-12
9.02981e-14 1.45188e-12 -9.29125

-38.3534 23.1893 -6.11067e-13
23.1893 1.99012 -4.63688e-12
-6.11067e-13 -4.63688e-12 -8.53173

-51.5553 13.1681 -6.70131e-13
13.1681 11.924 -1.50398e-13
-6.70131e-13 -1.50398e-13 -16.4683

23.4865 9.37349 6.50147e-12
9.37349 -29.4972 1.74749e-12
6.50147e-12 1.74749e-12 -5.32939

3.76339 -4.6663 -8.68046e-13
-4.6663 79.4559 5.73171e-12
-8.68046e-13 5.73171e-12 -9.53443

-44.9364 -36.8293 2.38417e-12
-36.8293 -19.8277 -7.66868e-13
2.38417e-12 -7.66868e-13 -14.7745

-16.0872 27.4718 -3.21787e-12
27.4718 1.33724 -6.99292e-13
-3.21787e-12 -6.99292e-13 -6.92338

-5.02215 2.17069 4.57412e-14
2.17069 82.6931 -1.02555e-12
4.57412e-14 -1.02555e-12 -13.4337

69.06 34.6208 -9.38153e-12
34.6208 15.4959 2.09018e-12
-9.38153e-12 2.09018e-12 -10.7085

-31.3581 -22.9776 -1.83779e-12
-22.9776 -4.63473 -1.66089e-13
-1.83779e-12 -1.66089e-13 -8.53782

11.7433 5.7329 2.72641e-12
5.7329 -48.3393 2.81997e-13
2.72641e-12 2.81997e-13 -8.6481

43.0719 27.2124 7.95808e-13
27.2124 10.4479 2.75454e-12
7.95808e-13 2.75454e-12 -5.08701

-9.40913 12.7434 -5.96737e-12
12.7434 -14.0428 1.94067e-12
-5.96737e-12 1.94067e-12 -37.0258

70.3493 24.338 -1.15132e-11
24.338 23.8056 -8.34296e-13
-1.15132e-11 -8.34296e-13 -6.80198

-10.5799 -13.0529 4.32957e-12
-13.0529 -13.9247 4.3124e-12
4.32957e-12 4.3124e-12 -37.3634

-4.38829 0.778891 3.58099e-12
0.778891 59.4092 1.40806e-12
3.58099e-12 1.40806e-12 -4.83681

38.3623 -2.236 3.1027e-12
-2.236 -23.8243 -3.23112e-13
3.1027e-12 -3.23112e-13 -5.84076

3.59206 -15.7641 1.29985e-12
-15.7641 -53.9647 -2.29535e-12
1.29985e-12 -2.29535e-12 -21.1222

-42.2802 24.3886 2.08255e-13
24.3886 -11.737 1.65201e-12
2.08255e-13 1.65201e-12 -11.174

-46.8134 -13.5359 -1.49858e-12
-13.5359 11.0655 -6.01593e-13
-1.49858e-12 -6.01593e-13 -12.3579

5.80877 -7.99858 -3.72147e-13
-7.99858 -70.9611 2.40548e-12
-3.72147e-13 2.40548e-12 -14.8856

-49.5376 -22.2791 2.79465e-12
-22.2791 3.74498 -1.53033e-12
2.79465e-12 -1.53033e-12 -22.1023

-17.457 -6.60126 -7.68304e-12
-6.60126 -13.1149 4.31618e-13
-7.68304e-12 4.31618e-13 -34.7686

-28.732 -29.9091 1.97116e-12
-29.9091 -9.40046 -1.22598e-12
1.97116e-12 -1.22598e-12 -9.00266

15.6916 11.457 -3.06066e-12
11.457 80.198 -2.57216e-12
-3.06066e-12 -2.57216e-12 -6.53311

42.2957 -28.1553 5.21065e-14
-28.1553 11.047 2.13814e-12
5.21065e-14 2.13814e-12 -5.05033

-47.1697 -13.7682 5.77664e-12
-13.7682 4.1965 -5.33203e-12
5.77664e-12 -5.33203e-12 -29.2932

2.96388 0.505794 -5.84865e-13
0.505794 -56.815 4.0575e-13
-5.84865e-13 4.0575e-13 -11.012

-39.3399 -21.5232 1.022e-12
-21.5232 -8.85591 -1.33375e-12
1.022e-12 -1.33375e-12 -14.7775

-40.1964 25.6991 1.07706e-12
25.6991 -14.6929 5.46252e-12
1.07706e-12 5.46252e-12 -11.3173

32.263 -31.4742 5.35394e-12
-31.4742 38.4341 -1.112e-12
5.35394e-12 -1.112e-12 -4.65314

-31.4672 -7.07938 -5.86716e-13
-7.07938 1.70363 4.12056e-12
-5.86716e-13 4.12056e-12 -40.9754

36.6349 -33.0863 -7.98532e-12
-33.0863 72.0423 -1.24819e-12
-7.98532e-12 -1.24819e-12 -7.14588

16.6138 -19.1835 3.84996e-12
-19.1835 -25.8786 -3.39551e-12
3.84996e-12 -3.39551e-12 -7.14024

1.50188 1.973 7.20683e-13
1.973 -51.3918 -1.2168e-13
7.20683e-13 -1.2168e-13 -15.3771

-12.8682 17.873 -3.32356e-12
17.873 -16.9578 -1.57711e-12
-3.32356e-12 -1.57711e-12 -41.043

10.7089 20.1893 -5.81579e-12
20.1893 59.4652 -1.70767e-12
-5.81579e-12 -1.70767e-12 -4.36177

4.31503 27.2155 3.75167e-12
27.2155 -16.2268 -6.14619e-13
3.75167e-12 -6.14619e-13 -8.13025

30.9072 -24.5179 -1.49925e-12
-24.5179 -8.1412 -1.39148e-13
-1.49925e-12 -1.39148e-13 -4.88007

-37.7949 -17.8406 5.72246e-13
-17.8406 2.40045 1.5626e-12
5.72246e-13 1.5626e-12 -9.87128

55.5237 35.0784 -4.57945e-12
35.0784 42.3517 3.58706e-12
-4.57945e-12 3.58706e-12 -6.63853

-40.0195 -21.8321 -3.3055e-13
-21.8321 2.53635 8.11203e-14
-3.3055e-13 8.11203e-14 -9.40082

2.96415 30.8545 2.95823e-12
30.8545 -17.3961 5.6047e-12
2.95823e-12 5.6047e-12 -9.08474

18.5376 -25.2484 -4.30056e-12
-25.2484 -19.4269 -5.52151e-12
-4.30056e-12 -5.52151e-12 -6.35002

-15.6598 -25.1317 -4.58448e-12
-25.1317 5.89446 -3.4935e-12
-4.58448e-12 -3.4935e-12 -5.78364

42.7244 -18.6937 5.86198e-13
-18.6937 -9.17563 -8.0469e-13
5.86198e-13 -8.0469e-13 -5.37659

27.4338 -18.8546 -5.28644e-12
-18.8546 -20.3789 -9.83214e-13
-5.28644e-12 -9.83214e-13 -5.6979

-41.3949 -25.3385 1.43633e-12
-25.3385 -14.9653 1.67374e-12
1.43633e-12 1.67374e-12 -11.5734

29.783 35.9806 7.44886e-13
35.9806 25.2279 2.44664e-12
7.44886e-13 2.44664e-12 -8.64997

-28.525 15.3805 2.7048e-12
15.3805 18.5191 -1.21799e-12
2.7048e-12 -1.21799e-12 -5.88148

-23.1118 26.4263 -4.02374e-12
26.4263 -12.5507 -1.11555e-12
-4.02374e-12 -1.11555e-12 -9.96485

-42.1002 25.4737 8.30132e-13
25.4737 -11.5927 4.19191e-12
8.30132e-13 4.19191e-12 -10.9994

-37.2939 11.6243 -8.01102e-13
11.6243 11.8441 1.79057e-12
-8.01102e-13 1.79057e-12 -9.08641

64.4058 -8.22947 1.03029e-12
-8.22947 3.19092 -7.19425e-13
1.03029e-12 -7.19425e-13 -4.25613

8.72906 18.6124 6.24567e-12
18.6124 59.2309 2.34361e-12
6.24567e-12 2.34361e-12 -4.16755

-25.6217 -24.3844 -4.67744e-12
-24.3844 0.45713 4.25674e-12
-4.67744e-12 4.25674e-12 -7.22365

-1.14715 25.6728 -6.34337e-12
25.6728 13.7518 1.08476e-12
-6.34337e-12 1.08476e-12 -4.09071

32.3815 -35.6404 5.24262e-12
-35.6404 21.6997 3.3958e-12
5.24262e-12 3.3958e-12 -8.49181

59.5485 38.3282 -3.59061e-12
38.3282 17.8483 -4.89327e-12
-3.59061e-12 -4.89327e-12 -13.7247

12.1217 -33.3216 3.606e-13
-33.3216 42.9199 -5.48539e-12
3.606e-13 -5.48539e-12 -9.54818

30.5532 -31.1693 -5.92119e-15
-31.1693 36.8177 -7.50333e-12
-5.92119e-15 -7.50333e-12 -4.41067

11.769 -6.83855 -7.33635e-13
-6.83855 -48.8409 -2.79036e-13
-7.33635e-13 -2.79036e-13 -8.77681

25.2747 30.3512 -3.40468e-12
30.3512 41.0945 2.64203e-12
-3.40468e-12 2.64203e-12 -4.46123

62.6944 13.2986 -1.0741e-12
13.2986 5.22214 -3.37863e-12
-1.0741e-12 -3.37863e-12 -4.31063

-7.03533 13.383 2.94165e-12
13.383 61.3561 2.76401e-12
2.94165e-12 2.76401e-12 -8.70065

11.7257 -22.3474 7.1297e-12
-22.3474 55.7731 -7.49267e-12
7.1297e-12 -7.49267e-12 -4.30667

-47.2595 -1.0936 -2.33732e-12
-1.0936 12.4079 -1.22273e-12
-2.33732e-12 -1.22273e-12 -22.1589

-5.9283 2.24743 -2.05702e-12
2.24743 59.0153 -4.35207e-12
-2.05702e-12 -4.35207e-12 -5.26866

6.26353 31.099 4.08444e-12
31.099 47.8733 2.87533e-12
4.08444e-12 2.87533e-12 -9.66598

-39.7287 12.1101 9.63341e-13
12.1101 12.8433 -6.75016e-13
9.63341e-13 -6.75016e-13 -9.3186

40.7435 -27.6561 1.05752e-12
-27.6561 8.35298 -6.62344e-12
1.05752e-12 -6.62344e-12 -5.64833

7.53629 20.5573 -7.18536e-13
20.5573 -47.4681 -1.10637e-12
-7.18536e-13 -1.10637e-12 -16.4838

-3.42389 26.2704 2.12867e-12
26.2704 -31.4845 1.68932e-12
2.12867e-12 1.68932e-12 -22.2492

15.7766 -18.5717 2.93277e-12
-18.5717 -30.0217 -4.95396e-12
2.93277e-12 -4.95396e-12 -8.18983

4.42615 -1.80611 5.27859e-12
-1.80611 -34.1328 -3.71407e-12
5.27859e-12 -3.71407e-12 -24.4343

-14.344 -31.8151 2.67697e-12
-31.8151 -11.9349 -6.79812e-12
2.67697e-12 -6.79812e-12 -9.05636

56.2287 23.335 -1.99781e-12
23.335 0.809546 -2.26604e-12
-1.99781e-12 -2.26604e-12 -8.2935

-27.8304 30.1632 -3.16724e-12
30.1632 -9.23713 -5.47828e-12
-3.16724e-12 -5.47828e-12 -8.80695

-27.0063 29.2072 2.16745e-12
29.2072 -9.20224 1.3826e-13
2.16745e-12 1.3826e-13 -8.68428

28.6298 30.6704 -2.28913e-12
30.6704 40.411 -2.78296e-12
-2.28913e-12 -2.78296e-12 -4.45409

0.342971 27.0881 -6.6791e-13
27.0881 -19.8529 7.54952e-14
-6.6791e-13 7.54952e-14 -11.781

64.5215 3.52623 -7.4607e-14
3.52623 -11.8366 4.07822e-14
-7.4607e-14 4.07822e-14 -10.0239

-14.9022 31.8173 4.14868e-12
31.8173 -20.7993 -3.70134e-12
4.14868e-12 -3.70134e-12 -12.4515

-37.9512 -12.5989 -2.05665e-12
-12.5989 8.18061 5.95672e-13
-2.05665e-12 5.95672e-13 -14.0258

-0.47419 24.2765 4.29642e-12
24.2765 -30.0017 2.49874e-12
4.29642e-12 2.49874e-12 -20.7689

-23.7301 -29.5802 1.48059e-12
-29.5802 -11.9353 -7.14688e-13
1.48059e-12 -7.14688e-13 -8.84976

-38.1563 -4.8966 -6.59991e-13
-4.8966 18.8474 -4.11523e-13
-6.59991e-13 -4.11523e-13 -11.734

69.9593 -24.5638 2.86112e-12
-24.5638 18.0276 2.66809e-12
2.86112e-12 2.66809e-12 -7.04732

39.9869 29.7023 -4.75708e-12
29.7023 13.4764 1.57622e-12
-4.75708e-12 1.57622e-12 -5.22118

-4.30475 14.7012 -4.44134e-12
14.7012 60.5832 -1.88412e-12
-4.44134e-12 -1.88412e-12 -8.40642

1.61102 -1.13972 -2.66957e-12
-1.13972 -56.1261 -1.33811e-12
-2.66957e-12 -1.33811e-12 -11.2156

9.61417 0.00208716 1.59872e-14
0.00208716 -44.7632 -3.76662e-13
1.59872e-14 -3.76662e-13 -8.44602

-31.0854 23.1277 8.38292e-13
23.1277 -4.33951 1.51642e-12
8.38292e-13 1.51642e-12 -8.46641

-34.7613 23.8724 2.8102e-12
23.8724 -13.1957 -2.93338e-12
2.8102e-12 -2.93338e-12 -14.8162

-43.3813 -24.3813 1.90736e-13
-24.3813 -12.6138 -8.73375e-15
1.90736e-13 -8.73375e-15 -11.475

-39.0664 -0.674465 3.1942e-12
-0.674465 21.0462 7.64426e-13
3.1942e-12 7.64426e-13 -10.5003

-40.808 25.592 1.32886e-12
25.592 -13.2246 -1.02688e-12
1.32886e-12 -1.02688e-12 -11.1788

32.3253 -10.3107 -4.9738e-14
-10.3107 -25.1666 -1.62714e-12
-4.9738e-14 -1.62714e-12 -6.02271

8.70205 -32.8438 -1.29082e-12
-32.8438 22.7978 8.79474e-12
-1.29082e-12 8.79474e-12 -6.99953

2.39588 -2.30376 -5.08482e-13
-2.30376 -49.9624 -5.83533e-13
-5.08482e-13 -5.83533e-13 -14.7759

36.7497 -34.5191 1.34174e-12
-34.5191 24.4803 -6.18172e-12
1.34174e-12 -6.18172e-12 -7.71433

-38.2972 19.0856 -6.78124e-13
19.0856 -7.09244 1.68428e-12
-6.78124e-13 1.68428e-12 -14.4526

7.87016 -26.4803 -5.91527e-12
-26.4803 -28.0012 2.2989e-12
-5.91527e-12 2.2989e-12 -10.9737

63.9602 -9.69335 3.30639e-12
-9.69335 5.67154 7.49623e-13
3.30639e-12 7.49623e-13 -5.07727

6.03663 -23.1941 -2.22814e-12
-23.1941 -35.4703 3.73923e-13
-2.22814e-12 3.73923e-13 -17.7365

0.141613 2.35866 -9.22225e-13
2.35866 -56.1761 2.54841e-12
-9.22225e-13 2.54841e-12 -11.5522

-4.0635 -23.3247 1.42878e-12
-23.3247 -23.4128 4.1848e-13
1.42878e-12 4.1848e-13 -16.7201

11.0372 -25.8614 -1.58273e-12
-25.8614 -29.4928 7.44886e-13
-1.58273e-12 7.44886e-13 -9.73933

10.2002 -8.54854 -2.35959e-13
-8.54854 -43.4981 -1.06907e-12
-2.35959e-13 -1.06907e-12 -9.28873

-35.4163 -23.0696 -9.54496e-13
-23.0696 -12.6492 -1.38852e-12
-9.54496e-13 -1.38852e-12 -15.106

23.6645 -31.3512 2.45019e-12
-31.3512 5.70711 2.52539e-12
2.45019e-12 2.52539e-12 -5.8859

11.0577 -24.592 -4.04417e-12
-24.592 -27.5001 4.61201e-12
-4.04417e-12 4.61201e-12 -10.0533

46.6507 10.8678 -1.43766e-12
10.8678 -16.1297 -2.53841e-12
-1.43766e-12 -2.53841e-12 -6.8075

-14.1868 26.3432 3.31557e-12
26.3432 -15.6457 1.48666e-12
3.31557e-12 1.48666e-12 -14.1219

-45.2482 -37.6086 -5.63105e-13
-37.6086 -20.6104 -1.59643e-12
-5.63105e-13 -1.59643e-12 -14.9227

-43.7056 37.2613 1.78405e-12
37.2613 -21.2639 -1.85555e-12
1.78405e-12 -1.85555e-12 -14.7732

-61.1784 -28.5708 4.22388e-12
-28.5708 -7.49752 -7.5732e-13
4.22388e-12 -7.5732e-13 -15.2032

-58.4102 27.0622 -5.22989e-13
27.0622 -6.27204 1.85244e-12
-5.22989e-13 1.85244e-12 -14.482

5.59963 -8.52604 -1.00927e-12
-8.52604 -71.0576 1.71478e-12
-1.00927e-12 1.71478e-12 -14.7135

4.3969 9.27193 -3.24762e-12
9.27193 -68.8269 2.2992e-12
-3.24762e-12 2.2992e-12 -14.4416

9.02345 -9.84846 -8.42585e-13
-9.84846 -40.8978 1.7358e-12
-8.42585e-13 1.7358e-12 -9.61861

-24.335 32.1108 -1.29881e-12
32.1108 -24.8058 -3.19669e-12
-1.29881e-12 -3.19669e-12 -21.1432

-25.5218 -32.8485 -1.55935e-12
-32.8485 -25.0921 -8.44445e-13
-1.55935e-12 -8.44445e-13 -21.4672

-53.9115 16.0672 1.3746e-12
16.0672 3.39837 -2.66335e-12
1.3746e-12 -2.66335e-12 -21.4007

-52.413 -15.8 5.72875e-14
-15.8 3.29394 -9.50647e-13
5.72875e-14 -9.50647e-13 -21.0741

6.10823 -3.752 -8.96468e-13
-3.752 -43.9224 3.1705e-12
-8.96468e-13 3.1705e-12 -25.7598

6.91397 3.61461 -3.42482e-12
3.61461 -46.3452 6.42449e-13
-3.42482e-12 6.42449e-13 -26.136

-15.6376 9.83985 3.64486e-12
9.83985 46.2696 3.84877e-13
3.64486e-12 3.84877e-13 -5.85564

-22.9224 -24.7781 2.24265e-12
-24.7781 -14.5547 2.55188e-12
2.24265e-12 2.55188e-12 -10.3362

-56.5991 -36.3843 1.57134e-12
-36.3843 -14.5319 1.4273e-12
1.57134e-12 1.4273e-12 -13.4424

33.3629 -4.66518 -1.83557e-13
-4.66518 -19.8573 -6.23982e-13
-1.83557e-13 -6.23982e-13 -3.95315

3.43184 -16.6904 -1.17447e-12
-16.6904 -52.6227 2.56565e-12
-1.17447e-12 2.56565e-12 -21.5304

3.67303 16.1714 1.66711e-12
16.1714 -51.8783 -4.41395e-12
1.66711e-12 -4.41395e-12 -21.4036

6.55468 0.121835 2.20194e-12
0.121835 -76.7488 -5.79372e-13
2.20194e-12 -5.79372e-13 -13.3093

-7.57927 23.3828 8.05578e-13
23.3828 39.9411 -2.5473e-12
8.05578e-13 -2.5473e-12 -6.89285

-56.8846 36.1683 3.73457e-12
36.1683 -14.0105 2.32066e-12
3.73457e-12 2.32066e-12 -13.394

-39.7965 -23.397 -1.51701e-12
-23.397 2.56063 2.35219e-12
-1.51701e-12 2.35219e-12 -8.80755

37.1209 23.3598 3.07902e-14
23.3598 -8.62258 3.62199e-12
3.07902e-14 3.62199e-12 -5.76639

4.7316 23.86 -3.18382e-12
23.86 -38.2271 -1.16292e-12
-3.18382e-12 -1.16292e-12 -18.9856

24.0138 -31.323 -1.63306e-12
-31.323 6.40332 -3.45501e-12
-1.63306e-12 -3.45501e-12 -5.65581

2.42992 -3.23363 -4.3654e-13
-3.23363 -48.3714 -2.30926e-13
-4.3654e-13 -2.30926e-13 -14.7458

-60.4515 -34.1584 -1.61197e-12
-34.1584 -14.3498 -6.67614e-13
-1.61197e-12 -6.67614e-13 -14.0359

-17.4648 8.3224 3.65493e-12
8.3224 45.6987 1.33819e-13
3.65493e-12 1.33819e-13 -5.78881

-9.47908 21.8186 8.70119e-13
21.8186 40.4307 -4.37457e-12
8.70119e-13 -4.37457e-12 -6.66142

58.615 35.7865 -4.76064e-13
35.7865 37.0924 -3.78956e-14
-4.76064e-13 -3.78956e-14 -6.91841

70.5 1.57929 6.18291e-12
1.57929 -5.55171 -7.86112e-13
6.18291e-12 -7.86112e-13 -10.3785

-30.7589 -22.8063 -5.00044e-13
-22.8063 -13.3594 -2.52792e-12
-5.00044e-13 -2.52792e-12 -14.4692

32.8449 31.1931 4.11167e-12
31.1931 69.8087 -4.33905e-12
4.11167e-12 -4.33905e-12 -6.68125

-19.3823 23.6143 1.82432e-12
23.6143 7.68618 -3.66758e-12
1.82432e-12 -3.66758e-12 -5.52122

47.6453 -5.35118 -3.30284e-12
-5.35118 -17.4462 1.12799e-13
-3.30284e-12 1.12799e-13 -6.82945

33.2232 11.2192 -3.67528e-12
11.2192 -23.6498 5.13959e-13
-3.67528e-12 5.13959e-13 -6.02241

6.25325 0.429841 -2.75054e-12
0.429841 -77.5457 -7.77049e-13
-2.75054e-12 -7.77049e-13 -13.4549

-58.93 -29.0285 -1.34433e-12
-29.0285 -6.28879 3.12639e-13
-1.34433e-12 3.12639e-13 -14.7009

-28.3302 -6.31635 2.72412e-12
-6.31635 -11.3501 -4.20493e-12
2.72412e-12 -4.20493e-12 -51.565

-44.6949 37.4073 -7.26826e-13
37.4073 -20.8095 4.77877e-12
-7.26826e-13 4.77877e-12 -14.7773

93.8119 1.66369 -3.02454e-12
1.66369 16.6543 8.74116e-14
-3.02454e-12 8.74116e-14 -6.04441

10.0322 -32.7974 -3.56811e-12
-32.7974 21.3105 -4.27688e-12
-3.56811e-12 -4.27688e-12 -6.81585

-56.9314 36.6096 1.48925e-12
36.6096 -14.5702 5.66658e-13
1.48925e-12 5.66658e-13 -13.5102

-35.0895 -11.1352 -1.00568e-12
-11.1352 19.1779 3.54087e-13
-1.00568e-12 3.54087e-13 -8.32344

-5.48663 -25.5229 3.54176e-12
-25.5229 37.355 9.54496e-13
3.54176e-12 9.54496e-13 -6.99462

-58.4467 28.8275 -2.00521e-12
28.8275 -6.27217 1.72455e-12
-2.00521e-12 1.72455e-12 -14.618

28.4974 -26.1495 2.97481e-12
-26.1495 -4.91962 2.41585e-12
2.97481e-12 2.41585e-12 -4.70498

-21.1616 10.485 -4.55547e-12
10.485 -18.5579 1.19837e-11
-4.55547e-12 1.19837e-11 -51.6605

3.42659 30.8819 -5.21538e-12
30.8819 27.1642 -4.90038e-12
-5.21538e-12 -4.90038e-12 -6.74067

6.13891 8.12517 2.16775e-12
8.12517 -72.2905 4.62386e-12
2.16775e-12 4.62386e-12 -14.9879

-11.549 30.192 -1.39355e-12
30.192 -20.6029 8.76632e-13
-1.39355e-12 8.76632e-13 -11.5535

-30.8036 23.3356 -2.81789e-12
23.3356 -5.10186 -3.67824e-12
-2.81789e-12 -3.67824e-12 -8.47233

-25.8627 -32.4833 -7.19128e-13
-32.4833 -24.1088 -3.03903e-12
-7.19128e-13 -3.03903e-12 -21.5566

9.20264 -23.1946 -2.74033e-12
-23.1946 -27.9268 1.86281e-12
-2.74033e-12 1.86281e-12 -11.4299

-37.6641 10.4666 -1.64121e-12
10.4666 8.92917 -2.69059e-12
-1.64121e-12 -2.69059e-12 -25.3256

-23.0468 -23.4377 -2.24206e-12
-23.4377 4.95117 -4.75471e-13
-2.24206e-12 -4.75471e-13 -6.27101

88.824 -9.71105 4.52142e-12
-9.71105 10.8048 -1.92046e-12
4.52142e-12 -1.92046e-12 -10.0323

84.0638 -14.281 -3.89377e-12
-14.281 2.80832 1.80952e-12
-3.89377e-12 1.80952e-12 -13.1987

5.88428 16.5333 1.96583e-12
16.5333 -33.9322 3.08198e-12
1.96583e-12 3.08198e-12 -22.3726

-16.4295 22.5078 -1.3527e-12
22.5078 16.2276 -1.43707e-12
-1.3527e-12 -1.43707e-12 -5.09373

-3.91545 29.1687 -5.73171e-13
29.1687 -12.2362 2.0132e-14
-5.73171e-13 2.0132e-14 -8.40322

51.002 0.688819 -1.09424e-12
0.688819 -6.54132 6.29348e-13
-1.09424e-12 6.29348e-13 -3.64136

-48.1444 6.5692 -3.75345e-12
6.5692 14.7846 -3.21994e-12
-3.75345e-12 -3.21994e-12 -18.9523

10.1158 16.5405 2.52243e-13
16.5405 -36.0849 -3.20988e-12
2.52243e-13 -3.20988e-12 -9.14121

-4.51239 -25.7695 -2.28499e-12
-25.7695 35.5596 5.25802e-12
-2.28499e-12 5.25802e-12 -6.75466

-39.1995 -2.57099 8.65974e-14
-2.57099 21.5048 1.90011e-12
8.65974e-14 1.90011e-12 -10.6742

-7.99963 13.3697 -3.10626e-12
13.3697 44.4119 7.29491e-13
-3.10626e-12 7.29491e-13 -3.95164

3.73306 -29.7179 5.7554e-13
-29.7179 -17.3722 2.47831e-12
5.7554e-13 2.47831e-12 -8.92682

21.4251 -29.9566 2.83507e-12
-29.9566 14.7544 6.14442e-12
2.83507e-12 6.14442e-12 -3.9252

6.87575 31.633 8.45546e-13
31.633 25.4026 9.71075e-14
8.45546e-13 9.71075e-14 -6.83573

2.78262 -15.0178 4.11108e-12
-15.0178 -39.2537 2.91811e-12
4.11108e-12 2.91811e-12 -63.2793

-46.1587 2.04315 5.76591e-12
2.04315 11.46 3.92693e-12
5.76591e-12 3.92693e-12 -22.7532

-55.4366 20.2963 1.91743e-12
20.2963 3.09167 -2.7122e-12
1.91743e-12 -2.7122e-12 -22.913

5.91253 15.4355 -3.19744e-13
15.4355 -58.8102 -1.29674e-12
-3.19744e-13 -1.29674e-12 -23.0331

-18.9254 -26.1929 -4.16852e-13
-26.1929 -12.917 -9.65154e-14
-4.16852e-13 -9.65154e-14 -9.65921

41.3522 17.9622 1.71004e-12
17.9622 -6.27983 -4.21826e-12
1.71004e-12 -4.21826e-12 -3.86879

-44.6789 -5.2908 -6.77861e-12
-5.2908 4.53872 5.07061e-12
-6.77861e-12 5.07061e-12 -39.1302

7.49984 -18.9873 -3.1557e-12
-18.9873 -39.8978 -4.27806e-13
-3.1557e-12 -4.27806e-13 -11.6642

30.2939 -15.6021 -6.17817e-12
-15.6021 -20.5191 4.96196e-12
-6.17817e-12 4.96196e-12 -4.81315

-9.6477 11.6072 -1.61737e-12
11.6072 44.3257 1.00779e-12
-1.61737e-12 1.00779e-12 -3.86648

8.32937 -25.7424 -2.56387e-13
-25.7424 32.9954 -6.75016e-14
-2.56387e-13 -6.75016e-14 -3.64013

-10.2421 -25.2741 -1.61471e-12
-25.2741 -19.1057 1.28786e-13
-1.61471e-12 1.28786e-13 -23.1708

17.0032 31.9693 -1.5028e-12
31.9693 11.1939 -2.20209e-12
-1.5028e-12 -2.20209e-12 -5.75409

-1.06847 -25.133 7.65018e-13
-25.133 -30.7652 2.32081e-12
7.65018e-13 2.32081e-12 -20.8892

48.0734 2.59805 -1.65083e-12
2.59805 -8.41942 1.51449e-12
-1.65083e-12 1.51449e-12 -3.5388

6.55006 -28.9391 8.91139e-13
-28.9391 72.0671 4.25378e-12
8.91139e-13 4.25378e-12 -14.5537

21.7909 -29.2398 -3.50238e-12
-29.2398 13.9617 -1.61648e-12
-3.50238e-12 -1.61648e-12 -3.93759

35.3554 32.1685 6.03961e-13
32.1685 74.15 -1.76925e-12
6.03961e-13 -1.76925e-12 -5.44315

-45.2888 -11.8751 1.87718e-12
-11.8751 13.9205 -1.9913e-12
1.87718e-12 -1.9913e-12 -15.3288

-14.4317 -13.8257 -2.97466e-12
-13.8257 43.3885 1.69701e-12
-2.97466e-12 1.69701e-12 -5.68038

-19.2338 -23.9806 -4.2979e-12
-23.9806 -19.8279 -1.05619e-12
-4.2979e-12 -1.05619e-12 -64.2205

2.43214 23.7784 -4.40063e-12
23.7784 36.0111 -5.05551e-12
-4.40063e-12 -5.05551e-12 -3.7183

-15.1842 -32.7267 -7.46396e-12
-32.7267 -21.1235 -1.94037e-12
-7.46396e-12 -1.94037e-12 -14.3164

-14.5765 -11.9668 -6.42294e-12
-11.9668 45.5375 -1.00068e-12
-6.42294e-12 -1.00068e-12 -5.74646

7.83476 -19.1161 -8.01433e-13
-19.1161 -43.1242 5.4919e-13
-8.01433e-13 5.4919e-13 -12.6359

6.5407 23.8847 7.03141e-12
23.8847 35.1754 -1.75622e-12
7.03141e-12 -1.75622e-12 -3.44911

23.1756 -4.97615 -7.87518e-13
-4.97615 -30.6848 2.68193e-13
-7.87518e-13 2.68193e-13 -5.37214

36.9771 -30.3495 9.05942e-13
-30.3495 122.654 -8.80362e-12
9.05942e-13 -8.80362e-12 -6.23849

-26.8785 21.0187 -1.70086e-12
21.0187 8.43327 3.64212e-12
-1.70086e-12 3.64212e-12 -7.13842

40.3438 -19.329 -1.94215e-13
-19.329 -11.3827 9.16896e-13
-1.94215e-13 9.16896e-13 -5.73358

6.52344 -21.4452 1.86932e-12
-21.4452 -45.5554 -6.31791e-13
1.86932e-12 -6.31791e-13 -24.9674

20.7044 31.7637 -1.82846e-12
31.7637 9.55349 4.25674e-12
-1.82846e-12 4.25674e-12 -5.81356

13.9174 -29.9789 -1.96702e-12
-29.9789 -7.61325 8.98837e-13
-1.96702e-12 8.98837e-13 -5.95218

6.75602 20.8872 -2.1038e-12
20.8872 -27.7985 -2.86941e-12
-2.1038e-12 -2.86941e-12 -11.1128

-38.2761 -28.0769 -2.48024e-12
-28.0769 -14.0399 2.3029e-12
-2.48024e-12 2.3029e-12 -11.0674

8.64191 -26.2335 -9.74628e-13
-26.2335 31.1738 7.04977e-12
-9.74628e-13 7.04977e-12 -3.64226

15.3289 28.9899 1.46668e-12
28.9899 19.1535 -2.59585e-12
1.46668e-12 -2.59585e-12 -3.89026

28.6425 26.1983 2.93454e-12
26.1983 -5.64131 1.22894e-12
2.93454e-12 1.22894e-12 -4.80966

7.91257 -14.6137 6.42449e-13
-14.6137 -36.882 1.84652e-12
6.42449e-13 1.84652e-12 -13.9942

-6.8499 -16.6231 1.31273e-12
-16.6231 41.3465 1.17832e-12
1.31273e-12 1.17832e-12 -3.96673

17.4411 -17.5699 4.6659e-12
-17.5699 -31.0069 -6.4911e-13
4.6659e-12 -6.4911e-13 -7.11214

19.8413 16.9123 1.43234e-12
16.9123 -31.6746 -8.20085e-13
1.43234e-12 -8.20085e-13 -7.34223

-33.6841 -9.38278 -7.5258e-12
-9.38278 8.75716 -1.68754e-13
-7.5258e-12 -1.68754e-13 -23.9878

43.4383 -13.4336 -1.4578e-12
-13.4336 -8.37809 1.03532e-12
-1.4578e-12 1.03532e-12 -3.81141

-19.3899 0.594652 4.06268e-12
0.594652 43.1512 -1.16055e-12
4.06268e-12 -1.16055e-12 -4.78306

28.0586 18.5587 -2.64322e-12
18.5587 -18.2088 2.06709e-12
-2.64322e-12 2.06709e-12 -4.75745

25.5298 27.6114 -3.51719e-12
27.6114 -3.78294 2.9378e-12
-3.51719e-12 2.9378e-12 -4.7788

-6.72378 -15.6913 4.94715e-12
-15.6913 43.8049 -5.5221e-12
4.94715e-12 -5.5221e-12 -3.85512

-19.9179 -1.20221 4.46236e-13
-1.20221 42.1335 3.54916e-12
4.46236e-13 3.54916e-12 -4.69466

-5.47346 29.1353 -3.54679e-12
29.1353 -23.6523 3.32475e-13
-3.54679e-12 3.32475e-13 -16.7979

-37.281 -10.9245 -1.05412e-12
-10.9245 21.6796 1.00956e-12
-1.05412e-12 1.00956e-12 -7.83674

27.1444 -26.7229 -6.99292e-13
-26.7229 -5.53777 -3.45324e-12
-6.99292e-13 -3.45324e-12 -4.95185

40.7243 21.3391 5.70566e-12
21.3391 -8.3794 -1.24345e-13
5.70566e-12 -1.24345e-13 -5.47493

12.3782 23.6677 1.84682e-12
23.6677 -27.1346 8.28967e-14
1.84682e-12 8.28967e-14 -8.67286

-37.804 5.47305 5.82941e-13
5.47305 23.3117 7.13503e-13
5.82941e-13 7.13503e-13 -8.60328

18.5914 29.0745 2.69355e-12
29.0745 17.3769 2.41999e-12
2.69355e-12 2.41999e-12 -3.95428

-9.98586 22.9643 5.24321e-13
22.9643 -14.9195 2.10247e-12
5.24321e-13 2.10247e-12 -24.021

68.3358 -59.7059 -5.21775e-12
-59.7059 36.3449 -6.34515e-12
-5.21775e-12 -6.34515e-12 -23.0077

17.5295 -25.0538 -9.23113e-13
-25.0538 -17.9993 3.69157e-12
-9.23113e-13 3.69157e-12 -6.42487

10.0549 7.0719 2.14732e-12
7.0719 82.5691 5.40486e-12
2.14732e-12 5.40486e-12 -7.16786

11.9177 -28.8965 3.84877e-13
-28.8965 -3.88607 8.68046e-13
3.84877e-13 8.68046e-13 -5.17339

-66.9403 -52.7101 -1.88531e-12
-52.7101 143.29 5.41907e-12
-1.88531e-12 5.41907e-12 -49.6586

-68.384 51.4606 1.81899e-12
51.4606 142.577 -6.41383e-12
1.81899e-12 -6.41383e-12 -49.8478

19.589 117.174 -2.07478e-12
117.174 64.1559 -1.79057e-12
-2.07478e-12 -1.79057e-12 -48.3487

20.548 -117.117 7.39438e-12
-117.117 61.0522 -7.8586e-12
7.39438e-12 -7.8586e-12 -48.7135

157.786 -1.36368 -5.96382e-12
-1.36368 -79.1847 5.00607e-14
-5.96382e-12 5.00607e-14 -48.9007

110.361 -91.1414 -8.66862e-13
-91.1414 -36.6802 4.02641e-14
-8.66862e-13 4.02641e-14 -50.2955

110.414 91.6694 -3.55271e-13
91.6694 -36.4904 -8.83441e-13
-3.55271e-13 -8.83441e-13 -50.1684

7.84381 14.3335 5.02176e-12
14.3335 -42.6844 -5.73763e-13
5.02176e-12 -5.73763e-13 -15.0816

-11.7876 25.5337 3.80377e-12
25.5337 -27.4057 -2.9563e-12
3.80377e-12 -2.9563e-12 -35.126

12.4384 6.60776 -2.35663e-12
6.60776 -40.5434 6.28682e-13
-2.35663e-12 6.28682e-13 -8.26026

26.2557 21.7903 2.43894e-12
21.7903 -19.5385 5.12183e-13
2.43894e-12 5.12183e-13 -5.85881

-21.2418 17.7496 -7.74699e-12
17.7496 29.8707 2.68644e-12
-7.74699e-12 2.68644e-12 -6.17073

22.5299 28.9067 -2.51532e-12
28.9067 -0.781004 -2.64203e-12
-2.51532e-12 -2.64203e-12 -4.73848

4.05187 -29.6681 2.87829e-12
-29.6681 -17.4706 -1.9457e-12
2.87829e-12 -1.9457e-12 -8.51054

25.9958 28.0359 -1.77636e-15
28.0359 -2.30784 4.07023e-12
-1.77636e-15 4.07023e-12 -4.73882

-19.3584 -2.8426 -4.67108e-12
-2.8426 43.077 -1.30503e-12
-4.67108e-12 -1.30503e-12 -4.77765

-13.4075 -26.0946 -9.28739e-13
-26.0946 -25.8395 -1.20807e-12
-9.28739e-13 -1.20807e-12 -35.5087

-19.8534 -4.86437 -1.16292e-12
-4.86437 41.7816 7.95808e-13
-1.16292e-12 7.95808e-13 -4.75159

-1.82909 23.0197 -2.85461e-12
23.0197 -24.3782 -3.01833e-12
-2.85461e-12 -3.01833e-12 -16.1504

44.9892 26.8791 -1.95162e-12
26.8791 8.10649 -2.27196e-12
-1.95162e-12 -2.27196e-12 -5.37528

-52.5004 -13.2167 -1.45735e-12
-13.2167 0.148856 2.85401e-13
-1.45735e-12 2.85401e-13 -20.6155

20.2813 13.7311 5.46467e-12
13.7311 -31.1527 2.01024e-13
5.46467e-12 2.01024e-13 -7.05097

13.6991 -29.9949 2.58164e-13
-29.9949 -6.69874 -3.31764e-12
2.58164e-13 -3.31764e-12 -5.84314

29.6335 -24.7199 -7.66202e-13
-24.7199 -7.88227 3.49942e-13
-7.66202e-13 3.49942e-13 -4.83282

5.76135 -16.0787 2.46351e-12
-16.0787 -32.3344 -1.42582e-12
2.46351e-12 -1.42582e-12 -22.252

12.6271 27.9346 -8.34296e-13
27.9346 -13.6468 1.76422e-12
-8.34296e-13 1.76422e-12 -6.42684

23.3091 23.9836 -2.69769e-12
23.9836 -17.9525 -1.36187e-14
-2.69769e-12 -1.36187e-14 -5.97028

-31.0879 -2.79258 -4.02811e-12
-2.79258 30.1341 -1.95755e-12
-4.02811e-12 -1.95755e-12 -6.40573

-28.6415 5.87432 -3.65368e-12
5.87432 33.3243 -5.84421e-12
-3.65368e-12 -5.84421e-12 -6.06728

34.553 2.64746 -2.72789e-12
2.64746 -26.1971 4.34327e-12
-2.72789e-12 4.34327e-12 -6.1506

50.6604 -7.292 -3.94943e-12
-7.292 -14.0937 3.34695e-12
-3.94943e-12 3.34695e-12 -6.78586

11.0388 30.4923 -5.0034e-13
30.4923 -4.79451 -4.61201e-12
-5.0034e-13 -4.61201e-12 -5.97418

17.4662 -26.1615 1.32043e-13
-26.1615 -17.4622 1.05101e-12
1.32043e-13 1.05101e-12 -6.35903

-0.0823883 -21.2554 5.15143e-14
-21.2554 -27.9602 -7.07878e-13
5.15143e-14 -7.07878e-13 -17.1663

4.93445 -31.6424 -3.80022e-12
-31.6424 4.85692 7.63833e-13
-3.80022e-12 7.63833e-13 -5.9433

-8.23575 -27.794 9.98313e-13
-27.794 18.5784 -3.09501e-12
9.98313e-13 -3.09501e-12 -6.1381

-1.65666 29.8959 2.63138e-12
29.8959 10.4449 -8.83441e-13
2.63138e-12 -8.83441e-13 -5.80844

-26.0285 -9.58031 -8.98874e-13
-9.58031 32.9731 -2.59763e-12
-8.98874e-13 -2.59763e-12 -5.79499

-31.3334 -1.54618 1.72181e-12
-1.54618 31.6529 3.04468e-12
1.72181e-12 3.04468e-12 -6.23068

-38.9252 5.74743 -2.77369e-12
5.74743 23.947 3.10389e-12
-2.77369e-12 3.10389e-12 -9.18887

-17.2287 -21.0955 2.6074e-12
-21.0955 26.5728 -1.67747e-12
2.6074e-12 -1.67747e-12 -5.7801

13.0694 24.116 9.07718e-13
24.116 -28.1079 2.69118e-13
9.07718e-13 2.69118e-13 -9.21073

21.5566 -9.59202 -1.53951e-14
-9.59202 -31.7179 4.11893e-12
-1.53951e-14 4.11893e-12 -6.606

-27.1656 7.46685 7.48858e-12
7.46685 34.3379 8.91139e-13
7.48858e-12 8.91139e-13 -5.88168

-35.2459 -9.70191 3.48881e-12
-9.70191 22.3147 1.9084e-12
3.48881e-12 1.9084e-12 -8.18987

-29.1663 -16.3346 -5.32226e-12
-16.3346 19.3475 -5.60796e-12
-5.32226e-12 -5.60796e-12 -6.66958

36.9733 -8.24143 2.58993e-12
-8.24143 -20.2489 -4.41277e-12
2.58993e-12 -4.41277e-12 -5.10928

-14.8121 -32.3468 -5.34387e-13
-32.3468 -21.6282 -2.65861e-12
-5.34387e-13 -2.65861e-12 -12.9965

-22.8341 9.32419 -2.45196e-12
9.32419 33.3265 3.68298e-13
-2.45196e-12 3.68298e-13 -4.79627

-0.753165 -18.2138 2.65654e-12
-18.2138 -35.154 2.71072e-12
2.65654e-12 2.71072e-12 -33.2668

4.92899 24.8303 3.43251e-12
24.8303 75.3246 1.29082e-12
3.43251e-12 1.29082e-12 -14.3211

-14.1424 -26.6288 1.991e-12
-26.6288 -16.3556 2.41881e-12
1.991e-12 2.41881e-12 -14.6431

-6.35746 -30.2033 -3.005e-12
-30.2033 -23.6081 -3.16665e-12
-3.005e-12 -3.16665e-12 -17.0886

-31.2816 -0.700428 1.3618e-12
-0.700428 31.5028 -4.61853e-14
1.3618e-12 -4.61853e-14 -6.35551

28.4909 -16.626 -6.03961e-13
-16.626 -18.0665 3.27827e-12
-6.03961e-13 3.27827e-12 -4.44551

-37.8128 12.8424 -3.0409e-13
12.8424 11.1652 -2.66394e-12
-3.0409e-13 -2.66394e-12 -10.9939

-8.86188 -3.18222 -8.35843e-12
-3.18222 111.08 -7.41096e-12
-8.35843e-12 -7.41096e-12 -22.6689

-31.6137 14.2767 -7.67238e-13
14.2767 21.3509 3.23297e-13
-7.67238e-13 3.23297e-13 -7.13213

12.4191 -29.4969 1.87939e-12
-29.4969 -2.524 6.24982e-12
1.87939e-12 6.24982e-12 -4.93569

33.638 25.1116 3.10685e-12
25.1116 124.058 2.80664e-12
3.10685e-12 2.80664e-12 -6.21106

-13.4982 26.0905 -8.06348e-12
26.0905 -19.0952 -5.0792e-12
-8.06348e-12 -5.0792e-12 -58.8662

-9.55055 -27.799 -4.5269e-12
-27.799 -22.803 3.9746e-12
-4.5269e-12 3.9746e-12 -59.5163

-2.87033 -30.4255 2.60355e-12
-30.4255 -7.32757 -1.01608e-12
2.60355e-12 -1.01608e-12 -7.29492

3.8553 -31.1692 5.39539e-12
-31.1692 5.63151 4.55576e-12
5.39539e-12 4.55576e-12 -6.07055

25.1542 20.8319 -1.66267e-12
20.8319 -17.0437 -2.37617e-12
-1.66267e-12 -2.37617e-12 -4.98432

31.8082 15.0103 -1.12503e-13
15.0103 -23.3133 -2.57809e-12
-1.12503e-13 -2.57809e-12 -5.96287

-9.4833 3.07869 -4.31855e-12
3.07869 -9.82695 -1.399e-11
-4.31855e-12 -1.399e-11 -80.8924

-5.54531 -6.99299 -5.26231e-12
-6.99299 -14.0355 2.09684e-12
-5.26231e-12 2.09684e-12 -80.2454

11.7495 4.82402 -5.91527e-13
4.82402 -43.2122 -1.99914e-12
-5.91527e-13 -1.99914e-12 -7.83476

-35.0651 6.73346 -1.29134e-12
6.73346 24.376 -1.5324e-12
-1.29134e-12 -1.5324e-12 -7.57039

-36.1209 6.73658 -8.24407e-13
6.73658 24.4335 1.64609e-12
-8.24407e-13 1.64609e-12 -8.31541

74.6057 58.6493 -5.26986e-12
58.6493 34.1842 2.6219e-12
-5.26986e-12 2.6219e-12 -21.8697

-6.92807 -28.2084 5.27282e-12
-28.2084 16.8744 3.45324e-12
5.27282e-12 3.45324e-12 -6.125

8.17122 17.9735 2.14673e-12
17.9735 -44.8774 -1.92024e-12
2.14673e-12 -1.92024e-12 -12.9001

32.7074 9.54171 -6.06211e-12
9.54171 -19.0905 2.59985e-12
-6.06211e-12 2.59985e-12 -4.08215

3.38301 -26.7308 -2.26249e-12
-26.7308 13.4834 -5.48776e-12
-2.26249e-12 -5.48776e-12 -3.83468

26.239 -20.243 -4.2597e-12
-20.243 -20.3335 -3.46715e-12
-4.2597e-12 -3.46715e-12 -5.87113

65.4095 60.2473 4.43852e-12
60.2473 34.2992 9.05942e-13
4.43852e-12 9.05942e-13 -23.8649

-13.2444 31.0713 1.13746e-12
31.0713 -16.8878 -3.76469e-12
1.13746e-12 -3.76469e-12 -12.7901

-18.6156 -19.7921 -4.43349e-12
-19.7921 28.4171 9.17784e-14
-4.43349e-12 9.17784e-14 -5.97777

11.1715 28.864 -1.04213e-12
28.864 -13.3291 -1.97886e-12
-1.04213e-12 -1.97886e-12 -6.4434

-31.8796 -4.14672 2.7025e-12
-4.14672 30.1496 -1.0972e-12
2.7025e-12 -1.0972e-12 -6.36513

-14.6052 19.615 9.35252e-13
19.615 27.1874 2.96296e-12
9.35252e-13 2.96296e-12 -4.42663

7.47623 30.5268 -1.8859e-12
30.5268 -1.67602 -2.27907e-12
-1.8859e-12 -2.27907e-12 -5.66835

-9.35257 -22.4799 -7.77452e-13
-22.4799 23.1506 -5.49782e-12
-7.77452e-13 -5.49782e-12 -4.18337

4.58605 -27.3601 -5.69086e-12
-27.3601 11.4481 1.83912e-12
-5.69086e-12 1.83912e-12 -3.94618

24.2765 11.2599 3.51319e-12
11.2599 102.105 4.44563e-12
3.51319e-12 4.44563e-12 -12.4026

37.4715 -33.4664 -4.44681e-12
-33.4664 69.3003 4.03588e-12
-4.44681e-12 4.03588e-12 -5.70475

-25.347 -11.6936 1.9064e-12
-11.6936 31.3713 -4.10161e-12
1.9064e-12 -4.10161e-12 -5.65628

16.095 26.4909 -4.17385e-12
26.4909 -15.5085 -3.52429e-12
-4.17385e-12 -3.52429e-12 -6.22454

4.95155 29.4852 -1.9907e-12
29.4852 1.63367 -9.98313e-13
-1.9907e-12 -9.98313e-13 -4.99777

-9.86239 -21.4403 3.98082e-12
-21.4403 25.1228 1.46431e-12
3.98082e-12 1.46431e-12 -4.04108

-21.6446 -11.7862 -1.44655e-12
-11.7862 32.0851 -2.69947e-12
-1.44655e-12 -2.69947e-12 -4.64494

10.46 28.4169 -4.41129e-12
28.4169 -0.15993 1.45424e-12
-4.41129e-12 1.45424e-12 -4.68044

-21.8564 -13.882 2.35367e-12
-13.882 29.4695 -3.60541e-12
2.35367e-12 -3.60541e-12 -4.855

6.95599 27.8639 2.31163e-12
27.8639 73.1023 -1.61056e-12
2.31163e-12 -1.61056e-12 -14.3242

-45.8344 -4.0393 -5.86247e-12
-4.0393 14.0473 -7.92847e-13
-5.86247e-12 -7.92847e-13 -19.9636

0.871394 31.0366 -8.15348e-13
31.0366 7.51671 -2.17308e-13
-8.15348e-13 -2.17308e-13 -6.0974

9.71805 14.9044 -3.01389e-13
14.9044 -36.4358 1.34944e-12
-3.01389e-13 1.34944e-12 -10.9904

9.92573 -15.9309 1.9007e-13
-15.9309 -39.4151 1.08091e-12
1.9007e-13 1.08091e-12 -13.073

85.6346 -24.2117 2.70006e-12
-24.2117 7.63379 -5.80277e-13
2.70006e-12 -5.80277e-13 -12.959

-23.2146 -21.2717 -2.21097e-12
-21.2717 10.5135 -2.59763e-12
-2.21097e-12 -2.59763e-12 -6.17326

-16.6076 26.7042 2.52776e-12
26.7042 1.7758 8.88178e-13
2.52776e-12 8.88178e-13 -6.59594

-26.1973 -21.7271 3.12668e-12
-21.7271 -5.37258 3.53928e-12
3.12668e-12 3.53928e-12 -23.8628

-41.5863 14.0999 -9.72259e-13
14.0999 -3.55805 -1.79442e-12
-9.72259e-13 -1.79442e-12 -64.0954

-0.895058 9.44501 3.32223e-12
9.44501 -44.2452 3.28922e-13
3.32223e-12 3.28922e-13 -64.1968

-20.3815 32.7027 -5.9508e-13
32.7027 -23.2058 -2.13163e-12
-5.9508e-13 -2.13163e-12 -24.3257

-11.4201 26.0084 -3.6741e-13
26.0084 22.6048 2.98191e-12
-3.6741e-13 2.98191e-12 -5.93406

16.0384 26.6664 -1.85274e-12
26.6664 -17.2961 -8.82997e-12
-1.85274e-12 -8.82997e-12 -6.5572

30.4332 45.1995 -3.32889e-12
45.1995 47.5652 4.50958e-12
-3.32889e-12 4.50958e-12 -15.197

-44.8773 -11.3382 1.38704e-11
-11.3382 -1.80688 -4.5682e-12
1.38704e-11 -4.5682e-12 -61.6533

-8.29768 -3.42988 -8.23299e-12
-3.42988 -12.745 -2.21245e-12
-8.23299e-12 -2.21245e-12 -77.1848

-14.6811 -0.207367 6.66978e-12
-0.207367 -6.41829 3.75922e-13
6.66978e-12 3.75922e-13 -77.329

27.6734 -53.8159 1.42843e-11
-53.8159 71.1696 7.95808e-12
1.42843e-11 7.95808e-12 -24.3865

-11.685 -11.5975 3.33955e-13
-11.5975 -16.2072 2.75039e-12
3.33955e-13 2.75039e-12 -37.4161

-32.6076 8.80938 -9.39937e-12
8.80938 -9.41286 4.42461e-12
-9.39937e-12 4.42461e-12 -49.5189

18.2562 -26.2043 -2.05406e-12
-26.2043 -19.5557 -3.82035e-12
-2.05406e-12 -3.82035e-12 -6.51405

-39.4338 1.00873 5.24469e-13
1.00873 11.9811 3.62732e-12
5.24469e-13 3.62732e-12 -19.7201

-30.21 -20.2722 -8.65974e-13
-20.2722 6.30396 3.25488e-12
-8.65974e-13 3.25488e-12 -7.22397

10.5354 6.25585 5.54223e-13
6.25585 -52.3924 4.9248e-12
5.54223e-13 4.9248e-12 -9.64616

-49.8143 15.5961 5.30113e-13
15.5961 10.1631 4.11908e-12
5.30113e-13 4.11908e-12 -13.5348

-40.2908 7.19032 -4.62023e-12
7.19032 16.5414 -5.37526e-12
-4.62023e-12 -5.37526e-12 -13.777

16.4043 20.3975 -3.37508e-13
20.3975 -25.8493 -7.97703e-12
-3.37508e-13 -7.97703e-12 -7.6144

-9.10112 -3.11392 -3.58824e-12
-3.11392 108.424 -1.7503e-12
-3.58824e-12 -1.7503e-12 -23.0993

-3.32511 -27.63 5.04189e-12
-27.63 -3.6319 -9.59825e-13
5.04189e-12 -9.59825e-13 -5.83757

-7.33756 -26.1213 5.03123e-12
-26.1213 -14.0859 -4.49329e-12
5.03123e-12 -4.49329e-12 -9.81601

-14.201 -31.4836 -3.92012e-12
-31.4836 -21.778 4.43482e-12
-3.92012e-12 4.43482e-12 -12.7592

90.7512 32.7585 3.76588e-13
32.7585 20.911 2.62131e-12
3.76588e-13 2.62131e-12 -16.5038

-23.1096 -20.1142 3.47692e-12
-20.1142 -17.3868 5.38577e-12
3.47692e-12 5.38577e-12 -44.409

72.6462 54.3349 -8.72073e-12
54.3349 91.6608 9.90023e-13
-8.72073e-12 9.90023e-13 -6.13858

-36.2198 -21.4378 -1.15448e-12
-21.4378 -6.79683 -1.39296e-12
-1.15448e-12 -1.39296e-12 -13.0472

15.0342 14.6511 -3.93937e-12
14.6511 -37.7579 -1.23782e-12
-3.93937e-12 -1.23782e-12 -8.18517

44.5799 -14.5766 -1.50161e-12
-14.5766 -8.28168 -1.91047e-12
-1.50161e-12 -1.91047e-12 -4.42577

-21.2363 24.0507 2.9227e-12
24.0507 4.95437 3.86358e-12
2.9227e-12 3.86358e-12 -5.98416

17.3735 20.4307 3.54857e-12
20.4307 -26.8008 -1.98478e-12
3.54857e-12 -1.98478e-12 -6.95841

-51.1372 11.3972 -9.65376e-13
11.3972 7.70839 4.51757e-12
-9.65376e-13 4.51757e-12 -29.9863

-7.29146 -31.5843 1.00956e-13
-31.5843 -12.8306 2.38002e-12
1.00956e-13 2.38002e-12 -8.12597

2.79291 19.8119 -1.75919e-12
19.8119 -46.0289 1.13539e-12
-1.75919e-12 1.13539e-12 -29.9782

-24.6787 -18.4477 8.12565e-12
-18.4477 17.8365 -8.52651e-14
8.12565e-12 -8.52651e-14 -5.48792

-42.3453 4.28508 2.23469e-12
4.28508 17.869 -7.73781e-12
2.23469e-12 -7.73781e-12 -12.7314

-4.09799 9.92909 1.52796e-12
9.92909 -40.2674 -2.02238e-12
1.52796e-12 -2.02238e-12 -47.5281

-2.68873 -8.51613 -5.40901e-12
-8.51613 -38.2989 4.43497e-13
-5.40901e-12 4.43497e-13 -47.3837

81.7428 18.5175 -8.07177e-12
18.5175 1.6958 -4.44681e-13
-8.07177e-12 -4.44681e-13 -14.455

3.89523 7.96684 5.51648e-12
7.96684 -45.189 -3.21225e-14
5.51648e-12 -3.21225e-14 -11.0242

35.8868 7.74303 -7.14436e-12
7.74303 184.614 4.56168e-12
-7.14436e-12 4.56168e-12 -9.7452

40.1611 -11.3881 -7.07301e-12
-11.3881 190.412 -1.3074e-12
-7.07301e-12 -1.3074e-12 -7.37655

53.7822 56.4162 8.71599e-13
56.4162 159.292 -2.00847e-12
8.71599e-13 -2.00847e-12 -11.4879

1.70529 -28.9536 6.36587e-12
-28.9536 -24.6937 -8.50579e-13
6.36587e-12 -8.50579e-13 -11.9668

16.0557 -49.2028 -2.58401e-12
-49.2028 99.4438 -9.91681e-12
-2.58401e-12 -9.91681e-12 -21.6855

54.5303 -55.9588 3.55508e-12
-55.9588 150.008 8.986e-12
3.55508e-12 8.986e-12 -13.6531

-2.17185 26.2275 -3.46094e-12
26.2275 17.5727 1.96347e-12
-3.46094e-12 1.96347e-12 -4.00388

134.972 73.8563 4.50958e-12
73.8563 85.047 -8.62125e-13
4.50958e-12 -8.62125e-13 -10.1468

-18.7258 13.0448 -3.20455e-12
13.0448 -3.89677 1.45602e-12
-3.20455e-12 1.45602e-12 -26.7622

3.73999 0.0447775 2.39645e-12
0.0447775 -26.1904 -6.6495e-13
2.39645e-12 -6.6495e-13 -26.7654

144.131 -73.1415 -3.0127e-12
-73.1415 85.3747 -6.27883e-12
-3.0127e-12 -6.27883e-12 -8.18359

-21.4027 -23.4301 6.1305e-12
-23.4301 12.2467 -4.4403e-12
6.1305e-12 -4.4403e-12 -6.49981

89.368 34.7384 2.80191e-12
34.7384 41.3989 1.80596e-12
2.80191e-12 1.80596e-12 -11.5453

72.2088 63.5022 6.81884e-12
63.5022 149.726 -3.5764e-12
6.81884e-12 -3.5764e-12 -9.66138

26.1697 21.636 5.43802e-12
21.636 100.158 2.13873e-12
5.43802e-12 2.13873e-12 -13.0289

73.8962 -65.9315 -8.09308e-12
-65.9315 151.178 4.26326e-14
-8.09308e-12 4.26326e-14 -9.38958

25.7743 -12.3842 -1.06954e-11
-12.3842 105.038 2.27137e-12
-1.06954e-11 2.27137e-12 -12.4255

-28.6642 6.8365 1.05117e-11
6.8365 3.10918 2.89309e-12
1.05117e-11 2.89309e-12 -37.8385

37.7504 -45.9878 -5.3421e-12
-45.9878 49.6798 2.6219e-12
-5.3421e-12 2.6219e-12 -15.5334

14.4497 47.5439 5.54105e-12
47.5439 94.9033 3.73509e-12
5.54105e-12 3.73509e-12 -22.1892

173.377 37.9188 -2.72375e-12
37.9188 48.0587 5.39716e-12
-2.72375e-12 5.39716e-12 -9.51022

7.01751 -29.2913 -2.43361e-12
-29.2913 -14.3631 5.30598e-12
-2.43361e-12 5.30598e-12 -7.16274

-38.4236 12.8956 3.65189e-12
12.8956 6.43623 2.13548e-12
3.65189e-12 2.13548e-12 -15.2925

88.5267 -38.1224 -5.2367e-12
-38.1224 34.1705 -1.68635e-12
-5.2367e-12 -1.68635e-12 -14.097

6.03987 -28.8071 -6.8668e-12
-28.8071 -16.1794 6.31672e-12
-6.8668e-12 6.31672e-12 -8.03655

169.242 -36.3505 -3.55271e-12
-36.3505 34.9436 -6.06271e-12
-3.55271e-12 -6.06271e-12 -13.2786

-5.72793 -28.3225 -3.33008e-12
-28.3225 -14.4785 1.33967e-12
-3.33008e-12 1.33967e-12 -9.31557

-17.7994 -25.3015 -7.51695e-13
-25.3015 12.0787 -5.27519e-12
-7.51695e-13 -5.27519e-12 -5.94289

118.904 69.4725 1.89004e-12
69.4725 96.2446 2.70006e-12
1.89004e-12 2.70006e-12 -11.3884

29.4196 -22.9388 5.75066e-12
-22.9388 97.8204 9.02389e-13
5.75066e-12 9.02389e-13 -14.337

117.987 -71.7049 -1.80952e-12
-71.7049 93.7059 1.16742e-11
-1.80952e-12 1.16742e-11 -12.4044

22.2715 50.7496 8.65678e-13
50.7496 73.7988 -9.42653e-13
8.65678e-13 -9.42653e-13 -24.7748

-1.54095 -30.2189 7.1451e-12
-30.2189 -6.55836 7.57172e-12
7.1451e-12 7.57172e-12 -7.0058

-7.04057 -14.6419 4.08947e-12
-14.6419 -21.9218 2.80309e-12
4.08947e-12 2.80309e-12 -32.603

-11.8907 11.0877 3.3508e-12
11.0877 -16.4195 -3.42171e-12
3.3508e-12 -3.42171e-12 -77.7514

-26.1552 -5.16091 -1.9161e-12
-5.16091 -6.38678 -3.71198e-12
-1.9161e-12 -3.71198e-12 -77.5854

-38.95 13.0844 -8.92767e-13
13.0844 13.7441 2.47328e-12
-8.92767e-13 2.47328e-12 -10.2448

-14.4777 -10.662 1.21422e-11
-10.662 -17.3065 -8.78112e-13
1.21422e-11 -8.78112e-13 -78.7135

-25.8889 4.09315 -6.77369e-12
4.09315 -5.9131 1.60016e-11
-6.77369e-12 1.60016e-11 -78.8556

-3.63017 7.42752 -3.74352e-12
7.42752 -27.85 -1.45735e-12
-3.74352e-12 -1.45735e-12 -77.9435

-43.962 -12.1089 -5.51851e-12
-12.1089 2.91554 -1.48959e-11
-5.51851e-12 -1.48959e-11 -68.1227

11.9728 -30.4792 8.90902e-12
-30.4792 76.1812 -8.83441e-13
8.90902e-12 -8.83441e-13 -14.7023

0.518691 -12.9721 -3.52104e-12
-12.9721 -39.9837 2.09847e-12
-3.52104e-12 2.09847e-12 -45.2581

-16.348 -34.4138 1.11881e-12
-34.4138 -22.0725 -4.19605e-12
1.11881e-12 -4.19605e-12 -23.5866

-2.42325 -18.1786 1.0368e-12
-18.1786 -29.8907 -4.07866e-12
1.0368e-12 -4.07866e-12 -33.6149

12.7362 15.4624 -1.37608e-12
15.4624 -37.724 -1.32279e-12
-1.37608e-12 -1.32279e-12 -9.63177

-46.8937 9.85989 6.34737e-12
9.85989 8.87365 5.21065e-14
6.34737e-12 5.21065e-14 -70.1171

3.45961 19.2216 -1.14033e-11
19.2216 -41.4581 6.11008e-12
-1.14033e-11 6.11008e-12 -70.2329

1.4686 11.311 6.49258e-12
11.311 -23.9622 -3.59253e-12
6.49258e-12 -3.59253e-12 -31.8567

109.421 -15.3441 3.60482e-12
-15.3441 -12.5358 -8.89955e-12
3.60482e-12 -8.89955e-12 -25.0342

-14.3288 24.9708 -1.59517e-12
24.9708 10.3849 -2.70125e-12
-1.59517e-12 -2.70125e-12 -5.81324

76.6265 -61.3696 1.17145e-11
-61.3696 37.3777 4.44089e-12
1.17145e-11 4.44089e-12 -22.3913

76.1308 -57.47 7.34227e-14
-57.47 99.2506 -8.63309e-12
7.34227e-14 -8.63309e-12 -5.55053

118.223 -36.5528 3.15718e-12
-36.5528 40.6093 8.10019e-13
3.15718e-12 8.10019e-13 -7.37501

-51.0966 -5.15828 -4.8385e-12
-5.15828 3.33745 3.03372e-12
-4.8385e-12 3.03372e-12 -60.6303

-50.4609 2.8916 -1.02659e-12
2.8916 3.13173 -4.94627e-12
-1.02659e-12 -4.94627e-12 -60.1032

-11.9744 -24.4478 2.72256e-12
-24.4478 -34.9907 2.61591e-12
2.72256e-12 2.61591e-12 -59.138

-8.98935 -21.7512 -3.00863e-12
-21.7512 -37.8768 4.1546e-12
-3.00863e-12 4.1546e-12 -59.4474

-14.7001 26.1265 -3.66818e-13
26.1265 -33.0158 -7.8193e-12
-3.66818e-13 -7.8193e-12 -60.7215

-18.1479 3.0934 1.29374e-11
3.0934 -13.1594 2.68894e-11
1.29374e-11 2.68894e-11 -75.4372

-9.94409 -20.5023 -1.64195e-12
-20.5023 -32.6395 -2.39712e-12
-1.64195e-12 -2.39712e-12 -56.7097

-26.6359 -18.5632 -2.99908e-13
-18.5632 -14.1949 -1.59469e-11
-2.99908e-13 -1.59469e-11 -71.235

-15.4684 2.43003 7.53175e-12
2.43003 -12.8495 7.32288e-12
7.53175e-12 7.32288e-12 -77.8301

-6.02613 -20.5183 4.19376e-12
-20.5183 -41.4744 -4.96492e-13
4.19376e-12 -4.96492e-13 -60.4777

-6.75518 20.9477 -2.89975e-12
20.9477 -40.1312 2.84395e-12
-2.89975e-12 2.84395e-12 -59.9892

-14.3063 -3.45373 3.69837e-12
-3.45373 -11.3877 -1.17614e-11
3.69837e-12 -1.17614e-11 -76.8451

-11.258 -3.11045 -2.33098e-11
-3.11045 -17.6806 6.76451e-12
-2.33098e-11 6.76451e-12 -74.0096

-24.1917 12.1086 -2.37973e-12
12.1086 -13.3997 1.92291e-12
-2.37973e-12 1.92291e-12 -69.9317

-22.0757 26.9221 3.29425e-12
26.9221 -26.2626 -8.31844e-13
3.29425e-12 -8.31844e-13 -57.5554

VECTORS fluid_flux_TPM float
-8.73078e-05 3.10617e-05 -4.68503e-21
3.56298e-06 6.88909e-06 -1.76001e-20
-1.27994e-05 -1.02353e-05 1.3268e-20
-4.17443e-06 4.25809e-06 -1.48771e-20
2.27291e-05 -6.31931e-06 1.74782e-21
2.76033e-06 -1.59185e-05 2.76176e-20
-8.58822e-05 -3.11261e-05 -9.13987e-21
-1.39054e-05 -1.04768e-05 3.12729e-21
2.21427e-05 9.46414e-07 1.1731e-21
1.13948e-05 -3.91176e-06 -1.77282e-21
5.46527e-05 1.24957e-05 6.8062e-21
2.34922e-06 -1.72103e-05 1.23423e-20
1.36244e-05 1.12644e-05 -4.38458e-21
2.66469e-06 1.37977e-05 -8.69006e-21
2.06004e-05 -2.94948e-06 1.22881e-20
-1.63479e-05 -2.73145e-07 3.24962e-21
2.75621e-06 1.41122e-05 4.44803e-21
1.01914e-05 -2.39413e-06 2.61267e-21
9.90815e-06 1.7239e-05 -1.5168e-21
-1.48626e-05 1.88729e-06 3.74183e-22
-3.60447e-06 -2.13243e-05 6.45779e-21
3.41439e-05 5.94749e-05 4.97146e-21
1.57124e-05 1.63285e-06 2.50687e-21
1.12381e-05 -1.12921e-05 7.97414e-21
-1.50928e-05 -3.33559e-06 9.43585e-21
-6.7778e-07 -1.11415e-05 -7.44337e-21
6.29641e-05 -4.91312e-06 1.37499e-20
1.40795e-05 1.02586e-05 1.21227e-20
-2.5174e-05 -2.06632e-05 -2.41092e-21
4.91678e-05 -1.28264e-05 6.05685e-21
-1.65984e-05 -6.04412e-06 9.7199e-21
5.54292e-06 -3.2068e-05 4.74491e-21
4.77014e-05 -4.80939e-05 1.18721e-20
-4.92809e-06 -4.12881e-05 4.59628e-21
-2.97024e-05 3.70415e-05 9.0522e-21
-3.82849e-05 -1.64112e-05 -6.08702e-21
3.27348e-05 4.32578e-05 9.79753e-21
-4.47846e-05 -8.73448e-06 6.34105e-21
1.43885e-05 -1.10925e-05 3.9162e-21
4.6516e-05 5.0164e-05 1.00011e-20
3.2161e-05 -1.40356e-05 1.82129e-20
3.36732e-05 -4.2385e-05 -9.39931e-21
-1.99159e-05 -5.0428e-05 1.7634e-20
-1.59136e-05 6.36304e-06 -5.44627e-21
3.0556e-05 -2.93428e-05 1.64931e-20
-3.03628e-05 1.10015e-05 9.24819e-21
-4.05403e-06 -2.03909e-05 1.17574e-20
7.89402e-06 2.02317e-05 5.2427e-21
-1.63587e-05 5.93376e-06 4.53379e-22
-1.78372e-05 2.87548e-05 2.6633e-21
3.24407e-05 1.53059e-05 -2.83625e-21
2.93943e-05 -1.0085e-05 -6.53776e-22
-1.56818e-05 1.5776e-05 8.52165e-21
-2.35649e-05 -2.07114e-05 -4.98849e-21
-2.11608e-05 -5.13755e-06 -1.52374e-20
-4.48367e-05 2.71041e-05 -2.55803e-21
-2.94012e-05 -3.8061e-05 -9.54901e-21
6.37017e-06 -3.06587e-05 4.37929e-21
-4.77555e-05 6.48943e-06 -1.95607e-20
6.08033e-06 1.37107e-05 3.61259e-21
-5.58243e-06 -8.18167e-06 3.51983e-22
-6.59018e-06 -1.79617e-05 -7.32435e-22
5.72018e-05 2.48846e-05 2.21098e-21
9.25228e-06 1.81627e-05 6.82878e-21
1.23091e-05 -1.44596e-05 -4.71906e-21
-1.64212e-06 -2.07736e-05 1.13428e-20
4.62586e-06 -8.81451e-06 -3.23852e-22
-1.01008e-05 -5.57056e-06 -4.58005e-21
-1.06134e-05 1.19416e-05 1.20001e-20
2.5608e-06 -4.09673e-06 2.81087e-21
-1.50587e-05 -1.58593e-05 1.74308e-20
-2.13866e-05 5.1712e-06 -8.12791e-22
-3.56002e-06 3.45171e-05 1.75661e-21
-1.78901e-05 1.07219e-05 9.37186e-21
-9.08001e-06 1.46298e-05 -3.77978e-21
-6.04185e-05 7.7006e-06 2.98064e-21
7.82613e-06 -2.17037e-05 -1.29799e-21
-1.88994e-05 -8.90928e-06 -7.19546e-21
1.93582e-06 1.16359e-05 7.37986e-21
2.63279e-05 5.09484e-06 1.01152e-20
3.42042e-05 -2.90045e-05 1.47439e-20
2.21692e-05 2.05772e-05 8.65445e-21
1.19207e-05 -2.82525e-06 1.69245e-20
-3.21872e-05 2.40928e-05 -2.00468e-22
3.79433e-05 4.8508e-06 1.26647e-21
-4.9852e-06 4.94662e-05 -1.38026e-20
-1.74277e-06 -1.68745e-05 3.27402e-21
1.81425e-05 9.96483e-06 1.56919e-20
2.9348e-05 3.03167e-05 3.6398e-21
5.50813e-05 3.80524e-05 1.60219e-20
-5.33654e-06 3.08047e-05 -7.60935e-21
5.92406e-05 -3.55489e-05 -3.11486e-20
-2.71527e-05 5.34671e-06 9.71459e-21
1.78576e-05 1.10131e-05 6.73201e-21
-2.9672e-05 9.91378e-06 1.78254e-21
1.66705e-05 2.85505e-05 1.42093e-21
1.01799e-05 -4.44326e-05 -2.27981e-22
1.91753e-06 1.16327e-05 2.90099e-21
-1.4816e-05 -1.76383e-05 3.61494e-21
3.07317e-06 1.74926e-05 9.26092e-22
2.64341e-05 5.26286e-06 -3.38029e-21
-1.5459e-05 3.32458e-05 -1.0622e-20
4.05941e-05 -1.33467e-05 2.22157e-20
-3.77686e-06 7.46281e-06 -1.48096e-20
9.96313e-06 5.90534e-06 3.05576e-21
-2.28286e-06 -1.13363e-05 -1.55523e-20
3.22406e-06 -1.92717e-05 -1.12759e-20
1.74873e-05 3.89607e-06 1.01668e-20
-7.94482e-06 4.10151e-05 -8.7087e-21
-9.81561e-06 2.48239e-07 -6.15813e-21
9.3282e-06 1.1898e-05 -1.55409e-21
-2.17871e-06 -4.17572e-05 6.9554e-22
4.20663e-05 1.28781e-05 3.5393e-21
4.42721e-06 -7.46081e-06 1.14409e-20
-1.11567e-05 -3.55729e-06 1.32324e-20
-2.93562e-05 -1.24991e-05 -4.52394e-22
1.582e-05 4.11896e-05 5.38261e-21
-4.35308e-05 -1.55904e-05 6.29671e-22
1.6035e-05 -4.11661e-05 -2.54101e-20
-3.70334e-06 -3.19532e-05 1.10701e-21
2.18613e-05 6.52853e-07 7.84249e-21
-7.17883e-06 1.84156e-05 -1.1528e-20
-1.61276e-06 3.9736e-06 1.12072e-20
-3.68965e-06 -1.65557e-05 9.64292e-21
5.23534e-06 -8.31058e-06 -8.54257e-21
9.36919e-06 1.58798e-05 1.05441e-20
3.31352e-05 1.06634e-05 -1.89887e-20
8.62439e-06 -7.46566e-06 9.06508e-21
-8.27904e-06 -4.5207e-05 -1.69498e-20
2.55785e-05 -1.88391e-05 -2.3186e-21
4.98313e-06 2.77998e-05 4.20317e-21
-2.81924e-06 -2.84452e-06 1.01427e-20
-8.63501e-06 -8.33432e-06 2.09631e-20
-4.7815e-06 4.41156e-08 -1.0073e-20
-2.28963e-05 2.86242e-05 -5.24316e-21
1.87824e-05 -3.74134e-05 4.29046e-21
-2.66072e-05 4.27593e-05 -5.28453e-21
-1.63887e-05 9.54516e-06 -7.74472e-21
2.53052e-06 1.22113e-05 1.34348e-20
-2.30103e-05 -3.50253e-05 4.37405e-22
1.39507e-05 3.35004e-05 5.75636e-22
1.75257e-05 9.37876e-06 3.5775e-21
2.28349e-05 -8.53131e-06 6.09299e-21
-1.25436e-06 -1.12769e-05 7.20707e-21
-3.39469e-05 -3.15913e-05 -3.75219e-21
-2.75422e-06 1.1315e-05 1.63541e-21
1.72644e-05 1.01821e-05 1.00056e-20
1.89068e-05 -8.8298e-06 -3.76948e-21
8.25172e-06 -1.43595e-05 1.78931e-20
2.43819e-05 -1.08063e-05 -6.14932e-21
1.9029e-05 -9.007e-06 -9.93176e-21
4.64544e-06 2.06053e-07 1.2636e-20
2.57672e-05 2.02417e-05 1.44618e-21
-2.74435e-06 -1.70474e-05 -1.27108e-21
-1.04904e-05 -4.46163e-06 -9.21802e-21
1.12707e-06 -3.8941e-06 -1.22355e-20
-3.15818e-06 1.58631e-05 -1.03553e-21
-3.49197e-05 2.77105e-06 1.35151e-20
-1.21337e-05 -3.32927e-05 -2.02347e-21
-7.88705e-06 9.7891e-06 -1.46457e-20
1.35792e-05 1.66573e-05 -1.2317e-20
2.65959e-05 -1.87637e-05 9.56507e-21
-3.68304e-05 -2.03724e-05 -3.06075e-21
1.74212e-05 -2.75356e-05 1.17947e-21
2.28274e-05 -2.72442e-05 9.47579e-21
-1.09556e-05 3.78881e-06 1.22372e-20
-1.98493e-05 -2.88703e-05 2.96154e-21
-3.49161e-05 -5.79746e-06 1.27556e-20
-3.85592e-06 -3.17755e-05 2.79753e-21
1.54638e-05 -3.17315e-05 4.43355e-21
-9.11535e-06 -2.62262e-05 1.32622e-20
4.58623e-06 3.14377e-05 6.46576e-22
-1.57682e-05 -2.85517e-05 -6.89154e-21
2.94188e-06 -1.63089e-05 6.51128e-22
-2.47648e-05 1.8279e-05 -4.83381e-21
-1.50461e-05 -1.21235e-05 -1.03867e-20
-2.73807e-05 -5.17775e-06 -1.06245e-20
1.56841e-05 -9.19089e-06 -1.07993e-20
-4.31126e-06 2.3977e-05 1.87506e-21
1.22451e-05 -9.33395e-06 -1.37763e-20
-2.96166e-05 -1.31781e-05 4.01837e-21
-8.84062e-06 -7.46579e-06 -1.13889e-20
9.09142e-06 7.54851e-06 2.25335e-20
2.14489e-05 2.873e-05 1.45471e-20
-1.75268e-05 -1.08204e-05 -1.51594e-20
-3.254e-05 -7.51815e-07 -1.02887e-21
-1.63534e-05 -5.02136e-06 -1.5789e-20
-4.5827e-06 -1.66001e-05 1.08776e-20
1.77027e-05 2.12609e-05 2.37539e-20
-1.09685e-05 5.88085e-06 2.51709e-21
6.36797e-07 -2.05763e-05 1.59292e-20
-4.19835e-05 1.08624e-05 8.62745e-21
2.48861e-05 2.02669e-05 4.0593e-21
3.7988e-06 3.2819e-05 -4.75131e-22
-2.43447e-06 3.8011e-06 5.62796e-21
-9.06023e-06 2.51477e-07 7.88122e-21
4.35963e-06 7.768e-06 -2.5958e-22
-1.17058e-05 3.40491e-06 -7.75231e-21
-2.0754e-06 -3.78875e-06 6.04497e-21
1.66158e-06 2.07812e-05 -8.37052e-21
4.47703e-06 4.50125e-07 1.02225e-20
-1.95583e-05 4.76163e-06 -3.32245e-21
-1.73161e-05 1.93782e-05 -2.59092e-21
-3.11061e-06 1.15901e-05 -1.12677e-20
-2.92472e-05 1.84137e-05 -3.39256e-21
-9.35287e-06 8.98847e-06 9.88642e-21
1.7329e-05 -1.16256e-05 1.78086e-21
3.66418e-05 -3.56829e-06 8.97889e-21
-2.11624e-05 1.1309e-05 1.60203e-20
2.23529e-06 4.50284e-06 1.56598e-20
2.17977e-05 -4.3493e-06 -2.52676e-20
-1.72967e-05 1.03635e-05 1.03367e-20
-9.88196e-06 5.54476e-06 3.24553e-21
1.18436e-05 3.74658e-06 -1.84187e-20
2.19025e-05 -1.34849e-05 1.23094e-20
-1.73979e-05 9.96644e-06 6.46936e-21
-2.5063e-05 -5.30862e-06 1.37409e-20
-1.67789e-05 -4.367e-06 -6.1519e-21
9.88639e-06 6.29168e-09 -1.68438e-21
1.01843e-05 1.95523e-07 2.3378e-20
4.39534e-06 8.32574e-06 2.73576e-21
4.83458e-06 -8.80682e-06 -1.06515e-20
-5.0155e-06 8.42849e-06 -4.01987e-21
-5.27209e-06 -8.66647e-06 9.72099e-21
9.92118e-06 -7.41557e-06 -5.58406e-21
-2.03483e-05 3.23821e-06 -6.62749e-21
-2.00804e-05 -3.28708e-06 -1.11755e-20
-1.28478e-05 1.58927e-05 4.445e-21
-1.29277e-05 -1.5947e-05 7.59853e-21
7.4939e-06 -1.9864e-05 -2.21881e-20
7.21336e-06 1.97841e-05 1.03584e-20
1.55965e-06 2.59117e-05 -3.00072e-21
1.1252e-05 -3.14001e-06 -1.04055e-20
2.3624e-06 -3.87044e-06 9.49088e-21
-2.14335e-05 1.42318e-06 7.67992e-21
7.68501e-06 -1.9533e-05 -1.63508e-20
7.28084e-06 1.96817e-05 5.80606e-21
4.77367e-06 -5.27627e-08 1.08058e-20
8.97766e-06 2.44281e-05 7.97376e-21
-2.24451e-06 -4.02049e-06 -9.63971e-21
2.32023e-06 -1.13285e-05 3.63435e-21
-2.24536e-05 -1.21643e-05 6.61777e-21
-2.13798e-05 -1.15064e-05 -2.73742e-21
-2.1915e-05 1.36427e-05 -2.84285e-21
3.25454e-06 -1.23e-05 -2.73389e-22
-1.56684e-06 3.38546e-06 -1.97786e-20
-5.87672e-07 -2.55951e-05 2.80337e-21
-7.72783e-06 -2.44478e-05 1.44683e-20
3.27371e-05 3.03929e-05 9.42251e-21
3.54889e-05 -1.81698e-06 1.35261e-20
-1.27238e-05 -3.63579e-06 -7.75626e-21
-2.29155e-05 -4.14285e-05 -5.61074e-21
8.31266e-06 1.37617e-05 1.45762e-21
-2.52614e-05 3.03646e-06 1.78397e-21
2.00853e-05 5.79218e-06 -7.19826e-21
-4.53768e-06 -3.27619e-08 7.79347e-21
-4.66976e-06 -8.42109e-06 1.5711e-20
-7.07991e-06 -3.93721e-05 -4.87732e-21
-9.71797e-06 -8.40508e-08 -1.32737e-20
-4.87243e-05 -1.81756e-06 8.91834e-22
1.73263e-05 -1.91243e-05 4.36421e-21
2.43184e-06 4.00302e-06 1.74878e-20
-1.20622e-07 -1.75311e-05 1.78931e-20
-9.82802e-06 2.41082e-05 -2.51452e-21
-4.37632e-06 8.63594e-06 5.56406e-21
2.05767e-05 -1.36195e-05 1.90818e-20
-3.76963e-05 -1.35649e-05 -7.33802e-21
-1.52809e-05 -2.03863e-05 2.28602e-21
4.98198e-06 8.39733e-06 2.34245e-20
1.66476e-05 5.16564e-06 3.29572e-20
-4.76851e-06 -7.34562e-06 -2.04884e-20
1.9816e-05 3.55074e-06 -2.69132e-20
1.82063e-05 -9.83535e-06 -6.47947e-21
-3.49083e-07 2.71993e-05 2.27724e-21
8.32859e-06 -1.368e-05 -5.83432e-22
4.88512e-05 2.20276e-06 1.42527e-20
-4.23989e-05 1.14652e-05 6.37994e-21
2.28819e-05 1.15672e-05 1.33759e-20
-6.45903e-06 -1.71958e-05 1.34165e-20
-1.53645e-05 -8.62644e-06 -5.84448e-21
2.88148e-05 -2.10731e-07 -5.18585e-21
-6.9253e-07 -2.42779e-05 5.40816e-21
-1.26294e-05 -1.08843e-05 4.24552e-21
1.02338e-05 -2.35218e-05 -5.16737e-22
-4.96952e-07 2.05748e-05 -1.08917e-20
7.92539e-06 2.60923e-05 -8.89893e-21
1.72842e-05 -9.8935e-06 -7.05995e-21
-1.89658e-05 1.9317e-05 -6.83598e-21
1.65435e-05 2.00481e-05 -2.88694e-23
-6.22889e-05 1.6037e-05 -6.17773e-21
-1.01185e-05 2.60405e-05 8.5697e-21
1.25308e-05 -1.52625e-05 -4.62757e-21
-7.03563e-06 -1.8415e-05 1.02903e-20
-1.18646e-05 4.50998e-06 -1.94474e-21
-2.59179e-05 -7.0525e-06 2.4786e-20
-6.39203e-06 3.88942e-05 8.68106e-21
-1.26177e-05 1.19136e-05 -8.79132e-21
2.07961e-05 -4.47974e-06 8.96559e-23
-6.87875e-06 -2.58185e-05 9.61532e-21
-1.48826e-05 2.39136e-05 6.64142e-21
-2.18093e-05 1.25766e-05 7.56764e-21
-2.05888e-05 -1.50698e-05 -6.13286e-21
1.80454e-05 -2.06743e-05 -1.6544e-20
-2.75568e-05 -1.45762e-06 1.51079e-20
1.23795e-05 -4.08484e-05 6.07504e-21
1.94045e-05 -1.89307e-05 1.32533e-20
2.47561e-05 4.31221e-05 1.06224e-20
1.97307e-06 1.98851e-05 -9.18656e-21
2.96413e-06 -2.5445e-05 -4.41452e-21
-4.16753e-05 4.70059e-05 -7.09361e-21
-1.27139e-05 -2.44347e-05 1.1888e-20
1.63822e-05 -6.42647e-06 -2.32183e-20
-2.41289e-06 2.57966e-05 -7.40441e-21
1.2895e-05 -1.18375e-05 -1.56159e-20
1.38937e-05 2.43357e-05 -4.12318e-21
1.7246e-05 -1.40178e-06 7.4624e-21
2.21417e-05 -6.32759e-05 1.63076e-20
-5.88152e-06 -1.28713e-05 -4.76488e-22
-2.32063e-05 1.00968e-05 -8.88249e-21
-2.00386e-05 1.87365e-05 -1.37137e-21
2.16326e-05 1.45812e-05 7.81278e-21
1.86901e-05 -1.07667e-05 1.48607e-20
1.49659e-05 1.26052e-05 5.55118e-21
-5.43311e-06 4.56177e-08 -2.92472e-21
1.54182e-05 -2.31088e-05 6.58937e-21
-1.70062e-05 -2.04286e-05 9.19945e-21
2.2583e-05 9.78279e-06 -1.09064e-21
1.28186e-05 -1.20009e-05 -2.06115e-21
9.56311e-06 -2.4875e-05 -5.39116e-21
1.66748e-05 -6.93932e-06 3.9713e-21
-1.58203e-05 -7.55175e-06 9.58477e-21
1.29814e-06 -2.63275e-05 1.44346e-20
-2.61315e-05 4.47736e-06 -2.27449e-21
2.39286e-06 2.45658e-05 1.0788e-20
2.06042e-05 6.63362e-06 -2.81004e-21
-2.1741e-05 -1.0712e-05 2.82512e-21
-8.98546e-06 2.56343e-05 4.86572e-21
-1.49659e-06 -2.42107e-05 3.69794e-21
1.94846e-05 1.18484e-05 2.64346e-20
-1.77052e-06 1.81018e-05 -3.41939e-21
-2.01578e-05 1.37157e-05 -6.27862e-21
2.3533e-05 1.14258e-05 6.39593e-21
-1.71314e-05 -9.99503e-06 -1.40865e-21
9.52923e-08 -1.98534e-05 -1.33237e-22
1.83998e-05 2.0003e-05 2.81936e-21
-2.21746e-05 -1.43171e-05 -1.18452e-20
4.83973e-05 -3.40135e-05 2.83181e-20
1.79139e-05 -1.08326e-05 4.98584e-21
9.01096e-06 4.31283e-05 6.72836e-21
1.70503e-05 -1.36915e-05 -2.75e-21
-1.98902e-05 8.71204e-05 -8.26653e-21
-1.978e-05 -8.66347e-05 -2.53051e-21
5.72412e-05 7.17842e-05 4.39831e-21
5.6979e-05 -7.14573e-05 3.10918e-21
9.07333e-05 -1.12463e-10 6.60133e-21
-7.82757e-05 3.76826e-05 -6.58579e-21
-7.753e-05 -3.73256e-05 -3.53346e-21
1.22456e-05 1.18299e-05 1.64775e-20
2.93961e-05 2.19134e-05 1.59326e-20
1.14592e-05 3.33601e-06 1.11947e-20
1.88739e-05 9.76084e-06 -1.21054e-20
4.99424e-06 2.01896e-05 -7.89592e-21
-1.88501e-05 -1.49951e-05 -4.91785e-21
1.70544e-05 -1.0224e-05 -7.25996e-21
1.98718e-05 1.45633e-05 5.21784e-21
-3.16981e-06 2.43876e-05 5.63935e-23
2.9469e-05 -2.00121e-05 -2.63745e-20
3.79781e-06 -2.37629e-05 -1.65693e-21
2.19821e-05 5.23205e-06 2.99814e-20
2.99248e-05 1.10366e-05 3.53081e-21
1.42225e-05 1.41575e-05 1.22626e-20
1.58986e-05 6.60004e-06 7.0892e-21
-1.85167e-05 1.09474e-05 -9.83398e-21
-2.25852e-05 9.04557e-06 -8.04962e-21
2.29517e-05 -1.12743e-05 -1.63371e-20
-1.82857e-05 -1.00078e-05 1.18121e-21
-1.85725e-05 -1.05929e-05 1.19401e-20
-3.44048e-07 -2.07879e-05 7.0488e-21
-8.60403e-08 -2.11814e-05 1.16529e-21
-2.01468e-05 -1.00645e-06 1.59936e-20
2.6725e-05 -4.02301e-06 -1.24334e-20
1.81297e-05 1.13531e-05 1.48603e-20
-1.78817e-05 1.09559e-05 -1.25076e-20
-1.53764e-05 1.66399e-05 8.46305e-21
1.60378e-05 -1.37665e-05 7.91237e-21
-1.10341e-05 1.74806e-05 3.94243e-21
-1.42388e-05 -1.49043e-05 1.65185e-20
-1.15619e-06 2.12314e-05 2.60024e-21
-1.2888e-06 2.09888e-05 -4.57391e-21
8.99511e-08 -1.98534e-05 1.5515e-20
6.11699e-06 -1.97566e-05 9.53855e-21
-1.71577e-05 -9.94529e-06 -1.1188e-20
1.5602e-05 -5.49561e-06 1.38016e-21
6.63989e-07 2.14988e-05 3.11222e-21
3.01267e-07 1.85257e-05 -2.77403e-21
-2.34792e-06 1.68739e-05 3.94538e-21
2.19303e-05 -5.53278e-06 -8.55989e-22
-1.65575e-05 5.38342e-06 -4.27342e-21
4.16171e-06 2.15386e-05 5.88177e-21
-3.25903e-05 1.2932e-05 -1.43792e-21
9.77367e-06 4.17725e-05 -8.51278e-21
-1.70702e-05 4.57268e-06 -8.53576e-21
1.97038e-05 -1.16415e-05 -1.18321e-20
9.46866e-07 2.10402e-05 3.4726e-21
-2.05016e-05 6.70611e-06 -1.07801e-20
2.4466e-06 -1.62785e-05 -7.67383e-22
1.8226e-06 -5.80702e-05 1.73077e-20
2.00859e-06 1.75035e-05 -2.98511e-21
-1.69788e-05 1.40367e-05 -4.49396e-21
1.78725e-05 6.40351e-05 -7.87318e-21
4.58144e-05 3.7744e-05 1.04502e-20
5.21164e-05 -3.52904e-05 -3.64973e-20
1.48302e-05 -1.01771e-05 -1.89637e-21
-1.58011e-05 1.40517e-05 -1.55948e-21
-2.02371e-05 -7.92862e-06 1.97241e-20
-1.96653e-05 -6.82929e-06 2.55792e-20
5.93257e-05 -2.46363e-05 -2.9955e-20
5.74906e-05 2.38945e-05 2.06228e-20
1.09053e-05 3.82125e-06 5.71382e-21
7.67531e-07 1.95988e-05 7.80429e-21
7.85671e-08 1.95801e-05 -3.25265e-21
-4.84311e-05 -3.6958e-05 -2.55271e-21
1.14367e-05 -1.71889e-05 1.09753e-20
1.17449e-05 1.2477e-05 1.62526e-20
-2.14397e-05 -3.39914e-06 1.50542e-20
-1.4059e-05 1.72195e-05 7.29339e-22
-1.89075e-05 9.17706e-06 -7.22835e-21
4.76912e-05 3.37272e-05 8.95799e-21
1.58222e-05 7.06864e-06 1.26533e-20
-5.57214e-06 2.00505e-05 7.60298e-21
-1.6995e-05 -1.17611e-05 -6.20426e-22
1.85827e-06 -2.05634e-05 8.12292e-21
-8.95858e-06 -1.92867e-05 1.6321e-20
-1.72664e-05 -1.17855e-05 1.29997e-21
1.05903e-05 -1.89547e-05 1.32259e-20
1.41367e-05 -1.70062e-05 1.42817e-20
-2.44197e-06 -6.14999e-05 3.53801e-21
2.62069e-05 -4.11667e-05 5.30576e-21
1.74942e-06 -2.08064e-05 -1.18841e-20
1.79767e-05 1.13667e-05 9.69434e-23
-1.44908e-05 -1.49205e-05 6.66143e-21
-9.85086e-06 1.97301e-05 1.32164e-20
-5.04435e-06 2.10279e-05 4.05877e-21
1.6644e-05 1.4258e-05 -4.32994e-21
6.06526e-06 -1.98813e-05 6.09907e-21
-1.34192e-05 -4.03994e-05 -3.08636e-21
-1.99028e-06 2.50656e-05 -3.32328e-21
1.48068e-05 1.44696e-05 -1.17143e-20
-1.29713e-05 -1.0227e-05 -1.30203e-20
-1.35286e-05 1.06189e-05 1.87561e-20
4.43874e-05 -1.89319e-05 3.09174e-20
7.57078e-06 -1.34136e-05 -9.17142e-22
-8.32546e-06 -1.26398e-05 1.10423e-20
2.13519e-05 6.36993e-06 -2.3253e-20
1.10054e-05 -5.07129e-05 -1.46909e-20
-3.84902e-05 -3.49381e-05 2.04175e-21
2.33302e-05 6.21358e-06 1.59659e-20
-9.33752e-06 -1.82998e-05 6.21548e-21
1.87245e-05 9.49227e-06 -7.07866e-21
-2.85931e-05 -3.25852e-05 -1.05046e-20
9.69801e-06 5.00972e-05 2.58332e-20
3.43687e-05 -5.99199e-05 -1.88234e-20
-3.47721e-05 -5.98367e-05 9.79548e-21
2.78377e-05 -5.20741e-05 1.39164e-20
-1.27108e-05 4.36772e-05 1.64978e-22
-6.28233e-06 3.90166e-05 2.64505e-21
-1.87497e-05 8.955e-06 -1.11263e-20
5.98331e-06 2.42666e-05 -4.49129e-21
-2.39389e-06 1.26669e-05 -1.34907e-20
1.01304e-05 3.23638e-06 1.16014e-20
-3.19158e-06 1.62218e-05 5.01388e-21
-2.47602e-07 2.10128e-05 -6.59511e-21
1.66774e-05 9.76034e-06 8.29633e-21
1.71349e-06 5.77828e-05 1.48384e-21
-1.4732e-05 1.07436e-05 4.13887e-21
1.59655e-05 -6.25284e-06 -2.07865e-20
1.68889e-05 -4.51345e-06 -2.14704e-20
-6.07258e-05 -8.77815e-06 -2.2034e-21
-3.46405e-05 1.67583e-05 8.95372e-21
-4.35587e-05 -5.26009e-05 -6.56532e-21
8.6653e-06 8.3541e-06 1.2704e-20
1.42242e-05 7.29985e-06 6.31773e-21
2.68317e-05 -4.20003e-06 -3.11934e-21
-8.11248e-06 -1.32563e-05 5.62318e-21
1.72339e-05 8.43704e-06 -4.34988e-21
7.34279e-06 -3.00648e-05 -1.80201e-21
-1.37274e-05 1.02154e-05 -2.14702e-21
-2.23968e-05 -2.14439e-05 2.54341e-21
-5.84175e-06 1.63142e-05 -2.14302e-20
-3.27417e-06 2.06993e-05 -1.4154e-21
3.38838e-05 2.13178e-05 1.23214e-20
3.61495e-05 -1.93022e-05 -2.32764e-20
-4.21138e-05 -1.16353e-05 -5.29173e-21
7.64184e-06 7.69342e-06 8.23843e-21
-4.06106e-06 0.000101463 3.01982e-21
8.64261e-07 -0.000104573 1.86787e-21
5.25086e-05 8.7733e-05 5.24856e-22
-1.91221e-05 8.46648e-06 6.93555e-21
-2.64019e-05 5.66081e-05 4.07477e-21
5.30878e-05 -8.47249e-05 1.92027e-20
-1.17322e-05 -1.83009e-05 1.72654e-20
7.8078e-05 6.7564e-05 7.59988e-21
2.40177e-05 -1.79948e-05 -1.6489e-20
-3.61098e-06 -2.9852e-05 7.0852e-21
8.18604e-05 -6.59147e-05 1.79886e-20
-6.75128e-06 1.4533e-05 -3.63805e-21
-5.38877e-05 -3.48607e-05 -2.98958e-21
-4.3056e-05 -9.32265e-05 8.29943e-21
-2.41361e-05 -5.78632e-05 -1.41268e-22
-4.40182e-05 9.42339e-05 -8.58303e-21
-1.01027e-05 6.41489e-05 -1.05966e-20
1.56485e-05 3.71454e-05 -3.38966e-21
-2.79831e-05 3.72793e-05 -8.80306e-21
-2.52972e-05 -5.52406e-05 9.2491e-21
0.000100465 1.7334e-05 1.26347e-20
-1.69444e-05 1.0778e-05 -1.23525e-20
-5.91817e-06 1.63493e-05 3.4998e-21
-5.08102e-05 3.76798e-05 9.00868e-21
-1.72936e-05 9.95418e-06 -1.04918e-20
9.93013e-05 -1.52782e-05 1.5107e-20
-1.53755e-05 7.8066e-06 8.81806e-21
7.19995e-06 -1.45094e-05 1.41159e-20
-7.80477e-05 -6.10119e-05 3.56772e-21
-2.5904e-05 5.77759e-05 -7.04977e-21
-7.92011e-05 6.04385e-05 -2.97533e-21
2.45659e-05 5.20019e-05 2.72818e-21
-1.47823e-05 1.05932e-05 -4.48199e-21
-2.05504e-05 2.45011e-05 5.74503e-21
-2.85611e-05 4.98677e-05 1.18035e-20
-5.68328e-05 2.08251e-07 1.63879e-20
-9.44933e-07 1.63123e-05 7.51059e-21
-2.88783e-05 -5.04569e-05 -1.43663e-20
-5.82566e-05 -2.20149e-07 -9.49784e-21
-2.83779e-05 4.8745e-05 -1.09063e-21
-1.52054e-05 6.63324e-05 -2.40089e-21
-1.78819e-05 4.13027e-05 -1.33075e-20
-3.39341e-05 2.71646e-05 5.22776e-21
2.44073e-05 -6.06293e-06 -2.66341e-20
3.80407e-05 -2.19742e-06 -2.94271e-20
1.34958e-05 8.20846e-06 1.71521e-20
-1.04796e-05 -7.40615e-05 -2.97384e-21
-6.95183e-05 -2.80022e-05 -6.56867e-21
3.71693e-05 7.33396e-07 1.12511e-20
5.84244e-05 -1.09027e-05 1.62318e-20
-1.05942e-05 -1.35107e-05 9.75356e-21
-5.08793e-05 3.76658e-05 4.62281e-21
-4.61797e-05 5.40557e-05 -6.43784e-21
6.24249e-05 -2.22543e-05 3.47282e-20
-2.82056e-05 -5.05475e-05 -1.44477e-20
-2.88059e-05 4.98293e-05 2.05138e-21
-5.73117e-05 -1.17238e-06 5.37403e-21
-2.65998e-05 5.06485e-05 -4.22764e-21
-5.80112e-05 -8.17788e-07 -1.29878e-20
6.61421e-05 1.74099e-05 -2.46906e-20
5.64366e-05 1.29391e-06 -2.9628e-20
5.0951e-05 -2.93031e-05 -3.66857e-20
2.49352e-05 -5.94864e-05 -2.18617e-20
2.99484e-05 -4.89057e-05 -1.99401e-20
2.91966e-05 4.87295e-05 2.21699e-20
2.43695e-05 5.81473e-05 1.34034e-20
7.58781e-05 -2.00578e-05 2.4303e-20
4.63126e-05 2.90922e-05 1.09502e-20
4.66708e-05 1.37591e-05 1.36349e-20
TENSORS solid_stress_TPM float
375.1 -24.9231 1.89478e-14
-24.9231 238.612 1.77636e-12
1.89478e-14 1.77636e-12 197.858

457.105 -21.3218 2.43827e-12
-21.3218 490.091 -1.3823e-12
2.43827e-12 -1.3823e-12 487.208

454.977 28.0499 6.5666e-13
28.0499 463.81 1.06877e-12
6.5666e-13 1.06877e-12 458.555

455.132 -29.8421 3.59712e-14
-29.8421 482.715 -2.8327e-12
3.59712e-14 -2.8327e-12 484.956

527.764 19.9306 -5.84125e-13
19.9306 548.52 5.28762e-12
-5.84125e-13 5.28762e-12 527.435

437.406 -18.0791 5.08926e-13
-18.0791 480.443 2.38742e-12
5.08926e-13 2.38742e-12 458.135

372.395 26.4877 -1.61056e-12
26.4877 239.132 8.69231e-13
-1.61056e-12 8.69231e-13 197.842

473.75 29.962 -1.9913e-12
29.962 469.601 2.6669e-12
-1.9913e-12 2.6669e-12 472.433

471.655 5.48436 -2.18373e-12
5.48436 417.913 -3.33407e-12
-2.18373e-12 -3.33407e-12 432.889

504.363 -7.47777 -1.31095e-12
-7.47777 444.212 -7.04548e-13
-1.31095e-12 -7.04548e-13 483.549

360.368 16.3136 2.67401e-12
16.3136 247.702 7.55958e-12
2.67401e-12 7.55958e-12 233.695

444.877 -13.4558 1.15138e-12
-13.4558 498.487 7.09359e-13
1.15138e-12 7.09359e-13 472.334

466.966 27.8382 -3.5385e-12
27.8382 468.403 -4.32247e-14
-3.5385e-12 -4.32247e-14 466.83

457.131 -14.3427 9.53367e-13
-14.3427 500.535 -6.29422e-13
9.53367e-13 -6.29422e-13 483.552

513.02 33.3054 1.30325e-12
33.3054 511.683 1.42647e-12
1.30325e-12 1.42647e-12 515.31

489.279 0.56127 2.79421e-12
0.56127 435.62 -3.36372e-12
2.79421e-12 -3.36372e-12 462.369

457.679 -17.9683 5.52641e-13
-17.9683 512.982 -2.61361e-12
5.52641e-13 -2.61361e-12 493.69

494.063 -2.66519 -2.38091e-12
-2.66519 439.144 -1.10926e-12
-2.38091e-12 -1.10926e-12 474.361

418.884 26.6817 5.69559e-12
26.6817 449.76 -2.72967e-13
5.69559e-12 -2.72967e-13 424.145

482.087 -4.19686 3.55567e-12
-4.19686 425.013 -1.65749e-12
3.55567e-12 -1.65749e-12 453.57

425.388 8.67156 3.55109e-12
8.67156 482.007 -4.30885e-12
3.55109e-12 -4.30885e-12 444.935

634.142 6.28335 -1.63866e-12
6.28335 633.986 -9.74361e-12
-1.63866e-12 -9.74361e-12 570.371

479.258 1.87633 -1.95399e-14
1.87633 423.031 -4.60439e-12
-1.95399e-14 -4.60439e-12 449.827

447.259 -27.7221 -7.1676e-13
-27.7221 461.25 -1.35773e-12
-7.1676e-13 -1.35773e-12 453.043

481.154 6.85089 -5.26986e-14
6.85089 425.532 7.41185e-13
-5.26986e-14 7.41185e-13 453.033

449.854 19.1153 1.13095e-13
19.1153 490.42 -2.79747e-12
1.13095e-13 -2.79747e-12 478.302

377.734 4.18271 3.56456e-12
4.18271 291.71 -3.56071e-12
3.56456e-12 -3.56071e-12 259.058

462.782 30.7521 -1.13391e-12
30.7521 460.81 4.76952e-13
-1.13391e-12 4.76952e-13 460.639

385.025 37.0864 -6.05975e-12
37.0864 383.604 1.0291e-12
-6.05975e-12 1.0291e-12 348.496

586.986 10.3238 2.04784e-12
10.3238 563.509 4.14946e-12
2.04784e-12 4.14946e-12 546.94

491.792 14.2182 -1.18009e-12
14.2182 442.592 1.85837e-12
-1.18009e-12 1.85837e-12 465.951

352.929 -17.7862 -2.12127e-12
-17.7862 416.818 -4.52734e-12
-2.12127e-12 -4.52734e-12 348.667

331.084 -42.1127 -4.45273e-12
-42.1127 335.94 3.55508e-12
-4.45273e-12 3.55508e-12 253.536

531.47 5.98333 -4.38219e-12
5.98333 586.942 2.70894e-13
-4.38219e-12 2.70894e-13 538.652

554.08 -4.83546 8.09427e-13
-4.83546 582.126 4.03351e-12
8.09427e-13 4.03351e-12 542.582

578.039 21.0265 -4.26178e-12
21.0265 540.008 6.33612e-12
-4.26178e-12 6.33612e-12 538.421

556.24 5.06234 -2.34094e-12
5.06234 600.716 7.80117e-13
-2.34094e-12 7.80117e-13 548.036

573.828 -9.1723 5.01732e-12
-9.1723 555.827 3.36795e-13
5.01732e-12 3.36795e-13 540.709

467.225 -28.0035 -1.3524e-12
-28.0035 466.592 -3.14889e-12
-1.3524e-12 -3.14889e-12 465.202

330.468 41.5318 5.33144e-12
41.5318 338.039 2.56506e-12
5.33144e-12 2.56506e-12 253.895

414.619 -17.9548 -2.13163e-14
-17.9548 354.561 -2.64855e-12
-2.13163e-14 -2.64855e-12 346.396

559.359 -3.70163 -3.21979e-12
-3.70163 599.965 -4.82473e-12
-3.21979e-12 -4.82473e-12 548.45

586.461 19.5479 2.46751e-12
19.5479 572.502 3.39107e-12
2.46751e-12 3.39107e-12 548.239

490.997 -12.2743 2.63671e-12
-12.2743 442.947 -4.53948e-12
2.63671e-12 -4.53948e-12 466.624

341.779 -43.312 -6.14383e-12
-43.312 345.408 8.58572e-13
-6.14383e-12 8.58572e-13 289.038

417.646 -18.069 -2.36848e-13
-18.069 357.18 1.21384e-13
-2.36848e-13 1.21384e-13 351.571

413.094 17.0906 -2.35797e-12
17.0906 464.877 2.40992e-13
-2.35797e-12 2.40992e-13 428.811

429.715 19.3447 4.94419e-12
19.3447 466.608 2.59763e-12
4.94419e-12 2.59763e-12 437.166

486.874 -16.3043 2.70598e-12
-16.3043 432.958 -2.43287e-12
2.70598e-12 -2.43287e-12 458.763

355.649 -34.1963 -4.43497e-12
-34.1963 389.48 -1.68872e-12
-4.43497e-12 -1.68872e-12 332.634

410.336 19.1879 -3.08257e-12
19.1879 350.767 4.34675e-12
-3.08257e-12 4.34675e-12 339.544

425.288 -25.2962 -2.85283e-12
-25.2962 383.895 -1.90485e-12
-2.85283e-12 -1.90485e-12 373.151

519.984 19.481 3.93507e-12
19.481 547.599 -1.1792e-12
3.93507e-12 -1.1792e-12 525.802

416.497 29.6587 3.25073e-12
29.6587 393.964 4.07852e-12
3.25073e-12 4.07852e-12 374.015

522.247 -21.8125 -3.10685e-12
-21.8125 541.458 1.14118e-12
-3.10685e-12 1.14118e-12 524.449

364.14 -42.7234 -7.11964e-12
-42.7234 343.347 4.94301e-12
-7.11964e-12 4.94301e-12 289.756

553.502 5.45431 -3.75463e-12
5.45431 583.917 -5.62306e-12
-3.75463e-12 -5.62306e-12 542.956

373.788 -5.33166 -7.42813e-13
-5.33166 436.754 7.33043e-13
-7.42813e-13 7.33043e-13 373.899

580.862 10.3854 2.34598e-12
10.3854 556.225 -6.17636e-13
2.34598e-12 -6.17636e-13 542.713

435.143 21.4182 1.81484e-12
21.4182 473.856 -3.54975e-12
1.81484e-12 -3.54975e-12 454.759

513.661 5.75609 2.62309e-13
5.75609 452.896 -2.65965e-12
2.62309e-13 -2.65965e-12 494.951

522.544 11.4591 -4.53415e-13
11.4591 487.942 -2.32229e-12
-4.53415e-13 -2.32229e-12 507.161

383.778 31.8272 -1.75267e-12
31.8272 315.25 7.06635e-12
-1.75267e-12 7.06635e-12 269.923

482.168 -6.03761 1.0821e-13
-6.03761 528.265 -3.4562e-12
1.0821e-13 -3.4562e-12 504.183

487.178 9.52181 1.5361e-12
9.52181 523.775 -3.48462e-13
1.5361e-12 -3.48462e-13 507.579

456.541 -2.88267 -3.71518e-13
-2.88267 520.245 -2.3744e-13
-3.71518e-13 -2.3744e-13 487.892

464.543 23.4003 1.13465e-13
23.4003 503.561 2.88954e-13
1.13465e-13 2.88954e-13 495.528

496.844 8.46528 5.27874e-13
8.46528 444.487 -1.86814e-13
5.27874e-13 -1.86814e-13 477.788

445.598 -28.2463 -4.51787e-12
-28.2463 459.623 -4.33786e-12
-4.51787e-12 -4.33786e-12 451.257

501.779 -1.71197 2.8213e-12
-1.71197 445.011 -2.46928e-12
2.8213e-12 -2.46928e-12 489.16

519.597 -19.257 -3.12358e-12
-19.257 546.892 -2.79184e-13
-3.12358e-12 -2.79184e-13 525.536

523.375 21.3077 -1.18157e-12
21.3077 542.982 -2.28335e-12
-1.18157e-12 -2.28335e-12 525.338

353.48 -16.5888 4.74435e-13
-16.5888 415.825 4.10575e-12
4.74435e-13 4.10575e-12 346.185

506.107 -27.9387 3.5089e-12
-27.9387 485.39 -2.96237e-12
3.5089e-12 -2.96237e-12 493.963

449.814 -25.1399 -4.00835e-12
-25.1399 471.318 -3.59002e-12
-4.00835e-12 -3.59002e-12 458.669

357.94 -31.719 -5.27933e-12
-31.719 285.729 4.8912e-12
-5.27933e-12 4.8912e-12 249.909

498.571 3.22379 -3.27975e-12
3.22379 541.484 -2.5242e-12
-3.27975e-12 -2.5242e-12 513.72

501.812 28.9471 9.89431e-13
28.9471 474.636 -1.04302e-12
9.89431e-13 -1.04302e-12 487.743

448.534 19.6663 8.49247e-13
19.6663 492.205 1.99307e-12
8.49247e-13 1.99307e-12 477.733

440.288 8.002 -2.4869e-13
8.002 373.113 -1.56379e-12
-2.4869e-13 -1.56379e-12 383.015

386.532 -33.9457 5.40012e-12
-33.9457 360.279 4.38168e-14
5.40012e-12 4.38168e-14 319.502

537.779 -10.5859 2.83418e-12
-10.5859 556.206 -5.02117e-13
2.83418e-12 -5.02117e-13 531.32

482.747 23.9014 -2.40578e-12
23.9014 504.644 2.14741e-12
-2.40578e-12 2.14741e-12 502.128

385.453 -32.3938 2.78177e-12
-32.3938 345.376 -4.71327e-13
2.78177e-12 -4.71327e-13 317.148

422.289 10.7944 3.39166e-12
10.7944 363.924 -3.57048e-12
3.39166e-12 -3.57048e-12 350.327

307.71 -21.2122 -1.28075e-12
-21.2122 388.524 -9.75575e-12
-1.28075e-12 -9.75575e-12 288.175

434.531 14.428 5.82941e-12
14.428 488.766 1.3826e-12
5.82941e-12 1.3826e-12 460.974

509.807 23.1477 1.49214e-13
23.1477 475.256 6.66844e-12
1.49214e-13 6.66844e-12 490.031

338.308 42.2112 9.02389e-13
42.2112 349.642 2.66572e-12
9.02389e-13 2.66572e-12 289.011

634.232 16.5026 -9.18717e-12
16.5026 603.097 3.28582e-12
-9.18717e-12 3.28582e-12 565.377

372.965 -4.10976 -3.38633e-12
-4.10976 436.913 -4.36273e-12
-3.38633e-12 -4.36273e-12 373.506

637.136 -16.628 -5.90039e-12
-16.628 599.569 -4.09776e-12
-5.90039e-12 -4.09776e-12 564.885

534.012 -27.3344 -9.05942e-14
-27.3344 507.316 3.81473e-13
-9.05942e-14 3.81473e-13 515.793

505.385 27.4266 3.91331e-12
27.4266 466.419 -3.99266e-12
3.91331e-12 -3.99266e-12 485.158

427.019 -24.418 2.14465e-12
-24.418 386.319 7.93439e-14
2.14465e-12 7.93439e-14 376.058

359.01 31.3333 -1.81129e-12
31.3333 396.089 -5.10051e-12
-1.81129e-12 -5.10051e-12 339.273

339.892 -10.7083 -3.48995e-12
-10.7083 408.479 -1.36187e-12
-3.48995e-12 -1.36187e-12 319.173

453.202 21.9724 -5.73911e-13
21.9724 494.778 1.44477e-12
-5.73911e-13 1.44477e-12 483.262

533.193 16.7969 2.16419e-13
16.7969 506.272 3.61193e-13
2.16419e-13 3.61193e-13 513.433

443.546 15.1578 -8.23934e-13
15.1578 488.54 -3.0731e-13
-8.23934e-13 -3.0731e-13 464.375

451.58 15.9582 2.64914e-12
15.9582 400.62 -3.75966e-12
2.64914e-12 -3.75966e-12 403.832

374.567 -21.4793 5.56592e-14
-21.4793 419.96 3.80022e-12
5.56592e-14 3.80022e-12 357.274

389.806 -29.3996 4.538e-12
-29.3996 342.439 -1.1345e-12
4.538e-12 -1.1345e-12 314.458

455.064 -24.5763 1.94763e-12
-24.5763 480.165 1.59931e-12
1.94763e-12 1.59931e-12 478.465

466.521 27.4552 9.02981e-14
27.4552 478.838 1.45188e-12
9.02981e-14 1.45188e-12 479.902

452.316 23.1893 -6.11067e-13
23.1893 492.66 -4.63688e-12
-6.11067e-13 -4.63688e-12 482.138

466.381 13.1681 -6.70131e-13
13.1681 529.861 -1.50398e-13
-6.70131e-13 -1.50398e-13 501.468

490.964 9.37349 6.50147e-12
9.37349 437.981 1.74749e-12
6.50147e-12 1.74749e-12 462.148

327.777 -4.6663 -8.68046e-13
-4.6663 403.469 5.73171e-12
-8.68046e-13 5.73171e-12 314.479

462.68 -36.8293 2.38417e-12
-36.8293 487.788 -7.66868e-13
2.38417e-12 -7.66868e-13 492.842

445.944 27.4718 -3.21787e-12
27.4718 463.368 -6.99292e-13
-3.21787e-12 -6.99292e-13 455.107

305.73 2.17069 4.57412e-14
2.17069 393.446 -1.02555e-12
4.57412e-14 -1.02555e-12 297.319

386.079 34.6208 -9.38153e-12
34.6208 332.515 2.09018e-12
-9.38153e-12 2.09018e-12 306.311

453.447 -22.9776 -1.83779e-12
-22.9776 480.17 -1.66089e-13
-1.83779e-12 -1.66089e-13 476.267

501.497 5.7329 2.72641e-12
5.7329 441.414 2.81997e-13
2.72641e-12 2.81997e-13 481.105

422.474 27.2124 7.95808e-13
27.2124 389.85 2.75454e-12
7.95808e-13 2.75454e-12 374.315

570.601 12.7434 -5.96737e-12
12.7434 565.967 1.94067e-12
-5.96737e-12 1.94067e-12 542.984

396.264 24.338 -1.15132e-11
24.338 349.72 -8.34296e-13
-1.15132e-11 -8.34296e-13 319.113

569.224 -13.0529 4.32957e-12
-13.0529 565.879 4.3124e-12
4.32957e-12 4.3124e-12 542.44

375.17 0.778891 3.58099e-12
0.778891 438.968 1.40806e-12
3.58099e-12 1.40806e-12 374.722

461.574 -2.236 3.1027e-12
-2.236 399.387 -3.23112e-13
3.1027e-12 -3.23112e-13 417.37

538.276 -15.7641 1.29985e-12
-15.7641 480.72 -2.29535e-12
1.29985e-12 -2.29535e-12 513.562

457.343 24.3886 2.08255e-13
24.3886 487.886 1.65201e-12
2.08255e-13 1.65201e-12 488.449

461.349 -13.5359 -1.49858e-12
-13.5359 519.228 -6.01593e-13
-1.49858e-12 -6.01593e-13 495.804

515.065 -7.99858 -3.72147e-13
-7.99858 438.295 2.40548e-12
-3.72147e-13 2.40548e-12 494.37

488.396 -22.2791 2.79465e-12
-22.2791 541.678 -1.53033e-12
2.79465e-12 -1.53033e-12 515.831

556.111 -6.60126 -7.68304e-12
-6.60126 560.453 4.31618e-13
-7.68304e-12 4.31618e-13 538.799

463.966 -29.9091 1.97116e-12
-29.9091 483.297 -1.22598e-12
1.97116e-12 -1.22598e-12 483.695

341.777 11.457 -3.06066e-12
11.457 406.283 -2.57216e-12
-3.06066e-12 -2.57216e-12 319.552

422.574 -28.1553 5.21065e-14
-28.1553 391.326 2.13814e-12
5.21065e-14 2.13814e-12 375.228

507.451 -13.7682 5.77664e-12
-13.7682 558.817 -5.33203e-12
5.77664e-12 -5.33203e-12 525.328

501.158 0.505794 -5.84865e-13
0.505794 441.379 4.0575e-13
-5.84865e-13 4.0575e-13 487.182

477.031 -21.5232 1.022e-12
-21.5232 507.515 -1.33375e-12
1.022e-12 -1.33375e-12 501.594

459.198 25.6991 1.07706e-12
25.6991 484.701 5.46252e-12
1.07706e-12 5.46252e-12 488.077

394.515 -31.4742 5.35394e-12
-31.4742 400.686 -1.112e-12
5.35394e-12 -1.112e-12 357.599

552.179 -7.07938 -5.86716e-13
-7.07938 585.35 4.12056e-12
-5.86716e-13 4.12056e-12 542.671

347.281 -33.0863 -7.98532e-12
-33.0863 382.688 -1.24819e-12
-7.98532e-12 -1.24819e-12 303.5

490.97 -19.1835 3.84996e-12
-19.1835 448.478 -3.39551e-12
3.84996e-12 -3.39551e-12 467.216

519.799 1.973 7.20683e-13
1.973 466.905 -1.2168e-13
7.20683e-13 -1.2168e-13 502.92

570.618 17.873 -3.32356e-12
17.873 566.528 -1.57711e-12
-3.32356e-12 -1.57711e-12 542.443

375.37 20.1893 -5.81579e-12
20.1893 424.126 -1.70767e-12
-5.81579e-12 -1.70767e-12 360.299

489.175 27.2155 3.75167e-12
27.2155 468.633 -6.14619e-13
3.75167e-12 -6.14619e-13 476.73

454.478 -24.5179 -1.49925e-12
-24.5179 415.43 -1.39148e-13
-1.49925e-12 -1.39148e-13 418.691

454.81 -17.8406 5.72246e-13
-17.8406 495.006 1.5626e-12
5.72246e-13 1.5626e-12 482.734

379.279 35.0784 -4.57945e-12
35.0784 366.107 3.58706e-12
-4.57945e-12 3.58706e-12 317.117

449.249 -21.8321 -3.3055e-13
-21.8321 491.805 8.11203e-14
-3.3055e-13 8.11203e-14 479.868

485.584 30.8545 2.95823e-12
30.8545 465.224 5.6047e-12
2.95823e-12 5.6047e-12 473.535

480.421 -25.2484 -4.30056e-12
-25.2484 442.456 -5.52151e-12
-4.30056e-12 -5.52151e-12 455.533

448.314 -25.1317 -4.58448e-12
-25.1317 469.868 -3.4935e-12
-4.58448e-12 -3.4935e-12 458.19

445.443 -18.6937 5.86198e-13
-18.6937 393.543 -8.0469e-13
5.86198e-13 -8.0469e-13 397.342

470.753 -18.8546 -5.28644e-12
-18.8546 422.94 -9.83214e-13
-5.28644e-12 -9.83214e-13 437.621

459.098 -25.3385 1.43633e-12
-25.3385 485.527 1.67374e-12
1.43633e-12 1.67374e-12 488.919

386.624 35.9806 7.44886e-13
35.9806 382.068 2.44664e-12
7.44886e-13 2.44664e-12 348.191

444.589 15.3805 2.7048e-12
15.3805 491.633 -1.21799e-12
2.7048e-12 -1.21799e-12 467.232

469.491 26.4263 -4.02374e-12
26.4263 480.052 -1.11555e-12
-4.02374e-12 -1.11555e-12 482.638

456.239 25.4737 8.30132e-13
25.4737 486.747 4.19191e-12
8.30132e-13 4.19191e-12 487.34

457.898 11.6243 -8.01102e-13
11.6243 507.036 1.79057e-12
-8.01102e-13 1.79057e-12 486.105

432.046 -8.22947 1.03029e-12
-8.22947 370.831 -7.19425e-13
1.03029e-12 -7.19425e-13 363.384

376.857 18.6124 6.24567e-12
18.6124 427.359 2.34361e-12
6.24567e-12 2.34361e-12 363.96

452.406 -24.3844 -4.67744e-12
-24.3844 478.485 4.25674e-12
-4.67744e-12 4.25674e-12 470.804

440.839 25.6728 -6.34337e-12
25.6728 455.738 1.08476e-12
-6.34337e-12 1.08476e-12 437.895

391.038 -35.6404 5.24262e-12
-35.6404 380.356 3.3958e-12
5.24262e-12 3.3958e-12 350.164

369.017 38.3282 -3.59061e-12
38.3282 327.317 -4.89327e-12
-3.59061e-12 -4.89327e-12 295.744

363.72 -33.3216 3.606e-13
-33.3216 394.519 -5.48539e-12
3.606e-13 -5.48539e-12 342.051

398.013 -31.1693 -5.92119e-15
-31.1693 404.278 -7.50333e-12
-5.92119e-15 -7.50333e-12 363.05

502.956 -6.83855 -7.33635e-13
-6.83855 442.346 -2.79036e-13
-7.33635e-13 -2.79036e-13 482.41

393.246 30.3512 -3.40468e-12
30.3512 409.066 2.64203e-12
-3.40468e-12 2.64203e-12 363.51

429.794 13.2986 -1.0741e-12
13.2986 372.322 -3.37863e-12
-1.0741e-12 -3.37863e-12 362.789

350.212 13.383 2.94165e-12
13.383 418.604 2.76401e-12
2.94165e-12 2.76401e-12 348.547

379.556 -22.3474 7.1297e-12
-22.3474 423.603 -7.49267e-12
7.1297e-12 -7.49267e-12 363.524

491.282 -1.0936 -2.33732e-12
-1.0936 550.95 -1.22273e-12
-2.33732e-12 -1.22273e-12 516.383

372.938 2.24743 -2.05702e-12
2.24743 437.882 -4.35207e-12
-2.05702e-12 -4.35207e-12 373.598

357.961 31.099 4.08444e-12
31.099 399.571 2.87533e-12
4.08444e-12 2.87533e-12 342.031

458.082 12.1101 9.63341e-13
12.1101 510.654 -6.75016e-13
9.63341e-13 -6.75016e-13 488.492

421.542 -27.6561 1.05752e-12
-27.6561 389.152 -6.62344e-12
1.05752e-12 -6.62344e-12 375.15

524.837 20.5573 -7.18536e-13
20.5573 469.833 -1.10637e-12
-7.18536e-13 -1.10637e-12 500.817

534.996 26.2704 2.12867e-12
26.2704 506.936 1.68932e-12
2.12867e-12 1.68932e-12 516.171

494.91 -18.5717 2.93277e-12
-18.5717 449.112 -4.95396e-12
2.93277e-12 -4.95396e-12 470.944

554.651 -1.80611 5.27859e-12
-1.80611 516.092 -3.71407e-12
5.27859e-12 -3.71407e-12 525.79

473.379 -31.8151 2.67697e-12
-31.8151 475.788 -6.79812e-12
2.67697e-12 -6.79812e-12 478.666

412.686 23.335 -1.99781e-12
23.335 357.267 -2.26604e-12
-1.99781e-12 -2.26604e-12 348.164

464.273 30.1632 -3.16724e-12
30.1632 482.866 -5.47828e-12
-3.16724e-12 -5.47828e-12 483.297

464.535 29.2072 2.16745e-12
29.2072 482.339 1.3826e-13
2.16745e-12 1.3826e-13 482.857

394.028 30.6704 -2.28913e-12
30.6704 405.809 -2.78296e-12
-2.28913e-12 -2.78296e-12 360.944

502.943 27.0881 -6.6791e-13
27.0881 482.747 7.54952e-14
-6.6791e-13 7.54952e-14 490.819

415.441 3.52623 -7.4607e-14
3.52623 339.083 4.07822e-14
-7.4607e-14 4.07822e-14 340.896

493.211 31.8173 4.14868e-12
31.8173 487.314 -3.70134e-12
4.14868e-12 -3.70134e-12 495.661

476.406 -12.5989 -2.05665e-12
-12.5989 522.537 5.95672e-13
-2.05665e-12 5.95672e-13 500.331

537.002 24.2765 4.29642e-12
24.2765 507.474 2.49874e-12
4.29642e-12 2.49874e-12 516.707

468.273 -29.5802 1.48059e-12
-29.5802 480.068 -7.14688e-13
1.48059e-12 -7.14688e-13 483.154

464.641 -4.8966 -6.59991e-13
-4.8966 521.645 -4.11523e-13
-6.59991e-13 -4.11523e-13 491.063

401.024 -24.5638 2.86112e-12
-24.5638 349.093 2.66809e-12
2.86112e-12 2.66809e-12 324.018

419.056 29.7023 -4.75708e-12
29.7023 392.545 1.57622e-12
-4.75708e-12 1.57622e-12 373.848

352.414 14.7012 -4.44134e-12
14.7012 417.302 -1.88412e-12
-4.44134e-12 -1.88412e-12 348.312

500.628 -1.13972 -2.66957e-12
-1.13972 442.891 -1.33811e-12
-2.66957e-12 -1.33811e-12 487.802

492.572 0.00208716 1.59872e-14
0.00208716 438.195 -3.76662e-13
1.59872e-14 -3.76662e-13 474.512

453.06 23.1277 8.38292e-13
23.1277 479.805 1.51642e-12
8.38292e-13 1.51642e-12 475.679

481.395 23.8724 2.8102e-12
23.8724 502.961 -2.93338e-12
2.8102e-12 -2.93338e-12 501.34

456.684 -24.3813 1.90736e-13
-24.3813 487.452 -8.73375e-15
1.90736e-13 -8.73375e-15 488.591

457.921 -0.674465 3.1942e-12
-0.674465 518.033 7.64426e-13
3.1942e-12 7.64426e-13 486.487

458.983 25.592 1.32886e-12
25.592 486.566 -1.02688e-12
1.32886e-12 -1.02688e-12 488.612

465.662 -10.3107 -4.9738e-14
-10.3107 408.17 -1.62714e-12
-4.9738e-14 -1.62714e-12 427.314

400.952 -32.8438 -1.29082e-12
-32.8438 415.048 8.79474e-12
-1.29082e-12 8.79474e-12 385.25

518.19 -2.30376 -5.08482e-13
-2.30376 465.831 -5.83533e-13
-5.08482e-13 -5.83533e-13 501.018

391.958 -34.5191 1.34174e-12
-34.5191 379.689 -6.18172e-12
1.34174e-12 -6.18172e-12 347.494

478.092 19.0856 -6.78124e-13
19.0856 509.297 1.68428e-12
-6.78124e-13 1.68428e-12 501.937

506.208 -26.4803 -5.91527e-12
-26.4803 470.336 2.2989e-12
-5.91527e-12 2.2989e-12 487.364

425.098 -9.69335 3.30639e-12
-9.69335 366.809 7.49623e-13
3.30639e-12 7.49623e-13 356.06

530.348 -23.1941 -2.22814e-12
-23.1941 488.841 3.73923e-13
-2.22814e-12 3.73923e-13 506.575

500.997 2.35866 -9.22225e-13
2.35866 444.679 2.54841e-12
-9.22225e-13 2.54841e-12 489.303

521.277 -23.3247 1.42878e-12
-23.3247 501.928 4.1848e-13
1.42878e-12 4.1848e-13 508.62

502.114 -25.8614 -1.58273e-12
-25.8614 461.584 7.44886e-13
-1.58273e-12 7.44886e-13 481.337

498.93 -8.54854 -2.35959e-13
-8.54854 445.232 -1.06907e-12
-2.35959e-13 -1.06907e-12 479.441

482.317 -23.0696 -9.54496e-13
-23.0696 505.084 -1.38852e-12
-9.54496e-13 -1.38852e-12 502.627

428.636 -31.3512 2.45019e-12
-31.3512 410.679 2.52539e-12
2.45019e-12 2.52539e-12 399.086

503.364 -24.592 -4.04417e-12
-24.592 464.806 4.61201e-12
-4.04417e-12 4.61201e-12 482.253

441.343 10.8678 -1.43766e-12
10.8678 378.563 -2.53841e-12
-1.43766e-12 -2.53841e-12 387.885

500.13 26.3432 3.31557e-12
26.3432 498.671 1.48666e-12
3.31557e-12 1.48666e-12 500.195

463.854 -37.6086 -5.63105e-13
-37.6086 488.492 -1.59643e-12
-5.63105e-13 -1.59643e-12 494.18

464.962 37.2613 1.78405e-12
37.2613 487.404 -1.85555e-12
1.78405e-12 -1.85555e-12 493.895

446.435 -28.5708 4.22388e-12
-28.5708 500.116 -7.5732e-13
4.22388e-12 -7.5732e-13 492.41

448.669 27.0622 -5.22989e-13
27.0622 500.807 1.85244e-12
-5.22989e-13 1.85244e-12 492.597

513.171 -8.52604 -1.00927e-12
-8.52604 436.513 1.71478e-12
-1.00927e-12 1.71478e-12 492.858

511.334 9.27193 -3.24762e-12
9.27193 438.11 2.2992e-12
-3.24762e-12 2.2992e-12 492.495

501.758 -9.84846 -8.42585e-13
-9.84846 451.837 1.7358e-12
-8.42585e-13 1.7358e-12 483.116

510.95 32.1108 -1.29881e-12
32.1108 510.48 -3.19669e-12
-1.29881e-12 -3.19669e-12 514.142

509.727 -32.8485 -1.55935e-12
-32.8485 510.157 -8.44445e-13
-1.55935e-12 -8.44445e-13 513.782

481.903 16.0672 1.3746e-12
16.0672 539.213 -2.66335e-12
1.3746e-12 -2.66335e-12 514.414

483.096 -15.8 5.72875e-14
-15.8 538.803 -9.50647e-13
5.72875e-14 -9.50647e-13 514.435

556.941 -3.752 -8.96468e-13
-3.752 506.91 3.1705e-12
-8.96468e-13 3.1705e-12 525.073

558.494 3.61461 -3.42482e-12
3.61461 505.235 6.42449e-13
-3.42482e-12 6.42449e-13 525.444

387.392 9.83985 3.64486e-12
9.83985 449.299 3.84877e-13
3.64486e-12 3.84877e-13 397.174

472.486 -24.7781 2.24265e-12
-24.7781 480.854 2.55188e-12
2.24265e-12 2.55188e-12 485.072

443.571 -36.3843 1.57134e-12
-36.3843 485.638 1.4273e-12
1.57134e-12 1.4273e-12 486.728

473.749 -4.66518 -1.83557e-13
-4.66518 420.529 -6.23982e-13
-1.83557e-13 -6.23982e-13 436.433

540.337 -16.6904 -1.17447e-12
-16.6904 484.282 2.56565e-12
-1.17447e-12 2.56565e-12 515.374

541.056 16.1714 1.66711e-12
16.1714 485.505 -4.41395e-12
1.66711e-12 -4.41395e-12 515.98

506.965 0.121835 2.20194e-12
0.121835 423.662 -5.79372e-13
2.20194e-12 -5.79372e-13 487.101

384.875 23.3828 8.05578e-13
23.3828 432.395 -2.5473e-12
8.05578e-13 -2.5473e-12 385.561

442.443 36.1683 3.73457e-12
36.1683 485.317 2.32066e-12
3.73457e-12 2.32066e-12 485.933

452.699 -23.397 -1.51701e-12
-23.397 495.057 2.35219e-12
-1.51701e-12 2.35219e-12 483.688

443.348 23.3598 3.07902e-14
23.3598 397.605 3.62199e-12
3.07902e-14 3.62199e-12 400.461

531.05 23.86 -3.18382e-12
23.86 488.092 -1.16292e-12
-3.18382e-12 -1.16292e-12 507.333

428.575 -31.323 -1.63306e-12
-31.323 410.964 -3.45501e-12
-1.63306e-12 -3.45501e-12 398.905

519.953 -3.23363 -4.3654e-13
-3.23363 469.151 -2.30926e-13
-4.3654e-13 -2.30926e-13 502.777

439.507 -34.1584 -1.61197e-12
-34.1584 485.609 -6.67614e-13
-1.61197e-12 -6.67614e-13 485.923

389.267 8.3224 3.65493e-12
8.3224 452.43 1.33819e-13
3.65493e-12 1.33819e-13 400.943

385.962 21.8186 8.70119e-13
21.8186 435.872 -4.37457e-12
8.70119e-13 -4.37457e-12 388.78

383.93 35.7865 -4.76064e-13
35.7865 362.408 -3.78956e-14
-4.76064e-13 -3.78956e-14 318.397

408.275 1.57929 6.18291e-12
1.57929 332.223 -7.86112e-13
6.18291e-12 -7.86112e-13 327.396

485.55 -22.8063 -5.00044e-13
-22.8063 502.949 -2.52792e-12
-5.00044e-13 -2.52792e-12 501.84

351.952 31.1931 4.11167e-12
31.1931 388.915 -4.33905e-12
4.11167e-12 -4.33905e-12 312.425

451.448 23.6143 1.82432e-12
23.6143 478.517 -3.66758e-12
1.82432e-12 -3.66758e-12 465.309

442.298 -5.35118 -3.30284e-12
-5.35118 377.206 1.12799e-13
-3.30284e-12 1.12799e-13 387.823

464.259 11.2192 -3.67528e-12
11.2192 407.386 5.13959e-13
-3.67528e-12 5.13959e-13 425.013

505.482 0.429841 -2.75054e-12
0.429841 421.683 -7.77049e-13
-2.75054e-12 -7.77049e-13 485.773

449.454 -29.0285 -1.34433e-12
-29.0285 502.095 3.12639e-13
-1.34433e-12 3.12639e-13 493.683

572.552 -6.31635 2.72412e-12
-6.31635 589.532 -4.20493e-12
2.72412e-12 -4.20493e-12 549.317

463.242 37.4073 -7.26826e-13
37.4073 487.127 4.77877e-12
-7.26826e-13 4.77877e-12 493.159

408.828 1.66369 -3.02454e-12
1.66369 331.67 8.74116e-14
-3.02454e-12 8.74116e-14 308.971

404.322 -32.7974 -3.56811e-12
-32.7974 415.601 -4.27688e-12
-3.56811e-12 -4.27688e-12 387.474

443.249 36.6096 1.48925e-12
36.6096 485.61 5.66658e-13
1.48925e-12 5.66658e-13 486.67

444.768 -11.1352 -1.00568e-12
-11.1352 499.035 3.54087e-13
-1.00568e-12 3.54087e-13 471.534

386.156 -25.5229 3.54176e-12
-25.5229 428.998 9.54496e-13
3.54176e-12 9.54496e-13 384.648

449.554 28.8275 -2.00521e-12
28.8275 501.729 1.72455e-12
-2.00521e-12 1.72455e-12 493.383

452.81 -26.1495 2.97481e-12
-26.1495 419.393 2.41585e-12
2.97481e-12 2.41585e-12 419.607

579.601 10.485 -4.55547e-12
10.485 582.205 1.19837e-11
-4.55547e-12 1.19837e-11 549.102

398.415 30.8819 -5.21538e-12
30.8819 422.153 -4.90038e-12
-5.21538e-12 -4.90038e-12 388.248

515.803 8.12517 2.16775e-12
8.12517 437.373 4.62386e-12
2.16775e-12 4.62386e-12 494.676

493.897 30.192 -1.39355e-12
30.192 484.843 8.76632e-13
-1.39355e-12 8.76632e-13 493.893

453.564 23.3356 -2.81789e-12
23.3356 479.265 -3.67824e-12
-2.81789e-12 -3.67824e-12 475.895

510.784 -32.4833 -7.19128e-13
-32.4833 512.538 -3.03903e-12
-7.19128e-13 -3.03903e-12 515.09

510.398 -23.1946 -2.74033e-12
-23.1946 473.269 1.86281e-12
-2.74033e-12 1.86281e-12 489.766

511.47 10.4666 -1.64121e-12
10.4666 558.063 -2.69059e-12
-1.64121e-12 -2.69059e-12 523.808

452.27 -23.4377 -2.24206e-12
-23.4377 480.268 -4.75471e-13
-2.24206e-12 -4.75471e-13 469.046

394.495 -9.71105 4.52142e-12
-9.71105 316.476 -1.92046e-12
4.52142e-12 -1.92046e-12 295.639

387.375 -14.281 -3.89377e-12
-14.281 306.119 1.80952e-12
-3.89377e-12 1.80952e-12 290.112

547.655 16.5333 1.96583e-12
16.5333 507.839 3.08198e-12
1.96583e-12 3.08198e-12 519.398

436.582 22.5078 -1.3527e-12
22.5078 469.239 -1.43707e-12
-1.3527e-12 -1.43707e-12 447.918

476.059 29.1687 -5.73171e-13
29.1687 467.738 2.0132e-14
-5.73171e-13 2.0132e-14 471.571

450.404 0.688819 -1.09424e-12
0.688819 392.861 6.29348e-13
-1.09424e-12 6.29348e-13 395.76

478.43 6.5692 -3.75345e-12
6.5692 541.359 -3.21994e-12
-3.75345e-12 -3.21994e-12 507.622

507.429 16.5405 2.52243e-13
16.5405 461.229 -3.20988e-12
2.52243e-13 -3.20988e-12 488.172

390.061 -25.7695 -2.28499e-12
-25.7695 430.133 5.25802e-12
-2.28499e-12 5.25802e-12 387.818

456.404 -2.57099 8.65974e-14
-2.57099 517.108 1.90011e-12
8.65974e-14 1.90011e-12 484.929

400.676 13.3697 -3.10626e-12
13.3697 453.087 7.29491e-13
-3.10626e-12 7.29491e-13 404.724

487.008 -29.7179 5.7554e-13
-29.7179 465.903 2.47831e-12
5.7554e-13 2.47831e-12 474.348

430.393 -29.9566 2.83507e-12
-29.9566 423.722 6.14442e-12
2.83507e-12 6.14442e-12 405.043

399.797 31.633 8.45546e-13
31.633 418.324 9.71075e-14
8.45546e-13 9.71075e-14 386.086

624.025 -15.0178 4.11108e-12
-15.0178 581.988 2.91811e-12
4.11108e-12 2.91811e-12 557.963

494.599 2.04315 5.76591e-12
2.04315 552.218 3.92693e-12
5.76591e-12 3.92693e-12 518.005

483.59 20.2963 1.91743e-12
20.2963 542.118 -2.7122e-12
1.91743e-12 -2.7122e-12 516.113

544.781 15.4355 -3.19744e-13
15.4355 480.058 -1.29674e-12
-3.19744e-13 -1.29674e-12 515.835

473.844 -26.1929 -4.16852e-13
-26.1929 479.852 -9.65154e-14
-4.16852e-13 -9.65154e-14 483.11

452.227 17.9622 1.71004e-12
17.9622 404.595 -4.21826e-12
1.71004e-12 -4.21826e-12 407.006

531.638 -5.2908 -6.77861e-12
-5.2908 580.856 5.07061e-12
-6.77861e-12 5.07061e-12 537.187

512.283 -18.9873 -3.1557e-12
-18.9873 464.885 -4.27806e-13
-3.1557e-12 -4.27806e-13 493.119

474.079 -15.6021 -6.17817e-12
-15.6021 423.266 4.96196e-12
-6.17817e-12 4.96196e-12 438.972

402.086 11.6072 -1.61737e-12
11.6072 456.06 1.00779e-12
-1.61737e-12 1.00779e-12 407.868

411.013 -25.7424 -2.56387e-13
-25.7424 435.679 -6.75016e-14
-2.56387e-13 -6.75016e-14 399.043

532.125 -25.2741 -1.61471e-12
-25.2741 523.262 1.28786e-13
-1.61471e-12 1.28786e-13 519.197

423.149 31.9693 -1.5028e-12
31.9693 417.34 -2.20209e-12
-1.5028e-12 -2.20209e-12 400.392

535.561 -25.133 7.65018e-13
-25.133 505.864 2.32081e-12
7.65018e-13 2.32081e-12 515.74

453.597 2.59805 -1.65083e-12
2.59805 397.105 1.51449e-12
-1.65083e-12 1.51449e-12 401.985

311.161 -28.9391 8.91139e-13
-28.9391 376.678 4.25378e-12
8.91139e-13 4.25378e-12 290.057

431.97 -29.2398 -3.50238e-12
-29.2398 424.141 -1.61648e-12
-3.50238e-12 -1.61648e-12 406.242

353.835 32.1685 6.03961e-13
32.1685 392.63 -1.76925e-12
6.03961e-13 -1.76925e-12 313.036

470.429 -11.8751 1.87718e-12
-11.8751 529.638 -1.9913e-12
1.87718e-12 -1.9913e-12 500.389

391.534 -13.8257 -2.97466e-12
-13.8257 449.354 1.69701e-12
-2.97466e-12 1.69701e-12 400.285

602.89 -23.9806 -4.2979e-12
-23.9806 602.296 -1.05619e-12
-4.2979e-12 -1.05619e-12 557.903

408.46 23.7784 -4.40063e-12
23.7784 442.039 -5.05551e-12
-4.40063e-12 -5.05551e-12 402.31

496.666 -32.7267 -7.46396e-12
-32.7267 490.727 -1.94037e-12
-7.46396e-12 -1.94037e-12 497.534

388.272 -11.9668 -6.42294e-12
-11.9668 448.386 -1.00068e-12
-6.42294e-12 -1.00068e-12 397.102

516.804 -19.1161 -8.01433e-13
-19.1161 465.845 5.4919e-13
-8.01433e-13 5.4919e-13 496.333

410.776 23.8847 7.03141e-12
23.8847 439.411 -1.75622e-12
7.03141e-12 -1.75622e-12 400.786

489.025 -4.97615 -7.87518e-13
-4.97615 435.165 2.68193e-13
-7.87518e-13 2.68193e-13 460.478

305.841 -30.3495 9.05942e-13
-30.3495 391.518 -8.80362e-12
9.05942e-13 -8.80362e-12 262.625

438.704 21.0187 -1.70086e-12
21.0187 474.016 3.64212e-12
-1.70086e-12 3.64212e-12 458.444

445.789 -19.329 -1.94215e-13
-19.329 394.062 9.16896e-13
-1.94215e-13 9.16896e-13 399.711

551.674 -21.4452 1.86932e-12
-21.4452 499.595 -6.31791e-13
1.86932e-12 -6.31791e-13 520.183

424.565 31.7637 -1.82846e-12
31.7637 413.414 4.25674e-12
-1.82846e-12 4.25674e-12 398.047

459.262 -29.9789 -1.96702e-12
-29.9789 437.732 8.98837e-13
-1.96702e-12 8.98837e-13 439.393

510.716 20.8872 -2.1038e-12
20.8872 476.161 -2.86941e-12
-2.1038e-12 -2.86941e-12 492.847

461.607 -28.0769 -2.48024e-12
-28.0769 485.843 2.3029e-12
-2.48024e-12 2.3029e-12 488.816

413.813 -26.2335 -9.74628e-13
-26.2335 436.345 7.04977e-12
-9.74628e-13 7.04977e-12 401.529

426.172 28.9899 1.46668e-12
28.9899 429.996 -2.59585e-12
1.46668e-12 -2.59585e-12 406.952

452.603 26.1983 2.93454e-12
26.1983 418.319 1.22894e-12
2.93454e-12 1.22894e-12 419.151

522.06 -14.6137 6.42449e-13
-14.6137 477.266 1.84652e-12
6.42449e-13 1.84652e-12 500.154

403.651 -16.6231 1.31273e-12
-16.6231 451.848 1.17832e-12
1.31273e-12 1.17832e-12 406.534

496.151 -17.5699 4.6659e-12
-17.5699 447.703 -6.4911e-13
4.6659e-12 -6.4911e-13 471.597

487.869 16.9123 1.43234e-12
16.9123 436.353 -8.20085e-13
1.43234e-12 -8.20085e-13 460.685

513.413 -9.38278 -7.5258e-12
-9.38278 555.855 -1.68754e-13
-7.5258e-12 -1.68754e-13 523.11

454.085 -13.4336 -1.4578e-12
-13.4336 402.269 1.03532e-12
-1.4578e-12 1.03532e-12 406.835

403.291 0.594652 4.06268e-12
0.594652 465.832 -1.16055e-12
4.06268e-12 -1.16055e-12 417.898

475.133 18.5587 -2.64322e-12
18.5587 428.866 2.06709e-12
-2.64322e-12 2.06709e-12 442.317

451.246 27.6114 -3.51719e-12
27.6114 421.933 2.9378e-12
-3.51719e-12 2.9378e-12 420.937

400.959 -15.6913 4.94715e-12
-15.6913 451.488 -5.5221e-12
4.94715e-12 -5.5221e-12 403.828

406.091 -1.20221 4.46236e-13
-1.20221 468.142 3.54916e-12
4.46236e-13 3.54916e-12 421.314

516.288 29.1353 -3.54679e-12
29.1353 498.109 3.32475e-13
-3.54679e-12 3.32475e-13 504.963

441.801 -10.9245 -1.05412e-12
-10.9245 500.762 1.00956e-12
-1.05412e-12 1.00956e-12 471.245

451.543 -26.7229 -6.99292e-13
-26.7229 418.861 -3.45324e-12
-6.99292e-13 -3.45324e-12 419.447

444.49 21.3391 5.70566e-12
21.3391 395.387 -1.24345e-13
5.70566e-12 -1.24345e-13 398.291

497.697 23.6677 1.84682e-12
23.6677 458.184 8.28967e-14
1.84682e-12 8.28967e-14 476.646

447.777 5.47305 5.82941e-13
5.47305 508.892 7.13503e-13
5.82941e-13 7.13503e-13 476.977

427.748 29.0745 2.69355e-12
29.0745 426.533 2.41999e-12
2.69355e-12 2.41999e-12 405.202

536.901 22.9643 5.24321e-13
22.9643 531.967 2.10247e-12
5.24321e-13 2.10247e-12 522.866

314.816 -59.7059 -5.21775e-12
-59.7059 282.825 -6.34515e-12
-5.21775e-12 -6.34515e-12 223.472

480.697 -25.0538 -9.23113e-13
-25.0538 445.168 3.69157e-12
-9.23113e-13 3.69157e-12 456.742

336.736 7.0719 2.14732e-12
7.0719 409.25 5.40486e-12
2.14732e-12 5.40486e-12 319.513

460.64 -28.8965 3.84877e-13
-28.8965 444.836 8.68046e-13
3.84877e-13 8.68046e-13 443.549

96.4408 -52.7101 -1.88531e-12
-52.7101 306.671 5.41907e-12
-1.88531e-12 5.41907e-12 113.723

95.9747 51.4606 1.81899e-12
51.4606 306.936 -6.41383e-12
1.81899e-12 -6.41383e-12 114.511

181.549 117.174 -2.07478e-12
117.174 226.116 -1.79057e-12
-2.07478e-12 -1.79057e-12 113.611

182.847 -117.117 7.39438e-12
-117.117 223.351 -7.8586e-12
7.39438e-12 -7.8586e-12 113.585

321.639 -1.36368 -5.96382e-12
-1.36368 84.6684 5.00607e-14
-5.96382e-12 5.00607e-14 114.952

274.482 -91.1414 -8.66862e-13
-91.1414 127.441 4.02641e-14
-8.66862e-13 4.02641e-14 113.825

275.178 91.6694 -3.55271e-13
91.6694 128.274 -8.83441e-13
-3.55271e-13 -8.83441e-13 114.596

525.33 14.3335 5.02176e-12
14.3335 474.802 -5.73763e-13
5.02176e-12 -5.73763e-13 502.405

556.864 25.5337 3.80377e-12
25.5337 541.246 -2.9563e-12
3.80377e-12 -2.9563e-12 533.526

492.2 6.60776 -2.35663e-12
6.60776 439.218 6.28682e-13
-2.35663e-12 6.28682e-13 471.501

470.404 21.7903 2.43894e-12
21.7903 424.61 5.12183e-13
2.43894e-12 5.12183e-13 438.29

410.067 17.7496 -7.74699e-12
17.7496 461.179 2.68644e-12
-7.74699e-12 2.68644e-12 425.138

448.113 28.9067 -2.51532e-12
28.9067 424.802 -2.64203e-12
-2.51532e-12 -2.64203e-12 420.844

487.248 -29.6681 2.87829e-12
-29.6681 465.725 -1.9457e-12
2.87829e-12 -1.9457e-12 474.685

449.47 28.0359 -1.77636e-15
28.0359 421.166 4.07023e-12
-1.77636e-15 4.07023e-12 418.735

403.054 -2.8426 -4.67108e-12
-2.8426 465.489 -1.30503e-12
-4.67108e-12 -1.30503e-12 417.634

555.871 -26.0946 -9.28739e-13
-26.0946 543.439 -1.20807e-12
-9.28739e-13 -1.20807e-12 533.769

405.592 -4.86437 -1.16292e-12
-4.86437 467.227 7.95808e-13
-1.16292e-12 7.95808e-13 420.694

522.379 23.0197 -2.85461e-12
23.0197 499.83 -3.01833e-12
-2.85461e-12 -3.01833e-12 508.058

423.477 26.8791 -1.95162e-12
26.8791 386.594 -2.27196e-12
-1.95162e-12 -2.27196e-12 373.112

480.206 -13.2167 -1.45735e-12
-13.2167 532.855 2.85401e-13
-1.45735e-12 2.85401e-13 512.091

484.305 13.7311 5.46467e-12
13.7311 432.871 2.01024e-13
5.46467e-12 2.01024e-13 456.972

457.471 -29.9949 2.58164e-13
-29.9949 437.073 -3.31764e-12
2.58164e-13 -3.31764e-12 437.929

454.414 -24.7199 -7.66202e-13
-24.7199 416.898 3.49942e-13
-7.66202e-13 3.49942e-13 419.947

547.48 -16.0787 2.46351e-12
-16.0787 509.385 -1.42582e-12
2.46351e-12 -1.42582e-12 519.467

476.076 27.9346 -8.34296e-13
27.9346 449.802 1.76422e-12
-8.34296e-13 1.76422e-12 457.022

469.205 23.9836 -2.69769e-12
23.9836 427.944 -1.36187e-14
-2.69769e-12 -1.36187e-14 439.926

432.521 -2.79258 -4.02811e-12
-2.79258 493.743 -1.95755e-12
-4.02811e-12 -1.95755e-12 457.203

417.699 5.87432 -3.65368e-12
5.87432 479.665 -5.84421e-12
-3.65368e-12 -5.84421e-12 440.273

463.12 2.64746 -2.72789e-12
2.64746 402.37 4.34327e-12
-2.72789e-12 4.34327e-12 422.417

438.752 -7.292 -3.94943e-12
-7.292 373.998 3.34695e-12
-3.94943e-12 3.34695e-12 381.306

454.945 30.4923 -5.0034e-13
30.4923 439.112 -4.61201e-12
-5.0034e-13 -4.61201e-12 437.932

478.568 -26.1615 1.32043e-13
-26.1615 443.64 1.05101e-12
1.32043e-13 1.05101e-12 454.743

525.791 -21.2554 5.15143e-14
-21.2554 497.913 -7.07878e-13
5.15143e-14 -7.07878e-13 508.707

437.832 -31.6424 -3.80022e-12
-31.6424 437.754 7.63833e-13
-3.80022e-12 7.63833e-13 426.954

417.685 -27.794 9.98313e-13
-27.794 444.5 -3.09501e-12
9.98313e-13 -3.09501e-12 419.783

430.745 29.8959 2.63138e-12
29.8959 442.846 -8.83441e-13
2.63138e-12 -8.83441e-13 426.593

416.318 -9.58031 -8.98874e-13
-9.58031 475.319 -2.59763e-12
-8.98874e-13 -2.59763e-12 436.551

428.988 -1.54618 1.72181e-12
-1.54618 491.975 3.04468e-12
1.72181e-12 3.04468e-12 454.091

445.273 5.74743 -2.77369e-12
5.74743 508.145 3.10389e-12
-2.77369e-12 3.10389e-12 475.009

414.712 -21.0955 2.6074e-12
-21.0955 458.514 -1.67747e-12
2.6074e-12 -1.67747e-12 426.161

496.968 24.116 9.07718e-13
24.116 455.791 2.69118e-13
9.07718e-13 2.69118e-13 474.688

483.481 -9.59202 -1.53951e-14
-9.59202 430.207 4.11893e-12
-1.53951e-14 4.11893e-12 455.319

415.725 7.46685 7.48858e-12
7.46685 477.229 8.91139e-13
7.48858e-12 8.91139e-13 437.009

444.047 -9.70191 3.48881e-12
-9.70191 501.608 1.9084e-12
3.48881e-12 1.9084e-12 471.104

433.27 -16.3346 -5.32226e-12
-16.3346 481.783 -5.60796e-12
-5.32226e-12 -5.60796e-12 455.766

463.648 -8.24143 2.58993e-12
-8.24143 406.426 -4.41277e-12
2.58993e-12 -4.41277e-12 421.566

494.53 -32.3468 -5.34387e-13
-32.3468 487.714 -2.65861e-12
-5.34387e-13 -2.65861e-12 496.345

423.039 9.32419 -2.45196e-12
9.32419 479.199 3.68298e-13
-2.45196e-12 3.68298e-13 441.077

564.422 -18.2138 2.65654e-12
-18.2138 530.021 2.71072e-12
2.65654e-12 2.71072e-12 531.908

309.113 24.8303 3.43251e-12
24.8303 379.509 1.29082e-12
3.43251e-12 1.29082e-12 289.863

501.792 -26.6288 1.991e-12
-26.6288 499.578 2.41881e-12
1.991e-12 2.41881e-12 501.291

515.738 -30.2033 -3.005e-12
-30.2033 498.487 -3.16665e-12
-3.005e-12 -3.16665e-12 505.007

429.316 -0.700428 1.3618e-12
-0.700428 492.1 -4.61853e-14
1.3618e-12 -4.61853e-14 454.242

474.99 -16.626 -6.03961e-13
-16.626 428.433 3.27827e-12
-6.03961e-13 3.27827e-12 442.054

462.397 12.8424 -3.0409e-13
12.8424 511.375 -2.66394e-12
-3.0409e-13 -2.66394e-12 489.216

240.822 -3.18222 -8.35843e-12
-3.18222 360.765 -7.41096e-12
-8.35843e-12 -7.41096e-12 227.015

432.499 14.2767 -7.67238e-13
14.2767 485.463 3.23297e-13
-7.67238e-13 3.23297e-13 456.98

458.214 -29.4969 1.87939e-12
-29.4969 443.271 6.24982e-12
1.87939e-12 6.24982e-12 440.859

304.248 25.1116 3.10685e-12
25.1116 394.668 2.80664e-12
3.10685e-12 2.80664e-12 264.399

603.588 26.0905 -8.06348e-12
26.0905 597.991 -5.0792e-12
-8.06348e-12 -5.0792e-12 558.22

608.319 -27.799 -4.5269e-12
-27.799 595.067 3.9746e-12
-4.5269e-12 3.9746e-12 558.353

463.595 -30.4255 2.60355e-12
-30.4255 459.138 -1.01608e-12
2.60355e-12 -1.01608e-12 459.17

434.684 -31.1692 5.39539e-12
-31.1692 436.46 4.55576e-12
5.39539e-12 4.55576e-12 424.758

474.209 20.8319 -1.66267e-12
20.8319 432.011 -2.37617e-12
-1.66267e-12 -2.37617e-12 444.071

465.33 15.0103 -1.12503e-13
15.0103 410.209 -2.57809e-12
-1.12503e-13 -2.57809e-12 427.559

646.082 3.07869 -4.31855e-12
3.07869 645.738 -1.399e-11
-4.31855e-12 -1.399e-11 574.673

649.901 -6.99299 -5.26231e-12
-6.99299 641.411 2.09684e-12
-5.26231e-12 2.09684e-12 575.201

497.098 4.82402 -5.91527e-13
4.82402 442.137 -1.99914e-12
-5.91527e-13 -1.99914e-12 477.514

443.653 6.73346 -1.29134e-12
6.73346 503.094 -1.5324e-12
-1.29134e-12 -1.5324e-12 471.148

442.064 6.73658 -8.24407e-13
6.73658 502.619 1.64609e-12
-8.24407e-13 1.64609e-12 469.87

321.602 58.6493 -5.26986e-12
58.6493 281.18 2.6219e-12
-5.26986e-12 2.6219e-12 225.126

420.324 -28.2084 5.27282e-12
-28.2084 444.127 3.45324e-12
5.27282e-12 3.45324e-12 421.128

520.676 17.9735 2.14673e-12
17.9735 467.627 -1.92024e-12
2.14673e-12 -1.92024e-12 499.604

473.091 9.54171 -6.06211e-12
9.54171 421.293 2.59985e-12
-6.06211e-12 2.59985e-12 436.301

440.731 -26.7308 -2.26249e-12
-26.7308 450.832 -5.48776e-12
-2.26249e-12 -5.48776e-12 433.513

469.383 -20.243 -4.2597e-12
-20.243 422.811 -3.46715e-12
-4.2597e-12 -3.46715e-12 437.273

312.538 60.2473 4.43852e-12
60.2473 281.428 9.05942e-13
4.43852e-12 9.05942e-13 223.264

492.777 31.0713 1.13746e-12
31.0713 489.134 -3.76469e-12
1.13746e-12 -3.76469e-12 493.231

410.956 -19.7921 -4.43349e-12
-19.7921 457.989 9.17784e-14
-4.43349e-12 9.17784e-14 423.594

474.231 28.864 -1.04213e-12
28.864 449.73 -1.97886e-12
-1.04213e-12 -1.97886e-12 456.616

431.051 -4.14672 2.7025e-12
-4.14672 493.08 -1.0972e-12
2.7025e-12 -1.0972e-12 456.565

424.027 19.615 9.35252e-13
19.615 465.82 2.96296e-12
9.35252e-13 2.96296e-12 434.206

452.85 30.5268 -1.8859e-12
30.5268 443.698 -2.27907e-12
-1.8859e-12 -2.27907e-12 439.706

428.742 -22.4799 -7.77452e-13
-22.4799 461.245 -5.49782e-12
-7.77452e-13 -5.49782e-12 433.911

443.676 -27.3601 -5.69086e-12
-27.3601 450.538 1.83912e-12
-5.69086e-12 1.83912e-12 435.143

294.839 11.2599 3.51319e-12
11.2599 372.667 4.44563e-12
3.51319e-12 4.44563e-12 258.159

357.377 -33.4664 -4.44681e-12
-33.4664 389.206 4.03588e-12
-4.44681e-12 4.03588e-12 314.201

419.751 -11.6936 1.9064e-12
-11.6936 476.47 -4.10161e-12
1.9064e-12 -4.10161e-12 439.442

478.5 26.4909 -4.17385e-12
26.4909 446.897 -3.52429e-12
-4.17385e-12 -3.52429e-12 456.181

452.447 29.4852 -1.9907e-12
29.4852 449.129 -9.98313e-13
-1.9907e-12 -9.98313e-13 442.498

426.907 -21.4403 3.98082e-12
-21.4403 461.892 1.46431e-12
3.98082e-12 1.46431e-12 432.728

423.027 -11.7862 -1.44655e-12
-11.7862 476.757 -2.69947e-12
-1.44655e-12 -2.69947e-12 440.026

457.809 28.4169 -4.41129e-12
28.4169 447.189 1.45424e-12
-4.41129e-12 1.45424e-12 442.669

425.202 -13.882 2.35367e-12
-13.882 476.528 -3.60541e-12
2.35367e-12 -3.60541e-12 442.203

311.331 27.8639 2.31163e-12
27.8639 377.477 -1.61056e-12
2.31163e-12 -1.61056e-12 290.05

485.253 -4.0393 -5.86247e-12
-4.0393 545.134 -7.92847e-13
-5.86247e-12 -7.92847e-13 511.123

433.084 31.0366 -8.15348e-13
31.0366 439.729 -2.17308e-13
-8.15348e-13 -2.17308e-13 426.115

509.41 14.9044 -3.01389e-13
14.9044 463.256 1.34944e-12
-3.01389e-13 1.34944e-12 488.701

517.016 -15.9309 1.9007e-13
-15.9309 467.675 1.08091e-12
1.9007e-13 1.08091e-12 494.017

384.013 -24.2117 2.70006e-12
-24.2117 306.012 -5.80277e-13
2.70006e-12 -5.80277e-13 285.419

442.38 -21.2717 -2.21097e-12
-21.2717 476.108 -2.59763e-12
-2.21097e-12 -2.59763e-12 459.421

447.93 26.7042 2.52776e-12
26.7042 466.313 8.88178e-13
2.52776e-12 8.88178e-13 457.941

523.057 -21.7271 3.12668e-12
-21.7271 543.881 3.53928e-12
3.12668e-12 3.53928e-12 525.391

579.625 14.0999 -9.72259e-13
14.0999 617.653 -1.79442e-12
-9.72259e-13 -1.79442e-12 557.116

620.236 9.44501 3.32223e-12
9.44501 576.886 3.28922e-13
3.32223e-12 3.28922e-13 556.934

523.552 32.7027 -5.9508e-13
32.7027 520.728 -2.13163e-12
-5.9508e-13 -2.13163e-12 519.608

414.986 26.0084 -3.6741e-13
26.0084 449.011 2.98191e-12
-3.6741e-13 2.98191e-12 420.472

478.2 26.6664 -1.85274e-12
26.6664 444.865 -8.82997e-12
-1.85274e-12 -8.82997e-12 455.604

332.435 45.1995 -3.32889e-12
45.1995 349.567 4.50958e-12
-3.32889e-12 4.50958e-12 286.805

571.436 -11.3382 1.38704e-11
-11.3382 614.506 -4.5682e-12
1.38704e-11 -4.5682e-12 554.659

641.338 -3.42988 -8.23299e-12
-3.42988 636.891 -2.21245e-12
-8.23299e-12 -2.21245e-12 572.451

634.926 -0.207367 6.66978e-12
-0.207367 643.188 3.75922e-13
6.66978e-12 3.75922e-13 572.278

273.017 -53.8159 1.42843e-11
-53.8159 316.514 7.95808e-12
1.42843e-11 7.95808e-12 220.957

566.703 -11.5975 3.33955e-13
-11.5975 562.181 2.75039e-12
3.33955e-13 2.75039e-12 540.972

563.82 8.80938 -9.39937e-12
8.80938 587.015 4.42461e-12
-9.39937e-12 4.42461e-12 546.909

478.349 -26.2043 -2.05406e-12
-26.2043 440.537 -3.82035e-12
-2.05406e-12 -3.82035e-12 453.579

494.429 1.00873 5.24469e-13
1.00873 545.844 3.62732e-12
5.24469e-13 3.62732e-12 514.143

447.752 -20.2722 -8.65974e-13
-20.2722 484.266 3.25488e-12
-8.65974e-13 3.25488e-12 470.738

506.406 6.25585 5.54223e-13
6.25585 443.479 4.9248e-12
5.54223e-13 4.9248e-12 486.225

461.371 15.5961 5.30113e-13
15.5961 521.349 4.11908e-12
5.30113e-13 4.11908e-12 497.651

471.268 7.19032 -4.62023e-12
7.19032 528.1 -5.37526e-12
-4.62023e-12 -5.37526e-12 497.781

493.866 20.3975 -3.37508e-13
20.3975 451.612 -7.97703e-12
-3.37508e-13 -7.97703e-12 469.847

241.112 -3.11392 -3.58824e-12
-3.11392 358.637 -1.7503e-12
-3.58824e-12 -1.7503e-12 227.114

463.803 -27.63 5.04189e-12
-27.63 463.496 -9.59825e-13
5.04189e-12 -9.59825e-13 461.29

488.443 -26.1213 5.03123e-12
-26.1213 481.695 -4.49329e-12
5.03123e-12 -4.49329e-12 485.965

497.633 -31.4836 -3.92012e-12
-31.4836 490.056 4.43482e-12
-3.92012e-12 4.43482e-12 499.075

355.677 32.7585 3.76588e-13
32.7585 285.836 2.62131e-12
3.76588e-13 2.62131e-12 248.422

563.942 -20.1142 3.47692e-12
-20.1142 569.664 5.38577e-12
3.47692e-12 5.38577e-12 542.642

337.717 54.3349 -8.72073e-12
54.3349 356.731 9.90023e-13
-8.72073e-12 9.90023e-13 258.932

477.166 -21.4378 -1.15448e-12
-21.4378 506.589 -1.39296e-12
-1.15448e-12 -1.39296e-12 500.339

504.878 14.6511 -3.93937e-12
14.6511 452.085 -1.23782e-12
-3.93937e-12 -1.23782e-12 481.658

449.937 -14.5766 -1.50161e-12
-14.5766 397.076 -1.91047e-12
-1.50161e-12 -1.91047e-12 400.932

452.697 24.0507 2.9227e-12
24.0507 478.888 3.86358e-12
2.9227e-12 3.86358e-12 467.949

493.771 20.4307 3.54857e-12
20.4307 449.597 -1.98478e-12
3.54857e-12 -1.98478e-12 469.439

505.64 11.3972 -9.65376e-13
11.3972 564.486 4.51757e-12
-9.65376e-13 4.51757e-12 526.791

475.997 -31.5843 1.00956e-13
-31.5843 470.457 2.38002e-12
1.00956e-13 2.38002e-12 475.162

559.338 19.8119 -1.75919e-12
19.8119 510.516 1.13539e-12
-1.75919e-12 1.13539e-12 526.567

440.058 -18.4477 8.12565e-12
-18.4477 482.573 -8.52651e-14
8.12565e-12 -8.52651e-14 459.249

465.989 4.28508 2.23469e-12
4.28508 526.203 -7.73781e-12
2.23469e-12 -7.73781e-12 495.603

588.688 9.92909 1.52796e-12
9.92909 552.519 -2.02238e-12
1.52796e-12 -2.02238e-12 545.258

590.471 -8.51613 -5.40901e-12
-8.51613 554.86 4.43497e-13
-5.40901e-12 4.43497e-13 545.776

382.397 18.5175 -8.07177e-12
18.5175 302.35 -4.44681e-13
-8.07177e-12 -4.44681e-13 286.199

502.782 7.96684 5.51648e-12
7.96684 453.698 -3.21225e-14
5.51648e-12 -3.21225e-14 487.863

232.857 7.74303 -7.14436e-12
7.74303 381.584 4.56168e-12
-7.14436e-12 4.56168e-12 187.225

237.027 -11.3881 -7.07301e-12
-11.3881 387.278 -1.3074e-12
-7.07301e-12 -1.3074e-12 189.489

249.331 56.4162 8.71599e-13
56.4162 354.841 -2.00847e-12
8.71599e-13 -2.00847e-12 184.061

505.109 -28.9536 6.36587e-12
-28.9536 478.71 -8.50579e-13
6.36587e-12 -8.50579e-13 491.437

258.523 -49.2028 -2.58401e-12
-49.2028 341.911 -9.91681e-12
-2.58401e-12 -9.91681e-12 220.782

249.336 -55.9588 3.55508e-12
-55.9588 344.814 8.986e-12
3.55508e-12 8.986e-12 181.153

434.753 26.2275 -3.46094e-12
26.2275 454.498 1.96347e-12
-3.46094e-12 1.96347e-12 432.921

329.983 73.8563 4.50958e-12
73.8563 280.059 -8.62125e-13
4.50958e-12 -8.62125e-13 184.865

540.192 13.0448 -3.20455e-12
13.0448 555.021 1.45602e-12
-3.20455e-12 1.45602e-12 532.155

562.454 0.0447775 2.39645e-12
0.0447775 532.523 -6.6495e-13
2.39645e-12 -6.6495e-13 531.948

338.663 -73.1415 -3.0127e-12
-73.1415 279.906 -6.27883e-12
-3.0127e-12 -6.27883e-12 186.348

432.767 -23.4301 6.1305e-12
-23.4301 466.417 -4.4403e-12
6.1305e-12 -4.4403e-12 447.67

359.008 34.7384 2.80191e-12
34.7384 311.039 1.80596e-12
2.80191e-12 1.80596e-12 258.095

267.753 63.5022 6.81884e-12
63.5022 345.271 -3.5764e-12
6.81884e-12 -3.5764e-12 185.883

293.752 21.636 5.43802e-12
21.636 367.74 2.13873e-12
5.43802e-12 2.13873e-12 254.554

267.624 -65.9315 -8.09308e-12
-65.9315 344.906 4.26326e-14
-8.09308e-12 4.26326e-14 184.339

291.699 -12.3842 -1.06954e-11
-12.3842 370.962 2.27137e-12
-1.06954e-11 2.27137e-12 253.499

550.364 6.8365 1.05117e-11
6.8365 582.137 2.89309e-12
1.05117e-11 2.89309e-12 541.189

329.96 -45.9878 -5.3421e-12
-45.9878 341.89 2.6219e-12
-5.3421e-12 2.6219e-12 276.677

259.833 47.5439 5.54105e-12
47.5439 340.286 3.73509e-12
5.54105e-12 3.73509e-12 223.194

370.282 37.9188 -2.72375e-12
37.9188 244.964 5.39716e-12
-2.72375e-12 5.39716e-12 187.395

481.991 -29.2913 -2.43361e-12
-29.2913 460.61 5.30598e-12
-2.43361e-12 5.30598e-12 467.811

481.063 12.8956 3.65189e-12
12.8956 525.923 2.13548e-12
3.65189e-12 2.13548e-12 504.194

354.494 -38.1224 -5.2367e-12
-38.1224 300.138 -1.68635e-12
-5.2367e-12 -1.68635e-12 251.871

482.635 -28.8071 -6.8668e-12
-28.8071 460.416 6.31672e-12
-6.8668e-12 6.31672e-12 468.559

365.328 -36.3505 -3.55271e-12
-36.3505 231.03 -6.06271e-12
-3.55271e-12 -6.06271e-12 182.807

481.602 -28.3225 -3.33008e-12
-28.3225 472.851 1.33967e-12
-3.33008e-12 1.33967e-12 478.014

436.452 -25.3015 -7.51695e-13
-25.3015 466.33 -5.27519e-12
-7.51695e-13 -5.27519e-12 448.308

314.854 69.4725 1.89004e-12
69.4725 292.194 2.70006e-12
1.89004e-12 2.70006e-12 184.561

290.84 -22.9388 5.75066e-12
-22.9388 359.241 9.02389e-13
5.75066e-12 9.02389e-13 247.084

312.455 -71.7049 -1.80952e-12
-71.7049 288.174 1.16742e-11
-1.80952e-12 1.16742e-11 182.064

268.599 50.7496 8.65678e-13
50.7496 320.126 -9.42653e-13
8.65678e-13 -9.42653e-13 221.553

459.962 -30.2189 7.1451e-12
-30.2189 454.945 7.57172e-12
7.1451e-12 7.57172e-12 454.497

559.356 -14.6419 4.08947e-12
-14.6419 544.475 2.80309e-12
4.08947e-12 2.80309e-12 533.793

635.935 11.0877 3.3508e-12
11.0877 631.407 -3.42171e-12
3.3508e-12 -3.42171e-12 570.075

619.984 -5.16091 -1.9161e-12
-5.16091 639.752 -3.71198e-12
-1.9161e-12 -3.71198e-12 568.554

453.962 13.0844 -8.92767e-13
13.0844 506.656 2.47328e-12
-8.92767e-13 2.47328e-12 482.667

634.166 -10.662 1.21422e-11
-10.662 631.337 -8.78112e-13
1.21422e-11 -8.78112e-13 569.93

622.721 4.09315 -6.77369e-12
4.09315 642.697 1.60016e-11
-6.77369e-12 1.60016e-11 569.754

643.391 7.42752 -3.74352e-12
7.42752 619.171 -1.45735e-12
-3.74352e-12 -1.45735e-12 569.077

584.814 -12.1089 -5.51851e-12
-12.1089 631.692 -1.48959e-11
-5.51851e-12 -1.48959e-11 560.653

307.508 -30.4792 8.90902e-12
-30.4792 371.716 -8.83441e-13
8.90902e-12 -8.83441e-13 280.832

589.673 -12.9721 -3.52104e-12
-12.9721 549.171 2.09847e-12
-3.52104e-12 2.09847e-12 543.896

527.287 -34.4138 1.11881e-12
-34.4138 521.562 -4.19605e-12
1.11881e-12 -4.19605e-12 520.048

565.526 -18.1786 1.0368e-12
-18.1786 538.058 -4.07866e-12
1.0368e-12 -4.07866e-12 534.334

502.67 15.4624 -1.37608e-12
15.4624 452.21 -1.32279e-12
-1.37608e-12 -1.32279e-12 480.302

586.385 9.85989 6.34737e-12
9.85989 642.153 5.21065e-14
6.34737e-12 5.21065e-14 563.162

636.676 19.2216 -1.14033e-11
19.2216 591.758 6.11008e-12
-1.14033e-11 6.11008e-12 562.983

569.836 11.311 6.49258e-12
11.311 544.405 -3.59253e-12
6.49258e-12 -3.59253e-12 536.51

353.516 -15.3441 3.60482e-12
-15.3441 231.56 -8.89955e-12
3.60482e-12 -8.89955e-12 219.061

437.305 24.9708 -1.59517e-12
24.9708 462.018 -2.70125e-12
-1.59517e-12 -2.70125e-12 445.82

317.153 -61.3696 1.17145e-11
-61.3696 277.905 4.44089e-12
1.17145e-11 4.44089e-12 218.136

334.276 -57.47 7.34227e-14
-57.47 357.396 -8.63309e-12
7.34227e-14 -8.63309e-12 252.595

383.414 -36.5528 3.15718e-12
-36.5528 305.8 8.10019e-13
3.15718e-12 8.10019e-13 257.816

562.549 -5.15828 -4.8385e-12
-5.15828 616.983 3.03372e-12
-4.8385e-12 3.03372e-12 553.015

562.256 2.8916 -1.02659e-12
2.8916 615.849 -4.94627e-12
-1.02659e-12 -4.94627e-12 552.614

598.808 -24.4478 2.72256e-12
-24.4478 575.792 2.61591e-12
2.72256e-12 2.61591e-12 551.644

602.368 -21.7512 -3.00863e-12
-21.7512 573.481 4.1546e-12
-3.00863e-12 4.1546e-12 551.91

598.82 26.1265 -3.66818e-13
26.1265 580.505 -7.8193e-12
-3.66818e-13 -7.8193e-12 552.799

625.766 3.0934 1.29374e-11
3.0934 630.754 2.68894e-11
1.29374e-11 2.68894e-11 568.477

599.098 -20.5023 -1.64195e-12
-20.5023 576.403 -2.39712e-12
-1.64195e-12 -2.39712e-12 552.333

607.843 -18.5632 -2.99908e-13
-18.5632 620.284 -1.59469e-11
-2.99908e-13 -1.59469e-11 563.244

632.922 2.43003 7.53175e-12
2.43003 635.541 7.32288e-12
7.53175e-12 7.32288e-12 570.56

607.922 -20.5183 4.19376e-12
-20.5183 572.474 -4.96492e-13
4.19376e-12 -4.96492e-13 553.471

607.108 20.9477 -2.89975e-12
20.9477 573.732 2.84395e-12
-2.89975e-12 2.84395e-12 553.874

633.873 -3.45373 3.69837e-12
-3.45373 636.792 -1.17614e-11
3.69837e-12 -1.17614e-11 571.334

632.202 -3.11045 -2.33098e-11
-3.11045 625.78 6.76451e-12
-2.33098e-11 6.76451e-12 569.451

609.715 12.1086 -2.37973e-12
12.1086 620.507 1.92291e-12
-2.37973e-12 1.92291e-12 563.975

587.247 26.9221 3.29425e-12
26.9221 583.06 -8.31844e-13
3.29425e-12 -8.31844e-13 551.767

FIELD solute_concentration_TPM 2
S_ext 1 563 float
0.612001
0.611901
0.611908
0.611901
0.611904
0.611908
0.612001
0.611905
0.611915
0.611903
0.611978
0.611906
0.611907
0.611903
0.611903
0.611907
0.611902
0.611905
0.611916
0.611908
0.611912
0.611911
0.61191
0.611909
0.611909
0.611903
0.611972
0.611908
0.61194
0.611907
0.611906
0.61194
0.611974
0.611906
0.611905
0.611905
0.611906
0.611905
0.611907
0.611974
0.611941
0.611905
0.611905
0.611906
0.611959
0.61194
0.611915
0.611913
0.611908
0.611945
0.611943
0.611933
0.611903
0.611933
0.611903
0.611962
0.611905
0.611932
0.611905
0.611908
0.611901
0.611902
0.611969
0.611902
0.611902
0.611904
0.611901
0.611903
0.611909
0.611902
0.611903
0.611903
0.611941
0.611904
0.611907
0.611976
0.611903
0.611904
0.611904
0.611929
0.611951
0.611903
0.611902
0.611952
0.61194
0.611961
0.611908
0.611906
0.611959
0.611915
0.611932
0.611916
0.611903
0.611906
0.611932
0.611942
0.611951
0.611902
0.611903
0.611907
0.611923
0.611938
0.611952
0.611902
0.611904
0.611902
0.611903
0.611908
0.611952
0.611901
0.611908
0.611957
0.611954
0.611904
0.611902
0.611933
0.611907
0.611952
0.611908
0.611932
0.611919
0.611902
0.611901
0.611902
0.611902
0.611902
0.611907
0.611903
0.611951
0.611932
0.611903
0.611901
0.611901
0.611901
0.611938
0.611906
0.611957
0.611907
0.611903
0.611905
0.611937
0.611906
0.611919
0.611903
0.611953
0.611903
0.611907
0.61191
0.611908
0.611925
0.611914
0.611901
0.61194
0.611906
0.611903
0.611901
0.611903
0.611937
0.611936
0.611904
0.611913
0.611939
0.611959
0.611942
0.611936
0.611902
0.611936
0.611937
0.61194
0.611936
0.611903
0.611932
0.611942
0.611903
0.611932
0.611903
0.611903
0.611907
0.611903
0.611905
0.611941
0.611902
0.611903
0.611937
0.611904
0.611943
0.611902
0.611903
0.611905
0.611902
0.611904
0.61195
0.611932
0.61194
0.611901
0.611903
0.611903
0.611901
0.611901
0.611904
0.611901
0.611916
0.611928
0.611901
0.611941
0.611901
0.611906
0.611938
0.611903
0.611902
0.611905
0.611905
0.611903
0.611903
0.611924
0.611905
0.611927
0.611903
0.611902
0.611901
0.6119
0.611901
0.6119
0.6119
0.611904
0.611902
0.611902
0.611902
0.611902
0.611905
0.611905
0.611924
0.611903
0.611901
0.611914
0.611904
0.611904
0.611901
0.611928
0.6119
0.611902
0.611924
0.611903
0.611924
0.611903
0.6119
0.611924
0.611927
0.611951
0.611946
0.611901
0.611954
0.611906
0.611927
0.611917
0.6119
0.611901
0.611907
0.6119
0.611957
0.611927
0.611901
0.611906
0.611928
0.611901
0.611919
0.611906
0.611927
0.611902
0.611903
0.611903
0.611904
0.611906
0.611904
0.611906
0.611958
0.611961
0.611905
0.61191
0.611906
0.611926
0.611903
0.611903
0.611927
0.611905
0.611923
0.611907
0.611923
0.611928
0.611909
0.611903
0.611902
0.611902
0.611903
0.611922
0.611905
0.611902
0.611914
0.611922
0.611925
0.611903
0.611924
0.611905
0.611924
0.611959
0.611923
0.611954
0.611903
0.611924
0.611909
0.611924
0.611904
0.611925
0.611904
0.611924
0.611908
0.611973
0.611907
0.611924
0.611903
0.611924
0.611914
0.611905
0.611901
0.611924
0.611922
0.611919
0.611905
0.611922
0.611907
0.611908
0.611904
0.611922
0.611919
0.611913
0.611918
0.611923
0.611918
0.611905
0.611906
0.611919
0.611925
0.611905
0.611906
0.611923
0.611903
0.611982
0.61191
0.611951
0.611913
0.612018
0.612018
0.612017
0.612017
0.612015
0.612021
0.612021
0.611904
0.611907
0.611906
0.611914
0.611916
0.611918
0.611907
0.611919
0.611919
0.611907
0.611918
0.611904
0.611932
0.611901
0.611909
0.611914
0.611918
0.611906
0.611909
0.611913
0.611909
0.611913
0.611917
0.611929
0.611914
0.61191
0.611903
0.611916
0.611917
0.611916
0.611914
0.61191
0.611906
0.611916
0.611906
0.611909
0.611914
0.611906
0.611908
0.611918
0.611902
0.611913
0.611904
0.611959
0.611903
0.611905
0.61191
0.611912
0.611903
0.611981
0.611908
0.611913
0.611972
0.611911
0.611912
0.611909
0.611916
0.611912
0.611916
0.611917
0.611916
0.611904
0.611906
0.611907
0.611984
0.611917
0.611903
0.611914
0.611914
0.611914
0.611981
0.611904
0.611916
0.611909
0.611909
0.611914
0.611913
0.611914
0.611914
0.611973
0.611953
0.611913
0.61191
0.611912
0.611914
0.611913
0.611913
0.611912
0.61196
0.611903
0.611916
0.611903
0.611903
0.611961
0.611908
0.611907
0.611905
0.611907
0.611907
0.611904
0.611917
0.61191
0.611961
0.611907
0.611911
0.611911
0.611983
0.611905
0.611906
0.61191
0.611903
0.611904
0.611903
0.611902
0.611904
0.611908
0.611981
0.611907
0.611905
0.611903
0.611977
0.611905
0.611976
0.611901
0.611905
0.611924
0.611905
0.611907
0.611904
0.611905
0.611903
0.611907
0.611903
0.611908
0.611909
0.611962
0.611903
0.612003
0.612003
0.612003
0.611904
0.611985
0.612004
0.611914
0.612002
0.611903
0.611903
0.612003
0.61191
0.611975
0.612005
0.611975
0.612006
0.611975
0.611905
0.611965
0.611984
0.612001
0.611907
0.611902
0.611976
0.611907
0.612002
0.611905
0.61191
0.612006
0.611977
0.612006
0.611982
0.611909
0.611904
0.61191
0.61191
0.611904
0.611911
0.61191
0.611911
0.61191
0.611963
0.611906
0.611905
0.611907
0.611905
0.611911
0.611911
0.611906
0.611982
0.61191
0.611987
0.611979
0.611974
0.611906
0.611906
0.611906
0.611907
0.611906
0.611913
0.611909
0.611913
0.611915
0.61191
0.611909
0.611915
0.611912
0.611912
0.611909
P_ext 1 563 float
0.00565673
0.00565529
0.0056555
0.00565531
0.00565478
0.0056555
0.00565673
0.0056554
0.00565565
0.00565531
0.00565649
0.00565539
0.00565544
0.00565531
0.00565492
0.00565549
0.0056552
0.00565539
0.00565569
0.00565554
0.00565558
0.00565385
0.00565554
0.00565553
0.00565554
0.00565535
0.00565642
0.00565546
0.00565607
0.00565434
0.00565546
0.00565606
0.00565646
0.0056545
0.0056545
0.00565451
0.00565431
0.00565454
0.00565545
0.00565645
0.00565606
0.0056543
0.0056543
0.00565545
0.00565629
0.00565606
0.00565568
0.00565563
0.00565549
0.00565613
0.00565609
0.00565595
0.00565477
0.00565597
0.0056548
0.00565633
0.00565449
0.00565596
0.0056545
0.00565552
0.00565519
0.00565507
0.0056564
0.00565509
0.00565506
0.00565523
0.00565518
0.00565536
0.00565555
0.00565526
0.00565478
0.00565479
0.00565608
0.00565517
0.00565551
0.00565648
0.00565495
0.00565524
0.00565535
0.0056559
0.00565619
0.00565473
0.00565511
0.00565621
0.00565606
0.00565632
0.00565547
0.0056552
0.00565629
0.00565392
0.00565596
0.00565392
0.00565491
0.00565524
0.00565596
0.00565609
0.0056562
0.00565532
0.00565496
0.00565546
0.0056558
0.00565604
0.0056562
0.00565537
0.00565533
0.00565534
0.00565509
0.00565547
0.00565621
0.00565521
0.00565551
0.00565627
0.00565623
0.00565538
0.00565535
0.00565597
0.0056545
0.00565622
0.0056545
0.00565596
0.00565573
0.00565495
0.00565527
0.00565518
0.00565518
0.00565491
0.00565456
0.00565532
0.00565621
0.00565594
0.00565474
0.0056553
0.00565512
0.00565528
0.00565605
0.00565446
0.00565628
0.00565543
0.00565509
0.00565447
0.00565602
0.00565534
0.00565572
0.00565531
0.00565623
0.00565534
0.00565535
0.00565549
0.0056555
0.00565583
0.00565561
0.00565527
0.00565605
0.00565545
0.00565532
0.00565529
0.00565528
0.00565603
0.00565602
0.00565543
0.00565563
0.00565605
0.00565629
0.00565608
0.00565601
0.00565534
0.00565602
0.00565603
0.00565606
0.00565601
0.0056549
0.00565596
0.0056561
0.00565527
0.00565596
0.0056551
0.0056549
0.00565538
0.0056548
0.00565533
0.00565608
0.00565533
0.00565532
0.00565602
0.00565521
0.00565611
0.00565519
0.00565511
0.0056549
0.00565533
0.0056552
0.0056562
0.00565595
0.00565606
0.00565529
0.0056554
0.00565538
0.00565513
0.00565527
0.00565525
0.00565527
0.00565569
0.0056559
0.00565513
0.00565608
0.00565512
0.00565523
0.00565603
0.00565502
0.00565526
0.00565501
0.0056553
0.00565535
0.0056551
0.00565582
0.00565529
0.0056559
0.00565512
0.00565519
0.00565519
0.00565521
0.00565521
0.00565521
0.00565522
0.0056553
0.00565495
0.00565495
0.00565493
0.00565494
0.00565478
0.00565477
0.00565584
0.00565528
0.00565527
0.00565565
0.00565492
0.00565491
0.00565527
0.00565589
0.00565529
0.00565532
0.00565583
0.00565501
0.00565584
0.0056551
0.00565528
0.00565582
0.00565588
0.00565619
0.00565614
0.00565512
0.00565624
0.00565546
0.0056559
0.00565568
0.00565529
0.0056552
0.0056543
0.00565521
0.00565627
0.00565588
0.00565527
0.00565538
0.0056559
0.0056552
0.00565572
0.0056543
0.00565589
0.00565518
0.00565519
0.00565539
0.00565492
0.0056552
0.00565479
0.00565543
0.00565628
0.00565632
0.00565485
0.00565558
0.00565539
0.00565585
0.005655
0.00565528
0.00565588
0.00565526
0.00565581
0.00565534
0.00565582
0.00565589
0.0056541
0.00565487
0.00565491
0.00565491
0.00565531
0.00565581
0.00565453
0.00565521
0.00565561
0.0056558
0.00565585
0.00565486
0.00565583
0.00565491
0.00565584
0.00565629
0.0056558
0.00565623
0.0056551
0.00565582
0.00565409
0.00565583
0.00565513
0.00565584
0.00565516
0.00565583
0.00565549
0.00565645
0.0056555
0.00565584
0.00565484
0.00565583
0.0056556
0.00565519
0.00565528
0.00565583
0.00565581
0.00565572
0.00565511
0.0056558
0.00565539
0.00565548
0.00565481
0.00565581
0.00565573
0.00565559
0.00565573
0.00565582
0.00565572
0.00565503
0.00565539
0.00565573
0.00565583
0.00565535
0.00565534
0.0056558
0.00565482
0.00565653
0.00565548
0.0056562
0.00565558
0.00565689
0.00565689
0.00565688
0.00565688
0.00565686
0.00565692
0.00565692
0.00565508
0.0056546
0.0056554
0.0056556
0.00565569
0.00565573
0.00565535
0.00565572
0.00565574
0.0056546
0.00565572
0.00565502
0.00565595
0.00565497
0.00565549
0.00565562
0.00565573
0.00565486
0.0056555
0.00565561
0.00565549
0.0056556
0.00565572
0.00565591
0.0056556
0.00565551
0.00565502
0.00565567
0.00565573
0.00565569
0.00565562
0.00565551
0.00565534
0.00565569
0.00565535
0.0056555
0.00565562
0.00565538
0.00565551
0.00565571
0.00565517
0.0056556
0.00565465
0.00565629
0.00565511
0.00565503
0.00565551
0.00565561
0.00565524
0.00565653
0.00565549
0.00565561
0.00565644
0.00565413
0.00565413
0.00565547
0.0056557
0.00565559
0.00565569
0.00565375
0.00565376
0.00565537
0.00565539
0.00565539
0.00565656
0.00565571
0.00565514
0.00565565
0.00565566
0.00565563
0.00565653
0.00565518
0.0056557
0.0056555
0.00565549
0.00565566
0.00565561
0.00565565
0.00565564
0.00565645
0.00565622
0.00565561
0.00565549
0.0056556
0.00565567
0.00565562
0.00565559
0.0056556
0.0056563
0.00565496
0.00565568
0.00565525
0.00565518
0.00565631
0.00565549
0.00565551
0.0056548
0.0056541
0.0056541
0.00565484
0.00565573
0.00565549
0.00565632
0.00565414
0.00565382
0.00565382
0.00565654
0.00565453
0.00565434
0.00565552
0.00565493
0.00565542
0.00565529
0.00565515
0.00565513
0.00565539
0.00565653
0.00565549
0.00565526
0.00565515
0.00565649
0.00565444
0.00565648
0.00565515
0.00565532
0.00565582
0.00565545
0.0056554
0.00565473
0.00565537
0.00565473
0.0056555
0.00565516
0.00565437
0.00565437
0.00565633
0.00565526
0.00565675
0.00565675
0.00565675
0.00565521
0.00565657
0.00565675
0.00565567
0.00565674
0.00565471
0.00565472
0.00565674
0.00565557
0.00565647
0.00565677
0.00565646
0.00565677
0.00565646
0.00565451
0.00565636
0.00565656
0.00565673
0.00565542
0.00565507
0.00565648
0.00565541
0.00565673
0.00565534
0.00565556
0.00565678
0.00565649
0.00565678
0.00565653
0.00565552
0.00565464
0.00565383
0.00565386
0.00565529
0.00565383
0.00565383
0.00565385
0.00565402
0.00565634
0.00565442
0.00565485
0.00565461
0.00565531
0.00565398
0.00565399
0.00565461
0.00565654
0.00565559
0.00565659
0.00565651
0.00565645
0.00565417
0.00565418
0.00565421
0.0056542
0.00565418
0.00565387
0.00565421
0.00565396
0.00565383
0.00565416
0.00565417
0.00565383
0.00565387
0.00565397
0.00565421
FIELD solute_flux_TPM 2
S_ext 3 563 float
-3.34286e-05 1.11058e-05 -8.57236e-19
2.32276e-06 3.73836e-06 -1.51619e-18
-6.44756e-06 -4.84711e-06 2.41542e-18
-2.14923e-06 2.21851e-06 -7.60272e-19
1.46718e-05 -4.35215e-06 -1.69888e-19
1.19259e-06 -7.88322e-06 3.41727e-18
-3.29215e-05 -1.12414e-05 -1.93536e-18
-7.61921e-06 -5.09739e-06 4.19935e-19
1.0402e-05 5.41837e-07 -4.92247e-19
6.03562e-06 -2.50538e-06 -1.00389e-18
2.25591e-05 5.23334e-06 8.56966e-19
7.92755e-07 -9.12194e-06 5.0805e-19
7.32147e-06 5.34219e-06 -2.25149e-18
1.93124e-06 7.44638e-06 -1.00972e-18
1.33045e-05 -2.19342e-06 9.39743e-19
-7.95025e-06 -1.29449e-07 3.33953e-19
2.16728e-06 8.2514e-06 5.90214e-19
5.13818e-06 -1.36947e-06 8.53157e-20
4.6426e-06 8.02285e-06 -1.14732e-18
-7.19939e-06 9.72886e-07 -2.46984e-19
-1.41927e-06 -1.03955e-05 6.65692e-19
2.86006e-05 4.03838e-05 -1.14116e-18
7.63843e-06 8.3539e-07 2.49625e-19
5.67165e-06 -5.40759e-06 1.08179e-18
-7.28855e-06 -1.76203e-06 1.16448e-18
4.18669e-08 -5.90951e-06 -1.50669e-18
2.5857e-05 -1.97065e-06 2.73939e-18
7.41023e-06 5.15488e-06 5.05688e-19
-1.06838e-05 -8.77105e-06 -4.05122e-19
3.2111e-05 -8.64784e-06 6.95442e-19
-8.25062e-06 -3.50977e-06 2.25257e-18
2.38193e-06 -1.37568e-05 4.85455e-19
1.93829e-05 -1.97019e-05 2.19913e-18
-3.48236e-06 -2.7177e-05 5.19374e-19
-1.94383e-05 2.39635e-05 2.64789e-19
-2.52804e-05 -1.05566e-05 -5.19345e-19
2.1445e-05 2.78654e-05 -3.39706e-19
-2.91468e-05 -5.87444e-06 3.01954e-18
7.70433e-06 -5.27113e-06 1.08426e-18
1.89491e-05 2.05286e-05 9.41266e-19
1.38534e-05 -5.95466e-06 3.37758e-18
2.18209e-05 -2.68345e-05 -1.56397e-18
-1.23371e-05 -3.22876e-05 7.04032e-19
-7.8195e-06 3.65475e-06 -1.16871e-18
1.26443e-05 -1.23401e-05 2.8439e-18
-1.28723e-05 4.54736e-06 1.28732e-18
-1.83827e-06 -9.55088e-06 1.2401e-18
3.63278e-06 9.4986e-06 4.96933e-19
-8.25762e-06 3.23818e-06 4.97099e-19
-7.61853e-06 1.20498e-05 2.43419e-19
1.39379e-05 6.4306e-06 -9.6159e-19
1.28513e-05 -4.57439e-06 7.81702e-20
-1.02102e-05 9.97348e-06 1.79671e-18
-1.02329e-05 -8.74851e-06 -9.7659e-19
-1.35186e-05 -3.49217e-06 2.46129e-19
-1.81979e-05 1.09249e-05 -3.95225e-19
-1.92523e-05 -2.46754e-05 -8.68715e-19
2.60069e-06 -1.33174e-05 4.07516e-19
-3.10075e-05 4.37893e-06 -2.25571e-18
2.86675e-06 6.75007e-06 -1.62821e-19
-3.0545e-06 -5.21931e-06 -1.00623e-18
-3.67407e-06 -1.1259e-05 -1.3521e-18
2.33876e-05 1.01313e-05 -2.3476e-19
6.15931e-06 1.07361e-05 5.11293e-19
7.97475e-06 -8.71468e-06 -1.10219e-18
-1.43096e-06 -1.18631e-05 1.72743e-19
3.1997e-06 -5.20948e-06 -5.03426e-19
-5.13484e-06 -3.28255e-06 -1.33671e-18
-5.27423e-06 5.68558e-06 2.24145e-18
1.23739e-06 -2.6059e-06 -3.3285e-19
-9.78224e-06 -1.00224e-05 2.229e-18
-1.36439e-05 3.50734e-06 7.66539e-19
-1.67149e-06 1.45876e-05 -1.58677e-19
-1.02719e-05 6.28994e-06 3.54035e-18
-4.50431e-06 7.02389e-06 -6.66653e-19
-2.40729e-05 3.09125e-06 4.70406e-19
5.22223e-06 -1.3159e-05 -1.44544e-18
-1.10338e-05 -4.61823e-06 -5.92556e-19
6.77321e-07 6.20467e-06 5.89736e-19
1.17503e-05 2.21324e-06 1.38598e-18
1.43675e-05 -1.21055e-05 2.79406e-18
1.45328e-05 1.30439e-05 1.76142e-19
7.43306e-06 -2.10695e-06 1.69442e-18
-1.33733e-05 9.75217e-06 6.77838e-22
1.61666e-05 2.12841e-06 3.69534e-21
-2.27172e-06 2.01905e-05 -3.4749e-18
-6.99219e-07 -8.6712e-06 9.17308e-19
1.0477e-05 5.43483e-06 1.5236e-18
1.21598e-05 1.2686e-05 1.63532e-19
4.24135e-05 2.63861e-05 2.20009e-18
-2.21704e-06 1.33787e-05 -1.21892e-18
4.43193e-05 -2.49072e-05 -1.68365e-18
-1.71885e-05 2.93449e-06 3.82881e-18
1.01528e-05 6.63458e-06 -2.4709e-19
-1.27334e-05 4.38577e-06 -1.63684e-19
7.08233e-06 1.22099e-05 -8.10328e-20
4.11524e-06 -1.84006e-05 8.03621e-20
7.32579e-07 6.2129e-06 -3.33016e-19
-8.72955e-06 -1.10643e-05 -5.07096e-19
1.19116e-06 8.84583e-06 8.46552e-20
1.19292e-05 2.54359e-06 -1.63863e-19
-6.50331e-06 1.40397e-05 -2.4237e-18
1.69936e-05 -5.72681e-06 4.224e-18
-1.9664e-06 3.69658e-06 -1.0096e-18
5.60603e-06 2.83113e-06 -8.3355e-19
-8.74216e-07 -6.01974e-06 -3.85347e-18
2.39726e-06 -1.16687e-05 -2.28405e-18
8.72696e-06 2.23531e-06 1.75268e-18
-3.32225e-06 1.70879e-05 -1.59309e-18
-6.04136e-06 -1.64255e-07 1.67006e-18
4.75692e-06 5.72869e-06 -1.16084e-18
-1.0697e-06 -1.73567e-05 -4.73921e-19
1.75804e-05 5.55684e-06 1.62582e-19
2.27586e-06 -3.68831e-06 5.90219e-19
-5.72292e-06 -2.15985e-06 1.59403e-18
-1.25345e-05 -5.48201e-06 -4.04435e-19
1.03256e-05 2.74253e-05 4.3457e-19
-1.77049e-05 -6.37271e-06 2.40186e-19
1.04695e-05 -2.75002e-05 -6.19342e-19
-1.47775e-06 -1.38382e-05 -7.27273e-19
1.01256e-05 2.34727e-07 1.15208e-18
-4.38007e-06 1.19042e-05 -5.13545e-19
-1.14944e-06 2.12979e-06 1.34461e-18
-2.73418e-06 -9.66522e-06 6.09094e-21
2.99715e-06 -5.3794e-06 -1.5132e-18
6.1997e-06 9.9848e-06 1.76414e-19
2.191e-05 7.34893e-06 1.70847e-18
4.96415e-06 -3.68903e-06 1.00887e-18
-3.44166e-06 -1.86214e-05 -3.59839e-18
1.12875e-05 -8.14997e-06 -5.68129e-19
3.28692e-06 1.77664e-05 -1.61872e-18
-1.37244e-06 -1.78798e-06 -5.78953e-19
-5.55842e-06 -4.97049e-06 1.36e-18
-2.77384e-06 3.24323e-07 -2.43021e-18
-9.73139e-06 1.19389e-05 -5.65312e-19
1.29248e-05 -2.45012e-05 7.79436e-19
-1.09541e-05 1.73779e-05 -1.27345e-18
-8.26676e-06 5.10637e-06 -3.38058e-19
1.32988e-06 7.80624e-06 1.01917e-18
-1.47325e-05 -2.34188e-05 -1.63892e-18
5.8836e-06 1.42965e-05 -1.64082e-19
9.83829e-06 4.52566e-06 -3.30795e-19
1.06306e-05 -4.21802e-06 2.1381e-18
-1.06679e-06 -6.05934e-06 -9.99428e-19
-1.39212e-05 -1.27888e-05 -7.96091e-19
-1.034e-06 6.0908e-06 1.83807e-18
9.46068e-06 5.69163e-06 1.17541e-18
9.58317e-06 -4.88647e-06 7.43205e-19
4.21595e-06 -6.89747e-06 3.16384e-18
1.10555e-05 -4.81602e-06 -3.32571e-19
9.24601e-06 -4.38309e-06 -2.53056e-19
2.80956e-06 4.65244e-07 1.17807e-18
1.10608e-05 8.76039e-06 -5.58513e-19
-9.37765e-07 -8.7084e-06 -1.41601e-18
-5.86523e-06 -2.00851e-06 -1.51048e-18
9.18327e-07 -2.10761e-06 -3.26664e-18
-2.33304e-06 8.69718e-06 -5.86463e-19
-1.46812e-05 1.21438e-06 2.3506e-18
-5.10491e-06 -1.41188e-05 -1.05076e-18
-3.96115e-06 4.82664e-06 -1.25761e-18
6.52458e-06 7.70963e-06 -3.72152e-18
1.14279e-05 -8.17257e-06 1.44963e-18
-1.51592e-05 -8.28205e-06 -7.10919e-19
7.42647e-06 -1.18147e-05 -6.38829e-19
9.85088e-06 -1.1639e-05 1.05477e-18
-5.66807e-06 2.3621e-06 1.01069e-18
-8.45473e-06 -1.21348e-05 4.06249e-19
-1.46524e-05 -2.50978e-06 2.51265e-18
-1.78025e-06 -1.35484e-05 -4.78593e-19
6.55483e-06 -1.35775e-05 5.68438e-19
-6.13268e-06 -1.63827e-05 6.02844e-19
1.84607e-06 1.36372e-05 -1.61123e-19
-6.75668e-06 -1.2048e-05 -1.04452e-18
2.31479e-06 -9.14655e-06 -6.70664e-19
-1.07714e-05 7.73554e-06 -8.18992e-20
-8.87362e-06 -7.66907e-06 -2.70323e-18
-1.73063e-05 -2.82157e-06 -6.85477e-19
8.30068e-06 -5.02663e-06 -1.09138e-18
-2.55204e-06 1.54546e-05 1.45323e-18
7.06317e-06 -4.74279e-06 -1.51386e-18
-1.2572e-05 -5.47115e-06 8.88363e-19
-4.94281e-06 -3.68854e-06 -2.18024e-18
5.14776e-06 3.69396e-06 2.85474e-18
9.24958e-06 1.22459e-05 2.10922e-18
-9.79938e-06 -6.33431e-06 -2.86743e-18
-1.36888e-05 -3.4265e-07 1.61553e-19
-9.85303e-06 -2.38543e-06 -1.77521e-18
-2.97147e-06 -9.6756e-06 3.43646e-19
1.09387e-05 1.38157e-05 2.90494e-18
-6.1732e-06 2.76904e-06 1.75763e-18
6.22992e-07 -1.16839e-05 1.43718e-18
-1.72192e-05 4.51119e-06 1.52016e-18
1.09831e-05 8.72828e-06 2.46315e-19
1.64976e-06 1.40454e-05 -4.83235e-19
-1.15367e-06 2.36863e-06 -6.65192e-19
-4.47022e-06 1.20808e-07 6.71428e-19
2.2404e-06 3.8314e-06 -5.84483e-19
-7.20975e-06 2.40749e-06 7.99131e-20
-1.40286e-06 -2.02618e-06 -1.33371e-18
1.404e-06 1.17094e-05 -1.59935e-18
2.69372e-06 -8.12853e-08 7.59075e-19
-9.07293e-06 2.26424e-06 -1.23797e-18
-7.65361e-06 8.50608e-06 -8.48744e-20
-1.63507e-06 7.29478e-06 -2.1948e-18
-1.23329e-05 7.81175e-06 -3.19493e-19
-6.02512e-06 5.35547e-06 1.26865e-18
9.73781e-06 -7.16228e-06 1.34451e-18
1.56797e-05 -1.6186e-06 1.8536e-18
-1.29523e-05 6.77008e-06 4.23885e-18
1.05091e-06 2.7999e-06 1.43144e-18
1.35302e-05 -2.15805e-06 -1.37024e-18
-9.47906e-06 6.20325e-06 3.10531e-18
-5.10353e-06 3.28634e-06 2.52413e-19
7.48585e-06 2.70459e-06 -1.35847e-18
9.9502e-06 -6.22172e-06 2.12859e-18
-9.68615e-06 5.38753e-06 3.1043e-18
-1.10194e-05 -2.32548e-06 2.4461e-18
-9.93247e-06 -2.26059e-06 3.33485e-19
6.24567e-06 3.34831e-07 -1.68247e-19
6.36356e-06 -2.45547e-07 2.61064e-18
3.03019e-06 4.95895e-06 3.3681e-19
3.2586e-06 -5.20778e-06 -1.93082e-18
-2.81201e-06 5.3427e-06 -2.34549e-18
-2.9118e-06 -5.44311e-06 -4.96443e-19
5.21601e-06 -4.45296e-06 -1.17436e-18
-1.29916e-05 2.29805e-06 4.19535e-19
-1.28409e-05 -2.33572e-06 5.01386e-19
-8.40142e-06 1.00454e-05 5.11233e-19
-8.43919e-06 -1.00753e-05 -8.42823e-19
4.6624e-06 -1.30094e-05 -6.96262e-19
4.4926e-06 1.2911e-05 1.88245e-18
7.77773e-07 1.16613e-05 -1.30245e-18
6.49069e-06 -1.17469e-06 -1.1773e-18
1.38565e-06 -2.07814e-06 -3.27905e-19
-9.8918e-06 7.83961e-07 1.07791e-18
4.77725e-06 -1.28042e-05 -9.38912e-20
4.53174e-06 1.28461e-05 7.66397e-19
2.63807e-06 -4.73739e-08 6.74388e-19
3.99638e-06 1.08458e-05 8.9683e-19
-1.20663e-06 -2.18784e-06 -2.75762e-18
9.65616e-07 -6.08882e-06 -1.50145e-18
-1.01137e-05 -5.35069e-06 1.39077e-18
-1.31543e-05 -6.93084e-06 -8.48071e-19
-9.79029e-06 6.16509e-06 1.61616e-19
1.75902e-06 -7.87238e-06 1.17913e-18
-8.62534e-07 1.7883e-06 -1.76253e-18
-3.66955e-07 -1.1542e-05 -5.35297e-22
-3.45178e-06 -1.0791e-05 2.20346e-18
1.37499e-05 1.26541e-05 9.63355e-19
1.51708e-05 -7.43088e-07 2.16219e-18
-7.84202e-06 -2.57074e-06 1.17367e-18
-9.4414e-06 -1.68862e-05 -1.43653e-18
4.18044e-06 6.7734e-06 1.62786e-21
-1.10873e-05 1.30947e-06 2.38153e-21
9.47834e-06 2.74237e-06 -9.90241e-19
-2.45953e-06 -1.0408e-08 -1.0791e-18
-3.083e-06 -5.0253e-06 -4.09443e-19
-5.38894e-06 -2.54955e-05 -9.01203e-20
-5.97646e-06 2.41602e-07 -1.76592e-18
-1.96536e-05 -7.33599e-07 1.61696e-19
7.75424e-06 -8.5502e-06 -1.60737e-19
1.41041e-06 2.14912e-06 2.09592e-18
-2.00011e-07 -9.25097e-06 1.84633e-18
-4.37379e-06 1.05743e-05 -4.06329e-19
-2.93262e-06 5.13736e-06 2.54341e-19
9.73762e-06 -6.22655e-06 3.7892e-18
-2.47757e-05 -8.0575e-06 -1.13115e-18
-6.74658e-06 -8.97024e-06 -1.60668e-19
2.88014e-06 5.39434e-06 2.77817e-18
1.00589e-05 2.33327e-06 4.64243e-18
-2.37454e-06 -3.61517e-06 -4.26267e-18
1.28599e-05 2.57517e-06 -7.78159e-19
1.05862e-05 -5.42899e-06 5.85263e-19
-1.5596e-07 1.71001e-05 -1.53407e-18
4.22417e-06 -6.79434e-06 -1.08316e-18
2.02914e-05 7.77887e-07 2.22002e-18
-1.72678e-05 4.45922e-06 1.42664e-18
1.45318e-05 7.09242e-06 8.59625e-19
-2.99174e-06 -8.19733e-06 1.99302e-18
-8.17371e-06 -4.39435e-06 -6.7186e-19
1.28055e-05 -9.51535e-08 -9.80194e-19
-5.31812e-07 -1.48978e-05 -4.19029e-19
-6.7206e-06 -6.62515e-06 -8.20685e-20
4.57116e-06 -1.04566e-05 -8.9442e-19
-5.29966e-07 1.1525e-05 -2.10336e-18
3.41197e-06 1.17225e-05 -2.129e-18
9.42246e-06 -5.50608e-06 -3.38229e-19
-8.59248e-06 8.44481e-06 -5.78684e-19
7.36677e-06 8.9225e-06 -8.12966e-19
-4.30577e-05 1.02254e-05 -1.13736e-18
-6.77082e-06 1.63139e-05 1.2798e-18
8.24308e-06 -9.681e-06 -1.52865e-18
-4.3031e-06 -1.1901e-05 9.06991e-20
-6.67193e-06 2.00496e-06 1.58835e-18
-1.1477e-05 -3.31718e-06 4.43034e-18
-4.48072e-06 2.5474e-05 -7.68854e-19
-6.89669e-06 7.47346e-06 -1.34857e-18
9.99336e-06 -2.46364e-06 5.78292e-19
-2.91023e-06 -1.16197e-05 8.2377e-19
-6.57534e-06 1.04639e-05 1.63955e-18
-1.35253e-05 7.89192e-06 4.34598e-18
-9.17431e-06 -6.77182e-06 -1.4724e-18
1.11521e-05 -1.35043e-05 -7.75186e-19
-1.20669e-05 -6.6297e-07 2.37987e-18
5.0493e-06 -1.70242e-05 5.56602e-19
8.92994e-06 -8.41594e-06 1.97037e-18
1.02177e-05 1.78587e-05 1.35843e-18
1.34644e-06 1.18755e-05 -2.02825e-18
1.40064e-06 -1.14543e-05 -2.36907e-18
-2.79488e-05 3.29234e-05 3.44621e-19
-5.58239e-06 -1.07622e-05 1.15372e-18
1.0083e-05 -3.48283e-06 -1.52839e-18
-1.15108e-06 1.15281e-05 -1.63394e-18
7.33113e-06 -7.60446e-06 -2.02952e-18
6.19011e-06 1.07783e-05 -1.3092e-18
8.505e-06 -8.96618e-07 1.00124e-18
8.78417e-06 -2.56107e-05 2.83452e-18
-2.73968e-06 -6.32105e-06 -1.41117e-18
-1.03991e-05 4.43961e-06 -1.964e-18
-1.26326e-05 1.20932e-05 1.02082e-18
9.77581e-06 6.64358e-06 1.39045e-18
9.18075e-06 -5.39741e-06 3.14389e-18
8.27104e-06 7.66902e-06 -5.01191e-19
-3.26949e-06 -2.92128e-07 1.50371e-18
6.91661e-06 -1.02463e-05 -6.48842e-19
-7.69081e-06 -8.96874e-06 1.39403e-18
1.05098e-05 4.73753e-06 3.26661e-19
7.44788e-06 -7.35265e-06 7.56901e-19
4.1751e-06 -1.12033e-05 -2.0493e-18
8.65964e-06 -4.21054e-06 8.3588e-19
-8.00669e-06 -3.99016e-06 1.50038e-18
9.77817e-07 -1.64534e-05 1.03235e-18
-1.15712e-05 2.16007e-06 -6.53934e-19
9.37683e-07 1.13716e-05 8.27159e-19
9.95387e-06 3.53787e-06 5.76486e-19
-9.97065e-06 -5.096e-06 3.53657e-21
-3.86169e-06 1.14486e-05 3.32351e-19
-5.30634e-07 -1.12641e-05 -6.56232e-19
1.1817e-05 7.31673e-06 3.3973e-18
-3.66984e-07 9.67921e-06 -5.03261e-19
-9.4054e-06 6.16526e-06 -5.77878e-19
1.07367e-05 5.0995e-06 1.55366e-18
-9.01692e-06 -5.88819e-06 -3.34717e-19
6.21855e-07 -1.07978e-05 -5.02197e-19
8.43239e-06 8.87171e-06 8.2926e-20
-1.37563e-05 -9.05646e-06 -1.62848e-18
1.97958e-05 -1.41212e-05 5.41091e-18
9.33949e-06 -5.37556e-06 1.74582e-18
3.59621e-06 1.79287e-05 1.04293e-18
8.59691e-06 -6.43018e-06 -6.63083e-19
-9.01529e-06 3.50467e-05 -1.84754e-18
-9.05869e-06 -3.47185e-05 -7.39149e-19
2.28579e-05 2.97763e-05 5.20378e-19
2.25885e-05 -2.97693e-05 6.65429e-19
3.72628e-05 -2.08244e-08 1.41136e-18
-3.20302e-05 1.30358e-05 -1.10299e-18
-3.15176e-05 -1.31682e-05 -5.8818e-19
7.21006e-06 7.36728e-06 1.10726e-18
1.91458e-05 1.44145e-05 2.41048e-18
5.79493e-06 1.96295e-06 1.42183e-18
9.30289e-06 4.7234e-06 -1.41154e-18
2.30831e-06 9.49319e-06 -1.73033e-18
-8.85969e-06 -6.74227e-06 -1.23498e-18
9.6584e-06 -5.16657e-06 -2.56375e-19
9.44012e-06 6.62439e-06 1.1513e-18
-1.25462e-06 1.13018e-05 -5.7068e-19
1.92609e-05 -1.32165e-05 -7.01691e-19
1.56541e-06 -1.10877e-05 -2.13731e-18
1.35801e-05 2.64551e-06 5.18254e-18
1.30339e-05 4.97497e-06 4.06759e-19
9.28122e-06 8.89007e-06 4.29921e-19
7.97553e-06 3.52191e-06 1.33183e-18
-8.92391e-06 5.36822e-06 -7.48772e-19
-1.03384e-05 4.36881e-06 -1.23674e-18
1.45781e-05 -6.94312e-06 -4.37344e-19
-9.15605e-06 -5.25302e-06 -2.49941e-19
-9.0683e-06 -5.05453e-06 2.15574e-18
4.85806e-08 -1.05754e-05 1.33554e-18
-1.10807e-07 -1.03474e-05 2.49615e-19
-9.2344e-06 -4.90801e-07 2.46985e-18
1.19071e-05 -1.78618e-06 -1.8716e-18
8.87173e-06 5.5923e-06 2.40226e-18
-9.14509e-06 5.35732e-06 -1.08555e-18
-8.96647e-06 1.04423e-05 2.54492e-18
7.68305e-06 -6.51049e-06 5.79422e-19
-5.09323e-06 7.98681e-06 6.56925e-19
-6.63467e-06 -6.86981e-06 2.88702e-18
-5.57333e-07 1.01948e-05 8.5041e-20
-2.95027e-07 1.0656e-05 -1.24697e-18
-5.67578e-08 -1.07929e-05 2.51524e-18
2.84605e-06 -9.22176e-06 9.9391e-19
-9.35115e-06 -5.25943e-06 -2.09569e-18
7.70125e-06 -2.90845e-06 -3.31848e-19
4.11599e-07 1.0423e-05 -1.62832e-19
2.49478e-07 9.80476e-06 -4.18487e-19
-9.80795e-07 8.39015e-06 8.33353e-19
1.01515e-05 -2.59728e-06 3.28163e-19
-1.00526e-05 2.63072e-06 1.3437e-18
1.71291e-06 1.0433e-05 6.65798e-19
-2.1125e-05 8.14373e-06 1.36961e-18
3.98022e-06 1.73834e-05 -1.73548e-18
-1.01968e-05 2.40037e-06 4.17227e-19
1.20751e-05 -7.22527e-06 1.60708e-19
2.50195e-07 1.06684e-05 2.38914e-21
-9.65713e-06 3.49938e-06 -1.74092e-18
1.73066e-06 -9.11009e-06 -3.35915e-19
4.48334e-07 -2.36829e-05 3.02288e-18
8.7315e-07 8.85428e-06 -7.47086e-19
-8.3667e-06 6.47957e-06 -1.67832e-19
7.09369e-06 2.59485e-05 -1.57899e-18
3.1309e-05 2.60013e-05 2.35933e-18
3.59486e-05 -2.45891e-05 -1.8528e-18
7.77495e-06 -5.13321e-06 -6.65561e-19
-7.42149e-06 6.50457e-06 4.09826e-19
-9.63936e-06 -4.13169e-06 3.89974e-18
-9.18543e-06 -3.23099e-06 4.20821e-18
4.44841e-05 -1.22455e-05 -1.873e-18
4.5353e-05 9.54661e-06 2.04388e-18
5.54458e-06 2.18023e-06 8.36841e-19
-6.25112e-08 1.04203e-05 1.00525e-18
1.10851e-07 1.04257e-05 -4.18905e-19
-1.96631e-05 -1.44547e-05 -1.16173e-18
5.36885e-06 -7.94438e-06 1.15658e-18
6.74991e-06 7.96242e-06 1.18964e-18
-9.91912e-06 -1.78937e-06 2.23515e-18
-6.67742e-06 7.83393e-06 1.73973e-22
-9.07819e-06 4.40738e-06 -9.11683e-19
1.9559e-05 1.40134e-05 7.78502e-19
9.37836e-06 3.90192e-06 1.5215e-18
-2.54958e-06 9.29465e-06 1.40035e-18
-8.84453e-06 -5.67729e-06 -1.66351e-19
6.228e-07 -1.05176e-05 2.55483e-19
-4.01e-06 -9.05503e-06 2.40103e-18
-8.30603e-06 -5.63688e-06 2.48764e-19
4.92552e-06 -8.83928e-06 1.98666e-18
6.90001e-06 -7.8254e-06 1.74269e-18
-1.17075e-06 -2.48209e-05 4.64544e-19
1.0813e-05 -1.70691e-05 6.41846e-19
8.4648e-07 -1.0037e-05 -3.47353e-18
9.37249e-06 5.53775e-06 -7.47792e-19
-7.19003e-06 -6.89318e-06 1.24344e-18
-4.47106e-06 9.13921e-06 2.14734e-18
-2.09398e-06 1.01101e-05 2.49645e-19
8.3454e-06 6.60967e-06 -1.90265e-18
2.65809e-06 -9.64573e-06 -3.2549e-19
-5.77114e-06 -1.65671e-05 -1.02982e-18
-1.43349e-06 1.54367e-05 -1.52797e-18
7.06555e-06 6.77182e-06 -3.37479e-18
-7.04687e-06 -5.99687e-06 -2.52543e-18
-7.70572e-06 6.3225e-06 4.46879e-18
1.85055e-05 -7.86554e-06 5.52897e-18
3.65764e-06 -6.59906e-06 -9.14614e-19
-4.19998e-06 -6.05652e-06 1.58217e-18
1.38666e-05 4.41628e-06 4.97325e-19
8.77535e-06 -3.16353e-05 -4.4417e-19
-2.30166e-05 -2.33909e-05 -1.1298e-18
1.50548e-05 3.71641e-06 2.13461e-18
-4.27792e-06 -8.39118e-06 4.95859e-19
9.52926e-06 5.14686e-06 -1.58049e-18
-1.18785e-05 -1.32653e-05 -2.20793e-18
7.11377e-06 3.21285e-05 1.40658e-18
3.132e-05 -4.05174e-05 -4.52096e-19
-1.94334e-05 -4.73685e-05 1.06389e-18
1.1083e-05 -2.15372e-05 2.39629e-18
-8.14455e-06 2.85804e-05 2.4128e-18
-4.73246e-06 2.52071e-05 -1.64165e-18
-9.37303e-06 4.83508e-06 -1.49902e-18
4.10125e-06 1.48822e-05 -2.29474e-18
-9.53011e-07 6.40234e-06 -1.17256e-18
5.43214e-06 2.09711e-06 7.58967e-19
-2.41804e-06 9.58993e-06 1.68542e-18
-8.50866e-08 1.23032e-05 -1.26864e-18
8.83621e-06 5.23323e-06 1.08884e-18
3.96162e-07 2.35703e-05 -3.8416e-19
-7.57957e-06 5.00676e-06 1.16478e-18
9.08087e-06 -3.06696e-06 -1.9425e-18
1.04405e-05 -2.13303e-06 -1.69596e-18
-2.41496e-05 -3.56199e-06 -7.74991e-19
-2.25308e-05 1.07549e-05 3.11016e-18
-1.74857e-05 -2.07625e-05 -2.1236e-18
5.53008e-06 4.97475e-06 1.69068e-18
7.56018e-06 4.50123e-06 -4.14528e-19
1.20603e-05 -2.0879e-06 -1.87272e-22
-4.02831e-06 -6.53819e-06 1.69403e-19
8.97449e-06 4.9057e-06 -2.52117e-19
4.8685e-06 -1.93187e-05 -7.68937e-19
-7.66651e-06 5.04899e-06 5.82667e-19
-1.42948e-05 -1.38605e-05 -1.45019e-18
-2.58443e-06 8.13035e-06 -2.83776e-18
-2.42095e-06 1.20618e-05 3.36944e-19
2.25594e-05 1.39696e-05 2.16668e-18
2.40787e-05 -1.27127e-05 -1.45717e-20
-1.71644e-05 -4.59154e-06 -1.33853e-18
3.96922e-06 4.71591e-06 -4.13781e-19
-1.85688e-06 4.06871e-05 3.87311e-19
7.80445e-08 -4.17871e-05 4.03543e-22
2.06125e-05 3.52728e-05 -1.5434e-19
-1.12775e-05 4.45097e-06 3.11355e-18
-1.11449e-05 2.25451e-05 -3.08506e-19
2.0745e-05 -3.40463e-05 3.37846e-18
-5.51102e-06 -8.37793e-06 2.89435e-18
3.15712e-05 2.73727e-05 6.94247e-19
1.57271e-05 -1.14634e-05 -3.69525e-18
-2.08025e-06 -1.93314e-05 -1.53832e-18
3.30697e-05 -2.67667e-05 3.85819e-18
-3.18215e-06 6.97702e-06 -4.16663e-19
-2.14474e-05 -1.36047e-05 -9.41791e-19
-1.74144e-05 -3.63961e-05 1.00044e-18
-9.92387e-06 -2.33706e-05 -7.80881e-19
-1.79035e-05 3.69865e-05 -2.52744e-18
-4.24421e-06 2.59233e-05 -2.97645e-18
1.07068e-05 2.42739e-05 -2.84611e-18
-1.16485e-05 1.49515e-05 -2.121e-18
-1.06723e-05 -2.19683e-05 7.76484e-19
4.05627e-05 7.14276e-06 2.00853e-18
-9.13084e-06 5.30157e-06 -6.74467e-19
-3.88277e-06 9.65703e-06 1.01535e-18
-2.03566e-05 1.4615e-05 1.48669e-18
-9.12102e-06 5.32408e-06 -8.38091e-19
4.0165e-05 -6.37796e-06 3.00471e-18
-8.41591e-06 3.95055e-06 2.93124e-18
3.52647e-06 -7.00231e-06 1.82746e-18
-3.11454e-05 -2.37806e-05 2.31503e-19
-1.0692e-05 2.33586e-05 -2.57514e-18
-3.18804e-05 2.36137e-05 -9.18331e-19
9.82006e-06 2.14571e-05 7.93016e-20
-7.52959e-06 5.17099e-06 4.11702e-19
-1.29797e-05 1.59725e-05 2.06359e-18
-2.41376e-05 3.0402e-05 6.23231e-19
-3.79017e-05 -4.84531e-06 3.26216e-18
-7.96384e-07 9.01001e-06 1.67838e-18
-2.55532e-05 -3.05298e-05 5.18997e-19
-3.92319e-05 6.87399e-06 -1.41336e-18
-1.49743e-05 3.46589e-05 -3.52417e-19
-1.15024e-05 4.59176e-05 -3.49451e-18
-7.54587e-06 1.68859e-05 -3.3095e-18
-2.20318e-05 1.77791e-05 2.50586e-18
1.58536e-05 -3.68078e-06 -1.29237e-18
2.51122e-05 -1.05773e-06 -1.21886e-18
7.31804e-06 4.80392e-06 2.10155e-18
-8.08297e-06 -5.28898e-05 2.1857e-18
-4.9858e-05 -1.94267e-05 -6.16526e-19
2.44387e-05 2.96932e-09 2.24204e-18
2.40515e-05 -4.6498e-06 3.00957e-18
-5.03364e-06 -6.38122e-06 1.5758e-18
-2.07559e-05 1.46688e-05 3.11051e-19
-1.86073e-05 2.13701e-05 -2.19768e-18
2.54235e-05 -9.14861e-06 6.76572e-18
-1.86122e-05 -3.1456e-05 -9.53999e-20
-1.89395e-05 3.12055e-05 -1.56142e-18
-3.66693e-05 -1.34464e-06 2.25971e-18
-1.66331e-05 3.28533e-05 1.12446e-18
-3.65741e-05 4.23853e-07 -1.74475e-18
4.57166e-05 1.63393e-05 7.24696e-20
3.67055e-05 1.41331e-06 -1.75206e-20
3.46253e-05 -1.7723e-05 -2.03465e-18
1.01912e-05 -4.87622e-05 -7.17462e-19
1.82083e-05 -3.1819e-05 8.56249e-19
1.8083e-05 3.18108e-05 4.27007e-18
9.9819e-06 4.76496e-05 3.0016e-18
4.98953e-05 -1.40805e-05 4.2336e-18
3.19113e-05 1.57999e-05 2.89469e-18
3.05235e-05 8.31954e-06 2.26311e-18
P_ext 3 563 float
-2.97636e-07 1.0057e-07 5.2173e-22
2.47218e-10 1.09422e-08 8.39243e-21
-2.72723e-08 -2.56639e-08 2.67643e-21
-8.62709e-09 7.95668e-09 -7.26144e-21
7.42261e-09 1.70008e-10 8.6906e-21
8.98802e-09 -3.64385e-08 9.88582e-21
-2.93048e-07 -1.01789e-07 4.20657e-21
-2.13472e-08 -2.42581e-08 9.13627e-21
5.95604e-08 1.04911e-09 2.44872e-20
2.16973e-08 -2.01556e-09 5.87102e-21
1.93757e-07 4.5448e-08 1.24605e-21
1.06057e-08 -3.09706e-08 -1.16656e-20
2.42381e-08 2.89024e-08 -1.23757e-20
-2.53641e-09 2.25905e-08 -1.35338e-21
6.72091e-09 2.54659e-09 -1.38467e-20
-3.80319e-08 -6.22436e-10 -1.29624e-20
-4.79099e-09 1.4858e-08 2.10095e-20
2.29194e-08 -3.44954e-09 5.23361e-21
2.63646e-08 4.70312e-08 -3.19624e-21
-3.53425e-08 3.55922e-09 6.52375e-22
-1.32923e-08 -5.0059e-08 -1.8967e-21
4.59425e-10 -3.70222e-11 2.89049e-20
3.91507e-08 3.18368e-09 1.29386e-20
2.49075e-08 -2.87821e-08 -2.52683e-21
-3.61046e-08 -5.80264e-09 -9.01435e-21
-6.82766e-09 -1.97235e-08 -2.67763e-20
2.22656e-07 -1.82165e-08 -1.82381e-20
2.7119e-08 2.28876e-08 7.85792e-21
-8.13526e-08 -6.46132e-08 -6.29996e-21
4.71612e-09 9.09262e-10 1.28742e-20
-3.62273e-08 -6.42288e-09 -1.68496e-20
1.58895e-08 -1.03458e-07 1.82035e-20
1.67324e-07 -1.71366e-07 6.19741e-21
3.35676e-10 -7.75835e-09 -2.95397e-20
-2.0714e-09 5.96274e-09 8.14136e-21
-6.48323e-09 -4.25476e-09 -2.22151e-20
8.16852e-10 4.29652e-09 -6.70611e-21
-6.53406e-09 1.12411e-09 -1.54436e-20
2.618e-08 -2.85184e-08 -6.30008e-22
1.63278e-07 1.78587e-07 -2.39341e-21
1.04141e-07 -4.71935e-08 2.01364e-20
1.54899e-09 -3.93831e-09 -1.08742e-20
-2.61312e-09 -3.40779e-09 -2.08657e-20
-3.59914e-08 7.3639e-09 -7.19287e-21
1.03431e-07 -1.01581e-07 1.23927e-20
-9.62636e-08 3.46501e-08 1.38495e-20
-1.21445e-08 -5.29478e-08 7.08002e-22
2.18909e-08 5.31748e-08 8.42477e-21
-3.4524e-08 9.00928e-09 -1.16771e-20
-5.96542e-08 9.27707e-08 1.24926e-20
1.05711e-07 5.17813e-08 -3.72818e-21
9.17206e-08 -3.01609e-08 8.8566e-21
-2.65405e-09 6.32607e-09 2.71125e-21
-7.17743e-08 -6.44143e-08 -1.2031e-20
-6.93503e-09 9.28155e-10 -3.47312e-20
-1.54201e-07 9.05542e-08 -4.32012e-21
-1.92112e-09 -5.93829e-09 -2.09467e-20
2.04421e-08 -9.47846e-08 -6.935e-21
-6.04266e-09 -1.33395e-09 -3.17888e-20
1.59974e-08 3.20673e-08 5.86343e-21
-8.51528e-09 -2.53409e-09 -7.86279e-21
-8.98261e-09 -8.3774e-09 -5.53842e-25
2.00684e-07 8.83514e-08 -7.34502e-21
-2.2183e-10 1.73673e-08 1.3239e-20
2.63369e-09 -1.1575e-08 -3.70014e-20
4.54413e-09 -2.58293e-08 -1.89559e-20
-1.84068e-09 -8.43557e-09 -2.68893e-20
-2.07144e-08 -5.23438e-09 -1.9582e-20
-2.41326e-08 2.9535e-08 1.9907e-21
6.47073e-09 -2.32362e-09 4.59096e-21
-2.61665e-09 -6.51049e-09 1.07563e-20
-6.85883e-09 -1.01615e-09 -2.67969e-21
-1.2002e-08 1.11188e-07 2.57131e-20
-2.1221e-08 1.07121e-08 3.99127e-21
-2.06533e-08 3.53285e-08 5.82457e-21
-2.08808e-07 2.45405e-08 9.1196e-21
-2.01419e-11 -1.63587e-08 -3.58352e-20
-1.99315e-08 -1.67357e-08 -6.59923e-21
8.43248e-09 2.05234e-08 1.24334e-20
7.98236e-08 1.59626e-08 1.39688e-20
1.14564e-07 -9.96901e-08 8.17021e-21
3.07276e-09 7.57274e-09 8.07388e-21
7.6496e-09 2.41939e-09 1.12782e-20
-1.06762e-07 7.89884e-08 6.81444e-21
1.2454e-07 1.51373e-08 1.88813e-20
-1.89026e-08 1.68988e-07 -1.11712e-20
-6.53893e-09 -3.36931e-08 -1.2758e-21
2.28271e-08 1.60882e-08 -1.50082e-20
9.94884e-08 1.04921e-07 -9.82914e-21
1.78323e-09 7.41012e-10 2.95225e-20
-1.91566e-08 9.53211e-08 1.57609e-20
1.60878e-09 -8.16023e-10 -6.24562e-20
-1.13787e-08 7.79911e-09 -1.05654e-20
2.46871e-08 1.0026e-08 -1.10883e-20
-9.17842e-08 2.83629e-08 -6.41986e-22
5.331e-08 9.36853e-08 -2.74917e-20
3.31753e-08 -1.49804e-07 4.61378e-24
7.7743e-09 2.0335e-08 2.35121e-20
-1.399e-08 -8.29376e-09 -2.11942e-20
1.16592e-08 3.72313e-08 1.23686e-20
7.75951e-08 1.31952e-08 1.52847e-20
-5.15854e-08 1.06551e-07 1.19409e-20
1.37217e-07 -4.48468e-08 2.37112e-20
-7.58096e-09 1.65505e-08 -5.3008e-21
1.4493e-08 1.47663e-08 -1.29126e-21
-8.65077e-09 -1.98969e-08 -1.5107e-20
-3.50747e-09 -1.51123e-08 -4.74798e-20
4.01909e-08 4.80098e-09 1.95464e-20
-2.94513e-08 1.37718e-07 -9.99066e-21
-6.73342e-09 4.19543e-09 -7.22624e-21
2.00411e-08 2.97297e-08 -1.10131e-20
-9.96251e-09 -1.41372e-07 -9.2459e-21
1.42985e-07 4.29327e-08 1.27088e-21
9.68755e-09 -1.71287e-08 1.11317e-20
-2.21121e-08 -2.50943e-09 9.21282e-21
-9.13302e-08 -3.66444e-08 -5.68001e-21
4.46625e-09 4.75643e-09 2.3618e-20
-1.45242e-07 -5.07882e-08 1.24659e-20
4.53585e-09 -4.74631e-09 -2.17092e-20
-1.41198e-08 -9.91798e-08 -1.24604e-21
6.1135e-08 2.32222e-09 1.73294e-20
-5.41667e-09 4.55465e-09 -1.46061e-20
1.47573e-09 6.65714e-09 -1.24191e-21
4.11489e-09 -1.78191e-08 -1.17662e-20
7.07795e-09 -3.26807e-09 5.18029e-21
7.4056e-11 7.11859e-09 1.0665e-20
6.12244e-09 -7.73532e-10 -8.17688e-21
1.15321e-08 -1.70626e-08 1.44135e-20
-2.97453e-08 -1.51669e-07 -2.93403e-20
7.84574e-08 -6.04121e-08 1.51912e-20
2.17468e-10 9.46051e-09 6.02321e-21
-6.59763e-09 -1.17248e-09 2.09531e-20
-2.09984e-09 -7.33733e-09 -2.22354e-20
-5.42101e-09 -3.85335e-09 -2.16067e-20
-7.33885e-08 9.1707e-08 -6.94001e-21
-8.30079e-11 -7.17474e-09 -1.54722e-20
-9.18948e-08 1.44278e-07 -3.15617e-21
-3.43693e-08 1.57868e-08 -1.11013e-20
4.82216e-09 5.14712e-09 4.54674e-20
-6.17547e-09 -3.61453e-09 -3.03265e-20
4.47542e-08 1.08019e-07 -2.33347e-20
2.56832e-08 2.29365e-08 1.34398e-21
6.25704e-08 -2.06247e-08 -5.10162e-21
3.53684e-09 -1.91947e-08 -1.36664e-20
-1.13824e-07 -1.04886e-07 -1.89823e-21
-1.09495e-08 1.88604e-08 1.69553e-20
2.83366e-08 1.51179e-08 -2.08028e-20
4.14991e-08 -1.42695e-08 6.08684e-22
1.79173e-08 -3.58178e-08 -7.67421e-21
7.12063e-08 -3.28429e-08 -4.50799e-21
4.73075e-08 -2.23303e-08 4.46007e-21
4.72505e-09 -3.95468e-09 5.95023e-21
8.27017e-08 6.54176e-08 -1.43897e-20
-1.19538e-08 -3.44756e-08 3.2408e-21
-1.4615e-08 -1.25415e-08 -5.27282e-21
-2.41677e-09 -6.2762e-09 -3.46745e-20
3.31984e-09 2.45662e-08 5.88837e-21
-1.10582e-07 7.92479e-09 5.12635e-21
-4.04061e-08 -1.05556e-07 3.75956e-21
-1.7339e-08 2.21014e-08 1.68305e-20
3.41242e-08 4.55005e-08 -1.03888e-20
8.51208e-08 -6.03736e-08 1.19672e-20
-1.24571e-07 -6.66018e-08 9.82306e-21
5.53634e-08 -9.01391e-08 -3.77635e-21
7.20585e-08 -8.86522e-08 6.89481e-22
-2.11372e-08 2.07043e-09 2.35669e-20
-6.32647e-08 -9.15472e-08 6.93957e-21
-1.10744e-07 -1.73509e-08 6.98861e-21
-1.32052e-08 -1.01089e-07 4.37041e-21
4.92615e-08 -1.01824e-07 -1.44874e-20
1.05007e-09 -1.38787e-08 -5.86166e-22
1.46359e-08 9.74662e-08 6.97165e-21
-5.21825e-08 -9.12752e-08 -2.99085e-23
-4.91524e-09 -2.22584e-08 -1.63788e-20
-7.53646e-08 5.64264e-08 -1.13817e-20
-1.4679e-08 -4.76721e-09 -3.42961e-20
-1.13935e-08 -7.86734e-09 -1.92987e-20
2.9968e-08 -1.53564e-08 5.79597e-22
-4.08152e-09 5.76188e-09 -7.98195e-21
1.58948e-08 -2.0121e-08 -9.88482e-21
-9.3839e-08 -4.1733e-08 6.91773e-21
-1.23568e-08 -1.66759e-08 -2.29179e-20
1.29092e-08 1.7696e-08 1.97041e-20
6.78298e-08 9.36458e-08 -1.94243e-20
-2.38742e-08 -1.09997e-08 -1.51949e-20
-1.04406e-07 -2.3475e-09 1.06221e-20
-1.32629e-08 -1.23643e-08 -1.78173e-20
-7.33501e-10 -1.78395e-08 -2.10078e-20
1.30036e-08 6.52228e-09 1.34142e-20
-1.50238e-08 1.48474e-08 2.28746e-20
-2.52023e-09 -2.62924e-08 -1.30495e-20
-1.39419e-07 3.43339e-08 -4.92925e-21
7.63326e-08 6.51355e-08 -5.68706e-21
1.01952e-08 1.06134e-07 6.89965e-21
-6.13383e-09 2.08268e-09 1.04766e-20
-2.04566e-08 6.35677e-10 1.34853e-21
9.3854e-09 1.79327e-08 4.54202e-21
-7.37397e-09 -1.84659e-09 -3.32732e-21
8.97927e-10 -6.33065e-09 -2.21719e-20
-4.11244e-09 2.78377e-08 -6.59757e-21
4.50798e-09 4.79243e-09 -1.75811e-20
-5.17433e-08 1.1433e-08 -3.251e-21
-5.25515e-08 5.733e-08 -6.53179e-22
-5.64497e-09 5.18419e-09 2.55529e-21
-9.51584e-08 5.74186e-08 -1.63283e-20
-2.38535e-09 8.03573e-09 2.02709e-21
2.55386e-08 -9.11957e-09 -9.81288e-21
1.19256e-07 -1.09683e-08 1.32332e-20
-1.48276e-08 9.37986e-09 9.34306e-21
6.02692e-09 2.74886e-09 -3.82794e-21
1.54178e-08 -9.68953e-09 5.14995e-21
-2.65602e-08 8.82017e-09 5.51536e-23
-1.93479e-08 5.042e-09 3.93128e-21
6.74046e-09 -2.01293e-09 -2.07627e-21
6.31005e-08 -3.83743e-08 2.60322e-21
-2.47306e-08 1.57694e-08 9.19673e-21
-7.42133e-08 -1.54744e-08 1.98339e-21
-1.5659e-08 -8.27272e-09 -1.65075e-20
5.96471e-09 -4.01174e-09 1.04611e-20
6.61305e-09 4.70049e-09 -1.22925e-20
-1.72404e-09 7.54334e-09 1.04735e-20
-7.24021e-10 -8.51292e-09 -5.30187e-20
-6.92696e-09 3.49655e-09 1.63234e-20
-7.75317e-09 -3.92681e-09 1.31335e-20
1.9438e-08 -7.31435e-09 -3.2973e-21
-7.04107e-09 -1.98292e-09 -2.69481e-21
-7.02459e-09 1.91059e-09 -2.32224e-20
-1.6919e-09 7.00448e-09 5.31458e-21
-1.84203e-09 -7.15844e-09 4.29701e-23
4.65081e-09 -5.18097e-09 -1.67847e-20
4.46911e-09 4.95534e-09 9.38224e-21
2.718e-09 7.5313e-08 -6.34102e-24
1.45322e-08 -1.20391e-08 2.54996e-21
3.3928e-09 -6.4102e-09 -5.16091e-21
-5.67302e-08 2.08999e-09 1.3206e-21
5.36237e-09 -5.0274e-09 5.68772e-22
5.00726e-09 5.1046e-09 4.10985e-20
7.69605e-09 -1.68755e-10 2.41805e-20
2.60743e-08 7.38307e-08 -1.57975e-20
-3.8978e-09 -6.36662e-09 -2.35082e-20
8.43892e-09 -1.92724e-08 1.7749e-23
-6.33737e-08 -3.50664e-08 2.57009e-21
-1.38312e-08 -8.97403e-09 -3.57006e-20
-6.36158e-08 3.772e-08 -8.31717e-21
5.61449e-09 -5.70493e-09 2.17126e-20
-2.69767e-09 5.98939e-09 -1.41412e-21
-1.48771e-09 -7.29174e-08 -2.53641e-21
-2.38879e-08 -7.22473e-08 1.08987e-20
1.09662e-07 1.04382e-07 -8.63476e-21
1.1729e-07 -6.66529e-09 2.56414e-20
-8.22264e-09 1.82581e-09 -5.96826e-21
-7.84655e-08 -1.38649e-07 -3.10415e-21
1.8622e-08 3.19424e-08 1.04122e-20
-7.50885e-08 8.84427e-09 -1.90219e-20
5.38408e-08 1.50544e-08 1.60123e-20
-7.33649e-09 -2.96594e-11 2.87046e-20
1.91888e-10 -7.60315e-09 -2.80434e-20
-6.42493e-10 -5.14636e-09 -2.16817e-20
-6.46614e-09 -3.88732e-09 -1.51144e-20
-1.62688e-07 -6.16443e-09 1.92581e-20
5.1042e-08 -5.77371e-08 -1.64518e-20
3.45208e-09 6.70916e-09 -2.5317e-20
1.77795e-09 -3.21201e-08 -1.81482e-20
-3.04569e-08 7.21146e-08 4.39661e-21
6.5382e-10 8.04655e-09 -1.93272e-21
5.44058e-08 -3.89468e-08 7.45132e-22
-4.69905e-09 -2.0737e-09 -2.91388e-20
-4.63247e-08 -6.01992e-08 6.34735e-21
6.35318e-09 3.18964e-09 2.76142e-20
1.49911e-08 1.45683e-08 2.77541e-20
-1.07199e-08 -1.6696e-08 -9.88394e-21
6.51263e-09 -2.16094e-09 -5.44909e-21
2.22614e-08 -1.55546e-08 -7.24819e-21
-1.30874e-09 1.23577e-08 -2.26487e-20
1.83568e-08 -3.09491e-08 -2.21195e-20
1.68458e-07 8.48863e-09 1.30511e-20
-1.42738e-07 3.77614e-08 1.60535e-20
1.18275e-08 8.23622e-09 2.73662e-21
-1.7622e-08 -4.24001e-08 -8.32788e-21
-2.67222e-08 -1.74472e-08 -6.92607e-22
8.72961e-08 -8.79452e-10 -4.49083e-21
7.34507e-10 -1.65363e-08 -2.37663e-20
-2.17357e-08 -7.62601e-09 -1.04564e-20
2.97492e-08 -7.10963e-08 -2.66633e-20
2.36639e-09 2.85028e-08 -2.00971e-21
2.44129e-08 7.5699e-08 -8.98883e-21
2.91923e-08 -1.53866e-08 1.25735e-21
-5.34352e-08 5.68849e-08 3.14188e-21
4.91609e-08 6.0755e-08 -8.25005e-21
-3.03867e-09 1.34586e-09 -1.50178e-20
5.33845e-10 1.30921e-08 -1.19023e-20
9.28406e-10 -5.91479e-09 -2.71853e-20
-4.71011e-09 -3.83994e-09 8.00215e-21
-1.62433e-08 1.29189e-08 8.48852e-21
-7.4871e-08 -1.77266e-08 -1.13575e-20
2.47049e-10 8.3343e-09 1.28097e-20
-1.95083e-08 5.77111e-09 -1.7124e-20
5.29845e-08 -7.66698e-09 2.51797e-20
-2.26987e-08 -7.34506e-08 1.34229e-21
-4.46943e-08 7.11719e-08 -1.27157e-20
-1.25095e-08 5.78674e-09 -9.93374e-21
-5.98921e-08 -4.23686e-08 -1.40716e-20
1.34697e-08 -6.28263e-09 -2.92914e-20
-8.12055e-08 -3.97441e-09 -5.0079e-21
3.98432e-08 -1.4062e-07 1.6659e-20
5.42944e-08 -5.70369e-08 6.44626e-21
8.32092e-08 1.4754e-07 5.69173e-21
-8.02708e-10 1.76834e-08 9.82995e-21
7.11893e-09 -7.39774e-08 1.65365e-20
-2.83277e-09 1.72057e-09 -1.77482e-20
-3.85079e-08 -7.18418e-08 1.28248e-20
1.28161e-08 -1.10264e-08 -2.18212e-20
-7.43177e-09 7.48348e-08 5.86128e-22
1.79568e-08 -5.2211e-09 6.48163e-21
4.10339e-08 7.31383e-08 -2.16751e-20
4.10155e-08 -9.48779e-10 3.89711e-20
7.51945e-08 -2.21895e-07 3.7495e-20
-1.58769e-08 -2.95316e-08 5.82433e-21
-6.62915e-08 2.88853e-08 -8.3478e-21
-9.22534e-09 4.48769e-09 -9.31089e-21
6.29344e-08 4.21454e-08 7.03536e-21
4.47853e-08 -2.47251e-08 1.23323e-20
2.36135e-08 1.03389e-08 -8.50993e-21
-4.81215e-09 4.10212e-09 1.76248e-20
4.49882e-08 -6.95132e-08 -1.71959e-20
-4.79553e-08 -5.98516e-08 -1.34039e-20
6.18484e-08 2.4386e-08 1.15292e-20
1.56622e-08 -9.65213e-09 -1.99988e-21
2.89319e-08 -7.18996e-08 -1.28298e-20
3.39056e-08 -6.39718e-09 -1.28756e-21
-3.2917e-08 -1.31154e-08 -1.61776e-20
-1.41759e-09 -1.32698e-08 -7.92294e-21
-7.56201e-08 1.04905e-08 -6.38432e-21
7.94401e-09 6.63033e-08 1.73565e-20
5.16629e-08 1.2038e-08 7.71264e-21
-5.87331e-08 -2.62761e-08 1.93998e-21
-2.89124e-08 7.4094e-08 3.00291e-20
-6.61417e-09 -6.45888e-08 -6.32713e-22
1.69751e-08 8.28562e-09 9.40187e-21
-1.10956e-08 3.11548e-08 1.30107e-20
-5.2812e-08 3.78844e-08 -1.08997e-20
6.78739e-08 3.4243e-08 1.84995e-20
-3.08009e-08 -9.64154e-09 -2.74449e-20
-7.50258e-09 -3.17002e-08 -1.95971e-20
5.18537e-08 6.02977e-08 -6.15125e-22
-1.2078e-08 -5.48595e-09 -4.73843e-20
1.71144e-07 -1.23016e-07 1.36049e-21
3.60253e-08 -2.522e-08 1.55907e-20
2.95489e-08 1.4482e-07 1.4331e-20
3.80095e-08 -3.65723e-08 -7.75964e-21
-8.27239e-08 3.15021e-07 -8.12045e-21
-8.31997e-08 -3.11956e-07 -2.91592e-24
2.04413e-07 2.68661e-07 9.19634e-21
2.01884e-07 -2.68585e-07 -7.45177e-21
3.3459e-07 -1.38149e-10 4.0653e-21
-2.88449e-07 1.16085e-07 1.16368e-21
-2.83668e-07 -1.17343e-07 -1.44454e-20
1.36557e-08 7.37267e-09 9.3203e-21
8.72368e-09 4.25024e-09 2.21879e-20
2.55323e-08 3.42077e-09 1.11184e-20
4.51152e-08 2.41133e-08 -5.22381e-21
1.33895e-08 5.33457e-08 -2.61378e-21
-4.83988e-08 -4.15931e-08 -9.65262e-21
2.42882e-08 -2.24339e-08 7.12305e-21
5.20057e-08 4.17548e-08 8.38304e-21
-1.20479e-08 6.5671e-08 5.13484e-21
8.45592e-09 -4.16775e-09 -8.86249e-21
1.22475e-08 -6.30124e-08 1.66788e-20
1.58822e-08 1.07509e-08 1.86896e-20
9.39546e-08 3.29041e-08 1.14136e-20
2.03345e-09 6.69185e-09 2.253e-20
3.62079e-08 1.18364e-08 2.07907e-20
-4.48436e-08 2.47982e-08 5.81879e-22
-6.14471e-08 2.12423e-08 -1.02987e-20
1.20719e-08 -8.27039e-09 9.21618e-21
-3.91648e-08 -1.8111e-08 5.81677e-21
-4.3061e-08 -2.55066e-08 7.17529e-21
-3.78551e-09 -4.31918e-08 1.23724e-20
1.67391e-10 -4.96465e-08 -5.78718e-21
-5.47139e-08 -2.36273e-09 -1.18587e-21
8.1304e-08 -1.26265e-08 -8.72549e-23
4.37715e-08 2.69778e-08 8.463e-21
-3.61898e-08 2.46939e-08 3.18069e-21
-1.62644e-08 7.92575e-09 -5.91066e-21
4.08718e-08 -3.66337e-08 -7.00058e-21
-3.07295e-08 4.78383e-08 -4.46632e-21
-3.78397e-08 -3.98582e-08 -1.27441e-20
-3.59162e-09 5.20679e-08 2.56995e-21
-7.80654e-09 4.39045e-08 -3.26373e-21
1.27748e-09 -3.18305e-08 -3.18037e-21
1.64662e-08 -5.32293e-08 -1.72631e-20
-2.6842e-08 -1.72253e-08 -3.13997e-20
3.72548e-08 -1.06134e-08 3.23826e-20
8.22732e-11 5.20024e-08 -6.22269e-22
-1.13898e-09 3.31648e-08 -6.60104e-22
-8.36456e-09 3.73462e-08 2.59376e-20
6.12198e-08 -1.50662e-08 1.15411e-20
-1.2768e-08 1.22549e-08 -1.61821e-23
1.38745e-08 5.20381e-08 8.42138e-21
-8.30637e-09 5.23847e-09 -2.94635e-20
3.10072e-08 1.43815e-07 5.5238e-22
-1.50682e-08 8.1628e-09 -9.27829e-21
1.59903e-08 -8.33013e-09 9.18128e-21
4.62579e-09 4.41847e-08 6.51008e-21
-5.18668e-08 1.23017e-08 -1.68535e-20
-1.62424e-09 -2.24087e-08 -2.42654e-20
2.17867e-09 -2.05342e-07 1.45801e-20
6.20946e-09 3.74591e-08 -6.4899e-21
-3.87346e-08 3.68674e-08 1.1586e-20
6.03965e-08 2.24665e-07 -1.47619e-20
2.8296e-09 1.87813e-09 3.95468e-20
2.44384e-09 -1.79032e-09 -3.15322e-20
2.91285e-08 -2.27364e-08 7.13447e-21
-4.14313e-08 3.70943e-08 1.02757e-20
-4.96947e-08 -1.46587e-08 -1.34591e-20
-5.10973e-08 -1.67761e-08 -5.01157e-21
-1.11495e-09 7.00675e-10 -3.8117e-20
-7.93865e-10 -4.38924e-10 4.70335e-20
2.38272e-08 4.82523e-09 3.28893e-21
7.5795e-09 3.47535e-08 1.24274e-20
-8.77595e-10 3.45568e-08 -2.62608e-21
-1.71962e-07 -1.24965e-07 -5.45523e-21
3.04016e-08 -4.78324e-08 -1.40257e-20
1.53235e-08 5.46534e-09 9.95859e-21
-5.63865e-08 -6.0535e-09 -1.34538e-20
-3.56515e-08 4.71098e-08 -1.09363e-20
-4.60154e-08 2.16318e-08 -7.76982e-21
1.68884e-07 1.21299e-07 1.02867e-20
1.65481e-08 1.09144e-08 4.01563e-21
-1.63781e-08 5.34214e-08 1.22476e-20
-3.2204e-08 -2.76048e-08 3.89272e-21
8.02706e-09 -4.20144e-08 9.77766e-21
-2.61155e-08 -4.96563e-08 1.93877e-20
-4.18107e-08 -2.86585e-08 -1.0301e-20
2.86671e-08 -5.08442e-08 -1.53778e-20
3.43723e-08 -4.72672e-08 -3.12608e-21
-1.09442e-08 -2.14178e-07 -4.26333e-21
8.79771e-08 -1.40733e-07 1.80332e-20
4.18634e-09 -5.10559e-08 -5.87071e-21
3.59621e-08 2.73965e-08 -1.62142e-20
-3.23281e-08 -3.92658e-08 -1.80292e-20
-2.8072e-08 5.23139e-08 1.23099e-20
-1.72566e-08 5.12494e-08 1.03388e-20
3.75212e-08 3.88873e-08 -6.48762e-21
1.8415e-08 -4.79329e-08 5.20877e-21
-4.77822e-08 -1.36214e-07 -2.09477e-20
1.06847e-09 1.63909e-08 -1.59228e-20
3.80196e-08 3.91361e-08 -2.0598e-20
-2.04392e-08 -1.00297e-08 -3.15473e-20
-1.69701e-08 9.23129e-09 4.69684e-21
1.52958e-07 -6.70135e-08 2.04681e-20
1.89127e-08 -3.1256e-08 -2.91809e-20
-1.79472e-08 -3.07133e-08 9.13076e-21
6.71711e-09 -5.96831e-10 3.19677e-21
5.08069e-10 -2.51781e-09 -6.89064e-21
-1.89409e-09 -1.78925e-09 -3.05986e-20
8.30229e-09 5.49196e-09 1.66964e-20
-2.63399e-08 -4.97087e-08 1.54054e-20
4.04553e-08 1.62095e-08 1.90465e-21
-9.89241e-08 -1.08751e-07 -1.41664e-20
3.05735e-10 3.11594e-09 1.5763e-20
3.90067e-10 6.9195e-10 -2.1452e-20
8.29513e-10 -5.14247e-11 -3.09301e-20
9.4981e-08 -1.87647e-07 4.31234e-21
-3.90434e-09 4.57447e-09 -4.71408e-21
-8.7207e-10 5.53653e-09 7.44238e-21
-4.06841e-08 1.44428e-08 -1.17129e-20
-1.42484e-09 1.64346e-08 -2.01609e-21
-8.95627e-09 2.64865e-08 1.16287e-20
1.84024e-08 7.60639e-10 9.21268e-21
4.18668e-09 1.58713e-08 6.59984e-21
-1.08606e-09 2.19518e-08 -6.99578e-22
3.15496e-08 1.71556e-08 -6.06208e-22
2.2875e-09 2.04392e-07 6.03769e-21
-2.93634e-08 2.7811e-08 -4.53271e-21
2.19667e-08 -1.48104e-08 -1.32322e-20
1.26394e-08 -1.16166e-08 -1.32653e-20
-2.09571e-07 -2.87701e-08 -4.84141e-21
-5.87184e-09 2.3577e-09 -1.00479e-20
-1.52516e-07 -1.80406e-07 -9.86864e-21
2.69894e-09 7.3422e-09 1.19064e-20
2.65967e-08 5.1358e-09 3.30485e-21
7.94479e-08 -1.03011e-08 1.89446e-21
-1.81194e-08 -2.97701e-08 -4.51835e-21
3.46257e-08 9.90303e-09 -5.88297e-21
1.4023e-10 -8.75577e-09 -2.13454e-20
-1.94983e-08 2.26039e-08 1.56412e-20
-7.43878e-09 -4.69e-09 -1.73229e-20
-1.76347e-08 3.57767e-08 1.47948e-20
3.20517e-09 2.25134e-08 -7.24181e-21
5.12867e-09 3.74173e-09 6.81921e-21
5.08473e-09 -3.59278e-09 -2.71364e-20
-1.42e-07 -3.86777e-08 1.22613e-20
1.55552e-08 5.76596e-09 1.2481e-20
-1.8806e-08 3.64739e-07 -4.77644e-21
-1.27882e-09 -3.74702e-07 -1.77511e-21
1.84415e-07 3.158e-07 -1.80647e-21
-1.89726e-08 1.50871e-08 8.56947e-21
-9.77986e-08 1.96712e-07 6.69836e-21
1.8549e-07 -3.04834e-07 1.15257e-20
-3.05482e-08 -4.94452e-08 1.232e-20
2.81736e-07 2.46789e-07 6.08339e-21
3.24381e-09 -5.76341e-09 -3.62408e-20
-3.38867e-09 -5.83878e-09 2.04905e-21
2.95297e-07 -2.41279e-07 -4.05889e-21
-1.80198e-08 3.54163e-08 1.48303e-20
-1.85435e-07 -1.18099e-07 -3.07374e-21
-1.56457e-07 -3.2599e-07 6.89023e-23
-8.76011e-08 -2.01505e-07 -1.46513e-20
-1.60841e-07 3.31417e-07 1.21388e-21
-3.79985e-08 2.24564e-07 -3.73426e-21
-2.6905e-10 7.73774e-09 8.06993e-21
-9.75342e-08 1.25558e-07 1.15868e-20
-9.34732e-08 -1.91204e-07 6.08085e-21
3.63215e-07 6.34276e-08 4.86378e-21
-2.82173e-08 2.40148e-08 1.2303e-20
-6.36257e-10 1.57985e-08 -4.60102e-21
-1.75675e-07 1.27178e-07 8.54705e-21
-3.13033e-08 1.67024e-08 1.16703e-20
3.59678e-07 -5.64337e-08 4.8855e-21
-2.38704e-08 1.60441e-08 1.24509e-20
1.74263e-08 -3.60506e-08 9.7782e-21
-2.79876e-07 -2.12617e-07 5.36197e-21
-9.43725e-08 2.02199e-07 -4.90228e-21
-2.86672e-07 2.11064e-07 -7.80001e-21
8.37632e-08 1.86944e-07 1.20554e-20
-3.06684e-08 2.43897e-08 2.07026e-20
-8.44127e-09 4.76683e-09 -1.00218e-20
-4.43559e-10 -8.73157e-10 2.27526e-20
2.4677e-10 -6.73406e-10 -1.08924e-20
2.34633e-09 2.44382e-08 5.2672e-21
-6.6577e-10 8.71446e-10 -3.78826e-20
4.83479e-10 9.66891e-10 -3.57942e-20
7.11395e-10 -3.66614e-10 6.86452e-21
-3.58076e-10 2.86529e-09 1.22697e-20
-6.44243e-08 1.40548e-07 -8.66952e-21
-4.7991e-09 3.39568e-09 -1.07618e-20
8.2265e-09 -5.23316e-09 -4.14147e-21
8.07374e-09 -4.69219e-09 -1.7601e-20
2.34392e-08 9.11994e-09 2.71426e-21
-1.94664e-10 -2.45114e-09 -1.98378e-20
-2.17549e-09 -1.132e-09 -4.1049e-20
8.06482e-09 4.7087e-09 2.75974e-20
2.08349e-07 -4.01986e-08 3.07215e-21
-2.68667e-08 -3.42414e-08 1.3441e-21
-1.82379e-07 1.27201e-07 -3.57791e-21
-1.63178e-07 1.86109e-07 1.19789e-21
2.19954e-07 -7.94451e-08 2.59262e-20
-9.73779e-10 -3.05306e-09 -2.79011e-20
-1.07917e-09 3.13801e-09 -4.05997e-21
-3.40873e-09 6.56137e-10 -2.57289e-20
-2.30248e-09 2.23591e-09 -2.73973e-21
-3.08426e-09 -7.3124e-10 -4.01044e-20
4.7948e-10 7.95967e-10 -1.31809e-20
3.30262e-09 -8.75966e-10 -1.37244e-20
1.33614e-09 -1.00203e-09 -3.57472e-20
-1.09657e-09 -6.62657e-10 -4.89426e-20
2.16547e-09 -2.13715e-09 -3.0653e-20
2.1781e-09 2.20187e-09 3.88033e-20
-1.10346e-09 5.67681e-10 4.27236e-20
9.92571e-10 -3.13794e-10 4.54548e-20
1.71019e-09 9.8446e-10 3.76724e-20
3.83631e-09 1.43883e-09 3.59855e-20
SCALARS rr_necrosis float
LOOKUP_TABLE default
0
0
0
0
0
0
0
0
0
0
0
0
0
0
0
0
0
0
0
0
0
0
0
0
0
0
0
0
0
0
0
0
0
0
0
0
0
0
0
0
0
0
0
0
0
0
0
0
0
0
0
0
0
0
0
0
0
0
0
0
0
0
0
0
0
0
0
0
0
0
0
0
0
0
0
0
0
0
0
0
0
0
0
0
0
0
0
0
0
0
0
0
0
0
0
0
0
0
0
0
0
0
0
0
0
0
0
0
0
0
0
0
0
0
0
0
0
0
0
0
0
0
0
0
0
0
0
0
0
0
0
0
0
0
0
0
0
0
0
0
0
0
0
0
0
0
0
0
0
0
0
0
0
0
0
0
0
0
0
0
0
0
0
0
0
0
0
0
0
0
0
0
0
0
0
0
0
0
0
0
0
0
0
0
0
0
0
0
0
0
0
0
0
0
0
0
0
0
0
0
0
0
0
0
0
0
0
0
0
0
0
0
0
0
0
0
0
0
0
0
0
0
0
0
0
0
0
0
0
0
0
0
0
0
0
0
0
0
0
0
0
0
0
0
0
0
0
0
0
0
0
0
0
0
0
0
0
0
0
0
0
0
0
0
0
0
0
0
0
0
0
0
0
0
0
0
0
0
0
0
0
0
0
0
0
0
0
0
0
0
0
0
0
0
0
0
0
0
0
0
0
0
0
0
0
0
0
0
0
0
0
0
0
0
0
0
0
0
0
0
0
0
0
0
0
0
0
0
0
0
0
0
0
0
0
0
0
0
0
0
0
0
0
0
0
0
0
0
0
0
0
0
0
0
0
0
0
0
0
0
0
0
0
0
0
0
0
0
0
0
0
0
0
0
0
0
0
0
0
0
0
0
0
0
0
0
0
0
0
0
0
0
0
0
0
0
0
0
0
0
0
0
0
0
0
0
0
0
0
0
0
0
0
0
0
0
0
0
0
0
0
0
0
0
0
0
0
0
0
0
0
0
0
0
0
0
0
0
0
0
0
0
0
0
0
0
0
0
0
0
0
0
0
0
0
0
0
0
0
0
0
0
0
0
0
0
0
0
0
0
0
0
0
0
0
0
0
0
0
0
0
0
0
0
0
0
0
0
0
0
0
0
0
0
0
0
0
0
0
0
0
0
0
0
0
0
0
0
0
0
0
0
0
0
0
0
0
0
0
0
0
0
0
0
0
0
0
0
0
0
0
0
0
0
0
0
0
0
0
0
0
0
0
0
0
0
0
0
0
0
0
0
0
0
0
0
0
0
0
0
0
0
0
SCALARS rr_protein float
LOOKUP_TABLE default
1
1
1
1
1
1
1
1
1
1
1
1
1
1
1
1
1
1
1
1
1
1
1
1
1
1
1
1
1
1
1
1
1
1
1
1
1
1
1
1
1
1
1
1
1
1
1
1
1
1
1
1
1
1
1
1
1
1
1
1
1
1
1
1
1
1
1
1
1
1
1
1
1
1
1
1
1
1
1
1
1
1
1
1
1
1
1
1
1
1
1
1
1
1
1
1
1
1
1
1
1
1
1
1
1
1
1
1
1
1
1
1
1
1
1
1
1
1
1
1
1
1
1
1
1
1
1
1
1
1
1
1
1
1
1
1
1
1
1
1
1
1
1
1
1
1
1
1
1
1
1
1
1
1
1
1
1
1
1
1
1
1
1
1
1
1
1
1
1
1
1
1
1
1
1
1
1
1
1
1
1
1
1
1
1
1
1
1
1
1
1
1
1
1
1
1
1
1
1
1
1
1
1
1
1
1
1
1
1
1
1
1
1
1
1
1
1
1
1
1
1
1
1
1
1
1
1
1
1
1
1
1
1
1
1
1
1
1
1
1
1
1
1
1
1
1
1
1
1
1
1
1
1
1
1
1
1
1
1
1
1
1
1
1
1
1
1
1
1
1
1
1
1
1
1
1
1
1
1
1
1
1
1
1
1
1
1
1
1
1
1
1
1
1
1
1
1
1
1
1
1
1
1
1
1
1
1
1
1
1
1
1
1
1
1
1
1
1
1
1
1
1
1
1
1
1
1
1
1
1
1
1
1
1
1
1
1
1
1
1
1
1
1
1
1
1
1
1
1
1
1
1
1
1
1
1
1
1
1
1
1
1
1
1
1
1
1
1
1
1
1
1
1
1
1
1
1
1
1
1
1
1
1
1
1
1
1
1
1
1
1
1
1
1
1
1
1
1
1
1
1
1
1
1
1
1
1
1
1
1
1
1
1
1
1
1
1
1
1
1
1
1
1
1
1
1
1
1
1
1
1
1
1
1
1
1
1
1
1
1
1
1
1
1
1
1
1
1
1
1
1
1
1
1
1
1
1
1
1
1
1
1
1
1
1
1
1
1
1
1
1
1
1
1
1
1
1
1
1
1
1
1
1
1
1
1
1
1
1
1
1
1
1
1
1
1
1
1
1
1
1
1
1
1
1
1
1
1
1
1
1
1
1
1
1
1
1
1
1
1
1
1
1
1
1
1
1
1
1
1
1
1
1
1
1
1
1
1
1
1
1
1
1
1
1
1
1
1
1
1
1
1
1
1
1
1
1
1
1
1
1
1
1
SCALARS rr_(S_ext) float
LOOKUP_TABLE default
0.590397
0.591565
0.591463
0.591542
0.591881
0.591461
0.590393
0.591534
0.591366
0.591563
0.59045
0.591534
0.59151
0.591579
0.591763
0.591481
0.591621
0.591518
0.59131
0.591433
0.59142
0.592304
0.591418
0.591435
0.591431
0.591537
0.590627
0.591477
0.590987
0.592053
0.591506
0.590989
0.590612
0.591979
0.592017
0.591977
0.592065
0.592001
0.591504
0.590615
0.590984
0.592069
0.592068
0.591506
0.590718
0.591005
0.591336
0.591385
0.591466
0.590913
0.590956
0.591109
0.591861
0.591114
0.591851
0.590762
0.59202
0.591113
0.592018
0.591438
0.591616
0.59172
0.590708
0.591715
0.591722
0.591625
0.59162
0.591538
0.591425
0.591569
0.591859
0.591858
0.590984
0.591663
0.591468
0.590558
0.591789
0.591623
0.591537
0.591134
0.590893
0.591919
0.591669
0.590858
0.591025
0.590735
0.591477
0.591645
0.590719
0.592246
0.591111
0.592244
0.591794
0.591612
0.591123
0.590944
0.590896
0.59156
0.591787
0.591499
0.591245
0.591054
0.590855
0.591527
0.59155
0.591552
0.591685
0.59149
0.590853
0.591581
0.59144
0.590757
0.590812
0.591521
0.591546
0.591118
0.59202
0.590892
0.592017
0.591122
0.591284
0.591748
0.591563
0.591645
0.59159
0.591773
0.591977
0.59156
0.590897
0.591122
0.591858
0.591555
0.591662
0.59156
0.591056
0.59202
0.590832
0.591518
0.59167
0.592019
0.591069
0.59157
0.591304
0.591563
0.590888
0.591541
0.591552
0.591468
0.591462
0.591209
0.591382
0.591564
0.590986
0.591511
0.591562
0.591557
0.591598
0.591081
0.591085
0.591506
0.591387
0.590995
0.59075
0.590955
0.591079
0.591553
0.59108
0.591079
0.590987
0.591082
0.591797
0.591113
0.590954
0.591609
0.591116
0.59168
0.591796
0.591534
0.591866
0.591556
0.59099
0.591558
0.591557
0.59107
0.591646
0.590946
0.591644
0.591688
0.591803
0.59156
0.591648
0.590909
0.591115
0.590988
0.591558
0.591512
0.591518
0.591661
0.591562
0.59162
0.591564
0.591325
0.591143
0.59166
0.590992
0.591668
0.591624
0.591046
0.591737
0.591567
0.59175
0.591588
0.591546
0.59167
0.591212
0.591598
0.591155
0.591687
0.591588
0.591587
0.591572
0.591578
0.591579
0.591578
0.591572
0.591754
0.59175
0.591754
0.591755
0.591855
0.591855
0.591203
0.591575
0.59153
0.59138
0.591764
0.591768
0.591534
0.591146
0.591525
0.59156
0.591217
0.591738
0.591212
0.591674
0.591519
0.591219
0.59116
0.59089
0.590894
0.59167
0.59087
0.591496
0.591154
0.591318
0.591523
0.591585
0.592077
0.591581
0.590864
0.591154
0.591528
0.591534
0.59114
0.591583
0.591311
0.592076
0.591157
0.59159
0.591638
0.591518
0.591761
0.591642
0.591861
0.591507
0.590778
0.590734
0.591829
0.591421
0.591534
0.591214
0.59174
0.591608
0.591155
0.591613
0.591249
0.591557
0.591251
0.591148
0.592172
0.591809
0.591765
0.591763
0.591571
0.591259
0.591965
0.591633
0.591391
0.591263
0.591226
0.591827
0.591216
0.591797
0.591239
0.590721
0.591257
0.590882
0.59169
0.591217
0.592171
0.591239
0.591662
0.591203
0.591651
0.591236
0.591478
0.590692
0.591451
0.591214
0.591821
0.591207
0.591391
0.591653
0.591568
0.591237
0.591258
0.591307
0.59169
0.591256
0.591534
0.591478
0.59186
0.591258
0.591301
0.591409
0.591314
0.591245
0.591317
0.591727
0.59153
0.591306
0.591212
0.591565
0.591567
0.591251
0.591858
0.590409
0.591476
0.590892
0.591415
0.589756
0.589758
0.589764
0.589761
0.589763
0.589757
0.589763
0.591695
0.591934
0.59151
0.591385
0.591317
0.591313
0.591558
0.591306
0.591299
0.591937
0.591313
0.591746
0.591111
0.591734
0.591459
0.591383
0.591309
0.591832
0.591475
0.591392
0.591477
0.591393
0.591301
0.59113
0.591383
0.591465
0.591749
0.591329
0.59129
0.591324
0.591375
0.591461
0.591558
0.591322
0.591556
0.591449
0.591379
0.591537
0.591452
0.591309
0.591648
0.591403
0.591922
0.590722
0.591694
0.591727
0.591462
0.591407
0.591621
0.590425
0.59146
0.591402
0.590698
0.592166
0.592171
0.591473
0.591316
0.591416
0.591329
0.592358
0.592357
0.591534
0.591539
0.591533
0.590426
0.591297
0.591667
0.59138
0.59137
0.591378
0.590401
0.591644
0.59131
0.591471
0.591471
0.591368
0.59139
0.591368
0.591378
0.590623
0.590884
0.591389
0.591474
0.591404
0.591363
0.591397
0.591412
0.591404
0.590724
0.591766
0.591322
0.591617
0.59165
0.590717
0.591465
0.591453
0.591861
0.592154
0.592153
0.591808
0.591295
0.591468
0.590704
0.592129
0.592325
0.592324
0.590388
0.592001
0.592052
0.591456
0.59179
0.591508
0.591569
0.591652
0.591684
0.591535
0.590421
0.591484
0.591609
0.591665
0.590551
0.592013
0.590681
0.591658
0.591576
0.59123
0.591503
0.59153
0.591868
0.591544
0.591867
0.591472
0.591667
0.592034
0.592043
0.590709
0.591586
0.590374
0.590399
0.590345
0.591644
0.590412
0.590319
0.591365
0.590358
0.591923
0.591922
0.590379
0.591407
0.590629
0.59037
0.590604
0.590365
0.590603
0.592008
0.590665
0.590416
0.590375
0.591525
0.591709
0.590585
0.591528
0.590325
0.591565
0.591416
0.590356
0.590566
0.590337
0.590387
0.59145
0.591942
0.592301
0.592286
0.591584
0.592299
0.592298
0.592292
0.592196
0.590688
0.592025
0.591818
0.591945
0.59157
0.592223
0.592221
0.591968
0.590374
0.591405
0.590396
0.590663
0.590666
0.592114
0.592111
0.592103
0.592106
0.592113
0.592283
0.592109
0.592224
0.592309
0.59212
0.592121
0.592314
0.592285
0.592228
0.592098
SCALARS rr_(P_ext) float
LOOKUP_TABLE default
0.00598982
0.00595125
0.00595461
0.00595191
0.00594158
0.00595468
0.00598994
0.00595239
0.00595783
0.0059514
0.00598734
0.00595238
0.00595317
0.00595089
0.00594513
0.00595404
0.00594952
0.00595282
0.00595955
0.00595557
0.00595609
0.0059285
0.00595605
0.00595551
0.00595562
0.00595218
0.00598194
0.00595419
0.0059701
0.00593622
0.00595329
0.00597002
0.00598248
0.0059385
0.00593734
0.00593854
0.0059358
0.00593782
0.00595336
0.00598237
0.00597019
0.00593564
0.00593568
0.00595327
0.00597878
0.00596955
0.00595874
0.00595719
0.00595453
0.0059725
0.00597111
0.00596616
0.00594212
0.00596606
0.00594243
0.0059776
0.00593725
0.00596605
0.00593729
0.00595538
0.00594967
0.00594646
0.00597945
0.00594665
0.00594641
0.00594954
0.00594954
0.00595216
0.00595581
0.00595114
0.0059422
0.00594222
0.00597021
0.00594832
0.00595448
0.00598413
0.00594441
0.00594957
0.00595219
0.00596529
0.00597327
0.00594037
0.00594803
0.00597437
0.00596897
0.00597835
0.00595419
0.00594892
0.00597874
0.00593039
0.00596611
0.00593045
0.0059442
0.00594997
0.00596576
0.00597147
0.00597322
0.00595146
0.00594446
0.00595351
0.00596176
0.00596805
0.00597445
0.00595246
0.00595179
0.0059517
0.00594758
0.00595382
0.00597451
0.0059507
0.00595534
0.00597753
0.00597579
0.00595268
0.00595188
0.00596593
0.0059373
0.00597338
0.00593741
0.00596579
0.00596041
0.00594556
0.00595127
0.00594882
0.00595043
0.0059448
0.00593863
0.00595147
0.00597321
0.00596577
0.0059422
0.00595151
0.00594823
0.00595138
0.00596799
0.00593724
0.00597535
0.00595292
0.00594802
0.00593728
0.00596756
0.0059513
0.00595982
0.00595137
0.00597354
0.00595205
0.00595187
0.00595455
0.00595466
0.00596292
0.00595729
0.00595128
0.0059701
0.00595311
0.0059514
0.00595148
0.00595034
0.00596718
0.00596706
0.00595318
0.00595713
0.00596982
0.00597782
0.00597111
0.00596722
0.00595167
0.0059672
0.00596727
0.00597008
0.00596714
0.0059441
0.00596605
0.00597116
0.00594999
0.00596597
0.00594771
0.00594414
0.00595241
0.00594197
0.00595166
0.00597005
0.00595151
0.00595154
0.0059675
0.00594884
0.00597142
0.00594884
0.00594751
0.00594397
0.00595145
0.00594879
0.0059728
0.00596598
0.00597004
0.00595142
0.00595296
0.00595276
0.00594826
0.00595132
0.00594968
0.00595124
0.00595907
0.00596501
0.0059483
0.00597
0.00594805
0.00594958
0.00596826
0.005946
0.00595119
0.00594565
0.0059507
0.0059519
0.005948
0.00596279
0.00595038
0.00596462
0.00594753
0.0059505
0.00595052
0.00595094
0.00595077
0.00595075
0.00595078
0.00595114
0.00594539
0.00594549
0.00594538
0.00594534
0.00594237
0.00594235
0.00596306
0.00595103
0.00595227
0.00595737
0.00594513
0.00594499
0.00595216
0.00596491
0.0059524
0.00595145
0.00596263
0.00594594
0.0059628
0.0059479
0.00595254
0.00596255
0.00596445
0.00597337
0.00597309
0.005948
0.00597411
0.00595357
0.00596465
0.00595932
0.00595245
0.00595058
0.00593545
0.00595069
0.00597438
0.00596463
0.00595229
0.00595239
0.00596509
0.00595062
0.00595964
0.00593548
0.00596456
0.00595043
0.00594905
0.00595275
0.00594522
0.00594902
0.00594214
0.0059532
0.00597696
0.00597837
0.00594319
0.005956
0.0059524
0.00596278
0.00594588
0.00595002
0.0059646
0.0059499
0.00596163
0.00595171
0.0059616
0.00596482
0.00593255
0.00594375
0.00594502
0.00594509
0.00595114
0.00596132
0.00593891
0.0059492
0.00595701
0.00596118
0.0059624
0.00594321
0.00596266
0.00594419
0.00596199
0.00597868
0.00596139
0.00597374
0.00594744
0.00596263
0.00593259
0.00596197
0.00594832
0.00596307
0.00594867
0.00596208
0.00595419
0.00598008
0.00595495
0.00596274
0.00594337
0.00596293
0.005957
0.00594865
0.00595114
0.00596203
0.00596136
0.00595974
0.0059475
0.00596141
0.0059524
0.00595417
0.00594221
0.00596136
0.00595992
0.00595643
0.00595951
0.00596176
0.00595942
0.00594635
0.00595249
0.00595976
0.00596281
0.00595142
0.00595135
0.00596156
0.00594225
0.0059887
0.0059543
0.00597333
0.00595627
0.00600918
0.00600914
0.0060089
0.006009
0.00600887
0.00600926
0.0060091
0.00594731
0.00593993
0.00595309
0.00595718
0.00595934
0.00595953
0.00595169
0.00595978
0.00595997
0.00593985
0.00595954
0.00594574
0.00596612
0.00594597
0.00595477
0.00595724
0.00595968
0.00594311
0.0059543
0.00595697
0.00595426
0.00595693
0.00595985
0.00596543
0.00595725
0.00595465
0.00594562
0.00595898
0.0059602
0.00595913
0.00595748
0.00595475
0.00595164
0.00595917
0.0059517
0.00595507
0.00595738
0.00595232
0.00595498
0.00595963
0.0059487
0.00595661
0.00594025
0.00597865
0.00594732
0.00594636
0.00595471
0.0059565
0.00594962
0.00598822
0.00595473
0.00595667
0.00597986
0.0059328
0.00593269
0.00595433
0.00595938
0.00595621
0.00595896
0.00592699
0.00592699
0.00595229
0.00595226
0.00595244
0.00598831
0.00595998
0.00594816
0.00595737
0.00595769
0.00595741
0.00598893
0.00594889
0.00595958
0.00595443
0.00595442
0.00595775
0.00595702
0.00595775
0.00595743
0.00598212
0.00597366
0.00595705
0.00595437
0.00595657
0.0059579
0.00595682
0.00595635
0.00595657
0.00597863
0.00594508
0.00595919
0.00594973
0.0059487
0.00597888
0.00595457
0.0059549
0.0059422
0.00593304
0.00593306
0.00594377
0.00596005
0.00595453
0.00597927
0.0059338
0.00592784
0.00592786
0.00598937
0.00593783
0.0059362
0.0059549
0.00594436
0.00595312
0.00595116
0.00594858
0.00594764
0.0059524
0.00598832
0.00595397
0.00595004
0.00594823
0.00598436
0.00593742
0.00598053
0.00594836
0.00595105
0.00596224
0.00595333
0.00595255
0.0059419
0.00595204
0.00594193
0.00595436
0.00594818
0.00593683
0.00593658
0.00597915
0.00595068
0.00599055
0.00598983
0.00599141
0.00594891
0.00598876
0.0059922
0.00595786
0.005991
0.00594025
0.00594028
0.0059904
0.00595637
0.005982
0.00599077
0.00598273
0.00599092
0.00598274
0.00593762
0.00598056
0.0059886
0.00599048
0.0059527
0.00594682
0.00598334
0.00595262
0.00599195
0.00595141
0.00595613
0.00599118
0.00598392
0.00599176
0.00598936
0.00595507
0.00593964
0.00592854
0.00592902
0.00595077
0.00592863
0.00592865
0.00592884
0.0059318
0.00597982
0.00593707
0.00594351
0.00593961
0.00595123
0.00593102
0.00593104
0.00593892
0.00598977
0.00595648
0.00598928
0.00598114
0.00598087
0.00593424
0.00593435
0.0059346
0.00593452
0.00593427
0.0059292
0.00593453
0.00593101
0.00592845
0.00593417
0.00593413
0.0059283
0.00592908
0.00593087
0.00593482
SCALARS rr_(S) float
LOOKUP_TABLE default
0.466969
0.467546
0.467495
0.467534
0.467717
0.467494
0.466966
0.467531
0.467446
0.467546
0.466991
0.467531
0.467518
0.467554
0.467654
0.467503
0.467577
0.467523
0.467418
0.467479
0.467473
0.467953
0.467472
0.467481
0.467478
0.467532
0.467079
0.467503
0.467257
0.467814
0.467516
0.467258
0.467072
0.467773
0.467792
0.467772
0.46782
0.467783
0.467516
0.467074
0.467255
0.467823
0.467822
0.467516
0.467124
0.467265
0.467431
0.467456
0.467497
0.46722
0.467242
0.467318
0.467707
0.46732
0.467702
0.467146
0.467794
0.46732
0.467793
0.467482
0.467574
0.467629
0.46712
0.467627
0.46763
0.467579
0.467576
0.467533
0.467476
0.467549
0.467706
0.467705
0.467255
0.467599
0.467496
0.467046
0.467667
0.467578
0.467533
0.46733
0.467211
0.467738
0.467603
0.467193
0.467276
0.467132
0.467502
0.46759
0.467124
0.467923
0.467318
0.467922
0.467671
0.467573
0.467324
0.467235
0.467212
0.467544
0.467666
0.467513
0.467385
0.46729
0.467192
0.467527
0.46754
0.467539
0.467611
0.467508
0.467191
0.467555
0.467483
0.467143
0.467171
0.467524
0.467536
0.467322
0.467795
0.46721
0.467793
0.467324
0.467405
0.467645
0.467546
0.467589
0.467561
0.467659
0.467771
0.467544
0.467212
0.467324
0.467706
0.467541
0.467599
0.467544
0.467291
0.467795
0.467181
0.467523
0.467603
0.467794
0.467297
0.467551
0.467415
0.467546
0.467208
0.467534
0.467542
0.467498
0.467494
0.467367
0.467455
0.467546
0.467256
0.467519
0.467546
0.467542
0.467564
0.467304
0.467305
0.467516
0.467457
0.467261
0.467139
0.467241
0.467303
0.46754
0.467303
0.467302
0.467257
0.467304
0.467672
0.467319
0.46724
0.46757
0.467321
0.467609
0.467672
0.467532
0.467709
0.467543
0.467258
0.467542
0.467542
0.467298
0.467591
0.467236
0.467588
0.467613
0.467676
0.467544
0.467592
0.467218
0.467321
0.467257
0.467543
0.467519
0.467523
0.467598
0.467545
0.467577
0.467546
0.467425
0.467334
0.467597
0.467259
0.467602
0.46758
0.467286
0.46764
0.467548
0.467646
0.46756
0.467537
0.467603
0.467369
0.467565
0.46734
0.467612
0.467559
0.467559
0.467551
0.467554
0.467554
0.467554
0.467551
0.467648
0.467647
0.467649
0.467649
0.467705
0.467705
0.467364
0.467552
0.467528
0.467453
0.467655
0.467657
0.467531
0.467335
0.467525
0.467544
0.467371
0.46764
0.467368
0.467606
0.467523
0.467372
0.467342
0.467209
0.467211
0.467602
0.4672
0.467511
0.467339
0.467422
0.467525
0.467558
0.467827
0.467555
0.467197
0.46734
0.467528
0.467532
0.467332
0.467557
0.467418
0.467826
0.467341
0.467561
0.467586
0.467522
0.467653
0.467589
0.467707
0.467517
0.467154
0.467132
0.46769
0.467473
0.467531
0.46737
0.467642
0.467569
0.46734
0.467573
0.467387
0.467545
0.467388
0.467337
0.46788
0.467678
0.467655
0.467654
0.46755
0.467392
0.467765
0.467583
0.467459
0.467394
0.467375
0.467688
0.467371
0.467672
0.467382
0.467125
0.467391
0.467205
0.467614
0.467371
0.46788
0.467382
0.4676
0.467364
0.467593
0.467381
0.467502
0.467113
0.467488
0.467369
0.467685
0.467366
0.46746
0.467594
0.467548
0.467381
0.467391
0.467417
0.467614
0.467391
0.467532
0.467503
0.467706
0.467391
0.467413
0.467468
0.46742
0.467385
0.467421
0.467635
0.467529
0.467416
0.467369
0.467548
0.467549
0.467388
0.467705
0.466971
0.467503
0.46721
0.467471
0.466647
0.466647
0.466651
0.466649
0.46665
0.466648
0.46665
0.467617
0.467748
0.467519
0.467457
0.467421
0.467419
0.467544
0.467416
0.467412
0.46775
0.467419
0.467645
0.467318
0.467638
0.467493
0.467455
0.467417
0.467692
0.467502
0.467459
0.467502
0.46746
0.467413
0.467328
0.467455
0.467496
0.467645
0.467427
0.467407
0.467424
0.467451
0.467494
0.467545
0.467424
0.467544
0.467488
0.467453
0.467533
0.467489
0.467417
0.467591
0.467465
0.467741
0.467126
0.467616
0.467635
0.467495
0.467467
0.467577
0.466979
0.467494
0.467464
0.467116
0.467877
0.46788
0.467501
0.467421
0.467471
0.467427
0.467984
0.467983
0.467531
0.467534
0.467531
0.46698
0.467411
0.467601
0.467453
0.467448
0.467452
0.466967
0.46759
0.467417
0.467499
0.4675
0.467447
0.467458
0.467447
0.467452
0.467078
0.467207
0.467458
0.467501
0.467465
0.467444
0.467461
0.46747
0.467465
0.467127
0.467656
0.467424
0.467575
0.467592
0.467123
0.467495
0.467489
0.467707
0.46787
0.467869
0.467679
0.46741
0.467499
0.467117
0.467857
0.467965
0.467964
0.466961
0.467783
0.467814
0.467492
0.467668
0.467517
0.467549
0.467593
0.467611
0.467533
0.466977
0.467505
0.467571
0.4676
0.467042
0.467792
0.467108
0.467596
0.467553
0.467378
0.467514
0.46753
0.467712
0.467536
0.467711
0.467499
0.467601
0.467805
0.467809
0.46712
0.467558
0.466957
0.46697
0.466943
0.467589
0.466973
0.46693
0.467445
0.466949
0.46774
0.467739
0.46696
0.467467
0.467081
0.466956
0.467068
0.466953
0.467068
0.467788
0.467098
0.466975
0.466958
0.467527
0.467624
0.467059
0.467528
0.466933
0.467547
0.467471
0.466949
0.46705
0.466939
0.46696
0.467488
0.467752
0.467952
0.467943
0.467558
0.46795
0.46795
0.467946
0.467894
0.467109
0.467798
0.467684
0.467754
0.467551
0.467909
0.467908
0.467766
0.466953
0.467465
0.466965
0.467099
0.4671
0.467848
0.467846
0.467842
0.467844
0.467847
0.467942
0.467846
0.467911
0.467957
0.467852
0.467853
0.467959
0.467943
0.467912
0.46784
SCALARS rr_(P) float
LOOKUP_TABLE default
0.00721232
0.00719451
0.00719605
0.0071948
0.00719016
0.00719607
0.00721237
0.00719505
0.00719753
0.00719459
0.00721108
0.00719505
0.0071954
0.00719437
0.00719176
0.00719579
0.00719376
0.00719522
0.0071983
0.00719647
0.00719672
0.00718414
0.00719669
0.00719645
0.0071965
0.00719494
0.00720863
0.00719586
0.00720317
0.00718767
0.00719546
0.00720313
0.00720889
0.00718872
0.00718821
0.00718874
0.00718747
0.00718843
0.00719549
0.00720884
0.00720321
0.0071874
0.00718742
0.00719545
0.00720715
0.00720292
0.00719794
0.00719723
0.00719601
0.00720427
0.00720363
0.00720136
0.00719039
0.00720132
0.00719054
0.00720665
0.00718817
0.00720131
0.00718819
0.00719638
0.00719382
0.00719239
0.00720751
0.00719248
0.00719236
0.00719379
0.00719376
0.00719493
0.00719658
0.00719445
0.00719043
0.00719044
0.00720323
0.00719325
0.00719599
0.00720964
0.00719146
0.0071938
0.00719494
0.00720095
0.00720465
0.00718961
0.0071931
0.00720514
0.00720266
0.00720697
0.00719586
0.00719353
0.00720713
0.00718501
0.00720134
0.00718503
0.00719135
0.00719398
0.00720119
0.00720379
0.00720463
0.00719461
0.00719148
0.00719555
0.00719934
0.00720225
0.00720518
0.00719506
0.00719477
0.00719472
0.00719289
0.0071957
0.00720521
0.00719425
0.00719636
0.00720659
0.00720579
0.00719516
0.00719481
0.00720127
0.0071882
0.00720471
0.00718825
0.0072012
0.0071987
0.00719196
0.00719451
0.00719347
0.00719413
0.00719161
0.0071888
0.00719462
0.00720463
0.00720118
0.00719042
0.00719463
0.00719318
0.00719456
0.00720222
0.00718816
0.00720562
0.00719529
0.00719309
0.00718817
0.00720202
0.00719456
0.00719844
0.00719458
0.00720478
0.00719487
0.00719482
0.00719602
0.00719607
0.00719987
0.00719727
0.00719451
0.00720317
0.00719538
0.00719459
0.00719461
0.00719413
0.00720185
0.00720179
0.00719539
0.0071972
0.00720304
0.00720672
0.00720363
0.00720186
0.00719471
0.00720186
0.00720189
0.00720316
0.00720183
0.0071913
0.00720132
0.00720366
0.00719398
0.00720128
0.00719295
0.00719132
0.00719506
0.00719033
0.00719471
0.00720315
0.00719464
0.00719465
0.00720199
0.00719349
0.00720378
0.00719348
0.00719287
0.00719125
0.00719461
0.00719347
0.00720444
0.00720128
0.00720314
0.00719458
0.00719528
0.00719519
0.0071932
0.00719454
0.00719385
0.0071945
0.00719809
0.00720082
0.00719322
0.00720313
0.0071931
0.00719381
0.00720234
0.00719218
0.00719448
0.00719202
0.0071943
0.00719482
0.00719308
0.0071998
0.00719416
0.00720065
0.00719288
0.00719416
0.00719417
0.00719435
0.00719428
0.00719427
0.00719428
0.00719448
0.00719188
0.00719193
0.00719187
0.00719186
0.00719051
0.0071905
0.00719993
0.00719443
0.00719494
0.00719731
0.00719176
0.0071917
0.00719489
0.00720077
0.00719499
0.00719461
0.00719973
0.00719215
0.00719982
0.00719304
0.00719505
0.00719969
0.00720057
0.0072047
0.00720454
0.00719308
0.00720505
0.00719558
0.00720066
0.0071982
0.00719502
0.0071942
0.00718732
0.00719424
0.00720518
0.00720065
0.00719495
0.00719505
0.00720086
0.00719421
0.00719836
0.00718734
0.00720062
0.00719412
0.00719357
0.00719519
0.0071918
0.00719357
0.00719041
0.00719541
0.00720634
0.00720698
0.00719089
0.00719668
0.00719505
0.00719981
0.00719212
0.00719399
0.00720063
0.00719395
0.00719928
0.00719474
0.00719927
0.00720073
0.00718599
0.00719114
0.00719171
0.00719174
0.00719448
0.00719914
0.00718891
0.00719363
0.00719715
0.00719908
0.00719964
0.0071909
0.00719975
0.00719135
0.00719945
0.00720711
0.00719917
0.00720488
0.00719284
0.00719973
0.00718601
0.00719944
0.00719324
0.00719994
0.0071934
0.00719949
0.00719586
0.00720782
0.00719619
0.00719978
0.00719096
0.00719987
0.00719714
0.0071934
0.00719445
0.00719947
0.00719916
0.0071984
0.00719287
0.00719918
0.00719505
0.00719585
0.00719045
0.00719916
0.00719849
0.00719688
0.0071983
0.00719934
0.00719826
0.00719234
0.00719509
0.00719842
0.00719981
0.00719462
0.00719459
0.00719925
0.00719047
0.00721171
0.00719592
0.00720467
0.0071968
0.00722106
0.00722104
0.00722093
0.00722097
0.0072209
0.00722111
0.00722104
0.00719278
0.00718939
0.00719535
0.00719722
0.00719821
0.00719831
0.00719474
0.00719842
0.00719851
0.00718935
0.00719831
0.00719207
0.00720134
0.00719214
0.00719612
0.00719725
0.00719838
0.00719086
0.00719592
0.00719713
0.0071959
0.0071971
0.00719845
0.00720102
0.00719725
0.00719607
0.00719201
0.00719805
0.00719861
0.00719812
0.00719736
0.00719612
0.00719472
0.00719813
0.00719474
0.00719625
0.00719731
0.00719502
0.00719621
0.00719835
0.00719341
0.00719696
0.00718954
0.00720709
0.00719279
0.00719235
0.0071961
0.00719691
0.00719383
0.00721149
0.0071961
0.00719699
0.00720772
0.00718612
0.00718607
0.00719592
0.00719823
0.00719678
0.00719804
0.00718346
0.00718346
0.00719499
0.00719499
0.00719508
0.00721155
0.0071985
0.00719316
0.00719731
0.00719747
0.00719733
0.00721181
0.00719351
0.00719832
0.00719598
0.00719597
0.00719749
0.00719715
0.00719749
0.00719734
0.00720872
0.00720484
0.00719716
0.00719594
0.00719694
0.00719756
0.00719706
0.00719684
0.00719694
0.00720709
0.00719176
0.00719814
0.00719387
0.00719342
0.00720721
0.00719603
0.00719617
0.00719044
0.0071862
0.00718621
0.00719115
0.00719854
0.00719602
0.00720738
0.00718655
0.00718384
0.00718385
0.00721201
0.00718843
0.00718766
0.00719619
0.00719143
0.00719537
0.00719448
0.00719335
0.00719294
0.00719506
0.00721153
0.00719576
0.007194
0.0071932
0.00720975
0.00718823
0.00720804
0.00719325
0.00719445
0.00719956
0.00719547
0.00719513
0.00719028
0.00719489
0.0071903
0.00719594
0.00719318
0.00718795
0.00718785
0.00720734
0.00719427
0.00721266
0.00721234
0.00721304
0.00719352
0.00721175
0.0072134
0.00719754
0.00721286
0.00718955
0.00718956
0.00721259
0.00719684
0.00720868
0.00721277
0.00720901
0.00721284
0.00720901
0.00718834
0.00720798
0.00721168
0.00721262
0.0071952
0.00719255
0.00720929
0.00719516
0.00721328
0.00719461
0.00719673
0.00721296
0.00720955
0.00721322
0.007212
0.00719625
0.00718926
0.00718415
0.00718437
0.00719432
0.00718419
0.0071842
0.00718429
0.00718564
0.00720764
0.00718807
0.00719103
0.00718925
0.00719453
0.00718529
0.0071853
0.00718894
0.00721219
0.0071969
0.007212
0.00720833
0.00720818
0.00718675
0.0071868
0.00718692
0.00718688
0.00718677
0.00718446
0.0071869
0.00718528
0.00718412
0.00718673
0.0071867
0.00718405
0.0071844
0.00718522
0.00718702
SCALARS rr_(T) float
LOOKUP_TABLE default
0.0127083
0.0127263
0.0127245
0.0127258
0.0127344
0.0127245
0.0127082
0.0127259
0.0127228
0.0127263
0.0127089
0.0127259
0.0127254
0.0127268
0.0127313
0.0127247
0.0127278
0.0127255
0.0127219
0.012724
0.0127238
0.0127461
0.0127238
0.012724
0.0127239
0.012726
0.0127115
0.012725
0.0127168
0.0127391
0.0127253
0.0127169
0.0127113
0.0127373
0.012738
0.0127372
0.0127395
0.0127375
0.0127253
0.0127114
0.0127168
0.0127396
0.0127396
0.0127252
0.0127129
0.0127171
0.0127223
0.0127231
0.0127247
0.0127157
0.0127164
0.0127187
0.0127339
0.0127187
0.0127336
0.0127135
0.0127381
0.0127188
0.012738
0.0127241
0.0127277
0.0127301
0.0127128
0.01273
0.0127301
0.0127281
0.0127278
0.012726
0.0127238
0.0127265
0.0127339
0.0127338
0.0127168
0.012729
0.0127245
0.0127105
0.012732
0.012728
0.012726
0.0127191
0.0127155
0.0127352
0.012729
0.0127149
0.0127174
0.0127131
0.0127249
0.0127286
0.0127129
0.0127447
0.0127187
0.0127447
0.0127322
0.0127279
0.0127189
0.0127162
0.0127155
0.0127262
0.0127319
0.0127251
0.0127208
0.0127178
0.0127149
0.0127256
0.0127263
0.012726
0.0127295
0.012725
0.0127148
0.0127267
0.0127241
0.0127134
0.0127143
0.0127255
0.0127259
0.0127188
0.012738
0.0127154
0.012738
0.0127189
0.0127215
0.0127309
0.0127263
0.0127283
0.0127269
0.0127317
0.0127369
0.0127262
0.0127155
0.0127189
0.012734
0.0127261
0.0127288
0.0127262
0.0127178
0.0127382
0.0127145
0.0127257
0.012729
0.0127381
0.012718
0.0127268
0.0127219
0.0127265
0.0127153
0.0127259
0.0127266
0.0127248
0.0127244
0.0127203
0.0127232
0.0127263
0.0127169
0.0127253
0.0127265
0.0127262
0.0127272
0.0127182
0.0127183
0.0127252
0.0127231
0.012717
0.0127133
0.0127164
0.0127182
0.012726
0.0127182
0.0127182
0.0127169
0.0127182
0.0127323
0.0127188
0.0127163
0.0127274
0.0127188
0.0127294
0.0127322
0.0127261
0.012734
0.0127265
0.0127169
0.0127261
0.0127261
0.0127181
0.0127286
0.0127162
0.0127283
0.0127295
0.0127324
0.0127262
0.0127286
0.0127156
0.0127188
0.0127169
0.0127262
0.0127253
0.0127255
0.0127287
0.0127263
0.012728
0.0127264
0.0127221
0.0127192
0.0127287
0.0127169
0.0127289
0.0127281
0.0127177
0.0127308
0.0127264
0.012731
0.0127272
0.0127262
0.012729
0.0127204
0.0127275
0.0127194
0.0127295
0.0127269
0.0127269
0.0127265
0.0127266
0.0127266
0.0127266
0.0127268
0.012731
0.0127309
0.012731
0.0127311
0.0127338
0.0127338
0.0127202
0.0127268
0.0127254
0.0127229
0.0127313
0.0127314
0.0127256
0.0127193
0.0127253
0.0127262
0.0127204
0.0127309
0.0127203
0.0127291
0.0127252
0.0127205
0.0127195
0.0127154
0.0127155
0.0127289
0.0127151
0.012725
0.0127194
0.0127221
0.0127253
0.0127268
0.0127399
0.0127267
0.012715
0.0127194
0.0127254
0.0127261
0.0127192
0.0127268
0.012722
0.0127398
0.0127194
0.0127269
0.0127282
0.0127254
0.0127312
0.0127285
0.012734
0.0127252
0.0127138
0.0127131
0.0127331
0.0127237
0.0127261
0.0127203
0.012731
0.0127274
0.0127194
0.0127279
0.0127209
0.0127267
0.0127209
0.0127193
0.0127425
0.0127325
0.0127314
0.0127314
0.0127267
0.012721
0.0127369
0.012728
0.0127233
0.0127211
0.0127204
0.0127331
0.0127204
0.0127322
0.0127206
0.0127129
0.012721
0.0127153
0.0127297
0.0127204
0.0127425
0.0127207
0.012729
0.0127202
0.0127285
0.0127206
0.0127247
0.0127126
0.0127243
0.0127203
0.012733
0.0127203
0.0127234
0.0127286
0.0127264
0.0127207
0.012721
0.0127219
0.0127296
0.012721
0.012726
0.0127249
0.0127339
0.012721
0.0127218
0.0127236
0.012722
0.0127208
0.012722
0.0127306
0.0127259
0.0127219
0.0127204
0.0127267
0.0127268
0.0127209
0.0127338
0.0127083
0.012725
0.0127154
0.0127238
0.0126982
0.0126982
0.0126984
0.0126983
0.0126983
0.0126982
0.0126983
0.0127297
0.012736
0.0127254
0.0127233
0.0127221
0.012722
0.0127266
0.0127219
0.0127217
0.0127361
0.012722
0.0127309
0.0127188
0.0127305
0.0127246
0.0127232
0.0127219
0.0127332
0.0127249
0.0127234
0.012725
0.0127234
0.0127217
0.0127191
0.0127233
0.0127247
0.0127309
0.0127223
0.0127215
0.0127221
0.0127231
0.0127247
0.0127267
0.0127221
0.0127266
0.0127243
0.0127232
0.0127262
0.0127244
0.0127219
0.0127284
0.0127235
0.0127356
0.0127129
0.0127297
0.0127306
0.0127247
0.0127235
0.0127279
0.0127085
0.0127246
0.0127235
0.0127127
0.0127424
0.0127425
0.0127249
0.012722
0.0127237
0.0127222
0.0127477
0.0127476
0.0127257
0.0127261
0.0127261
0.0127085
0.0127217
0.0127288
0.012723
0.0127228
0.0127231
0.0127081
0.0127286
0.0127219
0.0127248
0.0127248
0.0127228
0.0127233
0.0127228
0.012723
0.0127115
0.0127153
0.0127233
0.0127249
0.0127235
0.0127227
0.0127233
0.0127237
0.0127235
0.0127129
0.0127316
0.0127221
0.0127278
0.0127287
0.0127128
0.0127245
0.0127243
0.0127339
0.0127422
0.0127421
0.0127327
0.0127216
0.0127249
0.0127126
0.0127415
0.0127467
0.0127467
0.0127079
0.0127375
0.0127392
0.0127246
0.012732
0.0127253
0.0127264
0.0127285
0.0127295
0.0127262
0.0127084
0.0127249
0.0127276
0.0127288
0.0127104
0.0127382
0.0127124
0.0127286
0.0127267
0.0127206
0.0127251
0.0127259
0.0127343
0.0127261
0.0127342
0.0127246
0.012729
0.0127388
0.012739
0.0127127
0.012727
0.012708
0.0127084
0.0127076
0.0127285
0.0127083
0.0127072
0.0127227
0.0127078
0.0127354
0.0127353
0.0127082
0.0127235
0.0127115
0.012708
0.0127112
0.0127079
0.0127112
0.0127378
0.012712
0.0127084
0.0127081
0.0127259
0.01273
0.0127109
0.012726
0.0127073
0.0127267
0.0127237
0.0127077
0.0127106
0.0127075
0.0127079
0.0127244
0.012736
0.0127461
0.0127457
0.0127272
0.0127461
0.012746
0.0127459
0.0127433
0.0127124
0.0127385
0.0127329
0.0127362
0.0127269
0.0127441
0.012744
0.0127367
0.0127077
0.0127234
0.0127081
0.0127122
0.0127122
0.012741
0.0127409
0.0127407
0.0127407
0.012741
0.0127456
0.0127408
0.0127441
0.0127463
0.0127411
0.0127412
0.0127464
0.0127456
0.0127441
0.0127407
SCALARS rr_tsim float
LOOKUP_TABLE default
50
50
50
50
50
50
50
50
50
50
50
50
50
50
50
50
50
50
50
50
50
50
50
50
50
50
50
50
50
50
50
50
50
50
50
50
50
50
50
50
50
50
50
50
50
50
50
50
50
50
50
50
50
50
50
50
50
50
50
50
50
50
50
50
50
50
50
50
50
50
50
50
50
50
50
50
50
50
50
50
50
50
50
50
50
50
50
50
50
50
50
50
50
50
50
50
50
50
50
50
50
50
50
50
50
50
50
50
50
50
50
50
50
50
50
50
50
50
50
50
50
50
50
50
50
50
50
50
50
50
50
50
50
50
50
50
50
50
50
50
50
50
50
50
50
50
50
50
50
50
50
50
50
50
50
50
50
50
50
50
50
50
50
50
50
50
50
50
50
50
50
50
50
50
50
50
50
50
50
50
50
50
50
50
50
50
50
50
50
50
50
50
50
50
50
50
50
50
50
50
50
50
50
50
50
50
50
50
50
50
50
50
50
50
50
50
50
50
50
50
50
50
50
50
50
50
50
50
50
50
50
50
50
50
50
50
50
50
50
50
50
50
50
50
50
50
50
50
50
50
50
50
50
50
50
50
50
50
50
50
50
50
50
50
50
50
50
50
50
50
50
50
50
50
50
50
50
50
50
50
50
50
50
50
50
50
50
50
50
50
50
50
50
50
50
50
50
50
50
50
50
50
50
50
50
50
50
50
50
50
50
50
50
50
50
50
50
50
50
50
50
50
50
50
50
50
50
50
50
50
50
50
50
50
50
50
50
50
50
50
50
50
50
50
50
50
50
50
50
50
50
50
50
50
50
50
50
50
50
50
50
50
50
50
50
50
50
50
50
50
50
50
50
50
50
50
50
50
50
50
50
50
50
50
50
50
50
50
50
50
50
50
50
50
50
50
50
50
50
50
50
50
50
50
50
50
50
50
50
50
50
50
50
50
50
50
50
50
50
50
50
50
50
50
50
50
50
50
50
50
50
50
50
50
50
50
50
50
50
50
50
50
50
50
50
50
50
50
50
50
50
50
50
50
50
50
50
50
50
50
50
50
50
50
50
50
50
50
50
50
50
50
50
50
50
50
50
50
50
50
50
50
50
50
50
50
50
50
50
50
50
50
50
50
50
50
50
50
50
50
50
50
50
50
50
50
50
50
50
50
50
50
50
50
50
50
50
50
50
50
50
50
50
50
50
50
50
50
50
50
50
50
50
50
50
50
50
50
50
50
50
50
50
50
50
50
50
50
50
50
50
50
50
50
50
50
50
50
50
50
50
50
50
SCALARS rr_Vext float
LOOKUP_TABLE default
0.181364
0.449151
0.35607
0.468139
0.250503
0.377851
0.17928
0.465117
0.39513
0.504597
0.165395
0.466537
0.409851
0.435039
0.516162
0.424891
0.369065
0.414209
0.365553
0.360549
0.405133
0.076512
0.415095
0.383037
0.347126
0.403496
0.155016
0.352855
0.267427
0.339258
0.361991
0.276499
0.171527
0.252911
0.249256
0.253461
0.330137
0.2495
0.361562
0.192844
0.224732
0.29106
0.291069
0.397296
0.216895
0.244133
0.344633
0.350205
0.330099
0.303776
0.312869
0.24525
0.401536
0.315224
0.369431
0.157761
0.266188
0.317534
0.26616
0.393209
0.470957
0.464898
0.153282
0.32766
0.445338
0.417398
0.455681
0.391929
0.358007
0.515588
0.435574
0.43081
0.277668
0.338763
0.353994
0.176433
0.372694
0.4135
0.395193
0.271147
0.240502
0.283519
0.527561
0.240262
0.327777
0.119297
0.407604
0.344628
0.229716
0.0374836
0.273107
0.0407616
0.316373
0.299329
0.258673
0.232995
0.220919
0.442958
0.372929
0.351877
0.293552
0.277784
0.230489
0.418602
0.426163
0.383856
0.340645
0.340868
0.24464
0.51255
0.326046
0.164046
0.220066
0.457907
0.429745
0.304498
0.308642
0.183517
0.320047
0.303383
0.267001
0.502675
0.511842
0.442065
0.484555
0.384971
0.220824
0.478239
0.200088
0.262293
0.227513
0.456423
0.449049
0.448277
0.288952
0.187544
0.190647
0.327459
0.404491
0.187466
0.241555
0.387312
0.287986
0.472786
0.223286
0.385213
0.349751
0.336147
0.214802
0.269561
0.304316
0.440653
0.248039
0.397435
0.462017
0.469272
0.307874
0.249021
0.24767
0.40116
0.333873
0.24613
0.160083
0.239716
0.240479
0.430982
0.252362
0.255114
0.274634
0.245952
0.386362
0.258197
0.22607
0.297731
0.272826
0.340324
0.382136
0.361154
0.313991
0.360866
0.26658
0.418272
0.448879
0.241627
0.442324
0.239451
0.43682
0.402759
0.378984
0.379438
0.446251
0.200784
0.266942
0.246029
0.447437
0.439047
0.407224
0.447919
0.45298
0.381886
0.466598
0.307733
0.274125
0.51276
0.285562
0.46598
0.369982
0.226666
0.286356
0.461753
0.389054
0.350327
0.450082
0.44528
0.278874
0.284237
0.267557
0.395474
0.433445
0.498122
0.478118
0.520402
0.471587
0.515318
0.43208
0.457225
0.460675
0.434377
0.45638
0.422937
0.416654
0.282427
0.389433
0.454324
0.312139
0.470296
0.432178
0.49269
0.288262
0.468306
0.448705
0.284516
0.406933
0.282485
0.455263
0.411315
0.296271
0.277693
0.235564
0.27111
0.455798
0.19751
0.347041
0.276543
0.313921
0.468701
0.455576
0.147793
0.457132
0.236442
0.261779
0.466299
0.379049
0.264599
0.522213
0.291247
0.147784
0.267739
0.406423
0.50895
0.382713
0.457778
0.425178
0.226625
0.216744
0.175986
0.201437
0.308148
0.229089
0.372002
0.227537
0.406412
0.287639
0.268116
0.323971
0.293539
0.398544
0.281502
0.287612
0.136374
0.303586
0.437832
0.43808
0.391547
0.281132
0.192366
0.545909
0.360509
0.298334
0.274307
0.284989
0.282745
0.35886
0.278107
0.192067
0.274807
0.183504
0.351085
0.279592
0.127094
0.263736
0.321355
0.27933
0.443694
0.290726
0.381491
0.13832
0.30568
0.28703
0.261636
0.269333
0.32201
0.308739
0.321065
0.266579
0.271179
0.293876
0.403622
0.276111
0.399045
0.358808
0.290809
0.28649
0.290139
0.323391
0.289929
0.270132
0.308546
0.333046
0.387888
0.290185
0.286369
0.425167
0.419272
0.276227
0.290848
0.117372
0.342083
0.227689
0.319699
0.126307
0.131125
0.117235
0.119131
0.126413
0.133079
0.137188
0.365837
0.275213
0.269679
0.305551
0.296224
0.292424
0.314727
0.286009
0.292403
0.310835
0.29133
0.368806
0.261077
0.378852
0.28912
0.277594
0.291612
0.32278
0.329012
0.304713
0.351069
0.326049
0.300406
0.213986
0.303877
0.298879
0.328297
0.305325
0.288535
0.275051
0.30408
0.31911
0.436185
0.283322
0.424024
0.438684
0.298881
0.422886
0.322493
0.255692
0.356813
0.307335
0.229513
0.185278
0.353367
0.377157
0.31345
0.259558
0.31703
0.138208
0.309881
0.289529
0.140574
0.0597501
0.065377
0.268666
0.28331
0.331375
0.316604
0.0311313
0.0325291
0.318198
0.32156
0.304258
0.103727
0.264741
0.31592
0.315659
0.272091
0.240295
0.107867
0.46449
0.284961
0.35218
0.357691
0.255177
0.323463
0.249489
0.275495
0.129744
0.19939
0.323823
0.327768
0.280341
0.29358
0.303674
0.320522
0.306426
0.143966
0.275792
0.301369
0.2909
0.43751
0.143863
0.233745
0.240586
0.234533
0.155629
0.155632
0.267711
0.208518
0.301889
0.153862
0.18553
0.0614177
0.0614152
0.112313
0.19964
0.134975
0.257014
0.284551
0.297823
0.337019
0.307434
0.285246
0.222228
0.127175
0.278065
0.290596
0.282453
0.144135
0.14765
0.104633
0.281962
0.285986
0.224192
0.258264
0.238725
0.2238
0.292927
0.223766
0.257218
0.251399
0.158051
0.195246
0.165315
0.310662
0.112709
0.118921
0.115942
0.294548
0.107693
0.104735
0.200927
0.0979346
0.243164
0.243518
0.100662
0.255459
0.113727
0.110992
0.127159
0.105861
0.105727
0.174211
0.126246
0.112778
0.10628
0.235823
0.272672
0.118748
0.26033
0.0960792
0.264802
0.208183
0.100554
0.0864381
0.0948721
0.126464
0.225564
0.192187
0.0824439
0.0914088
0.25387
0.0775872
0.0775839
0.0878732
0.0979642
0.0995889
0.127338
0.207541
0.193801
0.253781
0.0775259
0.0775226
0.22926
0.0843492
0.178724
0.0765214
0.0783442
0.103275
0.198601
0.205601
0.218912
0.200665
0.198585
0.0438932
0.32039
0.0557549
0.0543427
0.259015
0.257245
0.0563354
0.0390579
0.0548056
0.238566
SCALARS rr_Vli float
LOOKUP_TABLE default
0.39649
0.903316
0.721417
0.942922
0.49301
0.76568
0.392038
0.937689
0.806283
1.01514
0.359839
0.940561
0.827718
0.874171
1.02414
0.859746
0.739409
0.835932
0.748811
0.732068
0.823496
0.146197
0.843754
0.777641
0.704901
0.813156
0.333353
0.714271
0.560617
0.659809
0.73124
0.579537
0.369276
0.494399
0.48591
0.495513
0.641464
0.486902
0.730496
0.41507
0.471218
0.565336
0.565396
0.80253
0.463329
0.511156
0.704675
0.713586
0.668694
0.640152
0.657325
0.509718
0.791293
0.654965
0.72851
0.336098
0.518814
0.659767
0.518797
0.798062
0.943882
0.925047
0.327844
0.65223
0.886026
0.836211
0.913017
0.789789
0.727304
1.03673
0.85852
0.849165
0.582219
0.676864
0.716983
0.381187
0.738171
0.828454
0.796437
0.56249
0.507631
0.556456
1.05353
0.50834
0.685395
0.254582
0.825091
0.689499
0.490667
0.071944
0.567538
0.0782467
0.62636
0.60027
0.537118
0.489909
0.466224
0.891232
0.738719
0.711163
0.604228
0.579683
0.487757
0.844128
0.858098
0.77273
0.679559
0.689393
0.517766
1.02967
0.661691
0.349483
0.467066
0.92384
0.865454
0.632503
0.60162
0.387417
0.624009
0.630002
0.54797
0.99833
1.0295
0.884295
0.972876
0.763266
0.431756
0.962256
0.422259
0.544656
0.448459
0.918499
0.897127
0.901841
0.602909
0.365542
0.404187
0.660944
0.807747
0.365419
0.503547
0.778949
0.590252
0.951079
0.471538
0.77608
0.704336
0.680968
0.435255
0.556278
0.620259
0.886325
0.51999
0.802513
0.92946
0.944281
0.617866
0.518665
0.515722
0.810213
0.680219
0.515668
0.341243
0.503646
0.500936
0.867532
0.525654
0.531452
0.575705
0.512245
0.76478
0.536483
0.475022
0.597037
0.566768
0.679113
0.756464
0.728172
0.618521
0.726387
0.558769
0.841653
0.903323
0.50363
0.884799
0.503416
0.873824
0.803298
0.749928
0.763405
0.892558
0.423351
0.554579
0.515699
0.900228
0.886318
0.821728
0.894921
0.911215
0.765285
0.938436
0.629686
0.568302
1.02456
0.598481
0.93057
0.741292
0.473248
0.569208
0.928593
0.772741
0.703619
0.906453
0.889154
0.575339
0.570482
0.55421
0.788797
0.870395
1.0003
0.961035
1.04561
0.947471
1.03541
0.868729
0.907713
0.914786
0.86236
0.905948
0.833943
0.821529
0.583015
0.78281
0.915927
0.636251
0.933138
0.857225
0.993045
0.597486
0.944389
0.902774
0.586747
0.808815
0.582785
0.908872
0.829744
0.610892
0.574991
0.497313
0.57207
0.910119
0.41762
0.701496
0.572856
0.642725
0.945277
0.914986
0.28693
0.918313
0.500204
0.542268
0.940121
0.764216
0.548659
1.0489
0.596687
0.286931
0.55451
0.815994
1.01858
0.77225
0.908482
0.850839
0.446607
0.437761
0.374439
0.429889
0.608693
0.465569
0.750007
0.469393
0.807683
0.576829
0.55535
0.649559
0.604007
0.802293
0.57919
0.596031
0.263022
0.600453
0.868526
0.869145
0.787224
0.578074
0.376393
1.09287
0.734315
0.61327
0.565377
0.562967
0.583134
0.710472
0.572688
0.410202
0.565178
0.387697
0.700139
0.57661
0.245151
0.543087
0.642126
0.57663
0.887257
0.598809
0.772189
0.296226
0.619816
0.592073
0.517049
0.555827
0.655892
0.617326
0.645563
0.549021
0.557658
0.602208
0.805001
0.567881
0.804522
0.726257
0.573164
0.589139
0.594787
0.657856
0.593806
0.556005
0.63182
0.662558
0.782196
0.594663
0.590821
0.855304
0.843324
0.568311
0.573287
0.25609
0.692615
0.480635
0.650116
0.287608
0.298552
0.266805
0.271173
0.287684
0.303058
0.312313
0.729357
0.539731
0.544576
0.622616
0.606512
0.598944
0.633532
0.586142
0.599495
0.609478
0.596724
0.732671
0.542555
0.753121
0.586015
0.56571
0.597477
0.637477
0.666126
0.620604
0.71073
0.66401
0.615754
0.444047
0.619309
0.605584
0.652016
0.624649
0.59188
0.562883
0.62003
0.646734
0.877934
0.579869
0.853565
0.889757
0.609289
0.852445
0.653942
0.523851
0.713557
0.625437
0.450408
0.395671
0.704481
0.750326
0.635213
0.528059
0.635265
0.301239
0.628034
0.589277
0.300916
0.115299
0.126127
0.544015
0.580108
0.67375
0.647674
0.0592777
0.0619392
0.64141
0.6481
0.613494
0.226115
0.542815
0.631024
0.64343
0.555025
0.489887
0.235472
0.9293
0.583744
0.713246
0.724397
0.520593
0.658861
0.509
0.561658
0.279105
0.421183
0.659645
0.663721
0.570445
0.599136
0.618269
0.651906
0.623535
0.307432
0.547106
0.616844
0.583026
0.874918
0.307372
0.473543
0.487763
0.462248
0.300518
0.300538
0.529562
0.427601
0.611548
0.32901
0.35888
0.117177
0.117176
0.245401
0.389625
0.262497
0.521061
0.563549
0.601424
0.67766
0.614669
0.56908
0.448045
0.277254
0.562558
0.582811
0.564258
0.31156
0.287928
0.224287
0.563463
0.574861
0.461951
0.521758
0.481463
0.440843
0.590106
0.440805
0.520833
0.502157
0.307815
0.380032
0.353398
0.623994
0.246788
0.259982
0.254336
0.589294
0.234983
0.23014
0.410017
0.214646
0.477128
0.47785
0.220336
0.519621
0.244577
0.243124
0.273905
0.23196
0.227742
0.339834
0.270701
0.245999
0.23268
0.475758
0.543012
0.256119
0.525118
0.211013
0.5327
0.423228
0.220456
0.186665
0.208257
0.276322
0.457476
0.376613
0.157553
0.174884
0.509996
0.148308
0.148307
0.16805
0.18863
0.213208
0.248116
0.41028
0.379766
0.510351
0.149005
0.149004
0.448518
0.184464
0.363617
0.167151
0.168152
0.221556
0.384553
0.398199
0.424218
0.388783
0.384544
0.0840108
0.620738
0.107164
0.103829
0.50145
0.49797
0.107597
0.0747334
0.105302
0.462547
SCALARS rr_S_ext' float
LOOKUP_TABLE default
-0.00261864
-0.00598781
-0.00478061
-0.00624996
-0.00327081
-0.00507387
-0.0025892
-0.00621506
-0.00534138
-0.00672896
-0.00237705
-0.00623409
-0.00548577
-0.00579483
-0.00679234
-0.0056976
-0.00490207
-0.00554035
-0.00495981
-0.00485073
-0.0054563
-0.00097098
-0.00559049
-0.00515272
-0.0046707
-0.00538971
-0.00220328
-0.0047334
-0.0037096
-0.00437932
-0.00484631
-0.00383481
-0.0024406
-0.00328082
-0.00322486
-0.0032882
-0.0042577
-0.00323132
-0.00484134
-0.00274328
-0.00311801
-0.00375245
-0.00375284
-0.0053188
-0.00306325
-0.0033825
-0.00466784
-0.00472758
-0.00443124
-0.00423489
-0.00434908
-0.00337407
-0.00524943
-0.0043356
-0.00483281
-0.00222238
-0.00344326
-0.00436738
-0.00344314
-0.00528809
-0.00625757
-0.0061345
-0.00216741
-0.00432524
-0.00587576
-0.00554386
-0.00605301
-0.00523485
-0.00481905
-0.00687219
-0.00569537
-0.00563331
-0.0038525
-0.00448792
-0.0047513
-0.0025189
-0.0048961
-0.00549243
-0.00527888
-0.00372368
-0.00335798
-0.00369213
-0.00698549
-0.00336231
-0.00453577
-0.00168323
-0.0054678
-0.00457146
-0.00324401
-0.000477742
-0.00375684
-0.000519592
-0.00415454
-0.00397946
-0.0035556
-0.00324128
-0.0030841
-0.00590763
-0.00489971
-0.00471315
-0.00400135
-0.00383654
-0.00322613
-0.00559486
-0.00568779
-0.00512201
-0.00450604
-0.00456874
-0.00342461
-0.00682563
-0.00438448
-0.00231086
-0.00308887
-0.00612306
-0.00573654
-0.00418696
-0.00399282
-0.00256276
-0.00414137
-0.00417045
-0.00362924
-0.00662092
-0.00682417
-0.00586301
-0.0064493
-0.00506229
-0.00286513
-0.0063784
-0.00279327
-0.00360548
-0.00297503
-0.00608829
-0.00594837
-0.00597794
-0.00399029
-0.00242601
-0.00267319
-0.00438056
-0.00535583
-0.00242519
-0.0033328
-0.00516342
-0.0039095
-0.00630434
-0.00311917
-0.00514404
-0.00466856
-0.00451257
-0.00288429
-0.0036834
-0.00410921
-0.00587514
-0.00344075
-0.00531877
-0.00616103
-0.00625921
-0.00409601
-0.003433
-0.00341355
-0.00536974
-0.00450655
-0.00341225
-0.00225632
-0.00333228
-0.00331562
-0.00575043
-0.00347924
-0.0035176
-0.00380944
-0.0033905
-0.00507268
-0.00355129
-0.00314289
-0.00395807
-0.0037518
-0.00450303
-0.00501751
-0.00482633
-0.00410335
-0.00481483
-0.00369739
-0.00557897
-0.00598772
-0.00333337
-0.00586636
-0.00333067
-0.00579358
-0.0053266
-0.00497424
-0.00506032
-0.00591783
-0.00280061
-0.00367109
-0.00341239
-0.00596724
-0.00587423
-0.00544624
-0.00593373
-0.0060401
-0.00507359
-0.00622058
-0.00417098
-0.00376227
-0.00679325
-0.00396019
-0.00617021
-0.00491455
-0.00313204
-0.00377486
-0.00615536
-0.00512483
-0.00466434
-0.00600826
-0.00589562
-0.00380966
-0.00378187
-0.00366912
-0.00523044
-0.00576991
-0.00663107
-0.00637051
-0.00693124
-0.00628073
-0.00686365
-0.00575861
-0.00602004
-0.00606688
-0.00571924
-0.00600836
-0.00553225
-0.00544989
-0.00386038
-0.00518911
-0.00607077
-0.00421517
-0.00618879
-0.00568539
-0.00658197
-0.0039555
-0.00625934
-0.00598414
-0.00388527
-0.0053639
-0.00385897
-0.00602642
-0.0054994
-0.00404517
-0.00380676
-0.0032897
-0.00378427
-0.00603465
-0.00276236
-0.00464906
-0.00379255
-0.00425723
-0.0062652
-0.00606547
-0.00190455
-0.00608747
-0.00330854
-0.00359004
-0.00623111
-0.00506524
-0.0036322
-0.00695315
-0.00395219
-0.00190455
-0.00367113
-0.00540931
-0.0067532
-0.00511832
-0.00602522
-0.0056411
-0.00296279
-0.0029013
-0.00247603
-0.00284231
-0.00403771
-0.00308478
-0.00497106
-0.00310815
-0.00535641
-0.00382409
-0.00367667
-0.00430627
-0.00399995
-0.00531794
-0.00383562
-0.0039459
-0.00174628
-0.00398284
-0.00576031
-0.00576438
-0.00521834
-0.00382833
-0.00249765
-0.0072457
-0.00486497
-0.00406147
-0.00374387
-0.00373438
-0.00386133
-0.00471243
-0.00379243
-0.00271204
-0.00374289
-0.00256452
-0.00464257
-0.00381813
-0.00162763
-0.00359641
-0.00425756
-0.00381811
-0.00588273
-0.00396536
-0.00511727
-0.00195828
-0.00410718
-0.0039205
-0.00342972
-0.0036804
-0.00434539
-0.00409304
-0.00427928
-0.00363567
-0.00369311
-0.00398872
-0.0053379
-0.00376079
-0.00533241
-0.00481286
-0.00380236
-0.0039016
-0.00393951
-0.00435865
-0.00393317
-0.00368202
-0.00418499
-0.0043938
-0.00518437
-0.00393875
-0.00391216
-0.0056695
-0.00559012
-0.00376358
-0.00380316
-0.00169148
-0.00458986
-0.00317939
-0.00430744
-0.00189578
-0.00196793
-0.0017587
-0.00178748
-0.00189633
-0.00199763
-0.00205866
-0.00483637
-0.00358121
-0.00360922
-0.00412486
-0.00401737
-0.0039672
-0.00419934
-0.0038823
-0.00397067
-0.00404403
-0.00395248
-0.00485905
-0.00359145
-0.00499451
-0.00388325
-0.00374785
-0.00395742
-0.00422867
-0.00441433
-0.00411163
-0.00470993
-0.00439921
-0.0040784
-0.00293955
-0.00410293
-0.004013
-0.00432419
-0.00413764
-0.00392014
-0.00372846
-0.00410762
-0.00428564
-0.00581936
-0.00384096
-0.0056578
-0.00589584
-0.0040365
-0.00565007
-0.0043333
-0.00346975
-0.00473104
-0.0041438
-0.00298847
-0.00261598
-0.00467144
-0.00497583
-0.00420931
-0.00349868
-0.00421161
-0.00198978
-0.00416171
-0.0039042
-0.00198932
-0.000765494
-0.000837391
-0.00360509
-0.00384247
-0.00446406
-0.00429018
-0.00039375
-0.000411429
-0.00425132
-0.00429568
-0.00406623
-0.00149356
-0.00359524
-0.00418403
-0.00426273
-0.00367694
-0.00324547
-0.00155525
-0.00616134
-0.00386648
-0.00472653
-0.00480043
-0.0034488
-0.00436507
-0.003372
-0.00372096
-0.00184471
-0.00278604
-0.00437025
-0.00439836
-0.00377947
-0.00396908
-0.00409623
-0.00431926
-0.00413121
-0.00203259
-0.00362857
-0.00408585
-0.00386525
-0.0058009
-0.00203215
-0.00313803
-0.00323216
-0.00306654
-0.00199513
-0.00199526
-0.00351259
-0.00283213
-0.00405255
-0.00217513
-0.00238244
-0.000778286
-0.000778282
-0.00162077
-0.00258573
-0.00174226
-0.00345281
-0.00373788
-0.003986
-0.00449205
-0.00407542
-0.00377348
-0.00296965
-0.00183133
-0.00372813
-0.00386372
-0.00374132
-0.00205876
-0.00191086
-0.00148265
-0.00373599
-0.00381068
-0.00305902
-0.00345796
-0.00319111
-0.00292458
-0.00391138
-0.00292432
-0.00345149
-0.00332957
-0.00204293
-0.00252229
-0.00233639
-0.00413648
-0.0016298
-0.00171707
-0.0016795
-0.00390709
-0.00155207
-0.0015196
-0.00271624
-0.00141747
-0.00316581
-0.00317059
-0.00145513
-0.00344278
-0.00161653
-0.00160558
-0.00181023
-0.00153183
-0.00150514
-0.00225533
-0.00178941
-0.00162485
-0.00153664
-0.00315326
-0.00360088
-0.00169259
-0.00348042
-0.00139334
-0.00353107
-0.00280418
-0.00145582
-0.00123352
-0.00137518
-0.00182498
-0.00303141
-0.00249899
-0.00104639
-0.00116145
-0.00338076
-0.000984985
-0.000984975
-0.00111608
-0.00125244
-0.00140947
-0.0016467
-0.00272146
-0.00251991
-0.00338296
-0.000989416
-0.000989408
-0.0029763
-0.00121825
-0.00240915
-0.00110398
-0.00111151
-0.00146454
-0.00255278
-0.00264334
-0.00281601
-0.0025808
-0.00255271
-0.000557931
-0.00412057
-0.000711583
-0.000689593
-0.0033288
-0.00330571
-0.000714626
-0.000496324
-0.000699226
-0.00307037
SCALARS rr_P_ext' float
LOOKUP_TABLE default
7.87071e-05
0.000182381
0.000145441
0.00019032
9.99685e-05
0.000154359
7.78188e-05
0.000189229
0.00016232
0.000204945
7.15039e-05
0.000189809
0.000166979
0.000176528
0.00020734
0.000173372
0.000149406
0.000168659
0.000150635
0.000147524
0.000165912
2.98133e-05
0.000169994
0.000156712
0.000142046
0.000164111
6.64021e-05
0.000144026
0.000112256
0.0001341
0.000147508
0.000116048
7.35405e-05
0.000100383
9.87104e-05
0.000100607
0.000130395
9.88914e-05
0.000147354
8.26643e-05
9.43509e-05
0.000114928
0.000114938
0.00016189
9.24194e-05
0.000102377
0.000141807
0.000143699
0.000134816
0.000128046
0.000131562
0.000102241
0.000160412
0.000131383
0.000147665
6.70782e-05
0.000105399
0.000132346
0.000105394
0.000160836
0.000190709
0.000187172
6.53779e-05
0.00013196
0.000179281
0.000168967
0.000184483
0.000159397
0.000146548
0.000209326
0.000174034
0.000172136
0.000116576
0.000136845
0.000144555
7.58564e-05
0.000149495
0.000167398
0.000160736
0.000112869
0.000101505
0.000112893
0.000213019
0.000101597
0.000137311
5.07917e-05
0.000166372
0.000139363
9.78747e-05
1.46591e-05
0.000113842
1.59429e-05
0.000126862
0.000121269
0.000107757
9.80379e-05
9.32285e-05
0.000179926
0.000149602
0.000143444
0.000121433
0.00011618
9.74799e-05
0.000170339
0.000173211
0.000155986
0.000137432
0.000139034
0.000103475
0.000207941
0.000133355
6.97497e-05
9.3289e-05
0.000186407
0.000174689
0.000126884
0.000122219
7.74647e-05
0.000126761
0.00012639
0.000110191
0.000202076
0.000207854
0.000178741
0.000196495
0.000154548
8.76598e-05
0.000194263
8.44372e-05
0.000109269
9.09085e-05
0.000185424
0.00018138
0.000182072
0.000120838
7.4261e-05
8.07478e-05
0.00013335
0.000163324
7.42348e-05
0.000100942
0.000157272
0.000118725
0.000192016
9.42782e-05
0.000156637
0.000142171
0.00013729
8.7747e-05
0.000111739
0.000124899
0.000178948
0.00010412
0.000161899
0.000187649
0.000190632
0.000124802
0.000103991
0.000103406
0.000163445
0.000136983
0.000103268
6.80969e-05
0.000100803
0.000100434
0.000175125
0.000105391
0.000106551
0.000115278
0.000102705
0.000154903
0.000107616
9.50719e-05
0.000120614
0.000113695
0.000137334
0.000153216
0.000146946
0.000125396
0.000146634
0.000111889
0.000169913
0.00018236
0.000100962
0.000178843
0.000100743
0.000176623
0.000162463
0.000151905
0.00015412
0.000180416
8.46708e-05
0.000111249
0.000103264
0.000181743
0.000178814
0.000165798
0.000180932
0.000183969
0.000154627
0.000189471
0.000126698
0.00011405
0.000207138
0.000119844
0.000188157
0.000149785
9.48391e-05
0.000115196
0.000187488
0.000156411
0.000142101
0.000182964
0.000179786
0.000115575
0.000115229
0.000111241
0.000159529
0.000175791
0.000202026
0.000194058
0.000211152
0.000191337
0.000209092
0.00017541
0.000183748
0.000185171
0.000174567
0.000183394
0.00016904
0.000166525
0.000117102
0.000158068
0.000184839
0.000128116
0.000188917
0.000173559
0.000200412
0.000119912
0.000190571
0.000182257
0.000117875
0.000163691
0.00011707
0.000183782
0.000167425
0.00012273
0.00011542
9.94379e-05
0.000114397
0.000184026
8.3477e-05
0.000141489
0.000114982
0.000129307
0.000190747
0.00018479
5.83356e-05
0.000185454
9.99735e-05
0.000108843
0.00018972
0.000154221
0.000110103
0.000211832
0.000120029
5.83349e-05
0.000111304
0.000164809
0.000205861
0.000155815
0.000183918
0.000171964
9.05363e-05
8.83098e-05
7.47503e-05
8.57663e-05
0.000123338
9.38029e-05
0.000151354
9.42932e-05
0.000163466
0.00011653
0.00011147
0.000131231
0.000121396
0.000161955
0.00011641
0.000119624
5.35423e-05
0.000121638
0.000175843
0.000175963
0.000158952
0.0001162
7.6409e-05
0.000220863
0.000147884
0.000123282
0.000113594
0.000114072
0.000117148
0.000143898
0.000115084
8.1826e-05
0.000113604
7.75084e-05
0.000141604
0.000115838
4.99036e-05
0.000109136
0.00012982
0.00011582
0.000179352
0.000120328
0.000155706
5.9057e-05
0.000124937
0.000118939
0.000104759
0.000111648
0.000132091
0.00012479
0.000130346
0.000110325
0.000112094
0.000121135
0.000162809
0.000114146
0.000162355
0.000146445
0.000116189
0.000118422
0.000119632
0.00013252
0.000119457
0.000111742
0.000127109
0.000134067
0.000157842
0.000119616
0.000118684
0.000172679
0.000170265
0.000114225
0.000116212
5.08574e-05
0.000139653
9.61052e-05
0.00013097
5.65934e-05
5.87481e-05
5.25063e-05
5.33637e-05
5.66157e-05
5.96323e-05
6.14579e-05
0.000147522
0.000109519
0.000109862
0.00012538
0.00012202
0.000120489
0.000127889
0.000117901
0.000120576
0.000123676
0.000120042
0.000148294
0.00010883
0.000152415
0.000118134
0.000113917
0.000120186
0.000129175
0.000134313
0.000124986
0.000143309
0.00013373
0.000123852
8.90969e-05
0.00012471
0.000122087
0.000131976
0.000125689
0.000119032
0.000113254
0.000124842
0.000130377
0.00017723
0.000116669
0.000172305
0.00017934
0.000122685
0.000172032
0.000131815
0.000105377
0.000144238
0.00012598
9.13814e-05
7.89286e-05
0.00014249
0.000151827
0.000128056
0.000106371
0.00012836
5.98366e-05
0.000126607
0.000118693
5.99977e-05
2.34687e-05
2.56739e-05
0.000109689
0.000116707
0.000135735
0.000130324
1.20963e-05
1.26394e-05
0.000129443
0.000130797
0.000123802
4.49131e-05
0.000109175
0.000127585
0.000129561
0.000111744
9.86413e-05
4.67577e-05
0.000187833
0.000117428
0.000143805
0.000146054
0.000104809
0.000132688
0.000102475
0.000113092
5.55921e-05
8.4206e-05
0.000132844
0.000133824
0.000114905
0.000120614
0.000124524
0.000131326
0.000125599
6.13273e-05
0.000110767
0.000124107
0.000117798
0.000176856
6.13088e-05
9.54697e-05
9.83218e-05
9.37048e-05
6.11615e-05
6.1165e-05
0.000107275
8.59997e-05
0.000123295
6.56134e-05
7.30152e-05
2.39022e-05
2.39019e-05
4.872e-05
7.91333e-05
5.33505e-05
0.000105035
0.000114132
0.000121329
0.000136827
0.000124254
0.000115087
9.04169e-05
5.50696e-05
0.000113447
0.000117737
0.000114082
6.19943e-05
5.84883e-05
4.47064e-05
0.000113914
0.000116078
9.282e-05
0.000105249
9.71543e-05
8.93763e-05
0.000119104
8.93673e-05
0.000105014
0.000101529
6.25441e-05
7.72263e-05
7.04812e-05
0.000126019
4.89736e-05
5.1609e-05
5.04518e-05
0.000119109
4.66653e-05
4.56358e-05
8.25433e-05
4.25866e-05
9.6804e-05
9.69493e-05
4.37275e-05
0.000104675
4.87178e-05
4.82426e-05
5.45414e-05
4.60241e-05
4.53491e-05
6.90272e-05
5.39543e-05
4.88562e-05
4.61752e-05
9.59968e-05
0.000109854
5.09861e-05
0.00010596
4.18475e-05
0.000107548
8.52664e-05
4.37364e-05
3.71501e-05
4.13053e-05
5.48587e-05
9.22103e-05
7.64304e-05
3.21283e-05
3.5655e-05
0.000102993
3.02419e-05
3.02413e-05
3.42643e-05
3.8411e-05
4.2509e-05
5.0409e-05
8.31221e-05
7.70714e-05
0.000103044
3.03526e-05
3.03522e-05
9.10521e-05
3.66151e-05
7.32455e-05
3.31867e-05
3.35084e-05
4.41548e-05
7.82232e-05
8.09955e-05
8.62785e-05
7.90744e-05
7.82203e-05
1.71267e-05
0.000126252
2.18295e-05
2.1174e-05
0.000102005
0.0001013
2.19438e-05
1.52362e-05
2.14515e-05
9.40651e-05
SCALARS rr_S' float
LOOKUP_TABLE default
0.00245908
0.00562405
0.00449012
0.00587026
0.00307224
0.00476556
0.00243143
0.00583747
0.00501673
0.00632018
0.00223223
0.00585534
0.00515247
0.00544281
0.00637988
0.0053514
0.00460431
0.00520374
0.00465832
0.00455595
0.00512471
0.000912082
0.00525075
0.00483959
0.00438686
0.00506226
0.00206911
0.00444578
0.00348391
0.00411354
0.00455186
0.00360151
0.00229197
0.00308168
0.00302914
0.00308861
0.00399931
0.0030352
0.00454719
0.00257622
0.00292831
0.00352473
0.00352509
0.00499564
0.00287676
0.00317672
0.00438411
0.00444025
0.00416198
0.0039772
0.00408447
0.00316886
0.00493073
0.00407191
0.0045394
0.00208709
0.00323428
0.00410176
0.00323417
0.00496674
0.00587747
0.00576196
0.00203545
0.00406257
0.00551893
0.00520711
0.00568534
0.00491682
0.00452619
0.00645471
0.00534959
0.0052913
0.00361812
0.00421534
0.0044626
0.00236549
0.0045988
0.0051588
0.00495817
0.00349722
0.00315364
0.003468
0.00656122
0.00315768
0.00425985
0.00158076
0.00513556
0.00429379
0.00304652
0.000448758
0.00352835
0.000488069
0.00390227
0.00373773
0.00333936
0.00304407
0.00289643
0.00554874
0.0046022
0.00442678
0.00375808
0.00360317
0.00302979
0.00525494
0.00534224
0.00481085
0.00423237
0.00429114
0.00321619
0.00641099
0.00411805
0.00217019
0.00290086
0.00575105
0.00538803
0.00393232
0.00375048
0.00240681
0.00389002
0.00391682
0.00340861
0.00621885
0.0064096
0.0055069
0.00605753
0.0047549
0.00269122
0.00599091
0.0026233
0.00338621
0.00279441
0.00571842
0.00558708
0.00561478
0.00374757
0.00227877
0.00251049
0.00411442
0.00503053
0.002278
0.00313008
0.00484975
0.00367185
0.00592135
0.00292936
0.00483152
0.00438493
0.00423836
0.00270903
0.00345944
0.00385946
0.00551822
0.00323143
0.00499562
0.00578675
0.00587896
0.0038472
0.00322419
0.00320593
0.00504349
0.00423265
0.00320466
0.00211897
0.00312954
0.00311396
0.00540108
0.00326762
0.00330365
0.00357768
0.00318428
0.00476467
0.0033353
0.00295167
0.00371764
0.00352362
0.00422954
0.00471285
0.00453311
0.00385423
0.00452232
0.00347245
0.00524004
0.00562396
0.00313062
0.00551004
0.00312802
0.00544169
0.0050031
0.00467221
0.0047529
0.00555838
0.00263019
0.00344783
0.00320478
0.00560472
0.00551733
0.00511534
0.00557334
0.00567316
0.00476541
0.00584268
0.00391745
0.00353348
0.00638065
0.00371926
0.00579546
0.00461603
0.00294152
0.00354563
0.00578142
0.00481362
0.00438099
0.00564324
0.00553754
0.00357802
0.00355214
0.00344599
0.00491278
0.0054194
0.00622825
0.00598351
0.00651018
0.00589919
0.00644669
0.00540878
0.00565447
0.00569847
0.00537194
0.0056435
0.00519637
0.00511901
0.00362565
0.00487388
0.00570194
0.00395899
0.00581298
0.00534015
0.00618208
0.00371496
0.00587905
0.0056206
0.00364903
0.00503816
0.00362433
0.00566041
0.00516527
0.00379922
0.00357527
0.00308951
0.00355399
0.00566813
0.00259425
0.00436658
0.00356192
0.00399845
0.00588456
0.005697
0.00178897
0.00571767
0.00310719
0.00337172
0.00585254
0.0047575
0.00341131
0.00653076
0.00371195
0.00178897
0.00344788
0.00508072
0.00634301
0.00480735
0.00565934
0.00529846
0.00278292
0.00272502
0.00232531
0.00266928
0.00379255
0.00289732
0.00466905
0.00291917
0.00503113
0.0035918
0.00345308
0.00404469
0.00375676
0.00499486
0.00360243
0.00370594
0.00164033
0.00374101
0.00541052
0.00541434
0.00490133
0.00359559
0.00234604
0.00680559
0.0045693
0.00381455
0.00351624
0.00350764
0.00362656
0.00442629
0.00356186
0.00254693
0.00351533
0.00240846
0.00436061
0.00358598
0.00152887
0.00337775
0.00399896
0.00358595
0.00552542
0.00372427
0.00480633
0.00183905
0.0038576
0.00368212
0.00322148
0.00345662
0.0040813
0.00384444
0.00401931
0.00341463
0.00346859
0.00374626
0.00501371
0.00353215
0.00500844
0.00452042
0.00357151
0.0036644
0.00370003
0.00409376
0.00369409
0.00345816
0.0039306
0.00412697
0.0048694
0.00369932
0.00367429
0.00532508
0.00525052
0.00353476
0.00357227
0.00158842
0.00431096
0.00298592
0.00404566
0.00178008
0.00184783
0.00165137
0.00167839
0.0017806
0.00187571
0.00193302
0.00454264
0.00336382
0.00338994
0.00387417
0.00377316
0.00372604
0.00394422
0.0036463
0.0037293
0.00379854
0.00371222
0.00456397
0.00337302
0.0046912
0.00364728
0.00352007
0.00371686
0.00397193
0.0041461
0.00386174
0.00442374
0.00413184
0.00383048
0.00276078
0.00385356
0.00376915
0.0040616
0.00388613
0.00368183
0.00350183
0.00385797
0.00402522
0.00546583
0.00360748
0.00531408
0.00553757
0.00379117
0.0053068
0.00406998
0.00325883
0.00444369
0.00389196
0.00280706
0.00245672
0.00438773
0.00467365
0.00395353
0.00328605
0.00395579
0.00186855
0.00390882
0.00366693
0.0018682
0.000719047
0.000786582
0.00338603
0.0036089
0.00419277
0.0040294
0.000369868
0.000386474
0.00399304
0.0040347
0.00381918
0.00140257
0.00337669
0.00392991
0.00400365
0.00345346
0.00304822
0.00146049
0.0057871
0.00363145
0.00443933
0.00450874
0.00323919
0.00409978
0.00316705
0.00349481
0.00173237
0.0026165
0.00410464
0.0041311
0.00354978
0.00372784
0.00384728
0.00405677
0.00388014
0.00190885
0.00340823
0.00383749
0.00363047
0.00544856
0.00190843
0.00294735
0.00303576
0.00288036
0.00187407
0.00187419
0.0032993
0.00265996
0.0038063
0.0020427
0.00223787
0.000731079
0.000731074
0.00152201
0.00242879
0.00163652
0.00324299
0.00351091
0.00374382
0.00421916
0.00382789
0.0035443
0.00278923
0.00171975
0.0035016
0.00362902
0.00351409
0.00193337
0.00179488
0.00139237
0.00350908
0.00357918
0.00287303
0.00324786
0.00299723
0.00274703
0.00367375
0.00274678
0.00324176
0.00312734
0.00191895
0.00236921
0.00219415
0.0038852
0.00153049
0.00161244
0.00157715
0.00366977
0.0014575
0.00142699
0.00255115
0.00133109
0.00297363
0.00297813
0.00136646
0.00323355
0.00151809
0.00150774
0.00169999
0.00143848
0.00141348
0.00211845
0.00168046
0.00152585
0.001443
0.00296168
0.0033822
0.0015895
0.00326897
0.00130842
0.00331655
0.00263377
0.00136711
0.00115839
0.00129137
0.00171378
0.0028472
0.0023473
0.00098292
0.001091
0.00317539
0.000925236
0.000925226
0.00104838
0.00117645
0.00132366
0.00154675
0.00255622
0.00236695
0.00317745
0.000929389
0.000929381
0.00279564
0.00114402
0.00226274
0.00103671
0.00104383
0.00137536
0.00239787
0.00248294
0.00264512
0.00242419
0.00239781
0.000524086
0.00387052
0.000668411
0.000647763
0.0031268
0.00310512
0.000671278
0.000466216
0.000656805
0.00288405
SCALARS rr_P' float
LOOKUP_TABLE default
8.08539e-05
0.000181376
0.000145051
0.000189381
9.85998e-05
0.000153955
7.99499e-05
0.000188363
0.000162327
0.00020384
7.33111e-05
0.00018894
0.000166326
0.000175496
0.000205121
0.000172823
0.000148357
0.000167954
0.000150862
0.000147251
0.000165675
2.90852e-05
0.00016975
0.000156415
0.00014179
0.000163335
6.77667e-05
0.00014359
0.000113427
0.000131677
0.000146946
0.000117251
7.50856e-05
9.87569e-05
9.70144e-05
9.89808e-05
0.000127995
9.7231e-05
0.000146801
8.43931e-05
9.53431e-05
0.000112797
0.000112811
0.000161271
9.40715e-05
0.000103397
0.000141923
0.000143627
0.000134446
0.000129644
0.000133048
0.000102965
0.000158291
0.0001323
0.00014575
6.82056e-05
0.00010358
0.00013327
0.000103578
0.000160514
0.000189395
0.00018537
6.65796e-05
0.00013071
0.000177547
0.000167779
0.000183193
0.000158639
0.000146307
0.000208155
0.000171745
0.000169875
0.000117803
0.000135738
0.000144151
7.75589e-05
0.000147799
0.000166225
0.000159977
0.000113586
0.000102837
0.000111234
0.000211252
0.000103026
0.000138609
5.16793e-05
0.000165868
0.000138305
9.96203e-05
1.43241e-05
0.000114643
1.55794e-05
0.000125403
0.000120461
0.000108482
9.91762e-05
9.44461e-05
0.000178964
0.000147912
0.000142924
0.00012184
0.000117187
9.88581e-05
0.000169576
0.000172334
0.000155183
0.000136239
0.000138567
0.000104943
0.000206701
0.000133083
7.09211e-05
9.47159e-05
0.000185605
0.000173817
0.000127756
0.000120114
7.84865e-05
0.00012459
0.000127244
0.000110437
0.000199986
0.000206714
0.000177373
0.00019528
0.000152851
8.62475e-05
0.000193227
8.55397e-05
0.000110005
8.97139e-05
0.000184444
0.000179905
0.00018109
0.000121879
7.29797e-05
8.19489e-05
0.000132799
0.000161968
7.29562e-05
0.000101775
0.000156405
0.000118929
0.000190975
9.55349e-05
0.000155879
0.000141457
0.000136915
8.75161e-05
0.000112224
0.000124848
0.000177967
0.000105208
0.000161256
0.000186636
0.000189619
0.000124011
0.000104815
0.000104215
0.00016281
0.000136908
0.000104321
6.92568e-05
0.000101942
0.000101234
0.000174219
0.000106228
0.000107402
0.000116479
0.000103516
0.00015311
0.000108367
9.61503e-05
0.000119814
0.00011448
0.000136157
0.000151447
0.000146277
0.000123721
0.000145874
0.000113051
0.000169012
0.000181398
0.00010179
0.000177474
0.000101908
0.000175274
0.000161041
0.000150128
0.000153295
0.000179027
8.57468e-05
0.000112019
0.000104337
0.000180769
0.000178087
0.000165096
0.000179465
0.000182969
0.000153557
0.000188428
0.000126837
0.000114747
0.000205465
0.000121082
0.000186598
0.000148737
9.56789e-05
0.000114042
0.000186448
0.000154799
0.000141243
0.000182053
0.00017829
0.000116064
0.000114503
0.000111884
0.000158135
0.000174715
0.000200792
0.000192944
0.000209907
0.000190204
0.000207861
0.000174422
0.000181821
0.000183245
0.000172736
0.000181464
0.00016684
0.000164355
0.000117625
0.000157164
0.000183989
0.00012807
0.000186894
0.00017168
0.000199471
0.000120634
0.000189717
0.000181281
0.000118357
0.000162045
0.000117566
0.000182237
0.000166696
0.000123223
0.000116071
0.000100751
0.000115884
0.000182493
8.46304e-05
0.000140985
0.000115649
0.000129477
0.000189899
0.000183671
5.72445e-05
0.000184346
0.000101376
0.000109474
0.00018885
0.000153517
0.000110784
0.000210555
0.000120217
5.72452e-05
0.000111941
0.00016379
0.000204329
0.000155154
0.000181963
0.000170677
8.93403e-05
8.7967e-05
7.59675e-05
8.72668e-05
0.000121816
9.36623e-05
0.000150662
9.46903e-05
0.000161815
0.000115759
0.000112113
0.000130348
0.000121789
0.00016112
0.000116783
0.000120337
5.24132e-05
0.000120194
0.000173946
0.000174075
0.000158057
0.000116545
7.51976e-05
0.000219245
0.000147789
0.000123634
0.000114035
0.000112666
0.000117629
0.000142242
0.00011549
8.32815e-05
0.000113949
7.85548e-05
0.000140357
0.000116312
4.8853e-05
0.00010952
0.000128773
0.000116337
0.000177957
0.000120763
0.000155233
6.01733e-05
0.000124641
0.000119436
0.000103483
0.000112134
0.000132005
0.000123815
0.000129616
0.00011072
0.000112431
0.000121334
0.000161382
0.000114495
0.000161613
0.000145998
0.00011466
0.000118778
0.000119848
0.00013237
0.00011963
0.000112116
0.000127284
0.000132765
0.000157135
0.000119815
0.000119188
0.000171744
0.000169334
0.000114588
0.000114686
5.22022e-05
0.000139243
9.737e-05
0.000130804
5.91084e-05
6.13564e-05
5.4827e-05
5.57268e-05
5.91171e-05
6.2285e-05
6.4183e-05
0.000146207
0.000107874
0.000109427
0.000125317
0.000122183
0.000120666
0.000127227
0.000118099
0.000120799
0.00012181
0.000120219
0.000146778
0.000109597
0.000150891
0.000117835
0.000113866
0.000120378
0.000127572
0.000133917
0.000124901
0.000142882
0.000133635
0.00012407
8.96737e-05
0.000124655
0.000121763
0.000130613
0.000125818
0.000119276
0.000113383
0.000124812
0.000130042
0.000176306
0.000116807
0.000171416
0.000178934
0.000122645
0.000171235
0.000131505
0.000105542
0.000143119
0.000125856
9.00325e-05
8.03302e-05
0.00014122
0.000150352
0.000127724
0.000106255
0.000127464
6.13935e-05
0.000126282
0.000118582
6.11207e-05
2.29782e-05
2.51351e-05
0.00010937
0.000116865
0.000135555
0.000130454
1.17858e-05
1.2315e-05
0.000128843
0.000130184
0.000123242
4.60844e-05
0.000109379
0.000126538
0.000129515
0.000111735
9.86112e-05
4.80039e-05
0.000186406
0.000117607
0.000143397
0.000145639
0.000104806
0.000132603
0.000102472
0.000113059
5.67426e-05
8.53368e-05
0.000132763
0.000133437
0.000114787
0.000120625
0.000124423
0.000131168
0.000125471
6.24151e-05
0.000109574
0.000124256
0.000116989
0.000175483
6.2409e-05
9.52109e-05
9.80836e-05
9.24712e-05
5.98976e-05
5.99021e-05
0.000106006
8.61652e-05
0.000122956
6.68129e-05
7.15519e-05
2.33056e-05
2.33057e-05
5.00367e-05
7.7806e-05
5.2386e-05
0.000104779
0.000112834
0.000120851
0.000136061
0.00012328
0.000114092
9.00039e-05
5.65075e-05
0.00011308
0.000116962
0.000113153
6.33981e-05
5.74891e-05
4.5568e-05
0.000113
0.000115415
9.31688e-05
0.000104851
9.67228e-05
8.81796e-05
0.000118524
8.8173e-05
0.000104709
0.000100697
6.14455e-05
7.58535e-05
7.17618e-05
0.000125261
5.03408e-05
5.30166e-05
5.18986e-05
0.000118205
4.79003e-05
4.69763e-05
8.25484e-05
4.37924e-05
9.5372e-05
9.55173e-05
4.49422e-05
0.000104553
4.97204e-05
4.95974e-05
5.56991e-05
4.73227e-05
4.63119e-05
6.78573e-05
5.50003e-05
5.01428e-05
4.74617e-05
9.55824e-05
0.00010883
5.20952e-05
0.000105496
4.30679e-05
0.000106965
8.51492e-05
4.49807e-05
3.79769e-05
4.25014e-05
5.63414e-05
9.19993e-05
7.52626e-05
3.13451e-05
3.48001e-05
0.00010238
2.95071e-05
2.9507e-05
3.34377e-05
3.75778e-05
4.33064e-05
4.95329e-05
8.21191e-05
7.58921e-05
0.000102471
2.96745e-05
2.96745e-05
8.96055e-05
3.76179e-05
7.31665e-05
3.408e-05
3.41715e-05
4.50199e-05
7.66844e-05
7.94088e-05
8.46061e-05
7.75362e-05
7.66833e-05
1.67185e-05
0.000123796
2.13418e-05
2.06561e-05
9.9992e-05
9.92963e-05
2.14042e-05
1.48715e-05
2.09696e-05
9.22589e-05
SCALARS rr_T' float
LOOKUP_TABLE default
0.000158742
0.000361888
0.000289
0.000377751
0.000197548
0.000306731
0.000156959
0.000375653
0.000322979
0.000406686
0.000144072
0.000376803
0.000331592
0.000350216
0.000410342
0.000344417
0.000296234
0.000334884
0.000299948
0.000293261
0.000329885
5.85956e-05
0.000337999
0.000311518
0.000282378
0.000325764
0.00013348
0.000286139
0.000224524
0.000264411
0.000292941
0.000232102
0.000147863
0.000198116
0.000194719
0.000198562
0.000257062
0.000195114
0.000292643
0.0001662
0.00018872
0.000226555
0.000226578
0.000321501
0.000185534
0.000204717
0.000282273
0.00028585
0.000267879
0.000256367
0.000263251
0.000204153
0.000317065
0.000262328
0.000291907
0.000134589
0.000207905
0.000264252
0.000207898
0.000319699
0.000378152
0.000370628
0.00013128
0.000261321
0.000354994
0.000335017
0.000365787
0.000316403
0.000291351
0.000415337
0.000344002
0.000340253
0.000233176
0.000271183
0.000287224
0.000152628
0.000295767
0.000331909
0.000319066
0.000225292
0.000203293
0.000222975
0.000422092
0.000203573
0.000274503
0.000101945
0.000330534
0.000276242
0.000196481
2.88342e-05
0.000227312
3.13602e-05
0.000250968
0.000240489
0.000215129
0.000196201
0.000186711
0.000357046
0.000295986
0.000284897
0.000242025
0.000232168
0.00019533
0.000338169
0.000343771
0.00030957
0.000272266
0.000276175
0.000207348
0.000412512
0.00026507
0.000139949
0.00018704
0.000370102
0.000346716
0.000253332
0.000241088
0.000155151
0.00025006
0.000252331
0.000219495
0.000399996
0.000412439
0.000354285
0.000389762
0.000305819
0.000173014
0.0003855
0.000169104
0.000218148
0.000179694
0.000367969
0.00035943
0.000361297
0.000241471
0.000146484
0.000161861
0.000264782
0.000323622
0.000146434
0.000201677
0.000312066
0.000236434
0.000381023
0.000188839
0.000310911
0.000282171
0.000272796
0.000174363
0.000222814
0.000248464
0.000355082
0.000208253
0.000321495
0.000372362
0.000378298
0.000247535
0.000207734
0.000206555
0.000324579
0.000272484
0.000206523
0.000136649
0.000201704
0.000200633
0.00034755
0.000210532
0.000212854
0.000230567
0.000205162
0.00030643
0.000214873
0.00019024
0.000239192
0.000227004
0.000272086
0.000303098
0.000291718
0.000247837
0.000291006
0.000223784
0.000337184
0.00036189
0.000201711
0.000354487
0.000201611
0.000350089
0.000321842
0.00030048
0.000305836
0.000357596
0.000169543
0.000222122
0.000206535
0.00036065
0.000355068
0.000329194
0.000358546
0.000365052
0.000306601
0.000375958
0.000252233
0.000227621
0.000410483
0.000239689
0.00037283
0.000296989
0.00018954
0.000228061
0.000372016
0.000309611
0.000281889
0.000363142
0.000356237
0.000230449
0.000228553
0.000221978
0.000316032
0.000348705
0.00040075
0.000385014
0.000418896
0.000379581
0.000414811
0.000348034
0.000363691
0.000366524
0.000345519
0.000362984
0.000334154
0.00032918
0.000233522
0.000313613
0.000366934
0.00025487
0.00037388
0.000343465
0.000397829
0.000239311
0.000378335
0.00036167
0.000235019
0.000324063
0.000233431
0.000364138
0.000332405
0.00024469
0.000230303
0.000199161
0.0002291
0.000364636
0.000167244
0.000281024
0.000229447
0.000257455
0.00037869
0.000366568
0.000114986
0.0003679
0.000200316
0.000217195
0.000376626
0.000306157
0.000219753
0.000420217
0.000239013
0.000114986
0.000222099
0.000326911
0.000408083
0.000309372
0.000364001
0.000340881
0.000178952
0.000175371
0.000149944
0.000172145
0.000243894
0.000186502
0.000300464
0.000188013
0.000323609
0.000231096
0.000222435
0.000260236
0.000241936
0.000321416
0.000231996
0.000238728
0.000105411
0.000240589
0.000347992
0.00034824
0.000315381
0.00023155
0.000150827
0.000437847
0.000294155
0.000245649
0.00022646
0.000225572
0.000233572
0.00028467
0.00022939
0.00016426
0.000226384
0.000155262
0.000280512
0.000230958
9.82488e-05
0.000217534
0.000257265
0.000230965
0.000355473
0.000239853
0.000309341
0.000118618
0.000248296
0.000237152
0.000207173
0.000222633
0.00026274
0.000247328
0.000258627
0.00021991
0.000223372
0.000241224
0.000322525
0.000227467
0.000322304
0.000290941
0.000229662
0.000235982
0.00023825
0.000263529
0.000237859
0.000222709
0.000253086
0.000265461
0.000313359
0.000238201
0.00023665
0.000342654
0.000337855
0.000227639
0.000229711
0.000102531
0.000277464
0.000192482
0.00026043
0.000115108
0.000119488
0.000106783
0.000108531
0.000115139
0.000121292
0.000124996
0.000292219
0.000216276
0.000218163
0.000249409
0.000242949
0.000239917
0.000253806
0.000234788
0.000240136
0.000244225
0.000239028
0.000293556
0.000217305
0.000301747
0.000234757
0.000226613
0.000239329
0.000255428
0.000266852
0.000248604
0.00028472
0.000265992
0.000246649
0.000177853
0.000248084
0.000242597
0.00026124
0.000250215
0.000237084
0.000225473
0.000248372
0.000259081
0.000351719
0.000232277
0.000341956
0.000356434
0.00024407
0.000341504
0.000261967
0.000209837
0.000285881
0.000250542
0.000180482
0.000158441
0.000282252
0.000300626
0.000254466
0.000211534
0.00025451
0.000120608
0.00025159
0.000236056
0.000120497
4.62082e-05
5.05478e-05
0.000217934
0.000232372
0.000269897
0.000259439
2.37593e-05
2.48261e-05
0.000256959
0.00025964
0.000245775
9.05305e-05
0.000217431
0.000252817
0.000257746
0.000222331
0.000196239
9.42752e-05
0.000372316
0.000233828
0.000285728
0.000290195
0.000208538
0.000263929
0.000203894
0.00022499
0.000111758
0.000168672
0.000264243
0.000265888
0.000228513
0.00024
0.000247669
0.000261146
0.00024978
0.000123107
0.000219209
0.000247088
0.000233581
0.000350529
0.000123083
0.000189701
0.000195397
0.000185219
0.000120437
0.000120445
0.000212185
0.000171281
0.000244987
0.000131747
0.000143824
4.69651e-05
4.69648e-05
9.82498e-05
0.000156133
0.000105193
0.000208736
0.0002258
0.000240936
0.000271487
0.000246263
0.000228002
0.000179494
0.000111004
0.000225363
0.000233494
0.000226068
0.000124749
0.000115381
8.9811e-05
0.000225748
0.000230304
0.000185034
0.000209021
0.000192881
0.000176644
0.000236407
0.000176628
0.000208646
0.000201187
0.000123352
0.000152293
0.000141513
0.000249989
9.88046e-05
0.000104089
0.000101825
0.000236095
9.40802e-05
9.21367e-05
0.000164244
8.59356e-05
0.000191189
0.000191478
8.82146e-05
0.000208153
9.79329e-05
9.73378e-05
0.000109675
9.28677e-05
9.11905e-05
0.000136181
0.000108395
9.84908e-05
9.31563e-05
0.000190595
0.000217561
0.000102552
0.00021037
8.44797e-05
0.000213412
0.00016954
8.82617e-05
7.47414e-05
8.33766e-05
0.000110629
0.000183263
0.000150913
6.31471e-05
7.00927e-05
0.000204318
5.94417e-05
5.94411e-05
6.73538e-05
7.55981e-05
8.53749e-05
9.94283e-05
0.000164392
0.000152177
0.000204459
5.97185e-05
5.9718e-05
0.000179729
7.3852e-05
0.00014566
6.69215e-05
6.73325e-05
8.87169e-05
0.000154111
0.00015958
0.000170006
0.000155806
0.000154107
3.36711e-05
0.000248763
4.29494e-05
4.1615e-05
0.000200959
0.000199565
4.31251e-05
2.99528e-05
4.2203e-05
0.000185366
SCALARS rr_uec(SIM,_S_ext) float
LOOKUP_TABLE default
0.0195344
0.0444411
0.0354965
0.0463909
0.0242456
0.0376744
0.0193151
0.0461339
0.0396769
0.0499425
0.0177275
0.0462752
0.0407246
0.0430064
0.0503731
0.0423018
0.0363747
0.0411283
0.0368513
0.0360219
0.0405213
0.00718605
0.0415182
0.0382642
0.0346852
0.0400067
0.0164191
0.0351442
0.0276006
0.0324417
0.0359779
0.028532
0.0181888
0.024311
0.0238925
0.0243658
0.0315393
0.0239417
0.0359414
0.0204443
0.0231993
0.0277961
0.0277991
0.0394855
0.0228184
0.025165
0.0346781
0.0351145
0.0329022
0.0315192
0.032363
0.0250909
0.0389157
0.0322406
0.0358285
0.0165516
0.0255103
0.032477
0.0255095
0.0392689
0.0464339
0.0455015
0.0161461
0.0320823
0.043582
0.0411366
0.0449153
0.0388571
0.0357878
0.0510044
0.042222
0.041762
0.0286643
0.0332961
0.0352781
0.0187767
0.0363064
0.0407551
0.0391842
0.0276878
0.0249949
0.0273645
0.0518244
0.0250308
0.0337422
0.0125376
0.040597
0.0339184
0.0241648
0.00353653
0.0279371
0.00384636
0.0308068
0.0295302
0.0264393
0.0241208
0.022956
0.0438468
0.0363334
0.0349904
0.0297383
0.0285369
0.0240174
0.041531
0.0422172
0.0380171
0.0334278
0.0339197
0.0254952
0.0506563
0.0325586
0.0172108
0.0229998
0.0454532
0.0425793
0.0311347
0.0295818
0.0190758
0.0306828
0.0310115
0.0269681
0.0491045
0.0506489
0.043501
0.0478618
0.0375413
0.0212307
0.0473411
0.0207912
0.0268103
0.0220553
0.0451885
0.0441313
0.0443688
0.0296803
0.0179738
0.019903
0.0325188
0.0397342
0.0179678
0.0247884
0.0383222
0.0290483
0.0467909
0.0232179
0.0381825
0.0346522
0.033506
0.0214163
0.0273796
0.0305221
0.0436052
0.0256005
0.0394844
0.0457274
0.0464569
0.0303963
0.0255323
0.0253873
0.0398635
0.0334725
0.0253874
0.0168052
0.0247968
0.0246596
0.0426812
0.0258763
0.0261618
0.0283434
0.0252162
0.0376147
0.0264083
0.0233875
0.0293713
0.027899
0.033406
0.0372058
0.0358257
0.0304186
0.0357369
0.0275095
0.0414077
0.0444418
0.0247925
0.0435257
0.0247857
0.0429859
0.0395144
0.0368839
0.037558
0.0439073
0.0208446
0.0272991
0.0253891
0.0442895
0.0436076
0.0404294
0.0440229
0.0448298
0.0376477
0.0461689
0.0309882
0.0279736
0.0503999
0.0294646
0.0457761
0.0364672
0.0232975
0.0279978
0.0456845
0.0380085
0.0346154
0.0445964
0.0437387
0.0283176
0.0280652
0.0272795
0.0388012
0.0428202
0.0492113
0.0472803
0.0514405
0.0466126
0.0509389
0.0427391
0.0446471
0.0449951
0.0424163
0.0445602
0.0410135
0.040403
0.0286957
0.038512
0.0450634
0.0313092
0.045897
0.042163
0.0488574
0.0294101
0.046464
0.0444146
0.0288789
0.0397834
0.0286841
0.0447084
0.0408237
0.0300672
0.0283023
0.0244869
0.0281677
0.04477
0.0205635
0.0345149
0.0281974
0.0316301
0.0465078
0.0450141
0.0141075
0.045178
0.0246301
0.0266918
0.0462538
0.0375991
0.0270068
0.0516022
0.0293648
0.0141075
0.0272943
0.0401438
0.0501072
0.037995
0.0446845
0.0418553
0.0219641
0.0215384
0.0184393
0.0211711
0.0299366
0.0229089
0.0369
0.023103
0.0397276
0.0283771
0.0273357
0.0319549
0.0297272
0.0394713
0.0285058
0.0293383
0.0129305
0.0295321
0.042719
0.0427496
0.0387293
0.0284505
0.0185086
0.0537623
0.0361343
0.0301826
0.0278268
0.0276878
0.0287011
0.0349437
0.0281862
0.0202019
0.0278159
0.0190898
0.0344399
0.02838
0.012052
0.0267293
0.0315873
0.0283815
0.0436464
0.0294719
0.037994
0.0145893
0.0304977
0.0291412
0.0254296
0.0273574
0.0322752
0.0303677
0.0317601
0.0270214
0.0274458
0.0296366
0.0395981
0.027949
0.0395821
0.035734
0.0281882
0.0289952
0.0292716
0.0323711
0.0292229
0.0273649
0.0310935
0.0325899
0.0384838
0.0292653
0.0290796
0.0420789
0.0414895
0.0279703
0.0281943
0.0126169
0.0340788
0.0236657
0.0319901
0.0141811
0.0147207
0.0131552
0.0133707
0.0141848
0.0149429
0.0153991
0.035877
0.0265415
0.0267937
0.030638
0.0298481
0.0294758
0.0311686
0.028846
0.0295034
0.0299713
0.0293665
0.0360377
0.0267073
0.0370441
0.0288343
0.0278378
0.0294037
0.0313521
0.0327754
0.0305388
0.03497
0.0326746
0.0303035
0.0218578
0.0304754
0.029797
0.0320704
0.0307402
0.0291289
0.0277007
0.0305111
0.0318219
0.0431927
0.0285367
0.0419938
0.0437802
0.0299824
0.0419398
0.0321769
0.0257803
0.0351017
0.0307762
0.0221493
0.0194862
0.0346534
0.036907
0.031255
0.0259843
0.0312514
0.014841
0.0309018
0.0289969
0.0148201
0.00566829
0.00620058
0.0267673
0.0285487
0.033153
0.0318733
0.0029135
0.00304432
0.031557
0.031886
0.0301837
0.0111399
0.026714
0.031041
0.0316624
0.0273125
0.0241068
0.0116012
0.045715
0.0287279
0.0350941
0.0356427
0.0256181
0.0324214
0.0250476
0.0276386
0.0137472
0.0207385
0.03246
0.0326572
0.0280701
0.0294834
0.0304236
0.0320783
0.0306825
0.0151406
0.0269097
0.0303563
0.0286817
0.0430395
0.0151377
0.0233001
0.0240001
0.0227333
0.0147742
0.0147752
0.0260455
0.0210439
0.0300903
0.0162036
0.0176439
0.00575948
0.00575946
0.0120906
0.0191584
0.0129066
0.0256384
0.0277177
0.0295907
0.0333391
0.0302371
0.0279933
0.0220436
0.0136594
0.0276793
0.0286714
0.0277568
0.0153471
0.0141576
0.0110464
0.0277179
0.0282815
0.0227362
0.0256712
0.0236879
0.0216804
0.0290326
0.0216786
0.0256267
0.0247019
0.0151351
0.0186858
0.0174046
0.0306983
0.0121592
0.0128088
0.0125315
0.0289891
0.011577
0.0113397
0.0201769
0.0105758
0.0234633
0.0234988
0.0108558
0.0255691
0.0120465
0.0119787
0.0134914
0.0114287
0.0112176
0.01671
0.0133326
0.0121197
0.0114641
0.0234073
0.0267102
0.0126156
0.0258358
0.0103972
0.0262076
0.0208256
0.0108621
0.00919477
0.0102612
0.0136141
0.0225099
0.0185199
0.00774426
0.00859631
0.02509
0.00728988
0.00728982
0.00826032
0.00927301
0.0105007
0.0121999
0.0201786
0.0186749
0.0251079
0.00732483
0.00732479
0.0220552
0.00908847
0.0178926
0.00823524
0.00828187
0.0109121
0.0189064
0.0195774
0.0208568
0.0191146
0.018906
0.00412952
0.0305186
0.00526798
0.00510352
0.0246534
0.0244823
0.00528867
0.00367348
0.0051764
0.0227414
SCALARS rr_uec(PEX,_P_ext) float
LOOKUP_TABLE default
-0.0645351
-0.147051
-0.117438
-0.153498
-0.0802604
-0.124644
-0.0638104
-0.152646
-0.131252
-0.165254
-0.0585701
-0.153114
-0.134744
-0.142307
-0.166724
-0.139957
-0.12037
-0.136081
-0.121895
-0.119172
-0.134055
-0.0238015
-0.137353
-0.12659
-0.114749
-0.132374
-0.0542602
-0.116275
-0.0912564
-0.107417
-0.119038
-0.0943362
-0.0601073
-0.0804874
-0.0791059
-0.0806687
-0.104431
-0.0792672
-0.118917
-0.0675612
-0.0767041
-0.0920369
-0.0920466
-0.130643
-0.0754174
-0.0832053
-0.114711
-0.116162
-0.108856
-0.104202
-0.106998
-0.0829724
-0.12882
-0.106616
-0.118599
-0.054708
-0.0844626
-0.107398
-0.0844599
-0.129915
-0.153656
-0.150592
-0.053364
-0.106179
-0.144239
-0.136128
-0.148632
-0.12857
-0.118396
-0.168769
-0.139764
-0.138241
-0.0947727
-0.110188
-0.116717
-0.0620456
-0.12017
-0.134865
-0.129652
-0.091563
-0.0826304
-0.0905896
-0.171506
-0.0827454
-0.111568
-0.0414392
-0.134315
-0.112245
-0.0798674
-0.0117127
-0.0923845
-0.0127388
-0.101968
-0.0977187
-0.0874327
-0.0797463
-0.0758903
-0.145084
-0.12026
-0.115769
-0.0983585
-0.0943606
-0.0793949
-0.137415
-0.13969
-0.125793
-0.110627
-0.112226
-0.0842798
-0.167621
-0.107715
-0.0568867
-0.0760266
-0.150391
-0.140887
-0.102959
-0.0979434
-0.0630623
-0.101588
-0.102553
-0.0892011
-0.162522
-0.167592
-0.143956
-0.158375
-0.124255
-0.0702892
-0.156646
-0.0687338
-0.0886597
-0.0730075
-0.149523
-0.146045
-0.146811
-0.0981415
-0.05951
-0.0657917
-0.107595
-0.131495
-0.0594899
-0.0819674
-0.126805
-0.0960842
-0.154826
-0.0767553
-0.126338
-0.114659
-0.110854
-0.0708545
-0.0905526
-0.10097
-0.144285
-0.0846432
-0.130641
-0.151307
-0.15372
-0.100583
-0.0844285
-0.0839494
-0.131894
-0.110731
-0.0839397
-0.0555454
-0.0819824
-0.0815426
-0.141226
-0.0855661
-0.0865099
-0.0937124
-0.0833834
-0.124502
-0.0873292
-0.0773231
-0.0971924
-0.0922592
-0.110555
-0.123149
-0.118539
-0.100693
-0.118249
-0.0909556
-0.137013
-0.147052
-0.081981
-0.144038
-0.0819449
-0.142252
-0.130771
-0.122085
-0.124275
-0.145301
-0.0689116
-0.090275
-0.0839447
-0.146548
-0.144283
-0.133769
-0.145686
-0.148337
-0.124582
-0.152768
-0.102504
-0.0925092
-0.16679
-0.0974198
-0.15149
-0.120676
-0.0770352
-0.0926635
-0.151166
-0.125798
-0.114543
-0.147562
-0.144748
-0.0936555
-0.0928693
-0.0902154
-0.12841
-0.141692
-0.16284
-0.156448
-0.170215
-0.15424
-0.168555
-0.141421
-0.14777
-0.148922
-0.140387
-0.147483
-0.135763
-0.133742
-0.0949048
-0.127434
-0.149104
-0.103573
-0.15191
-0.139551
-0.161658
-0.0972599
-0.153737
-0.146963
-0.0955125
-0.13167
-0.0948675
-0.147958
-0.135074
-0.099443
-0.0935983
-0.0809508
-0.0931197
-0.148161
-0.0679785
-0.114196
-0.0932506
-0.104626
-0.153881
-0.148951
-0.0467124
-0.149493
-0.0814211
-0.0882715
-0.153042
-0.124406
-0.0893116
-0.170751
-0.0971318
-0.0467125
-0.0902643
-0.132836
-0.165816
-0.125714
-0.147896
-0.13851
-0.072706
-0.0712629
-0.060949
-0.0699745
-0.0990926
-0.0757888
-0.122093
-0.0764093
-0.131486
-0.0939026
-0.090401
-0.105743
-0.0983226
-0.130605
-0.0942827
-0.097023
-0.0428206
-0.0977508
-0.141391
-0.141492
-0.128153
-0.0941012
-0.0612761
-0.177911
-0.119537
-0.0998307
-0.092034
-0.0916486
-0.0949245
-0.115661
-0.0932242
-0.0667698
-0.0920019
-0.0631079
-0.113978
-0.0938624
-0.0399112
-0.0884057
-0.104533
-0.0938656
-0.144439
-0.0974763
-0.125704
-0.0482174
-0.100899
-0.0963795
-0.0841732
-0.0904792
-0.106771
-0.100496
-0.105092
-0.0893716
-0.0907778
-0.0980305
-0.131048
-0.092442
-0.130968
-0.118226
-0.0933089
-0.0959025
-0.0968225
-0.10709
-0.0966629
-0.0905086
-0.102851
-0.10786
-0.127333
-0.0968022
-0.0961756
-0.139235
-0.137285
-0.0925119
-0.0933289
-0.041683
-0.11275
-0.078236
-0.105831
-0.0468093
-0.0485904
-0.0434235
-0.0441345
-0.0468217
-0.0493238
-0.0508301
-0.118734
-0.0878669
-0.0886512
-0.101354
-0.0987313
-0.0974993
-0.103133
-0.0954152
-0.0975888
-0.0992216
-0.0971378
-0.119274
-0.0883176
-0.122603
-0.0953964
-0.09209
-0.0972603
-0.103778
-0.108438
-0.101026
-0.115699
-0.108092
-0.100236
-0.0722827
-0.100815
-0.0985819
-0.106144
-0.101684
-0.096349
-0.0916291
-0.100932
-0.105281
-0.142919
-0.0943942
-0.138952
-0.144842
-0.0991841
-0.138769
-0.106454
-0.0852751
-0.116161
-0.101813
-0.0733252
-0.0644045
-0.114685
-0.122148
-0.103405
-0.0859612
-0.103416
-0.0490318
-0.102236
-0.0959266
-0.0489808
-0.018771
-0.0205338
-0.0885594
-0.0944331
-0.109678
-0.105432
-0.00965076
-0.0100841
-0.104415
-0.105504
-0.0998705
-0.0368041
-0.0883621
-0.102726
-0.104742
-0.0903506
-0.0797471
-0.0383269
-0.151283
-0.0950249
-0.116108
-0.117923
-0.0847454
-0.107254
-0.0828582
-0.0914304
-0.0454302
-0.0685586
-0.107381
-0.108046
-0.092861
-0.0975311
-0.100646
-0.106122
-0.101503
-0.0500416
-0.0890658
-0.100413
-0.0949117
-0.14243
-0.0500318
-0.0770873
-0.0794021
-0.0752522
-0.0489249
-0.0489282
-0.0862102
-0.0696069
-0.0995529
-0.0535538
-0.0584261
-0.019077
-0.0190769
-0.039943
-0.0634305
-0.0427346
-0.0848225
-0.0917429
-0.0979053
-0.110317
-0.100063
-0.0926421
-0.0729371
-0.0451277
-0.0915781
-0.0948766
-0.091857
-0.0507125
-0.0468744
-0.0365076
-0.0917274
-0.093582
-0.075198
-0.0849365
-0.0783772
-0.0717677
-0.0960633
-0.0717614
-0.0847855
-0.0817473
-0.0501122
-0.0618691
-0.0575236
-0.101581
-0.0401685
-0.0423162
-0.041397
-0.0959323
-0.0382474
-0.0374586
-0.0667452
-0.0349369
-0.0776752
-0.0777927
-0.0358631
-0.0845876
-0.03981
-0.0395722
-0.0445836
-0.037755
-0.0370696
-0.0553247
-0.0440625
-0.0400405
-0.0378722
-0.0774484
-0.0883987
-0.0416885
-0.0854837
-0.0343455
-0.0867184
-0.0688961
-0.0358826
-0.0303834
-0.0338968
-0.0449759
-0.0744716
-0.0613118
-0.0256504
-0.0284719
-0.0830227
-0.0241453
-0.024145
-0.0273593
-0.0307095
-0.0347044
-0.0403932
-0.0667917
-0.0618251
-0.0830802
-0.0242586
-0.0242584
-0.0730179
-0.0300244
-0.0591922
-0.0272065
-0.0273704
-0.0360631
-0.0626058
-0.0648273
-0.0690632
-0.0632942
-0.0626042
-0.0136773
-0.101057
-0.0174467
-0.0169039
-0.0816367
-0.0810702
-0.0175173
-0.0121669
-0.0171435
-0.0753031
SCALARS cell_type float
LOOKUP_TABLE default
0
0
0
0
0
0
0
0
0
0
0
0
0
0
0
0
0
0
0
0
0
1
0
0
0
0
0
0
0
0
0
0
0
0
0
0
0
0
0
0
0
0
0
0
0
0
0
0
0
0
0
0
0
0
0
0
0
0
0
0
0
0
0
0
0
0
0
0
0
0
0
0
0
0
0
0
0
0
0
0
0
0
0
0
0
0
0
0
0
0
0
0
0
0
0
0
0
0
0
0
0
0
0
0
0
0
0
0
0
0
0
0
0
0
0
0
0
0
0
0
0
0
0
0
0
0
0
0
0
0
0
0
0
0
0
0
0
0
0
0
0
0
0
0
0
0
0
0
0
0
0
0
0
0
0
0
0
0
0
0
0
0
0
0
0
0
0
0
0
0
0
0
0
0
0
0
0
0
0
0
0
0
0
0
0
0
0
0
0
0
0
0
0
0
0
0
0
0
0
0
0
0
0
0
0
0
0
0
0
0
0
0
0
0
0
0
0
0
0
0
0
0
0
0
0
0
0
0
0
0
0
0
0
0
0
0
0
0
0
0
0
0
0
0
0
0
0
0
0
0
0
0
0
0
0
0
0
0
0
0
0
0
0
0
0
0
0
0
0
0
0
0
0
0
0
0
0
0
0
0
0
0
0
0
0
0
0
0
0
0
0
0
0
0
0
0
0
0
0
0
0
0
0
0
0
0
0
0
0
0
0
0
0
0
0
0
0
0
0
0
0
0
0
0
0
0
0
0
0
0
0
0
0
0
0
0
0
0
0
0
0
0
0
0
0
0
0
0
0
0
2
2
2
2
2
2
2
0
0
0
0
0
0
0
0
0
0
0
0
0
0
0
0
0
0
0
0
0
0
0
0
0
0
0
0
0
0
0
0
0
0
0
0
0
0
0
0
0
0
0
0
0
0
0
0
0
0
0
0
0
0
0
0
0
0
0
1
1
0
0
0
0
0
0
0
0
0
0
0
0
0
0
0
0
0
0
0
0
0
0
0
0
0
0
0
0
0
0
0
0
0
0
0
0
0
0
0
0
0
0
0
1
1
0
0
0
0
0
0
0
0
0
0
0
0
0
0
0
0
0
0
0
0
0
0
0
0
0
0
0
0
0
0
0
0
0
0
0
0
0
0
0
0
0
0
0
0
0
0
0
0
0
0
0
0
0
0
0
0
0
0
0
0
0
0
0
0
0
1
1
0
0
0
0
0
0
0
0
0
0
0
0
0
0
0
0
0
0
0
0
0
0
0
0
0
0
0
0
0
0
0
0
0
TENSORS Lagrange_strain float
0.0305736 -0.0031986 2.27521e-08
-0.0031986 0.0133912 1.50153e-07
2.27521e-08 1.50153e-07 0.00740343

0.0291997 -0.00280122 9.57814e-08
-0.00280122 0.0335614 -1.43065e-07
9.57814e-08 -1.43065e-07 0.0331701

0.0300282 0.0036799 -1.54109e-08
0.0036799 0.0311767 2.36733e-08
-1.54109e-08 2.36733e-08 0.0304743

0.0291693 -0.00392498 6.17953e-08
-0.00392498 0.0328066 -1.54518e-07
6.17953e-08 -1.54518e-07 0.033095

0.0353729 0.00266893 3.5798e-08
0.00266893 0.0380898 2.77324e-08
3.5798e-08 2.77324e-08 0.035298

0.0277415 -0.00236784 9.38279e-08
-0.00236784 0.0333917 -1.82206e-07
9.38279e-08 -1.82206e-07 0.0304454

0.0302675 0.00339449 2.20291e-08
0.00339449 0.0134968 1.81371e-07
2.20291e-08 1.81371e-07 0.00746483

0.0317612 0.0039402 1.16431e-07
0.0039402 0.0312071 5.28634e-08
1.16431e-07 5.28634e-08 0.0315671

0.0332496 0.000715542 3.06448e-08
0.000715542 0.0262272 -3.95586e-08
3.06448e-08 -3.95586e-08 0.0281482

0.0354745 -0.000991188 6.63896e-08
-0.000991188 0.0275581 1.14871e-08
6.63896e-08 1.14871e-08 0.0327276

0.0280672 0.00205167 3.40019e-08
0.00205167 0.0138114 -4.62e-08
3.40019e-08 -4.62e-08 0.0117561

0.0279596 -0.00176617 1.34753e-07
-0.00176617 0.0350142 -5.28756e-08
1.34753e-07 -5.28756e-08 0.0315557

0.0311282 0.00365786 7.92697e-08
0.00365786 0.0313075 -4.50207e-08
7.92697e-08 -4.50207e-08 0.031086

0.0290755 -0.00188039 -1.67365e-07
-0.00188039 0.034806 -3.66658e-08
-1.67365e-07 -3.66658e-08 0.0325529

0.0346372 0.00441774 4.92315e-08
0.00441774 0.0343685 6.10665e-09
4.92315e-08 6.10665e-09 0.0348907

0.0343354 7.31631e-05 1.33126e-07
7.31631e-05 0.0272924 -4.78722e-08
1.33126e-07 -4.78722e-08 0.0307849

0.0286996 -0.00235362 -1.37804e-07
-0.00235362 0.0360206 6.58661e-08
-1.37804e-07 6.58661e-08 0.0334565

0.0345809 -0.000353253 1.00409e-07
-0.000353253 0.0273627 -3.12202e-08
1.00409e-07 -3.12202e-08 0.0319837

0.026926 0.00347913 1.21865e-08
0.00347913 0.030952 -1.71366e-07
1.21865e-08 -1.71366e-07 0.0275827

0.0338924 -0.000550422 3.90965e-08
-0.000550422 0.0264153 -1.83562e-07
3.90965e-08 -1.83562e-07 0.0301407

0.0266281 0.00113566 8.28646e-08
0.00113566 0.0340412 -7.3282e-08
8.28646e-08 -7.3282e-08 0.0291562

0.045295 0.000851593 6.13741e-07
0.000851593 0.0452648 -1.11999e-07
6.13741e-07 -1.11999e-07 0.0366434

0.0336827 0.0002475 3.80043e-08
0.0002475 0.0263212 -4.03924e-08
3.80043e-08 -4.03924e-08 0.0298115

0.0293161 -0.00363298 -3.45972e-08
-0.00363298 0.031143 3.59113e-08
-3.45972e-08 3.59113e-08 0.0300531

0.0337876 0.000900241 1.06263e-07
0.000900241 0.0265023 1.70843e-08
1.06263e-07 1.70843e-08 0.0300877

0.0285526 0.00250783 6.85329e-08
0.00250783 0.0339012 2.4254e-07
6.85329e-08 2.4254e-07 0.0322935

0.0286357 0.000526839 1.79905e-07
0.000526839 0.017693 -3.49203e-07
1.79905e-07 -3.49203e-07 0.0131742

0.0309211 0.00403542 8.95858e-08
0.00403542 0.0306529 -6.80633e-08
8.95858e-08 -6.80633e-08 0.0306171

0.0259305 0.00477783 -2.1507e-07
0.00477783 0.0257388 -2.14355e-07
-2.1507e-07 -2.14355e-07 0.0211328

0.0415317 0.00136965 5.12439e-08
0.00136965 0.0383548 2.39097e-08
5.12439e-08 2.39097e-08 0.0361407

0.0344184 0.00187125 2.92173e-08
0.00187125 0.0279587 -1.20699e-07
2.92173e-08 -1.20699e-07 0.0310065

0.0217642 -0.00228848 7.1496e-08
-0.00228848 0.0299996 2.26038e-09
7.1496e-08 2.26038e-09 0.0211297

0.022868 -0.00535377 -1.38148e-07
-0.00535377 0.0234777 -4.85929e-08
-1.38148e-07 -4.85929e-08 0.0125817

0.0348369 0.00080043 3.12227e-07
0.00080043 0.0422589 1.34744e-07
3.12227e-07 1.34744e-07 0.0357918

0.0374573 -0.000661043 1.63501e-07
-0.000661043 0.0412062 -2.76017e-07
1.63501e-07 -2.76017e-07 0.0359065

0.0410785 0.00281325 -8.21883e-08
0.00281325 0.0359906 -2.19352e-08
-8.21883e-08 -2.19352e-08 0.0357721

0.0372579 0.000704771 -5.54434e-08
0.000704771 0.043217 1.67728e-08
-5.54434e-08 1.67728e-08 0.036147

0.0402641 -0.00121908 3.56381e-08
-0.00121908 0.0378345 3.86902e-08
3.56381e-08 3.86902e-08 0.0358137

0.0312223 -0.00367856 9.19658e-08
-0.00367856 0.0311305 4.35986e-08
9.19658e-08 4.35986e-08 0.0309319

0.0227519 0.00528038 6.17587e-08
0.00528038 0.0237138 -1.36288e-07
6.17587e-08 -1.36288e-07 0.0125838

0.0297679 -0.00231647 1.18472e-08
-0.00231647 0.0220356 1.74528e-07
1.18472e-08 1.74528e-07 0.0208795

0.0376231 -0.000522373 1.39246e-08
-0.000522373 0.0430667 1.17783e-07
1.39246e-08 1.17783e-07 0.0361498

0.0412438 0.00263358 2.3867e-08
0.00263358 0.0394181 -6.12417e-08
2.3867e-08 -6.12417e-08 0.0361323

0.0343088 -0.00161721 -1.3151e-08
-0.00161721 0.0280008 3.70092e-08
-1.3151e-08 3.70092e-08 0.0310905

0.0231104 -0.00552735 -1.20116e-07
-0.00552735 0.0235676 -6.9e-08
-1.20116e-07 -6.9e-08 0.0162196

0.0299507 -0.00233304 1.96043e-07
-0.00233304 0.0221597 -8.81389e-08
1.96043e-07 -8.81389e-08 0.021349

0.0258993 0.00222811 -1.57168e-08
0.00222811 0.0326619 1.33096e-07
-1.57168e-08 1.33096e-07 0.0279214

0.027557 0.0025295 -8.98235e-09
0.0025295 0.0323811 -1.3984e-07
-8.98235e-09 -1.3984e-07 0.028497

0.0341826 -0.00214119 1.258e-07
-0.00214119 0.0271133 1.69984e-07
1.258e-07 1.69984e-07 0.0304785

0.0229073 -0.00439374 -2.93089e-08
-0.00439374 0.027255 -6.52104e-08
-2.93089e-08 -6.52104e-08 0.0198548

0.0295008 0.00247231 4.84719e-08
0.00247231 0.0218387 3.95074e-08
4.84719e-08 3.95074e-08 0.0202854

0.0298793 -0.00327182 2.77782e-08
-0.00327182 0.0245189 1.52358e-07
2.77782e-08 1.52358e-07 0.0230533

0.0344825 0.00257717 -1.54786e-07
0.00257717 0.0382089 2.04515e-07
-1.54786e-07 2.04515e-07 0.0352768

0.0286961 0.00383966 1.27705e-07
0.00383966 0.0257854 -2.23624e-07
1.27705e-07 -2.23624e-07 0.0231219

0.0349341 -0.00291578 2.27841e-07
-0.00291578 0.037437 6.84188e-08
2.27841e-07 6.84188e-08 0.0351952

0.0255855 -0.00545673 2.29772e-07
-0.00545673 0.0229071 -1.59348e-08
2.29772e-07 -1.59348e-08 0.0158231

0.0373509 0.000745393 -7.47785e-08
0.000745393 0.0414162 2.80986e-07
-7.47785e-08 2.80986e-07 0.0359269

0.0231726 -0.000693388 -5.63608e-08
-0.000693388 0.0313208 -2.1784e-07
-5.63608e-08 -2.1784e-07 0.023108

0.0410328 0.00138003 2.22856e-07
0.00138003 0.0377112 -1.16169e-08
2.22856e-07 -1.16169e-08 0.0359051

0.0276819 0.00280584 4.35636e-08
0.00280584 0.0327572 4.82764e-08
4.35636e-08 4.82764e-08 0.0302376

0.0361461 0.000784837 -4.37959e-08
0.000784837 0.0281384 -1.10615e-07
-4.37959e-08 -1.10615e-07 0.0336797

0.0362614 0.00153403 -3.5299e-08
0.00153403 0.0316992 -2.65799e-08
-3.5299e-08 -2.65799e-08 0.0342271

0.0286432 0.00405788 1.25976e-07
0.00405788 0.0199012 3.88594e-07
1.25976e-07 3.88594e-07 0.0137622

0.0309786 -0.000784116 -1.01316e-07
-0.000784116 0.0370917 8.8664e-08
-1.01316e-07 8.8664e-08 0.0338879

0.0315612 0.00124373 -1.04968e-07
0.00124373 0.0364277 2.00396e-08
-1.04968e-07 2.00396e-08 0.0342659

0.0285551 -0.000375538 1.16622e-07
-0.000375538 0.0369631 -3.25147e-08
1.16622e-07 -3.25147e-08 0.032677

0.0296092 0.00307109 1.47079e-07
0.00307109 0.0347984 -1.64421e-07
1.47079e-07 -1.64421e-07 0.0337155

0.0347272 0.00112222 3.27406e-08
0.00112222 0.027845 -1.20575e-07
3.27406e-08 -1.20575e-07 0.0322152

0.0291942 -0.00369979 -3.0607e-08
-0.00369979 0.0310283 -8.6459e-08
-3.0607e-08 -8.6459e-08 0.0299161

0.0350621 -0.000237073 1.38213e-08
-0.000237073 0.0275869 1.04932e-08
1.38213e-08 1.04932e-08 0.0333999

0.0344571 -0.00254753 -2.63266e-07
-0.00254753 0.0381389 -9.69725e-09
-2.63266e-07 -9.69725e-09 0.0352668

0.0350163 0.00284928 -2.61696e-08
0.00284928 0.0375744 1.36416e-09
-2.61696e-08 1.36416e-09 0.0352467

0.0218932 -0.00213244 -3.42891e-08
-0.00213244 0.0299292 1.01101e-08
-3.42891e-08 1.01101e-08 0.020856

0.0347079 -0.0036914 -1.56084e-07
-0.0036914 0.0319639 2.311e-07
-1.56084e-07 2.311e-07 0.0330853

0.0292988 -0.00329802 2.34385e-08
-0.00329802 0.0321203 8.87192e-09
2.34385e-08 8.87192e-09 0.0304399

0.0267855 -0.00401799 1.85914e-07
-0.00401799 0.0176086 1.0596e-08
1.85914e-07 1.0596e-08 0.0127288

0.0324094 0.000418842 -3.06332e-08
0.000418842 0.0381117 1.48727e-07
-3.06332e-08 1.48727e-07 0.0344119

0.0345442 0.00381778 -9.91679e-08
0.00381778 0.030948 2.11101e-07
-9.91679e-08 2.11101e-07 0.0326667

0.028383 0.00258179 -4.0606e-08
0.00258179 0.0341366 6.64646e-08
-4.0606e-08 6.64646e-08 0.0322204

0.0315495 0.00103822 -1.50997e-07
0.00103822 0.0228487 -1.12608e-07
-1.50997e-07 -1.12608e-07 0.0240747

0.0271034 -0.00435992 -1.92169e-08
-0.00435992 0.0237419 -6.02601e-08
-1.92169e-08 -6.02601e-08 0.0183276

0.0362644 -0.00140239 -8.90047e-08
-0.00140239 0.0387482 -5.49015e-08
-8.90047e-08 -5.49015e-08 0.035407

0.0315629 0.00317115 -1.79319e-07
0.00317115 0.0344075 9.608e-09
-1.79319e-07 9.608e-09 0.0340967

0.0273075 -0.00415727 -8.66173e-08
-0.00415727 0.0221796 6.05153e-08
-8.66173e-08 6.05153e-08 0.0184155

0.0303652 0.0013916 1.31739e-07
0.0013916 0.0228353 -1.17827e-07
1.31739e-07 -1.17827e-07 0.0209593

0.0186056 -0.00269766 4.72061e-08
-0.00269766 0.0289351 -3.81245e-08
4.72061e-08 -3.81245e-08 0.0158966

0.027206 0.00188932 2.38398e-08
0.00188932 0.0343276 -2.15431e-07
2.38398e-08 -2.15431e-07 0.0306611

0.0353885 0.00305755 -2.51756e-08
0.00305755 0.030826 -5.63876e-08
-2.51756e-08 -5.63876e-08 0.03276

0.0226527 0.00538746 7.41834e-08
0.00538746 0.0240937 -1.22665e-07
7.41834e-08 -1.22665e-07 0.0162022

0.0459484 0.00223741 -2.02757e-08
0.00223741 0.0417527 -2.65896e-07
-2.02757e-08 -2.65896e-07 0.0366443

0.0230863 -0.000534442 -6.2766e-08
-0.000534442 0.0313617 -4.97901e-08
-6.2766e-08 -4.97901e-08 0.0230778

0.0463635 -0.00225532 -3.71483e-07
-0.00225532 0.0412967 -3.38921e-07
-3.71483e-07 -3.38921e-07 0.0365995

0.0370709 -0.00362441 2.74776e-07
-0.00362441 0.0334967 -1.29992e-08
2.74776e-07 -1.29992e-08 0.034627

0.0351442 0.00361969 -3.94107e-08
0.00361969 0.0300104 -3.69167e-09
-3.94107e-08 -3.69167e-09 0.0324628

0.0299693 -0.00315979 3.22492e-08
-0.00315979 0.0246959 1.67985e-07
3.22492e-08 1.67985e-07 0.0232913

0.0230172 0.00403104 -2.17858e-07
0.00403104 0.0277854 -1.14711e-07
-2.17858e-07 -1.14711e-07 0.0203867

0.0210982 -0.00137882 2.99688e-08
-0.00137882 0.029902 1.129e-07
2.99688e-08 1.129e-07 0.0182556

0.0287528 0.00288894 -2.88205e-10
0.00288894 0.0342343 7.36793e-08
-2.88205e-10 7.36793e-08 0.0327063

0.0370178 0.00223649 -1.50292e-07
0.00223649 0.0334576 6.59032e-10
-1.50292e-07 6.59032e-10 0.0343903

0.0281549 0.00198879 -2.6761e-08
0.00198879 0.0340674 1.37285e-07
-2.6761e-08 1.37285e-07 0.0308719

0.0318901 0.00207364 3.43402e-08
0.00207364 0.0252596 1.78404e-07
3.43402e-08 1.78404e-07 0.0256232

0.0239127 -0.00277521 1.27954e-08
-0.00277521 0.0297718 1.50668e-08
1.27954e-08 1.50668e-08 0.0215664

0.0279049 -0.00376481 7.81578e-08
-0.00376481 0.0218198 1.79263e-07
7.81578e-08 1.79263e-07 0.01808

0.0293386 -0.00323254 9.24502e-08
-0.00323254 0.032637 1.00274e-07
9.24502e-08 1.00274e-07 0.0324095

0.0306332 0.00361522 1.69313e-07
0.00361522 0.0322354 8.60692e-08
1.69313e-07 8.60692e-08 0.0323772

0.0287152 0.00304827 -7.24278e-08
0.00304827 0.0340343 2.24917e-07
-7.24278e-08 2.24917e-07 0.0326368

0.0292131 0.00172518 5.25233e-08
0.00172518 0.037624 1.04675e-07
5.25233e-08 1.04675e-07 0.0338523

0.0344851 0.00123281 1.89505e-07
0.00123281 0.02753 1.51456e-07
1.89505e-07 1.51456e-07 0.0306812

0.0199646 -0.000605343 3.05778e-08
-0.000605343 0.0296673 -8.66044e-08
3.05778e-08 -8.66044e-08 0.018108

0.0298046 -0.00486278 1.76663e-07
-0.00486278 0.0330564 8.94087e-08
1.76663e-07 8.94087e-08 0.0337481

0.0290878 0.00360085 6.62684e-10
0.00360085 0.0313668 -3.36137e-08
6.62684e-10 -3.36137e-08 0.0302704

0.0181089 0.000282833 3.63859e-08
0.000282833 0.0293174 1.11336e-07
3.63859e-08 1.11336e-07 0.0168822

0.0278496 0.00442504 -2.30762e-07
0.00442504 0.0209724 1.08556e-07
-2.30762e-07 1.08556e-07 0.0174586

0.0291979 -0.00302088 -7.38748e-08
-0.00302088 0.0327103 -5.7879e-08
-7.38748e-08 -5.7879e-08 0.032192

0.03525 0.000759824 -6.02219e-09
0.000759824 0.0273455 -4.72774e-08
-6.02219e-09 -4.72774e-08 0.0325593

0.0294339 0.00352136 3.53632e-11
0.00352136 0.0252066 -4.27647e-08
3.53632e-11 -4.27647e-08 0.0231163

0.0396407 0.00170999 6.24714e-09
0.00170999 0.0390425 2.88033e-07
6.24714e-09 2.88033e-07 0.0359455

0.0283815 0.00312428 3.81052e-07
0.00312428 0.022406 5.23721e-08
3.81052e-07 5.23721e-08 0.0182905

0.0394935 -0.00175066 3.37071e-08
-0.00175066 0.0390682 9.53588e-08
3.37071e-08 9.53588e-08 0.0359107

0.0232658 0.000103447 -1.2263e-07
0.000103447 0.0315252 -2.26411e-07
-1.2263e-07 -2.26411e-07 0.0231248

0.0327666 -0.000288482 6.14441e-08
-0.000288482 0.0246652 -7.56831e-09
6.14441e-08 -7.56831e-09 0.0269721

0.0380605 -0.00212884 -8.30574e-08
-0.00212884 0.0304702 7.19594e-08
-8.30574e-08 7.19594e-08 0.0347992

0.029245 0.00320595 -7.47928e-08
0.00320595 0.0332854 -8.82901e-08
-7.47928e-08 -8.82901e-08 0.0333493

0.0289569 -0.00177261 -3.48763e-08
-0.00177261 0.0366158 1.44026e-07
-3.48763e-08 1.44026e-07 0.0335058

0.0365899 -0.00108464 -3.44531e-08
-0.00108464 0.0264837 8.62759e-08
-3.44531e-08 8.62759e-08 0.0338663

0.031186 -0.00292526 -9.42583e-08
-0.00292526 0.038311 -5.67911e-08
-9.42583e-08 -5.67911e-08 0.0348495

0.038169 -0.000885668 -2.3391e-07
-0.000885668 0.0387353 -3.34775e-09
-2.3391e-07 -3.34775e-09 0.0358408

0.0301869 -0.00394006 6.71793e-08
-0.00394006 0.0327175 -5.8469e-08
6.71793e-08 -5.8469e-08 0.0327697

0.021337 0.00146999 -6.57652e-08
0.00146999 0.0296205 5.31192e-08
-6.57652e-08 5.31192e-08 0.0182996

0.0293946 -0.0036467 -5.15629e-08
-0.0036467 0.0253547 -2.99268e-08
-5.15629e-08 -2.99268e-08 0.023187

0.0328642 -0.00181665 2.54914e-07
-0.00181665 0.0397228 -2.0183e-07
2.54914e-07 -2.0183e-07 0.0352466

0.0350983 7.69528e-05 1.14404e-08
7.69528e-05 0.0272289 -4.58022e-08
1.14404e-08 -4.58022e-08 0.0332576

0.0308244 -0.00282876 8.10885e-08
-0.00282876 0.0348983 -5.06243e-08
8.10885e-08 -5.06243e-08 0.0340902

0.0295413 0.00338904 -4.59379e-08
0.00338904 0.0328784 -4.56879e-08
-4.59379e-08 -4.56879e-08 0.0333324

0.0264661 -0.00406463 -2.14978e-07
-0.00406463 0.0272676 -6.93461e-08
-2.14978e-07 -6.93461e-08 0.0215892

0.0371759 -0.000957874 -3.45777e-07
-0.000957874 0.0416137 2.59829e-08
-3.45777e-07 2.59829e-08 0.0358918

0.0227155 -0.00423881 -9.61452e-08
-0.00423881 0.0272494 4.18566e-08
-9.61452e-08 4.18566e-08 0.0168811

0.0341901 -0.00252527 1.29478e-07
-0.00252527 0.0286125 -1.90337e-07
1.29478e-07 -1.90337e-07 0.0310506

0.0364321 0.00029026 -1.57908e-07
0.00029026 0.0294439 3.19964e-08
-1.57908e-07 3.19964e-08 0.0341998

0.0396451 0.00239611 -6.6801e-08
0.00239611 0.0391164 -4.06287e-08
-6.6801e-08 -4.06287e-08 0.0358729

0.0238611 0.00260999 -2.52052e-07
0.00260999 0.0301584 -5.25734e-08
-2.52052e-07 -5.25734e-08 0.0218036

0.0334373 0.00358193 -1.13036e-07
0.00358193 0.0307216 -1.69948e-08
-1.13036e-07 -1.69948e-08 0.0317733

0.0316503 -0.00319516 1.91804e-07
-0.00319516 0.0265576 2.09029e-07
1.91804e-07 2.09029e-07 0.0269411

0.0289352 -0.00234118 -1.2855e-08
-0.00234118 0.034242 1.91807e-07
-1.2855e-08 1.91807e-07 0.0326122

0.0262501 0.00450276 4.63463e-08
0.00450276 0.0245628 1.1012e-07
4.63463e-08 1.1012e-07 0.018085

0.0284293 -0.00286666 -9.88845e-08
-0.00286666 0.0340392 -5.35679e-09
-9.88845e-08 -5.35679e-09 0.0324554

0.0331556 0.00405938 -1.06741e-07
0.00405938 0.0304704 -3.64477e-08
-1.06741e-07 -3.64477e-08 0.0315484

0.0333416 -0.00331241 -1.1644e-08
-0.00331241 0.0283628 -3.29051e-08
-1.1644e-08 -3.29051e-08 0.0300519

0.0291675 -0.00329632 2.32009e-07
-0.00329632 0.0319942 3.10542e-07
2.32009e-07 3.10542e-07 0.0304436

0.0314624 -0.00242999 2.12123e-07
-0.00242999 0.0247241 1.78546e-07
2.12123e-07 1.78546e-07 0.0251616

0.0329626 -0.0024674 -1.50852e-07
-0.0024674 0.0267151 1.67654e-07
-1.50852e-07 1.67654e-07 0.0286025

0.0294984 -0.00334222 -1.41123e-08
-0.00334222 0.0329577 9.75236e-08
-1.41123e-08 9.75236e-08 0.0334138

0.0261396 0.00463508 2.46847e-08
0.00463508 0.0255466 6.05412e-08
2.46847e-08 6.05412e-08 0.021097

0.0281564 0.00201704 -9.87792e-08
0.00201704 0.0343431 -2.3712e-07
-9.87792e-08 -2.3712e-07 0.0311158

0.0308932 0.0034818 -1.61373e-08
0.0034818 0.0322623 -1.79346e-07
-1.61373e-08 -1.79346e-07 0.0326065

0.029164 0.00334805 -1.2902e-07
0.00334805 0.033199 1.01383e-07
-1.2902e-07 1.01383e-07 0.0332669

0.0289904 0.00152321 5.1315e-08
0.00152321 0.0354777 -1.00029e-08
5.1315e-08 -1.00029e-08 0.0327018

0.0310602 -0.00106212 1.99184e-07
-0.00106212 0.0231462 -8.28087e-08
1.99184e-07 -8.28087e-08 0.0220828

0.023889 0.00240645 -5.25903e-08
0.00240645 0.0304174 -1.78623e-07
-5.25903e-08 -1.78623e-07 0.0221179

0.0292198 -0.00320441 -1.43667e-08
-0.00320441 0.0326434 1.61003e-07
-1.43667e-08 1.61003e-07 0.0316249

0.0289939 0.0033576 -1.06033e-07
0.0033576 0.0309396 -1.53101e-07
-1.06033e-07 -1.53101e-07 0.0285741

0.0266184 -0.00459261 -4.25452e-08
-0.00459261 0.0252359 -2.92473e-08
-4.25452e-08 -2.92473e-08 0.0212613

0.0262836 0.00489489 -9.05403e-09
0.00489489 0.0209503 3.28176e-07
-9.05403e-09 3.28176e-07 0.016766

0.0235076 -0.00428817 -1.93038e-09
-0.00428817 0.0274705 7.36323e-09
-1.93038e-09 7.36323e-09 0.0206309

0.0266775 -0.00402883 -2.69687e-08
-0.00402883 0.0274886 6.12051e-09
-2.69687e-08 6.12051e-09 0.0220549

0.0353725 -0.000906574 -9.45729e-08
-0.000906574 0.0273973 9.4416e-08
-9.45729e-08 9.4416e-08 0.0326616

0.0260508 0.00392276 -1.90015e-07
0.00392276 0.0280988 -2.53672e-07
-1.90015e-07 -2.53672e-07 0.0221074

0.0307952 0.00171699 -9.81937e-08
0.00171699 0.0233652 1.39987e-07
-9.81937e-08 1.39987e-07 0.0220304

0.0214352 0.00172258 -1.47729e-07
0.00172258 0.0302476 -1.96218e-07
-1.47729e-07 -1.96218e-07 0.0211375

0.0242679 -0.00289026 -5.41521e-09
-0.00289026 0.029959 -1.71204e-10
-5.41521e-09 -1.71204e-10 0.0220911

0.0313515 -0.000131458 -1.63131e-07
-0.000131458 0.0392796 -1.86091e-07
-1.63131e-07 -1.86091e-07 0.0346771

0.0230632 0.000294817 2.14569e-07
0.000294817 0.0314681 -3.20097e-08
2.14569e-07 -3.20097e-08 0.0230674

0.0227819 0.00400264 -6.90992e-09
0.00400264 0.028134 -2.38308e-07
-6.90992e-09 -2.38308e-07 0.0206427

0.0288952 0.00158601 1.96739e-07
0.00158601 0.0358399 5.89493e-08
1.96739e-07 5.89493e-08 0.0329004

0.0293228 -0.00358126 -8.19705e-09
-0.00358126 0.0251353 9.90986e-08
-8.19705e-09 9.90986e-08 0.023245

0.0369831 0.002733 -1.52388e-07
0.002733 0.0297298 5.32392e-08
-1.52388e-07 5.32392e-08 0.0338083

0.0371815 0.00348337 -1.07615e-08
0.00348337 0.0334292 2.7643e-08
-1.07615e-08 2.7643e-08 0.0346586

0.0345515 -0.00244712 -4.01724e-08
-0.00244712 0.0285362 -3.60366e-08
-4.01724e-08 -3.60366e-08 0.0313856

0.0390624 -0.000266289 -9.9832e-08
-0.000266289 0.0339303 4.00535e-08
-9.9832e-08 4.00535e-08 0.0352145

0.0314861 -0.00418806 7.62369e-08
-0.00418806 0.031789 5.66429e-08
7.62369e-08 5.66429e-08 0.0321632

0.0294689 0.0030085 1.17999e-08
0.0030085 0.022332 -1.23734e-08
1.17999e-08 -1.23734e-08 0.0210714

0.0302372 0.00397339 -6.73811e-08
0.00397339 0.0326708 -8.51972e-08
-6.73811e-08 -8.51972e-08 0.032727

0.0302846 0.00384715 1.70232e-07
0.00384715 0.0326147 8.44373e-08
1.70232e-07 8.44373e-08 0.0326817

0.0262502 0.00396283 1.06562e-07
0.00396283 0.0277741 -1.01404e-07
1.06562e-07 -1.01404e-07 0.0218699

0.0344577 0.00357719 1.19724e-07
0.00357719 0.0317858 -9.3743e-08
1.19724e-07 -9.3743e-08 0.0328382

0.0302559 0.000452629 -3.82985e-08
0.000452629 0.0204326 2.65385e-07
-3.82985e-08 2.65385e-07 0.0205781

0.0331933 0.00420086 -6.4921e-08
0.00420086 0.0323804 -1.84238e-07
-6.4921e-08 -1.84238e-07 0.0334906

0.030507 -0.00165445 -7.48275e-09
-0.00165445 0.0366234 1.45321e-07
-7.48275e-09 1.45321e-07 0.0336695

0.0373665 0.00323254 9.57353e-08
0.00323254 0.0334654 -5.63652e-08
9.57353e-08 -5.63652e-08 0.0346706

0.0307443 -0.00389631 6.83211e-09
-0.00389631 0.0322809 8.16362e-08
6.83211e-09 8.16362e-08 0.0326873

0.0293801 -0.000644812 -1.85959e-07
-0.000644812 0.0369105 -5.86331e-08
-1.85959e-07 -5.86331e-08 0.0328546

0.0288192 -0.00315333 -1.99702e-07
-0.00315333 0.0221447 -9.15595e-08
-1.99702e-07 -9.15595e-08 0.0187634

0.0290097 0.00384562 -1.05195e-07
0.00384562 0.0255837 6.3848e-08
-1.05195e-07 6.3848e-08 0.0230783

0.021706 0.00189161 2.07683e-07
0.00189161 0.0300686 -2.04749e-08
2.07683e-07 -2.04749e-08 0.0210888

0.0349978 -0.00016154 1.32347e-07
-0.00016154 0.027397 9.44251e-08
1.32347e-07 9.44251e-08 0.0333086

0.0344278 2.86774e-07 -1.21553e-08
2.86774e-07 0.0272815 -5.83274e-08
-1.21553e-08 -5.83274e-08 0.0320482

0.0291727 0.00304025 -1.20479e-08
0.00304025 0.0326874 9.23669e-08
-1.20479e-08 9.23669e-08 0.0321397

0.0314572 0.00316615 1.1291e-07
0.00316615 0.0342568 1.34801e-07
1.1291e-07 1.34801e-07 0.034065

0.0291762 -0.00320425 9.91688e-08
-0.00320425 0.0332465 1.24003e-07
9.91688e-08 1.24003e-07 0.033386

0.0287801 -8.56724e-05 1.01902e-07
-8.56724e-05 0.0367123 1.76785e-07
1.01902e-07 1.76785e-07 0.0325324

0.0294717 0.00337623 -1.36123e-08
0.00337623 0.0330824 -1.97656e-07
-1.36123e-08 -1.97656e-07 0.0333617

0.0328676 -0.00134676 2.21342e-07
-0.00134676 0.0253678 6.42684e-08
2.21342e-07 6.42684e-08 0.0278355

0.0263612 -0.004256 -1.3709e-07
-0.004256 0.0281866 -1.99152e-07
-1.3709e-07 -1.99152e-07 0.0242734

0.0363051 -0.000331842 3.98205e-08
-0.000331842 0.02939 -1.34606e-07
3.98205e-08 -1.34606e-07 0.0340347

0.0267872 -0.00444707 -1.08554e-07
-0.00444707 0.0251965 1.0226e-07
-1.08554e-07 1.0226e-07 0.0209542

0.0309062 0.00250711 9.54757e-08
0.00250711 0.0350703 -1.0193e-07
9.54757e-08 -1.0193e-07 0.0340745

0.0351204 -0.0034972 1.50794e-08
-0.0034972 0.0303947 -1.17456e-07
1.50794e-08 -1.17456e-07 0.0326215

0.0305095 -0.00125035 -2.13637e-08
-0.00125035 0.0229835 9.7375e-08
-2.13637e-08 9.7375e-08 0.0214835

0.0371545 -0.00307739 5.02226e-08
-0.00307739 0.0316597 1.93751e-07
5.02226e-08 1.93751e-07 0.0339944

0.034977 0.000322092 -1.37069e-07
0.000322092 0.0275622 -4.8551e-08
-1.37069e-07 -4.8551e-08 0.033437

0.0358494 -0.00308882 -1.84152e-08
-0.00308882 0.0332641 1.20521e-08
-1.84152e-08 1.20521e-08 0.03415

0.0349361 -0.00341091 -4.82245e-08
-0.00341091 0.0296017 -3.07832e-08
-4.82245e-08 -3.07832e-08 0.0321848

0.0349174 -0.00113391 -1.20799e-07
-0.00113391 0.0278568 5.181e-08
-1.20799e-07 5.181e-08 0.0323484

0.0314967 -0.00306267 -2.0024e-07
-0.00306267 0.0344556 5.75687e-08
-2.0024e-07 5.75687e-08 0.0341533

0.0292427 -0.00407217 6.71948e-08
-0.00407217 0.0269059 -2.02145e-07
6.71948e-08 -2.02145e-07 0.0253522

0.0349999 -0.00324443 -3.0404e-08
-0.00324443 0.0299218 3.94743e-08
-3.0404e-08 3.94743e-08 0.032202

0.0314706 0.00140948 -7.03491e-08
0.00140948 0.0233323 1.41738e-07
-7.03491e-08 1.41738e-07 0.0244895

0.0336722 0.00348459 -1.92617e-07
0.00348459 0.0334505 1.3495e-08
-1.92617e-07 1.3495e-08 0.0336567

0.0299001 -0.00496686 -1.76286e-07
-0.00496686 0.0330863 1.04017e-07
-1.76286e-07 1.04017e-07 0.0338641

0.0300508 0.00491997 -6.31239e-08
0.00491997 0.0329479 -1.95604e-07
-6.31239e-08 -1.95604e-07 0.033831

0.0276962 -0.00374163 1.88856e-07
-0.00374163 0.0348145 1.79754e-08
1.88856e-07 1.79754e-08 0.0337737

0.0279338 0.0035468 7.34047e-08
0.0035468 0.0348426 -1.67604e-07
7.34047e-08 -1.67604e-07 0.0337385

0.0364371 -0.00115371 1.55106e-07
-0.00115371 0.02635 5.39173e-08
1.55106e-07 5.39173e-08 0.0337648

0.0362059 0.00124735 -2.69437e-08
0.00124735 0.0265713 -1.36586e-07
-2.69437e-08 -1.36586e-07 0.0337276

0.0350422 -0.00130682 1.10983e-07
-0.00130682 0.0284748 1.16697e-07
1.10983e-07 1.16697e-07 0.0325827

0.0344424 0.00425828 -9.46587e-08
0.00425828 0.0342958 1.31091e-07
-9.46587e-08 1.31091e-07 0.034819

0.0343183 -0.00435617 7.37548e-08
-0.00435617 0.034288 -1.99703e-07
7.37548e-08 -1.99703e-07 0.0348073

0.030528 0.00209323 -6.21962e-08
0.00209323 0.0381713 2.08915e-07
-6.21962e-08 2.08915e-07 0.0348561

0.0306711 -0.00205953 9.45238e-08
-0.00205953 0.0381006 -2.69865e-08
9.45238e-08 -2.69865e-08 0.0348434

0.039507 -0.000529323 5.13972e-08
-0.000529323 0.0328554 5.08703e-08
5.13972e-08 5.08703e-08 0.0352641

0.0397095 0.000513846 -1.45357e-07
0.000513846 0.0326277 -9.13672e-08
-1.45357e-07 -9.13672e-08 0.0353093

0.0239706 0.00127638 1.52131e-07
0.00127638 0.0320113 -1.47619e-07
1.52131e-07 -1.47619e-07 0.0251903

0.0311694 -0.00326612 8.92413e-08
-0.00326612 0.0322479 -2.18534e-08
8.92413e-08 -2.18534e-08 0.0328088

0.0277882 -0.00478548 1.79851e-09
-0.00478548 0.0333199 1.2625e-07
1.79851e-09 1.2625e-07 0.0334623

0.0333673 -0.000610293 8.33042e-08
-0.000610293 0.0264095 -1.80192e-07
8.33042e-08 -1.80192e-07 0.0284549

0.0381935 -0.00225141 -2.06631e-08
-0.00225141 0.0308014 -7.19661e-08
-2.06631e-08 -7.19661e-08 0.0348992

0.0382419 0.00218319 -1.92021e-07
0.00218319 0.0309143 -2.15905e-08
-1.92021e-07 -2.15905e-08 0.0349313

0.0360914 1.56164e-05 -7.74216e-08
1.56164e-05 0.0251342 -1.54521e-07
-7.74216e-08 -1.54521e-07 0.0334774

0.0242466 0.00302995 -1.41217e-07
0.00302995 0.0304054 1.5105e-07
-1.41217e-07 1.5105e-07 0.0242829

0.0276824 0.00475612 -1.36659e-07
0.00475612 0.0333204 1.01075e-07
-1.36659e-07 1.01075e-07 0.0334002

0.0286823 -0.00307597 6.04489e-08
-0.00307597 0.0342689 1.90498e-07
6.04489e-08 1.90498e-07 0.0327594

0.0310933 0.00303677 -1.92716e-07
0.00303677 0.0251525 -5.27563e-08
-1.92716e-07 -5.27563e-08 0.0254733

0.0372336 0.00316614 -2.09695e-08
0.00316614 0.0315469 -1.1928e-07
-2.09695e-08 -1.1928e-07 0.0340824

0.0292339 -0.00406844 7.14389e-08
-0.00406844 0.0269422 -2.9436e-08
7.14389e-08 -2.9436e-08 0.0253274

0.0364084 -0.000454101 -7.19339e-08
-0.000454101 0.0296984 1.19893e-08
-7.19339e-08 1.19893e-08 0.0341378

0.0273528 -0.00449462 -1.98281e-07
-0.00449462 0.0334031 -6.62277e-08
-1.98281e-07 -6.62277e-08 0.0334489

0.0240434 0.00107918 8.51837e-08
0.00107918 0.0322524 2.00646e-07
8.51837e-08 2.00646e-07 0.025512

0.0242353 0.00282747 8.25403e-08
0.00282747 0.030709 9.3209e-08
8.25403e-08 9.3209e-08 0.0245508

0.0267988 0.00459577 -1.05202e-07
0.00459577 0.0240472 -1.27825e-07
-1.05202e-07 -1.27825e-07 0.0182179

0.0298581 0.000199889 1.27863e-07
0.000199889 0.0200926 -1.27522e-07
1.27863e-07 -1.27522e-07 0.0193671

0.031916 -0.0030241 -3.34234e-08
-0.0030241 0.0341695 -1.94587e-07
-3.34234e-08 -1.94587e-07 0.0340424

0.0229237 0.0040007 1.51922e-07
0.0040007 0.0276667 4.84908e-08
1.51922e-07 4.84908e-08 0.0176573

0.029217 0.00310152 -4.2467e-08
0.00310152 0.0327714 4.60969e-08
-4.2467e-08 4.60969e-08 0.0310193

0.0316027 -0.000694739 -1.08558e-07
-0.000694739 0.0231653 -9.11619e-08
-1.08558e-07 -9.11619e-08 0.0244908

0.0327693 0.00146494 -6.59866e-08
0.00146494 0.0253527 1.86895e-07
-6.59866e-08 1.86895e-07 0.0276195

0.0359861 5.62402e-05 3.41871e-08
5.62402e-05 0.0249673 -8.26445e-08
3.41871e-08 -8.26445e-08 0.0333934

0.0279739 -0.0038051 3.02849e-09
-0.0038051 0.0349564 -4.83816e-08
3.02849e-09 -4.83816e-08 0.0338229

0.0393175 -0.000842995 1.65768e-07
-0.000842995 0.0416051 2.66183e-07
1.65768e-07 2.66183e-07 0.0361959

0.0298756 0.00493838 2.10148e-07
0.00493838 0.032964 -3.86159e-08
2.10148e-07 -3.86159e-08 0.0337861

0.0302956 0.000214618 -5.26407e-08
0.000214618 0.0204012 2.63595e-07
-5.26407e-08 2.63595e-07 0.0172802

0.0266802 -0.00425192 3.91707e-08
-0.00425192 0.02814 -9.1375e-08
3.91707e-08 -9.1375e-08 0.0244433

0.0277545 0.00481552 -7.58856e-08
0.00481552 0.0333234 -8.83122e-08
-7.58856e-08 -8.83122e-08 0.0334625

0.0279515 -0.00145882 1.05216e-07
-0.00145882 0.0350934 -5.66677e-08
1.05216e-07 -5.66677e-08 0.0314572

0.0244707 -0.00330625 -8.08216e-08
-0.00330625 0.030023 1.6743e-07
-8.08216e-08 1.6743e-07 0.0242229

0.0279988 0.00377952 -7.32703e-08
0.00377952 0.0349175 -9.09583e-08
-7.32703e-08 -9.09583e-08 0.0337938

0.0313695 -0.0034105 6.77162e-09
-0.0034105 0.0270149 -2.08376e-07
6.77162e-09 -2.08376e-07 0.0269977

0.0402832 0.00140894 9.92989e-09
0.00140894 0.040621 4.16301e-07
9.92989e-09 4.16301e-07 0.0361763

0.0258872 0.00400418 3.09943e-08
0.00400418 0.0289619 1.55958e-07
3.09943e-08 1.55958e-07 0.024517

0.0366852 0.00110292 -1.20555e-07
0.00110292 0.0263605 -2.51647e-08
-1.20555e-07 -2.51647e-08 0.0339047

0.033349 0.0039843 -1.14997e-07
0.0039843 0.032123 1.17086e-07
-1.14997e-07 1.17086e-07 0.0333225

0.0292355 0.00306784 1.15807e-07
0.00306784 0.0326131 -7.92123e-08
1.15807e-07 -7.92123e-08 0.0321649

0.0343712 -0.00431028 7.43052e-08
-0.00431028 0.0345121 5.12177e-08
7.43052e-08 5.12177e-08 0.0348915

0.0354966 -0.00306414 6.39647e-08
-0.00306414 0.0305966 -1.77997e-08
6.39647e-08 -1.77997e-08 0.0327572

0.0333716 0.00138737 -8.22268e-08
0.00138737 0.039583 2.27789e-07
-8.22268e-08 2.27789e-07 0.0350089

0.0292043 -0.00307984 1.52176e-07
-0.00307984 0.0328822 -4.18258e-07
1.52176e-07 -4.18258e-07 0.0313905

0.029272 -0.00123266 -1.19279e-07
-0.00123266 0.0192911 -2.00675e-07
-1.19279e-07 -2.00675e-07 0.0164161

0.0287853 -0.00183293 -2.13322e-07
-0.00183293 0.0184177 -7.10389e-08
-2.13322e-07 -7.10389e-08 0.016201

0.0385348 0.00220259 7.09703e-08
0.00220259 0.0332448 -1.01795e-08
7.09703e-08 -1.01795e-08 0.0347693

0.0280629 0.00294582 1.15422e-08
0.00294582 0.0323434 3.16263e-07
1.15422e-08 3.16263e-07 0.0295251

0.0320745 0.00383526 -1.34451e-08
0.00383526 0.0309677 2.17941e-07
-1.34451e-08 2.17941e-07 0.0314615

0.0320583 9.00097e-05 -2.16928e-07
9.00097e-05 0.0245827 2.67198e-08
-2.16928e-07 2.67198e-08 0.0248942

0.0302438 0.000865835 -1.2226e-07
0.000865835 0.0385879 1.20649e-07
-1.2226e-07 1.20649e-07 0.034103

0.03541 0.00219123 5.59535e-08
0.00219123 0.0293301 -7.21489e-08
5.59535e-08 -7.21489e-08 0.0328654

0.0248174 -0.00334003 4.20123e-08
-0.00334003 0.0300142 -7.48085e-08
4.20123e-08 -7.48085e-08 0.0244761

0.028657 -0.000337808 6.46353e-08
-0.000337808 0.0366651 1.73193e-07
6.46353e-08 1.73193e-07 0.0324027

0.0252215 0.00174069 4.79741e-08
0.00174069 0.032038 -1.50816e-07
4.79741e-08 -1.50816e-07 0.0256903

0.0332882 -0.0039103 5.10746e-08
-0.0039103 0.0305036 -1.85452e-08
5.10746e-08 -1.85452e-08 0.0315994

0.029072 -0.00389724 -1.4428e-08
-0.00389724 0.0282074 -1.9535e-07
-1.4428e-08 -1.9535e-07 0.02572

0.0261556 0.00410026 2.19634e-07
0.00410026 0.0285538 9.747e-08
2.19634e-07 9.747e-08 0.0243242

0.0452886 -0.00201703 -1.72081e-07
-0.00201703 0.0396098 5.48082e-08
-1.72081e-07 5.48082e-08 0.0363727

0.0316729 0.000256552 -1.46404e-07
0.000256552 0.0393329 2.19928e-07
-1.46404e-07 2.19928e-07 0.0347756

0.0306238 0.00265059 -9.28031e-08
0.00265059 0.0384484 -2.39908e-08
-9.28031e-08 -2.39908e-08 0.0349643

0.0387717 0.00209431 4.36443e-08
0.00209431 0.030229 5.39771e-08
4.36443e-08 5.39771e-08 0.0349492

0.0313783 -0.00345103 -2.32505e-08
-0.00345103 0.0321481 3.52842e-08
-2.32505e-08 3.52842e-08 0.0325799

0.0318265 0.00233673 -1.77753e-07
0.00233673 0.0256265 -7.48825e-08
-1.77753e-07 -7.48825e-08 0.025886

0.0349984 -0.000708033 3.35625e-08
-0.000708033 0.04158 2.62997e-09
3.35625e-08 2.62997e-09 0.0357339

0.035796 -0.00251845 -4.17795e-08
-0.00251845 0.0295572 -1.31404e-07
-4.17795e-08 -1.31404e-07 0.033265

0.0333053 -0.0020401 -2.20346e-07
-0.0020401 0.0266593 -1.00078e-08
-2.20346e-07 -1.00078e-08 0.0286823

0.0252584 0.0015114 1.81985e-08
0.0015114 0.0322827 1.98246e-07
1.81985e-08 1.98246e-07 0.0259565

0.0268114 -0.00334592 6.09093e-08
-0.00334592 0.0300172 1.72612e-07
6.09093e-08 1.72612e-07 0.0251935

0.0364844 -0.00336035 2.05227e-07
-0.00336035 0.0352927 -1.07402e-07
2.05227e-07 -1.07402e-07 0.0347488

0.0284829 0.00415345 2.61822e-07
0.00415345 0.0277229 2.78573e-08
2.61822e-07 2.78573e-08 0.025474

0.0372502 -0.00334517 1.31885e-08
-0.00334517 0.0333282 5.39439e-08
1.31885e-08 5.39439e-08 0.0346182

0.0322146 0.000338078 -2.4751e-08
0.000338078 0.0248686 7.18262e-08
-2.4751e-08 7.18262e-08 0.0254439

0.0191651 -0.00369018 1.91999e-08
-0.00369018 0.0275325 9.50435e-08
1.91999e-08 9.50435e-08 0.0163148

0.0292173 -0.00380475 1.21106e-07
-0.00380475 0.0281996 -8.41741e-08
1.21106e-07 -8.41741e-08 0.0258141

0.0230512 0.00412869 -4.09287e-08
0.00412869 0.0280271 2.03249e-07
-4.09287e-08 2.03249e-07 0.0175964

0.0296973 -0.001559 1.53658e-07
-0.001559 0.0375404 2.71073e-08
1.53658e-07 2.71073e-08 0.0336553

0.0243659 -0.00179414 -1.97828e-07
-0.00179414 0.0318805 -6.22178e-10
-1.97828e-07 -6.22178e-10 0.0254541

0.0424402 -0.00323327 -3.03065e-07
-0.00323327 0.0423783 -1.41842e-07
-3.03065e-07 -1.41842e-07 0.0363811

0.0263432 0.00309204 7.0575e-08
0.00309204 0.0307092 9.32885e-08
7.0575e-08 9.32885e-08 0.0254841

0.033484 -0.00432336 -2.23429e-07
-0.00432336 0.0326661 -6.6272e-08
-2.23429e-07 -6.6272e-08 0.0335732

0.0240862 -0.00155119 -5.59587e-08
-0.00155119 0.0318952 -6.18448e-08
-5.59587e-08 -6.18448e-08 0.0251828

0.0362301 -0.00253874 1.74639e-07
-0.00253874 0.029518 2.26661e-08
1.74639e-07 2.26661e-08 0.0335261

0.02668 0.00310574 1.90168e-07
0.00310574 0.0304023 1.45897e-07
1.90168e-07 1.45897e-07 0.0253193

0.0343513 -0.000654129 3.77514e-08
-0.000654129 0.0272835 -3.98705e-08
3.77514e-08 -3.98705e-08 0.0305845

0.0188943 -0.00387242 -5.71107e-08
-0.00387242 0.0298082 2.70338e-07
-5.71107e-08 2.70338e-07 0.0129643

0.0280058 0.00275505 -6.88149e-08
0.00275505 0.032637 -2.77047e-07
-6.88149e-08 -2.77047e-07 0.0305805

0.0314451 -0.00251305 -1.3159e-07
-0.00251305 0.0247279 1.6415e-07
-1.3159e-07 1.6415e-07 0.025412

0.0391228 -0.00286925 6.90814e-08
-0.00286925 0.0322274 9.50803e-08
6.90814e-08 9.50803e-08 0.034943

0.0287601 0.00412518 -1.21919e-07
0.00412518 0.0273063 3.53283e-08
-1.21919e-07 3.53283e-08 0.0252613

0.0313688 -0.00392028 -1.42583e-07
-0.00392028 0.0285485 1.57119e-08
-1.42583e-07 1.57119e-08 0.0287373

0.0354158 0.00276436 -8.10605e-08
0.00276436 0.030862 1.8995e-08
-8.10605e-08 1.8995e-08 0.0330456

0.0297797 -0.00370389 -8.92043e-09
-0.00370389 0.0329452 9.82795e-08
-8.92043e-09 9.82795e-08 0.0333491

0.0270613 -0.00341137 4.72732e-08
-0.00341137 0.02999 -7.44736e-08
4.72732e-08 -7.44736e-08 0.0254032

0.0284473 0.00377235 1.73749e-07
0.00377235 0.0289468 1.60185e-07
1.73749e-07 1.60185e-07 0.0258932

0.0313786 0.0034143 1.86907e-07
0.0034143 0.0269054 -5.45616e-08
1.86907e-07 -5.45616e-08 0.026972

0.0365427 -0.00194479 1.12191e-07
-0.00194479 0.0306311 -1.09897e-07
1.12191e-07 -1.09897e-07 0.0336418

0.0255395 -0.00216404 9.0579e-08
-0.00216404 0.0318091 2.39003e-08
9.0579e-08 2.39003e-08 0.0258595

0.0347071 -0.00231411 2.46454e-08
-0.00231411 0.0283406 1.10765e-07
2.46454e-08 1.10765e-07 0.0314623

0.0341931 0.00222352 -5.95765e-08
0.00222352 0.0274379 5.0524e-08
-5.95765e-08 5.0524e-08 0.0306102

0.0336494 -0.00124526 1.77561e-07
-0.00124526 0.0393053 -1.9012e-07
1.77561e-07 -1.9012e-07 0.0349331

0.0320795 -0.00174711 -1.92904e-07
-0.00174711 0.025336 4.69897e-08
-1.92904e-07 4.69897e-08 0.0258769

0.0250072 7.98382e-05 -2.05404e-08
7.98382e-05 0.0331589 1.33799e-07
-2.05404e-08 1.33799e-07 0.026867

0.0332546 0.00242935 -1.91469e-07
0.00242935 0.0271995 -1.46106e-08
-1.91469e-07 -1.46106e-08 0.0289282

0.0311246 0.00359988 -1.62298e-07
0.00359988 0.0272987 9.17837e-09
-1.62298e-07 9.17837e-09 0.0271285

0.0253009 -0.00204182 -2.08444e-07
-0.00204182 0.0318719 -6.53846e-08
-2.08444e-07 -6.53846e-08 0.0256167

0.0252065 -0.000154674 1.5633e-07
-0.000154674 0.0332992 9.19201e-08
1.5633e-07 9.19201e-08 0.0271499

0.0354191 0.00385845 1.13722e-08
0.00385845 0.0330008 -5.42882e-09
1.13722e-08 -5.42882e-09 0.0339013

0.0275919 -0.00143136 -1.16732e-07
-0.00143136 0.0353487 -8.60245e-08
-1.16732e-07 -8.60245e-08 0.0314483

0.0312411 -0.00348478 1.31503e-07
-0.00348478 0.0269836 -2.72135e-08
1.31503e-07 -2.72135e-08 0.0270156

0.0313037 0.0027734 1.63145e-07
0.0027734 0.0249274 -9.46966e-08
1.63145e-07 -9.46966e-08 0.0252517

0.0345895 0.00311864 -1.19684e-08
0.00311864 0.0293927 1.38748e-07
-1.19684e-08 1.38748e-07 0.031802

0.0279971 0.000717112 -4.6824e-08
0.000717112 0.0360465 -1.00273e-07
-4.6824e-08 -1.00273e-07 0.0318244

0.0287227 0.00378249 -1.63674e-07
0.00378249 0.0285659 1.05531e-07
-1.63674e-07 1.05531e-07 0.0257335

0.0367957 0.00305783 1.04196e-08
0.00305783 0.0361297 -9.70774e-09
1.04196e-08 -9.70774e-09 0.0349128

0.0226846 -0.0075471 -1.34208e-07
-0.0075471 0.018691 3.58635e-08
-1.34208e-07 3.58635e-08 0.0108474

0.0332979 -0.00328816 1.89985e-08
-0.00328816 0.0286386 2.89005e-08
1.89985e-08 2.89005e-08 0.0301301

0.0207309 0.00091363 1.83551e-07
0.00091363 0.0300378 -6.73554e-08
1.83551e-07 -6.73554e-08 0.0183504

0.0313071 -0.0037827 -1.6384e-07
-0.0037827 0.0292377 -2.22221e-08
-1.6384e-07 -2.22221e-08 0.0290376

0.00153981 -0.00651982 -2.78026e-09
-0.00651982 0.0275727 1.21811e-08
-2.78026e-09 1.21811e-08 0.00290894

0.0014702 0.00636937 -4.78341e-08
0.00636937 0.0275907 -2.09575e-07
-4.78341e-08 -2.09575e-07 0.00300193

0.0119865 0.0145072 4.31922e-08
0.0145072 0.0175352 5.41613e-08
4.31922e-08 5.41613e-08 0.00277179

0.0121679 -0.0144979 5.90195e-09
-0.0144979 0.0172267 -7.40082e-09
5.90195e-09 -7.40082e-09 0.00280441

0.0293454 -0.000164123 -1.76714e-07
-0.000164123 0 0
-1.76714e-07 0 0.00295324

0.0235959 -0.0112844 -1.11413e-07
-0.0112844 0.00539632 5.36537e-08
-1.11413e-07 5.36537e-08 0.00297898

0.023638 0.0113507 1.62942e-07
0.0113507 0.0054504 7.84689e-08
1.62942e-07 7.84689e-08 0.00304011

0.0369171 0.00191172 1.83517e-07
0.00191172 0.0302483 9.50332e-08
1.83517e-07 9.50332e-08 0.0338839

0.0387099 0.00340967 1.08699e-07
0.00340967 0.0366215 4.93272e-08
1.08699e-07 4.93272e-08 0.035584

0.0344227 0.000872736 -2.26604e-08
0.000872736 0.0274631 1.31696e-07
-2.26604e-08 1.31696e-07 0.0316944

0.0328804 0.00285095 -1.67459e-07
0.00285095 0.0268953 -5.77835e-08
-1.67459e-07 -5.77835e-08 0.0286525

0.0257064 0.00231384 5.42207e-08
0.00231384 0.0323744 -1.38653e-07
5.42207e-08 -1.38653e-07 0.0276417

0.0307198 0.00377004 -1.61619e-07
0.00377004 0.0276824 8.17357e-09
-1.61619e-07 8.17357e-09 0.0271236

0.0333124 -0.00390374 -9.06416e-08
-0.00390374 0.0304722 -2.22611e-07
-9.06416e-08 -2.22611e-07 0.0316363

0.0309804 0.00365551 1.3391e-07
0.00365551 0.027293 3.89012e-08
1.3391e-07 3.89012e-08 0.0269312

0.0249926 -0.00037154 4.94142e-08
-0.00037154 0.03313 1.3604e-07
4.94142e-08 1.3604e-07 0.0268492

0.0385527 -0.00348439 -7.17269e-09
-0.00348439 0.0368844 1.02016e-07
-7.17269e-09 1.02016e-07 0.0355897

0.0251812 -0.000635798 -1.66121e-07
-0.000635798 0.0332177 6.45637e-08
-1.66121e-07 6.45637e-08 0.0271088

0.0360239 0.00304788 7.3459e-09
0.00304788 0.0330173 5.32765e-09
7.3459e-09 5.32765e-09 0.0341041

0.02963 0.00347677 -2.47076e-08
0.00347677 0.0248518 -8.36743e-08
-2.47076e-08 -8.36743e-08 0.0230281

0.030503 -0.00171404 -1.43836e-07
-0.00171404 0.0375183 -3.86993e-08
-1.43836e-07 -3.86993e-08 0.0347428

0.0339282 0.00180505 2.84925e-07
0.00180505 0.0271877 -1.01423e-08
2.84925e-07 -1.01423e-08 0.030327

0.0312085 -0.00392129 1.09081e-07
-0.00392129 0.0285374 1.06385e-08
1.09081e-07 1.06385e-08 0.0286208

0.0315911 -0.00322233 6.20086e-08
-0.00322233 0.0266977 -1.6093e-07
6.20086e-08 -1.6093e-07 0.0270539

0.0384846 -0.002142 1.96079e-08
-0.002142 0.0334227 6.62038e-08
1.96079e-08 6.62038e-08 0.034751

0.0326883 0.00366468 -7.10247e-09
0.00366468 0.0292385 -1.09235e-07
-7.10247e-09 -1.09235e-07 0.0301615

0.0326522 0.00313845 5.58145e-08
0.00313845 0.0272587 1.80627e-08
5.58145e-08 1.80627e-08 0.0287944

0.0269611 -0.000365174 -5.04314e-08
-0.000365174 0.034995 1.27278e-07
-5.04314e-08 1.27278e-07 0.0301745

0.0259055 0.000765957 8.00967e-08
0.000765957 0.0340114 -7.33744e-08
8.00967e-08 -7.33744e-08 0.0288294

0.0327863 0.000345549 -5.03551e-08
0.000345549 0.0248674 7.04093e-08
-5.03551e-08 7.04093e-08 0.0274501

0.0313949 -0.000945303 -1.81513e-07
-0.000945303 0.0230089 9.04745e-08
-1.81513e-07 9.04745e-08 0.0238977

0.030888 0.00398641 1.21141e-07
0.00398641 0.0288127 1.52177e-08
1.21141e-07 1.52177e-08 0.0286306

0.0331252 -0.00343239 1.04487e-07
-0.00343239 0.0285469 1.06051e-08
1.04487e-07 1.06051e-08 0.0299759

0.0364193 -0.00282411 -1.5802e-08
-0.00282411 0.0327389 1.33353e-07
-1.5802e-08 1.33353e-07 0.0341504

0.0292132 -0.00412876 6.98963e-08
-0.00412876 0.0291993 -5.74419e-09
6.98963e-08 -5.74419e-09 0.0277603

0.0269784 -0.00362154 1.35716e-07
-0.00362154 0.0304721 4.81425e-08
1.35716e-07 4.81425e-08 0.0272197

0.0283328 0.00390051 5.53741e-08
0.00390051 0.0299082 -7.53581e-08
5.53741e-08 -7.53581e-08 0.0277584

0.0259072 -0.00124927 8.42513e-08
-0.00124927 0.033622 8.13888e-08
8.42513e-08 8.13888e-08 0.0285224

0.0266607 -0.00020235 -2.08176e-08
-0.00020235 0.0349208 -1.12507e-07
-2.08176e-08 -1.12507e-07 0.0299264

0.0277684 0.000752901 -1.5506e-07
0.000752901 0.0360459 -9.94388e-08
-1.5506e-07 -9.94388e-08 0.0316648

0.0262533 -0.00275028 2.75587e-08
-0.00275028 0.0319704 1.18152e-07
2.75587e-08 1.18152e-07 0.027717

0.0345898 0.00317627 1.15948e-07
0.00317627 0.0291748 -1.02188e-07
1.15948e-07 -1.02188e-07 0.031641

0.0339175 -0.00126123 7.25967e-08
-0.00126123 0.0269366 4.64536e-08
7.25967e-08 4.64536e-08 0.0302084

0.0257962 0.000974434 -5.74363e-08
0.000974434 0.0338372 6.81612e-08
-5.74363e-08 6.81612e-08 0.0285484

0.0278302 -0.00127018 -4.70243e-08
-0.00127018 0.0354046 -7.17927e-08
-4.70243e-08 -7.17927e-08 0.0313726

0.0272993 -0.00213758 -4.77779e-08
-0.00213758 0.0336654 6.15632e-08
-4.77779e-08 6.15632e-08 0.0302323

0.0327851 -0.00107763 6.46001e-08
-0.00107763 0.0253259 -2.72675e-07
6.46001e-08 -2.72675e-07 0.0272606

0.0333222 -0.00427116 -1.42085e-07
-0.00427116 0.0323876 5.7625e-08
-1.42085e-07 5.7625e-08 0.0335358

0.0264949 0.00122019 -7.23075e-08
0.00122019 0.0338433 6.79919e-08
-7.23075e-08 6.79919e-08 0.0288225

0.0398148 -0.00243158 1.33269e-07
-0.00243158 0.0352233 -1.0494e-07
1.33269e-07 -1.0494e-07 0.0354669

0.0188926 0.00316563 2.92233e-08
0.00316563 0.0278825 2.09599e-07
2.92233e-08 2.09599e-07 0.0162766

0.0338226 -0.00352323 -1.64934e-07
-0.00352323 0.0335007 2.12803e-08
-1.64934e-07 2.12803e-08 0.0337327

0.0353501 -0.00399953 -3.80453e-09
-0.00399953 0.0330523 6.35803e-08
-3.80453e-09 6.35803e-08 0.0339103

0.0266919 -9.0514e-05 5.2063e-08
-9.0514e-05 0.0349259 -1.10836e-07
5.2063e-08 -1.10836e-07 0.0299345

0.0332509 -0.00217682 1.74484e-07
-0.00217682 0.0271594 1.60569e-07
1.74484e-07 1.60569e-07 0.0289092

0.0293537 0.00168498 6.22271e-08
0.00168498 0.0358267 6.68297e-08
6.22271e-08 6.68297e-08 0.0328864

0.0132098 -0.000379297 2.28147e-09
-0.000379297 0.0283684 2.54331e-07
2.28147e-09 2.54331e-07 0.0111544

0.0271199 0.00186899 -3.56829e-08
0.00186899 0.0340694 1.37284e-07
-3.56829e-08 1.37284e-07 0.0303128

0.0311163 -0.00385953 9.97205e-08
-0.00385953 0.0291608 -8.27146e-09
9.97205e-08 -8.27146e-09 0.0288129

0.0186234 0.00320536 -5.37048e-08
0.00320536 0.030146 -1.93465e-08
-5.37048e-08 -1.93465e-08 0.0131298

0.0426029 0.0035167 2.45628e-08
0.0035167 0.041851 -2.64213e-07
2.45628e-08 -2.64213e-07 0.0364858

0.0432082 -0.00374757 5.27086e-07
-0.00374757 0.0414198 -3.74437e-07
5.27086e-07 -3.74437e-07 0.0364683

0.0310722 -0.0039916 -3.61194e-08
-0.0039916 0.0304777 -2.23685e-07
-3.61194e-08 -2.23685e-07 0.0304676

0.0289288 -0.00406529 -1.26347e-07
-0.00406529 0.0291573 -1.03279e-08
-1.26347e-07 -1.03279e-08 0.0276007

0.0330587 0.00272751 3.06043e-08
0.00272751 0.0275347 5.83313e-08
3.06043e-08 5.83313e-08 0.0290819

0.0327875 0.00196062 -3.65709e-08
0.00196062 0.0255969 -6.97035e-08
-3.65709e-08 -6.97035e-08 0.0278291

0.0464016 0.000418537 -3.6766e-07
0.000418537 0.046357 1.99322e-07
-3.6766e-07 1.99322e-07 0.0367

0.046918 -0.000950714 -1.26113e-07
-0.000950714 0.0457697 3.55404e-07
-1.26113e-07 3.55404e-07 0.036771

0.0348075 0.000638415 1.06319e-07
0.000638415 0.0275797 1.96526e-08
1.06319e-07 1.96526e-08 0.0322233

0.0277581 0.000882748 2.36811e-08
0.000882748 0.0355781 3.63922e-08
2.36811e-08 3.63922e-08 0.0313551

0.0276136 0.000882806 1.41088e-07
0.000882806 0.0355782 3.97426e-08
1.41088e-07 3.97426e-08 0.0312512

0.0234637 0.0074017 2.83923e-07
0.0074017 0.0183055 -2.31713e-07
2.83923e-07 -2.31713e-07 0.010904

0.0272533 -0.00367668 5.11044e-08
-0.00367668 0.0303544 -8.01772e-08
5.11044e-08 -8.01772e-08 0.0273256

0.0365736 0.00239148 2.22923e-07
0.00239148 0.0295828 4.45836e-08
2.22923e-07 4.45836e-08 0.0337908

0.0332818 0.00124775 -8.06276e-08
0.00124775 0.0265102 1.49712e-08
-8.06276e-08 1.49712e-08 0.0284382

0.0291593 -0.00349333 -1.0539e-07
-0.00349333 0.0304783 2.8112e-08
-1.0539e-07 2.8112e-08 0.0281795

0.0328183 -0.00264852 -3.60641e-08
-0.00264852 0.0267339 -1.64376e-07
-3.60641e-08 -1.64376e-07 0.028593

0.0224646 0.00761465 2.04707e-08
0.00761465 0.0185938 4.84438e-07
2.04707e-08 4.84438e-07 0.0109064

0.0331515 0.00410268 -7.78803e-08
0.00410268 0.0326445 3.05682e-08
-7.78803e-08 3.05682e-08 0.0331879

0.0258959 -0.00257899 -1.67239e-07
-0.00257899 0.0320315 -1.33791e-07
-1.67239e-07 -1.33791e-07 0.0275135

0.0324891 0.00378664 -1.10939e-07
0.00378664 0.0292745 3.17175e-08
-1.10939e-07 3.17175e-08 0.0301533

0.0268219 -0.000543866 -1.63052e-08
-0.000543866 0.0349599 1.30762e-07
-1.63052e-08 1.30762e-07 0.0301442

0.0269961 0.00256411 -1.65732e-07
0.00256411 0.0324562 1.66767e-07
-1.65732e-07 1.66767e-07 0.0282927

0.0305333 0.0039921 -1.52101e-07
0.0039921 0.0293296 2.78344e-08
-1.52101e-07 2.78344e-08 0.0287813

0.0276152 -0.00293801 1.56301e-07
-0.00293801 0.0318609 1.41049e-07
1.56301e-07 1.41049e-07 0.0282552

0.0294626 -0.00357683 2.54573e-08
-0.00357683 0.0303581 -8.19088e-08
2.54573e-08 -8.19088e-08 0.0283112

0.0181411 0.00142571 3.86738e-08
0.00142571 0.0280422 2.84419e-07
3.86738e-08 2.84419e-07 0.0131305

0.0234787 -0.00429524 -5.99171e-08
-0.00429524 0.0275621 9.7321e-08
-5.99171e-08 9.7321e-08 0.0177273

0.0262112 -0.00152643 -9.29501e-08
-0.00152643 0.0336313 -4.20344e-08
-9.29501e-08 -4.20344e-08 0.028758

0.0330305 0.00347572 -6.56598e-08
0.00347572 0.0288842 3.11807e-08
-6.56598e-08 3.11807e-08 0.0300751

0.0303286 0.00385833 -5.4193e-08
0.00385833 0.0298934 -8.28478e-08
-5.4193e-08 -8.28478e-08 0.0289965

0.0274206 -0.00280146 4.90347e-08
-0.00280146 0.0319912 -1.18158e-07
4.90347e-08 -1.18158e-07 0.0281452

0.0265604 -0.00154112 -5.59462e-08
-0.00154112 0.0335905 7.4234e-08
-5.59462e-08 7.4234e-08 0.0287524

0.0309635 0.00371941 1.30831e-07
0.00371941 0.0295701 -3.73249e-09
1.30831e-07 -3.73249e-09 0.0289473

0.0267653 -0.00181654 -3.29725e-08
-0.00181654 0.0334817 -2.91995e-08
-3.29725e-08 -2.91995e-08 0.0289605

0.0191697 0.00355575 -3.8064e-08
0.00355575 0.0276141 2.70339e-08
-3.8064e-08 2.70339e-08 0.0162958

0.0308788 -0.000534527 -1.83325e-07
-0.000534527 0.0388246 9.51635e-08
-1.83325e-07 9.51635e-08 0.0343003

0.0286627 0.0040489 -2.10446e-07
0.0040489 0.0295252 3.44011e-08
-2.10446e-07 3.44011e-08 0.0277206

0.0355869 0.00197547 -5.57728e-08
0.00197547 0.0295092 1.41168e-07
-5.57728e-08 1.41168e-07 0.0328489

0.0362653 -0.0021152 3.32599e-08
-0.0021152 0.0297615 -2.56155e-08
3.32599e-08 -2.56155e-08 0.033224

0.0285169 -0.00309659 -1.15489e-08
-0.00309659 0.0185724 3.09329e-07
-1.15489e-08 3.09329e-07 0.0157334

0.0283601 -0.00279052 -1.51524e-07
-0.00279052 0.0327832 -3.10092e-07
-1.51524e-07 -3.10092e-07 0.030578

0.0291978 0.00350181 -1.02239e-07
0.00350181 0.0316068 7.02515e-08
-1.02239e-07 7.02515e-08 0.0304938

0.0349656 -0.0029074 1.13665e-07
-0.0029074 0.0376799 1.24761e-07
1.13665e-07 1.24761e-07 0.0352418

0.0394627 0.00188408 -3.77604e-07
0.00188408 0.0446098 -2.86621e-08
-3.77604e-07 -2.86621e-08 0.0364381

0.0449442 0.00129012 -1.02461e-09
0.00129012 0.0391195 -4.0742e-08
-1.02461e-09 -4.0742e-08 0.0364201

0.035566 0.00434508 3.5687e-08
0.00434508 0.0351398 2.58822e-08
3.5687e-08 2.58822e-08 0.0350091

0.0265777 0.00338887 -5.26485e-08
0.00338887 0.0310132 -1.30758e-07
-5.26485e-08 -1.30758e-07 0.0272618

0.0330465 0.0034976 -8.72639e-08
0.0034976 0.028673 8.55001e-08
-8.72639e-08 8.55001e-08 0.0300562

0.0220643 0.00576585 1.21156e-07
0.00576585 0.0242427 9.63495e-08
1.21156e-07 9.63495e-08 0.0160759

0.038621 -0.00151146 5.0592e-07
-0.00151146 0.0444332 -1.53051e-07
5.0592e-07 -1.53051e-07 0.0363672

0.0460478 -0.000462703 1.57538e-08
-0.000462703 0.0454383 -1.8249e-07
1.57538e-08 -1.8249e-07 0.036696

0.0451801 -3.16145e-05 -1.906e-08
-3.16145e-05 0.0463024 7.78405e-08
-1.906e-08 7.78405e-08 0.0366781

0.0176441 -0.00679648 -2.24611e-07
-0.00679648 0.0231129 -6.54961e-08
-2.24611e-07 -6.54961e-08 0.0107409

0.0392972 -0.00155589 -1.25738e-07
-0.00155589 0.0387181 1.01223e-07
-1.25738e-07 1.01223e-07 0.035859

0.0383996 0.00117604 -2.46463e-07
0.00117604 0.0415207 -3.11975e-07
-2.46463e-07 -3.11975e-07 0.0361303

0.0331821 -0.00343638 4.17864e-09
-0.00343638 0.0282256 -2.20881e-07
4.17864e-09 -2.20881e-07 0.0299097

0.0318497 0.000140191 1.81949e-07
0.000140191 0.0386775 5.80523e-08
1.81949e-07 5.80523e-08 0.0344563

0.0285833 -0.00266053 -6.14418e-08
-0.00266053 0.0333876 1.36348e-07
-6.14418e-08 1.36348e-07 0.0315958

0.0356693 0.000831878 -1.08993e-08
0.000831878 0.0273845 -6.83864e-08
-1.08993e-08 -6.83864e-08 0.0330066

0.0288824 0.00204434 6.33901e-08
0.00204434 0.0368228 -1.39932e-07
6.33901e-08 -1.39932e-07 0.0336759

0.0298749 0.000946177 -9.55085e-08
0.000946177 0.037395 -1.10198e-07
-9.55085e-08 -1.10198e-07 0.0333696

0.0344083 0.00268545 3.08842e-08
0.00268545 0.0288576 7.05493e-08
3.08842e-08 7.05493e-08 0.0312325

0.0132813 -0.000409387 -4.03164e-08
-0.000409387 0.0281287 -1.40829e-08
-4.03164e-08 -1.40829e-08 0.0112038

0.0309711 -0.00362678 -1.32949e-07
-0.00362678 0.0309226 -1.16024e-07
-1.32949e-07 -1.16024e-07 0.0306159

0.0329351 -0.00344392 -1.22681e-07
-0.00344392 0.0320274 -1.0819e-07
-1.22681e-07 -1.0819e-07 0.0325856

0.0335775 -0.00415936 -1.93966e-07
-0.00415936 0.032541 4.74983e-08
-1.93966e-07 4.74983e-08 0.033742

0.0265675 0.00414979 -3.35853e-07
0.00414979 0.0176948 -1.32899e-07
-3.35853e-07 -1.32899e-07 0.012608

0.0388319 -0.0026962 4.414e-08
-0.0026962 0.0395794 6.02961e-08
4.414e-08 6.02961e-08 0.0359637

0.0230873 0.00692231 1.66012e-07
0.00692231 0.0255072 1.56455e-07
1.66012e-07 1.56455e-07 0.0126123

0.0308809 -0.0028174 -8.92648e-08
-0.0028174 0.0348145 1.79751e-08
-8.92648e-08 1.79751e-08 0.0339626

0.035419 0.00193671 -2.19883e-07
0.00193671 0.0284722 -1.49291e-07
-2.19883e-07 -1.49291e-07 0.032351

0.0318286 -0.00189408 4.24875e-08
-0.00189408 0.0249562 -2.78103e-07
4.24875e-08 -2.78103e-07 0.0254012

0.0292992 0.00315984 1.16081e-08
0.00315984 0.0327394 -2.63074e-07
1.16081e-08 -2.63074e-07 0.0312862

0.0344439 0.0026889 1.454e-07
0.0026889 0.0286405 -2.01257e-07
1.454e-07 -2.01257e-07 0.0312272

0.0325237 0.00149855 -4.83256e-08
0.00149855 0.0403779 -1.65089e-07
-4.83256e-08 -1.65089e-07 0.0353422

0.0319471 -0.00415508 6.06951e-08
-0.00415508 0.0312084 -2.18381e-07
6.06951e-08 -2.18381e-07 0.0318171

0.0396809 0.00265541 -6.28902e-08
0.00265541 0.0332035 4.47701e-08
-6.28902e-08 4.47701e-08 0.0353217

0.027978 -0.00241926 1.44424e-09
-0.00241926 0.0335591 6.93842e-08
1.44424e-09 6.93842e-08 0.030477

0.0293568 0.000558874 3.28664e-08
0.000558874 0.0373188 -9.65972e-08
3.28664e-08 -9.65972e-08 0.0332588

0.0419465 0.00133776 2.40382e-07
0.00133776 0.037104 3.23002e-08
2.40382e-07 3.23002e-08 0.0361216

0.0421011 -0.00114828 4.48991e-08
-0.00114828 0.0373298 1.07452e-07
4.48991e-08 1.07452e-07 0.0361035

0.0283897 0.00236969 2.79482e-07
0.00236969 0.018185 -2.25231e-07
2.79482e-07 -2.25231e-07 0.0159534

0.0350333 0.00106159 4.31374e-08
0.00106159 0.0285726 -1.64298e-07
4.31374e-08 -1.64298e-07 0.0330654

0.0128691 0.000923636 -3.9129e-08
0.000923636 0.031632 -2.14985e-08
-3.9129e-08 -2.14985e-08 0.00612306

0.0131648 -0.00138844 -8.41359e-09
-0.00138844 0.0321378 -2.45427e-07
-8.41359e-09 -2.45427e-07 0.00611342

0.0152713 0.0071554 7.24528e-08
0.0071554 0.0284582 -4.86361e-08
7.24528e-08 -4.86361e-08 0.00598549

0.0347705 -0.00382165 -2.1696e-07
-0.00382165 0.0312743 1.19266e-07
-2.1696e-07 1.19266e-07 0.0329454

0.0155837 -0.00619577 5.25778e-08
-0.00619577 0.0261582 -2.3239e-07
5.25778e-08 -2.3239e-07 0.0104743

0.0155154 -0.00708801 -6.69172e-08
-0.00708801 0.0274284 -2.67781e-07
-6.69172e-08 -2.67781e-07 0.00591528

0.0284325 0.00342661 9.57486e-08
0.00342661 0.0310135 -1.30303e-07
9.57486e-08 -1.30303e-07 0.028159

0.0251978 0.00932752 -3.0498e-07
0.00932752 0.0190239 1.20336e-07
-3.0498e-07 1.20336e-07 0.00593515

0.0365419 0.00173153 8.71997e-08
0.00173153 0.0385568 -6.56733e-08
8.71997e-08 -6.56733e-08 0.0354809

0.0395396 2.63433e-05 6.35059e-08
2.63433e-05 0.035544 -1.08319e-08
6.35059e-08 -1.08319e-08 0.0354616

0.0261118 -0.00924601 -7.13418e-08
-0.00924601 0.0188157 -2.36176e-08
-7.13418e-08 -2.36176e-08 0.00588931

0.0276963 -0.00306619 -2.80196e-08
-0.00306619 0.0321028 1.1168e-08
-2.80196e-08 1.1168e-08 0.0296294

0.0262608 0.0044193 -3.75067e-07
0.0044193 0.020162 1.73647e-08
-3.75067e-07 1.73647e-08 0.0130476

0.0172823 0.0079745 -3.40821e-09
0.0079745 0.0271536 -1.96991e-07
-3.40821e-09 -1.96991e-07 0.00598921

0.0181997 0.00275593 1.11788e-07
0.00275593 0.0275956 2.72112e-07
1.11788e-07 2.72112e-07 0.012853

0.0173072 -0.00827774 -7.0958e-08
-0.00827774 0.027157 3.32439e-08
-7.0958e-08 3.32439e-08 0.00581506

0.0179363 -0.00157124 5.721e-08
-0.00157124 0.0280114 -6.73239e-08
5.721e-08 -6.73239e-08 0.0126934

0.0370539 0.000922389 4.50094e-07
0.000922389 0.0413045 -3.08605e-08
4.50094e-07 -3.08605e-08 0.0358155

0.022136 -0.00585681 -1.69083e-07
-0.00585681 0.0236695 -2.55235e-07
-1.69083e-07 -2.55235e-07 0.0151623

0.015703 0.0059877 1.61605e-07
0.0059877 0.0259077 1.5674e-07
1.61605e-07 1.5674e-07 0.0107526

0.0302138 0.00473095 -2.19177e-07
0.00473095 0.0143518 -7.25858e-08
-2.19177e-07 -7.25858e-08 0.00611716

0.0329453 -0.00385011 1.61397e-07
-0.00385011 0.0301307 1.77805e-07
1.61397e-07 1.77805e-07 0.0310577

0.0308944 0.00169379 8.23533e-09
0.00169379 0.0368494 -1.37589e-07
8.23533e-09 -1.37589e-07 0.0339564

0.0260957 -0.00484524 1.95958e-07
-0.00484524 0.0192012 4.21017e-08
1.95958e-07 4.21017e-08 0.0126979

0.0330076 -0.00378675 9.66014e-08
-0.00378675 0.0300813 2.41421e-08
9.66014e-08 2.41421e-08 0.031134

0.030024 -0.00452072 -1.05706e-07
-0.00452072 0.0130558 -1.23928e-07
-1.05706e-07 -1.23928e-07 0.0060386

0.0324802 -0.00372812 2.35804e-07
-0.00372812 0.0313138 3.84401e-08
2.35804e-07 3.84401e-08 0.0319858

0.0280976 -0.00331202 4.74624e-08
-0.00331202 0.0320107 2.8453e-07
4.74624e-08 2.8453e-07 0.0296318

0.0234476 0.00874512 1.49531e-07
0.00874512 0.0204865 -3.38069e-07
1.49531e-07 -3.38069e-07 0.0060275

0.0182031 -0.00292149 1.3533e-07
-0.00292149 0.026872 -3.55959e-08
1.3533e-07 -3.55959e-08 0.0122727

0.0233185 -0.00902089 -1.08753e-07
-0.00902089 0.0201555 -3.13295e-09
-1.08753e-07 -3.13295e-09 0.00588531

0.0170856 0.00640974 8.03394e-09
0.00640974 0.023571 -1.31828e-07
8.03394e-09 -1.31828e-07 0.0108335

0.0308328 -0.00396098 -3.02545e-08
-0.00396098 0.030167 1.9461e-07
-3.02545e-08 1.9461e-07 0.030092

0.0389222 -0.00195868 9.06551e-08
-0.00195868 0.0369446 -1.45707e-07
9.06551e-08 -1.45707e-07 0.0355051

0.0455411 0.00150583 -3.80744e-07
0.00150583 0.0449528 -5.62959e-09
-3.80744e-07 -5.62959e-09 0.0366242

0.0435661 -0.000711966 -1.52945e-07
-0.000711966 0.0462302 -1.46663e-12
-1.52945e-07 -1.46663e-12 0.0365899

0.0286216 0.00171603 -6.5092e-09
0.00171603 0.0355734 -2.19712e-08
-6.5092e-09 -2.19712e-08 0.032396

0.0453364 -0.0014469 1.21717e-07
-0.0014469 0.0449805 -1.43907e-07
1.21717e-07 -1.43907e-07 0.0366419

0.043809 0.000567624 -3.2435e-07
0.000567624 0.0465049 1.33021e-07
-3.2435e-07 1.33021e-07 0.0366231

0.0466805 0.00099113 -7.5495e-08
0.00099113 0.0433785 -1.13099e-07
-7.5495e-08 -1.13099e-07 0.0365982

0.0397529 -0.00163852 -3.5652e-07
-0.00163852 0.0460745 2.4409e-08
-3.5652e-07 2.4409e-08 0.036488

0.0190576 -0.00388844 1.15711e-07
-0.00388844 0.0272368 5.4908e-09
1.15711e-07 5.4908e-09 0.0154746

0.0421444 -0.00175058 -3.34986e-07
-0.00175058 0.0367295 -5.98993e-08
-3.34986e-07 -5.98993e-08 0.0360102

0.0359702 -0.00457321 1.74012e-07
-0.00457321 0.0351553 -1.13884e-07
1.74012e-07 -1.13884e-07 0.034974

0.0397568 -0.0024221 -1.55088e-07
-0.0024221 0.0360686 -2.06958e-07
-1.55088e-07 -2.06958e-07 0.0355728

0.035192 0.00204366 -1.61873e-07
0.00204366 0.0285552 -2.21058e-07
-1.61873e-07 -2.21058e-07 0.0322383

0.0396949 0.00133767 1.24739e-07
0.00133767 0.0472248 -1.47821e-07
1.24739e-07 -1.47821e-07 0.0365538

0.0464963 0.00259273 -2.57659e-07
0.00259273 0.0404211 2.9543e-07
-2.57659e-07 2.9543e-07 0.0365351

0.040091 0.0015061 1.31008e-07
0.0015061 0.0366783 -1.18228e-08
1.31008e-07 -1.18228e-08 0.0356208

0.0279204 -0.00192042 3.16652e-07
-0.00192042 0.0125268 -1.69431e-07
3.16652e-07 -1.69431e-07 0.0106269

0.0283254 0.00326856 1.69233e-07
0.00326856 0.031557 1.7532e-07
1.69233e-07 1.7532e-07 0.0294171

0.0231926 -0.00773799 -9.4891e-08
-0.00773799 0.0181835 -1.46141e-08
-9.4891e-08 -1.46141e-08 0.0102917

0.0228353 -0.00731742 -1.63372e-07
-0.00731742 0.0257737 -2.59237e-07
-1.63372e-07 -2.59237e-07 0.0119572

0.0290286 -0.00464806 1.56171e-07
-0.00464806 0.0191319 2.772e-07
1.56171e-07 2.772e-07 0.0126179

0.0375782 -0.000660659 -3.81201e-08
-0.000660659 0.0449131 -1.21333e-07
-3.81201e-08 -1.21333e-07 0.0362991

0.0375759 0.00035851 1.87419e-07
0.00035851 0.0447903 8.68146e-08
1.87419e-07 8.68146e-08 0.0362794

0.0426076 -0.00327348 -1.10089e-07
-0.00327348 0.0394532 1.25824e-07
-1.10089e-07 1.25824e-07 0.0362332

0.0430008 -0.00294344 4.51308e-08
-0.00294344 0.0391719 1.44113e-08
4.51308e-08 1.44113e-08 0.0362402

0.0425035 0.00350287 -1.57562e-07
0.00350287 0.0399748 -2.80104e-07
-1.57562e-07 -2.80104e-07 0.036278

0.0443986 0.000415297 2.1361e-07
0.000415297 0.0450806 2.12426e-07
2.1361e-07 2.12426e-07 0.0366411

0.0426111 -0.00274409 2.37186e-08
-0.00274409 0.0395109 -1.05935e-07
2.37186e-08 -1.05935e-07 0.0362947

0.0426054 -0.00251076 3.35372e-07
-0.00251076 0.0442686 5.92146e-07
3.35372e-07 5.92146e-07 0.0365688

0.0451177 0.000330601 3.31101e-07
0.000330601 0.045468 1.46837e-07
3.31101e-07 1.46837e-07 0.0366594

0.043638 -0.00278226 2.48522e-07
-0.00278226 0.0389199 -2.52219e-08
2.48522e-07 -2.52219e-08 0.0363354

0.0435138 0.00283805 -3.10281e-07
0.00283805 0.0390727 1.08098e-07
-3.10281e-07 1.08098e-07 0.0363734

0.045195 -0.000470672 -1.65263e-07
-0.000470672 0.0455822 -1.71884e-07
-1.65263e-07 -1.71884e-07 0.0367081

0.0452272 -0.000423691 6.31929e-07
-0.000423691 0.0443591 -7.67958e-07
6.31929e-07 -7.67958e-07 0.0367264

0.0428007 0.00163834 -6.18044e-09
0.00163834 0.0442505 2.99446e-07
-6.18044e-09 2.99446e-07 0.0366126

0.0411192 0.00361723 6.25984e-08
0.00361723 0.0405185 -1.04973e-07
6.25984e-08 -1.04973e-07 0.0363273

SCALARS pressure float
LOOKUP_TABLE default
-60.0712
19.3118
5.80945
21.293
15.8796
5.89347
-58.694
7.78816
-3.79998
15.128
-24.4415
7.62232
5.59693
12.2838
23.3357
5.54391
18.5236
13.2131
-0.686656
6.76348
-0.899655
33.117
5.80756
5.80328
6.60862
14.9082
-38.396
6.67823
-15.2414
30.614
5.18127
-15.6562
-42.0685
27.3192
20.7734
27.3521
31.872
19.8038
4.86461
-42.612
-17.4071
31.8927
31.9808
5.99832
-21.809
-15.9749
-1.04654
-3.40074
6.55126
-16.2178
-18.9193
-15.3441
20.754
-15.3714
20.3075
-33.1556
21.1236
-15.4586
21.1335
7.05162
21.7673
16.1198
-45.5728
12.7917
16.363
10.9091
21.5767
13.8335
5.78004
21.8203
20.81
20.7807
-17.6908
11.6043
3.97909
-31.6194
14.3573
11.0002
14.1517
-8.71607
-28.949
14.9766
20.1654
-22.0404
-23.431
-28.0979
7.10432
9.6362
-22.2198
37.7239
-15.5072
38.4262
18.3041
10.7661
-15.1647
-15.8723
-30.2259
14.7568
14.3663
4.60368
-10.7629
-21.9403
-25.105
16.2177
14.1059
14.965
18.6999
3.78001
-24.5616
26.5129
7.22443
-21.4124
-24.6158
14.8435
15.0814
-16.1442
20.1592
-29.1176
20.6227
-16.728
-2.89909
23.8316
21.7304
16.0353
26.6793
22.6316
21.7802
15.7117
-29.7855
-16.0975
24.0888
21.621
20.9911
22.0689
-22.0146
23.5797
-33.8438
5.46837
21.7557
23.623
-21.9374
6.68068
-5.96199
15.0886
-30.4123
15.628
7.8389
2.41311
5.183
-9.39073
-0.452323
22.6445
-15.4536
5.2958
15.2091
21.5641
11.5121
-21.1135
-21.2641
10.7961
-2.83797
-15.1964
-21.224
-15.1645
-20.9867
15.2829
-20.636
-21.202
-15.2067
-21.064
19.0035
-15.9394
-14.8236
12.068
-14.4827
18.8052
19.0525
7.4783
18.047
11.7784
-16.2483
15.2915
14.9643
-21.5289
10.4303
-14.2203
16.051
14.5988
17.0816
14.8384
10.3476
-26.9799
-16.0807
-15.9573
21.9102
14.5317
14.6304
20.9244
22.49
9.50681
21.7371
-0.378666
-8.16678
20.7808
-17.8386
19.9474
10.3683
-21.5182
15.7234
22.5289
14.7321
9.39833
14.1955
21.0572
-7.82857
8.83191
-7.90449
14.6515
26.9271
26.5809
27.9597
26.3881
26.7238
26.2905
13.831
23.428
24.0271
23.9713
23.3977
21.1913
21.8557
-8.25879
15.9378
28.1911
-3.18416
23.5737
23.203
27.8345
-8.48966
28.0964
15.3478
-7.57733
17.4937
-8.25377
20.2291
29.6124
-7.48169
-8.09673
-29.5963
-18.1899
19.5291
-31.9908
5.73911
-7.78991
-1.18367
28.2491
26.6399
30.4151
26.7605
-34.8073
-8.17563
28.3373
8.07836
-8.29126
26.4456
-6.29094
30.46
-7.95003
27.0465
14.5684
14.7926
23.8427
10.0514
18.0202
8.12222
-29.8655
-24.5578
16.8068
1.76519
8.18496
-13.6064
17.4373
11.7034
-8.0975
9.45631
-10.8202
7.522
-10.7514
-8.48087
33.2501
19.1506
25.086
25.3103
13.8339
-10.4012
26.4235
14.6874
-1.65391
-10.2705
-12.5616
17.5062
-7.48101
17.5743
-12.0384
-21.3545
-10.605
-34.6874
15.5657
-7.75882
34.4274
-11.575
16.8747
-8.40481
15.9751
-12.7557
4.29378
-51.1309
8.52789
-7.74249
21.3331
-8.1481
-0.117318
10.7184
21.1278
-12.0578
-10.1974
-6.06384
14.3212
-10.1766
6.89264
6.39184
16.3049
-10.4163
-6.32607
-1.69744
-5.65602
-11.0753
-5.8403
15.3079
7.81272
-5.55159
-8.95666
7.80978
7.69854
-10.6713
16.3088
-27.2244
2.29823
-28.4854
-0.952735
-8.89715
-8.11525
-11.7988
-10.9622
-9.90021
-7.79501
-7.91841
16.6407
24.7731
12.1218
-0.286139
-0.819393
-5.67014
7.30975
-6.31638
-6.31365
24.9186
-5.72553
14.1192
-15.9068
24.3223
5.97412
-0.385732
-5.63947
16.275
2.48219
0.204557
2.45318
0.461499
-0.735096
-9.92693
-0.0900356
2.11837
15.0696
-1.28269
-1.40153
-0.993259
-0.383209
1.97039
8.05566
-1.18802
8.08309
5.5891
-0.430209
7.04036
5.49614
-3.87172
16.4789
-1.8987
23.058
-21.9775
15.047
15.6847
2.04478
-1.99294
12.5472
-26.5165
5.79829
-1.65315
-50.495
30.4865
30.6233
5.83094
-1.13875
-1.04206
-0.844008
33.4009
33.2754
13.0992
6.08648
6.66761
-28.9734
-1.27376
16.5354
-3.17824
-4.34391
-0.0114544
-25.2813
14.3074
-1.2746
2.86698
2.69836
-2.71852
-0.0439556
-3.20489
-4.02931
-37.993
-33.689
-0.122666
1.87937
-0.529151
-3.73976
-1.93186
-1.8732
-0.919379
-21.9114
17.2502
-0.763565
12.5694
14.1874
-26.7698
6.29146
7.14258
18.4775
36.4132
36.4457
22.6377
-1.75023
2.60495
-20.9338
36.1125
32.7425
32.8094
-24.8188
21.7694
30.5131
2.6045
15.7243
10.3767
17.1677
17.7286
12.5088
5.68647
-25.4078
4.26486
10.4132
16.2461
-31.7195
28.3018
-52.7228
18.6879
10.303
-10.6241
7.42203
5.46187
24.4717
9.41601
24.4047
4.11002
12.4025
30.6311
29.4571
-22.9946
17.4393
-70.2518
-74.3989
-67.1955
11.6517
-31.2713
-63.6284
-3.79901
-69.9573
16.4616
16.4053
-73.7742
5.2186
-39.7405
-70.7579
-37.7662
-71.8947
-39.4623
21.1312
-23.9656
-29.0546
-70.6417
4.83609
15.76
-36.2001
6.05869
-63.6358
9.84066
3.88787
-67.9201
-37.6343
-66.4295
-23.7652
5.03504
20.5218
35.3539
36.7091
11.8169
36.8326
36.8859
36.4746
36.3897
-24.4839
28.241
20.6691
21.9763
11.5398
36.0457
36.0771
18.1168
-23.9502
3.25239
-30.5376
-56.6103
-50.4856
36.1298
35.8108
35.3677
35.4379
36.1458
35.5815
33.0977
37.3553
35.3826
35.9927
35.6252
34.1797
34.3161
35.8411
35.2979
