# vtk DataFile Version 3.0
vtk output at time 420
ASCII
DATASET UNSTRUCTURED_GRID
POINTS 626 float
-3.68058e-05 0.000978749 0 3.68058e-05 0.000978749 0 -0.000829194 0.00052125 0 
-0.0008235 0.0005 0 -0.000866 0.0004575 0 -0.000866 -0.0004575 0 
-0.0008235 -0.0005 0 -0.000829194 -0.00052125 0 -3.68058e-05 -0.000978749 0 
3.68058e-05 -0.000978749 0 0.000829194 -0.00052125 0 0.000866 -0.0004575 0 
0.000866 0.0004575 0 0.000829194 0.00052125 0 8.5e-05 0 0 
-3.68058e-05 0.000978749 -0.001 3.68058e-05 0.000978749 -0.001 -0.000829194 0.00052125 -0.001 
-0.0008235 0.0005 -0.001 -0.000866 0.0004575 -0.001 -0.000866 -0.0004575 -0.001 
-0.0008235 -0.0005 -0.001 -0.000829194 -0.00052125 -0.001 -3.68058e-05 -0.000978749 -0.001 
3.68058e-05 -0.000978749 -0.001 0.000829194 -0.00052125 -0.001 0.000866 -0.0004575 -0.001 
0.000866 0.0004575 -0.001 0.000829194 0.00052125 -0.001 8.5e-05 0 -0.001 
8.46223e-17 0.0009575 0 -0.000715996 0.000586607 0 -0.000602797 0.000651965 0 
-0.000489599 0.000717321 0 -0.000376401 0.000782678 0 -0.000263202 0.000848036 0 
-0.000150004 0.000913393 0 -0.000835948 0.000469948 0 -0.000866 -0.000326786 0 
-0.000866 -0.000196071 0 -0.000866 -6.53571e-05 0 -0.000866 6.53571e-05 0 
-0.000866 0.000196071 0 -0.000866 0.000326786 0 -0.000835948 -0.000469948 0 
-0.000150004 -0.000913393 0 -0.000263202 -0.000848036 0 -0.000376401 -0.000782678 0 
-0.000489599 -0.000717321 0 -0.000602797 -0.000651965 0 -0.000715996 -0.000586607 0 
8.47648e-17 -0.0009575 0 0.000715996 -0.000586607 0 0.000602797 -0.000651965 0 
0.000489599 -0.000717321 0 0.000376401 -0.000782678 0 0.000263202 -0.000848036 0 
0.000150004 -0.000913393 0 0.000829194 -0.00047875 0 0.000866 0.000326786 0 
0.000866 0.000196071 0 0.000866 6.53571e-05 0 0.000866 -6.53571e-05 0 
0.000866 -0.000196071 0 0.000866 -0.000326786 0 0.000829194 0.00047875 0 
0.000150004 0.000913393 0 0.000263202 0.000848036 0 0.000376401 0.000782678 0 
0.000489599 0.000717321 0 0.000602797 0.000651965 0 0.000715996 0.000586607 0 
5.29966e-05 6.64557e-05 0 -1.89143e-05 8.28689e-05 0 -7.65824e-05 3.68801e-05 0 
-7.65824e-05 -3.68801e-05 0 -1.89143e-05 -8.28689e-05 0 5.29966e-05 -6.64557e-05 0 
8.46223e-17 0.0009575 -0.001 -0.000715996 0.000586607 -0.001 -0.000602797 0.000651965 -0.001 
-0.000489599 0.000717321 -0.001 -0.000376401 0.000782678 -0.001 -0.000263202 0.000848036 -0.001 
-0.000150004 0.000913393 -0.001 -0.000835948 0.000469948 -0.001 -0.000866 -0.000326786 -0.001 
-0.000866 -0.000196071 -0.001 -0.000866 -6.53571e-05 -0.001 -0.000866 6.53571e-05 -0.001 
-0.000866 0.000196071 -0.001 -0.000866 0.000326786 -0.001 -0.000835948 -0.000469948 -0.001 
-0.000150004 -0.000913393 -0.001 -0.000263202 -0.000848036 -0.001 -0.000376401 -0.000782678 -0.001 
-0.000489599 -0.000717321 -0.001 -0.000602797 -0.000651965 -0.001 -0.000715996 -0.000586607 -0.001 
8.47648e-17 -0.0009575 -0.001 0.000715996 -0.000586607 -0.001 0.000602797 -0.000651965 -0.001 
0.000489599 -0.000717321 -0.001 0.000376401 -0.000782678 -0.001 0.000263202 -0.000848036 -0.001 
0.000150004 -0.000913393 -0.001 0.000829194 -0.00047875 -0.001 0.000866 0.000326786 -0.001 
0.000866 0.000196071 -0.001 0.000866 6.53571e-05 -0.001 0.000866 -6.53571e-05 -0.001 
0.000866 -0.000196071 -0.001 0.000866 -0.000326786 -0.001 0.000829194 0.00047875 -0.001 
0.000150004 0.000913393 -0.001 0.000263202 0.000848036 -0.001 0.000376401 0.000782678 -0.001 
0.000489599 0.000717321 -0.001 0.000602797 0.000651965 -0.001 0.000715996 0.000586607 -0.001 
5.29966e-05 6.64557e-05 -0.001 -1.89143e-05 8.28689e-05 -0.001 -7.65824e-05 3.68801e-05 -0.001 
-7.65824e-05 -3.68801e-05 -0.001 -1.89143e-05 -8.28689e-05 -0.001 5.29966e-05 -6.64557e-05 -0.001 
0.000131234 6.38474e-05 0 0.00012964 -6.2443e-05 0 3.13827e-05 0.0001394 0 
3.12554e-05 -0.000136939 0 -0.000140461 8.25467e-19 0 -8.90565e-05 -0.000102707 0 
-9.04142e-05 0.000102872 0 -0.000765769 -0.00025965 0 -0.000756873 0.000262774 0 
-0.00015609 0.000787505 0 -0.000155807 -0.00079355 0 0.000605069 0.000528035 0 
0.000608694 -0.00052497 0 0.000744069 0.000116929 0 -0.000494418 0.000596218 0 
-0.000483866 -0.000584648 0 0.000269496 0.000702219 0 0.000263201 -0.000717324 0 
0.000754429 -0.000127825 0 -0.000748858 5.84659e-07 0 -0.000747838 0.000373886 0 
-0.0006542 0.000324842 0 -0.000645137 0.000210123 0 -0.000550884 0.000274171 0 
-0.000538857 0.000163195 0 -0.00045062 0.000224461 0 -0.000438393 0.000123907 0 
-0.000354088 0.000181668 0 -0.000363908 0.000282171 0 -0.000270361 0.000239477 0 
-0.000279138 0.000337653 0 -0.000188888 0.000294791 0 -0.000196448 0.000393271 0 
-0.000104767 0.000348259 0 -0.000113332 0.000449012 0 -2.01066e-05 0.000403223 0 
-2.89189e-05 0.000507105 0 6.9524e-05 0.000461596 0 -0.000213644 0.000490203 0 
7.33757e-05 0.000357726 0 0.000163331 0.00041299 0 0.000163359 0.000313022 0 
0.000248077 0.000366368 0 0.000250914 0.000265758 0 0.000335709 0.000322266 0 
0.000340555 0.000218148 0 0.000427299 0.000276717 0 0.000431508 0.000173093 0 
0.000328731 0.000425633 0 0.00034586 0.000114823 0 0.000435362 7.05241e-05 0 
0.000350892 1.5455e-05 0 0.000441547 -3.11896e-05 0 0.000353547 -8.47783e-05 0 
0.000445767 -0.000132964 0 0.000356135 -0.000186358 0 0.000449094 -0.000234674 0 
0.000359978 -0.000287876 0 0.00026856 -0.000240545 0 0.000271895 -0.000341045 0 
0.000181792 -0.00029305 0 0.00018533 -0.000392851 0 9.75701e-05 -0.00034483 0 
9.98764e-05 -0.000444884 0 8.75116e-06 -0.000396343 0 1.20916e-05 -0.000500496 0 
-7.83929e-05 -0.000449843 0 -8.1471e-05 -0.000347249 0 -0.000171566 -0.000403733 0 
-0.000169889 -0.000298891 0 -0.000259867 -0.000354132 0 -0.000257696 -0.000249137 0 
-0.00034313 -0.000299896 0 -0.000344514 -0.000199127 0 -0.000434309 -0.000250039 0 
-0.000169832 -0.000505815 0 -0.000435227 -0.000146227 0 0.000280331 -0.000442424 0 
-0.000340889 8.76793e-05 0 -0.000515252 4.06198e-05 0 6.50491e-05 0.000568253 0 
0.00053278 1.74743e-05 0 0.000522071 0.000229831 0 -0.00037162 0.000391659 0 
-0.000255272 -0.000150439 0 -0.000442893 -0.000350705 0 0.000450067 -0.000332559 0 
0.000545175 -0.000276306 0 -0.000527797 -0.000197598 0 0.000105306 -0.000551033 0 
1.45836e-05 -0.000609147 0 0.00017145 0.000214453 0 0.000515525 0.000341711 0 
0.000636086 0.000290368 0 -0.000558657 0.000404468 0 -4.01232e-05 0.000616718 0 
6.60192e-05 0.000696422 0 -0.000101806 0.0002546 0 0.000271142 -3.88908e-05 0 
0.000179455 -0.00018534 0 -8.79553e-05 -0.000254307 0 -0.000749267 -0.000373451 0 
-0.000655941 -0.000323397 0 0.000709746 0.000466718 0 0.000698426 -0.000473086 0 
-5.25801e-05 -0.00084886 0 -4.93005e-05 0.000848038 0 0.000617396 -0.000413362 0 
0.000702056 -0.000369817 0 0.000131459 -0.000679171 0 2.48171e-05 -0.000715924 0 
-0.000664217 -0.00042729 0 -0.000528828 -8.80444e-05 0 -0.000611101 -0.000136672 0 
-0.000426972 -4.45841e-05 0 0.000800669 0.000378216 0 0.000821144 -0.000415062 0 
7.2799e-05 0.00088254 0 6.81831e-05 -0.00087503 0 0.000104963 -0.000788946 0 
-7.40696e-05 -0.000660054 0 0.000126061 0.000809943 0 0.000764361 0.000295682 0 
0.000166862 0.000630623 0 0.000516462 -0.00046707 0 -0.000563585 -0.000389606 0 
-0.000622598 -1.40238e-05 0 0.000629891 0.000171529 0 2.5614e-06 -0.000299794 0 
8.6901e-05 -0.00024329 0 0.000272045 -0.000136982 0 -0.00075148 0.000138321 0 
0.000209366 -0.000599589 0 0.000324913 -0.000630055 0 0.000614044 0.00041245 0 
0.00049651 -0.000573327 0 0.000394822 -0.000507321 0 -0.000173714 -0.000206698 0 
0.000264897 5.63722e-05 0 0.000247997 0.000152811 0 -4.63327e-05 -0.000920208 0 
9.18688e-05 0.000258626 0 -5.54111e-06 0.000290558 0 -0.000184219 0.000201484 0 
-0.000263559 0.000142267 0 -0.000256427 5.13624e-05 0 -0.000336894 -2.06179e-06 0 
-0.000228499 -4.2388e-05 0 -0.00017589 0.000106626 0 -0.000769947 -0.000133367 0 
0.000767591 -0.000500293 0 -5.05874e-05 0.000737978 0 0.000754456 -3.51771e-06 0 
0.00064691 -6.15298e-05 0 0.000630483 -0.00018134 0 0.000749187 -0.000265543 0 
-0.000760805 -0.000462521 0 0.000638155 6.09315e-05 0 -4.46661e-05 0.000922995 0 
-2.37945e-05 0.000207237 0 0.000776979 0.000500181 0 -0.000605691 0.000527596 0 
-0.000377914 -0.000653727 0 -0.000372325 -0.000526022 0 -0.000275829 -0.000589621 0 
-0.000254285 -0.000710579 0 -0.000379307 0.000656222 0 -0.000379818 0.00052718 0 
-0.000266817 0.000721555 0 -0.000150544 0.000668174 0 0.000381963 0.00065079 0 
0.000493113 0.000590432 0 0.000505439 0.000463708 0 -0.000269094 0.000596608 0 
0.000385815 0.000532045 0 0.000283599 0.0005899 0 -0.000176405 -0.000108505 0 
-0.000278769 -0.000475415 0 0.000185395 2.33014e-06 0 0.000186773 0.000517571 0 
0.000540032 -8.68444e-05 0 -0.000600694 -0.000514877 0 -0.00063703 8.98033e-05 0 
-0.000459677 0.000335729 0 -0.000338836 -0.000100751 0 -0.000457327 0.000432721 0 
-8.72007e-06 -0.000210238 0 0.000156073 0.000129496 0 -7.70692e-05 -0.000555049 0 
0.00036091 -0.000389728 0 0.000531628 0.000120564 0 -0.000285451 0.000435562 0 
0.000192719 -0.000494604 0 0.00041642 0.00039368 0 -0.000135943 0.000554637 0 
-0.000170665 -0.000610079 0 -0.000666304 0.000434981 0 -0.000758736 0.000479231 0 
-0.000470189 -0.000458901 0 0.000203433 -8.59809e-05 0 0.000101846 0.000170114 0 
-0.00035513 -0.00040726 0 0.000100184 -0.000165831 0 2.96286e-05 0.00081537 0 
0.000720946 0.000381836 0 -0.000539809 -0.000292001 0 0.00052211 -0.000182426 0 
-6.41339e-05 -0.000753908 0 0.000638039 -0.000299861 0 -0.000605136 -0.000230182 0 
-3.41638e-05 -0.000145561 0 -0.000104037 0.000172396 0 -0.000808575 -0.00042774 0 
-0.000807207 -0.000465052 0 -0.00080817 0.000429771 0 -0.000806589 0.000469738 0 
-9.50634e-05 -0.000178909 0 0.000247777 0.000445058 0 1.48293e-05 -0.000814201 0 
-4.11555e-05 0.000140955 0 0.000276104 -0.000536845 0 0.000765969 -0.000436638 0 
0.000780871 -0.000362769 0 0.000424176 -0.000642018 0 0.00053413 -0.000368009 0 
-0.000416333 4.17911e-05 0 -0.000133891 -6.23822e-05 0 4.2574e-05 0.000206312 0 
0.000141163 -0.000121542 0 0.000707423 0.000212137 0 0.000172327 0.000723882 0 
7.72652e-06 -0.00090254 0 -0.000134435 5.66935e-05 0 -0.000188826 3.70894e-05 0 
0.000197119 8.09714e-05 0 1.27801e-05 0.000917296 0 0.000800767 0.00044758 0 
-0.000686682 0.000507104 0 9.35831e-05 0.000110457 0 -0.000696793 -0.000509595 0 
-0.00068446 -8.52012e-05 0 -0.000691033 -0.000201242 0 5.24052e-05 -0.000189075 0 
-0.000151818 -0.000701092 0 -0.000296988 0.000518087 0 9.31023e-05 -0.000108117 0 
0.00044261 -0.000416726 0 0.000197044 -0.000784423 0 -0.000516861 0.000504567 0 
0.000298997 0.000502377 0 0.000131234 6.38474e-05 -0.001 0.00012964 -6.2443e-05 -0.001 
3.13827e-05 0.0001394 -0.001 3.12554e-05 -0.000136939 -0.001 -0.000140461 8.25467e-19 -0.001 
-8.90565e-05 -0.000102707 -0.001 -9.04142e-05 0.000102872 -0.001 -0.000765769 -0.00025965 -0.001 
-0.000756873 0.000262774 -0.001 -0.00015609 0.000787505 -0.001 -0.000155807 -0.00079355 -0.001 
0.000605069 0.000528035 -0.001 0.000608694 -0.00052497 -0.001 0.000744069 0.000116929 -0.001 
-0.000494418 0.000596218 -0.001 -0.000483866 -0.000584648 -0.001 0.000269496 0.000702219 -0.001 
0.000263201 -0.000717324 -0.001 0.000754429 -0.000127825 -0.001 -0.000748858 5.84659e-07 -0.001 
-0.000747838 0.000373886 -0.001 -0.0006542 0.000324842 -0.001 -0.000645137 0.000210123 -0.001 
-0.000550884 0.000274171 -0.001 -0.000538857 0.000163195 -0.001 -0.00045062 0.000224461 -0.001 
-0.000438393 0.000123907 -0.001 -0.000354088 0.000181668 -0.001 -0.000363908 0.000282171 -0.001 
-0.000270361 0.000239477 -0.001 -0.000279138 0.000337653 -0.001 -0.000188888 0.000294791 -0.001 
-0.000196448 0.000393271 -0.001 -0.000104767 0.000348259 -0.001 -0.000113332 0.000449012 -0.001 
-2.01066e-05 0.000403223 -0.001 -2.89189e-05 0.000507105 -0.001 6.9524e-05 0.000461596 -0.001 
-0.000213644 0.000490203 -0.001 7.33757e-05 0.000357726 -0.001 0.000163331 0.00041299 -0.001 
0.000163359 0.000313022 -0.001 0.000248077 0.000366368 -0.001 0.000250914 0.000265758 -0.001 
0.000335709 0.000322266 -0.001 0.000340555 0.000218148 -0.001 0.000427299 0.000276717 -0.001 
0.000431508 0.000173093 -0.001 0.000328731 0.000425633 -0.001 0.00034586 0.000114823 -0.001 
0.000435362 7.05241e-05 -0.001 0.000350892 1.5455e-05 -0.001 0.000441547 -3.11896e-05 -0.001 
0.000353547 -8.47783e-05 -0.001 0.000445767 -0.000132964 -0.001 0.000356135 -0.000186358 -0.001 
0.000449094 -0.000234674 -0.001 0.000359978 -0.000287876 -0.001 0.00026856 -0.000240545 -0.001 
0.000271895 -0.000341045 -0.001 0.000181792 -0.00029305 -0.001 0.00018533 -0.000392851 -0.001 
9.75701e-05 -0.00034483 -0.001 9.98764e-05 -0.000444884 -0.001 8.75116e-06 -0.000396343 -0.001 
1.20916e-05 -0.000500496 -0.001 -7.83929e-05 -0.000449843 -0.001 -8.1471e-05 -0.000347249 -0.001 
-0.000171566 -0.000403733 -0.001 -0.000169889 -0.000298891 -0.001 -0.000259867 -0.000354132 -0.001 
-0.000257696 -0.000249137 -0.001 -0.00034313 -0.000299896 -0.001 -0.000344514 -0.000199127 -0.001 
-0.000434309 -0.000250039 -0.001 -0.000169832 -0.000505815 -0.001 -0.000435227 -0.000146227 -0.001 
0.000280331 -0.000442424 -0.001 -0.000340889 8.76793e-05 -0.001 -0.000515252 4.06198e-05 -0.001 
6.50491e-05 0.000568253 -0.001 0.00053278 1.74743e-05 -0.001 0.000522071 0.000229831 -0.001 
-0.00037162 0.000391659 -0.001 -0.000255272 -0.000150439 -0.001 -0.000442893 -0.000350705 -0.001 
0.000450067 -0.000332559 -0.001 0.000545175 -0.000276306 -0.001 -0.000527797 -0.000197598 -0.001 
0.000105306 -0.000551033 -0.001 1.45836e-05 -0.000609147 -0.001 0.00017145 0.000214453 -0.001 
0.000515525 0.000341711 -0.001 0.000636086 0.000290368 -0.001 -0.000558657 0.000404468 -0.001 
-4.01232e-05 0.000616718 -0.001 6.60192e-05 0.000696422 -0.001 -0.000101806 0.0002546 -0.001 
0.000271142 -3.88908e-05 -0.001 0.000179455 -0.00018534 -0.001 -8.79553e-05 -0.000254307 -0.001 
-0.000749267 -0.000373451 -0.001 -0.000655941 -0.000323397 -0.001 0.000709746 0.000466718 -0.001 
0.000698426 -0.000473086 -0.001 -5.25801e-05 -0.00084886 -0.001 -4.93005e-05 0.000848038 -0.001 
0.000617396 -0.000413362 -0.001 0.000702056 -0.000369817 -0.001 0.000131459 -0.000679171 -0.001 
2.48171e-05 -0.000715924 -0.001 -0.000664217 -0.00042729 -0.001 -0.000528828 -8.80444e-05 -0.001 
-0.000611101 -0.000136672 -0.001 -0.000426972 -4.45841e-05 -0.001 0.000800669 0.000378216 -0.001 
0.000821144 -0.000415062 -0.001 7.2799e-05 0.00088254 -0.001 6.81831e-05 -0.00087503 -0.001 
0.000104963 -0.000788946 -0.001 -7.40696e-05 -0.000660054 -0.001 0.000126061 0.000809943 -0.001 
0.000764361 0.000295682 -0.001 0.000166862 0.000630623 -0.001 0.000516462 -0.00046707 -0.001 
-0.000563585 -0.000389606 -0.001 -0.000622598 -1.40238e-05 -0.001 0.000629891 0.000171529 -0.001 
2.5614e-06 -0.000299794 -0.001 8.6901e-05 -0.00024329 -0.001 0.000272045 -0.000136982 -0.001 
-0.00075148 0.000138321 -0.001 0.000209366 -0.000599589 -0.001 0.000324913 -0.000630055 -0.001 
0.000614044 0.00041245 -0.001 0.00049651 -0.000573327 -0.001 0.000394822 -0.000507321 -0.001 
-0.000173714 -0.000206698 -0.001 0.000264897 5.63722e-05 -0.001 0.000247997 0.000152811 -0.001 
-4.63327e-05 -0.000920208 -0.001 9.18688e-05 0.000258626 -0.001 -5.54111e-06 0.000290558 -0.001 
-0.000184219 0.000201484 -0.001 -0.000263559 0.000142267 -0.001 -0.000256427 5.13624e-05 -0.001 
-0.000336894 -2.06179e-06 -0.001 -0.000228499 -4.2388e-05 -0.001 -0.00017589 0.000106626 -0.001 
-0.000769947 -0.000133367 -0.001 0.000767591 -0.000500293 -0.001 -5.05874e-05 0.000737978 -0.001 
0.000754456 -3.51771e-06 -0.001 0.00064691 -6.15298e-05 -0.001 0.000630483 -0.00018134 -0.001 
0.000749187 -0.000265543 -0.001 -0.000760805 -0.000462521 -0.001 0.000638155 6.09315e-05 -0.001 
-4.46661e-05 0.000922995 -0.001 -2.37945e-05 0.000207237 -0.001 0.000776979 0.000500181 -0.001 
-0.000605691 0.000527596 -0.001 -0.000377914 -0.000653727 -0.001 -0.000372325 -0.000526022 -0.001 
-0.000275829 -0.000589621 -0.001 -0.000254285 -0.000710579 -0.001 -0.000379307 0.000656222 -0.001 
-0.000379818 0.00052718 -0.001 -0.000266817 0.000721555 -0.001 -0.000150544 0.000668174 -0.001 
0.000381963 0.00065079 -0.001 0.000493113 0.000590432 -0.001 0.000505439 0.000463708 -0.001 
-0.000269094 0.000596608 -0.001 0.000385815 0.000532045 -0.001 0.000283599 0.0005899 -0.001 
-0.000176405 -0.000108505 -0.001 -0.000278769 -0.000475415 -0.001 0.000185395 2.33014e-06 -0.001 
0.000186773 0.000517571 -0.001 0.000540032 -8.68444e-05 -0.001 -0.000600694 -0.000514877 -0.001 
-0.00063703 8.98033e-05 -0.001 -0.000459677 0.000335729 -0.001 -0.000338836 -0.000100751 -0.001 
-0.000457327 0.000432721 -0.001 -8.72007e-06 -0.000210238 -0.001 0.000156073 0.000129496 -0.001 
-7.70692e-05 -0.000555049 -0.001 0.00036091 -0.000389728 -0.001 0.000531628 0.000120564 -0.001 
-0.000285451 0.000435562 -0.001 0.000192719 -0.000494604 -0.001 0.00041642 0.00039368 -0.001 
-0.000135943 0.000554637 -0.001 -0.000170665 -0.000610079 -0.001 -0.000666304 0.000434981 -0.001 
-0.000758736 0.000479231 -0.001 -0.000470189 -0.000458901 -0.001 0.000203433 -8.59809e-05 -0.001 
0.000101846 0.000170114 -0.001 -0.00035513 -0.00040726 -0.001 0.000100184 -0.000165831 -0.001 
2.96286e-05 0.00081537 -0.001 0.000720946 0.000381836 -0.001 -0.000539809 -0.000292001 -0.001 
0.00052211 -0.000182426 -0.001 -6.41339e-05 -0.000753908 -0.001 0.000638039 -0.000299861 -0.001 
-0.000605136 -0.000230182 -0.001 -3.41638e-05 -0.000145561 -0.001 -0.000104037 0.000172396 -0.001 
-0.000808575 -0.00042774 -0.001 -0.000807207 -0.000465052 -0.001 -0.00080817 0.000429771 -0.001 
-0.000806589 0.000469738 -0.001 -9.50634e-05 -0.000178909 -0.001 0.000247777 0.000445058 -0.001 
1.48293e-05 -0.000814201 -0.001 -4.11555e-05 0.000140955 -0.001 0.000276104 -0.000536845 -0.001 
0.000765969 -0.000436638 -0.001 0.000780871 -0.000362769 -0.001 0.000424176 -0.000642018 -0.001 
0.00053413 -0.000368009 -0.001 -0.000416333 4.17911e-05 -0.001 -0.000133891 -6.23822e-05 -0.001 
4.2574e-05 0.000206312 -0.001 0.000141163 -0.000121542 -0.001 0.000707423 0.000212137 -0.001 
0.000172327 0.000723882 -0.001 7.72652e-06 -0.00090254 -0.001 -0.000134435 5.66935e-05 -0.001 
-0.000188826 3.70894e-05 -0.001 0.000197119 8.09714e-05 -0.001 1.27801e-05 0.000917296 -0.001 
0.000800767 0.00044758 -0.001 -0.000686682 0.000507104 -0.001 9.35831e-05 0.000110457 -0.001 
-0.000696793 -0.000509595 -0.001 -0.00068446 -8.52012e-05 -0.001 -0.000691033 -0.000201242 -0.001 
5.24052e-05 -0.000189075 -0.001 -0.000151818 -0.000701092 -0.001 -0.000296988 0.000518087 -0.001 
9.31023e-05 -0.000108117 -0.001 0.00044261 -0.000416726 -0.001 0.000197044 -0.000784423 -0.001 
-0.000516861 0.000504567 -0.001 0.000298997 0.000502377 -0.001 

CELLS 563 3941
6 14 304 127 29 554 377 
6 143 259 55 393 509 103 
6 300 319 174 550 569 424 
6 259 349 55 509 599 103 
6 50 365 307 98 615 557 
6 299 320 164 549 570 414 
6 126 304 14 376 554 29 
6 298 319 300 548 569 550 
6 205 240 238 455 490 488 
6 257 308 145 507 558 395 
6 130 352 273 380 602 523 
6 295 320 299 545 570 549 
6 324 327 289 574 577 539 
6 235 258 143 485 508 393 
6 50 307 49 98 557 97 
6 207 283 279 457 533 529 
6 143 373 235 393 623 485 
6 145 308 252 395 558 502 
6 194 303 196 444 553 446 
6 279 306 207 529 556 457 
6 206 305 163 456 555 413 
6 51 357 9 99 607 24 
6 238 252 205 488 502 455 
6 293 317 209 543 567 459 
6 207 316 283 457 566 533 
6 142 301 249 392 551 499 
6 273 359 130 523 609 380 
6 211 327 324 461 577 574 
6 169 265 217 419 515 467 
6 7 365 50 22 615 98 
6 283 316 253 533 566 503 
6 159 268 223 409 518 473 
6 274 337 132 524 587 382 
6 232 361 329 482 611 579 
6 231 266 45 481 516 93 
6 229 362 330 479 612 580 
6 9 244 57 24 494 105 
6 230 276 52 480 526 100 
6 209 311 293 459 561 543 
6 131 342 302 381 592 552 
6 270 271 204 520 521 454 
6 66 243 1 114 493 16 
6 59 241 12 107 491 27 
6 280 306 279 530 556 529 
6 269 337 274 519 587 524 
6 179 256 224 429 506 474 
6 163 305 166 413 555 416 
6 201 303 194 451 553 444 
6 280 332 306 530 582 556 
6 186 255 225 436 505 475 
6 210 310 273 460 560 523 
6 153 270 204 403 520 454 
6 136 231 45 386 481 93 
6 171 265 169 421 515 419 
6 138 230 52 388 480 100 
6 225 354 325 475 604 575 
6 36 284 232 84 534 482 
6 161 268 159 411 518 409 
6 71 286 229 119 536 479 
6 290 303 201 540 553 451 
6 139 355 60 389 605 108 
6 60 355 248 108 605 498 
6 273 352 302 523 602 552 
6 235 373 245 485 623 495 
6 67 356 247 115 606 497 
6 221 295 277 471 545 527 
6 142 356 67 392 606 115 
6 139 283 253 389 533 503 
6 203 315 262 453 565 512 
6 41 257 145 89 507 395 
6 36 232 135 84 482 385 
6 71 229 137 119 479 387 
6 254 255 188 504 505 438 
6 233 350 334 483 600 584 
6 262 346 203 512 596 453 
6 304 325 127 554 575 377 
6 222 329 247 472 579 497 
6 218 298 260 468 548 510 
6 290 321 291 540 571 541 
6 272 310 240 522 560 490 
6 269 274 270 519 524 520 
6 244 245 57 494 495 105 
6 49 307 141 97 557 391 
6 225 325 256 475 575 506 
6 273 310 272 523 560 522 
6 312 368 255 562 618 505 
6 249 305 206 499 555 456 
6 228 331 251 478 581 501 
6 302 342 263 552 592 513 
6 338 339 44 588 589 92 
6 190 254 188 440 504 438 
6 37 341 340 85 591 590 
6 138 233 230 388 483 480 
6 228 335 331 478 585 581 
6 181 256 179 431 506 429 
6 195 263 226 445 513 476 
6 268 285 223 518 535 473 
6 290 291 288 540 541 538 
6 219 330 248 469 580 498 
6 201 321 290 451 571 540 
6 240 310 202 490 560 452 
6 188 255 186 438 505 436 
6 270 274 271 520 524 521 
6 262 349 259 512 599 509 
6 141 324 289 391 574 539 
6 296 301 142 546 551 392 
6 247 356 222 497 606 472 
6 239 252 238 489 502 488 
6 254 312 255 504 562 505 
6 54 261 53 102 511 101 
6 289 327 303 539 577 553 
6 268 353 285 518 603 535 
6 273 302 210 523 552 460 
6 292 299 293 542 549 543 
6 278 283 139 528 533 389 
6 175 265 171 425 515 421 
6 227 338 38 477 588 86 
6 264 360 265 514 610 515 
6 43 340 146 91 590 396 
6 165 268 161 415 518 411 
6 205 351 240 455 601 490 
6 64 281 63 112 531 111 
6 288 291 47 538 541 95 
6 135 295 294 385 545 544 
6 42 257 41 90 507 89 
6 245 373 57 495 623 105 
6 31 363 323 79 613 573 
6 292 293 140 542 543 390 
6 267 353 268 517 603 518 
6 155 270 153 405 520 403 
6 244 344 245 494 594 495 
6 61 278 139 109 528 389 
6 135 294 35 385 544 83 
6 69 297 296 117 547 546 
6 186 225 184 436 475 434 
6 329 361 243 579 611 493 
6 255 328 225 505 578 475 
6 213 332 280 463 582 530 
6 39 275 133 87 525 383 
6 330 362 241 580 612 491 
6 195 226 193 445 476 443 
6 211 324 251 461 574 501 
6 151 153 152 401 403 402 
6 295 299 294 545 549 544 
6 265 313 217 515 563 467 
6 258 259 143 508 509 393 
6 251 331 211 501 581 461 
6 149 151 150 399 401 400 
6 293 370 317 543 620 567 
6 153 204 152 403 454 402 
6 151 152 150 401 402 400 
6 33 292 140 81 542 390 
6 210 263 197 460 513 447 
6 301 305 249 551 555 499 
6 298 300 297 548 550 547 
6 68 296 142 116 546 392 
6 321 369 291 571 619 541 
6 179 224 177 429 474 427 
6 167 267 165 417 517 415 
6 259 346 262 509 596 512 
6 303 327 196 553 577 446 
6 269 270 155 519 520 405 
6 265 360 313 515 610 563 
6 223 269 157 473 519 407 
6 157 269 155 407 519 405 
6 144 279 278 394 529 528 
6 169 217 167 419 467 417 
6 177 264 175 427 514 425 
6 267 268 165 517 518 415 
6 159 223 157 409 473 407 
6 232 277 135 482 527 385 
6 193 254 190 443 504 440 
6 217 267 167 467 517 417 
6 249 356 142 499 606 392 
6 184 256 181 434 506 431 
6 248 355 219 498 605 469 
6 229 260 137 479 510 387 
6 149 150 148 399 400 398 
6 64 348 281 112 598 531 
6 311 374 293 561 624 543 
6 264 265 175 514 515 425 
6 297 300 296 547 550 546 
6 141 289 288 391 539 538 
6 197 263 195 447 513 445 
6 218 260 219 468 510 469 
6 224 264 177 474 514 427 
6 137 298 297 387 548 547 
6 277 295 135 527 545 385 
6 133 228 227 383 478 477 
6 261 349 262 511 599 512 
6 221 277 222 471 527 472 
6 256 325 224 506 575 474 
6 199 210 197 449 460 447 
6 226 254 193 476 504 443 
6 144 278 62 394 528 110 
6 279 283 278 529 533 528 
6 289 290 288 539 540 538 
6 137 297 70 387 547 118 
6 34 294 292 82 544 542 
6 235 236 216 485 486 466 
6 141 288 48 391 538 96 
6 178 306 180 428 556 430 
6 185 186 184 435 436 434 
6 63 281 144 111 531 394 
6 225 256 184 475 506 434 
6 46 291 136 94 541 386 
6 147 149 148 397 399 398 
6 271 272 204 521 522 454 
6 233 334 234 483 584 484 
6 145 275 40 395 525 88 
6 220 322 287 470 572 537 
6 280 334 213 530 584 463 
6 144 280 279 394 530 529 
6 140 287 32 390 537 80 
6 154 155 153 404 405 403 
6 334 350 213 584 600 463 
6 176 177 175 426 427 425 
6 260 298 137 510 548 387 
6 33 140 32 81 390 80 
6 49 141 48 97 391 96 
6 56 143 55 104 393 103 
6 68 142 67 116 392 115 
6 63 144 62 111 394 110 
6 61 139 60 109 389 108 
6 148 308 257 398 558 507 
6 71 137 70 119 387 118 
6 53 138 52 101 388 100 
6 46 136 45 94 386 93 
6 36 135 35 84 385 83 
6 43 146 134 91 396 384 
6 133 227 38 383 477 86 
6 192 193 190 442 443 440 
6 293 374 140 543 624 390 
6 34 292 33 82 542 81 
6 207 306 178 457 556 428 
6 43 134 42 91 384 90 
6 39 133 38 87 383 86 
6 41 145 40 89 395 88 
6 194 195 193 444 445 443 
6 69 296 68 117 546 116 
6 294 299 292 544 549 542 
6 173 175 171 423 425 421 
6 260 330 219 510 580 469 
6 183 184 181 433 434 431 
6 134 257 42 384 507 90 
6 55 349 54 103 599 102 
6 163 165 161 413 415 411 
6 166 167 165 416 417 415 
6 210 302 263 460 552 513 
6 271 273 272 521 523 522 
6 53 261 138 101 511 388 
6 217 326 267 467 576 517 
6 289 303 290 539 553 540 
6 178 179 177 428 429 427 
6 238 240 202 488 490 452 
6 62 278 61 110 528 109 
6 35 294 34 83 544 82 
6 284 361 232 534 611 482 
6 70 297 69 118 547 117 
6 224 304 264 474 554 514 
6 156 157 155 406 407 405 
6 48 288 47 96 538 95 
6 221 320 295 471 570 545 
6 187 188 186 437 438 436 
6 47 291 46 95 541 94 
6 151 154 153 401 404 403 
6 286 362 229 536 612 479 
6 168 169 167 418 419 417 
6 40 275 39 88 525 87 
6 307 324 141 557 574 391 
6 300 301 296 550 551 546 
6 32 287 31 80 537 79 
6 147 220 149 397 470 399 
6 333 344 231 583 594 481 
6 299 370 293 549 620 543 
6 271 359 273 521 609 523 
6 224 325 304 474 575 554 
6 228 237 227 478 487 477 
6 305 375 343 555 625 593 
6 218 319 298 468 569 548 
6 240 351 272 490 601 522 
6 277 329 222 527 579 472 
6 253 355 139 503 605 389 
6 158 159 157 408 409 407 
6 236 246 216 486 496 466 
6 192 194 193 442 444 443 
6 220 309 149 470 559 399 
6 183 185 184 433 435 434 
6 196 197 195 446 447 445 
6 276 347 58 526 597 106 
6 136 333 231 386 583 481 
6 67 247 66 115 497 114 
6 60 248 59 108 498 107 
6 261 262 250 511 512 500 
6 173 176 175 423 426 425 
6 344 357 231 594 607 481 
6 144 281 280 394 531 530 
6 152 205 150 402 455 400 
6 163 166 165 413 416 415 
6 185 187 186 435 437 436 
6 233 234 230 483 484 480 
6 170 171 169 420 421 419 
6 146 147 134 396 397 384 
6 176 178 177 426 428 427 
6 285 337 223 535 587 473 
6 154 156 155 404 406 405 
6 263 342 226 513 592 476 
6 235 245 236 485 495 486 
6 160 161 159 410 411 409 
6 58 347 242 106 597 492 
6 166 168 167 416 418 417 
6 287 374 220 537 624 470 
6 189 190 188 439 440 438 
6 148 257 134 398 507 384 
6 194 196 195 444 446 445 
6 252 308 205 502 558 455 
6 285 345 337 535 595 587 
6 301 375 305 551 625 555 
6 180 181 179 430 431 429 
6 281 348 234 531 598 484 
6 198 199 197 448 449 447 
6 151 309 154 401 559 404 
6 228 367 335 478 617 585 
6 54 349 261 102 599 511 
6 156 158 157 406 408 407 
6 168 170 169 418 420 419 
6 200 202 199 450 452 449 
6 147 148 134 397 398 384 
6 158 160 159 408 410 409 
6 150 308 148 400 558 398 
6 253 316 208 503 566 458 
6 232 329 277 482 579 527 
6 178 180 179 428 430 429 
6 191 192 190 441 442 440 
6 214 238 202 464 488 452 
6 172 173 171 422 423 421 
6 187 189 188 437 439 438 
6 162 163 161 412 413 411 
6 228 251 237 478 501 487 
6 215 258 235 465 508 485 
6 182 183 181 432 433 431 
6 202 310 199 452 560 449 
6 219 253 208 469 503 458 
6 222 249 206 472 499 456 
6 196 198 197 446 448 447 
6 229 330 260 479 580 510 
6 132 358 274 382 608 524 
6 149 309 151 399 559 401 
6 226 312 254 476 562 504 
6 154 309 209 404 559 459 
6 77 129 76 125 379 124 
6 73 128 72 121 378 120 
6 76 131 75 124 381 123 
6 74 132 73 122 382 121 
6 75 130 74 123 380 122 
6 14 127 77 29 377 125 
6 72 126 14 120 376 29 
6 133 367 228 383 617 478 
6 237 282 227 487 532 477 
6 239 366 252 489 616 502 
6 200 214 202 450 464 452 
6 192 201 194 442 451 444 
6 170 172 171 420 422 421 
6 220 311 309 470 561 559 
6 198 200 199 448 450 449 
6 189 191 190 439 441 440 
6 146 323 322 396 573 572 
6 160 162 161 410 412 411 
6 251 307 237 501 557 487 
6 199 310 210 449 560 460 
6 57 373 56 105 623 104 
6 214 239 238 464 489 488 
6 182 212 183 432 462 433 
6 180 182 181 430 432 431 
6 146 322 147 396 572 397 
6 172 218 208 422 468 458 
6 172 208 173 422 458 423 
6 162 221 206 412 471 456 
6 162 206 163 412 456 413 
6 176 207 178 426 457 428 
6 272 351 204 522 601 454 
6 198 211 200 448 461 450 
6 182 213 212 432 463 462 
6 234 334 281 484 584 531 
6 154 209 156 404 459 406 
6 185 203 187 435 453 437 
6 168 174 170 418 424 420 
6 189 215 191 439 465 441 
6 215 216 191 465 466 441 
6 221 222 206 471 472 456 
6 158 164 160 408 414 410 
6 218 219 208 468 469 458 
6 205 308 150 455 558 400 
6 191 314 192 441 564 442 
6 215 235 216 465 485 466 
6 215 318 258 465 568 508 
6 152 351 205 402 601 455 
6 138 261 250 388 511 500 
6 192 314 201 442 564 451 
6 234 347 230 484 597 480 
6 226 342 312 476 592 562 
6 138 250 233 388 500 483 
6 147 322 220 397 572 470 
6 216 314 191 466 564 441 
6 306 332 180 556 582 430 
6 222 356 249 472 606 499 
6 128 345 285 378 595 535 
6 314 321 201 564 571 451 
6 212 315 183 462 565 433 
6 312 342 336 562 592 586 
6 282 339 338 532 589 588 
6 340 341 323 590 591 573 
6 309 311 209 559 561 459 
6 183 315 185 433 565 435 
6 208 316 173 458 566 423 
6 173 316 176 423 566 426 
6 3 341 37 18 591 85 
6 44 339 6 92 589 21 
6 252 366 145 502 616 395 
6 246 321 314 496 571 564 
6 246 314 216 496 564 466 
6 126 364 313 376 614 563 
6 156 317 158 406 567 408 
6 275 367 133 525 617 383 
6 176 316 207 426 566 457 
6 185 315 203 435 565 453 
6 180 332 182 430 582 432 
6 302 352 131 552 602 381 
6 251 324 307 501 574 557 
6 187 318 189 437 568 439 
6 172 319 218 422 569 468 
6 162 320 221 412 570 471 
6 305 343 166 555 593 416 
6 170 319 172 420 569 422 
6 158 317 164 408 567 414 
6 209 317 156 459 567 406 
6 285 353 128 535 603 378 
6 223 337 269 473 587 519 
6 160 320 162 410 570 412 
6 211 331 200 461 581 450 
6 174 319 170 424 569 420 
6 203 318 187 453 568 437 
6 189 318 215 439 568 465 
6 198 327 211 448 577 461 
6 164 320 160 414 570 410 
6 326 353 267 576 603 517 
6 236 344 333 486 594 583 
6 196 327 198 446 577 448 
6 219 355 253 469 605 503 
6 281 334 280 531 584 530 
6 274 359 271 524 609 521 
6 164 370 299 414 620 549 
6 174 375 300 424 625 550 
6 287 363 31 537 613 79 
6 243 361 1 493 611 16 
6 241 362 12 491 612 27 
6 307 365 237 557 615 487 
6 166 343 168 416 593 418 
6 200 331 214 450 581 464 
6 313 326 217 563 576 467 
6 9 357 244 24 607 494 
6 1 361 30 16 611 78 
6 12 362 65 27 612 113 
6 337 345 132 587 595 382 
6 242 348 64 492 598 112 
6 231 357 266 481 607 516 
6 182 332 213 432 582 463 
6 245 344 236 495 594 486 
6 258 346 259 508 596 509 
6 145 366 275 395 616 525 
6 291 369 136 541 619 386 
6 236 333 246 486 583 496 
6 331 335 214 581 585 464 
6 312 336 129 562 586 379 
6 315 372 262 565 622 512 
6 220 374 311 470 624 561 
6 140 374 287 390 624 537 
6 126 360 304 376 610 554 
6 230 347 276 480 597 526 
6 313 364 326 563 614 576 
6 56 373 143 104 623 393 
6 239 367 366 489 617 616 
6 204 351 152 454 601 402 
6 300 375 301 550 625 551 
6 214 335 239 464 585 489 
6 247 329 243 497 579 493 
6 262 372 250 512 622 500 
6 248 330 241 498 580 491 
6 318 346 258 568 596 508 
6 333 369 246 583 619 496 
6 282 338 227 532 588 477 
6 146 340 323 396 590 573 
6 304 360 264 554 610 514 
6 366 367 275 616 617 525 
6 129 336 76 379 586 124 
6 73 345 128 121 595 378 
6 76 336 131 124 586 381 
6 250 350 233 500 600 483 
6 129 371 328 379 621 578 
6 132 345 73 382 595 121 
6 168 343 174 418 593 424 
6 131 352 75 381 602 123 
6 66 247 243 114 497 493 
6 59 248 241 107 498 491 
6 74 358 132 122 608 382 
6 203 346 318 453 596 568 
6 313 360 126 563 610 376 
6 128 364 72 378 614 120 
6 128 353 326 378 603 576 
6 77 371 129 125 621 379 
6 129 368 312 379 618 562 
6 244 357 344 494 607 594 
6 328 354 225 578 604 475 
6 326 364 128 576 614 378 
6 75 352 130 123 602 380 
6 350 372 212 600 622 462 
6 136 369 333 386 619 583 
6 325 354 127 575 604 377 
6 213 350 212 463 600 462 
6 130 358 74 380 608 122 
6 250 372 350 500 622 600 
6 317 370 164 567 620 414 
6 72 364 126 120 614 376 
6 328 368 129 578 618 379 
6 127 371 77 377 621 125 
6 336 342 131 586 592 381 
6 212 372 315 462 622 565 
6 234 348 347 484 598 597 
6 8 266 51 23 516 99 
6 10 276 58 25 526 106 
6 246 369 321 496 619 571 
6 30 284 0 78 534 15 
6 65 286 13 113 536 28 
6 58 242 11 106 492 26 
6 266 357 51 516 607 99 
6 255 368 328 505 618 578 
6 347 348 242 597 598 492 
6 322 363 287 572 613 537 
6 323 363 322 573 613 572 
6 335 367 239 585 617 489 
6 30 361 284 78 611 534 
6 65 362 286 113 612 536 
6 237 365 282 487 615 532 
6 130 359 358 380 609 608 
6 343 375 174 593 625 424 
6 354 371 127 604 621 377 
6 328 371 354 578 621 604 
6 358 359 274 608 609 524 
6 0 284 36 15 534 84 
6 45 266 8 93 516 23 
6 52 276 10 100 526 25 
6 11 242 64 26 492 112 
6 13 286 71 28 536 119 
6 2 323 3 17 573 18 
6 31 323 2 79 573 17 
6 323 341 3 573 591 18 
6 37 340 4 85 590 19 
6 4 340 43 19 590 91 
6 38 338 5 86 588 20 
6 5 338 44 20 588 92 
6 6 282 7 21 532 22 
6 6 339 282 21 589 532 
6 282 365 7 532 615 22 

CELL_TYPES 563
13
13
13
13
13
13
13
13
13
13
13
13
13
13
13
13
13
13
13
13
13
13
13
13
13
13
13
13
13
13
13
13
13
13
13
13
13
13
13
13
13
13
13
13
13
13
13
13
13
13
13
13
13
13
13
13
13
13
13
13
13
13
13
13
13
13
13
13
13
13
13
13
13
13
13
13
13
13
13
13
13
13
13
13
13
13
13
13
13
13
13
13
13
13
13
13
13
13
13
13
13
13
13
13
13
13
13
13
13
13
13
13
13
13
13
13
13
13
13
13
13
13
13
13
13
13
13
13
13
13
13
13
13
13
13
13
13
13
13
13
13
13
13
13
13
13
13
13
13
13
13
13
13
13
13
13
13
13
13
13
13
13
13
13
13
13
13
13
13
13
13
13
13
13
13
13
13
13
13
13
13
13
13
13
13
13
13
13
13
13
13
13
13
13
13
13
13
13
13
13
13
13
13
13
13
13
13
13
13
13
13
13
13
13
13
13
13
13
13
13
13
13
13
13
13
13
13
13
13
13
13
13
13
13
13
13
13
13
13
13
13
13
13
13
13
13
13
13
13
13
13
13
13
13
13
13
13
13
13
13
13
13
13
13
13
13
13
13
13
13
13
13
13
13
13
13
13
13
13
13
13
13
13
13
13
13
13
13
13
13
13
13
13
13
13
13
13
13
13
13
13
13
13
13
13
13
13
13
13
13
13
13
13
13
13
13
13
13
13
13
13
13
13
13
13
13
13
13
13
13
13
13
13
13
13
13
13
13
13
13
13
13
13
13
13
13
13
13
13
13
13
13
13
13
13
13
13
13
13
13
13
13
13
13
13
13
13
13
13
13
13
13
13
13
13
13
13
13
13
13
13
13
13
13
13
13
13
13
13
13
13
13
13
13
13
13
13
13
13
13
13
13
13
13
13
13
13
13
13
13
13
13
13
13
13
13
13
13
13
13
13
13
13
13
13
13
13
13
13
13
13
13
13
13
13
13
13
13
13
13
13
13
13
13
13
13
13
13
13
13
13
13
13
13
13
13
13
13
13
13
13
13
13
13
13
13
13
13
13
13
13
13
13
13
13
13
13
13
13
13
13
13
13
13
13
13
13
13
13
13
13
13
13
13
13
13
13
13
13
13
13
13
13
13
13
13
13
13
13
13
13
13
13
13
13
13
13
13
13
13
13
13
13
13
13
13
13
13
13
13
13
13
13
13
13
13
13
13
13
13
13
13
13
13
13
13
13
13
13
13
13
13
13
13
13
13
13
13
13
13
13
13
13

POINT_DATA 626
VECTORS displacement float
-1.74395e-06 3.09541e-05 1.80548e-05
1.73566e-06 3.09731e-05 1.80999e-05
-2.59859e-05 1.69927e-05 1.80869e-05
-2.58406e-05 1.60328e-05 1.80515e-05
-2.77203e-05 1.39726e-05 1.80689e-05
-2.77133e-05 -1.40189e-05 1.80943e-05
-2.58118e-05 -1.6071e-05 1.81057e-05
-2.59822e-05 -1.70107e-05 1.81669e-05
-1.67741e-06 -3.09578e-05 1.80512e-05
1.75546e-06 -3.09593e-05 1.81017e-05
2.59433e-05 -1.69805e-05 1.80433e-05
2.77167e-05 -1.39365e-05 1.80432e-05
2.76721e-05 1.39892e-05 1.80915e-05
2.59146e-05 1.69928e-05 1.80458e-05
0 0 0
-1.74395e-06 3.09541e-05 -1.80548e-05
1.73566e-06 3.09731e-05 -1.80999e-05
-2.59859e-05 1.69927e-05 -1.80869e-05
-2.58406e-05 1.60328e-05 -1.80515e-05
-2.77203e-05 1.39726e-05 -1.80689e-05
-2.77133e-05 -1.40189e-05 -1.80943e-05
-2.58118e-05 -1.6071e-05 -1.81057e-05
-2.59822e-05 -1.70107e-05 -1.81669e-05
-1.67741e-06 -3.09578e-05 -1.80512e-05
1.75546e-06 -3.09593e-05 -1.81017e-05
2.59433e-05 -1.69805e-05 -1.80433e-05
2.77167e-05 -1.39365e-05 -1.80432e-05
2.76721e-05 1.39892e-05 -1.80915e-05
2.59146e-05 1.69928e-05 -1.80458e-05
0 0 0
2.4896e-08 3.0154e-05 1.8034e-05
-2.11403e-05 1.87122e-05 1.75495e-05
-1.72322e-05 1.98335e-05 1.69206e-05
-1.40067e-05 2.10539e-05 1.65547e-05
-1.12067e-05 2.26645e-05 1.65485e-05
-8.52398e-06 2.48325e-05 1.69011e-05
-5.56776e-06 2.76213e-05 1.75372e-05
-2.64495e-05 1.46789e-05 1.80333e-05
-2.67684e-05 -9.01135e-06 1.75772e-05
-2.58058e-05 -5.03536e-06 1.69257e-05
-2.5254e-05 -1.63617e-06 1.65711e-05
-2.5257e-05 1.60781e-06 1.65741e-05
-2.57981e-05 5.02276e-06 1.69239e-05
-2.67546e-05 8.98444e-06 1.75637e-05
-2.64364e-05 -1.47253e-05 1.8062e-05
-5.54101e-06 -2.76358e-05 1.75294e-05
-8.47649e-06 -2.48415e-05 1.69004e-05
-1.11699e-05 -2.26839e-05 1.65559e-05
-1.39703e-05 -2.10869e-05 1.65593e-05
-1.72146e-05 -1.98689e-05 1.69364e-05
-2.11339e-05 -1.87489e-05 1.7562e-05
8.98421e-08 -3.01387e-05 1.80292e-05
2.11236e-05 -1.86246e-05 1.75112e-05
1.72444e-05 -1.97619e-05 1.68726e-05
1.40336e-05 -2.10108e-05 1.65113e-05
1.12249e-05 -2.25926e-05 1.65459e-05
8.58114e-06 -2.47797e-05 1.68739e-05
5.65464e-06 -2.7626e-05 1.75348e-05
2.61242e-05 -1.50595e-05 1.80282e-05
2.67164e-05 8.93823e-06 1.75013e-05
2.57216e-05 5.04948e-06 1.69081e-05
2.52061e-05 1.62328e-06 1.65229e-05
2.52033e-05 -1.59939e-06 1.65212e-05
2.57503e-05 -4.99727e-06 1.68881e-05
2.66985e-05 -8.91698e-06 1.75094e-05
2.61073e-05 1.50606e-05 1.80252e-05
5.6331e-06 2.76174e-05 1.75093e-05
8.50851e-06 2.48064e-05 1.69109e-05
1.12169e-05 2.26406e-05 1.65291e-05
1.40042e-05 2.10218e-05 1.65245e-05
1.72214e-05 1.97931e-05 1.68848e-05
2.11146e-05 1.86342e-05 1.75251e-05
0 0 0
0 0 0
0 0 0
0 0 0
0 0 0
0 0 0
2.4896e-08 3.0154e-05 -1.8034e-05
-2.11403e-05 1.87122e-05 -1.75495e-05
-1.72322e-05 1.98335e-05 -1.69206e-05
-1.40067e-05 2.10539e-05 -1.65547e-05
-1.12067e-05 2.26645e-05 -1.65485e-05
-8.52398e-06 2.48325e-05 -1.69011e-05
-5.56776e-06 2.76213e-05 -1.75372e-05
-2.64495e-05 1.46789e-05 -1.80333e-05
-2.67684e-05 -9.01135e-06 -1.75772e-05
-2.58058e-05 -5.03536e-06 -1.69257e-05
-2.5254e-05 -1.63617e-06 -1.65711e-05
-2.5257e-05 1.60781e-06 -1.65741e-05
-2.57981e-05 5.02276e-06 -1.69239e-05
-2.67546e-05 8.98444e-06 -1.75637e-05
-2.64364e-05 -1.47253e-05 -1.8062e-05
-5.54101e-06 -2.76358e-05 -1.75294e-05
-8.47649e-06 -2.48415e-05 -1.69004e-05
-1.11699e-05 -2.26839e-05 -1.65559e-05
-1.39703e-05 -2.10869e-05 -1.65593e-05
-1.72146e-05 -1.98689e-05 -1.69364e-05
-2.11339e-05 -1.87489e-05 -1.7562e-05
8.98421e-08 -3.01387e-05 -1.80292e-05
2.11236e-05 -1.86246e-05 -1.75112e-05
1.72444e-05 -1.97619e-05 -1.68726e-05
1.40336e-05 -2.10108e-05 -1.65113e-05
1.12249e-05 -2.25926e-05 -1.65459e-05
8.58114e-06 -2.47797e-05 -1.68739e-05
5.65464e-06 -2.7626e-05 -1.75348e-05
2.61242e-05 -1.50595e-05 -1.80282e-05
2.67164e-05 8.93823e-06 -1.75013e-05
2.57216e-05 5.04948e-06 -1.69081e-05
2.52061e-05 1.62328e-06 -1.65229e-05
2.52033e-05 -1.59939e-06 -1.65212e-05
2.57503e-05 -4.99727e-06 -1.68881e-05
2.66985e-05 -8.91698e-06 -1.75094e-05
2.61073e-05 1.50606e-05 -1.80252e-05
5.6331e-06 2.76174e-05 -1.75093e-05
8.50851e-06 2.48064e-05 -1.69109e-05
1.12169e-05 2.26406e-05 -1.65291e-05
1.40042e-05 2.10218e-05 -1.65245e-05
1.72214e-05 1.97931e-05 -1.68848e-05
2.11146e-05 1.86342e-05 -1.75251e-05
0 0 0
0 0 0
0 0 0
0 0 0
0 0 0
0 0 0
1.79365e-06 8.58734e-07 4.55217e-06
1.73779e-06 -8.25103e-07 4.46072e-06
4.31948e-07 1.8496e-06 4.49503e-06
4.36092e-07 -1.78061e-06 4.35601e-06
-1.84746e-06 2.09627e-08 4.42228e-06
-1.12307e-06 -1.30886e-06 4.15092e-06
-1.15919e-06 1.30678e-06 4.1997e-06
-2.25127e-05 -7.28753e-06 1.69997e-05
-2.2196e-05 7.37142e-06 1.69683e-05
-4.86037e-06 2.28981e-05 1.69367e-05
-4.85789e-06 -2.31312e-05 1.69636e-05
1.74209e-05 1.56352e-05 1.69296e-05
1.75685e-05 -1.55362e-05 1.69388e-05
2.10731e-05 3.16381e-06 1.63241e-05
-1.39529e-05 1.71509e-05 1.64781e-05
-1.35909e-05 -1.6741e-05 1.64096e-05
7.76771e-06 1.98192e-05 1.63309e-05
7.68473e-06 -2.03096e-05 1.64022e-05
2.14719e-05 -3.44366e-06 1.63999e-05
-2.11023e-05 6.58808e-09 1.62463e-05
-2.242e-05 1.09995e-05 1.74534e-05
-1.87506e-05 9.25453e-06 1.66268e-05
-1.79824e-05 5.79534e-06 1.6036e-05
-1.49837e-05 7.44819e-06 1.5486e-05
-1.42242e-05 4.30764e-06 1.48293e-05
-1.15324e-05 5.74378e-06 1.40944e-05
-1.08578e-05 3.06868e-06 1.33732e-05
-8.40033e-06 4.30479e-06 1.2404e-05
-9.05863e-06 7.01327e-06 1.3456e-05
-6.20399e-06 5.48841e-06 1.16886e-05
-6.82817e-06 8.24928e-06 1.30796e-05
-4.28132e-06 6.67478e-06 1.14501e-05
-4.79992e-06 9.60974e-06 1.30935e-05
-2.40083e-06 7.9932e-06 1.17226e-05
-2.8128e-06 1.1167e-05 1.34745e-05
-4.75401e-07 9.59511e-06 1.25006e-05
-7.38339e-07 1.29967e-05 1.41414e-05
1.73105e-06 1.15176e-05 1.35346e-05
-5.53458e-06 1.27001e-05 1.44365e-05
1.68505e-06 8.22382e-06 1.17472e-05
4.0041e-06 1.01207e-05 1.31506e-05
3.70528e-06 7.09782e-06 1.14779e-05
6.06729e-06 8.9665e-06 1.3113e-05
5.76671e-06 6.10668e-06 1.17352e-05
8.35792e-06 8.02017e-06 1.34916e-05
8.1055e-06 5.19517e-06 1.25e-05
1.09538e-05 7.09692e-06 1.41466e-05
1.07458e-05 4.32271e-06 1.34987e-05
8.53036e-06 1.10373e-05 1.44604e-05
7.93755e-06 2.6437e-06 1.17271e-05
1.06458e-05 1.73717e-06 1.31037e-05
7.94854e-06 3.58754e-07 1.14552e-05
1.08062e-05 -7.59098e-07 1.31238e-05
8.11149e-06 -1.93777e-06 1.17088e-05
1.1098e-05 -3.31279e-06 1.34835e-05
8.46958e-06 -4.4239e-06 1.24437e-05
1.15035e-05 -6.00277e-06 1.4109e-05
8.95541e-06 -7.13798e-06 1.34277e-05
6.14741e-06 -5.49432e-06 1.16409e-05
6.64437e-06 -8.30071e-06 1.30179e-05
4.10513e-06 -6.58839e-06 1.13106e-05
4.52327e-06 -9.55069e-06 1.29879e-05
2.24225e-06 -7.85815e-06 1.1597e-05
2.48479e-06 -1.10017e-05 1.33506e-05
2.25287e-07 -9.37352e-06 1.23532e-05
3.30008e-07 -1.27696e-05 1.40335e-05
-1.9154e-06 -1.11505e-05 1.33767e-05
-1.84103e-06 -7.92148e-06 1.15819e-05
-4.16782e-06 -9.87467e-06 1.30847e-05
-3.81387e-06 -6.73038e-06 1.13168e-05
-6.3455e-06 -8.66186e-06 1.3099e-05
-5.8912e-06 -5.69791e-06 1.16281e-05
-8.49957e-06 -7.43566e-06 1.33793e-05
-8.1674e-06 -4.72797e-06 1.24083e-05
-1.10954e-05 -6.40265e-06 1.40695e-05
-4.37157e-06 -1.3123e-05 1.44333e-05
-1.08087e-05 -3.65062e-06 1.34389e-05
7.22599e-06 -1.13725e-05 1.42726e-05
-7.74157e-06 1.98265e-06 1.14926e-05
-1.32159e-05 1.03504e-06 1.42106e-05
1.72909e-06 1.50825e-05 1.49519e-05
1.37678e-05 4.62229e-07 1.43874e-05
1.38429e-05 6.1e-06 1.49314e-05
-9.69389e-06 1.01961e-05 1.45322e-05
-5.41592e-06 -3.1976e-06 1.01819e-05
-1.17134e-05 -9.29718e-06 1.48889e-05
1.18822e-05 -8.76006e-06 1.47868e-05
1.47815e-05 -7.47348e-06 1.54031e-05
-1.39595e-05 -5.2438e-06 1.48614e-05
2.79578e-06 -1.45159e-05 1.47959e-05
4.24557e-07 -1.64991e-05 1.53975e-05
3.51838e-06 4.39687e-06 9.58091e-06
1.40103e-05 9.2989e-06 1.54913e-05
1.79305e-05 8.14482e-06 1.63003e-05
-1.56752e-05 1.13952e-05 1.62332e-05
-1.09407e-06 1.67688e-05 1.5495e-05
1.90683e-06 1.96213e-05 1.63107e-05
-2.09184e-06 5.22e-06 9.59741e-06
5.55386e-06 -7.84592e-07 9.59396e-06
3.5859e-06 -3.68351e-06 9.0818e-06
-1.77961e-06 -5.1785e-06 9.44943e-06
-2.24684e-05 -1.10106e-05 1.74741e-05
-1.87979e-05 -9.24127e-06 1.66508e-05
2.11475e-05 1.41646e-05 1.75054e-05
2.07535e-05 -1.43174e-05 1.74353e-05
-1.76459e-06 -2.54462e-05 1.75107e-05
-1.68212e-06 2.54102e-05 1.75154e-05
1.77127e-05 -1.19067e-05 1.66869e-05
2.06454e-05 -1.07509e-05 1.71158e-05
3.77559e-06 -1.89848e-05 1.61391e-05
7.68522e-07 -2.03455e-05 1.64826e-05
-1.94048e-05 -1.26503e-05 1.71429e-05
-1.37309e-05 -2.30689e-06 1.44716e-05
-1.65924e-05 -3.70137e-06 1.54773e-05
-1.03756e-05 -1.09637e-06 1.29518e-05
2.44517e-05 1.10726e-05 1.76514e-05
2.54972e-05 -1.24031e-05 1.78479e-05
2.64923e-06 2.67256e-05 1.76603e-05
2.52099e-06 -2.64132e-05 1.76292e-05
3.33943e-06 -2.30315e-05 1.70289e-05
-2.05386e-06 -1.83196e-05 1.59506e-05
4.05902e-06 2.3791e-05 1.71302e-05
2.26138e-05 8.3791e-06 1.7119e-05
4.61353e-06 1.7313e-05 1.5727e-05
1.44267e-05 -1.31192e-05 1.61371e-05
-1.57874e-05 -1.09845e-05 1.62143e-05
-1.67995e-05 -3.8142e-07 1.53771e-05
1.73056e-05 4.68739e-06 1.57254e-05
6.55211e-08 -6.3872e-06 1.02672e-05
1.74168e-06 -4.84838e-06 9.09231e-06
5.85036e-06 -2.93546e-06 1.0378e-05
-2.14438e-05 3.75043e-06 1.64586e-05
5.72926e-06 -1.62742e-05 1.55074e-05
9.08329e-06 -1.74987e-05 1.59972e-05
1.75719e-05 1.18815e-05 1.6672e-05
1.3994e-05 -1.63819e-05 1.64009e-05
1.07398e-05 -1.37887e-05 1.55498e-05
-3.54791e-06 -4.22012e-06 9.50057e-06
5.39902e-06 1.13848e-06 9.49885e-06
5.21796e-06 3.22282e-06 1.0047e-05
-1.74978e-06 -2.83541e-05 1.78766e-05
1.89203e-06 5.2988e-06 9.58425e-06
-1.13821e-07 6.1049e-06 1.00385e-05
-3.78485e-06 4.12767e-06 9.57821e-06
-5.62258e-06 3.03413e-06 1.0285e-05
-5.16538e-06 1.04065e-06 9.21342e-06
-7.5271e-06 -6.17379e-08 1.11722e-05
-4.3343e-06 -8.10264e-07 8.38169e-06
-3.10854e-06 1.8723e-06 7.37392e-06
-2.20807e-05 -3.60767e-06 1.65155e-05
2.34058e-05 -1.56877e-05 1.78359e-05
-1.50717e-06 2.11675e-05 1.66818e-05
2.12612e-05 -8.45177e-08 1.62254e-05
1.76217e-05 -1.64676e-06 1.55811e-05
1.73474e-05 -4.94157e-06 1.57704e-05
2.18911e-05 -7.45096e-06 1.69133e-05
-2.31818e-05 -1.42543e-05 1.78325e-05
1.73243e-05 1.64884e-06 1.55082e-05
-1.73399e-06 2.84726e-05 1.78939e-05
-4.22064e-07 3.68336e-06 7.49515e-06
2.37715e-05 1.57421e-05 1.78843e-05
-1.7497e-05 1.5642e-05 1.69747e-05
-1.0626e-05 -1.84657e-05 1.62548e-05
-1.00993e-05 -1.4342e-05 1.55714e-05
-7.50762e-06 -1.60945e-05 1.56217e-05
-7.32199e-06 -2.01201e-05 1.6395e-05
-1.07042e-05 1.85349e-05 1.62665e-05
-1.03471e-05 1.43838e-05 1.5619e-05
-7.7725e-06 2.0492e-05 1.64439e-05
-4.25291e-06 1.86093e-05 1.60527e-05
1.07595e-05 1.83451e-05 1.62259e-05
1.38914e-05 1.69346e-05 1.64307e-05
1.40417e-05 1.29726e-05 1.6051e-05
-7.36143e-06 1.6288e-05 1.56382e-05
1.05249e-05 1.45467e-05 1.56449e-05
7.7486e-06 1.6092e-05 1.56136e-05
-3.11641e-06 -1.89874e-06 7.39304e-06
-7.2575e-06 -1.24218e-05 1.46249e-05
3.00862e-06 4.03595e-08 6.60085e-06
4.87248e-06 1.35225e-05 1.46178e-05
1.40757e-05 -2.26034e-06 1.45702e-05
-1.72894e-05 -1.52164e-05 1.69452e-05
-1.73661e-05 2.42026e-06 1.55975e-05
-1.22045e-05 8.91177e-06 1.49432e-05
-7.70549e-06 -2.29248e-06 1.15544e-05
-1.24495e-05 1.18124e-05 1.55397e-05
-1.42733e-07 -3.75417e-06 7.55404e-06
2.73019e-06 2.27204e-06 7.2518e-06
-2.00383e-06 -1.46502e-05 1.48078e-05
9.36492e-06 -1.00681e-05 1.43891e-05
1.38605e-05 3.15775e-06 1.45658e-05
-7.3399e-06 1.11992e-05 1.426e-05
4.99713e-06 -1.27746e-05 1.4369e-05
1.10317e-05 1.04303e-05 1.49194e-05
-3.59638e-06 1.4685e-05 1.49078e-05
-4.63539e-06 -1.66166e-05 1.55486e-05
-1.95068e-05 1.28922e-05 1.71611e-05
-2.31266e-05 1.4858e-05 1.78432e-05
-1.29047e-05 -1.26859e-05 1.58123e-05
3.76074e-06 -1.5861e-06 7.90681e-06
1.76437e-06 2.92224e-06 7.08431e-06
-9.23032e-06 -1.06093e-05 1.45315e-05
1.72772e-06 -2.82312e-06 6.93094e-06
9.94722e-07 2.41165e-05 1.73083e-05
2.13676e-05 1.11937e-05 1.72984e-05
-1.46644e-05 -7.95326e-06 1.54851e-05
1.37078e-05 -4.78624e-06 1.46904e-05
-1.90986e-06 -2.17626e-05 1.68025e-05
1.80601e-05 -8.41892e-06 1.63405e-05
-1.66787e-05 -6.32846e-06 1.57822e-05
-4.32895e-07 -1.9223e-06 4.7984e-06
-1.80534e-06 2.9954e-06 7.17706e-06
-2.50517e-05 -1.29816e-05 1.79221e-05
-2.51269e-05 -1.45071e-05 1.80019e-05
-2.50449e-05 1.30335e-05 1.79059e-05
-2.51177e-05 1.46498e-05 1.7982e-05
-1.64843e-06 -3.1248e-06 7.20979e-06
6.32784e-06 1.13682e-05 1.40763e-05
5.33707e-07 -2.40858e-05 1.7302e-05
-5.22771e-07 1.80952e-06 4.64494e-06
7.40734e-06 -1.43434e-05 1.51521e-05
2.33026e-05 -1.32092e-05 1.77286e-05
2.36324e-05 -1.05374e-05 1.74906e-05
1.19882e-05 -1.82106e-05 1.6293e-05
1.47299e-05 -1.01465e-05 1.57954e-05
-1.00269e-05 1.00123e-06 1.27544e-05
-1.73999e-06 -8.15892e-07 4.72338e-06
7.69054e-07 3.7083e-06 7.57302e-06
2.34304e-06 -1.99713e-06 6.55518e-06
2.01562e-05 5.89773e-06 1.64534e-05
5.07002e-06 2.05956e-05 1.64958e-05
3.42117e-07 -2.76797e-05 1.78539e-05
-1.73121e-06 7.09103e-07 4.60625e-06
-3.21147e-06 6.2304e-07 6.82403e-06
3.57717e-06 1.47539e-06 7.6365e-06
4.99224e-07 2.83235e-05 1.79271e-05
2.476e-05 1.37339e-05 1.79183e-05
-2.03281e-05 1.55356e-05 1.74289e-05
1.17869e-06 1.36446e-06 4.45978e-06
-2.06393e-05 -1.57282e-05 1.75274e-05
-1.89986e-05 -2.32214e-06 1.59459e-05
-1.95589e-05 -5.5849e-06 1.63321e-05
9.05671e-07 -3.24771e-06 7.00599e-06
-4.36596e-06 -1.9789e-05 1.63216e-05
-7.93716e-06 1.38342e-05 1.51009e-05
1.16574e-06 -1.30417e-06 4.33923e-06
1.19343e-05 -1.12282e-05 1.5292e-05
6.133e-06 -2.26958e-05 1.68203e-05
-1.45219e-05 1.43552e-05 1.63234e-05
7.92895e-06 1.3321e-05 1.49478e-05
1.79365e-06 8.58734e-07 -4.55217e-06
1.73779e-06 -8.25103e-07 -4.46072e-06
4.31948e-07 1.8496e-06 -4.49503e-06
4.36092e-07 -1.78061e-06 -4.35601e-06
-1.84746e-06 2.09627e-08 -4.42228e-06
-1.12307e-06 -1.30886e-06 -4.15092e-06
-1.15919e-06 1.30678e-06 -4.1997e-06
-2.25127e-05 -7.28753e-06 -1.69997e-05
-2.2196e-05 7.37142e-06 -1.69683e-05
-4.86037e-06 2.28981e-05 -1.69367e-05
-4.85789e-06 -2.31312e-05 -1.69636e-05
1.74209e-05 1.56352e-05 -1.69296e-05
1.75685e-05 -1.55362e-05 -1.69388e-05
2.10731e-05 3.16381e-06 -1.63241e-05
-1.39529e-05 1.71509e-05 -1.64781e-05
-1.35909e-05 -1.6741e-05 -1.64096e-05
7.76771e-06 1.98192e-05 -1.63309e-05
7.68473e-06 -2.03096e-05 -1.64022e-05
2.14719e-05 -3.44366e-06 -1.63999e-05
-2.11023e-05 6.58808e-09 -1.62463e-05
-2.242e-05 1.09995e-05 -1.74534e-05
-1.87506e-05 9.25453e-06 -1.66268e-05
-1.79824e-05 5.79534e-06 -1.6036e-05
-1.49837e-05 7.44819e-06 -1.5486e-05
-1.42242e-05 4.30764e-06 -1.48293e-05
-1.15324e-05 5.74378e-06 -1.40944e-05
-1.08578e-05 3.06868e-06 -1.33732e-05
-8.40033e-06 4.30479e-06 -1.2404e-05
-9.05863e-06 7.01327e-06 -1.3456e-05
-6.20399e-06 5.48841e-06 -1.16886e-05
-6.82817e-06 8.24928e-06 -1.30796e-05
-4.28132e-06 6.67478e-06 -1.14501e-05
-4.79992e-06 9.60974e-06 -1.30935e-05
-2.40083e-06 7.9932e-06 -1.17226e-05
-2.8128e-06 1.1167e-05 -1.34745e-05
-4.75401e-07 9.59511e-06 -1.25006e-05
-7.38339e-07 1.29967e-05 -1.41414e-05
1.73105e-06 1.15176e-05 -1.35346e-05
-5.53458e-06 1.27001e-05 -1.44365e-05
1.68505e-06 8.22382e-06 -1.17472e-05
4.0041e-06 1.01207e-05 -1.31506e-05
3.70528e-06 7.09782e-06 -1.14779e-05
6.06729e-06 8.9665e-06 -1.3113e-05
5.76671e-06 6.10668e-06 -1.17352e-05
8.35792e-06 8.02017e-06 -1.34916e-05
8.1055e-06 5.19517e-06 -1.25e-05
1.09538e-05 7.09692e-06 -1.41466e-05
1.07458e-05 4.32271e-06 -1.34987e-05
8.53036e-06 1.10373e-05 -1.44604e-05
7.93755e-06 2.6437e-06 -1.17271e-05
1.06458e-05 1.73717e-06 -1.31037e-05
7.94854e-06 3.58754e-07 -1.14552e-05
1.08062e-05 -7.59098e-07 -1.31238e-05
8.11149e-06 -1.93777e-06 -1.17088e-05
1.1098e-05 -3.31279e-06 -1.34835e-05
8.46958e-06 -4.4239e-06 -1.24437e-05
1.15035e-05 -6.00277e-06 -1.4109e-05
8.95541e-06 -7.13798e-06 -1.34277e-05
6.14741e-06 -5.49432e-06 -1.16409e-05
6.64437e-06 -8.30071e-06 -1.30179e-05
4.10513e-06 -6.58839e-06 -1.13106e-05
4.52327e-06 -9.55069e-06 -1.29879e-05
2.24225e-06 -7.85815e-06 -1.1597e-05
2.48479e-06 -1.10017e-05 -1.33506e-05
2.25287e-07 -9.37352e-06 -1.23532e-05
3.30008e-07 -1.27696e-05 -1.40335e-05
-1.9154e-06 -1.11505e-05 -1.33767e-05
-1.84103e-06 -7.92148e-06 -1.15819e-05
-4.16782e-06 -9.87467e-06 -1.30847e-05
-3.81387e-06 -6.73038e-06 -1.13168e-05
-6.3455e-06 -8.66186e-06 -1.3099e-05
-5.8912e-06 -5.69791e-06 -1.16281e-05
-8.49957e-06 -7.43566e-06 -1.33793e-05
-8.1674e-06 -4.72797e-06 -1.24083e-05
-1.10954e-05 -6.40265e-06 -1.40695e-05
-4.37157e-06 -1.3123e-05 -1.44333e-05
-1.08087e-05 -3.65062e-06 -1.34389e-05
7.22599e-06 -1.13725e-05 -1.42726e-05
-7.74157e-06 1.98265e-06 -1.14926e-05
-1.32159e-05 1.03504e-06 -1.42106e-05
1.72909e-06 1.50825e-05 -1.49519e-05
1.37678e-05 4.62229e-07 -1.43874e-05
1.38429e-05 6.1e-06 -1.49314e-05
-9.69389e-06 1.01961e-05 -1.45322e-05
-5.41592e-06 -3.1976e-06 -1.01819e-05
-1.17134e-05 -9.29718e-06 -1.48889e-05
1.18822e-05 -8.76006e-06 -1.47868e-05
1.47815e-05 -7.47348e-06 -1.54031e-05
-1.39595e-05 -5.2438e-06 -1.48614e-05
2.79578e-06 -1.45159e-05 -1.47959e-05
4.24557e-07 -1.64991e-05 -1.53975e-05
3.51838e-06 4.39687e-06 -9.58091e-06
1.40103e-05 9.2989e-06 -1.54913e-05
1.79305e-05 8.14482e-06 -1.63003e-05
-1.56752e-05 1.13952e-05 -1.62332e-05
-1.09407e-06 1.67688e-05 -1.5495e-05
1.90683e-06 1.96213e-05 -1.63107e-05
-2.09184e-06 5.22e-06 -9.59741e-06
5.55386e-06 -7.84592e-07 -9.59396e-06
3.5859e-06 -3.68351e-06 -9.0818e-06
-1.77961e-06 -5.1785e-06 -9.44943e-06
-2.24684e-05 -1.10106e-05 -1.74741e-05
-1.87979e-05 -9.24127e-06 -1.66508e-05
2.11475e-05 1.41646e-05 -1.75054e-05
2.07535e-05 -1.43174e-05 -1.74353e-05
-1.76459e-06 -2.54462e-05 -1.75107e-05
-1.68212e-06 2.54102e-05 -1.75154e-05
1.77127e-05 -1.19067e-05 -1.66869e-05
2.06454e-05 -1.07509e-05 -1.71158e-05
3.77559e-06 -1.89848e-05 -1.61391e-05
7.68522e-07 -2.03455e-05 -1.64826e-05
-1.94048e-05 -1.26503e-05 -1.71429e-05
-1.37309e-05 -2.30689e-06 -1.44716e-05
-1.65924e-05 -3.70137e-06 -1.54773e-05
-1.03756e-05 -1.09637e-06 -1.29518e-05
2.44517e-05 1.10726e-05 -1.76514e-05
2.54972e-05 -1.24031e-05 -1.78479e-05
2.64923e-06 2.67256e-05 -1.76603e-05
2.52099e-06 -2.64132e-05 -1.76292e-05
3.33943e-06 -2.30315e-05 -1.70289e-05
-2.05386e-06 -1.83196e-05 -1.59506e-05
4.05902e-06 2.3791e-05 -1.71302e-05
2.26138e-05 8.3791e-06 -1.7119e-05
4.61353e-06 1.7313e-05 -1.5727e-05
1.44267e-05 -1.31192e-05 -1.61371e-05
-1.57874e-05 -1.09845e-05 -1.62143e-05
-1.67995e-05 -3.8142e-07 -1.53771e-05
1.73056e-05 4.68739e-06 -1.57254e-05
6.55211e-08 -6.3872e-06 -1.02672e-05
1.74168e-06 -4.84838e-06 -9.09231e-06
5.85036e-06 -2.93546e-06 -1.0378e-05
-2.14438e-05 3.75043e-06 -1.64586e-05
5.72926e-06 -1.62742e-05 -1.55074e-05
9.08329e-06 -1.74987e-05 -1.59972e-05
1.75719e-05 1.18815e-05 -1.6672e-05
1.3994e-05 -1.63819e-05 -1.64009e-05
1.07398e-05 -1.37887e-05 -1.55498e-05
-3.54791e-06 -4.22012e-06 -9.50057e-06
5.39902e-06 1.13848e-06 -9.49885e-06
5.21796e-06 3.22282e-06 -1.0047e-05
-1.74978e-06 -2.83541e-05 -1.78766e-05
1.89203e-06 5.2988e-06 -9.58425e-06
-1.13821e-07 6.1049e-06 -1.00385e-05
-3.78485e-06 4.12767e-06 -9.57821e-06
-5.62258e-06 3.03413e-06 -1.0285e-05
-5.16538e-06 1.04065e-06 -9.21342e-06
-7.5271e-06 -6.17379e-08 -1.11722e-05
-4.3343e-06 -8.10264e-07 -8.38169e-06
-3.10854e-06 1.8723e-06 -7.37392e-06
-2.20807e-05 -3.60767e-06 -1.65155e-05
2.34058e-05 -1.56877e-05 -1.78359e-05
-1.50717e-06 2.11675e-05 -1.66818e-05
2.12612e-05 -8.45177e-08 -1.62254e-05
1.76217e-05 -1.64676e-06 -1.55811e-05
1.73474e-05 -4.94157e-06 -1.57704e-05
2.18911e-05 -7.45096e-06 -1.69133e-05
-2.31818e-05 -1.42543e-05 -1.78325e-05
1.73243e-05 1.64884e-06 -1.55082e-05
-1.73399e-06 2.84726e-05 -1.78939e-05
-4.22064e-07 3.68336e-06 -7.49515e-06
2.37715e-05 1.57421e-05 -1.78843e-05
-1.7497e-05 1.5642e-05 -1.69747e-05
-1.0626e-05 -1.84657e-05 -1.62548e-05
-1.00993e-05 -1.4342e-05 -1.55714e-05
-7.50762e-06 -1.60945e-05 -1.56217e-05
-7.32199e-06 -2.01201e-05 -1.6395e-05
-1.07042e-05 1.85349e-05 -1.62665e-05
-1.03471e-05 1.43838e-05 -1.5619e-05
-7.7725e-06 2.0492e-05 -1.64439e-05
-4.25291e-06 1.86093e-05 -1.60527e-05
1.07595e-05 1.83451e-05 -1.62259e-05
1.38914e-05 1.69346e-05 -1.64307e-05
1.40417e-05 1.29726e-05 -1.6051e-05
-7.36143e-06 1.6288e-05 -1.56382e-05
1.05249e-05 1.45467e-05 -1.56449e-05
7.7486e-06 1.6092e-05 -1.56136e-05
-3.11641e-06 -1.89874e-06 -7.39304e-06
-7.2575e-06 -1.24218e-05 -1.46249e-05
3.00862e-06 4.03595e-08 -6.60085e-06
4.87248e-06 1.35225e-05 -1.46178e-05
1.40757e-05 -2.26034e-06 -1.45702e-05
-1.72894e-05 -1.52164e-05 -1.69452e-05
-1.73661e-05 2.42026e-06 -1.55975e-05
-1.22045e-05 8.91177e-06 -1.49432e-05
-7.70549e-06 -2.29248e-06 -1.15544e-05
-1.24495e-05 1.18124e-05 -1.55397e-05
-1.42733e-07 -3.75417e-06 -7.55404e-06
2.73019e-06 2.27204e-06 -7.2518e-06
-2.00383e-06 -1.46502e-05 -1.48078e-05
9.36492e-06 -1.00681e-05 -1.43891e-05
1.38605e-05 3.15775e-06 -1.45658e-05
-7.3399e-06 1.11992e-05 -1.426e-05
4.99713e-06 -1.27746e-05 -1.4369e-05
1.10317e-05 1.04303e-05 -1.49194e-05
-3.59638e-06 1.4685e-05 -1.49078e-05
-4.63539e-06 -1.66166e-05 -1.55486e-05
-1.95068e-05 1.28922e-05 -1.71611e-05
-2.31266e-05 1.4858e-05 -1.78432e-05
-1.29047e-05 -1.26859e-05 -1.58123e-05
3.76074e-06 -1.5861e-06 -7.90681e-06
1.76437e-06 2.92224e-06 -7.08431e-06
-9.23032e-06 -1.06093e-05 -1.45315e-05
1.72772e-06 -2.82312e-06 -6.93094e-06
9.94722e-07 2.41165e-05 -1.73083e-05
2.13676e-05 1.11937e-05 -1.72984e-05
-1.46644e-05 -7.95326e-06 -1.54851e-05
1.37078e-05 -4.78624e-06 -1.46904e-05
-1.90986e-06 -2.17626e-05 -1.68025e-05
1.80601e-05 -8.41892e-06 -1.63405e-05
-1.66787e-05 -6.32846e-06 -1.57822e-05
-4.32895e-07 -1.9223e-06 -4.7984e-06
-1.80534e-06 2.9954e-06 -7.17706e-06
-2.50517e-05 -1.29816e-05 -1.79221e-05
-2.51269e-05 -1.45071e-05 -1.80019e-05
-2.50449e-05 1.30335e-05 -1.79059e-05
-2.51177e-05 1.46498e-05 -1.7982e-05
-1.64843e-06 -3.1248e-06 -7.20979e-06
6.32784e-06 1.13682e-05 -1.40763e-05
5.33707e-07 -2.40858e-05 -1.7302e-05
-5.22771e-07 1.80952e-06 -4.64494e-06
7.40734e-06 -1.43434e-05 -1.51521e-05
2.33026e-05 -1.32092e-05 -1.77286e-05
2.36324e-05 -1.05374e-05 -1.74906e-05
1.19882e-05 -1.82106e-05 -1.6293e-05
1.47299e-05 -1.01465e-05 -1.57954e-05
-1.00269e-05 1.00123e-06 -1.27544e-05
-1.73999e-06 -8.15892e-07 -4.72338e-06
7.69054e-07 3.7083e-06 -7.57302e-06
2.34304e-06 -1.99713e-06 -6.55518e-06
2.01562e-05 5.89773e-06 -1.64534e-05
5.07002e-06 2.05956e-05 -1.64958e-05
3.42117e-07 -2.76797e-05 -1.78539e-05
-1.73121e-06 7.09103e-07 -4.60625e-06
-3.21147e-06 6.2304e-07 -6.82403e-06
3.57717e-06 1.47539e-06 -7.6365e-06
4.99224e-07 2.83235e-05 -1.79271e-05
2.476e-05 1.37339e-05 -1.79183e-05
-2.03281e-05 1.55356e-05 -1.74289e-05
1.17869e-06 1.36446e-06 -4.45978e-06
-2.06393e-05 -1.57282e-05 -1.75274e-05
-1.89986e-05 -2.32214e-06 -1.59459e-05
-1.95589e-05 -5.5849e-06 -1.63321e-05
9.05671e-07 -3.24771e-06 -7.00599e-06
-4.36596e-06 -1.9789e-05 -1.63216e-05
-7.93716e-06 1.38342e-05 -1.51009e-05
1.16574e-06 -1.30417e-06 -4.33923e-06
1.19343e-05 -1.12282e-05 -1.5292e-05
6.133e-06 -2.26958e-05 -1.68203e-05
-1.45219e-05 1.43552e-05 -1.63234e-05
7.92895e-06 1.3321e-05 -1.49478e-05
SCALARS effective_fluid_pressure_TPM float
LOOKUP_TABLE default
665
665
665
665
665
665
665
665
665
665
665
665
665
665
133
665
665
665
665
665
665
665
665
665
665
665
665
665
665
133
665
560.313
520.656
502.796
502.567
519.783
559.934
665
561.98
520.751
503.239
503.348
520.683
561.602
665
559.601
519.654
502.741
502.959
521.152
561.618
665
558.857
518.998
501.529
502.225
518.847
559.446
665
558.497
519.938
501.862
501.793
519.37
557.936
665
558.653
519.952
502.034
501.896
519.359
559.66
133
133
133
133
133
133
665
560.313
520.656
502.796
502.567
519.783
559.934
665
561.98
520.751
503.239
503.348
520.683
561.602
665
559.601
519.654
502.741
502.959
521.152
561.618
665
558.857
518.998
501.529
502.225
518.847
559.446
665
558.497
519.938
501.862
501.793
519.37
557.936
665
558.653
519.952
502.034
501.896
519.359
559.66
133
133
133
133
133
133
228.253
226.324
227.037
224.106
225.521
219.843
220.859
529.157
528.167
526.546
527.925
526.573
527.626
498.692
503.539
501.577
498.933
501.449
501.231
494.312
562.496
518.971
495.017
480.723
461.343
443.263
425.031
402.105
427.255
385.251
417.723
379.598
417.886
385.936
427.372
404.283
444.366
429.061
450.243
386.545
419.286
380.193
418.298
386.175
427.745
404.211
444.476
428.145
450.839
386.02
418.15
379.609
418.505
385.543
427.581
402.904
443.539
426.436
384.036
416.122
376.293
415.329
383.009
424.403
400.83
441.688
425.21
382.745
417.762
376.557
418.08
383.831
425.25
402.197
442.661
450.633
426.71
445.991
380.718
444.657
465.272
448.724
464.746
453.394
350.894
463.487
461.019
478.426
462.755
460.625
478.331
337.269
480.802
505.835
503.595
480.868
506.142
337.682
337.493
326.157
334.407
563.372
519.646
567.573
562.358
567.89
567.743
521.795
542.707
498.607
513.72
542.052
451.436
477.553
414.641
579.514
611.025
579.667
576.028
534.541
494.457
538.215
537.912
485.013
498.093
503.311
473.115
485.061
352.738
326.407
355.168
503.421
477.692
488.334
520.864
502.003
477.889
335.533
335.396
347.691
613.443
337.37
347.562
337.257
353.195
329.181
373.245
310.653
288.781
504.686
608.378
521.085
493.696
478.302
486.33
526.479
600.336
476.539
615.896
291.39
615.795
528.708
494.508
478.209
479.383
501.29
494.814
479.409
502.486
495.15
493.719
502.238
495.223
479.856
480.022
479.024
289.288
454.565
271.936
454.973
453.601
526.988
479.446
465.196
382.087
480.482
292.663
286.075
461.452
449.606
453.95
445.828
448.662
463.577
463.234
479.926
543.447
601.698
487.466
300.294
282.455
452.986
279.157
552.23
551.989
480.748
457.99
526.21
508.162
488.564
233.725
284.552
614.503
636.32
615.137
636.677
285.273
441.313
553.07
230.481
467.524
590.258
566.024
495.788
490.023
410.018
232.115
293.089
271.12
507.87
509.167
607.811
229.659
276.97
294.424
618.875
618.788
558.504
226.518
562.518
488.286
503.369
280.841
504.04
466.351
224.003
473.558
519.555
502.955
462.417
228.253
226.324
227.037
224.106
225.521
219.843
220.859
529.157
528.167
526.546
527.925
526.573
527.626
498.692
503.539
501.577
498.933
501.449
501.231
494.312
562.496
518.971
495.017
480.723
461.343
443.263
425.031
402.105
427.255
385.251
417.723
379.598
417.886
385.936
427.372
404.283
444.366
429.061
450.243
386.545
419.286
380.193
418.298
386.175
427.745
404.211
444.476
428.145
450.839
386.02
418.15
379.609
418.505
385.543
427.581
402.904
443.539
426.436
384.036
416.122
376.293
415.329
383.009
424.403
400.83
441.688
425.21
382.745
417.762
376.557
418.08
383.831
425.25
402.197
442.661
450.633
426.71
445.991
380.718
444.657
465.272
448.724
464.746
453.394
350.894
463.487
461.019
478.426
462.755
460.625
478.331
337.269
480.802
505.835
503.595
480.868
506.142
337.682
337.493
326.157
334.407
563.372
519.646
567.573
562.358
567.89
567.743
521.795
542.707
498.607
513.72
542.052
451.436
477.553
414.641
579.514
611.025
579.667
576.028
534.541
494.457
538.215
537.912
485.013
498.093
503.311
473.115
485.061
352.738
326.407
355.168
503.421
477.692
488.334
520.864
502.003
477.889
335.533
335.396
347.691
613.443
337.37
347.562
337.257
353.195
329.181
373.245
310.653
288.781
504.686
608.378
521.085
493.696
478.302
486.33
526.479
600.336
476.539
615.896
291.39
615.795
528.708
494.508
478.209
479.383
501.29
494.814
479.409
502.486
495.15
493.719
502.238
495.223
479.856
480.022
479.024
289.288
454.565
271.936
454.973
453.601
526.988
479.446
465.196
382.087
480.482
292.663
286.075
461.452
449.606
453.95
445.828
448.662
463.577
463.234
479.926
543.447
601.698
487.466
300.294
282.455
452.986
279.157
552.23
551.989
480.748
457.99
526.21
508.162
488.564
233.725
284.552
614.503
636.32
615.137
636.677
285.273
441.313
553.07
230.481
467.524
590.258
566.024
495.788
490.023
410.018
232.115
293.089
271.12
507.87
509.167
607.811
229.659
276.97
294.424
618.875
618.788
558.504
226.518
562.518
488.286
503.369
280.841
504.04
466.351
224.003
473.558
519.555
502.955
462.417

CELL_DATA 563
TENSORS stress float
164.608 -24.9202 -2.22163e-12
-24.9202 28.1478 3.58114e-12
-2.22163e-12 3.58114e-12 -12.6049

-40.3383 -21.3202 1.29215e-12
-21.3202 -7.35467 -2.43746e-12
1.29215e-12 -2.43746e-12 -10.2313

-9.93965 28.0429 -1.00305e-12
28.0429 -1.11018 -5.29946e-14
-1.00305e-12 -5.29946e-14 -6.35966

-40.4266 -29.8427 9.05942e-13
-29.8427 -12.8459 -1.14649e-12
9.05942e-13 -1.14649e-12 -10.5976

-22.6926 19.931 -3.48373e-12
19.931 -1.92208 7.57394e-13
-3.48373e-12 7.57394e-13 -23.0217

-27.1388 -18.0742 -2.26841e-12
-18.0742 15.8879 -1.78879e-12
-2.26841e-12 -1.78879e-12 -6.41044

161.26 26.4844 -1.76215e-12
26.4844 28.0244 -1.73965e-12
-1.76215e-12 -1.73965e-12 -13.2638

-5.96116 29.9576 4.75057e-12
29.9576 -10.1119 -3.1782e-12
4.75057e-12 -3.1782e-12 -7.27576

34.6309 5.48307 -7.40149e-13
5.48307 -19.0942 9.20634e-13
-7.40149e-13 9.20634e-13 -4.1215

11.8603 -7.47756 -1.66978e-13
-7.47756 -48.287 1.55823e-12
-1.66978e-13 1.55823e-12 -8.94653

104.192 16.3083 1.8782e-12
16.3083 -8.44343 -2.28558e-12
1.8782e-12 -2.28558e-12 -22.4544

-34.637 -13.453 -1.21444e-12
-13.453 18.9658 -1.88945e-12
-1.21444e-12 -1.88945e-12 -7.18001

-6.02572 27.8329 3.94647e-12
27.8329 -4.59137 -2.52894e-12
3.94647e-12 -2.52894e-12 -6.15861

-35.5513 -14.3399 3.18836e-12
-14.3399 7.84497 2.33117e-12
3.18836e-12 2.33117e-12 -9.13087

-23.6537 33.3116 -7.90183e-13
33.3116 -24.9943 -2.51587e-12
-7.90183e-13 -2.51587e-12 -21.3652

21.3106 0.560959 -8.86994e-13
0.560959 -32.3379 -3.02888e-12
-8.86994e-13 -3.02888e-12 -5.58906

-48.9594 -17.9692 2.57547e-12
-17.9692 6.34301 -4.51017e-12
2.57547e-12 -4.51017e-12 -12.9458

11.6601 -2.6652 2.14317e-12
-2.6652 -43.2482 -9.92021e-13
2.14317e-12 -9.92021e-13 -8.03294

-11.3492 26.6733 -2.7498e-12
26.6733 19.5173 1.18424e-14
-2.7498e-12 1.18424e-14 -6.08877

21.7654 -4.19551 1.91314e-12
-4.19551 -35.2937 2.56713e-12
1.91314e-12 2.56713e-12 -6.74059

-24.4785 8.66844 -2.04488e-12
8.66844 32.1273 3.95121e-12
-2.04488e-12 3.95121e-12 -4.93367

-11.8088 6.28783 -5.28973e-12
6.28783 -11.9743 -7.77156e-13
-5.28973e-12 -7.77156e-13 -75.6226

22.7431 1.87596 -8.56204e-13
1.87596 -33.4681 8.86402e-13
-8.56204e-13 8.86402e-13 -6.67657

-12.3876 -27.7148 3.86506e-12
-27.7148 1.59986 1.42464e-12
3.86506e-12 1.42464e-12 -6.60208

21.3043 6.8493 -2.0588e-12
6.8493 -34.3032 -2.02919e-12
-2.0588e-12 -2.02919e-12 -6.80583

-37.9047 19.1127 1.82787e-12
19.1127 2.65399 -3.94943e-12
1.82787e-12 -3.94943e-12 -9.4571

106.601 4.1813 -1.77162e-12
4.1813 20.6024 -1.36661e-12
-1.77162e-12 -1.36661e-12 -12.0494

-5.30151 30.7455 4.91459e-12
30.7455 -7.27185 4.76656e-14
4.91459e-12 4.76656e-14 -7.44096

27.8898 37.0737 -8.5502e-13
37.0737 26.469 4.94538e-12
-8.5502e-13 4.94538e-12 -8.63176

-9.43909 10.3235 -3.70134e-12
10.3235 -32.9307 -1.60257e-12
-3.70134e-12 -1.60257e-12 -49.51

19.8306 14.2168 -1.16055e-13
14.2168 -29.3586 2.57231e-12
-1.16055e-13 2.57231e-12 -6.00033

-4.20977 -17.78 -1.73491e-12
-17.78 59.6568 -2.69651e-12
-1.73491e-12 -2.69651e-12 -8.47566

66.282 -42.101 -8.47914e-13
-42.101 71.1371 -8.05992e-12
-8.47914e-13 -8.05992e-12 -11.2522

-48.2102 5.98688 -4.34595e-12
5.98688 7.26964 1.09749e-12
-4.34595e-12 1.09749e-12 -41.0384

-26.2913 -4.84087 -3.78305e-12
-4.84087 1.75673 1.69731e-12
-3.78305e-12 1.69731e-12 -37.8033

-1.4667 21.0279 -2.55144e-12
21.0279 -39.5067 -1.76392e-12
-2.55144e-12 -1.76392e-12 -41.1043

-43.9765 5.06769 -9.19117e-13
5.06769 0.514243 4.66708e-12
-9.19117e-13 4.66708e-12 -52.1924

-2.75994 -9.16987 5.95346e-12
-9.16987 -20.77 3.91446e-14
5.95346e-12 3.91446e-14 -35.8976

-3.97393 -27.9978 -1.64787e-12
-27.9978 -4.61037 2.86586e-12
-1.64787e-12 2.86586e-12 -5.99394

65.5958 41.5203 -6.24804e-12
41.5203 73.1648 -5.23433e-12
-6.24804e-12 -5.23433e-12 -10.964

60.1542 -17.9487 2.60295e-12
-17.9487 0.117381 2.71072e-12
2.60295e-12 2.71072e-12 -8.04966

-41.8042 -3.70622 5.50819e-13
-3.70622 -1.18565 -3.55893e-12
5.50819e-13 -3.55893e-12 -52.7272

-14.5942 19.5558 -8.10182e-12
19.5558 -28.5518 8.57092e-13
-8.10182e-12 8.57092e-13 -52.8354

18.1409 -12.2732 4.45155e-12
-12.2732 -29.8984 -8.34296e-13
4.45155e-12 -8.34296e-13 -6.22253

38.1726 -43.2982 -1.8782e-12
-43.2982 41.8005 -4.46458e-12
-1.8782e-12 -4.46458e-12 -14.5589

58.1429 -18.063 1.91728e-12
-18.063 -2.30227 -8.37848e-13
1.91728e-12 -8.37848e-13 -7.91323

-21.4411 17.0854 8.4525e-14
17.0854 30.3269 -2.29446e-12
8.4525e-14 -2.29446e-12 -5.72771

-11.3722 19.3386 -4.12381e-12
19.3386 25.5104 1.86814e-12
-4.12381e-12 1.86814e-12 -3.92114

20.7911 -16.3008 3.56278e-12
-16.3008 -33.1137 -3.53791e-12
3.56278e-12 -3.53791e-12 -7.31108

12.6154 -34.1847 2.4194e-12
-34.1847 46.4348 6.75016e-14
2.4194e-12 6.75016e-14 -10.3969

62.359 19.1814 2.30926e-12
19.1814 2.81059 -5.83711e-12
2.30926e-12 -5.83711e-12 -8.41362

46.5129 -25.2878 2.8327e-12
-25.2878 5.13436 4.22566e-12
2.8327e-12 4.22566e-12 -5.60956

-31.8955 19.4859 -8.42881e-13
19.4859 -4.28559 3.26524e-12
-8.42881e-13 3.26524e-12 -26.0858

37.0387 29.6487 5.30775e-12
29.6487 14.5127 4.06075e-12
5.30775e-12 4.06075e-12 -5.432

-27.4501 -21.8128 -2.46914e-12
-21.8128 -8.2281 -1.1677e-12
-2.46914e-12 -1.1677e-12 -25.2482

64.8676 -42.7104 1.42488e-11
-42.7104 44.0793 -3.03165e-12
1.42488e-11 -3.03165e-12 -9.50206

-27.7497 5.45989 -4.36747e-12
5.45989 2.66935 -3.1557e-12
-4.36747e-12 -3.1557e-12 -38.3089

-5.55726 -5.32966 2.4869e-14
-5.32966 57.3871 1.57267e-12
2.4869e-14 1.57267e-12 -5.44903

-0.199999 10.3842 -7.05569e-12
10.3842 -24.8483 1.96453e-12
-7.05569e-12 1.96453e-12 -38.3705

-26.4845 21.4127 -4.36895e-12
21.4127 12.2196 -7.00477e-13
-4.36895e-12 -7.00477e-13 -6.86902

4.72653 5.7538 1.35506e-12
5.7538 -56.0399 -2.63848e-12
1.35506e-12 -2.63848e-12 -13.9805

0.539711 11.4589 3.89762e-13
11.4589 -34.0564 5.74681e-12
3.89762e-13 5.74681e-12 -14.8396

106.342 31.8193 -1.95636e-12
31.8193 37.8323 -1.84741e-12
-1.95636e-12 -1.84741e-12 -7.48976

-35.4915 -6.03505 1.73165e-12
-6.03505 10.6012 -2.17544e-12
1.73165e-12 -2.17544e-12 -13.4787

-35.3598 9.51963 3.2571e-12
9.51963 1.23358 -2.68319e-12
3.2571e-12 -2.68319e-12 -14.9599

-42.5873 -2.88072 3.24133e-12
-2.88072 21.1109 -2.04992e-12
3.24133e-12 -2.04992e-12 -11.2385

-44.9076 23.4021 -2.69855e-12
23.4021 -5.89261 8.92619e-13
-2.69855e-12 8.92619e-13 -13.9214

9.97105 8.46342 5.80277e-13
8.46342 -42.3774 1.73802e-12
5.80277e-13 1.73802e-12 -9.07733

-12.3339 -28.2389 1.57296e-12
-28.2389 1.68752 -3.20928e-12
1.57296e-12 -3.20928e-12 -6.67324

1.30886 -1.7112 1.33227e-14
-1.7112 -55.4561 3.23475e-12
1.33227e-14 3.23475e-12 -11.3035

-31.885 -19.2619 4.67922e-13
-19.2619 -4.59497 2.18729e-12
4.67922e-13 2.18729e-12 -25.9551

-27.9756 21.3078 2.49371e-12
21.3078 -8.35795 2.07045e-12
2.49371e-12 2.07045e-12 -26.0136

-0.651352 -16.583 1.68843e-12
-16.583 61.6726 -1.35951e-12
1.68843e-12 -1.35951e-12 -7.94851

-0.650091 -27.9359 -2.224e-12
-27.9359 -21.3605 -6.71759e-13
-2.224e-12 -6.71759e-13 -12.7907

-14.0927 -25.1343 7.16464e-13
-25.1343 7.40687 3.13823e-14
7.16464e-13 3.13823e-14 -5.23535

91.6762 -31.71 6.35936e-12
-31.71 19.4845 2.43361e-13
6.35936e-12 2.43361e-13 -16.3333

-33.7057 3.22257 -1.80322e-12
3.22257 9.19926 -3.16724e-12
-1.80322e-12 -3.16724e-12 -18.5635

2.75237 28.9437 8.86402e-13
28.9437 -24.4244 5.89958e-12
8.86402e-13 5.89958e-12 -11.3161

-38.4329 19.664 -3.01048e-12
19.664 5.22977 -1.21799e-12
-3.01048e-12 -1.21799e-12 -9.23457

50.1898 7.99935 1.72899e-12
7.99935 -16.963 3.93759e-12
1.72899e-12 3.93759e-12 -7.06631

60.0305 -33.9348 -1.62359e-12
-33.9348 33.7865 -5.67487e-12
-1.62359e-12 -5.67487e-12 -6.9835

-18.9597 -10.5876 -5.18637e-12
-10.5876 -0.541854 -1.54217e-12
-5.18637e-12 -1.54217e-12 -25.4316

-33.9261 23.8994 -3.03461e-13
23.8994 -12.0229 -2.60676e-12
-3.03461e-13 -2.60676e-12 -14.54

58.1553 -32.383 -8.85573e-12
-32.383 18.0913 2.95231e-12
-8.85573e-12 2.95231e-12 -10.1335

66.8585 10.7908 -9.73444e-13
10.7908 8.51344 2.54285e-12
-9.73444e-13 2.54285e-12 -5.08404

7.67418 -21.2055 3.36472e-12
-21.2055 88.4629 9.15653e-12
3.36472e-12 9.15653e-12 -11.8622

-33.985 14.4255 -2.85646e-12
14.4255 20.2383 4.20464e-12
-2.85646e-12 4.20464e-12 -7.54579

8.47559 23.1427 -5.3942e-13
23.1427 -26.0735 2.15916e-12
-5.3942e-13 2.15916e-12 -11.2988

34.8683 42.1977 -1.29792e-12
42.1977 46.1986 1.66741e-12
-1.29792e-12 1.66741e-12 -14.4203

-4.39443 16.5072 1.16947e-11
16.5072 -35.5424 -1.48489e-12
1.16947e-11 -1.48489e-12 -73.2891

-5.97934 -4.10825 -8.26598e-13
-4.10825 57.9476 2.19202e-12
-8.26598e-13 2.19202e-12 -5.44122

-1.81877 -16.6324 8.07887e-12
-16.6324 -39.4025 -5.76398e-12
8.07887e-12 -5.76398e-12 -74.1124

-3.32931 -27.335 -1.23694e-12
-27.335 -30.0298 6.25278e-13
-1.23694e-12 6.25278e-13 -21.5543

8.96722 27.4244 2.68644e-12
27.4244 -29.9944 7.49919e-13
2.68644e-12 7.49919e-13 -11.2567

45.7106 -24.41 3.58824e-12
-24.41 5.02465 9.28739e-13
3.58824e-12 9.28739e-13 -5.23564

10.0955 31.3225 1.82313e-12
31.3225 47.1626 4.50603e-12
1.82313e-12 4.50603e-12 -9.63995

14.2725 -10.7049 -4.39944e-12
-10.7049 82.8374 -1.10134e-12
-4.39944e-12 -1.10134e-12 -6.44681

-38.6329 21.9706 6.23664e-12
21.9706 2.9416 2.27847e-12
6.23664e-12 2.27847e-12 -8.56854

1.19263 16.7939 3.37922e-12
16.7939 -25.7219 -4.53948e-12
3.37922e-12 -4.53948e-12 -18.5677

-26.5374 15.1536 -9.23409e-13
15.1536 18.4493 -1.80715e-12
-9.23409e-13 -1.80715e-12 -5.70743

43.6582 15.9535 7.78044e-13
15.9535 -7.28447 -4.23365e-14
7.78044e-13 -4.23365e-14 -4.0746

12.5772 -21.472 7.62649e-13
-21.472 57.9547 4.57116e-13
7.62649e-13 4.57116e-13 -4.71364

65.9953 -29.3899 1.18424e-14
-29.3899 18.6435 2.45789e-12
1.18424e-14 2.45789e-12 -9.33502

-32.3809 -24.5728 -8.13719e-13
-24.5728 -7.2815 -1.803e-12
-8.13719e-13 -1.803e-12 -8.97576

-22.6666 27.4507 5.20798e-12
27.4507 -10.3499 -2.269e-12
5.20798e-12 -2.269e-12 -9.28336

-38.351 23.1875 5.97448e-13
23.1875 1.99111 -4.89179e-12
5.97448e-13 -4.89179e-12 -8.52443

-51.5532 13.1692 -8.99938e-13
13.1692 11.9271 -4.162e-12
-8.99938e-13 -4.162e-12 -16.4661

23.4845 9.37218 -3.17672e-12
9.37218 -29.4871 1.26151e-12
-3.17672e-12 1.26151e-12 -5.32092

3.76893 -4.66496 -1.85244e-12
-4.66496 79.4367 2.68585e-12
-1.85244e-12 2.68585e-12 -9.53113

-44.94 -36.8334 5.0792e-12
-36.8334 -19.8289 2.66831e-12
5.0792e-12 2.66831e-12 -14.7704

-16.079 27.4648 -7.64426e-13
27.4648 1.34125 1.42701e-13
-7.64426e-13 1.42701e-13 -6.91402

-5.01487 2.17029 4.0042e-14
2.17029 82.672 -1.91136e-12
4.0042e-14 -1.91136e-12 -13.4309

69.0443 34.6095 -4.84353e-12
34.6095 15.4967 -4.5078e-12
-4.84353e-12 -4.5078e-12 -10.7057

-31.3514 -22.9736 -6.87302e-13
-22.9736 -4.63232 -5.38828e-14
-6.87302e-13 -5.38828e-14 -8.52925

11.7429 5.73296 3.5687e-12
5.73296 -48.3357 -3.9746e-14
3.5687e-12 -3.9746e-14 -8.64083

43.0651 27.2034 4.48589e-12
27.2034 10.4522 1.76392e-12
4.48589e-12 1.76392e-12 -5.08038

-9.41499 12.7456 2.4647e-13
12.7456 -14.0389 -2.75543e-12
2.4647e-13 -2.75543e-12 -37.0413

70.3334 24.3299 1.89478e-12
24.3299 23.8048 -4.3651e-12
1.89478e-12 -4.3651e-12 -6.79929

-10.5862 -13.0551 -2.78651e-12
-13.0551 -13.9208 1.22776e-12
-2.78651e-12 1.22776e-12 -37.3791

-4.37902 0.778513 -1.76126e-12
0.778513 59.3971 5.42381e-13
-1.76126e-12 5.42381e-13 -4.83023

38.3565 -2.23527 -5.66303e-12
-2.23527 -23.8098 -2.63375e-12
-5.66303e-12 -2.63375e-12 -5.83174

3.59379 -15.7681 -1.7808e-12
-15.7681 -53.9714 8.40217e-13
-1.7808e-12 8.40217e-13 -21.1243

-42.2768 24.3881 5.3377e-12
24.3881 -11.7369 -1.5099e-13
5.3377e-12 -1.5099e-13 -11.1671

-46.8123 -13.535 1.63312e-13
-13.535 11.0674 2.47861e-12
1.63312e-13 2.47861e-12 -12.3535

5.81022 -8.00004 -2.91471e-13
-8.00004 -70.9678 -4.4853e-14
-2.91471e-13 -4.4853e-14 -14.8816

-49.5391 -22.2842 2.82071e-12
-22.2842 3.74865 2.37084e-12
2.82071e-12 2.37084e-12 -22.1042

-17.4593 -6.59633 3.9296e-12
-6.59633 -13.1158 -5.23548e-12
3.9296e-12 -5.23548e-12 -34.7821

-28.7296 -29.9081 2.25124e-12
-29.9081 -9.39984 1.08654e-13
2.25124e-12 1.08654e-13 -8.99557

15.6935 11.4534 4.4175e-12
11.4534 80.1789 1.51582e-13
4.4175e-12 1.51582e-13 -6.53047

42.2895 -28.1458 -1.65793e-14
-28.1458 11.0511 -4.02049e-12
-1.65793e-14 -4.02049e-12 -5.04362

-47.1705 -13.7723 5.51958e-12
-13.7723 4.19613 -4.90156e-12
5.51958e-12 -4.90156e-12 -29.301

2.9649 0.504378 -2.77867e-12
0.504378 -56.8117 3.13823e-13
-2.77867e-12 3.13823e-13 -11.0048

-39.3364 -21.5246 2.34538e-12
-21.5246 -8.85734 2.39512e-13
2.34538e-12 2.39512e-13 -14.774

-40.1948 25.6976 -2.38372e-12
25.6976 -14.6914 1.92953e-12
-2.38372e-12 1.92953e-12 -11.3105

32.2602 -31.4636 -4.50721e-12
-31.4636 38.4289 1.65556e-12
-4.50721e-12 1.65556e-12 -4.64782

-31.4688 -7.08524 -1.83609e-12
-7.08524 1.70018 2.03038e-12
-1.83609e-12 2.03038e-12 -40.9935

36.6295 -33.076 2.4869e-12
-33.076 72.026 4.88853e-12
2.4869e-12 4.88853e-12 -7.14462

16.6125 -19.1794 3.54028e-12
-19.1794 -25.8693 4.1549e-12
3.54028e-12 4.1549e-12 -7.13281

1.50261 1.97017 -2.9173e-12
1.97017 -51.3914 9.31699e-13
-2.9173e-12 9.31699e-13 -15.374

-12.8763 17.8751 4.40536e-12
17.8751 -16.9548 -7.18803e-12
4.40536e-12 -7.18803e-12 -41.0611

10.7133 20.1823 3.04586e-12
20.1823 59.4531 5.17275e-12
3.04586e-12 5.17275e-12 -4.35628

4.31853 27.2101 -1.27483e-12
27.2101 -16.2235 1.69731e-12
-1.27483e-12 1.69731e-12 -8.12382

30.9042 -24.5111 -6.51331e-14
-24.5111 -8.13176 -4.37576e-12
-6.51331e-14 -4.37576e-12 -4.87164

-37.7869 -17.8384 -3.00397e-12
-17.8384 2.40089 -2.75395e-12
-3.00397e-12 -2.75395e-12 -9.86397

55.5128 35.0673 -6.64713e-12
35.0673 42.3448 9.52127e-13
-6.64713e-12 9.52127e-13 -6.6361

-40.0147 -21.831 -2.96607e-12
-21.831 2.53689 -1.10667e-12
-2.96607e-12 -1.10667e-12 -9.39348

2.9667 30.8501 2.00491e-12
30.8501 -17.3878 2.97214e-12
2.00491e-12 2.97214e-12 -9.0778

18.5373 -25.2437 -4.20404e-14
-25.2437 -19.4173 -3.60896e-12
-4.20404e-14 -3.60896e-12 -6.34196

-15.6533 -25.1259 1.57178e-12
-25.1259 5.89569 2.4419e-12
1.57178e-12 2.4419e-12 -5.77498

42.7177 -18.6876 -3.85114e-12
-18.6876 -9.16518 1.48267e-12
-3.85114e-12 1.48267e-12 -5.36859

27.4317 -18.8492 -1.15937e-12
-18.8492 -20.3677 -1.29437e-12
-1.15937e-12 -1.29437e-12 -5.6892

-41.3937 -25.3369 2.47417e-12
-25.3369 -14.964 -1.50535e-12
2.47417e-12 -1.50535e-12 -11.5666

29.7807 35.9684 -3.48995e-12
35.9684 25.2269 9.63733e-12
-3.48995e-12 9.63733e-12 -8.64388

-28.5177 15.3764 7.5168e-12
15.3764 18.5188 5.09933e-12
7.5168e-12 5.09933e-12 -5.87345

-23.1077 26.4219 1.35536e-12
26.4219 -12.5465 -5.70211e-12
1.35536e-12 -5.70211e-12 -9.9576

-42.0963 25.4736 3.79058e-13
25.4736 -11.5925 -3.93004e-12
3.79058e-13 -3.93004e-12 -10.9923

-37.2881 11.6213 8.63404e-13
11.6213 11.8441 9.23113e-13
8.63404e-13 9.23113e-13 -9.08006

64.392 -8.22677 6.35344e-12
-8.22677 3.19807 -2.56891e-12
6.35344e-12 -2.56891e-12 -4.25039

8.73413 18.6059 1.85452e-12
18.6059 59.2189 1.15582e-12
1.85452e-12 1.15582e-12 -4.16187

-25.6141 -24.3802 -4.54955e-12
-24.3802 0.458511 1.21947e-12
-4.54955e-12 1.21947e-12 -7.215

-1.14126 25.6653 -5.56e-13
25.6653 13.7523 2.17959e-12
-5.56e-13 2.17959e-12 -4.0821

32.3783 -35.6283 -1.81662e-12
-35.6283 21.7 -3.70074e-12
-1.81662e-12 -3.70074e-12 -8.48558

59.5351 38.3155 -5.39183e-12
38.3155 17.8476 8.83441e-13
-5.39183e-12 8.83441e-13 -13.722

12.1253 -33.31 4.84353e-12
-33.31 42.9127 1.78109e-12
4.84353e-12 1.78109e-12 -9.54222

30.5511 -31.1586 -5.35394e-12
-31.1586 36.8131 2.72612e-12
-5.35394e-12 2.72612e-12 -4.40497

11.7688 -6.83866 -5.79092e-13
-6.83866 -48.8378 -8.16532e-13
-5.79092e-13 -8.16532e-13 -8.76967

25.2743 30.3408 3.93285e-12
30.3408 41.0884 -7.30675e-13
3.93285e-12 -7.30675e-13 -4.45547

62.681 13.2943 -7.22385e-13
13.2943 5.22853 9.70483e-13
-7.22385e-13 9.70483e-13 -4.30498

-7.02512 13.3784 4.41602e-12
13.3784 61.3431 1.02673e-12
4.41602e-12 1.02673e-12 -8.69444

11.7298 -22.3397 4.42846e-12
-22.3397 55.7622 -2.89309e-12
4.42846e-12 -2.89309e-12 -4.30093

-47.2606 -1.09145 1.03369e-12
-1.09145 12.4097 -1.3145e-13
1.03369e-12 -1.3145e-13 -22.1621

-5.91845 2.24653 4.87314e-13
2.24653 59.0034 7.10543e-13
4.87314e-13 7.10543e-13 -5.26194

6.269 31.0883 4.60669e-13
31.0883 47.8644 -2.48453e-12
4.60669e-13 -2.48453e-12 -9.66001

-39.7251 12.1077 -2.84195e-12
12.1077 12.8448 3.13645e-12
-2.84195e-12 3.13645e-12 -9.31254

40.7377 -27.6468 2.57809e-12
-27.6468 8.35783 3.63561e-13
2.57809e-12 3.63561e-13 -5.64139

7.54014 20.5569 1.24375e-12
20.5569 -47.4668 5.38325e-12
1.24375e-12 5.38325e-12 -16.4815

-3.42099 26.2704 3.67884e-12
26.2704 -31.4867 -2.65773e-12
3.67884e-12 -2.65773e-12 -22.2526

15.7774 -18.5673 -1.64017e-12
-18.5673 -30.0125 -2.37736e-12
-1.64017e-12 -2.37736e-12 -8.1824

4.42879 -1.80099 5.25535e-12
-1.80099 -34.133 6.33863e-12
5.25535e-12 6.33863e-12 -24.4396

-14.3394 -31.8115 2.34686e-12
-31.8115 -11.93 1.73846e-12
2.34686e-12 1.73846e-12 -9.04894

56.2173 23.3271 -1.22569e-12
23.3271 0.817272 -4.03115e-12
-1.22569e-12 -4.03115e-12 -8.28747

-27.8279 30.162 -2.27907e-12
30.162 -9.23638 1.56793e-12
-2.27907e-12 1.56793e-12 -8.79982

-27.0034 29.2058 3.64064e-12
29.2058 -9.20175 3.49735e-12
3.64064e-12 3.49735e-12 -8.6771

28.6284 30.6599 -1.74557e-12
30.6599 40.4053 1.6532e-12
-1.74557e-12 1.6532e-12 -4.4485

0.343103 27.0848 4.57471e-12
27.0848 -19.8454 2.80131e-12
4.57471e-12 2.80131e-12 -11.7767

64.5068 3.52505 1.76215e-12
3.52505 -11.825 2.94746e-12
1.76215e-12 2.94746e-12 -10.0179

-14.8996 31.8172 -1.17121e-12
31.8172 -20.7987 -6.53285e-12
-1.17121e-12 -6.53285e-12 -12.4472

-37.9437 -12.5997 5.16032e-13
-12.5997 8.18002 3.06007e-12
5.16032e-13 3.06007e-12 -14.0225

-0.47506 24.2783 -3.02129e-12
24.2783 -29.999 5.71691e-13
-3.02129e-12 5.71691e-13 -20.7715

-23.7272 -29.5786 3.67114e-13
-29.5786 -11.9349 3.04645e-13
3.67114e-13 3.04645e-13 -8.84276

-38.1478 -4.89812 2.62736e-12
-4.89812 18.8465 -1.95458e-12
2.62736e-12 -1.95458e-12 -11.7297

69.9434 -24.5556 -1.00518e-11
-24.5556 18.0288 -1.70412e-12
-1.00518e-11 -1.70412e-12 -7.04404

39.9816 29.6923 4.06549e-12
29.6923 13.4796 6.16396e-12
4.06549e-12 6.16396e-12 -5.21449

-4.29557 14.6961 -3.56441e-12
14.6961 60.5704 6.84371e-12
-3.56441e-12 6.84371e-12 -8.40038

1.61144 -1.13886 -1.23338e-12
-1.13886 -56.1232 -9.57382e-13
-1.23338e-12 -9.57382e-13 -11.2087

9.61413 0.00223439 -3.08198e-13
0.00223439 -44.7534 -1.76944e-12
-3.08198e-13 -1.76944e-12 -8.43731

-31.0784 23.1236 2.97688e-12
23.1236 -4.33701 5.56237e-12
2.97688e-12 5.56237e-12 -8.45776

-34.7625 23.8709 1.56586e-12
23.8709 -13.1923 -4.70568e-13
1.56586e-12 -4.70568e-13 -14.8128

-43.3785 -24.3807 -2.37873e-12
-24.3807 -12.6139 1.09098e-12
-2.37873e-12 1.09098e-12 -11.4682

-39.0587 -0.672695 -1.99104e-12
-0.672695 21.0464 -3.62318e-12
-1.99104e-12 -3.62318e-12 -10.4951

-40.8066 25.5903 -2.60059e-12
25.5903 -13.2224 -3.87438e-12
-2.60059e-12 -3.87438e-12 -11.1718

32.3214 -10.3077 -1.21562e-12
-10.3077 -25.1528 -1.77754e-12
-1.21562e-12 -1.77754e-12 -6.01355

8.70696 -32.8327 -2.73796e-12
-32.8327 22.7976 -1.02496e-12
-2.73796e-12 -1.02496e-12 -6.99141

2.39688 -2.30059 -8.34296e-13
-2.30059 -49.9606 -1.42701e-13
-8.34296e-13 -1.42701e-13 -14.7724

36.7452 -34.5074 -8.12387e-12
-34.5074 24.4795 8.08242e-13
-8.12387e-12 8.08242e-13 -7.70868

-38.2937 19.0861 -1.38556e-13
19.0861 -7.09372 7.2653e-13
-1.38556e-13 7.2653e-13 -14.4492

7.87077 -26.4786 -3.82805e-12
-26.4786 -27.9941 -3.15659e-12
-3.82805e-12 -3.15659e-12 -10.9687

63.9464 -9.69002 -9.49759e-13
-9.69002 5.67783 -5.34402e-12
-9.49759e-13 -5.34402e-12 -5.07188

6.04094 -23.1918 -8.13216e-12
-23.1918 -35.468 1.35506e-12
-8.13216e-12 1.35506e-12 -17.736

0.141353 2.35825 4.27954e-13
2.35825 -56.1739 -3.70489e-12
4.27954e-13 -3.70489e-12 -11.5456

-4.06199 -23.3213 2.11446e-12
-23.3213 -23.4116 2.99745e-12
2.11446e-12 2.99745e-12 -16.7199

11.0389 -25.8593 2.7575e-12
-25.8593 -29.4854 -2.15975e-12
2.7575e-12 -2.15975e-12 -9.73319

10.2014 -8.54599 8.41401e-13
-8.54599 -43.4895 1.27602e-13
8.41401e-13 1.27602e-13 -9.28087

-35.4183 -23.0681 2.30305e-12
-23.0681 -12.6457 -2.75829e-12
2.30305e-12 -2.75829e-12 -15.1029

23.6642 -31.3412 -6.91595e-13
-31.3412 5.71275 2.55973e-12
-6.91595e-13 2.55973e-12 -5.87764

11.0599 -24.587 7.58504e-13
-24.587 -27.4943 -4.42194e-12
7.58504e-13 -4.42194e-12 -10.0477

46.6425 10.8642 -6.03961e-13
10.8642 -16.1165 1.76836e-12
-6.03961e-13 1.76836e-12 -6.79928

-14.1861 26.3401 -1.74882e-12
26.3401 -15.6395 -5.00666e-12
-1.74882e-12 -5.00666e-12 -14.1187

-45.2519 -37.6131 4.88498e-13
-37.6131 -20.6125 -3.27375e-12
4.88498e-13 -3.27375e-12 -14.9188

-43.7086 37.2654 5.98632e-13
37.2654 -21.2663 -4.07097e-12
5.98632e-13 -4.07097e-12 -14.7692

-61.1854 -28.5735 -1.61463e-12
-28.5735 -7.49703 8.2719e-13
-1.61463e-12 8.2719e-13 -15.1993

-58.4162 27.0642 -1.40717e-12
27.0642 -6.27166 1.26121e-13
-1.40717e-12 1.26121e-13 -14.4779

5.60069 -8.52769 -2.01172e-12
-8.52769 -71.0643 -2.05332e-12
-2.01172e-12 -2.05332e-12 -14.7094

4.3974 9.27371 -2.71605e-12
9.27371 -68.8329 1.52041e-12
-2.71605e-12 1.52041e-12 -14.4374

9.02399 -9.84606 7.74492e-13
-9.84606 -40.8895 2.14347e-12
7.74492e-13 2.14347e-12 -9.61138

-24.3355 32.1164 4.18924e-12
32.1164 -24.8102 2.20537e-12
4.18924e-12 2.20537e-12 -21.1454

-25.523 -32.8544 3.32475e-13
-32.8544 -25.0962 -1.42445e-12
3.32475e-13 -1.42445e-12 -21.4695

-53.9203 16.0686 -1.82965e-13
16.0686 3.4019 2.51147e-12
-1.82965e-13 2.51147e-12 -21.403

-52.4211 -15.801 1.97501e-12
-15.801 3.29721 6.98996e-13
1.97501e-12 6.98996e-13 -21.0762

6.1124 -3.74746 -1.15789e-12
-3.74746 -43.9253 5.98336e-13
-1.15789e-12 5.98336e-13 -25.7654

6.91857 3.61023 -2.55188e-12
3.61023 -46.3489 -1.32279e-12
-2.55188e-12 -1.32279e-12 -26.1417

-15.6251 9.83669 8.93433e-13
9.83669 46.2621 9.23706e-13
8.93433e-13 9.23706e-13 -5.84745

-22.9184 -24.7739 5.31131e-13
-24.7739 -14.5521 1.55772e-12
5.31131e-13 1.55772e-12 -10.3295

-56.6038 -36.3877 2.92714e-12
-36.3877 -14.5327 1.31983e-12
2.92714e-12 1.31983e-12 -13.4368

33.3581 -4.66423 -1.98952e-12
-4.66423 -19.8464 2.9593e-12
-1.98952e-12 2.9593e-12 -3.94455

3.43347 -16.6949 5.04633e-13
-16.6949 -52.6291 5.10999e-13
5.04633e-13 5.10999e-13 -21.5328

3.6746 16.1759 -1.33641e-12
16.1759 -51.8847 1.8255e-12
-1.33641e-12 1.8255e-12 -21.4061

6.55579 0.121884 -2.18788e-13
0.121884 -76.7552 1.58595e-12
-2.18788e-13 1.58595e-12 -13.3037

-7.56902 23.3747 2.54641e-12
23.3747 39.9354 -2.33295e-13
2.54641e-12 -2.33295e-13 -6.88474

-56.8895 36.1716 1.3937e-13
36.1716 -14.0114 -2.65269e-12
1.3937e-13 -2.65269e-12 -13.3885

-39.7945 -23.3957 -3.33082e-12
-23.3957 2.5616 -6.22021e-13
-3.33082e-12 -6.22021e-13 -8.80045

37.1165 23.3523 -4.59721e-12
23.3523 -8.61256 3.62258e-12
-4.59721e-12 3.62258e-12 -5.75808

4.73547 23.8581 -2.80842e-12
23.8581 -38.2258 1.62922e-12
-2.80842e-12 1.62922e-12 -18.9858

24.0134 -31.313 2.52953e-12
-31.313 6.40861 4.19872e-12
2.52953e-12 4.19872e-12 -5.64762

2.43082 -3.23085 1.18394e-12
-3.23085 -48.3697 -4.51195e-13
1.18394e-12 -4.51195e-13 -14.7424

-60.458 -34.1611 -3.15607e-12
-34.1611 -14.3498 1.46165e-12
-3.15607e-12 1.46165e-12 -14.0305

-17.4519 8.31982 -3.43507e-12
8.31982 45.6914 -2.63611e-12
-3.43507e-12 -2.63611e-12 -5.78048

-9.46825 21.8112 7.69755e-14
21.8112 40.4247 -2.7273e-12
7.69755e-14 -2.7273e-12 -6.65322

58.6029 35.7752 -4.35444e-12
35.7752 37.0878 -9.41469e-13
-4.35444e-12 -9.41469e-13 -6.91569

70.4831 1.57872 -4.55576e-12
1.57872 -5.54247 3.86654e-13
-4.55576e-12 3.86654e-13 -10.3737

-30.7595 -22.8044 9.13936e-13
-22.8044 -13.3562 -4.87808e-12
9.13936e-13 -4.87808e-12 -14.4658

32.8411 31.1833 -1.32161e-12
31.1833 69.7935 1.97531e-12
-1.32161e-12 1.97531e-12 -6.6792

-19.3761 23.6097 -4.62149e-13
23.6097 7.68696 -1.33997e-12
-4.62149e-13 -1.33997e-12 -5.51274

47.6366 -5.34945 -1.80952e-12
-5.34945 -17.4325 -1.71433e-12
-1.80952e-12 -1.71433e-12 -6.82123

33.2193 11.2159 -1.61412e-12
11.2159 -23.6362 -8.7604e-13
-1.61412e-12 -8.7604e-13 -6.01331

6.25431 0.429907 -1.14605e-12
0.429907 -77.5525 -1.74962e-12
-1.14605e-12 -1.74962e-12 -13.4494

-58.9361 -29.0312 -4.93731e-12
-29.0312 -6.28806 -4.53859e-13
-4.93731e-12 -4.53859e-13 -14.6968

-28.332 -6.31906 7.22193e-12
-6.31906 -11.3587 -3.48403e-12
7.22193e-12 -3.48403e-12 -51.5903

-44.6983 37.4118 -8.11499e-13
37.4118 -20.8115 1.6193e-12
-8.11499e-13 1.6193e-12 -14.7732

93.7893 1.66326 -4.47405e-12
1.66326 16.6554 4.5269e-12
-4.47405e-12 4.5269e-12 -6.04295

10.0367 -32.7863 -1.69642e-12
-32.7863 21.3109 -8.12387e-13
-1.69642e-12 -8.12387e-13 -6.80767

-56.9363 36.6131 -3.07968e-12
36.6131 -14.5712 -2.17086e-12
-3.07968e-12 -2.17086e-12 -13.5047

-35.0786 -11.1338 2.96683e-12
-11.1338 19.1771 -1.59754e-12
2.96683e-12 -1.59754e-12 -8.31598

-5.47697 -25.5141 8.47914e-13
-25.5141 37.35 2.65625e-12
8.47914e-13 2.65625e-12 -6.9865

-58.4525 28.8302 1.23398e-12
28.8302 -6.27144 8.73968e-13
1.23398e-12 8.73968e-13 -14.6139

28.4958 -26.1414 2.46973e-12
-26.1414 -4.91209 -1.03266e-12
2.46973e-12 -1.03266e-12 -4.69668

-21.1709 10.4834 -2.55499e-12
10.4834 -18.559 -3.22794e-12
-2.55499e-12 -3.22794e-12 -51.6859

3.43322 30.8714 -8.84034e-13
30.8714 27.1625 -3.00915e-12
-8.84034e-13 -3.00915e-12 -6.73245

6.14065 8.12679 -2.67342e-13
8.12679 -72.2981 -3.73893e-12
-2.67342e-13 -3.73893e-12 -14.984

-11.5455 30.1905 2.42265e-12
30.1905 -20.6032 3.76884e-13
2.42265e-12 3.76884e-13 -11.5489

-30.7973 23.3317 -6.56941e-12
23.3317 -5.09959 3.05237e-12
-6.56941e-12 3.05237e-12 -8.46382

-25.8637 -32.489 9.08903e-13
-32.489 -24.1129 -1.23281e-12
9.08903e-13 -1.23281e-12 -21.559

9.20558 -23.19 7.17648e-13
-23.19 -27.922 2.88243e-12
7.17648e-13 2.88243e-12 -11.4254

-37.6607 10.4708 -3.97667e-12
10.4708 8.9289 -4.08325e-12
-3.97667e-12 -4.08325e-12 -25.3313

-23.0401 -23.4336 5.52477e-12
-23.4336 4.95253 -1.67866e-12
5.52477e-12 -1.67866e-12 -6.26245

88.8021 -9.70761 -3.86062e-13
-9.70761 10.8074 1.71974e-12
-3.86062e-13 1.71974e-12 -10.0307

84.0423 -14.277 -1.14871e-12
-14.277 2.8129 -7.86808e-12
-1.14871e-12 -7.86808e-12 -13.1967

5.88814 16.5293 -3.58232e-13
16.5293 -33.9324 -3.74219e-13
-3.58232e-13 -3.74219e-13 -22.3762

-16.4209 22.5013 3.17257e-12
22.5013 16.228 -5.94961e-12
3.17257e-12 -5.94961e-12 -5.08473

-3.91217 29.1628 1.20082e-12
29.1628 -12.2294 2.88865e-12
1.20082e-12 2.88865e-12 -8.39582

50.9921 0.688661 3.56456e-12
0.688661 -6.53126 -8.25858e-13
3.56456e-12 -8.25858e-13 -3.63392

-48.1409 6.57126 2.63724e-12
6.57126 14.7862 -3.77298e-12
2.63724e-12 -3.77298e-12 -18.9525

10.1157 16.5408 -3.00856e-12
16.5408 -36.0794 -3.9968e-12
-3.00856e-12 -3.9968e-12 -9.13509

-4.50319 -25.7605 -3.86654e-13
-25.7605 35.5552 2.68704e-12
-3.86654e-13 2.68704e-12 -6.74646

-39.1908 -2.57246 -9.33364e-13
-2.57246 21.5042 -5.06854e-12
-9.33364e-13 -5.06854e-12 -10.6691

-7.99011 13.3649 -9.65154e-14
13.3649 44.4049 -8.17124e-14
-9.65154e-14 -8.17124e-14 -3.94379

3.73476 -29.713 4.21826e-12
-29.713 -17.3643 2.56624e-12
4.21826e-12 2.56624e-12 -8.92012

21.4259 -29.9469 3.08553e-12
-29.9469 14.7562 2.44604e-12
3.08553e-12 2.44604e-12 -3.91736

6.88123 31.6222 7.46662e-13
31.6222 25.4016 -1.3897e-12
7.46662e-13 -1.3897e-12 -6.82762

2.78569 -15.0202 -3.45916e-12
-15.0202 -39.2678 -2.02779e-12
-3.45916e-12 -2.02779e-12 -63.313

-46.1597 2.04122 -2.9378e-12
2.04122 11.4615 -9.18969e-13
-2.9378e-12 -9.18969e-13 -22.7569

-55.4452 20.3002 1.47571e-12
20.3002 3.09595 3.21965e-12
1.47571e-12 3.21965e-12 -22.9161

5.91699 15.4392 -5.81757e-12
15.4392 -58.819 -1.95518e-12
-5.81757e-12 -1.95518e-12 -23.0361

-18.9213 -26.1884 -8.23045e-13
-26.1884 -12.9132 -2.83033e-12
-8.23045e-13 -2.83033e-12 -9.65218

41.3456 17.9569 2.57216e-12
17.9569 -6.27048 -2.85105e-13
2.57216e-12 -2.85105e-13 -3.86089

-44.6828 -5.2942 -1.65275e-13
-5.2942 4.53831 -5.02028e-12
-1.65275e-13 -5.02028e-12 -39.1457

7.49925 -18.9882 1.80655e-12
-18.9882 -39.8941 -4.55339e-13
1.80655e-12 -4.55339e-13 -11.6596

30.2908 -15.5986 1.893e-12
-15.5986 -20.5078 -8.73375e-15
1.893e-12 -8.73375e-15 -4.80445

-9.63782 11.6029 1.77961e-12
11.6029 44.3187 -3.37034e-12
1.77961e-12 -3.37034e-12 -3.85855

8.3342 -25.7337 -3.08849e-12
-25.7337 32.9916 8.30151e-13
-3.08849e-12 8.30151e-13 -3.63251

-10.2448 -25.2738 -1.72366e-12
-25.2738 -19.1 -1.76955e-12
-1.72366e-12 -1.76955e-12 -23.1749

17.0051 31.9588 -1.0747e-12
31.9588 11.1974 -2.14051e-12
-1.0747e-12 -2.14051e-12 -5.74578

-1.0693 -25.1348 -2.38831e-12
-25.1348 -30.7626 -1.01282e-12
-2.38831e-12 -1.01282e-12 -20.8917

48.0645 2.59732 -9.21337e-13
2.59732 -8.4091 2.37536e-12
-9.21337e-13 2.37536e-12 -3.53107

6.55273 -28.9299 9.26074e-13
-28.9299 72.0492 3.59771e-12
9.26074e-13 3.59771e-12 -14.5513

21.7915 -29.2303 -2.56032e-12
-29.2303 13.9637 -1.6526e-12
-2.56032e-12 -1.6526e-12 -3.92974

35.3509 32.1583 4.16023e-12
32.1583 74.1332 -4.56879e-12
4.16023e-12 -4.56879e-12 -5.44153

-45.2829 -11.877 -2.63369e-12
-11.877 13.9222 -2.28676e-12
-2.63369e-12 -2.28676e-12 -15.3261

-14.4198 -13.8211 -8.63161e-13
-13.8211 43.3818 4.37221e-12
-8.63161e-13 4.37221e-12 -5.67209

-19.2439 -23.9884 -9.92391e-13
-23.9884 -19.8306 5.68952e-12
-9.92391e-13 5.68952e-12 -64.2549

2.43864 23.7703 -6.04139e-12
23.7703 36.0064 -1.5324e-12
-6.04139e-12 -1.5324e-12 -3.71052

-15.1823 -32.7262 -3.93759e-13
-32.7262 -21.1187 6.53403e-13
-3.93759e-13 6.53403e-13 -14.3127

-14.5644 -11.9629 2.25671e-12
-11.9629 45.53 -3.61666e-12
2.25671e-12 -3.61666e-12 -5.73829

7.83564 -19.1169 1.02318e-12
-19.1169 -43.1217 -5.34979e-13
1.02318e-12 -5.34979e-13 -12.6317

6.54597 23.8765 -1.95399e-12
23.8765 35.171 -8.11203e-13
-1.95399e-12 -8.11203e-13 -3.44149

23.1732 -4.97544 2.90138e-13
-4.97544 -30.6756 -1.60527e-12
2.90138e-13 -1.60527e-12 -5.36367

36.9698 -30.3422 9.37916e-13
-30.3422 122.625 -6.0633e-13
9.37916e-13 -6.0633e-13 -6.24198

-26.8686 21.0137 4.94153e-12
21.0137 8.43431 6.28238e-12
4.94153e-12 6.28238e-12 -7.12929

40.3379 -19.3229 2.72967e-12
-19.3229 -11.3717 8.74264e-13
2.72967e-12 8.74264e-13 -5.72531

6.52874 -21.4459 -4.42905e-13
-21.4459 -45.5583 3.50416e-12
-4.42905e-13 3.50416e-12 -24.972

20.7051 31.7533 -2.72375e-14
31.7533 9.55775 -1.28075e-12
-2.72375e-14 -1.28075e-12 -5.80535

13.9189 -29.9712 -1.05752e-12
-29.9712 -7.60516 2.61332e-12
-1.05752e-12 2.61332e-12 -5.94357

6.75481 20.8851 1.13746e-12
20.8851 -27.7917 -5.90047e-13
1.13746e-12 -5.90047e-13 -11.1084

-38.274 -28.0758 -3.21831e-12
-28.0758 -14.0377 5.11073e-13
-3.21831e-12 5.11073e-13 -11.0604

8.64663 -26.2246 2.449e-12
-26.2246 31.1706 9.56864e-13
2.449e-12 9.56864e-13 -3.63453

15.3315 28.9805 1.69701e-12
28.9805 19.1538 -2.51177e-12
1.69701e-12 -2.51177e-12 -3.8823

28.6401 26.1908 -1.87346e-12
26.1908 -5.63267 2.08159e-12
-1.87346e-12 2.08159e-12 -4.80127

7.91487 -14.6098 -2.1938e-13
-14.6098 -36.8773 -5.3948e-12
-2.1938e-13 -5.3948e-12 -13.9909

-6.84078 -16.6172 9.42357e-13
-16.6172 41.3404 3.1181e-12
9.42357e-13 3.1181e-12 -3.95873

17.4406 -17.5682 -3.0731e-13
-17.5682 -30.9986 8.152e-13
-3.0731e-13 8.152e-13 -7.10455

19.8419 16.9082 4.53089e-12
16.9082 -31.6636 -6.63173e-14
4.53089e-12 -6.63173e-14 -7.33376

-33.6793 -9.38698 -3.40346e-12
-9.38698 8.75596 1.40924e-12
-3.40346e-12 1.40924e-12 -23.9929

43.431 -13.4298 -2.49874e-12
-13.4298 -8.36808 -3.6929e-12
-2.49874e-12 -3.6929e-12 -3.80348

-19.3776 0.593995 3.95358e-12
0.593995 43.1448 -2.57809e-12
3.95358e-12 -2.57809e-12 -4.77473

28.0557 18.5547 1.06581e-12
18.5547 -18.1982 -1.52471e-13
1.06581e-12 -1.52471e-13 -4.74896

25.5282 27.6034 -1.27779e-12
27.6034 -3.77501 -1.4803e-13
-1.27779e-12 -1.4803e-13 -4.77042

-6.71457 -15.6858 -3.2685e-13
-15.6858 43.798 -1.10608e-12
-3.2685e-13 -1.10608e-12 -3.84728

-19.9056 -1.2023 3.01315e-13
-1.2023 42.1274 -1.66978e-12
3.01315e-13 -1.66978e-12 -4.68629

-5.4732 29.1343 -1.4122e-12
29.1343 -23.6462 -2.16094e-12
-1.4122e-12 -2.16094e-12 -16.7967

-37.2731 -10.9219 3.30536e-12
-10.9219 21.68 4.41484e-12
3.30536e-12 4.41484e-12 -7.82935

27.1432 -26.7147 5.37644e-13
-26.7147 -5.53015 -8.98837e-13
5.37644e-13 -8.98837e-13 -4.94347

40.7186 21.3321 -5.9804e-13
21.3321 -8.36938 2.62901e-12
-5.9804e-13 2.62901e-12 -5.46683

12.378 23.6651 2.83329e-12
23.6651 -27.1265 9.26074e-13
2.83329e-12 9.26074e-13 -8.66637

-37.7959 5.47065 -2.34457e-12
5.47065 23.3113 3.62377e-13
-2.34457e-12 3.62377e-13 -8.59681

18.5931 29.0649 3.94351e-13
29.0649 17.3778 -1.67037e-12
3.94351e-13 -1.67037e-12 -3.94639

-9.98922 22.9638 -1.87643e-12
22.9638 -14.9126 1.76866e-12
-1.87643e-12 1.76866e-12 -24.0262

68.3153 -59.6908 -4.26326e-14
-59.6908 36.3346 6.1687e-12
-4.26326e-14 6.1687e-12 -23.0108

17.5309 -25.0474 1.12088e-12
-25.0474 -17.9914 4.20108e-12
1.12088e-12 4.20108e-12 -6.41695

10.0586 7.06977 -3.60452e-12
7.06977 82.5493 2.68111e-12
-3.60452e-12 2.68111e-12 -7.16497

11.9205 -28.8888 -4.28635e-12
-28.8888 -3.88113 -3.52666e-12
-4.28635e-12 -3.52666e-12 -5.16505

-66.945 -52.7007 -3.62258e-12
-52.7007 143.248 5.46171e-12
-3.62258e-12 5.46171e-12 -49.6697

-68.3883 51.4513 2.70362e-12
51.4513 142.535 -4.55695e-12
2.70362e-12 -4.55695e-12 -49.8588

19.5686 117.154 -1.3974e-13
117.154 64.1277 3.66166e-12
-1.3974e-13 3.66166e-12 -48.3603

20.5275 -117.096 2.69533e-12
-117.096 61.0245 2.23584e-12
2.69533e-12 2.23584e-12 -48.725

157.741 -1.36335 2.79006e-12
-1.36335 -79.1872 1.76017e-15
2.79006e-12 1.76017e-15 -48.9119

110.324 -91.1249 4.26326e-14
-91.1249 -36.6904 1.7882e-12
4.26326e-14 1.7882e-12 -50.3065

110.377 91.6528 4.83169e-13
91.6528 -36.5006 -2.62427e-12
4.83169e-13 -2.62427e-12 -50.1793

7.84716 14.3301 -2.21512e-12
14.3301 -42.6813 -1.92202e-12
-2.21512e-12 -1.92202e-12 -15.0788

-11.7911 25.5367 4.31655e-13
25.5367 -27.4046 -1.12739e-12
4.31655e-13 -1.12739e-12 -35.1385

12.4381 6.60594 1.67096e-12
6.60594 -40.533 2.92803e-13
1.67096e-12 2.92803e-13 -8.25176

26.2547 21.7843 1.25529e-13
21.7843 -19.5278 2.60059e-12
1.25529e-13 2.60059e-12 -5.85011

-21.2292 17.7441 1.29837e-12
17.7441 29.8682 9.30811e-13
1.29837e-12 9.30811e-13 -6.16158

22.5303 28.898 -3.44199e-12
28.898 -0.775 -3.46094e-12
-3.44199e-12 -3.46094e-12 -4.73005

4.05574 -29.6632 -1.24759e-12
-29.6632 -17.4659 9.38805e-13
-1.24759e-12 9.38805e-13 -8.50382

25.9952 28.0273 -1.55313e-12
28.0273 -2.30116 -2.66572e-12
-1.55313e-12 -2.66572e-12 -4.73045

-19.3462 -2.84118 4.92643e-13
-2.84118 43.0709 -1.10608e-12
4.92643e-13 -1.10608e-12 -4.76927

-13.4118 -26.0975 -1.39266e-12
-26.0975 -25.8383 4.05098e-12
-1.39266e-12 4.05098e-12 -35.5216

-19.8413 -4.86228 -3.03283e-12
-4.86228 41.776 -5.24499e-12
-3.03283e-12 -5.24499e-12 -4.74313

-1.82677 23.016 -2.04518e-12
23.016 -24.377 9.40729e-13
-2.04518e-12 9.40729e-13 -16.1498

44.9821 26.8702 5.96264e-12
26.8702 8.11178 8.73375e-13
5.96264e-12 8.73375e-13 -5.36853

-52.5092 -13.216 -1.52456e-12
-13.216 0.150474 2.48897e-12
-1.52456e-12 2.48897e-12 -20.6174

20.2804 13.7278 -1.29674e-12
13.7278 -31.1407 -8.86106e-13
-1.29674e-12 -8.86106e-13 -7.04226

13.7008 -29.9872 1.99485e-12
-29.9872 -6.6909 3.60719e-12
1.99485e-12 3.60719e-12 -5.8345

29.6307 -24.7131 3.63798e-12
-24.7131 -7.87308 -2.52331e-12
3.63798e-12 -2.52331e-12 -4.82442

5.76497 -16.0745 -2.45729e-14
-16.0745 -32.3342 -3.95239e-13
-2.45729e-14 -3.95239e-13 -22.2557

12.6277 27.9286 -3.17672e-12
27.9286 -13.6382 7.35412e-13
-3.17672e-12 7.35412e-13 -6.41894

23.309 23.9771 -2.47565e-12
23.9771 -17.9425 -2.64411e-12
-2.47565e-12 -2.64411e-12 -5.96164

-31.0761 -2.79295 1.62278e-12
-2.79295 30.1316 4.40833e-12
1.62278e-12 4.40833e-12 -6.39781

-28.6285 5.8733 3.87828e-12
5.8733 33.3212 4.24253e-12
3.87828e-12 4.24253e-12 -6.0586

34.5483 2.64667 -4.54747e-13
2.64667 -26.1824 2.53597e-12
-4.54747e-13 2.53597e-12 -6.14132

50.6508 -7.28952 2.40637e-12
-7.28952 -14.0809 -5.36327e-12
2.40637e-12 -5.36327e-12 -6.77803

11.0413 30.4843 1.61648e-13
30.4843 -4.78709 2.69059e-12
1.61648e-13 2.69059e-12 -5.96545

17.4676 -26.1551 -4.50366e-12
-26.1551 -17.4544 2.7347e-12
-4.50366e-12 2.7347e-12 -6.35106

-0.0845247 -21.2543 -5.61329e-13
-21.2543 -27.9556 2.99346e-12
-5.61329e-13 2.99346e-12 -17.1664

4.93932 -31.6332 1.89833e-12
-31.6332 4.86176 -3.02869e-12
1.89833e-12 -3.02869e-12 -5.93428

-8.22653 -27.7851 -7.82189e-13
-27.7851 18.5789 -7.0545e-12
-7.82189e-13 -7.0545e-12 -6.12888

-1.64981 29.8867 1.37727e-12
29.8867 10.4476 -1.82965e-12
1.37727e-12 -1.82965e-12 -5.79932

-26.0156 -9.57779 -2.82367e-14
-9.57779 32.9696 1.68754e-13
-2.82367e-14 1.68754e-13 -5.78627

-31.322 -1.54473 6.46453e-12
-1.54473 31.6507 3.54975e-12
6.46453e-12 3.54975e-12 -6.22263

-38.9147 5.74796 -1.39401e-12
5.74796 23.9465 1.21088e-12
-1.39401e-12 1.21088e-12 -9.18221

-17.2173 -21.0887 9.18673e-13
-21.0887 26.5709 4.68307e-12
9.18673e-13 4.68307e-12 -5.77097

13.072 24.1109 1.03798e-12
24.1109 -28.1006 -7.47846e-13
1.03798e-12 -7.47846e-13 -9.20409

21.5549 -9.58963 -1.06759e-12
-9.58963 -31.7056 1.27735e-12
-1.06759e-12 1.27735e-12 -6.59709

-27.1526 7.46519 3.88547e-12
7.46519 34.3344 2.6823e-13
3.88547e-12 2.6823e-13 -5.873

-35.2349 -9.70105 1.65848e-12
-9.70105 22.3135 4.30648e-12
1.65848e-12 4.30648e-12 -8.18263

-29.1548 -16.3305 1.67318e-12
-16.3305 19.3467 2.31282e-12
1.67318e-12 2.31282e-12 -6.66076

36.9675 -8.23909 -3.66403e-12
-8.23909 -20.2358 4.13151e-12
-3.66403e-12 4.13151e-12 -5.10051

-14.8095 -32.3468 2.65713e-12
-32.3468 -21.6274 -2.70954e-12
2.65713e-12 -2.70954e-12 -12.9925

-22.8233 9.32071 2.59689e-12
9.32071 33.3232 -1.26062e-12
2.59689e-12 -1.26062e-12 -4.78785

-0.750906 -18.2126 3.02218e-12
-18.2126 -35.1577 -1.65779e-12
3.02218e-12 -1.65779e-12 -33.2781

4.93236 24.8223 -9.8647e-13
24.8223 75.3058 -3.79193e-12
-9.8647e-13 -3.79193e-12 -14.3187

-14.1417 -26.6261 4.24697e-12
-26.6261 -16.3497 2.85697e-14
4.24697e-12 2.85697e-14 -14.6403

-6.35702 -30.2028 3.62258e-12
-30.2028 -23.6019 -4.7784e-13
3.62258e-12 -4.7784e-13 -17.0876

-31.2698 -0.701315 3.81399e-13
-0.701315 31.5003 3.36087e-12
3.81399e-13 3.36087e-12 -6.3475

28.4875 -16.6224 -3.41653e-12
-16.6224 -18.0562 -1.04687e-12
-3.41653e-12 -1.04687e-12 -4.43706

-37.8043 12.8416 -1.56421e-12
12.8416 11.1651 2.03334e-12
-1.56421e-12 2.03334e-12 -10.9884

-8.86111 -3.18047 -3.44954e-12
-3.18047 111.05 1.18424e-14
-3.44954e-12 1.18424e-14 -22.6717

-31.6017 14.2735 1.3128e-12
14.2735 21.3504 2.89546e-13
1.3128e-12 2.89546e-13 -7.12347

12.4221 -29.4889 2.68526e-12
-29.4889 -2.51921 3.31883e-12
2.68526e-12 3.31883e-12 -4.92728

33.6317 25.1054 1.75326e-12
25.1054 124.029 1.89004e-12
1.75326e-12 1.89004e-12 -6.21431

-13.5028 26.0982 -7.15102e-12
26.0982 -19.0974 1.54425e-12
-7.15102e-12 1.54425e-12 -58.8967

-9.55283 -27.8076 -3.33452e-12
-27.8076 -22.807 5.41049e-12
-3.33452e-12 5.41049e-12 -59.5471

-2.8655 -30.4188 -4.28102e-12
-30.4188 -7.32079 -3.43547e-12
-4.28102e-12 -3.43547e-12 -7.28643

3.86061 -31.1598 4.36096e-12
-31.1598 5.63594 1.92675e-12
4.36096e-12 1.92675e-12 -6.0615

25.1519 20.8273 -1.83675e-12
20.8273 -17.0337 -3.56456e-13
-1.83675e-12 -3.56456e-13 -4.97596

31.805 15.0059 -1.38733e-12
15.0059 -23.3002 8.70119e-13
-1.38733e-12 8.70119e-13 -5.95379

-9.48893 3.08368 1.55168e-11
3.08368 -9.83069 6.58e-12
1.55168e-11 6.58e-12 -80.9398

-5.54914 -7.00031 6.897e-12
-7.00031 -14.042 -1.03875e-11
6.897e-12 -1.03875e-11 -80.2925

11.7485 4.82431 2.03926e-12
4.82431 -43.2051 1.99204e-12
2.03926e-12 1.99204e-12 -7.8267

-35.0561 6.7309 1.19023e-12
6.7309 24.3753 1.26181e-12
1.19023e-12 1.26181e-12 -7.56323

-36.1098 6.73631 -2.69763e-12
6.73631 24.4326 1.85392e-12
-2.69763e-12 1.85392e-12 -8.3082

74.5858 58.6337 4.52616e-12
58.6337 34.1723 2.7048e-12
4.52616e-12 2.7048e-12 -21.8731

-6.91932 -28.1994 -4.16556e-12
-28.1994 16.8754 3.16606e-12
-4.16556e-12 3.16606e-12 -6.11578

8.17207 17.9745 -2.62871e-12
17.9745 -44.8757 7.99657e-13
-2.62871e-12 7.99657e-13 -12.8963

32.7029 9.53967 -5.35276e-13
9.53967 -19.0795 7.60133e-13
-5.35276e-13 7.60133e-13 -4.07353

3.38815 -26.723 6.50147e-13
-26.723 13.4841 -6.22435e-12
6.50147e-13 -6.22435e-12 -3.82617

26.2375 -20.2375 -3.70963e-12
-20.2375 -20.3223 -2.61657e-12
-3.70963e-12 -2.61657e-12 -5.86236

65.3897 60.2316 -4.50247e-12
60.2316 34.2891 1.69938e-12
-4.50247e-12 1.69938e-12 -23.8678

-13.2424 31.069 -6.21725e-13
31.069 -16.881 2.87859e-12
-6.21725e-13 2.87859e-12 -12.7854

-18.6035 -19.7859 -1.60109e-12
-19.7859 28.4147 -1.47911e-12
-1.60109e-12 -1.47911e-12 -5.96863

11.1746 28.8574 -2.89842e-12
28.8574 -13.3227 2.74743e-13
-2.89842e-12 2.74743e-13 -6.43536

-31.8684 -4.14476 8.88252e-13
-4.14476 30.1479 4.44977e-12
8.88252e-13 4.44977e-12 -6.35707

-14.5957 19.609 3.77446e-12
19.609 27.1852 -8.35302e-12
3.77446e-12 -8.35302e-12 -4.41787

7.47951 30.5185 3.93759e-13
30.5185 -1.66994 1.56793e-12
3.93759e-13 1.56793e-12 -5.65965

-9.34434 -22.473 -3.32889e-12
-22.473 23.1492 6.80937e-13
-3.32889e-12 6.80937e-13 -4.17462

4.59089 -27.3523 2.82559e-12
-27.3523 11.4492 2.56091e-12
2.82559e-12 2.56091e-12 -3.93769

24.2717 11.2569 3.18279e-12
11.2569 102.078 6.29304e-12
3.18279e-12 6.29304e-12 -12.4051

37.4665 -33.4558 1.86754e-12
-33.4558 69.285 6.29778e-12
1.86754e-12 6.29778e-12 -5.70291

-25.3345 -11.6904 -2.6259e-12
-11.6904 31.3681 -5.87264e-12
-2.6259e-12 -5.87264e-12 -5.64755

16.0967 26.4843 -4.35207e-13
26.4843 -15.5015 1.74379e-12
-4.35207e-13 1.74379e-12 -6.21667

4.95611 29.4777 3.33659e-12
29.4777 1.6372 -1.02733e-12
3.33659e-12 -1.02733e-12 -4.98914

-9.85412 -21.4337 -1.54069e-12
-21.4337 25.1209 -6.4991e-12
-1.54069e-12 -6.4991e-12 -4.03242

-21.634 -11.7822 2.66868e-12
-11.7822 32.0821 1.00305e-12
2.66868e-12 1.00305e-12 -4.63639

10.4632 28.4092 3.24836e-12
28.4092 -0.156154 -2.37617e-12
3.24836e-12 -2.37617e-12 -4.67209

-21.8462 -13.8776 5.00637e-13
-13.8776 29.4674 -4.85478e-12
5.00637e-13 -4.85478e-12 -4.84633

6.95882 27.8546 1.4276e-12
27.8546 73.0843 5.58487e-12
1.4276e-12 5.58487e-12 -14.3219

-45.8315 -4.04133 -2.60682e-12
-4.04133 14.048 4.10871e-12
-2.60682e-12 4.10871e-12 -19.9649

0.877556 31.0272 1.45484e-12
31.0272 7.52065 -1.81425e-12
1.45484e-12 -1.81425e-12 -6.08824

9.71931 14.9011 -2.71723e-12
14.9011 -36.4287 2.07538e-13
-2.71723e-12 2.07538e-13 -10.9848

9.92888 -15.9274 1.18868e-12
-15.9274 -39.4102 -2.45137e-13
1.18868e-12 -2.45137e-13 -13.0687

85.6125 -24.2043 -2.70717e-12
-24.2043 7.636 7.91189e-12
-2.70717e-12 7.91189e-12 -12.9578

-23.2064 -21.2671 -3.9296e-12
-21.2671 10.5139 -1.98537e-12
-3.9296e-12 -1.98537e-12 -6.16448

-16.6004 26.6981 -5.20709e-12
26.6981 1.77877 -3.26139e-12
-5.20709e-12 -3.26139e-12 -6.58692

-26.2015 -21.7279 -1.76451e-12
-21.7279 -5.36464 -6.62836e-12
-1.76451e-12 -6.62836e-12 -23.8673

-41.5972 14.1069 -4.89712e-12
14.1069 -3.56017 -4.34941e-12
-4.89712e-12 -4.34941e-12 -64.1292

-0.893355 9.44535 3.05015e-12
9.44535 -44.26 -6.52219e-12
3.05015e-12 -6.52219e-12 -64.2306

-20.3842 32.7056 -8.33703e-13
32.7056 -23.2023 1.38556e-12
-8.33703e-13 1.38556e-12 -24.3297

-11.4099 26.0001 1.83379e-12
26.0001 22.6041 1.25979e-11
1.83379e-12 1.25979e-11 -5.92486

16.0388 26.6613 -1.77636e-14
26.6613 -17.2866 1.71211e-12
-1.77636e-14 1.71211e-12 -6.54914

30.4282 45.1855 2.36729e-12
45.1855 47.5544 -1.67451e-12
2.36729e-12 -1.67451e-12 -15.1948

-44.8891 -11.3438 -1.01563e-12
-11.3438 -1.8081 1.70205e-12
-1.01563e-12 1.70205e-12 -61.6852

-8.29819 -3.43302 1.85667e-11
-3.43302 -12.7554 -1.11887e-11
1.85667e-11 -1.11887e-11 -77.2298

-14.6918 -0.210113 1.70974e-12
-0.210113 -6.41858 1.68804e-11
1.70974e-12 1.68804e-11 -77.374

27.6647 -53.802 9.33179e-13
-53.802 71.148 -1.74794e-12
9.33179e-13 -1.74794e-12 -24.3897

-11.6914 -11.6001 5.55141e-12
-11.6001 -16.2044 -3.09619e-12
5.55141e-12 -3.09619e-12 -37.4317

-32.6104 8.81312 2.23925e-12
8.81312 -9.41968 3.31587e-12
2.23925e-12 3.31587e-12 -49.5424

18.2563 -26.1993 -5.96205e-12
-26.1993 -19.5458 -2.53545e-12
-5.96205e-12 -2.53545e-12 -6.50589

-39.4298 1.01113 -1.3386e-12
1.01113 11.9802 4.19398e-12
-1.3386e-12 4.19398e-12 -19.7219

-30.202 -20.2677 -3.73923e-13
-20.2677 6.30519 3.15718e-12
-3.73923e-13 3.15718e-12 -7.21537

10.5366 6.25531 -2.84039e-12
6.25531 -52.3898 -1.41368e-12
-2.84039e-12 -1.41368e-12 -9.63912

-49.8126 15.5963 -1.34002e-12
15.5963 10.1654 -3.41209e-12
-1.34002e-12 -3.41209e-12 -13.5307

-40.2832 7.19165 3.62969e-13
7.19165 16.5415 8.49099e-13
3.62969e-13 8.49099e-13 -13.7739

16.405 20.3926 -5.71217e-12
20.3926 -25.8403 -8.97356e-13
-5.71217e-12 -8.97356e-13 -7.60704

-9.10013 -3.1139 -8.91243e-12
-3.1139 108.394 -1.19845e-12
-8.91243e-12 -1.19845e-12 -23.102

-3.31979 -27.6235 4.82399e-12
-27.6235 -3.62927 -1.70826e-12
4.82399e-12 -1.70826e-12 -5.82931

-7.33482 -26.1161 2.43953e-13
-26.1161 -14.0816 -3.14918e-12
2.43953e-13 -3.14918e-12 -9.81022

-14.1981 -31.4837 -4.49063e-12
-31.4837 -21.7779 4.27939e-12
-4.49063e-12 4.27939e-12 -12.7553

90.7267 32.7492 -3.86535e-12
32.7492 20.9062 -4.46576e-12
-3.86535e-12 -4.46576e-12 -16.506

-23.1177 -20.1166 3.0127e-12
-20.1166 -17.3849 -5.15832e-12
3.0127e-12 -5.15832e-12 -44.4285

72.6297 54.3218 1.11318e-13
54.3218 91.6397 6.32857e-12
1.11318e-13 6.32857e-12 -6.14252

-36.2148 -21.4396 2.22296e-12
-21.4396 -6.79682 1.76511e-12
2.22296e-12 1.76511e-12 -13.0426

15.0339 14.6504 3.64627e-12
14.6504 -37.7513 -2.47698e-12
3.64627e-12 -2.47698e-12 -8.17819

44.5723 -14.5723 -5.05906e-12
-14.5723 -8.27128 5.22915e-12
-5.05906e-12 5.22915e-12 -4.41788

-21.2303 24.0466 -2.26397e-12
24.0466 4.95565 2.4869e-12
-2.26397e-12 2.4869e-12 -5.97568

17.3732 20.4279 -1.52175e-13
20.4279 -26.7918 -2.64677e-12
-1.52175e-13 -2.64677e-12 -6.95084

-51.1401 11.4007 -1.82965e-13
11.4007 7.71056 7.23806e-12
-1.82965e-13 7.23806e-12 -29.9945

-7.28672 -31.58 -3.34991e-12
-31.58 -12.8264 -2.6675e-13
-3.34991e-12 -2.6675e-13 -8.11845

2.79685 19.8124 4.14602e-12
19.8124 -46.0335 -1.93416e-12
4.14602e-12 -1.93416e-12 -29.9864

-24.6704 -18.4433 -3.29396e-12
-18.4433 17.8362 1.76688e-12
-3.29396e-12 1.76688e-12 -5.47937

-42.3402 4.28311 -1.41525e-12
4.28311 17.8694 2.7119e-13
-1.41525e-12 2.7119e-13 -12.7278

-4.09805 9.92668 -5.03183e-12
9.92668 -40.2762 -2.7612e-12
-5.03183e-12 -2.7612e-12 -47.5498

-2.68826 -8.51328 2.67934e-12
-8.51328 -38.3074 8.38144e-13
2.67934e-12 8.38144e-13 -47.4055

81.7216 18.5121 -1.11318e-12
18.5121 1.70041 -3.39699e-12
-1.11318e-12 -3.39699e-12 -14.453

3.89494 7.96495 -4.7405e-12
7.96495 -45.1828 -3.84581e-13
-4.7405e-12 -3.84581e-13 -11.0177

35.8709 7.74037 -1.06873e-11
7.74037 184.57 1.13687e-13
-1.06873e-11 1.13687e-13 -9.75804

40.1443 -11.385 -4.43867e-12
-11.385 190.368 -2.20742e-12
-4.43867e-12 -2.20742e-12 -7.38989

53.7637 56.4063 7.15043e-12
56.4063 159.252 -4.73695e-12
7.15043e-12 -4.73695e-12 -11.5007

1.70914 -28.9504 2.63078e-12
-28.9504 -24.6906 7.26027e-12
2.63078e-12 7.26027e-12 -11.9624

16.0485 -49.1897 3.11573e-12
-49.1897 99.4173 -4.40536e-12
3.11573e-12 -4.40536e-12 -21.6895

54.5115 -55.9489 -8.09071e-12
-55.9489 149.97 -4.42431e-12
-8.09071e-12 -4.42431e-12 -13.6656

-2.16525 26.2197 -1.73136e-12
26.2197 17.5727 8.47441e-12
-1.73136e-12 8.47441e-12 -3.99518

134.936 73.843 1.04213e-13
73.843 85.0231 3.51245e-12
1.04213e-13 3.51245e-12 -10.1598

-18.7195 13.0474 7.73307e-13
13.0474 -3.90033 4.66886e-12
7.73307e-13 4.66886e-12 -26.7699

3.74115 0.0392193 -2.13577e-12
0.0392193 -26.1889 -5.54815e-13
-2.13577e-12 -5.54815e-13 -26.7732

144.094 -73.1284 4.03115e-12
-73.1284 85.3506 4.43852e-12
4.03115e-12 4.43852e-12 -8.19713

-21.3922 -23.4236 -3.51719e-12
-23.4236 12.2482 -3.52844e-12
-3.51719e-12 -3.52844e-12 -6.49033

89.3447 34.7285 -8.5502e-13
34.7285 41.3893 3.59179e-12
-8.5502e-13 3.59179e-12 -11.5482

72.1854 63.49 -4.68958e-13
63.49 149.69 -5.38591e-12
-4.68958e-13 -5.38591e-12 -9.67444

26.1641 21.6298 3.64745e-12
21.6298 100.131 6.93963e-13
3.64745e-12 6.93963e-13 -13.0317

73.8721 -65.9188 1.84504e-12
-65.9188 151.141 1.02792e-12
1.84504e-12 1.02792e-12 -9.40301

25.7686 -12.3809 7.03911e-12
-12.3809 105.01 -8.87231e-12
7.03911e-12 -8.87231e-12 -12.4287

-28.6639 6.84191 2.83114e-12
6.84191 3.10671 -5.97359e-12
2.83114e-12 -5.97359e-12 -37.8544

37.7422 -45.9739 -3.19744e-14
-45.9739 49.6685 -7.89058e-12
-3.19744e-14 -7.89058e-12 -15.5323

14.4433 47.531 2.82914e-12
47.531 94.8778 5.56592e-12
2.82914e-12 5.56592e-12 -22.1926

173.336 37.9108 -1.27424e-12
37.9108 48.0402 -3.73035e-14
-1.27424e-12 -3.73035e-14 -9.52308

7.02101 -29.2854 9.34364e-13
-29.2854 -14.358 -1.7808e-12
9.34364e-13 -1.7808e-12 -7.15542

-38.4171 12.8967 -9.84768e-13
12.8967 6.43528 2.24916e-12
-9.84768e-13 2.24916e-12 -15.2903

88.503 -38.1117 8.56915e-12
-38.1117 34.1623 2.76164e-12
8.56915e-12 2.76164e-12 -14.0999

6.04193 -28.8019 -8.45546e-13
-28.8019 -16.1713 -4.7938e-12
-8.45546e-13 -4.7938e-12 -8.02928

169.202 -36.3427 3.66166e-12
-36.3427 34.9277 8.05282e-14
3.66166e-12 8.05282e-14 -13.2909

-5.72491 -28.3171 -8.66862e-13
-28.3171 -14.4724 2.64085e-12
-8.66862e-13 2.64085e-12 -9.30887

-17.7898 -25.2945 1.92143e-12
-25.2945 12.0804 -7.34228e-13
1.92143e-12 -7.34228e-13 -5.93349

118.873 69.4595 -1.7953e-12
69.4595 96.2167 1.81425e-12
-1.7953e-12 1.81425e-12 -11.4011

29.4124 -22.9323 1.21029e-12
-22.9323 97.7942 -1.16008e-11
1.21029e-12 -1.16008e-11 -14.3403

117.956 -71.6914 -6.1912e-12
-71.6914 93.6782 -1.67451e-12
-6.1912e-12 -1.67451e-12 -12.4171

22.2641 50.7365 7.61465e-12
50.7365 73.7767 -9.33179e-13
7.61465e-12 -9.33179e-13 -24.7776

-1.53594 -30.2118 -1.02259e-12
-30.2118 -6.55208 1.93386e-12
-1.02259e-12 1.93386e-12 -6.99717

-7.04527 -14.6403 -3.71851e-12
-14.6403 -21.9193 -1.79323e-12
-3.71851e-12 -1.79323e-12 -32.6149

-11.8921 11.0927 1.5006e-11
11.0927 -16.4311 -1.07203e-12
1.5006e-11 -1.07203e-12 -77.7962

-26.1694 -5.15997 -3.19863e-12
-5.15997 -6.38738 -1.41665e-11
-3.19863e-12 -1.41665e-11 -77.6299

-38.9406 13.0836 2.41895e-12
13.0836 13.7444 -1.59872e-12
2.41895e-12 -1.59872e-12 -10.2383

-14.4806 -10.6671 -3.81236e-12
-10.6671 -17.3186 1.68177e-12
-3.81236e-12 1.68177e-12 -78.759

-25.9032 4.0917 9.14794e-12
4.0917 -5.91389 -3.43362e-12
9.14794e-12 -3.43362e-12 -78.9012

-3.63392 7.43427 -1.54898e-12
7.43427 -27.8609 6.803e-12
-1.54898e-12 6.803e-12 -77.9884

-43.9757 -12.1154 8.19211e-12
-12.1154 2.91634 -2.48098e-12
8.19211e-12 -2.48098e-12 -68.1596

11.9737 -30.4695 -5.51559e-12
-30.4695 76.1619 1.11792e-12
-5.51559e-12 1.11792e-12 -14.7009

0.521966 -12.9721 3.04468e-12
-12.9721 -39.9909 -2.49045e-12
3.04468e-12 -2.49045e-12 -45.2779

-16.3488 -34.4178 -1.09986e-12
-34.4178 -22.0684 5.53853e-12
-1.09986e-12 5.53853e-12 -23.5902

-2.42052 -18.1768 2.03689e-12
-18.1768 -29.8954 3.76973e-12
2.03689e-12 3.76973e-12 -33.6271

12.7383 15.4591 2.04459e-12
15.4591 -37.7158 -2.76549e-12
2.04459e-12 -2.76549e-12 -9.6247

-46.909 9.86436 7.46914e-12
9.86436 8.87777 -6.28667e-12
7.46914e-12 -6.28667e-12 -70.1554

3.46274 19.2278 8.69319e-12
19.2278 -41.4725 2.1871e-12
8.69319e-12 2.1871e-12 -70.2713

1.47244 11.3062 -3.97282e-12
11.3062 -23.9652 1.67392e-12
-3.97282e-12 1.67392e-12 -31.8683

109.39 -15.3391 -4.55221e-12
-15.3391 -12.5355 -1.83557e-14
-4.55221e-12 -1.83557e-14 -25.0373

-14.3199 24.9637 -4.29375e-12
24.9637 10.3863 1.97235e-12
-4.29375e-12 1.97235e-12 -5.804

76.6059 -61.3539 8.28967e-14
-61.3539 37.3646 -4.36747e-12
8.28967e-14 -4.36747e-12 -22.3955

76.1132 -57.4565 3.50771e-12
-57.4565 99.2272 -4.97617e-12
3.50771e-12 -4.97617e-12 -5.55548

118.195 -36.5436 -4.92643e-13
-36.5436 40.6005 3.47337e-12
-4.92643e-13 3.47337e-12 -7.37863

-51.115 -5.15898 -5.3609e-12
-5.15898 3.34085 2.61139e-12
-5.3609e-12 2.61139e-12 -60.6617

-50.4789 2.89122 -2.19661e-12
2.89122 3.13511 -5.33869e-12
-2.19661e-12 -5.33869e-12 -60.1342

-11.9756 -24.4566 1.03621e-14
-24.4566 -35.0039 1.33508e-12
1.03621e-14 1.33508e-12 -59.1683

-8.99201 -21.7608 -6.45535e-12
-21.7608 -37.8886 1.39977e-12
-6.45535e-12 1.39977e-12 -59.4779

-14.7027 26.1363 1.04775e-12
26.1363 -33.0282 3.84766e-12
1.04775e-12 3.84766e-12 -60.7528

-18.1579 3.09965 8.60541e-12
3.09965 -13.1647 3.53147e-12
8.60541e-12 3.53147e-12 -75.4806

-9.9451 -20.5091 2.70065e-12
-20.5091 -32.6512 -1.79338e-12
2.70065e-12 -1.79338e-12 -56.7386

-26.6489 -18.5685 -2.09669e-12
-18.5685 -14.1959 -1.80596e-14
-2.09669e-12 -1.80596e-14 -71.2742

-15.4794 2.43466 -3.19271e-12
2.43466 -12.8527 -1.23717e-11
-3.19271e-12 -1.23717e-11 -77.8752

-6.02758 -20.5265 4.85464e-13
-20.5265 -41.4877 -1.07854e-12
4.85464e-13 -1.07854e-12 -60.509

-6.75687 20.9561 5.09074e-12
20.9561 -40.1439 1.16263e-12
5.09074e-12 1.16263e-12 -60.0201

-14.3166 -3.45869 -5.13056e-12
-3.45869 -11.3903 8.55612e-12
-5.13056e-12 8.55612e-12 -76.8896

-11.2643 -3.11743 -1.43549e-11
-3.11743 -17.6896 -1.03393e-11
-1.43549e-11 -1.03393e-11 -74.0523

-24.2045 12.1098 2.84824e-12
12.1098 -13.4007 7.70791e-13
2.84824e-12 7.70791e-13 -69.9704

-22.0828 26.9299 -5.10643e-12
26.9299 -26.2671 3.28191e-12
-5.10643e-12 3.28191e-12 -57.5841

VECTORS fluid_flux_TPM float
-8.72061e-05 3.10234e-05 -5.65038e-21
3.55898e-06 6.88148e-06 1.51431e-21
-1.27854e-05 -1.02239e-05 -5.42118e-21
-4.16994e-06 4.25336e-06 5.53214e-21
2.27042e-05 -6.31232e-06 1.16813e-20
2.75715e-06 -1.59011e-05 1.47405e-20
-8.57822e-05 -3.10882e-05 -1.45198e-20
-1.38902e-05 -1.04652e-05 1.50236e-20
2.21184e-05 9.45377e-07 -5.5191e-21
1.13823e-05 -3.9075e-06 -1.43233e-20
5.45928e-05 1.24822e-05 1.4862e-20
2.3465e-06 -1.71915e-05 2.00946e-20
1.36094e-05 1.12521e-05 8.95853e-21
2.66167e-06 1.37825e-05 -2.90402e-21
2.05779e-05 -2.9462e-06 -6.60592e-21
-1.63299e-05 -2.72858e-07 1.25271e-20
2.7531e-06 1.40967e-05 1.05561e-21
1.01803e-05 -2.39153e-06 -5.09953e-21
9.89711e-06 1.72201e-05 1.41232e-20
-1.48462e-05 1.88517e-06 9.75888e-22
-3.60064e-06 -2.13008e-05 -2.44865e-21
3.41064e-05 5.94097e-05 -4.9043e-21
1.56952e-05 1.63106e-06 -7.4921e-21
1.12256e-05 -1.12798e-05 -2.4138e-21
-1.50762e-05 -3.33191e-06 1.16687e-21
-6.7713e-07 -1.11292e-05 8.26973e-21
6.28953e-05 -4.90784e-06 1.33589e-20
1.4064e-05 1.02474e-05 8.88486e-21
-2.51462e-05 -2.064e-05 -1.28257e-20
4.9114e-05 -1.28123e-05 1.75881e-20
-1.65801e-05 -6.03748e-06 9.51512e-21
5.53635e-06 -3.20327e-05 -2.17142e-20
4.76486e-05 -4.80416e-05 -2.87279e-21
-4.92277e-06 -4.12429e-05 8.38613e-21
-2.96698e-05 3.7001e-05 -3.72347e-21
-3.82429e-05 -1.63932e-05 2.76177e-20
3.26987e-05 4.32104e-05 -4.34465e-21
-4.47355e-05 -8.72484e-06 -2.11472e-20
1.43727e-05 -1.10804e-05 -6.51205e-22
4.64646e-05 5.01094e-05 1.02124e-20
3.21257e-05 -1.40204e-05 7.09072e-21
3.36361e-05 -4.23386e-05 -1.07077e-21
-1.98942e-05 -5.03726e-05 -4.50382e-21
-1.5896e-05 6.35601e-06 9.03738e-22
3.05219e-05 -2.9311e-05 -4.30221e-21
-3.0329e-05 1.0989e-05 -9.00822e-21
-4.04975e-06 -2.03683e-05 -7.49786e-21
7.88521e-06 2.02095e-05 1.84961e-20
-1.63407e-05 5.92717e-06 -1.1255e-20
-1.78179e-05 2.87226e-05 9.68792e-21
3.24051e-05 1.52892e-05 1.4316e-20
2.9362e-05 -1.00741e-05 8.16817e-21
-1.56647e-05 1.57588e-05 8.12601e-21
-2.35388e-05 -2.06881e-05 1.54856e-21
-2.11377e-05 -5.13192e-06 -1.63063e-20
-4.47869e-05 2.70733e-05 -2.70938e-21
-2.9369e-05 -3.80194e-05 -1.6735e-20
6.36279e-06 -3.06248e-05 -1.58228e-20
-4.77032e-05 6.48225e-06 1.29654e-20
6.07352e-06 1.36958e-05 1.91976e-20
-5.57631e-06 -8.17272e-06 5.25091e-22
-6.58297e-06 -1.7942e-05 1.24907e-20
5.71391e-05 2.48576e-05 9.24652e-21
9.24206e-06 1.81427e-05 1.16964e-20
1.22955e-05 -1.44438e-05 1.38216e-20
-1.64046e-06 -2.07509e-05 -2.92257e-20
4.62072e-06 -8.80483e-06 2.68304e-20
-1.00897e-05 -5.56445e-06 1.09594e-21
-1.06018e-05 1.19284e-05 6.21093e-21
2.558e-06 -4.09228e-06 -4.6931e-22
-1.50423e-05 -1.5842e-05 2.9125e-21
-2.13633e-05 5.16552e-06 2.44472e-20
-3.55657e-06 3.44787e-05 -7.41025e-21
-1.78705e-05 1.071e-05 8.33701e-22
-9.07013e-06 1.46136e-05 2.2185e-20
-6.03502e-05 7.69152e-06 -9.77978e-21
7.81747e-06 -2.16799e-05 6.16879e-21
-1.88787e-05 -8.89941e-06 2.28729e-20
1.93357e-06 1.16232e-05 1.08542e-20
2.6299e-05 5.08927e-06 5.55186e-21
3.41666e-05 -2.8973e-05 -1.58676e-21
2.21448e-05 2.05547e-05 5.4205e-22
1.19076e-05 -2.82212e-06 1.65898e-20
-3.21514e-05 2.40653e-05 1.63115e-20
3.79017e-05 4.84551e-06 7.40814e-21
-4.98052e-06 4.94111e-05 -9.68186e-21
-1.741e-06 -1.68559e-05 4.49048e-21
1.81226e-05 9.95396e-06 2.27282e-20
2.93153e-05 3.02837e-05 -1.23297e-21
5.50209e-05 3.80108e-05 2.13119e-20
-5.33099e-06 3.07707e-05 7.5594e-21
5.91756e-05 -3.551e-05 -2.97829e-20
-2.71229e-05 5.34081e-06 3.39877e-21
1.7838e-05 1.10011e-05 1.15536e-21
-2.9639e-05 9.90262e-06 9.26743e-21
1.66518e-05 2.85192e-05 1.57221e-21
1.01681e-05 -4.43836e-05 -6.39162e-21
1.91534e-06 1.162e-05 -6.577e-23
-1.47997e-05 -1.76189e-05 2.33221e-20
3.06968e-06 1.74735e-05 1.45358e-20
2.64051e-05 5.25712e-06 -7.19499e-21
-1.54422e-05 3.32089e-05 -3.12866e-22
4.05494e-05 -1.33322e-05 -9.74946e-21
-3.77281e-06 7.45453e-06 2.88976e-21
9.95216e-06 5.89891e-06 8.80149e-21
-2.28043e-06 -1.13238e-05 6.00782e-21
3.22044e-06 -1.92506e-05 1.23446e-20
1.74682e-05 3.89182e-06 6.06239e-21
-7.93668e-06 4.09698e-05 1.03682e-21
-9.80495e-06 2.47906e-07 -9.32019e-21
9.31787e-06 1.1885e-05 -1.93509e-21
-2.17722e-06 -4.1711e-05 -2.33528e-20
4.20201e-05 1.28641e-05 8.59199e-21
4.42225e-06 -7.45269e-06 1.63982e-21
-1.11444e-05 -3.5534e-06 5.57522e-22
-2.93236e-05 -1.24851e-05 2.52151e-20
1.58027e-05 4.11445e-05 9.28563e-21
-4.34819e-05 -1.55727e-05 -1.46841e-20
1.60175e-05 -4.1121e-05 -1.29624e-20
-3.69956e-06 -3.1918e-05 5.33994e-21
2.18374e-05 6.5212e-07 4.13123e-21
-7.171e-06 1.83954e-05 -1.50867e-20
-1.61109e-06 3.9693e-06 1.55997e-20
-3.68572e-06 -1.65376e-05 -3.71468e-21
5.22963e-06 -8.30154e-06 5.51212e-21
9.35884e-06 1.58624e-05 -2.34655e-22
3.30989e-05 1.06517e-05 -1.17328e-22
8.61487e-06 -7.45753e-06 9.5897e-21
-8.27037e-06 -4.51568e-05 -9.29593e-21
2.55503e-05 -1.88186e-05 -1.24085e-21
4.97757e-06 2.77693e-05 -6.82151e-21
-2.81614e-06 -2.84141e-06 1.97785e-21
-8.62566e-06 -8.32527e-06 7.98829e-22
-4.77634e-06 4.41244e-08 2.4818e-20
-2.2871e-05 2.85921e-05 4.25097e-21
1.87618e-05 -3.73724e-05 5.21564e-21
-2.65781e-05 4.27114e-05 -2.41592e-21
-1.63706e-05 9.53458e-06 -8.34429e-21
2.52778e-06 1.2198e-05 7.04556e-21
-2.29852e-05 -3.49869e-05 5.85017e-21
1.39351e-05 3.34637e-05 2.41047e-21
1.75065e-05 9.36854e-06 1.04468e-20
2.28098e-05 -8.52205e-06 6.79422e-21
-1.25311e-06 -1.12646e-05 1.22166e-20
-3.39092e-05 -3.15556e-05 -1.33216e-20
-2.75129e-06 1.13025e-05 2.71422e-21
1.72454e-05 1.0171e-05 2.4687e-20
1.8886e-05 -8.8202e-06 1.06286e-20
8.24256e-06 -1.43438e-05 9.83889e-21
2.43551e-05 -1.07945e-05 -5.84136e-21
1.90081e-05 -8.9972e-06 4.56081e-21
4.64028e-06 2.05784e-07 1.60689e-20
2.57387e-05 2.02196e-05 7.32385e-21
-2.74142e-06 -1.70286e-05 -4.0824e-21
-1.0479e-05 -4.45666e-06 5.08135e-21
1.12576e-06 -3.88978e-06 3.55933e-20
-3.15483e-06 1.58458e-05 -3.1523e-21
-3.48807e-05 2.76789e-06 -9.12555e-21
-1.21206e-05 -3.32557e-05 -2.00686e-20
-7.87848e-06 9.77826e-06 2.74994e-20
1.35642e-05 1.66391e-05 1.81593e-20
2.65665e-05 -1.87433e-05 -4.95128e-21
-3.67894e-05 -2.03491e-05 7.00462e-21
1.74016e-05 -2.75055e-05 -1.9204e-20
2.28022e-05 -2.72144e-05 1.55644e-21
-1.09435e-05 3.78464e-06 8.4395e-21
-1.98274e-05 -2.88379e-05 -2.0084e-20
-3.4877e-05 -5.79096e-06 -6.92427e-22
-3.85217e-06 -3.17402e-05 6.06087e-21
1.54464e-05 -3.16967e-05 -2.57562e-20
-9.10545e-06 -2.61975e-05 -1.80691e-22
4.58083e-06 3.1403e-05 -5.19108e-21
-1.57512e-05 -2.85198e-05 2.80246e-21
2.93858e-06 -1.6291e-05 2.42832e-20
-2.47374e-05 1.82584e-05 7.49241e-21
-1.50296e-05 -1.21102e-05 9.43903e-21
-2.73507e-05 -5.17204e-06 -1.5237e-21
1.56669e-05 -9.18089e-06 -1.20599e-21
-4.3066e-06 2.39507e-05 5.15464e-23
1.22317e-05 -9.32379e-06 -3.59861e-22
-2.95836e-05 -1.31632e-05 -6.67568e-22
-8.831e-06 -7.45752e-06 2.69829e-20
9.08141e-06 7.54028e-06 5.06196e-21
2.14252e-05 2.86986e-05 3.38908e-21
-1.75075e-05 -1.08085e-05 6.60808e-21
-3.25037e-05 -7.51015e-07 4.30373e-21
-1.63355e-05 -5.01578e-06 2.193e-20
-4.57779e-06 -1.6582e-05 -1.09282e-20
1.76834e-05 2.12376e-05 -6.43556e-21
-1.09565e-05 5.87432e-06 2.67512e-21
6.35991e-07 -2.05538e-05 -5.4791e-21
-4.19365e-05 1.085e-05 -6.48226e-21
2.48587e-05 2.02448e-05 8.30792e-21
3.79419e-06 3.27829e-05 1.30655e-20
-2.43179e-06 3.79692e-06 2.38621e-21
-9.05024e-06 2.51183e-07 1.80362e-20
4.35476e-06 7.75953e-06 -3.85563e-21
-1.16931e-05 3.40122e-06 2.54203e-20
-2.07323e-06 -3.78466e-06 1.34423e-20
1.65966e-06 2.07584e-05 9.18952e-21
4.47207e-06 4.49668e-07 4.28707e-21
-1.95367e-05 4.75629e-06 -9.48906e-22
-1.72972e-05 1.93566e-05 2.12973e-21
-3.10722e-06 1.15774e-05 2.06759e-21
-2.92149e-05 1.8393e-05 1.59646e-20
-9.34271e-06 8.9787e-06 8.46436e-21
1.731e-05 -1.1613e-05 -1.58131e-20
3.66016e-05 -3.56444e-06 8.47224e-21
-2.11392e-05 1.12965e-05 -7.70704e-21
2.23285e-06 4.49793e-06 3.82988e-21
2.17738e-05 -4.34459e-06 -1.74638e-20
-1.72777e-05 1.03521e-05 -1.18443e-20
-9.87109e-06 5.53864e-06 -8.76439e-22
1.18306e-05 3.74243e-06 1.29996e-21
2.18783e-05 -1.34702e-05 -2.7782e-21
-1.73788e-05 9.95541e-06 9.03432e-22
-2.50351e-05 -5.30266e-06 3.65014e-22
-1.67606e-05 -4.36217e-06 1.37055e-20
9.87553e-06 6.2361e-09 9.89286e-21
1.01732e-05 1.95348e-07 -1.0933e-20
4.39046e-06 8.31659e-06 -7.0122e-21
4.82922e-06 -8.79715e-06 1.82596e-20
-5.01e-06 8.41925e-06 1.37364e-20
-5.26631e-06 -8.657e-06 4.56476e-21
9.91031e-06 -7.4075e-06 4.02541e-21
-2.03261e-05 3.23469e-06 1.45837e-20
-2.00585e-05 -3.2835e-06 -2.02954e-20
-1.28339e-05 1.58754e-05 -1.20568e-21
-1.29137e-05 -1.59297e-05 -2.11824e-20
7.48574e-06 -1.98423e-05 -2.4208e-20
7.20551e-06 1.97625e-05 -9.42113e-21
1.55767e-06 2.58832e-05 -9.4193e-22
1.12397e-05 -3.13662e-06 -1.93662e-21
2.35973e-06 -3.86626e-06 1.62587e-20
-2.14098e-05 1.42158e-06 1.99573e-21
7.67664e-06 -1.95116e-05 -5.34664e-21
7.27292e-06 1.96602e-05 1.56066e-20
4.76846e-06 -5.27106e-08 -3.68952e-21
8.96752e-06 2.44014e-05 8.87332e-21
-2.24213e-06 -4.01603e-06 1.43679e-20
2.31758e-06 -1.13162e-05 1.54671e-20
-2.24287e-05 -1.21506e-05 6.5696e-22
-2.13564e-05 -1.14937e-05 9.15405e-21
-2.18909e-05 1.36275e-05 -4.00692e-21
3.251e-06 -1.22866e-05 -1.56648e-20
-1.56521e-06 3.38169e-06 3.74438e-21
-5.87319e-07 -2.55668e-05 -3.63099e-21
-7.71958e-06 -2.44207e-05 1.68599e-20
3.2701e-05 3.03598e-05 6.53744e-21
3.545e-05 -1.81503e-06 1.76511e-20
-1.271e-05 -3.63185e-06 -5.51336e-21
-2.28904e-05 -4.1382e-05 -1.77839e-20
8.30346e-06 1.37466e-05 5.24839e-21
-2.52333e-05 3.033e-06 9.84466e-21
2.00632e-05 5.78586e-06 4.87641e-21
-4.53269e-06 -3.27398e-08 1.57843e-20
-4.66476e-06 -8.41195e-06 -2.22766e-21
-7.07223e-06 -3.9329e-05 9.58728e-21
-9.70742e-06 -8.39051e-08 2.39609e-20
-4.86693e-05 -1.81553e-06 -2.41422e-20
1.7307e-05 -1.91034e-05 -1.1784e-20
2.42911e-06 3.99869e-06 4.82185e-21
-1.20633e-07 -1.75119e-05 -1.49827e-20
-9.81747e-06 2.40814e-05 7.33264e-21
-4.37162e-06 8.62655e-06 9.44376e-22
2.05541e-05 -1.36046e-05 1.5278e-20
-3.7655e-05 -1.355e-05 4.05664e-21
-1.52642e-05 -2.03636e-05 -3.07469e-21
4.97655e-06 8.38818e-06 1.17564e-20
1.66293e-05 5.16002e-06 -2.73877e-21
-4.76336e-06 -7.33748e-06 -4.78453e-21
1.97943e-05 3.54679e-06 6.24791e-21
1.81864e-05 -9.82465e-06 -6.54259e-21
-3.48785e-07 2.71695e-05 1.44958e-20
8.31934e-06 -1.36651e-05 -2.62177e-21
4.87977e-05 2.20031e-06 3.00186e-23
-4.23512e-05 1.14518e-05 -2.37978e-20
2.28568e-05 1.15546e-05 3.62707e-21
-6.45203e-06 -1.71768e-05 2.35504e-20
-1.53477e-05 -8.61688e-06 7.69159e-21
2.87832e-05 -2.10515e-07 5.62007e-21
-6.91882e-07 -2.42513e-05 3.61524e-21
-1.26155e-05 -1.08724e-05 -8.6226e-21
1.02223e-05 -2.34961e-05 -1.86449e-20
-4.96535e-07 2.05522e-05 1.64967e-20
7.91646e-06 2.60637e-05 1.25956e-20
1.72652e-05 -9.88273e-06 -1.42545e-20
-1.89449e-05 1.92955e-05 -1.37537e-20
1.65251e-05 2.00262e-05 -3.50487e-21
-6.22206e-05 1.60194e-05 -1.59271e-20
-1.01075e-05 2.6012e-05 -1.85204e-21
1.2517e-05 -1.52458e-05 1.42363e-20
-7.02796e-06 -1.83948e-05 3.8343e-20
-1.18517e-05 4.50494e-06 4.20216e-21
-2.58891e-05 -7.04465e-06 -8.13693e-21
-6.38509e-06 3.88516e-05 3.60128e-21
-1.26038e-05 1.19005e-05 6.65811e-21
2.07733e-05 -4.47488e-06 -2.3414e-20
-6.87136e-06 -2.579e-05 5.23051e-21
-1.48664e-05 2.3887e-05 2.22371e-21
-2.17854e-05 1.25627e-05 -5.32691e-21
-2.05661e-05 -1.50529e-05 7.28929e-21
1.80257e-05 -2.06517e-05 -1.29403e-20
-2.75261e-05 -1.45601e-06 1.08969e-20
1.23651e-05 -4.08036e-05 -3.297e-20
1.93831e-05 -1.89101e-05 1.9357e-21
2.47285e-05 4.30749e-05 2.81397e-21
1.9708e-06 1.98633e-05 2.05482e-20
2.9606e-06 -2.54171e-05 -6.37525e-21
-4.16296e-05 4.69542e-05 -8.30276e-21
-1.27001e-05 -2.44076e-05 5.87957e-21
1.63642e-05 -6.4195e-06 -2.31982e-21
-2.41052e-06 2.5768e-05 5.3075e-21
1.28809e-05 -1.18245e-05 -4.86853e-21
1.38783e-05 2.4309e-05 7.43974e-22
1.72271e-05 -1.40027e-06 2.47958e-21
2.21164e-05 -6.32063e-05 -2.3451e-20
-5.87517e-06 -1.28571e-05 7.02978e-21
-2.31805e-05 1.00854e-05 -1.57615e-20
-2.00167e-05 1.87159e-05 -3.96326e-21
2.16088e-05 1.45653e-05 6.706e-21
1.86696e-05 -1.07549e-05 -3.09956e-21
1.49495e-05 1.25914e-05 -1.0829e-20
-5.42725e-06 4.55039e-08 2.3668e-21
1.54011e-05 -2.30835e-05 -1.65165e-21
-1.69875e-05 -2.04058e-05 -2.66573e-21
2.25582e-05 9.77213e-06 1.41075e-20
1.28045e-05 -1.19878e-05 -1.46689e-20
9.55237e-06 -2.48477e-05 -1.55979e-21
1.66565e-05 -6.93177e-06 1.53697e-22
-1.58029e-05 -7.5434e-06 -1.47471e-20
1.29663e-06 -2.62987e-05 -1.43369e-20
-2.61025e-05 4.47234e-06 -4.56474e-21
2.39e-06 2.45388e-05 -1.084e-20
2.05816e-05 6.62639e-06 6.61991e-21
-2.17169e-05 -1.07001e-05 1.36812e-20
-8.97576e-06 2.56059e-05 -1.14047e-20
-1.49515e-06 -2.41841e-05 -8.59468e-22
1.94633e-05 1.18355e-05 -1.14383e-21
-1.76868e-06 1.80819e-05 -1.72361e-20
-2.01355e-05 1.37004e-05 8.41524e-21
2.35071e-05 1.14134e-05 -7.09291e-23
-1.71125e-05 -9.98404e-06 4.01299e-21
9.50846e-08 -1.98316e-05 1.65449e-20
1.83795e-05 1.99811e-05 5.10409e-21
-2.21504e-05 -1.43014e-05 4.60325e-21
4.83436e-05 -3.39771e-05 2.22695e-20
1.78943e-05 -1.08208e-05 -1.75026e-20
9.0005e-06 4.30807e-05 -6.10452e-21
1.70316e-05 -1.36766e-05 5.19017e-21
-1.98721e-05 8.70228e-05 -1.64355e-20
-1.97623e-05 -8.65371e-05 7.99752e-22
5.71761e-05 7.17074e-05 8.63716e-22
5.69136e-05 -7.13812e-05 1.68614e-20
9.06343e-05 -1.61516e-10 2.90116e-20
-7.81901e-05 3.76325e-05 -2.58572e-20
-7.74444e-05 -3.72769e-05 -2.99617e-21
1.22322e-05 1.1817e-05 -1.12116e-20
2.93639e-05 2.18894e-05 4.8276e-21
1.14466e-05 3.33237e-06 -4.64508e-21
1.88532e-05 9.7502e-06 -1.52128e-20
4.98855e-06 2.01674e-05 2.02459e-20
-1.88293e-05 -1.49783e-05 6.08845e-21
1.70357e-05 -1.02129e-05 -2.34073e-21
1.985e-05 1.45474e-05 2.79003e-21
-3.16653e-06 2.43608e-05 -1.44186e-21
2.94367e-05 -1.99902e-05 -1.42969e-20
3.79339e-06 -2.37367e-05 -3.51489e-21
2.1958e-05 5.22637e-06 8.37827e-21
2.98919e-05 1.10245e-05 1.03309e-20
1.42069e-05 1.4142e-05 -3.0744e-21
1.58811e-05 6.59284e-06 -1.03106e-20
-1.84964e-05 1.09352e-05 1.49242e-20
-2.25602e-05 9.03547e-06 -4.94153e-22
2.29266e-05 -1.12621e-05 -3.94329e-20
-1.82655e-05 -9.99673e-06 1.24704e-20
-1.85521e-05 -1.05811e-05 -1.45328e-20
-3.43817e-07 -2.07651e-05 -1.62978e-20
-8.6146e-08 -2.11581e-05 -7.12921e-21
-2.01245e-05 -1.00535e-06 5.75072e-21
2.66957e-05 -4.01866e-06 2.47182e-20
1.81098e-05 1.13408e-05 1.12371e-20
-1.7862e-05 1.09437e-05 1.2692e-20
-1.53595e-05 1.66216e-05 1.23715e-20
1.60201e-05 -1.37515e-05 -5.54822e-21
-1.10221e-05 1.74612e-05 -7.45724e-21
-1.42232e-05 -1.48878e-05 5.15683e-21
-1.15511e-06 2.1208e-05 -1.019e-20
-1.28753e-06 2.09657e-05 -5.83016e-21
8.97058e-08 -1.98316e-05 -1.42305e-21
6.11008e-06 -1.9735e-05 -6.50864e-21
-1.71389e-05 -9.93429e-06 -1.19647e-20
1.55849e-05 -5.48963e-06 -9.67913e-21
6.63076e-07 2.14752e-05 -7.38631e-21
3.00801e-07 1.85053e-05 -1.36648e-20
-2.34548e-06 1.68553e-05 -1.37931e-20
2.19062e-05 -5.52677e-06 -1.04101e-20
-1.65394e-05 5.37744e-06 -4.49684e-21
4.15697e-06 2.1515e-05 6.65233e-21
-3.25546e-05 1.29178e-05 -2.11609e-20
9.76218e-06 4.17267e-05 1.00523e-20
-1.70515e-05 4.56761e-06 -1.38383e-20
1.96822e-05 -1.16288e-05 -2.26315e-20
9.45657e-07 2.10171e-05 1.41747e-20
-2.04789e-05 6.69866e-06 -8.48739e-21
2.44382e-06 -1.62606e-05 -2.57074e-22
1.81887e-06 -5.80061e-05 -1.91242e-20
2.00623e-06 1.74843e-05 1.23185e-20
-1.69602e-05 1.4021e-05 4.00662e-21
1.78521e-05 6.39647e-05 -3.96176e-21
4.57642e-05 3.77027e-05 2.0209e-20
5.20592e-05 -3.52518e-05 -3.65283e-20
1.48138e-05 -1.0166e-05 -1.11377e-20
-1.57838e-05 1.40361e-05 -1.23503e-20
-2.02147e-05 -7.91985e-06 -1.18001e-20
-1.96435e-05 -6.82168e-06 -3.28818e-20
5.92607e-05 -2.46093e-05 -3.57052e-20
5.74276e-05 2.38684e-05 3.13715e-20
1.08934e-05 3.81708e-06 -1.99409e-20
7.66547e-07 1.95773e-05 4.90732e-21
7.83446e-08 1.95586e-05 1.01754e-20
-4.83778e-05 -3.69147e-05 -1.69893e-20
1.1424e-05 -1.71702e-05 3.93537e-21
1.17321e-05 1.24634e-05 9.9439e-22
-2.14159e-05 -3.39539e-06 -9.96471e-21
-1.40436e-05 1.72003e-05 8.49436e-21
-1.88866e-05 9.16681e-06 -6.67234e-21
4.76385e-05 3.36909e-05 1.13917e-20
1.58049e-05 7.06095e-06 4.73123e-23
-5.56621e-06 2.00283e-05 -1.40926e-20
-1.69764e-05 -1.1748e-05 1.69111e-20
1.85605e-06 -2.05408e-05 5.19836e-21
-8.94885e-06 -1.92654e-05 2.63158e-22
-1.72475e-05 -1.17724e-05 2.0667e-20
1.05785e-05 -1.89339e-05 8.38522e-21
1.41211e-05 -1.69877e-05 -2.66852e-20
-2.44018e-06 -6.14313e-05 -2.38821e-20
2.61776e-05 -4.11217e-05 -2.08665e-20
1.74731e-06 -2.07836e-05 7.49664e-21
1.79569e-05 1.13543e-05 1.24016e-20
-1.4475e-05 -1.49039e-05 6.7921e-21
-9.84014e-06 1.97082e-05 -3.16898e-21
-5.03895e-06 2.10047e-05 -1.235e-20
1.66257e-05 1.42424e-05 1.25534e-20
6.05842e-06 -1.98595e-05 7.91138e-21
-1.34053e-05 -4.03541e-05 -1.13271e-20
-1.9882e-06 2.50381e-05 9.25985e-21
1.47905e-05 1.44538e-05 3.65026e-22
-1.29571e-05 -1.02158e-05 1.42214e-20
-1.35138e-05 1.06072e-05 -3.24233e-21
4.43387e-05 -1.89115e-05 5.125e-21
7.56234e-06 -1.33989e-05 2.36983e-21
-8.3164e-06 -1.26258e-05 1.39056e-20
2.13285e-05 6.36288e-06 1.06038e-20
1.09933e-05 -5.06573e-05 7.32082e-21
-3.84479e-05 -3.48998e-05 4.62174e-21
2.33046e-05 6.20683e-06 1.49497e-20
-9.32739e-06 -1.82794e-05 -1.161e-20
1.87039e-05 9.48193e-06 1.56903e-20
-2.85619e-05 -3.25482e-05 -4.80667e-21
9.6873e-06 5.00423e-05 1.86749e-21
3.4331e-05 -5.98543e-05 5.62825e-21
-3.4734e-05 -5.97711e-05 2.68216e-20
2.78058e-05 -5.20175e-05 -4.50229e-21
-1.2697e-05 4.36292e-05 -1.76714e-20
-6.27551e-06 3.89739e-05 -9.39023e-21
-1.8729e-05 8.94507e-06 8.23152e-21
5.97666e-06 2.424e-05 1.77224e-20
-2.39136e-06 1.26529e-05 1.40204e-20
1.01193e-05 3.23285e-06 7.1089e-21
-3.18819e-06 1.6204e-05 1.68893e-21
-2.47437e-07 2.09898e-05 1.55672e-20
1.66591e-05 9.7497e-06 1.34875e-20
1.71e-06 5.77189e-05 -1.38719e-20
-1.47159e-05 1.07317e-05 4.39345e-21
1.5948e-05 -6.24604e-06 -5.72132e-21
1.68703e-05 -4.50856e-06 5.09915e-22
-6.0657e-05 -8.76803e-06 -8.53468e-21
-3.46025e-05 1.67399e-05 -2.38063e-20
-4.35106e-05 -5.25413e-05 -8.5177e-21
8.65573e-06 8.34492e-06 1.66555e-20
1.42086e-05 7.29188e-06 2.8208e-23
2.68023e-05 -4.19548e-06 1.5717e-20
-8.10364e-06 -1.32416e-05 2.51699e-20
1.7215e-05 8.42784e-06 -1.75141e-20
7.33465e-06 -3.00318e-05 1.65707e-20
-1.37124e-05 1.0204e-05 -8.2916e-22
-2.23723e-05 -2.14203e-05 2.22538e-20
-5.83544e-06 1.62962e-05 3.08681e-21
-3.2707e-06 2.06766e-05 6.14812e-22
3.38466e-05 2.12945e-05 9.94288e-21
3.61099e-05 -1.92811e-05 -2.2316e-20
-4.20664e-05 -1.16219e-05 -2.00431e-20
7.63347e-06 7.68503e-06 5.69465e-21
-4.05825e-06 0.000101352 -1.8698e-20
8.61591e-07 -0.000104458 -7.91531e-21
5.24493e-05 8.76367e-05 1.58937e-20
-1.91012e-05 8.4571e-06 -7.9326e-21
-2.63741e-05 5.65441e-05 -2.93312e-20
5.30275e-05 -8.46316e-05 2.25951e-20
-1.17194e-05 -1.82806e-05 -9.92044e-21
7.79926e-05 6.74913e-05 1.56979e-20
2.39913e-05 -1.79751e-05 -1.93387e-21
-3.6071e-06 -2.98193e-05 3.22482e-20
8.1771e-05 -6.58441e-05 2.65169e-20
-6.74399e-06 1.45169e-05 -1.31431e-20
-5.38268e-05 -3.48204e-05 -9.93591e-21
-4.30092e-05 -9.31207e-05 -1.37185e-20
-2.41103e-05 -5.77986e-05 -2.9939e-20
-4.39707e-05 9.41276e-05 -2.2634e-20
-1.00924e-05 6.40776e-05 -1.95923e-20
1.56312e-05 3.71047e-05 3.01921e-21
-2.79527e-05 3.72368e-05 1.08994e-20
-2.52706e-05 -5.51779e-05 -1.78718e-20
0.000100356 1.73153e-05 -2.21946e-21
-1.69258e-05 1.0766e-05 -6.40284e-21
-5.91178e-06 1.63314e-05 7.54879e-21
-5.0753e-05 3.76359e-05 -1.92146e-20
-1.72746e-05 9.94316e-06 -1.15909e-20
9.91931e-05 -1.52619e-05 7.32991e-21
-1.53587e-05 7.79794e-06 -4.21823e-21
7.19191e-06 -1.44935e-05 -1.7429e-21
-7.79618e-05 -6.09421e-05 -2.02029e-21
-2.58764e-05 5.77115e-05 -3.12593e-21
-7.91147e-05 6.03694e-05 -1.77127e-20
2.45378e-05 5.19452e-05 1.72852e-20
-1.47661e-05 1.05814e-05 6.77845e-21
-2.05279e-05 2.44742e-05 -2.55931e-20
-2.85299e-05 4.9813e-05 -1.43773e-20
-5.67705e-05 2.07967e-07 -4.2453e-20
-9.44022e-07 1.62945e-05 3.77652e-21
-2.88468e-05 -5.04015e-05 -4.20641e-21
-5.81927e-05 -2.19778e-07 8.84573e-21
-2.83467e-05 4.86915e-05 3.04105e-21
-1.51888e-05 6.62596e-05 -8.54955e-21
-1.78631e-05 4.12564e-05 -1.76899e-20
-3.38969e-05 2.71347e-05 -3.67708e-21
2.43805e-05 -6.05636e-06 4.05618e-22
3.7999e-05 -2.1951e-06 -1.30855e-20
1.3481e-05 8.19951e-06 -3.45789e-21
-1.04681e-05 -7.39804e-05 -1.75359e-20
-6.94421e-05 -2.79715e-05 1.08321e-20
3.71286e-05 7.32668e-07 1.3409e-21
5.83604e-05 -1.08911e-05 9.97714e-21
-1.05827e-05 -1.34957e-05 6.23125e-21
-5.08238e-05 3.76216e-05 7.23411e-21
-4.61291e-05 5.39947e-05 -3.4686e-20
6.23566e-05 -2.22303e-05 1.11849e-20
-2.81746e-05 -5.04921e-05 -1.93246e-20
-2.87743e-05 4.97746e-05 -1.54617e-20
-5.72488e-05 -1.17104e-06 -2.66309e-20
-2.65708e-05 5.05928e-05 -3.98449e-21
-5.79475e-05 -8.16934e-07 9.91226e-21
6.60697e-05 1.73908e-05 -1.00093e-20
5.63747e-05 1.29237e-06 -2.28101e-21
5.08952e-05 -2.9271e-05 -1.31379e-20
2.49078e-05 -5.94214e-05 -1.07484e-20
2.99156e-05 -4.8852e-05 -1.08345e-20
2.91646e-05 4.8676e-05 1.38386e-20
2.43427e-05 5.80837e-05 1.25738e-20
7.5795e-05 -2.00356e-05 -5.25049e-21
4.62618e-05 2.90604e-05 2.15365e-20
4.66197e-05 1.37441e-05 -2.13712e-22
TENSORS solid_stress_TPM float
375.028 -24.9202 -2.22163e-12
-24.9202 238.568 3.58114e-12
-2.22163e-12 3.58114e-12 197.815

456.998 -21.3202 1.29215e-12
-21.3202 489.982 -2.43746e-12
1.29215e-12 -2.43746e-12 487.105

454.873 28.0429 -1.00305e-12
28.0429 463.703 -5.29946e-14
-1.00305e-12 -5.29946e-14 458.453

455.023 -29.8427 9.05942e-13
-29.8427 482.603 -1.14649e-12
9.05942e-13 -1.14649e-12 484.851

527.682 19.931 -3.48373e-12
19.931 548.453 7.57394e-13
-3.48373e-12 7.57394e-13 527.353

437.306 -18.0742 -2.26841e-12
-18.0742 480.332 -1.78879e-12
-2.26841e-12 -1.78879e-12 458.034

372.323 26.4844 -1.76215e-12
26.4844 239.088 -1.73965e-12
-1.76215e-12 -1.73965e-12 197.799

473.646 29.9576 4.75057e-12
29.9576 469.496 -3.1782e-12
4.75057e-12 -3.1782e-12 472.332

471.542 5.48307 -7.40149e-13
5.48307 417.817 9.20634e-13
-7.40149e-13 9.20634e-13 432.79

504.253 -7.47756 -1.66978e-13
-7.47756 444.106 1.55823e-12
-1.66978e-13 1.55823e-12 483.446

360.288 16.3083 1.8782e-12
16.3083 247.653 -2.28558e-12
1.8782e-12 -2.28558e-12 233.642

444.776 -13.453 -1.21444e-12
-13.453 498.379 -1.88945e-12
-1.21444e-12 -1.88945e-12 472.233

466.861 27.8329 3.94647e-12
27.8329 468.296 -2.52894e-12
3.94647e-12 -2.52894e-12 466.728

457.031 -14.3399 3.18836e-12
-14.3399 500.428 2.33117e-12
3.18836e-12 2.33117e-12 483.452

512.932 33.3116 -7.90183e-13
33.3116 511.592 -2.51587e-12
-7.90183e-13 -2.51587e-12 515.221

489.165 0.560959 -8.86994e-13
0.560959 435.517 -3.02888e-12
-8.86994e-13 -3.02888e-12 462.266

457.578 -17.9692 2.57547e-12
-17.9692 512.88 -4.51017e-12
2.57547e-12 -4.51017e-12 493.591

493.951 -2.6652 2.14317e-12
-2.6652 439.043 -9.92021e-13
2.14317e-12 -9.92021e-13 474.258

418.787 26.6733 -2.7498e-12
26.6733 449.653 1.18424e-14
-2.7498e-12 1.18424e-14 424.047

481.974 -4.19551 1.91314e-12
-4.19551 424.915 2.56713e-12
1.91314e-12 2.56713e-12 453.468

425.29 8.66844 -2.04488e-12
8.66844 481.896 3.95121e-12
-2.04488e-12 3.95121e-12 444.835

634.128 6.28783 -5.28973e-12
6.28783 633.963 -7.77156e-13
-5.28973e-12 -7.77156e-13 570.314

479.145 1.87596 -8.56204e-13
1.87596 422.934 8.86402e-13
-8.56204e-13 8.86402e-13 449.726

447.156 -27.7148 3.86506e-12
-27.7148 461.143 1.42464e-12
3.86506e-12 1.42464e-12 452.941

481.042 6.8493 -2.0588e-12
6.8493 425.434 -2.02919e-12
-2.0588e-12 -2.02919e-12 452.932

449.752 19.1127 1.82787e-12
19.1127 490.311 -3.94943e-12
1.82787e-12 -3.94943e-12 478.2

377.649 4.1813 -1.77162e-12
4.1813 291.65 -1.36661e-12
-1.77162e-12 -1.36661e-12 258.998

462.678 30.7455 4.91459e-12
30.7455 460.708 4.76656e-14
4.91459e-12 4.76656e-14 460.539

384.935 37.0737 -8.5502e-13
37.0737 383.514 4.94538e-12
-8.5502e-13 4.94538e-12 348.413

586.939 10.3235 -3.70134e-12
10.3235 563.448 -1.60257e-12
-3.70134e-12 -1.60257e-12 546.869

491.68 14.2168 -1.16055e-13
14.2168 442.491 2.57231e-12
-1.16055e-13 2.57231e-12 465.85

352.85 -17.78 -1.73491e-12
-17.78 416.717 -2.69651e-12
-1.73491e-12 -2.69651e-12 348.584

331.013 -42.101 -8.47914e-13
-42.101 335.868 -8.05992e-12
-8.47914e-13 -8.05992e-12 253.479

531.406 5.98688 -4.34595e-12
5.98688 586.886 1.09749e-12
-4.34595e-12 1.09749e-12 538.578

554.02 -4.84087 -3.78305e-12
-4.84087 582.068 1.69731e-12
-3.78305e-12 1.69731e-12 542.508

577.984 21.0279 -2.55144e-12
21.0279 539.943 -1.76392e-12
-2.55144e-12 -1.76392e-12 538.346

556.181 5.06769 -9.19117e-13
5.06769 600.672 4.66708e-12
-9.19117e-13 4.66708e-12 547.965

573.771 -9.16987 5.95346e-12
-9.16987 555.761 3.91446e-14
5.95346e-12 3.91446e-14 540.633

467.121 -27.9978 -1.64787e-12
-27.9978 466.485 2.86586e-12
-1.64787e-12 2.86586e-12 465.101

330.397 41.5203 -6.24804e-12
41.5203 337.966 -5.23433e-12
-6.24804e-12 -5.23433e-12 253.837

414.519 -17.9487 2.60295e-12
-17.9487 354.482 2.71072e-12
2.60295e-12 2.71072e-12 346.315

559.303 -3.70622 5.50819e-13
-3.70622 599.921 -3.55893e-12
5.50819e-13 -3.55893e-12 548.38

586.41 19.5558 -8.10182e-12
19.5558 572.452 8.57092e-13
-8.10182e-12 8.57092e-13 548.168

490.885 -12.2732 4.45155e-12
-12.2732 442.846 -8.34296e-13
4.45155e-12 -8.34296e-13 466.522

341.703 -43.2982 -1.8782e-12
-43.2982 345.33 -4.46458e-12
-1.8782e-12 -4.46458e-12 288.971

417.544 -18.063 1.91728e-12
-18.063 357.099 -8.37848e-13
1.91728e-12 -8.37848e-13 351.488

412.999 17.0854 8.4525e-14
17.0854 464.767 -2.29446e-12
8.4525e-14 -2.29446e-12 428.712

429.614 19.3386 -4.12381e-12
19.3386 466.497 1.86814e-12
-4.12381e-12 1.86814e-12 437.066

486.765 -16.3008 3.56278e-12
-16.3008 432.86 -3.53791e-12
3.56278e-12 -3.53791e-12 458.663

355.568 -34.1847 2.4194e-12
-34.1847 389.387 6.75016e-14
2.4194e-12 6.75016e-14 332.556

410.237 19.1814 2.30926e-12
19.1814 350.689 -5.83711e-12
2.30926e-12 -5.83711e-12 339.464

425.185 -25.2878 2.8327e-12
-25.2878 383.807 4.22566e-12
2.8327e-12 4.22566e-12 373.063

519.91 19.4859 -8.42881e-13
19.4859 547.52 3.26524e-12
-8.42881e-13 3.26524e-12 525.719

416.398 29.6487 5.30775e-12
29.6487 393.872 4.06075e-12
5.30775e-12 4.06075e-12 373.927

522.164 -21.8128 -2.46914e-12
-21.8128 541.386 -1.1677e-12
-2.46914e-12 -1.1677e-12 524.366

364.058 -42.7104 1.42488e-11
-42.7104 343.27 -3.03165e-12
1.42488e-11 -3.03165e-12 289.689

553.442 5.45989 -4.36747e-12
5.45989 583.861 -3.1557e-12
-4.36747e-12 -3.1557e-12 542.882

373.703 -5.32966 2.4869e-14
-5.32966 436.647 1.57267e-12
2.4869e-14 1.57267e-12 373.811

580.809 10.3842 -7.05569e-12
10.3842 556.161 1.96453e-12
-7.05569e-12 1.96453e-12 542.639

435.042 21.4127 -4.36895e-12
21.4127 473.746 -7.00477e-13
-4.36895e-12 -7.00477e-13 454.658

513.56 5.7538 1.35506e-12
5.7538 452.793 -2.63848e-12
1.35506e-12 -2.63848e-12 494.853

522.446 11.4589 3.89762e-13
11.4589 487.85 5.74681e-12
3.89762e-13 5.74681e-12 507.067

383.694 31.8193 -1.95636e-12
31.8193 315.184 -1.84741e-12
-1.95636e-12 -1.84741e-12 269.862

482.076 -6.03505 1.73165e-12
-6.03505 528.169 -2.17544e-12
1.73165e-12 -2.17544e-12 504.089

487.085 9.51963 3.2571e-12
9.51963 523.678 -2.68319e-12
3.2571e-12 -2.68319e-12 507.485

456.447 -2.88072 3.24133e-12
-2.88072 520.145 -2.04992e-12
3.24133e-12 -2.04992e-12 487.796

464.443 23.4021 -2.69855e-12
23.4021 503.458 8.92619e-13
-2.69855e-12 8.92619e-13 495.429

496.735 8.46342 5.80277e-13
8.46342 444.386 1.73802e-12
5.80277e-13 1.73802e-12 477.687

445.495 -28.2389 1.57296e-12
-28.2389 459.516 -3.20928e-12
1.57296e-12 -3.20928e-12 451.155

501.669 -1.7112 1.33227e-14
-1.7112 444.904 3.23475e-12
1.33227e-14 3.23475e-12 489.057

519.523 -19.2619 4.67922e-13
-19.2619 546.813 2.18729e-12
4.67922e-13 2.18729e-12 525.452

523.293 21.3078 2.49371e-12
21.3078 542.91 2.07045e-12
2.49371e-12 2.07045e-12 525.255

353.4 -16.583 1.68843e-12
-16.583 415.724 -1.35951e-12
1.68843e-12 -1.35951e-12 346.103

506.01 -27.9359 -2.224e-12
-27.9359 485.299 -6.71759e-13
-2.224e-12 -6.71759e-13 493.869

449.709 -25.1343 7.16464e-13
-25.1343 471.208 3.13823e-14
7.16464e-13 3.13823e-14 458.566

357.861 -31.71 6.35936e-12
-31.71 285.669 2.43361e-13
6.35936e-12 2.43361e-13 249.852

498.49 3.22257 -1.80322e-12
3.22257 541.395 -3.16724e-12
-1.80322e-12 -3.16724e-12 513.632

501.715 28.9437 8.86402e-13
28.9437 474.539 5.89958e-12
8.86402e-13 5.89958e-12 487.647

448.434 19.664 -3.01048e-12
19.664 492.096 -1.21799e-12
-3.01048e-12 -1.21799e-12 477.632

440.181 7.99935 1.72899e-12
7.99935 373.028 3.93759e-12
1.72899e-12 3.93759e-12 382.925

386.441 -33.9348 -1.62359e-12
-33.9348 360.197 -5.67487e-12
-1.62359e-12 -5.67487e-12 319.427

537.712 -10.5876 -5.18637e-12
-10.5876 556.13 -1.54217e-12
-5.18637e-12 -1.54217e-12 531.24

482.646 23.8994 -3.03461e-13
23.8994 504.549 -2.60676e-12
-3.03461e-13 -2.60676e-12 502.032

385.362 -32.383 -8.85573e-12
-32.383 345.298 2.95231e-12
-8.85573e-12 2.95231e-12 317.073

422.187 10.7908 -9.73444e-13
10.7908 363.842 2.54285e-12
-9.73444e-13 2.54285e-12 350.244

307.644 -21.2055 3.36472e-12
-21.2055 388.433 9.15653e-12
3.36472e-12 9.15653e-12 288.108

434.434 14.4255 -2.85646e-12
14.4255 488.658 4.20464e-12
-2.85646e-12 4.20464e-12 460.874

509.711 23.1427 -5.3942e-13
23.1427 475.162 2.15916e-12
-5.3942e-13 2.15916e-12 489.937

338.233 42.1977 -1.29792e-12
42.1977 349.563 1.66741e-12
-1.29792e-12 1.66741e-12 288.944

634.213 16.5072 1.16947e-11
16.5072 603.065 -1.48489e-12
1.16947e-11 -1.48489e-12 565.319

372.88 -4.10825 -8.26598e-13
-4.10825 436.807 2.19202e-12
-8.26598e-13 2.19202e-12 373.418

637.119 -16.6324 8.07887e-12
-16.6324 599.535 -5.76398e-12
8.07887e-12 -5.76398e-12 564.826

533.93 -27.335 -1.23694e-12
-27.335 507.23 6.25278e-13
-1.23694e-12 6.25278e-13 515.705

505.287 27.4244 2.68644e-12
27.4244 466.325 7.49919e-13
2.68644e-12 7.49919e-13 485.063

426.916 -24.41 3.58824e-12
-24.41 386.23 9.28739e-13
3.58824e-12 9.28739e-13 375.969

358.928 31.3225 1.82313e-12
31.3225 395.995 4.50603e-12
1.82313e-12 4.50603e-12 339.193

339.817 -10.7049 -4.39944e-12
-10.7049 408.382 -1.10134e-12
-4.39944e-12 -1.10134e-12 319.098

453.094 21.9706 6.23664e-12
21.9706 494.669 2.27847e-12
6.23664e-12 2.27847e-12 483.159

533.105 16.7939 3.37922e-12
16.7939 506.19 -4.53948e-12
3.37922e-12 -4.53948e-12 513.344

443.443 15.1536 -9.23409e-13
15.1536 488.43 -1.80715e-12
-9.23409e-13 -1.80715e-12 464.273

451.471 15.9535 7.78044e-13
15.9535 400.528 -4.23365e-14
7.78044e-13 -4.23365e-14 403.738

374.48 -21.472 7.62649e-13
-21.472 419.858 4.57116e-13
7.62649e-13 4.57116e-13 357.189

389.714 -29.3899 1.18424e-14
-29.3899 342.362 2.45789e-12
1.18424e-14 2.45789e-12 314.384

454.956 -24.5728 -8.13719e-13
-24.5728 480.056 -1.803e-12
-8.13719e-13 -1.803e-12 478.361

466.417 27.4507 5.20798e-12
27.4507 478.734 -2.269e-12
5.20798e-12 -2.269e-12 479.801

452.208 23.1875 5.97448e-13
23.1875 492.55 -4.89179e-12
5.97448e-13 -4.89179e-12 482.034

466.288 13.1692 -8.99938e-13
13.1692 529.768 -4.162e-12
-8.99938e-13 -4.162e-12 501.375

490.852 9.37218 -3.17672e-12
9.37218 437.881 1.26151e-12
-3.17672e-12 1.26151e-12 462.047

327.705 -4.66496 -1.85244e-12
-4.66496 403.373 2.68585e-12
-1.85244e-12 2.68585e-12 314.405

462.57 -36.8334 5.0792e-12
-36.8334 487.681 2.66831e-12
5.0792e-12 2.66831e-12 492.74

445.841 27.4648 -7.64426e-13
27.4648 463.261 1.42701e-13
-7.64426e-13 1.42701e-13 455.006

305.666 2.17029 4.0042e-14
2.17029 393.352 -1.91136e-12
4.0042e-14 -1.91136e-12 297.25

385.989 34.6095 -4.84353e-12
34.6095 332.441 -4.5078e-12
-4.84353e-12 -4.5078e-12 306.239

453.342 -22.9736 -6.87302e-13
-22.9736 480.061 -5.38828e-14
-6.87302e-13 -5.38828e-14 476.164

501.385 5.73296 3.5687e-12
5.73296 441.307 -3.9746e-14
3.5687e-12 -3.9746e-14 481.001

422.372 27.2034 4.48589e-12
27.2034 389.759 1.76392e-12
4.48589e-12 1.76392e-12 374.227

570.537 12.7456 2.4647e-13
12.7456 565.913 -2.75543e-12
2.4647e-13 -2.75543e-12 542.91

396.17 24.3299 1.89478e-12
24.3299 349.641 -4.3651e-12
1.89478e-12 -4.3651e-12 319.037

569.159 -13.0551 -2.78651e-12
-13.0551 565.824 1.22776e-12
-2.78651e-12 1.22776e-12 542.366

375.084 0.778513 -1.76126e-12
0.778513 438.86 5.42381e-13
-1.76126e-12 5.42381e-13 374.633

461.462 -2.23527 -5.66303e-12
-2.23527 399.296 -2.63375e-12
-5.66303e-12 -2.63375e-12 417.274

538.189 -15.7681 -1.7808e-12
-15.7681 480.624 8.40217e-13
-1.7808e-12 8.40217e-13 513.471

457.236 24.3881 5.3377e-12
24.3881 487.776 -1.5099e-13
5.3377e-12 -1.5099e-13 488.346

461.248 -13.535 1.63312e-13
-13.535 519.128 2.47861e-12
1.63312e-13 2.47861e-12 495.707

514.961 -8.00004 -2.91471e-13
-8.00004 438.183 -4.4853e-14
-2.91471e-13 -4.4853e-14 494.269

488.308 -22.2842 2.82071e-12
-22.2842 541.596 2.37084e-12
2.82071e-12 2.37084e-12 515.743

556.046 -6.59633 3.9296e-12
-6.59633 560.389 -5.23548e-12
3.9296e-12 -5.23548e-12 538.723

463.858 -29.9081 2.25124e-12
-29.9081 483.188 1.08654e-13
2.25124e-12 1.08654e-13 483.592

341.701 11.4534 4.4175e-12
11.4534 406.186 1.51582e-13
4.4175e-12 1.51582e-13 319.477

422.473 -28.1458 -1.65793e-14
-28.1458 391.235 -4.02049e-12
-1.65793e-14 -4.02049e-12 375.14

507.376 -13.7723 5.51958e-12
-13.7723 558.743 -4.90156e-12
5.51958e-12 -4.90156e-12 525.245

501.048 0.504378 -2.77867e-12
0.504378 441.272 3.13823e-13
-2.77867e-12 3.13823e-13 487.079

476.935 -21.5246 2.34538e-12
-21.5246 507.414 2.39512e-13
2.34538e-12 2.39512e-13 501.497

459.089 25.6976 -2.38372e-12
25.6976 484.593 1.92953e-12
-2.38372e-12 1.92953e-12 487.974

394.422 -31.4636 -4.50721e-12
-31.4636 400.591 1.65556e-12
-4.50721e-12 1.65556e-12 357.514

552.122 -7.08524 -1.83609e-12
-7.08524 585.291 2.03038e-12
-1.83609e-12 2.03038e-12 542.597

347.203 -33.076 2.4869e-12
-33.076 382.6 4.88853e-12
2.4869e-12 4.88853e-12 303.429

490.861 -19.1794 3.54028e-12
-19.1794 448.38 4.1549e-12
3.54028e-12 4.1549e-12 467.116

519.701 1.97017 -2.9173e-12
1.97017 466.807 9.31699e-13
-2.9173e-12 9.31699e-13 502.824

570.554 17.8751 4.40536e-12
17.8751 566.476 -7.18803e-12
4.40536e-12 -7.18803e-12 542.37

375.283 20.1823 3.04586e-12
20.1823 424.023 5.17275e-12
3.04586e-12 5.17275e-12 360.214

489.074 27.2101 -1.27483e-12
27.2101 468.532 1.69731e-12
-1.27483e-12 1.69731e-12 476.631

454.37 -24.5111 -6.51331e-14
-24.5111 415.334 -4.37576e-12
-6.51331e-14 -4.37576e-12 418.594

454.71 -17.8384 -3.00397e-12
-17.8384 494.898 -2.75395e-12
-3.00397e-12 -2.75395e-12 482.633

379.191 35.0673 -6.64713e-12
35.0673 366.023 9.52127e-13
-6.64713e-12 9.52127e-13 317.042

449.144 -21.831 -2.96607e-12
-21.831 491.695 -1.10667e-12
-2.96607e-12 -1.10667e-12 479.765

485.482 30.8501 2.00491e-12
30.8501 465.128 2.97214e-12
2.00491e-12 2.97214e-12 473.438

480.313 -25.2437 -4.20404e-14
-25.2437 442.359 -3.60896e-12
-4.20404e-14 -3.60896e-12 455.434

448.209 -25.1259 1.57178e-12
-25.1259 469.758 2.4419e-12
1.57178e-12 2.4419e-12 458.088

445.336 -18.6876 -3.85114e-12
-18.6876 393.453 1.48267e-12
-3.85114e-12 1.48267e-12 397.249

470.644 -18.8492 -1.15937e-12
-18.8492 422.844 -1.29437e-12
-1.15937e-12 -1.29437e-12 437.523

458.989 -25.3369 2.47417e-12
-25.3369 485.419 -1.50535e-12
2.47417e-12 -1.50535e-12 488.816

386.533 35.9684 -3.48995e-12
35.9684 381.979 9.63733e-12
-3.48995e-12 9.63733e-12 348.108

444.486 15.3764 7.5168e-12
15.3764 491.522 5.09933e-12
7.5168e-12 5.09933e-12 467.13

469.387 26.4219 1.35536e-12
26.4219 479.948 -5.70211e-12
1.35536e-12 -5.70211e-12 482.537

456.132 25.4736 3.79058e-13
25.4736 486.636 -3.93004e-12
3.79058e-13 -3.93004e-12 487.236

457.797 11.6213 8.63404e-13
11.6213 506.93 9.23113e-13
8.63404e-13 9.23113e-13 486.005

431.94 -8.22677 6.35344e-12
-8.22677 370.746 -2.56891e-12
6.35344e-12 -2.56891e-12 363.298

376.77 18.6059 1.85452e-12
18.6059 427.255 1.15582e-12
1.85452e-12 1.15582e-12 363.874

452.302 -24.3802 -4.54955e-12
-24.3802 478.374 1.21947e-12
-4.54955e-12 1.21947e-12 470.701

440.736 25.6653 -5.56e-13
25.6653 455.629 2.17959e-12
-5.56e-13 2.17959e-12 437.795

390.946 -35.6283 -1.81662e-12
-35.6283 380.267 -3.70074e-12
-1.81662e-12 -3.70074e-12 350.082

368.932 38.3155 -5.39183e-12
38.3155 327.244 8.83441e-13
-5.39183e-12 8.83441e-13 295.675

363.637 -33.31 4.84353e-12
-33.31 394.425 1.78109e-12
4.84353e-12 1.78109e-12 341.97

397.92 -31.1586 -5.35394e-12
-31.1586 404.182 2.72612e-12
-5.35394e-12 2.72612e-12 362.964

502.845 -6.83866 -5.79092e-13
-6.83866 442.239 -8.16532e-13
-5.79092e-13 -8.16532e-13 482.307

393.153 30.3408 3.93285e-12
30.3408 408.967 -7.30675e-13
3.93285e-12 -7.30675e-13 363.423

429.689 13.2943 -7.22385e-13
13.2943 372.237 9.70483e-13
-7.22385e-13 9.70483e-13 362.703

350.134 13.3784 4.41602e-12
13.3784 418.502 1.02673e-12
4.41602e-12 1.02673e-12 348.465

379.468 -22.3397 4.42846e-12
-22.3397 423.501 -2.89309e-12
4.42846e-12 -2.89309e-12 363.438

491.197 -1.09145 1.03369e-12
-1.09145 550.868 -1.3145e-13
1.03369e-12 -1.3145e-13 516.296

372.853 2.24653 4.87314e-13
2.24653 437.775 7.10543e-13
4.87314e-13 7.10543e-13 373.509

357.88 31.0883 4.60669e-13
31.0883 399.475 -2.48453e-12
4.60669e-13 -2.48453e-12 341.951

457.979 12.1077 -2.84195e-12
12.1077 510.549 3.13645e-12
-2.84195e-12 3.13645e-12 488.392

421.441 -27.6468 2.57809e-12
-27.6468 389.061 3.63561e-13
2.57809e-12 3.63561e-13 375.061

524.746 20.5569 1.24375e-12
20.5569 469.739 5.38325e-12
1.24375e-12 5.38325e-12 500.724

534.915 26.2704 3.67884e-12
26.2704 506.85 -2.65773e-12
3.67884e-12 -2.65773e-12 516.084

494.805 -18.5673 -1.64017e-12
-18.5673 449.015 -2.37736e-12
-1.64017e-12 -2.37736e-12 470.845

554.575 -1.80099 5.25535e-12
-1.80099 516.013 6.33863e-12
5.25535e-12 6.33863e-12 525.707

473.276 -31.8115 2.34686e-12
-31.8115 475.685 1.73846e-12
2.34686e-12 1.73846e-12 478.566

412.586 23.3271 -1.22569e-12
23.3271 357.186 -4.03115e-12
-1.22569e-12 -4.03115e-12 348.081

464.165 30.162 -2.27907e-12
30.162 482.756 1.56793e-12
-2.27907e-12 1.56793e-12 483.193

464.428 29.2058 3.64064e-12
29.2058 482.229 3.49735e-12
3.64064e-12 3.49735e-12 482.754

393.935 30.6599 -1.74557e-12
30.6599 405.712 1.6532e-12
-1.74557e-12 1.6532e-12 360.858

502.844 27.0848 4.57471e-12
27.0848 482.655 2.80131e-12
4.57471e-12 2.80131e-12 490.724

415.34 3.52505 1.76215e-12
3.52505 339.008 2.94746e-12
1.76215e-12 2.94746e-12 340.815

493.112 31.8172 -1.17121e-12
31.8172 487.212 -6.53285e-12
-1.17121e-12 -6.53285e-12 495.564

476.316 -12.5997 5.16032e-13
-12.5997 522.44 3.06007e-12
5.16032e-13 3.06007e-12 500.238

536.917 24.2783 -3.02129e-12
24.2783 507.393 5.71691e-13
-3.02129e-12 5.71691e-13 516.62

468.166 -29.5786 3.67114e-13
-29.5786 479.958 3.04645e-13
3.67114e-13 3.04645e-13 483.051

464.551 -4.89812 2.62736e-12
-4.89812 521.545 -1.95458e-12
2.62736e-12 -1.95458e-12 490.969

400.928 -24.5556 -1.00518e-11
-24.5556 349.014 -1.70412e-12
-1.00518e-11 -1.70412e-12 323.941

418.956 29.6923 4.06549e-12
29.6923 392.454 6.16396e-12
4.06549e-12 6.16396e-12 373.759

352.335 14.6961 -3.56441e-12
14.6961 417.201 6.84371e-12
-3.56441e-12 6.84371e-12 348.23

500.518 -1.13886 -1.23338e-12
-1.13886 442.784 -9.57382e-13
-1.23338e-12 -9.57382e-13 487.698

492.46 0.00223439 -3.08198e-13
0.00223439 438.092 -1.76944e-12
-3.08198e-13 -1.76944e-12 474.408

452.955 23.1236 2.97688e-12
23.1236 479.696 5.56237e-12
2.97688e-12 5.56237e-12 475.575

481.294 23.8709 1.56586e-12
23.8709 502.864 -4.70568e-13
1.56586e-12 -4.70568e-13 501.244

456.577 -24.3807 -2.37873e-12
-24.3807 487.342 1.09098e-12
-2.37873e-12 1.09098e-12 488.487

457.827 -0.672695 -1.99104e-12
-0.672695 517.932 -3.62318e-12
-1.99104e-12 -3.62318e-12 486.391

458.875 25.5903 -2.60059e-12
25.5903 486.459 -3.87438e-12
-2.60059e-12 -3.87438e-12 488.509

465.551 -10.3077 -1.21562e-12
-10.3077 408.076 -1.77754e-12
-1.21562e-12 -1.77754e-12 427.216

400.857 -32.8327 -2.73796e-12
-32.8327 414.948 -1.02496e-12
-2.73796e-12 -1.02496e-12 385.159

518.09 -2.30059 -8.34296e-13
-2.30059 465.733 -1.42701e-13
-8.34296e-13 -1.42701e-13 500.921

391.866 -34.5074 -8.12387e-12
-34.5074 379.6 8.08242e-13
-8.12387e-12 8.08242e-13 347.412

477.996 19.0861 -1.38556e-13
19.0861 509.196 7.2653e-13
-1.38556e-13 7.2653e-13 501.84

506.108 -26.4786 -3.82805e-12
-26.4786 470.243 -3.15659e-12
-3.82805e-12 -3.15659e-12 487.268

424.994 -9.69002 -9.49759e-13
-9.69002 366.726 -5.34402e-12
-9.49759e-13 -5.34402e-12 355.976

530.262 -23.1918 -8.13216e-12
-23.1918 488.753 1.35506e-12
-8.13216e-12 1.35506e-12 506.485

500.887 2.35825 4.27954e-13
2.35825 444.572 -3.70489e-12
4.27954e-13 -3.70489e-12 489.2

521.188 -23.3213 2.11446e-12
-23.3213 501.838 2.99745e-12
2.11446e-12 2.99745e-12 508.53

502.012 -25.8593 2.7575e-12
-25.8593 461.487 -2.15975e-12
2.7575e-12 -2.15975e-12 481.24

498.822 -8.54599 8.41401e-13
-8.54599 445.131 1.27602e-13
8.41401e-13 1.27602e-13 479.34

482.216 -23.0681 2.30305e-12
-23.0681 504.989 -2.75829e-12
2.30305e-12 -2.75829e-12 502.531

428.535 -31.3412 -6.91595e-13
-31.3412 410.583 2.55973e-12
-6.91595e-13 2.55973e-12 398.993

503.264 -24.587 7.58504e-13
-24.587 464.709 -4.42194e-12
7.58504e-13 -4.42194e-12 482.156

441.235 10.8642 -6.03961e-13
10.8642 378.476 1.76836e-12
-6.03961e-13 1.76836e-12 387.793

500.034 26.3401 -1.74882e-12
26.3401 498.58 -5.00666e-12
-1.74882e-12 -5.00666e-12 500.101

463.745 -37.6131 4.88498e-13
-37.6131 488.385 -3.27375e-12
4.88498e-13 -3.27375e-12 494.078

464.854 37.2654 5.98632e-13
37.2654 487.296 -4.07097e-12
5.98632e-13 -4.07097e-12 493.793

446.322 -28.5735 -1.61463e-12
-28.5735 500.01 8.2719e-13
-1.61463e-12 8.2719e-13 492.308

448.557 27.0642 -1.40717e-12
27.0642 500.701 1.26121e-13
-1.40717e-12 1.26121e-13 492.495

513.066 -8.52769 -2.01172e-12
-8.52769 436.401 -2.05332e-12
-2.01172e-12 -2.05332e-12 492.755

511.228 9.27371 -2.71605e-12
9.27371 437.997 1.52041e-12
-2.71605e-12 1.52041e-12 492.393

501.652 -9.84606 7.74492e-13
-9.84606 451.738 2.14347e-12
7.74492e-13 2.14347e-12 483.016

510.862 32.1164 4.18924e-12
32.1164 510.387 2.20537e-12
4.18924e-12 2.20537e-12 514.052

509.637 -32.8544 3.32475e-13
-32.8544 510.064 -1.42445e-12
3.32475e-13 -1.42445e-12 513.691

481.806 16.0686 -1.82965e-13
16.0686 539.128 2.51147e-12
-1.82965e-13 2.51147e-12 514.323

483 -15.801 1.97501e-12
-15.801 538.718 6.98996e-13
1.97501e-12 6.98996e-13 514.344

556.867 -3.74746 -1.15789e-12
-3.74746 506.829 5.98336e-13
-1.15789e-12 5.98336e-13 524.989

558.422 3.61023 -2.55188e-12
3.61023 505.154 -1.32279e-12
-2.55188e-12 -1.32279e-12 525.361

387.304 9.83669 8.93433e-13
9.83669 449.191 9.23706e-13
8.93433e-13 9.23706e-13 397.081

472.383 -24.7739 5.31131e-13
-24.7739 480.749 1.55772e-12
5.31131e-13 1.55772e-12 484.971

443.455 -36.3877 2.92714e-12
-36.3877 485.526 1.31983e-12
2.92714e-12 1.31983e-12 486.622

473.635 -4.66423 -1.98952e-12
-4.66423 420.431 2.9593e-12
-1.98952e-12 2.9593e-12 436.332

540.251 -16.6949 5.04633e-13
-16.6949 484.188 5.10999e-13
5.04633e-13 5.10999e-13 515.284

540.971 16.1759 -1.33641e-12
16.1759 485.411 1.8255e-12
-1.33641e-12 1.8255e-12 515.89

506.856 0.121884 -2.18788e-13
0.121884 423.545 1.58595e-12
-2.18788e-13 1.58595e-12 486.996

384.786 23.3747 2.54641e-12
23.3747 432.29 -2.33295e-13
2.54641e-12 -2.33295e-13 385.47

442.327 36.1716 1.3937e-13
36.1716 485.205 -2.65269e-12
1.3937e-13 -2.65269e-12 485.828

452.591 -23.3957 -3.33082e-12
-23.3957 494.947 -6.22021e-13
-3.33082e-12 -6.22021e-13 483.585

443.242 23.3523 -4.59721e-12
23.3523 397.513 3.62258e-12
-4.59721e-12 3.62258e-12 400.367

530.965 23.8581 -2.80842e-12
23.8581 488.004 1.62922e-12
-2.80842e-12 1.62922e-12 507.244

428.473 -31.313 2.52953e-12
-31.313 410.868 4.19872e-12
2.52953e-12 4.19872e-12 398.811

519.854 -3.23085 1.18394e-12
-3.23085 469.054 -4.51195e-13
1.18394e-12 -4.51195e-13 502.681

439.389 -34.1611 -3.15607e-12
-34.1611 485.498 1.46165e-12
-3.15607e-12 1.46165e-12 485.817

389.178 8.31982 -3.43507e-12
8.31982 452.321 -2.63611e-12
-3.43507e-12 -2.63611e-12 400.849

385.873 21.8112 7.69755e-14
21.8112 435.766 -2.7273e-12
7.69755e-14 -2.7273e-12 388.688

383.841 35.7752 -4.35444e-12
35.7752 362.326 -9.41469e-13
-4.35444e-12 -9.41469e-13 318.322

408.176 1.57872 -4.55576e-12
1.57872 332.15 3.86654e-13
-4.55576e-12 3.86654e-13 327.319

485.45 -22.8044 9.13936e-13
-22.8044 502.853 -4.87808e-12
9.13936e-13 -4.87808e-12 501.743

351.872 31.1833 -1.32161e-12
31.1833 388.825 1.97531e-12
-1.32161e-12 1.97531e-12 312.352

451.343 23.6097 -4.62149e-13
23.6097 478.406 -1.33997e-12
-4.62149e-13 -1.33997e-12 465.206

442.189 -5.34945 -1.80952e-12
-5.34945 377.12 -1.71433e-12
-1.80952e-12 -1.71433e-12 387.731

464.148 11.2159 -1.61412e-12
11.2159 407.293 -8.7604e-13
-1.61412e-12 -8.7604e-13 424.915

505.371 0.429907 -1.14605e-12
0.429907 421.565 -1.74962e-12
-1.14605e-12 -1.74962e-12 485.668

449.342 -29.0312 -4.93731e-12
-29.0312 501.99 -4.53859e-13
-4.93731e-12 -4.53859e-13 493.582

572.506 -6.31906 7.22193e-12
-6.31906 589.48 -3.48403e-12
7.22193e-12 -3.48403e-12 549.248

463.132 37.4118 -8.11499e-13
37.4118 487.019 1.6193e-12
-8.11499e-13 1.6193e-12 493.057

408.731 1.66326 -4.47405e-12
1.66326 331.597 4.5269e-12
-4.47405e-12 4.5269e-12 308.899

404.227 -32.7863 -1.69642e-12
-32.7863 415.502 -8.12387e-13
-1.69642e-12 -8.12387e-13 387.383

443.133 36.6131 -3.07968e-12
36.6131 485.498 -2.17086e-12
-3.07968e-12 -2.17086e-12 486.565

444.672 -11.1338 2.96683e-12
-11.1338 498.928 -1.59754e-12
2.96683e-12 -1.59754e-12 471.435

386.067 -25.5141 8.47914e-13
-25.5141 428.894 2.65625e-12
8.47914e-13 2.65625e-12 384.557

449.443 28.8302 1.23398e-12
28.8302 501.624 8.73968e-13
1.23398e-12 8.73968e-13 493.281

452.703 -26.1414 2.46973e-12
-26.1414 419.296 -1.03266e-12
2.46973e-12 -1.03266e-12 419.511

579.548 10.4834 -2.55499e-12
10.4834 582.16 -3.22794e-12
-2.55499e-12 -3.22794e-12 549.033

398.322 30.8714 -8.84034e-13
30.8714 422.051 -3.00915e-12
-8.84034e-13 -3.00915e-12 388.156

515.699 8.12679 -2.67342e-13
8.12679 437.261 -3.73893e-12
-2.67342e-13 -3.73893e-12 494.575

493.798 30.1905 2.42265e-12
30.1905 484.741 3.76884e-13
2.42265e-12 3.76884e-13 493.795

453.458 23.3317 -6.56941e-12
23.3317 479.155 3.05237e-12
-6.56941e-12 3.05237e-12 475.791

510.695 -32.489 9.08903e-13
-32.489 512.446 -1.23281e-12
9.08903e-13 -1.23281e-12 515

510.302 -23.19 7.17648e-13
-23.19 473.174 2.88243e-12
7.17648e-13 2.88243e-12 489.671

511.396 10.4708 -3.97667e-12
10.4708 557.986 -4.08325e-12
-3.97667e-12 -4.08325e-12 523.726

452.165 -23.4336 5.52477e-12
-23.4336 480.158 -1.67866e-12
5.52477e-12 -1.67866e-12 468.943

394.403 -9.70761 -3.86062e-13
-9.70761 316.409 1.71974e-12
-3.86062e-13 1.71974e-12 295.57

387.284 -14.277 -1.14871e-12
-14.277 306.054 -7.86808e-12
-1.14871e-12 -7.86808e-12 290.045

547.578 16.5293 -3.58232e-13
16.5293 507.758 -3.74219e-13
-3.58232e-13 -3.74219e-13 519.314

436.48 22.5013 3.17257e-12
22.5013 469.129 -5.94961e-12
3.17257e-12 -5.94961e-12 447.816

475.955 29.1628 1.20082e-12
29.1628 467.638 2.88865e-12
1.20082e-12 2.88865e-12 471.472

450.294 0.688661 3.56456e-12
0.688661 392.77 -8.25858e-13
3.56456e-12 -8.25858e-13 395.667

478.345 6.57126 2.63724e-12
6.57126 541.272 -3.77298e-12
2.63724e-12 -3.77298e-12 507.533

507.323 16.5408 -3.00856e-12
16.5408 461.128 -3.9968e-12
-3.00856e-12 -3.9968e-12 488.073

389.97 -25.7605 -3.86654e-13
-25.7605 430.029 2.68704e-12
-3.86654e-13 2.68704e-12 387.727

456.312 -2.57246 -9.33364e-13
-2.57246 517.007 -5.06854e-12
-9.33364e-13 -5.06854e-12 484.833

400.583 13.3649 -9.65154e-14
13.3649 452.977 -8.17124e-14
-9.65154e-14 -8.17124e-14 404.629

486.906 -29.713 4.21826e-12
-29.713 465.807 2.56624e-12
4.21826e-12 2.56624e-12 474.251

430.291 -29.9469 3.08553e-12
-29.9469 423.621 2.44604e-12
3.08553e-12 2.44604e-12 404.948

399.704 31.6222 7.46662e-13
31.6222 418.224 -1.3897e-12
7.46662e-13 -1.3897e-12 385.995

623.998 -15.0202 -3.45916e-12
-15.0202 581.944 -2.02779e-12
-3.45916e-12 -2.02779e-12 557.899

494.515 2.04122 -2.9378e-12
2.04122 552.137 -9.18969e-13
-2.9378e-12 -9.18969e-13 517.918

483.495 20.3002 1.47571e-12
20.3002 542.036 3.21965e-12
1.47571e-12 3.21965e-12 516.024

544.699 15.4392 -5.81757e-12
15.4392 479.963 -1.95518e-12
-5.81757e-12 -1.95518e-12 515.746

473.74 -26.1884 -8.23045e-13
-26.1884 479.749 -2.83033e-12
-8.23045e-13 -2.83033e-12 483.01

452.117 17.9569 2.57216e-12
17.9569 404.501 -2.85105e-13
2.57216e-12 -2.85105e-13 406.91

531.574 -5.2942 -1.65275e-13
-5.2942 580.795 -5.02028e-12
-1.65275e-13 -5.02028e-12 537.111

512.179 -18.9882 1.80655e-12
-18.9882 464.786 -4.55339e-13
1.80655e-12 -4.55339e-13 493.02

473.968 -15.5986 1.893e-12
-15.5986 423.169 -8.73375e-15
1.893e-12 -8.73375e-15 438.872

401.993 11.6029 1.77961e-12
11.6029 455.949 -3.37034e-12
1.77961e-12 -3.37034e-12 407.772

410.916 -25.7337 -3.08849e-12
-25.7337 435.573 8.30151e-13
-3.08849e-12 8.30151e-13 398.949

532.042 -25.2738 -1.72366e-12
-25.2738 523.187 -1.76955e-12
-1.72366e-12 -1.76955e-12 519.112

423.049 31.9588 -1.0747e-12
31.9588 417.241 -2.14051e-12
-1.0747e-12 -2.14051e-12 400.298

535.475 -25.1348 -2.38831e-12
-25.1348 505.782 -1.01282e-12
-2.38831e-12 -1.01282e-12 515.653

453.486 2.59732 -9.21337e-13
2.59732 397.012 2.37536e-12
-9.21337e-13 2.37536e-12 401.89

311.094 -28.9299 9.26074e-13
-28.9299 376.59 3.59771e-12
9.26074e-13 3.59771e-12 289.99

431.868 -29.2303 -2.56032e-12
-29.2303 424.04 -1.6526e-12
-2.56032e-12 -1.6526e-12 406.147

353.755 32.1583 4.16023e-12
32.1583 392.538 -4.56879e-12
4.16023e-12 -4.56879e-12 312.963

470.34 -11.877 -2.63369e-12
-11.877 529.545 -2.28676e-12
-2.63369e-12 -2.28676e-12 500.296

391.444 -13.8211 -8.63161e-13
-13.8211 449.245 4.37221e-12
-8.63161e-13 4.37221e-12 400.191

602.851 -23.9884 -9.92391e-13
-23.9884 602.264 5.68952e-12
-9.92391e-13 5.68952e-12 557.84

408.364 23.7703 -6.04139e-12
23.7703 441.932 -1.5324e-12
-6.04139e-12 -1.5324e-12 402.215

496.57 -32.7262 -3.93759e-13
-32.7262 490.634 6.53403e-13
-3.93759e-13 6.53403e-13 497.44

388.183 -11.9629 2.25671e-12
-11.9629 448.277 -3.61666e-12
2.25671e-12 -3.61666e-12 397.009

516.704 -19.1169 1.02318e-12
-19.1169 465.746 -5.34979e-13
1.02318e-12 -5.34979e-13 496.236

410.679 23.8765 -1.95399e-12
23.8765 439.304 -8.11203e-13
-1.95399e-12 -8.11203e-13 400.692

488.912 -4.97544 2.90138e-13
-4.97544 435.063 -1.60527e-12
2.90138e-13 -1.60527e-12 460.375

305.778 -30.3422 9.37916e-13
-30.3422 391.433 -6.0633e-13
9.37916e-13 -6.0633e-13 262.566

438.603 21.0137 4.94153e-12
21.0137 473.906 6.28238e-12
4.94153e-12 6.28238e-12 458.342

445.681 -19.3229 2.72967e-12
-19.3229 393.971 8.74264e-13
2.72967e-12 8.74264e-13 399.617

551.599 -21.4459 -4.42905e-13
-21.4459 499.512 3.50416e-12
-4.42905e-13 3.50416e-12 520.098

424.465 31.7533 -2.72375e-14
31.7533 413.317 -1.28075e-12
-2.72375e-14 -1.28075e-12 397.954

459.157 -29.9712 -1.05752e-12
-29.9712 437.633 2.61332e-12
-1.05752e-12 2.61332e-12 439.294

510.615 20.8851 1.13746e-12
20.8851 476.068 -5.90047e-13
1.13746e-12 -5.90047e-13 492.751

461.499 -28.0758 -3.21831e-12
-28.0758 485.736 5.11073e-13
-3.21831e-12 5.11073e-13 488.713

413.716 -26.2246 2.449e-12
-26.2246 436.24 9.56864e-13
2.449e-12 9.56864e-13 401.435

426.071 28.9805 1.69701e-12
28.9805 429.893 -2.51177e-12
1.69701e-12 -2.51177e-12 406.857

452.496 26.1908 -1.87346e-12
26.1908 418.223 2.08159e-12
-1.87346e-12 2.08159e-12 419.055

521.966 -14.6098 -2.1938e-13
-14.6098 477.174 -5.3948e-12
-2.1938e-13 -5.3948e-12 500.06

403.557 -16.6172 9.42357e-13
-16.6172 451.738 3.1181e-12
9.42357e-13 3.1181e-12 406.439

496.042 -17.5682 -3.0731e-13
-17.5682 447.603 8.152e-13
-3.0731e-13 8.152e-13 471.497

487.761 16.9082 4.53089e-12
16.9082 436.255 -6.63173e-14
4.53089e-12 -6.63173e-14 460.585

513.34 -9.38698 -3.40346e-12
-9.38698 555.775 1.40924e-12
-3.40346e-12 1.40924e-12 523.027

453.974 -13.4298 -2.49874e-12
-13.4298 402.175 -3.6929e-12
-2.49874e-12 -3.6929e-12 406.74

403.199 0.593995 3.95358e-12
0.593995 465.721 -2.57809e-12
3.95358e-12 -2.57809e-12 417.802

475.022 18.5547 1.06581e-12
18.5547 428.769 -1.52471e-13
1.06581e-12 -1.52471e-13 442.218

451.139 27.6034 -1.27779e-12
27.6034 421.836 -1.4803e-13
-1.27779e-12 -1.4803e-13 420.84

400.866 -15.6858 -3.2685e-13
-15.6858 451.378 -1.10608e-12
-3.2685e-13 -1.10608e-12 403.733

405.998 -1.2023 3.01315e-13
-1.2023 468.031 -1.66978e-12
3.01315e-13 -1.66978e-12 421.217

516.197 29.1343 -1.4122e-12
29.1343 498.024 -2.16094e-12
-1.4122e-12 -2.16094e-12 504.873

441.701 -10.9219 3.30536e-12
-10.9219 500.654 4.41484e-12
3.30536e-12 4.41484e-12 471.145

451.436 -26.7147 5.37644e-13
-26.7147 418.763 -8.98837e-13
5.37644e-13 -8.98837e-13 419.35

444.384 21.3321 -5.9804e-13
21.3321 395.296 2.62901e-12
-5.9804e-13 2.62901e-12 398.198

497.592 23.6651 2.83329e-12
23.6651 458.087 9.26074e-13
2.83329e-12 9.26074e-13 476.548

447.68 5.47065 -2.34457e-12
5.47065 508.787 3.62377e-13
-2.34457e-12 3.62377e-13 476.879

427.647 29.0649 3.94351e-13
29.0649 426.431 -1.67037e-12
3.94351e-13 -1.67037e-12 405.107

536.819 22.9638 -1.87643e-12
22.9638 531.896 1.76866e-12
-1.87643e-12 1.76866e-12 522.782

314.748 -59.6908 -4.26326e-14
-59.6908 282.768 6.1687e-12
-4.26326e-14 6.1687e-12 223.422

480.591 -25.0474 1.12088e-12
-25.0474 445.069 4.20108e-12
1.12088e-12 4.20108e-12 456.644

336.662 7.06977 -3.60452e-12
7.06977 409.152 2.68111e-12
-3.60452e-12 2.68111e-12 319.438

460.536 -28.8888 -4.28635e-12
-28.8888 444.734 -3.52666e-12
-4.28635e-12 -3.52666e-12 443.45

96.4235 -52.7007 -3.62258e-12
-52.7007 306.616 5.46171e-12
-3.62258e-12 5.46171e-12 113.699

95.9574 51.4513 2.70362e-12
51.4513 306.881 -4.55695e-12
2.70362e-12 -4.55695e-12 114.487

181.516 117.154 -1.3974e-13
117.154 226.075 3.66166e-12
-1.3974e-13 3.66166e-12 113.587

182.814 -117.096 2.69533e-12
-117.096 223.311 2.23584e-12
2.69533e-12 2.23584e-12 113.561

321.581 -1.36335 2.79006e-12
-1.36335 84.6531 1.76017e-15
2.79006e-12 1.76017e-15 114.928

274.432 -91.1249 4.26326e-14
-91.1249 127.418 1.7882e-12
4.26326e-14 1.7882e-12 113.801

275.128 91.6528 4.83169e-13
91.6528 128.25 -2.62427e-12
4.83169e-13 -2.62427e-12 114.572

525.238 14.3301 -2.21512e-12
14.3301 474.71 -1.92202e-12
-2.21512e-12 -1.92202e-12 502.312

556.796 25.5367 4.31655e-13
25.5367 541.182 -1.12739e-12
4.31655e-13 -1.12739e-12 533.448

492.089 6.60594 1.67096e-12
6.60594 439.118 2.92803e-13
1.67096e-12 2.92803e-13 471.399

470.297 21.7843 1.25529e-13
21.7843 424.514 2.60059e-12
1.25529e-13 2.60059e-12 438.192

409.973 17.7441 1.29837e-12
17.7441 461.07 9.30811e-13
1.29837e-12 9.30811e-13 425.04

448.008 28.898 -3.44199e-12
28.898 424.702 -3.46094e-12
-3.44199e-12 -3.46094e-12 420.747

487.147 -29.6632 -1.24759e-12
-29.6632 465.625 9.38805e-13
-1.24759e-12 9.38805e-13 474.587

449.365 28.0273 -1.55313e-12
28.0273 421.068 -2.66572e-12
-1.55313e-12 -2.66572e-12 418.639

402.961 -2.84118 4.92643e-13
-2.84118 465.378 -1.10608e-12
4.92643e-13 -1.10608e-12 417.538

555.802 -26.0975 -1.39266e-12
-26.0975 543.375 4.05098e-12
-1.39266e-12 4.05098e-12 533.692

405.499 -4.86228 -3.03283e-12
-4.86228 467.116 -5.24499e-12
-3.03283e-12 -5.24499e-12 420.597

522.29 23.016 -2.04518e-12
23.016 499.74 9.40729e-13
-2.04518e-12 9.40729e-13 507.967

423.375 26.8702 5.96264e-12
26.8702 386.505 8.73375e-13
5.96264e-12 8.73375e-13 373.024

480.107 -13.216 -1.52456e-12
-13.216 532.767 2.48897e-12
-1.52456e-12 2.48897e-12 511.999

484.195 13.7278 -1.29674e-12
13.7278 432.774 -8.86106e-13
-1.29674e-12 -8.86106e-13 456.872

457.366 -29.9872 1.99485e-12
-29.9872 436.974 3.60719e-12
1.99485e-12 3.60719e-12 437.83

454.305 -24.7131 3.63798e-12
-24.7131 416.802 -2.52331e-12
3.63798e-12 -2.52331e-12 419.85

547.403 -16.0745 -2.45729e-14
-16.0745 509.304 -3.95239e-13
-2.45729e-14 -3.95239e-13 519.382

475.969 27.9286 -3.17672e-12
27.9286 449.703 7.35412e-13
-3.17672e-12 7.35412e-13 456.923

469.098 23.9771 -2.47565e-12
23.9771 427.846 -2.64411e-12
-2.47565e-12 -2.64411e-12 439.827

432.426 -2.79295 1.62278e-12
-2.79295 493.634 4.40833e-12
1.62278e-12 4.40833e-12 457.104

417.605 5.8733 3.87828e-12
5.8733 479.554 4.24253e-12
3.87828e-12 4.24253e-12 440.174

463.008 2.64667 -4.54747e-13
2.64667 402.277 2.53597e-12
-4.54747e-13 2.53597e-12 422.318

438.645 -7.28952 2.40637e-12
-7.28952 373.913 -5.36327e-12
2.40637e-12 -5.36327e-12 381.216

454.841 30.4843 1.61648e-13
30.4843 439.012 2.69059e-12
1.61648e-13 2.69059e-12 437.834

478.462 -26.1551 -4.50366e-12
-26.1551 443.54 2.7347e-12
-4.50366e-12 2.7347e-12 454.644

525.698 -21.2543 -5.61329e-13
-21.2543 497.827 2.99346e-12
-5.61329e-13 2.99346e-12 508.616

437.73 -31.6332 1.89833e-12
-31.6332 437.652 -3.02869e-12
1.89833e-12 -3.02869e-12 426.856

417.588 -27.7851 -7.82189e-13
-27.7851 444.393 -7.0545e-12
-7.82189e-13 -7.0545e-12 419.685

430.644 29.8867 1.37727e-12
29.8867 442.741 -1.82965e-12
1.37727e-12 -1.82965e-12 426.495

416.223 -9.57779 -2.82367e-14
-9.57779 475.208 1.68754e-13
-2.82367e-14 1.68754e-13 436.452

428.893 -1.54473 6.46453e-12
-1.54473 491.865 3.54975e-12
6.46453e-12 3.54975e-12 453.992

445.179 5.74796 -1.39401e-12
5.74796 508.041 1.21088e-12
-1.39401e-12 1.21088e-12 474.912

414.616 -21.0887 9.18673e-13
-21.0887 458.404 4.68307e-12
9.18673e-13 4.68307e-12 426.063

496.866 24.1109 1.03798e-12
24.1109 455.694 -7.47846e-13
1.03798e-12 -7.47846e-13 474.59

483.37 -9.58963 -1.06759e-12
-9.58963 430.109 1.27735e-12
-1.06759e-12 1.27735e-12 455.218

415.631 7.46519 3.88547e-12
7.46519 477.118 2.6823e-13
3.88547e-12 2.6823e-13 436.911

443.952 -9.70105 1.65848e-12
-9.70105 501.501 4.30648e-12
1.65848e-12 4.30648e-12 471.005

433.171 -16.3305 1.67318e-12
-16.3305 481.673 2.31282e-12
1.67318e-12 2.31282e-12 455.665

463.536 -8.23909 -3.66403e-12
-8.23909 406.333 4.13151e-12
-3.66403e-12 4.13151e-12 421.468

494.431 -32.3468 2.65713e-12
-32.3468 487.613 -2.70954e-12
2.65713e-12 -2.70954e-12 496.248

422.942 9.32071 2.59689e-12
9.32071 479.088 -1.26062e-12
2.59689e-12 -1.26062e-12 440.977

564.357 -18.2126 3.02218e-12
-18.2126 529.95 -1.65779e-12
3.02218e-12 -1.65779e-12 531.83

309.047 24.8223 -9.8647e-13
24.8223 379.42 -3.79193e-12
-9.8647e-13 -3.79193e-12 289.796

501.696 -26.6261 4.24697e-12
-26.6261 499.488 2.85697e-14
4.24697e-12 2.85697e-14 501.198

515.647 -30.2028 3.62258e-12
-30.2028 498.402 -4.7784e-13
3.62258e-12 -4.7784e-13 504.917

429.221 -0.701315 3.81399e-13
-0.701315 491.991 3.36087e-12
3.81399e-13 3.36087e-12 454.143

474.878 -16.6224 -3.41653e-12
-16.6224 428.335 -1.04687e-12
-3.41653e-12 -1.04687e-12 441.954

462.303 12.8416 -1.56421e-12
12.8416 511.273 2.03334e-12
-1.56421e-12 2.03334e-12 489.119

240.775 -3.18047 -3.44954e-12
-3.18047 360.686 1.18424e-14
-3.44954e-12 1.18424e-14 226.964

432.402 14.2735 1.3128e-12
14.2735 485.354 2.89546e-13
1.3128e-12 2.89546e-13 456.88

458.109 -29.4889 2.68526e-12
-29.4889 443.168 3.31883e-12
2.68526e-12 3.31883e-12 440.76

304.185 25.1054 1.75326e-12
25.1054 394.582 1.89004e-12
1.75326e-12 1.89004e-12 264.339

603.55 26.0982 -7.15102e-12
26.0982 597.956 1.54425e-12
-7.15102e-12 1.54425e-12 558.156

608.284 -27.8076 -3.33452e-12
-27.8076 595.03 5.41049e-12
-3.33452e-12 5.41049e-12 558.29

463.492 -30.4188 -4.28102e-12
-30.4188 459.036 -3.43547e-12
-4.28102e-12 -3.43547e-12 459.071

434.582 -31.1598 4.36096e-12
-31.1598 436.357 1.92675e-12
4.36096e-12 1.92675e-12 424.66

474.099 20.8273 -1.83675e-12
20.8273 431.913 -3.56456e-13
-1.83675e-12 -3.56456e-13 443.971

465.22 15.0059 -1.38733e-12
15.0059 410.115 8.70119e-13
-1.38733e-12 8.70119e-13 427.461

646.07 3.08368 1.55168e-11
3.08368 645.728 6.58e-12
1.55168e-11 6.58e-12 574.619

649.891 -7.00031 6.897e-12
-7.00031 641.398 -1.03875e-11
6.897e-12 -1.03875e-11 575.148

496.986 4.82431 2.03926e-12
4.82431 442.032 1.99204e-12
2.03926e-12 1.99204e-12 477.411

443.556 6.7309 1.19023e-12
6.7309 502.987 1.26181e-12
1.19023e-12 1.26181e-12 471.048

441.97 6.73631 -2.69763e-12
6.73631 502.512 1.85392e-12
-2.69763e-12 1.85392e-12 469.772

321.535 58.6337 4.52616e-12
58.6337 281.121 2.7048e-12
4.52616e-12 2.7048e-12 225.076

420.226 -28.1994 -4.16556e-12
-28.1994 444.021 3.16606e-12
-4.16556e-12 3.16606e-12 421.03

520.576 17.9745 -2.62871e-12
17.9745 467.529 7.99657e-13
-2.62871e-12 7.99657e-13 499.508

472.977 9.53967 -5.35276e-13
9.53967 421.195 7.60133e-13
-5.35276e-13 7.60133e-13 436.201

440.628 -26.723 6.50147e-13
-26.723 450.724 -6.22435e-12
6.50147e-13 -6.22435e-12 433.414

469.274 -20.2375 -3.70963e-12
-20.2375 422.714 -2.61657e-12
-3.70963e-12 -2.61657e-12 437.174

312.472 60.2316 -4.50247e-12
60.2316 281.371 1.69938e-12
-4.50247e-12 1.69938e-12 223.214

492.68 31.069 -6.21725e-13
31.069 489.041 2.87859e-12
-6.21725e-13 2.87859e-12 493.137

410.861 -19.7859 -1.60109e-12
-19.7859 457.879 -1.47911e-12
-1.60109e-12 -1.47911e-12 423.496

474.127 28.8574 -2.89842e-12
28.8574 449.629 2.74743e-13
-2.89842e-12 2.74743e-13 456.517

430.954 -4.14476 8.88252e-13
-4.14476 492.971 4.44977e-12
8.88252e-13 4.44977e-12 456.466

423.928 19.609 3.77446e-12
19.609 465.709 -8.35302e-12
3.77446e-12 -8.35302e-12 434.106

452.746 30.5185 3.93759e-13
30.5185 443.596 1.56793e-12
3.93759e-13 1.56793e-12 439.606

428.641 -22.473 -3.32889e-12
-22.473 461.135 6.80937e-13
-3.32889e-12 6.80937e-13 433.811

443.572 -27.3523 2.82559e-12
-27.3523 450.431 2.56091e-12
2.82559e-12 2.56091e-12 435.044

294.777 11.2569 3.18279e-12
11.2569 372.583 6.29304e-12
3.18279e-12 6.29304e-12 258.1

357.297 -33.4558 1.86754e-12
-33.4558 389.115 6.29778e-12
1.86754e-12 6.29778e-12 314.127

419.656 -11.6904 -2.6259e-12
-11.6904 476.359 -5.87264e-12
-2.6259e-12 -5.87264e-12 439.343

478.395 26.4843 -4.35207e-13
26.4843 446.797 1.74379e-12
-4.35207e-13 1.74379e-12 456.082

452.343 29.4777 3.33659e-12
29.4777 449.024 -1.02733e-12
3.33659e-12 -1.02733e-12 442.398

426.807 -21.4337 -1.54069e-12
-21.4337 461.782 -6.4991e-12
-1.54069e-12 -6.4991e-12 432.628

422.929 -11.7822 2.66868e-12
-11.7822 476.645 1.00305e-12
2.66868e-12 1.00305e-12 439.927

457.705 28.4092 3.24836e-12
28.4092 447.085 -2.37617e-12
3.24836e-12 -2.37617e-12 442.569

425.103 -13.8776 5.00637e-13
-13.8776 476.417 -4.85478e-12
5.00637e-13 -4.85478e-12 442.103

311.263 27.8546 1.4276e-12
27.8546 377.389 5.58487e-12
1.4276e-12 5.58487e-12 289.983

485.169 -4.04133 -2.60682e-12
-4.04133 545.048 4.10871e-12
-2.60682e-12 4.10871e-12 511.035

432.983 31.0272 1.45484e-12
31.0272 439.626 -1.81425e-12
1.45484e-12 -1.81425e-12 426.017

509.308 14.9011 -2.71723e-12
14.9011 463.16 2.07538e-13
-2.71723e-12 2.07538e-13 488.604

516.919 -15.9274 1.18868e-12
-15.9274 467.58 -2.45137e-13
1.18868e-12 -2.45137e-13 493.922

383.923 -24.2043 -2.70717e-12
-24.2043 305.947 7.91189e-12
-2.70717e-12 7.91189e-12 285.353

442.277 -21.2671 -3.9296e-12
-21.2671 475.997 -1.98537e-12
-3.9296e-12 -1.98537e-12 459.319

447.826 26.6981 -5.20709e-12
26.6981 466.205 -3.26139e-12
-5.20709e-12 -3.26139e-12 457.839

522.974 -21.7279 -1.76451e-12
-21.7279 543.81 -6.62836e-12
-1.76451e-12 -6.62836e-12 525.308

579.584 14.1069 -4.89712e-12
14.1069 617.621 -4.34941e-12
-4.89712e-12 -4.34941e-12 557.052

620.208 9.44535 3.05015e-12
9.44535 576.841 -6.52219e-12
3.05015e-12 -6.52219e-12 556.87

523.468 32.7056 -8.33703e-13
32.7056 520.65 1.38556e-12
-8.33703e-13 1.38556e-12 519.523

414.889 26.0001 1.83379e-12
26.0001 448.903 1.25979e-11
1.83379e-12 1.25979e-11 420.374

478.093 26.6613 -1.77636e-14
26.6613 444.768 1.71211e-12
-1.77636e-14 1.71211e-12 455.505

332.361 45.1855 2.36729e-12
45.1855 349.487 -1.67451e-12
2.36729e-12 -1.67451e-12 286.738

571.39 -11.3438 -1.01563e-12
-11.3438 614.471 1.70205e-12
-1.01563e-12 1.70205e-12 554.594

641.327 -3.43302 1.85667e-11
-3.43302 636.87 -1.11887e-11
1.85667e-11 -1.11887e-11 572.395

634.904 -0.210113 1.70974e-12
-0.210113 643.178 1.68804e-11
1.70974e-12 1.68804e-11 572.222

272.962 -53.802 9.33179e-13
-53.802 316.445 -1.74794e-12
9.33179e-13 -1.74794e-12 220.908

566.637 -11.6001 5.55141e-12
-11.6001 562.124 -3.09619e-12
5.55141e-12 -3.09619e-12 540.897

563.771 8.81312 2.23925e-12
8.81312 586.961 3.31587e-12
2.23925e-12 3.31587e-12 546.839

478.241 -26.1993 -5.96205e-12
-26.1993 440.439 -2.53545e-12
-5.96205e-12 -2.53545e-12 453.479

494.347 1.01113 -1.3386e-12
1.01113 545.757 4.19398e-12
-1.3386e-12 4.19398e-12 514.055

447.648 -20.2677 -3.73923e-13
-20.2677 484.155 3.15718e-12
-3.73923e-13 3.15718e-12 470.635

506.298 6.25531 -2.84039e-12
6.25531 443.372 -1.41368e-12
-2.84039e-12 -1.41368e-12 486.122

461.272 15.5963 -1.34002e-12
15.5963 521.25 -3.41209e-12
-1.34002e-12 -3.41209e-12 497.554

471.179 7.19165 3.62969e-13
7.19165 528.004 8.49099e-13
3.62969e-13 8.49099e-13 497.688

493.76 20.3926 -5.71217e-12
20.3926 451.515 -8.97356e-13
-5.71217e-12 -8.97356e-13 469.748

241.064 -3.1139 -8.91243e-12
-3.1139 358.558 -1.19845e-12
-8.91243e-12 -1.19845e-12 227.062

463.698 -27.6235 4.82399e-12
-27.6235 463.388 -1.70826e-12
4.82399e-12 -1.70826e-12 461.188

488.342 -26.1161 2.43953e-13
-26.1161 481.595 -3.14918e-12
2.43953e-13 -3.14918e-12 485.867

497.535 -31.4837 -4.49063e-12
-31.4837 489.956 4.27939e-12
-4.49063e-12 4.27939e-12 498.978

355.598 32.7492 -3.86535e-12
32.7492 285.777 -4.46576e-12
-3.86535e-12 -4.46576e-12 248.365

563.88 -20.1166 3.0127e-12
-20.1166 569.613 -5.15832e-12
3.0127e-12 -5.15832e-12 542.57

337.646 54.3218 1.11318e-13
54.3218 356.656 6.32857e-12
1.11318e-13 6.32857e-12 258.874

477.069 -21.4396 2.22296e-12
-21.4396 506.487 1.76511e-12
2.22296e-12 1.76511e-12 500.241

504.77 14.6504 3.64627e-12
14.6504 451.985 -2.47698e-12
3.64627e-12 -2.47698e-12 481.558

449.828 -14.5723 -5.05906e-12
-14.5723 396.984 5.22915e-12
-5.05906e-12 5.22915e-12 400.838

452.591 24.0466 -2.26397e-12
24.0466 478.777 2.4869e-12
-2.26397e-12 2.4869e-12 467.845

493.664 20.4279 -1.52175e-13
20.4279 449.499 -2.64677e-12
-1.52175e-13 -2.64677e-12 469.34

505.564 11.4007 -1.82965e-13
11.4007 564.415 7.23806e-12
-1.82965e-13 7.23806e-12 526.71

475.893 -31.58 -3.34991e-12
-31.58 470.353 -2.6675e-13
-3.34991e-12 -2.6675e-13 475.061

559.269 19.8124 4.14602e-12
19.8124 510.438 -1.93416e-12
4.14602e-12 -1.93416e-12 526.485

439.955 -18.4433 -3.29396e-12
-18.4433 482.462 1.76688e-12
-3.29396e-12 1.76688e-12 459.146

465.895 4.28311 -1.41525e-12
4.28311 526.105 2.7119e-13
-1.41525e-12 2.7119e-13 495.508

588.639 9.92668 -5.03183e-12
9.92668 552.461 -2.7612e-12
-5.03183e-12 -2.7612e-12 545.187

590.422 -8.51328 2.67934e-12
-8.51328 554.803 8.38144e-13
2.67934e-12 8.38144e-13 545.705

382.307 18.5121 -1.11318e-12
18.5121 302.286 -3.39699e-12
-1.11318e-12 -3.39699e-12 286.132

502.675 7.96495 -4.7405e-12
7.96495 453.598 -3.84581e-13
-4.7405e-12 -3.84581e-13 487.763

232.814 7.74037 -1.06873e-11
7.74037 381.514 1.13687e-13
-1.06873e-11 1.13687e-13 187.185

236.984 -11.385 -4.43867e-12
-11.385 387.207 -2.20742e-12
-4.43867e-12 -2.20742e-12 189.45

249.286 56.4063 7.15043e-12
56.4063 354.775 -4.73695e-12
7.15043e-12 -4.73695e-12 184.022

505.013 -28.9504 2.63078e-12
-28.9504 478.613 7.26027e-12
2.63078e-12 7.26027e-12 491.341

258.47 -49.1897 3.11573e-12
-49.1897 341.839 -4.40536e-12
3.11573e-12 -4.40536e-12 220.732

249.292 -55.9489 -8.09071e-12
-55.9489 344.75 -4.42431e-12
-8.09071e-12 -4.42431e-12 181.115

434.651 26.2197 -1.73136e-12
26.2197 454.389 8.47441e-12
-1.73136e-12 8.47441e-12 432.821

329.922 73.843 1.04213e-13
73.843 280.009 3.51245e-12
1.04213e-13 3.51245e-12 184.826

540.126 13.0474 7.73307e-13
13.0474 554.945 4.66886e-12
7.73307e-13 4.66886e-12 532.075

562.382 0.0392193 -2.13577e-12
0.0392193 532.452 -5.54815e-13
-2.13577e-12 -5.54815e-13 531.868

338.6 -73.1284 4.03115e-12
-73.1284 279.857 4.43852e-12
4.03115e-12 4.43852e-12 186.309

432.667 -23.4236 -3.51719e-12
-23.4236 466.307 -3.52844e-12
-3.51719e-12 -3.52844e-12 447.569

358.929 34.7285 -8.5502e-13
34.7285 310.973 3.59179e-12
-8.5502e-13 3.59179e-12 258.036

267.704 63.49 -4.68958e-13
63.49 345.209 -5.38591e-12
-4.68958e-13 -5.38591e-12 185.844

293.691 21.6298 3.64745e-12
21.6298 367.658 6.93963e-13
3.64745e-12 6.93963e-13 254.495

267.575 -65.9188 1.84504e-12
-65.9188 344.844 1.02792e-12
1.84504e-12 1.02792e-12 184.3

291.638 -12.3809 7.03911e-12
-12.3809 370.88 -8.87231e-12
7.03911e-12 -8.87231e-12 253.441

550.306 6.84191 2.83114e-12
6.84191 582.076 -5.97359e-12
2.83114e-12 -5.97359e-12 541.115

329.887 -45.9739 -3.19744e-14
-45.9739 341.813 -7.89058e-12
-3.19744e-14 -7.89058e-12 276.612

259.78 47.531 2.82914e-12
47.531 340.214 5.56592e-12
2.82914e-12 5.56592e-12 223.144

370.214 37.9108 -1.27424e-12
37.9108 244.919 -3.73035e-14
-1.27424e-12 -3.73035e-14 187.355

481.888 -29.2854 9.34364e-13
-29.2854 460.509 -1.7808e-12
9.34364e-13 -1.7808e-12 467.711

480.974 12.8967 -9.84768e-13
12.8967 525.827 2.24916e-12
-9.84768e-13 2.24916e-12 504.101

354.416 -38.1117 8.56915e-12
-38.1117 300.075 2.76164e-12
8.56915e-12 2.76164e-12 251.813

482.531 -28.8019 -8.45546e-13
-28.8019 460.318 -4.7938e-12
-8.45546e-13 -4.7938e-12 468.46

365.262 -36.3427 3.66166e-12
-36.3427 230.988 8.05282e-14
3.66166e-12 8.05282e-14 182.769

481.5 -28.3171 -8.66862e-13
-28.3171 472.752 2.64085e-12
-8.66862e-13 2.64085e-12 477.916

436.35 -25.2945 1.92143e-12
-25.2945 466.221 -7.34228e-13
1.92143e-12 -7.34228e-13 448.207

314.797 69.4595 -1.7953e-12
69.4595 292.14 1.81425e-12
-1.7953e-12 1.81425e-12 184.523

290.78 -22.9323 1.21029e-12
-22.9323 359.162 -1.16008e-11
1.21029e-12 -1.16008e-11 247.027

312.399 -71.6914 -6.1912e-12
-71.6914 288.121 -1.67451e-12
-6.1912e-12 -1.67451e-12 182.025

268.545 50.7365 7.61465e-12
50.7365 320.057 -9.33179e-13
7.61465e-12 -9.33179e-13 221.503

459.858 -30.2118 -1.02259e-12
-30.2118 454.842 1.93386e-12
-1.02259e-12 1.93386e-12 454.397

559.285 -14.6403 -3.71851e-12
-14.6403 544.411 -1.79323e-12
-3.71851e-12 -1.79323e-12 533.715

635.922 11.0927 1.5006e-11
11.0927 631.383 -1.07203e-12
1.5006e-11 -1.07203e-12 570.018

619.956 -5.15997 -3.19863e-12
-5.15997 639.739 -1.41665e-11
-3.19863e-12 -1.41665e-11 568.496

453.867 13.0836 2.41895e-12
13.0836 506.552 -1.59872e-12
2.41895e-12 -1.59872e-12 482.569

634.151 -10.6671 -3.81236e-12
-10.6671 631.313 1.68177e-12
-3.81236e-12 1.68177e-12 569.873

622.695 4.0917 9.14794e-12
4.0917 642.684 -3.43362e-12
9.14794e-12 -3.43362e-12 569.697

643.375 7.43427 -1.54898e-12
7.43427 619.148 6.803e-12
-1.54898e-12 6.803e-12 569.02

584.775 -12.1154 8.19211e-12
-12.1154 631.667 -2.48098e-12
8.19211e-12 -2.48098e-12 560.592

307.442 -30.4695 -5.51559e-12
-30.4695 371.63 1.11792e-12
-5.51559e-12 1.11792e-12 280.767

589.625 -12.9721 3.04468e-12
-12.9721 549.112 -2.49045e-12
3.04468e-12 -2.49045e-12 543.825

527.204 -34.4178 -1.09986e-12
-34.4178 521.485 5.53853e-12
-1.09986e-12 5.53853e-12 519.963

565.463 -18.1768 2.03689e-12
-18.1768 537.988 3.76973e-12
2.03689e-12 3.76973e-12 534.256

502.567 15.4591 2.04459e-12
15.4591 452.113 -2.76549e-12
2.04459e-12 -2.76549e-12 480.204

586.348 9.86436 7.46914e-12
9.86436 642.135 -6.28667e-12
7.46914e-12 -6.28667e-12 563.102

636.657 19.2278 8.69319e-12
19.2278 591.722 2.1871e-12
8.69319e-12 2.1871e-12 562.923

569.774 11.3062 -3.97282e-12
11.3062 544.337 1.67392e-12
-3.97282e-12 1.67392e-12 536.434

353.44 -15.3391 -4.55221e-12
-15.3391 231.514 -1.83557e-14
-4.55221e-12 -1.83557e-14 219.012

437.203 24.9637 -4.29375e-12
24.9637 461.909 1.97235e-12
-4.29375e-12 1.97235e-12 445.719

317.088 -61.3539 8.28967e-14
-61.3539 277.847 -4.36747e-12
8.28967e-14 -4.36747e-12 218.087

334.207 -57.4565 3.50771e-12
-57.4565 357.32 -4.97617e-12
3.50771e-12 -4.97617e-12 252.538

383.332 -36.5436 -4.92643e-13
-36.5436 305.737 3.47337e-12
-4.92643e-13 3.47337e-12 257.758

562.495 -5.15898 -5.3609e-12
-5.15898 616.951 2.61139e-12
-5.3609e-12 2.61139e-12 552.948

562.202 2.89122 -2.19661e-12
2.89122 615.816 -5.33869e-12
-2.19661e-12 -5.33869e-12 552.547

598.769 -24.4566 1.03621e-14
-24.4566 575.741 1.33508e-12
1.03621e-14 1.33508e-12 551.577

602.329 -21.7608 -6.45535e-12
-21.7608 573.432 1.39977e-12
-6.45535e-12 1.39977e-12 551.843

598.782 26.1363 1.04775e-12
26.1363 580.457 3.84766e-12
1.04775e-12 3.84766e-12 552.732

625.741 3.09965 8.60541e-12
3.09965 630.735 3.53147e-12
8.60541e-12 3.53147e-12 568.419

599.059 -20.5091 2.70065e-12
-20.5091 576.353 -1.79338e-12
2.70065e-12 -1.79338e-12 552.265

607.809 -18.5685 -2.09669e-12
-18.5685 620.262 -1.80596e-14
-2.09669e-12 -1.80596e-14 563.184

632.9 2.43466 -3.19271e-12
2.43466 635.526 -1.23717e-11
-3.19271e-12 -1.23717e-11 570.504

607.886 -20.5265 4.85464e-13
-20.5265 572.425 -1.07854e-12
4.85464e-13 -1.07854e-12 553.404

607.071 20.9561 5.09074e-12
20.9561 573.684 1.16263e-12
5.09074e-12 1.16263e-12 553.808

633.851 -3.45869 -5.13056e-12
-3.45869 636.777 8.55612e-12
-5.13056e-12 8.55612e-12 571.278

632.181 -3.11743 -1.43549e-11
-3.11743 625.756 -1.03393e-11
-1.43549e-11 -1.03393e-11 569.393

609.681 12.1098 2.84824e-12
12.1098 620.485 7.70791e-13
2.84824e-12 7.70791e-13 563.915

587.202 26.9299 -5.10643e-12
26.9299 583.018 3.28191e-12
-5.10643e-12 3.28191e-12 551.701

FIELD solute_concentration_TPM 2
S_ext 1 563 float
0.993451
0.993259
0.993279
0.99326
0.993228
0.99328
0.993451
0.99327
0.993296
0.993263
0.993411
0.99327
0.993274
0.993262
0.993236
0.993278
0.993254
0.993269
0.9933
0.993283
0.993289
0.993173
0.993284
0.993283
0.993283
0.993265
0.993402
0.993277
0.993349
0.993202
0.993275
0.993347
0.993407
0.993211
0.99321
0.993211
0.993198
0.993212
0.993276
0.993406
0.993348
0.993197
0.993197
0.993275
0.993381
0.993347
0.993298
0.993294
0.993279
0.993357
0.993352
0.993333
0.993226
0.993334
0.993228
0.993387
0.993209
0.993333
0.99321
0.993281
0.993253
0.993245
0.993398
0.993247
0.993244
0.993258
0.993252
0.993266
0.993284
0.993258
0.993227
0.993227
0.993349
0.993254
0.99328
0.99341
0.993238
0.993259
0.993265
0.993326
0.993366
0.993224
0.993248
0.993368
0.993347
0.993385
0.993277
0.993257
0.993381
0.993181
0.993333
0.993182
0.993236
0.99326
0.993333
0.993352
0.993368
0.993262
0.993239
0.993276
0.993314
0.993345
0.993368
0.993265
0.993264
0.993263
0.993247
0.993278
0.993369
0.993253
0.993281
0.993378
0.993372
0.993267
0.993264
0.993334
0.993212
0.99337
0.993213
0.993333
0.993305
0.993237
0.993258
0.993253
0.993253
0.993235
0.993216
0.993263
0.993368
0.993332
0.993225
0.993259
0.993248
0.993258
0.993345
0.993209
0.993379
0.993274
0.993247
0.993209
0.993342
0.993267
0.993305
0.993262
0.993371
0.993264
0.993269
0.993281
0.99328
0.993318
0.993293
0.993258
0.993347
0.993274
0.993262
0.993259
0.99326
0.993342
0.993341
0.993271
0.993293
0.993346
0.993381
0.993351
0.99334
0.993263
0.993341
0.993343
0.993348
0.99334
0.993235
0.993333
0.993352
0.993259
0.993333
0.993248
0.993235
0.993271
0.993228
0.993266
0.993349
0.993263
0.993263
0.993341
0.993257
0.993353
0.993253
0.993249
0.993236
0.993263
0.993256
0.993366
0.993333
0.993347
0.993259
0.993268
0.993267
0.993248
0.993258
0.993259
0.993258
0.9933
0.993325
0.993248
0.99335
0.993248
0.99326
0.993344
0.993243
0.993258
0.993244
0.993264
0.993265
0.993248
0.993316
0.993263
0.993324
0.993249
0.993253
0.993253
0.993253
0.993253
0.993253
0.993254
0.993263
0.993237
0.993237
0.993236
0.993236
0.993229
0.993228
0.993318
0.993261
0.993258
0.993295
0.993237
0.993236
0.993258
0.993324
0.993258
0.993262
0.993317
0.993242
0.993318
0.993248
0.993258
0.993316
0.993323
0.993367
0.993359
0.993248
0.993373
0.993275
0.993325
0.9933
0.993258
0.993253
0.993198
0.993253
0.993377
0.993323
0.993257
0.99327
0.993326
0.993253
0.993304
0.993198
0.993324
0.993252
0.993255
0.993267
0.993237
0.993258
0.993228
0.993273
0.993379
0.993385
0.993234
0.993287
0.99327
0.99332
0.993242
0.99326
0.993323
0.99326
0.993314
0.993269
0.993315
0.993324
0.993188
0.993233
0.993234
0.993235
0.993262
0.993314
0.993212
0.993255
0.993292
0.993313
0.993319
0.993233
0.993317
0.993237
0.993317
0.993381
0.993313
0.993372
0.993248
0.993316
0.993187
0.993317
0.993252
0.993318
0.993253
0.993317
0.993279
0.993405
0.993279
0.993317
0.993231
0.993317
0.993291
0.993256
0.993258
0.993316
0.993314
0.993304
0.99325
0.993313
0.993271
0.993278
0.99323
0.993314
0.993305
0.99329
0.993304
0.993315
0.993304
0.993245
0.99327
0.993305
0.993317
0.993267
0.993267
0.993314
0.99323
0.993418
0.993281
0.993367
0.993289
0.993477
0.993477
0.993475
0.993475
0.993472
0.993482
0.993482
0.993248
0.993218
0.99327
0.993292
0.9933
0.993304
0.993269
0.993305
0.993306
0.993219
0.993304
0.993244
0.993333
0.993238
0.99328
0.993293
0.993305
0.993234
0.993281
0.993292
0.99328
0.993291
0.993303
0.993327
0.993292
0.993282
0.993243
0.993299
0.993304
0.9933
0.993293
0.993282
0.993267
0.9933
0.993268
0.993281
0.993293
0.99327
0.993281
0.993303
0.993252
0.993291
0.993219
0.993381
0.993248
0.993246
0.993282
0.993291
0.993258
0.993418
0.993279
0.993291
0.993403
0.993191
0.993192
0.993279
0.993301
0.99329
0.9933
0.993172
0.993171
0.993267
0.993271
0.993271
0.993423
0.993303
0.993251
0.993295
0.993297
0.993293
0.993418
0.993254
0.993301
0.993281
0.993281
0.993296
0.993292
0.993296
0.993295
0.993405
0.993371
0.993292
0.993281
0.99329
0.993297
0.993292
0.99329
0.99329
0.993383
0.993239
0.993299
0.993258
0.993254
0.993384
0.993279
0.99328
0.99323
0.993186
0.993186
0.993232
0.993304
0.993281
0.993385
0.993189
0.993171
0.993171
0.99342
0.993211
0.993201
0.993283
0.993237
0.993271
0.993261
0.993251
0.993251
0.993272
0.993417
0.993278
0.993261
0.993251
0.993411
0.993206
0.99341
0.993249
0.993264
0.993316
0.993274
0.993272
0.993224
0.993268
0.993224
0.993279
0.993253
0.993205
0.993205
0.993387
0.993259
0.993453
0.993454
0.993453
0.993256
0.993424
0.993454
0.993297
0.993452
0.993223
0.993223
0.993453
0.993286
0.993408
0.993457
0.993407
0.993458
0.993407
0.993211
0.993391
0.993423
0.993451
0.993273
0.993246
0.99341
0.993272
0.993451
0.993266
0.993286
0.993458
0.993411
0.993458
0.993419
0.993282
0.993219
0.993171
0.993172
0.993262
0.993171
0.993171
0.993172
0.993183
0.993388
0.993205
0.993233
0.993219
0.993264
0.993181
0.993181
0.993218
0.993419
0.993288
0.993427
0.993414
0.993406
0.99319
0.99319
0.993192
0.993192
0.99319
0.993176
0.993195
0.993182
0.993175
0.993192
0.993192
0.993174
0.993174
0.993181
0.993194
P_ext 1 563 float
0.0202768
0.0202718
0.0202725
0.0202719
0.02027
0.0202725
0.0202768
0.0202722
0.0202731
0.0202719
0.0202759
0.0202722
0.0202723
0.0202718
0.0202705
0.0202725
0.0202715
0.0202721
0.0202732
0.0202727
0.0202728
0.0202667
0.0202727
0.0202726
0.0202727
0.020272
0.0202757
0.0202724
0.0202745
0.0202684
0.0202724
0.0202745
0.0202758
0.020269
0.020269
0.020269
0.0202683
0.0202691
0.0202723
0.0202758
0.0202745
0.0202682
0.0202683
0.0202724
0.0202753
0.0202745
0.0202731
0.020273
0.0202725
0.0202747
0.0202746
0.0202741
0.02027
0.0202741
0.02027
0.0202754
0.0202689
0.0202741
0.020269
0.0202726
0.0202714
0.020271
0.0202756
0.0202711
0.020271
0.0202716
0.0202714
0.020272
0.0202727
0.0202717
0.02027
0.02027
0.0202745
0.0202714
0.0202726
0.0202759
0.0202706
0.0202716
0.020272
0.0202739
0.0202749
0.0202698
0.0202711
0.020275
0.0202745
0.0202754
0.0202724
0.0202715
0.0202753
0.0202669
0.0202741
0.0202669
0.0202704
0.0202716
0.0202741
0.0202746
0.020275
0.0202719
0.0202706
0.0202724
0.0202736
0.0202744
0.0202749
0.0202721
0.0202719
0.020272
0.0202711
0.0202724
0.020275
0.0202715
0.0202726
0.0202752
0.020275
0.0202721
0.020272
0.0202742
0.020269
0.020275
0.020269
0.0202741
0.0202733
0.0202706
0.0202717
0.0202714
0.0202714
0.0202704
0.0202692
0.0202719
0.020275
0.0202741
0.0202698
0.0202718
0.0202712
0.0202718
0.0202744
0.0202688
0.0202752
0.0202723
0.0202711
0.0202689
0.0202743
0.0202719
0.0202733
0.0202719
0.020275
0.020272
0.020272
0.0202725
0.0202725
0.0202737
0.0202729
0.0202717
0.0202744
0.0202723
0.0202719
0.0202718
0.0202718
0.0202744
0.0202743
0.0202723
0.020273
0.0202744
0.0202753
0.0202745
0.0202743
0.020272
0.0202743
0.0202744
0.0202745
0.0202743
0.0202704
0.0202741
0.0202746
0.0202717
0.0202741
0.0202711
0.0202704
0.0202721
0.02027
0.0202719
0.0202745
0.0202719
0.0202719
0.0202743
0.0202715
0.0202746
0.0202714
0.0202712
0.0202704
0.0202719
0.0202715
0.0202749
0.0202741
0.0202745
0.0202718
0.0202722
0.0202721
0.0202712
0.0202717
0.0202716
0.0202717
0.0202732
0.0202739
0.0202712
0.0202745
0.0202712
0.0202716
0.0202744
0.0202708
0.0202717
0.0202708
0.0202718
0.020272
0.0202711
0.0202736
0.0202718
0.0202739
0.0202712
0.0202714
0.0202714
0.0202715
0.0202715
0.0202715
0.0202715
0.0202718
0.0202706
0.0202706
0.0202705
0.0202705
0.02027
0.0202699
0.0202737
0.0202718
0.0202717
0.0202731
0.0202705
0.0202704
0.0202717
0.0202739
0.0202718
0.0202719
0.0202737
0.0202708
0.0202737
0.0202711
0.0202718
0.0202736
0.0202739
0.0202749
0.0202747
0.0202712
0.0202751
0.0202724
0.0202739
0.0202732
0.0202718
0.0202715
0.0202682
0.0202715
0.0202752
0.0202738
0.0202717
0.0202721
0.0202739
0.0202715
0.0202733
0.0202683
0.0202739
0.0202714
0.0202714
0.0202721
0.0202705
0.0202715
0.02027
0.0202723
0.0202752
0.0202754
0.0202702
0.0202728
0.0202721
0.0202737
0.0202707
0.0202717
0.0202738
0.0202717
0.0202736
0.020272
0.0202736
0.0202739
0.0202675
0.0202703
0.0202704
0.0202704
0.0202719
0.0202736
0.0202691
0.0202715
0.0202729
0.0202736
0.0202737
0.0202703
0.0202737
0.0202704
0.0202737
0.0202753
0.0202736
0.020275
0.0202711
0.0202737
0.0202675
0.0202737
0.0202712
0.0202737
0.0202713
0.0202737
0.0202725
0.0202758
0.0202725
0.0202737
0.0202702
0.0202737
0.0202729
0.0202714
0.0202717
0.0202737
0.0202736
0.0202733
0.0202711
0.0202736
0.0202721
0.0202724
0.0202701
0.0202736
0.0202733
0.0202728
0.0202733
0.0202736
0.0202733
0.0202709
0.0202722
0.0202733
0.0202737
0.020272
0.020272
0.0202736
0.0202701
0.0202761
0.0202725
0.0202749
0.0202728
0.0202773
0.0202773
0.0202773
0.0202773
0.0202772
0.0202774
0.0202774
0.020271
0.0202693
0.0202722
0.0202729
0.0202732
0.0202733
0.020272
0.0202733
0.0202733
0.0202693
0.0202733
0.0202708
0.0202741
0.0202706
0.0202725
0.0202729
0.0202733
0.0202702
0.0202725
0.0202729
0.0202725
0.0202729
0.0202733
0.0202739
0.0202729
0.0202726
0.0202708
0.0202731
0.0202733
0.0202732
0.020273
0.0202726
0.020272
0.0202732
0.020272
0.0202725
0.0202729
0.0202721
0.0202726
0.0202733
0.0202714
0.0202729
0.0202695
0.0202753
0.0202711
0.0202709
0.0202725
0.0202729
0.0202716
0.0202761
0.0202725
0.0202729
0.0202758
0.0202677
0.0202676
0.0202724
0.0202732
0.0202729
0.0202732
0.0202663
0.0202663
0.0202721
0.0202721
0.0202721
0.0202762
0.0202733
0.0202712
0.0202731
0.0202731
0.020273
0.0202761
0.0202714
0.0202732
0.0202725
0.0202725
0.0202731
0.0202729
0.0202731
0.020273
0.0202758
0.020275
0.0202729
0.0202725
0.0202729
0.0202731
0.0202729
0.0202728
0.0202729
0.0202753
0.0202706
0.0202731
0.0202716
0.0202714
0.0202753
0.0202725
0.0202726
0.02027
0.0202675
0.0202676
0.0202702
0.0202733
0.0202725
0.0202754
0.0202677
0.0202665
0.0202666
0.0202761
0.0202691
0.0202684
0.0202726
0.0202705
0.0202723
0.0202718
0.0202713
0.0202712
0.0202721
0.0202761
0.0202725
0.0202717
0.0202713
0.0202759
0.0202687
0.0202759
0.0202713
0.0202719
0.0202736
0.0202724
0.0202722
0.0202698
0.0202721
0.0202698
0.0202725
0.0202713
0.0202685
0.0202685
0.0202754
0.0202717
0.0202768
0.0202768
0.0202768
0.0202715
0.0202762
0.0202768
0.0202731
0.0202768
0.0202697
0.0202697
0.0202768
0.0202728
0.0202759
0.0202769
0.0202758
0.0202769
0.0202758
0.020269
0.0202755
0.0202762
0.0202768
0.0202722
0.020271
0.0202759
0.0202722
0.0202768
0.0202719
0.0202727
0.0202769
0.0202759
0.0202769
0.0202761
0.0202726
0.0202695
0.0202666
0.0202667
0.0202718
0.0202666
0.0202666
0.0202666
0.0202673
0.0202754
0.0202687
0.0202702
0.0202694
0.0202718
0.0202671
0.0202671
0.0202693
0.0202761
0.0202728
0.0202763
0.020276
0.0202758
0.0202678
0.0202678
0.0202679
0.0202679
0.0202678
0.0202667
0.0202679
0.020267
0.0202666
0.0202678
0.0202678
0.0202666
0.0202667
0.0202671
0.0202679
FIELD solute_flux_TPM 2
S_ext 3 563 float
-5.43287e-05 1.81756e-05 -1.07489e-18
2.34377e-06 4.51518e-06 3.34866e-19
-8.37857e-06 -6.66239e-06 -1.50114e-18
-2.76008e-06 2.78257e-06 1.34129e-18
1.52085e-05 -4.34283e-06 -2.03903e-18
1.82763e-06 -1.04621e-05 3.33567e-18
-5.34987e-05 -1.83967e-05 -2.15784e-18
-9.13428e-06 -6.81466e-06 2.84938e-18
1.46104e-05 6.16573e-07 -2.14891e-18
7.57373e-06 -2.65067e-06 -1.51946e-18
3.61622e-05 8.42035e-06 2.01956e-18
1.54188e-06 -1.13176e-05 4.35768e-18
9.0406e-06 7.3868e-06 -4.88938e-19
1.75552e-06 9.04982e-06 1.6402e-19
1.37884e-05 -2.01607e-06 -4.58342e-18
-1.06419e-05 -1.73518e-07 2.67098e-18
1.83234e-06 9.30902e-06 1.34452e-18
6.76099e-06 -1.61465e-06 -8.38842e-19
6.50519e-06 1.13442e-05 1.65333e-18
-9.69935e-06 1.22517e-06 9.69325e-22
-2.35701e-06 -1.39365e-05 -1.82105e-18
2.86306e-05 4.03951e-05 -4.87083e-21
1.04071e-05 1.06095e-06 -1.49472e-18
7.43489e-06 -7.44263e-06 -4.43002e-21
-9.84227e-06 -2.17366e-06 8.29659e-19
-4.38796e-07 -7.30821e-06 6.7655e-19
4.14995e-05 -3.25036e-06 1.88746e-18
9.33214e-06 6.77431e-06 -3.24444e-19
-1.6411e-05 -1.33205e-05 -2.9001e-18
3.24498e-05 -8.58479e-06 -3.27735e-19
-1.08157e-05 -3.96757e-06 1.84075e-18
3.50146e-06 -2.10406e-05 -3.87093e-18
3.11373e-05 -3.17398e-05 -6.36175e-19
-3.45653e-06 -2.77324e-05 1.38451e-18
-1.95883e-05 2.43908e-05 3.40839e-19
-2.57438e-05 -1.08626e-05 6.2211e-18
2.15078e-05 2.81717e-05 -3.50831e-19
-2.96161e-05 -5.79483e-06 -3.12367e-18
9.56064e-06 -7.28848e-06 8.31597e-19
3.04191e-05 3.30739e-05 1.57112e-18
2.11852e-05 -9.27617e-06 7.04355e-21
2.19365e-05 -2.71148e-05 -6.94151e-19
-1.25205e-05 -3.25346e-05 5.13866e-19
-1.03675e-05 4.17916e-06 -4.99575e-19
1.99144e-05 -1.94795e-05 -9.50016e-19
-1.96503e-05 6.98712e-06 -2.09565e-18
-2.69523e-06 -1.3292e-05 -1.97863e-18
5.17978e-06 1.32566e-05 2.9898e-18
-1.07017e-05 3.87793e-06 -2.50117e-18
-1.18156e-05 1.8578e-05 1.92473e-18
2.13786e-05 1.00743e-05 1.45783e-18
1.93147e-05 -6.70035e-06 6.60202e-19
-1.04022e-05 1.04295e-05 3.08042e-18
-1.5291e-05 -1.32872e-05 3.28341e-19
-1.4019e-05 -3.42648e-06 -1.38055e-18
-2.90381e-05 1.72906e-05 -3.13231e-19
-1.93916e-05 -2.51009e-05 -3.12283e-18
4.04093e-06 -1.99968e-05 -2.93303e-18
-3.14415e-05 4.28493e-06 2.60083e-18
3.99807e-06 9.01877e-06 2.83506e-18
-3.65895e-06 -5.40449e-06 -1.17377e-18
-4.31262e-06 -1.18609e-05 1.53456e-18
3.74946e-05 1.63422e-05 7.88582e-19
6.14887e-06 1.19737e-05 3.89952e-18
8.16774e-06 -9.54083e-06 2.04258e-18
-1.11082e-06 -1.36983e-05 -4.3925e-18
3.07394e-06 -5.81113e-06 4.72577e-18
-6.60209e-06 -3.65649e-06 1.67409e-19
-6.98158e-06 7.77431e-06 9.98674e-19
1.69532e-06 -2.77308e-06 1.3376e-18
-9.97174e-06 -1.04915e-05 8.55612e-19
-1.41388e-05 3.43512e-06 5.31261e-18
-2.51632e-06 2.2415e-05 -1.44894e-18
-1.17808e-05 7.05228e-06 3.38767e-19
-5.96588e-06 9.52369e-06 4.67337e-18
-3.87373e-05 4.81478e-06 -1.71988e-18
5.22388e-06 -1.43266e-05 5.1558e-19
-1.24515e-05 -5.8048e-06 3.37938e-18
1.27289e-06 7.65991e-06 1.01154e-18
1.73777e-05 3.33816e-06 5.63126e-21
2.24274e-05 -1.9118e-05 -4.8656e-19
1.47561e-05 1.35892e-05 1.02813e-18
7.98177e-06 -1.93824e-06 6.90351e-19
-2.08825e-05 1.53078e-05 2.5654e-18
2.49352e-05 3.19455e-06 1.67116e-19
-3.59986e-06 3.20685e-05 -1.74119e-18
-1.16012e-06 -1.10577e-05 -6.59334e-19
1.20994e-05 6.5772e-06 2.87824e-18
1.91526e-05 2.00605e-05 -4.7549e-19
4.25409e-05 2.64448e-05 1.94874e-18
-3.56555e-06 2.00959e-05 1.46382e-18
4.44344e-05 -2.49707e-05 -2.13189e-18
-1.80024e-05 3.48829e-06 1.70147e-18
1.19057e-05 7.34869e-06 -3.3225e-19
-1.92013e-05 6.38558e-06 1.78766e-18
1.08349e-05 1.88035e-05 -1.60994e-19
6.44947e-06 -2.89391e-05 -1.11774e-18
1.2821e-06 7.65528e-06 -2.0067e-18
-9.72667e-06 -1.16586e-05 3.93082e-18
2.01491e-06 1.14825e-05 2.67606e-18
1.74041e-05 3.47553e-06 -2.45472e-18
-1.01352e-05 2.15436e-05 8.06192e-22
2.6645e-05 -8.88109e-06 -2.07611e-18
-2.50315e-06 4.86846e-06 8.34208e-19
6.63603e-06 3.87556e-06 -9.93654e-19
-1.48513e-06 -7.43111e-06 -1.60782e-19
2.15245e-06 -1.27457e-05 1.52931e-18
1.1572e-05 2.57699e-06 1.7215e-19
-5.39288e-06 2.67742e-05 1.56979e-19
-6.52295e-06 1.3139e-07 -6.79418e-19
6.17617e-06 7.83097e-06 -1.49463e-18
-1.76983e-06 -2.72951e-05 -4.12707e-18
2.76357e-05 8.57572e-06 4.85586e-19
2.96209e-06 -4.90064e-06 1.68285e-19
-7.28986e-06 -2.33979e-06 -1.66813e-19
-1.89699e-05 -8.06528e-06 4.7237e-18
1.06457e-05 2.77683e-05 1.21659e-18
-2.79215e-05 -9.94584e-06 -3.04116e-18
1.07944e-05 -2.78422e-05 1.71222e-18
-2.47141e-06 -2.08276e-05 6.53506e-19
1.44419e-05 3.98475e-07 3.30392e-19
-4.76555e-06 1.22355e-05 -4.41925e-18
-1.04675e-06 2.60189e-06 1.8318e-19
-2.44631e-06 -1.09329e-05 -5.069e-19
3.49959e-06 -5.61583e-06 3.02061e-18
6.2111e-06 1.04955e-05 6.77809e-19
2.23518e-05 7.29399e-06 3.4473e-19
5.78418e-06 -4.8971e-06 1.8491e-18
-5.5334e-06 -2.9291e-05 -1.76026e-18
1.68174e-05 -1.24065e-05 -3.19711e-19
3.30611e-06 1.84436e-05 -5.19799e-19
-1.83938e-06 -1.87317e-06 -1.65116e-19
-5.71201e-06 -5.49427e-06 1.17835e-18
-3.1596e-06 5.29779e-08 2.69967e-18
-1.48997e-05 1.83974e-05 8.09456e-19
1.29187e-05 -2.50181e-05 5.22955e-19
-1.74158e-05 2.7524e-05 -5.751e-21
-1.0701e-05 6.22652e-06 -2.00861e-18
1.6726e-06 8.17765e-06 -1.17119e-18
-1.51777e-05 -2.36788e-05 5.91089e-21
9.03597e-06 2.19045e-05 -3.22632e-19
1.16621e-05 6.14948e-06 1.8135e-19
1.50491e-05 -5.67551e-06 9.92574e-19
-8.18714e-07 -7.42099e-06 2.1862e-18
-2.1928e-05 -2.0167e-05 -3.19897e-18
-1.80694e-06 7.42875e-06 1.33839e-18
1.14711e-05 6.76389e-06 3.19609e-18
1.25207e-05 -5.89841e-06 2.00531e-18
5.48467e-06 -9.43115e-06 2.3336e-18
1.60787e-05 -7.13208e-06 -1.96171e-18
1.25905e-05 -5.96177e-06 8.31304e-19
3.1467e-06 1.87144e-07 2.85867e-18
1.68836e-05 1.33661e-05 6.52621e-19
-1.78132e-06 -1.1151e-05 -1.83827e-18
-6.90365e-06 -2.8956e-06 1.72102e-19
7.49518e-07 -2.55308e-06 5.21731e-18
-2.10113e-06 1.04412e-05 -1.67869e-18
-2.24705e-05 1.77292e-06 -2.42795e-18
-7.95026e-06 -2.15546e-05 -3.73069e-18
-5.18871e-06 6.39131e-06 6.18853e-18
8.93748e-06 1.09245e-05 1.83202e-18
1.74213e-05 -1.24235e-05 -8.07811e-19
-2.39159e-05 -1.29637e-05 7.95781e-19
1.1324e-05 -1.81591e-05 -3.21671e-18
1.49273e-05 -1.7883e-05 8.09636e-19
-7.16622e-06 2.51132e-06 8.43837e-19
-1.2911e-05 -1.85834e-05 -3.89531e-18
-2.24528e-05 -3.7325e-06 -1.6323e-19
-2.70963e-06 -2.06658e-05 8.05035e-19
1.0025e-05 -2.075e-05 -4.22321e-18
-6.06078e-06 -1.73729e-05 5.06871e-19
2.87739e-06 2.05055e-05 -1.62029e-18
-1.04292e-05 -1.84729e-05 -1.57072e-19
1.97097e-06 -1.0728e-05 4.38598e-18
-1.60827e-05 1.17116e-05 9.76934e-19
-9.91723e-06 -8.01278e-06 1.02148e-18
-1.81209e-05 -3.3801e-06 -3.40839e-19
1.04245e-05 -6.11628e-06 1.65418e-19
-2.84592e-06 1.58711e-05 -1.02535e-18
8.19318e-06 -6.1671e-06 5.01179e-19
-1.91787e-05 -8.40937e-06 -1.59105e-19
-5.82061e-06 -4.86959e-06 4.37317e-18
6.06532e-06 4.94669e-06 -1.50092e-18
1.40279e-05 1.88413e-05 1.6719e-19
-1.14956e-05 -7.1168e-06 5.09915e-19
-2.10372e-05 -5.08028e-07 3.26136e-19
-1.07992e-05 -3.26071e-06 3.55286e-18
-3.0261e-06 -1.09457e-05 -1.86668e-18
1.18652e-05 1.42842e-05 -2.55488e-18
-7.24067e-06 3.81988e-06 1.00598e-18
4.4505e-07 -1.35524e-05 -3.41776e-19
-2.70274e-05 6.92735e-06 -1.76044e-18
1.6363e-05 1.33174e-05 8.16468e-19
2.36861e-06 2.15174e-05 1.61282e-18
-1.58766e-06 2.51876e-06 -4.99006e-19
-5.91825e-06 1.65808e-07 3.01715e-18
2.9054e-06 5.10058e-06 -3.00497e-18
-7.7382e-06 2.27898e-06 3.3929e-18
-1.34124e-06 -2.47514e-06 2.01987e-18
1.11514e-06 1.36869e-05 2.19385e-18
3.01548e-06 2.56269e-07 -1.50037e-18
-1.27281e-05 3.0724e-06 -3.11587e-21
-1.1358e-05 1.25482e-05 3.26782e-19
-2.03606e-06 7.66875e-06 -1.00815e-18
-1.90315e-05 1.18547e-05 2.90158e-18
-6.19912e-06 5.92895e-06 8.49985e-19
1.15508e-05 -7.81275e-06 -1.52622e-18
2.40779e-05 -2.39131e-06 6.48002e-19
-1.40094e-05 7.43904e-06 -2.20815e-18
1.47733e-06 2.99752e-06 1.71139e-19
1.4631e-05 -2.84548e-06 -2.38919e-18
-1.13636e-05 6.83248e-06 -2.69023e-18
-6.47433e-06 3.64678e-06 -1.33871e-18
7.97014e-06 2.56462e-06 1.68473e-18
1.44021e-05 -8.92916e-06 -3.2655e-19
-1.14419e-05 6.50696e-06 2.5063e-22
-1.6252e-05 -3.4167e-06 -4.88813e-19
-1.10487e-05 -2.84733e-06 2.03662e-18
6.6735e-06 5.25934e-08 2.35345e-18
6.83729e-06 8.53885e-08 -4.86617e-18
2.91251e-06 5.49665e-06 -5.09317e-19
3.21168e-06 -5.8144e-06 2.19547e-18
-3.30362e-06 5.59554e-06 8.51027e-19
-3.46197e-06 -5.72653e-06 -3.29791e-19
6.59372e-06 -4.97481e-06 1.84232e-18
-1.34982e-05 2.16032e-06 2.38603e-18
-1.33465e-05 -2.20308e-06 -2.05239e-18
-8.52743e-06 1.05469e-05 -1.71901e-19
-8.5758e-06 -1.05878e-05 -3.07076e-18
4.99631e-06 -1.33842e-05 -1.04761e-18
4.8137e-06 1.32698e-05 -2.73831e-18
9.70659e-07 1.69739e-05 -3.26251e-19
7.52433e-06 -2.02554e-06 4.9972e-19
1.62684e-06 -2.53262e-06 2.6857e-18
-1.39008e-05 9.32366e-07 8.25738e-19
5.1588e-06 -1.31687e-05 2.53639e-18
4.88795e-06 1.32162e-05 5.24148e-19
3.18405e-06 -5.92097e-08 4.96809e-19
5.83537e-06 1.60508e-05 1.14692e-18
-1.48275e-06 -2.63964e-06 1.8178e-19
1.56227e-06 -7.45597e-06 2.68926e-18
-1.45851e-05 -7.82453e-06 -1.61367e-19
-1.41403e-05 -7.57106e-06 1.19322e-18
-1.42777e-05 8.8268e-06 -9.86565e-19
2.158e-06 -8.28324e-06 -3.52139e-19
-1.05352e-06 2.21297e-06 8.37201e-19
-4.71892e-07 -1.66868e-05 -1.47699e-18
-5.13558e-06 -1.58855e-05 2.12872e-18
2.14651e-05 1.99969e-05 8.03089e-19
2.34232e-05 -1.2116e-06 2.41326e-18
-8.43092e-06 -2.4437e-06 -1.74023e-19
-1.49601e-05 -2.66388e-05 -4.15365e-18
5.49937e-06 9.03441e-06 -1.61819e-19
-1.63815e-05 1.93301e-06 1.63237e-18
1.32815e-05 3.8059e-06 1.31168e-21
-2.97991e-06 -1.25107e-08 1.18395e-18
-3.07285e-06 -5.56701e-06 3.33107e-19
-5.43712e-06 -2.58681e-05 8.75415e-19
-6.43908e-06 -3.22176e-08 3.03734e-18
-3.10961e-05 -1.16725e-06 -4.79586e-18
1.13537e-05 -1.26209e-05 -1.6385e-18
1.65583e-06 2.62474e-06 -1.82963e-18
-7.50517e-08 -1.15279e-05 -2.18375e-18
-6.52043e-06 1.56584e-05 1.30357e-18
-2.88968e-06 5.71049e-06 -2.00777e-18
1.35806e-05 -8.97599e-06 2.80253e-18
-2.5117e-05 -8.20601e-06 1.73569e-18
-1.00124e-05 -1.32151e-05 -8.15974e-19
3.33122e-06 5.62543e-06 1.18442e-18
1.11279e-05 3.36412e-06 -3.02722e-18
-3.13323e-06 -4.79713e-06 -2.17141e-18
1.33298e-05 2.42519e-06 1.53079e-18
1.21687e-05 -6.53328e-06 -8.48023e-19
-2.50499e-07 1.79846e-05 3.59827e-18
5.52442e-06 -8.98551e-06 -3.36702e-19
3.21352e-05 1.37479e-06 -6.31798e-19
-2.73003e-05 7.11386e-06 -4.75695e-18
1.53765e-05 7.6813e-06 3.45807e-21
-4.2369e-06 -1.11961e-05 3.33436e-18
-1.00688e-05 -5.63008e-06 6.74202e-19
1.89623e-05 -1.56965e-07 1.66649e-19
-4.78733e-07 -1.60769e-05 3.40196e-19
-8.26221e-06 -7.17119e-06 -2.5248e-18
6.66934e-06 -1.54691e-05 -2.77769e-18
-3.62489e-07 1.35492e-05 3.03726e-18
5.13424e-06 1.70639e-05 2.46198e-18
1.14933e-05 -6.59729e-06 -2.18428e-18
-1.23633e-05 1.24582e-05 -2.62985e-18
1.08333e-05 1.32057e-05 -1.78956e-18
-4.32777e-05 1.03243e-05 -1.58498e-18
-6.7358e-06 1.72482e-05 1.01857e-18
8.3157e-06 -1.01059e-05 1.53971e-18
-4.63848e-06 -1.21815e-05 7.66813e-18
-7.82626e-06 2.91879e-06 1.00702e-18
-1.67602e-05 -4.56932e-06 -1.48193e-18
-4.46165e-06 2.60707e-05 2.41003e-18
-8.28108e-06 7.88858e-06 1.7702e-19
1.37389e-05 -3.00716e-06 -4.15078e-18
-4.5105e-06 -1.68036e-05 -4.85922e-19
-9.72754e-06 1.54842e-05 6.53518e-19
-1.44194e-05 8.30498e-06 -1.75804e-19
-1.33992e-05 -9.76146e-06 1.15008e-18
1.21117e-05 -1.39556e-05 -1.8148e-19
-1.77956e-05 -9.43551e-07 1.97263e-18
7.85028e-06 -2.69076e-05 -5.69899e-18
1.27623e-05 -1.24397e-05 1.31083e-18
1.60712e-05 2.82366e-05 3.24479e-19
1.29243e-06 1.31352e-05 4.74222e-18
1.90384e-06 -1.66732e-05 -1.69386e-19
-2.81548e-05 3.30479e-05 -2.27533e-18
-8.29839e-06 -1.58307e-05 8.23238e-19
1.09981e-05 -4.26392e-06 3.3557e-19
-1.67495e-06 1.68071e-05 9.83209e-19
8.60614e-06 -7.98053e-06 5.0201e-19
9.08523e-06 1.59374e-05 -8.14397e-19
1.14076e-05 -9.64704e-07 6.67241e-19
1.40705e-05 -4.12075e-05 -4.42309e-18
-3.86177e-06 -8.41089e-06 5.04859e-19
-1.50759e-05 6.4774e-06 -3.11355e-18
-1.32902e-05 1.2418e-05 -1.87701e-18
1.42156e-05 9.61685e-06 4.97911e-19
1.23479e-05 -7.14592e-06 -1.6766e-19
9.94746e-06 8.40681e-06 -2.70228e-18
-3.61298e-06 -3.1831e-09 5.04032e-19
1.00909e-05 -1.51497e-05 3.25283e-19
-1.10752e-05 -1.31918e-05 -4.91221e-19
1.48774e-05 6.46063e-06 6.72462e-19
8.56159e-06 -8.04207e-06 -6.88697e-19
6.21632e-06 -1.6277e-05 8.16196e-19
1.10618e-05 -4.66698e-06 8.34956e-19
-1.03372e-05 -4.92058e-06 -2.67112e-18
8.75924e-07 -1.74028e-05 -2.74539e-18
-1.69071e-05 2.90137e-06 -9.87409e-19
1.49835e-06 1.60538e-05 -1.32265e-18
1.36068e-05 4.3909e-06 7.46444e-21
-1.41184e-05 -6.95288e-06 2.64078e-18
-5.90014e-06 1.66767e-05 -2.46153e-18
-9.96406e-07 -1.58261e-05 -4.98012e-19
1.30267e-05 7.9071e-06 -1.18408e-18
-1.14942e-06 1.18885e-05 -2.018e-18
-1.31354e-05 8.84023e-06 1.32414e-18
1.55253e-05 7.51469e-06 -1.3065e-18
-1.12005e-05 -6.57538e-06 5.03958e-19
9.35285e-08 -1.30471e-05 2.19031e-18
1.20923e-05 1.31254e-05 -4.8585e-19
-1.46208e-05 -9.44832e-06 8.57893e-19
3.18072e-05 -2.27601e-05 4.17569e-18
1.1891e-05 -7.16021e-06 -3.00776e-18
5.67527e-06 2.81164e-05 -1.27406e-18
1.12866e-05 -9.01492e-06 1.49352e-18
-1.48114e-05 5.71169e-05 -3.12365e-18
-1.48885e-05 -5.65734e-05 -2.99493e-19
3.71788e-05 4.86025e-05 8.58071e-22
3.67314e-05 -4.85906e-05 2.82085e-18
6.07067e-05 -2.96902e-08 4.89567e-18
-5.22388e-05 2.11639e-05 -4.89348e-18
-5.1391e-05 -2.1385e-05 -4.41746e-19
8.18161e-06 7.8956e-06 -3.7219e-18
1.97706e-05 1.47173e-05 1.75968e-19
7.60273e-06 2.20704e-06 -1.66873e-18
1.24931e-05 6.4283e-06 -4.63803e-18
3.25435e-06 1.32614e-05 4.28831e-18
-1.22787e-05 -9.67926e-06 1.31791e-18
1.13833e-05 -6.75507e-06 -8.36313e-19
1.31137e-05 9.57205e-06 -8.18303e-19
-2.10352e-06 1.59393e-05 3.25909e-19
1.98671e-05 -1.35137e-05 -8.71189e-19
2.42979e-06 -1.55384e-05 -1.67514e-19
1.47139e-05 3.40854e-06 -3.30811e-19
1.96544e-05 7.29445e-06 1.14424e-18
9.43222e-06 9.36925e-06 8.42108e-19
1.0538e-05 4.36116e-06 -3.33011e-18
-1.20943e-05 7.12217e-06 2.82377e-18
-1.46774e-05 5.87031e-06 -6.5466e-19
1.54406e-05 -7.53411e-06 -4.97668e-18
-1.19287e-05 -6.53647e-06 2.3379e-18
-1.21136e-05 -6.85831e-06 -2.49122e-18
-2.18014e-07 -1.36337e-05 -2.84145e-18
-9.86627e-08 -1.38585e-05 -1.82095e-18
-1.30982e-05 -6.57909e-07 1.31924e-18
1.76384e-05 -2.67598e-06 3.59207e-18
1.1967e-05 7.4998e-06 1.75053e-19
-1.17075e-05 7.10514e-06 2.50136e-18
-1.01239e-05 1.10101e-05 1.5374e-18
1.05713e-05 -9.09807e-06 -6.62648e-19
-7.26262e-06 1.13648e-05 -9.90732e-19
-9.30749e-06 -9.6853e-06 3.30661e-19
-8.10426e-07 1.38758e-05 -1.33008e-18
-8.45231e-07 1.37643e-05 -5.03124e-19
3.42672e-08 -1.30511e-05 -5.02036e-19
4.00937e-06 -1.29816e-05 -4.99365e-19
-1.12553e-05 -6.48144e-06 -2.51784e-18
1.0337e-05 -3.66055e-06 -1.33461e-18
4.18303e-07 1.40995e-05 -3.38515e-19
1.7045e-07 1.21562e-05 -2.34565e-18
-1.57069e-06 1.10336e-05 -1.33906e-18
1.44745e-05 -3.66123e-06 -1.98018e-18
-1.09638e-05 3.49832e-06 -5.08588e-19
2.69281e-06 1.41128e-05 2.32192e-18
-2.172e-05 8.51952e-06 -2.76321e-18
6.16015e-06 2.74914e-05 1.58884e-18
-1.12713e-05 2.9794e-06 -1.86868e-18
1.32151e-05 -7.81842e-06 -3.40352e-18
5.77141e-07 1.37965e-05 3.33402e-18
-1.3324e-05 4.37104e-06 -1.82526e-18
1.61899e-06 -1.07024e-05 -1.17582e-18
5.97677e-07 -3.80974e-05 -3.72962e-18
1.31198e-06 1.15061e-05 3.16373e-18
-1.11065e-05 9.08541e-06 6.64923e-19
1.13398e-05 4.17399e-05 -4.72897e-19
3.15156e-05 2.61367e-05 2.80878e-18
3.61272e-05 -2.47183e-05 -4.74337e-18
9.83879e-06 -6.74187e-06 -1.50521e-18
-1.0348e-05 9.12482e-06 -2.1474e-18
-1.31533e-05 -5.17043e-06 -2.32566e-18
-1.27953e-05 -4.41681e-06 -6.77382e-18
4.44161e-05 -1.22043e-05 -5.51086e-18
4.5307e-05 9.52673e-06 3.03363e-18
7.23224e-06 2.52374e-06 -3.5249e-18
4.72495e-07 1.28842e-05 1.50802e-18
4.90237e-08 1.28756e-05 2.67672e-18
-3.17377e-05 -2.32232e-05 -3.41167e-18
7.51641e-06 -1.13217e-05 1.64507e-18
7.83823e-06 8.35636e-06 -1.17802e-18
-1.39038e-05 -2.21846e-06 -1.82549e-18
-9.19703e-06 1.11623e-05 2.14969e-18
-1.23313e-05 5.9372e-06 -1.81924e-18
3.14109e-05 2.25313e-05 1.70453e-18
1.05572e-05 4.67545e-06 -2.18629e-18
-3.70536e-06 1.3068e-05 -2.47649e-18
-1.11259e-05 -7.63062e-06 3.00737e-18
1.18974e-06 -1.34927e-05 1.66528e-18
-5.85406e-06 -1.25646e-05 -1.31932e-18
-1.12623e-05 -7.66316e-06 3.65384e-18
6.95128e-06 -1.24318e-05 2.6468e-18
9.33055e-06 -1.11646e-05 -3.49184e-18
-1.93948e-06 -3.98665e-05 -4.86486e-18
1.7002e-05 -2.69684e-05 -4.15849e-18
1.14266e-06 -1.36468e-05 2.31838e-18
1.19196e-05 7.47614e-06 1.78956e-19
-9.47716e-06 -9.6686e-06 9.98576e-19
-6.45348e-06 1.28358e-05 -1.68234e-19
-3.31159e-06 1.3734e-05 -1.33677e-18
1.10004e-05 9.35778e-06 6.7351e-19
3.959e-06 -1.30355e-05 1.82483e-18
-9.12869e-06 -2.61412e-05 -2.22188e-18
-1.35751e-06 1.66058e-05 2.3828e-18
9.75224e-06 9.53592e-06 -1.80626e-18
-8.49727e-06 -6.71236e-06 1.86076e-18
-8.91138e-06 6.98186e-06 -1.68446e-18
2.92563e-05 -1.25753e-05 6.31904e-19
4.99588e-06 -8.81081e-06 6.63203e-19
-5.47029e-06 -8.22934e-06 1.83727e-18
1.43522e-05 4.37478e-06 2.05831e-18
8.81997e-06 -3.18204e-05 5.2988e-19
-2.31524e-05 -2.35284e-05 1.04976e-18
1.56514e-05 4.10583e-06 8.6449e-19
-6.1373e-06 -1.19016e-05 -2.9618e-18
1.23932e-05 6.29595e-06 8.47661e-19
-1.88307e-05 -2.09082e-05 -1.575e-18
7.14254e-06 3.23553e-05 5.23017e-19
3.13451e-05 -4.04823e-05 1.81843e-19
-1.9388e-05 -4.73768e-05 5.66734e-18
1.77523e-05 -3.47049e-05 -1.39797e-18
-8.42341e-06 2.89095e-05 -4.49784e-18
-4.7973e-06 2.56062e-05 1.62913e-19
-1.22524e-05 5.85933e-06 1.83138e-18
4.00236e-06 1.60551e-05 2.90544e-18
-1.585e-06 8.27859e-06 3.34376e-18
6.73703e-06 2.1536e-06 1.34631e-18
-2.12502e-06 1.07197e-05 -3.35338e-19
-1.62333e-07 1.38652e-05 3.38627e-18
1.10723e-05 6.45012e-06 1.17935e-18
5.53589e-07 3.79172e-05 -2.33283e-18
-9.65966e-06 6.97399e-06 1.50062e-18
1.06424e-05 -4.11539e-06 -5.08979e-19
1.13434e-05 -2.95482e-06 1.17857e-18
-3.8867e-05 -5.58269e-06 -1.56284e-18
-2.2954e-05 1.09215e-05 -3.47372e-18
-2.82059e-05 -3.34436e-05 -2.05061e-18
5.72741e-06 5.49922e-06 3.88668e-18
9.44587e-06 4.86917e-06 -1.67521e-18
1.7665e-05 -2.8156e-06 2.46177e-18
-5.31105e-06 -8.64614e-06 4.35069e-18
1.14277e-05 5.61032e-06 -4.18727e-18
4.88269e-06 -1.9945e-05 2.40706e-18
-9.05116e-06 6.6494e-06 4.98358e-19
-1.48249e-05 -1.41992e-05 2.92437e-18
-3.83037e-06 1.06633e-05 1.83071e-18
-2.19607e-06 1.3663e-05 6.74333e-19
2.29278e-05 1.42403e-05 2.08241e-18
2.44444e-05 -1.29728e-05 -1.5777e-18
-2.71437e-05 -7.31036e-06 -3.79495e-18
5.07173e-06 5.12867e-06 1.74005e-19
-3.18234e-06 6.63011e-05 -3.24801e-18
-1.57596e-08 -6.81042e-05 -2.00383e-18
3.35669e-05 5.74449e-05 2.78033e-18
-1.26278e-05 5.52088e-06 -1.18603e-18
-1.80058e-05 3.63565e-05 -4.96579e-18
3.37731e-05 -5.54455e-05 3.70694e-18
-7.66957e-06 -1.18715e-05 -2.80793e-18
5.13526e-05 4.47093e-05 2.94016e-18
1.59621e-05 -1.188e-05 -1.71654e-18
-2.32494e-06 -1.97534e-05 6.54376e-18
5.38066e-05 -4.37179e-05 4.94339e-18
-4.45543e-06 9.48174e-06 -1.83176e-18
-3.44747e-05 -2.19014e-05 -2.03983e-18
-2.83972e-05 -5.92915e-05 -3.08811e-18
-1.60763e-05 -3.75247e-05 -5.96388e-18
-2.91942e-05 6.0263e-05 -3.85599e-18
-6.91293e-06 4.16972e-05 -3.29588e-18
1.06879e-05 2.48309e-05 8.65085e-19
-1.8501e-05 2.37744e-05 2.84075e-18
-1.72293e-05 -3.53926e-05 -4.17987e-18
6.60726e-05 1.15924e-05 -7.70333e-19
-1.1132e-05 7.00193e-06 -6.74821e-19
-3.93075e-06 1.07829e-05 1.86545e-18
-3.26956e-05 2.35476e-05 -3.45804e-18
-1.134e-05 6.5085e-06 -2.18128e-18
6.54218e-05 -1.0335e-05 1.07666e-18
-1.01102e-05 5.08717e-06 -3.38124e-19
4.75928e-06 -9.5516e-06 4.94715e-19
-5.08011e-05 -3.8707e-05 -4.62177e-19
-1.73196e-05 3.75589e-05 -1.49176e-19
-5.20119e-05 3.84302e-05 -3.38148e-18
1.57016e-05 3.45758e-05 3.09324e-18
-9.70093e-06 6.89662e-06 1.33244e-18
-1.35848e-05 1.63156e-05 -5.17526e-18
-2.41715e-05 3.03548e-05 -2.82995e-18
-3.78985e-05 -4.88919e-06 -7.60136e-18
-6.31867e-07 1.07449e-05 8.41262e-19
-2.56023e-05 -3.04824e-05 -8.83969e-19
-3.92111e-05 6.93702e-06 2.1203e-18
-1.49343e-05 3.46441e-05 -7.00696e-19
-1.15284e-05 4.61243e-05 -5.3245e-19
-1.20728e-05 2.67626e-05 -3.00112e-18
-2.23739e-05 1.80265e-05 -8.6645e-19
1.64449e-05 -4.05151e-06 2.04121e-18
2.56915e-05 -1.39285e-06 -1.38607e-18
8.98026e-06 5.4536e-06 -1.67719e-18
-8.09962e-06 -5.30667e-05 -4.392e-18
-5.00165e-05 -1.95059e-05 2.98563e-18
2.50177e-05 3.40748e-07 -3.42499e-19
3.86755e-05 -7.46643e-06 1.69903e-18
-6.93291e-06 -8.8022e-06 1.7261e-19
-3.35609e-05 2.35936e-05 1.3947e-18
-3.00768e-05 3.44515e-05 -5.83125e-18
4.08839e-05 -1.47315e-05 1.88954e-18
-1.86894e-05 -3.16715e-05 -3.49281e-18
-1.90239e-05 3.14267e-05 -3.14105e-18
-3.6914e-05 -1.30526e-06 -4.19151e-18
-1.6791e-05 3.30186e-05 -1.21943e-18
-3.67961e-05 3.79713e-07 2.78858e-18
4.57613e-05 1.63886e-05 -1.94287e-18
3.6944e-05 1.35693e-06 -3.49988e-19
3.47281e-05 -1.77929e-05 -1.9382e-18
1.01257e-05 -4.88146e-05 1.65358e-19
1.8359e-05 -3.19772e-05 3.36994e-19
1.82344e-05 3.19737e-05 1.57713e-18
9.91602e-06 4.76962e-05 1.42165e-18
4.99762e-05 -1.40921e-05 -2.46642e-18
3.20429e-05 1.58714e-05 2.12197e-18
3.08032e-05 8.41675e-06 -2.25633e-18
P_ext 3 563 float
-1.09552e-06 3.70423e-07 1.45066e-20
1.03968e-09 4.05773e-08 4.96672e-20
-1.00951e-07 -9.49345e-08 3.61744e-20
-3.19343e-08 2.94778e-08 -1.03364e-20
2.78636e-08 5.3171e-10 -7.71796e-20
3.32242e-08 -1.3484e-07 -1.52164e-20
-1.07861e-06 -3.74905e-07 -2.63417e-20
-7.91458e-08 -8.97835e-08 5.2452e-20
2.20158e-07 3.89992e-09 5.90701e-20
8.03806e-08 -7.55174e-09 -2.64194e-20
7.131e-07 1.67139e-07 1.22785e-20
3.91947e-08 -1.14742e-07 8.24478e-21
8.9825e-08 1.06921e-07 -1.54399e-20
-9.25176e-09 8.37599e-08 4.43756e-20
2.51659e-08 9.3212e-09 -1.64332e-19
-1.40739e-07 -2.30391e-09 2.36872e-20
-1.75823e-08 5.51975e-08 6.82149e-20
8.48402e-08 -1.28016e-08 5.97513e-20
9.74466e-08 1.73787e-07 4.64903e-20
-1.30739e-07 1.31846e-08 7.75775e-21
-4.90805e-08 -1.85178e-07 -2.32506e-20
1.61792e-09 3.37962e-10 -4.68488e-20
1.44803e-07 1.17893e-08 2.83855e-20
9.21876e-08 -1.0644e-07 -4.66467e-20
-1.33554e-07 -2.15063e-08 3.36428e-20
-2.51755e-08 -7.30871e-08 -1.54939e-20
8.19809e-07 -6.70642e-08 2.70659e-20
1.00447e-07 8.46826e-08 -3.35834e-20
-2.99964e-07 -2.38274e-07 -3.03565e-20
1.76289e-08 3.3155e-09 -1.31598e-20
-1.341e-07 -2.38825e-08 -3.62407e-20
5.86255e-08 -3.81487e-07 7.01062e-21
6.16051e-07 -6.30914e-07 1.45578e-20
1.3131e-09 -2.89359e-08 1.66811e-19
-7.78757e-09 2.22534e-08 -1.34864e-19
-2.41541e-08 -1.59131e-08 1.66688e-20
3.19997e-09 1.59773e-08 1.34184e-20
-2.44224e-08 4.15846e-09 4.53535e-20
9.70017e-08 -1.05497e-07 -5.20084e-20
6.01149e-07 6.57504e-07 4.41552e-20
3.84002e-07 -1.73977e-07 5.78007e-20
5.94289e-09 -1.46312e-08 1.1903e-19
-9.61572e-09 -1.28156e-08 3.23467e-20
-1.33215e-07 2.73651e-08 3.38111e-20
3.80969e-07 -3.74129e-07 4.6591e-20
-3.54987e-07 1.27777e-07 -1.5144e-20
-4.48507e-08 -1.95718e-07 -6.17565e-20
8.09266e-08 1.96583e-07 8.80578e-20
-1.27781e-07 3.34149e-08 -5.46649e-20
-2.19868e-07 3.41972e-07 5.99581e-20
3.89735e-07 1.90864e-07 5.54039e-20
3.38417e-07 -1.11305e-07 2.79987e-20
-9.97203e-09 2.36986e-08 -5.31575e-20
-2.64835e-07 -2.37651e-07 -4.04369e-20
-2.59973e-08 3.43239e-09 -1.89831e-20
-5.68009e-07 3.33566e-07 4.19684e-20
-7.23132e-09 -2.21605e-08 1.85384e-20
7.54133e-08 -3.49728e-07 -3.57615e-20
-2.25858e-08 -4.91934e-09 -1.32169e-20
5.91689e-08 1.18638e-07 4.17898e-20
-3.15741e-08 -9.58356e-09 3.14914e-20
-3.33384e-08 -3.13175e-08 2.90318e-21
7.39183e-07 3.25433e-07 -9.60313e-21
-6.33629e-10 6.45634e-08 -3.93413e-20
9.98033e-09 -4.3078e-08 -5.5196e-20
1.67637e-08 -9.58359e-08 -1.5274e-19
-6.65156e-09 -3.13796e-08 -2.82928e-20
-7.6698e-08 -1.94931e-08 -2.5725e-21
-8.92819e-08 1.09242e-07 3.89418e-20
2.39444e-08 -8.69514e-09 1.04404e-20
-9.83581e-09 -2.4381e-08 4.00107e-20
-2.57128e-08 -3.76853e-09 2.18085e-20
-4.42513e-08 4.09969e-07 1.23933e-20
-7.87754e-08 3.97895e-08 5.29307e-21
-7.64223e-08 1.30716e-07 4.7129e-20
-7.68654e-07 9.03491e-08 -2.41614e-21
3.57229e-11 -6.08808e-08 1.06191e-19
-7.40077e-08 -6.20058e-08 5.03069e-20
3.1162e-08 7.60441e-08 2.88895e-20
2.94607e-07 5.88975e-08 -4.80509e-20
4.22226e-07 -3.67369e-07 3.47954e-20
1.15779e-08 2.83495e-08 3.21585e-20
2.85656e-08 8.86308e-09 -1.41755e-19
-3.93416e-07 2.91066e-07 5.98547e-20
4.59233e-07 5.58322e-08 4.03439e-20
-6.96047e-08 6.22428e-07 -2.97967e-20
-2.4131e-08 -1.24752e-07 -3.10541e-20
8.47159e-08 5.96654e-08 -4.82414e-21
3.66442e-07 3.86441e-07 2.69974e-20
6.64082e-09 2.95671e-09 -9.26493e-20
-7.06266e-08 3.51704e-07 1.7781e-20
5.99874e-09 -3.21531e-09 2.12925e-20
-4.24135e-08 2.89244e-08 2.92555e-20
9.15573e-08 3.72623e-08 1.83217e-20
-3.38651e-07 1.04692e-07 7.35444e-20
1.96553e-07 3.45375e-07 1.99492e-20
1.22277e-07 -5.52079e-07 7.30952e-21
2.8745e-08 7.5363e-08 -1.30492e-20
-5.2015e-08 -3.09514e-08 -2.87033e-20
4.30959e-08 1.37833e-07 1.85195e-20
2.86545e-07 4.87614e-08 -2.31697e-20
-1.90213e-07 3.92971e-07 7.10269e-23
5.05639e-07 -1.65257e-07 -2.25834e-20
-2.8061e-08 6.12656e-08 -3.12319e-20
5.37832e-08 5.46209e-08 -7.29052e-20
-3.19649e-08 -7.37425e-08 -4.94653e-20
-1.28575e-08 -5.61877e-08 7.13217e-20
1.48748e-07 1.78332e-08 5.47117e-20
-1.08489e-07 5.07476e-07 7.9409e-20
-2.50955e-08 1.54803e-08 -8.05509e-21
7.4195e-08 1.09953e-07 1.28759e-20
-3.66849e-08 -5.20772e-07 -6.46384e-20
5.26825e-07 1.58181e-07 5.21283e-20
3.58716e-08 -6.33882e-08 1.30756e-20
-8.18969e-08 -9.36903e-09 -4.43888e-20
-3.36958e-07 -1.35244e-07 2.33204e-20
1.66654e-08 1.78263e-08 -7.89535e-21
-5.35235e-07 -1.87185e-07 -5.51565e-20
1.69186e-08 -1.7777e-08 -2.45236e-20
-5.20453e-08 -3.65948e-07 2.54531e-20
2.25864e-07 8.5709e-09 7.71613e-21
-2.01192e-08 1.71707e-08 -7.44015e-20
5.39951e-09 2.46682e-08 2.12044e-20
1.51086e-08 -6.61725e-08 4.98517e-20
2.62456e-08 -1.22756e-08 8.91021e-20
4.91976e-10 2.65861e-08 5.30734e-21
2.29509e-08 -2.86493e-09 2.68446e-21
4.2812e-08 -6.31574e-08 -2.0672e-20
-1.09589e-07 -5.58948e-07 -6.23079e-20
2.8952e-07 -2.22874e-07 7.52291e-21
9.38635e-10 3.52778e-08 -4.54616e-20
-2.4415e-08 -4.417e-09 -4.17429e-20
-7.94641e-09 -2.73093e-08 4.99635e-20
-2.01341e-08 -1.42113e-08 -2.30014e-20
-2.70661e-07 3.38222e-07 5.5416e-20
-3.10946e-10 -2.68695e-08 1.72665e-19
-3.38553e-07 5.31582e-07 1.72208e-20
-1.27249e-07 5.85199e-08 -1.06115e-20
1.7894e-08 1.92991e-08 2.12064e-20
-2.31332e-08 -1.35263e-08 1.36046e-20
1.65077e-07 3.98407e-07 2.58234e-21
9.52558e-08 8.48935e-08 -7.55313e-20
2.31193e-07 -7.62445e-08 -2.38119e-21
1.301e-08 -7.11424e-08 6.55712e-20
-4.19461e-07 -3.86526e-07 -3.0157e-20
-4.04481e-08 6.99051e-08 5.48186e-20
1.05034e-07 5.60268e-08 3.95838e-20
1.53586e-07 -5.28766e-08 -2.33619e-21
6.63275e-08 -1.32498e-07 8.84181e-20
2.62921e-07 -1.21236e-07 -1.01795e-20
1.74934e-07 -8.25712e-08 -4.11377e-20
1.75821e-08 -1.45709e-08 4.21259e-20
3.04961e-07 2.41221e-07 1.52085e-20
-4.41476e-08 -1.27673e-07 -5.28101e-21
-5.42261e-08 -4.63927e-08 1.31415e-20
-8.86389e-09 -2.3271e-08 -3.58406e-20
1.21777e-08 9.10964e-08 8.89587e-20
-4.07894e-07 2.92443e-08 -1.79073e-20
-1.49009e-07 -3.89373e-07 -5.84185e-20
-6.41774e-08 8.18048e-08 2.13837e-20
1.26199e-07 1.68185e-07 7.0046e-20
3.13893e-07 -2.22634e-07 -7.03783e-20
-4.58861e-07 -2.45332e-07 4.20802e-20
2.04138e-07 -3.32318e-07 -1.78408e-20
2.6582e-07 -3.26978e-07 -1.51648e-20
-7.82967e-08 7.75657e-09 -1.55205e-20
-2.33356e-07 -3.37685e-07 4.60005e-21
-4.0848e-07 -6.40207e-08 5.01245e-21
-4.86814e-08 -3.72769e-07 1.01551e-20
1.81715e-07 -3.75588e-07 -4.5915e-20
3.79926e-09 -5.16399e-08 5.30374e-20
5.39991e-08 3.59618e-07 5.29561e-20
-1.92369e-07 -3.36527e-07 5.69148e-23
-1.8045e-08 -8.25846e-08 -6.50225e-20
-2.78087e-07 2.08188e-07 7.60425e-20
-5.44874e-08 -1.78649e-08 6.0717e-20
-4.24521e-08 -2.91738e-08 4.77603e-20
1.10999e-07 -5.69249e-08 -2.60704e-20
-1.52763e-08 2.16298e-08 -5.33662e-21
5.89993e-08 -7.44677e-08 -1.82815e-20
-3.46028e-07 -1.53888e-07 1.00264e-20
-4.58418e-08 -6.17395e-08 4.23255e-20
4.79101e-08 6.54955e-08 -2.86612e-20
2.50212e-07 3.45383e-07 2.6793e-21
-8.85772e-08 -4.08468e-08 6.58206e-20
-3.84913e-07 -8.66032e-09 -4.86988e-21
-4.93457e-08 -4.57619e-08 1.36017e-20
-2.80956e-09 -6.62796e-08 2.43407e-21
4.83357e-08 2.43806e-08 -9.57379e-20
-5.57436e-08 5.49451e-08 5.22992e-20
-9.30945e-09 -9.75668e-08 7.0879e-20
-5.13819e-07 1.26567e-07 -1.79082e-22
2.81671e-07 2.40291e-07 -9.95759e-21
3.76363e-08 3.91348e-07 5.28636e-20
-2.2694e-08 7.80334e-09 4.96744e-20
-7.57098e-08 2.3526e-09 -7.45451e-21
3.47588e-08 6.63616e-08 -3.65454e-20
-2.75186e-08 -6.75568e-09 2.68247e-20
3.25519e-09 -2.3459e-08 6.29582e-20
-1.51391e-08 1.03274e-07 2.1222e-20
1.67784e-08 1.76769e-08 -6.00061e-20
-1.91235e-07 4.22728e-08 -6.67975e-20
-1.93939e-07 2.11611e-07 -1.76592e-20
-2.09404e-08 1.94335e-08 -4.20484e-20
-3.50852e-07 2.11745e-07 9.55346e-20
-9.01038e-09 2.99031e-08 -1.03682e-20
9.47026e-08 -3.39259e-08 -1.07791e-20
4.39807e-07 -4.04628e-08 1.01245e-20
-5.51408e-08 3.48906e-08 -5.44479e-21
2.22981e-08 1.02809e-08 1.3145e-20
5.73925e-08 -3.59132e-08 1.81265e-20
-9.84556e-08 3.28165e-08 -4.46845e-20
-7.16507e-08 1.87851e-08 2.59075e-21
2.51989e-08 -7.35935e-09 -8.4195e-20
2.33008e-07 -1.41706e-07 -5.09951e-20
-9.17093e-08 5.84741e-08 -7.32458e-20
-2.73933e-07 -5.71232e-08 5.0708e-20
-5.82284e-08 -3.06573e-08 5.29771e-20
2.22745e-08 -1.47855e-08 -3.12258e-20
2.46741e-08 1.73326e-08 -1.12725e-19
-6.22565e-09 2.80506e-08 4.69192e-20
-2.52544e-09 -3.16489e-08 -7.80912e-20
-2.56818e-08 1.31296e-08 7.87424e-20
-2.87421e-08 -1.47266e-08 4.45782e-20
7.20021e-08 -2.72142e-08 2.62098e-20
-2.63501e-08 -7.24529e-09 3.47038e-20
-2.62942e-08 6.97881e-09 -2.4243e-20
-6.48227e-09 2.61232e-08 -8.74082e-20
-7.03724e-09 -2.66957e-08 -2.95494e-20
1.73753e-08 -1.94561e-08 -8.50277e-21
1.67046e-08 1.8621e-08 -9.61404e-20
1.00798e-08 2.78072e-07 -4.32907e-20
5.39588e-08 -4.45081e-08 -2.09657e-20
1.25934e-08 -2.37497e-08 -4.65866e-20
-2.09717e-07 7.75174e-09 -5.4114e-20
1.9915e-08 -1.89094e-08 8.46204e-20
1.85938e-08 1.92036e-08 5.06595e-20
2.85259e-08 -6.20624e-10 5.12523e-21
9.62647e-08 2.72494e-07 -2.77009e-20
-1.44327e-08 -2.36031e-08 -7.51929e-21
3.12078e-08 -7.14301e-08 4.99485e-20
-2.34029e-07 -1.29482e-07 -2.29338e-20
-5.14344e-08 -3.33884e-08 -2.48889e-21
-2.34882e-07 1.39307e-07 1.25729e-20
2.08327e-08 -2.13618e-08 3.39231e-20
-9.98444e-09 2.21922e-08 4.95625e-20
-5.49303e-09 -2.69272e-07 1.7758e-20
-8.81553e-08 -2.66692e-07 5.36321e-20
4.04163e-07 3.84666e-07 -1.9771e-20
4.32308e-07 -2.45493e-08 1.78691e-20
-3.06727e-08 6.67876e-09 -5.38633e-21
-2.89126e-07 -5.10927e-07 3.19276e-20
6.89464e-08 1.18215e-07 2.09122e-20
-2.77158e-07 3.26434e-08 2.7066e-21
1.98978e-07 5.56398e-08 -5.88837e-20
-2.71901e-08 -1.09977e-10 7.58906e-20
5.89068e-10 -2.82632e-08 5.22889e-20
-2.47093e-09 -1.93368e-08 9.76435e-20
-2.41044e-08 -1.43394e-08 2.14074e-20
-5.99477e-07 -2.27173e-08 -4.02071e-20
1.88422e-07 -2.13105e-07 -1.54276e-20
1.28141e-08 2.4855e-08 -7.70583e-21
6.55005e-09 -1.18992e-07 -5.50116e-20
-1.1239e-07 2.66164e-07 3.82153e-20
2.30185e-09 2.99055e-08 -9.67772e-20
2.01063e-07 -1.43874e-07 2.33513e-20
-1.76925e-08 -7.73492e-09 2.78808e-21
-1.70973e-07 -2.22216e-07 4.05281e-20
2.35613e-08 1.19928e-08 1.85482e-20
5.57609e-08 5.39023e-08 -1.31335e-19
-3.96694e-08 -6.17967e-08 -1.57175e-20
2.44152e-08 -7.89115e-09 -6.07637e-20
8.26236e-08 -5.76798e-08 -1.32465e-20
-4.90848e-09 4.60751e-08 2.96175e-20
6.79676e-08 -1.14555e-07 -5.20955e-20
6.20574e-07 3.12682e-08 3.20668e-20
-5.25736e-07 1.391e-07 4.37857e-20
4.40372e-08 3.06872e-08 -1.27603e-19
-6.51394e-08 -1.5683e-07 -4.67613e-21
-9.90209e-08 -6.45976e-08 6.01057e-20
3.22276e-07 -3.23896e-09 -5.01686e-21
2.75625e-09 -6.15036e-08 9.79098e-20
-8.05495e-08 -2.8444e-08 5.04834e-21
1.09832e-07 -2.62413e-07 -8.01228e-21
8.75675e-09 1.05721e-07 -2.27172e-21
9.01439e-08 2.79549e-07 7.85314e-21
1.08197e-07 -5.70179e-08 6.49936e-20
-1.97349e-07 2.10058e-07 -1.82216e-20
1.81468e-07 2.24236e-07 3.28703e-20
-1.14192e-08 5.1064e-09 3.23827e-20
1.87697e-09 4.87212e-08 -4.51772e-20
3.68065e-09 -2.21097e-08 8.22696e-21
-1.75008e-08 -1.45217e-08 4.31935e-20
-6.02756e-08 4.77899e-08 4.45059e-20
-2.76502e-07 -6.55121e-08 -5.63583e-20
9.67992e-10 3.10848e-08 6.18432e-20
-7.23221e-08 2.15928e-08 1.59322e-20
1.95915e-07 -2.84039e-08 -8.30671e-20
-8.37744e-08 -2.71289e-07 3.84717e-20
-1.65e-07 2.62775e-07 2.80875e-20
-4.66002e-08 2.15385e-08 3.44547e-20
-2.21138e-07 -1.56471e-07 1.52471e-22
5.00655e-08 -2.34836e-08 -2.14706e-20
-2.99843e-07 -1.46822e-08 2.05927e-20
1.46776e-07 -5.17922e-07 -3.76203e-20
2.00554e-07 -2.10603e-07 3.83139e-20
3.06646e-07 5.43681e-07 9.96769e-21
-2.87143e-09 6.57278e-08 -3.38415e-20
2.63244e-08 -2.7316e-07 -5.35833e-20
-1.06717e-08 6.46348e-09 3.5247e-20
-1.42166e-07 -2.65281e-07 5.22676e-21
4.77104e-08 -4.08286e-08 -3.19901e-23
-2.74268e-08 2.76312e-07 1.09615e-19
6.65959e-08 -1.95525e-08 8.66619e-20
1.51526e-07 2.70035e-07 -1.02011e-20
1.51772e-07 -3.5443e-09 4.94049e-20
2.76986e-07 -8.17264e-07 1.41029e-20
-5.86969e-08 -1.09277e-07 -1.02249e-20
-2.44787e-07 1.06659e-07 -2.06932e-20
-3.43061e-08 1.686e-08 -1.33639e-20
2.32381e-07 1.55623e-07 3.58019e-20
1.65641e-07 -9.14475e-08 4.12495e-20
8.7565e-08 3.84733e-08 -9.4845e-20
-1.79099e-08 1.51317e-08 2.87933e-20
1.66135e-07 -2.56653e-07 4.08316e-20
-1.77119e-07 -2.21026e-07 2.29078e-20
2.28528e-07 9.01422e-08 -4.80374e-21
5.81425e-08 -3.59391e-08 -4.77125e-20
1.06835e-07 -2.65535e-07 -1.28449e-20
1.25556e-07 -2.38034e-08 1.83093e-20
-1.21842e-07 -4.86114e-08 -6.25772e-20
-5.29878e-09 -4.94643e-08 2.37005e-20
-2.79266e-07 3.87805e-08 -5.3745e-20
2.93414e-08 2.44988e-07 -3.60913e-20
1.91056e-07 4.45842e-08 1.04571e-20
-2.17023e-07 -9.71385e-08 -6.1353e-20
-1.06711e-07 2.73625e-07 2.78506e-20
-2.43905e-08 -2.38684e-07 -7.79408e-21
6.31113e-08 3.08021e-08 -2.38307e-20
-4.09577e-08 1.15443e-07 -5.61981e-21
-1.95159e-07 1.3997e-07 3.60465e-20
2.50635e-07 1.2642e-07 -4.07185e-20
-1.1411e-07 -3.58499e-08 1.31385e-20
-2.76681e-08 -1.1751e-07 1.20483e-19
1.91532e-07 2.22639e-07 7.66905e-20
-4.50357e-08 -2.04284e-08 8.65684e-23
6.29739e-07 -4.52815e-07 1.71542e-20
1.3338e-07 -9.33159e-08 -4.4481e-20
1.0891e-07 5.33708e-07 4.93573e-21
1.40641e-07 -1.35206e-07 -5.15991e-20
-3.0402e-07 1.15779e-06 1.33588e-20
-3.05782e-07 -1.14651e-06 2.99672e-20
7.51274e-07 9.87515e-07 3.69766e-20
7.41955e-07 -9.8725e-07 9.95201e-20
1.22979e-06 -4.7923e-10 1.13504e-19
-1.06013e-06 4.26507e-07 3.65476e-20
-1.04255e-06 -4.31146e-07 -1.15871e-20
5.07124e-08 2.75127e-08 -2.65811e-20
3.25423e-08 1.58004e-08 -7.49413e-20
9.45115e-08 1.2729e-08 5.08613e-21
1.66852e-07 8.91709e-08 -9.31236e-20
4.94941e-08 1.97151e-07 -2.52872e-20
-1.78875e-07 -1.53678e-07 7.79384e-21
9.00879e-08 -8.3043e-08 8.08985e-20
1.92199e-07 1.54247e-07 -7.61879e-21
-4.44472e-08 2.42652e-07 3.58792e-20
3.15628e-08 -1.55023e-08 3.45556e-20
4.52362e-08 -2.32861e-07 -7.71294e-20
5.91158e-08 3.98578e-08 -4.21559e-20
3.46647e-07 1.21435e-07 -1.74322e-20
7.77728e-09 2.49604e-08 -2.70916e-21
1.33986e-07 4.38552e-08 2.57288e-20
-1.65826e-07 9.17289e-08 3.12676e-20
-2.27035e-07 7.85419e-08 -1.02422e-20
4.49605e-08 -3.08024e-08 1.2513e-20
-1.44958e-07 -6.70802e-08 -1.53336e-20
-1.59269e-07 -9.43377e-08 -8.54874e-20
-1.396e-08 -1.59886e-07 -1.22291e-19
6.30011e-10 -1.83628e-07 -2.07274e-20
-2.02171e-07 -8.73953e-09 2.67783e-21
3.00056e-07 -4.65882e-08 2.07778e-20
1.61884e-07 9.97683e-08 5.69689e-20
-1.33962e-07 9.13849e-08 -6.98055e-20
-6.04085e-08 2.95738e-08 1.08546e-20
1.51093e-07 -1.35383e-07 2.80637e-20
-1.13522e-07 1.76758e-07 -5.17498e-21
-1.39841e-07 -1.47307e-07 2.57432e-20
-1.32521e-08 1.92539e-07 8.22416e-20
-2.88052e-08 1.62506e-07 6.4683e-20
4.74884e-09 -1.17982e-07 5.24866e-21
6.0863e-08 -1.96713e-07 -4.37613e-20
-9.94865e-08 -6.38453e-08 2.59181e-20
1.37831e-07 -3.9308e-08 -3.90934e-20
3.37927e-10 1.92301e-07 3.07415e-20
-4.15895e-09 1.22877e-07 -5.48082e-21
-3.08791e-08 1.38215e-07 4.89859e-20
2.26202e-07 -5.56681e-08 1.52119e-20
-4.7515e-08 4.53598e-08 4.98095e-20
5.12705e-08 1.92457e-07 -5.40957e-20
-3.09916e-08 1.95611e-08 -6.47062e-20
1.14232e-07 5.2969e-07 5.92859e-20
-5.60462e-08 3.02531e-08 1.55359e-20
5.94645e-08 -3.09534e-08 3.38549e-20
1.71023e-08 1.63542e-07 6.25064e-20
-1.91793e-07 4.5559e-08 -1.05081e-20
-5.89418e-09 -8.31472e-08 3.14573e-20
7.91045e-09 -7.55671e-07 2.36153e-20
2.29574e-08 1.38643e-07 -2.82997e-20
-1.43282e-07 1.36308e-07 4.14038e-20
2.22482e-07 8.27466e-07 4.42266e-20
1.06908e-08 7.03932e-09 -1.08514e-19
9.23684e-09 -6.71363e-09 2.6499e-20
1.07873e-07 -8.41201e-08 -4.68887e-20
-1.53113e-07 1.37092e-07 4.90184e-21
-1.83786e-07 -5.4291e-08 -7.94754e-21
-1.88859e-07 -6.20279e-08 -8.79831e-20
-3.75618e-09 2.31095e-09 1.30748e-20
-2.59314e-09 -1.24561e-09 -6.55988e-20
8.82204e-08 1.79267e-08 1.00014e-20
2.79981e-08 1.28759e-07 -1.29106e-20
-3.23583e-09 1.28027e-07 -1.02656e-20
-6.32935e-07 -4.59762e-07 3.82042e-20
1.12359e-07 -1.76723e-07 7.44547e-20
5.68399e-08 2.0477e-08 3.1576e-20
-2.08448e-07 -2.24248e-08 7.56017e-21
-1.31801e-07 1.74126e-07 3.88054e-20
-1.70154e-07 8.00084e-08 -2.33136e-20
6.21391e-07 4.46482e-07 7.23534e-20
6.1506e-08 4.04278e-08 -5.25716e-20
-6.04886e-08 1.97424e-07 3.82051e-20
-1.19248e-07 -1.02139e-07 -4.63134e-20
2.96633e-08 -1.55533e-07 -8.55086e-20
-9.64897e-08 -1.83584e-07 -2.05953e-20
-1.54621e-07 -1.05983e-07 8.14979e-21
1.05972e-07 -1.87939e-07 7.92581e-21
1.2712e-07 -1.74695e-07 -2.64186e-20
-4.02869e-08 -7.88558e-07 1.40239e-20
3.24222e-07 -5.18604e-07 5.68358e-20
1.54902e-08 -1.88805e-07 -4.11484e-20
1.33147e-07 1.0136e-07 3.91917e-20
-1.19601e-07 -1.45178e-07 6.21239e-20
-1.03726e-07 1.9338e-07 5.9178e-20
-6.37258e-08 1.89536e-07 1.20975e-19
1.3883e-07 1.43757e-07 6.22122e-20
6.80606e-08 -1.77282e-07 2.08188e-20
-1.7596e-07 -5.01713e-07 -2.23547e-20
3.96639e-09 6.09758e-08 1.94767e-22
1.40548e-07 1.44623e-07 4.10765e-20
-7.57715e-08 -3.73144e-08 1.31433e-19
-6.29615e-08 3.4373e-08 -2.89867e-20
5.63371e-07 -2.46803e-07 -2.33476e-21
6.99775e-08 -1.15652e-07 -3.88894e-20
-6.64188e-08 -1.13626e-07 3.13643e-20
2.52146e-08 -2.1796e-09 -7.78103e-21
2.17912e-09 -9.55758e-09 8.72263e-20
-7.06937e-09 -6.99575e-09 3.54521e-20
3.10442e-08 2.03493e-08 -9.53111e-20
-9.73017e-08 -1.83679e-07 1.00469e-20
1.49733e-07 6.00507e-08 2.88793e-20
-3.64328e-07 -4.00532e-07 -2.70392e-20
1.37827e-09 1.17468e-08 -1.08336e-20
1.35872e-09 2.0932e-09 1.35085e-19
2.62016e-09 -3.47017e-10 -4.35228e-20
3.49606e-07 -6.90387e-07 5.98636e-20
-1.45349e-08 1.71205e-08 -5.95837e-20
-3.33477e-09 2.0741e-08 -3.8032e-20
-1.50554e-07 5.35205e-08 -1.02404e-20
-5.20158e-09 6.11602e-08 -4.92315e-21
-3.30764e-08 9.80751e-08 -2.34259e-21
6.81866e-08 2.90898e-09 -7.69338e-21
1.53771e-08 5.89616e-08 -3.41661e-20
-4.031e-09 8.15313e-08 -3.91789e-20
1.16863e-07 6.35798e-08 8.6261e-20
8.32362e-09 7.52142e-07 -1.24861e-20
-1.08727e-07 1.02879e-07 1.04369e-20
8.15286e-08 -5.48146e-08 -1.0589e-20
4.70702e-08 -4.29743e-08 -1.10471e-19
-7.71443e-07 -1.05922e-07 2.41944e-20
-2.19943e-08 8.7171e-09 -1.66626e-20
-5.61733e-07 -6.64479e-07 4.6235e-21
1.02114e-08 2.734e-08 5.02724e-20
9.85399e-08 1.91627e-08 3.39873e-20
2.93354e-07 -3.80729e-08 3.84564e-20
-6.70637e-08 -1.10201e-07 -9.924e-21
1.28226e-07 3.67788e-08 -6.02945e-20
6.69639e-10 -3.2637e-08 1.25746e-19
-7.23194e-08 8.36696e-08 -1.82788e-20
-2.76582e-08 -1.75971e-08 -3.95516e-20
-6.51809e-08 1.32424e-07 2.59805e-20
1.17915e-08 8.35861e-08 5.26155e-20
1.91669e-08 1.40496e-08 -8.34504e-20
1.90219e-08 -1.34969e-08 3.73493e-20
-5.22973e-07 -1.42468e-07 -2.74955e-21
5.7619e-08 2.15027e-08 1.05743e-20
-6.93663e-08 1.34254e-06 -6.03913e-20
-4.82669e-09 -1.37933e-06 4.57507e-20
6.78928e-07 1.16223e-06 6.26334e-20
-7.04739e-08 5.59059e-08 -3.69452e-20
-3.59752e-07 7.23999e-07 -3.92642e-20
6.82827e-07 -1.12178e-06 1.17835e-19
-1.12922e-07 -1.82764e-07 3.33061e-20
1.0369e-06 9.08563e-07 -3.80846e-20
1.21949e-08 -2.16289e-08 -5.0947e-20
-1.27063e-08 -2.19163e-08 6.49301e-20
1.08692e-06 -8.88336e-07 8.4494e-20
-6.66103e-08 1.30996e-07 -2.84372e-21
-6.82762e-07 -4.34831e-07 -5.87376e-20
-5.75745e-07 -1.20002e-06 4.54419e-20
-3.22473e-07 -7.41859e-07 -6.65136e-20
-5.9188e-07 1.21999e-06 -1.7059e-20
-1.39875e-07 8.2675e-07 -2.95333e-20
-9.85852e-10 2.89603e-08 2.97075e-20
-3.59139e-07 4.62382e-07 -8.79279e-20
-3.4383e-07 -7.03719e-07 1.63556e-20
1.33702e-06 2.33314e-07 7.3219e-21
-1.04563e-07 8.8894e-08 -5.22359e-20
-2.45816e-09 5.87355e-08 1.0701e-20
-6.46739e-07 4.68195e-07 -2.96066e-20
-1.15961e-07 6.18908e-08 -6.5405e-20
1.32385e-06 -2.07523e-07 4.53928e-20
-8.85066e-08 5.94118e-08 -2.61729e-20
6.44698e-08 -1.33331e-07 -1.2964e-20
-1.03022e-06 -7.82463e-07 -4.91954e-21
-3.47385e-07 7.44323e-07 -1.21968e-20
-1.05519e-06 7.76716e-07 1.16503e-20
3.08312e-07 6.87813e-07 1.30287e-19
-1.13518e-07 9.02379e-08 -4.3932e-20
-3.15062e-08 1.78448e-08 3.16593e-20
-1.72681e-09 -2.73741e-09 -8.82833e-20
4.30015e-10 -2.36635e-09 -2.55903e-20
8.62943e-09 9.0622e-08 2.3622e-20
-2.53188e-09 2.74187e-09 -8.53105e-20
1.33238e-09 3.39792e-09 -1.63088e-20
2.28166e-09 -9.77479e-10 9.62307e-20
-1.35083e-09 1.07372e-08 -1.38158e-20
-2.37237e-07 5.176e-07 -7.6389e-20
-1.78484e-08 1.28138e-08 -2.75975e-21
3.0763e-08 -1.93783e-08 -4.78426e-20
3.01537e-08 -1.74668e-08 3.45993e-20
8.68559e-08 3.38975e-08 5.73783e-20
-8.19143e-10 -9.18977e-09 3.51845e-20
-8.20596e-09 -4.15822e-09 2.75673e-20
3.01361e-08 1.75795e-08 -1.10096e-19
7.66675e-07 -1.47758e-07 -4.53106e-21
-9.93429e-08 -1.26628e-07 5.69589e-20
-6.71237e-07 4.67968e-07 1.45797e-20
-6.00993e-07 6.85464e-07 -1.10845e-19
8.10114e-07 -2.92562e-07 1.49835e-20
-3.89172e-09 -1.12786e-08 -6.28334e-20
-4.27332e-09 1.15855e-08 -7.89808e-20
-1.27347e-08 2.18306e-09 -4.12291e-20
-8.34698e-09 8.51948e-09 -2.99111e-20
-1.15443e-08 -2.442e-09 2.08207e-22
2.14218e-09 2.70985e-09 3.27296e-20
1.23916e-08 -3.04566e-09 5.42019e-20
5.22764e-09 -3.673e-09 3.2529e-20
-3.6506e-09 -2.63915e-09 -2.77238e-20
7.92211e-09 -8.15092e-09 -4.90895e-20
7.96603e-09 8.39356e-09 -7.84736e-20
-3.67286e-09 2.32058e-09 -7.95336e-20
4.03601e-09 -8.02048e-10 -1.51167e-19
6.69049e-09 3.70441e-09 -4.60706e-20
1.44823e-08 5.16529e-09 -1.1114e-19
SCALARS rr_necrosis float
LOOKUP_TABLE default
0
0
0
0
0
0
0
0
0
0
0
0
0
0
0
0
0
0
0
0
0
0
0
0
0
0
0
0
0
0
0
0
0
0
0
0
0
0
0
0
0
0
0
0
0
0
0
0
0
0
0
0
0
0
0
0
0
0
0
0
0
0
0
0
0
0
0
0
0
0
0
0
0
0
0
0
0
0
0
0
0
0
0
0
0
0
0
0
0
0
0
0
0
0
0
0
0
0
0
0
0
0
0
0
0
0
0
0
0
0
0
0
0
0
0
0
0
0
0
0
0
0
0
0
0
0
0
0
0
0
0
0
0
0
0
0
0
0
0
0
0
0
0
0
0
0
0
0
0
0
0
0
0
0
0
0
0
0
0
0
0
0
0
0
0
0
0
0
0
0
0
0
0
0
0
0
0
0
0
0
0
0
0
0
0
0
0
0
0
0
0
0
0
0
0
0
0
0
0
0
0
0
0
0
0
0
0
0
0
0
0
0
0
0
0
0
0
0
0
0
0
0
0
0
0
0
0
0
0
0
0
0
0
0
0
0
0
0
0
0
0
0
0
0
0
0
0
0
0
0
0
0
0
0
0
0
0
0
0
0
0
0
0
0
0
0
0
0
0
0
0
0
0
0
0
0
0
0
0
0
0
0
0
0
0
0
0
0
0
0
0
0
0
0
0
0
0
0
0
0
0
0
0
0
0
0
0
0
0
0
0
0
0
0
0
0
0
0
0
0
0
0
0
0
0
0
0
0
0
0
0
0
0
0
0
0
0
0
0
0
0
0
0
0
0
0
0
0
0
0
0
0
0
0
0
0
0
0
0
0
0
0
0
0
0
0
0
0
0
0
0
0
0
0
0
0
0
0
0
0
0
0
0
0
0
0
0
0
0
0
0
0
0
0
0
0
0
0
0
0
0
0
0
0
0
0
0
0
0
0
0
0
0
0
0
0
0
0
0
0
0
0
0
0
0
0
0
0
0
0
0
0
0
0
0
0
0
0
0
0
0
0
0
0
0
0
0
0
0
0
0
0
0
0
0
0
0
0
0
0
0
0
0
0
0
0
0
0
0
0
0
0
0
0
0
0
0
0
0
0
0
0
0
0
0
0
0
0
0
0
0
0
0
0
0
0
0
0
0
0
0
0
0
0
0
0
0
0
0
0
0
0
0
0
0
0
0
0
0
0
0
0
0
0
0
0
0
0
0
0
0
0
0
0
0
0
0
0
0
0
0
0
0
0
0
0
0
0
0
0
0
0
0
0
0
0
0
0
0
0
0
0
0
SCALARS rr_protein float
LOOKUP_TABLE default
1
1
1
1
1
1
1
1
1
1
1
1
1
1
1
1
1
1
1
1
1
1
1
1
1
1
1
1
1
1
1
1
1
1
1
1
1
1
1
1
1
1
1
1
1
1
1
1
1
1
1
1
1
1
1
1
1
1
1
1
1
1
1
1
1
1
1
1
1
1
1
1
1
1
1
1
1
1
1
1
1
1
1
1
1
1
1
1
1
1
1
1
1
1
1
1
1
1
1
1
1
1
1
1
1
1
1
1
1
1
1
1
1
1
1
1
1
1
1
1
1
1
1
1
1
1
1
1
1
1
1
1
1
1
1
1
1
1
1
1
1
1
1
1
1
1
1
1
1
1
1
1
1
1
1
1
1
1
1
1
1
1
1
1
1
1
1
1
1
1
1
1
1
1
1
1
1
1
1
1
1
1
1
1
1
1
1
1
1
1
1
1
1
1
1
1
1
1
1
1
1
1
1
1
1
1
1
1
1
1
1
1
1
1
1
1
1
1
1
1
1
1
1
1
1
1
1
1
1
1
1
1
1
1
1
1
1
1
1
1
1
1
1
1
1
1
1
1
1
1
1
1
1
1
1
1
1
1
1
1
1
1
1
1
1
1
1
1
1
1
1
1
1
1
1
1
1
1
1
1
1
1
1
1
1
1
1
1
1
1
1
1
1
1
1
1
1
1
1
1
1
1
1
1
1
1
1
1
1
1
1
1
1
1
1
1
1
1
1
1
1
1
1
1
1
1
1
1
1
1
1
1
1
1
1
1
1
1
1
1
1
1
1
1
1
1
1
1
1
1
1
1
1
1
1
1
1
1
1
1
1
1
1
1
1
1
1
1
1
1
1
1
1
1
1
1
1
1
1
1
1
1
1
1
1
1
1
1
1
1
1
1
1
1
1
1
1
1
1
1
1
1
1
1
1
1
1
1
1
1
1
1
1
1
1
1
1
1
1
1
1
1
1
1
1
1
1
1
1
1
1
1
1
1
1
1
1
1
1
1
1
1
1
1
1
1
1
1
1
1
1
1
1
1
1
1
1
1
1
1
1
1
1
1
1
1
1
1
1
1
1
1
1
1
1
1
1
1
1
1
1
1
1
1
1
1
1
1
1
1
1
1
1
1
1
1
1
1
1
1
1
1
1
1
1
1
1
1
1
1
1
1
1
1
1
1
1
1
1
1
1
1
1
1
1
1
1
1
1
1
1
1
1
1
1
1
1
1
1
1
1
1
1
1
1
1
1
1
1
1
1
1
1
1
1
1
1
1
1
1
1
1
1
SCALARS rr_(S_ext) float
LOOKUP_TABLE default
0.992054
0.991971
0.991982
0.99197
0.991967
0.991982
0.992053
0.991979
0.99199
0.991974
0.992021
0.991979
0.991981
0.991975
0.991965
0.991982
0.99197
0.991976
0.991989
0.991982
0.991987
0.991947
0.991983
0.991982
0.991982
0.991974
0.992027
0.991981
0.992007
0.991954
0.991981
0.992006
0.99203
0.991957
0.99196
0.991957
0.991952
0.991961
0.991982
0.99203
0.992007
0.991951
0.991951
0.991981
0.992015
0.992008
0.991989
0.991989
0.991982
0.992009
0.992008
0.992003
0.991963
0.992004
0.991964
0.992025
0.99196
0.992003
0.99196
0.991981
0.991968
0.991969
0.99203
0.991971
0.991969
0.991975
0.991968
0.991975
0.991983
0.99197
0.991964
0.991964
0.992008
0.991974
0.991983
0.992029
0.991969
0.991975
0.991974
0.991998
0.992016
0.991965
0.991968
0.992015
0.992009
0.99202
0.991981
0.991976
0.992015
0.99195
0.992003
0.99195
0.991967
0.991976
0.992004
0.992007
0.992018
0.991974
0.991969
0.991981
0.991997
0.992009
0.992014
0.991974
0.991974
0.991974
0.991969
0.991982
0.992015
0.991966
0.991981
0.992015
0.992015
0.991975
0.991974
0.992005
0.991962
0.992019
0.991962
0.992004
0.991991
0.991964
0.991969
0.991971
0.991967
0.991964
0.991962
0.991974
0.992018
0.992003
0.991961
0.99197
0.991968
0.991969
0.99201
0.991959
0.992023
0.991981
0.991968
0.991959
0.992008
0.991979
0.991993
0.991974
0.99202
0.991974
0.991979
0.991984
0.991982
0.991997
0.991987
0.991969
0.992005
0.991981
0.991974
0.99197
0.991975
0.992009
0.992008
0.991977
0.991988
0.992005
0.992017
0.992006
0.992007
0.991974
0.992008
0.992009
0.992006
0.992007
0.991966
0.992003
0.992007
0.991974
0.992004
0.991969
0.991966
0.991979
0.991965
0.991976
0.992008
0.991973
0.991974
0.992007
0.991975
0.992008
0.991971
0.991971
0.991968
0.991974
0.991975
0.992017
0.992003
0.992006
0.99197
0.991975
0.991975
0.991968
0.991969
0.991975
0.991969
0.991989
0.991999
0.991968
0.992009
0.991968
0.991976
0.992008
0.99197
0.991969
0.991971
0.991977
0.991975
0.991968
0.991996
0.991977
0.991999
0.991971
0.991966
0.991966
0.991965
0.991966
0.991966
0.991966
0.991975
0.991964
0.991964
0.991964
0.991964
0.991965
0.991964
0.991996
0.991973
0.991966
0.99199
0.991965
0.991965
0.991967
0.991998
0.991966
0.991974
0.991997
0.991968
0.991997
0.991969
0.991965
0.991996
0.991998
0.992016
0.992009
0.991968
0.992021
0.991981
0.991999
0.991989
0.991966
0.991966
0.991953
0.991966
0.992024
0.991997
0.991966
0.991979
0.991998
0.991966
0.991993
0.991953
0.991998
0.991966
0.991972
0.991975
0.991965
0.991976
0.991965
0.991979
0.992019
0.99202
0.991968
0.991985
0.991979
0.991999
0.991968
0.991975
0.991997
0.991976
0.991997
0.991979
0.991998
0.991997
0.99195
0.991965
0.991963
0.991963
0.991974
0.991998
0.991958
0.991972
0.991988
0.991997
0.991999
0.991966
0.991997
0.991968
0.991999
0.992015
0.991997
0.99202
0.99197
0.991996
0.99195
0.991998
0.991971
0.991997
0.991972
0.991998
0.991982
0.992035
0.99198
0.991997
0.991964
0.991996
0.991987
0.991975
0.99197
0.991998
0.991997
0.991992
0.991972
0.991997
0.99198
0.991981
0.991966
0.991998
0.991993
0.991987
0.991993
0.991997
0.991992
0.99197
0.991979
0.991993
0.991996
0.991978
0.991978
0.991996
0.991966
0.992024
0.991984
0.992016
0.991987
0.992024
0.992024
0.992022
0.992022
0.99202
0.992028
0.992029
0.99197
0.991961
0.991977
0.991987
0.991989
0.991993
0.991979
0.991993
0.991993
0.991962
0.991992
0.991971
0.992003
0.991964
0.991982
0.991988
0.991993
0.991968
0.991984
0.991987
0.991983
0.991987
0.99199
0.991999
0.991987
0.991984
0.99197
0.991989
0.99199
0.99199
0.991987
0.991984
0.991978
0.991989
0.991978
0.991982
0.991987
0.991979
0.991982
0.991991
0.991971
0.991988
0.991961
0.992016
0.991971
0.991971
0.991984
0.991988
0.991974
0.992025
0.991981
0.991988
0.992035
0.991953
0.991954
0.991982
0.99199
0.991988
0.99199
0.99195
0.991949
0.991976
0.991979
0.991979
0.99203
0.99199
0.991971
0.99199
0.99199
0.991988
0.992023
0.991973
0.99199
0.991984
0.991983
0.991989
0.991987
0.991989
0.99199
0.992029
0.99202
0.991987
0.991984
0.991987
0.99199
0.991988
0.991987
0.991987
0.992017
0.991967
0.991989
0.991974
0.991972
0.992018
0.991981
0.991981
0.991966
0.991947
0.991947
0.991964
0.991991
0.991984
0.992018
0.991948
0.991947
0.991946
0.992024
0.99196
0.991953
0.991984
0.991968
0.991978
0.991973
0.99197
0.991972
0.99198
0.992024
0.991982
0.991976
0.991971
0.99203
0.991956
0.992039
0.991969
0.991977
0.991997
0.99198
0.99198
0.991961
0.991978
0.991961
0.991982
0.991973
0.991956
0.991957
0.99202
0.991972
0.992054
0.992057
0.992051
0.991974
0.99203
0.99205
0.99199
0.992052
0.991965
0.991965
0.992054
0.991983
0.992033
0.992058
0.99203
0.992057
0.99203
0.99196
0.99202
0.992029
0.992052
0.991981
0.99197
0.992031
0.99198
0.992048
0.991977
0.991984
0.992057
0.99203
0.992056
0.992023
0.991983
0.991962
0.991945
0.991945
0.991975
0.991944
0.991944
0.991945
0.991948
0.992019
0.991956
0.991966
0.991963
0.991976
0.991948
0.991948
0.991964
0.992022
0.991985
0.992031
0.992042
0.992034
0.991948
0.991948
0.991949
0.991949
0.991948
0.991948
0.991953
0.991949
0.991949
0.991951
0.99195
0.991949
0.991947
0.991948
0.991951
SCALARS rr_(P_ext) float
LOOKUP_TABLE default
0.0214735
0.0213725
0.0213814
0.0213742
0.021347
0.0213816
0.0214738
0.0213755
0.0213899
0.0213729
0.0214668
0.0213755
0.0213776
0.0213716
0.0213563
0.0213799
0.0213679
0.0213766
0.0213943
0.0213839
0.0213853
0.0213123
0.0213852
0.0213838
0.0213841
0.021375
0.0214528
0.0213803
0.0214219
0.0213327
0.021378
0.0214217
0.0214542
0.0213388
0.0213358
0.0213389
0.0213316
0.0213371
0.0213781
0.021454
0.0214221
0.0213312
0.0213313
0.0213779
0.0214445
0.0214205
0.0213922
0.0213882
0.0213812
0.0214282
0.0214245
0.0214116
0.0213484
0.0214114
0.0213492
0.0214415
0.0213356
0.0214113
0.0213357
0.0213834
0.0213683
0.02136
0.0214463
0.0213605
0.0213598
0.021368
0.021368
0.0213749
0.0213846
0.0213722
0.0213486
0.0213487
0.0214222
0.0213649
0.0213811
0.0214585
0.0213545
0.0213681
0.021375
0.0214093
0.0214302
0.0213439
0.0213641
0.0214331
0.021419
0.0214434
0.0213803
0.0213664
0.0214444
0.0213172
0.0214115
0.0213173
0.0213539
0.0213691
0.0214106
0.0214255
0.0214301
0.0213731
0.0213547
0.0213785
0.0214002
0.0214166
0.0214332
0.0213757
0.0213739
0.0213737
0.0213628
0.0213793
0.0214334
0.021371
0.0213833
0.0214413
0.0214367
0.0213763
0.0213742
0.0214111
0.0213357
0.0214305
0.021336
0.0214107
0.0213966
0.0213575
0.0213725
0.0213662
0.0213702
0.0213555
0.0213392
0.0213731
0.0214301
0.0214106
0.0213486
0.0213732
0.0213646
0.0213728
0.0214165
0.0213355
0.0214357
0.0213769
0.021364
0.0213356
0.0214153
0.0213726
0.0213951
0.0213728
0.0214309
0.0213746
0.0213741
0.0213812
0.0213815
0.0214032
0.0213884
0.0213725
0.0214219
0.0213775
0.0213729
0.0213731
0.0213701
0.0214144
0.021414
0.0213776
0.021388
0.0214212
0.021442
0.0214245
0.0214144
0.0213736
0.0214144
0.0214146
0.0214219
0.0214142
0.0213537
0.0214114
0.0214247
0.0213692
0.0214112
0.0213632
0.0213538
0.0213756
0.0213481
0.0213736
0.0214218
0.0213732
0.0213733
0.0214151
0.0213662
0.0214254
0.0213662
0.0213627
0.0213533
0.021373
0.0213661
0.021429
0.0214112
0.0214217
0.0213729
0.021377
0.0213765
0.0213647
0.0213727
0.0213684
0.0213725
0.0213931
0.0214086
0.0213648
0.0214217
0.0213641
0.0213681
0.0214171
0.0213587
0.0213723
0.0213578
0.021371
0.0213742
0.021364
0.0214028
0.0213702
0.0214076
0.0213628
0.0213704
0.0213705
0.0213716
0.0213712
0.0213711
0.0213712
0.0213722
0.0213571
0.0213573
0.021357
0.0213569
0.0213491
0.021349
0.0214035
0.0213719
0.0213751
0.0213887
0.0213563
0.021356
0.0213748
0.0214083
0.0213755
0.021373
0.0214024
0.0213585
0.0214029
0.0213637
0.0213758
0.0214022
0.0214072
0.0214305
0.0214297
0.021364
0.0214324
0.0213787
0.0214077
0.0213937
0.0213756
0.0213706
0.0213307
0.0213709
0.0214331
0.0214076
0.0213751
0.0213755
0.0214088
0.0213707
0.0213946
0.0213308
0.0214074
0.0213702
0.0213667
0.0213765
0.0213566
0.0213667
0.0213485
0.0213777
0.0214398
0.0214435
0.0213513
0.0213851
0.0213756
0.0214028
0.0213584
0.0213693
0.0214075
0.021369
0.0213998
0.0213737
0.0213997
0.0214081
0.021323
0.0213527
0.021356
0.0213562
0.0213722
0.021399
0.0213399
0.0213671
0.0213877
0.0213987
0.0214018
0.0213513
0.0214025
0.0213539
0.0214008
0.0214443
0.0213992
0.0214315
0.0213625
0.0214024
0.0213231
0.0214007
0.0213648
0.0214036
0.0213657
0.021401
0.0213803
0.021448
0.0213823
0.0214027
0.0213517
0.0214032
0.0213877
0.0213657
0.0213722
0.0214009
0.0213991
0.0213948
0.0213627
0.0213993
0.0213756
0.0213802
0.0213487
0.0213991
0.0213953
0.0213862
0.0213943
0.0214002
0.021394
0.0213596
0.0213758
0.0213949
0.0214029
0.021373
0.0213728
0.0213996
0.0213488
0.0214704
0.0213806
0.0214304
0.0213858
0.0215238
0.0215237
0.0215231
0.0215233
0.021523
0.0215241
0.0215236
0.0213621
0.0213426
0.0213773
0.0213881
0.0213938
0.0213943
0.0213737
0.021395
0.0213955
0.0213424
0.0213943
0.021358
0.0214115
0.0213586
0.0213818
0.0213883
0.0213947
0.0213511
0.0213806
0.0213876
0.0213805
0.0213875
0.0213952
0.0214097
0.0213883
0.0213815
0.0213577
0.0213929
0.0213961
0.0213933
0.0213889
0.0213818
0.0213735
0.0213934
0.0213737
0.0213826
0.0213887
0.0213753
0.0213824
0.0213946
0.0213658
0.0213867
0.0213435
0.0214442
0.0213622
0.0213596
0.0213817
0.0213864
0.0213683
0.0214691
0.0213817
0.0213868
0.0214475
0.0213236
0.0213234
0.0213806
0.0213939
0.0213856
0.0213928
0.0213083
0.0213083
0.0213753
0.0213752
0.0213757
0.0214694
0.0213955
0.0213644
0.0213887
0.0213895
0.0213888
0.021471
0.0213663
0.0213944
0.0213809
0.0213809
0.0213897
0.0213877
0.0213897
0.0213888
0.0214533
0.0214312
0.0213878
0.0213807
0.0213866
0.0213901
0.0213872
0.021386
0.0213866
0.0214442
0.0213563
0.0213934
0.0213685
0.0213658
0.0214448
0.0213813
0.0213822
0.0213487
0.0213242
0.0213243
0.0213528
0.0213957
0.0213812
0.0214458
0.0213262
0.0213105
0.0213106
0.0214721
0.0213371
0.0213327
0.0213822
0.0213544
0.0213775
0.0213723
0.0213655
0.0213631
0.0213756
0.0214694
0.0213797
0.0213693
0.0213646
0.0214591
0.0213359
0.0214492
0.021365
0.021372
0.0214014
0.021378
0.021376
0.0213478
0.0213746
0.0213479
0.0213808
0.0213645
0.0213343
0.0213337
0.0214455
0.021371
0.0214754
0.0214735
0.0214776
0.0213664
0.0214706
0.0214797
0.02139
0.0214765
0.0213435
0.0213436
0.021475
0.021386
0.021453
0.021476
0.0214549
0.0214764
0.0214549
0.0213365
0.0214492
0.0214702
0.0214752
0.0213764
0.0213609
0.0214565
0.0213762
0.021479
0.0213729
0.0213854
0.021477
0.021458
0.0214785
0.0214721
0.0213826
0.0213419
0.0213123
0.0213136
0.0213712
0.0213126
0.0213126
0.0213131
0.0213209
0.0214473
0.021335
0.0213521
0.0213417
0.0213724
0.0213189
0.0213189
0.02134
0.0214732
0.0213863
0.021472
0.0214508
0.0214501
0.0213274
0.0213277
0.0213284
0.0213282
0.0213275
0.0213141
0.0213282
0.0213188
0.0213121
0.0213272
0.0213271
0.0213117
0.0213138
0.0213185
0.0213289
SCALARS rr_(S) float
LOOKUP_TABLE default
0.97443
0.9743
0.974315
0.974301
0.974285
0.974315
0.974429
0.97431
0.974327
0.974304
0.974395
0.97431
0.974312
0.974304
0.974287
0.974315
0.974297
0.974308
0.974328
0.974317
0.974322
0.974249
0.974318
0.974317
0.974317
0.974305
0.974393
0.974314
0.97436
0.974266
0.974313
0.974358
0.974397
0.974272
0.974273
0.974272
0.974263
0.974275
0.974313
0.974397
0.974359
0.974263
0.974263
0.974313
0.974378
0.974359
0.974328
0.974325
0.974315
0.974364
0.974362
0.97435
0.974282
0.974352
0.974283
0.974386
0.974273
0.974351
0.974273
0.974316
0.974296
0.974293
0.974393
0.974295
0.974293
0.974302
0.974296
0.974306
0.974318
0.974299
0.974282
0.974283
0.97436
0.9743
0.974316
0.974399
0.97429
0.974302
0.974305
0.974344
0.974372
0.974282
0.974294
0.974373
0.97436
0.974382
0.974314
0.974302
0.974378
0.974255
0.974351
0.974255
0.974288
0.974304
0.974351
0.974361
0.974374
0.974303
0.974291
0.974313
0.974339
0.974359
0.974372
0.974305
0.974305
0.974304
0.974294
0.974315
0.974373
0.974295
0.974316
0.974377
0.974374
0.974306
0.974304
0.974352
0.974275
0.974375
0.974276
0.974351
0.974331
0.974287
0.974299
0.974298
0.974295
0.974286
0.974277
0.974303
0.974374
0.97435
0.97428
0.9743
0.974294
0.974299
0.974359
0.974272
0.974381
0.974312
0.974294
0.974272
0.974357
0.974308
0.974332
0.974303
0.974376
0.974304
0.974309
0.974317
0.974316
0.97434
0.974324
0.974299
0.974358
0.974313
0.974303
0.9743
0.974303
0.974358
0.974357
0.974309
0.974325
0.974357
0.974379
0.97436
0.974356
0.974304
0.974357
0.974358
0.974359
0.974356
0.974287
0.974351
0.974361
0.974302
0.974351
0.974294
0.974287
0.97431
0.974284
0.974306
0.97436
0.974303
0.974304
0.974356
0.974301
0.974362
0.974298
0.974296
0.974289
0.974304
0.974301
0.974373
0.97435
0.974358
0.9743
0.974307
0.974306
0.974294
0.974299
0.974303
0.974299
0.974328
0.974345
0.974294
0.974361
0.974294
0.974303
0.974358
0.974293
0.974299
0.974294
0.974306
0.974305
0.974294
0.974339
0.974305
0.974344
0.974296
0.974295
0.974295
0.974295
0.974295
0.974295
0.974296
0.974304
0.974287
0.974287
0.974286
0.974287
0.974284
0.974283
0.97434
0.974303
0.974298
0.974327
0.974288
0.974287
0.974298
0.974344
0.974298
0.974303
0.97434
0.974292
0.97434
0.974295
0.974297
0.974339
0.974343
0.974372
0.974365
0.974294
0.974378
0.974313
0.974344
0.974328
0.974298
0.974295
0.974264
0.974295
0.974381
0.974343
0.974297
0.974309
0.974345
0.974295
0.974332
0.974264
0.974344
0.974295
0.974299
0.974306
0.974288
0.974303
0.974284
0.974311
0.974379
0.974383
0.974288
0.97432
0.97431
0.974342
0.974292
0.974303
0.974343
0.974304
0.974339
0.974309
0.974339
0.974343
0.974258
0.974286
0.974285
0.974285
0.974304
0.974339
0.974273
0.9743
0.974324
0.974338
0.974342
0.974286
0.97434
0.97429
0.974341
0.974378
0.974338
0.974377
0.974295
0.974339
0.974258
0.974341
0.974297
0.97434
0.974298
0.974341
0.974315
0.9744
0.974314
0.97434
0.974285
0.974339
0.974324
0.974301
0.974299
0.97434
0.974339
0.974332
0.974297
0.974338
0.974311
0.974314
0.974285
0.974339
0.974333
0.974323
0.974332
0.974339
0.974332
0.974294
0.97431
0.974333
0.97434
0.974308
0.974308
0.974338
0.974285
0.974399
0.974317
0.974373
0.974323
0.974425
0.974425
0.974423
0.974423
0.974421
0.97443
0.97443
0.974295
0.974277
0.974309
0.974324
0.974328
0.974332
0.974309
0.974332
0.974333
0.974278
0.974332
0.974294
0.97435
0.974287
0.974315
0.974324
0.974333
0.974288
0.974317
0.974324
0.974316
0.974323
0.97433
0.974345
0.974324
0.974318
0.974293
0.974328
0.974331
0.974329
0.974324
0.974317
0.974308
0.974328
0.974308
0.974316
0.974324
0.97431
0.974316
0.974331
0.974297
0.974323
0.974278
0.974378
0.974296
0.974295
0.974317
0.974324
0.974301
0.9744
0.974315
0.974324
0.974398
0.974261
0.974262
0.974315
0.974329
0.974323
0.974328
0.974251
0.97425
0.974307
0.97431
0.97431
0.974405
0.97433
0.974297
0.974327
0.974328
0.974325
0.974398
0.974299
0.974329
0.974317
0.974317
0.974327
0.974324
0.974327
0.974327
0.974396
0.974376
0.974324
0.974317
0.974323
0.974327
0.974324
0.974323
0.974323
0.97438
0.97429
0.974328
0.974302
0.974299
0.974381
0.974315
0.974315
0.974285
0.974255
0.974255
0.974285
0.974331
0.974317
0.974381
0.974257
0.974249
0.974248
0.9744
0.974274
0.974265
0.974318
0.974289
0.974309
0.974302
0.974296
0.974297
0.974311
0.974399
0.974315
0.974304
0.974297
0.974399
0.974269
0.974404
0.974295
0.974306
0.97434
0.974312
0.974311
0.97428
0.974308
0.97428
0.974316
0.974298
0.974268
0.974269
0.974383
0.974301
0.974431
0.974432
0.974429
0.974301
0.974405
0.974429
0.974328
0.974429
0.974281
0.974281
0.97443
0.974319
0.974399
0.974434
0.974398
0.974435
0.974398
0.974273
0.974385
0.974404
0.974428
0.974312
0.974294
0.9744
0.974311
0.974427
0.974307
0.974319
0.974435
0.974399
0.974434
0.974399
0.974317
0.974278
0.974247
0.974248
0.974304
0.974248
0.974247
0.974248
0.974255
0.974384
0.974269
0.974286
0.974279
0.974306
0.974254
0.974254
0.974279
0.974399
0.974321
0.974407
0.974407
0.974399
0.974257
0.974258
0.974259
0.974259
0.974257
0.974251
0.974263
0.974255
0.974251
0.97426
0.97426
0.974251
0.97425
0.974254
0.974261
SCALARS rr_(P) float
LOOKUP_TABLE default
0.024512
0.0244518
0.0244572
0.0244528
0.0244365
0.0244573
0.0245122
0.0244537
0.0244623
0.0244521
0.0245077
0.0244537
0.024455
0.0244513
0.024442
0.0244564
0.024449
0.0244543
0.0244649
0.0244587
0.0244596
0.0244152
0.0244594
0.0244586
0.0244588
0.0244533
0.0244996
0.0244565
0.0244813
0.0244276
0.0244552
0.0244812
0.0245005
0.0244313
0.0244296
0.0244314
0.0244269
0.0244304
0.0244553
0.0245003
0.0244814
0.0244266
0.0244267
0.0244552
0.0244946
0.0244805
0.0244637
0.0244613
0.0244571
0.024485
0.0244828
0.0244752
0.0244372
0.0244751
0.0244377
0.024493
0.0244294
0.0244751
0.0244295
0.0244584
0.0244492
0.0244443
0.0244958
0.0244446
0.0244442
0.0244491
0.024449
0.0244533
0.0244591
0.0244516
0.0244374
0.0244374
0.0244815
0.0244473
0.0244571
0.024503
0.024441
0.0244492
0.0244533
0.0244738
0.0244862
0.0244346
0.0244467
0.0244879
0.0244796
0.024494
0.0244565
0.0244482
0.0244945
0.0244181
0.0244752
0.0244182
0.0244406
0.0244498
0.0244747
0.0244834
0.0244862
0.0244522
0.0244411
0.0244555
0.0244684
0.0244782
0.024488
0.0244538
0.0244527
0.0244526
0.024446
0.024456
0.0244881
0.0244508
0.0244583
0.0244927
0.0244901
0.0244541
0.0244529
0.024475
0.0244295
0.0244865
0.0244297
0.0244747
0.0244663
0.0244427
0.0244518
0.024448
0.0244503
0.0244415
0.0244316
0.0244522
0.0244862
0.0244746
0.0244373
0.0244522
0.024447
0.024452
0.0244782
0.0244294
0.0244895
0.0244546
0.0244466
0.0244294
0.0244775
0.024452
0.0244654
0.024452
0.0244867
0.0244531
0.0244528
0.0244571
0.0244573
0.0244702
0.0244614
0.0244518
0.0244813
0.0244549
0.0244521
0.0244521
0.0244504
0.0244769
0.0244767
0.024455
0.0244612
0.0244808
0.0244932
0.0244828
0.0244769
0.0244525
0.0244769
0.024477
0.0244813
0.0244768
0.0244404
0.0244751
0.0244829
0.0244499
0.024475
0.0244462
0.0244405
0.0244537
0.0244371
0.0244525
0.0244812
0.0244523
0.0244523
0.0244774
0.0244481
0.0244833
0.0244481
0.0244459
0.0244402
0.0244522
0.024448
0.0244856
0.024475
0.0244812
0.024452
0.0244546
0.0244542
0.0244471
0.0244519
0.0244494
0.0244517
0.0244642
0.0244734
0.0244471
0.0244812
0.0244467
0.0244492
0.0244785
0.0244435
0.0244516
0.024443
0.024451
0.0244529
0.0244466
0.02447
0.0244505
0.0244729
0.024446
0.0244505
0.0244505
0.0244511
0.0244509
0.0244509
0.0244509
0.0244516
0.0244424
0.0244426
0.0244424
0.0244423
0.0244376
0.0244376
0.0244704
0.0244515
0.0244533
0.0244616
0.024442
0.0244418
0.0244531
0.0244733
0.0244535
0.0244522
0.0244698
0.0244434
0.0244701
0.0244465
0.0244537
0.0244696
0.0244726
0.0244864
0.0244859
0.0244467
0.0244876
0.0244556
0.0244729
0.0244646
0.0244536
0.0244506
0.0244263
0.0244508
0.0244881
0.0244728
0.0244533
0.0244537
0.0244736
0.0244506
0.0244651
0.0244264
0.0244727
0.0244503
0.0244484
0.0244542
0.0244421
0.0244483
0.0244373
0.024455
0.0244919
0.0244941
0.024439
0.0244594
0.0244537
0.02447
0.0244433
0.0244499
0.0244728
0.0244497
0.0244682
0.0244526
0.0244682
0.0244731
0.0244217
0.0244399
0.0244418
0.0244419
0.0244517
0.0244678
0.024432
0.0244486
0.024461
0.0244676
0.0244695
0.024439
0.0244698
0.0244406
0.0244689
0.0244945
0.0244679
0.024487
0.0244458
0.0244698
0.0244217
0.0244688
0.0244472
0.0244705
0.0244477
0.024469
0.0244566
0.0244969
0.0244577
0.0244699
0.0244392
0.0244702
0.024461
0.0244478
0.0244516
0.0244689
0.0244679
0.0244653
0.0244459
0.0244679
0.0244537
0.0244565
0.0244375
0.0244679
0.0244656
0.0244601
0.024465
0.0244685
0.0244648
0.024444
0.0244539
0.0244653
0.02447
0.0244522
0.0244521
0.0244681
0.0244375
0.0245099
0.0244567
0.0244863
0.0244598
0.0245412
0.0245412
0.0245408
0.0245409
0.0245407
0.0245414
0.0245412
0.0244456
0.0244336
0.0244547
0.0244612
0.0244646
0.024465
0.0244526
0.0244653
0.0244657
0.0244335
0.024465
0.0244431
0.0244752
0.0244433
0.0244574
0.0244614
0.0244652
0.0244389
0.0244568
0.0244609
0.0244567
0.0244609
0.0244654
0.0244741
0.0244613
0.0244573
0.0244429
0.0244641
0.024466
0.0244643
0.0244617
0.0244575
0.0244525
0.0244644
0.0244526
0.0244579
0.0244616
0.0244536
0.0244578
0.0244651
0.0244478
0.0244604
0.0244342
0.0244944
0.0244456
0.024444
0.0244574
0.0244603
0.0244493
0.0245091
0.0244574
0.0244605
0.0244965
0.0244221
0.0244219
0.0244567
0.0244647
0.0244598
0.0244641
0.0244127
0.0244127
0.0244535
0.0244535
0.0244538
0.0245094
0.0244656
0.0244469
0.0244616
0.0244621
0.0244616
0.0245102
0.0244481
0.024465
0.024457
0.0244569
0.0244622
0.024461
0.0244622
0.0244617
0.0244999
0.0244869
0.0244611
0.0244568
0.0244604
0.0244625
0.0244607
0.02446
0.0244603
0.0244944
0.024442
0.0244644
0.0244495
0.0244478
0.0244948
0.0244572
0.0244577
0.0244374
0.0244224
0.0244224
0.0244398
0.0244658
0.0244571
0.0244954
0.0244236
0.0244141
0.0244142
0.0245109
0.0244304
0.0244275
0.0244577
0.0244409
0.0244549
0.0244517
0.0244476
0.0244462
0.0244537
0.0245093
0.0244562
0.0244499
0.0244471
0.0245033
0.0244296
0.0244976
0.0244473
0.0244516
0.0244692
0.0244552
0.024454
0.0244368
0.0244532
0.0244369
0.0244569
0.024447
0.0244285
0.0244282
0.0244953
0.0244509
0.0245131
0.024512
0.0245144
0.0244482
0.02451
0.0245156
0.0244624
0.0245137
0.0244343
0.0244344
0.0245128
0.02446
0.0244998
0.0245135
0.0245009
0.0245137
0.0245009
0.02443
0.0244974
0.0245098
0.0245129
0.0244542
0.0244448
0.0245018
0.0244541
0.0245151
0.0244521
0.0244596
0.0245141
0.0245027
0.024515
0.0245109
0.0244579
0.0244333
0.0244152
0.0244159
0.0244511
0.0244153
0.0244153
0.0244156
0.0244204
0.0244963
0.024429
0.0244394
0.0244332
0.0244518
0.0244191
0.0244192
0.0244322
0.0245115
0.0244602
0.0245109
0.0244986
0.0244981
0.0244243
0.0244245
0.0244249
0.0244248
0.0244243
0.0244162
0.0244248
0.0244191
0.024415
0.0244242
0.0244241
0.0244148
0.024416
0.0244189
0.0244252
SCALARS rr_(T) float
LOOKUP_TABLE default
0.202266
0.20229
0.202288
0.202289
0.202301
0.202288
0.202265
0.20229
0.202286
0.20229
0.202265
0.20229
0.202289
0.202291
0.202296
0.202288
0.202292
0.202289
0.202284
0.202287
0.202287
0.202315
0.202287
0.202287
0.202287
0.20229
0.202269
0.202288
0.202277
0.202306
0.202289
0.202277
0.202269
0.202304
0.202305
0.202304
0.202307
0.202304
0.202289
0.202269
0.202277
0.202307
0.202307
0.202289
0.202271
0.202278
0.202285
0.202286
0.202288
0.202275
0.202276
0.20228
0.2023
0.20228
0.202299
0.202273
0.202305
0.20228
0.202305
0.202287
0.202292
0.202295
0.202272
0.202295
0.202295
0.202293
0.202292
0.20229
0.202287
0.20229
0.2023
0.2023
0.202277
0.202294
0.202288
0.202268
0.202298
0.202292
0.20229
0.20228
0.202275
0.202302
0.202293
0.202274
0.202278
0.202272
0.202288
0.202293
0.202271
0.202313
0.20228
0.202313
0.202298
0.202292
0.20228
0.202276
0.202275
0.20229
0.202297
0.202289
0.202283
0.202279
0.202274
0.202289
0.20229
0.20229
0.202294
0.202289
0.202274
0.20229
0.202287
0.202272
0.202273
0.202289
0.20229
0.20228
0.202305
0.202275
0.202305
0.20228
0.202284
0.202296
0.20229
0.202293
0.202291
0.202297
0.202304
0.20229
0.202275
0.20228
0.2023
0.20229
0.202293
0.20229
0.202279
0.202305
0.202274
0.202289
0.202293
0.202305
0.202279
0.202291
0.202284
0.20229
0.202275
0.20229
0.202291
0.202288
0.202288
0.202282
0.202286
0.20229
0.202277
0.202289
0.20229
0.20229
0.202291
0.202279
0.20228
0.202289
0.202286
0.202277
0.202272
0.202276
0.202279
0.20229
0.202279
0.202279
0.202277
0.202279
0.202298
0.20228
0.202276
0.202292
0.20228
0.202294
0.202298
0.20229
0.2023
0.20229
0.202277
0.20229
0.20229
0.202279
0.202293
0.202276
0.202293
0.202294
0.202298
0.20229
0.202293
0.202276
0.20228
0.202277
0.20229
0.202289
0.202289
0.202293
0.20229
0.202292
0.20229
0.202285
0.20228
0.202293
0.202277
0.202293
0.202293
0.202279
0.202296
0.20229
0.202296
0.202291
0.20229
0.202293
0.202282
0.202292
0.202281
0.202294
0.202291
0.202291
0.20229
0.20229
0.20229
0.20229
0.202291
0.202296
0.202296
0.202296
0.202296
0.2023
0.2023
0.202282
0.202291
0.202289
0.202286
0.202296
0.202297
0.202289
0.20228
0.202288
0.20229
0.202282
0.202296
0.202282
0.202294
0.202288
0.202282
0.202281
0.202275
0.202275
0.202293
0.202275
0.202289
0.202281
0.202284
0.202288
0.20229
0.202307
0.20229
0.202275
0.202281
0.202289
0.20229
0.20228
0.20229
0.202284
0.202307
0.202281
0.202291
0.202293
0.202289
0.202296
0.202293
0.2023
0.202289
0.202273
0.202272
0.202299
0.202287
0.20229
0.202282
0.202296
0.202292
0.202281
0.202292
0.202283
0.202291
0.202283
0.202281
0.20231
0.202298
0.202296
0.202296
0.202291
0.202283
0.202303
0.202292
0.202286
0.202283
0.202283
0.202299
0.202282
0.202298
0.202283
0.202271
0.202283
0.202275
0.202294
0.202282
0.20231
0.202283
0.202294
0.202282
0.202293
0.202283
0.202288
0.202272
0.202287
0.202282
0.202299
0.202282
0.202286
0.202293
0.20229
0.202283
0.202283
0.202284
0.202294
0.202283
0.20229
0.202288
0.2023
0.202283
0.202284
0.202287
0.202285
0.202283
0.202285
0.202296
0.20229
0.202284
0.202282
0.202291
0.202291
0.202283
0.2023
0.202264
0.202289
0.202275
0.202287
0.202248
0.202248
0.202248
0.202248
0.202247
0.202248
0.202248
0.202295
0.202302
0.202289
0.202286
0.202284
0.202285
0.202291
0.202284
0.202284
0.202303
0.202285
0.202296
0.20228
0.202295
0.202288
0.202286
0.202284
0.202299
0.202288
0.202286
0.202289
0.202286
0.202284
0.20228
0.202286
0.202288
0.202296
0.202285
0.202284
0.202285
0.202286
0.202288
0.202291
0.202285
0.202291
0.202288
0.202286
0.20229
0.202288
0.202284
0.202293
0.202287
0.202302
0.202271
0.202294
0.202296
0.202288
0.202287
0.202292
0.202264
0.202288
0.202287
0.202272
0.20231
0.202311
0.202288
0.202284
0.202287
0.202285
0.202317
0.202317
0.202289
0.20229
0.20229
0.202265
0.202284
0.202293
0.202286
0.202286
0.202286
0.202264
0.202293
0.202284
0.202288
0.202288
0.202286
0.202286
0.202286
0.202286
0.202269
0.202275
0.202286
0.202288
0.202287
0.202286
0.202286
0.202287
0.202287
0.202271
0.202297
0.202285
0.202292
0.202293
0.202271
0.202288
0.202288
0.2023
0.20231
0.20231
0.202298
0.202284
0.202288
0.202271
0.202309
0.202316
0.202316
0.202263
0.202304
0.202306
0.202288
0.202298
0.202289
0.20229
0.202293
0.202294
0.20229
0.202264
0.202288
0.202292
0.202293
0.202268
0.202305
0.202272
0.202293
0.202291
0.202283
0.202289
0.20229
0.2023
0.20229
0.2023
0.202288
0.202294
0.202306
0.202306
0.202271
0.202291
0.202265
0.202266
0.202264
0.202293
0.202264
0.202263
0.202286
0.202265
0.202302
0.202302
0.202265
0.202286
0.20227
0.202265
0.202269
0.202265
0.202269
0.202305
0.20227
0.202264
0.202265
0.20229
0.202295
0.202269
0.20229
0.202263
0.202291
0.202287
0.202265
0.202268
0.202264
0.202263
0.202288
0.202303
0.202315
0.202314
0.202291
0.202315
0.202315
0.202314
0.202311
0.20227
0.202305
0.202299
0.202303
0.202291
0.202312
0.202312
0.202304
0.202263
0.202286
0.202264
0.202271
0.202271
0.202308
0.202308
0.202308
0.202308
0.202308
0.202314
0.202308
0.202312
0.202315
0.202309
0.202309
0.202315
0.202314
0.202312
0.202308
SCALARS rr_tsim float
LOOKUP_TABLE default
420
420
420
420
420
420
420
420
420
420
420
420
420
420
420
420
420
420
420
420
420
420
420
420
420
420
420
420
420
420
420
420
420
420
420
420
420
420
420
420
420
420
420
420
420
420
420
420
420
420
420
420
420
420
420
420
420
420
420
420
420
420
420
420
420
420
420
420
420
420
420
420
420
420
420
420
420
420
420
420
420
420
420
420
420
420
420
420
420
420
420
420
420
420
420
420
420
420
420
420
420
420
420
420
420
420
420
420
420
420
420
420
420
420
420
420
420
420
420
420
420
420
420
420
420
420
420
420
420
420
420
420
420
420
420
420
420
420
420
420
420
420
420
420
420
420
420
420
420
420
420
420
420
420
420
420
420
420
420
420
420
420
420
420
420
420
420
420
420
420
420
420
420
420
420
420
420
420
420
420
420
420
420
420
420
420
420
420
420
420
420
420
420
420
420
420
420
420
420
420
420
420
420
420
420
420
420
420
420
420
420
420
420
420
420
420
420
420
420
420
420
420
420
420
420
420
420
420
420
420
420
420
420
420
420
420
420
420
420
420
420
420
420
420
420
420
420
420
420
420
420
420
420
420
420
420
420
420
420
420
420
420
420
420
420
420
420
420
420
420
420
420
420
420
420
420
420
420
420
420
420
420
420
420
420
420
420
420
420
420
420
420
420
420
420
420
420
420
420
420
420
420
420
420
420
420
420
420
420
420
420
420
420
420
420
420
420
420
420
420
420
420
420
420
420
420
420
420
420
420
420
420
420
420
420
420
420
420
420
420
420
420
420
420
420
420
420
420
420
420
420
420
420
420
420
420
420
420
420
420
420
420
420
420
420
420
420
420
420
420
420
420
420
420
420
420
420
420
420
420
420
420
420
420
420
420
420
420
420
420
420
420
420
420
420
420
420
420
420
420
420
420
420
420
420
420
420
420
420
420
420
420
420
420
420
420
420
420
420
420
420
420
420
420
420
420
420
420
420
420
420
420
420
420
420
420
420
420
420
420
420
420
420
420
420
420
420
420
420
420
420
420
420
420
420
420
420
420
420
420
420
420
420
420
420
420
420
420
420
420
420
420
420
420
420
420
420
420
420
420
420
420
420
420
420
420
420
420
420
420
420
420
420
420
420
420
420
420
420
420
420
420
420
420
420
420
420
420
420
420
420
420
420
420
420
420
420
420
420
420
420
420
420
420
420
420
420
420
420
420
420
420
420
420
420
420
420
420
420
420
420
420
420
420
420
420
420
420
420
420
420
420
420
420
420
420
420
420
420
420
420
420
420
SCALARS rr_Vext float
LOOKUP_TABLE default
0.181359
0.449122
0.356048
0.468108
0.250492
0.377827
0.179274
0.465088
0.395106
0.504564
0.165389
0.466507
0.409825
0.435012
0.516134
0.424863
0.369043
0.414183
0.36553
0.360526
0.405108
0.0765106
0.415069
0.383013
0.347105
0.40347
0.15501
0.352833
0.267412
0.339246
0.361968
0.276485
0.17152
0.252901
0.249247
0.253451
0.330126
0.24949
0.361539
0.192836
0.22472
0.29105
0.291059
0.397271
0.216885
0.244119
0.344611
0.350183
0.330078
0.30376
0.312853
0.245236
0.401517
0.315206
0.369413
0.157753
0.266178
0.317516
0.26615
0.393184
0.470928
0.464871
0.153275
0.327641
0.445312
0.417373
0.455653
0.391904
0.357985
0.515555
0.435554
0.43079
0.277653
0.338744
0.353971
0.176426
0.372675
0.413476
0.395168
0.271132
0.24049
0.283506
0.52753
0.24025
0.32776
0.119291
0.407579
0.344608
0.229705
0.0374828
0.273092
0.0407607
0.316357
0.299311
0.258658
0.232982
0.220908
0.442929
0.37291
0.351855
0.293535
0.277769
0.230478
0.418575
0.426137
0.383831
0.340625
0.340847
0.244628
0.512517
0.326025
0.164038
0.220056
0.457877
0.429717
0.304481
0.30863
0.183508
0.320034
0.303365
0.266985
0.502647
0.511809
0.442039
0.484524
0.384951
0.220814
0.478209
0.200078
0.262278
0.227503
0.456393
0.449022
0.448248
0.288936
0.187537
0.190638
0.327439
0.404467
0.187459
0.241541
0.387288
0.287969
0.472756
0.223275
0.385188
0.34973
0.336126
0.214789
0.269545
0.304298
0.440625
0.248026
0.397409
0.461988
0.469241
0.307855
0.249007
0.247656
0.401134
0.333852
0.246116
0.160076
0.239703
0.240466
0.430954
0.252348
0.2551
0.274619
0.245938
0.386343
0.258183
0.226058
0.297713
0.272811
0.340305
0.382117
0.361132
0.313976
0.360844
0.266566
0.418245
0.44885
0.241614
0.442299
0.239439
0.436793
0.402736
0.378964
0.379413
0.446225
0.200774
0.266927
0.246016
0.447408
0.439019
0.407198
0.447893
0.45295
0.381864
0.466567
0.307715
0.274109
0.512729
0.285546
0.465952
0.36996
0.226654
0.286341
0.461723
0.389033
0.350307
0.450054
0.445254
0.278858
0.28422
0.267542
0.395451
0.433417
0.49809
0.478087
0.520368
0.471556
0.515285
0.432054
0.4572
0.460649
0.434353
0.456355
0.422917
0.416634
0.28241
0.389409
0.454293
0.312119
0.470271
0.432154
0.492657
0.288245
0.468275
0.448676
0.284499
0.406912
0.282468
0.455236
0.411288
0.296254
0.277677
0.235552
0.271096
0.455771
0.1975
0.347019
0.276527
0.313902
0.468669
0.455546
0.147788
0.457102
0.23643
0.261763
0.466268
0.379026
0.264584
0.52218
0.29123
0.147779
0.267723
0.406397
0.50892
0.382688
0.457753
0.425154
0.226614
0.21673
0.175978
0.201427
0.308133
0.229074
0.37198
0.227524
0.406391
0.287621
0.2681
0.323952
0.293521
0.39852
0.281485
0.287595
0.13637
0.30357
0.437808
0.438056
0.391523
0.281115
0.192358
0.545875
0.360487
0.298316
0.27429
0.284975
0.282728
0.358841
0.27809
0.192059
0.274791
0.183495
0.351066
0.279575
0.127091
0.263721
0.321336
0.279314
0.443668
0.290709
0.381466
0.138314
0.305661
0.287013
0.261623
0.269317
0.32199
0.308721
0.321044
0.266563
0.271162
0.293858
0.4036
0.276094
0.399021
0.358786
0.290795
0.286473
0.290121
0.323371
0.289911
0.270116
0.308528
0.333028
0.387864
0.290168
0.286352
0.425141
0.419246
0.276211
0.290834
0.117368
0.342062
0.227677
0.319679
0.126304
0.131123
0.117233
0.119129
0.126411
0.133076
0.137186
0.365817
0.275202
0.269662
0.305533
0.296206
0.292406
0.314708
0.285992
0.292386
0.310822
0.291313
0.368786
0.261062
0.378831
0.289102
0.277577
0.291595
0.322764
0.328992
0.304694
0.351047
0.326029
0.300388
0.213974
0.303858
0.29886
0.328279
0.305307
0.288517
0.275034
0.304062
0.31909
0.436159
0.283304
0.423998
0.438657
0.298863
0.422861
0.322473
0.255676
0.356791
0.307316
0.229503
0.185269
0.353347
0.377137
0.31343
0.259541
0.317011
0.138204
0.309862
0.289511
0.140568
0.0597484
0.0653752
0.26865
0.283292
0.331355
0.316584
0.0311308
0.0325286
0.318178
0.32154
0.30424
0.103723
0.264725
0.315901
0.315639
0.272074
0.24028
0.107863
0.464463
0.284944
0.352158
0.357669
0.255161
0.323443
0.249474
0.275478
0.129739
0.19938
0.323803
0.327748
0.280323
0.293561
0.303656
0.320502
0.306407
0.14396
0.275777
0.301351
0.290882
0.437485
0.143857
0.23373
0.24057
0.234521
0.155624
0.155628
0.267697
0.208506
0.301871
0.153855
0.185525
0.0614166
0.0614141
0.112309
0.199632
0.134971
0.256998
0.284536
0.297804
0.336998
0.307415
0.28523
0.222214
0.127171
0.278048
0.290578
0.282436
0.144129
0.147644
0.104628
0.281945
0.285969
0.224179
0.258248
0.238711
0.223789
0.292909
0.223756
0.257201
0.251384
0.158046
0.19524
0.165307
0.310643
0.112706
0.118918
0.115939
0.294531
0.10769
0.104732
0.200915
0.0979317
0.243153
0.243507
0.100659
0.255443
0.113722
0.110988
0.127154
0.105858
0.105723
0.174204
0.12624
0.112774
0.106277
0.235808
0.272657
0.118743
0.260314
0.0960764
0.264786
0.20817
0.100551
0.0864347
0.0948693
0.12646
0.22555
0.192178
0.0824423
0.091407
0.253854
0.0775857
0.0775825
0.0878714
0.0979617
0.0995845
0.127333
0.207531
0.193793
0.253766
0.0775241
0.0775207
0.229251
0.0843463
0.178712
0.0765187
0.0783411
0.103271
0.198595
0.205595
0.218906
0.200659
0.198579
0.0438923
0.32038
0.0557535
0.0543417
0.259007
0.257237
0.0563344
0.0390571
0.0548043
0.238559
SCALARS rr_Vli float
LOOKUP_TABLE default
0.396486
0.903295
0.721402
0.9429
0.493002
0.765663
0.392034
0.937668
0.806265
1.01511
0.359835
0.94054
0.8277
0.874152
1.02412
0.859727
0.739393
0.835913
0.748795
0.732052
0.823478
0.146196
0.843736
0.777624
0.704886
0.813138
0.333348
0.714255
0.560607
0.6598
0.731223
0.579527
0.369271
0.494391
0.485904
0.495506
0.641456
0.486895
0.73048
0.415064
0.471209
0.565329
0.565389
0.802512
0.463322
0.511146
0.70466
0.71357
0.668679
0.640141
0.657313
0.509708
0.79128
0.654952
0.728497
0.336093
0.518807
0.659754
0.51879
0.798044
0.943862
0.925028
0.327839
0.652216
0.886008
0.836193
0.912998
0.789772
0.727288
1.0367
0.858505
0.84915
0.582209
0.67685
0.716967
0.381182
0.738158
0.828437
0.796419
0.562479
0.507622
0.556447
1.0535
0.508331
0.685383
0.254579
0.825073
0.689485
0.49066
0.0719434
0.567527
0.0782461
0.626349
0.600258
0.537107
0.489901
0.466216
0.891212
0.738706
0.711147
0.604216
0.579672
0.487749
0.844108
0.858079
0.772712
0.679545
0.689378
0.517758
1.02964
0.661676
0.349478
0.467058
0.923819
0.865434
0.63249
0.601612
0.38741
0.624
0.62999
0.547958
0.99831
1.02947
0.884276
0.972854
0.763251
0.431749
0.962234
0.422252
0.544645
0.448452
0.918478
0.897108
0.90182
0.602898
0.365537
0.404181
0.66093
0.80773
0.365414
0.503537
0.778932
0.59024
0.951058
0.47153
0.776063
0.704321
0.680953
0.435246
0.556267
0.620245
0.886305
0.519981
0.802495
0.92944
0.94426
0.617852
0.518655
0.515712
0.810195
0.680204
0.515658
0.341238
0.503637
0.500927
0.867512
0.525644
0.531442
0.575695
0.512235
0.764766
0.536472
0.475014
0.597024
0.566757
0.679099
0.75645
0.728157
0.61851
0.726371
0.558759
0.841634
0.903302
0.503621
0.884781
0.503407
0.873805
0.803282
0.749914
0.763387
0.89254
0.423343
0.554569
0.51569
0.900208
0.886298
0.821709
0.894902
0.911194
0.765269
0.938414
0.629673
0.568291
1.02453
0.59847
0.93055
0.741276
0.473239
0.569197
0.928572
0.772726
0.703604
0.906433
0.889135
0.575328
0.57047
0.554199
0.788781
0.870375
1.00028
0.961013
1.04558
0.947449
1.03539
0.86871
0.907695
0.914768
0.862343
0.90593
0.833929
0.821515
0.583003
0.782793
0.915905
0.636237
0.933119
0.857208
0.993022
0.597474
0.944367
0.902753
0.586735
0.8088
0.582773
0.908853
0.829724
0.610879
0.57498
0.497305
0.572061
0.9101
0.417613
0.70148
0.572845
0.642711
0.945255
0.914965
0.286927
0.918292
0.500196
0.542258
0.940099
0.764199
0.548648
1.04887
0.596675
0.286927
0.554499
0.815976
1.01856
0.772232
0.908464
0.850821
0.4466
0.437752
0.374434
0.429883
0.608683
0.465559
0.749991
0.469384
0.807668
0.576816
0.555339
0.649546
0.603994
0.802276
0.579178
0.596019
0.263019
0.600442
0.868509
0.869128
0.787207
0.578062
0.376387
1.09285
0.734299
0.613257
0.565365
0.562957
0.583122
0.710459
0.572676
0.410196
0.565166
0.387691
0.700125
0.576598
0.245149
0.543076
0.642112
0.576619
0.887239
0.598796
0.772172
0.296222
0.619802
0.592061
0.51704
0.555816
0.655878
0.617313
0.645548
0.549009
0.557646
0.602196
0.804985
0.567869
0.804504
0.726241
0.573154
0.589127
0.594775
0.657841
0.593794
0.555993
0.631806
0.662546
0.782179
0.59465
0.590809
0.855286
0.843306
0.568299
0.573277
0.256087
0.6926
0.480627
0.650102
0.287606
0.29855
0.266803
0.271172
0.287682
0.303056
0.312311
0.729342
0.539723
0.544564
0.622603
0.606499
0.598932
0.633518
0.58613
0.599483
0.609469
0.596711
0.732657
0.542544
0.753106
0.586003
0.565698
0.597464
0.637465
0.666111
0.620591
0.710715
0.663996
0.615741
0.444039
0.619296
0.605571
0.652003
0.624635
0.591867
0.562871
0.620017
0.64672
0.877916
0.579856
0.853547
0.889737
0.609276
0.852427
0.653928
0.523839
0.713542
0.625424
0.4504
0.395665
0.704467
0.750312
0.6352
0.528048
0.635251
0.301236
0.62802
0.589264
0.300912
0.115298
0.126126
0.544003
0.580096
0.673735
0.647661
0.0592774
0.0619388
0.641395
0.648086
0.613481
0.226113
0.542803
0.631011
0.643416
0.555013
0.489877
0.235469
0.929281
0.583732
0.713231
0.724381
0.520581
0.658847
0.508988
0.561646
0.279101
0.421176
0.659631
0.663707
0.570432
0.599123
0.618255
0.651891
0.623522
0.307427
0.547096
0.616831
0.583014
0.8749
0.307367
0.473532
0.487753
0.46224
0.300515
0.300535
0.529553
0.427592
0.611535
0.329005
0.358876
0.117176
0.117176
0.245398
0.389619
0.262494
0.52105
0.563538
0.60141
0.677645
0.614656
0.569069
0.448035
0.27725
0.562545
0.582799
0.564246
0.311556
0.287924
0.224284
0.563451
0.574849
0.461941
0.521746
0.481453
0.440836
0.590093
0.440798
0.520821
0.502146
0.307811
0.380027
0.353393
0.623981
0.246785
0.259979
0.254333
0.589282
0.234981
0.230138
0.410008
0.214644
0.47712
0.477842
0.220334
0.519609
0.244574
0.243122
0.273901
0.231958
0.227739
0.339829
0.270697
0.245996
0.232677
0.475748
0.543001
0.256116
0.525107
0.211011
0.532688
0.423218
0.220454
0.186663
0.208255
0.276319
0.457466
0.376607
0.157552
0.174883
0.509985
0.148307
0.148306
0.168048
0.188628
0.213205
0.248113
0.410273
0.37976
0.51034
0.149004
0.149003
0.448511
0.184461
0.363609
0.167149
0.16815
0.221553
0.384549
0.398195
0.424213
0.388778
0.384539
0.0840102
0.620731
0.107163
0.103829
0.501444
0.497965
0.107596
0.0747328
0.105301
0.462542
SCALARS rr_S_ext' float
LOOKUP_TABLE default
-0.00023609
-0.000539326
-0.000430626
-0.000562946
-0.000294552
-0.000457044
-0.000233436
-0.000559809
-0.000481176
-0.000606084
-0.000214297
-0.000561523
-0.000494128
-0.000521941
-0.000611722
-0.000513217
-0.000441518
-0.000499041
-0.000446823
-0.000436954
-0.000491509
-8.74239e-05
-0.000503599
-0.000464157
-0.000420737
-0.000485466
-0.000198603
-0.000426372
-0.000334279
-0.000394347
-0.00043653
-0.000345562
-0.000219997
-0.000295441
-0.000290394
-0.000296106
-0.000383394
-0.000290977
-0.000436084
-0.00024728
-0.000280971
-0.000337897
-0.000337932
-0.000479089
-0.000276098
-0.000304799
-0.000420511
-0.000425875
-0.000399156
-0.000381639
-0.000391915
-0.000304014
-0.000472742
-0.000390649
-0.000435225
-0.000200301
-0.00031006
-0.000393513
-0.000310049
-0.000476349
-0.000563608
-0.000552486
-0.000195356
-0.000389541
-0.000529182
-0.000499323
-0.000545182
-0.000471517
-0.000434102
-0.000618983
-0.000512902
-0.000507313
-0.000347158
-0.000404207
-0.000427983
-0.000227065
-0.000440938
-0.000494691
-0.000475484
-0.000335509
-0.000302619
-0.000332486
-0.000629149
-0.000303017
-0.000408715
-0.000151712
-0.000492524
-0.000411736
-0.000292391
-4.30159e-05
-0.000338502
-4.67841e-05
-0.000374153
-0.000358426
-0.000320366
-0.000292089
-0.000277936
-0.000532105
-0.000441264
-0.000424538
-0.000360495
-0.000345699
-0.000290746
-0.000503946
-0.000512311
-0.000461346
-0.000405835
-0.000411533
-0.000308633
-0.000614785
-0.000394953
-0.000208276
-0.000278385
-0.000551526
-0.000516699
-0.000377255
-0.000359547
-0.000230953
-0.000372924
-0.000375767
-0.00032696
-0.000596287
-0.000614659
-0.000528059
-0.000580886
-0.000455912
-0.000258006
-0.000574509
-0.000251727
-0.000324862
-0.000267921
-0.00054838
-0.000535742
-0.00053844
-0.000359552
-0.000218459
-0.000240917
-0.000394576
-0.000482374
-0.000218385
-0.000300305
-0.000465075
-0.000352204
-0.00056784
-0.000281098
-0.000463335
-0.00042051
-0.000406483
-0.00025981
-0.000331859
-0.000370173
-0.000529179
-0.000310054
-0.000479084
-0.000554932
-0.000563775
-0.000368923
-0.00030933
-0.000307577
-0.000483676
-0.000405964
-0.000307483
-0.000203362
-0.000300287
-0.000298755
-0.000517948
-0.000313497
-0.000316954
-0.000343276
-0.000305501
-0.00045684
-0.000319981
-0.00028322
-0.000356496
-0.000338046
-0.000405565
-0.000451872
-0.000434724
-0.000369528
-0.00043368
-0.000333179
-0.000502502
-0.00053932
-0.000300356
-0.000528362
-0.000300144
-0.000521806
-0.000479736
-0.000447973
-0.000455787
-0.000532997
-0.000252385
-0.000330775
-0.000307497
-0.000537475
-0.000529116
-0.000490563
-0.000534424
-0.000544038
-0.000456968
-0.000560293
-0.000375753
-0.000338983
-0.000611837
-0.000356859
-0.000555721
-0.000442643
-0.000282221
-0.000339972
-0.000554418
-0.000461547
-0.000420116
-0.000541177
-0.000530989
-0.000343234
-0.000340631
-0.000330586
-0.000471076
-0.000519694
-0.000597259
-0.000573795
-0.000624297
-0.000565705
-0.000618209
-0.000518682
-0.00054217
-0.00054639
-0.00051508
-0.000541117
-0.000498214
-0.000490798
-0.000347806
-0.000467386
-0.000546812
-0.000379717
-0.000557366
-0.000512028
-0.000592856
-0.000356393
-0.000563799
-0.000538996
-0.000350044
-0.000483083
-0.000347676
-0.000542769
-0.00049535
-0.00036445
-0.000342986
-0.000296466
-0.000341035
-0.00054351
-0.000248946
-0.000418764
-0.000341708
-0.000383526
-0.000564327
-0.000546315
-0.000171499
-0.000548298
-0.00029817
-0.000323462
-0.000561254
-0.000456243
-0.000327264
-0.000626269
-0.000356048
-0.000171499
-0.000330767
-0.000487215
-0.000608238
-0.000461026
-0.000542636
-0.000508076
-0.000266817
-0.000261332
-0.000223159
-0.000256181
-0.000363626
-0.000277879
-0.00044776
-0.00028003
-0.000482409
-0.000344428
-0.000331266
-0.00038786
-0.000360366
-0.000478998
-0.000345561
-0.000355527
-0.00015724
-0.000358688
-0.000518776
-0.000519144
-0.000470019
-0.000344902
-0.000224917
-0.000652596
-0.000438252
-0.000365905
-0.000337301
-0.000336309
-0.000347888
-0.000424397
-0.000341673
-0.000244442
-0.000337205
-0.000231115
-0.00041813
-0.000343996
-0.000146556
-0.000324013
-0.00038346
-0.000343997
-0.000529834
-0.000357254
-0.000460946
-0.000176509
-0.000369968
-0.000353219
-0.000308874
-0.00033159
-0.000391448
-0.000368644
-0.000385437
-0.000327551
-0.00033272
-0.00035934
-0.000480754
-0.000338818
-0.000480306
-0.000433528
-0.000342424
-0.000351503
-0.000354908
-0.000392636
-0.000354333
-0.000331724
-0.000377018
-0.000395717
-0.000466974
-0.000354838
-0.000352469
-0.000510659
-0.000503509
-0.000339071
-0.000342497
-0.000152497
-0.000413443
-0.000286524
-0.000388021
-0.00017101
-0.000177518
-0.000158643
-0.00016124
-0.000171058
-0.000180196
-0.000185701
-0.000435583
-0.000322499
-0.0003251
-0.000371583
-0.000361917
-0.000357398
-0.000378242
-0.000349753
-0.000357716
-0.000364177
-0.000356073
-0.000437612
-0.0003236
-0.000449814
-0.000349798
-0.00033762
-0.000356519
-0.000380823
-0.000397631
-0.000370389
-0.000424257
-0.000396295
-0.00036742
-0.000264859
-0.000369608
-0.000361483
-0.000389441
-0.000372749
-0.000353165
-0.000335888
-0.000370032
-0.000386043
-0.000524162
-0.000346023
-0.00050961
-0.000531092
-0.000363625
-0.00050892
-0.000390338
-0.000312586
-0.000426106
-0.000373283
-0.000269121
-0.000235783
-0.000420728
-0.000448137
-0.000379167
-0.000315167
-0.000379331
-0.000179388
-0.00037488
-0.000351699
-0.000179306
-6.89273e-05
-7.54009e-05
-0.000324737
-0.000346161
-0.000402129
-0.000386491
-3.54511e-05
-3.70428e-05
-0.000382928
-0.000386925
-0.00036626
-0.000134652
-0.000323893
-0.000376835
-0.000384001
-0.000331234
-0.000292365
-0.000140216
-0.000554933
-0.000348326
-0.000425754
-0.000432411
-0.000310683
-0.00039322
-0.000303764
-0.000335198
-0.000166281
-0.000251078
-0.000393686
-0.000396193
-0.000340462
-0.000357553
-0.000368999
-0.000389087
-0.000372148
-0.000183201
-0.000326791
-0.000368086
-0.000348136
-0.000522466
-0.000183163
-0.000282666
-0.000291148
-0.00027616
-0.000179649
-0.000179661
-0.000316339
-0.000255145
-0.000365045
-0.000196051
-0.000214526
-7.00736e-05
-7.00732e-05
-0.000146124
-0.000232843
-0.000156887
-0.000311024
-0.00033663
-0.000359036
-0.000404601
-0.000367057
-0.000339857
-0.000267487
-0.000165103
-0.000335815
-0.000348
-0.000336963
-0.000185587
-0.000172072
-0.000133639
-0.000336484
-0.000343229
-0.0002756
-0.000311474
-0.000287435
-0.000263376
-0.000352307
-0.000263353
-0.000310899
-0.000299878
-0.000183964
-0.000227128
-0.000210586
-0.000372572
-0.000146942
-0.000154806
-0.000151426
-0.000351898
-0.000139928
-0.000137013
-0.000244692
-0.0001278
-0.000285089
-0.00028552
-0.000131193
-0.000310132
-0.000145713
-0.000144759
-0.000163176
-0.00013811
-0.000135675
-0.00020309
-0.000161291
-0.000146489
-0.000138542
-0.000284026
-0.000324307
-0.000152574
-0.000313495
-0.000125628
-0.000318048
-0.000252605
-0.000131258
-0.000111195
-0.000123989
-0.000164536
-0.000273066
-0.000225039
-9.42141e-05
-0.000104574
-0.000304506
-8.86853e-05
-8.86844e-05
-0.000100489
-0.000112772
-0.000127042
-0.000148283
-0.00024509
-0.000226923
-0.000304708
-8.90878e-05
-8.9087e-05
-0.000268018
-0.000109836
-0.000217021
-9.95313e-05
-0.000100188
-0.000132008
-0.000229866
-0.000238021
-0.00025357
-0.00023239
-0.00022986
-5.02349e-05
-0.000371039
-6.40715e-05
-6.20888e-05
-0.000299742
-0.000297663
-6.43425e-05
-4.46878e-05
-6.29587e-05
-0.000276476
SCALARS rr_P_ext' float
LOOKUP_TABLE default
0.000183876
0.000424667
0.000338761
0.000443182
0.000232554
0.000359536
0.000181803
0.000440661
0.000378186
0.000477214
0.000167014
0.00044201
0.000388874
0.000411023
0.000482484
0.000403799
0.00034782
0.000392776
0.000351013
0.000343646
0.000386497
6.92698e-05
0.000396004
0.000365045
0.000330887
0.00038216
0.000155026
0.000335452
0.000261816
0.000311797
0.000343534
0.000270659
0.0001717
0.00023345
0.000229538
0.000233973
0.000303171
0.00022997
0.000343176
0.000193
0.000220057
0.000267205
0.000267231
0.000377028
0.00021571
0.000238764
0.00033042
0.000334783
0.000314011
0.000298704
0.000306869
0.00023838
0.00037318
0.000306323
0.000343536
0.000156547
0.000245089
0.000308568
0.000245078
0.000374648
0.00044398
0.000435609
0.000152602
0.00030712
0.000417241
0.000393359
0.00042948
0.000371182
0.00034138
0.000487402
0.000404873
0.000400459
0.000271894
0.000318534
0.000336696
0.000177132
0.000347857
0.000389707
0.000374301
0.00026314
0.000236806
0.000262592
0.000495833
0.000237043
0.000320221
0.000118545
0.000387499
0.000324413
0.000228442
3.40652e-05
0.000265427
3.70488e-05
0.000295186
0.000282327
0.000251232
0.000228681
0.000217495
0.000418959
0.000348109
0.000334076
0.000283021
0.000270922
0.000227437
0.000396676
0.000403335
0.000363222
0.00031988
0.000323814
0.000241426
0.000484152
0.000310633
0.000162781
0.000217684
0.000434101
0.000406782
0.00029583
0.000284203
0.000180722
0.000294768
0.000294675
0.000256789
0.000470255
0.000483979
0.000416075
0.000457489
0.000359625
0.000203865
0.000452344
0.000196986
0.000254757
0.000211489
0.000431764
0.000422196
0.000423953
0.000281784
0.000172682
0.000188413
0.00031055
0.00038016
0.000172622
0.000235379
0.000366201
0.000276662
0.000447105
0.00021995
0.000364752
0.000331056
0.000319774
0.000204382
0.000260453
0.000290985
0.000416672
0.000242841
0.000377042
0.000436939
0.000443889
0.000290569
0.000242481
0.000241114
0.000380646
0.000319135
0.000240847
0.000158927
0.000235124
0.000234187
0.000407789
0.000245745
0.000248451
0.000268863
0.000239481
0.00036043
0.000250909
0.000221757
0.000280808
0.000265081
0.000319656
0.000356507
0.000342195
0.000291717
0.000341444
0.000260958
0.000395646
0.00042463
0.000235424
0.000416314
0.000234992
0.000411147
0.000378139
0.000353448
0.000358871
0.000419972
0.000197524
0.000259378
0.000240843
0.000423189
0.000416431
0.00038611
0.000421154
0.000428366
0.000359979
0.000441175
0.000295223
0.000265886
0.000482155
0.00027951
0.000437963
0.000348703
0.00022116
0.000268086
0.000436555
0.00036399
0.000330857
0.00042605
0.000418477
0.00026939
0.000268282
0.000259329
0.00037131
0.000409288
0.000470373
0.000451841
0.000491634
0.000445496
0.000486838
0.000408427
0.000427597
0.000430912
0.000406231
0.000426772
0.000393259
0.000387407
0.000272957
0.000368045
0.000430432
0.000298484
0.000439612
0.000403869
0.00046669
0.00027955
0.000443787
0.000424386
0.000274748
0.000380941
0.000272876
0.000427773
0.000389892
0.000286062
0.000269069
0.000231984
0.000266878
0.000428346
0.00019476
0.000329527
0.000268051
0.000301308
0.000444198
0.000430245
0.000135627
0.000431794
0.000233254
0.000253739
0.000441798
0.000359136
0.000256688
0.000493207
0.000279697
0.000135626
0.000259475
0.000383717
0.000479223
0.000362862
0.000427983
0.000400311
0.000210623
0.000205664
0.000174442
0.000200174
0.00028696
0.000218515
0.000352459
0.000219785
0.000380415
0.000271302
0.000259864
0.000305519
0.000282932
0.00037712
0.000271311
0.000278877
0.000124449
0.000283019
0.000409187
0.000409469
0.000370109
0.000270814
0.000177703
0.000514152
0.000344528
0.000287316
0.000264766
0.000265402
0.000273054
0.000334825
0.000268228
0.000190983
0.000264765
0.000180829
0.000329585
0.00027
0.000115992
0.000254365
0.000302183
0.000269968
0.000417491
0.000280453
0.000362657
0.000137856
0.000291015
0.000277232
0.000243739
0.00026024
0.000307733
0.000290482
0.000303503
0.000257138
0.000261246
0.000282275
0.000378942
0.000266029
0.000378078
0.000341086
0.000270303
0.000275995
0.000278779
0.000308718
0.00027836
0.000260434
0.000296189
0.000312012
0.000367573
0.000278737
0.000276637
0.000402081
0.000396458
0.000266216
0.000270358
0.000118803
0.000325271
0.000224208
0.000305103
0.000132436
0.000137477
0.000122868
0.000124876
0.000132484
0.000139548
0.000143818
0.000343354
0.00025473
0.000255854
0.000292102
0.00028433
0.000280767
0.000297796
0.000274741
0.000280981
0.000287656
0.000279725
0.000345105
0.000253742
0.0003547
0.000275162
0.0002654
0.000280064
0.000300539
0.000312833
0.000291181
0.000333784
0.00031155
0.000288612
0.00020772
0.000290543
0.000284366
0.000307127
0.00029287
0.000277388
0.000263898
0.000290858
0.000303677
0.000412685
0.000271857
0.000401222
0.000417739
0.00028583
0.00040061
0.000307035
0.000245555
0.000335755
0.000293486
0.000212552
0.00018422
0.000331645
0.000353343
0.000298271
0.000247803
0.000298823
0.000139773
0.000294896
0.000276513
0.000140049
5.45499e-05
5.96749e-05
0.000255481
0.000271949
0.000316203
0.000303669
2.81011e-05
2.93628e-05
0.000301432
0.000304584
0.000288301
0.000104914
0.000254412
0.000296976
0.000301851
0.000260348
0.000229814
0.000109228
0.000437241
0.000273635
0.000334946
0.000340184
0.000244191
0.000309126
0.000238753
0.000263483
0.00012979
0.000196453
0.00030949
0.000311695
0.000267686
0.000281019
0.000290102
0.000305934
0.000292598
0.000143138
0.000257756
0.000289189
0.000274242
0.000411683
0.000143098
0.000222368
0.000229019
0.000217995
0.000142165
0.000142174
0.000249601
0.000200408
0.000287177
0.00015315
0.00016973
5.55324e-05
5.55319e-05
0.000113817
0.000184022
0.000124045
0.000244654
0.000265571
0.000282561
0.000318593
0.000289235
0.000267873
0.000210554
0.000128639
0.000264225
0.000274112
0.000265548
0.000144765
0.000136007
0.000104361
0.00026516
0.000270277
0.000216341
0.000245116
0.000226247
0.000207919
0.000277349
0.000207899
0.000244594
0.000236327
0.000145429
0.000179565
0.000164511
0.000293412
0.00011442
0.000120569
0.000117882
0.000277267
0.000109011
0.000106637
0.000192317
9.95011e-05
0.000225166
0.000225505
0.000102162
0.00024385
0.00011374
0.000112714
0.000127344
0.000107532
0.000105882
0.000160518
0.00012595
0.000114127
0.000107881
0.000223555
0.000255674
0.000119049
0.000246755
9.77825e-05
0.000250424
0.000198631
0.000102189
8.67474e-05
9.65136e-05
0.000128158
0.000214786
0.000177766
7.46489e-05
8.28464e-05
0.000239803
7.02661e-05
7.02651e-05
7.96138e-05
8.92728e-05
9.92264e-05
0.000117216
0.000193398
0.000179256
0.00023993
7.05389e-05
7.0538e-05
0.00021176
8.5541e-05
0.000170634
7.75282e-05
7.8225e-05
0.000103077
0.000181844
0.00018829
0.000200576
0.000183827
0.000181838
3.97954e-05
0.000293503
5.07311e-05
4.91961e-05
0.000237127
0.000235485
5.09841e-05
3.54024e-05
4.98521e-05
0.000218682
SCALARS rr_S' float
LOOKUP_TABLE default
1.77296e-05
4.18691e-05
3.33384e-05
4.36779e-05
2.30502e-05
3.53812e-05
1.75284e-05
4.34206e-05
3.71512e-05
4.70464e-05
1.6125e-05
4.35534e-05
3.8301e-05
4.05332e-05
4.77277e-05
3.97518e-05
3.43252e-05
3.86917e-05
3.44476e-05
3.38006e-05
3.80052e-05
6.91338e-06
3.89394e-05
3.59063e-05
3.25446e-05
3.76592e-05
1.50173e-05
3.30199e-05
2.55391e-05
3.09908e-05
3.38335e-05
2.64028e-05
1.66273e-05
2.31757e-05
2.28027e-05
2.32273e-05
3.01401e-05
2.28399e-05
3.37966e-05
1.86912e-05
2.14644e-05
2.65668e-05
2.65688e-05
3.71324e-05
2.0934e-05
2.32982e-05
3.24419e-05
3.28995e-05
3.09039e-05
2.90964e-05
2.99161e-05
2.33061e-05
3.69765e-05
2.99511e-05
3.40339e-05
1.52041e-05
2.43487e-05
3.01706e-05
2.43472e-05
3.68535e-05
4.38108e-05
4.30617e-05
1.4805e-05
3.03572e-05
4.12471e-05
3.88202e-05
4.23829e-05
3.65782e-05
3.35731e-05
4.80563e-05
4.01152e-05
3.96775e-05
2.65206e-05
3.14566e-05
3.31378e-05
1.71362e-05
3.44258e-05
3.84592e-05
3.68846e-05
2.57393e-05
2.30572e-05
2.60447e-05
4.89712e-05
2.30652e-05
3.12576e-05
1.15078e-05
3.81432e-05
3.20267e-05
2.21702e-05
3.3963e-06
2.59515e-05
3.69363e-06
2.92159e-05
2.78557e-05
2.45688e-05
2.22888e-05
2.1178e-05
4.13023e-05
3.44499e-05
3.28977e-05
2.77407e-05
2.64596e-05
2.21293e-05
3.90834e-05
3.97545e-05
3.58028e-05
3.16012e-05
3.18817e-05
2.34897e-05
4.77464e-05
3.05571e-05
1.58093e-05
2.11634e-05
4.27657e-05
4.00925e-05
2.89274e-05
2.82338e-05
1.75958e-05
2.92816e-05
2.88166e-05
2.51884e-05
4.65072e-05
4.77154e-05
4.1077e-05
4.51231e-05
3.5581e-05
2.0238e-05
4.4593e-05
1.9181e-05
2.49131e-05
2.0954e-05
4.25622e-05
4.16939e-05
4.17951e-05
2.75214e-05
1.71551e-05
1.83234e-05
3.05911e-05
3.75466e-05
1.71488e-05
2.29947e-05
3.61054e-05
2.71472e-05
4.4079e-05
2.14132e-05
3.59464e-05
3.26294e-05
3.14708e-05
2.01131e-05
2.55115e-05
2.85932e-05
4.10793e-05
2.36878e-05
3.71372e-05
4.30762e-05
4.37582e-05
2.86635e-05
2.3694e-05
2.3562e-05
3.74899e-05
3.13628e-05
2.34972e-05
1.54326e-05
2.29216e-05
2.28827e-05
4.01966e-05
2.40126e-05
2.42762e-05
2.62268e-05
2.34011e-05
3.56749e-05
2.45328e-05
2.1618e-05
2.77062e-05
2.59199e-05
3.15769e-05
3.52861e-05
3.37172e-05
2.89079e-05
3.3657e-05
2.54564e-05
3.9003e-05
4.18592e-05
2.29998e-05
4.11012e-05
2.29048e-05
4.05902e-05
3.73589e-05
3.49868e-05
3.53789e-05
4.14634e-05
1.9238e-05
2.53617e-05
2.34939e-05
4.1719e-05
4.1019e-05
3.80361e-05
4.15905e-05
4.22311e-05
3.55236e-05
4.3496e-05
2.89807e-05
2.60124e-05
4.76136e-05
2.72671e-05
4.32554e-05
3.44123e-05
2.15966e-05
2.65079e-05
4.30415e-05
3.59977e-05
3.26315e-05
4.19912e-05
4.13316e-05
2.63887e-05
2.64646e-05
2.53767e-05
3.6684e-05
4.03674e-05
4.63917e-05
4.45535e-05
4.84823e-05
4.3933e-05
4.80092e-05
4.02712e-05
4.22924e-05
4.26177e-05
4.0179e-05
4.22118e-05
3.89607e-05
3.83811e-05
2.67341e-05
3.62914e-05
4.24109e-05
2.93298e-05
4.34867e-05
3.99542e-05
4.59861e-05
2.73506e-05
4.37237e-05
4.18375e-05
2.69165e-05
3.76676e-05
2.67304e-05
4.22523e-05
3.84103e-05
2.8026e-05
2.63323e-05
2.25865e-05
2.59869e-05
4.23071e-05
1.89545e-05
3.24485e-05
2.62298e-05
2.95735e-05
4.37631e-05
4.24326e-05
1.34862e-05
4.25832e-05
2.26976e-05
2.48292e-05
4.35302e-05
3.53869e-05
2.51112e-05
4.86414e-05
2.7448e-05
1.34859e-05
2.53918e-05
3.78469e-05
4.73056e-05
3.57463e-05
4.23342e-05
3.95173e-05
2.08696e-05
2.02558e-05
1.6948e-05
1.94318e-05
2.84175e-05
2.14881e-05
3.47291e-05
2.15302e-05
3.76166e-05
2.67679e-05
2.54291e-05
3.01454e-05
2.77343e-05
3.71732e-05
2.65958e-05
2.7286e-05
1.23938e-05
2.80183e-05
4.04792e-05
4.05057e-05
3.64932e-05
2.65514e-05
1.76376e-05
5.075e-05
3.38602e-05
2.81714e-05
2.59425e-05
2.62823e-05
2.675e-05
3.31393e-05
2.6288e-05
1.85355e-05
2.59569e-05
1.76025e-05
3.25631e-05
2.64511e-05
1.15512e-05
2.49294e-05
2.98409e-05
2.64412e-05
4.12201e-05
2.74843e-05
3.56985e-05
1.33697e-05
2.86336e-05
2.71581e-05
2.41345e-05
2.54904e-05
3.02441e-05
2.86811e-05
2.99249e-05
2.52001e-05
2.56127e-05
2.76993e-05
3.74385e-05
2.60806e-05
3.72535e-05
3.35754e-05
2.67824e-05
2.70588e-05
2.73535e-05
3.03509e-05
2.7319e-05
2.55272e-05
2.90701e-05
3.08451e-05
3.62165e-05
2.73521e-05
2.70984e-05
3.96404e-05
3.90874e-05
2.60967e-05
2.67873e-05
1.1461e-05
3.20162e-05
2.18301e-05
2.99981e-05
1.26144e-05
1.3095e-05
1.17051e-05
1.18956e-05
1.26212e-05
1.32916e-05
1.36997e-05
3.39256e-05
2.52691e-05
2.51999e-05
2.87049e-05
2.79068e-05
2.75549e-05
2.93545e-05
2.69594e-05
2.75688e-05
2.85365e-05
2.74523e-05
3.41284e-05
2.48087e-05
3.50709e-05
2.70764e-05
2.60803e-05
2.74836e-05
2.97635e-05
3.07923e-05
2.86181e-05
3.28551e-05
3.06205e-05
2.83192e-05
2.03168e-05
2.85504e-05
2.79849e-05
3.03747e-05
2.87509e-05
2.72123e-05
2.59048e-05
2.85779e-05
2.98834e-05
4.06804e-05
2.66853e-05
3.95493e-05
4.10994e-05
2.80855e-05
3.94753e-05
3.02097e-05
2.40972e-05
3.31497e-05
2.88506e-05
2.10817e-05
1.78795e-05
3.2769e-05
3.49308e-05
2.9352e-05
2.43616e-05
2.9489e-05
1.34881e-05
2.90191e-05
2.71812e-05
1.35841e-05
5.43193e-06
5.9426e-06
2.51462e-05
2.66913e-05
3.10909e-05
2.98118e-05
2.80683e-06
2.93286e-06
2.97024e-05
3.00142e-05
2.84066e-05
1.01238e-05
2.49614e-05
2.93295e-05
2.96607e-05
2.55777e-05
2.25811e-05
1.05357e-05
4.3165e-05
2.68537e-05
3.29664e-05
3.3482e-05
2.39895e-05
3.03809e-05
2.34551e-05
2.58893e-05
1.25716e-05
1.91243e-05
3.0416e-05
3.06789e-05
2.6315e-05
2.76052e-05
2.85146e-05
3.00785e-05
2.87638e-05
1.38926e-05
2.54989e-05
2.83861e-05
2.70619e-05
4.06466e-05
1.38867e-05
2.18841e-05
2.25345e-05
2.15995e-05
1.4154e-05
1.41547e-05
2.4709e-05
1.96621e-05
2.82629e-05
1.48587e-05
1.68915e-05
5.54427e-06
5.54418e-06
1.09755e-05
1.82762e-05
1.23296e-05
2.40732e-05
2.62827e-05
2.78304e-05
3.14126e-05
2.85581e-05
2.64633e-05
2.07467e-05
1.24128e-05
2.60126e-05
2.70445e-05
2.62248e-05
1.4003e-05
1.35099e-05
1.01188e-05
2.61843e-05
2.66512e-05
2.11992e-05
2.41399e-05
2.22911e-05
2.06036e-05
2.73337e-05
2.06013e-05
2.40747e-05
2.33399e-05
1.44501e-05
1.78444e-05
1.59623e-05
2.89375e-05
1.10276e-05
1.16256e-05
1.13551e-05
2.73724e-05
1.05163e-05
1.02668e-05
1.88922e-05
9.58698e-06
2.2334e-05
2.23674e-05
9.84709e-06
2.39739e-05
1.10179e-05
1.0862e-05
1.23301e-05
1.03617e-05
1.02519e-05
1.59436e-05
1.22104e-05
1.10109e-05
1.03977e-05
2.20243e-05
2.52692e-05
1.15227e-05
2.43108e-05
9.41569e-06
2.46887e-05
1.9531e-05
9.84519e-06
8.39328e-06
9.29505e-06
1.23583e-05
2.11321e-05
1.76378e-05
7.44995e-06
8.26589e-06
2.36497e-05
7.01214e-06
7.01199e-06
7.94413e-06
8.89391e-06
9.62385e-06
1.16456e-05
1.91483e-05
1.77856e-05
2.36562e-05
7.03049e-06
7.03035e-06
2.1019e-05
8.24668e-06
1.67748e-05
7.47685e-06
7.58194e-06
9.99182e-06
1.80927e-05
1.87331e-05
1.99529e-05
1.82876e-05
1.80919e-05
3.97017e-06
2.91986e-05
5.05623e-06
4.91e-06
2.35941e-05
2.34314e-05
5.08889e-06
3.53215e-06
4.96905e-06
2.17513e-05
SCALARS rr_P' float
LOOKUP_TABLE default
3.44839e-05
7.27896e-05
5.85262e-05
7.60859e-05
3.89469e-05
6.2127e-05
3.41049e-05
7.57269e-05
6.58393e-05
8.18231e-05
3.11581e-05
7.59596e-05
6.6953e-05
7.03849e-05
8.15099e-05
6.96663e-05
5.9373e-05
6.75737e-05
6.13624e-05
5.95075e-05
6.70068e-05
1.12407e-05
6.86557e-05
6.32055e-05
5.73057e-05
6.56473e-05
2.85594e-05
5.78994e-05
4.69246e-05
5.15599e-05
5.9162e-05
4.85006e-05
3.16698e-05
3.88157e-05
3.80528e-05
3.89058e-05
5.0083e-05
3.81676e-05
5.91111e-05
3.55894e-05
3.94495e-05
4.41249e-05
4.41325e-05
6.49279e-05
3.94543e-05
4.27365e-05
5.76496e-05
5.81934e-05
5.42411e-05
5.38382e-05
5.513e-05
4.23274e-05
6.2586e-05
5.4375e-05
5.76553e-05
2.85498e-05
4.06222e-05
5.47739e-05
4.06236e-05
6.48482e-05
7.58167e-05
7.38149e-05
2.7949e-05
5.20641e-05
7.06939e-05
6.71439e-05
7.33191e-05
6.37567e-05
5.91497e-05
8.35249e-05
6.79138e-05
6.71764e-05
4.87429e-05
5.42163e-05
5.81496e-05
3.27972e-05
5.86549e-05
6.65249e-05
6.42985e-05
4.66298e-05
4.27558e-05
4.38485e-05
8.43451e-05
4.29092e-05
5.72364e-05
2.16587e-05
6.68822e-05
5.52957e-05
4.17785e-05
5.55433e-06
4.7123e-05
6.04172e-06
4.97516e-05
4.82429e-05
4.45649e-05
4.11192e-05
3.92626e-05
7.18434e-05
5.87045e-05
5.7564e-05
4.97333e-05
4.83171e-05
4.11791e-05
6.81867e-05
6.92209e-05
6.23212e-05
5.43541e-05
5.58374e-05
4.37176e-05
8.28861e-05
5.37628e-05
2.96863e-05
3.95378e-05
7.46592e-05
6.98249e-05
5.24967e-05
4.71101e-05
3.26356e-05
4.88747e-05
5.22753e-05
4.4982e-05
7.95249e-05
8.29645e-05
7.09068e-05
7.82738e-05
6.07055e-05
3.39035e-05
7.75715e-05
3.55598e-05
4.5192e-05
3.54778e-05
7.40542e-05
7.18523e-05
7.26917e-05
5.02471e-05
2.86219e-05
3.41812e-05
5.34348e-05
6.46673e-05
2.86143e-05
4.19306e-05
6.27683e-05
4.8394e-05
7.66553e-05
3.97348e-05
6.26371e-05
5.68244e-05
5.52384e-05
3.53149e-05
4.58947e-05
5.05956e-05
7.14279e-05
4.35253e-05
6.49045e-05
7.49162e-05
7.61275e-05
4.96909e-05
4.31556e-05
4.29009e-05
6.55403e-05
5.54658e-05
4.3139e-05
2.9002e-05
4.22418e-05
4.16852e-05
6.99621e-05
4.37394e-05
4.42269e-05
4.81859e-05
4.26193e-05
6.07356e-05
4.4539e-05
3.98447e-05
4.79809e-05
4.7045e-05
5.43325e-05
6.00787e-05
5.88122e-05
4.89027e-05
5.85789e-05
4.67642e-05
6.78534e-05
7.28311e-05
4.19324e-05
7.09462e-05
4.22476e-05
7.00688e-05
6.42386e-05
5.95381e-05
6.15372e-05
7.15613e-05
3.56228e-05
4.60358e-05
4.31601e-05
7.25673e-05
7.1666e-05
6.64176e-05
7.16793e-05
7.34408e-05
6.14649e-05
7.56219e-05
5.15492e-05
4.70841e-05
8.20689e-05
5.00822e-05
7.45027e-05
5.95278e-05
3.94646e-05
4.53782e-05
7.48215e-05
6.156e-05
5.66282e-05
7.31359e-05
7.11812e-05
4.74553e-05
4.5884e-05
4.58805e-05
6.30811e-05
7.00385e-05
8.04944e-05
7.7401e-05
8.41811e-05
7.62764e-05
8.33615e-05
6.99839e-05
7.2281e-05
7.28605e-05
6.86699e-05
7.2134e-05
6.59937e-05
6.50096e-05
4.81145e-05
6.30495e-05
7.3969e-05
5.19038e-05
7.42673e-05
6.82051e-05
8.018e-05
4.94926e-05
7.62878e-05
7.27722e-05
4.83788e-05
6.44748e-05
4.80692e-05
7.27439e-05
6.70476e-05
5.03622e-05
4.75848e-05
4.18949e-05
4.81705e-05
7.28567e-05
3.52311e-05
5.67893e-05
4.74267e-05
5.26448e-05
7.63663e-05
7.36378e-05
2.23856e-05
7.39204e-05
4.22186e-05
4.4894e-05
7.59266e-05
6.17205e-05
4.54645e-05
8.44206e-05
4.89029e-05
2.23869e-05
4.58997e-05
6.56509e-05
8.17102e-05
6.24171e-05
7.23183e-05
6.8248e-05
3.53241e-05
3.54124e-05
3.17688e-05
3.65745e-05
4.82478e-05
3.7876e-05
6.05727e-05
3.87142e-05
6.43775e-05
4.6359e-05
4.59736e-05
5.21949e-05
4.97005e-05
6.47051e-05
4.76547e-05
4.93639e-05
2.03968e-05
4.76507e-05
6.91104e-05
6.9169e-05
6.34172e-05
4.75363e-05
2.95761e-05
8.76942e-05
5.98638e-05
5.04173e-05
4.65931e-05
4.46249e-05
4.80839e-05
5.64322e-05
4.71562e-05
3.49233e-05
4.6484e-05
3.26829e-05
5.59819e-05
4.75443e-05
1.90128e-05
4.47182e-05
5.1437e-05
4.75883e-05
7.11227e-05
4.93172e-05
6.2591e-05
2.52834e-05
5.032e-05
4.88287e-05
4.10005e-05
4.5859e-05
5.34702e-05
4.94805e-05
5.20086e-05
4.52128e-05
4.58612e-05
4.93656e-05
6.43734e-05
4.6708e-05
6.49751e-05
5.88663e-05
4.53389e-05
4.84498e-05
4.8775e-05
5.35671e-05
4.86533e-05
4.57628e-05
5.17591e-05
5.28598e-05
6.31843e-05
4.87483e-05
4.87337e-05
6.89375e-05
6.7963e-05
4.67577e-05
4.5352e-05
2.22324e-05
5.61552e-05
4.04858e-05
5.29199e-05
2.59599e-05
2.69454e-05
2.407e-05
2.44684e-05
2.5953e-05
2.73569e-05
2.81838e-05
5.83035e-05
4.24999e-05
4.40458e-05
5.0776e-05
4.96803e-05
4.90764e-05
5.10921e-05
4.80526e-05
4.9166e-05
4.7984e-05
4.88959e-05
5.83785e-05
4.50499e-05
6.00438e-05
4.75595e-05
4.61397e-05
4.89708e-05
5.05208e-05
5.40057e-05
5.05893e-05
5.7618e-05
5.41239e-05
5.04882e-05
3.68215e-05
5.05142e-05
4.91319e-05
5.19389e-05
5.11285e-05
4.85651e-05
4.60857e-05
5.05958e-05
5.24823e-05
7.07958e-05
4.74809e-05
6.88386e-05
7.22542e-05
4.97089e-05
6.88349e-05
5.30932e-05
4.29339e-05
5.72015e-05
5.09455e-05
3.5488e-05
3.36838e-05
5.63141e-05
5.98631e-05
5.15437e-05
4.30024e-05
5.10184e-05
2.61273e-05
5.09649e-05
4.80056e-05
2.56729e-05
8.94551e-06
9.78345e-06
4.41105e-05
4.75203e-05
5.48354e-05
5.30096e-05
4.54317e-06
4.74714e-06
5.17932e-05
5.23271e-05
4.95526e-05
1.96141e-05
4.452e-05
5.05299e-05
5.24897e-05
4.53081e-05
3.99698e-05
2.0452e-05
7.45264e-05
4.78373e-05
5.78418e-05
5.87453e-05
4.25024e-05
5.3713e-05
4.15567e-05
4.58262e-05
2.39195e-05
3.54999e-05
5.37806e-05
5.38192e-05
4.64617e-05
4.89296e-05
5.03825e-05
5.3074e-05
5.07867e-05
2.61707e-05
4.35358e-05
5.05113e-05
4.6832e-05
7.01355e-05
2.61781e-05
3.84143e-05
3.95947e-05
3.65652e-05
2.33301e-05
2.33326e-05
4.20298e-05
3.50752e-05
4.96057e-05
2.80424e-05
2.79051e-05
8.99688e-06
8.99714e-06
2.1332e-05
3.05439e-05
2.05117e-05
4.22969e-05
4.47764e-05
4.86447e-05
5.45959e-05
4.9264e-05
4.55203e-05
3.61857e-05
2.40519e-05
4.55778e-05
4.68438e-05
4.51897e-05
2.68187e-05
2.2555e-05
1.91593e-05
4.51394e-05
4.63003e-05
3.80595e-05
4.22174e-05
3.88963e-05
3.48538e-05
4.76237e-05
3.48528e-05
4.22308e-05
4.02113e-05
2.40844e-05
2.9719e-05
3.01132e-05
5.0223e-05
2.14945e-05
2.26113e-05
2.21892e-05
4.72588e-05
2.04009e-05
2.01092e-05
3.34823e-05
1.87116e-05
3.75884e-05
3.76472e-05
1.91847e-05
4.23077e-05
2.09549e-05
2.11832e-05
2.3502e-05
2.02163e-05
1.95413e-05
2.6629e-05
2.31306e-05
2.1351e-05
2.02633e-05
3.84464e-05
4.33633e-05
2.20021e-05
4.24291e-05
1.84295e-05
4.29355e-05
3.4442e-05
1.92237e-05
1.60538e-05
1.81803e-05
2.402e-05
3.71486e-05
2.96346e-05
1.21153e-05
1.34621e-05
4.10532e-05
1.1407e-05
1.14072e-05
1.29311e-05
1.46057e-05
1.8192e-05
1.94219e-05
3.25438e-05
2.98819e-05
4.1121e-05
1.15184e-05
1.15187e-05
3.52389e-05
1.60478e-05
2.96118e-05
1.45263e-05
1.4381e-05
1.89401e-05
2.99293e-05
3.09979e-05
3.30404e-05
3.02751e-05
2.993e-05
6.46933e-06
4.83373e-05
8.28418e-06
7.98266e-06
3.90213e-05
3.87467e-05
8.26951e-06
5.75331e-06
8.13752e-06
3.6043e-05
SCALARS rr_T' float
LOOKUP_TABLE default
0.000208844
0.000475775
0.000379971
0.000496635
0.000259667
0.000403285
0.000206499
0.000493881
0.000424672
0.000534671
0.000189536
0.000495394
0.00043596
0.000460425
0.000539411
0.000452829
0.000389445
0.000440285
0.000394402
0.000385581
0.000433738
7.7001e-05
0.000444407
0.000409585
0.000371273
0.000428289
0.000175584
0.000376207
0.000295284
0.000347518
0.000385144
0.00030525
0.000194506
0.000260398
0.000255927
0.000260984
0.000337856
0.000256449
0.000384753
0.000218627
0.000248196
0.000297759
0.000297791
0.000422693
0.000244044
0.000269232
0.000371155
0.000375848
0.000352202
0.000337177
0.000346222
0.000268473
0.000416771
0.000344977
0.000383704
0.00017703
0.000273257
0.000347506
0.000273248
0.00042034
0.00049714
0.00048722
0.000172682
0.000343528
0.000466667
0.000440431
0.000480884
0.000415981
0.000383072
0.000546042
0.000452179
0.000447252
0.000306662
0.000356503
0.000377636
0.00020078
0.000388793
0.000436346
0.000419483
0.000296268
0.000267377
0.000293084
0.000554889
0.000267751
0.000361006
0.000134093
0.000434576
0.000363159
0.000258443
3.78925e-05
0.000298928
4.12121e-05
0.000329902
0.000316162
0.000282905
0.000258042
0.000245568
0.000469411
0.000389082
0.00037457
0.000318251
0.000305326
0.000256909
0.000444601
0.000451959
0.000406996
0.000357922
0.000363104
0.000272716
0.000542323
0.000348513
0.000184079
0.000246011
0.000486585
0.000455833
0.000333146
0.000316871
0.000204059
0.000328663
0.000331828
0.000288619
0.000525817
0.000542233
0.000465756
0.000512411
0.000402009
0.000227404
0.000506819
0.000222411
0.000286876
0.000236202
0.000483771
0.000472514
0.000474997
0.00031756
0.000192529
0.000212893
0.00034812
0.000425438
0.000192464
0.000265224
0.000410272
0.000310889
0.000500932
0.000248367
0.000408761
0.000370974
0.000358667
0.00022925
0.000292996
0.000326692
0.000466825
0.000273885
0.000422684
0.000489545
0.000497351
0.000325429
0.000273187
0.000271637
0.000426739
0.000358274
0.000271609
0.000179739
0.000265277
0.000263849
0.000456928
0.000276868
0.000279922
0.000303231
0.000269805
0.000402807
0.000282571
0.000250201
0.000314459
0.000298523
0.000357687
0.000398427
0.000383529
0.000325773
0.000382588
0.000294311
0.000443297
0.000475779
0.000265268
0.000466023
0.000265156
0.000460241
0.000423095
0.000394985
0.000402084
0.000470109
0.000222985
0.000292102
0.000271625
0.000474148
0.000466823
0.000432803
0.000471352
0.000479935
0.000403075
0.000494272
0.000331658
0.00029933
0.000539631
0.000315228
0.000490128
0.000390438
0.000249265
0.000299801
0.000489087
0.000407001
0.000370596
0.000477428
0.000468315
0.000303035
0.000300473
0.000291907
0.000415458
0.000458434
0.000526857
0.000506174
0.000550717
0.00049903
0.000545347
0.000457559
0.000478089
0.000481814
0.000454202
0.00047716
0.000439235
0.000432697
0.000307078
0.000412305
0.000482416
0.000335116
0.00049148
0.000451497
0.000523034
0.000314701
0.000497407
0.000475489
0.000309044
0.000426001
0.000306957
0.000478701
0.000437023
0.000321761
0.000302853
0.000261943
0.000301318
0.000479357
0.000219968
0.000369478
0.000301728
0.000338526
0.000497875
0.00048192
0.000151125
0.000483673
0.000263467
0.000285617
0.000495159
0.000402513
0.000288983
0.000552451
0.000314278
0.000151125
0.000292065
0.000429782
0.000536483
0.000406743
0.000478494
0.000448136
0.000235227
0.000230569
0.000197224
0.000226431
0.000320597
0.000245216
0.000395029
0.000247233
0.000425405
0.000303815
0.000292508
0.000342122
0.000318134
0.000422568
0.000305063
0.000313934
0.000138532
0.000316256
0.000457449
0.000457775
0.00041463
0.000304475
0.000198244
0.000575614
0.000386766
0.000323013
0.000297788
0.000296513
0.000307141
0.000374204
0.000301639
0.000216061
0.000297683
0.000204207
0.000368762
0.000303705
0.00012912
0.000286048
0.000338206
0.000303715
0.000467317
0.000315397
0.000406713
0.000156029
0.000326457
0.000311849
0.000272328
0.000292758
0.00034546
0.000325145
0.000340016
0.000289173
0.000293722
0.000317186
0.000423992
0.000299107
0.000423742
0.00038252
0.000301884
0.000310304
0.000313278
0.000346495
0.000312761
0.000292852
0.000332783
0.000348968
0.000411983
0.000313212
0.00031119
0.000450489
0.000444179
0.000299333
0.000301948
0.000134889
0.000364802
0.000253158
0.000342418
0.000151493
0.000157258
0.000140535
0.000142836
0.000151533
0.000159631
0.000164506
0.000384151
0.000284274
0.000286828
0.000327934
0.000319453
0.000315467
0.000333681
0.000308724
0.000315757
0.00032101
0.000314297
0.000385896
0.000285769
0.000396666
0.000308655
0.000297961
0.000314694
0.000335757
0.00035085
0.000326874
0.000374343
0.000349736
0.000324321
0.000233884
0.000326192
0.000318962
0.000343415
0.000329005
0.000311746
0.000296473
0.000326572
0.000340636
0.000462408
0.000305419
0.000449573
0.000468636
0.000320915
0.000448983
0.000344432
0.000275915
0.000375829
0.00032942
0.000237228
0.000208407
0.000371049
0.000395195
0.000334568
0.00027813
0.000334593
0.00015867
0.000330786
0.000310374
0.000158499
6.07276e-05
6.64306e-05
0.000286533
0.000305546
0.000354866
0.000341133
3.12213e-05
3.26231e-05
0.00033783
0.000341354
0.000323127
0.000119101
0.000285903
0.000332359
0.000338897
0.000292334
0.000258025
0.000124029
0.000489461
0.000307461
0.000375668
0.000381541
0.000274198
0.000347024
0.000268092
0.000295828
0.000147011
0.000221844
0.000347437
0.000349583
0.000300455
0.000315567
0.000325644
0.000343361
0.000328418
0.00016193
0.000288159
0.000324894
0.000307079
0.000460818
0.000161899
0.000249416
0.000256906
0.000243464
0.000158281
0.000158292
0.000278919
0.000225219
0.000322103
0.000173296
0.00018902
6.17164e-05
6.17161e-05
0.000129259
0.000205214
0.000138256
0.000274444
0.00029682
0.00031677
0.000356922
0.000323745
0.000299733
0.000235986
0.000146036
0.0002963
0.000306966
0.000297194
0.000164106
0.00015165
0.000118137
0.000296774
0.000302779
0.000243313
0.00027481
0.000253587
0.00023219
0.000310809
0.00023217
0.000274323
0.000264485
0.000162125
0.000200161
0.000186142
0.000328657
0.000129991
0.000136941
0.000133967
0.00031038
0.000123772
0.000121222
0.000215958
0.000113061
0.000251302
0.000251682
0.000116058
0.000273685
0.000128824
0.000128062
0.000144272
0.000122181
0.000119957
0.000178989
0.000142584
0.000129574
0.00012256
0.000250582
0.000286003
0.000134904
0.00027658
0.000111147
0.000280573
0.000222915
0.000116122
9.8321e-05
0.000109696
0.000145546
0.000240953
0.000198361
8.2982e-05
9.21103e-05
0.000268615
7.81129e-05
7.81122e-05
8.85107e-05
9.93504e-05
0.000112301
0.000130682
0.000216093
0.000200022
0.000268801
7.84803e-05
7.84798e-05
0.000236233
9.71616e-05
0.000191518
8.80427e-05
8.857e-05
0.000116699
0.000202542
0.000209729
0.000223433
0.00020477
0.000202537
4.4248e-05
0.000326939
5.64427e-05
5.46863e-05
0.000264111
0.000262278
5.66706e-05
3.93617e-05
5.54618e-05
0.000243621
SCALARS rr_uec(SIM,_S_ext) float
LOOKUP_TABLE default
0.0133001
0.030303
0.0242007
0.0316316
0.0165388
0.0256856
0.0131507
0.0314559
0.0270475
0.034054
0.0120709
0.0315522
0.0277667
0.0293252
0.0343564
0.0288411
0.0248045
0.0280424
0.0251195
0.024558
0.027625
0.00490454
0.0283046
0.0260868
0.0236467
0.0272784
0.0111824
0.023961
0.0188062
0.0221347
0.0245302
0.0194409
0.0123874
0.0165856
0.0163008
0.016623
0.0215193
0.016334
0.0245053
0.0139235
0.0158073
0.0189654
0.0189675
0.0269217
0.0155425
0.017147
0.0236389
0.0239379
0.0224321
0.0214742
0.0220503
0.0170988
0.0265453
0.0219712
0.0244391
0.0112745
0.0174046
0.0221323
0.0174041
0.0267719
0.0316639
0.031032
0.0109975
0.02188
0.029723
0.0280518
0.0306285
0.0264945
0.0243982
0.0347785
0.0288005
0.0284867
0.0195308
0.0227063
0.0240519
0.0127869
0.0247631
0.0277916
0.0267175
0.0188691
0.0170286
0.0186673
0.0353421
0.0170524
0.0229919
0.00854004
0.0276786
0.0231302
0.0164596
0.00241353
0.0190384
0.00262497
0.0210123
0.0201368
0.0180179
0.0164343
0.0156396
0.0298975
0.0247815
0.0238567
0.0202693
0.0194457
0.016362
0.0283173
0.028786
0.0259222
0.0227968
0.0231264
0.0173687
0.0345417
0.0221971
0.0117235
0.0156679
0.0309913
0.0290327
0.0212176
0.0201825
0.012996
0.0209335
0.0211338
0.0183821
0.0334906
0.0345358
0.0296649
0.0326366
0.025605
0.014484
0.0322801
0.0141648
0.0182708
0.0150444
0.0308123
0.0300955
0.0302535
0.0202248
0.0122628
0.0135585
0.0221721
0.0270971
0.0122587
0.0168917
0.0261308
0.0198005
0.0319052
0.0158179
0.0260346
0.0236278
0.0228438
0.0146011
0.0186608
0.0208072
0.029733
0.0174434
0.0269212
0.0311799
0.0316772
0.0207271
0.0173989
0.0173001
0.0271795
0.0228186
0.0172984
0.0114471
0.0168951
0.0168042
0.0291025
0.0176333
0.0178278
0.0193123
0.0171835
0.0256558
0.0179966
0.0159349
0.0200284
0.0190126
0.0227818
0.0253768
0.0244274
0.0207493
0.0243675
0.0187442
0.0282343
0.0303031
0.0168945
0.0296817
0.0168874
0.0293136
0.0269478
0.0251575
0.0256094
0.029942
0.0142014
0.0186037
0.0172994
0.0301994
0.0297326
0.0275659
0.0300215
0.030568
0.0256725
0.0314811
0.0211234
0.0190641
0.0343702
0.0200763
0.0312173
0.0248676
0.0158753
0.0190949
0.0311509
0.0259227
0.0236038
0.0304081
0.029828
0.0193002
0.0191375
0.0185913
0.0264613
0.0291987
0.0335567
0.0322394
0.0350764
0.0317843
0.0347343
0.0291426
0.0304507
0.030688
0.0289293
0.0303915
0.027976
0.0275596
0.0195577
0.0262604
0.0307261
0.0213436
0.0313036
0.028757
0.0333131
0.0200431
0.0316809
0.0302847
0.0196828
0.027133
0.0195499
0.0304894
0.027835
0.0204928
0.0192885
0.0166825
0.0191904
0.0305313
0.0140092
0.0235324
0.0192169
0.0215608
0.0317107
0.0306946
0.0096257
0.0308062
0.0167794
0.0181908
0.0315377
0.0256365
0.0184051
0.0351868
0.0200164
0.00962571
0.0186014
0.0273737
0.0341696
0.0259061
0.0304765
0.0285425
0.0149822
0.0146852
0.0125607
0.0144207
0.0204196
0.015618
0.0251599
0.0157461
0.027095
0.0193504
0.0186296
0.0217903
0.0202618
0.0269138
0.0194293
0.0199943
0.00882367
0.0201432
0.0291361
0.0291569
0.0264084
0.0193919
0.0126268
0.0366619
0.0246333
0.0205726
0.0189659
0.0188857
0.0195617
0.0238339
0.0192112
0.0137604
0.0189593
0.0130054
0.0234872
0.0193428
0.00822417
0.0182182
0.021541
0.0193435
0.0297643
0.0200874
0.0259039
0.00993688
0.0207924
0.0198615
0.0173453
0.0186456
0.0220025
0.020709
0.0216563
0.0184173
0.018707
0.0202016
0.0270049
0.01905
0.0269886
0.0243631
0.0192277
0.0197631
0.0199526
0.0220684
0.0199197
0.0186516
0.0211949
0.0222265
0.0262397
0.0199484
0.0198195
0.0286922
0.0282903
0.0190644
0.0192319
0.00859063
0.0232345
0.016123
0.0218088
0.00964795
0.0100151
0.00895011
0.00909665
0.00965053
0.0101662
0.0104766
0.0244673
0.0181063
0.0182685
0.0208862
0.020346
0.0200921
0.0212526
0.0196626
0.0201105
0.0204461
0.0200176
0.0245785
0.0182003
0.0252647
0.0196585
0.0189773
0.0200428
0.0213852
0.0223459
0.0208187
0.0238422
0.0222748
0.020656
0.0148959
0.0207753
0.0203149
0.0218728
0.0209544
0.0198551
0.0188824
0.0207995
0.0216954
0.0294514
0.0194522
0.0286338
0.0298478
0.0204392
0.0285963
0.0219372
0.017573
0.0239373
0.0209809
0.0151098
0.0132729
0.0236328
0.0251708
0.0213089
0.0177142
0.0213108
0.0101051
0.0210681
0.0197678
0.0100942
0.00386797
0.00423122
0.0182496
0.0194602
0.0226016
0.0217268
0.00198862
0.0020779
0.0215169
0.0217413
0.0205804
0.00758507
0.0182092
0.0211686
0.0215844
0.0186188
0.0164337
0.00789898
0.0311747
0.0195822
0.0239266
0.0243007
0.0174637
0.0221021
0.0170748
0.0188413
0.0093626
0.0141287
0.0221284
0.0222652
0.0191361
0.0200985
0.0207404
0.0218688
0.0209171
0.0103129
0.0183535
0.0206926
0.0195584
0.0293503
0.0103109
0.0158855
0.0163625
0.0155069
0.0100816
0.0100823
0.0177651
0.0143442
0.020515
0.0110368
0.0120395
0.003931
0.00393098
0.00823205
0.0130707
0.00880604
0.0174795
0.0189051
0.0201755
0.022733
0.0206199
0.0190906
0.0150302
0.00930055
0.0188716
0.0195511
0.0189288
0.0104513
0.00965913
0.00752366
0.0189022
0.0192844
0.0154965
0.0175029
0.0161512
0.0147889
0.0197958
0.0147876
0.0174719
0.0168455
0.0103263
0.0127489
0.0118548
0.0209327
0.00827838
0.00872096
0.0085316
0.0197687
0.00788255
0.00771997
0.0137544
0.00720022
0.0160061
0.0160303
0.00739107
0.0174312
0.00820433
0.00815547
0.00918815
0.00778097
0.00763961
0.0114004
0.00908074
0.00825208
0.00780515
0.0159598
0.0182161
0.00859153
0.0176157
0.00707839
0.0178701
0.0141976
0.00739509
0.0062617
0.00698587
0.0092693
0.0153465
0.0126342
0.00528551
0.00586693
0.0171085
0.00497538
0.00497533
0.00563766
0.00632805
0.00715214
0.00832358
0.0137635
0.0127399
0.0171204
0.00499875
0.00499871
0.0150463
0.00618789
0.0121979
0.00560709
0.00564063
0.0074321
0.0129007
0.0133585
0.0142314
0.0130426
0.0129004
0.00281835
0.020824
0.00359508
0.00348321
0.0168223
0.0167055
0.0036096
0.00250712
0.0035326
0.0155172
SCALARS rr_uec(PEX,_P_ext) float
LOOKUP_TABLE default
-0.0608522
-0.138688
-0.110757
-0.144768
-0.0757005
-0.117553
-0.0601687
-0.143964
-0.123783
-0.155856
-0.0552283
-0.144405
-0.127079
-0.134214
-0.157248
-0.131995
-0.113525
-0.12834
-0.114957
-0.112391
-0.126427
-0.0224512
-0.129537
-0.119388
-0.10822
-0.124845
-0.0511657
-0.10966
-0.0860575
-0.101318
-0.112267
-0.0889619
-0.0566792
-0.0759161
-0.0746136
-0.0760872
-0.0985012
-0.0747655
-0.112152
-0.063708
-0.0723342
-0.0868113
-0.0868205
-0.123212
-0.0711175
-0.0784653
-0.108182
-0.109552
-0.102663
-0.0982643
-0.100902
-0.078247
-0.1215
-0.100544
-0.11186
-0.0515892
-0.0796662
-0.101281
-0.0796635
-0.122523
-0.144919
-0.142031
-0.0503213
-0.100143
-0.13604
-0.128388
-0.14018
-0.121257
-0.11166
-0.159171
-0.131823
-0.130386
-0.0893735
-0.103924
-0.110076
-0.0585065
-0.113341
-0.127197
-0.122278
-0.0863488
-0.0779216
-0.0854434
-0.161755
-0.0780296
-0.105213
-0.0390767
-0.126675
-0.105863
-0.0753139
-0.0110481
-0.0871231
-0.012016
-0.0961734
-0.0921621
-0.0824535
-0.0752026
-0.0715656
-0.136832
-0.113425
-0.109184
-0.0927592
-0.0889858
-0.07487
-0.129599
-0.131745
-0.118638
-0.104338
-0.105841
-0.0794765
-0.158088
-0.101587
-0.0536437
-0.0716932
-0.141837
-0.132874
-0.097096
-0.0923813
-0.0594686
-0.0958192
-0.0967123
-0.0841237
-0.153285
-0.158061
-0.135771
-0.149369
-0.117194
-0.066297
-0.147737
-0.0648169
-0.0836107
-0.0688594
-0.141019
-0.137742
-0.138461
-0.0925513
-0.0561305
-0.0620417
-0.101475
-0.124019
-0.0561116
-0.0772987
-0.119594
-0.0906153
-0.146021
-0.0723812
-0.119152
-0.108138
-0.104547
-0.0668235
-0.0853971
-0.0952242
-0.136079
-0.0798211
-0.123209
-0.142702
-0.144977
-0.0948631
-0.0796198
-0.0791681
-0.124391
-0.10443
-0.0791578
-0.0523788
-0.0773115
-0.0768983
-0.133193
-0.0806926
-0.0815826
-0.0883736
-0.0786342
-0.117427
-0.0823558
-0.0729175
-0.0916656
-0.0870051
-0.104269
-0.11615
-0.111797
-0.0949719
-0.111523
-0.0857738
-0.12922
-0.138689
-0.0773116
-0.135848
-0.0772759
-0.134163
-0.123337
-0.115147
-0.117207
-0.13704
-0.0649848
-0.0851339
-0.0791624
-0.138214
-0.136076
-0.12616
-0.137403
-0.139901
-0.117498
-0.14408
-0.0966699
-0.0872413
-0.157307
-0.0918699
-0.142877
-0.113814
-0.0726472
-0.0873965
-0.142569
-0.118647
-0.108029
-0.139169
-0.136518
-0.0883235
-0.0875882
-0.0850783
-0.12111
-0.133635
-0.15358
-0.14755
-0.160535
-0.145468
-0.158969
-0.133378
-0.139371
-0.140457
-0.132408
-0.139101
-0.128049
-0.126143
-0.0895015
-0.120187
-0.140623
-0.0976792
-0.143276
-0.13162
-0.152463
-0.0917215
-0.144992
-0.138604
-0.0900748
-0.124186
-0.0894664
-0.139546
-0.127391
-0.0937815
-0.0882686
-0.0763377
-0.0878132
-0.139737
-0.0641044
-0.1077
-0.0879407
-0.0986713
-0.145129
-0.140481
-0.0440602
-0.140991
-0.0767808
-0.0832451
-0.144337
-0.11733
-0.0842257
-0.161041
-0.0916033
-0.0440603
-0.0851244
-0.125282
-0.156388
-0.118563
-0.13949
-0.130634
-0.068575
-0.0672092
-0.0574747
-0.0659851
-0.0934617
-0.0714765
-0.115149
-0.0720591
-0.124012
-0.0885628
-0.0852534
-0.0997297
-0.0927253
-0.123177
-0.0889155
-0.0914982
-0.0403901
-0.0921959
-0.133355
-0.13345
-0.120864
-0.0887444
-0.0577958
-0.167795
-0.112735
-0.0941478
-0.0867944
-0.0864407
-0.0895202
-0.109088
-0.087917
-0.062963
-0.0867646
-0.0595114
-0.107498
-0.0885186
-0.0376459
-0.0833728
-0.0985899
-0.0885214
-0.136226
-0.0919269
-0.118553
-0.045468
-0.0951582
-0.0908924
-0.07939
-0.0853279
-0.100695
-0.0947819
-0.0991148
-0.0842837
-0.0856102
-0.0924509
-0.123598
-0.0871796
-0.123519
-0.111501
-0.0880072
-0.0904431
-0.0913115
-0.100997
-0.0911612
-0.0853561
-0.0969971
-0.101729
-0.120091
-0.0912924
-0.0907
-0.131317
-0.129477
-0.0872454
-0.0880261
-0.0393044
-0.106336
-0.0737776
-0.099809
-0.0441333
-0.0458126
-0.0409411
-0.0416114
-0.044145
-0.046504
-0.0479242
-0.111984
-0.0828758
-0.0836085
-0.0955862
-0.093112
-0.09195
-0.0972672
-0.0899844
-0.0920341
-0.0935855
-0.091609
-0.112495
-0.0832879
-0.115634
-0.0899692
-0.0868497
-0.0917245
-0.0978814
-0.102269
-0.0952775
-0.109117
-0.101941
-0.0945303
-0.0681664
-0.0950785
-0.0929736
-0.100111
-0.0958966
-0.0908648
-0.0864141
-0.0951889
-0.0992911
-0.134791
-0.0890218
-0.131049
-0.136601
-0.09354
-0.130877
-0.100398
-0.0804215
-0.109557
-0.0960198
-0.0691599
-0.0607326
-0.108165
-0.115205
-0.0975225
-0.08107
-0.0975352
-0.046234
-0.0964202
-0.0904682
-0.046188
-0.0177056
-0.0193683
-0.0835213
-0.0890584
-0.103437
-0.0994315
-0.00910334
-0.00951206
-0.098476
-0.0995033
-0.09419
-0.034704
-0.0833326
-0.0968855
-0.0987813
-0.085209
-0.075209
-0.0361398
-0.142681
-0.0896164
-0.109503
-0.111215
-0.0799227
-0.101151
-0.0781429
-0.0862275
-0.0428392
-0.0646515
-0.101271
-0.1019
-0.0875771
-0.0919808
-0.094919
-0.100084
-0.0957278
-0.0471886
-0.0840037
-0.0946982
-0.0895147
-0.134332
-0.0471793
-0.0727018
-0.0748847
-0.0709765
-0.0461479
-0.046151
-0.0813111
-0.0656449
-0.0938894
-0.0505004
-0.0551096
-0.0179948
-0.0179947
-0.0376636
-0.0598282
-0.0403081
-0.0799968
-0.086529
-0.0923362
-0.104043
-0.094374
-0.0873753
-0.0687886
-0.0425526
-0.0863684
-0.0894815
-0.0866344
-0.0478198
-0.0442125
-0.0344258
-0.0865121
-0.0882599
-0.0709169
-0.080105
-0.0739192
-0.0676902
-0.0905996
-0.0676842
-0.0799621
-0.0770996
-0.0472666
-0.058356
-0.0542439
-0.0958038
-0.037876
-0.0399013
-0.0390342
-0.0904778
-0.0360649
-0.0353205
-0.0629469
-0.0329429
-0.0732627
-0.0733735
-0.0338163
-0.0797746
-0.0375397
-0.0373137
-0.0420408
-0.0356002
-0.0349554
-0.0521828
-0.0415499
-0.0377556
-0.0357108
-0.0730432
-0.0833736
-0.0393107
-0.0806215
-0.0323851
-0.0817865
-0.064976
-0.0338346
-0.0286504
-0.031962
-0.0424092
-0.0702347
-0.0578291
-0.0241951
-0.0268565
-0.0783013
-0.0227754
-0.0227752
-0.0258071
-0.0289666
-0.0327256
-0.0380994
-0.0629962
-0.0583133
-0.0783553
-0.022882
-0.0228818
-0.0688706
-0.0283109
-0.0558241
-0.0256539
-0.0258096
-0.0340066
-0.0590517
-0.0611471
-0.0651424
-0.059701
-0.0590502
-0.0129013
-0.0953198
-0.0164566
-0.0159449
-0.0770023
-0.0764681
-0.0165235
-0.0114766
-0.0161706
-0.071028
SCALARS cell_type float
LOOKUP_TABLE default
0
0
0
0
0
0
0
0
0
0
0
0
0
0
0
0
0
0
0
0
0
1
0
0
0
0
0
0
0
0
0
0
0
0
0
0
0
0
0
0
0
0
0
0
0
0
0
0
0
0
0
0
0
0
0
0
0
0
0
0
0
0
0
0
0
0
0
0
0
0
0
0
0
0
0
0
0
0
0
0
0
0
0
0
0
0
0
0
0
0
0
0
0
0
0
0
0
0
0
0
0
0
0
0
0
0
0
0
0
0
0
0
0
0
0
0
0
0
0
0
0
0
0
0
0
0
0
0
0
0
0
0
0
0
0
0
0
0
0
0
0
0
0
0
0
0
0
0
0
0
0
0
0
0
0
0
0
0
0
0
0
0
0
0
0
0
0
0
0
0
0
0
0
0
0
0
0
0
0
0
0
0
0
0
0
0
0
0
0
0
0
0
0
0
0
0
0
0
0
0
0
0
0
0
0
0
0
0
0
0
0
0
0
0
0
0
0
0
0
0
0
0
0
0
0
0
0
0
0
0
0
0
0
0
0
0
0
0
0
0
0
0
0
0
0
0
0
0
0
0
0
0
0
0
0
0
0
0
0
0
0
0
0
0
0
0
0
0
0
0
0
0
0
0
0
0
0
0
0
0
0
0
0
0
0
0
0
0
0
0
0
0
0
0
0
0
0
0
0
0
0
0
0
0
0
0
0
0
0
0
0
0
0
0
0
0
0
0
0
0
0
0
0
0
0
0
0
0
0
0
0
0
0
0
0
0
0
0
0
0
0
0
0
0
0
0
0
0
0
0
2
2
2
2
2
2
2
0
0
0
0
0
0
0
0
0
0
0
0
0
0
0
0
0
0
0
0
0
0
0
0
0
0
0
0
0
0
0
0
0
0
0
0
0
0
0
0
0
0
0
0
0
0
0
0
0
0
0
0
0
0
0
0
0
0
0
1
1
0
0
0
0
0
0
0
0
0
0
0
0
0
0
0
0
0
0
0
0
0
0
0
0
0
0
0
0
0
0
0
0
0
0
0
0
0
0
0
0
0
0
0
1
1
0
0
0
0
0
0
0
0
0
0
0
0
0
0
0
0
0
0
0
0
0
0
0
0
0
0
0
0
0
0
0
0
0
0
0
0
0
0
0
0
0
0
0
0
0
0
0
0
0
0
0
0
0
0
0
0
0
0
0
0
0
0
0
0
0
1
1
0
0
0
0
0
0
0
0
0
0
0
0
0
0
0
0
0
0
0
0
0
0
0
0
0
0
0
0
0
0
0
0
0
TENSORS Lagrange_strain float
0.0305673 -0.0031982 -2.37486e-08
-0.0031982 0.0133887 -1.56368e-07
-2.37486e-08 -1.56368e-07 0.00740157

0.029192 -0.0028007 5.37225e-08
-0.0028007 0.0335531 2.12003e-08
5.37225e-08 2.12003e-08 0.0331625

0.0300203 0.00367885 2.4799e-07
0.00367885 0.0311685 -1.11023e-07
2.4799e-07 -1.11023e-07 0.0304669

0.0291608 -0.00392502 8.42112e-08
-0.00392502 0.032798 3.14856e-08
8.42112e-08 3.14856e-08 0.0330874

0.0353665 0.00266895 2.48761e-07
0.00266895 0.0380847 -3.73625e-07
2.48761e-07 -3.73625e-07 0.0352914

0.0277345 -0.00236719 -1.02141e-07
-0.00236719 0.0333825 -4.04401e-10
-1.02141e-07 -4.04401e-10 0.030438

0.0302612 0.00339402 -2.57725e-08
0.00339402 0.0134944 -6.92356e-08
-2.57725e-08 -6.92356e-08 0.007463

0.0317536 0.00393947 -1.88457e-08
0.00393947 0.031199 -1.70216e-07
-1.88457e-08 -1.70216e-07 0.0315597

0.0332404 0.0007154 5.8438e-08
0.0007154 0.0262206 -2.53393e-09
5.8438e-08 -2.53393e-09 0.0281412

0.0354664 -0.000991227 -4.64198e-08
-0.000991227 0.0275502 -4.1778e-08
-4.64198e-08 -4.1778e-08 0.0327201

0.0280606 0.00205097 -1.34636e-07
0.00205097 0.0138086 2.66068e-07
-1.34636e-07 2.66068e-07 0.0117532

0.0279524 -0.00176567 -3.85975e-08
-0.00176567 0.0350058 2.01521e-07
-3.85975e-08 2.01521e-07 0.0315483

0.0311202 0.00365716 -1.16768e-07
0.00365716 0.0312992 -1.66369e-08
-1.16768e-07 -1.66369e-08 0.0310786

0.0290682 -0.00187991 -1.1387e-07
-0.00187991 0.0347983 -2.41639e-08
-1.1387e-07 -2.41639e-08 0.0325456

0.0346309 0.00441829 -1.04207e-07
0.00441829 0.0343614 1.93733e-07
-1.04207e-07 1.93733e-07 0.0348838

0.0343269 7.306e-05 -1.25668e-07
7.306e-05 0.0272851 -5.10705e-08
-1.25668e-07 -5.10705e-08 0.0307775

0.0286919 -0.00235385 -1.35246e-07
-0.00235385 0.0360125 -9.76628e-08
-1.35246e-07 -9.76628e-08 0.0334492

0.0345719 -0.000353009 -5.22723e-08
-0.000353009 0.0273554 -3.43725e-08
-5.22723e-08 -3.43725e-08 0.0319761

0.0269191 0.00347799 -1.39978e-07
0.00347799 0.030944 1.60469e-07
-1.39978e-07 1.60469e-07 0.0275758

0.033884 -0.000550314 -3.4251e-09
-0.000550314 0.0264085 1.25444e-07
-3.4251e-09 1.25444e-07 0.0301333

0.0266212 0.00113504 -1.79223e-08
0.00113504 0.0340327 -1.63041e-07
-1.79223e-08 -1.63041e-07 0.0291491

0.0452949 0.000852708 1.43171e-07
0.000852708 0.0452644 4.84481e-08
1.43171e-07 4.84481e-08 0.0366374

0.0336743 0.000247451 6.02541e-08
0.000247451 0.0263145 -2.71985e-09
6.02541e-08 -2.71985e-09 0.0298042

0.0293088 -0.00363179 -3.41519e-09
-0.00363179 0.0311349 6.70321e-09
-3.41519e-09 6.70321e-09 0.0300458

0.0337791 0.000900042 -1.59012e-07
0.000900042 0.0264956 3.00168e-08
-1.59012e-07 3.00168e-08 0.0300803

0.0285452 0.00250736 8.24954e-08
0.00250736 0.033893 5.21319e-08
8.24954e-08 5.21319e-08 0.032286

0.0286287 0.000526767 2.44542e-08
0.000526767 0.0176893 -6.43763e-08
2.44542e-08 -6.43763e-08 0.0131709

0.0309132 0.00403448 -3.59438e-08
0.00403448 0.0306453 -1.96594e-07
-3.59438e-08 -1.96594e-07 0.0306098

0.0259241 0.00477616 -1.72361e-07
0.00477616 0.0257324 -1.31193e-07
-1.72361e-07 -1.31193e-07 0.0211273

0.0415287 0.00136982 -1.3557e-07
0.00136982 0.0383494 -2.78037e-07
-1.3557e-07 -2.78037e-07 0.0361345

0.0344099 0.00187093 -1.53943e-07
0.00187093 0.0279515 3.93453e-08
-1.53943e-07 3.93453e-08 0.0309991

0.0217591 -0.00228769 2.92156e-08
-0.00228769 0.0299912 1.0254e-07
2.92156e-08 1.0254e-07 0.0211242

0.0228628 -0.00535228 -9.42451e-08
-0.00535228 0.0234723 9.24625e-08
-9.42451e-08 9.24625e-08 0.0125785

0.034832 0.000800521 -4.53893e-08
0.000800521 0.0422547 -9.52534e-08
-4.53893e-08 -9.52534e-08 0.0357856

0.0374529 -0.000661757 1.31352e-07
-0.000661757 0.0412017 -7.42785e-08
1.31352e-07 -7.42785e-08 0.0359001

0.0410745 0.00281331 -1.15724e-07
0.00281331 0.0359856 2.12104e-07
-1.15724e-07 2.12104e-07 0.0357658

0.0372534 0.000705292 9.66324e-10
0.000705292 0.043215 -5.93135e-08
9.66324e-10 -5.93135e-08 0.0361409

0.0402608 -0.00121844 -1.18893e-07
-0.00121844 0.0378298 4.38003e-08
-1.18893e-07 4.38003e-08 0.0358074

0.0312145 -0.00367774 -1.71139e-07
-0.00367774 0.0311223 -3.43664e-09
-1.71139e-07 -3.43664e-09 0.0309246

0.0227467 0.00527883 1.30688e-07
0.00527883 0.0237083 1.95135e-07
1.30688e-07 1.95135e-07 0.0125807

0.0297599 -0.00231565 -3.07291e-08
-0.00231565 0.0220304 3.07768e-08
-3.07291e-08 3.07768e-08 0.0208742

0.0376188 -0.000522886 4.42605e-08
-0.000522886 0.0430643 1.48709e-07
4.42605e-08 1.48709e-07 0.0361436

0.0412407 0.00263438 6.58135e-08
0.00263438 0.0394148 -7.20486e-08
6.58135e-08 -7.20486e-08 0.0361261

0.0343003 -0.00161696 6.07104e-08
-0.00161696 0.0279936 -1.45236e-07
6.07104e-08 -1.45236e-07 0.0310831

0.0231049 -0.00552555 6.43256e-08
-0.00552555 0.0235619 -8.08144e-08
6.43256e-08 -8.08144e-08 0.0162155

0.0299424 -0.00233229 8.23217e-08
-0.00233229 0.0221545 1.42774e-07
8.23217e-08 1.42774e-07 0.0213434

0.0258929 0.00222726 -2.35055e-08
0.00222726 0.0326529 -1.51111e-07
-2.35055e-08 -1.51111e-07 0.0279144

0.0275499 0.00252859 8.87773e-08
0.00252859 0.0323729 -1.81687e-07
8.87773e-08 -1.81687e-07 0.0284899

0.0341737 -0.00214098 -6.54539e-09
-0.00214098 0.0271064 -2.09496e-07
-6.54539e-09 -2.09496e-07 0.0304712

0.0229018 -0.00439215 -3.08263e-08
-0.00439215 0.0272479 -5.87856e-08
-3.08263e-08 -5.87856e-08 0.0198496

0.0294929 0.00247139 6.29337e-08
0.00247139 0.0218336 6.38291e-08
6.29337e-08 6.38291e-08 0.0202803

0.0298713 -0.00327077 5.21774e-08
-0.00327077 0.0245127 -8.66948e-08
5.21774e-08 -8.66948e-08 0.0230474

0.034477 0.00257777 1.09788e-07
0.00257777 0.0382028 -4.17967e-08
1.09788e-07 -4.17967e-08 0.0352702

0.0286884 0.00383831 2.09343e-08
0.00383831 0.025779 -1.36442e-07
2.09343e-08 -1.36442e-07 0.023116

0.0349275 -0.00291549 2.4613e-07
-0.00291549 0.0374322 1.0026e-07
2.4613e-07 1.0026e-07 0.0351885

0.0255792 -0.00545508 2.34188e-07
-0.00545508 0.0229016 -9.8352e-08
2.34188e-07 -9.8352e-08 0.0158191

0.0373463 0.000746143 1.97545e-07
0.000746143 0.041412 8.82811e-08
1.97545e-07 8.82811e-08 0.0359206

0.0231669 -0.000693064 -2.51587e-08
-0.000693064 0.0313123 9.1329e-09
-2.51587e-08 9.1329e-09 0.023102

0.0410292 0.00137964 7.08924e-08
0.00137964 0.0377064 -8.61597e-08
7.08924e-08 -8.61597e-08 0.0358988

0.0276749 0.00280494 1.33804e-07
0.00280494 0.0327485 -2.11587e-08
1.33804e-07 -2.11587e-08 0.0302303

0.0361382 0.000784444 1.96575e-09
0.000784444 0.0281307 -6.83272e-08
1.96575e-09 -6.83272e-08 0.0336724

0.0362536 0.00153416 3.28448e-08
0.00153416 0.0316925 2.36425e-07
3.28448e-08 2.36425e-07 0.03422

0.0286365 0.00405686 -1.84809e-07
0.00405686 0.0198968 3.04283e-08
-1.84809e-07 3.04283e-08 0.0137588

0.0309718 -0.000783655 1.39283e-07
-0.000783655 0.0370841 7.33965e-08
1.39283e-07 7.33965e-08 0.0338808

0.0315542 0.0012434 -2.91386e-08
0.0012434 0.0364204 6.18363e-09
-2.91386e-08 6.18363e-09 0.0342588

0.0285482 -0.000375272 -7.09924e-08
-0.000375272 0.0369552 2.0969e-08
-7.09924e-08 2.0969e-08 0.0326698

0.0296018 0.00307153 1.25959e-07
0.00307153 0.0347902 -1.07335e-07
1.25959e-07 -1.07335e-07 0.0337082

0.0347187 0.00112182 -3.22927e-10
0.00112182 0.0278378 5.0881e-08
-3.22927e-10 5.0881e-08 0.0322078

0.0291865 -0.00369883 -2.34366e-08
-0.00369883 0.0310199 -4.85606e-08
-2.34366e-08 -4.85606e-08 0.0299088

0.0350535 -0.000237102 -8.36503e-08
-0.000237102 0.027579 -4.25122e-08
-8.36503e-08 -4.25122e-08 0.0333923

0.0344517 -0.00254795 -5.2049e-09
-0.00254795 0.0381331 -2.24001e-07
-5.2049e-09 -2.24001e-07 0.0352602

0.0350102 0.00284944 5.34715e-08
0.00284944 0.0375695 -8.52009e-08
5.34715e-08 -8.52009e-08 0.03524

0.021888 -0.00213163 7.06464e-08
-0.00213163 0.0299213 1.90262e-07
7.06464e-08 1.90262e-07 0.0208507

0.0347001 -0.00369087 -1.7549e-07
-0.00369087 0.0319572 6.08758e-08
-1.7549e-07 6.08758e-08 0.0330782

0.0292912 -0.00329716 -1.10924e-08
-0.00329716 0.0321114 -2.67866e-08
-1.10924e-08 -2.67866e-08 0.0304325

0.0267789 -0.00401678 -1.49748e-07
-0.00401678 0.0176049 -4.88361e-08
-1.49748e-07 -4.88361e-08 0.0127255

0.0324035 0.000418917 -3.38192e-08
0.000418917 0.0381044 5.46319e-09
-3.38192e-08 5.46319e-09 0.0344051

0.0345364 0.00381724 -1.03361e-07
0.00381724 0.0309406 -8.16453e-08
-1.03361e-07 -8.16453e-08 0.0326595

0.0283758 0.00258137 1.15467e-07
0.00258137 0.0341285 -2.7066e-09
1.15467e-07 -2.7066e-09 0.032213

0.031541 0.00103783 -8.41668e-08
0.00103783 0.0228433 1.29028e-07
-8.41668e-08 1.29028e-07 0.0240685

0.0270963 -0.00435845 1.97607e-07
-0.00435845 0.0237361 -6.92885e-08
1.97607e-07 -6.92885e-08 0.0183229

0.0362597 -0.00140306 -4.65057e-08
-0.00140306 0.0387416 -1.60522e-07
-4.65057e-08 -1.60522e-07 0.0354005

0.0315548 0.00317104 -8.57023e-08
0.00317104 0.0344004 1.93306e-07
-8.57023e-08 1.93306e-07 0.0340896

0.0273007 -0.00415586 -1.49907e-08
-0.00415586 0.0221743 -3.83253e-08
-1.49907e-08 -3.83253e-08 0.0184108

0.030357 0.0013911 2.9897e-08
0.0013911 0.0228299 1.26404e-07
2.9897e-08 1.26404e-07 0.0209539

0.0186016 -0.00269685 1.685e-07
-0.00269685 0.0289276 -6.10587e-08
1.685e-07 -6.10587e-08 0.0158925

0.0271992 0.00188878 4.84067e-08
0.00188878 0.0343195 -3.90657e-09
4.84067e-08 -3.90657e-09 0.0306538

0.0353809 0.00305686 -1.23029e-07
0.00305686 0.0308191 1.26153e-07
-1.23029e-07 1.26153e-07 0.032753

0.0226472 0.00538557 -1.88417e-07
0.00538557 0.0240878 -1.73388e-07
-1.88417e-07 -1.73388e-07 0.0161981

0.0459481 0.00223843 7.825e-07
0.00223843 0.0417503 -5.52121e-07
7.825e-07 -5.52121e-07 0.0366384

0.0230807 -0.000534267 1.39533e-08
-0.000534267 0.031353 7.07478e-08
1.39533e-08 7.07478e-08 0.0230719

0.0463635 -0.00225609 4.16479e-07
-0.00225609 0.0412937 -9.8993e-08
4.16479e-07 -9.8993e-08 0.0365935

0.0370649 -0.00362429 3.05535e-07
-0.00362429 0.0334906 -2.75805e-09
3.05535e-07 -2.75805e-09 0.0346201

0.0351365 0.00361916 -6.59519e-08
0.00361916 0.0300034 -8.48776e-08
-6.59519e-08 -8.48776e-08 0.0324556

0.0299609 -0.00315869 -4.76885e-09
-0.00315869 0.0246898 2.79247e-07
-4.76885e-09 2.79247e-07 0.0232852

0.0230116 0.00402956 1.12349e-08
0.00402956 0.0277782 2.39489e-07
1.12349e-08 2.39489e-07 0.0203814

0.0210933 -0.00137847 2.6908e-09
-0.00137847 0.0298944 1.73052e-07
2.6908e-09 1.73052e-07 0.018251

0.0287448 0.00288882 -1.43996e-07
0.00288882 0.0342263 -4.89306e-08
-1.43996e-07 -4.89306e-08 0.0326988

0.0370108 0.00223599 1.97753e-07
0.00223599 0.0334515 -1.73187e-07
1.97753e-07 -1.73187e-07 0.0343835

0.0281476 0.00198804 1.16103e-07
0.00198804 0.0340588 1.31886e-09
1.16103e-07 1.31886e-09 0.0308646

0.0318816 0.00207298 -1.09799e-07
0.00207298 0.0252535 8.91914e-08
-1.09799e-07 8.91914e-08 0.0256167

0.0239068 -0.00277414 1.01538e-07
-0.00277414 0.029764 1.93632e-07
1.01538e-07 1.93632e-07 0.0215608

0.0278977 -0.00376347 2.47057e-07
-0.00376347 0.0218147 5.24813e-08
2.47057e-07 5.24813e-08 0.0180754

0.0293303 -0.00323197 7.26156e-08
-0.00323197 0.032629 -6.43012e-08
7.26156e-08 -6.43012e-08 0.032402

0.0306254 0.00361481 1.8539e-08
0.00361481 0.0322276 1.80832e-07
1.8539e-08 1.80832e-07 0.0323698

0.0287071 0.00304789 -3.28568e-08
0.00304789 0.0340262 3.76618e-08
-3.28568e-08 3.76618e-08 0.0326292

0.029206 0.00172526 -3.21214e-08
0.00172526 0.0376171 4.57167e-09
-3.21214e-08 4.57167e-09 0.0338453

0.0344765 0.00123247 9.02361e-08
0.00123247 0.0275229 3.51966e-08
9.02361e-08 3.51966e-08 0.0306738

0.0199601 -0.000605184 1.92591e-07
-0.000605184 0.0296598 7.4619e-09
1.92591e-07 7.4619e-09 0.0181033

0.0297962 -0.00486328 1.13716e-07
-0.00486328 0.0330477 4.33074e-09
1.13716e-07 4.33074e-09 0.0337407

0.0290803 0.00359985 -1.16103e-07
0.00359985 0.0313586 -1.67076e-08
-1.16103e-07 -1.67076e-08 0.0302631

0.0181051 0.000282937 -4.62055e-08
0.000282937 0.0293099 1.83534e-07
-4.62055e-08 1.83534e-07 0.0168779

0.0278426 0.00442354 -9.41078e-08
0.00442354 0.0209676 1.02525e-07
-9.41078e-08 1.02525e-07 0.0174541

0.0291901 -0.00302042 9.28515e-08
-0.00302042 0.0327019 1.08703e-07
9.28515e-08 1.08703e-07 0.0321844

0.0352413 0.000759783 1.06207e-07
0.000759783 0.0273376 -1.50597e-07
1.06207e-07 -1.50597e-07 0.0325517

0.0294261 0.00352004 -1.46343e-07
0.00352004 0.0252003 1.00528e-07
-1.46343e-07 1.00528e-07 0.0231104

0.0396358 0.00171021 2.12847e-07
0.00171021 0.0390387 1.49053e-07
2.12847e-07 1.49053e-07 0.0359392

0.028374 0.00312321 -1.41479e-07
0.00312321 0.0224006 1.93646e-07
-1.41479e-07 1.93646e-07 0.0182858

0.0394884 -0.00175075 5.24884e-08
-0.00175075 0.039065 4.82403e-08
5.24884e-08 4.82403e-08 0.0359043

0.0232602 0.000103341 -2.03305e-07
0.000103341 0.0315167 -1.38979e-08
-2.03305e-07 -1.38979e-08 0.0231188

0.0327574 -0.000288329 -1.3214e-07
-0.000288329 0.0246591 -1.9992e-07
-1.3214e-07 -1.9992e-07 0.0269653

0.0380536 -0.00212945 -5.75206e-08
-0.00212945 0.0304627 8.99486e-08
-5.75206e-08 8.99486e-08 0.0347923

0.0292371 0.00320566 -7.84439e-08
0.00320566 0.0332765 9.37763e-08
-7.84439e-08 9.37763e-08 0.0333418

0.0289495 -0.00177254 3.11776e-08
-0.00177254 0.0366077 -2.48728e-09
3.11776e-08 -2.48728e-09 0.0334986

0.0365822 -0.00108506 -1.01623e-07
-0.00108506 0.0264751 -1.43792e-08
-1.01623e-07 -1.43792e-08 0.0338589

0.0311793 -0.00292578 1.4745e-07
-0.00292578 0.0383049 -9.02482e-08
1.4745e-07 -9.02482e-08 0.0348427

0.0381645 -0.000884906 -1.91354e-07
-0.000884906 0.0387302 8.93189e-08
-1.91354e-07 8.93189e-08 0.0358344

0.0301786 -0.00393995 4.51547e-08
-0.00393995 0.0327091 1.08951e-07
4.51547e-08 1.08951e-07 0.0327622

0.021332 0.00146929 -1.17071e-08
0.00146929 0.0296124 2.03524e-07
-1.17071e-08 2.03524e-07 0.0182949

0.0293869 -0.00364543 7.44868e-08
-0.00364543 0.0253484 -3.54624e-08
7.44868e-08 -3.54624e-08 0.0231811

0.0328586 -0.00181717 -1.73856e-07
-0.00181717 0.0397163 -1.06083e-07
-1.73856e-07 -1.06083e-07 0.03524

0.0350895 7.67382e-05 -1.18142e-07
7.67382e-05 0.0272209 -1.70048e-07
-1.18142e-07 -1.70048e-07 0.0332501

0.0308174 -0.00282908 4.37363e-08
-0.00282908 0.0348902 -2.35452e-08
4.37363e-08 -2.35452e-08 0.034083

0.0295331 0.00338865 -6.01058e-08
0.00338865 0.0328704 7.6063e-08
-6.01058e-08 7.6063e-08 0.0333249

0.0264592 -0.00406305 -1.05244e-07
-0.00406305 0.0272605 -6.04969e-08
-1.05244e-07 -6.04969e-08 0.0215836

0.0371718 -0.000958388 -3.88506e-08
-0.000958388 0.0416093 -9.41807e-08
-3.88506e-08 -9.41807e-08 0.0358856

0.0227101 -0.0042374 -8.91597e-08
-0.0042374 0.0272426 3.46895e-08
-8.91597e-08 3.46895e-08 0.0168767

0.0341813 -0.00252475 -9.52562e-09
-0.00252475 0.0286054 8.75162e-08
-9.52562e-09 8.75162e-08 0.0310433

0.0364245 0.000289838 1.22296e-07
0.000289838 0.0294365 3.75458e-08
1.22296e-07 3.75458e-08 0.0341927

0.0396399 0.00239651 8.67789e-09
0.00239651 0.0391125 6.10714e-08
8.67789e-09 6.10714e-08 0.0358666

0.0238552 0.00260903 2.03382e-07
0.00260903 0.0301503 -1.13268e-07
2.03382e-07 -1.13268e-07 0.0217979

0.0334299 0.00358117 5.32013e-08
0.00358117 0.0307139 -2.19307e-07
5.32013e-08 -2.19307e-07 0.0317661

0.0316419 -0.00319422 -7.72204e-08
-0.00319422 0.0265509 -6.51014e-08
-7.72204e-08 -6.51014e-08 0.0269343

0.0289281 -0.00234077 5.42574e-08
-0.00234077 0.0342338 4.78432e-08
5.42574e-08 4.78432e-08 0.0326047

0.0262435 0.00450115 -6.47589e-08
0.00450115 0.0245567 2.18605e-09
-6.47589e-08 2.18605e-09 0.0180803

0.0284217 -0.00286646 2.68376e-08
-0.00286646 0.0340313 4.01722e-08
2.68376e-08 4.01722e-08 0.0324479

0.0331481 0.00405879 -5.25766e-08
0.00405879 0.0304634 1.08882e-07
-5.25766e-08 1.08882e-07 0.0315412

0.0333336 -0.00331164 -1.01089e-07
-0.00331164 0.0283559 8.03054e-09
-1.01089e-07 8.03054e-09 0.0300448

0.0291596 -0.00329528 3.61491e-07
-0.00329528 0.0319864 3.8256e-07
3.61491e-07 3.8256e-07 0.0304362

0.0314541 -0.00242923 -5.20603e-08
-0.00242923 0.0247179 -1.01523e-07
-5.20603e-08 -1.01523e-07 0.0251552

0.0329545 -0.00246666 -5.22294e-08
-0.00246666 0.0267084 -6.21502e-08
-5.22294e-08 -6.21502e-08 0.0285955

0.0294899 -0.00334193 1.16557e-07
-0.00334193 0.0329492 -2.79084e-08
1.16557e-07 -2.79084e-08 0.0334063

0.0261331 0.00463366 3.31057e-08
0.00463366 0.0255403 -1.91311e-07
3.31057e-08 -1.91311e-07 0.0210915

0.028149 0.00201652 6.38203e-08
0.00201652 0.034335 -1.19732e-09
6.38203e-08 -1.19732e-09 0.0311083

0.0308854 0.00348106 4.05209e-08
0.00348106 0.0322544 -6.64277e-08
4.05209e-08 -6.64277e-08 0.0325991

0.0291563 0.00334794 -8.26389e-08
0.00334794 0.0331903 -7.11408e-08
-8.26389e-08 -7.11408e-08 0.0332593

0.0289831 0.00152285 5.56533e-10
0.00152285 0.0354695 9.2946e-08
5.56533e-10 9.2946e-08 0.0326945

0.0310517 -0.00106171 -1.30768e-07
-0.00106171 0.0231406 -2.39898e-07
-1.30768e-07 -2.39898e-07 0.0220771

0.023883 0.00240553 1.7917e-07
0.00240553 0.0304093 -6.03476e-08
1.7917e-07 -6.03476e-08 0.0221121

0.0292124 -0.00320399 -1.40656e-08
-0.00320399 0.0326353 -1.49112e-08
-1.40656e-08 -1.49112e-08 0.0316174

0.0289863 0.00335662 2.00515e-08
0.00335662 0.0309316 1.35659e-07
2.00515e-08 1.35659e-07 0.028567

0.0266115 -0.00459104 1.67841e-07
-0.00459104 0.0252296 -2.88553e-08
1.67841e-07 -2.88553e-08 0.0212558

0.026277 0.00489315 -1.07011e-07
0.00489315 0.0209455 1.69098e-07
-1.07011e-07 1.69098e-07 0.0167617

0.023502 -0.00428662 1.196e-08
-0.00428662 0.0274636 -4.91334e-08
1.196e-08 -4.91334e-08 0.0206256

0.0266707 -0.00402738 1.62323e-07
-0.00402738 0.0274816 -4.16773e-08
1.62323e-07 -4.16773e-08 0.0220492

0.0353638 -0.000906591 6.13952e-08
-0.000906591 0.0273893 1.7745e-07
6.13952e-08 1.7745e-07 0.032654

0.0260444 0.00392148 -2.42909e-07
0.00392148 0.0280912 -2.22965e-08
-2.42909e-07 -2.22965e-08 0.0221017

0.030787 0.00171645 4.2502e-08
0.00171645 0.0233596 -7.1997e-09
4.2502e-08 -7.1997e-09 0.0220248

0.0214302 0.00172186 -1.16479e-07
0.00172186 0.0302396 -1.1543e-07
-1.16479e-07 -1.1543e-07 0.021132

0.024262 -0.00288928 8.28357e-08
-0.00288928 0.0299507 1.04329e-07
8.28357e-08 1.04329e-07 0.0220854

0.0313451 -0.000130925 -8.66627e-08
-0.000130925 0.0392735 -8.01674e-08
-8.66627e-08 -8.01674e-08 0.0346703

0.0230576 0.000294619 -2.41049e-07
0.000294619 0.0314594 5.43989e-08
-2.41049e-07 5.43989e-08 0.0230615

0.0227764 0.00400131 1.26927e-07
0.00400131 0.0281263 8.06504e-09
1.26927e-07 8.06504e-09 0.0206373

0.0288876 0.00158583 1.42304e-07
0.00158583 0.0358316 -3.3508e-08
1.42304e-07 -3.3508e-08 0.032893

0.0293149 -0.0035799 -1.49942e-07
-0.0035799 0.0251288 3.1998e-08
-1.49942e-07 3.1998e-08 0.023239

0.036976 0.00273317 1.84979e-07
0.00273317 0.0297227 1.32641e-07
1.84979e-07 1.32641e-07 0.0338012

0.0371757 0.00348335 1.13239e-07
0.00348335 0.0334225 1.69299e-08
1.13239e-07 1.69299e-08 0.0346518

0.0345433 -0.00244636 -1.66643e-08
-0.00244636 0.0285292 1.72037e-08
-1.66643e-08 1.72037e-08 0.0313783

0.0390566 -0.00026551 -1.44657e-07
-0.00026551 0.0339245 -7.61751e-08
-1.44657e-07 -7.61751e-08 0.0352078

0.0314787 -0.00418754 -1.50685e-07
-0.00418754 0.0317811 -2.03866e-08
-1.50685e-07 -2.03866e-08 0.0321558

0.0294612 0.0030075 -1.07282e-07
0.0030075 0.0223267 2.00224e-07
-1.07282e-07 2.00224e-07 0.021066

0.0302291 0.00397306 -4.85434e-08
0.00397306 0.0326627 9.72487e-08
-4.85434e-08 9.72487e-08 0.0327195

0.0302769 0.00384677 1.53861e-07
0.00384677 0.0326067 -7.6566e-08
1.53861e-07 -7.6566e-08 0.0326742

0.0262437 0.00396161 -1.80785e-07
0.00396161 0.027767 2.31864e-07
-1.80785e-07 2.31864e-07 0.0218642

0.0344498 0.00357644 -1.87411e-07
0.00357644 0.0317793 3.53777e-08
-1.87411e-07 3.53777e-08 0.0328311

0.0302478 0.000452427 -9.37985e-08
0.000452427 0.0204279 -2.93527e-07
-9.37985e-08 -2.93527e-07 0.0205727

0.0331857 0.00420075 -1.48846e-08
0.00420075 0.0323727 -7.18754e-08
-1.48846e-08 -7.18754e-08 0.0334834

0.0305005 -0.00165445 -5.19651e-08
-0.00165445 0.0366154 -6.35225e-09
-5.19651e-08 -6.35225e-09 0.0336623

0.03736 0.00323277 3.73822e-08
0.00323277 0.0334595 -9.78838e-08
3.73822e-08 -9.78838e-08 0.0346638

0.0307363 -0.00389609 3.0802e-08
-0.00389609 0.0322728 -7.34343e-08
3.0802e-08 -7.34343e-08 0.0326797

0.0293736 -0.000645001 -8.97233e-08
-0.000645001 0.0369025 1.93571e-08
-8.97233e-08 1.93571e-08 0.0328474

0.028812 -0.00315224 1.19622e-07
-0.00315224 0.0221395 1.42765e-07
1.19622e-07 1.42765e-07 0.0187585

0.029002 0.00384431 -8.99188e-08
0.00384431 0.0255773 -1.8865e-07
-8.99188e-08 -1.8865e-07 0.0230724

0.0217009 0.00189083 -1.32771e-07
0.00189083 0.0300605 -1.36633e-07
-1.32771e-07 -1.36633e-07 0.0210833

0.0349895 -0.00016149 -2.78648e-08
-0.00016149 0.027389 1.77577e-07
-2.78648e-08 1.77577e-07 0.0333011

0.034419 2.39147e-07 1.73078e-07
2.39147e-07 0.0272742 -2.97615e-08
1.73078e-07 -2.97615e-08 0.0320407

0.0291652 0.00303978 -1.34496e-07
0.00303978 0.0326795 -6.39123e-08
-1.34496e-07 -6.39123e-08 0.0321322

0.0314493 0.003166 -1.51251e-08
0.003166 0.0342495 -7.23311e-08
-1.51251e-08 -7.23311e-08 0.0340578

0.0291683 -0.00320413 1.21662e-07
-0.00320413 0.0332379 -5.85085e-08
1.21662e-07 -5.85085e-08 0.0333785

0.0287734 -8.5693e-05 9.1776e-08
-8.5693e-05 0.0367039 1.93394e-07
9.1776e-08 1.93394e-07 0.0325252

0.0294637 0.0033756 1.33224e-07
0.0033756 0.0330743 -1.08418e-07
1.33224e-07 -1.08418e-07 0.0333542

0.0328585 -0.00134645 -1.89443e-08
-0.00134645 0.0253614 1.80553e-07
-1.89443e-08 1.80553e-07 0.0278284

0.0263544 -0.00425449 -1.47663e-07
-0.00425449 0.0281792 8.99977e-09
-1.47663e-07 8.99977e-09 0.0242671

0.0362969 -0.000331401 7.89446e-08
-0.000331401 0.0293828 -1.39507e-07
7.89446e-08 -1.39507e-07 0.0340275

0.0267804 -0.00444523 -5.00173e-08
-0.00444523 0.0251899 2.85759e-08
-5.00173e-08 2.85759e-08 0.0209487

0.0308993 0.00250722 -1.99679e-07
0.00250722 0.0350625 -1.06716e-07
-1.99679e-07 -1.06716e-07 0.0340674

0.0351124 -0.00349662 1.1105e-08
-0.00349662 0.0303878 -2.36702e-08
1.1105e-08 -2.36702e-08 0.0326144

0.0305013 -0.00124979 -9.92924e-08
-0.00124979 0.022978 -1.2862e-07
-9.92924e-08 -1.2862e-07 0.021478

0.037148 -0.0030772 1.97891e-07
-0.0030772 0.031653 -7.00792e-09
1.97891e-07 -7.00792e-09 0.0339875

0.0349685 0.000322022 4.15586e-08
0.000322022 0.0275542 -3.10884e-08
4.15586e-08 -3.10884e-08 0.0334295

0.0358431 -0.00308799 -4.03419e-08
-0.00308799 0.0332575 -3.44968e-08
-4.03419e-08 -3.44968e-08 0.034143

0.0349276 -0.00341052 -1.0299e-07
-0.00341052 0.0295945 1.71561e-07
-1.0299e-07 1.71561e-07 0.0321776

0.0349091 -0.00113341 -1.22194e-07
-0.00113341 0.0278495 -1.2032e-07
-1.22194e-07 -1.2032e-07 0.0323409

0.0314892 -0.00306243 -7.40282e-08
-0.00306243 0.0344478 -1.60786e-07
-7.40282e-08 -1.60786e-07 0.0341461

0.0292349 -0.00407076 -5.05575e-08
-0.00407076 0.0268992 1.45795e-07
-5.05575e-08 1.45795e-07 0.0253458

0.0349918 -0.0032435 -1.43426e-07
-0.0032435 0.0299148 1.21578e-08
-1.43426e-07 1.21578e-08 0.0321948

0.0314616 0.00140896 -4.2122e-08
0.00140896 0.0233267 -1.15074e-08
-4.2122e-08 -1.15074e-08 0.0244833

0.0336644 0.00348422 -6.33724e-08
0.00348422 0.0334438 3.20813e-09
-6.33724e-08 3.20813e-09 0.0336496

0.0298922 -0.00496718 -3.23713e-09
-0.00496718 0.0330779 -2.31518e-08
-3.23713e-09 -2.31518e-08 0.0338568

0.0300423 0.00492051 8.38898e-08
0.00492051 0.0329397 -1.06332e-07
8.38898e-08 -1.06332e-07 0.0338237

0.0276874 -0.00374198 3.94313e-08
-0.00374198 0.0348062 -3.59408e-09
3.94313e-08 -3.59408e-09 0.0337663

0.0279254 0.00354698 -4.97492e-08
0.00354698 0.0348343 -1.14921e-07
-4.97492e-08 -1.14921e-07 0.0337311

0.036429 -0.00115367 1.15866e-07
-0.00115367 0.0263413 -7.90782e-08
1.15866e-07 -7.90782e-08 0.0337574

0.0361976 0.00124757 -4.47189e-08
0.00124757 0.0265627 3.59434e-09
-4.47189e-08 3.59434e-09 0.0337202

0.035034 -0.00130665 -6.11424e-10
-0.00130665 0.0284677 6.62704e-08
-6.11424e-10 6.62704e-08 0.0325754

0.0344362 0.0042591 4.61068e-08
0.0042591 0.0342886 -7.12598e-08
4.61068e-08 -7.12598e-08 0.0348121

0.0343115 -0.00435684 6.96102e-08
-0.00435684 0.0342806 -2.06916e-07
6.96102e-08 -2.06916e-07 0.0348004

0.0305204 0.00209355 -2.24596e-07
0.00209355 0.0381652 -5.79703e-08
-2.24596e-07 -5.79703e-08 0.0348493

0.0306637 -0.00205954 -6.77443e-08
-0.00205954 0.0380948 -2.20888e-07
-6.77443e-08 -2.20888e-07 0.0348365

0.0395019 -0.000528781 4.09301e-08
-0.000528781 0.032849 7.71284e-08
4.09301e-08 7.71284e-08 0.0352575

0.0397044 0.000513303 1.18731e-07
0.000513303 0.0326215 -8.61493e-08
1.18731e-07 -8.61493e-08 0.0353027

0.0239647 0.00127587 -1.55078e-07
0.00127587 0.0320025 2.13399e-07
-1.55078e-07 2.13399e-07 0.0251839

0.0311618 -0.00326519 -1.25404e-07
-0.00326519 0.0322401 -1.74167e-07
-1.25404e-07 -1.74167e-07 0.0328014

0.027779 -0.00478587 9.98859e-08
-0.00478587 0.0333113 -5.8012e-08
9.98859e-08 -5.8012e-08 0.0334548

0.0333581 -0.000610239 -5.21865e-08
-0.000610239 0.0264027 1.21854e-07
-5.21865e-08 1.21854e-07 0.0284478

0.0381874 -0.00225192 -4.86341e-08
-0.00225192 0.030794 -7.55639e-08
-4.86341e-08 -7.55639e-08 0.0348923

0.0382356 0.00218388 8.02878e-08
0.00218388 0.0309072 -2.87871e-08
8.02878e-08 -2.87871e-08 0.0349245

0.0360832 1.56059e-05 -1.8421e-08
1.56059e-05 0.0251253 7.54634e-08
-1.8421e-08 7.54634e-08 0.0334698

0.0242406 0.00302884 2.63654e-07
0.00302884 0.0303971 -4.21645e-09
2.63654e-07 -4.21645e-09 0.0242766

0.0276735 0.0047565 2.80029e-08
0.0047565 0.0333118 -6.64827e-08
2.80029e-08 -6.64827e-08 0.0333926

0.0286741 -0.00307576 5.98987e-08
-0.00307576 0.0342607 4.77472e-08
5.98987e-08 4.77472e-08 0.0327519

0.0310851 0.00303568 -8.07149e-09
0.00303568 0.0251462 1.0787e-07
-8.07149e-09 1.0787e-07 0.0254668

0.0372272 0.00316556 -5.3252e-08
0.00316556 0.0315404 5.96812e-08
-5.3252e-08 5.96812e-08 0.0340755

0.0292263 -0.00406718 -4.96898e-08
-0.00406718 0.0269352 -1.30444e-07
-4.96898e-08 -1.30444e-07 0.0253209

0.0364011 -0.000453649 -9.45579e-08
-0.000453649 0.0296911 -3.21136e-10
-9.45579e-08 -3.21136e-10 0.0341306

0.0273439 -0.00449457 3.28483e-09
-0.00449457 0.0333945 5.8992e-08
3.28483e-09 5.8992e-08 0.0334413

0.0240374 0.00107877 -1.24975e-07
0.00107877 0.0322437 1.47969e-07
-1.24975e-07 1.47969e-07 0.0255055

0.0242293 0.00282649 2.20085e-07
0.00282649 0.0307009 2.10283e-08
2.20085e-07 2.10283e-08 0.0245445

0.026792 0.00459425 4.92799e-08
0.00459425 0.0240413 -1.67201e-07
4.92799e-08 -1.67201e-07 0.0182133

0.0298502 0.000199888 -7.71503e-08
0.000199888 0.0200881 -1.61405e-07
-7.71503e-08 -1.61405e-07 0.0193621

0.0319083 -0.00302371 -3.87173e-08
-0.00302371 0.0341619 -2.01741e-07
-3.87173e-08 -2.01741e-07 0.0340352

0.0229182 0.00399949 1.98346e-07
0.00399949 0.0276595 1.37366e-07
1.98346e-07 1.37366e-07 0.0176528

0.0292094 0.00310076 -1.10374e-07
0.00310076 0.0327627 -2.74614e-08
-1.10374e-07 -2.74614e-08 0.0310119

0.031594 -0.000694446 5.60792e-08
-0.000694446 0.0231597 -2.35494e-07
5.60792e-08 -2.35494e-07 0.0244844

0.0327603 0.00146445 2.3837e-08
0.00146445 0.0253465 7.84913e-08
2.3837e-08 7.84913e-08 0.0276126

0.0359777 5.60062e-05 -1.72139e-07
5.60062e-05 0.0249583 -8.26439e-08
-1.72139e-07 -8.26439e-08 0.0333858

0.0279654 -0.00380541 1.39701e-07
-0.00380541 0.0349483 -2.62818e-08
1.39701e-07 -2.62818e-08 0.0338155

0.0393145 -0.000843831 -2.834e-07
-0.000843831 0.0416011 1.18042e-07
-2.834e-07 1.18042e-07 0.0361898

0.0298673 0.00493887 -9.77924e-08
0.00493887 0.032956 7.50525e-08
-9.77924e-08 7.50525e-08 0.0337787

0.0302878 0.000214505 5.55321e-08
0.000214505 0.0203965 -2.82826e-07
5.55321e-08 -2.82826e-07 0.0172758

0.0266733 -0.00425025 1.29684e-07
-0.00425025 0.0281325 6.84953e-09
1.29684e-07 6.84953e-09 0.0244371

0.0277459 0.00481564 1.74533e-08
0.00481564 0.0333145 9.49112e-08
1.74533e-08 9.49112e-08 0.0334549

0.0279447 -0.00145857 1.65313e-08
-0.00145857 0.035085 2.08592e-07
1.65313e-08 2.08592e-07 0.0314499

0.0244647 -0.00330496 2.34674e-07
-0.00330496 0.0300149 -2.20072e-08
2.34674e-07 -2.20072e-08 0.0242167

0.0279901 0.00377955 4.9445e-08
0.00377955 0.0349097 -1.22846e-07
4.9445e-08 -1.22846e-07 0.0337864

0.0313613 -0.0034093 1.94029e-08
-0.0034093 0.0270082 1.52866e-07
1.94029e-08 1.52866e-07 0.026991

0.0402791 0.00140873 -1.04429e-07
0.00140873 0.0406177 2.66107e-07
-1.04429e-07 2.66107e-07 0.0361702

0.0258807 0.00400276 -2.60358e-07
0.00400276 0.0289541 -5.36332e-08
-2.60358e-07 -5.36332e-08 0.0245106

0.0366774 0.00110304 1.0687e-07
0.00110304 0.0263518 6.11139e-08
1.0687e-07 6.11139e-08 0.0338974

0.0333414 0.00398441 -8.61113e-08
0.00398441 0.032115 1.92377e-07
-8.61113e-08 1.92377e-07 0.0333153

0.0292276 0.00306732 -6.92897e-08
0.00306732 0.032605 9.65237e-08
-6.92897e-08 9.65237e-08 0.0321573

0.0343644 -0.00431095 -5.6448e-08
-0.00431095 0.0345044 -1.61307e-07
-5.6448e-08 -1.61307e-07 0.0348846

0.0354889 -0.00306331 6.16242e-08
-0.00306331 0.0305898 7.93301e-08
6.16242e-08 7.93301e-08 0.0327501

0.0333663 0.00138795 2.37246e-07
0.00138795 0.0395773 -9.49824e-08
2.37246e-07 -9.49824e-08 0.0350022

0.0291964 -0.003079 2.96104e-07
-0.003079 0.0328726 -2.15642e-07
2.96104e-07 -2.15642e-07 0.031383

0.0292645 -0.00123213 1.07511e-07
-0.00123213 0.0192869 -1.06001e-07
1.07511e-07 -1.06001e-07 0.0164119

0.0287781 -0.00183229 2.02361e-07
-0.00183229 0.0184138 2.3019e-08
2.02361e-07 2.3019e-08 0.0161968

0.038529 0.0022022 -1.40064e-07
0.0022022 0.0332388 2.32963e-07
-1.40064e-07 2.32963e-07 0.0347626

0.0280557 0.00294533 1.34683e-07
0.00294533 0.032335 1.93978e-07
1.34683e-07 1.93978e-07 0.0295178

0.0320669 0.00383424 -8.94738e-08
0.00383424 0.0309603 -8.04144e-08
-8.94738e-08 -8.04144e-08 0.0314541

0.0320496 9.00133e-05 8.3431e-08
9.00133e-05 0.0245767 -2.26046e-07
8.3431e-08 -2.26046e-07 0.0248878

0.0302374 0.000866061 -1.02251e-07
0.000866061 0.0385808 -1.54772e-08
-1.02251e-07 -1.54772e-08 0.0340961

0.0354018 0.00219116 -7.06923e-08
0.00219116 0.0293227 -9.6241e-08
-7.06923e-08 -9.6241e-08 0.032858

0.0248112 -0.00333879 2.2995e-07
-0.00333879 0.0300057 -1.2659e-07
2.2995e-07 -1.2659e-07 0.0244698

0.0286504 -0.000337817 9.9146e-09
-0.000337817 0.0366567 1.85526e-07
9.9146e-09 1.85526e-07 0.0323955

0.0252151 0.00174 1.22288e-07
0.00174 0.0320292 2.21825e-07
1.22288e-07 2.21825e-07 0.0256838

0.0332806 -0.00390962 -2.43216e-08
-0.00390962 0.0304967 7.41207e-08
-2.43216e-08 7.41207e-08 0.0315921

0.0290645 -0.00389605 2.54968e-08
-0.00389605 0.0282 1.47654e-08
2.54968e-08 1.47654e-08 0.0257134

0.0261491 0.00409872 -2.70774e-07
0.00409872 0.0285459 7.43429e-08
-2.70774e-07 7.43429e-08 0.0243179

0.0452876 -0.00201735 -1.38159e-07
-0.00201735 0.039606 -1.51504e-07
-1.38159e-07 -1.51504e-07 0.0363667

0.0316665 0.000256243 7.03627e-08
0.000256243 0.039327 -1.15262e-07
7.03627e-08 -1.15262e-07 0.0347689

0.0306163 0.002651 -3.87721e-08
0.002651 0.0384425 4.0802e-08
-3.87721e-08 4.0802e-08 0.0349575

0.0387658 0.00209497 -1.60204e-07
0.00209497 0.0302214 3.9583e-08
-1.60204e-07 3.9583e-08 0.0349423

0.0313707 -0.00345039 1.627e-08
-0.00345039 0.0321405 -9.58099e-08
1.627e-08 -9.58099e-08 0.0325725

0.0318176 0.00233611 6.40348e-09
0.00233611 0.0256202 8.66312e-08
6.40348e-09 8.66312e-08 0.0258794

0.0349937 -0.000708272 2.13815e-07
-0.000708272 0.0415752 -4.91627e-08
2.13815e-07 -4.91627e-08 0.0357274

0.0357882 -0.00251853 -1.17328e-07
-0.00251853 0.02955 -1.31937e-07
-1.17328e-07 -1.31937e-07 0.0332577

0.0332969 -0.00203984 -4.3108e-08
-0.00203984 0.0266525 -3.88203e-08
-4.3108e-08 -3.88203e-08 0.0286752

0.0252521 0.00151083 1.36417e-07
0.00151083 0.032274 1.57726e-07
1.36417e-07 1.57726e-07 0.0259498

0.0268045 -0.00334466 -1.72007e-07
-0.00334466 0.0300092 -3.6452e-08
-1.72007e-07 -3.6452e-08 0.025187

0.0364779 -0.0033604 2.40942e-07
-0.0033604 0.0352872 -9.04411e-08
2.40942e-07 -9.04411e-08 0.0347421

0.0284753 0.004152 1.47186e-07
0.004152 0.0277158 1.00878e-07
1.47186e-07 1.00878e-07 0.0254675

0.0372438 -0.00334526 -3.66709e-08
-0.00334526 0.0333219 8.33897e-08
-3.66709e-08 8.33897e-08 0.0346114

0.0322055 0.000337875 7.72446e-08
0.000337875 0.0248623 -1.94671e-07
7.72446e-08 -1.94671e-07 0.0254373

0.0191608 -0.00368903 -1.66837e-07
-0.00368903 0.0275257 -1.06496e-07
-1.66837e-07 -1.06496e-07 0.0163106

0.0292096 -0.00380348 -1.24392e-07
-0.00380348 0.0281921 -1.58703e-08
-1.24392e-07 -1.58703e-08 0.0258075

0.0230455 0.00412721 -1.99991e-07
0.00412721 0.02802 -1.41584e-07
-1.99991e-07 -1.41584e-07 0.0175919

0.0296908 -0.0015596 1.32764e-07
-0.0015596 0.0375333 7.49466e-08
1.32764e-07 7.49466e-08 0.0336482

0.0243599 -0.00179355 4.51001e-09
-0.00179355 0.0318722 -3.66319e-08
4.51001e-09 -3.66319e-08 0.0254476

0.0424371 -0.0032347 -7.83221e-08
-0.0032347 0.042376 -6.16672e-08
-7.83221e-08 -6.16672e-08 0.0363751

0.0263361 0.00309111 -3.07561e-07
0.00309111 0.0307011 2.08993e-08
-3.07561e-07 2.08993e-08 0.0254775

0.0334761 -0.00432346 -1.13588e-08
-0.00432346 0.032659 -2.34151e-08
-1.13588e-08 -2.34151e-08 0.033566

0.0240803 -0.00155072 4.90374e-08
-0.00155072 0.0318865 1.04464e-08
4.90374e-08 1.04464e-08 0.0251765

0.0362222 -0.00253864 4.04407e-08
-0.00253864 0.0295107 5.527e-09
4.04407e-08 5.527e-09 0.0335189

0.0266731 0.00310458 -2.27579e-07
0.00310458 0.0303941 3.63953e-09
-2.27579e-07 3.63953e-09 0.0253128

0.0343426 -0.000653742 6.78888e-08
-0.000653742 0.0272763 -1.76338e-08
6.78888e-08 -1.76338e-08 0.0305772

0.0188902 -0.00387145 -2.76238e-07
-0.00387145 0.0298012 1.47056e-07
-2.76238e-07 1.47056e-07 0.012961

0.0279987 0.00275467 1.01527e-07
0.00275467 0.032628 -5.17173e-08
1.01527e-07 -5.17173e-08 0.030573

0.0314368 -0.00251213 -1.3865e-07
-0.00251213 0.0247218 2.76401e-07
-1.3865e-07 2.76401e-07 0.0254054

0.0391175 -0.00286931 1.01105e-07
-0.00286931 0.0322209 3.92085e-09
1.01105e-07 3.92085e-09 0.0349363

0.0287525 0.00412365 1.61278e-07
0.00412365 0.0272992 2.47359e-07
1.61278e-07 2.47359e-07 0.0252549

0.0313607 -0.00391898 4.21379e-08
-0.00391898 0.0285413 1.19006e-07
4.21379e-08 1.19006e-07 0.0287303

0.0354074 0.00276383 -1.1292e-07
0.00276383 0.0308552 -5.93445e-08
-1.1292e-07 -5.93445e-08 0.0330385

0.029772 -0.00370346 -5.0554e-08
-0.00370346 0.0329364 1.22115e-08
-5.0554e-08 1.22115e-08 0.0333415

0.0270543 -0.00341005 6.01742e-08
-0.00341005 0.0299816 -1.39751e-07
6.01742e-08 -1.39751e-07 0.0253968

0.02844 0.00377089 2.40862e-07
0.00377089 0.028939 -3.9564e-08
2.40862e-07 -3.9564e-08 0.0258866

0.0313704 0.00341324 5.79058e-08
0.00341324 0.0268986 -1.43394e-07
5.79058e-08 -1.43394e-07 0.0269652

0.0365354 -0.00194394 2.72777e-08
-0.00194394 0.0306243 -2.2416e-08
2.72777e-08 -2.2416e-08 0.0336348

0.025533 -0.00216307 2.86253e-07
-0.00216307 0.0318009 -1.26964e-08
2.86253e-07 -1.26964e-08 0.0258529

0.0346983 -0.00231406 5.1393e-09
-0.00231406 0.0283335 6.65881e-08
5.1393e-09 6.65881e-08 0.031455

0.0341846 0.00222311 -3.72902e-08
0.00222311 0.0274309 -1.8547e-07
-3.72902e-08 -1.8547e-07 0.0306028

0.0336442 -0.00124608 -3.93774e-08
-0.00124608 0.0392993 -8.07398e-08
-3.93774e-08 -8.07398e-08 0.0349265

0.0320708 -0.00174664 -1.92799e-07
-0.00174664 0.0253295 1.73008e-07
-1.92799e-07 1.73008e-07 0.0258703

0.025001 7.97584e-05 -2.6338e-08
7.97584e-05 0.0331497 3.63718e-09
-2.6338e-08 3.63718e-09 0.0268603

0.0332456 0.00242857 -4.64867e-08
0.00242857 0.0271927 -3.45919e-08
-4.64867e-08 -3.45919e-08 0.0289211

0.0311164 0.00359864 -1.50324e-08
0.00359864 0.0272916 9.4013e-08
-1.50324e-08 9.4013e-08 0.0271216

0.0252945 -0.00204097 2.55365e-07
-0.00204097 0.0318632 1.52061e-08
2.55365e-07 1.52061e-08 0.0256102

0.0252002 -0.000154773 -4.95976e-09
-0.000154773 0.0332904 -3.63788e-08
-4.95976e-09 -3.63788e-08 0.027143

0.0354119 0.00385836 -5.18539e-08
0.00385836 0.0329947 2.25757e-07
-5.18539e-08 2.25757e-07 0.0338944

0.0275847 -0.00143091 -4.03066e-08
-0.00143091 0.0353409 -9.60369e-08
-4.03066e-08 -9.60369e-08 0.031441

0.0312329 -0.00348366 2.49361e-07
-0.00348366 0.0269765 -1.19328e-07
2.49361e-07 -1.19328e-07 0.0270088

0.0312955 0.00277246 2.57692e-08
0.00277246 0.0249212 -1.98106e-07
2.57692e-08 -1.98106e-07 0.0252452

0.0345814 0.0031185 7.37989e-09
0.0031185 0.0293855 -1.02991e-07
7.37989e-09 -1.02991e-07 0.0317947

0.0279902 0.000716764 1.92542e-08
0.000716764 0.036038 4.37642e-08
1.92542e-08 4.37642e-08 0.0318171

0.0287152 0.00378107 2.70808e-07
0.00378107 0.0285579 6.32399e-08
2.70808e-07 6.32399e-08 0.0257269

0.0367895 0.00305775 -5.54578e-09
0.00305775 0.0361247 2.26458e-07
-5.54578e-09 2.26458e-07 0.0349061

0.0226794 -0.00754501 -1.00176e-07
-0.00754501 0.0186871 -4.63475e-08
-1.00176e-07 -4.63475e-08 0.0108447

0.0332901 -0.00328721 -4.97083e-08
-0.00328721 0.0286314 1.11682e-07
-4.97083e-08 1.11682e-07 0.0301229

0.0207261 0.00091331 -7.72764e-08
0.00091331 0.0300303 -2.65375e-08
-7.72764e-08 -2.65375e-08 0.0183457

0.0312989 -0.0037816 -1.05013e-07
-0.0037816 0.0292301 -1.4411e-07
-1.05013e-07 -1.4411e-07 0.0290305

0.00153952 -0.00651859 -1.86675e-08
-0.00651859 0.0275675 8.17875e-08
-1.86675e-08 8.17875e-08 0.00290823

0.00146992 0.00636819 5.35742e-09
0.00636819 0.0275856 2.34724e-08
5.35742e-09 2.34724e-08 0.00300118

0.0119843 0.0145046 -5.03909e-08
0.0145046 0.017532 -6.31882e-08
-5.03909e-08 -6.31882e-08 0.0027711

0.0121656 -0.0144952 -5.42979e-08
-0.0144952 0.0172234 6.80874e-08
-5.42979e-08 6.80874e-08 0.00280371

0.02934 -0.000164084 -5.17647e-08
-0.000164084 0 0
-5.17647e-08 0 0.00295253

0.0235915 -0.0112823 1.15992e-07
-0.0112823 0.00539531 -5.58586e-08
1.15992e-07 -5.58586e-08 0.00297822

0.0236335 0.0113486 -7.25834e-08
0.0113486 0.00544942 -3.49543e-08
-7.25834e-08 -3.49543e-08 0.00303939

0.0369102 0.00191133 9.42064e-08
0.00191133 0.0302414 1.35403e-10
9.42064e-08 1.35403e-10 0.0338768

0.0387042 0.00340977 -1.2065e-07
0.00340977 0.0366167 2.63978e-07
-1.2065e-07 2.63978e-07 0.0355777

0.0344134 0.000872287 8.16821e-08
0.000872287 0.0274559 3.44203e-08
8.16821e-08 3.44203e-08 0.0316869

0.0328715 0.00285 1.42503e-08
0.00285 0.0268885 -1.44009e-07
1.42503e-08 -1.44009e-07 0.0286454

0.0256999 0.00231314 -7.87141e-08
0.00231314 0.0323661 -1.84384e-07
-7.87141e-08 -1.84384e-07 0.0276348

0.0307117 0.00376877 -1.46803e-08
0.00376877 0.0276753 9.34912e-08
-1.46803e-08 9.34912e-08 0.0271168

0.0333048 -0.0039032 -9.43559e-08
-0.0039032 0.0304651 -2.67206e-08
-9.43559e-08 -2.67206e-08 0.031629

0.0309725 0.00365436 -1.6135e-07
0.00365436 0.0272859 2.43316e-07
-1.6135e-07 2.43316e-07 0.0269244

0.0249864 -0.000371506 4.67274e-08
-0.000371506 0.0331207 5.98045e-09
4.67274e-08 5.98045e-09 0.0268425

0.0385472 -0.00348498 1.06607e-07
-0.00348498 0.0368804 -1.13103e-08
1.06607e-07 -1.13103e-08 0.0355832

0.0251749 -0.000635581 5.0891e-09
-0.000635581 0.0332091 -3.55249e-08
5.0891e-09 -3.55249e-08 0.0271019

0.0360172 0.00304723 1.06306e-07
0.00304723 0.0330106 -1.96573e-07
1.06306e-07 -1.96573e-07 0.0340973

0.0296222 0.00347555 -8.85784e-08
0.00347555 0.0248456 -1.9109e-07
-8.85784e-08 -1.9109e-07 0.0230222

0.0304954 -0.0017138 -1.94365e-07
-0.0017138 0.0375117 3.44274e-08
-1.94365e-07 3.44274e-08 0.0347358

0.0339198 0.00180447 1.3049e-07
0.00180447 0.0271809 -3.29708e-08
1.3049e-07 -3.29708e-08 0.0303197

0.0312004 -0.00392014 6.96147e-08
-0.00392014 0.0285302 1.82211e-07
6.96147e-08 1.82211e-07 0.0286137

0.0315828 -0.00322127 1.78433e-07
-0.00322127 0.026691 -2.55812e-07
1.78433e-07 -2.55812e-07 0.027047

0.0384788 -0.00214157 -6.95626e-09
-0.00214157 0.0334165 1.40142e-07
-6.95626e-09 1.40142e-07 0.0347443

0.0326805 0.00366396 -6.37427e-08
0.00366396 0.0292315 1.65778e-07
-6.37427e-08 1.65778e-07 0.0301543

0.032644 0.00313733 -1.00706e-07
0.00313733 0.0272516 9.06824e-08
-1.00706e-07 9.06824e-08 0.0287873

0.0269545 -0.000365157 -1.46864e-07
-0.000365157 0.0349862 -3.85079e-08
-1.46864e-07 -3.85079e-08 0.0301673

0.025899 0.000765761 -6.43733e-08
0.000765761 0.034003 -1.64939e-07
-6.43733e-08 -1.64939e-07 0.0288223

0.0327772 0.000345364 1.15596e-07
0.000345364 0.0248611 -1.92719e-07
1.15596e-07 -1.92719e-07 0.0274431

0.0313865 -0.000944823 1.42805e-07
-0.000944823 0.0230034 -1.18132e-07
1.42805e-07 -1.18132e-07 0.0238916

0.0308799 0.00398515 -1.53119e-07
0.00398515 0.0288053 2.59236e-07
-1.53119e-07 2.59236e-07 0.0286235

0.0331175 -0.0034314 -8.99597e-09
-0.0034314 0.0285397 1.81662e-07
-8.99597e-09 1.81662e-07 0.0299687

0.0364123 -0.00282395 1.73879e-07
-0.00282395 0.0327326 -2.9009e-08
1.73879e-07 -2.9009e-08 0.0341435

0.0292057 -0.00412763 -4.3646e-08
-0.00412763 0.0291917 -1.39622e-07
-4.3646e-08 -1.39622e-07 0.0277533

0.0269714 -0.00362029 -2.02051e-07
-0.00362029 0.0304642 1.31254e-08
-2.02051e-07 1.31254e-08 0.0272128

0.0283258 0.00389933 1.64465e-07
0.00389933 0.0299003 -1.92286e-07
1.64465e-07 -1.92286e-07 0.0277514

0.0259008 -0.00124903 7.06296e-08
-0.00124903 0.0336127 -3.1623e-08
7.06296e-08 -3.1623e-08 0.0285154

0.026654 -0.000202031 -2.3362e-08
-0.000202031 0.0349125 -2.05203e-07
-2.3362e-08 -2.05203e-07 0.0299192

0.0277618 0.000752977 -1.08689e-07
0.000752977 0.0360375 4.47259e-08
-1.08689e-07 4.47259e-08 0.0316576

0.0262466 -0.0027493 1.72099e-07
-0.0027493 0.0319625 1.58252e-07
1.72099e-07 1.58252e-07 0.02771

0.0345821 0.00317565 -1.33282e-07
0.00317565 0.0291678 1.61946e-07
-1.33282e-07 1.61946e-07 0.0316338

0.0339085 -0.00126114 6.79235e-08
-0.00126114 0.0269298 -1.7482e-08
6.79235e-08 -1.7482e-08 0.0302011

0.0257898 0.000974455 -7.24661e-08
0.000974455 0.033829 -7.86833e-08
-7.24661e-08 -7.86833e-08 0.0285414

0.0278235 -0.00126998 -8.73544e-08
-0.00126998 0.0353967 -1.05633e-07
-8.73544e-08 -1.05633e-07 0.0313654

0.0272924 -0.00213714 5.98361e-09
-0.00213714 0.0336563 3.17908e-09
5.98361e-09 3.17908e-09 0.030225

0.032776 -0.00107727 -1.3509e-07
-0.00107727 0.0253195 4.61685e-08
-1.3509e-07 4.61685e-08 0.0272537

0.0333146 -0.00427096 -9.31395e-08
-0.00427096 0.0323801 -7.53498e-08
-9.31395e-08 -7.53498e-08 0.0335286

0.026488 0.00121978 -1.43075e-07
0.00121978 0.033835 -7.95919e-08
-1.43075e-07 -7.95919e-08 0.0288155

0.0398103 -0.00243156 -2.38964e-07
-0.00243156 0.0352178 -7.36261e-08
-2.38964e-07 -7.36261e-08 0.0354605

0.0188885 0.00316457 -2.24996e-08
0.00316457 0.0278754 -1.24695e-07
-2.24996e-08 -1.24695e-07 0.0162725

0.0338148 -0.00352278 -3.11102e-08
-0.00352278 0.0334945 2.34743e-08
-3.11102e-08 2.34743e-08 0.0337256

0.0353434 -0.00399951 9.65262e-09
-0.00399951 0.033046 1.41856e-07
9.65262e-09 1.41856e-07 0.0339034

0.0266853 -9.03519e-05 4.39876e-09
-9.03519e-05 0.0349176 -2.04568e-07
4.39876e-09 -2.04568e-07 0.0299274

0.0332421 -0.00217662 1.8982e-07
-0.00217662 0.0271525 -2.46003e-07
1.8982e-07 -2.46003e-07 0.0289021

0.0293469 0.00168475 -2.47861e-08
0.00168475 0.0358184 -2.37174e-08
-2.47861e-08 -2.37174e-08 0.0328791

0.0132072 -0.00037902 1.46563e-07
-0.00037902 0.0283616 3.61826e-08
1.46563e-07 3.61826e-08 0.0111516

0.027113 0.00186844 -9.93597e-08
0.00186844 0.0340608 3.04021e-09
-9.93597e-08 3.04021e-09 0.0303056

0.0311084 -0.0038583 3.06157e-08
-0.0038583 0.0291535 1.03591e-07
3.06157e-08 1.03591e-07 0.0288058

0.0186195 0.00320458 6.56429e-08
0.00320458 0.030139 1.18419e-07
6.56429e-08 1.18419e-07 0.0131266

0.0426015 0.00351787 -4.64816e-07
0.00351787 0.0418486 -5.97762e-07
-4.64816e-07 -5.97762e-07 0.0364798

0.0432047 -0.00374858 4.62607e-08
-0.00374858 0.0414168 -8.43319e-08
4.62607e-08 -8.43319e-08 0.0364623

0.0310642 -0.00399078 -1.81196e-07
-0.00399078 0.0304706 -2.45843e-08
-1.81196e-07 -2.45843e-08 0.0304604

0.0289212 -0.00406404 -2.76652e-08
-0.00406404 0.0291499 1.02939e-07
-2.76652e-08 1.02939e-07 0.0275937

0.0330499 0.00272687 6.64444e-08
0.00272687 0.0275277 -1.76135e-07
6.64444e-08 -1.76135e-07 0.0290747

0.0327786 0.00196013 2.08182e-07
0.00196013 0.0255906 9.43724e-08
2.08182e-07 9.43724e-08 0.0278221

0.0464016 0.000418537 4.16889e-07
0.000418537 0.046357 -4.72623e-08
4.16889e-07 -4.72623e-08 0.0366941

0.0469183 -0.000951499 6.05738e-07
-0.000951499 0.0457678 4.86082e-07
6.05738e-07 4.86082e-07 0.0367652

0.0347984 0.000638128 -3.28051e-08
0.000638128 0.0275722 1.33976e-07
-3.28051e-08 1.33976e-07 0.0322158

0.027751 0.000882316 -8.9601e-08
0.000882316 0.0355695 -1.37207e-08
-8.9601e-08 -1.37207e-08 0.0313478

0.027607 0.000882832 1.20749e-07
0.000882832 0.0355696 -7.71061e-09
1.20749e-07 -7.71061e-09 0.031244

0.0234586 0.00739971 5.06514e-09
0.00739971 0.0183015 2.85168e-07
5.06514e-09 2.85168e-07 0.0109013

0.0272462 -0.00367548 -9.41607e-09
-0.00367548 0.0303465 -3.63807e-08
-9.41607e-09 -3.63807e-08 0.0273187

0.0365662 0.00239163 6.6416e-08
0.00239163 0.0295755 3.56839e-08
6.6416e-08 3.56839e-08 0.0337836

0.0332728 0.00124752 2.39494e-07
0.00124752 0.0265034 3.44202e-08
2.39494e-07 3.44202e-08 0.028431

0.0291515 -0.00349239 -7.08452e-08
-0.00349239 0.0304704 2.40711e-08
-7.08452e-08 2.40711e-08 0.0281725

0.0328103 -0.00264768 1.83214e-07
-0.00264768 0.0267272 -2.56038e-07
1.83214e-07 -2.56038e-07 0.0285859

0.0224594 0.00761258 1.62616e-07
0.00761258 0.01859 -2.89422e-07
1.62616e-07 -2.89422e-07 0.0109037

0.0331442 0.00410226 7.69198e-08
0.00410226 0.0326376 -1.87726e-07
7.69198e-08 -1.87726e-07 0.0331808

0.0258894 -0.00257807 1.49482e-07
-0.00257807 0.032023 1.8988e-07
1.49482e-07 1.8988e-07 0.0275066

0.0324816 0.00378575 -3.32472e-09
0.00378575 0.0292673 8.3763e-08
-3.32472e-09 8.3763e-08 0.030146

0.0268151 -0.000543521 1.56359e-07
-0.000543521 0.0349512 -7.51275e-09
1.56359e-07 -7.51275e-09 0.030137

0.0269891 0.00256331 -2.22455e-07
0.00256331 0.0324472 -1.06572e-07
-2.22455e-07 -1.06572e-07 0.0282856

0.0305253 0.0039909 -2.04612e-08
0.0039909 0.0293223 8.20603e-08
-2.04612e-08 8.20603e-08 0.0287742

0.0276078 -0.00293707 7.49115e-08
-0.00293707 0.031853 1.41076e-07
7.49115e-08 1.41076e-07 0.0282482

0.0294553 -0.00357567 1.76629e-08
-0.00357567 0.0303502 -3.46682e-08
1.76629e-08 -3.46682e-08 0.0283042

0.0181372 0.00142548 -5.03199e-08
0.00142548 0.0280355 -1.24118e-07
-5.03199e-08 -1.24118e-07 0.0131272

0.0234731 -0.00429377 5.2927e-08
-0.00429377 0.0275554 -1.12611e-07
5.2927e-08 -1.12611e-07 0.0177227

0.0262046 -0.00152592 8.93278e-08
-0.00152592 0.0336223 -1.57972e-07
8.93278e-08 -1.57972e-07 0.0287509

0.0330225 0.00347462 2.94353e-08
0.00347462 0.0288768 2.44006e-07
2.94353e-08 2.44006e-07 0.030068

0.0303207 0.00385734 2.19237e-07
0.00385734 0.0298856 -1.88827e-07
2.19237e-07 -1.88827e-07 0.0289893

0.0274134 -0.00280057 -1.20162e-07
-0.00280057 0.0319827 1.70407e-07
-1.20162e-07 1.70407e-07 0.0281381

0.0265536 -0.00154067 2.97922e-08
-0.00154067 0.0335812 -3.37196e-08
2.97922e-08 -3.37196e-08 0.0287454

0.0309554 0.00371827 2.82107e-08
0.00371827 0.0295624 -9.68165e-08
2.82107e-08 -9.68165e-08 0.0289403

0.0267584 -0.00181606 3.78347e-08
-0.00181606 0.0334727 -1.69029e-07
3.78347e-08 -1.69029e-07 0.0289533

0.0191655 0.00355428 7.32356e-08
0.00355428 0.0276068 1.23112e-07
7.32356e-08 1.23112e-07 0.0162917

0.0308726 -0.000534649 1.17808e-07
-0.000534649 0.0388185 -2.51135e-07
1.17808e-07 -2.51135e-07 0.0342935

0.0286553 0.00404764 1.5763e-07
0.00404764 0.0295175 -1.11174e-07
1.5763e-07 -1.11174e-07 0.0277136

0.0355789 0.00197521 -6.9193e-08
0.00197521 0.029502 -9.90999e-08
-6.9193e-08 -9.90999e-08 0.0328417

0.0362583 -0.00211473 1.07608e-07
-0.00211473 0.0297543 1.85161e-07
1.07608e-07 1.85161e-07 0.0332168

0.0285096 -0.00309562 1.65717e-07
-0.00309562 0.0185685 1.70085e-07
1.65717e-07 1.70085e-07 0.0157294

0.0283527 -0.00279008 -1.86222e-07
-0.00279008 0.0327738 -4.42142e-08
-1.86222e-07 -4.42142e-08 0.0305706

0.0291899 0.00350052 -2.73462e-07
0.00350052 0.0315988 1.68705e-07
-2.73462e-07 1.68705e-07 0.0304864

0.0349591 -0.00290715 1.43682e-07
-0.00290715 0.0376747 2.12762e-07
1.43682e-07 2.12762e-07 0.0352352

0.0394597 0.00188548 1.17753e-07
0.00188548 0.0446087 1.76239e-07
1.17753e-07 1.76239e-07 0.0364321

0.0449431 0.0012906 -9.59605e-08
0.0012906 0.0391156 6.12497e-08
-9.59605e-08 6.12497e-08 0.036414

0.0355597 0.00434526 2.64719e-07
0.00434526 0.035134 -8.19146e-08
2.64719e-07 -8.19146e-08 0.0350025

0.0265708 0.00338792 -2.85917e-07
0.00338792 0.0310048 6.12212e-08
-2.85917e-07 6.12212e-08 0.0272549

0.033038 0.003497 1.13487e-07
0.003497 0.0286662 3.26772e-08
1.13487e-07 3.26772e-08 0.030049

0.022059 0.00576402 3.29461e-07
0.00576402 0.0242367 -6.91481e-08
3.29461e-07 -6.91481e-08 0.0160718

0.0386177 -0.00151218 -7.726e-08
-0.00151218 0.0444319 -3.56605e-08
-7.726e-08 -3.56605e-08 0.0363612

0.0460479 -0.000463846 3.26082e-08
-0.000463846 0.0454387 2.0958e-07
3.26082e-08 2.0958e-07 0.0366902

0.0451787 -3.063e-05 -2.02032e-07
-3.063e-05 0.0463016 7.58598e-07
-2.02032e-07 7.58598e-07 0.0366721

0.0176405 -0.00679466 -3.25536e-07
-0.00679466 0.0231075 4.69433e-08
-3.25536e-07 4.69433e-08 0.0107382

0.0392916 -0.00155581 -2.79914e-07
-0.00155581 0.038714 2.43561e-07
-2.79914e-07 2.43561e-07 0.0358527

0.0383961 0.00117682 1.96626e-07
0.00117682 0.0415165 -6.85809e-08
1.96626e-07 -6.85809e-08 0.036124

0.0331742 -0.0034356 -5.46265e-08
-0.0034356 0.0282187 7.63393e-08
-5.46265e-08 7.63393e-08 0.0299024

0.0318437 0.000140299 -1.40406e-07
0.000140299 0.0386713 -2.24928e-07
-1.40406e-07 -2.24928e-07 0.0344495

0.0285758 -0.00266015 1.6524e-08
-0.00266015 0.0333794 1.10691e-09
1.6524e-08 1.10691e-09 0.0315883

0.0356614 0.00083175 -2.01794e-07
0.00083175 0.0273766 7.23416e-09
-2.01794e-07 7.23416e-09 0.0329991

0.028875 0.0020442 -2.60136e-09
0.0020442 0.0368151 1.27146e-07
-2.60136e-09 1.27146e-07 0.0336687

0.0298685 0.00094663 -3.48754e-08
0.00094663 0.0373874 1.06403e-07
-3.48754e-08 1.06403e-07 0.0333626

0.0344006 0.00268499 5.26473e-08
0.00268499 0.0288507 4.04708e-08
5.26473e-08 4.04708e-08 0.0312253

0.0132788 -0.000409371 -4.83323e-08
-0.000409371 0.0281221 7.34075e-08
-4.83323e-08 7.34075e-08 0.011201

0.0309637 -0.00362605 1.08309e-07
-0.00362605 0.030914 -1.05944e-08
1.08309e-07 -1.05944e-08 0.0306086

0.0329275 -0.00344332 -1.06446e-07
-0.00344332 0.0320197 1.63134e-08
-1.06446e-07 1.63134e-08 0.0325783

0.0335698 -0.00415904 -5.49608e-08
-0.00415904 0.0325335 -1.91596e-07
-5.49608e-08 -1.91596e-07 0.0337347

0.0265612 0.00414854 8.80929e-08
0.00414854 0.0176911 3.07793e-08
8.80929e-08 3.07793e-08 0.0126048

0.0388275 -0.00269678 -1.963e-07
-0.00269678 0.0395756 -1.5293e-07
-1.963e-07 -1.5293e-07 0.0359574

0.0230822 0.00692061 1.75342e-07
0.00692061 0.0255013 -2.73198e-07
1.75342e-07 -2.73198e-07 0.0126091

0.0308737 -0.00281774 -2.30761e-07
-0.00281774 0.0348063 -3.59815e-09
-2.30761e-07 -3.59815e-09 0.0339553

0.0354103 0.00193657 -5.92398e-08
0.00193657 0.0284648 -1.66477e-07
-5.92398e-08 -1.66477e-07 0.0323437

0.0318202 -0.00189335 1.80417e-08
-0.00189335 0.02495 8.71596e-08
1.80417e-08 8.71596e-08 0.0253947

0.0292912 0.00315893 -1.81281e-07
0.00315893 0.0327303 -1.0152e-07
-1.81281e-07 -1.0152e-07 0.0312786

0.034436 0.00268867 1.0078e-07
0.00268867 0.0286336 -7.37735e-08
1.0078e-07 -7.37735e-08 0.0312199

0.0325179 0.00149918 -3.94315e-08
0.00149918 0.0403727 -9.37463e-08
-3.94315e-08 -9.37463e-08 0.0353357

0.0319396 -0.00415455 -3.73602e-08
-0.00415455 0.0312001 6.62982e-08
-3.73602e-08 6.62982e-08 0.0318097

0.0396756 0.00265531 -6.6486e-09
0.00265531 0.0331974 -2.76429e-07
-6.6486e-09 -2.76429e-07 0.0353151

0.0279705 -0.00241844 1.34446e-08
-0.00241844 0.0335501 4.36266e-09
1.34446e-08 4.36266e-09 0.0304696

0.0293501 0.000558756 -4.93103e-08
0.000558756 0.0373111 1.04863e-07
-4.93103e-08 1.04863e-07 0.0332517

0.0419438 0.00133718 1.38298e-07
0.00133718 0.0370993 2.30557e-07
1.38298e-07 2.30557e-07 0.0361154

0.0420967 -0.00114835 -1.42642e-08
-0.00114835 0.0373258 -2.38249e-08
-1.42642e-08 -2.38249e-08 0.0360973

0.0283824 0.00236899 -1.85269e-07
0.00236899 0.0181812 7.16757e-08
-1.85269e-07 7.16757e-08 0.0159494

0.0350253 0.00106137 -1.05339e-07
0.00106137 0.0285652 -1.63979e-07
-1.05339e-07 -1.63979e-07 0.0330581

0.0128667 0.000923326 -4.59496e-08
0.000923326 0.0316257 5.67895e-08
-4.59496e-08 5.67895e-08 0.00612157

0.0131623 -0.001388 1.42949e-07
-0.001388 0.0321316 -9.88582e-08
1.42949e-07 -9.88582e-08 0.00611189

0.0152685 0.00715413 -8.73907e-08
0.00715413 0.0284524 6.68637e-08
-8.73907e-08 6.68637e-08 0.00598401

0.034763 -0.00382108 -1.12504e-07
-0.00382108 0.031267 1.76465e-07
-1.12504e-07 1.76465e-07 0.0329383

0.0155804 -0.00619426 8.94099e-08
-0.00619426 0.0261522 -3.4331e-07
8.94099e-08 -3.4331e-07 0.0104717

0.0155126 -0.00708666 -1.30514e-07
-0.00708666 0.0274229 -2.03537e-07
-1.30514e-07 -2.03537e-07 0.00591381

0.0284253 0.00342574 -2.25834e-08
0.00342574 0.0310051 6.2278e-08
-2.25834e-08 6.2278e-08 0.028152

0.0251928 0.00932569 3.03507e-07
0.00932569 0.0190205 -1.3048e-07
3.03507e-07 -1.3048e-07 0.00593372

0.0365374 0.00173203 1.00162e-07
0.00173203 0.0385507 8.66203e-09
1.00162e-07 8.66203e-09 0.0354744

0.0395347 2.51288e-05 -7.24115e-08
2.51288e-05 0.0355388 -2.47535e-07
-7.24115e-08 -2.47535e-07 0.035455

0.0261069 -0.00924425 -1.8993e-07
-0.00924425 0.0188122 3.99023e-08
-1.8993e-07 3.99023e-08 0.00588785

0.0276891 -0.00306508 -2.52745e-09
-0.00306508 0.0320938 -2.71492e-08
-2.52745e-09 -2.71492e-08 0.0296221

0.0262545 0.00441796 2.36922e-08
0.00441796 0.0201576 2.78721e-07
2.36922e-08 2.78721e-07 0.0130443

0.0172789 0.00797291 1.20616e-07
0.00797291 0.0271486 5.76891e-08
1.20616e-07 5.76891e-08 0.00598769

0.0181959 0.00275503 -7.51806e-08
0.00275503 0.0275891 -1.19924e-07
-7.51806e-08 -1.19924e-07 0.0128498

0.0173038 -0.0082762 -1.2355e-07
-0.0082762 0.0271518 1.14359e-07
-1.2355e-07 1.14359e-07 0.00581364

0.0179326 -0.00157094 1.60987e-07
-0.00157094 0.0280049 -4.06814e-08
1.60987e-07 -4.06814e-08 0.0126902

0.0370497 0.000923372 -8.18857e-08
0.000923372 0.0412996 -2.53895e-08
-8.18857e-08 -2.53895e-08 0.0358092

0.0221306 -0.005855 -1.83382e-07
-0.005855 0.0236639 -3.48831e-07
-1.83382e-07 -3.48831e-07 0.0151585

0.0156998 0.00598601 -2.01062e-08
0.00598601 0.0259018 -2.45675e-07
-2.01062e-08 -2.45675e-07 0.0107499

0.030208 0.00472985 1.16033e-07
0.00472985 0.014349 2.90916e-07
1.16033e-07 2.90916e-07 0.00611571

0.0329378 -0.00384948 1.10596e-07
-0.00384948 0.0301236 -1.53668e-08
1.10596e-07 -1.53668e-08 0.0310504

0.0308879 0.00169387 -3.50976e-08
0.00169387 0.0368416 1.28581e-07
-3.50976e-08 1.28581e-07 0.0339494

0.0260893 -0.00484385 -2.24808e-08
-0.00484385 0.019197 3.50139e-07
-2.24808e-08 3.50139e-07 0.0126947

0.0330001 -0.00378595 1.09374e-07
-0.00378595 0.0300744 -1.82837e-08
1.09374e-07 -1.82837e-08 0.0311267

0.0300184 -0.00451979 -1.47142e-07
-0.00451979 0.0130533 1.64924e-07
-1.47142e-07 1.64924e-07 0.00603712

0.0324726 -0.00372739 2.13564e-08
-0.00372739 0.0313064 1.5245e-07
2.13564e-08 1.5245e-07 0.0319786

0.0280903 -0.00331111 -6.32334e-08
-0.00331111 0.0320029 3.2293e-07
-6.32334e-08 3.2293e-07 0.0296245

0.0234431 0.00874344 -6.40282e-08
0.00874344 0.0204825 2.2801e-07
-6.40282e-08 2.2801e-07 0.00602601

0.0181994 -0.00292065 2.28101e-07
-0.00292065 0.0268659 -1.34119e-08
2.28101e-07 -1.34119e-08 0.0122697

0.0233141 -0.00901907 9.63237e-08
-0.00901907 0.0201518 3.26037e-07
9.63237e-08 3.26037e-07 0.00588384

0.0170821 0.00640812 1.8699e-08
0.00640812 0.0235655 2.03612e-07
1.8699e-08 2.03612e-07 0.0108308

0.0308253 -0.00396016 1.0679e-07
-0.00396016 0.0301597 -1.50245e-08
1.0679e-07 -1.50245e-08 0.0300847

0.0389169 -0.00195855 8.0746e-08
-0.00195855 0.0369399 2.32176e-07
8.0746e-08 2.32176e-07 0.0354987

0.045541 0.00150612 2.59659e-07
0.00150612 0.0449514 1.71016e-07
2.59659e-07 1.71016e-07 0.0366183

0.0435637 -0.000711071 -1.71798e-07
-0.000711071 0.0462317 -5.54237e-08
-1.71798e-07 -5.54237e-08 0.036584

0.0286148 0.00171602 -3.87179e-08
0.00171602 0.0355653 8.47864e-08
-3.87179e-08 8.47864e-08 0.0323888

0.0453362 -0.00144726 -1.97854e-08
-0.00144726 0.0449791 -2.33805e-07
-1.97854e-08 -2.33805e-07 0.0366361

0.0438079 0.000567661 -1.86765e-07
0.000567661 0.0465063 -5.20982e-07
-1.86765e-07 -5.20982e-07 0.0366172

0.046679 0.000991006 -4.37117e-08
0.000991006 0.0433765 -5.73029e-08
-4.37117e-08 -5.73029e-08 0.0365923

0.03975 -0.00163932 1.59174e-07
-0.00163932 0.0460747 4.61884e-08
1.59174e-07 4.61884e-08 0.036482

0.0190535 -0.00388712 2.32216e-07
-0.00388712 0.02723 -2.04497e-08
2.32216e-07 -2.04497e-08 0.0154707

0.0421403 -0.00175032 -2.16711e-07
-0.00175032 0.0367247 2.92301e-07
-2.16711e-07 2.92301e-07 0.036004

0.0359638 -0.00457321 2.55136e-07
-0.00457321 0.0351499 -2.27923e-07
2.55136e-07 -2.27923e-07 0.0349672

0.0397526 -0.00242164 -3.66402e-08
-0.00242164 0.0360632 -3.10528e-07
-3.66402e-08 -3.10528e-07 0.0355664

0.0351837 0.00204313 -1.22536e-07
0.00204313 0.0285482 -8.80951e-08
-1.22536e-07 -8.80951e-08 0.032231

0.039692 0.0013379 -2.84417e-07
0.0013379 0.0472264 1.08778e-07
-2.84417e-07 1.08778e-07 0.0365479

0.0464969 0.00259399 1.91202e-07
0.00259399 0.0404181 3.99902e-07
1.91202e-07 3.99902e-07 0.0365291

0.0400859 0.00150543 -3.82264e-08
0.00150543 0.036673 3.80041e-08
-3.82264e-08 3.80041e-08 0.0356145

0.0279137 -0.00191982 1.7442e-07
-0.00191982 0.0125244 1.31421e-07
1.7442e-07 1.31421e-07 0.0106242

0.0283181 0.00326774 3.11614e-08
0.00326774 0.0315493 2.86451e-07
3.11614e-08 2.86451e-07 0.0294099

0.0231877 -0.00773583 5.14162e-08
-0.00773583 0.0181796 3.63714e-07
5.14162e-08 3.63714e-07 0.0102892

0.0228303 -0.00731562 -1.54676e-07
-0.00731562 0.0257678 -3.73777e-07
-1.54676e-07 -3.73777e-07 0.0119542

0.0290216 -0.00464684 1.60805e-07
-0.00464684 0.0191279 1.70391e-07
1.60805e-07 1.70391e-07 0.0126147

0.0375737 -0.000660709 2.30184e-07
-0.000660709 0.0449116 -2.6897e-07
2.30184e-07 -2.6897e-07 0.036293

0.0375715 0.000358443 1.46311e-07
0.000358443 0.0447889 1.52528e-07
1.46311e-07 1.52528e-07 0.0362733

0.0426046 -0.00327422 -1.34768e-07
-0.00327422 0.03945 5.32786e-08
-1.34768e-07 5.32786e-08 0.0362271

0.0429987 -0.00294469 7.18533e-08
-0.00294469 0.0391683 6.48503e-08
7.18533e-08 6.48503e-08 0.0362341

0.0425015 0.00350473 -2.66119e-07
0.00350473 0.0399723 -3.24007e-07
-2.66119e-07 -3.24007e-07 0.0362719

0.0443975 0.000417496 2.99346e-07
0.000417496 0.0450803 4.57094e-07
2.99346e-07 4.57094e-07 0.0366353

0.0426082 -0.00274464 2.79495e-08
-0.00274464 0.0395067 2.0332e-09
2.79495e-08 2.0332e-09 0.0362886

0.0426019 -0.00251229 7.66252e-08
-0.00251229 0.0442679 -2.37376e-07
7.66252e-08 -2.37376e-07 0.0365628

0.0451182 0.000331677 -4.84734e-07
0.000331677 0.0454673 -7.22108e-07
-4.84734e-07 -7.22108e-07 0.0366535

0.0436373 -0.00278318 -7.97115e-08
-0.00278318 0.0389162 1.22506e-07
-7.97115e-08 1.22506e-07 0.0363292

0.0435119 0.00283908 -1.25226e-07
0.00283908 0.0390688 -4.32389e-08
-1.25226e-07 -4.32389e-08 0.0363674

0.0451938 -0.000471538 -1.87588e-07
-0.000471538 0.0455825 7.70067e-08
-1.87588e-07 7.70067e-08 0.0367022

0.045227 -0.000426384 7.65992e-07
-0.000426384 0.0443626 -1.18079e-06
7.65992e-07 -1.18079e-06 0.0367206

0.0427994 0.00163815 -5.53463e-07
0.00163815 0.0442484 1.0264e-06
-5.53463e-07 1.0264e-06 0.0366066

0.0411159 0.00361883 -1.50039e-07
0.00361883 0.0405161 -1.13982e-07
-1.50039e-07 -1.13982e-07 0.0363212

SCALARS pressure float
LOOKUP_TABLE default
-60.0503
19.3081
5.80316
21.29
15.8788
5.88712
-58.6734
7.78293
-3.80507
15.1244
-24.4314
7.61708
5.5919
12.2791
23.3377
5.53878
18.5207
13.207
-0.69311
6.75629
-0.905046
33.1352
5.80051
5.79659
6.60158
14.9026
-38.3846
6.67144
-15.2424
30.6266
5.17612
-15.6571
-42.0556
27.3263
20.7793
27.3592
31.8849
19.8092
4.85941
-42.5989
-17.4073
31.9057
31.9938
5.99337
-21.8047
-15.9758
-1.05269
-3.40568
6.54455
-16.2177
-18.9187
-15.3459
20.7557
-15.3731
20.3088
-33.1483
21.1297
-15.4603
21.1396
7.04464
21.7646
16.1187
-45.5615
12.7897
16.362
10.9049
21.5739
13.8279
5.77322
21.8169
20.8117
20.7824
-17.6909
11.6004
3.97374
-31.6091
14.3566
10.9961
14.1459
-8.72017
-28.9445
14.9777
20.163
-22.0377
-23.4293
-28.0916
7.09751
9.63223
-22.2155
37.742
-15.509
38.4446
18.3045
10.7613
-15.1665
-15.8727
-30.221
14.7533
14.3656
4.5985
-10.7664
-21.9394
-25.1013
16.2127
14.1
14.9615
18.6974
3.77452
-24.5582
26.5131
7.21727
-21.4087
-24.6118
14.8376
15.0779
-16.1457
20.1651
-29.1129
20.6287
-16.7293
-2.90497
23.834
21.7269
16.0328
26.6798
22.6316
21.7857
15.7083
-29.7806
-16.099
24.0918
21.6172
20.9892
22.0656
-22.0138
23.5874
-33.837
5.46318
21.7543
23.6307
-21.9367
6.67625
-5.96694
15.0833
-30.4072
15.6238
7.83296
2.40733
5.17753
-9.39466
-0.458267
22.6414
-15.4546
5.2908
15.2039
21.5604
11.508
-21.1132
-21.2637
10.7902
-2.84299
-15.1976
-21.2202
-15.1653
-20.9864
15.2795
-20.6358
-21.2015
-15.2078
-21.0637
19.0043
-15.941
-14.8245
12.0643
-14.4847
18.8027
19.0534
7.47249
18.0479
11.7728
-16.249
15.288
14.9608
-21.5284
10.4264
-14.2213
16.0485
14.5954
17.0818
14.835
10.3437
-26.9761
-16.0822
-15.9581
21.9068
14.5255
14.6244
20.9226
22.4868
9.50248
21.7336
-0.385016
-8.17106
20.7787
-17.8387
19.9455
10.364
-21.5175
15.721
22.5261
14.7312
9.39324
14.1896
21.0556
-7.83312
8.82735
-7.90892
14.6481
26.9277
26.5814
27.9606
26.3886
26.7244
26.291
13.8256
23.4304
24.0296
23.9738
23.4
21.1928
21.8573
-8.26317
15.9333
28.1911
-3.18905
23.5761
23.2054
27.8344
-8.49387
28.0965
15.3445
-7.58195
17.492
-8.25814
20.2271
29.6128
-7.48634
-8.10109
-29.5917
-18.189
19.5272
-31.9851
5.73397
-7.79429
-1.18994
28.2492
26.6403
30.427
26.761
-34.8006
-8.17999
28.3374
8.07249
-8.29549
26.446
-6.29566
30.4719
-7.95442
27.0472
14.5659
14.7869
23.8452
10.0473
18.021
8.11669
-29.8596
-24.5528
16.8068
1.75921
8.17914
-13.609
17.4357
11.6996
-8.10185
9.45187
-10.8237
7.51654
-10.7549
-8.48506
33.2651
19.1517
25.0884
25.3127
13.8289
-10.4047
26.4301
14.6848
-1.65949
-10.2741
-12.5644
17.5066
-7.48559
17.5745
-12.0414
-21.3502
-10.6085
-34.6809
15.5623
-7.76332
34.4431
-11.5782
16.8712
-8.4091
15.9726
-12.7585
4.28867
-51.1176
8.52119
-7.74699
21.3339
-8.1525
-0.123407
10.7151
21.124
-12.0609
-10.201
-6.06873
14.3178
-10.1803
6.88749
6.38515
16.3054
-10.4198
-6.33083
-1.70286
-5.66093
-11.0787
-5.84515
15.3054
7.80751
-5.55653
-8.9608
7.80495
7.69381
-10.6748
16.3093
-27.213
2.29247
-28.481
-0.958111
-8.87776
-8.09605
-11.7786
-10.9423
-9.88064
-7.77565
-7.89901
16.6376
24.7781
12.1156
-0.292254
-0.825813
-5.6751
7.30467
-6.32119
-6.31848
24.9239
-5.73053
14.1179
-15.9084
24.3253
5.96751
-0.391809
-5.64438
16.2749
2.47647
0.198405
2.44746
0.455272
-0.741506
-9.93061
-0.096252
2.11263
15.0688
-1.28893
-1.40782
-0.999475
-0.389229
1.96466
8.05014
-1.19421
8.07759
5.58258
-0.436291
7.03469
5.48961
-3.87707
16.4765
-1.90401
23.0623
-21.9731
15.0439
15.6822
2.03902
-1.99809
12.5425
-26.5056
5.7916
-1.65854
-50.482
30.499
30.6356
5.82424
-1.14502
-1.04743
-0.850351
33.4198
33.2945
13.0944
6.08134
6.6618
-28.9617
-1.28008
16.5333
-3.1833
-4.34869
-0.0176004
-25.2703
14.3029
-1.28085
2.86115
2.69255
-2.72387
-0.0499771
-3.2101
-4.03414
-37.9816
-33.6829
-0.128683
1.87385
-0.534725
-3.74478
-1.93721
-1.87833
-0.924949
-21.9071
17.2495
-0.769991
12.5648
14.1833
-26.7636
6.28566
7.1362
18.4778
36.4289
36.4613
22.6387
-1.75646
2.59899
-20.9292
36.1275
32.7611
32.8281
-24.8077
21.7759
30.5242
2.59848
15.7239
10.3707
17.1641
17.726
12.5052
5.68078
-25.3971
4.25946
10.4089
16.2438
-31.709
28.3104
-52.709
18.6847
10.2985
-10.6277
7.41678
5.45649
24.4747
9.41052
24.4077
4.10455
12.3995
30.6414
29.4671
-22.9897
17.4352
-70.2277
-74.3742
-67.1718
11.648
-31.2588
-63.6052
-3.80409
-69.9332
16.4633
16.407
-73.7493
5.21144
-39.7286
-70.7337
-37.7546
-71.8701
-39.45
21.1372
-23.9595
-29.0428
-70.6176
4.83081
15.7574
-36.1885
6.05289
-63.6129
9.8354
3.88098
-67.8963
-37.6221
-66.4058
-23.7544
5.0284
20.5265
35.3731
36.7289
11.8115
36.8528
36.9061
36.4944
36.4063
-24.4782
28.2489
20.6691
21.981
11.534
36.0622
36.0937
18.1203
-23.9391
3.24588
-30.525
-56.595
-50.4722
36.1453
35.826
35.3826
35.4528
36.1613
35.6011
33.1116
37.373
35.4024
36.0081
35.6403
34.1988
34.3354
35.8585
35.3113
