# vtk DataFile Version 3.0
vtk output at time 160
ASCII
DATASET UNSTRUCTURED_GRID
POINTS 626 float
-3.68058e-05 0.000978749 0 3.68058e-05 0.000978749 0 -0.000829194 0.00052125 0 
-0.0008235 0.0005 0 -0.000866 0.0004575 0 -0.000866 -0.0004575 0 
-0.0008235 -0.0005 0 -0.000829194 -0.00052125 0 -3.68058e-05 -0.000978749 0 
3.68058e-05 -0.000978749 0 0.000829194 -0.00052125 0 0.000866 -0.0004575 0 
0.000866 0.0004575 0 0.000829194 0.00052125 0 8.5e-05 0 0 
-3.68058e-05 0.000978749 -0.001 3.68058e-05 0.000978749 -0.001 -0.000829194 0.00052125 -0.001 
-0.0008235 0.0005 -0.001 -0.000866 0.0004575 -0.001 -0.000866 -0.0004575 -0.001 
-0.0008235 -0.0005 -0.001 -0.000829194 -0.00052125 -0.001 -3.68058e-05 -0.000978749 -0.001 
3.68058e-05 -0.000978749 -0.001 0.000829194 -0.00052125 -0.001 0.000866 -0.0004575 -0.001 
0.000866 0.0004575 -0.001 0.000829194 0.00052125 -0.001 8.5e-05 0 -0.001 
8.46223e-17 0.0009575 0 -0.000715996 0.000586607 0 -0.000602797 0.000651965 0 
-0.000489599 0.000717321 0 -0.000376401 0.000782678 0 -0.000263202 0.000848036 0 
-0.000150004 0.000913393 0 -0.000835948 0.000469948 0 -0.000866 -0.000326786 0 
-0.000866 -0.000196071 0 -0.000866 -6.53571e-05 0 -0.000866 6.53571e-05 0 
-0.000866 0.000196071 0 -0.000866 0.000326786 0 -0.000835948 -0.000469948 0 
-0.000150004 -0.000913393 0 -0.000263202 -0.000848036 0 -0.000376401 -0.000782678 0 
-0.000489599 -0.000717321 0 -0.000602797 -0.000651965 0 -0.000715996 -0.000586607 0 
8.47648e-17 -0.0009575 0 0.000715996 -0.000586607 0 0.000602797 -0.000651965 0 
0.000489599 -0.000717321 0 0.000376401 -0.000782678 0 0.000263202 -0.000848036 0 
0.000150004 -0.000913393 0 0.000829194 -0.00047875 0 0.000866 0.000326786 0 
0.000866 0.000196071 0 0.000866 6.53571e-05 0 0.000866 -6.53571e-05 0 
0.000866 -0.000196071 0 0.000866 -0.000326786 0 0.000829194 0.00047875 0 
0.000150004 0.000913393 0 0.000263202 0.000848036 0 0.000376401 0.000782678 0 
0.000489599 0.000717321 0 0.000602797 0.000651965 0 0.000715996 0.000586607 0 
5.29966e-05 6.64557e-05 0 -1.89143e-05 8.28689e-05 0 -7.65824e-05 3.68801e-05 0 
-7.65824e-05 -3.68801e-05 0 -1.89143e-05 -8.28689e-05 0 5.29966e-05 -6.64557e-05 0 
8.46223e-17 0.0009575 -0.001 -0.000715996 0.000586607 -0.001 -0.000602797 0.000651965 -0.001 
-0.000489599 0.000717321 -0.001 -0.000376401 0.000782678 -0.001 -0.000263202 0.000848036 -0.001 
-0.000150004 0.000913393 -0.001 -0.000835948 0.000469948 -0.001 -0.000866 -0.000326786 -0.001 
-0.000866 -0.000196071 -0.001 -0.000866 -6.53571e-05 -0.001 -0.000866 6.53571e-05 -0.001 
-0.000866 0.000196071 -0.001 -0.000866 0.000326786 -0.001 -0.000835948 -0.000469948 -0.001 
-0.000150004 -0.000913393 -0.001 -0.000263202 -0.000848036 -0.001 -0.000376401 -0.000782678 -0.001 
-0.000489599 -0.000717321 -0.001 -0.000602797 -0.000651965 -0.001 -0.000715996 -0.000586607 -0.001 
8.47648e-17 -0.0009575 -0.001 0.000715996 -0.000586607 -0.001 0.000602797 -0.000651965 -0.001 
0.000489599 -0.000717321 -0.001 0.000376401 -0.000782678 -0.001 0.000263202 -0.000848036 -0.001 
0.000150004 -0.000913393 -0.001 0.000829194 -0.00047875 -0.001 0.000866 0.000326786 -0.001 
0.000866 0.000196071 -0.001 0.000866 6.53571e-05 -0.001 0.000866 -6.53571e-05 -0.001 
0.000866 -0.000196071 -0.001 0.000866 -0.000326786 -0.001 0.000829194 0.00047875 -0.001 
0.000150004 0.000913393 -0.001 0.000263202 0.000848036 -0.001 0.000376401 0.000782678 -0.001 
0.000489599 0.000717321 -0.001 0.000602797 0.000651965 -0.001 0.000715996 0.000586607 -0.001 
5.29966e-05 6.64557e-05 -0.001 -1.89143e-05 8.28689e-05 -0.001 -7.65824e-05 3.68801e-05 -0.001 
-7.65824e-05 -3.68801e-05 -0.001 -1.89143e-05 -8.28689e-05 -0.001 5.29966e-05 -6.64557e-05 -0.001 
0.000131234 6.38474e-05 0 0.00012964 -6.2443e-05 0 3.13827e-05 0.0001394 0 
3.12554e-05 -0.000136939 0 -0.000140461 8.25467e-19 0 -8.90565e-05 -0.000102707 0 
-9.04142e-05 0.000102872 0 -0.000765769 -0.00025965 0 -0.000756873 0.000262774 0 
-0.00015609 0.000787505 0 -0.000155807 -0.00079355 0 0.000605069 0.000528035 0 
0.000608694 -0.00052497 0 0.000744069 0.000116929 0 -0.000494418 0.000596218 0 
-0.000483866 -0.000584648 0 0.000269496 0.000702219 0 0.000263201 -0.000717324 0 
0.000754429 -0.000127825 0 -0.000748858 5.84659e-07 0 -0.000747838 0.000373886 0 
-0.0006542 0.000324842 0 -0.000645137 0.000210123 0 -0.000550884 0.000274171 0 
-0.000538857 0.000163195 0 -0.00045062 0.000224461 0 -0.000438393 0.000123907 0 
-0.000354088 0.000181668 0 -0.000363908 0.000282171 0 -0.000270361 0.000239477 0 
-0.000279138 0.000337653 0 -0.000188888 0.000294791 0 -0.000196448 0.000393271 0 
-0.000104767 0.000348259 0 -0.000113332 0.000449012 0 -2.01066e-05 0.000403223 0 
-2.89189e-05 0.000507105 0 6.9524e-05 0.000461596 0 -0.000213644 0.000490203 0 
7.33757e-05 0.000357726 0 0.000163331 0.00041299 0 0.000163359 0.000313022 0 
0.000248077 0.000366368 0 0.000250914 0.000265758 0 0.000335709 0.000322266 0 
0.000340555 0.000218148 0 0.000427299 0.000276717 0 0.000431508 0.000173093 0 
0.000328731 0.000425633 0 0.00034586 0.000114823 0 0.000435362 7.05241e-05 0 
0.000350892 1.5455e-05 0 0.000441547 -3.11896e-05 0 0.000353547 -8.47783e-05 0 
0.000445767 -0.000132964 0 0.000356135 -0.000186358 0 0.000449094 -0.000234674 0 
0.000359978 -0.000287876 0 0.00026856 -0.000240545 0 0.000271895 -0.000341045 0 
0.000181792 -0.00029305 0 0.00018533 -0.000392851 0 9.75701e-05 -0.00034483 0 
9.98764e-05 -0.000444884 0 8.75116e-06 -0.000396343 0 1.20916e-05 -0.000500496 0 
-7.83929e-05 -0.000449843 0 -8.1471e-05 -0.000347249 0 -0.000171566 -0.000403733 0 
-0.000169889 -0.000298891 0 -0.000259867 -0.000354132 0 -0.000257696 -0.000249137 0 
-0.00034313 -0.000299896 0 -0.000344514 -0.000199127 0 -0.000434309 -0.000250039 0 
-0.000169832 -0.000505815 0 -0.000435227 -0.000146227 0 0.000280331 -0.000442424 0 
-0.000340889 8.76793e-05 0 -0.000515252 4.06198e-05 0 6.50491e-05 0.000568253 0 
0.00053278 1.74743e-05 0 0.000522071 0.000229831 0 -0.00037162 0.000391659 0 
-0.000255272 -0.000150439 0 -0.000442893 -0.000350705 0 0.000450067 -0.000332559 0 
0.000545175 -0.000276306 0 -0.000527797 -0.000197598 0 0.000105306 -0.000551033 0 
1.45836e-05 -0.000609147 0 0.00017145 0.000214453 0 0.000515525 0.000341711 0 
0.000636086 0.000290368 0 -0.000558657 0.000404468 0 -4.01232e-05 0.000616718 0 
6.60192e-05 0.000696422 0 -0.000101806 0.0002546 0 0.000271142 -3.88908e-05 0 
0.000179455 -0.00018534 0 -8.79553e-05 -0.000254307 0 -0.000749267 -0.000373451 0 
-0.000655941 -0.000323397 0 0.000709746 0.000466718 0 0.000698426 -0.000473086 0 
-5.25801e-05 -0.00084886 0 -4.93005e-05 0.000848038 0 0.000617396 -0.000413362 0 
0.000702056 -0.000369817 0 0.000131459 -0.000679171 0 2.48171e-05 -0.000715924 0 
-0.000664217 -0.00042729 0 -0.000528828 -8.80444e-05 0 -0.000611101 -0.000136672 0 
-0.000426972 -4.45841e-05 0 0.000800669 0.000378216 0 0.000821144 -0.000415062 0 
7.2799e-05 0.00088254 0 6.81831e-05 -0.00087503 0 0.000104963 -0.000788946 0 
-7.40696e-05 -0.000660054 0 0.000126061 0.000809943 0 0.000764361 0.000295682 0 
0.000166862 0.000630623 0 0.000516462 -0.00046707 0 -0.000563585 -0.000389606 0 
-0.000622598 -1.40238e-05 0 0.000629891 0.000171529 0 2.5614e-06 -0.000299794 0 
8.6901e-05 -0.00024329 0 0.000272045 -0.000136982 0 -0.00075148 0.000138321 0 
0.000209366 -0.000599589 0 0.000324913 -0.000630055 0 0.000614044 0.00041245 0 
0.00049651 -0.000573327 0 0.000394822 -0.000507321 0 -0.000173714 -0.000206698 0 
0.000264897 5.63722e-05 0 0.000247997 0.000152811 0 -4.63327e-05 -0.000920208 0 
9.18688e-05 0.000258626 0 -5.54111e-06 0.000290558 0 -0.000184219 0.000201484 0 
-0.000263559 0.000142267 0 -0.000256427 5.13624e-05 0 -0.000336894 -2.06179e-06 0 
-0.000228499 -4.2388e-05 0 -0.00017589 0.000106626 0 -0.000769947 -0.000133367 0 
0.000767591 -0.000500293 0 -5.05874e-05 0.000737978 0 0.000754456 -3.51771e-06 0 
0.00064691 -6.15298e-05 0 0.000630483 -0.00018134 0 0.000749187 -0.000265543 0 
-0.000760805 -0.000462521 0 0.000638155 6.09315e-05 0 -4.46661e-05 0.000922995 0 
-2.37945e-05 0.000207237 0 0.000776979 0.000500181 0 -0.000605691 0.000527596 0 
-0.000377914 -0.000653727 0 -0.000372325 -0.000526022 0 -0.000275829 -0.000589621 0 
-0.000254285 -0.000710579 0 -0.000379307 0.000656222 0 -0.000379818 0.00052718 0 
-0.000266817 0.000721555 0 -0.000150544 0.000668174 0 0.000381963 0.00065079 0 
0.000493113 0.000590432 0 0.000505439 0.000463708 0 -0.000269094 0.000596608 0 
0.000385815 0.000532045 0 0.000283599 0.0005899 0 -0.000176405 -0.000108505 0 
-0.000278769 -0.000475415 0 0.000185395 2.33014e-06 0 0.000186773 0.000517571 0 
0.000540032 -8.68444e-05 0 -0.000600694 -0.000514877 0 -0.00063703 8.98033e-05 0 
-0.000459677 0.000335729 0 -0.000338836 -0.000100751 0 -0.000457327 0.000432721 0 
-8.72007e-06 -0.000210238 0 0.000156073 0.000129496 0 -7.70692e-05 -0.000555049 0 
0.00036091 -0.000389728 0 0.000531628 0.000120564 0 -0.000285451 0.000435562 0 
0.000192719 -0.000494604 0 0.00041642 0.00039368 0 -0.000135943 0.000554637 0 
-0.000170665 -0.000610079 0 -0.000666304 0.000434981 0 -0.000758736 0.000479231 0 
-0.000470189 -0.000458901 0 0.000203433 -8.59809e-05 0 0.000101846 0.000170114 0 
-0.00035513 -0.00040726 0 0.000100184 -0.000165831 0 2.96286e-05 0.00081537 0 
0.000720946 0.000381836 0 -0.000539809 -0.000292001 0 0.00052211 -0.000182426 0 
-6.41339e-05 -0.000753908 0 0.000638039 -0.000299861 0 -0.000605136 -0.000230182 0 
-3.41638e-05 -0.000145561 0 -0.000104037 0.000172396 0 -0.000808575 -0.00042774 0 
-0.000807207 -0.000465052 0 -0.00080817 0.000429771 0 -0.000806589 0.000469738 0 
-9.50634e-05 -0.000178909 0 0.000247777 0.000445058 0 1.48293e-05 -0.000814201 0 
-4.11555e-05 0.000140955 0 0.000276104 -0.000536845 0 0.000765969 -0.000436638 0 
0.000780871 -0.000362769 0 0.000424176 -0.000642018 0 0.00053413 -0.000368009 0 
-0.000416333 4.17911e-05 0 -0.000133891 -6.23822e-05 0 4.2574e-05 0.000206312 0 
0.000141163 -0.000121542 0 0.000707423 0.000212137 0 0.000172327 0.000723882 0 
7.72652e-06 -0.00090254 0 -0.000134435 5.66935e-05 0 -0.000188826 3.70894e-05 0 
0.000197119 8.09714e-05 0 1.27801e-05 0.000917296 0 0.000800767 0.00044758 0 
-0.000686682 0.000507104 0 9.35831e-05 0.000110457 0 -0.000696793 -0.000509595 0 
-0.00068446 -8.52012e-05 0 -0.000691033 -0.000201242 0 5.24052e-05 -0.000189075 0 
-0.000151818 -0.000701092 0 -0.000296988 0.000518087 0 9.31023e-05 -0.000108117 0 
0.00044261 -0.000416726 0 0.000197044 -0.000784423 0 -0.000516861 0.000504567 0 
0.000298997 0.000502377 0 0.000131234 6.38474e-05 -0.001 0.00012964 -6.2443e-05 -0.001 
3.13827e-05 0.0001394 -0.001 3.12554e-05 -0.000136939 -0.001 -0.000140461 8.25467e-19 -0.001 
-8.90565e-05 -0.000102707 -0.001 -9.04142e-05 0.000102872 -0.001 -0.000765769 -0.00025965 -0.001 
-0.000756873 0.000262774 -0.001 -0.00015609 0.000787505 -0.001 -0.000155807 -0.00079355 -0.001 
0.000605069 0.000528035 -0.001 0.000608694 -0.00052497 -0.001 0.000744069 0.000116929 -0.001 
-0.000494418 0.000596218 -0.001 -0.000483866 -0.000584648 -0.001 0.000269496 0.000702219 -0.001 
0.000263201 -0.000717324 -0.001 0.000754429 -0.000127825 -0.001 -0.000748858 5.84659e-07 -0.001 
-0.000747838 0.000373886 -0.001 -0.0006542 0.000324842 -0.001 -0.000645137 0.000210123 -0.001 
-0.000550884 0.000274171 -0.001 -0.000538857 0.000163195 -0.001 -0.00045062 0.000224461 -0.001 
-0.000438393 0.000123907 -0.001 -0.000354088 0.000181668 -0.001 -0.000363908 0.000282171 -0.001 
-0.000270361 0.000239477 -0.001 -0.000279138 0.000337653 -0.001 -0.000188888 0.000294791 -0.001 
-0.000196448 0.000393271 -0.001 -0.000104767 0.000348259 -0.001 -0.000113332 0.000449012 -0.001 
-2.01066e-05 0.000403223 -0.001 -2.89189e-05 0.000507105 -0.001 6.9524e-05 0.000461596 -0.001 
-0.000213644 0.000490203 -0.001 7.33757e-05 0.000357726 -0.001 0.000163331 0.00041299 -0.001 
0.000163359 0.000313022 -0.001 0.000248077 0.000366368 -0.001 0.000250914 0.000265758 -0.001 
0.000335709 0.000322266 -0.001 0.000340555 0.000218148 -0.001 0.000427299 0.000276717 -0.001 
0.000431508 0.000173093 -0.001 0.000328731 0.000425633 -0.001 0.00034586 0.000114823 -0.001 
0.000435362 7.05241e-05 -0.001 0.000350892 1.5455e-05 -0.001 0.000441547 -3.11896e-05 -0.001 
0.000353547 -8.47783e-05 -0.001 0.000445767 -0.000132964 -0.001 0.000356135 -0.000186358 -0.001 
0.000449094 -0.000234674 -0.001 0.000359978 -0.000287876 -0.001 0.00026856 -0.000240545 -0.001 
0.000271895 -0.000341045 -0.001 0.000181792 -0.00029305 -0.001 0.00018533 -0.000392851 -0.001 
9.75701e-05 -0.00034483 -0.001 9.98764e-05 -0.000444884 -0.001 8.75116e-06 -0.000396343 -0.001 
1.20916e-05 -0.000500496 -0.001 -7.83929e-05 -0.000449843 -0.001 -8.1471e-05 -0.000347249 -0.001 
-0.000171566 -0.000403733 -0.001 -0.000169889 -0.000298891 -0.001 -0.000259867 -0.000354132 -0.001 
-0.000257696 -0.000249137 -0.001 -0.00034313 -0.000299896 -0.001 -0.000344514 -0.000199127 -0.001 
-0.000434309 -0.000250039 -0.001 -0.000169832 -0.000505815 -0.001 -0.000435227 -0.000146227 -0.001 
0.000280331 -0.000442424 -0.001 -0.000340889 8.76793e-05 -0.001 -0.000515252 4.06198e-05 -0.001 
6.50491e-05 0.000568253 -0.001 0.00053278 1.74743e-05 -0.001 0.000522071 0.000229831 -0.001 
-0.00037162 0.000391659 -0.001 -0.000255272 -0.000150439 -0.001 -0.000442893 -0.000350705 -0.001 
0.000450067 -0.000332559 -0.001 0.000545175 -0.000276306 -0.001 -0.000527797 -0.000197598 -0.001 
0.000105306 -0.000551033 -0.001 1.45836e-05 -0.000609147 -0.001 0.00017145 0.000214453 -0.001 
0.000515525 0.000341711 -0.001 0.000636086 0.000290368 -0.001 -0.000558657 0.000404468 -0.001 
-4.01232e-05 0.000616718 -0.001 6.60192e-05 0.000696422 -0.001 -0.000101806 0.0002546 -0.001 
0.000271142 -3.88908e-05 -0.001 0.000179455 -0.00018534 -0.001 -8.79553e-05 -0.000254307 -0.001 
-0.000749267 -0.000373451 -0.001 -0.000655941 -0.000323397 -0.001 0.000709746 0.000466718 -0.001 
0.000698426 -0.000473086 -0.001 -5.25801e-05 -0.00084886 -0.001 -4.93005e-05 0.000848038 -0.001 
0.000617396 -0.000413362 -0.001 0.000702056 -0.000369817 -0.001 0.000131459 -0.000679171 -0.001 
2.48171e-05 -0.000715924 -0.001 -0.000664217 -0.00042729 -0.001 -0.000528828 -8.80444e-05 -0.001 
-0.000611101 -0.000136672 -0.001 -0.000426972 -4.45841e-05 -0.001 0.000800669 0.000378216 -0.001 
0.000821144 -0.000415062 -0.001 7.2799e-05 0.00088254 -0.001 6.81831e-05 -0.00087503 -0.001 
0.000104963 -0.000788946 -0.001 -7.40696e-05 -0.000660054 -0.001 0.000126061 0.000809943 -0.001 
0.000764361 0.000295682 -0.001 0.000166862 0.000630623 -0.001 0.000516462 -0.00046707 -0.001 
-0.000563585 -0.000389606 -0.001 -0.000622598 -1.40238e-05 -0.001 0.000629891 0.000171529 -0.001 
2.5614e-06 -0.000299794 -0.001 8.6901e-05 -0.00024329 -0.001 0.000272045 -0.000136982 -0.001 
-0.00075148 0.000138321 -0.001 0.000209366 -0.000599589 -0.001 0.000324913 -0.000630055 -0.001 
0.000614044 0.00041245 -0.001 0.00049651 -0.000573327 -0.001 0.000394822 -0.000507321 -0.001 
-0.000173714 -0.000206698 -0.001 0.000264897 5.63722e-05 -0.001 0.000247997 0.000152811 -0.001 
-4.63327e-05 -0.000920208 -0.001 9.18688e-05 0.000258626 -0.001 -5.54111e-06 0.000290558 -0.001 
-0.000184219 0.000201484 -0.001 -0.000263559 0.000142267 -0.001 -0.000256427 5.13624e-05 -0.001 
-0.000336894 -2.06179e-06 -0.001 -0.000228499 -4.2388e-05 -0.001 -0.00017589 0.000106626 -0.001 
-0.000769947 -0.000133367 -0.001 0.000767591 -0.000500293 -0.001 -5.05874e-05 0.000737978 -0.001 
0.000754456 -3.51771e-06 -0.001 0.00064691 -6.15298e-05 -0.001 0.000630483 -0.00018134 -0.001 
0.000749187 -0.000265543 -0.001 -0.000760805 -0.000462521 -0.001 0.000638155 6.09315e-05 -0.001 
-4.46661e-05 0.000922995 -0.001 -2.37945e-05 0.000207237 -0.001 0.000776979 0.000500181 -0.001 
-0.000605691 0.000527596 -0.001 -0.000377914 -0.000653727 -0.001 -0.000372325 -0.000526022 -0.001 
-0.000275829 -0.000589621 -0.001 -0.000254285 -0.000710579 -0.001 -0.000379307 0.000656222 -0.001 
-0.000379818 0.00052718 -0.001 -0.000266817 0.000721555 -0.001 -0.000150544 0.000668174 -0.001 
0.000381963 0.00065079 -0.001 0.000493113 0.000590432 -0.001 0.000505439 0.000463708 -0.001 
-0.000269094 0.000596608 -0.001 0.000385815 0.000532045 -0.001 0.000283599 0.0005899 -0.001 
-0.000176405 -0.000108505 -0.001 -0.000278769 -0.000475415 -0.001 0.000185395 2.33014e-06 -0.001 
0.000186773 0.000517571 -0.001 0.000540032 -8.68444e-05 -0.001 -0.000600694 -0.000514877 -0.001 
-0.00063703 8.98033e-05 -0.001 -0.000459677 0.000335729 -0.001 -0.000338836 -0.000100751 -0.001 
-0.000457327 0.000432721 -0.001 -8.72007e-06 -0.000210238 -0.001 0.000156073 0.000129496 -0.001 
-7.70692e-05 -0.000555049 -0.001 0.00036091 -0.000389728 -0.001 0.000531628 0.000120564 -0.001 
-0.000285451 0.000435562 -0.001 0.000192719 -0.000494604 -0.001 0.00041642 0.00039368 -0.001 
-0.000135943 0.000554637 -0.001 -0.000170665 -0.000610079 -0.001 -0.000666304 0.000434981 -0.001 
-0.000758736 0.000479231 -0.001 -0.000470189 -0.000458901 -0.001 0.000203433 -8.59809e-05 -0.001 
0.000101846 0.000170114 -0.001 -0.00035513 -0.00040726 -0.001 0.000100184 -0.000165831 -0.001 
2.96286e-05 0.00081537 -0.001 0.000720946 0.000381836 -0.001 -0.000539809 -0.000292001 -0.001 
0.00052211 -0.000182426 -0.001 -6.41339e-05 -0.000753908 -0.001 0.000638039 -0.000299861 -0.001 
-0.000605136 -0.000230182 -0.001 -3.41638e-05 -0.000145561 -0.001 -0.000104037 0.000172396 -0.001 
-0.000808575 -0.00042774 -0.001 -0.000807207 -0.000465052 -0.001 -0.00080817 0.000429771 -0.001 
-0.000806589 0.000469738 -0.001 -9.50634e-05 -0.000178909 -0.001 0.000247777 0.000445058 -0.001 
1.48293e-05 -0.000814201 -0.001 -4.11555e-05 0.000140955 -0.001 0.000276104 -0.000536845 -0.001 
0.000765969 -0.000436638 -0.001 0.000780871 -0.000362769 -0.001 0.000424176 -0.000642018 -0.001 
0.00053413 -0.000368009 -0.001 -0.000416333 4.17911e-05 -0.001 -0.000133891 -6.23822e-05 -0.001 
4.2574e-05 0.000206312 -0.001 0.000141163 -0.000121542 -0.001 0.000707423 0.000212137 -0.001 
0.000172327 0.000723882 -0.001 7.72652e-06 -0.00090254 -0.001 -0.000134435 5.66935e-05 -0.001 
-0.000188826 3.70894e-05 -0.001 0.000197119 8.09714e-05 -0.001 1.27801e-05 0.000917296 -0.001 
0.000800767 0.00044758 -0.001 -0.000686682 0.000507104 -0.001 9.35831e-05 0.000110457 -0.001 
-0.000696793 -0.000509595 -0.001 -0.00068446 -8.52012e-05 -0.001 -0.000691033 -0.000201242 -0.001 
5.24052e-05 -0.000189075 -0.001 -0.000151818 -0.000701092 -0.001 -0.000296988 0.000518087 -0.001 
9.31023e-05 -0.000108117 -0.001 0.00044261 -0.000416726 -0.001 0.000197044 -0.000784423 -0.001 
-0.000516861 0.000504567 -0.001 0.000298997 0.000502377 -0.001 

CELLS 563 3941
6 14 304 127 29 554 377 
6 143 259 55 393 509 103 
6 300 319 174 550 569 424 
6 259 349 55 509 599 103 
6 50 365 307 98 615 557 
6 299 320 164 549 570 414 
6 126 304 14 376 554 29 
6 298 319 300 548 569 550 
6 205 240 238 455 490 488 
6 257 308 145 507 558 395 
6 130 352 273 380 602 523 
6 295 320 299 545 570 549 
6 324 327 289 574 577 539 
6 235 258 143 485 508 393 
6 50 307 49 98 557 97 
6 207 283 279 457 533 529 
6 143 373 235 393 623 485 
6 145 308 252 395 558 502 
6 194 303 196 444 553 446 
6 279 306 207 529 556 457 
6 206 305 163 456 555 413 
6 51 357 9 99 607 24 
6 238 252 205 488 502 455 
6 293 317 209 543 567 459 
6 207 316 283 457 566 533 
6 142 301 249 392 551 499 
6 273 359 130 523 609 380 
6 211 327 324 461 577 574 
6 169 265 217 419 515 467 
6 7 365 50 22 615 98 
6 283 316 253 533 566 503 
6 159 268 223 409 518 473 
6 274 337 132 524 587 382 
6 232 361 329 482 611 579 
6 231 266 45 481 516 93 
6 229 362 330 479 612 580 
6 9 244 57 24 494 105 
6 230 276 52 480 526 100 
6 209 311 293 459 561 543 
6 131 342 302 381 592 552 
6 270 271 204 520 521 454 
6 66 243 1 114 493 16 
6 59 241 12 107 491 27 
6 280 306 279 530 556 529 
6 269 337 274 519 587 524 
6 179 256 224 429 506 474 
6 163 305 166 413 555 416 
6 201 303 194 451 553 444 
6 280 332 306 530 582 556 
6 186 255 225 436 505 475 
6 210 310 273 460 560 523 
6 153 270 204 403 520 454 
6 136 231 45 386 481 93 
6 171 265 169 421 515 419 
6 138 230 52 388 480 100 
6 225 354 325 475 604 575 
6 36 284 232 84 534 482 
6 161 268 159 411 518 409 
6 71 286 229 119 536 479 
6 290 303 201 540 553 451 
6 139 355 60 389 605 108 
6 60 355 248 108 605 498 
6 273 352 302 523 602 552 
6 235 373 245 485 623 495 
6 67 356 247 115 606 497 
6 221 295 277 471 545 527 
6 142 356 67 392 606 115 
6 139 283 253 389 533 503 
6 203 315 262 453 565 512 
6 41 257 145 89 507 395 
6 36 232 135 84 482 385 
6 71 229 137 119 479 387 
6 254 255 188 504 505 438 
6 233 350 334 483 600 584 
6 262 346 203 512 596 453 
6 304 325 127 554 575 377 
6 222 329 247 472 579 497 
6 218 298 260 468 548 510 
6 290 321 291 540 571 541 
6 272 310 240 522 560 490 
6 269 274 270 519 524 520 
6 244 245 57 494 495 105 
6 49 307 141 97 557 391 
6 225 325 256 475 575 506 
6 273 310 272 523 560 522 
6 312 368 255 562 618 505 
6 249 305 206 499 555 456 
6 228 331 251 478 581 501 
6 302 342 263 552 592 513 
6 338 339 44 588 589 92 
6 190 254 188 440 504 438 
6 37 341 340 85 591 590 
6 138 233 230 388 483 480 
6 228 335 331 478 585 581 
6 181 256 179 431 506 429 
6 195 263 226 445 513 476 
6 268 285 223 518 535 473 
6 290 291 288 540 541 538 
6 219 330 248 469 580 498 
6 201 321 290 451 571 540 
6 240 310 202 490 560 452 
6 188 255 186 438 505 436 
6 270 274 271 520 524 521 
6 262 349 259 512 599 509 
6 141 324 289 391 574 539 
6 296 301 142 546 551 392 
6 247 356 222 497 606 472 
6 239 252 238 489 502 488 
6 254 312 255 504 562 505 
6 54 261 53 102 511 101 
6 289 327 303 539 577 553 
6 268 353 285 518 603 535 
6 273 302 210 523 552 460 
6 292 299 293 542 549 543 
6 278 283 139 528 533 389 
6 175 265 171 425 515 421 
6 227 338 38 477 588 86 
6 264 360 265 514 610 515 
6 43 340 146 91 590 396 
6 165 268 161 415 518 411 
6 205 351 240 455 601 490 
6 64 281 63 112 531 111 
6 288 291 47 538 541 95 
6 135 295 294 385 545 544 
6 42 257 41 90 507 89 
6 245 373 57 495 623 105 
6 31 363 323 79 613 573 
6 292 293 140 542 543 390 
6 267 353 268 517 603 518 
6 155 270 153 405 520 403 
6 244 344 245 494 594 495 
6 61 278 139 109 528 389 
6 135 294 35 385 544 83 
6 69 297 296 117 547 546 
6 186 225 184 436 475 434 
6 329 361 243 579 611 493 
6 255 328 225 505 578 475 
6 213 332 280 463 582 530 
6 39 275 133 87 525 383 
6 330 362 241 580 612 491 
6 195 226 193 445 476 443 
6 211 324 251 461 574 501 
6 151 153 152 401 403 402 
6 295 299 294 545 549 544 
6 265 313 217 515 563 467 
6 258 259 143 508 509 393 
6 251 331 211 501 581 461 
6 149 151 150 399 401 400 
6 293 370 317 543 620 567 
6 153 204 152 403 454 402 
6 151 152 150 401 402 400 
6 33 292 140 81 542 390 
6 210 263 197 460 513 447 
6 301 305 249 551 555 499 
6 298 300 297 548 550 547 
6 68 296 142 116 546 392 
6 321 369 291 571 619 541 
6 179 224 177 429 474 427 
6 167 267 165 417 517 415 
6 259 346 262 509 596 512 
6 303 327 196 553 577 446 
6 269 270 155 519 520 405 
6 265 360 313 515 610 563 
6 223 269 157 473 519 407 
6 157 269 155 407 519 405 
6 144 279 278 394 529 528 
6 169 217 167 419 467 417 
6 177 264 175 427 514 425 
6 267 268 165 517 518 415 
6 159 223 157 409 473 407 
6 232 277 135 482 527 385 
6 193 254 190 443 504 440 
6 217 267 167 467 517 417 
6 249 356 142 499 606 392 
6 184 256 181 434 506 431 
6 248 355 219 498 605 469 
6 229 260 137 479 510 387 
6 149 150 148 399 400 398 
6 64 348 281 112 598 531 
6 311 374 293 561 624 543 
6 264 265 175 514 515 425 
6 297 300 296 547 550 546 
6 141 289 288 391 539 538 
6 197 263 195 447 513 445 
6 218 260 219 468 510 469 
6 224 264 177 474 514 427 
6 137 298 297 387 548 547 
6 277 295 135 527 545 385 
6 133 228 227 383 478 477 
6 261 349 262 511 599 512 
6 221 277 222 471 527 472 
6 256 325 224 506 575 474 
6 199 210 197 449 460 447 
6 226 254 193 476 504 443 
6 144 278 62 394 528 110 
6 279 283 278 529 533 528 
6 289 290 288 539 540 538 
6 137 297 70 387 547 118 
6 34 294 292 82 544 542 
6 235 236 216 485 486 466 
6 141 288 48 391 538 96 
6 178 306 180 428 556 430 
6 185 186 184 435 436 434 
6 63 281 144 111 531 394 
6 225 256 184 475 506 434 
6 46 291 136 94 541 386 
6 147 149 148 397 399 398 
6 271 272 204 521 522 454 
6 233 334 234 483 584 484 
6 145 275 40 395 525 88 
6 220 322 287 470 572 537 
6 280 334 213 530 584 463 
6 144 280 279 394 530 529 
6 140 287 32 390 537 80 
6 154 155 153 404 405 403 
6 334 350 213 584 600 463 
6 176 177 175 426 427 425 
6 260 298 137 510 548 387 
6 33 140 32 81 390 80 
6 49 141 48 97 391 96 
6 56 143 55 104 393 103 
6 68 142 67 116 392 115 
6 63 144 62 111 394 110 
6 61 139 60 109 389 108 
6 148 308 257 398 558 507 
6 71 137 70 119 387 118 
6 53 138 52 101 388 100 
6 46 136 45 94 386 93 
6 36 135 35 84 385 83 
6 43 146 134 91 396 384 
6 133 227 38 383 477 86 
6 192 193 190 442 443 440 
6 293 374 140 543 624 390 
6 34 292 33 82 542 81 
6 207 306 178 457 556 428 
6 43 134 42 91 384 90 
6 39 133 38 87 383 86 
6 41 145 40 89 395 88 
6 194 195 193 444 445 443 
6 69 296 68 117 546 116 
6 294 299 292 544 549 542 
6 173 175 171 423 425 421 
6 260 330 219 510 580 469 
6 183 184 181 433 434 431 
6 134 257 42 384 507 90 
6 55 349 54 103 599 102 
6 163 165 161 413 415 411 
6 166 167 165 416 417 415 
6 210 302 263 460 552 513 
6 271 273 272 521 523 522 
6 53 261 138 101 511 388 
6 217 326 267 467 576 517 
6 289 303 290 539 553 540 
6 178 179 177 428 429 427 
6 238 240 202 488 490 452 
6 62 278 61 110 528 109 
6 35 294 34 83 544 82 
6 284 361 232 534 611 482 
6 70 297 69 118 547 117 
6 224 304 264 474 554 514 
6 156 157 155 406 407 405 
6 48 288 47 96 538 95 
6 221 320 295 471 570 545 
6 187 188 186 437 438 436 
6 47 291 46 95 541 94 
6 151 154 153 401 404 403 
6 286 362 229 536 612 479 
6 168 169 167 418 419 417 
6 40 275 39 88 525 87 
6 307 324 141 557 574 391 
6 300 301 296 550 551 546 
6 32 287 31 80 537 79 
6 147 220 149 397 470 399 
6 333 344 231 583 594 481 
6 299 370 293 549 620 543 
6 271 359 273 521 609 523 
6 224 325 304 474 575 554 
6 228 237 227 478 487 477 
6 305 375 343 555 625 593 
6 218 319 298 468 569 548 
6 240 351 272 490 601 522 
6 277 329 222 527 579 472 
6 253 355 139 503 605 389 
6 158 159 157 408 409 407 
6 236 246 216 486 496 466 
6 192 194 193 442 444 443 
6 220 309 149 470 559 399 
6 183 185 184 433 435 434 
6 196 197 195 446 447 445 
6 276 347 58 526 597 106 
6 136 333 231 386 583 481 
6 67 247 66 115 497 114 
6 60 248 59 108 498 107 
6 261 262 250 511 512 500 
6 173 176 175 423 426 425 
6 344 357 231 594 607 481 
6 144 281 280 394 531 530 
6 152 205 150 402 455 400 
6 163 166 165 413 416 415 
6 185 187 186 435 437 436 
6 233 234 230 483 484 480 
6 170 171 169 420 421 419 
6 146 147 134 396 397 384 
6 176 178 177 426 428 427 
6 285 337 223 535 587 473 
6 154 156 155 404 406 405 
6 263 342 226 513 592 476 
6 235 245 236 485 495 486 
6 160 161 159 410 411 409 
6 58 347 242 106 597 492 
6 166 168 167 416 418 417 
6 287 374 220 537 624 470 
6 189 190 188 439 440 438 
6 148 257 134 398 507 384 
6 194 196 195 444 446 445 
6 252 308 205 502 558 455 
6 285 345 337 535 595 587 
6 301 375 305 551 625 555 
6 180 181 179 430 431 429 
6 281 348 234 531 598 484 
6 198 199 197 448 449 447 
6 151 309 154 401 559 404 
6 228 367 335 478 617 585 
6 54 349 261 102 599 511 
6 156 158 157 406 408 407 
6 168 170 169 418 420 419 
6 200 202 199 450 452 449 
6 147 148 134 397 398 384 
6 158 160 159 408 410 409 
6 150 308 148 400 558 398 
6 253 316 208 503 566 458 
6 232 329 277 482 579 527 
6 178 180 179 428 430 429 
6 191 192 190 441 442 440 
6 214 238 202 464 488 452 
6 172 173 171 422 423 421 
6 187 189 188 437 439 438 
6 162 163 161 412 413 411 
6 228 251 237 478 501 487 
6 215 258 235 465 508 485 
6 182 183 181 432 433 431 
6 202 310 199 452 560 449 
6 219 253 208 469 503 458 
6 222 249 206 472 499 456 
6 196 198 197 446 448 447 
6 229 330 260 479 580 510 
6 132 358 274 382 608 524 
6 149 309 151 399 559 401 
6 226 312 254 476 562 504 
6 154 309 209 404 559 459 
6 77 129 76 125 379 124 
6 73 128 72 121 378 120 
6 76 131 75 124 381 123 
6 74 132 73 122 382 121 
6 75 130 74 123 380 122 
6 14 127 77 29 377 125 
6 72 126 14 120 376 29 
6 133 367 228 383 617 478 
6 237 282 227 487 532 477 
6 239 366 252 489 616 502 
6 200 214 202 450 464 452 
6 192 201 194 442 451 444 
6 170 172 171 420 422 421 
6 220 311 309 470 561 559 
6 198 200 199 448 450 449 
6 189 191 190 439 441 440 
6 146 323 322 396 573 572 
6 160 162 161 410 412 411 
6 251 307 237 501 557 487 
6 199 310 210 449 560 460 
6 57 373 56 105 623 104 
6 214 239 238 464 489 488 
6 182 212 183 432 462 433 
6 180 182 181 430 432 431 
6 146 322 147 396 572 397 
6 172 218 208 422 468 458 
6 172 208 173 422 458 423 
6 162 221 206 412 471 456 
6 162 206 163 412 456 413 
6 176 207 178 426 457 428 
6 272 351 204 522 601 454 
6 198 211 200 448 461 450 
6 182 213 212 432 463 462 
6 234 334 281 484 584 531 
6 154 209 156 404 459 406 
6 185 203 187 435 453 437 
6 168 174 170 418 424 420 
6 189 215 191 439 465 441 
6 215 216 191 465 466 441 
6 221 222 206 471 472 456 
6 158 164 160 408 414 410 
6 218 219 208 468 469 458 
6 205 308 150 455 558 400 
6 191 314 192 441 564 442 
6 215 235 216 465 485 466 
6 215 318 258 465 568 508 
6 152 351 205 402 601 455 
6 138 261 250 388 511 500 
6 192 314 201 442 564 451 
6 234 347 230 484 597 480 
6 226 342 312 476 592 562 
6 138 250 233 388 500 483 
6 147 322 220 397 572 470 
6 216 314 191 466 564 441 
6 306 332 180 556 582 430 
6 222 356 249 472 606 499 
6 128 345 285 378 595 535 
6 314 321 201 564 571 451 
6 212 315 183 462 565 433 
6 312 342 336 562 592 586 
6 282 339 338 532 589 588 
6 340 341 323 590 591 573 
6 309 311 209 559 561 459 
6 183 315 185 433 565 435 
6 208 316 173 458 566 423 
6 173 316 176 423 566 426 
6 3 341 37 18 591 85 
6 44 339 6 92 589 21 
6 252 366 145 502 616 395 
6 246 321 314 496 571 564 
6 246 314 216 496 564 466 
6 126 364 313 376 614 563 
6 156 317 158 406 567 408 
6 275 367 133 525 617 383 
6 176 316 207 426 566 457 
6 185 315 203 435 565 453 
6 180 332 182 430 582 432 
6 302 352 131 552 602 381 
6 251 324 307 501 574 557 
6 187 318 189 437 568 439 
6 172 319 218 422 569 468 
6 162 320 221 412 570 471 
6 305 343 166 555 593 416 
6 170 319 172 420 569 422 
6 158 317 164 408 567 414 
6 209 317 156 459 567 406 
6 285 353 128 535 603 378 
6 223 337 269 473 587 519 
6 160 320 162 410 570 412 
6 211 331 200 461 581 450 
6 174 319 170 424 569 420 
6 203 318 187 453 568 437 
6 189 318 215 439 568 465 
6 198 327 211 448 577 461 
6 164 320 160 414 570 410 
6 326 353 267 576 603 517 
6 236 344 333 486 594 583 
6 196 327 198 446 577 448 
6 219 355 253 469 605 503 
6 281 334 280 531 584 530 
6 274 359 271 524 609 521 
6 164 370 299 414 620 549 
6 174 375 300 424 625 550 
6 287 363 31 537 613 79 
6 243 361 1 493 611 16 
6 241 362 12 491 612 27 
6 307 365 237 557 615 487 
6 166 343 168 416 593 418 
6 200 331 214 450 581 464 
6 313 326 217 563 576 467 
6 9 357 244 24 607 494 
6 1 361 30 16 611 78 
6 12 362 65 27 612 113 
6 337 345 132 587 595 382 
6 242 348 64 492 598 112 
6 231 357 266 481 607 516 
6 182 332 213 432 582 463 
6 245 344 236 495 594 486 
6 258 346 259 508 596 509 
6 145 366 275 395 616 525 
6 291 369 136 541 619 386 
6 236 333 246 486 583 496 
6 331 335 214 581 585 464 
6 312 336 129 562 586 379 
6 315 372 262 565 622 512 
6 220 374 311 470 624 561 
6 140 374 287 390 624 537 
6 126 360 304 376 610 554 
6 230 347 276 480 597 526 
6 313 364 326 563 614 576 
6 56 373 143 104 623 393 
6 239 367 366 489 617 616 
6 204 351 152 454 601 402 
6 300 375 301 550 625 551 
6 214 335 239 464 585 489 
6 247 329 243 497 579 493 
6 262 372 250 512 622 500 
6 248 330 241 498 580 491 
6 318 346 258 568 596 508 
6 333 369 246 583 619 496 
6 282 338 227 532 588 477 
6 146 340 323 396 590 573 
6 304 360 264 554 610 514 
6 366 367 275 616 617 525 
6 129 336 76 379 586 124 
6 73 345 128 121 595 378 
6 76 336 131 124 586 381 
6 250 350 233 500 600 483 
6 129 371 328 379 621 578 
6 132 345 73 382 595 121 
6 168 343 174 418 593 424 
6 131 352 75 381 602 123 
6 66 247 243 114 497 493 
6 59 248 241 107 498 491 
6 74 358 132 122 608 382 
6 203 346 318 453 596 568 
6 313 360 126 563 610 376 
6 128 364 72 378 614 120 
6 128 353 326 378 603 576 
6 77 371 129 125 621 379 
6 129 368 312 379 618 562 
6 244 357 344 494 607 594 
6 328 354 225 578 604 475 
6 326 364 128 576 614 378 
6 75 352 130 123 602 380 
6 350 372 212 600 622 462 
6 136 369 333 386 619 583 
6 325 354 127 575 604 377 
6 213 350 212 463 600 462 
6 130 358 74 380 608 122 
6 250 372 350 500 622 600 
6 317 370 164 567 620 414 
6 72 364 126 120 614 376 
6 328 368 129 578 618 379 
6 127 371 77 377 621 125 
6 336 342 131 586 592 381 
6 212 372 315 462 622 565 
6 234 348 347 484 598 597 
6 8 266 51 23 516 99 
6 10 276 58 25 526 106 
6 246 369 321 496 619 571 
6 30 284 0 78 534 15 
6 65 286 13 113 536 28 
6 58 242 11 106 492 26 
6 266 357 51 516 607 99 
6 255 368 328 505 618 578 
6 347 348 242 597 598 492 
6 322 363 287 572 613 537 
6 323 363 322 573 613 572 
6 335 367 239 585 617 489 
6 30 361 284 78 611 534 
6 65 362 286 113 612 536 
6 237 365 282 487 615 532 
6 130 359 358 380 609 608 
6 343 375 174 593 625 424 
6 354 371 127 604 621 377 
6 328 371 354 578 621 604 
6 358 359 274 608 609 524 
6 0 284 36 15 534 84 
6 45 266 8 93 516 23 
6 52 276 10 100 526 25 
6 11 242 64 26 492 112 
6 13 286 71 28 536 119 
6 2 323 3 17 573 18 
6 31 323 2 79 573 17 
6 323 341 3 573 591 18 
6 37 340 4 85 590 19 
6 4 340 43 19 590 91 
6 38 338 5 86 588 20 
6 5 338 44 20 588 92 
6 6 282 7 21 532 22 
6 6 339 282 21 589 532 
6 282 365 7 532 615 22 

CELL_TYPES 563
13
13
13
13
13
13
13
13
13
13
13
13
13
13
13
13
13
13
13
13
13
13
13
13
13
13
13
13
13
13
13
13
13
13
13
13
13
13
13
13
13
13
13
13
13
13
13
13
13
13
13
13
13
13
13
13
13
13
13
13
13
13
13
13
13
13
13
13
13
13
13
13
13
13
13
13
13
13
13
13
13
13
13
13
13
13
13
13
13
13
13
13
13
13
13
13
13
13
13
13
13
13
13
13
13
13
13
13
13
13
13
13
13
13
13
13
13
13
13
13
13
13
13
13
13
13
13
13
13
13
13
13
13
13
13
13
13
13
13
13
13
13
13
13
13
13
13
13
13
13
13
13
13
13
13
13
13
13
13
13
13
13
13
13
13
13
13
13
13
13
13
13
13
13
13
13
13
13
13
13
13
13
13
13
13
13
13
13
13
13
13
13
13
13
13
13
13
13
13
13
13
13
13
13
13
13
13
13
13
13
13
13
13
13
13
13
13
13
13
13
13
13
13
13
13
13
13
13
13
13
13
13
13
13
13
13
13
13
13
13
13
13
13
13
13
13
13
13
13
13
13
13
13
13
13
13
13
13
13
13
13
13
13
13
13
13
13
13
13
13
13
13
13
13
13
13
13
13
13
13
13
13
13
13
13
13
13
13
13
13
13
13
13
13
13
13
13
13
13
13
13
13
13
13
13
13
13
13
13
13
13
13
13
13
13
13
13
13
13
13
13
13
13
13
13
13
13
13
13
13
13
13
13
13
13
13
13
13
13
13
13
13
13
13
13
13
13
13
13
13
13
13
13
13
13
13
13
13
13
13
13
13
13
13
13
13
13
13
13
13
13
13
13
13
13
13
13
13
13
13
13
13
13
13
13
13
13
13
13
13
13
13
13
13
13
13
13
13
13
13
13
13
13
13
13
13
13
13
13
13
13
13
13
13
13
13
13
13
13
13
13
13
13
13
13
13
13
13
13
13
13
13
13
13
13
13
13
13
13
13
13
13
13
13
13
13
13
13
13
13
13
13
13
13
13
13
13
13
13
13
13
13
13
13
13
13
13
13
13
13
13
13
13
13
13
13
13
13
13
13
13
13
13
13
13
13
13
13
13
13
13
13
13
13
13
13
13
13
13
13
13
13
13
13
13
13
13
13
13
13
13
13
13
13
13
13
13
13
13
13
13
13
13
13
13
13
13
13
13
13
13
13
13
13
13
13
13
13
13
13
13
13
13
13
13
13
13
13
13
13
13
13
13
13
13
13
13
13
13
13
13
13
13

POINT_DATA 626
VECTORS displacement float
-1.74394e-06 3.09554e-05 1.80554e-05
1.73565e-06 3.09744e-05 1.81005e-05
-2.59871e-05 1.69933e-05 1.80875e-05
-2.58417e-05 1.60335e-05 1.80521e-05
-2.77215e-05 1.39733e-05 1.80695e-05
-2.77144e-05 -1.40196e-05 1.80949e-05
-2.58129e-05 -1.60716e-05 1.81063e-05
-2.59833e-05 -1.70114e-05 1.81675e-05
-1.6774e-06 -3.09591e-05 1.80518e-05
1.75545e-06 -3.09606e-05 1.81023e-05
2.59444e-05 -1.69812e-05 1.80439e-05
2.77178e-05 -1.39372e-05 1.80438e-05
2.76733e-05 1.39899e-05 1.80921e-05
2.59158e-05 1.69934e-05 1.80465e-05
0 0 0
-1.74394e-06 3.09554e-05 -1.80554e-05
1.73565e-06 3.09744e-05 -1.81005e-05
-2.59871e-05 1.69933e-05 -1.80875e-05
-2.58417e-05 1.60335e-05 -1.80521e-05
-2.77215e-05 1.39733e-05 -1.80695e-05
-2.77144e-05 -1.40196e-05 -1.80949e-05
-2.58129e-05 -1.60716e-05 -1.81063e-05
-2.59833e-05 -1.70114e-05 -1.81675e-05
-1.6774e-06 -3.09591e-05 -1.80518e-05
1.75545e-06 -3.09606e-05 -1.81023e-05
2.59444e-05 -1.69812e-05 -1.80439e-05
2.77178e-05 -1.39372e-05 -1.80438e-05
2.76733e-05 1.39899e-05 -1.80921e-05
2.59158e-05 1.69934e-05 -1.80465e-05
0 0 0
2.48904e-08 3.01553e-05 1.80346e-05
-2.11414e-05 1.87129e-05 1.75502e-05
-1.72332e-05 1.98345e-05 1.69213e-05
-1.40075e-05 2.1055e-05 1.65555e-05
-1.12073e-05 2.26657e-05 1.65493e-05
-8.52432e-06 2.48338e-05 1.69018e-05
-5.56789e-06 2.76227e-05 1.75379e-05
-2.64506e-05 1.46796e-05 1.80339e-05
-2.67696e-05 -9.01192e-06 1.75779e-05
-2.58071e-05 -5.03572e-06 1.69265e-05
-2.52554e-05 -1.63629e-06 1.65719e-05
-2.52584e-05 1.60793e-06 1.65749e-05
-2.57994e-05 5.02312e-06 1.69247e-05
-2.67558e-05 8.985e-06 1.75644e-05
-2.64375e-05 -1.47259e-05 1.80627e-05
-5.54115e-06 -2.76371e-05 1.75301e-05
-8.47684e-06 -2.48428e-05 1.69012e-05
-1.11705e-05 -2.26851e-05 1.65567e-05
-1.39711e-05 -2.1088e-05 1.65601e-05
-1.72156e-05 -1.98698e-05 1.69371e-05
-2.1135e-05 -1.87497e-05 1.75627e-05
8.98346e-08 -3.014e-05 1.80298e-05
2.11248e-05 -1.86254e-05 1.75119e-05
1.72454e-05 -1.97629e-05 1.68733e-05
1.40344e-05 -2.1012e-05 1.65121e-05
1.12255e-05 -2.25938e-05 1.65467e-05
8.58148e-06 -2.4781e-05 1.68747e-05
5.65476e-06 -2.76274e-05 1.75354e-05
2.61253e-05 -1.50601e-05 1.80288e-05
2.67177e-05 8.9388e-06 1.7502e-05
2.5723e-05 5.04984e-06 1.69089e-05
2.52075e-05 1.62341e-06 1.65237e-05
2.52046e-05 -1.59952e-06 1.6522e-05
2.57516e-05 -4.99763e-06 1.68888e-05
2.66997e-05 -8.91755e-06 1.75101e-05
2.61084e-05 1.50613e-05 1.80258e-05
5.63322e-06 2.76187e-05 1.751e-05
8.50885e-06 2.48077e-05 1.69117e-05
1.12175e-05 2.26419e-05 1.65299e-05
1.4005e-05 2.10229e-05 1.65253e-05
1.72224e-05 1.97941e-05 1.68856e-05
2.11157e-05 1.8635e-05 1.75258e-05
0 0 0
0 0 0
0 0 0
0 0 0
0 0 0
0 0 0
2.48904e-08 3.01553e-05 -1.80346e-05
-2.11414e-05 1.87129e-05 -1.75502e-05
-1.72332e-05 1.98345e-05 -1.69213e-05
-1.40075e-05 2.1055e-05 -1.65555e-05
-1.12073e-05 2.26657e-05 -1.65493e-05
-8.52432e-06 2.48338e-05 -1.69018e-05
-5.56789e-06 2.76227e-05 -1.75379e-05
-2.64506e-05 1.46796e-05 -1.80339e-05
-2.67696e-05 -9.01192e-06 -1.75779e-05
-2.58071e-05 -5.03572e-06 -1.69265e-05
-2.52554e-05 -1.63629e-06 -1.65719e-05
-2.52584e-05 1.60793e-06 -1.65749e-05
-2.57994e-05 5.02312e-06 -1.69247e-05
-2.67558e-05 8.985e-06 -1.75644e-05
-2.64375e-05 -1.47259e-05 -1.80627e-05
-5.54115e-06 -2.76371e-05 -1.75301e-05
-8.47684e-06 -2.48428e-05 -1.69012e-05
-1.11705e-05 -2.26851e-05 -1.65567e-05
-1.39711e-05 -2.1088e-05 -1.65601e-05
-1.72156e-05 -1.98698e-05 -1.69371e-05
-2.1135e-05 -1.87497e-05 -1.75627e-05
8.98346e-08 -3.014e-05 -1.80298e-05
2.11248e-05 -1.86254e-05 -1.75119e-05
1.72454e-05 -1.97629e-05 -1.68733e-05
1.40344e-05 -2.1012e-05 -1.65121e-05
1.12255e-05 -2.25938e-05 -1.65467e-05
8.58148e-06 -2.4781e-05 -1.68747e-05
5.65476e-06 -2.76274e-05 -1.75354e-05
2.61253e-05 -1.50601e-05 -1.80288e-05
2.67177e-05 8.9388e-06 -1.7502e-05
2.5723e-05 5.04984e-06 -1.69089e-05
2.52075e-05 1.62341e-06 -1.65237e-05
2.52046e-05 -1.59952e-06 -1.6522e-05
2.57516e-05 -4.99763e-06 -1.68888e-05
2.66997e-05 -8.91755e-06 -1.75101e-05
2.61084e-05 1.50613e-05 -1.80258e-05
5.63322e-06 2.76187e-05 -1.751e-05
8.50885e-06 2.48077e-05 -1.69117e-05
1.12175e-05 2.26419e-05 -1.65299e-05
1.4005e-05 2.10229e-05 -1.65253e-05
1.72224e-05 1.97941e-05 -1.68856e-05
2.11157e-05 1.8635e-05 -1.75258e-05
0 0 0
0 0 0
0 0 0
0 0 0
0 0 0
0 0 0
1.79373e-06 8.58769e-07 4.55241e-06
1.73786e-06 -8.25136e-07 4.46096e-06
4.31965e-07 1.84967e-06 4.49527e-06
4.36109e-07 -1.78068e-06 4.35624e-06
-1.84753e-06 2.09638e-08 4.42252e-06
-1.12312e-06 -1.30891e-06 4.15114e-06
-1.15924e-06 1.30683e-06 4.19993e-06
-2.25138e-05 -7.28795e-06 1.70004e-05
-2.21971e-05 7.37185e-06 1.69691e-05
-4.86058e-06 2.28993e-05 1.69375e-05
-4.85809e-06 -2.31324e-05 1.69644e-05
1.74218e-05 1.5636e-05 1.69303e-05
1.75694e-05 -1.55369e-05 1.69396e-05
2.10743e-05 3.16401e-06 1.63249e-05
-1.39536e-05 1.71518e-05 1.64789e-05
-1.35917e-05 -1.67418e-05 1.64104e-05
7.76811e-06 1.98202e-05 1.63317e-05
7.68512e-06 -2.03107e-05 1.6403e-05
2.14731e-05 -3.44387e-06 1.64006e-05
-2.11035e-05 6.58812e-09 1.62471e-05
-2.24211e-05 1.10001e-05 1.7454e-05
-1.87515e-05 9.25501e-06 1.66275e-05
-1.79834e-05 5.79566e-06 1.60368e-05
-1.49845e-05 7.44859e-06 1.54868e-05
-1.42249e-05 4.30787e-06 1.48301e-05
-1.1533e-05 5.74408e-06 1.40951e-05
-1.08584e-05 3.06884e-06 1.33739e-05
-8.40077e-06 4.30502e-06 1.24047e-05
-9.05912e-06 7.01365e-06 1.34567e-05
-6.20431e-06 5.48869e-06 1.16893e-05
-6.82854e-06 8.24973e-06 1.30803e-05
-4.28154e-06 6.67513e-06 1.14508e-05
-4.80018e-06 9.61026e-06 1.30942e-05
-2.40095e-06 7.99361e-06 1.17233e-05
-2.81295e-06 1.11676e-05 1.34753e-05
-4.75427e-07 9.59562e-06 1.25013e-05
-7.38381e-07 1.29974e-05 1.41421e-05
1.73114e-06 1.15182e-05 1.35353e-05
-5.53488e-06 1.27008e-05 1.44373e-05
1.68514e-06 8.22425e-06 1.17479e-05
4.00432e-06 1.01212e-05 1.31513e-05
3.70547e-06 7.09819e-06 1.14785e-05
6.06761e-06 8.96698e-06 1.31137e-05
5.76701e-06 6.107e-06 1.17359e-05
8.35837e-06 8.0206e-06 1.34924e-05
8.10593e-06 5.19544e-06 1.25007e-05
1.09544e-05 7.0973e-06 1.41473e-05
1.07463e-05 4.32295e-06 1.34994e-05
8.53083e-06 1.10379e-05 1.44611e-05
7.93796e-06 2.64383e-06 1.17277e-05
1.06464e-05 1.73726e-06 1.31044e-05
7.94895e-06 3.58772e-07 1.14559e-05
1.08068e-05 -7.59139e-07 1.31245e-05
8.11192e-06 -1.93787e-06 1.17094e-05
1.10986e-05 -3.31297e-06 1.34843e-05
8.47003e-06 -4.42413e-06 1.24444e-05
1.15041e-05 -6.00309e-06 1.41098e-05
8.95589e-06 -7.13836e-06 1.34284e-05
6.14773e-06 -5.4946e-06 1.16416e-05
6.64473e-06 -8.30115e-06 1.30186e-05
4.10534e-06 -6.58873e-06 1.13112e-05
4.52351e-06 -9.5512e-06 1.29886e-05
2.24237e-06 -7.85855e-06 1.15977e-05
2.48492e-06 -1.10023e-05 1.33513e-05
2.25298e-07 -9.37401e-06 1.23539e-05
3.30024e-07 -1.27703e-05 1.40342e-05
-1.91551e-06 -1.11511e-05 1.33774e-05
-1.84113e-06 -7.92189e-06 1.15825e-05
-4.16805e-06 -9.8752e-06 1.30854e-05
-3.81407e-06 -6.73073e-06 1.13174e-05
-6.34585e-06 -8.66233e-06 1.30997e-05
-5.8915e-06 -5.69821e-06 1.16287e-05
-8.50002e-06 -7.43606e-06 1.33801e-05
-8.16783e-06 -4.72822e-06 1.2409e-05
-1.1096e-05 -6.403e-06 1.40703e-05
-4.37181e-06 -1.31237e-05 1.44341e-05
-1.08092e-05 -3.65081e-06 1.34396e-05
7.22638e-06 -1.13732e-05 1.42734e-05
-7.74197e-06 1.98275e-06 1.14933e-05
-1.32166e-05 1.03509e-06 1.42114e-05
1.72918e-06 1.50834e-05 1.49527e-05
1.37686e-05 4.62255e-07 1.43882e-05
1.38437e-05 6.10033e-06 1.49322e-05
-9.69442e-06 1.01966e-05 1.4533e-05
-5.4162e-06 -3.19776e-06 1.01825e-05
-1.1714e-05 -9.29768e-06 1.48897e-05
1.18828e-05 -8.76053e-06 1.47876e-05
1.47823e-05 -7.47388e-06 1.54038e-05
-1.39603e-05 -5.24409e-06 1.48621e-05
2.79592e-06 -1.45167e-05 1.47967e-05
4.24576e-07 -1.65e-05 1.53982e-05
3.51855e-06 4.39709e-06 9.58145e-06
1.40111e-05 9.2994e-06 1.54921e-05
1.79314e-05 8.14526e-06 1.63011e-05
-1.5676e-05 1.13957e-05 1.6234e-05
-1.09413e-06 1.67697e-05 1.54958e-05
1.90692e-06 1.96223e-05 1.63115e-05
-2.09194e-06 5.22026e-06 9.59794e-06
5.55413e-06 -7.84631e-07 9.59449e-06
3.58608e-06 -3.68369e-06 9.08231e-06
-1.7797e-06 -5.17875e-06 9.44995e-06
-2.24695e-05 -1.10112e-05 1.74748e-05
-1.87989e-05 -9.24176e-06 1.66515e-05
2.11486e-05 1.41653e-05 1.75061e-05
2.07545e-05 -1.43181e-05 1.7436e-05
-1.76464e-06 -2.54474e-05 1.75114e-05
-1.68217e-06 2.54114e-05 1.75161e-05
1.77136e-05 -1.19073e-05 1.66877e-05
2.06465e-05 -1.07515e-05 1.71165e-05
3.77578e-06 -1.89858e-05 1.61399e-05
7.68552e-07 -2.03465e-05 1.64834e-05
-1.94058e-05 -1.2651e-05 1.71436e-05
-1.37316e-05 -2.30701e-06 1.44724e-05
-1.65933e-05 -3.70157e-06 1.54781e-05
-1.03762e-05 -1.09643e-06 1.29525e-05
2.44529e-05 1.10732e-05 1.76521e-05
2.54984e-05 -1.24037e-05 1.78486e-05
2.64929e-06 2.67269e-05 1.76609e-05
2.52104e-06 -2.64145e-05 1.76298e-05
3.33956e-06 -2.30327e-05 1.70296e-05
-2.05397e-06 -1.83206e-05 1.59514e-05
4.05917e-06 2.37922e-05 1.71309e-05
2.26149e-05 8.37958e-06 1.71197e-05
4.61377e-06 1.7314e-05 1.57278e-05
1.44275e-05 -1.31199e-05 1.61379e-05
-1.57882e-05 -1.09851e-05 1.6215e-05
-1.68004e-05 -3.81443e-07 1.53778e-05
1.73066e-05 4.68765e-06 1.57262e-05
6.55236e-08 -6.38752e-06 1.02678e-05
1.74177e-06 -4.84862e-06 9.09281e-06
5.85066e-06 -2.93561e-06 1.03785e-05
-2.14449e-05 3.75066e-06 1.64593e-05
5.72956e-06 -1.62751e-05 1.55082e-05
9.08378e-06 -1.74997e-05 1.5998e-05
1.75728e-05 1.18821e-05 1.66728e-05
1.39947e-05 -1.63828e-05 1.64017e-05
1.07404e-05 -1.37895e-05 1.55506e-05
-3.54808e-06 -4.22033e-06 9.5011e-06
5.39929e-06 1.13853e-06 9.49938e-06
5.21822e-06 3.22298e-06 1.00476e-05
-1.74981e-06 -2.83554e-05 1.78773e-05
1.89212e-06 5.29906e-06 9.58478e-06
-1.13828e-07 6.1052e-06 1.00391e-05
-3.78504e-06 4.12787e-06 9.57874e-06
-5.62286e-06 3.03428e-06 1.02856e-05
-5.16563e-06 1.04071e-06 9.21393e-06
-7.52749e-06 -6.17413e-08 1.11728e-05
-4.3345e-06 -8.10302e-07 8.38215e-06
-3.10868e-06 1.87239e-06 7.37432e-06
-2.20819e-05 -3.6079e-06 1.65163e-05
2.34069e-05 -1.56884e-05 1.78365e-05
-1.50724e-06 2.11686e-05 1.66825e-05
2.12624e-05 -8.4523e-08 1.62262e-05
1.76227e-05 -1.64686e-06 1.55819e-05
1.73483e-05 -4.94185e-06 1.57711e-05
2.18923e-05 -7.45138e-06 1.69141e-05
-2.31829e-05 -1.4255e-05 1.78331e-05
1.73252e-05 1.64893e-06 1.5509e-05
-1.73402e-06 2.84739e-05 1.78945e-05
-4.22084e-07 3.68353e-06 7.49556e-06
2.37727e-05 1.57428e-05 1.7885e-05
-1.74979e-05 1.56427e-05 1.69754e-05
-1.06266e-05 -1.84667e-05 1.62556e-05
-1.00999e-05 -1.43428e-05 1.55722e-05
-7.50803e-06 -1.60954e-05 1.56225e-05
-7.32237e-06 -2.01212e-05 1.63958e-05
-1.07048e-05 1.85359e-05 1.62673e-05
-1.03477e-05 1.43846e-05 1.56198e-05
-7.77289e-06 2.04931e-05 1.64447e-05
-4.25313e-06 1.86103e-05 1.60535e-05
1.07601e-05 1.83461e-05 1.62267e-05
1.38921e-05 1.69355e-05 1.64315e-05
1.40424e-05 1.29733e-05 1.60518e-05
-7.36183e-06 1.62889e-05 1.5639e-05
1.05255e-05 1.45475e-05 1.56457e-05
7.74902e-06 1.60929e-05 1.56144e-05
-3.11656e-06 -1.89882e-06 7.39345e-06
-7.2579e-06 -1.24224e-05 1.46256e-05
3.00875e-06 4.03614e-08 6.60121e-06
4.87275e-06 1.35232e-05 1.46186e-05
1.40765e-05 -2.26047e-06 1.45709e-05
-1.72904e-05 -1.52172e-05 1.6946e-05
-1.73671e-05 2.42039e-06 1.55983e-05
-1.22051e-05 8.91225e-06 1.4944e-05
-7.70589e-06 -2.2926e-06 1.15551e-05
-1.24502e-05 1.1813e-05 1.55405e-05
-1.4274e-07 -3.75434e-06 7.55445e-06
2.73031e-06 2.27215e-06 7.25219e-06
-2.00394e-06 -1.4651e-05 1.48085e-05
9.36543e-06 -1.00686e-05 1.43899e-05
1.38612e-05 3.15793e-06 1.45666e-05
-7.34031e-06 1.11998e-05 1.42608e-05
4.9974e-06 -1.27753e-05 1.43698e-05
1.10323e-05 1.04309e-05 1.49202e-05
-3.59658e-06 1.46858e-05 1.49085e-05
-4.63563e-06 -1.66175e-05 1.55493e-05
-1.95078e-05 1.28929e-05 1.71618e-05
-2.31277e-05 1.48586e-05 1.78439e-05
-1.29054e-05 -1.26865e-05 1.5813e-05
3.76092e-06 -1.58617e-06 7.90724e-06
1.76445e-06 2.92237e-06 7.0847e-06
-9.23082e-06 -1.06099e-05 1.45323e-05
1.72779e-06 -2.82324e-06 6.93132e-06
9.94752e-07 2.41177e-05 1.7309e-05
2.13687e-05 1.11942e-05 1.72991e-05
-1.46652e-05 -7.95368e-06 1.54859e-05
1.37086e-05 -4.7865e-06 1.46912e-05
-1.90994e-06 -2.17637e-05 1.68032e-05
1.80611e-05 -8.41938e-06 1.63412e-05
-1.66795e-05 -6.32881e-06 1.5783e-05
-4.32913e-07 -1.92238e-06 4.79865e-06
-1.80543e-06 2.99554e-06 7.17745e-06
-2.50528e-05 -1.29823e-05 1.79227e-05
-2.5128e-05 -1.45077e-05 1.80026e-05
-2.5046e-05 1.30342e-05 1.79065e-05
-2.51188e-05 1.46504e-05 1.79826e-05
-1.64851e-06 -3.12495e-06 7.21019e-06
6.32819e-06 1.13688e-05 1.40771e-05
5.33721e-07 -2.4087e-05 1.73027e-05
-5.22793e-07 1.8096e-06 4.64518e-06
7.40774e-06 -1.43442e-05 1.51529e-05
2.33037e-05 -1.32098e-05 1.77293e-05
2.36335e-05 -1.0538e-05 1.74913e-05
1.19889e-05 -1.82116e-05 1.62938e-05
1.47307e-05 -1.0147e-05 1.57961e-05
-1.00274e-05 1.00128e-06 1.27551e-05
-1.74006e-06 -8.15926e-07 4.72363e-06
7.69089e-07 3.70847e-06 7.57344e-06
2.34315e-06 -1.99722e-06 6.55554e-06
2.01573e-05 5.89806e-06 1.64542e-05
5.07026e-06 2.05967e-05 1.64966e-05
3.42119e-07 -2.7681e-05 1.78545e-05
-1.73128e-06 7.09132e-07 4.6065e-06
-3.21161e-06 6.23068e-07 6.8244e-06
3.57733e-06 1.47546e-06 7.63692e-06
4.99229e-07 2.83248e-05 1.79277e-05
2.47612e-05 1.37345e-05 1.79189e-05
-2.03291e-05 1.55363e-05 1.74295e-05
1.17874e-06 1.36451e-06 4.46002e-06
-2.06404e-05 -1.57289e-05 1.75281e-05
-1.89996e-05 -2.32228e-06 1.59467e-05
-1.95599e-05 -5.58522e-06 1.63328e-05
9.05712e-07 -3.24786e-06 7.00637e-06
-4.36618e-06 -1.97901e-05 1.63224e-05
-7.9376e-06 1.3835e-05 1.51017e-05
1.16578e-06 -1.30422e-06 4.33946e-06
1.19349e-05 -1.12288e-05 1.52927e-05
6.13326e-06 -2.2697e-05 1.6821e-05
-1.45227e-05 1.43559e-05 1.63242e-05
7.92939e-06 1.33218e-05 1.49486e-05
1.79373e-06 8.58769e-07 -4.55241e-06
1.73786e-06 -8.25136e-07 -4.46096e-06
4.31965e-07 1.84967e-06 -4.49527e-06
4.36109e-07 -1.78068e-06 -4.35624e-06
-1.84753e-06 2.09638e-08 -4.42252e-06
-1.12312e-06 -1.30891e-06 -4.15114e-06
-1.15924e-06 1.30683e-06 -4.19993e-06
-2.25138e-05 -7.28795e-06 -1.70004e-05
-2.21971e-05 7.37185e-06 -1.69691e-05
-4.86058e-06 2.28993e-05 -1.69375e-05
-4.85809e-06 -2.31324e-05 -1.69644e-05
1.74218e-05 1.5636e-05 -1.69303e-05
1.75694e-05 -1.55369e-05 -1.69396e-05
2.10743e-05 3.16401e-06 -1.63249e-05
-1.39536e-05 1.71518e-05 -1.64789e-05
-1.35917e-05 -1.67418e-05 -1.64104e-05
7.76811e-06 1.98202e-05 -1.63317e-05
7.68512e-06 -2.03107e-05 -1.6403e-05
2.14731e-05 -3.44387e-06 -1.64006e-05
-2.11035e-05 6.58812e-09 -1.62471e-05
-2.24211e-05 1.10001e-05 -1.7454e-05
-1.87515e-05 9.25501e-06 -1.66275e-05
-1.79834e-05 5.79566e-06 -1.60368e-05
-1.49845e-05 7.44859e-06 -1.54868e-05
-1.42249e-05 4.30787e-06 -1.48301e-05
-1.1533e-05 5.74408e-06 -1.40951e-05
-1.08584e-05 3.06884e-06 -1.33739e-05
-8.40077e-06 4.30502e-06 -1.24047e-05
-9.05912e-06 7.01365e-06 -1.34567e-05
-6.20431e-06 5.48869e-06 -1.16893e-05
-6.82854e-06 8.24973e-06 -1.30803e-05
-4.28154e-06 6.67513e-06 -1.14508e-05
-4.80018e-06 9.61026e-06 -1.30942e-05
-2.40095e-06 7.99361e-06 -1.17233e-05
-2.81295e-06 1.11676e-05 -1.34753e-05
-4.75427e-07 9.59562e-06 -1.25013e-05
-7.38381e-07 1.29974e-05 -1.41421e-05
1.73114e-06 1.15182e-05 -1.35353e-05
-5.53488e-06 1.27008e-05 -1.44373e-05
1.68514e-06 8.22425e-06 -1.17479e-05
4.00432e-06 1.01212e-05 -1.31513e-05
3.70547e-06 7.09819e-06 -1.14785e-05
6.06761e-06 8.96698e-06 -1.31137e-05
5.76701e-06 6.107e-06 -1.17359e-05
8.35837e-06 8.0206e-06 -1.34924e-05
8.10593e-06 5.19544e-06 -1.25007e-05
1.09544e-05 7.0973e-06 -1.41473e-05
1.07463e-05 4.32295e-06 -1.34994e-05
8.53083e-06 1.10379e-05 -1.44611e-05
7.93796e-06 2.64383e-06 -1.17277e-05
1.06464e-05 1.73726e-06 -1.31044e-05
7.94895e-06 3.58772e-07 -1.14559e-05
1.08068e-05 -7.59139e-07 -1.31245e-05
8.11192e-06 -1.93787e-06 -1.17094e-05
1.10986e-05 -3.31297e-06 -1.34843e-05
8.47003e-06 -4.42413e-06 -1.24444e-05
1.15041e-05 -6.00309e-06 -1.41098e-05
8.95589e-06 -7.13836e-06 -1.34284e-05
6.14773e-06 -5.4946e-06 -1.16416e-05
6.64473e-06 -8.30115e-06 -1.30186e-05
4.10534e-06 -6.58873e-06 -1.13112e-05
4.52351e-06 -9.5512e-06 -1.29886e-05
2.24237e-06 -7.85855e-06 -1.15977e-05
2.48492e-06 -1.10023e-05 -1.33513e-05
2.25298e-07 -9.37401e-06 -1.23539e-05
3.30024e-07 -1.27703e-05 -1.40342e-05
-1.91551e-06 -1.11511e-05 -1.33774e-05
-1.84113e-06 -7.92189e-06 -1.15825e-05
-4.16805e-06 -9.8752e-06 -1.30854e-05
-3.81407e-06 -6.73073e-06 -1.13174e-05
-6.34585e-06 -8.66233e-06 -1.30997e-05
-5.8915e-06 -5.69821e-06 -1.16287e-05
-8.50002e-06 -7.43606e-06 -1.33801e-05
-8.16783e-06 -4.72822e-06 -1.2409e-05
-1.1096e-05 -6.403e-06 -1.40703e-05
-4.37181e-06 -1.31237e-05 -1.44341e-05
-1.08092e-05 -3.65081e-06 -1.34396e-05
7.22638e-06 -1.13732e-05 -1.42734e-05
-7.74197e-06 1.98275e-06 -1.14933e-05
-1.32166e-05 1.03509e-06 -1.42114e-05
1.72918e-06 1.50834e-05 -1.49527e-05
1.37686e-05 4.62255e-07 -1.43882e-05
1.38437e-05 6.10033e-06 -1.49322e-05
-9.69442e-06 1.01966e-05 -1.4533e-05
-5.4162e-06 -3.19776e-06 -1.01825e-05
-1.1714e-05 -9.29768e-06 -1.48897e-05
1.18828e-05 -8.76053e-06 -1.47876e-05
1.47823e-05 -7.47388e-06 -1.54038e-05
-1.39603e-05 -5.24409e-06 -1.48621e-05
2.79592e-06 -1.45167e-05 -1.47967e-05
4.24576e-07 -1.65e-05 -1.53982e-05
3.51855e-06 4.39709e-06 -9.58145e-06
1.40111e-05 9.2994e-06 -1.54921e-05
1.79314e-05 8.14526e-06 -1.63011e-05
-1.5676e-05 1.13957e-05 -1.6234e-05
-1.09413e-06 1.67697e-05 -1.54958e-05
1.90692e-06 1.96223e-05 -1.63115e-05
-2.09194e-06 5.22026e-06 -9.59794e-06
5.55413e-06 -7.84631e-07 -9.59449e-06
3.58608e-06 -3.68369e-06 -9.08231e-06
-1.7797e-06 -5.17875e-06 -9.44995e-06
-2.24695e-05 -1.10112e-05 -1.74748e-05
-1.87989e-05 -9.24176e-06 -1.66515e-05
2.11486e-05 1.41653e-05 -1.75061e-05
2.07545e-05 -1.43181e-05 -1.7436e-05
-1.76464e-06 -2.54474e-05 -1.75114e-05
-1.68217e-06 2.54114e-05 -1.75161e-05
1.77136e-05 -1.19073e-05 -1.66877e-05
2.06465e-05 -1.07515e-05 -1.71165e-05
3.77578e-06 -1.89858e-05 -1.61399e-05
7.68552e-07 -2.03465e-05 -1.64834e-05
-1.94058e-05 -1.2651e-05 -1.71436e-05
-1.37316e-05 -2.30701e-06 -1.44724e-05
-1.65933e-05 -3.70157e-06 -1.54781e-05
-1.03762e-05 -1.09643e-06 -1.29525e-05
2.44529e-05 1.10732e-05 -1.76521e-05
2.54984e-05 -1.24037e-05 -1.78486e-05
2.64929e-06 2.67269e-05 -1.76609e-05
2.52104e-06 -2.64145e-05 -1.76298e-05
3.33956e-06 -2.30327e-05 -1.70296e-05
-2.05397e-06 -1.83206e-05 -1.59514e-05
4.05917e-06 2.37922e-05 -1.71309e-05
2.26149e-05 8.37958e-06 -1.71197e-05
4.61377e-06 1.7314e-05 -1.57278e-05
1.44275e-05 -1.31199e-05 -1.61379e-05
-1.57882e-05 -1.09851e-05 -1.6215e-05
-1.68004e-05 -3.81443e-07 -1.53778e-05
1.73066e-05 4.68765e-06 -1.57262e-05
6.55236e-08 -6.38752e-06 -1.02678e-05
1.74177e-06 -4.84862e-06 -9.09281e-06
5.85066e-06 -2.93561e-06 -1.03785e-05
-2.14449e-05 3.75066e-06 -1.64593e-05
5.72956e-06 -1.62751e-05 -1.55082e-05
9.08378e-06 -1.74997e-05 -1.5998e-05
1.75728e-05 1.18821e-05 -1.66728e-05
1.39947e-05 -1.63828e-05 -1.64017e-05
1.07404e-05 -1.37895e-05 -1.55506e-05
-3.54808e-06 -4.22033e-06 -9.5011e-06
5.39929e-06 1.13853e-06 -9.49938e-06
5.21822e-06 3.22298e-06 -1.00476e-05
-1.74981e-06 -2.83554e-05 -1.78773e-05
1.89212e-06 5.29906e-06 -9.58478e-06
-1.13828e-07 6.1052e-06 -1.00391e-05
-3.78504e-06 4.12787e-06 -9.57874e-06
-5.62286e-06 3.03428e-06 -1.02856e-05
-5.16563e-06 1.04071e-06 -9.21393e-06
-7.52749e-06 -6.17413e-08 -1.11728e-05
-4.3345e-06 -8.10302e-07 -8.38215e-06
-3.10868e-06 1.87239e-06 -7.37432e-06
-2.20819e-05 -3.6079e-06 -1.65163e-05
2.34069e-05 -1.56884e-05 -1.78365e-05
-1.50724e-06 2.11686e-05 -1.66825e-05
2.12624e-05 -8.4523e-08 -1.62262e-05
1.76227e-05 -1.64686e-06 -1.55819e-05
1.73483e-05 -4.94185e-06 -1.57711e-05
2.18923e-05 -7.45138e-06 -1.69141e-05
-2.31829e-05 -1.4255e-05 -1.78331e-05
1.73252e-05 1.64893e-06 -1.5509e-05
-1.73402e-06 2.84739e-05 -1.78945e-05
-4.22084e-07 3.68353e-06 -7.49556e-06
2.37727e-05 1.57428e-05 -1.7885e-05
-1.74979e-05 1.56427e-05 -1.69754e-05
-1.06266e-05 -1.84667e-05 -1.62556e-05
-1.00999e-05 -1.43428e-05 -1.55722e-05
-7.50803e-06 -1.60954e-05 -1.56225e-05
-7.32237e-06 -2.01212e-05 -1.63958e-05
-1.07048e-05 1.85359e-05 -1.62673e-05
-1.03477e-05 1.43846e-05 -1.56198e-05
-7.77289e-06 2.04931e-05 -1.64447e-05
-4.25313e-06 1.86103e-05 -1.60535e-05
1.07601e-05 1.83461e-05 -1.62267e-05
1.38921e-05 1.69355e-05 -1.64315e-05
1.40424e-05 1.29733e-05 -1.60518e-05
-7.36183e-06 1.62889e-05 -1.5639e-05
1.05255e-05 1.45475e-05 -1.56457e-05
7.74902e-06 1.60929e-05 -1.56144e-05
-3.11656e-06 -1.89882e-06 -7.39345e-06
-7.2579e-06 -1.24224e-05 -1.46256e-05
3.00875e-06 4.03614e-08 -6.60121e-06
4.87275e-06 1.35232e-05 -1.46186e-05
1.40765e-05 -2.26047e-06 -1.45709e-05
-1.72904e-05 -1.52172e-05 -1.6946e-05
-1.73671e-05 2.42039e-06 -1.55983e-05
-1.22051e-05 8.91225e-06 -1.4944e-05
-7.70589e-06 -2.2926e-06 -1.15551e-05
-1.24502e-05 1.1813e-05 -1.55405e-05
-1.4274e-07 -3.75434e-06 -7.55445e-06
2.73031e-06 2.27215e-06 -7.25219e-06
-2.00394e-06 -1.4651e-05 -1.48085e-05
9.36543e-06 -1.00686e-05 -1.43899e-05
1.38612e-05 3.15793e-06 -1.45666e-05
-7.34031e-06 1.11998e-05 -1.42608e-05
4.9974e-06 -1.27753e-05 -1.43698e-05
1.10323e-05 1.04309e-05 -1.49202e-05
-3.59658e-06 1.46858e-05 -1.49085e-05
-4.63563e-06 -1.66175e-05 -1.55493e-05
-1.95078e-05 1.28929e-05 -1.71618e-05
-2.31277e-05 1.48586e-05 -1.78439e-05
-1.29054e-05 -1.26865e-05 -1.5813e-05
3.76092e-06 -1.58617e-06 -7.90724e-06
1.76445e-06 2.92237e-06 -7.0847e-06
-9.23082e-06 -1.06099e-05 -1.45323e-05
1.72779e-06 -2.82324e-06 -6.93132e-06
9.94752e-07 2.41177e-05 -1.7309e-05
2.13687e-05 1.11942e-05 -1.72991e-05
-1.46652e-05 -7.95368e-06 -1.54859e-05
1.37086e-05 -4.7865e-06 -1.46912e-05
-1.90994e-06 -2.17637e-05 -1.68032e-05
1.80611e-05 -8.41938e-06 -1.63412e-05
-1.66795e-05 -6.32881e-06 -1.5783e-05
-4.32913e-07 -1.92238e-06 -4.79865e-06
-1.80543e-06 2.99554e-06 -7.17745e-06
-2.50528e-05 -1.29823e-05 -1.79227e-05
-2.5128e-05 -1.45077e-05 -1.80026e-05
-2.5046e-05 1.30342e-05 -1.79065e-05
-2.51188e-05 1.46504e-05 -1.79826e-05
-1.64851e-06 -3.12495e-06 -7.21019e-06
6.32819e-06 1.13688e-05 -1.40771e-05
5.33721e-07 -2.4087e-05 -1.73027e-05
-5.22793e-07 1.8096e-06 -4.64518e-06
7.40774e-06 -1.43442e-05 -1.51529e-05
2.33037e-05 -1.32098e-05 -1.77293e-05
2.36335e-05 -1.0538e-05 -1.74913e-05
1.19889e-05 -1.82116e-05 -1.62938e-05
1.47307e-05 -1.0147e-05 -1.57961e-05
-1.00274e-05 1.00128e-06 -1.27551e-05
-1.74006e-06 -8.15926e-07 -4.72363e-06
7.69089e-07 3.70847e-06 -7.57344e-06
2.34315e-06 -1.99722e-06 -6.55554e-06
2.01573e-05 5.89806e-06 -1.64542e-05
5.07026e-06 2.05967e-05 -1.64966e-05
3.42119e-07 -2.7681e-05 -1.78545e-05
-1.73128e-06 7.09132e-07 -4.6065e-06
-3.21161e-06 6.23068e-07 -6.8244e-06
3.57733e-06 1.47546e-06 -7.63692e-06
4.99229e-07 2.83248e-05 -1.79277e-05
2.47612e-05 1.37345e-05 -1.79189e-05
-2.03291e-05 1.55363e-05 -1.74295e-05
1.17874e-06 1.36451e-06 -4.46002e-06
-2.06404e-05 -1.57289e-05 -1.75281e-05
-1.89996e-05 -2.32228e-06 -1.59467e-05
-1.95599e-05 -5.58522e-06 -1.63328e-05
9.05712e-07 -3.24786e-06 -7.00637e-06
-4.36618e-06 -1.97901e-05 -1.63224e-05
-7.9376e-06 1.3835e-05 -1.51017e-05
1.16578e-06 -1.30422e-06 -4.33946e-06
1.19349e-05 -1.12288e-05 -1.52927e-05
6.13326e-06 -2.2697e-05 -1.6821e-05
-1.45227e-05 1.43559e-05 -1.63242e-05
7.92939e-06 1.33218e-05 -1.49486e-05
SCALARS effective_fluid_pressure_TPM float
LOOKUP_TABLE default
665
665
665
665
665
665
665
665
665
665
665
665
665
665
133
665
665
665
665
665
665
665
665
665
665
665
665
665
665
133
665
560.329
520.678
502.82
502.591
519.804
559.95
665
561.996
520.773
503.263
503.372
520.705
561.618
665
559.616
519.675
502.765
502.983
521.173
561.634
665
558.873
519.02
501.553
502.249
518.869
559.461
665
558.513
519.959
501.886
501.817
519.392
557.952
665
558.669
519.973
502.058
501.92
519.38
559.676
133
133
133
133
133
133
665
560.329
520.678
502.82
502.591
519.804
559.95
665
561.996
520.773
503.263
503.372
520.705
561.618
665
559.616
519.675
502.765
502.983
521.173
561.634
665
558.873
519.02
501.553
502.249
518.869
559.461
665
558.513
519.959
501.886
501.817
519.392
557.952
665
558.669
519.973
502.058
501.92
519.38
559.676
133
133
133
133
133
133
228.262
226.332
227.045
224.114
225.529
219.851
220.867
529.177
528.187
526.566
527.945
526.593
527.646
498.716
503.562
501.6
498.957
501.473
501.254
494.337
562.511
518.991
495.039
480.746
461.366
443.286
425.054
402.127
427.278
385.272
417.746
379.619
417.909
385.957
427.395
404.305
444.389
429.084
450.267
386.566
419.309
380.214
418.321
386.196
427.768
404.233
444.5
428.168
450.863
386.041
418.172
379.63
418.529
385.564
427.604
402.926
443.562
426.459
384.058
416.145
376.314
415.352
383.03
424.426
400.852
441.712
425.233
382.766
417.785
376.578
418.103
383.852
425.273
402.219
442.684
450.657
426.733
446.015
380.739
444.681
465.296
448.748
464.769
453.417
350.913
463.511
461.043
478.449
462.778
460.648
478.354
337.287
480.825
505.857
503.616
480.891
506.163
337.7
337.511
326.174
334.425
563.387
519.666
567.587
562.373
567.904
567.758
521.815
542.725
498.629
513.74
542.07
451.459
477.577
414.664
579.527
611.033
579.68
576.041
534.56
494.479
538.234
537.93
485.037
498.115
503.333
473.139
485.084
352.758
326.424
355.187
503.444
477.716
488.359
520.884
502.027
477.913
335.55
335.414
347.709
613.451
337.388
347.581
337.274
353.214
329.198
373.265
310.668
288.795
504.71
608.386
521.105
493.721
478.326
486.354
526.499
600.346
476.563
615.904
291.404
615.802
528.727
494.532
478.233
479.407
501.314
494.839
479.434
502.509
495.172
493.743
502.261
495.246
479.881
480.047
479.049
289.302
454.589
271.949
454.997
453.625
527.008
479.47
465.219
382.108
480.505
292.677
286.089
461.475
449.63
453.974
445.852
448.686
463.601
463.258
479.95
543.465
601.707
487.49
300.309
282.468
453.01
279.17
552.247
552.006
480.771
458.014
526.23
508.183
488.586
233.734
284.566
614.511
636.324
615.145
636.681
285.287
441.337
553.087
230.49
467.548
590.269
566.039
495.812
490.045
410.041
232.124
293.103
271.133
507.892
509.189
607.819
229.667
276.983
294.438
618.882
618.795
558.52
226.526
562.533
488.31
503.392
280.854
504.062
466.375
224.011
473.581
519.577
502.977
462.441
228.262
226.332
227.045
224.114
225.529
219.851
220.867
529.177
528.187
526.566
527.945
526.593
527.646
498.716
503.562
501.6
498.957
501.473
501.254
494.337
562.511
518.991
495.039
480.746
461.366
443.286
425.054
402.127
427.278
385.272
417.746
379.619
417.909
385.957
427.395
404.305
444.389
429.084
450.267
386.566
419.309
380.214
418.321
386.196
427.768
404.233
444.5
428.168
450.863
386.041
418.172
379.63
418.529
385.564
427.604
402.926
443.562
426.459
384.058
416.145
376.314
415.352
383.03
424.426
400.852
441.712
425.233
382.766
417.785
376.578
418.103
383.852
425.273
402.219
442.684
450.657
426.733
446.015
380.739
444.681
465.296
448.748
464.769
453.417
350.913
463.511
461.043
478.449
462.778
460.648
478.354
337.287
480.825
505.857
503.616
480.891
506.163
337.7
337.511
326.174
334.425
563.387
519.666
567.587
562.373
567.904
567.758
521.815
542.725
498.629
513.74
542.07
451.459
477.577
414.664
579.527
611.033
579.68
576.041
534.56
494.479
538.234
537.93
485.037
498.115
503.333
473.139
485.084
352.758
326.424
355.187
503.444
477.716
488.359
520.884
502.027
477.913
335.55
335.414
347.709
613.451
337.388
347.581
337.274
353.214
329.198
373.265
310.668
288.795
504.71
608.386
521.105
493.721
478.326
486.354
526.499
600.346
476.563
615.904
291.404
615.802
528.727
494.532
478.233
479.407
501.314
494.839
479.434
502.509
495.172
493.743
502.261
495.246
479.881
480.047
479.049
289.302
454.589
271.949
454.997
453.625
527.008
479.47
465.219
382.108
480.505
292.677
286.089
461.475
449.63
453.974
445.852
448.686
463.601
463.258
479.95
543.465
601.707
487.49
300.309
282.468
453.01
279.17
552.247
552.006
480.771
458.014
526.23
508.183
488.586
233.734
284.566
614.511
636.324
615.145
636.681
285.287
441.337
553.087
230.49
467.548
590.269
566.039
495.812
490.045
410.041
232.124
293.103
271.133
507.892
509.189
607.819
229.667
276.983
294.438
618.882
618.795
558.52
226.526
562.533
488.31
503.392
280.854
504.062
466.375
224.011
473.581
519.577
502.977
462.441

CELL_DATA 563
TENSORS stress float
164.617 -24.9209 -6.25278e-13
-24.9209 28.1504 2.25005e-14
-6.25278e-13 2.25005e-14 -12.6026

-40.3391 -21.3205 -5.13412e-12
-21.3205 -7.35479 2.77112e-13
-5.13412e-12 2.77112e-13 -10.2329

-9.94108 28.0444 4.47109e-12
28.0444 -1.11093 2.63493e-13
4.47109e-12 2.63493e-13 -6.36158

-40.4271 -29.8426 -1.38896e-12
-29.8426 -12.8458 1.10963e-12
-1.38896e-12 1.10963e-12 -10.5992

-22.6918 19.9309 -2.01942e-12
19.9309 -1.92438 -1.00105e-12
-2.01942e-12 -1.00105e-12 -23.0208

-27.1411 -18.0752 -1.80774e-12
-18.0752 15.8879 -4.1922e-13
-1.80774e-12 -4.1922e-13 -6.41236

161.268 26.4851 1.42109e-13
26.4851 28.027 9.01205e-13
1.42109e-13 9.01205e-13 -13.2615

-5.96217 29.9586 -1.73787e-12
29.9586 -10.1126 5.40012e-13
-1.73787e-12 5.40012e-13 -7.27742

34.6319 5.48335 1.52885e-12
5.48335 -19.0966 2.22022e-12
1.52885e-12 2.22022e-12 -4.12339

11.8602 -7.4776 2.36463e-12
-7.4776 -48.2877 -2.34412e-12
2.36463e-12 -2.34412e-12 -8.94808

104.198 16.3094 3.68061e-12
16.3094 -8.44368 -1.42109e-12
3.68061e-12 -1.42109e-12 -22.454

-34.6387 -13.4536 -7.41481e-13
-13.4536 18.9657 -1.15759e-12
-7.41481e-13 -1.15759e-12 -7.18169

-6.0268 27.834 -5.53987e-12
27.834 -4.59183 5.19288e-13
-5.53987e-12 5.19288e-13 -6.16035

-35.5529 -14.3405 -3.44441e-12
-14.3405 7.84502 -9.20153e-13
-3.44441e-12 -9.20153e-13 -9.13237

-23.6537 33.3102 2.55203e-13
33.3102 -24.9934 2.75213e-12
2.55203e-13 2.75213e-12 -21.3647

21.3111 0.561027 1.28194e-12
0.561027 -32.3398 4.28611e-13
1.28194e-12 4.28611e-13 -5.5909

-48.9599 -17.969 3.20273e-12
-17.969 6.34264 5.12982e-12
3.20273e-12 5.12982e-12 -12.9468

11.6602 -2.6652 -6.43337e-13
-2.6652 -43.2503 -9.74332e-13
-6.43337e-13 -9.74332e-13 -8.03483

-11.3513 26.6751 -5.04249e-12
26.6751 19.5172 -3.59002e-12
-5.04249e-12 -3.59002e-12 -6.09079

21.7657 -4.1958 -2.80783e-12
-4.1958 -35.2966 -4.44356e-12
-2.80783e-12 -4.44356e-12 -6.74264

-24.4808 8.66912 -2.02371e-12
8.66912 32.128 -1.28786e-12
-2.02371e-12 -1.28786e-12 -4.93549

-11.8086 6.28686 -2.22056e-11
6.28686 -11.9721 -8.933e-12
-2.22056e-11 -8.933e-12 -75.6131

22.7435 1.87604 -2.77289e-12
1.87604 -33.471 1.73787e-12
-2.77289e-12 1.73787e-12 -6.67861

-12.3892 -27.7164 -3.78127e-12
-27.7164 1.5991 -5.3042e-12
-3.78127e-12 -5.3042e-12 -6.60406

21.3046 6.84965 -2.64085e-12
6.84965 -34.306 9.61749e-13
-2.64085e-12 9.61749e-13 -6.80785

-37.9065 19.1133 1.41931e-12
19.1133 2.65384 -1.57711e-12
1.41931e-12 -1.57711e-12 -9.4588

106.607 4.1816 2.71664e-12
4.1816 20.6032 -2.05347e-12
2.71664e-12 -2.05347e-12 -12.0489

-5.30261 30.7469 -4.93176e-12
30.7469 -7.27331 -4.08592e-12
-4.93176e-12 -4.08592e-12 -7.44282

27.8902 37.0765 -1.57504e-12
37.0765 26.4693 -1.84623e-12
-1.57504e-12 -1.84623e-12 -8.63309

-9.43915 10.3235 -1.60405e-12
10.3235 -32.9277 -1.58096e-13
-1.60405e-12 -1.58096e-13 -49.5047

19.8309 14.2171 5.20473e-13
14.2171 -29.3605 2.67978e-12
5.20473e-13 2.67978e-12 -6.00208

-4.21176 -17.7814 -6.762e-13
-17.7814 59.6596 6.22672e-12
-6.762e-13 6.22672e-12 -8.47699

66.2857 -42.1036 -4.2751e-12
-42.1036 71.1411 -2.55559e-12
-4.2751e-12 -2.55559e-12 -11.2515

-48.2089 5.98611 3.69352e-12
5.98611 7.26933 1.71596e-12
3.69352e-12 1.71596e-12 -41.0348

-26.2908 -4.8397 1.48355e-12
-4.8397 1.75665 5.23433e-12
1.48355e-12 5.23433e-12 -37.7998

-1.46728 21.0276 5.41493e-13
21.0276 -39.5052 -6.80907e-12
5.41493e-13 -6.80907e-12 -41.1006

-43.9735 5.06652 9.49463e-13
5.06652 0.514131 3.3434e-12
9.49463e-13 3.3434e-12 -52.1868

-2.76067 -9.17039 -3.02366e-12
-9.17039 -20.7689 1.00705e-12
-3.02366e-12 1.00705e-12 -35.8944

-3.97505 -27.9991 -1.99781e-12
-27.9991 -4.61088 -4.81985e-12
-1.99781e-12 -4.81985e-12 -5.99569

65.5995 41.5228 -1.85689e-12
41.5228 73.1689 -3.25902e-12
-1.85689e-12 -3.25902e-12 -10.9632

60.157 -17.9501 -5.4996e-12
-17.9501 0.115683 3.84108e-12
-5.4996e-12 3.84108e-12 -8.0509

-41.8014 -3.70522 1.18439e-12
-3.70522 -1.18566 -1.4837e-12
1.18439e-12 -1.4837e-12 -52.7216

-14.5926 19.5541 2.85401e-12
19.5541 -28.5506 -1.74142e-12
2.85401e-12 -1.74142e-12 -52.8298

18.1413 -12.2735 -2.96415e-12
-12.2735 -29.9004 -3.07117e-12
-2.96415e-12 -3.07117e-12 -6.22426

38.1741 -43.3012 -4.15668e-13
-43.3012 41.8023 -6.13198e-12
-4.15668e-13 -6.13198e-12 -14.5594

58.1456 -18.0643 1.3903e-12
-18.0643 -2.30419 -2.48749e-12
1.3903e-12 -2.48749e-12 -7.91457

-21.4438 17.0865 2.08426e-13
17.0865 30.3275 -3.19271e-12
2.08426e-13 -3.19271e-12 -5.72967

-11.374 19.3399 -5.47917e-12
19.3399 25.5108 9.82917e-14
-5.47917e-12 9.82917e-14 -3.92301

20.791 -16.3016 -2.14051e-12
-16.3016 -33.1161 -1.5099e-14
-2.14051e-12 -1.5099e-14 -7.31296

12.6147 -34.1872 -1.83912e-12
-34.1872 46.4367 2.04873e-13
-1.83912e-12 2.04873e-13 -10.3981

62.362 19.1828 -7.44886e-13
19.1828 2.80918 1.92557e-12
-7.44886e-13 1.92557e-12 -8.41474

46.5146 -25.2897 -1.83083e-12
-25.2897 5.13296 -5.91112e-12
-1.83083e-12 -5.91112e-12 -5.61105

-31.8962 19.4848 8.88178e-14
19.4848 -4.28515 -8.05874e-13
8.88178e-14 -8.05874e-13 -26.0845

37.0396 29.6509 3.1027e-13
29.6509 14.5121 7.22385e-14
3.1027e-13 7.22385e-14 -5.43347

-27.449 -21.8127 -2.65802e-12
-21.8127 -8.2295 5.26875e-13
-2.65802e-12 5.26875e-13 -25.247

64.8706 -42.7132 5.36223e-12
-42.7132 44.0812 1.42938e-12
5.36223e-12 1.42938e-12 -9.5022

-27.749 5.45868 2.44175e-12
5.45868 2.66917 -1.50546e-12
2.44175e-12 -1.50546e-12 -38.3054

-5.55936 -5.33009 -6.8067e-12
-5.33009 57.3896 -1.64609e-12
-6.8067e-12 -1.64609e-12 -5.4505

-0.201024 10.3844 -9.80845e-13
10.3844 -24.8468 6.25403e-12
-9.80845e-13 6.25403e-12 -38.3669

-26.4868 21.4139 -4.60017e-12
21.4139 12.2194 -1.17121e-12
-4.60017e-12 -1.17121e-12 -6.87104

4.72599 5.7543 3.54383e-13
5.7543 -56.0401 1.49717e-12
3.54383e-13 1.49717e-12 -13.9815

0.540148 11.4589 1.95103e-13
11.4589 -34.0571 -8.97356e-13
1.95103e-13 -8.97356e-13 -14.8399

106.347 31.821 4.61853e-13
31.821 37.8338 -7.28306e-13
4.61853e-13 -7.28306e-13 -7.48929

-35.4924 -6.03561 -2.72863e-12
-6.03561 10.6013 1.96583e-12
-2.72863e-12 1.96583e-12 -13.4792

-35.3603 9.5201 -5.92311e-12
9.5201 1.23379 1.96643e-12
-5.92311e-12 1.96643e-12 -14.9602

-42.5887 -2.88114 2.1864e-13
-2.88114 21.1107 2.81849e-12
2.1864e-13 2.81849e-12 -11.2395

-44.9084 23.4017 -1.68029e-12
23.4017 -5.89263 5.99816e-13
-1.68029e-12 5.99816e-13 -13.9225

9.971 8.46383 -1.3977e-12
8.46383 -42.3793 2.34213e-12
-1.3977e-12 2.34213e-12 -9.07903

-12.3356 -28.2405 1.96051e-12
-28.2405 1.68669 -5.68671e-12
1.96051e-12 -5.68671e-12 -6.67524

1.30883 -1.71137 -2.28129e-12
-1.71137 -55.4567 -3.73457e-12
-2.28129e-12 -3.73457e-12 -11.305

-31.8857 -19.2608 2.85668e-12
-19.2608 -4.59447 3.50534e-13
2.85668e-12 3.50534e-13 -25.9538

-27.9744 21.3078 2.79273e-12
21.3078 -8.35927 5.47356e-12
2.79273e-12 5.47356e-12 -26.0123

-0.653079 -16.5843 -1.85807e-12
-16.5843 61.6755 2.23229e-12
-1.85807e-12 2.23229e-12 -7.94974

-0.650248 -27.9365 8.52651e-14
-27.9365 -21.362 1.01045e-12
8.52651e-14 1.01045e-12 -12.7915

-14.0941 -25.1355 2.63641e-12
-25.1355 7.4066 -2.50703e-12
2.63641e-12 -2.50703e-12 -5.23723

91.6815 -31.7119 -1.6603e-12
-31.7119 19.4855 -4.06786e-13
-1.6603e-12 -4.06786e-13 -16.3328

-33.7069 3.22284 4.52238e-12
3.22284 9.19979 6.03428e-12
4.52238e-12 6.03428e-12 -18.5632

2.7515 28.9444 -7.57912e-14
28.9444 -24.4252 3.01389e-13
-7.57912e-14 3.01389e-13 -11.3172

-38.4347 19.6645 -2.76623e-12
19.6645 5.22955 3.66285e-12
-2.76623e-12 3.66285e-12 -9.23629

50.1919 7.99993 -5.22841e-12
7.99993 -16.966 3.89229e-12
-5.22841e-12 3.89229e-12 -7.06806

60.0332 -33.9371 1.02437e-12
-33.9371 33.7873 -6.23857e-12
1.02437e-12 -6.23857e-12 -6.98411

-18.9612 -10.5872 -3.37123e-12
-10.5872 -0.541178 -6.93963e-13
-3.37123e-12 -6.93963e-13 -25.4301

-33.9259 23.8998 -4.49122e-13
23.8998 -12.0239 1.62761e-12
-4.49122e-13 1.62761e-12 -14.5407

58.158 -32.3854 -2.48453e-12
-32.3854 18.0912 5.26986e-13
-2.48453e-12 5.26986e-13 -10.1343

66.8617 10.7916 -7.78044e-13
10.7916 8.51234 -6.82713e-13
-7.78044e-13 -6.82713e-13 -5.08509

7.67362 -21.207 1.20407e-12
-21.207 88.4678 -5.13249e-12
1.20407e-12 -5.13249e-12 -11.8624

-33.9876 14.426 -1.57563e-12
14.426 20.2383 -1.53063e-12
-1.57563e-12 -1.53063e-12 -7.54765

8.47507 23.1438 -3.74811e-13
23.1438 -26.0746 5.85398e-12
-3.74811e-13 5.85398e-12 -11.2997

34.8695 42.2007 3.1027e-12
42.2007 46.2006 -7.50807e-13
3.1027e-12 -7.50807e-13 -14.4209

-4.39439 16.5062 1.08479e-11
16.5062 -35.5394 -2.92018e-12
1.08479e-11 -2.92018e-12 -73.2803

-5.98149 -4.10858 -2.66513e-12
-4.10858 57.95 4.14483e-14
-2.66513e-12 4.14483e-14 -5.4427

-1.81904 -16.6314 5.23218e-12
-16.6314 -39.3992 2.64603e-12
5.23218e-12 2.64603e-12 -74.1035

-3.32998 -27.3348 2.19676e-12
-27.3348 -30.0295 -3.67158e-12
2.19676e-12 -3.67158e-12 -21.5537

8.96678 27.4249 -4.02049e-13
27.4249 -29.9959 -6.66134e-13
-4.02049e-13 -6.66134e-13 -11.2579

45.7123 -24.4118 -2.02978e-12
-24.4118 5.02328 -1.58866e-12
-2.02978e-12 -1.58866e-12 -5.23713

10.0946 31.3248 -4.55399e-12
31.3248 47.1644 4.55339e-12
-4.55399e-12 4.55339e-12 -9.64121

14.272 -10.7056 4.6659e-12
-10.7056 82.8417 -5.40249e-12
4.6659e-12 -5.40249e-12 -6.44739

-38.6334 21.971 5.90491e-13
21.971 2.94136 3.14149e-12
5.90491e-13 3.14149e-12 -8.57011

1.19294 16.7946 2.92566e-12
16.7946 -25.7229 1.32368e-12
2.92566e-12 1.32368e-12 -18.5674

-26.5391 15.1545 -3.71362e-12
15.1545 18.4494 -4.78432e-13
-3.71362e-12 -4.78432e-13 -5.70921

43.6598 15.9545 -9.27258e-13
15.9545 -7.28664 5.31012e-12
-9.27258e-13 5.31012e-12 -4.07632

12.5763 -21.4736 -6.15567e-12
-21.4736 57.9573 2.13163e-13
-6.15567e-12 2.13163e-13 -4.71481

65.9985 -29.392 4.16615e-12
-29.392 18.6434 3.58054e-12
4.16615e-12 3.58054e-12 -9.3357

-32.3817 -24.5735 7.40445e-13
-24.5735 -7.28212 3.74811e-12
7.40445e-13 3.74811e-12 -8.97751

-22.6677 27.4517 -5.37437e-12
27.4517 -10.351 2.99879e-12
-5.37437e-12 2.99879e-12 -9.28507

-38.3515 23.1879 2.34894e-12
23.1879 1.99089 -3.86358e-13
2.34894e-12 -3.86358e-13 -8.52602

-51.5536 13.169 3.2902e-12
13.169 11.9264 7.68985e-12
3.2902e-12 7.68985e-12 -16.4666

23.4849 9.37246 -2.29091e-12
9.37246 -29.4893 2.60295e-12
-2.29091e-12 2.60295e-12 -5.32276

3.76772 -4.66525 5.15588e-12
-4.66525 79.4408 3.52429e-12
5.15588e-12 3.52429e-12 -9.53185

-44.9392 -36.8325 4.93235e-13
-36.8325 -19.8286 -2.55684e-12
4.93235e-13 -2.55684e-12 -14.7713

-16.0808 27.4663 5.23256e-12
27.4663 1.34038 -2.82441e-12
5.23256e-12 -2.82441e-12 -6.91606

-5.01645 2.17038 1.97094e-12
2.17038 82.6766 -4.05009e-12
1.97094e-12 -4.05009e-12 -13.4315

69.0477 34.612 1.33108e-12
34.612 15.4965 -7.67978e-13
1.33108e-12 -7.67978e-13 -10.7063

-31.3528 -22.9745 3.79089e-12
-22.9745 -4.63284 2.2311e-12
3.79089e-12 2.2311e-12 -8.53111

11.743 5.73295 -9.79069e-13
5.73295 -48.3365 1.74645e-12
-9.79069e-13 1.74645e-12 -8.64241

43.0666 27.2054 -6.83305e-13
27.2054 10.4513 -3.29455e-12
-6.83305e-13 -3.29455e-12 -5.08182

-9.41371 12.7451 -8.06762e-13
12.7451 -14.0398 -7.33635e-13
-8.06762e-13 -7.33635e-13 -37.0379

70.3368 24.3317 -3.56219e-12
24.3317 23.8049 2.81375e-12
-3.56219e-12 2.81375e-12 -6.79988

-10.5848 -13.0546 -1.56379e-12
-13.0546 -13.9216 2.59052e-12
-1.56379e-12 2.59052e-12 -37.3757

-4.38104 0.778595 1.92957e-12
0.778595 59.3997 -3.54206e-12
1.92957e-12 -3.54206e-12 -4.83166

38.3577 -2.23542 -1.62241e-12
-2.23542 -23.813 -3.38666e-12
-1.62241e-12 -3.38666e-12 -5.8337

3.59341 -15.7673 1.83897e-12
-15.7673 -53.97 1.87672e-12
1.83897e-12 1.87672e-12 -21.1238

-42.2776 24.3882 -1.04577e-12
24.3882 -11.737 2.37543e-12
-1.04577e-12 2.37543e-12 -11.1686

-46.8125 -13.5352 2.98198e-13
-13.5352 11.067 -7.28898e-13
2.98198e-13 -7.28898e-13 -12.3545

5.8099 -7.99972 -2.60429e-12
-7.99972 -70.9664 -3.66773e-12
-2.60429e-12 -3.66773e-12 -14.8825

-49.5388 -22.2831 -1.39163e-12
-22.2831 3.74785 -2.62694e-12
-1.39163e-12 -2.62694e-12 -22.1038

-17.4588 -6.5974 -1.99544e-13
-6.5974 -13.1156 5.14847e-13
-1.99544e-13 5.14847e-13 -34.7792

-28.7301 -29.9083 -4.95604e-12
-29.9083 -9.39997 9.26962e-13
-4.95604e-12 9.26962e-13 -8.99711

15.6931 11.4542 1.50546e-12
11.4542 80.183 -8.47914e-13
1.50546e-12 -8.47914e-13 -6.53105

42.2908 -28.1479 2.71901e-12
-28.1479 11.0502 -4.34556e-12
2.71901e-12 -4.34556e-12 -5.04508

-47.1703 -13.7714 -3.04423e-12
-13.7714 4.19621 -2.00077e-12
-3.04423e-12 -2.00077e-12 -29.2993

2.96468 0.504686 1.4948e-12
0.504686 -56.8124 3.47796e-12
1.4948e-12 3.47796e-12 -11.0063

-39.3371 -21.5243 -1.64298e-12
-21.5243 -8.85703 2.89339e-12
-1.64298e-12 2.89339e-12 -14.7747

-40.1952 25.6979 -1.15611e-13
25.6979 -14.6917 -2.9301e-12
-1.15611e-13 -2.9301e-12 -11.312

32.2608 -31.4659 8.60941e-13
-31.4659 38.43 2.5769e-12
8.60941e-13 2.5769e-12 -4.64898

-31.4685 -7.08396 -3.9854e-12
-7.08396 1.70093 -1.02052e-12
-3.9854e-12 -1.02052e-12 -40.9896

36.6307 -33.0782 2.6444e-12
-33.0782 72.0296 -7.31859e-12
2.6444e-12 -7.31859e-12 -7.1449

16.6128 -19.1803 -1.3376e-12
-19.1803 -25.8713 2.38328e-13
-1.3376e-12 2.38328e-13 -7.13442

1.50245 1.97079 5.59493e-12
1.97079 -51.3915 2.91855e-12
5.59493e-12 2.91855e-12 -15.3747

-12.8745 17.8747 2.04607e-12
17.8747 -16.9555 -7.56432e-13
2.04607e-12 -7.56432e-13 -41.0571

10.7123 20.1838 -1.578e-12
20.1838 59.4558 -2.56506e-12
-1.578e-12 -2.56506e-12 -4.35748

4.31777 27.2113 1.69938e-13
27.2113 -16.2242 -3.08376e-12
1.69938e-13 -3.08376e-12 -8.12522

30.9049 -24.5125 8.65678e-13
-24.5125 -8.13381 6.29718e-12
8.65678e-13 6.29718e-12 -4.87348

-37.7886 -17.8389 -1.83507e-12
-17.8389 2.40079 -2.35811e-12
-1.83507e-12 -2.35811e-12 -9.86555

55.5151 35.0697 -2.03689e-12
35.0697 42.3463 3.55271e-12
-2.03689e-12 3.55271e-12 -6.63663

-40.0157 -21.8312 -4.31655e-13
-21.8312 2.53677 -3.25399e-12
-4.31655e-13 -3.25399e-12 -9.39507

2.96614 30.8511 1.04864e-12
30.8511 -17.3896 1.65971e-12
1.04864e-12 1.65971e-12 -9.07931

18.5373 -25.2447 1.97945e-12
-25.2447 -19.4194 -3.50238e-12
1.97945e-12 -3.50238e-12 -6.34372

-15.6547 -25.1272 4.39175e-12
-25.1272 5.89542 9.88246e-13
4.39175e-12 9.88246e-13 -5.77686

42.7192 -18.689 7.38964e-13
-18.689 -9.16745 -2.14465e-12
7.38964e-13 -2.14465e-12 -5.37033

27.4321 -18.8504 -4.3574e-12
-18.8504 -20.3701 5.05107e-12
-4.3574e-12 5.05107e-12 -5.69109

-41.394 -25.3372 -2.35797e-12
-25.3372 -14.9643 -3.34973e-12
-2.35797e-12 -3.34973e-12 -11.5681

29.7812 35.971 6.27646e-13
35.971 25.2271 -2.56743e-12
6.27646e-13 -2.56743e-12 -8.6452

-28.5193 15.3773 1.47038e-12
15.3773 18.5188 -2.09432e-12
1.47038e-12 -2.09432e-12 -5.8752

-23.1086 26.4228 -1.69109e-12
26.4228 -12.5474 -1.80034e-12
-1.69109e-12 -1.80034e-12 -9.95918

-42.0971 25.4736 4.49668e-13
25.4736 -11.5926 3.86372e-12
4.49668e-13 3.86372e-12 -10.9938

-37.2893 11.6219 9.26659e-13
11.6219 11.8441 1.97057e-12
9.26659e-13 1.97057e-12 -9.08144

64.395 -8.22735 1.85807e-12
-8.22735 3.19651 2.01617e-13
1.85807e-12 2.01617e-13 -4.25164

8.73302 18.6073 2.81493e-12
18.6073 59.2215 -2.46558e-12
2.81493e-12 -2.46558e-12 -4.16311

-25.6157 -24.3811 -6.0633e-13
-24.3811 0.45821 1.66237e-12
-6.0633e-13 1.66237e-12 -7.21688

-1.14254 25.6669 7.86926e-13
25.6669 13.7522 -1.01904e-12
7.86926e-13 -1.01904e-12 -4.08397

32.379 -35.6309 -1.74438e-12
-35.6309 21.7 -1.52175e-12
-1.74438e-12 -1.52175e-12 -8.48694

59.538 38.3183 1.11318e-12
38.3183 17.8477 -2.14584e-12
1.11318e-12 -2.14584e-12 -13.7226

12.1245 -33.3125 -1.202e-12
-33.3125 42.9143 8.12979e-12
-1.202e-12 8.12979e-12 -9.54352

30.5515 -31.161 1.79767e-12
-31.161 36.8141 9.80431e-12
1.79767e-12 9.80431e-12 -4.40621

11.7689 -6.83863 1.15759e-13
-6.83863 -48.8385 -4.03803e-12
1.15759e-13 -4.03803e-12 -8.77122

25.2744 30.3431 1.85333e-12
30.3431 41.0897 -8.49099e-13
1.85333e-12 -8.49099e-13 -4.45673

62.6839 13.2952 4.9738e-14
13.2952 5.22714 2.11386e-13
4.9738e-14 2.11386e-13 -4.30621

-7.02734 13.3794 1.51745e-12
13.3794 61.3459 8.32519e-13
1.51745e-12 8.32519e-13 -8.69579

11.7289 -22.3414 -1.58214e-12
-22.3414 55.7646 1.74794e-12
-1.58214e-12 1.74794e-12 -4.30218

-47.2603 -1.09192 2.03726e-12
-1.09192 12.4093 -1.70412e-12
2.03726e-12 -1.70412e-12 -22.1614

-5.92059 2.24673 -1.10874e-13
2.24673 59.0059 -1.61885e-12
-1.10874e-13 -1.61885e-12 -5.2634

6.2678 31.0906 -3.30402e-13
31.0906 47.8663 -7.55544e-13
-3.30402e-13 -7.55544e-13 -9.66131

-39.7259 12.1082 -1.6077e-12
12.1082 12.8445 2.87118e-12
-1.6077e-12 2.87118e-12 -9.31386

40.739 -27.6488 8.75152e-13
-27.6488 8.35677 1.78228e-13
8.75152e-13 1.78228e-13 -5.6429

7.5393 20.557 1.51464e-12
20.557 -47.4671 1.04687e-12
1.51464e-12 1.04687e-12 -16.482

-3.42162 26.2704 -8.71599e-13
26.2704 -31.4862 -9.9476e-13
-8.71599e-13 -9.9476e-13 -22.2518

15.7772 -18.5682 3.04764e-12
-18.5682 -30.0145 -4.4101e-12
3.04764e-12 -4.4101e-12 -8.18402

4.42822 -1.8021 2.41081e-12
-1.8021 -34.133 -1.69672e-12
2.41081e-12 -1.69672e-12 -24.4384

-14.3404 -31.8123 -1.06729e-12
-31.8123 -11.9311 -4.24431e-12
-1.06729e-12 -4.24431e-12 -9.05055

56.2198 23.3288 4.50958e-12
23.3288 0.81559 6.88634e-13
4.50958e-12 6.88634e-13 -8.28878

-27.8285 30.1623 1.83557e-14
30.1623 -9.23654 -4.13181e-12
1.83557e-14 -4.13181e-12 -8.80137

-27.0041 29.2061 2.98724e-13
29.2061 -9.20186 6.11363e-13
2.98724e-13 6.11363e-13 -8.67866

28.6287 30.6622 4.14128e-12
30.6622 40.4065 8.69231e-13
4.14128e-12 8.69231e-13 -4.44971

0.343075 27.0855 1.08831e-12
27.0855 -19.8471 4.0797e-13
1.08831e-12 4.0797e-13 -11.7776

64.51 3.5253 1.05397e-13
3.5253 -11.8275 -3.12221e-12
1.05397e-13 -3.12221e-12 -10.0192

-14.9002 31.8172 -1.31569e-12
31.8172 -20.7988 5.27282e-13
-1.31569e-12 5.27282e-13 -12.4481

-37.9453 -12.5995 8.12979e-13
-12.5995 8.18014 7.63833e-14
8.12979e-13 7.63833e-14 -14.0232

-0.474871 24.2779 2.03363e-12
24.2779 -29.9995 -3.07606e-13
2.03363e-12 -3.07606e-13 -20.7709

-23.7279 -29.579 -6.47808e-12
-29.579 -11.935 1.04183e-12
-6.47808e-12 1.04183e-12 -8.84428

-38.1496 -4.89779 -3.49879e-12
-4.89779 18.8467 -3.25665e-14
-3.49879e-12 -3.25665e-14 -11.7307

69.9468 -24.5574 -2.92507e-12
-24.5574 18.0286 1.10134e-13
-2.92507e-12 1.10134e-13 -7.04476

39.9828 29.6944 5.71276e-12
29.6944 13.4789 3.6214e-12
5.71276e-12 3.6214e-12 -5.21595

-4.29757 14.6972 1.1607e-12
14.6972 60.5731 -8.56204e-13
1.1607e-12 -8.56204e-13 -8.4017

1.61135 -1.13904 2.41437e-13
-1.13904 -56.1238 -3.70829e-12
2.41437e-13 -3.70829e-12 -11.2102

9.61414 0.00220237 -2.00462e-12
0.00220237 -44.7555 6.89532e-13
-2.00462e-12 6.89532e-13 -8.4392

-31.0799 23.1245 3.60364e-12
23.1245 -4.33755 -1.22213e-12
3.60364e-12 -1.22213e-12 -8.45964

-34.7623 23.8712 -6.53403e-13
23.8712 -13.1931 2.00016e-12
-6.53403e-13 2.00016e-12 -14.8135

-43.3791 -24.3808 -8.68361e-13
-24.3808 -12.6138 1.92365e-12
-8.68361e-13 1.92365e-12 -11.4696

-39.0604 -0.67308 2.1381e-12
-0.67308 21.0463 1.43115e-12
2.1381e-12 1.43115e-12 -10.4962

-40.8069 25.5907 -1.57963e-12
25.5907 -13.2229 8.7382e-13
-1.57963e-12 8.7382e-13 -11.1733

32.3222 -10.3084 -1.99189e-12
-10.3084 -25.1558 -2.58445e-12
-1.99189e-12 -2.58445e-12 -6.01554

8.70589 -32.8351 -2.24828e-12
-32.8351 22.7977 6.40199e-12
-2.24828e-12 6.40199e-12 -6.99318

2.39666 -2.30128 1.86547e-12
-2.30128 -49.961 1.88264e-12
1.86547e-12 1.88264e-12 -14.7731

36.7462 -34.5099 1.77044e-12
-34.5099 24.4797 -3.61193e-14
1.77044e-12 -3.61193e-14 -7.70991

-38.2944 19.086 -7.51251e-13
19.086 -7.09344 -3.80052e-12
-7.51251e-13 -3.80052e-12 -14.4499

7.87064 -26.479 -1.6005e-12
-26.479 -27.9957 2.44693e-12
-1.6005e-12 2.44693e-12 -10.9698

63.9494 -9.69074 -2.72019e-12
-9.69074 5.67646 7.30083e-12
-2.72019e-12 7.30083e-12 -5.07305

6.04 -23.1923 2.31341e-12
-23.1923 -35.4685 2.10202e-14
2.31341e-12 2.10202e-14 -17.7361

0.14141 2.35834 -2.74536e-12
2.35834 -56.1744 -1.70456e-13
-2.74536e-12 -1.70456e-13 -11.547

-4.06231 -23.322 -8.28966e-15
-23.322 -23.4119 -2.2203e-12
-8.28966e-15 -2.2203e-12 -16.7199

11.0385 -25.8598 6.15804e-14
-25.8598 -29.487 -3.12047e-13
6.15804e-14 -3.12047e-13 -9.73452

10.2012 -8.54655 1.44003e-12
-8.54655 -43.4913 -1.77828e-12
1.44003e-12 -1.77828e-12 -9.28258

-35.4178 -23.0684 1.49599e-12
-23.0684 -12.6464 1.56025e-12
1.49599e-12 1.56025e-12 -15.1035

23.6643 -31.3434 4.22773e-13
-31.3434 5.71152 2.44545e-13
4.22773e-13 2.44545e-13 -5.87944

11.0594 -24.5881 -2.88362e-12
-24.5881 -27.4955 5.40901e-12
-2.88362e-12 5.40901e-12 -10.0489

46.6443 10.865 -1.76096e-12
10.865 -16.1194 1.10164e-12
-1.76096e-12 1.10164e-12 -6.80107

-14.1863 26.3408 1.09986e-12
26.3408 -15.6408 -5.93303e-13
1.09986e-12 -5.93303e-13 -14.1194

-45.2511 -37.6121 -2.61361e-12
-37.6121 -20.612 -4.08044e-12
-2.61361e-12 -4.08044e-12 -14.9197

-43.708 37.2645 4.58981e-12
37.2645 -21.2658 2.79628e-13
4.58981e-12 2.79628e-13 -14.7701

-61.1839 -28.5729 -4.03884e-12
-28.5729 -7.49714 -4.18036e-13
-4.03884e-12 -4.18036e-13 -15.2001

-58.4149 27.0638 4.91096e-12
27.0638 -6.27175 -8.66862e-13
4.91096e-12 -8.66862e-13 -14.4788

5.60046 -8.52733 8.66566e-13
-8.52733 -71.0629 -3.81487e-12
8.66566e-13 -3.81487e-12 -14.7103

4.39729 9.27332 1.06182e-12
9.27332 -68.8316 2.13711e-12
1.06182e-12 2.13711e-12 -14.4383

9.02387 -9.84658 1.95014e-12
-9.84658 -40.8913 -2.20594e-12
1.95014e-12 -2.20594e-12 -9.61295

-24.3354 32.1152 2.8925e-12
32.1152 -24.8092 1.26994e-12
2.8925e-12 1.26994e-12 -21.1449

-25.5227 -32.8531 8.70415e-13
-32.8531 -25.0953 3.50704e-12
8.70415e-13 3.50704e-12 -21.469

-53.9183 16.0683 -3.06895e-12
16.0683 3.40114 1.85629e-13
-3.06895e-12 1.85629e-13 -21.4025

-52.4193 -15.8008 -3.40838e-12
-15.8008 3.2965 -5.19584e-13
-3.40838e-12 -5.19584e-13 -21.0758

6.11149 -3.74844 -5.48894e-13
-3.74844 -43.9247 9.02981e-14
-5.48894e-13 9.02981e-14 -25.7641

6.91757 3.61118 -1.71789e-12
3.61118 -46.3481 -3.90384e-12
-1.71789e-12 -3.90384e-12 -26.1405

-15.6278 9.83737 7.39557e-13
9.83737 46.2637 -9.23706e-14
7.39557e-13 -9.23706e-14 -5.84923

-22.9193 -24.7748 -2.91737e-12
-24.7748 -14.5527 2.47491e-12
-2.91737e-12 2.47491e-12 -10.3309

-56.6028 -36.3869 2.42295e-12
-36.3869 -14.5325 4.60328e-12
2.42295e-12 4.60328e-12 -13.438

33.3591 -4.66444 1.96939e-12
-4.66444 -19.8488 -2.92359e-13
1.96939e-12 -2.92359e-13 -3.94642

3.43311 -16.6939 -1.34337e-12
-16.6939 -52.6277 1.12947e-12
-1.34337e-12 1.12947e-12 -21.5323

3.67426 16.1749 1.39281e-12
16.1749 -51.8834 -4.48382e-12
1.39281e-12 -4.48382e-12 -21.4056

6.55555 0.121873 -6.39192e-13
0.121873 -76.7538 -1.95817e-12
-6.39192e-13 -1.95817e-12 -13.3049

-7.57125 23.3765 -1.95074e-12
23.3765 39.9366 1.33345e-12
-1.95074e-12 1.33345e-12 -6.88651

-56.8884 36.1709 -2.18536e-12
36.1709 -14.0112 4.23913e-12
-2.18536e-12 4.23913e-12 -13.3897

-39.7949 -23.396 2.75335e-14
-23.396 2.56139 1.81188e-13
2.75335e-14 1.81188e-13 -8.802

37.1175 23.354 5.1988e-13
23.354 -8.61474 -3.30994e-12
5.1988e-13 -3.30994e-12 -5.75989

4.73463 23.8585 5.32907e-13
23.8585 -38.2261 -2.37736e-13
5.32907e-13 -2.37736e-13 -18.9857

24.0135 -31.3152 -4.31536e-12
-31.3152 6.40745 2.60355e-12
-4.31536e-12 2.60355e-12 -5.64941

2.43063 -3.23145 -1.12902e-12
-3.23145 -48.3701 3.76588e-13
-1.12902e-12 3.76588e-13 -14.7432

-60.4566 -34.1605 -1.34929e-13
-34.1605 -14.3498 2.35486e-12
-1.34929e-13 2.35486e-12 -14.0317

-17.4547 8.32038 2.32999e-13
8.32038 45.693 2.60769e-12
2.32999e-13 2.60769e-12 -5.7823

-9.4706 21.8128 1.85037e-13
21.8128 40.426 -8.12387e-13
1.85037e-13 -8.12387e-13 -6.65501

58.6056 35.7776 4.39944e-12
35.7776 37.0888 -2.5094e-12
4.39944e-12 -2.5094e-12 -6.91628

70.4868 1.57885 7.93439e-13
1.57885 -5.54448 8.89289e-13
7.93439e-13 8.89289e-13 -10.3747

-30.7593 -22.8048 3.27856e-12
-22.8048 -13.3569 1.89719e-12
3.27856e-12 1.89719e-12 -14.4666

32.8419 31.1854 5.9129e-12
31.1854 69.7968 3.60482e-12
5.9129e-12 3.60482e-12 -6.67965

-19.3775 23.6107 4.91666e-12
23.6107 7.68679 -2.39808e-13
4.91666e-12 -2.39808e-13 -5.51459

47.6385 -5.34983 -6.20185e-12
-5.34983 -17.4355 3.70015e-12
-6.20185e-12 3.70015e-12 -6.82302

33.2201 11.2166 2.57927e-12
11.2166 -23.6391 3.43281e-12
2.57927e-12 3.43281e-12 -6.01529

6.25408 0.429892 1.40258e-12
0.429892 -77.551 -1.70766e-12
1.40258e-12 -1.70766e-12 -13.4506

-58.9347 -29.0306 -5.7924e-13
-29.0306 -6.28822 7.52583e-13
-5.7924e-13 7.52583e-13 -14.6977

-28.3317 -6.31847 5.42773e-12
-6.31847 -11.3568 7.25346e-13
5.42773e-12 7.25346e-13 -51.5848

-44.6975 37.4108 1.36543e-12
37.4108 -20.8111 -5.27837e-13
1.36543e-12 -5.27837e-13 -14.7741

93.7942 1.66336 -3.85351e-12
1.66336 16.6552 -1.65712e-12
-3.85351e-12 -1.65712e-12 -6.04327

10.0357 -32.7887 -1.82017e-12
-32.7887 21.3109 3.84877e-12
-1.82017e-12 3.84877e-12 -6.80945

-56.9353 36.6124 2.41288e-14
36.6124 -14.571 2.94313e-12
2.41288e-14 2.94313e-12 -13.5059

-35.0809 -11.1341 1.2802e-12
-11.1341 19.1772 -2.21156e-12
1.2802e-12 -2.21156e-12 -8.3176

-5.47908 -25.516 -1.7429e-12
-25.516 37.3511 -3.2685e-12
-1.7429e-12 -3.2685e-12 -6.98827

-58.4513 28.8296 7.63611e-13
28.8296 -6.2716 -2.05376e-12
7.63611e-13 -2.05376e-12 -14.6148

28.4961 -26.1432 -5.57066e-12
-26.1432 -4.91373 7.16464e-14
-5.57066e-12 7.16464e-14 -4.69849

-21.1688 10.4837 3.00944e-12
10.4837 -18.5588 -6.94896e-12
3.00944e-12 -6.94896e-12 -51.6804

3.43178 30.8737 -1.52352e-12
30.8737 27.1628 4.29286e-12
-1.52352e-12 4.29286e-12 -6.73424

6.14027 8.12643 2.3932e-12
8.12643 -72.2964 6.86902e-12
2.3932e-12 6.86902e-12 -14.9849

-11.5463 30.1909 5.30243e-13
30.1909 -20.6031 3.63295e-12
5.30243e-13 3.63295e-12 -11.5499

-30.7987 23.3325 1.90573e-12
23.3325 -5.10008 -4.60372e-12
1.90573e-12 -4.60372e-12 -8.46567

-25.8635 -32.4878 -2.2693e-12
-32.4878 -24.112 4.12402e-12
-2.2693e-12 4.12402e-12 -21.5585

9.20494 -23.191 -1.57681e-12
-23.191 -27.923 3.81473e-12
-1.57681e-12 3.81473e-12 -11.4264

-37.6614 10.4699 -5.12331e-13
10.4699 8.92896 1.00779e-12
-5.12331e-13 1.00779e-12 -25.3301

-23.0416 -23.4345 4.34408e-12
-23.4345 4.95223 5.80869e-13
4.34408e-12 5.80869e-13 -6.26431

88.8069 -9.70835 3.37034e-12
-9.70835 10.8068 -1.57252e-12
3.37034e-12 -1.57252e-12 -10.0311

84.047 -14.2779 1.4353e-12
-14.2779 2.8119 1.00542e-12
1.4353e-12 1.00542e-12 -13.1971

5.8873 16.5301 3.66314e-12
16.5301 -33.9323 1.29408e-12
3.66314e-12 1.29408e-12 -22.3754

-16.4227 22.5027 -6.60213e-14
22.5027 16.2279 -1.53063e-12
-6.60213e-14 -1.53063e-12 -5.08669

-3.91288 29.1641 -9.9772e-13
29.1641 -12.2309 5.80277e-14
-9.9772e-13 5.80277e-14 -8.39743

50.9943 0.688695 -6.18883e-12
0.688695 -6.53344 7.3729e-13
-6.18883e-12 7.3729e-13 -3.63554

-48.1417 6.57081 -5.70607e-12
6.57081 14.7859 2.02919e-12
-5.70607e-12 2.02919e-12 -18.9524

10.1157 16.5407 -2.27966e-12
16.5407 -36.0806 2.75898e-12
-2.27966e-12 2.75898e-12 -9.13642

-4.50519 -25.7625 1.06522e-12
-25.7625 35.5561 -3.43903e-12
1.06522e-12 -3.43903e-12 -6.74825

-39.1927 -2.57214 -6.35492e-13
-2.57214 21.5043 1.93327e-12
-6.35492e-13 1.93327e-12 -10.6702

-7.99218 13.3659 2.37232e-12
13.3659 44.4064 -1.80715e-12
2.37232e-12 -1.80715e-12 -3.9455

3.73439 -29.7141 1.46253e-13
-29.7141 -17.366 4.04743e-12
1.46253e-13 4.04743e-12 -8.92157

21.4257 -29.949 -1.34648e-12
-29.949 14.7558 1.05397e-13
-1.34648e-12 1.05397e-13 -3.91907

6.88003 31.6245 5.03301e-13
31.6245 25.4018 -2.81256e-13
5.03301e-13 -2.81256e-13 -6.82938

2.78502 -15.0197 2.14436e-12
-15.0197 -39.2648 -4.73399e-12
2.14436e-12 -4.73399e-12 -63.3057

-46.1595 2.04164 2.75683e-12
2.04164 11.4612 -1.53359e-13
2.75683e-12 -1.53359e-13 -22.7561

-55.4433 20.2994 -6.93519e-12
20.2994 3.09502 -4.64251e-12
-6.93519e-12 -4.64251e-12 -22.9154

5.91602 15.4384 3.03831e-12
15.4384 -58.8171 1.78139e-12
3.03831e-12 1.78139e-12 -23.0355

-18.9222 -26.1894 -5.22575e-12
-26.1894 -12.914 2.98724e-12
-5.22575e-12 2.98724e-12 -9.65371

41.3471 17.9581 1.50398e-13
17.9581 -6.27251 7.0551e-13
1.50398e-13 7.0551e-13 -3.86261

-44.682 -5.29346 -3.51059e-12
-5.29346 4.5384 5.67694e-12
-3.51059e-12 5.67694e-12 -39.1423

7.49937 -18.988 -1.16351e-12
-18.988 -39.8949 1.87258e-12
-1.16351e-12 1.87258e-12 -11.6606

30.2914 -15.5994 -3.28685e-12
-15.5994 -20.5103 -7.96844e-13
-3.28685e-12 -7.96844e-13 -4.80634

-9.63997 11.6039 -6.68206e-13
11.6039 44.3202 -7.14095e-13
-6.68206e-13 -7.14095e-13 -3.86027

8.33315 -25.7356 -4.02049e-13
-25.7356 32.9924 -4.17089e-12
-4.02049e-13 -4.17089e-12 -3.63417

-10.2442 -25.2739 3.54975e-12
-25.2739 -19.1012 -3.4445e-12
3.54975e-12 -3.4445e-12 -23.174

17.0047 31.9611 -5.21065e-13
31.9611 11.1966 1.73846e-12
-5.21065e-13 1.73846e-12 -5.74759

-1.06912 -25.1344 4.00154e-12
-25.1344 -30.7632 2.27078e-13
4.00154e-12 2.27078e-13 -20.8911

48.0664 2.59748 1.13687e-13
2.59748 -8.41135 4.67256e-13
1.13687e-13 4.67256e-13 -3.53276

6.55214 -28.9319 5.54815e-12
-28.9319 72.0531 2.67401e-12
5.54815e-12 2.67401e-12 -14.5518

21.7914 -29.2324 -2.10854e-12
-29.2324 13.9632 4.71267e-12
-2.10854e-12 4.71267e-12 -3.93145

35.3519 32.1605 6.16988e-13
32.1605 74.1368 9.87181e-12
6.16988e-13 9.87181e-12 -5.44188

-45.2842 -11.8766 -2.10221e-13
-11.8766 13.9218 3.47929e-12
-2.10221e-13 3.47929e-12 -15.3267

-14.4224 -13.8221 -4.12588e-12
-13.8221 43.3833 -2.65388e-12
-4.12588e-12 -2.65388e-12 -5.6739

-19.2417 -23.9867 6.73076e-12
-23.9867 -19.83 1.89389e-12
6.73076e-12 1.89389e-12 -64.2474

2.43723 23.772 1.08358e-12
23.772 36.0074 -3.39995e-12
1.08358e-12 -3.39995e-12 -3.71221

-15.1827 -32.7263 -2.33384e-12
-32.7263 -21.1198 -2.6447e-12
-2.33384e-12 -2.6447e-12 -14.3135

-14.567 -11.9637 -3.1164e-12
-11.9637 45.5316 -1.89004e-12
-3.1164e-12 -1.89004e-12 -5.74007

7.83545 -19.1167 2.09284e-12
-19.1167 -43.1223 1.66918e-12
2.09284e-12 1.66918e-12 -12.6326

6.54482 23.8783 -5.08097e-12
23.8783 35.1719 1.01252e-12
-5.08097e-12 1.01252e-12 -3.44315

23.1738 -4.9756 -1.4803e-14
-4.9756 -30.6776 -7.78562e-13
-1.4803e-14 -7.78562e-13 -5.36551

36.9713 -30.3438 4.63629e-12
-30.3438 122.631 9.68707e-13
4.63629e-12 9.68707e-13 -6.24122

-26.8707 21.0148 6.82121e-13
21.0148 8.43408 2.70894e-12
6.82121e-13 2.70894e-12 -7.13128

40.3392 -19.3242 4.03351e-12
-19.3242 -11.3741 -3.40084e-12
4.03351e-12 -3.40084e-12 -5.72711

6.52759 -21.4457 -2.1562e-12
-21.4457 -45.5577 -2.82707e-12
-2.1562e-12 -2.82707e-12 -24.971

20.7049 31.7556 1.57977e-12
31.7556 9.55682 -4.42372e-12
1.57977e-12 -4.42372e-12 -5.80714

13.9186 -29.9729 -1.47142e-12
-29.9729 -7.60692 -9.21337e-13
-1.47142e-12 -9.21337e-13 -5.94544

6.75507 20.8856 3.90266e-12
20.8856 -27.7932 -1.9531e-12
3.90266e-12 -1.9531e-12 -11.1094

-38.2744 -28.076 -6.46994e-12
-28.076 -14.0381 -1.59983e-12
-6.46994e-12 -1.59983e-12 -11.0619

8.64561 -26.2266 6.64357e-13
-26.2266 31.1713 -4.10694e-12
6.64357e-13 -4.10694e-12 -3.63621

15.331 28.9825 -4.08444e-12
28.9825 19.1537 6.03606e-12
-4.08444e-12 6.03606e-12 -3.88403

28.6406 26.1925 -3.4485e-12
26.1925 -5.63455 -2.9227e-12
-3.4485e-12 -2.9227e-12 -4.8031

7.91437 -14.6106 1.27454e-12
-14.6106 -36.8783 3.37064e-12
1.27454e-12 3.37064e-12 -13.9916

-6.84276 -16.6185 4.19043e-12
-16.6185 41.3417 -4.73221e-12
4.19043e-12 -4.73221e-12 -3.96047

17.4407 -17.5685 3.60127e-12
-17.5685 -31.0004 -2.22148e-12
3.60127e-12 -2.22148e-12 -7.1062

19.8418 16.9091 1.89419e-12
16.9091 -31.666 8.99725e-13
1.89419e-12 8.99725e-13 -7.3356

-33.6803 -9.38607 -2.31067e-12
-9.38607 8.75622 -1.44003e-12
-2.31067e-12 -1.44003e-12 -23.9918

43.4325 -13.4306 6.27172e-12
-13.4306 -8.37025 -5.63179e-12
6.27172e-12 -5.63179e-12 -3.8052

-19.3803 0.594138 -1.89789e-12
0.594138 43.1462 1.75978e-12
-1.89789e-12 1.75978e-12 -4.77654

28.0563 18.5556 -4.67123e-12
18.5556 -18.2005 -3.45679e-12
-4.67123e-12 -3.45679e-12 -4.75081

25.5286 27.6052 3.49705e-12
27.6052 -3.77674 -4.34615e-13
3.49705e-12 -4.34615e-13 -4.77224

-6.71658 -15.687 -1.82432e-12
-15.687 43.7995 1.64964e-12
-1.82432e-12 1.64964e-12 -3.84898

-19.9083 -1.20228 3.76358e-12
-1.20228 42.1287 -3.46271e-12
3.76358e-12 -3.46271e-12 -4.68811

-5.47325 29.1345 -2.83684e-12
29.1345 -23.6475 4.38316e-12
-2.83684e-12 4.38316e-12 -16.797

-37.2749 -10.9225 -3.28478e-13
-10.9225 21.6799 -2.88954e-12
-3.28478e-13 -2.88954e-12 -7.83095

27.1435 -26.7165 -2.90553e-12
-26.7165 -5.53181 1.83083e-12
-2.90553e-12 1.83083e-12 -4.94529

40.7198 21.3336 1.71714e-12
21.3336 -8.37156 -1.64076e-12
1.71714e-12 -1.64076e-12 -5.46859

12.378 23.6657 -1.05101e-12
23.6657 -27.1283 -2.88569e-12
-1.05101e-12 -2.88569e-12 -8.66778

-37.7977 5.47117 -2.77948e-12
5.47117 23.3114 -2.27374e-13
-2.77948e-12 -2.27374e-13 -8.59822

18.5927 29.067 -1.65379e-12
29.067 17.3776 -3.16488e-12
-1.65379e-12 -3.16488e-12 -3.94811

-9.98849 22.9639 7.52879e-13
22.9639 -14.9141 -3.36679e-12
7.52879e-13 -3.36679e-12 -24.0251

68.3197 -59.6941 1.20792e-13
-59.6941 36.3368 1.81662e-12
1.20792e-13 1.81662e-12 -23.0101

17.5306 -25.0488 7.874e-12
-25.0488 -17.9931 -2.60236e-13
7.874e-12 -2.60236e-13 -6.41868

10.0578 7.07023 -1.48474e-12
7.07023 82.5536 -1.72662e-12
-1.48474e-12 -1.72662e-12 -7.1656

11.9199 -28.8904 4.39944e-13
-28.8904 -3.8822 2.65861e-12
4.39944e-13 2.65861e-12 -5.16686

-66.944 -52.7027 -9.4739e-15
-52.7027 143.257 -1.42109e-13
-9.4739e-15 -1.42109e-13 -49.6673

-68.3874 51.4533 -1.70175e-12
51.4533 142.544 -1.89478e-14
-1.70175e-12 -1.89478e-14 -49.8564

19.573 117.158 -4.80801e-12
117.158 64.1338 -1.77636e-12
-4.80801e-12 -1.77636e-12 -48.3578

20.5319 -117.101 3.75167e-12
-117.101 61.0305 -4.13062e-12
3.75167e-12 -4.13062e-12 -48.7225

157.751 -1.36342 1.44477e-12
-1.36342 -79.1867 6.50729e-14
1.44477e-12 6.50729e-14 -48.9095

110.332 -91.1285 0
-91.1285 -36.6882 1.3524e-12
0 1.3524e-12 -50.3041

110.385 91.6564 5.77908e-13
91.6564 -36.4984 -2.66454e-12
5.77908e-13 -2.66454e-12 -50.177

7.84643 14.3309 5.1017e-12
14.3309 -42.682 1.1043e-13
5.1017e-12 1.1043e-13 -15.0794

-11.7903 25.536 -3.73035e-14
25.536 -27.4049 -1.91876e-12
-3.73035e-14 -1.91876e-12 -35.1358

12.4382 6.60633 9.84102e-13
6.60633 -40.5352 7.27714e-13
9.84102e-13 7.27714e-13 -8.25361

26.2549 21.7856 -1.08417e-12
21.7856 -19.5301 -2.56802e-12
-1.08417e-12 -2.56802e-12 -5.85201

-21.2319 17.7453 -9.79069e-13
17.7453 29.8687 1.13095e-13
-9.79069e-13 1.13095e-13 -6.16357

22.5303 28.8999 2.38269e-12
28.8999 -0.776306 8.73968e-13
2.38269e-12 8.73968e-13 -4.73188

4.0549 -29.6643 -1.95222e-12
-29.6643 -17.4669 5.21065e-14
-1.95222e-12 5.21065e-14 -8.50528

25.9953 28.0292 -1.65675e-12
28.0292 -2.30261 -4.14661e-12
-1.65675e-12 -4.14661e-12 -4.73227

-19.3488 -2.84149 -1.11466e-13
-2.84149 43.0722 4.5001e-14
-1.11466e-13 4.5001e-14 -4.77109

-13.4108 -26.0969 4.57708e-13
-26.0969 -25.8386 2.90523e-12
4.57708e-13 2.90523e-12 -35.5188

-19.8439 -4.86273 -1.64757e-13
-4.86273 41.7772 -3.61193e-13
-1.64757e-13 -3.61193e-13 -4.74497

-1.82727 23.0168 3.78956e-13
23.0168 -24.3773 -1.8372e-12
3.78956e-13 -1.8372e-12 -16.1499

44.9836 26.8721 -8.96468e-13
26.8721 8.11062 3.88371e-12
-8.96468e-13 3.88371e-12 -5.37

-52.5072 -13.2162 4.53741e-12
-13.2162 0.150122 -2.51917e-12
4.53741e-12 -2.51917e-12 -20.617

20.2806 13.7285 -1.30325e-12
13.7285 -31.1433 -2.66424e-12
-1.30325e-12 -2.66424e-12 -7.04416

13.7004 -29.9889 6.46831e-12
-29.9889 -6.69261 -5.92563e-12
6.46831e-12 -5.92563e-12 -5.83638

29.6313 -24.7146 1.88294e-13
-24.7146 -7.87508 3.43192e-12
1.88294e-13 3.43192e-12 -4.82625

5.76418 -16.0754 1.73787e-12
-16.0754 -32.3342 -1.28342e-12
1.73787e-12 -1.28342e-12 -22.2549

12.6276 27.9299 -8.941e-13
27.9299 -13.64 -8.76336e-13
-8.941e-13 -8.76336e-13 -6.42066

23.309 23.9785 5.99224e-13
23.9785 -17.9447 -8.12979e-13
5.99224e-13 -8.12979e-13 -5.96352

-31.0787 -2.79287 -4.0807e-12
-2.79287 30.1321 2.8096e-12
-4.0807e-12 2.8096e-12 -6.39953

-28.6313 5.87352 -6.46279e-13
5.87352 33.3219 -1.6378e-12
-6.46279e-13 -1.6378e-12 -6.06049

34.5493 2.64684 1.19194e-12
2.64684 -26.1856 1.03658e-13
1.19194e-12 1.03658e-13 -6.14334

50.6529 -7.29006 1.18424e-15
-7.29006 -14.0837 -6.27646e-13
1.18424e-15 -6.27646e-13 -6.77973

11.0407 30.486 -3.54087e-13
30.486 -4.7887 -4.08444e-12
-3.54087e-13 -4.08444e-12 -5.96735

17.4673 -26.1565 -2.359e-12
-26.1565 -17.4561 -5.15676e-12
-2.359e-12 -5.15676e-12 -6.3528

-0.08406 -21.2545 -2.10706e-12
-21.2545 -27.9566 5.03597e-13
-2.10706e-12 5.03597e-13 -17.1663

4.93826 -31.6352 -2.39571e-12
-31.6352 4.8607 1.04272e-12
-2.39571e-12 1.04272e-12 -5.93624

-8.22854 -27.787 -1.90011e-12
-27.787 18.5788 -5.27519e-12
-1.90011e-12 -5.27519e-12 -6.13089

-1.6513 29.8887 -1.49569e-12
29.8887 10.447 3.19744e-14
-1.49569e-12 3.19744e-14 -5.8013

-26.0184 -9.57833 -3.65944e-12
-9.57833 32.9704 1.86517e-13
-3.65944e-12 1.86517e-13 -5.78816

-31.3245 -1.54505 2.45655e-13
-1.54505 31.6511 1.21503e-12
2.45655e-13 1.21503e-12 -6.22438

-38.917 5.74784 -4.47172e-12
5.74784 23.9466 -4.35207e-13
-4.47172e-12 -4.35207e-13 -9.18366

-17.2198 -21.0902 2.94875e-13
-21.0902 26.5713 5.58013e-12
2.94875e-13 5.58013e-12 -5.77296

13.0714 24.112 -1.84504e-12
24.112 -28.1022 -1.2846e-12
-1.84504e-12 -1.2846e-12 -9.20553

21.5553 -9.59015 2.4869e-13
-9.59015 -31.7083 8.45102e-13
2.4869e-13 8.45102e-13 -6.59903

-27.1554 7.46555 6.73369e-13
7.46555 34.3352 3.12047e-13
6.73369e-13 3.12047e-13 -5.87488

-35.2373 -9.70124 5.98692e-13
-9.70124 22.3138 -2.32288e-12
5.98692e-13 -2.32288e-12 -8.1842

-29.1573 -16.3314 -1.9682e-12
-16.3314 19.3469 -2.10202e-13
-1.9682e-12 -2.10202e-13 -6.66268

36.9688 -8.2396 7.70939e-13
-8.2396 -20.2387 -5.32374e-12
7.70939e-13 -5.32374e-12 -5.10241

-14.8101 -32.3468 3.41682e-12
-32.3468 -21.6275 5.48953e-12
3.41682e-12 5.48953e-12 -12.9934

-22.8257 9.32146 1.57578e-12
9.32146 33.3239 5.92119e-15
1.57578e-12 5.92119e-15 -4.78968

-0.751397 -18.2129 -7.26648e-12
-18.2129 -35.1569 -1.56897e-12
-7.26648e-12 -1.56897e-12 -33.2757

4.93163 24.8241 -5.46881e-12
24.8241 75.3099 5.08512e-12
-5.46881e-12 5.08512e-12 -14.3193

-14.1419 -26.6267 1.73491e-12
-26.6267 -16.351 -4.74243e-12
1.73491e-12 -4.74243e-12 -14.6409

-6.35712 -30.2029 1.33997e-12
-30.2029 -23.6033 -1.61441e-12
1.33997e-12 -1.61441e-12 -17.0878

-31.2724 -0.701122 -2.02727e-13
-0.701122 31.5008 4.09746e-13
-2.02727e-13 4.09746e-13 -6.34924

28.4883 -16.6232 -1.39444e-12
-16.6232 -18.0585 -2.66454e-13
-1.39444e-12 -2.66454e-13 -4.4389

-37.8062 12.8418 2.9652e-12
12.8418 11.1651 1.67688e-12
2.9652e-12 1.67688e-12 -10.9896

-8.86128 -3.18085 -1.88405e-12
-3.18085 111.056 -1.89478e-14
-1.88405e-12 -1.89478e-14 -22.6711

-31.6043 14.2742 2.42036e-12
14.2742 21.3505 1.52411e-12
2.42036e-12 1.52411e-12 -7.12536

12.4215 -29.4906 1.9682e-12
-29.4906 -2.52025 -7.50215e-13
1.9682e-12 -7.50215e-13 -4.92911

33.6331 25.1068 -5.8531e-12
25.1068 124.035 -6.13672e-12
-5.8531e-12 -6.13672e-12 -6.21361

-13.5018 26.0965 -3.77668e-12
26.0965 -19.0969 1.41309e-12
-3.77668e-12 1.41309e-12 -58.8901

-9.55233 -27.8057 -3.02306e-12
-27.8057 -22.8061 1.59709e-12
-3.02306e-12 1.59709e-12 -59.5404

-2.86655 -30.4202 2.449e-12
-30.4202 -7.32226 -3.46922e-12
2.449e-12 -3.46922e-12 -7.28827

3.85946 -31.1618 5.35868e-12
-31.1618 5.63497 -3.5462e-12
5.35868e-12 -3.5462e-12 -6.06347

25.1524 20.8283 -8.28966e-15
20.8283 -17.0359 9.09791e-13
-8.28966e-15 9.09791e-13 -4.97778

31.8057 15.0069 -1.58273e-12
15.0069 -23.303 9.11863e-13
-1.58273e-12 9.11863e-13 -5.95576

-9.48771 3.08259 8.7732e-12
3.08259 -9.82987 -2.13735e-11
8.7732e-12 -2.13735e-11 -80.9295

-5.5483 -6.99872 9.61956e-12
-6.99872 -14.0406 -8.70607e-12
9.61956e-12 -8.70607e-12 -80.2822

11.7487 4.82425 9.65154e-13
4.82425 -43.2066 4.20686e-12
9.65154e-13 4.20686e-12 -7.82845

-35.0581 6.73145 -1.11466e-12
6.73145 24.3755 2.0357e-12
-1.11466e-12 2.0357e-12 -7.56479

-36.1122 6.73637 -1.12092e-12
6.73637 24.4328 2.7273e-12
-1.12092e-12 2.7273e-12 -8.30977

74.5902 58.6371 -1.06558e-11
58.6371 34.1749 1.66741e-12
-1.06558e-11 1.66741e-12 -21.8723

-6.92122 -28.2014 -2.22222e-12
-28.2014 16.8751 -8.11203e-14
-2.22222e-12 -8.11203e-14 -6.11779

8.17188 17.9743 1.30355e-12
17.9743 -44.8761 2.29861e-12
1.30355e-12 2.29861e-12 -12.8971

32.7039 9.54011 1.59398e-12
9.54011 -19.0819 1.73639e-12
1.59398e-12 1.73639e-12 -4.07541

3.38704 -26.7247 -7.74492e-13
-26.7247 13.4839 -3.30225e-12
-7.74492e-13 -3.30225e-12 -3.82803

26.2378 -20.2387 -2.12571e-12
-20.2387 -20.3248 1.86014e-12
-2.12571e-12 1.86014e-12 -5.86427

65.394 60.235 4.36984e-12
60.235 34.2913 -3.45442e-12
4.36984e-12 -3.45442e-12 -23.8672

-13.2428 31.0695 3.03343e-12
31.0695 -16.8825 -2.44634e-12
3.03343e-12 -2.44634e-12 -12.7864

-18.6061 -19.7872 6.7916e-13
-19.7872 28.4152 -8.40809e-13
6.7916e-13 -8.40809e-13 -5.97062

11.174 28.8589 -9.38508e-13
28.8589 -13.3241 1.35122e-12
-9.38508e-13 1.35122e-12 -6.43711

-31.8709 -4.14518 2.12734e-12
-4.14518 30.1482 3.17849e-12
2.12734e-12 3.17849e-12 -6.35882

-14.5978 19.6103 2.13163e-12
19.6103 27.1857 -3.61074e-12
2.13163e-12 -3.61074e-12 -4.41977

7.4788 30.5203 4.33727e-12
30.5203 -1.67126 1.64431e-12
4.33727e-12 1.64431e-12 -5.66154

-9.34613 -22.4745 -2.19439e-12
-22.4745 23.1495 3.84877e-14
-2.19439e-12 3.84877e-14 -4.17652

4.58984 -27.354 -2.69533e-12
-27.354 11.449 -3.5083e-12
-2.69533e-12 -3.5083e-12 -3.93953

24.2727 11.2575 2.42917e-13
11.2575 102.084 4.4551e-12
2.42917e-13 4.4551e-12 -12.4045

37.4676 -33.4581 -7.08174e-13
-33.4581 69.2884 1.14634e-12
-7.08174e-13 1.14634e-12 -5.70331

-25.3372 -11.6911 -3.20114e-12
-11.6911 31.3688 -6.50739e-13
-3.20114e-12 -6.50739e-13 -5.64945

16.0963 26.4857 -2.72671e-12
26.4857 -15.5031 2.06294e-12
-2.72671e-12 2.06294e-12 -6.21838

4.95512 29.4793 4.4628e-12
29.4793 1.63644 8.44362e-13
4.4628e-12 8.44362e-13 -4.99102

-9.85592 -21.4351 3.45797e-13
-21.4351 25.1213 1.07114e-12
3.45797e-13 1.07114e-12 -4.0343

-21.6363 -11.7831 2.82115e-12
-11.7831 32.0827 -1.4424e-12
2.82115e-12 -1.4424e-12 -4.63825

10.4625 28.4109 -3.54679e-13
28.4109 -0.156975 1.63602e-12
-3.54679e-13 1.63602e-12 -4.6739

-21.8484 -13.8786 -9.09791e-13
-13.8786 29.4678 -1.89715e-12
-9.09791e-13 -1.89715e-12 -4.84821

6.9582 27.8566 -3.33245e-12
27.8566 73.0882 2.76401e-12
-3.33245e-12 2.76401e-12 -14.3224

-45.8321 -4.04089 -2.63556e-12
-4.04089 14.0478 -4.54629e-12
-2.63556e-12 -4.54629e-12 -19.9646

0.876215 31.0292 5.51855e-13
31.0292 7.51979 4.60076e-13
5.51855e-13 4.60076e-13 -6.09023

9.71903 14.9018 -7.24754e-13
14.9018 -36.4303 -2.01439e-12
-7.24754e-13 -2.01439e-12 -10.986

9.9282 -15.9281 4.80801e-13
-15.9281 -39.4112 1.94274e-12
4.80801e-13 1.94274e-12 -13.0696

85.6173 -24.2059 -1.53951e-13
-24.2059 7.63551 6.12251e-12
-1.53951e-13 6.12251e-12 -12.9581

-23.2082 -21.2681 7.34227e-14
-21.2681 10.5138 -1.8409e-12
7.34227e-14 -1.8409e-12 -6.16639

-16.602 26.6994 4.63659e-12
26.6994 1.77812 2.81375e-12
4.63659e-12 2.81375e-12 -6.58889

-26.2006 -21.7277 -6.22228e-12
-21.7277 -5.36637 -1.10456e-12
-6.22228e-12 -1.10456e-12 -23.8663

-41.5948 14.1053 -1.25963e-11
14.1053 -3.55971 -5.16772e-12
-1.25963e-11 -5.16772e-12 -64.1218

-0.893725 9.44527 2.14495e-13
9.44527 -44.2568 -2.26811e-12
2.14495e-13 -2.26811e-12 -64.2233

-20.3836 32.7049 -3.79548e-13
32.7049 -23.2031 -4.52616e-12
-3.79548e-13 -4.52616e-12 -24.3288

-11.4121 26.0019 -1.18542e-12
26.0019 22.6043 -1.51938e-12
-1.18542e-12 -1.51938e-12 -5.92686

16.0387 26.6624 -1.5253e-12
26.6624 -17.2887 -4.30086e-12
-1.5253e-12 -4.30086e-12 -6.55089

30.4293 45.1885 1.10253e-12
45.1885 47.5567 3.56574e-12
1.10253e-12 3.56574e-12 -15.1953

-44.8865 -11.3426 5.08379e-12
-11.3426 -1.80783 3.79282e-12
5.08379e-12 3.79282e-12 -61.6783

-8.29808 -3.43234 1.72656e-11
-3.43234 -12.7532 -7.80013e-12
1.72656e-11 -7.80013e-12 -77.22

-14.6895 -0.209516 1.52752e-12
-0.209516 -6.41852 6.89782e-12
1.52752e-12 6.89782e-12 -77.3642

27.6666 -53.8051 1.51582e-12
-53.8051 71.1527 -2.63611e-12
1.51582e-12 -2.63611e-12 -24.389

-11.69 -11.5995 2.95379e-12
-11.5995 -16.205 -3.98792e-13
2.95379e-12 -3.98792e-13 -37.4283

-32.6098 8.81231 -7.02594e-12
8.81231 -9.4182 3.91065e-12
-7.02594e-12 3.91065e-12 -49.5373

18.2562 -26.2004 2.46618e-12
-26.2004 -19.5479 4.83465e-13
2.46618e-12 4.83465e-13 -6.50766

-39.4307 1.01061 -1.95773e-12
1.01061 11.9804 -5.26335e-12
-1.95773e-12 -5.26335e-12 -19.7215

-30.2037 -20.2687 1.00305e-12
-20.2687 6.30492 5.4771e-12
1.00305e-12 5.4771e-12 -7.21724

10.5363 6.25543 -2.8851e-12
6.25543 -52.3903 1.10364e-12
-2.8851e-12 1.10364e-12 -9.64065

-49.813 15.5963 1.55699e-12
15.5963 10.1649 9.42061e-13
1.55699e-12 9.42061e-13 -13.5316

-40.2848 7.19136 -3.19285e-12
7.19136 16.5414 -3.17553e-12
-3.19285e-12 -3.17553e-12 -13.7746

16.4048 20.3937 -2.269e-12
20.3937 -25.8422 -9.38213e-13
-2.269e-12 -9.38213e-13 -7.60864

-9.10034 -3.11391 -2.72826e-12
-3.11391 108.4 -3.44613e-12
-2.72826e-12 -3.44613e-12 -23.1014

-3.32095 -27.6249 -3.14001e-12
-27.6249 -3.62984 -3.3437e-12
-3.14001e-12 -3.3437e-12 -5.83111

-7.33542 -26.1172 2.24058e-12
-26.1172 -14.0826 -5.24588e-12
2.24058e-12 -5.24588e-12 -9.81148

-14.1988 -31.4837 -4.16289e-12
-31.4837 -21.7779 3.54605e-12
-4.16289e-12 3.54605e-12 -12.7562

90.7321 32.7513 -2.84217e-13
32.7513 20.9072 2.71842e-12
-2.84217e-13 2.71842e-12 -16.5055

-23.1159 -20.1161 -6.12429e-12
-20.1161 -17.3853 -7.44701e-12
-6.12429e-12 -7.44701e-12 -44.4242

72.6333 54.3246 -9.20863e-12
54.3246 91.6443 -3.61666e-12
-9.20863e-12 -3.61666e-12 -6.14167

-36.2159 -21.4392 6.41783e-12
-21.4392 -6.79682 2.80516e-12
6.41783e-12 2.80516e-12 -13.0436

15.034 14.6505 -2.60651e-12
14.6505 -37.7527 -7.36744e-13
-2.60651e-12 -7.36744e-13 -8.17971

44.574 -14.5732 4.78077e-12
-14.5732 -8.27354 -3.25843e-12
4.78077e-12 -3.25843e-12 -4.41959

-21.2316 24.0475 8.15585e-12
24.0475 4.95537 -8.19493e-13
8.15585e-12 -8.19493e-13 -5.97753

17.3733 20.4285 -5.53631e-13
20.4285 -26.7938 -4.46991e-12
-5.53631e-13 -4.46991e-12 -6.95249

-51.1394 11.3999 3.90939e-12
11.3999 7.71009 -3.29218e-12
3.90939e-12 -3.29218e-12 -29.9927

-7.28775 -31.5809 -1.83557e-12
-31.5809 -12.8273 -3.72028e-12
-1.83557e-12 -3.72028e-12 -8.12009

2.796 19.8123 -2.29801e-12
19.8123 -46.0325 2.2388e-12
-2.29801e-12 2.2388e-12 -29.9846

-24.6722 -18.4442 -1.05042e-12
-18.4442 17.8362 3.15481e-12
-1.05042e-12 3.15481e-12 -5.48123

-42.3413 4.28354 -4.05212e-12
4.28354 17.8694 -6.43041e-13
-4.05212e-12 -6.43041e-13 -12.7286

-4.09804 9.9272 -3.78956e-13
9.9272 -40.2743 2.33872e-12
-3.78956e-13 2.33872e-12 -47.5451

-2.68836 -8.5139 -7.31533e-12
-8.5139 -38.3056 2.57098e-12
-7.31533e-12 2.57098e-12 -47.4008

81.7262 18.5133 -3.50298e-12
18.5133 1.69941 -1.71833e-12
-3.50298e-12 -1.71833e-12 -14.4534

3.89501 7.96536 -1.83794e-12
7.96536 -45.1841 2.31963e-13
-1.83794e-12 2.31963e-13 -11.0191

35.8744 7.74095 -2.67179e-12
7.74095 184.58 1.95636e-12
-2.67179e-12 1.95636e-12 -9.75525

40.148 -11.3857 -6.09975e-12
-11.3857 190.378 -8.2423e-13
-6.09975e-12 -8.2423e-13 -7.38699

53.7677 56.4085 1.75978e-12
56.4085 159.261 5.63697e-13
1.75978e-12 5.63697e-13 -11.498

1.7083 -28.9511 -1.85629e-12
-28.9511 -24.6913 -1.44181e-12
-1.85629e-12 -1.44181e-12 -11.9634

16.0501 -49.1926 2.24295e-12
-49.1926 99.4231 1.0895e-13
2.24295e-12 1.0895e-13 -21.6886

54.5156 -55.951 -8.14756e-13
-55.951 149.978 1.84741e-12
-8.14756e-13 1.84741e-12 -13.6629

-2.16668 26.2214 -1.6082e-12
26.2214 17.5727 -2.02801e-12
-1.6082e-12 -2.02801e-12 -3.99707

134.944 73.8459 -1.0895e-13
73.8459 85.0283 -6.20541e-12
-1.0895e-13 -6.20541e-12 -10.157

-18.7209 13.0468 2.87711e-12
13.0468 -3.89956 -2.08663e-12
2.87711e-12 -2.08663e-12 -26.7682

3.7409 0.0404272 3.30876e-12
0.0404272 -26.1892 -4.29701e-12
3.30876e-12 -4.29701e-12 -26.7715

144.102 -73.1313 1.36424e-12
-73.1313 85.3558 2.74506e-12
1.36424e-12 2.74506e-12 -8.19419

-21.3945 -23.425 -6.4837e-14
-23.425 12.2479 -8.45546e-13
-6.4837e-14 -8.45546e-13 -6.49239

89.3498 34.7307 -1.6532e-12
34.7307 41.3914 1.83438e-12
-1.6532e-12 1.83438e-12 -11.5476

72.1905 63.4927 6.0254e-12
63.4927 149.698 9.42653e-13
6.0254e-12 9.42653e-13 -9.67161

26.1653 21.6311 -3.39166e-12
21.6311 100.137 1.52767e-12
-3.39166e-12 1.52767e-12 -13.0311

73.8774 -65.9216 -8.69231e-13
-65.9216 151.149 1.0895e-13
-8.69231e-13 1.0895e-13 -9.40009

25.7698 -12.3816 -9.91207e-13
-12.3816 105.016 6.53699e-13
-9.91207e-13 6.53699e-13 -12.428

-28.664 6.84074 3.37671e-12
6.84074 3.10725 4.12618e-12
3.37671e-12 4.12618e-12 -37.8509

37.744 -45.9769 8.92915e-13
-45.9769 49.6709 -3.5314e-12
8.92915e-13 -3.5314e-12 -15.5326

14.4447 47.5338 2.83151e-12
47.5338 94.8833 -3.50061e-12
2.83151e-12 -3.50061e-12 -22.1919

173.345 37.9126 -3.1406e-12
37.9126 48.0442 9.82917e-14
-3.1406e-12 9.82917e-14 -9.52028

7.02025 -29.2867 -2.76993e-12
-29.2867 -14.3591 5.30331e-12
-2.76993e-12 5.30331e-12 -7.15701

-38.4185 12.8965 8.74264e-13
12.8965 6.43549 5.23966e-12
8.74264e-13 5.23966e-12 -15.2908

88.5081 -38.1141 1.77636e-12
-38.1141 34.1641 6.3712e-12
1.77636e-12 6.3712e-12 -14.0992

6.04148 -28.803 -4.5078e-12
-28.803 -16.1731 3.29751e-12
-4.5078e-12 3.29751e-12 -8.03086

169.211 -36.3444 1.8711e-12
-36.3444 34.9312 -3.3662e-12
1.8711e-12 -3.3662e-12 -13.2882

-5.72556 -28.3183 1.38141e-12
-28.3183 -14.4737 2.49578e-13
1.38141e-12 2.49578e-13 -9.31033

-17.7919 -25.296 -1.16115e-12
-25.296 12.08 -3.00027e-12
-1.16115e-12 -3.00027e-12 -5.93553

118.88 69.4623 1.07529e-12
69.4623 96.2228 6.26462e-12
1.07529e-12 6.26462e-12 -11.3983

29.4139 -22.9338 -9.82917e-14
-22.9338 97.7999 3.79667e-12
-9.82917e-14 3.79667e-12 -14.3396

117.963 -71.6944 9.52127e-13
-71.6944 93.6842 -8.57388e-13
9.52127e-13 -8.57388e-13 -12.4143

22.2657 50.7393 -1.25399e-11
50.7393 73.7815 -5.41197e-12
-1.25399e-11 -5.41197e-12 -24.777

-1.53703 -30.2133 2.66927e-12
-30.2133 -6.55345 4.27599e-12
2.66927e-12 4.27599e-12 -6.99905

-7.04425 -14.6406 1.49984e-12
-14.6406 -21.9198 3.84877e-15
1.49984e-12 3.84877e-15 -32.6123

-11.8918 11.0916 5.098e-12
11.0916 -16.4286 3.97726e-12
5.098e-12 3.97726e-12 -77.7865

-26.1663 -5.16018 6.72055e-13
-5.16018 -6.38725 -5.32885e-12
6.72055e-13 -5.32885e-12 -77.6203

-38.9426 13.0838 1.06424e-12
13.0838 13.7444 -1.78109e-12
1.06424e-12 -1.78109e-12 -10.2397

-14.48 -10.666 -1.6509e-12
-10.666 -17.316 3.52266e-12
-1.6509e-12 3.52266e-12 -78.7491

-25.9001 4.09202 5.13249e-12
4.09202 -5.91372 -6.14853e-12
5.13249e-12 -6.14853e-12 -78.8913

-3.63311 7.43281 3.34251e-13
7.43281 -27.8585 -1.92572e-12
3.34251e-13 -1.92572e-12 -77.9787

-43.9727 -12.114 -6.93157e-12
-12.114 2.91617 -1.44852e-11
-6.93157e-12 -1.44852e-11 -68.1516

11.9735 -30.4716 7.72715e-13
-30.4716 76.1661 -1.63425e-12
7.72715e-13 -1.63425e-12 -14.7012

0.521254 -12.9721 7.919e-12
-12.9721 -39.9893 3.38544e-12
7.919e-12 3.38544e-12 -45.2736

-16.3486 -34.417 -7.15191e-12
-34.417 -22.0693 -4.88202e-13
-7.15191e-12 -4.88202e-13 -23.5894

-2.42111 -18.1772 1.16884e-12
-18.1772 -29.8944 3.17524e-12
1.16884e-12 3.17524e-12 -33.6245

12.7379 15.4598 2.0363e-12
15.4598 -37.7175 -4.65613e-12
2.0363e-12 -4.65613e-12 -9.62624

-46.9057 9.86339 2.77685e-12
9.86339 8.87687 -1.08453e-11
2.77685e-12 -1.08453e-11 -70.1471

3.46206 19.2264 2.06013e-12
19.2264 -41.4694 -4.0821e-12
2.06013e-12 -4.0821e-12 -70.2629

1.4716 11.3072 3.45294e-12
11.3072 -23.9645 -1.53226e-12
3.45294e-12 -1.53226e-12 -31.8658

109.397 -15.3402 -1.78109e-12
-15.3402 -12.5355 -1.63899e-12
-1.78109e-12 -1.63899e-12 -25.0366

-14.3218 24.9653 -4.15668e-12
24.9653 10.386 6.48962e-13
-4.15668e-12 6.48962e-13 -5.80601

76.6104 -61.3573 -2.73085e-12
-61.3573 37.3675 2.78533e-12
-2.73085e-12 2.78533e-12 -22.3946

76.117 -57.4595 -8.98837e-12
-57.4595 99.2323 2.15768e-12
-8.98837e-12 2.15768e-12 -5.55441

118.201 -36.5456 4.04062e-12
-36.5456 40.6024 8.08479e-12
4.04062e-12 8.08479e-12 -7.37784

-51.111 -5.15883 1.11792e-12
-5.15883 3.34011 4.80667e-12
1.11792e-12 4.80667e-12 -60.6548

-50.475 2.89131 1.4951e-12
2.89131 3.13438 -1.7808e-13
1.4951e-12 -1.7808e-13 -60.1275

-11.9753 -24.4547 -8.89659e-13
-24.4547 -35.001 -2.86956e-13
-8.89659e-13 -2.86956e-13 -59.1617

-8.99144 -21.7587 -8.43758e-12
-21.7587 -37.886 3.00115e-12
-8.43758e-12 3.00115e-12 -59.4713

-14.7022 26.1342 -2.56802e-12
26.1342 -33.0255 6.7321e-12
-2.56802e-12 6.7321e-12 -60.746

-18.1558 3.09829 8.68565e-12
3.09829 -13.1636 -4.08895e-12
8.68565e-12 -4.08895e-12 -75.4711

-9.94488 -20.5076 6.0858e-12
-20.5076 -32.6487 -3.20433e-12
6.0858e-12 -3.20433e-12 -56.7323

-26.646 -18.5673 -3.50298e-12
-18.5673 -14.1957 -1.58267e-11
-3.50298e-12 -1.58267e-11 -71.2657

-15.477 2.43365 1.2609e-11
2.43365 -12.852 6.19682e-12
1.2609e-11 6.19682e-12 -77.8654

-6.02726 -20.5247 3.31291e-12
-20.5247 -41.4848 -1.05723e-12
3.31291e-12 -1.05723e-12 -60.5022

-6.7565 20.9543 -1.57674e-12
20.9543 -40.1412 1.12799e-12
-1.57674e-12 1.12799e-12 -60.0134

-14.3144 -3.45761 -9.01501e-12
-3.45761 -11.3897 5.10599e-12
-9.01501e-12 5.10599e-12 -76.8799

-11.263 -3.11592 7.64618e-12
-3.11592 -17.6877 -7.13415e-12
7.64618e-12 -7.13415e-12 -74.043

-24.2017 12.1096 -1.03739e-12
12.1096 -13.4005 -1.58392e-13
-1.03739e-12 -1.58392e-13 -69.962

-22.0812 26.9282 1.09838e-13
26.9282 -26.2661 -4.7757e-12
1.09838e-13 -4.7757e-12 -57.5779

VECTORS fluid_flux_TPM float
-8.72283e-05 3.10318e-05 -9.66094e-21
3.55986e-06 6.88315e-06 -1.03185e-20
-1.27885e-05 -1.02264e-05 -3.07348e-21
-4.17093e-06 4.2544e-06 -6.7621e-21
2.27097e-05 -6.31386e-06 -2.8894e-20
2.75785e-06 -1.59049e-05 1.11841e-20
-8.58041e-05 -3.10965e-05 -1.61859e-21
-1.38935e-05 -1.04677e-05 8.72806e-22
2.21238e-05 9.45604e-07 9.52118e-21
1.1385e-05 -3.90843e-06 -5.50001e-21
5.46059e-05 1.24852e-05 6.10361e-21
2.3471e-06 -1.71956e-05 1.74505e-20
1.36127e-05 1.12548e-05 3.15897e-21
2.66233e-06 1.37858e-05 -3.21751e-21
2.05828e-05 -2.94692e-06 -3.60676e-21
-1.63338e-05 -2.72921e-07 3.07713e-21
2.75378e-06 1.41001e-05 -1.97312e-20
1.01827e-05 -2.3921e-06 1.11228e-20
9.89953e-06 1.72243e-05 -1.21939e-20
-1.48498e-05 1.88564e-06 -2.76242e-21
-3.60148e-06 -2.1306e-05 7.83044e-21
3.41146e-05 5.9424e-05 3.2649e-20
1.56989e-05 1.63145e-06 1.63951e-21
1.12284e-05 -1.12825e-05 1.4494e-20
-1.50798e-05 -3.33272e-06 4.43075e-21
-6.77272e-07 -1.11319e-05 2.1643e-21
6.29104e-05 -4.909e-06 -1.41669e-21
1.40674e-05 1.02498e-05 5.36145e-21
-2.51523e-05 -2.06451e-05 -2.52863e-20
4.91258e-05 -1.28154e-05 -1.08633e-20
-1.65841e-05 -6.03893e-06 1.78637e-20
5.53778e-06 -3.20404e-05 1.22739e-20
4.76602e-05 -4.80531e-05 1.5391e-20
-4.92394e-06 -4.12528e-05 4.56748e-21
-2.9677e-05 3.70099e-05 2.01735e-20
-3.82521e-05 -1.63971e-05 -1.20084e-21
3.27066e-05 4.32208e-05 -5.4885e-21
-4.47463e-05 -8.72696e-06 1.45713e-20
1.43762e-05 -1.10831e-05 2.94139e-20
4.64758e-05 5.01213e-05 1.90266e-21
3.21334e-05 -1.40237e-05 -2.76674e-20
3.36443e-05 -4.23488e-05 2.02914e-20
-1.98989e-05 -5.03848e-05 1.26389e-20
-1.58999e-05 6.35755e-06 -1.11216e-20
3.05293e-05 -2.9318e-05 6.83942e-22
-3.03364e-05 1.09917e-05 8.91152e-21
-4.05069e-06 -2.03732e-05 8.87971e-22
7.88714e-06 2.02144e-05 -4.55201e-21
-1.63446e-05 5.92862e-06 2.743e-20
-1.78221e-05 2.87296e-05 -1.93261e-20
3.24129e-05 1.52929e-05 -1.30036e-20
2.9369e-05 -1.00765e-05 -2.17372e-20
-1.56685e-05 1.57626e-05 1.01645e-20
-2.35445e-05 -2.06932e-05 -4.73663e-21
-2.11428e-05 -5.13315e-06 1.22888e-20
-4.47978e-05 2.708e-05 6.75086e-21
-2.93761e-05 -3.80285e-05 3.01091e-20
6.3644e-06 -3.06322e-05 2.90519e-20
-4.77147e-05 6.48382e-06 -6.54624e-21
6.07501e-06 1.3699e-05 1.01751e-20
-5.57765e-06 -8.17468e-06 -1.17901e-20
-6.58455e-06 -1.79464e-05 -1.98615e-20
5.71528e-05 2.48635e-05 7.68309e-21
9.2443e-06 1.81471e-05 -2.65487e-20
1.22985e-05 -1.44473e-05 1.95331e-21
-1.64083e-06 -2.07558e-05 -3.05226e-21
4.62184e-06 -8.80695e-06 -3.78135e-21
-1.00921e-05 -5.56579e-06 1.12013e-20
-1.06044e-05 1.19313e-05 4.69358e-21
2.55861e-06 -4.09326e-06 6.23064e-21
-1.50459e-05 -1.58458e-05 1.36063e-20
-2.13684e-05 5.16677e-06 -1.07681e-20
-3.55733e-06 3.44871e-05 -3.18689e-20
-1.78748e-05 1.07126e-05 -9.04037e-21
-9.07229e-06 1.46171e-05 -6.44649e-21
-6.03652e-05 7.6935e-06 -1.23715e-20
7.81937e-06 -2.16851e-05 1.23379e-20
-1.88833e-05 -8.90157e-06 1.43039e-20
1.93406e-06 1.1626e-05 5.75921e-21
2.63054e-05 5.09049e-06 -3.06223e-20
3.41748e-05 -2.89799e-05 -2.86369e-21
2.21501e-05 2.05596e-05 -1.86246e-20
1.19104e-05 -2.82281e-06 -2.75971e-21
-3.21593e-05 2.40713e-05 -6.99127e-21
3.79108e-05 4.84667e-06 -2.11618e-20
-4.98155e-06 4.94232e-05 -1.37127e-20
-1.74138e-06 -1.686e-05 1.85749e-21
1.8127e-05 9.95634e-06 -1.30694e-20
2.93225e-05 3.02909e-05 3.33166e-24
5.50341e-05 3.80199e-05 1.54981e-20
-5.3322e-06 3.07781e-05 -5.38617e-20
5.91899e-05 -3.55185e-05 -1.86001e-20
-2.71295e-05 5.3421e-06 1.99834e-20
1.78423e-05 1.10037e-05 -6.38173e-22
-2.96462e-05 9.90506e-06 3.41848e-21
1.66559e-05 2.85261e-05 1.01342e-20
1.01707e-05 -4.43943e-05 1.53829e-20
1.91582e-06 1.16228e-05 8.58956e-21
-1.48033e-05 -1.76232e-05 1.90387e-21
3.07044e-06 1.74777e-05 -1.49014e-20
2.64114e-05 5.25838e-06 -5.70434e-21
-1.54459e-05 3.3217e-05 -2.23581e-20
4.05592e-05 -1.33354e-05 -1.60441e-20
-3.7737e-06 7.45634e-06 -2.21595e-20
9.95456e-06 5.90032e-06 1.20293e-20
-2.28096e-06 -1.13265e-05 7.45452e-21
3.22123e-06 -1.92552e-05 -1.84899e-21
1.74724e-05 3.89275e-06 1.44088e-20
-7.93846e-06 4.09797e-05 -1.51791e-20
-9.80729e-06 2.47978e-07 -1.83063e-20
9.32014e-06 1.18878e-05 -9.0722e-21
-2.17754e-06 -4.17211e-05 1.32514e-21
4.20302e-05 1.28672e-05 1.21005e-20
4.42333e-06 -7.45447e-06 3.1085e-20
-1.11471e-05 -3.55425e-06 3.31815e-21
-2.93307e-05 -1.24882e-05 -5.68948e-21
1.58065e-05 4.11543e-05 5.61095e-21
-4.34926e-05 -1.55766e-05 1.41954e-20
1.60213e-05 -4.11309e-05 -9.82284e-21
-3.70039e-06 -3.19257e-05 5.30599e-21
2.18426e-05 6.52281e-07 7.19622e-21
-7.17272e-06 1.83998e-05 3.3039e-21
-1.61145e-06 3.97024e-06 -5.72131e-21
-3.68658e-06 -1.65416e-05 7.18865e-21
5.23088e-06 -8.30352e-06 -3.59159e-21
9.36111e-06 1.58663e-05 -1.087e-20
3.31068e-05 1.06542e-05 1.30037e-20
8.61696e-06 -7.45931e-06 1.65952e-20
-8.27227e-06 -4.51678e-05 7.68582e-21
2.55565e-05 -1.8823e-05 -2.17445e-20
4.97879e-06 2.7776e-05 -1.99419e-20
-2.81682e-06 -2.84209e-06 6.40377e-21
-8.62771e-06 -8.32725e-06 1.84039e-20
-4.77747e-06 4.41231e-08 -3.65465e-21
-2.28766e-05 2.85991e-05 -1.61653e-20
1.87663e-05 -3.73814e-05 3.52647e-20
-2.65845e-05 4.27219e-05 -1.45001e-20
-1.63746e-05 9.5369e-06 4.14821e-21
2.52838e-06 1.22009e-05 3.31873e-21
-2.29907e-05 -3.49953e-05 -4.06362e-21
1.39385e-05 3.34717e-05 -1.19104e-20
1.75107e-05 9.37078e-06 1.80007e-20
2.28153e-05 -8.52407e-06 1.03164e-20
-1.25338e-06 -1.12673e-05 -7.27883e-22
-3.39174e-05 -3.15634e-05 3.99237e-21
-2.75193e-06 1.13052e-05 -4.83336e-21
1.72496e-05 1.01734e-05 -6.15516e-21
1.88906e-05 -8.8223e-06 1.48114e-20
8.24457e-06 -1.43472e-05 1.21384e-20
2.4361e-05 -1.07971e-05 -6.07874e-21
1.90127e-05 -8.99935e-06 4.00538e-20
4.64141e-06 2.05844e-07 1.45446e-20
2.57449e-05 2.02245e-05 -3.05529e-21
-2.74206e-06 -1.70327e-05 -1.4815e-20
-1.04815e-05 -4.45774e-06 7.01097e-21
1.12605e-06 -3.89072e-06 8.15664e-21
-3.15556e-06 1.58496e-05 -1.74301e-20
-3.48892e-05 2.76858e-06 3.58977e-21
-1.21235e-05 -3.32638e-05 -6.34917e-21
-7.88036e-06 9.78063e-06 -1.92597e-20
1.35675e-05 1.66431e-05 1.00863e-21
2.65729e-05 -1.87477e-05 -4.91368e-21
-3.67984e-05 -2.03542e-05 -2.94797e-21
1.74059e-05 -2.75121e-05 -3.64251e-21
2.28077e-05 -2.7221e-05 -3.3642e-21
-1.09461e-05 3.78555e-06 5.71861e-21
-1.98322e-05 -2.8845e-05 -1.45155e-21
-3.48856e-05 -5.79238e-06 6.50258e-21
-3.85299e-06 -3.17479e-05 5.88746e-21
1.54502e-05 -3.17043e-05 1.8478e-21
-9.10762e-06 -2.62038e-05 2.78903e-23
4.58201e-06 3.14106e-05 -1.91688e-20
-1.57549e-05 -2.85268e-05 4.19276e-21
2.9393e-06 -1.62949e-05 -2.50706e-22
-2.47434e-05 1.82629e-05 1.39068e-20
-1.50332e-05 -1.21131e-05 -7.63217e-21
-2.73573e-05 -5.17329e-06 -1.61071e-21
1.56707e-05 -9.18308e-06 3.65131e-21
-4.30762e-06 2.39565e-05 1.98688e-20
1.22346e-05 -9.32602e-06 7.691e-21
-2.95908e-05 -1.31664e-05 -8.56015e-21
-8.83311e-06 -7.45933e-06 -1.04498e-20
9.0836e-06 7.54208e-06 7.73251e-21
2.14304e-05 2.87055e-05 -2.058e-20
-1.75118e-05 -1.08111e-05 2.57326e-21
-3.25116e-05 -7.5119e-07 1.34344e-20
-1.63394e-05 -5.017e-06 4.36551e-22
-4.57886e-06 -1.6586e-05 2.16899e-20
1.76876e-05 2.12427e-05 1.94695e-20
-1.09591e-05 5.87575e-06 8.44343e-21
6.36168e-07 -2.05587e-05 3.19059e-20
-4.19468e-05 1.08527e-05 8.086e-21
2.48647e-05 2.02497e-05 -1.25574e-20
3.79519e-06 3.27908e-05 -3.28351e-20
-2.43238e-06 3.79784e-06 1.91424e-20
-9.05243e-06 2.51247e-07 9.95229e-21
4.35583e-06 7.76138e-06 -4.49653e-21
-1.16959e-05 3.40203e-06 -2.35465e-20
-2.07371e-06 -3.78555e-06 1.68593e-20
1.66008e-06 2.07634e-05 -1.12977e-20
4.47316e-06 4.49768e-07 2.45099e-20
-1.95414e-05 4.75746e-06 4.65267e-21
-1.73013e-05 1.93613e-05 -1.58264e-20
-3.10796e-06 1.15801e-05 1.1838e-20
-2.92219e-05 1.83975e-05 -3.87323e-21
-9.34494e-06 8.98084e-06 -5.16865e-21
1.73141e-05 -1.16157e-05 5.1811e-22
3.66104e-05 -3.56529e-06 -1.72094e-20
-2.11443e-05 1.12993e-05 -8.26153e-21
2.23338e-06 4.499e-06 6.48074e-21
2.1779e-05 -4.34562e-06 3.58009e-21
-1.72818e-05 1.03546e-05 -1.67056e-20
-9.87347e-06 5.53998e-06 3.97456e-22
1.18334e-05 3.74334e-06 8.37343e-21
2.18836e-05 -1.34734e-05 -1.63048e-20
-1.7383e-05 9.95782e-06 -1.37343e-20
-2.50412e-05 -5.30396e-06 1.52931e-20
-1.67646e-05 -4.36323e-06 8.45282e-21
9.87791e-06 6.24877e-09 -8.09931e-21
1.01756e-05 1.95386e-07 1.95505e-20
4.39153e-06 8.31859e-06 -1.12416e-21
4.83039e-06 -8.79927e-06 1.93974e-20
-5.01121e-06 8.42127e-06 2.39376e-20
-5.26757e-06 -8.65908e-06 -2.37103e-21
9.91269e-06 -7.40926e-06 -7.99657e-21
-2.03309e-05 3.23546e-06 -1.18116e-20
-2.00633e-05 -3.28429e-06 1.20841e-21
-1.28369e-05 1.58792e-05 8.24304e-21
-1.29167e-05 -1.59335e-05 5.46546e-21
7.48753e-06 -1.98471e-05 -7.51121e-21
7.20723e-06 1.97672e-05 1.56036e-20
1.5581e-06 2.58894e-05 -1.35672e-20
1.12424e-05 -3.13736e-06 1.50655e-20
2.36032e-06 -3.86717e-06 6.5026e-21
-2.1415e-05 1.42193e-06 2.31484e-20
7.67847e-06 -1.95163e-05 -6.65871e-21
7.27465e-06 1.96649e-05 6.52014e-21
4.7696e-06 -5.2722e-08 -6.46256e-21
8.96974e-06 2.44072e-05 -1.88823e-20
-2.24265e-06 -4.01701e-06 -1.172e-20
2.31816e-06 -1.13189e-05 1.23752e-20
-2.24342e-05 -1.21536e-05 -6.5526e-21
-2.13615e-05 -1.14965e-05 -6.93094e-21
-2.18962e-05 1.36308e-05 -2.33688e-20
3.25177e-06 -1.22896e-05 -5.67099e-21
-1.56557e-06 3.38252e-06 -2.15538e-20
-5.87397e-07 -2.5573e-05 1.47975e-20
-7.72139e-06 -2.44266e-05 5.892e-21
3.27089e-05 3.0367e-05 9.8971e-21
3.54585e-05 -1.81546e-06 -1.93904e-20
-1.2713e-05 -3.63271e-06 -3.48214e-21
-2.28959e-05 -4.13921e-05 -7.6276e-22
8.30547e-06 1.37499e-05 3.18111e-21
-2.52395e-05 3.03376e-06 2.67785e-21
2.00681e-05 5.78724e-06 7.40297e-21
-4.53379e-06 -3.27447e-08 5.17717e-21
-4.66585e-06 -8.41395e-06 2.34231e-20
-7.07391e-06 -3.93384e-05 9.95834e-21
-9.70973e-06 -8.39364e-08 -3.41315e-20
-4.86813e-05 -1.81598e-06 5.09105e-21
1.73112e-05 -1.9108e-05 -3.81653e-21
2.42971e-06 3.99964e-06 1.86725e-20
-1.20631e-07 -1.75161e-05 1.32728e-20
-9.81978e-06 2.40873e-05 -3.02018e-20
-4.37265e-06 8.62861e-06 3.06288e-21
2.05591e-05 -1.36079e-05 2.74971e-21
-3.76641e-05 -1.35533e-05 4.72421e-21
-1.52678e-05 -2.03686e-05 -8.44131e-21
4.97774e-06 8.39019e-06 -1.30958e-20
1.66333e-05 5.16125e-06 2.47376e-20
-4.76449e-06 -7.33926e-06 -1.37688e-20
1.9799e-05 3.54765e-06 -2.34314e-21
1.81907e-05 -9.82699e-06 1.21023e-20
-3.4885e-07 2.7176e-05 -1.66817e-20
8.32137e-06 -1.36684e-05 2.67667e-20
4.88094e-05 2.20084e-06 -2.05455e-20
-4.23616e-05 1.14547e-05 5.70192e-21
2.28623e-05 1.15574e-05 3.01079e-20
-6.45356e-06 -1.71809e-05 -6.83333e-21
-1.53514e-05 -8.61898e-06 2.98738e-21
2.87901e-05 -2.10562e-07 -1.21987e-20
-6.92024e-07 -2.42571e-05 2.17975e-20
-1.26185e-05 -1.0875e-05 7.02189e-21
1.02248e-05 -2.35017e-05 -8.22781e-22
-4.96627e-07 2.05572e-05 -1.79098e-20
7.91841e-06 2.60699e-05 -5.38996e-21
1.72694e-05 -9.88509e-06 -4.08604e-21
-1.89495e-05 1.93002e-05 -1.79401e-20
1.65292e-05 2.0031e-05 3.96539e-21
-6.22356e-05 1.60232e-05 1.18116e-20
-1.01099e-05 2.60183e-05 -2.29371e-20
1.252e-05 -1.52495e-05 -3.7768e-21
-7.02964e-06 -1.83993e-05 2.97315e-21
-1.18545e-05 4.50605e-06 -3.56218e-21
-2.58954e-05 -7.04637e-06 1.42933e-20
-6.38661e-06 3.88609e-05 5.15352e-22
-1.26069e-05 1.19034e-05 1.7526e-21
2.07783e-05 -4.47594e-06 1.48008e-20
-6.87297e-06 -2.57962e-05 8.30762e-21
-1.48699e-05 2.38929e-05 -1.00247e-20
-2.17906e-05 1.25658e-05 1.76872e-20
-2.05711e-05 -1.50566e-05 -1.02924e-20
1.803e-05 -2.06566e-05 -1.0618e-20
-2.75329e-05 -1.45636e-06 1.30576e-20
1.23682e-05 -4.08134e-05 1.11747e-21
1.93878e-05 -1.89146e-05 5.13471e-21
2.47346e-05 4.30852e-05 -3.14742e-20
1.9713e-06 1.9868e-05 -2.88125e-20
2.96137e-06 -2.54232e-05 7.94322e-21
-4.16396e-05 4.69655e-05 5.52669e-21
-1.27031e-05 -2.44135e-05 1.75826e-20
1.63681e-05 -6.42103e-06 1.32532e-20
-2.41104e-06 2.57743e-05 -3.78246e-20
1.2884e-05 -1.18274e-05 -8.26731e-22
1.38817e-05 2.43149e-05 2.9028e-21
1.72312e-05 -1.4006e-06 -1.36148e-20
2.2122e-05 -6.32215e-05 1.40007e-20
-5.87656e-06 -1.28602e-05 -1.2792e-20
-2.31862e-05 1.00879e-05 -5.39784e-21
-2.00215e-05 1.87204e-05 1.03146e-20
2.1614e-05 1.45688e-05 6.25094e-21
1.86741e-05 -1.07575e-05 1.67159e-20
1.49531e-05 1.25944e-05 -1.78568e-22
-5.42854e-06 4.55282e-08 -3.50549e-21
1.54048e-05 -2.3089e-05 -1.08532e-21
-1.69916e-05 -2.04108e-05 -1.89841e-21
2.25636e-05 9.77446e-06 -5.84811e-22
1.28076e-05 -1.19907e-05 1.80386e-20
9.55472e-06 -2.48537e-05 1.56415e-20
1.66605e-05 -6.93342e-06 -1.41375e-20
-1.58067e-05 -7.54523e-06 1.71785e-20
1.29696e-06 -2.6305e-05 1.11907e-20
-2.61088e-05 4.47344e-06 3.13472e-21
2.39063e-06 2.45447e-05 -1.52646e-20
2.05866e-05 6.62797e-06 -4.74634e-21
-2.17222e-05 -1.07027e-05 1.45082e-20
-8.97788e-06 2.56121e-05 -1.59474e-20
-1.49547e-06 -2.41899e-05 -4.00236e-21
1.9468e-05 1.18383e-05 9.23378e-21
-1.76909e-06 1.80862e-05 -7.61096e-21
-2.01404e-05 1.37037e-05 -2.21947e-20
2.35128e-05 1.14161e-05 -1.65437e-20
-1.71166e-05 -9.98645e-06 1.46886e-20
9.5131e-08 -1.98364e-05 1.8704e-20
1.83839e-05 1.99859e-05 2.12578e-21
-2.21557e-05 -1.43049e-05 6.32038e-21
4.83554e-05 -3.3985e-05 -7.86833e-21
1.78986e-05 -1.08234e-05 1.51373e-20
9.00279e-06 4.30911e-05 -2.49956e-20
1.70357e-05 -1.36799e-05 3.524e-21
-1.98761e-05 8.70442e-05 4.96889e-22
-1.97662e-05 -8.65584e-05 -1.40326e-20
5.71903e-05 7.17242e-05 7.02189e-21
5.69279e-05 -7.13979e-05 3.51061e-22
9.0656e-05 -1.50748e-10 1.46007e-20
-7.82088e-05 3.76435e-05 3.03138e-23
-7.74631e-05 -3.72875e-05 -1.79376e-20
1.22351e-05 1.18199e-05 -4.05039e-22
2.9371e-05 2.18946e-05 2.67261e-20
1.14494e-05 3.33317e-06 -2.03742e-20
1.88577e-05 9.75253e-06 -4.837e-21
4.9898e-06 2.01723e-05 7.65157e-21
-1.88339e-05 -1.4982e-05 1.35502e-20
1.70398e-05 -1.02153e-05 2.87008e-21
1.98547e-05 1.45509e-05 -9.13618e-21
-3.16725e-06 2.43667e-05 -2.74567e-20
2.94438e-05 -1.9995e-05 7.49362e-21
3.79436e-06 -2.37424e-05 3.45911e-21
2.19633e-05 5.22761e-06 -1.64406e-21
2.98991e-05 1.10272e-05 -6.63688e-21
1.42103e-05 1.41454e-05 -7.05224e-21
1.5885e-05 6.59442e-06 -1.06881e-20
-1.85008e-05 1.09378e-05 9.68217e-21
-2.25657e-05 9.03768e-06 -5.78771e-21
2.29321e-05 -1.12647e-05 2.01483e-21
-1.827e-05 -9.99915e-06 1.75341e-20
-1.85565e-05 -1.05837e-05 2.06697e-20
-3.43867e-07 -2.07701e-05 -2.33103e-20
-8.61232e-08 -2.11632e-05 -2.61751e-21
-2.01294e-05 -1.00559e-06 1.01172e-20
2.67021e-05 -4.01961e-06 -1.58779e-20
1.81141e-05 1.13435e-05 6.53469e-21
-1.78663e-05 1.09464e-05 9.2162e-21
-1.53632e-05 1.66256e-05 1.27456e-20
1.6024e-05 -1.37548e-05 1.92109e-20
-1.10248e-05 1.74655e-05 -4.32132e-21
-1.42266e-05 -1.48914e-05 1.70745e-20
-1.15535e-06 2.12132e-05 -2.01808e-20
-1.28781e-06 2.09708e-05 -4.36497e-21
8.97592e-08 -1.98364e-05 2.4704e-20
6.11159e-06 -1.97397e-05 1.41635e-20
-1.7143e-05 -9.9367e-06 2.36714e-20
1.55887e-05 -5.49094e-06 -7.68828e-22
6.63276e-07 2.14804e-05 -6.48226e-21
3.00903e-07 1.85098e-05 -1.78816e-20
-2.34601e-06 1.68594e-05 -1.82663e-20
2.19115e-05 -5.52808e-06 1.8061e-20
-1.65433e-05 5.37875e-06 -4.0333e-21
4.158e-06 2.15201e-05 6.65628e-21
-3.25624e-05 1.29209e-05 1.58461e-20
9.76469e-06 4.17367e-05 -1.68966e-20
-1.70556e-05 4.56872e-06 -5.19926e-22
1.96869e-05 -1.16316e-05 7.43573e-21
9.45921e-07 2.10222e-05 -5.0583e-21
-2.04839e-05 6.70029e-06 2.05952e-20
2.44443e-06 -1.62646e-05 1.72404e-20
1.81969e-06 -5.80201e-05 -8.80025e-21
2.00675e-06 1.74885e-05 -3.84807e-21
-1.69642e-05 1.40244e-05 -1.56181e-20
1.78566e-05 6.39801e-05 -1.95571e-21
4.57752e-05 3.77117e-05 7.76255e-21
5.20718e-05 -3.52603e-05 2.94462e-21
1.48174e-05 -1.01685e-05 8.6208e-21
-1.57876e-05 1.40395e-05 -9.86892e-21
-2.02196e-05 -7.92177e-06 1.01718e-20
-1.96483e-05 -6.82334e-06 6.30704e-21
5.9275e-05 -2.46152e-05 -2.31115e-20
5.74414e-05 2.38741e-05 2.82707e-20
1.0896e-05 3.81799e-06 6.12211e-21
7.66762e-07 1.9582e-05 5.52456e-21
7.83933e-08 1.95633e-05 1.88628e-21
-4.83895e-05 -3.69242e-05 2.51505e-21
1.14267e-05 -1.71743e-05 -7.97806e-21
1.17349e-05 1.24664e-05 -6.84031e-21
-2.14211e-05 -3.39622e-06 1.57697e-20
-1.40469e-05 1.72045e-05 6.27731e-21
-1.88912e-05 9.16906e-06 1.52346e-20
4.765e-05 3.36989e-05 4.12788e-21
1.58087e-05 7.06263e-06 1.78785e-23
-5.56751e-06 2.00332e-05 -1.80307e-20
-1.69804e-05 -1.17509e-05 1.95887e-20
1.85654e-06 -2.05458e-05 1.43767e-20
-8.95098e-06 -1.927e-05 2.51718e-21
-1.72516e-05 -1.17752e-05 -3.47427e-21
1.05811e-05 -1.89385e-05 -4.81848e-21
1.41245e-05 -1.69917e-05 6.16122e-21
-2.44057e-06 -6.14463e-05 -1.2032e-20
2.6184e-05 -4.11315e-05 1.52131e-20
1.74777e-06 -2.07886e-05 7.19077e-21
1.79613e-05 1.1357e-05 -2.59632e-21
-1.44784e-05 -1.49075e-05 2.82489e-21
-9.84248e-06 1.9713e-05 -2.78548e-20
-5.04013e-06 2.10098e-05 -3.56046e-20
1.66297e-05 1.42458e-05 5.08951e-21
6.05992e-06 -1.98643e-05 1.95053e-20
-1.34083e-05 -4.0364e-05 -5.13651e-21
-1.98865e-06 2.50441e-05 -2.24445e-20
1.4794e-05 1.44572e-05 -9.00914e-21
-1.29602e-05 -1.02182e-05 2.00386e-22
-1.3517e-05 1.06098e-05 -1.63321e-20
4.43494e-05 -1.8916e-05 -4.70783e-21
7.56419e-06 -1.34021e-05 4.08243e-21
-8.31838e-06 -1.26289e-05 -7.44572e-21
2.13337e-05 6.36443e-06 2.08865e-20
1.0996e-05 -5.06695e-05 1.7388e-20
-3.84572e-05 -3.49082e-05 -2.92676e-21
2.33102e-05 6.20831e-06 1.24175e-21
-9.32961e-06 -1.82839e-05 4.60325e-21
1.87084e-05 9.48419e-06 -3.31997e-21
-2.85687e-05 -3.25563e-05 2.12973e-21
9.68965e-06 5.00543e-05 1.61641e-20
3.43393e-05 -5.98687e-05 2.23856e-21
-3.47424e-05 -5.97855e-05 2.6392e-20
2.78128e-05 -5.20299e-05 -1.33535e-20
-1.27e-05 4.36397e-05 3.74985e-21
-6.277e-06 3.89833e-05 9.6388e-21
-1.87335e-05 8.94724e-06 1.09636e-20
5.97812e-06 2.42458e-05 -1.52828e-20
-2.39192e-06 1.26559e-05 -1.38631e-20
1.01217e-05 3.23362e-06 3.76831e-22
-3.18893e-06 1.62079e-05 -4.35708e-21
-2.47473e-07 2.09949e-05 -1.24204e-20
1.66631e-05 9.75203e-06 -7.31416e-21
1.71076e-06 5.77329e-05 -3.57552e-21
-1.47194e-05 1.07343e-05 -1.20359e-20
1.59518e-05 -6.24753e-06 1.04958e-21
1.68744e-05 -4.50963e-06 -2.97947e-21
-6.0672e-05 -8.77024e-06 1.07987e-21
-3.46109e-05 1.6744e-05 1.44585e-20
-4.35212e-05 -5.25543e-05 6.27763e-21
8.65782e-06 8.34693e-06 1.07894e-21
1.4212e-05 7.29363e-06 -5.74315e-21
2.68087e-05 -4.19648e-06 1.08621e-20
-8.10558e-06 -1.32448e-05 -1.04125e-20
1.72191e-05 8.42986e-06 -6.18153e-21
7.33644e-06 -3.00391e-05 1.8396e-20
-1.37157e-05 1.02065e-05 -1.27338e-20
-2.23777e-05 -2.14255e-05 -1.95722e-21
-5.83682e-06 1.63001e-05 -2.32191e-20
-3.27146e-06 2.06816e-05 -2.5712e-20
3.38548e-05 2.12996e-05 1.26026e-20
3.61186e-05 -1.92857e-05 -7.63066e-21
-4.20768e-05 -1.16248e-05 1.27181e-20
7.6353e-06 7.68687e-06 -2.05752e-20
-4.05886e-06 0.000101376 9.33291e-21
8.62173e-07 -0.000104483 2.16766e-22
5.24623e-05 8.76577e-05 -8.72538e-21
-1.91057e-05 8.45915e-06 -1.11398e-20
-2.63802e-05 5.65581e-05 9.45145e-21
5.30407e-05 -8.4652e-05 1.23631e-21
-1.17222e-05 -1.82851e-05 8.55772e-21
7.80113e-05 6.75072e-05 7.00219e-21
2.39971e-05 -1.79794e-05 1.10998e-20
-3.60795e-06 -2.98265e-05 1.18249e-20
8.17905e-05 -6.58596e-05 3.05135e-21
-6.74559e-06 1.45205e-05 -1.32916e-20
-5.38401e-05 -3.48292e-05 -7.31324e-21
-4.30194e-05 -9.31438e-05 -8.36127e-21
-2.41159e-05 -5.78127e-05 -2.70847e-21
-4.39811e-05 9.41509e-05 -1.21969e-20
-1.00946e-05 6.40932e-05 -6.61535e-21
1.5635e-05 3.71136e-05 1.65132e-21
-2.79593e-05 3.72461e-05 2.34225e-21
-2.52764e-05 -5.51916e-05 -1.36312e-20
0.00010038 1.73194e-05 4.61659e-21
-1.69299e-05 1.07686e-05 1.11382e-21
-5.91318e-06 1.63354e-05 -1.11743e-20
-5.07655e-05 3.76455e-05 1.35484e-21
-1.72787e-05 9.94557e-06 -1.10625e-20
9.92168e-05 -1.52654e-05 -5.96112e-21
-1.53624e-05 7.79984e-06 -1.19501e-20
7.19367e-06 -1.4497e-05 1.39871e-20
-7.79806e-05 -6.09574e-05 -1.24919e-20
-2.58825e-05 5.77256e-05 -6.9361e-21
-7.91336e-05 6.03845e-05 -2.28243e-20
2.45439e-05 5.19576e-05 4.04482e-21
-1.47697e-05 1.0584e-05 -1.64615e-20
-2.05328e-05 2.44801e-05 1.40059e-20
-2.85367e-05 4.9825e-05 2.83986e-20
-5.67841e-05 2.0803e-07 -4.15244e-21
-9.44222e-07 1.62984e-05 -1.88529e-20
-2.88537e-05 -5.04137e-05 1.17188e-20
-5.82067e-05 -2.1986e-07 2.79881e-21
-2.83536e-05 4.87032e-05 -1.24297e-22
-1.51925e-05 6.62756e-05 2.06564e-20
-1.78672e-05 4.12665e-05 -1.61793e-20
-3.39051e-05 2.71413e-05 2.41207e-20
2.43864e-05 -6.0578e-06 1.83685e-20
3.80081e-05 -2.19561e-06 1.31725e-20
1.34843e-05 8.20147e-06 1.88477e-20
-1.04706e-05 -7.39982e-05 2.30884e-20
-6.94588e-05 -2.79782e-05 1.09285e-20
3.71375e-05 7.32827e-07 -1.51855e-20
5.83744e-05 -1.08936e-05 8.45344e-21
-1.05852e-05 -1.3499e-05 -1.70424e-20
-5.08359e-05 3.76313e-05 -2.32457e-20
-4.61402e-05 5.4008e-05 -1.14526e-20
6.23715e-05 -2.22355e-05 -1.66225e-20
-2.81814e-05 -5.05043e-05 4.39497e-21
-2.87812e-05 4.97866e-05 3.31698e-20
-5.72626e-05 -1.17133e-06 -4.48836e-21
-2.65771e-05 5.0605e-05 9.91427e-23
-5.79614e-05 -8.17122e-07 2.34466e-21
6.60856e-05 1.73949e-05 2.08153e-21
5.63883e-05 1.29271e-06 1.74956e-20
5.09074e-05 -2.9278e-05 -7.88289e-21
2.49138e-05 -5.94356e-05 -1.93634e-20
2.99228e-05 -4.88638e-05 -1.24998e-20
2.91716e-05 4.86877e-05 -8.9861e-21
2.43485e-05 5.80977e-05 7.13528e-21
7.58132e-05 -2.00405e-05 1.017e-20
4.6273e-05 2.90674e-05 1.55927e-20
4.66309e-05 1.37474e-05 2.43078e-21
TENSORS solid_stress_TPM float
375.044 -24.9209 -6.25278e-13
-24.9209 238.577 2.25005e-14
-6.25278e-13 2.25005e-14 197.824

457.021 -21.3205 -5.13412e-12
-21.3205 490.006 2.77112e-13
-5.13412e-12 2.77112e-13 487.127

454.896 28.0444 4.47109e-12
28.0444 463.726 2.63493e-13
4.47109e-12 2.63493e-13 458.475

455.046 -29.8426 -1.38896e-12
-29.8426 482.628 1.10963e-12
-1.38896e-12 1.10963e-12 484.874

527.7 19.9309 -2.01942e-12
19.9309 548.467 -1.00105e-12
-2.01942e-12 -1.00105e-12 527.371

437.327 -18.0752 -1.80774e-12
-18.0752 480.356 -4.1922e-13
-1.80774e-12 -4.1922e-13 458.056

372.338 26.4851 1.42109e-13
26.4851 239.097 9.01205e-13
1.42109e-13 9.01205e-13 197.809

473.669 29.9586 -1.73787e-12
29.9586 469.518 5.40012e-13
-1.73787e-12 5.40012e-13 472.354

471.566 5.48335 1.52885e-12
5.48335 417.838 2.22022e-12
1.52885e-12 2.22022e-12 432.811

504.277 -7.4776 2.36463e-12
-7.4776 444.129 -2.34412e-12
2.36463e-12 -2.34412e-12 483.469

360.306 16.3094 3.68061e-12
16.3094 247.663 -1.42109e-12
3.68061e-12 -1.42109e-12 233.653

444.798 -13.4536 -7.41481e-13
-13.4536 498.403 -1.15759e-12
-7.41481e-13 -1.15759e-12 472.255

466.884 27.834 -5.53987e-12
27.834 468.319 5.19288e-13
-5.53987e-12 5.19288e-13 466.751

457.053 -14.3405 -3.44441e-12
-14.3405 500.451 -9.20153e-13
-3.44441e-12 -9.20153e-13 483.474

512.951 33.3102 2.55203e-13
33.3102 511.612 2.75213e-12
2.55203e-13 2.75213e-12 515.24

489.19 0.561027 1.28194e-12
0.561027 435.539 4.28611e-13
1.28194e-12 4.28611e-13 462.288

457.6 -17.969 3.20273e-12
-17.969 512.902 5.12982e-12
3.20273e-12 5.12982e-12 493.613

493.975 -2.6652 -6.43337e-13
-2.6652 439.065 -9.74332e-13
-6.43337e-13 -9.74332e-13 474.28

418.808 26.6751 -5.04249e-12
26.6751 449.676 -3.59002e-12
-5.04249e-12 -3.59002e-12 424.068

481.999 -4.1958 -2.80783e-12
-4.1958 424.937 -4.44356e-12
-2.80783e-12 -4.44356e-12 453.49

425.311 8.66912 -2.02371e-12
8.66912 481.92 -1.28786e-12
-2.02371e-12 -1.28786e-12 444.857

634.131 6.28686 -2.22056e-11
6.28686 633.968 -8.933e-12
-2.22056e-11 -8.933e-12 570.327

479.17 1.87604 -2.77289e-12
1.87604 422.955 1.73787e-12
-2.77289e-12 1.73787e-12 449.748

447.178 -27.7164 -3.78127e-12
-27.7164 461.167 -5.3042e-12
-3.78127e-12 -5.3042e-12 452.964

481.066 6.84965 -2.64085e-12
6.84965 425.456 9.61749e-13
-2.64085e-12 9.61749e-13 452.954

449.774 19.1133 1.41931e-12
19.1133 490.335 -1.57711e-12
1.41931e-12 -1.57711e-12 478.222

377.667 4.1816 2.71664e-12
4.1816 291.663 -2.05347e-12
2.71664e-12 -2.05347e-12 259.011

462.701 30.7469 -4.93176e-12
30.7469 460.73 -4.08592e-12
-4.93176e-12 -4.08592e-12 460.561

384.954 37.0765 -1.57504e-12
37.0765 383.534 -1.84623e-12
-1.57504e-12 -1.84623e-12 348.431

586.95 10.3235 -1.60405e-12
10.3235 563.461 -1.58096e-13
-1.60405e-12 -1.58096e-13 546.884

491.705 14.2171 5.20473e-13
14.2171 442.513 2.67978e-12
5.20473e-13 2.67978e-12 465.872

352.867 -17.7814 -6.762e-13
-17.7814 416.739 6.22672e-12
-6.762e-13 6.22672e-12 348.602

331.028 -42.1036 -4.2751e-12
-42.1036 335.884 -2.55559e-12
-4.2751e-12 -2.55559e-12 253.491

531.42 5.98611 3.69352e-12
5.98611 586.898 1.71596e-12
3.69352e-12 1.71596e-12 538.594

554.033 -4.8397 1.48355e-12
-4.8397 582.08 5.23433e-12
1.48355e-12 5.23433e-12 542.524

577.996 21.0276 5.41493e-13
21.0276 539.958 -6.80907e-12
5.41493e-13 -6.80907e-12 538.362

556.194 5.06652 9.49463e-13
5.06652 600.682 3.3434e-12
9.49463e-13 3.3434e-12 547.981

573.784 -9.17039 -3.02366e-12
-9.17039 555.775 1.00705e-12
-3.02366e-12 1.00705e-12 540.65

467.144 -27.9991 -1.99781e-12
-27.9991 466.508 -4.81985e-12
-1.99781e-12 -4.81985e-12 465.123

330.413 41.5228 -1.85689e-12
41.5228 337.982 -3.25902e-12
-1.85689e-12 -3.25902e-12 253.85

414.54 -17.9501 -5.4996e-12
-17.9501 354.499 3.84108e-12
-5.4996e-12 3.84108e-12 346.333

559.315 -3.70522 1.18439e-12
-3.70522 599.931 -1.4837e-12
1.18439e-12 -1.4837e-12 548.395

586.421 19.5541 2.85401e-12
19.5541 572.463 -1.74142e-12
2.85401e-12 -1.74142e-12 548.184

490.91 -12.2735 -2.96415e-12
-12.2735 442.868 -3.07117e-12
-2.96415e-12 -3.07117e-12 466.544

341.719 -43.3012 -4.15668e-13
-43.3012 345.347 -6.13198e-12
-4.15668e-13 -6.13198e-12 288.986

417.566 -18.0643 1.3903e-12
-18.0643 357.117 -2.48749e-12
1.3903e-12 -2.48749e-12 351.506

413.02 17.0865 2.08426e-13
17.0865 464.791 -3.19271e-12
2.08426e-13 -3.19271e-12 428.734

429.636 19.3399 -5.47917e-12
19.3399 466.521 9.82917e-14
-5.47917e-12 9.82917e-14 437.087

486.789 -16.3016 -2.14051e-12
-16.3016 432.882 -1.5099e-14
-2.14051e-12 -1.5099e-14 458.685

355.586 -34.1872 -1.83912e-12
-34.1872 389.407 2.04873e-13
-1.83912e-12 2.04873e-13 332.573

410.258 19.1828 -7.44886e-13
19.1828 350.706 1.92557e-12
-7.44886e-13 1.92557e-12 339.482

425.208 -25.2897 -1.83083e-12
-25.2897 383.826 -5.91112e-12
-1.83083e-12 -5.91112e-12 373.082

519.926 19.4848 8.88178e-14
19.4848 547.537 -8.05874e-13
8.88178e-14 -8.05874e-13 525.737

416.419 29.6509 3.1027e-13
29.6509 393.892 7.22385e-14
3.1027e-13 7.22385e-14 373.946

522.182 -21.8127 -2.65802e-12
-21.8127 541.401 5.26875e-13
-2.65802e-12 5.26875e-13 524.384

364.076 -42.7132 5.36223e-12
-42.7132 343.287 1.42938e-12
5.36223e-12 1.42938e-12 289.703

553.455 5.45868 2.44175e-12
5.45868 583.873 -1.50546e-12
2.44175e-12 -1.50546e-12 542.898

373.722 -5.33009 -6.8067e-12
-5.33009 436.67 -1.64609e-12
-6.8067e-12 -1.64609e-12 373.83

580.821 10.3844 -9.80845e-13
10.3844 556.175 6.25403e-12
-9.80845e-13 6.25403e-12 542.655

435.064 21.4139 -4.60017e-12
21.4139 473.77 -1.17121e-12
-4.60017e-12 -1.17121e-12 454.68

513.582 5.7543 3.54383e-13
5.7543 452.816 1.49717e-12
3.54383e-13 1.49717e-12 494.874

522.467 11.4589 1.95103e-13
11.4589 487.87 -8.97356e-13
1.95103e-13 -8.97356e-13 507.087

383.712 31.821 4.61853e-13
31.821 315.198 -7.28306e-13
4.61853e-13 -7.28306e-13 269.875

482.096 -6.03561 -2.72863e-12
-6.03561 528.19 1.96583e-12
-2.72863e-12 1.96583e-12 504.109

487.105 9.5201 -5.92311e-12
9.5201 523.699 1.96643e-12
-5.92311e-12 1.96643e-12 507.505

456.468 -2.88114 2.1864e-13
-2.88114 520.167 2.81849e-12
2.1864e-13 2.81849e-12 487.817

464.465 23.4017 -1.68029e-12
23.4017 503.48 5.99816e-13
-1.68029e-12 5.99816e-13 495.451

496.759 8.46383 -1.3977e-12
8.46383 444.408 2.34213e-12
-1.3977e-12 2.34213e-12 477.709

445.517 -28.2405 1.96051e-12
-28.2405 459.539 -5.68671e-12
1.96051e-12 -5.68671e-12 451.177

501.693 -1.71137 -2.28129e-12
-1.71137 444.928 -3.73457e-12
-2.28129e-12 -3.73457e-12 489.079

519.539 -19.2608 2.85668e-12
-19.2608 546.83 3.50534e-13
2.85668e-12 3.50534e-13 525.471

523.311 21.3078 2.79273e-12
21.3078 542.926 5.47356e-12
2.79273e-12 5.47356e-12 525.273

353.418 -16.5843 -1.85807e-12
-16.5843 415.746 2.23229e-12
-1.85807e-12 2.23229e-12 346.121

506.031 -27.9365 8.52651e-14
-27.9365 485.319 1.01045e-12
8.52651e-14 1.01045e-12 493.89

449.731 -25.1355 2.63641e-12
-25.1355 471.232 -2.50703e-12
2.63641e-12 -2.50703e-12 458.588

357.878 -31.7119 -1.6603e-12
-31.7119 285.682 -4.06786e-13
-1.6603e-12 -4.06786e-13 249.864

498.508 3.22284 4.52238e-12
3.22284 541.414 6.03428e-12
4.52238e-12 6.03428e-12 513.651

501.737 28.9444 -7.57912e-14
28.9444 474.56 3.01389e-13
-7.57912e-14 3.01389e-13 487.668

448.455 19.6645 -2.76623e-12
19.6645 492.12 3.66285e-12
-2.76623e-12 3.66285e-12 477.654

440.204 7.99993 -5.22841e-12
7.99993 373.046 3.89229e-12
-5.22841e-12 3.89229e-12 382.944

386.461 -33.9371 1.02437e-12
-33.9371 360.215 -6.23857e-12
1.02437e-12 -6.23857e-12 319.444

537.726 -10.5872 -3.37123e-12
-10.5872 556.146 -6.93963e-13
-3.37123e-12 -6.93963e-13 531.257

482.668 23.8998 -4.49122e-13
23.8998 504.57 1.62761e-12
-4.49122e-13 1.62761e-12 502.053

385.382 -32.3854 -2.48453e-12
-32.3854 345.315 5.26986e-13
-2.48453e-12 5.26986e-13 317.089

422.209 10.7916 -7.78044e-13
10.7916 363.86 -6.82713e-13
-7.78044e-13 -6.82713e-13 350.262

307.659 -21.207 1.20407e-12
-21.207 388.453 -5.13249e-12
1.20407e-12 -5.13249e-12 288.123

434.455 14.426 -1.57563e-12
14.426 488.681 -1.53063e-12
-1.57563e-12 -1.53063e-12 460.895

509.732 23.1438 -3.74811e-13
23.1438 475.182 5.85398e-12
-3.74811e-13 5.85398e-12 489.957

338.249 42.2007 3.1027e-12
42.2007 349.58 -7.50807e-13
3.1027e-12 -7.50807e-13 288.959

634.217 16.5062 1.08479e-11
16.5062 603.072 -2.92018e-12
1.08479e-11 -2.92018e-12 565.331

372.898 -4.10858 -2.66513e-12
-4.10858 436.83 4.14483e-14
-2.66513e-12 4.14483e-14 373.437

637.123 -16.6314 5.23218e-12
-16.6314 599.543 2.64603e-12
5.23218e-12 2.64603e-12 564.838

533.948 -27.3348 2.19676e-12
-27.3348 507.249 -3.67158e-12
2.19676e-12 -3.67158e-12 515.724

505.308 27.4249 -4.02049e-13
27.4249 466.345 -6.66134e-13
-4.02049e-13 -6.66134e-13 485.083

426.938 -24.4118 -2.02978e-12
-24.4118 386.249 -1.58866e-12
-2.02978e-12 -1.58866e-12 375.989

358.946 31.3248 -4.55399e-12
31.3248 396.016 4.55339e-12
-4.55399e-12 4.55339e-12 339.21

339.833 -10.7056 4.6659e-12
-10.7056 408.403 -5.40249e-12
4.6659e-12 -5.40249e-12 319.114

453.118 21.971 5.90491e-13
21.971 494.692 3.14149e-12
5.90491e-13 3.14149e-12 483.181

533.124 16.7946 2.92566e-12
16.7946 506.208 1.32368e-12
2.92566e-12 1.32368e-12 513.364

443.465 15.1545 -3.71362e-12
15.1545 488.454 -4.78432e-13
-3.71362e-12 -4.78432e-13 464.295

451.495 15.9545 -9.27258e-13
15.9545 400.548 5.31012e-12
-9.27258e-13 5.31012e-12 403.759

374.499 -21.4736 -6.15567e-12
-21.4736 419.88 2.13163e-13
-6.15567e-12 2.13163e-13 357.208

389.734 -29.392 4.16615e-12
-29.392 342.379 3.58054e-12
4.16615e-12 3.58054e-12 314.4

454.98 -24.5735 7.40445e-13
-24.5735 480.079 3.74811e-12
7.40445e-13 3.74811e-12 478.384

466.44 27.4517 -5.37437e-12
27.4517 478.757 2.99879e-12
-5.37437e-12 2.99879e-12 479.823

452.231 23.1879 2.34894e-12
23.1879 492.574 -3.86358e-13
2.34894e-12 -3.86358e-13 482.057

466.309 13.169 3.2902e-12
13.169 529.789 7.68985e-12
3.2902e-12 7.68985e-12 501.396

490.877 9.37246 -2.29091e-12
9.37246 437.902 2.60295e-12
-2.29091e-12 2.60295e-12 462.069

327.721 -4.66525 5.15588e-12
-4.66525 403.394 3.52429e-12
5.15588e-12 3.52429e-12 314.421

462.594 -36.8325 4.93235e-13
-36.8325 487.705 -2.55684e-12
4.93235e-13 -2.55684e-12 492.762

445.863 27.4663 5.23256e-12
27.4663 463.284 -2.82441e-12
5.23256e-12 -2.82441e-12 455.028

305.68 2.17038 1.97094e-12
2.17038 393.373 -4.05009e-12
1.97094e-12 -4.05009e-12 297.265

386.009 34.612 1.33108e-12
34.612 332.457 -7.67978e-13
1.33108e-12 -7.67978e-13 306.255

453.365 -22.9745 3.79089e-12
-22.9745 480.085 2.2311e-12
3.79089e-12 2.2311e-12 476.187

501.409 5.73295 -9.79069e-13
5.73295 441.33 1.74645e-12
-9.79069e-13 1.74645e-12 481.024

422.394 27.2054 -6.83305e-13
27.2054 389.779 -3.29455e-12
-6.83305e-13 -3.29455e-12 374.246

570.551 12.7451 -8.06762e-13
12.7451 565.925 -7.33635e-13
-8.06762e-13 -7.33635e-13 542.926

396.19 24.3317 -3.56219e-12
24.3317 349.659 2.81375e-12
-3.56219e-12 2.81375e-12 319.054

569.173 -13.0546 -1.56379e-12
-13.0546 565.836 2.59052e-12
-1.56379e-12 2.59052e-12 542.382

375.103 0.778595 1.92957e-12
0.778595 438.884 -3.54206e-12
1.92957e-12 -3.54206e-12 374.652

461.486 -2.23542 -1.62241e-12
-2.23542 399.315 -3.38666e-12
-1.62241e-12 -3.38666e-12 417.295

538.208 -15.7673 1.83897e-12
-15.7673 480.645 1.87672e-12
1.83897e-12 1.87672e-12 513.491

457.259 24.3882 -1.04577e-12
24.3882 487.8 2.37543e-12
-1.04577e-12 2.37543e-12 488.368

461.27 -13.5352 2.98198e-13
-13.5352 519.149 -7.28898e-13
2.98198e-13 -7.28898e-13 495.728

514.983 -7.99972 -2.60429e-12
-7.99972 438.207 -3.66773e-12
-2.60429e-12 -3.66773e-12 494.291

488.327 -22.2831 -1.39163e-12
-22.2831 541.614 -2.62694e-12
-1.39163e-12 -2.62694e-12 515.762

556.06 -6.5974 -1.99544e-13
-6.5974 560.403 5.14847e-13
-1.99544e-13 5.14847e-13 538.74

463.881 -29.9083 -4.95604e-12
-29.9083 483.211 9.26962e-13
-4.95604e-12 9.26962e-13 483.614

341.717 11.4542 1.50546e-12
11.4542 406.207 -8.47914e-13
1.50546e-12 -8.47914e-13 319.493

422.495 -28.1479 2.71901e-12
-28.1479 391.254 -4.34556e-12
2.71901e-12 -4.34556e-12 375.159

507.392 -13.7714 -3.04423e-12
-13.7714 558.759 -2.00077e-12
-3.04423e-12 -2.00077e-12 525.263

501.072 0.504686 1.4948e-12
0.504686 441.295 3.47796e-12
1.4948e-12 3.47796e-12 487.101

476.956 -21.5243 -1.64298e-12
-21.5243 507.436 2.89339e-12
-1.64298e-12 2.89339e-12 501.518

459.113 25.6979 -1.15611e-13
25.6979 484.616 -2.9301e-12
-1.15611e-13 -2.9301e-12 487.996

394.443 -31.4659 8.60941e-13
-31.4659 400.612 2.5769e-12
8.60941e-13 2.5769e-12 357.533

552.134 -7.08396 -3.9854e-12
-7.08396 585.304 -1.02052e-12
-3.9854e-12 -1.02052e-12 542.613

347.22 -33.0782 2.6444e-12
-33.0782 382.619 -7.31859e-12
2.6444e-12 -7.31859e-12 303.445

490.885 -19.1803 -1.3376e-12
-19.1803 448.401 2.38328e-13
-1.3376e-12 2.38328e-13 467.138

519.722 1.97079 5.59493e-12
1.97079 466.828 2.91855e-12
5.59493e-12 2.91855e-12 502.845

570.568 17.8747 2.04607e-12
17.8747 566.487 -7.56432e-13
2.04607e-12 -7.56432e-13 542.386

375.302 20.1838 -1.578e-12
20.1838 424.046 -2.56506e-12
-1.578e-12 -2.56506e-12 360.232

489.096 27.2113 1.69938e-13
27.2113 468.554 -3.08376e-12
1.69938e-13 -3.08376e-12 476.653

454.394 -24.5125 8.65678e-13
-24.5125 415.355 6.29718e-12
8.65678e-13 6.29718e-12 418.615

454.732 -17.8389 -1.83507e-12
-17.8389 494.922 -2.35811e-12
-1.83507e-12 -2.35811e-12 482.655

379.21 35.0697 -2.03689e-12
35.0697 366.041 3.55271e-12
-2.03689e-12 3.55271e-12 317.058

449.167 -21.8312 -4.31655e-13
-21.8312 491.719 -3.25399e-12
-4.31655e-13 -3.25399e-12 479.787

485.504 30.8511 1.04864e-12
30.8511 465.149 1.65971e-12
1.04864e-12 1.65971e-12 473.459

480.337 -25.2447 1.97945e-12
-25.2447 442.38 -3.50238e-12
1.97945e-12 -3.50238e-12 455.456

448.232 -25.1272 4.39175e-12
-25.1272 469.782 9.88246e-13
4.39175e-12 9.88246e-13 458.11

445.359 -18.689 7.38964e-13
-18.689 393.472 -2.14465e-12
7.38964e-13 -2.14465e-12 397.269

470.667 -18.8504 -4.3574e-12
-18.8504 422.865 5.05107e-12
-4.3574e-12 5.05107e-12 437.544

459.013 -25.3372 -2.35797e-12
-25.3372 485.443 -3.34973e-12
-2.35797e-12 -3.34973e-12 488.839

386.553 35.971 6.27646e-13
35.971 381.999 -2.56743e-12
6.27646e-13 -2.56743e-12 348.126

444.508 15.3773 1.47038e-12
15.3773 491.546 -2.09432e-12
1.47038e-12 -2.09432e-12 467.152

469.409 26.4228 -1.69109e-12
26.4228 479.97 -1.80034e-12
-1.69109e-12 -1.80034e-12 482.559

456.156 25.4736 4.49668e-13
25.4736 486.66 3.86372e-12
4.49668e-13 3.86372e-12 487.259

457.819 11.6219 9.26659e-13
11.6219 506.953 1.97057e-12
9.26659e-13 1.97057e-12 486.027

431.963 -8.22735 1.85807e-12
-8.22735 370.765 2.01617e-13
1.85807e-12 2.01617e-13 363.317

376.789 18.6073 2.81493e-12
18.6073 427.277 -2.46558e-12
2.81493e-12 -2.46558e-12 363.893

452.324 -24.3811 -6.0633e-13
-24.3811 478.398 1.66237e-12
-6.0633e-13 1.66237e-12 470.723

440.758 25.6669 7.86926e-13
25.6669 455.653 -1.01904e-12
7.86926e-13 -1.01904e-12 437.817

390.966 -35.6309 -1.74438e-12
-35.6309 380.287 -1.52175e-12
-1.74438e-12 -1.52175e-12 350.1

368.95 38.3183 1.11318e-12
38.3183 327.26 -2.14584e-12
1.11318e-12 -2.14584e-12 295.69

363.655 -33.3125 -1.202e-12
-33.3125 394.445 8.12979e-12
-1.202e-12 8.12979e-12 341.987

397.94 -31.161 1.79767e-12
-31.161 404.203 9.80431e-12
1.79767e-12 9.80431e-12 362.982

502.869 -6.83863 1.15759e-13
-6.83863 442.262 -4.03803e-12
1.15759e-13 -4.03803e-12 482.329

393.173 30.3431 1.85333e-12
30.3431 408.989 -8.49099e-13
1.85333e-12 -8.49099e-13 363.442

429.712 13.2952 4.9738e-14
13.2952 372.255 2.11386e-13
4.9738e-14 2.11386e-13 362.722

350.151 13.3794 1.51745e-12
13.3794 418.524 8.32519e-13
1.51745e-12 8.32519e-13 348.482

379.487 -22.3414 -1.58214e-12
-22.3414 423.523 1.74794e-12
-1.58214e-12 1.74794e-12 363.456

491.216 -1.09192 2.03726e-12
-1.09192 550.885 -1.70412e-12
2.03726e-12 -1.70412e-12 516.315

372.871 2.24673 -1.10874e-13
2.24673 437.798 -1.61885e-12
-1.10874e-13 -1.61885e-12 373.529

357.897 31.0906 -3.30402e-13
31.0906 399.496 -7.55544e-13
-3.30402e-13 -7.55544e-13 341.968

458.002 12.1082 -1.6077e-12
12.1082 510.572 2.87118e-12
-1.6077e-12 2.87118e-12 488.414

421.463 -27.6488 8.75152e-13
-27.6488 389.08 1.78228e-13
8.75152e-13 1.78228e-13 375.081

524.766 20.557 1.51464e-12
20.557 469.759 1.04687e-12
1.51464e-12 1.04687e-12 500.744

534.933 26.2704 -8.71599e-13
26.2704 506.868 -9.9476e-13
-8.71599e-13 -9.9476e-13 516.103

494.828 -18.5682 3.04764e-12
-18.5682 449.036 -4.4101e-12
3.04764e-12 -4.4101e-12 470.866

554.592 -1.8021 2.41081e-12
-1.8021 516.031 -1.69672e-12
2.41081e-12 -1.69672e-12 525.725

473.298 -31.8123 -1.06729e-12
-31.8123 475.708 -4.24431e-12
-1.06729e-12 -4.24431e-12 478.588

412.608 23.3288 4.50958e-12
23.3288 357.204 6.88634e-13
4.50958e-12 6.88634e-13 348.099

464.188 30.1623 1.83557e-14
30.1623 482.78 -4.13181e-12
1.83557e-14 -4.13181e-12 483.216

464.451 29.2061 2.98724e-13
29.2061 482.253 6.11363e-13
2.98724e-13 6.11363e-13 482.777

393.955 30.6622 4.14128e-12
30.6622 405.733 8.69231e-13
4.14128e-12 8.69231e-13 360.877

502.865 27.0855 1.08831e-12
27.0855 482.675 4.0797e-13
1.08831e-12 4.0797e-13 490.744

415.362 3.5253 1.05397e-13
3.5253 339.024 -3.12221e-12
1.05397e-13 -3.12221e-12 340.832

493.133 31.8172 -1.31569e-12
31.8172 487.234 5.27282e-13
-1.31569e-12 5.27282e-13 495.585

476.336 -12.5995 8.12979e-13
-12.5995 522.461 7.63833e-14
8.12979e-13 7.63833e-14 500.258

536.935 24.2779 2.03363e-12
24.2779 507.41 -3.07606e-13
2.03363e-12 -3.07606e-13 516.639

468.189 -29.579 -6.47808e-12
-29.579 479.982 1.04183e-12
-6.47808e-12 1.04183e-12 483.073

464.57 -4.89779 -3.49879e-12
-4.89779 521.567 -3.25665e-14
-3.49879e-12 -3.25665e-14 490.989

400.949 -24.5574 -2.92507e-12
-24.5574 349.031 1.10134e-13
-2.92507e-12 1.10134e-13 323.958

418.977 29.6944 5.71276e-12
29.6944 392.473 3.6214e-12
5.71276e-12 3.6214e-12 373.779

352.352 14.6972 1.1607e-12
14.6972 417.223 -8.56204e-13
1.1607e-12 -8.56204e-13 348.248

500.542 -1.13904 2.41437e-13
-1.13904 442.807 -3.70829e-12
2.41437e-13 -3.70829e-12 487.721

492.484 0.00220237 -2.00462e-12
0.00220237 438.114 6.89532e-13
-2.00462e-12 6.89532e-13 474.431

452.978 23.1245 3.60364e-12
23.1245 479.72 -1.22213e-12
3.60364e-12 -1.22213e-12 475.598

481.316 23.8712 -6.53403e-13
23.8712 502.885 2.00016e-12
-6.53403e-13 2.00016e-12 501.265

456.6 -24.3808 -8.68361e-13
-24.3808 487.366 1.92365e-12
-8.68361e-13 1.92365e-12 488.51

457.847 -0.67308 2.1381e-12
-0.67308 517.954 1.43115e-12
2.1381e-12 1.43115e-12 486.411

458.898 25.5907 -1.57963e-12
25.5907 486.482 8.7382e-13
-1.57963e-12 8.7382e-13 488.532

465.575 -10.3084 -1.99189e-12
-10.3084 408.097 -2.58445e-12
-1.99189e-12 -2.58445e-12 427.237

400.878 -32.8351 -2.24828e-12
-32.8351 414.97 6.40199e-12
-2.24828e-12 6.40199e-12 385.179

518.112 -2.30128 1.86547e-12
-2.30128 465.754 1.88264e-12
1.86547e-12 1.88264e-12 500.942

391.886 -34.5099 1.77044e-12
-34.5099 379.619 -3.61193e-14
1.77044e-12 -3.61193e-14 347.43

478.017 19.086 -7.51251e-13
19.086 509.218 -3.80052e-12
-7.51251e-13 -3.80052e-12 501.861

506.129 -26.479 -1.6005e-12
-26.479 470.263 2.44693e-12
-1.6005e-12 2.44693e-12 487.289

425.017 -9.69074 -2.72019e-12
-9.69074 366.744 7.30083e-12
-2.72019e-12 7.30083e-12 355.994

530.281 -23.1923 2.31341e-12
-23.1923 488.772 2.10202e-14
2.31341e-12 2.10202e-14 506.505

500.911 2.35834 -2.74536e-12
2.35834 444.595 -1.70456e-13
-2.74536e-12 -1.70456e-13 489.223

521.207 -23.322 -8.28966e-15
-23.322 501.858 -2.2203e-12
-8.28966e-15 -2.2203e-12 508.55

502.034 -25.8598 6.15804e-14
-25.8598 461.508 -3.12047e-13
6.15804e-14 -3.12047e-13 481.261

498.846 -8.54655 1.44003e-12
-8.54655 445.153 -1.77828e-12
1.44003e-12 -1.77828e-12 479.362

482.238 -23.0684 1.49599e-12
-23.0684 505.009 1.56025e-12
1.49599e-12 1.56025e-12 502.552

428.557 -31.3434 4.22773e-13
-31.3434 410.604 2.44545e-13
4.22773e-13 2.44545e-13 399.013

503.285 -24.5881 -2.88362e-12
-24.5881 464.73 5.40901e-12
-2.88362e-12 5.40901e-12 482.177

441.259 10.865 -1.76096e-12
10.865 378.495 1.10164e-12
-1.76096e-12 1.10164e-12 387.813

500.055 26.3408 1.09986e-12
26.3408 498.6 -5.93303e-13
1.09986e-12 -5.93303e-13 500.121

463.769 -37.6121 -2.61361e-12
-37.6121 488.408 -4.08044e-12
-2.61361e-12 -4.08044e-12 494.1

464.878 37.2645 4.58981e-12
37.2645 487.32 2.79628e-13
4.58981e-12 2.79628e-13 493.815

446.346 -28.5729 -4.03884e-12
-28.5729 500.033 -4.18036e-13
-4.03884e-12 -4.18036e-13 492.33

448.581 27.0638 4.91096e-12
27.0638 500.724 -8.66862e-13
4.91096e-12 -8.66862e-13 492.517

513.088 -8.52733 8.66566e-13
-8.52733 436.425 -3.81487e-12
8.66566e-13 -3.81487e-12 492.778

511.251 9.27332 1.06182e-12
9.27332 438.022 2.13711e-12
1.06182e-12 2.13711e-12 492.415

501.675 -9.84658 1.95014e-12
-9.84658 451.76 -2.20594e-12
1.95014e-12 -2.20594e-12 483.038

510.881 32.1152 2.8925e-12
32.1152 510.407 1.26994e-12
2.8925e-12 1.26994e-12 514.071

509.657 -32.8531 8.70415e-13
-32.8531 510.084 3.50704e-12
8.70415e-13 3.50704e-12 513.711

481.827 16.0683 -3.06895e-12
16.0683 539.147 1.85629e-13
-3.06895e-12 1.85629e-13 514.343

483.021 -15.8008 -3.40838e-12
-15.8008 538.736 -5.19584e-13
-3.40838e-12 -5.19584e-13 514.364

556.883 -3.74844 -5.48894e-13
-3.74844 506.847 9.02981e-14
-5.48894e-13 9.02981e-14 525.008

558.437 3.61118 -1.71789e-12
3.61118 505.172 -3.90384e-12
-1.71789e-12 -3.90384e-12 525.379

387.323 9.83737 7.39557e-13
9.83737 449.214 -9.23706e-14
7.39557e-13 -9.23706e-14 397.101

472.405 -24.7748 -2.91737e-12
-24.7748 480.772 2.47491e-12
-2.91737e-12 2.47491e-12 484.993

443.48 -36.3869 2.42295e-12
-36.3869 485.551 4.60328e-12
2.42295e-12 4.60328e-12 486.645

473.66 -4.66444 1.96939e-12
-4.66444 420.452 -2.92359e-13
1.96939e-12 -2.92359e-13 436.354

540.269 -16.6939 -1.34337e-12
-16.6939 484.209 1.12947e-12
-1.34337e-12 1.12947e-12 515.304

540.989 16.1749 1.39281e-12
16.1749 485.432 -4.48382e-12
1.39281e-12 -4.48382e-12 515.909

506.879 0.121873 -6.39192e-13
0.121873 423.57 -1.95817e-12
-6.39192e-13 -1.95817e-12 487.019

384.805 23.3765 -1.95074e-12
23.3765 432.313 1.33345e-12
-1.95074e-12 1.33345e-12 385.49

442.352 36.1709 -2.18536e-12
36.1709 485.229 4.23913e-12
-2.18536e-12 4.23913e-12 485.851

452.615 -23.396 2.75335e-14
-23.396 494.971 1.81188e-13
2.75335e-14 1.81188e-13 483.607

443.265 23.354 5.1988e-13
23.354 397.533 -3.30994e-12
5.1988e-13 -3.30994e-12 400.387

530.984 23.8585 5.32907e-13
23.8585 488.023 -2.37736e-13
5.32907e-13 -2.37736e-13 507.263

428.495 -31.3152 -4.31536e-12
-31.3152 410.889 2.60355e-12
-4.31536e-12 2.60355e-12 398.832

519.876 -3.23145 -1.12902e-12
-3.23145 469.075 3.76588e-13
-1.12902e-12 3.76588e-13 502.702

439.415 -34.1605 -1.34929e-13
-34.1605 485.522 2.35486e-12
-1.34929e-13 2.35486e-12 485.84

389.197 8.32038 2.32999e-13
8.32038 452.345 2.60769e-12
2.32999e-13 2.60769e-12 400.869

385.892 21.8128 1.85037e-13
21.8128 435.789 -8.12387e-13
1.85037e-13 -8.12387e-13 388.708

383.86 35.7776 4.39944e-12
35.7776 362.344 -2.5094e-12
4.39944e-12 -2.5094e-12 318.339

408.197 1.57885 7.93439e-13
1.57885 332.166 8.89289e-13
7.93439e-13 8.89289e-13 327.336

485.471 -22.8048 3.27856e-12
-22.8048 502.874 1.89719e-12
3.27856e-12 1.89719e-12 501.764

351.89 31.1854 5.9129e-12
31.1854 388.844 3.60482e-12
5.9129e-12 3.60482e-12 312.368

451.366 23.6107 4.91666e-12
23.6107 478.43 -2.39808e-13
4.91666e-12 -2.39808e-13 465.229

442.213 -5.34983 -6.20185e-12
-5.34983 377.139 3.70015e-12
-6.20185e-12 3.70015e-12 387.751

464.172 11.2166 2.57927e-12
11.2166 407.313 3.43281e-12
2.57927e-12 3.43281e-12 424.937

505.395 0.429892 1.40258e-12
0.429892 421.59 -1.70766e-12
1.40258e-12 -1.70766e-12 485.691

449.367 -29.0306 -5.7924e-13
-29.0306 502.013 7.52583e-13
-5.7924e-13 7.52583e-13 493.604

572.516 -6.31847 5.42773e-12
-6.31847 589.491 7.25346e-13
5.42773e-12 7.25346e-13 549.263

463.156 37.4108 1.36543e-12
37.4108 487.043 -5.27837e-13
1.36543e-12 -5.27837e-13 493.08

408.752 1.66336 -3.85351e-12
1.66336 331.613 -1.65712e-12
-3.85351e-12 -1.65712e-12 308.915

404.248 -32.7887 -1.82017e-12
-32.7887 415.523 3.84877e-12
-1.82017e-12 3.84877e-12 387.403

443.158 36.6124 2.41288e-14
36.6124 485.522 2.94313e-12
2.41288e-14 2.94313e-12 486.587

444.693 -11.1341 1.2802e-12
-11.1341 498.951 -2.21156e-12
1.2802e-12 -2.21156e-12 471.456

386.086 -25.516 -1.7429e-12
-25.516 428.916 -3.2685e-12
-1.7429e-12 -3.2685e-12 384.577

449.467 28.8296 7.63611e-13
28.8296 501.646 -2.05376e-12
7.63611e-13 -2.05376e-12 493.303

452.727 -26.1432 -5.57066e-12
-26.1432 419.317 7.16464e-14
-5.57066e-12 7.16464e-14 419.532

579.559 10.4837 3.00944e-12
10.4837 582.17 -6.94896e-12
3.00944e-12 -6.94896e-12 549.048

398.342 30.8737 -1.52352e-12
30.8737 422.073 4.29286e-12
-1.52352e-12 4.29286e-12 388.176

515.722 8.12643 2.3932e-12
8.12643 437.285 6.86902e-12
2.3932e-12 6.86902e-12 494.597

493.82 30.1909 5.30243e-13
30.1909 484.763 3.63295e-12
5.30243e-13 3.63295e-12 493.816

453.481 23.3325 1.90573e-12
23.3325 479.179 -4.60372e-12
1.90573e-12 -4.60372e-12 475.814

510.715 -32.4878 -2.2693e-12
-32.4878 512.466 4.12402e-12
-2.2693e-12 4.12402e-12 515.02

510.323 -23.191 -1.57681e-12
-23.191 473.195 3.81473e-12
-1.57681e-12 3.81473e-12 489.691

511.412 10.4699 -5.12331e-13
10.4699 558.003 1.00779e-12
-5.12331e-13 1.00779e-12 523.744

452.188 -23.4345 4.34408e-12
-23.4345 480.182 5.80869e-13
4.34408e-12 5.80869e-13 468.965

394.423 -9.70835 3.37034e-12
-9.70835 316.423 -1.57252e-12
3.37034e-12 -1.57252e-12 295.585

387.303 -14.2779 1.4353e-12
-14.2779 306.068 1.00542e-12
1.4353e-12 1.00542e-12 290.059

547.595 16.5301 3.66314e-12
16.5301 507.775 1.29408e-12
3.66314e-12 1.29408e-12 519.332

436.502 22.5027 -6.60213e-14
22.5027 469.153 -1.53063e-12
-6.60213e-14 -1.53063e-12 447.838

475.978 29.1641 -9.9772e-13
29.1641 467.66 5.80277e-14
-9.9772e-13 5.80277e-14 471.493

450.318 0.688695 -6.18883e-12
0.688695 392.79 7.3729e-13
-6.18883e-12 7.3729e-13 395.688

478.363 6.57081 -5.70607e-12
6.57081 541.291 2.02919e-12
-5.70607e-12 2.02919e-12 507.553

507.346 16.5407 -2.27966e-12
16.5407 461.15 2.75898e-12
-2.27966e-12 2.75898e-12 488.094

389.99 -25.7625 1.06522e-12
-25.7625 430.051 -3.43903e-12
1.06522e-12 -3.43903e-12 387.747

456.332 -2.57214 -6.35492e-13
-2.57214 517.029 1.93327e-12
-6.35492e-13 1.93327e-12 484.854

400.603 13.3659 2.37232e-12
13.3659 453.001 -1.80715e-12
2.37232e-12 -1.80715e-12 404.649

486.928 -29.7141 1.46253e-13
-29.7141 465.828 4.04743e-12
1.46253e-13 4.04743e-12 474.272

430.313 -29.949 -1.34648e-12
-29.949 423.643 1.05397e-13
-1.34648e-12 1.05397e-13 404.968

399.724 31.6245 5.03301e-13
31.6245 418.246 -2.81256e-13
5.03301e-13 -2.81256e-13 386.015

624.004 -15.0197 2.14436e-12
-15.0197 581.954 -4.73399e-12
2.14436e-12 -4.73399e-12 557.913

494.534 2.04164 2.75683e-12
2.04164 552.154 -1.53359e-13
2.75683e-12 -1.53359e-13 517.937

483.515 20.2994 -6.93519e-12
20.2994 542.054 -4.64251e-12
-6.93519e-12 -4.64251e-12 516.043

544.717 15.4384 3.03831e-12
15.4384 479.984 1.78139e-12
3.03831e-12 1.78139e-12 515.765

473.763 -26.1894 -5.22575e-12
-26.1894 479.771 2.98724e-12
-5.22575e-12 2.98724e-12 483.031

452.141 17.9581 1.50398e-13
17.9581 404.521 7.0551e-13
1.50398e-13 7.0551e-13 406.931

531.588 -5.29346 -3.51059e-12
-5.29346 580.809 5.67694e-12
-3.51059e-12 5.67694e-12 537.128

512.202 -18.988 -1.16351e-12
-18.988 464.807 1.87258e-12
-1.16351e-12 1.87258e-12 493.042

473.992 -15.5994 -3.28685e-12
-15.5994 423.19 -7.96844e-13
-3.28685e-12 -7.96844e-13 438.894

402.013 11.6039 -6.68206e-13
11.6039 455.973 -7.14095e-13
-6.68206e-13 -7.14095e-13 407.793

410.937 -25.7356 -4.02049e-13
-25.7356 435.596 -4.17089e-12
-4.02049e-13 -4.17089e-12 398.969

532.06 -25.2739 3.54975e-12
-25.2739 523.203 -3.4445e-12
3.54975e-12 -3.4445e-12 519.13

423.07 31.9611 -5.21065e-13
31.9611 417.262 1.73846e-12
-5.21065e-13 1.73846e-12 400.318

535.494 -25.1344 4.00154e-12
-25.1344 505.8 2.27078e-13
4.00154e-12 2.27078e-13 515.672

453.51 2.59748 1.13687e-13
2.59748 397.032 4.67256e-13
1.13687e-13 4.67256e-13 401.911

311.109 -28.9319 5.54815e-12
-28.9319 376.61 2.67401e-12
5.54815e-12 2.67401e-12 290.005

431.89 -29.2324 -2.10854e-12
-29.2324 424.062 4.71267e-12
-2.10854e-12 4.71267e-12 406.167

353.773 32.1605 6.16988e-13
32.1605 392.558 9.87181e-12
6.16988e-13 9.87181e-12 312.979

470.359 -11.8766 -2.10221e-13
-11.8766 529.565 3.47929e-12
-2.10221e-13 3.47929e-12 500.316

391.463 -13.8221 -4.12588e-12
-13.8221 449.269 -2.65388e-12
-4.12588e-12 -2.65388e-12 400.212

602.859 -23.9867 6.73076e-12
-23.9867 602.271 1.89389e-12
6.73076e-12 1.89389e-12 557.854

408.385 23.772 1.08358e-12
23.772 441.955 -3.39995e-12
1.08358e-12 -3.39995e-12 402.236

496.591 -32.7263 -2.33384e-12
-32.7263 490.654 -2.6447e-12
-2.33384e-12 -2.6447e-12 497.46

388.202 -11.9637 -3.1164e-12
-11.9637 448.301 -1.89004e-12
-3.1164e-12 -1.89004e-12 397.029

516.725 -19.1167 2.09284e-12
-19.1167 465.768 1.66918e-12
2.09284e-12 1.66918e-12 496.257

410.7 23.8783 -5.08097e-12
23.8783 439.327 1.01252e-12
-5.08097e-12 1.01252e-12 400.712

488.937 -4.9756 -1.4803e-14
-4.9756 435.086 -7.78562e-13
-1.4803e-14 -7.78562e-13 460.398

305.791 -30.3438 4.63629e-12
-30.3438 391.451 9.68707e-13
4.63629e-12 9.68707e-13 262.579

438.625 21.0148 6.82121e-13
21.0148 473.93 2.70894e-12
6.82121e-13 2.70894e-12 458.364

445.704 -19.3242 4.03351e-12
-19.3242 393.991 -3.40084e-12
4.03351e-12 -3.40084e-12 399.638

551.615 -21.4457 -2.1562e-12
-21.4457 499.53 -2.82707e-12
-2.1562e-12 -2.82707e-12 520.117

424.486 31.7556 1.57977e-12
31.7556 413.338 -4.42372e-12
1.57977e-12 -4.42372e-12 397.974

459.18 -29.9729 -1.47142e-12
-29.9729 437.654 -9.21337e-13
-1.47142e-12 -9.21337e-13 439.316

510.637 20.8856 3.90266e-12
20.8856 476.088 -1.9531e-12
3.90266e-12 -1.9531e-12 492.772

461.523 -28.076 -6.46994e-12
-28.076 485.759 -1.59983e-12
-6.46994e-12 -1.59983e-12 488.735

413.737 -26.2266 6.64357e-13
-26.2266 436.263 -4.10694e-12
6.64357e-13 -4.10694e-12 401.455

426.093 28.9825 -4.08444e-12
28.9825 429.915 6.03606e-12
-4.08444e-12 6.03606e-12 406.878

452.52 26.1925 -3.4485e-12
26.1925 418.244 -2.9227e-12
-3.4485e-12 -2.9227e-12 419.076

521.987 -14.6106 1.27454e-12
-14.6106 477.194 3.37064e-12
1.27454e-12 3.37064e-12 500.081

403.578 -16.6185 4.19043e-12
-16.6185 451.762 -4.73221e-12
4.19043e-12 -4.73221e-12 406.46

496.066 -17.5685 3.60127e-12
-17.5685 447.625 -2.22148e-12
3.60127e-12 -2.22148e-12 471.519

487.784 16.9091 1.89419e-12
16.9091 436.276 8.99725e-13
1.89419e-12 8.99725e-13 460.607

513.356 -9.38607 -2.31067e-12
-9.38607 555.793 -1.44003e-12
-2.31067e-12 -1.44003e-12 523.045

453.998 -13.4306 6.27172e-12
-13.4306 402.195 -5.63179e-12
6.27172e-12 -5.63179e-12 406.76

403.219 0.594138 -1.89789e-12
0.594138 465.745 1.75978e-12
-1.89789e-12 1.75978e-12 417.823

475.047 18.5556 -4.67123e-12
18.5556 428.79 -3.45679e-12
-4.67123e-12 -3.45679e-12 442.239

451.162 27.6052 3.49705e-12
27.6052 421.857 -4.34615e-13
3.49705e-12 -4.34615e-13 420.861

400.886 -15.687 -1.82432e-12
-15.687 451.402 1.64964e-12
-1.82432e-12 1.64964e-12 403.754

406.018 -1.20228 3.76358e-12
-1.20228 468.055 -3.46271e-12
3.76358e-12 -3.46271e-12 421.238

516.216 29.1345 -2.83684e-12
29.1345 498.042 4.38316e-12
-2.83684e-12 4.38316e-12 504.893

441.723 -10.9225 -3.28478e-13
-10.9225 500.678 -2.88954e-12
-3.28478e-13 -2.88954e-12 471.167

451.46 -26.7165 -2.90553e-12
-26.7165 418.784 1.83083e-12
-2.90553e-12 1.83083e-12 419.371

444.407 21.3336 1.71714e-12
21.3336 395.315 -1.64076e-12
1.71714e-12 -1.64076e-12 398.218

497.615 23.6657 -1.05101e-12
23.6657 458.109 -2.88569e-12
-1.05101e-12 -2.88569e-12 476.569

447.701 5.47117 -2.77948e-12
5.47117 508.81 -2.27374e-13
-2.77948e-12 -2.27374e-13 476.9

427.669 29.067 -1.65379e-12
29.067 426.454 -3.16488e-12
-1.65379e-12 -3.16488e-12 405.128

536.837 22.9639 7.52879e-13
22.9639 531.912 -3.36679e-12
7.52879e-13 -3.36679e-12 522.801

314.763 -59.6941 1.20792e-13
-59.6941 282.78 1.81662e-12
1.20792e-13 1.81662e-12 223.433

480.614 -25.0488 7.874e-12
-25.0488 445.091 -2.60236e-13
7.874e-12 -2.60236e-13 456.665

336.678 7.07023 -1.48474e-12
7.07023 409.173 -1.72662e-12
-1.48474e-12 -1.72662e-12 319.454

460.558 -28.8904 4.39944e-13
-28.8904 444.756 2.65861e-12
4.39944e-13 2.65861e-12 443.472

96.4272 -52.7027 -9.4739e-15
-52.7027 306.628 -1.42109e-13
-9.4739e-15 -1.42109e-13 113.704

95.9611 51.4533 -1.70175e-12
51.4533 306.893 -1.89478e-14
-1.70175e-12 -1.89478e-14 114.492

181.523 117.158 -4.80801e-12
117.158 226.084 -1.77636e-12
-4.80801e-12 -1.77636e-12 113.592

182.821 -117.101 3.75167e-12
-117.101 223.32 -4.13062e-12
3.75167e-12 -4.13062e-12 113.567

321.594 -1.36342 1.44477e-12
-1.36342 84.6564 6.50729e-14
1.44477e-12 6.50729e-14 114.934

274.443 -91.1285 0
-91.1285 127.423 1.3524e-12
0 1.3524e-12 113.807

275.139 91.6564 5.77908e-13
91.6564 128.256 -2.66454e-12
5.77908e-13 -2.66454e-12 114.577

525.258 14.3309 5.1017e-12
14.3309 474.73 1.1043e-13
5.1017e-12 1.1043e-13 502.332

556.81 25.536 -3.73035e-14
25.536 541.196 -1.91876e-12
-3.73035e-14 -1.91876e-12 533.465

492.113 6.60633 9.84102e-13
6.60633 439.14 7.27714e-13
9.84102e-13 7.27714e-13 471.421

470.32 21.7856 -1.08417e-12
21.7856 424.535 -2.56802e-12
-1.08417e-12 -2.56802e-12 438.213

409.993 17.7453 -9.79069e-13
17.7453 461.094 1.13095e-13
-9.79069e-13 1.13095e-13 425.061

448.031 28.8999 2.38269e-12
28.8999 424.724 8.73968e-13
2.38269e-12 8.73968e-13 420.768

487.169 -29.6643 -1.95222e-12
-29.6643 465.647 5.21065e-14
-1.95222e-12 5.21065e-14 474.608

449.388 28.0292 -1.65675e-12
28.0292 421.09 -4.14661e-12
-1.65675e-12 -4.14661e-12 418.66

402.981 -2.84149 -1.11466e-13
-2.84149 465.402 4.5001e-14
-1.11466e-13 4.5001e-14 417.559

555.817 -26.0969 4.57708e-13
-26.0969 543.389 2.90523e-12
4.57708e-13 2.90523e-12 533.709

405.519 -4.86273 -1.64757e-13
-4.86273 467.14 -3.61193e-13
-1.64757e-13 -3.61193e-13 420.618

522.31 23.0168 3.78956e-13
23.0168 499.76 -1.8372e-12
3.78956e-13 -1.8372e-12 507.987

423.397 26.8721 -8.96468e-13
26.8721 386.524 3.88371e-12
-8.96468e-13 3.88371e-12 373.043

480.128 -13.2162 4.53741e-12
-13.2162 532.786 -2.51917e-12
4.53741e-12 -2.51917e-12 512.019

484.219 13.7285 -1.30325e-12
13.7285 432.795 -2.66424e-12
-1.30325e-12 -2.66424e-12 456.894

457.389 -29.9889 6.46831e-12
-29.9889 436.996 -5.92563e-12
6.46831e-12 -5.92563e-12 437.852

454.329 -24.7146 1.88294e-13
-24.7146 416.823 3.43192e-12
1.88294e-13 3.43192e-12 419.871

547.42 -16.0754 1.73787e-12
-16.0754 509.321 -1.28342e-12
1.73787e-12 -1.28342e-12 519.401

475.992 27.9299 -8.941e-13
27.9299 449.725 -8.76336e-13
-8.941e-13 -8.76336e-13 456.944

469.121 23.9785 5.99224e-13
23.9785 427.868 -8.12979e-13
5.99224e-13 -8.12979e-13 439.849

432.447 -2.79287 -4.0807e-12
-2.79287 493.658 2.8096e-12
-4.0807e-12 2.8096e-12 457.126

417.625 5.87352 -6.46279e-13
5.87352 479.578 -1.6378e-12
-6.46279e-13 -1.6378e-12 440.196

463.032 2.64684 1.19194e-12
2.64684 402.297 1.03658e-13
1.19194e-12 1.03658e-13 422.34

438.668 -7.29006 1.18424e-15
-7.29006 373.931 -6.27646e-13
1.18424e-15 -6.27646e-13 381.235

454.864 30.486 -3.54087e-13
30.486 439.034 -4.08444e-12
-3.54087e-13 -4.08444e-12 437.855

478.485 -26.1565 -2.359e-12
-26.1565 443.562 -5.15676e-12
-2.359e-12 -5.15676e-12 454.665

525.718 -21.2545 -2.10706e-12
-21.2545 497.846 5.03597e-13
-2.10706e-12 5.03597e-13 508.636

437.752 -31.6352 -2.39571e-12
-31.6352 437.675 1.04272e-12
-2.39571e-12 1.04272e-12 426.878

417.609 -27.787 -1.90011e-12
-27.787 444.416 -5.27519e-12
-1.90011e-12 -5.27519e-12 419.707

430.666 29.8887 -1.49569e-12
29.8887 442.764 3.19744e-14
-1.49569e-12 3.19744e-14 426.516

416.243 -9.57833 -3.65944e-12
-9.57833 475.232 1.86517e-13
-3.65944e-12 1.86517e-13 436.474

428.913 -1.54505 2.45655e-13
-1.54505 491.889 1.21503e-12
2.45655e-13 1.21503e-12 454.014

445.2 5.74784 -4.47172e-12
5.74784 508.063 -4.35207e-13
-4.47172e-12 -4.35207e-13 474.933

414.637 -21.0902 2.94875e-13
-21.0902 458.428 5.58013e-12
2.94875e-13 5.58013e-12 426.084

496.889 24.112 -1.84504e-12
24.112 455.715 -1.2846e-12
-1.84504e-12 -1.2846e-12 474.612

483.394 -9.59015 2.4869e-13
-9.59015 430.131 8.45102e-13
2.4869e-13 8.45102e-13 455.24

415.651 7.46555 6.73369e-13
7.46555 477.142 3.12047e-13
6.73369e-13 3.12047e-13 436.932

443.973 -9.70124 5.98692e-13
-9.70124 501.524 -2.32288e-12
5.98692e-13 -2.32288e-12 471.026

433.193 -16.3314 -1.9682e-12
-16.3314 481.697 -2.10202e-13
-1.9682e-12 -2.10202e-13 455.687

463.561 -8.2396 7.70939e-13
-8.2396 406.353 -5.32374e-12
7.70939e-13 -5.32374e-12 421.489

494.453 -32.3468 3.41682e-12
-32.3468 487.635 5.48953e-12
3.41682e-12 5.48953e-12 496.269

422.963 9.32146 1.57578e-12
9.32146 479.112 5.92119e-15
1.57578e-12 5.92119e-15 440.999

564.371 -18.2129 -7.26648e-12
-18.2129 529.966 -1.56897e-12
-7.26648e-12 -1.56897e-12 531.847

309.061 24.8241 -5.46881e-12
24.8241 379.44 5.08512e-12
-5.46881e-12 5.08512e-12 289.81

501.717 -26.6267 1.73491e-12
-26.6267 499.508 -4.74243e-12
1.73491e-12 -4.74243e-12 501.218

515.667 -30.2029 1.33997e-12
-30.2029 498.421 -1.61441e-12
1.33997e-12 -1.61441e-12 504.936

429.241 -0.701122 -2.02727e-13
-0.701122 492.014 4.09746e-13
-2.02727e-13 4.09746e-13 454.164

474.903 -16.6232 -1.39444e-12
-16.6232 428.356 -2.66454e-13
-1.39444e-12 -2.66454e-13 441.976

462.324 12.8418 2.9652e-12
12.8418 511.295 1.67688e-12
2.9652e-12 1.67688e-12 489.14

240.785 -3.18085 -1.88405e-12
-3.18085 360.703 -1.89478e-14
-1.88405e-12 -1.89478e-14 226.975

432.423 14.2742 2.42036e-12
14.2742 485.378 1.52411e-12
2.42036e-12 1.52411e-12 456.902

458.132 -29.4906 1.9682e-12
-29.4906 443.19 -7.50215e-13
1.9682e-12 -7.50215e-13 440.782

304.199 25.1068 -5.8531e-12
25.1068 394.601 -6.13672e-12
-5.8531e-12 -6.13672e-12 264.353

603.559 26.0965 -3.77668e-12
26.0965 597.963 1.41309e-12
-3.77668e-12 1.41309e-12 558.17

608.292 -27.8057 -3.02306e-12
-27.8057 595.038 1.59709e-12
-3.02306e-12 1.59709e-12 558.304

463.514 -30.4202 2.449e-12
-30.4202 459.058 -3.46922e-12
2.449e-12 -3.46922e-12 459.092

434.604 -31.1618 5.35868e-12
-31.1618 436.38 -3.5462e-12
5.35868e-12 -3.5462e-12 424.681

474.123 20.8283 -8.28966e-15
20.8283 431.934 9.09791e-13
-8.28966e-15 9.09791e-13 443.993

465.244 15.0069 -1.58273e-12
15.0069 410.135 9.11863e-13
-1.58273e-12 9.11863e-13 427.482

646.073 3.08259 8.7732e-12
3.08259 645.73 -2.13735e-11
8.7732e-12 -2.13735e-11 574.631

649.893 -6.99872 9.61956e-12
-6.99872 641.401 -8.70607e-12
9.61956e-12 -8.70607e-12 575.159

497.01 4.82425 9.65154e-13
4.82425 442.055 4.20686e-12
9.65154e-13 4.20686e-12 477.433

443.577 6.73145 -1.11466e-12
6.73145 503.01 2.0357e-12
-1.11466e-12 2.0357e-12 471.07

441.991 6.73637 -1.12092e-12
6.73637 502.536 2.7273e-12
-1.12092e-12 2.7273e-12 469.793

321.549 58.6371 -1.06558e-11
58.6371 281.134 1.66741e-12
-1.06558e-11 1.66741e-12 225.087

420.248 -28.2014 -2.22222e-12
-28.2014 444.044 -8.11203e-14
-2.22222e-12 -8.11203e-14 421.051

520.598 17.9743 1.30355e-12
17.9743 467.55 2.29861e-12
1.30355e-12 2.29861e-12 499.529

473.002 9.54011 1.59398e-12
9.54011 421.216 1.73639e-12
1.59398e-12 1.73639e-12 436.223

440.65 -26.7247 -7.74492e-13
-26.7247 450.747 -3.30225e-12
-7.74492e-13 -3.30225e-12 433.435

469.298 -20.2387 -2.12571e-12
-20.2387 422.735 1.86014e-12
-2.12571e-12 1.86014e-12 437.196

312.486 60.235 4.36984e-12
60.235 281.383 -3.45442e-12
4.36984e-12 -3.45442e-12 223.225

492.701 31.0695 3.03343e-12
31.0695 489.061 -2.44634e-12
3.03343e-12 -2.44634e-12 493.157

410.882 -19.7872 6.7916e-13
-19.7872 457.903 -8.40809e-13
6.7916e-13 -8.40809e-13 423.517

474.149 28.8589 -9.38508e-13
28.8589 449.651 1.35122e-12
-9.38508e-13 1.35122e-12 456.538

430.975 -4.14518 2.12734e-12
-4.14518 492.994 3.17849e-12
2.12734e-12 3.17849e-12 456.487

423.95 19.6103 2.13163e-12
19.6103 465.733 -3.61074e-12
2.13163e-12 -3.61074e-12 434.128

452.768 30.5203 4.33727e-12
30.5203 443.618 1.64431e-12
4.33727e-12 1.64431e-12 439.628

428.663 -22.4745 -2.19439e-12
-22.4745 461.159 3.84877e-14
-2.19439e-12 3.84877e-14 433.833

443.595 -27.354 -2.69533e-12
-27.354 450.454 -3.5083e-12
-2.69533e-12 -3.5083e-12 435.065

294.79 11.2575 2.42917e-13
11.2575 372.602 4.4551e-12
2.42917e-13 4.4551e-12 258.113

357.314 -33.4581 -7.08174e-13
-33.4581 389.135 1.14634e-12
-7.08174e-13 1.14634e-12 314.143

419.677 -11.6911 -3.20114e-12
-11.6911 476.383 -6.50739e-13
-3.20114e-12 -6.50739e-13 439.365

478.418 26.4857 -2.72671e-12
26.4857 446.819 2.06294e-12
-2.72671e-12 2.06294e-12 456.104

452.366 29.4793 4.4628e-12
29.4793 449.047 8.44362e-13
4.4628e-12 8.44362e-13 442.42

426.828 -21.4351 3.45797e-13
-21.4351 461.806 1.07114e-12
3.45797e-13 1.07114e-12 432.65

422.95 -11.7831 2.82115e-12
-11.7831 476.669 -1.4424e-12
2.82115e-12 -1.4424e-12 439.948

457.727 28.4109 -3.54679e-13
28.4109 447.108 1.63602e-12
-3.54679e-13 1.63602e-12 442.591

425.125 -13.8786 -9.09791e-13
-13.8786 476.441 -1.89715e-12
-9.09791e-13 -1.89715e-12 442.125

311.278 27.8566 -3.33245e-12
27.8566 377.408 2.76401e-12
-3.33245e-12 2.76401e-12 289.997

485.187 -4.04089 -2.63556e-12
-4.04089 545.067 -4.54629e-12
-2.63556e-12 -4.54629e-12 511.054

433.005 31.0292 5.51855e-13
31.0292 439.649 4.60076e-13
5.51855e-13 4.60076e-13 426.039

509.33 14.9018 -7.24754e-13
14.9018 463.181 -2.01439e-12
-7.24754e-13 -2.01439e-12 488.625

516.94 -15.9281 4.80801e-13
-15.9281 467.601 1.94274e-12
4.80801e-13 1.94274e-12 493.942

383.943 -24.2059 -1.53951e-13
-24.2059 305.961 6.12251e-12
-1.53951e-13 6.12251e-12 285.367

442.299 -21.2681 7.34227e-14
-21.2681 476.021 -1.8409e-12
7.34227e-14 -1.8409e-12 459.341

447.848 26.6994 4.63659e-12
26.6994 466.228 2.81375e-12
4.63659e-12 2.81375e-12 457.861

522.992 -21.7277 -6.22228e-12
-21.7277 543.826 -1.10456e-12
-6.22228e-12 -1.10456e-12 525.326

579.593 14.1053 -1.25963e-11
14.1053 617.628 -5.16772e-12
-1.25963e-11 -5.16772e-12 557.066

620.214 9.44527 2.14495e-13
9.44527 576.851 -2.26811e-12
2.14495e-13 -2.26811e-12 556.884

523.487 32.7049 -3.79548e-13
32.7049 520.667 -4.52616e-12
-3.79548e-13 -4.52616e-12 519.541

414.91 26.0019 -1.18542e-12
26.0019 448.927 -1.51938e-12
-1.18542e-12 -1.51938e-12 420.395

478.116 26.6624 -1.5253e-12
26.6624 444.789 -4.30086e-12
-1.5253e-12 -4.30086e-12 455.527

332.377 45.1885 1.10253e-12
45.1885 349.505 3.56574e-12
1.10253e-12 3.56574e-12 286.753

571.4 -11.3426 5.08379e-12
-11.3426 614.479 3.79282e-12
5.08379e-12 3.79282e-12 554.608

641.329 -3.43234 1.72656e-11
-3.43234 636.874 -7.80013e-12
1.72656e-11 -7.80013e-12 572.407

634.909 -0.209516 1.52752e-12
-0.209516 643.18 6.89782e-12
1.52752e-12 6.89782e-12 572.234

272.974 -53.8051 1.51582e-12
-53.8051 316.46 -2.63611e-12
1.51582e-12 -2.63611e-12 220.919

566.652 -11.5995 2.95379e-12
-11.5995 562.136 -3.98792e-13
2.95379e-12 -3.98792e-13 540.913

563.782 8.81231 -7.02594e-12
8.81231 586.973 3.91065e-12
-7.02594e-12 3.91065e-12 546.854

478.265 -26.2004 2.46618e-12
-26.2004 440.461 4.83465e-13
2.46618e-12 4.83465e-13 453.501

494.365 1.01061 -1.95773e-12
1.01061 545.776 -5.26335e-12
-1.95773e-12 -5.26335e-12 514.074

447.671 -20.2687 1.00305e-12
-20.2687 484.179 5.4771e-12
1.00305e-12 5.4771e-12 470.657

506.322 6.25543 -2.8851e-12
6.25543 443.395 1.10364e-12
-2.8851e-12 1.10364e-12 486.145

461.294 15.5963 1.55699e-12
15.5963 521.272 9.42061e-13
1.55699e-12 9.42061e-13 497.575

471.198 7.19136 -3.19285e-12
7.19136 528.025 -3.17553e-12
-3.19285e-12 -3.17553e-12 497.709

493.783 20.3937 -2.269e-12
20.3937 451.536 -9.38213e-13
-2.269e-12 -9.38213e-13 469.77

241.075 -3.11391 -2.72826e-12
-3.11391 358.575 -3.44613e-12
-2.72826e-12 -3.44613e-12 227.074

463.721 -27.6249 -3.14001e-12
-27.6249 463.412 -3.3437e-12
-3.14001e-12 -3.3437e-12 461.21

488.364 -26.1172 2.24058e-12
-26.1172 481.617 -5.24588e-12
2.24058e-12 -5.24588e-12 485.888

497.557 -31.4837 -4.16289e-12
-31.4837 489.978 3.54605e-12
-4.16289e-12 3.54605e-12 498.999

355.615 32.7513 -2.84217e-13
32.7513 285.79 2.71842e-12
-2.84217e-13 2.71842e-12 248.377

563.894 -20.1161 -6.12429e-12
-20.1161 569.624 -7.44701e-12
-6.12429e-12 -7.44701e-12 542.585

337.661 54.3246 -9.20863e-12
54.3246 356.672 -3.61666e-12
-9.20863e-12 -3.61666e-12 258.886

477.09 -21.4392 6.41783e-12
-21.4392 506.509 2.80516e-12
6.41783e-12 2.80516e-12 500.263

504.793 14.6505 -2.60651e-12
14.6505 452.007 -7.36744e-13
-2.60651e-12 -7.36744e-13 481.58

449.852 -14.5732 4.78077e-12
-14.5732 397.004 -3.25843e-12
4.78077e-12 -3.25843e-12 400.858

452.614 24.0475 8.15585e-12
24.0475 478.801 -8.19493e-13
8.15585e-12 -8.19493e-13 467.868

493.687 20.4285 -5.53631e-13
20.4285 449.52 -4.46991e-12
-5.53631e-13 -4.46991e-12 469.361

505.581 11.3999 3.90939e-12
11.3999 564.43 -3.29218e-12
3.90939e-12 -3.29218e-12 526.727

475.916 -31.5809 -1.83557e-12
-31.5809 470.376 -3.72028e-12
-1.83557e-12 -3.72028e-12 475.083

559.284 19.8123 -2.29801e-12
19.8123 510.455 2.2388e-12
-2.29801e-12 2.2388e-12 526.503

439.978 -18.4442 -1.05042e-12
-18.4442 482.486 3.15481e-12
-1.05042e-12 3.15481e-12 459.169

465.916 4.28354 -4.05212e-12
4.28354 526.126 -6.43041e-13
-4.05212e-12 -6.43041e-13 495.528

588.65 9.9272 -3.78956e-13
9.9272 552.474 2.33872e-12
-3.78956e-13 2.33872e-12 545.203

590.433 -8.5139 -7.31533e-12
-8.5139 554.815 2.57098e-12
-7.31533e-12 2.57098e-12 545.72

382.326 18.5133 -3.50298e-12
18.5133 302.3 -1.71833e-12
-3.50298e-12 -1.71833e-12 286.147

502.699 7.96536 -1.83794e-12
7.96536 453.619 2.31963e-13
-1.83794e-12 2.31963e-13 487.784

232.824 7.74095 -2.67179e-12
7.74095 381.529 1.95636e-12
-2.67179e-12 1.95636e-12 187.194

236.993 -11.3857 -6.09975e-12
-11.3857 387.223 -8.2423e-13
-6.09975e-12 -8.2423e-13 189.458

249.296 56.4085 1.75978e-12
56.4085 354.789 5.63697e-13
1.75978e-12 5.63697e-13 184.03

505.033 -28.9511 -1.85629e-12
-28.9511 478.634 -1.44181e-12
-1.85629e-12 -1.44181e-12 491.362

258.482 -49.1926 2.24295e-12
-49.1926 341.855 1.0895e-13
2.24295e-12 1.0895e-13 220.743

249.301 -55.951 -8.14756e-13
-55.951 344.764 1.84741e-12
-8.14756e-13 1.84741e-12 181.123

434.673 26.2214 -1.6082e-12
26.2214 454.413 -2.02801e-12
-1.6082e-12 -2.02801e-12 432.843

329.936 73.8459 -1.0895e-13
73.8459 280.02 -6.20541e-12
-1.0895e-13 -6.20541e-12 184.835

540.14 13.0468 2.87711e-12
13.0468 554.961 -2.08663e-12
2.87711e-12 -2.08663e-12 532.093

562.398 0.0404272 3.30876e-12
0.0404272 532.468 -4.29701e-12
3.30876e-12 -4.29701e-12 531.885

338.614 -73.1313 1.36424e-12
-73.1313 279.867 2.74506e-12
1.36424e-12 2.74506e-12 186.317

432.689 -23.425 -6.4837e-14
-23.425 466.331 -8.45546e-13
-6.4837e-14 -8.45546e-13 447.591

358.946 34.7307 -1.6532e-12
34.7307 310.988 1.83438e-12
-1.6532e-12 1.83438e-12 258.049

267.714 63.4927 6.0254e-12
63.4927 345.222 9.42653e-13
6.0254e-12 9.42653e-13 185.852

293.704 21.6311 -3.39166e-12
21.6311 367.676 1.52767e-12
-3.39166e-12 1.52767e-12 254.508

267.586 -65.9216 -8.69231e-13
-65.9216 344.857 1.0895e-13
-8.69231e-13 1.0895e-13 184.308

291.651 -12.3816 -9.91207e-13
-12.3816 370.898 6.53699e-13
-9.91207e-13 6.53699e-13 253.454

550.318 6.84074 3.37671e-12
6.84074 582.09 4.12618e-12
3.37671e-12 4.12618e-12 541.131

329.903 -45.9769 8.92915e-13
-45.9769 341.83 -3.5314e-12
8.92915e-13 -3.5314e-12 276.626

259.791 47.5338 2.83151e-12
47.5338 340.23 -3.50061e-12
2.83151e-12 -3.50061e-12 223.155

370.229 37.9126 -3.1406e-12
37.9126 244.929 9.82917e-14
-3.1406e-12 9.82917e-14 187.364

481.91 -29.2867 -2.76993e-12
-29.2867 460.531 5.30331e-12
-2.76993e-12 5.30331e-12 467.733

480.994 12.8965 8.74264e-13
12.8965 525.848 5.23966e-12
8.74264e-13 5.23966e-12 504.121

354.433 -38.1141 1.77636e-12
-38.1141 300.089 6.3712e-12
1.77636e-12 6.3712e-12 251.825

482.554 -28.803 -4.5078e-12
-28.803 460.339 3.29751e-12
-4.5078e-12 3.29751e-12 468.482

365.276 -36.3444 1.8711e-12
-36.3444 230.997 -3.3662e-12
1.8711e-12 -3.3662e-12 182.777

481.522 -28.3183 1.38141e-12
-28.3183 472.774 2.49578e-13
1.38141e-12 2.49578e-13 477.937

436.372 -25.296 -1.16115e-12
-25.296 466.244 -3.00027e-12
-1.16115e-12 -3.00027e-12 448.229

314.809 69.4623 1.07529e-12
69.4623 292.152 6.26462e-12
1.07529e-12 6.26462e-12 184.531

290.793 -22.9338 -9.82917e-14
-22.9338 359.179 3.79667e-12
-9.82917e-14 3.79667e-12 247.04

312.411 -71.6944 9.52127e-13
-71.6944 288.132 -8.57388e-13
9.52127e-13 -8.57388e-13 182.034

268.556 50.7393 -1.25399e-11
50.7393 320.072 -5.41197e-12
-1.25399e-11 -5.41197e-12 221.514

459.881 -30.2133 2.66927e-12
-30.2133 454.865 4.27599e-12
2.66927e-12 4.27599e-12 454.419

559.3 -14.6406 1.49984e-12
-14.6406 544.424 3.84877e-15
1.49984e-12 3.84877e-15 533.732

635.925 11.0916 5.098e-12
11.0916 631.388 3.97726e-12
5.098e-12 3.97726e-12 570.03

619.962 -5.16018 6.72055e-13
-5.16018 639.742 -5.32885e-12
6.72055e-13 -5.32885e-12 568.508

453.888 13.0838 1.06424e-12
13.0838 506.575 -1.78109e-12
1.06424e-12 -1.78109e-12 482.59

634.155 -10.666 -1.6509e-12
-10.666 631.319 3.52266e-12
-1.6509e-12 3.52266e-12 569.885

622.701 4.09202 5.13249e-12
4.09202 642.687 -6.14853e-12
5.13249e-12 -6.14853e-12 569.71

643.378 7.43281 3.34251e-13
7.43281 619.153 -1.92572e-12
3.34251e-13 -1.92572e-12 569.032

584.784 -12.114 -6.93157e-12
-12.114 631.673 -1.44852e-11
-6.93157e-12 -1.44852e-11 560.605

307.456 -30.4716 7.72715e-13
-30.4716 371.649 -1.63425e-12
7.72715e-13 -1.63425e-12 280.782

589.635 -12.9721 7.919e-12
-12.9721 549.125 3.38544e-12
7.919e-12 3.38544e-12 543.84

527.222 -34.417 -7.15191e-12
-34.417 521.501 -4.88202e-13
-7.15191e-12 -4.88202e-13 519.981

565.476 -18.1772 1.16884e-12
-18.1772 538.003 3.17524e-12
1.16884e-12 3.17524e-12 534.273

502.589 15.4598 2.0363e-12
15.4598 452.134 -4.65613e-12
2.0363e-12 -4.65613e-12 480.225

586.356 9.86339 2.77685e-12
9.86339 642.139 -1.08453e-11
2.77685e-12 -1.08453e-11 563.115

636.661 19.2264 2.06013e-12
19.2264 591.73 -4.0821e-12
2.06013e-12 -4.0821e-12 562.936

569.788 11.3072 3.45294e-12
11.3072 544.352 -1.53226e-12
3.45294e-12 -1.53226e-12 536.45

353.457 -15.3402 -1.78109e-12
-15.3402 231.524 -1.63899e-12
-1.78109e-12 -1.63899e-12 219.023

437.225 24.9653 -4.15668e-12
24.9653 461.933 6.48962e-13
-4.15668e-12 6.48962e-13 445.741

317.102 -61.3573 -2.73085e-12
-61.3573 277.86 2.78533e-12
-2.73085e-12 2.78533e-12 218.097

334.222 -57.4595 -8.98837e-12
-57.4595 357.337 2.15768e-12
-8.98837e-12 2.15768e-12 252.55

383.349 -36.5456 4.04062e-12
-36.5456 305.751 8.08479e-12
4.04062e-12 8.08479e-12 257.771

562.507 -5.15883 1.11792e-12
-5.15883 616.958 4.80667e-12
1.11792e-12 4.80667e-12 552.963

562.214 2.89131 1.4951e-12
2.89131 615.823 -1.7808e-13
1.4951e-12 -1.7808e-13 552.562

598.778 -24.4547 -8.89659e-13
-24.4547 575.752 -2.86956e-13
-8.89659e-13 -2.86956e-13 551.591

602.337 -21.7587 -8.43758e-12
-21.7587 573.443 3.00115e-12
-8.43758e-12 3.00115e-12 551.857

598.79 26.1342 -2.56802e-12
26.1342 580.467 6.7321e-12
-2.56802e-12 6.7321e-12 552.747

625.747 3.09829 8.68565e-12
3.09829 630.739 -4.08895e-12
8.68565e-12 -4.08895e-12 568.431

599.067 -20.5076 6.0858e-12
-20.5076 576.364 -3.20433e-12
6.0858e-12 -3.20433e-12 552.28

607.817 -18.5673 -3.50298e-12
-18.5673 620.267 -1.58267e-11
-3.50298e-12 -1.58267e-11 563.197

632.905 2.43365 1.2609e-11
2.43365 635.53 6.19682e-12
1.2609e-11 6.19682e-12 570.516

607.894 -20.5247 3.31291e-12
-20.5247 572.436 -1.05723e-12
3.31291e-12 -1.05723e-12 553.419

607.079 20.9543 -1.57674e-12
20.9543 573.694 1.12799e-12
-1.57674e-12 1.12799e-12 553.822

633.856 -3.45761 -9.01501e-12
-3.45761 636.781 5.10599e-12
-9.01501e-12 5.10599e-12 571.29

632.186 -3.11592 7.64618e-12
-3.11592 625.761 -7.13415e-12
7.64618e-12 -7.13415e-12 569.406

609.688 12.1096 -1.03739e-12
12.1096 620.49 -1.58392e-13
-1.03739e-12 -1.58392e-13 563.928

587.212 26.9282 1.09838e-13
26.9282 583.027 -4.7757e-12
1.09838e-13 -4.7757e-12 551.715

FIELD solute_concentration_TPM 2
S_ext 1 563 float
0.910787
0.910615
0.910632
0.910616
0.910592
0.910632
0.910787
0.910625
0.910647
0.910618
0.910751
0.910625
0.910628
0.910618
0.910598
0.910631
0.910611
0.910623
0.910651
0.910635
0.910641
0.91055
0.910637
0.910635
0.910635
0.91062
0.910742
0.910631
0.910694
0.910571
0.910629
0.910692
0.910746
0.910578
0.910577
0.910578
0.910568
0.910579
0.910629
0.910746
0.910693
0.910567
0.910567
0.910628
0.910723
0.910693
0.910649
0.910645
0.910632
0.910701
0.910697
0.91068
0.91059
0.910681
0.910591
0.910729
0.910577
0.91068
0.910577
0.910634
0.91061
0.910604
0.910738
0.910606
0.910603
0.910615
0.910609
0.910621
0.910636
0.910614
0.91059
0.91059
0.910694
0.910612
0.910633
0.91075
0.910599
0.910615
0.910621
0.910673
0.91071
0.910588
0.910607
0.910712
0.910693
0.910726
0.910631
0.910615
0.910723
0.910557
0.91068
0.910557
0.910597
0.910617
0.91068
0.910697
0.910711
0.910618
0.910599
0.910629
0.910663
0.91069
0.910711
0.91062
0.91062
0.910619
0.910606
0.910631
0.910712
0.91061
0.910634
0.91072
0.910715
0.910622
0.910619
0.910681
0.910579
0.910713
0.91058
0.91068
0.910655
0.910598
0.910614
0.91061
0.91061
0.910596
0.910583
0.910618
0.910711
0.910679
0.910589
0.910615
0.910606
0.910614
0.91069
0.910576
0.910721
0.910628
0.910606
0.910576
0.910688
0.910622
0.910655
0.910618
0.910714
0.910619
0.910624
0.910635
0.910633
0.910666
0.910644
0.910614
0.910692
0.910628
0.910618
0.910615
0.910616
0.910688
0.910687
0.910625
0.910644
0.910691
0.910723
0.910695
0.910686
0.910619
0.910687
0.910688
0.910693
0.910686
0.910596
0.91068
0.910697
0.910615
0.91068
0.910606
0.910596
0.910626
0.910591
0.910621
0.910694
0.910618
0.910618
0.910687
0.910614
0.910698
0.91061
0.910608
0.910598
0.910618
0.910613
0.91071
0.910679
0.910692
0.910614
0.910623
0.910622
0.910606
0.910614
0.910616
0.910614
0.91065
0.910673
0.910607
0.910695
0.910606
0.910616
0.910689
0.910603
0.910614
0.910604
0.910619
0.91062
0.910607
0.910665
0.910619
0.910672
0.910608
0.91061
0.91061
0.91061
0.91061
0.91061
0.910611
0.910619
0.910598
0.910598
0.910597
0.910598
0.910592
0.910592
0.910666
0.910617
0.910614
0.910646
0.910598
0.910598
0.910614
0.910672
0.910614
0.910618
0.910665
0.910602
0.910666
0.910607
0.910614
0.910664
0.910671
0.91071
0.910703
0.910606
0.910716
0.910629
0.910672
0.91065
0.910614
0.91061
0.910569
0.91061
0.91072
0.910671
0.910614
0.910625
0.910673
0.91061
0.910654
0.910569
0.910671
0.91061
0.910612
0.910622
0.910598
0.910615
0.910591
0.910627
0.910722
0.910727
0.910596
0.910639
0.910625
0.910668
0.910602
0.910616
0.910671
0.910617
0.910663
0.910624
0.910663
0.910671
0.910561
0.910595
0.910596
0.910596
0.910618
0.910663
0.910579
0.910612
0.910644
0.910662
0.910667
0.910595
0.910665
0.910599
0.910666
0.910723
0.910662
0.910715
0.910607
0.910665
0.910561
0.910665
0.91061
0.910666
0.910611
0.910665
0.910632
0.910745
0.910632
0.910666
0.910593
0.910665
0.910643
0.910613
0.910614
0.910665
0.910662
0.910654
0.910609
0.910662
0.910626
0.910631
0.910593
0.910663
0.910655
0.910642
0.910654
0.910664
0.910654
0.910605
0.910625
0.910655
0.910665
0.910622
0.910622
0.910662
0.910593
0.910757
0.910634
0.91071
0.910641
0.910811
0.910811
0.910809
0.910809
0.910807
0.910816
0.910816
0.910607
0.910584
0.910625
0.910644
0.91065
0.910654
0.910624
0.910655
0.910655
0.910585
0.910654
0.910604
0.91068
0.910598
0.910633
0.910644
0.910655
0.910597
0.910634
0.910643
0.910633
0.910642
0.910653
0.910674
0.910644
0.910635
0.910602
0.91065
0.910654
0.91065
0.910644
0.910635
0.910623
0.91065
0.910623
0.910634
0.910644
0.910625
0.910634
0.910653
0.91061
0.910642
0.910585
0.910723
0.910607
0.910605
0.910635
0.910643
0.910614
0.910757
0.910633
0.910643
0.910743
0.910564
0.910565
0.910632
0.910651
0.910641
0.91065
0.91055
0.910549
0.910622
0.910625
0.910625
0.910761
0.910653
0.910609
0.910646
0.910647
0.910645
0.910757
0.910612
0.910651
0.910634
0.910634
0.910647
0.910643
0.910647
0.910646
0.910745
0.910714
0.910643
0.910634
0.910642
0.910647
0.910643
0.910642
0.910642
0.910725
0.9106
0.91065
0.910615
0.910611
0.910726
0.910632
0.910632
0.910593
0.910559
0.910559
0.910595
0.910653
0.910634
0.910727
0.910561
0.910548
0.910548
0.910759
0.910578
0.91057
0.910635
0.910598
0.910625
0.910617
0.910609
0.910609
0.910626
0.910756
0.910631
0.910617
0.910609
0.910751
0.910575
0.910749
0.910607
0.91062
0.910665
0.910627
0.910627
0.910588
0.910623
0.910588
0.910632
0.91061
0.910574
0.910575
0.910728
0.910615
0.910789
0.91079
0.910789
0.910613
0.910762
0.91079
0.910648
0.910788
0.910587
0.910587
0.910788
0.910638
0.910748
0.910793
0.910747
0.910793
0.910747
0.910578
0.910732
0.910761
0.910787
0.910627
0.910605
0.91075
0.910627
0.910787
0.910621
0.910638
0.910794
0.91075
0.910794
0.910758
0.910634
0.910584
0.910548
0.910549
0.910618
0.910548
0.910548
0.910549
0.910557
0.91073
0.910574
0.910596
0.910585
0.91062
0.910556
0.910556
0.910584
0.910758
0.910639
0.910765
0.910753
0.910746
0.910562
0.910562
0.910563
0.910563
0.910562
0.910552
0.910567
0.910558
0.910552
0.910565
0.910564
0.910552
0.910551
0.910556
0.910566
P_ext 1 563 float
0.0163366
0.0163326
0.0163332
0.0163326
0.0163311
0.0163331
0.0163366
0.0163329
0.0163336
0.0163326
0.0163359
0.0163328
0.016333
0.0163326
0.0163315
0.0163331
0.0163323
0.0163328
0.0163337
0.0163333
0.0163334
0.0163284
0.0163333
0.0163332
0.0163333
0.0163327
0.0163357
0.016333
0.0163348
0.0163298
0.016333
0.0163347
0.0163358
0.0163303
0.0163303
0.0163303
0.0163297
0.0163304
0.016333
0.0163358
0.0163347
0.0163297
0.0163297
0.016333
0.0163354
0.0163347
0.0163336
0.0163335
0.0163331
0.0163349
0.0163348
0.0163344
0.0163311
0.0163345
0.0163311
0.0163355
0.0163303
0.0163344
0.0163303
0.0163332
0.0163323
0.0163319
0.0163357
0.016332
0.0163319
0.0163324
0.0163322
0.0163328
0.0163333
0.0163325
0.0163311
0.0163311
0.0163348
0.0163322
0.0163332
0.0163359
0.0163316
0.0163324
0.0163327
0.0163343
0.0163351
0.0163309
0.016332
0.0163351
0.0163347
0.0163354
0.0163331
0.0163323
0.0163354
0.0163286
0.0163344
0.0163286
0.0163315
0.0163324
0.0163344
0.0163348
0.0163351
0.0163326
0.0163316
0.016333
0.016334
0.0163347
0.0163351
0.0163328
0.0163327
0.0163327
0.016332
0.0163331
0.0163351
0.0163323
0.0163332
0.0163353
0.0163352
0.0163328
0.0163327
0.0163345
0.0163303
0.0163352
0.0163303
0.0163344
0.0163338
0.0163316
0.0163325
0.0163322
0.0163322
0.0163315
0.0163305
0.0163326
0.0163351
0.0163344
0.016331
0.0163326
0.0163321
0.0163325
0.0163347
0.0163302
0.0163353
0.0163329
0.016332
0.0163302
0.0163346
0.0163327
0.0163338
0.0163326
0.0163352
0.0163327
0.0163327
0.0163331
0.0163332
0.0163341
0.0163335
0.0163325
0.0163347
0.016333
0.0163326
0.0163326
0.0163325
0.0163346
0.0163346
0.0163329
0.0163335
0.0163347
0.0163354
0.0163348
0.0163346
0.0163327
0.0163346
0.0163346
0.0163347
0.0163346
0.0163314
0.0163344
0.0163348
0.0163325
0.0163344
0.016332
0.0163314
0.0163328
0.0163311
0.0163327
0.0163348
0.0163327
0.0163326
0.0163346
0.0163323
0.0163348
0.0163323
0.016332
0.0163314
0.0163327
0.0163323
0.0163351
0.0163344
0.0163347
0.0163325
0.0163329
0.0163328
0.0163321
0.0163325
0.0163324
0.0163325
0.0163337
0.0163343
0.0163321
0.0163348
0.016332
0.0163324
0.0163346
0.0163318
0.0163325
0.0163317
0.0163326
0.0163327
0.016332
0.016334
0.0163325
0.0163343
0.0163321
0.0163323
0.0163323
0.0163323
0.0163323
0.0163323
0.0163323
0.0163326
0.0163316
0.0163316
0.0163315
0.0163315
0.0163311
0.0163311
0.0163341
0.0163325
0.0163325
0.0163336
0.0163315
0.0163315
0.0163325
0.0163342
0.0163325
0.0163326
0.0163341
0.0163317
0.0163341
0.016332
0.0163325
0.0163341
0.0163342
0.0163351
0.0163349
0.0163321
0.0163352
0.016333
0.0163343
0.0163337
0.0163326
0.0163323
0.0163297
0.0163323
0.0163353
0.0163342
0.0163325
0.0163328
0.0163343
0.0163323
0.0163338
0.0163297
0.0163342
0.0163322
0.0163323
0.0163328
0.0163315
0.0163323
0.0163311
0.016333
0.0163353
0.0163354
0.0163313
0.0163334
0.0163328
0.0163341
0.0163317
0.0163325
0.0163342
0.0163324
0.016334
0.0163327
0.016334
0.0163342
0.0163291
0.0163314
0.0163314
0.0163315
0.0163326
0.016334
0.0163304
0.0163323
0.0163335
0.016334
0.0163341
0.0163313
0.0163341
0.0163314
0.0163341
0.0163354
0.016334
0.0163352
0.016332
0.0163341
0.0163291
0.0163341
0.0163321
0.0163341
0.0163322
0.0163341
0.0163331
0.0163358
0.0163332
0.0163341
0.0163313
0.0163341
0.0163334
0.0163323
0.0163325
0.0163341
0.016334
0.0163338
0.016332
0.016334
0.0163328
0.0163331
0.0163312
0.016334
0.0163338
0.0163334
0.0163338
0.016334
0.0163338
0.0163318
0.0163328
0.0163338
0.0163341
0.0163327
0.0163327
0.016334
0.0163312
0.016336
0.0163331
0.0163351
0.0163334
0.016337
0.016337
0.016337
0.016337
0.0163369
0.0163371
0.0163371
0.016332
0.0163306
0.0163329
0.0163334
0.0163337
0.0163338
0.0163327
0.0163338
0.0163338
0.0163306
0.0163338
0.0163318
0.0163344
0.0163316
0.0163331
0.0163335
0.0163338
0.0163313
0.0163331
0.0163335
0.0163331
0.0163334
0.0163338
0.0163343
0.0163334
0.0163332
0.0163318
0.0163336
0.0163338
0.0163337
0.0163335
0.0163332
0.0163327
0.0163337
0.0163327
0.0163332
0.0163335
0.0163328
0.0163332
0.0163337
0.0163322
0.0163334
0.0163307
0.0163354
0.016332
0.0163318
0.0163332
0.0163335
0.0163324
0.016336
0.0163331
0.0163335
0.0163358
0.0163292
0.0163292
0.0163331
0.0163337
0.0163334
0.0163337
0.0163281
0.0163281
0.0163328
0.0163328
0.0163328
0.0163361
0.0163337
0.0163321
0.0163336
0.0163336
0.0163335
0.016336
0.0163322
0.0163337
0.0163331
0.0163331
0.0163336
0.0163335
0.0163336
0.0163336
0.0163358
0.0163352
0.0163334
0.0163331
0.0163334
0.0163336
0.0163335
0.0163334
0.0163334
0.0163354
0.0163316
0.0163337
0.0163324
0.0163322
0.0163354
0.0163331
0.0163332
0.0163311
0.0163291
0.0163291
0.0163313
0.0163338
0.0163331
0.0163354
0.0163293
0.0163283
0.0163283
0.016336
0.0163304
0.0163298
0.0163332
0.0163315
0.0163329
0.0163326
0.0163322
0.0163321
0.0163328
0.016336
0.0163331
0.0163325
0.0163321
0.0163359
0.0163301
0.0163359
0.0163321
0.0163326
0.016334
0.016333
0.0163329
0.0163309
0.0163328
0.016331
0.0163332
0.0163322
0.0163299
0.0163299
0.0163355
0.0163325
0.0163366
0.0163366
0.0163366
0.0163323
0.0163361
0.0163366
0.0163336
0.0163366
0.0163309
0.0163309
0.0163366
0.0163333
0.0163358
0.0163367
0.0163358
0.0163367
0.0163358
0.0163303
0.0163356
0.0163361
0.0163366
0.0163329
0.0163319
0.0163359
0.0163329
0.0163366
0.0163327
0.0163333
0.0163367
0.0163359
0.0163367
0.016336
0.0163332
0.0163307
0.0163284
0.0163284
0.0163325
0.0163283
0.0163284
0.0163284
0.0163289
0.0163355
0.01633
0.0163313
0.0163306
0.0163326
0.0163288
0.0163288
0.0163306
0.016336
0.0163334
0.0163362
0.016336
0.0163358
0.0163293
0.0163294
0.0163294
0.0163294
0.0163294
0.0163285
0.0163295
0.0163287
0.0163283
0.0163293
0.0163293
0.0163283
0.0163285
0.0163287
0.0163294
FIELD solute_flux_TPM 2
S_ext 3 563 float
-4.9816e-05 1.66492e-05 -2.01952e-18
2.33932e-06 4.34766e-06 1.59295e-19
-7.96201e-06 -6.27077e-06 -3.34734e-19
-2.62831e-06 2.66091e-06 3.28357e-19
1.50929e-05 -4.34491e-06 -3.44451e-18
1.69062e-06 -9.90574e-06 5.0713e-19
-4.90557e-05 -1.68518e-05 -7.64711e-19
-8.80753e-06 -6.44421e-06 6.66999e-19
1.37024e-05 6.00464e-07 1.98758e-18
7.24198e-06 -2.61939e-06 -1.34144e-18
3.3225e-05 7.73217e-06 1.08517e-18
1.38024e-06 -1.08441e-05 2.18195e-18
8.66982e-06 6.9457e-06 1.00257e-18
1.79352e-06 8.70402e-06 2.34094e-18
1.36842e-05 -2.0544e-06 6.74662e-19
-1.00613e-05 -1.64011e-07 -3.27726e-19
1.9047e-06 9.08101e-06 -1.86373e-19
6.41093e-06 -1.56178e-06 2.01057e-18
6.10331e-06 1.06276e-05 -2.14438e-18
-9.16001e-06 1.17076e-06 -1.98881e-18
-2.15463e-06 -1.31726e-05 6.66552e-19
2.86241e-05 4.03929e-05 5.48594e-18
9.80978e-06 1.01229e-06 4.9843e-19
7.05453e-06 -7.00358e-06 5.10328e-19
-9.29134e-06 -2.08488e-06 1.71343e-19
-3.35043e-07 -7.00654e-06 -1.64189e-19
3.81222e-05 -2.97403e-06 -1.29024e-21
8.91759e-06 6.42495e-06 2.32996e-18
-1.51748e-05 -1.23385e-05 -4.99857e-18
3.23768e-05 -8.59843e-06 -1.39315e-18
-1.02624e-05 -3.86889e-06 3.67937e-18
3.25985e-06 -1.94684e-05 1.13398e-18
2.85994e-05 -2.91407e-05 3.13713e-18
-3.46206e-06 -2.76128e-05 1.76543e-19
-1.9556e-05 2.42988e-05 4.33143e-18
-2.56439e-05 -1.07967e-05 1.71277e-19
2.14944e-05 2.81057e-05 -1.77365e-19
-2.9515e-05 -5.81201e-06 3.80459e-18
9.16026e-06 -6.85325e-06 3.52365e-18
2.79426e-05 3.03652e-05 4.75469e-19
1.96026e-05 -8.55917e-06 -5.79874e-18
2.19117e-05 -2.70544e-05 3.30806e-18
-1.24809e-05 -3.24815e-05 1.39604e-18
-9.81787e-06 4.06611e-06 -3.50929e-18
1.83449e-05 -1.79381e-05 -1.5854e-19
-1.81873e-05 6.4605e-06 1.93441e-18
-2.5103e-06 -1.24848e-05 -1.63601e-19
4.84599e-06 1.24458e-05 -1.49094e-18
-1.01744e-05 3.73997e-06 3.50957e-18
-1.09096e-05 1.71688e-05 -3.20833e-18
1.97725e-05 9.28771e-06 -1.92622e-18
1.79197e-05 -6.24152e-06 -4.87651e-18
-1.03609e-05 1.03313e-05 3.42275e-18
-1.41994e-05 -1.23076e-05 -1.7854e-18
-1.39113e-05 -3.44065e-06 2.74002e-18
-2.66978e-05 1.59163e-05 1.42958e-18
-1.93616e-05 -2.50092e-05 5.03247e-18
3.73007e-06 -1.85552e-05 4.55314e-18
-3.1348e-05 4.30522e-06 -1.77715e-19
3.754e-06 8.52933e-06 1.66645e-18
-3.5286e-06 -5.36467e-06 -3.19901e-18
-4.17493e-06 -1.17313e-05 -4.41239e-18
3.44489e-05 1.50013e-05 1.58074e-18
6.15125e-06 1.17069e-05 -1.88181e-18
8.12627e-06 -9.36276e-06 -2.02819e-18
-1.17992e-06 -1.33026e-05 -1.00914e-18
3.10118e-06 -5.68144e-06 -2.68961e-18
-6.2856e-06 -3.5759e-06 2.34676e-18
-6.61325e-06 7.32369e-06 1.99093e-18
1.59653e-06 -2.73708e-06 1.0092e-18
-9.93096e-06 -1.03905e-05 1.71858e-18
-1.40322e-05 3.4507e-06 -1.20391e-18
-2.33396e-06 2.07254e-05 -5.6417e-18
-1.14554e-05 6.88792e-06 -8.48867e-19
-5.65057e-06 8.9844e-06 -5.02865e-19
-3.55711e-05 4.4427e-06 -2.65759e-18
5.2236e-06 -1.4075e-05 8.58974e-19
-1.21458e-05 -5.54887e-06 2.5306e-18
1.14439e-06 7.34604e-06 1.00514e-18
1.61632e-05 3.09536e-06 -5.37509e-18
2.06875e-05 -1.76042e-05 -9.58194e-19
1.47081e-05 1.34718e-05 -3.59916e-19
7.86357e-06 -1.9747e-06 -1.71614e-19
-1.92614e-05 1.41085e-05 -1.27428e-18
2.30425e-05 2.96444e-06 -3.39768e-18
-3.31311e-06 2.95042e-05 -2.53588e-18
-1.06065e-06 -1.05429e-05 1.42849e-21
1.17496e-05 6.33084e-06 -6.85269e-19
1.76429e-05 1.84684e-05 3.09209e-19
4.25134e-05 2.64323e-05 1.89271e-19
-3.27444e-06 1.86461e-05 -9.59656e-18
4.44096e-05 -2.49571e-05 -1.69364e-20
-1.7827e-05 3.36886e-06 3.58645e-18
1.15277e-05 7.19475e-06 1.34112e-18
-1.78053e-05 5.954e-06 9.73739e-19
1.00249e-05 1.73802e-05 2.25203e-18
5.94559e-06 -2.66641e-05 2.40693e-18
1.16354e-06 7.34419e-06 1.00968e-18
-9.51172e-06 -1.15306e-05 3.42199e-19
1.83718e-06 1.09137e-05 -2.84281e-18
1.62226e-05 3.27444e-06 -9.81952e-19
-9.35125e-06 1.99239e-05 -3.72945e-18
2.45615e-05 -8.20016e-06 -3.99181e-18
-2.38736e-06 4.61567e-06 -2.68832e-18
6.41393e-06 3.65023e-06 2.0148e-18
-1.35331e-06 -7.12672e-06 5.0704e-19
2.20535e-06 -1.25135e-05 -1.68822e-18
1.09583e-05 2.50333e-06 3.50588e-18
-4.94582e-06 2.46832e-05 -2.56189e-18
-6.41918e-06 6.7584e-08 -3.36471e-18
5.87003e-06 7.37741e-06 -1.16822e-18
-1.61864e-06 -2.51496e-05 -1.5335e-19
2.5465e-05 7.92403e-06 2.23184e-18
2.81407e-06 -4.63911e-06 3.5272e-18
-6.95188e-06 -2.30103e-06 -1.16532e-18
-1.7581e-05 -7.50777e-06 -1.4631e-18
1.05767e-05 2.76944e-05 2.5934e-18
-2.5716e-05 -9.17452e-06 2.71775e-18
1.07244e-05 -2.77685e-05 -5.26086e-19
-2.25689e-06 -1.9319e-05 3.23848e-19
1.35105e-05 3.6313e-07 9.89656e-19
-4.68244e-06 1.21642e-05 -1.5216e-18
-1.06894e-06 2.50006e-06 -1.84449e-18
-2.50849e-06 -1.06596e-05 7.53223e-21
3.39124e-06 -5.56495e-06 -1.70719e-19
6.20879e-06 1.03855e-05 4.99966e-19
2.22567e-05 7.30585e-06 1.26309e-20
5.60737e-06 -4.63649e-06 1.81976e-19
-5.08181e-06 -2.69877e-05 1.44203e-18
1.56239e-05 -1.14878e-05 -4.87774e-18
3.30206e-06 1.82977e-05 -1.04162e-18
-1.73865e-06 -1.85485e-06 -1.83263e-18
-5.67899e-06 -5.38137e-06 1.70014e-18
-3.07643e-06 1.11544e-07 -3.37774e-19
-1.37841e-05 1.70033e-05 -2.59169e-18
1.292e-05 -2.49068e-05 5.55494e-18
-1.60208e-05 2.53336e-05 -1.91547e-18
-1.01759e-05 5.98494e-06 -1.62443e-19
1.5987e-06 8.09769e-06 2.02362e-18
-1.50818e-05 -2.36228e-05 -6.93239e-19
8.35555e-06 2.02623e-05 -1.62352e-18
1.12688e-05 5.79918e-06 4.69727e-18
1.40957e-05 -5.36104e-06 1.1622e-18
-8.72276e-07 -7.12732e-06 -1.83837e-18
-2.01995e-05 -1.85742e-05 9.62329e-19
-1.64015e-06 7.1402e-06 6.63692e-19
1.10375e-05 6.53263e-06 4.94594e-19
1.1887e-05 -5.68015e-06 2.671e-18
5.211e-06 -8.88453e-06 1.76904e-19
1.49947e-05 -6.63223e-06 -1.79587e-18
1.18689e-05 -5.62116e-06 6.96491e-18
3.07404e-06 2.47181e-07 -6.56395e-19
1.56267e-05 1.23719e-05 -4.88206e-19
-1.59928e-06 -1.06242e-05 -3.34278e-18
-6.67972e-06 -2.70422e-06 2.01296e-18
7.85989e-07 -2.45701e-06 8.43438e-19
-2.15122e-06 1.00651e-05 -3.03072e-18
-2.07893e-05 1.65237e-06 4.85482e-19
-7.33607e-06 -1.99497e-05 -1.77612e-18
-4.9239e-06 6.05378e-06 -2.84767e-18
8.41689e-06 1.02309e-05 4.9465e-19
1.61276e-05 -1.15059e-05 -1.92882e-18
-2.20255e-05 -1.19531e-05 -4.71899e-19
1.04827e-05 -1.67896e-05 -1.92419e-18
1.38316e-05 -1.65352e-05 -2.10123e-18
-6.84308e-06 2.47919e-06 -1.33178e-18
-1.19491e-05 -1.71915e-05 -4.89423e-19
-2.07691e-05 -3.4686e-06 9.71745e-19
-2.50901e-06 -1.91295e-05 6.4617e-19
9.27602e-06 -1.92019e-05 -8.05954e-19
-6.07635e-06 -1.71595e-05 1.69523e-19
2.65479e-06 1.90231e-05 -3.25725e-18
-9.63645e-06 -1.70861e-05 1.12519e-18
2.04524e-06 -1.0387e-05 -1.34244e-18
-1.49364e-05 1.08535e-05 2.92567e-18
-9.69221e-06 -7.93878e-06 -1.18578e-18
-1.79453e-05 -3.25965e-06 -3.41226e-19
9.96639e-06 -5.88127e-06 6.69989e-19
-2.78262e-06 1.57814e-05 1.72529e-18
7.94953e-06 -5.85984e-06 -1.16358e-18
-1.77526e-05 -7.77515e-06 -1.45561e-18
-5.63132e-06 -4.61483e-06 -1.51414e-18
5.86747e-06 4.67645e-06 1.34298e-18
1.29965e-05 1.74176e-05 -3.56607e-18
-1.11298e-05 -6.94809e-06 1.70185e-19
-1.94511e-05 -4.72336e-07 2.08696e-18
-1.05953e-05 -3.07189e-06 8.40313e-19
-3.01437e-06 -1.06719e-05 3.22468e-18
1.16655e-05 1.41833e-05 4.94799e-18
-7.01049e-06 3.59319e-06 2.51526e-18
4.83456e-07 -1.31495e-05 5.57953e-18
-2.49101e-05 6.40581e-06 1.76748e-18
1.52019e-05 1.23269e-05 -1.62801e-18
2.2135e-06 1.99045e-05 -5.4865e-18
-1.49403e-06 2.48643e-06 5.18967e-19
-5.60588e-06 1.561e-07 5.08594e-19
2.76197e-06 4.82679e-06 -8.37183e-19
-7.62435e-06 2.30675e-06 -3.05123e-18
-1.35457e-06 -2.37831e-06 3.50012e-19
1.17752e-06 1.32605e-05 4.92525e-19
2.94614e-06 1.83411e-07 4.37011e-18
-1.19394e-05 2.89803e-06 -1.60812e-19
-1.05585e-05 1.16759e-05 -2.12247e-18
-1.94959e-06 7.58824e-06 1.77349e-19
-1.75856e-05 1.0982e-05 -3.27572e-19
-6.1617e-06 5.80534e-06 -1.18297e-18
1.11599e-05 -7.67254e-06 -1.68569e-19
2.22651e-05 -2.22454e-06 -4.19591e-18
-1.37815e-05 7.29485e-06 -1.86834e-18
1.38534e-06 2.95496e-06 1.84532e-18
1.43937e-05 -2.69722e-06 -2.36686e-18
-1.09572e-05 6.69686e-06 -3.53203e-18
-6.17865e-06 3.56911e-06 -8.3261e-19
7.86583e-06 2.59488e-06 -2.18186e-18
1.34413e-05 -8.3449e-06 -3.92474e-18
-1.10633e-05 6.26554e-06 -2.35679e-18
-1.51228e-05 -3.1812e-06 2.61496e-18
-1.08081e-05 -2.72079e-06 2.36735e-18
6.58135e-06 1.1352e-07 -5.36742e-18
6.73523e-06 1.39551e-08 3.36828e-18
2.938e-06 5.38075e-06 2.84266e-18
3.22191e-06 -5.68364e-06 1.69183e-18
-3.1976e-06 5.54112e-06 1.02609e-18
-3.34332e-06 -5.66552e-06 -3.1829e-18
6.29656e-06 -4.86233e-06 -1.51273e-18
-1.33891e-05 2.19009e-06 -8.57931e-19
-1.32376e-05 -2.23175e-06 8.48188e-19
-8.50039e-06 1.04388e-05 1.70242e-18
-8.54647e-06 -1.04774e-05 -8.42561e-19
4.92437e-06 -1.33035e-05 -1.03104e-18
4.74454e-06 1.31925e-05 4.61967e-18
9.29078e-07 1.58274e-05 -1.96357e-18
7.30147e-06 -1.84196e-06 -3.22865e-19
1.57483e-06 -2.4346e-06 -2.33013e-18
-1.30358e-05 9.00365e-07 3.32239e-18
5.07654e-06 -1.30903e-05 -8.52142e-19
4.81115e-06 1.31366e-05 3.05833e-18
3.0663e-06 -5.66537e-08 -1.17402e-18
5.43852e-06 1.49274e-05 -3.26101e-18
-1.42319e-06 -2.54221e-06 -2.67869e-18
1.43355e-06 -7.16111e-06 -4.90015e-19
-1.36202e-05 -7.29067e-06 -1.31217e-18
-1.39278e-05 -7.43307e-06 -2.3748e-18
-1.33093e-05 8.25242e-06 -4.26091e-18
2.07197e-06 -8.19477e-06 -1.3528e-18
-1.01232e-06 2.12138e-06 -2.35365e-18
-4.49246e-07 -1.55766e-05 1.8061e-18
-4.77217e-06 -1.47861e-05 8.1853e-19
1.97996e-05 1.84118e-05 2.07684e-18
2.16418e-05 -1.11045e-06 -3.8389e-18
-8.30403e-06 -2.47116e-06 -1.01349e-18
-1.37687e-05 -2.45334e-05 -3.22419e-19
5.21487e-06 8.54665e-06 5.03089e-19
-1.52389e-05 1.79844e-06 1.67684e-19
1.24609e-05 3.57642e-06 1.48251e-18
-2.86768e-06 -1.2057e-08 -3.16401e-18
-3.07512e-06 -5.45024e-06 1.86377e-18
-5.42678e-06 -2.57879e-05 2.08785e-18
-6.3394e-06 2.68807e-08 -5.22191e-18
-2.86259e-05 -1.07363e-06 3.20439e-19
1.05769e-05 -1.17424e-05 -1.95053e-18
1.60292e-06 2.52215e-06 2.68609e-18
-1.0202e-07 -1.10368e-05 1.51341e-18
-6.05713e-06 1.45612e-05 -5.21677e-18
-2.89902e-06 5.58693e-06 -6.6836e-19
1.27514e-05 -8.38268e-06 -3.25316e-19
-2.50436e-05 -8.17402e-06 1.21665e-18
-9.30758e-06 -1.2299e-05 -1.7932e-18
3.23394e-06 5.57571e-06 -1.3517e-18
1.08975e-05 3.14173e-06 4.7268e-18
-2.96956e-06 -4.54216e-06 -3.18025e-18
1.32286e-05 2.45761e-06 -3.0529e-18
1.18274e-05 -6.29513e-06 1.35426e-18
-2.30137e-07 1.7794e-05 3.2633e-19
5.24394e-06 -8.51283e-06 2.52302e-18
2.95783e-05 1.2459e-06 -3.97965e-18
-2.51344e-05 6.54075e-06 7.92424e-19
1.51945e-05 7.55439e-06 6.49668e-18
-3.96823e-06 -1.05491e-05 -1.33173e-18
-9.66004e-06 -5.36353e-06 5.03498e-19
1.76336e-05 -1.4362e-07 -2.45459e-18
-4.90159e-07 -1.58227e-05 3.40623e-18
-7.92972e-06 -7.05354e-06 1.34525e-18
6.21655e-06 -1.43873e-05 -9.75623e-19
-3.98618e-07 1.31127e-05 -1.69339e-18
4.76257e-06 1.59112e-05 -9.86832e-19
1.10467e-05 -6.36194e-06 -2.51288e-18
-1.15496e-05 1.15921e-05 -2.46874e-18
1.00851e-05 1.22813e-05 9.81096e-19
-4.32304e-05 1.0303e-05 8.81817e-19
-6.74342e-06 1.70468e-05 -2.06081e-18
8.30019e-06 -1.00144e-05 -3.22445e-18
-4.56617e-06 -1.21212e-05 -1.1841e-18
-7.57735e-06 2.72165e-06 -6.72843e-19
-1.56201e-05 -4.29914e-06 2.14115e-18
-4.46573e-06 2.59421e-05 3.43916e-18
-7.98251e-06 7.79918e-06 -1.0054e-18
1.29308e-05 -2.88993e-06 2.98436e-18
-4.16512e-06 -1.56849e-05 1.14954e-18
-9.04725e-06 1.44008e-05 -1.15256e-18
-1.42267e-05 8.21596e-06 2.7408e-18
-1.24874e-05 -9.11632e-06 -2.61898e-18
1.19048e-05 -1.38584e-05 -1.02838e-18
-1.65593e-05 -8.83004e-07 1.80825e-18
7.24563e-06 -2.47738e-05 -1.62391e-19
1.19353e-05 -1.15713e-05 -4.84753e-19
1.48076e-05 2.59962e-05 -5.60476e-18
1.30414e-06 1.28636e-05 -3.06191e-18
1.79529e-06 -1.5547e-05 1.71763e-19
-2.81104e-05 3.30211e-05 3.53012e-19
-7.71224e-06 -1.47369e-05 3.28582e-18
1.08009e-05 -4.09544e-06 -1.1658e-18
-1.56189e-06 1.56679e-05 -5.90216e-18
8.33118e-06 -7.89955e-06 -1.50073e-22
8.46045e-06 1.4824e-05 6.56491e-19
1.07815e-05 -9.50039e-07 -2.67178e-18
1.29292e-05 -3.78401e-05 2.52997e-18
-3.61966e-06 -7.96006e-06 -2.99578e-18
-1.40667e-05 6.03764e-06 -8.17552e-19
-1.31485e-05 1.23481e-05 -5.00924e-19
1.32575e-05 8.97521e-06 2.1251e-18
1.16646e-05 -6.76869e-06 2.16218e-18
9.58592e-06 8.24778e-06 5.0367e-19
-3.53895e-06 -6.55461e-08 -3.37719e-19
9.40591e-06 -1.40915e-05 -1.79711e-18
-1.03449e-05 -1.22805e-05 -6.52968e-19
1.3935e-05 6.08884e-06 6.54588e-19
8.32145e-06 -7.89348e-06 3.89427e-18
5.77582e-06 -1.51821e-05 2.30641e-18
1.05436e-05 -4.5686e-06 -2.0141e-18
-9.83448e-06 -4.71992e-06 4.16835e-18
8.9788e-07 -1.71982e-05 1.37513e-18
-1.57556e-05 2.74143e-06 1.70366e-19
1.37736e-06 1.50435e-05 -1.98315e-18
1.28187e-05 4.2069e-06 -6.6565e-19
-1.32234e-05 -6.55224e-06 2.15268e-18
-5.46019e-06 1.55485e-05 -1.97549e-18
-8.95857e-07 -1.48417e-05 -2.14056e-18
1.2766e-05 7.77983e-06 2.54388e-18
-9.80555e-07 1.1412e-05 8.29131e-19
-1.23306e-05 8.26301e-06 -3.46531e-18
1.4492e-05 6.99346e-06 -2.45767e-18
-1.07295e-05 -6.42725e-06 3.35774e-18
2.07574e-07 -1.2562e-05 2.02613e-18
1.13025e-05 1.22074e-05 1.309e-18
-1.44345e-05 -9.36387e-06 1.75444e-19
2.92137e-05 -2.08948e-05 -1.08378e-18
1.13406e-05 -6.7752e-06 1.83953e-18
5.22647e-06 2.59172e-05 -4.48302e-18
1.07063e-05 -8.45722e-06 -8.22875e-19
-1.35595e-05 5.23508e-05 -1.48189e-19
-1.36294e-05 -5.18538e-05 -2.66578e-18
3.40862e-05 4.45369e-05 1.4824e-18
3.36772e-05 -4.4526e-05 4.57207e-19
5.56439e-05 -2.77575e-08 2.81356e-18
-4.78747e-05 1.94087e-05 2.9588e-19
-4.70993e-05 -1.96106e-05 -3.42505e-18
7.97214e-06 7.78178e-06 1.34994e-18
1.9636e-05 1.4652e-05 4.31129e-18
7.21276e-06 2.15443e-06 -3.18157e-18
1.18048e-05 6.06046e-06 -7.06275e-21
3.05024e-06 1.24483e-05 1.48653e-18
-1.15409e-05 -9.04551e-06 1.82048e-18
1.10113e-05 -6.4124e-06 -1.8345e-18
1.23211e-05 8.93596e-06 -1.75081e-19
-1.92029e-06 1.49386e-05 -3.79558e-18
1.97365e-05 -1.34496e-05 8.64728e-19
2.24327e-06 -1.4578e-05 1.94503e-21
1.44695e-05 3.24397e-06 -1.51447e-21
1.82255e-05 6.79386e-06 -1.67671e-19
9.39981e-06 9.26601e-06 1.68631e-18
9.98522e-06 4.18015e-06 -1.50249e-18
-1.14103e-05 6.74378e-06 1.4953e-18
-1.37411e-05 5.54636e-06 -9.88637e-19
1.52547e-05 -7.40674e-06 1.72148e-19
-1.13306e-05 -6.25964e-06 3.83406e-18
-1.14566e-05 -6.46916e-06 4.14707e-18
-1.60461e-07 -1.2974e-05 -5.6697e-18
-1.01275e-07 -1.3101e-05 -1.81991e-18
-1.22645e-05 -6.21857e-07 1.712e-19
1.64015e-05 -2.48393e-06 -3.25894e-18
1.12992e-05 7.08826e-06 2.97497e-18
-1.11548e-05 6.72809e-06 1.16898e-18
-9.87434e-06 1.08877e-05 1.36571e-18
9.94815e-06 -8.53974e-06 1.66249e-18
-6.79449e-06 1.06359e-05 3.25608e-19
-8.73077e-06 -9.07781e-06 3.30063e-18
-7.55801e-07 1.30816e-05 -2.82029e-18
-7.26472e-07 1.30938e-05 4.95532e-19
1.46446e-08 -1.2564e-05 4.03356e-18
3.75838e-06 -1.21703e-05 1.81864e-18
-1.08446e-05 -6.21788e-06 5.03259e-18
9.76838e-06 -3.49832e-06 1.62664e-19
4.1689e-07 1.33063e-05 -1.15972e-18
1.87535e-07 1.1649e-05 -2.01828e-18
-1.44338e-06 1.04634e-05 -1.50966e-18
1.35417e-05 -3.43164e-06 2.97174e-18
-1.07674e-05 3.31117e-06 -1.01303e-18
2.48137e-06 1.33189e-05 1.16501e-18
-2.15918e-05 8.43856e-06 1.72801e-18
5.68957e-06 2.53092e-05 -2.85267e-18
-1.10397e-05 2.85452e-06 -1.69624e-19
1.29694e-05 -7.69055e-06 -6.68913e-19
5.06599e-07 1.31217e-05 -5.04336e-19
-1.25328e-05 4.18302e-06 2.82835e-18
1.64316e-06 -1.0359e-05 1.86257e-18
5.6546e-07 -3.49851e-05 -1.70913e-18
1.21731e-06 1.0934e-05 -8.33916e-19
-1.05154e-05 8.52318e-06 -2.98937e-18
1.04231e-05 3.83305e-05 -3.20527e-19
3.14712e-05 2.61076e-05 -1.38732e-18
3.60888e-05 -2.46905e-05 2.26885e-18
9.39362e-06 -6.39483e-06 -4.89699e-19
-9.71652e-06 8.55945e-06 -9.94628e-19
-1.23952e-05 -4.94637e-06 1.99442e-18
-1.20164e-05 -4.16096e-06 4.14928e-21
4.4431e-05 -1.22133e-05 -1.78727e-18
4.53171e-05 9.53122e-06 1.61534e-18
6.8682e-06 2.44968e-06 6.72711e-19
3.57048e-07 1.23528e-05 1.67172e-18
6.2378e-08 1.23471e-05 1.66863e-18
-2.91306e-05 -2.13299e-05 3.10157e-19
7.05304e-06 -1.05929e-05 -2.6351e-18
7.60354e-06 8.27154e-06 -3.42701e-19
-1.30441e-05 -2.12591e-06 1.33517e-18
-8.65339e-06 1.04441e-05 2.31338e-18
-1.16294e-05 5.60715e-06 1.9949e-18
2.88519e-05 2.06921e-05 1.23389e-18
1.0303e-05 4.50861e-06 1.00624e-18
-3.45595e-06 1.22538e-05 -1.98652e-18
-1.06338e-05 -7.20922e-06 3.50576e-18
1.06741e-06 -1.28509e-05 2.17309e-18
-5.45614e-06 -1.18073e-05 3.30166e-19
-1.06245e-05 -7.226e-06 -5.00082e-19
6.51419e-06 -1.16566e-05 -2.47786e-18
8.80616e-06 -1.04441e-05 -3.2466e-19
-1.77348e-06 -3.66181e-05 -2.35327e-18
1.5666e-05 -2.48313e-05 1.6092e-18
1.07878e-06 -1.2868e-05 7.95683e-21
1.13702e-05 7.05795e-06 1.48991e-18
-8.98374e-06 -9.06978e-06 3.31931e-19
-6.02571e-06 1.20382e-05 -3.48421e-18
-3.04882e-06 1.29521e-05 -5.31968e-18
1.04276e-05 8.76483e-06 2.97796e-18
3.6783e-06 -1.23041e-05 2.82724e-18
-8.4038e-06 -2.40743e-05 -1.10245e-18
-1.37389e-06 1.63538e-05 -1.37619e-18
9.17255e-06 8.9395e-06 -9.94673e-19
-8.18447e-06 -6.55814e-06 8.3677e-19
-8.6514e-06 6.83975e-06 -4.21709e-18
2.69353e-05 -1.15585e-05 -1.42121e-18
4.70718e-06 -8.33367e-06 -8.27418e-19
-5.19625e-06 -7.76059e-06 -1.16665e-18
1.42476e-05 4.38376e-06 1.21333e-18
8.81052e-06 -3.17806e-05 2.62808e-18
-2.31231e-05 -2.3499e-05 1.71891e-19
1.55229e-05 4.02184e-06 1.87102e-18
-5.73606e-06 -1.11441e-05 8.23478e-19
1.17754e-05 6.0481e-06 8.25133e-19
-1.73297e-05 -1.92582e-05 9.44214e-19
7.13648e-06 3.23065e-05 3.1442e-18
3.13396e-05 -4.04901e-05 1.58862e-18
-1.9398e-05 -4.73751e-05 5.13603e-18
1.63123e-05 -3.18616e-05 -2.78146e-18
-8.36331e-06 2.88387e-05 -8.59279e-19
-4.78337e-06 2.55203e-05 2.6037e-18
-1.16313e-05 5.63843e-06 1.50302e-18
4.02374e-06 1.58023e-05 -1.25515e-20
-1.44862e-06 7.87388e-06 -1.84613e-18
6.45559e-06 2.14148e-06 3.35541e-19
-2.1883e-06 1.04761e-05 -3.39641e-19
-1.4567e-07 1.35284e-05 -1.20334e-20
1.059e-05 6.18766e-06 1.59916e-19
5.19622e-07 3.48194e-05 -7.76856e-19
-9.21097e-06 6.54958e-06 -1.34139e-18
1.03057e-05 -3.88922e-06 -2.84918e-18
1.11488e-05 -2.77752e-06 -4.04261e-18
-3.56894e-05 -5.14644e-06 1.6154e-19
-2.28629e-05 1.08856e-05 2.25483e-18
-2.58914e-05 -3.07058e-05 1.10681e-18
5.68499e-06 5.38619e-06 3.3667e-18
9.03915e-06 4.7899e-06 -3.40254e-19
1.64555e-05 -2.65859e-06 1.48094e-18
-5.03433e-06 -8.19142e-06 -1.50667e-18
1.08985e-05 5.4584e-06 -1.7086e-19
4.87973e-06 -1.98101e-05 1.21224e-18
-8.75256e-06 6.30416e-06 -1.85065e-18
-1.47107e-05 -1.41263e-05 -1.02629e-18
-3.56153e-06 1.01169e-05 -3.17651e-18
-2.24463e-06 1.33177e-05 -2.71774e-18
2.28484e-05 1.4182e-05 1.56607e-18
2.43656e-05 -1.29168e-05 -5.25534e-19
-2.49893e-05 -6.7234e-06 2.06134e-18
4.83393e-06 5.03974e-06 -3.19995e-18
-2.89611e-06 6.07704e-05 1.85182e-18
4.52489e-09 -6.24217e-05 -3.02392e-19
3.07698e-05 5.26573e-05 -1.38534e-18
-1.23367e-05 5.29012e-06 -1.52085e-18
-1.65243e-05 3.33744e-05 2.16924e-18
3.096e-05 -5.08248e-05 1.65876e-19
-7.20383e-06 -1.11177e-05 1.98579e-18
4.70812e-05 4.09659e-05 1.53974e-18
1.59115e-05 -1.17903e-05 -3.32053e-19
-2.27225e-06 -1.96626e-05 1.03869e-18
4.9329e-05 -4.00577e-05 7.64882e-19
-4.1807e-06 8.94137e-06 -1.3351e-18
-3.16621e-05 -2.01101e-05 -9.4618e-19
-2.60257e-05 -5.43479e-05 -1.69036e-18
-1.47479e-05 -3.44687e-05 -7.89217e-19
-2.67562e-05 5.52372e-05 -2.15257e-18
-6.33669e-06 3.82915e-05 -1.09716e-18
1.0692e-05 2.47109e-05 2.76014e-18
-1.70216e-05 2.18696e-05 7.85442e-19
-1.58135e-05 -3.24941e-05 -2.79107e-18
6.05644e-05 1.06316e-05 9.32125e-19
-1.07004e-05 6.63513e-06 1.16959e-18
-3.92046e-06 1.05402e-05 -1.02373e-18
-3.00315e-05 2.1619e-05 3.12828e-19
-1.08614e-05 6.25305e-06 -2.34456e-18
5.99682e-05 -9.48051e-06 -1.08087e-18
-9.74484e-06 4.842e-06 -1.1807e-18
4.49333e-06 -9.0016e-06 8.39845e-19
-4.6557e-05 -3.54841e-05 -2.45757e-18
-1.58885e-05 3.44929e-05 -9.42284e-19
-4.7665e-05 3.5231e-05 -3.85717e-18
1.44317e-05 3.17431e-05 7.71489e-19
-9.23253e-06 6.52435e-06 -2.83375e-18
-1.34544e-05 1.62417e-05 7.00402e-19
-2.41642e-05 3.03653e-05 5.12951e-18
-3.78994e-05 -4.87966e-06 -1.05857e-18
-6.67386e-07 1.03708e-05 -2.52906e-18
-2.55917e-05 -3.04929e-05 1.59437e-18
-3.92158e-05 6.92333e-06 5.2991e-19
-1.49431e-05 3.46475e-05 -5.79407e-22
-1.15228e-05 4.60798e-05 5.60814e-18
-1.10954e-05 2.46303e-05 -2.6876e-18
-2.23002e-05 1.79733e-05 4.16523e-18
1.63176e-05 -3.97155e-06 6.96604e-19
2.55667e-05 -1.32061e-06 1.40707e-20
8.62175e-06 5.31355e-06 3.86268e-18
-8.09608e-06 -5.30286e-05 4.74536e-18
-4.99824e-05 -1.94888e-05 2.98452e-18
2.4893e-05 2.67966e-07 -2.59384e-18
3.55178e-05 -6.8582e-06 1.39085e-18
-6.52313e-06 -8.27988e-06 -3.32325e-18
-3.0796e-05 2.16666e-05 -3.86967e-18
-2.76005e-05 3.16272e-05 -1.42056e-18
3.75459e-05 -1.35261e-05 -2.83661e-18
-1.86729e-05 -3.1625e-05 8.7306e-19
-1.90059e-05 3.1379e-05 5.76072e-18
-3.68613e-05 -1.31389e-06 6.89406e-19
-1.67569e-05 3.29831e-05 -8.67683e-19
-3.67483e-05 3.89383e-07 2.43473e-18
4.57519e-05 1.63778e-05 -3.49733e-19
3.68927e-05 1.36921e-06 1.40459e-18
3.47061e-05 -1.77778e-05 1.67648e-19
1.014e-05 -4.88034e-05 -1.93437e-19
1.83264e-05 -3.19432e-05 8.58472e-19
1.82017e-05 3.19387e-05 -1.39852e-18
9.93045e-06 4.76862e-05 7.10801e-19
4.9959e-05 -1.40894e-05 1.7667e-18
3.20147e-05 1.5856e-05 1.23942e-18
3.07431e-05 8.3957e-06 -5.17721e-19
P_ext 3 563 float
-8.80133e-07 2.97574e-07 4.08205e-20
8.23364e-10 3.25718e-08 3.12061e-20
-8.10514e-08 -7.62264e-08 -1.56232e-20
-2.56392e-08 2.36647e-08 -1.31405e-20
2.23359e-08 4.35769e-10 -4.83467e-22
2.66791e-08 -1.08264e-07 7.95766e-21
-8.6655e-07 -3.01175e-07 2.1895e-21
-6.35327e-08 -7.20861e-08 7.80423e-21
1.76788e-07 3.12962e-09 -4.91139e-21
6.45296e-08 -6.05475e-09 -1.57562e-20
5.72904e-07 1.34291e-07 -2.30717e-21
3.14744e-08 -9.21141e-08 -1.79723e-20
7.21088e-08 8.58499e-08 -1.03345e-20
-7.44049e-09 6.72363e-08 7.78188e-21
2.01788e-08 7.49336e-09 -1.3282e-20
-1.13e-07 -1.84977e-09 -5.11948e-21
-1.41303e-08 4.42985e-08 3.1172e-20
6.8116e-08 -1.02751e-08 2.79279e-21
7.82508e-08 1.39557e-07 4.96283e-21
-1.04975e-07 1.05847e-08 -2.07514e-20
-3.94167e-08 -1.48686e-07 2.33993e-20
1.30615e-09 2.29398e-10 7.20357e-20
1.16269e-07 9.46497e-09 7.23958e-20
7.40162e-08 -8.54672e-08 1.31709e-20
-1.07235e-07 -1.72645e-08 7.86896e-21
-2.02217e-08 -5.86727e-08 -2.56545e-21
6.58602e-07 -5.38775e-08 -1.71066e-20
8.06405e-08 6.7993e-08 2.69266e-21
-2.4094e-07 -1.91386e-07 -4.63297e-22
1.4138e-08 2.66659e-09 7.9145e-21
-1.07666e-07 -1.91649e-08 1.0697e-20
4.70866e-08 -3.06421e-07 -1.99299e-20
4.94914e-07 -5.06855e-07 -9.53611e-21
1.04807e-09 -2.3212e-08 3.77141e-20
-6.24135e-09 1.78501e-08 6.2334e-20
-1.93784e-08 -1.27615e-08 8.03021e-21
2.55315e-09 1.28208e-08 -9.99193e-23
-1.95865e-08 3.33913e-09 4.33242e-20
7.78718e-08 -8.47071e-08 8.26726e-21
4.82943e-07 5.28217e-07 5.87279e-20
3.08441e-07 -1.39747e-07 -2.55474e-20
4.75246e-09 -1.17418e-08 -6.45903e-20
-7.7251e-09 -1.02709e-08 3.80848e-20
-1.06956e-07 2.1961e-08 -7.56031e-20
3.06043e-07 -3.0055e-07 -7.86308e-20
-2.85133e-07 1.02633e-07 -1.74123e-20
-3.60189e-08 -1.57162e-07 -7.72272e-21
6.49837e-08 1.57855e-07 5.41039e-20
-1.02594e-07 2.6822e-08 1.85686e-20
-1.76613e-07 2.74691e-07 -1.0506e-19
3.13051e-07 1.53313e-07 1.23234e-20
2.71807e-07 -8.93949e-08 -1.29633e-20
-7.99276e-09 1.90016e-08 4.28448e-20
-2.12707e-07 -1.90876e-07 4.96766e-21
-2.0843e-08 2.75625e-09 4.01906e-20
-4.56294e-07 2.67961e-07 -3.44622e-20
-5.79476e-09 -1.77757e-08 5.10701e-22
6.0571e-08 -2.80891e-07 5.86736e-20
-1.81136e-08 -3.95137e-09 7.98633e-21
4.75096e-08 9.5257e-08 3.89464e-20
-2.53452e-08 -7.6758e-09 -5.78918e-20
-2.67586e-08 -2.5116e-08 -5.83998e-20
5.93807e-07 2.61429e-07 -7.40798e-21
-5.25858e-10 5.18113e-08 7.35238e-20
7.99182e-09 -3.45652e-08 5.02252e-20
1.34645e-08 -7.69237e-08 -4.34106e-23
-5.35518e-09 -2.51798e-08 3.92973e-20
-6.1577e-08 -1.56398e-08 -5.19509e-20
-7.16866e-08 8.77154e-08 -9.82626e-20
1.92251e-08 -6.97248e-09 1.05569e-20
-7.88321e-09 -1.95495e-08 -2.91147e-20
-2.06149e-08 -3.02518e-09 -8.15551e-21
-3.55439e-08 3.29301e-07 -8.08922e-21
-6.32266e-08 3.19336e-08 2.09137e-20
-6.13602e-08 1.04954e-07 -3.12409e-20
-6.17522e-07 7.25837e-08 -1.98486e-20
1.85836e-11 -4.88501e-08 -1.84119e-20
-5.93981e-08 -4.97779e-08 5.47392e-21
2.5024e-08 6.10471e-08 7.56896e-20
2.36612e-07 4.73047e-08 -9.41847e-20
3.39163e-07 -2.95102e-07 -2.48685e-20
9.27704e-09 2.27324e-08 3.71436e-20
2.29118e-08 7.12443e-09 -1.84806e-20
-3.16026e-07 2.3381e-07 -4.71483e-20
3.68868e-07 4.48445e-08 -6.31024e-20
-5.59166e-08 5.00015e-07 -2.4746e-20
-1.93808e-08 -1.00158e-07 2.8612e-20
6.79965e-08 4.78937e-08 2.60657e-20
2.94374e-07 3.1044e-07 4.17162e-20
5.32805e-09 2.3549e-09 6.86984e-20
-5.67301e-08 2.82479e-07 -8.93511e-20
4.81222e-09 -2.56422e-09 1.06462e-19
-3.40259e-08 2.32178e-08 3.22139e-20
7.34932e-08 2.99033e-08 7.86018e-21
-2.71995e-07 8.40819e-08 -5.02021e-21
1.57878e-07 2.77422e-07 5.01525e-20
9.82216e-08 -4.43473e-07 1.7683e-20
2.30817e-08 6.04988e-08 1.31856e-20
-4.17409e-08 -2.48273e-08 2.90895e-23
3.46063e-08 1.10662e-07 3.87494e-20
2.30122e-07 3.91568e-08 -3.07172e-20
-1.52785e-07 3.15638e-07 -7.8568e-20
4.06173e-07 -1.32749e-07 -4.49429e-20
-2.25295e-08 4.91885e-08 -1.41054e-19
4.31688e-08 4.38573e-08 2.89e-20
-2.5669e-08 -5.91977e-08 1.31577e-20
-1.03345e-08 -4.50891e-08 3.42106e-20
1.19428e-07 1.43122e-08 1.05945e-20
-8.71509e-08 4.0765e-07 -5.23726e-20
-2.01328e-08 1.24334e-08 -1.07863e-20
5.95684e-08 8.82869e-08 -1.31054e-20
-2.94704e-08 -4.18346e-07 1.72476e-20
4.23198e-07 1.27067e-07 5.18052e-21
2.87994e-08 -5.08943e-08 -2.09632e-21
-6.57488e-08 -7.51484e-09 -3.90735e-20
-2.70637e-07 -1.0862e-07 1.2554e-20
1.33682e-08 1.42922e-08 5.4021e-20
-4.29946e-07 -1.5036e-07 2.5114e-20
1.35719e-08 -1.42536e-08 8.33926e-20
-4.18059e-08 -2.93918e-07 5.57574e-20
1.8138e-07 6.8837e-09 -4.85413e-20
-1.6147e-08 1.37575e-08 -3.70065e-20
4.34095e-09 1.98031e-08 -2.09895e-20
1.21417e-08 -5.31088e-08 3.16318e-20
2.10678e-08 -9.83939e-09 -2.88452e-20
3.75214e-10 2.13239e-08 1.08489e-19
1.84006e-08 -2.30024e-09 -2.93436e-20
3.43613e-08 -5.07077e-08 2.78894e-22
-8.80335e-08 -4.48991e-07 -1.97946e-20
2.3253e-07 -1.79008e-07 1.73607e-20
7.41559e-10 2.83001e-08 3.43105e-20
-1.96028e-08 -3.53926e-09 2.88319e-20
-6.36405e-09 -2.19123e-08 2.66064e-20
-1.6159e-08 -1.14147e-08 -3.92361e-20
-2.17398e-07 2.71664e-07 -1.26194e-19
-2.49602e-10 -2.15448e-08 9.22536e-20
-2.71962e-07 4.27021e-07 -5.22778e-20
-1.02163e-07 4.69767e-08 -1.29489e-20
1.43627e-08 1.54722e-08 3.95334e-20
-1.85485e-08 -1.08465e-08 -2.16301e-20
1.3259e-07 3.20003e-07 2.2536e-20
7.64616e-08 6.81598e-08 -1.01638e-20
1.85657e-07 -6.12239e-08 4.3794e-20
1.0453e-08 -5.71101e-08 -2.35146e-20
-3.36946e-07 -3.1049e-07 4.7322e-20
-3.24824e-08 5.61168e-08 -7.89443e-21
8.43164e-08 4.49764e-08 1.29615e-20
1.23313e-07 -4.24481e-08 1.06118e-20
5.32523e-08 -1.06387e-07 4.94207e-20
2.11153e-07 -9.73682e-08 2.48267e-21
1.40467e-07 -6.63024e-08 8.06125e-20
1.41079e-08 -1.17048e-08 1.06795e-20
2.44952e-07 1.93755e-07 7.01586e-20
-3.54542e-08 -1.025e-07 -2.2173e-22
-4.35252e-08 -3.72505e-08 2.62284e-20
-7.12408e-09 -1.86801e-08 2.36364e-20
9.78743e-09 7.31243e-08 3.63528e-20
-3.2762e-07 2.34877e-08 3.79045e-20
-1.19687e-07 -3.12742e-07 4.29165e-20
-5.15269e-08 6.56797e-08 -5.4946e-20
1.01333e-07 1.35054e-07 3.86835e-20
2.52126e-07 -1.78824e-07 3.51331e-20
-3.68613e-07 -1.97081e-07 -4.94266e-20
1.6397e-07 -2.66932e-07 7.47058e-21
2.13503e-07 -2.6263e-07 -1.26813e-20
-6.28575e-08 6.21906e-09 7.92861e-21
-1.87431e-07 -2.71228e-07 1.50903e-20
-3.28091e-07 -5.14194e-08 1.76985e-20
-3.91029e-08 -2.99417e-07 2.53515e-20
1.45952e-07 -3.01671e-07 7.61594e-21
3.05846e-09 -4.14361e-08 -6.37396e-20
4.33709e-08 2.88835e-07 5.27591e-20
-1.5452e-07 -2.70311e-07 -2.49102e-20
-1.45015e-08 -6.62876e-08 2.6143e-21
-2.2335e-07 1.67211e-07 -1.99911e-20
-4.37328e-08 -1.43233e-08 -3.96109e-20
-3.40584e-08 -2.34183e-08 2.91843e-20
8.91119e-08 -4.56962e-08 6.26931e-23
-1.22499e-08 1.73386e-08 5.67155e-21
4.73542e-08 -5.97894e-08 -7.71312e-21
-2.77938e-07 -1.23607e-07 -3.01816e-20
-3.67959e-08 -4.95681e-08 -3.41362e-20
3.84544e-08 5.25855e-08 5.7566e-20
2.00969e-07 2.77414e-07 9.85548e-21
-7.1098e-08 -3.2783e-08 -2.09345e-20
-3.09179e-07 -6.95579e-09 4.01642e-20
-3.95955e-08 -3.67417e-08 -2.10176e-20
-2.24709e-09 -5.31921e-08 3.4609e-20
3.87892e-08 1.95528e-08 6.66966e-20
-4.47431e-08 4.41155e-08 -7.55673e-20
-7.47615e-09 -7.8312e-08 7.14376e-20
-4.12738e-07 1.01665e-07 -5.46548e-20
2.26227e-07 1.92998e-07 2.38423e-21
3.02268e-08 3.14342e-07 -5.07238e-22
-1.82215e-08 6.25648e-09 3.6879e-20
-6.07867e-08 1.88889e-09 -2.06408e-20
2.79054e-08 5.32817e-08 -1.04881e-20
-2.20736e-08 -5.43132e-09 -6.61457e-20
2.61986e-09 -1.88323e-08 -1.27805e-20
-1.21625e-08 8.28956e-08 -1.59313e-20
1.34626e-08 1.41981e-08 8.13942e-20
-1.53565e-07 3.39442e-08 5.90978e-20
-1.55762e-07 1.69952e-07 -1.77679e-19
-1.68085e-08 1.55805e-08 5.27699e-20
-2.81817e-07 1.70077e-07 -5.02709e-20
-7.21764e-09 2.39941e-08 1.834e-20
7.60191e-08 -2.72228e-08 1.31193e-20
3.53259e-07 -3.2499e-08 -2.54198e-20
-4.4248e-08 2.79974e-08 -2.9215e-20
1.79036e-08 8.24459e-09 -4.95514e-20
4.60498e-08 -2.88297e-08 2.71015e-21
-7.90348e-08 2.63322e-08 -2.92878e-22
-5.75237e-08 1.5071e-08 -3.3877e-20
2.02089e-08 -5.91707e-09 2.11967e-20
1.87128e-07 -1.13803e-07 9.89174e-21
-7.36161e-08 4.69382e-08 1.28636e-20
-2.20005e-07 -4.58772e-08 1.29114e-20
-4.67261e-08 -2.46109e-08 -5.15237e-21
1.78657e-08 -1.18768e-08 3.12776e-20
1.97923e-08 1.39221e-08 4.21902e-20
-5.01273e-09 2.25093e-08 -2.0945e-20
-2.04178e-09 -2.53976e-08 7.09373e-20
-2.06155e-08 1.05243e-08 5.00861e-20
-2.30724e-08 -1.18061e-08 8.10209e-20
5.78042e-08 -2.18369e-08 -4.4572e-20
-2.11296e-08 -5.82573e-09 -2.8527e-21
-2.10843e-08 5.61168e-09 -8.99373e-20
-5.18439e-09 2.09558e-08 -5.14702e-21
-5.63003e-09 -2.14153e-08 -2.11125e-20
1.39358e-08 -1.55956e-08 1.17138e-19
1.33972e-08 1.49251e-08 -1.84029e-20
8.09119e-09 2.23322e-07 2.52279e-20
4.3307e-08 -3.57396e-08 1.59164e-20
1.01078e-08 -1.9066e-08 -7.71747e-21
-1.68402e-07 6.22228e-09 4.16126e-20
1.59833e-08 -1.51545e-08 9.52526e-20
1.49231e-08 1.539e-08 7.16568e-20
2.28992e-08 -4.98654e-10 -2.35744e-20
7.73116e-08 2.18851e-07 -2.86588e-22
-1.15872e-08 -1.8947e-08 -1.84339e-20
2.50588e-08 -5.73411e-08 -2.06944e-20
-1.87947e-07 -1.03987e-07 2.53319e-20
-4.12738e-08 -2.67913e-08 -3.71139e-20
-1.88636e-07 1.11875e-07 -5.38854e-20
1.67216e-08 -1.71285e-08 4.73059e-20
-8.01632e-09 1.78156e-08 -5.24474e-20
-4.41131e-09 -2.1625e-07 1.1742e-19
-7.08021e-08 -2.14188e-07 7.67396e-21
3.24653e-07 3.08995e-07 5.09721e-21
3.47258e-07 -1.97212e-08 -6.02065e-20
-2.46048e-08 5.36958e-09 -5.79698e-20
-2.32253e-07 -4.10421e-07 2.48564e-20
5.53541e-08 9.4914e-08 2.64768e-21
-2.22596e-07 2.62173e-08 3.30785e-20
1.59784e-07 4.46797e-08 1.81295e-20
-2.18272e-08 -8.82891e-11 2.35331e-20
4.84134e-10 -2.26809e-08 2.65613e-20
-1.97558e-09 -1.54992e-08 2.18439e-20
-1.93372e-08 -1.15174e-08 -8.42774e-20
-4.81555e-07 -1.82484e-08 2.74161e-20
1.51327e-07 -1.71153e-07 -2.79513e-20
1.02848e-08 1.99536e-08 3.07733e-22
5.26174e-09 -9.55269e-08 2.81014e-21
-9.0267e-08 2.13767e-07 -1.06839e-19
1.859e-09 2.39993e-08 -2.56221e-21
1.61459e-07 -1.15539e-07 5.65074e-20
-1.41781e-08 -6.20483e-09 -1.34513e-20
-1.37316e-07 -1.78468e-07 1.50751e-20
1.89127e-08 9.61164e-09 -3.4219e-20
4.47445e-08 4.32791e-08 5.81549e-20
-3.18507e-08 -4.96156e-08 -1.32638e-20
1.95743e-08 -6.34544e-09 1.84994e-20
6.63164e-08 -4.63004e-08 -1.03029e-20
-3.9352e-09 3.69626e-08 3.97507e-20
5.4568e-08 -9.19741e-08 6.02819e-20
4.98516e-07 2.51186e-08 2.43592e-20
-4.2234e-07 1.11742e-07 -1.46699e-20
3.53331e-08 2.462e-08 7.49565e-20
-5.23071e-08 -1.25926e-07 -1.03893e-22
-7.94919e-08 -5.18625e-08 -5.1745e-21
2.58826e-07 -2.60197e-09 -8.6741e-20
2.20961e-09 -4.93531e-08 2.14984e-20
-6.46629e-08 -2.28173e-08 -2.61135e-20
8.82078e-08 -2.10754e-07 -5.58672e-20
7.03093e-09 8.48611e-08 -2.1235e-20
7.23948e-08 2.24504e-07 1.77409e-20
8.68563e-08 -4.57725e-08 5.09634e-21
-1.58487e-07 1.68697e-07 -1.73959e-19
1.45742e-07 1.80093e-07 1.06664e-19
-9.15271e-09 4.08873e-09 2.9174e-21
1.51613e-09 3.90934e-08 1.29224e-20
2.93287e-09 -1.77317e-08 1.58211e-20
-1.4045e-08 -1.1631e-08 -1.32194e-20
-4.83802e-08 3.83722e-08 -4.70798e-20
-2.22055e-07 -5.26077e-08 -7.40631e-21
7.72533e-10 2.49358e-08 5.3733e-20
-5.80557e-08 1.73153e-08 2.36426e-20
1.57315e-07 -2.28026e-08 2.79072e-21
-6.7283e-08 -2.17866e-07 4.8632e-20
-1.32515e-07 2.11038e-07 -6.38741e-20
-3.73875e-08 1.7282e-08 9.07347e-20
-1.77597e-07 -1.2566e-07 -4.61045e-20
4.01777e-08 -1.88335e-08 2.1073e-20
-2.40805e-07 -1.17907e-08 3.34219e-20
1.17908e-07 -4.16063e-07 -3.94715e-20
1.61059e-07 -1.69136e-07 2.55629e-21
2.46323e-07 4.36732e-07 -2.30301e-20
-2.31446e-09 5.27466e-08 4.43477e-20
2.11378e-08 -2.19375e-07 3.83494e-20
-8.55142e-09 5.18071e-09 5.53419e-21
-1.14176e-07 -2.13047e-07 3.85427e-20
3.82809e-08 -3.27791e-08 1.07461e-20
-2.20277e-08 2.21908e-07 -7.18729e-20
5.34567e-08 -1.56775e-08 2.3666e-20
1.2169e-07 2.16868e-07 2.30681e-20
1.21859e-07 -2.84266e-09 -5.4788e-20
2.22509e-07 -6.56535e-07 1.98813e-20
-4.71329e-08 -8.77391e-08 -7.99455e-21
-1.96588e-07 8.5658e-08 -2.56388e-21
-2.75291e-08 1.35139e-08 4.00576e-20
1.86626e-07 1.24981e-07 4.33345e-20
1.33002e-07 -7.34278e-08 5.70233e-20
7.02896e-08 3.08708e-08 -1.31393e-20
-1.43705e-08 1.21538e-08 -7.88911e-21
1.33422e-07 -2.06121e-07 -1.75296e-23
-1.4224e-07 -1.77504e-07 -2.55832e-20
1.83517e-07 7.23844e-08 -2.56996e-21
4.6666e-08 -2.88355e-08 4.51004e-20
8.57993e-08 -2.13247e-07 2.58354e-20
1.00802e-07 -1.90998e-08 -4.45348e-20
-9.78242e-08 -3.90232e-08 -1.01055e-20
-4.24973e-09 -3.96825e-08 -7.17995e-20
-2.24275e-07 3.11406e-08 3.0771e-20
2.35635e-08 1.96735e-07 -1.81868e-20
1.53411e-07 3.57934e-08 -3.14976e-23
-1.74277e-07 -7.80016e-08 2.07824e-20
-8.57044e-08 2.19746e-07 2.32738e-21
-1.9591e-08 -1.9167e-07 -1.55004e-20
5.06454e-08 2.47182e-08 5.8232e-20
-3.28944e-08 9.26758e-08 -2.73544e-21
-1.56719e-07 1.12403e-07 -5.16491e-20
2.01284e-07 1.0153e-07 -1.55589e-20
-9.16076e-08 -2.87683e-08 3.94236e-20
-2.22235e-08 -9.43304e-08 8.39185e-20
1.53814e-07 1.78802e-07 6.1277e-20
-3.61285e-08 -1.63904e-08 1.07851e-20
5.05944e-07 -3.63784e-07 -8.21376e-20
1.07085e-07 -7.49247e-08 5.99198e-20
8.74839e-08 4.28716e-07 -1.27658e-20
1.12922e-07 -1.0857e-07 3.11081e-20
-2.44285e-07 9.30315e-07 -6.73853e-21
-2.457e-07 -9.21253e-07 -4.8652e-20
6.03668e-07 7.9348e-07 -2.06038e-20
5.96182e-07 -7.93266e-07 7.102e-21
9.88158e-07 -3.87459e-10 2.10432e-20
-8.51839e-07 3.42724e-07 -1.36866e-20
-8.37718e-07 -3.46449e-07 2.26673e-20
4.07008e-08 2.20691e-08 -4.21611e-20
2.61047e-08 1.26794e-08 2.45502e-20
7.58808e-08 1.02137e-08 -8.61936e-20
1.33975e-07 7.16011e-08 2.46108e-21
3.97439e-08 1.58316e-07 6.94576e-20
-1.4364e-07 -1.23411e-07 -1.00214e-20
7.23127e-08 -6.66731e-08 -2.34419e-20
1.5434e-07 1.23869e-07 -1.04087e-20
-3.56991e-08 1.94859e-07 -1.83112e-20
2.53172e-08 -1.24394e-08 1.6191e-20
3.63283e-08 -1.86994e-07 3.59072e-20
4.7433e-08 3.19953e-08 -5.02878e-20
2.78418e-07 9.753e-08 4.94649e-21
6.2213e-09 2.00227e-08 6.86153e-20
1.07578e-07 3.52065e-08 -1.83997e-20
-1.33153e-07 7.36528e-08 -2.81903e-20
-1.82319e-07 6.30675e-08 -6.4189e-20
3.60727e-08 -2.47135e-08 2.6648e-20
-1.16385e-07 -5.38534e-08 -2.82631e-20
-1.27885e-07 -7.57487e-08 3.26578e-22
-1.12129e-08 -1.28368e-07 -3.67527e-20
5.05004e-10 -1.47444e-07 -2.58351e-20
-1.62351e-07 -7.01734e-09 5.13992e-20
2.4099e-07 -3.74181e-08 -2.55963e-20
1.29986e-07 8.011e-08 7.84583e-21
-1.07555e-07 7.33729e-08 1.0543e-20
-4.84821e-08 2.37226e-08 2.6675e-20
1.21327e-07 -1.08716e-07 3.11346e-20
-9.11646e-08 1.41944e-07 -2.56264e-20
-1.12296e-07 -1.1829e-07 -1.76846e-20
-1.06435e-08 1.54603e-07 -1.83524e-20
-2.31354e-08 1.30473e-07 -5.24044e-21
3.811e-09 -9.47102e-08 2.91037e-20
4.88735e-08 -1.57966e-07 -1.2637e-20
-7.98637e-08 -5.12523e-08 -7.42194e-21
1.10668e-07 -3.15575e-08 -2.829e-23
2.6829e-10 1.54411e-07 5.0456e-21
-3.34423e-09 9.86443e-08 2.31753e-20
-2.47996e-08 1.10972e-07 -3.06327e-22
1.8165e-07 -4.47039e-08 -2.28242e-21
-3.81255e-08 3.64187e-08 -4.21198e-20
4.11719e-08 1.54535e-07 3.11215e-20
-2.48601e-08 1.56898e-08 -1.84982e-20
9.17639e-08 4.25517e-07 -1.50803e-20
-4.49736e-08 2.42861e-08 -7.96064e-21
4.77176e-08 -2.48409e-08 2.91896e-20
1.37331e-08 1.31305e-07 -2.73315e-21
-1.54004e-07 3.65762e-08 -2.54646e-20
-4.74303e-09 -6.67388e-08 4.22452e-20
6.36578e-09 -6.07111e-07 -9.82612e-21
1.84345e-08 1.11314e-07 5.95799e-20
-1.15047e-07 1.09453e-07 -7.50906e-20
1.78725e-07 6.64731e-07 5.1485e-20
8.56394e-09 5.64375e-09 7.90991e-20
7.39887e-09 -5.38234e-09 2.45618e-20
8.66041e-08 -6.75416e-08 -2.05792e-20
-1.22954e-07 1.10088e-07 -1.15674e-19
-1.47573e-07 -4.35862e-08 1.37587e-22
-1.51656e-07 -4.98072e-08 1.03965e-20
-3.04838e-09 1.88024e-09 3.82605e-20
-2.11241e-09 -1.0334e-09 3.35784e-20
7.08281e-08 1.43869e-08 2.61521e-20
2.24844e-08 1.03367e-07 8.08976e-20
-2.59914e-09 1.02779e-07 -2.60362e-20
-5.08496e-07 -3.69387e-07 5.7781e-20
9.02266e-08 -1.41917e-07 -2.06742e-20
4.56246e-08 1.64179e-08 -1.85274e-20
-1.67383e-07 -1.80027e-08 -2.80771e-20
-1.05835e-07 1.39825e-07 -6.68702e-20
-1.36629e-07 6.42428e-08 -2.03654e-20
4.9924e-07 3.58698e-07 -2.40608e-20
4.93588e-08 3.2456e-08 -1.31416e-20
-4.85772e-08 1.58536e-07 -7.99533e-21
-9.57379e-08 -8.20091e-08 4.70338e-20
2.38206e-08 -1.24873e-07 2.61636e-20
-7.74857e-08 -1.47416e-07 -2.56751e-21
-1.24155e-07 -8.51e-08 -3.09759e-20
8.50957e-08 -1.50916e-07 1.54156e-20
1.02072e-07 -1.40283e-07 1.81832e-20
-3.23653e-08 -6.33501e-07 -1.97202e-20
2.60441e-07 -4.16587e-07 1.27761e-20
1.24373e-08 -1.51604e-07 -3.33879e-20
1.06898e-07 8.1384e-08 2.07263e-20
-9.60305e-08 -1.16575e-07 -3.60993e-20
-8.32959e-08 1.55284e-07 -4.16119e-20
-5.11778e-08 1.5219e-07 -2.90167e-20
1.11469e-07 1.15436e-07 8.72418e-23
5.46539e-08 -1.42349e-07 8.03209e-21
-1.41356e-07 -4.03041e-07 -7.44707e-21
3.18359e-09 4.89284e-08 -2.68709e-20
1.1286e-07 1.16136e-07 -2.79124e-21
-6.08248e-08 -2.99417e-08 -7.08089e-20
-5.05371e-08 2.75789e-08 -4.22792e-20
4.52573e-07 -1.98266e-07 -5.66563e-20
5.61861e-08 -9.28581e-08 -1.55038e-20
-5.33273e-08 -9.12333e-08 -1.14781e-22
2.02125e-08 -1.75278e-09 -2.33615e-21
1.72308e-09 -7.65227e-09 3.02227e-20
-5.6705e-09 -5.58356e-09 -2.72511e-20
2.48962e-08 1.6336e-08 1.58976e-23
-7.81392e-08 -1.47501e-07 1.06426e-22
1.20219e-07 4.82087e-08 4.4046e-20
-2.92678e-07 -3.21761e-07 -1.23265e-20
1.08467e-09 9.41212e-09 2.7449e-20
1.09828e-09 1.72187e-09 8.81755e-20
2.14334e-09 -2.64702e-10 8.69565e-21
2.8087e-07 -5.54676e-07 -5.54201e-20
-1.16622e-08 1.37283e-08 1.351e-20
-2.66789e-09 1.66302e-08 1.13639e-19
-1.2088e-07 4.29649e-08 1.05489e-20
-4.18293e-09 4.90746e-08 7.67096e-20
-2.65631e-08 7.87393e-08 1.01907e-20
5.47391e-08 2.32697e-09 7.85428e-21
1.23569e-08 4.73194e-08 1.04471e-20
-3.23542e-09 6.54346e-08 -1.33714e-20
9.38192e-08 5.10398e-08 5.10182e-21
6.69664e-09 6.04279e-07 -4.34378e-20
-8.72913e-08 8.26051e-08 -1.06679e-19
6.54376e-08 -4.401e-08 5.24686e-21
3.77656e-08 -3.45054e-08 -4.16372e-23
-6.19765e-07 -8.50941e-08 9.74367e-21
-1.76353e-08 6.99945e-09 1.10063e-20
-4.51259e-07 -5.33797e-07 3.20178e-20
8.17832e-09 2.19359e-08 3.94711e-20
7.91071e-08 1.53714e-08 -8.37483e-20
2.35594e-07 -3.0573e-08 5.3695e-20
-5.38445e-08 -8.84775e-08 -2.61762e-20
1.02944e-07 2.95177e-08 -4.69894e-20
5.24026e-10 -2.61827e-08 2.81839e-22
-5.80503e-08 6.71765e-08 -8.10623e-20
-2.21948e-08 -1.41068e-08 -4.58091e-23
-5.23409e-08 1.06321e-07 3.85533e-20
9.47382e-09 6.70865e-08 -4.15294e-22
1.53721e-08 1.12622e-08 2.71974e-20
1.52541e-08 -1.08186e-08 1.60666e-20
-4.20124e-07 -1.14448e-07 3.70361e-20
4.62573e-08 1.72494e-08 -6.31339e-20
-5.57144e-08 1.07858e-06 -3.31801e-20
-3.86615e-09 -1.10813e-06 1.67668e-20
5.45433e-07 9.33741e-07 -4.56144e-20
-5.65594e-08 4.48802e-08 1.82088e-20
-2.89041e-07 5.81659e-07 6.76218e-20
5.48571e-07 -9.01247e-07 9.69281e-21
-9.06762e-08 -1.46761e-07 -1.01255e-20
8.33043e-07 7.29914e-07 4.92441e-21
9.77378e-09 -1.73387e-08 -2.92775e-20
-1.01871e-08 -1.75684e-08 2.8565e-21
8.73223e-07 -7.13658e-07 2.36722e-21
-5.34881e-08 1.05183e-07 2.30261e-20
-5.48505e-07 -3.49328e-07 -7.45383e-21
-4.62561e-07 -9.64073e-07 7.25807e-21
-2.59068e-07 -5.95988e-07 3.4016e-20
-4.75523e-07 9.80121e-07 6.71535e-20
-1.12372e-07 6.64187e-07 -3.68027e-20
-7.92656e-10 2.32228e-08 4.04405e-20
-2.88516e-07 3.71453e-07 -2.95109e-20
-2.76249e-07 -5.65367e-07 1.17241e-20
1.07414e-06 1.87455e-07 1.16474e-22
-8.39407e-08 7.13709e-08 -1.5622e-20
-1.96416e-09 4.71341e-08 2.42494e-21
-5.19574e-07 3.76137e-07 -4.63842e-20
-9.30944e-08 4.96847e-08 1.54614e-20
1.06357e-06 -1.66739e-07 -4.56082e-20
-7.10464e-08 4.76982e-08 -2.62882e-20
5.17645e-08 -1.07058e-07 6.48442e-20
-8.27668e-07 -6.28637e-07 4.52745e-20
-2.79083e-07 5.97975e-07 -5.61804e-20
-8.47726e-07 6.24022e-07 1.40279e-20
2.47696e-07 5.52607e-07 4.34594e-20
-9.11414e-08 7.24538e-08 -9.09554e-20
-2.52722e-08 1.4309e-08 4.04611e-20
-1.37886e-09 -2.24143e-09 7.19575e-20
3.87965e-10 -1.91096e-09 -3.57783e-20
6.93348e-09 7.27435e-08 -8.17044e-21
-2.02673e-09 2.24405e-09 7.44154e-20
1.11012e-09 2.74398e-09 2.20374e-20
1.86289e-09 -8.18353e-10 -2.7488e-20
-1.08223e-09 8.60879e-09 1.125e-20
-1.90584e-07 4.1581e-07 -1.49939e-20
-1.43222e-08 1.02659e-08 7.32054e-20
2.46705e-08 -1.55577e-08 2.9451e-21
2.41852e-08 -1.4015e-08 -2.65996e-20
6.9726e-08 2.72027e-08 -1.53673e-20
-6.48928e-10 -7.36768e-09 1.48021e-19
-6.57458e-09 -3.34126e-09 -5.45017e-20
2.41698e-08 1.41009e-08 -2.71158e-20
6.15958e-07 -1.18725e-07 3.86117e-20
-7.97699e-08 -1.01677e-07 -8.02106e-21
-5.39271e-07 3.75982e-07 3.08359e-20
-4.82799e-07 5.50657e-07 1.69291e-20
6.50792e-07 -2.35028e-07 -6.88901e-20
-3.09891e-09 -9.05695e-09 5.70637e-20
-3.40603e-09 9.30398e-09 7.65195e-20
-1.02135e-08 1.77452e-09 -3.53272e-20
-6.71695e-09 6.81812e-09 -1.00337e-19
-9.25687e-09 -1.98407e-09 2.71746e-20
1.68735e-09 2.19641e-09 1.65072e-20
9.93364e-09 -2.46275e-09 5.7149e-21
4.1721e-09 -2.95209e-09 -1.6533e-20
-2.96693e-09 -2.10233e-09 7.9446e-20
6.36854e-09 -6.52253e-09 5.68029e-20
6.40405e-09 6.71707e-09 7.98866e-21
-2.9851e-09 1.84366e-09 4.41341e-20
3.2083e-09 -6.75571e-10 5.65831e-21
5.33966e-09 2.96881e-09 2.986e-21
1.16022e-08 4.16123e-09 2.71357e-20
SCALARS rr_necrosis float
LOOKUP_TABLE default
0
0
0
0
0
0
0
0
0
0
0
0
0
0
0
0
0
0
0
0
0
0
0
0
0
0
0
0
0
0
0
0
0
0
0
0
0
0
0
0
0
0
0
0
0
0
0
0
0
0
0
0
0
0
0
0
0
0
0
0
0
0
0
0
0
0
0
0
0
0
0
0
0
0
0
0
0
0
0
0
0
0
0
0
0
0
0
0
0
0
0
0
0
0
0
0
0
0
0
0
0
0
0
0
0
0
0
0
0
0
0
0
0
0
0
0
0
0
0
0
0
0
0
0
0
0
0
0
0
0
0
0
0
0
0
0
0
0
0
0
0
0
0
0
0
0
0
0
0
0
0
0
0
0
0
0
0
0
0
0
0
0
0
0
0
0
0
0
0
0
0
0
0
0
0
0
0
0
0
0
0
0
0
0
0
0
0
0
0
0
0
0
0
0
0
0
0
0
0
0
0
0
0
0
0
0
0
0
0
0
0
0
0
0
0
0
0
0
0
0
0
0
0
0
0
0
0
0
0
0
0
0
0
0
0
0
0
0
0
0
0
0
0
0
0
0
0
0
0
0
0
0
0
0
0
0
0
0
0
0
0
0
0
0
0
0
0
0
0
0
0
0
0
0
0
0
0
0
0
0
0
0
0
0
0
0
0
0
0
0
0
0
0
0
0
0
0
0
0
0
0
0
0
0
0
0
0
0
0
0
0
0
0
0
0
0
0
0
0
0
0
0
0
0
0
0
0
0
0
0
0
0
0
0
0
0
0
0
0
0
0
0
0
0
0
0
0
0
0
0
0
0
0
0
0
0
0
0
0
0
0
0
0
0
0
0
0
0
0
0
0
0
0
0
0
0
0
0
0
0
0
0
0
0
0
0
0
0
0
0
0
0
0
0
0
0
0
0
0
0
0
0
0
0
0
0
0
0
0
0
0
0
0
0
0
0
0
0
0
0
0
0
0
0
0
0
0
0
0
0
0
0
0
0
0
0
0
0
0
0
0
0
0
0
0
0
0
0
0
0
0
0
0
0
0
0
0
0
0
0
0
0
0
0
0
0
0
0
0
0
0
0
0
0
0
0
0
0
0
0
0
0
0
0
0
0
0
0
0
0
0
0
0
0
0
0
0
0
0
0
0
0
0
0
0
0
0
0
0
0
0
0
0
0
0
0
0
0
0
0
0
0
0
0
0
0
0
0
0
0
0
0
0
0
0
0
0
0
0
0
0
0
0
0
0
0
0
0
0
0
0
0
0
0
0
0
0
0
0
0
0
0
0
SCALARS rr_protein float
LOOKUP_TABLE default
1
1
1
1
1
1
1
1
1
1
1
1
1
1
1
1
1
1
1
1
1
1
1
1
1
1
1
1
1
1
1
1
1
1
1
1
1
1
1
1
1
1
1
1
1
1
1
1
1
1
1
1
1
1
1
1
1
1
1
1
1
1
1
1
1
1
1
1
1
1
1
1
1
1
1
1
1
1
1
1
1
1
1
1
1
1
1
1
1
1
1
1
1
1
1
1
1
1
1
1
1
1
1
1
1
1
1
1
1
1
1
1
1
1
1
1
1
1
1
1
1
1
1
1
1
1
1
1
1
1
1
1
1
1
1
1
1
1
1
1
1
1
1
1
1
1
1
1
1
1
1
1
1
1
1
1
1
1
1
1
1
1
1
1
1
1
1
1
1
1
1
1
1
1
1
1
1
1
1
1
1
1
1
1
1
1
1
1
1
1
1
1
1
1
1
1
1
1
1
1
1
1
1
1
1
1
1
1
1
1
1
1
1
1
1
1
1
1
1
1
1
1
1
1
1
1
1
1
1
1
1
1
1
1
1
1
1
1
1
1
1
1
1
1
1
1
1
1
1
1
1
1
1
1
1
1
1
1
1
1
1
1
1
1
1
1
1
1
1
1
1
1
1
1
1
1
1
1
1
1
1
1
1
1
1
1
1
1
1
1
1
1
1
1
1
1
1
1
1
1
1
1
1
1
1
1
1
1
1
1
1
1
1
1
1
1
1
1
1
1
1
1
1
1
1
1
1
1
1
1
1
1
1
1
1
1
1
1
1
1
1
1
1
1
1
1
1
1
1
1
1
1
1
1
1
1
1
1
1
1
1
1
1
1
1
1
1
1
1
1
1
1
1
1
1
1
1
1
1
1
1
1
1
1
1
1
1
1
1
1
1
1
1
1
1
1
1
1
1
1
1
1
1
1
1
1
1
1
1
1
1
1
1
1
1
1
1
1
1
1
1
1
1
1
1
1
1
1
1
1
1
1
1
1
1
1
1
1
1
1
1
1
1
1
1
1
1
1
1
1
1
1
1
1
1
1
1
1
1
1
1
1
1
1
1
1
1
1
1
1
1
1
1
1
1
1
1
1
1
1
1
1
1
1
1
1
1
1
1
1
1
1
1
1
1
1
1
1
1
1
1
1
1
1
1
1
1
1
1
1
1
1
1
1
1
1
1
1
1
1
1
1
1
1
1
1
1
1
1
1
1
1
1
1
1
1
1
1
1
1
1
1
1
1
1
1
1
1
1
1
1
1
1
1
1
1
1
1
1
1
1
1
1
SCALARS rr_(S_ext) float
LOOKUP_TABLE default
0.905068
0.905271
0.905256
0.905265
0.90534
0.905256
0.905066
0.90527
0.90524
0.905273
0.905054
0.90527
0.905266
0.905277
0.905312
0.90526
0.905283
0.905264
0.905227
0.90525
0.90525
0.905421
0.905247
0.90525
0.905249
0.905267
0.905099
0.905259
0.905167
0.905369
0.905266
0.905167
0.905099
0.905355
0.905365
0.905355
0.90537
0.905363
0.905266
0.905099
0.905166
0.905371
0.90537
0.905265
0.905111
0.905171
0.905233
0.905244
0.905257
0.905151
0.905161
0.905192
0.905333
0.905194
0.905331
0.905129
0.905366
0.905193
0.905366
0.90525
0.905281
0.905306
0.905121
0.905306
0.905306
0.905288
0.905282
0.905268
0.905248
0.905271
0.905332
0.905332
0.905167
0.905296
0.905258
0.905086
0.905321
0.905288
0.905268
0.905193
0.905152
0.905348
0.905293
0.905143
0.905177
0.905119
0.905258
0.905293
0.905112
0.90541
0.905192
0.90541
0.90532
0.905285
0.905196
0.905157
0.905154
0.905272
0.90532
0.905264
0.905218
0.905184
0.905142
0.905265
0.905271
0.90527
0.905297
0.905263
0.905142
0.905271
0.90525
0.905121
0.905133
0.905264
0.905269
0.905195
0.905368
0.905155
0.905368
0.905196
0.905223
0.905308
0.905269
0.90529
0.905274
0.905313
0.905358
0.905272
0.905155
0.905195
0.905331
0.905268
0.905291
0.905269
0.905185
0.905365
0.905143
0.905268
0.905293
0.905365
0.905186
0.905278
0.905228
0.905273
0.905154
0.905268
0.905274
0.905259
0.905256
0.90521
0.905242
0.90527
0.905165
0.905267
0.905273
0.905268
0.905282
0.90519
0.90519
0.905263
0.905244
0.905167
0.90512
0.905159
0.905188
0.905271
0.905189
0.90519
0.905166
0.905189
0.90532
0.905193
0.90516
0.905284
0.905194
0.905296
0.90532
0.905271
0.905336
0.905273
0.905168
0.905272
0.905272
0.905186
0.905293
0.905158
0.905289
0.905299
0.905323
0.905272
0.905293
0.905157
0.905193
0.905166
0.905269
0.905263
0.905263
0.905291
0.905269
0.905287
0.90527
0.905231
0.905196
0.905291
0.905169
0.905292
0.905289
0.905181
0.905309
0.90527
0.905313
0.905281
0.90527
0.905293
0.90521
0.905284
0.905199
0.905299
0.905273
0.905272
0.905268
0.905271
0.905271
0.905271
0.905276
0.905309
0.905308
0.905309
0.905309
0.905333
0.905332
0.905208
0.905275
0.90526
0.905244
0.905312
0.905313
0.905261
0.905196
0.905258
0.905272
0.905212
0.905309
0.905211
0.905295
0.905257
0.905212
0.905199
0.905152
0.905147
0.905293
0.905151
0.905263
0.905199
0.905229
0.905258
0.905272
0.905374
0.905271
0.905152
0.905198
0.905259
0.90527
0.905195
0.905271
0.90523
0.905374
0.905199
0.905273
0.905289
0.905263
0.905311
0.905293
0.905334
0.905264
0.905128
0.905119
0.905329
0.905249
0.90527
0.905213
0.905309
0.905284
0.905198
0.905286
0.905219
0.905276
0.90522
0.905196
0.905394
0.905322
0.905311
0.90531
0.905275
0.905222
0.905352
0.905288
0.905245
0.905222
0.905216
0.905327
0.905211
0.905322
0.905219
0.905112
0.905221
0.905153
0.905299
0.905211
0.905393
0.905218
0.905294
0.905208
0.905291
0.905217
0.90526
0.905121
0.905252
0.905211
0.905324
0.905209
0.905244
0.905294
0.905271
0.905217
0.905221
0.905229
0.905301
0.90522
0.905271
0.905259
0.905335
0.905222
0.905228
0.905248
0.905231
0.905219
0.905231
0.905308
0.905269
0.905229
0.90521
0.905277
0.905277
0.905219
0.905334
0.905047
0.905261
0.905152
0.905249
0.904897
0.904898
0.904898
0.904897
0.904896
0.904901
0.904903
0.9053
0.905348
0.905263
0.905243
0.905228
0.905231
0.905276
0.905229
0.905228
0.905349
0.90523
0.905312
0.905192
0.905304
0.905255
0.905243
0.90523
0.90533
0.905261
0.905244
0.905261
0.905244
0.905226
0.905193
0.905242
0.905259
0.905312
0.905231
0.905223
0.90523
0.905241
0.905257
0.905275
0.90523
0.905275
0.905254
0.905241
0.905271
0.905254
0.905228
0.90529
0.905247
0.905345
0.905113
0.9053
0.905308
0.905258
0.905249
0.905286
0.905052
0.905255
0.905247
0.905122
0.905395
0.905396
0.905259
0.905229
0.90525
0.905232
0.905436
0.905434
0.905268
0.905272
0.90527
0.905056
0.905225
0.905294
0.905244
0.905242
0.905241
0.905044
0.905291
0.905227
0.90526
0.905259
0.90524
0.905244
0.90524
0.905243
0.9051
0.905153
0.905244
0.90526
0.905247
0.90524
0.905246
0.905249
0.905247
0.905114
0.905314
0.905229
0.905286
0.905292
0.905113
0.905256
0.905254
0.905335
0.905387
0.905386
0.905322
0.905225
0.905259
0.90511
0.905382
0.905425
0.905425
0.905042
0.905362
0.905369
0.905257
0.90532
0.905263
0.905273
0.90529
0.905299
0.905272
0.90505
0.905262
0.905285
0.905294
0.905084
0.905362
0.905122
0.905291
0.905278
0.905215
0.905264
0.905271
0.905333
0.905272
0.905332
0.905259
0.905296
0.905366
0.905369
0.905113
0.905277
0.905062
0.90507
0.905054
0.905292
0.905052
0.905047
0.90524
0.905057
0.905348
0.905348
0.905063
0.905245
0.905105
0.905064
0.905097
0.905063
0.905097
0.905364
0.905103
0.905053
0.905061
0.90527
0.905303
0.905093
0.90527
0.905046
0.905276
0.905247
0.905061
0.905088
0.905055
0.905041
0.905254
0.90535
0.905418
0.905415
0.905279
0.905418
0.905417
0.905417
0.905397
0.905108
0.905364
0.905325
0.905352
0.905276
0.905403
0.905403
0.905358
0.905038
0.905245
0.90505
0.90512
0.905114
0.905378
0.905377
0.905377
0.905377
0.905378
0.905417
0.905381
0.905405
0.905423
0.905382
0.905382
0.905425
0.905417
0.905405
0.905377
SCALARS rr_(P_ext) float
LOOKUP_TABLE default
0.0173023
0.0172173
0.0172248
0.0172187
0.0171959
0.0172249
0.0173026
0.0172198
0.0172319
0.0172176
0.0172968
0.0172198
0.0172216
0.0172165
0.0172037
0.0172235
0.0172134
0.0172208
0.0172357
0.0172269
0.0172281
0.0171666
0.0172279
0.0172268
0.017227
0.0172193
0.0172849
0.0172238
0.0172589
0.0171838
0.0172219
0.0172587
0.0172861
0.0171889
0.0171864
0.017189
0.0171829
0.0171875
0.017222
0.0172859
0.0172591
0.0171825
0.0171826
0.0172218
0.017278
0.0172577
0.0172339
0.0172305
0.0172246
0.0172642
0.0172611
0.0172502
0.017197
0.01725
0.0171977
0.0172754
0.0171862
0.01725
0.0171863
0.0172265
0.0172138
0.0172067
0.0172795
0.0172072
0.0172066
0.0172135
0.0172135
0.0172193
0.0172274
0.017217
0.0171972
0.0171973
0.0172591
0.0172109
0.0172245
0.0172898
0.0172022
0.0172136
0.0172194
0.0172483
0.0172659
0.0171932
0.0172102
0.0172683
0.0172564
0.017277
0.0172238
0.0172122
0.0172779
0.0171708
0.0172501
0.0171709
0.0172017
0.0172145
0.0172494
0.0172619
0.0172658
0.0172178
0.0172023
0.0172223
0.0172406
0.0172544
0.0172684
0.01722
0.0172185
0.0172183
0.0172092
0.017223
0.0172686
0.017216
0.0172264
0.0172752
0.0172714
0.0172205
0.0172187
0.0172498
0.0171863
0.0172661
0.0171865
0.0172494
0.0172376
0.0172047
0.0172173
0.017212
0.0172154
0.017203
0.0171893
0.0172178
0.0172658
0.0172494
0.0171972
0.0172179
0.0172106
0.0172175
0.0172543
0.0171862
0.0172705
0.017221
0.0172101
0.0171862
0.0172533
0.0172174
0.0172363
0.0172175
0.0172665
0.0172191
0.0172187
0.0172246
0.0172249
0.0172431
0.0172307
0.0172173
0.0172589
0.0172215
0.0172176
0.0172178
0.0172153
0.0172525
0.0172523
0.0172216
0.0172304
0.0172583
0.0172759
0.0172611
0.0172526
0.0172182
0.0172526
0.0172527
0.0172589
0.0172524
0.0172014
0.01725
0.0172612
0.0172145
0.0172498
0.0172095
0.0172015
0.0172199
0.0171967
0.0172182
0.0172588
0.0172179
0.0172179
0.0172532
0.017212
0.0172618
0.017212
0.017209
0.0172011
0.0172177
0.0172119
0.0172649
0.0172499
0.0172588
0.0172176
0.0172211
0.0172206
0.0172107
0.0172174
0.0172138
0.0172172
0.0172346
0.0172477
0.0172108
0.0172587
0.0172102
0.0172136
0.0172549
0.0172057
0.0172171
0.0172049
0.0172161
0.0172187
0.0172101
0.0172428
0.0172154
0.0172469
0.0172091
0.0172156
0.0172156
0.0172165
0.0172162
0.0172161
0.0172162
0.017217
0.0172043
0.0172045
0.0172043
0.0172042
0.0171976
0.0171975
0.0172434
0.0172168
0.0172195
0.0172309
0.0172037
0.0172034
0.0172192
0.0172475
0.0172198
0.0172177
0.0172425
0.0172055
0.0172429
0.0172099
0.0172201
0.0172423
0.0172465
0.0172661
0.0172655
0.0172101
0.0172678
0.0172225
0.0172469
0.0172352
0.0172199
0.0172157
0.0171821
0.017216
0.0172684
0.0172469
0.0172195
0.0172198
0.0172479
0.0172158
0.0172359
0.0171822
0.0172467
0.0172154
0.0172124
0.0172206
0.0172039
0.0172124
0.0171971
0.0172216
0.017274
0.0172771
0.0171994
0.0172279
0.0172198
0.0172428
0.0172054
0.0172146
0.0172468
0.0172143
0.0172403
0.0172183
0.0172402
0.0172473
0.0171757
0.0172007
0.0172034
0.0172036
0.017217
0.0172396
0.0171898
0.0172128
0.0172301
0.0172393
0.017242
0.0171995
0.0172425
0.0172016
0.0172411
0.0172777
0.0172398
0.0172669
0.0172089
0.0172425
0.0171757
0.017241
0.0172108
0.0172434
0.0172116
0.0172413
0.0172238
0.0172809
0.0172255
0.0172427
0.0171998
0.0172431
0.01723
0.0172116
0.017217
0.0172412
0.0172397
0.0172361
0.017209
0.0172398
0.0172198
0.0172238
0.0171973
0.0172397
0.0172365
0.0172288
0.0172356
0.0172406
0.0172354
0.0172064
0.0172201
0.0172362
0.0172428
0.0172177
0.0172175
0.0172401
0.0171974
0.0172998
0.0172241
0.017266
0.0172284
0.0173448
0.0173447
0.0173442
0.0173444
0.0173441
0.017345
0.0173447
0.0172086
0.0171921
0.0172214
0.0172304
0.0172352
0.0172357
0.0172183
0.0172362
0.0172366
0.0171919
0.0172357
0.0172051
0.0172501
0.0172056
0.0172251
0.0172306
0.017236
0.0171993
0.0172241
0.01723
0.017224
0.0172299
0.0172363
0.0172486
0.0172306
0.0172249
0.0172049
0.0172344
0.0172371
0.0172348
0.0172311
0.0172251
0.0172182
0.0172348
0.0172183
0.0172258
0.0172309
0.0172197
0.0172256
0.0172359
0.0172117
0.0172292
0.0171929
0.0172777
0.0172086
0.0172065
0.017225
0.017229
0.0172137
0.0172987
0.017225
0.0172294
0.0172804
0.0171762
0.017176
0.0172241
0.0172353
0.0172283
0.0172344
0.0171633
0.0171633
0.0172196
0.0172195
0.0172199
0.0172989
0.0172366
0.0172105
0.0172309
0.0172316
0.017231
0.0173003
0.0172121
0.0172357
0.0172244
0.0172243
0.0172317
0.0172301
0.0172317
0.017231
0.0172853
0.0172667
0.0172302
0.0172242
0.0172291
0.0172321
0.0172297
0.0172286
0.0172291
0.0172777
0.0172036
0.0172349
0.0172139
0.0172117
0.0172782
0.0172247
0.0172254
0.0171972
0.0171767
0.0171768
0.0172007
0.0172368
0.0172246
0.017279
0.0171784
0.0171652
0.0171652
0.0173012
0.0171875
0.0171838
0.0172254
0.017202
0.0172215
0.0172171
0.0172114
0.0172093
0.0172199
0.0172989
0.0172234
0.0172146
0.0172106
0.0172903
0.0171865
0.0172819
0.0172109
0.0172169
0.0172416
0.0172219
0.0172202
0.0171965
0.0172191
0.0171966
0.0172242
0.0172105
0.0171852
0.0171846
0.0172788
0.017216
0.017304
0.0173024
0.0173058
0.0172122
0.0172999
0.0173076
0.017232
0.0173049
0.0171929
0.017193
0.0173036
0.0172287
0.0172851
0.0173044
0.0172867
0.0173048
0.0172867
0.017187
0.0172819
0.0172996
0.0173038
0.0172205
0.0172075
0.017288
0.0172204
0.017307
0.0172176
0.0172281
0.0173054
0.0172893
0.0173066
0.0173012
0.0172258
0.0171915
0.0171667
0.0171678
0.0172162
0.0171669
0.0171669
0.0171674
0.0171739
0.0172803
0.0171857
0.0172001
0.0171914
0.0172172
0.0171722
0.0171723
0.0171899
0.0173021
0.0172289
0.0173011
0.0172833
0.0172826
0.0171794
0.0171796
0.0171802
0.01718
0.0171795
0.0171682
0.01718
0.0171722
0.0171665
0.0171792
0.0171791
0.0171662
0.0171679
0.0171719
0.0171807
SCALARS rr_(S) float
LOOKUP_TABLE default
0.850878
0.850966
0.85096
0.850962
0.851006
0.85096
0.850877
0.850968
0.850954
0.850968
0.85086
0.850968
0.850966
0.850971
0.850989
0.850963
0.850973
0.850964
0.850946
0.850957
0.850958
0.85105
0.850955
0.850957
0.850957
0.850965
0.850887
0.850962
0.850918
0.851021
0.850966
0.850917
0.850887
0.851013
0.851019
0.851012
0.85102
0.851018
0.850966
0.850888
0.850917
0.851021
0.85102
0.850965
0.85089
0.85092
0.850949
0.850955
0.850961
0.85091
0.850915
0.85093
0.851001
0.850932
0.851
0.850902
0.85102
0.850931
0.851019
0.850957
0.850971
0.850986
0.850899
0.850986
0.850986
0.850977
0.850972
0.850966
0.850956
0.850966
0.851
0.851
0.850918
0.850981
0.850962
0.85088
0.850995
0.850977
0.850965
0.85093
0.850912
0.85101
0.850978
0.850907
0.850924
0.850895
0.850961
0.85098
0.85089
0.851044
0.850931
0.851045
0.850994
0.850976
0.850933
0.850912
0.850914
0.850967
0.850994
0.850965
0.850943
0.850928
0.850906
0.850963
0.850967
0.850966
0.850981
0.850964
0.850907
0.850965
0.850957
0.850895
0.850901
0.850963
0.850966
0.850933
0.851021
0.850915
0.851021
0.850933
0.850944
0.850986
0.850965
0.850977
0.850967
0.850989
0.851016
0.850967
0.850914
0.850932
0.850999
0.850964
0.850977
0.850964
0.850928
0.851019
0.850909
0.850967
0.850978
0.851019
0.850929
0.850972
0.850948
0.850968
0.850914
0.850965
0.85097
0.850963
0.850961
0.850938
0.850954
0.850965
0.850916
0.850966
0.850968
0.850964
0.850973
0.850931
0.850931
0.850963
0.850955
0.850917
0.850895
0.850913
0.850929
0.850967
0.85093
0.850931
0.850917
0.85093
0.850994
0.850931
0.850914
0.850974
0.850932
0.85098
0.850994
0.850968
0.851003
0.850969
0.850919
0.850967
0.850967
0.850929
0.85098
0.850913
0.850977
0.850983
0.850996
0.850967
0.85098
0.850915
0.850931
0.850917
0.850964
0.850962
0.850963
0.850977
0.850965
0.850977
0.850965
0.850948
0.850931
0.850977
0.85092
0.850978
0.850978
0.850926
0.850988
0.850965
0.850991
0.850973
0.850966
0.850979
0.850938
0.850975
0.850933
0.850983
0.850966
0.850966
0.850963
0.850965
0.850965
0.850965
0.85097
0.850987
0.850986
0.850987
0.850987
0.851001
0.851001
0.850937
0.850969
0.850959
0.850955
0.850989
0.85099
0.850959
0.850931
0.850958
0.850967
0.85094
0.850988
0.850939
0.85098
0.850956
0.850939
0.850933
0.850912
0.850907
0.850978
0.850913
0.850964
0.850933
0.850947
0.850958
0.850966
0.851023
0.850965
0.850915
0.850932
0.850958
0.850968
0.850931
0.850965
0.850949
0.851023
0.850933
0.850967
0.850977
0.850963
0.850989
0.85098
0.851002
0.850964
0.8509
0.850895
0.850999
0.850957
0.850968
0.850941
0.850988
0.850975
0.850932
0.850976
0.850944
0.850971
0.850944
0.850931
0.851034
0.850995
0.850988
0.850987
0.850969
0.850945
0.851011
0.850976
0.850956
0.850945
0.850942
0.850998
0.850939
0.850996
0.850944
0.85089
0.850945
0.850914
0.850982
0.850939
0.851034
0.850943
0.85098
0.850938
0.850978
0.850943
0.850963
0.850901
0.850958
0.850939
0.850996
0.850938
0.850955
0.850981
0.850966
0.850943
0.850945
0.850948
0.850984
0.850944
0.850968
0.850962
0.851002
0.850945
0.850947
0.850958
0.850949
0.850944
0.850949
0.850988
0.850967
0.850948
0.850939
0.850971
0.850972
0.850944
0.851002
0.850857
0.850964
0.850913
0.850958
0.850775
0.850775
0.850775
0.850774
0.850773
0.850778
0.85078
0.850983
0.851009
0.850963
0.850954
0.850947
0.850949
0.850971
0.850948
0.850947
0.85101
0.850949
0.85099
0.85093
0.850984
0.85096
0.850954
0.850949
0.851
0.850964
0.850955
0.850963
0.850955
0.850946
0.85093
0.850954
0.850963
0.85099
0.850948
0.850944
0.850948
0.850953
0.850962
0.85097
0.850948
0.85097
0.850959
0.850953
0.850968
0.850959
0.850947
0.850977
0.850957
0.851007
0.85089
0.850983
0.850988
0.850962
0.850958
0.850976
0.85086
0.85096
0.850957
0.850901
0.851036
0.851037
0.850962
0.850947
0.850958
0.850949
0.85106
0.851059
0.850966
0.850969
0.850968
0.850864
0.850945
0.85098
0.850955
0.850954
0.850954
0.850855
0.850978
0.850946
0.850963
0.850963
0.850954
0.850955
0.850954
0.850955
0.850888
0.850914
0.850955
0.850963
0.850957
0.850953
0.850956
0.850958
0.850957
0.850892
0.850991
0.850947
0.850975
0.850979
0.850892
0.85096
0.850959
0.851003
0.851029
0.851029
0.850995
0.850945
0.850963
0.85089
0.851027
0.851052
0.851052
0.850854
0.851017
0.85102
0.850961
0.850994
0.850963
0.850968
0.850977
0.850983
0.850969
0.850859
0.850963
0.850976
0.85098
0.850879
0.851016
0.850903
0.850977
0.850972
0.850941
0.850964
0.850968
0.851
0.850968
0.851
0.850962
0.850981
0.85102
0.851022
0.850892
0.85097
0.850875
0.85088
0.850869
0.850979
0.850862
0.850865
0.850954
0.850871
0.85101
0.85101
0.850875
0.850954
0.850891
0.850877
0.850886
0.850876
0.850886
0.851018
0.850887
0.850862
0.850873
0.850968
0.850985
0.850885
0.850968
0.850864
0.85097
0.850956
0.850875
0.850882
0.850871
0.850853
0.850959
0.851011
0.851048
0.851046
0.850972
0.851047
0.851047
0.851047
0.851036
0.850889
0.851018
0.850997
0.851012
0.850971
0.85104
0.85104
0.851016
0.850851
0.850955
0.850861
0.850902
0.850897
0.851025
0.851024
0.851024
0.851024
0.851024
0.851048
0.851027
0.851041
0.851052
0.851028
0.851028
0.851053
0.851047
0.851041
0.851025
SCALARS rr_(P) float
LOOKUP_TABLE default
0.019857
0.0198076
0.019812
0.0198084
0.019795
0.0198121
0.0198571
0.0198092
0.0198162
0.0198078
0.0198535
0.0198091
0.0198102
0.0198072
0.0197996
0.0198113
0.0198053
0.0198097
0.0198184
0.0198133
0.019814
0.0197776
0.0198139
0.0198132
0.0198133
0.0198088
0.0198468
0.0198115
0.0198318
0.0197878
0.0198104
0.0198317
0.0198475
0.0197908
0.0197894
0.0197909
0.0197872
0.0197901
0.0198104
0.0198474
0.0198319
0.019787
0.0197871
0.0198103
0.0198427
0.0198311
0.0198174
0.0198154
0.0198119
0.0198348
0.0198331
0.0198268
0.0197957
0.0198267
0.0197961
0.0198414
0.0197893
0.0198267
0.0197894
0.019813
0.0198055
0.0198014
0.0198437
0.0198017
0.0198014
0.0198054
0.0198053
0.0198088
0.0198136
0.0198074
0.0197958
0.0197958
0.019832
0.0198039
0.0198119
0.0198496
0.0197988
0.0198055
0.0198088
0.0198257
0.0198359
0.0197935
0.0198034
0.0198373
0.0198304
0.0198423
0.0198115
0.0198046
0.0198427
0.01978
0.0198268
0.0197801
0.0197984
0.019806
0.0198264
0.0198335
0.0198358
0.0198079
0.0197988
0.0198106
0.0198212
0.0198293
0.0198373
0.0198092
0.0198083
0.0198082
0.0198028
0.019811
0.0198374
0.0198068
0.0198129
0.0198412
0.019839
0.0198095
0.0198085
0.0198266
0.0197894
0.0198361
0.0197895
0.0198264
0.0198195
0.0198001
0.0198076
0.0198045
0.0198064
0.0197992
0.0197911
0.0198079
0.0198358
0.0198263
0.0197957
0.0198079
0.0198037
0.0198077
0.0198292
0.0197892
0.0198386
0.0198099
0.0198034
0.0197893
0.0198287
0.0198077
0.0198187
0.0198078
0.0198363
0.0198087
0.0198084
0.0198119
0.0198121
0.0198227
0.0198155
0.0198076
0.0198318
0.0198101
0.0198078
0.0198079
0.0198065
0.0198282
0.019828
0.0198102
0.0198153
0.0198314
0.0198416
0.0198331
0.0198282
0.0198082
0.0198282
0.0198283
0.0198318
0.0198281
0.0197983
0.0198267
0.0198332
0.019806
0.0198266
0.019803
0.0197983
0.0198092
0.0197955
0.0198082
0.0198318
0.019808
0.019808
0.0198286
0.0198046
0.0198335
0.0198045
0.0198028
0.0197981
0.0198079
0.0198045
0.0198353
0.0198266
0.0198317
0.0198078
0.0198099
0.0198096
0.0198037
0.0198076
0.0198056
0.0198075
0.0198178
0.0198253
0.0198038
0.0198317
0.0198034
0.0198055
0.0198295
0.0198008
0.0198075
0.0198004
0.0198069
0.0198085
0.0198034
0.0198225
0.0198065
0.0198249
0.0198028
0.0198065
0.0198065
0.0198071
0.0198069
0.0198068
0.0198069
0.0198075
0.0197999
0.0198001
0.0197999
0.0197999
0.019796
0.0197959
0.0198229
0.0198073
0.0198088
0.0198156
0.0197996
0.0197994
0.0198087
0.0198252
0.019809
0.0198079
0.0198223
0.0198007
0.0198226
0.0198032
0.0198091
0.0198222
0.0198246
0.019836
0.0198356
0.0198034
0.019837
0.0198107
0.0198249
0.0198181
0.019809
0.0198066
0.0197868
0.0198068
0.0198374
0.0198248
0.0198088
0.0198091
0.0198255
0.0198067
0.0198185
0.0197868
0.0198248
0.0198064
0.0198048
0.0198096
0.0197997
0.0198048
0.0197957
0.0198102
0.0198405
0.0198423
0.0197971
0.0198139
0.0198092
0.0198226
0.0198006
0.0198061
0.0198248
0.0198059
0.0198211
0.0198082
0.0198211
0.0198251
0.0197829
0.0197978
0.0197994
0.0197995
0.0198075
0.0198207
0.0197914
0.019805
0.0198151
0.0198205
0.0198221
0.0197971
0.0198224
0.0197984
0.0198216
0.0198426
0.0198208
0.0198365
0.0198027
0.0198223
0.019783
0.0198215
0.0198038
0.0198229
0.0198043
0.0198217
0.0198115
0.0198446
0.0198125
0.0198225
0.0197973
0.0198227
0.0198151
0.0198043
0.0198074
0.0198216
0.0198208
0.0198186
0.0198028
0.0198208
0.0198092
0.0198115
0.0197959
0.0198208
0.0198189
0.0198144
0.0198184
0.0198213
0.0198182
0.0198012
0.0198093
0.0198187
0.0198225
0.0198079
0.0198078
0.019821
0.0197959
0.0198553
0.0198116
0.019836
0.0198142
0.0198811
0.019881
0.0198807
0.0198808
0.0198806
0.0198812
0.019881
0.0198025
0.0197927
0.01981
0.0198153
0.0198181
0.0198184
0.0198082
0.0198187
0.0198189
0.0197926
0.0198184
0.0198005
0.0198268
0.0198007
0.0198122
0.0198154
0.0198186
0.019797
0.0198117
0.0198151
0.0198116
0.019815
0.0198188
0.0198259
0.0198154
0.0198121
0.0198003
0.0198176
0.0198192
0.0198179
0.0198157
0.0198122
0.0198082
0.0198179
0.0198082
0.0198126
0.0198156
0.019809
0.0198125
0.0198185
0.0198043
0.0198146
0.0197932
0.0198426
0.0198025
0.0198012
0.0198122
0.0198145
0.0198055
0.0198547
0.0198122
0.0198147
0.0198443
0.0197833
0.0197832
0.0198116
0.0198182
0.0198141
0.0198176
0.0197756
0.0197756
0.019809
0.019809
0.0198092
0.0198549
0.0198189
0.0198036
0.0198156
0.0198161
0.0198157
0.0198555
0.0198046
0.0198184
0.0198118
0.0198118
0.0198161
0.0198152
0.0198161
0.0198157
0.0198471
0.0198364
0.0198152
0.0198117
0.0198146
0.0198163
0.0198149
0.0198143
0.0198146
0.0198426
0.0197996
0.0198179
0.0198057
0.0198043
0.0198429
0.019812
0.0198124
0.0197958
0.0197835
0.0197836
0.0197978
0.019819
0.0198119
0.0198434
0.0197845
0.0197768
0.0197768
0.0198561
0.0197901
0.0197878
0.0198124
0.0197987
0.0198101
0.0198075
0.0198041
0.019803
0.0198092
0.0198548
0.0198112
0.0198061
0.0198037
0.0198499
0.0197894
0.0198452
0.0198039
0.0198074
0.0198218
0.0198104
0.0198094
0.0197953
0.0198087
0.0197954
0.0198117
0.0198037
0.0197886
0.0197883
0.0198433
0.0198068
0.0198579
0.019857
0.019859
0.0198046
0.0198554
0.0198599
0.0198163
0.0198584
0.0197933
0.0197934
0.0198577
0.0198143
0.019847
0.0198582
0.0198479
0.0198584
0.0198479
0.0197898
0.019845
0.0198552
0.0198578
0.0198096
0.0198019
0.0198486
0.0198095
0.0198596
0.0198079
0.019814
0.0198587
0.0198493
0.0198594
0.0198561
0.0198126
0.0197924
0.0197776
0.0197783
0.019807
0.0197777
0.0197778
0.019778
0.0197819
0.0198441
0.0197889
0.0197975
0.0197924
0.0198076
0.0197809
0.0197809
0.0197915
0.0198566
0.0198145
0.0198561
0.019846
0.0198456
0.0197851
0.0197852
0.0197856
0.0197855
0.0197852
0.0197785
0.0197855
0.0197808
0.0197775
0.019785
0.0197849
0.0197773
0.0197784
0.0197807
0.0197859
SCALARS rr_(T) float
LOOKUP_TABLE default
0.0653324
0.0653608
0.0653581
0.06536
0.0653718
0.0653581
0.0653323
0.0653601
0.0653556
0.0653608
0.0653331
0.0653602
0.0653594
0.0653615
0.0653676
0.0653585
0.0653628
0.0653596
0.0653541
0.0653573
0.065357
0.0653874
0.065357
0.0653574
0.0653572
0.0653602
0.0653376
0.0653587
0.0653461
0.0653781
0.0653593
0.0653462
0.0653373
0.0653755
0.0653766
0.0653755
0.0653785
0.065376
0.0653593
0.0653373
0.0653461
0.0653787
0.0653787
0.0653593
0.0653396
0.0653466
0.0653548
0.065356
0.0653583
0.0653443
0.0653454
0.0653492
0.0653711
0.0653492
0.0653708
0.0653408
0.0653768
0.0653492
0.0653767
0.0653575
0.0653626
0.065366
0.0653397
0.0653659
0.0653661
0.0653632
0.0653628
0.0653602
0.0653571
0.065361
0.0653711
0.065371
0.0653461
0.0653644
0.0653581
0.0653359
0.0653685
0.0653631
0.0653602
0.0653497
0.065344
0.065373
0.0653644
0.065343
0.0653471
0.0653401
0.0653587
0.0653639
0.0653397
0.0653855
0.0653492
0.0653855
0.0653688
0.0653629
0.0653495
0.0653451
0.065344
0.0653607
0.0653685
0.0653591
0.0653525
0.0653478
0.065343
0.0653597
0.0653607
0.0653604
0.0653651
0.0653589
0.0653429
0.0653613
0.0653575
0.0653406
0.0653419
0.0653596
0.0653602
0.0653493
0.0653768
0.0653439
0.0653767
0.0653495
0.0653535
0.0653671
0.0653608
0.0653636
0.0653617
0.0653681
0.0653752
0.0653607
0.065344
0.0653495
0.0653712
0.0653605
0.0653641
0.0653606
0.0653478
0.0653768
0.0653425
0.0653598
0.0653644
0.0653768
0.0653481
0.0653614
0.0653541
0.065361
0.0653438
0.0653602
0.065361
0.0653585
0.065358
0.0653516
0.0653561
0.0653608
0.0653461
0.0653594
0.065361
0.0653606
0.0653621
0.0653484
0.0653485
0.0653592
0.0653561
0.0653463
0.0653404
0.0653453
0.0653484
0.0653604
0.0653484
0.0653484
0.0653461
0.0653485
0.0653689
0.0653492
0.0653453
0.0653623
0.0653493
0.065365
0.0653689
0.0653604
0.0653712
0.0653609
0.0653462
0.0653606
0.0653606
0.0653482
0.0653639
0.0653451
0.0653635
0.0653652
0.0653691
0.0653607
0.065364
0.0653443
0.0653493
0.0653462
0.0653606
0.0653593
0.0653596
0.0653641
0.0653607
0.065363
0.0653608
0.0653545
0.0653499
0.0653641
0.0653463
0.0653643
0.0653632
0.0653476
0.0653669
0.0653609
0.0653672
0.065362
0.0653605
0.0653644
0.0653517
0.0653624
0.0653502
0.0653651
0.0653616
0.0653615
0.065361
0.0653612
0.0653612
0.0653612
0.0653614
0.0653672
0.0653671
0.0653673
0.0653673
0.065371
0.065371
0.0653515
0.0653614
0.0653596
0.0653558
0.0653676
0.0653678
0.0653597
0.06535
0.0653594
0.0653607
0.0653518
0.065367
0.0653517
0.0653646
0.0653592
0.0653519
0.0653503
0.0653439
0.0653439
0.0653644
0.0653434
0.0653589
0.0653502
0.0653544
0.0653593
0.0653614
0.0653791
0.0653613
0.0653433
0.0653502
0.0653595
0.0653604
0.0653498
0.0653614
0.0653542
0.065379
0.0653503
0.0653616
0.0653634
0.0653595
0.0653675
0.0653638
0.0653712
0.0653592
0.0653412
0.0653401
0.0653701
0.0653569
0.0653603
0.0653517
0.0653671
0.0653623
0.0653502
0.0653628
0.0653526
0.0653612
0.0653526
0.0653501
0.0653826
0.0653693
0.0653677
0.0653677
0.0653612
0.0653528
0.065375
0.0653632
0.0653563
0.0653529
0.065352
0.06537
0.0653518
0.0653689
0.0653523
0.0653397
0.0653528
0.0653437
0.0653653
0.0653518
0.0653826
0.0653523
0.0653644
0.0653514
0.0653638
0.0653522
0.0653585
0.0653394
0.0653578
0.0653517
0.0653698
0.0653516
0.0653564
0.065364
0.0653609
0.0653523
0.0653528
0.0653542
0.0653653
0.0653528
0.0653603
0.0653587
0.0653711
0.0653528
0.065354
0.0653568
0.0653543
0.0653525
0.0653544
0.0653666
0.0653601
0.0653541
0.0653517
0.0653613
0.0653613
0.0653527
0.065371
0.0653322
0.0653588
0.0653439
0.065357
0.0653158
0.0653158
0.065316
0.0653159
0.0653159
0.0653158
0.065316
0.0653655
0.0653739
0.0653595
0.0653562
0.0653543
0.0653543
0.0653611
0.0653541
0.0653539
0.065374
0.0653543
0.0653671
0.0653492
0.0653665
0.0653582
0.0653561
0.0653541
0.0653702
0.0653587
0.0653564
0.0653587
0.0653564
0.0653538
0.0653496
0.0653562
0.0653584
0.0653672
0.0653547
0.0653536
0.0653545
0.0653559
0.0653583
0.0653612
0.0653544
0.0653611
0.0653578
0.065356
0.0653604
0.0653579
0.0653541
0.0653637
0.0653566
0.0653734
0.0653397
0.0653654
0.0653666
0.0653583
0.0653566
0.065363
0.0653326
0.0653582
0.0653566
0.0653395
0.0653824
0.0653826
0.0653586
0.0653543
0.0653569
0.0653546
0.0653895
0.0653894
0.06536
0.0653604
0.0653604
0.0653326
0.0653538
0.0653643
0.0653559
0.0653556
0.065356
0.0653319
0.0653638
0.0653541
0.0653585
0.0653586
0.0653556
0.0653563
0.0653556
0.0653559
0.0653375
0.0653438
0.0653563
0.0653587
0.0653566
0.0653554
0.0653564
0.0653569
0.0653566
0.0653398
0.0653679
0.0653545
0.0653628
0.065364
0.0653396
0.0653581
0.0653578
0.0653711
0.065382
0.065382
0.0653694
0.0653537
0.0653586
0.0653393
0.0653811
0.0653882
0.0653881
0.0653316
0.065376
0.0653782
0.0653581
0.0653686
0.0653593
0.065361
0.0653638
0.0653651
0.0653605
0.0653324
0.0653587
0.0653626
0.0653642
0.0653357
0.0653767
0.0653392
0.0653639
0.0653614
0.0653521
0.0653591
0.0653602
0.0653715
0.0653605
0.0653715
0.0653583
0.0653645
0.0653776
0.0653779
0.0653394
0.0653617
0.065332
0.0653327
0.0653312
0.0653637
0.0653323
0.0653305
0.0653555
0.0653316
0.0653732
0.0653732
0.0653321
0.0653566
0.0653377
0.0653319
0.065337
0.0653318
0.065337
0.0653764
0.0653384
0.0653324
0.065332
0.0653601
0.0653659
0.0653366
0.0653602
0.0653307
0.0653612
0.0653569
0.0653316
0.0653361
0.065331
0.0653316
0.0653579
0.065374
0.0653873
0.0653868
0.0653619
0.0653872
0.0653872
0.065387
0.0653836
0.0653389
0.0653772
0.0653697
0.0653742
0.0653615
0.0653846
0.0653845
0.0653749
0.0653312
0.0653565
0.0653319
0.0653388
0.0653388
0.0653805
0.0653803
0.06538
0.0653802
0.0653804
0.0653866
0.0653803
0.0653847
0.0653876
0.0653807
0.0653808
0.0653878
0.0653867
0.0653847
0.06538
SCALARS rr_tsim float
LOOKUP_TABLE default
160
160
160
160
160
160
160
160
160
160
160
160
160
160
160
160
160
160
160
160
160
160
160
160
160
160
160
160
160
160
160
160
160
160
160
160
160
160
160
160
160
160
160
160
160
160
160
160
160
160
160
160
160
160
160
160
160
160
160
160
160
160
160
160
160
160
160
160
160
160
160
160
160
160
160
160
160
160
160
160
160
160
160
160
160
160
160
160
160
160
160
160
160
160
160
160
160
160
160
160
160
160
160
160
160
160
160
160
160
160
160
160
160
160
160
160
160
160
160
160
160
160
160
160
160
160
160
160
160
160
160
160
160
160
160
160
160
160
160
160
160
160
160
160
160
160
160
160
160
160
160
160
160
160
160
160
160
160
160
160
160
160
160
160
160
160
160
160
160
160
160
160
160
160
160
160
160
160
160
160
160
160
160
160
160
160
160
160
160
160
160
160
160
160
160
160
160
160
160
160
160
160
160
160
160
160
160
160
160
160
160
160
160
160
160
160
160
160
160
160
160
160
160
160
160
160
160
160
160
160
160
160
160
160
160
160
160
160
160
160
160
160
160
160
160
160
160
160
160
160
160
160
160
160
160
160
160
160
160
160
160
160
160
160
160
160
160
160
160
160
160
160
160
160
160
160
160
160
160
160
160
160
160
160
160
160
160
160
160
160
160
160
160
160
160
160
160
160
160
160
160
160
160
160
160
160
160
160
160
160
160
160
160
160
160
160
160
160
160
160
160
160
160
160
160
160
160
160
160
160
160
160
160
160
160
160
160
160
160
160
160
160
160
160
160
160
160
160
160
160
160
160
160
160
160
160
160
160
160
160
160
160
160
160
160
160
160
160
160
160
160
160
160
160
160
160
160
160
160
160
160
160
160
160
160
160
160
160
160
160
160
160
160
160
160
160
160
160
160
160
160
160
160
160
160
160
160
160
160
160
160
160
160
160
160
160
160
160
160
160
160
160
160
160
160
160
160
160
160
160
160
160
160
160
160
160
160
160
160
160
160
160
160
160
160
160
160
160
160
160
160
160
160
160
160
160
160
160
160
160
160
160
160
160
160
160
160
160
160
160
160
160
160
160
160
160
160
160
160
160
160
160
160
160
160
160
160
160
160
160
160
160
160
160
160
160
160
160
160
160
160
160
160
160
160
160
160
160
160
160
160
160
160
160
160
160
160
160
160
160
160
160
160
160
160
160
160
160
160
160
160
160
160
160
160
160
160
160
160
160
160
160
160
160
160
160
160
160
160
160
160
160
160
160
160
160
160
160
160
160
160
160
160
SCALARS rr_Vext float
LOOKUP_TABLE default
0.18136
0.449128
0.356053
0.468115
0.250494
0.377832
0.179276
0.465094
0.395111
0.504571
0.16539
0.466514
0.40983
0.435018
0.51614
0.424869
0.369048
0.414189
0.365535
0.360531
0.405113
0.0765109
0.415074
0.383019
0.347109
0.403476
0.155011
0.352838
0.267415
0.339249
0.361973
0.276488
0.171521
0.252903
0.249249
0.253454
0.330128
0.249492
0.361544
0.192838
0.224723
0.291052
0.291062
0.397276
0.216887
0.244122
0.344616
0.350188
0.330083
0.303764
0.312857
0.245239
0.401521
0.31521
0.369417
0.157755
0.26618
0.317519
0.266152
0.393189
0.470934
0.464877
0.153277
0.327645
0.445318
0.417378
0.455659
0.391909
0.35799
0.515562
0.435558
0.430794
0.277657
0.338748
0.353976
0.176427
0.372679
0.413481
0.395174
0.271135
0.240493
0.283509
0.527537
0.240252
0.327764
0.119293
0.407584
0.344613
0.229708
0.037483
0.273095
0.0407609
0.31636
0.299315
0.258662
0.232985
0.22091
0.442935
0.372914
0.351859
0.293538
0.277772
0.23048
0.41858
0.426142
0.383836
0.34063
0.340851
0.244631
0.512524
0.32603
0.16404
0.220058
0.457884
0.429723
0.304485
0.308633
0.18351
0.320037
0.303369
0.266989
0.502653
0.511816
0.442044
0.484531
0.384955
0.220816
0.478215
0.20008
0.262281
0.227505
0.4564
0.449028
0.448254
0.28894
0.187538
0.19064
0.327443
0.404472
0.187461
0.241544
0.387294
0.287972
0.472763
0.223277
0.385194
0.349735
0.336131
0.214792
0.269548
0.304302
0.440631
0.248029
0.397415
0.461994
0.469248
0.307859
0.24901
0.247659
0.40114
0.333856
0.246119
0.160078
0.239706
0.240469
0.43096
0.252351
0.255103
0.274622
0.245941
0.386347
0.258186
0.226061
0.297717
0.272814
0.340309
0.382121
0.361136
0.31398
0.360849
0.266569
0.41825
0.448857
0.241617
0.442304
0.239442
0.436799
0.402741
0.378969
0.379419
0.446231
0.200776
0.266931
0.246019
0.447414
0.439025
0.407203
0.447898
0.452957
0.381868
0.466574
0.307719
0.274113
0.512736
0.28555
0.465958
0.369965
0.226657
0.286344
0.461729
0.389038
0.350311
0.45006
0.44526
0.278862
0.284224
0.267545
0.395456
0.433423
0.498097
0.478093
0.520376
0.471563
0.515292
0.432059
0.457205
0.460655
0.434358
0.456361
0.422922
0.416638
0.282414
0.389414
0.4543
0.312123
0.470276
0.432159
0.492665
0.288249
0.468281
0.448682
0.284503
0.406916
0.282472
0.455242
0.411294
0.296258
0.27768
0.235554
0.271099
0.455777
0.197503
0.347024
0.27653
0.313906
0.468676
0.455553
0.147789
0.457109
0.236433
0.261767
0.466275
0.379031
0.264587
0.522187
0.291233
0.14778
0.267726
0.406403
0.508926
0.382693
0.457758
0.425159
0.226616
0.216733
0.17598
0.201429
0.308137
0.229078
0.371985
0.227526
0.406395
0.287625
0.268104
0.323956
0.293525
0.398525
0.281489
0.287599
0.136371
0.303574
0.437814
0.438061
0.391528
0.281118
0.19236
0.545883
0.360492
0.29832
0.274294
0.284978
0.282732
0.358845
0.278094
0.19206
0.274794
0.183497
0.35107
0.279579
0.127092
0.263724
0.32134
0.279317
0.443673
0.290713
0.381471
0.138315
0.305665
0.287016
0.261626
0.26932
0.321995
0.308725
0.321049
0.266566
0.271166
0.293862
0.403605
0.276098
0.399026
0.358791
0.290798
0.286476
0.290125
0.323375
0.289915
0.270119
0.308532
0.333032
0.38787
0.290172
0.286356
0.425146
0.419252
0.276214
0.290837
0.117369
0.342066
0.22768
0.319683
0.126305
0.131123
0.117233
0.11913
0.126412
0.133077
0.137186
0.365821
0.275204
0.269666
0.305537
0.296209
0.29241
0.314712
0.285996
0.292389
0.310825
0.291317
0.368791
0.261065
0.378836
0.289106
0.277581
0.291598
0.322767
0.328996
0.304698
0.351052
0.326033
0.300392
0.213977
0.303862
0.298864
0.328283
0.305311
0.288521
0.275038
0.304066
0.319094
0.436164
0.283308
0.424004
0.438663
0.298867
0.422866
0.322478
0.25568
0.356796
0.30732
0.229506
0.185271
0.353351
0.377141
0.313435
0.259545
0.317015
0.138205
0.309866
0.289515
0.14057
0.0597488
0.0653756
0.268654
0.283296
0.331359
0.316589
0.0311309
0.0325287
0.318182
0.321544
0.304244
0.103724
0.264728
0.315905
0.315644
0.272077
0.240283
0.107864
0.464469
0.284947
0.352163
0.357674
0.255165
0.323447
0.249477
0.275482
0.12974
0.199382
0.323808
0.327752
0.280327
0.293565
0.30366
0.320507
0.306411
0.143961
0.27578
0.301355
0.290886
0.43749
0.143858
0.233733
0.240574
0.234524
0.155625
0.155629
0.2677
0.208509
0.301875
0.153857
0.185526
0.0614168
0.0614143
0.11231
0.199634
0.134972
0.257002
0.284539
0.297808
0.337002
0.307419
0.285233
0.222217
0.127172
0.278051
0.290582
0.28244
0.14413
0.147645
0.104629
0.281949
0.285972
0.224182
0.258251
0.238714
0.223792
0.292913
0.223758
0.257205
0.251388
0.158047
0.195241
0.165309
0.310647
0.112707
0.118918
0.115939
0.294535
0.10769
0.104733
0.200918
0.0979324
0.243156
0.24351
0.10066
0.255446
0.113723
0.110989
0.127155
0.105858
0.105723
0.174206
0.126241
0.112775
0.106277
0.235811
0.27266
0.118744
0.260318
0.096077
0.264789
0.208173
0.100551
0.0864355
0.0948699
0.126461
0.225553
0.19218
0.0824426
0.0914074
0.253858
0.0775861
0.0775828
0.0878718
0.0979623
0.0995855
0.127334
0.207533
0.193795
0.253769
0.0775245
0.0775211
0.229253
0.0843469
0.178715
0.0765193
0.0783417
0.103271
0.198596
0.205596
0.218907
0.20066
0.198581
0.0438925
0.320382
0.0557538
0.0543419
0.259009
0.257239
0.0563346
0.0390573
0.0548046
0.238561
SCALARS rr_Vli float
LOOKUP_TABLE default
0.396487
0.9033
0.721405
0.942905
0.493004
0.765667
0.392035
0.937673
0.806269
1.01512
0.359836
0.940545
0.827704
0.874156
1.02412
0.859731
0.739396
0.835917
0.748798
0.732055
0.823482
0.146196
0.84374
0.777628
0.704889
0.813142
0.333349
0.714259
0.560609
0.659802
0.731227
0.579529
0.369272
0.494393
0.485905
0.495507
0.641458
0.486897
0.730484
0.415065
0.471211
0.565331
0.56539
0.802516
0.463323
0.511148
0.704663
0.713573
0.668683
0.640143
0.657316
0.50971
0.791283
0.654955
0.7285
0.336094
0.518809
0.659757
0.518792
0.798048
0.943866
0.925032
0.32784
0.652219
0.886012
0.836197
0.913002
0.789776
0.727291
1.03671
0.858508
0.849154
0.582211
0.676853
0.716971
0.381183
0.738161
0.828441
0.796423
0.562481
0.507624
0.556449
1.05351
0.508333
0.685385
0.254579
0.825077
0.689488
0.490661
0.0719435
0.56753
0.0782462
0.626351
0.60026
0.537109
0.489903
0.466218
0.891216
0.738708
0.71115
0.604218
0.579674
0.48775
0.844112
0.858083
0.772716
0.679548
0.689381
0.51776
1.02965
0.661679
0.349479
0.46706
0.923823
0.865438
0.632493
0.601614
0.387412
0.624002
0.629993
0.547961
0.998314
1.02948
0.88428
0.972859
0.763254
0.431751
0.962239
0.422253
0.544647
0.448454
0.918482
0.897112
0.901825
0.6029
0.365538
0.404182
0.660933
0.807734
0.365415
0.503539
0.778936
0.590242
0.951062
0.471532
0.776067
0.704324
0.680956
0.435248
0.556269
0.620248
0.886309
0.519983
0.802499
0.929444
0.944264
0.617855
0.518658
0.515714
0.810199
0.680208
0.51566
0.341239
0.503639
0.500929
0.867517
0.525646
0.531444
0.575697
0.512237
0.764769
0.536475
0.475016
0.597027
0.56676
0.679102
0.756453
0.72816
0.618513
0.726375
0.558761
0.841638
0.903307
0.503623
0.884785
0.503409
0.873809
0.803285
0.749917
0.763391
0.892544
0.423345
0.554571
0.515692
0.900212
0.886303
0.821713
0.894906
0.911198
0.765273
0.938419
0.629676
0.568294
1.02454
0.598472
0.930554
0.74128
0.473241
0.5692
0.928576
0.77273
0.703607
0.906438
0.88914
0.57533
0.570473
0.554201
0.788784
0.87038
1.00029
0.961018
1.04559
0.947454
1.03539
0.868714
0.907699
0.914771
0.862346
0.905934
0.833932
0.821518
0.583005
0.782796
0.91591
0.63624
0.933123
0.857212
0.993027
0.597477
0.944372
0.902757
0.586737
0.808803
0.582776
0.908858
0.829728
0.610882
0.574982
0.497306
0.572063
0.910104
0.417615
0.701483
0.572847
0.642714
0.94526
0.91497
0.286927
0.918297
0.500198
0.54226
0.940103
0.764203
0.54865
1.04888
0.596677
0.286928
0.554502
0.81598
1.01856
0.772236
0.908468
0.850825
0.446602
0.437754
0.374435
0.429884
0.608685
0.465561
0.749994
0.469386
0.807671
0.576819
0.555342
0.649549
0.603997
0.802279
0.57918
0.596022
0.26302
0.600444
0.868513
0.869132
0.787211
0.578064
0.376389
1.09285
0.734302
0.61326
0.565368
0.562959
0.583125
0.710461
0.572678
0.410197
0.565168
0.387692
0.700128
0.576601
0.245149
0.543078
0.642115
0.576621
0.887243
0.598799
0.772176
0.296223
0.619805
0.592064
0.517042
0.555818
0.655881
0.617316
0.645551
0.549012
0.557649
0.602198
0.804988
0.567872
0.804508
0.726245
0.573156
0.58913
0.594778
0.657844
0.593796
0.555996
0.631809
0.662548
0.782182
0.594653
0.590811
0.85529
0.84331
0.568302
0.573279
0.256088
0.692603
0.480628
0.650105
0.287607
0.298551
0.266803
0.271172
0.287683
0.303057
0.312311
0.729345
0.539724
0.544567
0.622606
0.606502
0.598935
0.633521
0.586133
0.599485
0.609471
0.596714
0.73266
0.542547
0.753109
0.586005
0.5657
0.597467
0.637468
0.666115
0.620594
0.710718
0.663999
0.615744
0.444041
0.619299
0.605573
0.652006
0.624638
0.59187
0.562873
0.620019
0.646723
0.87792
0.579859
0.853551
0.889741
0.609279
0.852431
0.653931
0.523842
0.713545
0.625427
0.450402
0.395666
0.70447
0.750315
0.635203
0.52805
0.635254
0.301236
0.628023
0.589267
0.300913
0.115298
0.126126
0.544006
0.580099
0.673738
0.647664
0.0592774
0.0619389
0.641398
0.648089
0.613484
0.226113
0.542806
0.631014
0.643419
0.555016
0.489879
0.23547
0.929286
0.583735
0.713234
0.724385
0.520584
0.65885
0.508991
0.561649
0.279102
0.421177
0.659634
0.66371
0.570435
0.599126
0.618258
0.651895
0.623525
0.307428
0.547098
0.616833
0.583017
0.874904
0.307368
0.473535
0.487755
0.462241
0.300516
0.300536
0.529555
0.427594
0.611538
0.329006
0.358877
0.117176
0.117176
0.245399
0.38962
0.262495
0.521052
0.563541
0.601413
0.677648
0.614659
0.569071
0.448037
0.277251
0.562548
0.582802
0.564249
0.311557
0.287925
0.224284
0.563453
0.574851
0.461943
0.521749
0.481455
0.440838
0.590096
0.440799
0.520823
0.502149
0.307812
0.380028
0.353394
0.623984
0.246786
0.25998
0.254334
0.589285
0.234981
0.230138
0.41001
0.214645
0.477122
0.477844
0.220334
0.519612
0.244574
0.243123
0.273902
0.231958
0.227739
0.33983
0.270698
0.245997
0.232678
0.47575
0.543003
0.256116
0.525109
0.211012
0.532691
0.42322
0.220455
0.186663
0.208255
0.276319
0.457468
0.376609
0.157552
0.174883
0.509988
0.148307
0.148306
0.168049
0.188629
0.213206
0.248114
0.410274
0.379762
0.510342
0.149004
0.149003
0.448512
0.184462
0.363611
0.167149
0.168151
0.221554
0.38455
0.398196
0.424215
0.388779
0.38454
0.0840103
0.620732
0.107163
0.103829
0.501445
0.497966
0.107596
0.074733
0.105301
0.462543
SCALARS rr_S_ext' float
LOOKUP_TABLE default
-0.000793668
-0.00181178
-0.00144672
-0.00189115
-0.000989323
-0.00153548
-0.00078475
-0.00188064
-0.00161665
-0.00203605
-0.000720366
-0.0018864
-0.00166002
-0.00175338
-0.00205474
-0.00172418
-0.00148317
-0.00167651
-0.00150127
-0.001468
-0.00165131
-0.000293557
-0.00169192
-0.00155939
-0.00141352
-0.00163088
-0.000667549
-0.00143241
-0.00112335
-0.00132436
-0.00146652
-0.00116127
-0.000739468
-0.000992244
-0.000975275
-0.000994479
-0.00128756
-0.000977245
-0.00146502
-0.000831173
-0.000944211
-0.00113477
-0.00113489
-0.0016095
-0.000927976
-0.00102428
-0.00141285
-0.00143083
-0.00134099
-0.00128256
-0.00131706
-0.00102157
-0.00158783
-0.00131269
-0.00146183
-0.000673207
-0.00104132
-0.00132231
-0.00104129
-0.00160035
-0.0018933
-0.00185583
-0.000656611
-0.00130849
-0.00177755
-0.00167735
-0.0018314
-0.00158402
-0.00145843
-0.00207937
-0.00172272
-0.00170395
-0.00116663
-0.0013578
-0.00143784
-0.000763248
-0.00148108
-0.00166179
-0.00159735
-0.00112739
-0.00101702
-0.00111671
-0.0021134
-0.00101837
-0.00137347
-0.000509905
-0.00165466
-0.00138311
-0.000982733
-0.000144446
-0.00113746
-0.0001571
-0.00125674
-0.00120405
-0.00107652
-0.000981596
-0.000934065
-0.00178754
-0.00148217
-0.00142624
-0.00121127
-0.00116169
-0.000977133
-0.00169297
-0.00172105
-0.00154984
-0.00136325
-0.00138256
-0.00103725
-0.00206524
-0.00132689
-0.000700009
-0.000935614
-0.00185282
-0.0017358
-0.00126768
-0.00120752
-0.000776173
-0.00125245
-0.00126268
-0.00109856
-0.00200292
-0.00206485
-0.00177386
-0.00195136
-0.00153138
-0.000866524
-0.00192998
-0.000845983
-0.00109162
-0.000899882
-0.00184221
-0.00179964
-0.00180881
-0.00120824
-0.000733683
-0.000809688
-0.00132557
-0.00162036
-0.000733435
-0.00100914
-0.00156236
-0.00118337
-0.00190758
-0.000944699
-0.00155653
-0.00141266
-0.00136561
-0.000872852
-0.00111508
-0.00124369
-0.00177769
-0.00104194
-0.00160947
-0.00186422
-0.00189392
-0.00123932
-0.00103946
-0.00103357
-0.0016249
-0.00136393
-0.0010333
-0.000683496
-0.00100914
-0.00100392
-0.00173998
-0.00105346
-0.00106508
-0.00115359
-0.00102659
-0.00153448
-0.00107523
-0.000951785
-0.00119757
-0.00113593
-0.00136234
-0.00151779
-0.00146043
-0.00124116
-0.0014569
-0.00111966
-0.00168809
-0.00181178
-0.00100931
-0.00177488
-0.00100866
-0.00175285
-0.00161149
-0.00150469
-0.00153116
-0.00179045
-0.000848189
-0.0011115
-0.00103335
-0.00180557
-0.00177755
-0.00164802
-0.00179521
-0.00182761
-0.00153508
-0.00188222
-0.00126248
-0.00113906
-0.00205526
-0.00119923
-0.00186675
-0.00148695
-0.000948381
-0.00114197
-0.00186248
-0.00155034
-0.00141131
-0.00181803
-0.00178367
-0.00115329
-0.00114428
-0.00111083
-0.0015824
-0.0017458
-0.00200636
-0.00192756
-0.0020972
-0.00190037
-0.00207675
-0.00174243
-0.00182113
-0.00183531
-0.00173014
-0.00181759
-0.00167339
-0.00164848
-0.00116866
-0.00157011
-0.00183695
-0.00127576
-0.00187216
-0.00171987
-0.00199163
-0.00119755
-0.00189403
-0.00181069
-0.00117617
-0.00162268
-0.00116822
-0.00182323
-0.00166408
-0.00122458
-0.0011525
-0.00099634
-0.00114612
-0.00182573
-0.000836652
-0.00140684
-0.00114821
-0.0012886
-0.0018958
-0.00183523
-0.000575946
-0.0018419
-0.00100209
-0.00108689
-0.00188547
-0.00153272
-0.00109968
-0.00210382
-0.00119628
-0.000575946
-0.00111144
-0.00163669
-0.0020432
-0.00154879
-0.00182269
-0.00170674
-0.000896176
-0.000877942
-0.000750024
-0.000861028
-0.00122136
-0.000933581
-0.00150422
-0.000940925
-0.00162042
-0.00115703
-0.00111312
-0.00130293
-0.00121084
-0.00160914
-0.00116109
-0.00119464
-0.00052803
-0.00120479
-0.00174254
-0.00174378
-0.00157896
-0.00115887
-0.000755395
-0.00219222
-0.00147241
-0.00122944
-0.00113335
-0.00112961
-0.00116893
-0.00142551
-0.00114804
-0.000821576
-0.00113301
-0.00077672
-0.00140455
-0.00115585
-0.000492153
-0.0010887
-0.00128811
-0.00115587
-0.00177981
-0.00120039
-0.00154857
-0.000593271
-0.00124294
-0.00118684
-0.00103746
-0.00111417
-0.00131516
-0.00123835
-0.00129481
-0.00110059
-0.00111794
-0.00120735
-0.00161491
-0.00113843
-0.00161356
-0.00145646
-0.00115013
-0.00118105
-0.00119246
-0.00131914
-0.00119052
-0.0011146
-0.00126674
-0.00132923
-0.00156877
-0.00119222
-0.00118433
-0.00171549
-0.00169147
-0.00113928
-0.00115037
-0.000512634
-0.00138898
-0.000962929
-0.00130363
-0.000575067
-0.000596951
-0.000533478
-0.00054221
-0.000575225
-0.00060596
-0.000624471
-0.00146317
-0.00108315
-0.00109216
-0.00124842
-0.00121599
-0.00120082
-0.00127066
-0.00117513
-0.00120189
-0.00122313
-0.00119636
-0.00146994
-0.00108739
-0.00151093
-0.00117517
-0.00113432
-0.00119787
-0.00127912
-0.00133587
-0.0012444
-0.00142532
-0.00133144
-0.00123449
-0.000889988
-0.00124179
-0.00121443
-0.00130813
-0.00125238
-0.00118661
-0.00112854
-0.00124322
-0.00129694
-0.00176086
-0.00116259
-0.00171198
-0.00178426
-0.00122169
-0.00170968
-0.00131138
-0.00105025
-0.00143137
-0.00125412
-0.000903882
-0.000792474
-0.00141327
-0.00150531
-0.00127384
-0.00105887
-0.00127427
-0.000603029
-0.00125944
-0.00118161
-0.00060267
-0.000231468
-0.000253207
-0.00109097
-0.00116306
-0.00135102
-0.00129855
-0.000119036
-0.000124381
-0.00128642
-0.00129985
-0.00123043
-0.000452645
-0.00108825
-0.00126585
-0.00129015
-0.00111287
-0.000982275
-0.000471353
-0.00186413
-0.00117033
-0.00143035
-0.00145271
-0.00104383
-0.00132111
-0.00102058
-0.00112618
-0.000558913
-0.000843809
-0.00132268
-0.00133104
-0.00114385
-0.0012013
-0.00123973
-0.00130721
-0.00125031
-0.000615745
-0.00109768
-0.00123672
-0.00116948
-0.00175506
-0.000615617
-0.000949637
-0.000978137
-0.000927558
-0.000603287
-0.000603327
-0.00106254
-0.000857266
-0.0012264
-0.000658941
-0.00072042
-0.000235294
-0.000235293
-0.000491218
-0.000781999
-0.000526882
-0.00104492
-0.00113071
-0.00120617
-0.00135919
-0.00123301
-0.00114162
-0.000898604
-0.00055501
-0.00112818
-0.00116903
-0.00113191
-0.000623828
-0.000577894
-0.000449185
-0.00113031
-0.00115302
-0.00092603
-0.00104639
-0.000965621
-0.000884612
-0.00118354
-0.000884535
-0.00104449
-0.00100734
-0.000617824
-0.000762784
-0.000707793
-0.00125159
-0.000493984
-0.000520417
-0.000509066
-0.0011821
-0.000470385
-0.000460616
-0.000822111
-0.000429635
-0.000957515
-0.000958963
-0.00044104
-0.00104194
-0.000489776
-0.000486648
-0.000548481
-0.000464297
-0.000456042
-0.000682074
-0.000542123
-0.00049244
-0.000465744
-0.000954174
-0.00108937
-0.00051285
-0.00105317
-0.000422339
-0.00106844
-0.000848668
-0.000441264
-0.000373764
-0.000416831
-0.000553111
-0.000917394
-0.000755817
-0.000316358
-0.000351149
-0.00102293
-0.000297793
-0.00029779
-0.000337429
-0.000378697
-0.000427002
-0.000497998
-0.000823221
-0.000762144
-0.00102362
-0.000299158
-0.000299156
-0.000900156
-0.00036923
-0.000729123
-0.00033459
-0.000336753
-0.000443705
-0.00077194
-0.000799329
-0.00085155
-0.000780421
-0.00077192
-0.000168684
-0.00124604
-0.000215153
-0.000208485
-0.0010066
-0.000999617
-0.000216052
-0.000150057
-0.000211415
-0.000928478
SCALARS rr_P_ext' float
LOOKUP_TABLE default
0.000157136
0.000363086
0.000289625
0.000378913
0.000198856
0.000307386
0.000155364
0.000376755
0.000323318
0.000408012
0.000142731
0.000377908
0.000332475
0.000351422
0.000412551
0.000345231
0.000297389
0.000335813
0.000300081
0.000293797
0.000330431
5.92421e-05
0.000338558
0.000312093
0.000282889
0.000326738
0.000132494
0.000286797
0.000223799
0.000266634
0.00029371
0.000231359
0.000146744
0.000199629
0.000196287
0.000200077
0.000259259
0.000196655
0.000293404
0.000164948
0.000188104
0.000228503
0.000228525
0.000322347
0.000184366
0.000204096
0.000282478
0.000286214
0.000268465
0.000255324
0.000262307
0.000203775
0.000319101
0.000261854
0.000293752
0.000133802
0.000209586
0.000263774
0.000209576
0.000320303
0.000379606
0.000372464
0.000130427
0.000262599
0.000356759
0.000336325
0.000367209
0.000317353
0.000291859
0.000416724
0.000346202
0.000342427
0.000232414
0.000272353
0.000287859
0.000151383
0.00029744
0.000333202
0.00032002
0.000224942
0.000202413
0.000224544
0.000423949
0.000202613
0.000273727
0.000101321
0.000331295
0.000277378
0.000195248
2.91332e-05
0.000226895
3.16847e-05
0.000252403
0.000241391
0.000214762
0.000195473
0.000185907
0.000358205
0.000297655
0.000285623
0.000241948
0.000231588
0.000194402
0.000339148
0.000344845
0.000310549
0.000273506
0.000276848
0.000206359
0.000413948
0.000265574
0.000139131
0.000186062
0.000371145
0.000347791
0.000252885
0.000243033
0.000154474
0.000252068
0.000251898
0.000219527
0.000402092
0.000413797
0.000355751
0.000391153
0.000307501
0.00017433
0.000386748
0.000168376
0.000217775
0.000180842
0.000369152
0.000360987
0.000362474
0.000240872
0.000147668
0.000161044
0.000265511
0.000325046
0.000147616
0.000201207
0.000313098
0.000236518
0.00038227
0.000188005
0.000311856
0.000283047
0.000273392
0.000174737
0.000222652
0.00024877
0.00035625
0.00020758
0.000322359
0.000373577
0.000379519
0.000248436
0.000207278
0.00020611
0.00032544
0.000272837
0.000205876
0.000135837
0.00020098
0.000200188
0.000348653
0.000210068
0.000212381
0.000229824
0.000204714
0.000308191
0.000214484
0.000189555
0.000240092
0.0002266
0.000273314
0.000304837
0.000292569
0.000249444
0.00029193
0.000223066
0.000338272
0.000363053
0.000201244
0.000355955
0.000200867
0.000351537
0.00032332
0.000302222
0.00030683
0.000359083
0.000168837
0.000221724
0.000205872
0.000361821
0.000356037
0.000330113
0.000360096
0.000366248
0.000307785
0.0003772
0.000252388
0.000227291
0.000412252
0.000238925
0.000374468
0.000298144
0.00018905
0.000229225
0.00037325
0.000311229
0.000282881
0.000364265
0.000357808
0.000230292
0.000229381
0.000221686
0.000317481
0.00034994
0.000402168
0.000386321
0.000420344
0.000380897
0.000416244
0.000349201
0.000365618
0.000368452
0.000347349
0.000364913
0.000336271
0.000331266
0.000233341
0.000314676
0.00036801
0.00025518
0.000375893
0.000345331
0.000399011
0.000238971
0.000379428
0.000362845
0.000234873
0.000325722
0.000233272
0.000365757
0.000333348
0.000244545
0.000230013
0.000198291
0.000228118
0.000366247
0.000166472
0.000281733
0.000229143
0.000257589
0.000379779
0.000367858
0.000115983
0.000369183
0.000199374
0.000216908
0.000377728
0.000307053
0.000219427
0.000421691
0.000239113
0.000115982
0.000221811
0.000328078
0.000409741
0.000310237
0.000365949
0.000342271
0.000180101
0.000175836
0.000149099
0.000171089
0.000245373
0.000186817
0.000301344
0.000187887
0.000325272
0.000231963
0.000222144
0.00026122
0.000241872
0.000322432
0.000231937
0.000238396
0.000106428
0.000242001
0.000349878
0.000350119
0.000316439
0.000231514
0.000151958
0.000439606
0.000294546
0.000245622
0.00022634
0.000226939
0.000233425
0.000286298
0.000229302
0.000163232
0.000226342
0.000154565
0.000281805
0.000230814
9.91955e-05
0.00021745
0.000258372
0.000230785
0.000356962
0.000239751
0.000310056
0.000117823
0.000248803
0.000236996
0.000208415
0.00022247
0.00026309
0.000248367
0.000259492
0.000219821
0.000223334
0.000241316
0.000324007
0.000227423
0.000323248
0.000291614
0.000231132
0.000235942
0.000238327
0.000263933
0.00023797
0.000222639
0.000253212
0.000266783
0.000314266
0.000238292
0.000236487
0.000343774
0.000338967
0.000227583
0.000231179
0.000101528
0.000278092
0.000191645
0.000260843
0.000113149
0.000117456
0.000104975
0.00010669
0.000113191
0.000119225
0.000122874
0.000293579
0.000217823
0.000218747
0.000249726
0.000243074
0.000240028
0.000254611
0.000234875
0.000240209
0.000245979
0.000239136
0.000295081
0.000216906
0.000303285
0.00023525
0.000226897
0.000239427
0.000256984
0.000267458
0.000248939
0.000285371
0.000266353
0.000246733
0.000177567
0.000248392
0.000243119
0.000262609
0.000250376
0.000237137
0.000225607
0.000248661
0.000259629
0.00035284
0.000232411
0.000343039
0.000357145
0.000244363
0.000342512
0.000262499
0.000209924
0.000287076
0.000250911
0.000181755
0.000157452
0.000283567
0.000302123
0.000255007
0.000211855
0.000255496
0.000119449
0.000252122
0.000236399
0.000119697
4.66505e-05
5.10335e-05
0.000218425
0.00023249
0.000270333
0.000259608
2.40336e-05
2.51126e-05
0.000257718
0.000260412
0.00024649
8.96584e-05
0.000217496
0.000253921
0.000258059
0.000222577
0.000196473
9.3345e-05
0.000373848
0.00023393
0.000286364
0.000290841
0.000208764
0.00026428
0.000204114
0.000225257
0.000110926
0.00016792
0.000264591
0.000266485
0.000228853
0.000240247
0.000248016
0.000261553
0.000250151
0.00012234
0.000220396
0.000247228
0.000234478
0.000351996
0.000122305
0.000190114
0.000195799
0.000186405
0.000121578
0.000121585
0.000213426
0.000171327
0.000245523
0.000130896
0.000145149
4.74938e-05
4.74933e-05
9.72655e-05
0.000157364
0.000106078
0.000209167
0.00022708
0.000241581
0.000272394
0.000247301
0.000229039
0.000180019
0.000109934
0.000225902
0.000234366
0.000227049
0.000123722
0.000116305
8.9195e-05
0.000226717
0.000231085
0.000184944
0.000209566
0.000193436
0.000177789
0.000237128
0.000177772
0.000209117
0.000202065
0.000124363
0.000153555
0.000140606
0.000250866
9.77794e-05
0.000103036
0.000100737
0.000237067
9.31592e-05
9.11263e-05
0.000164415
8.50299e-05
0.000192541
0.000192831
8.73041e-05
0.000208476
9.72088e-05
9.63212e-05
0.000108835
9.18929e-05
9.0492e-05
0.000137265
0.000107646
9.75319e-05
9.21917e-05
0.000191134
0.000218611
0.000101745
0.000210969
8.35603e-05
0.000214109
0.000169817
8.73268e-05
7.41377e-05
8.24762e-05
0.000109521
0.00018363
0.000152011
6.38424e-05
7.08528e-05
0.00020503
6.00941e-05
6.00932e-05
6.80884e-05
7.63462e-05
8.48071e-05
0.000100236
0.000165369
0.000153284
0.000205138
6.03255e-05
6.03247e-05
0.000181081
7.31013e-05
0.00014588
6.62541e-05
6.68564e-05
8.80966e-05
0.000155508
0.000161021
0.000171527
0.000157204
0.000155503
3.40342e-05
0.000250995
4.33857e-05
4.20744e-05
0.000202785
0.000201381
4.36036e-05
3.02772e-05
4.26341e-05
0.00018701
SCALARS rr_S' float
LOOKUP_TABLE default
0.000585556
0.00133763
0.00106805
0.00139621
0.000730534
0.00113357
0.000578974
0.00138845
0.00119343
0.00150321
0.000531493
0.0013927
0.00122554
0.00129452
0.00151716
0.00127289
0.00109505
0.00123772
0.00110822
0.00108374
0.00121906
0.000216814
0.00124903
0.00115121
0.00104352
0.00120405
0.000492576
0.00105749
0.00082909
0.000978014
0.00108269
0.000857073
0.000545639
0.000732725
0.000720212
0.000734376
0.000950847
0.000721661
0.00108158
0.000613308
0.000696871
0.000838011
0.000838098
0.00118825
0.00068478
0.000755973
0.00104296
0.00105627
0.000989995
0.000946548
0.000972037
0.000754026
0.00117247
0.000968903
0.00107942
0.000496792
0.000768986
0.000976005
0.00076896
0.00118145
0.00139785
0.00137026
0.000484529
0.000966134
0.00131247
0.00123842
0.00135215
0.00116946
0.00107667
0.00153519
0.00127207
0.00125821
0.000861031
0.00100251
0.00106149
0.000563168
0.0010936
0.00122693
0.0011793
0.000832137
0.000750565
0.000824616
0.0015604
0.000751551
0.00101371
0.000376278
0.00122157
0.00102119
0.000725188
0.000106681
0.000839565
0.000116026
0.00092796
0.000888967
0.000794585
0.000724446
0.000689347
0.00131973
0.00109441
0.00105295
0.000894112
0.000857418
0.000721114
0.00124989
0.00127063
0.00114423
0.00100654
0.00102069
0.00076548
0.00152477
0.000979568
0.000516569
0.000690456
0.0013679
0.00128152
0.000935683
0.000891719
0.00057282
0.000924897
0.000931992
0.000810934
0.00147888
0.00152447
0.00130969
0.00144069
0.00113073
0.000639888
0.00142489
0.000624342
0.000805734
0.00066448
0.00136008
0.00132873
0.00133543
0.000891778
0.000541803
0.000597533
0.000978634
0.00119637
0.00054162
0.000744829
0.00115348
0.000873547
0.00140835
0.000697192
0.00114916
0.00104295
0.00100817
0.000644386
0.000823088
0.000918113
0.00131246
0.000769003
0.00118823
0.00137634
0.00139827
0.000915004
0.000767216
0.000762867
0.00119962
0.00100688
0.000762626
0.000504381
0.000744779
0.000740985
0.00128461
0.00077755
0.000786125
0.000851403
0.000757717
0.00113304
0.000793628
0.000702449
0.000884181
0.000838436
0.00100587
0.00112071
0.00107821
0.000916487
0.00107561
0.000826361
0.00124631
0.00133762
0.000744955
0.00131044
0.000744425
0.00129418
0.00118983
0.00111105
0.00113044
0.00132194
0.000625975
0.000820401
0.000762662
0.00133304
0.00131232
0.0012167
0.00132547
0.00134931
0.00113337
0.00138963
0.000931955
0.000840756
0.00151746
0.000885095
0.00137828
0.00109784
0.000699975
0.00084319
0.00137506
0.00114472
0.00104198
0.00134223
0.00131694
0.000851299
0.000844834
0.000819931
0.00116836
0.00128893
0.0014813
0.00142311
0.00154836
0.00140304
0.00153326
0.00128643
0.00134467
0.00135513
0.00127748
0.00134205
0.00123564
0.00121725
0.00086264
0.00115921
0.00135618
0.000941789
0.00138235
0.00126991
0.00147038
0.000883935
0.00139832
0.00133682
0.000868191
0.00119813
0.000862318
0.00134616
0.00122855
0.000903921
0.000850685
0.000735304
0.000845842
0.001348
0.000617446
0.00103863
0.000847515
0.000951232
0.00139963
0.00135495
0.00042533
0.00135987
0.000739536
0.00080226
0.001392
0.00113158
0.000811689
0.00155325
0.000883083
0.000425331
0.000820378
0.00120837
0.00150855
0.00114344
0.00134582
0.00126013
0.000661746
0.00064816
0.000553484
0.000635384
0.000901849
0.000689204
0.00111054
0.000694541
0.00119645
0.000854253
0.000821617
0.000961969
0.000893795
0.00118802
0.000857075
0.000881787
0.000389964
0.000889602
0.00128664
0.00128755
0.00116574
0.000855441
0.00055782
0.00161856
0.00108696
0.000907532
0.00083659
0.0008341
0.000862844
0.00105257
0.000847432
0.000606265
0.00083635
0.00057322
0.00103704
0.00085319
0.000363467
0.00080363
0.000951051
0.000853194
0.00131409
0.000886077
0.00114325
0.000437784
0.000917602
0.000876066
0.000766053
0.000822419
0.000970878
0.000914309
0.000955955
0.000812406
0.000825227
0.000891247
0.00119236
0.00084035
0.00119126
0.00107524
0.000849266
0.000871814
0.000880255
0.000973826
0.00087883
0.000822756
0.000935093
0.000981447
0.00115819
0.000880081
0.000874205
0.00126654
0.00124881
0.000840976
0.000849447
0.000378217
0.00102543
0.000710647
0.00096238
0.000424111
0.000440251
0.000393441
0.00039988
0.00042423
0.000446895
0.000460549
0.00108032
0.000799837
0.000806313
0.00092161
0.000897637
0.000886433
0.00093812
0.000867468
0.000887219
0.000903201
0.000883144
0.00108535
0.000802605
0.00111561
0.000867573
0.000837376
0.000884251
0.000944501
0.000986214
0.000918648
0.00105225
0.0009829
0.000911285
0.00065691
0.00091671
0.000896558
0.000965882
0.000924502
0.00087593
0.00083308
0.000917764
0.000957472
0.00130003
0.000858216
0.00126394
0.00131722
0.000901872
0.00126223
0.000968125
0.000775284
0.00105682
0.000925827
0.000667456
0.000584791
0.00104348
0.00111146
0.000940418
0.000781688
0.000940814
0.000444914
0.000929783
0.000872296
0.000444722
0.000170944
0.000186999
0.000805419
0.000858559
0.000997373
0.000958586
8.79197e-05
9.18671e-05
0.000949739
0.000959656
0.000908402
0.00033396
0.000803329
0.000934619
0.000952415
0.000821539
0.000725133
0.000347758
0.00137634
0.000863928
0.00105597
0.00107247
0.000770567
0.000975275
0.000753406
0.00083137
0.000412414
0.000622733
0.000976432
0.000982647
0.000844425
0.000886816
0.000915202
0.000965024
0.000923013
0.000454378
0.000810496
0.000912937
0.000863446
0.00129581
0.000454281
0.000701073
0.00072211
0.000684918
0.000445538
0.000445568
0.000784568
0.000632819
0.000905392
0.000486248
0.000532037
0.000173785
0.000173784
0.000362411
0.000577478
0.000389092
0.000771409
0.000834898
0.000890485
0.00100349
0.000910367
0.000842908
0.000663424
0.000409484
0.000832897
0.00086311
0.000835729
0.000460294
0.000426755
0.000331459
0.00083454
0.000851277
0.000683553
0.000772523
0.000712899
0.000653208
0.000873795
0.000653151
0.000771099
0.000743755
0.000456246
0.000563298
0.000522298
0.000924049
0.000364448
0.000383956
0.000375569
0.000872776
0.000347046
0.000339819
0.000606893
0.00031697
0.000707063
0.000708132
0.000325389
0.000769195
0.0003614
0.000359035
0.000404712
0.000342544
0.000336503
0.000503689
0.000400035
0.000363319
0.000343614
0.000704447
0.000804338
0.000378416
0.000777536
0.000311581
0.000788825
0.000626515
0.000325549
0.000275785
0.00030752
0.000408075
0.000677264
0.000558127
0.000233654
0.000259347
0.000755235
0.000219942
0.00021994
0.000249215
0.00027968
0.000315091
0.000367757
0.00060786
0.000562798
0.000755736
0.000220941
0.00022094
0.000664721
0.000272409
0.00053826
0.000246855
0.000248491
0.000327412
0.00057008
0.000590306
0.000628869
0.000576341
0.000570065
0.000124584
0.000920201
0.0001589
0.000153982
0.000743377
0.000738222
0.000159571
0.000110827
0.00015614
0.000685677
SCALARS rr_P' float
LOOKUP_TABLE default
5.09768e-05
0.000111067
8.90484e-05
0.000116029
5.99323e-05
9.45206e-05
5.04115e-05
0.000115441
9.99002e-05
0.000124836
4.61427e-05
0.000115795
0.000101997
0.000107434
0.00012503
0.000106051
9.07302e-05
0.00010297
9.2969e-05
9.04661e-05
0.000101824
1.75007e-05
0.000104329
9.60921e-05
8.71146e-05
0.000100089
4.24785e-05
8.81248e-05
7.04654e-05
7.97124e-05
9.01194e-05
7.28368e-05
4.7085e-05
5.98888e-05
5.8776e-05
6.00261e-05
7.7458e-05
5.89287e-05
9.00358e-05
5.29171e-05
5.92354e-05
6.82528e-05
6.82626e-05
9.89036e-05
5.88296e-05
6.42063e-05
8.7405e-05
8.83477e-05
8.25336e-05
8.06873e-05
8.27181e-05
6.37741e-05
9.62586e-05
8.19348e-05
8.86521e-05
4.2613e-05
6.27496e-05
8.25357e-05
6.27499e-05
9.86004e-05
0.000115842
0.000113101
4.1655e-05
7.97617e-05
0.000108324
0.000102607
0.000112038
9.72098e-05
8.99033e-05
0.000127457
0.000104446
0.00010331
7.31896e-05
8.29376e-05
8.84863e-05
4.86966e-05
9.00346e-05
0.000101659
9.80324e-05
7.03065e-05
6.40392e-05
6.75479e-05
0.000129054
6.42108e-05
8.6033e-05
3.23072e-05
0.000101797
8.4545e-05
6.22974e-05
8.63214e-06
7.10032e-05
9.38906e-06
7.63803e-05
7.36945e-05
6.71691e-05
6.16771e-05
5.88107e-05
0.000109606
9.01068e-05
8.76681e-05
7.52106e-05
7.26851e-05
6.16172e-05
0.000103936
0.000105573
9.50587e-05
8.31989e-05
8.50158e-05
6.54126e-05
0.000126527
8.17481e-05
4.43093e-05
5.90965e-05
0.00011378
0.000106488
7.9113e-05
7.27687e-05
4.88783e-05
7.54867e-05
7.87881e-05
6.81017e-05
0.00012194
0.000126588
0.000108421
0.000119513
9.31448e-05
5.2306e-05
0.000118343
5.32646e-05
6.81132e-05
5.45605e-05
0.00011297
0.00010992
0.000110904
7.55922e-05
4.42121e-05
5.1111e-05
8.1421e-05
9.89458e-05
4.4199e-05
6.3103e-05
9.5776e-05
7.3305e-05
0.000116955
5.95027e-05
9.55109e-05
8.66621e-05
8.405e-05
5.37294e-05
6.93368e-05
7.68045e-05
0.000108984
6.53599e-05
9.88822e-05
0.000114299
0.000116136
7.58844e-05
6.49679e-05
6.45906e-05
9.98422e-05
8.4211e-05
6.47951e-05
4.32784e-05
6.33798e-05
6.27512e-05
0.000106717
6.58452e-05
6.6576e-05
7.23605e-05
6.41617e-05
9.32503e-05
6.71133e-05
5.97809e-05
7.32958e-05
7.08946e-05
8.31567e-05
9.22395e-05
8.96519e-05
7.52255e-05
8.93536e-05
7.02282e-05
0.000103514
0.000111104
6.31089e-05
0.000108482
6.33729e-05
0.000107138
9.83375e-05
9.14236e-05
9.38835e-05
0.000109427
5.33769e-05
6.93722e-05
6.48153e-05
0.000110711
0.000109194
0.000101213
0.000109653
0.000112051
9.39181e-05
0.000115387
7.8134e-05
7.10089e-05
0.000125543
7.52144e-05
0.000113993
9.09646e-05
5.93554e-05
6.95572e-05
0.00011417
9.43901e-05
8.64524e-05
0.000111535
0.000108915
7.17022e-05
7.00684e-05
6.92164e-05
9.65641e-05
0.000106932
0.000122894
0.000118128
0.000128496
0.000116433
0.000127245
0.000106798
0.000110849
0.000111727
0.000105311
0.000110628
0.000101477
9.99649e-05
7.26817e-05
9.62242e-05
0.00011276
7.87881e-05
0.00011392
0.000104634
0.00012224
7.46471e-05
0.000116282
0.000111024
7.31086e-05
9.88325e-05
7.263e-05
0.000111316
0.000102184
7.61105e-05
7.17977e-05
6.27447e-05
7.2157e-05
0.000111481
5.27338e-05
8.64833e-05
7.15474e-05
7.97765e-05
0.000116398
0.00011242
3.46326e-05
0.000112842
6.318e-05
6.77268e-05
0.000115742
9.4087e-05
6.85614e-05
0.000128878
7.40878e-05
3.46338e-05
6.92489e-05
0.00010024
0.000124916
9.5118e-05
0.000110922
0.00010434
5.4329e-05
5.39458e-05
4.74405e-05
5.45553e-05
7.41376e-05
5.75608e-05
9.23375e-05
5.84965e-05
9.86879e-05
7.08167e-05
6.93577e-05
7.97375e-05
7.51703e-05
9.86952e-05
7.20784e-05
7.44581e-05
3.16382e-05
7.31832e-05
0.000106019
0.000106103
9.67776e-05
7.19162e-05
4.56164e-05
0.000134049
9.08965e-05
7.62832e-05
7.04252e-05
6.85697e-05
7.26611e-05
8.66368e-05
7.13013e-05
5.20778e-05
7.0319e-05
4.89344e-05
8.57026e-05
7.18467e-05
2.94902e-05
6.76154e-05
7.86836e-05
7.18863e-05
0.000108765
7.45624e-05
9.52678e-05
3.76641e-05
7.65391e-05
7.37817e-05
6.29902e-05
6.92819e-05
8.11887e-05
7.56714e-05
7.93652e-05
6.83594e-05
6.93797e-05
7.47822e-05
9.85446e-05
7.06569e-05
9.90488e-05
8.95997e-05
6.97288e-05
7.3296e-05
7.38764e-05
8.13762e-05
7.37183e-05
6.9207e-05
7.84297e-05
8.09994e-05
9.6311e-05
7.38464e-05
7.36329e-05
0.000105179
0.000103698
7.07229e-05
6.97468e-05
3.28896e-05
8.5463e-05
6.06369e-05
8.04039e-05
3.78069e-05
3.92435e-05
3.50615e-05
3.56394e-05
3.78047e-05
3.98401e-05
4.10492e-05
8.92662e-05
6.54902e-05
6.71022e-05
7.70859e-05
7.52832e-05
7.4358e-05
7.79327e-05
7.27907e-05
7.44654e-05
7.39462e-05
7.40835e-05
8.9505e-05
6.78787e-05
9.20342e-05
7.23508e-05
7.00445e-05
7.41886e-05
7.76359e-05
8.21929e-05
7.6817e-05
8.76931e-05
8.21864e-05
7.64751e-05
5.55113e-05
7.66834e-05
7.47531e-05
7.96404e-05
7.75016e-05
7.35402e-05
6.98494e-05
7.67928e-05
7.9843e-05
0.000107992
7.19612e-05
0.000105001
0.00010989
7.54533e-05
0.00010494
8.07556e-05
6.50444e-05
8.7474e-05
7.73821e-05
5.4671e-05
5.02309e-05
8.6221e-05
9.17301e-05
7.84174e-05
6.53243e-05
7.79582e-05
3.86664e-05
7.75344e-05
7.29131e-05
3.82509e-05
1.38728e-05
1.51738e-05
6.71298e-05
7.20083e-05
8.33196e-05
8.03554e-05
7.08314e-06
7.40115e-06
7.89595e-05
7.97778e-05
7.55351e-05
2.90259e-05
6.7427e-05
7.73077e-05
7.96773e-05
6.87566e-05
6.06688e-05
3.025e-05
0.000113948
7.24764e-05
8.8021e-05
8.93964e-05
6.44955e-05
8.15569e-05
6.30599e-05
6.95577e-05
3.55726e-05
5.31558e-05
8.16572e-05
8.19036e-05
7.05743e-05
7.42391e-05
7.65135e-05
8.06327e-05
7.71433e-05
3.90278e-05
6.67856e-05
7.65522e-05
7.15555e-05
0.000107254
3.90311e-05
5.84495e-05
6.02284e-05
5.62352e-05
3.61709e-05
3.61742e-05
6.45471e-05
5.31196e-05
7.54803e-05
4.17977e-05
4.32344e-05
1.40158e-05
1.4016e-05
3.1541e-05
4.71569e-05
3.1712e-05
6.43394e-05
6.87332e-05
7.41078e-05
8.33125e-05
7.53424e-05
6.96755e-05
5.51616e-05
3.55919e-05
6.93863e-05
7.15547e-05
6.91335e-05
3.98124e-05
3.48337e-05
2.85314e-05
6.90478e-05
7.06625e-05
5.75331e-05
6.43058e-05
5.92861e-05
5.3615e-05
7.26205e-05
5.36121e-05
6.42693e-05
6.15206e-05
3.72145e-05
4.59315e-05
4.48892e-05
7.66714e-05
3.17563e-05
3.34259e-05
3.27604e-05
7.22574e-05
3.01797e-05
2.96708e-05
5.08031e-05
2.76349e-05
5.79103e-05
5.79996e-05
2.83474e-05
6.42736e-05
3.11671e-05
3.12918e-05
3.49346e-05
2.986e-05
2.9047e-05
4.11204e-05
3.44411e-05
3.1589e-05
2.99388e-05
5.85933e-05
6.64206e-05
3.26891e-05
6.4667e-05
2.71975e-05
6.55073e-05
5.23353e-05
2.83879e-05
2.38405e-05
2.68349e-05
3.55153e-05
5.64995e-05
4.56794e-05
1.88614e-05
2.09485e-05
6.26693e-05
1.77569e-05
1.7757e-05
2.01255e-05
2.26703e-05
2.71035e-05
3.00045e-05
4.99915e-05
4.60611e-05
6.27473e-05
1.78912e-05
1.78914e-05
5.43536e-05
2.37201e-05
4.49823e-05
2.14805e-05
2.14054e-05
2.81963e-05
4.63518e-05
4.80023e-05
5.11539e-05
4.68763e-05
4.63519e-05
1.00654e-05
7.48431e-05
1.28674e-05
1.24286e-05
6.04366e-05
6.00139e-05
1.28771e-05
8.95244e-06
1.26415e-05
5.5791e-05
SCALARS rr_T' float
LOOKUP_TABLE default
0.000204294
0.000465451
0.000371723
0.000485858
0.000254038
0.00039453
0.000202
0.000483163
0.000415451
0.000523069
0.000185408
0.000484643
0.000426498
0.000450434
0.000527713
0.000443
0.000380996
0.000430729
0.000385836
0.000377211
0.000424321
7.53338e-05
0.000434759
0.000400693
0.000363213
0.000418994
0.000171762
0.000368041
0.000288865
0.000339988
0.000376785
0.000298613
0.000190272
0.000254754
0.000250381
0.000255328
0.000330536
0.000250892
0.000376402
0.000213868
0.0002428
0.000291308
0.000291339
0.000413519
0.000238733
0.000263379
0.000363095
0.000367687
0.000344557
0.000329845
0.000338694
0.000262639
0.000407736
0.00033748
0.000375385
0.000173178
0.000267336
0.000339954
0.000267327
0.000411215
0.000486354
0.000476652
0.000168925
0.000336077
0.000456546
0.000430876
0.000470451
0.000406954
0.000374756
0.000534193
0.000442376
0.000437556
0.000299995
0.00034877
0.000369439
0.000196409
0.000380362
0.000426879
0.000410379
0.00028983
0.000261562
0.000286731
0.000542853
0.000261927
0.000353159
0.000131176
0.000425143
0.00035528
0.00025282
3.7072e-05
0.000292432
4.03197e-05
0.000322748
0.000309302
0.000276757
0.000252431
0.000240227
0.000459224
0.000380644
0.00036644
0.000311338
0.000298689
0.000251321
0.000434952
0.000442152
0.000398164
0.000350158
0.000355223
0.000266784
0.000530556
0.000340948
0.000180074
0.00024066
0.000476025
0.000445941
0.000325906
0.000310005
0.000199621
0.000321541
0.000324617
0.00028235
0.000514413
0.000530466
0.000455652
0.000501293
0.000393291
0.000222476
0.000495821
0.000217574
0.000280641
0.000231081
0.000473273
0.000462264
0.00046469
0.000310657
0.000188357
0.000208262
0.000340565
0.000416209
0.000188294
0.000259459
0.000401369
0.000304137
0.000490062
0.000242966
0.00039989
0.000362923
0.000350881
0.000224273
0.00028663
0.000319599
0.000456696
0.000267931
0.00041351
0.000478922
0.000486558
0.000318368
0.00026725
0.000265733
0.000417477
0.000350495
0.000265704
0.000175828
0.000259509
0.000258114
0.000447012
0.00027085
0.000273838
0.000296639
0.000263941
0.000394073
0.00027643
0.00024476
0.000307636
0.000292035
0.000349928
0.000389788
0.000375205
0.00031871
0.000374285
0.000287912
0.000433678
0.000465454
0.000259502
0.000455912
0.000259391
0.000450256
0.000413918
0.00038642
0.000393359
0.000459911
0.000218136
0.000285755
0.00026572
0.000463859
0.000456692
0.00042341
0.000461127
0.00046952
0.00039433
0.000483546
0.000324456
0.000292825
0.000527925
0.000308374
0.000479496
0.000381967
0.000243847
0.000293298
0.000478475
0.000398174
0.000362554
0.000467067
0.000458156
0.000296452
0.000293953
0.000285564
0.000406446
0.000448487
0.000515425
0.000495191
0.000538768
0.000488202
0.000533514
0.00044763
0.000467721
0.000471365
0.000444351
0.000466812
0.000429712
0.000423316
0.000300407
0.000403358
0.000471947
0.000327839
0.000480822
0.000441706
0.000511683
0.000307863
0.000486612
0.000465171
0.00030233
0.000416762
0.000300289
0.000468317
0.000427539
0.000314771
0.000296272
0.000256246
0.000294765
0.000468959
0.000215184
0.000361459
0.000295172
0.000331174
0.00048707
0.000471464
0.00014785
0.000473178
0.000257736
0.000279411
0.000484413
0.000393777
0.000282704
0.000540464
0.000307453
0.000147851
0.000285719
0.000420456
0.000524845
0.000397916
0.000468118
0.000438414
0.000230127
0.000225565
0.000192933
0.000221504
0.000313646
0.000239893
0.000386456
0.000241862
0.000416178
0.000297223
0.000286152
0.0003347
0.000311224
0.000413398
0.000298437
0.000307113
0.000135532
0.000309399
0.000447529
0.000447848
0.000405633
0.000297862
0.000193948
0.000563126
0.000378368
0.000315997
0.000291319
0.000290084
0.000300469
0.000366089
0.000295086
0.000211359
0.000291217
0.000199766
0.000360763
0.000297107
0.000126323
0.000279834
0.00033087
0.000297117
0.000457179
0.000308546
0.000397885
0.000152634
0.000319371
0.000305074
0.000266423
0.000286398
0.00033796
0.000318091
0.000332638
0.000282891
0.000287342
0.000310298
0.000414795
0.00029261
0.000414546
0.000374217
0.000295339
0.000303563
0.000306474
0.000338972
0.000305968
0.00028649
0.000325555
0.000341399
0.000403042
0.00030641
0.000304429
0.000440713
0.00043454
0.000292831
0.000295402
0.000131951
0.000356883
0.000247652
0.000334984
0.000148187
0.000153825
0.000137468
0.000139719
0.000148226
0.000156147
0.000160916
0.000375818
0.000278113
0.000280603
0.000320814
0.000312515
0.000308616
0.00032644
0.000302019
0.0003089
0.000314052
0.000307472
0.000377527
0.000279559
0.000388063
0.000301955
0.000291492
0.00030786
0.000328477
0.000343234
0.000319777
0.000366217
0.000342143
0.000317277
0.000228801
0.00031911
0.000312038
0.000335967
0.00032186
0.000304975
0.000290034
0.000319481
0.000333242
0.000452373
0.000298787
0.000439817
0.000458463
0.000313947
0.000439239
0.000336955
0.000269922
0.000367676
0.000322268
0.000232086
0.000203872
0.000363
0.000386624
0.000327305
0.000272092
0.000327334
0.000155214
0.000323606
0.000303635
0.00015505
5.94122e-05
6.49918e-05
0.000280314
0.00029891
0.000347162
0.000333725
3.05454e-05
3.19168e-05
0.000330498
0.000333946
0.000316115
0.000116507
0.000279694
0.000325149
0.000331538
0.000285986
0.000252423
0.000121327
0.000478843
0.000300783
0.000367513
0.000373259
0.000268244
0.000339489
0.000262271
0.000289404
0.000143811
0.000217019
0.000339893
0.000341995
0.000293932
0.000308715
0.000318574
0.000335906
0.000321288
0.000158407
0.00028191
0.000317838
0.000300417
0.000450821
0.000158376
0.000244002
0.000251329
0.000238186
0.000154853
0.000154863
0.000272871
0.000220328
0.000315112
0.000169525
0.000184925
6.03803e-05
6.038e-05
0.000126443
0.000200766
0.00013526
0.000268486
0.000290383
0.000309895
0.000349178
0.000316721
0.000293232
0.000230864
0.000142856
0.000289868
0.000300306
0.000290747
0.000160533
0.000148364
0.000115566
0.000290336
0.000296209
0.000238027
0.000268845
0.000248083
0.000227157
0.000304064
0.000227137
0.000268368
0.000258748
0.000158612
0.000195824
0.000182091
0.000321526
0.000127159
0.000133958
0.000131048
0.000303647
0.000121076
0.000118581
0.000211268
0.000110598
0.000245854
0.000246226
0.00011353
0.000267743
0.00012602
0.000125272
0.000141131
0.000119519
0.000117346
0.00017511
0.00013948
0.000126752
0.00011989
0.000245144
0.0002798
0.000131967
0.000270577
0.000108726
0.000274484
0.000218075
0.000113592
9.61805e-05
0.000107306
0.000142375
0.000235723
0.000194061
8.11854e-05
9.01159e-05
0.000262786
7.64217e-05
7.6421e-05
8.65943e-05
9.71987e-05
0.000109857
0.00012785
0.000211408
0.000195686
0.000262969
7.67808e-05
7.67802e-05
0.000231113
9.5045e-05
0.00018736
8.61249e-05
8.66423e-05
0.000114159
0.000198154
0.000205186
0.000218593
0.000200334
0.000198149
4.32899e-05
0.000319857
5.52204e-05
5.35023e-05
0.000258389
0.000256597
5.54437e-05
3.85094e-05
5.42607e-05
0.000238343
SCALARS rr_uec(SIM,_S_ext) float
LOOKUP_TABLE default
0.0142942
0.0325601
0.0260039
0.0339878
0.0177696
0.0275993
0.0141337
0.0337991
0.0290633
0.0365906
0.012973
0.0339026
0.0298353
0.0315094
0.036914
0.0309899
0.0266518
0.0301314
0.026992
0.0263879
0.0296835
0.00526904
0.0304138
0.0280306
0.0254087
0.0293104
0.0120176
0.0257462
0.0202094
0.023781
0.0263577
0.0208914
0.0133127
0.0178194
0.0175133
0.0178596
0.0231198
0.0175491
0.0263309
0.0149636
0.0169867
0.0203759
0.0203781
0.0289274
0.0167031
0.0184263
0.0254009
0.0257218
0.0241034
0.0230768
0.0236957
0.0183741
0.0285208
0.0236099
0.0262579
0.0121163
0.0186993
0.023783
0.0186987
0.0287667
0.034022
0.0333424
0.0118188
0.023509
0.0319359
0.0301409
0.0329095
0.0284681
0.0262162
0.0373689
0.0309438
0.0306067
0.0209881
0.0243971
0.025844
0.0137422
0.0266063
0.0298613
0.0287077
0.0202764
0.0182996
0.0200562
0.0379737
0.0183253
0.0247072
0.00917771
0.0297408
0.0248526
0.0176887
0.00259294
0.0204584
0.0028201
0.0225763
0.0216365
0.0193617
0.0176606
0.0168068
0.0321245
0.0266261
0.0256341
0.0217805
0.0208963
0.0175833
0.0304268
0.0309302
0.0278531
0.0244942
0.0248494
0.0186651
0.0371144
0.0238511
0.0125989
0.0168375
0.0333
0.0311953
0.0228002
0.0216837
0.0139659
0.0224907
0.02271
0.0197525
0.0359838
0.0371082
0.031874
0.0350673
0.027511
0.0155616
0.0346845
0.015222
0.0196335
0.016164
0.0331074
0.0323365
0.032507
0.0217336
0.013175
0.0145707
0.0238238
0.0291148
0.0131705
0.0181518
0.0280771
0.0212765
0.0342816
0.0169984
0.0279739
0.0253878
0.0245458
0.015689
0.0200522
0.0223578
0.0319477
0.0187449
0.0289267
0.0335024
0.0340367
0.0222708
0.0186967
0.0185906
0.0292044
0.0245191
0.018589
0.0123018
0.0181558
0.0180576
0.0312702
0.0189486
0.0191576
0.0207533
0.0184653
0.0275654
0.0193389
0.0171239
0.02152
0.0204306
0.0244782
0.0272657
0.026247
0.0222935
0.0261826
0.0201427
0.0303374
0.0325603
0.0181548
0.0318921
0.0181475
0.0314965
0.0289542
0.02703
0.0275169
0.0321717
0.0152613
0.0199913
0.0185902
0.0324488
0.0319476
0.0296194
0.032257
0.0328448
0.0275844
0.033826
0.0226979
0.0204859
0.0369296
0.0215743
0.0335418
0.0267195
0.0170597
0.0205165
0.0334712
0.0278525
0.0253618
0.0326732
0.032049
0.0207393
0.0205629
0.0199778
0.0284316
0.0313734
0.036056
0.0346406
0.0376889
0.0341516
0.0373214
0.0313133
0.0327175
0.0329725
0.0310828
0.0326539
0.030058
0.0296106
0.021016
0.0282163
0.0330149
0.0229342
0.0336339
0.0308976
0.0357946
0.0215379
0.0340409
0.0325405
0.0211504
0.0291529
0.0210077
0.0327597
0.0299085
0.0220208
0.0207269
0.0179276
0.0206226
0.0328047
0.0150548
0.0252856
0.02065
0.0231679
0.0340729
0.0329807
0.0103416
0.0331006
0.0180319
0.0195474
0.033887
0.0275462
0.0197778
0.0378076
0.0215084
0.0103416
0.0199887
0.0294125
0.0367142
0.027836
0.0327452
0.030668
0.0160972
0.0157792
0.0134985
0.0154975
0.0219394
0.0167818
0.0270341
0.0169202
0.0291121
0.0207916
0.020019
0.0234131
0.0217725
0.0289186
0.0208779
0.0214854
0.00947971
0.0216424
0.031305
0.0313274
0.0283754
0.0208376
0.0135662
0.0393921
0.026469
0.0221063
0.0203801
0.0202913
0.0210202
0.0256079
0.0206435
0.0147879
0.0203728
0.0139761
0.025236
0.0207851
0.00883564
0.0195765
0.023145
0.0207858
0.0319807
0.0215851
0.0278339
0.010679
0.0223416
0.0213425
0.0186362
0.0200359
0.0236422
0.0222511
0.0232693
0.0197904
0.0201017
0.0217075
0.0290156
0.0204702
0.028999
0.0261783
0.0206586
0.0212365
0.02144
0.0237129
0.0214045
0.0200422
0.0227748
0.0238812
0.0281943
0.0214355
0.0212973
0.0308293
0.0303975
0.0204858
0.0206631
0.00923268
0.0249656
0.0173264
0.0234339
0.0103704
0.010765
0.00962025
0.00977777
0.0103731
0.0109274
0.0112611
0.0262891
0.0194534
0.0196294
0.0224428
0.0218626
0.0215898
0.0228356
0.0211283
0.0216097
0.0219673
0.0215097
0.0264083
0.0195578
0.0271455
0.0211232
0.0203916
0.0215369
0.0229768
0.0240108
0.0223702
0.0256185
0.0239349
0.0221958
0.0160068
0.0223236
0.0218285
0.0235011
0.0225163
0.0213352
0.0202899
0.0223496
0.0233118
0.0316451
0.0209022
0.0307667
0.0320718
0.0219624
0.0307265
0.0235717
0.0188829
0.0257198
0.0225444
0.016234
0.014264
0.0253925
0.0270447
0.0228966
0.0190343
0.0228979
0.0108604
0.0226378
0.021241
0.010848
0.00415556
0.00454581
0.0196093
0.0209108
0.0242858
0.0233463
0.00213639
0.00223231
0.0231197
0.0233608
0.0221134
0.00815194
0.0195666
0.0227448
0.023193
0.0200064
0.0176585
0.00848935
0.0334962
0.0210419
0.0257093
0.0261112
0.0187653
0.0237492
0.0183474
0.0202455
0.0100619
0.0151832
0.0237775
0.0239241
0.0205621
0.0215965
0.022286
0.0234984
0.0224758
0.011083
0.0197198
0.022235
0.021015
0.0315359
0.0110808
0.0170691
0.0175817
0.0166609
0.0108312
0.0108319
0.0190873
0.0154135
0.0220435
0.0118609
0.0129347
0.00422313
0.00422311
0.00884734
0.014043
0.00946099
0.0187819
0.0203123
0.0216785
0.0244262
0.0221554
0.020512
0.0161498
0.00999563
0.0202776
0.0210072
0.0203383
0.0112321
0.0103776
0.00808555
0.0203097
0.0207208
0.0166519
0.0188069
0.0173544
0.0158894
0.0212704
0.0158881
0.0187736
0.0180999
0.0110944
0.0136972
0.0127401
0.0224918
0.00889719
0.00937281
0.00916939
0.0212408
0.00847168
0.00829713
0.0147795
0.00773846
0.017197
0.017223
0.00794355
0.0187302
0.00881714
0.00876511
0.00987448
0.00836261
0.00821028
0.0122484
0.00975892
0.00886882
0.00838858
0.0171488
0.0195724
0.00923333
0.0189279
0.00760756
0.0192011
0.0152556
0.0079479
0.00672948
0.00750812
0.00996212
0.01649
0.0135742
0.00567833
0.00630298
0.0183827
0.00534515
0.0053451
0.00605666
0.0067985
0.00768625
0.0089427
0.0147879
0.0136878
0.0183955
0.00537034
0.00537031
0.0161657
0.00665041
0.0131069
0.00602617
0.00606191
0.00798716
0.0138601
0.0143519
0.0152897
0.0140125
0.0138597
0.00302782
0.0223726
0.00386232
0.00374208
0.0180732
0.0179478
0.00387786
0.00269346
0.0037952
0.0166711
SCALARS rr_uec(PEX,_P_ext) float
LOOKUP_TABLE default
-0.0618024
-0.140847
-0.112481
-0.147021
-0.0768775
-0.119383
-0.0611083
-0.146205
-0.12571
-0.158282
-0.0560905
-0.146653
-0.129057
-0.136303
-0.159694
-0.13405
-0.115292
-0.130338
-0.116748
-0.114141
-0.128396
-0.0227998
-0.131554
-0.121247
-0.109905
-0.126788
-0.0519642
-0.111368
-0.0873991
-0.102892
-0.114014
-0.0903488
-0.0575638
-0.0770961
-0.0757732
-0.0772698
-0.100032
-0.0759275
-0.113898
-0.0647022
-0.0734619
-0.0881603
-0.0881696
-0.12513
-0.072227
-0.0796885
-0.109867
-0.111258
-0.104261
-0.0997965
-0.102475
-0.0794665
-0.12339
-0.102111
-0.113599
-0.0523939
-0.0809043
-0.10286
-0.0809017
-0.124431
-0.147174
-0.144241
-0.0511064
-0.101701
-0.138156
-0.130385
-0.142361
-0.123144
-0.113398
-0.161648
-0.133872
-0.132414
-0.0907668
-0.10554
-0.11179
-0.0594196
-0.115104
-0.129176
-0.124181
-0.0876944
-0.0791366
-0.0867718
-0.164272
-0.0792464
-0.106853
-0.0396863
-0.128647
-0.10751
-0.0764888
-0.0112197
-0.0884809
-0.0122026
-0.0976692
-0.0935962
-0.0837384
-0.0763751
-0.0726815
-0.138962
-0.115189
-0.110884
-0.0942042
-0.0903728
-0.0760376
-0.131616
-0.133796
-0.120485
-0.105961
-0.107489
-0.0807159
-0.160548
-0.103168
-0.0544805
-0.0728113
-0.144045
-0.134942
-0.0986091
-0.0938171
-0.0603959
-0.0973084
-0.0982194
-0.085434
-0.155669
-0.160521
-0.137884
-0.151694
-0.119016
-0.0673275
-0.150036
-0.0658277
-0.0849136
-0.0699301
-0.143213
-0.139885
-0.140616
-0.0939939
-0.0570029
-0.0630094
-0.103054
-0.125949
-0.0569837
-0.0785035
-0.121455
-0.0920266
-0.148294
-0.0735099
-0.121007
-0.109821
-0.106175
-0.0678638
-0.0867276
-0.096707
-0.138197
-0.0810654
-0.125127
-0.144923
-0.147234
-0.0963394
-0.0808607
-0.0804019
-0.126328
-0.106056
-0.0803917
-0.0531959
-0.0785168
-0.0780968
-0.135267
-0.0819502
-0.0828541
-0.0897513
-0.0798598
-0.119253
-0.0836393
-0.0740544
-0.093092
-0.0883609
-0.105892
-0.117956
-0.113537
-0.0964486
-0.113259
-0.087111
-0.131232
-0.140847
-0.0785166
-0.137962
-0.0784808
-0.136251
-0.125256
-0.116937
-0.119031
-0.139172
-0.0659981
-0.0864606
-0.0803965
-0.140365
-0.138194
-0.128124
-0.139541
-0.142078
-0.119326
-0.146322
-0.0981755
-0.0886008
-0.159755
-0.093302
-0.1451
-0.115585
-0.0737795
-0.088756
-0.144788
-0.120493
-0.10971
-0.141335
-0.138642
-0.0896995
-0.0889513
-0.086404
-0.122994
-0.135714
-0.15597
-0.149847
-0.163033
-0.147732
-0.161443
-0.135454
-0.141539
-0.142642
-0.134467
-0.141264
-0.13004
-0.128104
-0.0908959
-0.122057
-0.142812
-0.0992003
-0.145504
-0.133667
-0.154836
-0.0931507
-0.147249
-0.140762
-0.0914781
-0.126118
-0.0908603
-0.141717
-0.129374
-0.0952425
-0.089644
-0.0775281
-0.0891825
-0.141911
-0.0651041
-0.109376
-0.089311
-0.100208
-0.147388
-0.142667
-0.0447449
-0.143186
-0.0779782
-0.0845422
-0.146584
-0.119157
-0.0855382
-0.163547
-0.0930301
-0.0447449
-0.0864508
-0.127232
-0.158821
-0.120409
-0.141659
-0.132667
-0.0696413
-0.0682554
-0.0583712
-0.0670145
-0.0949152
-0.0725894
-0.116941
-0.0731817
-0.125941
-0.089941
-0.0865818
-0.101282
-0.0941698
-0.125094
-0.0903006
-0.0929239
-0.0410176
-0.0936297
-0.135429
-0.135526
-0.122745
-0.0901268
-0.0586942
-0.170405
-0.11449
-0.0956144
-0.0881465
-0.0877849
-0.0909149
-0.110785
-0.0892866
-0.0639453
-0.0881162
-0.0604395
-0.10917
-0.0898977
-0.0382307
-0.0846717
-0.100124
-0.0899005
-0.138346
-0.093359
-0.120398
-0.0461774
-0.0966397
-0.0923084
-0.0806247
-0.0866573
-0.102263
-0.0962567
-0.100657
-0.0855967
-0.0869438
-0.0938908
-0.125521
-0.0885377
-0.125441
-0.113237
-0.0893757
-0.091852
-0.0927337
-0.10257
-0.092581
-0.0866858
-0.0985078
-0.103312
-0.12196
-0.0927144
-0.0921131
-0.13336
-0.131493
-0.0886046
-0.0893949
-0.0399181
-0.107991
-0.0749281
-0.101363
-0.0448236
-0.0465292
-0.0415815
-0.0422622
-0.0448355
-0.0472314
-0.0486738
-0.113726
-0.0841641
-0.08491
-0.0970746
-0.0945622
-0.0933821
-0.098781
-0.0913859
-0.0934676
-0.0950404
-0.0930359
-0.114245
-0.0845859
-0.117433
-0.0913699
-0.0882021
-0.0931532
-0.0994035
-0.103861
-0.0967611
-0.110815
-0.103529
-0.0960027
-0.0692287
-0.096559
-0.094421
-0.101668
-0.0973901
-0.0922801
-0.0877599
-0.0966712
-0.100837
-0.136889
-0.0904082
-0.133089
-0.138728
-0.0949966
-0.132914
-0.101961
-0.0816741
-0.111261
-0.0975149
-0.0702351
-0.0616801
-0.109848
-0.116997
-0.0990407
-0.0823323
-0.099053
-0.0469558
-0.0979213
-0.0918769
-0.0469086
-0.0179806
-0.0196692
-0.0848216
-0.0904455
-0.105048
-0.10098
-0.00924467
-0.00965974
-0.100009
-0.101052
-0.0956561
-0.0352458
-0.0846306
-0.0983929
-0.10032
-0.0865359
-0.0763802
-0.0367041
-0.144901
-0.0910122
-0.111208
-0.112946
-0.0811674
-0.102726
-0.0793598
-0.0875703
-0.0435078
-0.0656597
-0.102848
-0.103486
-0.0889408
-0.0934132
-0.0963971
-0.101642
-0.0972184
-0.0479247
-0.0853103
-0.0961731
-0.0909077
-0.136422
-0.0479153
-0.0738336
-0.0760506
-0.0720801
-0.0468648
-0.046868
-0.0825756
-0.0666674
-0.0953511
-0.0512883
-0.0559657
-0.0182742
-0.0182741
-0.0382517
-0.0607581
-0.0409345
-0.0812423
-0.0878748
-0.0937735
-0.105662
-0.0958424
-0.0887347
-0.0698593
-0.043217
-0.087713
-0.0908739
-0.0879824
-0.0485661
-0.0448997
-0.034963
-0.0878582
-0.0896335
-0.0720217
-0.081352
-0.0750697
-0.0687427
-0.0920097
-0.0687367
-0.081207
-0.0782992
-0.0480011
-0.0592629
-0.0550901
-0.0972948
-0.0384675
-0.0405244
-0.0396438
-0.0918856
-0.036628
-0.0358721
-0.0639271
-0.0334574
-0.0744017
-0.0745143
-0.0343444
-0.0810167
-0.0381255
-0.0378964
-0.0426969
-0.0361561
-0.0355009
-0.0529938
-0.0421982
-0.0383451
-0.0362684
-0.0741801
-0.0846706
-0.0399243
-0.0818764
-0.0328909
-0.0830594
-0.0659877
-0.034363
-0.0290975
-0.0324612
-0.0430714
-0.0713282
-0.0587281
-0.0245708
-0.0272736
-0.0795198
-0.0231291
-0.0231289
-0.0262078
-0.0294166
-0.0332362
-0.0386916
-0.0639759
-0.0592198
-0.0795748
-0.0232373
-0.0232372
-0.0699411
-0.028753
-0.0566933
-0.0260545
-0.0262123
-0.0345373
-0.0599692
-0.0620972
-0.0661546
-0.0606286
-0.0599677
-0.0131017
-0.0968008
-0.0167122
-0.0161925
-0.0781987
-0.0776561
-0.0167801
-0.0116548
-0.0164218
-0.0721316
SCALARS cell_type float
LOOKUP_TABLE default
0
0
0
0
0
0
0
0
0
0
0
0
0
0
0
0
0
0
0
0
0
1
0
0
0
0
0
0
0
0
0
0
0
0
0
0
0
0
0
0
0
0
0
0
0
0
0
0
0
0
0
0
0
0
0
0
0
0
0
0
0
0
0
0
0
0
0
0
0
0
0
0
0
0
0
0
0
0
0
0
0
0
0
0
0
0
0
0
0
0
0
0
0
0
0
0
0
0
0
0
0
0
0
0
0
0
0
0
0
0
0
0
0
0
0
0
0
0
0
0
0
0
0
0
0
0
0
0
0
0
0
0
0
0
0
0
0
0
0
0
0
0
0
0
0
0
0
0
0
0
0
0
0
0
0
0
0
0
0
0
0
0
0
0
0
0
0
0
0
0
0
0
0
0
0
0
0
0
0
0
0
0
0
0
0
0
0
0
0
0
0
0
0
0
0
0
0
0
0
0
0
0
0
0
0
0
0
0
0
0
0
0
0
0
0
0
0
0
0
0
0
0
0
0
0
0
0
0
0
0
0
0
0
0
0
0
0
0
0
0
0
0
0
0
0
0
0
0
0
0
0
0
0
0
0
0
0
0
0
0
0
0
0
0
0
0
0
0
0
0
0
0
0
0
0
0
0
0
0
0
0
0
0
0
0
0
0
0
0
0
0
0
0
0
0
0
0
0
0
0
0
0
0
0
0
0
0
0
0
0
0
0
0
0
0
0
0
0
0
0
0
0
0
0
0
0
0
0
0
0
0
0
0
0
0
0
0
0
0
0
0
0
0
0
0
0
0
0
0
0
2
2
2
2
2
2
2
0
0
0
0
0
0
0
0
0
0
0
0
0
0
0
0
0
0
0
0
0
0
0
0
0
0
0
0
0
0
0
0
0
0
0
0
0
0
0
0
0
0
0
0
0
0
0
0
0
0
0
0
0
0
0
0
0
0
0
1
1
0
0
0
0
0
0
0
0
0
0
0
0
0
0
0
0
0
0
0
0
0
0
0
0
0
0
0
0
0
0
0
0
0
0
0
0
0
0
0
0
0
0
0
1
1
0
0
0
0
0
0
0
0
0
0
0
0
0
0
0
0
0
0
0
0
0
0
0
0
0
0
0
0
0
0
0
0
0
0
0
0
0
0
0
0
0
0
0
0
0
0
0
0
0
0
0
0
0
0
0
0
0
0
0
0
0
0
0
0
0
1
1
0
0
0
0
0
0
0
0
0
0
0
0
0
0
0
0
0
0
0
0
0
0
0
0
0
0
0
0
0
0
0
0
0
TENSORS Lagrange_strain float
0.0305688 -0.00319827 3.18495e-10
-0.00319827 0.0133893 -1.61171e-07
3.18495e-10 -1.61171e-07 0.00740196

0.0291934 -0.00280095 -2.37716e-07
-0.00280095 0.0335546 -7.4041e-08
-2.37716e-07 -7.4041e-08 0.0331642

0.030022 0.00367914 -1.01261e-07
0.00367914 0.0311705 -1.45959e-07
-1.01261e-07 -1.45959e-07 0.0304685

0.0291629 -0.00392496 8.45978e-08
-0.00392496 0.0327997 3.46926e-08
8.45978e-08 3.46926e-08 0.0330891

0.0353678 0.00266923 -1.94058e-07
0.00266923 0.0380862 1.21705e-07
-1.94058e-07 1.21705e-07 0.0352929

0.027736 -0.00236741 1.39976e-07
-0.00236741 0.0333846 1.87394e-07
1.39976e-07 1.87394e-07 0.0304396

0.0302627 0.00339407 -2.42228e-09
0.00339407 0.0134948 -4.3092e-08
-2.42228e-09 -4.3092e-08 0.0074634

0.0317552 0.00393961 -5.39589e-08
0.00393961 0.031201 -1.35624e-07
-5.39589e-08 -1.35624e-07 0.0315614

0.0332426 0.000715308 2.25862e-07
0.000715308 0.026222 -2.92817e-08
2.25862e-07 -2.92817e-08 0.0281428

0.0354681 -0.00099105 -4.44457e-08
-0.00099105 0.0275519 -7.58194e-08
-4.44457e-08 -7.58194e-08 0.0327218

0.028062 0.00205111 -8.38807e-08
0.00205111 0.0138092 2.01351e-07
-8.38807e-08 2.01351e-07 0.0117538

0.027954 -0.00176585 6.40626e-08
-0.00176585 0.0350074 -5.37069e-08
6.40626e-08 -5.37069e-08 0.0315499

0.031122 0.0036571 -1.07674e-07
0.0036571 0.0313013 -7.32016e-08
-1.07674e-07 -7.32016e-08 0.0310802

0.02907 -0.00188013 1.08931e-07
-0.00188013 0.0348002 -1.77403e-07
1.08931e-07 -1.77403e-07 0.0325472

0.0346323 0.00441848 -7.84927e-08
0.00441848 0.0343632 -6.39841e-08
-7.84927e-08 -6.39841e-08 0.0348853

0.0343286 7.3129e-05 -6.79883e-08
7.3129e-05 0.0272867 -5.07727e-08
-6.79883e-08 -5.07727e-08 0.0307791

0.0286939 -0.00235375 2.03658e-07
-0.00235375 0.0360146 1.49217e-07
2.03658e-07 1.49217e-07 0.0334508

0.0345739 -0.000352875 -7.16825e-08
-0.000352875 0.027357 -4.15884e-08
-7.16825e-08 -4.15884e-08 0.0319778

0.0269208 0.00347831 -2.02642e-07
0.00347831 0.0309459 4.89134e-08
-2.02642e-07 4.89134e-08 0.0275772

0.0338852 -0.000550567 -1.55259e-07
-0.000550567 0.02641 -1.76874e-07
-1.55259e-07 -1.76874e-07 0.0301349

0.0266227 0.00113515 -1.00202e-07
0.00113515 0.0340344 1.93174e-07
-1.00202e-07 1.93174e-07 0.0291506

0.0452949 0.000851268 1.50744e-07
0.000851268 0.0452648 1.50247e-07
1.50744e-07 1.50247e-07 0.0366388

0.0336761 0.000247377 -8.58493e-09
0.000247377 0.0263159 -4.55141e-09
-8.58493e-09 -4.55141e-09 0.0298058

0.0293104 -0.00363201 -3.33723e-08
-0.00363201 0.0311364 6.01695e-08
-3.33723e-08 6.01695e-08 0.0300474

0.0337808 0.000900083 -1.00581e-07
0.000900083 0.026497 2.83988e-08
-1.00581e-07 2.83988e-08 0.0300819

0.0285467 0.00250748 1.15754e-07
0.00250748 0.0338947 4.37758e-08
1.15754e-07 4.37758e-08 0.0322877

0.0286302 0.00052678 -2.98505e-09
0.00052678 0.0176901 3.33714e-08
-2.98505e-09 3.33714e-08 0.0131717

0.0309149 0.00403471 -1.82509e-07
0.00403471 0.030647 9.36708e-08
-1.82509e-07 9.36708e-08 0.0306114

0.0259254 0.00477648 8.21324e-08
0.00477648 0.0257338 7.18667e-08
8.21324e-08 7.18667e-08 0.0211285

0.0415295 0.0013698 -2.11495e-08
0.0013698 0.0383512 7.86482e-08
-2.11495e-08 7.86482e-08 0.0361358

0.0344116 0.00187105 -1.14241e-07
0.00187105 0.027953 4.17622e-09
-1.14241e-07 4.17622e-09 0.0310007

0.0217602 -0.00228793 9.32e-08
-0.00228793 0.0299928 1.11998e-07
9.32e-08 1.11998e-07 0.0211254

0.022864 -0.00535258 5.44126e-08
-0.00535258 0.0234736 -1.10201e-07
5.44126e-08 -1.10201e-07 0.0125793

0.0348331 0.00080075 8.01905e-08
0.00080075 0.042256 6.40586e-08
8.01905e-08 6.40586e-08 0.0357869

0.0374538 -0.000661819 2.21969e-08
-0.000661819 0.0412034 6.13298e-08
2.21969e-08 6.13298e-08 0.0359015

0.0410752 0.00281347 9.49412e-09
0.00281347 0.0359867 -1.76209e-07
9.49412e-09 -1.76209e-07 0.0357671

0.0372543 0.00070509 1.14201e-07
0.00070509 0.0432165 4.71736e-08
1.14201e-07 4.71736e-08 0.0361423

0.0402612 -0.00121883 -2.8181e-07
-0.00121883 0.0378303 1.02917e-08
-2.8181e-07 1.02917e-08 0.0358088

0.0312161 -0.00367789 1.93999e-07
-0.00367789 0.0311239 7.39747e-08
1.93999e-07 7.39747e-08 0.0309261

0.0227479 0.00527916 -5.38966e-08
0.00527916 0.0237095 1.78437e-08
-5.38966e-08 1.78437e-08 0.0125813

0.0297615 -0.00231584 -1.35858e-07
-0.00231584 0.0220314 -1.30645e-07
-1.35858e-07 -1.30645e-07 0.0208753

0.0376198 -0.00052274 -1.78703e-07
-0.00052274 0.0430646 -7.17494e-08
-1.78703e-07 -7.17494e-08 0.0361449

0.0412413 0.00263442 -2.36557e-07
0.00263442 0.0394155 1.08073e-08
-2.36557e-07 1.08073e-08 0.0361275

0.0343015 -0.00161705 -1.80012e-07
-0.00161705 0.0279951 -7.31136e-08
-1.80012e-07 -7.31136e-08 0.0310847

0.0231062 -0.00552587 1.79406e-10
-0.00552587 0.0235632 -5.1131e-08
1.79406e-10 -5.1131e-08 0.0162164

0.0299439 -0.00233237 2.02372e-08
-0.00233237 0.0221556 2.62227e-08
2.02372e-08 2.62227e-08 0.0213447

0.0258943 0.00222736 7.79487e-09
0.00222736 0.0326549 -3.30233e-08
7.79487e-09 -3.30233e-08 0.027916

0.0275515 0.002529 -1.62117e-07
0.002529 0.0323747 -1.19138e-08
-1.62117e-07 -1.19138e-08 0.0284915

0.0341759 -0.00214063 2.04215e-08
-0.00214063 0.0271078 1.18684e-07
2.04215e-08 1.18684e-07 0.0304728

0.022903 -0.00439254 1.31269e-07
-0.00439254 0.0272495 1.94418e-07
1.31269e-07 1.94418e-07 0.0198508

0.0294945 0.00247155 -1.23394e-07
0.00247155 0.0218348 1.37903e-07
-1.23394e-07 1.37903e-07 0.0202814

0.0298729 -0.00327101 -2.25423e-07
-0.00327101 0.0245141 -4.44075e-09
-2.25423e-07 -4.44075e-09 0.0230487

0.0344782 0.00257777 2.05165e-08
0.00257777 0.0382039 6.3811e-08
2.05165e-08 6.3811e-08 0.0352716

0.0286902 0.00383856 -9.1689e-08
0.00383856 0.0257804 7.64958e-08
-9.1689e-08 7.64958e-08 0.0231173

0.0349293 -0.00291572 1.06156e-07
-0.00291572 0.0374328 7.03071e-08
1.06156e-07 7.03071e-08 0.0351899

0.0255806 -0.00545546 1.7053e-07
-0.00545546 0.0229028 -2.59639e-07
1.7053e-07 -2.59639e-07 0.0158199

0.0373473 0.000745904 -1.98809e-07
0.000745904 0.0414136 -2.53937e-08
-1.98809e-07 -2.53937e-08 0.035922

0.0231681 -0.000693151 5.89669e-08
-0.000693151 0.0313142 5.30367e-08
5.89669e-08 5.30367e-08 0.0231033

0.0410299 0.00137995 -1.02478e-07
0.00137995 0.0377079 -6.1415e-08
-1.02478e-07 -6.1415e-08 0.0359002

0.0276764 0.00280519 -1.04881e-07
0.00280519 0.0327501 1.94121e-07
-1.04881e-07 1.94121e-07 0.0302319

0.0361398 0.000784926 1.82072e-08
0.000784926 0.0281324 1.79718e-07
1.82072e-08 1.79718e-07 0.0336739

0.0362551 0.00153418 1.06638e-08
0.00153418 0.0316939 1.05258e-07
1.06638e-08 1.05258e-07 0.0342215

0.028638 0.00405709 -1.65249e-07
0.00405709 0.0198978 -1.8249e-07
-1.65249e-07 -1.8249e-07 0.0137595

0.0309732 -0.000783955 -9.51444e-08
-0.000783955 0.0370859 -3.69637e-08
-9.51444e-08 -3.69637e-08 0.0338824

0.0315558 0.00124344 7.67576e-08
0.00124344 0.036422 -7.89011e-08
7.67576e-08 -7.89011e-08 0.0342603

0.0285497 -0.000375192 -1.16228e-07
-0.000375192 0.0369567 -4.87375e-08
-1.16228e-07 -4.87375e-08 0.0326715

0.0296034 0.00307128 -7.50176e-08
0.00307128 0.0347922 3.22047e-08
-7.50176e-08 3.22047e-08 0.0337097

0.0347203 0.00112196 6.31126e-09
0.00112196 0.0278394 1.31978e-08
6.31126e-09 1.31978e-08 0.0322094

0.0291881 -0.00369896 -1.34561e-07
-0.00369896 0.0310219 1.12477e-07
-1.34561e-07 1.12477e-07 0.0299103

0.0350553 -0.000236897 -8.64976e-08
-0.000236897 0.0275808 -7.66669e-08
-8.64976e-08 -7.66669e-08 0.033394

0.0344528 -0.0025481 -8.73051e-08
-0.0025481 0.0381346 1.46248e-07
-8.73051e-08 1.46248e-07 0.0352616

0.0350116 0.00284953 -8.58993e-08
0.00284953 0.037571 -6.22381e-08
-8.58993e-08 -6.22381e-08 0.0352415

0.0218892 -0.00213177 1.04715e-07
-0.00213177 0.0299231 -1.60409e-07
1.04715e-07 -1.60409e-07 0.0208518

0.0347023 -0.00369097 8.61618e-08
-0.00369097 0.0319586 5.46577e-08
8.61618e-08 5.46577e-08 0.0330798

0.0292927 -0.00329722 -6.73617e-08
-0.00329722 0.0321136 2.31202e-07
-6.73617e-08 2.31202e-07 0.0304341

0.0267803 -0.00401694 -2.4122e-07
-0.00401694 0.0176057 4.58966e-08
-2.4122e-07 4.58966e-08 0.0127262

0.0324048 0.000418898 2.29748e-08
0.000418898 0.038106 -1.11545e-07
2.29748e-08 -1.11545e-07 0.0344066

0.0345381 0.00381731 9.82974e-08
0.00381731 0.0309423 -5.7278e-08
9.82974e-08 -5.7278e-08 0.0326611

0.0283773 0.00258159 8.24039e-08
0.00258159 0.0341306 1.07983e-08
8.24039e-08 1.07983e-08 0.0322146

0.0315429 0.0010377 -1.72694e-07
0.0010377 0.0228445 -2.254e-07
-1.72694e-07 -2.254e-07 0.0240698

0.0270979 -0.00435873 5.50681e-08
-0.00435873 0.0237374 -4.6416e-08
5.50681e-08 -4.6416e-08 0.018324

0.0362607 -0.00140321 7.45271e-08
-0.00140321 0.0387433 -3.73087e-08
7.45271e-08 -3.73087e-08 0.0354019

0.0315565 0.00317101 1.28881e-07
0.00317101 0.0344022 -6.71172e-08
1.28881e-07 -6.71172e-08 0.0340911

0.0273022 -0.00415617 -4.07724e-08
-0.00415617 0.0221755 -2.09196e-07
-4.07724e-08 -2.09196e-07 0.0184118

0.0303588 0.00139099 7.09179e-08
0.00139099 0.022831 -2.29512e-07
7.09179e-08 -2.29512e-07 0.0209551

0.0186025 -0.00269705 -8.57821e-08
-0.00269705 0.0289292 2.9687e-07
-8.57821e-08 2.9687e-07 0.0158934

0.0272007 0.00188894 -1.95204e-07
0.00188894 0.0343211 -3.43785e-08
-1.95204e-07 -3.43785e-08 0.0306554

0.0353825 0.00305668 2.55364e-08
0.00305668 0.0308209 -1.84162e-07
2.55364e-08 -1.84162e-07 0.0327545

0.0226484 0.00538598 3.30192e-08
0.00538598 0.0240892 1.18544e-07
3.30192e-08 1.18544e-07 0.0161989

0.0459481 0.00223843 -3.4238e-07
0.00223843 0.0417503 2.77852e-07
-3.4238e-07 2.77852e-07 0.0366397

0.0230819 -0.000534306 7.6122e-08
-0.000534306 0.0313549 -2.21541e-07
7.6122e-08 -2.21541e-07 0.0230731

0.0463614 -0.00225604 4.85628e-07
-0.00225604 0.0412944 5.93724e-07
4.85628e-07 5.93724e-07 0.0365948

0.0370663 -0.00362441 1.43453e-07
-0.00362441 0.0334919 5.66712e-09
1.43453e-07 5.66712e-09 0.0346216

0.0351379 0.00361949 -1.72613e-08
0.00361949 0.0300047 -2.58323e-08
-1.72613e-08 -2.58323e-08 0.0324573

0.0299627 -0.00315912 1.0145e-07
-0.00315912 0.0246911 -1.00461e-07
1.0145e-07 -1.00461e-07 0.0232865

0.0230129 0.0040299 1.97092e-07
0.0040299 0.0277796 -3.96287e-08
1.97092e-07 -3.96287e-08 0.0203826

0.0210944 -0.00137862 1.82266e-07
-0.00137862 0.0298959 -1.27445e-07
1.82266e-07 -1.27445e-07 0.018252

0.0287465 0.00288882 -1.67362e-07
0.00288882 0.0342283 -3.36896e-08
-1.67362e-07 -3.36896e-08 0.0327005

0.0370127 0.00223586 1.11291e-07
0.00223586 0.0334527 5.60829e-08
1.11291e-07 5.60829e-08 0.0343849

0.0281491 0.0019882 7.39665e-08
0.0019882 0.0340605 -3.20502e-08
7.39665e-08 -3.20502e-08 0.0308662

0.0318835 0.00207299 -4.03888e-09
0.00207299 0.0252548 3.93187e-08
-4.03888e-09 3.93187e-08 0.0256181

0.0239081 -0.0027744 -6.41122e-08
-0.0027744 0.0297657 -1.78265e-07
-6.41122e-08 -1.78265e-07 0.0215621

0.0278993 -0.00376374 2.61049e-08
-0.00376374 0.0218157 -1.17616e-07
2.61049e-08 -1.17616e-07 0.0180764

0.0293324 -0.00323197 7.0891e-08
-0.00323197 0.0326308 -7.86121e-08
7.0891e-08 -7.86121e-08 0.0324036

0.0306273 0.00361465 -1.01177e-07
0.00361465 0.0322293 -6.36269e-08
-1.01177e-07 -6.36269e-08 0.0323714

0.0287088 0.00304811 -7.94657e-09
0.00304811 0.0340279 2.82534e-08
-7.94657e-09 2.82534e-08 0.0326309

0.0292076 0.00172518 1.9482e-08
0.00172518 0.0376186 -1.09645e-07
1.9482e-08 -1.09645e-07 0.0338468

0.0344781 0.00123236 -1.71463e-07
0.00123236 0.0275244 -2.1088e-07
-1.71463e-07 -2.1088e-07 0.0306754

0.0199611 -0.000605198 -1.25478e-07
-0.000605198 0.0296615 1.83197e-07
-1.25478e-07 1.83197e-07 0.0181044

0.0297981 -0.00486278 3.72389e-08
-0.00486278 0.0330502 -2.13648e-08
3.72389e-08 -2.13648e-08 0.0337423

0.0290819 0.00359997 2.14999e-07
0.00359997 0.0313606 -1.19852e-07
2.14999e-07 -1.19852e-07 0.0302647

0.018106 0.000282824 -3.24694e-08
0.000282824 0.0293113 -8.02861e-08
-3.24694e-08 -8.02861e-08 0.0168788

0.027844 0.00442383 1.54017e-07
0.00442383 0.0209686 6.8874e-08
1.54017e-07 6.8874e-08 0.0174551

0.0291917 -0.00302035 -4.18793e-08
-0.00302035 0.0327042 -1.08905e-07
-4.18793e-08 -1.08905e-07 0.032186

0.0352432 0.000759653 1.07286e-07
0.000759653 0.0273393 -1.77779e-07
1.07286e-07 -1.77779e-07 0.0325534

0.0294278 0.00352039 2.34273e-08
0.00352039 0.0252017 -8.65807e-08
2.34273e-08 -8.65807e-08 0.0231117

0.0396366 0.00171005 1.21153e-07
0.00171005 0.0390398 -8.03199e-08
1.21153e-07 -8.03199e-08 0.0359406

0.0283757 0.00312349 2.09693e-07
0.00312349 0.0224018 3.19453e-08
2.09693e-07 3.19453e-08 0.0182868

0.0394894 -0.00175073 1.13528e-07
-0.00175073 0.0390656 -1.04893e-07
1.13528e-07 -1.04893e-07 0.0359057

0.0232614 0.000103468 5.01355e-08
0.000103468 0.0315186 5.18957e-08
5.01355e-08 5.18957e-08 0.0231201

0.0327599 -0.000288332 1.70636e-08
-0.000288332 0.0246605 -2.45322e-07
1.70636e-08 -2.45322e-07 0.0269668

0.0380552 -0.00212918 4.00078e-08
-0.00212918 0.0304644 7.1959e-09
4.00078e-08 7.1959e-09 0.0347938

0.0292388 0.00320561 -1.05633e-07
0.00320561 0.0332784 1.00742e-07
-1.05633e-07 1.00742e-07 0.0333434

0.0289512 -0.00177249 -3.28042e-08
-0.00177249 0.0366098 -8.02523e-08
-3.28042e-08 -8.02523e-08 0.0335002

0.036584 -0.00108492 -7.58542e-08
-0.00108492 0.026477 -9.34651e-08
-7.58542e-08 -9.34651e-08 0.0338606

0.0311807 -0.00292588 -9.22514e-08
-0.00292588 0.0383065 -9.76374e-08
-9.22514e-08 -9.76374e-08 0.0348442

0.0381655 -0.000884996 -4.43979e-08
-0.000884996 0.0387318 1.31661e-07
-4.43979e-08 1.31661e-07 0.0358358

0.0301807 -0.00394004 -5.74138e-08
-0.00394004 0.0327115 -1.08903e-07
-5.74138e-08 -1.08903e-07 0.0327638

0.0213331 0.00146948 -2.03297e-07
0.00146948 0.0296142 -1.77934e-07
-2.03297e-07 -1.77934e-07 0.0182959

0.0293883 -0.00364585 -1.57504e-07
-0.00364585 0.0253499 1.51677e-07
-1.57504e-07 1.51677e-07 0.0231824

0.0328598 -0.00181687 -1.28719e-07
-0.00181687 0.0397176 4.95306e-08
-1.28719e-07 4.95306e-08 0.0352414

0.0350918 7.66492e-05 1.45695e-07
7.66492e-05 0.0272226 -1.7459e-07
1.45695e-07 -1.7459e-07 0.0332517

0.0308189 -0.00282877 -3.4761e-08
-0.00282877 0.0348921 -7.7041e-08
-3.4761e-08 -7.7041e-08 0.0340846

0.029535 0.00338889 5.5236e-08
0.00338889 0.0328723 -1.31718e-07
5.5236e-08 -1.31718e-07 0.0333265

0.0264606 -0.00406341 1.31073e-07
-0.00406341 0.0272621 1.94733e-07
1.31073e-07 1.94733e-07 0.0215848

0.0371727 -0.00095862 1.97347e-07
-0.00095862 0.0416104 8.34295e-08
1.97347e-07 8.34295e-08 0.0358869

0.0227113 -0.00423772 2.92042e-07
-0.00423772 0.027244 -6.35127e-08
2.92042e-07 -6.35127e-08 0.0168777

0.0341835 -0.00252488 2.06711e-08
-0.00252488 0.028607 9.4935e-08
2.06711e-08 9.4935e-08 0.0310449

0.036426 0.000289857 -2.20031e-08
0.000289857 0.029438 -1.01225e-07
-2.20031e-08 -1.01225e-07 0.0341942

0.0396414 0.00239628 -9.66324e-08
0.00239628 0.0391133 -4.73737e-08
-9.66324e-08 -4.73737e-08 0.0358679

0.0238566 0.00260923 7.23835e-08
0.00260923 0.0301519 1.89988e-07
7.23835e-08 1.89988e-07 0.0217991

0.0334313 0.00358154 1.90444e-10
0.00358154 0.0307155 4.76308e-08
1.90444e-10 4.76308e-08 0.0317677

0.0316437 -0.00319437 9.60332e-08
-0.00319437 0.0265525 9.35639e-09
9.60332e-08 9.35639e-09 0.0269358

0.0289297 -0.00234097 1.59747e-08
-0.00234097 0.0342353 2.60031e-08
1.59747e-08 2.60031e-08 0.0326064

0.0262449 0.00450145 5.46199e-08
0.00450145 0.0245581 3.77896e-08
5.46199e-08 3.77896e-08 0.0180814

0.0284231 -0.00286689 -1.27e-08
-0.00286689 0.034033 -2.32998e-07
-1.27e-08 -2.32998e-07 0.0324495

0.0331497 0.00405868 7.90332e-08
0.00405868 0.0304652 -1.96991e-07
7.90332e-08 -1.96991e-07 0.0315428

0.0333352 -0.00331161 1.64807e-07
-0.00331161 0.0283575 2.62987e-08
1.64807e-07 2.62987e-08 0.0300463

0.0291614 -0.00329524 -6.48014e-08
-0.00329524 0.0319882 2.78324e-08
-6.48014e-08 2.78324e-08 0.0304378

0.0314559 -0.00242931 7.62486e-08
-0.00242931 0.0247193 3.798e-08
7.62486e-08 3.798e-08 0.0251566

0.0329563 -0.00246676 1.70071e-07
-0.00246676 0.02671 1.83558e-08
1.70071e-07 1.83558e-08 0.028597

0.0294921 -0.00334184 -1.18735e-07
-0.00334184 0.0329507 8.60282e-09
-1.18735e-07 8.60282e-09 0.0334079

0.0261344 0.0046339 -2.34256e-08
0.0046339 0.0255416 -9.58493e-08
-2.34256e-08 -9.58493e-08 0.0210928

0.0281504 0.0020166 1.06942e-07
0.0020166 0.0343366 1.88343e-08
1.06942e-07 1.88343e-08 0.03111

0.030887 0.00348104 1.43658e-07
0.00348104 0.0322558 2.10267e-07
1.43658e-07 2.10267e-07 0.0326007

0.0291578 0.00334812 -5.78152e-08
0.00334812 0.0331926 -8.07764e-08
-5.78152e-08 -8.07764e-08 0.033261

0.0289847 0.00152305 2.60043e-07
0.00152305 0.0354716 -1.3697e-07
2.60043e-07 -1.3697e-07 0.0326961

0.0310532 -0.00106173 2.14446e-08
-0.00106173 0.0231418 2.83838e-08
2.14446e-08 2.83838e-08 0.0220783

0.0238842 0.00240574 -5.70561e-08
0.00240574 0.0304112 2.07397e-07
-5.70561e-08 2.07397e-07 0.0221134

0.0292139 -0.00320391 -4.34719e-10
-0.00320391 0.0326373 -3.79572e-08
-4.34719e-10 -3.79572e-08 0.0316191

0.0289881 0.00335682 2.95794e-07
0.00335682 0.0309335 -2.87512e-08
2.95794e-07 -2.87512e-08 0.0285686

0.0266132 -0.00459148 -9.5726e-08
-0.00459148 0.0252311 1.557e-07
-9.5726e-08 1.557e-07 0.021257

0.0262783 0.0048936 2.24553e-08
0.0048936 0.0209466 1.64284e-07
2.24553e-08 1.64284e-07 0.0167627

0.0235032 -0.0042869 3.33182e-08
-0.0042869 0.0274651 -7.79039e-08
3.33182e-08 -7.79039e-08 0.0206268

0.0266725 -0.00402767 -2.04172e-07
-0.00402767 0.0274832 -8.98966e-08
-2.04172e-07 -8.98966e-08 0.0220505

0.0353658 -0.000906399 1.86523e-07
-0.000906399 0.0273911 -3.02462e-08
1.86523e-07 -3.02462e-08 0.0326557

0.0260458 0.00392173 1.38076e-07
0.00392173 0.0280928 -1.45948e-08
1.38076e-07 -1.45948e-08 0.0221029

0.0307887 0.00171658 4.29909e-08
0.00171658 0.0233608 2.78957e-08
4.29909e-08 2.78957e-08 0.022026

0.0214313 0.00172208 -7.87719e-08
0.00172208 0.0302415 2.0314e-07
-7.87719e-08 2.0314e-07 0.0211332

0.0242633 -0.00288953 1.2152e-07
-0.00288953 0.0299523 1.12994e-07
1.2152e-07 1.12994e-07 0.0220867

0.0313465 -0.000131162 -3.12519e-08
-0.000131162 0.0392746 4.73649e-08
-3.12519e-08 4.73649e-08 0.0346718

0.0230588 0.000294622 4.86141e-08
0.000294622 0.0314613 -2.23302e-07
4.86141e-08 -2.23302e-07 0.0230628

0.0227775 0.00400162 1.13238e-07
0.00400162 0.028128 -1.65972e-08
1.13238e-07 -1.65972e-08 0.0206386

0.0288893 0.00158569 -2.67911e-08
0.00158569 0.0358335 2.48237e-07
-2.67911e-08 2.48237e-07 0.0328946

0.0293168 -0.00358019 7.45563e-08
-0.00358019 0.0251303 -1.46251e-07
7.45563e-08 -1.46251e-07 0.0232403

0.0369779 0.00273297 1.12056e-07
0.00273297 0.0297241 3.61131e-08
1.12056e-07 3.61131e-08 0.0338027

0.0371769 0.0034832 -4.428e-08
0.0034832 0.0334238 8.76668e-09
-4.428e-08 8.76668e-09 0.0346532

0.0345451 -0.00244634 -2.38782e-08
-0.00244634 0.0285308 5.86102e-09
-2.38782e-08 5.86102e-09 0.03138

0.0390578 -0.000265693 -7.25546e-08
-0.000265693 0.0339254 -2.07529e-07
-7.25546e-08 -2.07529e-07 0.0352093

0.0314801 -0.00418777 9.00703e-08
-0.00418777 0.0317829 1.59523e-07
9.00703e-08 1.59523e-07 0.0321574

0.0294628 0.00300776 5.90739e-08
0.00300776 0.0223278 5.53826e-09
5.90739e-08 5.53826e-09 0.0210671

0.0302307 0.00397297 1.92331e-07
0.00397297 0.0326642 1.20873e-07
1.92331e-07 1.20873e-07 0.0327211

0.0302786 0.00384675 -9.23499e-08
0.00384675 0.0326081 -8.04939e-08
-9.23499e-08 -8.04939e-08 0.0326758

0.026245 0.00396187 -4.6743e-08
0.00396187 0.0277684 -4.98118e-08
-4.6743e-08 -4.98118e-08 0.0218655

0.0344514 0.00357666 3.35089e-08
0.00357666 0.0317808 3.29671e-08
3.35089e-08 3.29671e-08 0.0328326

0.0302494 0.00045235 3.42203e-08
0.00045235 0.0204289 9.54954e-09
3.42203e-08 9.54954e-09 0.0205739

0.0331874 0.00420069 2.26084e-08
0.00420069 0.0323741 1.98655e-07
2.26084e-08 1.98655e-07 0.033485

0.0305019 -0.00165445 -9.24157e-08
-0.00165445 0.0366174 -8.3035e-08
-9.24157e-08 -8.3035e-08 0.033664

0.0373613 0.00323298 -1.73913e-07
0.00323298 0.0334609 -4.55767e-09
-1.73913e-07 -4.55767e-09 0.0346653

0.0307386 -0.00389586 -1.1994e-08
-0.00389586 0.0322747 -9.66993e-08
-1.1994e-08 -9.66993e-08 0.0326814

0.029375 -0.000644996 1.93448e-07
-0.000644996 0.036904 -2.20204e-08
1.93448e-07 -2.20204e-08 0.032849

0.0288138 -0.00315237 1.34995e-07
-0.00315237 0.0221406 2.72147e-08
1.34995e-07 2.72147e-08 0.0187596

0.0290039 0.00384458 -1.42038e-07
0.00384458 0.0255787 -9.31185e-08
-1.42038e-07 -9.31185e-08 0.0230737

0.021702 0.00189099 -1.74822e-07
0.00189099 0.0300622 1.72614e-07
-1.74822e-07 1.72614e-07 0.0210845

0.0349914 -0.000161305 -1.55682e-07
-0.000161305 0.0273908 -3.01918e-08
-1.55682e-07 -3.01918e-08 0.0333027

0.0344211 3.15002e-07 1.87667e-07
3.15002e-07 0.0272758 -3.2549e-08
1.87667e-07 -3.2549e-08 0.0320424

0.0291669 0.00304002 -1.39184e-07
0.00304002 0.0326809 -7.84015e-08
-1.39184e-07 -7.84015e-08 0.0321339

0.0314512 0.00316627 -1.04013e-07
0.00316627 0.0342514 -2.84525e-08
-1.04013e-07 -2.84525e-08 0.0340593

0.0291697 -0.00320433 8.59036e-08
-0.00320433 0.0332398 -6.88293e-08
8.59036e-08 -6.88293e-08 0.0333802

0.0287748 -8.55082e-05 -4.64437e-08
-8.55082e-05 0.0367062 -4.4008e-08
-4.64437e-08 -4.4008e-08 0.0325268

0.0294654 0.00337559 2.62964e-08
0.00337559 0.0330761 1.01525e-07
2.62964e-08 1.01525e-07 0.0333558

0.0328609 -0.00134664 1.00039e-07
-0.00134664 0.0253627 1.60237e-07
1.00039e-07 1.60237e-07 0.0278299

0.0263558 -0.00425472 1.64929e-07
-0.00425472 0.0281807 1.39841e-07
1.64929e-07 1.39841e-07 0.0242685

0.036299 -0.000331611 -6.26987e-08
-0.000331611 0.0293844 1.79839e-07
-6.26987e-08 1.79839e-07 0.0340291

0.0267819 -0.00444562 -7.68397e-08
-0.00444562 0.0251914 -1.4084e-07
-7.68397e-08 -1.4084e-07 0.0209499

0.0309008 0.00250718 2.40425e-09
0.00250718 0.0350643 -6.51198e-08
2.40425e-09 -6.51198e-08 0.0340689

0.0351146 -0.00349685 -1.21805e-07
-0.00349685 0.0303894 1.49936e-07
-1.21805e-07 1.49936e-07 0.032616

0.0305031 -0.0012498 3.10109e-08
-0.0012498 0.0229792 2.57544e-07
3.10109e-08 2.57544e-07 0.0214792

0.0371485 -0.00307697 8.25377e-08
-0.00307697 0.0316543 5.53768e-08
8.25377e-08 5.53768e-08 0.033989

0.0349708 0.000321889 3.53329e-08
0.000321889 0.027556 8.46336e-09
3.53329e-08 8.46336e-09 0.0334311

0.0358447 -0.00308827 -2.31174e-07
-0.00308827 0.0332589 -1.53201e-07
-2.31174e-07 -1.53201e-07 0.0341446

0.0349302 -0.00341082 1.30449e-07
-0.00341082 0.0295961 -3.55878e-09
1.30449e-07 -3.55878e-09 0.0321792

0.0349107 -0.00113362 1.33459e-07
-0.00113362 0.0278511 -1.16208e-07
1.33459e-07 -1.16208e-07 0.0323426

0.0314906 -0.00306248 1.38165e-07
-0.00306248 0.0344498 1.2528e-07
1.38165e-07 1.2528e-07 0.0341477

0.0292363 -0.00407115 -3.00474e-08
-0.00407115 0.0269007 -3.30827e-08
-3.00474e-08 -3.30827e-08 0.0253471

0.0349943 -0.00324381 1.28719e-07
-0.00324381 0.0299162 -1.03866e-08
1.28719e-07 -1.03866e-08 0.0321964

0.0314637 0.00140908 -1.6839e-07
0.00140908 0.0233279 1.72511e-08
-1.6839e-07 1.72511e-08 0.0244846

0.0336662 0.00348418 1.36194e-07
0.00348418 0.0334451 2.27692e-08
1.36194e-07 2.27692e-08 0.0336511

0.0298938 -0.00496712 7.41829e-08
-0.00496712 0.0330794 9.28415e-10
7.41829e-08 9.28415e-10 0.0338583

0.0300444 0.00492021 3.35568e-08
0.00492021 0.0329415 1.01257e-07
3.35568e-08 1.01257e-07 0.0338252

0.0276894 -0.00374164 -1.63952e-07
-0.00374164 0.0348081 5.39167e-08
-1.63952e-07 5.39167e-08 0.0337678

0.0279271 0.00354715 -1.40765e-07
0.00354715 0.0348364 2.93679e-08
-1.40765e-07 2.93679e-08 0.0337327

0.0364311 -0.00115377 -1.7266e-07
-0.00115377 0.0263432 2.31082e-16
-1.7266e-07 2.31082e-16 0.033759

0.0361999 0.00124743 1.86191e-07
0.00124743 0.0265646 -7.90756e-08
1.86191e-07 -7.90756e-08 0.0337218

0.0350357 -0.0013067 -2.45061e-09
-0.0013067 0.0284692 2.3239e-08
-2.45061e-09 2.3239e-08 0.032577

0.0344376 0.00425913 -1.03685e-07
0.00425913 0.0342905 -2.84652e-08
-1.03685e-07 -2.84652e-08 0.0348136

0.0343134 -0.00435673 5.36771e-08
-0.00435673 0.0342819 -2.10089e-08
5.36771e-08 -2.10089e-08 0.0348019

0.0305221 0.00209359 -6.10142e-08
0.00209359 0.0381662 5.98383e-08
-6.10142e-08 5.98383e-08 0.0348508

0.0306652 -0.00205943 8.66438e-08
-0.00205943 0.0380962 1.37782e-07
8.66438e-08 1.37782e-07 0.0348381

0.0395029 -0.000528971 9.15196e-08
-0.000528971 0.0328504 -4.97872e-08
9.15196e-08 -4.97872e-08 0.0352589

0.0397055 0.000513663 1.71369e-07
0.000513663 0.0326229 4.55229e-08
1.71369e-07 4.55229e-08 0.0353041

0.023966 0.00127598 1.79579e-07
0.00127598 0.0320046 1.67447e-08
1.79579e-07 1.67447e-08 0.0251853

0.0311633 -0.00326587 9.31838e-08
-0.00326587 0.0322421 1.41082e-07
9.31838e-08 1.41082e-07 0.032803

0.0277812 -0.00478554 -1.58527e-07
-0.00478554 0.0333132 -6.32166e-08
-1.58527e-07 -6.32166e-08 0.0334564

0.0333603 -0.000610472 -8.76535e-08
-0.000610472 0.0264042 -1.7191e-07
-8.76535e-08 -1.7191e-07 0.0284493

0.0381888 -0.0022518 1.24904e-07
-0.0022518 0.0307955 7.19658e-09
1.24904e-07 7.19658e-09 0.0348938

0.0382371 0.0021839 1.19841e-07
0.0021839 0.0309087 1.22345e-07
1.19841e-07 1.22345e-07 0.034926

0.036085 1.58477e-05 -2.38157e-09
1.58477e-05 0.0251272 7.54635e-08
-2.38157e-09 7.54635e-08 0.0334715

0.0242419 0.00302903 7.20417e-09
0.00302903 0.0303988 7.0949e-08
7.20417e-09 7.0949e-08 0.024278

0.0276758 0.00475631 2.16805e-08
0.00475631 0.033314 -7.74333e-08
2.16805e-08 -7.74333e-08 0.0333943

0.0286758 -0.00307593 3.09555e-08
-0.00307593 0.0342621 2.57337e-08
3.09555e-08 2.57337e-08 0.0327535

0.0310866 0.00303597 1.57619e-08
0.00303597 0.0251476 -8.71717e-08
1.57619e-08 -8.71717e-08 0.0254682

0.0372284 0.0031656 1.19406e-07
0.0031656 0.0315418 4.85075e-08
1.19406e-07 4.85075e-08 0.0340769

0.0292282 -0.00406741 -5.03015e-08
-0.00406741 0.0269367 5.54896e-08
-5.03015e-08 5.54896e-08 0.0253223

0.0364028 -0.000453782 4.26685e-08
-0.000453782 0.0296928 1.41584e-07
4.26685e-08 1.41584e-07 0.0341322

0.0273454 -0.0044948 8.86499e-10
-0.0044948 0.0333964 6.3146e-08
8.86499e-10 6.3146e-08 0.033443

0.0240388 0.00107901 -8.69461e-08
0.00107901 0.0322457 -2.29885e-07
-8.69461e-08 -2.29885e-07 0.0255069

0.0242306 0.00282676 -1.94054e-07
0.00282676 0.0307027 -6.76138e-08
-1.94054e-07 -6.76138e-08 0.0245459

0.0267933 0.00459453 1.26266e-07
0.00459453 0.0240427 1.2133e-07
1.26266e-07 1.2133e-07 0.0182143

0.0298521 0.000199877 1.72413e-07
0.000199877 0.0200891 4.39466e-08
1.72413e-07 4.39466e-08 0.0193632

0.0319096 -0.00302402 3.8063e-08
-0.00302402 0.0341634 -2.02708e-08
3.8063e-08 -2.02708e-08 0.0340368

0.0229194 0.0039998 4.97695e-08
0.0039998 0.027661 -1.30308e-07
4.97695e-08 -1.30308e-07 0.0176538

0.029211 0.00310099 4.31308e-08
0.00310099 0.0327643 1.98076e-07
4.31308e-08 1.98076e-07 0.0310135

0.031596 -0.000694455 1.00485e-07
-0.000694455 0.0231609 3.05412e-08
1.00485e-07 3.05412e-08 0.0244858

0.0327625 0.00146442 2.03649e-07
0.00146442 0.0253478 2.25267e-08
2.03649e-07 2.25267e-08 0.0276141

0.0359796 5.62303e-05 -5.52883e-08
5.62303e-05 0.0249602 1.50915e-07
-5.52883e-08 1.50915e-07 0.0333874

0.0279671 -0.00380537 7.95629e-08
-0.00380537 0.0349502 -8.02882e-08
7.95629e-08 -8.02882e-08 0.0338172

0.0393152 -0.000843621 2.0812e-07
-0.000843621 0.0416027 -5.05626e-08
2.0812e-07 -5.05626e-08 0.0361911

0.0298692 0.00493915 -4.44701e-08
0.00493915 0.0329579 -1.34535e-07
-4.44701e-08 -1.34535e-07 0.0337803

0.0302894 0.000214397 2.72866e-08
0.000214397 0.0203975 9.07183e-09
2.72866e-08 9.07183e-09 0.0172768

0.026675 -0.00425048 -1.671e-07
-0.00425048 0.028134 -1.45393e-07
-1.671e-07 -1.45393e-07 0.0244385

0.0277475 0.00481567 2.5866e-08
0.00481567 0.0333164 1.02295e-07
2.5866e-08 1.02295e-07 0.0334566

0.0279462 -0.00145843 -1.30067e-07
-0.00145843 0.0350866 -7.86671e-08
-1.30067e-07 -7.86671e-08 0.0314515

0.024466 -0.00330521 -2.0272e-07
-0.00330521 0.0300167 4.6468e-08
-2.0272e-07 4.6468e-08 0.0242181

0.027992 0.00377936 -8.13788e-09
0.00377936 0.0349114 -6.44188e-08
-8.13788e-09 -6.44188e-08 0.0337881

0.031363 -0.00340967 8.20595e-08
-0.00340967 0.0270097 -2.21765e-08
8.20595e-08 -2.21765e-08 0.0269924

0.0402798 0.00140903 -6.78999e-09
0.00140903 0.0406189 -2.53736e-07
-6.78999e-09 -2.53736e-07 0.0361715

0.0258822 0.00400315 5.59255e-08
0.00400315 0.0289556 -1.67395e-07
5.59255e-08 -1.67395e-07 0.024512

0.0366792 0.00110266 -3.17363e-08
0.00110266 0.0263536 -8.62786e-08
-3.17363e-08 -8.62786e-08 0.033899

0.033343 0.00398419 1.16653e-07
0.00398419 0.0321168 -8.73866e-08
1.16653e-07 -8.73866e-08 0.0333169

0.0292294 0.00306749 -6.01778e-08
0.00306749 0.0326065 1.12623e-07
-6.01778e-08 1.12623e-07 0.032159

0.0343658 -0.00431097 -5.41927e-08
-0.00431097 0.0345063 1.29845e-07
-5.41927e-08 1.29845e-07 0.0348861

0.0354911 -0.00306358 -1.73952e-07
-0.00306358 0.0305912 4.36614e-08
-1.73952e-07 4.36614e-08 0.0327517

0.0333675 0.00138754 2.26835e-07
0.00138754 0.0395785 4.74172e-08
2.26835e-07 4.74172e-08 0.0350037

0.0291982 -0.00307901 -7.42e-08
-0.00307901 0.0328748 -5.7227e-08
-7.42e-08 -5.7227e-08 0.0313846

0.0292663 -0.00123226 4.94008e-08
-0.00123226 0.0192878 7.32215e-09
4.94008e-08 7.32215e-09 0.0164128

0.0287798 -0.00183233 7.62961e-08
-0.00183233 0.0184147 1.11069e-07
7.62961e-08 1.11069e-07 0.0161977

0.0385304 0.00220225 -1.89317e-07
0.00220225 0.0332402 2.41326e-08
-1.89317e-07 2.41326e-08 0.0347641

0.0280573 0.00294522 1.0956e-07
0.00294522 0.0323364 -1.91792e-07
1.0956e-07 -1.91792e-07 0.0295194

0.0320685 0.00383446 -1.02569e-07
0.00383446 0.030962 -7.38112e-08
-1.02569e-07 -7.38112e-08 0.0314558

0.0320512 9.00846e-05 -1.74896e-07
9.00846e-05 0.024578 -2.21198e-07
-1.74896e-07 -2.21198e-07 0.0248892

0.0302388 0.000866036 1.78779e-07
0.000866036 0.0385823 -6.3844e-08
1.78779e-07 -6.3844e-08 0.0340976

0.0354038 0.00219162 1.01144e-07
0.00219162 0.0293243 2.11509e-07
1.01144e-07 2.11509e-07 0.0328596

0.0248126 -0.00333919 1.4464e-07
-0.00333919 0.0300075 7.73141e-08
1.4464e-07 7.73141e-08 0.0244712

0.0286518 -0.00033777 -1.79152e-07
-0.00033777 0.0366589 -5.67221e-08
-1.79152e-07 -5.67221e-08 0.0323971

0.0252164 0.00174008 4.3807e-08
0.00174008 0.0320313 1.26766e-08
4.3807e-08 1.26766e-08 0.0256852

0.0332819 -0.00390979 -7.84152e-09
-0.00390979 0.0304981 5.3512e-08
-7.84152e-09 5.3512e-08 0.0315938

0.0290663 -0.00389629 -9.56145e-09
-0.00389629 0.0282015 1.34236e-07
-9.56145e-09 1.34236e-07 0.0257148

0.0261504 0.00409914 -7.79632e-08
0.00409914 0.0285476 -1.04833e-07
-7.79632e-08 -1.04833e-07 0.0243193

0.0452876 -0.00201752 6.8796e-08
-0.00201752 0.0396069 3.71712e-07
6.8796e-08 3.71712e-07 0.036368

0.0316678 0.000256515 -3.26525e-09
0.000256515 0.0393284 1.94144e-08
-3.26525e-09 1.94144e-08 0.0347704

0.030618 0.00265096 7.21454e-08
0.00265096 0.0384435 -6.21669e-08
7.21454e-08 -6.21669e-08 0.034959

0.0387667 0.00209484 -1.98357e-07
0.00209484 0.0302231 -1.07954e-07
-1.98357e-07 -1.07954e-07 0.0349438

0.0313724 -0.00345078 1.37253e-07
-0.00345078 0.0321416 1.33237e-07
1.37253e-07 1.33237e-07 0.0325741

0.0318195 0.0023361 -1.20899e-07
0.0023361 0.0256216 1.13676e-07
-1.20899e-07 1.13676e-07 0.0258808

0.0349947 -0.000708423 1.93638e-07
-0.000708423 0.0415759 1.12315e-07
1.93638e-07 1.12315e-07 0.0357288

0.0357897 -0.00251867 6.91001e-09
-0.00251867 0.0295517 1.77062e-07
6.91001e-09 1.77062e-07 0.0332593

0.0332988 -0.00203975 1.68913e-07
-0.00203975 0.026654 1.53624e-08
1.68913e-07 1.53624e-08 0.0286767

0.0252535 0.00151094 -9.44493e-08
0.00151094 0.0322761 -2.30259e-07
-9.44493e-08 -2.30259e-07 0.0259513

0.0268059 -0.00334474 1.21419e-07
-0.00334474 0.030011 5.80083e-08
1.21419e-07 5.80083e-08 0.0251885

0.0364789 -0.00336073 1.22687e-07
-0.00336073 0.0352887 -2.25287e-08
1.22687e-07 -2.25287e-08 0.0347435

0.0284771 0.00415237 -1.82302e-07
0.00415237 0.0277174 -9.35571e-08
-1.82302e-07 -9.35571e-08 0.0254689

0.037245 -0.00334544 5.09885e-08
-0.00334544 0.0333233 -4.6466e-08
5.09885e-08 -4.6466e-08 0.0346129

0.0322076 0.000337947 -2.19576e-08
0.000337947 0.0248637 -2.07578e-07
-2.19576e-08 -2.07578e-07 0.0254387

0.0191617 -0.00368931 2.3397e-07
-0.00368931 0.0275272 -4.14828e-08
2.3397e-07 -4.14828e-08 0.0163115

0.0292111 -0.00380371 -7.77439e-08
-0.00380371 0.0281936 -1.37575e-07
-7.77439e-08 -1.37575e-07 0.0258089

0.0230467 0.00412756 1.30815e-07
0.00412756 0.0280216 -1.57956e-07
1.30815e-07 -1.57956e-07 0.0175929

0.0296921 -0.00155922 -4.47487e-08
-0.00155922 0.0375348 -4.91145e-08
-4.47487e-08 -4.91145e-08 0.0336498

0.0243611 -0.00179369 1.68424e-07
-0.00179369 0.031874 -1.15237e-07
1.68424e-07 -1.15237e-07 0.0254491

0.0424378 -0.00323419 -1.68333e-07
-0.00323419 0.0423774 1.56994e-08
-1.68333e-07 1.56994e-08 0.0363763

0.0263379 0.00309123 -6.94544e-09
0.00309123 0.0307029 -6.76215e-08
-6.94544e-09 -6.76215e-08 0.0254789

0.0334781 -0.00432337 9.28604e-08
-0.00432337 0.0326607 -2.93868e-08
9.28604e-08 -2.93868e-08 0.0335677

0.0240816 -0.0015508 -1.07765e-07
-0.0015508 0.0318883 9.53351e-08
-1.07765e-07 9.53351e-08 0.0251778

0.0362238 -0.00253875 -7.87376e-08
-0.00253875 0.0295124 1.36243e-07
-7.87376e-08 1.36243e-07 0.0335205

0.0266747 0.00310478 -1.87978e-07
0.00310478 0.0303958 7.41406e-08
-1.87978e-07 7.41406e-08 0.0253142

0.0343442 -0.00065365 4.82563e-09
-0.00065365 0.0272779 -3.09118e-08
4.82563e-09 -3.09118e-08 0.0305788

0.0188911 -0.00387173 1.20315e-07
-0.00387173 0.0298029 2.18654e-07
1.20315e-07 2.18654e-07 0.0129617

0.0280003 0.00275451 1.33404e-07
0.00275451 0.03263 -1.66714e-08
1.33404e-07 -1.66714e-08 0.0305747

0.0314388 -0.00251246 -1.13594e-07
-0.00251246 0.0247231 -1.06148e-07
-1.13594e-07 -1.06148e-07 0.0254068

0.039119 -0.00286912 2.75726e-08
-0.00286912 0.0322221 -1.74853e-07
2.75726e-08 -1.74853e-07 0.0349378

0.0287544 0.00412403 -1.14057e-08
0.00412403 0.0273008 1.33979e-07
-1.14057e-08 1.33979e-07 0.0252563

0.0313623 -0.00391937 1.35587e-07
-0.00391937 0.0285429 -1.02438e-07
1.35587e-07 -1.02438e-07 0.0287318

0.0354096 0.00276402 -9.31641e-08
0.00276402 0.0308565 1.55178e-08
-9.31641e-08 1.55178e-08 0.0330401

0.0297737 -0.00370324 -8.93765e-08
-0.00370324 0.0329389 -1.52804e-08
-8.93765e-08 -1.52804e-08 0.0333432

0.0270559 -0.00341029 -6.91876e-08
-0.00341029 0.0299834 6.09571e-08
-6.91876e-08 6.09571e-08 0.0253982

0.0284417 0.00377142 -1.29562e-07
0.00377142 0.0289405 -1.72845e-07
-1.29562e-07 -1.72845e-07 0.025888

0.0313719 0.00341344 7.35132e-08
0.00341344 0.0268999 9.95855e-08
7.35132e-08 9.95855e-08 0.0269667

0.0365368 -0.00194432 -7.03119e-08
-0.00194432 0.0306258 1.54157e-07
-7.03119e-08 1.54157e-07 0.0336363

0.0255344 -0.00216338 4.50711e-08
-0.00216338 0.0318027 -1.25772e-07
4.50711e-08 -1.25772e-07 0.0258544

0.0347001 -0.00231408 -1.66399e-08
-0.00231408 0.028335 2.22584e-08
-1.66399e-08 2.22584e-08 0.0314566

0.0341863 0.00222325 -1.48651e-07
0.00222325 0.0274324 7.06002e-08
-1.48651e-07 7.06002e-08 0.0306044

0.0336453 -0.00124577 7.27394e-08
-0.00124577 0.0393004 4.61602e-08
7.27394e-08 4.61602e-08 0.0349279

0.032073 -0.00174681 2.37647e-08
-0.00174681 0.0253309 1.56785e-07
2.37647e-08 1.56785e-07 0.0258717

0.0250023 7.98259e-05 1.05538e-07
7.98259e-05 0.0331517 1.37842e-07
1.05538e-07 1.37842e-07 0.0268617

0.0332478 0.00242871 1.73648e-07
0.00242871 0.0271942 -2.61155e-08
1.73648e-07 -2.61155e-08 0.0289227

0.031118 0.00359908 -1.49221e-08
0.00359908 0.027293 -1.49301e-07
-1.49221e-08 -1.49301e-07 0.0271231

0.0252958 -0.00204123 -1.77136e-07
-0.00204123 0.031865 9.37764e-08
-1.77136e-07 9.37764e-08 0.0256116

0.0252016 -0.000154615 -1.17821e-07
-0.000154615 0.0332925 -1.83043e-07
-1.17821e-07 -1.83043e-07 0.0271446

0.0354138 0.00385817 1.55342e-07
0.00385817 0.0329962 -3.32709e-09
1.55342e-07 -3.32709e-09 0.0338959

0.0275863 -0.00143082 -1.88101e-07
-0.00143082 0.0353423 1.13447e-07
-1.88101e-07 1.13447e-07 0.0314426

0.0312344 -0.00348389 -1.28338e-07
-0.00348389 0.026978 5.26271e-08
-1.28338e-07 5.26271e-08 0.0270103

0.0312971 0.00277279 1.49122e-08
0.00277279 0.0249226 -8.60639e-10
1.49122e-08 -8.60639e-10 0.0252466

0.034583 0.00311852 -1.32098e-07
0.00311852 0.0293871 1.016e-07
-1.32098e-07 1.016e-07 0.0317963

0.0279918 0.000716775 -2.26518e-07
0.000716775 0.0360399 1.63511e-08
-2.26518e-07 1.63511e-08 0.0318186

0.028717 0.00378154 1.33189e-07
0.00378154 0.0285596 -1.09341e-07
1.33189e-07 -1.09341e-07 0.0257284

0.0367907 0.0030577 5.69697e-08
0.0030577 0.0361257 -1.69802e-07
5.69697e-08 -1.69802e-07 0.0349075

0.0226806 -0.00754542 7.21986e-08
-0.00754542 0.0186879 2.96981e-07
7.21986e-08 2.96981e-07 0.0108454

0.0332914 -0.00328748 9.94608e-08
-0.00328748 0.028633 -1.05528e-07
9.94608e-08 -1.05528e-07 0.0301245

0.0207271 0.000913421 -1.7172e-07
0.000913421 0.030032 1.77418e-07
-1.7172e-07 1.77418e-07 0.0183467

0.0313007 -0.00378186 1.70994e-07
-0.00378186 0.0292317 -3.92221e-08
1.70994e-07 -3.92221e-08 0.029032

0.00153959 -0.00651887 -1.94618e-08
-0.00651887 0.0275686 8.52678e-08
-1.94618e-08 8.52678e-08 0.00290838

0.00146998 0.00636845 1.07148e-08
0.00636845 0.0275867 4.69448e-08
1.07148e-08 4.69448e-08 0.00300134

0.0119847 0.0145051 -1.6797e-08
0.0145051 0.0175327 -2.10627e-08
-1.6797e-08 -2.10627e-08 0.00277126

0.0121661 -0.0144958 -2.83294e-08
-0.0144958 0.0172241 3.55239e-08
-2.83294e-08 3.55239e-08 0.00280387

0.0293412 -0.000164092 -6.06897e-08
-0.000164092 0 0
-6.06897e-08 0 0.00295269

0.0235925 -0.0112828 1.34306e-07
-0.0112828 0.00539555 -6.46784e-08
1.34306e-07 -6.46784e-08 0.00297838

0.0236345 0.011349 -3.70323e-08
0.011349 0.0054496 -1.78338e-08
-3.70323e-08 -1.78338e-08 0.00303955

0.0369112 0.00191133 -1.75913e-07
0.00191133 0.0302427 -8.22014e-09
-1.75913e-07 -8.22014e-09 0.0338784

0.0387055 0.00340965 -1.79957e-07
0.00340965 0.0366178 3.91644e-08
-1.79957e-07 3.91644e-08 0.035579

0.0344157 0.000872228 -1.2592e-07
0.000872228 0.0274575 -2.06797e-07
-1.2592e-07 -2.06797e-07 0.0316885

0.0328736 0.00285036 1.03615e-07
0.00285036 0.0268898 1.00009e-07
1.03615e-07 1.00009e-07 0.028647

0.0257013 0.00231326 3.33543e-08
0.00231326 0.0323679 -8.58574e-09
3.33543e-08 -8.58574e-09 0.0276363

0.0307135 0.00376903 -5.6425e-08
0.00376903 0.0276769 -8.78318e-08
-5.6425e-08 -8.78318e-08 0.0271183

0.0333063 -0.00390325 -4.92137e-08
-0.00390325 0.0304663 -6.05919e-09
-4.92137e-08 -6.05919e-09 0.0316307

0.030974 0.00365447 5.33827e-08
0.00365447 0.0272875 1.35082e-07
5.33827e-08 1.35082e-07 0.0269259

0.0249877 -0.000371463 -8.86934e-08
-0.000371463 0.0331228 1.3161e-07
-8.86934e-08 1.3161e-07 0.0268439

0.0385485 -0.00348477 2.44603e-07
-0.00348477 0.036881 -9.53247e-08
2.44603e-07 -9.53247e-08 0.0355847

0.0251762 -0.000635582 1.46489e-07
-0.000635582 0.0332111 -1.60615e-07
1.46489e-07 -1.60615e-07 0.0271035

0.0360188 0.00304745 1.27528e-07
0.00304745 0.0330116 7.10258e-08
1.27528e-07 7.10258e-08 0.0340988

0.0296239 0.00347594 -1.99101e-07
0.00347594 0.024847 1.14908e-08
-1.99101e-07 1.14908e-08 0.0230234

0.030497 -0.00171375 9.07477e-08
-0.00171375 0.0375133 -1.64371e-07
9.07477e-08 -1.64371e-07 0.0347373

0.0339212 0.00180452 -2.78036e-07
0.00180452 0.0271824 -3.04047e-08
-2.78036e-07 -3.04047e-08 0.0303213

0.0312021 -0.00392065 -2.94264e-09
-0.00392065 0.028532 -1.57664e-07
-2.94264e-09 -1.57664e-07 0.0286153

0.0315845 -0.00322135 -1.65671e-07
-0.00322135 0.0266925 -1.91906e-08
-1.65671e-07 -1.91906e-08 0.0270485

0.0384801 -0.00214163 1.15531e-07
-0.00214163 0.0334179 7.67458e-08
1.15531e-07 7.67458e-08 0.0347457

0.0326821 0.00366414 1.67617e-07
0.00366414 0.029233 -9.06426e-08
1.67617e-07 -9.06426e-08 0.0301559

0.0326459 0.00313778 1.41347e-07
0.00313778 0.027253 -1.43188e-07
1.41347e-07 -1.43188e-07 0.0287888

0.0269559 -0.000365231 1.7234e-07
-0.000365231 0.0349884 2.61601e-08
1.7234e-07 2.61601e-08 0.0301689

0.0259004 0.000765844 5.91098e-08
0.000765844 0.0340047 1.99798e-07
5.91098e-08 1.99798e-07 0.0288239

0.0327792 0.000345439 -6.67936e-08
0.000345439 0.0248625 -2.10698e-07
-6.67936e-08 -2.10698e-07 0.0274447

0.0313881 -0.000944832 9.12423e-08
-0.000944832 0.0230046 2.60817e-07
9.12423e-08 2.60817e-07 0.0238929

0.0308815 0.00398538 -7.05594e-08
0.00398538 0.0288071 -9.15267e-08
-7.05594e-08 -9.15267e-08 0.028625

0.0331189 -0.00343178 -1.17625e-07
-0.00343178 0.0285416 -1.59007e-07
-1.17625e-07 -1.59007e-07 0.0299702

0.0364132 -0.00282362 -1.03954e-07
-0.00282362 0.0327338 -1.15284e-07
-1.03954e-07 -1.15284e-07 0.034145

0.0292072 -0.0041279 -1.28651e-07
-0.0041279 0.0291934 -6.0268e-08
-1.28651e-07 -6.0268e-08 0.0277548

0.0269731 -0.00362054 2.02843e-07
-0.00362054 0.030466 -7.75443e-08
2.02843e-07 -7.75443e-08 0.0272143

0.0283272 0.00389959 4.76798e-08
0.00389959 0.0299018 1.7949e-07
4.76798e-08 1.7949e-07 0.0277529

0.0259022 -0.0012491 7.72736e-08
-0.0012491 0.033615 -1.30384e-07
7.72736e-08 -1.30384e-07 0.0285169

0.0266554 -0.000202225 1.66583e-07
-0.000202225 0.0349141 3.39823e-08
1.66583e-07 3.39823e-08 0.0299208

0.0277632 0.000752833 1.66673e-07
0.000752833 0.0360393 1.3373e-08
1.66673e-07 1.3373e-08 0.0316591

0.0262481 -0.00274964 -4.83207e-09
-0.00274964 0.0319643 -5.14638e-08
-4.83207e-09 -5.14638e-08 0.0277116

0.0345836 0.00317576 -2.39886e-08
0.00317576 0.0291693 -1.01992e-07
-2.39886e-08 -1.01992e-07 0.0316354

0.0339101 -0.00126103 1.12346e-08
-0.00126103 0.0269312 -1.5028e-08
1.12346e-08 -1.5028e-08 0.0302027

0.0257912 0.000974401 -6.6586e-08
0.000974401 0.0338304 -1.69713e-07
-6.6586e-08 -1.69713e-07 0.0285429

0.0278249 -0.00127006 8.07889e-08
-0.00127006 0.035398 1.68317e-07
8.07889e-08 1.68317e-07 0.031367

0.027294 -0.00213705 -1.38625e-07
-0.00213705 0.0336581 2.1889e-07
-1.38625e-07 2.1889e-07 0.0302266

0.0327785 -0.00107734 1.22717e-08
-0.00107734 0.0253208 1.59684e-07
1.22717e-08 1.59684e-07 0.0272553

0.0333161 -0.00427135 -4.27523e-08
-0.00427135 0.0323813 1.67179e-07
-4.27523e-08 1.67179e-07 0.0335302

0.0264896 0.00121988 1.30526e-07
0.00121988 0.0338365 -1.67277e-07
1.30526e-07 -1.67277e-07 0.028817

0.0398115 -0.00243182 6.68432e-08
-0.00243182 0.0352192 -2.05778e-08
6.68432e-08 -2.05778e-08 0.0354619

0.0188893 0.00316484 2.06103e-08
0.00316484 0.0278771 -1.68128e-07
2.06103e-08 -1.68128e-07 0.0162733

0.0338167 -0.00352276 -1.30756e-07
-0.00352276 0.0334958 2.70346e-08
-1.30756e-07 2.70346e-08 0.0337271

0.0353451 -0.00399951 -1.75019e-07
-0.00399951 0.0330473 4.47629e-08
-1.75019e-07 4.47629e-08 0.0339049

0.0266867 -9.05171e-05 -1.86486e-07
-9.05171e-05 0.0349192 2.58845e-08
-1.86486e-07 2.58845e-08 0.0299289

0.0332439 -0.00217628 1.30762e-07
-0.00217628 0.027154 9.78137e-08
1.30762e-07 9.78137e-08 0.0289036

0.0293485 0.00168474 -7.36621e-08
0.00168474 0.0358203 2.5098e-07
-7.36621e-08 2.5098e-07 0.0328807

0.0132078 -0.000379062 1.17204e-07
-0.000379062 0.0283632 2.19027e-07
1.17204e-07 2.19027e-07 0.0111522

0.0271145 0.00186857 2.02072e-07
0.00186857 0.0340625 -3.30577e-08
2.02072e-07 -3.30577e-08 0.0303072

0.0311102 -0.00385875 8.36215e-08
-0.00385875 0.029155 1.68351e-08
8.36215e-08 1.68351e-08 0.0288073

0.0186203 0.00320474 6.70268e-08
0.00320474 0.0301404 -3.9517e-08
6.70268e-08 -3.9517e-08 0.0131272

0.0426015 0.00351787 2.47605e-07
0.00351787 0.0418486 2.99438e-07
2.47605e-07 2.99438e-07 0.0364811

0.043206 -0.00374868 -6.38458e-07
-0.00374868 0.0414175 6.38133e-07
-6.38458e-07 6.38133e-07 0.0364636

0.0310659 -0.00399086 1.53239e-07
-0.00399086 0.0304719 -1.09574e-08
1.53239e-07 -1.09574e-08 0.030462

0.0289231 -0.00406429 6.15644e-08
-0.00406429 0.0291514 1.6615e-08
6.15644e-08 1.6615e-08 0.0275952

0.0330521 0.00272707 -6.14875e-10
0.00272707 0.0275292 8.34275e-08
-6.14875e-10 8.34275e-08 0.0290763

0.0327806 0.00196009 1.8164e-08
0.00196009 0.025592 1.1912e-07
1.8164e-08 1.1912e-07 0.0278236

0.0463995 0.000418963 4.80777e-07
0.000418963 0.046357 -8.94027e-08
4.80777e-07 -8.94027e-08 0.0366953

0.0469183 -0.00095166 -3.18047e-07
-0.00095166 0.0457697 1.34794e-07
-3.18047e-07 1.34794e-07 0.0367665

0.0348003 0.000638148 -9.40367e-08
0.000638148 0.0275738 -2.34665e-07
-9.40367e-08 -2.34665e-07 0.0322174

0.0277525 0.000882309 1.81086e-07
0.000882309 0.0355718 2.94076e-09
1.81086e-07 2.94076e-09 0.0313494

0.0276084 0.000882874 -2.0682e-07
0.000882874 0.0355719 -8.14011e-09
-2.0682e-07 -8.14011e-09 0.0312455

0.0234598 0.00740022 -2.30935e-07
0.00740022 0.0183024 6.98724e-08
-2.30935e-07 6.98724e-08 0.0109019

0.0272478 -0.00367566 -8.24129e-08
-0.00367566 0.0303483 8.05431e-08
-8.24129e-08 8.05431e-08 0.0273202

0.0365674 0.00239146 -1.01193e-07
0.00239146 0.0295769 -1.03807e-07
-1.01193e-07 -1.03807e-07 0.0337852

0.0332747 0.00124757 6.44331e-08
0.00124757 0.0265049 3.01967e-08
6.44331e-08 3.01967e-08 0.0284326

0.0291533 -0.00349264 8.56612e-10
-0.00349264 0.0304722 -9.44388e-08
8.56612e-10 -9.44388e-08 0.028174

0.0328115 -0.00264778 5.96999e-08
-0.00264778 0.0267287 -1.18382e-08
5.96999e-08 -1.18382e-08 0.0285875

0.0224606 0.00761305 -3.24497e-08
0.00761305 0.0185908 -3.03966e-07
-3.24497e-08 -3.03966e-07 0.0109043

0.0331455 0.00410243 3.72703e-08
0.00410243 0.0326387 9.76699e-08
3.72703e-08 9.76699e-08 0.0331824

0.0258908 -0.00257843 2.67076e-08
-0.00257843 0.0320248 -2.41352e-07
2.67076e-08 -2.41352e-07 0.0275081

0.0324832 0.00378594 4.67049e-09
0.00378594 0.0292688 1.30546e-07
4.67049e-09 1.30546e-07 0.0301476

0.0268167 -0.000543597 -1.74773e-07
-0.000543597 0.0349534 -9.32104e-09
-1.74773e-07 -9.32104e-09 0.0301386

0.0269906 0.00256352 2.36847e-07
0.00256352 0.0324491 -8.4376e-08
2.36847e-07 -8.4376e-08 0.0282871

0.030527 0.00399104 5.43735e-08
0.00399104 0.0293239 1.35001e-07
5.43735e-08 1.35001e-07 0.0287758

0.0276094 -0.00293724 -1.58183e-07
-0.00293724 0.0318549 -7.86942e-08
-1.58183e-07 -7.86942e-08 0.0282497

0.0294568 -0.0035759 -4.50171e-08
-0.0035759 0.030352 8.30344e-08
-4.50171e-08 8.30344e-08 0.0283057

0.0181381 0.00142544 -2.98453e-08
0.00142544 0.0280369 9.96591e-08
-2.98453e-08 9.96591e-08 0.0131279

0.0234743 -0.00429404 5.93432e-09
-0.00429404 0.0275568 -3.53429e-08
5.93432e-09 -3.53429e-08 0.0177238

0.0262061 -0.00152608 -8.94486e-08
-0.00152608 0.0336245 1.82297e-07
-8.94486e-08 1.82297e-07 0.0287525

0.0330246 0.0034749 1.32093e-07
0.0034749 0.0288786 -1.0894e-07
1.32093e-07 -1.0894e-07 0.0300695

0.0303224 0.0038575 1.67111e-08
0.0038575 0.029887 1.77606e-07
1.67111e-08 1.77606e-07 0.0289909

0.0274152 -0.00280074 1.21079e-07
-0.00280074 0.0319844 -2.34644e-07
1.21079e-07 -2.34644e-07 0.0281397

0.0265552 -0.00154074 8.65564e-08
-0.00154074 0.0335834 -1.29939e-07
8.65564e-08 -1.29939e-07 0.0287469

0.030957 0.00371849 -1.72513e-07
0.00371849 0.0295641 1.0859e-07
-1.72513e-07 1.0859e-07 0.0289418

0.0267599 -0.0018163 1.086e-07
-0.0018163 0.0334749 2.24731e-07
1.086e-07 2.24731e-07 0.0289549

0.0191664 0.00355465 -2.20893e-07
0.00355465 0.0276084 -1.60639e-07
-2.20893e-07 -1.60639e-07 0.0162925

0.030874 -0.000534916 1.02219e-07
-0.000534916 0.0388198 -1.1562e-07
1.02219e-07 -1.1562e-07 0.0342949

0.028657 0.004048 2.45062e-07
0.004048 0.0295192 6.18115e-08
2.45062e-07 6.18115e-08 0.0277151

0.0355813 0.00197524 1.6682e-07
0.00197524 0.0295035 8.61102e-08
1.6682e-07 8.61102e-08 0.0328432

0.0362595 -0.00211506 -1.33137e-07
-0.00211506 0.029756 -2.03744e-08
-1.33137e-07 -2.03744e-08 0.0332184

0.0285113 -0.00309587 2.37524e-08
-0.00309587 0.0185692 -1.14007e-07
2.37524e-08 -1.14007e-07 0.0157302

0.0283542 -0.00279015 -2.25918e-07
-0.00279015 0.0327761 -3.26605e-09
-2.25918e-07 -3.26605e-09 0.0305722

0.0291915 0.00350102 -1.44114e-07
0.00350102 0.0316006 -1.22975e-07
-1.44114e-07 -1.22975e-07 0.030488

0.0349606 -0.00290708 -5.54944e-08
-0.00290708 0.0376764 1.27487e-07
-5.54944e-08 1.27487e-07 0.0352366

0.0394603 0.00188458 1.86729e-07
0.00188458 0.0446082 6.49616e-08
1.86729e-07 6.49616e-08 0.0364333

0.0449441 0.00129033 -1.66099e-07
0.00129033 0.0391164 -4.73003e-08
-1.66099e-07 -4.73003e-08 0.0364153

0.0355609 0.00434541 -2.10253e-07
0.00434541 0.0351351 -1.7397e-07
-2.10253e-07 -1.7397e-07 0.0350039

0.0265724 0.00338802 1.33425e-07
0.00338802 0.0310071 1.87442e-07
1.33425e-07 1.87442e-07 0.0272564

0.0330402 0.00349737 7.16753e-08
0.00349737 0.0286674 4.29573e-08
7.16753e-08 4.29573e-08 0.0300507

0.0220602 0.0057644 -7.1774e-08
0.0057644 0.024238 6.0574e-08
-7.1774e-08 6.0574e-08 0.0160727

0.0386184 -0.00151226 -1.60291e-08
-0.00151226 0.0444332 8.65877e-08
-1.60291e-08 8.65877e-08 0.0363625

0.0460479 -0.000463607 2.93608e-08
-0.000463607 0.0454374 1.26519e-07
2.93608e-08 1.26519e-07 0.0366914

0.0451798 -3.08504e-05 -1.10509e-07
-3.08504e-05 0.0463011 -4.13111e-07
-1.10509e-07 -4.13111e-07 0.0366734

0.0176412 -0.00679513 -5.47208e-08
-0.00679513 0.0231088 -1.31368e-07
-5.47208e-08 -1.31368e-07 0.0107388

0.0392931 -0.00155616 -1.46824e-07
-0.00155616 0.0387146 -3.20515e-08
-1.46824e-07 -3.20515e-08 0.035854

0.0383969 0.00117696 1.5896e-07
0.00117696 0.0415182 7.33175e-08
1.5896e-07 7.33175e-08 0.0361254

0.0331756 -0.00343589 -1.10031e-08
-0.00343589 0.0282202 8.70568e-08
-1.10031e-08 8.70568e-08 0.0299041

0.031845 0.00014048 -8.77648e-08
0.00014048 0.0386725 -9.63274e-08
-8.77648e-08 -9.63274e-08 0.0344509

0.0285773 -0.0026604 4.49554e-08
-0.0026604 0.0333811 -1.41881e-08
4.49554e-08 -1.41881e-08 0.0315899

0.0356629 0.000831701 1.96242e-07
0.000831701 0.0273783 -1.68753e-08
1.96242e-07 -1.68753e-08 0.0330007

0.0288766 0.00204429 2.28744e-07
0.00204429 0.036817 2.03548e-07
2.28744e-07 2.03548e-07 0.0336702

0.0298699 0.000946322 -3.33068e-08
0.000946322 0.0373886 2.01651e-07
-3.33068e-08 2.01651e-07 0.0333641

0.034402 0.00268525 5.0437e-08
0.00268525 0.028852 4.57174e-08
5.0437e-08 4.57174e-08 0.0312269

0.0132794 -0.000409333 -1.22065e-07
-0.000409333 0.0281235 -1.13781e-07
-1.22065e-07 -1.13781e-07 0.0112016

0.0309652 -0.00362613 -1.85544e-07
-0.00362613 0.0309161 9.78739e-08
-1.85544e-07 9.78739e-08 0.0306102

0.0329289 -0.00344345 -6.06206e-08
-0.00344345 0.0320216 3.46887e-08
-6.06206e-08 3.46887e-08 0.0325799

0.0335716 -0.00415935 1.34486e-07
-0.00415935 0.0325353 1.31111e-07
1.34486e-07 1.31111e-07 0.0337363

0.0265626 0.00414872 -9.22403e-08
0.00414872 0.0176918 -1.22377e-07
-9.22403e-08 -1.22377e-07 0.0126055

0.0388284 -0.00269658 -1.41846e-07
-0.00269658 0.0395765 3.66203e-07
-1.41846e-07 3.66203e-07 0.0359588

0.0230834 0.006921 -1.83034e-07
0.006921 0.0255026 -8.84923e-08
-1.83034e-07 -8.84923e-08 0.0126098

0.0308755 -0.00281742 3.00467e-07
-0.00281742 0.0348081 5.39321e-08
3.00467e-07 5.39321e-08 0.0339569

0.0354126 0.00193661 1.1669e-07
0.00193661 0.0284664 1.38961e-07
1.1669e-07 1.38961e-07 0.0323452

0.031822 -0.00189356 1.33477e-07
-0.00189356 0.0249513 1.91968e-07
1.33477e-07 1.91968e-07 0.0253961

0.0292929 0.00315924 -1.62764e-07
0.00315924 0.0327324 -6.88052e-08
-1.62764e-07 -6.88052e-08 0.0312803

0.0344376 0.00268871 -4.93535e-08
0.00268871 0.0286351 2.82573e-07
-4.93535e-08 2.82573e-07 0.0312215

0.0325192 0.00149904 3.96679e-08
0.00149904 0.0403736 1.84663e-07
3.96679e-08 1.84663e-07 0.0353371

0.0319412 -0.00415473 2.1953e-07
-0.00415473 0.0312022 -1.15801e-07
2.1953e-07 -1.15801e-07 0.0318113

0.0396771 0.0026552 -9.66441e-08
0.0026552 0.0331987 -4.87021e-08
-9.66441e-08 -4.87021e-08 0.0353165

0.0279721 -0.00241877 -1.69635e-07
-0.00241877 0.0335517 2.14028e-07
-1.69635e-07 2.14028e-07 0.0304712

0.0293516 0.000558762 -1.02558e-07
0.000558762 0.0373124 1.94299e-07
-1.02558e-07 1.94299e-07 0.0332532

0.0419438 0.00133751 3.75758e-08
0.00133751 0.0371003 1.09923e-08
3.75758e-08 1.09923e-08 0.0361167

0.0420978 -0.00114828 1.09422e-07
-0.00114828 0.0373264 -1.09367e-07
1.09422e-07 -1.09367e-07 0.0360987

0.0283839 0.00236903 1.40483e-07
0.00236903 0.018182 -1.57515e-07
1.40483e-07 -1.57515e-07 0.0159502

0.0350268 0.00106145 1.08122e-07
0.00106145 0.0285668 1.39544e-07
1.08122e-07 1.39544e-07 0.0330597

0.0128672 0.000923427 -1.3369e-07
0.000923427 0.0316272 -2.03907e-08
-1.3369e-07 -2.03907e-08 0.00612189

0.0131628 -0.00138807 1.11051e-07
-0.00138807 0.0321329 -4.21518e-08
1.11051e-07 -4.21518e-08 0.00611221

0.0152691 0.0071544 -8.44525e-09
0.0071544 0.0284537 -5.08489e-08
-8.44525e-09 -5.08489e-08 0.00598432

0.034765 -0.00382131 -3.09583e-08
-0.00382131 0.0312688 -1.60357e-07
-3.09583e-08 -1.60357e-07 0.0329398

0.0155811 -0.00619456 -7.55309e-08
-0.00619456 0.0261536 1.85964e-08
-7.55309e-08 1.85964e-08 0.0104723

0.0155132 -0.00708696 -6.95158e-08
-0.00708696 0.0274241 -1.11274e-07
-6.95158e-08 -1.11274e-07 0.00591413

0.0284268 0.00342565 4.20439e-08
0.00342565 0.0310074 1.87253e-07
4.20439e-08 1.87253e-07 0.0281535

0.0251939 0.0093261 1.8616e-07
0.0093261 0.0190213 -5.95991e-08
1.8616e-07 -5.95991e-08 0.00593403

0.0365384 0.00173195 -2.08336e-07
0.00173195 0.0385518 2.72693e-09
-2.08336e-07 2.72693e-09 0.0354758

0.0395353 2.54034e-05 -2.35256e-07
2.54034e-05 0.0355399 1.22643e-08
-2.35256e-07 1.22643e-08 0.0354564

0.026108 -0.00924461 2.77277e-07
-0.00924461 0.0188129 9.97059e-08
2.77277e-07 9.97059e-08 0.0058882

0.0276907 -0.00306527 -1.58729e-07
-0.00306527 0.032096 2.35118e-07
-1.58729e-07 2.35118e-07 0.0296236

0.0262558 0.00441834 -1.32579e-07
0.00441834 0.0201586 3.26212e-08
-1.32579e-07 3.26212e-08 0.013045

0.0172797 0.00797322 1.32463e-07
0.00797322 0.0271497 8.31493e-08
1.32463e-07 8.31493e-08 0.005988

0.0181967 0.00275525 -5.85971e-08
0.00275525 0.0275904 1.04442e-07
-5.85971e-08 1.04442e-07 0.0128504

0.0173046 -0.00827653 -1.20997e-07
-0.00827653 0.027153 1.16816e-07
-1.20997e-07 1.16816e-07 0.00581396

0.0179334 -0.00157099 9.79866e-08
-0.00157099 0.0280063 -2.34054e-07
9.79866e-08 -2.34054e-07 0.0126909

0.0370506 0.000923247 -3.61602e-08
0.000923247 0.0413003 1.30801e-07
-3.61602e-08 1.30801e-07 0.0358106

0.0221318 -0.00585535 2.55936e-07
-0.00585535 0.0236652 -2.08145e-07
2.55936e-07 -2.08145e-07 0.0151593

0.0157005 0.00598634 3.88316e-08
0.00598634 0.0259031 -1.19015e-07
3.88316e-08 -1.19015e-07 0.0107505

0.0302093 0.0047301 6.36704e-08
0.0047301 0.0143496 2.15728e-07
6.36704e-08 2.15728e-07 0.00611603

0.0329389 -0.00384931 -1.09706e-07
-0.00384931 0.0301246 3.21539e-07
-1.09706e-07 3.21539e-07 0.031052

0.0308893 0.001694 -8.88431e-08
0.001694 0.0368435 2.17306e-07
-8.88431e-08 2.17306e-07 0.0339509

0.0260906 -0.0048441 -1.56211e-07
-0.0048441 0.0191978 3.12378e-07
-1.56211e-07 3.12378e-07 0.0126954

0.0330011 -0.00378593 -2.31412e-07
-0.00378593 0.0300757 3.29816e-08
-2.31412e-07 3.29816e-08 0.0311283

0.0300197 -0.00452003 1.29961e-07
-0.00452003 0.0130539 -3.30539e-07
1.29961e-07 -3.30539e-07 0.00603747

0.0324741 -0.0037277 1.65427e-07
-0.0037277 0.0313083 -1.95234e-07
1.65427e-07 -1.95234e-07 0.0319801

0.0280919 -0.00331125 -2.22709e-07
-0.00331125 0.0320047 5.72876e-09
-2.22709e-07 5.72876e-09 0.0296261

0.0234441 0.0087438 -2.8814e-08
0.0087438 0.0204833 2.31918e-07
-2.8814e-08 2.31918e-07 0.00602633

0.0182001 -0.00292088 -2.38798e-07
-0.00292088 0.0268672 -3.70564e-07
-2.38798e-07 -3.70564e-07 0.0122703

0.0233151 -0.00901948 1.13369e-07
-0.00901948 0.0201525 3.42446e-07
1.13369e-07 3.42446e-07 0.00588415

0.0170829 0.00640844 3.95615e-08
0.00640844 0.0235667 1.04533e-08
3.95615e-08 1.04533e-08 0.0108313

0.0308268 -0.00396024 -1.11567e-07
-0.00396024 0.0301608 3.2142e-07
-1.11567e-07 3.2142e-07 0.0300863

0.0389184 -0.00195877 1.79636e-08
-0.00195877 0.0369412 -6.73331e-08
1.79636e-08 -6.73331e-08 0.0355

0.045541 0.00150699 -2.64074e-07
0.00150699 0.0449528 -3.40731e-07
-2.64074e-07 -3.40731e-07 0.0366196

0.0435642 -0.00071153 2.14333e-07
-0.00071153 0.0462302 -4.43356e-08
2.14333e-07 -4.43356e-08 0.0365853

0.0286163 0.00171588 9.07706e-08
0.00171588 0.0355673 -1.71968e-07
9.07706e-08 -1.71968e-07 0.0323903

0.0453363 -0.00144812 2.42983e-07
-0.00144812 0.0449806 1.7699e-07
2.42983e-07 1.7699e-07 0.0366373

0.0438085 0.000567791 1.86593e-08
0.000567791 0.0465063 1.77356e-07
1.86593e-08 1.77356e-07 0.0366185

0.0466785 0.000991456 -1.03402e-07
0.000991456 0.0433779 2.39141e-08
-1.03402e-07 2.39141e-08 0.0365935

0.0397507 -0.00163869 1.33075e-07
-0.00163869 0.0460745 1.52707e-07
1.33075e-07 1.52707e-07 0.0364834

0.0190544 -0.00388748 -4.51519e-07
-0.00388748 0.0272314 6.4019e-08
-4.51519e-07 6.4019e-08 0.0154716

0.0421415 -0.00175041 -1.48963e-07
-0.00175041 0.0367259 -3.36875e-08
-1.48963e-07 -3.36875e-08 0.0360053

0.0359654 -0.00457316 6.45642e-08
-0.00457316 0.0351508 -3.46985e-07
6.45642e-08 -3.46985e-07 0.0349687

0.0397536 -0.00242168 1.33322e-07
-0.00242168 0.0360642 -3.27763e-07
1.33322e-07 -3.27763e-07 0.0355678

0.0351858 0.00204336 -2.00434e-09
0.00204336 0.0285497 2.85865e-07
-2.00434e-09 2.85865e-07 0.0322326

0.0396927 0.0013378 2.32154e-07
0.0013378 0.0472248 1.90967e-07
2.32154e-07 1.90967e-07 0.0365491

0.0464969 0.00259357 -1.92842e-07
0.00259357 0.0404189 -3.37956e-07
-1.92842e-07 -3.37956e-07 0.0365304

0.0400871 0.00150551 -8.39316e-08
0.00150551 0.0366741 -2.24114e-07
-8.39316e-08 -2.24114e-07 0.0356158

0.0279151 -0.00191999 -2.51951e-07
-0.00191999 0.0125249 -2.91378e-07
-2.51951e-07 -2.91378e-07 0.0106248

0.0283197 0.00326764 -2.0929e-08
0.00326764 0.0315507 -7.51791e-08
-2.0929e-08 -7.51791e-08 0.0294114

0.0231887 -0.00773627 9.34637e-08
-0.00773627 0.0181804 3.60252e-07
9.34637e-08 3.60252e-07 0.0102897

0.0228313 -0.00731596 6.361e-10
-0.00731596 0.0257692 2.79834e-08
6.361e-10 2.79834e-08 0.0119549

0.0290231 -0.00464713 -3.41162e-07
-0.00464713 0.0191287 -4.57928e-08
-3.41162e-07 -4.57928e-08 0.0126154

0.0375746 -0.000660744 -2.23314e-07
-0.000660744 0.0449128 2.42661e-07
-2.23314e-07 2.42661e-07 0.0362943

0.0375725 0.0003582 -1.41392e-09
0.0003582 0.04479 -2.9789e-07
-1.41392e-09 -2.9789e-07 0.0362746

0.0426052 -0.00327425 1.45852e-07
-0.00327425 0.0394501 -2.4541e-07
1.45852e-07 -2.4541e-07 0.0362284

0.0429982 -0.00294456 -1.53254e-07
-0.00294456 0.0391689 -2.88224e-08
-1.53254e-07 -2.88224e-08 0.0362354

0.0425024 0.00350438 6.67831e-08
0.00350438 0.0399728 5.80214e-08
6.67831e-08 5.80214e-08 0.0362732

0.0443965 0.00041593 -1.06339e-07
0.00041593 0.0450803 3.26219e-07
-1.06339e-07 3.26219e-07 0.0366365

0.0426089 -0.00274437 -1.88125e-07
-0.00274437 0.039508 1.88918e-07
-1.88125e-07 1.88918e-07 0.03629

0.0426027 -0.00251107 -3.96882e-07
-0.00251107 0.0442679 -5.79818e-07
-3.96882e-07 -5.79818e-07 0.0365641

0.0451177 0.000331751 1.1192e-07
0.000331751 0.0454673 3.35358e-07
1.1192e-07 3.35358e-07 0.0366548

0.0436367 -0.00278301 -5.40482e-08
-0.00278301 0.0389172 -1.08094e-08
-5.40482e-08 -1.08094e-08 0.0363306

0.0435124 0.00283864 9.07839e-09
0.00283864 0.0390697 -1.4413e-07
9.07839e-09 -1.4413e-07 0.0363687

0.0451938 -0.000471138 -1.42429e-07
-0.000471138 0.045582 1.48182e-07
-1.42429e-07 1.48182e-07 0.0367035

0.0452249 -0.000423089 8.54988e-07
-0.000423089 0.0443589 -1.11595e-06
8.54988e-07 -1.11595e-06 0.0367218

0.0427994 0.0016381 2.71611e-07
0.0016381 0.0442502 -1.40108e-07
2.71611e-07 -1.40108e-07 0.0366079

0.0411169 0.00361856 -4.05542e-09
0.00361856 0.0405167 -1.15569e-07
-4.05542e-09 -1.15569e-07 0.0363225

SCALARS pressure float
LOOKUP_TABLE default
-60.0548
19.3089
5.80453
21.2907
15.879
5.8885
-58.6779
7.78407
-3.80396
15.1252
-24.4336
7.61822
5.59299
12.2801
23.3373
5.53989
18.5213
13.2083
-0.691706
6.75786
-0.903873
33.1313
5.80205
5.79805
6.60311
14.9038
-38.3871
6.67291
-15.2421
30.6239
5.17724
-15.6569
-42.0584
27.3248
20.778
27.3577
31.8821
19.808
4.86054
-42.6017
-17.4073
31.9029
31.991
5.99445
-21.8057
-15.9756
-1.05135
-3.4046
6.54601
-16.2177
-18.9188
-15.3455
20.7553
-15.3728
20.3085
-33.1499
21.1284
-15.4599
21.1383
7.04616
21.7652
16.119
-45.5639
12.7901
16.3622
10.9058
21.5745
13.8291
5.7747
21.8176
20.8114
20.782
-17.6909
11.6013
3.97491
-31.6114
14.3568
10.997
14.1472
-8.71928
-28.9455
14.9775
20.1635
-22.0383
-23.4297
-28.093
7.09899
9.6331
-22.2164
37.738
-15.5086
38.4406
18.3044
10.7623
-15.1662
-15.8726
-30.2221
14.754
14.3658
4.59963
-10.7656
-21.9396
-25.1021
16.2138
14.1013
14.9622
18.6979
3.77571
-24.5589
26.513
7.21883
-21.4095
-24.6126
14.8389
15.0786
-16.1453
20.1638
-29.114
20.6274
-16.729
-2.90369
23.8335
21.7277
16.0333
26.6797
22.6316
21.7845
15.7091
-29.7817
-16.0986
24.0911
21.618
20.9896
22.0663
-22.0139
23.5857
-33.8384
5.4643
21.7546
23.629
-21.9369
6.67721
-5.96586
15.0845
-30.4083
15.6247
7.83425
2.40859
5.17872
-9.3938
-0.456974
22.6421
-15.4544
5.29189
15.2051
21.5612
11.5089
-21.1133
-21.2638
10.7915
-2.8419
-15.1973
-21.221
-15.1651
-20.9865
15.2803
-20.6358
-21.2016
-15.2076
-21.0638
19.0042
-15.9406
-14.8243
12.0651
-14.4843
18.8033
19.0532
7.47375
18.0477
11.774
-16.2489
15.2888
14.9615
-21.5285
10.4272
-14.2211
16.049
14.5961
17.0818
14.8357
10.3445
-26.9769
-16.0819
-15.958
21.9076
14.5269
14.6257
20.923
22.4875
9.50342
21.7344
-0.383634
-8.17013
20.7792
-17.8387
19.9459
10.3649
-21.5176
15.7215
22.5267
14.7314
9.39435
14.1909
21.0559
-7.83213
8.82834
-7.90795
14.6488
26.9276
26.5813
27.9604
26.3885
26.7242
26.2909
13.8268
23.4298
24.029
23.9732
23.3995
21.1924
21.857
-8.26222
15.9343
28.1911
-3.18798
23.5756
23.2049
27.8344
-8.49295
28.0964
15.3452
-7.58094
17.4924
-8.25719
20.2275
29.6127
-7.48532
-8.10014
-29.5927
-18.1892
19.5276
-31.9864
5.73509
-7.79333
-1.18857
28.2492
26.6402
30.4244
26.7609
-34.802
-8.17904
28.3374
8.07377
-8.29457
26.4459
-6.29464
30.4693
-7.95346
27.047
14.5664
14.7881
23.8447
10.0482
18.0208
8.11789
-29.8609
-24.5539
16.8068
1.76051
8.18041
-13.6084
17.4361
11.7004
-8.1009
9.45283
-10.8229
7.51773
-10.7541
-8.48415
33.2618
19.1515
25.0879
25.3122
13.83
-10.404
26.4286
14.6854
-1.65828
-10.2733
-12.5638
17.5065
-7.48459
17.5745
-12.0408
-21.3511
-10.6077
-34.6823
15.563
-7.76234
34.4397
-11.5775
16.872
-8.40817
15.9731
-12.7579
4.28978
-51.1205
8.52265
-7.74601
21.3337
-8.15154
-0.122083
10.7158
21.1248
-12.0602
-10.2002
-6.06766
14.3185
-10.1795
6.88861
6.38661
16.3053
-10.419
-6.3298
-1.70168
-5.65986
-11.078
-5.8441
15.3059
7.80864
-5.55545
-8.9599
7.806
7.69484
-10.6741
16.3092
-27.2155
2.29373
-28.4819
-0.956941
-8.88198
-8.10022
-11.783
-10.9467
-9.88489
-7.77985
-7.90322
16.6383
24.777
12.1169
-0.290924
-0.824416
-5.67402
7.30577
-6.32014
-6.31743
24.9227
-5.72944
14.1182
-15.9081
24.3247
5.96895
-0.390487
-5.64331
16.275
2.47771
0.199743
2.4487
0.456628
-0.740111
-9.9298
-0.0948995
2.11388
15.069
-1.28758
-1.40645
-0.998123
-0.387918
1.96591
8.05134
-1.19287
8.07878
5.584
-0.434968
7.03592
5.49103
-3.87591
16.477
-1.90285
23.0613
-21.9741
15.0446
15.6827
2.04027
-1.99697
12.5435
-26.508
5.79306
-1.65737
-50.4848
30.4963
30.6329
5.8257
-1.14365
-1.04626
-0.848971
33.4157
33.2904
13.0955
6.08246
6.66306
-28.9642
-1.27871
16.5338
-3.1822
-4.34765
-0.0162632
-25.2727
14.3039
-1.27949
2.86242
2.69381
-2.7227
-0.0486673
-3.20896
-4.03309
-37.984
-33.6842
-0.127374
1.87505
-0.533513
-3.74369
-1.93604
-1.87721
-0.923737
-21.908
17.2496
-0.768593
12.5658
14.1842
-26.7649
6.28692
7.13759
18.4778
36.4255
36.4579
22.6385
-1.75511
2.60029
-20.9302
36.1242
32.7571
32.8241
-24.8101
21.7745
30.5218
2.59979
15.724
10.372
17.1649
17.7265
12.506
5.68202
-25.3994
4.26063
10.4098
16.2443
-31.7113
28.3085
-52.712
18.6854
10.2995
-10.6269
7.41792
5.45766
24.474
9.41171
24.407
4.10574
12.4002
30.6391
29.4649
-22.9907
17.4361
-70.233
-74.3795
-67.1769
11.6488
-31.2615
-63.6103
-3.80298
-69.9384
16.4629
16.4066
-73.7547
5.213
-39.7312
-70.739
-37.7571
-71.8754
-39.4527
21.1359
-23.9608
-29.0454
-70.6228
4.83196
15.7579
-36.191
6.05415
-63.6179
9.83655
3.88248
-67.9014
-37.6248
-66.4109
-23.7567
5.02984
20.5255
35.3689
36.7246
11.8127
36.8484
36.9017
36.4901
36.4027
-24.4795
28.2472
20.6691
21.98
11.5353
36.0586
36.0901
18.1196
-23.9416
3.24729
-30.5278
-56.5983
-50.4752
36.1419
35.8227
35.3794
35.4496
36.1579
35.5968
33.1086
37.3691
35.3981
36.0047
35.637
34.1947
34.3312
35.8547
35.3084
