# vtk DataFile Version 3.0
vtk output at time 350
ASCII
DATASET UNSTRUCTURED_GRID
POINTS 626 float
-3.68058e-05 0.000978749 0 3.68058e-05 0.000978749 0 -0.000829194 0.00052125 0 
-0.0008235 0.0005 0 -0.000866 0.0004575 0 -0.000866 -0.0004575 0 
-0.0008235 -0.0005 0 -0.000829194 -0.00052125 0 -3.68058e-05 -0.000978749 0 
3.68058e-05 -0.000978749 0 0.000829194 -0.00052125 0 0.000866 -0.0004575 0 
0.000866 0.0004575 0 0.000829194 0.00052125 0 8.5e-05 0 0 
-3.68058e-05 0.000978749 -0.001 3.68058e-05 0.000978749 -0.001 -0.000829194 0.00052125 -0.001 
-0.0008235 0.0005 -0.001 -0.000866 0.0004575 -0.001 -0.000866 -0.0004575 -0.001 
-0.0008235 -0.0005 -0.001 -0.000829194 -0.00052125 -0.001 -3.68058e-05 -0.000978749 -0.001 
3.68058e-05 -0.000978749 -0.001 0.000829194 -0.00052125 -0.001 0.000866 -0.0004575 -0.001 
0.000866 0.0004575 -0.001 0.000829194 0.00052125 -0.001 8.5e-05 0 -0.001 
8.46223e-17 0.0009575 0 -0.000715996 0.000586607 0 -0.000602797 0.000651965 0 
-0.000489599 0.000717321 0 -0.000376401 0.000782678 0 -0.000263202 0.000848036 0 
-0.000150004 0.000913393 0 -0.000835948 0.000469948 0 -0.000866 -0.000326786 0 
-0.000866 -0.000196071 0 -0.000866 -6.53571e-05 0 -0.000866 6.53571e-05 0 
-0.000866 0.000196071 0 -0.000866 0.000326786 0 -0.000835948 -0.000469948 0 
-0.000150004 -0.000913393 0 -0.000263202 -0.000848036 0 -0.000376401 -0.000782678 0 
-0.000489599 -0.000717321 0 -0.000602797 -0.000651965 0 -0.000715996 -0.000586607 0 
8.47648e-17 -0.0009575 0 0.000715996 -0.000586607 0 0.000602797 -0.000651965 0 
0.000489599 -0.000717321 0 0.000376401 -0.000782678 0 0.000263202 -0.000848036 0 
0.000150004 -0.000913393 0 0.000829194 -0.00047875 0 0.000866 0.000326786 0 
0.000866 0.000196071 0 0.000866 6.53571e-05 0 0.000866 -6.53571e-05 0 
0.000866 -0.000196071 0 0.000866 -0.000326786 0 0.000829194 0.00047875 0 
0.000150004 0.000913393 0 0.000263202 0.000848036 0 0.000376401 0.000782678 0 
0.000489599 0.000717321 0 0.000602797 0.000651965 0 0.000715996 0.000586607 0 
5.29966e-05 6.64557e-05 0 -1.89143e-05 8.28689e-05 0 -7.65824e-05 3.68801e-05 0 
-7.65824e-05 -3.68801e-05 0 -1.89143e-05 -8.28689e-05 0 5.29966e-05 -6.64557e-05 0 
8.46223e-17 0.0009575 -0.001 -0.000715996 0.000586607 -0.001 -0.000602797 0.000651965 -0.001 
-0.000489599 0.000717321 -0.001 -0.000376401 0.000782678 -0.001 -0.000263202 0.000848036 -0.001 
-0.000150004 0.000913393 -0.001 -0.000835948 0.000469948 -0.001 -0.000866 -0.000326786 -0.001 
-0.000866 -0.000196071 -0.001 -0.000866 -6.53571e-05 -0.001 -0.000866 6.53571e-05 -0.001 
-0.000866 0.000196071 -0.001 -0.000866 0.000326786 -0.001 -0.000835948 -0.000469948 -0.001 
-0.000150004 -0.000913393 -0.001 -0.000263202 -0.000848036 -0.001 -0.000376401 -0.000782678 -0.001 
-0.000489599 -0.000717321 -0.001 -0.000602797 -0.000651965 -0.001 -0.000715996 -0.000586607 -0.001 
8.47648e-17 -0.0009575 -0.001 0.000715996 -0.000586607 -0.001 0.000602797 -0.000651965 -0.001 
0.000489599 -0.000717321 -0.001 0.000376401 -0.000782678 -0.001 0.000263202 -0.000848036 -0.001 
0.000150004 -0.000913393 -0.001 0.000829194 -0.00047875 -0.001 0.000866 0.000326786 -0.001 
0.000866 0.000196071 -0.001 0.000866 6.53571e-05 -0.001 0.000866 -6.53571e-05 -0.001 
0.000866 -0.000196071 -0.001 0.000866 -0.000326786 -0.001 0.000829194 0.00047875 -0.001 
0.000150004 0.000913393 -0.001 0.000263202 0.000848036 -0.001 0.000376401 0.000782678 -0.001 
0.000489599 0.000717321 -0.001 0.000602797 0.000651965 -0.001 0.000715996 0.000586607 -0.001 
5.29966e-05 6.64557e-05 -0.001 -1.89143e-05 8.28689e-05 -0.001 -7.65824e-05 3.68801e-05 -0.001 
-7.65824e-05 -3.68801e-05 -0.001 -1.89143e-05 -8.28689e-05 -0.001 5.29966e-05 -6.64557e-05 -0.001 
0.000131234 6.38474e-05 0 0.00012964 -6.2443e-05 0 3.13827e-05 0.0001394 0 
3.12554e-05 -0.000136939 0 -0.000140461 8.25467e-19 0 -8.90565e-05 -0.000102707 0 
-9.04142e-05 0.000102872 0 -0.000765769 -0.00025965 0 -0.000756873 0.000262774 0 
-0.00015609 0.000787505 0 -0.000155807 -0.00079355 0 0.000605069 0.000528035 0 
0.000608694 -0.00052497 0 0.000744069 0.000116929 0 -0.000494418 0.000596218 0 
-0.000483866 -0.000584648 0 0.000269496 0.000702219 0 0.000263201 -0.000717324 0 
0.000754429 -0.000127825 0 -0.000748858 5.84659e-07 0 -0.000747838 0.000373886 0 
-0.0006542 0.000324842 0 -0.000645137 0.000210123 0 -0.000550884 0.000274171 0 
-0.000538857 0.000163195 0 -0.00045062 0.000224461 0 -0.000438393 0.000123907 0 
-0.000354088 0.000181668 0 -0.000363908 0.000282171 0 -0.000270361 0.000239477 0 
-0.000279138 0.000337653 0 -0.000188888 0.000294791 0 -0.000196448 0.000393271 0 
-0.000104767 0.000348259 0 -0.000113332 0.000449012 0 -2.01066e-05 0.000403223 0 
-2.89189e-05 0.000507105 0 6.9524e-05 0.000461596 0 -0.000213644 0.000490203 0 
7.33757e-05 0.000357726 0 0.000163331 0.00041299 0 0.000163359 0.000313022 0 
0.000248077 0.000366368 0 0.000250914 0.000265758 0 0.000335709 0.000322266 0 
0.000340555 0.000218148 0 0.000427299 0.000276717 0 0.000431508 0.000173093 0 
0.000328731 0.000425633 0 0.00034586 0.000114823 0 0.000435362 7.05241e-05 0 
0.000350892 1.5455e-05 0 0.000441547 -3.11896e-05 0 0.000353547 -8.47783e-05 0 
0.000445767 -0.000132964 0 0.000356135 -0.000186358 0 0.000449094 -0.000234674 0 
0.000359978 -0.000287876 0 0.00026856 -0.000240545 0 0.000271895 -0.000341045 0 
0.000181792 -0.00029305 0 0.00018533 -0.000392851 0 9.75701e-05 -0.00034483 0 
9.98764e-05 -0.000444884 0 8.75116e-06 -0.000396343 0 1.20916e-05 -0.000500496 0 
-7.83929e-05 -0.000449843 0 -8.1471e-05 -0.000347249 0 -0.000171566 -0.000403733 0 
-0.000169889 -0.000298891 0 -0.000259867 -0.000354132 0 -0.000257696 -0.000249137 0 
-0.00034313 -0.000299896 0 -0.000344514 -0.000199127 0 -0.000434309 -0.000250039 0 
-0.000169832 -0.000505815 0 -0.000435227 -0.000146227 0 0.000280331 -0.000442424 0 
-0.000340889 8.76793e-05 0 -0.000515252 4.06198e-05 0 6.50491e-05 0.000568253 0 
0.00053278 1.74743e-05 0 0.000522071 0.000229831 0 -0.00037162 0.000391659 0 
-0.000255272 -0.000150439 0 -0.000442893 -0.000350705 0 0.000450067 -0.000332559 0 
0.000545175 -0.000276306 0 -0.000527797 -0.000197598 0 0.000105306 -0.000551033 0 
1.45836e-05 -0.000609147 0 0.00017145 0.000214453 0 0.000515525 0.000341711 0 
0.000636086 0.000290368 0 -0.000558657 0.000404468 0 -4.01232e-05 0.000616718 0 
6.60192e-05 0.000696422 0 -0.000101806 0.0002546 0 0.000271142 -3.88908e-05 0 
0.000179455 -0.00018534 0 -8.79553e-05 -0.000254307 0 -0.000749267 -0.000373451 0 
-0.000655941 -0.000323397 0 0.000709746 0.000466718 0 0.000698426 -0.000473086 0 
-5.25801e-05 -0.00084886 0 -4.93005e-05 0.000848038 0 0.000617396 -0.000413362 0 
0.000702056 -0.000369817 0 0.000131459 -0.000679171 0 2.48171e-05 -0.000715924 0 
-0.000664217 -0.00042729 0 -0.000528828 -8.80444e-05 0 -0.000611101 -0.000136672 0 
-0.000426972 -4.45841e-05 0 0.000800669 0.000378216 0 0.000821144 -0.000415062 0 
7.2799e-05 0.00088254 0 6.81831e-05 -0.00087503 0 0.000104963 -0.000788946 0 
-7.40696e-05 -0.000660054 0 0.000126061 0.000809943 0 0.000764361 0.000295682 0 
0.000166862 0.000630623 0 0.000516462 -0.00046707 0 -0.000563585 -0.000389606 0 
-0.000622598 -1.40238e-05 0 0.000629891 0.000171529 0 2.5614e-06 -0.000299794 0 
8.6901e-05 -0.00024329 0 0.000272045 -0.000136982 0 -0.00075148 0.000138321 0 
0.000209366 -0.000599589 0 0.000324913 -0.000630055 0 0.000614044 0.00041245 0 
0.00049651 -0.000573327 0 0.000394822 -0.000507321 0 -0.000173714 -0.000206698 0 
0.000264897 5.63722e-05 0 0.000247997 0.000152811 0 -4.63327e-05 -0.000920208 0 
9.18688e-05 0.000258626 0 -5.54111e-06 0.000290558 0 -0.000184219 0.000201484 0 
-0.000263559 0.000142267 0 -0.000256427 5.13624e-05 0 -0.000336894 -2.06179e-06 0 
-0.000228499 -4.2388e-05 0 -0.00017589 0.000106626 0 -0.000769947 -0.000133367 0 
0.000767591 -0.000500293 0 -5.05874e-05 0.000737978 0 0.000754456 -3.51771e-06 0 
0.00064691 -6.15298e-05 0 0.000630483 -0.00018134 0 0.000749187 -0.000265543 0 
-0.000760805 -0.000462521 0 0.000638155 6.09315e-05 0 -4.46661e-05 0.000922995 0 
-2.37945e-05 0.000207237 0 0.000776979 0.000500181 0 -0.000605691 0.000527596 0 
-0.000377914 -0.000653727 0 -0.000372325 -0.000526022 0 -0.000275829 -0.000589621 0 
-0.000254285 -0.000710579 0 -0.000379307 0.000656222 0 -0.000379818 0.00052718 0 
-0.000266817 0.000721555 0 -0.000150544 0.000668174 0 0.000381963 0.00065079 0 
0.000493113 0.000590432 0 0.000505439 0.000463708 0 -0.000269094 0.000596608 0 
0.000385815 0.000532045 0 0.000283599 0.0005899 0 -0.000176405 -0.000108505 0 
-0.000278769 -0.000475415 0 0.000185395 2.33014e-06 0 0.000186773 0.000517571 0 
0.000540032 -8.68444e-05 0 -0.000600694 -0.000514877 0 -0.00063703 8.98033e-05 0 
-0.000459677 0.000335729 0 -0.000338836 -0.000100751 0 -0.000457327 0.000432721 0 
-8.72007e-06 -0.000210238 0 0.000156073 0.000129496 0 -7.70692e-05 -0.000555049 0 
0.00036091 -0.000389728 0 0.000531628 0.000120564 0 -0.000285451 0.000435562 0 
0.000192719 -0.000494604 0 0.00041642 0.00039368 0 -0.000135943 0.000554637 0 
-0.000170665 -0.000610079 0 -0.000666304 0.000434981 0 -0.000758736 0.000479231 0 
-0.000470189 -0.000458901 0 0.000203433 -8.59809e-05 0 0.000101846 0.000170114 0 
-0.00035513 -0.00040726 0 0.000100184 -0.000165831 0 2.96286e-05 0.00081537 0 
0.000720946 0.000381836 0 -0.000539809 -0.000292001 0 0.00052211 -0.000182426 0 
-6.41339e-05 -0.000753908 0 0.000638039 -0.000299861 0 -0.000605136 -0.000230182 0 
-3.41638e-05 -0.000145561 0 -0.000104037 0.000172396 0 -0.000808575 -0.00042774 0 
-0.000807207 -0.000465052 0 -0.00080817 0.000429771 0 -0.000806589 0.000469738 0 
-9.50634e-05 -0.000178909 0 0.000247777 0.000445058 0 1.48293e-05 -0.000814201 0 
-4.11555e-05 0.000140955 0 0.000276104 -0.000536845 0 0.000765969 -0.000436638 0 
0.000780871 -0.000362769 0 0.000424176 -0.000642018 0 0.00053413 -0.000368009 0 
-0.000416333 4.17911e-05 0 -0.000133891 -6.23822e-05 0 4.2574e-05 0.000206312 0 
0.000141163 -0.000121542 0 0.000707423 0.000212137 0 0.000172327 0.000723882 0 
7.72652e-06 -0.00090254 0 -0.000134435 5.66935e-05 0 -0.000188826 3.70894e-05 0 
0.000197119 8.09714e-05 0 1.27801e-05 0.000917296 0 0.000800767 0.00044758 0 
-0.000686682 0.000507104 0 9.35831e-05 0.000110457 0 -0.000696793 -0.000509595 0 
-0.00068446 -8.52012e-05 0 -0.000691033 -0.000201242 0 5.24052e-05 -0.000189075 0 
-0.000151818 -0.000701092 0 -0.000296988 0.000518087 0 9.31023e-05 -0.000108117 0 
0.00044261 -0.000416726 0 0.000197044 -0.000784423 0 -0.000516861 0.000504567 0 
0.000298997 0.000502377 0 0.000131234 6.38474e-05 -0.001 0.00012964 -6.2443e-05 -0.001 
3.13827e-05 0.0001394 -0.001 3.12554e-05 -0.000136939 -0.001 -0.000140461 8.25467e-19 -0.001 
-8.90565e-05 -0.000102707 -0.001 -9.04142e-05 0.000102872 -0.001 -0.000765769 -0.00025965 -0.001 
-0.000756873 0.000262774 -0.001 -0.00015609 0.000787505 -0.001 -0.000155807 -0.00079355 -0.001 
0.000605069 0.000528035 -0.001 0.000608694 -0.00052497 -0.001 0.000744069 0.000116929 -0.001 
-0.000494418 0.000596218 -0.001 -0.000483866 -0.000584648 -0.001 0.000269496 0.000702219 -0.001 
0.000263201 -0.000717324 -0.001 0.000754429 -0.000127825 -0.001 -0.000748858 5.84659e-07 -0.001 
-0.000747838 0.000373886 -0.001 -0.0006542 0.000324842 -0.001 -0.000645137 0.000210123 -0.001 
-0.000550884 0.000274171 -0.001 -0.000538857 0.000163195 -0.001 -0.00045062 0.000224461 -0.001 
-0.000438393 0.000123907 -0.001 -0.000354088 0.000181668 -0.001 -0.000363908 0.000282171 -0.001 
-0.000270361 0.000239477 -0.001 -0.000279138 0.000337653 -0.001 -0.000188888 0.000294791 -0.001 
-0.000196448 0.000393271 -0.001 -0.000104767 0.000348259 -0.001 -0.000113332 0.000449012 -0.001 
-2.01066e-05 0.000403223 -0.001 -2.89189e-05 0.000507105 -0.001 6.9524e-05 0.000461596 -0.001 
-0.000213644 0.000490203 -0.001 7.33757e-05 0.000357726 -0.001 0.000163331 0.00041299 -0.001 
0.000163359 0.000313022 -0.001 0.000248077 0.000366368 -0.001 0.000250914 0.000265758 -0.001 
0.000335709 0.000322266 -0.001 0.000340555 0.000218148 -0.001 0.000427299 0.000276717 -0.001 
0.000431508 0.000173093 -0.001 0.000328731 0.000425633 -0.001 0.00034586 0.000114823 -0.001 
0.000435362 7.05241e-05 -0.001 0.000350892 1.5455e-05 -0.001 0.000441547 -3.11896e-05 -0.001 
0.000353547 -8.47783e-05 -0.001 0.000445767 -0.000132964 -0.001 0.000356135 -0.000186358 -0.001 
0.000449094 -0.000234674 -0.001 0.000359978 -0.000287876 -0.001 0.00026856 -0.000240545 -0.001 
0.000271895 -0.000341045 -0.001 0.000181792 -0.00029305 -0.001 0.00018533 -0.000392851 -0.001 
9.75701e-05 -0.00034483 -0.001 9.98764e-05 -0.000444884 -0.001 8.75116e-06 -0.000396343 -0.001 
1.20916e-05 -0.000500496 -0.001 -7.83929e-05 -0.000449843 -0.001 -8.1471e-05 -0.000347249 -0.001 
-0.000171566 -0.000403733 -0.001 -0.000169889 -0.000298891 -0.001 -0.000259867 -0.000354132 -0.001 
-0.000257696 -0.000249137 -0.001 -0.00034313 -0.000299896 -0.001 -0.000344514 -0.000199127 -0.001 
-0.000434309 -0.000250039 -0.001 -0.000169832 -0.000505815 -0.001 -0.000435227 -0.000146227 -0.001 
0.000280331 -0.000442424 -0.001 -0.000340889 8.76793e-05 -0.001 -0.000515252 4.06198e-05 -0.001 
6.50491e-05 0.000568253 -0.001 0.00053278 1.74743e-05 -0.001 0.000522071 0.000229831 -0.001 
-0.00037162 0.000391659 -0.001 -0.000255272 -0.000150439 -0.001 -0.000442893 -0.000350705 -0.001 
0.000450067 -0.000332559 -0.001 0.000545175 -0.000276306 -0.001 -0.000527797 -0.000197598 -0.001 
0.000105306 -0.000551033 -0.001 1.45836e-05 -0.000609147 -0.001 0.00017145 0.000214453 -0.001 
0.000515525 0.000341711 -0.001 0.000636086 0.000290368 -0.001 -0.000558657 0.000404468 -0.001 
-4.01232e-05 0.000616718 -0.001 6.60192e-05 0.000696422 -0.001 -0.000101806 0.0002546 -0.001 
0.000271142 -3.88908e-05 -0.001 0.000179455 -0.00018534 -0.001 -8.79553e-05 -0.000254307 -0.001 
-0.000749267 -0.000373451 -0.001 -0.000655941 -0.000323397 -0.001 0.000709746 0.000466718 -0.001 
0.000698426 -0.000473086 -0.001 -5.25801e-05 -0.00084886 -0.001 -4.93005e-05 0.000848038 -0.001 
0.000617396 -0.000413362 -0.001 0.000702056 -0.000369817 -0.001 0.000131459 -0.000679171 -0.001 
2.48171e-05 -0.000715924 -0.001 -0.000664217 -0.00042729 -0.001 -0.000528828 -8.80444e-05 -0.001 
-0.000611101 -0.000136672 -0.001 -0.000426972 -4.45841e-05 -0.001 0.000800669 0.000378216 -0.001 
0.000821144 -0.000415062 -0.001 7.2799e-05 0.00088254 -0.001 6.81831e-05 -0.00087503 -0.001 
0.000104963 -0.000788946 -0.001 -7.40696e-05 -0.000660054 -0.001 0.000126061 0.000809943 -0.001 
0.000764361 0.000295682 -0.001 0.000166862 0.000630623 -0.001 0.000516462 -0.00046707 -0.001 
-0.000563585 -0.000389606 -0.001 -0.000622598 -1.40238e-05 -0.001 0.000629891 0.000171529 -0.001 
2.5614e-06 -0.000299794 -0.001 8.6901e-05 -0.00024329 -0.001 0.000272045 -0.000136982 -0.001 
-0.00075148 0.000138321 -0.001 0.000209366 -0.000599589 -0.001 0.000324913 -0.000630055 -0.001 
0.000614044 0.00041245 -0.001 0.00049651 -0.000573327 -0.001 0.000394822 -0.000507321 -0.001 
-0.000173714 -0.000206698 -0.001 0.000264897 5.63722e-05 -0.001 0.000247997 0.000152811 -0.001 
-4.63327e-05 -0.000920208 -0.001 9.18688e-05 0.000258626 -0.001 -5.54111e-06 0.000290558 -0.001 
-0.000184219 0.000201484 -0.001 -0.000263559 0.000142267 -0.001 -0.000256427 5.13624e-05 -0.001 
-0.000336894 -2.06179e-06 -0.001 -0.000228499 -4.2388e-05 -0.001 -0.00017589 0.000106626 -0.001 
-0.000769947 -0.000133367 -0.001 0.000767591 -0.000500293 -0.001 -5.05874e-05 0.000737978 -0.001 
0.000754456 -3.51771e-06 -0.001 0.00064691 -6.15298e-05 -0.001 0.000630483 -0.00018134 -0.001 
0.000749187 -0.000265543 -0.001 -0.000760805 -0.000462521 -0.001 0.000638155 6.09315e-05 -0.001 
-4.46661e-05 0.000922995 -0.001 -2.37945e-05 0.000207237 -0.001 0.000776979 0.000500181 -0.001 
-0.000605691 0.000527596 -0.001 -0.000377914 -0.000653727 -0.001 -0.000372325 -0.000526022 -0.001 
-0.000275829 -0.000589621 -0.001 -0.000254285 -0.000710579 -0.001 -0.000379307 0.000656222 -0.001 
-0.000379818 0.00052718 -0.001 -0.000266817 0.000721555 -0.001 -0.000150544 0.000668174 -0.001 
0.000381963 0.00065079 -0.001 0.000493113 0.000590432 -0.001 0.000505439 0.000463708 -0.001 
-0.000269094 0.000596608 -0.001 0.000385815 0.000532045 -0.001 0.000283599 0.0005899 -0.001 
-0.000176405 -0.000108505 -0.001 -0.000278769 -0.000475415 -0.001 0.000185395 2.33014e-06 -0.001 
0.000186773 0.000517571 -0.001 0.000540032 -8.68444e-05 -0.001 -0.000600694 -0.000514877 -0.001 
-0.00063703 8.98033e-05 -0.001 -0.000459677 0.000335729 -0.001 -0.000338836 -0.000100751 -0.001 
-0.000457327 0.000432721 -0.001 -8.72007e-06 -0.000210238 -0.001 0.000156073 0.000129496 -0.001 
-7.70692e-05 -0.000555049 -0.001 0.00036091 -0.000389728 -0.001 0.000531628 0.000120564 -0.001 
-0.000285451 0.000435562 -0.001 0.000192719 -0.000494604 -0.001 0.00041642 0.00039368 -0.001 
-0.000135943 0.000554637 -0.001 -0.000170665 -0.000610079 -0.001 -0.000666304 0.000434981 -0.001 
-0.000758736 0.000479231 -0.001 -0.000470189 -0.000458901 -0.001 0.000203433 -8.59809e-05 -0.001 
0.000101846 0.000170114 -0.001 -0.00035513 -0.00040726 -0.001 0.000100184 -0.000165831 -0.001 
2.96286e-05 0.00081537 -0.001 0.000720946 0.000381836 -0.001 -0.000539809 -0.000292001 -0.001 
0.00052211 -0.000182426 -0.001 -6.41339e-05 -0.000753908 -0.001 0.000638039 -0.000299861 -0.001 
-0.000605136 -0.000230182 -0.001 -3.41638e-05 -0.000145561 -0.001 -0.000104037 0.000172396 -0.001 
-0.000808575 -0.00042774 -0.001 -0.000807207 -0.000465052 -0.001 -0.00080817 0.000429771 -0.001 
-0.000806589 0.000469738 -0.001 -9.50634e-05 -0.000178909 -0.001 0.000247777 0.000445058 -0.001 
1.48293e-05 -0.000814201 -0.001 -4.11555e-05 0.000140955 -0.001 0.000276104 -0.000536845 -0.001 
0.000765969 -0.000436638 -0.001 0.000780871 -0.000362769 -0.001 0.000424176 -0.000642018 -0.001 
0.00053413 -0.000368009 -0.001 -0.000416333 4.17911e-05 -0.001 -0.000133891 -6.23822e-05 -0.001 
4.2574e-05 0.000206312 -0.001 0.000141163 -0.000121542 -0.001 0.000707423 0.000212137 -0.001 
0.000172327 0.000723882 -0.001 7.72652e-06 -0.00090254 -0.001 -0.000134435 5.66935e-05 -0.001 
-0.000188826 3.70894e-05 -0.001 0.000197119 8.09714e-05 -0.001 1.27801e-05 0.000917296 -0.001 
0.000800767 0.00044758 -0.001 -0.000686682 0.000507104 -0.001 9.35831e-05 0.000110457 -0.001 
-0.000696793 -0.000509595 -0.001 -0.00068446 -8.52012e-05 -0.001 -0.000691033 -0.000201242 -0.001 
5.24052e-05 -0.000189075 -0.001 -0.000151818 -0.000701092 -0.001 -0.000296988 0.000518087 -0.001 
9.31023e-05 -0.000108117 -0.001 0.00044261 -0.000416726 -0.001 0.000197044 -0.000784423 -0.001 
-0.000516861 0.000504567 -0.001 0.000298997 0.000502377 -0.001 

CELLS 563 3941
6 14 304 127 29 554 377 
6 143 259 55 393 509 103 
6 300 319 174 550 569 424 
6 259 349 55 509 599 103 
6 50 365 307 98 615 557 
6 299 320 164 549 570 414 
6 126 304 14 376 554 29 
6 298 319 300 548 569 550 
6 205 240 238 455 490 488 
6 257 308 145 507 558 395 
6 130 352 273 380 602 523 
6 295 320 299 545 570 549 
6 324 327 289 574 577 539 
6 235 258 143 485 508 393 
6 50 307 49 98 557 97 
6 207 283 279 457 533 529 
6 143 373 235 393 623 485 
6 145 308 252 395 558 502 
6 194 303 196 444 553 446 
6 279 306 207 529 556 457 
6 206 305 163 456 555 413 
6 51 357 9 99 607 24 
6 238 252 205 488 502 455 
6 293 317 209 543 567 459 
6 207 316 283 457 566 533 
6 142 301 249 392 551 499 
6 273 359 130 523 609 380 
6 211 327 324 461 577 574 
6 169 265 217 419 515 467 
6 7 365 50 22 615 98 
6 283 316 253 533 566 503 
6 159 268 223 409 518 473 
6 274 337 132 524 587 382 
6 232 361 329 482 611 579 
6 231 266 45 481 516 93 
6 229 362 330 479 612 580 
6 9 244 57 24 494 105 
6 230 276 52 480 526 100 
6 209 311 293 459 561 543 
6 131 342 302 381 592 552 
6 270 271 204 520 521 454 
6 66 243 1 114 493 16 
6 59 241 12 107 491 27 
6 280 306 279 530 556 529 
6 269 337 274 519 587 524 
6 179 256 224 429 506 474 
6 163 305 166 413 555 416 
6 201 303 194 451 553 444 
6 280 332 306 530 582 556 
6 186 255 225 436 505 475 
6 210 310 273 460 560 523 
6 153 270 204 403 520 454 
6 136 231 45 386 481 93 
6 171 265 169 421 515 419 
6 138 230 52 388 480 100 
6 225 354 325 475 604 575 
6 36 284 232 84 534 482 
6 161 268 159 411 518 409 
6 71 286 229 119 536 479 
6 290 303 201 540 553 451 
6 139 355 60 389 605 108 
6 60 355 248 108 605 498 
6 273 352 302 523 602 552 
6 235 373 245 485 623 495 
6 67 356 247 115 606 497 
6 221 295 277 471 545 527 
6 142 356 67 392 606 115 
6 139 283 253 389 533 503 
6 203 315 262 453 565 512 
6 41 257 145 89 507 395 
6 36 232 135 84 482 385 
6 71 229 137 119 479 387 
6 254 255 188 504 505 438 
6 233 350 334 483 600 584 
6 262 346 203 512 596 453 
6 304 325 127 554 575 377 
6 222 329 247 472 579 497 
6 218 298 260 468 548 510 
6 290 321 291 540 571 541 
6 272 310 240 522 560 490 
6 269 274 270 519 524 520 
6 244 245 57 494 495 105 
6 49 307 141 97 557 391 
6 225 325 256 475 575 506 
6 273 310 272 523 560 522 
6 312 368 255 562 618 505 
6 249 305 206 499 555 456 
6 228 331 251 478 581 501 
6 302 342 263 552 592 513 
6 338 339 44 588 589 92 
6 190 254 188 440 504 438 
6 37 341 340 85 591 590 
6 138 233 230 388 483 480 
6 228 335 331 478 585 581 
6 181 256 179 431 506 429 
6 195 263 226 445 513 476 
6 268 285 223 518 535 473 
6 290 291 288 540 541 538 
6 219 330 248 469 580 498 
6 201 321 290 451 571 540 
6 240 310 202 490 560 452 
6 188 255 186 438 505 436 
6 270 274 271 520 524 521 
6 262 349 259 512 599 509 
6 141 324 289 391 574 539 
6 296 301 142 546 551 392 
6 247 356 222 497 606 472 
6 239 252 238 489 502 488 
6 254 312 255 504 562 505 
6 54 261 53 102 511 101 
6 289 327 303 539 577 553 
6 268 353 285 518 603 535 
6 273 302 210 523 552 460 
6 292 299 293 542 549 543 
6 278 283 139 528 533 389 
6 175 265 171 425 515 421 
6 227 338 38 477 588 86 
6 264 360 265 514 610 515 
6 43 340 146 91 590 396 
6 165 268 161 415 518 411 
6 205 351 240 455 601 490 
6 64 281 63 112 531 111 
6 288 291 47 538 541 95 
6 135 295 294 385 545 544 
6 42 257 41 90 507 89 
6 245 373 57 495 623 105 
6 31 363 323 79 613 573 
6 292 293 140 542 543 390 
6 267 353 268 517 603 518 
6 155 270 153 405 520 403 
6 244 344 245 494 594 495 
6 61 278 139 109 528 389 
6 135 294 35 385 544 83 
6 69 297 296 117 547 546 
6 186 225 184 436 475 434 
6 329 361 243 579 611 493 
6 255 328 225 505 578 475 
6 213 332 280 463 582 530 
6 39 275 133 87 525 383 
6 330 362 241 580 612 491 
6 195 226 193 445 476 443 
6 211 324 251 461 574 501 
6 151 153 152 401 403 402 
6 295 299 294 545 549 544 
6 265 313 217 515 563 467 
6 258 259 143 508 509 393 
6 251 331 211 501 581 461 
6 149 151 150 399 401 400 
6 293 370 317 543 620 567 
6 153 204 152 403 454 402 
6 151 152 150 401 402 400 
6 33 292 140 81 542 390 
6 210 263 197 460 513 447 
6 301 305 249 551 555 499 
6 298 300 297 548 550 547 
6 68 296 142 116 546 392 
6 321 369 291 571 619 541 
6 179 224 177 429 474 427 
6 167 267 165 417 517 415 
6 259 346 262 509 596 512 
6 303 327 196 553 577 446 
6 269 270 155 519 520 405 
6 265 360 313 515 610 563 
6 223 269 157 473 519 407 
6 157 269 155 407 519 405 
6 144 279 278 394 529 528 
6 169 217 167 419 467 417 
6 177 264 175 427 514 425 
6 267 268 165 517 518 415 
6 159 223 157 409 473 407 
6 232 277 135 482 527 385 
6 193 254 190 443 504 440 
6 217 267 167 467 517 417 
6 249 356 142 499 606 392 
6 184 256 181 434 506 431 
6 248 355 219 498 605 469 
6 229 260 137 479 510 387 
6 149 150 148 399 400 398 
6 64 348 281 112 598 531 
6 311 374 293 561 624 543 
6 264 265 175 514 515 425 
6 297 300 296 547 550 546 
6 141 289 288 391 539 538 
6 197 263 195 447 513 445 
6 218 260 219 468 510 469 
6 224 264 177 474 514 427 
6 137 298 297 387 548 547 
6 277 295 135 527 545 385 
6 133 228 227 383 478 477 
6 261 349 262 511 599 512 
6 221 277 222 471 527 472 
6 256 325 224 506 575 474 
6 199 210 197 449 460 447 
6 226 254 193 476 504 443 
6 144 278 62 394 528 110 
6 279 283 278 529 533 528 
6 289 290 288 539 540 538 
6 137 297 70 387 547 118 
6 34 294 292 82 544 542 
6 235 236 216 485 486 466 
6 141 288 48 391 538 96 
6 178 306 180 428 556 430 
6 185 186 184 435 436 434 
6 63 281 144 111 531 394 
6 225 256 184 475 506 434 
6 46 291 136 94 541 386 
6 147 149 148 397 399 398 
6 271 272 204 521 522 454 
6 233 334 234 483 584 484 
6 145 275 40 395 525 88 
6 220 322 287 470 572 537 
6 280 334 213 530 584 463 
6 144 280 279 394 530 529 
6 140 287 32 390 537 80 
6 154 155 153 404 405 403 
6 334 350 213 584 600 463 
6 176 177 175 426 427 425 
6 260 298 137 510 548 387 
6 33 140 32 81 390 80 
6 49 141 48 97 391 96 
6 56 143 55 104 393 103 
6 68 142 67 116 392 115 
6 63 144 62 111 394 110 
6 61 139 60 109 389 108 
6 148 308 257 398 558 507 
6 71 137 70 119 387 118 
6 53 138 52 101 388 100 
6 46 136 45 94 386 93 
6 36 135 35 84 385 83 
6 43 146 134 91 396 384 
6 133 227 38 383 477 86 
6 192 193 190 442 443 440 
6 293 374 140 543 624 390 
6 34 292 33 82 542 81 
6 207 306 178 457 556 428 
6 43 134 42 91 384 90 
6 39 133 38 87 383 86 
6 41 145 40 89 395 88 
6 194 195 193 444 445 443 
6 69 296 68 117 546 116 
6 294 299 292 544 549 542 
6 173 175 171 423 425 421 
6 260 330 219 510 580 469 
6 183 184 181 433 434 431 
6 134 257 42 384 507 90 
6 55 349 54 103 599 102 
6 163 165 161 413 415 411 
6 166 167 165 416 417 415 
6 210 302 263 460 552 513 
6 271 273 272 521 523 522 
6 53 261 138 101 511 388 
6 217 326 267 467 576 517 
6 289 303 290 539 553 540 
6 178 179 177 428 429 427 
6 238 240 202 488 490 452 
6 62 278 61 110 528 109 
6 35 294 34 83 544 82 
6 284 361 232 534 611 482 
6 70 297 69 118 547 117 
6 224 304 264 474 554 514 
6 156 157 155 406 407 405 
6 48 288 47 96 538 95 
6 221 320 295 471 570 545 
6 187 188 186 437 438 436 
6 47 291 46 95 541 94 
6 151 154 153 401 404 403 
6 286 362 229 536 612 479 
6 168 169 167 418 419 417 
6 40 275 39 88 525 87 
6 307 324 141 557 574 391 
6 300 301 296 550 551 546 
6 32 287 31 80 537 79 
6 147 220 149 397 470 399 
6 333 344 231 583 594 481 
6 299 370 293 549 620 543 
6 271 359 273 521 609 523 
6 224 325 304 474 575 554 
6 228 237 227 478 487 477 
6 305 375 343 555 625 593 
6 218 319 298 468 569 548 
6 240 351 272 490 601 522 
6 277 329 222 527 579 472 
6 253 355 139 503 605 389 
6 158 159 157 408 409 407 
6 236 246 216 486 496 466 
6 192 194 193 442 444 443 
6 220 309 149 470 559 399 
6 183 185 184 433 435 434 
6 196 197 195 446 447 445 
6 276 347 58 526 597 106 
6 136 333 231 386 583 481 
6 67 247 66 115 497 114 
6 60 248 59 108 498 107 
6 261 262 250 511 512 500 
6 173 176 175 423 426 425 
6 344 357 231 594 607 481 
6 144 281 280 394 531 530 
6 152 205 150 402 455 400 
6 163 166 165 413 416 415 
6 185 187 186 435 437 436 
6 233 234 230 483 484 480 
6 170 171 169 420 421 419 
6 146 147 134 396 397 384 
6 176 178 177 426 428 427 
6 285 337 223 535 587 473 
6 154 156 155 404 406 405 
6 263 342 226 513 592 476 
6 235 245 236 485 495 486 
6 160 161 159 410 411 409 
6 58 347 242 106 597 492 
6 166 168 167 416 418 417 
6 287 374 220 537 624 470 
6 189 190 188 439 440 438 
6 148 257 134 398 507 384 
6 194 196 195 444 446 445 
6 252 308 205 502 558 455 
6 285 345 337 535 595 587 
6 301 375 305 551 625 555 
6 180 181 179 430 431 429 
6 281 348 234 531 598 484 
6 198 199 197 448 449 447 
6 151 309 154 401 559 404 
6 228 367 335 478 617 585 
6 54 349 261 102 599 511 
6 156 158 157 406 408 407 
6 168 170 169 418 420 419 
6 200 202 199 450 452 449 
6 147 148 134 397 398 384 
6 158 160 159 408 410 409 
6 150 308 148 400 558 398 
6 253 316 208 503 566 458 
6 232 329 277 482 579 527 
6 178 180 179 428 430 429 
6 191 192 190 441 442 440 
6 214 238 202 464 488 452 
6 172 173 171 422 423 421 
6 187 189 188 437 439 438 
6 162 163 161 412 413 411 
6 228 251 237 478 501 487 
6 215 258 235 465 508 485 
6 182 183 181 432 433 431 
6 202 310 199 452 560 449 
6 219 253 208 469 503 458 
6 222 249 206 472 499 456 
6 196 198 197 446 448 447 
6 229 330 260 479 580 510 
6 132 358 274 382 608 524 
6 149 309 151 399 559 401 
6 226 312 254 476 562 504 
6 154 309 209 404 559 459 
6 77 129 76 125 379 124 
6 73 128 72 121 378 120 
6 76 131 75 124 381 123 
6 74 132 73 122 382 121 
6 75 130 74 123 380 122 
6 14 127 77 29 377 125 
6 72 126 14 120 376 29 
6 133 367 228 383 617 478 
6 237 282 227 487 532 477 
6 239 366 252 489 616 502 
6 200 214 202 450 464 452 
6 192 201 194 442 451 444 
6 170 172 171 420 422 421 
6 220 311 309 470 561 559 
6 198 200 199 448 450 449 
6 189 191 190 439 441 440 
6 146 323 322 396 573 572 
6 160 162 161 410 412 411 
6 251 307 237 501 557 487 
6 199 310 210 449 560 460 
6 57 373 56 105 623 104 
6 214 239 238 464 489 488 
6 182 212 183 432 462 433 
6 180 182 181 430 432 431 
6 146 322 147 396 572 397 
6 172 218 208 422 468 458 
6 172 208 173 422 458 423 
6 162 221 206 412 471 456 
6 162 206 163 412 456 413 
6 176 207 178 426 457 428 
6 272 351 204 522 601 454 
6 198 211 200 448 461 450 
6 182 213 212 432 463 462 
6 234 334 281 484 584 531 
6 154 209 156 404 459 406 
6 185 203 187 435 453 437 
6 168 174 170 418 424 420 
6 189 215 191 439 465 441 
6 215 216 191 465 466 441 
6 221 222 206 471 472 456 
6 158 164 160 408 414 410 
6 218 219 208 468 469 458 
6 205 308 150 455 558 400 
6 191 314 192 441 564 442 
6 215 235 216 465 485 466 
6 215 318 258 465 568 508 
6 152 351 205 402 601 455 
6 138 261 250 388 511 500 
6 192 314 201 442 564 451 
6 234 347 230 484 597 480 
6 226 342 312 476 592 562 
6 138 250 233 388 500 483 
6 147 322 220 397 572 470 
6 216 314 191 466 564 441 
6 306 332 180 556 582 430 
6 222 356 249 472 606 499 
6 128 345 285 378 595 535 
6 314 321 201 564 571 451 
6 212 315 183 462 565 433 
6 312 342 336 562 592 586 
6 282 339 338 532 589 588 
6 340 341 323 590 591 573 
6 309 311 209 559 561 459 
6 183 315 185 433 565 435 
6 208 316 173 458 566 423 
6 173 316 176 423 566 426 
6 3 341 37 18 591 85 
6 44 339 6 92 589 21 
6 252 366 145 502 616 395 
6 246 321 314 496 571 564 
6 246 314 216 496 564 466 
6 126 364 313 376 614 563 
6 156 317 158 406 567 408 
6 275 367 133 525 617 383 
6 176 316 207 426 566 457 
6 185 315 203 435 565 453 
6 180 332 182 430 582 432 
6 302 352 131 552 602 381 
6 251 324 307 501 574 557 
6 187 318 189 437 568 439 
6 172 319 218 422 569 468 
6 162 320 221 412 570 471 
6 305 343 166 555 593 416 
6 170 319 172 420 569 422 
6 158 317 164 408 567 414 
6 209 317 156 459 567 406 
6 285 353 128 535 603 378 
6 223 337 269 473 587 519 
6 160 320 162 410 570 412 
6 211 331 200 461 581 450 
6 174 319 170 424 569 420 
6 203 318 187 453 568 437 
6 189 318 215 439 568 465 
6 198 327 211 448 577 461 
6 164 320 160 414 570 410 
6 326 353 267 576 603 517 
6 236 344 333 486 594 583 
6 196 327 198 446 577 448 
6 219 355 253 469 605 503 
6 281 334 280 531 584 530 
6 274 359 271 524 609 521 
6 164 370 299 414 620 549 
6 174 375 300 424 625 550 
6 287 363 31 537 613 79 
6 243 361 1 493 611 16 
6 241 362 12 491 612 27 
6 307 365 237 557 615 487 
6 166 343 168 416 593 418 
6 200 331 214 450 581 464 
6 313 326 217 563 576 467 
6 9 357 244 24 607 494 
6 1 361 30 16 611 78 
6 12 362 65 27 612 113 
6 337 345 132 587 595 382 
6 242 348 64 492 598 112 
6 231 357 266 481 607 516 
6 182 332 213 432 582 463 
6 245 344 236 495 594 486 
6 258 346 259 508 596 509 
6 145 366 275 395 616 525 
6 291 369 136 541 619 386 
6 236 333 246 486 583 496 
6 331 335 214 581 585 464 
6 312 336 129 562 586 379 
6 315 372 262 565 622 512 
6 220 374 311 470 624 561 
6 140 374 287 390 624 537 
6 126 360 304 376 610 554 
6 230 347 276 480 597 526 
6 313 364 326 563 614 576 
6 56 373 143 104 623 393 
6 239 367 366 489 617 616 
6 204 351 152 454 601 402 
6 300 375 301 550 625 551 
6 214 335 239 464 585 489 
6 247 329 243 497 579 493 
6 262 372 250 512 622 500 
6 248 330 241 498 580 491 
6 318 346 258 568 596 508 
6 333 369 246 583 619 496 
6 282 338 227 532 588 477 
6 146 340 323 396 590 573 
6 304 360 264 554 610 514 
6 366 367 275 616 617 525 
6 129 336 76 379 586 124 
6 73 345 128 121 595 378 
6 76 336 131 124 586 381 
6 250 350 233 500 600 483 
6 129 371 328 379 621 578 
6 132 345 73 382 595 121 
6 168 343 174 418 593 424 
6 131 352 75 381 602 123 
6 66 247 243 114 497 493 
6 59 248 241 107 498 491 
6 74 358 132 122 608 382 
6 203 346 318 453 596 568 
6 313 360 126 563 610 376 
6 128 364 72 378 614 120 
6 128 353 326 378 603 576 
6 77 371 129 125 621 379 
6 129 368 312 379 618 562 
6 244 357 344 494 607 594 
6 328 354 225 578 604 475 
6 326 364 128 576 614 378 
6 75 352 130 123 602 380 
6 350 372 212 600 622 462 
6 136 369 333 386 619 583 
6 325 354 127 575 604 377 
6 213 350 212 463 600 462 
6 130 358 74 380 608 122 
6 250 372 350 500 622 600 
6 317 370 164 567 620 414 
6 72 364 126 120 614 376 
6 328 368 129 578 618 379 
6 127 371 77 377 621 125 
6 336 342 131 586 592 381 
6 212 372 315 462 622 565 
6 234 348 347 484 598 597 
6 8 266 51 23 516 99 
6 10 276 58 25 526 106 
6 246 369 321 496 619 571 
6 30 284 0 78 534 15 
6 65 286 13 113 536 28 
6 58 242 11 106 492 26 
6 266 357 51 516 607 99 
6 255 368 328 505 618 578 
6 347 348 242 597 598 492 
6 322 363 287 572 613 537 
6 323 363 322 573 613 572 
6 335 367 239 585 617 489 
6 30 361 284 78 611 534 
6 65 362 286 113 612 536 
6 237 365 282 487 615 532 
6 130 359 358 380 609 608 
6 343 375 174 593 625 424 
6 354 371 127 604 621 377 
6 328 371 354 578 621 604 
6 358 359 274 608 609 524 
6 0 284 36 15 534 84 
6 45 266 8 93 516 23 
6 52 276 10 100 526 25 
6 11 242 64 26 492 112 
6 13 286 71 28 536 119 
6 2 323 3 17 573 18 
6 31 323 2 79 573 17 
6 323 341 3 573 591 18 
6 37 340 4 85 590 19 
6 4 340 43 19 590 91 
6 38 338 5 86 588 20 
6 5 338 44 20 588 92 
6 6 282 7 21 532 22 
6 6 339 282 21 589 532 
6 282 365 7 532 615 22 

CELL_TYPES 563
13
13
13
13
13
13
13
13
13
13
13
13
13
13
13
13
13
13
13
13
13
13
13
13
13
13
13
13
13
13
13
13
13
13
13
13
13
13
13
13
13
13
13
13
13
13
13
13
13
13
13
13
13
13
13
13
13
13
13
13
13
13
13
13
13
13
13
13
13
13
13
13
13
13
13
13
13
13
13
13
13
13
13
13
13
13
13
13
13
13
13
13
13
13
13
13
13
13
13
13
13
13
13
13
13
13
13
13
13
13
13
13
13
13
13
13
13
13
13
13
13
13
13
13
13
13
13
13
13
13
13
13
13
13
13
13
13
13
13
13
13
13
13
13
13
13
13
13
13
13
13
13
13
13
13
13
13
13
13
13
13
13
13
13
13
13
13
13
13
13
13
13
13
13
13
13
13
13
13
13
13
13
13
13
13
13
13
13
13
13
13
13
13
13
13
13
13
13
13
13
13
13
13
13
13
13
13
13
13
13
13
13
13
13
13
13
13
13
13
13
13
13
13
13
13
13
13
13
13
13
13
13
13
13
13
13
13
13
13
13
13
13
13
13
13
13
13
13
13
13
13
13
13
13
13
13
13
13
13
13
13
13
13
13
13
13
13
13
13
13
13
13
13
13
13
13
13
13
13
13
13
13
13
13
13
13
13
13
13
13
13
13
13
13
13
13
13
13
13
13
13
13
13
13
13
13
13
13
13
13
13
13
13
13
13
13
13
13
13
13
13
13
13
13
13
13
13
13
13
13
13
13
13
13
13
13
13
13
13
13
13
13
13
13
13
13
13
13
13
13
13
13
13
13
13
13
13
13
13
13
13
13
13
13
13
13
13
13
13
13
13
13
13
13
13
13
13
13
13
13
13
13
13
13
13
13
13
13
13
13
13
13
13
13
13
13
13
13
13
13
13
13
13
13
13
13
13
13
13
13
13
13
13
13
13
13
13
13
13
13
13
13
13
13
13
13
13
13
13
13
13
13
13
13
13
13
13
13
13
13
13
13
13
13
13
13
13
13
13
13
13
13
13
13
13
13
13
13
13
13
13
13
13
13
13
13
13
13
13
13
13
13
13
13
13
13
13
13
13
13
13
13
13
13
13
13
13
13
13
13
13
13
13
13
13
13
13
13
13
13
13
13
13
13
13
13
13
13
13
13
13
13
13
13
13
13
13
13
13
13
13
13
13
13
13
13
13
13
13
13
13
13
13
13
13
13
13
13
13
13
13
13
13
13
13
13
13
13
13
13
13
13
13
13
13
13
13
13
13
13
13
13
13

POINT_DATA 626
VECTORS displacement float
-1.74395e-06 3.09541e-05 1.80549e-05
1.73566e-06 3.09732e-05 1.81e-05
-2.5986e-05 1.69927e-05 1.80869e-05
-2.58406e-05 1.60329e-05 1.80515e-05
-2.77204e-05 1.39726e-05 1.80689e-05
-2.77134e-05 -1.40189e-05 1.80944e-05
-2.58118e-05 -1.6071e-05 1.81057e-05
-2.59822e-05 -1.70108e-05 1.81669e-05
-1.67741e-06 -3.09579e-05 1.80513e-05
1.75545e-06 -3.09594e-05 1.81017e-05
2.59434e-05 -1.69805e-05 1.80433e-05
2.77167e-05 -1.39365e-05 1.80432e-05
2.76722e-05 1.39892e-05 1.80915e-05
2.59147e-05 1.69928e-05 1.80459e-05
0 0 0
-1.74395e-06 3.09541e-05 -1.80549e-05
1.73566e-06 3.09732e-05 -1.81e-05
-2.5986e-05 1.69927e-05 -1.80869e-05
-2.58406e-05 1.60329e-05 -1.80515e-05
-2.77204e-05 1.39726e-05 -1.80689e-05
-2.77134e-05 -1.40189e-05 -1.80944e-05
-2.58118e-05 -1.6071e-05 -1.81057e-05
-2.59822e-05 -1.70108e-05 -1.81669e-05
-1.67741e-06 -3.09579e-05 -1.80513e-05
1.75545e-06 -3.09594e-05 -1.81017e-05
2.59434e-05 -1.69805e-05 -1.80433e-05
2.77167e-05 -1.39365e-05 -1.80432e-05
2.76722e-05 1.39892e-05 -1.80915e-05
2.59147e-05 1.69928e-05 -1.80459e-05
0 0 0
2.48956e-08 3.0154e-05 1.8034e-05
-2.11403e-05 1.87122e-05 1.75496e-05
-1.72323e-05 1.98336e-05 1.69206e-05
-1.40067e-05 2.10539e-05 1.65547e-05
-1.12067e-05 2.26645e-05 1.65486e-05
-8.524e-06 2.48325e-05 1.69011e-05
-5.56776e-06 2.76214e-05 1.75373e-05
-2.64496e-05 1.4679e-05 1.80333e-05
-2.67684e-05 -9.01139e-06 1.75772e-05
-2.58059e-05 -5.03538e-06 1.69258e-05
-2.52541e-05 -1.63618e-06 1.65712e-05
-2.52571e-05 1.60782e-06 1.65741e-05
-2.57982e-05 5.02278e-06 1.6924e-05
-2.67546e-05 8.98447e-06 1.75637e-05
-2.64365e-05 -1.47253e-05 1.80621e-05
-5.54102e-06 -2.76358e-05 1.75295e-05
-8.47651e-06 -2.48415e-05 1.69005e-05
-1.11699e-05 -2.2684e-05 1.65559e-05
-1.39704e-05 -2.1087e-05 1.65593e-05
-1.72147e-05 -1.98689e-05 1.69364e-05
-2.11339e-05 -1.8749e-05 1.7562e-05
8.98416e-08 -3.01388e-05 1.80292e-05
2.11237e-05 -1.86246e-05 1.75113e-05
1.72444e-05 -1.97619e-05 1.68726e-05
1.40337e-05 -2.10109e-05 1.65113e-05
1.12249e-05 -2.25927e-05 1.65459e-05
8.58116e-06 -2.47797e-05 1.68739e-05
5.65465e-06 -2.76261e-05 1.75348e-05
2.61243e-05 -1.50595e-05 1.80282e-05
2.67165e-05 8.93826e-06 1.75013e-05
2.57217e-05 5.0495e-06 1.69082e-05
2.52062e-05 1.62329e-06 1.65229e-05
2.52033e-05 -1.5994e-06 1.65212e-05
2.57503e-05 -4.99729e-06 1.68881e-05
2.66986e-05 -8.91701e-06 1.75095e-05
2.61073e-05 1.50607e-05 1.80252e-05
5.63311e-06 2.76175e-05 1.75094e-05
8.50853e-06 2.48064e-05 1.6911e-05
1.12169e-05 2.26407e-05 1.65291e-05
1.40043e-05 2.10219e-05 1.65245e-05
1.72214e-05 1.97932e-05 1.68849e-05
2.11147e-05 1.86342e-05 1.75252e-05
0 0 0
0 0 0
0 0 0
0 0 0
0 0 0
0 0 0
2.48956e-08 3.0154e-05 -1.8034e-05
-2.11403e-05 1.87122e-05 -1.75496e-05
-1.72323e-05 1.98336e-05 -1.69206e-05
-1.40067e-05 2.10539e-05 -1.65547e-05
-1.12067e-05 2.26645e-05 -1.65486e-05
-8.524e-06 2.48325e-05 -1.69011e-05
-5.56776e-06 2.76214e-05 -1.75373e-05
-2.64496e-05 1.4679e-05 -1.80333e-05
-2.67684e-05 -9.01139e-06 -1.75772e-05
-2.58059e-05 -5.03538e-06 -1.69258e-05
-2.52541e-05 -1.63618e-06 -1.65712e-05
-2.52571e-05 1.60782e-06 -1.65741e-05
-2.57982e-05 5.02278e-06 -1.6924e-05
-2.67546e-05 8.98447e-06 -1.75637e-05
-2.64365e-05 -1.47253e-05 -1.80621e-05
-5.54102e-06 -2.76358e-05 -1.75295e-05
-8.47651e-06 -2.48415e-05 -1.69005e-05
-1.11699e-05 -2.2684e-05 -1.65559e-05
-1.39704e-05 -2.1087e-05 -1.65593e-05
-1.72147e-05 -1.98689e-05 -1.69364e-05
-2.11339e-05 -1.8749e-05 -1.7562e-05
8.98416e-08 -3.01388e-05 -1.80292e-05
2.11237e-05 -1.86246e-05 -1.75113e-05
1.72444e-05 -1.97619e-05 -1.68726e-05
1.40337e-05 -2.10109e-05 -1.65113e-05
1.12249e-05 -2.25927e-05 -1.65459e-05
8.58116e-06 -2.47797e-05 -1.68739e-05
5.65465e-06 -2.76261e-05 -1.75348e-05
2.61243e-05 -1.50595e-05 -1.80282e-05
2.67165e-05 8.93826e-06 -1.75013e-05
2.57217e-05 5.0495e-06 -1.69082e-05
2.52062e-05 1.62329e-06 -1.65229e-05
2.52033e-05 -1.5994e-06 -1.65212e-05
2.57503e-05 -4.99729e-06 -1.68881e-05
2.66986e-05 -8.91701e-06 -1.75095e-05
2.61073e-05 1.50607e-05 -1.80252e-05
5.63311e-06 2.76175e-05 -1.75094e-05
8.50853e-06 2.48064e-05 -1.6911e-05
1.12169e-05 2.26407e-05 -1.65291e-05
1.40043e-05 2.10219e-05 -1.65245e-05
1.72214e-05 1.97932e-05 -1.68849e-05
2.11147e-05 1.86342e-05 -1.75252e-05
0 0 0
0 0 0
0 0 0
0 0 0
0 0 0
0 0 0
1.79366e-06 8.58736e-07 4.55218e-06
1.7378e-06 -8.25105e-07 4.46073e-06
4.31949e-07 1.8496e-06 4.49505e-06
4.36093e-07 -1.78061e-06 4.35602e-06
-1.84747e-06 2.09628e-08 4.4223e-06
-1.12307e-06 -1.30886e-06 4.15094e-06
-1.15919e-06 1.30678e-06 4.19972e-06
-2.25127e-05 -7.28756e-06 1.69997e-05
-2.21961e-05 7.37145e-06 1.69684e-05
-4.86038e-06 2.28982e-05 1.69368e-05
-4.8579e-06 -2.31313e-05 1.69637e-05
1.7421e-05 1.56352e-05 1.69296e-05
1.75685e-05 -1.55362e-05 1.69389e-05
2.10732e-05 3.16382e-06 1.63241e-05
-1.39529e-05 1.7151e-05 1.64781e-05
-1.3591e-05 -1.6741e-05 1.64097e-05
7.76773e-06 1.98192e-05 1.63309e-05
7.68476e-06 -2.03096e-05 1.64022e-05
2.1472e-05 -3.44367e-06 1.63999e-05
-2.11024e-05 6.58808e-09 1.62464e-05
-2.24201e-05 1.09996e-05 1.74534e-05
-1.87506e-05 9.25456e-06 1.66268e-05
-1.79825e-05 5.79536e-06 1.6036e-05
-1.49837e-05 7.44821e-06 1.54861e-05
-1.42242e-05 4.30765e-06 1.48294e-05
-1.15324e-05 5.74379e-06 1.40944e-05
-1.08578e-05 3.06869e-06 1.33732e-05
-8.40035e-06 4.30481e-06 1.2404e-05
-9.05866e-06 7.01329e-06 1.3456e-05
-6.20401e-06 5.48842e-06 1.16887e-05
-6.82819e-06 8.24931e-06 1.30796e-05
-4.28133e-06 6.6748e-06 1.14502e-05
-4.79993e-06 9.60977e-06 1.30936e-05
-2.40083e-06 7.99322e-06 1.17226e-05
-2.81281e-06 1.1167e-05 1.34746e-05
-4.75402e-07 9.59514e-06 1.25006e-05
-7.38342e-07 1.29967e-05 1.41414e-05
1.73105e-06 1.15176e-05 1.35346e-05
-5.5346e-06 1.27002e-05 1.44366e-05
1.68505e-06 8.22385e-06 1.17473e-05
4.00411e-06 1.01207e-05 1.31506e-05
3.70529e-06 7.09784e-06 1.14779e-05
6.06731e-06 8.96653e-06 1.3113e-05
5.76673e-06 6.1067e-06 1.17353e-05
8.35795e-06 8.0202e-06 1.34917e-05
8.10552e-06 5.19519e-06 1.25e-05
1.09538e-05 7.09694e-06 1.41466e-05
1.07458e-05 4.32273e-06 1.34987e-05
8.53039e-06 1.10373e-05 1.44604e-05
7.93757e-06 2.6437e-06 1.17271e-05
1.06458e-05 1.73717e-06 1.31037e-05
7.94856e-06 3.58755e-07 1.14553e-05
1.08062e-05 -7.59101e-07 1.31238e-05
8.11152e-06 -1.93777e-06 1.17088e-05
1.10981e-05 -3.3128e-06 1.34836e-05
8.4696e-06 -4.42391e-06 1.24437e-05
1.15035e-05 -6.00279e-06 1.41091e-05
8.95543e-06 -7.138e-06 1.34277e-05
6.14743e-06 -5.49433e-06 1.1641e-05
6.64439e-06 -8.30073e-06 1.30179e-05
4.10514e-06 -6.58841e-06 1.13106e-05
4.52329e-06 -9.55072e-06 1.2988e-05
2.24226e-06 -7.85817e-06 1.15971e-05
2.4848e-06 -1.10017e-05 1.33506e-05
2.25288e-07 -9.37355e-06 1.23533e-05
3.30009e-07 -1.27696e-05 1.40335e-05
-1.91541e-06 -1.11505e-05 1.33767e-05
-1.84104e-06 -7.9215e-06 1.15819e-05
-4.16783e-06 -9.8747e-06 1.30847e-05
-3.81388e-06 -6.7304e-06 1.13168e-05
-6.34552e-06 -8.66189e-06 1.3099e-05
-5.89121e-06 -5.69793e-06 1.16281e-05
-8.49959e-06 -7.43569e-06 1.33794e-05
-8.16743e-06 -4.72799e-06 1.24083e-05
-1.10955e-05 -6.40267e-06 1.40696e-05
-4.37159e-06 -1.3123e-05 1.44334e-05
-1.08087e-05 -3.65063e-06 1.34389e-05
7.22601e-06 -1.13726e-05 1.42727e-05
-7.74159e-06 1.98266e-06 1.14927e-05
-1.32159e-05 1.03504e-06 1.42106e-05
1.7291e-06 1.50826e-05 1.49519e-05
1.37679e-05 4.62231e-07 1.43875e-05
1.3843e-05 6.10001e-06 1.49314e-05
-9.69392e-06 1.01961e-05 1.45322e-05
-5.41594e-06 -3.19761e-06 1.01819e-05
-1.17134e-05 -9.29721e-06 1.48889e-05
1.18822e-05 -8.76009e-06 1.47869e-05
1.47816e-05 -7.4735e-06 1.54031e-05
-1.39595e-05 -5.24382e-06 1.48614e-05
2.79578e-06 -1.45159e-05 1.47959e-05
4.24558e-07 -1.64992e-05 1.53975e-05
3.51839e-06 4.39689e-06 9.58094e-06
1.40104e-05 9.29893e-06 1.54914e-05
1.79306e-05 8.14485e-06 1.63003e-05
-1.56753e-05 1.13952e-05 1.62333e-05
-1.09407e-06 1.67689e-05 1.54951e-05
1.90684e-06 1.96214e-05 1.63108e-05
-2.09184e-06 5.22002e-06 9.59744e-06
5.55388e-06 -7.84594e-07 9.59399e-06
3.58591e-06 -3.68352e-06 9.08183e-06
-1.77962e-06 -5.17851e-06 9.44946e-06
-2.24685e-05 -1.10107e-05 1.74741e-05
-1.87979e-05 -9.2413e-06 1.66509e-05
2.11476e-05 1.41646e-05 1.75054e-05
2.07535e-05 -1.43174e-05 1.74354e-05
-1.76459e-06 -2.54462e-05 1.75108e-05
-1.68212e-06 2.54103e-05 1.75154e-05
1.77128e-05 -1.19067e-05 1.6687e-05
2.06455e-05 -1.07509e-05 1.71158e-05
3.7756e-06 -1.89849e-05 1.61392e-05
7.68524e-07 -2.03455e-05 1.64827e-05
-1.94048e-05 -1.26504e-05 1.7143e-05
-1.37309e-05 -2.30689e-06 1.44716e-05
-1.65925e-05 -3.70138e-06 1.54773e-05
-1.03757e-05 -1.09637e-06 1.29519e-05
2.44518e-05 1.10726e-05 1.76515e-05
2.54973e-05 -1.24031e-05 1.7848e-05
2.64924e-06 2.67257e-05 1.76603e-05
2.52099e-06 -2.64133e-05 1.76292e-05
3.33944e-06 -2.30316e-05 1.70289e-05
-2.05387e-06 -1.83196e-05 1.59507e-05
4.05903e-06 2.3791e-05 1.71302e-05
2.26139e-05 8.37913e-06 1.71191e-05
4.61354e-06 1.73131e-05 1.5727e-05
1.44268e-05 -1.31193e-05 1.61372e-05
-1.57875e-05 -1.09846e-05 1.62143e-05
-1.67995e-05 -3.81422e-07 1.53771e-05
1.73057e-05 4.68741e-06 1.57254e-05
6.55213e-08 -6.38722e-06 1.02673e-05
1.74169e-06 -4.84839e-06 9.09233e-06
5.85038e-06 -2.93547e-06 1.0378e-05
-2.14439e-05 3.75044e-06 1.64586e-05
5.72928e-06 -1.62742e-05 1.55075e-05
9.08332e-06 -1.74987e-05 1.59972e-05
1.75719e-05 1.18815e-05 1.66721e-05
1.3994e-05 -1.6382e-05 1.6401e-05
1.07398e-05 -1.37888e-05 1.55498e-05
-3.54792e-06 -4.22013e-06 9.5006e-06
5.39904e-06 1.13848e-06 9.49889e-06
5.21797e-06 3.22283e-06 1.00471e-05
-1.74978e-06 -2.83541e-05 1.78767e-05
1.89203e-06 5.29881e-06 9.58428e-06
-1.13822e-07 6.10491e-06 1.00386e-05
-3.78486e-06 4.12768e-06 9.57824e-06
-5.62259e-06 3.03414e-06 1.02851e-05
-5.16539e-06 1.04066e-06 9.21345e-06
-7.52713e-06 -6.17381e-08 1.11722e-05
-4.33431e-06 -8.10266e-07 8.38171e-06
-3.10854e-06 1.87231e-06 7.37394e-06
-2.20808e-05 -3.60768e-06 1.65156e-05
2.34059e-05 -1.56878e-05 1.78359e-05
-1.50718e-06 2.11676e-05 1.66818e-05
2.12613e-05 -8.4518e-08 1.62255e-05
1.76218e-05 -1.64677e-06 1.55812e-05
1.73474e-05 -4.94159e-06 1.57704e-05
2.18912e-05 -7.45098e-06 1.69134e-05
-2.31819e-05 -1.42544e-05 1.78325e-05
1.73243e-05 1.64884e-06 1.55083e-05
-1.73399e-06 2.84727e-05 1.78939e-05
-4.22066e-07 3.68337e-06 7.49518e-06
2.37716e-05 1.57421e-05 1.78844e-05
-1.74971e-05 1.5642e-05 1.69747e-05
-1.0626e-05 -1.84658e-05 1.62548e-05
-1.00994e-05 -1.43421e-05 1.55714e-05
-7.50764e-06 -1.60946e-05 1.56218e-05
-7.32201e-06 -2.01202e-05 1.6395e-05
-1.07043e-05 1.85349e-05 1.62665e-05
-1.03471e-05 1.43839e-05 1.56191e-05
-7.77252e-06 2.04921e-05 1.6444e-05
-4.25293e-06 1.86094e-05 1.60527e-05
1.07595e-05 1.83451e-05 1.62259e-05
1.38914e-05 1.69346e-05 1.64308e-05
1.40417e-05 1.29727e-05 1.6051e-05
-7.36145e-06 1.6288e-05 1.56383e-05
1.0525e-05 1.45468e-05 1.5645e-05
7.74862e-06 1.6092e-05 1.56137e-05
-3.11642e-06 -1.89874e-06 7.39306e-06
-7.25753e-06 -1.24218e-05 1.46249e-05
3.00862e-06 4.03596e-08 6.60087e-06
4.8725e-06 1.35225e-05 1.46178e-05
1.40758e-05 -2.26035e-06 1.45702e-05
-1.72895e-05 -1.52165e-05 1.69453e-05
-1.73662e-05 2.42026e-06 1.55976e-05
-1.22045e-05 8.9118e-06 1.49432e-05
-7.70551e-06 -2.29249e-06 1.15545e-05
-1.24496e-05 1.18125e-05 1.55397e-05
-1.42734e-07 -3.75418e-06 7.55406e-06
2.7302e-06 2.27205e-06 7.25182e-06
-2.00383e-06 -1.46503e-05 1.48078e-05
9.36495e-06 -1.00681e-05 1.43892e-05
1.38605e-05 3.15776e-06 1.45659e-05
-7.33993e-06 1.11992e-05 1.42601e-05
4.99714e-06 -1.27746e-05 1.4369e-05
1.10317e-05 1.04303e-05 1.49194e-05
-3.59639e-06 1.46851e-05 1.49078e-05
-4.6354e-06 -1.66166e-05 1.55486e-05
-1.95068e-05 1.28923e-05 1.71611e-05
-2.31266e-05 1.4858e-05 1.78433e-05
-1.29047e-05 -1.26859e-05 1.58123e-05
3.76075e-06 -1.5861e-06 7.90683e-06
1.76437e-06 2.92225e-06 7.08433e-06
-9.23035e-06 -1.06093e-05 1.45316e-05
1.72772e-06 -2.82312e-06 6.93097e-06
9.94724e-07 2.41166e-05 1.73083e-05
2.13677e-05 1.11937e-05 1.72985e-05
-1.46644e-05 -7.95328e-06 1.54851e-05
1.37079e-05 -4.78625e-06 1.46904e-05
-1.90986e-06 -2.17627e-05 1.68026e-05
1.80602e-05 -8.41895e-06 1.63405e-05
-1.66787e-05 -6.32848e-06 1.57822e-05
-4.32896e-07 -1.9223e-06 4.79841e-06
-1.80535e-06 2.99541e-06 7.17708e-06
-2.50517e-05 -1.29817e-05 1.79221e-05
-2.5127e-05 -1.45071e-05 1.8002e-05
-2.50449e-05 1.30336e-05 1.79059e-05
-2.51178e-05 1.46498e-05 1.7982e-05
-1.64844e-06 -3.12481e-06 7.20981e-06
6.32786e-06 1.13682e-05 1.40764e-05
5.33708e-07 -2.40858e-05 1.73021e-05
-5.22773e-07 1.80953e-06 4.64495e-06
7.40736e-06 -1.43435e-05 1.51522e-05
2.33026e-05 -1.32092e-05 1.77287e-05
2.36324e-05 -1.05374e-05 1.74907e-05
1.19883e-05 -1.82107e-05 1.62931e-05
1.47299e-05 -1.01465e-05 1.57954e-05
-1.00269e-05 1.00123e-06 1.27545e-05
-1.74e-06 -8.15894e-07 4.72339e-06
7.69056e-07 3.70831e-06 7.57304e-06
2.34305e-06 -1.99714e-06 6.5552e-06
2.01563e-05 5.89775e-06 1.64534e-05
5.07004e-06 2.05957e-05 1.64958e-05
3.42117e-07 -2.76797e-05 1.78539e-05
-1.73121e-06 7.09105e-07 4.60627e-06
-3.21147e-06 6.23042e-07 6.82405e-06
3.57718e-06 1.4754e-06 7.63652e-06
4.99225e-07 2.83235e-05 1.79271e-05
2.47601e-05 1.37339e-05 1.79183e-05
-2.03281e-05 1.55357e-05 1.74289e-05
1.1787e-06 1.36446e-06 4.4598e-06
-2.06394e-05 -1.57283e-05 1.75275e-05
-1.89987e-05 -2.32215e-06 1.5946e-05
-1.95589e-05 -5.58492e-06 1.63321e-05
9.05674e-07 -3.24772e-06 7.00601e-06
-4.36598e-06 -1.97891e-05 1.63217e-05
-7.93718e-06 1.38342e-05 1.51009e-05
1.16574e-06 -1.30417e-06 4.33924e-06
1.19343e-05 -1.12282e-05 1.5292e-05
6.13301e-06 -2.26958e-05 1.68203e-05
-1.4522e-05 1.43552e-05 1.63235e-05
7.92898e-06 1.33211e-05 1.49478e-05
1.79366e-06 8.58736e-07 -4.55218e-06
1.7378e-06 -8.25105e-07 -4.46073e-06
4.31949e-07 1.8496e-06 -4.49505e-06
4.36093e-07 -1.78061e-06 -4.35602e-06
-1.84747e-06 2.09628e-08 -4.4223e-06
-1.12307e-06 -1.30886e-06 -4.15094e-06
-1.15919e-06 1.30678e-06 -4.19972e-06
-2.25127e-05 -7.28756e-06 -1.69997e-05
-2.21961e-05 7.37145e-06 -1.69684e-05
-4.86038e-06 2.28982e-05 -1.69368e-05
-4.8579e-06 -2.31313e-05 -1.69637e-05
1.7421e-05 1.56352e-05 -1.69296e-05
1.75685e-05 -1.55362e-05 -1.69389e-05
2.10732e-05 3.16382e-06 -1.63241e-05
-1.39529e-05 1.7151e-05 -1.64781e-05
-1.3591e-05 -1.6741e-05 -1.64097e-05
7.76773e-06 1.98192e-05 -1.63309e-05
7.68476e-06 -2.03096e-05 -1.64022e-05
2.1472e-05 -3.44367e-06 -1.63999e-05
-2.11024e-05 6.58808e-09 -1.62464e-05
-2.24201e-05 1.09996e-05 -1.74534e-05
-1.87506e-05 9.25456e-06 -1.66268e-05
-1.79825e-05 5.79536e-06 -1.6036e-05
-1.49837e-05 7.44821e-06 -1.54861e-05
-1.42242e-05 4.30765e-06 -1.48294e-05
-1.15324e-05 5.74379e-06 -1.40944e-05
-1.08578e-05 3.06869e-06 -1.33732e-05
-8.40035e-06 4.30481e-06 -1.2404e-05
-9.05866e-06 7.01329e-06 -1.3456e-05
-6.20401e-06 5.48842e-06 -1.16887e-05
-6.82819e-06 8.24931e-06 -1.30796e-05
-4.28133e-06 6.6748e-06 -1.14502e-05
-4.79993e-06 9.60977e-06 -1.30936e-05
-2.40083e-06 7.99322e-06 -1.17226e-05
-2.81281e-06 1.1167e-05 -1.34746e-05
-4.75402e-07 9.59514e-06 -1.25006e-05
-7.38342e-07 1.29967e-05 -1.41414e-05
1.73105e-06 1.15176e-05 -1.35346e-05
-5.5346e-06 1.27002e-05 -1.44366e-05
1.68505e-06 8.22385e-06 -1.17473e-05
4.00411e-06 1.01207e-05 -1.31506e-05
3.70529e-06 7.09784e-06 -1.14779e-05
6.06731e-06 8.96653e-06 -1.3113e-05
5.76673e-06 6.1067e-06 -1.17353e-05
8.35795e-06 8.0202e-06 -1.34917e-05
8.10552e-06 5.19519e-06 -1.25e-05
1.09538e-05 7.09694e-06 -1.41466e-05
1.07458e-05 4.32273e-06 -1.34987e-05
8.53039e-06 1.10373e-05 -1.44604e-05
7.93757e-06 2.6437e-06 -1.17271e-05
1.06458e-05 1.73717e-06 -1.31037e-05
7.94856e-06 3.58755e-07 -1.14553e-05
1.08062e-05 -7.59101e-07 -1.31238e-05
8.11152e-06 -1.93777e-06 -1.17088e-05
1.10981e-05 -3.3128e-06 -1.34836e-05
8.4696e-06 -4.42391e-06 -1.24437e-05
1.15035e-05 -6.00279e-06 -1.41091e-05
8.95543e-06 -7.138e-06 -1.34277e-05
6.14743e-06 -5.49433e-06 -1.1641e-05
6.64439e-06 -8.30073e-06 -1.30179e-05
4.10514e-06 -6.58841e-06 -1.13106e-05
4.52329e-06 -9.55072e-06 -1.2988e-05
2.24226e-06 -7.85817e-06 -1.15971e-05
2.4848e-06 -1.10017e-05 -1.33506e-05
2.25288e-07 -9.37355e-06 -1.23533e-05
3.30009e-07 -1.27696e-05 -1.40335e-05
-1.91541e-06 -1.11505e-05 -1.33767e-05
-1.84104e-06 -7.9215e-06 -1.15819e-05
-4.16783e-06 -9.8747e-06 -1.30847e-05
-3.81388e-06 -6.7304e-06 -1.13168e-05
-6.34552e-06 -8.66189e-06 -1.3099e-05
-5.89121e-06 -5.69793e-06 -1.16281e-05
-8.49959e-06 -7.43569e-06 -1.33794e-05
-8.16743e-06 -4.72799e-06 -1.24083e-05
-1.10955e-05 -6.40267e-06 -1.40696e-05
-4.37159e-06 -1.3123e-05 -1.44334e-05
-1.08087e-05 -3.65063e-06 -1.34389e-05
7.22601e-06 -1.13726e-05 -1.42727e-05
-7.74159e-06 1.98266e-06 -1.14927e-05
-1.32159e-05 1.03504e-06 -1.42106e-05
1.7291e-06 1.50826e-05 -1.49519e-05
1.37679e-05 4.62231e-07 -1.43875e-05
1.3843e-05 6.10001e-06 -1.49314e-05
-9.69392e-06 1.01961e-05 -1.45322e-05
-5.41594e-06 -3.19761e-06 -1.01819e-05
-1.17134e-05 -9.29721e-06 -1.48889e-05
1.18822e-05 -8.76009e-06 -1.47869e-05
1.47816e-05 -7.4735e-06 -1.54031e-05
-1.39595e-05 -5.24382e-06 -1.48614e-05
2.79578e-06 -1.45159e-05 -1.47959e-05
4.24558e-07 -1.64992e-05 -1.53975e-05
3.51839e-06 4.39689e-06 -9.58094e-06
1.40104e-05 9.29893e-06 -1.54914e-05
1.79306e-05 8.14485e-06 -1.63003e-05
-1.56753e-05 1.13952e-05 -1.62333e-05
-1.09407e-06 1.67689e-05 -1.54951e-05
1.90684e-06 1.96214e-05 -1.63108e-05
-2.09184e-06 5.22002e-06 -9.59744e-06
5.55388e-06 -7.84594e-07 -9.59399e-06
3.58591e-06 -3.68352e-06 -9.08183e-06
-1.77962e-06 -5.17851e-06 -9.44946e-06
-2.24685e-05 -1.10107e-05 -1.74741e-05
-1.87979e-05 -9.2413e-06 -1.66509e-05
2.11476e-05 1.41646e-05 -1.75054e-05
2.07535e-05 -1.43174e-05 -1.74354e-05
-1.76459e-06 -2.54462e-05 -1.75108e-05
-1.68212e-06 2.54103e-05 -1.75154e-05
1.77128e-05 -1.19067e-05 -1.6687e-05
2.06455e-05 -1.07509e-05 -1.71158e-05
3.7756e-06 -1.89849e-05 -1.61392e-05
7.68524e-07 -2.03455e-05 -1.64827e-05
-1.94048e-05 -1.26504e-05 -1.7143e-05
-1.37309e-05 -2.30689e-06 -1.44716e-05
-1.65925e-05 -3.70138e-06 -1.54773e-05
-1.03757e-05 -1.09637e-06 -1.29519e-05
2.44518e-05 1.10726e-05 -1.76515e-05
2.54973e-05 -1.24031e-05 -1.7848e-05
2.64924e-06 2.67257e-05 -1.76603e-05
2.52099e-06 -2.64133e-05 -1.76292e-05
3.33944e-06 -2.30316e-05 -1.70289e-05
-2.05387e-06 -1.83196e-05 -1.59507e-05
4.05903e-06 2.3791e-05 -1.71302e-05
2.26139e-05 8.37913e-06 -1.71191e-05
4.61354e-06 1.73131e-05 -1.5727e-05
1.44268e-05 -1.31193e-05 -1.61372e-05
-1.57875e-05 -1.09846e-05 -1.62143e-05
-1.67995e-05 -3.81422e-07 -1.53771e-05
1.73057e-05 4.68741e-06 -1.57254e-05
6.55213e-08 -6.38722e-06 -1.02673e-05
1.74169e-06 -4.84839e-06 -9.09233e-06
5.85038e-06 -2.93547e-06 -1.0378e-05
-2.14439e-05 3.75044e-06 -1.64586e-05
5.72928e-06 -1.62742e-05 -1.55075e-05
9.08332e-06 -1.74987e-05 -1.59972e-05
1.75719e-05 1.18815e-05 -1.66721e-05
1.3994e-05 -1.6382e-05 -1.6401e-05
1.07398e-05 -1.37888e-05 -1.55498e-05
-3.54792e-06 -4.22013e-06 -9.5006e-06
5.39904e-06 1.13848e-06 -9.49889e-06
5.21797e-06 3.22283e-06 -1.00471e-05
-1.74978e-06 -2.83541e-05 -1.78767e-05
1.89203e-06 5.29881e-06 -9.58428e-06
-1.13822e-07 6.10491e-06 -1.00386e-05
-3.78486e-06 4.12768e-06 -9.57824e-06
-5.62259e-06 3.03414e-06 -1.02851e-05
-5.16539e-06 1.04066e-06 -9.21345e-06
-7.52713e-06 -6.17381e-08 -1.11722e-05
-4.33431e-06 -8.10266e-07 -8.38171e-06
-3.10854e-06 1.87231e-06 -7.37394e-06
-2.20808e-05 -3.60768e-06 -1.65156e-05
2.34059e-05 -1.56878e-05 -1.78359e-05
-1.50718e-06 2.11676e-05 -1.66818e-05
2.12613e-05 -8.4518e-08 -1.62255e-05
1.76218e-05 -1.64677e-06 -1.55812e-05
1.73474e-05 -4.94159e-06 -1.57704e-05
2.18912e-05 -7.45098e-06 -1.69134e-05
-2.31819e-05 -1.42544e-05 -1.78325e-05
1.73243e-05 1.64884e-06 -1.55083e-05
-1.73399e-06 2.84727e-05 -1.78939e-05
-4.22066e-07 3.68337e-06 -7.49518e-06
2.37716e-05 1.57421e-05 -1.78844e-05
-1.74971e-05 1.5642e-05 -1.69747e-05
-1.0626e-05 -1.84658e-05 -1.62548e-05
-1.00994e-05 -1.43421e-05 -1.55714e-05
-7.50764e-06 -1.60946e-05 -1.56218e-05
-7.32201e-06 -2.01202e-05 -1.6395e-05
-1.07043e-05 1.85349e-05 -1.62665e-05
-1.03471e-05 1.43839e-05 -1.56191e-05
-7.77252e-06 2.04921e-05 -1.6444e-05
-4.25293e-06 1.86094e-05 -1.60527e-05
1.07595e-05 1.83451e-05 -1.62259e-05
1.38914e-05 1.69346e-05 -1.64308e-05
1.40417e-05 1.29727e-05 -1.6051e-05
-7.36145e-06 1.6288e-05 -1.56383e-05
1.0525e-05 1.45468e-05 -1.5645e-05
7.74862e-06 1.6092e-05 -1.56137e-05
-3.11642e-06 -1.89874e-06 -7.39306e-06
-7.25753e-06 -1.24218e-05 -1.46249e-05
3.00862e-06 4.03596e-08 -6.60087e-06
4.8725e-06 1.35225e-05 -1.46178e-05
1.40758e-05 -2.26035e-06 -1.45702e-05
-1.72895e-05 -1.52165e-05 -1.69453e-05
-1.73662e-05 2.42026e-06 -1.55976e-05
-1.22045e-05 8.9118e-06 -1.49432e-05
-7.70551e-06 -2.29249e-06 -1.15545e-05
-1.24496e-05 1.18125e-05 -1.55397e-05
-1.42734e-07 -3.75418e-06 -7.55406e-06
2.7302e-06 2.27205e-06 -7.25182e-06
-2.00383e-06 -1.46503e-05 -1.48078e-05
9.36495e-06 -1.00681e-05 -1.43892e-05
1.38605e-05 3.15776e-06 -1.45659e-05
-7.33993e-06 1.11992e-05 -1.42601e-05
4.99714e-06 -1.27746e-05 -1.4369e-05
1.10317e-05 1.04303e-05 -1.49194e-05
-3.59639e-06 1.46851e-05 -1.49078e-05
-4.6354e-06 -1.66166e-05 -1.55486e-05
-1.95068e-05 1.28923e-05 -1.71611e-05
-2.31266e-05 1.4858e-05 -1.78433e-05
-1.29047e-05 -1.26859e-05 -1.58123e-05
3.76075e-06 -1.5861e-06 -7.90683e-06
1.76437e-06 2.92225e-06 -7.08433e-06
-9.23035e-06 -1.06093e-05 -1.45316e-05
1.72772e-06 -2.82312e-06 -6.93097e-06
9.94724e-07 2.41166e-05 -1.73083e-05
2.13677e-05 1.11937e-05 -1.72985e-05
-1.46644e-05 -7.95328e-06 -1.54851e-05
1.37079e-05 -4.78625e-06 -1.46904e-05
-1.90986e-06 -2.17627e-05 -1.68026e-05
1.80602e-05 -8.41895e-06 -1.63405e-05
-1.66787e-05 -6.32848e-06 -1.57822e-05
-4.32896e-07 -1.9223e-06 -4.79841e-06
-1.80535e-06 2.99541e-06 -7.17708e-06
-2.50517e-05 -1.29817e-05 -1.79221e-05
-2.5127e-05 -1.45071e-05 -1.8002e-05
-2.50449e-05 1.30336e-05 -1.79059e-05
-2.51178e-05 1.46498e-05 -1.7982e-05
-1.64844e-06 -3.12481e-06 -7.20981e-06
6.32786e-06 1.13682e-05 -1.40764e-05
5.33708e-07 -2.40858e-05 -1.73021e-05
-5.22773e-07 1.80953e-06 -4.64495e-06
7.40736e-06 -1.43435e-05 -1.51522e-05
2.33026e-05 -1.32092e-05 -1.77287e-05
2.36324e-05 -1.05374e-05 -1.74907e-05
1.19883e-05 -1.82107e-05 -1.62931e-05
1.47299e-05 -1.01465e-05 -1.57954e-05
-1.00269e-05 1.00123e-06 -1.27545e-05
-1.74e-06 -8.15894e-07 -4.72339e-06
7.69056e-07 3.70831e-06 -7.57304e-06
2.34305e-06 -1.99714e-06 -6.5552e-06
2.01563e-05 5.89775e-06 -1.64534e-05
5.07004e-06 2.05957e-05 -1.64958e-05
3.42117e-07 -2.76797e-05 -1.78539e-05
-1.73121e-06 7.09105e-07 -4.60627e-06
-3.21147e-06 6.23042e-07 -6.82405e-06
3.57718e-06 1.4754e-06 -7.63652e-06
4.99225e-07 2.83235e-05 -1.79271e-05
2.47601e-05 1.37339e-05 -1.79183e-05
-2.03281e-05 1.55357e-05 -1.74289e-05
1.1787e-06 1.36446e-06 -4.4598e-06
-2.06394e-05 -1.57283e-05 -1.75275e-05
-1.89987e-05 -2.32215e-06 -1.5946e-05
-1.95589e-05 -5.58492e-06 -1.63321e-05
9.05674e-07 -3.24772e-06 -7.00601e-06
-4.36598e-06 -1.97891e-05 -1.63217e-05
-7.93718e-06 1.38342e-05 -1.51009e-05
1.16574e-06 -1.30417e-06 -4.33924e-06
1.19343e-05 -1.12282e-05 -1.5292e-05
6.13301e-06 -2.26958e-05 -1.68203e-05
-1.4522e-05 1.43552e-05 -1.63235e-05
7.92898e-06 1.33211e-05 -1.49478e-05
SCALARS effective_fluid_pressure_TPM float
LOOKUP_TABLE default
665
665
665
665
665
665
665
665
665
665
665
665
665
665
133
665
665
665
665
665
665
665
665
665
665
665
665
665
665
133
665
560.314
520.658
502.798
502.568
519.784
559.935
665
561.981
520.752
503.24
503.35
520.684
561.603
665
559.602
519.655
502.742
502.96
521.153
561.619
665
558.858
518.999
501.531
502.227
518.848
559.446
665
558.498
519.939
501.863
501.795
519.372
557.937
665
558.654
519.953
502.036
501.897
519.36
559.661
133
133
133
133
133
133
665
560.314
520.658
502.798
502.568
519.784
559.935
665
561.981
520.752
503.24
503.35
520.684
561.603
665
559.602
519.655
502.742
502.96
521.153
561.619
665
558.858
518.999
501.531
502.227
518.848
559.446
665
558.498
519.939
501.863
501.795
519.372
557.937
665
558.654
519.953
502.036
501.897
519.36
559.661
133
133
133
133
133
133
228.254
226.324
227.037
224.106
225.521
219.843
220.86
529.158
528.168
526.547
527.926
526.574
527.627
498.693
503.54
501.578
498.934
501.451
501.232
494.314
562.497
518.972
495.018
480.724
461.344
443.264
425.032
402.106
427.257
385.252
417.724
379.599
417.888
385.937
427.373
404.284
444.367
429.062
450.244
386.546
419.288
380.194
418.299
386.176
427.746
404.212
444.478
428.146
450.84
386.021
418.151
379.61
418.507
385.544
427.582
402.906
443.54
426.438
384.038
416.124
376.294
415.331
383.01
424.404
400.832
441.69
425.212
382.747
417.764
376.559
418.081
383.832
425.252
402.199
442.662
450.634
426.711
445.992
380.719
444.658
465.274
448.725
464.747
453.395
350.895
463.489
461.02
478.428
462.756
460.626
478.332
337.27
480.804
505.837
503.596
480.87
506.143
337.683
337.494
326.158
334.408
563.373
519.647
567.574
562.359
567.891
567.744
521.796
542.708
498.608
513.721
542.053
451.437
477.554
414.642
579.515
611.026
579.668
576.028
534.542
494.458
538.216
537.913
485.015
498.094
503.313
473.116
485.062
352.74
326.408
355.169
503.422
477.693
488.336
520.865
502.005
477.891
335.534
335.397
347.692
613.443
337.371
347.563
337.258
353.196
329.182
373.246
310.654
288.782
504.688
608.378
521.086
493.698
478.303
486.332
526.48
600.337
476.54
615.897
291.391
615.795
528.709
494.509
478.21
479.384
501.292
494.816
479.411
502.487
495.151
493.72
502.239
495.224
479.858
480.024
479.026
289.289
454.566
271.937
454.974
453.603
526.989
479.447
465.197
382.089
480.483
292.664
286.076
461.453
449.608
453.951
445.829
448.663
463.578
463.236
479.927
543.448
601.698
487.468
300.295
282.456
452.988
279.158
552.231
551.99
480.749
457.992
526.212
508.163
488.565
233.726
284.553
614.504
636.32
615.138
636.677
285.274
441.314
553.071
230.482
467.525
590.259
566.025
495.789
490.024
410.02
232.115
293.09
271.121
507.871
509.169
607.811
229.659
276.971
294.424
618.876
618.789
558.505
226.518
562.518
488.287
503.37
280.841
504.041
466.352
224.004
473.559
519.557
502.956
462.418
228.254
226.324
227.037
224.106
225.521
219.843
220.86
529.158
528.168
526.547
527.926
526.574
527.627
498.693
503.54
501.578
498.934
501.451
501.232
494.314
562.497
518.972
495.018
480.724
461.344
443.264
425.032
402.106
427.257
385.252
417.724
379.599
417.888
385.937
427.373
404.284
444.367
429.062
450.244
386.546
419.288
380.194
418.299
386.176
427.746
404.212
444.478
428.146
450.84
386.021
418.151
379.61
418.507
385.544
427.582
402.906
443.54
426.438
384.038
416.124
376.294
415.331
383.01
424.404
400.832
441.69
425.212
382.747
417.764
376.559
418.081
383.832
425.252
402.199
442.662
450.634
426.711
445.992
380.719
444.658
465.274
448.725
464.747
453.395
350.895
463.489
461.02
478.428
462.756
460.626
478.332
337.27
480.804
505.837
503.596
480.87
506.143
337.683
337.494
326.158
334.408
563.373
519.647
567.574
562.359
567.891
567.744
521.796
542.708
498.608
513.721
542.053
451.437
477.554
414.642
579.515
611.026
579.668
576.028
534.542
494.458
538.216
537.913
485.015
498.094
503.313
473.116
485.062
352.74
326.408
355.169
503.422
477.693
488.336
520.865
502.005
477.891
335.534
335.397
347.692
613.443
337.371
347.563
337.258
353.196
329.182
373.246
310.654
288.782
504.688
608.378
521.086
493.698
478.303
486.332
526.48
600.337
476.54
615.897
291.391
615.795
528.709
494.509
478.21
479.384
501.292
494.816
479.411
502.487
495.151
493.72
502.239
495.224
479.858
480.024
479.026
289.289
454.566
271.937
454.974
453.603
526.989
479.447
465.197
382.089
480.483
292.664
286.076
461.453
449.608
453.951
445.829
448.663
463.578
463.236
479.927
543.448
601.698
487.468
300.295
282.456
452.988
279.158
552.231
551.99
480.749
457.992
526.212
508.163
488.565
233.726
284.553
614.504
636.32
615.138
636.677
285.274
441.314
553.071
230.482
467.525
590.259
566.025
495.789
490.024
410.02
232.115
293.09
271.121
507.871
509.169
607.811
229.659
276.971
294.424
618.876
618.789
558.505
226.518
562.518
488.287
503.37
280.841
504.041
466.352
224.004
473.559
519.557
502.956
462.418

CELL_DATA 563
TENSORS stress float
164.608 -24.9203 8.47914e-13
-24.9203 28.1479 2.70835e-12
8.47914e-13 2.70835e-12 -12.6048

-40.3384 -21.3202 1.4444e-12
-21.3202 -7.35468 3.37508e-14
1.4444e-12 3.37508e-14 -10.2314

-9.93973 28.043 7.53175e-13
28.043 -1.11022 -1.88738e-12
7.53175e-13 -1.88738e-12 -6.35978

-40.4266 -29.8427 3.10522e-12
-29.8427 -12.8459 -2.52953e-12
3.10522e-12 -2.52953e-12 -10.5977

-22.6925 19.9309 -9.84013e-12
19.9309 -1.92221 2.76919e-12
-9.84013e-12 2.76919e-12 -23.0217

-27.139 -18.0742 -9.08458e-13
-18.0742 15.8879 1.15937e-12
-9.08458e-13 1.15937e-12 -6.41055

161.26 26.4844 1.01844e-12
26.4844 28.0246 -2.18137e-12
1.01844e-12 -2.18137e-12 -13.2636

-5.96122 29.9577 -1.86873e-12
29.9577 -10.1119 -1.40539e-12
-1.86873e-12 -1.40539e-12 -7.27585

34.6309 5.48309 1.41398e-12
5.48309 -19.0943 2.57646e-12
1.41398e-12 2.57646e-12 -4.12161

11.8603 -7.47756 -3.3055e-12
-7.47756 -48.287 -3.18656e-12
-3.3055e-12 -3.18656e-12 -8.94662

104.192 16.3083 3.31587e-14
16.3083 -8.44345 3.97904e-12
3.31587e-14 3.97904e-12 -22.4544

-34.6371 -13.4531 8.90103e-13
-13.4531 18.9658 9.85878e-13
8.90103e-13 9.85878e-13 -7.18011

-6.02578 27.8329 2.35071e-12
27.8329 -4.59139 1.0522e-12
2.35071e-12 1.0522e-12 -6.15871

-35.5513 -14.34 1.77414e-13
-14.34 7.84497 1.02614e-12
1.77414e-13 1.02614e-12 -9.13096

-23.6537 33.3115 -1.6153e-12
33.3115 -24.9943 -5.39491e-12
-1.6153e-12 -5.39491e-12 -21.3652

21.3107 0.560963 1.78228e-13
0.560963 -32.338 7.58116e-13
1.78228e-13 7.58116e-13 -5.58917

-48.9594 -17.9692 -2.40067e-13
-17.9692 6.34299 -4.7784e-13
-2.40067e-13 -4.7784e-13 -12.9458

11.6601 -2.6652 -8.47618e-13
-2.6652 -43.2483 -1.03036e-12
-8.47618e-13 -1.03036e-12 -8.03305

-11.3493 26.6734 -1.30562e-13
26.6734 19.5173 2.26189e-12
-1.30562e-13 2.26189e-12 -6.08888

21.7655 -4.19552 -1.17832e-12
-4.19552 -35.2939 -2.74936e-12
-1.17832e-12 -2.74936e-12 -6.74071

-24.4786 8.66848 7.60873e-13
8.66848 32.1273 1.10785e-12
7.60873e-13 1.10785e-12 -4.93377

-11.8088 6.28777 -4.93663e-12
6.28777 -11.9742 -4.90778e-12
-4.93663e-12 -4.90778e-12 -75.6221

22.7431 1.87596 9.47982e-13
1.87596 -33.4682 1.26173e-12
9.47982e-13 1.26173e-12 -6.67669

-12.3877 -27.7149 -2.34479e-13
-27.7149 1.59982 -1.07647e-12
-2.34479e-13 -1.07647e-12 -6.60219

21.3043 6.84932 -3.32771e-13
6.84932 -34.3033 -2.88895e-12
-3.32771e-13 -2.88895e-12 -6.80594

-37.9048 19.1128 -1.58962e-12
19.1128 2.65398 3.48699e-12
-1.58962e-12 3.48699e-12 -9.4572

106.601 4.18132 -2.65506e-12
4.18132 20.6024 -8.69231e-13
-2.65506e-12 -8.69231e-13 -12.0494

-5.30157 30.7456 2.61539e-12
30.7456 -7.27193 -2.97184e-12
2.61539e-12 -2.97184e-12 -7.44106

27.8899 37.0739 -8.21861e-13
37.0739 26.469 -2.70362e-12
-8.21861e-13 -2.70362e-12 -8.63183

-9.43909 10.3235 5.00933e-13
10.3235 -32.9305 4.42006e-12
5.00933e-13 4.42006e-12 -49.5097

19.8306 14.2168 2.8096e-12
14.2168 -29.3587 -1.44773e-13
2.8096e-12 -1.44773e-13 -6.00044

-4.20988 -17.7801 -1.60849e-12
-17.7801 59.657 -7.67386e-13
-1.60849e-12 -7.67386e-13 -8.47574

66.2822 -42.1012 -5.28407e-12
-42.1012 71.1374 -1.78109e-12
-5.28407e-12 -1.78109e-12 -11.2522

-48.2101 5.98684 3.25552e-12
5.98684 7.26962 -3.03787e-12
3.25552e-12 -3.03787e-12 -41.0382

-26.2912 -4.8408 4.31492e-12
-4.8408 1.75673 2.83181e-12
4.31492e-12 2.83181e-12 -37.8031

-1.46673 21.0279 -7.39557e-13
21.0279 -39.5066 1.45824e-12
-7.39557e-13 1.45824e-12 -41.104

-43.9763 5.06762 -1.48089e-12
5.06762 0.514237 -7.80413e-13
-1.48089e-12 -7.80413e-13 -52.1921

-2.75998 -9.1699 -5.53335e-13
-9.1699 -20.77 5.92998e-13
-5.53335e-13 5.92998e-13 -35.8974

-3.97399 -27.9979 3.25606e-12
-27.9979 -4.6104 -3.33659e-12
3.25606e-12 -3.33659e-12 -5.99404

65.596 41.5204 6.2883e-12
41.5204 73.1651 1.46372e-12
6.2883e-12 1.46372e-12 -10.964

60.1544 -17.9488 3.7043e-12
-17.9488 0.117282 1.43944e-12
3.7043e-12 1.43944e-12 -8.04973

-41.804 -3.70616 1.46535e-12
-3.70616 -1.18565 -4.39056e-13
1.46535e-12 -4.39056e-13 -52.7269

-14.5941 19.5557 1.56682e-12
19.5557 -28.5518 -1.2701e-12
1.56682e-12 -1.2701e-12 -52.8351

18.1409 -12.2732 -1.64964e-12
-12.2732 -29.8986 -4.85745e-12
-1.64964e-12 -4.85745e-12 -6.22263

38.1727 -43.2984 -2.5473e-12
-43.2984 41.8006 3.55863e-12
-2.5473e-12 3.55863e-12 -14.5589

58.1431 -18.0631 2.35427e-12
-18.0631 -2.30238 8.18901e-13
2.35427e-12 8.18901e-13 -7.91331

-21.4413 17.0854 2.52716e-12
17.0854 30.3269 1.2772e-12
2.52716e-12 1.2772e-12 -5.72782

-11.3723 19.3387 3.09945e-12
19.3387 25.5104 -8.82257e-14
3.09945e-12 -8.82257e-14 -3.92125

20.7911 -16.3009 -4.84945e-13
-16.3009 -33.1138 -1.87598e-12
-4.84945e-13 -1.87598e-12 -7.31119

12.6153 -34.1848 -6.0929e-13
-34.1848 46.4349 -1.25884e-12
-6.0929e-13 -1.25884e-12 -10.397

62.3592 19.1815 -2.61835e-12
19.1815 2.81051 5.29887e-12
-2.61835e-12 5.29887e-12 -8.41369

46.513 -25.2879 3.08494e-12
-25.2879 5.13428 4.35355e-12
3.08494e-12 4.35355e-12 -5.60965

-31.8956 19.4858 1.4917e-12
19.4858 -4.28557 2.2166e-12
1.4917e-12 2.2166e-12 -26.0858

37.0387 29.6488 -3.31587e-13
29.6488 14.5127 -7.61465e-13
-3.31587e-13 -7.61465e-13 -5.43208

-27.45 -21.8128 -3.54413e-12
-21.8128 -8.22818 1.12947e-12
-3.54413e-12 1.12947e-12 -25.2481

64.8677 -42.7105 -4.52616e-12
-42.7105 44.0794 4.358e-13
-4.52616e-12 4.358e-13 -9.50207

-27.7496 5.45982 -2.42532e-12
5.45982 2.66934 3.32682e-12
-2.42532e-12 3.32682e-12 -38.3087

-5.55738 -5.32968 -2.51591e-12
-5.32968 57.3873 5.11235e-12
-2.51591e-12 5.11235e-12 -5.44911

-0.200058 10.3842 -4.32632e-12
10.3842 -24.8482 -5.51466e-13
-4.32632e-12 -5.51466e-13 -38.3703

-26.4846 21.4128 3.75699e-13
21.4128 12.2196 -2.179e-13
3.75699e-13 -2.179e-13 -6.86914

4.7265 5.75383 1.56349e-12
5.75383 -56.04 -5.05921e-12
1.56349e-12 -5.05921e-12 -13.9805

0.539736 11.4589 7.9714e-13
11.4589 -34.0564 -1.22154e-12
7.9714e-13 -1.22154e-12 -14.8396

106.342 31.8194 1.0516e-12
31.8194 37.8324 1.06712e-11
1.0516e-12 1.06712e-11 -7.48974

-35.4916 -6.03508 -1.88146e-13
-6.03508 10.6012 -1.3222e-12
-1.88146e-13 -1.3222e-12 -13.4788

-35.3599 9.51966 3.99088e-13
9.51966 1.23359 1.91195e-12
3.99088e-13 1.91195e-12 -14.9599

-42.5874 -2.88074 -1.24893e-12
-2.88074 21.1109 2.73559e-13
-1.24893e-12 2.73559e-13 -11.2385

-44.9077 23.4021 7.78377e-13
23.4021 -5.89261 5.45342e-13
7.78377e-13 5.45342e-13 -13.9215

9.97105 8.46344 -1.80004e-13
8.46344 -42.3775 -9.73888e-13
-1.80004e-13 -9.73888e-13 -9.07743

-12.334 -28.239 2.52035e-12
-28.239 1.68747 -1.34766e-12
2.52035e-12 -1.34766e-12 -6.67336

1.30886 -1.71121 -1.17713e-12
-1.71121 -55.4561 -1.97472e-12
-1.17713e-12 -1.97472e-12 -11.3036

-31.8851 -19.2619 9.79957e-13
-19.2619 -4.59494 6.45232e-12
9.79957e-13 6.45232e-12 -25.9551

-27.9755 21.3078 3.86713e-12
21.3078 -8.35803 -2.38209e-12
3.86713e-12 -2.38209e-12 -26.0135

-0.651453 -16.5831 -9.59233e-13
-16.5831 61.6728 3.04112e-12
-9.59233e-13 3.04112e-12 -7.94858

-0.6501 -27.936 1.38437e-12
-27.936 -21.3606 1.55165e-12
1.38437e-12 1.55165e-12 -12.7907

-14.0928 -25.1343 -1.42375e-12
-25.1343 7.40685 3.73035e-14
-1.42375e-12 3.73035e-14 -5.23546

91.6765 -31.7101 3.65219e-12
-31.7101 19.4846 2.61154e-12
3.65219e-12 2.61154e-12 -16.3332

-33.7058 3.22259 2.6162e-12
3.22259 9.19929 1.75326e-12
2.6162e-12 1.75326e-12 -18.5635

2.75232 28.9437 -3.61903e-12
28.9437 -24.4245 2.19321e-12
-3.61903e-12 2.19321e-12 -11.3162

-38.433 19.6641 2.95926e-12
19.6641 5.22976 -2.21304e-12
2.95926e-12 -2.21304e-12 -9.23467

50.1899 7.99939 6.60805e-13
7.99939 -16.9632 -2.42769e-14
6.60805e-13 -2.42769e-14 -7.06642

60.0306 -33.9349 -3.39876e-12
-33.9349 33.7866 4.42787e-12
-3.39876e-12 4.42787e-12 -6.98354

-18.9598 -10.5875 -8.07354e-13
-10.5875 -0.541815 1.97501e-12
-8.07354e-13 1.97501e-12 -25.4315

-33.9261 23.8994 2.83862e-12
23.8994 -12.023 -5.12142e-12
2.83862e-12 -5.12142e-12 -14.54

58.1554 -32.3832 9.50943e-13
-32.3832 18.0913 -7.69755e-14
9.50943e-13 -7.69755e-14 -10.1335

66.8587 10.7909 8.21861e-13
10.7909 8.51338 -8.87142e-13
8.21861e-13 -8.87142e-13 -5.0841

7.67415 -21.2056 3.68298e-13
-21.2056 88.4632 -6.96332e-12
3.68298e-13 -6.96332e-12 -11.8622

-33.9852 14.4255 1.17817e-12
14.4255 20.2383 3.75285e-12
1.17817e-12 3.75285e-12 -7.5459

8.47556 23.1428 -1.73965e-12
23.1428 -26.0736 -2.11712e-12
-1.73965e-12 -2.11712e-12 -11.2988

34.8683 42.1979 -3.9672e-12
42.1979 46.1987 -3.50061e-12
-3.9672e-12 -3.50061e-12 -14.4204

-4.39443 16.5072 -1.90655e-11
16.5072 -35.5422 8.13068e-12
-1.90655e-11 8.13068e-12 -73.2886

-5.97946 -4.10827 8.60941e-13
-4.10827 57.9477 -1.06226e-12
8.60941e-13 -1.06226e-12 -5.44131

-1.81879 -16.6323 4.01575e-12
-16.6323 -39.4023 1.47204e-11
4.01575e-12 1.47204e-11 -74.1119

-3.32935 -27.335 -4.63037e-13
-27.335 -30.0298 -1.19697e-12
-4.63037e-13 -1.19697e-12 -21.5542

8.96719 27.4245 5.82645e-13
27.4245 -29.9945 -7.05865e-12
5.82645e-13 -7.05865e-12 -11.2568

45.7107 -24.4101 -3.67114e-13
-24.4101 5.02457 5.28052e-12
-3.67114e-13 5.28052e-12 -5.23572

10.0955 31.3226 -1.82491e-12
31.3226 47.1627 -1.03029e-13
-1.82491e-12 -1.03029e-13 -9.64002

14.2724 -10.7049 1.68754e-13
-10.7049 82.8377 2.13163e-14
1.68754e-13 2.13163e-14 -6.44685

-38.6329 21.9706 -8.28967e-13
21.9706 2.94159 -4.37606e-12
-8.28967e-13 -4.37606e-12 -8.56863

1.19265 16.794 2.89309e-12
16.794 -25.722 9.91799e-13
2.89309e-12 9.91799e-13 -18.5676

-26.5375 15.1537 2.49326e-12
15.1537 18.4493 -3.70074e-13
2.49326e-12 -3.70074e-13 -5.70753

43.6583 15.9536 7.67386e-13
15.9536 -7.28459 2.49119e-12
7.67386e-13 2.49119e-12 -4.0747

12.5771 -21.4721 8.14756e-13
-21.4721 57.9549 4.69432e-12
8.14756e-13 4.69432e-12 -4.71371

65.9955 -29.3901 -5.30539e-12
-29.3901 18.6435 3.45916e-12
-5.30539e-12 3.45916e-12 -9.33505

-32.3809 -24.5728 1.14723e-13
-24.5728 -7.28154 -6.26758e-13
1.14723e-13 -6.26758e-13 -8.97586

-22.6667 27.4508 9.67522e-13
27.4508 -10.3499 -7.91367e-13
9.67522e-13 -7.91367e-13 -9.28346

-38.3511 23.1875 2.43657e-13
23.1875 1.9911 4.42254e-12
2.43657e-13 4.42254e-12 -8.52452

-51.5532 13.1692 -8.20871e-13
13.1692 11.9271 4.8838e-12
-8.20871e-13 4.8838e-12 -16.4662

23.4845 9.3722 -1.09542e-12
9.3722 -29.4873 -6.27498e-13
-1.09542e-12 -6.27498e-13 -5.32102

3.76886 -4.66498 3.41149e-12
-4.66498 79.4369 2.7948e-12
3.41149e-12 2.7948e-12 -9.53118

-44.94 -36.8334 -3.94055e-13
-36.8334 -19.8289 -1.53536e-12
-3.94055e-13 -1.53536e-12 -14.7704

-16.0791 27.4649 -4.10931e-12
27.4649 1.3412 2.07242e-12
-4.10931e-12 2.07242e-12 -6.91414

-5.01496 2.1703 3.70637e-12
2.1703 82.6723 -3.11455e-12
3.70637e-12 -3.11455e-12 -13.4309

69.0445 34.6097 -5.22486e-12
34.6097 15.4966 3.97134e-12
-5.22486e-12 3.97134e-12 -10.7057

-31.3515 -22.9736 -3.07857e-12
-22.9736 -4.63235 2.18551e-12
-3.07857e-12 2.18551e-12 -8.52936

11.7429 5.73296 -1.71715e-14
5.73296 -48.3358 2.90257e-12
-1.71715e-14 2.90257e-12 -8.64092

43.0652 27.2035 -1.04687e-12
27.2035 10.4522 -4.38523e-12
-1.04687e-12 -4.38523e-12 -5.08046

-9.41491 12.7455 3.87971e-12
12.7455 -14.039 -3.76558e-12
3.87971e-12 -3.76558e-12 -37.0411

70.3336 24.33 -1.82136e-12
24.33 23.8048 1.77636e-14
-1.82136e-12 1.77636e-14 -6.79933

-10.5861 -13.0551 -3.77624e-13
-13.0551 -13.9208 -5.10407e-12
-3.77624e-13 -5.10407e-12 -37.3789

-4.37914 0.778517 2.23525e-14
0.778517 59.3973 4.14839e-12
2.23525e-14 4.14839e-12 -4.83032

38.3566 -2.23527 -1.86754e-12
-2.23527 -23.81 -1.79227e-12
-1.86754e-12 -1.79227e-12 -5.83185

3.59377 -15.7681 1.63499e-12
-15.7681 -53.9713 7.72123e-13
1.63499e-12 7.72123e-13 -21.1243

-42.2769 24.3881 6.73073e-14
24.3881 -11.7369 1.47127e-12
6.73073e-14 1.47127e-12 -11.1672

-46.8123 -13.535 -2.08979e-12
-13.535 11.0674 -4.02463e-12
-2.08979e-12 -4.02463e-12 -12.3536

5.8102 -8.00002 -2.65906e-12
-8.00002 -70.9678 1.54661e-12
-2.65906e-12 1.54661e-12 -14.8817

-49.5391 -22.2842 -3.04334e-12
-22.2842 3.74861 -3.42541e-13
-3.04334e-12 -3.42541e-13 -22.1042

-17.4593 -6.59639 2.01409e-12
-6.59639 -13.1158 7.80413e-13
2.01409e-12 7.80413e-13 -34.7819

-28.7296 -29.9081 -3.4935e-13
-29.9081 -9.39985 2.02712e-12
-3.4935e-13 2.02712e-12 -8.99566

15.6935 11.4534 -3.02869e-13
11.4534 80.1791 -3.41534e-12
-3.02869e-13 -3.41534e-12 -6.5305

42.2896 -28.1459 3.55271e-15
-28.1459 11.051 -3.76232e-12
3.55271e-15 -3.76232e-12 -5.0437

-47.1705 -13.7723 2.96163e-12
-13.7723 4.19613 -1.05989e-12
2.96163e-12 -1.05989e-12 -29.3009

2.96489 0.504396 -1.41457e-12
0.504396 -56.8117 2.91493e-12
-1.41457e-12 2.91493e-12 -11.0048

-39.3364 -21.5246 -3.84922e-12
-21.5246 -8.85732 -2.9153e-12
-3.84922e-12 -2.9153e-12 -14.774

-40.1948 25.6976 -1.59576e-12
25.6976 -14.6914 -1.82828e-12
-1.59576e-12 -1.82828e-12 -11.3105

32.2602 -31.4638 -8.92915e-13
-31.4638 38.429 -1.75859e-12
-8.92915e-13 -1.75859e-12 -4.64789

-31.4688 -7.08516 3.76773e-12
-7.08516 1.70023 -1.75119e-12
3.76773e-12 -1.75119e-12 -40.9933

36.6296 -33.0761 2.5473e-12
-33.0761 72.0262 -8.28493e-12
2.5473e-12 -8.28493e-12 -7.14463

16.6126 -19.1794 8.37848e-13
-19.1794 -25.8694 -2.75335e-13
8.37848e-13 -2.75335e-13 -7.1329

1.5026 1.97021 1.40532e-12
1.97021 -51.3914 2.0289e-12
1.40532e-12 2.0289e-12 -15.3741

-12.8762 17.8751 -4.82429e-12
17.8751 -16.9548 3.12935e-12
-4.82429e-12 3.12935e-12 -41.0609

10.7133 20.1824 -1.05693e-12
20.1824 59.4533 -9.88839e-13
-1.05693e-12 -9.88839e-13 -4.35635

4.31849 27.2102 -1.09364e-12
27.2102 -16.2235 -1.45247e-12
-1.09364e-12 -1.45247e-12 -8.1239

30.9042 -24.5111 1.53951e-13
-24.5111 -8.13188 2.5923e-12
1.53951e-13 2.5923e-12 -4.87175

-37.787 -17.8384 -4.07711e-13
-17.8384 2.40088 3.76795e-12
-4.07711e-13 3.76795e-12 -9.86406

55.5129 35.0674 4.75708e-12
35.0674 42.3449 -2.47387e-12
4.75708e-12 -2.47387e-12 -6.63613

-40.0148 -21.831 4.99748e-13
-21.831 2.53688 1.39207e-12
4.99748e-13 1.39207e-12 -9.39357

2.96667 30.8502 -1.22391e-12
30.8502 -17.3879 2.55114e-12
-1.22391e-12 2.55114e-12 -9.07789

18.5373 -25.2437 9.69299e-13
-25.2437 -19.4174 -1.97768e-13
9.69299e-13 -1.97768e-13 -6.34206

-15.6534 -25.126 4.44474e-12
-25.126 5.89567 1.44122e-12
4.44474e-12 1.44122e-12 -5.77509

42.7178 -18.6877 -4.51076e-12
-18.6877 -9.16531 2.17071e-12
-4.51076e-12 2.17071e-12 -5.36869

27.4317 -18.8492 1.6982e-12
-18.8492 -20.3678 -1.71803e-12
1.6982e-12 -1.71803e-12 -5.68931

-41.3937 -25.3369 1.6452e-12
-25.3369 -14.964 -2.04044e-12
1.6452e-12 -2.04044e-12 -11.5667

29.7807 35.9685 2.63256e-12
35.9685 25.2269 1.01844e-13
2.63256e-12 1.01844e-13 -8.64395

-28.5178 15.3765 -1.4535e-12
15.3765 18.5188 1.20023e-12
-1.4535e-12 1.20023e-12 -5.87355

-23.1078 26.4219 -2.3513e-12
26.4219 -12.5465 -2.70184e-12
-2.3513e-12 -2.70184e-12 -9.95769

-42.0964 25.4736 -1.18417e-12
25.4736 -11.5925 1.12251e-12
-1.18417e-12 1.12251e-12 -10.9924

-37.2881 11.6213 7.23333e-13
11.6213 11.8441 4.50603e-13
7.23333e-13 4.50603e-13 -9.08014

64.3921 -8.2268 -2.02742e-12
-8.2268 3.19798 -7.07094e-12
-2.02742e-12 -7.07094e-12 -4.25046

8.73406 18.606 -7.69755e-13
18.606 59.2191 2.13163e-12
-7.69755e-13 2.13163e-12 -4.16194

-25.6142 -24.3802 -9.17784e-14
-24.3802 0.458493 2.90138e-14
-9.17784e-14 2.90138e-14 -7.21511

-1.14134 25.6654 -4.72866e-12
25.6654 13.7523 4.87255e-12
-4.72866e-12 4.87255e-12 -4.08221

32.3783 -35.6284 2.6219e-12
-35.6284 21.7 -9.90023e-13
2.6219e-12 -9.90023e-13 -8.48566

59.5353 38.3157 5.33973e-12
38.3157 17.8476 -4.83169e-12
5.33973e-12 -4.83169e-12 -13.722

12.1252 -33.3102 -4.73991e-12
-33.3102 42.9128 -1.61175e-12
-4.73991e-12 -1.61175e-12 -9.54229

30.5511 -31.1588 9.21337e-13
-31.1588 36.8131 7.98176e-13
9.21337e-13 7.98176e-13 -4.40504

11.7688 -6.83865 1.2923e-12
-6.83865 -48.8378 -2.7256e-12
1.2923e-12 -2.7256e-12 -8.76976

25.2743 30.341 3.13823e-12
30.341 41.0885 1.06226e-12
3.13823e-12 1.06226e-12 -4.45554

62.6812 13.2943 -4.52971e-12
13.2943 5.22844 6.99026e-12
-4.52971e-12 6.99026e-12 -4.30505

-7.02525 13.3785 6.9349e-12
13.3785 61.3432 2.82085e-12
6.9349e-12 2.82085e-12 -8.69452

11.7298 -22.3398 -2.48335e-12
-22.3398 55.7624 1.3145e-12
-2.48335e-12 1.3145e-12 -4.30101

-47.2606 -1.09148 4.44541e-12
-1.09148 12.4096 7.71531e-13
4.44541e-12 7.71531e-13 -22.1621

-5.91857 2.24654 2.13044e-12
2.24654 59.0035 6.47778e-13
2.13044e-12 6.47778e-13 -5.26203

6.26893 31.0884 -2.11031e-12
31.0884 47.8645 2.10913e-12
-2.11031e-12 2.10913e-12 -9.66009

-39.7251 12.1077 -1.90594e-12
12.1077 12.8448 -3.48758e-13
-1.90594e-12 -3.48758e-13 -9.31262

40.7378 -27.6469 -5.3646e-12
-27.6469 8.35777 4.32247e-13
-5.3646e-12 4.32247e-13 -5.64148

7.54009 20.5569 3.60008e-12
20.5569 -47.4668 -5.91527e-13
3.60008e-12 -5.91527e-13 -16.4816

-3.42103 26.2704 5.23552e-12
26.2704 -31.4867 2.93691e-12
5.23552e-12 2.93691e-12 -22.2525

15.7774 -18.5673 -2.20209e-12
-18.5673 -30.0126 -2.44604e-12
-2.20209e-12 -2.44604e-12 -8.18249

4.42876 -1.80106 1.00246e-12
-1.80106 -34.133 -1.99751e-12
1.00246e-12 -1.99751e-12 -24.4395

-14.3394 -31.8116 4.73399e-13
-31.8116 -11.9301 -7.52879e-13
4.73399e-13 -7.52879e-13 -9.04903

56.2174 23.3272 -2.97244e-13
23.3272 0.817174 1.71418e-12
-2.97244e-13 1.71418e-12 -8.28754

-27.828 30.162 -1.02733e-12
30.162 -9.23639 -1.38201e-12
-1.02733e-12 -1.38201e-12 -8.79991

-27.0035 29.2058 2.74418e-12
29.2058 -9.20176 1.70175e-12
2.74418e-12 1.70175e-12 -8.67719

28.6284 30.6601 4.63037e-13
30.6601 40.4054 5.80277e-14
4.63037e-13 5.80277e-14 -4.44857

0.343101 27.0848 -2.54256e-12
27.0848 -19.8455 -1.41664e-12
-2.54256e-12 -1.41664e-12 -11.7768

64.507 3.52506 -9.29627e-13
3.52506 -11.8252 7.66165e-13
-9.29627e-13 7.66165e-13 -10.0179

-14.8996 31.8172 -3.29514e-12
31.8172 -20.7987 -3.5915e-12
-3.29514e-12 -3.5915e-12 -12.4472

-37.9438 -12.5997 1.38474e-12
-12.5997 8.18002 -1.92439e-12
1.38474e-12 -1.92439e-12 -14.0226

-0.475049 24.2782 1.52559e-12
24.2782 -29.999 5.06558e-13
1.52559e-12 5.06558e-13 -20.7714

-23.7273 -29.5786 -4.89534e-12
-29.5786 -11.9349 -7.00181e-13
-4.89534e-12 -7.00181e-13 -8.84284

-38.1479 -4.8981 4.40222e-13
-4.8981 18.8465 -8.66862e-13
4.40222e-13 -8.66862e-13 -11.7298

69.9436 -24.5557 -1.17476e-12
-24.5557 18.0288 -1.83024e-12
-1.17476e-12 -1.83024e-12 -7.04408

39.9817 29.6924 4.48826e-13
29.6924 13.4795 -1.80004e-12
4.48826e-13 -1.80004e-12 -5.21457

-4.29569 14.6961 1.57963e-12
14.6961 60.5705 -4.45273e-13
1.57963e-12 -4.45273e-13 -8.40046

1.61143 -1.13887 -4.76656e-14
-1.13887 -56.1232 -3.08672e-12
-4.76656e-14 -3.08672e-12 -11.2088

9.61413 0.00223253 -2.42236e-12
0.00223253 -44.7535 3.99144e-13
-2.42236e-12 3.99144e-13 -8.43742

-31.0784 23.1237 -4.47331e-12
23.1237 -4.33704 1.24848e-12
-4.47331e-12 1.24848e-12 -8.45787

-34.7625 23.8709 5.38532e-13
23.8709 -13.1924 1.41252e-12
5.38532e-13 1.41252e-12 -14.8128

-43.3785 -24.3807 1.35373e-13
-24.3807 -12.6139 -1.90751e-12
1.35373e-13 -1.90751e-12 -11.4683

-39.0588 -0.672718 4.02669e-12
-0.672718 21.0464 3.54679e-13
4.02669e-12 3.54679e-13 -10.4952

-40.8066 25.5903 -6.51331e-14
25.5903 -13.2224 5.24395e-13
-6.51331e-14 5.24395e-13 -11.1719

32.3214 -10.3078 3.20336e-13
-10.3078 -25.153 -4.45022e-12
3.20336e-13 -4.45022e-12 -6.01366

8.7069 -32.8328 -2.68526e-12
-32.8328 22.7976 7.83373e-13
-2.68526e-12 7.83373e-13 -6.99152

2.39687 -2.30063 -8.35628e-13
-2.30063 -49.9606 9.78181e-13
-8.35628e-13 9.78181e-13 -14.7724

36.7453 -34.5075 6.16396e-12
-34.5075 24.4796 7.50215e-13
6.16396e-12 7.50215e-13 -7.70875

-38.2937 19.0861 3.31202e-12
19.0861 -7.0937 6.98404e-13
3.31202e-12 6.98404e-13 -14.4492

7.87076 -26.4786 -3.25488e-12
-26.4786 -27.9942 -9.67226e-13
-3.25488e-12 -9.67226e-13 -10.9687

63.9466 -9.69006 3.63443e-12
-9.69006 5.67775 -8.71007e-13
3.63443e-12 -8.71007e-13 -5.07195

6.04089 -23.1919 -5.42381e-13
-23.1919 -35.468 -5.71987e-13
-5.42381e-13 -5.71987e-13 -17.736

0.141357 2.35826 3.24748e-12
2.35826 -56.174 -2.7045e-12
3.24748e-12 -2.7045e-12 -11.5457

-4.06201 -23.3213 1.37253e-12
-23.3213 -23.4116 -1.61663e-12
1.37253e-12 -1.61663e-12 -16.7199

11.0388 -25.8594 -7.69755e-13
-25.8594 -29.4855 1.35862e-12
-7.69755e-13 1.35862e-12 -9.73326

10.2014 -8.54603 -1.05427e-12
-8.54603 -43.4896 -2.18788e-12
-1.05427e-12 -2.18788e-12 -9.28097

-35.4182 -23.0681 1.25588e-12
-23.0681 -12.6457 6.91299e-13
1.25588e-12 6.91299e-13 -15.1029

23.6642 -31.3413 1.54069e-12
-31.3413 5.71267 1.7734e-12
1.54069e-12 1.7734e-12 -5.87775

11.0599 -24.5871 -5.22959e-12
-24.5871 -27.4943 1.67451e-12
-5.22959e-12 1.67451e-12 -10.0478

46.6426 10.8643 1.67333e-12
10.8643 -16.1167 6.09616e-12
1.67333e-12 6.09616e-12 -6.79938

-14.1861 26.3401 -2.05909e-12
26.3401 -15.6396 2.78148e-13
-2.05909e-12 2.78148e-13 -14.1188

-45.2519 -37.613 -1.37016e-12
-37.613 -20.6124 -4.77337e-12
-1.37016e-12 -4.77337e-12 -14.9189

-43.7086 37.2653 -3.71555e-13
37.2653 -21.2662 -4.07156e-13
-3.71555e-13 -4.07156e-13 -14.7693

-61.1853 -28.5734 9.52941e-14
-28.5734 -7.49704 -1.38822e-12
9.52941e-14 -1.38822e-12 -15.1993

-58.4161 27.0642 1.02318e-12
27.0642 -6.27167 1.4347e-12
1.02318e-12 1.4347e-12 -14.4779

5.60067 -8.52767 -1.0704e-12
-8.52767 -71.0642 -1.60908e-12
-1.0704e-12 -1.60908e-12 -14.7095

4.3974 9.27369 -3.30743e-12
9.27369 -68.8329 3.59564e-13
-3.30743e-12 3.59564e-13 -14.4375

9.02398 -9.84609 -4.55932e-14
-9.84609 -40.8896 2.56136e-12
-4.55932e-14 2.56136e-12 -9.61147

-24.3355 32.1163 -7.64426e-13
32.1163 -24.8101 4.25183e-12
-7.64426e-13 4.25183e-12 -21.1453

-25.5229 -32.8543 2.59348e-13
-32.8543 -25.0962 3.996e-12
2.59348e-13 3.996e-12 -21.4695

-53.9201 16.0685 1.65172e-12
16.0685 3.40186 4.31536e-12
1.65172e-12 4.31536e-12 -21.4029

-52.421 -15.801 -1.8144e-12
-15.801 3.29717 5.56592e-12
-1.8144e-12 5.56592e-12 -21.0762

6.11235 -3.74751 1.07854e-12
-3.74751 -43.9253 2.60118e-12
1.07854e-12 2.60118e-12 -25.7653

6.91852 3.61029 3.75744e-12
3.61029 -46.3488 -2.1716e-12
3.75744e-12 -2.1716e-12 -26.1416

-15.6253 9.83673 1.6751e-12
9.83673 46.2622 -1.95755e-12
1.6751e-12 -1.95755e-12 -5.84755

-22.9184 -24.774 -6.76792e-13
-24.774 -14.5522 2.41599e-12
-6.76792e-13 2.41599e-12 -10.3295

-56.6038 -36.3876 2.91234e-12
-36.3876 -14.5327 8.91731e-13
2.91234e-12 8.91731e-13 -13.4369

33.3582 -4.66425 4.35444e-12
-4.66425 -19.8465 -5.23581e-13
4.35444e-12 -5.23581e-13 -3.94466

3.43344 -16.6948 -5.74207e-13
-16.6948 -52.629 -1.94718e-12
-5.74207e-13 -1.94718e-12 -21.5328

3.67458 16.1758 1.35699e-12
16.1758 -51.8847 2.39186e-12
1.35699e-12 2.39186e-12 -21.4061

6.55578 0.121883 1.2926e-12
0.121883 -76.7551 9.83459e-13
1.2926e-12 9.83459e-13 -13.3037

-7.56915 23.3748 7.17056e-13
23.3748 39.9354 -1.85925e-13
7.17056e-13 -1.85925e-13 -6.88484

-56.8895 36.1716 -1.23057e-12
36.1716 -14.0114 1.93327e-13
-1.23057e-12 1.93327e-13 -13.3885

-39.7945 -23.3957 -1.88501e-12
-23.3957 2.56159 3.71051e-12
-1.88501e-12 3.71051e-12 -8.80054

37.1165 23.3524 -4.82103e-12
23.3524 -8.61269 -1.74971e-12
-4.82103e-12 -1.74971e-12 -5.75818

4.73542 23.8582 2.12215e-12
23.8582 -38.2258 7.75084e-13
2.12215e-12 7.75084e-13 -18.9858

24.0134 -31.3132 -1.76333e-12
-31.3132 6.40854 -2.69296e-12
-1.76333e-12 -2.69296e-12 -5.64773

2.43081 -3.23088 -1.99514e-12
-3.23088 -48.3697 9.50943e-13
-1.99514e-12 9.50943e-13 -14.7425

-60.458 -34.1611 -1.59569e-12
-34.1611 -14.3498 -9.46946e-13
-1.59569e-12 -9.46946e-13 -14.0306

-17.4521 8.31985 -8.67602e-13
8.31985 45.6915 -6.56068e-13
-8.67602e-13 -6.56068e-13 -5.78059

-9.46838 21.8113 -9.14824e-14
21.8113 40.4248 1.35951e-12
-9.14824e-14 1.35951e-12 -6.65332

58.6031 35.7753 5.70803e-13
35.7753 37.0879 -4.25378e-12
5.70803e-13 -4.25378e-12 -6.91572

70.4833 1.57873 -9.01205e-13
1.57873 -5.54259 -2.21282e-12
-9.01205e-13 -2.21282e-12 -10.3737

-30.7595 -22.8044 1.42375e-12
-22.8044 -13.3563 2.66833e-12
1.42375e-12 2.66833e-12 -14.4659

32.8411 31.1834 -4.29642e-12
31.1834 69.7937 2.7877e-12
-4.29642e-12 2.7877e-12 -6.67923

-19.3762 23.6098 -2.64263e-12
23.6098 7.68695 -4.35207e-13
-2.64263e-12 -4.35207e-13 -5.51285

47.6367 -5.34947 -3.27679e-12
-5.34947 -17.4327 -8.81029e-12
-3.27679e-12 -8.81029e-12 -6.82133

33.2193 11.2159 -3.2981e-13
11.2159 -23.6363 1.6082e-12
-3.2981e-13 1.6082e-12 -6.01343

6.2543 0.429906 1.00231e-12
0.429906 -77.5524 -4.28766e-14
1.00231e-12 -4.28766e-14 -13.4494

-58.936 -29.0312 4.9923e-13
-29.0312 -6.28807 -6.59621e-13
4.9923e-13 -6.59621e-13 -14.6969

-28.332 -6.31902 -5.73593e-12
-6.31902 -11.3586 3.13083e-12
-5.73593e-12 3.13083e-12 -51.59

-44.6982 37.4117 2.86526e-12
37.4117 -20.8115 1.00583e-12
2.86526e-12 1.00583e-12 -14.7733

93.7896 1.66327 -3.06718e-12
1.66327 16.6554 2.60851e-12
-3.06718e-12 2.60851e-12 -6.04297

10.0366 -32.7865 -5.18696e-13
-32.7865 21.3109 -1.60642e-12
-5.18696e-13 -1.60642e-12 -6.80777

-56.9363 36.6131 1.83779e-12
36.6131 -14.5712 1.75267e-12
1.83779e-12 1.75267e-12 -13.5048

-35.0787 -11.1338 1.33336e-12
-11.1338 19.1771 5.44749e-14
1.33336e-12 5.44749e-14 -8.31607

-5.4771 -25.5142 8.04986e-13
-25.5142 37.35 5.23433e-12
8.04986e-13 5.23433e-12 -6.98661

-58.4525 28.8301 -2.19835e-12
28.8301 -6.27145 1.12266e-12
-2.19835e-12 1.12266e-12 -14.6139

28.4958 -26.1415 1.30266e-12
-26.1415 -4.91219 7.73899e-13
1.30266e-12 7.73899e-13 -4.69679

-21.1707 10.4834 2.92951e-12
10.4834 -18.559 -6.43012e-12
2.92951e-12 -6.43012e-12 -51.6855

3.43314 30.8715 1.00838e-12
30.8715 27.1625 -1.26358e-12
1.00838e-12 -1.26358e-12 -6.73256

6.14062 8.12677 4.10931e-12
8.12677 -72.298 -1.75563e-13
4.10931e-12 -1.75563e-13 -14.9841

-11.5456 30.1906 4.31862e-12
30.1906 -20.6032 -2.25094e-12
4.31862e-12 -2.25094e-12 -11.5489

-30.7973 23.3317 2.91323e-12
23.3317 -5.09962 -4.70942e-12
2.91323e-12 -4.70942e-12 -8.46393

-25.8637 -32.489 2.412e-12
-32.489 -24.1129 -1.96874e-12
2.412e-12 -1.96874e-12 -21.559

9.20554 -23.19 1.40806e-12
-23.19 -27.922 3.37271e-12
1.40806e-12 3.37271e-12 -11.4255

-37.6607 10.4708 -4.76186e-12
10.4708 8.9289 -1.5099e-13
-4.76186e-12 -1.5099e-13 -25.3313

-23.0402 -23.4336 6.04435e-12
-23.4336 4.95251 -2.99731e-12
6.04435e-12 -2.99731e-12 -6.26256

88.8024 -9.70765 5.66066e-13
-9.70765 10.8074 -5.32285e-12
5.66066e-13 -5.32285e-12 -10.0308

84.0426 -14.277 -2.58164e-12
-14.277 2.81284 -2.70776e-12
-2.58164e-12 -2.70776e-12 -13.1967

5.88809 16.5293 1.98301e-12
16.5293 -33.9324 7.26175e-12
1.98301e-12 7.26175e-12 -22.3762

-16.421 22.5014 2.58342e-12
22.5014 16.228 -4.10338e-13
2.58342e-12 -4.10338e-13 -5.08485

-3.91221 29.1629 -3.26198e-12
29.1629 -12.2295 2.65536e-12
-3.26198e-12 2.65536e-12 -8.39592

50.9923 0.688663 6.09883e-13
0.688663 -6.53138 6.63913e-14
6.09883e-13 6.63913e-14 -3.63402

-48.1409 6.57124 3.89133e-14
6.57124 14.7862 -5.19288e-13
3.89133e-14 -5.19288e-13 -18.9524

10.1157 16.5408 -1.66208e-12
16.5408 -36.0795 -7.57261e-12
-1.66208e-12 -7.57261e-12 -9.13516

-4.5033 -25.7607 -5.14018e-12
-25.7607 35.5552 1.76096e-12
-5.14018e-12 1.76096e-12 -6.74656

-39.1909 -2.57244 -5.31908e-12
-2.57244 21.5042 1.1197e-12
-5.31908e-12 1.1197e-12 -10.6691

-7.99023 13.3649 -1.07618e-12
13.3649 44.405 -2.9073e-12
-1.07618e-12 -2.9073e-12 -3.94389

3.73474 -29.7131 3.39639e-12
-29.7131 -17.3644 4.39352e-12
3.39639e-12 4.39352e-12 -8.9202

21.4259 -29.947 -8.76928e-13
-29.947 14.7561 -6.21725e-14
-8.76928e-13 -6.21725e-14 -3.91746

6.88116 31.6223 -1.76037e-12
31.6223 25.4016 7.45478e-13
-1.76037e-12 7.45478e-13 -6.82772

2.78565 -15.0202 -7.50511e-13
-15.0202 -39.2677 1.89323e-12
-7.50511e-13 1.89323e-12 -63.3126

-46.1597 2.04125 -1.54121e-12
2.04125 11.4615 -3.96542e-12
-1.54121e-12 -3.96542e-12 -22.7569

-55.4451 20.3002 1.98508e-12
20.3002 3.0959 -3.76558e-12
1.98508e-12 -3.76558e-12 -22.916

5.91694 15.4391 -1.31746e-14
15.4391 -58.8189 -1.38437e-12
-1.31746e-14 -1.38437e-12 -23.0361

-18.9213 -26.1885 -3.8994e-12
-26.1885 -12.9132 -2.91204e-12
-3.8994e-12 -2.91204e-12 -9.65227

41.3457 17.957 -7.42517e-13
17.957 -6.27059 -3.58084e-12
-7.42517e-13 -3.58084e-12 -3.86099

-44.6828 -5.29416 -6.88453e-12
-5.29416 4.53831 7.19099e-12
-6.88453e-12 7.19099e-12 -39.1455

7.49925 -18.9882 -6.9574e-13
-18.9882 -39.8942 1.31214e-12
-6.9574e-13 1.31214e-12 -11.6597

30.2908 -15.5987 4.02819e-12
-15.5987 -20.508 -9.39989e-14
4.02819e-12 -9.39989e-14 -4.80456

-9.63794 11.603 -5.01525e-13
11.603 44.3188 -1.47556e-12
-5.01525e-13 -1.47556e-12 -3.85865

8.33414 -25.7338 7.99953e-13
-25.7338 32.9916 7.1528e-13
7.99953e-13 7.1528e-13 -3.63261

-10.2448 -25.2738 3.91687e-12
-25.2738 -19.1001 -2.88939e-12
3.91687e-12 -2.88939e-12 -23.1749

17.0051 31.959 9.10087e-13
31.959 11.1974 3.54087e-13
9.10087e-13 3.54087e-13 -5.74589

-1.06929 -25.1347 -2.06975e-12
-25.1347 -30.7627 2.28173e-12
-2.06975e-12 2.28173e-12 -20.8916

48.0646 2.59733 3.86298e-12
2.59733 -8.40923 5.40205e-12
3.86298e-12 5.40205e-12 -3.53117

6.55269 -28.93 5.01051e-12
-28.93 72.0494 8.69231e-13
5.01051e-12 8.69231e-13 -14.5513

21.7915 -29.2305 -2.68644e-12
-29.2305 13.9636 1.16055e-13
-2.68644e-12 1.16055e-13 -3.92984

35.351 32.1584 -2.72375e-12
32.1584 74.1334 -6.25041e-12
-2.72375e-12 -6.25041e-12 -5.44155

-45.283 -11.877 4.22854e-12
-11.877 13.9222 -3.73686e-12
4.22854e-12 -3.73686e-12 -15.3262

-14.4199 -13.8211 1.79294e-12
-13.8211 43.3819 2.72375e-12
1.79294e-12 2.72375e-12 -5.6722

-19.2437 -23.9883 1.22169e-12
-23.9883 -19.8305 -9.41469e-14
1.22169e-12 -9.41469e-14 -64.2544

2.43856 23.7704 8.41401e-13
23.7704 36.0064 2.97836e-12
8.41401e-13 2.97836e-12 -3.71062

-15.1823 -32.7263 -2.78207e-12
-32.7263 -21.1188 -3.77594e-12
-2.78207e-12 -3.77594e-12 -14.3127

-14.5645 -11.9629 3.95758e-13
-11.9629 45.5301 7.69755e-13
3.95758e-13 7.69755e-13 -5.7384

7.83563 -19.1169 4.02108e-12
-19.1169 -43.1217 -6.23501e-13
4.02108e-12 -6.23501e-13 -12.6318

6.5459 23.8766 -5.71987e-13
23.8766 35.171 1.82373e-13
-5.71987e-13 1.82373e-13 -3.44159

23.1733 -4.97545 4.47642e-12
-4.97545 -30.6757 -8.00434e-13
4.47642e-12 -8.00434e-13 -5.36378

36.9698 -30.3423 1.86873e-12
-30.3423 122.625 -6.59857e-12
1.86873e-12 -6.59857e-12 -6.24193

-26.8687 21.0138 1.49925e-12
21.0138 8.4343 1.52944e-12
1.49925e-12 1.52944e-12 -7.12941

40.338 -19.3229 -1.46845e-13
-19.3229 -11.3718 7.8287e-12
-1.46845e-13 7.8287e-12 -5.72542

6.52867 -21.4459 9.65746e-13
-21.4459 -45.5583 -3.59742e-12
9.65746e-13 -3.59742e-12 -24.9719

20.7051 31.7535 -6.987e-14
31.7535 9.5577 7.59097e-13
-6.987e-14 7.59097e-13 -5.80545

13.9189 -29.9713 -2.07834e-13
-29.9713 -7.60526 5.22752e-12
-2.07834e-13 5.22752e-12 -5.94368

6.75483 20.8852 6.71463e-13
20.8852 -27.7918 -2.089e-12
6.71463e-13 -2.089e-12 -11.1085

-38.274 -28.0758 -9.38657e-13
-28.0758 -14.0377 -2.08441e-12
-9.38657e-13 -2.08441e-12 -11.0605

8.64657 -26.2248 1.76274e-12
-26.2248 31.1706 3.64272e-12
1.76274e-12 3.64272e-12 -3.63463

15.3315 28.9806 -7.93439e-13
28.9806 19.1538 -3.35495e-12
-7.93439e-13 -3.35495e-12 -3.8824

28.6402 26.1909 -3.78601e-12
26.1909 -5.63278 -2.1263e-12
-3.78601e-12 -2.1263e-12 -4.80138

7.91484 -14.6098 2.75809e-12
-14.6098 -36.8773 -7.81597e-13
2.75809e-12 -7.81597e-13 -13.991

-6.84089 -16.6173 -5.60263e-12
-16.6173 41.3405 1.56319e-12
-5.60263e-12 1.56319e-12 -3.95883

17.4406 -17.5682 -1.17121e-12
-17.5682 -30.9987 3.60897e-13
-1.17121e-12 3.60897e-13 -7.10465

19.8419 16.9082 9.20745e-13
16.9082 -31.6637 -1.66385e-13
9.20745e-13 -1.66385e-13 -7.33386

-33.6794 -9.38693 1.40462e-12
-9.38693 8.75598 1.08062e-12
1.40462e-12 1.08062e-12 -23.9929

43.431 -13.4298 -2.48335e-12
-13.4298 -8.3682 -5.6158e-12
-2.48335e-12 -5.6158e-12 -3.80358

-19.3778 0.594004 -1.8668e-12
0.594004 43.1449 -6.03961e-14
-1.8668e-12 -6.03961e-14 -4.77483

28.0557 18.5547 1.33286e-12
18.5547 -18.1983 -9.65154e-14
1.33286e-12 -9.65154e-14 -4.74907

25.5283 27.6035 -1.84267e-12
27.6035 -3.77511 2.31667e-12
-1.84267e-12 2.31667e-12 -4.77052

-6.71469 -15.6858 -4.49714e-13
-15.6858 43.7981 -2.81967e-12
-4.49714e-13 -2.81967e-12 -3.84737

-19.9058 -1.2023 -8.96024e-13
-1.2023 42.1275 -1.6982e-12
-8.96024e-13 -1.6982e-12 -4.6864

-5.4732 29.1343 2.42887e-12
29.1343 -23.6463 5.67753e-12
2.42887e-12 5.67753e-12 -16.7967

-37.2732 -10.922 -2.15339e-12
-10.922 21.6799 3.49765e-12
-2.15339e-12 3.49765e-12 -7.82944

27.1432 -26.7148 -3.09145e-12
-26.7148 -5.53025 -2.55085e-12
-3.09145e-12 -2.55085e-12 -4.94357

40.7187 21.3322 3.246e-12
21.3322 -8.36951 -9.69891e-13
3.246e-12 -9.69891e-13 -5.46693

12.378 23.6652 -1.4649e-12
23.6652 -27.1266 -5.0789e-12
-1.4649e-12 -5.0789e-12 -8.66645

-37.796 5.47068 -5.41493e-13
5.47068 23.3113 1.52471e-12
-5.41493e-13 1.52471e-12 -8.59689

18.5931 29.065 1.36128e-12
29.065 17.3778 -3.31468e-12
1.36128e-12 -3.31468e-12 -3.94649

-9.98917 22.9638 4.7787e-12
22.9638 -14.9127 2.45404e-12
4.7787e-12 2.45404e-12 -24.0261

68.3155 -59.6909 2.94165e-12
-59.6909 36.3347 -1.08026e-11
2.94165e-12 -1.08026e-11 -23.0108

17.5309 -25.0474 5.92474e-12
-25.0474 -17.9915 3.44465e-12
5.92474e-12 3.44465e-12 -6.41705

10.0586 7.06979 2.47328e-12
7.06979 82.5495 6.82121e-13
2.47328e-12 6.82121e-13 -7.16501

11.9205 -28.8889 -4.36451e-12
-28.8889 -3.88119 -7.63241e-13
-4.36451e-12 -7.63241e-13 -5.16516

-66.945 -52.7008 -1.82254e-12
-52.7008 143.249 -1.9611e-12
-1.82254e-12 -1.9611e-12 -49.6695

-68.3882 51.4514 -2.64914e-12
51.4514 142.536 -8.28493e-12
-2.64914e-12 -8.28493e-12 -49.8586

19.5689 117.154 -1.14161e-12
117.154 64.128 6.15804e-14
-1.14161e-12 6.15804e-14 -48.3602

20.5277 -117.096 2.88717e-12
-117.096 61.0249 -5.92593e-12
2.88717e-12 -5.92593e-12 -48.7249

157.742 -1.36335 -4.16852e-13
-1.36335 -79.1872 5.17641e-14
-4.16852e-13 5.17641e-14 -48.9118

110.324 -91.1251 -4.55695e-12
-91.1251 -36.6903 1.92794e-12
-4.55695e-12 1.92794e-12 -50.3064

110.377 91.653 -5.00222e-12
91.653 -36.5005 -4.50721e-12
-5.00222e-12 -4.50721e-12 -50.1792

7.84712 14.3302 1.07055e-12
14.3302 -42.6814 -2.40371e-12
1.07055e-12 -2.40371e-12 -15.0788

-11.7911 25.5366 -2.49578e-13
25.5366 -27.4046 1.47793e-12
-2.49578e-13 1.47793e-12 -35.1384

12.4381 6.60596 2.88836e-12
6.60596 -40.5331 1.11548e-12
2.88836e-12 1.11548e-12 -8.25187

26.2547 21.7843 5.44157e-13
21.7843 -19.5279 -1.067e-12
5.44157e-13 -1.067e-12 -5.85022

-21.2293 17.7442 3.40824e-12
17.7442 29.8682 8.24822e-13
3.40824e-12 8.24822e-13 -6.16169

22.5303 28.8981 -2.7575e-12
28.8981 -0.775075 -3.55271e-14
-2.7575e-12 -3.55271e-14 -4.73016

4.0557 -29.6632 -3.33659e-12
-29.6632 -17.466 -3.65456e-12
-3.33659e-12 -3.65456e-12 -8.50391

25.9952 28.0274 -1.21088e-12
28.0274 -2.30124 2.44249e-12
-1.21088e-12 2.44249e-12 -4.73056

-19.3463 -2.8412 5.56888e-12
-2.8412 43.071 -9.84102e-13
5.56888e-12 -9.84102e-13 -4.76938

-13.4117 -26.0975 3.80555e-12
-26.0975 -25.8384 -2.23939e-12
3.80555e-12 -2.23939e-12 -35.5215

-19.8414 -4.86231 1.26847e-12
-4.86231 41.776 9.95944e-13
1.26847e-12 9.95944e-13 -4.74324

-1.8268 23.0161 1.4347e-12
23.0161 -24.377 3.38529e-12
1.4347e-12 3.38529e-12 -16.1498

44.9822 26.8703 5.93303e-13
26.8703 8.11171 -1.30977e-12
5.93303e-13 -1.30977e-12 -5.36862

-52.509 -13.2161 2.77467e-12
-13.2161 0.150454 -3.20544e-12
2.77467e-12 -3.20544e-12 -20.6173

20.2804 13.7278 -2.0961e-13
13.7278 -31.1409 8.58573e-15
-2.0961e-13 8.58573e-15 -7.04237

13.7008 -29.9873 2.66809e-12
-29.9873 -6.691 -7.23303e-12
2.66809e-12 -7.23303e-12 -5.83461

29.6307 -24.7132 5.1988e-12
-24.7132 -7.8732 4.80801e-12
5.1988e-12 4.80801e-12 -4.82453

5.76492 -16.0745 -2.76816e-13
-16.0745 -32.3342 1.36187e-14
-2.76816e-13 1.36187e-14 -22.2556

12.6277 27.9287 1.64491e-12
27.9287 -13.6383 -1.89922e-12
1.64491e-12 -1.89922e-12 -6.41904

23.309 23.9772 1.59458e-12
23.9772 -17.9427 1.69464e-12
1.59458e-12 1.69464e-12 -5.96175

-31.0763 -2.79295 -1.87043e-12
-2.79295 30.1316 -1.35891e-12
-1.87043e-12 -1.35891e-12 -6.39791

-28.6286 5.87331 -5.38609e-13
5.87331 33.3213 2.32111e-13
-5.38609e-13 2.32111e-13 -6.05871

34.5483 2.64668 1.88886e-12
2.64668 -26.1826 2.55222e-12
1.88886e-12 2.55222e-12 -6.14144

50.6509 -7.28955 8.49099e-13
-7.28955 -14.0811 -1.74631e-12
8.49099e-13 -1.74631e-12 -6.77812

11.0413 30.4844 5.56e-13
30.4844 -4.78718 4.19516e-12
5.56e-13 4.19516e-12 -5.96556

17.4676 -26.1552 1.49984e-12
-26.1552 -17.4545 -4.42787e-12
1.49984e-12 -4.42787e-12 -6.35117

-0.0844977 -21.2543 -4.4927e-12
-21.2543 -27.9557 -1.81425e-12
-4.4927e-12 -1.81425e-12 -17.1664

4.93926 -31.6333 -1.0895e-13
-31.6333 4.86169 -9.82917e-13
-1.0895e-13 -9.82917e-13 -5.93439

-8.22665 -27.7852 -6.4541e-14
-27.7852 18.5789 -1.8705e-12
-6.4541e-14 -1.8705e-12 -6.129

-1.6499 29.8868 4.82814e-12
29.8868 10.4475 6.03961e-13
4.82814e-12 6.03961e-13 -5.79943

-26.0158 -9.57782 5.87278e-12
-9.57782 32.9696 8.09427e-13
5.87278e-12 8.09427e-13 -5.78638

-31.3222 -1.54475 2.36418e-12
-1.54475 31.6507 8.69231e-13
2.36418e-12 8.69231e-13 -6.22273

-38.9148 5.74795 -3.56272e-12
5.74795 23.9465 1.98123e-12
-3.56272e-12 1.98123e-12 -9.1823

-17.2174 -21.0888 -9.21337e-13
-21.0888 26.5709 -5.14551e-12
-9.21337e-13 -5.14551e-12 -5.77109

13.0719 24.111 -1.88708e-12
24.111 -28.1007 3.73627e-13
-1.88708e-12 3.73627e-13 -9.20417

21.555 -9.58967 1.59458e-12
-9.58967 -31.7057 -4.9738e-13
1.59458e-12 -4.9738e-13 -6.5972

-27.1527 7.46521 -1.42619e-12
7.46521 34.3345 8.4673e-14
-1.42619e-12 8.4673e-14 -5.87311

-35.2351 -9.70106 3.18724e-12
-9.70106 22.3135 4.05128e-12
3.18724e-12 4.05128e-12 -8.18272

-29.155 -16.3305 -3.2679e-12
-16.3305 19.3467 -1.83794e-12
-3.2679e-12 -1.83794e-12 -6.66087

36.9676 -8.23912 -6.31199e-13
-8.23912 -20.236 5.45697e-12
-6.31199e-13 5.45697e-12 -5.10062

-14.8095 -32.3468 3.36294e-12
-32.3468 -21.6274 -2.68852e-12
3.36294e-12 -2.68852e-12 -12.9925

-22.8234 9.32075 2.63241e-12
9.32075 33.3232 -1.98478e-12
2.63241e-12 -1.98478e-12 -4.78796

-0.750934 -18.2126 -1.11259e-12
-18.2126 -35.1577 1.49569e-12
-1.11259e-12 1.49569e-12 -33.278

4.93232 24.8224 5.14137e-12
24.8224 75.306 -1.51346e-12
5.14137e-12 -1.51346e-12 -14.3188

-14.1417 -26.6261 3.9216e-12
-26.6261 -16.3498 -1.25263e-12
3.9216e-12 -1.25263e-12 -14.6404

-6.35703 -30.2028 9.79365e-13
-30.2028 -23.602 1.29378e-13
9.79365e-13 1.29378e-13 -17.0876

-31.27 -0.701304 -6.31717e-13
-0.701304 31.5003 3.75818e-12
-6.31717e-13 3.75818e-12 -6.3476

28.4876 -16.6225 -1.78169e-12
-16.6225 -18.0563 2.14643e-13
-1.78169e-12 2.14643e-13 -4.43716

-37.8044 12.8416 -6.37398e-13
12.8416 11.1651 2.8777e-12
-6.37398e-13 2.8777e-12 -10.9884

-8.86112 -3.18049 -9.00916e-12
-3.18049 111.05 -1.93504e-12
-9.00916e-12 -1.93504e-12 -22.6717

-31.6019 14.2736 2.13637e-12
14.2736 21.3504 -1.01252e-12
2.13637e-12 -1.01252e-12 -7.12358

12.4221 -29.489 3.97904e-13
-29.489 -2.51927 1.70471e-12
3.97904e-13 1.70471e-12 -4.92738

33.6318 25.1055 5.25506e-12
25.1055 124.029 1.00187e-12
5.25506e-12 1.00187e-12 -6.21427

-13.5027 26.0981 -5.81816e-12
26.0981 -19.0974 1.18693e-11
-5.81816e-12 1.18693e-11 -58.8963

-9.5528 -27.8075 -1.53141e-11
-27.8075 -22.8069 1.02746e-11
-1.53141e-11 1.02746e-11 -59.5467

-2.86556 -30.4189 9.78181e-13
-30.4189 -7.32087 -4.08503e-12
9.78181e-13 -4.08503e-12 -7.28654

3.86055 -31.1599 -5.23611e-12
-31.1599 5.63588 1.70412e-12
-5.23611e-12 1.70412e-12 -6.06161

25.152 20.8273 -8.11795e-13
20.8273 -17.0338 -1.93889e-12
-8.11795e-13 -1.93889e-12 -4.97607

31.805 15.006 2.01972e-12
15.006 -23.3003 -5.27045e-12
2.01972e-12 -5.27045e-12 -5.9539

-9.48886 3.08361 8.66107e-12
3.08361 -9.83064 9.72711e-12
8.66107e-12 9.72711e-12 -80.9392

-5.54909 -7.00022 -1.57117e-11
-7.00022 -14.0419 1.60435e-12
-1.57117e-11 1.60435e-12 -80.2919

11.7485 4.82431 -1.37608e-12
4.82431 -43.2051 3.25532e-12
-1.37608e-12 3.25532e-12 -7.8268

-35.0562 6.73093 1.94415e-12
6.73093 24.3753 -2.60592e-12
1.94415e-12 -2.60592e-12 -7.56332

-36.1099 6.73632 -5.45936e-12
6.73632 24.4326 -1.76037e-12
-5.45936e-12 -1.76037e-12 -8.30829

74.5861 58.6339 1.00423e-12
58.6339 34.1725 4.51905e-12
1.00423e-12 4.51905e-12 -21.873

-6.91943 -28.1995 2.64263e-12
-28.1995 16.8753 3.97371e-12
2.64263e-12 3.97371e-12 -6.1159

8.17206 17.9745 -3.381e-13
17.9745 -44.8757 1.4948e-12
-3.381e-13 1.4948e-12 -12.8963

32.703 9.53969 -1.11792e-12
9.53969 -19.0796 -9.82029e-13
-1.11792e-12 -9.82029e-13 -4.07364

3.38809 -26.7231 -2.07123e-12
-26.7231 13.4841 -6.21725e-14
-2.07123e-12 -6.21725e-14 -3.82628

26.2375 -20.2375 1.17536e-12
-20.2375 -20.3225 5.12301e-12
1.17536e-12 5.12301e-12 -5.86247

65.39 60.2318 1.84267e-12
60.2318 34.2892 7.22385e-12
1.84267e-12 7.22385e-12 -23.8678

-13.2424 31.069 2.09699e-12
31.069 -16.8811 2.69769e-12
2.09699e-12 2.69769e-12 -12.7855

-18.6037 -19.7859 -4.54007e-12
-19.7859 28.4147 2.39571e-12
-4.54007e-12 2.39571e-12 -5.96874

11.1746 28.8575 -3.02099e-12
28.8575 -13.3228 3.17613e-12
-3.02099e-12 3.17613e-12 -6.43546

-31.8686 -4.14478 4.49337e-12
-4.14478 30.1479 -1.53004e-12
4.49337e-12 -1.53004e-12 -6.35717

-14.5959 19.609 1.50457e-12
19.609 27.1852 -5.24617e-12
1.50457e-12 -5.24617e-12 -4.41798

7.47947 30.5186 2.22341e-12
30.5186 -1.67001 1.63662e-12
2.22341e-12 1.63662e-12 -5.65976

-9.34445 -22.473 4.52971e-13
-22.473 23.1493 -7.01661e-12
4.52971e-13 -7.01661e-12 -4.17473

4.59083 -27.3524 -2.26308e-12
-27.3524 11.4492 9.08903e-13
-2.26308e-12 9.08903e-13 -3.93779

24.2717 11.2569 3.52888e-12
11.2569 102.078 4.50958e-12
3.52888e-12 4.50958e-12 -12.405

37.4665 -33.456 -4.26918e-12
-33.456 69.2852 3.35613e-12
-4.26918e-12 3.35613e-12 -5.70293

-25.3347 -11.6904 2.51303e-12
-11.6904 31.3681 -4.08562e-13
2.51303e-12 -4.08562e-13 -5.64766

16.0966 26.4844 -6.44818e-13
26.4844 -15.5016 2.36078e-12
-6.44818e-13 2.36078e-12 -6.21677

4.95605 29.4777 1.62477e-12
29.4777 1.63716 9.4443e-13
1.62477e-12 9.4443e-13 -4.98925

-9.85422 -21.4337 3.42659e-12
-21.4337 25.1209 5.96264e-13
3.42659e-12 5.96264e-13 -4.03253

-21.6342 -11.7823 -1.1573e-12
-11.7823 32.0821 8.52651e-14
-1.1573e-12 8.52651e-14 -4.6365

10.4632 28.4093 6.66134e-13
28.4093 -0.156201 -4.9963e-12
6.66134e-13 -4.9963e-12 -4.67219

-21.8463 -13.8777 2.51354e-12
-13.8777 29.4674 -2.34479e-13
2.51354e-12 -2.34479e-13 -4.84644

6.95878 27.8547 -1.13568e-12
27.8547 73.0845 1.0895e-12
-1.13568e-12 1.0895e-12 -14.3219

-45.8315 -4.04131 -7.7367e-13
-4.04131 14.0479 -2.78592e-12
-7.7367e-13 -2.78592e-12 -19.9649

0.877478 31.0273 -1.04805e-13
31.0273 7.5206 -4.27451e-12
-1.04805e-13 -4.27451e-12 -6.08835

9.71929 14.9011 -1.70945e-12
14.9011 -36.4288 -2.43923e-12
-1.70945e-12 -2.43923e-12 -10.9849

9.92884 -15.9274 -4.82695e-12
-15.9274 -39.4102 4.92939e-13
-4.82695e-12 4.92939e-13 -13.0688

85.6128 -24.2044 -4.42431e-12
-24.2044 7.63597 -3.08139e-12
-4.42431e-12 -3.08139e-12 -12.9578

-23.2065 -21.2671 -4.42935e-12
-21.2671 10.5139 -3.40409e-12
-4.42935e-12 -3.40409e-12 -6.16459

-16.6005 26.6981 -1.8708e-12
26.6981 1.77873 -2.41229e-12
-1.8708e-12 -2.41229e-12 -6.58704

-26.2015 -21.7279 1.22095e-12
-21.7279 -5.36474 5.51818e-13
1.22095e-12 5.51818e-13 -23.8673

-41.5971 14.1068 2.65906e-12
14.1068 -3.56014 1.5099e-14
2.65906e-12 1.5099e-14 -64.1287

-0.893376 9.44534 -6.65349e-12
9.44534 -44.2598 9.00021e-13
-6.65349e-12 9.00021e-13 -64.2302

-20.3842 32.7055 -4.14513e-12
32.7055 -23.2024 -2.6934e-12
-4.14513e-12 -2.6934e-12 -24.3296

-11.41 26.0002 -4.36777e-12
26.0002 22.6042 5.51322e-12
-4.36777e-12 5.51322e-12 -5.92497

16.0388 26.6613 -1.0066e-13
26.6613 -17.2867 -1.91462e-12
-1.0066e-13 -1.91462e-12 -6.54924

30.4282 45.1856 -3.41297e-12
45.1856 47.5545 -1.66622e-12
-3.41297e-12 -1.66622e-12 -15.1949

-44.8889 -11.3438 1.13111e-11
-11.3438 -1.80808 -4.97025e-12
1.13111e-11 -4.97025e-12 -61.6848

-8.29818 -3.43298 -1.17883e-12
-3.43298 -12.7553 2.0357e-12
-1.17883e-12 2.0357e-12 -77.2292

-14.6917 -0.210079 -7.11771e-12
-0.210079 -6.41857 -7.02934e-12
-7.11771e-12 -7.02934e-12 -77.3735

27.6649 -53.8022 7.66083e-12
-53.8022 71.1482 2.53901e-12
7.66083e-12 2.53901e-12 -24.3896

-11.6913 -11.6 -4.17148e-13
-11.6 -16.2045 -4.00865e-12
-4.17148e-13 -4.00865e-12 -37.4315

-32.6104 8.81308 -1.03211e-11
8.81308 -9.41959 8.4821e-13
-1.03211e-11 8.4821e-13 -49.5421

18.2563 -26.1994 6.07218e-12
-26.1994 -19.5459 3.44702e-12
6.07218e-12 3.44702e-12 -6.50599

-39.4299 1.0111 3.84848e-12
1.0111 11.9802 -7.23569e-13
3.84848e-12 -7.23569e-13 -19.7219

-30.2021 -20.2678 4.37916e-12
-20.2678 6.30517 -1.05279e-12
4.37916e-12 -1.05279e-12 -7.21548

10.5366 6.25532 -4.10398e-12
6.25532 -52.3898 1.8748e-13
-4.10398e-12 1.8748e-13 -9.63921

-49.8126 15.5963 6.83273e-13
15.5963 10.1654 -6.90115e-13
6.83273e-13 -6.90115e-13 -13.5308

-40.2833 7.19163 -4.34565e-12
7.19163 16.5415 -3.77772e-13
-4.34565e-12 -3.77772e-13 -13.774

16.405 20.3927 1.82787e-12
20.3927 -25.8404 2.62871e-12
1.82787e-12 2.62871e-12 -7.60713

-9.10014 -3.1139 8.42141e-13
-3.1139 108.394 5.86908e-12
8.42141e-13 5.86908e-12 -23.102

-3.31986 -27.6236 1.8107e-12
-27.6236 -3.6293 -2.41466e-12
1.8107e-12 -2.41466e-12 -5.82942

-7.33486 -26.1162 1.34411e-13
-26.1162 -14.0817 -4.05779e-12
1.34411e-13 -4.05779e-12 -9.8103

-14.1982 -31.4837 -3.47929e-12
-31.4837 -21.7779 6.33464e-12
-3.47929e-12 6.33464e-12 -12.7554

90.7271 32.7493 1.03858e-11
32.7493 20.9063 -1.4803e-15
1.03858e-11 -1.4803e-15 -16.506

-23.1176 -20.1165 9.166e-13
-20.1165 -17.385 3.17309e-12
9.166e-13 3.17309e-12 -44.4282

72.6299 54.3219 -2.50822e-12
54.3219 91.64 2.79243e-12
-2.50822e-12 2.79243e-12 -6.14247

-36.2149 -21.4396 5.62276e-12
-21.4396 -6.79682 -2.25657e-12
5.62276e-12 -2.25657e-12 -13.0427

15.0339 14.6504 1.26121e-13
14.6504 -37.7514 -2.54878e-12
1.26121e-13 -2.54878e-12 -8.17828

44.5724 -14.5723 -1.29911e-12
-14.5723 -8.27141 5.26423e-12
-1.29911e-12 5.26423e-12 -4.41798

-21.2304 24.0466 3.75255e-12
24.0466 4.95563 -2.41644e-12
3.75255e-12 -2.41644e-12 -5.97579

17.3732 20.4279 -7.81597e-14
20.4279 -26.792 4.26799e-12
-7.81597e-14 4.26799e-12 -6.95094

-51.14 11.4006 3.03306e-12
11.4006 7.71053 -2.98043e-12
3.03306e-12 -2.98043e-12 -29.9944

-7.28678 -31.5801 -3.7493e-12
-31.5801 -12.8264 5.12183e-14
-3.7493e-12 5.12183e-14 -8.11855

2.7968 19.8124 -3.246e-12
19.8124 -46.0334 2.28084e-12
-3.246e-12 2.28084e-12 -29.9863

-24.6705 -18.4433 1.88323e-12
-18.4433 17.8362 8.65086e-13
1.88323e-12 8.65086e-13 -5.47948

-42.3403 4.28314 -1.73738e-13
4.28314 17.8694 5.41019e-12
-1.73738e-13 5.41019e-12 -12.7278

-4.09805 9.92671 -3.50446e-12
9.92671 -40.2761 -1.87657e-12
-3.50446e-12 -1.87657e-12 -47.5495

-2.68827 -8.51332 1.88205e-12
-8.51332 -38.3073 -6.48607e-12
1.88205e-12 -6.48607e-12 -47.4053

81.7219 18.5122 -3.68772e-12
18.5122 1.70035 3.55982e-12
-3.68772e-12 3.55982e-12 -14.453

3.89495 7.96497 -7.41037e-13
7.96497 -45.1829 -2.99819e-12
-7.41037e-13 -2.99819e-12 -11.0178

35.8711 7.7404 8.64346e-13
7.7404 184.571 -3.60482e-12
8.64346e-13 -3.60482e-12 -9.75788

40.1446 -11.385 -7.93447e-12
-11.385 190.369 -3.60008e-12
-7.93447e-12 -3.60008e-12 -7.38972

53.7639 56.4065 4.48352e-12
56.4065 159.253 -2.82796e-12
4.48352e-12 -2.82796e-12 -11.5006

1.70909 -28.9504 1.45188e-12
-28.9504 -24.6906 -6.21725e-14
1.45188e-12 -6.21725e-14 -11.9625

16.0486 -49.1899 -5.38236e-12
-49.1899 99.4176 4.59247e-12
-5.38236e-12 4.59247e-12 -21.6894

54.5118 -55.949 8.98363e-12
-55.949 149.97 4.41484e-12
8.98363e-12 4.41484e-12 -13.6654

-2.16533 26.2198 8.14756e-13
26.2198 17.5727 2.80428e-12
8.14756e-13 2.80428e-12 -3.99529

134.937 73.8431 -2.68585e-12
73.8431 85.0234 9.78181e-13
-2.68585e-12 9.78181e-13 -10.1597

-18.7196 13.0473 2.9677e-12
13.0473 -3.90029 1.61056e-13
2.9677e-12 1.61056e-13 -26.7698

3.74114 0.0392894 3.53939e-13
0.0392894 -26.1889 -5.28703e-12
3.53939e-13 -5.28703e-12 -26.7731

144.095 -73.1286 -8.38914e-12
-73.1286 85.3509 -6.21251e-12
-8.38914e-12 -6.21251e-12 -8.19696

-21.3923 -23.4237 3.34488e-12
-23.4237 12.2482 -1.16174e-12
3.34488e-12 -1.16174e-12 -6.49045

89.345 34.7287 7.22622e-12
34.7287 41.3894 9.82917e-13
7.22622e-12 9.82917e-13 -11.5482

72.1857 63.4902 3.17139e-12
63.4902 149.691 -3.5764e-12
3.17139e-12 -3.5764e-12 -9.67428

26.1642 21.6299 2.80428e-12
21.6299 100.132 3.07902e-13
2.80428e-12 3.07902e-13 -13.0316

73.8725 -65.919 -1.82373e-12
-65.919 151.142 9.14232e-13
-1.82373e-12 9.14232e-13 -9.40284

25.7686 -12.3809 1.70767e-12
-12.3809 105.01 3.18323e-12
1.70767e-12 3.18323e-12 -12.4286

-28.6639 6.84184 4.34985e-12
6.84184 3.10674 -1.43589e-13
4.34985e-12 -1.43589e-13 -37.8542

37.7423 -45.9741 7.02845e-12
-45.9741 49.6686 7.10306e-12
7.02845e-12 7.10306e-12 -15.5324

14.4434 47.5312 1.45661e-13
47.5312 94.8781 -5.44749e-14
1.45661e-13 -5.44749e-14 -22.1926

173.336 37.9109 -3.11691e-12
37.9109 48.0404 -8.12387e-13
-3.11691e-12 -8.12387e-13 -9.52291

7.02097 -29.2855 1.47852e-12
-29.2855 -14.3581 4.32306e-12
1.47852e-12 4.32306e-12 -7.15552

-38.4172 12.8967 -1.79686e-12
12.8967 6.43529 1.014e-12
-1.79686e-12 1.014e-12 -15.2903

88.5033 -38.1119 1.23161e-13
-38.1119 34.1624 -7.97229e-12
1.23161e-13 -7.97229e-12 -14.0998

6.0419 -28.802 -3.41534e-12
-28.802 -16.1714 6.10771e-13
-3.41534e-12 6.10771e-13 -8.02937

169.202 -36.3428 -1.76215e-12
-36.3428 34.9279 1.10726e-12
-1.76215e-12 1.10726e-12 -13.2907

-5.72495 -28.3172 1.04272e-12
-28.3172 -14.4725 5.07742e-12
1.04272e-12 5.07742e-12 -9.30895

-17.79 -25.2946 -9.34068e-13
-25.2946 12.0804 -3.40824e-12
-9.34068e-13 -3.40824e-12 -5.93361

118.874 69.4596 -1.80004e-12
69.4596 96.2171 1.82609e-12
-1.80004e-12 1.82609e-12 -11.4009

29.4125 -22.9324 -4.5226e-12
-22.9324 97.7945 2.00373e-12
-4.5226e-12 2.00373e-12 -14.3402

117.957 -71.6916 -1.71951e-12
-71.6916 93.6786 9.56864e-13
-1.71951e-12 9.56864e-13 -12.4169

22.2642 50.7367 8.08479e-12
50.7367 73.777 5.46881e-12
8.08479e-12 5.46881e-12 -24.7776

-1.536 -30.2118 -3.39876e-13
-30.2118 -6.55216 6.7919e-12
-3.39876e-13 6.7919e-12 -6.99728

-7.04522 -14.6403 -3.6285e-12
-14.6403 -21.9193 1.51257e-12
-3.6285e-12 1.51257e-12 -32.6147

-11.892 11.0927 -1.62115e-12
11.0927 -16.431 -1.76673e-12
-1.62115e-12 -1.76673e-12 -77.7956

-26.1692 -5.15998 -1.345e-12
-5.15998 -6.38738 -3.65855e-12
-1.345e-12 -3.65855e-12 -77.6294

-38.9407 13.0836 3.20516e-12
13.0836 13.7444 -1.96998e-12
3.20516e-12 -1.96998e-12 -10.2384

-14.4806 -10.667 4.6901e-12
-10.667 -17.3185 5.29147e-12
4.6901e-12 5.29147e-12 -78.7584

-25.903 4.09172 -7.6709e-13
4.09172 -5.91388 1.25082e-11
-7.6709e-13 1.25082e-11 -78.9006

-3.63388 7.43419 -5.81194e-12
7.43419 -27.8608 1.06981e-12
-5.81194e-12 1.06981e-12 -77.9878

-43.9755 -12.1153 -5.07054e-12
-12.1153 2.91633 -7.27581e-12
-5.07054e-12 -7.27581e-12 -68.1591

11.9737 -30.4696 1.73965e-12
-30.4696 76.1621 -7.02253e-12
1.73965e-12 -7.02253e-12 -14.7009

0.521924 -12.9721 -1.00009e-12
-12.9721 -39.9908 -3.47929e-12
-1.00009e-12 -3.47929e-12 -45.2776

-16.3488 -34.4178 1.37608e-12
-34.4178 -22.0685 -1.2325e-12
1.37608e-12 -1.2325e-12 -23.5901

-2.42055 -18.1768 4.55103e-12
-18.1768 -29.8954 -4.04388e-12
4.55103e-12 -4.04388e-12 -33.6269

12.7383 15.4591 -2.05821e-12
15.4591 -37.7159 1.44862e-12
-2.05821e-12 1.44862e-12 -9.62479

-46.9089 9.86431 -1.23065e-12
9.86431 8.87772 1.05445e-11
-1.23065e-12 1.05445e-11 -70.1549

3.4627 19.2277 -1.15225e-11
19.2277 -41.4723 -2.61561e-12
-1.15225e-11 -2.61561e-12 -70.2708

1.47239 11.3062 1.63573e-12
11.3062 -23.9651 -7.8814e-12
1.63573e-12 -7.8814e-12 -31.8681

109.391 -15.3392 6.32146e-12
-15.3392 -12.5355 3.59831e-12
6.32146e-12 3.59831e-12 -25.0373

-14.32 24.9638 -9.46502e-13
24.9638 10.3862 -1.37845e-12
-9.46502e-13 -1.37845e-12 -5.80412

76.6061 -61.3541 6.80226e-12
-61.3541 37.3648 -8.02913e-12
6.80226e-12 -8.02913e-12 -22.3954

76.1134 -57.4567 1.60346e-11
-57.4567 99.2275 8.81073e-13
1.60346e-11 8.81073e-13 -5.55542

118.195 -36.5437 7.70939e-12
-36.5437 40.6006 -4.50484e-12
7.70939e-12 -4.50484e-12 -7.37858

-51.1148 -5.15897 -3.80022e-12
-5.15897 3.34081 6.00942e-12
-3.80022e-12 6.00942e-12 -60.6613

-50.4787 2.89123 6.75667e-12
2.89123 3.13507 -2.45433e-12
6.75667e-12 -2.45433e-12 -60.1338

-11.9756 -24.4565 -3.36087e-12
-24.4565 -35.0037 7.59985e-13
-3.36087e-12 7.59985e-13 -59.1679

-8.99198 -21.7607 -3.96764e-12
-21.7607 -37.8884 -5.64289e-13
-3.96764e-12 -5.64289e-13 -59.4775

-14.7027 26.1362 5.92978e-12
26.1362 -33.028 2.33872e-12
5.92978e-12 2.33872e-12 -60.7524

-18.1578 3.09957 -7.07108e-12
3.09957 -13.1647 -7.4271e-12
-7.07108e-12 -7.4271e-12 -75.48

-9.94508 -20.509 -4.38997e-12
-20.509 -32.6511 3.8433e-12
-4.38997e-12 3.8433e-12 -56.7382

-26.6487 -18.5684 -1.02693e-11
-18.5684 -14.1959 -1.07382e-11
-1.02693e-11 -1.07382e-11 -71.2737

-15.4793 2.4346 -1.81277e-12
2.4346 -12.8527 -8.92308e-12
-1.81277e-12 -8.92308e-12 -77.8746

-6.02756 -20.5264 -4.96173e-12
-20.5264 -41.4875 1.30917e-12
-4.96173e-12 1.30917e-12 -60.5086

-6.75685 20.956 2.79325e-12
20.956 -40.1438 -2.21393e-12
2.79325e-12 -2.21393e-12 -60.0197

-14.3165 -3.45863 1.13613e-12
-3.45863 -11.3903 1.7127e-12
1.13613e-12 1.7127e-12 -76.8891

-11.2643 -3.11734 -1.37454e-11
-3.11734 -17.6895 3.53421e-12
-1.37454e-11 3.53421e-12 -74.0518

-24.2043 12.1098 4.9251e-12
12.1098 -13.4007 -1.11935e-11
4.9251e-12 -1.11935e-11 -69.9699

-22.0827 26.9298 7.11431e-13
26.9298 -26.267 -4.42368e-12
7.11431e-13 -4.42368e-12 -57.5838

VECTORS fluid_flux_TPM float
-8.72074e-05 3.10239e-05 4.86822e-21
3.55904e-06 6.88158e-06 2.12399e-21
-1.27856e-05 -1.02241e-05 -2.28585e-21
-4.17e-06 4.25342e-06 -2.52535e-21
2.27046e-05 -6.31241e-06 -1.8527e-20
2.75719e-06 -1.59014e-05 1.23139e-20
-8.57835e-05 -3.10887e-05 9.86437e-21
-1.38904e-05 -1.04653e-05 8.55046e-21
2.21187e-05 9.4539e-07 1.62699e-20
1.13824e-05 -3.90756e-06 5.09937e-22
5.45936e-05 1.24824e-05 -1.28812e-20
2.34653e-06 -1.71917e-05 1.2514e-20
1.36096e-05 1.12523e-05 -1.37161e-20
2.66171e-06 1.37827e-05 4.18793e-21
2.05782e-05 -2.94624e-06 -3.01455e-20
-1.63301e-05 -2.72862e-07 1.22254e-20
2.75314e-06 1.40969e-05 3.33912e-20
1.01804e-05 -2.39156e-06 8.07328e-21
9.89726e-06 1.72204e-05 -1.25128e-20
-1.48464e-05 1.8852e-06 1.21199e-20
-3.60069e-06 -2.13011e-05 8.70689e-21
3.41069e-05 5.94105e-05 -2.11976e-20
1.56954e-05 1.63109e-06 1.38941e-21
1.12258e-05 -1.128e-05 -9.64637e-21
-1.50764e-05 -3.33196e-06 1.63042e-21
-6.77138e-07 -1.11293e-05 1.58831e-20
6.28962e-05 -4.90791e-06 4.99948e-21
1.40642e-05 1.02475e-05 -9.6943e-21
-2.51466e-05 -2.06403e-05 2.87431e-21
4.91147e-05 -1.28124e-05 -2.61662e-20
-1.65803e-05 -6.03756e-06 6.57927e-21
5.53643e-06 -3.20332e-05 1.42648e-20
4.76493e-05 -4.80423e-05 2.07222e-20
-4.92284e-06 -4.12435e-05 4.88124e-21
-2.96702e-05 3.70015e-05 3.70168e-22
-3.82435e-05 -1.63934e-05 -1.17582e-20
3.26992e-05 4.32111e-05 5.47637e-21
-4.47361e-05 -8.72497e-06 -1.87147e-20
1.43729e-05 -1.10806e-05 5.03253e-21
4.64652e-05 5.01101e-05 -7.4818e-21
3.21261e-05 -1.40206e-05 1.49824e-20
3.36366e-05 -4.23392e-05 1.54671e-20
-1.98944e-05 -5.03733e-05 -2.2968e-20
-1.58962e-05 6.3561e-06 2.49556e-20
3.05223e-05 -2.93114e-05 1.91755e-20
-3.03294e-05 1.09891e-05 1.04267e-20
-4.04981e-06 -2.03686e-05 -7.70067e-21
7.88532e-06 2.02098e-05 -8.79275e-23
-1.63409e-05 5.92726e-06 7.15589e-21
-1.78181e-05 2.8723e-05 -1.78231e-21
3.24056e-05 1.52894e-05 2.67179e-21
2.93624e-05 -1.00742e-05 -3.23775e-22
-1.56649e-05 1.5759e-05 2.49262e-21
-2.35391e-05 -2.06884e-05 6.79513e-21
-2.1138e-05 -5.13199e-06 8.65814e-22
-4.47876e-05 2.70737e-05 -2.45503e-21
-2.93694e-05 -3.80199e-05 3.01925e-20
6.36288e-06 -3.06253e-05 1.63936e-20
-4.77039e-05 6.48234e-06 -8.02234e-21
6.07361e-06 1.36959e-05 -1.7401e-20
-5.57639e-06 -8.17283e-06 -2.64238e-21
-6.58306e-06 -1.79423e-05 3.52891e-22
5.71399e-05 2.48579e-05 -1.64073e-21
9.24219e-06 1.8143e-05 2.09675e-20
1.22957e-05 -1.4444e-05 1.73381e-21
-1.64048e-06 -2.07511e-05 -5.57094e-21
4.62078e-06 -8.80495e-06 7.3672e-21
-1.00899e-05 -5.56452e-06 1.06853e-20
-1.0602e-05 1.19285e-05 -1.27951e-20
2.55803e-06 -4.09234e-06 3.30026e-21
-1.50425e-05 -1.58422e-05 6.58869e-21
-2.13636e-05 5.1656e-06 -4.79514e-21
-3.55661e-06 3.44792e-05 1.29406e-20
-1.78707e-05 1.07102e-05 9.93318e-21
-9.07025e-06 1.46138e-05 -6.2455e-21
-6.03511e-05 7.69163e-06 1.74699e-20
7.81758e-06 -2.16802e-05 1.89896e-20
-1.8879e-05 -8.89954e-06 -3.7286e-21
1.9336e-06 1.16233e-05 -1.26541e-20
2.62994e-05 5.08934e-06 8.62776e-21
3.4167e-05 -2.89734e-05 6.66902e-21
2.21451e-05 2.0555e-05 1.14311e-20
1.19078e-05 -2.82216e-06 -3.20163e-20
-3.21519e-05 2.40657e-05 -1.48703e-21
3.79022e-05 4.84558e-06 9.60365e-21
-4.98058e-06 4.94118e-05 8.45222e-22
-1.74102e-06 -1.68562e-05 -5.20017e-21
1.81229e-05 9.9541e-06 -1.10747e-21
2.93158e-05 3.02841e-05 -3.333e-21
5.50217e-05 3.80113e-05 -8.74781e-21
-5.33106e-06 3.07711e-05 -5.72344e-21
5.91765e-05 -3.55105e-05 -1.50664e-20
-2.71233e-05 5.34088e-06 -6.26915e-21
1.78383e-05 1.10012e-05 -4.98858e-21
-2.96394e-05 9.90276e-06 1.25506e-22
1.66521e-05 2.85196e-05 -2.4238e-21
1.01683e-05 -4.43842e-05 1.58137e-20
1.91537e-06 1.16202e-05 -1.82029e-20
-1.47999e-05 -1.76192e-05 -1.42993e-20
3.06972e-06 1.74737e-05 -4.43409e-21
2.64054e-05 5.25719e-06 1.12535e-20
-1.54425e-05 3.32093e-05 9.70729e-22
4.055e-05 -1.33324e-05 2.38524e-20
-3.77286e-06 7.45463e-06 -1.35148e-20
9.9523e-06 5.89899e-06 -3.07797e-20
-2.28046e-06 -1.13239e-05 8.79602e-21
3.22048e-06 -1.92508e-05 1.26095e-20
1.74684e-05 3.89187e-06 1.2759e-20
-7.93678e-06 4.09704e-05 9.64366e-21
-9.80509e-06 2.4791e-07 -1.71461e-20
9.31801e-06 1.18851e-05 -2.71347e-20
-2.17723e-06 -4.17116e-05 -3.03012e-21
4.20207e-05 1.28643e-05 -1.1664e-20
4.42231e-06 -7.45279e-06 2.27937e-20
-1.11445e-05 -3.55345e-06 1.24534e-20
-2.9324e-05 -1.24853e-05 -5.90957e-21
1.58029e-05 4.1145e-05 -1.18871e-20
-4.34825e-05 -1.55729e-05 -3.59553e-21
1.60177e-05 -4.11215e-05 1.10565e-21
-3.69961e-06 -3.19184e-05 -2.67056e-21
2.18377e-05 6.5213e-07 3.86929e-20
-7.1711e-06 1.83956e-05 -8.80695e-22
-1.61111e-06 3.96935e-06 -3.58019e-20
-3.68577e-06 -1.65378e-05 -1.47356e-20
5.2297e-06 -8.30165e-06 2.66855e-20
9.35898e-06 1.58627e-05 2.20565e-20
3.30994e-05 1.06518e-05 -1.02806e-20
8.61499e-06 -7.45763e-06 1.67886e-20
-8.27048e-06 -4.51574e-05 7.27991e-21
2.55507e-05 -1.88188e-05 4.70178e-21
4.97764e-06 2.77697e-05 -2.76848e-21
-2.81618e-06 -2.84145e-06 3.02082e-20
-8.62578e-06 -8.32539e-06 9.77586e-21
-4.77641e-06 4.41243e-08 -3.93173e-21
-2.28714e-05 2.85925e-05 2.30647e-21
1.8762e-05 -3.73729e-05 -7.77625e-22
-2.65785e-05 4.2712e-05 -6.61627e-21
-1.63708e-05 9.53471e-06 3.60856e-21
2.52781e-06 1.21982e-05 -2.93706e-21
-2.29855e-05 -3.49874e-05 -1.42906e-20
1.39353e-05 3.34641e-05 7.17984e-21
1.75067e-05 9.36867e-06 -1.86968e-20
2.28102e-05 -8.52216e-06 2.41689e-20
-1.25313e-06 -1.12647e-05 -4.49258e-21
-3.39097e-05 -3.15561e-05 2.1076e-20
-2.75132e-06 1.13027e-05 1.01172e-20
1.72457e-05 1.01711e-05 7.6082e-21
1.88863e-05 -8.82032e-06 1.33759e-20
8.24268e-06 -1.4344e-05 3.75026e-22
2.43555e-05 -1.07947e-05 1.91076e-20
1.90084e-05 -8.99733e-06 9.83012e-21
4.64035e-06 2.05788e-07 -1.21778e-20
2.57391e-05 2.02199e-05 -1.16901e-21
-2.74146e-06 -1.70289e-05 1.29015e-20
-1.04791e-05 -4.45672e-06 1.12324e-21
1.12578e-06 -3.88983e-06 -6.26398e-21
-3.15487e-06 1.5846e-05 -2.41472e-21
-3.48812e-05 2.76793e-06 9.28047e-21
-1.21207e-05 -3.32561e-05 5.64815e-22
-7.87859e-06 9.7784e-06 -2.00619e-20
1.35644e-05 1.66393e-05 -2.96495e-20
2.65669e-05 -1.87435e-05 7.5006e-21
-3.679e-05 -2.03494e-05 -8.34399e-21
1.74019e-05 -2.75059e-05 8.98399e-21
2.28025e-05 -2.72148e-05 1.69748e-20
-1.09437e-05 3.78469e-06 1.19101e-20
-1.98277e-05 -2.88383e-05 1.83356e-21
-3.48775e-05 -5.79104e-06 1.21875e-20
-3.85222e-06 -3.17406e-05 1.61635e-20
1.54467e-05 -3.16971e-05 1.17592e-20
-9.10558e-06 -2.61979e-05 -2.34315e-21
4.5809e-06 3.14034e-05 1.53374e-20
-1.57514e-05 -2.85202e-05 -8.01548e-22
2.93862e-06 -1.62912e-05 9.78706e-21
-2.47377e-05 1.82587e-05 -3.50246e-21
-1.50298e-05 -1.21104e-05 -1.14587e-20
-2.73511e-05 -5.17211e-06 -6.65505e-21
1.56671e-05 -9.18101e-06 4.81153e-21
-4.30666e-06 2.3951e-05 -1.10717e-21
1.22318e-05 -9.32392e-06 7.73767e-21
-2.9584e-05 -1.31634e-05 7.73379e-22
-8.83112e-06 -7.45763e-06 8.6881e-21
9.08153e-06 7.54038e-06 -2.37584e-20
2.14255e-05 2.8699e-05 1.2075e-21
-1.75078e-05 -1.08086e-05 4.55082e-21
-3.25041e-05 -7.51026e-07 5.45908e-21
-1.63357e-05 -5.01585e-06 2.24687e-20
-4.57785e-06 -1.65822e-05 -2.53747e-21
1.76836e-05 2.12379e-05 -1.27775e-20
-1.09567e-05 5.8744e-06 2.64875e-21
6.36001e-07 -2.05541e-05 2.21434e-20
-4.19371e-05 1.08502e-05 1.35687e-20
2.4859e-05 2.02451e-05 -1.09203e-20
3.79424e-06 3.27834e-05 -4.86033e-21
-2.43182e-06 3.79698e-06 1.18895e-20
-9.05037e-06 2.51186e-07 2.31239e-20
4.35482e-06 7.75964e-06 -3.91361e-20
-1.16933e-05 3.40126e-06 1.49609e-20
-2.07326e-06 -3.78471e-06 5.49485e-21
1.65968e-06 2.07587e-05 2.11154e-20
4.47214e-06 4.49674e-07 -3.2127e-20
-1.9537e-05 4.75636e-06 2.52262e-21
-1.72974e-05 1.93569e-05 6.00053e-21
-3.10726e-06 1.15775e-05 1.93418e-21
-2.92153e-05 1.83932e-05 -7.62307e-21
-9.34284e-06 8.97882e-06 -1.18346e-20
1.73102e-05 -1.16131e-05 1.50239e-20
3.66021e-05 -3.56449e-06 8.16543e-21
-2.11395e-05 1.12967e-05 4.14274e-21
2.23288e-06 4.49799e-06 -1.71988e-20
2.17741e-05 -4.34465e-06 -1.28593e-20
-1.72779e-05 1.03523e-05 4.5605e-21
-9.87122e-06 5.53872e-06 7.1577e-21
1.18308e-05 3.74248e-06 -8.66657e-21
2.18786e-05 -1.34704e-05 -4.24157e-21
-1.7379e-05 9.95555e-06 4.25642e-22
-2.50355e-05 -5.30274e-06 6.75056e-21
-1.67608e-05 -4.36223e-06 -2.07333e-21
9.87567e-06 6.23684e-09 -1.03471e-21
1.01733e-05 1.9535e-07 -5.22262e-20
4.39052e-06 8.3167e-06 1.12029e-20
4.82928e-06 -8.79727e-06 -1.38185e-20
-5.01007e-06 8.41936e-06 5.32993e-21
-5.26638e-06 -8.65712e-06 1.39401e-20
9.91045e-06 -7.4076e-06 1.89787e-20
-2.03263e-05 3.23473e-06 8.59654e-21
-2.00588e-05 -3.28355e-06 -1.42536e-20
-1.2834e-05 1.58756e-05 -1.91445e-20
-1.29138e-05 -1.59299e-05 1.10295e-20
7.48585e-06 -1.98426e-05 8.56319e-21
7.20561e-06 1.97627e-05 -1.75808e-20
1.55769e-06 2.58835e-05 -2.63996e-21
1.12398e-05 -3.13666e-06 -4.82305e-21
2.35976e-06 -3.86631e-06 7.16286e-21
-2.14101e-05 1.4216e-06 8.73901e-21
7.67674e-06 -1.95119e-05 1.71812e-20
7.27302e-06 1.96604e-05 -1.44503e-20
4.76853e-06 -5.27113e-08 -9.11912e-22
8.96765e-06 2.44017e-05 -5.62341e-21
-2.24216e-06 -4.01609e-06 -2.72132e-20
2.31761e-06 -1.13163e-05 1.26768e-20
-2.2429e-05 -1.21508e-05 9.31686e-21
-2.13567e-05 -1.14939e-05 -1.04204e-20
-2.18912e-05 1.36277e-05 2.01907e-21
3.25104e-06 -1.22868e-05 2.89198e-20
-1.56523e-06 3.38174e-06 -5.39692e-21
-5.87324e-07 -2.55672e-05 1.35709e-20
-7.71969e-06 -2.4421e-05 1.608e-21
3.27015e-05 3.03602e-05 -1.48626e-20
3.54505e-05 -1.81506e-06 1.17679e-20
-1.27101e-05 -3.6319e-06 -8.81876e-21
-2.28908e-05 -4.13826e-05 -5.25069e-22
8.30357e-06 1.37468e-05 -1.10698e-20
-2.52337e-05 3.03305e-06 -7.83286e-21
2.00635e-05 5.78594e-06 1.40414e-20
-4.53276e-06 -3.27401e-08 8.85573e-21
-4.66482e-06 -8.41206e-06 2.40744e-21
-7.07232e-06 -3.93295e-05 -1.5238e-20
-9.70755e-06 -8.39069e-08 8.38676e-21
-4.867e-05 -1.81556e-06 1.2575e-20
1.73073e-05 -1.91037e-05 1.57491e-20
2.42915e-06 3.99874e-06 -3.69685e-20
-1.20633e-07 -1.75122e-05 1.8125e-20
-9.8176e-06 2.40817e-05 1.63454e-20
-4.37168e-06 8.62667e-06 -2.7079e-20
2.05544e-05 -1.36048e-05 2.78548e-21
-3.76555e-05 -1.35502e-05 -1.39535e-20
-1.52644e-05 -2.03639e-05 1.08248e-20
4.97662e-06 8.3883e-06 2.88248e-21
1.66296e-05 5.1601e-06 -2.70399e-20
-4.76343e-06 -7.33758e-06 -1.20693e-20
1.97946e-05 3.54684e-06 -1.13053e-20
1.81866e-05 -9.82478e-06 6.38587e-21
-3.48788e-07 2.71699e-05 -4.56473e-21
8.31946e-06 -1.36653e-05 1.93956e-20
4.87984e-05 2.20034e-06 2.17672e-20
-4.23518e-05 1.1452e-05 2.61173e-20
2.28572e-05 1.15548e-05 -9.195e-21
-6.45212e-06 -1.7177e-05 2.30436e-21
-1.53479e-05 -8.61701e-06 3.64678e-21
2.87836e-05 -2.10518e-07 1.83433e-20
-6.9189e-07 -2.42517e-05 5.26264e-21
-1.26157e-05 -1.08726e-05 5.18442e-21
1.02224e-05 -2.34964e-05 1.39359e-20
-4.96541e-07 2.05525e-05 -2.49505e-21
7.91657e-06 2.6064e-05 -3.27486e-23
1.72655e-05 -9.88286e-06 -2.45246e-22
-1.89452e-05 1.92957e-05 3.29812e-21
1.65254e-05 2.00265e-05 2.34679e-21
-6.22215e-05 1.60196e-05 -1.45322e-20
-1.01077e-05 2.60124e-05 2.45612e-20
1.25172e-05 -1.5246e-05 7.78286e-21
-7.02806e-06 -1.83951e-05 -1.59916e-20
-1.18518e-05 4.50501e-06 -1.18841e-21
-2.58895e-05 -7.04475e-06 2.59816e-22
-6.38518e-06 3.88521e-05 9.62609e-21
-1.2604e-05 1.19007e-05 -2.66361e-21
2.07736e-05 -4.47494e-06 1.02846e-20
-6.87145e-06 -2.57903e-05 2.22314e-20
-1.48666e-05 2.38874e-05 8.68323e-21
-2.17857e-05 1.25629e-05 -8.30375e-22
-2.05664e-05 -1.50531e-05 3.33623e-20
1.8026e-05 -2.0652e-05 -1.36271e-21
-2.75265e-05 -1.45603e-06 1.21041e-20
1.23653e-05 -4.08042e-05 1.6966e-20
1.93834e-05 -1.89103e-05 6.6857e-21
2.47289e-05 4.30755e-05 -2.29123e-20
1.97083e-06 1.98635e-05 3.00861e-21
2.96065e-06 -2.54174e-05 2.40376e-20
-4.16302e-05 4.69549e-05 -1.95656e-20
-1.27002e-05 -2.44079e-05 5.51094e-21
1.63644e-05 -6.41959e-06 -9.17952e-21
-2.41055e-06 2.57684e-05 9.14525e-21
1.28811e-05 -1.18247e-05 1.61921e-21
1.38785e-05 2.43094e-05 -1.2209e-20
1.72273e-05 -1.40028e-06 2.59783e-21
2.21168e-05 -6.32072e-05 4.08241e-21
-5.87525e-06 -1.28573e-05 1.57997e-20
-2.31809e-05 1.00856e-05 -4.44985e-21
-2.0017e-05 1.87162e-05 -1.78615e-20
2.16091e-05 1.45655e-05 -1.5777e-20
1.86698e-05 -1.07551e-05 4.36922e-21
1.49497e-05 1.25916e-05 -2.59449e-21
-5.42733e-06 4.55053e-08 -1.25989e-20
1.54013e-05 -2.30838e-05 2.27628e-20
-1.69878e-05 -2.04061e-05 2.17157e-20
2.25585e-05 9.77227e-06 -6.54259e-21
1.28047e-05 -1.1988e-05 9.08555e-21
9.5525e-06 -2.48481e-05 2.58666e-20
1.66567e-05 -6.93186e-06 1.61099e-20
-1.58031e-05 -7.5435e-06 1.56218e-20
1.29665e-06 -2.62991e-05 1.07966e-20
-2.61029e-05 4.47241e-06 -4.31494e-21
2.39004e-06 2.45391e-05 4.66539e-21
2.05819e-05 6.62648e-06 1.36181e-21
-2.17172e-05 -1.07003e-05 2.02326e-20
-8.97588e-06 2.56062e-05 1.61941e-20
-1.49517e-06 -2.41844e-05 1.51273e-20
1.94636e-05 1.18357e-05 -1.61429e-20
-1.76871e-06 1.80821e-05 2.13155e-20
-2.01358e-05 1.37006e-05 -2.58812e-21
2.35075e-05 1.14135e-05 -1.22372e-20
-1.71128e-05 -9.98418e-06 5.68313e-21
9.50873e-08 -1.98319e-05 1.64236e-20
1.83797e-05 1.99814e-05 -2.27934e-20
-2.21507e-05 -1.43016e-05 -1.16479e-20
4.83443e-05 -3.39775e-05 2.16083e-20
1.78945e-05 -1.0821e-05 1.68272e-20
9.00063e-06 4.30813e-05 -1.74238e-20
1.70318e-05 -1.36768e-05 1.03904e-20
-1.98723e-05 8.7024e-05 1.74201e-20
-1.97626e-05 -8.65383e-05 -1.13335e-20
5.71769e-05 7.17084e-05 5.72677e-21
5.69144e-05 -7.13822e-05 -3.4776e-21
9.06356e-05 -1.6089e-10 4.81091e-21
-7.81912e-05 3.76332e-05 9.62608e-21
-7.74455e-05 -3.72775e-05 3.43607e-21
1.22323e-05 1.18172e-05 -5.05285e-21
2.93643e-05 2.18897e-05 -1.19753e-20
1.14468e-05 3.33242e-06 8.4686e-21
1.88534e-05 9.75033e-06 1.43885e-20
4.98863e-06 2.01677e-05 -8.60351e-21
-1.88296e-05 -1.49785e-05 8.67415e-21
1.7036e-05 -1.0213e-05 -7.01734e-21
1.98502e-05 1.45476e-05 -2.79791e-21
-3.16657e-06 2.43611e-05 -8.13098e-22
2.94372e-05 -1.99905e-05 -8.03447e-21
3.79345e-06 -2.3737e-05 2.62004e-20
2.19583e-05 5.22644e-06 -2.08835e-20
2.98924e-05 1.10247e-05 -1.83357e-20
1.42071e-05 1.41422e-05 4.11216e-20
1.58814e-05 6.59294e-06 8.36309e-21
-1.84966e-05 1.09353e-05 -2.59872e-21
-2.25606e-05 9.0356e-06 1.37242e-21
2.29269e-05 -1.12622e-05 -1.15627e-20
-1.82658e-05 -9.99687e-06 3.87961e-21
-1.85523e-05 -1.05812e-05 -6.51439e-21
-3.4382e-07 -2.07654e-05 2.06925e-20
-8.61447e-08 -2.11584e-05 1.10895e-20
-2.01248e-05 -1.00536e-06 1.17804e-20
2.66961e-05 -4.01872e-06 1.09242e-20
1.811e-05 1.13409e-05 -1.26589e-20
-1.78623e-05 1.09439e-05 -1.41047e-20
-1.53597e-05 1.66218e-05 6.52409e-21
1.60203e-05 -1.37517e-05 -3.85311e-22
-1.10223e-05 1.74615e-05 4.26613e-21
-1.42234e-05 -1.4888e-05 2.86175e-20
-1.15513e-06 2.12083e-05 -8.6314e-21
-1.28754e-06 2.0966e-05 2.56507e-21
8.97089e-08 -1.98319e-05 4.52959e-21
6.11016e-06 -1.97352e-05 2.89737e-20
-1.71391e-05 -9.93443e-06 9.73493e-21
1.55852e-05 -5.48971e-06 1.86158e-20
6.63088e-07 2.14755e-05 6.4771e-21
3.00807e-07 1.85056e-05 3.64516e-20
-2.34551e-06 1.68555e-05 -1.13787e-20
2.19065e-05 -5.52684e-06 4.30494e-20
-1.65396e-05 5.37752e-06 -3.38645e-22
4.15703e-06 2.15153e-05 -5.09324e-22
-3.25551e-05 1.2918e-05 -1.22997e-20
9.76232e-06 4.17273e-05 -5.22352e-21
-1.70518e-05 4.56767e-06 1.21175e-20
1.96825e-05 -1.16289e-05 2.09487e-21
9.45672e-07 2.10174e-05 -1.00305e-20
-2.04792e-05 6.69876e-06 -8.66869e-21
2.44385e-06 -1.62609e-05 3.70346e-21
1.81892e-06 -5.80069e-05 7.93806e-21
2.00626e-06 1.74846e-05 7.19136e-21
-1.69604e-05 1.40212e-05 -4.57839e-21
1.78524e-05 6.39656e-05 4.60502e-22
4.57649e-05 3.77032e-05 -1.04049e-20
5.206e-05 -3.52523e-05 -1.96818e-20
1.4814e-05 -1.01662e-05 -8.04083e-21
-1.5784e-05 1.40363e-05 -4.13516e-21
-2.0215e-05 -7.91996e-06 1.39274e-20
-1.96438e-05 -6.82177e-06 2.26664e-20
5.92615e-05 -2.46097e-05 5.86562e-21
5.74284e-05 2.38687e-05 -8.37552e-21
1.08935e-05 3.81713e-06 2.05698e-21
7.6656e-07 1.95776e-05 5.16379e-21
7.83474e-08 1.95589e-05 -4.13578e-21
-4.83785e-05 -3.69153e-05 4.02755e-21
1.14241e-05 -1.71704e-05 6.455e-21
1.17322e-05 1.24635e-05 7.20561e-21
-2.14162e-05 -3.39544e-06 2.09456e-20
-1.40438e-05 1.72006e-05 5.81984e-21
-1.88869e-05 9.16694e-06 -1.69757e-20
4.76391e-05 3.36914e-05 -1.34899e-20
1.58051e-05 7.06105e-06 -2.31715e-20
-5.56628e-06 2.00286e-05 -4.6557e-21
-1.69766e-05 -1.17482e-05 5.66282e-21
1.85608e-06 -2.05411e-05 1.36415e-20
-8.94897e-06 -1.92656e-05 3.79017e-21
-1.72477e-05 -1.17725e-05 1.5814e-20
1.05787e-05 -1.89342e-05 1.64673e-20
1.41213e-05 -1.69879e-05 1.73713e-20
-2.4402e-06 -6.14322e-05 2.0798e-22
2.6178e-05 -4.11223e-05 1.27172e-20
1.74734e-06 -2.07839e-05 2.0255e-20
1.79572e-05 1.13545e-05 -1.13238e-20
-1.44752e-05 -1.49041e-05 2.31769e-20
-9.84028e-06 1.97085e-05 -1.1727e-20
-5.03902e-06 2.1005e-05 -9.96745e-21
1.66259e-05 1.42426e-05 -1.45273e-20
6.0585e-06 -1.98598e-05 1.19965e-20
-1.34054e-05 -4.03546e-05 -1.231e-20
-1.98822e-06 2.50385e-05 -6.36857e-21
1.47907e-05 1.4454e-05 -2.74658e-20
-1.29573e-05 -1.02159e-05 4.37557e-21
-1.35139e-05 1.06074e-05 -5.07407e-21
4.43393e-05 -1.89117e-05 7.52151e-21
7.56245e-06 -1.33991e-05 9.90227e-21
-8.31652e-06 -1.2626e-05 -3.61917e-21
2.13288e-05 6.36297e-06 -1.36542e-20
1.09935e-05 -5.0658e-05 7.19013e-21
-3.84485e-05 -3.49002e-05 -1.77239e-20
2.3305e-05 6.20692e-06 -9.03645e-21
-9.32752e-06 -1.82797e-05 1.5425e-20
1.87042e-05 9.48206e-06 2.18275e-22
-2.85623e-05 -3.25487e-05 -8.8674e-22
9.68743e-06 5.0043e-05 5.95113e-21
3.43315e-05 -5.98551e-05 -9.41903e-21
-3.47345e-05 -5.9772e-05 -1.52037e-20
2.78062e-05 -5.20182e-05 7.3096e-21
-1.26971e-05 4.36298e-05 5.54728e-21
-6.2756e-06 3.89744e-05 -3.39301e-21
-1.87293e-05 8.9452e-06 3.0559e-22
5.97675e-06 2.42403e-05 -1.16603e-20
-2.3914e-06 1.26531e-05 -8.93637e-21
1.01194e-05 3.23289e-06 -7.86529e-21
-3.18823e-06 1.62043e-05 1.80018e-21
-2.47439e-07 2.09901e-05 2.61933e-22
1.66593e-05 9.74984e-06 -2.51627e-21
1.71004e-06 5.77198e-05 1.02943e-20
-1.47161e-05 1.07318e-05 -4.68329e-21
1.59482e-05 -6.24613e-06 4.8861e-21
1.68706e-05 -4.50863e-06 6.49832e-21
-6.06578e-05 -8.76816e-06 9.7904e-21
-3.4603e-05 1.67402e-05 -2.80194e-20
-4.35112e-05 -5.25421e-05 -4.25187e-21
8.65585e-06 8.34504e-06 3.19839e-20
1.42088e-05 7.29198e-06 -1.46822e-21
2.68027e-05 -4.19554e-06 2.54467e-20
-8.10376e-06 -1.32418e-05 1.07093e-20
1.72152e-05 8.42796e-06 -6.15332e-21
7.33476e-06 -3.00323e-05 2.23575e-20
-1.37126e-05 1.02042e-05 -9.61062e-21
-2.23726e-05 -2.14206e-05 -4.94399e-21
-5.83552e-06 1.62964e-05 6.31946e-21
-3.27074e-06 2.06769e-05 1.07378e-20
3.38471e-05 2.12947e-05 -1.73783e-20
3.61104e-05 -1.92814e-05 2.88461e-21
-4.2067e-05 -1.1622e-05 9.8771e-22
7.63358e-06 7.68514e-06 -2.39076e-21
-4.05828e-06 0.000101353 1.86401e-20
8.61625e-07 -0.000104459 -3.89354e-21
5.24501e-05 8.76379e-05 4.02814e-21
-1.91014e-05 8.45722e-06 -2.67907e-21
-2.63745e-05 5.65449e-05 2.78942e-21
5.30283e-05 -8.46328e-05 5.62431e-21
-1.17196e-05 -1.82809e-05 2.09948e-20
7.79937e-05 6.74923e-05 -1.84718e-20
2.39916e-05 -1.79754e-05 2.80024e-20
-3.60715e-06 -2.98197e-05 4.79183e-21
8.17721e-05 -6.5845e-05 9.55149e-21
-6.74409e-06 1.45171e-05 -5.98113e-21
-5.38276e-05 -3.48209e-05 5.18745e-21
-4.30098e-05 -9.3122e-05 8.39493e-21
-2.41106e-05 -5.77994e-05 -5.24564e-21
-4.39713e-05 9.4129e-05 1.16743e-20
-1.00925e-05 6.40786e-05 2.87521e-21
1.56315e-05 3.71052e-05 2.25586e-21
-2.7953e-05 3.72373e-05 -6.22306e-21
-2.52709e-05 -5.51787e-05 -9.58575e-21
0.000100357 1.73155e-05 -9.57394e-21
-1.69261e-05 1.07661e-05 -8.44039e-21
-5.91186e-06 1.63317e-05 9.63942e-21
-5.07538e-05 3.76364e-05 1.59792e-20
-1.72748e-05 9.9433e-06 -7.64155e-21
9.91945e-05 -1.52621e-05 -5.22659e-22
-1.53589e-05 7.79805e-06 -2.55022e-21
7.19201e-06 -1.44937e-05 -9.23832e-21
-7.79629e-05 -6.0943e-05 -7.24472e-21
-2.58768e-05 5.77124e-05 1.21538e-21
-7.91158e-05 6.03703e-05 1.5767e-20
2.45381e-05 5.1946e-05 3.2005e-21
-1.47663e-05 1.05815e-05 -6.34614e-21
-2.05281e-05 2.44745e-05 -3.08761e-20
-2.85303e-05 4.98137e-05 -1.094e-20
-5.67713e-05 2.07971e-07 3.80986e-21
-9.44033e-07 1.62947e-05 -7.69008e-21
-2.88472e-05 -5.04022e-05 -2.26978e-21
-5.81935e-05 -2.19783e-07 -2.33785e-20
-2.83471e-05 4.86922e-05 -1.10728e-20
-1.5189e-05 6.62606e-05 2.16642e-21
-1.78633e-05 4.1257e-05 2.338e-21
-3.38974e-05 2.71351e-05 -1.05201e-20
2.43809e-05 -6.05644e-06 -2.3484e-20
3.79995e-05 -2.19513e-06 -1.62499e-20
1.34812e-05 8.19962e-06 8.05296e-21
-1.04683e-05 -7.39814e-05 -2.18824e-21
-6.94431e-05 -2.79719e-05 -1.45595e-20
3.71291e-05 7.32677e-07 -1.02909e-20
5.83612e-05 -1.08912e-05 6.01417e-21
-1.05828e-05 -1.34959e-05 2.79913e-21
-5.08245e-05 3.76222e-05 -1.21248e-20
-4.61297e-05 5.39954e-05 -1.09906e-20
6.23574e-05 -2.22306e-05 1.24828e-20
-2.8175e-05 -5.04928e-05 -1.48305e-20
-2.87747e-05 4.97753e-05 -1.53816e-20
-5.72496e-05 -1.17106e-06 -1.65173e-20
-2.65711e-05 5.05935e-05 -1.09894e-20
-5.79483e-05 -8.16945e-07 -1.02952e-20
6.60706e-05 1.7391e-05 6.45377e-21
5.63755e-05 1.29239e-06 -4.15367e-21
5.08959e-05 -2.92714e-05 -2.10505e-20
2.49081e-05 -5.94222e-05 -6.96763e-21
2.9916e-05 -4.88527e-05 6.51258e-21
2.9165e-05 4.86767e-05 -1.7612e-20
2.4343e-05 5.80845e-05 -1.60432e-20
7.5796e-05 -2.00359e-05 5.98174e-21
4.62625e-05 2.90608e-05 -2.13459e-21
4.66204e-05 1.37443e-05 -3.0787e-20
TENSORS solid_stress_TPM float
375.029 -24.9203 8.47914e-13
-24.9203 238.568 2.70835e-12
8.47914e-13 2.70835e-12 197.816

456.999 -21.3202 1.4444e-12
-21.3202 489.983 3.37508e-14
1.4444e-12 3.37508e-14 487.106

454.874 28.043 7.53175e-13
28.043 463.704 -1.88738e-12
7.53175e-13 -1.88738e-12 458.454

455.024 -29.8427 3.10522e-12
-29.8427 482.605 -2.52953e-12
3.10522e-12 -2.52953e-12 484.853

527.683 19.9309 -9.84013e-12
19.9309 548.453 2.76919e-12
-9.84013e-12 2.76919e-12 527.354

437.307 -18.0742 -9.08458e-13
-18.0742 480.334 1.15937e-12
-9.08458e-13 1.15937e-12 458.035

372.324 26.4844 1.01844e-12
26.4844 239.088 -2.18137e-12
1.01844e-12 -2.18137e-12 197.8

473.648 29.9577 -1.86873e-12
29.9577 469.497 -1.40539e-12
-1.86873e-12 -1.40539e-12 472.333

471.543 5.48309 1.41398e-12
5.48309 417.818 2.57646e-12
1.41398e-12 2.57646e-12 432.791

504.254 -7.47756 -3.3055e-12
-7.47756 444.107 -3.18656e-12
-3.3055e-12 -3.18656e-12 483.448

360.289 16.3083 3.31587e-14
16.3083 247.653 3.97904e-12
3.31587e-14 3.97904e-12 233.642

444.778 -13.4531 8.90103e-13
-13.4531 498.381 9.85878e-13
8.90103e-13 9.85878e-13 472.235

466.863 27.8329 2.35071e-12
27.8329 468.297 1.0522e-12
2.35071e-12 1.0522e-12 466.73

457.033 -14.34 1.77414e-13
-14.34 500.429 1.02614e-12
1.77414e-13 1.02614e-12 483.453

512.933 33.3115 -1.6153e-12
33.3115 511.593 -5.39491e-12
-1.6153e-12 -5.39491e-12 515.222

489.167 0.560963 1.78228e-13
0.560963 435.518 7.58116e-13
1.78228e-13 7.58116e-13 462.267

457.579 -17.9692 -2.40067e-13
-17.9692 512.881 -4.7784e-13
-2.40067e-13 -4.7784e-13 493.593

493.952 -2.6652 -8.47618e-13
-2.6652 439.044 -1.03036e-12
-8.47618e-13 -1.03036e-12 474.259

418.788 26.6734 -1.30562e-13
26.6734 449.654 2.26189e-12
-1.30562e-13 2.26189e-12 424.048

481.976 -4.19552 -1.17832e-12
-4.19552 424.916 -2.74936e-12
-1.17832e-12 -2.74936e-12 453.47

425.291 8.66848 7.60873e-13
8.66848 481.897 1.10785e-12
7.60873e-13 1.10785e-12 444.836

634.128 6.28777 -4.93663e-12
6.28777 633.963 -4.90778e-12
-4.93663e-12 -4.90778e-12 570.315

479.147 1.87596 9.47982e-13
1.87596 422.936 1.26173e-12
9.47982e-13 1.26173e-12 449.727

447.157 -27.7149 -2.34479e-13
-27.7149 461.145 -1.07647e-12
-2.34479e-13 -1.07647e-12 452.943

481.043 6.84932 -3.32771e-13
6.84932 425.436 -2.88895e-12
-3.32771e-13 -2.88895e-12 452.933

449.753 19.1128 -1.58962e-12
19.1128 490.312 3.48699e-12
-1.58962e-12 3.48699e-12 478.201

377.65 4.18132 -2.65506e-12
4.18132 291.651 -8.69231e-13
-2.65506e-12 -8.69231e-13 258.999

462.68 30.7456 2.61539e-12
30.7456 460.709 -2.97184e-12
2.61539e-12 -2.97184e-12 460.54

384.936 37.0739 -8.21861e-13
37.0739 383.515 -2.70362e-12
-8.21861e-13 -2.70362e-12 348.414

586.94 10.3235 5.00933e-13
10.3235 563.449 4.42006e-12
5.00933e-13 4.42006e-12 546.869

491.682 14.2168 2.8096e-12
14.2168 442.493 -1.44773e-13
2.8096e-12 -1.44773e-13 465.851

352.851 -17.7801 -1.60849e-12
-17.7801 416.718 -7.67386e-13
-1.60849e-12 -7.67386e-13 348.585

331.014 -42.1012 -5.28407e-12
-42.1012 335.869 -1.78109e-12
-5.28407e-12 -1.78109e-12 253.479

531.407 5.98684 3.25552e-12
5.98684 586.887 -3.03787e-12
3.25552e-12 -3.03787e-12 538.579

554.021 -4.8408 4.31492e-12
-4.8408 582.069 2.83181e-12
4.31492e-12 2.83181e-12 542.509

577.984 21.0279 -7.39557e-13
21.0279 539.944 1.45824e-12
-7.39557e-13 1.45824e-12 538.347

556.182 5.06762 -1.48089e-12
5.06762 600.673 -7.80413e-13
-1.48089e-12 -7.80413e-13 547.966

573.772 -9.1699 -5.53335e-13
-9.1699 555.762 5.92998e-13
-5.53335e-13 5.92998e-13 540.634

467.122 -27.9979 3.25606e-12
-27.9979 466.486 -3.33659e-12
3.25606e-12 -3.33659e-12 465.102

330.398 41.5204 6.2883e-12
41.5204 337.967 1.46372e-12
6.2883e-12 1.46372e-12 253.838

414.52 -17.9488 3.7043e-12
-17.9488 354.483 1.43944e-12
3.7043e-12 1.43944e-12 346.316

559.303 -3.70616 1.46535e-12
-3.70616 599.922 -4.39056e-13
1.46535e-12 -4.39056e-13 548.38

586.41 19.5557 1.56682e-12
19.5557 572.453 -1.2701e-12
1.56682e-12 -1.2701e-12 548.169

490.887 -12.2732 -1.64964e-12
-12.2732 442.847 -4.85745e-12
-1.64964e-12 -4.85745e-12 466.523

341.704 -43.2984 -2.5473e-12
-43.2984 345.331 3.55863e-12
-2.5473e-12 3.55863e-12 288.972

417.546 -18.0631 2.35427e-12
-18.0631 357.1 8.18901e-13
2.35427e-12 8.18901e-13 351.489

413 17.0854 2.52716e-12
17.0854 464.768 1.2772e-12
2.52716e-12 1.2772e-12 428.713

429.616 19.3387 3.09945e-12
19.3387 466.498 -8.82257e-14
3.09945e-12 -8.82257e-14 437.067

486.766 -16.3009 -4.84945e-13
-16.3009 432.862 -1.87598e-12
-4.84945e-13 -1.87598e-12 458.664

355.569 -34.1848 -6.0929e-13
-34.1848 389.389 -1.25884e-12
-6.0929e-13 -1.25884e-12 332.557

410.238 19.1815 -2.61835e-12
19.1815 350.69 5.29887e-12
-2.61835e-12 5.29887e-12 339.465

425.187 -25.2879 3.08494e-12
-25.2879 383.808 4.35355e-12
3.08494e-12 4.35355e-12 373.064

519.911 19.4858 1.4917e-12
19.4858 547.521 2.2166e-12
1.4917e-12 2.2166e-12 525.72

416.399 29.6488 -3.31587e-13
29.6488 393.873 -7.61465e-13
-3.31587e-13 -7.61465e-13 373.928

522.165 -21.8128 -3.54413e-12
-21.8128 541.387 1.12947e-12
-3.54413e-12 1.12947e-12 524.367

364.059 -42.7105 -4.52616e-12
-42.7105 343.271 4.358e-13
-4.52616e-12 4.358e-13 289.689

553.442 5.45982 -2.42532e-12
5.45982 583.861 3.32682e-12
-2.42532e-12 3.32682e-12 542.883

373.704 -5.32968 -2.51591e-12
-5.32968 436.649 5.11235e-12
-2.51591e-12 5.11235e-12 373.812

580.81 10.3842 -4.32632e-12
10.3842 556.162 -5.51466e-13
-4.32632e-12 -5.51466e-13 542.64

435.044 21.4128 3.75699e-13
21.4128 473.748 -2.179e-13
3.75699e-13 -2.179e-13 454.659

513.561 5.75383 1.56349e-12
5.75383 452.795 -5.05921e-12
1.56349e-12 -5.05921e-12 494.854

522.447 11.4589 7.9714e-13
11.4589 487.851 -1.22154e-12
7.9714e-13 -1.22154e-12 507.068

383.695 31.8194 1.0516e-12
31.8194 315.185 1.06712e-11
1.0516e-12 1.06712e-11 269.863

482.077 -6.03508 -1.88146e-13
-6.03508 528.17 -1.3222e-12
-1.88146e-13 -1.3222e-12 504.09

487.086 9.51966 3.99088e-13
9.51966 523.68 1.91195e-12
3.99088e-13 1.91195e-12 507.486

456.448 -2.88074 -1.24893e-12
-2.88074 520.147 2.73559e-13
-1.24893e-12 2.73559e-13 487.797

464.444 23.4021 7.78377e-13
23.4021 503.459 5.45342e-13
7.78377e-13 5.45342e-13 495.43

496.736 8.46344 -1.80004e-13
8.46344 444.388 -9.73888e-13
-1.80004e-13 -9.73888e-13 477.688

445.496 -28.239 2.52035e-12
-28.239 459.518 -1.34766e-12
2.52035e-12 -1.34766e-12 451.157

501.671 -1.71121 -1.17713e-12
-1.71121 444.906 -1.97472e-12
-1.17713e-12 -1.97472e-12 489.058

519.523 -19.2619 9.79957e-13
-19.2619 546.814 6.45232e-12
9.79957e-13 6.45232e-12 525.453

523.294 21.3078 3.86713e-12
21.3078 542.911 -2.38209e-12
3.86713e-12 -2.38209e-12 525.256

353.401 -16.5831 -9.59233e-13
-16.5831 415.725 3.04112e-12
-9.59233e-13 3.04112e-12 346.104

506.011 -27.936 1.38437e-12
-27.936 485.3 1.55165e-12
1.38437e-12 1.55165e-12 493.87

449.71 -25.1343 -1.42375e-12
-25.1343 471.21 3.73035e-14
-1.42375e-12 3.73035e-14 458.567

357.862 -31.7101 3.65219e-12
-31.7101 285.67 2.61154e-12
3.65219e-12 2.61154e-12 249.852

498.491 3.22259 2.6162e-12
3.22259 541.396 1.75326e-12
2.6162e-12 1.75326e-12 513.633

501.717 28.9437 -3.61903e-12
28.9437 474.54 2.19321e-12
-3.61903e-12 2.19321e-12 487.648

448.435 19.6641 2.95926e-12
19.6641 492.098 -2.21304e-12
2.95926e-12 -2.21304e-12 477.633

440.182 7.99939 6.60805e-13
7.99939 373.029 -2.42769e-14
6.60805e-13 -2.42769e-14 382.926

386.442 -33.9349 -3.39876e-12
-33.9349 360.198 4.42787e-12
-3.39876e-12 4.42787e-12 319.428

537.713 -10.5875 -8.07354e-13
-10.5875 556.131 1.97501e-12
-8.07354e-13 1.97501e-12 531.241

482.648 23.8994 2.83862e-12
23.8994 504.551 -5.12142e-12
2.83862e-12 -5.12142e-12 502.034

385.363 -32.3832 9.50943e-13
-32.3832 345.299 -7.69755e-14
9.50943e-13 -7.69755e-14 317.074

422.188 10.7909 8.21861e-13
10.7909 363.843 -8.87142e-13
8.21861e-13 -8.87142e-13 350.245

307.645 -21.2056 3.68298e-13
-21.2056 388.434 -6.96332e-12
3.68298e-13 -6.96332e-12 288.109

434.436 14.4255 1.17817e-12
14.4255 488.659 3.75285e-12
1.17817e-12 3.75285e-12 460.875

509.712 23.1428 -1.73965e-12
23.1428 475.163 -2.11712e-12
-1.73965e-12 -2.11712e-12 489.938

338.234 42.1979 -3.9672e-12
42.1979 349.564 -3.50061e-12
-3.9672e-12 -3.50061e-12 288.945

634.214 16.5072 -1.90655e-11
16.5072 603.066 8.13068e-12
-1.90655e-11 8.13068e-12 565.319

372.881 -4.10827 8.60941e-13
-4.10827 436.808 -1.06226e-12
8.60941e-13 -1.06226e-12 373.419

637.119 -16.6323 4.01575e-12
-16.6323 599.536 1.47204e-11
4.01575e-12 1.47204e-11 564.826

533.931 -27.335 -4.63037e-13
-27.335 507.231 -1.19697e-12
-4.63037e-13 -1.19697e-12 515.707

505.288 27.4245 5.82645e-13
27.4245 466.326 -7.05865e-12
5.82645e-13 -7.05865e-12 485.064

426.917 -24.4101 -3.67114e-13
-24.4101 386.231 5.28052e-12
-3.67114e-13 5.28052e-12 375.971

358.929 31.3226 -1.82491e-12
31.3226 395.996 -1.03029e-13
-1.82491e-12 -1.03029e-13 339.194

339.818 -10.7049 1.68754e-13
-10.7049 408.383 2.13163e-14
1.68754e-13 2.13163e-14 319.099

453.096 21.9706 -8.28967e-13
21.9706 494.67 -4.37606e-12
-8.28967e-13 -4.37606e-12 483.16

533.106 16.794 2.89309e-12
16.794 506.191 9.91799e-13
2.89309e-12 9.91799e-13 513.346

443.445 15.1537 2.49326e-12
15.1537 488.431 -3.70074e-13
2.49326e-12 -3.70074e-13 464.274

451.472 15.9536 7.67386e-13
15.9536 400.529 2.49119e-12
7.67386e-13 2.49119e-12 403.739

374.481 -21.4721 8.14756e-13
-21.4721 419.859 4.69432e-12
8.14756e-13 4.69432e-12 357.19

389.715 -29.3901 -5.30539e-12
-29.3901 342.363 3.45916e-12
-5.30539e-12 3.45916e-12 314.385

454.958 -24.5728 1.14723e-13
-24.5728 480.057 -6.26758e-13
1.14723e-13 -6.26758e-13 478.363

466.419 27.4508 9.67522e-13
27.4508 478.736 -7.91367e-13
9.67522e-13 -7.91367e-13 479.802

452.209 23.1875 2.43657e-13
23.1875 492.551 4.42254e-12
2.43657e-13 4.42254e-12 482.035

466.289 13.1692 -8.20871e-13
13.1692 529.77 4.8838e-12
-8.20871e-13 4.8838e-12 501.376

490.854 9.3722 -1.09542e-12
9.3722 437.882 -6.27498e-13
-1.09542e-12 -6.27498e-13 462.048

327.706 -4.66498 3.41149e-12
-4.66498 403.374 2.7948e-12
3.41149e-12 2.7948e-12 314.406

462.572 -36.8334 -3.94055e-13
-36.8334 487.683 -1.53536e-12
-3.94055e-13 -1.53536e-12 492.741

445.842 27.4649 -4.10931e-12
27.4649 463.263 2.07242e-12
-4.10931e-12 2.07242e-12 455.007

305.666 2.1703 3.70637e-12
2.1703 393.354 -3.11455e-12
3.70637e-12 -3.11455e-12 297.25

385.99 34.6097 -5.22486e-12
34.6097 332.442 3.97134e-12
-5.22486e-12 3.97134e-12 306.24

453.343 -22.9736 -3.07857e-12
-22.9736 480.062 2.18551e-12
-3.07857e-12 2.18551e-12 476.165

501.387 5.73296 -1.71715e-14
5.73296 441.308 2.90257e-12
-1.71715e-14 2.90257e-12 481.003

422.373 27.2035 -1.04687e-12
27.2035 389.76 -4.38523e-12
-1.04687e-12 -4.38523e-12 374.228

570.538 12.7455 3.87971e-12
12.7455 565.913 -3.76558e-12
3.87971e-12 -3.76558e-12 542.911

396.171 24.33 -1.82136e-12
24.33 349.642 1.77636e-14
-1.82136e-12 1.77636e-14 319.038

569.16 -13.0551 -3.77624e-13
-13.0551 565.825 -5.10407e-12
-3.77624e-13 -5.10407e-12 542.367

375.085 0.778517 2.23525e-14
0.778517 438.862 4.14839e-12
2.23525e-14 4.14839e-12 374.634

461.463 -2.23527 -1.86754e-12
-2.23527 399.297 -1.79227e-12
-1.86754e-12 -1.79227e-12 417.275

538.19 -15.7681 1.63499e-12
-15.7681 480.625 7.72123e-13
1.63499e-12 7.72123e-13 513.472

457.238 24.3881 6.73073e-14
24.3881 487.778 1.47127e-12
6.73073e-14 1.47127e-12 488.347

461.249 -13.535 -2.08979e-12
-13.535 519.129 -4.02463e-12
-2.08979e-12 -4.02463e-12 495.708

514.962 -8.00002 -2.65906e-12
-8.00002 438.184 1.54661e-12
-2.65906e-12 1.54661e-12 494.27

488.309 -22.2842 -3.04334e-12
-22.2842 541.597 -3.42541e-13
-3.04334e-12 -3.42541e-13 515.744

556.047 -6.59639 2.01409e-12
-6.59639 560.39 7.80413e-13
2.01409e-12 7.80413e-13 538.724

463.859 -29.9081 -3.4935e-13
-29.9081 483.189 2.02712e-12
-3.4935e-13 2.02712e-12 483.593

341.702 11.4534 -3.02869e-13
11.4534 406.187 -3.41534e-12
-3.02869e-13 -3.41534e-12 319.478

422.474 -28.1459 3.55271e-15
-28.1459 391.236 -3.76232e-12
3.55271e-15 -3.76232e-12 375.141

507.377 -13.7723 2.96163e-12
-13.7723 558.743 -1.05989e-12
2.96163e-12 -1.05989e-12 525.246

501.05 0.504396 -1.41457e-12
0.504396 441.273 2.91493e-12
-1.41457e-12 2.91493e-12 487.08

476.936 -21.5246 -3.84922e-12
-21.5246 507.415 -2.9153e-12
-3.84922e-12 -2.9153e-12 501.499

459.091 25.6976 -1.59576e-12
25.6976 484.594 -1.82828e-12
-1.59576e-12 -1.82828e-12 487.975

394.424 -31.4638 -8.92915e-13
-31.4638 400.592 -1.75859e-12
-8.92915e-13 -1.75859e-12 357.516

552.123 -7.08516 3.76773e-12
-7.08516 585.292 -1.75119e-12
3.76773e-12 -1.75119e-12 542.598

347.204 -33.0761 2.5473e-12
-33.0761 382.601 -8.28493e-12
2.5473e-12 -8.28493e-12 303.43

490.863 -19.1794 8.37848e-13
-19.1794 448.381 -2.75335e-13
8.37848e-13 -2.75335e-13 467.117

519.702 1.97021 1.40532e-12
1.97021 466.808 2.0289e-12
1.40532e-12 2.0289e-12 502.825

570.555 17.8751 -4.82429e-12
17.8751 566.477 3.12935e-12
-4.82429e-12 3.12935e-12 542.371

375.284 20.1824 -1.05693e-12
20.1824 424.025 -9.88839e-13
-1.05693e-12 -9.88839e-13 360.215

489.075 27.2102 -1.09364e-12
27.2102 468.533 -1.45247e-12
-1.09364e-12 -1.45247e-12 476.633

454.372 -24.5111 1.53951e-13
-24.5111 415.335 2.5923e-12
1.53951e-13 2.5923e-12 418.596

454.712 -17.8384 -4.07711e-13
-17.8384 494.9 3.76795e-12
-4.07711e-13 3.76795e-12 482.635

379.192 35.0674 4.75708e-12
35.0674 366.024 -2.47387e-12
4.75708e-12 -2.47387e-12 317.043

449.145 -21.831 4.99748e-13
-21.831 491.697 1.39207e-12
4.99748e-13 1.39207e-12 479.766

485.484 30.8502 -1.22391e-12
30.8502 465.129 2.55114e-12
-1.22391e-12 2.55114e-12 473.439

480.315 -25.2437 9.69299e-13
-25.2437 442.36 -1.97768e-13
9.69299e-13 -1.97768e-13 455.435

448.211 -25.126 4.44474e-12
-25.126 469.76 1.44122e-12
4.44474e-12 1.44122e-12 458.089

445.337 -18.6877 -4.51076e-12
-18.6877 393.454 2.17071e-12
-4.51076e-12 2.17071e-12 397.25

470.645 -18.8492 1.6982e-12
-18.8492 422.845 -1.71803e-12
1.6982e-12 -1.71803e-12 437.524

458.991 -25.3369 1.6452e-12
-25.3369 485.42 -2.04044e-12
1.6452e-12 -2.04044e-12 488.818

386.534 35.9685 2.63256e-12
35.9685 381.98 1.01844e-13
2.63256e-12 1.01844e-13 348.109

444.487 15.3765 -1.4535e-12
15.3765 491.524 1.20023e-12
-1.4535e-12 1.20023e-12 467.131

469.388 26.4219 -2.3513e-12
26.4219 479.949 -2.70184e-12
-2.3513e-12 -2.70184e-12 482.538

456.134 25.4736 -1.18417e-12
25.4736 486.638 1.12251e-12
-1.18417e-12 1.12251e-12 487.238

457.799 11.6213 7.23333e-13
11.6213 506.931 4.50603e-13
7.23333e-13 4.50603e-13 486.007

431.942 -8.2268 -2.02742e-12
-8.2268 370.748 -7.07094e-12
-2.02742e-12 -7.07094e-12 363.299

376.771 18.606 -7.69755e-13
18.606 427.256 2.13163e-12
-7.69755e-13 2.13163e-12 363.875

452.303 -24.3802 -9.17784e-14
-24.3802 478.376 2.90138e-14
-9.17784e-14 2.90138e-14 470.702

440.737 25.6654 -4.72866e-12
25.6654 455.631 4.87255e-12
-4.72866e-12 4.87255e-12 437.796

390.947 -35.6284 2.6219e-12
-35.6284 380.269 -9.90023e-13
2.6219e-12 -9.90023e-13 350.083

368.933 38.3157 5.33973e-12
38.3157 327.245 -4.83169e-12
5.33973e-12 -4.83169e-12 295.675

363.638 -33.3102 -4.73991e-12
-33.3102 394.426 -1.61175e-12
-4.73991e-12 -1.61175e-12 341.971

397.921 -31.1588 9.21337e-13
-31.1588 404.183 7.98176e-13
9.21337e-13 7.98176e-13 362.965

502.847 -6.83865 1.2923e-12
-6.83865 442.24 -2.7256e-12
1.2923e-12 -2.7256e-12 482.308

393.154 30.341 3.13823e-12
30.341 408.969 1.06226e-12
3.13823e-12 1.06226e-12 363.425

429.691 13.2943 -4.52971e-12
13.2943 372.238 6.99026e-12
-4.52971e-12 6.99026e-12 362.704

350.135 13.3785 6.9349e-12
13.3785 418.503 2.82085e-12
6.9349e-12 2.82085e-12 348.466

379.469 -22.3398 -2.48335e-12
-22.3398 423.502 1.3145e-12
-2.48335e-12 1.3145e-12 363.439

491.198 -1.09148 4.44541e-12
-1.09148 550.869 7.71531e-13
4.44541e-12 7.71531e-13 516.297

372.854 2.24654 2.13044e-12
2.24654 437.776 6.47778e-13
2.13044e-12 6.47778e-13 373.511

357.881 31.0884 -2.11031e-12
31.0884 399.476 2.10913e-12
-2.11031e-12 2.10913e-12 341.952

457.981 12.1077 -1.90594e-12
12.1077 510.551 -3.48758e-13
-1.90594e-12 -3.48758e-13 488.393

421.442 -27.6469 -5.3646e-12
-27.6469 389.062 4.32247e-13
-5.3646e-12 4.32247e-13 375.063

524.747 20.5569 3.60008e-12
20.5569 469.74 -5.91527e-13
3.60008e-12 -5.91527e-13 500.725

534.916 26.2704 5.23552e-12
26.2704 506.851 2.93691e-12
5.23552e-12 2.93691e-12 516.085

494.806 -18.5673 -2.20209e-12
-18.5673 449.016 -2.44604e-12
-2.20209e-12 -2.44604e-12 470.846

554.576 -1.80106 1.00246e-12
-1.80106 516.014 -1.99751e-12
1.00246e-12 -1.99751e-12 525.708

473.277 -31.8116 4.73399e-13
-31.8116 475.687 -7.52879e-13
4.73399e-13 -7.52879e-13 478.568

412.587 23.3272 -2.97244e-13
23.3272 357.187 1.71418e-12
-2.97244e-13 1.71418e-12 348.082

464.166 30.162 -1.02733e-12
30.162 482.758 -1.38201e-12
-1.02733e-12 -1.38201e-12 483.194

464.429 29.2058 2.74418e-12
29.2058 482.231 1.70175e-12
2.74418e-12 1.70175e-12 482.755

393.936 30.6601 4.63037e-13
30.6601 405.713 5.80277e-14
4.63037e-13 5.80277e-14 360.859

502.845 27.0848 -2.54256e-12
27.0848 482.656 -1.41664e-12
-2.54256e-12 -1.41664e-12 490.725

415.341 3.52506 -9.29627e-13
3.52506 339.009 7.66165e-13
-9.29627e-13 7.66165e-13 340.816

493.113 31.8172 -3.29514e-12
31.8172 487.214 -3.5915e-12
-3.29514e-12 -3.5915e-12 495.565

476.318 -12.5997 1.38474e-12
-12.5997 522.441 -1.92439e-12
1.38474e-12 -1.92439e-12 500.239

536.918 24.2782 1.52559e-12
24.2782 507.394 5.06558e-13
1.52559e-12 5.06558e-13 516.621

468.167 -29.5786 -4.89534e-12
-29.5786 479.96 -7.00181e-13
-4.89534e-12 -7.00181e-13 483.052

464.552 -4.8981 4.40222e-13
-4.8981 521.546 -8.66862e-13
4.40222e-13 -8.66862e-13 490.97

400.93 -24.5557 -1.17476e-12
-24.5557 349.015 -1.83024e-12
-1.17476e-12 -1.83024e-12 323.942

418.957 29.6924 4.48826e-13
29.6924 392.455 -1.80004e-12
4.48826e-13 -1.80004e-12 373.761

352.336 14.6961 1.57963e-12
14.6961 417.202 -4.45273e-13
1.57963e-12 -4.45273e-13 348.231

500.52 -1.13887 -4.76656e-14
-1.13887 442.785 -3.08672e-12
-4.76656e-14 -3.08672e-12 487.699

492.461 0.00223253 -2.42236e-12
0.00223253 438.093 3.99144e-13
-2.42236e-12 3.99144e-13 474.41

452.956 23.1237 -4.47331e-12
23.1237 479.698 1.24848e-12
-4.47331e-12 1.24848e-12 475.577

481.295 23.8709 5.38532e-13
23.8709 502.865 1.41252e-12
5.38532e-13 1.41252e-12 501.245

456.578 -24.3807 1.35373e-13
-24.3807 487.343 -1.90751e-12
1.35373e-13 -1.90751e-12 488.489

457.828 -0.672718 4.02669e-12
-0.672718 517.933 3.54679e-13
4.02669e-12 3.54679e-13 486.392

458.876 25.5903 -6.51331e-14
25.5903 486.46 5.24395e-13
-6.51331e-14 5.24395e-13 488.511

465.552 -10.3078 3.20336e-13
-10.3078 408.078 -4.45022e-12
3.20336e-13 -4.45022e-12 427.217

400.859 -32.8328 -2.68526e-12
-32.8328 414.949 7.83373e-13
-2.68526e-12 7.83373e-13 385.16

518.092 -2.30063 -8.35628e-13
-2.30063 465.734 9.78181e-13
-8.35628e-13 9.78181e-13 500.922

391.867 -34.5075 6.16396e-12
-34.5075 379.601 7.50215e-13
6.16396e-12 7.50215e-13 347.413

477.997 19.0861 3.31202e-12
19.0861 509.197 6.98404e-13
3.31202e-12 6.98404e-13 501.842

506.109 -26.4786 -3.25488e-12
-26.4786 470.244 -9.67226e-13
-3.25488e-12 -9.67226e-13 487.269

424.996 -9.69006 3.63443e-12
-9.69006 366.727 -8.71007e-13
3.63443e-12 -8.71007e-13 355.977

530.263 -23.1919 -5.42381e-13
-23.1919 488.754 -5.71987e-13
-5.42381e-13 -5.71987e-13 506.486

500.889 2.35826 3.24748e-12
2.35826 444.573 -2.7045e-12
3.24748e-12 -2.7045e-12 489.202

521.189 -23.3213 1.37253e-12
-23.3213 501.839 -1.61663e-12
1.37253e-12 -1.61663e-12 508.531

502.013 -25.8594 -7.69755e-13
-25.8594 461.489 1.35862e-12
-7.69755e-13 1.35862e-12 481.241

498.824 -8.54603 -1.05427e-12
-8.54603 445.133 -2.18788e-12
-1.05427e-12 -2.18788e-12 479.341

482.217 -23.0681 1.25588e-12
-23.0681 504.99 6.91299e-13
1.25588e-12 6.91299e-13 502.533

428.536 -31.3413 1.54069e-12
-31.3413 410.584 1.7734e-12
1.54069e-12 1.7734e-12 398.994

503.265 -24.5871 -5.22959e-12
-24.5871 464.711 1.67451e-12
-5.22959e-12 1.67451e-12 482.157

441.237 10.8643 1.67333e-12
10.8643 378.477 6.09616e-12
1.67333e-12 6.09616e-12 387.795

500.035 26.3401 -2.05909e-12
26.3401 498.582 2.78148e-13
-2.05909e-12 2.78148e-13 500.102

463.747 -37.613 -1.37016e-12
-37.613 488.386 -4.77337e-12
-1.37016e-12 -4.77337e-12 494.08

464.855 37.2653 -3.71555e-13
37.2653 487.298 -4.07156e-13
-3.71555e-13 -4.07156e-13 493.795

446.323 -28.5734 9.52941e-14
-28.5734 500.012 -1.38822e-12
9.52941e-14 -1.38822e-12 492.309

448.558 27.0642 1.02318e-12
27.0642 500.703 1.4347e-12
1.02318e-12 1.4347e-12 492.496

513.067 -8.52767 -1.0704e-12
-8.52767 436.402 -1.60908e-12
-1.0704e-12 -1.60908e-12 492.757

511.229 9.27369 -3.30743e-12
9.27369 437.999 3.59564e-13
-3.30743e-12 3.59564e-13 492.394

501.653 -9.84609 -4.55932e-14
-9.84609 451.739 2.56136e-12
-4.55932e-14 2.56136e-12 483.017

510.863 32.1163 -7.64426e-13
32.1163 510.388 4.25183e-12
-7.64426e-13 4.25183e-12 514.053

509.639 -32.8543 2.59348e-13
-32.8543 510.065 3.996e-12
2.59348e-13 3.996e-12 513.692

481.807 16.0685 1.65172e-12
16.0685 539.129 4.31536e-12
1.65172e-12 4.31536e-12 514.325

483.001 -15.801 -1.8144e-12
-15.801 538.719 5.56592e-12
-1.8144e-12 5.56592e-12 514.346

556.868 -3.74751 1.07854e-12
-3.74751 506.831 2.60118e-12
1.07854e-12 2.60118e-12 524.99

558.422 3.61029 3.75744e-12
3.61029 505.155 -2.1716e-12
3.75744e-12 -2.1716e-12 525.362

387.305 9.83673 1.6751e-12
9.83673 449.192 -1.95755e-12
1.6751e-12 -1.95755e-12 397.082

472.384 -24.774 -6.76792e-13
-24.774 480.75 2.41599e-12
-6.76792e-13 2.41599e-12 484.973

443.457 -36.3876 2.91234e-12
-36.3876 485.528 8.91731e-13
2.91234e-12 8.91731e-13 486.624

473.636 -4.66425 4.35444e-12
-4.66425 420.432 -5.23581e-13
4.35444e-12 -5.23581e-13 436.334

540.252 -16.6948 -5.74207e-13
-16.6948 484.189 -1.94718e-12
-5.74207e-13 -1.94718e-12 515.286

540.972 16.1758 1.35699e-12
16.1758 485.413 2.39186e-12
1.35699e-12 2.39186e-12 515.891

506.857 0.121883 1.2926e-12
0.121883 423.546 9.83459e-13
1.2926e-12 9.83459e-13 486.998

384.787 23.3748 7.17056e-13
23.3748 432.292 -1.85925e-13
7.17056e-13 -1.85925e-13 385.471

442.328 36.1716 -1.23057e-12
36.1716 485.206 1.93327e-13
-1.23057e-12 1.93327e-13 485.829

452.592 -23.3957 -1.88501e-12
-23.3957 494.948 3.71051e-12
-1.88501e-12 3.71051e-12 483.586

443.243 23.3524 -4.82103e-12
23.3524 397.514 -1.74971e-12
-4.82103e-12 -1.74971e-12 400.368

530.966 23.8582 2.12215e-12
23.8582 488.005 7.75084e-13
2.12215e-12 7.75084e-13 507.245

428.474 -31.3132 -1.76333e-12
-31.3132 410.869 -2.69296e-12
-1.76333e-12 -2.69296e-12 398.813

519.856 -3.23088 -1.99514e-12
-3.23088 469.055 9.50943e-13
-1.99514e-12 9.50943e-13 502.682

439.391 -34.1611 -1.59569e-12
-34.1611 485.499 -9.46946e-13
-1.59569e-12 -9.46946e-13 485.818

389.179 8.31985 -8.67602e-13
8.31985 452.322 -6.56068e-13
-8.67602e-13 -6.56068e-13 400.85

385.874 21.8113 -9.14824e-14
21.8113 435.767 1.35951e-12
-9.14824e-14 1.35951e-12 388.689

383.842 35.7753 5.70803e-13
35.7753 362.327 -4.25378e-12
5.70803e-13 -4.25378e-12 318.323

408.177 1.57873 -9.01205e-13
1.57873 332.151 -2.21282e-12
-9.01205e-13 -2.21282e-12 327.32

485.451 -22.8044 1.42375e-12
-22.8044 502.854 2.66833e-12
1.42375e-12 2.66833e-12 501.745

351.873 31.1834 -4.29642e-12
31.1834 388.826 2.7877e-12
-4.29642e-12 2.7877e-12 312.353

451.344 23.6098 -2.64263e-12
23.6098 478.407 -4.35207e-13
-2.64263e-12 -4.35207e-13 465.207

442.19 -5.34947 -3.27679e-12
-5.34947 377.121 -8.81029e-12
-3.27679e-12 -8.81029e-12 387.732

464.149 11.2159 -3.2981e-13
11.2159 407.294 1.6082e-12
-3.2981e-13 1.6082e-12 424.917

505.373 0.429906 1.00231e-12
0.429906 421.566 -4.28766e-14
1.00231e-12 -4.28766e-14 485.669

449.344 -29.0312 4.9923e-13
-29.0312 501.992 -6.59621e-13
4.9923e-13 -6.59621e-13 493.583

572.507 -6.31902 -5.73593e-12
-6.31902 589.48 3.13083e-12
-5.73593e-12 3.13083e-12 549.249

463.134 37.4117 2.86526e-12
37.4117 487.021 1.00583e-12
2.86526e-12 1.00583e-12 493.059

408.732 1.66327 -3.06718e-12
1.66327 331.598 2.60851e-12
-3.06718e-12 2.60851e-12 308.9

404.229 -32.7865 -5.18696e-13
-32.7865 415.503 -1.60642e-12
-5.18696e-13 -1.60642e-12 387.384

443.134 36.6131 1.83779e-12
36.6131 485.499 1.75267e-12
1.83779e-12 1.75267e-12 486.566

444.673 -11.1338 1.33336e-12
-11.1338 498.929 5.44749e-14
1.33336e-12 5.44749e-14 471.436

386.068 -25.5142 8.04986e-13
-25.5142 428.895 5.23433e-12
8.04986e-13 5.23433e-12 384.558

449.444 28.8301 -2.19835e-12
28.8301 501.625 1.12266e-12
-2.19835e-12 1.12266e-12 493.282

452.705 -26.1415 1.30266e-12
-26.1415 419.297 7.73899e-13
1.30266e-12 7.73899e-13 419.512

579.549 10.4834 2.92951e-12
10.4834 582.16 -6.43012e-12
2.92951e-12 -6.43012e-12 549.034

398.323 30.8715 1.00838e-12
30.8715 422.052 -1.26358e-12
1.00838e-12 -1.26358e-12 388.157

515.701 8.12677 4.10931e-12
8.12677 437.262 -1.75563e-13
4.10931e-12 -1.75563e-13 494.576

493.8 30.1906 4.31862e-12
30.1906 484.742 -2.25094e-12
4.31862e-12 -2.25094e-12 493.796

453.459 23.3317 2.91323e-12
23.3317 479.157 -4.70942e-12
2.91323e-12 -4.70942e-12 475.793

510.697 -32.489 2.412e-12
-32.489 512.447 -1.96874e-12
2.412e-12 -1.96874e-12 515.001

510.303 -23.19 1.40806e-12
-23.19 473.175 3.37271e-12
1.40806e-12 3.37271e-12 489.672

511.397 10.4708 -4.76186e-12
10.4708 557.987 -1.5099e-13
-4.76186e-12 -1.5099e-13 523.727

452.167 -23.4336 6.04435e-12
-23.4336 480.159 -2.99731e-12
6.04435e-12 -2.99731e-12 468.944

394.404 -9.70765 5.66066e-13
-9.70765 316.409 -5.32285e-12
5.66066e-13 -5.32285e-12 295.571

387.285 -14.277 -2.58164e-12
-14.277 306.055 -2.70776e-12
-2.58164e-12 -2.70776e-12 290.046

547.579 16.5293 1.98301e-12
16.5293 507.759 7.26175e-12
1.98301e-12 7.26175e-12 519.315

436.481 22.5014 2.58342e-12
22.5014 469.13 -4.10338e-13
2.58342e-12 -4.10338e-13 447.817

475.957 29.1629 -3.26198e-12
29.1629 467.639 2.65536e-12
-3.26198e-12 2.65536e-12 471.473

450.295 0.688663 6.09883e-13
0.688663 392.771 6.63913e-14
6.09883e-13 6.63913e-14 395.669

478.346 6.57124 3.89133e-14
6.57124 541.273 -5.19288e-13
3.89133e-14 -5.19288e-13 507.534

507.325 16.5408 -1.66208e-12
16.5408 461.129 -7.57261e-12
-1.66208e-12 -7.57261e-12 488.074

389.971 -25.7607 -5.14018e-12
-25.7607 430.03 1.76096e-12
-5.14018e-12 1.76096e-12 387.728

456.313 -2.57244 -5.31908e-12
-2.57244 517.008 1.1197e-12
-5.31908e-12 1.1197e-12 484.835

400.584 13.3649 -1.07618e-12
13.3649 452.979 -2.9073e-12
-1.07618e-12 -2.9073e-12 404.63

486.907 -29.7131 3.39639e-12
-29.7131 465.808 4.39352e-12
3.39639e-12 4.39352e-12 474.252

430.292 -29.947 -8.76928e-13
-29.947 423.622 -6.21725e-14
-8.76928e-13 -6.21725e-14 404.949

399.705 31.6223 -1.76037e-12
31.6223 418.226 7.45478e-13
-1.76037e-12 7.45478e-13 385.996

623.998 -15.0202 -7.50511e-13
-15.0202 581.945 1.89323e-12
-7.50511e-13 1.89323e-12 557.9

494.516 2.04125 -1.54121e-12
2.04125 552.138 -3.96542e-12
-1.54121e-12 -3.96542e-12 517.919

483.496 20.3002 1.98508e-12
20.3002 542.037 -3.76558e-12
1.98508e-12 -3.76558e-12 516.025

544.7 15.4391 -1.31746e-14
15.4391 479.964 -1.38437e-12
-1.31746e-14 -1.38437e-12 515.747

473.742 -26.1885 -3.8994e-12
-26.1885 479.75 -2.91204e-12
-3.8994e-12 -2.91204e-12 483.011

452.118 17.957 -7.42517e-13
17.957 404.502 -3.58084e-12
-7.42517e-13 -3.58084e-12 406.912

531.575 -5.29416 -6.88453e-12
-5.29416 580.796 7.19099e-12
-6.88453e-12 7.19099e-12 537.112

512.181 -18.9882 -6.9574e-13
-18.9882 464.787 1.31214e-12
-6.9574e-13 1.31214e-12 493.022

473.969 -15.5987 4.02819e-12
-15.5987 423.17 -9.39989e-14
4.02819e-12 -9.39989e-14 438.874

401.994 11.603 -5.01525e-13
11.603 455.951 -1.47556e-12
-5.01525e-13 -1.47556e-12 407.773

410.917 -25.7338 7.99953e-13
-25.7338 435.574 7.1528e-13
7.99953e-13 7.1528e-13 398.95

532.043 -25.2738 3.91687e-12
-25.2738 523.188 -2.88939e-12
3.91687e-12 -2.88939e-12 519.113

423.05 31.959 9.10087e-13
31.959 417.242 3.54087e-13
9.10087e-13 3.54087e-13 400.299

535.476 -25.1347 -2.06975e-12
-25.1347 505.783 2.28173e-12
-2.06975e-12 2.28173e-12 515.654

453.487 2.59733 3.86298e-12
2.59733 397.013 5.40205e-12
3.86298e-12 5.40205e-12 401.891

311.095 -28.93 5.01051e-12
-28.93 376.592 8.69231e-13
5.01051e-12 8.69231e-13 289.991

431.869 -29.2305 -2.68644e-12
-29.2305 424.042 1.16055e-13
-2.68644e-12 1.16055e-13 406.148

353.756 32.1584 -2.72375e-12
32.1584 392.539 -6.25041e-12
-2.72375e-12 -6.25041e-12 312.964

470.341 -11.877 4.22854e-12
-11.877 529.546 -3.73686e-12
4.22854e-12 -3.73686e-12 500.298

391.445 -13.8211 1.79294e-12
-13.8211 449.247 2.72375e-12
1.79294e-12 2.72375e-12 400.192

602.851 -23.9883 1.22169e-12
-23.9883 602.264 -9.41469e-14
1.22169e-12 -9.41469e-14 557.84

408.365 23.7704 8.41401e-13
23.7704 441.933 2.97836e-12
8.41401e-13 2.97836e-12 402.216

496.571 -32.7263 -2.78207e-12
-32.7263 490.635 -3.77594e-12
-2.78207e-12 -3.77594e-12 497.441

388.184 -11.9629 3.95758e-13
-11.9629 448.279 7.69755e-13
3.95758e-13 7.69755e-13 397.01

516.705 -19.1169 4.02108e-12
-19.1169 465.747 -6.23501e-13
4.02108e-12 -6.23501e-13 496.237

410.68 23.8766 -5.71987e-13
23.8766 439.306 1.82373e-13
-5.71987e-13 1.82373e-13 400.693

488.914 -4.97545 4.47642e-12
-4.97545 435.065 -8.00434e-13
4.47642e-12 -8.00434e-13 460.377

305.778 -30.3423 1.86873e-12
-30.3423 391.434 -6.59857e-12
1.86873e-12 -6.59857e-12 262.567

438.604 21.0138 1.49925e-12
21.0138 473.907 1.52944e-12
1.49925e-12 1.52944e-12 458.343

445.682 -19.3229 -1.46845e-13
-19.3229 393.972 7.8287e-12
-1.46845e-13 7.8287e-12 399.619

551.6 -21.4459 9.65746e-13
-21.4459 499.513 -3.59742e-12
9.65746e-13 -3.59742e-12 520.099

424.466 31.7535 -6.987e-14
31.7535 413.318 7.59097e-13
-6.987e-14 7.59097e-13 397.955

459.158 -29.9713 -2.07834e-13
-29.9713 437.634 5.22752e-12
-2.07834e-13 5.22752e-12 439.296

510.616 20.8852 6.71463e-13
20.8852 476.069 -2.089e-12
6.71463e-13 -2.089e-12 492.752

461.501 -28.0758 -9.38657e-13
-28.0758 485.737 -2.08441e-12
-9.38657e-13 -2.08441e-12 488.714

413.717 -26.2248 1.76274e-12
-26.2248 436.241 3.64272e-12
1.76274e-12 3.64272e-12 401.436

426.072 28.9806 -7.93439e-13
28.9806 429.894 -3.35495e-12
-7.93439e-13 -3.35495e-12 406.858

452.498 26.1909 -3.78601e-12
26.1909 418.225 -2.1263e-12
-3.78601e-12 -2.1263e-12 419.056

521.967 -14.6098 2.75809e-12
-14.6098 477.175 -7.81597e-13
2.75809e-12 -7.81597e-13 500.062

403.558 -16.6173 -5.60263e-12
-16.6173 451.74 1.56319e-12
-5.60263e-12 1.56319e-12 406.44

496.044 -17.5682 -1.17121e-12
-17.5682 447.604 3.60897e-13
-1.17121e-12 3.60897e-13 471.498

487.762 16.9082 9.20745e-13
16.9082 436.256 -1.66385e-13
9.20745e-13 -1.66385e-13 460.586

513.341 -9.38693 1.40462e-12
-9.38693 555.776 1.08062e-12
1.40462e-12 1.08062e-12 523.028

453.976 -13.4298 -2.48335e-12
-13.4298 402.176 -5.6158e-12
-2.48335e-12 -5.6158e-12 406.741

403.2 0.594004 -1.8668e-12
0.594004 465.723 -6.03961e-14
-1.8668e-12 -6.03961e-14 417.803

475.024 18.5547 1.33286e-12
18.5547 428.77 -9.65154e-14
1.33286e-12 -9.65154e-14 442.219

451.14 27.6035 -1.84267e-12
27.6035 421.837 2.31667e-12
-1.84267e-12 2.31667e-12 420.841

400.867 -15.6858 -4.49714e-13
-15.6858 451.38 -2.81967e-12
-4.49714e-13 -2.81967e-12 403.734

405.999 -1.2023 -8.96024e-13
-1.2023 468.032 -1.6982e-12
-8.96024e-13 -1.6982e-12 421.218

516.198 29.1343 2.42887e-12
29.1343 498.025 5.67753e-12
2.42887e-12 5.67753e-12 504.874

441.703 -10.922 -2.15339e-12
-10.922 500.656 3.49765e-12
-2.15339e-12 3.49765e-12 471.146

451.438 -26.7148 -3.09145e-12
-26.7148 418.764 -2.55085e-12
-3.09145e-12 -2.55085e-12 419.351

444.385 21.3322 3.246e-12
21.3322 395.297 -9.69891e-13
3.246e-12 -9.69891e-13 398.199

497.593 23.6652 -1.4649e-12
23.6652 458.089 -5.0789e-12
-1.4649e-12 -5.0789e-12 476.549

447.681 5.47068 -5.41493e-13
5.47068 508.788 1.52471e-12
-5.41493e-13 1.52471e-12 476.88

427.648 29.065 1.36128e-12
29.065 426.433 -3.31468e-12
1.36128e-12 -3.31468e-12 405.108

536.82 22.9638 4.7787e-12
22.9638 531.897 2.45404e-12
4.7787e-12 2.45404e-12 522.784

314.749 -59.6909 2.94165e-12
-59.6909 282.768 -1.08026e-11
2.94165e-12 -1.08026e-11 223.423

480.593 -25.0474 5.92474e-12
-25.0474 445.07 3.44465e-12
5.92474e-12 3.44465e-12 456.645

336.662 7.06979 2.47328e-12
7.06979 409.153 6.82121e-13
2.47328e-12 6.82121e-13 319.439

460.537 -28.8889 -4.36451e-12
-28.8889 444.735 -7.63241e-13
-4.36451e-12 -7.63241e-13 443.451

96.4237 -52.7008 -1.82254e-12
-52.7008 306.617 -1.9611e-12
-1.82254e-12 -1.9611e-12 113.699

95.9576 51.4514 -2.64914e-12
51.4514 306.882 -8.28493e-12
-2.64914e-12 -8.28493e-12 114.487

181.517 117.154 -1.14161e-12
117.154 226.076 6.15804e-14
-1.14161e-12 6.15804e-14 113.588

182.814 -117.096 2.88717e-12
-117.096 223.311 -5.92593e-12
2.88717e-12 -5.92593e-12 113.562

321.582 -1.36335 -4.16852e-13
-1.36335 84.6533 5.17641e-14
-4.16852e-13 5.17641e-14 114.929

274.432 -91.1251 -4.55695e-12
-91.1251 127.418 1.92794e-12
-4.55695e-12 1.92794e-12 113.802

275.129 91.653 -5.00222e-12
91.653 128.251 -4.50721e-12
-5.00222e-12 -4.50721e-12 114.572

525.239 14.3302 1.07055e-12
14.3302 474.711 -2.40371e-12
1.07055e-12 -2.40371e-12 502.313

556.797 25.5366 -2.49578e-13
25.5366 541.183 1.47793e-12
-2.49578e-13 1.47793e-12 533.449

492.091 6.60596 2.88836e-12
6.60596 439.119 1.11548e-12
2.88836e-12 1.11548e-12 471.401

470.298 21.7843 5.44157e-13
21.7843 424.515 -1.067e-12
5.44157e-13 -1.067e-12 438.193

409.974 17.7442 3.40824e-12
17.7442 461.071 8.24822e-13
3.40824e-12 8.24822e-13 425.041

448.009 28.8981 -2.7575e-12
28.8981 424.704 -3.55271e-14
-2.7575e-12 -3.55271e-14 420.749

487.148 -29.6632 -3.33659e-12
-29.6632 465.626 -3.65456e-12
-3.33659e-12 -3.65456e-12 474.588

449.366 28.0274 -1.21088e-12
28.0274 421.07 2.44249e-12
-1.21088e-12 2.44249e-12 418.64

402.962 -2.8412 5.56888e-12
-2.8412 465.379 -9.84102e-13
5.56888e-12 -9.84102e-13 417.539

555.803 -26.0975 3.80555e-12
-26.0975 543.376 -2.23939e-12
3.80555e-12 -2.23939e-12 533.693

405.5 -4.86231 1.26847e-12
-4.86231 467.117 9.95944e-13
1.26847e-12 9.95944e-13 420.598

522.292 23.0161 1.4347e-12
23.0161 499.741 3.38529e-12
1.4347e-12 3.38529e-12 507.969

423.376 26.8703 5.93303e-13
26.8703 386.506 -1.30977e-12
5.93303e-13 -1.30977e-12 373.025

480.108 -13.2161 2.77467e-12
-13.2161 532.768 -3.20544e-12
2.77467e-12 -3.20544e-12 512

484.196 13.7278 -2.0961e-13
13.7278 432.775 8.58573e-15
-2.0961e-13 8.58573e-15 456.873

457.367 -29.9873 2.66809e-12
-29.9873 436.975 -7.23303e-12
2.66809e-12 -7.23303e-12 437.832

454.307 -24.7132 5.1988e-12
-24.7132 416.803 4.80801e-12
5.1988e-12 4.80801e-12 419.852

547.404 -16.0745 -2.76816e-13
-16.0745 509.305 1.36187e-14
-2.76816e-13 1.36187e-14 519.383

475.971 27.9287 1.64491e-12
27.9287 449.705 -1.89922e-12
1.64491e-12 -1.89922e-12 456.924

469.099 23.9772 1.59458e-12
23.9772 427.848 1.69464e-12
1.59458e-12 1.69464e-12 439.829

432.427 -2.79295 -1.87043e-12
-2.79295 493.635 -1.35891e-12
-1.87043e-12 -1.35891e-12 457.106

417.606 5.87331 -5.38609e-13
5.87331 479.556 2.32111e-13
-5.38609e-13 2.32111e-13 440.176

463.009 2.64668 1.88886e-12
2.64668 402.278 2.55222e-12
1.88886e-12 2.55222e-12 422.32

438.646 -7.28955 8.49099e-13
-7.28955 373.914 -1.74631e-12
8.49099e-13 -1.74631e-12 381.217

454.842 30.4844 5.56e-13
30.4844 439.014 4.19516e-12
5.56e-13 4.19516e-12 437.835

478.464 -26.1552 1.49984e-12
-26.1552 443.542 -4.42787e-12
1.49984e-12 -4.42787e-12 454.645

525.699 -21.2543 -4.4927e-12
-21.2543 497.828 -1.81425e-12
-4.4927e-12 -1.81425e-12 508.618

437.731 -31.6333 -1.0895e-13
-31.6333 437.654 -9.82917e-13
-1.0895e-13 -9.82917e-13 426.858

417.589 -27.7852 -6.4541e-14
-27.7852 444.394 -1.8705e-12
-6.4541e-14 -1.8705e-12 419.686

430.645 29.8868 4.82814e-12
29.8868 442.743 6.03961e-13
4.82814e-12 6.03961e-13 426.496

416.224 -9.57782 5.87278e-12
-9.57782 475.21 8.09427e-13
5.87278e-12 8.09427e-13 436.454

428.894 -1.54475 2.36418e-12
-1.54475 491.867 8.69231e-13
2.36418e-12 8.69231e-13 453.993

445.181 5.74795 -3.56272e-12
5.74795 508.042 1.98123e-12
-3.56272e-12 1.98123e-12 474.913

414.617 -21.0888 -9.21337e-13
-21.0888 458.406 -5.14551e-12
-9.21337e-13 -5.14551e-12 426.064

496.868 24.111 -1.88708e-12
24.111 455.695 3.73627e-13
-1.88708e-12 3.73627e-13 474.592

483.371 -9.58967 1.59458e-12
-9.58967 430.111 -4.9738e-13
1.59458e-12 -4.9738e-13 455.219

415.632 7.46521 -1.42619e-12
7.46521 477.119 8.4673e-14
-1.42619e-12 8.4673e-14 436.912

443.954 -9.70106 3.18724e-12
-9.70106 501.502 4.05128e-12
3.18724e-12 4.05128e-12 471.006

433.173 -16.3305 -3.2679e-12
-16.3305 481.674 -1.83794e-12
-3.2679e-12 -1.83794e-12 455.667

463.538 -8.23912 -6.31199e-13
-8.23912 406.334 5.45697e-12
-6.31199e-13 5.45697e-12 421.469

494.432 -32.3468 3.36294e-12
-32.3468 487.615 -2.68852e-12
3.36294e-12 -2.68852e-12 496.25

422.943 9.32075 2.63241e-12
9.32075 479.09 -1.98478e-12
2.63241e-12 -1.98478e-12 440.978

564.358 -18.2126 -1.11259e-12
-18.2126 529.951 1.49569e-12
-1.11259e-12 1.49569e-12 531.831

309.048 24.8224 5.14137e-12
24.8224 379.421 -1.51346e-12
5.14137e-12 -1.51346e-12 289.797

501.697 -26.6261 3.9216e-12
-26.6261 499.489 -1.25263e-12
3.9216e-12 -1.25263e-12 501.199

515.648 -30.2028 9.79365e-13
-30.2028 498.403 1.29378e-13
9.79365e-13 1.29378e-13 504.918

429.222 -0.701304 -6.31717e-13
-0.701304 491.992 3.75818e-12
-6.31717e-13 3.75818e-12 454.144

474.88 -16.6225 -1.78169e-12
-16.6225 428.336 2.14643e-13
-1.78169e-12 2.14643e-13 441.955

462.304 12.8416 -6.37398e-13
12.8416 511.274 2.8777e-12
-6.37398e-13 2.8777e-12 489.12

240.776 -3.18049 -9.00916e-12
-3.18049 360.687 -1.93504e-12
-9.00916e-12 -1.93504e-12 226.965

432.403 14.2736 2.13637e-12
14.2736 485.355 -1.01252e-12
2.13637e-12 -1.01252e-12 456.881

458.111 -29.489 3.97904e-13
-29.489 443.169 1.70471e-12
3.97904e-13 1.70471e-12 440.761

304.186 25.1055 5.25506e-12
25.1055 394.583 1.00187e-12
5.25506e-12 1.00187e-12 264.34

603.551 26.0981 -5.81816e-12
26.0981 597.956 1.18693e-11
-5.81816e-12 1.18693e-11 558.157

608.285 -27.8075 -1.53141e-11
-27.8075 595.031 1.02746e-11
-1.53141e-11 1.02746e-11 558.291

463.493 -30.4189 9.78181e-13
-30.4189 459.038 -4.08503e-12
9.78181e-13 -4.08503e-12 459.072

434.583 -31.1599 -5.23611e-12
-31.1599 436.359 1.70412e-12
-5.23611e-12 1.70412e-12 424.661

474.1 20.8273 -8.11795e-13
20.8273 431.914 -1.93889e-12
-8.11795e-13 -1.93889e-12 443.972

465.221 15.006 2.01972e-12
15.006 410.116 -5.27045e-12
2.01972e-12 -5.27045e-12 427.462

646.07 3.08361 8.66107e-12
3.08361 645.728 9.72711e-12
8.66107e-12 9.72711e-12 574.62

649.891 -7.00022 -1.57117e-11
-7.00022 641.398 1.60435e-12
-1.57117e-11 1.60435e-12 575.148

496.987 4.82431 -1.37608e-12
4.82431 442.034 3.25532e-12
-1.37608e-12 3.25532e-12 477.412

443.557 6.73093 1.94415e-12
6.73093 502.988 -2.60592e-12
1.94415e-12 -2.60592e-12 471.05

441.971 6.73632 -5.45936e-12
6.73632 502.514 -1.76037e-12
-5.45936e-12 -1.76037e-12 469.773

321.535 58.6339 1.00423e-12
58.6339 281.122 4.51905e-12
1.00423e-12 4.51905e-12 225.076

420.228 -28.1995 2.64263e-12
-28.1995 444.022 3.97371e-12
2.64263e-12 3.97371e-12 421.031

520.578 17.9745 -3.381e-13
17.9745 467.53 1.4948e-12
-3.381e-13 1.4948e-12 499.509

472.979 9.53969 -1.11792e-12
9.53969 421.196 -9.82029e-13
-1.11792e-12 -9.82029e-13 436.202

440.629 -26.7231 -2.07123e-12
-26.7231 450.725 -6.21725e-14
-2.07123e-12 -6.21725e-14 433.415

469.276 -20.2375 1.17536e-12
-20.2375 422.716 5.12301e-12
1.17536e-12 5.12301e-12 437.176

312.472 60.2318 1.84267e-12
60.2318 281.372 7.22385e-12
1.84267e-12 7.22385e-12 223.215

492.681 31.069 2.09699e-12
31.069 489.042 2.69769e-12
2.09699e-12 2.69769e-12 493.138

410.862 -19.7859 -4.54007e-12
-19.7859 457.881 2.39571e-12
-4.54007e-12 2.39571e-12 423.497

474.128 28.8575 -3.02099e-12
28.8575 449.63 3.17613e-12
-3.02099e-12 3.17613e-12 456.518

430.956 -4.14478 4.49337e-12
-4.14478 492.972 -1.53004e-12
4.49337e-12 -1.53004e-12 456.467

423.929 19.609 1.50457e-12
19.609 465.711 -5.24617e-12
1.50457e-12 -5.24617e-12 434.107

452.747 30.5186 2.22341e-12
30.5186 443.597 1.63662e-12
2.22341e-12 1.63662e-12 439.608

428.642 -22.473 4.52971e-13
-22.473 461.136 -7.01661e-12
4.52971e-13 -7.01661e-12 433.812

443.574 -27.3524 -2.26308e-12
-27.3524 450.432 9.08903e-13
-2.26308e-12 9.08903e-13 435.045

294.778 11.2569 3.52888e-12
11.2569 372.585 4.50958e-12
3.52888e-12 4.50958e-12 258.101

357.298 -33.456 -4.26918e-12
-33.456 389.116 3.35613e-12
-4.26918e-12 3.35613e-12 314.128

419.657 -11.6904 2.51303e-12
-11.6904 476.36 -4.08562e-13
2.51303e-12 -4.08562e-13 439.344

478.397 26.4844 -6.44818e-13
26.4844 446.799 2.36078e-12
-6.44818e-13 2.36078e-12 456.083

452.344 29.4777 1.62477e-12
29.4777 449.025 9.4443e-13
1.62477e-12 9.4443e-13 442.399

426.808 -21.4337 3.42659e-12
-21.4337 461.783 5.96264e-13
3.42659e-12 5.96264e-13 432.63

422.93 -11.7823 -1.1573e-12
-11.7823 476.646 8.52651e-14
-1.1573e-12 8.52651e-14 439.928

457.706 28.4093 6.66134e-13
28.4093 447.086 -4.9963e-12
6.66134e-13 -4.9963e-12 442.57

425.105 -13.8777 2.51354e-12
-13.8777 476.418 -2.34479e-13
2.51354e-12 -2.34479e-13 442.104

311.264 27.8547 -1.13568e-12
27.8547 377.39 1.0895e-12
-1.13568e-12 1.0895e-12 289.984

485.17 -4.04131 -7.7367e-13
-4.04131 545.049 -2.78592e-12
-7.7367e-13 -2.78592e-12 511.036

432.984 31.0273 -1.04805e-13
31.0273 439.627 -4.27451e-12
-1.04805e-13 -4.27451e-12 426.019

509.309 14.9011 -1.70945e-12
14.9011 463.161 -2.43923e-12
-1.70945e-12 -2.43923e-12 488.605

516.92 -15.9274 -4.82695e-12
-15.9274 467.581 4.92939e-13
-4.82695e-12 4.92939e-13 493.923

383.924 -24.2044 -4.42431e-12
-24.2044 305.948 -3.08139e-12
-4.42431e-12 -3.08139e-12 285.354

442.278 -21.2671 -4.42935e-12
-21.2671 475.999 -3.40409e-12
-4.42935e-12 -3.40409e-12 459.32

447.827 26.6981 -1.8708e-12
26.6981 466.206 -2.41229e-12
-1.8708e-12 -2.41229e-12 457.84

522.975 -21.7279 1.22095e-12
-21.7279 543.811 5.51818e-13
1.22095e-12 5.51818e-13 525.309

579.584 14.1068 2.65906e-12
14.1068 617.621 1.5099e-14
2.65906e-12 1.5099e-14 557.052

620.208 9.44534 -6.65349e-12
9.44534 576.841 9.00021e-13
-6.65349e-12 9.00021e-13 556.871

523.469 32.7055 -4.14513e-12
32.7055 520.651 -2.6934e-12
-4.14513e-12 -2.6934e-12 519.524

414.89 26.0002 -4.36777e-12
26.0002 448.904 5.51322e-12
-4.36777e-12 5.51322e-12 420.375

478.095 26.6613 -1.0066e-13
26.6613 444.769 -1.91462e-12
-1.0066e-13 -1.91462e-12 455.507

332.362 45.1856 -3.41297e-12
45.1856 349.488 -1.66622e-12
-3.41297e-12 -1.66622e-12 286.739

571.391 -11.3438 1.13111e-11
-11.3438 614.472 -4.97025e-12
1.13111e-11 -4.97025e-12 554.595

641.327 -3.43298 -1.17883e-12
-3.43298 636.87 2.0357e-12
-1.17883e-12 2.0357e-12 572.396

634.905 -0.210079 -7.11771e-12
-0.210079 643.178 -7.02934e-12
-7.11771e-12 -7.02934e-12 572.223

272.963 -53.8022 7.66083e-12
-53.8022 316.446 2.53901e-12
7.66083e-12 2.53901e-12 220.908

566.638 -11.6 -4.17148e-13
-11.6 562.125 -4.00865e-12
-4.17148e-13 -4.00865e-12 540.898

563.771 8.81308 -1.03211e-11
8.81308 586.962 8.4821e-13
-1.03211e-11 8.4821e-13 546.84

478.243 -26.1994 6.07218e-12
-26.1994 440.441 3.44702e-12
6.07218e-12 3.44702e-12 453.481

494.348 1.0111 3.84848e-12
1.0111 545.758 -7.23569e-13
3.84848e-12 -7.23569e-13 514.056

447.649 -20.2678 4.37916e-12
-20.2678 484.157 -1.05279e-12
4.37916e-12 -1.05279e-12 470.636

506.299 6.25532 -4.10398e-12
6.25532 443.373 1.8748e-13
-4.10398e-12 1.8748e-13 486.124

461.274 15.5963 6.83273e-13
15.5963 521.252 -6.90115e-13
6.83273e-13 -6.90115e-13 497.555

471.18 7.19163 -4.34565e-12
7.19163 528.005 -3.77772e-13
-4.34565e-12 -3.77772e-13 497.69

493.762 20.3927 1.82787e-12
20.3927 451.516 2.62871e-12
1.82787e-12 2.62871e-12 469.75

241.065 -3.1139 8.42141e-13
-3.1139 358.559 5.86908e-12
8.42141e-13 5.86908e-12 227.063

463.699 -27.6236 1.8107e-12
-27.6236 463.39 -2.41466e-12
1.8107e-12 -2.41466e-12 461.19

488.343 -26.1162 1.34411e-13
-26.1162 481.597 -4.05779e-12
1.34411e-13 -4.05779e-12 485.868

497.537 -31.4837 -3.47929e-12
-31.4837 489.957 6.33464e-12
-3.47929e-12 6.33464e-12 498.98

355.599 32.7493 1.03858e-11
32.7493 285.778 -1.4803e-15
1.03858e-11 -1.4803e-15 248.366

563.881 -20.1165 9.166e-13
-20.1165 569.614 3.17309e-12
9.166e-13 3.17309e-12 542.57

337.647 54.3219 -2.50822e-12
54.3219 356.657 2.79243e-12
-2.50822e-12 2.79243e-12 258.874

477.07 -21.4396 5.62276e-12
-21.4396 506.488 -2.25657e-12
5.62276e-12 -2.25657e-12 500.243

504.771 14.6504 1.26121e-13
14.6504 451.986 -2.54878e-12
1.26121e-13 -2.54878e-12 481.559

449.829 -14.5723 -1.29911e-12
-14.5723 396.986 5.26423e-12
-1.29911e-12 5.26423e-12 400.839

452.592 24.0466 3.75255e-12
24.0466 478.778 -2.41644e-12
3.75255e-12 -2.41644e-12 467.847

493.665 20.4279 -7.81597e-14
20.4279 449.5 4.26799e-12
-7.81597e-14 4.26799e-12 469.341

505.565 11.4006 3.03306e-12
11.4006 564.416 -2.98043e-12
3.03306e-12 -2.98043e-12 526.711

475.894 -31.5801 -3.7493e-12
-31.5801 470.355 5.12183e-14
-3.7493e-12 5.12183e-14 475.063

559.27 19.8124 -3.246e-12
19.8124 510.439 2.28084e-12
-3.246e-12 2.28084e-12 526.486

439.957 -18.4433 1.88323e-12
-18.4433 482.463 8.65086e-13
1.88323e-12 8.65086e-13 459.148

465.897 4.28314 -1.73738e-13
4.28314 526.106 5.41019e-12
-1.73738e-13 5.41019e-12 495.509

588.64 9.92671 -3.50446e-12
9.92671 552.462 -1.87657e-12
-3.50446e-12 -1.87657e-12 545.188

590.423 -8.51332 1.88205e-12
-8.51332 554.804 -6.48607e-12
1.88205e-12 -6.48607e-12 545.706

382.308 18.5122 -3.68772e-12
18.5122 302.286 3.55982e-12
-3.68772e-12 3.55982e-12 286.133

502.677 7.96497 -7.41037e-13
7.96497 453.599 -2.99819e-12
-7.41037e-13 -2.99819e-12 487.764

232.815 7.7404 8.64346e-13
7.7404 381.515 -3.60482e-12
8.64346e-13 -3.60482e-12 187.186

236.984 -11.385 -7.93447e-12
-11.385 387.208 -3.60008e-12
-7.93447e-12 -3.60008e-12 189.45

249.287 56.4065 4.48352e-12
56.4065 354.776 -2.82796e-12
4.48352e-12 -2.82796e-12 184.022

505.014 -28.9504 1.45188e-12
-28.9504 478.614 -6.21725e-14
1.45188e-12 -6.21725e-14 491.342

258.471 -49.1899 -5.38236e-12
-49.1899 341.84 4.59247e-12
-5.38236e-12 4.59247e-12 220.733

249.292 -55.949 8.98363e-12
-55.949 344.751 4.41484e-12
8.98363e-12 4.41484e-12 181.115

434.653 26.2198 8.14756e-13
26.2198 454.391 2.80428e-12
8.14756e-13 2.80428e-12 432.823

329.923 73.8431 -2.68585e-12
73.8431 280.01 9.78181e-13
-2.68585e-12 9.78181e-13 184.827

540.126 13.0473 2.9677e-12
13.0473 554.946 1.61056e-13
2.9677e-12 1.61056e-13 532.076

562.383 0.0392894 3.53939e-13
0.0392894 532.453 -5.28703e-12
3.53939e-13 -5.28703e-12 531.869

338.601 -73.1286 -8.38914e-12
-73.1286 279.857 -6.21251e-12
-8.38914e-12 -6.21251e-12 186.309

432.668 -23.4237 3.34488e-12
-23.4237 466.308 -1.16174e-12
3.34488e-12 -1.16174e-12 447.57

358.93 34.7287 7.22622e-12
34.7287 310.974 9.82917e-13
7.22622e-12 9.82917e-13 258.037

267.704 63.4902 3.17139e-12
63.4902 345.209 -3.5764e-12
3.17139e-12 -3.5764e-12 185.844

293.692 21.6299 2.80428e-12
21.6299 367.659 3.07902e-13
2.80428e-12 3.07902e-13 254.496

267.576 -65.919 -1.82373e-12
-65.919 344.845 9.14232e-13
-1.82373e-12 9.14232e-13 184.3

291.639 -12.3809 1.70767e-12
-12.3809 370.881 3.18323e-12
1.70767e-12 3.18323e-12 253.442

550.306 6.84184 4.34985e-12
6.84184 582.077 -1.43589e-13
4.34985e-12 -1.43589e-13 541.116

329.888 -45.9741 7.02845e-12
-45.9741 341.814 7.10306e-12
7.02845e-12 7.10306e-12 276.613

259.781 47.5312 1.45661e-13
47.5312 340.215 -5.44749e-14
1.45661e-13 -5.44749e-14 223.145

370.215 37.9109 -3.11691e-12
37.9109 244.919 -8.12387e-13
-3.11691e-12 -8.12387e-13 187.356

481.889 -29.2855 1.47852e-12
-29.2855 460.51 4.32306e-12
1.47852e-12 4.32306e-12 467.712

480.976 12.8967 -1.79686e-12
12.8967 525.828 1.014e-12
-1.79686e-12 1.014e-12 504.102

354.417 -38.1119 1.23161e-13
-38.1119 300.076 -7.97229e-12
1.23161e-13 -7.97229e-12 251.814

482.533 -28.802 -3.41534e-12
-28.802 460.319 6.10771e-13
-3.41534e-12 6.10771e-13 468.461

365.263 -36.3428 -1.76215e-12
-36.3428 230.988 1.10726e-12
-1.76215e-12 1.10726e-12 182.769

481.501 -28.3172 1.04272e-12
-28.3172 472.753 5.07742e-12
1.04272e-12 5.07742e-12 477.917

436.352 -25.2946 -9.34068e-13
-25.2946 466.222 -3.40824e-12
-9.34068e-13 -3.40824e-12 448.208

314.798 69.4596 -1.80004e-12
69.4596 292.141 1.82609e-12
-1.80004e-12 1.82609e-12 184.523

290.781 -22.9324 -4.5226e-12
-22.9324 359.163 2.00373e-12
-4.5226e-12 2.00373e-12 247.028

312.399 -71.6916 -1.71951e-12
-71.6916 288.121 9.56864e-13
-1.71951e-12 9.56864e-13 182.026

268.545 50.7367 8.08479e-12
50.7367 320.058 5.46881e-12
8.08479e-12 5.46881e-12 221.503

459.86 -30.2118 -3.39876e-13
-30.2118 454.844 6.7919e-12
-3.39876e-13 6.7919e-12 454.398

559.286 -14.6403 -3.6285e-12
-14.6403 544.411 1.51257e-12
-3.6285e-12 1.51257e-12 533.716

635.922 11.0927 -1.62115e-12
11.0927 631.383 -1.76673e-12
-1.62115e-12 -1.76673e-12 570.019

619.957 -5.15998 -1.345e-12
-5.15998 639.739 -3.65855e-12
-1.345e-12 -3.65855e-12 568.497

453.868 13.0836 3.20516e-12
13.0836 506.553 -1.96998e-12
3.20516e-12 -1.96998e-12 482.57

634.152 -10.667 4.6901e-12
-10.667 631.314 5.29147e-12
4.6901e-12 5.29147e-12 569.874

622.695 4.09172 -7.6709e-13
4.09172 642.685 1.25082e-11
-7.6709e-13 1.25082e-11 569.698

643.375 7.43419 -5.81194e-12
7.43419 619.148 1.06981e-12
-5.81194e-12 1.06981e-12 569.021

584.776 -12.1153 -5.07054e-12
-12.1153 631.668 -7.27581e-12
-5.07054e-12 -7.27581e-12 560.592

307.443 -30.4696 1.73965e-12
-30.4696 371.631 -7.02253e-12
1.73965e-12 -7.02253e-12 280.768

589.625 -12.9721 -1.00009e-12
-12.9721 549.112 -3.47929e-12
-1.00009e-12 -3.47929e-12 543.826

527.205 -34.4178 1.37608e-12
-34.4178 521.486 -1.2325e-12
1.37608e-12 -1.2325e-12 519.964

565.463 -18.1768 4.55103e-12
-18.1768 537.989 -4.04388e-12
4.55103e-12 -4.04388e-12 534.257

502.568 15.4591 -2.05821e-12
15.4591 452.114 1.44862e-12
-2.05821e-12 1.44862e-12 480.205

586.349 9.86431 -1.23065e-12
9.86431 642.135 1.05445e-11
-1.23065e-12 1.05445e-11 563.103

636.657 19.2277 -1.15225e-11
19.2277 591.722 -2.61561e-12
-1.15225e-11 -2.61561e-12 562.924

569.775 11.3062 1.63573e-12
11.3062 544.338 -7.8814e-12
1.63573e-12 -7.8814e-12 536.435

353.441 -15.3392 6.32146e-12
-15.3392 231.515 3.59831e-12
6.32146e-12 3.59831e-12 219.013

437.204 24.9638 -9.46502e-13
24.9638 461.911 -1.37845e-12
-9.46502e-13 -1.37845e-12 445.72

317.089 -61.3541 6.80226e-12
-61.3541 277.848 -8.02913e-12
6.80226e-12 -8.02913e-12 218.088

334.207 -57.4567 1.60346e-11
-57.4567 357.321 8.81073e-13
1.60346e-11 8.81073e-13 252.539

383.333 -36.5437 7.70939e-12
-36.5437 305.738 -4.50484e-12
7.70939e-12 -4.50484e-12 257.759

562.496 -5.15897 -3.80022e-12
-5.15897 616.951 6.00942e-12
-3.80022e-12 6.00942e-12 552.949

562.203 2.89123 6.75667e-12
2.89123 615.817 -2.45433e-12
6.75667e-12 -2.45433e-12 552.548

598.77 -24.4565 -3.36087e-12
-24.4565 575.742 7.59985e-13
-3.36087e-12 7.59985e-13 551.577

602.329 -21.7607 -3.96764e-12
-21.7607 573.433 -5.64289e-13
-3.96764e-12 -5.64289e-13 551.844

598.783 26.1362 5.92978e-12
26.1362 580.457 2.33872e-12
5.92978e-12 2.33872e-12 552.733

625.742 3.09957 -7.07108e-12
3.09957 630.735 -7.4271e-12
-7.07108e-12 -7.4271e-12 568.419

599.059 -20.509 -4.38997e-12
-20.509 576.353 3.8433e-12
-4.38997e-12 3.8433e-12 552.266

607.81 -18.5684 -1.02693e-11
-18.5684 620.263 -1.07382e-11
-1.02693e-11 -1.07382e-11 563.185

632.9 2.4346 -1.81277e-12
2.4346 635.527 -8.92308e-12
-1.81277e-12 -8.92308e-12 570.505

607.886 -20.5264 -4.96173e-12
-20.5264 572.426 1.30917e-12
-4.96173e-12 1.30917e-12 553.405

607.071 20.956 2.79325e-12
20.956 573.684 -2.21393e-12
2.79325e-12 -2.21393e-12 553.809

633.851 -3.45863 1.13613e-12
-3.45863 636.778 1.7127e-12
1.13613e-12 1.7127e-12 571.279

632.181 -3.11734 -1.37454e-11
-3.11734 625.756 3.53421e-12
-1.37454e-11 3.53421e-12 569.394

609.681 12.1098 4.9251e-12
12.1098 620.485 -1.11935e-11
4.9251e-12 -1.11935e-11 563.916

587.202 26.9298 7.11431e-13
26.9298 583.018 -4.42368e-12
7.11431e-13 -4.42368e-12 551.701

FIELD solute_concentration_TPM 2
S_ext 1 563 float
0.988642
0.988451
0.988471
0.988452
0.988421
0.988471
0.988641
0.988462
0.988488
0.988455
0.988602
0.988462
0.988466
0.988454
0.988428
0.988469
0.988445
0.98846
0.988492
0.988474
0.98848
0.988366
0.988476
0.988474
0.988474
0.988457
0.988593
0.988469
0.98854
0.988394
0.988467
0.988538
0.988597
0.988403
0.988402
0.988403
0.98839
0.988405
0.988467
0.988597
0.988539
0.988389
0.98839
0.988466
0.988572
0.988539
0.98849
0.988485
0.988471
0.988548
0.988543
0.988524
0.988419
0.988525
0.98842
0.988578
0.988402
0.988524
0.988402
0.988473
0.988444
0.988437
0.988589
0.988439
0.988436
0.98845
0.988444
0.988458
0.988475
0.98845
0.988419
0.988419
0.988541
0.988446
0.988471
0.988601
0.988431
0.98845
0.988457
0.988517
0.988557
0.988416
0.98844
0.988559
0.988539
0.988576
0.988469
0.988449
0.988572
0.988374
0.988524
0.988375
0.988428
0.988452
0.988524
0.988543
0.988559
0.988454
0.988431
0.988467
0.988506
0.988536
0.988559
0.988457
0.988456
0.988455
0.988439
0.988469
0.98856
0.988445
0.988472
0.988569
0.988563
0.988459
0.988456
0.988526
0.988404
0.988561
0.988405
0.988524
0.988496
0.988429
0.988449
0.988445
0.988445
0.988427
0.988408
0.988454
0.988559
0.988523
0.988417
0.988451
0.98844
0.98845
0.988536
0.988401
0.98857
0.988465
0.988439
0.988401
0.988533
0.988459
0.988496
0.988454
0.988562
0.988456
0.98846
0.988473
0.988472
0.988509
0.988484
0.98845
0.988538
0.988466
0.988454
0.98845
0.988452
0.988533
0.988532
0.988463
0.988485
0.988537
0.988572
0.988542
0.988531
0.988455
0.988533
0.988534
0.988539
0.988531
0.988427
0.988524
0.988543
0.988451
0.988524
0.988439
0.988427
0.988463
0.98842
0.988457
0.988541
0.988454
0.988455
0.988532
0.988448
0.988544
0.988445
0.988441
0.988428
0.988454
0.988448
0.988557
0.988524
0.988538
0.98845
0.98846
0.988459
0.98844
0.98845
0.988451
0.98845
0.988491
0.988517
0.98844
0.988541
0.988439
0.988451
0.988535
0.988435
0.988449
0.988436
0.988455
0.988457
0.98844
0.988508
0.988455
0.988516
0.988441
0.988445
0.988444
0.988445
0.988445
0.988445
0.988445
0.988455
0.988429
0.988429
0.988428
0.988429
0.988421
0.98842
0.988509
0.988453
0.98845
0.988487
0.988429
0.988428
0.98845
0.988515
0.98845
0.988454
0.988508
0.988434
0.988509
0.98844
0.988449
0.988507
0.988515
0.988558
0.98855
0.98844
0.988564
0.988467
0.988516
0.988491
0.98845
0.988445
0.988391
0.988445
0.988568
0.988515
0.988449
0.988462
0.988517
0.988444
0.988496
0.988391
0.988515
0.988444
0.988447
0.988459
0.988429
0.98845
0.98842
0.988465
0.98857
0.988576
0.988426
0.988478
0.988462
0.988511
0.988434
0.988451
0.988514
0.988452
0.988505
0.98846
0.988506
0.988515
0.98838
0.988425
0.988426
0.988427
0.988454
0.988505
0.988405
0.988447
0.988484
0.988504
0.98851
0.988425
0.988508
0.988429
0.988509
0.988572
0.988505
0.988563
0.98844
0.988507
0.98838
0.988508
0.988443
0.988509
0.988445
0.988508
0.98847
0.988596
0.988471
0.988509
0.988423
0.988508
0.988483
0.988448
0.988449
0.988508
0.988505
0.988496
0.988442
0.988505
0.988463
0.988469
0.988422
0.988505
0.988497
0.988482
0.988496
0.988506
0.988495
0.988437
0.988462
0.988497
0.988508
0.988459
0.988458
0.988505
0.988422
0.988609
0.988472
0.988558
0.988481
0.988668
0.988668
0.988665
0.988666
0.988663
0.988672
0.988673
0.98844
0.988411
0.988462
0.988483
0.988491
0.988496
0.98846
0.988496
0.988497
0.988411
0.988495
0.988436
0.988524
0.98843
0.988471
0.988484
0.988496
0.988427
0.988472
0.988483
0.988472
0.988482
0.988494
0.988518
0.988484
0.988474
0.988434
0.988491
0.988495
0.988491
0.988485
0.988473
0.988459
0.988491
0.98846
0.988473
0.988484
0.988462
0.988472
0.988494
0.988444
0.988482
0.988412
0.988572
0.98844
0.988438
0.988473
0.988483
0.988449
0.988609
0.988471
0.988483
0.988594
0.988384
0.988384
0.98847
0.988492
0.988481
0.988491
0.988365
0.988364
0.988459
0.988462
0.988463
0.988614
0.988494
0.988443
0.988487
0.988488
0.988485
0.988608
0.988446
0.988493
0.988472
0.988472
0.988487
0.988483
0.988487
0.988487
0.988596
0.988562
0.988483
0.988472
0.988482
0.988488
0.988483
0.988481
0.988482
0.988574
0.988431
0.988491
0.98845
0.988446
0.988575
0.98847
0.988471
0.988422
0.988378
0.988378
0.988424
0.988495
0.988473
0.988576
0.988381
0.988364
0.988364
0.988611
0.988404
0.988393
0.988474
0.988429
0.988463
0.988452
0.988443
0.988442
0.988463
0.988608
0.98847
0.988453
0.988443
0.988602
0.988399
0.988601
0.988441
0.988456
0.988507
0.988465
0.988464
0.988416
0.98846
0.988416
0.988471
0.988444
0.988397
0.988398
0.988578
0.988451
0.988644
0.988644
0.988644
0.988448
0.988615
0.988645
0.988488
0.988643
0.988415
0.988415
0.988643
0.988477
0.988599
0.988648
0.988598
0.988648
0.988598
0.988403
0.988582
0.988613
0.988641
0.988465
0.988438
0.988601
0.988464
0.988642
0.988457
0.988477
0.988649
0.988602
0.988649
0.98861
0.988473
0.988411
0.988364
0.988365
0.988454
0.988364
0.988364
0.988365
0.988376
0.988579
0.988398
0.988425
0.988412
0.988456
0.988374
0.988374
0.988411
0.98861
0.988479
0.988618
0.988605
0.988597
0.988382
0.988383
0.988384
0.988384
0.988382
0.988369
0.988388
0.988375
0.988368
0.988385
0.988385
0.988367
0.988367
0.988374
0.988387
P_ext 1 563 float
0.0200502
0.0200453
0.020046
0.0200454
0.0200435
0.020046
0.0200502
0.0200457
0.0200465
0.0200454
0.0200494
0.0200456
0.0200458
0.0200453
0.020044
0.020046
0.020045
0.0200456
0.0200467
0.0200461
0.0200463
0.0200402
0.0200462
0.0200461
0.0200462
0.0200455
0.0200492
0.0200459
0.020048
0.0200419
0.0200459
0.0200479
0.0200493
0.0200425
0.0200425
0.0200425
0.0200418
0.0200426
0.0200458
0.0200493
0.0200479
0.0200418
0.0200418
0.0200459
0.0200487
0.020048
0.0200466
0.0200465
0.020046
0.0200482
0.020048
0.0200476
0.0200435
0.0200476
0.0200436
0.0200489
0.0200425
0.0200476
0.0200425
0.0200461
0.0200449
0.0200445
0.0200491
0.0200446
0.0200445
0.0200451
0.0200449
0.0200455
0.0200462
0.0200452
0.0200435
0.0200435
0.020048
0.0200449
0.0200461
0.0200494
0.0200441
0.0200451
0.0200455
0.0200474
0.0200484
0.0200433
0.0200446
0.0200484
0.0200479
0.0200488
0.0200459
0.020045
0.0200487
0.0200404
0.0200476
0.0200404
0.020044
0.0200451
0.0200476
0.020048
0.0200484
0.0200454
0.0200441
0.0200459
0.0200471
0.0200479
0.0200484
0.0200456
0.0200454
0.0200455
0.0200446
0.0200459
0.0200485
0.020045
0.0200461
0.0200486
0.0200485
0.0200456
0.0200455
0.0200476
0.0200425
0.0200485
0.0200425
0.0200476
0.0200468
0.0200441
0.0200452
0.0200449
0.0200449
0.0200439
0.0200427
0.0200454
0.0200484
0.0200475
0.0200434
0.0200453
0.0200447
0.0200453
0.0200479
0.0200424
0.0200487
0.0200458
0.0200446
0.0200424
0.0200478
0.0200454
0.0200468
0.0200453
0.0200485
0.0200455
0.0200455
0.020046
0.020046
0.0200472
0.0200464
0.0200452
0.0200479
0.0200458
0.0200454
0.0200453
0.0200453
0.0200478
0.0200478
0.0200458
0.0200465
0.0200479
0.0200487
0.020048
0.0200478
0.0200455
0.0200478
0.0200478
0.020048
0.0200478
0.0200439
0.0200476
0.0200481
0.0200452
0.0200476
0.0200446
0.0200439
0.0200456
0.0200436
0.0200454
0.020048
0.0200454
0.0200454
0.0200478
0.020045
0.0200481
0.0200449
0.0200447
0.0200439
0.0200454
0.020045
0.0200484
0.0200475
0.0200479
0.0200453
0.0200457
0.0200456
0.0200447
0.0200452
0.0200451
0.0200452
0.0200467
0.0200474
0.0200447
0.020048
0.0200447
0.0200451
0.0200478
0.0200443
0.0200452
0.0200443
0.0200453
0.0200455
0.0200446
0.0200471
0.0200453
0.0200474
0.0200447
0.0200449
0.0200449
0.020045
0.020045
0.020045
0.020045
0.0200453
0.0200441
0.0200441
0.020044
0.020044
0.0200435
0.0200435
0.0200472
0.0200453
0.0200452
0.0200465
0.020044
0.020044
0.0200452
0.0200474
0.0200453
0.0200454
0.0200472
0.0200443
0.0200472
0.0200446
0.0200453
0.0200471
0.0200473
0.0200484
0.0200482
0.0200447
0.0200486
0.0200459
0.0200474
0.0200466
0.0200453
0.020045
0.0200418
0.020045
0.0200486
0.0200473
0.0200452
0.0200456
0.0200474
0.020045
0.0200468
0.0200418
0.0200474
0.0200449
0.0200449
0.0200456
0.020044
0.020045
0.0200435
0.0200458
0.0200487
0.0200488
0.0200437
0.0200463
0.0200456
0.0200472
0.0200443
0.0200452
0.0200473
0.0200452
0.0200471
0.0200455
0.0200471
0.0200473
0.0200411
0.0200438
0.0200439
0.020044
0.0200454
0.0200471
0.0200426
0.020045
0.0200464
0.020047
0.0200472
0.0200438
0.0200472
0.0200439
0.0200472
0.0200487
0.020047
0.0200485
0.0200446
0.0200471
0.0200411
0.0200472
0.0200447
0.0200472
0.0200448
0.0200471
0.020046
0.0200492
0.020046
0.0200472
0.0200437
0.0200471
0.0200463
0.0200449
0.0200452
0.0200471
0.0200471
0.0200468
0.0200446
0.020047
0.0200456
0.0200459
0.0200436
0.0200471
0.0200468
0.0200463
0.0200468
0.0200471
0.0200468
0.0200444
0.0200456
0.0200468
0.0200471
0.0200455
0.0200455
0.020047
0.0200436
0.0200495
0.0200459
0.0200484
0.0200463
0.0200507
0.0200508
0.0200507
0.0200507
0.0200506
0.0200509
0.0200509
0.0200446
0.0200429
0.0200457
0.0200464
0.0200467
0.0200468
0.0200455
0.0200468
0.0200468
0.0200428
0.0200468
0.0200443
0.0200476
0.0200441
0.020046
0.0200464
0.0200468
0.0200437
0.020046
0.0200464
0.020046
0.0200464
0.0200468
0.0200474
0.0200464
0.020046
0.0200443
0.0200466
0.0200468
0.0200467
0.0200464
0.020046
0.0200455
0.0200467
0.0200455
0.020046
0.0200464
0.0200456
0.020046
0.0200467
0.0200449
0.0200464
0.020043
0.0200487
0.0200446
0.0200444
0.020046
0.0200464
0.0200451
0.0200495
0.020046
0.0200464
0.0200492
0.0200412
0.0200412
0.0200459
0.0200467
0.0200463
0.0200467
0.0200399
0.0200399
0.0200455
0.0200456
0.0200456
0.0200496
0.0200467
0.0200447
0.0200465
0.0200466
0.0200465
0.0200495
0.0200449
0.0200467
0.020046
0.020046
0.0200466
0.0200464
0.0200465
0.0200465
0.0200492
0.0200485
0.0200464
0.020046
0.0200464
0.0200466
0.0200464
0.0200463
0.0200464
0.0200488
0.0200441
0.0200466
0.0200451
0.0200449
0.0200488
0.020046
0.020046
0.0200435
0.0200411
0.0200411
0.0200437
0.0200468
0.020046
0.0200488
0.0200412
0.0200401
0.0200401
0.0200496
0.0200426
0.0200419
0.0200461
0.020044
0.0200457
0.0200453
0.0200448
0.0200447
0.0200456
0.0200495
0.020046
0.0200452
0.0200448
0.0200494
0.0200423
0.0200494
0.0200448
0.0200454
0.0200471
0.0200459
0.0200457
0.0200433
0.0200456
0.0200433
0.020046
0.0200448
0.020042
0.020042
0.0200489
0.0200452
0.0200503
0.0200503
0.0200503
0.020045
0.0200497
0.0200503
0.0200466
0.0200502
0.0200432
0.0200433
0.0200502
0.0200463
0.0200493
0.0200503
0.0200493
0.0200504
0.0200493
0.0200425
0.020049
0.0200496
0.0200502
0.0200457
0.0200445
0.0200494
0.0200457
0.0200502
0.0200454
0.0200462
0.0200504
0.0200494
0.0200504
0.0200495
0.0200461
0.020043
0.0200401
0.0200402
0.0200453
0.0200401
0.0200401
0.0200402
0.0200408
0.0200489
0.0200422
0.0200437
0.0200429
0.0200453
0.0200407
0.0200407
0.0200429
0.0200495
0.0200463
0.0200497
0.0200495
0.0200493
0.0200413
0.0200414
0.0200415
0.0200414
0.0200414
0.0200403
0.0200415
0.0200406
0.0200401
0.0200413
0.0200413
0.0200401
0.0200403
0.0200406
0.0200415
FIELD solute_flux_TPM 2
S_ext 3 563 float
-5.40664e-05 1.80869e-05 4.59229e-19
2.34351e-06 4.50545e-06 -1.66857e-18
-8.35436e-06 -6.63963e-06 -1.99297e-18
-2.75242e-06 2.7755e-06 -1.83877e-18
1.52017e-05 -4.34295e-06 2.03297e-18
1.81967e-06 -1.04297e-05 1.00758e-18
-5.32405e-05 -1.83069e-05 1.5485e-18
-9.11529e-06 -6.79313e-06 6.77053e-19
1.45576e-05 6.15637e-07 2.81841e-18
7.55445e-06 -2.64885e-06 -1.50525e-18
3.59914e-05 8.38034e-06 -2.17685e-18
1.53248e-06 -1.12901e-05 8.48095e-19
9.01906e-06 7.36117e-06 -3.46149e-19
1.75773e-06 9.02972e-06 -6.6629e-19
1.37824e-05 -2.0183e-06 6.48508e-19
-1.06082e-05 -1.72965e-07 2.83744e-18
1.83655e-06 9.29577e-06 3.39017e-18
6.74065e-06 -1.61157e-06 1.76195e-19
6.48183e-06 1.13026e-05 -9.96989e-19
-9.668e-06 1.22201e-06 2.66272e-18
-2.34524e-06 -1.38921e-05 6.7282e-19
2.86302e-05 4.0395e-05 -4.9494e-18
1.03724e-05 1.05812e-06 -1.65369e-19
7.41279e-06 -7.41712e-06 -3.4864e-18
-9.81025e-06 -2.1685e-06 1.6699e-19
-4.32765e-07 -7.29068e-06 2.01762e-18
4.13032e-05 -3.2343e-06 1.41523e-18
9.30805e-06 6.75401e-06 -6.7164e-19
-1.63391e-05 -1.32634e-05 -6.36819e-19
3.24455e-05 -8.58558e-06 -8.89874e-19
-1.07835e-05 -3.96184e-06 1.67148e-18
3.48742e-06 -2.09492e-05 1.74456e-19
3.09898e-05 -3.15887e-05 3.76569e-18
-3.45685e-06 -2.77255e-05 1.72625e-18
-1.95864e-05 2.43855e-05 -3.45342e-19
-2.5738e-05 -1.08588e-05 -2.93591e-18
2.1507e-05 2.81679e-05 -1.69121e-19
-2.96103e-05 -5.79582e-06 -3.6296e-19
9.53737e-06 -7.26319e-06 3.37869e-19
3.02752e-05 3.29164e-05 -6.34073e-19
2.10932e-05 -9.2345e-06 2.42067e-18
2.1935e-05 -2.71113e-05 4.17034e-18
-1.25182e-05 -3.25315e-05 -5.04347e-18
-1.03356e-05 4.1726e-06 5.51803e-18
1.98231e-05 -1.93899e-05 2.5381e-18
-1.95653e-05 6.95652e-06 2.41774e-18
-2.68448e-06 -1.32451e-05 -2.31207e-18
5.16038e-06 1.32095e-05 1.1563e-18
-1.0671e-05 3.86991e-06 2.16379e-18
-1.1763e-05 1.84961e-05 -1.63872e-19
2.12852e-05 1.00286e-05 6.47866e-19
1.92336e-05 -6.67368e-06 -6.48632e-19
-1.03998e-05 1.04238e-05 3.40334e-21
-1.52276e-05 -1.32303e-05 4.9983e-19
-1.40128e-05 -3.4273e-06 3.06992e-18
-2.89021e-05 1.72107e-05 -3.151e-19
-1.93899e-05 -2.50956e-05 2.96275e-18
4.02286e-06 -1.9913e-05 9.86339e-19
-3.14361e-05 4.28611e-06 -1.73418e-18
3.98389e-06 8.99032e-06 -1.67266e-18
-3.65138e-06 -5.40217e-06 -5.06774e-19
-4.30462e-06 -1.18534e-05 -8.44692e-19
3.73176e-05 1.62643e-05 3.16293e-19
6.14901e-06 1.19582e-05 1.03242e-18
8.16534e-06 -9.53048e-06 -8.43587e-19
-1.11484e-06 -1.36753e-05 -2.01954e-18
3.07552e-06 -5.80359e-06 8.47244e-19
-6.5837e-06 -3.65181e-06 2.34636e-18
-6.96018e-06 7.74812e-06 -1.8367e-18
1.68958e-06 -2.77099e-06 -8.33161e-19
-9.96937e-06 -1.04856e-05 -1.18831e-18
-1.41326e-05 3.43603e-06 -1.88158e-18
-2.50572e-06 2.23168e-05 3.0661e-18
-1.17619e-05 7.04273e-06 2.36666e-18
-5.94755e-06 9.49235e-06 -5.05165e-19
-3.85533e-05 4.79316e-06 2.98579e-18
5.22386e-06 -1.4312e-05 2.5626e-18
-1.24337e-05 -5.78993e-06 -2.52214e-18
1.26542e-06 7.64167e-06 -5.11839e-19
1.73071e-05 3.32404e-06 1.14252e-18
2.23263e-05 -1.903e-05 1.60442e-19
1.47533e-05 1.35824e-05 -1.59773e-19
7.9749e-06 -1.94036e-06 -8.74583e-19
-2.07883e-05 1.52381e-05 4.73904e-19
2.48252e-05 3.18118e-06 1.13399e-18
-3.58319e-06 3.19195e-05 1.55391e-19
-1.15434e-06 -1.10278e-05 -1.8321e-18
1.20791e-05 6.56289e-06 1.34443e-18
1.90648e-05 1.9968e-05 3.11382e-19
4.25393e-05 2.64441e-05 -1.41042e-18
-3.54863e-06 2.00116e-05 -1.13545e-18
4.4433e-05 -2.49699e-05 -1.24108e-18
-1.79922e-05 3.48135e-06 5.03639e-19
1.18837e-05 7.33975e-06 4.97144e-19
-1.91202e-05 6.3605e-06 4.83727e-19
1.07878e-05 1.87207e-05 1.58422e-19
6.42018e-06 -2.88069e-05 1.29141e-18
1.27521e-06 7.6372e-06 -3.52414e-19
-9.71418e-06 -1.16512e-05 -4.43023e-18
2.00458e-06 1.14494e-05 1.63542e-19
1.73354e-05 3.46385e-06 1.8106e-18
-1.00897e-05 2.14495e-05 6.48275e-19
2.65239e-05 -8.84151e-06 3.83956e-18
-2.49642e-06 4.85376e-06 -3.51565e-18
6.62312e-06 3.86246e-06 -3.03594e-18
-1.47747e-06 -7.41342e-06 5.1101e-19
2.15553e-06 -1.27322e-05 1.86712e-18
1.15363e-05 2.57271e-06 1.51013e-18
-5.3669e-06 2.66527e-05 1.60411e-18
-6.51693e-06 1.27682e-07 -3.19846e-18
6.15838e-06 7.80461e-06 -3.50481e-18
-1.76104e-06 -2.71704e-05 -2.05421e-18
2.75095e-05 8.53785e-06 -1.43538e-18
2.95349e-06 -4.88544e-06 3.85482e-18
-7.27022e-06 -2.33754e-06 2.85252e-18
-1.88892e-05 -8.03287e-06 -2.10773e-18
1.06417e-05 2.7764e-05 3.33476e-19
-2.77933e-05 -9.90101e-06 -1.11574e-18
1.07903e-05 -2.78379e-05 -3.43946e-19
-2.45895e-06 -2.07399e-05 -2.74876e-18
1.43878e-05 3.9642e-07 6.42776e-18
-4.76072e-06 1.22313e-05 1.7005e-19
-1.04804e-06 2.59597e-06 -3.37967e-18
-2.44993e-06 -1.0917e-05 -4.21879e-18
3.49329e-06 -5.61288e-06 3.20979e-18
6.21097e-06 1.04891e-05 8.69484e-19
2.23462e-05 7.29468e-06 -5.26035e-19
5.77391e-06 -4.88195e-06 3.19087e-18
-5.50715e-06 -2.91571e-05 -6.26606e-19
1.6748e-05 -1.23531e-05 4.21969e-21
3.30588e-06 1.84351e-05 -2.2211e-18
-1.83353e-06 -1.87211e-06 6.54774e-18
-5.71009e-06 -5.48771e-06 -4.95858e-19
-3.15476e-06 5.63819e-08 -2.51189e-18
-1.48349e-05 1.83164e-05 8.12975e-19
1.29187e-05 -2.50116e-05 8.61506e-19
-1.73347e-05 2.73966e-05 -8.00127e-19
-1.06705e-05 6.21248e-06 1.005e-18
1.66831e-06 8.17301e-06 1.64883e-19
-1.51721e-05 -2.36756e-05 -3.81038e-18
8.99642e-06 2.1809e-05 1.94682e-18
1.16392e-05 6.12912e-06 -2.18871e-18
1.49937e-05 -5.65723e-06 3.30547e-18
-8.21827e-07 -7.40392e-06 -1.84368e-18
-2.18275e-05 -2.00744e-05 2.56764e-18
-1.79725e-06 7.41199e-06 1.75628e-19
1.14459e-05 6.75045e-06 2.68107e-18
1.24839e-05 -5.88572e-06 8.44724e-19
5.46877e-06 -9.39938e-06 -1.32418e-18
1.60157e-05 -7.10303e-06 2.62782e-18
1.25486e-05 -5.94198e-06 3.36889e-19
3.14248e-06 1.90634e-07 -1.51692e-18
1.68105e-05 1.33083e-05 4.7988e-19
-1.77074e-06 -1.11204e-05 8.44932e-19
-6.89063e-06 -2.88448e-06 -1.67041e-18
7.51638e-07 -2.5475e-06 -2.17888e-18
-2.10404e-06 1.04193e-05 1.17009e-18
-2.23728e-05 1.76591e-06 1.78054e-18
-7.91456e-06 -2.14613e-05 -2.09833e-18
-5.17332e-06 6.37169e-06 -3.85009e-18
8.90722e-06 1.08842e-05 -4.3179e-18
1.73461e-05 -1.23701e-05 -1.5561e-19
-2.38061e-05 -1.2905e-05 -2.2241e-18
1.12751e-05 -1.80795e-05 -6.3066e-19
1.48636e-05 -1.78047e-05 9.8247e-19
-7.14744e-06 2.50945e-06 3.35508e-18
-1.28551e-05 -1.85025e-05 -1.774e-18
-2.2355e-05 -3.71716e-06 2.26624e-18
-2.69797e-06 -2.05765e-05 1.14007e-18
9.9815e-06 -2.066e-05 -3.14419e-19
-6.06169e-06 -1.73605e-05 -1.70156e-18
2.86445e-06 2.04193e-05 2.92735e-18
-1.03831e-05 -1.83923e-05 -2.23653e-18
1.97528e-06 -1.07082e-05 1.01578e-18
-1.6016e-05 1.16617e-05 -3.26567e-19
-9.90415e-06 -8.00848e-06 -3.04546e-18
-1.81107e-05 -3.3731e-06 -2.89427e-18
1.03979e-05 -6.10262e-06 -4.95678e-19
-2.84224e-06 1.58659e-05 1.02295e-18
8.17902e-06 -6.14924e-06 1.34345e-18
-1.90958e-05 -8.37251e-06 -6.41413e-19
-5.80961e-06 -4.85478e-06 -4.93098e-19
6.05382e-06 4.93099e-06 -8.58261e-19
1.39679e-05 1.87585e-05 1.13007e-18
-1.14743e-05 -7.107e-06 -1.00353e-18
-2.0945e-05 -5.05953e-07 6.44632e-19
-1.07874e-05 -3.24973e-06 2.20823e-18
-3.02542e-06 -1.09298e-05 -2.19412e-18
1.18536e-05 1.42783e-05 -3.53695e-19
-7.2273e-06 3.80671e-06 3.35292e-19
4.47282e-07 -1.3529e-05 3.55441e-18
-2.69043e-05 6.89704e-06 3.20083e-18
1.62955e-05 1.32598e-05 -1.30353e-18
2.3596e-06 2.14236e-05 -6.49008e-19
-1.58222e-06 2.51688e-06 3.18738e-18
-5.9001e-06 1.65244e-07 5.6873e-18
2.89707e-06 5.08467e-06 -4.03941e-18
-7.73159e-06 2.28059e-06 1.02449e-18
-1.34201e-06 -2.46951e-06 1.34298e-18
1.11877e-06 1.36621e-05 3.88083e-18
3.01145e-06 2.52034e-07 -2.3725e-18
-1.26822e-05 3.06226e-06 1.31895e-18
-1.13115e-05 1.24975e-05 1.78995e-18
-2.03104e-06 7.66407e-06 1.34703e-18
-1.89475e-05 1.1804e-05 -9.67984e-19
-6.19695e-06 5.92177e-06 -5.16973e-19
1.15281e-05 -7.8046e-06 1.18897e-18
2.39725e-05 -2.38162e-06 1.45329e-18
-1.39961e-05 7.43066e-06 1.52582e-18
1.47198e-06 2.99505e-06 -3.3616e-18
1.46172e-05 -2.83687e-06 -1.70677e-18
-1.134e-05 6.8246e-06 1.17529e-18
-6.45715e-06 3.64227e-06 2.51364e-18
7.96408e-06 2.56638e-06 -5.1393e-19
1.43462e-05 -8.89521e-06 -1.63591e-18
-1.14199e-05 6.49293e-06 1.66695e-19
-1.61864e-05 -3.40302e-06 1.14485e-18
-1.10347e-05 -2.83998e-06 -2.36125e-18
6.66815e-06 5.61348e-08 1.00363e-18
6.83136e-06 8.12365e-08 -4.90787e-18
2.91399e-06 5.48992e-06 -9.9354e-19
3.21228e-06 -5.8068e-06 -3.19414e-18
-3.29746e-06 5.59237e-06 1.51183e-18
-3.45507e-06 -5.72299e-06 2.69156e-18
6.57646e-06 -4.96827e-06 2.02577e-18
-1.34919e-05 2.16205e-06 8.19937e-21
-1.33402e-05 -2.20475e-06 -5.21929e-19
-8.52586e-06 1.05406e-05 -3.06864e-18
-8.5741e-06 -1.05814e-05 -1.85401e-18
4.99213e-06 -1.33795e-05 3.48364e-19
4.80969e-06 1.32653e-05 -1.04152e-18
9.68243e-07 1.69072e-05 3.24187e-19
7.51138e-06 -2.01487e-06 -6.75054e-19
1.62381e-06 -2.52693e-06 2.50935e-18
-1.38505e-05 9.30507e-07 1.9869e-18
5.15402e-06 -1.31641e-05 2.05022e-18
4.88349e-06 1.32116e-05 -6.92131e-19
3.17721e-06 -5.90611e-08 -1.00214e-18
5.81231e-06 1.59855e-05 1.55631e-19
-1.47929e-06 -2.63398e-06 -6.53064e-18
1.55479e-06 -7.43883e-06 2.01864e-18
-1.4529e-05 -7.7935e-06 9.87076e-19
-1.4128e-05 -7.56305e-06 -3.56477e-18
-1.42214e-05 8.79342e-06 6.51384e-19
2.153e-06 -8.2781e-06 3.56672e-18
-1.05113e-06 2.20765e-06 -2.00618e-18
-4.70576e-07 -1.66223e-05 6.66262e-19
-5.11445e-06 -1.58216e-05 -2.10937e-18
2.13683e-05 1.99048e-05 -1.92289e-18
2.33197e-05 -1.20572e-06 2.23767e-18
-8.42355e-06 -2.4453e-06 -6.82651e-19
-1.48909e-05 -2.65164e-05 -1.43512e-18
5.48284e-06 9.00607e-06 4.86705e-19
-1.63151e-05 1.92519e-06 -1.46988e-18
1.32338e-05 3.79256e-06 2.97108e-18
-2.97339e-06 -1.24843e-08 2.34345e-18
-3.07298e-06 -5.56023e-06 -1.1702e-18
-5.43652e-06 -2.58635e-05 -3.1334e-18
-6.43329e-06 -2.87827e-08 -6.60562e-19
-3.09526e-05 -1.16181e-06 2.2396e-18
1.13085e-05 -1.25698e-05 5.04041e-19
1.65275e-06 2.61877e-06 -3.20586e-18
-7.66191e-08 -1.14994e-05 2.01976e-18
-6.4935e-06 1.55946e-05 3.58797e-18
-2.89022e-06 5.70331e-06 -2.03593e-18
1.35324e-05 -8.94151e-06 -3.2895e-19
-2.51128e-05 -8.20415e-06 -1.57264e-18
-9.97144e-06 -1.31619e-05 -4.75484e-19
3.32556e-06 5.62254e-06 8.39845e-19
1.11145e-05 3.3512e-06 -1.70646e-18
-3.12372e-06 -4.78231e-06 -3.8454e-18
1.33239e-05 2.42708e-06 -3.50711e-19
1.21488e-05 -6.51944e-06 -1.60083e-19
-2.49316e-07 1.79735e-05 -2.39475e-18
5.50812e-06 -8.95804e-06 2.68484e-18
3.19866e-05 1.3673e-06 4.13325e-18
-2.71744e-05 7.08054e-06 4.74948e-18
1.5366e-05 7.67393e-06 8.41653e-19
-4.22128e-06 -1.11585e-05 -3.28834e-19
-1.0045e-05 -5.61459e-06 -1.49903e-18
1.88851e-05 -1.56189e-07 2.95535e-18
-4.79397e-07 -1.60621e-05 1.73597e-19
-8.24289e-06 -7.16435e-06 8.44342e-19
6.64302e-06 -1.54063e-05 1.71951e-19
-3.64589e-07 1.35238e-05 4.98623e-19
5.11264e-06 1.69969e-05 8.14061e-19
1.14674e-05 -6.58362e-06 -1.67036e-18
-1.2316e-05 1.24079e-05 1.1461e-18
1.07898e-05 1.3152e-05 8.12712e-19
-4.3275e-05 1.03231e-05 -7.11838e-19
-6.73624e-06 1.72365e-05 3.93524e-18
8.3148e-06 -1.01006e-05 -8.38383e-19
-4.63427e-06 -1.2178e-05 -3.74659e-18
-7.8118e-06 2.90733e-06 1.66906e-19
-1.66939e-05 -4.55361e-06 -4.90948e-19
-4.46188e-06 2.60632e-05 3.53293e-19
-8.26373e-06 7.88339e-06 1.65372e-19
1.3692e-05 -3.00034e-06 8.36821e-19
-4.49042e-06 -1.67386e-05 2.31263e-18
-9.688e-06 1.54212e-05 1.8033e-18
-1.44082e-05 8.29981e-06 6.81229e-19
-1.33462e-05 -9.72396e-06 5.09123e-18
1.20997e-05 -1.39499e-05 -2.21029e-18
-1.77237e-05 -9.40032e-07 1.64077e-18
7.81513e-06 -2.67835e-05 1.58904e-18
1.27143e-05 -1.23892e-05 -6.45874e-19
1.59977e-05 2.81064e-05 -3.84363e-18
1.29311e-06 1.31194e-05 -1.65286e-19
1.89753e-06 -1.66078e-05 1.65271e-18
-2.81522e-05 3.30463e-05 -1.24001e-18
-8.26432e-06 -1.57671e-05 -1.29839e-18
1.09866e-05 -4.25413e-06 -1.69208e-18
-1.66838e-06 1.67409e-05 2.45087e-18
8.59016e-06 -7.97582e-06 -1.17485e-18
9.04891e-06 1.58727e-05 -1.31761e-18
1.13713e-05 -9.63852e-07 -8.25404e-19
1.40041e-05 -4.10118e-05 4.75746e-19
-3.8477e-06 -8.38469e-06 1.34304e-18
-1.50173e-05 6.45184e-06 -1.69244e-19
-1.3282e-05 1.24139e-05 -2.39935e-18
1.41599e-05 9.57955e-06 -2.62241e-18
1.23082e-05 -7.124e-06 -6.54767e-19
9.92645e-06 8.39757e-06 5.00604e-19
-3.60868e-06 -6.80772e-09 -2.18707e-18
1.00511e-05 -1.50882e-05 2.31099e-18
-1.10328e-05 -1.31389e-05 1.98385e-18
1.48227e-05 6.43902e-06 -1.47997e-18
8.54763e-06 -8.03343e-06 8.8602e-21
6.19072e-06 -1.62134e-05 2.31857e-18
1.10317e-05 -4.66126e-06 8.51808e-19
-1.0308e-05 -4.90892e-06 2.34294e-18
8.772e-07 -1.73909e-05 1.88813e-18
-1.68402e-05 2.89208e-06 -4.95757e-19
1.49132e-06 1.59951e-05 1.4836e-18
1.3561e-05 4.3802e-06 6.63252e-19
-1.40664e-05 -6.9296e-06 2.80672e-18
-5.87457e-06 1.66111e-05 3.60814e-18
-9.90561e-07 -1.57689e-05 1.32867e-18
1.30116e-05 7.89971e-06 -1.03192e-18
-1.13961e-06 1.18608e-05 3.68905e-18
-1.30886e-05 8.80668e-06 3.2856e-19
1.54653e-05 7.4844e-06 -2.29174e-18
-1.11732e-05 -6.56677e-06 3.39676e-19
1.00157e-07 -1.30189e-05 1.01847e-18
1.20464e-05 1.3072e-05 -3.62196e-18
-1.461e-05 -9.44341e-06 -3.76454e-18
3.16565e-05 -2.26517e-05 3.87491e-18
1.18591e-05 -7.13783e-06 1.67745e-18
5.64919e-06 2.79886e-05 -3.68397e-18
1.12529e-05 -8.9825e-06 6.73405e-19
-1.47386e-05 5.68399e-05 3.12031e-18
-1.48153e-05 -5.6299e-05 -2.21669e-18
3.6999e-05 4.83662e-05 1.33838e-18
3.65538e-05 -4.83544e-05 -4.38514e-19
6.04124e-05 -2.95776e-08 1.04451e-18
-5.19851e-05 2.10619e-05 1.62729e-18
-5.11415e-05 -2.12819e-05 5.93839e-19
8.16944e-06 7.88899e-06 5.01376e-19
1.97628e-05 1.47135e-05 5.02939e-19
7.58007e-06 2.20399e-06 6.7414e-19
1.24531e-05 6.40693e-06 2.98661e-18
3.24249e-06 1.32142e-05 -3.37181e-19
-1.22358e-05 -9.64243e-06 1.70636e-19
1.13616e-05 -6.73515e-06 -1.84434e-18
1.30677e-05 9.53508e-06 -3.29857e-19
-2.09287e-06 1.58812e-05 1.14811e-18
1.98595e-05 -1.351e-05 -6.92508e-19
2.41895e-06 -1.54826e-05 1.99483e-18
1.46997e-05 3.39897e-06 -1.03716e-18
1.95714e-05 7.26535e-06 -3.42111e-18
9.43034e-06 9.36325e-06 3.59412e-18
1.05059e-05 4.35065e-06 1.83539e-18
-1.20546e-05 7.10018e-06 -6.61456e-19
-1.46229e-05 5.85149e-06 3.29163e-19
1.54298e-05 -7.52671e-06 -2.56574e-18
-1.1894e-05 -6.52038e-06 -1.16013e-18
-1.20754e-05 -6.8357e-06 -2.48235e-18
-2.14669e-07 -1.35954e-05 2.84516e-18
-9.88144e-08 -1.38145e-05 8.36067e-19
-1.30497e-05 -6.55814e-07 2.3107e-18
1.75665e-05 -2.66482e-06 1.47047e-18
1.19282e-05 7.47588e-06 -2.32103e-18
-1.16754e-05 7.08322e-06 -2.83817e-18
-1.01094e-05 1.1003e-05 2.03736e-18
1.05351e-05 -9.06563e-06 -1.31641e-18
-7.23541e-06 1.13225e-05 1.31402e-18
-9.27398e-06 -9.65e-06 3.1507e-18
-8.07252e-07 1.38297e-05 -5.0439e-19
-8.38329e-07 1.37253e-05 1.33236e-18
3.3127e-08 -1.30228e-05 -3.29729e-19
3.99479e-06 -1.29344e-05 3.31695e-18
-1.12314e-05 -6.46612e-06 1.7576e-19
1.0304e-05 -3.65112e-06 2.33599e-18
4.18222e-07 1.40534e-05 2.48167e-18
1.71444e-07 1.21267e-05 7.21339e-18
-1.56329e-06 1.10005e-05 -2.00109e-18
1.44203e-05 -3.64789e-06 7.59272e-18
-1.09524e-05 3.48745e-06 1.17732e-18
2.68052e-06 1.40667e-05 8.27558e-19
-2.17126e-05 8.51481e-06 -6.97325e-19
6.13279e-06 2.73646e-05 -1.10846e-18
-1.12579e-05 2.97215e-06 3.21912e-18
1.32008e-05 -7.81099e-06 -1.65407e-19
5.73042e-07 1.37573e-05 -1.17243e-18
-1.3278e-05 4.36011e-06 -5.04779e-19
1.6204e-06 -1.06824e-05 1.72503e-19
5.95805e-07 -3.79165e-05 1.40115e-18
1.30648e-06 1.14728e-05 1.83183e-18
-1.10722e-05 9.05274e-06 -8.31838e-19
1.12865e-05 4.15418e-05 6.29868e-19
3.1513e-05 2.6135e-05 6.87102e-19
3.61249e-05 -2.47167e-05 -1.06527e-18
9.81292e-06 -6.7217e-06 -1.83495e-18
-1.03113e-05 9.09196e-06 -6.62584e-19
-1.31093e-05 -5.15741e-06 1.66762e-18
-1.275e-05 -4.40195e-06 3.63707e-18
4.4417e-05 -1.22048e-05 1.5956e-18
4.53076e-05 9.52699e-06 -1.95123e-18
7.21109e-06 2.51944e-06 -6.65097e-19
4.65786e-07 1.28533e-05 2.0061e-18
4.98e-08 1.28449e-05 1.63234e-19
-3.15862e-05 -2.31131e-05 -1.60426e-19
7.48948e-06 -1.12793e-05 -9.78082e-19
7.82459e-06 8.35143e-06 2.19621e-18
-1.38539e-05 -2.21308e-06 3.64905e-18
-9.16543e-06 1.11206e-05 1.65305e-18
-1.22905e-05 5.91802e-06 -2.49286e-18
3.12622e-05 2.24244e-05 -2.01339e-18
1.05424e-05 4.66576e-06 -1.70249e-18
-3.69087e-06 1.30207e-05 -3.76996e-21
-1.10973e-05 -7.60613e-06 -1.58414e-19
1.18263e-06 -1.34554e-05 3.44257e-19
-5.83094e-06 -1.25206e-05 -6.54686e-19
-1.12253e-05 -7.63775e-06 1.66721e-18
6.92587e-06 -1.23867e-05 8.40156e-19
9.30007e-06 -1.11227e-05 1.33633e-18
-1.92983e-06 -3.96777e-05 -9.36039e-19
1.69244e-05 -2.68442e-05 6.50449e-19
1.13895e-06 -1.36015e-05 1.83451e-18
1.18877e-05 7.45184e-06 -2.00604e-18
-9.44848e-06 -9.6338e-06 2.66439e-18
-6.42862e-06 1.27894e-05 -1.82429e-18
-3.29632e-06 1.36886e-05 -1.00305e-18
1.09671e-05 9.32332e-06 -1.66938e-18
3.94268e-06 -1.2993e-05 1.7704e-19
-9.08656e-06 -2.60211e-05 -3.7859e-18
-1.35846e-06 1.65912e-05 -2.21117e-18
9.71855e-06 9.50126e-06 -4.13473e-18
-8.4791e-06 -6.7034e-06 5.06129e-19
-8.89627e-06 6.9736e-06 -1.73696e-19
2.91214e-05 -1.25162e-05 9.47085e-19
4.97911e-06 -8.78308e-06 8.4275e-19
-5.45436e-06 -8.2021e-06 -1.99446e-18
1.43461e-05 4.3753e-06 -1.20939e-18
8.81943e-06 -3.18181e-05 3.6645e-18
-2.31507e-05 -2.35267e-05 -3.67468e-18
1.5644e-05 4.10095e-06 2.20064e-18
-6.11398e-06 -1.18576e-05 1.00011e-18
1.23573e-05 6.28154e-06 4.98882e-19
-1.87434e-05 -2.08123e-05 -1.88489e-18
7.14219e-06 3.23524e-05 -5.16186e-19
3.13448e-05 -4.04827e-05 -1.8566e-19
-1.93886e-05 -4.73767e-05 -1.95394e-18
1.76686e-05 -3.45396e-05 9.33445e-19
-8.41992e-06 2.89054e-05 3.27953e-18
-4.79649e-06 2.56012e-05 -1.04084e-18
-1.22163e-05 5.84649e-06 -5.49727e-22
4.0036e-06 1.60404e-05 -3.57832e-18
-1.57708e-06 8.25507e-06 -2.67543e-18
6.72067e-06 2.1529e-06 -2.51586e-18
-2.1287e-06 1.07055e-05 1.85354e-18
-1.61365e-07 1.38457e-05 1.69765e-19
1.10443e-05 6.43487e-06 -1.68797e-19
5.51615e-07 3.77371e-05 1.55538e-18
-9.63359e-06 6.94933e-06 -5.02175e-19
1.06228e-05 -4.10225e-06 8.42745e-19
1.13321e-05 -2.94451e-06 1.85784e-18
-3.86823e-05 -5.55733e-06 1.40994e-18
-2.29487e-05 1.09194e-05 -2.4431e-18
-2.80714e-05 -3.32845e-05 -2.19677e-18
5.72495e-06 5.49265e-06 2.72496e-18
9.42224e-06 4.86456e-06 -1.00285e-18
1.75947e-05 -2.80648e-06 3.94388e-18
-5.29497e-06 -8.61971e-06 8.42635e-19
1.1397e-05 5.60149e-06 -1.83852e-18
4.88252e-06 -1.99372e-05 4.1193e-18
-9.03381e-06 6.62933e-06 -1.51239e-18
-1.48183e-05 -1.4195e-05 -2.39425e-18
-3.81475e-06 1.06315e-05 1.33484e-18
-2.19889e-06 1.36429e-05 2.87344e-18
2.29232e-05 1.42369e-05 -3.62574e-19
2.44398e-05 -1.29696e-05 8.66509e-19
-2.70185e-05 -7.27624e-06 1.59183e-19
5.05791e-06 5.12351e-06 -3.37275e-19
-3.1657e-06 6.59796e-05 3.69852e-18
-1.45801e-08 -6.77739e-05 -7.66712e-19
3.34043e-05 5.71666e-05 9.17336e-19
-1.26109e-05 5.50747e-06 -3.60243e-21
-1.79196e-05 3.61831e-05 4.64346e-19
3.36095e-05 -5.51769e-05 9.37446e-19
-7.64251e-06 -1.18276e-05 1.83358e-18
5.11043e-05 4.44917e-05 -2.789e-18
1.59591e-05 -1.18748e-05 4.31382e-18
-2.32188e-06 -1.97481e-05 -5.08816e-19
5.35463e-05 -4.35052e-05 2.15909e-18
-4.43947e-06 9.45033e-06 -8.32497e-19
-3.43113e-05 -2.17972e-05 3.11126e-19
-2.82594e-05 -5.90041e-05 1.08632e-18
-1.59991e-05 -3.73471e-05 -2.50683e-18
-2.90525e-05 5.99709e-05 2.00737e-18
-6.87943e-06 4.14992e-05 1.52683e-19
1.06881e-05 2.48239e-05 -6.87701e-19
-1.8415e-05 2.36637e-05 -7.95175e-19
-1.7147e-05 -3.52241e-05 -2.63173e-18
6.57525e-05 1.15365e-05 -1.39683e-18
-1.11069e-05 6.98062e-06 -2.34126e-18
-3.93015e-06 1.07688e-05 1.86673e-18
-3.25408e-05 2.34355e-05 2.81952e-18
-1.13121e-05 6.49366e-06 -2.50874e-18
6.51048e-05 -1.02853e-05 3.01122e-19
-1.0089e-05 5.07292e-06 -5.04562e-19
4.74383e-06 -9.51964e-06 -3.31719e-18
-5.05544e-05 -3.85197e-05 -1.69563e-18
-1.72364e-05 3.73807e-05 3.09888e-19
-5.17592e-05 3.82442e-05 2.76503e-18
1.56278e-05 3.44111e-05 1.38286e-18
-9.67371e-06 6.87499e-06 -1.66375e-18
-1.35772e-05 1.63113e-05 -4.49371e-18
-2.4171e-05 3.03554e-05 -2.651e-18
-3.78985e-05 -4.88864e-06 2.11301e-18
-6.33932e-07 1.07232e-05 -7.01367e-21
-2.56017e-05 -3.0483e-05 -1.40998e-18
-3.92114e-05 6.93622e-06 -3.36569e-18
-1.49349e-05 3.46443e-05 -1.06641e-18
-1.15281e-05 4.61217e-05 -1.72688e-19
-1.2016e-05 2.66386e-05 7.84772e-19
-2.23697e-05 1.80234e-05 1.02626e-18
1.64375e-05 -4.04687e-06 -3.42634e-18
2.56842e-05 -1.38865e-06 -1.90415e-18
8.95943e-06 5.44547e-06 1.01169e-18
-8.09941e-06 -5.30645e-05 -1.05219e-18
-5.00145e-05 -1.95049e-05 -1.58907e-18
2.50105e-05 3.3652e-07 2.05352e-18
3.84919e-05 -7.43108e-06 1.39441e-18
-6.90909e-06 -8.77184e-06 -1.15393e-18
-3.34002e-05 2.34816e-05 -2.31932e-18
-2.99328e-05 3.42874e-05 -2.04494e-18
4.06899e-05 -1.46614e-05 2.20742e-18
-1.86885e-05 -3.16688e-05 -4.87864e-18
-1.90229e-05 3.1424e-05 -3.48854e-18
-3.69109e-05 -1.30576e-06 -3.63682e-19
-1.6789e-05 3.30165e-05 -3.57721e-19
-3.67933e-05 3.80277e-07 -1.92101e-18
4.57608e-05 1.63879e-05 7.08653e-19
3.69411e-05 1.35765e-06 6.89584e-19
3.47268e-05 -1.7792e-05 -2.12071e-18
1.01265e-05 -4.88139e-05 -5.34617e-19
1.83571e-05 -3.19752e-05 8.74862e-19
1.82325e-05 3.19717e-05 -2.27591e-18
9.91686e-06 4.76956e-05 -2.83356e-18
4.99752e-05 -1.40919e-05 1.41209e-18
3.20413e-05 1.58705e-05 5.23182e-19
3.07997e-05 8.41553e-06 -3.15396e-18
P_ext 3 563 float
-1.08314e-06 3.66235e-07 -1.96084e-20
1.02724e-09 4.0117e-08 4.70908e-20
-9.98073e-08 -9.38589e-08 -5.18741e-20
-3.15724e-08 2.91436e-08 2.60551e-20
2.75458e-08 5.26194e-10 8.50671e-20
3.28479e-08 -1.33312e-07 -2.56897e-20
-1.06642e-06 -3.70666e-07 -2.40567e-20
-7.82482e-08 -8.87661e-08 1.06251e-20
2.17664e-07 3.85564e-09 1.8271e-20
7.94693e-08 -7.46567e-09 -1.30591e-19
7.0504e-07 1.65251e-07 4.09778e-20
3.87509e-08 -1.13441e-07 -4.66246e-20
8.88064e-08 1.05709e-07 -4.96887e-20
-9.14762e-09 8.281e-08 3.66763e-20
2.48792e-08 9.21612e-09 3.11913e-20
-1.39144e-07 -2.2778e-09 8.85621e-20
-1.73838e-08 5.45709e-08 5.835e-20
8.38787e-08 -1.26564e-08 -1.54316e-20
9.6343e-08 1.71819e-07 -1.5664e-20
-1.29258e-07 1.30351e-08 3.65048e-20
-4.85249e-08 -1.83081e-07 1.05607e-20
1.6e-09 3.3172e-10 -2.12186e-19
1.43162e-07 1.16557e-08 -3.36209e-20
9.11429e-08 -1.05234e-07 -2.8622e-20
-1.32041e-07 -2.12625e-08 1.08688e-19
-2.48907e-08 -7.22584e-08 4.98798e-20
8.1054e-07 -6.63061e-08 3.65569e-20
9.93079e-08 8.3723e-08 1.42573e-19
-2.9657e-07 -2.35578e-07 2.2593e-20
1.74282e-08 3.2782e-09 4.8526e-21
-1.3258e-07 -2.36113e-08 -2.59361e-20
5.79621e-08 -3.77172e-07 -1.21744e-20
6.09087e-07 -6.23781e-07 -2.21098e-21
1.29787e-09 -2.86068e-08 4.57895e-20
-7.69867e-09 2.20002e-08 -8.35567e-20
-2.38795e-08 -1.57319e-08 -2.44339e-20
3.16279e-09 1.57958e-08 -6.47892e-20
-2.41444e-08 4.11136e-09 -8.38492e-20
9.59019e-08 -1.04302e-07 1.0236e-22
5.94353e-07 6.50071e-07 -6.12591e-20
3.79658e-07 -1.72009e-07 1.10631e-19
5.87444e-09 -1.4465e-08 6.25256e-20
-9.50702e-09 -1.26693e-08 -4.64392e-20
-1.31705e-07 2.70544e-08 2.39087e-20
3.76662e-07 -3.69899e-07 2.25989e-20
-3.50971e-07 1.26332e-07 2.773e-20
-4.43429e-08 -1.93501e-07 -3.3613e-20
8.00101e-08 1.94357e-07 -5.1289e-21
-1.26333e-07 3.30359e-08 2.08967e-20
-2.17382e-07 3.38104e-07 3.72187e-20
3.85327e-07 1.88705e-07 7.48505e-21
3.34588e-07 -1.10045e-07 4.03669e-20
-9.85823e-09 2.34286e-08 -6.92443e-20
-2.61838e-07 -2.34962e-07 -9.91584e-21
-2.5701e-08 3.39352e-09 2.05151e-23
-5.61586e-07 3.29795e-07 1.48336e-20
-7.14872e-09 -2.19084e-08 1.94665e-20
7.456e-08 -3.4577e-07 -2.247e-20
-2.23287e-08 -4.86369e-09 -4.87178e-20
5.84986e-08 1.17293e-07 -7.80232e-20
-3.1216e-08 -9.47387e-09 -2.10461e-20
-3.29601e-08 -3.0961e-08 -1.05551e-20
7.30825e-07 3.21753e-07 -4.78467e-21
-6.27434e-10 6.38303e-08 -1.54506e-20
9.866e-09 -4.25886e-08 5.02105e-20
1.6574e-08 -9.47486e-08 -5.25536e-20
-6.57703e-09 -3.10231e-08 5.52301e-20
-7.58287e-08 -1.92715e-08 3.67262e-20
-8.82703e-08 1.08004e-07 6.95301e-20
2.36731e-08 -8.5961e-09 -1.56054e-20
-9.72355e-09 -2.41032e-08 2.41031e-20
-2.54197e-08 -3.72579e-09 -2.40887e-20
-4.37507e-08 4.05332e-07 -1.23124e-20
-7.78815e-08 3.93379e-08 7.64764e-20
-7.55564e-08 1.29235e-07 -5.46394e-20
-7.59965e-07 8.93278e-08 1.7424e-20
3.47378e-11 -6.01892e-08 3.75208e-20
-7.31677e-08 -6.13028e-08 -1.84335e-20
3.08091e-08 7.51819e-08 -2.10739e-20
2.91273e-07 5.8231e-08 1.7865e-20
4.17451e-07 -3.63215e-07 -2.96885e-20
1.14457e-08 2.80266e-08 5.60008e-21
2.82405e-08 8.76313e-09 -8.53846e-21
-3.88967e-07 2.87774e-07 7.49677e-21
4.54038e-07 5.52005e-08 2.54716e-20
-6.88177e-08 6.15391e-07 9.83839e-21
-2.38579e-08 -1.23338e-07 -7.54138e-20
8.37547e-08 5.89886e-08 7.86747e-21
3.62299e-07 3.82072e-07 -1.46739e-20
6.56535e-09 2.92211e-09 -8.38697e-21
-6.98276e-08 3.47724e-07 4.79227e-20
5.93053e-09 -3.17788e-09 -2.49385e-20
-4.19313e-08 2.85963e-08 5.55879e-20
9.05188e-08 3.68393e-08 -7.08404e-20
-3.34819e-07 1.03507e-07 -3.04183e-20
1.94329e-07 3.41469e-07 -2.52846e-21
1.20894e-07 -5.45835e-07 6.00689e-20
2.84194e-08 7.45084e-08 -3.95319e-20
-5.14243e-08 -3.05993e-08 -4.00524e-20
4.26078e-08 1.36271e-07 -4.69334e-20
2.83301e-07 4.82092e-08 2.52051e-22
-1.88061e-07 3.88525e-07 -2.02287e-20
4.9992e-07 -1.63389e-07 4.51935e-20
-2.7743e-08 6.05713e-08 1.279e-20
5.31729e-08 5.40021e-08 -7.36695e-20
-3.16029e-08 -7.29063e-08 1.30693e-19
-1.27125e-08 -5.55497e-08 5.55929e-20
1.47062e-07 1.76308e-08 2.62169e-20
-1.07262e-07 5.01737e-07 2.50657e-20
-2.48102e-08 1.53052e-08 -6.57518e-20
7.33541e-08 1.08707e-07 -5.49153e-20
-3.62701e-08 -5.14884e-07 7.41275e-21
5.20868e-07 1.56392e-07 -2.5021e-20
3.5465e-08 -6.26699e-08 5.77219e-20
-8.09685e-08 -9.26243e-09 5.479e-21
-3.33146e-07 -1.33713e-07 -5.33505e-20
1.64758e-08 1.76231e-08 -5.62677e-21
-5.29182e-07 -1.85067e-07 3.47689e-20
1.67262e-08 -1.75744e-08 8.12378e-21
-5.14566e-08 -3.61807e-07 -8.34968e-20
2.23307e-07 8.4739e-09 9.80546e-20
-1.98909e-08 1.69744e-08 -2.38088e-20
5.33866e-09 2.43885e-08 -5.95003e-21
1.4938e-08 -6.54214e-08 -6.86022e-20
2.59479e-08 -1.21356e-08 -3.3482e-20
4.85263e-10 2.62835e-08 -4.72525e-20
2.26893e-08 -2.83247e-09 -8.35226e-20
4.23262e-08 -6.24417e-08 8.90902e-20
-1.0835e-07 -5.52626e-07 -8.19527e-20
2.86243e-07 -2.20352e-07 1.78031e-20
9.27306e-10 3.48766e-08 -5.33753e-20
-2.41383e-08 -4.36654e-09 9.20054e-20
-7.85543e-09 -2.6999e-08 5.80977e-20
-1.99056e-08 -1.40505e-08 7.04371e-20
-2.67598e-07 3.34396e-07 1.00852e-20
-3.07419e-10 -2.65634e-08 -1.3526e-20
-3.34724e-07 5.25571e-07 1.28718e-19
-1.25807e-07 5.78563e-08 1.83271e-20
1.7691e-08 1.9079e-08 -9.48126e-20
-2.28696e-08 -1.33722e-08 -1.64721e-20
1.63209e-07 3.939e-07 2.78573e-20
9.41753e-08 8.39315e-08 5.18552e-20
2.28575e-07 -7.5381e-08 2.61633e-20
1.2863e-08 -7.03356e-08 -9.15487e-20
-4.14717e-07 -3.82155e-07 -1.94226e-20
-3.99902e-08 6.91124e-08 5.23202e-20
1.03843e-07 5.53915e-08 4.19137e-20
1.51845e-07 -5.22771e-08 2.91003e-21
6.55758e-08 -1.30997e-07 2.67747e-21
2.59945e-07 -1.19864e-07 8.95167e-20
1.72953e-07 -8.16358e-08 5.43149e-20
1.73824e-08 -1.44061e-08 -2.85721e-21
3.01511e-07 2.38492e-07 4.00888e-20
-4.36478e-08 -1.26225e-07 -3.0995e-20
-5.36109e-08 -4.58671e-08 3.3974e-20
-8.76387e-09 -2.3007e-08 6.77698e-20
1.20403e-08 9.00631e-08 -3.41512e-20
-4.03279e-07 2.89133e-08 -3.51579e-20
-1.47324e-07 -3.84967e-07 -8.82536e-20
-6.34501e-08 8.08777e-08 2.29965e-20
1.24769e-07 1.66281e-07 -1.09258e-20
3.10342e-07 -2.20115e-07 3.28264e-20
-4.53673e-07 -2.42558e-07 -6.67413e-20
2.01829e-07 -3.28559e-07 4.015e-20
2.62812e-07 -3.23279e-07 3.04529e-22
-7.7409e-08 7.66818e-09 4.72444e-20
-2.30716e-07 -3.33865e-07 5.0592e-21
-4.03858e-07 -6.32962e-08 2.28495e-20
-4.81307e-08 -3.68552e-07 -3.97764e-20
1.79658e-07 -3.71339e-07 -4.87875e-21
3.75667e-09 -5.10533e-08 2.90994e-20
5.3388e-08 3.55549e-07 4.83194e-20
-1.90193e-07 -3.3272e-07 -4.49408e-20
-1.78412e-08 -8.16477e-08 1.33852e-19
-2.7494e-07 2.05832e-07 8.85204e-20
-5.38691e-08 -1.76612e-08 -2.39265e-20
-4.19695e-08 -2.88429e-08 6.36096e-20
1.0974e-07 -5.62793e-08 -6.50919e-20
-1.51023e-08 2.13831e-08 -5.3362e-20
5.83298e-08 -7.36238e-08 9.15016e-20
-3.42113e-07 -1.52147e-07 -2.26813e-20
-4.53217e-08 -6.10397e-08 2.62964e-20
4.73665e-08 6.47533e-08 -1.46726e-19
2.47381e-07 3.41475e-07 8.31997e-20
-8.75723e-08 -4.03832e-08 -1.30229e-20
-3.80559e-07 -8.56232e-09 1.75417e-20
-4.87852e-08 -4.52433e-08 -1.52859e-20
-2.77722e-09 -6.55272e-08 -3.69098e-20
4.77868e-08 2.4103e-08 -5.07336e-20
-5.51112e-08 5.43225e-08 -7.79664e-21
-9.20405e-09 -9.64598e-08 -7.41221e-21
-5.08007e-07 1.25135e-07 3.26916e-20
2.78483e-07 2.37572e-07 2.75401e-20
3.72104e-08 3.8692e-07 3.99625e-20
-2.24369e-08 7.71441e-09 7.85932e-20
-7.48518e-08 2.32594e-09 -2.10029e-21
3.43648e-08 6.56096e-08 -1.36186e-19
-2.72056e-08 -6.67954e-09 -2.86398e-20
3.21867e-09 -2.3193e-08 -1.81916e-20
-1.4968e-08 1.02103e-07 1.00043e-19
1.65877e-08 1.74769e-08 -1.05137e-19
-1.89069e-07 4.1794e-08 -1.7913e-20
-1.91744e-07 2.09216e-07 -2.42742e-21
-2.07028e-08 1.9212e-08 -1.05029e-20
-3.46883e-07 2.09349e-07 8.75547e-20
-8.90731e-09 2.95634e-08 -1.33822e-20
9.36284e-08 -3.35405e-08 -1.80287e-20
4.34831e-07 -4.00049e-08 4.54834e-20
-5.45146e-08 3.44943e-08 2.38775e-20
2.20454e-08 1.01639e-08 -8.19084e-21
5.67404e-08 -3.5506e-08 -4.52558e-20
-9.7339e-08 3.24437e-08 1.83342e-20
-7.08385e-08 1.85716e-08 1.57823e-20
2.4912e-08 -7.27643e-09 -7.12385e-20
2.3037e-07 -1.40102e-07 7.58836e-21
-9.06691e-08 5.78108e-08 2.08974e-20
-2.70832e-07 -5.64767e-08 1.79768e-20
-5.75671e-08 -3.03096e-08 9.7443e-20
2.2021e-08 -1.46183e-08 2.87785e-20
2.43934e-08 1.71365e-08 -7.95339e-20
-6.15591e-09 2.7732e-08 -2.85577e-20
-2.49763e-09 -3.12895e-08 -2.38046e-20
-2.53905e-08 1.29798e-08 7.59471e-20
-2.84162e-08 -1.45587e-08 5.78087e-20
7.11859e-08 -2.6905e-08 -8.84839e-20
-2.60499e-08 -7.16367e-09 3.19219e-20
-2.59947e-08 6.90021e-09 -9.55719e-20
-6.40765e-09 2.58261e-08 -1.6187e-19
-6.95633e-09 -2.63922e-08 -1.83349e-20
1.71776e-08 -1.92342e-08 -4.78066e-20
1.65144e-08 1.84085e-08 -2.96809e-20
9.96548e-09 2.74924e-07 3.04298e-20
5.33464e-08 -4.4004e-08 4.95392e-20
1.24505e-08 -2.34804e-08 4.96614e-20
-2.07341e-07 7.66381e-09 -4.98586e-21
1.9689e-08 -1.86935e-08 -3.94192e-20
1.83827e-08 1.89844e-08 -3.47276e-20
2.82024e-08 -6.13611e-10 -1.04565e-20
9.51751e-08 2.6941e-07 -3.30963e-20
-1.42691e-08 -2.33354e-08 -2.13983e-20
3.08543e-08 -7.06201e-08 -6.50538e-20
-2.31379e-07 -1.28016e-07 -3.04429e-20
-5.08502e-08 -3.30091e-08 1.05554e-19
-2.32223e-07 1.3773e-07 6.62605e-20
2.05963e-08 -2.11184e-08 3.22063e-21
-9.87129e-09 2.19405e-08 -1.57301e-20
-5.43083e-09 -2.66224e-07 -5.07612e-20
-8.71576e-08 -2.63673e-07 -3.54886e-20
3.99592e-07 3.80315e-07 -6.24236e-20
4.27418e-07 -2.42717e-08 3.26543e-20
-3.03238e-08 6.6035e-09 -3.44034e-20
-2.85856e-07 -5.05149e-07 -4.98446e-20
6.8165e-08 1.16875e-07 -9.89596e-20
-2.74022e-07 3.22739e-08 -7.36886e-20
1.96725e-07 5.50097e-08 7.21476e-20
-2.68818e-08 -1.0873e-10 1.12222e-19
5.8304e-10 -2.79423e-08 6.5453e-20
-2.44245e-09 -1.91161e-08 -3.00705e-20
-2.38303e-08 -1.41772e-08 3.15623e-20
-5.92698e-07 -2.24603e-08 3.74428e-20
1.8629e-07 -2.10693e-07 -2.23676e-21
1.26687e-08 2.45732e-08 -8.93575e-20
6.47599e-09 -1.17643e-07 -4.84408e-21
-1.11118e-07 2.63152e-07 3.58179e-20
2.2764e-09 2.9566e-08 -3.16064e-21
1.98786e-07 -1.42245e-07 1.53856e-20
-1.74904e-08 -7.64696e-09 -4.9001e-20
-1.69038e-07 -2.19701e-07 3.06443e-20
2.3294e-08 1.18559e-08 5.14731e-23
5.51276e-08 5.32916e-08 -5.1524e-22
-3.92199e-08 -6.10964e-08 -3.92916e-20
2.41369e-08 -7.80229e-09 -1.03504e-19
8.1686e-08 -5.70256e-08 6.31826e-20
-4.85252e-09 4.55512e-08 -6.67635e-20
6.71973e-08 -1.13257e-07 8.62694e-20
6.13557e-07 3.09146e-08 4.48615e-20
-5.19792e-07 1.37527e-07 1.28141e-20
4.35367e-08 3.03384e-08 2.63877e-20
-6.44017e-08 -1.55053e-07 -1.0079e-19
-9.78981e-08 -6.38654e-08 2.66645e-21
3.18628e-07 -3.20234e-09 7.15699e-20
2.72482e-09 -6.0805e-08 1.86775e-20
-7.96362e-08 -2.81205e-08 2.36856e-20
1.08589e-07 -2.59443e-07 1.77914e-22
8.65753e-09 1.04521e-07 2.6169e-20
8.91234e-08 2.76385e-07 -2.04801e-20
1.0697e-07 -5.63714e-08 -2.3487e-20
-1.95114e-07 2.0768e-07 6.37681e-20
1.79414e-07 2.21699e-07 1.14205e-19
-1.12889e-08 5.04789e-09 -1.9355e-20
1.85623e-09 4.81677e-08 -3.14013e-20
3.63766e-09 -2.1858e-08 1.06135e-19
-1.73021e-08 -1.43555e-08 -4.53471e-20
-5.95917e-08 4.72485e-08 1.04376e-20
-2.73371e-07 -6.47702e-08 1.09943e-19
9.56757e-10 3.07313e-08 -2.13259e-20
-7.15019e-08 2.13469e-08 -3.68259e-20
1.93696e-07 -2.80818e-08 1.05346e-20
-8.28263e-08 -2.68218e-07 -2.09295e-21
-1.63132e-07 2.59801e-07 -4.56692e-20
-4.60705e-08 2.12938e-08 4.52011e-20
-2.18634e-07 -1.547e-07 -2.73216e-20
4.9497e-08 -2.32162e-08 1.32363e-20
-2.96449e-07 -1.4516e-08 -1.50853e-20
1.45117e-07 -5.12066e-07 -1.18067e-20
1.98284e-07 -2.08219e-07 2.66083e-21
3.03178e-07 5.37532e-07 2.18371e-21
-2.83941e-09 6.49815e-08 1.05661e-20
2.60262e-08 -2.70068e-07 -3.77375e-20
-1.05498e-08 6.38973e-09 -1.67409e-20
-1.40556e-07 -2.62278e-07 -5.08531e-20
4.71683e-08 -4.03658e-08 -6.07038e-20
-2.71164e-08 2.73184e-07 -1.00398e-20
6.58405e-08 -1.93297e-08 -1.33994e-19
1.49811e-07 2.66978e-07 2.01889e-20
1.50052e-07 -3.50396e-09 3.3783e-20
2.73854e-07 -8.08023e-07 -4.79413e-21
-5.8032e-08 -1.08038e-07 1.0715e-20
-2.42016e-07 1.05452e-07 -9.1784e-20
-3.39165e-08 1.66676e-08 -6.68315e-20
2.29751e-07 1.53861e-07 4.79996e-20
1.63765e-07 -9.04115e-08 4.14239e-20
8.65718e-08 3.80362e-08 5.18599e-21
-1.77064e-08 1.49605e-08 -4.72936e-20
1.64255e-07 -2.53748e-07 1.0735e-20
-1.75114e-07 -2.18524e-07 2.58895e-20
2.2594e-07 8.91213e-08 -1.80949e-20
5.74827e-08 -3.55307e-08 2.82817e-21
1.05626e-07 -2.62529e-07 5.70147e-21
1.24133e-07 -2.35329e-08 1.85776e-20
-1.20461e-07 -4.80602e-08 5.48194e-20
-5.23847e-09 -4.89019e-08 2.89093e-21
-2.76104e-07 3.83413e-08 -5.88347e-20
2.90093e-08 2.42214e-07 1.80749e-20
1.88892e-07 4.40788e-08 -2.06306e-20
-2.14565e-07 -9.60383e-08 -3.56084e-20
-1.05504e-07 2.70528e-07 6.91885e-20
-2.41146e-08 -2.35981e-07 9.7879e-20
6.23946e-08 3.04524e-08 1.02429e-20
-4.04942e-08 1.14135e-07 7.86172e-20
-1.92949e-07 1.38385e-07 -2.30534e-20
2.47797e-07 1.24989e-07 -3.32808e-20
-1.12817e-07 -3.54427e-08 5.28539e-21
-2.7355e-08 -1.16177e-07 1.59828e-20
1.89364e-07 2.20119e-07 5.31659e-20
-4.45236e-08 -2.01963e-08 1.14384e-19
6.22622e-07 -4.47696e-07 3.28017e-22
1.31868e-07 -9.22586e-08 2.37018e-20
1.07678e-07 5.27672e-07 2.22823e-21
1.39047e-07 -1.33675e-07 2.79057e-21
-3.00586e-07 1.14472e-06 9.48472e-21
-3.02328e-07 -1.13356e-06 2.07317e-21
7.42788e-07 9.76359e-07 -4.48927e-21
7.33574e-07 -9.76097e-07 -6.47465e-20
1.2159e-06 -4.7395e-10 5.56727e-20
-1.04815e-06 4.21691e-07 1.40698e-19
-1.03078e-06 -4.26276e-07 2.52144e-20
5.01369e-08 2.71998e-08 -1.85437e-20
3.21722e-08 1.5621e-08 3.99327e-20
9.34404e-08 1.25844e-08 2.61787e-20
1.64962e-07 8.81608e-08 -1.78032e-20
4.89336e-08 1.94918e-07 -5.91628e-20
-1.76849e-07 -1.51938e-07 -2.04046e-20
8.90659e-08 -8.21019e-08 2.51765e-21
1.90022e-07 1.525e-07 -2.31436e-20
-4.39442e-08 2.39904e-07 -2.56329e-20
3.12037e-08 -1.53262e-08 -1.01994e-19
4.47241e-08 -2.30224e-07 8.00382e-20
5.84441e-08 3.94057e-08 -6.65489e-20
3.42724e-07 1.2006e-07 2.13976e-21
7.68782e-09 2.46765e-08 3.48621e-21
1.32468e-07 4.3358e-08 -1.53885e-20
-1.63948e-07 9.06896e-08 -4.13154e-20
-2.24464e-07 7.76523e-08 -1.27573e-20
4.44495e-08 -3.04524e-08 -2.15302e-20
-1.43316e-07 -6.63198e-08 1.30867e-20
-1.57464e-07 -9.32689e-08 2.05088e-20
-1.3802e-08 -1.58074e-07 6.00957e-20
6.22829e-10 -1.81548e-07 8.02508e-20
-1.99882e-07 -8.64052e-09 3.60868e-20
2.96661e-07 -4.60609e-08 6.59991e-20
1.6005e-07 9.86381e-08 4.10977e-20
-1.32444e-07 9.03493e-08 -2.37293e-20
-5.97228e-08 2.92374e-08 -1.04724e-20
1.49382e-07 -1.3385e-07 -8.9913e-20
-1.12237e-07 1.74757e-07 5.13558e-20
-1.38257e-07 -1.45638e-07 1.08014e-20
-1.31021e-08 1.90358e-07 2.36008e-21
-2.84793e-08 1.60665e-07 2.33805e-20
4.69492e-09 -1.16644e-07 -2.86812e-20
6.01737e-08 -1.94486e-07 4.93857e-20
-9.83584e-08 -6.31213e-08 7.06335e-20
1.36269e-07 -3.88624e-08 -3.85513e-20
3.33929e-10 1.90123e-07 -2.81838e-20
-4.11211e-09 1.21483e-07 4.50484e-20
-3.05296e-08 1.36648e-07 -2.35384e-20
2.23641e-07 -5.50378e-08 4.18755e-20
-4.69752e-08 4.48458e-08 7.86017e-21
5.06899e-08 1.90277e-07 1.03496e-20
-3.06391e-08 1.93386e-08 2.38681e-20
1.1294e-07 5.23701e-07 -2.45524e-20
-5.54096e-08 2.99101e-08 -5.01533e-21
5.87892e-08 -3.0602e-08 1.58746e-20
1.69086e-08 1.61689e-07 1.53616e-20
-1.8962e-07 4.50426e-08 -5.34601e-21
-5.82799e-09 -8.22038e-08 5.25392e-20
7.82169e-09 -7.4713e-07 1.471e-20
2.26974e-08 1.37071e-07 3.38711e-20
-1.41658e-07 1.34764e-07 5.04636e-21
2.19967e-07 8.1811e-07 -1.21876e-20
1.05685e-08 6.95909e-09 7.3321e-20
9.13117e-09 -6.63709e-09 -7.93907e-20
1.0665e-07 -8.31669e-08 -8.06179e-20
-1.51379e-07 1.35539e-07 6.14909e-20
-1.81704e-07 -5.36756e-08 1.03677e-19
-1.8672e-07 -6.13253e-08 9.80593e-20
-3.71548e-09 2.28619e-09 -4.40375e-20
-2.5655e-09 -1.2334e-09 1.36289e-20
8.72205e-08 1.77232e-08 -4.94954e-20
2.76811e-08 1.27299e-07 6.5283e-20
-3.19922e-09 1.26575e-07 1.55745e-20
-6.25781e-07 -4.54566e-07 -5.072e-20
1.11087e-07 -1.74722e-07 -7.16295e-20
5.61951e-08 2.02437e-08 3.17241e-20
-2.06087e-07 -2.21705e-08 9.83944e-20
-1.30308e-07 1.72154e-07 4.39345e-20
-1.68227e-07 7.9102e-08 -8.09751e-21
6.14368e-07 4.41435e-07 2.61389e-20
6.08077e-08 3.99695e-08 -4.24566e-20
-5.98038e-08 1.95188e-07 7.61359e-21
-1.17897e-07 -1.00982e-07 -2.32304e-20
2.93274e-08 -1.5377e-07 3.39981e-20
-9.53971e-08 -1.81504e-07 -4.6311e-20
-1.5287e-07 -1.04782e-07 8.05452e-21
1.04772e-07 -1.85811e-07 -4.82106e-21
1.2568e-07 -1.72717e-07 -2.03728e-20
-3.98314e-08 -7.79643e-07 -4.77448e-21
3.20555e-07 -5.12739e-07 3.02011e-20
1.53147e-08 -1.86667e-07 8.29262e-20
1.31638e-07 1.00211e-07 2.04622e-20
-1.18246e-07 -1.43534e-07 2.631e-20
-1.02551e-07 1.9119e-07 1.28536e-19
-6.30044e-08 1.87389e-07 2.55766e-20
1.37257e-07 1.42129e-07 6.43254e-20
6.72898e-08 -1.75274e-07 -1.27247e-20
-1.73971e-07 -4.9604e-07 -6.66787e-20
3.92139e-09 6.02831e-08 1.31293e-20
1.38956e-07 1.42985e-07 1.74477e-20
-7.49121e-08 -3.68906e-08 2.36381e-20
-6.22472e-08 3.39824e-08 -4.4768e-20
5.57001e-07 -2.44013e-07 -4.41956e-20
6.91846e-08 -1.14341e-07 2.87467e-20
-6.56661e-08 -1.12338e-07 -3.63603e-20
2.4927e-08 -2.15506e-09 -1.57602e-19
2.1529e-09 -9.44804e-09 -6.24609e-20
-6.98895e-09 -6.91456e-09 -5.20573e-20
3.06908e-08 2.01185e-08 -2.93836e-20
-9.62e-08 -1.81599e-07 -6.12086e-20
1.48037e-07 5.93699e-08 -9.34144e-20
-3.60208e-07 -3.96003e-07 -6.63061e-20
1.36139e-09 1.16126e-08 -9.22492e-20
1.34375e-09 2.07185e-09 3.01052e-20
2.59275e-09 -3.42284e-10 6.02958e-20
3.45654e-07 -6.82584e-07 2.18647e-20
-1.43697e-08 1.69255e-08 -5.27479e-21
-3.29643e-09 2.05047e-08 -1.0815e-19
-1.48848e-07 5.29136e-08 3.10613e-20
-5.14302e-09 6.04654e-08 -5.86651e-20
-3.27019e-08 9.69635e-08 7.66902e-21
6.74135e-08 2.87552e-09 -1.54876e-22
1.52034e-08 5.82922e-08 -4.72785e-20
-3.98526e-09 8.06059e-08 5.26259e-20
1.15538e-07 6.28588e-08 -6.39935e-23
8.23012e-09 7.43641e-07 2.90916e-20
-1.07495e-07 1.01713e-07 1.03292e-20
8.06035e-08 -5.41934e-08 -3.92088e-20
4.65352e-08 -4.24874e-08 -1.30483e-20
-7.62723e-07 -1.04724e-07 9.83623e-21
-2.17437e-08 8.61835e-09 2.12811e-21
-5.55382e-07 -6.56966e-07 -6.13394e-20
1.00945e-08 2.70293e-08 -6.24517e-20
9.74226e-08 1.89448e-08 -2.87696e-20
2.90034e-07 -3.76417e-08 8.46477e-20
-6.63037e-08 -1.08952e-07 3.40001e-20
1.26772e-07 3.63614e-08 -1.3142e-20
6.61268e-10 -3.22659e-08 2.97828e-20
-7.14991e-08 8.27214e-08 -5.49616e-20
-2.73441e-08 -1.73964e-08 5.32417e-20
-6.44427e-08 1.30923e-07 2.35023e-20
1.16582e-08 8.26375e-08 3.96965e-20
1.89488e-08 1.38894e-08 2.35277e-21
1.88053e-08 -1.33429e-08 -6.74337e-20
-5.1706e-07 -1.40857e-07 -3.9239e-20
5.69658e-08 2.12582e-08 -3.66733e-20
-6.85814e-08 1.32737e-06 8.66637e-20
-4.77142e-09 -1.36373e-06 -7.44874e-20
6.71253e-07 1.1491e-06 7.23562e-21
-6.96739e-08 5.5272e-08 2.88834e-20
-3.55687e-07 7.15816e-07 1.08546e-19
6.75108e-07 -1.1091e-06 3.62532e-20
-1.11643e-07 -1.80694e-07 4.162e-20
1.02518e-06 8.98292e-07 2.82272e-20
1.20557e-08 -2.13822e-08 3.00209e-20
-1.25615e-08 -2.16663e-08 -3.73882e-20
1.07464e-06 -8.78293e-07 -1.90284e-20
-6.58559e-08 1.29512e-07 3.86314e-20
-6.75043e-07 -4.29915e-07 -4.657e-20
-5.69238e-07 -1.18645e-06 9.97052e-21
-3.18828e-07 -7.33473e-07 -5.14807e-20
-5.8519e-07 1.2062e-06 9.15329e-20
-1.38293e-07 8.17404e-07 2.43597e-20
-9.74745e-10 2.86304e-08 -8.04706e-21
-3.55079e-07 4.57155e-07 6.60467e-20
-3.39944e-07 -6.95765e-07 -5.55415e-20
1.32191e-06 2.30678e-07 6.20964e-20
-1.03377e-07 8.78865e-08 7.64968e-21
-2.42976e-09 5.80685e-08 -1.0405e-20
-6.39428e-07 4.62902e-07 3.43928e-20
-1.14646e-07 6.11891e-08 4.67653e-20
1.30888e-06 -2.05178e-07 7.09872e-21
-8.75028e-08 5.87383e-08 3.12703e-20
6.37394e-08 -1.3182e-07 -4.40604e-20
-1.01858e-06 -7.73619e-07 -2.63276e-20
-3.43458e-07 7.35909e-07 9.46769e-20
-1.04326e-06 7.67937e-07 1.51245e-19
3.04827e-07 6.8004e-07 3.61181e-20
-1.12232e-07 8.92154e-08 -2.34436e-20
-3.11478e-08 1.76415e-08 -5.9918e-21
-1.70681e-09 -2.7089e-09 -1.26718e-19
4.27598e-10 -2.34017e-09 -5.76188e-20
8.53193e-09 8.95941e-08 -5.38699e-21
-2.50284e-09 2.71325e-09 -6.32804e-20
1.3196e-09 3.36032e-09 -6.36934e-20
2.25758e-09 -9.6833e-10 -4.41893e-20
-1.33539e-09 1.06149e-08 -7.09045e-20
-2.34555e-07 5.11748e-07 9.31666e-20
-1.76457e-08 1.26673e-08 7.88156e-21
3.04127e-08 -1.91587e-08 -1.1479e-19
2.98106e-08 -1.72684e-08 -9.95683e-20
8.58711e-08 3.35126e-08 -3.37821e-20
-8.09355e-10 -9.08502e-09 -1.64492e-20
-8.11216e-09 -4.11126e-09 -7.95784e-20
2.97931e-08 1.73795e-08 4.01045e-20
7.5801e-07 -1.46089e-07 9.61917e-20
-9.82177e-08 -1.25193e-07 -4.90226e-20
-6.6365e-07 4.6268e-07 3.81804e-20
-5.94198e-07 6.77714e-07 4.12698e-20
8.00954e-07 -2.89254e-07 -1.20324e-20
-3.84614e-09 -1.11509e-08 -1.17002e-19
-4.22346e-09 1.14543e-08 -8.98378e-20
-1.25897e-08 2.15957e-09 -1.16948e-19
-8.25327e-09 8.42167e-09 -2.92566e-21
-1.14128e-08 -2.41567e-09 -3.00842e-20
2.11603e-09 2.68033e-09 -1.75599e-19
1.22503e-08 -3.01215e-09 -1.3298e-19
5.16696e-09 -3.63155e-09 -8.79125e-20
-3.61129e-09 -2.60828e-09 2.46164e-20
7.83279e-09 -8.05729e-09 -2.69927e-20
7.87623e-09 8.29718e-09 -1.66221e-20
-3.63332e-09 2.29316e-09 -4.15939e-20
3.98842e-09 -7.94776e-10 1.93434e-20
6.61282e-09 3.66212e-09 1.06628e-19
1.43167e-08 5.10757e-09 -4.39951e-20
SCALARS rr_necrosis float
LOOKUP_TABLE default
0
0
0
0
0
0
0
0
0
0
0
0
0
0
0
0
0
0
0
0
0
0
0
0
0
0
0
0
0
0
0
0
0
0
0
0
0
0
0
0
0
0
0
0
0
0
0
0
0
0
0
0
0
0
0
0
0
0
0
0
0
0
0
0
0
0
0
0
0
0
0
0
0
0
0
0
0
0
0
0
0
0
0
0
0
0
0
0
0
0
0
0
0
0
0
0
0
0
0
0
0
0
0
0
0
0
0
0
0
0
0
0
0
0
0
0
0
0
0
0
0
0
0
0
0
0
0
0
0
0
0
0
0
0
0
0
0
0
0
0
0
0
0
0
0
0
0
0
0
0
0
0
0
0
0
0
0
0
0
0
0
0
0
0
0
0
0
0
0
0
0
0
0
0
0
0
0
0
0
0
0
0
0
0
0
0
0
0
0
0
0
0
0
0
0
0
0
0
0
0
0
0
0
0
0
0
0
0
0
0
0
0
0
0
0
0
0
0
0
0
0
0
0
0
0
0
0
0
0
0
0
0
0
0
0
0
0
0
0
0
0
0
0
0
0
0
0
0
0
0
0
0
0
0
0
0
0
0
0
0
0
0
0
0
0
0
0
0
0
0
0
0
0
0
0
0
0
0
0
0
0
0
0
0
0
0
0
0
0
0
0
0
0
0
0
0
0
0
0
0
0
0
0
0
0
0
0
0
0
0
0
0
0
0
0
0
0
0
0
0
0
0
0
0
0
0
0
0
0
0
0
0
0
0
0
0
0
0
0
0
0
0
0
0
0
0
0
0
0
0
0
0
0
0
0
0
0
0
0
0
0
0
0
0
0
0
0
0
0
0
0
0
0
0
0
0
0
0
0
0
0
0
0
0
0
0
0
0
0
0
0
0
0
0
0
0
0
0
0
0
0
0
0
0
0
0
0
0
0
0
0
0
0
0
0
0
0
0
0
0
0
0
0
0
0
0
0
0
0
0
0
0
0
0
0
0
0
0
0
0
0
0
0
0
0
0
0
0
0
0
0
0
0
0
0
0
0
0
0
0
0
0
0
0
0
0
0
0
0
0
0
0
0
0
0
0
0
0
0
0
0
0
0
0
0
0
0
0
0
0
0
0
0
0
0
0
0
0
0
0
0
0
0
0
0
0
0
0
0
0
0
0
0
0
0
0
0
0
0
0
0
0
0
0
0
0
0
0
0
0
0
0
0
0
0
0
0
0
0
0
0
0
0
0
0
0
0
0
0
0
0
0
0
0
0
0
0
0
0
0
0
0
0
SCALARS rr_protein float
LOOKUP_TABLE default
1
1
1
1
1
1
1
1
1
1
1
1
1
1
1
1
1
1
1
1
1
1
1
1
1
1
1
1
1
1
1
1
1
1
1
1
1
1
1
1
1
1
1
1
1
1
1
1
1
1
1
1
1
1
1
1
1
1
1
1
1
1
1
1
1
1
1
1
1
1
1
1
1
1
1
1
1
1
1
1
1
1
1
1
1
1
1
1
1
1
1
1
1
1
1
1
1
1
1
1
1
1
1
1
1
1
1
1
1
1
1
1
1
1
1
1
1
1
1
1
1
1
1
1
1
1
1
1
1
1
1
1
1
1
1
1
1
1
1
1
1
1
1
1
1
1
1
1
1
1
1
1
1
1
1
1
1
1
1
1
1
1
1
1
1
1
1
1
1
1
1
1
1
1
1
1
1
1
1
1
1
1
1
1
1
1
1
1
1
1
1
1
1
1
1
1
1
1
1
1
1
1
1
1
1
1
1
1
1
1
1
1
1
1
1
1
1
1
1
1
1
1
1
1
1
1
1
1
1
1
1
1
1
1
1
1
1
1
1
1
1
1
1
1
1
1
1
1
1
1
1
1
1
1
1
1
1
1
1
1
1
1
1
1
1
1
1
1
1
1
1
1
1
1
1
1
1
1
1
1
1
1
1
1
1
1
1
1
1
1
1
1
1
1
1
1
1
1
1
1
1
1
1
1
1
1
1
1
1
1
1
1
1
1
1
1
1
1
1
1
1
1
1
1
1
1
1
1
1
1
1
1
1
1
1
1
1
1
1
1
1
1
1
1
1
1
1
1
1
1
1
1
1
1
1
1
1
1
1
1
1
1
1
1
1
1
1
1
1
1
1
1
1
1
1
1
1
1
1
1
1
1
1
1
1
1
1
1
1
1
1
1
1
1
1
1
1
1
1
1
1
1
1
1
1
1
1
1
1
1
1
1
1
1
1
1
1
1
1
1
1
1
1
1
1
1
1
1
1
1
1
1
1
1
1
1
1
1
1
1
1
1
1
1
1
1
1
1
1
1
1
1
1
1
1
1
1
1
1
1
1
1
1
1
1
1
1
1
1
1
1
1
1
1
1
1
1
1
1
1
1
1
1
1
1
1
1
1
1
1
1
1
1
1
1
1
1
1
1
1
1
1
1
1
1
1
1
1
1
1
1
1
1
1
1
1
1
1
1
1
1
1
1
1
1
1
1
1
1
1
1
1
1
1
1
1
1
1
1
1
1
1
1
1
1
1
1
1
1
1
1
1
1
1
1
1
1
1
1
1
1
1
1
SCALARS rr_(S_ext) float
LOOKUP_TABLE default
0.986994
0.986927
0.986937
0.986926
0.986928
0.986937
0.986993
0.986935
0.986943
0.986931
0.986962
0.986935
0.986936
0.986931
0.986924
0.986937
0.986927
0.986932
0.986942
0.986937
0.986941
0.986914
0.986937
0.986937
0.986937
0.98693
0.98697
0.986936
0.986956
0.986918
0.986937
0.986955
0.986973
0.98692
0.986922
0.98692
0.986915
0.986924
0.986937
0.986973
0.986955
0.986915
0.986915
0.986937
0.98696
0.986956
0.986942
0.986943
0.986937
0.986956
0.986956
0.986953
0.986924
0.986955
0.986925
0.98697
0.986923
0.986953
0.986922
0.986936
0.986926
0.986928
0.986974
0.98693
0.986928
0.986932
0.986926
0.986931
0.986937
0.986926
0.986924
0.986924
0.986956
0.986932
0.986938
0.986971
0.986929
0.986932
0.986931
0.986948
0.986963
0.986927
0.986926
0.986962
0.986958
0.986965
0.986936
0.986933
0.98696
0.986916
0.986953
0.986916
0.986926
0.986933
0.986954
0.986954
0.986965
0.98693
0.986929
0.986937
0.986949
0.986958
0.986961
0.98693
0.986931
0.98693
0.986927
0.986938
0.986962
0.986923
0.986936
0.986961
0.98696
0.986931
0.98693
0.986955
0.986925
0.986966
0.986925
0.986954
0.986944
0.986924
0.986926
0.986929
0.986924
0.986924
0.986925
0.98693
0.986965
0.986953
0.986922
0.986926
0.986926
0.986926
0.986959
0.986922
0.986969
0.986937
0.986926
0.986921
0.986957
0.986935
0.986945
0.98693
0.986967
0.98693
0.986935
0.986939
0.986937
0.986948
0.986941
0.986926
0.986954
0.986937
0.98693
0.986926
0.986932
0.986959
0.986958
0.986933
0.986942
0.986954
0.986962
0.986954
0.986957
0.98693
0.986958
0.986959
0.986955
0.986957
0.986926
0.986953
0.986955
0.986931
0.986954
0.986927
0.986926
0.986935
0.986926
0.986933
0.986957
0.98693
0.98693
0.986957
0.986932
0.986956
0.986929
0.986929
0.986928
0.98693
0.986932
0.986965
0.986953
0.986954
0.986926
0.986931
0.986931
0.986926
0.986926
0.986933
0.986926
0.986943
0.986949
0.986926
0.986957
0.986926
0.986933
0.986957
0.986928
0.986926
0.98693
0.986934
0.986931
0.986926
0.986947
0.986934
0.986949
0.986929
0.986923
0.986923
0.986922
0.986923
0.986923
0.986923
0.986931
0.986924
0.986923
0.986923
0.986924
0.986926
0.986925
0.986948
0.98693
0.986923
0.986944
0.986925
0.986925
0.986923
0.986948
0.986922
0.98693
0.986948
0.986927
0.986949
0.986927
0.986921
0.986948
0.986949
0.986963
0.986956
0.986926
0.986967
0.986936
0.986949
0.986942
0.986923
0.986923
0.986917
0.986923
0.98697
0.986948
0.986922
0.986935
0.986949
0.986923
0.986946
0.986917
0.986949
0.986923
0.98693
0.986931
0.986924
0.986933
0.986926
0.986935
0.986964
0.986965
0.986928
0.98694
0.986935
0.986951
0.986927
0.986932
0.986948
0.986933
0.986949
0.986935
0.98695
0.986948
0.986916
0.986925
0.986922
0.986922
0.986931
0.98695
0.98692
0.98693
0.986942
0.986949
0.986951
0.986927
0.986948
0.986928
0.986951
0.98696
0.986949
0.986967
0.986929
0.986948
0.986915
0.98695
0.986929
0.986948
0.98693
0.98695
0.986938
0.986979
0.986935
0.986948
0.986924
0.986947
0.986941
0.986933
0.986926
0.98695
0.986949
0.986945
0.98693
0.986949
0.986936
0.986937
0.986927
0.98695
0.986946
0.986942
0.986946
0.986949
0.986945
0.986929
0.986935
0.986946
0.986948
0.986935
0.986935
0.986949
0.986927
0.986964
0.986939
0.986963
0.986942
0.986955
0.986956
0.986954
0.986954
0.986951
0.98696
0.98696
0.986929
0.986923
0.986933
0.986941
0.986942
0.986946
0.986935
0.986945
0.986946
0.986923
0.986945
0.98693
0.986953
0.986923
0.986937
0.986942
0.986946
0.986929
0.986939
0.986941
0.986939
0.986941
0.986943
0.986949
0.986941
0.986939
0.986929
0.986942
0.986943
0.986943
0.986941
0.986939
0.986934
0.986942
0.986935
0.986937
0.986941
0.986935
0.986937
0.986944
0.986929
0.986942
0.986923
0.98696
0.986929
0.98693
0.986939
0.986943
0.986931
0.986966
0.986936
0.986942
0.986979
0.986918
0.986919
0.986937
0.986943
0.986942
0.986943
0.986918
0.986916
0.986932
0.986936
0.986935
0.98697
0.986943
0.986929
0.986944
0.986944
0.986942
0.986963
0.98693
0.986943
0.986939
0.986939
0.986943
0.986942
0.986943
0.986944
0.986972
0.986966
0.986941
0.986939
0.986942
0.986944
0.986942
0.986942
0.986941
0.986962
0.986927
0.986942
0.986931
0.98693
0.986962
0.986936
0.986936
0.986927
0.986912
0.986912
0.986924
0.986943
0.986939
0.986962
0.986912
0.986914
0.986914
0.986964
0.986923
0.986917
0.986939
0.986928
0.986933
0.986929
0.986927
0.98693
0.986936
0.986965
0.986938
0.986933
0.986929
0.986972
0.986919
0.986983
0.986927
0.986933
0.986949
0.986935
0.986936
0.986922
0.986934
0.986922
0.986938
0.986931
0.986919
0.98692
0.986964
0.986929
0.986993
0.986996
0.986991
0.986932
0.98697
0.986989
0.986944
0.986991
0.986926
0.986926
0.986993
0.986938
0.986976
0.986997
0.986973
0.986997
0.986973
0.986923
0.986964
0.986969
0.986991
0.986937
0.986928
0.986974
0.986936
0.986987
0.986933
0.986938
0.986996
0.986973
0.986995
0.986963
0.986938
0.986924
0.986911
0.986911
0.986932
0.986911
0.986911
0.986912
0.986913
0.986963
0.986919
0.986926
0.986925
0.986933
0.986914
0.986914
0.986926
0.986962
0.986939
0.986971
0.986985
0.986978
0.986912
0.986912
0.986913
0.986913
0.986912
0.986914
0.986917
0.986915
0.986916
0.986915
0.986915
0.986916
0.986913
0.986914
0.986915
SCALARS rr_(P_ext) float
LOOKUP_TABLE default
0.0212337
0.0211336
0.0211424
0.0211353
0.0211084
0.0211426
0.021234
0.0211366
0.0211508
0.021134
0.0212271
0.0211366
0.0211387
0.0211327
0.0211176
0.021141
0.0211291
0.0211377
0.0211552
0.0211449
0.0211463
0.0210739
0.0211462
0.0211448
0.0211451
0.021136
0.0212132
0.0211413
0.0211826
0.0210942
0.021139
0.0211823
0.0212146
0.0211002
0.0210972
0.0211003
0.0210931
0.0210985
0.0211392
0.0212143
0.0211828
0.0210926
0.0210927
0.021139
0.021205
0.0211812
0.0211532
0.0211492
0.0211422
0.0211888
0.0211852
0.0211724
0.0211097
0.0211721
0.0211106
0.021202
0.021097
0.0211721
0.0210971
0.0211444
0.0211294
0.0211212
0.0212068
0.0211217
0.021121
0.0211292
0.0211291
0.021136
0.0211456
0.0211333
0.02111
0.02111
0.0211829
0.021126
0.0211421
0.0212189
0.0211158
0.0211292
0.021136
0.0211701
0.0211908
0.0211052
0.0211252
0.0211936
0.0211796
0.0212039
0.0211413
0.0211276
0.0212049
0.0210788
0.0211723
0.021079
0.0211152
0.0211303
0.0211714
0.0211861
0.0211907
0.0211342
0.0211159
0.0211396
0.021161
0.0211773
0.0211938
0.0211368
0.021135
0.0211348
0.021124
0.0211404
0.021194
0.0211321
0.0211443
0.0212018
0.0211973
0.0211373
0.0211353
0.0211718
0.0210971
0.0211911
0.0210974
0.0211715
0.0211575
0.0211187
0.0211336
0.0211273
0.0211314
0.0211168
0.0211006
0.0211342
0.0211907
0.0211714
0.0211099
0.0211343
0.0211257
0.0211339
0.0211772
0.0210969
0.0211962
0.021138
0.0211252
0.021097
0.021176
0.0211337
0.021156
0.0211339
0.0211915
0.0211357
0.0211352
0.0211422
0.0211426
0.021164
0.0211494
0.0211336
0.0211826
0.0211385
0.021134
0.0211342
0.0211312
0.0211751
0.0211748
0.0211387
0.021149
0.0211818
0.0212025
0.0211852
0.0211751
0.0211347
0.0211751
0.0211753
0.0211825
0.021175
0.0211149
0.0211721
0.0211853
0.0211303
0.0211719
0.0211244
0.021115
0.0211367
0.0211094
0.0211347
0.0211825
0.0211343
0.0211344
0.0211759
0.0211274
0.021186
0.0211274
0.0211239
0.0211146
0.0211341
0.0211273
0.0211896
0.0211719
0.0211824
0.021134
0.0211381
0.0211375
0.0211258
0.0211338
0.0211295
0.0211336
0.021154
0.0211694
0.0211259
0.0211823
0.0211253
0.0211293
0.0211778
0.0211199
0.0211334
0.021119
0.0211322
0.0211353
0.0211251
0.0211636
0.0211314
0.0211684
0.021124
0.0211316
0.0211316
0.0211327
0.0211323
0.0211322
0.0211323
0.0211333
0.0211183
0.0211186
0.0211183
0.0211182
0.0211104
0.0211103
0.0211644
0.021133
0.0211362
0.0211496
0.0211176
0.0211172
0.0211359
0.0211691
0.0211365
0.0211341
0.0211632
0.0211198
0.0211637
0.0211249
0.0211369
0.021163
0.021168
0.0211911
0.0211903
0.0211252
0.021193
0.0211397
0.0211685
0.0211546
0.0211367
0.0211318
0.0210922
0.021132
0.0211937
0.0211684
0.0211362
0.0211366
0.0211696
0.0211319
0.0211555
0.0210922
0.0211682
0.0211313
0.0211279
0.0211376
0.0211178
0.0211278
0.0211098
0.0211387
0.0212003
0.021204
0.0211126
0.0211461
0.0211366
0.0211637
0.0211196
0.0211304
0.0211683
0.0211301
0.0211607
0.0211348
0.0211606
0.0211689
0.0210845
0.021114
0.0211173
0.0211175
0.0211333
0.0211599
0.0211013
0.0211283
0.0211487
0.0211595
0.0211627
0.0211126
0.0211633
0.0211152
0.0211616
0.0212047
0.0211601
0.021192
0.0211237
0.0211632
0.0210846
0.0211616
0.021126
0.0211644
0.0211269
0.0211618
0.0211413
0.0212085
0.0211433
0.0211635
0.021113
0.021164
0.0211486
0.0211269
0.0211333
0.0211617
0.02116
0.0211557
0.0211239
0.0211601
0.0211366
0.0211413
0.02111
0.02116
0.0211562
0.0211472
0.0211552
0.021161
0.0211549
0.0211208
0.0211369
0.0211558
0.0211637
0.0211341
0.0211339
0.0211605
0.0211101
0.0212306
0.0211416
0.0211909
0.0211467
0.0212836
0.0212835
0.0212828
0.0212831
0.0212827
0.0212838
0.0212834
0.0211233
0.021104
0.0211384
0.0211491
0.0211547
0.0211552
0.0211348
0.0211559
0.0211564
0.0211037
0.0211552
0.0211193
0.0211723
0.0211198
0.0211428
0.0211493
0.0211556
0.0211124
0.0211416
0.0211486
0.0211415
0.0211485
0.021156
0.0211705
0.0211493
0.0211425
0.021119
0.0211538
0.0211569
0.0211542
0.0211499
0.0211428
0.0211346
0.0211543
0.0211348
0.0211436
0.0211496
0.0211364
0.0211434
0.0211555
0.021127
0.0211476
0.0211048
0.0212046
0.0211234
0.0211209
0.0211427
0.0211474
0.0211294
0.0212294
0.0211427
0.0211478
0.0212079
0.0210852
0.0210849
0.0211417
0.0211548
0.0211466
0.0211537
0.0210699
0.02107
0.0211363
0.0211363
0.0211367
0.0212297
0.0211564
0.0211256
0.0211496
0.0211505
0.0211497
0.0212312
0.0211275
0.0211553
0.021142
0.0211419
0.0211506
0.0211487
0.0211506
0.0211498
0.0212137
0.0211918
0.0211488
0.0211418
0.0211475
0.021151
0.0211482
0.021147
0.0211475
0.0212046
0.0211175
0.0211543
0.0211297
0.021127
0.0212052
0.0211423
0.0211432
0.02111
0.0210858
0.0210858
0.021114
0.0211566
0.0211422
0.0212063
0.0210878
0.0210722
0.0210723
0.0212323
0.0210985
0.0210941
0.0211432
0.0211157
0.0211385
0.0211334
0.0211267
0.0211243
0.0211366
0.0212296
0.0211408
0.0211304
0.0211258
0.0212195
0.0210974
0.0212096
0.0211261
0.0211331
0.0211622
0.0211391
0.021137
0.0211091
0.0211357
0.0211092
0.0211418
0.0211257
0.0210957
0.0210951
0.021206
0.0211321
0.0212356
0.0212337
0.0212378
0.0211276
0.0212308
0.0212398
0.0211509
0.0212367
0.0211049
0.021105
0.0212351
0.021147
0.0212134
0.0212361
0.0212153
0.0212365
0.0212153
0.0210979
0.0212096
0.0212304
0.0212353
0.0211374
0.0211221
0.0212168
0.0211372
0.0212391
0.021134
0.0211464
0.0212372
0.0212183
0.0212387
0.0212323
0.0211436
0.0211033
0.021074
0.0210753
0.0211323
0.0210742
0.0210743
0.0210748
0.0210825
0.0212077
0.0210964
0.0211134
0.0211031
0.0211335
0.0210805
0.0210805
0.0211014
0.0212334
0.0211473
0.0212322
0.0212112
0.0212105
0.0210889
0.0210892
0.0210899
0.0210897
0.021089
0.0210757
0.0210897
0.0210804
0.0210737
0.0210887
0.0210886
0.0210734
0.0210754
0.0210801
0.0210904
SCALARS rr_(S) float
LOOKUP_TABLE default
0.967005
0.96689
0.966904
0.96689
0.966878
0.966904
0.967005
0.966899
0.966914
0.966893
0.966971
0.966899
0.966901
0.966894
0.966879
0.966903
0.966888
0.966897
0.966915
0.966905
0.96691
0.966848
0.966906
0.966905
0.966905
0.966894
0.966972
0.966902
0.966942
0.966862
0.966902
0.966941
0.966976
0.966867
0.966868
0.966867
0.966859
0.966869
0.966902
0.966976
0.966942
0.966858
0.966858
0.966902
0.966958
0.966942
0.966914
0.966913
0.966903
0.966946
0.966944
0.966934
0.966875
0.966936
0.966876
0.966966
0.966868
0.966935
0.966868
0.966904
0.966887
0.966885
0.966973
0.966887
0.966884
0.966893
0.966886
0.966895
0.966906
0.966889
0.966876
0.966876
0.966943
0.966891
0.966904
0.966976
0.966883
0.966893
0.966895
0.966929
0.966954
0.966876
0.966885
0.966954
0.966943
0.966962
0.966902
0.966893
0.966958
0.966853
0.966935
0.966853
0.96688
0.966894
0.966935
0.966943
0.966955
0.966893
0.966883
0.966902
0.966924
0.966942
0.966953
0.966894
0.966894
0.966894
0.966885
0.966904
0.966954
0.966885
0.966904
0.966957
0.966955
0.966895
0.966894
0.966936
0.96687
0.966957
0.966871
0.966935
0.966918
0.966879
0.966889
0.966889
0.966886
0.966878
0.966872
0.966893
0.966955
0.966934
0.966874
0.96689
0.966885
0.966889
0.966943
0.966867
0.966962
0.966901
0.966885
0.966867
0.966941
0.966898
0.966919
0.966893
0.966958
0.966894
0.966898
0.966906
0.966904
0.966926
0.966912
0.966889
0.96694
0.966901
0.966893
0.966889
0.966893
0.966941
0.96694
0.966898
0.966912
0.96694
0.966959
0.966942
0.96694
0.966894
0.966941
0.966942
0.966941
0.96694
0.96688
0.966935
0.966943
0.966893
0.966935
0.966885
0.96688
0.9669
0.966877
0.966896
0.966943
0.966893
0.966893
0.96694
0.966892
0.966944
0.966889
0.966887
0.966881
0.966893
0.966892
0.966954
0.966934
0.966941
0.966889
0.966896
0.966895
0.966885
0.966889
0.966893
0.966889
0.966915
0.966929
0.966885
0.966944
0.966885
0.966894
0.966941
0.966885
0.966889
0.966886
0.966896
0.966895
0.966885
0.966925
0.966895
0.966929
0.966887
0.966885
0.966885
0.966885
0.966886
0.966886
0.966886
0.966894
0.966879
0.966879
0.966878
0.966879
0.966877
0.966876
0.966925
0.966892
0.966887
0.966914
0.96688
0.96688
0.966887
0.966928
0.966887
0.966893
0.966925
0.966883
0.966926
0.966886
0.966886
0.966924
0.966928
0.966954
0.966947
0.966885
0.966959
0.966902
0.966929
0.966915
0.966887
0.966885
0.96686
0.966885
0.966962
0.966928
0.966887
0.966899
0.966929
0.966885
0.966919
0.96686
0.966928
0.966885
0.96689
0.966895
0.96688
0.966893
0.966877
0.9669
0.966959
0.966962
0.96688
0.966908
0.966899
0.966928
0.966883
0.966893
0.966928
0.966894
0.966924
0.966899
0.966925
0.966928
0.966855
0.966879
0.966877
0.966878
0.966893
0.966925
0.966868
0.96689
0.966912
0.966924
0.966927
0.966879
0.966925
0.966882
0.966927
0.966958
0.966924
0.966958
0.966886
0.966925
0.966855
0.966926
0.966888
0.966926
0.966889
0.966926
0.966904
0.966979
0.966903
0.966926
0.966877
0.966925
0.966911
0.966892
0.966889
0.966926
0.966925
0.966919
0.966888
0.966924
0.9669
0.966903
0.966878
0.966925
0.966919
0.966911
0.966919
0.966925
0.966918
0.966886
0.966899
0.966919
0.966925
0.966898
0.966897
0.966924
0.966878
0.966975
0.966905
0.966954
0.96691
0.966994
0.966995
0.966993
0.966993
0.96699
0.966999
0.966999
0.966887
0.966871
0.966898
0.966911
0.966915
0.966919
0.966899
0.966919
0.966919
0.966872
0.966918
0.966886
0.966934
0.966879
0.966904
0.966912
0.966919
0.966881
0.966905
0.966911
0.966905
0.966911
0.966917
0.96693
0.966911
0.966906
0.966884
0.966915
0.966917
0.966915
0.966912
0.966906
0.966898
0.966915
0.966898
0.966905
0.966911
0.966899
0.966904
0.966917
0.966888
0.966911
0.966872
0.966958
0.966887
0.966886
0.966906
0.966912
0.966892
0.966976
0.966904
0.966912
0.966977
0.966858
0.966859
0.966903
0.966916
0.966911
0.966915
0.96685
0.966849
0.966896
0.966899
0.966899
0.966981
0.966916
0.966888
0.966914
0.966915
0.966912
0.966974
0.96689
0.966916
0.966905
0.966905
0.966914
0.966911
0.966914
0.966914
0.966975
0.966958
0.966911
0.966906
0.966911
0.966915
0.966912
0.966911
0.966911
0.96696
0.966882
0.966915
0.966892
0.96689
0.966961
0.966903
0.966903
0.966878
0.966852
0.966852
0.966878
0.966917
0.966905
0.966961
0.966854
0.966847
0.966847
0.966976
0.966869
0.966861
0.966906
0.966882
0.966898
0.966892
0.966887
0.966888
0.9669
0.966975
0.966904
0.966894
0.966888
0.966977
0.966864
0.966983
0.966886
0.966896
0.966925
0.966901
0.966901
0.966873
0.966897
0.966873
0.966904
0.966889
0.966864
0.966865
0.966963
0.966891
0.967006
0.967008
0.967004
0.966891
0.966981
0.967004
0.966915
0.967004
0.966875
0.966875
0.967006
0.966907
0.966978
0.96701
0.966976
0.96701
0.966976
0.966868
0.966964
0.96698
0.967004
0.966901
0.966885
0.966977
0.966901
0.967001
0.966896
0.966907
0.96701
0.966977
0.967009
0.966975
0.966905
0.966872
0.966846
0.966847
0.966894
0.966846
0.966846
0.966847
0.966852
0.966963
0.966864
0.966879
0.966873
0.966895
0.966852
0.966852
0.966873
0.966974
0.966908
0.966983
0.966986
0.966978
0.966854
0.966854
0.966855
0.966855
0.966854
0.96685
0.966859
0.966853
0.96685
0.966857
0.966856
0.96685
0.966849
0.966852
0.966857
SCALARS rr_(P) float
LOOKUP_TABLE default
0.024244
0.0241845
0.0241899
0.0241855
0.0241693
0.0241899
0.0242442
0.0241864
0.0241949
0.0241847
0.0242398
0.0241864
0.0241876
0.024184
0.0241748
0.024189
0.0241817
0.024187
0.0241975
0.0241913
0.0241922
0.0241482
0.024192
0.0241912
0.0241914
0.024186
0.0242318
0.0241891
0.0242137
0.0241605
0.0241878
0.0242135
0.0242326
0.0241642
0.0241625
0.0241643
0.0241598
0.0241633
0.0241879
0.0242325
0.0242138
0.0241596
0.0241596
0.0241878
0.0242269
0.0242129
0.0241963
0.0241939
0.0241897
0.0242173
0.0242152
0.0242077
0.0241701
0.0242076
0.0241706
0.0242252
0.0241624
0.0242075
0.0241624
0.024191
0.0241819
0.024177
0.0242281
0.0241774
0.0241769
0.0241819
0.0241817
0.024186
0.0241917
0.0241842
0.0241702
0.0241702
0.0242138
0.02418
0.0241897
0.0242351
0.0241738
0.0241819
0.024186
0.0242063
0.0242186
0.0241674
0.0241794
0.0242202
0.024212
0.0242263
0.0241892
0.0241809
0.0242268
0.0241511
0.0242076
0.0241512
0.0241734
0.0241825
0.0242071
0.0242157
0.0242185
0.0241849
0.0241739
0.0241881
0.0242009
0.0242106
0.0242203
0.0241864
0.0241854
0.0241852
0.0241787
0.0241886
0.0242204
0.0241835
0.0241909
0.024225
0.0242223
0.0241868
0.0241855
0.0242074
0.0241624
0.0242188
0.0241626
0.0242072
0.0241988
0.0241755
0.0241845
0.0241807
0.024183
0.0241743
0.0241645
0.0241849
0.0242185
0.0242071
0.0241701
0.0241849
0.0241797
0.0241846
0.0242106
0.0241623
0.0242218
0.0241872
0.0241794
0.0241623
0.0242099
0.0241846
0.0241979
0.0241847
0.024219
0.0241858
0.0241855
0.0241897
0.0241899
0.0242027
0.024194
0.0241845
0.0242136
0.0241875
0.0241847
0.0241848
0.0241831
0.0242093
0.0242091
0.0241876
0.0241938
0.0242132
0.0242254
0.0242152
0.0242093
0.0241852
0.0242094
0.0242095
0.0242136
0.0242092
0.0241732
0.0242075
0.0242153
0.0241826
0.0242074
0.0241789
0.0241733
0.0241864
0.0241699
0.0241852
0.0242136
0.0241849
0.024185
0.0242098
0.0241808
0.0242157
0.0241808
0.0241787
0.024173
0.0241849
0.0241807
0.0242179
0.0242074
0.0242136
0.0241847
0.0241872
0.0241869
0.0241798
0.0241845
0.0241821
0.0241844
0.0241968
0.0242059
0.0241798
0.0242135
0.0241795
0.0241819
0.0242109
0.0241763
0.0241843
0.0241757
0.0241837
0.0241855
0.0241794
0.0242025
0.0241832
0.0242053
0.0241787
0.0241831
0.0241832
0.0241838
0.0241836
0.0241836
0.0241836
0.0241843
0.0241752
0.0241753
0.0241752
0.0241751
0.0241704
0.0241704
0.0242029
0.0241841
0.0241859
0.0241942
0.0241748
0.0241745
0.0241857
0.0242057
0.0241861
0.0241848
0.0242023
0.0241761
0.0242025
0.0241792
0.0241863
0.0242021
0.024205
0.0242187
0.0242182
0.0241794
0.0242199
0.0241882
0.0242054
0.0241971
0.0241862
0.0241833
0.0241593
0.0241835
0.0242204
0.0242053
0.0241859
0.0241863
0.024206
0.0241833
0.0241976
0.0241594
0.0242052
0.024183
0.0241811
0.0241869
0.0241749
0.0241811
0.0241701
0.0241876
0.0242242
0.0242263
0.0241718
0.024192
0.0241864
0.0242025
0.024176
0.0241826
0.0242052
0.0241824
0.0242008
0.0241852
0.0242007
0.0242056
0.0241546
0.0241727
0.0241746
0.0241747
0.0241844
0.0242003
0.0241649
0.0241813
0.0241936
0.0242001
0.024202
0.0241718
0.0242023
0.0241734
0.0242014
0.0242267
0.0242004
0.0242193
0.0241785
0.0242022
0.0241547
0.0242013
0.0241799
0.0242029
0.0241805
0.0242015
0.0241892
0.0242291
0.0241903
0.0242024
0.024172
0.0242027
0.0241935
0.0241805
0.0241843
0.0242014
0.0242004
0.0241978
0.0241786
0.0242004
0.0241864
0.0241891
0.0241703
0.0242004
0.0241981
0.0241927
0.0241975
0.024201
0.0241973
0.0241768
0.0241865
0.0241979
0.0242025
0.0241848
0.0241847
0.0242006
0.0241704
0.0242419
0.0241894
0.0242187
0.0241924
0.024273
0.0242729
0.0242725
0.0242727
0.0242725
0.0242732
0.0242729
0.0241783
0.0241665
0.0241874
0.0241938
0.0241972
0.0241975
0.0241852
0.0241979
0.0241982
0.0241664
0.0241975
0.0241759
0.0242076
0.0241761
0.0241901
0.0241939
0.0241977
0.0241717
0.0241894
0.0241935
0.0241893
0.0241934
0.024198
0.0242065
0.0241939
0.0241899
0.0241757
0.0241966
0.0241985
0.0241969
0.0241943
0.0241901
0.0241852
0.0241969
0.0241853
0.0241905
0.0241941
0.0241862
0.0241904
0.0241976
0.0241805
0.024193
0.0241671
0.0242267
0.0241784
0.0241768
0.02419
0.0241929
0.024182
0.0242412
0.02419
0.0241931
0.0242288
0.0241551
0.0241549
0.0241894
0.0241972
0.0241924
0.0241966
0.0241458
0.0241458
0.0241862
0.0241862
0.0241864
0.0242414
0.0241981
0.0241797
0.0241942
0.0241947
0.0241942
0.0242423
0.0241808
0.0241975
0.0241896
0.0241896
0.0241948
0.0241936
0.0241948
0.0241943
0.0242321
0.0242192
0.0241936
0.0241895
0.0241929
0.024195
0.0241933
0.0241926
0.0241929
0.0242267
0.0241748
0.0241969
0.0241822
0.0241805
0.024227
0.0241898
0.0241903
0.0241702
0.0241553
0.0241554
0.0241726
0.0241983
0.0241897
0.0242276
0.0241565
0.0241472
0.0241472
0.0242429
0.0241633
0.0241605
0.0241903
0.0241737
0.0241875
0.0241843
0.0241803
0.0241789
0.0241864
0.0242414
0.0241889
0.0241826
0.0241798
0.0242355
0.0241625
0.0242298
0.02418
0.0241842
0.0242017
0.0241879
0.0241866
0.0241696
0.0241858
0.0241697
0.0241895
0.0241797
0.0241614
0.0241611
0.0242275
0.0241835
0.0242451
0.0242441
0.0242464
0.0241809
0.0242421
0.0242476
0.024195
0.0242458
0.0241672
0.0241673
0.0242449
0.0241926
0.024232
0.0242455
0.024233
0.0242457
0.024233
0.0241629
0.0242296
0.0242419
0.024245
0.0241869
0.0241776
0.024234
0.0241867
0.0242472
0.0241848
0.0241922
0.0242461
0.0242348
0.024247
0.0242429
0.0241905
0.0241661
0.0241482
0.024149
0.0241838
0.0241483
0.0241484
0.0241487
0.0241534
0.0242285
0.0241619
0.0241722
0.024166
0.0241845
0.0241521
0.0241522
0.024165
0.0242435
0.0241928
0.0242429
0.0242308
0.0242303
0.0241573
0.0241574
0.0241578
0.0241577
0.0241573
0.0241493
0.0241578
0.0241521
0.0241481
0.0241571
0.0241571
0.0241479
0.0241491
0.0241519
0.0241582
SCALARS rr_(T) float
LOOKUP_TABLE default
0.165324
0.16535
0.165348
0.165349
0.165361
0.165348
0.165324
0.16535
0.165345
0.16535
0.165323
0.16535
0.165349
0.165351
0.165357
0.165348
0.165352
0.165349
0.165344
0.165347
0.165347
0.165376
0.165347
0.165347
0.165347
0.16535
0.165328
0.165348
0.165336
0.165367
0.165349
0.165336
0.165328
0.165364
0.165366
0.165364
0.165367
0.165365
0.165349
0.165328
0.165336
0.165367
0.165367
0.165349
0.16533
0.165337
0.165345
0.165346
0.165348
0.165334
0.165336
0.165339
0.16536
0.165339
0.16536
0.165331
0.165366
0.165339
0.165366
0.165347
0.165352
0.165355
0.16533
0.165355
0.165355
0.165353
0.165352
0.16535
0.165347
0.16535
0.16536
0.16536
0.165336
0.165354
0.165348
0.165327
0.165358
0.165352
0.16535
0.16534
0.165334
0.165362
0.165354
0.165333
0.165337
0.165331
0.165348
0.165353
0.16533
0.165374
0.165339
0.165374
0.165358
0.165352
0.16534
0.165335
0.165334
0.16535
0.165358
0.165349
0.165342
0.165338
0.165333
0.165349
0.16535
0.16535
0.165354
0.165348
0.165333
0.16535
0.165347
0.165331
0.165332
0.165349
0.16535
0.165339
0.165366
0.165334
0.165366
0.16534
0.165343
0.165356
0.16535
0.165353
0.165351
0.165357
0.165364
0.16535
0.165334
0.16534
0.16536
0.16535
0.165353
0.16535
0.165338
0.165366
0.165333
0.165349
0.165354
0.165366
0.165338
0.165351
0.165344
0.16535
0.165334
0.16535
0.165351
0.165348
0.165348
0.165342
0.165346
0.16535
0.165336
0.165349
0.16535
0.16535
0.165351
0.165339
0.165339
0.165349
0.165346
0.165336
0.165331
0.165335
0.165339
0.16535
0.165339
0.165339
0.165336
0.165339
0.165358
0.165339
0.165335
0.165352
0.165339
0.165354
0.165358
0.16535
0.16536
0.16535
0.165336
0.16535
0.16535
0.165338
0.165353
0.165335
0.165353
0.165354
0.165358
0.16535
0.165353
0.165335
0.165339
0.165336
0.16535
0.165349
0.165349
0.165353
0.16535
0.165352
0.16535
0.165344
0.16534
0.165353
0.165336
0.165353
0.165353
0.165338
0.165356
0.16535
0.165357
0.165351
0.16535
0.165354
0.165342
0.165352
0.16534
0.165354
0.165351
0.165351
0.16535
0.16535
0.16535
0.16535
0.165351
0.165356
0.165356
0.165356
0.165356
0.16536
0.16536
0.165341
0.165351
0.165349
0.165346
0.165357
0.165357
0.165349
0.16534
0.165349
0.16535
0.165342
0.165356
0.165342
0.165354
0.165348
0.165342
0.16534
0.165334
0.165334
0.165354
0.165334
0.165348
0.16534
0.165344
0.165348
0.165351
0.165368
0.16535
0.165334
0.16534
0.165349
0.16535
0.16534
0.16535
0.165344
0.165368
0.16534
0.165351
0.165353
0.165349
0.165357
0.165353
0.16536
0.165349
0.165332
0.165331
0.165359
0.165347
0.16535
0.165342
0.165356
0.165352
0.16534
0.165352
0.165343
0.165351
0.165343
0.16534
0.165371
0.165358
0.165357
0.165357
0.165351
0.165343
0.165364
0.165352
0.165346
0.165343
0.165342
0.165359
0.165342
0.165358
0.165342
0.16533
0.165343
0.165334
0.165355
0.165342
0.165371
0.165342
0.165354
0.165341
0.165353
0.165342
0.165348
0.16533
0.165347
0.165342
0.165359
0.165341
0.165346
0.165353
0.16535
0.165342
0.165343
0.165344
0.165355
0.165343
0.16535
0.165348
0.16536
0.165343
0.165344
0.165347
0.165344
0.165342
0.165344
0.165356
0.16535
0.165344
0.165342
0.165351
0.165351
0.165343
0.16536
0.165323
0.165348
0.165334
0.165347
0.165306
0.165306
0.165306
0.165306
0.165306
0.165306
0.165306
0.165355
0.165363
0.165349
0.165346
0.165344
0.165344
0.165351
0.165344
0.165344
0.165363
0.165344
0.165356
0.165339
0.165356
0.165348
0.165346
0.165344
0.165359
0.165348
0.165346
0.165348
0.165346
0.165344
0.16534
0.165346
0.165348
0.165356
0.165344
0.165343
0.165344
0.165346
0.165348
0.165351
0.165344
0.165351
0.165347
0.165346
0.16535
0.165347
0.165344
0.165353
0.165346
0.165362
0.16533
0.165355
0.165356
0.165348
0.165346
0.165352
0.165323
0.165348
0.165346
0.16533
0.165371
0.165371
0.165348
0.165344
0.165347
0.165344
0.165378
0.165378
0.165349
0.16535
0.16535
0.165323
0.165344
0.165354
0.165346
0.165345
0.165346
0.165322
0.165353
0.165344
0.165348
0.165348
0.165345
0.165346
0.165345
0.165346
0.165328
0.165334
0.165346
0.165348
0.165346
0.165345
0.165346
0.165347
0.165346
0.16533
0.165357
0.165344
0.165352
0.165353
0.16533
0.165348
0.165347
0.16536
0.16537
0.16537
0.165358
0.165343
0.165348
0.16533
0.16537
0.165377
0.165377
0.165322
0.165365
0.165367
0.165348
0.165358
0.165349
0.16535
0.165353
0.165354
0.16535
0.165323
0.165348
0.165352
0.165353
0.165326
0.165366
0.16533
0.165353
0.165351
0.165342
0.165349
0.16535
0.16536
0.16535
0.16536
0.165348
0.165354
0.165366
0.165367
0.16533
0.165351
0.165323
0.165324
0.165322
0.165353
0.165323
0.165322
0.165345
0.165323
0.165362
0.165362
0.165323
0.165346
0.165328
0.165323
0.165328
0.165323
0.165328
0.165365
0.165329
0.165323
0.165323
0.16535
0.165355
0.165327
0.16535
0.165322
0.165351
0.165346
0.165323
0.165327
0.165322
0.165322
0.165347
0.165363
0.165376
0.165375
0.165351
0.165376
0.165376
0.165375
0.165372
0.165329
0.165366
0.165359
0.165363
0.165351
0.165373
0.165373
0.165364
0.165321
0.165346
0.165323
0.16533
0.16533
0.165369
0.165369
0.165369
0.165369
0.165369
0.165375
0.165369
0.165373
0.165376
0.165369
0.165369
0.165376
0.165375
0.165373
0.165369
SCALARS rr_tsim float
LOOKUP_TABLE default
350
350
350
350
350
350
350
350
350
350
350
350
350
350
350
350
350
350
350
350
350
350
350
350
350
350
350
350
350
350
350
350
350
350
350
350
350
350
350
350
350
350
350
350
350
350
350
350
350
350
350
350
350
350
350
350
350
350
350
350
350
350
350
350
350
350
350
350
350
350
350
350
350
350
350
350
350
350
350
350
350
350
350
350
350
350
350
350
350
350
350
350
350
350
350
350
350
350
350
350
350
350
350
350
350
350
350
350
350
350
350
350
350
350
350
350
350
350
350
350
350
350
350
350
350
350
350
350
350
350
350
350
350
350
350
350
350
350
350
350
350
350
350
350
350
350
350
350
350
350
350
350
350
350
350
350
350
350
350
350
350
350
350
350
350
350
350
350
350
350
350
350
350
350
350
350
350
350
350
350
350
350
350
350
350
350
350
350
350
350
350
350
350
350
350
350
350
350
350
350
350
350
350
350
350
350
350
350
350
350
350
350
350
350
350
350
350
350
350
350
350
350
350
350
350
350
350
350
350
350
350
350
350
350
350
350
350
350
350
350
350
350
350
350
350
350
350
350
350
350
350
350
350
350
350
350
350
350
350
350
350
350
350
350
350
350
350
350
350
350
350
350
350
350
350
350
350
350
350
350
350
350
350
350
350
350
350
350
350
350
350
350
350
350
350
350
350
350
350
350
350
350
350
350
350
350
350
350
350
350
350
350
350
350
350
350
350
350
350
350
350
350
350
350
350
350
350
350
350
350
350
350
350
350
350
350
350
350
350
350
350
350
350
350
350
350
350
350
350
350
350
350
350
350
350
350
350
350
350
350
350
350
350
350
350
350
350
350
350
350
350
350
350
350
350
350
350
350
350
350
350
350
350
350
350
350
350
350
350
350
350
350
350
350
350
350
350
350
350
350
350
350
350
350
350
350
350
350
350
350
350
350
350
350
350
350
350
350
350
350
350
350
350
350
350
350
350
350
350
350
350
350
350
350
350
350
350
350
350
350
350
350
350
350
350
350
350
350
350
350
350
350
350
350
350
350
350
350
350
350
350
350
350
350
350
350
350
350
350
350
350
350
350
350
350
350
350
350
350
350
350
350
350
350
350
350
350
350
350
350
350
350
350
350
350
350
350
350
350
350
350
350
350
350
350
350
350
350
350
350
350
350
350
350
350
350
350
350
350
350
350
350
350
350
350
350
350
350
350
350
350
350
350
350
350
350
350
350
350
350
350
350
350
350
350
350
350
350
350
350
350
350
350
350
350
350
350
350
350
350
350
350
350
SCALARS rr_Vext float
LOOKUP_TABLE default
0.181359
0.449122
0.356048
0.468108
0.250492
0.377827
0.179274
0.465088
0.395106
0.504565
0.165389
0.466508
0.409825
0.435013
0.516134
0.424864
0.369043
0.414183
0.365531
0.360526
0.405108
0.0765106
0.415069
0.383014
0.347105
0.403471
0.15501
0.352834
0.267413
0.339246
0.361969
0.276485
0.17152
0.252901
0.249247
0.253452
0.330126
0.24949
0.361539
0.192836
0.224721
0.29105
0.291059
0.397271
0.216885
0.24412
0.344612
0.350183
0.330079
0.30376
0.312853
0.245236
0.401517
0.315206
0.369414
0.157753
0.266178
0.317516
0.26615
0.393184
0.470928
0.464872
0.153275
0.327641
0.445313
0.417373
0.455654
0.391904
0.357985
0.515556
0.435554
0.43079
0.277654
0.338744
0.353971
0.176426
0.372675
0.413476
0.395169
0.271132
0.24049
0.283506
0.527531
0.24025
0.32776
0.119291
0.407579
0.344609
0.229706
0.0374828
0.273092
0.0407607
0.316357
0.299312
0.258659
0.232983
0.220908
0.442929
0.37291
0.351855
0.293535
0.277769
0.230478
0.418575
0.426137
0.383831
0.340626
0.340847
0.244628
0.512518
0.326026
0.164038
0.220056
0.457878
0.429717
0.304481
0.30863
0.183508
0.320034
0.303365
0.266985
0.502648
0.511809
0.442039
0.484524
0.384951
0.220815
0.478209
0.200078
0.262278
0.227503
0.456394
0.449022
0.448248
0.288937
0.187537
0.190638
0.327439
0.404467
0.187459
0.241541
0.387289
0.287969
0.472757
0.223275
0.385188
0.349731
0.336127
0.214789
0.269545
0.304298
0.440625
0.248026
0.39741
0.461988
0.469242
0.307855
0.249007
0.247656
0.401135
0.333852
0.246117
0.160076
0.239704
0.240466
0.430954
0.252348
0.2551
0.274619
0.245938
0.386343
0.258183
0.226058
0.297713
0.272811
0.340305
0.382117
0.361132
0.313976
0.360844
0.266566
0.418245
0.448851
0.241614
0.442299
0.239439
0.436794
0.402736
0.378965
0.379414
0.446226
0.200774
0.266927
0.246016
0.447408
0.439019
0.407198
0.447893
0.452951
0.381864
0.466568
0.307715
0.274109
0.51273
0.285547
0.465952
0.36996
0.226654
0.286341
0.461723
0.389033
0.350307
0.450054
0.445254
0.278858
0.28422
0.267542
0.395452
0.433418
0.49809
0.478087
0.520369
0.471557
0.515285
0.432054
0.4572
0.460649
0.434353
0.456356
0.422917
0.416634
0.28241
0.389409
0.454293
0.312119
0.470271
0.432155
0.492658
0.288245
0.468275
0.448676
0.284499
0.406912
0.282468
0.455237
0.411288
0.296254
0.277677
0.235552
0.271097
0.455772
0.197501
0.347019
0.276527
0.313902
0.46867
0.455547
0.147788
0.457103
0.23643
0.261764
0.466268
0.379026
0.264584
0.52218
0.29123
0.147779
0.267723
0.406397
0.50892
0.382688
0.457753
0.425154
0.226614
0.216731
0.175978
0.201428
0.308134
0.229075
0.37198
0.227524
0.406391
0.287621
0.268101
0.323952
0.293521
0.39852
0.281486
0.287595
0.13637
0.303571
0.437809
0.438057
0.391523
0.281115
0.192358
0.545876
0.360487
0.298317
0.27429
0.284975
0.282728
0.358842
0.27809
0.192059
0.274791
0.183495
0.351066
0.279576
0.127091
0.263721
0.321336
0.279314
0.443668
0.290709
0.381466
0.138314
0.305661
0.287013
0.261623
0.269317
0.321991
0.308721
0.321045
0.266563
0.271163
0.293858
0.4036
0.276094
0.399021
0.358786
0.290796
0.286473
0.290122
0.323371
0.289911
0.270116
0.308528
0.333028
0.387865
0.290168
0.286352
0.425141
0.419247
0.276211
0.290834
0.117368
0.342062
0.227677
0.319679
0.126304
0.131123
0.117233
0.119129
0.126411
0.133076
0.137186
0.365817
0.275202
0.269662
0.305533
0.296206
0.292406
0.314708
0.285992
0.292386
0.310822
0.291313
0.368786
0.261062
0.378831
0.289102
0.277577
0.291595
0.322764
0.328992
0.304695
0.351047
0.326029
0.300388
0.213974
0.303858
0.298861
0.328279
0.305307
0.288517
0.275034
0.304062
0.31909
0.436159
0.283305
0.423999
0.438657
0.298863
0.422861
0.322473
0.255677
0.356792
0.307316
0.229504
0.18527
0.353347
0.377137
0.313431
0.259541
0.317011
0.138204
0.309862
0.289511
0.140569
0.0597485
0.0653752
0.26865
0.283293
0.331355
0.316585
0.0311308
0.0325286
0.318178
0.32154
0.30424
0.103723
0.264725
0.315902
0.31564
0.272074
0.24028
0.107863
0.464464
0.284944
0.352158
0.35767
0.255161
0.323443
0.249474
0.275478
0.129739
0.19938
0.323803
0.327748
0.280323
0.293561
0.303656
0.320503
0.306407
0.14396
0.275777
0.301351
0.290882
0.437485
0.143857
0.23373
0.24057
0.234522
0.155624
0.155628
0.267698
0.208506
0.301871
0.153855
0.185525
0.0614166
0.0614141
0.112309
0.199632
0.134971
0.256999
0.284536
0.297805
0.336998
0.307416
0.28523
0.222214
0.127171
0.278048
0.290578
0.282436
0.144129
0.147644
0.104628
0.281946
0.285969
0.224179
0.258248
0.238711
0.22379
0.292909
0.223756
0.257202
0.251385
0.158046
0.19524
0.165307
0.310643
0.112706
0.118918
0.115939
0.294531
0.10769
0.104732
0.200915
0.0979318
0.243153
0.243508
0.100659
0.255443
0.113722
0.110988
0.127154
0.105858
0.105723
0.174204
0.12624
0.112774
0.106277
0.235809
0.272657
0.118743
0.260314
0.0960764
0.264786
0.208171
0.100551
0.0864348
0.0948693
0.12646
0.22555
0.192178
0.0824423
0.091407
0.253855
0.0775858
0.0775825
0.0878715
0.0979618
0.0995846
0.127333
0.207531
0.193793
0.253766
0.0775241
0.0775208
0.229251
0.0843463
0.178712
0.0765187
0.0783411
0.103271
0.198595
0.205595
0.218906
0.200659
0.198579
0.0438923
0.32038
0.0557536
0.0543417
0.259007
0.257237
0.0563344
0.0390571
0.0548043
0.238559
SCALARS rr_Vli float
LOOKUP_TABLE default
0.396486
0.903296
0.721402
0.942901
0.493002
0.765663
0.392034
0.937669
0.806265
1.01511
0.359835
0.940541
0.8277
0.874152
1.02412
0.859727
0.739393
0.835914
0.748795
0.732052
0.823479
0.146196
0.843736
0.777624
0.704886
0.813138
0.333348
0.714255
0.560607
0.6598
0.731224
0.579527
0.369271
0.494392
0.485904
0.495506
0.641456
0.486895
0.73048
0.415064
0.471209
0.565329
0.565389
0.802513
0.463322
0.511146
0.70466
0.71357
0.66868
0.640141
0.657313
0.509708
0.79128
0.654953
0.728498
0.336093
0.518807
0.659755
0.51879
0.798044
0.943862
0.925028
0.327839
0.652216
0.886008
0.836194
0.912998
0.789772
0.727288
1.0367
0.858505
0.849151
0.582209
0.676851
0.716967
0.381182
0.738158
0.828437
0.79642
0.562479
0.507622
0.556447
1.0535
0.508331
0.685383
0.254579
0.825074
0.689486
0.49066
0.0719434
0.567527
0.0782461
0.626349
0.600258
0.537107
0.489901
0.466216
0.891212
0.738706
0.711147
0.604216
0.579672
0.487749
0.844109
0.858079
0.772712
0.679545
0.689378
0.517758
1.02965
0.661676
0.349478
0.467058
0.923819
0.865434
0.63249
0.601612
0.38741
0.624001
0.62999
0.547958
0.99831
1.02947
0.884276
0.972855
0.763251
0.431749
0.962234
0.422252
0.544645
0.448452
0.918478
0.897108
0.901821
0.602898
0.365537
0.404181
0.66093
0.807731
0.365414
0.503537
0.778932
0.59024
0.951058
0.47153
0.776063
0.704321
0.680953
0.435246
0.556267
0.620246
0.886305
0.519981
0.802495
0.92944
0.94426
0.617852
0.518656
0.515712
0.810195
0.680205
0.515658
0.341238
0.503637
0.500927
0.867513
0.525644
0.531442
0.575695
0.512235
0.764766
0.536473
0.475014
0.597024
0.566758
0.679099
0.756451
0.728157
0.61851
0.726371
0.558759
0.841634
0.903302
0.503621
0.884781
0.503408
0.873805
0.803282
0.749914
0.763388
0.89254
0.423343
0.554569
0.51569
0.900208
0.886298
0.82171
0.894903
0.911194
0.765269
0.938415
0.629673
0.568291
1.02453
0.59847
0.93055
0.741276
0.47324
0.569197
0.928572
0.772726
0.703604
0.906434
0.889136
0.575328
0.57047
0.554199
0.788781
0.870376
1.00028
0.961014
1.04558
0.94745
1.03539
0.86871
0.907696
0.914768
0.862343
0.905931
0.833929
0.821515
0.583003
0.782793
0.915905
0.636237
0.93312
0.857208
0.993022
0.597475
0.944367
0.902753
0.586735
0.8088
0.582773
0.908854
0.829724
0.610879
0.57498
0.497305
0.572061
0.9101
0.417614
0.70148
0.572845
0.642711
0.945255
0.914965
0.286927
0.918292
0.500196
0.542258
0.940099
0.764199
0.548648
1.04887
0.596675
0.286927
0.554499
0.815976
1.01856
0.772232
0.908465
0.850822
0.4466
0.437752
0.374434
0.429883
0.608683
0.465559
0.749991
0.469384
0.807668
0.576816
0.55534
0.649546
0.603994
0.802276
0.579178
0.596019
0.263019
0.600442
0.868509
0.869129
0.787207
0.578062
0.376387
1.09285
0.734299
0.613258
0.565366
0.562957
0.583123
0.710459
0.572676
0.410196
0.565166
0.387691
0.700125
0.576598
0.245149
0.543076
0.642113
0.576619
0.887239
0.598797
0.772172
0.296222
0.619802
0.592061
0.51704
0.555816
0.655878
0.617313
0.645548
0.549009
0.557647
0.602196
0.804985
0.56787
0.804505
0.726242
0.573154
0.589127
0.594775
0.657842
0.593794
0.555993
0.631806
0.662546
0.782179
0.59465
0.590809
0.855286
0.843307
0.568299
0.573277
0.256088
0.6926
0.480627
0.650102
0.287606
0.29855
0.266803
0.271172
0.287682
0.303056
0.312311
0.729342
0.539723
0.544564
0.622603
0.6065
0.598932
0.633518
0.58613
0.599483
0.609469
0.596711
0.732657
0.542545
0.753106
0.586003
0.565698
0.597464
0.637466
0.666112
0.620591
0.710715
0.663996
0.615741
0.444039
0.619296
0.605571
0.652003
0.624635
0.591867
0.562871
0.620017
0.64672
0.877916
0.579856
0.853547
0.889737
0.609276
0.852427
0.653928
0.52384
0.713542
0.625424
0.450401
0.395665
0.704467
0.750312
0.6352
0.528048
0.635251
0.301236
0.62802
0.589264
0.300912
0.115298
0.126126
0.544003
0.580096
0.673735
0.647661
0.0592774
0.0619388
0.641395
0.648086
0.613481
0.226113
0.542803
0.631011
0.643416
0.555013
0.489877
0.235469
0.929282
0.583732
0.713231
0.724382
0.520582
0.658847
0.508989
0.561646
0.279101
0.421176
0.659631
0.663707
0.570432
0.599123
0.618255
0.651892
0.623522
0.307427
0.547096
0.616831
0.583014
0.8749
0.307367
0.473533
0.487753
0.46224
0.300515
0.300535
0.529553
0.427592
0.611535
0.329005
0.358876
0.117176
0.117176
0.245398
0.389619
0.262494
0.52105
0.563539
0.60141
0.677645
0.614656
0.569069
0.448035
0.27725
0.562545
0.582799
0.564247
0.311556
0.287924
0.224284
0.563451
0.574849
0.461942
0.521746
0.481453
0.440836
0.590093
0.440798
0.520821
0.502146
0.307811
0.380027
0.353393
0.623981
0.246785
0.25998
0.254334
0.589282
0.234981
0.230138
0.410009
0.214644
0.47712
0.477842
0.220334
0.51961
0.244574
0.243122
0.273901
0.231958
0.227739
0.339829
0.270697
0.245996
0.232677
0.475748
0.543001
0.256116
0.525107
0.211011
0.532688
0.423218
0.220454
0.186663
0.208255
0.276319
0.457466
0.376607
0.157552
0.174883
0.509985
0.148307
0.148306
0.168048
0.188628
0.213205
0.248113
0.410273
0.379761
0.51034
0.149004
0.149003
0.448511
0.184461
0.363609
0.167149
0.16815
0.221553
0.384549
0.398195
0.424214
0.388778
0.384539
0.0840102
0.620731
0.107163
0.103829
0.501444
0.497965
0.107596
0.0747329
0.105301
0.462542
SCALARS rr_S_ext' float
LOOKUP_TABLE default
-0.000269122
-0.00061467
-0.000490793
-0.000641591
-0.000335685
-0.000520903
-0.000266097
-0.000638018
-0.000548415
-0.000690754
-0.000244277
-0.000639972
-0.000563164
-0.000594856
-0.000697158
-0.000584922
-0.000503194
-0.000568762
-0.000509265
-0.000498007
-0.000560187
-9.96257e-05
-0.000573966
-0.000529011
-0.000479525
-0.000553288
-0.000226381
-0.000485943
-0.000381013
-0.000449404
-0.000497519
-0.000393874
-0.000250768
-0.000336693
-0.000330939
-0.000337451
-0.00043692
-0.000331605
-0.00049701
-0.000281868
-0.000320252
-0.000385071
-0.000385111
-0.000546023
-0.000314711
-0.000347411
-0.000479275
-0.000485385
-0.000454927
-0.000434999
-0.000446709
-0.00034651
-0.00053876
-0.000445255
-0.000496004
-0.000228312
-0.000353351
-0.000448519
-0.000353339
-0.000542907
-0.000642339
-0.000629654
-0.000222678
-0.00044395
-0.000603095
-0.000569075
-0.000621339
-0.000537391
-0.000494758
-0.000705454
-0.000584529
-0.000578159
-0.000395692
-0.000460669
-0.000487781
-0.000258828
-0.00050252
-0.000563795
-0.000541912
-0.000382406
-0.000344932
-0.000378914
-0.00071703
-0.000345388
-0.000465853
-0.000172929
-0.000561339
-0.00046925
-0.000333282
-4.902e-05
-0.000385819
-5.33143e-05
-0.000426408
-0.000408496
-0.000365148
-0.000332927
-0.000316798
-0.000606441
-0.000502892
-0.000483852
-0.000410878
-0.000394026
-0.0003314
-0.000574351
-0.000583883
-0.000525798
-0.000462522
-0.000469031
-0.000351789
-0.000700668
-0.000450137
-0.000237403
-0.000317314
-0.000628579
-0.000588884
-0.000429989
-0.000409747
-0.000263246
-0.000424993
-0.000428292
-0.000372653
-0.00067957
-0.000700527
-0.000601822
-0.000662033
-0.000519586
-0.000294032
-0.000654769
-0.000286924
-0.000370272
-0.000305336
-0.00062499
-0.000610577
-0.00061366
-0.000409816
-0.000248961
-0.000274606
-0.000449702
-0.000549752
-0.000248876
-0.000342285
-0.000530047
-0.000401424
-0.000647168
-0.000320403
-0.000528065
-0.000479257
-0.000463277
-0.000296111
-0.000378242
-0.0004219
-0.000603106
-0.000353401
-0.000546018
-0.000632456
-0.000642535
-0.00042046
-0.000352572
-0.000350573
-0.000551252
-0.000462691
-0.00035047
-0.000231802
-0.000342271
-0.000340518
-0.000590307
-0.000357321
-0.000361262
-0.000391268
-0.000348207
-0.000520643
-0.000364709
-0.000322817
-0.000406296
-0.0003853
-0.000462215
-0.00051498
-0.000495459
-0.000421132
-0.000494267
-0.000379759
-0.000572703
-0.000614665
-0.000342343
-0.000602168
-0.000342108
-0.000594696
-0.000546746
-0.000510537
-0.000519461
-0.00060745
-0.000287673
-0.000377012
-0.000350487
-0.000612561
-0.000603039
-0.0005591
-0.000609074
-0.00062004
-0.000520803
-0.000638566
-0.000428263
-0.000386365
-0.000697301
-0.00040675
-0.000633345
-0.000504477
-0.000321675
-0.000387456
-0.00063187
-0.000526012
-0.000478806
-0.000616782
-0.000605159
-0.000391206
-0.000388216
-0.000376794
-0.000536876
-0.000592292
-0.000680693
-0.000653953
-0.000711509
-0.000644732
-0.000704571
-0.000591142
-0.000617894
-0.000622703
-0.00058702
-0.000616694
-0.00056779
-0.000559338
-0.000396418
-0.00053268
-0.000623204
-0.000432777
-0.000635211
-0.00058354
-0.00067568
-0.000406208
-0.000642564
-0.000614295
-0.000398968
-0.000550556
-0.000396269
-0.000618584
-0.000564553
-0.000415387
-0.000390927
-0.000337919
-0.00038872
-0.000619429
-0.000283756
-0.000477272
-0.00038947
-0.000437123
-0.000643167
-0.000622633
-0.000195442
-0.000624893
-0.000339863
-0.000368674
-0.000639664
-0.000519984
-0.000373008
-0.000713756
-0.000405806
-0.000195442
-0.000377
-0.000555276
-0.000693202
-0.000525435
-0.000618423
-0.000579049
-0.000304078
-0.000297844
-0.000254367
-0.000292008
-0.000414408
-0.000316707
-0.000510316
-0.000319169
-0.000549787
-0.000392543
-0.000377569
-0.000442041
-0.000410731
-0.000545916
-0.000393857
-0.000405221
-0.000179189
-0.000408782
-0.000591231
-0.00059165
-0.000535681
-0.000393105
-0.000256323
-0.000743757
-0.00049949
-0.000417043
-0.000384444
-0.000383276
-0.00039651
-0.000483669
-0.000389426
-0.000278627
-0.000384333
-0.000263431
-0.000476535
-0.000392074
-0.000167014
-0.000369297
-0.000437024
-0.000392077
-0.000603845
-0.000407185
-0.000525349
-0.000201195
-0.000421661
-0.000402586
-0.00035201
-0.000377935
-0.000446146
-0.000420139
-0.000439282
-0.00037333
-0.000379221
-0.000409558
-0.000547906
-0.000386171
-0.000547409
-0.0004941
-0.000390244
-0.000400629
-0.000404506
-0.000447499
-0.00040385
-0.000378086
-0.000429705
-0.000450988
-0.000532214
-0.000404426
-0.000401732
-0.000581999
-0.00057385
-0.000386459
-0.000390327
-0.000173832
-0.000471208
-0.000326587
-0.000442239
-0.000194953
-0.000202372
-0.000180855
-0.000183815
-0.000195008
-0.000205426
-0.000211702
-0.000496425
-0.000367532
-0.00037052
-0.000423506
-0.000412494
-0.000407344
-0.000431084
-0.00039863
-0.000407707
-0.000415029
-0.000405833
-0.000498733
-0.000368835
-0.00051264
-0.000398672
-0.000384798
-0.000406342
-0.000434007
-0.000453187
-0.000422144
-0.000483534
-0.00045167
-0.000418766
-0.000301881
-0.000421255
-0.000411989
-0.000443834
-0.000424839
-0.00040252
-0.000382827
-0.000421739
-0.000439981
-0.000597389
-0.000394378
-0.000580805
-0.000605298
-0.000414436
-0.00058002
-0.000444877
-0.000356269
-0.000485628
-0.000425442
-0.000306701
-0.000268758
-0.000479495
-0.00051073
-0.000432145
-0.000359206
-0.00043232
-0.000204485
-0.000427258
-0.000400843
-0.000204384
-7.85492e-05
-8.59265e-05
-0.000370109
-0.000394536
-0.000458318
-0.000440501
-4.03988e-05
-4.22126e-05
-0.000436426
-0.000440981
-0.000417429
-0.00015349
-0.000369158
-0.000429473
-0.00043766
-0.00037752
-0.000333219
-0.000159833
-0.00063245
-0.000397004
-0.000485241
-0.000492827
-0.000354098
-0.000448166
-0.000346212
-0.000382038
-0.000189539
-0.000286185
-0.000448698
-0.000451549
-0.000388036
-0.000407517
-0.00042056
-0.000443454
-0.000424149
-0.000208822
-0.000372433
-0.000419525
-0.000396768
-0.000595447
-0.000208778
-0.00032216
-0.000331827
-0.000314726
-0.000204727
-0.000204741
-0.000360519
-0.000290802
-0.000416049
-0.00022347
-0.000244474
-7.98536e-05
-7.98531e-05
-0.000166568
-0.000265353
-0.00017879
-0.000354481
-0.000383644
-0.000409198
-0.000461124
-0.000418329
-0.000387328
-0.000304857
-0.000188202
-0.000382734
-0.000396614
-0.000384031
-0.000211548
-0.000196097
-0.000152331
-0.000383485
-0.000391178
-0.000314119
-0.000354991
-0.000327592
-0.000300156
-0.000401526
-0.000300129
-0.000354338
-0.000341767
-0.000209649
-0.000258839
-0.000240038
-0.000424619
-0.000167502
-0.000176466
-0.000172614
-0.000401054
-0.000159505
-0.000156184
-0.000278884
-0.000145681
-0.000324898
-0.000325389
-0.00014955
-0.000353466
-0.000166094
-0.000165013
-0.000186
-0.000157434
-0.000154652
-0.000231447
-0.00018385
-0.000166984
-0.000157926
-0.000323707
-0.000369604
-0.000173916
-0.000357293
-0.000143206
-0.00036248
-0.000287901
-0.000149624
-0.000126749
-0.000141338
-0.000187556
-0.00031122
-0.000256462
-0.000107364
-0.00011917
-0.000347045
-0.000101063
-0.000101062
-0.000114514
-0.000128514
-0.00014481
-0.000168987
-0.000279319
-0.00025861
-0.000347276
-0.000101523
-0.000101522
-0.000305442
-0.000125203
-0.000247345
-0.000113457
-0.000114201
-0.000150472
-0.000261956
-0.00027125
-0.000288969
-0.000264833
-0.000261949
-5.72464e-05
-0.000422838
-7.30149e-05
-7.07546e-05
-0.000341587
-0.000339218
-7.33227e-05
-5.09251e-05
-7.17467e-05
-0.000315074
SCALARS rr_P_ext' float
LOOKUP_TABLE default
0.000182343
0.000421137
0.000335945
0.000439498
0.000230623
0.000356547
0.000180287
0.000436998
0.000375041
0.000473247
0.000165622
0.000438336
0.000385641
0.000407607
0.000478476
0.000400442
0.000344929
0.000389511
0.000348093
0.000340788
0.000383283
6.86951e-05
0.000392711
0.00036201
0.000328135
0.000378983
0.000153734
0.000332663
0.000259636
0.000309208
0.000340678
0.000268406
0.000170269
0.000231511
0.000227632
0.00023203
0.000300654
0.00022806
0.000340323
0.000191391
0.000218225
0.000264987
0.000265012
0.000373894
0.000213913
0.000236777
0.000327672
0.000331999
0.000311401
0.000296217
0.000304314
0.000236397
0.00037008
0.000303773
0.000340682
0.000155243
0.000243054
0.000306
0.000243044
0.000371533
0.00044029
0.00043199
0.000151331
0.000304568
0.000413775
0.00039009
0.000425911
0.000368097
0.000338541
0.000483351
0.00040151
0.000397133
0.000269631
0.000315887
0.000333897
0.000175656
0.000344967
0.000386468
0.00037119
0.00026095
0.000234834
0.000260412
0.000491712
0.000235069
0.000317557
0.000117558
0.000384277
0.000321717
0.000226539
3.37825e-05
0.000263219
3.67413e-05
0.000292733
0.000279981
0.000249142
0.000226778
0.000215684
0.000415477
0.000345217
0.000331299
0.000280666
0.000268667
0.000225543
0.000393378
0.000399983
0.000360203
0.000317222
0.000321122
0.000239415
0.000480128
0.00030805
0.000161425
0.000215871
0.000430493
0.0004034
0.000293369
0.000281843
0.000179217
0.00029232
0.000292223
0.000254653
0.000466348
0.000479956
0.000412618
0.000453687
0.000356637
0.000202172
0.000448584
0.000195346
0.000252637
0.000209732
0.000428175
0.000418688
0.000420429
0.000279438
0.000171248
0.000186844
0.000307968
0.000377001
0.000171189
0.00023342
0.000363157
0.000274361
0.000443389
0.000218119
0.00036172
0.000328304
0.000317115
0.000202683
0.000258286
0.000288565
0.000413209
0.000240819
0.000373908
0.000433307
0.000440199
0.000288154
0.000240463
0.000239108
0.000377482
0.000316481
0.000238842
0.000157604
0.000233166
0.000232238
0.000404399
0.0002437
0.000246383
0.000266625
0.000237488
0.000357435
0.000248821
0.000219911
0.000278475
0.000262875
0.000316999
0.000353545
0.00033935
0.000289294
0.000338606
0.000258786
0.000392357
0.0004211
0.000233464
0.000412855
0.000233035
0.00040773
0.000374997
0.000350512
0.000355888
0.000416482
0.000195879
0.000257219
0.000238838
0.000419671
0.00041297
0.0003829
0.000417654
0.000424805
0.000356988
0.000437508
0.000292768
0.000263674
0.000478148
0.000277184
0.000434323
0.000345805
0.00021932
0.000265858
0.000432926
0.000360966
0.000328107
0.000422508
0.000414999
0.000267148
0.000266052
0.000257171
0.000368225
0.000405886
0.000466463
0.000448085
0.000487548
0.000441793
0.000482792
0.000405032
0.000424044
0.000427332
0.000402856
0.000423226
0.000389993
0.000384189
0.000270686
0.000364986
0.000426854
0.000296001
0.00043596
0.000400514
0.00046281
0.000277223
0.000440098
0.000420859
0.000272463
0.000377776
0.000270606
0.000424218
0.000386651
0.000283682
0.00026683
0.000230053
0.000264656
0.000424787
0.000193139
0.000326787
0.000265821
0.000298802
0.000440505
0.000426669
0.000134501
0.000428206
0.000231311
0.000251628
0.000438125
0.00035615
0.000254552
0.000489108
0.000277371
0.0001345
0.000257316
0.000380528
0.00047524
0.000359846
0.000424427
0.000396984
0.000208874
0.000203954
0.00017299
0.000198507
0.000284577
0.000216698
0.000349529
0.000217957
0.000377254
0.000269047
0.000257701
0.00030298
0.000280578
0.000373985
0.000269054
0.000276556
0.000123416
0.000280668
0.000405787
0.000406067
0.000367032
0.000268561
0.000176228
0.000509879
0.000341663
0.000284926
0.000262563
0.000263197
0.000270782
0.000332044
0.000265997
0.000189392
0.000262562
0.000179324
0.000326847
0.000267754
0.000115029
0.000252249
0.000299671
0.000267722
0.000414022
0.000278119
0.000359642
0.000136707
0.000288595
0.000274925
0.000241714
0.000258075
0.000305174
0.000288068
0.000300981
0.000254999
0.000259073
0.000279927
0.000375793
0.000263816
0.000374935
0.000338251
0.000268058
0.000273699
0.00027646
0.000306151
0.000276045
0.000258268
0.000293725
0.00030942
0.000364518
0.000276419
0.000274335
0.000398739
0.000393163
0.000264002
0.000268112
0.000117813
0.000322567
0.000222342
0.000302566
0.00013133
0.000136329
0.000121842
0.000123833
0.000131378
0.000138383
0.000142617
0.000340501
0.000252615
0.000253727
0.000289673
0.000281965
0.000278432
0.000295321
0.000272455
0.000278644
0.000285267
0.000277398
0.000342237
0.00025163
0.000351753
0.000272874
0.000263193
0.000277735
0.000298042
0.000310232
0.00028876
0.000331009
0.00030896
0.000286212
0.000205992
0.000288127
0.000282002
0.000304575
0.000290434
0.00027508
0.000261703
0.00028844
0.000301152
0.000409255
0.000269596
0.000397887
0.000414265
0.000283453
0.00039728
0.000304483
0.000243512
0.000332965
0.000291046
0.000210786
0.000182685
0.000328889
0.000350407
0.000295791
0.000245742
0.00029634
0.000138608
0.000292444
0.000274213
0.000138882
5.40971e-05
5.91796e-05
0.000253357
0.000269688
0.000313573
0.000301144
2.7868e-05
2.91192e-05
0.000298927
0.000302052
0.000285904
0.000104039
0.000252296
0.000294508
0.000299341
0.000258183
0.000227903
0.000108318
0.000433607
0.000271359
0.000332161
0.000337355
0.000242161
0.000306555
0.000236767
0.000261292
0.000128709
0.000194818
0.000306916
0.000309104
0.00026546
0.000278681
0.000287689
0.00030339
0.000290165
0.000141946
0.000255615
0.000286784
0.000271963
0.000408262
0.000141906
0.000220519
0.000227114
0.000216184
0.000140985
0.000140994
0.000247527
0.000198741
0.000284789
0.000151874
0.000168321
5.50717e-05
5.50711e-05
0.000112868
0.000182494
0.000123016
0.00024262
0.000263364
0.000280212
0.000315944
0.000286831
0.000265647
0.000208804
0.000127566
0.000262028
0.000271834
0.000263341
0.000143559
0.000134878
0.000103492
0.000262956
0.000268031
0.000214542
0.000243079
0.000224366
0.000206192
0.000275044
0.000206172
0.00024256
0.000234363
0.000144222
0.000178074
0.00016314
0.000290973
0.000113466
0.000119564
0.000116899
0.000274963
0.000108102
0.000105747
0.000190718
9.86714e-05
0.000223296
0.000223632
0.00010131
0.000241822
0.000112792
0.000111774
0.000126283
0.000106635
0.000104999
0.000159185
0.000124901
0.000113176
0.000106982
0.000221697
0.00025355
0.000118057
0.000244704
9.69671e-05
0.000248342
0.00019698
0.000101337
8.60245e-05
9.57089e-05
0.000127089
0.000213
0.00017629
7.40295e-05
8.2159e-05
0.00023781
6.96831e-05
6.96822e-05
7.89532e-05
8.85319e-05
9.83997e-05
0.000116243
0.000191791
0.000177767
0.000237936
6.99535e-05
6.99526e-05
0.000210002
8.48278e-05
0.000169215
7.68818e-05
7.75732e-05
0.000102218
0.000180334
0.000186727
0.000198911
0.000182301
0.000180328
3.94652e-05
0.000291067
5.03101e-05
4.8788e-05
0.000235158
0.000233531
5.05611e-05
3.51086e-05
4.94384e-05
0.000216866
SCALARS rr_S' float
LOOKUP_TABLE default
5.1329e-05
0.000118503
9.45356e-05
0.00012367
6.4887e-05
0.000100333
5.07503e-05
0.000122969
0.000105541
0.000133166
4.66193e-05
0.000123345
0.000108518
0.000114696
0.000134626
0.000112685
9.70567e-05
0.000109606
9.79594e-05
9.58994e-05
0.000107859
1.93237e-05
0.000110511
0.000101871
9.23389e-05
0.000106643
4.32724e-05
9.36114e-05
7.30743e-05
8.69887e-05
9.58664e-05
7.55423e-05
4.79269e-05
6.51329e-05
6.40414e-05
6.52791e-05
8.45816e-05
6.41624e-05
9.57662e-05
5.38724e-05
6.14191e-05
7.45474e-05
7.45546e-05
0.000105213
6.02092e-05
6.66404e-05
9.22118e-05
9.34282e-05
8.76287e-05
8.33713e-05
8.56493e-05
6.65307e-05
0.000104124
8.54932e-05
9.58531e-05
4.36959e-05
6.838e-05
8.61197e-05
6.83772e-05
0.000104551
0.000123889
0.00012155
4.25956e-05
8.56975e-05
0.000116425
0.000109765
0.000119843
0.000103579
9.52673e-05
0.000136008
0.000112967
0.000111736
7.58873e-05
8.88844e-05
9.39592e-05
4.94435e-05
9.70619e-05
0.000108746
0.00010445
7.34398e-05
6.60957e-05
7.32671e-05
0.000138356
6.61622e-05
8.93751e-05
3.30887e-05
0.000108136
9.05255e-05
6.37629e-05
9.5031e-06
7.40794e-05
1.03354e-05
8.23644e-05
7.87825e-05
7.01176e-05
6.38267e-05
6.07061e-05
0.000116911
9.71324e-05
9.3227e-05
7.89865e-05
7.56149e-05
6.34811e-05
0.000110694
0.000112551
0.000101358
8.92581e-05
9.03637e-05
6.73857e-05
0.000135099
8.66863e-05
4.54354e-05
6.07593e-05
0.000121138
0.000113513
8.25649e-05
7.92929e-05
5.04423e-05
8.22406e-05
8.22421e-05
7.16644e-05
0.000131214
0.000135053
0.000116102
0.000127658
0.000100345
5.68793e-05
0.000126227
5.49817e-05
7.1101e-05
5.90089e-05
0.000120483
0.000117809
0.000118303
7.86463e-05
4.81782e-05
5.25898e-05
8.66613e-05
0.000106078
4.81615e-05
6.56944e-05
0.000102189
7.72104e-05
0.000124765
6.13917e-05
0.000101785
9.23821e-05
8.92368e-05
5.70353e-05
7.26889e-05
8.12052e-05
0.000116271
6.7778e-05
0.000105217
0.000121928
0.000123866
8.10826e-05
6.76764e-05
6.72949e-05
0.000106222
8.90613e-05
6.72213e-05
4.436e-05
6.56246e-05
6.53615e-05
0.000113794
6.85875e-05
6.93428e-05
7.50412e-05
6.68389e-05
0.000100569
7.00273e-05
6.18941e-05
7.83587e-05
7.39829e-05
8.91958e-05
9.94744e-05
9.54912e-05
8.13947e-05
9.52806e-05
7.2835e-05
0.000110405
0.000118493
6.57067e-05
0.00011617
6.55881e-05
0.000114727
0.000105515
9.86209e-05
0.000100143
0.000117191
5.51317e-05
7.23909e-05
6.72204e-05
0.00011809
0.000116207
0.000107745
0.000117518
0.000119534
0.000100451
0.000123109
8.23897e-05
7.42065e-05
0.00013454
7.8013e-05
0.000122208
9.73041e-05
6.17262e-05
7.48047e-05
0.000121819
0.000101565
9.23255e-05
0.00011889
0.00011677
7.51827e-05
7.48639e-05
7.23762e-05
0.00010361
0.000114208
0.000131254
0.000126083
0.000137187
0.000124313
0.000135849
0.000113971
0.000119311
0.000120236
0.000113349
0.000119081
0.000109727
0.000108093
7.61787e-05
0.000102702
0.000120111
8.32985e-05
0.000122663
0.00011269
0.000130228
7.80196e-05
0.000123838
0.000118425
7.66784e-05
0.000106295
7.61561e-05
0.000119364
0.000108798
7.98356e-05
7.50944e-05
6.47501e-05
7.44885e-05
0.000119525
5.4361e-05
9.19574e-05
7.48106e-05
8.40877e-05
0.000123952
0.000120056
3.78385e-05
0.000120489
6.51056e-05
7.08159e-05
0.000123282
0.000100219
7.16393e-05
0.000137626
7.80573e-05
3.78382e-05
7.2417e-05
0.000107073
0.000133723
0.000101258
0.000119419
0.000111704
5.87678e-05
5.73921e-05
4.86904e-05
5.58733e-05
8.00685e-05
6.09804e-05
9.83554e-05
6.13393e-05
0.000106148
7.5706e-05
7.25253e-05
8.52542e-05
7.89617e-05
0.000105236
7.57186e-05
7.78317e-05
3.47186e-05
7.8969e-05
0.000114173
0.000114252
0.000103279
7.55799e-05
4.958e-05
0.000143471
9.61474e-05
8.01851e-05
7.38926e-05
7.40532e-05
7.62055e-05
9.34249e-05
7.48588e-05
5.33074e-05
7.38913e-05
5.04724e-05
9.19667e-05
7.53532e-05
3.23592e-05
7.09896e-05
8.43209e-05
7.53444e-05
0.000116497
7.82702e-05
0.000101203
3.84799e-05
8.12113e-05
7.73716e-05
6.80084e-05
7.26294e-05
8.5879e-05
8.1057e-05
8.46918e-05
7.17635e-05
7.29096e-05
7.87768e-05
0.000105739
7.42444e-05
0.000105505
9.51839e-05
7.54199e-05
7.70257e-05
7.78014e-05
8.61535e-05
7.76843e-05
7.26832e-05
8.26597e-05
8.70619e-05
0.000102573
7.77896e-05
7.72054e-05
0.000112202
0.000110633
7.42966e-05
7.54353e-05
3.31623e-05
9.07707e-05
6.25798e-05
8.51445e-05
3.69696e-05
3.8377e-05
3.42988e-05
3.48591e-05
3.69829e-05
3.89552e-05
4.01472e-05
9.58084e-05
7.10718e-05
7.13975e-05
8.1517e-05
7.93497e-05
7.8356e-05
8.31008e-05
7.66741e-05
7.84158e-05
8.02583e-05
7.80649e-05
9.62953e-05
7.08179e-05
9.89714e-05
7.67871e-05
7.40655e-05
7.816e-05
8.38571e-05
8.72999e-05
8.126e-05
9.31465e-05
8.69442e-05
8.05453e-05
5.7973e-05
8.10819e-05
7.93562e-05
8.56983e-05
8.17326e-05
7.74129e-05
7.36475e-05
8.11702e-05
8.47452e-05
0.000115161
7.58686e-05
0.000111962
0.000116575
7.97669e-05
0.000111792
8.56823e-05
6.85287e-05
9.36895e-05
8.19031e-05
5.93041e-05
5.14197e-05
9.25414e-05
9.85946e-05
8.32365e-05
6.91543e-05
8.33853e-05
3.90157e-05
8.22943e-05
7.71664e-05
3.9092e-05
1.52183e-05
1.66481e-05
7.12947e-05
7.58947e-05
8.82422e-05
8.47467e-05
7.83901e-06
8.19097e-06
8.41156e-05
8.49956e-05
8.04519e-05
2.92855e-05
7.10007e-05
8.28678e-05
8.42383e-05
7.26562e-05
6.41346e-05
3.04896e-05
0.000122009
7.63652e-05
9.3471e-05
9.49324e-05
6.81472e-05
8.62678e-05
6.66294e-05
7.35307e-05
3.62286e-05
5.48333e-05
8.63693e-05
8.69823e-05
7.47029e-05
7.84249e-05
8.09587e-05
8.53766e-05
8.1655e-05
3.9953e-05
7.19214e-05
8.07054e-05
7.65261e-05
0.000114877
3.99418e-05
6.20543e-05
6.39106e-05
6.08248e-05
3.96609e-05
3.96634e-05
6.96441e-05
5.59295e-05
8.01401e-05
4.27478e-05
4.73513e-05
1.54914e-05
1.54912e-05
3.17704e-05
5.13428e-05
3.46077e-05
6.82741e-05
7.41015e-05
7.88506e-05
8.89026e-05
8.07081e-05
7.47471e-05
5.87563e-05
3.59077e-05
7.37349e-05
7.64901e-05
7.40984e-05
4.0409e-05
3.79457e-05
2.91308e-05
7.39901e-05
7.54209e-05
6.03776e-05
6.84018e-05
6.31356e-05
5.80125e-05
7.73954e-05
5.8007e-05
6.82568e-05
6.59449e-05
4.05739e-05
5.00975e-05
4.59189e-05
8.18755e-05
3.19403e-05
3.36571e-05
3.29068e-05
7.73696e-05
3.04292e-05
2.97677e-05
5.36706e-05
2.77757e-05
6.28245e-05
6.29191e-05
2.85185e-05
6.80506e-05
3.17485e-05
3.14643e-05
3.55458e-05
3.00178e-05
2.9555e-05
4.47848e-05
3.51559e-05
3.18573e-05
3.01149e-05
6.23848e-05
7.13421e-05
3.32306e-05
6.88587e-05
2.72959e-05
6.98812e-05
5.54314e-05
2.85264e-05
2.42141e-05
2.6942e-05
3.57734e-05
5.99389e-05
4.95985e-05
2.08242e-05
2.31111e-05
6.69167e-05
1.96016e-05
1.96013e-05
2.22093e-05
2.49047e-05
2.76965e-05
3.27029e-05
5.39623e-05
5.00138e-05
6.69526e-05
1.96783e-05
1.96781e-05
5.90827e-05
2.38776e-05
4.76185e-05
2.16412e-05
2.18354e-05
2.87719e-05
5.07312e-05
5.25297e-05
5.59576e-05
5.12848e-05
5.07296e-05
1.11015e-05
8.18829e-05
1.41525e-05
1.37238e-05
6.61541e-05
6.56962e-05
1.42226e-05
9.87599e-06
1.39073e-05
6.10089e-05
SCALARS rr_P' float
LOOKUP_TABLE default
3.54499e-05
7.503e-05
6.03127e-05
7.84238e-05
4.0175e-05
6.4023e-05
3.506e-05
7.80513e-05
6.78331e-05
8.43407e-05
3.20358e-05
7.82912e-05
6.90041e-05
7.25534e-05
8.40568e-05
7.1796e-05
6.12083e-05
6.96455e-05
6.32126e-05
6.13196e-05
6.90447e-05
1.16069e-05
7.07438e-05
6.51305e-05
5.90505e-05
6.76632e-05
2.93745e-05
5.96685e-05
4.83031e-05
5.32072e-05
6.0974e-05
4.99256e-05
3.25726e-05
4.00488e-05
3.92654e-05
4.01417e-05
5.16848e-05
3.93825e-05
6.09212e-05
3.66041e-05
4.06081e-05
4.55367e-05
4.55444e-05
6.69166e-05
4.0589e-05
4.39937e-05
5.93914e-05
5.99585e-05
5.58972e-05
5.54104e-05
5.67455e-05
4.3583e-05
6.45565e-05
5.59885e-05
5.94693e-05
2.93733e-05
4.1917e-05
5.63992e-05
4.19183e-05
6.68238e-05
7.81592e-05
7.61141e-05
2.87516e-05
5.36851e-05
7.28961e-05
6.92195e-05
7.55852e-05
6.57147e-05
6.09498e-05
8.60962e-05
7.00517e-05
6.92909e-05
5.01744e-05
5.58972e-05
5.99252e-05
3.37283e-05
6.04913e-05
6.85812e-05
6.62729e-05
4.80159e-05
4.40022e-05
4.52353e-05
8.69617e-05
4.41566e-05
5.89214e-05
2.22822e-05
6.89258e-05
5.70076e-05
4.29801e-05
5.73441e-06
4.8521e-05
6.23757e-06
5.13099e-05
4.97325e-05
4.58883e-05
4.2323e-05
4.04074e-05
7.40536e-05
6.05422e-05
5.9326e-05
5.12248e-05
4.97438e-05
4.23759e-05
7.02791e-05
7.13486e-05
6.42373e-05
5.60422e-05
5.75453e-05
4.4988e-05
8.54404e-05
5.54009e-05
3.05426e-05
4.06832e-05
7.69489e-05
7.19708e-05
5.40549e-05
4.86115e-05
3.35868e-05
5.04319e-05
5.38275e-05
4.63354e-05
8.20072e-05
8.55177e-05
7.31024e-05
8.06874e-05
6.2604e-05
3.49803e-05
7.99578e-05
3.65966e-05
4.65339e-05
3.65946e-05
7.63319e-05
7.40802e-05
7.49282e-05
5.1731e-05
2.95341e-05
3.51726e-05
5.50729e-05
6.66735e-05
2.95262e-05
4.31702e-05
6.47002e-05
4.98522e-05
7.9014e-05
4.08924e-05
6.45612e-05
5.85708e-05
5.69248e-05
3.63927e-05
4.7267e-05
5.21298e-05
7.3626e-05
4.48038e-05
6.68933e-05
7.72213e-05
7.84691e-05
5.12239e-05
4.44327e-05
4.41707e-05
6.75481e-05
5.71484e-05
4.44071e-05
2.98381e-05
4.34796e-05
4.29185e-05
7.21134e-05
4.50336e-05
4.55353e-05
4.96015e-05
4.38805e-05
6.26384e-05
4.58606e-05
4.10121e-05
4.94626e-05
4.84412e-05
5.60195e-05
6.19608e-05
6.06173e-05
5.04431e-05
6.03801e-05
4.81382e-05
6.99406e-05
7.50712e-05
4.31723e-05
7.31431e-05
4.34846e-05
7.22383e-05
6.62343e-05
6.14041e-05
6.34304e-05
7.37775e-05
3.66625e-05
4.7402e-05
4.44282e-05
7.47998e-05
7.38625e-05
6.84543e-05
7.39018e-05
7.57006e-05
6.33643e-05
7.79493e-05
5.31054e-05
4.84848e-05
8.46132e-05
5.15538e-05
7.68139e-05
6.13677e-05
4.06285e-05
4.67932e-05
7.71245e-05
6.34813e-05
5.83738e-05
7.53834e-05
7.33895e-05
4.88748e-05
4.72995e-05
4.72466e-05
6.50407e-05
7.21979e-05
8.2976e-05
7.97847e-05
8.67748e-05
7.86267e-05
8.59299e-05
7.21386e-05
7.45381e-05
7.51351e-05
7.08143e-05
7.43868e-05
6.80702e-05
6.70551e-05
4.95528e-05
6.49911e-05
7.62395e-05
5.34775e-05
7.65878e-05
7.0337e-05
8.26417e-05
5.09653e-05
7.86287e-05
7.5011e-05
4.98265e-05
6.64855e-05
4.95071e-05
7.50014e-05
6.91042e-05
5.18695e-05
4.90023e-05
4.31158e-05
4.95751e-05
7.51172e-05
3.62561e-05
5.85273e-05
4.88388e-05
5.42331e-05
7.87094e-05
7.59077e-05
2.31022e-05
7.61984e-05
4.34462e-05
4.62307e-05
7.8257e-05
6.36149e-05
4.68167e-05
8.70226e-05
5.03772e-05
2.31035e-05
4.72666e-05
6.76753e-05
8.42389e-05
6.43311e-05
7.45775e-05
7.03604e-05
3.64362e-05
3.64971e-05
3.26865e-05
3.76274e-05
4.97629e-05
3.90282e-05
6.24319e-05
3.98723e-05
6.63854e-05
4.77905e-05
4.73426e-05
5.38069e-05
5.11916e-05
6.66945e-05
4.90845e-05
5.0833e-05
2.10545e-05
4.91449e-05
7.12704e-05
7.13305e-05
6.53697e-05
4.89635e-05
3.05147e-05
9.04072e-05
6.16803e-05
5.19315e-05
4.79883e-05
4.60262e-05
4.95227e-05
5.81998e-05
4.85697e-05
3.59279e-05
4.78793e-05
3.36346e-05
5.77213e-05
4.8967e-05
1.96259e-05
4.60586e-05
5.30316e-05
4.90107e-05
7.33257e-05
5.07951e-05
6.45036e-05
2.60084e-05
5.18547e-05
5.02895e-05
4.22873e-05
4.72302e-05
5.50927e-05
5.10133e-05
5.36098e-05
4.65679e-05
4.7238e-05
5.08534e-05
6.63732e-05
4.811e-05
6.69694e-05
6.06652e-05
4.67662e-05
4.99043e-05
5.02444e-05
5.51948e-05
5.01206e-05
4.71353e-05
5.33204e-05
5.45067e-05
6.51232e-05
5.02175e-05
5.01914e-05
7.10587e-05
7.00545e-05
4.81606e-05
4.67796e-05
2.28566e-05
5.78707e-05
4.16658e-05
5.45286e-05
2.6654e-05
2.7666e-05
2.4714e-05
2.5123e-05
2.66474e-05
2.80883e-05
2.89376e-05
6.01156e-05
4.38452e-05
4.53953e-05
5.23161e-05
5.11791e-05
5.05563e-05
5.2663e-05
4.95008e-05
5.0647e-05
4.95032e-05
5.03703e-05
6.02001e-05
4.63864e-05
6.19159e-05
4.90106e-05
4.7539e-05
5.0447e-05
5.21076e-05
5.56555e-05
5.21245e-05
5.93784e-05
5.57665e-05
5.20095e-05
3.79156e-05
5.20461e-05
5.06316e-05
5.356e-05
5.26723e-05
5.00272e-05
4.74767e-05
5.21293e-05
5.40838e-05
7.29729e-05
4.89139e-05
7.09552e-05
7.44572e-05
5.12159e-05
7.09481e-05
5.47124e-05
4.42282e-05
5.89732e-05
5.2493e-05
3.66106e-05
3.46528e-05
5.80644e-05
6.1728e-05
5.31167e-05
4.4309e-05
5.25951e-05
2.68617e-05
5.25201e-05
4.94636e-05
2.64095e-05
9.23381e-06
1.00988e-05
4.54578e-05
4.89538e-05
5.65027e-05
5.46104e-05
4.69177e-06
4.90242e-06
5.33832e-05
5.39338e-05
5.10733e-05
2.01654e-05
4.5861e-05
5.20971e-05
5.40811e-05
4.66806e-05
4.11814e-05
2.10259e-05
7.68336e-05
4.92796e-05
5.96083e-05
6.05394e-05
4.37897e-05
5.53428e-05
4.28154e-05
4.72153e-05
2.46019e-05
3.65338e-05
5.54124e-05
5.54631e-05
4.78731e-05
5.04111e-05
5.19121e-05
5.46872e-05
5.23294e-05
2.69236e-05
4.48965e-05
5.20357e-05
4.8279e-05
7.23079e-05
2.69307e-05
3.9587e-05
4.08024e-05
3.77163e-05
2.40814e-05
2.40839e-05
4.33475e-05
3.61315e-05
5.11202e-05
2.88479e-05
2.88021e-05
9.29051e-06
9.29076e-06
2.193e-05
3.1516e-05
2.11671e-05
4.35871e-05
4.61784e-05
5.01351e-05
5.62766e-05
5.07902e-05
4.6934e-05
3.72964e-05
2.47278e-05
4.69714e-05
4.82901e-05
4.6591e-05
2.75796e-05
2.32735e-05
1.97081e-05
4.65387e-05
4.77262e-05
3.91995e-05
4.35103e-05
4.00897e-05
3.59517e-05
4.90867e-05
3.59506e-05
4.35207e-05
4.14585e-05
2.48527e-05
3.06676e-05
3.09785e-05
5.17709e-05
2.20955e-05
2.32447e-05
2.28084e-05
4.87219e-05
2.09736e-05
2.06693e-05
3.44961e-05
1.92343e-05
3.87776e-05
3.88382e-05
1.97214e-05
4.35934e-05
2.15529e-05
2.17752e-05
2.41715e-05
2.07811e-05
2.0098e-05
2.7477e-05
2.3793e-05
2.19507e-05
2.083e-05
3.96256e-05
4.47127e-05
2.2628e-05
4.37307e-05
1.89431e-05
4.42566e-05
3.54894e-05
1.97605e-05
1.65098e-05
1.86873e-05
2.46933e-05
3.82812e-05
3.05735e-05
1.251e-05
1.39001e-05
4.23184e-05
1.17785e-05
1.17787e-05
1.3352e-05
1.50776e-05
1.87139e-05
2.00411e-05
3.35649e-05
3.08287e-05
4.23868e-05
1.18913e-05
1.18915e-05
3.63574e-05
1.64972e-05
3.05115e-05
1.49336e-05
1.47924e-05
1.94821e-05
3.08902e-05
3.19928e-05
3.41002e-05
3.12465e-05
3.08909e-05
6.67972e-06
4.98882e-05
8.55233e-06
8.24277e-06
4.02743e-05
3.99911e-05
8.53908e-06
5.94048e-06
8.40104e-06
3.71985e-05
SCALARS rr_T' float
LOOKUP_TABLE default
0.000209583
0.00047746
0.000381318
0.000498395
0.000260587
0.000404713
0.000207229
0.000495631
0.000426177
0.000536565
0.000190207
0.000497149
0.000437504
0.000462057
0.000541323
0.000454433
0.000390825
0.000441845
0.000395799
0.000386947
0.000435274
7.7274e-05
0.000445982
0.000411036
0.000372588
0.000429806
0.000176206
0.00037754
0.00029633
0.00034875
0.000386509
0.000306331
0.000195195
0.000261321
0.000256834
0.00026191
0.000339053
0.000257358
0.000386116
0.000219401
0.000249075
0.000298815
0.000298847
0.000424191
0.000244908
0.000270186
0.00037247
0.00037718
0.00035345
0.000338371
0.000347448
0.000269424
0.000418249
0.000346199
0.000385064
0.000177656
0.000274226
0.000348737
0.000274217
0.00042183
0.000498902
0.000488946
0.000173294
0.000344745
0.000468321
0.000441992
0.000482588
0.000417455
0.000384429
0.000547977
0.000453782
0.000448837
0.000307748
0.000357767
0.000378974
0.000201491
0.000390171
0.000437892
0.000420969
0.000297318
0.000268324
0.000294122
0.000556856
0.000268699
0.000362285
0.000134568
0.000436116
0.000364446
0.000259358
3.80269e-05
0.000299987
4.13583e-05
0.000331071
0.000317282
0.000283907
0.000258956
0.000246437
0.000471074
0.000390461
0.000375897
0.000319378
0.000306407
0.000257819
0.000446176
0.000453561
0.000408438
0.00035919
0.000364391
0.000273682
0.000544245
0.000349748
0.000184731
0.000246882
0.00048831
0.000457448
0.000334326
0.000317994
0.000204781
0.000329828
0.000333004
0.000289641
0.00052768
0.000544154
0.000467407
0.000514227
0.000403434
0.00022821
0.000508615
0.000223198
0.000287892
0.000237039
0.000485485
0.000474189
0.000476681
0.000318684
0.000193212
0.000213647
0.000349353
0.000426946
0.000193147
0.000266163
0.000411726
0.00031199
0.000502707
0.000249247
0.000410209
0.000372288
0.000359938
0.000230062
0.000294034
0.00032785
0.00046848
0.000274855
0.000424182
0.00049128
0.000499113
0.000326582
0.000274155
0.000272599
0.000428251
0.000359543
0.00027257
0.000180375
0.000266216
0.000264783
0.000458547
0.000277848
0.000280913
0.000304305
0.000270761
0.000404235
0.000283572
0.000251087
0.000315573
0.00029958
0.000358955
0.00039984
0.000384888
0.000326928
0.000383943
0.000295353
0.000444868
0.000477465
0.000266207
0.000467674
0.000266095
0.000461872
0.000424595
0.000396385
0.000403509
0.000471775
0.000223775
0.000293137
0.000272587
0.000475828
0.000468477
0.000434337
0.000473023
0.000481635
0.000404503
0.000496023
0.000332833
0.00030039
0.000541543
0.000316344
0.000491865
0.000391821
0.000250148
0.000300863
0.000490821
0.000408444
0.000371909
0.00047912
0.000469975
0.000304109
0.000301537
0.000292941
0.00041693
0.000460059
0.000528724
0.000507968
0.000552669
0.000500798
0.000547279
0.00045918
0.000479784
0.000483522
0.000455811
0.000478851
0.000440792
0.00043423
0.000308166
0.000413766
0.000484125
0.000336303
0.000493222
0.000453098
0.000524887
0.000315816
0.000499169
0.000477174
0.000310138
0.000427511
0.000308044
0.000480397
0.000438572
0.000322901
0.000303925
0.00026287
0.000302385
0.000481056
0.000220747
0.000370787
0.000302797
0.000339725
0.000499639
0.000483628
0.00015166
0.000485386
0.000264399
0.000286629
0.000496913
0.000403939
0.000290007
0.000554409
0.000315392
0.000151661
0.0002931
0.000431305
0.000538385
0.000408184
0.00048019
0.000449724
0.00023606
0.000231386
0.000197922
0.000227233
0.000321733
0.000246085
0.000396428
0.000248109
0.000426912
0.000304891
0.000293544
0.000343335
0.000319261
0.000424065
0.000306144
0.000315046
0.000139023
0.000317377
0.00045907
0.000459398
0.000416099
0.000305554
0.000198947
0.000577654
0.000388136
0.000324158
0.000298843
0.000297564
0.000308229
0.00037553
0.000302707
0.000216826
0.000298737
0.00020493
0.000370068
0.00030478
0.000129578
0.000287061
0.000339405
0.000304791
0.000468973
0.000316514
0.000408154
0.000156582
0.000327614
0.000312954
0.000273293
0.000293795
0.000346684
0.000326297
0.000341221
0.000290197
0.000294763
0.00031831
0.000425495
0.000300166
0.000425243
0.000383876
0.000302954
0.000311403
0.000314388
0.000347722
0.000313869
0.000293889
0.000333962
0.000350205
0.000413442
0.000314322
0.000312292
0.000452085
0.000445753
0.000300394
0.000303019
0.000135367
0.000366094
0.000254054
0.000343631
0.000152029
0.000157814
0.000141032
0.000143341
0.000152069
0.000160196
0.000165088
0.000385512
0.000285282
0.000287845
0.000329096
0.000320584
0.000316585
0.000334864
0.000309818
0.000316876
0.000322148
0.000315411
0.000387264
0.000286781
0.000398072
0.000309749
0.000299017
0.000315809
0.000336947
0.000352093
0.000328032
0.000375669
0.000350975
0.00032547
0.000234712
0.000327348
0.000320092
0.000344632
0.000330171
0.00031285
0.000297523
0.000327729
0.000341843
0.000464046
0.000306501
0.000451166
0.000470297
0.000322052
0.000450574
0.000345653
0.000276892
0.000377161
0.000330587
0.000238069
0.000209145
0.000372364
0.000396596
0.000335753
0.000279116
0.000335779
0.000159232
0.000331958
0.000311474
0.00015906
6.09429e-05
6.66662e-05
0.000287549
0.000306628
0.000356123
0.000342341
3.1332e-05
3.27387e-05
0.000339027
0.000342564
0.000324272
0.000119522
0.000286916
0.000333537
0.000340097
0.00029337
0.000258939
0.000124468
0.000491196
0.00030855
0.000376999
0.000382893
0.00027517
0.000348254
0.000269042
0.000296876
0.000147531
0.00022263
0.000348668
0.000350822
0.000301519
0.000316685
0.000326798
0.000344577
0.000329581
0.000162503
0.000289181
0.000326045
0.000308167
0.000462451
0.000162472
0.000250299
0.000257816
0.000244327
0.000158842
0.000158853
0.000279907
0.000226017
0.000323245
0.000173909
0.00018969
6.19352e-05
6.19349e-05
0.000129716
0.000205941
0.000138746
0.000275416
0.000297872
0.000317892
0.000358187
0.000324892
0.000300796
0.000236822
0.000146553
0.00029735
0.000308054
0.000298247
0.000164687
0.000152188
0.000118556
0.000297826
0.000303852
0.000244175
0.000275784
0.000254485
0.000233013
0.00031191
0.000232993
0.000275295
0.000265422
0.000162699
0.000200871
0.000186801
0.000329821
0.000130451
0.000137426
0.000134441
0.00031148
0.00012421
0.000121651
0.000216723
0.000113461
0.000252192
0.000252574
0.000116469
0.000274655
0.00012928
0.000128515
0.000144783
0.000122613
0.000120382
0.000179624
0.000143088
0.000130033
0.000122993
0.00025147
0.000287017
0.000135382
0.00027756
0.000111541
0.000281567
0.000223705
0.000116532
9.86691e-05
0.000110084
0.000146061
0.000241807
0.000199064
8.32763e-05
9.24369e-05
0.000269566
7.83899e-05
7.83892e-05
8.88246e-05
9.97026e-05
0.000112699
0.000131145
0.000216859
0.000200731
0.000269754
7.87586e-05
7.8758e-05
0.00023707
9.75054e-05
0.000192196
8.83543e-05
8.88836e-05
0.000117112
0.00020326
0.000210473
0.000224226
0.000205496
0.000203255
4.44049e-05
0.000328099
5.66429e-05
5.48802e-05
0.000265047
0.000263208
5.68716e-05
3.95012e-05
5.56585e-05
0.000244485
SCALARS rr_uec(SIM,_S_ext) float
LOOKUP_TABLE default
0.0133543
0.0304261
0.0242991
0.0317601
0.016606
0.0257899
0.0132043
0.0315836
0.0271574
0.0341924
0.0121201
0.0316804
0.0278795
0.0294443
0.0344959
0.0289583
0.0249053
0.0281563
0.0252217
0.0246578
0.0277372
0.00492442
0.0284197
0.0261928
0.0237428
0.0273892
0.0112279
0.0240584
0.0188827
0.0222245
0.0246299
0.01952
0.0124378
0.0166529
0.0163669
0.0166904
0.0216066
0.0164003
0.0246049
0.0139802
0.0158716
0.0190424
0.0190444
0.0270311
0.0156058
0.0172167
0.023735
0.0240352
0.0225232
0.0215616
0.02214
0.0171683
0.0266531
0.0220605
0.0245383
0.0113204
0.0174752
0.0222223
0.0174747
0.0268806
0.0317925
0.031158
0.0110423
0.0219688
0.0298437
0.0281657
0.0307529
0.0266021
0.0244973
0.0349197
0.0289174
0.0286023
0.0196103
0.0227985
0.0241497
0.012839
0.0248636
0.0279045
0.026826
0.0189459
0.0170979
0.018743
0.0354856
0.0171218
0.0230854
0.00857481
0.0277911
0.0232241
0.0165267
0.00242332
0.0191158
0.00263562
0.0210976
0.0202186
0.0180912
0.0165012
0.0157033
0.030019
0.0248821
0.0239537
0.0203517
0.0195248
0.0164286
0.0284324
0.0289029
0.0260275
0.0228894
0.0232204
0.0174394
0.0346821
0.0222873
0.0117713
0.0157317
0.0311173
0.0291507
0.0213039
0.0202644
0.0130489
0.0210185
0.0212197
0.0184569
0.0336266
0.0346761
0.0297854
0.0327691
0.025709
0.0145428
0.0324112
0.0142224
0.0183451
0.0151054
0.0309375
0.0302177
0.0303764
0.0203071
0.0123126
0.0136137
0.0222622
0.0272071
0.0123084
0.0169604
0.0262369
0.019881
0.0320348
0.0158822
0.0261404
0.0237238
0.0229366
0.0146604
0.0187366
0.0208917
0.0298538
0.0175143
0.0270305
0.0313066
0.0318059
0.0208113
0.0174696
0.0173705
0.02729
0.0229113
0.0173688
0.0114937
0.0169638
0.0168725
0.0292207
0.017705
0.0179003
0.0193909
0.0172534
0.0257599
0.0180698
0.0159997
0.0201097
0.0190899
0.0228744
0.0254798
0.0245266
0.0208335
0.0244665
0.0188204
0.028349
0.0304262
0.0169632
0.0298023
0.0169561
0.0294327
0.0270572
0.0252596
0.0257134
0.0300636
0.0142592
0.0186794
0.0173698
0.0303221
0.0298534
0.0276779
0.0301434
0.0306921
0.0257767
0.031609
0.0212093
0.0191416
0.0345098
0.020158
0.0313441
0.0249686
0.0159399
0.0191725
0.0312775
0.026028
0.0236996
0.0305317
0.0299491
0.0193787
0.0192153
0.018667
0.0265688
0.0293173
0.033693
0.0323703
0.0352189
0.0319134
0.0348754
0.029261
0.0305743
0.0308126
0.0290467
0.0305149
0.0280896
0.0276715
0.0196372
0.0263671
0.0308509
0.0214303
0.0314307
0.0288737
0.0334484
0.0201246
0.0318096
0.0304077
0.0197629
0.0272431
0.0196294
0.0306133
0.027948
0.0205761
0.0193669
0.0167504
0.0192685
0.0306553
0.0140662
0.023628
0.019295
0.0216484
0.0318395
0.0308192
0.00966474
0.0309313
0.0168477
0.0182648
0.0316658
0.0257407
0.01848
0.0353298
0.0200977
0.00966476
0.0186771
0.0274849
0.0343084
0.0260113
0.0306002
0.0286584
0.015043
0.0147449
0.0126118
0.0144795
0.0205025
0.0156814
0.0252621
0.0158101
0.027205
0.019429
0.0187054
0.0218788
0.0203442
0.0270232
0.0195083
0.0200756
0.00885945
0.0202249
0.0292544
0.0292753
0.0265157
0.0194707
0.0126781
0.0368108
0.0247334
0.0206562
0.0190431
0.0189623
0.0196412
0.0239306
0.0192893
0.0138164
0.0190364
0.0130583
0.0235825
0.0194215
0.00825753
0.0182923
0.0216285
0.0194221
0.0298851
0.0201691
0.0260092
0.00997734
0.0208769
0.0199423
0.0174157
0.0187215
0.0220919
0.0207931
0.0217443
0.0184922
0.0187831
0.0202837
0.0271145
0.0191274
0.0270982
0.0244621
0.0193058
0.0198434
0.0200337
0.0221581
0.0200007
0.0187274
0.0212811
0.0223167
0.0263463
0.0200295
0.0199001
0.0288087
0.0284052
0.0191419
0.0193099
0.00862564
0.0233289
0.0161887
0.0218974
0.00968734
0.010056
0.00898664
0.00913378
0.00968993
0.0102077
0.0105194
0.0245667
0.0181798
0.0183427
0.0209711
0.0204287
0.0201737
0.0213389
0.0197426
0.0201923
0.020529
0.020099
0.0246783
0.0182744
0.0253672
0.0197384
0.0190544
0.0201243
0.021472
0.0224367
0.0209034
0.0239391
0.0223654
0.02074
0.0149565
0.0208598
0.0203975
0.0219616
0.0210396
0.0199358
0.0189591
0.020884
0.0217835
0.029571
0.0195313
0.0287502
0.0299691
0.0205223
0.0287124
0.0220263
0.0176444
0.0240345
0.0210661
0.0151711
0.013327
0.0237288
0.025273
0.0213955
0.0177862
0.0213973
0.0101463
0.0211537
0.0198482
0.0101353
0.00388366
0.00424838
0.0183237
0.0195394
0.0226934
0.0218151
0.00199668
0.00208633
0.0216043
0.0218296
0.020664
0.00761598
0.0182832
0.0212545
0.0216721
0.0186945
0.0165005
0.00793117
0.0313013
0.0196618
0.0240238
0.0243994
0.0175347
0.0221919
0.0171442
0.0189179
0.00940073
0.0141862
0.0222183
0.0223557
0.0192139
0.0201802
0.0208247
0.0219577
0.0210021
0.0103549
0.018428
0.0207767
0.0196378
0.0294695
0.0103529
0.0159501
0.016429
0.0155698
0.0101225
0.0101232
0.0178372
0.0144025
0.0205984
0.0110817
0.0120883
0.00394693
0.00394691
0.0082656
0.0131237
0.00884176
0.0175506
0.0189819
0.0202574
0.0228253
0.0207037
0.0191681
0.0150912
0.00933845
0.0189483
0.0196306
0.0190057
0.0104939
0.00969832
0.0075543
0.0189789
0.0193628
0.0155595
0.0175741
0.0162168
0.0148489
0.0198762
0.0148476
0.0175429
0.0169139
0.0103682
0.0128007
0.0119031
0.0210178
0.00831212
0.0087565
0.00856638
0.0198489
0.00791467
0.00775144
0.0138103
0.00722957
0.016071
0.0160953
0.0074212
0.0175021
0.00823775
0.00818872
0.00922557
0.00781268
0.00767073
0.0114466
0.00911772
0.00828571
0.00783696
0.0160247
0.0182901
0.00862652
0.0176872
0.00710724
0.0179427
0.0142553
0.00742523
0.00628721
0.00701434
0.00930708
0.0154089
0.0126854
0.00530694
0.00589071
0.017178
0.00499555
0.0049955
0.00566051
0.00635371
0.00718127
0.00835735
0.0138194
0.0127916
0.0171899
0.00501902
0.00501898
0.0151074
0.00621311
0.0122475
0.00562994
0.0056636
0.00746237
0.0129531
0.0134127
0.0142891
0.0130955
0.0129527
0.00282978
0.0209085
0.00360965
0.00349733
0.0168905
0.0167733
0.00362423
0.00251728
0.00354692
0.0155801
SCALARS rr_uec(PEX,_P_ext) float
LOOKUP_TABLE default
-0.060906
-0.13881
-0.110855
-0.144896
-0.0757672
-0.117656
-0.060222
-0.144091
-0.123892
-0.155993
-0.0552772
-0.144532
-0.127191
-0.134332
-0.157387
-0.132111
-0.113625
-0.128454
-0.115059
-0.11249
-0.126539
-0.022471
-0.129652
-0.119493
-0.108316
-0.124955
-0.051211
-0.109757
-0.0861335
-0.101407
-0.112366
-0.0890405
-0.0567294
-0.075983
-0.0746793
-0.0761542
-0.0985879
-0.0748313
-0.112251
-0.0637643
-0.0723981
-0.0868878
-0.0868969
-0.12332
-0.0711804
-0.0785346
-0.108278
-0.109649
-0.102753
-0.0983512
-0.100991
-0.0783161
-0.121607
-0.100633
-0.111958
-0.0516348
-0.0797363
-0.101371
-0.0797337
-0.122631
-0.145046
-0.142156
-0.0503658
-0.100231
-0.13616
-0.128501
-0.140304
-0.121364
-0.111758
-0.159312
-0.131939
-0.130501
-0.0894524
-0.104015
-0.110174
-0.0585582
-0.113441
-0.127309
-0.122385
-0.0864251
-0.0779904
-0.0855187
-0.161898
-0.0780985
-0.105306
-0.0391112
-0.126786
-0.105956
-0.0753804
-0.0110578
-0.0872001
-0.0120266
-0.0962582
-0.0922433
-0.0825263
-0.075269
-0.0716288
-0.136953
-0.113525
-0.10928
-0.0928411
-0.0890644
-0.0749362
-0.129713
-0.131861
-0.118743
-0.10443
-0.105935
-0.0795467
-0.158227
-0.101676
-0.0536911
-0.0717565
-0.141962
-0.132991
-0.0971817
-0.0924627
-0.0595211
-0.0959035
-0.0967977
-0.0841979
-0.15342
-0.1582
-0.135891
-0.149501
-0.117297
-0.0663554
-0.147867
-0.0648742
-0.0836845
-0.0689201
-0.141143
-0.137864
-0.138584
-0.0926331
-0.05618
-0.0620966
-0.101564
-0.124129
-0.056161
-0.077367
-0.119699
-0.0906952
-0.14615
-0.0724451
-0.119257
-0.108233
-0.104639
-0.0668824
-0.0854725
-0.0953082
-0.136199
-0.0798916
-0.123318
-0.142828
-0.145105
-0.0949468
-0.0796901
-0.079238
-0.124501
-0.104522
-0.0792277
-0.0524251
-0.0773798
-0.0769662
-0.133311
-0.0807638
-0.0816547
-0.0884517
-0.0787037
-0.11753
-0.0824286
-0.072982
-0.0917464
-0.0870819
-0.104361
-0.116252
-0.111895
-0.0950556
-0.111622
-0.0858496
-0.129334
-0.138811
-0.0773799
-0.135968
-0.0773442
-0.134282
-0.123446
-0.115248
-0.11731
-0.137161
-0.0650422
-0.0852091
-0.0792323
-0.138336
-0.136196
-0.126271
-0.137524
-0.140024
-0.117601
-0.144207
-0.0967552
-0.0873184
-0.157446
-0.091951
-0.143003
-0.113914
-0.0727113
-0.0874735
-0.142695
-0.118752
-0.108124
-0.139292
-0.136639
-0.0884014
-0.0876654
-0.0851534
-0.121217
-0.133752
-0.153715
-0.14768
-0.160676
-0.145596
-0.15911
-0.133496
-0.139494
-0.140581
-0.132525
-0.139223
-0.128162
-0.126254
-0.0895805
-0.120293
-0.140747
-0.0977654
-0.143402
-0.131736
-0.152597
-0.0918025
-0.14512
-0.138727
-0.0901543
-0.124295
-0.0895454
-0.139669
-0.127503
-0.0938643
-0.0883466
-0.0764051
-0.0878908
-0.13986
-0.0641611
-0.107795
-0.0880183
-0.0987584
-0.145257
-0.140605
-0.044099
-0.141116
-0.0768486
-0.0833186
-0.144464
-0.117434
-0.0843001
-0.161183
-0.0916842
-0.0440991
-0.0851996
-0.125393
-0.156526
-0.118668
-0.139613
-0.130749
-0.0686354
-0.0672685
-0.0575255
-0.0660434
-0.0935441
-0.0715396
-0.115251
-0.0721227
-0.124121
-0.0886409
-0.0853287
-0.0998177
-0.0928072
-0.123286
-0.088994
-0.0915789
-0.0404257
-0.0922771
-0.133473
-0.133568
-0.120971
-0.0888227
-0.0578467
-0.167942
-0.112834
-0.0942309
-0.086871
-0.0865169
-0.0895992
-0.109184
-0.0879946
-0.0630187
-0.0868412
-0.059564
-0.107593
-0.0885968
-0.0376791
-0.0834464
-0.0986768
-0.0885995
-0.136346
-0.0920081
-0.118657
-0.0455082
-0.0952422
-0.0909726
-0.07946
-0.0854032
-0.100784
-0.0948655
-0.0992022
-0.0843581
-0.0856858
-0.0925325
-0.123707
-0.0872566
-0.123628
-0.111599
-0.0880848
-0.0905229
-0.0913921
-0.101086
-0.0912416
-0.0854314
-0.0970827
-0.101819
-0.120197
-0.091373
-0.0907801
-0.131432
-0.129592
-0.0873225
-0.0881036
-0.0393392
-0.106429
-0.0738428
-0.099897
-0.0441724
-0.0458532
-0.0409774
-0.0416483
-0.0441842
-0.0465452
-0.0479667
-0.112083
-0.0829488
-0.0836823
-0.0956705
-0.0931941
-0.0920311
-0.097353
-0.0900638
-0.0921154
-0.093668
-0.0916899
-0.112594
-0.0833615
-0.115736
-0.0900485
-0.0869263
-0.0918055
-0.0979676
-0.102359
-0.0953616
-0.109213
-0.102031
-0.0946137
-0.0682266
-0.0951624
-0.0930556
-0.100199
-0.0959812
-0.090945
-0.0864903
-0.0952729
-0.0993787
-0.13491
-0.0891003
-0.131165
-0.136722
-0.0936226
-0.130992
-0.100486
-0.0804925
-0.109653
-0.0961045
-0.0692208
-0.0607863
-0.10826
-0.115307
-0.0976085
-0.0811415
-0.0976212
-0.0462749
-0.0965052
-0.0905481
-0.0462288
-0.0177211
-0.0193854
-0.083595
-0.089137
-0.103529
-0.0995193
-0.00911135
-0.00952043
-0.0985628
-0.099591
-0.0942731
-0.0347347
-0.0834061
-0.0969709
-0.0988685
-0.0852842
-0.0752754
-0.0361718
-0.142807
-0.0896955
-0.1096
-0.111313
-0.0799933
-0.10124
-0.0782119
-0.0863036
-0.0428771
-0.0647087
-0.10136
-0.101989
-0.0876544
-0.0920619
-0.0950028
-0.100172
-0.0958123
-0.0472303
-0.0840777
-0.0947817
-0.0895936
-0.13445
-0.047221
-0.0727659
-0.0749508
-0.071039
-0.0461885
-0.0461916
-0.0813828
-0.0657029
-0.0939722
-0.050545
-0.0551581
-0.0180106
-0.0180105
-0.0376969
-0.0598809
-0.0403436
-0.0800674
-0.0866052
-0.0924176
-0.104134
-0.0944572
-0.0874524
-0.0688493
-0.0425903
-0.0864446
-0.0895604
-0.0867108
-0.047862
-0.0442515
-0.0344563
-0.0865884
-0.0883377
-0.0709795
-0.0801756
-0.0739844
-0.0677498
-0.0906795
-0.0677439
-0.0800327
-0.0771676
-0.0473082
-0.0584074
-0.0542918
-0.0958883
-0.0379095
-0.0399366
-0.0390687
-0.0905576
-0.0360968
-0.0353517
-0.0630024
-0.0329721
-0.0733273
-0.0734382
-0.0338463
-0.079845
-0.0375728
-0.0373467
-0.042078
-0.0356317
-0.0349863
-0.0522287
-0.0415866
-0.037789
-0.0357424
-0.0731076
-0.0834471
-0.0393455
-0.0806926
-0.0324138
-0.0818586
-0.0650333
-0.0338645
-0.0286757
-0.0319903
-0.0424467
-0.0702967
-0.0578801
-0.0242164
-0.0268802
-0.0783703
-0.0227955
-0.0227952
-0.0258298
-0.0289921
-0.0327545
-0.038133
-0.0630517
-0.0583647
-0.0784244
-0.0229021
-0.0229019
-0.0689313
-0.028336
-0.0558733
-0.0256766
-0.0258324
-0.0340367
-0.0591037
-0.061201
-0.0651998
-0.0597536
-0.0591022
-0.0129127
-0.0954037
-0.0164711
-0.0159589
-0.0770701
-0.0765354
-0.0165381
-0.0114867
-0.0161849
-0.0710906
SCALARS cell_type float
LOOKUP_TABLE default
0
0
0
0
0
0
0
0
0
0
0
0
0
0
0
0
0
0
0
0
0
1
0
0
0
0
0
0
0
0
0
0
0
0
0
0
0
0
0
0
0
0
0
0
0
0
0
0
0
0
0
0
0
0
0
0
0
0
0
0
0
0
0
0
0
0
0
0
0
0
0
0
0
0
0
0
0
0
0
0
0
0
0
0
0
0
0
0
0
0
0
0
0
0
0
0
0
0
0
0
0
0
0
0
0
0
0
0
0
0
0
0
0
0
0
0
0
0
0
0
0
0
0
0
0
0
0
0
0
0
0
0
0
0
0
0
0
0
0
0
0
0
0
0
0
0
0
0
0
0
0
0
0
0
0
0
0
0
0
0
0
0
0
0
0
0
0
0
0
0
0
0
0
0
0
0
0
0
0
0
0
0
0
0
0
0
0
0
0
0
0
0
0
0
0
0
0
0
0
0
0
0
0
0
0
0
0
0
0
0
0
0
0
0
0
0
0
0
0
0
0
0
0
0
0
0
0
0
0
0
0
0
0
0
0
0
0
0
0
0
0
0
0
0
0
0
0
0
0
0
0
0
0
0
0
0
0
0
0
0
0
0
0
0
0
0
0
0
0
0
0
0
0
0
0
0
0
0
0
0
0
0
0
0
0
0
0
0
0
0
0
0
0
0
0
0
0
0
0
0
0
0
0
0
0
0
0
0
0
0
0
0
0
0
0
0
0
0
0
0
0
0
0
0
0
0
0
0
0
0
0
0
0
0
0
0
0
0
0
0
0
0
0
0
0
0
0
0
0
0
2
2
2
2
2
2
2
0
0
0
0
0
0
0
0
0
0
0
0
0
0
0
0
0
0
0
0
0
0
0
0
0
0
0
0
0
0
0
0
0
0
0
0
0
0
0
0
0
0
0
0
0
0
0
0
0
0
0
0
0
0
0
0
0
0
0
1
1
0
0
0
0
0
0
0
0
0
0
0
0
0
0
0
0
0
0
0
0
0
0
0
0
0
0
0
0
0
0
0
0
0
0
0
0
0
0
0
0
0
0
0
1
1
0
0
0
0
0
0
0
0
0
0
0
0
0
0
0
0
0
0
0
0
0
0
0
0
0
0
0
0
0
0
0
0
0
0
0
0
0
0
0
0
0
0
0
0
0
0
0
0
0
0
0
0
0
0
0
0
0
0
0
0
0
0
0
0
0
1
1
0
0
0
0
0
0
0
0
0
0
0
0
0
0
0
0
0
0
0
0
0
0
0
0
0
0
0
0
0
0
0
0
0
TENSORS Lagrange_strain float
0.0305674 -0.00319827 2.8045e-08
-0.00319827 0.0133889 -1.76197e-07
2.8045e-08 -1.76197e-07 0.00740158

0.029192 -0.0028007 5.66682e-08
-0.0028007 0.0335531 1.91172e-08
5.66682e-08 1.91172e-08 0.0331626

0.0300203 0.00367901 -3.50683e-08
0.00367901 0.0311687 4.30216e-08
-3.50683e-08 4.30216e-08 0.030467

0.0291608 -0.0039247 -2.31751e-07
-0.0039247 0.0327982 -7.81821e-08
-2.31751e-07 -7.81821e-08 0.0330875

0.0353665 0.00266926 -2.46745e-08
0.00266926 0.0380845 8.55791e-08
-2.46745e-08 8.55791e-08 0.0352916

0.0277346 -0.00236705 5.97102e-08
-0.00236705 0.0333831 -1.95582e-07
5.97102e-08 -1.95582e-07 0.0304381

0.0302614 0.00339396 2.50864e-08
0.00339396 0.0134944 -4.86613e-08
2.50864e-08 -4.86613e-08 0.00746301

0.0317538 0.00393967 1.18481e-07
0.00393967 0.0311992 7.70378e-08
1.18481e-07 7.70378e-08 0.0315598

0.0332407 0.000715383 -2.57872e-07
0.000715383 0.0262207 2.9027e-08
-2.57872e-07 2.9027e-08 0.0281413

0.0354664 -0.000991237 -4.64198e-08
-0.000991237 0.0275503 -4.1778e-08
-4.64198e-08 -4.1778e-08 0.0327201

0.0280606 0.00205106 -1.69403e-07
0.00205106 0.0138087 2.56875e-07
-1.69403e-07 2.56875e-07 0.0117532

0.0279525 -0.00176566 1.06948e-07
-0.00176566 0.0350058 -4.61267e-08
1.06948e-07 -4.61267e-08 0.0315484

0.0311205 0.00365714 1.60809e-07
0.00365714 0.0312992 -5.87994e-08
1.60809e-07 -5.87994e-08 0.0310787

0.0290685 -0.00187992 1.53029e-07
-0.00187992 0.0347983 9.78759e-08
1.53029e-07 9.78759e-08 0.0325456

0.034631 0.00441842 4.60701e-08
0.00441842 0.0343619 -2.81545e-08
4.60701e-08 -2.81545e-08 0.034884

0.0343269 7.30736e-05 1.57227e-07
7.30736e-05 0.0272852 -3.08447e-08
1.57227e-07 -3.08447e-08 0.0307776

0.0286921 -0.00235385 1.47536e-07
-0.00235385 0.0360125 7.85447e-08
1.47536e-07 7.85447e-08 0.0334493

0.0345719 -0.000353008 -5.22723e-08
-0.000353008 0.0273555 -3.43725e-08
-5.22723e-08 -3.43725e-08 0.0319762

0.0269194 0.00347803 4.24691e-08
0.00347803 0.0309442 -1.22164e-07
4.24691e-08 -1.22164e-07 0.0275759

0.033884 -0.00055029 6.99802e-08
-0.00055029 0.0264085 -1.56726e-07
6.99802e-08 -1.56726e-07 0.0301334

0.0266213 0.0011351 1.02895e-07
0.0011351 0.034033 1.2713e-07
1.02895e-07 1.2713e-07 0.0291492

0.0452949 0.000853007 1.47748e-07
0.000853007 0.0452654 5.63766e-08
1.47748e-07 5.63766e-08 0.0366376

0.0336743 0.000247451 5.66244e-08
0.000247451 0.0263146 -4.15594e-09
5.66244e-08 -4.15594e-09 0.0298043

0.0293088 -0.00363184 -8.61215e-09
-0.00363184 0.0311351 1.15712e-08
-8.61215e-09 1.15712e-08 0.0300459

0.0337791 0.000900072 1.29765e-07
0.000900072 0.0264955 3.55146e-08
1.29765e-07 3.55146e-08 0.0300804

0.0285454 0.00250737 -1.86525e-07
0.00250737 0.033893 1.83539e-08
-1.86525e-07 1.83539e-08 0.0322861

0.0286289 0.000526712 -1.52694e-08
0.000526712 0.0176893 -6.33862e-08
-1.52694e-08 -6.33862e-08 0.013171

0.0309134 0.00403453 1.16453e-07
0.00403453 0.0306456 3.98965e-08
1.16453e-07 3.98965e-08 0.0306099

0.0259239 0.00477611 5.08338e-08
0.00477611 0.0257322 1.38441e-07
5.08338e-08 1.38441e-07 0.0211275

0.0415287 0.00136982 6.92096e-08
0.00136982 0.0383494 6.22315e-08
6.92096e-08 6.22315e-08 0.0361346

0.0344099 0.00187098 1.39536e-07
0.00187098 0.0279516 5.27982e-08
1.39536e-07 5.27982e-08 0.0309992

0.0217591 -0.00228775 -1.63653e-07
-0.00228775 0.0299916 -2.00971e-07
-1.63653e-07 -2.00971e-07 0.0211243

0.0228629 -0.00535217 2.05086e-07
-0.00535217 0.0234724 -2.3631e-07
2.05086e-07 -2.3631e-07 0.0125786

0.0348321 0.000800642 -4.30911e-08
0.000800642 0.0422554 -1.0411e-07
-4.30911e-08 -1.0411e-07 0.0357856

0.0374529 -0.000662051 1.23089e-07
-0.000662051 0.0412025 -6.18051e-08
1.23089e-07 -6.18051e-08 0.0359002

0.0410745 0.00281348 1.46752e-07
0.00281348 0.0359856 -1.13734e-07
1.46752e-07 -1.13734e-07 0.0357659

0.0372534 0.000705292 9.73508e-09
0.000705292 0.043215 -5.28861e-08
9.73508e-09 -5.28861e-08 0.036141

0.0402605 -0.00121873 3.43203e-07
-0.00121873 0.0378298 1.11173e-07
3.43203e-07 1.11173e-07 0.0358075

0.0312145 -0.00367768 -1.71395e-07
-0.00367768 0.0311226 1.73449e-09
-1.71395e-07 1.73449e-09 0.0309246

0.0227469 0.00527887 1.01213e-07
0.00527887 0.0237083 1.62716e-07
1.01213e-07 1.62716e-07 0.0125807

0.0297599 -0.00231564 -5.17774e-08
-0.00231564 0.0220303 3.93371e-08
-5.17774e-08 3.93371e-08 0.0208742

0.0376188 -0.000522775 5.12681e-08
-0.000522775 0.0430638 1.46436e-07
5.12681e-08 1.46436e-07 0.0361437

0.0412411 0.00263461 6.45134e-08
0.00263461 0.0394148 -8.28559e-08
6.45134e-08 -8.28559e-08 0.0361262

0.0343003 -0.00161694 5.26342e-09
-0.00161694 0.0279937 1.16631e-07
5.26342e-09 1.16631e-07 0.0310831

0.0231051 -0.00552551 -2.18829e-07
-0.00552551 0.0235621 2.26778e-07
-2.18829e-07 2.26778e-07 0.0162156

0.0299426 -0.00233208 -7.14067e-08
-0.00233208 0.0221546 -1.6871e-07
-7.14067e-08 -1.6871e-07 0.0213436

0.0258929 0.00222732 1.10123e-07
0.00222732 0.0326531 1.1159e-07
1.10123e-07 1.1159e-07 0.0279145

0.0275501 0.0025289 -1.06938e-07
0.0025289 0.0323726 1.01231e-07
-1.06938e-07 1.01231e-07 0.02849

0.0341743 -0.00214071 -7.52828e-09
-0.00214071 0.0271065 1.04323e-07
-7.52828e-09 1.04323e-07 0.0304713

0.0229019 -0.00439211 1.28422e-07
-0.00439211 0.027248 2.02966e-07
1.28422e-07 2.02966e-07 0.0198497

0.0294929 0.00247136 4.41631e-08
0.00247136 0.0218336 5.56007e-08
4.41631e-08 5.56007e-08 0.0202803

0.0298713 -0.00327082 3.37297e-08
-0.00327082 0.0245128 -8.18627e-08
3.37297e-08 -8.18627e-08 0.0230475

0.0344771 0.00257771 1.07268e-07
0.00257771 0.0382028 -3.79927e-08
1.07268e-07 -3.79927e-08 0.0352702

0.0286887 0.00383835 1.70614e-07
0.00383835 0.0257788 1.35615e-07
1.70614e-07 1.35615e-07 0.0231161

0.0349278 -0.00291604 -6.92924e-08
-0.00291604 0.0374321 4.72968e-08
-6.92924e-08 4.72968e-08 0.0351886

0.0255794 -0.0054552 2.63394e-07
-0.0054552 0.0229018 -1.17022e-07
2.63394e-07 -1.17022e-07 0.0158191

0.0373464 0.000746105 -6.16799e-08
0.000746105 0.0414128 -3.03952e-07
-6.16799e-08 -3.03952e-07 0.0359207

0.023167 -0.000693146 -3.12175e-08
-0.000693146 0.0313126 2.69278e-08
-3.12175e-08 2.69278e-08 0.0231021

0.0410292 0.0013798 -6.47139e-08
0.0013798 0.0377066 1.72229e-07
-6.47139e-08 1.72229e-07 0.0358989

0.027675 0.00280522 -1.43882e-07
0.00280522 0.0327485 -3.03559e-08
-1.43882e-07 -3.03559e-08 0.0302303

0.0361386 0.000784521 1.44554e-09
0.000784521 0.0281307 -7.3462e-08
1.44554e-09 -7.3462e-08 0.0336724

0.0362539 0.00153404 -1.81234e-09
0.00153404 0.0316927 -1.05664e-07
-1.81234e-09 -1.05664e-07 0.0342201

0.0286365 0.00405682 -2.20733e-07
0.00405682 0.0198969 1.60679e-08
-2.20733e-07 1.60679e-08 0.0137588

0.0309719 -0.0007837 -1.72668e-07
-0.0007837 0.0370841 -1.20986e-07
-1.72668e-07 -1.20986e-07 0.0338809

0.0315543 0.00124343 -1.92139e-08
0.00124343 0.0364204 -4.86709e-09
-1.92139e-08 -4.86709e-09 0.0342589

0.0285483 -0.000375268 -7.09924e-08
-0.000375268 0.0369552 2.0969e-08
-7.09924e-08 2.0969e-08 0.03267

0.029602 0.00307153 -1.40801e-07
0.00307153 0.0347902 8.414e-08
-1.40801e-07 8.414e-08 0.0337082

0.0347187 0.00112184 -2.69105e-10
0.00112184 0.0278379 4.24008e-08
-2.69105e-10 4.24008e-08 0.0322078

0.0291865 -0.0036989 -2.23414e-08
-0.0036989 0.0310201 -5.02353e-08
-2.23414e-08 -5.02353e-08 0.0299088

0.035054 -0.000237099 1.75691e-07
-0.000237099 0.0275791 -3.75771e-08
1.75691e-07 -3.75771e-08 0.0333924

0.0344518 -0.00254825 1.36076e-07
-0.00254825 0.0381332 8.96235e-10
1.36076e-07 8.96235e-10 0.0352603

0.0350102 0.00284937 -9.59892e-08
0.00284937 0.0375698 1.73755e-07
-9.59892e-08 1.73755e-07 0.0352401

0.0218881 -0.00213179 -7.26999e-08
-0.00213179 0.0299213 -1.37911e-07
-7.26999e-08 -1.37911e-07 0.0208507

0.0347007 -0.00369093 1.49804e-07
-0.00369093 0.0319572 5.85021e-09
1.49804e-07 5.85021e-09 0.0330783

0.0292912 -0.0032972 -1.04686e-08
-0.0032972 0.0321117 -2.92948e-08
-1.04686e-08 -2.92948e-08 0.0304326

0.0267789 -0.00401677 -1.12919e-07
-0.00401677 0.017605 -5.56539e-08
-1.12919e-07 -5.56539e-08 0.0127256

0.0324037 0.000418919 -3.42718e-08
0.000418919 0.0381044 -2.58017e-09
-3.42718e-08 -2.58017e-09 0.0344051

0.0345364 0.00381716 1.56828e-08
0.00381716 0.0309408 1.7058e-07
1.56828e-08 1.7058e-07 0.0326596

0.0283759 0.00258125 -1.84925e-07
0.00258125 0.0341285 -5.62098e-08
-1.84925e-07 -5.62098e-08 0.0322131

0.0315412 0.00103768 4.62899e-08
0.00103768 0.0228434 -1.80175e-07
4.62899e-08 -1.80175e-07 0.0240686

0.0270965 -0.00435841 -4.12158e-08
-0.00435841 0.0237362 2.42874e-07
-4.12158e-08 2.42874e-07 0.018323

0.0362598 -0.00140289 9.9211e-08
-0.00140289 0.0387422 1.38003e-07
9.9211e-08 1.38003e-07 0.0354006

0.0315553 0.00317091 4.35651e-08
0.00317091 0.0344009 -2.80957e-08
4.35651e-08 -2.80957e-08 0.0340897

0.0273005 -0.00415586 3.41624e-09
-0.00415586 0.0221744 -5.4418e-08
3.41624e-09 -5.4418e-08 0.0184108

0.0303571 0.00139096 1.69929e-07
0.00139096 0.0228299 -1.82074e-07
1.69929e-07 -1.82074e-07 0.020954

0.0186017 -0.0026969 1.57183e-08
-0.0026969 0.0289278 3.52931e-07
1.57183e-08 3.52931e-07 0.0158926

0.0271993 0.00188878 4.93377e-08
0.00188878 0.0343195 -1.67065e-09
4.93377e-08 -1.67065e-09 0.0306538

0.035381 0.00305653 1.52502e-07
0.00305653 0.0308191 6.3845e-08
1.52502e-07 6.3845e-08 0.0327531

0.0226474 0.00538566 6.04372e-08
0.00538566 0.0240879 1.15767e-07
6.04372e-08 1.15767e-07 0.0161981

0.0459481 0.00223783 -3.98991e-07
0.00223783 0.0417511 2.25272e-07
-3.98991e-07 2.25272e-07 0.0366385

0.0230808 -0.000534356 1.71553e-08
-0.000534356 0.0313533 5.16832e-08
1.71553e-08 5.16832e-08 0.0230719

0.0463635 -0.00225533 4.21801e-07
-0.00225533 0.0412937 6.43398e-07
4.21801e-07 6.43398e-07 0.0365936

0.0370649 -0.00362456 -5.66578e-08
-0.00362456 0.0334904 2.54841e-08
-5.66578e-08 2.54841e-08 0.0346202

0.0351365 0.00361913 1.35195e-07
0.00361913 0.0300035 1.27687e-07
1.35195e-07 1.27687e-07 0.0324557

0.0299613 -0.00315865 -1.63928e-07
-0.00315865 0.0246899 -2.47852e-08
-1.63928e-07 -2.47852e-08 0.0232853

0.0230117 0.00402969 1.71266e-07
0.00402969 0.0277783 -9.10207e-08
1.71266e-07 -9.10207e-08 0.0203815

0.0210934 -0.00137843 -1.94855e-07
-0.00137843 0.0298942 -1.15673e-07
-1.94855e-07 -1.15673e-07 0.018251

0.0287449 0.0028887 1.20672e-07
0.0028887 0.0342263 -1.79016e-09
1.20672e-07 -1.79016e-09 0.0326989

0.0370108 0.00223599 -4.95491e-08
0.00223599 0.0334515 4.59693e-08
-4.95491e-08 4.59693e-08 0.0343836

0.0281477 0.00198809 -1.72627e-07
0.00198809 0.0340594 5.8742e-09
-1.72627e-07 5.8742e-09 0.0308647

0.0318819 0.00207294 2.13867e-08
0.00207294 0.0252534 -2.19626e-07
2.13867e-08 -2.19626e-07 0.0256168

0.0239069 -0.00277414 -4.9036e-08
-0.00277414 0.029764 -1.35514e-07
-4.9036e-08 -1.35514e-07 0.0215609

0.0278978 -0.00376347 -1.26355e-07
-0.00376347 0.0218146 3.33694e-08
-1.26355e-07 3.33694e-08 0.0180755

0.0293303 -0.00323169 -2.105e-07
-0.00323169 0.0326287 9.696e-08
-2.105e-07 9.696e-08 0.032402

0.0306254 0.00361457 1.51677e-07
0.00361457 0.0322276 -7.24718e-08
1.51677e-07 -7.24718e-08 0.0323699

0.0287071 0.00304789 2.50497e-07
0.00304789 0.0340262 7.32396e-08
2.50497e-07 7.32396e-08 0.0326293

0.029206 0.00172527 -2.45251e-08
0.00172527 0.0376171 -7.72445e-09
-2.45251e-08 -7.72445e-09 0.0338453

0.0344765 0.00123248 8.75384e-08
0.00123248 0.027523 3.49437e-08
8.75384e-08 3.49437e-08 0.0306739

0.0199602 -0.000605293 -1.26296e-07
-0.000605293 0.0296596 -5.72609e-08
-1.26296e-07 -5.72609e-08 0.0181034

0.0297962 -0.00486325 -1.66093e-07
-0.00486325 0.0330485 1.44977e-08
-1.66093e-07 1.44977e-08 0.0337407

0.0290803 0.00359985 -1.17661e-07
0.00359985 0.0313586 -1.84535e-08
-1.17661e-07 -1.84535e-08 0.0302631

0.0181052 0.000282822 -5.08166e-08
0.000282822 0.0293097 -1.47018e-07
-5.08166e-08 -1.47018e-07 0.0168779

0.0278424 0.00442343 -1.20021e-07
0.00442343 0.0209676 9.61013e-08
-1.20021e-07 9.61013e-08 0.0174542

0.0291901 -0.00302042 -1.83248e-07
-0.00302042 0.0327019 1.09796e-07
-1.83248e-07 1.09796e-07 0.0321845

0.0352413 0.000759785 -2.41263e-08
0.000759785 0.0273377 8.75385e-08
-2.41263e-08 8.75385e-08 0.0325518

0.0294264 0.00352002 1.7883e-07
0.00352002 0.0252004 1.23974e-07
1.7883e-07 1.23974e-07 0.0231105

0.0396358 0.00171021 -1.13615e-07
0.00171021 0.0390387 -3.19816e-08
-1.13615e-07 -3.19816e-08 0.0359393

0.0283742 0.00312312 -2.29527e-07
0.00312312 0.0224008 -1.24237e-07
-2.29527e-07 -1.24237e-07 0.0182859

0.039488 -0.00175078 -1.21094e-07
-0.00175078 0.0390648 -1.56002e-07
-1.21094e-07 -1.56002e-07 0.0359045

0.0232603 0.000103411 1.40862e-07
0.000103411 0.031517 4.9175e-08
1.40862e-07 4.9175e-08 0.0231189

0.0327577 -0.000288348 -1.43331e-07
-0.000288348 0.0246592 1.47372e-07
-1.43331e-07 1.47372e-07 0.0269654

0.0380539 -0.00212919 7.51458e-08
-0.00212919 0.0304628 -1.33124e-07
7.51458e-08 -1.33124e-07 0.0347924

0.0292374 0.00320578 5.8236e-08
0.00320578 0.0332765 -1.37719e-07
5.8236e-08 -1.37719e-07 0.0333419

0.0289496 -0.00177241 2.70495e-08
-0.00177241 0.0366083 -2.67914e-09
2.70495e-08 -2.67914e-09 0.0334987

0.0365824 -0.00108485 1.63268e-07
-0.00108485 0.0264752 -1.7974e-08
1.63268e-07 -1.7974e-08 0.0338591

0.0311794 -0.00292575 -1.80573e-07
-0.00292575 0.0383053 3.66872e-08
-1.80573e-07 3.66872e-08 0.0348428

0.0381645 -0.00088454 -5.93449e-08
-0.00088454 0.0387305 -2.35046e-07
-5.93449e-08 -2.35046e-07 0.0358345

0.0301789 -0.00393995 4.9241e-08
-0.00393995 0.0327091 1.08935e-07
4.9241e-08 1.08935e-07 0.0327623

0.0213321 0.00146948 2.27195e-07
0.00146948 0.0296126 1.1599e-08
2.27195e-07 1.1599e-08 0.018295

0.0293869 -0.00364551 5.8658e-08
-0.00364551 0.0253483 -2.46069e-08
5.8658e-08 -2.46069e-08 0.0231812

0.0328587 -0.00181725 9.67672e-08
-0.00181725 0.0397171 1.3902e-07
9.67672e-08 1.3902e-07 0.0352401

0.03509 7.67564e-05 -4.6053e-09
7.67564e-05 0.027221 8.92806e-08
-4.6053e-09 8.92806e-08 0.0332502

0.0308174 -0.00282883 4.16698e-08
-0.00282883 0.0348906 -2.72021e-08
4.16698e-08 -2.72021e-08 0.0340831

0.0295334 0.00338865 -6.01058e-08
0.00338865 0.0328704 7.6063e-08
-6.01058e-08 7.6063e-08 0.0333249

0.0264593 -0.00406309 8.10118e-08
-0.00406309 0.0272606 2.02271e-07
8.10118e-08 2.02271e-07 0.0215837

0.0371718 -0.000958777 -3.60921e-08
-0.000958777 0.0416098 -1.02962e-07
-3.60921e-08 -1.02962e-07 0.0358856

0.0227102 -0.00423744 2.88559e-07
-0.00423744 0.0272428 -5.39619e-08
2.88559e-07 -5.39619e-08 0.0168768

0.0341818 -0.00252468 -7.39366e-09
-0.00252468 0.0286056 9.0536e-08
-7.39366e-09 9.0536e-08 0.0310434

0.0364245 0.000289876 -3.20143e-08
0.000289876 0.0294366 -1.98332e-07
-3.20143e-08 -1.98332e-07 0.0341927

0.0396399 0.00239652 2.77319e-09
0.00239652 0.0391129 6.10797e-08
2.77319e-09 6.10797e-08 0.0358666

0.0238553 0.00260913 2.70407e-08
0.00260913 0.0301506 1.74328e-07
2.70407e-08 1.74328e-07 0.021798

0.0334296 0.00358131 -3.70205e-08
0.00358131 0.0307142 7.86906e-08
-3.70205e-08 7.86906e-08 0.0317662

0.0316419 -0.00319424 -8.38002e-08
-0.00319424 0.0265511 -6.35802e-08
-8.38002e-08 -6.35802e-08 0.0269344

0.0289282 -0.00234077 5.02543e-08
-0.00234077 0.0342338 4.79162e-08
5.02543e-08 4.79162e-08 0.0326049

0.0262433 0.00450123 -4.32056e-08
0.00450123 0.0245569 2.14417e-08
-4.32056e-08 2.14417e-08 0.0180805

0.0284218 -0.0028665 2.68376e-08
-0.0028665 0.0340313 4.01722e-08
2.68376e-08 4.01722e-08 0.032448

0.033148 0.00405849 -4.79331e-08
0.00405849 0.0304634 1.12555e-07
-4.79331e-08 1.12555e-07 0.0315413

0.0333333 -0.00331159 -1.04662e-07
-0.00331159 0.0283562 5.53382e-09
-1.04662e-07 5.53382e-09 0.0300448

0.0291596 -0.00329567 -5.1662e-08
-0.00329567 0.0319859 -3.27627e-08
-5.1662e-08 -3.27627e-08 0.0304363

0.0314541 -0.0024292 -6.17519e-08
-0.0024292 0.024718 -9.54462e-08
-6.17519e-08 -9.54462e-08 0.0251553

0.0329542 -0.00246662 -5.86045e-08
-0.00246662 0.0267087 -6.06005e-08
-5.86045e-08 -6.06005e-08 0.0285955

0.0294902 -0.00334194 1.18659e-07
-0.00334194 0.0329492 -2.41136e-08
1.18659e-07 -2.41136e-08 0.0334063

0.0261332 0.00463372 -1.36096e-07
0.00463372 0.0255403 9.9768e-08
-1.36096e-07 9.9768e-08 0.0210916

0.0281491 0.00201653 -2.09181e-07
0.00201653 0.034335 -4.72044e-08
-2.09181e-07 -4.72044e-08 0.0311084

0.0308854 0.00348106 3.86069e-08
0.00348106 0.0322544 -6.29102e-08
3.86069e-08 -6.29102e-08 0.0325992

0.0291563 0.00334794 1.8986e-07
0.00334794 0.0331903 -5.96477e-08
1.8986e-07 -5.96477e-08 0.0332594

0.0289829 0.00152283 2.60448e-08
0.00152283 0.0354695 -2.31841e-07
2.60448e-08 -2.31841e-07 0.0326946

0.0310517 -0.00106168 5.6956e-08
-0.00106168 0.0231406 6.1776e-08
5.6956e-08 6.1776e-08 0.0220772

0.0238831 0.00240554 -1.77687e-07
0.00240554 0.0304093 -1.08184e-07
-1.77687e-07 -1.08184e-07 0.0221122

0.0292124 -0.00320399 -1.40656e-08
-0.00320399 0.0326353 -1.49112e-08
-1.40656e-08 -1.49112e-08 0.0316174

0.0289863 0.00335672 -1.79311e-07
0.00335672 0.0309318 -8.7708e-08
-1.79311e-07 -8.7708e-08 0.0285671

0.0266117 -0.00459095 1.53809e-07
-0.00459095 0.0252296 -1.78961e-08
1.53809e-07 -1.78961e-08 0.0212559

0.0262768 0.00489316 4.25569e-08
0.00489316 0.0209456 -3.16508e-07
4.25569e-08 -3.16508e-07 0.0167618

0.0235021 -0.00428675 1.09204e-09
-0.00428675 0.0274637 -3.22711e-08
1.09204e-09 -3.22711e-08 0.0206256

0.0266709 -0.00402725 1.50878e-07
-0.00402725 0.0274817 -2.482e-08
1.50878e-07 -2.482e-08 0.0220492

0.0353638 -0.000906624 -9.19507e-08
-0.000906624 0.0273894 -6.41692e-08
-9.19507e-08 -6.41692e-08 0.0326541

0.0260442 0.00392134 1.24613e-07
0.00392134 0.0280913 2.43719e-08
1.24613e-07 2.43719e-08 0.0221018

0.030787 0.00171646 6.18804e-08
0.00171646 0.0233596 -6.21831e-09
6.18804e-08 -6.21831e-09 0.0220249

0.0214303 0.00172203 2.12426e-07
0.00172203 0.0302396 -3.53148e-08
2.12426e-07 -3.53148e-08 0.0211321

0.0242621 -0.00288938 -7.55429e-08
-0.00288938 0.029951 -1.98366e-07
-7.55429e-08 -1.98366e-07 0.0220855

0.0313452 -0.000131211 3.50196e-08
-0.000131211 0.0392735 1.79043e-07
3.50196e-08 1.79043e-07 0.0346704

0.0230577 0.000294706 9.79599e-08
0.000294706 0.0314597 5.68631e-08
9.79599e-08 5.68631e-08 0.0230616

0.0227765 0.00400126 -2.54488e-07
0.00400126 0.0281264 -6.76669e-09
-2.54488e-07 -6.76669e-09 0.0206375

0.0288877 0.00158583 -1.62921e-07
0.00158583 0.0358316 -1.56241e-08
-1.62921e-07 -1.56241e-08 0.0328931

0.0293151 -0.00358 -1.3742e-07
-0.00358 0.025129 2.03468e-08
-1.3742e-07 2.03468e-08 0.023239

0.036976 0.00273316 -4.44464e-08
0.00273316 0.0297228 -7.65665e-08
-4.44464e-08 -7.65665e-08 0.0338013

0.0371757 0.00348328 -2.02086e-07
0.00348328 0.0334227 -7.55553e-09
-2.02086e-07 -7.55553e-09 0.0346519

0.0345439 -0.00244634 -1.99602e-08
-0.00244634 0.0285295 1.47343e-08
-1.99602e-08 1.47343e-08 0.0313784

0.0390566 -0.00026551 1.65695e-07
-0.00026551 0.0339245 3.94792e-08
1.65695e-07 3.94792e-08 0.0352079

0.031479 -0.00418767 1.09688e-07
-0.00418767 0.0317815 -2.29069e-07
1.09688e-07 -2.29069e-07 0.0321559

0.0294614 0.00300734 1.04886e-07
0.00300734 0.0223268 -6.58599e-08
1.04886e-07 -6.58599e-08 0.021066

0.0302292 0.00397294 -4.85435e-08
0.00397294 0.0326627 9.72487e-08
-4.85435e-08 9.72487e-08 0.0327195

0.0302766 0.00384677 2.73135e-08
0.00384677 0.0326067 1.64199e-07
2.73135e-08 1.64199e-07 0.0326743

0.0262439 0.00396148 -3.53468e-08
0.00396148 0.0277671 -9.97314e-08
-3.53468e-08 -9.97314e-08 0.0218643

0.0344498 0.00357644 7.83319e-08
0.00357644 0.0317793 8.33582e-08
7.83319e-08 8.33582e-08 0.0328311

0.0302478 0.000452435 7.87944e-08
0.000452435 0.020428 2.95194e-08
7.87944e-08 2.95194e-08 0.0205728

0.0331857 0.00420075 -1.71365e-08
0.00420075 0.0323727 -6.83877e-08
-1.71365e-08 -6.83877e-08 0.0334835

0.0305006 -0.00165461 -5.19651e-08
-0.00165461 0.0366159 -6.35225e-09
-5.19651e-08 -6.35225e-09 0.0336625

0.03736 0.00323277 -8.69276e-08
0.00323277 0.0334595 1.52682e-07
-8.69276e-08 1.52682e-07 0.034664

0.0307367 -0.00389588 1.99414e-07
-0.00389588 0.0322724 1.86328e-07
1.99414e-07 1.86328e-07 0.0326798

0.0293737 -0.000644997 1.7611e-07
-0.000644997 0.0369025 4.22973e-08
1.7611e-07 4.22973e-08 0.0328476

0.028812 -0.0031521 -8.12824e-08
-0.0031521 0.0221396 -1.68384e-07
-8.12824e-08 -1.68384e-07 0.0187586

0.0290022 0.00384455 7.07215e-08
0.00384455 0.0255773 9.48704e-08
7.07215e-08 9.48704e-08 0.0230725

0.021701 0.00189092 3.12782e-08
0.00189092 0.0300609 1.74506e-07
3.12782e-08 1.74506e-07 0.0210834

0.0349895 -0.000161489 1.11744e-07
-0.000161489 0.0273891 -6.42515e-08
1.11744e-07 -6.42515e-08 0.0333012

0.034419 2.22258e-07 -9.99099e-08
2.22258e-07 0.0272743 -4.9279e-08
-9.99099e-08 -4.9279e-08 0.0320408

0.0291652 0.00303978 1.61171e-08
0.00303978 0.0326795 1.64605e-07
1.61171e-08 1.64605e-07 0.0321323

0.0314493 0.003166 -1.93663e-08
0.003166 0.0342495 -7.24089e-08
-1.93663e-08 -7.24089e-08 0.0340578

0.0291683 -0.00320427 -1.51217e-07
-0.00320427 0.0332384 -5.59514e-08
-1.51217e-07 -5.59514e-08 0.0333786

0.0287734 -8.55185e-05 -8.7022e-08
-8.55185e-05 0.0367045 -1.05035e-07
-8.7022e-08 -1.05035e-07 0.0325253

0.0294634 0.00337561 -1.42703e-07
0.00337561 0.0330743 -9.64952e-08
-1.42703e-07 -9.64952e-08 0.0333543

0.0328589 -0.00134643 1.29234e-07
-0.00134643 0.0253615 -1.07117e-07
1.29234e-07 -1.07117e-07 0.0278285

0.0263546 -0.00425448 1.9717e-07
-0.00425448 0.0281792 1.11766e-08
1.9717e-07 1.11766e-08 0.0242672

0.0362974 -0.00033138 -5.60296e-08
-0.00033138 0.0293829 8.74464e-08
-5.60296e-08 8.74464e-08 0.0340276

0.0267804 -0.00444541 -3.38545e-08
-0.00444541 0.0251901 1.68267e-08
-3.38545e-08 1.68267e-08 0.0209488

0.0308993 0.00250733 -3.11852e-08
0.00250733 0.0350625 1.04597e-07
-3.11852e-08 1.04597e-07 0.0340674

0.035113 -0.00349656 1.16561e-08
-0.00349656 0.030388 -3.18091e-08
1.16561e-08 -3.18091e-08 0.0326144

0.0305013 -0.00124976 2.29395e-08
-0.00124976 0.0229781 2.13197e-07
2.29395e-08 2.13197e-07 0.021478

0.037148 -0.0030772 -2.02513e-07
-0.0030772 0.031653 6.99558e-08
-2.02513e-07 6.99558e-08 0.0339876

0.0349691 0.000321979 -9.70554e-08
0.000321979 0.0275543 2.15151e-07
-9.70554e-08 2.15151e-07 0.0334296

0.0358431 -0.00308795 -3.05491e-08
-0.00308795 0.0332578 -3.0756e-08
-3.05491e-08 -3.0756e-08 0.0341432

0.0349283 -0.00341048 1.61356e-07
-0.00341048 0.0295946 -6.0964e-08
1.61356e-07 -6.0964e-08 0.0321777

0.0349091 -0.00113344 1.85107e-08
-0.00113344 0.0278497 1.14954e-07
1.85107e-08 1.14954e-07 0.032341

0.0314892 -0.00306243 5.31956e-08
-0.00306243 0.0344478 7.81268e-08
5.31956e-08 7.81268e-08 0.0341462

0.0292349 -0.0040709 -6.28805e-08
-0.0040709 0.0268994 1.51548e-07
-6.28805e-08 1.51548e-07 0.0253458

0.0349924 -0.00324354 1.70322e-07
-0.00324354 0.0299148 -2.56291e-08
1.70322e-07 -2.56291e-08 0.0321949

0.0314616 0.00140898 -2.87781e-08
0.00140898 0.0233267 -1.08316e-08
-2.87781e-08 -1.08316e-08 0.0244833

0.0336644 0.00348414 -6.33724e-08
0.00348414 0.033444 3.20813e-09
-6.33724e-08 3.20813e-09 0.0336497

0.0298922 -0.00496718 2.96726e-09
-0.00496718 0.0330779 -1.95185e-08
2.96726e-09 -1.95185e-08 0.0338568

0.0300428 0.0049205 8.79397e-08
0.0049205 0.0329397 -1.06507e-07
8.79397e-08 -1.06507e-07 0.0338237

0.0276876 -0.00374173 4.56573e-08
-0.00374173 0.0348067 5.79383e-13
4.56573e-08 5.79383e-13 0.0337663

0.0279254 0.00354698 7.47037e-08
0.00354698 0.0348343 9.34429e-08
7.47037e-08 9.34429e-08 0.0337312

0.0364292 -0.00115389 -1.27496e-08
-0.00115389 0.0263414 1.58156e-07
-1.27496e-08 1.58156e-07 0.0337575

0.0361981 0.00124755 -4.39061e-08
0.00124755 0.0265628 -3.59434e-09
-4.39061e-08 -3.59434e-09 0.0337203

0.035034 -0.00130667 -6.11424e-10
-0.00130667 0.0284678 6.62704e-08
-6.11424e-10 6.62704e-08 0.0325754

0.0344362 0.0042591 3.35093e-08
0.0042591 0.0342886 -7.14907e-08
3.35093e-08 -7.14907e-08 0.0348121

0.0343121 -0.004357 -7.73449e-08
-0.004357 0.034281 3.32178e-08
-7.73449e-08 3.32178e-08 0.0348006

0.0305206 0.0020935 4.27487e-08
0.0020935 0.0381652 -4.10999e-08
4.27487e-08 -4.10999e-08 0.0348494

0.0306636 -0.00205954 5.96744e-08
-0.00205954 0.0380948 4.58705e-09
5.96744e-08 4.58705e-09 0.0348367

0.0395016 -0.000528963 -1.09057e-07
-0.000528963 0.0328492 -1.85922e-07
-1.09057e-07 -1.85922e-07 0.0352576

0.0397044 0.000513303 -3.67877e-08
0.000513303 0.0326215 1.60051e-07
-3.67877e-08 1.60051e-07 0.0353028

0.0239648 0.00127583 2.1779e-08
0.00127583 0.0320025 -8.33875e-08
2.1779e-08 -8.33875e-08 0.025184

0.0311621 -0.00326522 5.29437e-08
-0.00326522 0.0322401 1.15082e-07
5.29437e-08 1.15082e-07 0.0328015

0.0277792 -0.00478575 9.78541e-08
-0.00478575 0.0333118 -6.16797e-08
9.78541e-08 -6.16797e-08 0.0334548

0.0333584 -0.000610221 1.02743e-07
-0.000610221 0.0264028 -1.54191e-07
1.02743e-07 -1.54191e-07 0.0284479

0.0381874 -0.00225192 8.65374e-08
-0.00225192 0.030794 1.4753e-07
8.65374e-08 1.4753e-07 0.0348924

0.0382356 0.00218388 8.24426e-08
0.00218388 0.0309072 -1.7992e-08
8.24426e-08 -1.7992e-08 0.0349245

0.0360837 1.56056e-05 1.11042e-07
1.56056e-05 0.0251254 -1.5452e-07
1.11042e-07 -1.5452e-07 0.0334699

0.0242406 0.00302877 -7.50955e-08
0.00302877 0.0303971 -1.21236e-08
-7.50955e-08 -1.21236e-08 0.0242767

0.0276738 0.00475651 2.80029e-08
0.00475651 0.0333118 -6.64828e-08
2.80029e-08 -6.64828e-08 0.0333926

0.0286741 -0.00307576 -2.14238e-07
-0.00307576 0.0342607 5.27428e-08
-2.14238e-07 5.27428e-08 0.032752

0.0310851 0.0030357 3.25753e-09
0.0030357 0.0251463 1.15219e-07
3.25753e-09 1.15219e-07 0.0254668

0.0372272 0.00316556 -6.25243e-08
0.00316556 0.0315404 5.80071e-08
-6.25243e-08 5.80071e-08 0.0340755

0.0292263 -0.00406714 -4.03252e-08
-0.00406714 0.0269354 -1.36977e-07
-4.03252e-08 -1.36977e-07 0.025321

0.0364011 -0.000453684 1.74279e-07
-0.000453684 0.0296912 3.77595e-09
1.74279e-07 3.77595e-09 0.0341307

0.0273443 -0.00449511 1.59176e-07
-0.00449511 0.0333953 -2.11012e-07
1.59176e-07 -2.11012e-07 0.0334414

0.0240376 0.00107878 5.81748e-08
0.00107878 0.0322437 -1.21272e-07
5.81748e-08 -1.21272e-07 0.0255056

0.0242294 0.00282649 -1.08042e-07
0.00282649 0.0307009 3.25847e-08
-1.08042e-07 3.25847e-08 0.0245446

0.0267918 0.00459418 -1.27901e-07
0.00459418 0.0240414 1.10827e-07
-1.27901e-07 1.10827e-07 0.0182133

0.0298503 0.000199831 2.11033e-07
0.000199831 0.0200882 -7.06116e-08
2.11033e-07 -7.06116e-08 0.0193622

0.0319083 -0.00302382 -1.49818e-07
-0.00302382 0.0341624 3.65615e-08
-1.49818e-07 3.65615e-08 0.0340353

0.0229183 0.0039995 -1.84673e-07
0.0039995 0.0276598 1.17715e-07
-1.84673e-07 1.17715e-07 0.0176528

0.0292094 0.00310076 -1.1175e-07
0.00310076 0.0327627 -2.95485e-08
-1.1175e-07 -2.95485e-08 0.0310119

0.031594 -0.000694473 -1.09122e-07
-0.000694473 0.0231597 5.75164e-08
-1.09122e-07 5.75164e-08 0.0244846

0.0327606 0.00146447 -1.57681e-07
0.00146447 0.0253465 -2.05497e-07
-1.57681e-07 -2.05497e-07 0.0276126

0.035978 5.6236e-05 1.01559e-07
5.6236e-05 0.0249584 -8.26439e-08
1.01559e-07 -8.26439e-08 0.0333859

0.0279655 -0.00380543 -1.32452e-07
-0.00380543 0.0349488 -2.22201e-08
-1.32452e-07 -2.22201e-08 0.0338157

0.0393145 -0.000843792 1.97775e-07
-0.000843792 0.0416019 -3.20071e-07
1.97775e-07 -3.20071e-07 0.0361898

0.0298673 0.00493887 -1.02011e-07
0.00493887 0.032956 7.49357e-08
-1.02011e-07 7.49357e-08 0.0337787

0.030288 0.000214507 -1.14662e-07
0.000214507 0.0203966 1.67602e-08
-1.14662e-07 1.67602e-08 0.0172759

0.0266735 -0.00425017 1.22093e-07
-0.00425017 0.0281328 1.80304e-08
1.22093e-07 1.80304e-08 0.0244371

0.0277455 0.00481575 -1.18063e-07
0.00481575 0.0333145 -1.39802e-07
-1.18063e-07 -1.39802e-07 0.033455

0.0279448 -0.00145856 -1.15494e-07
-0.00145856 0.035085 -7.47282e-08
-1.15494e-07 -7.47282e-08 0.03145

0.0244647 -0.00330496 -1.04591e-07
-0.00330496 0.0300149 -4.56981e-08
-1.04591e-07 -4.56981e-08 0.0242168

0.0279905 0.00377965 -8.69631e-08
0.00377965 0.0349097 1.08189e-07
-8.69631e-08 1.08189e-07 0.0337865

0.0313613 -0.00340935 1.50487e-08
-0.00340935 0.0270083 1.59409e-07
1.50487e-08 1.59409e-07 0.026991

0.0402791 0.00140891 1.26265e-07
0.00140891 0.0406178 -2.11471e-07
1.26265e-07 -2.11471e-07 0.0361703

0.0258807 0.00400274 9.31376e-08
0.00400274 0.0289541 -3.44091e-08
9.31376e-08 -3.44091e-08 0.0245107

0.0366777 0.00110283 -2.03685e-07
0.00110283 0.0263519 6.47088e-08
-2.03685e-07 6.47088e-08 0.0338975

0.0333416 0.00398391 2.52051e-08
0.00398391 0.0321151 -5.87651e-08
2.52051e-08 -5.87651e-08 0.0333154

0.0292278 0.0030672 2.29945e-07
0.0030672 0.032605 1.06228e-07
2.29945e-07 1.06228e-07 0.0321574

0.0343644 -0.00431095 7.987e-08
-0.00431095 0.0345044 7.7561e-08
7.987e-08 7.7561e-08 0.0348847

0.0354893 -0.00306353 -5.01835e-08
-0.00306353 0.0305898 -1.57904e-07
-5.01835e-08 -1.57904e-07 0.0327502

0.0333664 0.00138793 -1.85459e-07
0.00138793 0.0395773 -1.41463e-07
-1.85459e-07 -1.41463e-07 0.0350023

0.0291964 -0.00307931 -5.7973e-08
-0.00307931 0.0328736 -8.98583e-08
-5.7973e-08 -8.98583e-08 0.0313831

0.0292647 -0.00123221 7.7617e-08
-0.00123221 0.0192869 -1.09977e-07
7.7617e-08 -1.09977e-07 0.016412

0.0287783 -0.00183228 -1.5337e-07
-0.00183228 0.0184139 -6.40259e-08
-1.5337e-07 -6.40259e-08 0.0161969

0.038529 0.0022022 2.77059e-08
0.0022022 0.0332388 -6.10535e-08
2.77059e-08 -6.10535e-08 0.0347628

0.0280558 0.00294501 -1.63658e-07
0.00294501 0.032335 -5.37854e-08
-1.63658e-07 -5.37854e-08 0.0295179

0.0320672 0.00383432 4.32359e-08
0.00383432 0.0309605 1.72666e-07
4.32359e-08 1.72666e-07 0.0314543

0.0320496 9.00123e-05 -1.06075e-07
9.00123e-05 0.0245767 1.42527e-07
-1.06075e-07 1.42527e-07 0.0248879

0.0302375 0.00086606 1.84115e-07
0.00086606 0.0385808 6.42305e-08
1.84115e-07 6.42305e-08 0.0340962

0.0354018 0.00219116 -6.8543e-08
0.00219116 0.0293227 -1.00345e-07
-6.8543e-08 -1.00345e-07 0.0328581

0.0248113 -0.00333879 -1.12432e-07
-0.00333879 0.0300057 -1.41052e-07
-1.12432e-07 -1.41052e-07 0.0244699

0.0286505 -0.000337971 -1.58092e-07
-0.000337971 0.0366572 -1.11834e-07
-1.58092e-07 -1.11834e-07 0.0323956

0.0252151 0.00173996 -2.95375e-08
0.00173996 0.0320292 -8.49671e-08
-2.95375e-08 -8.49671e-08 0.0256838

0.0332803 -0.00390986 1.27579e-07
-0.00390986 0.0304967 -1.47131e-07
1.27579e-07 -1.47131e-07 0.0315922

0.0290645 -0.00389605 3.3583e-08
-0.00389605 0.0282 5.75424e-09
3.3583e-08 5.75424e-09 0.0257134

0.0261492 0.00409863 5.5744e-08
0.00409863 0.0285462 6.09405e-08
5.5744e-08 6.09405e-08 0.024318

0.0452876 -0.00201735 -1.45737e-07
-0.00201735 0.039606 -1.51698e-07
-1.45737e-07 -1.51698e-07 0.0363668

0.0316666 0.000256229 6.83279e-08
0.000256229 0.039327 -1.10556e-07
6.83279e-08 -1.10556e-07 0.034769

0.0306164 0.00265091 -3.14411e-08
0.00265091 0.0384425 3.91053e-08
-3.14411e-08 3.91053e-08 0.0349575

0.0387659 0.00209472 1.33552e-07
0.00209472 0.0302215 3.23861e-08
1.33552e-07 3.23861e-08 0.0349424

0.0313706 -0.00345048 1.627e-08
-0.00345048 0.0321402 -9.58099e-08
1.627e-08 -9.58099e-08 0.0325725

0.0318176 0.00233613 2.08236e-08
0.00233613 0.0256203 8.94465e-08
2.08236e-08 8.94465e-08 0.0258795

0.0349937 -0.000708274 -2.58078e-07
-0.000708274 0.0415752 -5.63476e-10
-2.58078e-07 -5.63476e-10 0.0357276

0.0357882 -0.00251855 3.19179e-08
-0.00251855 0.0295501 8.40371e-08
3.19179e-08 8.40371e-08 0.0332578

0.0332968 -0.00203961 -4.98516e-08
-0.00203961 0.0266525 -3.82116e-08
-4.98516e-08 -3.82116e-08 0.0286752

0.0252522 0.00151083 -1.20077e-08
0.00151083 0.032274 -1.23926e-07
-1.20077e-08 -1.23926e-07 0.0259499

0.0268046 -0.00334466 1.72249e-07
-0.00334466 0.0300092 -3.59229e-08
1.72249e-07 -3.59229e-08 0.0251872

0.0364779 -0.00336048 -1.29164e-07
-0.00336048 0.0352875 -7.28768e-08
-1.29164e-07 -7.28768e-08 0.0347422

0.0284756 0.00415214 1.25462e-10
0.00415214 0.027716 -1.85809e-07
1.25462e-10 -1.85809e-07 0.0254676

0.0372441 -0.00334564 1.38215e-07
-0.00334564 0.0333222 -2.0591e-07
1.38215e-07 -2.0591e-07 0.0346115

0.0322055 0.000337873 -9.34219e-08
0.000337873 0.0248624 8.82746e-08
-9.34219e-08 8.82746e-08 0.0254374

0.0191609 -0.00368904 4.13035e-08
-0.00368904 0.0275255 2.72923e-07
4.13035e-08 2.72923e-07 0.0163107

0.0292096 -0.00380357 -1.34333e-07
-0.00380357 0.0281924 -4.88399e-09
-1.34333e-07 -4.88399e-09 0.0258076

0.0230457 0.00412736 1.4804e-07
0.00412736 0.02802 -1.31785e-07
1.4804e-07 -1.31785e-07 0.017592

0.0296908 -0.00155933 -7.34098e-08
-0.00155933 0.0375332 -1.44909e-07
-7.34098e-08 -1.44909e-07 0.0336483

0.0243599 -0.00179354 4.03481e-09
-0.00179354 0.0318722 -2.74185e-08
4.03481e-09 -2.74185e-08 0.0254477

0.0424371 -0.00323453 -8.64565e-08
-0.00323453 0.0423765 -6.26953e-08
-8.64565e-08 -6.26953e-08 0.0363751

0.0263363 0.00309093 5.09724e-08
0.00309093 0.0307011 3.26581e-08
5.09724e-08 3.26581e-08 0.0254776

0.0334761 -0.00432343 -1.13588e-08
-0.00432343 0.0326593 -2.34151e-08
-1.13588e-08 -2.34151e-08 0.0335662

0.0240804 -0.00155072 4.92682e-08
-0.00155072 0.0318865 -3.52241e-09
4.92682e-08 -3.52241e-09 0.0251765

0.0362222 -0.00253868 4.53927e-08
-0.00253868 0.0295109 -1.80732e-09
4.53927e-08 -1.80732e-09 0.033519

0.0266734 0.0031045 1.02441e-07
0.0031045 0.0303941 -1.49759e-08
1.02441e-07 -1.49759e-08 0.0253129

0.0343426 -0.00065374 6.38133e-08
-0.00065374 0.0272764 -1.82003e-08
6.38133e-08 -1.82003e-08 0.0305772

0.0188902 -0.00387143 1.24406e-07
-0.00387143 0.0298012 8.03379e-08
1.24406e-07 8.03379e-08 0.0129611

0.0279988 0.00275446 -1.70001e-07
0.00275446 0.0326286 -9.94893e-08
-1.70001e-07 -9.94893e-08 0.0305732

0.0314368 -0.00251217 4.28562e-08
-0.00251217 0.0247219 -1.95591e-08
4.28562e-08 -1.95591e-08 0.0254055

0.0391175 -0.00286931 9.40448e-08
-0.00286931 0.0322209 1.61337e-08
9.40448e-08 1.61337e-08 0.0349364

0.0287525 0.00412378 -1.7336e-08
0.00412378 0.0272993 -5.8055e-08
-1.7336e-08 -5.8055e-08 0.025255

0.0313608 -0.00391911 3.94845e-08
-0.00391911 0.0285413 1.22992e-07
3.94845e-08 1.22992e-07 0.0287304

0.0354074 0.00276392 2.69788e-07
0.00276392 0.0308553 5.44395e-08
2.69788e-07 5.44395e-08 0.0330386

0.0297724 -0.00370388 3.88084e-07
-0.00370388 0.0329373 -1.21033e-08
3.88084e-07 -1.21033e-08 0.0333416

0.0270545 -0.00341004 5.26055e-08
-0.00341004 0.0299816 -1.28499e-07
5.26055e-08 -1.28499e-07 0.0253968

0.0284401 0.00377121 -9.72094e-08
0.00377121 0.028939 -3.98237e-08
-9.72094e-08 -3.98237e-08 0.0258866

0.0313704 0.00341315 -1.16128e-07
0.00341315 0.0268986 1.40631e-07
-1.16128e-07 1.40631e-07 0.0269653

0.0365354 -0.00194398 3.20032e-08
-0.00194398 0.0306244 -3.0233e-08
3.20032e-08 -3.0233e-08 0.0336348

0.025533 -0.00216307 -5.93494e-08
-0.00216307 0.0318009 -3.28172e-08
-5.93494e-08 -3.28172e-08 0.025853

0.0346989 -0.0023141 2.86601e-09
-0.0023141 0.0283335 6.64349e-08
2.86601e-09 6.64349e-08 0.031455

0.0341846 0.00222311 1.16011e-07
0.00222311 0.0274311 9.80357e-08
1.16011e-07 9.80357e-08 0.0306029

0.0336443 -0.00124608 7.3935e-08
-0.00124608 0.0392993 1.78631e-07
7.3935e-08 1.78631e-07 0.0349265

0.0320708 -0.0017467 -5.68418e-09
-0.0017467 0.0253296 -1.12503e-07
-5.68418e-09 -1.12503e-07 0.0258704

0.025001 7.96718e-05 -2.75436e-08
7.96718e-05 0.03315 -3.12432e-09
-2.75436e-08 -3.12432e-09 0.0268604

0.0332459 0.00242868 1.1933e-07
0.00242868 0.0271929 2.40203e-07
1.1933e-07 2.40203e-07 0.0289212

0.0311164 0.00359868 -1.51822e-07
0.00359868 0.0272917 -1.97667e-07
-1.51822e-07 -1.97667e-07 0.0271217

0.0252946 -0.00204097 -8.3292e-08
-0.00204097 0.0318632 -6.57986e-09
-8.3292e-08 -6.57986e-09 0.0256102

0.0252003 -0.000154866 -3.10273e-09
-0.000154866 0.0332907 -2.72317e-08
-3.10273e-09 -2.72317e-08 0.0271432

0.0354125 0.00385834 6.1201e-08
0.00385834 0.0329947 -6.36736e-08
6.1201e-08 -6.36736e-08 0.0338945

0.0275848 -0.00143087 8.38899e-08
-0.00143087 0.0353409 1.65302e-07
8.38899e-08 1.65302e-07 0.0314411

0.0312329 -0.00348362 -7.19292e-08
-0.00348362 0.0269767 -1.38391e-07
-7.19292e-08 -1.38391e-07 0.0270089

0.0312957 0.00277255 -1.33906e-07
0.00277255 0.0249213 1.09591e-07
-1.33906e-07 1.09591e-07 0.0252453

0.0345814 0.00311846 7.37989e-09
0.00311846 0.0293857 -1.02991e-07
7.37989e-09 -1.02991e-07 0.0317948

0.0279903 0.000716764 2.26941e-08
0.000716764 0.036038 4.19085e-08
2.26941e-08 4.19085e-08 0.0318171

0.0287152 0.00378116 -8.98967e-08
0.00378116 0.0285582 6.40345e-08
-8.98967e-08 6.40345e-08 0.025727

0.0367895 0.00305775 -1.21888e-07
0.00305775 0.0361247 -1.49071e-07
-1.21888e-07 -1.49071e-07 0.0349062

0.0226795 -0.00754508 2.26916e-07
-0.00754508 0.0186872 2.68939e-07
2.26916e-07 2.68939e-07 0.0108448

0.0332897 -0.00328736 -4.99674e-08
-0.00328736 0.0286314 1.15869e-07
-4.99674e-08 1.15869e-07 0.030123

0.0207262 0.000913269 -8.22602e-08
0.000913269 0.0300301 -5.17234e-08
-8.22602e-08 -5.17234e-08 0.0183458

0.0312992 -0.00378159 -1.0761e-07
-0.00378159 0.0292301 -1.40021e-07
-1.0761e-07 -1.40021e-07 0.0290306

0.00153952 -0.00651862 -6.75206e-09
-0.00651862 0.0275677 2.95827e-08
-6.75206e-09 2.95827e-08 0.00290823

0.00146992 0.00636819 1.72203e-08
0.00636819 0.0275856 7.5447e-08
1.72203e-08 7.5447e-08 0.00300118

0.0119843 0.0145046 -8.39848e-08
0.0145046 0.017532 -1.05314e-07
-8.39848e-08 -1.05314e-07 0.00277111

0.0121657 -0.0144953 -8.73488e-08
-0.0144953 0.0172235 1.09532e-07
-8.73488e-08 1.09532e-07 0.00280372

0.02934 -0.000164084 -1.05314e-07
-0.000164084 0 0
-1.05314e-07 0 0.00295253

0.0235917 -0.0112824 1.63304e-07
-0.0112824 0.00539536 -7.8643e-08
1.63304e-07 -7.8643e-08 0.00297823

0.0236335 0.0113486 -2.5182e-08
0.0113486 0.00544942 -1.2127e-08
-2.5182e-08 -1.2127e-08 0.00303939

0.0369102 0.00191133 -2.266e-07
0.00191133 0.0302414 -8.81756e-08
-2.266e-07 -8.81756e-08 0.033877

0.0387046 0.00341008 1.19095e-08
0.00341008 0.0366167 -8.60868e-08
1.19095e-08 -8.60868e-08 0.0355777

0.0344143 0.000872317 8.16821e-08
0.000872317 0.0274561 3.44203e-08
8.16821e-08 3.44203e-08 0.031687

0.0328718 0.00285016 1.72976e-07
0.00285016 0.0268885 1.43412e-07
1.72976e-07 1.43412e-07 0.0286456

0.0256999 0.00231314 6.40277e-08
0.00231314 0.0323658 1.04052e-07
6.40277e-08 1.04052e-07 0.0276348

0.0307117 0.0037688 -1.54762e-07
0.0037688 0.0276754 -1.9331e-07
-1.54762e-07 -1.9331e-07 0.0271169

0.033305 -0.00390305 2.07803e-07
-0.00390305 0.0304651 -3.16258e-08
2.07803e-07 -3.16258e-08 0.0316291

0.0309725 0.00365423 -3.53139e-09
0.00365423 0.027286 -5.79572e-08
-3.53139e-09 -5.79572e-08 0.0269246

0.0249865 -0.000371427 5.09015e-08
-0.000371427 0.033121 -6.08397e-10
5.09015e-08 -6.08397e-10 0.0268425

0.0385475 -0.00348465 -8.60218e-08
-0.00348465 0.0368798 2.45761e-07
-8.60218e-08 2.45761e-07 0.0355834

0.0251749 -0.000635514 4.4701e-09
-0.000635514 0.0332094 -2.65883e-08
4.4701e-09 -2.65883e-08 0.0271021

0.0360177 0.00304746 1.20001e-08
0.00304746 0.0330103 6.77305e-08
1.20001e-08 6.77305e-08 0.0340974

0.0296223 0.00347576 6.91973e-08
0.00347576 0.0248457 9.76533e-08
6.91973e-08 9.76533e-08 0.0230222

0.0304953 -0.0017139 1.47641e-07
-0.0017139 0.0375123 -8.30213e-08
1.47641e-07 -8.30213e-08 0.0347359

0.0339198 0.00180446 -3.31559e-08
0.00180446 0.0271811 2.39083e-07
-3.31559e-08 2.39083e-07 0.0303198

0.0312005 -0.00392025 -8.01619e-08
-0.00392025 0.0285304 -1.24994e-07
-8.01619e-08 -1.24994e-07 0.0286138

0.0315828 -0.00322127 1.45627e-08
-0.00322127 0.026691 2.80184e-08
1.45627e-08 2.80184e-08 0.0270471

0.0384794 -0.0021417 1.85189e-07
-0.0021417 0.0334165 -1.16284e-07
1.85189e-07 -1.16284e-07 0.0347444

0.0326808 0.00366397 1.27565e-07
0.00366397 0.0292315 -8.67076e-08
1.27565e-07 -8.67076e-08 0.0301544

0.0326443 0.00313737 7.68975e-08
0.00313737 0.0272517 -1.88679e-07
7.68975e-08 -1.88679e-07 0.0287874

0.0269546 -0.000365151 1.54509e-07
-0.000365151 0.0349862 -7.70245e-09
1.54509e-07 -7.70245e-09 0.0301674

0.0258991 0.000765674 6.75698e-08
0.000765674 0.0340032 1.2561e-07
6.75698e-08 1.2561e-07 0.0288225

0.0327776 0.000345375 -2.87996e-08
0.000345375 0.0248612 9.23831e-08
-2.87996e-08 9.23831e-08 0.0274433

0.0313865 -0.000944847 -6.88728e-08
-0.000944847 0.0230034 2.09601e-07
-6.88728e-08 2.09601e-07 0.0238917

0.0308799 0.00398507 -9.58479e-10
0.00398507 0.0288056 -5.33347e-08
-9.58479e-10 -5.33347e-08 0.0286236

0.0331171 -0.0034316 -1.42206e-07
-0.0034316 0.0285399 -1.2577e-07
-1.42206e-07 -1.2577e-07 0.0299688

0.0364123 -0.00282395 -1.43893e-07
-0.00282395 0.0327326 1.23636e-07
-1.43893e-07 1.23636e-07 0.0341436

0.0292057 -0.00412763 -4.89499e-08
-0.00412763 0.0291917 -1.35729e-07
-4.89499e-08 -1.35729e-07 0.0277534

0.0269716 -0.00362029 1.30747e-07
-0.00362029 0.0304642 3.39105e-08
1.30747e-07 3.39105e-08 0.0272129

0.0283258 0.00389951 -3.29306e-08
0.00389951 0.0299003 8.81722e-08
-3.29306e-08 8.81722e-08 0.0277515

0.0259008 -0.00124895 7.33323e-08
-0.00124895 0.033613 -3.58892e-08
7.33323e-08 -3.58892e-08 0.0285154

0.0266541 -0.00020203 1.3193e-07
-0.00020203 0.0349125 7.19665e-08
1.3193e-07 7.19665e-08 0.0299193

0.0277619 0.000752976 1.77052e-07
0.000752976 0.0360375 4.07339e-08
1.77052e-07 4.07339e-08 0.0316577

0.0262468 -0.00274927 -1.53716e-07
-0.00274927 0.0319622 1.07681e-07
-1.53716e-07 1.07681e-07 0.0277101

0.0345821 0.00317565 2.69007e-09
0.00317565 0.0291678 -9.41444e-08
2.69007e-09 -9.41444e-08 0.0316339

0.0339087 -0.0012609 6.45904e-08
-0.0012609 0.0269297 -1.62137e-08
6.45904e-08 -1.62137e-08 0.0302011

0.0257899 0.000974242 -7.23697e-08
0.000974242 0.0338287 -8.31262e-08
-7.23697e-08 -8.31262e-08 0.0285414

0.0278235 -0.00126995 7.37217e-08
-0.00126995 0.0353967 1.63216e-07
7.37217e-08 1.63216e-07 0.0313655

0.0272925 -0.00213714 7.28967e-09
-0.00213714 0.0336563 1.1559e-09
7.28967e-09 1.1559e-09 0.0302251

0.0327763 -0.00107723 -1.42183e-07
-0.00107723 0.0253195 4.71067e-08
-1.42183e-07 4.71067e-08 0.0272538

0.0333149 -0.0042712 -1.02252e-07
-0.0042712 0.0323798 -7.36389e-08
-1.02252e-07 -7.36389e-08 0.0335287

0.0264881 0.00121974 1.76842e-07
0.00121974 0.0338347 -8.0012e-08
1.76842e-07 -8.0012e-08 0.0288155

0.0398103 -0.00243164 2.13062e-07
-0.00243164 0.0352181 -8.49591e-08
2.13062e-07 -8.49591e-08 0.0354606

0.0188885 0.00316453 -2.83634e-08
0.00316453 0.0278754 -1.4823e-07
-2.83634e-08 -1.4823e-07 0.0162725

0.0338155 -0.00352273 -4.08229e-08
-0.00352273 0.0334942 2.42317e-08
-4.08229e-08 2.42317e-08 0.0337256

0.0353434 -0.00399951 -6.2472e-08
-0.00399951 0.033046 -1.43395e-07
-6.2472e-08 -1.43395e-07 0.0339035

0.0266854 -9.06838e-05 -1.63283e-07
-9.06838e-05 0.0349176 6.51961e-08
-1.63283e-07 6.51961e-08 0.0299275

0.0332421 -0.00217628 2.93193e-08
-0.00217628 0.0271526 9.72614e-08
2.93193e-08 9.72614e-08 0.0289022

0.029347 0.00168475 -2.03021e-08
0.00168475 0.0358184 -2.39802e-08
-2.03021e-08 -2.39802e-08 0.0328792

0.0132073 -0.000379115 1.47376e-07
-0.000379115 0.0283616 7.41221e-08
1.47376e-07 7.41221e-08 0.0111516

0.0271131 0.00186859 2.21063e-07
0.00186859 0.0340613 2.72443e-09
2.21063e-07 2.72443e-09 0.0303057

0.0311087 -0.0038583 3.09353e-08
-0.0038583 0.0291535 9.90019e-08
3.09353e-08 9.90019e-08 0.0288058

0.0186195 0.00320444 5.36811e-08
0.00320444 0.0301389 7.80994e-08
5.36811e-08 7.80994e-08 0.0131266

0.0426002 0.00351815 1.59173e-07
0.00351815 0.0418495 2.45699e-07
1.59173e-07 2.45699e-07 0.0364799

0.0432044 -0.00374813 -9.22869e-08
-0.00374813 0.0414168 6.63662e-07
-9.22869e-08 6.63662e-07 0.0364623

0.0310643 -0.00399062 -1.82754e-07
-0.00399062 0.0304706 -2.21319e-08
-1.82754e-07 -2.21319e-08 0.0304604

0.0289212 -0.00406404 -2.2275e-08
-0.00406404 0.0291499 9.84022e-08
-2.2275e-08 9.84022e-08 0.0275938

0.0330502 0.00272688 -9.13028e-08
0.00272688 0.0275279 7.97766e-08
-9.13028e-08 7.97766e-08 0.0290748

0.0327789 0.00196008 -8.81338e-08
0.00196008 0.0255907 8.5516e-08
-8.81338e-08 8.5516e-08 0.0278222

0.0464016 0.000418534 4.17001e-07
0.000418534 0.046356 -3.16313e-08
4.17001e-07 -3.16313e-08 0.0366941

0.0469183 -0.000952074 -3.74311e-07
-0.000952074 0.0457683 8.01318e-08
-3.74311e-07 8.01318e-08 0.0367653

0.0347985 0.000638514 -3.28051e-08
0.000638514 0.0275723 1.33976e-07
-3.28051e-08 1.33976e-07 0.0322158

0.0277511 0.000882468 2.25656e-07
0.000882468 0.0355701 -4.7149e-09
2.25656e-07 -4.7149e-09 0.0313479

0.027607 0.000882671 -2.1218e-07
0.000882671 0.0355702 -1.72212e-08
-2.1218e-07 -1.72212e-08 0.0312441

0.0234586 0.00739981 -3.40538e-07
0.00739981 0.0183015 1.06009e-09
-3.40538e-07 1.06009e-09 0.0109013

0.0272464 -0.00367548 -1.2491e-08
-0.00367548 0.0303465 -3.18092e-08
-1.2491e-08 -3.18092e-08 0.0273188

0.0365662 0.00239159 -1.37807e-07
0.00239159 0.0295756 -2.01757e-07
-1.37807e-07 -2.01757e-07 0.0337838

0.0332731 0.00124748 -6.1032e-08
0.00124748 0.0265034 3.33295e-08
-6.1032e-08 3.33295e-08 0.0284311

0.0291515 -0.00349239 -6.65561e-08
-0.00349239 0.0304704 1.75127e-08
-6.65561e-08 1.75127e-08 0.0281725

0.0328099 -0.00264769 -1.61571e-08
-0.00264769 0.0267272 2.70537e-08
-1.61571e-08 2.70537e-08 0.028586

0.0224596 0.00761254 1.3233e-07
0.00761254 0.01859 -3.08846e-07
1.3233e-07 -3.08846e-07 0.0109037

0.0331439 0.00410233 -3.49953e-08
0.00410233 0.0326375 8.1591e-08
-3.49953e-08 8.1591e-08 0.0331809

0.0258895 -0.00257816 -1.28189e-08
-0.00257816 0.0320233 -1.22576e-07
-1.28189e-08 -1.22576e-07 0.0275067

0.0324819 0.00378577 -1.11777e-09
0.00378577 0.0292673 8.79718e-08
-1.11777e-09 8.79718e-08 0.0301462

0.0268152 -0.000543515 -1.39263e-07
-0.000543515 0.0349512 -3.77303e-08
-1.39263e-07 -3.77303e-08 0.0301371

0.0269893 0.00256323 4.92957e-08
0.00256323 0.0324475 1.25272e-07
4.92957e-08 1.25272e-07 0.0282856

0.0305253 0.0039909 -1.56995e-08
0.0039909 0.0293223 8.65014e-08
-1.56995e-08 8.65014e-08 0.0287743

0.0276079 -0.00293722 7.29297e-08
-0.00293722 0.0318527 1.47957e-07
7.29297e-08 1.47957e-07 0.0282482

0.0294553 -0.00357567 1.26818e-08
-0.00357567 0.0303502 -3.02151e-08
1.26818e-08 -3.02151e-08 0.0283042

0.0181373 0.00142539 -4.97929e-08
0.00142539 0.0280355 -8.63392e-08
-4.97929e-08 -8.63392e-08 0.0131272

0.0234732 -0.00429385 -2.00016e-07
-0.00429385 0.0275552 2.79846e-07
-2.00016e-07 2.79846e-07 0.0177228

0.0262047 -0.00152588 -7.97915e-08
-0.00152588 0.0336226 9.5817e-08
-7.97915e-08 9.5817e-08 0.028751

0.0330228 0.00347469 -1.41063e-07
0.00347469 0.0288771 -4.14612e-08
-1.41063e-07 -4.14612e-08 0.030068

0.0303207 0.00385734 -1.81426e-08
0.00385734 0.0298856 8.92765e-08
-1.81426e-08 8.92765e-08 0.0289895

0.0274136 -0.00280048 5.15911e-08
-0.00280048 0.031983 -1.17972e-07
5.15911e-08 -1.17972e-07 0.0281382

0.0265537 -0.00154076 3.25452e-08
-0.00154076 0.0335814 -3.79842e-08
3.25452e-08 -3.79842e-08 0.0287454

0.0309554 0.0037182 2.42826e-08
0.0037182 0.0295627 -1.02912e-07
2.42826e-08 -1.02912e-07 0.0289403

0.0267586 -0.00181585 -1.66427e-07
-0.00181585 0.033473 7.72928e-08
-1.66427e-07 7.72928e-08 0.0289534

0.0191655 0.0035544 8.23643e-08
0.0035544 0.0276071 1.47634e-07
8.23643e-08 1.47634e-07 0.0162917

0.0308727 -0.000534863 -1.75894e-08
-0.000534863 0.0388179 7.83195e-08
-1.75894e-08 7.83195e-08 0.0342936

0.0286553 0.00404772 -1.83675e-07
0.00404772 0.0295178 -7.95513e-08
-1.83675e-07 -7.95513e-08 0.0277137

0.0355789 0.00197518 -6.9193e-08
0.00197518 0.0295022 -9.90999e-08
-6.9193e-08 -9.90999e-08 0.0328417

0.0362583 -0.00211475 -8.19922e-08
-0.00211475 0.0297545 -7.65474e-08
-8.19922e-08 -7.65474e-08 0.033217

0.0285099 -0.00309567 5.27723e-08
-0.00309567 0.0185685 -2.27333e-07
5.27723e-08 -2.27333e-07 0.0157294

0.0283527 -0.00278997 1.32774e-07
-0.00278997 0.0327745 -1.57536e-07
1.32774e-07 -1.57536e-07 0.0305707

0.0291902 0.00350094 1.48422e-07
0.00350094 0.0315987 -5.54092e-08
1.48422e-07 -5.54092e-08 0.0304865

0.0349591 -0.00290715 -9.41602e-08
-0.00290715 0.0376747 -2.47764e-07
-9.41602e-08 -2.47764e-07 0.0352353

0.0394597 0.0018846 1.24152e-07
0.0018846 0.0446074 1.73737e-07
1.24152e-07 1.73737e-07 0.0364321

0.044944 0.00129034 -1.10405e-07
0.00129034 0.039116 6.127e-08
-1.10405e-07 6.127e-08 0.0364141

0.0355597 0.00434558 -2.72074e-08
0.00434558 0.0351342 3.9345e-08
-2.72074e-08 3.9345e-08 0.0350025

0.026571 0.00338785 7.07545e-08
0.00338785 0.0310052 6.85152e-08
7.07545e-08 6.85152e-08 0.027255

0.0330383 0.00349713 -5.37455e-08
0.00349713 0.0286661 -2.60987e-07
-5.37455e-08 -2.60987e-07 0.0300492

0.0220592 0.00576406 -1.33581e-07
0.00576406 0.0242368 3.77729e-08
-1.33581e-07 3.77729e-08 0.0160719

0.0386177 -0.00151276 -7.30182e-08
-0.00151276 0.0444322 -2.78617e-08
-7.30182e-08 -2.78617e-08 0.0363613

0.046048 -0.000465243 3.26082e-08
-0.000465243 0.0454378 2.0958e-07
3.26082e-08 2.0958e-07 0.0366902

0.0451798 -3.13932e-05 -4.26692e-08
-3.13932e-05 0.0463021 -3.84292e-07
-4.26692e-08 -3.84292e-07 0.0366722

0.0176405 -0.00679457 -5.98048e-08
-0.00679457 0.0231076 -2.87717e-07
-5.98048e-08 -2.87717e-07 0.0107382

0.0392916 -0.00155581 1.72124e-07
-0.00155581 0.038714 2.45284e-08
1.72124e-07 2.45284e-08 0.0358527

0.0383962 0.0011772 -3.49536e-07
0.0011772 0.0415174 -1.03204e-07
-3.49536e-07 -1.03204e-07 0.0361241

0.0331738 -0.00343569 -5.34174e-08
-0.00343569 0.0282188 7.91297e-08
-5.34174e-08 7.91297e-08 0.0299026

0.0318438 0.000140393 1.17519e-07
0.000140393 0.0386706 6.45997e-08
1.17519e-07 6.45997e-08 0.0344495

0.028576 -0.00266011 1.6524e-08
-0.00266011 0.0333794 1.10691e-09
1.6524e-08 1.10691e-09 0.0315883

0.0356606 0.000831824 4.52256e-08
0.000831824 0.0273767 1.9267e-07
4.52256e-08 1.9267e-07 0.0329992

0.0288749 0.00204421 -7.67705e-09
0.00204421 0.0368151 1.32446e-07
-7.67705e-09 1.32446e-07 0.0336687

0.0298686 0.000946311 -3.18682e-08
0.000946311 0.0373873 1.11726e-07
-3.18682e-08 1.11726e-07 0.0333626

0.0344006 0.00268489 -2.13647e-07
0.00268489 0.0288508 -2.40938e-07
-2.13647e-07 -2.40938e-07 0.0312254

0.0132789 -0.000409387 -4.88902e-08
-0.000409387 0.0281221 3.76414e-08
-4.88902e-08 3.76414e-08 0.011201

0.0309637 -0.003626 1.1075e-07
-0.003626 0.0309143 -1.18822e-08
1.1075e-07 -1.18822e-08 0.0306086

0.0329278 -0.00344344 2.34281e-07
-0.00344344 0.03202 -1.25953e-07
2.34281e-07 -1.25953e-07 0.0325784

0.0335698 -0.00415904 2.62687e-08
-0.00415904 0.0325335 1.21727e-07
2.62687e-08 1.21727e-07 0.0337348

0.0265614 0.00414853 1.21674e-07
0.00414853 0.0176911 3.60193e-08
1.21674e-07 3.60193e-08 0.0126048

0.0388275 -0.00269678 2.43766e-07
-0.00269678 0.0395756 -1.41715e-07
2.43766e-07 -1.41715e-07 0.0359575

0.0230823 0.0069206 -2.88894e-07
0.0069206 0.0255013 -1.70308e-07
-2.88894e-07 -1.70308e-07 0.0126091

0.0308737 -0.00281785 2.27304e-07
-0.00281785 0.0348067 2.88496e-12
2.27304e-07 2.88496e-12 0.0339554

0.0354107 0.00193632 1.15398e-07
0.00193632 0.028465 8.2423e-08
1.15398e-07 8.2423e-08 0.0323437

0.0318202 -0.00189336 5.93588e-09
-0.00189336 0.02495 8.6746e-08
5.93588e-09 8.6746e-08 0.0253947

0.0292915 0.00315917 1.44678e-07
0.00315917 0.032731 -4.41716e-08
1.44678e-07 -4.41716e-08 0.0312788

0.034436 0.00268857 -2.76058e-07
0.00268857 0.0286336 -9.27993e-08
-2.76058e-07 -9.27993e-08 0.03122

0.032518 0.00149912 -3.98119e-08
0.00149912 0.0403727 -1.00507e-07
-3.98119e-08 -1.00507e-07 0.0353357

0.0319393 -0.00415439 -3.73602e-08
-0.00415439 0.0312003 6.62982e-08
-3.73602e-08 6.62982e-08 0.0318098

0.0396756 0.00265531 3.2991e-09
0.00265531 0.0331974 7.2663e-08
3.2991e-09 7.2663e-08 0.0353152

0.0279707 -0.00241843 1.52698e-08
-0.00241843 0.0335501 2.42128e-09
1.52698e-08 2.42128e-09 0.0304697

0.0293502 0.000558761 -5.18117e-08
0.000558761 0.0373111 1.09602e-07
-5.18117e-08 1.09602e-07 0.0332518

0.041943 0.00133756 -7.4295e-08
0.00133756 0.0370994 -7.4962e-08
-7.4295e-08 -7.4962e-08 0.0361155

0.0420973 -0.00114805 2.86912e-07
-0.00114805 0.0373252 2.84462e-07
2.86912e-07 2.84462e-07 0.0360974

0.0283826 0.002369 -1.55867e-07
0.002369 0.0181812 7.75719e-08
-1.55867e-07 7.75719e-08 0.0159494

0.0350249 0.00106111 1.0705e-07
0.00106111 0.0285654 8.29556e-08
1.0705e-07 8.29556e-08 0.0330582

0.0128667 0.000923333 -4.3171e-08
0.000923333 0.031626 -4.09476e-09
-4.3171e-08 -4.09476e-09 0.00612158

0.0131623 -0.00138812 1.44268e-07
-0.00138812 0.0321318 -3.73095e-08
1.44268e-07 -3.73095e-08 0.0061119

0.0152685 0.00715413 -1.18133e-07
0.00715413 0.0284526 1.41414e-08
-1.18133e-07 1.41414e-08 0.00598402

0.0347637 -0.00382114 5.83264e-08
-0.00382114 0.031267 -1.62063e-07
5.83264e-08 -1.62063e-07 0.0329383

0.0155805 -0.00619414 -1.19403e-07
-0.00619414 0.0261525 1.04769e-07
-1.19403e-07 1.04769e-07 0.0104718

0.0155127 -0.0070867 -1.61548e-07
-0.0070867 0.0274232 -1.54389e-07
-1.61548e-07 -1.54389e-07 0.00591382

0.0284253 0.00342579 -1.82676e-08
0.00342579 0.0310055 6.82339e-08
-1.82676e-08 6.82339e-08 0.028152

0.0251931 0.00932573 2.55231e-07
0.00932573 0.0190205 -1.69976e-07
2.55231e-07 -1.69976e-07 0.00593372

0.0365375 0.00173195 1.06878e-07
0.00173195 0.0385507 7.10749e-09
1.06878e-07 7.10749e-09 0.0354744

0.0395347 2.51288e-05 1.39649e-07
2.51288e-05 0.0355388 1.26899e-08
1.39649e-07 1.26899e-08 0.0354551

0.0261068 -0.00924429 3.04986e-07
-0.00924429 0.0188123 1.92157e-07
3.04986e-07 1.92157e-07 0.00588789

0.0276893 -0.003065 -1.01093e-09
-0.003065 0.0320941 -2.96954e-08
-1.01093e-09 -2.96954e-08 0.0296221

0.0262547 0.00441804 1.82302e-07
0.00441804 0.0201576 -1.97032e-07
1.82302e-07 -1.97032e-07 0.0130443

0.017279 0.00797293 1.44716e-07
0.00797293 0.0271486 1.13433e-07
1.44716e-07 1.13433e-07 0.0059877

0.0181959 0.00275505 -5.94915e-08
0.00275505 0.0275891 -8.46915e-08
-5.94915e-08 -8.46915e-08 0.0128498

0.0173039 -0.00827614 -9.70614e-08
-0.00827614 0.027152 5.75188e-08
-9.70614e-08 5.75188e-08 0.00581365

0.0179326 -0.00157096 1.64796e-07
-0.00157096 0.0280049 -7.88817e-08
1.64796e-07 -7.88817e-08 0.0126902

0.0370497 0.000922852 -7.88373e-08
0.000922852 0.0412996 -1.49768e-08
-7.88373e-08 -1.49768e-08 0.0358093

0.0221308 -0.00585504 2.74174e-07
-0.00585504 0.0236642 -1.10375e-07
2.74174e-07 -1.10375e-07 0.0151585

0.0156999 0.005986 -5.00227e-09
0.005986 0.0259018 -2.09247e-07
-5.00227e-09 -2.09247e-07 0.0107499

0.0302082 0.00473002 5.54569e-08
0.00473002 0.0143491 2.79037e-07
5.54569e-08 2.79037e-07 0.00611572

0.0329372 -0.00384928 -2.35621e-07
-0.00384928 0.0301235 9.73911e-09
-2.35621e-07 9.73911e-09 0.0310505

0.030888 0.00169387 -3.73373e-08
0.00169387 0.0368416 1.33761e-07
-3.73373e-08 1.33761e-07 0.0339495

0.0260894 -0.00484374 9.1693e-09
-0.00484374 0.0191968 3.27091e-07
9.1693e-09 3.27091e-07 0.0126947

0.0329994 -0.00378591 -2.30208e-07
-0.00378591 0.0300744 2.26148e-08
-2.30208e-07 2.26148e-08 0.0311269

0.0300184 -0.00451979 1.10813e-07
-0.00451979 0.0130533 -3.74903e-07
1.10813e-07 -3.74903e-07 0.00603716

0.0324723 -0.00372736 -1.65715e-07
-0.00372736 0.0313064 -1.21967e-07
-1.65715e-07 -1.21967e-07 0.0319786

0.0280903 -0.00331118 1.85451e-07
-0.00331118 0.0320025 4.05272e-10
1.85451e-07 4.05272e-10 0.0296246

0.0234431 0.00874352 -1.61231e-08
0.00874352 0.0204825 2.618e-07
-1.61231e-08 2.618e-07 0.00602602

0.0181993 -0.0029207 -2.70696e-07
-0.0029207 0.0268659 -2.55487e-07
-2.70696e-07 -2.55487e-07 0.0122697

0.0233143 -0.00901911 1.44461e-07
-0.00901911 0.0201517 2.90032e-07
1.44461e-07 2.90032e-07 0.00588385

0.0170821 0.00640799 3.05201e-09
0.00640799 0.0235655 1.70162e-07
3.05201e-09 1.70162e-07 0.0108308

0.0308254 -0.00395998 1.07788e-07
-0.00395998 0.0301597 -2.0676e-08
1.07788e-07 -2.0676e-08 0.0300848

0.0389169 -0.00195857 1.11798e-07
-0.00195857 0.0369404 -1.81827e-07
1.11798e-07 -1.81827e-07 0.0354988

0.045541 0.00150612 -5.00869e-07
0.00150612 0.0449514 4.72481e-08
-5.00869e-07 4.72481e-08 0.0366184

0.0435642 -0.00071153 -1.83322e-07
-0.00071153 0.0462302 -4.43394e-08
-1.83322e-07 -4.43394e-08 0.0365841

0.0286149 0.00171603 1.1829e-07
0.00171603 0.0355653 -2.12671e-07
1.1829e-07 -2.12671e-07 0.0323888

0.0453362 -0.00144722 2.76258e-07
-0.00144722 0.0449791 2.56796e-07
2.76258e-07 2.56796e-07 0.0366361

0.0438079 0.000567661 9.99383e-08
0.000567661 0.0465063 1.99525e-07
9.99383e-08 1.99525e-07 0.0366173

0.046679 0.000991263 -4.37117e-08
0.000991263 0.043377 -5.73029e-08
-4.37117e-08 -5.73029e-08 0.0365923

0.03975 -0.00163892 -4.28283e-07
-0.00163892 0.0460757 1.37347e-07
-4.28283e-07 1.37347e-07 0.0364821

0.0190535 -0.00388721 -4.29906e-07
-0.00388721 0.0272302 6.9254e-08
-4.29906e-07 6.9254e-08 0.0154708

0.0421403 -0.00175011 -5.27853e-08
-0.00175011 0.0367251 -1.48699e-07
-5.27853e-08 -1.48699e-07 0.036004

0.0359638 -0.00457326 -1.7253e-07
-0.00457326 0.0351502 6.21264e-08
-1.7253e-07 6.21264e-08 0.0349674

0.0397526 -0.00242134 -1.74115e-07
-0.00242134 0.0360638 6.17407e-08
-1.74115e-07 6.17407e-08 0.0355664

0.0351837 0.00204322 2.30861e-07
0.00204322 0.0285482 -6.05346e-08
2.30861e-07 -6.05346e-08 0.0322311

0.0396921 0.00133791 2.57491e-07
0.00133791 0.0472264 2.81039e-07
2.57491e-07 2.81039e-07 0.0365479

0.0464969 0.00259399 -1.13245e-07
0.00259399 0.0404181 -3.19872e-07
-1.13245e-07 -3.19872e-07 0.0365292

0.0400867 0.0015052 -3.49692e-08
0.0015052 0.0366734 4.24334e-08
-3.49692e-08 4.24334e-08 0.0356145

0.027914 -0.00191984 -2.27893e-07
-0.00191984 0.0125244 -3.40544e-07
-2.27893e-07 -3.40544e-07 0.0106243

0.0283181 0.00326769 -6.80759e-08
0.00326769 0.0315488 -1.39175e-07
-6.80759e-08 -1.39175e-07 0.0294099

0.0231876 -0.00773573 8.32419e-08
-0.00773573 0.0181795 3.40769e-07
8.32419e-08 3.40769e-07 0.0102892

0.0228302 -0.00731553 2.22005e-08
-0.00731553 0.0257681 1.22318e-07
2.22005e-08 1.22318e-07 0.0119543

0.0290219 -0.00464687 -2.92787e-07
-0.00464687 0.0191279 -1.62393e-07
-2.92787e-07 -1.62393e-07 0.0126148

0.0375738 -0.000660683 -1.17886e-07
-0.000660683 0.0449116 3.12268e-07
-1.17886e-07 3.12268e-07 0.0362931

0.0375715 0.000358147 1.37127e-07
0.000358147 0.0447888 1.51034e-07
1.37127e-07 1.51034e-07 0.0362733

0.0426052 -0.00327434 -5.02986e-08
-0.00327434 0.0394495 3.46517e-07
-5.02986e-08 3.46517e-07 0.0362271

0.0429987 -0.00294469 7.86704e-08
-0.00294469 0.0391683 7.20559e-08
7.86704e-08 7.20559e-08 0.0362341

0.0425015 0.00350473 7.19519e-08
0.00350473 0.0399723 2.68738e-07
7.19519e-08 2.68738e-07 0.036272

0.0443975 0.000417496 2.99346e-07
0.000417496 0.0450803 4.57094e-07
2.99346e-07 4.57094e-07 0.0366353

0.0426082 -0.0027445 -1.03114e-07
-0.0027445 0.0395071 -2.17734e-07
-1.03114e-07 -2.17734e-07 0.0362887

0.0426019 -0.00251248 8.27072e-08
-0.00251248 0.0442667 -2.18411e-07
8.27072e-08 -2.18411e-07 0.0365629

0.0451178 0.000332266 5.73394e-08
0.000332266 0.0454673 3.91431e-07
5.73394e-08 3.91431e-07 0.0366536

0.0436363 -0.00278318 -1.87319e-07
-0.00278318 0.0389162 -1.18903e-07
-1.87319e-07 -1.18903e-07 0.0363293

0.0435119 0.00283928 -1.27094e-07
0.00283928 0.039069 -3.96357e-08
-1.27094e-07 -3.96357e-08 0.0363674

0.0451938 -0.000471138 -1.96302e-07
-0.000471138 0.045582 9.382e-08
-1.96302e-07 9.382e-08 0.0367023

0.0452258 -0.000425939 -2.26155e-07
-0.000425939 0.0443625 5.04026e-07
-2.26155e-07 5.04026e-07 0.0367206

0.0427981 0.0016388 1.82379e-07
0.0016388 0.0442481 -1.79388e-07
1.82379e-07 -1.79388e-07 0.0366067

0.041116 0.00361823 5.96357e-08
0.00361823 0.0405167 1.71139e-07
5.96357e-08 1.71139e-07 0.0363213

SCALARS pressure float
LOOKUP_TABLE default
-60.0505
19.3082
5.80324
21.2901
15.8788
5.8872
-58.6737
7.78299
-3.80501
15.1245
-24.4315
7.61715
5.59196
12.2791
23.3377
5.53884
18.5208
13.2071
-0.693029
6.75638
-0.904978
33.135
5.8006
5.79668
6.60167
14.9027
-38.3848
6.67152
-15.2424
30.6264
5.17619
-15.6571
-42.0558
27.3262
20.7792
27.3591
31.8847
19.8091
4.85948
-42.599
-17.4073
31.9055
31.9937
5.99343
-21.8048
-15.9758
-1.05261
-3.40562
6.54463
-16.2177
-18.9187
-15.3459
20.7556
-15.3731
20.3088
-33.1484
21.1297
-15.4603
21.1395
7.04473
21.7647
16.1188
-45.5616
12.7897
16.3621
10.905
21.5739
13.828
5.77331
21.8169
20.8117
20.7823
-17.6909
11.6005
3.97381
-31.6093
14.3567
10.9961
14.146
-8.72012
-28.9446
14.9777
20.163
-22.0377
-23.4293
-28.0917
7.0976
9.63228
-22.2156
37.7417
-15.509
38.4444
18.3045
10.7614
-15.1665
-15.8727
-30.2211
14.7533
14.3657
4.59856
-10.7663
-21.9394
-25.1013
16.2128
14.1
14.9615
18.6974
3.77459
-24.5582
26.5131
7.21736
-21.4088
-24.6118
14.8377
15.0779
-16.1456
20.165
-29.113
20.6286
-16.7293
-2.9049
23.8339
21.727
16.0328
26.6797
22.6316
21.7857
15.7084
-29.7807
-16.099
24.0918
21.6172
20.9892
22.0656
-22.0138
23.5873
-33.8371
5.46324
21.7543
23.6306
-21.9367
6.67631
-5.96687
15.0834
-30.4072
15.6238
7.83303
2.4074
5.1776
-9.39461
-0.458192
22.6415
-15.4546
5.29086
15.204
21.5604
11.508
-21.1132
-21.2637
10.7903
-2.84293
-15.1976
-21.2203
-15.1652
-20.9864
15.2796
-20.6358
-21.2015
-15.2078
-21.0637
19.0043
-15.941
-14.8244
12.0643
-14.4847
18.8028
19.0534
7.47256
18.0479
11.7729
-16.249
15.2881
14.9608
-21.5284
10.4264
-14.2213
16.0485
14.5954
17.0818
14.835
10.3437
-26.9761
-16.0822
-15.9581
21.9069
14.5256
14.6245
20.9226
22.4869
9.50254
21.7336
-0.384935
-8.171
20.7787
-17.8387
19.9456
10.3641
-21.5175
15.7211
22.5261
14.7312
9.39331
14.1897
21.0556
-7.83306
8.8274
-7.90886
14.6482
26.9277
26.5814
27.9606
26.3886
26.7244
26.291
13.8257
23.4303
24.0295
23.9737
23.4
21.1927
21.8573
-8.26312
15.9334
28.1911
-3.18899
23.5761
23.2054
27.8344
-8.49382
28.0965
15.3445
-7.58189
17.4921
-8.25808
20.2271
29.6128
-7.48628
-8.10104
-29.5917
-18.189
19.5272
-31.9852
5.73404
-7.79423
-1.18986
28.2492
26.6403
30.4269
26.761
-34.8007
-8.17993
28.3374
8.07256
-8.29544
26.446
-6.2956
30.4718
-7.95436
27.0472
14.5659
14.787
23.8452
10.0473
18.021
8.11676
-29.8597
-24.5529
16.8068
1.75928
8.17921
-13.609
17.4357
11.6997
-8.10179
9.45192
-10.8236
7.51661
-10.7549
-8.48501
33.2649
19.1517
25.0884
25.3127
13.8289
-10.4047
26.43
14.6849
-1.65942
-10.2741
-12.5644
17.5066
-7.48553
17.5745
-12.0414
-21.3503
-10.6084
-34.6809
15.5623
-7.76327
34.4429
-11.5781
16.8713
-8.40905
15.9726
-12.7585
4.28874
-51.1178
8.52128
-7.74693
21.3338
-8.15245
-0.12333
10.7151
21.1241
-12.0609
-10.201
-6.06867
14.3178
-10.1803
6.88756
6.38524
16.3054
-10.4198
-6.33077
-1.70279
-5.66087
-11.0787
-5.84509
15.3054
7.80758
-5.55646
-8.96074
7.80501
7.69387
-10.6748
16.3093
-27.2132
2.29255
-28.481
-0.958043
-8.878
-8.09629
-11.7789
-10.9426
-9.88088
-7.77589
-7.89925
16.6377
24.778
12.1156
-0.292177
-0.825732
-5.67504
7.30473
-6.32113
-6.31842
24.9238
-5.73046
14.1179
-15.9084
24.3253
5.9676
-0.391733
-5.64432
16.2749
2.47654
0.198483
2.44753
0.455351
-0.741425
-9.93056
-0.0961734
2.1127
15.0689
-1.28885
-1.40774
-0.999397
-0.389152
1.96474
8.05021
-1.19413
8.07766
5.58266
-0.436214
7.03476
5.4897
-3.877
16.4765
-1.90394
23.0622
-21.9732
15.044
15.6822
2.03909
-1.99802
12.5426
-26.5058
5.79169
-1.65847
-50.4821
30.4988
30.6355
5.82432
-1.14494
-1.04736
-0.850271
33.4196
33.2943
13.0945
6.08141
6.66188
-28.9618
-1.28
16.5333
-3.18323
-4.34863
-0.0175222
-25.2705
14.303
-1.28077
2.86123
2.69262
-2.7238
-0.049901
-3.21003
-4.03408
-37.9817
-33.6829
-0.128607
1.87392
-0.534655
-3.74472
-1.93714
-1.87826
-0.924878
-21.9071
17.2495
-0.76991
12.5648
14.1834
-26.7636
6.28574
7.13628
18.4778
36.4287
36.4611
22.6387
-1.75638
2.59907
-20.9293
36.1273
32.7609
32.8279
-24.8078
21.7758
30.524
2.59856
15.7239
10.3708
17.1641
17.726
12.5053
5.68086
-25.3973
4.25952
10.4089
16.2438
-31.7091
28.3103
-52.7091
18.6848
10.2986
-10.6277
7.41685
5.45656
24.4746
9.41059
24.4076
4.10462
12.3996
30.6412
29.4669
-22.9897
17.4352
-70.228
-74.3745
-67.1721
11.648
-31.2589
-63.6055
-3.80403
-69.9335
16.4632
16.4069
-73.7496
5.21153
-39.7287
-70.734
-37.7547
-71.8704
-39.4502
21.1371
-23.9595
-29.043
-70.6179
4.83088
15.7574
-36.1886
6.05296
-63.6132
9.83547
3.88106
-67.8966
-37.6223
-66.4061
-23.7545
5.02848
20.5264
35.3729
36.7287
11.8116
36.8525
36.9058
36.4942
36.4061
-24.4783
28.2488
20.6691
21.9809
11.5341
36.062
36.0935
18.1203
-23.9393
3.24596
-30.5252
-56.5952
-50.4724
36.1451
35.8258
35.3824
35.4526
36.1611
35.6008
33.1115
37.3728
35.4022
36.0079
35.6401
34.1986
34.3352
35.8583
35.3112
