# vtk DataFile Version 3.0
vtk output at time 190
ASCII
DATASET UNSTRUCTURED_GRID
POINTS 626 float
-3.68058e-05 0.000978749 0 3.68058e-05 0.000978749 0 -0.000829194 0.00052125 0 
-0.0008235 0.0005 0 -0.000866 0.0004575 0 -0.000866 -0.0004575 0 
-0.0008235 -0.0005 0 -0.000829194 -0.00052125 0 -3.68058e-05 -0.000978749 0 
3.68058e-05 -0.000978749 0 0.000829194 -0.00052125 0 0.000866 -0.0004575 0 
0.000866 0.0004575 0 0.000829194 0.00052125 0 8.5e-05 0 0 
-3.68058e-05 0.000978749 -0.001 3.68058e-05 0.000978749 -0.001 -0.000829194 0.00052125 -0.001 
-0.0008235 0.0005 -0.001 -0.000866 0.0004575 -0.001 -0.000866 -0.0004575 -0.001 
-0.0008235 -0.0005 -0.001 -0.000829194 -0.00052125 -0.001 -3.68058e-05 -0.000978749 -0.001 
3.68058e-05 -0.000978749 -0.001 0.000829194 -0.00052125 -0.001 0.000866 -0.0004575 -0.001 
0.000866 0.0004575 -0.001 0.000829194 0.00052125 -0.001 8.5e-05 0 -0.001 
8.46223e-17 0.0009575 0 -0.000715996 0.000586607 0 -0.000602797 0.000651965 0 
-0.000489599 0.000717321 0 -0.000376401 0.000782678 0 -0.000263202 0.000848036 0 
-0.000150004 0.000913393 0 -0.000835948 0.000469948 0 -0.000866 -0.000326786 0 
-0.000866 -0.000196071 0 -0.000866 -6.53571e-05 0 -0.000866 6.53571e-05 0 
-0.000866 0.000196071 0 -0.000866 0.000326786 0 -0.000835948 -0.000469948 0 
-0.000150004 -0.000913393 0 -0.000263202 -0.000848036 0 -0.000376401 -0.000782678 0 
-0.000489599 -0.000717321 0 -0.000602797 -0.000651965 0 -0.000715996 -0.000586607 0 
8.47648e-17 -0.0009575 0 0.000715996 -0.000586607 0 0.000602797 -0.000651965 0 
0.000489599 -0.000717321 0 0.000376401 -0.000782678 0 0.000263202 -0.000848036 0 
0.000150004 -0.000913393 0 0.000829194 -0.00047875 0 0.000866 0.000326786 0 
0.000866 0.000196071 0 0.000866 6.53571e-05 0 0.000866 -6.53571e-05 0 
0.000866 -0.000196071 0 0.000866 -0.000326786 0 0.000829194 0.00047875 0 
0.000150004 0.000913393 0 0.000263202 0.000848036 0 0.000376401 0.000782678 0 
0.000489599 0.000717321 0 0.000602797 0.000651965 0 0.000715996 0.000586607 0 
5.29966e-05 6.64557e-05 0 -1.89143e-05 8.28689e-05 0 -7.65824e-05 3.68801e-05 0 
-7.65824e-05 -3.68801e-05 0 -1.89143e-05 -8.28689e-05 0 5.29966e-05 -6.64557e-05 0 
8.46223e-17 0.0009575 -0.001 -0.000715996 0.000586607 -0.001 -0.000602797 0.000651965 -0.001 
-0.000489599 0.000717321 -0.001 -0.000376401 0.000782678 -0.001 -0.000263202 0.000848036 -0.001 
-0.000150004 0.000913393 -0.001 -0.000835948 0.000469948 -0.001 -0.000866 -0.000326786 -0.001 
-0.000866 -0.000196071 -0.001 -0.000866 -6.53571e-05 -0.001 -0.000866 6.53571e-05 -0.001 
-0.000866 0.000196071 -0.001 -0.000866 0.000326786 -0.001 -0.000835948 -0.000469948 -0.001 
-0.000150004 -0.000913393 -0.001 -0.000263202 -0.000848036 -0.001 -0.000376401 -0.000782678 -0.001 
-0.000489599 -0.000717321 -0.001 -0.000602797 -0.000651965 -0.001 -0.000715996 -0.000586607 -0.001 
8.47648e-17 -0.0009575 -0.001 0.000715996 -0.000586607 -0.001 0.000602797 -0.000651965 -0.001 
0.000489599 -0.000717321 -0.001 0.000376401 -0.000782678 -0.001 0.000263202 -0.000848036 -0.001 
0.000150004 -0.000913393 -0.001 0.000829194 -0.00047875 -0.001 0.000866 0.000326786 -0.001 
0.000866 0.000196071 -0.001 0.000866 6.53571e-05 -0.001 0.000866 -6.53571e-05 -0.001 
0.000866 -0.000196071 -0.001 0.000866 -0.000326786 -0.001 0.000829194 0.00047875 -0.001 
0.000150004 0.000913393 -0.001 0.000263202 0.000848036 -0.001 0.000376401 0.000782678 -0.001 
0.000489599 0.000717321 -0.001 0.000602797 0.000651965 -0.001 0.000715996 0.000586607 -0.001 
5.29966e-05 6.64557e-05 -0.001 -1.89143e-05 8.28689e-05 -0.001 -7.65824e-05 3.68801e-05 -0.001 
-7.65824e-05 -3.68801e-05 -0.001 -1.89143e-05 -8.28689e-05 -0.001 5.29966e-05 -6.64557e-05 -0.001 
0.000131234 6.38474e-05 0 0.00012964 -6.2443e-05 0 3.13827e-05 0.0001394 0 
3.12554e-05 -0.000136939 0 -0.000140461 8.25467e-19 0 -8.90565e-05 -0.000102707 0 
-9.04142e-05 0.000102872 0 -0.000765769 -0.00025965 0 -0.000756873 0.000262774 0 
-0.00015609 0.000787505 0 -0.000155807 -0.00079355 0 0.000605069 0.000528035 0 
0.000608694 -0.00052497 0 0.000744069 0.000116929 0 -0.000494418 0.000596218 0 
-0.000483866 -0.000584648 0 0.000269496 0.000702219 0 0.000263201 -0.000717324 0 
0.000754429 -0.000127825 0 -0.000748858 5.84659e-07 0 -0.000747838 0.000373886 0 
-0.0006542 0.000324842 0 -0.000645137 0.000210123 0 -0.000550884 0.000274171 0 
-0.000538857 0.000163195 0 -0.00045062 0.000224461 0 -0.000438393 0.000123907 0 
-0.000354088 0.000181668 0 -0.000363908 0.000282171 0 -0.000270361 0.000239477 0 
-0.000279138 0.000337653 0 -0.000188888 0.000294791 0 -0.000196448 0.000393271 0 
-0.000104767 0.000348259 0 -0.000113332 0.000449012 0 -2.01066e-05 0.000403223 0 
-2.89189e-05 0.000507105 0 6.9524e-05 0.000461596 0 -0.000213644 0.000490203 0 
7.33757e-05 0.000357726 0 0.000163331 0.00041299 0 0.000163359 0.000313022 0 
0.000248077 0.000366368 0 0.000250914 0.000265758 0 0.000335709 0.000322266 0 
0.000340555 0.000218148 0 0.000427299 0.000276717 0 0.000431508 0.000173093 0 
0.000328731 0.000425633 0 0.00034586 0.000114823 0 0.000435362 7.05241e-05 0 
0.000350892 1.5455e-05 0 0.000441547 -3.11896e-05 0 0.000353547 -8.47783e-05 0 
0.000445767 -0.000132964 0 0.000356135 -0.000186358 0 0.000449094 -0.000234674 0 
0.000359978 -0.000287876 0 0.00026856 -0.000240545 0 0.000271895 -0.000341045 0 
0.000181792 -0.00029305 0 0.00018533 -0.000392851 0 9.75701e-05 -0.00034483 0 
9.98764e-05 -0.000444884 0 8.75116e-06 -0.000396343 0 1.20916e-05 -0.000500496 0 
-7.83929e-05 -0.000449843 0 -8.1471e-05 -0.000347249 0 -0.000171566 -0.000403733 0 
-0.000169889 -0.000298891 0 -0.000259867 -0.000354132 0 -0.000257696 -0.000249137 0 
-0.00034313 -0.000299896 0 -0.000344514 -0.000199127 0 -0.000434309 -0.000250039 0 
-0.000169832 -0.000505815 0 -0.000435227 -0.000146227 0 0.000280331 -0.000442424 0 
-0.000340889 8.76793e-05 0 -0.000515252 4.06198e-05 0 6.50491e-05 0.000568253 0 
0.00053278 1.74743e-05 0 0.000522071 0.000229831 0 -0.00037162 0.000391659 0 
-0.000255272 -0.000150439 0 -0.000442893 -0.000350705 0 0.000450067 -0.000332559 0 
0.000545175 -0.000276306 0 -0.000527797 -0.000197598 0 0.000105306 -0.000551033 0 
1.45836e-05 -0.000609147 0 0.00017145 0.000214453 0 0.000515525 0.000341711 0 
0.000636086 0.000290368 0 -0.000558657 0.000404468 0 -4.01232e-05 0.000616718 0 
6.60192e-05 0.000696422 0 -0.000101806 0.0002546 0 0.000271142 -3.88908e-05 0 
0.000179455 -0.00018534 0 -8.79553e-05 -0.000254307 0 -0.000749267 -0.000373451 0 
-0.000655941 -0.000323397 0 0.000709746 0.000466718 0 0.000698426 -0.000473086 0 
-5.25801e-05 -0.00084886 0 -4.93005e-05 0.000848038 0 0.000617396 -0.000413362 0 
0.000702056 -0.000369817 0 0.000131459 -0.000679171 0 2.48171e-05 -0.000715924 0 
-0.000664217 -0.00042729 0 -0.000528828 -8.80444e-05 0 -0.000611101 -0.000136672 0 
-0.000426972 -4.45841e-05 0 0.000800669 0.000378216 0 0.000821144 -0.000415062 0 
7.2799e-05 0.00088254 0 6.81831e-05 -0.00087503 0 0.000104963 -0.000788946 0 
-7.40696e-05 -0.000660054 0 0.000126061 0.000809943 0 0.000764361 0.000295682 0 
0.000166862 0.000630623 0 0.000516462 -0.00046707 0 -0.000563585 -0.000389606 0 
-0.000622598 -1.40238e-05 0 0.000629891 0.000171529 0 2.5614e-06 -0.000299794 0 
8.6901e-05 -0.00024329 0 0.000272045 -0.000136982 0 -0.00075148 0.000138321 0 
0.000209366 -0.000599589 0 0.000324913 -0.000630055 0 0.000614044 0.00041245 0 
0.00049651 -0.000573327 0 0.000394822 -0.000507321 0 -0.000173714 -0.000206698 0 
0.000264897 5.63722e-05 0 0.000247997 0.000152811 0 -4.63327e-05 -0.000920208 0 
9.18688e-05 0.000258626 0 -5.54111e-06 0.000290558 0 -0.000184219 0.000201484 0 
-0.000263559 0.000142267 0 -0.000256427 5.13624e-05 0 -0.000336894 -2.06179e-06 0 
-0.000228499 -4.2388e-05 0 -0.00017589 0.000106626 0 -0.000769947 -0.000133367 0 
0.000767591 -0.000500293 0 -5.05874e-05 0.000737978 0 0.000754456 -3.51771e-06 0 
0.00064691 -6.15298e-05 0 0.000630483 -0.00018134 0 0.000749187 -0.000265543 0 
-0.000760805 -0.000462521 0 0.000638155 6.09315e-05 0 -4.46661e-05 0.000922995 0 
-2.37945e-05 0.000207237 0 0.000776979 0.000500181 0 -0.000605691 0.000527596 0 
-0.000377914 -0.000653727 0 -0.000372325 -0.000526022 0 -0.000275829 -0.000589621 0 
-0.000254285 -0.000710579 0 -0.000379307 0.000656222 0 -0.000379818 0.00052718 0 
-0.000266817 0.000721555 0 -0.000150544 0.000668174 0 0.000381963 0.00065079 0 
0.000493113 0.000590432 0 0.000505439 0.000463708 0 -0.000269094 0.000596608 0 
0.000385815 0.000532045 0 0.000283599 0.0005899 0 -0.000176405 -0.000108505 0 
-0.000278769 -0.000475415 0 0.000185395 2.33014e-06 0 0.000186773 0.000517571 0 
0.000540032 -8.68444e-05 0 -0.000600694 -0.000514877 0 -0.00063703 8.98033e-05 0 
-0.000459677 0.000335729 0 -0.000338836 -0.000100751 0 -0.000457327 0.000432721 0 
-8.72007e-06 -0.000210238 0 0.000156073 0.000129496 0 -7.70692e-05 -0.000555049 0 
0.00036091 -0.000389728 0 0.000531628 0.000120564 0 -0.000285451 0.000435562 0 
0.000192719 -0.000494604 0 0.00041642 0.00039368 0 -0.000135943 0.000554637 0 
-0.000170665 -0.000610079 0 -0.000666304 0.000434981 0 -0.000758736 0.000479231 0 
-0.000470189 -0.000458901 0 0.000203433 -8.59809e-05 0 0.000101846 0.000170114 0 
-0.00035513 -0.00040726 0 0.000100184 -0.000165831 0 2.96286e-05 0.00081537 0 
0.000720946 0.000381836 0 -0.000539809 -0.000292001 0 0.00052211 -0.000182426 0 
-6.41339e-05 -0.000753908 0 0.000638039 -0.000299861 0 -0.000605136 -0.000230182 0 
-3.41638e-05 -0.000145561 0 -0.000104037 0.000172396 0 -0.000808575 -0.00042774 0 
-0.000807207 -0.000465052 0 -0.00080817 0.000429771 0 -0.000806589 0.000469738 0 
-9.50634e-05 -0.000178909 0 0.000247777 0.000445058 0 1.48293e-05 -0.000814201 0 
-4.11555e-05 0.000140955 0 0.000276104 -0.000536845 0 0.000765969 -0.000436638 0 
0.000780871 -0.000362769 0 0.000424176 -0.000642018 0 0.00053413 -0.000368009 0 
-0.000416333 4.17911e-05 0 -0.000133891 -6.23822e-05 0 4.2574e-05 0.000206312 0 
0.000141163 -0.000121542 0 0.000707423 0.000212137 0 0.000172327 0.000723882 0 
7.72652e-06 -0.00090254 0 -0.000134435 5.66935e-05 0 -0.000188826 3.70894e-05 0 
0.000197119 8.09714e-05 0 1.27801e-05 0.000917296 0 0.000800767 0.00044758 0 
-0.000686682 0.000507104 0 9.35831e-05 0.000110457 0 -0.000696793 -0.000509595 0 
-0.00068446 -8.52012e-05 0 -0.000691033 -0.000201242 0 5.24052e-05 -0.000189075 0 
-0.000151818 -0.000701092 0 -0.000296988 0.000518087 0 9.31023e-05 -0.000108117 0 
0.00044261 -0.000416726 0 0.000197044 -0.000784423 0 -0.000516861 0.000504567 0 
0.000298997 0.000502377 0 0.000131234 6.38474e-05 -0.001 0.00012964 -6.2443e-05 -0.001 
3.13827e-05 0.0001394 -0.001 3.12554e-05 -0.000136939 -0.001 -0.000140461 8.25467e-19 -0.001 
-8.90565e-05 -0.000102707 -0.001 -9.04142e-05 0.000102872 -0.001 -0.000765769 -0.00025965 -0.001 
-0.000756873 0.000262774 -0.001 -0.00015609 0.000787505 -0.001 -0.000155807 -0.00079355 -0.001 
0.000605069 0.000528035 -0.001 0.000608694 -0.00052497 -0.001 0.000744069 0.000116929 -0.001 
-0.000494418 0.000596218 -0.001 -0.000483866 -0.000584648 -0.001 0.000269496 0.000702219 -0.001 
0.000263201 -0.000717324 -0.001 0.000754429 -0.000127825 -0.001 -0.000748858 5.84659e-07 -0.001 
-0.000747838 0.000373886 -0.001 -0.0006542 0.000324842 -0.001 -0.000645137 0.000210123 -0.001 
-0.000550884 0.000274171 -0.001 -0.000538857 0.000163195 -0.001 -0.00045062 0.000224461 -0.001 
-0.000438393 0.000123907 -0.001 -0.000354088 0.000181668 -0.001 -0.000363908 0.000282171 -0.001 
-0.000270361 0.000239477 -0.001 -0.000279138 0.000337653 -0.001 -0.000188888 0.000294791 -0.001 
-0.000196448 0.000393271 -0.001 -0.000104767 0.000348259 -0.001 -0.000113332 0.000449012 -0.001 
-2.01066e-05 0.000403223 -0.001 -2.89189e-05 0.000507105 -0.001 6.9524e-05 0.000461596 -0.001 
-0.000213644 0.000490203 -0.001 7.33757e-05 0.000357726 -0.001 0.000163331 0.00041299 -0.001 
0.000163359 0.000313022 -0.001 0.000248077 0.000366368 -0.001 0.000250914 0.000265758 -0.001 
0.000335709 0.000322266 -0.001 0.000340555 0.000218148 -0.001 0.000427299 0.000276717 -0.001 
0.000431508 0.000173093 -0.001 0.000328731 0.000425633 -0.001 0.00034586 0.000114823 -0.001 
0.000435362 7.05241e-05 -0.001 0.000350892 1.5455e-05 -0.001 0.000441547 -3.11896e-05 -0.001 
0.000353547 -8.47783e-05 -0.001 0.000445767 -0.000132964 -0.001 0.000356135 -0.000186358 -0.001 
0.000449094 -0.000234674 -0.001 0.000359978 -0.000287876 -0.001 0.00026856 -0.000240545 -0.001 
0.000271895 -0.000341045 -0.001 0.000181792 -0.00029305 -0.001 0.00018533 -0.000392851 -0.001 
9.75701e-05 -0.00034483 -0.001 9.98764e-05 -0.000444884 -0.001 8.75116e-06 -0.000396343 -0.001 
1.20916e-05 -0.000500496 -0.001 -7.83929e-05 -0.000449843 -0.001 -8.1471e-05 -0.000347249 -0.001 
-0.000171566 -0.000403733 -0.001 -0.000169889 -0.000298891 -0.001 -0.000259867 -0.000354132 -0.001 
-0.000257696 -0.000249137 -0.001 -0.00034313 -0.000299896 -0.001 -0.000344514 -0.000199127 -0.001 
-0.000434309 -0.000250039 -0.001 -0.000169832 -0.000505815 -0.001 -0.000435227 -0.000146227 -0.001 
0.000280331 -0.000442424 -0.001 -0.000340889 8.76793e-05 -0.001 -0.000515252 4.06198e-05 -0.001 
6.50491e-05 0.000568253 -0.001 0.00053278 1.74743e-05 -0.001 0.000522071 0.000229831 -0.001 
-0.00037162 0.000391659 -0.001 -0.000255272 -0.000150439 -0.001 -0.000442893 -0.000350705 -0.001 
0.000450067 -0.000332559 -0.001 0.000545175 -0.000276306 -0.001 -0.000527797 -0.000197598 -0.001 
0.000105306 -0.000551033 -0.001 1.45836e-05 -0.000609147 -0.001 0.00017145 0.000214453 -0.001 
0.000515525 0.000341711 -0.001 0.000636086 0.000290368 -0.001 -0.000558657 0.000404468 -0.001 
-4.01232e-05 0.000616718 -0.001 6.60192e-05 0.000696422 -0.001 -0.000101806 0.0002546 -0.001 
0.000271142 -3.88908e-05 -0.001 0.000179455 -0.00018534 -0.001 -8.79553e-05 -0.000254307 -0.001 
-0.000749267 -0.000373451 -0.001 -0.000655941 -0.000323397 -0.001 0.000709746 0.000466718 -0.001 
0.000698426 -0.000473086 -0.001 -5.25801e-05 -0.00084886 -0.001 -4.93005e-05 0.000848038 -0.001 
0.000617396 -0.000413362 -0.001 0.000702056 -0.000369817 -0.001 0.000131459 -0.000679171 -0.001 
2.48171e-05 -0.000715924 -0.001 -0.000664217 -0.00042729 -0.001 -0.000528828 -8.80444e-05 -0.001 
-0.000611101 -0.000136672 -0.001 -0.000426972 -4.45841e-05 -0.001 0.000800669 0.000378216 -0.001 
0.000821144 -0.000415062 -0.001 7.2799e-05 0.00088254 -0.001 6.81831e-05 -0.00087503 -0.001 
0.000104963 -0.000788946 -0.001 -7.40696e-05 -0.000660054 -0.001 0.000126061 0.000809943 -0.001 
0.000764361 0.000295682 -0.001 0.000166862 0.000630623 -0.001 0.000516462 -0.00046707 -0.001 
-0.000563585 -0.000389606 -0.001 -0.000622598 -1.40238e-05 -0.001 0.000629891 0.000171529 -0.001 
2.5614e-06 -0.000299794 -0.001 8.6901e-05 -0.00024329 -0.001 0.000272045 -0.000136982 -0.001 
-0.00075148 0.000138321 -0.001 0.000209366 -0.000599589 -0.001 0.000324913 -0.000630055 -0.001 
0.000614044 0.00041245 -0.001 0.00049651 -0.000573327 -0.001 0.000394822 -0.000507321 -0.001 
-0.000173714 -0.000206698 -0.001 0.000264897 5.63722e-05 -0.001 0.000247997 0.000152811 -0.001 
-4.63327e-05 -0.000920208 -0.001 9.18688e-05 0.000258626 -0.001 -5.54111e-06 0.000290558 -0.001 
-0.000184219 0.000201484 -0.001 -0.000263559 0.000142267 -0.001 -0.000256427 5.13624e-05 -0.001 
-0.000336894 -2.06179e-06 -0.001 -0.000228499 -4.2388e-05 -0.001 -0.00017589 0.000106626 -0.001 
-0.000769947 -0.000133367 -0.001 0.000767591 -0.000500293 -0.001 -5.05874e-05 0.000737978 -0.001 
0.000754456 -3.51771e-06 -0.001 0.00064691 -6.15298e-05 -0.001 0.000630483 -0.00018134 -0.001 
0.000749187 -0.000265543 -0.001 -0.000760805 -0.000462521 -0.001 0.000638155 6.09315e-05 -0.001 
-4.46661e-05 0.000922995 -0.001 -2.37945e-05 0.000207237 -0.001 0.000776979 0.000500181 -0.001 
-0.000605691 0.000527596 -0.001 -0.000377914 -0.000653727 -0.001 -0.000372325 -0.000526022 -0.001 
-0.000275829 -0.000589621 -0.001 -0.000254285 -0.000710579 -0.001 -0.000379307 0.000656222 -0.001 
-0.000379818 0.00052718 -0.001 -0.000266817 0.000721555 -0.001 -0.000150544 0.000668174 -0.001 
0.000381963 0.00065079 -0.001 0.000493113 0.000590432 -0.001 0.000505439 0.000463708 -0.001 
-0.000269094 0.000596608 -0.001 0.000385815 0.000532045 -0.001 0.000283599 0.0005899 -0.001 
-0.000176405 -0.000108505 -0.001 -0.000278769 -0.000475415 -0.001 0.000185395 2.33014e-06 -0.001 
0.000186773 0.000517571 -0.001 0.000540032 -8.68444e-05 -0.001 -0.000600694 -0.000514877 -0.001 
-0.00063703 8.98033e-05 -0.001 -0.000459677 0.000335729 -0.001 -0.000338836 -0.000100751 -0.001 
-0.000457327 0.000432721 -0.001 -8.72007e-06 -0.000210238 -0.001 0.000156073 0.000129496 -0.001 
-7.70692e-05 -0.000555049 -0.001 0.00036091 -0.000389728 -0.001 0.000531628 0.000120564 -0.001 
-0.000285451 0.000435562 -0.001 0.000192719 -0.000494604 -0.001 0.00041642 0.00039368 -0.001 
-0.000135943 0.000554637 -0.001 -0.000170665 -0.000610079 -0.001 -0.000666304 0.000434981 -0.001 
-0.000758736 0.000479231 -0.001 -0.000470189 -0.000458901 -0.001 0.000203433 -8.59809e-05 -0.001 
0.000101846 0.000170114 -0.001 -0.00035513 -0.00040726 -0.001 0.000100184 -0.000165831 -0.001 
2.96286e-05 0.00081537 -0.001 0.000720946 0.000381836 -0.001 -0.000539809 -0.000292001 -0.001 
0.00052211 -0.000182426 -0.001 -6.41339e-05 -0.000753908 -0.001 0.000638039 -0.000299861 -0.001 
-0.000605136 -0.000230182 -0.001 -3.41638e-05 -0.000145561 -0.001 -0.000104037 0.000172396 -0.001 
-0.000808575 -0.00042774 -0.001 -0.000807207 -0.000465052 -0.001 -0.00080817 0.000429771 -0.001 
-0.000806589 0.000469738 -0.001 -9.50634e-05 -0.000178909 -0.001 0.000247777 0.000445058 -0.001 
1.48293e-05 -0.000814201 -0.001 -4.11555e-05 0.000140955 -0.001 0.000276104 -0.000536845 -0.001 
0.000765969 -0.000436638 -0.001 0.000780871 -0.000362769 -0.001 0.000424176 -0.000642018 -0.001 
0.00053413 -0.000368009 -0.001 -0.000416333 4.17911e-05 -0.001 -0.000133891 -6.23822e-05 -0.001 
4.2574e-05 0.000206312 -0.001 0.000141163 -0.000121542 -0.001 0.000707423 0.000212137 -0.001 
0.000172327 0.000723882 -0.001 7.72652e-06 -0.00090254 -0.001 -0.000134435 5.66935e-05 -0.001 
-0.000188826 3.70894e-05 -0.001 0.000197119 8.09714e-05 -0.001 1.27801e-05 0.000917296 -0.001 
0.000800767 0.00044758 -0.001 -0.000686682 0.000507104 -0.001 9.35831e-05 0.000110457 -0.001 
-0.000696793 -0.000509595 -0.001 -0.00068446 -8.52012e-05 -0.001 -0.000691033 -0.000201242 -0.001 
5.24052e-05 -0.000189075 -0.001 -0.000151818 -0.000701092 -0.001 -0.000296988 0.000518087 -0.001 
9.31023e-05 -0.000108117 -0.001 0.00044261 -0.000416726 -0.001 0.000197044 -0.000784423 -0.001 
-0.000516861 0.000504567 -0.001 0.000298997 0.000502377 -0.001 

CELLS 563 3941
6 14 304 127 29 554 377 
6 143 259 55 393 509 103 
6 300 319 174 550 569 424 
6 259 349 55 509 599 103 
6 50 365 307 98 615 557 
6 299 320 164 549 570 414 
6 126 304 14 376 554 29 
6 298 319 300 548 569 550 
6 205 240 238 455 490 488 
6 257 308 145 507 558 395 
6 130 352 273 380 602 523 
6 295 320 299 545 570 549 
6 324 327 289 574 577 539 
6 235 258 143 485 508 393 
6 50 307 49 98 557 97 
6 207 283 279 457 533 529 
6 143 373 235 393 623 485 
6 145 308 252 395 558 502 
6 194 303 196 444 553 446 
6 279 306 207 529 556 457 
6 206 305 163 456 555 413 
6 51 357 9 99 607 24 
6 238 252 205 488 502 455 
6 293 317 209 543 567 459 
6 207 316 283 457 566 533 
6 142 301 249 392 551 499 
6 273 359 130 523 609 380 
6 211 327 324 461 577 574 
6 169 265 217 419 515 467 
6 7 365 50 22 615 98 
6 283 316 253 533 566 503 
6 159 268 223 409 518 473 
6 274 337 132 524 587 382 
6 232 361 329 482 611 579 
6 231 266 45 481 516 93 
6 229 362 330 479 612 580 
6 9 244 57 24 494 105 
6 230 276 52 480 526 100 
6 209 311 293 459 561 543 
6 131 342 302 381 592 552 
6 270 271 204 520 521 454 
6 66 243 1 114 493 16 
6 59 241 12 107 491 27 
6 280 306 279 530 556 529 
6 269 337 274 519 587 524 
6 179 256 224 429 506 474 
6 163 305 166 413 555 416 
6 201 303 194 451 553 444 
6 280 332 306 530 582 556 
6 186 255 225 436 505 475 
6 210 310 273 460 560 523 
6 153 270 204 403 520 454 
6 136 231 45 386 481 93 
6 171 265 169 421 515 419 
6 138 230 52 388 480 100 
6 225 354 325 475 604 575 
6 36 284 232 84 534 482 
6 161 268 159 411 518 409 
6 71 286 229 119 536 479 
6 290 303 201 540 553 451 
6 139 355 60 389 605 108 
6 60 355 248 108 605 498 
6 273 352 302 523 602 552 
6 235 373 245 485 623 495 
6 67 356 247 115 606 497 
6 221 295 277 471 545 527 
6 142 356 67 392 606 115 
6 139 283 253 389 533 503 
6 203 315 262 453 565 512 
6 41 257 145 89 507 395 
6 36 232 135 84 482 385 
6 71 229 137 119 479 387 
6 254 255 188 504 505 438 
6 233 350 334 483 600 584 
6 262 346 203 512 596 453 
6 304 325 127 554 575 377 
6 222 329 247 472 579 497 
6 218 298 260 468 548 510 
6 290 321 291 540 571 541 
6 272 310 240 522 560 490 
6 269 274 270 519 524 520 
6 244 245 57 494 495 105 
6 49 307 141 97 557 391 
6 225 325 256 475 575 506 
6 273 310 272 523 560 522 
6 312 368 255 562 618 505 
6 249 305 206 499 555 456 
6 228 331 251 478 581 501 
6 302 342 263 552 592 513 
6 338 339 44 588 589 92 
6 190 254 188 440 504 438 
6 37 341 340 85 591 590 
6 138 233 230 388 483 480 
6 228 335 331 478 585 581 
6 181 256 179 431 506 429 
6 195 263 226 445 513 476 
6 268 285 223 518 535 473 
6 290 291 288 540 541 538 
6 219 330 248 469 580 498 
6 201 321 290 451 571 540 
6 240 310 202 490 560 452 
6 188 255 186 438 505 436 
6 270 274 271 520 524 521 
6 262 349 259 512 599 509 
6 141 324 289 391 574 539 
6 296 301 142 546 551 392 
6 247 356 222 497 606 472 
6 239 252 238 489 502 488 
6 254 312 255 504 562 505 
6 54 261 53 102 511 101 
6 289 327 303 539 577 553 
6 268 353 285 518 603 535 
6 273 302 210 523 552 460 
6 292 299 293 542 549 543 
6 278 283 139 528 533 389 
6 175 265 171 425 515 421 
6 227 338 38 477 588 86 
6 264 360 265 514 610 515 
6 43 340 146 91 590 396 
6 165 268 161 415 518 411 
6 205 351 240 455 601 490 
6 64 281 63 112 531 111 
6 288 291 47 538 541 95 
6 135 295 294 385 545 544 
6 42 257 41 90 507 89 
6 245 373 57 495 623 105 
6 31 363 323 79 613 573 
6 292 293 140 542 543 390 
6 267 353 268 517 603 518 
6 155 270 153 405 520 403 
6 244 344 245 494 594 495 
6 61 278 139 109 528 389 
6 135 294 35 385 544 83 
6 69 297 296 117 547 546 
6 186 225 184 436 475 434 
6 329 361 243 579 611 493 
6 255 328 225 505 578 475 
6 213 332 280 463 582 530 
6 39 275 133 87 525 383 
6 330 362 241 580 612 491 
6 195 226 193 445 476 443 
6 211 324 251 461 574 501 
6 151 153 152 401 403 402 
6 295 299 294 545 549 544 
6 265 313 217 515 563 467 
6 258 259 143 508 509 393 
6 251 331 211 501 581 461 
6 149 151 150 399 401 400 
6 293 370 317 543 620 567 
6 153 204 152 403 454 402 
6 151 152 150 401 402 400 
6 33 292 140 81 542 390 
6 210 263 197 460 513 447 
6 301 305 249 551 555 499 
6 298 300 297 548 550 547 
6 68 296 142 116 546 392 
6 321 369 291 571 619 541 
6 179 224 177 429 474 427 
6 167 267 165 417 517 415 
6 259 346 262 509 596 512 
6 303 327 196 553 577 446 
6 269 270 155 519 520 405 
6 265 360 313 515 610 563 
6 223 269 157 473 519 407 
6 157 269 155 407 519 405 
6 144 279 278 394 529 528 
6 169 217 167 419 467 417 
6 177 264 175 427 514 425 
6 267 268 165 517 518 415 
6 159 223 157 409 473 407 
6 232 277 135 482 527 385 
6 193 254 190 443 504 440 
6 217 267 167 467 517 417 
6 249 356 142 499 606 392 
6 184 256 181 434 506 431 
6 248 355 219 498 605 469 
6 229 260 137 479 510 387 
6 149 150 148 399 400 398 
6 64 348 281 112 598 531 
6 311 374 293 561 624 543 
6 264 265 175 514 515 425 
6 297 300 296 547 550 546 
6 141 289 288 391 539 538 
6 197 263 195 447 513 445 
6 218 260 219 468 510 469 
6 224 264 177 474 514 427 
6 137 298 297 387 548 547 
6 277 295 135 527 545 385 
6 133 228 227 383 478 477 
6 261 349 262 511 599 512 
6 221 277 222 471 527 472 
6 256 325 224 506 575 474 
6 199 210 197 449 460 447 
6 226 254 193 476 504 443 
6 144 278 62 394 528 110 
6 279 283 278 529 533 528 
6 289 290 288 539 540 538 
6 137 297 70 387 547 118 
6 34 294 292 82 544 542 
6 235 236 216 485 486 466 
6 141 288 48 391 538 96 
6 178 306 180 428 556 430 
6 185 186 184 435 436 434 
6 63 281 144 111 531 394 
6 225 256 184 475 506 434 
6 46 291 136 94 541 386 
6 147 149 148 397 399 398 
6 271 272 204 521 522 454 
6 233 334 234 483 584 484 
6 145 275 40 395 525 88 
6 220 322 287 470 572 537 
6 280 334 213 530 584 463 
6 144 280 279 394 530 529 
6 140 287 32 390 537 80 
6 154 155 153 404 405 403 
6 334 350 213 584 600 463 
6 176 177 175 426 427 425 
6 260 298 137 510 548 387 
6 33 140 32 81 390 80 
6 49 141 48 97 391 96 
6 56 143 55 104 393 103 
6 68 142 67 116 392 115 
6 63 144 62 111 394 110 
6 61 139 60 109 389 108 
6 148 308 257 398 558 507 
6 71 137 70 119 387 118 
6 53 138 52 101 388 100 
6 46 136 45 94 386 93 
6 36 135 35 84 385 83 
6 43 146 134 91 396 384 
6 133 227 38 383 477 86 
6 192 193 190 442 443 440 
6 293 374 140 543 624 390 
6 34 292 33 82 542 81 
6 207 306 178 457 556 428 
6 43 134 42 91 384 90 
6 39 133 38 87 383 86 
6 41 145 40 89 395 88 
6 194 195 193 444 445 443 
6 69 296 68 117 546 116 
6 294 299 292 544 549 542 
6 173 175 171 423 425 421 
6 260 330 219 510 580 469 
6 183 184 181 433 434 431 
6 134 257 42 384 507 90 
6 55 349 54 103 599 102 
6 163 165 161 413 415 411 
6 166 167 165 416 417 415 
6 210 302 263 460 552 513 
6 271 273 272 521 523 522 
6 53 261 138 101 511 388 
6 217 326 267 467 576 517 
6 289 303 290 539 553 540 
6 178 179 177 428 429 427 
6 238 240 202 488 490 452 
6 62 278 61 110 528 109 
6 35 294 34 83 544 82 
6 284 361 232 534 611 482 
6 70 297 69 118 547 117 
6 224 304 264 474 554 514 
6 156 157 155 406 407 405 
6 48 288 47 96 538 95 
6 221 320 295 471 570 545 
6 187 188 186 437 438 436 
6 47 291 46 95 541 94 
6 151 154 153 401 404 403 
6 286 362 229 536 612 479 
6 168 169 167 418 419 417 
6 40 275 39 88 525 87 
6 307 324 141 557 574 391 
6 300 301 296 550 551 546 
6 32 287 31 80 537 79 
6 147 220 149 397 470 399 
6 333 344 231 583 594 481 
6 299 370 293 549 620 543 
6 271 359 273 521 609 523 
6 224 325 304 474 575 554 
6 228 237 227 478 487 477 
6 305 375 343 555 625 593 
6 218 319 298 468 569 548 
6 240 351 272 490 601 522 
6 277 329 222 527 579 472 
6 253 355 139 503 605 389 
6 158 159 157 408 409 407 
6 236 246 216 486 496 466 
6 192 194 193 442 444 443 
6 220 309 149 470 559 399 
6 183 185 184 433 435 434 
6 196 197 195 446 447 445 
6 276 347 58 526 597 106 
6 136 333 231 386 583 481 
6 67 247 66 115 497 114 
6 60 248 59 108 498 107 
6 261 262 250 511 512 500 
6 173 176 175 423 426 425 
6 344 357 231 594 607 481 
6 144 281 280 394 531 530 
6 152 205 150 402 455 400 
6 163 166 165 413 416 415 
6 185 187 186 435 437 436 
6 233 234 230 483 484 480 
6 170 171 169 420 421 419 
6 146 147 134 396 397 384 
6 176 178 177 426 428 427 
6 285 337 223 535 587 473 
6 154 156 155 404 406 405 
6 263 342 226 513 592 476 
6 235 245 236 485 495 486 
6 160 161 159 410 411 409 
6 58 347 242 106 597 492 
6 166 168 167 416 418 417 
6 287 374 220 537 624 470 
6 189 190 188 439 440 438 
6 148 257 134 398 507 384 
6 194 196 195 444 446 445 
6 252 308 205 502 558 455 
6 285 345 337 535 595 587 
6 301 375 305 551 625 555 
6 180 181 179 430 431 429 
6 281 348 234 531 598 484 
6 198 199 197 448 449 447 
6 151 309 154 401 559 404 
6 228 367 335 478 617 585 
6 54 349 261 102 599 511 
6 156 158 157 406 408 407 
6 168 170 169 418 420 419 
6 200 202 199 450 452 449 
6 147 148 134 397 398 384 
6 158 160 159 408 410 409 
6 150 308 148 400 558 398 
6 253 316 208 503 566 458 
6 232 329 277 482 579 527 
6 178 180 179 428 430 429 
6 191 192 190 441 442 440 
6 214 238 202 464 488 452 
6 172 173 171 422 423 421 
6 187 189 188 437 439 438 
6 162 163 161 412 413 411 
6 228 251 237 478 501 487 
6 215 258 235 465 508 485 
6 182 183 181 432 433 431 
6 202 310 199 452 560 449 
6 219 253 208 469 503 458 
6 222 249 206 472 499 456 
6 196 198 197 446 448 447 
6 229 330 260 479 580 510 
6 132 358 274 382 608 524 
6 149 309 151 399 559 401 
6 226 312 254 476 562 504 
6 154 309 209 404 559 459 
6 77 129 76 125 379 124 
6 73 128 72 121 378 120 
6 76 131 75 124 381 123 
6 74 132 73 122 382 121 
6 75 130 74 123 380 122 
6 14 127 77 29 377 125 
6 72 126 14 120 376 29 
6 133 367 228 383 617 478 
6 237 282 227 487 532 477 
6 239 366 252 489 616 502 
6 200 214 202 450 464 452 
6 192 201 194 442 451 444 
6 170 172 171 420 422 421 
6 220 311 309 470 561 559 
6 198 200 199 448 450 449 
6 189 191 190 439 441 440 
6 146 323 322 396 573 572 
6 160 162 161 410 412 411 
6 251 307 237 501 557 487 
6 199 310 210 449 560 460 
6 57 373 56 105 623 104 
6 214 239 238 464 489 488 
6 182 212 183 432 462 433 
6 180 182 181 430 432 431 
6 146 322 147 396 572 397 
6 172 218 208 422 468 458 
6 172 208 173 422 458 423 
6 162 221 206 412 471 456 
6 162 206 163 412 456 413 
6 176 207 178 426 457 428 
6 272 351 204 522 601 454 
6 198 211 200 448 461 450 
6 182 213 212 432 463 462 
6 234 334 281 484 584 531 
6 154 209 156 404 459 406 
6 185 203 187 435 453 437 
6 168 174 170 418 424 420 
6 189 215 191 439 465 441 
6 215 216 191 465 466 441 
6 221 222 206 471 472 456 
6 158 164 160 408 414 410 
6 218 219 208 468 469 458 
6 205 308 150 455 558 400 
6 191 314 192 441 564 442 
6 215 235 216 465 485 466 
6 215 318 258 465 568 508 
6 152 351 205 402 601 455 
6 138 261 250 388 511 500 
6 192 314 201 442 564 451 
6 234 347 230 484 597 480 
6 226 342 312 476 592 562 
6 138 250 233 388 500 483 
6 147 322 220 397 572 470 
6 216 314 191 466 564 441 
6 306 332 180 556 582 430 
6 222 356 249 472 606 499 
6 128 345 285 378 595 535 
6 314 321 201 564 571 451 
6 212 315 183 462 565 433 
6 312 342 336 562 592 586 
6 282 339 338 532 589 588 
6 340 341 323 590 591 573 
6 309 311 209 559 561 459 
6 183 315 185 433 565 435 
6 208 316 173 458 566 423 
6 173 316 176 423 566 426 
6 3 341 37 18 591 85 
6 44 339 6 92 589 21 
6 252 366 145 502 616 395 
6 246 321 314 496 571 564 
6 246 314 216 496 564 466 
6 126 364 313 376 614 563 
6 156 317 158 406 567 408 
6 275 367 133 525 617 383 
6 176 316 207 426 566 457 
6 185 315 203 435 565 453 
6 180 332 182 430 582 432 
6 302 352 131 552 602 381 
6 251 324 307 501 574 557 
6 187 318 189 437 568 439 
6 172 319 218 422 569 468 
6 162 320 221 412 570 471 
6 305 343 166 555 593 416 
6 170 319 172 420 569 422 
6 158 317 164 408 567 414 
6 209 317 156 459 567 406 
6 285 353 128 535 603 378 
6 223 337 269 473 587 519 
6 160 320 162 410 570 412 
6 211 331 200 461 581 450 
6 174 319 170 424 569 420 
6 203 318 187 453 568 437 
6 189 318 215 439 568 465 
6 198 327 211 448 577 461 
6 164 320 160 414 570 410 
6 326 353 267 576 603 517 
6 236 344 333 486 594 583 
6 196 327 198 446 577 448 
6 219 355 253 469 605 503 
6 281 334 280 531 584 530 
6 274 359 271 524 609 521 
6 164 370 299 414 620 549 
6 174 375 300 424 625 550 
6 287 363 31 537 613 79 
6 243 361 1 493 611 16 
6 241 362 12 491 612 27 
6 307 365 237 557 615 487 
6 166 343 168 416 593 418 
6 200 331 214 450 581 464 
6 313 326 217 563 576 467 
6 9 357 244 24 607 494 
6 1 361 30 16 611 78 
6 12 362 65 27 612 113 
6 337 345 132 587 595 382 
6 242 348 64 492 598 112 
6 231 357 266 481 607 516 
6 182 332 213 432 582 463 
6 245 344 236 495 594 486 
6 258 346 259 508 596 509 
6 145 366 275 395 616 525 
6 291 369 136 541 619 386 
6 236 333 246 486 583 496 
6 331 335 214 581 585 464 
6 312 336 129 562 586 379 
6 315 372 262 565 622 512 
6 220 374 311 470 624 561 
6 140 374 287 390 624 537 
6 126 360 304 376 610 554 
6 230 347 276 480 597 526 
6 313 364 326 563 614 576 
6 56 373 143 104 623 393 
6 239 367 366 489 617 616 
6 204 351 152 454 601 402 
6 300 375 301 550 625 551 
6 214 335 239 464 585 489 
6 247 329 243 497 579 493 
6 262 372 250 512 622 500 
6 248 330 241 498 580 491 
6 318 346 258 568 596 508 
6 333 369 246 583 619 496 
6 282 338 227 532 588 477 
6 146 340 323 396 590 573 
6 304 360 264 554 610 514 
6 366 367 275 616 617 525 
6 129 336 76 379 586 124 
6 73 345 128 121 595 378 
6 76 336 131 124 586 381 
6 250 350 233 500 600 483 
6 129 371 328 379 621 578 
6 132 345 73 382 595 121 
6 168 343 174 418 593 424 
6 131 352 75 381 602 123 
6 66 247 243 114 497 493 
6 59 248 241 107 498 491 
6 74 358 132 122 608 382 
6 203 346 318 453 596 568 
6 313 360 126 563 610 376 
6 128 364 72 378 614 120 
6 128 353 326 378 603 576 
6 77 371 129 125 621 379 
6 129 368 312 379 618 562 
6 244 357 344 494 607 594 
6 328 354 225 578 604 475 
6 326 364 128 576 614 378 
6 75 352 130 123 602 380 
6 350 372 212 600 622 462 
6 136 369 333 386 619 583 
6 325 354 127 575 604 377 
6 213 350 212 463 600 462 
6 130 358 74 380 608 122 
6 250 372 350 500 622 600 
6 317 370 164 567 620 414 
6 72 364 126 120 614 376 
6 328 368 129 578 618 379 
6 127 371 77 377 621 125 
6 336 342 131 586 592 381 
6 212 372 315 462 622 565 
6 234 348 347 484 598 597 
6 8 266 51 23 516 99 
6 10 276 58 25 526 106 
6 246 369 321 496 619 571 
6 30 284 0 78 534 15 
6 65 286 13 113 536 28 
6 58 242 11 106 492 26 
6 266 357 51 516 607 99 
6 255 368 328 505 618 578 
6 347 348 242 597 598 492 
6 322 363 287 572 613 537 
6 323 363 322 573 613 572 
6 335 367 239 585 617 489 
6 30 361 284 78 611 534 
6 65 362 286 113 612 536 
6 237 365 282 487 615 532 
6 130 359 358 380 609 608 
6 343 375 174 593 625 424 
6 354 371 127 604 621 377 
6 328 371 354 578 621 604 
6 358 359 274 608 609 524 
6 0 284 36 15 534 84 
6 45 266 8 93 516 23 
6 52 276 10 100 526 25 
6 11 242 64 26 492 112 
6 13 286 71 28 536 119 
6 2 323 3 17 573 18 
6 31 323 2 79 573 17 
6 323 341 3 573 591 18 
6 37 340 4 85 590 19 
6 4 340 43 19 590 91 
6 38 338 5 86 588 20 
6 5 338 44 20 588 92 
6 6 282 7 21 532 22 
6 6 339 282 21 589 532 
6 282 365 7 532 615 22 

CELL_TYPES 563
13
13
13
13
13
13
13
13
13
13
13
13
13
13
13
13
13
13
13
13
13
13
13
13
13
13
13
13
13
13
13
13
13
13
13
13
13
13
13
13
13
13
13
13
13
13
13
13
13
13
13
13
13
13
13
13
13
13
13
13
13
13
13
13
13
13
13
13
13
13
13
13
13
13
13
13
13
13
13
13
13
13
13
13
13
13
13
13
13
13
13
13
13
13
13
13
13
13
13
13
13
13
13
13
13
13
13
13
13
13
13
13
13
13
13
13
13
13
13
13
13
13
13
13
13
13
13
13
13
13
13
13
13
13
13
13
13
13
13
13
13
13
13
13
13
13
13
13
13
13
13
13
13
13
13
13
13
13
13
13
13
13
13
13
13
13
13
13
13
13
13
13
13
13
13
13
13
13
13
13
13
13
13
13
13
13
13
13
13
13
13
13
13
13
13
13
13
13
13
13
13
13
13
13
13
13
13
13
13
13
13
13
13
13
13
13
13
13
13
13
13
13
13
13
13
13
13
13
13
13
13
13
13
13
13
13
13
13
13
13
13
13
13
13
13
13
13
13
13
13
13
13
13
13
13
13
13
13
13
13
13
13
13
13
13
13
13
13
13
13
13
13
13
13
13
13
13
13
13
13
13
13
13
13
13
13
13
13
13
13
13
13
13
13
13
13
13
13
13
13
13
13
13
13
13
13
13
13
13
13
13
13
13
13
13
13
13
13
13
13
13
13
13
13
13
13
13
13
13
13
13
13
13
13
13
13
13
13
13
13
13
13
13
13
13
13
13
13
13
13
13
13
13
13
13
13
13
13
13
13
13
13
13
13
13
13
13
13
13
13
13
13
13
13
13
13
13
13
13
13
13
13
13
13
13
13
13
13
13
13
13
13
13
13
13
13
13
13
13
13
13
13
13
13
13
13
13
13
13
13
13
13
13
13
13
13
13
13
13
13
13
13
13
13
13
13
13
13
13
13
13
13
13
13
13
13
13
13
13
13
13
13
13
13
13
13
13
13
13
13
13
13
13
13
13
13
13
13
13
13
13
13
13
13
13
13
13
13
13
13
13
13
13
13
13
13
13
13
13
13
13
13
13
13
13
13
13
13
13
13
13
13
13
13
13
13
13
13
13
13
13
13
13
13
13
13
13
13
13
13
13
13
13
13
13
13
13
13
13
13
13
13
13
13
13
13
13
13
13
13
13
13
13
13
13
13
13
13
13
13
13
13
13
13
13
13
13
13
13
13
13
13
13
13
13
13
13
13
13
13
13
13
13

POINT_DATA 626
VECTORS displacement float
-1.74394e-06 3.09549e-05 1.80552e-05
1.73565e-06 3.0974e-05 1.81003e-05
-2.59867e-05 1.69931e-05 1.80873e-05
-2.58413e-05 1.60332e-05 1.80519e-05
-2.77211e-05 1.3973e-05 1.80693e-05
-2.7714e-05 -1.40193e-05 1.80947e-05
-2.58125e-05 -1.60714e-05 1.81061e-05
-2.59829e-05 -1.70112e-05 1.81673e-05
-1.6774e-06 -3.09587e-05 1.80516e-05
1.75545e-06 -3.09602e-05 1.81021e-05
2.59441e-05 -1.69809e-05 1.80437e-05
2.77174e-05 -1.39369e-05 1.80436e-05
2.76729e-05 1.39897e-05 1.80919e-05
2.59154e-05 1.69932e-05 1.80463e-05
0 0 0
-1.74394e-06 3.09549e-05 -1.80552e-05
1.73565e-06 3.0974e-05 -1.81003e-05
-2.59867e-05 1.69931e-05 -1.80873e-05
-2.58413e-05 1.60332e-05 -1.80519e-05
-2.77211e-05 1.3973e-05 -1.80693e-05
-2.7714e-05 -1.40193e-05 -1.80947e-05
-2.58125e-05 -1.60714e-05 -1.81061e-05
-2.59829e-05 -1.70112e-05 -1.81673e-05
-1.6774e-06 -3.09587e-05 -1.80516e-05
1.75545e-06 -3.09602e-05 -1.81021e-05
2.59441e-05 -1.69809e-05 -1.80437e-05
2.77174e-05 -1.39369e-05 -1.80436e-05
2.76729e-05 1.39897e-05 -1.80919e-05
2.59154e-05 1.69932e-05 -1.80463e-05
0 0 0
2.48922e-08 3.01548e-05 1.80344e-05
-2.1141e-05 1.87127e-05 1.755e-05
-1.72329e-05 1.98342e-05 1.69211e-05
-1.40072e-05 2.10546e-05 1.65552e-05
-1.12071e-05 2.26653e-05 1.65491e-05
-8.52421e-06 2.48333e-05 1.69016e-05
-5.56784e-06 2.76222e-05 1.75377e-05
-2.64503e-05 1.46794e-05 1.80337e-05
-2.67692e-05 -9.01173e-06 1.75776e-05
-2.58067e-05 -5.0356e-06 1.69262e-05
-2.5255e-05 -1.63625e-06 1.65717e-05
-2.52579e-05 1.60789e-06 1.65746e-05
-2.5799e-05 5.023e-06 1.69244e-05
-2.67554e-05 8.98482e-06 1.75641e-05
-2.64372e-05 -1.47257e-05 1.80625e-05
-5.5411e-06 -2.76367e-05 1.75299e-05
-8.47673e-06 -2.48424e-05 1.69009e-05
-1.11703e-05 -2.26847e-05 1.65564e-05
-1.39709e-05 -2.10876e-05 1.65598e-05
-1.72153e-05 -1.98695e-05 1.69369e-05
-2.11346e-05 -1.87495e-05 1.75624e-05
8.98371e-08 -3.01396e-05 1.80296e-05
2.11244e-05 -1.86251e-05 1.75117e-05
1.7245e-05 -1.97625e-05 1.68731e-05
1.40342e-05 -2.10116e-05 1.65118e-05
1.12253e-05 -2.25934e-05 1.65464e-05
8.58137e-06 -2.47806e-05 1.68744e-05
5.65472e-06 -2.76269e-05 1.75352e-05
2.6125e-05 -1.50599e-05 1.80286e-05
2.67173e-05 8.93861e-06 1.75017e-05
2.57225e-05 5.04972e-06 1.69086e-05
2.52071e-05 1.62336e-06 1.65234e-05
2.52042e-05 -1.59948e-06 1.65217e-05
2.57512e-05 -4.99751e-06 1.68886e-05
2.66993e-05 -8.91736e-06 1.75099e-05
2.6108e-05 1.50611e-05 1.80256e-05
5.63318e-06 2.76183e-05 1.75098e-05
8.50874e-06 2.48073e-05 1.69114e-05
1.12173e-05 2.26415e-05 1.65296e-05
1.40048e-05 2.10225e-05 1.6525e-05
1.7222e-05 1.97938e-05 1.68853e-05
2.11154e-05 1.86347e-05 1.75256e-05
0 0 0
0 0 0
0 0 0
0 0 0
0 0 0
0 0 0
2.48922e-08 3.01548e-05 -1.80344e-05
-2.1141e-05 1.87127e-05 -1.755e-05
-1.72329e-05 1.98342e-05 -1.69211e-05
-1.40072e-05 2.10546e-05 -1.65552e-05
-1.12071e-05 2.26653e-05 -1.65491e-05
-8.52421e-06 2.48333e-05 -1.69016e-05
-5.56784e-06 2.76222e-05 -1.75377e-05
-2.64503e-05 1.46794e-05 -1.80337e-05
-2.67692e-05 -9.01173e-06 -1.75776e-05
-2.58067e-05 -5.0356e-06 -1.69262e-05
-2.5255e-05 -1.63625e-06 -1.65717e-05
-2.52579e-05 1.60789e-06 -1.65746e-05
-2.5799e-05 5.023e-06 -1.69244e-05
-2.67554e-05 8.98482e-06 -1.75641e-05
-2.64372e-05 -1.47257e-05 -1.80625e-05
-5.5411e-06 -2.76367e-05 -1.75299e-05
-8.47673e-06 -2.48424e-05 -1.69009e-05
-1.11703e-05 -2.26847e-05 -1.65564e-05
-1.39709e-05 -2.10876e-05 -1.65598e-05
-1.72153e-05 -1.98695e-05 -1.69369e-05
-2.11346e-05 -1.87495e-05 -1.75624e-05
8.98371e-08 -3.01396e-05 -1.80296e-05
2.11244e-05 -1.86251e-05 -1.75117e-05
1.7245e-05 -1.97625e-05 -1.68731e-05
1.40342e-05 -2.10116e-05 -1.65118e-05
1.12253e-05 -2.25934e-05 -1.65464e-05
8.58137e-06 -2.47806e-05 -1.68744e-05
5.65472e-06 -2.76269e-05 -1.75352e-05
2.6125e-05 -1.50599e-05 -1.80286e-05
2.67173e-05 8.93861e-06 -1.75017e-05
2.57225e-05 5.04972e-06 -1.69086e-05
2.52071e-05 1.62336e-06 -1.65234e-05
2.52042e-05 -1.59948e-06 -1.65217e-05
2.57512e-05 -4.99751e-06 -1.68886e-05
2.66993e-05 -8.91736e-06 -1.75099e-05
2.6108e-05 1.50611e-05 -1.80256e-05
5.63318e-06 2.76183e-05 -1.75098e-05
8.50874e-06 2.48073e-05 -1.69114e-05
1.12173e-05 2.26415e-05 -1.65296e-05
1.40048e-05 2.10225e-05 -1.6525e-05
1.7222e-05 1.97938e-05 -1.68853e-05
2.11154e-05 1.86347e-05 -1.75256e-05
0 0 0
0 0 0
0 0 0
0 0 0
0 0 0
0 0 0
1.7937e-06 8.58757e-07 4.55233e-06
1.73784e-06 -8.25125e-07 4.46088e-06
4.31959e-07 1.84965e-06 4.4952e-06
4.36104e-07 -1.78065e-06 4.35616e-06
-1.84751e-06 2.09635e-08 4.42244e-06
-1.1231e-06 -1.30889e-06 4.15107e-06
-1.15922e-06 1.30681e-06 4.19985e-06
-2.25134e-05 -7.28782e-06 1.70002e-05
-2.21968e-05 7.37171e-06 1.69688e-05
-4.86051e-06 2.28989e-05 1.69372e-05
-4.85802e-06 -2.3132e-05 1.69641e-05
1.74215e-05 1.56357e-05 1.69301e-05
1.75691e-05 -1.55367e-05 1.69393e-05
2.10739e-05 3.16394e-06 1.63246e-05
-1.39534e-05 1.71516e-05 1.64786e-05
-1.35914e-05 -1.67415e-05 1.64102e-05
7.76798e-06 1.98199e-05 1.63314e-05
7.68499e-06 -2.03103e-05 1.64027e-05
2.14727e-05 -3.4438e-06 1.64004e-05
-2.11031e-05 6.58811e-09 1.62469e-05
-2.24207e-05 1.09999e-05 1.74538e-05
-1.87512e-05 9.25486e-06 1.66273e-05
-1.79831e-05 5.79555e-06 1.60365e-05
-1.49842e-05 7.44846e-06 1.54865e-05
-1.42247e-05 4.30779e-06 1.48298e-05
-1.15328e-05 5.74398e-06 1.40949e-05
-1.08582e-05 3.06879e-06 1.33737e-05
-8.40063e-06 4.30494e-06 1.24045e-05
-9.05896e-06 7.01352e-06 1.34565e-05
-6.20421e-06 5.4886e-06 1.16891e-05
-6.82842e-06 8.24958e-06 1.30801e-05
-4.28147e-06 6.67502e-06 1.14506e-05
-4.80009e-06 9.61009e-06 1.3094e-05
-2.40091e-06 7.99348e-06 1.1723e-05
-2.8129e-06 1.11674e-05 1.3475e-05
-4.75419e-07 9.59545e-06 1.25011e-05
-7.38367e-07 1.29971e-05 1.41419e-05
1.73111e-06 1.1518e-05 1.35351e-05
-5.53478e-06 1.27006e-05 1.44371e-05
1.68511e-06 8.22411e-06 1.17477e-05
4.00425e-06 1.01211e-05 1.3151e-05
3.70541e-06 7.09807e-06 1.14783e-05
6.06751e-06 8.96682e-06 1.31135e-05
5.76692e-06 6.10689e-06 1.17357e-05
8.35823e-06 8.02046e-06 1.34921e-05
8.10579e-06 5.19535e-06 1.25004e-05
1.09542e-05 7.09717e-06 1.41471e-05
1.07462e-05 4.32287e-06 1.34992e-05
8.53067e-06 1.10377e-05 1.44609e-05
7.93783e-06 2.64379e-06 1.17275e-05
1.06462e-05 1.73723e-06 1.31041e-05
7.94882e-06 3.58766e-07 1.14557e-05
1.08066e-05 -7.59126e-07 1.31242e-05
8.11178e-06 -1.93783e-06 1.17092e-05
1.10985e-05 -3.31291e-06 1.3484e-05
8.46988e-06 -4.42406e-06 1.24442e-05
1.15039e-05 -6.00299e-06 1.41095e-05
8.95573e-06 -7.13823e-06 1.34282e-05
6.14763e-06 -5.49451e-06 1.16414e-05
6.64461e-06 -8.30101e-06 1.30184e-05
4.10527e-06 -6.58862e-06 1.1311e-05
4.52343e-06 -9.55103e-06 1.29884e-05
2.24233e-06 -7.85842e-06 1.15975e-05
2.48488e-06 -1.10021e-05 1.33511e-05
2.25294e-07 -9.37385e-06 1.23537e-05
3.30019e-07 -1.277e-05 1.4034e-05
-1.91547e-06 -1.11509e-05 1.33771e-05
-1.8411e-06 -7.92175e-06 1.15823e-05
-4.16797e-06 -9.87503e-06 1.30852e-05
-3.81401e-06 -6.73062e-06 1.13172e-05
-6.34573e-06 -8.66218e-06 1.30994e-05
-5.8914e-06 -5.69811e-06 1.16285e-05
-8.49988e-06 -7.43593e-06 1.33798e-05
-8.16769e-06 -4.72814e-06 1.24088e-05
-1.10959e-05 -6.40288e-06 1.407e-05
-4.37173e-06 -1.31234e-05 1.44338e-05
-1.0809e-05 -3.65075e-06 1.34394e-05
7.22625e-06 -1.1373e-05 1.42731e-05
-7.74184e-06 1.98272e-06 1.1493e-05
-1.32164e-05 1.03508e-06 1.42111e-05
1.72915e-06 1.50831e-05 1.49524e-05
1.37683e-05 4.62247e-07 1.4388e-05
1.38434e-05 6.10022e-06 1.49319e-05
-9.69424e-06 1.01965e-05 1.45327e-05
-5.41611e-06 -3.19771e-06 1.01823e-05
-1.17138e-05 -9.29752e-06 1.48894e-05
1.18826e-05 -8.76038e-06 1.47873e-05
1.47821e-05 -7.47375e-06 1.54036e-05
-1.396e-05 -5.244e-06 1.48619e-05
2.79588e-06 -1.45164e-05 1.47964e-05
4.2457e-07 -1.64997e-05 1.5398e-05
3.5185e-06 4.39702e-06 9.58127e-06
1.40109e-05 9.29924e-06 1.54918e-05
1.79311e-05 8.14512e-06 1.63008e-05
-1.56758e-05 1.13956e-05 1.62337e-05
-1.09411e-06 1.67694e-05 1.54955e-05
1.90689e-06 1.9622e-05 1.63112e-05
-2.09191e-06 5.22017e-06 9.59777e-06
5.55405e-06 -7.84618e-07 9.59432e-06
3.58602e-06 -3.68363e-06 9.08214e-06
-1.77967e-06 -5.17867e-06 9.44978e-06
-2.24692e-05 -1.1011e-05 1.74746e-05
-1.87985e-05 -9.2416e-06 1.66513e-05
2.11482e-05 1.4165e-05 1.75058e-05
2.07542e-05 -1.43179e-05 1.74358e-05
-1.76463e-06 -2.5447e-05 1.75112e-05
-1.68215e-06 2.5411e-05 1.75158e-05
1.77133e-05 -1.19071e-05 1.66874e-05
2.06461e-05 -1.07513e-05 1.71162e-05
3.77571e-06 -1.89855e-05 1.61397e-05
7.68543e-07 -2.03462e-05 1.64831e-05
-1.94055e-05 -1.26508e-05 1.71434e-05
-1.37314e-05 -2.30697e-06 1.44721e-05
-1.6593e-05 -3.7015e-06 1.54778e-05
-1.0376e-05 -1.09641e-06 1.29523e-05
2.44525e-05 1.1073e-05 1.76519e-05
2.5498e-05 -1.24035e-05 1.78484e-05
2.64927e-06 2.67265e-05 1.76607e-05
2.52103e-06 -2.64141e-05 1.76296e-05
3.33951e-06 -2.30323e-05 1.70293e-05
-2.05393e-06 -1.83202e-05 1.59511e-05
4.05912e-06 2.37918e-05 1.71306e-05
2.26146e-05 8.37942e-06 1.71195e-05
4.61369e-06 1.73137e-05 1.57275e-05
1.44273e-05 -1.31197e-05 1.61376e-05
-1.5788e-05 -1.09849e-05 1.62148e-05
-1.68001e-05 -3.81435e-07 1.53776e-05
1.73062e-05 4.68757e-06 1.57259e-05
6.55228e-08 -6.38742e-06 1.02676e-05
1.74174e-06 -4.84854e-06 9.09265e-06
5.85056e-06 -2.93556e-06 1.03783e-05
-2.14446e-05 3.75058e-06 1.64591e-05
5.72946e-06 -1.62748e-05 1.5508e-05
9.08362e-06 -1.74993e-05 1.59977e-05
1.75725e-05 1.18819e-05 1.66725e-05
1.39945e-05 -1.63825e-05 1.64015e-05
1.07402e-05 -1.37892e-05 1.55503e-05
-3.54803e-06 -4.22026e-06 9.50093e-06
5.3992e-06 1.13851e-06 9.49921e-06
5.21813e-06 3.22293e-06 1.00474e-05
-1.7498e-06 -2.83549e-05 1.78771e-05
1.89209e-06 5.29897e-06 9.58461e-06
-1.13825e-07 6.1051e-06 1.00389e-05
-3.78498e-06 4.12781e-06 9.57857e-06
-5.62277e-06 3.03423e-06 1.02854e-05
-5.16555e-06 1.04069e-06 9.21377e-06
-7.52736e-06 -6.17402e-08 1.11726e-05
-4.33444e-06 -8.1029e-07 8.382e-06
-3.10863e-06 1.87236e-06 7.37419e-06
-2.20815e-05 -3.60782e-06 1.6516e-05
2.34066e-05 -1.56882e-05 1.78363e-05
-1.50722e-06 2.11682e-05 1.66823e-05
2.1262e-05 -8.45213e-08 1.6226e-05
1.76224e-05 -1.64683e-06 1.55817e-05
1.7348e-05 -4.94176e-06 1.57709e-05
2.18919e-05 -7.45124e-06 1.69138e-05
-2.31825e-05 -1.42548e-05 1.78329e-05
1.73249e-05 1.6489e-06 1.55088e-05
-1.73401e-06 2.84735e-05 1.78943e-05
-4.22078e-07 3.68347e-06 7.49543e-06
2.37723e-05 1.57426e-05 1.78848e-05
-1.74976e-05 1.56425e-05 1.69752e-05
-1.06264e-05 -1.84664e-05 1.62553e-05
-1.00997e-05 -1.43426e-05 1.55719e-05
-7.5079e-06 -1.60951e-05 1.56223e-05
-7.32224e-06 -2.01208e-05 1.63955e-05
-1.07046e-05 1.85355e-05 1.6267e-05
-1.03475e-05 1.43843e-05 1.56196e-05
-7.77276e-06 2.04927e-05 1.64445e-05
-4.25306e-06 1.861e-05 1.60532e-05
1.07599e-05 1.83457e-05 1.62264e-05
1.38919e-05 1.69352e-05 1.64312e-05
1.40422e-05 1.29731e-05 1.60515e-05
-7.3617e-06 1.62886e-05 1.56387e-05
1.05253e-05 1.45473e-05 1.56454e-05
7.74888e-06 1.60926e-05 1.56142e-05
-3.11651e-06 -1.89879e-06 7.39331e-06
-7.25777e-06 -1.24222e-05 1.46254e-05
3.0087e-06 4.03608e-08 6.6011e-06
4.87266e-06 1.3523e-05 1.46183e-05
1.40763e-05 -2.26043e-06 1.45707e-05
-1.72901e-05 -1.5217e-05 1.69457e-05
-1.73668e-05 2.42035e-06 1.55981e-05
-1.22049e-05 8.91209e-06 1.49437e-05
-7.70576e-06 -2.29256e-06 1.15549e-05
-1.245e-05 1.18128e-05 1.55402e-05
-1.42738e-07 -3.75428e-06 7.55432e-06
2.73027e-06 2.27211e-06 7.25206e-06
-2.0039e-06 -1.46507e-05 1.48083e-05
9.36526e-06 -1.00684e-05 1.43896e-05
1.3861e-05 3.15787e-06 1.45663e-05
-7.34017e-06 1.11996e-05 1.42605e-05
4.99731e-06 -1.2775e-05 1.43695e-05
1.10321e-05 1.04307e-05 1.49199e-05
-3.59651e-06 1.46855e-05 1.49083e-05
-4.63555e-06 -1.66172e-05 1.55491e-05
-1.95074e-05 1.28927e-05 1.71615e-05
-2.31273e-05 1.48584e-05 1.78437e-05
-1.29052e-05 -1.26863e-05 1.58128e-05
3.76086e-06 -1.58615e-06 7.9071e-06
1.76442e-06 2.92233e-06 7.08457e-06
-9.23066e-06 -1.06097e-05 1.4532e-05
1.72777e-06 -2.8232e-06 6.9312e-06
9.94743e-07 2.41173e-05 1.73087e-05
2.13684e-05 1.11941e-05 1.72989e-05
-1.46649e-05 -7.95354e-06 1.54856e-05
1.37083e-05 -4.78641e-06 1.46909e-05
-1.90992e-06 -2.17634e-05 1.6803e-05
1.80607e-05 -8.41923e-06 1.6341e-05
-1.66793e-05 -6.32869e-06 1.57827e-05
-4.32907e-07 -1.92235e-06 4.79857e-06
-1.8054e-06 2.99549e-06 7.17732e-06
-2.50524e-05 -1.2982e-05 1.79225e-05
-2.51276e-05 -1.45075e-05 1.80024e-05
-2.50456e-05 1.30339e-05 1.79063e-05
-2.51185e-05 1.46502e-05 1.79824e-05
-1.64848e-06 -3.1249e-06 7.21006e-06
6.32807e-06 1.13686e-05 1.40768e-05
5.33716e-07 -2.40866e-05 1.73025e-05
-5.22786e-07 1.80957e-06 4.6451e-06
7.40761e-06 -1.4344e-05 1.51527e-05
2.33033e-05 -1.32096e-05 1.77291e-05
2.36331e-05 -1.05378e-05 1.74911e-05
1.19887e-05 -1.82113e-05 1.62936e-05
1.47304e-05 -1.01469e-05 1.57959e-05
-1.00273e-05 1.00127e-06 1.27549e-05
-1.74004e-06 -8.15915e-07 4.72355e-06
7.69078e-07 3.70842e-06 7.5733e-06
2.34311e-06 -1.99719e-06 6.55542e-06
2.01569e-05 5.89795e-06 1.64539e-05
5.07018e-06 2.05964e-05 1.64963e-05
3.42119e-07 -2.76805e-05 1.78543e-05
-1.73126e-06 7.09123e-07 4.60642e-06
-3.21156e-06 6.23059e-07 6.82428e-06
3.57728e-06 1.47544e-06 7.63678e-06
4.99227e-07 2.83243e-05 1.79275e-05
2.47608e-05 1.37343e-05 1.79187e-05
-2.03288e-05 1.55361e-05 1.74293e-05
1.17873e-06 1.3645e-06 4.45994e-06
-2.064e-05 -1.57287e-05 1.75279e-05
-1.89993e-05 -2.32224e-06 1.59465e-05
-1.95596e-05 -5.58511e-06 1.63326e-05
9.05698e-07 -3.24781e-06 7.00625e-06
-4.36611e-06 -1.97897e-05 1.63222e-05
-7.93745e-06 1.38347e-05 1.51014e-05
1.16577e-06 -1.3042e-06 4.33938e-06
1.19347e-05 -1.12286e-05 1.52925e-05
6.13318e-06 -2.26966e-05 1.68208e-05
-1.45225e-05 1.43557e-05 1.6324e-05
7.92925e-06 1.33215e-05 1.49483e-05
1.7937e-06 8.58757e-07 -4.55233e-06
1.73784e-06 -8.25125e-07 -4.46088e-06
4.31959e-07 1.84965e-06 -4.4952e-06
4.36104e-07 -1.78065e-06 -4.35616e-06
-1.84751e-06 2.09635e-08 -4.42244e-06
-1.1231e-06 -1.30889e-06 -4.15107e-06
-1.15922e-06 1.30681e-06 -4.19985e-06
-2.25134e-05 -7.28782e-06 -1.70002e-05
-2.21968e-05 7.37171e-06 -1.69688e-05
-4.86051e-06 2.28989e-05 -1.69372e-05
-4.85802e-06 -2.3132e-05 -1.69641e-05
1.74215e-05 1.56357e-05 -1.69301e-05
1.75691e-05 -1.55367e-05 -1.69393e-05
2.10739e-05 3.16394e-06 -1.63246e-05
-1.39534e-05 1.71516e-05 -1.64786e-05
-1.35914e-05 -1.67415e-05 -1.64102e-05
7.76798e-06 1.98199e-05 -1.63314e-05
7.68499e-06 -2.03103e-05 -1.64027e-05
2.14727e-05 -3.4438e-06 -1.64004e-05
-2.11031e-05 6.58811e-09 -1.62469e-05
-2.24207e-05 1.09999e-05 -1.74538e-05
-1.87512e-05 9.25486e-06 -1.66273e-05
-1.79831e-05 5.79555e-06 -1.60365e-05
-1.49842e-05 7.44846e-06 -1.54865e-05
-1.42247e-05 4.30779e-06 -1.48298e-05
-1.15328e-05 5.74398e-06 -1.40949e-05
-1.08582e-05 3.06879e-06 -1.33737e-05
-8.40063e-06 4.30494e-06 -1.24045e-05
-9.05896e-06 7.01352e-06 -1.34565e-05
-6.20421e-06 5.4886e-06 -1.16891e-05
-6.82842e-06 8.24958e-06 -1.30801e-05
-4.28147e-06 6.67502e-06 -1.14506e-05
-4.80009e-06 9.61009e-06 -1.3094e-05
-2.40091e-06 7.99348e-06 -1.1723e-05
-2.8129e-06 1.11674e-05 -1.3475e-05
-4.75419e-07 9.59545e-06 -1.25011e-05
-7.38367e-07 1.29971e-05 -1.41419e-05
1.73111e-06 1.1518e-05 -1.35351e-05
-5.53478e-06 1.27006e-05 -1.44371e-05
1.68511e-06 8.22411e-06 -1.17477e-05
4.00425e-06 1.01211e-05 -1.3151e-05
3.70541e-06 7.09807e-06 -1.14783e-05
6.06751e-06 8.96682e-06 -1.31135e-05
5.76692e-06 6.10689e-06 -1.17357e-05
8.35823e-06 8.02046e-06 -1.34921e-05
8.10579e-06 5.19535e-06 -1.25004e-05
1.09542e-05 7.09717e-06 -1.41471e-05
1.07462e-05 4.32287e-06 -1.34992e-05
8.53067e-06 1.10377e-05 -1.44609e-05
7.93783e-06 2.64379e-06 -1.17275e-05
1.06462e-05 1.73723e-06 -1.31041e-05
7.94882e-06 3.58766e-07 -1.14557e-05
1.08066e-05 -7.59126e-07 -1.31242e-05
8.11178e-06 -1.93783e-06 -1.17092e-05
1.10985e-05 -3.31291e-06 -1.3484e-05
8.46988e-06 -4.42406e-06 -1.24442e-05
1.15039e-05 -6.00299e-06 -1.41095e-05
8.95573e-06 -7.13823e-06 -1.34282e-05
6.14763e-06 -5.49451e-06 -1.16414e-05
6.64461e-06 -8.30101e-06 -1.30184e-05
4.10527e-06 -6.58862e-06 -1.1311e-05
4.52343e-06 -9.55103e-06 -1.29884e-05
2.24233e-06 -7.85842e-06 -1.15975e-05
2.48488e-06 -1.10021e-05 -1.33511e-05
2.25294e-07 -9.37385e-06 -1.23537e-05
3.30019e-07 -1.277e-05 -1.4034e-05
-1.91547e-06 -1.11509e-05 -1.33771e-05
-1.8411e-06 -7.92175e-06 -1.15823e-05
-4.16797e-06 -9.87503e-06 -1.30852e-05
-3.81401e-06 -6.73062e-06 -1.13172e-05
-6.34573e-06 -8.66218e-06 -1.30994e-05
-5.8914e-06 -5.69811e-06 -1.16285e-05
-8.49988e-06 -7.43593e-06 -1.33798e-05
-8.16769e-06 -4.72814e-06 -1.24088e-05
-1.10959e-05 -6.40288e-06 -1.407e-05
-4.37173e-06 -1.31234e-05 -1.44338e-05
-1.0809e-05 -3.65075e-06 -1.34394e-05
7.22625e-06 -1.1373e-05 -1.42731e-05
-7.74184e-06 1.98272e-06 -1.1493e-05
-1.32164e-05 1.03508e-06 -1.42111e-05
1.72915e-06 1.50831e-05 -1.49524e-05
1.37683e-05 4.62247e-07 -1.4388e-05
1.38434e-05 6.10022e-06 -1.49319e-05
-9.69424e-06 1.01965e-05 -1.45327e-05
-5.41611e-06 -3.19771e-06 -1.01823e-05
-1.17138e-05 -9.29752e-06 -1.48894e-05
1.18826e-05 -8.76038e-06 -1.47873e-05
1.47821e-05 -7.47375e-06 -1.54036e-05
-1.396e-05 -5.244e-06 -1.48619e-05
2.79588e-06 -1.45164e-05 -1.47964e-05
4.2457e-07 -1.64997e-05 -1.5398e-05
3.5185e-06 4.39702e-06 -9.58127e-06
1.40109e-05 9.29924e-06 -1.54918e-05
1.79311e-05 8.14512e-06 -1.63008e-05
-1.56758e-05 1.13956e-05 -1.62337e-05
-1.09411e-06 1.67694e-05 -1.54955e-05
1.90689e-06 1.9622e-05 -1.63112e-05
-2.09191e-06 5.22017e-06 -9.59777e-06
5.55405e-06 -7.84618e-07 -9.59432e-06
3.58602e-06 -3.68363e-06 -9.08214e-06
-1.77967e-06 -5.17867e-06 -9.44978e-06
-2.24692e-05 -1.1011e-05 -1.74746e-05
-1.87985e-05 -9.2416e-06 -1.66513e-05
2.11482e-05 1.4165e-05 -1.75058e-05
2.07542e-05 -1.43179e-05 -1.74358e-05
-1.76463e-06 -2.5447e-05 -1.75112e-05
-1.68215e-06 2.5411e-05 -1.75158e-05
1.77133e-05 -1.19071e-05 -1.66874e-05
2.06461e-05 -1.07513e-05 -1.71162e-05
3.77571e-06 -1.89855e-05 -1.61397e-05
7.68543e-07 -2.03462e-05 -1.64831e-05
-1.94055e-05 -1.26508e-05 -1.71434e-05
-1.37314e-05 -2.30697e-06 -1.44721e-05
-1.6593e-05 -3.7015e-06 -1.54778e-05
-1.0376e-05 -1.09641e-06 -1.29523e-05
2.44525e-05 1.1073e-05 -1.76519e-05
2.5498e-05 -1.24035e-05 -1.78484e-05
2.64927e-06 2.67265e-05 -1.76607e-05
2.52103e-06 -2.64141e-05 -1.76296e-05
3.33951e-06 -2.30323e-05 -1.70293e-05
-2.05393e-06 -1.83202e-05 -1.59511e-05
4.05912e-06 2.37918e-05 -1.71306e-05
2.26146e-05 8.37942e-06 -1.71195e-05
4.61369e-06 1.73137e-05 -1.57275e-05
1.44273e-05 -1.31197e-05 -1.61376e-05
-1.5788e-05 -1.09849e-05 -1.62148e-05
-1.68001e-05 -3.81435e-07 -1.53776e-05
1.73062e-05 4.68757e-06 -1.57259e-05
6.55228e-08 -6.38742e-06 -1.02676e-05
1.74174e-06 -4.84854e-06 -9.09265e-06
5.85056e-06 -2.93556e-06 -1.03783e-05
-2.14446e-05 3.75058e-06 -1.64591e-05
5.72946e-06 -1.62748e-05 -1.5508e-05
9.08362e-06 -1.74993e-05 -1.59977e-05
1.75725e-05 1.18819e-05 -1.66725e-05
1.39945e-05 -1.63825e-05 -1.64015e-05
1.07402e-05 -1.37892e-05 -1.55503e-05
-3.54803e-06 -4.22026e-06 -9.50093e-06
5.3992e-06 1.13851e-06 -9.49921e-06
5.21813e-06 3.22293e-06 -1.00474e-05
-1.7498e-06 -2.83549e-05 -1.78771e-05
1.89209e-06 5.29897e-06 -9.58461e-06
-1.13825e-07 6.1051e-06 -1.00389e-05
-3.78498e-06 4.12781e-06 -9.57857e-06
-5.62277e-06 3.03423e-06 -1.02854e-05
-5.16555e-06 1.04069e-06 -9.21377e-06
-7.52736e-06 -6.17402e-08 -1.11726e-05
-4.33444e-06 -8.1029e-07 -8.382e-06
-3.10863e-06 1.87236e-06 -7.37419e-06
-2.20815e-05 -3.60782e-06 -1.6516e-05
2.34066e-05 -1.56882e-05 -1.78363e-05
-1.50722e-06 2.11682e-05 -1.66823e-05
2.1262e-05 -8.45213e-08 -1.6226e-05
1.76224e-05 -1.64683e-06 -1.55817e-05
1.7348e-05 -4.94176e-06 -1.57709e-05
2.18919e-05 -7.45124e-06 -1.69138e-05
-2.31825e-05 -1.42548e-05 -1.78329e-05
1.73249e-05 1.6489e-06 -1.55088e-05
-1.73401e-06 2.84735e-05 -1.78943e-05
-4.22078e-07 3.68347e-06 -7.49543e-06
2.37723e-05 1.57426e-05 -1.78848e-05
-1.74976e-05 1.56425e-05 -1.69752e-05
-1.06264e-05 -1.84664e-05 -1.62553e-05
-1.00997e-05 -1.43426e-05 -1.55719e-05
-7.5079e-06 -1.60951e-05 -1.56223e-05
-7.32224e-06 -2.01208e-05 -1.63955e-05
-1.07046e-05 1.85355e-05 -1.6267e-05
-1.03475e-05 1.43843e-05 -1.56196e-05
-7.77276e-06 2.04927e-05 -1.64445e-05
-4.25306e-06 1.861e-05 -1.60532e-05
1.07599e-05 1.83457e-05 -1.62264e-05
1.38919e-05 1.69352e-05 -1.64312e-05
1.40422e-05 1.29731e-05 -1.60515e-05
-7.3617e-06 1.62886e-05 -1.56387e-05
1.05253e-05 1.45473e-05 -1.56454e-05
7.74888e-06 1.60926e-05 -1.56142e-05
-3.11651e-06 -1.89879e-06 -7.39331e-06
-7.25777e-06 -1.24222e-05 -1.46254e-05
3.0087e-06 4.03608e-08 -6.6011e-06
4.87266e-06 1.3523e-05 -1.46183e-05
1.40763e-05 -2.26043e-06 -1.45707e-05
-1.72901e-05 -1.5217e-05 -1.69457e-05
-1.73668e-05 2.42035e-06 -1.55981e-05
-1.22049e-05 8.91209e-06 -1.49437e-05
-7.70576e-06 -2.29256e-06 -1.15549e-05
-1.245e-05 1.18128e-05 -1.55402e-05
-1.42738e-07 -3.75428e-06 -7.55432e-06
2.73027e-06 2.27211e-06 -7.25206e-06
-2.0039e-06 -1.46507e-05 -1.48083e-05
9.36526e-06 -1.00684e-05 -1.43896e-05
1.3861e-05 3.15787e-06 -1.45663e-05
-7.34017e-06 1.11996e-05 -1.42605e-05
4.99731e-06 -1.2775e-05 -1.43695e-05
1.10321e-05 1.04307e-05 -1.49199e-05
-3.59651e-06 1.46855e-05 -1.49083e-05
-4.63555e-06 -1.66172e-05 -1.55491e-05
-1.95074e-05 1.28927e-05 -1.71615e-05
-2.31273e-05 1.48584e-05 -1.78437e-05
-1.29052e-05 -1.26863e-05 -1.58128e-05
3.76086e-06 -1.58615e-06 -7.9071e-06
1.76442e-06 2.92233e-06 -7.08457e-06
-9.23066e-06 -1.06097e-05 -1.4532e-05
1.72777e-06 -2.8232e-06 -6.9312e-06
9.94743e-07 2.41173e-05 -1.73087e-05
2.13684e-05 1.11941e-05 -1.72989e-05
-1.46649e-05 -7.95354e-06 -1.54856e-05
1.37083e-05 -4.78641e-06 -1.46909e-05
-1.90992e-06 -2.17634e-05 -1.6803e-05
1.80607e-05 -8.41923e-06 -1.6341e-05
-1.66793e-05 -6.32869e-06 -1.57827e-05
-4.32907e-07 -1.92235e-06 -4.79857e-06
-1.8054e-06 2.99549e-06 -7.17732e-06
-2.50524e-05 -1.2982e-05 -1.79225e-05
-2.51276e-05 -1.45075e-05 -1.80024e-05
-2.50456e-05 1.30339e-05 -1.79063e-05
-2.51185e-05 1.46502e-05 -1.79824e-05
-1.64848e-06 -3.1249e-06 -7.21006e-06
6.32807e-06 1.13686e-05 -1.40768e-05
5.33716e-07 -2.40866e-05 -1.73025e-05
-5.22786e-07 1.80957e-06 -4.6451e-06
7.40761e-06 -1.4344e-05 -1.51527e-05
2.33033e-05 -1.32096e-05 -1.77291e-05
2.36331e-05 -1.05378e-05 -1.74911e-05
1.19887e-05 -1.82113e-05 -1.62936e-05
1.47304e-05 -1.01469e-05 -1.57959e-05
-1.00273e-05 1.00127e-06 -1.27549e-05
-1.74004e-06 -8.15915e-07 -4.72355e-06
7.69078e-07 3.70842e-06 -7.5733e-06
2.34311e-06 -1.99719e-06 -6.55542e-06
2.01569e-05 5.89795e-06 -1.64539e-05
5.07018e-06 2.05964e-05 -1.64963e-05
3.42119e-07 -2.76805e-05 -1.78543e-05
-1.73126e-06 7.09123e-07 -4.60642e-06
-3.21156e-06 6.23059e-07 -6.82428e-06
3.57728e-06 1.47544e-06 -7.63678e-06
4.99227e-07 2.83243e-05 -1.79275e-05
2.47608e-05 1.37343e-05 -1.79187e-05
-2.03288e-05 1.55361e-05 -1.74293e-05
1.17873e-06 1.3645e-06 -4.45994e-06
-2.064e-05 -1.57287e-05 -1.75279e-05
-1.89993e-05 -2.32224e-06 -1.59465e-05
-1.95596e-05 -5.58511e-06 -1.63326e-05
9.05698e-07 -3.24781e-06 -7.00625e-06
-4.36611e-06 -1.97897e-05 -1.63222e-05
-7.93745e-06 1.38347e-05 -1.51014e-05
1.16577e-06 -1.3042e-06 -4.33938e-06
1.19347e-05 -1.12286e-05 -1.52925e-05
6.13318e-06 -2.26966e-05 -1.68208e-05
-1.45225e-05 1.43557e-05 -1.6324e-05
7.92925e-06 1.33215e-05 -1.49483e-05
SCALARS effective_fluid_pressure_TPM float
LOOKUP_TABLE default
665
665
665
665
665
665
665
665
665
665
665
665
665
665
133
665
665
665
665
665
665
665
665
665
665
665
665
665
665
133
665
560.324
520.671
502.812
502.583
519.797
559.945
665
561.991
520.766
503.255
503.365
520.698
561.612
665
559.611
519.668
502.757
502.975
521.166
561.628
665
558.868
519.012
501.546
502.241
518.862
559.456
665
558.508
519.952
501.878
501.809
519.385
557.947
665
558.664
519.966
502.051
501.912
519.373
559.67
133
133
133
133
133
133
665
560.324
520.671
502.812
502.583
519.797
559.945
665
561.991
520.766
503.255
503.365
520.698
561.612
665
559.611
519.668
502.757
502.975
521.166
561.628
665
558.868
519.012
501.546
502.241
518.862
559.456
665
558.508
519.952
501.878
501.809
519.385
557.947
665
558.664
519.966
502.051
501.912
519.373
559.67
133
133
133
133
133
133
228.259
226.33
227.043
224.111
225.526
219.848
220.865
529.17
528.18
526.559
527.938
526.586
527.64
498.708
503.554
501.593
498.949
501.465
501.247
494.329
562.506
518.984
495.032
480.738
461.358
443.278
425.046
402.12
427.271
385.265
417.739
379.612
417.902
385.95
427.387
404.298
444.382
429.077
450.259
386.559
419.302
380.207
418.313
386.19
427.76
404.226
444.492
428.16
450.855
386.034
418.165
379.623
418.521
385.557
427.597
402.919
443.555
426.452
384.051
416.138
376.307
415.345
383.023
424.418
400.845
441.704
425.226
382.759
417.778
376.571
418.095
383.845
425.266
402.212
442.677
450.649
426.725
446.007
380.732
444.673
465.288
448.74
464.761
453.41
350.907
463.503
461.035
478.442
462.77
460.641
478.346
337.281
480.818
505.85
503.609
480.884
506.156
337.694
337.505
326.169
334.419
563.382
519.66
567.583
562.368
567.9
567.753
521.808
542.719
498.622
513.733
542.064
451.452
477.569
414.656
579.523
611.031
579.676
576.037
534.554
494.472
538.227
537.924
485.029
498.108
503.326
473.131
485.077
352.751
326.419
355.181
503.436
477.708
488.351
520.877
502.019
477.905
335.544
335.408
347.703
613.448
337.382
347.575
337.269
353.207
329.192
373.259
310.663
288.791
504.702
608.383
521.099
493.713
478.318
486.346
526.493
600.343
476.555
615.901
291.4
615.8
528.721
494.524
478.225
479.399
501.306
494.831
479.426
502.501
495.165
493.735
502.253
495.238
479.873
480.039
479.041
289.297
454.581
271.945
454.989
453.617
527.002
479.462
465.212
382.101
480.497
292.672
286.085
461.468
449.622
453.966
445.844
448.678
463.593
463.25
479.942
543.459
601.704
487.482
300.305
282.464
453.002
279.166
552.241
552
480.763
458.006
526.224
508.176
488.579
233.731
284.561
614.508
636.323
615.142
636.679
285.283
441.329
553.081
230.487
467.54
590.266
566.034
495.804
490.038
410.033
232.121
293.099
271.128
507.885
509.182
607.816
229.664
276.979
294.433
618.88
618.793
558.515
226.524
562.528
488.302
503.384
280.849
504.055
466.367
224.009
473.574
519.57
502.97
462.433
228.259
226.33
227.043
224.111
225.526
219.848
220.865
529.17
528.18
526.559
527.938
526.586
527.64
498.708
503.554
501.593
498.949
501.465
501.247
494.329
562.506
518.984
495.032
480.738
461.358
443.278
425.046
402.12
427.271
385.265
417.739
379.612
417.902
385.95
427.387
404.298
444.382
429.077
450.259
386.559
419.302
380.207
418.313
386.19
427.76
404.226
444.492
428.16
450.855
386.034
418.165
379.623
418.521
385.557
427.597
402.919
443.555
426.452
384.051
416.138
376.307
415.345
383.023
424.418
400.845
441.704
425.226
382.759
417.778
376.571
418.095
383.845
425.266
402.212
442.677
450.649
426.725
446.007
380.732
444.673
465.288
448.74
464.761
453.41
350.907
463.503
461.035
478.442
462.77
460.641
478.346
337.281
480.818
505.85
503.609
480.884
506.156
337.694
337.505
326.169
334.419
563.382
519.66
567.583
562.368
567.9
567.753
521.808
542.719
498.622
513.733
542.064
451.452
477.569
414.656
579.523
611.031
579.676
576.037
534.554
494.472
538.227
537.924
485.029
498.108
503.326
473.131
485.077
352.751
326.419
355.181
503.436
477.708
488.351
520.877
502.019
477.905
335.544
335.408
347.703
613.448
337.382
347.575
337.269
353.207
329.192
373.259
310.663
288.791
504.702
608.383
521.099
493.713
478.318
486.346
526.493
600.343
476.555
615.901
291.4
615.8
528.721
494.524
478.225
479.399
501.306
494.831
479.426
502.501
495.165
493.735
502.253
495.238
479.873
480.039
479.041
289.297
454.581
271.945
454.989
453.617
527.002
479.462
465.212
382.101
480.497
292.672
286.085
461.468
449.622
453.966
445.844
448.678
463.593
463.25
479.942
543.459
601.704
487.482
300.305
282.464
453.002
279.166
552.241
552
480.763
458.006
526.224
508.176
488.579
233.731
284.561
614.508
636.323
615.142
636.679
285.283
441.329
553.081
230.487
467.54
590.266
566.034
495.804
490.038
410.033
232.121
293.099
271.128
507.885
509.182
607.816
229.664
276.979
294.433
618.88
618.793
558.515
226.524
562.528
488.302
503.384
280.849
504.055
466.367
224.009
473.574
519.57
502.97
462.433

CELL_DATA 563
TENSORS stress float
164.614 -24.9207 1.15108e-12
-24.9207 28.1495 3.53495e-12
1.15108e-12 3.53495e-12 -12.6033

-40.3388 -21.3204 -4.60824e-12
-21.3204 -7.35475 3.2158e-12
-4.60824e-12 3.2158e-12 -10.2324

-9.94061 28.0439 3.24363e-12
28.0439 -1.11068 3.11899e-12
3.24363e-12 3.11899e-12 -6.36095

-40.4269 -29.8426 -5.08275e-12
-29.8426 -12.8458 6.88338e-13
-5.08275e-12 6.88338e-13 -10.5987

-22.692 19.9309 -2.40696e-12
19.9309 -1.92363 -3.79681e-12
-2.40696e-12 -3.79681e-12 -23.0211

-27.1403 -18.0749 -2.8173e-12
-18.0749 15.8879 3.38396e-12
-2.8173e-12 3.38396e-12 -6.41173

161.265 26.4848 1.14634e-12
26.4848 28.0262 3.98851e-12
1.14634e-12 3.98851e-12 -13.2623

-5.96184 29.9583 -1.69938e-12
29.9583 -10.1124 -2.09018e-13
-1.69938e-12 -2.09018e-13 -7.27687

34.6316 5.48326 2.9073e-12
5.48326 -19.0958 -2.14573e-12
2.9073e-12 -2.14573e-12 -4.12277

11.8602 -7.47759 1.42997e-12
-7.47759 -48.2875 2.52198e-12
1.42997e-12 2.52198e-12 -8.94757

104.196 16.309 -3.31587e-14
16.309 -8.4436 5.41019e-12
-3.31587e-14 5.41019e-12 -22.4541

-34.6381 -13.4534 -2.59185e-12
-13.4534 18.9657 -2.89132e-12
-2.59185e-12 -2.89132e-12 -7.18114

-6.02645 27.8336 1.01193e-12
27.8336 -4.59168 -7.35412e-13
1.01193e-12 -7.35412e-13 -6.15978

-35.5524 -14.3403 5.61329e-12
-14.3403 7.845 -4.04358e-12
5.61329e-12 -4.04358e-12 -9.13188

-23.6537 33.3106 6.40969e-13
33.3106 -24.9937 -7.89965e-13
6.40969e-13 -7.89965e-13 -21.3649

21.3109 0.561004 -7.82781e-13
0.561004 -32.3392 -2.38605e-14
-7.82781e-13 -2.38605e-14 -5.5903

-48.9597 -17.969 3.38763e-12
-17.969 6.34276 -2.47387e-12
3.38763e-12 -2.47387e-12 -12.9465

11.6601 -2.6652 6.43337e-13
-2.6652 -43.2496 6.03421e-12
6.43337e-13 6.03421e-12 -8.03421

-11.3506 26.6745 -4.37813e-12
26.6745 19.5173 -1.43826e-12
-4.37813e-12 -1.43826e-12 -6.09012

21.7656 -4.1957 -4.22181e-13
-4.1957 -35.2957 -9.60935e-13
-4.22181e-13 -9.60935e-13 -6.74197

-24.4801 8.6689 -8.75004e-13
8.6689 32.1277 -3.47455e-12
-8.75004e-13 -3.47455e-12 -4.9349

-11.8087 6.28718 -4.42661e-12
6.28718 -11.9728 -2.03719e-12
-4.42661e-12 -2.03719e-12 -75.6162

22.7434 1.87601 4.3278e-12
1.87601 -33.4701 5.36978e-13
4.3278e-12 5.36978e-13 -6.67794

-12.3887 -27.7158 3.68357e-12
-27.7158 1.59935 -7.15872e-13
3.68357e-12 -7.15872e-13 -6.60341

21.3045 6.84953 -7.46662e-13
6.84953 -34.3051 2.53679e-12
-7.46662e-13 2.53679e-12 -6.80719

-37.9059 19.1131 8.41771e-13
19.1131 2.65389 5.00755e-12
8.41771e-13 5.00755e-12 -9.45824

106.605 4.1815 4.43616e-12
4.1815 20.6029 -7.1679e-12
4.43616e-12 -7.1679e-12 -12.0491

-5.30225 30.7465 7.78044e-13
30.7465 -7.27283 -2.24235e-12
7.78044e-13 -2.24235e-12 -7.44221

27.8901 37.0756 -3.47811e-12
37.0756 26.4692 -1.22805e-12
-3.47811e-12 -1.22805e-12 -8.63266

-9.43913 10.3235 1.20348e-12
10.3235 -32.9287 -1.82069e-12
1.20348e-12 -1.82069e-12 -49.5064

19.8308 14.217 -3.44672e-12
14.217 -29.3599 -2.41288e-14
-3.44672e-12 -2.41288e-14 -6.00151

-4.21111 -17.7809 -1.21384e-14
-17.7809 59.6587 1.55727e-12
-1.21384e-14 1.55727e-12 -8.47656

66.2845 -42.1027 3.64745e-12
-42.1027 71.1398 -1.06345e-12
3.64745e-12 -1.06345e-12 -11.2517

-48.2094 5.98636 5.01745e-12
5.98636 7.26943 1.73195e-12
5.01745e-12 1.73195e-12 -41.036

-26.2909 -4.84008 1.77354e-12
-4.84008 1.75668 -4.69017e-12
1.77354e-12 -4.69017e-12 -37.801

-1.46709 21.0277 4.54155e-13
21.0277 -39.5057 2.42887e-12
4.54155e-13 2.42887e-12 -41.1018

-43.9745 5.0669 4.09954e-12
5.0669 0.514168 -1.10223e-12
4.09954e-12 -1.10223e-12 -52.1887

-2.76043 -9.17022 7.13533e-12
-9.17022 -20.7693 1.19853e-12
7.13533e-12 1.19853e-12 -35.8955

-3.97468 -27.9987 -3.75759e-12
-27.9987 -4.61071 -9.48575e-13
-3.75759e-12 -9.48575e-13 -5.99512

65.5983 41.522 -5.31723e-12
41.522 73.1676 -3.39403e-12
-5.31723e-12 -3.39403e-12 -10.9635

60.1561 -17.9496 -1.0066e-12
-17.9496 0.116239 2.74329e-12
-1.0066e-12 2.74329e-12 -8.0505

-41.8023 -3.70555 4.14587e-12
-3.70555 -1.18566 1.89078e-12
4.14587e-12 1.89078e-12 -52.7234

-14.5931 19.5546 1.87776e-12
19.5546 -28.551 -9.10679e-13
1.87776e-12 -9.10679e-13 -52.8316

18.1412 -12.2734 -1.00542e-12
-12.2734 -29.8998 4.62815e-12
-1.00542e-12 4.62815e-12 -6.22369

38.1736 -43.3002 -1.16884e-12
-43.3002 41.8017 -1.04213e-13
-1.16884e-12 -1.04213e-13 -14.5592

58.1447 -18.0639 -2.83151e-12
-18.0639 -2.30356 -5.23019e-12
-2.83151e-12 -5.23019e-12 -7.91413

-21.4429 17.0861 -3.2608e-12
17.0861 30.3273 -1.68932e-12
-3.2608e-12 -1.68932e-12 -5.72903

-11.3734 19.3395 -3.78927e-12
19.3395 25.5106 8.43769e-13
-3.78927e-12 8.43769e-13 -3.9224

20.7911 -16.3013 -1.21503e-12
-16.3013 -33.1153 5.13397e-12
-1.21503e-12 5.13397e-12 -7.31234

12.6149 -34.1864 1.31036e-12
-34.1864 46.436 3.64745e-13
1.31036e-12 3.64745e-13 -10.3977

62.361 19.1824 1.42582e-12
19.1824 2.80964 -4.06667e-12
1.42582e-12 -4.06667e-12 -8.41438

46.514 -25.2891 2.53901e-12
-25.2891 5.13342 7.33635e-13
2.53901e-12 7.33635e-13 -5.61056

-31.896 19.4852 -1.5065e-12
19.4852 -4.28529 -2.57276e-13
-1.5065e-12 -2.57276e-13 -26.0849

37.0393 29.6501 9.82917e-13
29.6501 14.5123 4.85538e-14
9.82917e-13 4.85538e-14 -5.43299

-27.4494 -21.8127 1.20585e-12
-21.8127 -8.22904 4.53866e-12
1.20585e-12 4.53866e-12 -25.2474

64.8696 -42.7123 -1.77636e-12
-42.7123 44.0806 -1.7953e-12
-1.77636e-12 -1.7953e-12 -9.50216

-27.7493 5.45907 2.97007e-12
5.45907 2.66923 4.22329e-12
2.97007e-12 4.22329e-12 -38.3065

-5.55867 -5.32995 -9.93872e-13
-5.32995 57.3888 1.42109e-14
-9.93872e-13 1.42109e-14 -5.45002

-0.200688 10.3844 -3.50031e-12
10.3844 -24.8473 -1.4385e-12
-3.50031e-12 -1.4385e-12 -38.3681

-26.486 21.4135 -3.90917e-12
21.4135 12.2194 -1.46017e-12
-3.90917e-12 -1.46017e-12 -6.87038

4.72617 5.75414 -1.46357e-12
5.75414 -56.0401 -2.67016e-12
-1.46357e-12 -2.67016e-12 -13.9812

0.540005 11.4589 2.43953e-13
11.4589 -34.0569 -1.95399e-14
2.43953e-13 -1.95399e-14 -14.8398

106.346 31.8204 5.68434e-14
31.8204 37.8334 -2.71783e-12
5.68434e-14 -2.71783e-12 -7.48945

-35.4921 -6.03543 7.66794e-12
-6.03543 10.6012 -1.76688e-12
7.66794e-12 -1.76688e-12 -13.4791

-35.3601 9.51995 -1.24937e-13
9.51995 1.23372 5.18104e-14
-1.24937e-13 5.18104e-14 -14.9601

-42.5882 -2.881 3.52e-12
-2.881 21.1108 2.8854e-12
3.52e-12 2.8854e-12 -11.2392

-44.9081 23.4018 1.49658e-12
23.4018 -5.89262 -5.25506e-13
1.49658e-12 -5.25506e-13 -13.9221

9.97102 8.46369 9.82917e-13
8.46369 -42.3787 -9.1512e-13
9.82917e-13 -9.1512e-13 -9.07847

-12.335 -28.24 -4.19812e-13
-28.24 1.68696 4.27273e-12
-4.19812e-13 4.27273e-12 -6.67458

1.30884 -1.71132 1.26625e-12
-1.71132 -55.4565 3.43947e-12
1.26625e-12 3.43947e-12 -11.3045

-31.8855 -19.2612 -2.12882e-12
-19.2612 -4.59463 -2.50762e-12
-2.12882e-12 -2.50762e-12 -25.9543

-27.9748 21.3078 1.55875e-12
21.3078 -8.35884 -3.82711e-12
1.55875e-12 -3.82711e-12 -26.0127

-0.652514 -16.5839 -2.63078e-12
-16.5839 61.6745 -4.21707e-12
-2.63078e-12 -4.21707e-12 -7.94934

-0.650197 -27.9363 -1.71241e-12
-27.9363 -21.3615 -1.12799e-13
-1.71241e-12 -1.12799e-13 -12.7912

-14.0937 -25.1351 -2.94816e-12
-25.1351 7.40668 -3.45857e-12
-2.94816e-12 -3.45857e-12 -5.23661

91.6797 -31.7113 9.97128e-13
-31.7113 19.4851 3.51985e-12
9.97128e-13 3.51985e-12 -16.333

-33.7065 3.22275 -6.92039e-14
3.22275 9.19961 5.9804e-13
-6.92039e-14 5.9804e-13 -18.5633

2.75178 28.9442 -6.37712e-13
28.9442 -24.425 4.21589e-13
-6.37712e-13 4.21589e-13 -11.3168

-38.4342 19.6644 -1.64269e-12
19.6644 5.22962 -1.71922e-12
-1.64269e-12 -1.71922e-12 -9.23573

50.1912 7.99974 -2.65625e-12
7.99974 -16.965 -4.16881e-12
-2.65625e-12 -4.16881e-12 -7.06749

60.0323 -33.9364 -3.44258e-12
-33.9364 33.7871 -3.4935e-13
-3.44258e-12 -3.4935e-13 -6.98391

-18.9607 -10.5873 -2.27966e-12
-10.5873 -0.541399 -3.33955e-12
-2.27966e-12 -3.33955e-12 -25.4306

-33.926 23.8997 1.41191e-12
23.8997 -12.0236 1.37416e-12
1.41191e-12 1.37416e-12 -14.5405

58.1571 -32.3846 4.61853e-12
-32.3846 18.0912 -2.48098e-12
4.61853e-12 -2.48098e-12 -10.134

66.8607 10.7913 8.75152e-13
10.7913 8.5127 -9.92095e-13
8.75152e-13 -9.92095e-13 -5.08475

7.6738 -21.2065 4.73695e-13
-21.2065 88.4662 9.49759e-13
4.73695e-13 9.49759e-13 -11.8623

-33.9868 14.4258 -1.94067e-13
14.4258 20.2383 -2.06117e-12
-1.94067e-13 -2.06117e-12 -7.54704

8.47524 23.1434 -1.95399e-13
23.1434 -26.0743 -1.00512e-12
-1.95399e-13 -1.00512e-12 -11.2994

34.8691 42.1997 3.27679e-12
42.1997 46.2 -2.0132e-14
3.27679e-12 -2.0132e-14 -14.4207

-4.3944 16.5066 -1.57916e-11
16.5066 -35.5404 7.41451e-12
-1.57916e-11 7.41451e-12 -73.2832

-5.98079 -4.10847 -3.48492e-12
-4.10847 57.9492 5.35868e-12
-3.48492e-12 5.35868e-12 -5.44222

-1.81895 -16.6318 -4.08518e-12
-16.6318 -39.4003 1.30621e-12
-4.08518e-12 1.30621e-12 -74.1064

-3.32976 -27.3349 4.04299e-12
-27.3349 -30.0296 1.38067e-12
4.04299e-12 1.38067e-12 -21.5539

8.96692 27.4247 -1.13332e-12
27.4247 -29.9954 -6.06004e-12
-1.13332e-12 -6.06004e-12 -11.2575

45.7118 -24.4112 -5.75421e-12
-24.4112 5.02373 -2.60592e-12
-5.75421e-12 -2.60592e-12 -5.23664

10.0949 31.3241 -1.85866e-12
31.3241 47.1638 1.84623e-12
-1.85866e-12 1.84623e-12 -9.64079

14.2721 -10.7054 6.24863e-12
-10.7054 82.8403 -4.05009e-13
6.24863e-12 -4.05009e-13 -6.4472

-38.6332 21.9709 2.89487e-12
21.9709 2.94144 -4.358e-13
2.89487e-12 -4.358e-13 -8.5696

1.19284 16.7944 -9.29627e-13
16.7944 -25.7226 -6.0183e-12
-9.29627e-13 -6.0183e-12 -18.5675

-26.5385 15.1542 -5.99417e-12
15.1542 18.4494 -2.03334e-12
-5.99417e-12 -2.03334e-12 -5.70863

43.6593 15.9542 8.21861e-13
15.9542 -7.28593 1.60242e-12
8.21861e-13 1.60242e-12 -4.07576

12.5766 -21.4731 1.24345e-14
-21.4731 57.9564 -4.86367e-12
1.24345e-14 -4.86367e-12 -4.71442

65.9975 -29.3913 -2.96533e-12
-29.3913 18.6435 2.48986e-12
-2.96533e-12 2.48986e-12 -9.33547

-32.3815 -24.5733 -6.22391e-12
-24.5733 -7.28192 -2.00462e-12
-6.22391e-12 -2.00462e-12 -8.97694

-22.6673 27.4514 -7.20017e-13
27.4514 -10.3506 -3.81117e-12
-7.20017e-13 -3.81117e-12 -9.28451

-38.3514 23.1877 -3.13823e-14
23.1877 1.99097 3.16724e-12
-3.13823e-14 3.16724e-12 -8.5255

-51.5535 13.169 1.26762e-12
13.169 11.9266 2.69888e-12
1.26762e-12 2.69888e-12 -16.4665

23.4848 9.37237 -1.89893e-12
9.37237 -29.4886 -1.94082e-12
-1.89893e-12 -1.94082e-12 -5.32216

3.76812 -4.66516 -4.40359e-12
-4.66516 79.4395 -7.29254e-12
-4.40359e-12 -7.29254e-12 -9.53162

-44.9395 -36.8328 2.79924e-12
-36.8328 -19.8287 -2.19373e-12
2.79924e-12 -2.19373e-12 -14.771

-16.0802 27.4658 1.81188e-13
27.4658 1.34066 -1.15878e-12
1.81188e-13 -1.15878e-12 -6.91539

-5.01593 2.17035 -4.31425e-12
2.17035 82.6751 2.55085e-12
-4.31425e-12 2.55085e-12 -13.4313

69.0466 34.6112 -7.05806e-12
34.6112 15.4965 -2.36196e-12
-7.05806e-12 -2.36196e-12 -10.7061

-31.3524 -22.9742 2.32969e-12
-22.9742 -4.63267 1.71863e-12
2.32969e-12 1.71863e-12 -8.5305

11.743 5.73295 8.05578e-13
5.73295 -48.3362 3.01018e-12
8.05578e-13 3.01018e-12 -8.6419

43.0661 27.2047 8.26598e-13
27.2047 10.4516 -2.53308e-12
8.26598e-13 -2.53308e-12 -5.08135

-9.41413 12.7452 2.77985e-12
12.7452 -14.0395 2.43242e-12
2.77985e-12 2.43242e-12 -37.039

70.3357 24.3311 -1.08808e-11
24.3311 23.8049 3.50357e-12
-1.08808e-11 3.50357e-12 -6.79969

-10.5853 -13.0548 -3.51393e-12
-13.0548 -13.9213 2.90494e-12
-3.51393e-12 2.90494e-12 -37.3768

-4.38038 0.778568 -4.53504e-12
0.778568 59.3989 2.20742e-12
-4.53504e-12 2.20742e-12 -4.83119

38.3573 -2.23537 3.72206e-12
-2.23537 -23.8119 1.67473e-12
3.72206e-12 1.67473e-12 -5.83306

3.59353 -15.7675 -1.42227e-12
-15.7675 -53.9704 2.4644e-12
-1.42227e-12 2.4644e-12 -21.124

-42.2773 24.3882 3.2861e-12
24.3882 -11.737 -8.99577e-13
3.2861e-12 -8.99577e-13 -11.1681

-46.8125 -13.5351 -1.25534e-12
-13.5351 11.0672 2.26959e-12
-1.25534e-12 2.26959e-12 -12.3542

5.81001 -7.99982 2.20387e-12
-7.99982 -70.9669 -1.47615e-12
2.20387e-12 -1.47615e-12 -14.8822

-49.5389 -22.2835 9.16349e-12
-22.2835 3.74812 -1.6677e-12
9.16349e-12 -1.6677e-12 -22.1039

-17.459 -6.59705 1.60139e-12
-6.59705 -13.1157 -3.29862e-12
1.60139e-12 -3.29862e-12 -34.7801

-28.7299 -29.9082 -1.3823e-12
-29.9082 -9.39993 8.22749e-13
-1.3823e-12 8.22749e-13 -8.99661

15.6932 11.4539 -4.30263e-12
11.4539 80.1817 -1.42582e-12
-4.30263e-12 -1.42582e-12 -6.53086

42.2904 -28.1472 3.61311e-12
-28.1472 11.0505 -3.66107e-12
3.61311e-12 -3.66107e-12 -5.0446

-47.1704 -13.7717 -4.18147e-12
-13.7717 4.19618 -2.89546e-13
-4.18147e-12 -2.89546e-13 -29.2999

2.96475 0.504585 -6.14768e-13
0.504585 -56.8122 2.11172e-12
-6.14768e-13 2.11172e-12 -11.0058

-39.3369 -21.5244 1.17891e-12
-21.5244 -8.85713 -1.79116e-13
1.17891e-12 -1.79116e-13 -14.7745

-40.195 25.6978 3.59712e-13
25.6978 -14.6916 8.51763e-13
3.59712e-13 8.51763e-13 -11.3115

32.2606 -31.4652 -3.51956e-12
-31.4652 38.4297 -7.35412e-13
-3.51956e-12 -7.35412e-13 -4.6486

-31.4686 -7.08438 -1.89138e-12
-7.08438 1.70069 6.01889e-13
-1.89138e-12 6.01889e-13 -40.9909

36.6303 -33.0775 2.65151e-12
-33.0775 72.0284 -1.77162e-12
2.65151e-12 -1.77162e-12 -7.1448

16.6127 -19.18 -1.38674e-12
-19.18 -25.8706 -1.79294e-12
-1.38674e-12 -1.79294e-12 -7.13389

1.50251 1.97059 -2.25531e-12
1.97059 -51.3915 -8.31335e-13
-2.25531e-12 -8.31335e-13 -15.3745

-12.8751 17.8748 -7.4607e-14
17.8748 -16.9552 3.33511e-12
-7.4607e-14 3.33511e-12 -41.0584

10.7127 20.1833 -5.43565e-13
20.1833 59.4549 -1.77517e-12
-5.43565e-13 -1.77517e-12 -4.35708

4.31802 27.2109 -8.5798e-13
27.2109 -16.224 -2.00047e-12
-8.5798e-13 -2.00047e-12 -8.12476

30.9047 -24.5121 -3.62377e-13
-24.5121 -8.13314 8.12979e-13
-3.62377e-13 8.12979e-13 -4.87288

-37.788 -17.8387 -2.30665e-12
-17.8387 2.40082 -1.18069e-12
-2.30665e-12 -1.18069e-12 -9.86503

55.5144 35.0689 -2.53308e-12
35.0689 42.3458 4.46695e-12
-2.53308e-12 4.46695e-12 -6.63646

-40.0154 -21.8311 2.47476e-12
-21.8311 2.53681 -3.41505e-12
2.47476e-12 -3.41505e-12 -9.39455

2.96633 30.8508 -2.404e-12
30.8508 -17.389 2.19706e-12
-2.404e-12 2.19706e-12 -9.07882

18.5373 -25.2444 3.62969e-13
-25.2444 -19.4187 -6.15804e-14
3.62969e-13 -6.15804e-14 -6.34314

-15.6543 -25.1268 8.10019e-12
-25.1268 5.89551 -3.62969e-13
8.10019e-12 -3.62969e-13 -5.77625

42.7187 -18.6885 -1.18424e-12
-18.6885 -9.16671 -4.50247e-12
-1.18424e-12 -4.50247e-12 -5.36976

27.432 -18.85 -1.21207e-12
-18.85 -20.3693 4.70142e-13
-1.21207e-12 4.70142e-13 -5.69047

-41.3939 -25.3371 8.33259e-13
-25.3371 -14.9642 -1.14827e-12
8.33259e-13 -1.14827e-12 -11.5676

29.781 35.9702 -4.8909e-13
35.9702 25.2271 6.64357e-13
-4.8909e-13 6.64357e-13 -8.64477

-28.5188 15.377 -1.47956e-12
15.377 18.5188 -1.84978e-12
-1.47956e-12 -1.84978e-12 -5.87462

-23.1083 26.4225 -1.93919e-13
26.4225 -12.5471 -7.26826e-13
-1.93919e-13 -7.26826e-13 -9.95866

-42.0969 25.4736 -1.43736e-12
25.4736 -11.5925 1.06774e-12
-1.43736e-12 1.06774e-12 -10.9933

-37.2889 11.6217 9.6527e-13
11.6217 11.8441 -1.848e-12
9.6527e-13 -1.848e-12 -9.08099

64.394 -8.22716 2.39216e-12
-8.22716 3.19702 1.76422e-12
2.39216e-12 1.76422e-12 -4.25123

8.73339 18.6068 1.41457e-12
18.6068 59.2207 3.16073e-12
1.41457e-12 3.16073e-12 -4.1627

-25.6152 -24.3808 -4.08503e-12
-24.3808 0.458309 -2.06857e-12
-4.08503e-12 -2.06857e-12 -7.21626

-1.14213 25.6664 2.21156e-12
25.6664 13.7523 5.22841e-13
2.21156e-12 5.22841e-13 -4.08336

32.3788 -35.63 1.34056e-12
-35.63 21.7 -9.98905e-13
1.34056e-12 -9.98905e-13 -8.4865

59.5371 38.3174 2.01084e-12
38.3174 17.8477 -3.15244e-12
2.01084e-12 -3.15244e-12 -13.7224

12.1247 -33.3117 -5.40664e-12
-33.3117 42.9138 -2.16716e-13
-5.40664e-12 -2.16716e-13 -9.54309

30.5514 -31.1602 8.95284e-13
-31.1602 36.8138 -1.74794e-12
8.95284e-13 -1.74794e-12 -4.40581

11.7689 -6.83864 -2.036e-12
-6.83864 -48.8382 -1.46986e-12
-2.036e-12 -1.46986e-12 -8.77072

25.2744 30.3423 8.7752e-13
30.3423 41.0893 3.55271e-14
8.7752e-13 3.55271e-14 -4.45632

62.6829 13.2949 8.3619e-12
13.2949 5.22759 4.46813e-12
8.3619e-12 4.46813e-12 -4.30581

-7.02661 13.3791 -1.94689e-12
13.3791 61.345 1.84623e-12
-1.94689e-12 1.84623e-12 -8.69535

11.7292 -22.3408 -4.48826e-12
-22.3408 55.7638 -6.43041e-13
-4.48826e-12 -6.43041e-13 -4.30177

-47.2604 -1.09177 9.26518e-13
-1.09177 12.4094 -6.30962e-12
9.26518e-13 -6.30962e-12 -22.1617

-5.91989 2.24666 4.771e-13
2.24666 59.0051 4.20286e-12
4.771e-13 4.20286e-12 -5.26293

6.26819 31.0899 3.65989e-12
31.0899 47.8657 1.85925e-12
3.65989e-12 1.85925e-12 -9.66089

-39.7256 12.108 2.59265e-12
12.108 12.8446 2.32051e-12
2.59265e-12 2.32051e-12 -9.31343

40.7386 -27.6481 -3.73509e-12
-27.6481 8.35712 4.37754e-12
-3.73509e-12 4.37754e-12 -5.64241

7.53957 20.557 -1.59783e-12
20.557 -47.467 1.74438e-12
-1.59783e-12 1.74438e-12 -16.4819

-3.42141 26.2704 5.05314e-12
26.2704 -31.4864 -6.93667e-13
5.05314e-12 -6.93667e-13 -22.2521

15.7773 -18.5679 1.25529e-13
-18.5679 -30.0138 5.13071e-13
1.25529e-13 5.13071e-13 -8.18349

4.42841 -1.80174 -4.59484e-13
-1.80174 -34.133 -7.87518e-14
-4.59484e-13 -7.87518e-14 -24.4388

-14.3401 -31.8121 -1.25056e-12
-31.8121 -11.9308 -7.99953e-13
-1.25056e-12 -7.99953e-13 -9.05002

56.2189 23.3282 4.43616e-12
23.3282 0.816141 7.00832e-12
4.43616e-12 7.00832e-12 -8.28835

-27.8283 30.1622 -1.24197e-12
30.1622 -9.23649 2.28854e-13
-1.24197e-12 2.28854e-13 -8.80086

-27.0039 29.206 -8.59461e-13
29.206 -9.20182 1.83794e-12
-8.59461e-13 1.83794e-12 -8.67815

28.6286 30.6615 7.48438e-13
30.6615 40.4061 2.51058e-12
7.48438e-13 2.51058e-12 -4.44932

0.343084 27.0853 5.04485e-13
27.0853 -19.8465 -2.71931e-12
5.04485e-13 -2.71931e-12 -11.7773

64.509 3.52522 4.55932e-12
3.52522 -11.8267 -5.12645e-12
4.55932e-12 -5.12645e-12 -10.0187

-14.9 31.8172 -1.35329e-12
31.8172 -20.7988 -1.18897e-12
-1.35329e-12 -1.18897e-12 -12.4478

-37.9448 -12.5996 3.10344e-12
-12.5996 8.1801 2.89901e-12
3.10344e-12 2.89901e-12 -14.023

-0.474933 24.278 -2.16212e-12
24.278 -29.9994 -3.42038e-12
-2.16212e-12 -3.42038e-12 -20.7711

-23.7277 -29.5788 1.37372e-12
-29.5788 -11.935 -1.27809e-12
1.37372e-12 -1.27809e-12 -8.84378

-38.149 -4.8979 -1.33597e-14
-4.8979 18.8467 2.67342e-12
-1.33597e-14 2.67342e-12 -11.7304

69.9457 -24.5568 3.32297e-12
-24.5568 18.0287 -1.76984e-12
3.32297e-12 -1.76984e-12 -7.04452

39.9824 29.6937 3.16902e-12
29.6937 13.4791 5.97803e-12
3.16902e-12 5.97803e-12 -5.21547

-4.29691 14.6968 4.81911e-12
14.6968 60.5722 -2.03689e-13
4.81911e-12 -2.03689e-13 -8.40127

1.61138 -1.13898 -2.99464e-12
-1.13898 -56.1236 -1.82654e-12
-2.99464e-12 -1.82654e-12 -11.2097

9.61414 0.00221286 -3.57077e-12
0.00221286 -44.7548 -1.54028e-12
-3.57077e-12 -1.54028e-12 -8.43858

-31.0794 23.1242 4.37842e-12
23.1242 -4.33737 6.25574e-13
4.37842e-12 6.25574e-13 -8.45902

-34.7624 23.8711 -1.00068e-12
23.8711 -13.1928 1.14949e-12
-1.00068e-12 1.14949e-12 -14.8133

-43.3789 -24.3808 -1.00164e-12
-24.3808 -12.6138 -4.61705e-13
-1.00164e-12 -4.61705e-13 -11.4692

-39.0598 -0.672954 -1.26369e-12
-0.672954 21.0463 -6.51212e-12
-1.26369e-12 -6.51212e-12 -10.4959

-40.8068 25.5905 -3.00071e-12
25.5905 -13.2227 1.34811e-12
-3.00071e-12 1.34811e-12 -11.1728

32.3219 -10.3082 -2.13873e-12
-10.3082 -25.1548 -9.23261e-13
-2.13873e-12 -9.23261e-13 -6.01489

8.70624 -32.8343 -4.11108e-12
-32.8343 22.7977 -2.8925e-12
-4.11108e-12 -2.8925e-12 -6.9926

2.39674 -2.30105 -9.89135e-13
-2.30105 -49.9608 -2.28291e-12
-9.89135e-13 -2.28291e-12 -14.7729

36.7459 -34.5091 2.5698e-12
-34.5091 24.4797 3.44021e-12
2.5698e-12 3.44021e-12 -7.70951

-38.2942 19.0861 -1.76185e-12
19.0861 -7.09353 7.26234e-13
-1.76185e-12 7.26234e-13 -14.4497

7.87068 -26.4789 -1.60523e-12
-26.4789 -27.9951 -2.26308e-12
-1.60523e-12 -2.26308e-12 -10.9694

63.9484 -9.6905 -3.72443e-12
-9.6905 5.67691 7.82781e-13
-3.72443e-12 7.82781e-13 -5.07267

6.04031 -23.1922 1.6378e-12
-23.1922 -35.4683 4.04417e-13
1.6378e-12 4.04417e-13 -17.7361

0.141391 2.35831 -7.21319e-12
2.35831 -56.1743 7.23421e-13
-7.21319e-12 7.23421e-13 -11.5466

-4.06221 -23.3218 2.72612e-12
-23.3218 -23.4118 -2.4647e-12
2.72612e-12 -2.4647e-12 -16.7199

11.0386 -25.8596 -2.13577e-12
-25.8596 -29.4865 -2.87385e-12
-2.13577e-12 -2.87385e-12 -9.73408

10.2013 -8.54637 9.70483e-13
-8.54637 -43.4907 4.63067e-12
9.70483e-13 4.63067e-12 -9.28202

-35.418 -23.0683 1.84149e-12
-23.0683 -12.6462 2.31328e-12
1.84149e-12 2.31328e-12 -15.1033

23.6643 -31.3427 2.42058e-12
-31.3427 5.71192 -1.90603e-12
2.42058e-12 -1.90603e-12 -5.87885

11.0596 -24.5877 -4.67715e-12
-24.5877 -27.4951 3.22971e-12
-4.67715e-12 3.22971e-12 -10.0485

46.6437 10.8647 -1.45069e-12
10.8647 -16.1184 1.80004e-12
-1.45069e-12 1.80004e-12 -6.80048

-14.1862 26.3405 -5.17808e-13
26.3405 -15.6404 1.76748e-13
-5.17808e-13 1.76748e-13 -14.1192

-45.2514 -37.6124 -2.45581e-12
-37.6124 -20.6122 -1.93512e-12
-2.45581e-12 -1.93512e-12 -14.9194

-43.7082 37.2648 2.98724e-12
37.2648 -21.2659 8.26598e-13
2.98724e-12 8.26598e-13 -14.7698

-61.1843 -28.5731 -3.7413e-12
-28.5731 -7.4971 5.04367e-12
-3.7413e-12 5.04367e-12 -15.1999

-58.4153 27.0639 2.59015e-12
27.0639 -6.27172 -2.28114e-12
2.59015e-12 -2.28114e-12 -14.4785

5.60053 -8.52745 -6.99292e-13
-8.52745 -71.0633 -2.3701e-12
-6.99292e-13 -2.3701e-12 -14.71

4.39733 9.27345 -3.09071e-12
9.27345 -68.8321 -4.45125e-13
-3.09071e-12 -4.45125e-13 -14.438

9.02391 -9.84641 -3.40468e-14
-9.84641 -40.8907 -2.1938e-13
-3.40468e-14 -2.1938e-13 -9.61243

-24.3355 32.1156 -1.90929e-12
32.1156 -24.8096 1.1498e-12
-1.90929e-12 1.1498e-12 -21.145

-25.5228 -32.8535 -3.52903e-13
-32.8535 -25.0956 -4.0132e-12
-3.52903e-13 -4.0132e-12 -21.4692

-53.919 16.0684 -5.40457e-13
16.0684 3.40139 2.06324e-12
-5.40457e-13 2.06324e-12 -21.4026

-52.4199 -15.8008 -5.98188e-13
-15.8008 3.29673 -2.13785e-12
-5.98188e-13 -2.13785e-12 -21.0759

6.11179 -3.74812 -1.77547e-12
-3.74812 -43.9249 -1.73935e-12
-1.77547e-12 -1.73935e-12 -25.7645

6.9179 3.61087 3.75167e-12
3.61087 -46.3483 -1.16795e-12
3.75167e-12 -1.16795e-12 -26.1409

-15.627 9.83715 -5.20547e-12
9.83715 46.2632 -2.99849e-12
-5.20547e-12 -2.99849e-12 -5.84864

-22.919 -24.7745 -1.42819e-12
-24.7745 -14.5525 1.31302e-12
-1.42819e-12 1.31302e-12 -10.3304

-56.6031 -36.3872 1.86229e-12
-36.3872 -14.5326 -9.91799e-15
1.86229e-12 -9.91799e-15 -13.4376

33.3588 -4.66437 -2.26545e-12
-4.66437 -19.848 -1.50287e-13
-2.26545e-12 -1.50287e-13 -3.94581

3.43323 -16.6942 -1.01622e-12
-16.6942 -52.6281 6.4689e-13
-1.01622e-12 6.4689e-13 -21.5325

3.67437 16.1752 8.20381e-13
16.1752 -51.8838 3.07251e-12
8.20381e-13 3.07251e-12 -21.4057

6.55563 0.121876 -2.45759e-12
0.121876 -76.7543 -6.03206e-12
-2.45759e-12 -6.03206e-12 -13.3045

-7.57052 23.3759 1.75297e-12
23.3759 39.9362 6.75016e-14
1.75297e-12 6.75016e-14 -6.88593

-56.8888 36.1712 -7.88184e-13
36.1712 -14.0112 2.03112e-12
-7.88184e-13 2.03112e-12 -13.3893

-39.7948 -23.3959 -1.03103e-12
-23.3959 2.56146 -4.18924e-13
-1.03103e-12 -4.18924e-13 -8.80149

37.1171 23.3534 -2.47387e-12
23.3534 -8.61403 1.00838e-12
-2.47387e-12 1.00838e-12 -5.75929

4.7349 23.8584 -4.24905e-12
23.8584 -38.226 -2.6894e-12
-4.24905e-12 -2.6894e-12 -18.9857

24.0135 -31.3145 4.16852e-13
-31.3145 6.40783 2.51887e-12
4.16852e-13 2.51887e-12 -5.64882

2.43069 -3.23126 3.54679e-13
-3.23126 -48.37 -1.21059e-12
3.54679e-13 -1.21059e-12 -14.7429

-60.4571 -34.1607 2.91019e-12
-34.1607 -14.3498 -1.69775e-12
2.91019e-12 -1.69775e-12 -14.0313

-17.4538 8.3202 1.59373e-12
8.3202 45.6925 2.24413e-12
1.59373e-12 2.24413e-12 -5.7817

-9.46983 21.8123 7.15576e-13
21.8123 40.4256 1.50043e-12
7.15576e-13 1.50043e-12 -6.65442

58.6047 35.7768 -6.06448e-12
35.7768 37.0885 -1.1724e-13
-6.06448e-12 -1.1724e-13 -6.91609

70.4856 1.57881 -1.91847e-12
1.57881 -5.54383 8.01507e-13
-1.91847e-12 8.01507e-13 -10.3744

-30.7594 -22.8047 1.72455e-12
-22.8047 -13.3567 -2.19145e-12
1.72455e-12 -2.19145e-12 -14.4663

32.8416 31.1847 -7.89887e-13
31.1847 69.7957 -4.48589e-12
-7.89887e-13 -4.48589e-12 -6.6795

-19.377 23.6104 6.06626e-13
23.6104 7.68684 -1.46253e-13
6.06626e-13 -1.46253e-13 -5.51398

47.6379 -5.34971 1.86044e-12
-5.34971 -17.4345 2.63671e-12
1.86044e-12 2.63671e-12 -6.82243

33.2199 11.2164 1.54306e-12
11.2164 -23.6382 2.56447e-12
1.54306e-12 2.56447e-12 -6.01464

6.25416 0.429897 -7.45478e-13
0.429897 -77.5515 2.04634e-12
-7.45478e-13 2.04634e-12 -13.4502

-58.9352 -29.0308 -2.14414e-12
-29.0308 -6.28817 1.8859e-13
-2.14414e-12 1.8859e-13 -14.6974

-28.3318 -6.31866 3.55027e-12
-6.31866 -11.3574 2.59644e-13
3.55027e-12 2.59644e-13 -51.5866

-44.6978 37.4111 -1.00749e-12
37.4111 -20.8112 1.22569e-12
-1.00749e-12 1.22569e-12 -14.7738

93.7926 1.66333 1.5774e-12
1.66333 16.6552 -6.14538e-12
1.5774e-12 -6.14538e-12 -6.04316

10.036 -32.7879 -2.30808e-12
-32.7879 21.3109 1.53596e-12
-2.30808e-12 1.53596e-12 -6.80887

-56.9356 36.6126 -2.04925e-12
36.6126 -14.5711 -1.78909e-12
-2.04925e-12 -1.78909e-12 -13.5055

-35.0802 -11.134 4.43109e-13
-11.134 19.1772 -1.53951e-12
4.43109e-13 -1.53951e-12 -8.31707

-5.47839 -25.5154 8.73375e-13
-25.5154 37.3507 -1.77636e-13
8.73375e-13 -1.77636e-13 -6.98769

-58.4517 28.8298 8.22971e-13
28.8298 -6.27154 3.63561e-13
8.22971e-13 3.63561e-13 -14.6145

28.496 -26.1426 -1.7053e-13
-26.1426 -4.91319 -1.44477e-13
-1.7053e-13 -1.44477e-13 -4.6979

-21.1695 10.4836 -3.4263e-12
10.4836 -18.5589 -2.06662e-11
-3.4263e-12 -2.06662e-11 -51.6822

3.43225 30.8729 -1.90189e-12
30.8729 27.1627 -2.65032e-12
-1.90189e-12 -2.65032e-12 -6.73366

6.14039 8.12655 -4.11123e-12
8.12655 -72.297 3.94825e-12
-4.11123e-12 3.94825e-12 -14.9846

-11.546 30.1908 -6.4837e-13
30.1908 -20.6032 -3.16724e-12
-6.4837e-13 -3.16724e-12 -11.5495

-30.7982 23.3323 7.62797e-13
23.3323 -5.09992 -2.81878e-12
7.62797e-13 -2.81878e-12 -8.46506

-25.8636 -32.4882 1.54513e-12
-32.4882 -24.1123 1.68708e-12
1.54513e-12 1.68708e-12 -21.5586

9.20515 -23.1906 1.10134e-12
-23.1906 -27.9227 1.66149e-12
1.10134e-12 1.66149e-12 -11.4261

-37.6612 10.4702 1.3252e-12
10.4702 8.92894 4.00509e-12
1.3252e-12 4.00509e-12 -25.3305

-23.0411 -23.4342 6.34781e-12
-23.4342 4.95233 -9.0535e-13
6.34781e-12 -9.0535e-13 -6.26371

88.8054 -9.70811 1.90662e-12
-9.70811 10.807 -1.8554e-12
1.90662e-12 -1.8554e-12 -10.031

84.0454 -14.2776 1.58688e-12
-14.2776 2.81223 2.63493e-12
1.58688e-12 2.63493e-12 -13.197

5.88757 16.5298 -1.42701e-12
16.5298 -33.9324 3.29514e-13
-1.42701e-12 3.29514e-13 -22.3757

-16.4221 22.5023 -8.68638e-13
22.5023 16.2279 -4.14306e-12
-8.68638e-13 -4.14306e-12 -5.08605

-3.91265 29.1637 2.00551e-12
29.1637 -12.2304 7.47846e-13
2.00551e-12 7.47846e-13 -8.3969

50.9936 0.688684 -4.50721e-12
0.688684 -6.53273 -6.7707e-13
-4.50721e-12 -6.7707e-13 -3.63501

-48.1414 6.57096 -3.02572e-12
6.57096 14.786 -3.25665e-13
-3.02572e-12 -3.25665e-13 -18.9524

10.1157 16.5407 2.57276e-12
16.5407 -36.0802 1.23901e-12
2.57276e-12 1.23901e-12 -9.13598

-4.50453 -25.7618 -3.67824e-12
-25.7618 35.5558 6.40673e-13
-3.67824e-12 6.40673e-13 -6.74766

-39.192 -2.57225 3.90456e-12
-2.57225 21.5043 -2.04103e-12
3.90456e-12 -2.04103e-12 -10.6698

-7.9915 13.3656 4.44208e-12
13.3656 44.4059 -1.92912e-12
4.44208e-12 -1.92912e-12 -3.94494

3.73452 -29.7137 -2.46677e-12
-29.7137 -17.3654 9.49759e-13
-2.46677e-12 9.49759e-13 -8.9211

21.4258 -29.9483 -7.96992e-13
-29.9483 14.7559 -1.95162e-12
-7.96992e-13 -1.95162e-12 -3.91851

6.88042 31.6237 -3.73864e-12
31.6237 25.4017 -1.4199e-12
-3.73864e-12 -1.4199e-12 -6.82881

2.78524 -15.0199 4.30234e-12
-15.0199 -39.2658 3.56211e-12
4.30234e-12 3.56211e-12 -63.3081

-46.1596 2.0415 -2.32525e-12
2.0415 11.4613 3.98437e-12
-2.32525e-12 3.98437e-12 -22.7564

-55.4439 20.2996 -1.49495e-12
20.2996 3.09533 1.85422e-12
-1.49495e-12 1.85422e-12 -22.9156

5.91634 15.4386 -4.87269e-12
15.4386 -58.8177 -4.30174e-13
-4.87269e-12 -4.30174e-13 -23.0357

-18.9219 -26.1891 2.17308e-12
-26.1891 -12.9137 3.81769e-12
2.17308e-12 3.81769e-12 -9.65321

41.3466 17.9577 -2.76993e-12
17.9577 -6.27184 3.57847e-12
-2.76993e-12 3.57847e-12 -3.86205

-44.6823 -5.29371 1.81971e-12
-5.29371 4.53837 2.85283e-12
1.81971e-12 2.85283e-12 -39.1435

7.49933 -18.988 4.21145e-12
-18.988 -39.8947 -2.57394e-12
4.21145e-12 -2.57394e-12 -11.6603

30.2912 -15.5992 7.74492e-13
-15.5992 -20.5095 9.01353e-13
7.74492e-13 9.01353e-13 -4.80572

-9.63926 11.6036 -1.81188e-13
11.6036 44.3197 9.11863e-14
-1.81188e-13 9.11863e-14 -3.85971

8.3335 -25.7349 -3.18146e-12
-25.7349 32.9921 -1.94452e-12
-3.18146e-12 -1.94452e-12 -3.63363

-10.2444 -25.2738 2.35071e-12
-25.2738 -19.1008 -3.76676e-12
2.35071e-12 -3.76676e-12 -23.1743

17.0048 31.9604 1.79471e-12
31.9604 11.1969 -7.22385e-14
1.79471e-12 -7.22385e-14 -5.747

-1.06918 -25.1345 9.7374e-13
-25.1345 -30.763 4.94419e-13
9.7374e-13 4.94419e-13 -20.8913

48.0658 2.59743 2.66098e-12
2.59743 -8.41061 -2.36552e-13
2.66098e-12 -2.36552e-13 -3.53221

6.55234 -28.9313 -3.84877e-13
-28.9313 72.0518 -1.13687e-12
-3.84877e-13 -1.13687e-12 -14.5516

21.7914 -29.2317 4.31773e-12
-29.2317 13.9634 7.71531e-13
4.31773e-12 7.71531e-13 -3.93089

35.3516 32.1598 -8.47914e-13
32.1598 74.1356 7.86334e-13
-8.47914e-13 7.86334e-13 -5.44177

-45.2838 -11.8767 -7.83838e-12
-11.8767 13.922 2.17663e-12
-7.83838e-12 2.17663e-12 -15.3265

-14.4215 -13.8217 1.09098e-12
-13.8217 43.3828 2.359e-12
1.09098e-12 2.359e-12 -5.67331

-19.2424 -23.9872 -8.8615e-12
-23.9872 -19.8302 -5.45593e-12
-8.8615e-12 -5.45593e-12 -64.2498

2.43769 23.7715 -3.33304e-12
23.7715 36.0071 3.50771e-12
-3.33304e-12 3.50771e-12 -3.71166

-15.1825 -32.7263 5.06262e-14
-32.7263 -21.1194 -3.24777e-12
5.06262e-14 -3.24777e-12 -14.3132

-14.5662 -11.9634 3.50335e-12
-11.9634 45.5311 -1.95399e-13
3.50335e-12 -1.95399e-13 -5.73949

7.83551 -19.1168 3.04438e-12
-19.1168 -43.1221 -1.71981e-12
3.04438e-12 -1.71981e-12 -12.6323

6.5452 23.8777 -3.10152e-12
23.8777 35.1716 9.00021e-14
-3.10152e-12 9.00021e-14 -3.44261

23.1736 -4.97554 -5.88566e-13
-4.97554 -30.6769 5.07631e-12
-5.88566e-13 5.07631e-12 -5.36491

36.9708 -30.3433 -2.52361e-12
-30.3433 122.629 -5.18459e-12
-2.52361e-12 -5.18459e-12 -6.24147

-26.87 21.0145 -6.53107e-13
21.0145 8.43416 1.73136e-12
-6.53107e-13 1.73136e-12 -7.13063

40.3388 -19.3238 3.61785e-12
-19.3238 -11.3733 -9.29331e-13
3.61785e-12 -9.29331e-13 -5.72652

6.52796 -21.4458 4.77574e-12
-21.4458 -45.5579 2.5547e-12
4.77574e-12 2.5547e-12 -24.9713

20.705 31.7548 1.79767e-12
31.7548 9.55713 -2.60532e-13
1.79767e-12 -2.60532e-13 -5.80655

13.9187 -29.9724 -2.71309e-12
-29.9724 -7.60634 1.57977e-12
-2.71309e-12 1.57977e-12 -5.94483

6.75499 20.8855 -3.40291e-12
20.8855 -27.7927 5.09814e-13
-3.40291e-12 5.09814e-13 -11.1091

-38.2743 -28.076 -1.06389e-12
-28.076 -14.038 -1.13724e-12
-1.06389e-12 -1.13724e-12 -11.0614

8.64594 -26.2259 -5.03301e-13
-26.2259 31.1711 -3.25665e-13
-5.03301e-13 -3.25665e-13 -3.63566

15.3311 28.9818 4.24786e-12
28.9818 19.1538 -2.62546e-12
4.24786e-12 -2.62546e-12 -3.88346

28.6405 26.1919 -1.70767e-12
26.1919 -5.63393 -4.58892e-14
-1.70767e-12 -4.58892e-14 -4.8025

7.91454 -14.6104 3.20336e-12
-14.6104 -36.878 1.9688e-13
3.20336e-12 1.9688e-13 -13.9914

-6.84211 -16.6181 -1.44477e-13
-16.6181 41.3413 2.46914e-12
-1.44477e-13 2.46914e-12 -3.9599

17.4407 -17.5684 -5.76724e-13
-17.5684 -30.9998 -3.43725e-13
-5.76724e-13 -3.43725e-13 -7.10566

19.8418 16.9088 -2.1713e-12
16.9088 -31.6652 -3.04586e-12
-2.1713e-12 -3.04586e-12 -7.335

-33.68 -9.38637 4.29123e-12
-9.38637 8.75613 -5.62987e-12
4.29123e-12 -5.62987e-12 -23.9922

43.432 -13.4303 4.60432e-12
-13.4303 -8.36954 -2.14939e-12
4.60432e-12 -2.14939e-12 -3.80464

-19.3794 0.594091 -4.34482e-12
0.594091 43.1458 -2.8848e-12
-4.34482e-12 -2.8848e-12 -4.77595

28.0561 18.5553 -9.53312e-13
18.5553 -18.1997 -1.13006e-12
-9.53312e-13 -1.13006e-12 -4.7502

25.5285 27.6046 2.36374e-12
27.6046 -3.77617 4.13714e-12
2.36374e-12 4.13714e-12 -4.77165

-6.71592 -15.6866 1.40451e-12
-15.6866 43.799 -3.71259e-12
1.40451e-12 -3.71259e-12 -3.84842

-19.9074 -1.20228 9.62563e-13
-1.20228 42.1283 -1.12503e-13
9.62563e-13 -1.12503e-13 -4.68751

-5.47323 29.1344 8.05282e-14
29.1344 -23.6471 -1.11851e-12
8.05282e-14 -1.11851e-12 -16.7969

-37.2743 -10.9223 -5.03301e-15
-10.9223 21.6799 3.30994e-13
-5.03301e-15 3.30994e-13 -7.83043

27.1434 -26.7159 -2.1938e-12
-26.7159 -5.53126 3.46745e-12
-2.1938e-12 3.46745e-12 -4.94469

40.7194 21.3331 -7.89887e-13
21.3331 -8.37085 -1.01252e-13
-7.89887e-13 -1.01252e-13 -5.46802

12.378 23.6655 -4.56524e-13
23.6655 -27.1277 1.08417e-12
-4.56524e-13 1.08417e-12 -8.66732

-37.7971 5.471 -1.44862e-12
5.471 23.3114 6.35344e-13
-1.44862e-12 6.35344e-13 -8.59776

18.5929 29.0663 3.47515e-12
29.0663 17.3777 -9.42061e-13
3.47515e-12 -9.42061e-13 -3.94754

-9.98872 22.9639 -1.06907e-12
22.9639 -14.9136 6.30133e-12
-1.06907e-12 6.30133e-12 -24.0254

68.3183 -59.693 3.70903e-12
-59.693 36.3361 -9.11508e-12
3.70903e-12 -9.11508e-12 -23.0103

17.5307 -25.0483 4.14779e-12
-25.0483 -17.9926 8.43473e-13
4.14779e-12 8.43473e-13 -6.41811

10.0581 7.07008 3.92782e-12
7.07008 82.5522 -1.00897e-12
3.92782e-12 -1.00897e-12 -7.1654

11.9201 -28.8899 -1.6076e-12
-28.8899 -3.88185 -1.63602e-12
-1.6076e-12 -1.63602e-12 -5.16627

-66.9443 -52.702 -8.40809e-13
-52.702 143.254 -7.49386e-12
-8.40809e-13 -7.49386e-12 -49.6681

-68.3877 51.4527 5.92119e-14
51.4527 142.541 -3.67587e-12
5.92119e-14 -3.67587e-12 -49.8572

19.5716 117.157 -1.98005e-12
117.157 64.1318 1.87583e-12
-1.98005e-12 1.87583e-12 -48.3586

20.5305 -117.099 -2.60532e-14
-117.099 61.0286 1.35477e-12
-2.60532e-14 1.35477e-12 -48.7234

157.748 -1.3634 -1.78583e-12
-1.3634 -79.1868 -7.84095e-16
-1.78583e-12 -7.84095e-16 -48.9103

110.329 -91.1273 -4.59958e-12
-91.1273 -36.6889 1.83794e-12
-4.59958e-12 1.83794e-12 -50.3049

110.382 91.6552 -3.74219e-13
91.6552 -36.4991 -2.7048e-12
-3.74219e-13 -2.7048e-12 -50.1777

7.84667 14.3306 -4.20404e-14
14.3306 -42.6818 1.86902e-12
-4.20404e-14 1.86902e-12 -15.0792

-11.7906 25.5362 1.39118e-12
25.5362 -27.4048 -8.24526e-14
1.39118e-12 -8.24526e-14 -35.1367

12.4381 6.6062 1.13924e-12
6.6062 -40.5345 -5.12501e-12
1.13924e-12 -5.12501e-12 -8.253

26.2548 21.7851 -1.33523e-12
21.7851 -19.5294 -8.86698e-13
-1.33523e-12 -8.86698e-13 -5.85139

-21.231 17.7449 5.3831e-12
17.7449 29.8686 9.12455e-13
5.3831e-12 9.12455e-13 -6.16292

22.5303 28.8993 2.51473e-12
28.8993 -0.775878 6.4541e-14
2.51473e-12 6.4541e-14 -4.73128

4.05518 -29.6639 -2.24058e-12
-29.6639 -17.4666 7.93143e-13
-2.24058e-12 7.93143e-13 -8.50481

25.9953 28.0286 -1.46017e-12
28.0286 -2.30214 1.72899e-12
-1.46017e-12 1.72899e-12 -4.73168

-19.348 -2.84139 2.63893e-12
-2.84139 43.0718 -2.03926e-12
2.63893e-12 -2.03926e-12 -4.7705

-13.4111 -26.0971 -1.62093e-12
-26.0971 -25.8385 2.11683e-12
-1.62093e-12 2.11683e-12 -35.5197

-19.843 -4.86259 -3.21476e-12
-4.86259 41.7768 -9.88839e-13
-3.21476e-12 -9.88839e-13 -4.74437

-1.82711 23.0166 -4.9738e-14
23.0166 -24.3772 -3.12639e-13
-4.9738e-14 -3.12639e-13 -16.1499

44.9831 26.8715 3.51008e-12
26.8715 8.111 9.01205e-13
3.51008e-12 9.01205e-13 -5.36952

-52.5079 -13.2161 -4.97039e-12
-13.2161 0.150238 2.65151e-12
-4.97039e-12 2.65151e-12 -20.6171

20.2806 13.7282 -2.13044e-12
13.7282 -31.1425 9.8499e-13
-2.13044e-12 9.8499e-13 -7.04354

13.7006 -29.9883 1.06818e-12
-29.9883 -6.69205 -7.1377e-12
1.06818e-12 -7.1377e-12 -5.83576

29.6311 -24.7141 1.80833e-12
-24.7141 -7.87443 5.62187e-12
1.80833e-12 5.62187e-12 -4.82565

5.76444 -16.0751 3.89644e-12
-16.0751 -32.3342 -1.50161e-12
3.89644e-12 -1.50161e-12 -22.2551

12.6276 27.9295 -5.06735e-12
27.9295 -13.6394 -6.27646e-14
-5.06735e-12 -6.27646e-14 -6.42009

23.309 23.978 -4.4024e-12
23.978 -17.944 3.60245e-12
-4.4024e-12 3.60245e-12 -5.9629

-31.0778 -2.7929 1.63303e-12
-2.7929 30.1319 -9.58048e-13
1.63303e-12 -9.58048e-13 -6.39897

-28.6304 5.87345 -9.98719e-13
5.87345 33.3217 -3.67055e-12
-9.98719e-13 -3.67055e-12 -6.05987

34.549 2.64678 -4.1922e-13
2.64678 -26.1846 -8.13978e-13
-4.1922e-13 -8.13978e-13 -6.14268

50.6522 -7.28989 -3.68298e-12
-7.28989 -14.0828 1.6526e-12
-3.68298e-12 1.6526e-12 -6.77917

11.0409 30.4854 1.85925e-13
30.4854 -4.78818 8.08834e-13
1.85925e-13 8.08834e-13 -5.96672

17.4674 -26.156 3.21639e-12
-26.156 -17.4556 -6.04198e-12
3.21639e-12 -6.04198e-12 -6.35223

-0.0842121 -21.2545 4.13595e-12
-21.2545 -27.9563 4.01457e-12
4.13595e-12 4.01457e-12 -17.1663

4.93861 -31.6345 2.48216e-12
-31.6345 4.86105 1.6005e-12
2.48216e-12 1.6005e-12 -5.9356

-8.22788 -27.7864 -2.67105e-12
-27.7864 18.5788 -1.79827e-12
-2.67105e-12 -1.79827e-12 -6.13023

-1.65081 29.888 2.67105e-12
29.888 10.4472 -5.75244e-12
2.67105e-12 -5.75244e-12 -5.80065

-26.0175 -9.57816 -2.60166e-12
-9.57816 32.9701 2.35959e-12
-2.60166e-12 2.35959e-12 -5.78754

-31.3237 -1.54494 5.13811e-13
-1.54494 31.651 8.94692e-13
5.13811e-13 8.94692e-13 -6.22381

-38.9162 5.74788 7.67553e-13
5.74788 23.9466 1.64491e-12
7.67553e-13 1.64491e-12 -9.18319

-17.219 -21.0897 -1.02614e-12
-21.0897 26.5712 -4.15075e-13
-1.02614e-12 -4.15075e-13 -5.77231

13.0716 24.1117 2.71309e-12
24.1117 -28.1017 -1.05397e-13
2.71309e-12 -1.05397e-13 -9.20506

21.5552 -9.58998 -3.9216e-12
-9.58998 -31.7074 1.80345e-12
-3.9216e-12 1.80345e-12 -6.59839

-27.1545 7.46543 1.81412e-12
7.46543 34.3349 5.1769e-12
1.81412e-12 5.1769e-12 -5.87427

-35.2365 -9.70118 2.75428e-14
-9.70118 22.3137 -2.67046e-13
2.75428e-14 -2.67046e-13 -8.18369

-29.1565 -16.3311 -1.26077e-12
-16.3311 19.3468 7.05865e-12
-1.26077e-12 7.05865e-12 -6.66205

36.9684 -8.23943 1.81662e-12
-8.23943 -20.2377 -6.94556e-13
1.81662e-12 -6.94556e-13 -5.10179

-14.8099 -32.3468 -1.18749e-12
-32.3468 -21.6275 2.40134e-12
-1.18749e-12 2.40134e-12 -12.9931

-22.8249 9.32122 5.32448e-12
9.32122 33.3237 4.48885e-12
5.32448e-12 4.48885e-12 -4.78908

-0.751236 -18.2128 4.34112e-12
-18.2128 -35.1572 -2.77778e-12
4.34112e-12 -2.77778e-12 -33.2765

4.93187 24.8235 2.63552e-12
24.8235 75.3086 6.22909e-12
2.63552e-12 6.22909e-12 -14.3191

-14.1418 -26.6265 -4.73932e-12
-26.6265 -16.3506 8.4451e-13
-4.73932e-12 8.4451e-13 -14.6407

-6.35709 -30.2029 7.92255e-13
-30.2029 -23.6028 -1.4125e-12
7.92255e-13 -1.4125e-12 -17.0877

-31.2716 -0.701186 4.92347e-13
-0.701186 31.5007 1.53063e-12
4.92347e-13 1.53063e-12 -6.34867

28.488 -16.6229 -4.65228e-12
-16.6229 -18.0577 6.35344e-12
-4.65228e-12 6.35344e-12 -4.43829

-37.8056 12.8417 8.61792e-13
12.8417 11.1651 4.51372e-12
8.61792e-13 4.51372e-12 -10.9892

-8.86122 -3.18073 -6.27224e-12
-3.18073 111.054 -1.91136e-12
-6.27224e-12 -1.91136e-12 -22.6713

-31.6035 14.274 -1.21288e-12
14.274 21.3505 -8.73375e-13
-1.21288e-12 -8.73375e-13 -7.12474

12.4217 -29.49 3.68298e-12
-29.49 -2.51991 -1.79412e-12
3.68298e-12 -1.79412e-12 -4.92851

33.6326 25.1063 3.61666e-12
25.1063 124.033 2.77349e-12
3.61666e-12 2.77349e-12 -6.21384

-13.5021 26.0971 5.39968e-12
26.0971 -19.0971 8.43932e-12
5.39968e-12 8.43932e-12 -58.8923

-9.5525 -27.8063 8.55908e-13
-27.8063 -22.8064 -3.53554e-12
8.55908e-13 -3.53554e-12 -59.5426

-2.86621 -30.4198 -4.20523e-12
-30.4198 -7.32178 -2.99346e-12
-4.20523e-12 -2.99346e-12 -7.28767

3.85984 -31.1612 6.93549e-12
-31.1612 5.63529 -3.56396e-12
6.93549e-12 -3.56396e-12 -6.06282

25.1523 20.828 -9.56864e-13
20.828 -17.0352 -5.29177e-12
-9.56864e-13 -5.29177e-12 -4.97718

31.8055 15.0066 5.57006e-12
15.0066 -23.3021 3.57433e-12
5.57006e-12 3.57433e-12 -5.95511

-9.48811 3.08295 -7.65299e-12
3.08295 -9.83014 3.09538e-12
-7.65299e-12 3.09538e-12 -80.9329

-5.54858 -6.99924 -9.87854e-12
-6.99924 -14.041 -1.20712e-11
-9.87854e-12 -1.20712e-11 -80.2856

11.7486 4.82427 -1.65971e-12
4.82427 -43.2061 -1.29733e-12
-1.65971e-12 -1.29733e-12 -7.82788

-35.0574 6.73127 1.73269e-12
6.73127 24.3754 2.01498e-12
1.73269e-12 2.01498e-12 -7.56428

-36.1114 6.73635 2.61432e-12
6.73635 24.4327 3.28626e-13
2.61432e-12 3.28626e-13 -8.30925

74.5887 58.636 -2.53664e-12
58.636 34.174 -3.31587e-14
-2.53664e-12 -3.31587e-14 -21.8726

-6.9206 -28.2007 -2.68171e-12
-28.2007 16.8752 -3.10862e-13
-2.68171e-12 -3.10862e-13 -6.11713

8.17194 17.9744 2.0357e-12
17.9744 -44.8759 -1.26625e-12
2.0357e-12 -1.26625e-12 -12.8969

32.7036 9.53996 1.49214e-13
9.53996 -19.0811 3.50904e-12
1.49214e-13 3.50904e-12 -4.07479

3.3874 -26.7241 6.15804e-14
-26.7241 13.484 -4.67774e-14
6.15804e-14 -4.67774e-14 -3.82742

26.2377 -20.2383 -3.57107e-12
-20.2383 -20.324 3.39491e-12
-3.57107e-12 3.39491e-12 -5.86365

65.3926 60.2339 -8.78704e-13
60.2339 34.2906 -9.29627e-13
-8.78704e-13 -9.29627e-13 -23.8674

-13.2427 31.0693 -2.38061e-12
31.0693 -16.882 -3.33541e-12
-2.38061e-12 -3.33541e-12 -12.7861

-18.6053 -19.7868 -2.59999e-12
-19.7868 28.4151 4.62445e-13
-2.59999e-12 4.62445e-13 -5.96996

11.1742 28.8584 -1.1647e-12
28.8584 -13.3237 -5.46822e-12
-1.1647e-12 -5.46822e-12 -6.43654

-31.8701 -4.14504 2.05391e-13
-4.14504 30.1481 -2.48394e-12
2.05391e-13 -2.48394e-12 -6.35825

-14.5971 19.6098 -4.25734e-13
19.6098 27.1855 1.89478e-14
-4.25734e-13 1.89478e-14 -4.41915

7.47903 30.5197 2.71309e-12
30.5197 -1.67083 -3.43843e-12
2.71309e-12 -3.43843e-12 -5.66092

-9.34555 -22.474 -2.28617e-12
-22.474 23.1494 -5.38769e-12
-2.28617e-12 -5.38769e-12 -4.1759

4.59019 -27.3534 1.73432e-12
-27.3534 11.449 -1.0143e-12
1.73432e-12 -1.0143e-12 -3.93893

24.2724 11.2573 -2.71827e-12
11.2573 102.082 -5.21065e-14
-2.71827e-12 -5.21065e-14 -12.4047

37.4672 -33.4574 9.68707e-13
-33.4574 69.2873 -1.37372e-13
9.68707e-13 -1.37372e-13 -5.70318

-25.3363 -11.6909 -1.00053e-12
-11.6909 31.3686 1.34056e-12
-1.00053e-12 1.34056e-12 -5.64883

16.0964 26.4852 3.29218e-13
26.4852 -15.5026 4.14483e-14
3.29218e-13 4.14483e-14 -6.21782

4.95545 29.4788 1.92498e-12
29.4788 1.63669 -5.28466e-12
1.92498e-12 -5.28466e-12 -4.9904

-9.85533 -21.4346 -3.35583e-12
-21.4346 25.1212 9.05942e-13
-3.35583e-12 9.05942e-13 -4.03368

-21.6356 -11.7828 5.66865e-12
-11.7828 32.0825 3.54502e-12
5.66865e-12 3.54502e-12 -4.63764

10.4627 28.4104 2.39571e-12
28.4104 -0.156706 -5.57776e-13
2.39571e-12 -5.57776e-13 -4.67331

-21.8477 -13.8783 9.14232e-13
-13.8783 29.4677 -2.07123e-12
9.14232e-13 -2.07123e-12 -4.8476

6.9584 27.856 5.43624e-12
27.856 73.0869 -8.02913e-12
5.43624e-12 -8.02913e-12 -14.3222

-45.8319 -4.04104 -7.56802e-13
-4.04104 14.0479 2.19676e-13
-7.56802e-13 2.19676e-13 -19.9647

0.876654 31.0286 -4.02049e-13
31.0286 7.52007 -1.62418e-12
-4.02049e-13 -1.62418e-12 -6.08958

9.71912 14.9016 1.73787e-12
14.9016 -36.4298 3.38988e-12
1.73787e-12 3.38988e-12 -10.9856

9.92842 -15.9279 3.57285e-12
-15.9279 -39.4109 -1.7657e-12
3.57285e-12 -1.7657e-12 -13.0693

85.6157 -24.2053 -1.72899e-13
-24.2053 7.63567 -3.58824e-13
-1.72899e-13 -3.58824e-13 -12.958

-23.2076 -21.2677 -3.78719e-12
-21.2677 10.5139 -1.72188e-12
-3.78719e-12 -1.72188e-12 -6.16576

-16.6015 26.6989 2.22548e-12
26.6989 1.77833 4.46162e-12
2.22548e-12 4.46162e-12 -6.58824

-26.2009 -21.7278 -2.81316e-12
-21.7278 -5.3658 -4.53215e-12
-2.81316e-12 -4.53215e-12 -23.8666

-41.5956 14.1058 -7.51784e-12
14.1058 -3.55986 4.207e-12
-7.51784e-12 4.207e-12 -64.1242

-0.893604 9.4453 -3.42792e-12
9.4453 -44.2578 4.05809e-12
-3.42792e-12 4.05809e-12 -64.2257

-20.3838 32.7052 1.13953e-12
32.7052 -23.2028 1.70634e-12
1.13953e-12 1.70634e-12 -24.3291

-11.4114 26.0013 -6.063e-12
26.0013 22.6042 4.52557e-12
-6.063e-12 4.52557e-12 -5.92621

16.0387 26.662 9.74036e-13
26.662 -17.288 8.941e-14
9.74036e-13 8.941e-14 -6.55032

30.4289 45.1875 -3.37745e-12
45.1875 47.556 -2.65032e-12
-3.37745e-12 -2.65032e-12 -15.1952

-44.8874 -11.343 -2.04814e-12
-11.343 -1.80792 3.22764e-12
-2.04814e-12 3.22764e-12 -61.6805

-8.29812 -3.43256 2.19181e-11
-3.43256 -12.7539 -1.05581e-11
2.19181e-11 -1.05581e-11 -77.2232

-14.6902 -0.209712 -4.38701e-12
-0.209712 -6.41854 6.70293e-12
-4.38701e-12 6.70293e-12 -77.3674

27.666 -53.8041 3.71614e-12
-53.8041 71.1511 -3.76351e-12
3.71614e-12 -3.76351e-12 -24.3892

-11.6905 -11.5997 -2.6598e-12
-11.5997 -16.2048 4.97054e-12
-2.6598e-12 4.97054e-12 -37.4294

-32.61 8.81258 -1.60886e-12
8.81258 -9.41868 -6.72706e-12
-1.60886e-12 -6.72706e-12 -49.539

18.2562 -26.2001 3.72739e-12
-26.2001 -19.5472 -4.76478e-12
3.72739e-12 -4.76478e-12 -6.50708

-39.4304 1.01078 -6.00867e-12
1.01078 11.9803 4.78136e-12
-6.00867e-12 4.78136e-12 -19.7217

-30.2032 -20.2684 7.85609e-12
-20.2684 6.30501 -1.64254e-12
7.85609e-12 -1.64254e-12 -7.21663

10.5364 6.25539 -1.97176e-13
6.25539 -52.3901 8.48506e-13
-1.97176e-13 8.48506e-13 -9.64015

-49.8128 15.5963 4.42859e-13
15.5963 10.1651 1.56023e-12
4.42859e-13 1.56023e-12 -13.5313

-40.2843 7.19145 1.50859e-12
7.19145 16.5414 -2.48039e-12
1.50859e-12 -2.48039e-12 -13.7744

16.4049 20.3933 1.81307e-12
20.3933 -25.8416 2.70391e-12
1.81307e-12 2.70391e-12 -7.60812

-9.10027 -3.11391 -1.72425e-12
-3.11391 108.398 4.08799e-12
-1.72425e-12 4.08799e-12 -23.1016

-3.32057 -27.6244 5.21065e-14
-27.6244 -3.62965 4.36747e-12
5.21065e-14 4.36747e-12 -5.83052

-7.33522 -26.1169 -5.0863e-13
-26.1169 -14.0823 -2.02534e-12
-5.0863e-13 -2.02534e-12 -9.81107

-14.1986 -31.4837 2.73144e-12
-31.4837 -21.7779 1.32946e-12
2.73144e-12 1.32946e-12 -12.7559

90.7303 32.7506 6.53699e-13
32.7506 20.9069 4.36747e-12
6.53699e-13 4.36747e-12 -16.5057

-23.1165 -20.1162 5.75244e-13
-20.1162 -17.3852 6.68946e-13
5.75244e-13 6.68946e-13 -44.4256

72.6321 54.3237 -6.8899e-12
54.3237 91.6428 9.09495e-13
-6.8899e-12 9.09495e-13 -6.14195

-36.2155 -21.4393 -1.25722e-12
-21.4393 -6.79682 4.08621e-12
-1.25722e-12 4.08621e-12 -13.0433

15.034 14.6505 1.71892e-12
14.6505 -37.7523 -3.93345e-12
1.71892e-12 -3.93345e-12 -8.17921

44.5734 -14.5729 1.9907e-12
-14.5729 -8.2728 -1.80759e-12
1.9907e-12 -1.80759e-12 -4.41903

-21.2312 24.0472 4.66116e-12
24.0472 4.95546 -7.57912e-13
4.66116e-12 -7.57912e-13 -5.97692

17.3733 20.4283 2.00077e-12
20.4283 -26.7931 3.57285e-12
2.00077e-12 3.57285e-12 -6.95195

-51.1396 11.4002 1.92342e-12
11.4002 7.71024 -2.16567e-12
1.92342e-12 -2.16567e-12 -29.9933

-7.28741 -31.5806 2.28262e-12
-31.5806 -12.827 2.35249e-12
2.28262e-12 2.35249e-12 -8.11955

2.79628 19.8123 -2.01498e-12
19.8123 -46.0328 -6.10771e-12
-2.01498e-12 -6.10771e-12 -29.9852

-24.6716 -18.4439 3.85144e-12
-18.4439 17.8362 8.06229e-12
3.85144e-12 8.06229e-12 -5.48062

-42.3409 4.2834 -3.92579e-12
4.2834 17.8694 -4.30589e-12
-3.92579e-12 -4.30589e-12 -12.7283

-4.09804 9.92703 6.29807e-12
9.92703 -40.2749 -7.4607e-14
6.29807e-12 -7.4607e-14 -47.5466

-2.68833 -8.5137 -1.43026e-12
-8.5137 -38.3062 2.39793e-12
-1.43026e-12 2.39793e-12 -47.4023

81.7247 18.5129 -7.94387e-12
18.5129 1.69974 3.59416e-12
-7.94387e-12 3.59416e-12 -14.4533

3.89499 7.96523 1.80596e-12
7.96523 -45.1837 -3.03505e-12
1.80596e-12 -3.03505e-12 -11.0186

35.8732 7.74076 9.29183e-13
7.74076 184.577 -6.30488e-12
9.29183e-13 -6.30488e-12 -9.75616

40.1468 -11.3854 -5.26386e-12
-11.3854 190.374 -8.71599e-13
-5.26386e-12 -8.71599e-13 -7.38794

53.7664 56.4078 3.61193e-12
56.4078 159.258 -6.44699e-12
3.61193e-12 -6.44699e-12 -11.4989

1.70858 -28.9508 -1.91491e-12
-28.9508 -24.691 5.07979e-12
-1.91491e-12 5.07979e-12 -11.9631

16.0496 -49.1916 -6.69923e-12
-49.1916 99.4212 1.17642e-11
-6.69923e-12 1.17642e-11 -21.6889

54.5143 -55.9503 -2.68111e-12
-55.9503 149.975 4.51905e-12
-2.68111e-12 4.51905e-12 -13.6638

-2.16621 26.2208 -2.0665e-12
26.2208 17.5727 2.13755e-12
-2.0665e-12 2.13755e-12 -3.99645

134.941 73.8449 1.79057e-12
73.8449 85.0266 -1.78583e-12
1.79057e-12 -1.78583e-12 -10.1579

-18.7204 13.047 2.55499e-12
13.047 -3.89981 2.7652e-12
2.55499e-12 2.7652e-12 -26.7688

3.74098 0.0400316 1.10371e-12
0.0400316 -26.1891 -7.83847e-12
1.10371e-12 -7.83847e-12 -26.772

144.1 -73.1303 -7.6786e-12
-73.1303 85.3541 -2.66217e-12
-7.6786e-12 -2.66217e-12 -8.19515

-21.3937 -23.4246 -4.32869e-12
-23.4246 12.248 -3.5764e-12
-4.32869e-12 -3.5764e-12 -6.49172

89.3481 34.73 4.718e-12
34.73 41.3907 1.81662e-12
4.718e-12 1.81662e-12 -11.5478

72.1888 63.4918 2.38506e-12
63.4918 149.696 -8.81073e-13
2.38506e-12 -8.81073e-13 -9.67253

26.1649 21.6307 3.72324e-12
21.6307 100.135 -2.55322e-12
3.72324e-12 -2.55322e-12 -13.0313

73.8757 -65.9207 2.80901e-12
-65.9207 151.146 -3.57166e-12
2.80901e-12 -3.57166e-12 -9.40104

25.7694 -12.3814 -8.65678e-13
-12.3814 105.014 6.30962e-12
-8.65678e-13 6.30962e-12 -12.4282

-28.664 6.84112 -4.07208e-12
6.84112 3.10707 -2.35663e-12
-4.07208e-12 -2.35663e-12 -37.852

37.7434 -45.9759 4.46931e-12
-45.9759 49.6701 4.39589e-12
4.46931e-12 4.39589e-12 -15.5325

14.4442 47.5329 4.68248e-12
47.5329 94.8815 2.56743e-12
4.68248e-12 2.56743e-12 -22.1921

173.342 37.912 -1.77162e-12
37.912 48.0429 5.35512e-12
-1.77162e-12 5.35512e-12 -9.5212

7.0205 -29.2863 1.33049e-12
-29.2863 -14.3588 4.14602e-12
1.33049e-12 4.14602e-12 -7.15649

-38.418 12.8966 3.92279e-14
12.8966 6.43542 2.91885e-12
3.92279e-14 2.91885e-12 -15.2906

88.5064 -38.1133 -2.14821e-12
-38.1133 34.1635 -9.75102e-12
-2.14821e-12 -9.75102e-12 -14.0994

6.04163 -28.8026 -1.58155e-12
-28.8026 -16.1725 -1.60671e-12
-1.58155e-12 -1.60671e-12 -8.03034

169.208 -36.3439 -2.70954e-12
-36.3439 34.9301 2.82263e-12
-2.70954e-12 2.82263e-12 -13.2891

-5.72535 -28.3179 2.3513e-12
-28.3179 -14.4733 2.21186e-12
2.3513e-12 2.21186e-12 -9.30985

-17.7912 -25.2955 -4.31477e-12
-25.2955 12.0801 1.0593e-12
-4.31477e-12 1.0593e-12 -5.93487

118.878 69.4614 2.90849e-12
69.4614 96.2208 1.07647e-11
2.90849e-12 1.07647e-11 -11.3992

29.4134 -22.9333 -4.84353e-12
-22.9333 97.798 -8.50283e-13
-4.84353e-12 -8.50283e-13 -14.3398

117.961 -71.6934 -8.71599e-13
-71.6934 93.6823 -3.58587e-12
-8.71599e-13 -3.58587e-12 -12.4152

22.2652 50.7384 3.59179e-12
50.7384 73.7799 -6.30251e-12
3.59179e-12 -6.30251e-12 -24.7772

-1.53667 -30.2128 -1.93623e-12
-30.2128 -6.553 8.83974e-12
-1.93623e-12 8.83974e-12 -6.99843

-7.04459 -14.6405 3.40143e-12
-14.6405 -21.9197 -2.79214e-12
3.40143e-12 -2.79214e-12 -32.6131

-11.8919 11.092 4.19738e-12
11.092 -16.4294 7.27714e-12
4.19738e-12 7.27714e-12 -77.7897

-26.1673 -5.16011 -4.42313e-13
-5.16011 -6.3873 1.44187e-12
-4.42313e-13 1.44187e-12 -77.6234

-38.942 13.0837 -4.43192e-12
13.0837 13.7444 -6.8147e-12
-4.43192e-12 -6.8147e-12 -10.2393

-14.4802 -10.6664 -2.13244e-12
-10.6664 -17.3169 4.70616e-12
-2.13244e-12 4.70616e-12 -78.7524

-25.9011 4.09191 8.38455e-12
4.09191 -5.91377 -1.15258e-11
8.38455e-12 -1.15258e-11 -78.8945

-3.63337 7.43329 -6.91743e-12
7.43329 -27.8593 -6.84786e-12
-6.91743e-12 -6.84786e-12 -77.9818

-43.9737 -12.1144 -5.99928e-12
-12.1144 2.91622 2.06753e-12
-5.99928e-12 2.06753e-12 -68.1542

11.9736 -30.4709 -1.74557e-12
-30.4709 76.1647 -3.5314e-12
-1.74557e-12 -3.5314e-12 -14.7011

0.521487 -12.9721 -9.36199e-12
-12.9721 -39.9899 1.61796e-12
-9.36199e-12 1.61796e-12 -45.275

-16.3487 -34.4173 -3.56456e-12
-34.4173 -22.069 1.52722e-12
-3.56456e-12 1.52722e-12 -23.5896

-2.42092 -18.177 2.84809e-12
-18.177 -29.8947 2.74506e-12
2.84809e-12 2.74506e-12 -33.6253

12.738 15.4596 -2.21571e-12
15.4596 -37.717 3.41268e-12
-2.21571e-12 3.41268e-12 -9.62573

-46.9068 9.86371 3.99355e-12
9.86371 8.87717 -1.00369e-11
3.99355e-12 -1.00369e-11 -70.1498

3.46228 19.2269 8.66078e-12
19.2269 -41.4704 -1.46157e-11
8.66078e-12 -1.46157e-11 -70.2657

1.47188 11.3069 -2.22578e-12
11.3069 -23.9647 1.6908e-12
-2.22578e-12 1.6908e-12 -31.8666

109.395 -15.3398 9.01205e-12
-15.3398 -12.5355 2.60947e-12
9.01205e-12 2.60947e-12 -25.0368

-14.3212 24.9648 -7.27063e-12
24.9648 10.3861 -2.44545e-13
-7.27063e-12 -2.44545e-13 -5.80536

76.6089 -61.3562 -4.90511e-12
-61.3562 37.3666 -7.96282e-12
-4.90511e-12 -7.96282e-12 -22.3949

76.1158 -57.4585 -1.88294e-12
-57.4585 99.2306 8.08361e-12
-1.88294e-12 8.08361e-12 -5.55476

118.199 -36.5449 1.47461e-11
-36.5449 40.6017 1.57504e-12
1.47461e-11 1.57504e-12 -7.3781

-51.1123 -5.15887 4.08917e-12
-5.15887 3.34035 -3.81251e-12
4.08917e-12 -3.81251e-12 -60.6571

-50.4763 2.89128 4.53223e-12
2.89128 3.13462 7.48586e-12
4.53223e-12 7.48586e-12 -60.1297

-11.9754 -24.4553 -9.16896e-13
-24.4553 -35.002 7.62013e-12
-9.16896e-13 7.62013e-12 -59.1639

-8.99162 -21.7594 1.69068e-12
-21.7594 -37.8868 1.36454e-12
1.69068e-12 1.36454e-12 -59.4734

-14.7023 26.1349 2.86852e-12
26.1349 -33.0264 4.43949e-12
2.86852e-12 4.43949e-12 -60.7483

-18.1565 3.09874 5.3911e-12
3.09874 -13.164 3.12694e-12
5.3911e-12 3.12694e-12 -75.4742

-9.94495 -20.5081 1.51612e-12
-20.5081 -32.6495 -2.28306e-12
1.51612e-12 -2.28306e-12 -56.7343

-26.647 -18.5677 6.1567e-12
-18.5677 -14.1958 -5.43454e-13
6.1567e-12 -5.43454e-13 -71.2685

-15.4778 2.43398 7.8629e-12
2.43398 -12.8523 1.65986e-12
7.8629e-12 1.65986e-12 -77.8686

-6.02737 -20.5253 2.07249e-12
-20.5253 -41.4857 5.12183e-14
2.07249e-12 5.12183e-14 -60.5044

-6.75662 20.9549 -1.7164e-12
20.9549 -40.1421 8.49099e-13
-1.7164e-12 8.49099e-13 -60.0156

-14.3151 -3.45797 -6.12399e-13
-3.45797 -11.3899 -8.47455e-12
-6.12399e-13 -8.47455e-12 -76.8831

-11.2634 -3.11641 -1.90536e-11
-3.11641 -17.6883 2.39709e-11
-1.90536e-11 2.39709e-11 -74.0461

-24.2026 12.1096 5.02961e-12
12.1096 -13.4005 -1.62619e-11
5.02961e-12 -1.62619e-11 -69.9647

-22.0817 26.9288 5.44157e-13
26.9288 -26.2664 3.81127e-12
5.44157e-13 3.81127e-12 -57.5799

VECTORS fluid_flux_TPM float
-8.72211e-05 3.10291e-05 7.38327e-21
3.55957e-06 6.88261e-06 -2.66907e-21
-1.27875e-05 -1.02256e-05 7.76646e-21
-4.17061e-06 4.25406e-06 -1.20478e-20
2.27079e-05 -6.31336e-06 4.65205e-21
2.75762e-06 -1.59037e-05 4.64327e-21
-8.57969e-05 -3.10938e-05 1.02482e-20
-1.38924e-05 -1.04669e-05 -4.57414e-21
2.2122e-05 9.4553e-07 -2.7413e-20
1.13841e-05 -3.90813e-06 -7.64126e-21
5.46016e-05 1.24842e-05 5.99538e-21
2.3469e-06 -1.71942e-05 1.062e-21
1.36116e-05 1.12539e-05 3.50367e-21
2.66212e-06 1.37847e-05 4.04148e-21
2.05812e-05 -2.94668e-06 -1.4461e-20
-1.63325e-05 -2.729e-07 1.38425e-20
2.75356e-06 1.40989e-05 1.66923e-21
1.01819e-05 -2.39191e-06 5.72405e-21
9.89874e-06 1.72229e-05 1.0813e-20
-1.48486e-05 1.88549e-06 2.19182e-20
-3.60121e-06 -2.13043e-05 1.66689e-20
3.4112e-05 5.94193e-05 1.53013e-20
1.56977e-05 1.63133e-06 -1.55487e-20
1.12275e-05 -1.12816e-05 2.79275e-21
-1.50786e-05 -3.33245e-06 1.88605e-20
-6.77225e-07 -1.1131e-05 1.49563e-20
6.29054e-05 -4.90862e-06 3.31664e-22
1.40663e-05 1.0249e-05 9.38894e-22
-2.51503e-05 -2.06434e-05 4.76908e-21
4.91219e-05 -1.28143e-05 -1.64976e-20
-1.65828e-05 -6.03846e-06 7.06223e-21
5.53731e-06 -3.20379e-05 1.86016e-20
4.76564e-05 -4.80493e-05 -7.5588e-21
-4.92355e-06 -4.12496e-05 6.45416e-22
-2.96746e-05 3.7007e-05 2.44596e-20
-3.82491e-05 -1.63958e-05 -1.19786e-20
3.2704e-05 4.32174e-05 -1.19974e-20
-4.47428e-05 -8.72627e-06 1.54765e-20
1.4375e-05 -1.10822e-05 6.84394e-21
4.64721e-05 5.01174e-05 8.09749e-22
3.21309e-05 -1.40226e-05 -1.17203e-21
3.36416e-05 -4.23455e-05 -1.23585e-20
-1.98974e-05 -5.03808e-05 -7.79073e-21
-1.58986e-05 6.35705e-06 -1.4269e-20
3.05269e-05 -2.93157e-05 -7.91593e-21
-3.0334e-05 1.09908e-05 1.22691e-21
-4.05038e-06 -2.03716e-05 8.69718e-21
7.88651e-06 2.02128e-05 -5.24773e-22
-1.63433e-05 5.92814e-06 2.08553e-20
-1.78207e-05 2.87273e-05 -4.56657e-21
3.24104e-05 1.52917e-05 6.61565e-21
2.93667e-05 -1.00757e-05 2.94403e-21
-1.56672e-05 1.57613e-05 1.10155e-20
-2.35426e-05 -2.06915e-05 -1.22187e-20
-2.11411e-05 -5.13275e-06 2.38136e-21
-4.47943e-05 2.70778e-05 -1.4276e-21
-2.93737e-05 -3.80255e-05 -1.87568e-20
6.36388e-06 -3.06298e-05 1.06244e-20
-4.77109e-05 6.48331e-06 5.18121e-22
6.07452e-06 1.3698e-05 4.55184e-24
-5.57721e-06 -8.17404e-06 -6.28129e-21
-6.58403e-06 -1.79449e-05 -1.03786e-20
5.71483e-05 2.48616e-05 -1.70924e-21
9.24357e-06 1.81457e-05 7.53303e-21
1.22975e-05 -1.44461e-05 -7.10981e-21
-1.64071e-06 -2.07542e-05 2.23858e-21
4.62147e-06 -8.80626e-06 -1.00529e-21
-1.00914e-05 -5.56535e-06 -1.22676e-20
-1.06035e-05 1.19303e-05 -1.74078e-21
2.55841e-06 -4.09294e-06 -4.41043e-21
-1.50447e-05 -1.58446e-05 -1.37073e-20
-2.13667e-05 5.16636e-06 6.1203e-21
-3.55708e-06 3.44844e-05 -6.7542e-21
-1.78734e-05 1.07118e-05 1.70024e-20
-9.07158e-06 1.46159e-05 -1.26329e-21
-6.03603e-05 7.69286e-06 1.7857e-20
7.81875e-06 -2.16834e-05 1.16194e-20
-1.88818e-05 -8.90087e-06 7.72008e-21
1.9339e-06 1.16251e-05 3.24842e-21
2.63033e-05 5.09009e-06 1.27647e-20
3.41721e-05 -2.89777e-05 -4.41832e-21
2.21484e-05 2.0558e-05 -2.85035e-21
1.19095e-05 -2.82258e-06 -1.52201e-20
-3.21567e-05 2.40694e-05 -5.21748e-22
3.79078e-05 4.84629e-06 5.90746e-21
-4.98121e-06 4.94192e-05 -7.82891e-21
-1.74126e-06 -1.68587e-05 -5.48575e-21
1.81256e-05 9.95556e-06 2.65389e-21
2.93202e-05 3.02885e-05 -1.28118e-21
5.50298e-05 3.80169e-05 -4.42802e-21
-5.33181e-06 3.07757e-05 -1.25947e-20
5.91852e-05 -3.55157e-05 -5.72896e-20
-2.71273e-05 5.34168e-06 1.448e-20
1.78409e-05 1.10029e-05 1.5837e-20
-2.96439e-05 9.90426e-06 1.1563e-20
1.66546e-05 2.85238e-05 -3.70397e-20
1.01698e-05 -4.43908e-05 9.64002e-21
1.91566e-06 1.16219e-05 -8.21363e-21
-1.48021e-05 -1.76218e-05 3.09833e-21
3.07019e-06 1.74763e-05 7.33386e-21
2.64093e-05 5.25797e-06 -1.41338e-20
-1.54447e-05 3.32143e-05 -7.81254e-21
4.0556e-05 -1.33344e-05 3.87869e-21
-3.77341e-06 7.45575e-06 -1.6109e-20
9.95378e-06 5.89986e-06 -1.15306e-20
-2.28079e-06 -1.13256e-05 4.87944e-21
3.22097e-06 -1.92537e-05 3.46668e-21
1.7471e-05 3.89245e-06 -1.16424e-20
-7.93788e-06 4.09765e-05 -1.71661e-20
-9.80652e-06 2.47955e-07 -7.00554e-21
9.31939e-06 1.18869e-05 1.10106e-20
-2.17744e-06 -4.17178e-05 9.65245e-21
4.20269e-05 1.28662e-05 1.67683e-20
4.42298e-06 -7.45388e-06 9.97411e-21
-1.11462e-05 -3.55397e-06 -7.76829e-21
-2.93284e-05 -1.24872e-05 -2.44806e-21
1.58053e-05 4.11511e-05 3.75299e-22
-4.34891e-05 -1.55753e-05 1.85585e-20
1.602e-05 -4.11276e-05 -4.1981e-20
-3.70012e-06 -3.19231e-05 7.06435e-21
2.18409e-05 6.52228e-07 -2.71332e-20
-7.17216e-06 1.83983e-05 -1.69106e-21
-1.61133e-06 3.96993e-06 -2.68088e-20
-3.6863e-06 -1.65403e-05 2.9692e-21
5.23047e-06 -8.30287e-06 -1.40635e-20
9.36037e-06 1.5865e-05 -2.81731e-21
3.31042e-05 1.06534e-05 5.68221e-21
8.61628e-06 -7.45872e-06 5.23383e-21
-8.27165e-06 -4.51642e-05 4.09484e-21
2.55545e-05 -1.88216e-05 5.93535e-21
4.97839e-06 2.77738e-05 8.93431e-22
-2.81659e-06 -2.84187e-06 -2.66961e-20
-8.62704e-06 -8.32661e-06 -1.42727e-20
-4.7771e-06 4.41236e-08 1.90475e-20
-2.28748e-05 2.85968e-05 -3.98365e-22
1.87648e-05 -3.73785e-05 -1.80186e-20
-2.65824e-05 4.27184e-05 -1.26571e-21
-1.63733e-05 9.53614e-06 3.01316e-21
2.52818e-06 1.22e-05 1.07147e-20
-2.29889e-05 -3.49925e-05 8.43858e-21
1.39374e-05 3.34691e-05 -2.31863e-20
1.75093e-05 9.37004e-06 1.87051e-21
2.28135e-05 -8.52341e-06 1.10658e-20
-1.25329e-06 -1.12664e-05 5.40846e-21
-3.39147e-05 -3.15609e-05 -9.75888e-22
-2.75172e-06 1.13043e-05 -4.20035e-21
1.72482e-05 1.01726e-05 4.0471e-22
1.88891e-05 -8.82161e-06 5.5085e-21
8.24391e-06 -1.43461e-05 1.83991e-21
2.43591e-05 -1.07963e-05 -7.96989e-21
1.90112e-05 -8.99865e-06 6.50621e-21
4.64104e-06 2.05824e-07 2.54734e-20
2.57429e-05 2.02229e-05 -3.92144e-21
-2.74186e-06 -1.70314e-05 -2.34982e-21
-1.04807e-05 -4.45739e-06 1.45768e-20
1.12595e-06 -3.89042e-06 8.51529e-21
-3.15532e-06 1.58483e-05 6.22005e-21
-3.48864e-05 2.76835e-06 -9.53603e-21
-1.21225e-05 -3.32611e-05 6.19244e-21
-7.87974e-06 9.77986e-06 1.68619e-21
1.35664e-05 1.66417e-05 -2.99375e-21
2.65708e-05 -1.87463e-05 -5.73556e-21
-3.67955e-05 -2.03525e-05 -1.17143e-21
1.74045e-05 -2.75099e-05 -1.25931e-20
2.28059e-05 -2.72188e-05 -1.87759e-20
-1.09453e-05 3.78525e-06 -2.26036e-20
-1.98306e-05 -2.88427e-05 1.34666e-20
-3.48828e-05 -5.79191e-06 -3.09409e-21
-3.85272e-06 -3.17454e-05 1.41945e-20
1.5449e-05 -3.17018e-05 8.26668e-21
-9.10691e-06 -2.62017e-05 -9.22863e-21
4.58163e-06 3.14081e-05 -1.86279e-20
-1.57537e-05 -2.85245e-05 1.57197e-20
2.93907e-06 -1.62936e-05 4.94643e-21
-2.47414e-05 1.82615e-05 -4.9719e-23
-1.50321e-05 -1.21122e-05 6.10421e-21
-2.73551e-05 -5.17288e-06 -1.17755e-20
1.56694e-05 -9.18236e-06 -8.71083e-21
-4.30729e-06 2.39546e-05 5.95708e-22
1.22336e-05 -9.32529e-06 1.15539e-20
-2.95884e-05 -1.31654e-05 -1.41038e-20
-8.83242e-06 -7.45874e-06 9.73341e-21
9.08288e-06 7.54149e-06 -1.10143e-20
2.14287e-05 2.87032e-05 -5.65826e-21
-1.75104e-05 -1.08102e-05 2.8643e-21
-3.2509e-05 -7.51133e-07 -1.61587e-21
-1.63381e-05 -5.0166e-06 1.17983e-20
-4.57851e-06 -1.65847e-05 3.27782e-21
1.76862e-05 2.12411e-05 8.05385e-21
-1.09583e-05 5.87528e-06 -9.6464e-21
6.3611e-07 -2.05571e-05 -1.32452e-21
-4.19435e-05 1.08519e-05 1.27328e-22
2.48627e-05 2.02481e-05 -1.14536e-20
3.79486e-06 3.27883e-05 -2.64168e-20
-2.43218e-06 3.79754e-06 -1.26195e-20
-9.05171e-06 2.51226e-07 -1.76957e-21
4.35548e-06 7.76077e-06 -1.74893e-20
-1.1695e-05 3.40176e-06 6.5799e-21
-2.07355e-06 -3.78526e-06 1.51961e-20
1.65994e-06 2.07618e-05 4.40651e-21
4.4728e-06 4.49735e-07 -9.56545e-21
-1.95399e-05 4.75708e-06 1.53741e-20
-1.73e-05 1.93598e-05 -1.48642e-21
-3.10772e-06 1.15792e-05 7.76313e-21
-2.92196e-05 1.8396e-05 -4.63872e-21
-9.34421e-06 8.98014e-06 -9.21527e-21
1.73128e-05 -1.16148e-05 -2.44423e-20
3.66075e-05 -3.56501e-06 1.27887e-20
-2.11426e-05 1.12984e-05 8.24668e-21
2.23321e-06 4.49865e-06 7.6743e-21
2.17773e-05 -4.34529e-06 3.03559e-21
-1.72805e-05 1.03538e-05 1.2712e-20
-9.87269e-06 5.53955e-06 -1.55457e-20
1.18325e-05 3.74304e-06 5.67584e-21
2.18819e-05 -1.34724e-05 -1.61405e-21
-1.73816e-05 9.95703e-06 1.41529e-20
-2.50392e-05 -5.30354e-06 2.1552e-21
-1.67633e-05 -4.36288e-06 -5.29112e-21
9.87713e-06 6.24466e-09 6.57775e-21
1.01748e-05 1.95374e-07 -1.55178e-20
4.39118e-06 8.31794e-06 -7.17408e-21
4.83001e-06 -8.79858e-06 -1.0665e-20
-5.01081e-06 8.42061e-06 -1.73613e-20
-5.26716e-06 -8.6584e-06 -4.49408e-20
9.91192e-06 -7.40869e-06 -1.18419e-20
-2.03293e-05 3.23521e-06 1.37325e-20
-2.00617e-05 -3.28403e-06 -8.00295e-21
-1.28359e-05 1.58779e-05 3.12917e-20
-1.29157e-05 -1.59322e-05 -2.31075e-20
7.48695e-06 -1.98455e-05 -2.74855e-20
7.20667e-06 1.97656e-05 -1.22894e-20
1.55796e-06 2.58874e-05 -1.12817e-20
1.12415e-05 -3.13712e-06 -1.31998e-21
2.36012e-06 -3.86687e-06 2.22817e-20
-2.14133e-05 1.42182e-06 1.74353e-20
7.67787e-06 -1.95148e-05 -2.73312e-20
7.27408e-06 1.96633e-05 -8.1503e-21
4.76923e-06 -5.27183e-08 2.24042e-22
8.96901e-06 2.44053e-05 -2.34558e-21
-2.24248e-06 -4.01669e-06 8.19424e-21
2.31797e-06 -1.1318e-05 1.24128e-20
-2.24324e-05 -1.21526e-05 -2.33922e-21
-2.13599e-05 -1.14956e-05 -6.95975e-21
-2.18944e-05 1.36297e-05 9.43933e-21
3.25152e-06 -1.22886e-05 -2.26561e-20
-1.56545e-06 3.38225e-06 -3.21809e-20
-5.87371e-07 -2.5571e-05 2.35577e-20
-7.7208e-06 -2.44247e-05 2.81064e-20
3.27063e-05 3.03647e-05 -1.26659e-20
3.54557e-05 -1.81532e-06 2.65147e-21
-1.2712e-05 -3.63243e-06 1.36854e-20
-2.28941e-05 -4.13888e-05 1.60344e-20
8.30481e-06 1.37488e-05 -1.06935e-20
-2.52375e-05 3.03351e-06 -3.93628e-21
2.00665e-05 5.78679e-06 -2.11278e-20
-4.53343e-06 -3.27431e-08 -1.82842e-20
-4.6655e-06 -8.4133e-06 -1.77248e-20
-7.07336e-06 -3.93353e-05 2.86823e-21
-9.70897e-06 -8.39261e-08 1.10777e-21
-4.86774e-05 -1.81583e-06 7.61792e-21
1.73098e-05 -1.91065e-05 -6.03358e-21
2.42951e-06 3.99933e-06 -1.39728e-20
-1.20632e-07 -1.75148e-05 -1.46525e-20
-9.81902e-06 2.40853e-05 -6.86425e-21
-4.37231e-06 8.62794e-06 8.14029e-21
2.05575e-05 -1.36068e-05 7.18106e-21
-3.76611e-05 -1.35522e-05 9.9147e-21
-1.52666e-05 -2.03669e-05 1.63223e-21
4.97735e-06 8.38953e-06 -2.00231e-20
1.6632e-05 5.16085e-06 -2.34189e-20
-4.76412e-06 -7.33868e-06 9.9147e-21
1.97975e-05 3.54737e-06 6.68659e-21
1.81893e-05 -9.82622e-06 -2.66266e-20
-3.48829e-07 2.71739e-05 -6.46073e-21
8.32071e-06 -1.36673e-05 4.63084e-21
4.88056e-05 2.20067e-06 1.03352e-20
-4.23582e-05 1.14538e-05 2.76541e-20
2.28605e-05 1.15565e-05 6.00143e-21
-6.45306e-06 -1.71796e-05 -4.6754e-21
-1.53502e-05 -8.61829e-06 -5.80863e-21
2.87878e-05 -2.10547e-07 -7.22805e-21
-6.91978e-07 -2.42552e-05 2.77395e-21
-1.26175e-05 -1.08742e-05 5.67818e-22
1.0224e-05 -2.34998e-05 -7.50545e-21
-4.96597e-07 2.05556e-05 -5.27869e-21
7.91777e-06 2.60679e-05 -1.77569e-20
1.7268e-05 -9.88431e-06 -3.20744e-22
-1.8948e-05 1.92986e-05 -1.68693e-20
1.65278e-05 2.00295e-05 -2.05309e-20
-6.22307e-05 1.6022e-05 3.13608e-20
-1.01091e-05 2.60162e-05 9.3487e-21
1.2519e-05 -1.52483e-05 9.8674e-21
-7.02909e-06 -1.83978e-05 -4.19643e-21
-1.18536e-05 4.50568e-06 -4.78576e-21
-2.58934e-05 -7.0458e-06 -8.80813e-21
-6.38611e-06 3.88579e-05 2.43532e-21
-1.26059e-05 1.19025e-05 -9.19407e-21
2.07766e-05 -4.4756e-06 2.00058e-21
-6.87244e-06 -2.57942e-05 3.91173e-20
-1.48688e-05 2.38909e-05 -9.64064e-21
-2.17889e-05 1.25648e-05 1.3392e-20
-2.05695e-05 -1.50554e-05 4.03239e-21
1.80286e-05 -2.0655e-05 -5.19534e-21
-2.75307e-05 -1.45625e-06 1.38361e-20
1.23672e-05 -4.08102e-05 -3.23173e-21
1.93862e-05 -1.89131e-05 1.63285e-21
2.47326e-05 4.30818e-05 -1.57766e-21
1.97113e-06 1.98665e-05 7.65915e-21
2.96112e-06 -2.54212e-05 -8.41675e-21
-4.16363e-05 4.69618e-05 2.9038e-20
-1.27021e-05 -2.44116e-05 1.47165e-20
1.63668e-05 -6.42053e-06 6.48226e-21
-2.41087e-06 2.57722e-05 -8.79935e-21
1.2883e-05 -1.18264e-05 -1.4149e-20
1.38806e-05 2.43129e-05 -8.64837e-21
1.72299e-05 -1.40049e-06 -1.64618e-20
2.21201e-05 -6.32165e-05 -1.62884e-20
-5.8761e-06 -1.28592e-05 3.38453e-21
-2.31843e-05 1.00871e-05 4.82092e-23
-2.00199e-05 1.8719e-05 4.85426e-21
2.16123e-05 1.45676e-05 6.57472e-21
1.86726e-05 -1.07567e-05 1.33441e-20
1.49519e-05 1.25934e-05 -3.97117e-21
-5.42812e-06 4.55202e-08 -1.2511e-20
1.54036e-05 -2.30872e-05 -9.33989e-21
-1.69903e-05 -2.04092e-05 3.31658e-22
2.25618e-05 9.7737e-06 -2.5159e-20
1.28066e-05 -1.19897e-05 -1.01042e-20
9.55395e-06 -2.48517e-05 7.98323e-21
1.66592e-05 -6.93288e-06 -5.62947e-21
-1.58054e-05 -7.54463e-06 -9.73066e-21
1.29685e-06 -2.63029e-05 -1.0585e-20
-2.61068e-05 4.47308e-06 2.6339e-21
2.39042e-06 2.45428e-05 -1.70287e-21
2.05849e-05 6.62746e-06 -1.75638e-20
-2.17205e-05 -1.07019e-05 1.9457e-21
-8.97719e-06 2.56101e-05 -2.95525e-20
-1.49536e-06 -2.4188e-05 1.03479e-20
1.94664e-05 1.18374e-05 6.46164e-21
-1.76895e-06 1.80848e-05 1.22845e-20
-2.01388e-05 1.37026e-05 1.27723e-20
2.3511e-05 1.14152e-05 -1.0397e-20
-1.71153e-05 -9.98566e-06 7.51551e-22
9.51159e-08 -1.98348e-05 6.33621e-22
1.83825e-05 1.99844e-05 -5.24484e-22
-2.21539e-05 -1.43037e-05 -5.68676e-21
4.83515e-05 -3.39824e-05 9.42507e-21
1.78972e-05 -1.08226e-05 -3.54095e-21
9.00204e-06 4.30877e-05 -1.53516e-20
1.70343e-05 -1.36788e-05 2.24845e-20
-1.98748e-05 8.70372e-05 -2.45775e-21
-1.97649e-05 -8.65514e-05 5.77831e-21
5.71857e-05 7.17187e-05 8.51225e-21
5.69232e-05 -7.13924e-05 1.8202e-21
9.06489e-05 -1.54268e-10 -3.89202e-21
-7.82027e-05 3.76399e-05 7.08556e-21
-7.7457e-05 -3.7284e-05 -5.14803e-21
1.22341e-05 1.18189e-05 3.04966e-22
2.93687e-05 2.18929e-05 -8.02599e-21
1.14485e-05 3.33291e-06 1.01921e-20
1.88562e-05 9.75176e-06 -2.25066e-20
4.98939e-06 2.01707e-05 6.80635e-21
-1.88324e-05 -1.49808e-05 6.86e-21
1.70385e-05 -1.02145e-05 1.50567e-20
1.98532e-05 1.45497e-05 -4.00057e-21
-3.16701e-06 2.43647e-05 -4.68329e-21
2.94415e-05 -1.99934e-05 -2.06795e-20
3.79404e-06 -2.37406e-05 1.64455e-20
2.19615e-05 5.22721e-06 1.93357e-21
2.98968e-05 1.10263e-05 -5.34085e-21
1.42092e-05 1.41443e-05 -3.77409e-21
1.58837e-05 6.5939e-06 -5.98084e-21
-1.84994e-05 1.0937e-05 5.0486e-21
-2.25639e-05 9.03695e-06 -6.21547e-21
2.29303e-05 -1.12639e-05 -2.46612e-20
-1.82685e-05 -9.99836e-06 1.80462e-20
-1.85551e-05 -1.05828e-05 3.60584e-21
-3.43851e-07 -2.07685e-05 4.57992e-21
-8.61307e-08 -2.11615e-05 1.10216e-20
-2.01278e-05 -1.00551e-06 1.63891e-20
2.67e-05 -4.0193e-06 -3.71771e-21
1.81127e-05 1.13426e-05 -1.11216e-20
-1.78649e-05 1.09455e-05 1.5063e-20
-1.5362e-05 1.66243e-05 2.07352e-20
1.60227e-05 -1.37537e-05 8.8039e-21
-1.10239e-05 1.74641e-05 -3.69651e-20
-1.42255e-05 -1.48902e-05 9.5709e-22
-1.15527e-06 2.12115e-05 -9.80646e-21
-1.28771e-06 2.09691e-05 -8.29276e-21
8.97417e-08 -1.98348e-05 3.61373e-21
6.11109e-06 -1.97381e-05 1.25322e-20
-1.71417e-05 -9.93591e-06 1.10785e-20
1.55875e-05 -5.49051e-06 -1.56448e-20
6.63211e-07 2.14787e-05 2.4523e-21
3.0087e-07 1.85083e-05 -3.92961e-21
-2.34584e-06 1.6858e-05 -1.51652e-20
2.19097e-05 -5.52765e-06 -1.54274e-20
-1.6542e-05 5.37832e-06 1.05804e-20
4.15766e-06 2.15184e-05 4.45926e-21
-3.25599e-05 1.29199e-05 1.9364e-20
9.76387e-06 4.17334e-05 -1.2497e-20
-1.70543e-05 4.56836e-06 5.46272e-21
1.96854e-05 -1.16307e-05 -1.58555e-21
9.45835e-07 2.10205e-05 -3.84593e-21
-2.04822e-05 6.69976e-06 1.86431e-20
2.44423e-06 -1.62633e-05 5.04163e-21
1.81942e-06 -5.80155e-05 1.85267e-20
2.00658e-06 1.74871e-05 -4.92626e-22
-1.69629e-05 1.40233e-05 1.08593e-20
1.78551e-05 6.3975e-05 -3.40666e-21
4.57716e-05 3.77088e-05 -1.73683e-21
5.20677e-05 -3.52575e-05 -5.71887e-20
1.48162e-05 -1.01677e-05 6.59716e-21
-1.57863e-05 1.40384e-05 -3.64889e-21
-2.0218e-05 -7.92114e-06 -1.70906e-20
-1.96467e-05 -6.8228e-06 -1.84925e-22
5.92703e-05 -2.46133e-05 -3.98928e-20
5.74368e-05 2.38722e-05 -3.98692e-21
1.08951e-05 3.81769e-06 1.30418e-20
7.66692e-07 1.95805e-05 1.37149e-20
7.83774e-08 1.95618e-05 -3.10469e-21
-4.83857e-05 -3.69211e-05 2.33488e-20
1.14258e-05 -1.71729e-05 9.40386e-21
1.1734e-05 1.24654e-05 -4.16397e-21
-2.14194e-05 -3.39595e-06 1.71925e-20
-1.40458e-05 1.72032e-05 -7.75132e-21
-1.88897e-05 9.16832e-06 1.23655e-20
4.76462e-05 3.36963e-05 -5.91535e-21
1.58074e-05 7.06208e-06 4.28582e-21
-5.56708e-06 2.00316e-05 -8.78784e-21
-1.69791e-05 -1.17499e-05 -1.49687e-20
1.85638e-06 -2.05442e-05 -1.29536e-20
-8.95028e-06 -1.92685e-05 2.90744e-20
-1.72502e-05 -1.17743e-05 -1.20962e-21
1.05803e-05 -1.8937e-05 5.79075e-21
1.41234e-05 -1.69904e-05 1.14866e-20
-2.44044e-06 -6.14414e-05 1.27332e-20
2.61819e-05 -4.11283e-05 1.26899e-20
1.74762e-06 -2.0787e-05 -3.02891e-21
1.79599e-05 1.13562e-05 -3.2848e-21
-1.44773e-05 -1.49063e-05 -3.81836e-21
-9.84172e-06 1.97114e-05 -1.03737e-20
-5.03974e-06 2.10081e-05 -6.77179e-21
1.66283e-05 1.42447e-05 9.87092e-22
6.05943e-06 -1.98627e-05 3.54976e-21
-1.34073e-05 -4.03607e-05 -2.37136e-21
-1.98851e-06 2.50422e-05 5.35905e-21
1.47929e-05 1.44561e-05 -2.20886e-21
-1.29592e-05 -1.02174e-05 8.33793e-21
-1.35159e-05 1.06089e-05 2.61152e-20
4.43459e-05 -1.89145e-05 6.70418e-21
7.56358e-06 -1.34011e-05 2.43377e-20
-8.31774e-06 -1.26279e-05 -2.49504e-21
2.1332e-05 6.36392e-06 1.65497e-20
1.09951e-05 -5.06655e-05 -1.28452e-21
-3.84542e-05 -3.49054e-05 -9.55274e-22
2.33084e-05 6.20782e-06 -7.37994e-21
-9.32889e-06 -1.82824e-05 8.8909e-21
1.8707e-05 9.48345e-06 -1.49982e-20
-2.85665e-05 -3.25537e-05 2.10305e-20
9.68888e-06 5.00504e-05 1.52947e-21
3.43366e-05 -5.9864e-05 3.38725e-21
-3.47396e-05 -5.97808e-05 -5.8338e-21
2.78105e-05 -5.20258e-05 -2.45263e-22
-1.2699e-05 4.36363e-05 2.18877e-22
-6.27652e-06 3.89802e-05 1.84075e-20
-1.87321e-05 8.94653e-06 2.31815e-20
5.97765e-06 2.42439e-05 2.96252e-21
-2.39173e-06 1.26549e-05 -3.93842e-21
1.01209e-05 3.23337e-06 1.65825e-20
-3.18869e-06 1.62067e-05 2.95738e-21
-2.47461e-07 2.09932e-05 1.38628e-20
1.66618e-05 9.75127e-06 -4.29404e-21
1.71051e-06 5.77283e-05 -2.14119e-20
-1.47183e-05 1.07334e-05 -1.57734e-20
1.59506e-05 -6.24705e-06 -1.36424e-21
1.68731e-05 -4.50928e-06 1.53598e-20
-6.06671e-05 -8.76952e-06 2.24278e-20
-3.46081e-05 1.67426e-05 9.33989e-21
-4.35177e-05 -5.25501e-05 1.23797e-20
8.65714e-06 8.34628e-06 5.68373e-21
1.42109e-05 7.29306e-06 -2.43806e-21
2.68066e-05 -4.19615e-06 -1.36979e-20
-8.10494e-06 -1.32438e-05 2.38621e-21
1.72178e-05 8.4292e-06 -3.27177e-21
7.33585e-06 -3.00367e-05 -1.77139e-20
-1.37146e-05 1.02057e-05 2.27434e-21
-2.23759e-05 -2.14238e-05 4.62991e-21
-5.83637e-06 1.62989e-05 1.54265e-20
-3.27121e-06 2.068e-05 2.32458e-20
3.38521e-05 2.12979e-05 -1.19539e-21
3.61157e-05 -1.92842e-05 -4.36126e-20
-4.20734e-05 -1.16239e-05 1.91721e-20
7.63471e-06 7.68627e-06 -1.10907e-20
-4.05866e-06 0.000101368 -1.30922e-20
8.61983e-07 -0.000104475 -1.84191e-20
5.2458e-05 8.76508e-05 -5.85714e-21
-1.91042e-05 8.45848e-06 8.25275e-21
-2.63782e-05 5.65535e-05 -9.60121e-21
5.30364e-05 -8.46453e-05 -5.51062e-21
-1.17213e-05 -1.82836e-05 8.26244e-21
7.80052e-05 6.7502e-05 3.32965e-21
2.39952e-05 -1.7978e-05 -7.12982e-21
-3.60767e-06 -2.98241e-05 3.88049e-21
8.17841e-05 -6.58545e-05 6.74086e-21
-6.74507e-06 1.45193e-05 -1.81354e-21
-5.38358e-05 -3.48263e-05 1.27059e-20
-4.30161e-05 -9.31362e-05 -9.82404e-21
-2.41141e-05 -5.78081e-05 6.98066e-21
-4.39777e-05 9.41433e-05 -7.43147e-21
-1.00939e-05 6.40881e-05 -6.21486e-21
1.56338e-05 3.71107e-05 -1.08772e-20
-2.79571e-05 3.7243e-05 5.86259e-21
-2.52745e-05 -5.51871e-05 2.05336e-20
0.000100372 1.7318e-05 -1.0514e-20
-1.69286e-05 1.07677e-05 2.26224e-20
-5.91272e-06 1.63341e-05 1.84727e-20
-5.07614e-05 3.76423e-05 -4.38739e-21
-1.72774e-05 9.94478e-06 2.69589e-20
9.9209e-05 -1.52643e-05 1.15021e-21
-1.53612e-05 7.79922e-06 6.06935e-22
7.19309e-06 -1.44958e-05 2.15059e-20
-7.79744e-05 -6.09524e-05 3.13321e-21
-2.58805e-05 5.7721e-05 -6.55804e-21
-7.91275e-05 6.03796e-05 7.64217e-21
2.45419e-05 5.19536e-05 -6.0739e-21
-1.47685e-05 1.05831e-05 -1.10049e-21
-2.05312e-05 2.44782e-05 3.13168e-21
-2.85345e-05 4.98211e-05 4.43045e-20
-5.67797e-05 2.08009e-07 3.27221e-20
-9.44156e-07 1.62971e-05 2.07186e-20
-2.88515e-05 -5.04097e-05 2.67966e-21
-5.82021e-05 -2.19833e-07 -6.38753e-22
-2.83513e-05 4.86994e-05 2.38046e-21
-1.51913e-05 6.62704e-05 2.66433e-20
-1.78659e-05 4.12632e-05 -5.51577e-21
-3.39024e-05 2.71391e-05 -3.67678e-21
2.43845e-05 -6.05733e-06 9.39445e-21
3.80051e-05 -2.19544e-06 -1.39046e-20
1.34832e-05 8.20083e-06 -6.28479e-22
-1.04698e-05 -7.39924e-05 8.47556e-21
-6.94534e-05 -2.7976e-05 4.49261e-21
3.71346e-05 7.32775e-07 -2.29432e-20
5.83698e-05 -1.08928e-05 -4.70814e-21
-1.05844e-05 -1.34979e-05 1.34241e-20
-5.0832e-05 3.76281e-05 1.43703e-22
-4.61365e-05 5.40036e-05 -9.72824e-21
6.23666e-05 -2.22338e-05 -4.50987e-21
-2.81792e-05 -5.05003e-05 -1.35794e-20
-2.87789e-05 4.97827e-05 5.40191e-20
-5.72581e-05 -1.17124e-06 2.54319e-20
-2.6575e-05 5.06011e-05 -1.32846e-21
-5.79569e-05 -8.1706e-07 -7.34566e-21
6.60804e-05 1.73936e-05 -1.0049e-20
5.63838e-05 1.2926e-06 -6.13726e-21
5.09034e-05 -2.92757e-05 -4.94558e-20
2.49118e-05 -5.94309e-05 -4.01702e-20
2.99204e-05 -4.88599e-05 -6.11456e-20
2.91693e-05 4.86839e-05 7.15587e-21
2.43466e-05 5.80931e-05 4.91884e-21
7.58072e-05 -2.00389e-05 -3.91064e-20
4.62693e-05 2.90651e-05 -1.33862e-20
4.66273e-05 1.37464e-05 -1.4527e-20
TENSORS solid_stress_TPM float
375.039 -24.9207 1.15108e-12
-24.9207 238.574 3.53495e-12
1.15108e-12 3.53495e-12 197.821

457.014 -21.3204 -4.60824e-12
-21.3204 489.998 3.2158e-12
-4.60824e-12 3.2158e-12 487.12

454.888 28.0439 3.24363e-12
28.0439 463.718 3.11899e-12
3.24363e-12 3.11899e-12 458.468

455.039 -29.8426 -5.08275e-12
-29.8426 482.62 6.88338e-13
-5.08275e-12 6.88338e-13 484.867

527.694 19.9309 -2.40696e-12
19.9309 548.462 -3.79681e-12
-2.40696e-12 -3.79681e-12 527.365

437.32 -18.0749 -2.8173e-12
-18.0749 480.348 3.38396e-12
-2.8173e-12 3.38396e-12 458.049

372.333 26.4848 1.14634e-12
26.4848 239.094 3.98851e-12
1.14634e-12 3.98851e-12 197.806

473.661 29.9583 -1.69938e-12
29.9583 469.511 -2.09018e-13
-1.69938e-12 -2.09018e-13 472.346

471.558 5.48326 2.9073e-12
5.48326 417.831 -2.14573e-12
2.9073e-12 -2.14573e-12 432.804

504.269 -7.47759 1.42997e-12
-7.47759 444.121 2.52198e-12
1.42997e-12 2.52198e-12 483.461

360.3 16.309 -3.31587e-14
16.309 247.66 5.41019e-12
-3.31587e-14 5.41019e-12 233.649

444.791 -13.4534 -2.59185e-12
-13.4534 498.395 -2.89132e-12
-2.59185e-12 -2.89132e-12 472.248

466.877 27.8336 1.01193e-12
27.8336 468.311 -7.35412e-13
1.01193e-12 -7.35412e-13 466.743

457.046 -14.3403 5.61329e-12
-14.3403 500.443 -4.04358e-12
5.61329e-12 -4.04358e-12 483.466

512.945 33.3106 6.40969e-13
33.3106 511.605 -7.89965e-13
6.40969e-13 -7.89965e-13 515.234

489.182 0.561004 -7.82781e-13
0.561004 435.532 -2.38605e-14
-7.82781e-13 -2.38605e-14 462.281

457.593 -17.969 3.38763e-12
-17.969 512.895 -2.47387e-12
3.38763e-12 -2.47387e-12 493.606

493.967 -2.6652 6.43337e-13
-2.6652 439.057 6.03421e-12
6.43337e-13 6.03421e-12 474.273

418.801 26.6745 -4.37813e-12
26.6745 449.669 -1.43826e-12
-4.37813e-12 -1.43826e-12 424.061

481.991 -4.1957 -4.22181e-13
-4.1957 424.93 -9.60935e-13
-4.22181e-13 -9.60935e-13 453.483

425.304 8.6689 -8.75004e-13
8.6689 481.912 -3.47455e-12
-8.75004e-13 -3.47455e-12 444.85

634.13 6.28718 -4.42661e-12
6.28718 633.966 -2.03719e-12
-4.42661e-12 -2.03719e-12 570.323

479.162 1.87601 4.3278e-12
1.87601 422.948 5.36978e-13
4.3278e-12 5.36978e-13 449.741

447.171 -27.7158 3.68357e-12
-27.7158 461.159 -7.15872e-13
3.68357e-12 -7.15872e-13 452.956

481.058 6.84953 -7.46662e-13
6.84953 425.449 2.53679e-12
-7.46662e-13 2.53679e-12 452.947

449.767 19.1131 8.41771e-13
19.1131 490.327 5.00755e-12
8.41771e-13 5.00755e-12 478.215

377.661 4.1815 4.43616e-12
4.1815 291.659 -7.1679e-12
4.43616e-12 -7.1679e-12 259.007

462.694 30.7465 7.78044e-13
30.7465 460.723 -2.24235e-12
7.78044e-13 -2.24235e-12 460.554

384.948 37.0756 -3.47811e-12
37.0756 383.527 -1.22805e-12
-3.47811e-12 -1.22805e-12 348.425

586.946 10.3235 1.20348e-12
10.3235 563.457 -1.82069e-12
1.20348e-12 -1.82069e-12 546.879

491.697 14.217 -3.44672e-12
14.217 442.506 -2.41288e-14
-3.44672e-12 -2.41288e-14 465.864

352.862 -17.7809 -1.21384e-14
-17.7809 416.731 1.55727e-12
-1.21384e-14 1.55727e-12 348.596

331.023 -42.1027 3.64745e-12
-42.1027 335.879 -1.06345e-12
3.64745e-12 -1.06345e-12 253.487

531.415 5.98636 5.01745e-12
5.98636 586.894 1.73195e-12
5.01745e-12 1.73195e-12 538.589

554.029 -4.84008 1.77354e-12
-4.84008 582.076 -4.69017e-12
1.77354e-12 -4.69017e-12 542.519

577.992 21.0277 4.54155e-13
21.0277 539.953 2.42887e-12
4.54155e-13 2.42887e-12 538.357

556.19 5.0669 4.09954e-12
5.0669 600.678 -1.10223e-12
4.09954e-12 -1.10223e-12 547.976

573.779 -9.17022 7.13533e-12
-9.17022 555.771 1.19853e-12
7.13533e-12 1.19853e-12 540.644

467.136 -27.9987 -3.75759e-12
-27.9987 466.5 -9.48575e-13
-3.75759e-12 -9.48575e-13 465.116

330.408 41.522 -5.31723e-12
41.522 337.977 -3.39403e-12
-5.31723e-12 -3.39403e-12 253.846

414.533 -17.9496 -1.0066e-12
-17.9496 354.493 2.74329e-12
-1.0066e-12 2.74329e-12 346.327

559.311 -3.70555 4.14587e-12
-3.70555 599.928 1.89078e-12
4.14587e-12 1.89078e-12 548.39

586.417 19.5546 1.87776e-12
19.5546 572.459 -9.10679e-13
1.87776e-12 -9.10679e-13 548.179

490.902 -12.2734 -1.00542e-12
-12.2734 442.861 4.62815e-12
-1.00542e-12 4.62815e-12 466.537

341.714 -43.3002 -1.16884e-12
-43.3002 345.342 -1.04213e-13
-1.16884e-12 -1.04213e-13 288.981

417.559 -18.0639 -2.83151e-12
-18.0639 357.111 -5.23019e-12
-2.83151e-12 -5.23019e-12 351.5

413.013 17.0861 -3.2608e-12
17.0861 464.783 -1.68932e-12
-3.2608e-12 -1.68932e-12 428.727

429.629 19.3395 -3.78927e-12
19.3395 466.513 8.43769e-13
-3.78927e-12 8.43769e-13 437.08

486.781 -16.3013 -1.21503e-12
-16.3013 432.875 5.13397e-12
-1.21503e-12 5.13397e-12 458.678

355.58 -34.1864 1.31036e-12
-34.1864 389.401 3.64745e-13
1.31036e-12 3.64745e-13 332.567

410.251 19.1824 1.42582e-12
19.1824 350.7 -4.06667e-12
1.42582e-12 -4.06667e-12 339.476

425.2 -25.2891 2.53901e-12
-25.2891 383.82 7.33635e-13
2.53901e-12 7.33635e-13 373.076

519.92 19.4852 -1.5065e-12
19.4852 547.531 -2.57276e-13
-1.5065e-12 -2.57276e-13 525.731

416.412 29.6501 9.82917e-13
29.6501 393.885 4.85538e-14
9.82917e-13 4.85538e-14 373.94

522.176 -21.8127 1.20585e-12
-21.8127 541.396 4.53866e-12
1.20585e-12 4.53866e-12 524.378

364.07 -42.7123 -1.77636e-12
-42.7123 343.281 -1.7953e-12
-1.77636e-12 -1.7953e-12 289.698

553.45 5.45907 2.97007e-12
5.45907 583.869 4.22329e-12
2.97007e-12 4.22329e-12 542.893

373.715 -5.32995 -9.93872e-13
-5.32995 436.663 1.42109e-14
-9.93872e-13 1.42109e-14 373.824

580.817 10.3844 -3.50031e-12
10.3844 556.17 -1.4385e-12
-3.50031e-12 -1.4385e-12 542.65

435.057 21.4135 -3.90917e-12
21.4135 473.763 -1.46017e-12
-3.90917e-12 -1.46017e-12 454.673

513.574 5.75414 -1.46357e-12
5.75414 452.808 -2.67016e-12
-1.46357e-12 -2.67016e-12 494.867

522.46 11.4589 2.43953e-13
11.4589 487.864 -1.95399e-14
2.43953e-13 -1.95399e-14 507.081

383.706 31.8204 5.68434e-14
31.8204 315.194 -2.71783e-12
5.68434e-14 -2.71783e-12 269.871

482.09 -6.03543 7.66794e-12
-6.03543 528.183 -1.76688e-12
7.66794e-12 -1.76688e-12 504.103

487.098 9.51995 -1.24937e-13
9.51995 523.692 5.18104e-14
-1.24937e-13 5.18104e-14 507.499

456.461 -2.881 3.52e-12
-2.881 520.16 2.8854e-12
3.52e-12 2.8854e-12 487.81

464.458 23.4018 1.49658e-12
23.4018 503.473 -5.25506e-13
1.49658e-12 -5.25506e-13 495.444

496.751 8.46369 9.82917e-13
8.46369 444.401 -9.1512e-13
9.82917e-13 -9.1512e-13 477.701

445.51 -28.24 -4.19812e-13
-28.24 459.532 4.27273e-12
-4.19812e-13 4.27273e-12 451.17

501.685 -1.71132 1.26625e-12
-1.71132 444.92 3.43947e-12
1.26625e-12 3.43947e-12 489.072

519.533 -19.2612 -2.12882e-12
-19.2612 546.824 -2.50762e-12
-2.12882e-12 -2.50762e-12 525.465

523.305 21.3078 1.55875e-12
21.3078 542.921 -3.82711e-12
1.55875e-12 -3.82711e-12 525.267

353.412 -16.5839 -2.63078e-12
-16.5839 415.739 -4.21707e-12
-2.63078e-12 -4.21707e-12 346.115

506.024 -27.9363 -1.71241e-12
-27.9363 485.313 -1.12799e-13
-1.71241e-12 -1.12799e-13 493.883

449.724 -25.1351 -2.94816e-12
-25.1351 471.224 -3.45857e-12
-2.94816e-12 -3.45857e-12 458.581

357.873 -31.7113 9.97128e-13
-31.7113 285.678 3.51985e-12
9.97128e-13 3.51985e-12 249.86

498.502 3.22275 -6.92039e-14
3.22275 541.408 5.9804e-13
-6.92039e-14 5.9804e-13 513.645

501.73 28.9442 -6.37712e-13
28.9442 474.553 4.21589e-13
-6.37712e-13 4.21589e-13 487.661

448.448 19.6644 -1.64269e-12
19.6644 492.112 -1.71922e-12
-1.64269e-12 -1.71922e-12 477.647

440.197 7.99974 -2.65625e-12
7.99974 373.04 -4.16881e-12
-2.65625e-12 -4.16881e-12 382.938

386.455 -33.9364 -3.44258e-12
-33.9364 360.209 -3.4935e-13
-3.44258e-12 -3.4935e-13 319.438

537.721 -10.5873 -2.27966e-12
-10.5873 556.141 -3.33955e-12
-2.27966e-12 -3.33955e-12 531.252

482.661 23.8997 1.41191e-12
23.8997 504.563 1.37416e-12
1.41191e-12 1.37416e-12 502.046

385.375 -32.3846 4.61853e-12
-32.3846 345.309 -2.48098e-12
4.61853e-12 -2.48098e-12 317.084

422.202 10.7913 8.75152e-13
10.7913 363.854 -9.92095e-13
8.75152e-13 -9.92095e-13 350.256

307.654 -21.2065 4.73695e-13
-21.2065 388.446 9.49759e-13
4.73695e-13 9.49759e-13 288.118

434.449 14.4258 -1.94067e-13
14.4258 488.674 -2.06117e-12
-1.94067e-13 -2.06117e-12 460.888

509.725 23.1434 -1.95399e-13
23.1434 475.175 -1.00512e-12
-1.95399e-13 -1.00512e-12 489.95

338.244 42.1997 3.27679e-12
42.1997 349.575 -2.0132e-14
3.27679e-12 -2.0132e-14 288.954

634.216 16.5066 -1.57916e-11
16.5066 603.07 7.41451e-12
-1.57916e-11 7.41451e-12 565.327

372.892 -4.10847 -3.48492e-12
-4.10847 436.822 5.35868e-12
-3.48492e-12 5.35868e-12 373.431

637.122 -16.6318 -4.08518e-12
-16.6318 599.54 1.30621e-12
-4.08518e-12 1.30621e-12 564.834

533.942 -27.3349 4.04299e-12
-27.3349 507.242 1.38067e-12
4.04299e-12 1.38067e-12 515.718

505.301 27.4247 -1.13332e-12
27.4247 466.339 -6.06004e-12
-1.13332e-12 -6.06004e-12 485.077

426.931 -24.4112 -5.75421e-12
-24.4112 386.243 -2.60592e-12
-5.75421e-12 -2.60592e-12 375.982

358.94 31.3241 -1.85866e-12
31.3241 396.009 1.84623e-12
-1.85866e-12 1.84623e-12 339.204

339.828 -10.7054 6.24863e-12
-10.7054 408.396 -4.05009e-13
6.24863e-12 -4.05009e-13 319.109

453.11 21.9709 2.89487e-12
21.9709 494.685 -4.358e-13
2.89487e-12 -4.358e-13 483.174

533.118 16.7944 -9.29627e-13
16.7944 506.202 -6.0183e-12
-9.29627e-13 -6.0183e-12 513.357

443.458 15.1542 -5.99417e-12
15.1542 488.446 -2.03334e-12
-5.99417e-12 -2.03334e-12 464.288

451.487 15.9542 8.21861e-13
15.9542 400.542 1.60242e-12
8.21861e-13 1.60242e-12 403.752

374.493 -21.4731 1.24345e-14
-21.4731 419.873 -4.86367e-12
1.24345e-14 -4.86367e-12 357.202

389.728 -29.3913 -2.96533e-12
-29.3913 342.374 2.48986e-12
-2.96533e-12 2.48986e-12 314.395

454.972 -24.5733 -6.22391e-12
-24.5733 480.072 -2.00462e-12
-6.22391e-12 -2.00462e-12 478.377

466.433 27.4514 -7.20017e-13
27.4514 478.749 -3.81117e-12
-7.20017e-13 -3.81117e-12 479.815

452.223 23.1877 -3.13823e-14
23.1877 492.566 3.16724e-12
-3.13823e-14 3.16724e-12 482.049

466.302 13.169 1.26762e-12
13.169 529.782 2.69888e-12
1.26762e-12 2.69888e-12 501.389

490.869 9.37237 -1.89893e-12
9.37237 437.895 -1.94082e-12
-1.89893e-12 -1.94082e-12 462.062

327.716 -4.66516 -4.40359e-12
-4.66516 403.387 -7.29254e-12
-4.40359e-12 -7.29254e-12 314.416

462.586 -36.8328 2.79924e-12
-36.8328 487.697 -2.19373e-12
2.79924e-12 -2.19373e-12 492.755

445.856 27.4658 1.81188e-13
27.4658 463.277 -1.15878e-12
1.81188e-13 -1.15878e-12 455.021

305.675 2.17035 -4.31425e-12
2.17035 393.366 2.55085e-12
-4.31425e-12 2.55085e-12 297.26

386.002 34.6112 -7.05806e-12
34.6112 332.452 -2.36196e-12
-7.05806e-12 -2.36196e-12 306.25

453.357 -22.9742 2.32969e-12
-22.9742 480.077 1.71863e-12
2.32969e-12 1.71863e-12 476.179

501.402 5.73295 8.05578e-13
5.73295 441.322 3.01018e-12
8.05578e-13 3.01018e-12 481.017

422.387 27.2047 8.26598e-13
27.2047 389.773 -2.53308e-12
8.26598e-13 -2.53308e-12 374.24

570.546 12.7452 2.77985e-12
12.7452 565.921 2.43242e-12
2.77985e-12 2.43242e-12 542.921

396.184 24.3311 -1.08808e-11
24.3311 349.653 3.50357e-12
-1.08808e-11 3.50357e-12 319.048

569.168 -13.0548 -3.51393e-12
-13.0548 565.832 2.90494e-12
-3.51393e-12 2.90494e-12 542.377

375.097 0.778568 -4.53504e-12
0.778568 438.876 2.20742e-12
-4.53504e-12 2.20742e-12 374.646

461.478 -2.23537 3.72206e-12
-2.23537 399.309 1.67473e-12
3.72206e-12 1.67473e-12 417.288

538.202 -15.7675 -1.42227e-12
-15.7675 480.638 2.4644e-12
-1.42227e-12 2.4644e-12 513.484

457.252 24.3882 3.2861e-12
24.3882 487.792 -8.99577e-13
3.2861e-12 -8.99577e-13 488.361

461.263 -13.5351 -1.25534e-12
-13.5351 519.142 2.26959e-12
-1.25534e-12 2.26959e-12 495.721

514.976 -7.99982 2.20387e-12
-7.99982 438.199 -1.47615e-12
2.20387e-12 -1.47615e-12 494.284

488.321 -22.2835 9.16349e-12
-22.2835 541.608 -1.6677e-12
9.16349e-12 -1.6677e-12 515.756

556.055 -6.59705 1.60139e-12
-6.59705 560.399 -3.29862e-12
1.60139e-12 -3.29862e-12 538.734

463.874 -29.9082 -1.3823e-12
-29.9082 483.204 8.22749e-13
-1.3823e-12 8.22749e-13 483.607

341.712 11.4539 -4.30263e-12
11.4539 406.2 -1.42582e-12
-4.30263e-12 -1.42582e-12 319.488

422.488 -28.1472 3.61311e-12
-28.1472 391.248 -3.66107e-12
3.61311e-12 -3.66107e-12 375.153

507.387 -13.7717 -4.18147e-12
-13.7717 558.753 -2.89546e-13
-4.18147e-12 -2.89546e-13 525.257

501.064 0.504585 -6.14768e-13
0.504585 441.287 2.11172e-12
-6.14768e-13 2.11172e-12 487.094

476.949 -21.5244 1.17891e-12
-21.5244 507.429 -1.79116e-13
1.17891e-12 -1.79116e-13 501.511

459.105 25.6978 3.59712e-13
25.6978 484.608 8.51763e-13
3.59712e-13 8.51763e-13 487.989

394.436 -31.4652 -3.51956e-12
-31.4652 400.605 -7.35412e-13
-3.51956e-12 -7.35412e-13 357.527

552.13 -7.08438 -1.89138e-12
-7.08438 585.3 6.01889e-13
-1.89138e-12 6.01889e-13 542.608

347.215 -33.0775 2.65151e-12
-33.0775 382.613 -1.77162e-12
2.65151e-12 -1.77162e-12 303.44

490.877 -19.18 -1.38674e-12
-19.18 448.394 -1.79294e-12
-1.38674e-12 -1.79294e-12 467.131

519.715 1.97059 -2.25531e-12
1.97059 466.821 -8.31335e-13
-2.25531e-12 -8.31335e-13 502.838

570.564 17.8748 -7.4607e-14
17.8748 566.484 3.33511e-12
-7.4607e-14 3.33511e-12 542.38

375.296 20.1833 -5.43565e-13
20.1833 424.038 -1.77517e-12
-5.43565e-13 -1.77517e-12 360.226

489.088 27.2109 -8.5798e-13
27.2109 468.546 -2.00047e-12
-8.5798e-13 -2.00047e-12 476.646

454.386 -24.5121 -3.62377e-13
-24.5121 415.348 8.12979e-13
-3.62377e-13 8.12979e-13 418.608

454.725 -17.8387 -2.30665e-12
-17.8387 494.914 -1.18069e-12
-2.30665e-12 -1.18069e-12 482.648

379.204 35.0689 -2.53308e-12
35.0689 366.035 4.46695e-12
-2.53308e-12 4.46695e-12 317.053

449.159 -21.8311 2.47476e-12
-21.8311 491.711 -3.41505e-12
2.47476e-12 -3.41505e-12 479.78

485.497 30.8508 -2.404e-12
30.8508 465.142 2.19706e-12
-2.404e-12 2.19706e-12 473.452

480.329 -25.2444 3.62969e-13
-25.2444 442.373 -6.15804e-14
3.62969e-13 -6.15804e-14 455.449

448.225 -25.1268 8.10019e-12
-25.1268 469.774 -3.62969e-13
8.10019e-12 -3.62969e-13 458.103

445.351 -18.6885 -1.18424e-12
-18.6885 393.466 -4.50247e-12
-1.18424e-12 -4.50247e-12 397.263

470.66 -18.85 -1.21207e-12
-18.85 422.858 4.70142e-13
-1.21207e-12 4.70142e-13 437.537

459.005 -25.3371 8.33259e-13
-25.3371 485.435 -1.14827e-12
8.33259e-13 -1.14827e-12 488.831

386.546 35.9702 -4.8909e-13
35.9702 381.992 6.64357e-13
-4.8909e-13 6.64357e-13 348.12

444.501 15.377 -1.47956e-12
15.377 491.538 -1.84978e-12
-1.47956e-12 -1.84978e-12 467.145

469.402 26.4225 -1.93919e-13
26.4225 479.963 -7.26826e-13
-1.93919e-13 -7.26826e-13 482.551

456.148 25.4736 -1.43736e-12
25.4736 486.652 1.06774e-12
-1.43736e-12 1.06774e-12 487.251

457.812 11.6217 9.6527e-13
11.6217 506.945 -1.848e-12
9.6527e-13 -1.848e-12 486.02

431.956 -8.22716 2.39216e-12
-8.22716 370.759 1.76422e-12
2.39216e-12 1.76422e-12 363.311

376.783 18.6068 1.41457e-12
18.6068 427.27 3.16073e-12
1.41457e-12 3.16073e-12 363.887

452.317 -24.3808 -4.08503e-12
-24.3808 478.391 -2.06857e-12
-4.08503e-12 -2.06857e-12 470.716

440.751 25.6664 2.21156e-12
25.6664 455.645 5.22841e-13
2.21156e-12 5.22841e-13 437.81

390.959 -35.63 1.34056e-12
-35.63 380.28 -9.98905e-13
1.34056e-12 -9.98905e-13 350.094

368.944 38.3174 2.01084e-12
38.3174 327.255 -3.15244e-12
2.01084e-12 -3.15244e-12 295.685

363.649 -33.3117 -5.40664e-12
-33.3117 394.439 -2.16716e-13
-5.40664e-12 -2.16716e-13 341.982

397.933 -31.1602 8.95284e-13
-31.1602 404.196 -1.74794e-12
8.95284e-13 -1.74794e-12 362.976

502.861 -6.83864 -2.036e-12
-6.83864 442.254 -1.46986e-12
-2.036e-12 -1.46986e-12 482.322

393.167 30.3423 8.7752e-13
30.3423 408.982 3.55271e-14
8.7752e-13 3.55271e-14 363.436

429.705 13.2949 8.3619e-12
13.2949 372.249 4.46813e-12
8.3619e-12 4.46813e-12 362.716

350.145 13.3791 -1.94689e-12
13.3791 418.517 1.84623e-12
-1.94689e-12 1.84623e-12 348.477

379.481 -22.3408 -4.48826e-12
-22.3408 423.516 -6.43041e-13
-4.48826e-12 -6.43041e-13 363.45

491.21 -1.09177 9.26518e-13
-1.09177 550.88 -6.30962e-12
9.26518e-13 -6.30962e-12 516.309

372.865 2.24666 4.771e-13
2.24666 437.79 4.20286e-12
4.771e-13 4.20286e-12 373.522

357.891 31.0899 3.65989e-12
31.0899 399.489 1.85925e-12
3.65989e-12 1.85925e-12 341.962

457.994 12.108 2.59265e-12
12.108 510.565 2.32051e-12
2.59265e-12 2.32051e-12 488.407

421.455 -27.6481 -3.73509e-12
-27.6481 389.074 4.37754e-12
-3.73509e-12 4.37754e-12 375.074

524.759 20.557 -1.59783e-12
20.557 469.753 1.74438e-12
-1.59783e-12 1.74438e-12 500.738

534.927 26.2704 5.05314e-12
26.2704 506.862 -6.93667e-13
5.05314e-12 -6.93667e-13 516.097

494.82 -18.5679 1.25529e-13
-18.5679 449.029 5.13071e-13
1.25529e-13 5.13071e-13 470.859

554.586 -1.80174 -4.59484e-13
-1.80174 516.025 -7.87518e-14
-4.59484e-13 -7.87518e-14 525.719

473.291 -31.8121 -1.25056e-12
-31.8121 475.7 -7.99953e-13
-1.25056e-12 -7.99953e-13 478.581

412.601 23.3282 4.43616e-12
23.3282 357.198 7.00832e-12
4.43616e-12 7.00832e-12 348.093

464.181 30.1622 -1.24197e-12
30.1622 482.773 2.28854e-13
-1.24197e-12 2.28854e-13 483.208

464.444 29.206 -8.59461e-13
29.206 482.246 1.83794e-12
-8.59461e-13 1.83794e-12 482.769

393.949 30.6615 7.48438e-13
30.6615 405.726 2.51058e-12
7.48438e-13 2.51058e-12 360.871

502.858 27.0853 5.04485e-13
27.0853 482.668 -2.71931e-12
5.04485e-13 -2.71931e-12 490.738

415.354 3.52522 4.55932e-12
3.52522 339.019 -5.12645e-12
4.55932e-12 -5.12645e-12 340.827

493.126 31.8172 -1.35329e-12
31.8172 487.227 -1.18897e-12
-1.35329e-12 -1.18897e-12 495.578

476.329 -12.5996 3.10344e-12
-12.5996 522.454 2.89901e-12
3.10344e-12 2.89901e-12 500.251

536.929 24.278 -2.16212e-12
24.278 507.405 -3.42038e-12
-2.16212e-12 -3.42038e-12 516.633

468.182 -29.5788 1.37372e-12
-29.5788 479.975 -1.27809e-12
1.37372e-12 -1.27809e-12 483.066

464.564 -4.8979 -1.33597e-14
-4.8979 521.56 2.67342e-12
-1.33597e-14 2.67342e-12 490.983

400.943 -24.5568 3.32297e-12
-24.5568 349.025 -1.76984e-12
3.32297e-12 -1.76984e-12 323.952

418.97 29.6937 3.16902e-12
29.6937 392.467 5.97803e-12
3.16902e-12 5.97803e-12 373.772

352.346 14.6968 4.81911e-12
14.6968 417.216 -2.03689e-13
4.81911e-12 -2.03689e-13 348.242

500.534 -1.13898 -2.99464e-12
-1.13898 442.799 -1.82654e-12
-2.99464e-12 -1.82654e-12 487.713

492.476 0.00221286 -3.57077e-12
0.00221286 438.107 -1.54028e-12
-3.57077e-12 -1.54028e-12 474.423

452.97 23.1242 4.37842e-12
23.1242 479.712 6.25574e-13
4.37842e-12 6.25574e-13 475.591

481.309 23.8711 -1.00068e-12
23.8711 502.878 1.14949e-12
-1.00068e-12 1.14949e-12 501.258

456.593 -24.3808 -1.00164e-12
-24.3808 487.358 -4.61705e-13
-1.00164e-12 -4.61705e-13 488.503

457.841 -0.672954 -1.26369e-12
-0.672954 517.947 -6.51212e-12
-1.26369e-12 -6.51212e-12 486.405

458.891 25.5905 -3.00071e-12
25.5905 486.475 1.34811e-12
-3.00071e-12 1.34811e-12 488.524

465.567 -10.3082 -2.13873e-12
-10.3082 408.09 -9.23261e-13
-2.13873e-12 -9.23261e-13 427.23

400.871 -32.8343 -4.11108e-12
-32.8343 414.963 -2.8925e-12
-4.11108e-12 -2.8925e-12 385.172

518.105 -2.30105 -9.89135e-13
-2.30105 465.747 -2.28291e-12
-9.89135e-13 -2.28291e-12 500.935

391.879 -34.5091 2.5698e-12
-34.5091 379.613 3.44021e-12
2.5698e-12 3.44021e-12 347.424

478.01 19.0861 -1.76185e-12
19.0861 509.211 7.26234e-13
-1.76185e-12 7.26234e-13 501.855

506.122 -26.4789 -1.60523e-12
-26.4789 470.256 -2.26308e-12
-1.60523e-12 -2.26308e-12 487.282

425.009 -9.6905 -3.72443e-12
-9.6905 366.738 7.82781e-13
-3.72443e-12 7.82781e-13 355.988

530.275 -23.1922 1.6378e-12
-23.1922 488.766 4.04417e-13
1.6378e-12 4.04417e-13 506.498

500.903 2.35831 -7.21319e-12
2.35831 444.588 7.23421e-13
-7.21319e-12 7.23421e-13 489.215

521.201 -23.3218 2.72612e-12
-23.3218 501.851 -2.4647e-12
2.72612e-12 -2.4647e-12 508.543

502.027 -25.8596 -2.13577e-12
-25.8596 461.501 -2.87385e-12
-2.13577e-12 -2.87385e-12 481.254

498.838 -8.54637 9.70483e-13
-8.54637 445.146 4.63067e-12
9.70483e-13 4.63067e-12 479.355

482.231 -23.0683 1.84149e-12
-23.0683 505.003 2.31328e-12
1.84149e-12 2.31328e-12 502.545

428.55 -31.3427 2.42058e-12
-31.3427 410.597 -1.90603e-12
2.42058e-12 -1.90603e-12 399.006

503.278 -24.5877 -4.67715e-12
-24.5877 464.724 3.22971e-12
-4.67715e-12 3.22971e-12 482.17

441.251 10.8647 -1.45069e-12
10.8647 378.489 1.80004e-12
-1.45069e-12 1.80004e-12 387.807

500.048 26.3405 -5.17808e-13
26.3405 498.594 1.76748e-13
-5.17808e-13 1.76748e-13 500.115

463.761 -37.6124 -2.45581e-12
-37.6124 488.4 -1.93512e-12
-2.45581e-12 -1.93512e-12 494.093

464.87 37.2648 2.98724e-12
37.2648 487.312 8.26598e-13
2.98724e-12 8.26598e-13 493.808

446.338 -28.5731 -3.7413e-12
-28.5731 500.026 5.04367e-12
-3.7413e-12 5.04367e-12 492.323

448.573 27.0639 2.59015e-12
27.0639 500.717 -2.28114e-12
2.59015e-12 -2.28114e-12 492.51

513.081 -8.52745 -6.99292e-13
-8.52745 436.417 -2.3701e-12
-6.99292e-13 -2.3701e-12 492.77

511.243 9.27345 -3.09071e-12
9.27345 438.014 -4.45125e-13
-3.09071e-12 -4.45125e-13 492.408

501.667 -9.84641 -3.40468e-14
-9.84641 451.753 -2.1938e-13
-3.40468e-14 -2.1938e-13 483.031

510.875 32.1156 -1.90929e-12
32.1156 510.4 1.1498e-12
-1.90929e-12 1.1498e-12 514.065

509.65 -32.8535 -3.52903e-13
-32.8535 510.078 -4.0132e-12
-3.52903e-13 -4.0132e-12 513.704

481.82 16.0684 -5.40457e-13
16.0684 539.141 2.06324e-12
-5.40457e-13 2.06324e-12 514.337

483.014 -15.8008 -5.98188e-13
-15.8008 538.73 -2.13785e-12
-5.98188e-13 -2.13785e-12 514.358

556.878 -3.74812 -1.77547e-12
-3.74812 506.841 -1.73935e-12
-1.77547e-12 -1.73935e-12 525.002

558.432 3.61087 3.75167e-12
3.61087 505.166 -1.16795e-12
3.75167e-12 -1.16795e-12 525.373

387.316 9.83715 -5.20547e-12
9.83715 449.207 -2.99849e-12
-5.20547e-12 -2.99849e-12 397.095

472.398 -24.7745 -1.42819e-12
-24.7745 480.764 1.31302e-12
-1.42819e-12 1.31302e-12 484.986

443.472 -36.3872 1.86229e-12
-36.3872 485.543 -9.91799e-15
1.86229e-12 -9.91799e-15 486.638

473.652 -4.66437 -2.26545e-12
-4.66437 420.445 -1.50287e-13
-2.26545e-12 -1.50287e-13 436.347

540.263 -16.6942 -1.01622e-12
-16.6942 484.202 6.4689e-13
-1.01622e-12 6.4689e-13 515.298

540.983 16.1752 8.20381e-13
16.1752 485.425 3.07251e-12
8.20381e-13 3.07251e-12 515.903

506.872 0.121876 -2.45759e-12
0.121876 423.562 -6.03206e-12
-2.45759e-12 -6.03206e-12 487.012

384.799 23.3759 1.75297e-12
23.3759 432.306 6.75016e-14
1.75297e-12 6.75016e-14 385.484

442.344 36.1712 -7.88184e-13
36.1712 485.221 2.03112e-12
-7.88184e-13 2.03112e-12 485.843

452.607 -23.3959 -1.03103e-12
-23.3959 494.963 -4.18924e-13
-1.03103e-12 -4.18924e-13 483.6

443.257 23.3534 -2.47387e-12
23.3534 397.526 1.00838e-12
-2.47387e-12 1.00838e-12 400.381

530.977 23.8584 -4.24905e-12
23.8584 488.017 -2.6894e-12
-4.24905e-12 -2.6894e-12 507.257

428.487 -31.3145 4.16852e-13
-31.3145 410.882 2.51887e-12
4.16852e-13 2.51887e-12 398.825

519.869 -3.23126 3.54679e-13
-3.23126 469.068 -1.21059e-12
3.54679e-13 -1.21059e-12 502.695

439.407 -34.1607 2.91019e-12
-34.1607 485.514 -1.69775e-12
2.91019e-12 -1.69775e-12 485.832

389.191 8.3202 1.59373e-12
8.3202 452.337 2.24413e-12
1.59373e-12 2.24413e-12 400.863

385.886 21.8123 7.15576e-13
21.8123 435.782 1.50043e-12
7.15576e-13 1.50043e-12 388.702

383.854 35.7768 -6.06448e-12
35.7768 362.338 -1.1724e-13
-6.06448e-12 -1.1724e-13 318.333

408.19 1.57881 -1.91847e-12
1.57881 332.161 8.01507e-13
-1.91847e-12 8.01507e-13 327.33

485.464 -22.8047 1.72455e-12
-22.8047 502.867 -2.19145e-12
1.72455e-12 -2.19145e-12 501.757

351.884 31.1847 -7.89887e-13
31.1847 388.838 -4.48589e-12
-7.89887e-13 -4.48589e-12 312.363

451.358 23.6104 6.06626e-13
23.6104 478.422 -1.46253e-13
6.06626e-13 -1.46253e-13 465.221

442.205 -5.34971 1.86044e-12
-5.34971 377.133 2.63671e-12
1.86044e-12 2.63671e-12 387.745

464.164 11.2164 1.54306e-12
11.2164 407.306 2.56447e-12
1.54306e-12 2.56447e-12 424.93

505.387 0.429897 -7.45478e-13
0.429897 421.582 2.04634e-12
-7.45478e-13 2.04634e-12 485.683

449.359 -29.0308 -2.14414e-12
-29.0308 502.006 1.8859e-13
-2.14414e-12 1.8859e-13 493.596

572.513 -6.31866 3.55027e-12
-6.31866 589.487 2.59644e-13
3.55027e-12 2.59644e-13 549.258

463.148 37.4111 -1.00749e-12
37.4111 487.035 1.22569e-12
-1.00749e-12 1.22569e-12 493.072

408.745 1.66333 1.5774e-12
1.66333 331.608 -6.14538e-12
1.5774e-12 -6.14538e-12 308.909

404.241 -32.7879 -2.30808e-12
-32.7879 415.516 1.53596e-12
-2.30808e-12 1.53596e-12 387.396

443.15 36.6126 -2.04925e-12
36.6126 485.514 -1.78909e-12
-2.04925e-12 -1.78909e-12 486.58

444.686 -11.134 4.43109e-13
-11.134 498.943 -1.53951e-12
4.43109e-13 -1.53951e-12 471.449

386.08 -25.5154 8.73375e-13
-25.5154 428.909 -1.77636e-13
8.73375e-13 -1.77636e-13 384.57

449.459 28.8298 8.22971e-13
28.8298 501.639 3.63561e-13
8.22971e-13 3.63561e-13 493.296

452.719 -26.1426 -1.7053e-13
-26.1426 419.31 -1.44477e-13
-1.7053e-13 -1.44477e-13 419.525

579.556 10.4836 -3.4263e-12
10.4836 582.166 -2.06662e-11
-3.4263e-12 -2.06662e-11 549.043

398.335 30.8729 -1.90189e-12
30.8729 422.066 -2.65032e-12
-1.90189e-12 -2.65032e-12 388.17

515.715 8.12655 -4.11123e-12
8.12655 437.277 3.94825e-12
-4.11123e-12 3.94825e-12 494.59

493.813 30.1908 -6.4837e-13
30.1908 484.756 -3.16724e-12
-6.4837e-13 -3.16724e-12 493.809

453.473 23.3323 7.62797e-13
23.3323 479.172 -2.81878e-12
7.62797e-13 -2.81878e-12 475.806

510.708 -32.4882 1.54513e-12
-32.4882 512.46 1.68708e-12
1.54513e-12 1.68708e-12 515.013

510.316 -23.1906 1.10134e-12
-23.1906 473.188 1.66149e-12
1.10134e-12 1.66149e-12 489.685

511.407 10.4702 1.3252e-12
10.4702 557.997 4.00509e-12
1.3252e-12 4.00509e-12 523.738

452.181 -23.4342 6.34781e-12
-23.4342 480.174 -9.0535e-13
6.34781e-12 -9.0535e-13 468.958

394.417 -9.70811 1.90662e-12
-9.70811 316.418 -1.8554e-12
1.90662e-12 -1.8554e-12 295.58

387.297 -14.2776 1.58688e-12
-14.2776 306.064 2.63493e-12
1.58688e-12 2.63493e-12 290.055

547.589 16.5298 -1.42701e-12
16.5298 507.77 3.29514e-13
-1.42701e-12 3.29514e-13 519.326

436.495 22.5023 -8.68638e-13
22.5023 469.145 -4.14306e-12
-8.68638e-13 -4.14306e-12 447.831

475.97 29.1637 2.00551e-12
29.1637 467.653 7.47846e-13
2.00551e-12 7.47846e-13 471.486

450.31 0.688684 -4.50721e-12
0.688684 392.783 -6.7707e-13
-4.50721e-12 -6.7707e-13 395.681

478.357 6.57096 -3.02572e-12
6.57096 541.285 -3.25665e-13
-3.02572e-12 -3.25665e-13 507.546

507.339 16.5407 2.57276e-12
16.5407 461.143 1.23901e-12
2.57276e-12 1.23901e-12 488.087

389.983 -25.7618 -3.67824e-12
-25.7618 430.044 6.40673e-13
-3.67824e-12 6.40673e-13 387.74

456.325 -2.57225 3.90456e-12
-2.57225 517.021 -2.04103e-12
3.90456e-12 -2.04103e-12 484.847

400.596 13.3656 4.44208e-12
13.3656 452.994 -1.92912e-12
4.44208e-12 -1.92912e-12 404.643

486.921 -29.7137 -2.46677e-12
-29.7137 465.821 9.49759e-13
-2.46677e-12 9.49759e-13 474.265

430.306 -29.9483 -7.96992e-13
-29.9483 423.636 -1.95162e-12
-7.96992e-13 -1.95162e-12 404.962

399.718 31.6237 -3.73864e-12
31.6237 418.239 -1.4199e-12
-3.73864e-12 -1.4199e-12 386.008

624.002 -15.0199 4.30234e-12
-15.0199 581.951 3.56211e-12
4.30234e-12 3.56211e-12 557.908

494.528 2.0415 -2.32525e-12
2.0415 552.148 3.98437e-12
-2.32525e-12 3.98437e-12 517.931

483.509 20.2996 -1.49495e-12
20.2996 542.048 1.85422e-12
-1.49495e-12 1.85422e-12 516.037

544.711 15.4386 -4.87269e-12
15.4386 479.977 -4.30174e-13
-4.87269e-12 -4.30174e-13 515.759

473.756 -26.1891 2.17308e-12
-26.1891 479.764 3.81769e-12
2.17308e-12 3.81769e-12 483.024

452.133 17.9577 -2.76993e-12
17.9577 404.515 3.57847e-12
-2.76993e-12 3.57847e-12 406.924

531.584 -5.29371 1.81971e-12
-5.29371 580.804 2.85283e-12
1.81971e-12 2.85283e-12 537.122

512.194 -18.988 4.21145e-12
-18.988 464.8 -2.57394e-12
4.21145e-12 -2.57394e-12 493.035

473.984 -15.5992 7.74492e-13
-15.5992 423.183 9.01353e-13
7.74492e-13 9.01353e-13 438.887

402.007 11.6036 -1.81188e-13
11.6036 455.966 9.11863e-14
-1.81188e-13 9.11863e-14 407.786

410.93 -25.7349 -3.18146e-12
-25.7349 435.589 -1.94452e-12
-3.18146e-12 -1.94452e-12 398.963

532.054 -25.2738 2.35071e-12
-25.2738 523.198 -3.76676e-12
2.35071e-12 -3.76676e-12 519.124

423.063 31.9604 1.79471e-12
31.9604 417.255 -7.22385e-14
1.79471e-12 -7.22385e-14 400.312

535.488 -25.1345 9.7374e-13
-25.1345 505.794 4.94419e-13
9.7374e-13 4.94419e-13 515.666

453.502 2.59743 2.66098e-12
2.59743 397.026 -2.36552e-13
2.66098e-12 -2.36552e-13 401.904

311.104 -28.9313 -3.84877e-13
-28.9313 376.603 -1.13687e-12
-3.84877e-13 -1.13687e-12 290

431.883 -29.2317 4.31773e-12
-29.2317 424.055 7.71531e-13
4.31773e-12 7.71531e-13 406.161

353.767 32.1598 -8.47914e-13
32.1598 392.551 7.86334e-13
-8.47914e-13 7.86334e-13 312.974

470.353 -11.8767 -7.83838e-12
-11.8767 529.558 2.17663e-12
-7.83838e-12 2.17663e-12 500.31

391.457 -13.8217 1.09098e-12
-13.8217 449.261 2.359e-12
1.09098e-12 2.359e-12 400.205

602.856 -23.9872 -8.8615e-12
-23.9872 602.269 -5.45593e-12
-8.8615e-12 -5.45593e-12 557.849

408.378 23.7715 -3.33304e-12
23.7715 441.948 3.50771e-12
-3.33304e-12 3.50771e-12 402.229

496.584 -32.7263 5.06262e-14
-32.7263 490.647 -3.24777e-12
5.06262e-14 -3.24777e-12 497.453

388.196 -11.9634 3.50335e-12
-11.9634 448.293 -1.95399e-13
3.50335e-12 -1.95399e-13 397.023

516.718 -19.1168 3.04438e-12
-19.1168 465.761 -1.71981e-12
3.04438e-12 -1.71981e-12 496.25

410.693 23.8777 -3.10152e-12
23.8777 439.32 9.00021e-14
-3.10152e-12 9.00021e-14 400.706

488.929 -4.97554 -5.88566e-13
-4.97554 435.078 5.07631e-12
-5.88566e-13 5.07631e-12 460.39

305.787 -30.3433 -2.52361e-12
-30.3433 391.445 -5.18459e-12
-2.52361e-12 -5.18459e-12 262.574

438.618 21.0145 -6.53107e-13
21.0145 473.922 1.73136e-12
-6.53107e-13 1.73136e-12 458.357

445.697 -19.3238 3.61785e-12
-19.3238 393.984 -9.29331e-13
3.61785e-12 -9.29331e-13 399.631

551.61 -21.4458 4.77574e-12
-21.4458 499.524 2.5547e-12
4.77574e-12 2.5547e-12 520.111

424.479 31.7548 1.79767e-12
31.7548 413.331 -2.60532e-13
1.79767e-12 -2.60532e-13 397.968

459.172 -29.9724 -2.71309e-12
-29.9724 437.647 1.57977e-12
-2.71309e-12 1.57977e-12 439.309

510.629 20.8855 -3.40291e-12
20.8855 476.082 5.09814e-13
-3.40291e-12 5.09814e-13 492.765

461.515 -28.076 -1.06389e-12
-28.076 485.752 -1.13724e-12
-1.06389e-12 -1.13724e-12 488.728

413.73 -26.2259 -5.03301e-13
-26.2259 436.255 -3.25665e-13
-5.03301e-13 -3.25665e-13 401.448

426.086 28.9818 4.24786e-12
28.9818 429.908 -2.62546e-12
4.24786e-12 -2.62546e-12 406.871

452.512 26.1919 -1.70767e-12
26.1919 418.237 -4.58892e-14
-1.70767e-12 -4.58892e-14 419.069

521.98 -14.6104 3.20336e-12
-14.6104 477.187 1.9688e-13
3.20336e-12 1.9688e-13 500.074

403.571 -16.6181 -1.44477e-13
-16.6181 451.754 2.46914e-12
-1.44477e-13 2.46914e-12 406.453

496.058 -17.5684 -5.76724e-13
-17.5684 447.618 -3.43725e-13
-5.76724e-13 -3.43725e-13 471.512

487.776 16.9088 -2.1713e-12
16.9088 436.27 -3.04586e-12
-2.1713e-12 -3.04586e-12 460.6

513.351 -9.38637 4.29123e-12
-9.38637 555.787 -5.62987e-12
4.29123e-12 -5.62987e-12 523.039

453.99 -13.4303 4.60432e-12
-13.4303 402.189 -2.14939e-12
4.60432e-12 -2.14939e-12 406.754

403.212 0.594091 -4.34482e-12
0.594091 465.737 -2.8848e-12
-4.34482e-12 -2.8848e-12 417.816

475.039 18.5553 -9.53312e-13
18.5553 428.783 -1.13006e-12
-9.53312e-13 -1.13006e-12 442.232

451.155 27.6046 2.36374e-12
27.6046 421.85 4.13714e-12
2.36374e-12 4.13714e-12 420.854

400.879 -15.6866 1.40451e-12
-15.6866 451.394 -3.71259e-12
1.40451e-12 -3.71259e-12 403.747

406.011 -1.20228 9.62563e-13
-1.20228 468.047 -1.12503e-13
9.62563e-13 -1.12503e-13 421.231

516.21 29.1344 8.05282e-14
29.1344 498.036 -1.11851e-12
8.05282e-14 -1.11851e-12 504.886

441.716 -10.9223 -5.03301e-15
-10.9223 500.67 3.30994e-13
-5.03301e-15 3.30994e-13 471.16

451.452 -26.7159 -2.1938e-12
-26.7159 418.777 3.46745e-12
-2.1938e-12 3.46745e-12 419.364

444.399 21.3331 -7.89887e-13
21.3331 395.309 -1.01252e-13
-7.89887e-13 -1.01252e-13 398.212

497.607 23.6655 -4.56524e-13
23.6655 458.102 1.08417e-12
-4.56524e-13 1.08417e-12 476.562

447.694 5.471 -1.44862e-12
5.471 508.802 6.35344e-13
-1.44862e-12 6.35344e-13 476.893

427.662 29.0663 3.47515e-12
29.0663 426.446 -9.42061e-13
3.47515e-12 -9.42061e-13 405.121

536.831 22.9639 -1.06907e-12
22.9639 531.906 6.30133e-12
-1.06907e-12 6.30133e-12 522.795

314.758 -59.693 3.70903e-12
-59.693 282.776 -9.11508e-12
3.70903e-12 -9.11508e-12 223.43

480.607 -25.0483 4.14779e-12
-25.0483 445.083 8.43473e-13
4.14779e-12 8.43473e-13 456.658

336.672 7.07008 3.92782e-12
7.07008 409.166 -1.00897e-12
3.92782e-12 -1.00897e-12 319.449

460.551 -28.8899 -1.6076e-12
-28.8899 444.749 -1.63602e-12
-1.6076e-12 -1.63602e-12 443.464

96.426 -52.702 -8.40809e-13
-52.702 306.625 -7.49386e-12
-8.40809e-13 -7.49386e-12 113.702

95.9599 51.4527 5.92119e-14
51.4527 306.889 -3.67587e-12
5.92119e-14 -3.67587e-12 114.49

181.521 117.157 -1.98005e-12
117.157 226.081 1.87583e-12
-1.98005e-12 1.87583e-12 113.591

182.819 -117.099 -2.60532e-14
-117.099 223.317 1.35477e-12
-2.60532e-14 1.35477e-12 113.565

321.59 -1.3634 -1.78583e-12
-1.3634 84.6553 -7.84095e-16
-1.78583e-12 -7.84095e-16 114.932

274.439 -91.1273 -4.59958e-12
-91.1273 127.421 1.83794e-12
-4.59958e-12 1.83794e-12 113.805

275.135 91.6552 -3.74219e-13
91.6552 128.254 -2.7048e-12
-3.74219e-13 -2.7048e-12 114.575

525.251 14.3306 -4.20404e-14
14.3306 474.723 1.86902e-12
-4.20404e-14 1.86902e-12 502.326

556.806 25.5362 1.39118e-12
25.5362 541.191 -8.24526e-14
1.39118e-12 -8.24526e-14 533.46

492.105 6.6062 1.13924e-12
6.6062 439.133 -5.12501e-12
1.13924e-12 -5.12501e-12 471.414

470.312 21.7851 -1.33523e-12
21.7851 424.528 -8.86698e-13
-1.33523e-12 -8.86698e-13 438.206

409.986 17.7449 5.3831e-12
17.7449 461.086 9.12455e-13
5.3831e-12 9.12455e-13 425.055

448.023 28.8993 2.51473e-12
28.8993 424.717 6.4541e-14
2.51473e-12 6.4541e-14 420.761

487.161 -29.6639 -2.24058e-12
-29.6639 465.64 7.93143e-13
-2.24058e-12 7.93143e-13 474.601

449.38 28.0286 -1.46017e-12
28.0286 421.083 1.72899e-12
-1.46017e-12 1.72899e-12 418.653

402.975 -2.84139 2.63893e-12
-2.84139 465.394 -2.03926e-12
2.63893e-12 -2.03926e-12 417.552

555.812 -26.0971 -1.62093e-12
-26.0971 543.385 2.11683e-12
-1.62093e-12 2.11683e-12 533.703

405.512 -4.86259 -3.21476e-12
-4.86259 467.132 -9.88839e-13
-3.21476e-12 -9.88839e-13 420.611

522.303 23.0166 -4.9738e-14
23.0166 499.753 -3.12639e-13
-4.9738e-14 -3.12639e-13 507.981

423.39 26.8715 3.51008e-12
26.8715 386.518 9.01205e-13
3.51008e-12 9.01205e-13 373.037

480.121 -13.2161 -4.97039e-12
-13.2161 532.78 2.65151e-12
-4.97039e-12 2.65151e-12 512.012

484.211 13.7282 -2.13044e-12
13.7282 432.788 9.8499e-13
-2.13044e-12 9.8499e-13 456.887

457.381 -29.9883 1.06818e-12
-29.9883 436.988 -7.1377e-12
1.06818e-12 -7.1377e-12 437.845

454.321 -24.7141 1.80833e-12
-24.7141 416.816 5.62187e-12
1.80833e-12 5.62187e-12 419.865

547.414 -16.0751 3.89644e-12
-16.0751 509.316 -1.50161e-12
3.89644e-12 -1.50161e-12 519.395

475.985 27.9295 -5.06735e-12
27.9295 449.718 -6.27646e-14
-5.06735e-12 -6.27646e-14 456.937

469.114 23.978 -4.4024e-12
23.978 427.861 3.60245e-12
-4.4024e-12 3.60245e-12 439.842

432.44 -2.7929 1.63303e-12
-2.7929 493.65 -9.58048e-13
1.63303e-12 -9.58048e-13 457.119

417.618 5.87345 -9.98719e-13
5.87345 479.57 -3.67055e-12
-9.98719e-13 -3.67055e-12 440.189

463.024 2.64678 -4.1922e-13
2.64678 402.291 -8.13978e-13
-4.1922e-13 -8.13978e-13 422.333

438.66 -7.28989 -3.68298e-12
-7.28989 373.925 1.6526e-12
-3.68298e-12 1.6526e-12 381.229

454.856 30.4854 1.85925e-13
30.4854 439.027 8.08834e-13
1.85925e-13 8.08834e-13 437.848

478.478 -26.156 3.21639e-12
-26.156 443.555 -6.04198e-12
3.21639e-12 -6.04198e-12 454.658

525.712 -21.2545 4.13595e-12
-21.2545 497.84 4.01457e-12
4.13595e-12 4.01457e-12 508.63

437.745 -31.6345 2.48216e-12
-31.6345 437.667 1.6005e-12
2.48216e-12 1.6005e-12 426.871

417.602 -27.7864 -2.67105e-12
-27.7864 444.409 -1.79827e-12
-2.67105e-12 -1.79827e-12 419.7

430.659 29.888 2.67105e-12
29.888 442.757 -5.75244e-12
2.67105e-12 -5.75244e-12 426.509

416.237 -9.57816 -2.60166e-12
-9.57816 475.224 2.35959e-12
-2.60166e-12 2.35959e-12 436.467

428.907 -1.54494 5.13811e-13
-1.54494 491.881 8.94692e-13
5.13811e-13 8.94692e-13 454.007

445.193 5.74788 7.67553e-13
5.74788 508.056 1.64491e-12
7.67553e-13 1.64491e-12 474.926

414.63 -21.0897 -1.02614e-12
-21.0897 458.42 -4.15075e-13
-1.02614e-12 -4.15075e-13 426.077

496.881 24.1117 2.71309e-12
24.1117 455.708 -1.05397e-13
2.71309e-12 -1.05397e-13 474.605

483.386 -9.58998 -3.9216e-12
-9.58998 430.124 1.80345e-12
-3.9216e-12 1.80345e-12 455.233

415.645 7.46543 1.81412e-12
7.46543 477.134 5.1769e-12
1.81412e-12 5.1769e-12 436.925

443.966 -9.70118 2.75428e-14
-9.70118 501.517 -2.67046e-13
2.75428e-14 -2.67046e-13 471.019

433.186 -16.3311 -1.26077e-12
-16.3311 481.689 7.05865e-12
-1.26077e-12 7.05865e-12 455.68

463.553 -8.23943 1.81662e-12
-8.23943 406.346 -6.94556e-13
1.81662e-12 -6.94556e-13 421.482

494.446 -32.3468 -1.18749e-12
-32.3468 487.628 2.40134e-12
-1.18749e-12 2.40134e-12 496.262

422.956 9.32122 5.32448e-12
9.32122 479.104 4.48885e-12
5.32448e-12 4.48885e-12 440.992

564.366 -18.2128 4.34112e-12
-18.2128 529.961 -2.77778e-12
4.34112e-12 -2.77778e-12 531.841

309.057 24.8235 2.63552e-12
24.8235 379.433 6.22909e-12
2.63552e-12 6.22909e-12 289.806

501.71 -26.6265 -4.73932e-12
-26.6265 499.501 8.4451e-13
-4.73932e-12 8.4451e-13 501.211

515.661 -30.2029 7.92255e-13
-30.2029 498.415 -1.4125e-12
7.92255e-13 -1.4125e-12 504.93

429.234 -0.701186 4.92347e-13
-0.701186 492.007 1.53063e-12
4.92347e-13 1.53063e-12 454.157

474.895 -16.6229 -4.65228e-12
-16.6229 428.349 6.35344e-12
-4.65228e-12 6.35344e-12 441.968

462.317 12.8417 8.61792e-13
12.8417 511.288 4.51372e-12
8.61792e-13 4.51372e-12 489.133

240.782 -3.18073 -6.27224e-12
-3.18073 360.697 -1.91136e-12
-6.27224e-12 -1.91136e-12 226.972

432.416 14.274 -1.21288e-12
14.274 485.37 -8.73375e-13
-1.21288e-12 -8.73375e-13 456.895

458.125 -29.49 3.68298e-12
-29.49 443.183 -1.79412e-12
3.68298e-12 -1.79412e-12 440.774

304.195 25.1063 3.61666e-12
25.1063 394.595 2.77349e-12
3.61666e-12 2.77349e-12 264.348

603.556 26.0971 5.39968e-12
26.0971 597.961 8.43932e-12
5.39968e-12 8.43932e-12 558.166

608.29 -27.8063 8.55908e-13
-27.8063 595.036 -3.53554e-12
8.55908e-13 -3.53554e-12 558.299

463.507 -30.4198 -4.20523e-12
-30.4198 459.051 -2.99346e-12
-4.20523e-12 -2.99346e-12 459.085

434.597 -31.1612 6.93549e-12
-31.1612 436.372 -3.56396e-12
6.93549e-12 -3.56396e-12 424.674

474.115 20.828 -9.56864e-13
20.828 431.927 -5.29177e-12
-9.56864e-13 -5.29177e-12 443.985

465.236 15.0066 5.57006e-12
15.0066 410.128 3.57433e-12
5.57006e-12 3.57433e-12 427.475

646.072 3.08295 -7.65299e-12
3.08295 645.73 3.09538e-12
-7.65299e-12 3.09538e-12 574.627

649.892 -6.99924 -9.87854e-12
-6.99924 641.4 -1.20712e-11
-9.87854e-12 -1.20712e-11 575.155

497.002 4.82427 -1.65971e-12
4.82427 442.048 -1.29733e-12
-1.65971e-12 -1.29733e-12 477.426

443.57 6.73127 1.73269e-12
6.73127 503.003 2.01498e-12
1.73269e-12 2.01498e-12 471.063

441.984 6.73635 2.61432e-12
6.73635 502.528 3.28626e-13
2.61432e-12 3.28626e-13 469.786

321.544 58.636 -2.53664e-12
58.636 281.13 -3.31587e-14
-2.53664e-12 -3.31587e-14 225.083

420.241 -28.2007 -2.68171e-12
-28.2007 444.037 -3.10862e-13
-2.68171e-12 -3.10862e-13 421.044

520.591 17.9744 2.0357e-12
17.9744 467.543 -1.26625e-12
2.0357e-12 -1.26625e-12 499.522

472.994 9.53996 1.49214e-13
9.53996 421.209 3.50904e-12
1.49214e-13 3.50904e-12 436.216

440.643 -26.7241 6.15804e-14
-26.7241 450.74 -4.67774e-14
6.15804e-14 -4.67774e-14 433.428

469.29 -20.2383 -3.57107e-12
-20.2383 422.729 3.39491e-12
-3.57107e-12 3.39491e-12 437.189

312.481 60.2339 -8.78704e-13
60.2339 281.379 -9.29627e-13
-8.78704e-13 -9.29627e-13 223.221

492.694 31.0693 -2.38061e-12
31.0693 489.055 -3.33541e-12
-2.38061e-12 -3.33541e-12 493.15

410.875 -19.7868 -2.59999e-12
-19.7868 457.895 4.62445e-13
-2.59999e-12 4.62445e-13 423.51

474.142 28.8584 -1.1647e-12
28.8584 449.644 -5.46822e-12
-1.1647e-12 -5.46822e-12 456.531

430.968 -4.14504 2.05391e-13
-4.14504 492.987 -2.48394e-12
2.05391e-13 -2.48394e-12 456.48

423.943 19.6098 -4.25734e-13
19.6098 465.725 1.89478e-14
-4.25734e-13 1.89478e-14 434.121

452.761 30.5197 2.71309e-12
30.5197 443.611 -3.43843e-12
2.71309e-12 -3.43843e-12 439.621

428.656 -22.474 -2.28617e-12
-22.474 461.151 -5.38769e-12
-2.28617e-12 -5.38769e-12 433.826

443.587 -27.3534 1.73432e-12
-27.3534 450.446 -1.0143e-12
1.73432e-12 -1.0143e-12 435.058

294.786 11.2573 -2.71827e-12
11.2573 372.596 -5.21065e-14
-2.71827e-12 -5.21065e-14 258.109

357.308 -33.4574 9.68707e-13
-33.4574 389.128 -1.37372e-13
9.68707e-13 -1.37372e-13 314.138

419.67 -11.6909 -1.00053e-12
-11.6909 476.375 1.34056e-12
-1.00053e-12 1.34056e-12 439.358

478.411 26.4852 3.29218e-13
26.4852 446.812 4.14483e-14
3.29218e-13 4.14483e-14 456.097

452.358 29.4788 1.92498e-12
29.4788 449.039 -5.28466e-12
1.92498e-12 -5.28466e-12 442.412

426.821 -21.4346 -3.35583e-12
-21.4346 461.798 9.05942e-13
-3.35583e-12 9.05942e-13 432.643

422.943 -11.7828 5.66865e-12
-11.7828 476.661 3.54502e-12
5.66865e-12 3.54502e-12 439.941

457.72 28.4104 2.39571e-12
28.4104 447.1 -5.57776e-13
2.39571e-12 -5.57776e-13 442.584

425.118 -13.8783 9.14232e-13
-13.8783 476.433 -2.07123e-12
9.14232e-13 -2.07123e-12 442.118

311.273 27.856 5.43624e-12
27.856 377.402 -8.02913e-12
5.43624e-12 -8.02913e-12 289.993

485.181 -4.04104 -7.56802e-13
-4.04104 545.061 2.19676e-13
-7.56802e-13 2.19676e-13 511.048

432.998 31.0286 -4.02049e-13
31.0286 439.641 -1.62418e-12
-4.02049e-13 -1.62418e-12 426.032

509.323 14.9016 1.73787e-12
14.9016 463.174 3.38988e-12
1.73787e-12 3.38988e-12 488.618

516.933 -15.9279 3.57285e-12
-15.9279 467.594 -1.7657e-12
3.57285e-12 -1.7657e-12 493.936

383.936 -24.2053 -1.72899e-13
-24.2053 305.956 -3.58824e-13
-1.72899e-13 -3.58824e-13 285.363

442.292 -21.2677 -3.78719e-12
-21.2677 476.013 -1.72188e-12
-3.78719e-12 -1.72188e-12 459.334

447.841 26.6989 2.22548e-12
26.6989 466.221 4.46162e-12
2.22548e-12 4.46162e-12 457.854

522.986 -21.7278 -2.81316e-12
-21.7278 543.821 -4.53215e-12
-2.81316e-12 -4.53215e-12 525.32

579.59 14.1058 -7.51784e-12
14.1058 617.625 4.207e-12
-7.51784e-12 4.207e-12 557.061

620.212 9.4453 -3.42792e-12
9.4453 576.847 4.05809e-12
-3.42792e-12 4.05809e-12 556.88

523.481 32.7052 1.13953e-12
32.7052 520.662 1.70634e-12
1.13953e-12 1.70634e-12 519.535

414.903 26.0013 -6.063e-12
26.0013 448.919 4.52557e-12
-6.063e-12 4.52557e-12 420.388

478.109 26.662 9.74036e-13
26.662 444.782 8.941e-14
9.74036e-13 8.941e-14 455.52

332.372 45.1875 -3.37745e-12
45.1875 349.499 -2.65032e-12
-3.37745e-12 -2.65032e-12 286.748

571.397 -11.343 -2.04814e-12
-11.343 614.476 3.22764e-12
-2.04814e-12 3.22764e-12 554.604

641.329 -3.43256 2.19181e-11
-3.43256 636.873 -1.05581e-11
2.19181e-11 -1.05581e-11 572.403

634.907 -0.209712 -4.38701e-12
-0.209712 643.179 6.70293e-12
-4.38701e-12 6.70293e-12 572.23

272.97 -53.8041 3.71614e-12
-53.8041 316.455 -3.76351e-12
3.71614e-12 -3.76351e-12 220.915

566.647 -11.5997 -2.6598e-12
-11.5997 562.132 4.97054e-12
-2.6598e-12 4.97054e-12 540.908

563.778 8.81258 -1.60886e-12
8.81258 586.969 -6.72706e-12
-1.60886e-12 -6.72706e-12 546.849

478.257 -26.2001 3.72739e-12
-26.2001 440.454 -4.76478e-12
3.72739e-12 -4.76478e-12 453.494

494.359 1.01078 -6.00867e-12
1.01078 545.77 4.78136e-12
-6.00867e-12 4.78136e-12 514.068

447.663 -20.2684 7.85609e-12
-20.2684 484.171 -1.64254e-12
7.85609e-12 -1.64254e-12 470.65

506.314 6.25539 -1.97176e-13
6.25539 443.387 8.48506e-13
-1.97176e-13 8.48506e-13 486.137

461.287 15.5963 4.42859e-13
15.5963 521.265 1.56023e-12
4.42859e-13 1.56023e-12 497.568

471.192 7.19145 1.50859e-12
7.19145 528.018 -2.48039e-12
1.50859e-12 -2.48039e-12 497.702

493.776 20.3933 1.81307e-12
20.3933 451.529 2.70391e-12
1.81307e-12 2.70391e-12 469.763

241.071 -3.11391 -1.72425e-12
-3.11391 358.57 4.08799e-12
-1.72425e-12 4.08799e-12 227.07

463.713 -27.6244 5.21065e-14
-27.6244 463.404 4.36747e-12
5.21065e-14 4.36747e-12 461.203

488.357 -26.1169 -5.0863e-13
-26.1169 481.61 -2.02534e-12
-5.0863e-13 -2.02534e-12 485.881

497.55 -31.4837 2.73144e-12
-31.4837 489.97 1.32946e-12
2.73144e-12 1.32946e-12 498.992

355.609 32.7506 6.53699e-13
32.7506 285.786 4.36747e-12
6.53699e-13 4.36747e-12 248.373

563.889 -20.1162 5.75244e-13
-20.1162 569.621 6.68946e-13
5.75244e-13 6.68946e-13 542.58

337.656 54.3237 -6.8899e-12
54.3237 356.667 9.09495e-13
-6.8899e-12 9.09495e-13 258.882

477.083 -21.4393 -1.25722e-12
-21.4393 506.502 4.08621e-12
-1.25722e-12 4.08621e-12 500.256

504.786 14.6505 1.71892e-12
14.6505 451.999 -3.93345e-12
1.71892e-12 -3.93345e-12 481.572

449.844 -14.5729 1.9907e-12
-14.5729 396.998 -1.80759e-12
1.9907e-12 -1.80759e-12 400.852

452.606 24.0472 4.66116e-12
24.0472 478.793 -7.57912e-13
4.66116e-12 -7.57912e-13 467.861

493.679 20.4283 2.00077e-12
20.4283 449.513 3.57285e-12
2.00077e-12 3.57285e-12 469.354

505.575 11.4002 1.92342e-12
11.4002 564.425 -2.16567e-12
1.92342e-12 -2.16567e-12 526.721

475.908 -31.5806 2.28262e-12
-31.5806 470.369 2.35249e-12
2.28262e-12 2.35249e-12 475.076

559.279 19.8123 -2.01498e-12
19.8123 510.45 -6.10771e-12
-2.01498e-12 -6.10771e-12 526.497

439.97 -18.4439 3.85144e-12
-18.4439 482.478 8.06229e-12
3.85144e-12 8.06229e-12 459.161

465.909 4.2834 -3.92579e-12
4.2834 526.119 -4.30589e-12
-3.92579e-12 -4.30589e-12 495.522

588.646 9.92703 6.29807e-12
9.92703 552.469 -7.4607e-14
6.29807e-12 -7.4607e-14 545.198

590.429 -8.5137 -1.43026e-12
-8.5137 554.811 2.39793e-12
-1.43026e-12 2.39793e-12 545.715

382.32 18.5129 -7.94387e-12
18.5129 302.295 3.59416e-12
-7.94387e-12 3.59416e-12 286.142

502.691 7.96523 1.80596e-12
7.96523 453.612 -3.03505e-12
1.80596e-12 -3.03505e-12 487.777

232.821 7.74076 9.29183e-13
7.74076 381.524 -6.30488e-12
9.29183e-13 -6.30488e-12 187.191

236.99 -11.3854 -5.26386e-12
-11.3854 387.218 -8.71599e-13
-5.26386e-12 -8.71599e-13 189.455

249.293 56.4078 3.61193e-12
56.4078 354.785 -6.44699e-12
3.61193e-12 -6.44699e-12 184.028

505.027 -28.9508 -1.91491e-12
-28.9508 478.627 5.07979e-12
-1.91491e-12 5.07979e-12 491.355

258.478 -49.1916 -6.69923e-12
-49.1916 341.85 1.17642e-11
-6.69923e-12 1.17642e-11 220.74

249.298 -55.9503 -2.68111e-12
-55.9503 344.759 4.51905e-12
-2.68111e-12 4.51905e-12 181.12

434.666 26.2208 -2.0665e-12
26.2208 454.405 2.13755e-12
-2.0665e-12 2.13755e-12 432.836

329.931 73.8449 1.79057e-12
73.8449 280.016 -1.78583e-12
1.79057e-12 -1.78583e-12 184.832

540.135 13.047 2.55499e-12
13.047 554.956 2.7652e-12
2.55499e-12 2.7652e-12 532.087

562.393 0.0400316 1.10371e-12
0.0400316 532.463 -7.83847e-12
1.10371e-12 -7.83847e-12 531.88

338.609 -73.1303 -7.6786e-12
-73.1303 279.864 -2.66217e-12
-7.6786e-12 -2.66217e-12 186.314

432.681 -23.4246 -4.32869e-12
-23.4246 466.323 -3.5764e-12
-4.32869e-12 -3.5764e-12 447.583

358.94 34.73 4.718e-12
34.73 310.983 1.81662e-12
4.718e-12 1.81662e-12 258.044

267.711 63.4918 2.38506e-12
63.4918 345.218 -8.81073e-13
2.38506e-12 -8.81073e-13 185.85

293.7 21.6307 3.72324e-12
21.6307 367.67 -2.55322e-12
3.72324e-12 -2.55322e-12 254.504

267.582 -65.9207 2.80901e-12
-65.9207 344.853 -3.57166e-12
2.80901e-12 -3.57166e-12 184.306

291.647 -12.3814 -8.65678e-13
-12.3814 370.892 6.30962e-12
-8.65678e-13 6.30962e-12 253.449

550.314 6.84112 -4.07208e-12
6.84112 582.085 -2.35663e-12
-4.07208e-12 -2.35663e-12 541.126

329.898 -45.9759 4.46931e-12
-45.9759 341.824 4.39589e-12
4.46931e-12 4.39589e-12 276.622

259.788 47.5329 4.68248e-12
47.5329 340.225 2.56743e-12
4.68248e-12 2.56743e-12 223.151

370.224 37.912 -1.77162e-12
37.912 244.925 5.35512e-12
-1.77162e-12 5.35512e-12 187.361

481.903 -29.2863 1.33049e-12
-29.2863 460.523 4.14602e-12
1.33049e-12 4.14602e-12 467.726

480.987 12.8966 3.92279e-14
12.8966 525.841 2.91885e-12
3.92279e-14 2.91885e-12 504.115

354.427 -38.1133 -2.14821e-12
-38.1133 300.084 -9.75102e-12
-2.14821e-12 -9.75102e-12 251.821

482.546 -28.8026 -1.58155e-12
-28.8026 460.332 -1.60671e-12
-1.58155e-12 -1.60671e-12 468.474

365.271 -36.3439 -2.70954e-12
-36.3439 230.994 2.82263e-12
-2.70954e-12 2.82263e-12 182.775

481.514 -28.3179 2.3513e-12
-28.3179 472.767 2.21186e-12
2.3513e-12 2.21186e-12 477.93

436.365 -25.2955 -4.31477e-12
-25.2955 466.237 1.0593e-12
-4.31477e-12 1.0593e-12 448.222

314.805 69.4614 2.90849e-12
69.4614 292.148 1.07647e-11
2.90849e-12 1.07647e-11 184.528

290.789 -22.9333 -4.84353e-12
-22.9333 359.173 -8.50283e-13
-4.84353e-12 -8.50283e-13 247.036

312.407 -71.6934 -8.71599e-13
-71.6934 288.128 -3.58587e-12
-8.71599e-13 -3.58587e-12 182.031

268.553 50.7384 3.59179e-12
50.7384 320.067 -6.30251e-12
3.59179e-12 -6.30251e-12 221.51

459.874 -30.2128 -1.93623e-12
-30.2128 454.857 8.83974e-12
-1.93623e-12 8.83974e-12 454.412

559.295 -14.6405 3.40143e-12
-14.6405 544.42 -2.79214e-12
3.40143e-12 -2.79214e-12 533.726

635.924 11.092 4.19738e-12
11.092 631.387 7.27714e-12
4.19738e-12 7.27714e-12 570.026

619.961 -5.16011 -4.42313e-13
-5.16011 639.741 1.44187e-12
-4.42313e-13 1.44187e-12 568.504

453.881 13.0837 -4.43192e-12
13.0837 506.567 -6.8147e-12
-4.43192e-12 -6.8147e-12 482.584

634.154 -10.6664 -2.13244e-12
-10.6664 631.317 4.70616e-12
-2.13244e-12 4.70616e-12 569.881

622.699 4.09191 8.38455e-12
4.09191 642.686 -1.15258e-11
8.38455e-12 -1.15258e-11 569.705

643.377 7.43329 -6.91743e-12
7.43329 619.151 -6.84786e-12
-6.91743e-12 -6.84786e-12 569.028

584.781 -12.1144 -5.99928e-12
-12.1144 631.671 2.06753e-12
-5.99928e-12 2.06753e-12 560.601

307.452 -30.4709 -1.74557e-12
-30.4709 371.643 -3.5314e-12
-1.74557e-12 -3.5314e-12 280.777

589.632 -12.9721 -9.36199e-12
-12.9721 549.12 1.61796e-12
-9.36199e-12 1.61796e-12 543.835

527.216 -34.4173 -3.56456e-12
-34.4173 521.496 1.52722e-12
-3.56456e-12 1.52722e-12 519.975

565.472 -18.177 2.84809e-12
-18.177 537.998 2.74506e-12
2.84809e-12 2.74506e-12 534.267

502.582 15.4596 -2.21571e-12
15.4596 452.127 3.41268e-12
-2.21571e-12 3.41268e-12 480.218

586.354 9.86371 3.99355e-12
9.86371 642.138 -1.00369e-11
3.99355e-12 -1.00369e-11 563.111

636.66 19.2269 8.66078e-12
19.2269 591.727 -1.46157e-11
8.66078e-12 -1.46157e-11 562.932

569.783 11.3069 -2.22578e-12
11.3069 544.347 1.6908e-12
-2.22578e-12 1.6908e-12 536.445

353.451 -15.3398 9.01205e-12
-15.3398 231.521 2.60947e-12
9.01205e-12 2.60947e-12 219.02

437.218 24.9648 -7.27063e-12
24.9648 461.925 -2.44545e-13
-7.27063e-12 -2.44545e-13 445.734

317.098 -61.3562 -4.90511e-12
-61.3562 277.855 -7.96282e-12
-4.90511e-12 -7.96282e-12 218.094

334.217 -57.4585 -1.88294e-12
-57.4585 357.331 8.08361e-12
-1.88294e-12 8.08361e-12 252.546

383.344 -36.5449 1.47461e-11
-36.5449 305.746 1.57504e-12
1.47461e-11 1.57504e-12 257.766

562.503 -5.15887 4.08917e-12
-5.15887 616.956 -3.81251e-12
4.08917e-12 -3.81251e-12 552.958

562.21 2.89128 4.53223e-12
2.89128 615.821 7.48586e-12
4.53223e-12 7.48586e-12 552.557

598.775 -24.4553 -9.16896e-13
-24.4553 575.748 7.62013e-12
-9.16896e-13 7.62013e-12 551.586

602.334 -21.7594 1.69068e-12
-21.7594 573.439 1.36454e-12
1.69068e-12 1.36454e-12 551.853

598.788 26.1349 2.86852e-12
26.1349 580.464 4.43949e-12
2.86852e-12 4.43949e-12 552.742

625.745 3.09874 5.3911e-12
3.09874 630.737 3.12694e-12
5.3911e-12 3.12694e-12 568.427

599.064 -20.5081 1.51612e-12
-20.5081 576.36 -2.28306e-12
1.51612e-12 -2.28306e-12 552.275

607.814 -18.5677 6.1567e-12
-18.5677 620.265 -5.43454e-13
6.1567e-12 -5.43454e-13 563.193

632.903 2.43398 7.8629e-12
2.43398 635.529 1.65986e-12
7.8629e-12 1.65986e-12 570.512

607.891 -20.5253 2.07249e-12
-20.5253 572.433 5.12183e-14
2.07249e-12 5.12183e-14 553.414

607.076 20.9549 -1.7164e-12
20.9549 573.691 8.49099e-13
-1.7164e-12 8.49099e-13 553.817

633.854 -3.45797 -6.12399e-13
-3.45797 636.78 -8.47455e-12
-6.12399e-13 -8.47455e-12 571.286

632.184 -3.11641 -1.90536e-11
-3.11641 625.759 2.39709e-11
-1.90536e-11 2.39709e-11 569.402

609.686 12.1096 5.02961e-12
12.1096 620.488 -1.62619e-11
5.02961e-12 -1.62619e-11 563.924

587.208 26.9288 5.44157e-13
26.9288 583.024 3.81127e-12
5.44157e-13 3.81127e-12 551.71

FIELD solute_concentration_TPM 2
S_ext 1 563 float
0.937853
0.937675
0.937693
0.937676
0.937649
0.937693
0.937853
0.937685
0.937709
0.937678
0.937816
0.937685
0.937688
0.937678
0.937656
0.937692
0.93767
0.937684
0.937712
0.937696
0.937702
0.937602
0.937698
0.937696
0.937696
0.93768
0.937807
0.937691
0.937757
0.937627
0.937689
0.937756
0.937811
0.937634
0.937633
0.937634
0.937623
0.937635
0.93769
0.937811
0.937757
0.937622
0.937622
0.937689
0.937788
0.937756
0.93771
0.937706
0.937693
0.937765
0.93776
0.937742
0.937647
0.937744
0.937649
0.937793
0.937633
0.937743
0.937633
0.937694
0.937669
0.937662
0.937803
0.937665
0.937662
0.937675
0.937669
0.937681
0.937697
0.937674
0.937648
0.937648
0.937758
0.937671
0.937693
0.937815
0.937657
0.937675
0.937681
0.937736
0.937774
0.937645
0.937665
0.937775
0.937756
0.937791
0.937691
0.937674
0.937787
0.93761
0.937743
0.937611
0.937655
0.937677
0.937742
0.93776
0.937775
0.937678
0.937658
0.93769
0.937725
0.937753
0.937775
0.93768
0.93768
0.937679
0.937665
0.937692
0.937776
0.93767
0.937694
0.937784
0.937779
0.937682
0.937679
0.937744
0.937635
0.937777
0.937636
0.937743
0.937716
0.937656
0.937674
0.93767
0.93767
0.937654
0.937639
0.937678
0.937775
0.937742
0.937646
0.937675
0.937665
0.937674
0.937754
0.937632
0.937785
0.937688
0.937665
0.937632
0.937751
0.937682
0.937716
0.937678
0.937778
0.937679
0.937684
0.937695
0.937694
0.937728
0.937705
0.937674
0.937755
0.937688
0.937678
0.937674
0.937676
0.937751
0.93775
0.937685
0.937706
0.937754
0.937787
0.937759
0.937749
0.937679
0.93775
0.937751
0.937756
0.937749
0.937654
0.937743
0.93776
0.937675
0.937743
0.937665
0.937654
0.937686
0.937648
0.937681
0.937758
0.937678
0.937678
0.93775
0.937673
0.937761
0.93767
0.937667
0.937656
0.937678
0.937673
0.937773
0.937742
0.937756
0.937674
0.937683
0.937682
0.937665
0.937674
0.937676
0.937674
0.937712
0.937735
0.937666
0.937758
0.937665
0.937676
0.937753
0.937662
0.937674
0.937662
0.937679
0.93768
0.937665
0.937727
0.937679
0.937734
0.937667
0.93767
0.937669
0.937669
0.93767
0.93767
0.93767
0.937678
0.937656
0.937656
0.937655
0.937656
0.93765
0.937649
0.937728
0.937677
0.937674
0.937707
0.937656
0.937656
0.937674
0.937734
0.937674
0.937678
0.937728
0.937661
0.937728
0.937666
0.937673
0.937727
0.937733
0.937774
0.937766
0.937665
0.93778
0.937689
0.937734
0.937712
0.937674
0.937669
0.937624
0.937669
0.937784
0.937733
0.937673
0.937685
0.937735
0.937669
0.937716
0.937624
0.937734
0.937669
0.937671
0.937682
0.937656
0.937674
0.937649
0.937687
0.937786
0.937791
0.937654
0.9377
0.937685
0.93773
0.93766
0.937675
0.937733
0.937676
0.937725
0.937684
0.937726
0.937734
0.937615
0.937653
0.937654
0.937654
0.937678
0.937725
0.937636
0.937672
0.937705
0.937724
0.937729
0.937653
0.937727
0.937657
0.937728
0.937788
0.937724
0.937779
0.937666
0.937727
0.937615
0.937727
0.937669
0.937729
0.93767
0.937727
0.937693
0.93781
0.937693
0.937728
0.937651
0.937728
0.937704
0.937673
0.937674
0.937727
0.937725
0.937716
0.937668
0.937724
0.937686
0.937692
0.93765
0.937725
0.937717
0.937703
0.937716
0.937726
0.937715
0.937664
0.937685
0.937717
0.937728
0.937682
0.937682
0.937724
0.93765
0.937822
0.937695
0.937774
0.937702
0.937878
0.937878
0.937876
0.937876
0.937874
0.937883
0.937883
0.937666
0.937641
0.937685
0.937705
0.937712
0.937716
0.937684
0.937716
0.937717
0.937641
0.937716
0.937662
0.937742
0.937657
0.937694
0.937705
0.937717
0.937654
0.937694
0.937704
0.937694
0.937704
0.937714
0.937737
0.937705
0.937696
0.937661
0.937711
0.937715
0.937712
0.937706
0.937696
0.937683
0.937712
0.937683
0.937695
0.937705
0.937685
0.937694
0.937715
0.937669
0.937704
0.937641
0.937788
0.937666
0.937664
0.937695
0.937704
0.937674
0.937822
0.937693
0.937704
0.937808
0.937618
0.937619
0.937693
0.937713
0.937702
0.937711
0.937603
0.937602
0.937682
0.937685
0.937686
0.937827
0.937714
0.937668
0.937707
0.937709
0.937706
0.937822
0.937671
0.937713
0.937695
0.937694
0.937708
0.937705
0.937708
0.937708
0.93781
0.937778
0.937704
0.937695
0.937703
0.937709
0.937704
0.937703
0.937703
0.937789
0.937658
0.937711
0.937674
0.937671
0.93779
0.937693
0.937693
0.93765
0.937613
0.937613
0.937652
0.937715
0.937695
0.937791
0.937616
0.937601
0.937601
0.937824
0.937635
0.937626
0.937696
0.937656
0.937685
0.937676
0.937668
0.937668
0.937687
0.937822
0.937692
0.937677
0.937669
0.937816
0.93763
0.937815
0.937666
0.93768
0.937727
0.937688
0.937687
0.937645
0.937683
0.937645
0.937693
0.937669
0.937629
0.93763
0.937793
0.937675
0.937855
0.937856
0.937855
0.937672
0.937828
0.937856
0.937709
0.937854
0.937644
0.937644
0.937855
0.937699
0.937813
0.937859
0.937812
0.93786
0.937812
0.937634
0.937797
0.937827
0.937853
0.937688
0.937664
0.937815
0.937687
0.937853
0.937681
0.937699
0.93786
0.937815
0.93786
0.937823
0.937695
0.937641
0.937601
0.937602
0.937678
0.937601
0.937601
0.937602
0.937611
0.937794
0.937629
0.937653
0.937642
0.93768
0.93761
0.93761
0.937641
0.937823
0.937701
0.937831
0.937819
0.937811
0.937616
0.937616
0.937618
0.937618
0.937616
0.937605
0.937621
0.937611
0.937605
0.937619
0.937619
0.937604
0.937604
0.93761
0.937621
P_ext 1 563 float
0.0176044
0.0176
0.0176007
0.0176001
0.0175985
0.0176007
0.0176044
0.0176004
0.0176011
0.0176001
0.0176036
0.0176003
0.0176005
0.0176001
0.0175989
0.0176007
0.0175997
0.0176003
0.0176013
0.0176008
0.0176009
0.0175956
0.0176008
0.0176007
0.0176008
0.0176002
0.0176034
0.0176005
0.0176024
0.0175971
0.0176005
0.0176024
0.0176035
0.0175976
0.0175976
0.0175976
0.017597
0.0175977
0.0176005
0.0176035
0.0176024
0.017597
0.017597
0.0176005
0.0176031
0.0176024
0.0176012
0.0176011
0.0176006
0.0176026
0.0176025
0.017602
0.0175984
0.0176021
0.0175985
0.0176032
0.0175976
0.0176021
0.0175976
0.0176007
0.0175997
0.0175993
0.0176034
0.0175994
0.0175993
0.0175998
0.0175997
0.0176003
0.0176008
0.0175999
0.0175985
0.0175985
0.0176024
0.0175997
0.0176007
0.0176036
0.017599
0.0175999
0.0176002
0.0176019
0.0176027
0.0175983
0.0175995
0.0176028
0.0176024
0.0176031
0.0176006
0.0175998
0.0176031
0.0175958
0.0176021
0.0175958
0.0175989
0.0175999
0.0176021
0.0176025
0.0176028
0.0176001
0.017599
0.0176005
0.0176016
0.0176023
0.0176028
0.0176003
0.0176002
0.0176002
0.0175994
0.0176006
0.0176028
0.0175998
0.0176007
0.017603
0.0176029
0.0176003
0.0176002
0.0176021
0.0175976
0.0176028
0.0175976
0.0176021
0.0176014
0.017599
0.0176
0.0175997
0.0175997
0.0175989
0.0175978
0.0176001
0.0176028
0.017602
0.0175983
0.0176001
0.0175995
0.0176
0.0176023
0.0175975
0.017603
0.0176005
0.0175994
0.0175975
0.0176022
0.0176002
0.0176013
0.0176001
0.0176029
0.0176002
0.0176002
0.0176006
0.0176007
0.0176017
0.017601
0.0176
0.0176023
0.0176005
0.0176001
0.0176
0.0176
0.0176023
0.0176022
0.0176004
0.0176011
0.0176023
0.0176031
0.0176024
0.0176022
0.0176002
0.0176022
0.0176023
0.0176024
0.0176022
0.0175988
0.0176021
0.0176025
0.0176
0.0176021
0.0175994
0.0175988
0.0176003
0.0175985
0.0176002
0.0176024
0.0176002
0.0176001
0.0176022
0.0175998
0.0176025
0.0175997
0.0175995
0.0175988
0.0176002
0.0175997
0.0176028
0.017602
0.0176024
0.0176
0.0176004
0.0176003
0.0175995
0.0176
0.0175999
0.0176
0.0176013
0.0176019
0.0175995
0.0176024
0.0175995
0.0175998
0.0176023
0.0175992
0.0175999
0.0175992
0.0176001
0.0176002
0.0175994
0.0176016
0.0176
0.0176019
0.0175995
0.0175997
0.0175997
0.0175998
0.0175998
0.0175998
0.0175998
0.0176001
0.017599
0.017599
0.0175989
0.0175989
0.0175985
0.0175984
0.0176017
0.0176
0.0176
0.0176011
0.0175989
0.0175989
0.0176
0.0176019
0.0176
0.0176001
0.0176017
0.0175992
0.0176017
0.0175994
0.0176
0.0176016
0.0176018
0.0176028
0.0176026
0.0175995
0.0176029
0.0176006
0.0176019
0.0176012
0.0176
0.0175997
0.017597
0.0175998
0.017603
0.0176018
0.0176
0.0176003
0.0176019
0.0175998
0.0176013
0.017597
0.0176019
0.0175997
0.0175997
0.0176003
0.0175989
0.0175998
0.0175985
0.0176005
0.017603
0.0176031
0.0175987
0.0176009
0.0176003
0.0176017
0.0175991
0.0176
0.0176018
0.0175999
0.0176016
0.0176002
0.0176016
0.0176018
0.0175963
0.0175987
0.0175988
0.0175989
0.0176001
0.0176016
0.0175977
0.0175998
0.017601
0.0176016
0.0176017
0.0175987
0.0176017
0.0175988
0.0176017
0.0176031
0.0176016
0.0176029
0.0175994
0.0176017
0.0175963
0.0176017
0.0175995
0.0176017
0.0175996
0.0176017
0.0176006
0.0176035
0.0176007
0.0176017
0.0175986
0.0176017
0.017601
0.0175997
0.0176
0.0176017
0.0176016
0.0176013
0.0175995
0.0176016
0.0176003
0.0176006
0.0175986
0.0176016
0.0176014
0.0176009
0.0176014
0.0176016
0.0176013
0.0175992
0.0176003
0.0176014
0.0176017
0.0176002
0.0176002
0.0176016
0.0175986
0.0176038
0.0176006
0.0176028
0.0176009
0.0176048
0.0176048
0.0176048
0.0176048
0.0176047
0.0176049
0.0176049
0.0175994
0.0175979
0.0176004
0.017601
0.0176012
0.0176014
0.0176002
0.0176013
0.0176014
0.0175979
0.0176013
0.0175992
0.017602
0.017599
0.0176006
0.017601
0.0176014
0.0175987
0.0176007
0.017601
0.0176006
0.017601
0.0176013
0.0176019
0.017601
0.0176007
0.0175992
0.0176012
0.0176014
0.0176013
0.017601
0.0176007
0.0176002
0.0176012
0.0176002
0.0176007
0.017601
0.0176003
0.0176007
0.0176013
0.0175997
0.017601
0.017598
0.0176031
0.0175995
0.0175992
0.0176007
0.017601
0.0175999
0.0176038
0.0176006
0.017601
0.0176035
0.0175964
0.0175964
0.0176006
0.0176013
0.017601
0.0176012
0.0175953
0.0175953
0.0176003
0.0176003
0.0176003
0.0176039
0.0176013
0.0175996
0.0176011
0.0176012
0.0176011
0.0176037
0.0175997
0.0176013
0.0176007
0.0176006
0.0176012
0.017601
0.0176011
0.0176011
0.0176035
0.0176028
0.017601
0.0176006
0.017601
0.0176012
0.017601
0.0176009
0.017601
0.0176031
0.017599
0.0176012
0.0175999
0.0175997
0.0176031
0.0176007
0.0176007
0.0175985
0.0175963
0.0175964
0.0175986
0.0176014
0.0176006
0.0176031
0.0175965
0.0175955
0.0175955
0.0176038
0.0175977
0.0175971
0.0176007
0.0175989
0.0176004
0.0176
0.0175996
0.0175995
0.0176003
0.0176038
0.0176006
0.0175999
0.0175996
0.0176036
0.0175974
0.0176036
0.0175996
0.0176001
0.0176016
0.0176005
0.0176004
0.0175983
0.0176003
0.0175983
0.0176007
0.0175996
0.0175972
0.0175972
0.0176032
0.0175999
0.0176044
0.0176044
0.0176044
0.0175998
0.0176039
0.0176044
0.0176012
0.0176044
0.0175982
0.0175983
0.0176044
0.0176009
0.0176036
0.0176045
0.0176036
0.0176045
0.0176036
0.0175976
0.0176033
0.0176039
0.0176044
0.0176004
0.0175994
0.0176036
0.0176004
0.0176044
0.0176002
0.0176009
0.0176045
0.0176036
0.0176045
0.0176038
0.0176007
0.017598
0.0175955
0.0175956
0.0176
0.0175955
0.0175955
0.0175956
0.0175961
0.0176032
0.0175973
0.0175987
0.0175979
0.0176001
0.017596
0.017596
0.0175979
0.0176038
0.0176009
0.0176039
0.0176037
0.0176035
0.0175966
0.0175966
0.0175967
0.0175967
0.0175966
0.0175956
0.0175967
0.0175959
0.0175955
0.0175965
0.0175965
0.0175955
0.0175956
0.0175959
0.0175967
FIELD solute_flux_TPM 2
S_ext 3 563 float
-5.12945e-05 1.71493e-05 7.93332e-19
2.34079e-06 4.40256e-06 4.9854e-19
-8.09852e-06 -6.3991e-06 1.66835e-18
-2.67149e-06 2.70078e-06 -8.4582e-19
1.51308e-05 -4.34423e-06 2.05354e-18
1.73552e-06 -1.00881e-05 3.57236e-21
-5.05114e-05 -1.7358e-05 1.24214e-18
-8.91461e-06 -6.5656e-06 -1.00376e-18
1.39999e-05 6.05743e-07 -3.98049e-18
7.35069e-06 -2.62964e-06 -1.51266e-18
3.41873e-05 7.95764e-06 1.09426e-18
1.4332e-06 -1.09993e-05 -1.49872e-18
8.79133e-06 7.09024e-06 1.3349e-18
1.78107e-06 8.81734e-06 1.175e-18
1.37184e-05 -2.04184e-06 -3.52079e-19
-1.02515e-05 -1.67126e-07 1.67408e-18
1.88099e-06 9.15574e-06 -3.34506e-19
6.52564e-06 -1.5791e-06 1.00407e-18
6.235e-06 1.08624e-05 1.97707e-18
-9.33675e-06 1.18859e-06 2.67018e-18
-2.22094e-06 -1.34229e-05 1.33677e-18
2.86262e-05 4.03937e-05 3.00655e-18
1.00055e-05 1.02824e-06 -1.66946e-18
7.17917e-06 -7.14745e-06 3.31977e-19
-9.47187e-06 -2.11397e-06 2.00363e-18
-3.69039e-07 -7.1054e-06 1.51514e-18
3.92287e-05 -3.06457e-06 -1.52184e-19
9.05344e-06 6.53943e-06 9.98596e-19
-1.55798e-05 -1.26603e-05 1.28737e-18
3.24007e-05 -8.59396e-06 -3.30206e-18
-1.04437e-05 -3.90123e-06 6.62217e-21
3.33902e-06 -1.99835e-05 3.86788e-18
2.94309e-05 -2.99923e-05 -9.42459e-19
-3.46025e-06 -2.7652e-05 2.75442e-18
-1.95666e-05 2.4329e-05 1.2309e-18
-2.56766e-05 -1.08183e-05 -1.90443e-18
2.14988e-05 2.81273e-05 -1.74156e-18
-2.95482e-05 -5.80638e-06 2.77316e-18
9.29146e-06 -6.99587e-06 1.00272e-18
2.8754e-05 3.12527e-05 4.70654e-19
2.01211e-05 -8.7941e-06 -1.61809e-19
2.19198e-05 -2.70742e-05 -2.43547e-18
-1.24939e-05 -3.24989e-05 1.6512e-19
-9.99799e-06 4.10316e-06 -3.34434e-18
1.88591e-05 -1.84432e-05 -1.27148e-18
-1.86667e-05 6.63306e-06 3.20921e-19
-2.5709e-06 -1.27493e-05 1.16111e-18
4.95537e-06 1.27115e-05 -6.61562e-19
-1.03472e-05 3.78518e-06 2.67645e-18
-1.12065e-05 1.76306e-05 -6.39018e-19
2.02987e-05 9.54543e-06 2.07997e-18
1.83768e-05 -6.39186e-06 9.72639e-19
-1.03744e-05 1.03635e-05 1.81201e-19
-1.45571e-05 -1.26286e-05 -2.11805e-18
-1.39466e-05 -3.43601e-06 5.13415e-19
-2.74646e-05 1.63666e-05 3.44445e-22
-1.93715e-05 -2.50393e-05 -8.79987e-19
3.83193e-06 -1.90276e-05 2.11579e-18
-3.13787e-05 4.29857e-06 -1.5529e-18
3.83398e-06 8.68972e-06 -4.97756e-19
-3.57132e-06 -5.37773e-06 1.50503e-18
-4.22005e-06 -1.17738e-05 1.51162e-18
3.54468e-05 1.54406e-05 -1.5924e-19
6.15047e-06 1.17943e-05 8.51056e-19
8.13987e-06 -9.42112e-06 -1.52895e-18
-1.15728e-06 -1.34323e-05 -1.17262e-18
3.09226e-06 -5.72395e-06 -8.41254e-19
-6.38931e-06 -3.60231e-06 -2.01469e-18
-6.73395e-06 7.47135e-06 3.3064e-19
1.62891e-06 -2.74888e-06 -1.00754e-18
-9.94433e-06 -1.04236e-05 -1.0356e-18
-1.40671e-05 3.4456e-06 -1.01561e-18
-2.39371e-06 2.1279e-05 -1.77519e-18
-1.15621e-05 6.94179e-06 2.87719e-18
-5.75389e-06 9.16112e-06 4.97912e-19
-3.66085e-05 4.56462e-06 2.66617e-18
5.2237e-06 -1.41574e-05 2.89457e-18
-1.2246e-05 -5.63274e-06 1.34728e-18
1.18649e-06 7.4489e-06 -8.31897e-19
1.65611e-05 3.17492e-06 3.41473e-18
2.12576e-05 -1.81002e-05 -8.02962e-19
1.47238e-05 1.35103e-05 -8.59437e-19
7.90231e-06 -1.96276e-06 -6.88123e-19
-1.97926e-05 1.45014e-05 1.58818e-19
2.36626e-05 3.03984e-06 1.61317e-18
-3.40706e-06 3.03444e-05 -2.53056e-18
-1.09324e-06 -1.07116e-05 -2.33018e-18
1.18642e-05 6.41158e-06 1.6847e-18
1.81376e-05 1.899e-05 1.53373e-19
4.25224e-05 2.64364e-05 -1.05548e-18
-3.36982e-06 1.91212e-05 -2.27403e-18
4.44177e-05 -2.49615e-05 -8.46343e-18
-1.78845e-05 3.408e-06 2.56216e-18
1.16516e-05 7.2452e-06 5.38259e-18
-1.82627e-05 6.09542e-06 2.11994e-18
1.02903e-05 1.78465e-05 -6.59225e-18
6.11069e-06 -2.74095e-05 1.60573e-18
1.20239e-06 7.44614e-06 -2.18032e-18
-9.58217e-06 -1.15726e-05 1.70058e-18
1.89542e-06 1.11001e-05 -1.58878e-19
1.66098e-05 3.34034e-06 -1.32102e-18
-9.60813e-06 2.04546e-05 -1.62144e-18
2.52442e-05 -8.42327e-06 6.37855e-19
-2.4253e-06 4.69851e-06 -2.01699e-18
6.48672e-06 3.72407e-06 -1.1807e-18
-1.3965e-06 -7.22647e-06 5.12114e-21
2.18802e-06 -1.25896e-05 1.01409e-18
1.11594e-05 2.52747e-06 -1.17453e-18
-5.0923e-06 2.53683e-05 -3.98914e-18
-6.45319e-06 8.84911e-08 3.29189e-19
5.97035e-06 7.52603e-06 2.32931e-18
-1.66818e-06 -2.58525e-05 1.59211e-18
2.61762e-05 8.13756e-06 3.18995e-18
2.86258e-06 -4.72481e-06 1.67698e-18
-7.06263e-06 -2.31374e-06 -6.73929e-19
-1.80361e-05 -7.69044e-06 -6.82544e-21
1.05993e-05 2.77186e-05 2.41575e-18
-2.64386e-05 -9.42725e-06 3.20123e-18
1.07473e-05 -2.77927e-05 -6.93885e-18
-2.32718e-06 -1.98133e-05 7.27125e-21
1.38157e-05 3.74711e-07 -4.12007e-18
-4.70968e-06 1.21876e-05 5.06615e-19
-1.06167e-06 2.53343e-06 -5.71068e-18
-2.48812e-06 -1.07492e-05 -1.64752e-19
3.42675e-06 -5.58163e-06 -2.52531e-18
6.20955e-06 1.04216e-05 -6.81098e-19
2.22878e-05 7.30197e-06 1.5522e-18
5.66532e-06 -4.72189e-06 1.17664e-18
-5.22977e-06 -2.77424e-05 4.80608e-19
1.60149e-05 -1.17888e-05 9.75179e-19
3.30339e-06 1.83455e-05 -5.11581e-19
-1.77166e-06 -1.86085e-06 -2.86636e-18
-5.68981e-06 -5.41837e-06 -1.36046e-18
-3.10368e-06 9.23542e-08 2.69232e-18
-1.41497e-05 1.74601e-05 6.43767e-19
1.29196e-05 -2.49433e-05 -1.74168e-18
-1.64778e-05 2.60513e-05 -3.20242e-19
-1.0348e-05 6.06411e-06 -6.64678e-19
1.62292e-06 8.1239e-06 3.20986e-18
-1.51133e-05 -2.36412e-05 2.07894e-18
8.5785e-06 2.08004e-05 -4.37386e-18
1.13976e-05 5.91397e-06 2.00863e-18
1.44081e-05 -5.46409e-06 1.98147e-18
-8.54727e-07 -7.22356e-06 5.07213e-19
-2.07658e-05 -1.90961e-05 -5.81016e-21
-1.6948e-06 7.23476e-06 6.60816e-19
1.11796e-05 6.60842e-06 1.83748e-18
1.20947e-05 -5.75168e-06 1.16624e-18
5.30068e-06 -9.06365e-06 2.26665e-21
1.53499e-05 -6.79601e-06 -1.14829e-18
1.21054e-05 -5.73277e-06 9.95252e-19
3.09785e-06 2.2751e-07 5.70924e-18
1.60386e-05 1.26977e-05 -3.2698e-19
-1.65893e-06 -1.07968e-05 -9.99113e-19
-6.75311e-06 -2.76694e-06 2.01907e-18
7.74041e-07 -2.48849e-06 6.76124e-19
-2.13481e-06 1.01883e-05 -1.33567e-18
-2.13402e-05 1.69187e-06 -2.11251e-18
-7.53731e-06 -2.04756e-05 8.15096e-19
-5.01068e-06 6.16439e-06 1.83122e-18
8.58748e-06 1.04582e-05 -3.35165e-19
1.65515e-05 -1.18065e-05 -1.45376e-18
-2.26449e-05 -1.22842e-05 -3.20981e-19
1.07583e-05 -1.72384e-05 -2.25705e-18
1.41906e-05 -1.69769e-05 -3.57433e-18
-6.94898e-06 2.48972e-06 -3.19564e-18
-1.22643e-05 -1.76476e-05 2.11256e-18
-2.13208e-05 -3.55507e-06 -1.13632e-18
-2.57474e-06 -1.96329e-05 1.94118e-18
9.52144e-06 -1.97091e-05 1.78216e-18
-6.07125e-06 -1.72294e-05 -1.19857e-18
2.72773e-06 1.95088e-05 -3.25431e-18
-9.8962e-06 -1.75405e-05 2.89692e-18
2.0209e-06 -1.04987e-05 5.08313e-19
-1.5312e-05 1.11346e-05 2.29404e-21
-9.76595e-06 -7.96304e-06 2.36552e-18
-1.80029e-05 -3.29913e-06 -3.40804e-18
1.01165e-05 -5.95828e-06 -8.42425e-19
-2.80337e-06 1.58108e-05 1.36477e-18
8.02938e-06 -5.96053e-06 1.84948e-18
-1.82199e-05 -7.98296e-06 -2.57912e-18
-5.69335e-06 -4.69831e-06 8.43211e-19
5.93231e-06 4.76501e-06 -1.6837e-18
1.33345e-05 1.78841e-05 -9.75728e-19
-1.12497e-05 -7.00338e-06 1.6887e-19
-1.99708e-05 -4.84031e-07 -3.23408e-19
-1.06621e-05 -3.13377e-06 6.8142e-19
-3.01822e-06 -1.07616e-05 2.77249e-21
1.17309e-05 1.42164e-05 3.91649e-18
-7.08592e-06 3.66748e-06 -8.4316e-19
4.70872e-07 -1.32815e-05 -6.72948e-19
-2.56038e-05 6.5767e-06 1.57875e-19
1.55823e-05 1.26514e-05 -2.27728e-18
2.26433e-06 2.0433e-05 -5.31759e-18
-1.52471e-06 2.49703e-06 -1.01515e-18
-5.70825e-06 1.59281e-07 1.65625e-19
2.80897e-06 4.91651e-06 -2.85014e-18
-7.66167e-06 2.29765e-06 -4.98977e-19
-1.35021e-06 -2.41004e-06 3.52522e-18
1.15708e-06 1.34002e-05 -6.6546e-19
2.96886e-06 2.07283e-07 -1.012e-18
-1.21978e-05 2.95517e-06 1.16409e-18
-1.08205e-05 1.19617e-05 3.21484e-19
-1.97793e-06 7.61463e-06 2.0271e-18
-1.80593e-05 1.1268e-05 -4.91257e-19
-6.17397e-06 5.84585e-06 -3.71262e-18
1.1288e-05 -7.71849e-06 -4.72354e-18
2.28591e-05 -2.27918e-06 2.58734e-18
-1.38562e-05 7.3421e-06 1.02303e-18
1.41548e-06 2.96891e-06 1.67911e-18
1.44715e-05 -2.7458e-06 -1.64894e-19
-1.10904e-05 6.74131e-06 2.01951e-18
-6.27555e-06 3.59456e-06 -3.02031e-18
7.90003e-06 2.58497e-06 1.68906e-18
1.37561e-05 -8.53635e-06 -3.32354e-21
-1.11873e-05 6.34466e-06 2.19161e-18
-1.54928e-05 -3.25837e-06 1.64189e-19
-1.0887e-05 -2.76226e-06 -2.19828e-18
6.61156e-06 9.35574e-08 2.18323e-18
6.76868e-06 3.73608e-08 -1.52125e-18
2.92965e-06 5.41873e-06 -1.51202e-18
3.21856e-06 -5.72649e-06 -3.1901e-18
-3.23235e-06 5.55896e-06 -2.19247e-18
-3.3822e-06 -5.68552e-06 -5.39794e-18
6.39394e-06 -4.89919e-06 -1.85094e-18
-1.34249e-05 2.18034e-06 6.90279e-19
-1.32733e-05 -2.22236e-06 -8.96802e-21
-8.50926e-06 1.04742e-05 2.74165e-18
-8.55609e-06 -1.05135e-05 -2.7317e-18
4.94795e-06 -1.333e-05 -4.28996e-18
4.76721e-06 1.32179e-05 8.40249e-19
9.42705e-07 1.62031e-05 -2.12584e-18
7.37451e-06 -1.90211e-06 1.66544e-19
1.59188e-06 -2.46672e-06 5.52591e-18
-1.33192e-05 9.10853e-07 1.66746e-18
5.1035e-06 -1.3116e-05 -4.09358e-18
4.83632e-06 1.31627e-05 1.6888e-18
3.10489e-06 -5.74911e-08 -3.33762e-19
5.56856e-06 1.52955e-05 -4.88028e-19
-1.44271e-06 -2.57413e-06 5.0719e-19
1.47573e-06 -7.25774e-06 1.684e-18
-1.39364e-05 -7.4656e-06 -9.84133e-22
-1.39974e-05 -7.4783e-06 -1.36054e-18
-1.36266e-05 8.44063e-06 1.96732e-18
2.10016e-06 -8.22377e-06 -3.72761e-18
-1.02582e-06 2.15139e-06 -5.03165e-18
-4.56666e-07 -1.59404e-05 3.28414e-18
-4.89125e-06 -1.51463e-05 4.89989e-18
2.03453e-05 1.89311e-05 -1.92786e-18
2.22255e-05 -1.14359e-06 8.03649e-19
-8.34562e-06 -2.46216e-06 3.88595e-18
-1.41591e-05 -2.52232e-05 3.19514e-18
5.3081e-06 8.70649e-06 -2.50428e-18
-1.56133e-05 1.84254e-06 -1.13989e-18
1.27297e-05 3.65161e-06 -2.48314e-18
-2.90446e-06 -1.22056e-08 -1.18481e-18
-3.07438e-06 -5.48851e-06 -2.36084e-18
-5.43017e-06 -2.58142e-05 1.90772e-18
-6.37207e-06 7.51629e-09 -3.33524e-19
-2.94353e-05 -1.10431e-06 7.99775e-19
1.08314e-05 -1.20302e-05 -1.30059e-18
1.62026e-06 2.55577e-06 -3.34892e-18
-9.31833e-08 -1.11978e-05 -4.51982e-18
-6.20894e-06 1.49207e-05 -8.18181e-19
-2.89596e-06 5.62743e-06 -8.29784e-19
1.30231e-05 -8.57709e-06 1.15504e-18
-2.50676e-05 -8.1845e-06 8.75557e-19
-9.53853e-06 -1.25992e-05 6.48314e-19
3.26582e-06 5.59201e-06 -3.03324e-18
1.0973e-05 3.21461e-06 -3.38155e-18
-3.02319e-06 -4.62571e-06 8.43074e-19
1.32618e-05 2.44699e-06 2.20939e-18
1.19393e-05 -6.37317e-06 -5.56964e-18
-2.36812e-07 1.78564e-05 -2.22406e-18
5.33585e-06 -8.66772e-06 4.20498e-21
3.0416e-05 1.28813e-06 1.58376e-18
-2.58441e-05 6.72853e-06 4.91036e-18
1.52541e-05 7.59599e-06 2.72909e-18
-4.05627e-06 -1.07611e-05 -1.3278e-18
-9.79398e-06 -5.45088e-06 -1.50455e-18
1.8069e-05 -1.47992e-07 -6.57165e-19
-4.86414e-07 -1.5906e-05 5.09586e-19
-8.03868e-06 -7.0921e-06 1.17505e-18
6.36492e-06 -1.47418e-05 -9.83575e-19
-3.86779e-07 1.32557e-05 -2.18635e-18
4.88436e-06 1.62889e-05 -3.60816e-18
1.11931e-05 -6.43907e-06 -5.0083e-19
-1.18162e-05 1.18759e-05 -2.79675e-18
1.03303e-05 1.25842e-05 -3.42895e-18
-4.32459e-05 1.031e-05 6.13277e-18
-6.74092e-06 1.71128e-05 8.71852e-21
8.30528e-06 -1.00444e-05 1.70423e-18
-4.58987e-06 -1.2141e-05 2.19909e-18
-7.65892e-06 2.78625e-06 -6.73266e-19
-1.59936e-05 -4.38767e-06 -2.29921e-18
-4.46439e-06 2.59843e-05 3.46389e-19
-8.08035e-06 7.82849e-06 -1.68854e-18
1.31956e-05 -2.92835e-06 1.15805e-18
-4.27829e-06 -1.60515e-05 6.9096e-18
-9.27016e-06 1.47558e-05 -9.89124e-19
-1.42899e-05 8.24514e-06 1.54542e-18
-1.27862e-05 -9.32771e-06 8.21437e-19
1.19726e-05 -1.38902e-05 -1.73415e-19
-1.69644e-05 -9.02843e-07 1.80929e-18
7.44374e-06 -2.54729e-05 -6.34494e-19
1.22063e-05 -1.18559e-05 -1.57933e-19
1.52216e-05 2.67303e-05 -7.99251e-19
1.30031e-06 1.29526e-05 1.18778e-18
1.83086e-06 -1.5916e-05 -1.96873e-18
-2.8125e-05 3.30298e-05 6.30403e-18
-7.9043e-06 -1.50953e-05 2.7871e-18
1.08655e-05 -4.15065e-06 1.18529e-18
-1.59893e-06 1.60411e-05 -9.82254e-19
8.42129e-06 -7.9261e-06 -1.86241e-18
8.66517e-06 1.51888e-05 -1.31581e-18
1.09867e-05 -9.54846e-07 -2.50678e-18
1.33031e-05 -3.89434e-05 -2.84535e-18
-3.699e-06 -8.10779e-06 3.17365e-21
-1.43974e-05 6.18173e-06 -6.52622e-19
-1.31949e-05 1.2371e-05 1.87706e-18
1.35714e-05 9.18546e-06 2.12527e-18
1.18885e-05 -6.89231e-06 1.82826e-18
9.7044e-06 8.2999e-06 1.67784e-18
-3.56321e-06 -4.5112e-08 -6.80585e-19
9.63037e-06 -1.44383e-05 -1.96833e-18
-1.05842e-05 -1.25791e-05 4.89344e-19
1.42438e-05 6.21067e-06 -4.28571e-18
8.40015e-06 -7.94218e-06 -1.02172e-18
5.92016e-06 -1.55409e-05 1.31736e-18
1.07134e-05 -4.60084e-06 -4.23531e-21
-9.99922e-06 -4.78568e-06 -3.16441e-18
8.90684e-07 -1.72653e-05 -8.63805e-19
-1.61329e-05 2.79384e-06 -4.88699e-19
1.41701e-06 1.53745e-05 -3.28543e-19
1.30769e-05 4.2672e-06 -1.50285e-18
-1.35167e-05 -6.68352e-06 1.15132e-18
-5.60435e-06 1.59182e-05 -5.09136e-18
-9.28802e-07 -1.51642e-05 6.66639e-19
1.28514e-05 7.82154e-06 2.37222e-18
-1.03589e-06 1.15681e-05 2.84718e-18
-1.25943e-05 8.45215e-06 2.30805e-18
1.48306e-05 7.16425e-06 -1.31847e-18
-1.08839e-05 -6.47579e-06 -6.69555e-19
1.70206e-07 -1.2721e-05 -8.33553e-19
1.15613e-05 1.25082e-05 9.81354e-19
-1.44956e-05 -9.39155e-06 -1.02822e-18
3.00635e-05 -2.15059e-05 2.16995e-18
1.1521e-05 -6.90136e-06 -1.33252e-18
5.37352e-06 2.66378e-05 -3.20111e-18
1.08965e-05 -8.63997e-06 3.16416e-18
-1.39696e-05 5.39123e-05 -7.52582e-19
-1.40419e-05 -5.34001e-05 1.03892e-18
3.50994e-05 4.58689e-05 1.63671e-18
3.46779e-05 -4.58577e-05 5.82717e-19
5.73026e-05 -2.83897e-08 -7.37313e-19
-4.93045e-05 1.99837e-05 1.18426e-18
-4.85054e-05 -2.0192e-05 -1.18128e-18
8.04079e-06 7.81909e-06 2.19315e-18
1.96801e-05 1.46734e-05 3.35643e-19
7.34055e-06 2.17167e-06 2.5072e-18
1.20304e-05 6.181e-06 -2.66397e-18
3.11712e-06 1.27148e-05 6.98468e-21
-1.17827e-05 -9.25318e-06 1.64894e-18
1.11332e-05 -6.52469e-06 1.68426e-18
1.25808e-05 9.14439e-06 1.61553e-19
-1.98033e-06 1.52665e-05 -4.96801e-19
1.97793e-05 -1.34706e-05 -3.793e-18
2.30439e-06 -1.48927e-05 2.31439e-18
1.45496e-05 3.2979e-06 2.20091e-18
1.86937e-05 6.95789e-06 -8.10829e-19
9.41044e-06 9.29985e-06 -1.35749e-18
1.01664e-05 4.23947e-06 1.626e-19
-1.16344e-05 6.86778e-06 9.94908e-19
-1.40479e-05 5.65252e-06 -2.46744e-18
1.53157e-05 -7.44848e-06 -4.44987e-18
-1.15266e-05 -6.35035e-06 3.33878e-18
-1.16719e-05 -6.59668e-06 4.97709e-19
-1.79318e-07 -1.31902e-05 -1.15746e-18
-1.00418e-07 -1.33492e-05 3.35957e-19
-1.25377e-05 -6.33671e-07 1.49164e-18
1.68068e-05 -2.54686e-06 1.53483e-19
1.1518e-05 7.22312e-06 -8.33513e-19
-1.13359e-05 6.85164e-06 2.83686e-18
-9.95612e-06 1.09278e-05 3.91433e-18
1.01524e-05 -8.7227e-06 1.16075e-18
-6.94789e-06 1.08748e-05 -6.26676e-18
-8.91975e-06 -9.27687e-06 1.64707e-19
-7.737e-07 1.33419e-05 -1.49345e-18
-7.65385e-07 1.33135e-05 -1.66646e-18
2.10756e-08 -1.27237e-05 -3.28072e-19
3.84062e-06 -1.24361e-05 1.32696e-18
-1.09792e-05 -6.30425e-06 1.51403e-18
9.95471e-06 -3.55148e-06 -2.00362e-18
4.17355e-07 1.35662e-05 -1.61177e-19
1.81939e-07 1.18152e-05 -1.17093e-18
-1.4851e-06 1.06503e-05 -2.00386e-18
1.38474e-05 -3.50687e-06 -1.81843e-18
-1.08318e-05 3.3725e-06 2.70137e-18
2.55066e-06 1.3579e-05 -4.92143e-19
-2.16338e-05 8.4651e-06 3.44605e-18
5.84376e-06 2.60242e-05 -3.16107e-18
-1.11156e-05 2.89545e-06 1.35551e-18
1.30499e-05 -7.73246e-06 -6.77319e-19
5.29715e-07 1.33428e-05 -2.16192e-18
-1.27921e-05 4.24463e-06 1.83747e-18
1.63525e-06 -1.04715e-05 6.75816e-19
5.76018e-07 -3.60048e-05 3.41249e-18
1.24833e-06 1.11215e-05 -1.99131e-18
-1.07091e-05 8.70741e-06 2.32123e-18
1.07235e-05 3.94476e-05 -7.87457e-19
3.14857e-05 2.61171e-05 -6.98716e-19
3.61014e-05 -2.46996e-05 -7.72401e-18
9.53951e-06 -6.50855e-06 1.33307e-18
-9.92344e-06 8.74471e-06 1.59816e-19
-1.26436e-05 -5.0198e-06 -3.98406e-18
-1.22716e-05 -4.2448e-06 -6.59419e-19
4.44261e-05 -1.22104e-05 -3.74654e-18
4.53138e-05 9.52976e-06 -7.10305e-19
6.9875e-06 2.47395e-06 2.84904e-18
3.94877e-07 1.25269e-05 6.8069e-19
5.80029e-08 1.25203e-05 -2.83894e-18
-2.99848e-05 -2.19502e-05 3.88183e-18
7.20488e-06 -1.08317e-05 9.93336e-19
7.68045e-06 8.29934e-06 5.02652e-19
-1.33258e-05 -2.15624e-06 2.16006e-18
-8.83153e-06 1.06795e-05 -5.89961e-21
-1.18594e-05 5.7153e-06 1.33096e-18
2.96903e-05 2.12947e-05 -7.76444e-19
1.03863e-05 4.56328e-06 2.69248e-18
-3.53767e-06 1.25206e-05 -4.99843e-19
-1.07951e-05 -7.34731e-06 -2.83764e-18
1.1075e-06 -1.30613e-05 -4.32867e-18
-5.58653e-06 -1.20555e-05 5.79373e-18
-1.08335e-05 -7.36925e-06 -4.97194e-19
6.65742e-06 -1.19106e-05 5.01528e-19
8.978e-06 -1.06802e-05 1.82303e-18
-1.82787e-06 -3.76824e-05 2.51468e-18
1.61037e-05 -2.55315e-05 2.40307e-18
1.09971e-06 -1.31232e-05 -1.65558e-18
1.15502e-05 7.19499e-06 9.92212e-19
-9.14543e-06 -9.26601e-06 -3.37801e-19
-6.16588e-06 1.22995e-05 -8.31089e-19
-3.13493e-06 1.32083e-05 -5.03821e-19
1.06153e-05 8.95913e-06 1.65197e-18
3.77028e-06 -1.25438e-05 -6.60675e-19
-8.64131e-06 -2.47515e-05 4.29435e-22
-1.36852e-06 1.64364e-05 1.73135e-19
9.36251e-06 9.13494e-06 1.61205e-19
-8.28698e-06 -6.60868e-06 2.18888e-18
-8.7366e-06 6.88633e-06 5.07163e-18
2.76958e-05 -1.18916e-05 1.42549e-18
4.80179e-06 -8.49002e-06 3.34161e-18
-5.28605e-06 -7.9142e-06 -8.30964e-19
1.42819e-05 4.38082e-06 4.10974e-18
8.81363e-06 -3.17937e-05 1.21824e-18
-2.31327e-05 -2.35086e-05 1.73583e-19
1.55651e-05 4.04937e-06 -5.17537e-19
-5.86754e-06 -1.13923e-05 2.46865e-18
1.19779e-05 6.12932e-06 -1.00971e-18
-1.78215e-05 -1.97988e-05 4.26851e-18
7.13848e-06 3.23225e-05 -5.19353e-19
3.13414e-05 -4.04876e-05 1.94209e-18
-1.93947e-05 -4.73756e-05 1.71003e-19
1.67841e-05 -3.27932e-05 3.06612e-19
-8.38301e-06 2.88619e-05 1.03375e-18
-4.78794e-06 2.55484e-05 2.43821e-18
-1.18348e-05 5.71082e-06 3.50591e-18
4.01674e-06 1.58852e-05 5.1254e-19
-1.49331e-06 8.0065e-06 8.28096e-19
6.54781e-06 2.14545e-06 3.1936e-18
-2.16757e-06 1.05559e-05 -8.3873e-19
-1.51131e-07 1.36388e-05 8.56444e-19
1.0748e-05 6.27367e-06 1.16505e-18
5.30752e-07 3.58344e-05 -4.64577e-18
-9.358e-06 6.68866e-06 -2.01099e-18
1.0416e-05 -3.96334e-06 -1.6985e-19
1.12126e-05 -2.83562e-06 3.55016e-18
-3.67305e-05 -5.28938e-06 3.28995e-18
-2.28927e-05 1.08974e-05 2.07849e-18
-2.66497e-05 -3.16028e-05 2.21159e-18
5.6989e-06 5.42324e-06 8.48079e-19
9.17244e-06 4.81588e-06 5.00015e-19
1.68518e-05 -2.71004e-06 -2.46132e-18
-5.12501e-06 -8.34043e-06 -4.96768e-19
1.10719e-05 5.50819e-06 1.49864e-18
4.88071e-06 -1.98543e-05 -3.26081e-18
-8.85042e-06 6.41729e-06 8.36921e-19
-1.47481e-05 -1.41502e-05 2.56577e-18
-3.64962e-06 1.02959e-05 4.33272e-18
-2.22872e-06 1.34309e-05 2.21003e-18
2.28744e-05 1.42011e-05 1.20755e-18
2.43915e-05 -1.29352e-05 -6.95199e-18
-2.56952e-05 -6.91572e-06 2.85392e-18
4.91185e-06 5.06889e-06 -6.80673e-19
-2.98989e-06 6.25825e-05 -2.47777e-18
-2.11921e-09 -6.42835e-05 -3.25357e-18
3.16862e-05 5.42259e-05 -9.31204e-19
-1.24321e-05 5.36574e-06 1.18499e-18
-1.70097e-05 3.43514e-05 -2.16634e-18
3.18817e-05 -5.23387e-05 -6.08689e-19
-7.35644e-06 -1.13647e-05 1.98441e-18
4.84807e-05 4.21924e-05 9.20803e-19
1.59281e-05 -1.18197e-05 -1.20688e-18
-2.28952e-06 -1.96924e-05 3.08802e-18
5.0796e-05 -4.12569e-05 1.54322e-18
-4.27073e-06 9.11844e-06 6.58741e-19
-3.25836e-05 -2.0697e-05 1.73577e-18
-2.68027e-05 -5.59676e-05 -2.01137e-18
-1.51831e-05 -3.547e-05 1.57232e-18
-2.7555e-05 5.68838e-05 -1.39392e-18
-6.52549e-06 3.94073e-05 -1.88342e-18
1.06906e-05 2.47502e-05 -2.07824e-18
-1.75063e-05 2.24937e-05 1.25867e-18
-1.62774e-05 -3.34437e-05 3.71723e-18
6.23691e-05 1.09464e-05 -2.00705e-18
-1.08418e-05 6.75533e-06 4.35443e-18
-3.92384e-06 1.06197e-05 1.19889e-18
-3.09044e-05 2.22509e-05 -1.25261e-18
-1.10182e-05 6.33676e-06 4.52632e-18
6.1755e-05 -9.76047e-06 1.07872e-21
-9.86458e-06 4.92234e-06 1.67267e-19
4.58048e-06 -9.18183e-06 2.66689e-18
-4.79476e-05 -3.654e-05 1.55381e-19
-1.63574e-05 3.54975e-05 -2.19036e-18
-4.90892e-05 3.62791e-05 1.23671e-18
1.48478e-05 3.26712e-05 -1.2387e-18
-9.38602e-06 6.64634e-06 3.28908e-19
-1.34972e-05 1.6266e-05 1.54844e-18
-2.41666e-05 3.03619e-05 6.02515e-18
-3.78991e-05 -4.88278e-06 6.18308e-18
-6.55749e-07 1.04934e-05 1.35985e-18
-2.55952e-05 -3.04894e-05 1.93826e-18
-3.92143e-05 6.92781e-06 -2.11178e-18
-1.49403e-05 3.46464e-05 -1.05246e-18
-1.15247e-05 4.60944e-05 2.81956e-18
-1.14156e-05 2.53289e-05 -1.57716e-18
-2.23244e-05 1.79907e-05 1.69653e-19
1.63593e-05 -3.99775e-06 2.5613e-18
2.56076e-05 -1.34429e-06 -1.72971e-18
8.73924e-06 5.35945e-06 2.17266e-18
-8.09724e-06 -5.30411e-05 2.45772e-18
-4.99936e-05 -1.94944e-05 -8.7073e-19
2.49339e-05 2.91822e-07 -3.6319e-18
3.65524e-05 -7.05747e-06 -1.08176e-18
-6.65741e-06 -8.45104e-06 2.82224e-18
-3.17019e-05 2.22979e-05 -3.05747e-19
-2.84118e-05 3.25526e-05 -2.0476e-18
3.86396e-05 -1.39211e-05 -9.45875e-19
-1.86783e-05 -3.16402e-05 1.0292e-18
-1.90118e-05 3.13946e-05 5.6084e-18
-3.68786e-05 -1.31107e-06 4.71004e-18
-1.6768e-05 3.29947e-05 -8.69244e-19
-3.67639e-05 3.86223e-07 -3.48094e-18
4.5755e-05 1.63813e-05 -8.5926e-21
3.69095e-05 1.36519e-06 -1.2211e-18
3.47133e-05 -1.77827e-05 -6.69565e-18
1.01353e-05 -4.88071e-05 -6.90278e-18
1.83371e-05 -3.19544e-05 -9.78553e-18
1.82124e-05 3.19502e-05 3.65385e-18
9.92574e-06 4.76895e-05 1.41328e-18
4.99646e-05 -1.40903e-05 -6.71561e-18
3.2024e-05 1.5861e-05 -2.28796e-18
3.07628e-05 8.40259e-06 -2.09569e-18
P_ext 3 563 float
-9.49433e-07 3.21013e-07 3.88348e-20
8.92917e-10 3.51474e-08 -1.04944e-20
-8.74539e-08 -8.22455e-08 2.61302e-20
-2.76646e-08 2.5535e-08 -5.23664e-20
2.41142e-08 4.66672e-10 2.40883e-20
2.87849e-08 -1.16814e-07 -1.03173e-20
-9.34779e-07 -3.24897e-07 2.34572e-21
-6.85559e-08 -7.778e-08 4.16233e-20
1.90741e-07 3.37745e-09 -3.91559e-20
6.96294e-08 -6.53635e-09 -2.7482e-21
6.18011e-07 1.4486e-07 -3.85152e-20
3.39583e-08 -9.93941e-08 1.83297e-20
7.78086e-08 9.2629e-08 2.35336e-20
-8.02328e-09 7.25524e-08 7.90165e-21
2.17832e-08 8.08148e-09 -4.25971e-20
-1.21924e-07 -1.99588e-09 2.10116e-20
-1.52409e-08 4.7805e-08 -5.21694e-21
7.34968e-08 -1.1088e-08 2.70885e-21
8.44268e-08 1.5057e-07 1.00151e-19
-1.13264e-07 1.14212e-08 5.73399e-20
-4.25259e-08 -1.60427e-07 2.86938e-20
1.40648e-09 2.64182e-10 -2.17328e-20
1.2545e-07 1.02128e-08 -8.30258e-20
7.98626e-08 -9.22149e-08 -1.02979e-20
-1.15703e-07 -1.86292e-08 8.31043e-20
-2.18155e-08 -6.33103e-08 -4.95045e-21
7.10469e-07 -5.81202e-08 -2.44446e-20
8.70128e-08 7.33626e-08 -4.92559e-20
-2.5993e-07 -2.06472e-07 7.27497e-20
1.52611e-08 2.87539e-09 5.12901e-21
-1.1617e-07 -2.06827e-08 7.03556e-20
5.07991e-08 -3.30573e-07 -1.97545e-20
5.33889e-07 -5.4677e-07 3.64364e-20
1.13332e-09 -2.50535e-08 -8.03723e-21
-6.73877e-09 1.92667e-08 -7.65369e-21
-2.09148e-08 -1.37754e-08 -2.17102e-20
2.76119e-09 1.38363e-08 5.19679e-21
-2.11423e-08 3.60274e-09 -4.82006e-20
8.40265e-08 -9.13959e-08 7.87441e-21
5.20975e-07 5.69814e-07 -2.30474e-21
3.32752e-07 -1.5076e-07 -6.02224e-20
5.13539e-09 -1.26714e-08 4.03455e-20
-8.33338e-09 -1.10895e-08 3.77299e-20
-1.15404e-07 2.36996e-08 -4.96511e-20
3.3015e-07 -3.24223e-07 2.24254e-21
-3.07608e-07 1.10723e-07 -5.7713e-20
-3.88604e-08 -1.69567e-07 1.15309e-22
7.01131e-08 1.70315e-07 6.44385e-20
-1.10697e-07 2.89431e-08 3.14632e-20
-1.9053e-07 2.96339e-07 -4.2412e-20
3.37724e-07 1.65395e-07 -9.94376e-21
2.93238e-07 -9.64443e-08 -3.79041e-20
-8.6295e-09 2.05127e-08 -5.5802e-20
-2.29478e-07 -2.05926e-07 -2.26763e-22
-2.25012e-08 2.97379e-09 -3.46102e-20
-4.92238e-07 2.89069e-07 2.70909e-20
-6.2569e-09 -1.91863e-08 -1.65068e-20
6.53464e-08 -3.03039e-07 -3.76738e-20
-1.95523e-08 -4.26281e-09 2.70166e-21
5.12608e-08 1.02779e-07 -2.33056e-20
-2.73492e-08 -8.28951e-09 2.5127e-21
-2.88755e-08 -2.71111e-08 -3.71439e-20
6.40581e-07 2.82021e-07 4.77666e-21
-5.606e-10 5.5914e-08 -4.21093e-20
8.63151e-09 -3.7304e-08 1.04236e-20
1.45259e-08 -8.30083e-08 6.30352e-20
-5.77232e-09 -2.71744e-08 -7.72372e-24
-6.64419e-08 -1.68795e-08 -1.32505e-20
-7.73477e-08 9.46412e-08 8.78515e-20
2.07434e-08 -7.52668e-09 1.03763e-20
-8.51137e-09 -2.11038e-08 -3.75255e-20
-2.22549e-08 -3.26435e-09 2.14537e-20
-3.83454e-08 3.55255e-07 -7.67332e-21
-6.82291e-08 3.4461e-08 8.21516e-21
-6.62062e-08 1.13242e-07 5.44464e-20
-6.66148e-07 7.82996e-08 8.29406e-20
2.40583e-11 -5.27207e-08 6.11974e-20
-6.40984e-08 -5.3712e-08 5.51641e-20
2.69988e-08 6.58721e-08 3.91801e-20
2.55271e-07 5.10345e-08 -3.78046e-20
3.65888e-07 -3.18353e-07 -1.01311e-20
1.00172e-08 2.45395e-08 -2.68141e-20
2.47308e-08 7.68385e-09 -3.18545e-20
-3.40926e-07 2.52232e-07 2.505e-21
3.97942e-07 4.83797e-08 -5.01034e-20
-6.03206e-08 5.39401e-07 9.72211e-21
-2.09091e-08 -1.0807e-07 -2.86441e-20
7.33756e-08 5.1681e-08 3.68445e-20
3.17561e-07 3.34893e-07 6.88968e-20
5.7504e-09 2.54845e-09 -2.74584e-20
-6.12012e-08 3.04751e-07 -1.03557e-20
5.19395e-09 -2.77364e-09 -1.43356e-19
-3.67244e-08 2.50538e-08 -2.36368e-20
7.9305e-08 3.22709e-08 5.01082e-20
-2.93441e-07 9.07131e-08 -3.77723e-20
1.70322e-07 2.99285e-07 -8.81788e-20
1.05961e-07 -4.78416e-07 4.00416e-20
2.49038e-08 6.5281e-08 -1.31726e-20
-4.50463e-08 -2.67976e-08 3.1867e-20
3.73377e-08 1.19404e-07 -3.36734e-20
2.48275e-07 4.2247e-08 -5.38265e-20
-1.64827e-07 3.40519e-07 -5.04936e-20
4.38175e-07 -1.43208e-07 2.98526e-20
-2.43092e-08 5.30741e-08 -3.15444e-20
4.65838e-08 4.73203e-08 -3.6759e-20
-2.76946e-08 -6.38772e-08 3.92542e-20
-1.11463e-08 -4.86598e-08 -4.47149e-20
1.28861e-07 1.5445e-08 -5.99269e-20
-9.40162e-08 4.39768e-07 1.21603e-20
-2.17294e-08 1.34137e-08 -3.14931e-20
6.42743e-08 9.52575e-08 3.90266e-20
-3.17916e-08 -4.51301e-07 4.20954e-20
4.56539e-07 1.37077e-07 6.21685e-20
3.10748e-08 -5.4914e-08 6.26985e-20
-7.09442e-08 -8.11137e-09 -1.0556e-20
-2.91975e-07 -1.17186e-07 4.28986e-20
1.4429e-08 1.54291e-08 -2.69439e-20
-4.63822e-07 -1.62208e-07 4.51574e-20
1.46486e-08 -1.53871e-08 -3.30925e-20
-4.51003e-08 -3.17093e-07 5.16598e-21
1.95693e-07 7.42653e-09 -1.07502e-20
-1.7425e-08 1.48555e-08 -6.88079e-20
4.68155e-09 2.13683e-08 -1.61456e-20
1.30963e-08 -5.73117e-08 6.83073e-20
2.27336e-08 -1.06231e-08 -8.66285e-20
4.12705e-10 2.30168e-08 -5.57148e-20
1.98645e-08 -2.48193e-09 1.8923e-20
3.70802e-08 -5.47132e-08 9.4098e-20
-9.4969e-08 -4.84369e-07 -2.39134e-21
2.50866e-07 -1.93122e-07 4.56356e-20
8.04922e-10 3.05449e-08 -3.46363e-20
-2.11511e-08 -3.82164e-09 2.56422e-20
-6.87307e-09 -2.36486e-08 -1.86819e-20
-1.74379e-08 -1.23145e-08 1.33916e-20
-2.34534e-07 2.93079e-07 3.52534e-20
-2.69343e-10 -2.32578e-08 5.632e-20
-2.93387e-07 4.60663e-07 2.39723e-21
-1.10234e-07 5.06905e-08 -1.29973e-20
1.54988e-08 1.67033e-08 2.9136e-20
-2.00234e-08 -1.17086e-08 -2.55796e-21
1.43042e-07 3.45229e-07 -1.08884e-19
8.25083e-08 7.35436e-08 -6.78782e-20
2.00308e-07 -6.60566e-08 2.32869e-20
1.12757e-08 -6.16247e-08 1.05654e-20
-3.63495e-07 -3.34954e-07 -7.49343e-21
-3.50452e-08 6.05529e-08 -3.92274e-20
9.0982e-08 4.85317e-08 -4.43364e-20
1.33053e-07 -4.58033e-08 -7.77053e-20
5.7459e-08 -1.14788e-07 -7.74306e-21
2.27809e-07 -1.05047e-07 -4.33802e-20
1.51556e-07 -7.15366e-08 2.61773e-21
1.52256e-08 -1.2627e-08 9.71149e-20
2.6426e-07 2.09027e-07 -1.26205e-20
-3.82512e-08 -1.10599e-07 -4.94622e-20
-4.6968e-08 -4.01918e-08 5.48649e-21
-7.68386e-09 -2.01571e-08 -6.25296e-20
1.05565e-08 7.89065e-08 -1.82423e-20
-3.53447e-07 2.53398e-08 -4.31273e-20
-1.29121e-07 -3.37397e-07 5.18461e-21
-5.5597e-08 7.08677e-08 -5.20115e-21
1.09333e-07 1.45714e-07 3.3366e-20
2.71999e-07 -1.92919e-07 -1.26634e-20
-3.9765e-07 -2.12605e-07 -9.9192e-21
1.76894e-07 -2.8797e-07 3.73933e-20
2.30336e-07 -2.83333e-07 4.25096e-20
-6.78248e-08 6.71369e-09 -2.91093e-20
-2.02207e-07 -2.9261e-07 1.53152e-20
-3.53955e-07 -5.54737e-08 1.00276e-20
-4.21847e-08 -3.23017e-07 2.28628e-20
1.57458e-07 -3.25453e-07 6.07254e-20
3.29684e-09 -4.47189e-08 -1.34508e-20
4.67904e-08 3.11608e-07 -2.81947e-20
-1.66698e-07 -2.91616e-07 3.02872e-20
-1.56416e-08 -7.15309e-08 -2.08677e-20
-2.40961e-07 1.80395e-07 -1.00919e-20
-4.71929e-08 -1.54627e-08 6.06672e-20
-3.67588e-08 -2.527e-08 4.75516e-20
9.61535e-08 -4.93088e-08 -1.07e-19
-1.32236e-08 1.87191e-08 -2.93432e-20
5.11008e-08 -6.45119e-08 -2.39716e-21
-2.99845e-07 -1.3335e-07 -2.52874e-20
-3.97062e-08 -5.3484e-08 2.62834e-20
4.14966e-08 5.67391e-08 -1.84834e-20
2.16812e-07 2.99282e-07 -5.15217e-21
-7.67216e-08 -3.53773e-08 7.35831e-20
-3.33546e-07 -7.50421e-09 -5.0241e-21
-4.27324e-08 -3.96438e-08 2.8315e-21
-2.42802e-09 -5.74027e-08 3.16665e-20
4.18606e-08 2.1106e-08 -1.58131e-20
-4.82823e-08 4.75997e-08 -8.00476e-21
-8.06599e-09 -8.45068e-08 2.89004e-20
-4.4526e-07 1.09677e-07 -3.99274e-20
2.44065e-07 2.08214e-07 1.49716e-20
3.26107e-08 3.39118e-07 -1.80258e-20
-1.96604e-08 6.75412e-09 -5.44651e-21
-6.5588e-08 2.03808e-09 -1.30163e-20
3.01103e-08 5.749e-08 -4.45848e-20
-2.38254e-08 -5.85745e-09 1.06443e-20
2.82429e-09 -2.03209e-08 4.46763e-20
-1.31202e-08 8.94521e-08 4.99649e-20
1.45293e-08 1.53174e-08 -2.10718e-20
-1.65685e-07 3.66238e-08 -1.00041e-20
-1.68045e-07 1.83355e-07 5.82696e-20
-1.81378e-08 1.682e-08 -1.30156e-20
-3.04028e-07 1.83483e-07 -1.26436e-20
-7.79435e-09 2.58952e-08 -3.43671e-20
8.20301e-08 -2.93793e-08 -9.48165e-20
3.81105e-07 -3.50613e-08 -3.50507e-20
-4.77525e-08 3.02151e-08 -2.62676e-20
1.93175e-08 8.89971e-09 -2.59986e-20
4.9699e-08 -3.11087e-08 -5.022e-20
-8.52831e-08 2.84184e-08 8.04131e-21
-6.20688e-08 1.62659e-08 4.96331e-21
2.18142e-08 -6.38113e-09 4.74498e-20
2.01889e-07 -1.22781e-07 -1.02075e-20
-7.94372e-08 5.06497e-08 -2.07224e-20
-2.37355e-07 -4.94955e-08 3.80747e-20
-5.04267e-08 -2.65562e-08 -2.3822e-20
1.92841e-08 -1.28127e-08 9.6945e-20
2.13629e-08 1.50194e-08 -4.73785e-20
-5.40302e-09 2.42921e-08 6.26298e-20
-2.19744e-09 -2.74088e-08 -1.84995e-20
-2.22455e-08 1.13624e-08 -2.9093e-20
-2.48965e-08 -1.27457e-08 -1.91086e-20
6.23721e-08 -2.35669e-08 7.63832e-21
-2.28091e-08 -6.28248e-09 -1.82794e-20
-2.27604e-08 6.05157e-09 -5.44272e-21
-5.60188e-09 2.26183e-08 5.61608e-20
-6.08269e-09 -2.31141e-08 -4.53966e-20
1.50424e-08 -1.68376e-08 4.74927e-20
1.44612e-08 1.61141e-08 -6.68665e-20
8.731e-09 2.40937e-07 -4.85304e-20
4.6734e-08 -3.85607e-08 1.56761e-20
1.09075e-08 -2.05729e-08 8.6407e-20
-1.81694e-07 6.71435e-09 -1.26178e-20
1.72482e-08 -1.63625e-08 -5.61e-20
1.6104e-08 1.66168e-08 -3.197e-20
2.47095e-08 -5.37898e-10 -1.30283e-20
8.34096e-08 2.3611e-07 -7.55847e-21
-1.25027e-08 -2.0445e-08 -2.85288e-20
2.70372e-08 -6.1874e-08 1.15132e-19
-2.02773e-07 -1.1219e-07 -3.05829e-20
-4.45427e-08 -2.89137e-08 3.95119e-20
-2.03515e-07 1.20701e-07 1.03856e-20
1.80442e-08 -1.84904e-08 -3.19917e-20
-8.64953e-09 1.92237e-08 -5.7758e-21
-4.75933e-09 -2.33309e-07 -3.52598e-20
-7.63853e-08 -2.31081e-07 3.59653e-20
3.50235e-07 3.33342e-07 1.70638e-20
3.74622e-07 -2.12746e-08 -1.48726e-20
-2.65569e-08 5.79082e-09 -1.55391e-20
-2.50551e-07 -4.42758e-07 2.51751e-20
5.97272e-08 1.02411e-07 -2.74957e-21
-2.40151e-07 2.82848e-08 -6.60061e-20
1.72394e-07 4.82059e-08 -9.01958e-20
-2.35526e-08 -9.52677e-11 2.31267e-20
5.17944e-10 -2.44769e-08 -3.6934e-20
-2.13492e-09 -1.67338e-08 1.35664e-20
-2.08709e-08 -1.24253e-08 -5.75312e-20
-5.19496e-07 -1.96862e-08 3.98102e-20
1.63262e-07 -1.84651e-07 3.53906e-20
1.10986e-08 2.15305e-08 7.7949e-20
5.67625e-09 -1.03076e-07 2.06276e-20
-9.73849e-08 2.30625e-07 -3.05451e-20
2.00153e-09 2.58995e-08 8.12442e-20
1.74201e-07 -1.24655e-07 -3.83359e-20
-1.53087e-08 -6.69709e-09 3.26604e-20
-1.48145e-07 -1.92544e-07 -6.0872e-20
2.04083e-08 1.03777e-08 -8.14912e-20
4.82887e-08 4.66969e-08 -4.01689e-22
-3.43662e-08 -5.35346e-08 3.14373e-20
2.11317e-08 -6.84279e-09 2.13051e-20
7.15629e-08 -4.99615e-08 -1.35644e-20
-4.24831e-09 3.98942e-08 -4.00994e-20
5.88791e-08 -9.92391e-08 -1.29414e-20
5.37787e-07 2.70972e-08 2.23366e-20
-4.55607e-07 1.20544e-07 2.0138e-20
3.81334e-08 2.65719e-08 9.9548e-23
-5.64357e-08 -1.35869e-07 2.57315e-20
-8.5775e-08 -5.59598e-08 2.07623e-20
2.7924e-07 -2.80692e-09 2.03061e-20
2.38547e-09 -5.32622e-08 1.59202e-20
-6.97741e-08 -2.46275e-08 3.40685e-20
9.51652e-08 -2.27375e-07 3.28861e-20
7.58619e-09 9.15722e-08 -2.10702e-20
7.81054e-08 2.42214e-07 -2.07082e-20
9.37223e-08 -4.93905e-08 -2.60853e-20
-1.70991e-07 1.82005e-07 3.54266e-20
1.57237e-07 1.94296e-07 -3.06944e-20
-9.88186e-09 4.41611e-09 -5.12156e-20
1.63227e-09 4.21909e-08 -7.80279e-21
3.17337e-09 -1.91402e-08 7.43619e-20
-1.51568e-08 -1.25609e-08 6.87897e-20
-5.22073e-08 4.14022e-08 5.74148e-20
-2.39573e-07 -5.67595e-08 -3.59735e-20
8.35407e-10 2.69141e-08 1.3468e-20
-6.26456e-08 1.86914e-08 2.46068e-21
1.69734e-07 -2.46047e-08 3.87183e-20
-7.25889e-08 -2.35054e-07 1.59793e-20
-1.42966e-07 2.27684e-07 7.63006e-20
-4.03514e-08 1.86514e-08 -5.09283e-21
-1.91606e-07 -1.35573e-07 4.33841e-20
4.33588e-08 -2.03295e-08 2.91009e-20
-2.598e-07 -1.2721e-08 4.86846e-20
1.27196e-07 -4.48835e-07 -9.95507e-21
1.73766e-07 -1.82478e-07 -1.53149e-20
2.65731e-07 4.71142e-07 -5.01891e-21
-2.49369e-09 5.6923e-08 -2.09653e-20
2.28065e-08 -2.3668e-07 -8.93923e-20
-9.23353e-09 5.59339e-09 1.95857e-20
-1.23181e-07 -2.29853e-07 -2.78084e-20
4.13146e-08 -3.53689e-08 -5.13483e-21
-2.37648e-08 2.39411e-07 -7.71434e-21
5.76839e-08 -1.69241e-08 -5.01608e-20
1.31289e-07 2.33974e-07 1.26853e-20
1.31483e-07 -3.06839e-09 -3.14368e-20
2.40037e-07 -7.08248e-07 -4.92789e-20
-5.08535e-08 -9.46685e-08 2.07509e-20
-2.12095e-07 9.24148e-08 -4.32567e-20
-2.97094e-08 1.45903e-08 -6.37267e-20
2.01347e-07 1.34839e-07 -2.46706e-21
1.43503e-07 -7.92253e-08 -2.04095e-20
7.58476e-08 3.33167e-08 -7.97263e-21
-1.55092e-08 1.31119e-08 -2.11188e-20
1.43947e-07 -2.22379e-07 9.95887e-21
-1.53462e-07 -1.91507e-07 -2.04478e-20
1.97998e-07 7.80977e-08 -3.63482e-20
5.03583e-08 -3.11209e-08 -2.77584e-21
9.25674e-08 -2.3007e-07 4.36108e-20
1.08766e-07 -2.0613e-08 -6.5239e-20
-1.05551e-07 -4.21081e-08 1.1148e-19
-4.58722e-09 -4.28295e-08 -8.18011e-21
-2.41968e-07 3.35987e-08 -6.12473e-20
2.54225e-08 2.1226e-07 -2.31076e-20
1.65523e-07 3.86217e-08 -4.93815e-20
-1.8803e-07 -8.41586e-08 -5.07947e-21
-9.24631e-08 2.37081e-07 -4.14053e-20
-2.11352e-08 -2.06796e-07 -3.82848e-20
5.4656e-08 2.66756e-08 3.7097e-20
-3.54887e-08 1.00001e-07 2.81559e-21
-1.69086e-07 1.21272e-07 3.10027e-20
2.17162e-07 1.09538e-07 -8.93795e-20
-9.88475e-08 -3.10466e-08 7.04946e-20
-2.39752e-08 -1.01788e-07 1.56909e-20
1.65949e-07 1.92906e-07 2.05024e-20
-3.89942e-08 -1.76895e-08 5.24562e-21
5.45775e-07 -3.92429e-07 1.70305e-20
1.15545e-07 -8.08418e-08 -3.11993e-20
9.43775e-08 4.62497e-07 -4.5062e-20
1.2184e-07 -1.1714e-07 3.65646e-20
-2.63505e-07 1.00351e-06 2.07048e-20
-2.65031e-07 -9.93729e-07 -4.5219e-21
6.5116e-07 8.5591e-07 1.41516e-20
6.43084e-07 -8.55679e-07 2.3175e-20
1.0659e-06 -4.1699e-10 -2.7823e-20
-9.18856e-07 3.69681e-07 3.2755e-20
-9.03623e-07 -3.737e-07 -1.38253e-20
4.39219e-08 2.38204e-08 -5.2699e-21
2.81758e-08 1.36835e-08 -1.62246e-20
8.1875e-08 1.10229e-08 2.8783e-20
1.44553e-07 7.72539e-08 -4.93919e-20
4.28809e-08 1.70811e-07 4.88735e-20
-1.54976e-07 -1.33149e-07 1.36155e-22
7.80315e-08 -7.19399e-08 1.33473e-20
1.6652e-07 1.33643e-07 -5.18656e-21
-3.85137e-08 2.10236e-07 1.0204e-20
2.73266e-08 -1.34248e-08 -1.10656e-20
3.91943e-08 -2.01751e-07 -6.63379e-20
5.11916e-08 3.45249e-08 -5.81513e-20
3.0037e-07 1.05221e-07 -2.28855e-20
6.72182e-09 2.16113e-08 1.84182e-20
1.16075e-07 3.79891e-08 -1.04251e-20
-1.43665e-07 7.94685e-08 -7.68191e-21
-1.96706e-07 6.80462e-08 -3.0915e-20
3.89321e-08 -2.66725e-08 -4.83176e-20
-1.25578e-07 -5.81089e-08 1.19733e-19
-1.37982e-07 -8.17294e-08 2.58724e-20
-1.20968e-08 -1.38509e-07 2.86301e-20
5.45226e-10 -1.59086e-07 -2.29727e-20
-1.75162e-07 -7.57143e-09 2.7676e-22
2.59994e-07 -4.03685e-08 -4.31197e-20
1.40249e-07 8.64348e-08 -5.4328e-20
-1.16051e-07 7.9168e-08 -4.89699e-21
-5.23191e-08 2.5605e-08 5.32663e-20
1.30904e-07 -1.17296e-07 -1.01918e-20
-9.83578e-08 1.53145e-07 9.41236e-20
-1.21158e-07 -1.27626e-07 3.33834e-20
-1.14828e-08 1.66808e-07 2.38012e-21
-2.49596e-08 1.40779e-07 -5.29263e-21
4.11273e-09 -1.02197e-07 4.18093e-20
5.2731e-08 -1.70432e-07 4.64567e-20
-8.6177e-08 -5.53039e-08 1.33294e-19
1.19407e-07 -3.40511e-08 -6.50653e-20
2.90693e-10 1.66602e-07 -7.66844e-21
-3.60637e-09 1.06441e-07 1.5554e-20
-2.67556e-08 1.19737e-07 2.33008e-21
1.95984e-07 -4.82315e-08 9.94353e-21
-4.11463e-08 3.92954e-08 4.2213e-20
4.4421e-08 1.66736e-07 -7.6961e-21
-2.68328e-08 1.69353e-08 3.02804e-21
9.89929e-08 4.59034e-07 9.57587e-21
-4.8536e-08 2.62059e-08 8.00674e-21
5.14969e-08 -2.68075e-08 -2.64328e-20
1.48171e-08 1.41677e-07 -1.56015e-20
-1.66162e-07 3.94663e-08 8.01978e-21
-5.11343e-09 -7.20178e-08 -3.66169e-20
6.86292e-09 -6.54909e-07 1.72229e-20
1.98897e-08 1.20107e-07 2.85096e-20
-1.24131e-07 1.18093e-07 7.24579e-20
1.92804e-07 7.1709e-07 -4.17573e-20
9.24815e-09 6.09272e-09 8.13675e-21
7.99014e-09 -5.81063e-09 -6.36555e-20
9.3447e-08 -7.28755e-08 -4.91768e-20
-1.32657e-07 1.18776e-07 5.12222e-20
-1.59224e-07 -4.70303e-08 2.5539e-20
-1.63625e-07 -5.3739e-08 5.11467e-21
-3.27621e-09 2.01889e-09 -7.79744e-20
-2.26718e-09 -1.10179e-09 -7.45855e-20
7.64238e-08 1.55257e-08 -2.36455e-21
2.42584e-08 1.11536e-07 -5.45324e-20
-2.80398e-09 1.10902e-07 -1.312e-20
-5.48534e-07 -3.98465e-07 -2.61662e-20
9.73474e-08 -1.53115e-07 -1.26618e-20
4.92329e-08 1.77238e-08 -2.90024e-20
-1.80595e-07 -1.94255e-08 2.61528e-20
-1.14189e-07 1.50861e-07 1.44146e-19
-1.47415e-07 6.93151e-08 -2.04196e-20
5.38541e-07 3.86942e-07 3.36165e-20
5.32669e-08 3.50208e-08 3.42157e-20
-5.24096e-08 1.71048e-07 2.3753e-21
-1.03302e-07 -8.84856e-08 -8.01257e-21
2.57005e-08 -1.34737e-07 -5.21032e-20
-8.35999e-08 -1.59052e-07 2.88869e-20
-1.33957e-07 -9.18187e-08 -1.54942e-20
9.18125e-08 -1.62828e-07 -7.61227e-21
1.10131e-07 -1.51355e-07 -4.87587e-20
-3.4914e-08 -6.83389e-07 3.19256e-20
2.80962e-07 -4.4941e-07 -4.78327e-21
1.34195e-08 -1.63573e-07 -4.913e-20
1.15343e-07 8.78108e-08 -4.93854e-20
-1.03614e-07 -1.25778e-07 -7.81055e-21
-8.9869e-08 1.67541e-07 3.58913e-20
-5.52149e-08 1.64206e-07 -3.36735e-20
1.20272e-07 1.24548e-07 -8.26778e-20
5.89673e-08 -1.53588e-07 3.35858e-20
-1.5249e-07 -4.34788e-07 -4.90509e-21
3.43544e-09 5.28043e-08 -6.0843e-20
1.21768e-07 1.25302e-07 2.56199e-20
-6.56336e-08 -3.23137e-08 3.94752e-20
-5.45344e-08 2.97647e-08 7.93027e-20
4.88222e-07 -2.13883e-07 4.94072e-20
6.06232e-08 -1.00192e-07 2.88901e-20
-5.75393e-08 -9.84378e-08 1.54982e-20
2.18217e-08 -1.89012e-09 5.89301e-20
1.86971e-09 -8.2652e-09 4.08041e-20
-6.12054e-09 -6.0378e-09 -4.08321e-20
2.68741e-08 1.76272e-08 2.51211e-21
-8.43045e-08 -1.59141e-07 1.81092e-20
1.29715e-07 5.20186e-08 2.04856e-20
-3.15731e-07 -3.47105e-07 2.01872e-20
1.17906e-09 1.01632e-08 3.53499e-20
1.1821e-09 1.84148e-09 2.48487e-20
2.29688e-09 -2.91136e-10 9.07908e-20
3.02985e-07 -5.9834e-07 -7.23049e-21
-1.25864e-08 1.48196e-08 -3.76886e-20
-2.88241e-09 1.79527e-08 1.65386e-20
-1.30427e-07 4.6361e-08 1.33614e-20
-4.51069e-09 5.29628e-08 -1.05491e-20
-2.86587e-08 8.49603e-08 1.2963e-20
5.90656e-08 2.51419e-09 7.86983e-20
1.33287e-08 5.1065e-08 -5.51667e-20
-3.49138e-09 7.06134e-08 3.97534e-20
1.01233e-07 5.50743e-08 3.12368e-20
7.22026e-09 6.51853e-07 -9.89474e-21
-9.41879e-08 8.91278e-08 3.86824e-20
7.06146e-08 -4.74862e-08 -2.0978e-20
4.07591e-08 -3.72301e-08 1.34291e-20
-6.68566e-07 -9.17953e-08 2.90317e-21
-1.90377e-08 7.55207e-09 -1.06203e-20
-4.86803e-07 -5.75843e-07 -1.69971e-20
8.83235e-09 2.36745e-08 6.3219e-20
8.53593e-08 1.65911e-08 5.1569e-21
2.54178e-07 -3.2986e-08 2.27081e-20
-5.80976e-08 -9.54667e-08 4.94428e-20
1.11078e-07 3.18538e-08 1.03566e-20
5.70824e-10 -2.82592e-08 7.97379e-20
-6.26411e-08 7.24829e-08 3.65521e-20
-2.39525e-08 -1.52296e-08 1.07419e-20
-5.6472e-08 1.14719e-07 1.32477e-20
1.02195e-08 7.23949e-08 -4.96086e-20
1.65929e-08 1.21589e-08 -8.11977e-21
1.64662e-08 -1.16802e-08 -8.17548e-20
-4.53215e-07 -1.23463e-07 -1.4327e-20
4.99127e-08 1.86178e-08 -1.85124e-20
-6.01066e-08 1.16351e-06 -5.54321e-20
-4.17504e-09 -1.19538e-06 -2.90796e-20
5.88384e-07 1.00726e-06 -4.31814e-20
-6.10361e-08 4.84275e-08 5.40405e-21
-3.11792e-07 6.27456e-07 9.39595e-21
5.91767e-07 -9.72202e-07 -1.91357e-20
-9.78333e-08 -1.58345e-07 2.58651e-20
8.98632e-07 7.87393e-07 -1.43856e-20
1.05527e-08 -1.87189e-08 1.01653e-19
-1.09976e-08 -1.89672e-08 4.29041e-20
9.41979e-07 -7.69859e-07 7.33786e-21
-5.771e-08 1.13488e-07 6.71507e-20
-5.91702e-07 -3.76838e-07 -2.17584e-20
-4.98977e-07 -1.03999e-06 -3.61803e-20
-2.79468e-07 -6.42921e-07 3.92399e-20
-5.1296e-07 1.0573e-06 -7.43421e-21
-1.21221e-07 7.1649e-07 2.42922e-20
-8.54821e-10 2.50686e-08 -5.1358e-20
-3.11239e-07 4.00709e-07 2.45724e-20
-2.97992e-07 -6.09881e-07 2.21078e-20
1.15872e-06 2.0221e-07 1.17699e-20
-9.05756e-08 7.70087e-08 1.34547e-20
-2.12305e-09 5.08666e-08 -4.98164e-20
-5.60488e-07 4.05756e-07 1.93151e-20
-1.00451e-07 5.36118e-08 3.43265e-20
1.14731e-06 -1.79861e-07 -1.18857e-20
-7.66639e-08 5.14669e-08 2.61541e-20
5.58523e-08 -1.15511e-07 3.65383e-20
-8.92839e-07 -6.7813e-07 -1.67311e-20
-3.01059e-07 6.45061e-07 3.88878e-20
-9.14475e-07 6.73151e-07 -2.17201e-21
2.67199e-07 5.96109e-07 -6.51432e-20
-9.83407e-08 7.81756e-08 2.58326e-20
-2.72778e-08 1.54465e-08 -5.89423e-20
-1.49078e-09 -2.40115e-09 1.17761e-20
4.01641e-10 -2.05751e-09 4.17814e-20
7.47915e-09 7.84955e-08 -7.47548e-21
-2.18923e-09 2.40436e-09 4.12918e-20
1.18177e-09 2.95443e-09 1.01711e-19
1.99773e-09 -8.69665e-10 -4.39256e-20
-1.16864e-09 9.29354e-09 3.32134e-20
-2.05594e-07 4.4856e-07 -5.90456e-20
-1.54566e-08 1.10855e-08 -5.40006e-20
2.66305e-08 -1.67869e-08 -7.42734e-20
2.61054e-08 -1.51255e-08 -3.50879e-20
7.52372e-08 2.93566e-08 2.87358e-20
-7.03659e-10 -7.95387e-09 6.85028e-20
-7.0994e-09 -3.60412e-09 7.38969e-20
2.60892e-08 1.522e-08 -2.99322e-20
6.6445e-07 -1.28067e-07 -1.06625e-22
-8.60672e-08 -1.09705e-07 -2.04385e-20
-5.8173e-07 4.05578e-07 4.80408e-20
-5.20827e-07 5.9403e-07 -2.65717e-21
7.02052e-07 -2.53539e-07 -9.90988e-21
-3.35389e-09 -9.77174e-09 -1.109e-20
-3.68498e-09 1.0038e-08 5.52089e-20
-1.10246e-08 1.90603e-09 4.38512e-20
-7.24143e-09 7.36542e-09 -7.05281e-20
-9.99276e-09 -2.13148e-09 5.95736e-20
1.83357e-09 2.36167e-09 -8.40935e-21
1.07244e-08 -2.65035e-09 -2.18031e-20
4.51162e-09 -3.18404e-09 -6.64947e-20
-3.18701e-09 -2.27498e-09 -8.597e-20
6.8684e-09 -7.04635e-09 -1.0695e-19
6.90662e-09 7.25637e-09 3.27002e-20
-3.20649e-09 1.99703e-09 -8.16744e-21
3.47448e-09 -7.1637e-10 -6.11063e-20
5.77415e-09 3.20546e-09 -8.50302e-20
1.25287e-08 4.48432e-09 5.15667e-21
SCALARS rr_necrosis float
LOOKUP_TABLE default
0
0
0
0
0
0
0
0
0
0
0
0
0
0
0
0
0
0
0
0
0
0
0
0
0
0
0
0
0
0
0
0
0
0
0
0
0
0
0
0
0
0
0
0
0
0
0
0
0
0
0
0
0
0
0
0
0
0
0
0
0
0
0
0
0
0
0
0
0
0
0
0
0
0
0
0
0
0
0
0
0
0
0
0
0
0
0
0
0
0
0
0
0
0
0
0
0
0
0
0
0
0
0
0
0
0
0
0
0
0
0
0
0
0
0
0
0
0
0
0
0
0
0
0
0
0
0
0
0
0
0
0
0
0
0
0
0
0
0
0
0
0
0
0
0
0
0
0
0
0
0
0
0
0
0
0
0
0
0
0
0
0
0
0
0
0
0
0
0
0
0
0
0
0
0
0
0
0
0
0
0
0
0
0
0
0
0
0
0
0
0
0
0
0
0
0
0
0
0
0
0
0
0
0
0
0
0
0
0
0
0
0
0
0
0
0
0
0
0
0
0
0
0
0
0
0
0
0
0
0
0
0
0
0
0
0
0
0
0
0
0
0
0
0
0
0
0
0
0
0
0
0
0
0
0
0
0
0
0
0
0
0
0
0
0
0
0
0
0
0
0
0
0
0
0
0
0
0
0
0
0
0
0
0
0
0
0
0
0
0
0
0
0
0
0
0
0
0
0
0
0
0
0
0
0
0
0
0
0
0
0
0
0
0
0
0
0
0
0
0
0
0
0
0
0
0
0
0
0
0
0
0
0
0
0
0
0
0
0
0
0
0
0
0
0
0
0
0
0
0
0
0
0
0
0
0
0
0
0
0
0
0
0
0
0
0
0
0
0
0
0
0
0
0
0
0
0
0
0
0
0
0
0
0
0
0
0
0
0
0
0
0
0
0
0
0
0
0
0
0
0
0
0
0
0
0
0
0
0
0
0
0
0
0
0
0
0
0
0
0
0
0
0
0
0
0
0
0
0
0
0
0
0
0
0
0
0
0
0
0
0
0
0
0
0
0
0
0
0
0
0
0
0
0
0
0
0
0
0
0
0
0
0
0
0
0
0
0
0
0
0
0
0
0
0
0
0
0
0
0
0
0
0
0
0
0
0
0
0
0
0
0
0
0
0
0
0
0
0
0
0
0
0
0
0
0
0
0
0
0
0
0
0
0
0
0
0
0
0
0
0
0
0
0
0
0
0
0
0
0
0
0
0
0
0
0
0
0
0
0
0
0
0
0
0
0
0
0
0
0
0
0
0
0
0
0
0
0
0
0
0
0
0
SCALARS rr_protein float
LOOKUP_TABLE default
1
1
1
1
1
1
1
1
1
1
1
1
1
1
1
1
1
1
1
1
1
1
1
1
1
1
1
1
1
1
1
1
1
1
1
1
1
1
1
1
1
1
1
1
1
1
1
1
1
1
1
1
1
1
1
1
1
1
1
1
1
1
1
1
1
1
1
1
1
1
1
1
1
1
1
1
1
1
1
1
1
1
1
1
1
1
1
1
1
1
1
1
1
1
1
1
1
1
1
1
1
1
1
1
1
1
1
1
1
1
1
1
1
1
1
1
1
1
1
1
1
1
1
1
1
1
1
1
1
1
1
1
1
1
1
1
1
1
1
1
1
1
1
1
1
1
1
1
1
1
1
1
1
1
1
1
1
1
1
1
1
1
1
1
1
1
1
1
1
1
1
1
1
1
1
1
1
1
1
1
1
1
1
1
1
1
1
1
1
1
1
1
1
1
1
1
1
1
1
1
1
1
1
1
1
1
1
1
1
1
1
1
1
1
1
1
1
1
1
1
1
1
1
1
1
1
1
1
1
1
1
1
1
1
1
1
1
1
1
1
1
1
1
1
1
1
1
1
1
1
1
1
1
1
1
1
1
1
1
1
1
1
1
1
1
1
1
1
1
1
1
1
1
1
1
1
1
1
1
1
1
1
1
1
1
1
1
1
1
1
1
1
1
1
1
1
1
1
1
1
1
1
1
1
1
1
1
1
1
1
1
1
1
1
1
1
1
1
1
1
1
1
1
1
1
1
1
1
1
1
1
1
1
1
1
1
1
1
1
1
1
1
1
1
1
1
1
1
1
1
1
1
1
1
1
1
1
1
1
1
1
1
1
1
1
1
1
1
1
1
1
1
1
1
1
1
1
1
1
1
1
1
1
1
1
1
1
1
1
1
1
1
1
1
1
1
1
1
1
1
1
1
1
1
1
1
1
1
1
1
1
1
1
1
1
1
1
1
1
1
1
1
1
1
1
1
1
1
1
1
1
1
1
1
1
1
1
1
1
1
1
1
1
1
1
1
1
1
1
1
1
1
1
1
1
1
1
1
1
1
1
1
1
1
1
1
1
1
1
1
1
1
1
1
1
1
1
1
1
1
1
1
1
1
1
1
1
1
1
1
1
1
1
1
1
1
1
1
1
1
1
1
1
1
1
1
1
1
1
1
1
1
1
1
1
1
1
1
1
1
1
1
1
1
1
1
1
1
1
1
1
1
1
1
1
1
1
1
1
1
1
1
1
1
1
1
1
1
1
1
1
1
1
1
1
1
1
1
1
1
1
1
1
SCALARS rr_(S_ext) float
LOOKUP_TABLE default
0.933552
0.933662
0.933656
0.933658
0.933707
0.933655
0.93355
0.933664
0.933647
0.933665
0.933532
0.933664
0.933662
0.933668
0.933688
0.933659
0.93367
0.933659
0.933638
0.933651
0.933653
0.933755
0.93365
0.933652
0.933651
0.933661
0.933564
0.933657
0.933604
0.933723
0.933662
0.933603
0.933565
0.933715
0.933722
0.933714
0.933723
0.933721
0.933662
0.933565
0.933603
0.933723
0.933723
0.933662
0.933569
0.933607
0.933642
0.93365
0.933656
0.933594
0.9336
0.933619
0.933701
0.933621
0.933701
0.933583
0.933723
0.93362
0.933722
0.933651
0.933668
0.933685
0.93358
0.933686
0.933685
0.933675
0.933668
0.933662
0.933651
0.933662
0.933701
0.933701
0.933604
0.93368
0.933657
0.933556
0.933695
0.933675
0.933661
0.933618
0.933597
0.933712
0.933676
0.93359
0.933611
0.933575
0.933657
0.933679
0.933569
0.933749
0.93362
0.933749
0.933694
0.933673
0.933622
0.933596
0.933599
0.933664
0.933695
0.933661
0.933635
0.933616
0.933589
0.933659
0.933663
0.933663
0.933679
0.93366
0.93359
0.933661
0.933652
0.933575
0.933583
0.933659
0.933662
0.933622
0.933725
0.933599
0.933725
0.933622
0.933636
0.933685
0.933661
0.933675
0.933663
0.933689
0.933719
0.933664
0.933599
0.933621
0.933699
0.93366
0.933675
0.93366
0.933616
0.933722
0.933593
0.933664
0.933676
0.933722
0.933617
0.93367
0.93364
0.933664
0.933599
0.933661
0.933667
0.933658
0.933656
0.933629
0.933648
0.933661
0.933602
0.933662
0.933664
0.93366
0.933671
0.93362
0.93362
0.933659
0.93365
0.933603
0.933575
0.933598
0.933618
0.933663
0.933619
0.93362
0.933603
0.933618
0.933694
0.93362
0.933599
0.933672
0.933621
0.933678
0.933694
0.933665
0.933704
0.933665
0.933605
0.933663
0.933663
0.933617
0.933678
0.933598
0.933675
0.933681
0.933697
0.933664
0.933678
0.9336
0.93362
0.933603
0.93366
0.933658
0.933658
0.933674
0.93366
0.933675
0.933661
0.933641
0.93362
0.933675
0.933606
0.933676
0.933676
0.933613
0.933688
0.933661
0.933691
0.933671
0.933663
0.933676
0.933629
0.933673
0.933622
0.933681
0.933662
0.933662
0.933659
0.93366
0.933661
0.933661
0.933667
0.933686
0.933685
0.933685
0.933686
0.933702
0.933701
0.933628
0.933666
0.933653
0.93365
0.933688
0.933689
0.933654
0.93362
0.933652
0.933664
0.93363
0.933687
0.93363
0.933677
0.933651
0.93363
0.933623
0.933596
0.93359
0.933676
0.933597
0.93366
0.933622
0.93364
0.933652
0.933661
0.933726
0.933661
0.933599
0.933621
0.933652
0.933664
0.93362
0.933661
0.933641
0.933726
0.933622
0.933662
0.933675
0.933658
0.933688
0.933678
0.933703
0.93366
0.933581
0.933576
0.9337
0.933652
0.933664
0.933632
0.933687
0.933672
0.933621
0.933674
0.933635
0.933668
0.933636
0.93362
0.933738
0.933695
0.933686
0.933686
0.933666
0.933638
0.933713
0.933674
0.93365
0.933638
0.933634
0.933699
0.93363
0.933696
0.933636
0.933569
0.933636
0.933598
0.933681
0.93363
0.933738
0.933635
0.933677
0.933628
0.933676
0.933635
0.933659
0.933582
0.933653
0.93363
0.933696
0.933628
0.933649
0.933679
0.933662
0.933635
0.933637
0.933641
0.933683
0.933636
0.933665
0.933658
0.933704
0.933637
0.93364
0.933652
0.933642
0.933635
0.933642
0.933687
0.933663
0.933641
0.933629
0.933669
0.933669
0.933635
0.933704
0.933528
0.933659
0.933597
0.933653
0.933426
0.933427
0.933426
0.933426
0.933424
0.933431
0.933432
0.933682
0.933711
0.933659
0.933648
0.933639
0.933642
0.933668
0.933641
0.93364
0.933712
0.933642
0.93369
0.933619
0.933682
0.933655
0.933649
0.933642
0.933701
0.933659
0.933649
0.933659
0.933649
0.933638
0.933619
0.933648
0.933658
0.93369
0.933641
0.933636
0.933641
0.933647
0.933657
0.933667
0.93364
0.933667
0.933654
0.933647
0.933665
0.933654
0.93364
0.933675
0.933651
0.933709
0.93357
0.933682
0.933687
0.933657
0.933653
0.933673
0.933532
0.933655
0.933652
0.933582
0.93374
0.933741
0.933657
0.93364
0.933653
0.933642
0.933767
0.933766
0.933662
0.933665
0.933664
0.933536
0.933637
0.933678
0.93365
0.933649
0.933648
0.933526
0.933676
0.933639
0.933659
0.933658
0.933648
0.933649
0.933648
0.933649
0.933566
0.933598
0.933649
0.933659
0.933651
0.933647
0.933651
0.933653
0.933651
0.933571
0.93369
0.93364
0.933673
0.933677
0.933571
0.933656
0.933654
0.933704
0.933733
0.933732
0.933694
0.933637
0.933658
0.933569
0.93373
0.933759
0.933758
0.933524
0.93372
0.933722
0.933657
0.933694
0.933659
0.933664
0.933675
0.933682
0.933666
0.93353
0.933659
0.933674
0.933678
0.933555
0.933719
0.933583
0.933675
0.933669
0.933633
0.93366
0.933665
0.933701
0.933665
0.933701
0.933658
0.933679
0.933722
0.933724
0.933571
0.933666
0.933548
0.933554
0.933541
0.933677
0.933533
0.933536
0.933648
0.933544
0.933712
0.933712
0.933549
0.933648
0.93357
0.93355
0.933563
0.93355
0.933564
0.933721
0.933565
0.933533
0.933546
0.933665
0.933683
0.933562
0.933664
0.933535
0.933667
0.93365
0.933548
0.933558
0.933544
0.933524
0.933654
0.933713
0.933753
0.933751
0.933669
0.933753
0.933752
0.933752
0.93374
0.933567
0.93372
0.933697
0.933714
0.933667
0.933744
0.933744
0.933719
0.933521
0.933649
0.933532
0.933583
0.933577
0.933727
0.933727
0.933726
0.933727
0.933727
0.933753
0.93373
0.933745
0.933758
0.93373
0.93373
0.933759
0.933753
0.933745
0.933727
SCALARS rr_(P_ext) float
LOOKUP_TABLE default
0.0186446
0.0185544
0.0185623
0.0185559
0.0185316
0.0185625
0.0186448
0.0185571
0.0185699
0.0185547
0.0186386
0.0185571
0.0185589
0.0185535
0.0185399
0.018561
0.0185503
0.0185581
0.0185739
0.0185646
0.0185658
0.0185006
0.0185657
0.0185644
0.0185647
0.0185566
0.0186261
0.0185613
0.0185985
0.0185188
0.0185592
0.0185983
0.0186274
0.0185243
0.0185216
0.0185243
0.0185178
0.0185227
0.0185594
0.0186271
0.0185987
0.0185175
0.0185176
0.0185592
0.0186187
0.0185972
0.018572
0.0185684
0.0185621
0.0186041
0.0186008
0.0185893
0.0185329
0.0185891
0.0185336
0.018616
0.0185214
0.0185891
0.0185215
0.0185641
0.0185506
0.0185432
0.0186203
0.0185436
0.018543
0.0185503
0.0185503
0.0185565
0.0185651
0.0185541
0.0185331
0.0185331
0.0185988
0.0185475
0.018562
0.0186312
0.0185383
0.0185504
0.0185566
0.0185872
0.0186059
0.0185288
0.0185468
0.0186085
0.0185959
0.0186177
0.0185613
0.0185489
0.0186186
0.018505
0.0185892
0.0185051
0.0185378
0.0185514
0.0185884
0.0186017
0.0186058
0.0185549
0.0185384
0.0185597
0.0185791
0.0185937
0.0186086
0.0185572
0.0185556
0.0185554
0.0185457
0.0185604
0.0186088
0.018553
0.018564
0.0186158
0.0186118
0.0185577
0.0185559
0.0185888
0.0185215
0.0186062
0.0185217
0.0185885
0.0185759
0.018541
0.0185544
0.0185487
0.0185524
0.0185392
0.0185246
0.0185549
0.0186058
0.0185884
0.018533
0.018555
0.0185473
0.0185546
0.0185936
0.0185213
0.0186108
0.0185583
0.0185468
0.0185214
0.0185926
0.0185545
0.0185745
0.0185546
0.0186066
0.0185562
0.0185558
0.0185621
0.0185624
0.0185817
0.0185686
0.0185544
0.0185985
0.0185588
0.0185547
0.0185549
0.0185522
0.0185917
0.0185914
0.0185589
0.0185682
0.0185978
0.0186165
0.0186008
0.0185918
0.0185554
0.0185918
0.0185919
0.0185984
0.0185916
0.0185375
0.0185891
0.018601
0.0185514
0.0185889
0.018546
0.0185376
0.0185571
0.0185325
0.0185553
0.0185984
0.018555
0.0185551
0.0185924
0.0185488
0.0186016
0.0185487
0.0185456
0.0185372
0.0185548
0.0185486
0.0186048
0.0185889
0.0185983
0.0185547
0.0185584
0.0185579
0.0185474
0.0185545
0.0185507
0.0185543
0.0185728
0.0185866
0.0185474
0.0185983
0.0185469
0.0185504
0.0185942
0.018542
0.0185542
0.0185412
0.0185531
0.0185559
0.0185467
0.0185814
0.0185523
0.0185857
0.0185457
0.0185525
0.0185526
0.0185535
0.0185532
0.0185531
0.0185532
0.0185541
0.0185406
0.0185408
0.0185405
0.0185404
0.0185334
0.0185334
0.0185821
0.0185538
0.0185567
0.0185688
0.0185399
0.0185396
0.0185564
0.0185864
0.018557
0.0185548
0.0185811
0.0185419
0.0185815
0.0185465
0.0185573
0.0185809
0.0185853
0.0186061
0.0186055
0.0185468
0.0186079
0.0185599
0.0185858
0.0185733
0.0185571
0.0185527
0.018517
0.018553
0.0186085
0.0185857
0.0185567
0.0185571
0.0185868
0.0185528
0.0185741
0.0185171
0.0185856
0.0185523
0.0185492
0.0185579
0.0185401
0.0185492
0.0185329
0.018559
0.0186145
0.0186178
0.0185354
0.0185656
0.0185571
0.0185814
0.0185417
0.0185515
0.0185856
0.0185512
0.0185787
0.0185554
0.0185787
0.0185862
0.0185102
0.0185367
0.0185397
0.0185398
0.0185541
0.018578
0.0185252
0.0185496
0.0185679
0.0185777
0.0185806
0.0185355
0.0185811
0.0185378
0.0185796
0.0186185
0.0185782
0.018607
0.0185454
0.0185811
0.0185102
0.0185796
0.0185475
0.0185821
0.0185483
0.0185798
0.0185613
0.0186218
0.0185631
0.0185813
0.0185358
0.0185818
0.0185679
0.0185483
0.0185541
0.0185797
0.0185781
0.0185743
0.0185456
0.0185782
0.0185571
0.0185612
0.0185331
0.0185781
0.0185748
0.0185666
0.0185738
0.0185791
0.0185736
0.0185429
0.0185573
0.0185744
0.0185815
0.0185548
0.0185546
0.0185786
0.0185332
0.0186418
0.0185616
0.018606
0.0185662
0.0186896
0.0186895
0.0186889
0.0186892
0.0186889
0.0186898
0.0186894
0.0185451
0.0185277
0.0185587
0.0185683
0.0185734
0.0185739
0.0185554
0.0185744
0.0185749
0.0185275
0.0185739
0.0185414
0.0185892
0.0185419
0.0185627
0.0185685
0.0185742
0.0185352
0.0185616
0.0185678
0.0185615
0.0185677
0.0185746
0.0185876
0.0185685
0.0185624
0.0185412
0.0185725
0.0185754
0.0185729
0.018569
0.0185626
0.0185553
0.018573
0.0185554
0.0185634
0.0185688
0.0185569
0.0185632
0.0185741
0.0185484
0.018567
0.0185284
0.0186184
0.0185452
0.0185429
0.0185625
0.0185668
0.0185506
0.0186407
0.0185626
0.0185672
0.0186213
0.0185108
0.0185105
0.0185616
0.0185735
0.0185661
0.0185725
0.018497
0.018497
0.0185568
0.0185568
0.0185572
0.018641
0.0185749
0.0185471
0.0185688
0.0185696
0.0185689
0.0186424
0.0185488
0.0185739
0.0185619
0.0185618
0.0185697
0.018568
0.0185697
0.0185689
0.0186265
0.0186068
0.018568
0.0185617
0.0185669
0.01857
0.0185675
0.0185664
0.0185669
0.0186184
0.0185399
0.018573
0.0185508
0.0185484
0.0186189
0.0185622
0.018563
0.0185331
0.0185113
0.0185114
0.0185367
0.0185751
0.0185621
0.0186199
0.0185131
0.0184991
0.0184991
0.0186434
0.0185228
0.0185188
0.018563
0.0185382
0.0185588
0.0185541
0.0185481
0.0185459
0.0185571
0.0186409
0.0185608
0.0185515
0.0185473
0.0186318
0.0185217
0.0186229
0.0185476
0.0185539
0.0185802
0.0185593
0.0185574
0.0185323
0.0185562
0.0185324
0.0185617
0.0185472
0.0185203
0.0185197
0.0186196
0.018553
0.0186463
0.0186446
0.0186483
0.0185489
0.018642
0.0186501
0.01857
0.0186473
0.0185285
0.0185286
0.0186459
0.0185664
0.0186263
0.0186468
0.018628
0.0186471
0.018628
0.0185222
0.0186229
0.0186416
0.0186461
0.0185578
0.018544
0.0186294
0.0185576
0.0186495
0.0185547
0.0185659
0.0186478
0.0186307
0.0186491
0.0186434
0.0185634
0.018527
0.0185007
0.0185018
0.0185532
0.0185009
0.0185009
0.0185014
0.0185084
0.0186212
0.0185209
0.0185361
0.0185269
0.0185543
0.0185065
0.0185066
0.0185253
0.0186443
0.0185667
0.0186432
0.0186243
0.0186237
0.0185141
0.0185144
0.018515
0.0185148
0.0185142
0.0185022
0.0185148
0.0185065
0.0185005
0.0185139
0.0185138
0.0185001
0.018502
0.0185062
0.0185155
SCALARS rr_(S) float
LOOKUP_TABLE default
0.8904
0.890423
0.890424
0.890421
0.890446
0.890424
0.890399
0.890427
0.890423
0.890426
0.890378
0.890427
0.890427
0.890427
0.890435
0.890425
0.890427
0.890424
0.890418
0.890422
0.890424
0.890466
0.890421
0.890422
0.890422
0.890424
0.890396
0.890424
0.890407
0.890451
0.890427
0.890407
0.890397
0.890447
0.890452
0.890447
0.89045
0.890452
0.890427
0.890398
0.890407
0.89045
0.89045
0.890426
0.890393
0.890409
0.89042
0.890423
0.890424
0.890403
0.890406
0.890413
0.890442
0.890415
0.890442
0.890404
0.890452
0.890414
0.890452
0.890421
0.890426
0.890435
0.890405
0.890436
0.890435
0.890431
0.890426
0.890424
0.890421
0.890423
0.890442
0.890442
0.890408
0.890434
0.890425
0.890392
0.89044
0.890431
0.890424
0.890411
0.890407
0.890448
0.89043
0.890404
0.890412
0.890399
0.890424
0.890434
0.890393
0.890464
0.890414
0.890464
0.890439
0.890431
0.890415
0.890404
0.890409
0.890425
0.89044
0.890426
0.890419
0.890414
0.890403
0.890422
0.890425
0.890424
0.890431
0.890426
0.890404
0.890421
0.890421
0.890396
0.8904
0.890423
0.890424
0.890416
0.890454
0.89041
0.890454
0.890415
0.890417
0.890433
0.890422
0.89043
0.890422
0.890435
0.890451
0.890425
0.890409
0.890414
0.89044
0.890422
0.890429
0.890422
0.890415
0.890451
0.890408
0.890428
0.89043
0.890451
0.890414
0.89043
0.89042
0.890425
0.89041
0.890423
0.890428
0.890426
0.890424
0.890416
0.890422
0.890422
0.890406
0.890427
0.890425
0.890422
0.890429
0.890416
0.890416
0.890424
0.890423
0.890406
0.890397
0.890404
0.890414
0.890425
0.890415
0.890416
0.890407
0.890415
0.890439
0.890414
0.890405
0.89043
0.890414
0.890431
0.890439
0.890428
0.890444
0.890427
0.890408
0.890425
0.890425
0.890414
0.890433
0.890405
0.89043
0.890434
0.890441
0.890425
0.890433
0.89041
0.890414
0.890407
0.890422
0.890422
0.890423
0.890429
0.890422
0.890431
0.890422
0.890419
0.890412
0.890429
0.890409
0.890429
0.890432
0.890412
0.890436
0.890422
0.890439
0.89043
0.890425
0.89043
0.890415
0.890431
0.890413
0.890433
0.890422
0.890422
0.89042
0.890421
0.890421
0.890421
0.890427
0.890434
0.890433
0.890433
0.890434
0.890443
0.890442
0.890415
0.890426
0.890417
0.890424
0.890436
0.890436
0.890418
0.890412
0.890417
0.890425
0.890417
0.890436
0.890417
0.890431
0.890415
0.890416
0.890413
0.890407
0.890402
0.89043
0.890409
0.890425
0.890413
0.890418
0.890417
0.890421
0.890452
0.890421
0.890412
0.890412
0.890417
0.890427
0.890412
0.890421
0.890421
0.890452
0.890413
0.890422
0.890431
0.890423
0.890435
0.890434
0.890443
0.890425
0.890401
0.890399
0.890443
0.890423
0.890427
0.890418
0.890436
0.89043
0.890412
0.890431
0.890419
0.890429
0.89042
0.890412
0.890458
0.890439
0.890434
0.890433
0.890426
0.89042
0.890446
0.89043
0.890423
0.89042
0.890419
0.890441
0.890416
0.890441
0.89042
0.890394
0.89042
0.89041
0.890433
0.890416
0.890458
0.89042
0.890432
0.890415
0.890431
0.890419
0.890426
0.890408
0.890422
0.890417
0.890439
0.890415
0.890423
0.890434
0.890422
0.890419
0.89042
0.89042
0.890435
0.890419
0.890428
0.890425
0.890444
0.89042
0.89042
0.890424
0.890421
0.890419
0.890421
0.890436
0.890427
0.890421
0.890416
0.890429
0.890429
0.890419
0.890444
0.890377
0.890427
0.890408
0.890424
0.890327
0.890328
0.890327
0.890326
0.890325
0.890331
0.890332
0.890434
0.890446
0.890424
0.890422
0.890418
0.890421
0.890429
0.89042
0.89042
0.890447
0.890421
0.890438
0.890413
0.890432
0.890424
0.890422
0.890421
0.890444
0.890426
0.890423
0.890426
0.890422
0.890418
0.890411
0.890422
0.890426
0.890437
0.890419
0.890417
0.890419
0.890421
0.890425
0.890429
0.890419
0.890429
0.890423
0.890422
0.890427
0.890423
0.890419
0.89043
0.890424
0.890445
0.890394
0.890434
0.890437
0.890425
0.890425
0.89043
0.890379
0.890423
0.890424
0.890408
0.89046
0.890461
0.890425
0.890419
0.890425
0.89042
0.890474
0.890473
0.890425
0.890428
0.890427
0.890383
0.890417
0.890432
0.890424
0.890423
0.890422
0.890375
0.890431
0.890418
0.890426
0.890426
0.890422
0.890423
0.890422
0.890424
0.890398
0.89041
0.890422
0.890426
0.890424
0.890422
0.890423
0.890424
0.890423
0.890395
0.890437
0.890418
0.89043
0.890432
0.890395
0.890424
0.890423
0.890444
0.890454
0.890454
0.890438
0.890418
0.890426
0.890394
0.890453
0.890468
0.890467
0.890375
0.890451
0.89045
0.890425
0.890439
0.890424
0.890425
0.890429
0.890434
0.890428
0.890378
0.890426
0.890431
0.890432
0.890392
0.890449
0.89041
0.890429
0.890429
0.890418
0.890425
0.890428
0.890441
0.890427
0.890441
0.890425
0.890433
0.890451
0.890453
0.890396
0.890426
0.890399
0.890403
0.890394
0.890432
0.890382
0.890391
0.890423
0.890396
0.890448
0.890448
0.890399
0.890421
0.890401
0.890401
0.890397
0.890401
0.890397
0.890451
0.890393
0.890381
0.890397
0.890428
0.890434
0.890396
0.890428
0.89039
0.890428
0.890422
0.8904
0.890394
0.890397
0.890374
0.890423
0.890448
0.890464
0.890463
0.890428
0.890464
0.890464
0.890464
0.890458
0.890394
0.89045
0.890441
0.890449
0.890428
0.890461
0.89046
0.890451
0.890373
0.890422
0.890382
0.890411
0.890405
0.890451
0.890451
0.890451
0.890451
0.890451
0.890465
0.890455
0.890462
0.890468
0.890454
0.890454
0.890469
0.890465
0.890461
0.890452
SCALARS rr_(P) float
LOOKUP_TABLE default
0.0213541
0.0213012
0.0213059
0.0213021
0.0212877
0.021306
0.0213542
0.0213029
0.0213104
0.0213014
0.0213503
0.0213029
0.0213039
0.0213007
0.0212926
0.0213052
0.0212988
0.0213034
0.0213127
0.0213073
0.021308
0.0212691
0.0213079
0.0213072
0.0213073
0.0213025
0.0213432
0.0213053
0.0213271
0.0212799
0.0213042
0.021327
0.021344
0.0212832
0.0212817
0.0212833
0.0212793
0.0212824
0.0213042
0.0213438
0.0213272
0.0212791
0.0212792
0.0213041
0.0213388
0.0213264
0.0213116
0.0213095
0.0213058
0.0213304
0.0213285
0.0213218
0.0212884
0.0213217
0.0212889
0.0213374
0.0212816
0.0213216
0.0212816
0.021307
0.0212989
0.0212946
0.0213399
0.0212949
0.0212945
0.0212989
0.0212988
0.0213025
0.0213076
0.021301
0.0212885
0.0212886
0.0213273
0.0212972
0.0213058
0.0213462
0.0212917
0.0212989
0.0213025
0.0213205
0.0213315
0.0212861
0.0212967
0.0213329
0.0213256
0.0213383
0.0213053
0.021298
0.0213388
0.0212716
0.0213217
0.0212717
0.0212914
0.0212994
0.0213213
0.0213289
0.0213314
0.0213015
0.0212918
0.0213044
0.0213158
0.0213244
0.021333
0.0213029
0.021302
0.0213019
0.0212961
0.0213049
0.0213331
0.0213003
0.0213069
0.0213371
0.0213348
0.0213032
0.0213021
0.0213215
0.0212816
0.0213317
0.0212818
0.0213213
0.0213139
0.0212932
0.0213012
0.0212979
0.0212999
0.0212921
0.0212835
0.0213015
0.0213314
0.0213213
0.0212884
0.0213015
0.021297
0.0213013
0.0213243
0.0212815
0.0213343
0.0213036
0.0212966
0.0212816
0.0213237
0.0213013
0.0213131
0.0213014
0.0213319
0.0213023
0.0213021
0.0213058
0.021306
0.0213173
0.0213096
0.0213012
0.0213271
0.0213039
0.0213014
0.0213015
0.0213
0.0213233
0.0213231
0.0213039
0.0213095
0.0213267
0.0213376
0.0213285
0.0213233
0.0213018
0.0213233
0.0213234
0.0213271
0.0213232
0.0212912
0.0213217
0.0213286
0.0212995
0.0213215
0.0212963
0.0212913
0.0213029
0.0212883
0.0213018
0.0213271
0.0213016
0.0213016
0.0213236
0.0212979
0.0213289
0.0212979
0.021296
0.021291
0.0213015
0.0212979
0.0213309
0.0213215
0.021327
0.0213014
0.0213036
0.0213033
0.021297
0.0213012
0.0212991
0.0213011
0.0213121
0.0213202
0.0212971
0.021327
0.0212967
0.0212989
0.0213247
0.0212939
0.021301
0.0212934
0.0213005
0.0213021
0.0212966
0.0213172
0.0213
0.0213197
0.0212961
0.0213
0.0213
0.0213006
0.0213004
0.0213004
0.0213004
0.021301
0.021293
0.0212931
0.0212929
0.0212929
0.0212887
0.0212887
0.0213175
0.0213009
0.0213025
0.0213098
0.0212926
0.0212924
0.0213023
0.02132
0.0213027
0.0213015
0.021317
0.0212938
0.0213172
0.0212965
0.0213028
0.0213168
0.0213194
0.0213316
0.0213311
0.0212967
0.0213327
0.0213045
0.0213197
0.0213124
0.0213027
0.0213001
0.0212789
0.0213003
0.0213331
0.0213197
0.0213025
0.0213028
0.0213203
0.0213002
0.0213129
0.0212789
0.0213196
0.0212999
0.0212982
0.0213033
0.0212927
0.0212981
0.0212885
0.021304
0.0213364
0.0213383
0.0212899
0.0213079
0.0213029
0.0213172
0.0212937
0.0212996
0.0213196
0.0212994
0.0213156
0.0213019
0.0213156
0.0213199
0.0212748
0.0212907
0.0212924
0.0212925
0.0213011
0.0213152
0.0212838
0.0212984
0.0213093
0.021315
0.0213167
0.02129
0.021317
0.0212913
0.0213162
0.0213387
0.0213153
0.0213322
0.0212959
0.021317
0.0212748
0.0213161
0.0212971
0.0213176
0.0212976
0.0213163
0.0213054
0.0213408
0.0213064
0.0213171
0.0212901
0.0213173
0.0213092
0.0212977
0.021301
0.0213162
0.0213153
0.021313
0.021296
0.0213153
0.0213029
0.0213053
0.0212886
0.0213153
0.0213133
0.0213085
0.0213127
0.0213158
0.0213126
0.0212944
0.021303
0.0213131
0.0213172
0.0213015
0.0213014
0.0213155
0.0212887
0.0213522
0.0213055
0.0213316
0.0213082
0.0213798
0.0213798
0.0213794
0.0213795
0.0213793
0.02138
0.0213798
0.0212957
0.0212852
0.0213038
0.0213095
0.0213124
0.0213128
0.0213019
0.0213131
0.0213133
0.0212851
0.0213128
0.0212936
0.0213217
0.0212938
0.0213061
0.0213096
0.021313
0.0212898
0.0213055
0.0213092
0.0213055
0.0213091
0.0213132
0.0213207
0.0213096
0.021306
0.0212934
0.0213119
0.0213136
0.0213122
0.0213099
0.0213061
0.0213018
0.0213122
0.0213019
0.0213066
0.0213098
0.0213027
0.0213064
0.0213128
0.0212977
0.0213087
0.0212857
0.0213386
0.0212958
0.0212944
0.0213061
0.0213086
0.021299
0.0213516
0.0213061
0.0213088
0.0213405
0.0212751
0.021275
0.0213055
0.0213125
0.0213082
0.0213119
0.0212669
0.0212669
0.0213027
0.0213027
0.0213029
0.0213518
0.0213133
0.0212969
0.0213098
0.0213103
0.0213098
0.0213525
0.0212979
0.0213128
0.0213057
0.0213057
0.0213103
0.0213093
0.0213103
0.0213099
0.0213435
0.021332
0.0213093
0.0213056
0.0213087
0.0213105
0.021309
0.0213084
0.0213087
0.0213386
0.0212926
0.0213122
0.0212991
0.0212977
0.021339
0.0213059
0.0213063
0.0212886
0.0212754
0.0212754
0.0212907
0.0213134
0.0213058
0.0213395
0.0212764
0.0212682
0.0212682
0.0213531
0.0212824
0.0212799
0.0213064
0.0212916
0.0213039
0.0213011
0.0212975
0.0212962
0.0213029
0.0213517
0.0213051
0.0212996
0.021297
0.0213465
0.0212817
0.0213415
0.0212972
0.021301
0.0213164
0.0213042
0.0213031
0.021288
0.0213024
0.0212881
0.0213056
0.021297
0.0212808
0.0212805
0.0213394
0.0213004
0.021355
0.0213541
0.0213562
0.021298
0.0213524
0.0213572
0.0213105
0.0213556
0.0212859
0.0212859
0.0213548
0.0213084
0.0213434
0.0213554
0.0213443
0.0213556
0.0213443
0.0212821
0.0213413
0.0213521
0.0213549
0.0213033
0.0212951
0.0213451
0.0213032
0.0213568
0.0213015
0.021308
0.0213559
0.0213459
0.0213567
0.0213531
0.0213066
0.0212849
0.0212691
0.0212697
0.0213005
0.0212692
0.0212692
0.0212695
0.0212736
0.0213403
0.0212812
0.0212903
0.0212848
0.0213012
0.0212725
0.0212726
0.021284
0.0213536
0.0213085
0.0213531
0.0213423
0.0213418
0.0212771
0.0212772
0.0212776
0.0212775
0.0212771
0.02127
0.0212775
0.0212725
0.0212689
0.021277
0.0212769
0.0212687
0.0212698
0.0212723
0.0212779
SCALARS rr_(T) float
LOOKUP_TABLE default
0.0809015
0.0809302
0.0809275
0.0809294
0.0809413
0.0809275
0.0809014
0.0809295
0.0809249
0.0809302
0.080902
0.0809296
0.0809288
0.0809309
0.0809371
0.0809278
0.0809322
0.080929
0.0809234
0.0809266
0.0809264
0.080957
0.0809263
0.0809268
0.0809266
0.0809296
0.0809067
0.0809281
0.0809153
0.0809476
0.0809287
0.0809154
0.0809063
0.080945
0.0809462
0.080945
0.0809481
0.0809456
0.0809287
0.0809064
0.0809153
0.0809482
0.0809482
0.0809286
0.0809087
0.0809158
0.0809241
0.0809254
0.0809277
0.0809135
0.0809146
0.0809184
0.0809406
0.0809185
0.0809403
0.08091
0.0809463
0.0809185
0.0809462
0.0809268
0.080932
0.0809355
0.0809088
0.0809354
0.0809355
0.0809326
0.0809322
0.0809296
0.0809264
0.0809304
0.0809405
0.0809405
0.0809153
0.0809339
0.0809275
0.0809049
0.080938
0.0809325
0.0809296
0.080919
0.0809131
0.0809425
0.0809338
0.0809122
0.0809164
0.0809092
0.080928
0.0809333
0.0809087
0.0809551
0.0809184
0.0809551
0.0809383
0.0809323
0.0809187
0.0809142
0.0809132
0.08093
0.0809379
0.0809285
0.0809218
0.080917
0.0809122
0.0809291
0.08093
0.0809298
0.0809345
0.0809283
0.0809121
0.0809307
0.0809269
0.0809097
0.0809111
0.080929
0.0809296
0.0809186
0.0809463
0.0809131
0.0809462
0.0809187
0.0809228
0.0809365
0.0809301
0.080933
0.080931
0.0809376
0.0809448
0.0809301
0.0809132
0.0809187
0.0809406
0.0809299
0.0809335
0.08093
0.0809171
0.0809464
0.0809117
0.0809292
0.0809338
0.0809463
0.0809174
0.0809308
0.0809234
0.0809304
0.080913
0.0809295
0.0809304
0.0809279
0.0809274
0.0809209
0.0809254
0.0809302
0.0809153
0.0809288
0.0809304
0.0809299
0.0809315
0.0809177
0.0809178
0.0809286
0.0809254
0.0809155
0.0809095
0.0809145
0.0809177
0.0809298
0.0809177
0.0809177
0.0809153
0.0809177
0.0809384
0.0809185
0.0809145
0.0809318
0.0809186
0.0809344
0.0809383
0.0809298
0.0809407
0.0809303
0.0809154
0.08093
0.08093
0.0809175
0.0809333
0.0809143
0.0809329
0.0809346
0.0809386
0.08093
0.0809334
0.0809135
0.0809186
0.0809154
0.08093
0.0809287
0.0809289
0.0809335
0.0809301
0.0809324
0.0809302
0.0809238
0.0809192
0.0809335
0.0809155
0.0809337
0.0809326
0.0809169
0.0809364
0.0809303
0.0809367
0.0809314
0.0809299
0.0809338
0.080921
0.0809318
0.0809195
0.0809346
0.0809309
0.0809309
0.0809304
0.0809306
0.0809306
0.0809305
0.0809308
0.0809367
0.0809366
0.0809367
0.0809367
0.0809405
0.0809405
0.0809207
0.0809307
0.0809289
0.0809252
0.0809371
0.0809372
0.0809291
0.0809193
0.0809287
0.08093
0.0809211
0.0809365
0.080921
0.080934
0.0809286
0.0809212
0.0809196
0.0809131
0.080913
0.0809338
0.0809126
0.0809283
0.0809194
0.0809237
0.0809287
0.0809308
0.0809486
0.0809307
0.0809125
0.0809195
0.0809289
0.0809297
0.0809191
0.0809308
0.0809236
0.0809485
0.0809195
0.080931
0.0809328
0.0809289
0.080937
0.0809332
0.0809407
0.0809286
0.0809103
0.0809092
0.0809396
0.0809263
0.0809297
0.080921
0.0809365
0.0809317
0.0809195
0.0809323
0.0809219
0.0809306
0.0809219
0.0809193
0.0809522
0.0809387
0.0809372
0.0809371
0.0809306
0.0809222
0.0809445
0.0809326
0.0809256
0.0809223
0.0809213
0.0809395
0.0809211
0.0809384
0.0809216
0.0809088
0.0809221
0.0809129
0.0809348
0.0809211
0.0809521
0.0809216
0.0809338
0.0809207
0.0809332
0.0809216
0.0809279
0.0809085
0.0809271
0.080921
0.0809393
0.0809209
0.0809258
0.0809334
0.0809303
0.0809216
0.0809221
0.0809235
0.0809347
0.0809221
0.0809296
0.0809281
0.0809406
0.0809221
0.0809233
0.0809262
0.0809236
0.0809218
0.0809237
0.0809361
0.0809295
0.0809234
0.080921
0.0809307
0.0809307
0.080922
0.0809405
0.0809011
0.0809281
0.0809131
0.0809263
0.0808843
0.0808843
0.0808845
0.0808844
0.0808844
0.0808844
0.0808845
0.0809349
0.0809434
0.0809288
0.0809256
0.0809236
0.0809236
0.0809305
0.0809234
0.0809232
0.0809435
0.0809236
0.0809366
0.0809185
0.0809359
0.0809275
0.0809255
0.0809235
0.0809397
0.0809281
0.0809257
0.0809281
0.0809258
0.0809232
0.0809189
0.0809255
0.0809278
0.0809366
0.080924
0.0809229
0.0809238
0.0809252
0.0809276
0.0809306
0.0809238
0.0809305
0.0809272
0.0809254
0.0809298
0.0809272
0.0809234
0.0809331
0.080926
0.0809429
0.0809088
0.0809348
0.0809361
0.0809277
0.080926
0.0809324
0.0809015
0.0809275
0.0809259
0.0809087
0.080952
0.0809522
0.080928
0.0809236
0.0809263
0.080924
0.0809591
0.0809591
0.0809294
0.0809298
0.0809298
0.0809016
0.0809231
0.0809337
0.0809252
0.080925
0.0809253
0.0809008
0.0809333
0.0809234
0.0809279
0.0809279
0.0809249
0.0809256
0.0809249
0.0809252
0.0809066
0.080913
0.0809256
0.0809281
0.0809259
0.0809248
0.0809257
0.0809262
0.080926
0.0809089
0.0809374
0.0809238
0.0809323
0.0809334
0.0809087
0.0809275
0.0809272
0.0809406
0.0809515
0.0809515
0.0809389
0.080923
0.0809279
0.0809084
0.0809506
0.0809578
0.0809577
0.0809005
0.0809456
0.0809477
0.0809275
0.0809381
0.0809287
0.0809304
0.0809333
0.0809346
0.0809299
0.0809014
0.0809281
0.080932
0.0809336
0.0809047
0.0809463
0.0809083
0.0809334
0.0809308
0.0809214
0.0809284
0.0809296
0.080941
0.0809299
0.0809409
0.0809277
0.0809339
0.0809471
0.0809474
0.0809085
0.0809311
0.080901
0.0809017
0.0809002
0.0809332
0.0809013
0.0808995
0.0809248
0.0809006
0.0809427
0.0809427
0.0809012
0.0809259
0.0809068
0.080901
0.0809061
0.0809009
0.0809061
0.0809459
0.0809074
0.0809013
0.080901
0.0809295
0.0809353
0.0809056
0.0809296
0.0808997
0.0809306
0.0809262
0.0809006
0.0809052
0.0809001
0.0809005
0.0809273
0.0809435
0.0809569
0.0809563
0.0809313
0.0809568
0.0809568
0.0809566
0.0809531
0.080908
0.0809467
0.0809392
0.0809437
0.0809309
0.0809541
0.0809541
0.0809445
0.0809001
0.0809259
0.0809009
0.080908
0.0809079
0.08095
0.0809499
0.0809496
0.0809497
0.0809499
0.0809562
0.0809498
0.0809542
0.0809573
0.0809503
0.0809503
0.0809574
0.0809563
0.0809543
0.0809495
SCALARS rr_tsim float
LOOKUP_TABLE default
190
190
190
190
190
190
190
190
190
190
190
190
190
190
190
190
190
190
190
190
190
190
190
190
190
190
190
190
190
190
190
190
190
190
190
190
190
190
190
190
190
190
190
190
190
190
190
190
190
190
190
190
190
190
190
190
190
190
190
190
190
190
190
190
190
190
190
190
190
190
190
190
190
190
190
190
190
190
190
190
190
190
190
190
190
190
190
190
190
190
190
190
190
190
190
190
190
190
190
190
190
190
190
190
190
190
190
190
190
190
190
190
190
190
190
190
190
190
190
190
190
190
190
190
190
190
190
190
190
190
190
190
190
190
190
190
190
190
190
190
190
190
190
190
190
190
190
190
190
190
190
190
190
190
190
190
190
190
190
190
190
190
190
190
190
190
190
190
190
190
190
190
190
190
190
190
190
190
190
190
190
190
190
190
190
190
190
190
190
190
190
190
190
190
190
190
190
190
190
190
190
190
190
190
190
190
190
190
190
190
190
190
190
190
190
190
190
190
190
190
190
190
190
190
190
190
190
190
190
190
190
190
190
190
190
190
190
190
190
190
190
190
190
190
190
190
190
190
190
190
190
190
190
190
190
190
190
190
190
190
190
190
190
190
190
190
190
190
190
190
190
190
190
190
190
190
190
190
190
190
190
190
190
190
190
190
190
190
190
190
190
190
190
190
190
190
190
190
190
190
190
190
190
190
190
190
190
190
190
190
190
190
190
190
190
190
190
190
190
190
190
190
190
190
190
190
190
190
190
190
190
190
190
190
190
190
190
190
190
190
190
190
190
190
190
190
190
190
190
190
190
190
190
190
190
190
190
190
190
190
190
190
190
190
190
190
190
190
190
190
190
190
190
190
190
190
190
190
190
190
190
190
190
190
190
190
190
190
190
190
190
190
190
190
190
190
190
190
190
190
190
190
190
190
190
190
190
190
190
190
190
190
190
190
190
190
190
190
190
190
190
190
190
190
190
190
190
190
190
190
190
190
190
190
190
190
190
190
190
190
190
190
190
190
190
190
190
190
190
190
190
190
190
190
190
190
190
190
190
190
190
190
190
190
190
190
190
190
190
190
190
190
190
190
190
190
190
190
190
190
190
190
190
190
190
190
190
190
190
190
190
190
190
190
190
190
190
190
190
190
190
190
190
190
190
190
190
190
190
190
190
190
190
190
190
190
190
190
190
190
190
190
190
190
190
190
190
190
190
190
190
190
190
190
190
190
190
190
190
190
190
190
190
190
190
190
190
190
190
190
190
190
190
190
190
190
190
190
190
190
190
190
190
SCALARS rr_Vext float
LOOKUP_TABLE default
0.181359
0.449126
0.356051
0.468113
0.250493
0.37783
0.179275
0.465092
0.395109
0.504569
0.16539
0.466512
0.409829
0.435016
0.516138
0.424867
0.369046
0.414187
0.365534
0.36053
0.405112
0.0765108
0.415073
0.383017
0.347108
0.403474
0.155011
0.352837
0.267414
0.339248
0.361972
0.276487
0.171521
0.252902
0.249248
0.253453
0.330127
0.249491
0.361542
0.192837
0.224722
0.291051
0.291061
0.397274
0.216886
0.244121
0.344615
0.350186
0.330081
0.303763
0.312855
0.245238
0.40152
0.315209
0.369416
0.157754
0.266179
0.317518
0.266151
0.393187
0.470932
0.464875
0.153276
0.327644
0.445316
0.417377
0.455657
0.391908
0.357988
0.51556
0.435557
0.430793
0.277656
0.338747
0.353974
0.176427
0.372678
0.413479
0.395172
0.271134
0.240492
0.283508
0.527535
0.240252
0.327762
0.119292
0.407583
0.344611
0.229707
0.0374829
0.273094
0.0407608
0.316359
0.299314
0.258661
0.232984
0.220909
0.442933
0.372913
0.351858
0.293537
0.277771
0.230479
0.418579
0.42614
0.383834
0.340628
0.34085
0.24463
0.512522
0.326028
0.164039
0.220057
0.457881
0.429721
0.304484
0.308632
0.183509
0.320036
0.303368
0.266987
0.502651
0.511813
0.442042
0.484529
0.384954
0.220816
0.478213
0.20008
0.26228
0.227504
0.456398
0.449026
0.448252
0.288939
0.187538
0.190639
0.327442
0.404471
0.18746
0.241543
0.387292
0.287971
0.472761
0.223277
0.385192
0.349733
0.336129
0.214791
0.269547
0.3043
0.440629
0.248028
0.397413
0.461992
0.469246
0.307857
0.249009
0.247658
0.401138
0.333855
0.246118
0.160077
0.239705
0.240468
0.430958
0.25235
0.255102
0.274621
0.24594
0.386345
0.258185
0.22606
0.297715
0.272813
0.340308
0.38212
0.361135
0.313978
0.360847
0.266568
0.418249
0.448855
0.241616
0.442302
0.239441
0.436797
0.402739
0.378967
0.379417
0.446229
0.200775
0.266929
0.246018
0.447412
0.439023
0.407201
0.447896
0.452955
0.381867
0.466572
0.307717
0.274111
0.512734
0.285549
0.465956
0.369963
0.226656
0.286343
0.461727
0.389036
0.35031
0.450058
0.445258
0.27886
0.284223
0.267544
0.395455
0.433421
0.498095
0.478091
0.520373
0.471561
0.51529
0.432058
0.457204
0.460653
0.434357
0.456359
0.42292
0.416637
0.282413
0.389413
0.454297
0.312122
0.470275
0.432158
0.492662
0.288248
0.468279
0.44868
0.284502
0.406915
0.282471
0.45524
0.411292
0.296256
0.277679
0.235554
0.271098
0.455775
0.197502
0.347022
0.276529
0.313905
0.468674
0.455551
0.147789
0.457107
0.236432
0.261766
0.466273
0.379029
0.264586
0.522185
0.291232
0.14778
0.267725
0.406401
0.508924
0.382692
0.457757
0.425157
0.226616
0.216732
0.175979
0.201429
0.308136
0.229077
0.371983
0.227525
0.406394
0.287624
0.268103
0.323955
0.293523
0.398523
0.281488
0.287598
0.136371
0.303573
0.437812
0.43806
0.391526
0.281117
0.192359
0.54588
0.36049
0.298319
0.274293
0.284977
0.282731
0.358844
0.278093
0.19206
0.274793
0.183497
0.351069
0.279578
0.127091
0.263723
0.321339
0.279316
0.443671
0.290711
0.38147
0.138315
0.305663
0.287015
0.261625
0.269319
0.321993
0.308724
0.321047
0.266565
0.271165
0.293861
0.403603
0.276097
0.399024
0.358789
0.290797
0.286475
0.290124
0.323374
0.289914
0.270118
0.30853
0.33303
0.387868
0.29017
0.286355
0.425145
0.41925
0.276213
0.290836
0.117369
0.342065
0.227679
0.319682
0.126304
0.131123
0.117233
0.11913
0.126411
0.133076
0.137186
0.36582
0.275204
0.269664
0.305535
0.296208
0.292409
0.314711
0.285995
0.292388
0.310824
0.291315
0.368789
0.261064
0.378834
0.289104
0.27758
0.291597
0.322766
0.328995
0.304697
0.35105
0.326032
0.300391
0.213976
0.303861
0.298863
0.328282
0.30531
0.28852
0.275037
0.304064
0.319093
0.436162
0.283307
0.424002
0.438661
0.298865
0.422864
0.322476
0.255679
0.356794
0.307319
0.229505
0.185271
0.35335
0.37714
0.313433
0.259544
0.317014
0.138204
0.309865
0.289514
0.140569
0.0597487
0.0653754
0.268652
0.283295
0.331358
0.316587
0.0311309
0.0325286
0.318181
0.321543
0.304243
0.103724
0.264727
0.315904
0.315642
0.272076
0.240282
0.107864
0.464467
0.284946
0.352161
0.357673
0.255163
0.323446
0.249476
0.275481
0.129739
0.199382
0.323806
0.327751
0.280326
0.293564
0.303658
0.320505
0.30641
0.143961
0.275779
0.301354
0.290885
0.437488
0.143858
0.233732
0.240572
0.234523
0.155625
0.155629
0.267699
0.208508
0.301874
0.153856
0.185526
0.0614167
0.0614142
0.11231
0.199633
0.134971
0.257001
0.284538
0.297807
0.337001
0.307418
0.285232
0.222216
0.127171
0.27805
0.290581
0.282438
0.14413
0.147645
0.104629
0.281948
0.285971
0.224181
0.25825
0.238713
0.223791
0.292911
0.223757
0.257204
0.251387
0.158047
0.195241
0.165308
0.310646
0.112706
0.118918
0.115939
0.294534
0.10769
0.104733
0.200917
0.0979322
0.243155
0.243509
0.10066
0.255445
0.113723
0.110989
0.127155
0.105858
0.105723
0.174205
0.126241
0.112775
0.106277
0.23581
0.272659
0.118744
0.260317
0.0960768
0.264788
0.208172
0.100551
0.0864352
0.0948697
0.126461
0.225552
0.19218
0.0824425
0.0914073
0.253857
0.077586
0.0775827
0.0878717
0.0979621
0.0995852
0.127334
0.207533
0.193794
0.253768
0.0775243
0.077521
0.229252
0.0843467
0.178714
0.0765191
0.0783415
0.103271
0.198596
0.205596
0.218907
0.200659
0.19858
0.0438924
0.320381
0.0557537
0.0543418
0.259008
0.257239
0.0563345
0.0390572
0.0548045
0.23856
SCALARS rr_Vli float
LOOKUP_TABLE default
0.396487
0.903298
0.721404
0.942904
0.493003
0.765665
0.392034
0.937671
0.806268
1.01512
0.359836
0.940543
0.827703
0.874155
1.02412
0.859729
0.739395
0.835916
0.748797
0.732054
0.823481
0.146196
0.843738
0.777627
0.704888
0.813141
0.333349
0.714257
0.560609
0.659801
0.731226
0.579528
0.369272
0.494392
0.485905
0.495507
0.641457
0.486896
0.730483
0.415065
0.471211
0.56533
0.56539
0.802515
0.463323
0.511148
0.704662
0.713572
0.668682
0.640143
0.657315
0.509709
0.791282
0.654954
0.728499
0.336094
0.518808
0.659756
0.518791
0.798047
0.943865
0.925031
0.32784
0.652218
0.886011
0.836196
0.913001
0.789774
0.72729
1.03671
0.858507
0.849153
0.58221
0.676852
0.716969
0.381182
0.73816
0.82844
0.796422
0.56248
0.507624
0.556448
1.05351
0.508332
0.685384
0.254579
0.825076
0.689487
0.490661
0.0719435
0.567529
0.0782462
0.62635
0.600259
0.537109
0.489902
0.466217
0.891215
0.738707
0.711149
0.604217
0.579673
0.48775
0.844111
0.858082
0.772715
0.679547
0.68938
0.517759
1.02965
0.661678
0.349478
0.467059
0.923822
0.865437
0.632492
0.601613
0.387411
0.624002
0.629992
0.54796
0.998313
1.02948
0.884279
0.972857
0.763253
0.43175
0.962237
0.422253
0.544647
0.448453
0.918481
0.897111
0.901823
0.6029
0.365537
0.404182
0.660932
0.807733
0.365414
0.503538
0.778934
0.590241
0.951061
0.471532
0.776065
0.704323
0.680955
0.435247
0.556268
0.620247
0.886308
0.519982
0.802498
0.929443
0.944263
0.617854
0.518657
0.515713
0.810198
0.680207
0.51566
0.341239
0.503639
0.500928
0.867515
0.525645
0.531443
0.575696
0.512236
0.764768
0.536474
0.475015
0.597026
0.566759
0.679101
0.756452
0.728159
0.618512
0.726373
0.55876
0.841637
0.903305
0.503622
0.884783
0.503409
0.873808
0.803284
0.749916
0.76339
0.892542
0.423344
0.55457
0.515691
0.900211
0.886301
0.821712
0.894905
0.911197
0.765272
0.938417
0.629675
0.568293
1.02454
0.598472
0.930553
0.741278
0.473241
0.569199
0.928575
0.772728
0.703606
0.906436
0.889138
0.575329
0.570472
0.5542
0.788783
0.870378
1.00028
0.961017
1.04559
0.947453
1.03539
0.868713
0.907698
0.91477
0.862345
0.905933
0.833931
0.821517
0.583004
0.782795
0.915908
0.636239
0.933122
0.857211
0.993025
0.597476
0.94437
0.902756
0.586736
0.808802
0.582775
0.908856
0.829727
0.610881
0.574981
0.497306
0.572062
0.910103
0.417614
0.701482
0.572846
0.642713
0.945258
0.914968
0.286927
0.918295
0.500197
0.542259
0.940102
0.764202
0.548649
1.04888
0.596676
0.286928
0.554501
0.815978
1.01856
0.772235
0.908467
0.850824
0.446601
0.437753
0.374434
0.429884
0.608684
0.46556
0.749993
0.469385
0.80767
0.576818
0.555341
0.649548
0.603996
0.802278
0.579179
0.596021
0.263019
0.600443
0.868511
0.869131
0.787209
0.578063
0.376388
1.09285
0.734301
0.613259
0.565367
0.562959
0.583124
0.71046
0.572677
0.410196
0.565168
0.387692
0.700127
0.5766
0.245149
0.543078
0.642114
0.57662
0.887241
0.598798
0.772175
0.296223
0.619804
0.592063
0.517041
0.555818
0.65588
0.617315
0.64555
0.549011
0.557648
0.602197
0.804987
0.567871
0.804507
0.726244
0.573155
0.589129
0.594777
0.657843
0.593795
0.555995
0.631808
0.662547
0.782181
0.594652
0.59081
0.855288
0.843309
0.568301
0.573278
0.256088
0.692602
0.480628
0.650104
0.287607
0.29855
0.266803
0.271172
0.287683
0.303056
0.312311
0.729344
0.539724
0.544566
0.622605
0.606501
0.598934
0.63352
0.586132
0.599484
0.60947
0.596713
0.732659
0.542546
0.753108
0.586004
0.5657
0.597466
0.637467
0.666113
0.620593
0.710717
0.663998
0.615743
0.44404
0.619298
0.605573
0.652005
0.624637
0.591869
0.562872
0.620018
0.646722
0.877918
0.579858
0.853549
0.88974
0.609278
0.85243
0.65393
0.523841
0.713544
0.625426
0.450402
0.395666
0.704469
0.750314
0.635202
0.528049
0.635253
0.301236
0.628022
0.589266
0.300912
0.115298
0.126126
0.544005
0.580098
0.673737
0.647663
0.0592774
0.0619389
0.641397
0.648088
0.613483
0.226113
0.542805
0.631013
0.643418
0.555015
0.489878
0.23547
0.929284
0.583734
0.713233
0.724384
0.520583
0.658849
0.50899
0.561648
0.279102
0.421177
0.659633
0.663709
0.570434
0.599125
0.618257
0.651894
0.623524
0.307428
0.547097
0.616832
0.583016
0.874903
0.307368
0.473534
0.487754
0.462241
0.300515
0.300536
0.529554
0.427593
0.611537
0.329006
0.358876
0.117176
0.117176
0.245399
0.38962
0.262494
0.521051
0.56354
0.601412
0.677647
0.614658
0.56907
0.448037
0.277251
0.562547
0.582801
0.564248
0.311557
0.287925
0.224284
0.563452
0.57485
0.461943
0.521748
0.481454
0.440837
0.590095
0.440799
0.520823
0.502148
0.307812
0.380028
0.353394
0.623983
0.246786
0.25998
0.254334
0.589284
0.234981
0.230138
0.41001
0.214644
0.477121
0.477843
0.220334
0.519611
0.244574
0.243122
0.273901
0.231958
0.227739
0.33983
0.270697
0.245997
0.232678
0.475749
0.543003
0.256116
0.525108
0.211012
0.53269
0.42322
0.220454
0.186663
0.208255
0.276319
0.457468
0.376608
0.157552
0.174883
0.509987
0.148307
0.148306
0.168049
0.188629
0.213206
0.248114
0.410274
0.379761
0.510341
0.149004
0.149003
0.448512
0.184462
0.36361
0.167149
0.16815
0.221554
0.38455
0.398195
0.424214
0.388779
0.38454
0.0840103
0.620732
0.107163
0.103829
0.501445
0.497966
0.107596
0.0747329
0.105301
0.462543
SCALARS rr_S_ext' float
LOOKUP_TABLE default
-0.000613498
-0.00140047
-0.00111828
-0.00146182
-0.000764723
-0.00118689
-0.000606604
-0.00145369
-0.00124963
-0.00157382
-0.000556836
-0.00145815
-0.00128316
-0.00135532
-0.00158827
-0.00133275
-0.00114645
-0.0012959
-0.00116045
-0.00113474
-0.00127643
-0.000226912
-0.00130782
-0.00120538
-0.00109262
-0.00126063
-0.000516007
-0.00110723
-0.000868334
-0.0010237
-0.00113359
-0.000897641
-0.0005716
-0.000766981
-0.000753864
-0.000768708
-0.000995256
-0.000755386
-0.00113243
-0.000642487
-0.000729859
-0.000877147
-0.000877239
-0.0012441
-0.000717313
-0.000791748
-0.0010921
-0.001106
-0.00103656
-0.000991398
-0.00101807
-0.000789659
-0.00122735
-0.00101469
-0.00112996
-0.000520379
-0.000804916
-0.00102212
-0.000804889
-0.00123704
-0.00146347
-0.00143451
-0.000507551
-0.00101144
-0.001374
-0.00129656
-0.00141563
-0.00122441
-0.00112734
-0.00160731
-0.00133162
-0.00131711
-0.000901789
-0.00104955
-0.00111142
-0.000589982
-0.00114484
-0.00128453
-0.00123471
-0.000871448
-0.000786138
-0.000863188
-0.00163361
-0.000787188
-0.00106167
-0.00039415
-0.00127901
-0.00106911
-0.00075964
-0.000111653
-0.000879239
-0.000121434
-0.000971433
-0.000930705
-0.000832127
-0.000758758
-0.000722017
-0.00138173
-0.00114568
-0.00110245
-0.000936288
-0.000897967
-0.000755309
-0.00130863
-0.00133033
-0.00119799
-0.00105376
-0.00106869
-0.000801779
-0.00159639
-0.00102566
-0.000541098
-0.000723216
-0.00143219
-0.00134173
-0.000979894
-0.000933384
-0.000599969
-0.000968114
-0.000976026
-0.000849167
-0.00154821
-0.00159608
-0.00137115
-0.00150836
-0.00118372
-0.000669802
-0.00149184
-0.000653931
-0.000843803
-0.000695588
-0.00142398
-0.00139108
-0.00139817
-0.00093395
-0.000567119
-0.000625876
-0.00102463
-0.0012525
-0.000566927
-0.000780046
-0.00120767
-0.000914721
-0.00147452
-0.000730237
-0.00120316
-0.00109195
-0.00105559
-0.000674695
-0.000861933
-0.000961344
-0.00137412
-0.000805404
-0.00124409
-0.001441
-0.00146396
-0.000957969
-0.000803485
-0.000798929
-0.00125601
-0.00105429
-0.000798721
-0.000528333
-0.000780048
-0.000776016
-0.00134497
-0.000814309
-0.000823289
-0.000891703
-0.000793537
-0.00118611
-0.00083113
-0.000735714
-0.000925693
-0.000878053
-0.00105306
-0.00117322
-0.00112888
-0.000959384
-0.00112615
-0.000865475
-0.00130486
-0.00140046
-0.000780177
-0.00137194
-0.000779681
-0.00135491
-0.00124565
-0.00116309
-0.00118355
-0.00138397
-0.000655636
-0.000859167
-0.000798762
-0.00139567
-0.001374
-0.00127388
-0.00138766
-0.0014127
-0.00118658
-0.00145491
-0.000975869
-0.000880469
-0.00158867
-0.000926988
-0.00144295
-0.00114938
-0.000733082
-0.000882718
-0.00143965
-0.00119837
-0.00109091
-0.0014053
-0.00137873
-0.000891473
-0.000884505
-0.000858653
-0.00122316
-0.00134946
-0.00155087
-0.00148996
-0.00162109
-0.00146895
-0.00160528
-0.00134686
-0.00140769
-0.00141865
-0.00133736
-0.00140496
-0.00129349
-0.00127424
-0.000903354
-0.00121366
-0.00141993
-0.000986133
-0.00144714
-0.00132942
-0.00153949
-0.000925687
-0.00146404
-0.00139962
-0.000909159
-0.0012543
-0.000903012
-0.00140932
-0.0012863
-0.000946574
-0.000890858
-0.000770155
-0.00088593
-0.00141125
-0.000646719
-0.00108746
-0.000887541
-0.00099606
-0.00146541
-0.00141859
-0.000445192
-0.00142374
-0.0007746
-0.000840149
-0.00145743
-0.00118476
-0.000850031
-0.00162621
-0.000924703
-0.000445193
-0.000859121
-0.00126512
-0.00157935
-0.00119718
-0.0014089
-0.00131927
-0.000692723
-0.00067863
-0.000579758
-0.000665563
-0.000944082
-0.000721638
-0.00116273
-0.000727316
-0.00125254
-0.00089436
-0.000860419
-0.00100713
-0.000935953
-0.00124383
-0.0008975
-0.000923435
-0.000408155
-0.000931271
-0.00134694
-0.0013479
-0.0012205
-0.000895784
-0.000583902
-0.00169454
-0.00113814
-0.00095033
-0.000876061
-0.00087316
-0.00090356
-0.00110188
-0.000887409
-0.000635067
-0.000875795
-0.000600392
-0.00108568
-0.00089345
-0.000380422
-0.000841541
-0.000995677
-0.000893462
-0.00137575
-0.000927878
-0.00119701
-0.00045859
-0.000960768
-0.000917407
-0.000801931
-0.000861233
-0.00101659
-0.000957214
-0.00100086
-0.000850731
-0.000864146
-0.000933254
-0.00124829
-0.000879984
-0.00124724
-0.00112581
-0.000889021
-0.00091293
-0.000921746
-0.00101966
-0.000920246
-0.000861566
-0.000979161
-0.00102746
-0.00121263
-0.000921561
-0.000915461
-0.00132604
-0.00130747
-0.000880642
-0.000889211
-0.000396262
-0.00107365
-0.000744329
-0.00100768
-0.000444527
-0.000461443
-0.000412379
-0.000419128
-0.000444649
-0.000468407
-0.000482716
-0.001131
-0.000837249
-0.000844218
-0.000965004
-0.000939939
-0.000928208
-0.000982195
-0.000908354
-0.000929039
-0.000945448
-0.000924765
-0.00113623
-0.000840533
-0.00116791
-0.000908384
-0.000876803
-0.000925926
-0.00098873
-0.00103259
-0.000961898
-0.00110174
-0.00102917
-0.000954239
-0.000687945
-0.000959875
-0.000938729
-0.00101115
-0.000968064
-0.000917223
-0.000872336
-0.000960981
-0.00100251
-0.00136111
-0.000898657
-0.00132332
-0.00137919
-0.000944339
-0.00132155
-0.00101367
-0.000811824
-0.00110642
-0.000969408
-0.000698679
-0.000612572
-0.00109243
-0.00116357
-0.000984653
-0.000818481
-0.00098498
-0.000466136
-0.000973519
-0.000913358
-0.000465856
-0.000178919
-0.000195723
-0.000843299
-0.00089902
-0.00104431
-0.00100375
-9.20122e-05
-9.61433e-05
-0.000994371
-0.00100475
-0.000951093
-0.00034989
-0.000841197
-0.000978471
-0.00099726
-0.000860226
-0.000759278
-0.000364352
-0.00144093
-0.000904645
-0.00110563
-0.00112292
-0.000806856
-0.00102119
-0.000788887
-0.000870517
-0.000432033
-0.000652251
-0.0010224
-0.00102886
-0.000884173
-0.000928582
-0.000958287
-0.00101045
-0.000966461
-0.000475963
-0.000848479
-0.000955957
-0.000903981
-0.00135662
-0.000475864
-0.000734049
-0.000756079
-0.000716981
-0.000466326
-0.000466358
-0.000821319
-0.000662649
-0.000947977
-0.000509353
-0.000556868
-0.000181877
-0.000181876
-0.000379707
-0.000604466
-0.000407267
-0.000807697
-0.000874013
-0.000932346
-0.00105063
-0.000953089
-0.000882448
-0.000694601
-0.000429018
-0.000872062
-0.000903634
-0.000874942
-0.000482212
-0.000446698
-0.000347214
-0.0008737
-0.000891262
-0.000715803
-0.00080884
-0.000746403
-0.000683785
-0.000914853
-0.000683725
-0.000807364
-0.000778651
-0.000477563
-0.000589614
-0.000547115
-0.000967448
-0.000381845
-0.000402277
-0.000393504
-0.000913736
-0.000363603
-0.000356052
-0.000635475
-0.000332104
-0.000740136
-0.000741255
-0.00034092
-0.000805401
-0.000378591
-0.000376174
-0.000423969
-0.000358897
-0.000352515
-0.000527227
-0.000419054
-0.000380652
-0.000360016
-0.000737555
-0.000842058
-0.000396427
-0.000814079
-0.000326465
-0.000825881
-0.000656002
-0.000341093
-0.000288915
-0.000322207
-0.00042755
-0.000709126
-0.000584228
-0.000244537
-0.000271429
-0.000790705
-0.000230186
-0.000230184
-0.000260825
-0.000292724
-0.000330067
-0.000384941
-0.000636331
-0.000589119
-0.000791236
-0.000231242
-0.00023124
-0.000695799
-0.000285412
-0.000563596
-0.000258635
-0.000260306
-0.000342978
-0.000596692
-0.000617862
-0.000658228
-0.000603247
-0.000596676
-0.000130388
-0.000963159
-0.000166308
-0.000161154
-0.000778077
-0.00077268
-0.000167003
-0.00011599
-0.000163419
-0.000717692
SCALARS rr_P_ext' float
LOOKUP_TABLE default
0.000165784
0.000383006
0.000305519
0.000399702
0.000209757
0.000324255
0.000163915
0.000397427
0.000341065
0.000430397
0.000150585
0.000398643
0.000350718
0.000370701
0.000435173
0.000364176
0.000313702
0.000354238
0.000316555
0.000309921
0.000348566
6.2486e-05
0.00035714
0.000329221
0.000298414
0.000344665
0.000139782
0.000302536
0.000236096
0.000281243
0.000309827
0.000244071
0.000154815
0.00021057
0.000207043
0.000211042
0.000273464
0.000207432
0.000309503
0.000174021
0.00019844
0.000241023
0.000241045
0.000340034
0.000194504
0.00021531
0.000297985
0.000301924
0.000283198
0.000269356
0.000276722
0.000214968
0.000336595
0.000276237
0.000309856
0.000141158
0.00022107
0.000278262
0.000221061
0.000337882
0.000400429
0.000392889
0.000137599
0.000277
0.000376323
0.000354774
0.000387352
0.000334765
0.000307877
0.000439586
0.000365181
0.000361199
0.000245184
0.000287291
0.000303656
0.000159711
0.000313748
0.00035148
0.000337578
0.000237297
0.000213537
0.000236852
0.000447201
0.000213748
0.000288767
0.000106892
0.000349475
0.000292593
0.000205984
3.07286e-05
0.000239359
3.34199e-05
0.000266242
0.000254632
0.000226558
0.000206215
0.000196124
0.000377857
0.000313976
0.000301296
0.000255233
0.000244311
0.000205086
0.000357756
0.000363765
0.000327587
0.000288507
0.00029204
0.0002177
0.000436657
0.000280149
0.00014678
0.000196289
0.000391509
0.000366873
0.000266776
0.000256351
0.000162964
0.00026588
0.000265734
0.00023158
0.000424141
0.000436499
0.000375264
0.000412611
0.000324362
0.000183884
0.000407967
0.00017763
0.000229736
0.000190755
0.000389405
0.000380786
0.000382361
0.000254105
0.000155759
0.000169895
0.000280079
0.000342873
0.000155705
0.00021226
0.000330275
0.000249503
0.000403242
0.000198337
0.000328966
0.000298576
0.000288395
0.000184326
0.000234879
0.000262425
0.000375795
0.000218986
0.000340047
0.000394073
0.000400341
0.000262065
0.000218664
0.000217432
0.000343297
0.000287812
0.000217188
0.000143305
0.000212025
0.000211186
0.000367782
0.000221608
0.000224048
0.000242452
0.000215959
0.000325089
0.000226266
0.000199971
0.000253262
0.000239047
0.000288304
0.000321551
0.000308621
0.000263119
0.000307946
0.000235323
0.000356831
0.000382971
0.0002123
0.000375479
0.000211905
0.000370819
0.000341052
0.000318792
0.000323663
0.000378779
0.000178116
0.000233903
0.000217184
0.000381672
0.000375572
0.000348226
0.000379847
0.000386341
0.000324668
0.000397894
0.000266243
0.000239775
0.000434864
0.000252053
0.000395007
0.000314498
0.000199437
0.000241796
0.000393727
0.000328296
0.000298399
0.00038425
0.000377432
0.000242938
0.000241964
0.000233862
0.000334893
0.000369138
0.00042423
0.000407515
0.000443404
0.000401793
0.000439079
0.000368359
0.000385666
0.000388656
0.000366396
0.000384922
0.000354705
0.000349426
0.000246155
0.000331939
0.000388201
0.000269187
0.000396504
0.000364267
0.000420903
0.000252096
0.000400246
0.000382752
0.000247771
0.000343584
0.000246082
0.000385817
0.000351638
0.000257974
0.000242646
0.000209189
0.000240655
0.000386334
0.000175622
0.000297193
0.000241728
0.00027173
0.000400616
0.000388038
0.000122337
0.000389436
0.000210332
0.000228821
0.000398452
0.0003239
0.000231479
0.000444824
0.00025224
0.000122336
0.000233994
0.000346075
0.000432216
0.00032726
0.000386015
0.000361045
0.000189974
0.000185485
0.000157296
0.000180496
0.000258826
0.00019707
0.000317878
0.000198205
0.000343109
0.000244688
0.000234344
0.000275549
0.000255153
0.000340122
0.000244673
0.00025149
0.000112258
0.000255269
0.000369063
0.000369317
0.0003338
0.000244226
0.000160286
0.000463719
0.000310713
0.000259108
0.000238769
0.00023938
0.000246243
0.000301995
0.000241893
0.000172208
0.00023877
0.00016306
0.000297261
0.000243489
0.000104629
0.000229391
0.000272544
0.000243459
0.000376541
0.000252916
0.00032707
0.000124302
0.000262457
0.00025001
0.000219841
0.000234687
0.00027753
0.00026199
0.000273729
0.000231891
0.000235597
0.000254565
0.000341777
0.000239911
0.000340983
0.000307617
0.000243803
0.000248898
0.000251412
0.000278419
0.000251035
0.000234864
0.000267113
0.000281414
0.000331509
0.000251374
0.000249474
0.000362634
0.000357564
0.000240079
0.000243852
0.000107115
0.000293353
0.000202177
0.000275159
0.000119386
0.000123931
0.000110762
0.000112571
0.00011943
0.000125797
0.000129647
0.00030968
0.000229762
0.00023075
0.000263433
0.000256419
0.000253205
0.00026858
0.00024777
0.000253397
0.00025946
0.000252265
0.000311262
0.000228821
0.000319916
0.00024816
0.000239351
0.000252571
0.000271073
0.000282135
0.000262602
0.000301031
0.000280972
0.000260279
0.00018732
0.000262027
0.000256461
0.000277009
0.000264121
0.000250156
0.000237993
0.00026231
0.000273877
0.000372198
0.00024517
0.000361859
0.000376745
0.000257776
0.000361305
0.000276905
0.000221449
0.000302822
0.000264682
0.000191717
0.00016611
0.000299119
0.000318691
0.000269002
0.000223483
0.000269511
0.000126022
0.000265957
0.000249374
0.00012628
4.92058e-05
5.38288e-05
0.000230411
0.000245253
0.00028517
0.00027386
2.53494e-05
2.64875e-05
0.000271858
0.0002747
0.000260014
9.45924e-05
0.000229436
0.000267848
0.000272224
0.000234794
0.000207258
9.84821e-05
0.000394353
0.000246773
0.000302078
0.000306802
0.000220223
0.000278786
0.000215318
0.000237622
0.000117028
0.000177149
0.000279114
0.000281109
0.000241414
0.000253435
0.000261629
0.000275909
0.000263881
0.000129067
0.000232481
0.000260801
0.00024734
0.000371303
0.00012903
0.000200547
0.000206544
0.000196624
0.000128237
0.000128245
0.000225128
0.000180734
0.000258996
0.000138094
0.000153101
5.00942e-05
5.00937e-05
0.000102619
0.000165987
0.00011189
0.000220645
0.000239531
0.000254836
0.000287337
0.000260865
0.000241601
0.000189896
0.000115983
0.000238298
0.000247223
0.000239503
0.000130528
0.000122678
9.41003e-05
0.000239152
0.000243762
0.0001951
0.000221065
0.000204049
0.000187535
0.000250138
0.000187517
0.000220592
0.000213148
0.000131178
0.000161968
0.000148337
0.000264628
0.000103161
0.000108707
0.000106282
0.00025007
9.8286e-05
9.61426e-05
0.00017344
8.97102e-05
0.000203095
0.0002034
9.21094e-05
0.000219918
0.000102555
0.000101623
0.000114821
9.69509e-05
9.54695e-05
0.000144787
0.000113567
0.000102899
9.7266e-05
0.000201621
0.0002306
0.000107342
0.000222545
8.816e-05
0.000225856
0.000179138
9.21336e-05
7.82161e-05
8.70162e-05
0.000115549
0.000193708
0.000160342
6.73382e-05
7.47326e-05
0.000216278
6.33847e-05
6.33837e-05
7.18167e-05
8.05278e-05
8.94708e-05
0.000105729
0.000174436
0.000161686
0.000216392
6.36294e-05
6.36286e-05
0.000191005
7.71246e-05
0.000153887
6.99004e-05
7.05334e-05
9.29416e-05
0.000164027
0.000169842
0.000180924
0.000165816
0.000164022
3.58979e-05
0.000264746
4.57619e-05
4.43782e-05
0.000213894
0.000212413
4.59911e-05
3.19351e-05
4.4969e-05
0.000197255
SCALARS rr_S' float
LOOKUP_TABLE default
0.000401909
0.00091841
0.000733296
0.000958625
0.000501622
0.000778281
0.000397391
0.000953292
0.000819358
0.00103209
0.000364809
0.00095621
0.00084144
0.000888813
0.00104173
0.000873942
0.000751864
0.000849804
0.000760847
0.000744065
0.000836965
0.000148892
0.000857546
0.000790387
0.00071645
0.00082669
0.000338113
0.000726052
0.000569159
0.000671582
0.000743358
0.00058837
0.000374535
0.000503139
0.000494551
0.000504272
0.00065293
0.000495544
0.000742597
0.000420984
0.000478392
0.000575448
0.000575507
0.00081583
0.000470057
0.000518968
0.00071605
0.000725195
0.000679708
0.00064978
0.000667285
0.000517646
0.000805073
0.000665162
0.000741181
0.000341019
0.000528043
0.000670037
0.000528025
0.000811149
0.000959767
0.000940854
0.000332596
0.000663368
0.000901169
0.000850306
0.000928391
0.000802938
0.000739208
0.00105405
0.000873465
0.000863947
0.000591086
0.000688337
0.000728798
0.000386561
0.000750904
0.000842418
0.000809692
0.000571274
0.000515239
0.000566229
0.00107139
0.000515911
0.000695905
0.000258291
0.000838701
0.000701155
0.000497795
7.32589e-05
0.00057637
7.96764e-05
0.00063717
0.000610367
0.000545493
0.000497317
0.000473215
0.000906115
0.00075146
0.000722935
0.00061384
0.000588617
0.000495017
0.000858157
0.000872406
0.00078562
0.000691107
0.000700788
0.000525472
0.0010469
0.000672544
0.000354595
0.000473965
0.000939179
0.000879879
0.000642357
0.000612321
0.000393223
0.000635103
0.000639823
0.000556741
0.00101544
0.00104669
0.000899241
0.000989177
0.000776395
0.00043939
0.000978323
0.000428591
0.000553146
0.000456263
0.000933825
0.000912324
0.000916897
0.000612205
0.000372042
0.00041018
0.000671916
0.000821441
0.000371916
0.000511326
0.000791976
0.00059973
0.000966968
0.000478599
0.000789004
0.000716081
0.000692184
0.00044242
0.000565073
0.000630341
0.000901127
0.00052791
0.000815823
0.000944987
0.00096004
0.000628242
0.000526697
0.000523712
0.00082364
0.000691288
0.000523534
0.000346228
0.000511276
0.000508689
0.000882007
0.000533791
0.000539678
0.000584477
0.000520176
0.000777983
0.000544834
0.000482218
0.000607081
0.000575595
0.000690647
0.000769522
0.000740285
0.000629304
0.000738509
0.000567286
0.000855706
0.000918401
0.000511413
0.000899762
0.000511032
0.000888593
0.00081696
0.000762884
0.000776155
0.000907655
0.000429714
0.000563214
0.000523557
0.000915256
0.000901018
0.000835366
0.00091008
0.000926429
0.000778179
0.000954111
0.000639834
0.000577192
0.00104191
0.000607607
0.000946348
0.000753784
0.000480531
0.000578955
0.000944106
0.000785995
0.000715419
0.000921563
0.000904231
0.000584441
0.000580063
0.000562898
0.000802212
0.000884974
0.00101706
0.000977099
0.0010631
0.000963326
0.00105273
0.00088326
0.000923285
0.00093047
0.000877151
0.000921492
0.000848448
0.000835818
0.000592226
0.000795908
0.00093114
0.000646595
0.000949162
0.000871956
0.00100955
0.000606836
0.000960066
0.00091785
0.000596039
0.000822666
0.000592007
0.000924293
0.000843505
0.000620569
0.000584012
0.000504762
0.000580644
0.000925556
0.000423854
0.000713103
0.000581835
0.000653067
0.000960966
0.000930307
0.000292068
0.000933684
0.000507663
0.000550766
0.000955733
0.000776929
0.000557237
0.00106646
0.000606278
0.000292068
0.000563205
0.000829666
0.00103578
0.000785068
0.000924077
0.000865215
0.000454386
0.000445017
0.000379937
0.000436152
0.000619247
0.000473186
0.000762485
0.000476823
0.000821517
0.000586532
0.000564055
0.000660491
0.000613623
0.000815683
0.000588413
0.000605362
0.000267788
0.000610834
0.000883446
0.000884072
0.000800393
0.000587293
0.000383035
0.00111132
0.000746269
0.000623056
0.000574345
0.000572727
0.000592368
0.000722733
0.000581791
0.000416162
0.000574185
0.000393496
0.000712048
0.00058574
0.000249593
0.00055172
0.000653003
0.000585741
0.000902264
0.000608321
0.000784929
0.000300508
0.000630001
0.000601445
0.000526003
0.000564614
0.000666568
0.000627773
0.000656354
0.000557744
0.000566549
0.000611883
0.000818692
0.000576932
0.000817907
0.00073824
0.000583146
0.000598533
0.000604335
0.000668596
0.000603359
0.000564851
0.000641987
0.000673884
0.000795203
0.000604217
0.000600167
0.000869601
0.000857425
0.000577361
0.00058327
0.000259599
0.000704037
0.000487837
0.000660738
0.000291047
0.000302123
0.000270001
0.000274419
0.000291129
0.000306683
0.000316053
0.000741769
0.000549215
0.000553602
0.000632742
0.000616272
0.000608579
0.000644107
0.000595557
0.000609116
0.000620192
0.000606321
0.000745233
0.000550996
0.000766004
0.000595654
0.00057491
0.00060708
0.000648534
0.000677113
0.00063071
0.000722454
0.000674823
0.000625639
0.000450978
0.000629378
0.000615556
0.000663201
0.000634718
0.000601365
0.000571951
0.0006301
0.000657377
0.000892592
0.000589208
0.000867812
0.000904371
0.000619189
0.000866633
0.000664689
0.000532269
0.000725625
0.00063564
0.000458314
0.000401421
0.000716474
0.000763152
0.000645668
0.00053668
0.000645967
0.00030538
0.000638366
0.000598888
0.000305271
0.000117387
0.000128412
0.000552982
0.000589443
0.000684764
0.000658118
6.03773e-05
6.30881e-05
0.00065208
0.00065889
0.000623698
0.000229224
0.000551522
0.000641721
0.00065389
0.000564035
0.000497847
0.000238693
0.000945004
0.000593128
0.000725002
0.000736337
0.00052904
0.000669587
0.000517258
0.000570785
0.000283088
0.000427485
0.000670381
0.000674663
0.000579753
0.000608851
0.000628345
0.000662553
0.000633709
0.000311901
0.000556511
0.000626776
0.000592845
0.000889719
0.000311835
0.00048134
0.000495782
0.000470297
0.00030595
0.000305971
0.000538713
0.000434458
0.000621621
0.000333776
0.000365346
0.000119343
0.000119342
0.000248749
0.000396538
0.000267182
0.00052963
0.00057327
0.000611393
0.00068899
0.000625067
0.000578754
0.000455499
0.000281061
0.00057185
0.000592613
0.000573821
0.000315947
0.000293041
0.000227522
0.000573005
0.000584484
0.000469281
0.000530401
0.000489468
0.000448524
0.00059994
0.000448484
0.00052942
0.000510672
0.000313294
0.000386804
0.000358523
0.00063445
0.000250145
0.000263537
0.000257776
0.000599255
0.000238205
0.000233237
0.000416667
0.000217557
0.000485511
0.000486245
0.000223337
0.000528103
0.000248071
0.00024643
0.000277799
0.00023511
0.00023098
0.000345869
0.000274594
0.000249374
0.000235846
0.000483664
0.000552275
0.000259748
0.000533847
0.000213857
0.000541603
0.000430145
0.000223445
0.000189301
0.00021107
0.000280091
0.000464992
0.000383244
0.000160455
0.000178099
0.000518543
0.000151039
0.000151037
0.000171142
0.000192058
0.000216288
0.00025253
0.000417381
0.000386452
0.000518885
0.000151722
0.000151721
0.000456441
0.000186973
0.000369551
0.000169435
0.00017057
0.000224743
0.000391469
0.000405357
0.000431837
0.000395767
0.000391459
8.55543e-05
0.000631892
0.000109118
0.000105743
0.000510471
0.000506931
0.000109581
7.61073e-05
0.000107223
0.000470846
SCALARS rr_P' float
LOOKUP_TABLE default
4.58044e-05
9.90527e-05
7.94689e-05
0.000103492
5.33442e-05
8.43538e-05
4.52976e-05
0.000102976
8.92108e-05
0.000111335
4.14431e-05
0.000103292
9.09976e-05
9.58054e-05
0.000111368
9.46314e-05
8.08876e-05
9.18604e-05
8.30503e-05
8.07498e-05
9.08967e-05
1.55349e-05
9.31331e-05
8.57707e-05
7.77592e-05
8.92791e-05
3.81126e-05
7.86384e-05
6.30787e-05
7.08733e-05
8.0403e-05
6.52005e-05
4.22498e-05
5.32727e-05
5.22696e-05
5.33952e-05
6.88629e-05
5.24105e-05
8.03297e-05
4.7482e-05
5.30269e-05
6.06772e-05
6.06863e-05
8.82399e-05
5.2752e-05
5.74694e-05
7.80671e-05
7.88842e-05
7.36539e-05
7.22628e-05
7.40615e-05
5.70446e-05
8.56876e-05
7.32872e-05
7.89212e-05
3.82018e-05
5.58023e-05
7.38247e-05
5.5803e-05
8.80073e-05
0.000103279
0.000100769
3.73557e-05
7.10672e-05
9.65114e-05
9.14755e-05
9.98846e-05
8.67098e-05
8.02514e-05
0.000113668
9.29772e-05
9.19665e-05
6.55186e-05
7.39221e-05
7.8965e-05
4.37097e-05
8.01839e-05
9.06305e-05
8.74444e-05
6.28772e-05
5.7362e-05
6.01075e-05
0.00011502
5.75288e-05
7.69969e-05
2.89669e-05
9.0839e-05
7.53639e-05
5.5861e-05
7.66568e-06
6.35102e-05
8.33797e-06
6.8021e-05
6.57056e-05
6.00764e-05
5.52265e-05
5.26779e-05
9.7753e-05
8.0249e-05
7.82196e-05
6.72157e-05
6.5039e-05
5.5206e-05
9.27155e-05
9.41633e-05
8.47832e-05
7.41445e-05
7.58579e-05
5.86072e-05
0.000112829
7.29649e-05
3.97226e-05
5.29619e-05
0.000101501
9.49803e-05
7.07614e-05
6.47127e-05
4.37825e-05
6.71314e-05
7.04689e-05
6.08465e-05
0.000108625
0.000112895
9.66454e-05
0.000106569
8.29615e-05
4.65284e-05
0.000105546
4.771e-05
6.0921e-05
4.85698e-05
0.000100755
9.79709e-05
9.89101e-05
6.76395e-05
3.93172e-05
4.58009e-05
7.26371e-05
8.81859e-05
3.93059e-05
5.64595e-05
8.54157e-05
6.54875e-05
0.000104306
5.3301e-05
8.51928e-05
7.72969e-05
7.50073e-05
4.795e-05
6.19807e-05
6.85792e-05
9.71962e-05
5.85085e-05
8.82178e-05
0.000101938
0.000103578
6.76627e-05
5.81236e-05
5.77847e-05
8.90761e-05
7.51897e-05
5.79997e-05
3.88004e-05
5.67472e-05
5.61411e-05
9.51804e-05
5.89088e-05
5.95633e-05
6.47749e-05
5.74021e-05
8.30431e-05
6.003e-05
5.35253e-05
6.53498e-05
6.34111e-05
7.41088e-05
8.21435e-05
7.99723e-05
6.69618e-05
7.96943e-05
6.28655e-05
9.23211e-05
9.90911e-05
5.64642e-05
9.66997e-05
5.67443e-05
9.55025e-05
8.76338e-05
8.1414e-05
8.37308e-05
9.75412e-05
4.78067e-05
6.20497e-05
5.80203e-05
9.87384e-05
9.7415e-05
9.02922e-05
9.77335e-05
9.99321e-05
8.37315e-05
0.000102906
6.97911e-05
6.35017e-05
0.000111897
6.73283e-05
0.000101597
8.1097e-05
5.31139e-05
6.19672e-05
0.00010182
8.40843e-05
7.70912e-05
9.94827e-05
9.70703e-05
6.40936e-05
6.24774e-05
6.18939e-05
8.60538e-05
9.53521e-05
0.000109586
0.000105345
0.000114587
0.000103829
0.000113471
9.5243e-05
9.87418e-05
9.95262e-05
9.38086e-05
9.85439e-05
9.03376e-05
8.89912e-05
6.49726e-05
8.58114e-05
0.000100585
7.03509e-05
0.000101472
9.31986e-05
0.000109038
6.6754e-05
0.000103729
9.90174e-05
6.53484e-05
8.80472e-05
6.49229e-05
9.92085e-05
9.1156e-05
6.80307e-05
6.41999e-05
5.62035e-05
6.4632e-05
9.93567e-05
4.72428e-05
7.71635e-05
6.39787e-05
7.12621e-05
0.000103833
0.000100247
3.07873e-05
0.000100625
5.66044e-05
6.05622e-05
0.000103245
8.39282e-05
6.1314e-05
0.000114924
6.61843e-05
3.07885e-05
6.19222e-05
8.93831e-05
0.000111354
8.48543e-05
9.88034e-05
9.3011e-05
4.83627e-05
4.81288e-05
4.25249e-05
4.89151e-05
6.60101e-05
5.13828e-05
8.23676e-05
5.22889e-05
8.79174e-05
6.31398e-05
6.20201e-05
7.10923e-05
6.71777e-05
8.80266e-05
6.44141e-05
6.65839e-05
2.81084e-05
6.51679e-05
9.44329e-05
9.45088e-05
8.63065e-05
6.42656e-05
4.05804e-05
0.000119499
8.11573e-05
6.81663e-05
6.29467e-05
6.10527e-05
6.49488e-05
7.71549e-05
6.37245e-05
4.66968e-05
6.28394e-05
4.38359e-05
7.63732e-05
6.42206e-05
2.62004e-05
6.04302e-05
7.0131e-05
6.42617e-05
9.69492e-05
6.66404e-05
8.5012e-05
3.37805e-05
6.83102e-05
6.59515e-05
5.6087e-05
6.19319e-05
7.24896e-05
6.74502e-05
7.07786e-05
6.1096e-05
6.19994e-05
6.68061e-05
8.78182e-05
6.31416e-05
8.83541e-05
7.99538e-05
6.20719e-05
6.54991e-05
6.59992e-05
7.26485e-05
6.58525e-05
6.18501e-05
7.006e-05
7.21661e-05
8.59136e-05
6.59702e-05
6.58196e-05
9.38036e-05
9.24815e-05
6.32025e-05
6.20884e-05
2.95473e-05
7.62646e-05
5.43149e-05
7.17783e-05
3.40932e-05
3.53884e-05
3.1616e-05
3.21376e-05
3.40895e-05
3.5927e-05
3.70163e-05
7.9547e-05
5.82724e-05
5.98656e-05
6.88289e-05
6.72485e-05
6.64242e-05
6.95082e-05
6.50275e-05
6.65261e-05
6.57954e-05
6.61792e-05
7.9734e-05
6.07156e-05
8.19921e-05
6.457e-05
6.25423e-05
6.62748e-05
6.91237e-05
7.33462e-05
6.85857e-05
7.82538e-05
7.33793e-05
6.832e-05
4.96468e-05
6.84706e-05
6.67118e-05
7.09445e-05
6.92251e-05
6.57027e-05
6.23918e-05
6.85713e-05
7.12557e-05
9.6317e-05
6.42788e-05
9.36508e-05
9.8078e-05
6.73738e-05
9.36074e-05
7.20737e-05
5.81057e-05
7.79717e-05
6.90852e-05
4.86486e-05
4.50404e-05
7.68331e-05
8.17268e-05
6.9983e-05
5.83187e-05
6.95022e-05
3.47338e-05
6.91955e-05
6.50961e-05
3.43055e-05
1.23257e-05
1.34812e-05
5.99051e-05
6.43235e-05
7.438e-05
7.17737e-05
6.28551e-06
6.56771e-06
7.04328e-05
7.11618e-05
6.738e-05
2.60742e-05
6.02385e-05
6.89022e-05
7.11449e-05
6.13977e-05
5.41727e-05
2.71772e-05
0.000101574
6.47442e-05
7.85491e-05
7.97764e-05
5.75933e-05
7.28184e-05
5.63115e-05
6.211e-05
3.19175e-05
4.76167e-05
7.29085e-05
7.30892e-05
6.30068e-05
6.62962e-05
6.83126e-05
7.19836e-05
6.88715e-05
3.49948e-05
5.94871e-05
6.838e-05
6.37952e-05
9.56028e-05
3.49994e-05
5.21614e-05
5.37524e-05
5.00601e-05
3.2139e-05
3.2142e-05
5.74784e-05
4.7457e-05
6.73595e-05
3.74829e-05
3.84212e-05
1.24397e-05
1.24399e-05
2.83393e-05
4.1941e-05
2.81954e-05
5.74213e-05
6.12126e-05
6.61159e-05
7.42991e-05
6.71565e-05
6.20932e-05
4.92057e-05
3.19727e-05
6.19138e-05
6.37983e-05
6.16176e-05
3.5737e-05
3.09786e-05
2.55916e-05
6.15431e-05
6.30158e-05
5.14222e-05
5.73731e-05
5.28864e-05
4.77252e-05
6.47747e-05
4.77229e-05
5.73524e-05
5.48317e-05
3.30921e-05
4.08412e-05
4.02543e-05
6.83698e-05
2.85382e-05
3.00343e-05
2.94453e-05
6.44105e-05
2.71129e-05
2.66724e-05
4.53673e-05
2.48366e-05
5.15303e-05
5.161e-05
2.5474e-05
5.73798e-05
2.79639e-05
2.81217e-05
3.13486e-05
2.68357e-05
2.60655e-05
3.65706e-05
3.08933e-05
2.83782e-05
2.69045e-05
5.22699e-05
5.91828e-05
2.93371e-05
5.76873e-05
2.44479e-05
5.84226e-05
4.67196e-05
2.5514e-05
2.13982e-05
2.41209e-05
3.19102e-05
5.04262e-05
4.06421e-05
1.6743e-05
1.85976e-05
5.58844e-05
1.57629e-05
1.57631e-05
1.78663e-05
2.0138e-05
2.43082e-05
2.66819e-05
4.45142e-05
4.09816e-05
5.59593e-05
1.58901e-05
1.58903e-05
4.83524e-05
2.1314e-05
4.01585e-05
1.92996e-05
1.92021e-05
2.52929e-05
4.11954e-05
4.26632e-05
4.54666e-05
4.16638e-05
4.11957e-05
8.93615e-06
6.65207e-05
1.14283e-05
1.10325e-05
5.37125e-05
5.33363e-05
1.14302e-05
7.94785e-06
1.12272e-05
4.95905e-05
SCALARS rr_T' float
LOOKUP_TABLE default
0.000206987
0.000471572
0.000376613
0.000492247
0.000257377
0.00039972
0.000204663
0.000489517
0.000420917
0.000529947
0.000187852
0.000491016
0.000432107
0.000456358
0.00053465
0.000448827
0.000386005
0.000436394
0.000390913
0.000382173
0.000429903
7.63232e-05
0.000440478
0.000405964
0.000367991
0.000424504
0.000174025
0.000372882
0.000292668
0.000344455
0.000381741
0.000302545
0.000192779
0.000258102
0.000253671
0.000258683
0.000334878
0.000254189
0.000381353
0.000216686
0.000245997
0.000295135
0.000295167
0.000418958
0.000241878
0.000266847
0.000367872
0.000372524
0.000349089
0.000334188
0.000343153
0.000266096
0.000413095
0.000341922
0.000380319
0.000175459
0.000270849
0.000344429
0.00027084
0.000416624
0.00049275
0.000482919
0.00017115
0.000340495
0.000462548
0.000436542
0.000476637
0.000412306
0.000379685
0.000541218
0.00044819
0.000443307
0.000303945
0.000353355
0.000374298
0.000198997
0.000385362
0.000432492
0.000415776
0.000293645
0.000265007
0.000290499
0.00054999
0.000265377
0.000357808
0.000132904
0.000430735
0.000359952
0.00025615
3.75589e-05
0.000296281
4.08493e-05
0.000326991
0.000313369
0.0002804
0.000255755
0.000243391
0.000465264
0.000385648
0.00037126
0.000315435
0.000302621
0.000254631
0.000440672
0.000447966
0.0004034
0.000354762
0.000359895
0.000270298
0.000537533
0.000345432
0.000182446
0.00024383
0.000482286
0.000451806
0.000330196
0.000314078
0.00020225
0.000325766
0.00032889
0.000286065
0.000521176
0.000537443
0.000461643
0.000507885
0.000398462
0.000225399
0.000502341
0.000220439
0.000284335
0.000234118
0.000479497
0.000468342
0.000470801
0.000314747
0.000190832
0.000211005
0.000345044
0.000421682
0.000190768
0.000262875
0.000406648
0.000308139
0.000496507
0.000246165
0.000405149
0.000367696
0.000355497
0.000227223
0.000290403
0.000323803
0.000462701
0.000271458
0.000418949
0.000485221
0.000492957
0.000322554
0.000270768
0.000269231
0.000422968
0.000355106
0.000269202
0.000178144
0.000262926
0.000261512
0.000452891
0.000274416
0.000277443
0.000300544
0.000267416
0.000399253
0.000280069
0.000247983
0.000311681
0.000295879
0.000354529
0.000394912
0.00038014
0.000322899
0.000379208
0.000291703
0.000439381
0.000471575
0.000262918
0.000461907
0.000262806
0.000456177
0.00041936
0.0003915
0.000398532
0.000465958
0.000221009
0.000289516
0.000269218
0.000469959
0.000462698
0.000428979
0.00046719
0.000475695
0.000399515
0.000489905
0.000328725
0.00029668
0.000534866
0.000312434
0.000485801
0.000386989
0.000247057
0.000297154
0.000484767
0.000403409
0.000367322
0.00047321
0.00046418
0.000300353
0.000297819
0.000289323
0.00041179
0.000454385
0.000522203
0.000501703
0.000545852
0.000494622
0.00054053
0.000453517
0.00047387
0.000477562
0.000450193
0.000472948
0.00043536
0.000428879
0.00030436
0.000408663
0.000478154
0.000332152
0.000487143
0.000447513
0.000518413
0.000311915
0.000493012
0.000471289
0.000306309
0.000422241
0.00030424
0.000474474
0.000433162
0.000318913
0.000300171
0.00025962
0.000298646
0.000475125
0.000218017
0.000366213
0.000299057
0.000335531
0.000493476
0.000477663
0.000149793
0.0004794
0.00026113
0.000283089
0.000490784
0.000398956
0.000286425
0.000547571
0.000311498
0.000149793
0.00028948
0.000425985
0.000531746
0.000403149
0.000474271
0.000444179
0.000233152
0.000228531
0.000195475
0.000224422
0.000317768
0.000243048
0.000391538
0.000245045
0.00042165
0.000301131
0.000289918
0.000339101
0.000315319
0.000418834
0.000302364
0.000311155
0.000137312
0.000313466
0.000453412
0.000453735
0.000410967
0.000301781
0.000196497
0.00057053
0.000383346
0.000320155
0.000295153
0.000293897
0.000304423
0.000370901
0.000298969
0.000214144
0.000295049
0.000202396
0.000365506
0.000301017
0.000127983
0.000283517
0.00033522
0.000301027
0.00046319
0.000312606
0.000403118
0.000154644
0.000323572
0.000309089
0.000269925
0.000290167
0.000342406
0.000322274
0.000337013
0.000286614
0.000291123
0.00031438
0.000420249
0.00029646
0.000419998
0.00037914
0.00029922
0.000307558
0.000310506
0.000343431
0.000309994
0.00029026
0.000329839
0.000345888
0.000408342
0.000310441
0.000308435
0.000446509
0.000440255
0.000296684
0.000299285
0.00013369
0.000361577
0.000250914
0.000339391
0.000150142
0.000155855
0.000139282
0.000141562
0.000150182
0.000158208
0.000163039
0.000380759
0.000281767
0.000284294
0.000325034
0.000316627
0.000312677
0.000330733
0.000305993
0.000312964
0.000318179
0.000311517
0.00038249
0.000283239
0.000393165
0.000305927
0.000295327
0.00031191
0.000332795
0.000347749
0.000323984
0.000371034
0.000346644
0.000321452
0.000231813
0.000323308
0.000316143
0.000340384
0.000326095
0.000308988
0.00029385
0.000323684
0.000337625
0.000458323
0.000302718
0.000445601
0.000464494
0.000318077
0.000445016
0.000341388
0.000273474
0.00037251
0.000326507
0.000235136
0.000206558
0.000367773
0.000391707
0.000331611
0.000275671
0.000331638
0.00015726
0.000327862
0.00030763
0.000157093
6.01927e-05
6.58455e-05
0.000284001
0.000302843
0.000351729
0.000338116
3.09465e-05
3.2336e-05
0.000334845
0.000338338
0.000320272
0.000118042
0.000283374
0.000329424
0.0003359
0.000289749
0.000255744
0.000122926
0.000485139
0.000304741
0.000372348
0.000378169
0.000271773
0.000343956
0.000265721
0.000293212
0.000145706
0.000219877
0.000344365
0.000346493
0.000297798
0.000312776
0.000322765
0.000340325
0.000325514
0.000160493
0.000285616
0.00032202
0.000304367
0.000456749
0.000160462
0.000247211
0.000254635
0.000241317
0.000156887
0.000156897
0.000276458
0.000223227
0.000319256
0.000171758
0.000187355
6.11732e-05
6.11729e-05
0.00012811
0.000203405
0.000137038
0.000272018
0.0002942
0.00031397
0.000353769
0.000320886
0.000297087
0.0002339
0.000144738
0.000293681
0.000304255
0.000294569
0.000162649
0.000150314
0.000117089
0.000294154
0.000300104
0.00024116
0.000272381
0.000251346
0.000230142
0.000308063
0.000230122
0.000271898
0.00026215
0.000160696
0.000198397
0.00018449
0.000325754
0.000128835
0.000135724
0.000132776
0.00030764
0.000122672
0.000120144
0.000214048
0.000112056
0.000249085
0.000249462
0.000115026
0.000271266
0.000127681
0.000126923
0.000142991
0.000121095
0.000118892
0.000177411
0.000141318
0.000128422
0.00012147
0.000248368
0.000283478
0.000133706
0.000274136
0.000110159
0.000278094
0.000220944
0.000115089
9.74478e-05
0.00010872
0.000144252
0.000238823
0.000196612
8.22516e-05
9.12994e-05
0.000266242
7.74253e-05
7.74246e-05
8.77316e-05
9.84754e-05
0.000111304
0.00012953
0.000214187
0.000198258
0.000266427
7.77892e-05
7.77887e-05
0.00023415
9.62979e-05
0.000189825
8.72601e-05
8.77838e-05
0.000115663
0.000200757
0.000207881
0.000221465
0.000202965
0.000200752
4.38585e-05
0.000324059
5.59457e-05
5.42049e-05
0.000261784
0.000259968
5.61718e-05
3.90151e-05
5.49734e-05
0.000241475
SCALARS rr_uec(SIM,_S_ext) float
LOOKUP_TABLE default
0.0139534
0.0317864
0.0253858
0.0331802
0.0173478
0.0269434
0.0137967
0.0329959
0.0283724
0.0357212
0.0126638
0.033097
0.0291263
0.0307608
0.0360374
0.0302534
0.0260186
0.0294154
0.0263502
0.0257607
0.0289779
0.00514412
0.0296909
0.0273644
0.0248048
0.0286139
0.0117313
0.0251343
0.0197284
0.0232167
0.0257313
0.0203942
0.0129955
0.0173965
0.0170978
0.0174358
0.0225713
0.0171327
0.0257052
0.014607
0.0165824
0.0198925
0.0198946
0.02824
0.0163053
0.0179878
0.024797
0.0251104
0.0235306
0.0225275
0.0231317
0.017937
0.0278437
0.0230482
0.0256345
0.0118277
0.0182556
0.0232172
0.018255
0.028083
0.0332138
0.0325505
0.0115373
0.0229506
0.0311775
0.0294248
0.0321277
0.0277916
0.0255931
0.036481
0.0302093
0.0298801
0.0204886
0.0238176
0.0252298
0.0134148
0.0259746
0.0291519
0.0280256
0.019794
0.0178639
0.0195802
0.0370717
0.017889
0.0241192
0.00895913
0.029034
0.0242622
0.0172674
0.00253145
0.0199717
0.00275322
0.0220402
0.0211225
0.0189011
0.0172403
0.0164067
0.0313612
0.0259939
0.0250249
0.0212625
0.0203991
0.0171646
0.0297038
0.0301953
0.0271913
0.0239124
0.0242588
0.0182207
0.0362327
0.0232842
0.0122988
0.0164366
0.0325087
0.0304541
0.0222577
0.0211692
0.0136335
0.021957
0.0221697
0.0192828
0.0351292
0.0362266
0.0311168
0.0342342
0.0268577
0.0151923
0.0338604
0.0148596
0.0191664
0.0157802
0.0323208
0.0315684
0.0317346
0.0212164
0.0128624
0.0142237
0.0232577
0.0284232
0.012858
0.0177199
0.02741
0.0207706
0.0334671
0.0165938
0.0273092
0.0247845
0.0239624
0.0153161
0.0195753
0.0218263
0.0311886
0.0182988
0.0282393
0.0327064
0.033228
0.0217417
0.0182518
0.0181483
0.0285104
0.0239363
0.0181466
0.0120088
0.0177237
0.017628
0.0305272
0.0184978
0.0187018
0.0202594
0.0180259
0.0269109
0.0188788
0.0167164
0.0210088
0.0199446
0.0238968
0.0266183
0.0256234
0.0217642
0.0255605
0.0196633
0.0296166
0.0317866
0.0177228
0.0311345
0.0177156
0.0307484
0.0282665
0.0263882
0.0268631
0.0314075
0.014898
0.0195156
0.0181477
0.0316778
0.0311884
0.0289156
0.0314908
0.0320644
0.0269291
0.0330223
0.0221582
0.0199985
0.0360524
0.0210608
0.0327451
0.0260848
0.0166537
0.0200293
0.0326759
0.0271911
0.0247592
0.0318968
0.0312878
0.020246
0.0200743
0.0195026
0.0277563
0.030628
0.0351993
0.0338176
0.0367935
0.0333402
0.0364347
0.0305693
0.0319406
0.0321895
0.0303447
0.0318785
0.0293444
0.0289076
0.0205161
0.0275459
0.0322304
0.022389
0.0328352
0.030164
0.0349441
0.0210255
0.033232
0.0317673
0.0206474
0.0284606
0.020508
0.0319816
0.0291978
0.0214971
0.0202339
0.0175008
0.0201317
0.0320255
0.0146964
0.0246847
0.0201587
0.0226171
0.0332633
0.0321971
0.0100962
0.0323142
0.0176025
0.0190824
0.0330818
0.0268917
0.0193073
0.0369093
0.020997
0.0100962
0.0195132
0.0287137
0.035842
0.0271745
0.0319676
0.0299395
0.015715
0.0154042
0.013177
0.0151284
0.0214185
0.0163829
0.0263917
0.0165178
0.0284207
0.0202976
0.0195427
0.0228569
0.0212547
0.0282315
0.0203814
0.0209743
0.00925487
0.0211286
0.0305617
0.0305835
0.0277013
0.0203421
0.0132443
0.0384563
0.0258398
0.0215806
0.0198954
0.0198095
0.0205203
0.0249999
0.0201526
0.0144357
0.0198883
0.0136433
0.0246366
0.0202907
0.00862608
0.019111
0.0225953
0.0202915
0.031221
0.0210718
0.0271724
0.0104246
0.0218106
0.0208348
0.0181938
0.0195594
0.0230802
0.0217226
0.0227165
0.0193198
0.0196237
0.0211913
0.0283264
0.0199834
0.02831
0.0255561
0.0201682
0.0207315
0.0209302
0.0231493
0.0208956
0.0195655
0.0222333
0.0233141
0.0275244
0.0209258
0.0207908
0.0300968
0.0296753
0.0199986
0.0201726
0.00901259
0.0243722
0.0169139
0.0228769
0.0101227
0.0105079
0.00939051
0.00954427
0.0101254
0.0106665
0.0109922
0.0256647
0.0189917
0.019163
0.0219093
0.0213428
0.0210764
0.022293
0.020626
0.0210958
0.0214459
0.0209983
0.0257812
0.0190925
0.0265009
0.0206212
0.0199068
0.0210248
0.0224313
0.0234401
0.0218385
0.0250097
0.0233659
0.021668
0.015626
0.0217929
0.0213097
0.0229431
0.0219809
0.0208279
0.0198074
0.0218183
0.0227578
0.0308932
0.0204052
0.0300357
0.0313095
0.0214403
0.0299963
0.0230115
0.018434
0.0251088
0.0220085
0.0158487
0.0139243
0.0247894
0.0264025
0.0223524
0.0185818
0.0223539
0.0106015
0.0220998
0.020736
0.0105896
0.004057
0.00443799
0.0191432
0.0204136
0.0237085
0.0227912
0.00208574
0.00217939
0.0225703
0.0228057
0.021588
0.00795762
0.0191013
0.0222046
0.0226417
0.0195308
0.0172387
0.00828697
0.0327005
0.0205416
0.0250982
0.0254906
0.0183192
0.0231847
0.0179112
0.0197642
0.0098222
0.0148217
0.0232123
0.0233555
0.0200734
0.0210831
0.0217562
0.0229399
0.0219416
0.010819
0.0192515
0.0217063
0.0205157
0.0307868
0.0108169
0.0166634
0.0171639
0.0162654
0.0105743
0.010575
0.0186341
0.015047
0.0215196
0.0115784
0.0126279
0.00412301
0.00412299
0.00863642
0.0137098
0.00923652
0.0183355
0.01983
0.0211633
0.0238459
0.0216291
0.0200248
0.0157661
0.00975736
0.0197957
0.0205082
0.0198552
0.0109645
0.0101314
0.00789294
0.0198273
0.0202285
0.0162559
0.01836
0.016942
0.0155122
0.020765
0.0155109
0.0183275
0.01767
0.0108311
0.0133722
0.0124366
0.0219574
0.00868506
0.00914936
0.00895076
0.0207362
0.00826973
0.00809928
0.0144281
0.00755395
0.0167888
0.0168143
0.00775416
0.018285
0.00860708
0.00855613
0.00963922
0.00816323
0.00801466
0.0119578
0.00952645
0.00865741
0.00818858
0.0167413
0.0191075
0.00901333
0.0184782
0.00742616
0.0187449
0.014893
0.0077584
0.00656913
0.00732909
0.00972463
0.0160981
0.013252
0.00554371
0.00615354
0.017946
0.00521842
0.00521837
0.00591306
0.00663727
0.00750317
0.00873051
0.0144368
0.0133629
0.0179585
0.00524299
0.00524295
0.0157821
0.00649186
0.0127953
0.00588251
0.0059175
0.0077969
0.0135313
0.0140114
0.014927
0.0136801
0.0135309
0.00295603
0.0218418
0.00377073
0.00365336
0.0176445
0.017522
0.00378592
0.0026296
0.0037052
0.0162757
SCALARS rr_uec(PEX,_P_ext) float
LOOKUP_TABLE default
-0.0614934
-0.140145
-0.111921
-0.146288
-0.0764948
-0.118788
-0.0608028
-0.145476
-0.125083
-0.157493
-0.0558102
-0.145922
-0.128414
-0.135624
-0.158899
-0.133382
-0.114717
-0.129689
-0.116166
-0.113572
-0.127756
-0.0226865
-0.130899
-0.120642
-0.109358
-0.126156
-0.0517045
-0.110813
-0.0869629
-0.10238
-0.113446
-0.0898978
-0.0572761
-0.0767124
-0.0753961
-0.0768853
-0.0995341
-0.0755497
-0.113331
-0.0643789
-0.0730952
-0.0877217
-0.0877309
-0.124506
-0.0718663
-0.0792908
-0.10932
-0.110703
-0.103741
-0.0992983
-0.101963
-0.0790699
-0.122775
-0.101602
-0.113034
-0.0521322
-0.0805018
-0.102346
-0.0804991
-0.123811
-0.146441
-0.143522
-0.0508511
-0.101194
-0.137468
-0.129736
-0.141652
-0.122531
-0.112833
-0.160843
-0.133206
-0.131754
-0.0903137
-0.105015
-0.111233
-0.0591227
-0.114531
-0.128532
-0.123562
-0.0872569
-0.0787415
-0.0863399
-0.163454
-0.0788507
-0.106319
-0.0394881
-0.128005
-0.106975
-0.0761067
-0.0111639
-0.0880394
-0.0121419
-0.0971828
-0.0931299
-0.0833206
-0.0759938
-0.0723187
-0.13827
-0.114616
-0.110331
-0.0937343
-0.0899218
-0.075658
-0.13096
-0.133129
-0.119884
-0.105434
-0.106953
-0.0803129
-0.159748
-0.102654
-0.0542084
-0.0724477
-0.143327
-0.13427
-0.0981171
-0.0933503
-0.0600944
-0.0968242
-0.0977294
-0.0850079
-0.154894
-0.159721
-0.137197
-0.150938
-0.118424
-0.0669925
-0.149289
-0.065499
-0.08449
-0.069582
-0.1425
-0.139188
-0.139916
-0.0935248
-0.0567193
-0.0626947
-0.102541
-0.125321
-0.0567001
-0.0781117
-0.12085
-0.0915677
-0.147555
-0.0731428
-0.120404
-0.109274
-0.105646
-0.0675256
-0.086295
-0.0962249
-0.137509
-0.0806608
-0.124504
-0.144201
-0.1465
-0.0958594
-0.0804572
-0.0800007
-0.125698
-0.105527
-0.0799905
-0.0529302
-0.0781249
-0.0777071
-0.134592
-0.0815413
-0.0824407
-0.0893034
-0.0794613
-0.118659
-0.083222
-0.0736847
-0.0926282
-0.0879201
-0.105364
-0.117369
-0.112971
-0.0959685
-0.112695
-0.0866762
-0.130578
-0.140145
-0.0781248
-0.137275
-0.078089
-0.135572
-0.124632
-0.116355
-0.118438
-0.138479
-0.0656686
-0.0860292
-0.0799952
-0.139665
-0.137506
-0.127485
-0.138846
-0.14137
-0.118732
-0.145593
-0.0976859
-0.0881587
-0.158959
-0.0928363
-0.144377
-0.115009
-0.0734113
-0.0883139
-0.144066
-0.119893
-0.109163
-0.140631
-0.137952
-0.0892521
-0.0885081
-0.0859729
-0.122382
-0.135038
-0.155193
-0.1491
-0.162221
-0.146996
-0.160639
-0.134779
-0.140834
-0.141932
-0.133798
-0.140561
-0.129393
-0.127466
-0.0904425
-0.121449
-0.1421
-0.0987057
-0.14478
-0.133002
-0.154064
-0.092686
-0.146515
-0.14006
-0.0910218
-0.12549
-0.0904071
-0.141011
-0.128729
-0.0947675
-0.0891968
-0.077141
-0.0887373
-0.141204
-0.064779
-0.108831
-0.0888654
-0.0997084
-0.146653
-0.141956
-0.0445223
-0.142472
-0.0775888
-0.0841204
-0.145853
-0.118563
-0.0851114
-0.162732
-0.0925662
-0.0445223
-0.0860196
-0.126598
-0.15803
-0.119809
-0.140954
-0.132006
-0.0692946
-0.0679152
-0.0580797
-0.0666797
-0.0944426
-0.0722276
-0.116359
-0.0728167
-0.125314
-0.0894929
-0.0861498
-0.100777
-0.0937001
-0.124471
-0.0898502
-0.0924603
-0.0408136
-0.0931635
-0.134755
-0.134851
-0.122134
-0.0896773
-0.0584021
-0.169557
-0.113919
-0.0951375
-0.0877069
-0.0873479
-0.0904614
-0.110233
-0.0888412
-0.0636259
-0.0876767
-0.0601377
-0.108627
-0.0894493
-0.0380406
-0.0842493
-0.0996251
-0.0894521
-0.137657
-0.0928934
-0.119798
-0.0459467
-0.096158
-0.091848
-0.0802232
-0.086225
-0.101753
-0.0957772
-0.100156
-0.0851698
-0.0865102
-0.0934226
-0.124896
-0.0880961
-0.124816
-0.112672
-0.0889307
-0.0913939
-0.0922713
-0.102058
-0.0921193
-0.0862534
-0.0980166
-0.102797
-0.121352
-0.092252
-0.0916536
-0.132696
-0.130837
-0.0881626
-0.0889498
-0.0397185
-0.107453
-0.074554
-0.100858
-0.0445991
-0.0462962
-0.0413732
-0.0420506
-0.044611
-0.0469949
-0.0484301
-0.11316
-0.0837452
-0.0844868
-0.0965907
-0.0940906
-0.0929164
-0.0982888
-0.0909302
-0.0930015
-0.0945674
-0.0925719
-0.113676
-0.0841639
-0.116848
-0.0909144
-0.0877624
-0.0926886
-0.0989086
-0.103343
-0.0962787
-0.110263
-0.103013
-0.0955239
-0.0688833
-0.0960776
-0.0939504
-0.101162
-0.0969045
-0.0918199
-0.0873223
-0.0961892
-0.100334
-0.136207
-0.0899574
-0.132426
-0.138036
-0.094523
-0.132251
-0.101452
-0.0812668
-0.110707
-0.0970288
-0.0698855
-0.061372
-0.1093
-0.116414
-0.0985471
-0.0819219
-0.0985595
-0.0467211
-0.0974332
-0.0914189
-0.0466743
-0.0178912
-0.0195714
-0.0843988
-0.0899944
-0.104524
-0.100477
-0.00919871
-0.00961172
-0.0995104
-0.100548
-0.0951794
-0.0350696
-0.0842085
-0.0979028
-0.0998194
-0.0861044
-0.0759994
-0.0365206
-0.144179
-0.0905584
-0.110653
-0.112383
-0.0807627
-0.102214
-0.0789642
-0.0871337
-0.0432904
-0.0653319
-0.102335
-0.10297
-0.0884974
-0.0929474
-0.0959165
-0.101135
-0.0967337
-0.0476854
-0.0848855
-0.0956935
-0.0904547
-0.135742
-0.047676
-0.0734656
-0.0756715
-0.0717213
-0.0466317
-0.0466349
-0.0821645
-0.066335
-0.0948758
-0.0510321
-0.0556874
-0.0181834
-0.0181833
-0.0380604
-0.0604557
-0.0407308
-0.0808373
-0.0874372
-0.0933062
-0.105135
-0.0953649
-0.0882927
-0.0695112
-0.043001
-0.0872758
-0.0904212
-0.0875441
-0.0483234
-0.0446763
-0.0347883
-0.0874205
-0.0891869
-0.0716625
-0.0809465
-0.0746956
-0.0684005
-0.0915512
-0.0683945
-0.0808022
-0.0779091
-0.0477623
-0.058968
-0.0548149
-0.09681
-0.0382751
-0.0403218
-0.0394455
-0.0914279
-0.0364449
-0.0356927
-0.0636084
-0.0332901
-0.0740314
-0.0741434
-0.0341727
-0.0806128
-0.037935
-0.0377069
-0.0424836
-0.0359753
-0.0353235
-0.0527301
-0.0419874
-0.0381535
-0.0360871
-0.0738105
-0.0842489
-0.0397248
-0.0814684
-0.0327264
-0.0826455
-0.0656587
-0.0341911
-0.0289521
-0.0322989
-0.0428561
-0.0709727
-0.0584358
-0.0244487
-0.027138
-0.0791236
-0.0230141
-0.0230139
-0.0260775
-0.0292703
-0.0330702
-0.038499
-0.0636574
-0.0589251
-0.0791783
-0.0231218
-0.0231216
-0.0695931
-0.0286093
-0.0564107
-0.0259242
-0.0260814
-0.0343647
-0.0596709
-0.0617883
-0.0658255
-0.060327
-0.0596694
-0.0130365
-0.0963193
-0.0166291
-0.016112
-0.0778097
-0.0772698
-0.0166967
-0.0115969
-0.0163401
-0.0717728
SCALARS cell_type float
LOOKUP_TABLE default
0
0
0
0
0
0
0
0
0
0
0
0
0
0
0
0
0
0
0
0
0
1
0
0
0
0
0
0
0
0
0
0
0
0
0
0
0
0
0
0
0
0
0
0
0
0
0
0
0
0
0
0
0
0
0
0
0
0
0
0
0
0
0
0
0
0
0
0
0
0
0
0
0
0
0
0
0
0
0
0
0
0
0
0
0
0
0
0
0
0
0
0
0
0
0
0
0
0
0
0
0
0
0
0
0
0
0
0
0
0
0
0
0
0
0
0
0
0
0
0
0
0
0
0
0
0
0
0
0
0
0
0
0
0
0
0
0
0
0
0
0
0
0
0
0
0
0
0
0
0
0
0
0
0
0
0
0
0
0
0
0
0
0
0
0
0
0
0
0
0
0
0
0
0
0
0
0
0
0
0
0
0
0
0
0
0
0
0
0
0
0
0
0
0
0
0
0
0
0
0
0
0
0
0
0
0
0
0
0
0
0
0
0
0
0
0
0
0
0
0
0
0
0
0
0
0
0
0
0
0
0
0
0
0
0
0
0
0
0
0
0
0
0
0
0
0
0
0
0
0
0
0
0
0
0
0
0
0
0
0
0
0
0
0
0
0
0
0
0
0
0
0
0
0
0
0
0
0
0
0
0
0
0
0
0
0
0
0
0
0
0
0
0
0
0
0
0
0
0
0
0
0
0
0
0
0
0
0
0
0
0
0
0
0
0
0
0
0
0
0
0
0
0
0
0
0
0
0
0
0
0
0
0
0
0
0
0
0
0
0
0
0
0
0
0
0
0
0
0
0
2
2
2
2
2
2
2
0
0
0
0
0
0
0
0
0
0
0
0
0
0
0
0
0
0
0
0
0
0
0
0
0
0
0
0
0
0
0
0
0
0
0
0
0
0
0
0
0
0
0
0
0
0
0
0
0
0
0
0
0
0
0
0
0
0
0
1
1
0
0
0
0
0
0
0
0
0
0
0
0
0
0
0
0
0
0
0
0
0
0
0
0
0
0
0
0
0
0
0
0
0
0
0
0
0
0
0
0
0
0
0
1
1
0
0
0
0
0
0
0
0
0
0
0
0
0
0
0
0
0
0
0
0
0
0
0
0
0
0
0
0
0
0
0
0
0
0
0
0
0
0
0
0
0
0
0
0
0
0
0
0
0
0
0
0
0
0
0
0
0
0
0
0
0
0
0
0
0
1
1
0
0
0
0
0
0
0
0
0
0
0
0
0
0
0
0
0
0
0
0
0
0
0
0
0
0
0
0
0
0
0
0
0
TENSORS Lagrange_strain float
0.0305683 -0.00319831 -9.08611e-09
-0.00319831 0.0133891 1.45733e-07
-9.08611e-09 1.45733e-07 0.00740186

0.029193 -0.00280063 7.94808e-08
-0.00280063 0.0335543 2.989e-08
7.94808e-08 2.989e-08 0.0331636

0.0300214 0.00367901 -2.36639e-08
0.00367901 0.0311696 7.43188e-08
-2.36639e-08 7.43188e-08 0.030468

0.029162 -0.00392494 -2.31364e-07
-0.00392494 0.0327993 -7.49752e-08
-2.31364e-07 -7.49752e-08 0.0330885

0.0353672 0.00266928 -2.47189e-07
0.00266928 0.0380855 1.34954e-07
-2.47189e-07 1.34954e-07 0.0352924

0.0277355 -0.00236717 4.22543e-08
-0.00236717 0.0333842 -1.67263e-07
4.22543e-08 -1.67263e-07 0.0304391

0.0302623 0.003394 -8.17295e-09
0.003394 0.0134947 1.06374e-07
-8.17295e-09 1.06374e-07 0.00746325

0.0317548 0.00393967 1.01424e-07
0.00393967 0.0312001 1.02069e-07
1.01424e-07 1.02069e-07 0.0315608

0.0332421 0.00071557 -3.6816e-08
0.00071557 0.0262216 2.52369e-10
-3.6816e-08 2.52369e-10 0.0281422

0.0354674 -0.000991259 4.90012e-08
-0.000991259 0.0275514 1.54287e-07
4.90012e-08 1.54287e-07 0.0327212

0.0280614 0.00205117 1.08652e-07
0.00205117 0.0138091 2.4375e-07
1.08652e-07 2.4375e-07 0.0117536

0.0279534 -0.00176582 7.87432e-08
-0.00176582 0.0350063 -5.18189e-08
7.87432e-08 -5.18189e-08 0.0315494

0.0311215 0.00365724 4.66794e-08
0.00365724 0.0313002 1.72797e-07
4.66794e-08 1.72797e-07 0.0310797

0.0290694 -0.00187991 1.80441e-07
-0.00187991 0.0347998 1.06424e-07
1.80441e-07 1.06424e-07 0.0325466

0.034632 0.00441814 -1.30262e-07
0.00441814 0.0343628 -5.28969e-08
-1.30262e-07 -5.28969e-08 0.0348849

0.034328 7.31158e-05 1.8962e-07
7.31158e-05 0.0272861 -2.85288e-08
1.8962e-07 -2.85288e-08 0.0307785

0.0286931 -0.00235384 1.85875e-07
-0.00235384 0.0360136 1.24748e-07
1.85875e-07 1.24748e-07 0.0334503

0.0345733 -0.000353202 1.77518e-07
-0.000353202 0.0273565 -6.94822e-09
1.77518e-07 -6.94822e-09 0.0319772

0.0269202 0.0034782 -1.81754e-07
0.0034782 0.0309452 8.60988e-08
-1.81754e-07 8.60988e-08 0.0275768

0.0338851 -0.00055026 9.90425e-08
-0.00055026 0.0264095 -1.59195e-07
9.90425e-08 -1.59195e-07 0.0301344

0.0266222 0.00113521 1.32094e-07
0.00113521 0.0340335 1.78796e-07
1.32094e-07 1.78796e-07 0.0291501

0.0452949 0.000853061 1.44273e-07
0.000853061 0.0452654 1.16869e-07
1.44273e-07 1.16869e-07 0.0366383

0.0336753 0.000247643 1.34777e-08
0.000247643 0.0263155 -5.06037e-09
1.34777e-08 -5.06037e-09 0.0298052

0.0293099 -0.00363197 -2.56881e-08
-0.00363197 0.031136 4.50873e-08
-2.56881e-08 4.50873e-08 0.0300469

0.0337802 0.000900078 1.63871e-07
0.000900078 0.0264965 3.36247e-08
1.63871e-07 3.36247e-08 0.0300814

0.0285464 0.00250737 -1.64352e-07
0.00250737 0.0338941 1.27831e-08
-1.64352e-07 1.27831e-08 0.0322871

0.0286298 0.000526703 2.18021e-07
0.000526703 0.0176899 1.72455e-08
2.18021e-07 1.72455e-08 0.0131714

0.0309144 0.00403455 1.12644e-07
0.00403455 0.0306467 2.57033e-08
1.12644e-07 2.57033e-08 0.0306109

0.025925 0.00477641 1.71648e-07
0.00477641 0.0257332 -2.61333e-07
1.71648e-07 -2.61333e-07 0.0211282

0.0415291 0.00136989 1.64306e-07
0.00136989 0.0383504 3.24048e-08
1.64306e-07 3.24048e-08 0.0361354

0.034411 0.00187101 1.63888e-07
0.00187101 0.0279525 3.34314e-08
1.63888e-07 3.34314e-08 0.0310001

0.0217598 -0.00228784 -1.93953e-07
-0.00228784 0.0299925 -3.65348e-09
-1.93953e-07 -3.65348e-09 0.021125

0.0228636 -0.00535242 2.20765e-07
-0.00535242 0.0234732 -2.77941e-07
2.20765e-07 -2.77941e-07 0.012579

0.0348328 0.000800617 8.35558e-08
0.000800617 0.0422554 1.15418e-07
8.35558e-08 1.15418e-07 0.0357865

0.0374535 -0.000661807 6.02498e-08
-0.000661807 0.0412026 1.84725e-08
6.02498e-08 1.84725e-08 0.0359011

0.0410751 0.00281306 1.32405e-07
0.00281306 0.0359863 2.11568e-07
1.32405e-07 2.11568e-07 0.0357667

0.037254 0.000705219 7.53973e-08
0.000705219 0.0432158 1.35115e-08
7.53973e-08 1.35115e-08 0.0361418

0.0402605 -0.00121862 -2.31078e-07
-0.00121862 0.0378303 1.81436e-08
-2.31078e-07 1.81436e-08 0.0358083

0.0312159 -0.00367772 -1.65596e-07
-0.00367772 0.0311235 3.66629e-08
-1.65596e-07 3.66629e-08 0.0309256

0.0227475 0.00527905 1.09593e-07
0.00527905 0.023709 1.95287e-07
1.09593e-07 1.95287e-07 0.0125811

0.0297612 -0.0023158 1.14231e-07
-0.0023158 0.0220312 1.5703e-07
1.14231e-07 1.5703e-07 0.020875

0.0376194 -0.000522558 1.19038e-07
-0.000522558 0.0430641 8.36894e-08
1.19038e-07 8.36894e-08 0.0361446

0.0412407 0.00263433 -2.28521e-07
0.00263433 0.0394153 5.76389e-08
-2.28521e-07 5.76389e-08 0.036127

0.0343015 -0.00161704 2.99351e-08
-0.00161704 0.0279947 1.32808e-07
2.99351e-08 1.32808e-07 0.0310841

0.0231058 -0.00552577 -1.55059e-07
-0.00552577 0.0235629 1.32519e-07
-1.55059e-07 1.32519e-07 0.0162161

0.0299435 -0.00233232 1.1541e-07
-0.00233232 0.0221553 -2.37998e-07
1.1541e-07 -2.37998e-07 0.0213443

0.0258938 0.00222735 1.29764e-07
0.00222735 0.0326543 1.83144e-07
1.29764e-07 1.83144e-07 0.0279154

0.0275509 0.00252884 -1.44091e-07
0.00252884 0.0323741 2.96114e-08
-1.44091e-07 2.96114e-08 0.028491

0.0341754 -0.00214089 1.18102e-08
-0.00214089 0.0271074 1.15399e-07
1.18102e-08 1.15399e-07 0.0304723

0.0229026 -0.00439231 -7.48929e-08
-0.00439231 0.027249 1.5595e-08
-7.48929e-08 1.5595e-08 0.0198504

0.0294941 0.00247152 -1.58199e-07
0.00247152 0.0218343 -4.6664e-08
-1.58199e-07 -4.6664e-08 0.020281

0.0298724 -0.00327081 9.74764e-09
-0.00327081 0.0245137 3.05705e-07
9.74764e-09 3.05705e-07 0.0230483

0.0344779 0.00257769 5.00335e-08
0.00257769 0.0382033 3.38315e-08
5.00335e-08 3.38315e-08 0.0352712

0.0286895 0.00383856 2.63863e-08
0.00383856 0.0257797 -2.58072e-07
2.63863e-08 -2.58072e-07 0.0231169

0.0349284 -0.00291583 1.5428e-07
-0.00291583 0.0374327 7.77554e-08
1.5428e-07 7.77554e-08 0.0351895

0.02558 -0.00545533 3.64521e-07
-0.00545533 0.0229024 4.68448e-08
3.64521e-07 4.68448e-08 0.0158196

0.037347 0.000746153 -1.62387e-07
0.000746153 0.0414136 1.63209e-08
-1.62387e-07 1.63209e-08 0.0359215

0.0231678 -0.000693228 -7.41269e-08
-0.000693228 0.0313133 2.03034e-07
-7.41269e-08 2.03034e-07 0.0231029

0.0410299 0.00137991 -4.09536e-08
0.00137991 0.0377071 -7.24758e-08
-4.09536e-08 -7.24758e-08 0.0358997

0.0276758 0.0028051 -1.68117e-07
0.0028051 0.0327496 -5.55822e-08
-1.68117e-07 -5.55822e-08 0.0302313

0.0361394 0.000784772 -9.40208e-09
0.000784772 0.0281318 -1.22048e-07
-9.40208e-09 -1.22048e-07 0.0336734

0.0362546 0.0015339 1.7702e-08
0.0015339 0.0316936 1.45472e-07
1.7702e-08 1.45472e-07 0.034221

0.0286373 0.004057 3.73093e-08
0.004057 0.0198974 -9.43555e-08
3.73093e-08 -9.43555e-08 0.0137593

0.0309729 -0.000783958 -1.19264e-07
-0.000783958 0.0370848 -6.53868e-08
-1.19264e-07 -6.53868e-08 0.0338819

0.0315552 0.00124344 3.80365e-08
0.00124344 0.0364212 -5.05586e-08
3.80365e-08 -5.05586e-08 0.0342598

0.0285492 -0.000375183 -9.79732e-08
-0.000375183 0.0369567 -2.78084e-08
-9.79732e-08 -2.78084e-08 0.032671

0.0296031 0.00307118 -9.58015e-08
0.00307118 0.0347914 4.74178e-08
-9.58015e-08 4.74178e-08 0.0337092

0.0347198 0.00112191 6.25744e-09
0.00112191 0.0278388 2.1678e-08
6.25744e-09 2.1678e-08 0.0322088

0.0291876 -0.00369891 -5.32505e-09
-0.00369891 0.0310213 -8.51392e-08
-5.32505e-09 -8.51392e-08 0.0299098

0.0350551 -0.000237109 3.71256e-08
-0.000237109 0.0275802 1.54158e-07
3.71256e-08 1.54158e-07 0.0333934

0.0344525 -0.00254801 -5.70789e-08
-0.00254801 0.0381341 1.78424e-07
-5.70789e-08 1.78424e-07 0.0352612

0.035011 0.00284947 -4.23833e-08
0.00284947 0.0375703 -7.23554e-08
-4.23833e-08 -7.23554e-08 0.035241

0.0218888 -0.00213181 9.48859e-08
-0.00213181 0.0299222 -4.7167e-08
9.48859e-08 -4.7167e-08 0.0208514

0.0347014 -0.00369112 1.05665e-07
-0.00369112 0.031958 3.86996e-08
1.05665e-07 3.86996e-08 0.0330793

0.029292 -0.0032975 3.5015e-09
-0.0032975 0.0321127 -6.96049e-08
3.5015e-09 -6.96049e-08 0.0304336

0.0267797 -0.0040169 2.85623e-07
-0.0040169 0.0176054 -1.07223e-07
2.85623e-07 -1.07223e-07 0.012726

0.0324044 0.000418919 5.84786e-09
0.000418919 0.0381055 -6.9355e-08
5.84786e-09 -6.9355e-08 0.0344061

0.0345376 0.00381731 -4.16099e-08
0.00381731 0.0309418 1.77385e-07
-4.16099e-08 1.77385e-07 0.0326605

0.0283766 0.00258142 -2.05687e-07
0.00258142 0.0341295 -4.82716e-08
-2.05687e-07 -4.82716e-08 0.032214

0.031542 0.00103785 -9.56064e-08
0.00103785 0.0228441 -2.08046e-07
-9.56064e-08 -2.08046e-07 0.0240694

0.0270974 -0.00435865 -4.50633e-08
-0.00435865 0.0237371 1.42475e-07
-4.50633e-08 1.42475e-07 0.0183236

0.0362603 -0.00140296 3.18739e-08
-0.00140296 0.038743 -7.92153e-08
3.18739e-08 -7.92153e-08 0.0354015

0.0315563 0.00317066 9.90897e-08
0.00317066 0.0344018 -5.63749e-08
9.90897e-08 -5.63749e-08 0.0340906

0.0273018 -0.00415611 3.36799e-08
-0.00415611 0.0221751 1.27022e-07
3.36799e-08 1.27022e-07 0.0184115

0.0303583 0.00139113 -7.30497e-08
0.00139113 0.0228307 -2.07865e-07
-7.30497e-08 -2.07865e-07 0.0209547

0.0186022 -0.00269707 5.13545e-08
-0.00269707 0.0289289 2.62853e-08
5.13545e-08 2.62853e-08 0.0158931

0.0272002 0.00188904 6.13681e-08
0.00188904 0.0343206 8.73595e-09
6.13681e-08 8.73595e-09 0.0306548

0.035382 0.00305674 1.94531e-07
0.00305674 0.03082 7.2844e-08
1.94531e-07 7.2844e-08 0.032754

0.022648 0.00538588 -1.33058e-07
0.00538588 0.0240887 -8.48181e-08
-1.33058e-07 -8.48181e-08 0.0161986

0.0459481 0.00223843 -3.56533e-07
0.00223843 0.0417503 2.64707e-07
-3.56533e-07 2.64707e-07 0.0366392

0.0230815 -0.000534293 5.75875e-08
-0.000534293 0.0313543 -1.2638e-07
5.75875e-08 -1.2638e-07 0.0230727

0.0463635 -0.00225609 -5.78328e-07
-0.00225609 0.0412944 -9.49867e-08
-5.78328e-07 -9.49867e-08 0.0365944

0.0370656 -0.00362448 1.98331e-07
-0.00362448 0.0334911 1.38801e-09
1.98331e-07 1.38801e-09 0.0346211

0.0351375 0.0036192 1.68171e-07
0.0036192 0.0300043 1.70126e-07
1.68171e-07 1.70126e-07 0.0324567

0.0299622 -0.0031589 9.67545e-09
-0.0031589 0.0246907 -7.30304e-08
9.67545e-09 -7.30304e-08 0.0232861

0.0230124 0.00402976 -1.0296e-07
0.00402976 0.0277791 4.35336e-08
-1.0296e-07 4.35336e-08 0.0203822

0.0210941 -0.00137854 -1.16632e-07
-0.00137854 0.0298955 -2.09212e-07
-1.16632e-07 -2.09212e-07 0.0182517

0.028746 0.00288905 1.05826e-07
0.00288905 0.0342274 7.2072e-09
1.05826e-07 7.2072e-09 0.0326999

0.0370117 0.00223632 1.49486e-07
0.00223632 0.0334523 -2.46622e-07
1.49486e-07 -2.46622e-07 0.0343845

0.0281484 0.00198822 -1.99235e-07
0.00198822 0.0340599 -1.63837e-08
-1.99235e-07 -1.63837e-08 0.0308657

0.0318827 0.00207314 6.57824e-08
0.00207314 0.0252544 4.51164e-08
6.57824e-08 4.51164e-08 0.0256176

0.0239077 -0.0027743 -1.1979e-07
-0.0027743 0.0297649 -6.97629e-08
-1.1979e-07 -6.97629e-08 0.0215616

0.0278988 -0.00376373 -4.4341e-08
-0.00376373 0.0218154 1.44191e-07
-4.4341e-08 1.44191e-07 0.0180761

0.0293315 -0.00323201 -2.11794e-07
-0.00323201 0.0326299 8.6227e-08
-2.11794e-07 8.6227e-08 0.032403

0.0306264 0.00361481 -1.09799e-07
0.00361481 0.032229 -5.52259e-08
-1.09799e-07 -5.52259e-08 0.0323709

0.0287082 0.00304823 -1.92016e-08
0.00304823 0.0340274 3.10189e-08
-1.92016e-08 3.10189e-08 0.0326304

0.029207 0.00172535 4.45551e-09
0.00172535 0.037618 -6.85838e-08
4.45551e-09 -6.85838e-08 0.0338463

0.0344772 0.00123249 5.47024e-08
0.00123249 0.0275239 4.71449e-08
5.47024e-08 4.71449e-08 0.0306749

0.0199608 -0.000605324 4.94247e-08
-0.000605324 0.0296608 2.04406e-08
4.94247e-08 2.04406e-08 0.018104

0.0297978 -0.00486315 6.13084e-08
-0.00486315 0.033049 -1.27313e-08
6.13084e-08 -1.27313e-08 0.0337418

0.0290816 0.00359994 7.12082e-08
0.00359994 0.0313596 1.69108e-07
7.12082e-08 1.69108e-07 0.0302642

0.0181057 0.000282945 -4.14598e-08
0.000282945 0.0293109 -2.25369e-07
-4.14598e-08 -2.25369e-07 0.0168785

0.0278434 0.00442375 3.72381e-08
0.00442375 0.0209682 -9.48559e-08
3.72381e-08 -9.48559e-08 0.0174548

0.0291911 -0.00302032 -4.15563e-08
-0.00302032 0.0327033 -1.16178e-07
-4.15563e-08 -1.16178e-07 0.0321855

0.0352424 0.000759844 -1.8513e-08
0.000759844 0.0273387 6.85402e-08
-1.8513e-08 6.85402e-08 0.0325528

0.0294273 0.00352012 -6.90722e-08
0.00352012 0.0252013 -1.22841e-07
-6.90722e-08 -1.22841e-07 0.0231113

0.0396362 0.00171017 9.94356e-08
0.00171017 0.0390394 -1.34645e-07
9.94356e-08 -1.34645e-07 0.0359401

0.028375 0.0031234 -2.91512e-07
0.0031234 0.0224015 2.22564e-07
-2.91512e-07 2.22564e-07 0.0182864

0.0394888 -0.00175064 9.19613e-08
-0.00175064 0.0390654 -6.07822e-08
9.19613e-08 -6.07822e-08 0.0359053

0.023261 0.000103438 -1.70993e-07
0.000103438 0.0315178 1.90514e-07
-1.70993e-07 1.90514e-07 0.0231197

0.0327587 -0.000288428 -2.35897e-07
-0.000288428 0.02466 -2.06057e-07
-2.35897e-07 -2.06057e-07 0.0269663

0.0380544 -0.0021293 5.17205e-08
-0.0021293 0.0304639 -3.95774e-08
5.17205e-08 -3.95774e-08 0.0347933

0.0292384 0.003206 1.48597e-07
0.003206 0.0332775 1.00082e-07
1.48597e-07 1.00082e-07 0.0333429

0.0289505 -0.00177269 -1.16218e-08
-0.00177269 0.0366093 -5.17131e-08
-1.16218e-08 -5.17131e-08 0.0334997

0.0365834 -0.00108489 1.7663e-07
-0.00108489 0.0264764 -6.47066e-08
1.7663e-07 -6.47066e-08 0.03386

0.0311804 -0.00292592 -1.16067e-07
-0.00292592 0.0383061 -1.32712e-07
-1.16067e-07 -1.32712e-07 0.0348437

0.0381648 -0.000885368 -9.21457e-08
-0.000885368 0.0387309 1.19977e-07
-9.21457e-08 1.19977e-07 0.0358354

0.0301799 -0.0039398 -6.99588e-08
-0.0039398 0.0327105 -1.16128e-07
-6.99588e-08 -1.16128e-07 0.0327633

0.0213328 0.00146938 1.40762e-07
0.00146938 0.0296135 -1.21575e-07
1.40762e-07 -1.21575e-07 0.0182956

0.0293878 -0.00364572 -8.42322e-08
-0.00364572 0.0253491 8.98105e-08
-8.42322e-08 8.98105e-08 0.0231819

0.0328594 -0.00181691 -1.45161e-07
-0.00181691 0.0397176 -3.56573e-09
-1.45161e-07 -3.56573e-09 0.0352409

0.035091 7.68655e-05 -5.16833e-09
7.68655e-05 0.0272221 6.97369e-08
-5.16833e-09 6.97369e-08 0.0332512

0.0308183 -0.00282899 -7.15584e-09
-0.00282899 0.0348911 -5.92502e-08
-7.15584e-09 -5.92502e-08 0.0340841

0.0295342 0.00338851 6.62739e-08
0.00338851 0.0328718 -1.42516e-07
6.62739e-08 -1.42516e-07 0.033326

0.0264604 -0.00406334 -1.15973e-07
-0.00406334 0.0272616 1.47325e-08
-1.15973e-07 1.47325e-08 0.0215844

0.0371724 -0.000958253 -3.6864e-07
-0.000958253 0.04161 4.06786e-08
-3.6864e-07 4.06786e-08 0.0358865

0.0227108 -0.00423757 1.08332e-07
-0.00423757 0.0272438 -2.7674e-07
1.08332e-07 -2.7674e-07 0.0168774

0.0341829 -0.00252494 1.20434e-08
-0.00252494 0.0286064 9.28154e-08
1.20434e-08 9.28154e-08 0.0310444

0.0364257 0.000290052 -2.6959e-08
0.000290052 0.0294374 -1.38611e-07
-2.6959e-08 -1.38611e-07 0.0341937

0.0396406 0.00239627 3.12642e-07
0.00239627 0.0391129 -7.22652e-09
3.12642e-07 -7.22652e-09 0.0358674

0.023856 0.0026092 -6.20629e-08
0.0026092 0.0301512 -3.18207e-08
-6.20629e-08 -3.18207e-08 0.0217987

0.0334306 0.0035814 -1.26647e-08
0.0035814 0.0307152 5.73756e-08
-1.26647e-08 5.73756e-08 0.0317672

0.0316431 -0.00319435 1.48671e-07
-0.00319435 0.026552 -2.81326e-09
1.48671e-07 -2.81326e-09 0.0269353

0.0289291 -0.00234107 2.74012e-08
-0.00234107 0.0342348 3.33075e-08
2.74012e-08 3.33075e-08 0.0326059

0.0262444 0.00450145 2.72195e-07
0.00450145 0.0245577 -1.35083e-07
2.72195e-07 -1.35083e-07 0.0180811

0.0284227 -0.00286655 5.33512e-08
-0.00286655 0.0340327 4.83097e-08
5.33512e-08 4.83097e-08 0.0324489

0.0331489 0.0040588 -3.56827e-08
0.0040588 0.0304643 1.28786e-07
-3.56827e-08 1.28786e-07 0.0315422

0.0333346 -0.00331181 -1.36482e-07
-0.00331181 0.028357 -2.13368e-09
-1.36482e-07 -2.13368e-09 0.0300458

0.0291606 -0.00329572 -6.44611e-08
-0.00329572 0.031987 5.17742e-09
-6.44611e-08 5.17742e-09 0.0304373

0.0314551 -0.00242916 -5.696e-08
-0.00242916 0.0247189 2.96949e-07
-5.696e-08 2.96949e-07 0.0251562

0.0329553 -0.00246676 -1.1365e-07
-0.00246676 0.0267096 -3.47446e-08
-1.1365e-07 -3.47446e-08 0.0285965

0.0294913 -0.00334183 -1.31273e-07
-0.00334183 0.0329507 1.34478e-09
-1.31273e-07 1.34478e-09 0.0334074

0.0261341 0.00463389 6.48161e-08
0.00463389 0.0255413 -2.98141e-08
6.48161e-08 -2.98141e-08 0.0210923

0.0281502 0.00201648 -1.80433e-07
0.00201648 0.034336 -3.38501e-08
-1.80433e-07 -3.38501e-08 0.0311094

0.0308865 0.00348114 1.43337e-08
0.00348114 0.0322554 -5.04568e-08
1.43337e-08 -5.04568e-08 0.0326002

0.0291573 0.00334817 3.73298e-08
0.00334817 0.0331917 1.54689e-07
3.73298e-08 1.54689e-07 0.0332604

0.028984 0.00152271 -7.75989e-09
0.00152271 0.0354708 -2.13055e-07
-7.75989e-09 -2.13055e-07 0.0326955

0.0310526 -0.00106187 2.741e-07
-0.00106187 0.0231414 4.66651e-08
2.741e-07 4.66651e-08 0.0220779

0.0238839 0.00240572 1.00643e-07
0.00240572 0.0304106 -1.66439e-07
1.00643e-07 -1.66439e-07 0.022113

0.0292132 -0.0032041 -6.14322e-09
-0.0032041 0.0326365 -3.08851e-08
-6.14322e-09 -3.08851e-08 0.0316184

0.0289875 0.00335679 -2.45686e-08
0.00335679 0.0309328 6.16558e-08
-2.45686e-08 6.16558e-08 0.028568

0.0266127 -0.00459117 -9.36189e-09
-0.00459117 0.0252304 9.48731e-08
-9.36189e-09 9.48731e-08 0.0212566

0.0262779 0.00489347 2.84688e-07
0.00489347 0.0209462 -1.85532e-07
2.84688e-07 -1.85532e-07 0.0167623

0.0235028 -0.0042868 9.23158e-08
-0.0042868 0.0274645 -1.69442e-07
9.23158e-08 -1.69442e-07 0.0206264

0.0266719 -0.0040274 -1.31011e-07
-0.0040274 0.0274825 -1.80855e-07
-1.31011e-07 -1.80855e-07 0.02205

0.0353649 -0.000906647 -8.67134e-08
-0.000906647 0.0273905 -4.15155e-08
-8.67134e-08 -4.15155e-08 0.0326551

0.0260454 0.00392159 -1.09955e-07
0.00392159 0.0280924 1.74833e-07
-1.09955e-07 1.74833e-07 0.0221025

0.0307882 0.00171668 2.80905e-07
0.00171668 0.0233603 2.82544e-08
2.80905e-07 2.82544e-08 0.0220256

0.021431 0.00172194 1.28297e-07
0.00172194 0.0302408 -1.61105e-07
1.28297e-07 -1.61105e-07 0.0211328

0.0242628 -0.0028894 1.74448e-07
-0.0028894 0.029952 7.99597e-09
1.74448e-07 7.99597e-09 0.0220862

0.0313461 -0.000131037 -9.30913e-09
-0.000131037 0.0392741 9.41078e-08
-9.30913e-09 9.41078e-08 0.0346713

0.0230585 0.000294621 6.55456e-08
0.000294621 0.0314607 -1.25868e-07
6.55456e-08 -1.25868e-07 0.0230623

0.0227771 0.00400157 -1.55926e-07
0.00400157 0.0281275 1.70801e-07
-1.55926e-07 1.70801e-07 0.0206382

0.028889 0.00158563 -1.18215e-07
0.00158563 0.0358329 -5.34817e-08
-1.18215e-07 -5.34817e-08 0.0328941

0.0293161 -0.00358012 1.65341e-07
-0.00358012 0.0251298 1.9208e-07
1.65341e-07 1.9208e-07 0.0232398

0.0369769 0.00273293 1.36523e-07
0.00273293 0.0297238 6.44307e-08
1.36523e-07 6.44307e-08 0.0338022

0.0371763 0.00348324 7.49e-09
0.00348324 0.0334235 1.27867e-08
7.49e-09 1.27867e-08 0.0346527

0.0345448 -0.0024466 -2.19192e-08
-0.0024466 0.0285303 1.02977e-08
-2.19192e-08 1.02977e-08 0.0313793

0.0390572 -0.00026558 -5.94342e-08
-0.00026558 0.0339253 -2.51644e-07
-5.94342e-08 -2.51644e-07 0.0352088

0.0314798 -0.00418738 1.3774e-07
-0.00418738 0.0317822 -2.12354e-07
1.3774e-07 -2.12354e-07 0.0321569

0.0294625 0.00300763 9.13767e-08
0.00300763 0.0223275 2.90394e-07
9.13767e-08 2.90394e-07 0.0210667

0.0302302 0.00397296 6.53102e-08
0.00397296 0.0326642 -1.4414e-07
6.53102e-08 -1.4414e-07 0.0327205

0.0302777 0.00384692 -1.00612e-07
0.00384692 0.0326081 -7.27815e-08
-1.00612e-07 -7.27815e-08 0.0326753

0.0262447 0.00396182 2.50698e-08
0.00396182 0.0277679 4.89128e-08
2.50698e-08 4.89128e-08 0.021865

0.0344509 0.00357664 4.90413e-08
0.00357664 0.0317803 5.11527e-08
4.90413e-08 5.11527e-08 0.0328321

0.0302487 0.000452318 2.82865e-07
0.000452318 0.0204286 3.31556e-08
2.82865e-07 3.31556e-08 0.0205735

0.0331868 0.00420081 -8.38136e-08
0.00420081 0.0323736 -6.00465e-08
-8.38136e-08 -6.00465e-08 0.0334844

0.0305015 -0.00165435 -7.919e-08
-0.00165435 0.0366169 -5.48614e-08
-7.919e-08 -5.48614e-08 0.0336635

0.0373613 0.00323289 -2.04777e-07
0.00323289 0.0334606 -5.0355e-08
-2.04777e-07 -5.0355e-08 0.0346649

0.0307377 -0.00389617 -1.74078e-07
-0.00389617 0.0322736 9.44808e-08
-1.74078e-07 9.44808e-08 0.0326808

0.0293745 -0.000644985 1.83951e-07
-0.000644985 0.036904 -3.48291e-09
1.83951e-07 -3.48291e-09 0.0328485

0.0288133 -0.00315232 -2.39657e-07
-0.00315232 0.0221403 -2.40674e-07
-2.39657e-07 -2.40674e-07 0.0187592

0.0290032 0.0038445 -6.88877e-08
0.0038445 0.0255784 -2.65832e-08
-6.88877e-08 -2.65832e-08 0.0230732

0.0217017 0.00189098 9.61084e-09
0.00189098 0.0300615 -2.68014e-08
9.61084e-09 -2.68014e-08 0.0210841

0.0349906 -0.000161517 -1.57755e-07
-0.000161517 0.0273902 -4.15256e-08
-1.57755e-07 -4.15256e-08 0.0333022

0.0344201 2.6021e-07 -8.31107e-08
2.6021e-07 0.0272753 -4.8078e-08
-8.31107e-08 -4.8078e-08 0.0320418

0.0291664 0.00303991 1.63223e-07
0.00303991 0.0326809 -8.42874e-08
1.63223e-07 -8.42874e-08 0.0321333

0.0314504 0.00316615 -7.65194e-08
0.00316615 0.034251 -4.69102e-08
-7.65194e-08 -4.69102e-08 0.0340588

0.0291693 -0.0032043 -4.35123e-08
-0.0032043 0.0332393 1.75566e-07
-4.35123e-08 1.75566e-07 0.0333796

0.0287743 -8.56969e-05 -6.04123e-08
-8.56969e-05 0.0367056 -6.73227e-08
-6.04123e-08 -6.73227e-08 0.0325263

0.0294648 0.00337582 1.78518e-08
0.00337582 0.0330752 1.0897e-07
1.78518e-08 1.0897e-07 0.0333553

0.0328598 -0.00134648 6.27313e-08
-0.00134648 0.0253623 1.65577e-07
6.27313e-08 1.65577e-07 0.0278294

0.0263554 -0.00425457 -4.33778e-08
-0.00425457 0.0281801 -1.0569e-07
-4.33778e-08 -1.0569e-07 0.0242681

0.036298 -0.00033149 -6.04757e-08
-0.00033149 0.0293839 1.49042e-07
-6.04757e-08 1.49042e-07 0.0340286

0.0267815 -0.00444558 -2.78314e-09
-0.00444558 0.025191 1.97305e-07
-2.78314e-09 1.97305e-07 0.0209495

0.0309002 0.00250714 -8.07983e-08
0.00250714 0.0350639 1.42008e-07
-8.07983e-08 1.42008e-07 0.0340684

0.035114 -0.00349686 3.59536e-08
-0.00349686 0.0303889 -7.48933e-08
3.59536e-08 -7.48933e-08 0.0326154

0.0305026 -0.00124996 7.94904e-09
-0.00124996 0.0229788 -9.02091e-08
7.94904e-09 -9.02091e-08 0.0214788

0.0371488 -0.00307711 1.20206e-07
-0.00307711 0.0316537 3.61045e-08
1.20206e-07 3.61045e-08 0.0339885

0.0349702 0.000321931 3.30312e-08
0.000321931 0.0275555 -1.6938e-09
3.30312e-08 -1.6938e-09 0.0334306

0.0358436 -0.00308827 1.25537e-07
-0.00308827 0.0332587 2.42636e-07
1.25537e-07 2.42636e-07 0.0341441

0.034929 -0.00341066 1.40751e-07
-0.00341066 0.0295956 -2.26939e-08
1.40751e-07 -2.26939e-08 0.0321787

0.0349102 -0.00113355 2.15958e-08
-0.00113355 0.0278507 1.34113e-07
2.15958e-08 1.34113e-07 0.032342

0.0314903 -0.00306248 -1.15205e-08
-0.00306248 0.0344488 -1.32006e-07
-1.15205e-08 -1.32006e-07 0.0341471

0.0292358 -0.00407113 2.41366e-08
-0.00407113 0.0269002 -6.72116e-08
2.41366e-08 -6.72116e-08 0.0253466

0.034993 -0.00324377 1.42167e-07
-0.00324377 0.0299159 -1.71222e-08
1.42167e-07 -1.71222e-08 0.0321959

0.0314628 0.00140921 -2.38389e-07
0.00140921 0.0233274 1.98831e-09
-2.38389e-07 1.98831e-09 0.0244841

0.0336656 0.00348423 -1.24246e-07
0.00348423 0.0334448 2.54578e-09
-1.24246e-07 2.54578e-09 0.0336506

0.0298933 -0.00496711 5.32768e-08
-0.00496711 0.0330794 -5.99994e-09
5.32768e-08 -5.99994e-09 0.0338578

0.0300436 0.00492045 5.14779e-09
0.00492045 0.0329406 1.09568e-07
5.14779e-09 1.09568e-07 0.0338247

0.0276888 -0.00374162 8.30129e-08
-0.00374162 0.0348076 3.59469e-08
8.30129e-08 3.59469e-08 0.0337673

0.0279265 0.00354717 1.11402e-07
0.00354717 0.0348356 5.63616e-08
1.11402e-07 5.63616e-08 0.0337321

0.03643 -0.00115371 -1.66995e-07
-0.00115371 0.0263425 -2.51613e-08
-1.66995e-07 -2.51613e-08 0.0337585

0.0361991 0.00124763 -5.59629e-08
0.00124763 0.0265638 -5.03208e-08
-5.59629e-08 -5.03208e-08 0.0337213

0.0350351 -0.00130672 1.36963e-10
-0.00130672 0.0284686 3.90161e-08
1.36963e-10 3.90161e-08 0.0325764

0.0344373 0.00425874 -5.59688e-08
0.00425874 0.03429 -4.65657e-08
-5.59688e-08 -4.65657e-08 0.0348131

0.0343123 -0.00435698 1.06729e-07
-0.00435698 0.034282 -4.95528e-09
1.06729e-07 -4.95528e-09 0.0348015

0.0305215 0.00209348 -2.40955e-08
0.00209348 0.0381657 3.02296e-08
-2.40955e-08 3.02296e-08 0.0348503

0.0306648 -0.00205934 1.22237e-07
-0.00205934 0.0380957 1.69685e-07
1.22237e-07 1.69685e-07 0.0348376

0.0395024 -0.000528969 7.17041e-08
-0.000528969 0.0328498 -1.00649e-08
7.17041e-08 -1.00649e-08 0.0352584

0.039705 0.000513566 1.53823e-07
0.000513566 0.0326226 1.63208e-09
1.53823e-07 1.63208e-09 0.0353037

0.0239656 0.00127595 1.80513e-07
0.00127595 0.032004 8.4914e-08
1.80513e-07 8.4914e-08 0.0251848

0.031163 -0.00326522 8.06667e-08
-0.00326522 0.0322413 1.33903e-07
8.06667e-08 1.33903e-07 0.0328025

0.0277803 -0.00478577 -3.48667e-08
-0.00478577 0.0333128 1.7538e-07
-3.48667e-08 1.7538e-07 0.0334559

0.0333594 -0.000610205 -1.29653e-07
-0.000610205 0.0264037 -1.7483e-07
-1.29653e-07 -1.7483e-07 0.0284488

0.0381882 -0.0022518 1.11352e-07
-0.0022518 0.0307951 5.75726e-08
1.11352e-07 5.75726e-08 0.0348934

0.0382365 0.00218391 1.06656e-07
0.00218391 0.0309083 7.19679e-08
1.06656e-07 7.19679e-08 0.0349255

0.0360847 1.56186e-05 -8.37843e-09
1.56186e-05 0.0251266 7.187e-08
-8.37843e-09 7.187e-08 0.033471

0.0242414 0.00302905 3.14773e-08
0.00302905 0.0303982 1.39404e-07
3.14773e-08 1.39404e-07 0.0242775

0.0276747 0.00475628 -1.13513e-07
0.00475628 0.0333131 1.48346e-07
-1.13513e-07 1.48346e-07 0.0333937

0.0286752 -0.00307578 3.91975e-08
-0.00307578 0.0342616 3.30972e-08
3.91975e-08 3.30972e-08 0.032753

0.0310861 0.00303572 -3.97365e-08
0.00303572 0.0251472 -1.21604e-07
-3.97365e-08 -1.21604e-07 0.0254677

0.0372284 0.00316567 -1.35569e-07
0.00316567 0.0315414 1.78704e-08
-1.35569e-07 1.78704e-08 0.0340765

0.0292273 -0.00406722 2.22717e-07
-0.00406722 0.0269362 1.00263e-07
2.22717e-07 1.00263e-07 0.0253219

0.0364022 -0.000453748 1.8089e-07
-0.000453748 0.0296922 -5.63636e-08
1.8089e-07 -5.63636e-08 0.0341316

0.0273453 -0.00449472 -1.78729e-07
-0.00449472 0.0333959 -9.29039e-08
-1.78729e-07 -9.29039e-08 0.0334425

0.0240383 0.00107902 -2.70284e-07
0.00107902 0.0322451 -1.22669e-08
-2.70284e-07 -1.22669e-08 0.0255065

0.0242302 0.0028267 1.16646e-07
0.0028267 0.0307021 -1.35086e-07
1.16646e-07 -1.35086e-07 0.0245454

0.0267929 0.00459438 2.96047e-08
0.00459438 0.0240422 -8.05179e-08
2.96047e-08 -8.05179e-08 0.0182139

0.0298514 0.000199837 -1.58755e-08
0.000199837 0.0200888 -5.41658e-08
-1.58755e-08 -5.41658e-08 0.0193628

0.0319096 -0.00302375 6.83978e-08
-0.00302375 0.0341633 -3.17562e-09
6.83978e-08 -3.17562e-09 0.0340363

0.022919 0.00399972 -2.30329e-07
0.00399972 0.0276605 3.54615e-08
-2.30329e-07 3.54615e-08 0.0176534

0.0292107 0.00310081 1.87926e-07
0.00310081 0.0327638 -4.64563e-08
1.87926e-07 -4.64563e-08 0.0310129

0.0315955 -0.000694608 2.58116e-08
-0.000694608 0.0231605 4.01801e-08
2.58116e-08 4.01801e-08 0.0244853

0.032762 0.00146458 -6.03519e-08
0.00146458 0.0253474 5.54553e-08
-6.03519e-08 5.54553e-08 0.0276135

0.0359791 5.62485e-05 -5.30696e-08
5.62485e-05 0.0249596 1.47322e-07
-5.30696e-08 1.47322e-07 0.0333869

0.0279666 -0.00380559 -1.71911e-07
-0.00380559 0.0349493 -5.45274e-08
-1.71911e-07 -5.45274e-08 0.0338167

0.0393149 -0.000844188 2.20604e-07
-0.000844188 0.0416027 -7.35689e-09
2.20604e-07 -7.35689e-09 0.0361906

0.0298683 0.00493903 -2.14607e-08
0.00493903 0.0329574 -1.45006e-07
-2.14607e-08 -1.45006e-07 0.0337798

0.0302889 0.000214384 -1.47331e-07
0.000214384 0.0203972 4.90786e-09
-1.47331e-07 4.90786e-09 0.0172765

0.0266745 -0.0042504 -1.19885e-07
-0.0042504 0.0281337 -1.98098e-07
-1.19885e-07 -1.98098e-07 0.024438

0.0277471 0.00481577 2.37485e-08
0.00481577 0.0333154 9.86277e-08
2.37485e-08 9.86277e-08 0.0334561

0.0279457 -0.00145873 -1.21034e-07
-0.00145873 0.0350855 -7.75054e-08
-1.21034e-07 -7.75054e-08 0.031451

0.0244655 -0.00330521 -2.32603e-07
-0.00330521 0.0300161 1.1306e-07
-2.32603e-07 1.1306e-07 0.0242176

0.0279916 0.00377962 1.32106e-07
0.00377962 0.034911 1.2816e-07
1.32106e-07 1.2816e-07 0.0337875

0.0313625 -0.00340948 1.24427e-07
-0.00340948 0.0270092 -5.75216e-08
1.24427e-07 -5.75216e-08 0.0269919

0.0402798 0.00140896 3.89484e-08
0.00140896 0.0406183 -2.33053e-07
3.89484e-08 -2.33053e-07 0.036171

0.0258817 0.00400291 -1.69906e-07
0.00400291 0.0289553 6.46504e-08
-1.69906e-07 6.46504e-08 0.0245116

0.0366789 0.00110286 -4.46618e-08
0.00110286 0.026353 -1.11443e-07
-4.46618e-08 -1.11443e-07 0.0338985

0.0333427 0.0039839 8.68686e-08
0.0039839 0.0321165 -7.66771e-08
8.68686e-08 -7.66771e-08 0.0333164

0.0292288 0.00306748 8.87092e-08
0.00306748 0.0326065 -1.43304e-07
8.87092e-08 -1.43304e-07 0.0321584

0.0343655 -0.00431071 3.95595e-08
-0.00431071 0.0345053 -1.33286e-07
3.95595e-08 -1.33286e-07 0.0348856

0.0354905 -0.00306356 -1.06608e-08
-0.00306356 0.0305907 -1.69957e-07
-1.06608e-08 -1.69957e-07 0.0327511

0.0333671 0.00138772 2.31105e-07
0.00138772 0.0395779 -1.60348e-09
2.31105e-07 -1.60348e-09 0.0350032

0.0291975 -0.00307923 -7.24226e-08
-0.00307923 0.0328751 -6.6814e-08
-7.24226e-08 -6.6814e-08 0.0313841

0.0292656 -0.00123226 2.20518e-07
-0.00123226 0.0192875 1.63965e-08
2.20518e-07 1.63965e-08 0.0164126

0.0287793 -0.00183227 -2.54369e-07
-0.00183227 0.0184144 -2.18074e-07
-2.54369e-07 -2.18074e-07 0.0161974

0.0385304 0.00220224 -2.32006e-07
0.00220224 0.0332396 3.72686e-10
-2.32006e-07 3.72686e-10 0.0347636

0.0280568 0.00294517 -1.40397e-07
0.00294517 0.0323359 -5.17422e-09
-1.40397e-07 -5.17422e-09 0.0295189

0.0320682 0.00383431 3.71928e-08
0.00383431 0.0309615 1.83696e-07
3.71928e-08 1.83696e-07 0.0314552

0.0320507 8.99488e-05 -8.8336e-08
8.99488e-05 0.0245776 -2.23769e-07
-8.8336e-08 -2.23769e-07 0.0248888

0.0302384 0.000865957 1.79649e-07
0.000865957 0.0385817 -1.61621e-08
1.79649e-07 -1.61621e-08 0.0340971

0.0354031 0.00219145 -7.43953e-08
0.00219145 0.0293237 -1.46974e-07
-7.43953e-08 -1.46974e-07 0.0328591

0.0248121 -0.00333894 1.73001e-07
-0.00333894 0.030007 1.09166e-08
1.73001e-07 1.09166e-08 0.0244707

0.0286513 -0.000337949 -1.7221e-07
-0.000337949 0.0366583 -7.803e-08
-1.7221e-07 -7.803e-08 0.0323966

0.025216 0.00174005 6.78937e-08
0.00174005 0.0320307 8.1573e-08
6.78937e-08 8.1573e-08 0.0256847

0.0332815 -0.00390981 -1.81842e-07
-0.00390981 0.0304976 -1.79984e-07
-1.81842e-07 -1.79984e-07 0.0315932

0.0290655 -0.00389614 1.18865e-07
-0.00389614 0.0282009 -1.0045e-07
1.18865e-07 -1.0045e-07 0.0257143

0.0261501 0.00409901 -3.11871e-08
0.00409901 0.028547 -5.03602e-08
-3.11871e-08 -5.03602e-08 0.0243188

0.0452883 -0.00201695 2.75958e-07
-0.00201695 0.0396065 -1.11354e-07
2.75958e-07 -1.11354e-07 0.0363676

0.0316675 0.00025637 1.7082e-08
0.00025637 0.0393277 -2.76391e-08
1.7082e-08 -2.76391e-08 0.0347699

0.0306174 0.00265079 3.24072e-08
0.00265079 0.0384437 -3.02351e-08
3.24072e-08 -3.02351e-08 0.0349585

0.0387667 0.00209463 -1.84905e-07
0.00209463 0.0302225 -6.11737e-08
-1.84905e-07 -6.11737e-08 0.0349433

0.031372 -0.00345045 -1.10144e-07
-0.00345045 0.0321416 1.92941e-07
-1.10144e-07 1.92941e-07 0.0325735

0.0318186 0.00233621 -1.90345e-07
0.00233621 0.025621 9.96995e-08
-1.90345e-07 9.96995e-08 0.0258804

0.0349944 -0.000708435 2.00364e-07
-0.000708435 0.0415759 5.8489e-08
2.00364e-07 5.8489e-08 0.0357284

0.0357892 -0.0025186 1.65301e-08
-0.0025186 0.0295511 1.46004e-07
1.65301e-08 1.46004e-07 0.0332588

0.0332978 -0.0020398 -1.17094e-07
-0.0020398 0.0266534 -4.35315e-08
-1.17094e-07 -4.35315e-08 0.0286762

0.0252531 0.00151094 3.4299e-08
0.00151094 0.0322755 -9.73227e-10
3.4299e-08 -9.73227e-10 0.0259508

0.0268054 -0.00334474 7.91003e-08
-0.00334474 0.0300104 1.24222e-07
7.91003e-08 1.24222e-07 0.025188

0.0364786 -0.00336036 1.62901e-07
-0.00336036 0.0352884 -4.67121e-08
1.62901e-07 -4.67121e-08 0.034743

0.0284763 0.00415222 1.03354e-07
0.00415222 0.0277168 -1.13843e-07
1.03354e-07 -1.13843e-07 0.0254685

0.0372444 -0.0033454 2.19569e-08
-0.0033454 0.0333228 -6.01734e-09
2.19569e-08 -6.01734e-09 0.0346124

0.0322071 0.000337784 -1.01803e-07
0.000337784 0.0248633 -2.0785e-07
-1.01803e-07 -2.0785e-07 0.0254382

0.0191614 -0.00368928 1.1848e-07
-0.00368928 0.0275266 1.78076e-07
1.1848e-07 1.78076e-07 0.0163112

0.0292105 -0.00380381 -3.21054e-08
-0.00380381 0.0281933 -1.90495e-07
-3.21054e-08 -1.90495e-07 0.0258084

0.0230463 0.00412747 -1.49066e-07
0.00412747 0.0280212 -4.01333e-08
-1.49066e-07 -4.01333e-08 0.0175926

0.0296917 -0.00155933 -5.59041e-08
-0.00155933 0.0375338 -8.06594e-08
-5.59041e-08 -8.06594e-08 0.0336493

0.0243607 -0.00179369 1.75783e-07
-0.00179369 0.0318731 -1.81701e-07
1.75783e-07 -1.81701e-07 0.0254486

0.0424371 -0.00323462 3.87696e-07
-0.00323462 0.0423769 5.64e-08
3.87696e-07 5.64e-08 0.0363759

0.0263373 0.00309116 -4.41511e-08
0.00309116 0.0307023 -1.35251e-07
-4.41511e-08 -1.35251e-07 0.0254785

0.0334775 -0.00432365 -2.49233e-07
-0.00432365 0.0326601 9.93713e-08
-2.49233e-07 9.93713e-08 0.0335671

0.0240812 -0.00155085 -1.11508e-07
-0.00155085 0.031888 1.65119e-07
-1.11508e-07 1.65119e-07 0.0251773

0.0362233 -0.00253877 6.78423e-08
-0.00253877 0.0295118 -6.12259e-08
6.78423e-08 -6.12259e-08 0.0335199

0.0266742 0.00310479 -1.49613e-07
0.00310479 0.0303952 1.42438e-07
-1.49613e-07 1.42438e-07 0.0253137

0.0343439 -0.000653951 2.52032e-08
-0.000653951 0.0272774 -2.80791e-08
2.52032e-08 -2.80791e-08 0.0305782

0.0188908 -0.00387164 1.97229e-07
-0.00387164 0.0298022 -4.75231e-09
1.97229e-07 -4.75231e-09 0.0129615

0.0279998 0.00275459 -1.49928e-07
0.00275459 0.0326293 -7.45485e-08
-1.49928e-07 -7.45485e-08 0.0305741

0.0314379 -0.0025123 -1.72082e-07
-0.0025123 0.0247227 -7.78091e-08
-1.72082e-07 -7.78091e-08 0.0254064

0.0391182 -0.00286941 6.07713e-08
-0.00286941 0.0322217 -2.12413e-07
6.07713e-08 -2.12413e-07 0.0349373

0.0287537 0.00412394 4.52538e-08
0.00412394 0.0273005 1.7176e-07
4.52538e-08 1.7176e-07 0.0252558

0.031362 -0.00391925 1.61452e-07
-0.00391925 0.0285422 -1.12941e-07
1.61452e-07 -1.12941e-07 0.0287313

0.0354088 0.00276384 2.91612e-07
0.00276384 0.0308561 1.0299e-07
2.91612e-07 1.0299e-07 0.0330395

0.0297733 -0.00370368 -7.87033e-08
-0.00370368 0.0329377 -6.00759e-09
-7.87033e-08 -6.00759e-09 0.0333427

0.0270555 -0.0034102 -2.79696e-08
-0.0034102 0.0299828 -4.51396e-09
-2.79696e-08 -4.51396e-09 0.0253977

0.0284408 0.00377118 -1.8489e-08
0.00377118 0.0289402 6.901e-08
-1.8489e-08 6.901e-08 0.0258876

0.0313716 0.00341343 1.21538e-07
0.00341343 0.0268993 1.1575e-07
1.21538e-07 1.1575e-07 0.0269662

0.0365363 -0.00194433 6.23605e-08
-0.00194433 0.0306253 -7.28815e-08
6.23605e-08 -7.28815e-08 0.0336358

0.0255339 -0.00216322 7.43833e-08
-0.00216322 0.0318018 -1.90397e-07
7.43833e-08 -1.90397e-07 0.0258539

0.0347001 -0.00231408 -9.54685e-09
-0.00231408 0.0283344 3.83226e-08
-9.54685e-09 3.83226e-08 0.031456

0.034186 0.00222292 1.31819e-07
0.00222292 0.027432 9.51312e-08
1.31819e-07 9.51312e-08 0.0306039

0.033645 -0.00124592 7.43115e-08
-0.00124592 0.0392998 9.31525e-08
7.43115e-08 9.31525e-08 0.0349275

0.0320721 -0.00174667 -4.7516e-08
-0.00174667 0.0253304 1.60703e-07
-4.7516e-08 1.60703e-07 0.0258712

0.0250018 7.98275e-05 1.16532e-07
7.98275e-05 0.0331511 1.89736e-07
1.16532e-07 1.89736e-07 0.0268613

0.0332472 0.00242868 5.66573e-08
0.00242868 0.0271938 2.43883e-07
5.66573e-08 2.43883e-07 0.0289221

0.0311175 0.00359885 -6.10488e-08
0.00359885 0.0272927 -1.64692e-07
-6.10488e-08 -1.64692e-07 0.0271227

0.0252954 -0.0020411 -2.05658e-07
-0.0020411 0.0318647 1.63019e-07
-2.05658e-07 1.63019e-07 0.0256111

0.0252012 -0.000154596 -1.26801e-07
-0.000154596 0.0332919 -2.33247e-07
-1.26801e-07 -2.33247e-07 0.0271441

0.0354132 0.00385831 1.22499e-07
0.00385831 0.0329956 -2.78491e-08
1.22499e-07 -2.78491e-08 0.0338955

0.0275858 -0.00143085 1.12221e-07
-0.00143085 0.0353423 1.72914e-07
1.12221e-07 1.72914e-07 0.031442

0.0312339 -0.0034837 -1.68967e-07
-0.0034837 0.0269776 8.55806e-08
-1.68967e-07 8.55806e-08 0.0270098

0.0312967 0.00277266 7.22397e-08
0.00277266 0.024922 3.13643e-08
7.22397e-08 3.13643e-08 0.0252462

0.034583 0.00311845 5.62269e-09
0.00311845 0.0293866 -1.38417e-07
5.62269e-09 -1.38417e-07 0.0317957

0.0279912 0.000716922 5.47178e-08
0.000716922 0.0360394 1.97112e-08
5.47178e-08 1.97112e-08 0.0318181

0.0287165 0.00378139 1.79922e-07
0.00378139 0.028559 -5.47926e-08
1.79922e-07 -5.47926e-08 0.0257279

0.0367905 0.00305742 -8.86033e-08
0.00305742 0.0361254 1.82252e-07
-8.86033e-08 1.82252e-07 0.0349071

0.0226802 -0.00754533 2.40438e-07
-0.00754533 0.0186877 1.78906e-07
2.40438e-07 1.78906e-07 0.0108451

0.0332911 -0.00328743 -2.06354e-07
-0.00328743 0.0286323 -1.43046e-07
-2.06354e-07 -1.43046e-07 0.030124

0.0207268 0.000913411 3.2202e-08
0.000913411 0.0300313 1.82744e-08
3.2202e-08 1.82744e-08 0.0183464

0.0313004 -0.0037817 1.87877e-07
-0.0037817 0.0292312 -6.58027e-08
1.87877e-07 -6.58027e-08 0.0290315

0.00153956 -0.00651879 1.58872e-08
-0.00651879 0.0275684 -6.96064e-08
1.58872e-08 -6.96064e-08 0.00290832

0.00146996 0.00636834 4.28594e-08
0.00636834 0.0275863 1.87779e-07
4.28594e-08 1.87779e-07 0.00300127

0.0119846 0.014505 -1.34376e-07
0.014505 0.0175325 -1.68502e-07
-1.34376e-07 -1.68502e-07 0.00277119

0.0121659 -0.0144956 -1.40466e-07
-0.0144956 0.0172239 1.76139e-07
-1.40466e-07 1.76139e-07 0.0028038

0.0293407 -0.000164089 -2.15984e-07
-0.000164089 0 0
-2.15984e-07 0 0.00295262

0.0235923 -0.0112826 -1.26675e-07
-0.0112826 0.00539546 6.10035e-08
-1.26675e-07 6.10035e-08 0.00297836

0.0236341 0.0113489 8.29524e-08
0.0113489 0.00544956 3.99478e-08
8.29524e-08 3.99478e-08 0.00303948

0.0369112 0.0019112 -1.97125e-07
0.0019112 0.0302423 -3.73942e-08
-1.97125e-07 -3.73942e-08 0.0338779

0.0387055 0.00340972 -2.27169e-07
0.00340972 0.0366174 8.29229e-09
-2.27169e-07 8.29229e-09 0.0355786

0.0344152 0.000872461 7.2641e-08
0.000872461 0.0274569 4.88665e-08
7.2641e-08 4.88665e-08 0.031688

0.032873 0.00285035 1.27582e-07
0.00285035 0.0268893 1.15986e-07
1.27582e-07 1.15986e-07 0.0286465

0.0257008 0.00231319 4.37966e-08
0.00231319 0.0323673 3.27773e-08
4.37966e-08 3.27773e-08 0.0276358

0.030713 0.00376889 -8.92041e-08
0.00376889 0.0276763 -1.22991e-07
-8.92041e-08 -1.22991e-07 0.0271179

0.033306 -0.0039032 1.45507e-07
-0.0039032 0.030466 2.91381e-07
1.45507e-07 2.91381e-07 0.0316301

0.0309736 0.00365439 8.92772e-08
0.00365439 0.0272872 1.72636e-07
8.92772e-08 1.72636e-07 0.0269255

0.0249873 -0.000371622 -1.02454e-07
-0.000371622 0.0331222 1.82709e-07
-1.02454e-07 1.82709e-07 0.0268434

0.0385482 -0.0034846 -1.46793e-07
-0.0034846 0.0368812 -1.0454e-07
-1.46793e-07 -1.0454e-07 0.0355842

0.0251758 -0.000635563 1.62959e-07
-0.000635563 0.0332105 -2.08658e-07
1.62959e-07 -2.08658e-07 0.027103

0.0360181 0.00304759 8.49897e-08
0.00304759 0.0330113 7.23715e-08
8.49897e-08 7.23715e-08 0.0340983

0.0296234 0.00347578 -1.06072e-07
0.00347578 0.0248464 4.158e-08
-1.06072e-07 4.158e-08 0.023023

0.0304963 -0.00171391 5.43357e-08
-0.00171391 0.0375129 -1.94847e-07
5.43357e-08 -1.94847e-07 0.0347368

0.0339205 0.00180443 -6.11429e-08
0.00180443 0.0271819 2.43095e-07
-6.11429e-08 2.43095e-07 0.0303208

0.0312015 -0.00392036 -2.94761e-08
-0.00392036 0.0285313 -1.48374e-07
-2.94761e-08 -1.48374e-07 0.0286148

0.0315838 -0.00322131 -2.15934e-07
-0.00322131 0.026692 -4.76864e-09
-2.15934e-07 -4.76864e-09 0.027048

0.0384797 -0.00214128 -7.77667e-08
-0.00214128 0.0334176 -1.96422e-07
-7.77667e-08 -1.96422e-07 0.0347453

0.0326814 0.0036643 1.50874e-07
0.0036643 0.0292323 -8.95294e-08
1.50874e-07 -8.95294e-08 0.0301554

0.0326448 0.00313762 1.16886e-07
0.00313762 0.0272527 -1.5772e-07
1.16886e-07 -1.5772e-07 0.0287883

0.0269555 -0.000365194 1.65872e-07
-0.000365194 0.0349873 1.69549e-08
1.65872e-07 1.69549e-08 0.0301684

0.0259 0.000765791 6.22743e-08
0.000765791 0.0340038 1.75814e-07
6.22743e-08 1.75814e-07 0.0288234

0.0327787 0.000345271 -1.11314e-07
0.000345271 0.0248621 -2.08813e-07
-1.11314e-07 -2.08813e-07 0.0274442

0.0313875 -0.000945005 -1.53278e-08
-0.000945005 0.0230042 -9.14544e-08
-1.53278e-08 -9.14544e-08 0.0238925

0.030881 0.0039851 -4.73668e-08
0.0039851 0.0288065 -7.72471e-08
-4.73668e-08 -7.72471e-08 0.0286246

0.0331187 -0.00343155 -1.25697e-07
-0.00343155 0.0285408 -1.49521e-07
-1.25697e-07 -1.49521e-07 0.0299697

0.0364134 -0.00282385 -8.11222e-08
-0.00282385 0.0327331 -1.48141e-07
-8.11222e-08 -1.48141e-07 0.0341445

0.0292066 -0.00412792 -1.00761e-07
-0.00412792 0.0291928 -8.60396e-08
-1.00761e-07 -8.60396e-08 0.0277543

0.0269724 -0.00362041 1.76642e-07
-0.00362041 0.0304654 -3.82702e-08
1.76642e-07 -3.82702e-08 0.0272138

0.0283267 0.00389964 2.1337e-08
0.00389964 0.0299015 1.48333e-07
2.1337e-08 1.48333e-07 0.0277524

0.0259017 -0.00124906 7.50589e-08
-0.00124906 0.0336138 -9.74638e-08
7.50589e-08 -9.74638e-08 0.0285164

0.0266549 -0.000202048 1.5452e-07
-0.000202048 0.0349136 4.87863e-08
1.5452e-07 4.87863e-08 0.0299203

0.0277628 0.000753012 1.66971e-07
0.000753012 0.0360389 1.88586e-08
1.66971e-07 1.88586e-08 0.0316586

0.0262476 -0.00274958 -1.77706e-07
-0.00274958 0.0319637 1.8536e-07
-1.77706e-07 1.8536e-07 0.0277111

0.0345833 0.003176 -1.50957e-08
0.003176 0.0291686 -9.93762e-08
-1.50957e-08 -9.93762e-08 0.0316349

0.0339101 -0.00126104 3.04098e-08
-0.00126104 0.0269306 -1.51555e-08
3.04098e-08 -1.51555e-08 0.0302021

0.0257907 0.000974484 -6.85139e-08
0.000974484 0.0338301 -1.40851e-07
-6.85139e-08 -1.40851e-07 0.0285424

0.0278244 -0.00127008 7.95403e-08
-0.00127008 0.035398 1.66233e-07
7.95403e-08 1.66233e-07 0.0313665

0.0272935 -0.00213715 2.05325e-08
-0.00213715 0.0336575 -2.35076e-08
2.05325e-08 -2.35076e-08 0.0302261

0.0327772 -0.00107731 -2.39224e-07
-0.00107731 0.0253203 6.9376e-08
-2.39224e-07 6.9376e-08 0.0272547

0.0333158 -0.00427075 -7.96795e-09
-0.00427075 0.0323812 1.7391e-07
-7.96795e-09 1.7391e-07 0.0335297

0.026489 0.0012198 1.48502e-07
0.0012198 0.0338362 -1.38157e-07
1.48502e-07 -1.38157e-07 0.0288165

0.0398112 -0.00243167 -3.39647e-07
-0.00243167 0.0352189 -2.90737e-08
-3.39647e-07 -2.90737e-08 0.0354615

0.0188891 0.0031647 5.39394e-08
0.0031647 0.0278766 -2.09618e-08
5.39394e-08 -2.09618e-08 0.0162731

0.0338161 -0.00352267 -1.01618e-07
-0.00352267 0.033495 2.47625e-08
-1.01618e-07 2.47625e-08 0.0337266

0.0353441 -0.00399933 3.65049e-09
-0.00399933 0.0330471 -1.87326e-07
3.65049e-09 -1.87326e-07 0.0339044

0.0266862 -9.03467e-05 -1.80052e-07
-9.03467e-05 0.0349187 4.1113e-08
-1.80052e-07 4.1113e-08 0.0299284

0.0332432 -0.00217649 9.51585e-08
-0.00217649 0.0271535 9.95961e-08
9.51585e-08 9.95961e-08 0.0289031

0.0293479 0.00168485 2.39168e-09
0.00168485 0.0358197 -6.05475e-08
2.39168e-09 -6.05475e-08 0.0328801

0.0132076 -0.000379159 1.23911e-07
-0.000379159 0.0283625 1.43685e-08
1.23911e-07 1.43685e-08 0.011152

0.027114 0.00186849 2.11707e-07
0.00186849 0.0340619 -1.96595e-08
2.11707e-07 -1.96595e-08 0.0303067

0.0311096 -0.00385856 6.72033e-08
-0.00385856 0.0291544 4.65303e-08
6.72033e-08 4.65303e-08 0.0288068

0.01862 0.00320461 1.29608e-07
0.00320461 0.0301399 1.88099e-07
1.29608e-07 1.88099e-07 0.013127

0.0426015 0.00351787 2.17899e-07
0.00351787 0.0418486 2.85725e-07
2.17899e-07 2.85725e-07 0.0364807

0.043206 -0.00374836 1.12859e-07
-0.00374836 0.0414175 -1.22325e-07
1.12859e-07 -1.22325e-07 0.0364632

0.0310655 -0.00399075 -4.14668e-08
-0.00399075 0.0304715 2.95588e-07
-4.14668e-08 2.95588e-07 0.0304614

0.0289224 -0.00406428 3.04833e-08
-0.00406428 0.0291508 4.6142e-08
3.04833e-08 4.6142e-08 0.0275947

0.0330512 0.0027268 -3.24451e-08
0.0027268 0.0275288 8.06435e-08
-3.24451e-08 8.06435e-08 0.0290758

0.0327801 0.00196022 -1.88747e-08
0.00196022 0.0255914 1.0634e-07
-1.88747e-08 1.0634e-07 0.0278231

0.0464016 0.000418534 -5.75206e-07
0.000418534 0.046356 3.48001e-07
-5.75206e-07 3.48001e-07 0.0366949

0.0469183 -0.00095158 -3.30866e-07
-0.00095158 0.0457687 1.13806e-07
-3.30866e-07 1.13806e-07 0.036766

0.0347999 0.000638336 1.73845e-07
0.000638336 0.0275733 -3.9037e-08
1.73845e-07 -3.9037e-08 0.0322168

0.0277521 0.000882318 1.99617e-07
0.000882318 0.0355706 1.23791e-09
1.99617e-07 1.23791e-09 0.0313489

0.0276079 0.000882857 -2.10761e-07
0.000882857 0.0355708 -1.04847e-08
-2.10761e-07 -1.04847e-08 0.031245

0.0234593 0.00740002 1.33224e-07
0.00740002 0.018302 -2.62219e-07
1.33224e-07 -2.62219e-07 0.0109017

0.0272473 -0.0036755 -5.89828e-08
-0.0036755 0.0303477 4.15103e-08
-5.89828e-08 4.15103e-08 0.0273197

0.036567 0.00239163 -1.15747e-07
0.00239163 0.0295763 -1.41496e-07
-1.15747e-07 -1.41496e-07 0.0337847

0.0332743 0.00124754 1.98066e-08
0.00124754 0.0265044 3.19654e-08
1.98066e-08 3.19654e-08 0.0284321

0.0291528 -0.0034925 -2.48777e-08
-0.0034925 0.0304716 -5.50881e-08
-2.48777e-08 -5.50881e-08 0.0281735

0.0328111 -0.00264773 3.28071e-08
-0.00264773 0.0267282 3.37173e-09
3.28071e-08 3.37173e-09 0.028587

0.0224603 0.0076128 1.34557e-07
0.0076128 0.0185905 -1.83827e-07
1.34557e-07 -1.83827e-07 0.0109041

0.033145 0.00410244 1.39418e-08
0.00410244 0.0326385 9.33347e-08
1.39418e-08 9.33347e-08 0.0331819

0.0258904 -0.00257819 1.43649e-08
-0.00257819 0.0320242 -1.98639e-07
1.43649e-08 -1.98639e-07 0.0275076

0.0324829 0.00378578 8.09745e-10
0.00378578 0.0292683 1.14174e-07
8.09745e-10 1.14174e-07 0.0301471

0.0268161 -0.000543856 -1.60415e-07
-0.000543856 0.0349522 -1.63971e-08
-1.60415e-07 -1.63971e-08 0.0301381

0.0269901 0.00256343 9.33855e-08
0.00256343 0.0324486 1.91373e-07
9.33855e-08 1.91373e-07 0.0282866

0.0305267 0.00399106 2.99734e-08
0.00399106 0.0293234 1.16738e-07
2.99734e-08 1.16738e-07 0.0287753

0.0276088 -0.00293719 2.6572e-08
-0.00293719 0.0318542 2.2171e-07
2.6572e-08 2.2171e-07 0.0282492

0.0294563 -0.00357578 -2.49991e-08
-0.00357578 0.0303514 4.37437e-08
-2.49991e-08 4.37437e-08 0.0283052

0.0181378 0.00142553 -3.98365e-08
0.00142553 0.0280366 -1.18987e-07
-3.98365e-08 -1.18987e-07 0.0131276

0.023474 -0.00429404 -1.36231e-07
-0.00429404 0.0275563 1.85235e-07
-1.36231e-07 1.85235e-07 0.0177234

0.0262056 -0.0015261 -8.53444e-08
-0.0015261 0.0336242 1.52184e-07
-8.53444e-08 1.52184e-07 0.028752

0.0330236 0.00347492 -1.5484e-07
0.00347492 0.028878 -6.8194e-08
-1.5484e-07 -6.8194e-08 0.030069

0.0303218 0.00385757 2.98852e-09
0.00385757 0.0298867 1.47267e-07
2.98852e-09 1.47267e-07 0.0289904

0.0274144 -0.00280069 9.61682e-08
-0.00280069 0.0319838 -1.92818e-07
9.61682e-08 -1.92818e-07 0.0281392

0.0265548 -0.0015407 6.84981e-08
-0.0015407 0.0335823 -9.78215e-08
6.84981e-08 -9.78215e-08 0.0287464

0.0309565 0.00371821 -6.09852e-09
0.00371821 0.0295636 -1.58328e-07
-6.09852e-09 -1.58328e-07 0.0289413

0.0267594 -0.00181614 -2.01856e-07
-0.00181614 0.0334746 1.27276e-07
-2.01856e-07 1.27276e-07 0.0289544

0.0191661 0.00355447 -4.76797e-08
0.00355447 0.0276078 5.59692e-08
-4.76797e-08 5.59692e-08 0.0162922

0.0308735 -0.000534775 1.10387e-07
-0.000534775 0.0388191 -1.59499e-07
1.10387e-07 -1.59499e-07 0.0342945

0.0286565 0.00404789 1.04924e-07
0.00404789 0.0295186 -1.70553e-07
1.04924e-07 -1.70553e-07 0.0277146

0.0355805 0.0019752 -8.11737e-08
0.0019752 0.029503 -1.34028e-07
-8.11737e-08 -1.34028e-07 0.0328427

0.0362593 -0.00211474 -1.14708e-07
-0.00211474 0.0297555 -3.90107e-08
-1.14708e-07 -3.90107e-08 0.0332179

0.0285107 -0.00309578 1.78693e-07
-0.00309578 0.018569 -1.81019e-07
1.78693e-07 -1.81019e-07 0.01573

0.0283537 -0.00278974 1.10497e-07
-0.00278974 0.0327759 -1.31724e-07
1.10497e-07 -1.31724e-07 0.0305717

0.0291912 0.00350077 1.59191e-07
0.00350077 0.0315997 -2.3771e-08
1.59191e-07 -2.3771e-08 0.0304875

0.0349599 -0.00290712 2.40695e-07
-0.00290712 0.0376757 2.42614e-07
2.40695e-07 2.42614e-07 0.0352361

0.0394601 0.00188508 -4.71963e-07
0.00188508 0.0446079 -1.374e-07
-4.71963e-07 -1.374e-07 0.036433

0.0449441 0.00129013 -1.5063e-07
0.00129013 0.039116 -6.57881e-09
-1.5063e-07 -6.57881e-09 0.0364148

0.0355603 0.00434552 -2.64488e-07
0.00434552 0.0351348 -1.8108e-07
-2.64488e-07 -1.8108e-07 0.0350034

0.0265718 0.00338799 1.10524e-07
0.00338799 0.0310063 1.45814e-07
1.10524e-07 1.45814e-07 0.0272559

0.0330392 0.00349717 -8.04949e-08
0.00349717 0.028667 -2.55104e-07
-8.04949e-08 -2.55104e-07 0.0300501

0.0220599 0.00576423 -1.72784e-07
0.00576423 0.0242377 -5.43763e-08
-1.72784e-07 -5.43763e-08 0.0160724

0.0386181 -0.00151219 -3.72382e-08
-0.00151219 0.0444325 4.75936e-08
-3.72382e-08 4.75936e-08 0.0363621

0.0460479 -0.00046356 4.05413e-07
-0.00046356 0.0454374 -4.80492e-07
4.05413e-07 -4.80492e-07 0.036691

0.0451798 -3.12096e-05 -9.06907e-08
-3.12096e-05 0.0463028 -4.00955e-07
-9.06907e-08 -4.00955e-07 0.036673

0.0176409 -0.0067949 4.30815e-08
-0.0067949 0.0231084 -3.12179e-07
4.30815e-08 -3.12179e-07 0.0107386

0.0392922 -0.0015557 -1.2803e-07
-0.0015557 0.0387144 -8.95982e-08
-1.2803e-07 -8.95982e-08 0.0358536

0.0383966 0.0011766 1.73639e-07
0.0011766 0.0415173 2.84039e-08
1.73639e-07 2.84039e-08 0.036125

0.0331753 -0.00343582 -2.46354e-08
-0.00343582 0.0282196 8.37076e-08
-2.46354e-08 8.37076e-08 0.0299036

0.0318445 0.000140572 -1.07561e-07
0.000140572 0.0386718 -1.37371e-07
-1.07561e-07 -1.37371e-07 0.0344504

0.0285769 -0.00266013 3.8617e-08
-0.00266013 0.0333806 -7.44621e-09
3.8617e-08 -7.44621e-09 0.0315893

0.0356621 0.000831742 1.9069e-07
0.000831742 0.0273778 -2.65165e-08
1.9069e-07 -2.65165e-08 0.0330002

0.0288759 0.00204412 -4.46238e-08
0.00204412 0.0368164 1.84854e-07
-4.46238e-08 1.84854e-07 0.0336697

0.0298695 0.000946338 -3.11433e-08
0.000946338 0.0373886 1.71854e-07
-3.11433e-08 1.71854e-07 0.0333636

0.0344014 0.00268493 -2.17954e-07
0.00268493 0.0288517 -2.37908e-07
-2.17954e-07 -2.37908e-07 0.0312263

0.0132792 -0.00040943 -1.17381e-07
-0.00040943 0.0281229 9.06774e-08
-1.17381e-07 9.06774e-08 0.0112014

0.0309648 -0.00362614 1.21551e-07
-0.00362614 0.0309155 -4.86049e-08
1.21551e-07 -4.86049e-08 0.0306096

0.0329286 -0.00344324 2.58335e-07
-0.00344324 0.0320206 -1.12553e-07
2.58335e-07 -1.12553e-07 0.0325794

0.0335711 -0.00415936 -2.21129e-07
-0.00415936 0.0325348 2.07941e-07
-2.21129e-07 2.07941e-07 0.0337358

0.0265623 0.00414866 5.83218e-08
0.00414866 0.0176916 1.65491e-07
5.83218e-08 1.65491e-07 0.0126052

0.0388279 -0.00269621 -2.87685e-07
-0.00269621 0.039576 -1.25673e-07
-2.87685e-07 -1.25673e-07 0.0359584

0.023083 0.00692073 -8.18989e-11
0.00692073 0.0255021 1.75601e-07
-8.18989e-11 1.75601e-07 0.0126096

0.0308746 -0.00281775 2.7608e-07
-0.00281775 0.0348076 3.59557e-08
2.7608e-07 3.59557e-08 0.0339564

0.0354119 0.00193666 1.21501e-07
0.00193666 0.0284659 1.1847e-07
1.21501e-07 1.1847e-07 0.0323447

0.0318211 -0.00189347 -1.30821e-07
-0.00189347 0.0249508 9.82609e-08
-1.30821e-07 9.82609e-08 0.0253956

0.0292925 0.00315915 1.58145e-07
0.00315915 0.0327317 -2.0379e-08
1.58145e-07 -2.0379e-08 0.0312798

0.0344368 0.00268865 -2.89292e-07
0.00268865 0.0286347 -6.85803e-08
-2.89292e-07 -6.85803e-08 0.031221

0.0325188 0.00149905 -1.23363e-09
0.00149905 0.0403736 -1.95354e-07
-1.23363e-09 -1.95354e-07 0.0353366

0.0319409 -0.00415452 -6.22757e-08
-0.00415452 0.0312014 4.83805e-08
-6.22757e-08 4.83805e-08 0.0318107

0.0396764 0.00265572 3.05161e-07
0.00265572 0.0331983 -1.68453e-07
3.05161e-07 -1.68453e-07 0.035316

0.0279718 -0.00241849 4.9388e-08
-0.00241849 0.0335512 -1.89383e-08
4.9388e-08 -1.89383e-08 0.0304707

0.0293511 0.000558776 -8.75493e-08
0.000558776 0.0373124 1.65865e-07
-8.75493e-08 1.65865e-07 0.0332527

0.0419438 0.0013374 -5.0621e-09
0.0013374 0.0371 -2.04909e-08
-5.0621e-09 -2.04909e-08 0.0361163

0.0420973 -0.00114787 7.24217e-08
-0.00114787 0.0373267 -8.19053e-08
7.24217e-08 -8.19053e-08 0.0360982

0.0283833 0.00236906 -2.92213e-07
0.00236906 0.0181817 2.18317e-07
-2.92213e-07 2.18317e-07 0.0159499

0.035026 0.00106144 1.0855e-07
0.00106144 0.0285663 1.19288e-07
1.0855e-07 1.19288e-07 0.0330592

0.0128671 0.000923332 -8.35385e-08
0.000923332 0.0316267 -1.62129e-07
-8.35385e-08 -1.62129e-07 0.00612176

0.0131626 -0.00138815 1.25456e-07
-0.00138815 0.0321325 1.14988e-07
1.25456e-07 1.14988e-07 0.00611208

0.0152689 0.00715435 -1.40698e-07
0.00715435 0.0284533 -1.482e-07
-1.40698e-07 -1.482e-07 0.00598419

0.0347643 -0.00382123 -2.90972e-09
-0.00382123 0.0312682 -1.6062e-07
-2.90972e-09 -1.6062e-07 0.0329393

0.0155809 -0.00619436 -1.68534e-07
-0.00619436 0.0261532 2.1418e-07
-1.68534e-07 2.1418e-07 0.0104721

0.015513 -0.00708685 -1.9219e-07
-0.00708685 0.0274239 -6.65195e-09
-1.9219e-07 -6.65195e-09 0.005914

0.0284264 0.00342575 2.33908e-08
0.00342575 0.0310066 1.45605e-07
2.33908e-08 1.45605e-07 0.028153

0.0251937 0.00932598 1.05454e-07
0.00932598 0.019021 -2.14559e-07
1.05454e-07 -2.14559e-07 0.0059339

0.0365381 0.00173198 1.77934e-07
0.00173198 0.0385518 -6.39273e-08
1.77934e-07 -6.39273e-08 0.0354753

0.0395351 2.55484e-05 -2.23317e-07
2.55484e-05 0.0355398 6.40307e-08
-2.23317e-07 6.40307e-08 0.0354559

0.0261075 -0.00924449 1.71914e-07
-0.00924449 0.0188127 2.42244e-07
1.71914e-07 2.42244e-07 0.00588807

0.0276902 -0.0030653 2.32534e-08
-0.0030653 0.0320951 -7.04361e-08
2.32534e-08 -7.04361e-08 0.0296231

0.0262556 0.00441821 1.73618e-07
0.00441821 0.0201581 -2.77947e-07
1.73618e-07 -2.77947e-07 0.0130448

0.0172795 0.00797317 -3.44562e-07
0.00797317 0.0271493 7.35026e-08
-3.44562e-07 7.35026e-08 0.00598791

0.0181964 0.00275515 -1.4363e-07
0.00275515 0.0275902 -1.01593e-07
-1.4363e-07 -1.01593e-07 0.0128502

0.0173044 -0.00827632 -4.45739e-08
-0.00827632 0.0271527 -5.11433e-08
-4.45739e-08 -5.11433e-08 0.00581383

0.0179331 -0.001571 6.29004e-08
-0.001571 0.0280057 -7.60477e-09
6.29004e-08 -7.60477e-09 0.0126907

0.0370503 0.000923235 -5.1402e-08
0.000923235 0.0413003 7.87377e-08
-5.1402e-08 7.87377e-08 0.0358101

0.0221314 -0.0058552 1.57054e-07
-0.0058552 0.0236648 -7.75705e-08
1.57054e-07 -7.75705e-08 0.0151591

0.0157003 0.00598623 -2.80883e-07
0.00598623 0.0259026 2.14174e-07
-2.80883e-07 2.14174e-07 0.0107503

0.0302089 0.00473017 -8.86702e-08
0.00473017 0.0143495 2.21688e-07
-8.86702e-08 2.21688e-07 0.0061159

0.0329388 -0.00384948 -2.46231e-07
-0.00384948 0.0301246 -8.80959e-09
-2.46231e-07 -8.80959e-09 0.0310515

0.0308889 0.0016939 -7.5405e-08
0.0016939 0.0368429 1.8623e-07
-7.5405e-08 1.8623e-07 0.0339504

0.0260901 -0.00484401 3.44999e-07
-0.00484401 0.0191976 7.89516e-08
3.44999e-07 7.89516e-08 0.0126952

0.0330011 -0.00378599 -2.3081e-07
-0.00378599 0.0300754 2.77982e-08
-2.3081e-07 2.77982e-08 0.0311278

0.0300192 -0.00451994 -2.48245e-08
-0.00451994 0.0130537 -3.32243e-07
-2.48245e-08 -3.32243e-07 0.00603734

0.0324737 -0.00372748 -1.82797e-07
-0.00372748 0.0313076 -1.28391e-07
-1.82797e-07 -1.28391e-07 0.0319796

0.0280913 -0.0033111 1.66984e-07
-0.0033111 0.0320036 3.75225e-08
1.66984e-07 3.75225e-08 0.0296256

0.0234437 0.00874375 7.15177e-08
0.00874375 0.0204831 -3.10297e-07
7.15177e-08 -3.10297e-07 0.00602624

0.0181999 -0.00292073 -3.285e-07
-0.00292073 0.0268667 -1.6637e-07
-3.285e-07 -1.6637e-07 0.0122701

0.0233149 -0.00901929 -1.17485e-07
-0.00901929 0.0201522 -1.21332e-07
-1.17485e-07 -1.21332e-07 0.00588406

0.0170826 0.00640831 1.26052e-07
0.00640831 0.0235661 1.93642e-07
1.26052e-07 1.93642e-07 0.0108311

0.0308264 -0.00396039 1.23809e-07
-0.00396039 0.0301608 -4.15665e-08
1.23809e-07 -4.15665e-08 0.0300857

0.0389176 -0.00195886 1.41359e-08
-0.00195886 0.0369408 3.09323e-07
1.41359e-08 3.09323e-07 0.0354996

0.045541 0.00150562 -2.39632e-07
0.00150562 0.0449523 -3.60895e-07
-2.39632e-07 -3.60895e-07 0.0366192

0.0435652 -0.000711528 2.48692e-07
-0.000711528 0.0462302 -3.32509e-08
2.48692e-07 -3.32509e-08 0.0365849

0.0286158 0.001716 1.00584e-07
0.001716 0.0355667 -1.90559e-07
1.00584e-07 -1.90559e-07 0.0323898

0.0453363 -0.00144855 -5.08348e-07
-0.00144855 0.0449796 3.16711e-07
-5.08348e-07 3.16711e-07 0.0366369

0.0438079 0.000567363 4.12539e-08
0.000567363 0.0465049 1.88441e-07
4.12539e-08 1.88441e-07 0.036618

0.046679 0.000991136 -8.74816e-08
0.000991136 0.0433774 -3.66082e-09
-8.74816e-08 -3.66082e-09 0.0365931

0.0397505 -0.00163949 1.44819e-07
-0.00163949 0.0460759 1.16773e-07
1.44819e-07 1.16773e-07 0.0364829

0.0190542 -0.00388736 -3.1126e-07
-0.00388736 0.0272312 -2.04433e-07
-3.1126e-07 -2.04433e-07 0.0154713

0.0421403 -0.0017502 3.12094e-07
-0.0017502 0.0367255 2.4936e-07
3.12094e-07 2.4936e-07 0.0360049

0.0359647 -0.00457321 2.63376e-07
-0.00457321 0.0351504 1.52676e-07
2.63376e-07 1.52676e-07 0.0349683

0.0397529 -0.00242209 -6.85251e-08
-0.00242209 0.0360636 5.89459e-08
-6.85251e-08 5.89459e-08 0.0355674

0.0351851 0.00204329 2.45081e-07
0.00204329 0.0285494 -3.45405e-08
2.45081e-07 -3.45405e-08 0.0322321

0.0396924 0.00133726 1.66199e-07
0.00133726 0.0472245 -5.56452e-07
1.66199e-07 -5.56452e-07 0.0365487

0.0464969 0.00259414 -1.70686e-07
0.00259414 0.0404188 -3.27937e-07
-1.70686e-07 -3.27937e-07 0.0365299

0.0400871 0.00150559 -1.40083e-07
0.00150559 0.0366737 -2.30482e-07
-1.40083e-07 -2.30482e-07 0.0356154

0.0279148 -0.00191994 -4.96356e-08
-0.00191994 0.0125247 -3.3112e-07
-4.96356e-08 -3.3112e-07 0.0106246

0.0283193 0.00326766 -3.53269e-08
0.00326766 0.03155 -9.90493e-08
-3.53269e-08 -9.90493e-08 0.0294109

0.0231884 -0.00773612 -2.29071e-07
-0.00773612 0.0181801 -3.30017e-08
-2.29071e-07 -3.30017e-08 0.0102895

0.022831 -0.00731588 -1.59994e-07
-0.00731588 0.0257688 2.15569e-07
-1.59994e-07 2.15569e-07 0.0119546

0.0290228 -0.00464704 -1.24559e-07
-0.00464704 0.0191284 -1.2416e-07
-1.24559e-07 -1.2416e-07 0.0126152

0.0375744 -0.000660517 -1.85672e-07
-0.000660517 0.0449116 2.71142e-07
-1.85672e-07 2.71142e-07 0.0362939

0.0375721 0.000358303 3.83092e-08
0.000358303 0.04479 -3.1556e-07
3.83092e-08 -3.1556e-07 0.0362741

0.042606 -0.00327449 1.8206e-07
-0.00327449 0.0394501 -2.28862e-07
1.8206e-07 -2.28862e-07 0.0362279

0.0429991 -0.00294457 -1.5557e-07
-0.00294457 0.0391687 -7.56587e-08
-1.5557e-07 -7.56587e-08 0.0362349

0.0425015 0.00350417 1.0496e-07
0.00350417 0.0399722 3.04676e-08
1.0496e-07 3.04676e-08 0.0362728

0.0443985 0.000418148 -6.43918e-07
0.000418148 0.0450806 -1.23668e-06
-6.43918e-07 -1.23668e-06 0.0366361

0.0426086 -0.00274452 1.15792e-07
-0.00274452 0.0395068 3.72456e-08
1.15792e-07 3.72456e-08 0.0362896

0.0426031 -0.00251159 -3.97811e-08
-0.00251159 0.0442674 6.47129e-07
-3.97811e-08 6.47129e-07 0.0365637

0.0451182 0.000331557 9.68162e-08
0.000331557 0.0454679 3.71821e-07
9.68162e-08 3.71821e-07 0.0366544

0.0436375 -0.0027831 -6.76209e-08
-0.0027831 0.0389167 2.88249e-08
-6.76209e-08 2.88249e-08 0.0363302

0.0435121 0.00283893 4.12293e-07
0.00283893 0.0390695 4.32389e-08
4.12293e-07 4.32389e-08 0.0363683

0.0451938 -0.000471138 6.28827e-07
-0.000471138 0.045582 -3.74325e-07
6.28827e-07 -3.74325e-07 0.0367031

0.045227 -0.000425084 -1.84017e-07
-0.000425084 0.0443591 5.59249e-07
-1.84017e-07 5.59249e-07 0.0367214

0.0427994 0.00163813 2.41867e-07
0.00163813 0.0442493 -1.53201e-07
2.41867e-07 -1.53201e-07 0.0366075

0.0411164 0.0036183 1.5246e-07
0.0036183 0.0405161 1.67299e-07
1.5246e-07 1.67299e-07 0.0363221

SCALARS pressure float
LOOKUP_TABLE default
-60.0533
19.3087
5.80408
21.2905
15.8789
5.88805
-58.6764
7.78369
-3.80433
15.1249
-24.4329
7.61785
5.59263
12.2797
23.3374
5.53953
18.5211
13.2079
-0.692166
6.75734
-0.904256
33.1326
5.80155
5.79757
6.60261
14.9034
-38.3863
6.67243
-15.2422
30.6248
5.17688
-15.657
-42.0575
27.3253
20.7784
27.3582
31.883
19.8084
4.86017
-42.6008
-17.4073
31.9038
31.9919
5.99409
-21.8054
-15.9757
-1.05179
-3.40496
6.54553
-16.2177
-18.9188
-15.3456
20.7554
-15.3729
20.3086
-33.1493
21.1289
-15.46
21.1387
7.04566
21.765
16.1189
-45.5631
12.79
16.3622
10.9055
21.5743
13.8287
5.77422
21.8174
20.8115
20.7821
-17.6909
11.601
3.97453
-31.6106
14.3567
10.9967
14.1468
-8.71957
-28.9452
14.9776
20.1634
-22.0381
-23.4295
-28.0926
7.09851
9.63281
-22.2161
37.7393
-15.5087
38.4419
18.3044
10.762
-15.1663
-15.8726
-30.2217
14.7538
14.3657
4.59926
-10.7659
-21.9395
-25.1018
16.2134
14.1008
14.962
18.6978
3.77532
-24.5587
26.5131
7.21832
-21.4093
-24.6123
14.8385
15.0784
-16.1454
20.1642
-29.1136
20.6278
-16.7291
-2.90411
23.8336
21.7275
16.0332
26.6797
22.6316
21.7849
15.7088
-29.7813
-16.0987
24.0914
21.6177
20.9895
22.066
-22.0139
23.5863
-33.838
5.46393
21.7545
23.6296
-21.9368
6.6769
-5.96621
15.0841
-30.4079
15.6244
7.83383
2.40818
5.17833
-9.39408
-0.457398
22.6419
-15.4544
5.29153
15.2047
21.5609
11.5086
-21.1133
-21.2638
10.7911
-2.84226
-15.1974
-21.2208
-15.1651
-20.9864
15.28
-20.6358
-21.2016
-15.2077
-21.0638
19.0042
-15.9408
-14.8243
12.0648
-14.4844
18.8031
19.0533
7.47334
18.0478
11.7736
-16.2489
15.2885
14.9613
-21.5285
10.4269
-14.2212
16.0489
14.5959
17.0818
14.8355
10.3442
-26.9766
-16.082
-15.958
21.9073
14.5264
14.6253
20.9228
22.4873
9.50311
21.7341
-0.384086
-8.17043
20.779
-17.8387
19.9458
10.3646
-21.5176
15.7214
22.5265
14.7313
9.39399
14.1905
21.0558
-7.83245
8.82802
-7.90827
14.6486
26.9277
26.5813
27.9604
26.3885
26.7243
26.2909
13.8264
23.43
24.0292
23.9734
23.3997
21.1926
21.8571
-8.26253
15.934
28.1911
-3.18833
23.5758
23.2051
27.8344
-8.49325
28.0964
15.3449
-7.58127
17.4923
-8.2575
20.2274
29.6127
-7.48566
-8.10045
-29.5924
-18.1891
19.5275
-31.986
5.73473
-7.79365
-1.18902
28.2492
26.6403
30.4253
26.761
-34.8016
-8.17935
28.3374
8.07335
-8.29487
26.4459
-6.29497
30.4702
-7.95377
27.0471
14.5663
14.7877
23.8449
10.0479
18.0209
8.1175
-29.8605
-24.5536
16.8068
1.76008
8.17999
-13.6086
17.436
11.7002
-8.10121
9.45251
-10.8232
7.51734
-10.7544
-8.48445
33.2629
19.1516
25.0881
25.3123
13.8296
-10.4042
26.4291
14.6852
-1.65867
-10.2736
-12.564
17.5065
-7.48492
17.5745
-12.041
-21.3508
-10.608
-34.6818
15.5628
-7.76266
34.4408
-11.5777
16.8717
-8.40847
15.973
-12.7581
4.28942
-51.1195
8.52217
-7.74633
21.3337
-8.15186
-0.122516
10.7156
21.1246
-12.0604
-10.2005
-6.06801
14.3183
-10.1798
6.88825
6.38613
16.3054
-10.4193
-6.33014
-1.70206
-5.66021
-11.0782
-5.84444
15.3057
7.80827
-5.5558
-8.96019
7.80566
7.6945
-10.6743
16.3093
-27.2147
2.29332
-28.4816
-0.957324
-8.88059
-8.09886
-11.7816
-10.9452
-9.8835
-7.77848
-7.90184
16.6381
24.7773
12.1165
-0.291359
-0.824873
-5.67437
7.30541
-6.32049
-6.31778
24.9231
-5.7298
14.1181
-15.9082
24.3249
5.96848
-0.39092
-5.64367
16.275
2.47731
0.199305
2.44829
0.456184
-0.740567
-9.93007
-0.0953425
2.11347
15.069
-1.28802
-1.4069
-0.998566
-0.388347
1.9655
8.05095
-1.19331
8.07839
5.58353
-0.435401
7.03552
5.49057
-3.87629
16.4768
-1.90323
23.0616
-21.9738
15.0444
15.6825
2.03986
-1.99734
12.5432
-26.5072
5.79258
-1.65775
-50.4839
30.4972
30.6338
5.82522
-1.1441
-1.04664
-0.849423
33.417
33.2917
13.0951
6.08209
6.66265
-28.9634
-1.27916
16.5336
-3.18256
-4.34799
-0.0167007
-25.2719
14.3036
-1.27994
2.86201
2.6934
-2.72309
-0.0490961
-3.20933
-4.03343
-37.9832
-33.6838
-0.127803
1.87465
-0.53391
-3.74405
-1.93642
-1.87758
-0.924134
-21.9077
17.2496
-0.76905
12.5654
14.1839
-26.7645
6.28651
7.13713
18.4778
36.4266
36.459
22.6386
-1.75555
2.59986
-20.9299
36.1253
32.7584
32.8254
-24.8093
21.7749
30.5226
2.59936
15.7239
10.3716
17.1646
17.7264
12.5057
5.68162
-25.3987
4.26025
10.4095
16.2441
-31.7105
28.3091
-52.711
18.6852
10.2992
-10.6272
7.41755
5.45728
24.4742
9.41132
24.4072
4.10535
12.4
30.6399
29.4656
-22.9904
17.4358
-70.2313
-74.3778
-67.1753
11.6485
-31.2606
-63.6086
-3.80335
-69.9367
16.463
16.4067
-73.7529
5.21249
-39.7303
-70.7373
-37.7563
-71.8737
-39.4518
21.1363
-23.9604
-29.0445
-70.6211
4.83158
15.7577
-36.1902
6.05374
-63.6163
9.83617
3.88199
-67.8997
-37.6239
-66.4093
-23.756
5.02937
20.5258
35.3703
36.726
11.8123
36.8498
36.9031
36.4915
36.4039
-24.4791
28.2478
20.6691
21.9803
11.5349
36.0598
36.0913
18.1198
-23.9408
3.24683
-30.5269
-56.5972
-50.4742
36.143
35.8238
35.3804
35.4506
36.159
35.5982
33.1096
37.3704
35.3996
36.0058
35.6381
34.196
34.3326
35.856
35.3094
